# vtk DataFile Version 2.0
Calculation C:\Users\NickSteudtner\Documents\GitHub\TOCHNOG\standsicherheit_phiC at time 6.000000000000e+00 
ASCII
DATASET UNSTRUCTURED_GRID
Field FieldData 1
Time 1 1 double
6.000000000000e+00

POINTS 1137 float
0.0 0.0 0.0 
5.000000000000e+01 -1.000000000000e+01 0.0 
0.0 -2.000000000000e+01 0.0 
5.000000000000e+01 -2.000000000000e+01 0.0 
0.0 -9.999999999991e-01 0.0 
0.0 -1.999999999998e+00 0.0 
0.0 -2.999999999997e+00 0.0 
0.0 -3.999999999994e+00 0.0 
0.0 -4.999999999991e+00 0.0 
0.0 -5.999999999988e+00 0.0 
0.0 -6.999999999985e+00 0.0 
0.0 -7.999999999982e+00 0.0 
0.0 -8.999999999983e+00 0.0 
0.0 -9.999999999985e+00 0.0 
0.0 -1.099999999999e+01 0.0 
0.0 -1.199999999999e+01 0.0 
0.0 -1.299999999999e+01 0.0 
0.0 -1.399999999999e+01 0.0 
0.0 -1.499999999999e+01 0.0 
0.0 -1.599999999999e+01 0.0 
0.0 -1.700000000000e+01 0.0 
0.0 -1.800000000000e+01 0.0 
0.0 -1.900000000000e+01 0.0 
4.900000000001e+01 -2.000000000000e+01 0.0 
4.800000000001e+01 -2.000000000000e+01 0.0 
4.700000000002e+01 -2.000000000000e+01 0.0 
4.600000000003e+01 -2.000000000000e+01 0.0 
4.500000000004e+01 -2.000000000000e+01 0.0 
4.400000000004e+01 -2.000000000000e+01 0.0 
4.300000000005e+01 -2.000000000000e+01 0.0 
4.200000000006e+01 -2.000000000000e+01 0.0 
4.100000000006e+01 -2.000000000000e+01 0.0 
4.000000000007e+01 -2.000000000000e+01 0.0 
3.900000000008e+01 -2.000000000000e+01 0.0 
3.800000000009e+01 -2.000000000000e+01 0.0 
3.700000000009e+01 -2.000000000000e+01 0.0 
3.600000000010e+01 -2.000000000000e+01 0.0 
3.500000000011e+01 -2.000000000000e+01 0.0 
3.400000000011e+01 -2.000000000000e+01 0.0 
3.300000000012e+01 -2.000000000000e+01 0.0 
3.200000000013e+01 -2.000000000000e+01 0.0 
3.100000000013e+01 -2.000000000000e+01 0.0 
3.000000000013e+01 -2.000000000000e+01 0.0 
2.900000000013e+01 -2.000000000000e+01 0.0 
2.800000000013e+01 -2.000000000000e+01 0.0 
2.700000000013e+01 -2.000000000000e+01 0.0 
2.600000000013e+01 -2.000000000000e+01 0.0 
2.500000000013e+01 -2.000000000000e+01 0.0 
2.400000000013e+01 -2.000000000000e+01 0.0 
2.300000000013e+01 -2.000000000000e+01 0.0 
2.200000000013e+01 -2.000000000000e+01 0.0 
2.100000000013e+01 -2.000000000000e+01 0.0 
2.000000000013e+01 -2.000000000000e+01 0.0 
1.900000000013e+01 -2.000000000000e+01 0.0 
1.800000000013e+01 -2.000000000000e+01 0.0 
1.700000000012e+01 -2.000000000000e+01 0.0 
1.600000000011e+01 -2.000000000000e+01 0.0 
1.500000000011e+01 -2.000000000000e+01 0.0 
1.400000000010e+01 -2.000000000000e+01 0.0 
1.300000000009e+01 -2.000000000000e+01 0.0 
1.200000000009e+01 -2.000000000000e+01 0.0 
1.100000000008e+01 -2.000000000000e+01 0.0 
1.000000000007e+01 -2.000000000000e+01 0.0 
9.000000000064e+00 -2.000000000000e+01 0.0 
8.000000000057e+00 -2.000000000000e+01 0.0 
7.000000000050e+00 -2.000000000000e+01 0.0 
6.000000000043e+00 -2.000000000000e+01 0.0 
5.000000000036e+00 -2.000000000000e+01 0.0 
4.000000000028e+00 -2.000000000000e+01 0.0 
3.000000000021e+00 -2.000000000000e+01 0.0 
2.000000000014e+00 -2.000000000000e+01 0.0 
1.000000000007e+00 -2.000000000000e+01 0.0 
5.000000000000e+01 -1.100000000000e+01 0.0 
5.000000000000e+01 -1.200000000000e+01 0.0 
5.000000000000e+01 -1.300000000000e+01 0.0 
5.000000000000e+01 -1.400000000000e+01 0.0 
5.000000000000e+01 -1.500000000000e+01 0.0 
5.000000000000e+01 -1.600000000000e+01 0.0 
5.000000000000e+01 -1.700000000000e+01 0.0 
5.000000000000e+01 -1.800000000000e+01 0.0 
5.000000000000e+01 -1.900000000000e+01 0.0 
2.000000000000e+01 0.0 0.0 
3.500000000000e+01 -1.000000000000e+01 0.0 
2.150000000000e+01 -1.000000000000e+00 0.0 
2.300000000000e+01 -2.000000000000e+00 0.0 
2.450000000000e+01 -3.000000000000e+00 0.0 
2.600000000000e+01 -4.000000000000e+00 0.0 
2.750000000000e+01 -5.000000000000e+00 0.0 
2.900000000000e+01 -6.000000000000e+00 0.0 
3.050000000000e+01 -7.000000000000e+00 0.0 
3.200000000000e+01 -8.000000000000e+00 0.0 
3.350000000000e+01 -9.000000000000e+00 0.0 
5.000000000000e+01 -5.000000000000e+00 0.0 
5.000000000000e+01 -6.000000000000e+00 0.0 
5.000000000000e+01 -7.000000000000e+00 0.0 
5.000000000000e+01 -8.000000000000e+00 0.0 
5.000000000000e+01 -9.000000000000e+00 0.0 
4.900000000000e+01 -1.000000000000e+01 0.0 
4.800000000000e+01 -1.000000000000e+01 0.0 
4.700000000000e+01 -1.000000000000e+01 0.0 
4.600000000000e+01 -1.000000000000e+01 0.0 
4.500000000000e+01 -1.000000000000e+01 0.0 
4.400000000000e+01 -1.000000000000e+01 0.0 
4.300000000000e+01 -1.000000000000e+01 0.0 
4.200000000000e+01 -1.000000000000e+01 0.0 
4.100000000000e+01 -1.000000000000e+01 0.0 
4.000000000000e+01 -1.000000000000e+01 0.0 
3.900000000000e+01 -1.000000000000e+01 0.0 
3.800000000000e+01 -1.000000000000e+01 0.0 
3.700000000000e+01 -1.000000000000e+01 0.0 
3.600000000000e+01 -1.000000000000e+01 0.0 
1.900000000000e+01 0.0 0.0 
1.800000000000e+01 0.0 0.0 
1.700000000000e+01 0.0 0.0 
1.600000000000e+01 0.0 0.0 
1.500000000000e+01 0.0 0.0 
1.400000000000e+01 0.0 0.0 
1.300000000000e+01 0.0 0.0 
1.200000000000e+01 0.0 0.0 
1.100000000000e+01 0.0 0.0 
1.000000000000e+01 0.0 0.0 
9.000000000000e+00 0.0 0.0 
8.000000000000e+00 0.0 0.0 
7.000000000000e+00 0.0 0.0 
6.000000000000e+00 0.0 0.0 
5.000000000000e+00 0.0 0.0 
4.000000000000e+00 0.0 0.0 
3.000000000000e+00 0.0 0.0 
2.000000000000e+00 0.0 0.0 
1.000000000000e+00 0.0 0.0 
2.847826086957e+01 -5.000000000000e+00 0.0 
2.945652173913e+01 -5.000000000000e+00 0.0 
3.043478260870e+01 -5.000000000000e+00 0.0 
3.141304347826e+01 -5.000000000000e+00 0.0 
3.239130434783e+01 -5.000000000000e+00 0.0 
3.336956521739e+01 -5.000000000000e+00 0.0 
3.434782608696e+01 -5.000000000000e+00 0.0 
3.532608695652e+01 -5.000000000000e+00 0.0 
3.630434782609e+01 -5.000000000000e+00 0.0 
3.728260869565e+01 -5.000000000000e+00 0.0 
3.826086956522e+01 -5.000000000000e+00 0.0 
3.923913043478e+01 -5.000000000000e+00 0.0 
4.021739130435e+01 -5.000000000000e+00 0.0 
4.119565217391e+01 -5.000000000000e+00 0.0 
4.217391304348e+01 -5.000000000000e+00 0.0 
4.315217391304e+01 -5.000000000000e+00 0.0 
4.413043478261e+01 -5.000000000000e+00 0.0 
4.510869565217e+01 -5.000000000000e+00 0.0 
4.608695652174e+01 -5.000000000000e+00 0.0 
4.706521739130e+01 -5.000000000000e+00 0.0 
4.804347826087e+01 -5.000000000000e+00 0.0 
4.902173913043e+01 -5.000000000000e+00 0.0 
4.900000000001e+01 -6.000000000000e+00 0.0 
4.800000000003e+01 -6.000000000000e+00 0.0 
4.700000000004e+01 -6.000000000000e+00 0.0 
4.600000000006e+01 -6.000000000000e+00 0.0 
4.500000000007e+01 -6.000000000000e+00 0.0 
4.400000000009e+01 -6.000000000000e+00 0.0 
4.300000000010e+01 -6.000000000000e+00 0.0 
4.200000000012e+01 -6.000000000000e+00 0.0 
4.100000000013e+01 -6.000000000000e+00 0.0 
4.000000000014e+01 -6.000000000000e+00 0.0 
3.900000000014e+01 -6.000000000000e+00 0.0 
3.800000000012e+01 -6.000000000000e+00 0.0 
3.700000000010e+01 -6.000000000000e+00 0.0 
3.600000000008e+01 -6.000000000000e+00 0.0 
3.500000000006e+01 -6.000000000000e+00 0.0 
3.400000000005e+01 -6.000000000000e+00 0.0 
3.300000000003e+01 -6.000000000000e+00 0.0 
3.200000000001e+01 -6.000000000000e+00 0.0 
3.100000000000e+01 -6.000000000000e+00 0.0 
3.000000000000e+01 -6.000000000000e+00 0.0 
3.147499999998e+01 -7.000000000000e+00 0.0 
3.244999999998e+01 -7.000000000000e+00 0.0 
3.342499999998e+01 -7.000000000000e+00 0.0 
3.439999999998e+01 -7.000000000000e+00 0.0 
3.537499999998e+01 -7.000000000000e+00 0.0 
3.634999999998e+01 -7.000000000000e+00 0.0 
3.732499999998e+01 -7.000000000000e+00 0.0 
3.829999999998e+01 -7.000000000000e+00 0.0 
3.927499999999e+01 -7.000000000000e+00 0.0 
4.024999999999e+01 -7.000000000000e+00 0.0 
4.122499999999e+01 -7.000000000000e+00 0.0 
4.219999999999e+01 -7.000000000000e+00 0.0 
4.317499999999e+01 -7.000000000000e+00 0.0 
4.414999999999e+01 -7.000000000000e+00 0.0 
4.512499999999e+01 -7.000000000000e+00 0.0 
4.609999999999e+01 -7.000000000000e+00 0.0 
4.707500000000e+01 -7.000000000000e+00 0.0 
4.805000000000e+01 -7.000000000000e+00 0.0 
4.902500000000e+01 -7.000000000000e+00 0.0 
4.900000000000e+01 -8.000000000000e+00 0.0 
4.800000000000e+01 -8.000000000000e+00 0.0 
4.700000000000e+01 -8.000000000000e+00 0.0 
4.600000000000e+01 -8.000000000000e+00 0.0 
4.500000000000e+01 -8.000000000000e+00 0.0 
4.400000000000e+01 -8.000000000000e+00 0.0 
4.300000000000e+01 -8.000000000000e+00 0.0 
4.200000000000e+01 -8.000000000000e+00 0.0 
4.100000000000e+01 -8.000000000000e+00 0.0 
4.000000000000e+01 -8.000000000000e+00 0.0 
3.900000000000e+01 -8.000000000000e+00 0.0 
3.800000000000e+01 -8.000000000000e+00 0.0 
3.700000000000e+01 -8.000000000000e+00 0.0 
3.600000000000e+01 -8.000000000000e+00 0.0 
3.500000000000e+01 -8.000000000000e+00 0.0 
3.400000000000e+01 -8.000000000000e+00 0.0 
3.300000000000e+01 -8.000000000000e+00 0.0 
3.447058823527e+01 -9.000000000000e+00 0.0 
3.544117647055e+01 -9.000000000000e+00 0.0 
3.641176470582e+01 -9.000000000000e+00 0.0 
3.738235294109e+01 -9.000000000000e+00 0.0 
3.835294117637e+01 -9.000000000000e+00 0.0 
3.932352941164e+01 -9.000000000000e+00 0.0 
4.029411764691e+01 -9.000000000000e+00 0.0 
4.126470588219e+01 -9.000000000000e+00 0.0 
4.223529411748e+01 -9.000000000000e+00 0.0 
4.320588235279e+01 -9.000000000000e+00 0.0 
4.417647058811e+01 -9.000000000000e+00 0.0 
4.514705882342e+01 -9.000000000000e+00 0.0 
4.611764705874e+01 -9.000000000000e+00 0.0 
4.708823529405e+01 -9.000000000000e+00 0.0 
4.805882352937e+01 -9.000000000000e+00 0.0 
4.902941176468e+01 -9.000000000000e+00 0.0 
2.075000000000e+01 -5.000000000006e-01 0.0 
2.225000000000e+01 -1.500000000000e+00 0.0 
2.375000000000e+01 -2.500000000000e+00 0.0 
2.525000000000e+01 -3.500000000000e+00 0.0 
2.675000000000e+01 -4.500000000000e+00 0.0 
2.825000000000e+01 -5.500000000000e+00 0.0 
2.975000000000e+01 -6.500000000000e+00 0.0 
3.125000000000e+01 -7.500000000000e+00 0.0 
3.275000000000e+01 -8.500000000000e+00 0.0 
3.425000000000e+01 -9.500000000000e+00 0.0 
2.226951693683e+01 -2.403913980114e+00 0.0 
1.650149491944e+01 -1.913490915758e+01 0.0 
1.050042386896e+01 -8.504605092970e-01 0.0 
1.553146524712e+01 -8.281255032105e-01 0.0 
1.150000000008e+01 -1.913397459621e+01 0.0 
2.530060260647e+01 -4.428336431260e+00 0.0 
8.651114563942e-01 -1.052096295641e+01 0.0 
2.050000000013e+01 -1.913397459622e+01 0.0 
2.819198729811e+01 -6.399519052838e+00 0.0 
2.445670302931e+01 -1.915649188023e+01 0.0 
3.117591465718e+01 -8.394293040695e+00 0.0 
7.465053044742e+00 -1.920411160581e+01 0.0 
6.398295709691e+00 -8.230098819370e-01 0.0 
2.849659607461e+01 -1.914296187762e+01 0.0 
3.418732642882e+01 -1.040265792588e+01 0.0 
8.386450935063e-01 -6.533605142809e+00 0.0 
9.178661865596e-01 -1.329769195597e+01 0.0 
3.149448624493e+01 -1.910466733764e+01 0.0 
3.552916747426e+01 -1.914628590759e+01 0.0 
4.449210346537e+01 -1.914359085008e+01 0.0 
4.140975975145e+01 -1.906941860733e+01 0.0 
3.847475958753e+01 -1.916622382724e+01 0.0 
3.653774794640e+01 -1.088712800241e+01 0.0 
4.047886341787e+01 -1.090139014048e+01 0.0 
4.348006339825e+01 -1.092792621489e+01 0.0 
4.919519968029e+01 -1.451526755068e+01 0.0 
4.500000000032e+00 -1.913397459621e+01 0.0 
1.856136921614e+01 -8.212235170404e-01 0.0 
3.499895312306e+00 -8.661165539723e-01 0.0 
9.076088696565e-01 -1.642306201891e+01 0.0 
4.655174095477e+01 -1.086183387525e+01 0.0 
9.430688970604e-01 -3.496112672958e+00 0.0 
3.353992337063e+01 -1.901202090820e+01 0.0 
2.249746016977e+01 -1.921262287282e+01 0.0 
2.650122741777e+01 -1.916123026018e+01 0.0 
1.863571384842e+01 -1.908325534840e+01 0.0 
1.450089971693e+01 -1.917691901860e+01 0.0 
1.350044695317e+01 -8.659695299584e-01 0.0 
3.849987469880e+01 -1.084154983397e+01 0.0 
9.454419857884e+00 -1.900818879936e+01 0.0 
4.917398660523e+01 -1.645692866081e+01 0.0 
8.500000000000e+00 -8.660254037844e-01 0.0 
8.660319230785e-01 -8.500111697188e+00 0.0 
4.649022621545e+01 -1.930506220113e+01 0.0 
2.667688107845e+01 -5.420288124331e+00 0.0 
2.379251615665e+01 -3.412225477429e+00 0.0 
2.966631491830e+01 -7.389030232731e+00 0.0 
3.267915035995e+01 -9.396934932445e+00 0.0 
2.074836922338e+01 -1.320054020319e+00 0.0 
4.915985743621e+01 -1.261973384855e+01 0.0 
2.527129768623e+00 -1.931592414663e+01 0.0 
1.538676247410e+00 -8.436956619311e-01 0.0 
4.908096641539e+01 -1.842484004551e+01 0.0 
3.478612492673e+01 -1.090889364140e+01 0.0 
3.409757055860e+01 -1.131991530427e+01 0.0 
3.501895309466e+01 -1.177687842717e+01 0.0 
3.407758073088e+01 -1.224293381580e+01 0.0 
3.484541875390e+01 -1.277051428430e+01 0.0 
3.400322025842e+01 -1.319022775640e+01 0.0 
3.321672625034e+01 -1.266779191233e+01 0.0 
3.315244139236e+01 -1.360984106532e+01 0.0 
3.236335186892e+01 -1.308463225210e+01 0.0 
3.478337442841e+01 -1.372341158982e+01 0.0 
3.230105923633e+01 -1.403023731610e+01 0.0 
3.150954055289e+01 -1.350301767700e+01 0.0 
3.144604792090e+01 -1.444931742516e+01 0.0 
3.065653897123e+01 -1.392357262981e+01 0.0 
3.071897610812e+01 -1.297447031198e+01 0.0 
2.986790411740e+01 -1.339226181535e+01 0.0 
2.993181466745e+01 -1.244703272398e+01 0.0 
2.908023061869e+01 -1.286254537734e+01 0.0 
2.901619051372e+01 -1.380881655279e+01 0.0 
2.822986160390e+01 -1.327695262116e+01 0.0 
2.829453476870e+01 -1.233265343811e+01 0.0 
2.744542905518e+01 -1.274510491105e+01 0.0 
2.751120089246e+01 -1.180368086886e+01 0.0 
2.666218649885e+01 -1.221619339205e+01 0.0 
2.672371209234e+01 -1.127125228527e+01 0.0 
2.587763216302e+01 -1.168539979114e+01 0.0 
2.581165585299e+01 -1.262994410089e+01 0.0 
2.502890882577e+01 -1.209827323619e+01 0.0 
2.509631327757e+01 -1.115492410304e+01 0.0 
2.424662989877e+01 -1.156630981079e+01 0.0 
2.431704046904e+01 -1.062389179334e+01 0.0 
2.346445438728e+01 -1.103427680694e+01 0.0 
2.339382552877e+01 -1.197964871788e+01 0.0 
2.260936050780e+01 -1.144513277642e+01 0.0 
2.268075012022e+01 -1.049911928216e+01 0.0 
2.182525737661e+01 -1.090920811464e+01 0.0 
2.189682319817e+01 -9.961716944568e+00 0.0 
2.104174127792e+01 -1.037266986667e+01 0.0 
2.111304367575e+01 -9.424179358711e+00 0.0 
2.025306185381e+01 -9.832727364719e+00 0.0 
2.018141124247e+01 -1.079140628871e+01 0.0 
1.938594498257e+01 -1.025147354112e+01 0.0 
1.946106490453e+01 -9.288010758448e+00 0.0 
1.858929958352e+01 -9.706319802516e+00 0.0 
1.851540991219e+01 -1.067205988724e+01 0.0 
1.771485303178e+01 -1.012504443115e+01 0.0 
1.764134552256e+01 -1.109360378538e+01 0.0 
1.683745148095e+01 -1.054496365337e+01 0.0 
1.691852964353e+01 -9.582555261178e+00 0.0 
1.603603813062e+01 -1.000160132379e+01 0.0 
1.595824239350e+01 -1.096750698862e+01 0.0 
1.515080624291e+01 -1.041639501931e+01 0.0 
1.523171602559e+01 -9.451711491453e+00 0.0 
1.434621060709e+01 -9.871956467464e+00 0.0 
1.426777178765e+01 -1.083749501371e+01 0.0 
1.345775282374e+01 -1.028803175500e+01 0.0 
1.354103873368e+01 -9.324918457162e+00 0.0 
1.265072018622e+01 -9.742612837270e+00 0.0 
1.257285762070e+01 -1.071557782384e+01 0.0 
1.175874815690e+01 -1.015972324288e+01 0.0 
1.184203019714e+01 -9.193604071377e+00 0.0 
1.094927709905e+01 -9.612103238656e+00 0.0 
1.086938022910e+01 -1.058685085646e+01 0.0 
1.005424098961e+01 -1.002939116380e+01 0.0 
9.977974613295e+00 -1.101324897989e+01 0.0 
1.012915646404e+01 -9.051815821181e+00 0.0 
9.237127782494e+00 -9.471239055559e+00 0.0 
9.308426593771e+00 -8.483376461131e+00 0.0 
8.418806073345e+00 -8.910712374517e+00 0.0 
2.253688464062e+01 -1.239459402279e+01 0.0 
8.495126726666e+00 -7.921646665254e+00 0.0 
9.389727383206e+00 -7.512103628377e+00 0.0 
7.601560812974e+00 -8.349460349344e+00 0.0 
7.525680547759e+00 -9.339736686940e+00 0.0 
7.677888324502e+00 -7.359727833346e+00 0.0 
6.782001206724e+00 -7.788454494773e+00 0.0 
6.858778622885e+00 -6.797338062822e+00 0.0 
2.196596590865e+01 -8.979025665442e+00 0.0 
2.816540108272e+01 -1.422634142353e+01 0.0 
5.961601194403e+00 -7.226824010712e+00 0.0 
6.038171749656e+00 -6.234825887079e+00 0.0 
6.936257279557e+00 -5.805287640737e+00 0.0 
6.115068918323e+00 -5.242109758768e+00 0.0 
3.564391741903e+01 -1.329240553876e+01 0.0 
3.558115605778e+01 -1.425902892003e+01 0.0 
3.645445282201e+01 -1.381970786460e+01 0.0 
3.639744204358e+01 -1.479198128612e+01 0.0 
3.727266909778e+01 -1.435399586226e+01 0.0 
5.216667013081e+00 -5.671788584287e+00 0.0 
3.220697293295e+01 -1.499594545107e+01 0.0 
3.551112158269e+01 -1.523479869250e+01 0.0 
2.836056961467e+01 -1.139032434851e+01 0.0 
2.516730388602e+01 -1.021382726837e+01 0.0 
1.844436907403e+01 -1.164097215196e+01 0.0 
5.885434318740e+00 -8.218694781467e+00 0.0 
5.064071066867e+00 -7.656614643901e+00 0.0 
4.988089103470e+00 -8.649722082718e+00 0.0 
1.079421050408e+01 -1.157014985435e+01 0.0 
9.902420005256e+00 -1.199903342656e+01 0.0 
1.071994252214e+01 -1.255727909771e+01 0.0 
9.826974788171e+00 -1.298659581767e+01 0.0 
1.064607883789e+01 -1.354595476388e+01 0.0 
9.751541265343e+00 -1.397556905071e+01 0.0 
8.932296185869e+00 -1.341553353988e+01 0.0 
8.856399248106e+00 -1.440570715508e+01 0.0 
8.036186803543e+00 -1.384470558472e+01 0.0 
1.057112875118e+01 -1.453516759081e+01 0.0 
1.146582585687e+01 -1.410539926903e+01 0.0 
7.959894480382e+00 -1.483563350928e+01 0.0 
7.138792279156e+00 -1.427465094140e+01 0.0 
7.062506792418e+00 -1.526615385482e+01 0.0 
6.240693558277e+00 -1.470508863040e+01 0.0 
6.316957575451e+00 -1.371212581281e+01 0.0 
5.418183007107e+00 -1.414253605022e+01 0.0 
5.494748364428e+00 -1.314886770603e+01 0.0 
1.756825565873e+01 -1.206433872514e+01 0.0 
1.837565773345e+01 -1.261356468266e+01 0.0 
1.749574831391e+01 -1.303769280014e+01 0.0 
1.830539187332e+01 -1.358828364284e+01 0.0 
1.742278925170e+01 -1.401367746928e+01 0.0 
1.823303007798e+01 -1.456432294258e+01 0.0 
1.734941694138e+01 -1.499213734361e+01 0.0 
1.653760041637e+01 -1.443920312098e+01 0.0 
3.056237977307e+01 -1.487132260174e+01 0.0 
1.866469084762e+01 -8.742953000418e+00 0.0 
1.953669694916e+01 -8.326038909849e+00 0.0 
1.874194303780e+01 -7.780688158966e+00 0.0 
1.961032016741e+01 -7.366854697285e+00 0.0 
1.881715755159e+01 -6.821102209649e+00 0.0 
1.968369797150e+01 -6.407747217358e+00 0.0 
1.889237123259e+01 -5.858375520026e+00 0.0 
1.802038875366e+01 -6.276202618170e+00 0.0 
1.809793837984e+01 -5.307629520489e+00 0.0 
1.721985207997e+01 -5.728242054488e+00 0.0 
1.729850893523e+01 -4.756990819347e+00 0.0 
1.641745664240e+01 -5.174636548624e+00 0.0 
2.495978509456e+01 -1.304406404294e+01 0.0 
1.911567814831e+01 -1.413854250293e+01 0.0 
1.904387332608e+01 -1.511463127723e+01 0.0 
1.992115934240e+01 -1.468788025898e+01 0.0 
7.013706899628e+00 -4.812582868662e+00 0.0 
5.342091874585e+00 -1.513658157269e+01 0.0 
1.139098043784e+01 -1.509488509480e+01 0.0 
1.228151810610e+01 -1.465617481983e+01 0.0 
1.646373110164e+01 -1.541993323337e+01 0.0 
5.293328636712e+00 -4.678385108584e+00 0.0 
1.975965862987e+01 -5.448124345648e+00 0.0 
2.054318374236e+01 -5.992561293251e+00 0.0 
3.721453439063e+01 -1.533216152738e+01 0.0 
3.809302733893e+01 -1.489235527381e+01 0.0 
1.220852788900e+01 -1.565304565230e+01 0.0 
4.394120899730e+00 -5.108397613210e+00 0.0 
8.779354620288e+00 -1.539524721159e+01 0.0 
1.817791047702e+01 -4.338570146253e+00 0.0 
4.518860013839e+00 -1.457343189307e+01 0.0 
4.442712140414e+00 -1.556841391069e+01 0.0 
8.115343466391e+00 -1.285760324283e+01 0.0 
1.985334703171e+01 -1.566478400426e+01 0.0 
2.071953850276e+01 -1.522074243119e+01 0.0 
1.634012953883e+01 -6.154777738301e+00 0.0 
1.553479994708e+01 -5.593730508879e+00 0.0 
1.561265946942e+01 -4.617761762647e+00 0.0 
1.470674212978e+01 -5.064576488228e+00 0.0 
1.464498299883e+01 -6.026514471420e+00 0.0 
1.383271561817e+01 -5.467796261169e+00 0.0 
1.389241253067e+01 -4.504338666645e+00 0.0 
1.301868735463e+01 -4.907185188626e+00 0.0 
1.294514184846e+01 -5.888160903592e+00 0.0 
1.212955968622e+01 -5.328262335277e+00 0.0 
1.220721122383e+01 -4.341264976687e+00 0.0 
1.131324345897e+01 -4.766773516508e+00 0.0 
5.266597955397e+00 -1.613148974258e+01 0.0 
1.737805990867e+01 -3.786677807525e+00 0.0 
3.078438094513e+01 -1.203225297748e+01 0.0 
1.131569882285e+01 -1.608511932110e+01 0.0 
1.728478341782e+01 -1.596017432313e+01 0.0 
3.803465906019e+01 -1.587509751228e+01 0.0 
3.891681276677e+01 -1.543395196905e+01 0.0 
3.897340985302e+01 -1.444710288980e+01 0.0 
3.980095968193e+01 -1.499059496613e+01 0.0 
3.974334598189e+01 -1.597921884150e+01 0.0 
4.062964983717e+01 -1.553518690417e+01 0.0 
4.068729602479e+01 -1.454434445295e+01 0.0 
4.151772679790e+01 -1.508974196007e+01 0.0 
4.157505195739e+01 -1.409694289912e+01 0.0 
4.240699932656e+01 -1.464347955968e+01 0.0 
4.234898051011e+01 -1.563721375790e+01 0.0 
4.323934606035e+01 -1.519082036405e+01 0.0 
4.329740528208e+01 -1.419587509788e+01 0.0 
4.413056841369e+01 -1.474359631875e+01 0.0 
4.418850110108e+01 -1.374786684042e+01 0.0 
4.502219770667e+01 -1.429605103525e+01 0.0 
4.496411937907e+01 -1.529215882720e+01 0.0 
4.490027319897e+00 -4.154167794594e+00 0.0 
1.565080385988e+01 -1.486411982419e+01 0.0 
1.557610691279e+01 -1.584855627870e+01 0.0 
4.195350646612e+00 -8.089117689096e+00 0.0 
4.124027797830e+00 -9.082831955007e+00 0.0 
4.917944318925e+00 -9.643530901533e+00 0.0 
4.020105689502e+00 -1.007439673661e+01 0.0 
4.587185899277e+01 -1.484039992728e+01 0.0 
4.580078661551e+01 -1.584043391042e+01 0.0 
2.061956522375e+01 -5.046701343981e+00 0.0 
2.139572955529e+01 -5.579553449826e+00 0.0 
3.715344357292e+01 -1.631485124583e+01 0.0 
3.618886196443e+00 -1.500471207167e+01 0.0 
3.695606940204e+00 -1.400939692294e+01 0.0 
2.438890661143e+01 -9.686110599723e+00 0.0 
2.523267572778e+01 -9.276766000622e+00 0.0 
2.446094171539e+01 -8.751904591412e+00 0.0 
2.529089822738e+01 -8.321495612547e+00 0.0 
2.606882688827e+01 -8.864724051119e+00 0.0 
2.452116646430e+01 -7.792756462004e+00 0.0 
1.235543269617e+01 -1.365845617339e+01 0.0 
4.318116874181e+01 -1.618567469992e+01 0.0 
7.835066111909e+00 -5.376366223896e+00 0.0 
7.905687335704e+00 -4.382539065697e+00 0.0 
3.542640009567e+00 -1.600035116542e+01 0.0 
1.572431503071e+01 -1.388358386695e+01 0.0 
2.574684696680e+01 -1.357896141127e+01 0.0 
2.488842657651e+01 -1.399674354505e+01 0.0 
2.568301775611e+01 -1.453552048595e+01 0.0 
2.481535572009e+01 -1.495542756508e+01 0.0 
2.561729699688e+01 -1.549784648532e+01 0.0 
2.474623061296e+01 -1.592058894178e+01 0.0 
2.394234041695e+01 -1.537572575827e+01 0.0 
2.065825452567e+01 -1.621899055217e+01 0.0 
2.387180528935e+01 -1.634552264687e+01 0.0 
4.585364400844e+01 -1.383912334080e+01 0.0 
1.998744432052e+01 -1.370317155541e+01 0.0 
1.205356951443e+01 -6.313580285498e+00 0.0 
5.396543905849e+00 -3.731818611283e+00 0.0 
1.139652573295e+01 -3.745819399350e+00 0.0 
3.574124306703e+00 -4.551456826011e+00 0.0 
3.494140761930e+00 -5.539787055649e+00 0.0 
1.213651452413e+01 -1.664505033022e+01 0.0 
2.555045568519e+01 -1.646529356744e+01 0.0 
2.641671114986e+01 -1.603899382371e+01 0.0 
2.612920721894e+01 -7.906435260873e+00 0.0 
2.690339829698e+01 -8.456969591431e+00 0.0 
1.978024383368e+01 -1.664410216353e+01 0.0 
3.732829979082e+01 -1.336926601859e+01 0.0 
4.074336584605e+01 -1.355133328401e+01 0.0 
4.163204691081e+01 -1.310280943992e+01 0.0 
3.773826114429e+00 -3.493444309145e+00 0.0 
1.228783001032e+01 -3.374822835872e+00 0.0 
4.057110462520e+01 -1.652588478000e+01 0.0 
2.132535497898e+01 -6.523623360525e+00 0.0 
2.216932532211e+01 -6.110044769206e+00 0.0 
1.825781152128e+01 -3.370146817147e+00 0.0 
1.745679445888e+01 -2.812942552063e+00 0.0 
4.666517057280e+01 -1.539981381543e+01 0.0 
4.660575894464e+01 -1.639014410186e+01 0.0 
4.838230979954e+00 -1.063643436446e+01 0.0 
3.938942630206e+00 -1.106778981745e+01 0.0 
1.302967218620e+01 -1.621373452436e+01 0.0 
1.049548003190e+01 -4.204825123240e+00 0.0 
4.573571907195e+01 -1.683820511148e+01 0.0 
1.483686335807e+01 -1.430849689310e+01 0.0 
1.490982658890e+01 -1.332679386284e+01 0.0 
3.190805600162e+00 -9.510968358545e+00 0.0 
2.146625721848e+01 -4.642437303115e+00 0.0 
2.069866208266e+01 -4.111852942193e+00 0.0 
1.286859345584e+01 -6.873252723348e+00 0.0 
1.041794493184e+01 -5.194814260291e+00 0.0 
2.671081808965e+00 -4.976806516331e+00 0.0 
1.295786792925e+01 -1.720506531799e+01 0.0 
3.968438206511e+01 -1.696869067241e+01 0.0 
2.308550456051e+01 -1.579963151273e+01 0.0 
2.315593682844e+01 -1.482967445235e+01 0.0 
2.299471449450e+01 -1.677069968132e+01 0.0 
1.057344714696e+01 -3.214252277840e+00 0.0 
1.124057603753e+01 -1.707713739755e+01 0.0 
2.718402535754e+00 -1.543629882103e+01 0.0 
2.638549692805e+01 -1.696744916809e+01 0.0 
2.723416349007e+01 -1.658104204545e+01 0.0 
2.210193351704e+01 -7.046769643417e+00 0.0 
2.295180925161e+01 -6.657397605239e+00 0.0 
2.301355235833e+01 -5.709111896800e+00 0.0 
2.379052718281e+01 -6.254965406962e+00 0.0 
3.243528601237e+01 -1.214181853533e+01 0.0 
2.287977995457e+01 -7.583722368300e+00 0.0 
2.999876029544e+01 -1.150837653096e+01 0.0 
3.084435366963e+01 -1.109693775882e+01 0.0 
3.006650579669e+01 -1.057778994262e+01 0.0 
2.683802665066e+01 -9.386863216633e+00 0.0 
2.768641973621e+01 -8.988883915666e+00 0.0 
2.040296980397e+01 -7.903629133404e+00 0.0 
1.925235024054e+01 -1.218872783130e+01 0.0 
5.735667000424e+00 -1.020577277283e+01 0.0 
6.396559909872e+00 -1.272326295703e+01 0.0 
1.161199420714e+01 -1.212812778229e+01 0.0 
4.229046132615e+01 -1.663084237572e+01 0.0 
4.312275399692e+01 -1.718087491556e+01 0.0 
4.335502068163e+01 -1.320039231514e+01 0.0 
4.424630298089e+01 -1.275160688731e+01 0.0 
7.090116643816e+00 -3.818998061530e+00 0.0 
7.989472176569e+00 -3.389238711200e+00 0.0 
9.085824861778e+00 -1.144036167408e+01 0.0 
1.041972423731e+01 -1.651614080893e+01 0.0 
3.797525112640e+01 -1.686052038746e+01 0.0 
3.709114253394e+01 -1.730125999865e+01 0.0 
3.626966748340e+01 -1.675477052919e+01 0.0 
1.385164591440e+01 -1.677597757552e+01 0.0 
1.787152588784e+01 -8.198993896093e+00 0.0 
1.668849729812e+01 -1.248560611628e+01 0.0 
1.659546177905e+01 -3.232482605530e+00 0.0 
2.332214717345e+01 -1.292598167641e+01 0.0 
7.168238450786e+00 -2.824711686516e+00 0.0 
2.894878403906e+01 -1.475427524446e+01 0.0 
2.646763248247e+00 -1.643270107952e+01 0.0 
3.467431944285e+00 -1.699648837348e+01 0.0 
2.059475877282e+01 -1.719473628526e+01 0.0 
3.333868355437e+01 -1.080596971682e+01 0.0 
2.246451062637e+01 -1.334557761546e+01 0.0 
2.167821896388e+01 -1.280847834858e+01 0.0 
3.089653185767e+01 -1.017198487212e+01 0.0 
3.012604365669e+01 -9.657298805968e+00 0.0 
2.929627299435e+01 -1.006100135274e+01 0.0 
2.936201435219e+01 -9.136748899251e+00 0.0 
1.198219052702e+01 -7.291887238230e+00 0.0 
1.116702076035e+01 -6.731976101053e+00 0.0 
2.551388807505e+01 -1.746927036981e+01 0.0 
2.378639090370e+01 -1.728678807149e+01 0.0 
2.718543627188e+01 -1.748668016909e+01 0.0 
2.804681050301e+01 -1.712626668293e+01 0.0 
1.970737034667e+01 -1.762317646822e+01 0.0 
1.889535776135e+01 -1.707158098231e+01 0.0 
2.593777711283e+00 -5.971157087874e+00 0.0 
2.773468281110e+01 -8.067164273938e+00 0.0 
4.051205884347e+01 -1.751819982458e+01 0.0 
3.166903145421e+01 -1.068032992414e+01 0.0 
1.033042452886e+01 -1.748285844336e+01 0.0 
9.519274604626e+00 -1.694349240233e+01 0.0 
1.668308673328e+01 -2.255861778986e+00 0.0 
1.570531902832e+01 -2.676795860126e+00 0.0 
4.655826903379e+01 -1.736656245706e+01 0.0 
2.384148070773e+01 -5.328744256413e+00 0.0 
2.460255123641e+01 -5.852182672816e+00 0.0 
2.306638135119e+01 -4.798935440613e+00 0.0 
8.467720450578e-01 -1.849576263072e+01 0.0 
4.849657322345e+01 -1.084860705506e+01 0.0 
2.565860899507e+00 -1.742859793981e+01 0.0 
2.764418872564e+01 -9.927142821799e+00 0.0 
4.565165880064e+01 -1.785336695404e+01 0.0 
2.162231831329e+01 -1.376528337468e+01 0.0 
2.360646352969e+01 -9.136041963102e+00 0.0 
1.392738739903e+01 -1.578285505772e+01 0.0 
4.756405947478e+01 -1.683706841809e+01 0.0 
4.740895034054e+01 -1.793766756892e+01 0.0 
4.080779328826e+01 -1.257387192544e+01 0.0 
4.168907939671e+01 -1.210739129181e+01 0.0 
3.991197722154e+01 -1.300815793917e+01 0.0 
1.905536506762e+01 -3.940076697685e+00 0.0 
1.923879596617e+01 -2.875000734166e+00 0.0 
4.401386745746e+01 -1.673483229438e+01 0.0 
4.247233362525e+00 -7.094581653070e+00 0.0 
3.286051630211e+00 -7.635300020553e+00 0.0 
9.609533347623e+00 -4.594311677967e+00 0.0 
9.523554636369e+00 -5.595597029530e+00 0.0 
5.660336628893e+00 -1.119290329628e+01 0.0 
6.558070063295e+00 -1.076385809362e+01 0.0 
2.809866407414e+01 -1.518037766799e+01 0.0 
2.888868674504e+01 -1.570360690070e+01 0.0 
2.654431550819e+01 -1.411217777162e+01 0.0 
1.402158265969e+01 -1.375404617952e+01 0.0 
1.409592494026e+01 -1.277071998942e+01 0.0 
1.499355196178e+01 -1.235270737023e+01 0.0 
4.221535326155e+01 -1.759335617494e+01 0.0 
4.305583287033e+01 -1.822663146802e+01 0.0 
1.280748808359e+01 -7.834332838285e+00 0.0 
1.368988389326e+01 -7.420529606172e+00 0.0 
1.110091796060e+01 -7.683966794328e+00 0.0 
3.963446145980e+01 -1.794331310122e+01 0.0 
3.423932362213e+00 -1.796415590455e+01 0.0 
4.280814572302e+00 -1.752272834860e+01 0.0 
8.050136380041e+00 -2.421582378631e+00 0.0 
8.888674091650e+00 -2.984264211327e+00 0.0 
2.152839430898e+01 -3.732609965436e+00 0.0 
2.077799585292e+01 -3.183896021866e+00 0.0 
3.618719395821e+01 -1.770276572576e+01 0.0 
3.538165138340e+01 -1.718709995539e+01 0.0 
3.702925326420e+01 -1.828844288807e+01 0.0 
1.756739438711e+00 -5.353284859169e+00 0.0 
2.233710191104e+01 -1.527265621324e+01 0.0 
1.389483555057e+01 -1.771797164730e+01 0.0 
1.475634224300e+01 -1.728357428390e+01 0.0 
1.298797563052e+01 -1.825968924755e+01 0.0 
2.145331271866e+01 -1.673705379077e+01 0.0 
2.133282821169e+01 -1.769400773673e+01 0.0 
2.292139194136e+01 -1.774915400288e+01 0.0 
1.750750053243e+01 -1.861475593469e+00 0.0 
4.830478841772e+01 -1.752611802221e+01 0.0 
4.341203507805e+01 -1.220326745522e+01 0.0 
1.685254151866e+01 -1.443085301632e+00 0.0 
4.431538535165e+01 -1.171841387375e+01 0.0 
4.511308610496e+01 -1.229557320599e+01 0.0 
4.510133242889e+01 -1.123680627466e+01 0.0 
1.846818030617e+00 -4.410877617069e+00 0.0 
3.995468694584e+01 -1.186571542989e+01 0.0 
3.901387459804e+01 -1.242507616755e+01 0.0 
8.966735877533e+00 -1.837818700423e+00 0.0 
4.049310011091e+01 -1.848269508791e+01 0.0 
7.278862053803e+00 -1.918523922691e+00 0.0 
6.429715522129e+00 -2.316676521184e+00 0.0 
9.443505505022e+00 -1.792198868094e+01 0.0 
8.620386951051e+00 -1.737590365556e+01 0.0 
8.571868171503e+00 -1.834436667826e+01 0.0 
7.758629848526e+00 -1.775677907213e+01 0.0 
7.806648388584e+00 -1.680761266021e+01 0.0 
6.908555145436e+00 -1.723746463044e+01 0.0 
4.251709122090e+01 -1.156937480156e+01 0.0 
6.931136405615e+00 -1.832465719263e+01 0.0 
6.015545461353e+00 -1.768865355295e+01 0.0 
5.960535926343e+00 -1.872011001764e+01 0.0 
3.023253444786e+01 -8.761960642196e+00 0.0 
2.454622702599e+01 -6.749421992767e+00 0.0 
2.537499741604e+01 -6.347634963783e+00 0.0 
2.544077378460e+01 -5.431358513649e+00 0.0 
2.801367161747e+01 -1.820907270221e+01 0.0 
2.884507806914e+01 -1.762032095326e+01 0.0 
1.821474531936e+00 -1.588901260460e+01 0.0 
1.821006262604e+00 -1.489370287756e+01 0.0 
4.599962488908e+01 -1.176478780598e+01 0.0 
4.705457470007e+01 -1.172182804229e+01 0.0 
4.667668314802e+01 -1.263464558483e+01 0.0 
4.759648056504e+01 -1.252380987933e+01 0.0 
4.728041618103e+01 -1.341928568376e+01 0.0 
4.825209352360e+01 -1.330491640804e+01 0.0 
4.778118233428e+01 -1.420151961695e+01 0.0 
2.388192727579e+01 -1.826934810142e+01 0.0 
2.381714684947e+01 -4.385917965223e+00 0.0 
3.172733219247e+01 -9.758744265248e+00 0.0 
1.882012070658e+01 -1.805540597212e+01 0.0 
1.805667505243e+01 -1.742221226236e+01 0.0 
2.852599958080e+01 -8.597196079481e+00 0.0 
2.856486123437e+01 -7.661382718527e+00 0.0 
1.111792842875e+01 -1.818223852980e+01 0.0 
2.203322722466e+01 -7.986646678802e+00 0.0 
3.955703676900e+01 -1.903246763601e+01 0.0 
1.944842206513e+01 -8.038750575182e-01 0.0 
1.909882767783e+01 -1.746322740933e+00 0.0 
2.281147422941e+01 -8.525912918334e+00 0.0 
2.850633001468e+01 -9.533271335986e+00 0.0 
2.532883344309e+01 -7.308951659710e+00 0.0 
2.620475466461e+01 -6.979208585400e+00 0.0 
1.396278270396e+01 -1.475095389807e+01 0.0 
9.791001166724e+00 -2.554159793552e+00 0.0 
2.229293380421e+01 -4.269762271052e+00 0.0 
4.677238984118e+01 -1.430071795514e+01 0.0 
2.228658385918e+01 -3.344747535984e+00 0.0 
8.940223674553e-01 -1.543595733415e+01 0.0 
2.118566862474e+01 -8.435876987696e+00 0.0 
2.678325936437e+01 -1.032621195706e+01 0.0 
2.223400220487e+01 -5.179046761770e+00 0.0 
2.375370625384e+01 -7.251580562134e+00 0.0 
3.156971327386e+01 -1.255534750737e+01 0.0 
3.328226391312e+01 -1.172914813316e+01 0.0 
3.250948774219e+01 -1.120157009348e+01 0.0 
2.032993445717e+01 -8.867880112202e+00 0.0 
2.697226974856e+01 -7.536633082045e+00 0.0 
2.707377810386e+01 -6.590835263295e+00 0.0 
2.914099246827e+01 -1.191678458549e+01 0.0 
3.544824072239e+01 -1.621126558525e+01 0.0 
3.456511855436e+01 -1.665054783843e+01 0.0 
3.448395810225e+01 -1.759117813016e+01 0.0 
3.368378673938e+01 -1.708037781328e+01 0.0 
3.375560452567e+01 -1.610973066913e+01 0.0 
3.288001547988e+01 -1.654324255651e+01 0.0 
3.282475929147e+01 -1.749725654692e+01 0.0 
3.199880906313e+01 -1.697294088625e+01 0.0 
3.197001272932e+01 -1.811667776864e+01 0.0 
3.111884713021e+01 -1.742166785755e+01 0.0 
3.120418962865e+01 -1.642155709385e+01 0.0 
3.034666704371e+01 -1.683123833816e+01 0.0 
3.026224379976e+01 -1.772592851714e+01 0.0 
3.046632362943e+01 -1.582232843075e+01 0.0 
1.961344017324e+01 -1.857459447985e+01 0.0 
2.274975894774e+01 -9.532738811922e+00 0.0 
1.833923246887e+01 -2.396746883672e+00 0.0 
1.988859500848e+01 -2.249244376594e+00 0.0 
2.758045562861e+01 -1.086434261689e+01 0.0 
3.247300178163e+01 -1.909930104252e+01 0.0 
3.461947482503e+01 -1.911879848019e+01 0.0 
2.047161538662e+01 -6.941478180358e+00 0.0 
2.750230940214e+01 -1.915490590764e+01 0.0 
3.165081350803e+01 -1.161860780120e+01 0.0 
1.897456727641e+01 -4.889634688522e+00 0.0 
2.549338539756e+01 -1.914858252089e+01 0.0 
3.462873135081e+01 -1.567482276144e+01 0.0 
3.384432415243e+01 -1.512280684518e+01 0.0 
3.471433767690e+01 -1.469086942990e+01 0.0 
3.651470373046e+01 -1.918207952149e+01 0.0 
3.901742690249e+01 -1.345028556517e+01 0.0 
2.153224102692e+01 -1.920169709333e+01 0.0 
1.918382939341e+01 -1.316226275662e+01 0.0 
2.005389162382e+01 -1.271962165174e+01 0.0 
2.011472087878e+01 -1.175029352900e+01 0.0 
3.210679478412e+01 -1.598038618242e+01 0.0 
1.752175226543e+01 -1.914713022656e+01 0.0 
1.696897240059e+01 -1.832772588765e+01 0.0 
1.599682523337e+01 -1.832599992024e+01 0.0 
1.644507199462e+01 -1.743697981535e+01 0.0 
1.549987712903e+01 -1.915192375101e+01 0.0 
3.050250861901e+01 -1.918943550234e+01 0.0 
2.949944061527e+01 -1.922950455235e+01 0.0 
1.375892575273e+01 -6.447160534926e+00 0.0 
1.457223670180e+01 -7.006709243857e+00 0.0 
1.450818793236e+01 -7.965943451779e+00 0.0 
1.538804712402e+01 -7.553409623699e+00 0.0 
1.545817644768e+01 -6.580929593419e+00 0.0 
1.626506893751e+01 -7.129032608911e+00 0.0 
1.619833811522e+01 -8.086588580887e+00 0.0 
1.714448609609e+01 -6.697429609777e+00 0.0 
2.887616543568e+01 -1.668015232137e+01 0.0 
1.349814589130e+01 -1.918225301544e+01 0.0 
1.153887772210e+01 -1.311384581217e+01 0.0 
1.242708159886e+01 -1.267046795531e+01 0.0 
1.249799674267e+01 -1.169005616014e+01 0.0 
6.631723893693e+00 -9.774184881867e+00 0.0 
7.451471631867e+00 -1.033148796006e+01 0.0 
7.377795355458e+00 -1.132196345268e+01 0.0 
5.810931797536e+00 -9.211654212252e+00 0.0 
2.402683899133e+01 -1.441378562320e+01 0.0 
1.249768692036e+01 -1.917388426624e+01 0.0 
1.580373499437e+01 -1.290751860664e+01 0.0 
8.344650507834e+00 -9.898403995170e+00 0.0 
3.750622115305e+01 -1.086526401533e+01 0.0 
3.699391251667e+01 -1.171695900794e+01 0.0 
3.606517829518e+01 -1.173717504500e+01 0.0 
3.650257641795e+01 -1.270047380221e+01 0.0 
3.808951488918e+01 -1.183518714175e+01 0.0 
4.760380962420e+00 -1.162484888315e+01 0.0 
3.861210370848e+00 -1.205657631736e+01 0.0 
3.038284309476e+00 -1.149851280664e+01 0.0 
2.961598794889e+00 -1.248856794980e+01 0.0 
2.138953225512e+00 -1.193212674534e+01 0.0 
2.227383593457e+00 -1.096258903918e+01 0.0 
2.043265419276e+00 -1.292158472959e+01 0.0 
1.252449446028e+00 -1.225502002753e+01 0.0 
3.949985210740e+01 -1.086594001795e+01 0.0 
1.453499444792e+01 -8.768805922472e-01 0.0 
1.403518950933e+01 -1.749965556633e+00 0.0 
1.300715031023e+01 -1.714737233040e+00 0.0 
1.350929389899e+01 -2.527443911291e+00 0.0 
1.449600910711e+01 -2.595486162864e+00 0.0 
1.395693872901e+01 -3.484211041558e+00 0.0 
1.495105865208e+01 -3.364609636216e+00 0.0 
1.508822528740e+01 -1.766586020494e+00 0.0 
1.250223858430e+01 -8.634590186802e-01 0.0 
1.200279523409e+01 -1.709044504992e+00 0.0 
1.150086239419e+01 -8.592789190668e-01 0.0 
1.101482754194e+01 -1.677730591922e+00 0.0 
1.148018564526e+01 -2.659323866909e+00 0.0 
8.800552119754e+00 -3.989875954728e+00 0.0 
3.452790439430e+00 -1.901136170646e+01 0.0 
8.658451825200e-01 -9.503462241795e+00 0.0 
1.694787786797e+00 -9.000589234502e+00 0.0 
1.703436717094e+00 -8.038819004041e+00 0.0 
2.594197971110e+00 -8.563955242845e+00 0.0 
1.630513735412e+00 -9.907244747511e+00 0.0 
8.566859292791e-01 -7.512203837972e+00 0.0 
1.685461277022e+00 -7.164280248030e+00 0.0 
2.506394468801e+00 -8.623386730818e-01 0.0 
2.007475081581e+00 -1.727729545205e+00 0.0 
9.211534699767e-01 -1.628791366312e+00 0.0 
1.500000000020e+00 -2.598063549486e+00 0.0 
2.482078929963e+00 -2.553580088725e+00 0.0 
2.999795253092e+00 -1.732169015019e+00 0.0 
3.999712607169e+00 -1.728832897453e+00 0.0 
4.499752199340e+00 -8.656478679175e-01 0.0 
4.964377774841e+00 -1.730129617941e+00 0.0 
4.425017908337e+00 -2.597541756243e+00 0.0 
5.446573195014e+00 -8.410144840023e-01 0.0 
4.915722346614e+01 -1.550640962770e+01 0.0 
4.826794919243e+01 -1.600000000000e+01 0.0 
1.053139533193e+01 -1.911782884365e+01 0.0 
4.156049861949e+01 -1.095160998589e+01 0.0 
9.494526624416e+00 -8.650570090219e-01 0.0 
4.555762166964e+01 -1.897098103585e+01 0.0 
4.250656411371e+01 -1.914387356218e+01 0.0 
4.350906466345e+01 -1.917234727395e+01 0.0 
8.759665722424e-01 -1.746422130609e+01 0.0 
1.698936011838e+00 -1.795012186674e+01 0.0 
4.742476811029e+01 -1.900090177972e+01 0.0 
7.749196752349e+00 -6.368049313489e+00 0.0 
3.361572113416e+01 -1.798765193915e+01 0.0 
4.484660149212e+01 -1.728661231383e+01 0.0 
1.984038172228e+01 -4.502575320116e+00 0.0 
1.035080352627e+01 -6.166639575753e+00 0.0 
2.753558010652e+00 -1.444909521181e+01 0.0 
7.217069543032e+00 -1.328635391078e+01 0.0 
4.364336727739e+00 -1.655585677381e+01 0.0 
4.595208426108e+00 -1.357919665443e+01 0.0 
6.164967006980e+00 -1.569873454630e+01 0.0 
1.487855768353e+01 -1.826523774028e+01 0.0 
2.791876456372e+00 -4.019632415181e+00 0.0 
4.246464893515e+01 -1.364898659620e+01 0.0 
4.503855590351e+01 -1.329552780944e+01 0.0 
4.407239109604e+01 -1.573900004093e+01 0.0 
5.141054449252e+00 -6.664290382472e+00 0.0 
3.141083947149e+00 -1.055790764912e+01 0.0 
6.196463198741e+00 -4.256497932609e+00 0.0 
2.599618716181e+01 -1.836893455464e+01 0.0 
2.923057372337e+01 -1.098461757645e+01 0.0 
1.168343877486e+01 -1.114079645041e+01 0.0 
6.706222096238e+00 -8.780364234441e+00 0.0 
8.567858614669e+00 -6.943121440850e+00 0.0 
1.123755132901e+01 -5.753525820030e+00 0.0 
2.353456234423e+01 -1.008536320953e+01 0.0 
9.162073319168e+00 -1.045593739109e+01 0.0 
9.676343469685e+00 -1.496493008366e+01 0.0 
4.490637882905e+01 -1.628778970202e+01 0.0 
7.398129387772e+00 -9.639977982323e-01 0.0 
1.049641705805e+01 -1.552503975272e+01 0.0 
9.010356286268e+00 -1.242805042052e+01 0.0 
3.985573925497e+01 -1.399863651620e+01 0.0 
1.816196318262e+01 -1.554066497931e+01 0.0 
1.306332244168e+01 -3.963646550326e+00 0.0 
4.145850903932e+01 -1.608094559275e+01 0.0 
3.794664933633e+01 -1.779020121986e+01 0.0 
3.819614412903e+01 -1.290749321016e+01 0.0 
6.270014188119e+00 -3.255093186826e+00 0.0 
4.251165370388e+01 -1.263870364997e+01 0.0 
1.207347709171e+01 -1.763942826023e+01 0.0 
3.633240829927e+01 -1.577330481104e+01 0.0 
4.319052668832e+00 -6.101812561904e+00 0.0 
1.676492415806e+01 -1.151547901392e+01 0.0 
2.594059220037e+01 -1.074225223009e+01 0.0 
3.340750911501e+01 -9.898764354137e+00 0.0 
4.397619591281e+01 -1.769773736461e+01 0.0 
2.175611595028e+01 -1.185718747128e+01 0.0 
1.641818733106e+01 -1.640685203215e+01 0.0 
1.661211421753e+01 -1.346121366338e+01 0.0 
3.428853504935e+00 -6.551993389271e+00 0.0 
8.700728832502e+00 -1.638460872825e+01 0.0 
1.931369795309e+01 -1.121629383702e+01 0.0 
4.139798872363e+01 -1.706922153459e+01 0.0 
2.647837478700e+01 -1.507353829290e+01 0.0 
1.779469616424e+01 -9.161615782908e+00 0.0 
3.885879219319e+01 -1.642026488918e+01 0.0 
1.338194936770e+01 -1.125916521471e+01 0.0 
1.897071181111e+01 -1.609204322578e+01 0.0 
2.844308548793e+01 -1.046221003096e+01 0.0 
2.659854702194e+01 -1.316109415760e+01 0.0 
2.979604503271e+01 -1.433296157755e+01 0.0 
2.417694041347e+01 -1.251231397779e+01 0.0 
1.807401327411e+00 -1.388891148480e+01 0.0 
9.599810618782e+00 -1.595439365034e+01 0.0 
1.652144692160e+01 -4.205392788472e+00 0.0 
2.367839450246e+01 -8.188385218643e+00 0.0 
3.814894930468e+01 -1.390748338767e+01 0.0 
2.466448215774e+01 -1.685878545680e+01 0.0 
4.134044524611e+01 -1.806610045954e+01 0.0 
2.600511411958e+01 -9.801774120648e+00 0.0 
7.882158050716e+00 -1.582364037353e+01 0.0 
3.881607873422e+01 -1.737970515013e+01 0.0 
8.270182347708e+00 -1.088622154920e+01 0.0 
8.672520392520e-01 -4.532984309881e+00 0.0 
1.993447205337e+01 -3.579061902667e+00 0.0 
1.794616079549e+01 -7.238038888498e+00 0.0 
2.097277068165e+01 -1.132450168636e+01 0.0 
8.194803300681e+00 -1.187214224265e+01 0.0 
3.522279404911e+01 -1.823342818178e+01 0.0 
6.984481050295e+00 -1.625271465557e+01 0.0 
1.309433007797e+01 -1.521718594215e+01 0.0 
2.150246167611e+01 -1.885399038185e+00 0.0 
3.250689370209e+01 -1.028789870535e+01 0.0 
6.085886272238e+00 -1.668342132851e+01 0.0 
1.588455661727e+01 -1.193498985921e+01 0.0 
1.809323400821e+01 -1.651110084195e+01 0.0 
1.348885082381e+00 -1.136065576512e+01 0.0 
2.497670221995e+01 -1.834631276173e+01 0.0 
2.937062818424e+01 -8.233711194470e+00 0.0 
5.185823744469e+00 -1.711566910207e+01 0.0 
1.477497877209e+01 -1.530177014512e+01 0.0 
2.125346158933e+01 -7.473003997367e+00 0.0 
4.751561118290e+01 -1.084897772632e+01 0.0 
5.056026576843e+00 -1.825750475525e+01 0.0 
1.473948554523e+01 -1.634577436309e+01 0.0 
2.410566630936e+01 -1.345970002612e+01 0.0 
1.507337507513e+01 -1.138527895328e+01 0.0 
3.189857338687e+01 -8.887781229006e+00 0.0 
7.298712468334e+00 -1.230231046246e+01 0.0 
2.738235495295e+01 -1.368931690364e+01 0.0 
3.750141041969e+01 -1.920449893070e+01 0.0 
1.557271965640e+01 -1.683317951731e+01 0.0 
3.393731848929e+01 -1.413034777044e+01 0.0 
6.482156824153e+00 -1.174575135362e+01 0.0 
2.077971718439e+01 -1.421279621836e+01 0.0 
3.455084320178e+00 -2.562590040585e+00 0.0 
3.099056096250e+01 -9.270280416035e+00 0.0 
5.580176125418e+00 -1.217387969259e+01 0.0 
1.707247630389e+01 -7.660651981710e+00 0.0 
1.418658814174e+01 -1.180390575393e+01 0.0 
2.049103025389e+01 -1.811296706038e+01 0.0 
4.680386172316e+00 -1.260396879301e+01 0.0 
1.699679896554e+01 -8.624561788199e+00 0.0 
3.779470168555e+00 -1.303424899720e+01 0.0 
3.036589870126e+01 -7.879832518349e+00 0.0 
3.306993001774e+01 -1.457671062095e+01 0.0 
2.840150110165e+00 -1.346530088269e+01 0.0 
2.732011135052e+01 -1.464591214560e+01 0.0 
5.423639259568e+00 -2.659711955016e+00 0.0 
2.324455961696e+01 -1.387269388211e+01 0.0 
1.752768355571e+00 -1.693128613594e+01 0.0 
1.020244783051e+01 -8.076834012808e+00 0.0 
1.330873875224e+01 -1.222417528206e+01 0.0 
3.297727364880e+01 -1.555480372087e+01 0.0 
2.890929955439e+01 -6.868664170731e+00 0.0 
1.323294664622e+01 -1.320754260334e+01 0.0 
2.726532861246e+01 -1.560593120806e+01 0.0 
2.240020643398e+01 -1.429299177247e+01 0.0 
2.090445823633e+01 -1.228128621332e+01 0.0 
1.315809881502e+01 -1.420739326938e+01 0.0 
2.781328038068e+01 -7.181956082300e+00 0.0 
8.614200829057e+00 -5.936933226306e+00 0.0 
8.714765730069e+00 -4.979270529687e+00 0.0 
1.611881701099e+01 -9.041973294003e+00 0.0 
2.806830314340e+01 -1.614622947108e+01 0.0 
2.084435391396e+00 -3.385085422913e+00 0.0 
3.133211811152e+01 -1.542347619750e+01 0.0 
9.693114650768e+00 -3.590281506442e+00 0.0 
1.531883592202e+01 -8.504584946143e+00 0.0 
2.151589117094e+01 -1.578915763018e+01 0.0 
4.918943882696e+01 -1.355538828056e+01 0.0 
1.443236615188e+01 -8.918701794549e+00 0.0 
8.276250966452e-01 -5.537685192197e+00 0.0 
1.362790867918e+01 -8.374718262212e+00 0.0 
2.083767477370e+01 -1.324843956035e+01 0.0 
1.273834678703e+01 -8.790890389337e+00 0.0 
1.192275845670e+01 -8.242261327467e+00 0.0 
4.477236023583e+01 -1.824312396664e+01 0.0 
1.102989384254e+01 -8.649855800911e+00 0.0 
4.849096516045e+01 -1.917293752213e+01 0.0 
1.588996752238e+00 -1.910230934687e+01 0.0 
4.904245197583e+01 -1.159839008158e+01 0.0 
2.753852929608e+01 -5.782128488093e+00 0.0 
1.756133602833e+01 -8.306130313187e-01 0.0 
2.615423700951e+01 -6.153865090092e+00 0.0 
1.028818761294e+01 -7.122020845892e+00 0.0 
2.970818901196e+01 -1.527821347593e+01 0.0 
4.801461623449e+01 -1.164472570985e+01 0.0 
9.455722100419e+00 -6.546069291118e+00 0.0 
3.089099236677e+01 -1.835339328261e+01 0.0 
2.350000000013e+01 -1.920825896750e+01 0.0 
4.830620531887e+01 -1.506626155470e+01 0.0 
1.725381944701e+01 -1.688794487850e+01 0.0 
2.156246225273e+01 -1.475893794002e+01 0.0 
4.919319648787e+01 -1.742767505896e+01 0.0 
4.437935623576e+01 -1.077662927266e+01 0.0 
1.001520521978e+01 -1.652692675208e+00 0.0 
9.067160240050e-01 -1.441937727541e+01 0.0 
2.603365149390e+01 -4.755996613848e+00 0.0 
2.458344439002e+01 -4.873645517696e+00 0.0 
2.304312390142e+01 -3.836552768096e+00 0.0 
2.546923202198e+00 -6.902480355749e+00 0.0 
1.251534969393e+01 -2.490989965776e+00 0.0 
2.454061833377e+01 -3.933354231935e+00 0.0 
1.788186558740e+01 -1.827424884923e+01 0.0 
4.090785243552e+01 -1.166553231904e+01 0.0 
2.230128851568e+01 -1.623015738726e+01 0.0 
2.302362347568e+01 -2.916239960270e+00 0.0 
3.878119254461e+01 -1.830091164002e+01 0.0 
2.210081359958e+01 -1.829238229150e+01 0.0 
8.443704882233e+00 -1.921993252862e+01 0.0 
2.218405824691e+01 -1.724557581508e+01 0.0 
2.151157503963e+01 -2.790636689331e+00 0.0 
3.741658958955e+01 -1.250400191722e+01 0.0 
2.697247663737e+01 -1.838290202309e+01 0.0 
4.743362342862e+01 -1.585850773010e+01 0.0 
6.671345075358e+00 -1.924977576322e+01 0.0 
3.900825404537e+01 -1.157220003875e+01 0.0 
4.649692961375e+01 -1.836335837481e+01 0.0 
1.578831424832e+01 -3.678284023361e+00 0.0 
4.814208768888e+01 -1.841249298770e+01 0.0 
2.964123298315e+01 -1.625739458193e+01 0.0 
4.580760351902e+01 -1.284294554687e+01 0.0 
3.561520879615e+01 -1.245548941949e+01 0.0 
2.555418095658e+00 -1.841101588290e+01 0.0 
3.288468366144e+01 -1.834258164109e+01 0.0 
2.065894391445e+01 -2.240688571739e+00 0.0 
4.739171429915e+01 -1.496536413446e+01 0.0 
3.478086729185e+00 -8.576434653209e+00 0.0 
1.606010630246e+01 -1.588421807951e+00 0.0 
1.018329200594e+01 -1.834320874317e+01 0.0 
2.957213339430e+01 -1.720496954591e+01 0.0 
4.142712790164e+00 -1.837794506222e+01 0.0 
6.698721532573e-01 -2.499999999997e+00 0.0 
8.037039123140e+00 -1.571229354954e+00 0.0 
1.203541361428e+01 -1.847784298001e+01 0.0 
2.899968332038e+01 -1.848264722179e+01 0.0 
1.469229460948e+01 -4.219485753730e+00 0.0 
4.049590781957e+01 -1.932812501995e+01 0.0 
1.996211678340e+01 -1.506329754720e+00 0.0 
4.250588298353e+01 -1.067383247529e+01 0.0 
5.831497011152e+00 -1.635396227234e+00 0.0 
5.317606125670e+00 -1.923927974868e+01 0.0 
4.208546426993e+01 -1.842830665025e+01 0.0 
2.327553405011e+00 -9.459409929662e+00 0.0 
3.568351902251e+01 -1.096637218582e+01 0.0 
1.682104374890e+00 -6.231413350963e+00 0.0 
2.451812238018e+01 -1.766524914339e+01 0.0 
1.058003429638e+01 -2.391839617098e+00 0.0 
4.399988753123e+01 -1.851998776342e+01 0.0 
1.400000000010e+01 -1.852293523028e+01 0.0 
3.604719565984e+01 -1.850662876800e+01 0.0 
1.951297136734e+01 -1.938092349694e+01 0.0 
1.821365318472e+01 -1.531276353287e+00 0.0 
2.298031859732e+01 -1.854635324722e+01 0.0 
1.552168066204e+01 -1.764280741977e+01 0.0 
4.572957713638e+01 -1.073347898229e+01 0.0 
3.429637429624e+01 -1.838861552790e+01 0.0 
2.427434426052e+00 -7.705577451869e+00 0.0 
4.662792031485e+00 -3.359424455416e+00 0.0 
4.926794919243e+01 -1.926794919243e+01 0.0 
7.320508075690e-01 -7.320508075688e-01 0.0 
4.926794919243e+01 -1.073205080757e+01 0.0 
7.320508075705e-01 -1.926794919243e+01 0.0 
2.917460242467e+00 -3.202866455310e+00 0.0 
4.838200575963e+01 -1.232674147454e+01 0.0 
2.998445708009e+01 -1.854403752148e+01 0.0 
5.949940090766e-01 -1.152762038165e+01 0.0 
4.844763495759e+01 -1.678092548787e+01 0.0 
1.301685480160e+01 -3.170056592566e+00 0.0 
1.650046335855e+01 -6.731535384067e-01 0.0 
4.854881540991e+01 -1.405224059779e+01 0.0 
2.119545114693e+01 -1.846813384545e+01 0.0 
3.797852849897e+01 -1.857978513215e+01 0.0 
4.649823708745e+01 -1.338351810816e+01 0.0 
2.012685900976e+01 -2.889659035009e+00 0.0 
2.953271913273e+01 -1.791558075192e+01 0.0 
2.408509097292e+00 -1.021949208421e+01 0.0 
2.642589566221e+01 -1.773216561448e+01 0.0 
1.730010270775e+01 -1.763165076721e+01 0.0 
2.017406551304e+01 -8.513536440582e-01 0.0 
5.254761581934e-01 -1.249999999999e+01 0.0 
6.640448215642e+00 -1.545337834885e+00 0.0 
7.843361506349e+00 -1.852719839527e+01 0.0 
1.588442191088e+00 -1.066158564320e+01 0.0 
2.880770112393e+01 -5.415638864241e+00 0.0 
4.951086956522e+01 -5.500000000000e+00 0.0 
3.031250000000e+01 -6.420918367347e+00 0.0 
4.951250000000e+01 -6.500000000000e+00 0.0 
3.180701530612e+01 -7.414795918363e+00 0.0 
4.951250000000e+01 -7.500000000000e+00 0.0 
3.331250000000e+01 -8.420918367347e+00 0.0 
4.951470588234e+01 -8.500000000000e+00 0.0 
3.480610198624e+01 -9.413633635267e+00 0.0 
4.951470588234e+01 -9.500000000000e+00 0.0 

CELLS 2134 8536 
3 278 748 1024 
3 748 278 1026 
3 758 251 769 
3 871 636 1060 
3 638 698 864 
3 728 641 767 
3 258 680 682 
3 278 705 1026 
3 680 258 698 
3 631 866 1060 
3 250 825 826 
3 705 278 1040 
3 870 1022 1066 
3 687 818 908 
3 1022 284 1066 
3 277 871 1060 
3 686 257 827 
3 641 728 766 
3 265 685 1007 
3 685 265 945 
3 866 631 1019 
3 996 242 1002 
3 723 996 1002 
3 673 672 882 
3 372 528 817 
3 825 250 934 
3 110 82 1087 
3 717 243 959 
3 370 372 817 
3 882 672 1092 
3 622 832 834 
3 275 688 865 
3 758 769 1067 
3 19 263 738 
3 273 692 694 
3 701 66 1058 
3 66 701 1084 
3 720 269 764 
3 684 101 1037 
3 101 684 1098 
3 960 702 986 
3 238 724 863 
3 1041 239 1045 
3 82 287 1087 
3 679 286 1036 
3 718 1041 1045 
3 832 622 835 
3 286 679 1062 
3 828 829 835 
3 818 687 1059 
3 280 723 960 
3 670 685 945 
3 448 1061 1079 
3 280 960 986 
3 770 252 950 
3 1043 615 1088 
3 670 945 1014 
3 263 708 738 
3 531 859 977 
3 866 277 1060 
3 237 1071 1112 
3 1051 677 1053 
3 497 525 731 
3 1061 834 1079 
3 842 661 1066 
3 723 280 996 
3 1071 681 1112 
3 251 758 1031 
3 558 519 840 
3 247 706 772 
3 934 877 988 
3 33 32 726 
3 717 959 1089 
3 4 5 852 
3 849 1043 1088 
3 689 254 940 
3 770 950 1099 
3 737 1042 1049 
3 859 531 1101 
3 1042 279 1049 
3 519 532 840 
3 257 686 1047 
3 242 748 1002 
3 748 242 1024 
3 698 638 910 
3 680 698 910 
3 709 934 1039 
3 18 19 738 
3 763 760 1008 
3 638 864 1047 
3 865 688 1038 
3 289 816 1087 
3 862 1033 1057 
3 1057 1033 1069 
3 255 33 726 
3 764 269 1094 
3 686 827 1059 
3 863 724 1072 
3 283 715 1012 
3 731 525 732 
3 864 698 1082 
3 284 842 1066 
3 445 1011 1035 
3 676 1051 1053 
3 566 564 742 
3 829 832 835 
3 869 870 992 
3 635 862 1057 
3 237 828 835 
3 965 260 1084 
3 410 763 1008 
3 4 852 1103 
3 633 729 765 
3 600 916 954 
3 644 846 1070 
3 704 731 732 
3 499 497 731 
3 273 694 1052 
3 715 283 1107 
3 703 499 731 
3 734 664 1009 
3 287 289 1087 
3 862 635 1110 
3 499 703 742 
3 1054 953 1068 
3 719 969 978 
3 846 644 1100 
3 969 244 978 
3 254 689 1080 
3 666 1054 1068 
3 825 934 988 
3 636 871 1062 
3 573 630 730 
3 244 702 978 
3 692 273 1072 
3 870 627 1022 
3 709 877 934 
3 730 630 930 
3 674 802 1092 
3 606 722 730 
3 656 867 868 
3 706 247 1078 
3 908 818 1055 
3 515 487 736 
3 722 573 730 
3 702 244 986 
3 630 768 930 
3 742 568 937 
3 258 682 1037 
3 729 364 765 
3 688 275 1076 
3 1023 1029 1107 
3 853 265 1007 
3 281 719 954 
3 802 674 811 
3 703 566 742 
3 738 709 1039 
3 705 239 1041 
3 1011 671 1035 
3 264 710 711 
3 725 364 729 
3 708 263 992 
3 558 734 1009 
3 870 629 992 
3 745 618 773 
3 260 965 1074 
3 1023 628 1029 
3 564 568 742 
3 916 281 954 
3 250 826 1123 
3 239 705 1040 
3 364 725 739 
3 487 538 736 
3 710 264 1098 
3 568 729 937 
3 719 281 969 
3 612 801 1006 
3 846 547 1070 
3 243 717 1032 
3 772 706 1056 
3 704 732 1026 
3 547 846 1086 
3 789 919 973 
3 722 606 960 
3 705 704 1026 
3 745 600 954 
3 729 633 937 
3 253 866 1019 
3 376 785 995 
3 263 869 992 
3 718 279 1042 
3 574 739 963 
3 760 785 1008 
3 81 111 727 
3 606 702 960 
3 962 634 966 
3 858 990 1083 
3 873 266 1099 
3 371 296 778 
3 993 352 1020 
3 482 962 966 
3 816 289 1065 
3 817 528 1055 
3 672 674 1092 
3 1003 894 1030 
3 740 311 768 
3 570 460 773 
3 377 371 778 
3 567 745 773 
3 618 745 954 
3 516 976 1016 
3 801 650 1006 
3 727 261 728 
3 732 748 1026 
3 732 525 747 
3 630 740 768 
3 785 755 995 
3 641 640 946 
3 634 733 952 
3 684 710 1098 
3 739 725 963 
3 430 952 1001 
3 690 900 1124 
3 776 377 778 
3 900 246 1124 
3 858 859 990 
3 279 718 1045 
3 1003 646 1004 
3 750 377 776 
3 646 645 1004 
3 626 735 741 
3 452 833 905 
3 664 841 1009 
3 919 482 973 
3 618 570 773 
3 661 842 1074 
3 111 261 727 
3 535 565 741 
3 325 364 739 
3 723 722 960 
3 733 634 962 
3 701 965 1084 
3 987 376 995 
3 434 416 771 
3 482 966 973 
3 934 250 1039 
3 768 378 930 
3 777 778 974 
3 677 1051 1096 
3 325 739 746 
3 565 626 741 
3 295 567 743 
3 726 32 1080 
3 311 740 915 
3 784 327 923 
3 711 710 712 
3 840 532 1044 
3 567 744 745 
3 534 434 771 
3 640 774 875 
3 622 834 1061 
3 377 750 912 
3 460 743 773 
3 499 742 937 
3 750 589 912 
3 785 376 1008 
3 378 749 891 
3 245 699 1058 
3 575 784 923 
3 303 569 749 
3 633 765 896 
3 575 783 784 
3 417 433 774 
3 815 256 816 
3 329 326 746 
3 446 797 798 
3 777 987 995 
3 111 112 261 
3 567 293 744 
3 416 414 771 
3 490 535 741 
3 419 417 774 
3 298 295 743 
3 688 734 1038 
3 526 616 747 
3 575 782 783 
3 743 567 773 
3 815 816 817 
3 536 641 766 
3 446 798 800 
3 447 450 797 
3 732 747 748 
3 777 974 987 
3 525 526 747 
3 412 329 746 
3 739 574 746 
3 536 640 641 
3 765 321 896 
3 665 735 737 
3 37 252 770 
3 39 266 769 
3 312 311 915 
3 433 416 434 
3 489 490 548 
3 304 303 749 
3 433 434 489 
3 446 447 797 
3 378 891 930 
3 867 656 1085 
3 771 574 963 
3 976 632 1016 
3 665 548 735 
3 270 57 790 
3 489 434 490 
3 309 378 768 
3 536 440 640 
3 812 505 920 
3 326 325 746 
3 450 794 797 
3 569 460 570 
3 42 791 792 
3 414 412 574 
3 575 403 782 
3 549 548 665 
3 780 465 903 
3 952 733 1001 
3 565 566 624 
3 639 780 903 
3 268 45 772 
3 542 634 952 
3 41 251 791 
3 908 528 938 
3 763 410 1028 
3 626 624 718 
3 571 570 603 
3 303 460 569 
3 303 301 460 
3 379 915 941 
3 243 47 775 
3 370 817 1065 
3 744 600 745 
3 574 412 746 
3 645 841 1004 
3 603 618 719 
3 565 564 566 
3 264 711 964 
3 450 793 794 
3 414 574 771 
3 754 776 777 
3 535 564 565 
3 569 570 571 
3 403 405 782 
3 578 805 892 
3 50 267 781 
3 606 604 702 
3 418 420 800 
3 659 993 1020 
3 625 704 705 
3 624 566 625 
3 760 757 785 
3 309 307 378 
3 616 722 723 
3 571 603 604 
3 54 269 786 
3 269 720 1046 
3 757 755 785 
3 777 776 778 
3 805 345 892 
3 497 498 525 
3 417 416 433 
3 415 414 416 
3 311 309 768 
3 592 812 920 
3 360 806 807 
3 753 751 754 
3 420 446 800 
3 494 379 495 
3 749 569 891 
3 496 495 497 
3 251 40 769 
3 266 38 770 
3 266 873 1067 
3 578 804 805 
3 589 491 912 
3 565 624 626 
3 413 412 414 
3 640 440 774 
3 526 573 616 
3 814 815 818 
3 780 908 938 
3 790 788 882 
3 761 760 763 
3 295 293 567 
3 302 301 303 
3 440 419 774 
3 837 839 840 
3 364 323 765 
3 317 315 379 
3 323 321 765 
3 234 953 1054 
3 711 712 713 
3 841 645 1009 
3 490 534 535 
3 57 56 790 
3 424 426 516 
3 288 600 744 
3 265 853 1075 
3 915 740 941 
3 325 323 364 
3 301 298 743 
3 247 43 792 
3 603 570 618 
3 307 304 749 
3 360 807 813 
3 751 750 776 
3 578 803 804 
3 44 247 772 
3 41 40 251 
3 37 36 252 
3 39 38 266 
3 300 298 301 
3 754 751 776 
3 759 757 760 
3 497 495 498 
3 525 498 526 
3 809 806 893 
3 753 754 755 
3 46 268 775 
3 668 589 750 
3 782 516 783 
3 668 750 751 
3 509 507 810 
3 317 379 494 
3 616 573 722 
3 489 548 549 
3 255 726 1050 
3 496 497 499 
3 890 609 959 
3 806 360 893 
3 451 454 793 
3 270 790 882 
3 535 563 564 
3 42 41 791 
3 266 770 1099 
3 308 307 309 
3 837 838 839 
3 44 43 247 
3 235 786 787 
3 450 451 793 
3 405 424 782 
3 241 51 781 
3 119 236 838 
3 494 495 496 
3 306 304 307 
3 310 309 311 
3 378 307 749 
3 548 490 741 
3 46 45 268 
3 411 329 412 
3 537 536 766 
3 699 245 1125 
3 838 236 839 
3 605 604 606 
3 832 833 834 
3 719 618 954 
3 235 55 786 
3 48 47 243 
3 460 301 743 
3 829 831 832 
3 678 537 766 
3 832 831 833 
3 922 620 935 
3 814 256 815 
3 290 288 744 
3 50 49 267 
3 272 814 818 
3 252 36 779 
3 512 509 810 
3 639 687 780 
3 625 703 704 
3 424 516 782 
3 640 875 946 
3 52 51 241 
3 40 39 769 
3 38 37 770 
3 578 386 803 
3 381 383 809 
3 317 494 896 
3 386 388 803 
3 54 53 269 
3 490 434 534 
3 797 796 798 
3 794 795 796 
3 529 639 903 
3 58 270 802 
3 829 830 831 
3 56 55 235 
3 793 658 794 
3 43 42 792 
3 759 760 761 
3 118 119 838 
3 494 633 896 
3 588 491 589 
3 45 44 772 
3 300 301 302 
3 555 512 556 
3 549 665 666 
3 788 787 789 
3 550 657 658 
3 794 658 795 
3 828 271 829 
3 47 46 775 
3 774 433 875 
3 542 590 634 
3 639 686 687 
3 876 608 895 
3 794 796 797 
3 302 303 304 
3 51 50 781 
3 383 485 809 
3 394 430 500 
3 314 312 315 
3 653 546 654 
3 798 796 799 
3 803 500 804 
3 315 312 915 
3 651 508 925 
3 424 425 426 
3 316 315 317 
3 353 355 813 
3 535 534 563 
3 381 809 893 
3 556 512 810 
3 380 403 575 
3 56 235 790 
3 667 589 668 
3 551 876 895 
3 55 54 786 
3 235 787 788 
3 322 321 323 
3 829 271 830 
3 59 802 811 
3 752 751 753 
3 454 550 793 
3 58 57 270 
3 388 394 803 
3 526 572 573 
3 293 290 744 
3 380 575 923 
3 384 578 892 
3 546 505 812 
3 778 296 974 
3 605 730 930 
3 426 444 445 
3 713 712 714 
3 355 360 813 
3 405 407 424 
3 550 607 657 
3 577 399 878 
3 117 118 836 
3 564 563 568 
3 550 658 793 
3 806 648 807 
3 320 318 321 
3 394 500 803 
3 529 637 639 
3 454 517 550 
3 59 58 802 
3 306 307 308 
3 576 647 648 
3 308 309 310 
3 576 648 806 
3 836 118 838 
3 292 290 293 
3 845 844 846 
3 246 124 860 
3 485 540 576 
3 394 429 430 
3 874 544 899 
3 654 812 956 
3 654 546 812 
3 288 248 600 
3 272 108 814 
3 669 779 972 
3 310 311 312 
3 124 125 860 
3 664 584 841 
3 830 836 837 
3 646 1003 1030 
3 562 612 1006 
3 642 874 899 
3 439 922 935 
3 363 361 872 
3 401 399 577 
3 542 553 590 
3 459 440 536 
3 276 844 845 
3 249 848 849 
3 238 60 811 
3 60 59 811 
3 844 843 847 
3 576 540 647 
3 384 386 578 
3 590 672 673 
3 584 503 841 
3 437 522 542 
3 858 856 859 
3 485 576 809 
3 807 648 808 
3 262 855 856 
3 276 843 844 
3 588 589 667 
3 125 126 857 
3 109 256 814 
3 109 110 256 
3 505 409 920 
3 249 10 848 
3 550 517 607 
3 735 548 741 
3 695 693 696 
3 775 268 890 
3 579 473 906 
3 625 566 703 
3 688 664 734 
3 571 604 605 
3 105 257 864 
3 104 105 864 
3 125 857 860 
3 857 856 858 
3 851 853 854 
3 427 368 502 
3 262 850 855 
3 843 240 847 
3 237 115 828 
3 368 363 872 
3 716 714 736 
3 107 108 272 
3 612 707 801 
3 388 393 394 
3 713 714 715 
3 10 11 848 
3 851 854 855 
3 30 29 867 
3 254 30 867 
3 639 637 686 
3 257 106 827 
3 848 845 849 
3 28 253 868 
3 502 368 872 
3 108 109 814 
3 107 272 827 
3 603 719 978 
3 36 35 779 
3 867 29 868 
3 262 856 857 
3 126 262 857 
3 663 584 664 
3 807 808 944 
3 869 627 870 
3 114 115 237 
3 274 861 862 
3 116 271 828 
3 545 505 546 
3 116 117 271 
3 115 116 828 
3 652 546 653 
3 598 661 662 
3 715 714 716 
3 891 605 930 
3 850 851 855 
3 400 401 880 
3 25 24 871 
3 277 25 871 
3 106 107 827 
3 481 409 505 
3 29 28 868 
3 555 556 671 
3 851 852 853 
3 850 285 851 
3 851 285 852 
3 11 12 276 
3 284 69 842 
3 80 79 286 
3 128 285 850 
3 13 240 843 
3 70 69 284 
3 68 260 842 
3 61 238 863 
3 76 259 861 
3 78 77 274 
3 69 68 842 
3 68 67 260 
3 274 77 861 
3 128 129 285 
3 102 103 258 
3 105 106 257 
3 262 127 850 
3 65 64 245 
3 273 62 863 
3 63 62 273 
3 127 128 850 
3 126 127 262 
3 61 60 238 
3 62 61 863 
3 76 75 259 
3 99 100 264 
3 77 76 861 
3 74 73 283 
3 97 98 628 
3 123 124 246 
3 121 122 275 
3 120 121 865 
3 119 120 236 
3 13 14 240 
3 12 13 843 
3 121 275 865 
3 16 17 250 
3 236 120 865 
3 34 33 255 
3 28 27 253 
3 31 30 254 
3 6 7 265 
3 9 10 249 
3 27 26 866 
3 19 20 263 
3 26 25 277 
3 20 21 869 
3 21 22 627 
3 276 12 843 
3 253 27 866 
3 26 277 866 
3 263 20 869 
3 21 627 869 
3 492 493 877 
3 271 117 836 
3 383 484 485 
3 857 858 860 
3 695 696 697 
3 576 806 809 
3 458 442 879 
3 427 502 503 
3 990 691 1083 
3 598 662 879 
3 485 486 540 
3 276 845 848 
3 442 504 879 
3 635 636 679 
3 11 276 848 
3 430 429 437 
3 392 390 443 
3 492 441 493 
3 560 492 877 
3 411 412 413 
3 605 606 730 
3 321 318 896 
3 400 399 401 
3 504 597 598 
3 708 560 709 
3 551 645 646 
3 623 544 631 
3 539 488 544 
3 684 683 710 
3 398 396 399 
3 441 400 880 
3 635 623 636 
3 539 623 635 
3 443 390 902 
3 598 629 661 
3 501 473 579 
3 708 709 738 
3 699 697 700 
3 631 544 874 
3 478 476 479 
3 394 393 429 
3 438 520 521 
3 457 543 551 
3 663 664 688 
3 830 271 836 
3 539 544 623 
3 598 597 629 
3 837 836 838 
3 756 755 757 
3 682 582 683 
3 428 442 458 
3 504 560 597 
3 607 608 659 
3 597 560 708 
3 682 683 684 
3 424 407 425 
3 699 700 701 
3 670 552 685 
3 694 693 695 
3 487 479 488 
3 521 552 615 
3 551 646 876 
3 823 821 824 
3 475 477 581 
3 362 366 381 
3 538 488 539 
3 478 487 515 
3 647 540 819 
3 709 560 877 
3 504 492 560 
3 487 488 538 
3 480 432 518 
3 540 486 541 
3 513 599 675 
3 479 886 899 
3 485 484 486 
3 392 443 878 
3 692 620 693 
3 478 479 487 
3 621 537 678 
3 595 690 691 
3 421 419 440 
3 504 598 879 
3 477 476 478 
3 825 823 826 
3 581 582 680 
3 542 522 553 
3 819 541 820 
3 442 492 504 
3 521 520 552 
3 695 697 699 
3 540 541 819 
3 615 552 670 
3 541 486 888 
3 381 382 383 
3 367 363 368 
3 822 823 825 
3 123 246 900 
3 275 122 900 
3 493 441 880 
3 438 480 520 
3 398 399 400 
3 399 396 878 
3 355 359 360 
3 454 455 517 
3 501 579 580 
3 767 641 1117 
3 383 483 484 
3 590 553 672 
3 520 480 531 
3 581 477 582 
3 680 582 682 
3 583 503 584 
3 619 586 620 
3 472 470 473 
3 438 432 480 
3 655 579 924 
3 580 579 655 
3 375 432 438 
3 704 703 731 
3 369 368 427 
3 442 441 492 
3 820 821 822 
3 668 751 752 
3 501 580 642 
3 428 400 441 
3 398 400 428 
3 427 503 583 
3 428 441 442 
3 472 473 474 
3 822 821 823 
3 475 476 477 
3 474 473 501 
3 327 328 923 
3 886 642 899 
3 486 547 888 
3 820 541 821 
3 483 382 643 
3 357 354 358 
3 475 474 476 
3 349 351 384 
3 367 369 375 
3 595 584 663 
3 472 474 475 
3 367 368 369 
3 692 693 694 
3 479 476 886 
3 428 458 881 
3 235 788 790 
3 486 484 547 
3 375 369 432 
3 583 584 595 
3 397 396 398 
3 478 515 885 
3 595 663 690 
3 381 366 382 
3 685 552 883 
3 475 581 884 
3 383 382 483 
3 396 392 878 
3 483 643 644 
3 544 488 899 
3 366 363 367 
3 391 395 439 
3 551 543 645 
3 395 392 396 
3 824 821 888 
3 397 398 881 
3 798 799 980 
3 552 520 883 
3 683 582 885 
3 545 546 652 
3 495 379 941 
3 477 478 885 
3 457 551 895 
3 469 471 529 
3 520 531 883 
3 696 693 922 
3 481 505 545 
3 426 425 444 
3 580 655 656 
3 384 385 386 
3 518 432 889 
3 389 387 390 
3 619 620 692 
3 607 517 608 
3 398 428 881 
3 476 474 886 
3 451 453 454 
3 391 390 392 
3 637 530 638 
3 521 615 921 
3 362 363 366 
3 314 315 316 
3 395 396 397 
3 526 498 572 
3 316 317 318 
3 471 470 472 
3 582 477 885 
3 529 530 637 
3 821 541 888 
3 559 461 586 
3 386 387 388 
3 581 680 910 
3 758 757 759 
3 445 444 513 
3 391 392 395 
3 474 501 886 
3 355 357 359 
3 359 361 362 
3 427 583 889 
3 388 389 393 
3 362 381 893 
3 471 472 884 
3 529 471 530 
3 331 333 380 
3 872 361 894 
3 413 414 415 
3 362 361 363 
3 359 357 361 
3 369 427 889 
3 437 461 522 
3 350 348 352 
3 501 642 886 
3 346 348 349 
3 388 387 389 
3 384 351 385 
3 320 321 322 
3 432 369 889 
3 559 586 619 
3 559 619 724 
3 506 508 651 
3 355 354 357 
3 386 385 387 
3 472 475 884 
3 360 359 893 
3 494 496 633 
3 366 367 887 
3 517 455 895 
3 353 354 355 
3 367 375 887 
3 438 521 913 
3 385 351 585 
3 389 390 391 
3 524 561 562 
3 122 123 900 
3 342 340 343 
3 346 344 347 
3 353 352 354 
3 530 471 884 
3 349 350 351 
3 382 366 887 
3 350 352 353 
3 488 479 899 
3 643 382 887 
3 595 691 909 
3 889 583 909 
3 608 517 895 
3 357 358 894 
3 342 344 345 
3 349 348 350 
3 457 519 543 
3 518 889 909 
3 780 687 908 
3 887 375 913 
3 437 429 461 
3 510 523 524 
3 294 293 295 
3 533 467 554 
3 562 611 612 
3 328 331 923 
3 508 510 925 
3 455 456 457 
3 353 813 897 
3 324 323 325 
3 447 449 450 
3 519 456 532 
3 359 362 893 
3 346 347 348 
3 345 344 346 
3 643 887 913 
3 349 384 892 
3 342 343 344 
3 338 340 341 
3 361 357 894 
3 408 406 409 
3 469 470 471 
3 338 336 339 
3 522 461 559 
3 454 453 455 
3 672 553 674 
3 345 346 892 
3 612 706 707 
3 305 304 306 
3 455 457 895 
3 297 295 298 
3 587 491 588 
3 345 805 928 
3 568 725 729 
3 299 298 300 
3 379 315 915 
3 457 456 519 
3 689 660 726 
3 543 519 558 
3 720 614 721 
3 874 642 917 
3 431 409 481 
3 884 581 910 
3 468 467 533 
3 341 340 342 
3 380 402 403 
3 617 554 660 
3 391 439 898 
3 466 468 469 
3 545 652 733 
3 455 453 456 
3 466 464 467 
3 775 890 959 
3 559 724 911 
3 350 353 897 
3 530 884 910 
3 638 530 910 
3 346 349 892 
3 393 389 898 
3 429 393 901 
3 583 595 909 
3 415 416 417 
3 334 336 337 
3 338 339 340 
3 318 317 896 
3 617 660 689 
3 753 755 756 
3 642 580 917 
3 573 572 630 
3 463 435 491 
3 389 391 898 
3 655 924 940 
3 436 464 465 
3 351 350 897 
3 334 332 335 
3 466 467 468 
3 533 554 617 
3 473 470 906 
3 469 468 470 
3 620 586 935 
3 613 527 614 
3 586 461 901 
3 390 387 902 
3 702 604 978 
3 408 431 462 
3 373 371 377 
3 375 438 913 
3 337 336 338 
3 654 956 968 
3 403 404 405 
3 420 422 446 
3 334 335 336 
3 405 406 407 
3 571 605 891 
3 585 351 897 
3 465 780 938 
3 698 258 1082 
3 84 225 234 
3 387 385 902 
3 431 481 482 
3 752 753 873 
3 380 333 402 
3 385 585 902 
3 469 529 903 
3 85 226 279 
3 408 409 431 
3 404 402 592 
3 569 571 891 
3 393 898 901 
3 450 449 451 
3 461 429 901 
3 553 522 911 
3 407 406 408 
3 470 468 906 
3 514 512 555 
3 522 559 911 
3 86 227 239 
3 465 466 903 
3 675 599 676 
3 468 533 906 
3 405 404 406 
3 333 332 334 
3 975 647 979 
3 459 536 537 
3 579 906 924 
3 913 521 921 
3 87 228 278 
3 511 509 512 
3 580 656 917 
3 451 452 453 
3 313 312 314 
3 465 464 466 
3 944 808 949 
3 446 422 447 
3 568 563 725 
3 532 456 905 
3 451 449 452 
3 453 452 905 
3 403 402 404 
3 779 35 972 
3 88 229 242 
3 693 620 922 
3 330 329 411 
3 374 436 938 
3 421 440 459 
3 674 553 911 
3 456 453 905 
3 644 643 921 
3 425 407 904 
3 342 345 928 
3 513 527 599 
3 496 499 937 
3 373 377 912 
3 613 614 720 
3 466 469 903 
3 753 756 873 
3 464 463 927 
3 463 491 587 
3 433 489 875 
3 696 922 942 
3 436 463 464 
3 327 784 948 
3 89 230 280 
3 613 720 764 
3 418 417 419 
3 643 913 921 
3 513 444 527 
3 265 7 945 
3 319 318 320 
3 408 462 904 
3 587 588 907 
3 588 667 669 
3 407 408 904 
3 554 467 927 
3 328 326 329 
3 510 524 925 
3 90 231 244 
3 759 761 762 
3 91 232 281 
3 233 91 916 
3 331 380 923 
3 82 233 248 
3 601 356 602 
3 322 323 324 
3 334 337 914 
3 447 422 448 
3 331 332 333 
3 533 617 924 
3 756 757 758 
3 439 395 942 
3 599 527 613 
3 341 342 928 
3 463 587 927 
3 333 334 914 
3 697 696 951 
3 467 464 927 
3 491 435 912 
3 409 406 920 
3 328 330 331 
3 524 523 561 
3 302 304 305 
3 447 448 449 
3 418 419 420 
3 633 496 937 
3 310 312 313 
3 700 697 955 
3 436 435 463 
3 331 330 332 
3 506 651 931 
3 462 431 919 
3 906 533 924 
3 562 561 611 
3 528 374 938 
3 634 590 966 
3 402 333 914 
3 431 482 919 
3 316 318 319 
3 660 554 943 
3 612 611 706 
3 404 592 920 
3 420 419 421 
3 514 555 557 
3 319 356 594 
3 328 329 330 
3 406 404 920 
3 437 542 952 
3 420 421 422 
3 592 402 914 
3 297 298 299 
3 700 955 961 
3 299 300 410 
3 511 512 514 
3 294 295 297 
3 291 290 292 
3 305 306 365 
3 614 527 929 
3 922 439 942 
3 374 435 436 
3 588 669 907 
3 292 293 294 
3 411 413 591 
3 514 557 610 
3 924 617 940 
3 320 322 918 
3 319 320 356 
3 330 411 926 
3 435 373 912 
3 572 498 941 
3 601 602 632 
3 498 495 941 
3 444 425 929 
3 610 677 717 
3 335 332 926 
3 459 537 593 
3 667 668 950 
3 630 572 740 
3 968 341 981 
3 610 557 677 
3 374 373 435 
3 898 439 935 
3 324 325 326 
3 593 537 621 
3 961 662 965 
3 313 314 423 
3 426 445 976 
3 561 523 609 
3 621 678 681 
3 901 898 935 
3 534 771 963 
3 372 374 528 
3 443 949 970 
3 332 330 926 
3 697 951 955 
3 594 356 601 
3 411 591 926 
3 313 423 506 
3 593 621 622 
3 508 509 510 
3 425 904 929 
3 707 706 1078 
3 510 511 523 
3 418 800 947 
3 395 397 942 
3 617 689 940 
3 764 241 982 
3 527 444 929 
3 327 326 328 
3 506 507 508 
3 879 662 961 
3 823 824 958 
3 510 509 511 
3 436 465 938 
3 696 942 951 
3 586 901 935 
3 99 264 964 
3 628 98 964 
3 297 299 376 
3 508 507 509 
3 577 878 970 
3 305 365 596 
3 602 356 918 
3 789 973 1097 
3 324 326 327 
3 34 255 972 
3 289 288 290 
3 356 320 918 
3 443 902 949 
3 415 417 418 
3 585 897 944 
3 506 423 507 
3 308 310 931 
3 372 373 374 
3 596 365 649 
3 596 649 650 
3 854 853 1007 
3 897 813 944 
3 740 572 941 
3 300 302 932 
3 410 300 932 
3 721 614 957 
3 7 8 945 
3 448 422 936 
3 314 316 933 
3 813 807 944 
3 91 281 916 
3 248 233 916 
3 372 371 373 
3 489 549 875 
3 949 808 970 
3 482 481 962 
3 422 421 936 
3 243 775 959 
3 927 587 943 
3 648 647 975 
3 942 397 951 
3 859 856 977 
3 545 733 962 
3 423 314 933 
3 855 854 977 
3 554 927 943 
3 421 459 936 
3 302 305 932 
3 310 313 931 
3 338 341 968 
3 804 500 997 
3 587 907 943 
3 500 430 1001 
3 319 594 933 
3 316 319 933 
3 225 83 953 
3 459 593 936 
3 511 514 939 
3 291 292 296 
3 514 610 939 
3 563 534 963 
3 755 754 995 
3 609 523 939 
3 600 248 916 
3 523 511 939 
3 397 881 951 
3 810 507 967 
3 585 944 949 
3 902 585 949 
3 668 752 950 
3 805 804 994 
3 313 506 931 
3 784 783 1000 
3 430 437 952 
3 918 322 948 
3 947 800 980 
3 812 592 956 
3 591 413 947 
3 305 596 932 
3 591 947 980 
3 365 306 971 
3 614 929 957 
3 929 904 957 
3 322 324 948 
3 370 371 372 
3 951 881 955 
3 881 458 955 
3 549 666 946 
3 365 971 989 
3 700 961 965 
3 616 723 1002 
3 577 975 979 
3 234 225 953 
3 955 458 961 
3 415 418 947 
3 826 823 958 
3 976 445 1035 
3 370 296 371 
3 291 296 370 
3 423 933 967 
3 90 244 969 
3 281 232 969 
3 458 879 961 
3 997 500 1001 
3 654 968 981 
3 481 545 962 
3 914 337 956 
3 413 415 947 
3 232 90 969 
3 289 290 291 
3 98 99 964 
3 904 462 957 
3 324 327 948 
3 613 764 982 
3 597 708 992 
3 592 914 956 
3 701 700 965 
3 980 799 984 
3 676 599 982 
3 933 594 967 
3 556 810 991 
3 590 673 966 
3 354 352 993 
3 931 651 971 
3 956 337 968 
3 308 931 971 
3 725 563 963 
3 671 556 999 
3 337 338 968 
3 878 443 970 
3 306 308 971 
3 1068 282 1081 
3 783 516 1016 
3 737 234 1054 
3 518 909 990 
3 577 970 975 
3 524 562 998 
3 296 292 974 
3 89 280 986 
3 35 34 972 
3 83 224 282 
3 244 231 986 
3 653 654 981 
3 647 819 979 
3 604 603 978 
3 1010 795 1013 
3 994 804 997 
3 507 423 967 
3 516 426 976 
3 761 1063 1073 
3 875 549 946 
3 808 648 975 
3 979 819 983 
3 872 894 1003 
3 287 248 288 
3 292 294 974 
3 18 738 1039 
3 856 855 977 
3 681 678 1025 
3 841 503 1004 
3 819 820 983 
3 335 984 1005 
3 796 795 1010 
3 800 798 980 
3 401 577 979 
3 297 376 987 
3 983 820 985 
3 335 926 984 
3 971 651 989 
3 687 686 1059 
3 445 513 1011 
3 820 822 985 
3 401 979 983 
3 88 242 996 
3 339 336 1005 
3 985 822 988 
3 259 75 1012 
3 74 283 1012 
3 280 230 996 
3 880 401 983 
3 658 657 1015 
3 737 735 1042 
3 599 613 982 
3 645 543 1009 
3 1015 657 1017 
3 1000 783 1016 
3 231 89 986 
3 822 825 988 
3 9 249 1014 
3 287 288 289 
3 880 983 985 
3 341 928 981 
3 970 808 975 
3 728 767 1081 
3 1036 274 1110 
3 343 340 1013 
3 919 789 1034 
3 556 991 999 
3 493 880 985 
3 493 985 988 
3 984 799 1005 
3 558 840 1090 
3 767 1068 1081 
3 877 493 988 
3 966 673 973 
3 607 659 1018 
3 651 925 989 
3 748 747 1002 
3 649 365 989 
3 724 238 1077 
3 112 113 1025 
3 24 23 1021 
3 71 70 1022 
3 73 72 1023 
3 347 344 1017 
3 810 967 991 
3 926 591 984 
3 909 691 990 
3 83 282 953 
3 874 917 1019 
3 294 297 987 
3 82 248 287 
3 48 243 1032 
3 945 8 1014 
3 267 49 1032 
3 974 294 987 
3 352 348 1020 
3 967 594 991 
3 347 1017 1018 
3 626 718 1042 
3 1018 659 1020 
3 376 299 1008 
3 629 597 992 
3 343 1013 1015 
3 649 989 998 
3 1025 113 1112 
3 339 1005 1010 
3 754 777 995 
3 358 354 993 
3 659 608 1027 
3 594 601 991 
3 833 452 1079 
3 87 278 1024 
3 242 229 1024 
3 358 1027 1030 
3 653 981 994 
3 918 948 1000 
3 989 925 998 
3 758 759 1031 
3 230 88 996 
3 861 259 1033 
3 706 611 1056 
3 591 980 984 
3 234 737 1049 
3 747 616 1002 
3 928 805 994 
3 596 650 1028 
3 981 928 994 
3 641 946 1117 
3 652 653 997 
3 718 624 1041 
3 948 784 1000 
3 653 994 997 
3 991 601 999 
3 515 736 1116 
3 894 358 1030 
3 665 737 1054 
3 652 997 1001 
3 625 705 1041 
3 1025 678 1095 
3 286 79 1036 
3 78 274 1036 
3 839 236 1038 
3 733 652 1001 
3 502 1003 1004 
3 502 872 1003 
3 998 562 1006 
3 601 632 999 
3 925 524 998 
3 339 1010 1013 
3 101 102 1037 
3 273 863 1072 
3 503 502 1004 
3 462 919 1034 
3 602 918 1000 
3 685 883 1007 
3 410 932 1028 
3 336 335 1005 
3 837 840 1044 
3 799 796 1010 
3 17 18 1039 
3 299 410 1008 
3 543 558 1009 
3 826 958 1109 
3 650 649 1006 
3 513 675 1011 
3 993 659 1027 
3 1014 249 1088 
3 602 1000 1016 
3 75 74 1012 
3 831 830 1044 
3 890 268 1056 
3 769 266 1067 
3 283 1023 1107 
3 726 660 1050 
3 791 251 1031 
3 340 339 1013 
3 343 1015 1017 
3 787 786 1046 
3 261 112 1025 
3 8 9 1014 
3 826 1109 1123 
3 358 993 1027 
3 795 658 1015 
3 86 239 1040 
3 278 228 1040 
3 686 637 1047 
3 1005 799 1010 
3 921 615 1043 
3 555 671 1048 
3 245 64 1052 
3 63 273 1052 
3 344 343 1017 
3 272 818 1059 
3 681 1025 1112 
3 85 279 1045 
3 834 833 1079 
3 239 227 1045 
3 632 602 1016 
3 657 607 1018 
3 1013 795 1015 
3 835 622 1071 
3 679 1036 1110 
3 1017 657 1018 
3 631 874 1019 
3 539 635 1057 
3 871 24 1021 
3 70 284 1022 
3 283 73 1023 
3 347 1018 1020 
3 229 87 1024 
3 348 347 1020 
3 66 65 1058 
3 84 234 1049 
3 279 226 1049 
3 721 957 1034 
3 864 257 1047 
3 636 623 1060 
3 649 998 1006 
3 675 676 1053 
3 761 763 1063 
3 712 710 1064 
3 1027 876 1030 
3 608 876 1027 
3 1033 259 1113 
3 1048 675 1053 
3 256 110 1087 
3 628 964 1029 
3 711 713 1029 
3 710 683 1064 
3 593 622 1061 
3 876 646 1030 
3 656 868 1091 
3 885 515 1064 
3 241 764 1094 
3 759 762 1031 
3 932 596 1028 
3 943 907 1050 
3 547 484 1070 
3 483 644 1070 
3 724 619 1072 
3 237 835 1071 
3 670 1014 1088 
3 49 48 1032 
3 6 265 1075 
3 964 711 1029 
3 788 789 1097 
3 663 688 1076 
3 246 860 1083 
3 31 254 1080 
3 104 864 1082 
3 940 254 1085 
3 787 1046 1121 
3 258 103 1082 
3 261 1025 1095 
3 871 1021 1062 
3 518 990 1101 
3 656 655 1085 
3 67 66 1084 
3 756 758 1067 
3 448 936 1061 
3 818 815 1055 
3 846 844 1086 
3 671 1011 1048 
3 52 241 1094 
3 862 861 1033 
3 269 53 1094 
3 622 621 1071 
3 699 701 1058 
3 449 448 1079 
3 854 1007 1106 
3 270 882 1092 
3 779 669 1093 
3 689 726 1080 
3 682 684 1037 
3 289 291 1065 
3 735 626 1042 
3 791 1031 1108 
3 849 845 1100 
3 666 1068 1117 
3 1011 675 1048 
3 100 101 1098 
3 669 667 1093 
3 3 80 1102 
3 23 3 1102 
3 129 0 1103 
3 0 4 1103 
3 72 1 1104 
3 1 97 1104 
3 2 71 1105 
3 22 2 1105 
3 852 285 1103 
3 114 237 1112 
3 965 662 1074 
3 610 717 1089 
3 531 480 1101 
3 695 699 1125 
3 16 250 1123 
3 240 14 1109 
3 736 714 1116 
3 905 833 1111 
3 671 999 1035 
3 990 859 1101 
3 888 547 1119 
3 1031 762 1108 
3 79 78 1036 
3 958 240 1109 
3 713 715 1107 
3 609 890 1120 
3 1063 801 1073 
3 1028 650 1063 
3 102 258 1037 
3 632 976 1035 
3 950 752 1099 
3 615 670 1088 
3 236 865 1038 
3 561 609 1120 
3 957 462 1034 
3 833 831 1111 
3 716 1033 1113 
3 842 260 1074 
3 609 939 1089 
3 959 609 1089 
3 250 17 1039 
3 727 728 1081 
3 228 86 1040 
3 624 625 1041 
3 815 817 1055 
3 999 632 1035 
3 917 656 1091 
3 786 269 1046 
3 830 837 1044 
3 839 1038 1090 
3 227 85 1045 
3 736 538 1069 
3 644 921 1043 
3 907 669 1115 
3 1007 883 1106 
3 720 721 1046 
3 637 638 1047 
3 781 267 1051 
3 557 555 1048 
3 817 816 1065 
3 811 674 1077 
3 669 972 1115 
3 1021 286 1062 
3 226 84 1049 
3 660 943 1050 
3 268 772 1056 
3 1046 721 1121 
3 557 1048 1053 
3 64 63 1052 
3 763 1028 1063 
3 81 727 1122 
3 666 665 1054 
3 762 761 1073 
3 528 908 1055 
3 629 870 1066 
3 677 557 1053 
3 245 1052 1125 
3 538 539 1057 
3 241 781 1114 
3 911 724 1077 
3 674 911 1077 
3 1043 849 1100 
3 65 245 1058 
3 827 272 1059 
3 623 631 1060 
3 840 839 1090 
3 635 679 1110 
3 716 736 1069 
3 852 5 1075 
3 936 593 1061 
3 650 801 1063 
3 254 867 1085 
3 679 636 1062 
3 982 241 1114 
3 683 885 1064 
3 275 900 1076 
3 766 728 1095 
3 900 690 1076 
3 734 558 1090 
3 224 81 1122 
3 547 1086 1119 
3 661 629 1066 
3 873 756 1067 
3 291 370 1065 
3 484 483 1070 
3 619 692 1072 
3 673 882 1097 
3 1051 267 1096 
3 890 1056 1120 
3 801 707 1073 
3 1038 734 1090 
3 621 681 1071 
3 662 661 1074 
3 853 852 1075 
3 5 6 1075 
3 953 282 1068 
3 690 663 1076 
3 238 811 1077 
3 247 792 1078 
3 1019 917 1091 
3 267 1032 1096 
3 973 673 1097 
3 1064 515 1116 
3 32 31 1080 
3 452 449 1079 
3 103 104 1082 
3 831 1044 1111 
3 860 858 1083 
3 260 67 1084 
3 816 256 1087 
3 977 854 1106 
3 844 847 1086 
3 1078 792 1108 
3 655 940 1085 
3 252 779 1093 
3 249 849 1088 
3 678 766 1095 
3 1052 694 1125 
3 1021 23 1102 
3 71 1022 1105 
3 1023 72 1104 
3 882 788 1097 
3 531 977 1106 
3 1050 907 1115 
3 246 1083 1124 
3 802 270 1092 
3 950 252 1093 
3 728 261 1095 
3 939 610 1089 
3 538 1057 1069 
3 868 253 1091 
3 53 52 1094 
3 259 1012 1113 
3 792 791 1108 
3 667 950 1093 
3 1033 716 1069 
3 1078 1108 1118 
3 845 846 1100 
3 264 100 1098 
3 717 677 1096 
3 80 286 1102 
3 285 129 1103 
3 97 628 1104 
3 627 22 1105 
3 480 518 1101 
3 789 787 1121 
3 752 873 1099 
3 253 1019 1091 
3 883 531 1106 
3 1068 767 1117 
3 14 15 1109 
3 274 862 1110 
3 113 114 1112 
3 972 255 1115 
3 715 716 1113 
3 532 905 1111 
3 714 712 1116 
3 1032 717 1096 
3 1109 15 1123 
3 282 224 1122 
3 644 1043 1100 
3 824 888 1119 
3 15 16 1123 
3 676 982 1114 
3 847 240 1126 
3 958 824 1126 
3 691 690 1124 
3 694 695 1125 
3 611 561 1120 
3 946 666 1117 
3 286 1021 1102 
3 1022 627 1105 
3 628 1023 1104 
3 1012 715 1113 
3 1119 847 1126 
3 824 1119 1126 
3 240 958 1126 
3 721 1034 1121 
3 1044 532 1111 
3 1056 611 1120 
3 1029 713 1107 
3 255 1050 1115 
3 1034 789 1121 
3 712 1064 1116 
3 762 1073 1118 
3 1051 676 1114 
3 781 1051 1114 
3 1081 282 1122 
3 1073 707 1118 
3 707 1078 1118 
3 1083 691 1124 
3 1086 847 1119 
3 727 1081 1122 
3 1108 762 1118 
3 150 151 152 
3 150 152 153 
3 149 150 153 
3 149 153 154 
3 148 149 154 
3 155 148 154 
3 155 147 148 
3 155 156 147 
3 156 146 147 
3 156 157 146 
3 157 145 146 
3 157 158 145 
3 158 144 145 
3 158 159 144 
3 144 159 143 
3 159 160 143 
3 160 142 143 
3 131 88 1127 
3 160 161 142 
3 161 141 142 
3 171 88 131 
3 161 162 141 
3 162 140 141 
3 162 163 140 
3 140 163 139 
3 163 164 139 
3 130 131 1127 
3 139 164 138 
3 164 165 138 
3 138 165 137 
3 165 166 137 
3 137 166 136 
3 166 167 136 
3 136 167 135 
3 167 168 135 
3 135 168 134 
3 168 169 134 
3 88 229 1127 
3 169 170 133 
3 169 133 134 
3 170 171 132 
3 133 170 132 
3 132 171 131 
3 229 130 1127 
3 92 93 1128 
3 152 151 1128 
3 93 152 1128 
3 151 92 1128 
3 229 87 130 
3 189 190 152 
3 153 189 152 
3 188 189 153 
3 154 188 153 
3 187 188 154 
3 155 187 154 
3 186 187 155 
3 156 186 155 
3 185 186 156 
3 185 156 157 
3 184 185 157 
3 158 184 157 
3 183 184 158 
3 159 183 158 
3 182 183 159 
3 160 182 159 
3 89 170 1129 
3 181 182 160 
3 181 160 161 
3 170 171 1129 
3 181 161 180 
3 180 161 162 
3 170 89 172 
3 179 180 162 
3 179 162 163 
3 178 179 163 
3 178 163 164 
3 177 178 164 
3 165 177 164 
3 230 89 1129 
3 176 177 165 
3 176 165 166 
3 175 176 166 
3 175 166 167 
3 174 167 168 
3 174 175 167 
3 168 169 173 
3 174 168 173 
3 169 170 172 
3 169 172 173 
3 171 230 1129 
3 94 93 1130 
3 152 190 1130 
3 93 152 1130 
3 190 94 1130 
3 171 88 230 
3 189 190 191 
3 192 189 191 
3 188 189 192 
3 193 188 192 
3 187 188 193 
3 194 187 193 
3 186 187 194 
3 195 186 194 
3 185 186 195 
3 196 185 195 
3 184 185 196 
3 197 184 196 
3 183 184 197 
3 183 197 198 
3 182 183 198 
3 173 90 1131 
3 199 182 198 
3 90 173 207 
3 182 199 181 
3 199 200 181 
3 181 200 180 
3 200 201 180 
3 201 179 180 
3 179 201 202 
3 172 173 1131 
3 179 202 178 
3 202 203 178 
3 203 177 178 
3 203 204 177 
3 204 176 177 
3 205 176 204 
3 176 205 175 
3 175 205 206 
3 174 206 207 
3 174 175 206 
3 90 231 1131 
3 173 174 207 
3 231 172 1131 
3 94 95 1132 
3 191 190 1132 
3 95 191 1132 
3 190 94 1132 
3 89 172 231 
3 222 223 191 
3 192 222 191 
3 221 222 192 
3 193 221 192 
3 220 221 193 
3 194 220 193 
3 219 220 194 
3 195 219 194 
3 218 219 195 
3 196 218 195 
3 217 218 196 
3 197 217 196 
3 216 217 197 
3 91 206 1133 
3 216 197 198 
3 215 216 198 
3 206 207 1133 
3 199 215 198 
3 215 199 214 
3 206 91 208 
3 199 200 214 
3 200 213 214 
3 200 201 213 
3 201 212 213 
3 201 202 212 
3 232 91 1133 
3 202 211 212 
3 202 203 211 
3 203 204 210 
3 203 210 211 
3 204 205 209 
3 204 209 210 
3 205 206 208 
3 205 208 209 
3 207 232 1133 
3 96 95 1134 
3 191 223 1134 
3 95 191 1134 
3 223 96 1134 
3 90 232 207 
3 222 223 97 
3 222 97 98 
3 221 222 98 
3 221 98 99 
3 220 221 99 
3 220 99 100 
3 219 220 100 
3 219 100 101 
3 218 219 101 
3 218 101 102 
3 217 218 102 
3 217 102 103 
3 209 82 1135 
3 216 217 103 
3 110 82 209 
3 216 103 104 
3 215 216 104 
3 105 215 104 
3 214 215 105 
3 106 214 105 
3 213 214 106 
3 213 106 107 
3 208 209 1135 
3 213 107 212 
3 107 108 212 
3 108 211 212 
3 108 109 211 
3 109 110 210 
3 211 109 210 
3 210 110 209 
3 82 233 1135 
3 233 208 1135 
3 96 1 1136 
3 97 223 1136 
3 1 97 1136 
3 223 96 1136 
3 233 91 208 

CELL_TYPES 2134
5
5
5
5
5
5
5
5
5
5
5
5
5
5
5
5
5
5
5
5
5
5
5
5
5
5
5
5
5
5
5
5
5
5
5
5
5
5
5
5
5
5
5
5
5
5
5
5
5
5
5
5
5
5
5
5
5
5
5
5
5
5
5
5
5
5
5
5
5
5
5
5
5
5
5
5
5
5
5
5
5
5
5
5
5
5
5
5
5
5
5
5
5
5
5
5
5
5
5
5
5
5
5
5
5
5
5
5
5
5
5
5
5
5
5
5
5
5
5
5
5
5
5
5
5
5
5
5
5
5
5
5
5
5
5
5
5
5
5
5
5
5
5
5
5
5
5
5
5
5
5
5
5
5
5
5
5
5
5
5
5
5
5
5
5
5
5
5
5
5
5
5
5
5
5
5
5
5
5
5
5
5
5
5
5
5
5
5
5
5
5
5
5
5
5
5
5
5
5
5
5
5
5
5
5
5
5
5
5
5
5
5
5
5
5
5
5
5
5
5
5
5
5
5
5
5
5
5
5
5
5
5
5
5
5
5
5
5
5
5
5
5
5
5
5
5
5
5
5
5
5
5
5
5
5
5
5
5
5
5
5
5
5
5
5
5
5
5
5
5
5
5
5
5
5
5
5
5
5
5
5
5
5
5
5
5
5
5
5
5
5
5
5
5
5
5
5
5
5
5
5
5
5
5
5
5
5
5
5
5
5
5
5
5
5
5
5
5
5
5
5
5
5
5
5
5
5
5
5
5
5
5
5
5
5
5
5
5
5
5
5
5
5
5
5
5
5
5
5
5
5
5
5
5
5
5
5
5
5
5
5
5
5
5
5
5
5
5
5
5
5
5
5
5
5
5
5
5
5
5
5
5
5
5
5
5
5
5
5
5
5
5
5
5
5
5
5
5
5
5
5
5
5
5
5
5
5
5
5
5
5
5
5
5
5
5
5
5
5
5
5
5
5
5
5
5
5
5
5
5
5
5
5
5
5
5
5
5
5
5
5
5
5
5
5
5
5
5
5
5
5
5
5
5
5
5
5
5
5
5
5
5
5
5
5
5
5
5
5
5
5
5
5
5
5
5
5
5
5
5
5
5
5
5
5
5
5
5
5
5
5
5
5
5
5
5
5
5
5
5
5
5
5
5
5
5
5
5
5
5
5
5
5
5
5
5
5
5
5
5
5
5
5
5
5
5
5
5
5
5
5
5
5
5
5
5
5
5
5
5
5
5
5
5
5
5
5
5
5
5
5
5
5
5
5
5
5
5
5
5
5
5
5
5
5
5
5
5
5
5
5
5
5
5
5
5
5
5
5
5
5
5
5
5
5
5
5
5
5
5
5
5
5
5
5
5
5
5
5
5
5
5
5
5
5
5
5
5
5
5
5
5
5
5
5
5
5
5
5
5
5
5
5
5
5
5
5
5
5
5
5
5
5
5
5
5
5
5
5
5
5
5
5
5
5
5
5
5
5
5
5
5
5
5
5
5
5
5
5
5
5
5
5
5
5
5
5
5
5
5
5
5
5
5
5
5
5
5
5
5
5
5
5
5
5
5
5
5
5
5
5
5
5
5
5
5
5
5
5
5
5
5
5
5
5
5
5
5
5
5
5
5
5
5
5
5
5
5
5
5
5
5
5
5
5
5
5
5
5
5
5
5
5
5
5
5
5
5
5
5
5
5
5
5
5
5
5
5
5
5
5
5
5
5
5
5
5
5
5
5
5
5
5
5
5
5
5
5
5
5
5
5
5
5
5
5
5
5
5
5
5
5
5
5
5
5
5
5
5
5
5
5
5
5
5
5
5
5
5
5
5
5
5
5
5
5
5
5
5
5
5
5
5
5
5
5
5
5
5
5
5
5
5
5
5
5
5
5
5
5
5
5
5
5
5
5
5
5
5
5
5
5
5
5
5
5
5
5
5
5
5
5
5
5
5
5
5
5
5
5
5
5
5
5
5
5
5
5
5
5
5
5
5
5
5
5
5
5
5
5
5
5
5
5
5
5
5
5
5
5
5
5
5
5
5
5
5
5
5
5
5
5
5
5
5
5
5
5
5
5
5
5
5
5
5
5
5
5
5
5
5
5
5
5
5
5
5
5
5
5
5
5
5
5
5
5
5
5
5
5
5
5
5
5
5
5
5
5
5
5
5
5
5
5
5
5
5
5
5
5
5
5
5
5
5
5
5
5
5
5
5
5
5
5
5
5
5
5
5
5
5
5
5
5
5
5
5
5
5
5
5
5
5
5
5
5
5
5
5
5
5
5
5
5
5
5
5
5
5
5
5
5
5
5
5
5
5
5
5
5
5
5
5
5
5
5
5
5
5
5
5
5
5
5
5
5
5
5
5
5
5
5
5
5
5
5
5
5
5
5
5
5
5
5
5
5
5
5
5
5
5
5
5
5
5
5
5
5
5
5
5
5
5
5
5
5
5
5
5
5
5
5
5
5
5
5
5
5
5
5
5
5
5
5
5
5
5
5
5
5
5
5
5
5
5
5
5
5
5
5
5
5
5
5
5
5
5
5
5
5
5
5
5
5
5
5
5
5
5
5
5
5
5
5
5
5
5
5
5
5
5
5
5
5
5
5
5
5
5
5
5
5
5
5
5
5
5
5
5
5
5
5
5
5
5
5
5
5
5
5
5
5
5
5
5
5
5
5
5
5
5
5
5
5
5
5
5
5
5
5
5
5
5
5
5
5
5
5
5
5
5
5
5
5
5
5
5
5
5
5
5
5
5
5
5
5
5
5
5
5
5
5
5
5
5
5
5
5
5
5
5
5
5
5
5
5
5
5
5
5
5
5
5
5
5
5
5
5
5
5
5
5
5
5
5
5
5
5
5
5
5
5
5
5
5
5
5
5
5
5
5
5
5
5
5
5
5
5
5
5
5
5
5
5
5
5
5
5
5
5
5
5
5
5
5
5
5
5
5
5
5
5
5
5
5
5
5
5
5
5
5
5
5
5
5
5
5
5
5
5
5
5
5
5
5
5
5
5
5
5
5
5
5
5
5
5
5
5
5
5
5
5
5
5
5
5
5
5
5
5
5
5
5
5
5
5
5
5
5
5
5
5
5
5
5
5
5
5
5
5
5
5
5
5
5
5
5
5
5
5
5
5
5
5
5
5
5
5
5
5
5
5
5
5
5
5
5
5
5
5
5
5
5
5
5
5
5
5
5
5
5
5
5
5
5
5
5
5
5
5
5
5
5
5
5
5
5
5
5
5
5
5
5
5
5
5
5
5
5
5
5
5
5
5
5
5
5
5
5
5
5
5
5
5
5
5
5
5
5
5
5
5
5
5
5
5
5
5
5
5
5
5
5
5
5
5
5
5
5
5
5
5
5
5
5
5
5
5
5
5
5
5
5
5
5
5
5
5
5
5
5
5
5
5
5
5
5
5
5
5
5
5
5
5
5
5
5
5
5
5
5
5
5
5
5
5
5
5
5
5
5
5
5
5
5
5
5
5
5
5
5
5
5
5
5
5
5
5
5
5
5
5
5
5
5
5
5
5
5
5
5
5
5
5
5
5
5
5
5
5
5
5
5
5
5
5
5
5
5
5
5
5
5
5
5
5
5
5
5
5
5
5
5
5
5
5
5
5
5
5
5
5
5
5
5
5
5
5
5
5
5
5
5
5
5
5
5
5
5
5
5
5
5
5
5
5
5
5
5
5
5
5
5
5
5
5
5
5
5
5
5
5
5
5
5
5
5
5
5
5
5
5
5
5
5
5
5
5
5
5
5
5
5
5
5
5
5
5
5
5
5
5
5
5
5
5
5
5
5
5
5
5
5
5
5
5
5
5
5
5
5
5
5
5
5
5
5
5
5
5
5
5
5
5
5
5
5
5
5
5
5
5
5
5
5
5
5
5
5
5
5
5
5
5
5
5
5
5
5
5
5
5
5
5
5
5
5
5
5
5
5
5
5
5
5
5
5
5
5
5
5
5
5
5
5
5
5
5
5
5
5
5
5
5
5
5
5
5
5
5
5
5
5
5
5
5
5
5
5
5
5
5
5
5
5
5
5
5
5
5
5
5
5
5
5
5
5
5
5
5
5
5
5
5
5
5
5
5
5
5
5
5
5
5
5
5
5
5
5
5
5
5
5
5
5
5
5
5
5
5
5
5
5
5
5
5
5
5
5
5
5
5
5
5
5
5
5
5
5
5
5
5
5
5
5
5
5
5
5
5
5
5
5
5
5
5
5
5
5
5
5
5
5
5
5
5
5
5
5
5
5
5
5
5
5
5
5
5
5
5
5
5
5
5
5
5
5
5
5
5
5
5
5
5
5
5
5
5
5
5
5
5
5
5
5
5
5
5
5
5
5
5
5
5
5
5
5
5
5
5
5
5
5
5
5
5
5
5
5
5
5
5
5
5
5
5
5
5
5
5
5
5
5
5
5
5
5
5
5
5
5
5
5
5
5
5
5
5
5
5
5
5
5
5
5
5
5
5
5
5
5
5
5
5
5
5
5
5
5
5
5
5
5
5
5
5
5
5
5
5
5
5
5
5
5
5
5
5
5
5
5
5
5
5
5
5
5
5
5
5
5
5
5
5
5
5
5
5
5
5
5
5
5
5
5
5
5
5
5
5
5
5
5
5
5
5
5
5
5
5
5
5
5
5
5
5
5
5
5
5
5
5
5
5
5
5
5
5
5
5
5
5
5
5
5
5
5
5
5
5
5
5
5
5
5
5
5
5
5
5
5
5
5
5
5
5
5
5
5
5
5
5
5
5
5
5
5
5
5
5
5
5
5
5
5
5
5
5
5
5
5
5
5
5
5
5
5
5
5
5
5
5
5
5

POINT_DATA 1137

VECTORS coord float
0.0 0.0 0.0 
5.000000000000e+01 -1.000000000000e+01 0.0 
0.0 -2.000000000000e+01 0.0 
5.000000000000e+01 -2.000000000000e+01 0.0 
0.0 -9.999999999991e-01 0.0 
0.0 -1.999999999998e+00 0.0 
0.0 -2.999999999997e+00 0.0 
0.0 -3.999999999994e+00 0.0 
0.0 -4.999999999991e+00 0.0 
0.0 -5.999999999988e+00 0.0 
0.0 -6.999999999985e+00 0.0 
0.0 -7.999999999982e+00 0.0 
0.0 -8.999999999983e+00 0.0 
0.0 -9.999999999985e+00 0.0 
0.0 -1.099999999999e+01 0.0 
0.0 -1.199999999999e+01 0.0 
0.0 -1.299999999999e+01 0.0 
0.0 -1.399999999999e+01 0.0 
0.0 -1.499999999999e+01 0.0 
0.0 -1.599999999999e+01 0.0 
0.0 -1.700000000000e+01 0.0 
0.0 -1.800000000000e+01 0.0 
0.0 -1.900000000000e+01 0.0 
4.900000000001e+01 -2.000000000000e+01 0.0 
4.800000000001e+01 -2.000000000000e+01 0.0 
4.700000000002e+01 -2.000000000000e+01 0.0 
4.600000000003e+01 -2.000000000000e+01 0.0 
4.500000000004e+01 -2.000000000000e+01 0.0 
4.400000000004e+01 -2.000000000000e+01 0.0 
4.300000000005e+01 -2.000000000000e+01 0.0 
4.200000000006e+01 -2.000000000000e+01 0.0 
4.100000000006e+01 -2.000000000000e+01 0.0 
4.000000000007e+01 -2.000000000000e+01 0.0 
3.900000000008e+01 -2.000000000000e+01 0.0 
3.800000000009e+01 -2.000000000000e+01 0.0 
3.700000000009e+01 -2.000000000000e+01 0.0 
3.600000000010e+01 -2.000000000000e+01 0.0 
3.500000000011e+01 -2.000000000000e+01 0.0 
3.400000000011e+01 -2.000000000000e+01 0.0 
3.300000000012e+01 -2.000000000000e+01 0.0 
3.200000000013e+01 -2.000000000000e+01 0.0 
3.100000000013e+01 -2.000000000000e+01 0.0 
3.000000000013e+01 -2.000000000000e+01 0.0 
2.900000000013e+01 -2.000000000000e+01 0.0 
2.800000000013e+01 -2.000000000000e+01 0.0 
2.700000000013e+01 -2.000000000000e+01 0.0 
2.600000000013e+01 -2.000000000000e+01 0.0 
2.500000000013e+01 -2.000000000000e+01 0.0 
2.400000000013e+01 -2.000000000000e+01 0.0 
2.300000000013e+01 -2.000000000000e+01 0.0 
2.200000000013e+01 -2.000000000000e+01 0.0 
2.100000000013e+01 -2.000000000000e+01 0.0 
2.000000000013e+01 -2.000000000000e+01 0.0 
1.900000000013e+01 -2.000000000000e+01 0.0 
1.800000000013e+01 -2.000000000000e+01 0.0 
1.700000000012e+01 -2.000000000000e+01 0.0 
1.600000000011e+01 -2.000000000000e+01 0.0 
1.500000000011e+01 -2.000000000000e+01 0.0 
1.400000000010e+01 -2.000000000000e+01 0.0 
1.300000000009e+01 -2.000000000000e+01 0.0 
1.200000000009e+01 -2.000000000000e+01 0.0 
1.100000000008e+01 -2.000000000000e+01 0.0 
1.000000000007e+01 -2.000000000000e+01 0.0 
9.000000000064e+00 -2.000000000000e+01 0.0 
8.000000000057e+00 -2.000000000000e+01 0.0 
7.000000000050e+00 -2.000000000000e+01 0.0 
6.000000000043e+00 -2.000000000000e+01 0.0 
5.000000000036e+00 -2.000000000000e+01 0.0 
4.000000000028e+00 -2.000000000000e+01 0.0 
3.000000000021e+00 -2.000000000000e+01 0.0 
2.000000000014e+00 -2.000000000000e+01 0.0 
1.000000000007e+00 -2.000000000000e+01 0.0 
5.000000000000e+01 -1.100000000000e+01 0.0 
5.000000000000e+01 -1.200000000000e+01 0.0 
5.000000000000e+01 -1.300000000000e+01 0.0 
5.000000000000e+01 -1.400000000000e+01 0.0 
5.000000000000e+01 -1.500000000000e+01 0.0 
5.000000000000e+01 -1.600000000000e+01 0.0 
5.000000000000e+01 -1.700000000000e+01 0.0 
5.000000000000e+01 -1.800000000000e+01 0.0 
5.000000000000e+01 -1.900000000000e+01 0.0 
2.000000000000e+01 0.0 0.0 
3.500000000000e+01 -1.000000000000e+01 0.0 
2.150000000000e+01 -1.000000000000e+00 0.0 
2.300000000000e+01 -2.000000000000e+00 0.0 
2.450000000000e+01 -3.000000000000e+00 0.0 
2.600000000000e+01 -4.000000000000e+00 0.0 
2.750000000000e+01 -5.000000000000e+00 0.0 
2.900000000000e+01 -6.000000000000e+00 0.0 
3.050000000000e+01 -7.000000000000e+00 0.0 
3.200000000000e+01 -8.000000000000e+00 0.0 
3.350000000000e+01 -9.000000000000e+00 0.0 
5.000000000000e+01 -5.000000000000e+00 0.0 
5.000000000000e+01 -6.000000000000e+00 0.0 
5.000000000000e+01 -7.000000000000e+00 0.0 
5.000000000000e+01 -8.000000000000e+00 0.0 
5.000000000000e+01 -9.000000000000e+00 0.0 
4.900000000000e+01 -1.000000000000e+01 0.0 
4.800000000000e+01 -1.000000000000e+01 0.0 
4.700000000000e+01 -1.000000000000e+01 0.0 
4.600000000000e+01 -1.000000000000e+01 0.0 
4.500000000000e+01 -1.000000000000e+01 0.0 
4.400000000000e+01 -1.000000000000e+01 0.0 
4.300000000000e+01 -1.000000000000e+01 0.0 
4.200000000000e+01 -1.000000000000e+01 0.0 
4.100000000000e+01 -1.000000000000e+01 0.0 
4.000000000000e+01 -1.000000000000e+01 0.0 
3.900000000000e+01 -1.000000000000e+01 0.0 
3.800000000000e+01 -1.000000000000e+01 0.0 
3.700000000000e+01 -1.000000000000e+01 0.0 
3.600000000000e+01 -1.000000000000e+01 0.0 
1.900000000000e+01 0.0 0.0 
1.800000000000e+01 0.0 0.0 
1.700000000000e+01 0.0 0.0 
1.600000000000e+01 0.0 0.0 
1.500000000000e+01 0.0 0.0 
1.400000000000e+01 0.0 0.0 
1.300000000000e+01 0.0 0.0 
1.200000000000e+01 0.0 0.0 
1.100000000000e+01 0.0 0.0 
1.000000000000e+01 0.0 0.0 
9.000000000000e+00 0.0 0.0 
8.000000000000e+00 0.0 0.0 
7.000000000000e+00 0.0 0.0 
6.000000000000e+00 0.0 0.0 
5.000000000000e+00 0.0 0.0 
4.000000000000e+00 0.0 0.0 
3.000000000000e+00 0.0 0.0 
2.000000000000e+00 0.0 0.0 
1.000000000000e+00 0.0 0.0 
2.847826086957e+01 -5.000000000000e+00 0.0 
2.945652173913e+01 -5.000000000000e+00 0.0 
3.043478260870e+01 -5.000000000000e+00 0.0 
3.141304347826e+01 -5.000000000000e+00 0.0 
3.239130434783e+01 -5.000000000000e+00 0.0 
3.336956521739e+01 -5.000000000000e+00 0.0 
3.434782608696e+01 -5.000000000000e+00 0.0 
3.532608695652e+01 -5.000000000000e+00 0.0 
3.630434782609e+01 -5.000000000000e+00 0.0 
3.728260869565e+01 -5.000000000000e+00 0.0 
3.826086956522e+01 -5.000000000000e+00 0.0 
3.923913043478e+01 -5.000000000000e+00 0.0 
4.021739130435e+01 -5.000000000000e+00 0.0 
4.119565217391e+01 -5.000000000000e+00 0.0 
4.217391304348e+01 -5.000000000000e+00 0.0 
4.315217391304e+01 -5.000000000000e+00 0.0 
4.413043478261e+01 -5.000000000000e+00 0.0 
4.510869565217e+01 -5.000000000000e+00 0.0 
4.608695652174e+01 -5.000000000000e+00 0.0 
4.706521739130e+01 -5.000000000000e+00 0.0 
4.804347826087e+01 -5.000000000000e+00 0.0 
4.902173913043e+01 -5.000000000000e+00 0.0 
4.900000000001e+01 -6.000000000000e+00 0.0 
4.800000000003e+01 -6.000000000000e+00 0.0 
4.700000000004e+01 -6.000000000000e+00 0.0 
4.600000000006e+01 -6.000000000000e+00 0.0 
4.500000000007e+01 -6.000000000000e+00 0.0 
4.400000000009e+01 -6.000000000000e+00 0.0 
4.300000000010e+01 -6.000000000000e+00 0.0 
4.200000000012e+01 -6.000000000000e+00 0.0 
4.100000000013e+01 -6.000000000000e+00 0.0 
4.000000000014e+01 -6.000000000000e+00 0.0 
3.900000000014e+01 -6.000000000000e+00 0.0 
3.800000000012e+01 -6.000000000000e+00 0.0 
3.700000000010e+01 -6.000000000000e+00 0.0 
3.600000000008e+01 -6.000000000000e+00 0.0 
3.500000000006e+01 -6.000000000000e+00 0.0 
3.400000000005e+01 -6.000000000000e+00 0.0 
3.300000000003e+01 -6.000000000000e+00 0.0 
3.200000000001e+01 -6.000000000000e+00 0.0 
3.100000000000e+01 -6.000000000000e+00 0.0 
3.000000000000e+01 -6.000000000000e+00 0.0 
3.147499999998e+01 -7.000000000000e+00 0.0 
3.244999999998e+01 -7.000000000000e+00 0.0 
3.342499999998e+01 -7.000000000000e+00 0.0 
3.439999999998e+01 -7.000000000000e+00 0.0 
3.537499999998e+01 -7.000000000000e+00 0.0 
3.634999999998e+01 -7.000000000000e+00 0.0 
3.732499999998e+01 -7.000000000000e+00 0.0 
3.829999999998e+01 -7.000000000000e+00 0.0 
3.927499999999e+01 -7.000000000000e+00 0.0 
4.024999999999e+01 -7.000000000000e+00 0.0 
4.122499999999e+01 -7.000000000000e+00 0.0 
4.219999999999e+01 -7.000000000000e+00 0.0 
4.317499999999e+01 -7.000000000000e+00 0.0 
4.414999999999e+01 -7.000000000000e+00 0.0 
4.512499999999e+01 -7.000000000000e+00 0.0 
4.609999999999e+01 -7.000000000000e+00 0.0 
4.707500000000e+01 -7.000000000000e+00 0.0 
4.805000000000e+01 -7.000000000000e+00 0.0 
4.902500000000e+01 -7.000000000000e+00 0.0 
4.900000000000e+01 -8.000000000000e+00 0.0 
4.800000000000e+01 -8.000000000000e+00 0.0 
4.700000000000e+01 -8.000000000000e+00 0.0 
4.600000000000e+01 -8.000000000000e+00 0.0 
4.500000000000e+01 -8.000000000000e+00 0.0 
4.400000000000e+01 -8.000000000000e+00 0.0 
4.300000000000e+01 -8.000000000000e+00 0.0 
4.200000000000e+01 -8.000000000000e+00 0.0 
4.100000000000e+01 -8.000000000000e+00 0.0 
4.000000000000e+01 -8.000000000000e+00 0.0 
3.900000000000e+01 -8.000000000000e+00 0.0 
3.800000000000e+01 -8.000000000000e+00 0.0 
3.700000000000e+01 -8.000000000000e+00 0.0 
3.600000000000e+01 -8.000000000000e+00 0.0 
3.500000000000e+01 -8.000000000000e+00 0.0 
3.400000000000e+01 -8.000000000000e+00 0.0 
3.300000000000e+01 -8.000000000000e+00 0.0 
3.447058823527e+01 -9.000000000000e+00 0.0 
3.544117647055e+01 -9.000000000000e+00 0.0 
3.641176470582e+01 -9.000000000000e+00 0.0 
3.738235294109e+01 -9.000000000000e+00 0.0 
3.835294117637e+01 -9.000000000000e+00 0.0 
3.932352941164e+01 -9.000000000000e+00 0.0 
4.029411764691e+01 -9.000000000000e+00 0.0 
4.126470588219e+01 -9.000000000000e+00 0.0 
4.223529411748e+01 -9.000000000000e+00 0.0 
4.320588235279e+01 -9.000000000000e+00 0.0 
4.417647058811e+01 -9.000000000000e+00 0.0 
4.514705882342e+01 -9.000000000000e+00 0.0 
4.611764705874e+01 -9.000000000000e+00 0.0 
4.708823529405e+01 -9.000000000000e+00 0.0 
4.805882352937e+01 -9.000000000000e+00 0.0 
4.902941176468e+01 -9.000000000000e+00 0.0 
2.075000000000e+01 -5.000000000006e-01 0.0 
2.225000000000e+01 -1.500000000000e+00 0.0 
2.375000000000e+01 -2.500000000000e+00 0.0 
2.525000000000e+01 -3.500000000000e+00 0.0 
2.675000000000e+01 -4.500000000000e+00 0.0 
2.825000000000e+01 -5.500000000000e+00 0.0 
2.975000000000e+01 -6.500000000000e+00 0.0 
3.125000000000e+01 -7.500000000000e+00 0.0 
3.275000000000e+01 -8.500000000000e+00 0.0 
3.425000000000e+01 -9.500000000000e+00 0.0 
2.226951693683e+01 -2.403913980114e+00 0.0 
1.650149491944e+01 -1.913490915758e+01 0.0 
1.050042386896e+01 -8.504605092970e-01 0.0 
1.553146524712e+01 -8.281255032105e-01 0.0 
1.150000000008e+01 -1.913397459621e+01 0.0 
2.530060260647e+01 -4.428336431260e+00 0.0 
8.651114563942e-01 -1.052096295641e+01 0.0 
2.050000000013e+01 -1.913397459622e+01 0.0 
2.819198729811e+01 -6.399519052838e+00 0.0 
2.445670302931e+01 -1.915649188023e+01 0.0 
3.117591465718e+01 -8.394293040695e+00 0.0 
7.465053044742e+00 -1.920411160581e+01 0.0 
6.398295709691e+00 -8.230098819370e-01 0.0 
2.849659607461e+01 -1.914296187762e+01 0.0 
3.418732642882e+01 -1.040265792588e+01 0.0 
8.386450935063e-01 -6.533605142809e+00 0.0 
9.178661865596e-01 -1.329769195597e+01 0.0 
3.149448624493e+01 -1.910466733764e+01 0.0 
3.552916747426e+01 -1.914628590759e+01 0.0 
4.449210346537e+01 -1.914359085008e+01 0.0 
4.140975975145e+01 -1.906941860733e+01 0.0 
3.847475958753e+01 -1.916622382724e+01 0.0 
3.653774794640e+01 -1.088712800241e+01 0.0 
4.047886341787e+01 -1.090139014048e+01 0.0 
4.348006339825e+01 -1.092792621489e+01 0.0 
4.919519968029e+01 -1.451526755068e+01 0.0 
4.500000000032e+00 -1.913397459621e+01 0.0 
1.856136921614e+01 -8.212235170404e-01 0.0 
3.499895312306e+00 -8.661165539723e-01 0.0 
9.076088696565e-01 -1.642306201891e+01 0.0 
4.655174095477e+01 -1.086183387525e+01 0.0 
9.430688970604e-01 -3.496112672958e+00 0.0 
3.353992337063e+01 -1.901202090820e+01 0.0 
2.249746016977e+01 -1.921262287282e+01 0.0 
2.650122741777e+01 -1.916123026018e+01 0.0 
1.863571384842e+01 -1.908325534840e+01 0.0 
1.450089971693e+01 -1.917691901860e+01 0.0 
1.350044695317e+01 -8.659695299584e-01 0.0 
3.849987469880e+01 -1.084154983397e+01 0.0 
9.454419857884e+00 -1.900818879936e+01 0.0 
4.917398660523e+01 -1.645692866081e+01 0.0 
8.500000000000e+00 -8.660254037844e-01 0.0 
8.660319230785e-01 -8.500111697188e+00 0.0 
4.649022621545e+01 -1.930506220113e+01 0.0 
2.667688107845e+01 -5.420288124331e+00 0.0 
2.379251615665e+01 -3.412225477429e+00 0.0 
2.966631491830e+01 -7.389030232731e+00 0.0 
3.267915035995e+01 -9.396934932445e+00 0.0 
2.074836922338e+01 -1.320054020319e+00 0.0 
4.915985743621e+01 -1.261973384855e+01 0.0 
2.527129768623e+00 -1.931592414663e+01 0.0 
1.538676247410e+00 -8.436956619311e-01 0.0 
4.908096641539e+01 -1.842484004551e+01 0.0 
3.478612492673e+01 -1.090889364140e+01 0.0 
3.409757055860e+01 -1.131991530427e+01 0.0 
3.501895309466e+01 -1.177687842717e+01 0.0 
3.407758073088e+01 -1.224293381580e+01 0.0 
3.484541875390e+01 -1.277051428430e+01 0.0 
3.400322025842e+01 -1.319022775640e+01 0.0 
3.321672625034e+01 -1.266779191233e+01 0.0 
3.315244139236e+01 -1.360984106532e+01 0.0 
3.236335186892e+01 -1.308463225210e+01 0.0 
3.478337442841e+01 -1.372341158982e+01 0.0 
3.230105923633e+01 -1.403023731610e+01 0.0 
3.150954055289e+01 -1.350301767700e+01 0.0 
3.144604792090e+01 -1.444931742516e+01 0.0 
3.065653897123e+01 -1.392357262981e+01 0.0 
3.071897610812e+01 -1.297447031198e+01 0.0 
2.986790411740e+01 -1.339226181535e+01 0.0 
2.993181466745e+01 -1.244703272398e+01 0.0 
2.908023061869e+01 -1.286254537734e+01 0.0 
2.901619051372e+01 -1.380881655279e+01 0.0 
2.822986160390e+01 -1.327695262116e+01 0.0 
2.829453476870e+01 -1.233265343811e+01 0.0 
2.744542905518e+01 -1.274510491105e+01 0.0 
2.751120089246e+01 -1.180368086886e+01 0.0 
2.666218649885e+01 -1.221619339205e+01 0.0 
2.672371209234e+01 -1.127125228527e+01 0.0 
2.587763216302e+01 -1.168539979114e+01 0.0 
2.581165585299e+01 -1.262994410089e+01 0.0 
2.502890882577e+01 -1.209827323619e+01 0.0 
2.509631327757e+01 -1.115492410304e+01 0.0 
2.424662989877e+01 -1.156630981079e+01 0.0 
2.431704046904e+01 -1.062389179334e+01 0.0 
2.346445438728e+01 -1.103427680694e+01 0.0 
2.339382552877e+01 -1.197964871788e+01 0.0 
2.260936050780e+01 -1.144513277642e+01 0.0 
2.268075012022e+01 -1.049911928216e+01 0.0 
2.182525737661e+01 -1.090920811464e+01 0.0 
2.189682319817e+01 -9.961716944568e+00 0.0 
2.104174127792e+01 -1.037266986667e+01 0.0 
2.111304367575e+01 -9.424179358711e+00 0.0 
2.025306185381e+01 -9.832727364719e+00 0.0 
2.018141124247e+01 -1.079140628871e+01 0.0 
1.938594498257e+01 -1.025147354112e+01 0.0 
1.946106490453e+01 -9.288010758448e+00 0.0 
1.858929958352e+01 -9.706319802516e+00 0.0 
1.851540991219e+01 -1.067205988724e+01 0.0 
1.771485303178e+01 -1.012504443115e+01 0.0 
1.764134552256e+01 -1.109360378538e+01 0.0 
1.683745148095e+01 -1.054496365337e+01 0.0 
1.691852964353e+01 -9.582555261178e+00 0.0 
1.603603813062e+01 -1.000160132379e+01 0.0 
1.595824239350e+01 -1.096750698862e+01 0.0 
1.515080624291e+01 -1.041639501931e+01 0.0 
1.523171602559e+01 -9.451711491453e+00 0.0 
1.434621060709e+01 -9.871956467464e+00 0.0 
1.426777178765e+01 -1.083749501371e+01 0.0 
1.345775282374e+01 -1.028803175500e+01 0.0 
1.354103873368e+01 -9.324918457162e+00 0.0 
1.265072018622e+01 -9.742612837270e+00 0.0 
1.257285762070e+01 -1.071557782384e+01 0.0 
1.175874815690e+01 -1.015972324288e+01 0.0 
1.184203019714e+01 -9.193604071377e+00 0.0 
1.094927709905e+01 -9.612103238656e+00 0.0 
1.086938022910e+01 -1.058685085646e+01 0.0 
1.005424098961e+01 -1.002939116380e+01 0.0 
9.977974613295e+00 -1.101324897989e+01 0.0 
1.012915646404e+01 -9.051815821181e+00 0.0 
9.237127782494e+00 -9.471239055559e+00 0.0 
9.308426593771e+00 -8.483376461131e+00 0.0 
8.418806073345e+00 -8.910712374517e+00 0.0 
2.253688464062e+01 -1.239459402279e+01 0.0 
8.495126726666e+00 -7.921646665254e+00 0.0 
9.389727383206e+00 -7.512103628377e+00 0.0 
7.601560812974e+00 -8.349460349344e+00 0.0 
7.525680547759e+00 -9.339736686940e+00 0.0 
7.677888324502e+00 -7.359727833346e+00 0.0 
6.782001206724e+00 -7.788454494773e+00 0.0 
6.858778622885e+00 -6.797338062822e+00 0.0 
2.196596590865e+01 -8.979025665442e+00 0.0 
2.816540108272e+01 -1.422634142353e+01 0.0 
5.961601194403e+00 -7.226824010712e+00 0.0 
6.038171749656e+00 -6.234825887079e+00 0.0 
6.936257279557e+00 -5.805287640737e+00 0.0 
6.115068918323e+00 -5.242109758768e+00 0.0 
3.564391741903e+01 -1.329240553876e+01 0.0 
3.558115605778e+01 -1.425902892003e+01 0.0 
3.645445282201e+01 -1.381970786460e+01 0.0 
3.639744204358e+01 -1.479198128612e+01 0.0 
3.727266909778e+01 -1.435399586226e+01 0.0 
5.216667013081e+00 -5.671788584287e+00 0.0 
3.220697293295e+01 -1.499594545107e+01 0.0 
3.551112158269e+01 -1.523479869250e+01 0.0 
2.836056961467e+01 -1.139032434851e+01 0.0 
2.516730388602e+01 -1.021382726837e+01 0.0 
1.844436907403e+01 -1.164097215196e+01 0.0 
5.885434318740e+00 -8.218694781467e+00 0.0 
5.064071066867e+00 -7.656614643901e+00 0.0 
4.988089103470e+00 -8.649722082718e+00 0.0 
1.079421050408e+01 -1.157014985435e+01 0.0 
9.902420005256e+00 -1.199903342656e+01 0.0 
1.071994252214e+01 -1.255727909771e+01 0.0 
9.826974788171e+00 -1.298659581767e+01 0.0 
1.064607883789e+01 -1.354595476388e+01 0.0 
9.751541265343e+00 -1.397556905071e+01 0.0 
8.932296185869e+00 -1.341553353988e+01 0.0 
8.856399248106e+00 -1.440570715508e+01 0.0 
8.036186803543e+00 -1.384470558472e+01 0.0 
1.057112875118e+01 -1.453516759081e+01 0.0 
1.146582585687e+01 -1.410539926903e+01 0.0 
7.959894480382e+00 -1.483563350928e+01 0.0 
7.138792279156e+00 -1.427465094140e+01 0.0 
7.062506792418e+00 -1.526615385482e+01 0.0 
6.240693558277e+00 -1.470508863040e+01 0.0 
6.316957575451e+00 -1.371212581281e+01 0.0 
5.418183007107e+00 -1.414253605022e+01 0.0 
5.494748364428e+00 -1.314886770603e+01 0.0 
1.756825565873e+01 -1.206433872514e+01 0.0 
1.837565773345e+01 -1.261356468266e+01 0.0 
1.749574831391e+01 -1.303769280014e+01 0.0 
1.830539187332e+01 -1.358828364284e+01 0.0 
1.742278925170e+01 -1.401367746928e+01 0.0 
1.823303007798e+01 -1.456432294258e+01 0.0 
1.734941694138e+01 -1.499213734361e+01 0.0 
1.653760041637e+01 -1.443920312098e+01 0.0 
3.056237977307e+01 -1.487132260174e+01 0.0 
1.866469084762e+01 -8.742953000418e+00 0.0 
1.953669694916e+01 -8.326038909849e+00 0.0 
1.874194303780e+01 -7.780688158966e+00 0.0 
1.961032016741e+01 -7.366854697285e+00 0.0 
1.881715755159e+01 -6.821102209649e+00 0.0 
1.968369797150e+01 -6.407747217358e+00 0.0 
1.889237123259e+01 -5.858375520026e+00 0.0 
1.802038875366e+01 -6.276202618170e+00 0.0 
1.809793837984e+01 -5.307629520489e+00 0.0 
1.721985207997e+01 -5.728242054488e+00 0.0 
1.729850893523e+01 -4.756990819347e+00 0.0 
1.641745664240e+01 -5.174636548624e+00 0.0 
2.495978509456e+01 -1.304406404294e+01 0.0 
1.911567814831e+01 -1.413854250293e+01 0.0 
1.904387332608e+01 -1.511463127723e+01 0.0 
1.992115934240e+01 -1.468788025898e+01 0.0 
7.013706899628e+00 -4.812582868662e+00 0.0 
5.342091874585e+00 -1.513658157269e+01 0.0 
1.139098043784e+01 -1.509488509480e+01 0.0 
1.228151810610e+01 -1.465617481983e+01 0.0 
1.646373110164e+01 -1.541993323337e+01 0.0 
5.293328636712e+00 -4.678385108584e+00 0.0 
1.975965862987e+01 -5.448124345648e+00 0.0 
2.054318374236e+01 -5.992561293251e+00 0.0 
3.721453439063e+01 -1.533216152738e+01 0.0 
3.809302733893e+01 -1.489235527381e+01 0.0 
1.220852788900e+01 -1.565304565230e+01 0.0 
4.394120899730e+00 -5.108397613210e+00 0.0 
8.779354620288e+00 -1.539524721159e+01 0.0 
1.817791047702e+01 -4.338570146253e+00 0.0 
4.518860013839e+00 -1.457343189307e+01 0.0 
4.442712140414e+00 -1.556841391069e+01 0.0 
8.115343466391e+00 -1.285760324283e+01 0.0 
1.985334703171e+01 -1.566478400426e+01 0.0 
2.071953850276e+01 -1.522074243119e+01 0.0 
1.634012953883e+01 -6.154777738301e+00 0.0 
1.553479994708e+01 -5.593730508879e+00 0.0 
1.561265946942e+01 -4.617761762647e+00 0.0 
1.470674212978e+01 -5.064576488228e+00 0.0 
1.464498299883e+01 -6.026514471420e+00 0.0 
1.383271561817e+01 -5.467796261169e+00 0.0 
1.389241253067e+01 -4.504338666645e+00 0.0 
1.301868735463e+01 -4.907185188626e+00 0.0 
1.294514184846e+01 -5.888160903592e+00 0.0 
1.212955968622e+01 -5.328262335277e+00 0.0 
1.220721122383e+01 -4.341264976687e+00 0.0 
1.131324345897e+01 -4.766773516508e+00 0.0 
5.266597955397e+00 -1.613148974258e+01 0.0 
1.737805990867e+01 -3.786677807525e+00 0.0 
3.078438094513e+01 -1.203225297748e+01 0.0 
1.131569882285e+01 -1.608511932110e+01 0.0 
1.728478341782e+01 -1.596017432313e+01 0.0 
3.803465906019e+01 -1.587509751228e+01 0.0 
3.891681276677e+01 -1.543395196905e+01 0.0 
3.897340985302e+01 -1.444710288980e+01 0.0 
3.980095968193e+01 -1.499059496613e+01 0.0 
3.974334598189e+01 -1.597921884150e+01 0.0 
4.062964983717e+01 -1.553518690417e+01 0.0 
4.068729602479e+01 -1.454434445295e+01 0.0 
4.151772679790e+01 -1.508974196007e+01 0.0 
4.157505195739e+01 -1.409694289912e+01 0.0 
4.240699932656e+01 -1.464347955968e+01 0.0 
4.234898051011e+01 -1.563721375790e+01 0.0 
4.323934606035e+01 -1.519082036405e+01 0.0 
4.329740528208e+01 -1.419587509788e+01 0.0 
4.413056841369e+01 -1.474359631875e+01 0.0 
4.418850110108e+01 -1.374786684042e+01 0.0 
4.502219770667e+01 -1.429605103525e+01 0.0 
4.496411937907e+01 -1.529215882720e+01 0.0 
4.490027319897e+00 -4.154167794594e+00 0.0 
1.565080385988e+01 -1.486411982419e+01 0.0 
1.557610691279e+01 -1.584855627870e+01 0.0 
4.195350646612e+00 -8.089117689096e+00 0.0 
4.124027797830e+00 -9.082831955007e+00 0.0 
4.917944318925e+00 -9.643530901533e+00 0.0 
4.020105689502e+00 -1.007439673661e+01 0.0 
4.587185899277e+01 -1.484039992728e+01 0.0 
4.580078661551e+01 -1.584043391042e+01 0.0 
2.061956522375e+01 -5.046701343981e+00 0.0 
2.139572955529e+01 -5.579553449826e+00 0.0 
3.715344357292e+01 -1.631485124583e+01 0.0 
3.618886196443e+00 -1.500471207167e+01 0.0 
3.695606940204e+00 -1.400939692294e+01 0.0 
2.438890661143e+01 -9.686110599723e+00 0.0 
2.523267572778e+01 -9.276766000622e+00 0.0 
2.446094171539e+01 -8.751904591412e+00 0.0 
2.529089822738e+01 -8.321495612547e+00 0.0 
2.606882688827e+01 -8.864724051119e+00 0.0 
2.452116646430e+01 -7.792756462004e+00 0.0 
1.235543269617e+01 -1.365845617339e+01 0.0 
4.318116874181e+01 -1.618567469992e+01 0.0 
7.835066111909e+00 -5.376366223896e+00 0.0 
7.905687335704e+00 -4.382539065697e+00 0.0 
3.542640009567e+00 -1.600035116542e+01 0.0 
1.572431503071e+01 -1.388358386695e+01 0.0 
2.574684696680e+01 -1.357896141127e+01 0.0 
2.488842657651e+01 -1.399674354505e+01 0.0 
2.568301775611e+01 -1.453552048595e+01 0.0 
2.481535572009e+01 -1.495542756508e+01 0.0 
2.561729699688e+01 -1.549784648532e+01 0.0 
2.474623061296e+01 -1.592058894178e+01 0.0 
2.394234041695e+01 -1.537572575827e+01 0.0 
2.065825452567e+01 -1.621899055217e+01 0.0 
2.387180528935e+01 -1.634552264687e+01 0.0 
4.585364400844e+01 -1.383912334080e+01 0.0 
1.998744432052e+01 -1.370317155541e+01 0.0 
1.205356951443e+01 -6.313580285498e+00 0.0 
5.396543905849e+00 -3.731818611283e+00 0.0 
1.139652573295e+01 -3.745819399350e+00 0.0 
3.574124306703e+00 -4.551456826011e+00 0.0 
3.494140761930e+00 -5.539787055649e+00 0.0 
1.213651452413e+01 -1.664505033022e+01 0.0 
2.555045568519e+01 -1.646529356744e+01 0.0 
2.641671114986e+01 -1.603899382371e+01 0.0 
2.612920721894e+01 -7.906435260873e+00 0.0 
2.690339829698e+01 -8.456969591431e+00 0.0 
1.978024383368e+01 -1.664410216353e+01 0.0 
3.732829979082e+01 -1.336926601859e+01 0.0 
4.074336584605e+01 -1.355133328401e+01 0.0 
4.163204691081e+01 -1.310280943992e+01 0.0 
3.773826114429e+00 -3.493444309145e+00 0.0 
1.228783001032e+01 -3.374822835872e+00 0.0 
4.057110462520e+01 -1.652588478000e+01 0.0 
2.132535497898e+01 -6.523623360525e+00 0.0 
2.216932532211e+01 -6.110044769206e+00 0.0 
1.825781152128e+01 -3.370146817147e+00 0.0 
1.745679445888e+01 -2.812942552063e+00 0.0 
4.666517057280e+01 -1.539981381543e+01 0.0 
4.660575894464e+01 -1.639014410186e+01 0.0 
4.838230979954e+00 -1.063643436446e+01 0.0 
3.938942630206e+00 -1.106778981745e+01 0.0 
1.302967218620e+01 -1.621373452436e+01 0.0 
1.049548003190e+01 -4.204825123240e+00 0.0 
4.573571907195e+01 -1.683820511148e+01 0.0 
1.483686335807e+01 -1.430849689310e+01 0.0 
1.490982658890e+01 -1.332679386284e+01 0.0 
3.190805600162e+00 -9.510968358545e+00 0.0 
2.146625721848e+01 -4.642437303115e+00 0.0 
2.069866208266e+01 -4.111852942193e+00 0.0 
1.286859345584e+01 -6.873252723348e+00 0.0 
1.041794493184e+01 -5.194814260291e+00 0.0 
2.671081808965e+00 -4.976806516331e+00 0.0 
1.295786792925e+01 -1.720506531799e+01 0.0 
3.968438206511e+01 -1.696869067241e+01 0.0 
2.308550456051e+01 -1.579963151273e+01 0.0 
2.315593682844e+01 -1.482967445235e+01 0.0 
2.299471449450e+01 -1.677069968132e+01 0.0 
1.057344714696e+01 -3.214252277840e+00 0.0 
1.124057603753e+01 -1.707713739755e+01 0.0 
2.718402535754e+00 -1.543629882103e+01 0.0 
2.638549692805e+01 -1.696744916809e+01 0.0 
2.723416349007e+01 -1.658104204545e+01 0.0 
2.210193351704e+01 -7.046769643417e+00 0.0 
2.295180925161e+01 -6.657397605239e+00 0.0 
2.301355235833e+01 -5.709111896800e+00 0.0 
2.379052718281e+01 -6.254965406962e+00 0.0 
3.243528601237e+01 -1.214181853533e+01 0.0 
2.287977995457e+01 -7.583722368300e+00 0.0 
2.999876029544e+01 -1.150837653096e+01 0.0 
3.084435366963e+01 -1.109693775882e+01 0.0 
3.006650579669e+01 -1.057778994262e+01 0.0 
2.683802665066e+01 -9.386863216633e+00 0.0 
2.768641973621e+01 -8.988883915666e+00 0.0 
2.040296980397e+01 -7.903629133404e+00 0.0 
1.925235024054e+01 -1.218872783130e+01 0.0 
5.735667000424e+00 -1.020577277283e+01 0.0 
6.396559909872e+00 -1.272326295703e+01 0.0 
1.161199420714e+01 -1.212812778229e+01 0.0 
4.229046132615e+01 -1.663084237572e+01 0.0 
4.312275399692e+01 -1.718087491556e+01 0.0 
4.335502068163e+01 -1.320039231514e+01 0.0 
4.424630298089e+01 -1.275160688731e+01 0.0 
7.090116643816e+00 -3.818998061530e+00 0.0 
7.989472176569e+00 -3.389238711200e+00 0.0 
9.085824861778e+00 -1.144036167408e+01 0.0 
1.041972423731e+01 -1.651614080893e+01 0.0 
3.797525112640e+01 -1.686052038746e+01 0.0 
3.709114253394e+01 -1.730125999865e+01 0.0 
3.626966748340e+01 -1.675477052919e+01 0.0 
1.385164591440e+01 -1.677597757552e+01 0.0 
1.787152588784e+01 -8.198993896093e+00 0.0 
1.668849729812e+01 -1.248560611628e+01 0.0 
1.659546177905e+01 -3.232482605530e+00 0.0 
2.332214717345e+01 -1.292598167641e+01 0.0 
7.168238450786e+00 -2.824711686516e+00 0.0 
2.894878403906e+01 -1.475427524446e+01 0.0 
2.646763248247e+00 -1.643270107952e+01 0.0 
3.467431944285e+00 -1.699648837348e+01 0.0 
2.059475877282e+01 -1.719473628526e+01 0.0 
3.333868355437e+01 -1.080596971682e+01 0.0 
2.246451062637e+01 -1.334557761546e+01 0.0 
2.167821896388e+01 -1.280847834858e+01 0.0 
3.089653185767e+01 -1.017198487212e+01 0.0 
3.012604365669e+01 -9.657298805968e+00 0.0 
2.929627299435e+01 -1.006100135274e+01 0.0 
2.936201435219e+01 -9.136748899251e+00 0.0 
1.198219052702e+01 -7.291887238230e+00 0.0 
1.116702076035e+01 -6.731976101053e+00 0.0 
2.551388807505e+01 -1.746927036981e+01 0.0 
2.378639090370e+01 -1.728678807149e+01 0.0 
2.718543627188e+01 -1.748668016909e+01 0.0 
2.804681050301e+01 -1.712626668293e+01 0.0 
1.970737034667e+01 -1.762317646822e+01 0.0 
1.889535776135e+01 -1.707158098231e+01 0.0 
2.593777711283e+00 -5.971157087874e+00 0.0 
2.773468281110e+01 -8.067164273938e+00 0.0 
4.051205884347e+01 -1.751819982458e+01 0.0 
3.166903145421e+01 -1.068032992414e+01 0.0 
1.033042452886e+01 -1.748285844336e+01 0.0 
9.519274604626e+00 -1.694349240233e+01 0.0 
1.668308673328e+01 -2.255861778986e+00 0.0 
1.570531902832e+01 -2.676795860126e+00 0.0 
4.655826903379e+01 -1.736656245706e+01 0.0 
2.384148070773e+01 -5.328744256413e+00 0.0 
2.460255123641e+01 -5.852182672816e+00 0.0 
2.306638135119e+01 -4.798935440613e+00 0.0 
8.467720450578e-01 -1.849576263072e+01 0.0 
4.849657322345e+01 -1.084860705506e+01 0.0 
2.565860899507e+00 -1.742859793981e+01 0.0 
2.764418872564e+01 -9.927142821799e+00 0.0 
4.565165880064e+01 -1.785336695404e+01 0.0 
2.162231831329e+01 -1.376528337468e+01 0.0 
2.360646352969e+01 -9.136041963102e+00 0.0 
1.392738739903e+01 -1.578285505772e+01 0.0 
4.756405947478e+01 -1.683706841809e+01 0.0 
4.740895034054e+01 -1.793766756892e+01 0.0 
4.080779328826e+01 -1.257387192544e+01 0.0 
4.168907939671e+01 -1.210739129181e+01 0.0 
3.991197722154e+01 -1.300815793917e+01 0.0 
1.905536506762e+01 -3.940076697685e+00 0.0 
1.923879596617e+01 -2.875000734166e+00 0.0 
4.401386745746e+01 -1.673483229438e+01 0.0 
4.247233362525e+00 -7.094581653070e+00 0.0 
3.286051630211e+00 -7.635300020553e+00 0.0 
9.609533347623e+00 -4.594311677967e+00 0.0 
9.523554636369e+00 -5.595597029530e+00 0.0 
5.660336628893e+00 -1.119290329628e+01 0.0 
6.558070063295e+00 -1.076385809362e+01 0.0 
2.809866407414e+01 -1.518037766799e+01 0.0 
2.888868674504e+01 -1.570360690070e+01 0.0 
2.654431550819e+01 -1.411217777162e+01 0.0 
1.402158265969e+01 -1.375404617952e+01 0.0 
1.409592494026e+01 -1.277071998942e+01 0.0 
1.499355196178e+01 -1.235270737023e+01 0.0 
4.221535326155e+01 -1.759335617494e+01 0.0 
4.305583287033e+01 -1.822663146802e+01 0.0 
1.280748808359e+01 -7.834332838285e+00 0.0 
1.368988389326e+01 -7.420529606172e+00 0.0 
1.110091796060e+01 -7.683966794328e+00 0.0 
3.963446145980e+01 -1.794331310122e+01 0.0 
3.423932362213e+00 -1.796415590455e+01 0.0 
4.280814572302e+00 -1.752272834860e+01 0.0 
8.050136380041e+00 -2.421582378631e+00 0.0 
8.888674091650e+00 -2.984264211327e+00 0.0 
2.152839430898e+01 -3.732609965436e+00 0.0 
2.077799585292e+01 -3.183896021866e+00 0.0 
3.618719395821e+01 -1.770276572576e+01 0.0 
3.538165138340e+01 -1.718709995539e+01 0.0 
3.702925326420e+01 -1.828844288807e+01 0.0 
1.756739438711e+00 -5.353284859169e+00 0.0 
2.233710191104e+01 -1.527265621324e+01 0.0 
1.389483555057e+01 -1.771797164730e+01 0.0 
1.475634224300e+01 -1.728357428390e+01 0.0 
1.298797563052e+01 -1.825968924755e+01 0.0 
2.145331271866e+01 -1.673705379077e+01 0.0 
2.133282821169e+01 -1.769400773673e+01 0.0 
2.292139194136e+01 -1.774915400288e+01 0.0 
1.750750053243e+01 -1.861475593469e+00 0.0 
4.830478841772e+01 -1.752611802221e+01 0.0 
4.341203507805e+01 -1.220326745522e+01 0.0 
1.685254151866e+01 -1.443085301632e+00 0.0 
4.431538535165e+01 -1.171841387375e+01 0.0 
4.511308610496e+01 -1.229557320599e+01 0.0 
4.510133242889e+01 -1.123680627466e+01 0.0 
1.846818030617e+00 -4.410877617069e+00 0.0 
3.995468694584e+01 -1.186571542989e+01 0.0 
3.901387459804e+01 -1.242507616755e+01 0.0 
8.966735877533e+00 -1.837818700423e+00 0.0 
4.049310011091e+01 -1.848269508791e+01 0.0 
7.278862053803e+00 -1.918523922691e+00 0.0 
6.429715522129e+00 -2.316676521184e+00 0.0 
9.443505505022e+00 -1.792198868094e+01 0.0 
8.620386951051e+00 -1.737590365556e+01 0.0 
8.571868171503e+00 -1.834436667826e+01 0.0 
7.758629848526e+00 -1.775677907213e+01 0.0 
7.806648388584e+00 -1.680761266021e+01 0.0 
6.908555145436e+00 -1.723746463044e+01 0.0 
4.251709122090e+01 -1.156937480156e+01 0.0 
6.931136405615e+00 -1.832465719263e+01 0.0 
6.015545461353e+00 -1.768865355295e+01 0.0 
5.960535926343e+00 -1.872011001764e+01 0.0 
3.023253444786e+01 -8.761960642196e+00 0.0 
2.454622702599e+01 -6.749421992767e+00 0.0 
2.537499741604e+01 -6.347634963783e+00 0.0 
2.544077378460e+01 -5.431358513649e+00 0.0 
2.801367161747e+01 -1.820907270221e+01 0.0 
2.884507806914e+01 -1.762032095326e+01 0.0 
1.821474531936e+00 -1.588901260460e+01 0.0 
1.821006262604e+00 -1.489370287756e+01 0.0 
4.599962488908e+01 -1.176478780598e+01 0.0 
4.705457470007e+01 -1.172182804229e+01 0.0 
4.667668314802e+01 -1.263464558483e+01 0.0 
4.759648056504e+01 -1.252380987933e+01 0.0 
4.728041618103e+01 -1.341928568376e+01 0.0 
4.825209352360e+01 -1.330491640804e+01 0.0 
4.778118233428e+01 -1.420151961695e+01 0.0 
2.388192727579e+01 -1.826934810142e+01 0.0 
2.381714684947e+01 -4.385917965223e+00 0.0 
3.172733219247e+01 -9.758744265248e+00 0.0 
1.882012070658e+01 -1.805540597212e+01 0.0 
1.805667505243e+01 -1.742221226236e+01 0.0 
2.852599958080e+01 -8.597196079481e+00 0.0 
2.856486123437e+01 -7.661382718527e+00 0.0 
1.111792842875e+01 -1.818223852980e+01 0.0 
2.203322722466e+01 -7.986646678802e+00 0.0 
3.955703676900e+01 -1.903246763601e+01 0.0 
1.944842206513e+01 -8.038750575182e-01 0.0 
1.909882767783e+01 -1.746322740933e+00 0.0 
2.281147422941e+01 -8.525912918334e+00 0.0 
2.850633001468e+01 -9.533271335986e+00 0.0 
2.532883344309e+01 -7.308951659710e+00 0.0 
2.620475466461e+01 -6.979208585400e+00 0.0 
1.396278270396e+01 -1.475095389807e+01 0.0 
9.791001166724e+00 -2.554159793552e+00 0.0 
2.229293380421e+01 -4.269762271052e+00 0.0 
4.677238984118e+01 -1.430071795514e+01 0.0 
2.228658385918e+01 -3.344747535984e+00 0.0 
8.940223674553e-01 -1.543595733415e+01 0.0 
2.118566862474e+01 -8.435876987696e+00 0.0 
2.678325936437e+01 -1.032621195706e+01 0.0 
2.223400220487e+01 -5.179046761770e+00 0.0 
2.375370625384e+01 -7.251580562134e+00 0.0 
3.156971327386e+01 -1.255534750737e+01 0.0 
3.328226391312e+01 -1.172914813316e+01 0.0 
3.250948774219e+01 -1.120157009348e+01 0.0 
2.032993445717e+01 -8.867880112202e+00 0.0 
2.697226974856e+01 -7.536633082045e+00 0.0 
2.707377810386e+01 -6.590835263295e+00 0.0 
2.914099246827e+01 -1.191678458549e+01 0.0 
3.544824072239e+01 -1.621126558525e+01 0.0 
3.456511855436e+01 -1.665054783843e+01 0.0 
3.448395810225e+01 -1.759117813016e+01 0.0 
3.368378673938e+01 -1.708037781328e+01 0.0 
3.375560452567e+01 -1.610973066913e+01 0.0 
3.288001547988e+01 -1.654324255651e+01 0.0 
3.282475929147e+01 -1.749725654692e+01 0.0 
3.199880906313e+01 -1.697294088625e+01 0.0 
3.197001272932e+01 -1.811667776864e+01 0.0 
3.111884713021e+01 -1.742166785755e+01 0.0 
3.120418962865e+01 -1.642155709385e+01 0.0 
3.034666704371e+01 -1.683123833816e+01 0.0 
3.026224379976e+01 -1.772592851714e+01 0.0 
3.046632362943e+01 -1.582232843075e+01 0.0 
1.961344017324e+01 -1.857459447985e+01 0.0 
2.274975894774e+01 -9.532738811922e+00 0.0 
1.833923246887e+01 -2.396746883672e+00 0.0 
1.988859500848e+01 -2.249244376594e+00 0.0 
2.758045562861e+01 -1.086434261689e+01 0.0 
3.247300178163e+01 -1.909930104252e+01 0.0 
3.461947482503e+01 -1.911879848019e+01 0.0 
2.047161538662e+01 -6.941478180358e+00 0.0 
2.750230940214e+01 -1.915490590764e+01 0.0 
3.165081350803e+01 -1.161860780120e+01 0.0 
1.897456727641e+01 -4.889634688522e+00 0.0 
2.549338539756e+01 -1.914858252089e+01 0.0 
3.462873135081e+01 -1.567482276144e+01 0.0 
3.384432415243e+01 -1.512280684518e+01 0.0 
3.471433767690e+01 -1.469086942990e+01 0.0 
3.651470373046e+01 -1.918207952149e+01 0.0 
3.901742690249e+01 -1.345028556517e+01 0.0 
2.153224102692e+01 -1.920169709333e+01 0.0 
1.918382939341e+01 -1.316226275662e+01 0.0 
2.005389162382e+01 -1.271962165174e+01 0.0 
2.011472087878e+01 -1.175029352900e+01 0.0 
3.210679478412e+01 -1.598038618242e+01 0.0 
1.752175226543e+01 -1.914713022656e+01 0.0 
1.696897240059e+01 -1.832772588765e+01 0.0 
1.599682523337e+01 -1.832599992024e+01 0.0 
1.644507199462e+01 -1.743697981535e+01 0.0 
1.549987712903e+01 -1.915192375101e+01 0.0 
3.050250861901e+01 -1.918943550234e+01 0.0 
2.949944061527e+01 -1.922950455235e+01 0.0 
1.375892575273e+01 -6.447160534926e+00 0.0 
1.457223670180e+01 -7.006709243857e+00 0.0 
1.450818793236e+01 -7.965943451779e+00 0.0 
1.538804712402e+01 -7.553409623699e+00 0.0 
1.545817644768e+01 -6.580929593419e+00 0.0 
1.626506893751e+01 -7.129032608911e+00 0.0 
1.619833811522e+01 -8.086588580887e+00 0.0 
1.714448609609e+01 -6.697429609777e+00 0.0 
2.887616543568e+01 -1.668015232137e+01 0.0 
1.349814589130e+01 -1.918225301544e+01 0.0 
1.153887772210e+01 -1.311384581217e+01 0.0 
1.242708159886e+01 -1.267046795531e+01 0.0 
1.249799674267e+01 -1.169005616014e+01 0.0 
6.631723893693e+00 -9.774184881867e+00 0.0 
7.451471631867e+00 -1.033148796006e+01 0.0 
7.377795355458e+00 -1.132196345268e+01 0.0 
5.810931797536e+00 -9.211654212252e+00 0.0 
2.402683899133e+01 -1.441378562320e+01 0.0 
1.249768692036e+01 -1.917388426624e+01 0.0 
1.580373499437e+01 -1.290751860664e+01 0.0 
8.344650507834e+00 -9.898403995170e+00 0.0 
3.750622115305e+01 -1.086526401533e+01 0.0 
3.699391251667e+01 -1.171695900794e+01 0.0 
3.606517829518e+01 -1.173717504500e+01 0.0 
3.650257641795e+01 -1.270047380221e+01 0.0 
3.808951488918e+01 -1.183518714175e+01 0.0 
4.760380962420e+00 -1.162484888315e+01 0.0 
3.861210370848e+00 -1.205657631736e+01 0.0 
3.038284309476e+00 -1.149851280664e+01 0.0 
2.961598794889e+00 -1.248856794980e+01 0.0 
2.138953225512e+00 -1.193212674534e+01 0.0 
2.227383593457e+00 -1.096258903918e+01 0.0 
2.043265419276e+00 -1.292158472959e+01 0.0 
1.252449446028e+00 -1.225502002753e+01 0.0 
3.949985210740e+01 -1.086594001795e+01 0.0 
1.453499444792e+01 -8.768805922472e-01 0.0 
1.403518950933e+01 -1.749965556633e+00 0.0 
1.300715031023e+01 -1.714737233040e+00 0.0 
1.350929389899e+01 -2.527443911291e+00 0.0 
1.449600910711e+01 -2.595486162864e+00 0.0 
1.395693872901e+01 -3.484211041558e+00 0.0 
1.495105865208e+01 -3.364609636216e+00 0.0 
1.508822528740e+01 -1.766586020494e+00 0.0 
1.250223858430e+01 -8.634590186802e-01 0.0 
1.200279523409e+01 -1.709044504992e+00 0.0 
1.150086239419e+01 -8.592789190668e-01 0.0 
1.101482754194e+01 -1.677730591922e+00 0.0 
1.148018564526e+01 -2.659323866909e+00 0.0 
8.800552119754e+00 -3.989875954728e+00 0.0 
3.452790439430e+00 -1.901136170646e+01 0.0 
8.658451825200e-01 -9.503462241795e+00 0.0 
1.694787786797e+00 -9.000589234502e+00 0.0 
1.703436717094e+00 -8.038819004041e+00 0.0 
2.594197971110e+00 -8.563955242845e+00 0.0 
1.630513735412e+00 -9.907244747511e+00 0.0 
8.566859292791e-01 -7.512203837972e+00 0.0 
1.685461277022e+00 -7.164280248030e+00 0.0 
2.506394468801e+00 -8.623386730818e-01 0.0 
2.007475081581e+00 -1.727729545205e+00 0.0 
9.211534699767e-01 -1.628791366312e+00 0.0 
1.500000000020e+00 -2.598063549486e+00 0.0 
2.482078929963e+00 -2.553580088725e+00 0.0 
2.999795253092e+00 -1.732169015019e+00 0.0 
3.999712607169e+00 -1.728832897453e+00 0.0 
4.499752199340e+00 -8.656478679175e-01 0.0 
4.964377774841e+00 -1.730129617941e+00 0.0 
4.425017908337e+00 -2.597541756243e+00 0.0 
5.446573195014e+00 -8.410144840023e-01 0.0 
4.915722346614e+01 -1.550640962770e+01 0.0 
4.826794919243e+01 -1.600000000000e+01 0.0 
1.053139533193e+01 -1.911782884365e+01 0.0 
4.156049861949e+01 -1.095160998589e+01 0.0 
9.494526624416e+00 -8.650570090219e-01 0.0 
4.555762166964e+01 -1.897098103585e+01 0.0 
4.250656411371e+01 -1.914387356218e+01 0.0 
4.350906466345e+01 -1.917234727395e+01 0.0 
8.759665722424e-01 -1.746422130609e+01 0.0 
1.698936011838e+00 -1.795012186674e+01 0.0 
4.742476811029e+01 -1.900090177972e+01 0.0 
7.749196752349e+00 -6.368049313489e+00 0.0 
3.361572113416e+01 -1.798765193915e+01 0.0 
4.484660149212e+01 -1.728661231383e+01 0.0 
1.984038172228e+01 -4.502575320116e+00 0.0 
1.035080352627e+01 -6.166639575753e+00 0.0 
2.753558010652e+00 -1.444909521181e+01 0.0 
7.217069543032e+00 -1.328635391078e+01 0.0 
4.364336727739e+00 -1.655585677381e+01 0.0 
4.595208426108e+00 -1.357919665443e+01 0.0 
6.164967006980e+00 -1.569873454630e+01 0.0 
1.487855768353e+01 -1.826523774028e+01 0.0 
2.791876456372e+00 -4.019632415181e+00 0.0 
4.246464893515e+01 -1.364898659620e+01 0.0 
4.503855590351e+01 -1.329552780944e+01 0.0 
4.407239109604e+01 -1.573900004093e+01 0.0 
5.141054449252e+00 -6.664290382472e+00 0.0 
3.141083947149e+00 -1.055790764912e+01 0.0 
6.196463198741e+00 -4.256497932609e+00 0.0 
2.599618716181e+01 -1.836893455464e+01 0.0 
2.923057372337e+01 -1.098461757645e+01 0.0 
1.168343877486e+01 -1.114079645041e+01 0.0 
6.706222096238e+00 -8.780364234441e+00 0.0 
8.567858614669e+00 -6.943121440850e+00 0.0 
1.123755132901e+01 -5.753525820030e+00 0.0 
2.353456234423e+01 -1.008536320953e+01 0.0 
9.162073319168e+00 -1.045593739109e+01 0.0 
9.676343469685e+00 -1.496493008366e+01 0.0 
4.490637882905e+01 -1.628778970202e+01 0.0 
7.398129387772e+00 -9.639977982323e-01 0.0 
1.049641705805e+01 -1.552503975272e+01 0.0 
9.010356286268e+00 -1.242805042052e+01 0.0 
3.985573925497e+01 -1.399863651620e+01 0.0 
1.816196318262e+01 -1.554066497931e+01 0.0 
1.306332244168e+01 -3.963646550326e+00 0.0 
4.145850903932e+01 -1.608094559275e+01 0.0 
3.794664933633e+01 -1.779020121986e+01 0.0 
3.819614412903e+01 -1.290749321016e+01 0.0 
6.270014188119e+00 -3.255093186826e+00 0.0 
4.251165370388e+01 -1.263870364997e+01 0.0 
1.207347709171e+01 -1.763942826023e+01 0.0 
3.633240829927e+01 -1.577330481104e+01 0.0 
4.319052668832e+00 -6.101812561904e+00 0.0 
1.676492415806e+01 -1.151547901392e+01 0.0 
2.594059220037e+01 -1.074225223009e+01 0.0 
3.340750911501e+01 -9.898764354137e+00 0.0 
4.397619591281e+01 -1.769773736461e+01 0.0 
2.175611595028e+01 -1.185718747128e+01 0.0 
1.641818733106e+01 -1.640685203215e+01 0.0 
1.661211421753e+01 -1.346121366338e+01 0.0 
3.428853504935e+00 -6.551993389271e+00 0.0 
8.700728832502e+00 -1.638460872825e+01 0.0 
1.931369795309e+01 -1.121629383702e+01 0.0 
4.139798872363e+01 -1.706922153459e+01 0.0 
2.647837478700e+01 -1.507353829290e+01 0.0 
1.779469616424e+01 -9.161615782908e+00 0.0 
3.885879219319e+01 -1.642026488918e+01 0.0 
1.338194936770e+01 -1.125916521471e+01 0.0 
1.897071181111e+01 -1.609204322578e+01 0.0 
2.844308548793e+01 -1.046221003096e+01 0.0 
2.659854702194e+01 -1.316109415760e+01 0.0 
2.979604503271e+01 -1.433296157755e+01 0.0 
2.417694041347e+01 -1.251231397779e+01 0.0 
1.807401327411e+00 -1.388891148480e+01 0.0 
9.599810618782e+00 -1.595439365034e+01 0.0 
1.652144692160e+01 -4.205392788472e+00 0.0 
2.367839450246e+01 -8.188385218643e+00 0.0 
3.814894930468e+01 -1.390748338767e+01 0.0 
2.466448215774e+01 -1.685878545680e+01 0.0 
4.134044524611e+01 -1.806610045954e+01 0.0 
2.600511411958e+01 -9.801774120648e+00 0.0 
7.882158050716e+00 -1.582364037353e+01 0.0 
3.881607873422e+01 -1.737970515013e+01 0.0 
8.270182347708e+00 -1.088622154920e+01 0.0 
8.672520392520e-01 -4.532984309881e+00 0.0 
1.993447205337e+01 -3.579061902667e+00 0.0 
1.794616079549e+01 -7.238038888498e+00 0.0 
2.097277068165e+01 -1.132450168636e+01 0.0 
8.194803300681e+00 -1.187214224265e+01 0.0 
3.522279404911e+01 -1.823342818178e+01 0.0 
6.984481050295e+00 -1.625271465557e+01 0.0 
1.309433007797e+01 -1.521718594215e+01 0.0 
2.150246167611e+01 -1.885399038185e+00 0.0 
3.250689370209e+01 -1.028789870535e+01 0.0 
6.085886272238e+00 -1.668342132851e+01 0.0 
1.588455661727e+01 -1.193498985921e+01 0.0 
1.809323400821e+01 -1.651110084195e+01 0.0 
1.348885082381e+00 -1.136065576512e+01 0.0 
2.497670221995e+01 -1.834631276173e+01 0.0 
2.937062818424e+01 -8.233711194470e+00 0.0 
5.185823744469e+00 -1.711566910207e+01 0.0 
1.477497877209e+01 -1.530177014512e+01 0.0 
2.125346158933e+01 -7.473003997367e+00 0.0 
4.751561118290e+01 -1.084897772632e+01 0.0 
5.056026576843e+00 -1.825750475525e+01 0.0 
1.473948554523e+01 -1.634577436309e+01 0.0 
2.410566630936e+01 -1.345970002612e+01 0.0 
1.507337507513e+01 -1.138527895328e+01 0.0 
3.189857338687e+01 -8.887781229006e+00 0.0 
7.298712468334e+00 -1.230231046246e+01 0.0 
2.738235495295e+01 -1.368931690364e+01 0.0 
3.750141041969e+01 -1.920449893070e+01 0.0 
1.557271965640e+01 -1.683317951731e+01 0.0 
3.393731848929e+01 -1.413034777044e+01 0.0 
6.482156824153e+00 -1.174575135362e+01 0.0 
2.077971718439e+01 -1.421279621836e+01 0.0 
3.455084320178e+00 -2.562590040585e+00 0.0 
3.099056096250e+01 -9.270280416035e+00 0.0 
5.580176125418e+00 -1.217387969259e+01 0.0 
1.707247630389e+01 -7.660651981710e+00 0.0 
1.418658814174e+01 -1.180390575393e+01 0.0 
2.049103025389e+01 -1.811296706038e+01 0.0 
4.680386172316e+00 -1.260396879301e+01 0.0 
1.699679896554e+01 -8.624561788199e+00 0.0 
3.779470168555e+00 -1.303424899720e+01 0.0 
3.036589870126e+01 -7.879832518349e+00 0.0 
3.306993001774e+01 -1.457671062095e+01 0.0 
2.840150110165e+00 -1.346530088269e+01 0.0 
2.732011135052e+01 -1.464591214560e+01 0.0 
5.423639259568e+00 -2.659711955016e+00 0.0 
2.324455961696e+01 -1.387269388211e+01 0.0 
1.752768355571e+00 -1.693128613594e+01 0.0 
1.020244783051e+01 -8.076834012808e+00 0.0 
1.330873875224e+01 -1.222417528206e+01 0.0 
3.297727364880e+01 -1.555480372087e+01 0.0 
2.890929955439e+01 -6.868664170731e+00 0.0 
1.323294664622e+01 -1.320754260334e+01 0.0 
2.726532861246e+01 -1.560593120806e+01 0.0 
2.240020643398e+01 -1.429299177247e+01 0.0 
2.090445823633e+01 -1.228128621332e+01 0.0 
1.315809881502e+01 -1.420739326938e+01 0.0 
2.781328038068e+01 -7.181956082300e+00 0.0 
8.614200829057e+00 -5.936933226306e+00 0.0 
8.714765730069e+00 -4.979270529687e+00 0.0 
1.611881701099e+01 -9.041973294003e+00 0.0 
2.806830314340e+01 -1.614622947108e+01 0.0 
2.084435391396e+00 -3.385085422913e+00 0.0 
3.133211811152e+01 -1.542347619750e+01 0.0 
9.693114650768e+00 -3.590281506442e+00 0.0 
1.531883592202e+01 -8.504584946143e+00 0.0 
2.151589117094e+01 -1.578915763018e+01 0.0 
4.918943882696e+01 -1.355538828056e+01 0.0 
1.443236615188e+01 -8.918701794549e+00 0.0 
8.276250966452e-01 -5.537685192197e+00 0.0 
1.362790867918e+01 -8.374718262212e+00 0.0 
2.083767477370e+01 -1.324843956035e+01 0.0 
1.273834678703e+01 -8.790890389337e+00 0.0 
1.192275845670e+01 -8.242261327467e+00 0.0 
4.477236023583e+01 -1.824312396664e+01 0.0 
1.102989384254e+01 -8.649855800911e+00 0.0 
4.849096516045e+01 -1.917293752213e+01 0.0 
1.588996752238e+00 -1.910230934687e+01 0.0 
4.904245197583e+01 -1.159839008158e+01 0.0 
2.753852929608e+01 -5.782128488093e+00 0.0 
1.756133602833e+01 -8.306130313187e-01 0.0 
2.615423700951e+01 -6.153865090092e+00 0.0 
1.028818761294e+01 -7.122020845892e+00 0.0 
2.970818901196e+01 -1.527821347593e+01 0.0 
4.801461623449e+01 -1.164472570985e+01 0.0 
9.455722100419e+00 -6.546069291118e+00 0.0 
3.089099236677e+01 -1.835339328261e+01 0.0 
2.350000000013e+01 -1.920825896750e+01 0.0 
4.830620531887e+01 -1.506626155470e+01 0.0 
1.725381944701e+01 -1.688794487850e+01 0.0 
2.156246225273e+01 -1.475893794002e+01 0.0 
4.919319648787e+01 -1.742767505896e+01 0.0 
4.437935623576e+01 -1.077662927266e+01 0.0 
1.001520521978e+01 -1.652692675208e+00 0.0 
9.067160240050e-01 -1.441937727541e+01 0.0 
2.603365149390e+01 -4.755996613848e+00 0.0 
2.458344439002e+01 -4.873645517696e+00 0.0 
2.304312390142e+01 -3.836552768096e+00 0.0 
2.546923202198e+00 -6.902480355749e+00 0.0 
1.251534969393e+01 -2.490989965776e+00 0.0 
2.454061833377e+01 -3.933354231935e+00 0.0 
1.788186558740e+01 -1.827424884923e+01 0.0 
4.090785243552e+01 -1.166553231904e+01 0.0 
2.230128851568e+01 -1.623015738726e+01 0.0 
2.302362347568e+01 -2.916239960270e+00 0.0 
3.878119254461e+01 -1.830091164002e+01 0.0 
2.210081359958e+01 -1.829238229150e+01 0.0 
8.443704882233e+00 -1.921993252862e+01 0.0 
2.218405824691e+01 -1.724557581508e+01 0.0 
2.151157503963e+01 -2.790636689331e+00 0.0 
3.741658958955e+01 -1.250400191722e+01 0.0 
2.697247663737e+01 -1.838290202309e+01 0.0 
4.743362342862e+01 -1.585850773010e+01 0.0 
6.671345075358e+00 -1.924977576322e+01 0.0 
3.900825404537e+01 -1.157220003875e+01 0.0 
4.649692961375e+01 -1.836335837481e+01 0.0 
1.578831424832e+01 -3.678284023361e+00 0.0 
4.814208768888e+01 -1.841249298770e+01 0.0 
2.964123298315e+01 -1.625739458193e+01 0.0 
4.580760351902e+01 -1.284294554687e+01 0.0 
3.561520879615e+01 -1.245548941949e+01 0.0 
2.555418095658e+00 -1.841101588290e+01 0.0 
3.288468366144e+01 -1.834258164109e+01 0.0 
2.065894391445e+01 -2.240688571739e+00 0.0 
4.739171429915e+01 -1.496536413446e+01 0.0 
3.478086729185e+00 -8.576434653209e+00 0.0 
1.606010630246e+01 -1.588421807951e+00 0.0 
1.018329200594e+01 -1.834320874317e+01 0.0 
2.957213339430e+01 -1.720496954591e+01 0.0 
4.142712790164e+00 -1.837794506222e+01 0.0 
6.698721532573e-01 -2.499999999997e+00 0.0 
8.037039123140e+00 -1.571229354954e+00 0.0 
1.203541361428e+01 -1.847784298001e+01 0.0 
2.899968332038e+01 -1.848264722179e+01 0.0 
1.469229460948e+01 -4.219485753730e+00 0.0 
4.049590781957e+01 -1.932812501995e+01 0.0 
1.996211678340e+01 -1.506329754720e+00 0.0 
4.250588298353e+01 -1.067383247529e+01 0.0 
5.831497011152e+00 -1.635396227234e+00 0.0 
5.317606125670e+00 -1.923927974868e+01 0.0 
4.208546426993e+01 -1.842830665025e+01 0.0 
2.327553405011e+00 -9.459409929662e+00 0.0 
3.568351902251e+01 -1.096637218582e+01 0.0 
1.682104374890e+00 -6.231413350963e+00 0.0 
2.451812238018e+01 -1.766524914339e+01 0.0 
1.058003429638e+01 -2.391839617098e+00 0.0 
4.399988753123e+01 -1.851998776342e+01 0.0 
1.400000000010e+01 -1.852293523028e+01 0.0 
3.604719565984e+01 -1.850662876800e+01 0.0 
1.951297136734e+01 -1.938092349694e+01 0.0 
1.821365318472e+01 -1.531276353287e+00 0.0 
2.298031859732e+01 -1.854635324722e+01 0.0 
1.552168066204e+01 -1.764280741977e+01 0.0 
4.572957713638e+01 -1.073347898229e+01 0.0 
3.429637429624e+01 -1.838861552790e+01 0.0 
2.427434426052e+00 -7.705577451869e+00 0.0 
4.662792031485e+00 -3.359424455416e+00 0.0 
4.926794919243e+01 -1.926794919243e+01 0.0 
7.320508075690e-01 -7.320508075688e-01 0.0 
4.926794919243e+01 -1.073205080757e+01 0.0 
7.320508075705e-01 -1.926794919243e+01 0.0 
2.917460242467e+00 -3.202866455310e+00 0.0 
4.838200575963e+01 -1.232674147454e+01 0.0 
2.998445708009e+01 -1.854403752148e+01 0.0 
5.949940090766e-01 -1.152762038165e+01 0.0 
4.844763495759e+01 -1.678092548787e+01 0.0 
1.301685480160e+01 -3.170056592566e+00 0.0 
1.650046335855e+01 -6.731535384067e-01 0.0 
4.854881540991e+01 -1.405224059779e+01 0.0 
2.119545114693e+01 -1.846813384545e+01 0.0 
3.797852849897e+01 -1.857978513215e+01 0.0 
4.649823708745e+01 -1.338351810816e+01 0.0 
2.012685900976e+01 -2.889659035009e+00 0.0 
2.953271913273e+01 -1.791558075192e+01 0.0 
2.408509097292e+00 -1.021949208421e+01 0.0 
2.642589566221e+01 -1.773216561448e+01 0.0 
1.730010270775e+01 -1.763165076721e+01 0.0 
2.017406551304e+01 -8.513536440582e-01 0.0 
5.254761581934e-01 -1.249999999999e+01 0.0 
6.640448215642e+00 -1.545337834885e+00 0.0 
7.843361506349e+00 -1.852719839527e+01 0.0 
1.588442191088e+00 -1.066158564320e+01 0.0 
2.880770112393e+01 -5.415638864241e+00 0.0 
4.951086956522e+01 -5.500000000000e+00 0.0 
3.031250000000e+01 -6.420918367347e+00 0.0 
4.951250000000e+01 -6.500000000000e+00 0.0 
3.180701530612e+01 -7.414795918363e+00 0.0 
4.951250000000e+01 -7.500000000000e+00 0.0 
3.331250000000e+01 -8.420918367347e+00 0.0 
4.951470588234e+01 -8.500000000000e+00 0.0 
3.480610198624e+01 -9.413633635267e+00 0.0 
4.951470588234e+01 -9.500000000000e+00 0.0 

SCALARS node_number int
LOOKUP_TABLE default
1
2
3
4
5
6
7
8
9
10
11
12
13
14
15
16
17
18
19
20
21
22
23
24
25
26
27
28
29
30
31
32
33
34
35
36
37
38
39
40
41
42
43
44
45
46
47
48
49
50
51
52
53
54
55
56
57
58
59
60
61
62
63
64
65
66
67
68
69
70
71
72
73
74
75
76
77
78
79
80
81
82
84
85
86
87
88
89
90
91
92
93
98
99
100
101
102
104
105
106
107
108
109
110
111
112
113
114
115
116
117
118
119
120
121
122
123
124
125
126
127
128
129
130
131
132
133
134
135
136
268
269
270
271
272
273
274
275
276
277
278
279
280
281
282
283
284
285
286
287
288
289
290
291
292
293
294
295
296
297
298
299
300
301
302
303
304
305
306
307
308
309
310
311
312
313
314
315
316
317
318
319
320
321
322
323
324
325
326
327
328
329
330
331
332
333
334
335
336
337
338
339
340
341
342
343
344
345
346
347
348
349
350
351
352
353
354
355
356
357
358
359
360
361
362
363
364
365
366
367
368
369
370
371
372
373
374
375
376
377
378
379
380
381
382
383
384
385
386
387
388
389
390
391
392
393
394
395
396
397
398
399
400
401
402
403
404
405
406
407
408
409
410
411
412
413
414
415
416
417
418
419
420
421
422
423
424
425
426
427
428
429
430
431
432
433
434
435
436
437
438
439
440
441
442
443
444
445
446
447
448
449
450
451
452
453
454
455
456
457
458
459
460
461
462
463
464
465
466
467
468
469
470
471
472
473
474
475
476
477
478
479
480
481
482
483
484
485
486
487
488
489
490
491
492
493
494
495
496
497
498
499
500
501
502
503
504
505
506
507
508
509
510
511
512
513
514
515
516
517
518
519
520
521
522
523
524
525
526
527
528
529
530
531
532
533
534
535
536
537
538
539
540
541
542
543
544
545
546
547
548
549
550
551
552
553
554
555
556
557
558
559
560
561
562
563
564
565
566
567
568
569
570
571
572
573
574
575
576
577
578
579
580
581
582
583
584
585
586
587
588
589
590
591
592
593
594
595
596
597
598
599
600
601
602
603
604
605
606
607
608
609
610
611
612
613
614
615
616
617
618
619
620
621
622
623
624
625
626
627
628
629
630
631
632
633
634
635
636
637
638
639
640
641
642
643
644
645
646
647
648
649
650
651
652
653
654
655
656
657
658
659
660
661
662
663
664
665
666
667
668
669
670
671
672
673
674
675
676
677
678
679
680
681
682
683
684
685
686
687
688
689
690
691
692
693
694
695
696
697
698
699
700
701
702
703
704
705
706
707
708
709
710
711
712
713
714
715
716
717
718
719
720
721
722
723
724
725
726
727
728
729
730
731
732
733
734
735
736
737
738
739
740
741
742
743
744
745
746
747
748
749
750
751
752
753
754
755
756
757
758
759
760
761
762
763
764
765
766
767
768
769
770
771
772
773
774
775
776
777
778
779
780
781
782
783
784
785
786
787
788
789
790
791
792
793
794
795
796
797
798
799
800
801
802
803
804
805
806
807
808
809
810
811
812
813
814
815
816
817
818
819
820
821
822
823
824
825
826
827
828
829
830
831
832
833
834
835
836
837
838
839
840
841
842
843
844
845
846
847
848
849
850
851
852
853
854
855
856
857
858
859
860
861
862
863
864
865
866
867
868
869
870
871
872
873
874
875
876
877
878
879
880
881
882
883
884
885
886
887
888
889
890
891
892
893
894
895
896
897
898
899
900
901
902
903
904
905
906
907
908
909
910
911
912
913
914
915
916
917
918
919
920
921
922
923
924
925
926
927
928
929
930
931
932
933
934
935
936
937
938
939
940
941
942
943
944
945
946
947
948
949
950
951
952
953
954
955
956
957
958
959
960
961
962
963
964
965
966
967
968
969
970
971
972
973
974
975
976
977
978
979
980
981
982
983
984
985
986
987
988
989
990
991
992
993
994
995
996
997
998
999
1000
1001
1002
1003
1004
1005
1006
1007
1008
1009
1010
1011
1012
1013
1014
1015
1016
1017
1018
1019
1020
1021
1022
1023
1024
1025
1026
1027
1028
1029
1030
1031
1032
1033
1034
1035
1036
1037
1038
1039
1040
1041
1042
1043
1044
1045
1046
1047
1048
1049
1050
1051
1052
1053
1054
1055
1056
1057
1058
1059
1060
1061
1062
1063
1064
1065
1066
1067
1068
1069
1070
1071
1072
1073
1074
1075
1076
1077
1078
1079
1080
1081
1082
1083
1084
1085
1086
1087
1088
1089
1090
1091
1092
1093
1094
1095
1096
1097
1098
1099
1100
1101
1102
1103
1104
1105
1106
1107
1108
1109
1110
1111
1112
1113
1114
1115
1116
1117
1118
1119
1120
1121
1122
1123
1124
1125
1126
1127
1128
1129
1130
1131
1132
1133
1134
1135
1136
1137
1138
1139
1140
1141
1142
1143
1144
1145
1146
1147
1148
1149
1150
1151
1152
1153
1154
1155
1156
1157
1158
1159
1160
1161
1162
1163
1164
1165
1166
1167
1168
1169
1170
1171
1172
1173
1174
1175
1176
1177
1178
1179
1180
1181
1182
1183
1184
1185
1186
1187
1188
1189
1190
1191
1192
1193
1194
1195
1196
1197
1198
1199
1200
1201
1202
1203
1204
1205
1206
1207
1208
1209
1210
1211
1212
1213
1214
1215
1216
1217
1218
1219
1220
1221
1222
1223
1224
1225
1226
1227
1228
1229
1230
1231
1232
1233
1234
1235
1236
1237
1238
1239
1240
1241
1242
1243
1244
1245
1246
1247
1248
1249
1250
1251
1252
1253
1254
1255
1256
1257
1258
1259
1260
1261
1262
1263
1264
1275
1276
1277
1278
1279
1280
1281
1282
1283
1284

VECTORS node_mesh_deformation float
0.0 6.529369832494e-02 0.0 
0.000000000000e+00 1.144825418984e-01 0.0 
0.0 0.000000000000e+00 0.0 
0.000000000000e+00 0.000000000000e+00 0.0 
0.0 6.619834289196e-02 0.0 
0.0 6.640062616787e-02 0.0 
0.0 6.594174720118e-02 0.0 
0.0 6.481943197522e-02 0.0 
0.0 6.305754992429e-02 0.0 
0.0 6.080279560373e-02 0.0 
0.0 5.814125433673e-02 0.0 
0.0 5.513822019322e-02 0.0 
0.0 5.185682980623e-02 0.0 
0.0 4.833711537933e-02 0.0 
0.0 4.459081986955e-02 0.0 
0.0 4.063246248210e-02 0.0 
0.0 3.645430612957e-02 0.0 
0.0 3.204960409755e-02 0.0 
0.0 2.739139064085e-02 0.0 
0.0 2.246487437947e-02 0.0 
0.0 1.726395343216e-02 0.0 
0.0 1.178014493261e-02 0.0 
0.0 6.023388252135e-03 0.0 
0.000000000000e+00 0.000000000000e+00 0.0 
0.000000000000e+00 0.000000000000e+00 0.0 
0.000000000000e+00 0.000000000000e+00 0.0 
0.000000000000e+00 0.000000000000e+00 0.0 
0.000000000000e+00 0.000000000000e+00 0.0 
0.000000000000e+00 0.000000000000e+00 0.0 
0.000000000000e+00 0.000000000000e+00 0.0 
0.000000000000e+00 0.000000000000e+00 0.0 
0.000000000000e+00 0.000000000000e+00 0.0 
0.000000000000e+00 0.000000000000e+00 0.0 
0.000000000000e+00 0.000000000000e+00 0.0 
0.000000000000e+00 0.000000000000e+00 0.0 
0.000000000000e+00 0.000000000000e+00 0.0 
0.000000000000e+00 0.000000000000e+00 0.0 
0.000000000000e+00 0.000000000000e+00 0.0 
0.000000000000e+00 0.000000000000e+00 0.0 
0.000000000000e+00 0.000000000000e+00 0.0 
0.000000000000e+00 0.000000000000e+00 0.0 
0.000000000000e+00 0.000000000000e+00 0.0 
0.000000000000e+00 0.000000000000e+00 0.0 
0.000000000000e+00 0.000000000000e+00 0.0 
0.000000000000e+00 0.000000000000e+00 0.0 
0.000000000000e+00 0.000000000000e+00 0.0 
0.000000000000e+00 0.000000000000e+00 0.0 
0.000000000000e+00 0.000000000000e+00 0.0 
0.000000000000e+00 0.000000000000e+00 0.0 
0.000000000000e+00 0.000000000000e+00 0.0 
0.000000000000e+00 0.000000000000e+00 0.0 
0.000000000000e+00 0.000000000000e+00 0.0 
0.000000000000e+00 0.000000000000e+00 0.0 
0.000000000000e+00 0.000000000000e+00 0.0 
0.000000000000e+00 0.000000000000e+00 0.0 
0.000000000000e+00 0.000000000000e+00 0.0 
0.000000000000e+00 0.000000000000e+00 0.0 
0.000000000000e+00 0.000000000000e+00 0.0 
0.000000000000e+00 0.000000000000e+00 0.0 
0.000000000000e+00 0.000000000000e+00 0.0 
0.000000000000e+00 0.000000000000e+00 0.0 
0.000000000000e+00 0.000000000000e+00 0.0 
0.000000000000e+00 0.000000000000e+00 0.0 
0.000000000000e+00 0.000000000000e+00 0.0 
0.000000000000e+00 0.000000000000e+00 0.0 
0.000000000000e+00 0.000000000000e+00 0.0 
0.000000000000e+00 0.000000000000e+00 0.0 
0.000000000000e+00 0.000000000000e+00 0.0 
0.000000000000e+00 0.000000000000e+00 0.0 
0.000000000000e+00 0.000000000000e+00 0.0 
0.000000000000e+00 0.000000000000e+00 0.0 
0.000000000000e+00 0.000000000000e+00 0.0 
0.000000000000e+00 1.045831425162e-01 0.0 
0.000000000000e+00 9.428283074430e-02 0.0 
0.000000000000e+00 8.359809936133e-02 0.0 
0.000000000000e+00 7.255688147949e-02 0.0 
0.000000000000e+00 6.117673535600e-02 0.0 
0.000000000000e+00 4.948333582910e-02 0.0 
0.000000000000e+00 3.749866897585e-02 0.0 
0.000000000000e+00 2.524335818540e-02 0.0 
0.000000000000e+00 1.274261010814e-02 0.0 
-8.392724751705e-03 -8.146485698108e-03 0.0 
2.669073010241e-02 1.054183930837e-01 0.0 
-6.996257202871e-04 2.057977208129e-02 0.0 
6.808348761915e-03 4.417571725282e-02 0.0 
1.379291464591e-02 6.521537281973e-02 0.0 
1.993695418205e-02 8.350847168369e-02 0.0 
2.450055075563e-02 9.847607027293e-02 0.0 
2.862831649731e-02 1.078138422047e-01 0.0 
3.066229776332e-02 1.121372139165e-01 0.0 
3.072781028710e-02 1.127108212024e-01 0.0 
2.928174243755e-02 1.102639206048e-01 0.0 
0.000000000000e+00 1.574120118138e-01 0.0 
0.000000000000e+00 1.497015108165e-01 0.0 
0.000000000000e+00 1.415882925948e-01 0.0 
0.000000000000e+00 1.329821824207e-01 0.0 
0.000000000000e+00 1.239647991389e-01 0.0 
1.499108123284e-03 1.144771222368e-01 0.0 
2.992765730589e-03 1.144565796446e-01 0.0 
4.508692645210e-03 1.144153348046e-01 0.0 
6.050029306401e-03 1.143425277705e-01 0.0 
7.622944342927e-03 1.142366168379e-01 0.0 
9.229216087050e-03 1.140612153364e-01 0.0 
1.088727843432e-02 1.138267509740e-01 0.0 
1.259538011721e-02 1.134838345112e-01 0.0 
1.437430301620e-02 1.130360819771e-01 0.0 
1.622881932781e-02 1.124241185310e-01 0.0 
1.815862057246e-02 1.116202598662e-01 0.0 
2.017720095753e-02 1.105720735880e-01 0.0 
2.227490806328e-02 1.092313819733e-01 0.0 
2.444369713601e-02 1.075303299148e-01 0.0 
-5.109489479086e-03 -2.310519406061e-02 0.0 
-2.211884490571e-04 -3.102117881899e-02 0.0 
5.142929542195e-03 -3.377761218429e-02 0.0 
1.099734169860e-02 -3.099472368908e-02 0.0 
1.537312790686e-02 -2.023505677477e-02 0.0 
1.794840777266e-02 -6.559605265578e-03 0.0 
1.890442385898e-02 4.045316974724e-03 0.0 
1.914951253181e-02 1.295012538601e-02 0.0 
1.922439514447e-02 2.084849792583e-02 0.0 
1.902515430193e-02 2.815539780431e-02 0.0 
1.846534654412e-02 3.486353537704e-02 0.0 
1.760684610775e-02 4.090701508081e-02 0.0 
1.638290318599e-02 4.643661648684e-02 0.0 
1.472646994668e-02 5.137363834564e-02 0.0 
1.274193835483e-02 5.561431575618e-02 0.0 
1.052161568996e-02 5.906223488313e-02 0.0 
8.101755158451e-03 6.179878671501e-02 0.0 
5.520383762004e-03 6.379554319332e-02 0.0 
2.775165507589e-03 6.493209322581e-02 0.0 
2.234547889380e-02 1.099080879137e-01 0.0 
2.156620166019e-02 1.188969479146e-01 0.0 
2.080020402270e-02 1.264095249917e-01 0.0 
2.014471519459e-02 1.326827092540e-01 0.0 
1.949130185661e-02 1.378705811019e-01 0.0 
1.879810010102e-02 1.421242576103e-01 0.0 
1.803880201909e-02 1.455859862617e-01 0.0 
1.720013705499e-02 1.483726938642e-01 0.0 
1.628430807565e-02 1.505926082471e-01 0.0 
1.532756370460e-02 1.523261059398e-01 0.0 
1.432490982221e-02 1.536718271334e-01 0.0 
1.327799284121e-02 1.547067822197e-01 0.0 
1.219047204434e-02 1.554926828719e-01 0.0 
1.106654958333e-02 1.560800071665e-01 0.0 
9.910481021230e-03 1.565111265758e-01 0.0 
8.727451102736e-03 1.568221763860e-01 0.0 
7.523067870657e-03 1.570418669955e-01 0.0 
6.302469211811e-03 1.571925407400e-01 0.0 
5.071033437716e-03 1.572928650988e-01 0.0 
3.834633874177e-03 1.573557651894e-01 0.0 
2.599196795941e-03 1.573835065737e-01 0.0 
1.325461034149e-03 1.573714556672e-01 0.0 
1.372512001694e-03 1.497409300690e-01 0.0 
2.729512496032e-03 1.497163330597e-01 0.0 
4.081088016719e-03 1.496851414973e-01 0.0 
5.429717421528e-03 1.496230797334e-01 0.0 
6.777836129615e-03 1.495219636481e-01 0.0 
8.126228348061e-03 1.493676649195e-01 0.0 
9.474168439489e-03 1.491401713870e-01 0.0 
1.082040048605e-02 1.488157838239e-01 0.0 
1.216401732902e-02 1.483623739398e-01 0.0 
1.350489161605e-02 1.477394886237e-01 0.0 
1.484390360333e-02 1.469006713896e-01 0.0 
1.618329886668e-02 1.457900053174e-01 0.0 
1.752738632977e-02 1.443384506509e-01 0.0 
1.888285466148e-02 1.424575014791e-01 0.0 
2.022534314332e-02 1.400593409597e-01 0.0 
2.155480132943e-02 1.370414964486e-01 0.0 
2.288010022837e-02 1.332856901060e-01 0.0 
2.422005324006e-02 1.286497702485e-01 0.0 
2.560130504002e-02 1.230072319333e-01 0.0 
2.700516045314e-02 1.161515320461e-01 0.0 
2.884641498841e-02 1.181155578916e-01 0.0 
2.712487785978e-02 1.230441088970e-01 0.0 
2.539433531791e-02 1.270747948449e-01 0.0 
2.369608835208e-02 1.303656463242e-01 0.0 
2.202234257920e-02 1.330099198288e-01 0.0 
2.036794758618e-02 1.351163391473e-01 0.0 
1.874691956118e-02 1.367736951451e-01 0.0 
1.717072936276e-02 1.380618843844e-01 0.0 
1.563185366554e-02 1.390512342826e-01 0.0 
1.412393061889e-02 1.398005354531e-01 0.0 
1.264122280613e-02 1.403575388507e-01 0.0 
1.118135447457e-02 1.407639818212e-01 0.0 
9.741497767010e-03 1.410566880115e-01 0.0 
8.317369964814e-03 1.412631425547e-01 0.0 
6.910158553289e-03 1.414044483809e-01 0.0 
5.516433181910e-03 1.414968214974e-01 0.0 
4.131318758091e-03 1.415519652584e-01 0.0 
2.751308977317e-03 1.415768737820e-01 0.0 
1.374882813245e-03 1.415559741685e-01 0.0 
1.451729990492e-03 1.330115240289e-01 0.0 
2.908923427867e-03 1.329806703477e-01 0.0 
4.374647457638e-03 1.329494122954e-01 0.0 
5.853945764549e-03 1.328883033795e-01 0.0 
7.351251722689e-03 1.327863228264e-01 0.0 
8.874130140804e-03 1.326293115030e-01 0.0 
1.042744597616e-02 1.324016702086e-01 0.0 
1.202003390311e-02 1.320781997836e-01 0.0 
1.365961959506e-02 1.316303588891e-01 0.0 
1.534397755106e-02 1.310187923940e-01 0.0 
1.707800402919e-02 1.301939846261e-01 0.0 
1.886924710740e-02 1.291062174955e-01 0.0 
2.072537596474e-02 1.276905409568e-01 0.0 
2.265173029419e-02 1.258795547609e-01 0.0 
2.462722219487e-02 1.235779182711e-01 0.0 
2.663621191395e-02 1.207049579537e-01 0.0 
2.864747488906e-02 1.171228155023e-01 0.0 
2.712768961189e-02 1.132938924698e-01 0.0 
2.504408517858e-02 1.157324769855e-01 0.0 
2.296970896425e-02 1.176749303324e-01 0.0 
2.096926591752e-02 1.192356903288e-01 0.0 
1.904158474590e-02 1.204624661899e-01 0.0 
1.718538613557e-02 1.214123428382e-01 0.0 
1.539124398969e-02 1.221393403731e-01 0.0 
1.366876382931e-02 1.226850624246e-01 0.0 
1.200555390106e-02 1.230895632454e-01 0.0 
1.039825547715e-02 1.233900929730e-01 0.0 
8.833753522666e-03 1.236005086835e-01 0.0 
7.308556010607e-03 1.237510889336e-01 0.0 
5.811139768362e-03 1.238464900775e-01 0.0 
4.338358595625e-03 1.239066908025e-01 0.0 
2.884708495806e-03 1.239365052893e-01 0.0 
1.438823950949e-03 1.239246213895e-01 0.0 
-4.131227853151e-03 7.580155947883e-03 0.0 
3.050240861885e-03 3.264689121830e-02 0.0 
1.037200505633e-02 5.500065825610e-02 0.0 
1.699072947128e-02 7.472896046433e-02 0.0 
2.258541434214e-02 9.157808728786e-02 0.0 
2.683593225218e-02 1.038161174983e-01 0.0 
2.993727762382e-02 1.104793747413e-01 0.0 
3.091138789029e-02 1.128370187058e-01 0.0 
3.017180537035e-02 1.118171906303e-01 0.0 
2.810748373490e-02 1.081051733078e-01 0.0 
1.176786895835e-02 3.147924482272e-02 0.0 
2.512951900314e-03 3.888972931872e-03 0.0 
1.312004954884e-02 2.438327159721e-02 0.0 
7.498004619286e-03 -2.461475749208e-02 0.0 
-5.235771755174e-05 3.977522078070e-03 0.0 
2.433450758383e-02 7.168481401309e-02 0.0 
-1.163975715767e-03 4.621769968885e-02 0.0 
4.855805203988e-03 4.707521984944e-03 0.0 
3.224920796709e-02 9.717664287756e-02 0.0 
6.210674025841e-03 5.946615261479e-03 0.0 
3.337124459966e-02 1.051894785516e-01 0.0 
-8.383411095698e-04 4.205029892063e-03 0.0 
1.163751709663e-02 4.987238926066e-02 0.0 
6.484178590259e-03 7.684938239102e-03 0.0 
2.867390086735e-02 9.954280933004e-02 0.0 
-8.479515501372e-04 5.916352550528e-02 0.0 
-1.005244298806e-03 3.503860531712e-02 0.0 
6.093818862706e-03 9.157232886942e-03 0.0 
4.424631178900e-03 9.804077964564e-03 0.0 
1.410924094081e-03 1.081619967286e-02 0.0 
2.529705495512e-03 1.154998774517e-02 0.0 
3.256977025451e-03 1.005891163559e-02 0.0 
2.332828848354e-02 9.985734151601e-02 0.0 
1.532903193525e-02 1.038094616588e-01 0.0 
1.004842107822e-02 1.047675949686e-01 0.0 
9.690532128914e-04 6.672776655889e-02 0.0 
-8.146369228177e-04 4.959088139728e-03 0.0 
2.745913867187e-03 -2.441135891333e-02 0.0 
7.091578882843e-03 6.118980335624e-02 0.0 
-6.294730681538e-04 2.023795685178e-02 0.0 
5.159225982069e-03 1.058775842619e-01 0.0 
3.309607681030e-04 6.515185503378e-02 0.0 
5.930663145264e-03 1.079663297059e-02 0.0 
5.255535613497e-03 4.863969971971e-03 0.0 
6.429925235643e-03 6.715513676081e-03 0.0 
4.022232435915e-03 4.474941861751e-03 0.0 
1.259098276599e-03 3.599622220783e-03 0.0 
1.050246505536e-02 -1.332726870795e-03 0.0 
1.919171750417e-02 1.028383289631e-01 0.0 
-7.341432130161e-04 4.840457129170e-03 0.0 
7.276063645065e-04 4.403276328111e-02 0.0 
1.308374188989e-02 3.803562086452e-02 0.0 
-1.154826514189e-03 5.328311191560e-02 0.0 
7.160465297105e-04 8.837518527216e-03 0.0 
2.909403068329e-02 8.555373322304e-02 0.0 
1.836617484449e-02 5.304296125715e-02 0.0 
3.368894169605e-02 1.032196479005e-01 0.0 
3.158905484297e-02 1.037238099749e-01 0.0 
4.088792930105e-03 7.234739720211e-03 0.0 
1.178488842910e-03 8.770460968625e-02 0.0 
-4.148825728696e-04 4.071204934316e-03 0.0 
3.300061644027e-03 6.520761208812e-02 0.0 
3.986032958139e-04 1.994970749810e-02 0.0 
2.723457522200e-02 9.620415762260e-02 0.0 
2.868441246991e-02 9.056907795889e-02 0.0 
2.628983370221e-02 8.824085265611e-02 0.0 
2.788439531438e-02 8.155904889636e-02 0.0 
2.557359488164e-02 7.794780039530e-02 0.0 
2.662097053975e-02 7.204297603927e-02 0.0 
2.910692667465e-02 7.531515864911e-02 0.0 
2.742056095217e-02 6.604192837914e-02 0.0 
3.002910043276e-02 6.907366816582e-02 0.0 
2.408565138732e-02 6.813148330663e-02 0.0 
2.789784980998e-02 6.000783252561e-02 0.0 
3.059604497119e-02 6.279038880009e-02 0.0 
2.802150651588e-02 5.401555995014e-02 0.0 
3.075833276237e-02 5.654390011650e-02 0.0 
3.319563153547e-02 6.489095484525e-02 0.0 
3.336993473899e-02 5.838459002481e-02 0.0 
3.560314014335e-02 6.620701889660e-02 0.0 
3.578243627505e-02 5.939780819717e-02 0.0 
3.308296896533e-02 5.205124573764e-02 0.0 
3.543978430417e-02 5.282255741271e-02 0.0 
3.785888607199e-02 5.952582769058e-02 0.0 
3.744668881031e-02 5.269902094562e-02 0.0 
3.954161760980e-02 5.870245224312e-02 0.0 
3.901637385481e-02 5.162279108102e-02 0.0 
4.077496130143e-02 5.687218345359e-02 0.0 
4.010195309381e-02 4.959662294188e-02 0.0 
3.788716017787e-02 4.503117297680e-02 0.0 
3.880176553270e-02 4.292220170413e-02 0.0 
4.062938496824e-02 4.664776607530e-02 0.0 
3.913288793454e-02 3.995241639095e-02 0.0 
4.055391199967e-02 4.284096928446e-02 0.0 
3.884282247774e-02 3.622886011428e-02 0.0 
3.702410627676e-02 3.406516789452e-02 0.0 
3.650749873643e-02 3.053654903533e-02 0.0 
3.788487091915e-02 3.182088617885e-02 0.0 
3.523014320566e-02 2.629228936711e-02 0.0 
3.617899512838e-02 2.663746367573e-02 0.0 
3.318301917345e-02 2.140792517321e-02 0.0 
3.374477347506e-02 2.090037249272e-02 0.0 
3.040993308394e-02 1.619558899564e-02 0.0 
2.963128090902e-02 1.736265296432e-02 0.0 
2.657888826224e-02 1.281983003709e-02 0.0 
2.702319773952e-02 1.099566525906e-02 0.0 
2.300473808566e-02 8.523599390996e-03 0.0 
2.245904931132e-02 1.075778630914e-02 0.0 
1.881423305549e-02 7.420710505837e-03 0.0 
1.825167451340e-02 9.880742694731e-03 0.0 
1.464839337333e-02 7.516223452905e-03 0.0 
1.496390347635e-02 4.794557120366e-03 0.0 
1.096429341870e-02 5.954627788674e-03 0.0 
1.073587038819e-02 8.577949775754e-03 0.0 
7.313557573308e-03 7.947015290279e-03 0.0 
7.371767093623e-03 5.322517373578e-03 0.0 
4.115352683490e-03 8.231773880096e-03 0.0 
4.255350439768e-03 1.027130057447e-02 0.0 
1.479657737802e-03 1.119848808970e-02 0.0 
1.252998683279e-03 9.420407400375e-03 0.0 
-9.395441833302e-04 1.293408841840e-02 0.0 
-6.584034598145e-04 1.420432337245e-02 0.0 
-2.754447318260e-03 1.648988219561e-02 0.0 
-2.981422267904e-03 1.549140690224e-02 0.0 
-4.443185966757e-03 1.946211990343e-02 0.0 
-4.170246638898e-03 1.992858871873e-02 0.0 
-5.527021277668e-03 2.318964436324e-02 0.0 
-5.150609334438e-03 2.304583940502e-02 0.0 
-5.708784153054e-03 2.310487789254e-02 0.0 
-6.458856799352e-03 2.696068118136e-02 0.0 
-6.490093506576e-03 2.728591901998e-02 0.0 
-6.947395133418e-03 3.113356567791e-02 0.0 
3.436119075565e-02 2.902470768271e-02 0.0 
-6.749455567272e-03 3.182629598182e-02 0.0 
-6.184008750090e-03 2.743198393098e-02 0.0 
-6.983418708145e-03 3.557627416003e-02 0.0 
-7.062125267473e-03 3.437644725765e-02 0.0 
-6.517993282865e-03 3.661444602737e-02 0.0 
-6.599665153782e-03 4.016166777281e-02 0.0 
-5.850788383475e-03 4.148731134282e-02 0.0 
3.641461595736e-02 2.686839815813e-02 0.0 
3.232143775321e-02 4.597675217546e-02 0.0 
-5.849890491695e-03 4.473708957860e-02 0.0 
-4.832432023208e-03 4.628075810023e-02 0.0 
-4.540277003966e-03 4.263989813001e-02 0.0 
-3.224041311853e-03 4.759972264471e-02 0.0 
2.315667171329e-02 7.398360065354e-02 0.0 
2.150522797100e-02 6.377157051417e-02 0.0 
2.073066527365e-02 6.957727058821e-02 0.0 
1.890870963265e-02 5.905731772554e-02 0.0 
1.828678031650e-02 6.472229851040e-02 0.0 
-3.576488123685e-03 5.083795049765e-02 0.0 
2.515487897628e-02 5.057672090288e-02 0.0 
1.928350660008e-02 5.327647067891e-02 0.0 
3.946452409121e-02 6.616200009590e-02 0.0 
4.160191961995e-02 5.032269693730e-02 0.0 
2.155614978411e-02 1.279762255064e-02 0.0 
-6.371065291654e-03 4.298456455890e-02 0.0 
-5.546092427945e-03 4.723327650870e-02 0.0 
-5.857409543214e-03 4.506738233729e-02 0.0 
-3.724267311904e-03 2.009928514558e-02 0.0 
-4.581837184348e-03 2.256883026122e-02 0.0 
-3.113483931537e-03 1.987812094532e-02 0.0 
-3.885749877570e-03 2.168167632257e-02 0.0 
-2.437031256020e-03 1.918026904345e-02 0.0 
-3.188830038278e-03 2.032441050767e-02 0.0 
-4.323154851763e-03 2.303866037745e-02 0.0 
-3.628923358582e-03 2.104988074476e-02 0.0 
-4.476820070568e-03 2.391889002263e-02 0.0 
-1.869672556714e-03 1.793522797458e-02 0.0 
-7.904883829504e-04 1.707668030607e-02 0.0 
-3.791314566791e-03 2.134101420748e-02 0.0 
-4.389344291195e-03 2.431164340527e-02 0.0 
-3.722109734420e-03 2.118915369253e-02 0.0 
-4.101295583192e-03 2.422877881835e-02 0.0 
-4.749340529357e-03 2.746514702704e-02 0.0 
-4.249729490660e-03 2.739723038429e-02 0.0 
-4.861752279781e-03 3.074739854122e-02 0.0 
1.744064145718e-02 1.203474454429e-02 0.0 
2.031365943347e-02 1.443180666818e-02 0.0 
1.641143034991e-02 1.364555770001e-02 0.0 
1.866421421188e-02 1.528670174672e-02 0.0 
1.510649288958e-02 1.425046543010e-02 0.0 
1.675209058222e-02 1.517344806481e-02 0.0 
1.343297572393e-02 1.399556987032e-02 0.0 
1.182653390938e-02 1.360657332635e-02 0.0 
2.777264109438e-02 4.803231051247e-02 0.0 
2.319867184288e-02 6.126423237150e-03 0.0 
2.702990252034e-02 9.050220929520e-03 0.0 
2.294877542314e-02 3.515053538380e-03 0.0 
2.642689524939e-02 7.000835813586e-03 0.0 
2.218086949603e-02 7.884715836370e-04 0.0 
2.524257328603e-02 4.907543134625e-03 0.0 
2.097376298720e-02 -2.053539991969e-03 0.0 
1.781066626631e-02 -4.561723979068e-03 0.0 
1.658607837727e-02 -8.096480020820e-03 0.0 
1.349635890503e-02 -8.626075899411e-03 0.0 
1.242935376033e-02 -1.262839999349e-02 0.0 
9.504395613028e-03 -1.097899232373e-02 0.0 
3.617128403468e-02 3.903177444933e-02 0.0 
2.028300224950e-02 1.676527752536e-02 0.0 
1.779101625146e-02 1.587838729406e-02 0.0 
2.122290057062e-02 1.792370335922e-02 0.0 
-2.581545986994e-03 4.362803449052e-02 0.0 
-3.646122053092e-03 2.369145384428e-02 0.0 
-4.609614983284e-04 1.586039553767e-02 0.0 
9.132016401256e-04 1.536112297733e-02 0.0 
1.038079798642e-02 1.311331749473e-02 0.0 
-1.738777142742e-03 5.221785498789e-02 0.0 
2.348353006328e-02 2.846076388670e-03 0.0 
2.752731454967e-02 1.108416235504e-02 0.0 
1.633884095018e-02 5.390170469756e-02 0.0 
1.587819903617e-02 5.949968796843e-02 0.0 
9.418922181101e-04 1.407354445537e-02 0.0 
-2.219735415428e-03 5.502202044765e-02 0.0 
-3.033177801028e-03 1.856668796524e-02 0.0 
1.483147620949e-02 -1.180144027187e-02 0.0 
-3.622008333822e-03 2.685487718983e-02 0.0 
-3.061465794298e-03 2.273273915429e-02 0.0 
-5.193856708267e-03 2.605153241987e-02 0.0 
1.820325482460e-02 1.624661171082e-02 0.0 
2.155820732411e-02 1.867838348051e-02 0.0 
1.018434404788e-02 -7.036296933006e-03 0.0 
6.461097968904e-03 -7.500861290229e-03 0.0 
6.016521502639e-03 -1.129624232153e-02 0.0 
3.291058587093e-03 -5.821704658874e-03 0.0 
3.562106144386e-03 -2.779876348979e-03 0.0 
9.765392334682e-04 -1.412614907519e-04 0.0 
1.122470743013e-03 -2.578796953917e-03 0.0 
-6.968854197638e-04 4.066184405595e-03 0.0 
-1.091363222466e-03 5.948226854473e-03 0.0 
-2.269419703962e-03 1.059060619660e-02 0.0 
-1.241067598260e-03 9.455937800349e-03 0.0 
-2.406295720954e-03 1.607531834657e-02 0.0 
-3.036941404253e-03 1.960505280945e-02 0.0 
1.102462230951e-02 -1.677004718541e-02 0.0 
3.493591680864e-02 7.311818820092e-02 0.0 
-3.117897840657e-04 1.399563618285e-02 0.0 
1.145763690138e-02 1.294662795218e-02 0.0 
1.382925312386e-02 4.840213099942e-02 0.0 
1.352861867810e-02 5.395486995462e-02 0.0 
1.521088017931e-02 6.508874147048e-02 0.0 
1.301380075640e-02 5.947566666289e-02 0.0 
1.126696186469e-02 4.812362983157e-02 0.0 
1.090620846166e-02 5.362431751042e-02 0.0 
1.231905477608e-02 6.494768556832e-02 0.0 
1.035499337974e-02 5.907263769425e-02 0.0 
1.147284943522e-02 7.033680206507e-02 0.0 
9.642108631034e-03 6.444601794928e-02 0.0 
8.495884940281e-03 5.299042973361e-02 0.0 
7.909395066733e-03 5.837978313235e-02 0.0 
8.795083736977e-03 6.974184211778e-02 0.0 
7.176023966174e-03 6.369548868537e-02 0.0 
7.836615872300e-03 7.494143874827e-02 0.0 
6.317607464219e-03 6.892674160564e-02 0.0 
5.667333786853e-03 5.750082948082e-02 0.0 
-3.376021140467e-04 5.623484852171e-02 0.0 
8.864079308070e-03 1.324239539299e-02 0.0 
7.643119459845e-03 1.243265554100e-02 0.0 
-4.988945190176e-03 4.888188112530e-02 0.0 
-5.139838316087e-03 4.633457682664e-02 0.0 
-5.868171289231e-03 4.265275441641e-02 0.0 
-5.007244338865e-03 4.361010234279e-02 0.0 
4.883666796225e-03 6.282658662520e-02 0.0 
4.287196471097e-03 5.118419861862e-02 0.0 
2.507971393893e-02 1.006007429326e-02 0.0 
2.878191997603e-02 1.920761197947e-02 0.0 
1.388039834676e-02 4.283579039971e-02 0.0 
-2.904428213896e-03 2.587526744075e-02 0.0 
-3.384224344273e-03 3.003535306775e-02 0.0 
4.112778529174e-02 4.569450067573e-02 0.0 
4.167076979729e-02 5.395396801690e-02 0.0 
4.082392771797e-02 4.858760428054e-02 0.0 
4.075769293545e-02 5.766724821333e-02 0.0 
4.147421747911e-02 6.294190410732e-02 0.0 
3.948901401053e-02 5.153396633296e-02 0.0 
6.412911254561e-04 1.594476218964e-02 0.0 
6.766510389411e-03 4.673940739527e-02 0.0 
-3.975365590116e-03 3.829118083986e-02 0.0 
-1.679196519018e-03 3.903008777961e-02 0.0 
-2.415771015096e-03 2.139695086403e-02 0.0 
9.740903712634e-03 1.323019192677e-02 0.0 
3.490534840553e-02 4.029658461072e-02 0.0 
3.286008236100e-02 3.487391675164e-02 0.0 
3.132845230861e-02 3.528837367693e-02 0.0 
2.907137058639e-02 3.036439899262e-02 0.0 
2.725680285230e-02 2.994568075419e-02 0.0 
2.480112122018e-02 2.547740169935e-02 0.0 
2.646398658529e-02 2.596817019609e-02 0.0 
1.796482664414e-02 1.616291371271e-02 0.0 
2.205561072004e-02 2.145523155065e-02 0.0 
5.440467933411e-03 7.416244979683e-02 0.0 
2.396039730472e-02 1.885687007399e-02 0.0 
-2.830675422235e-03 1.191020433120e-02 0.0 
6.272928628146e-04 5.308573035337e-02 0.0 
-3.188341503737e-04 1.565458610826e-02 0.0 
-9.421211301310e-04 5.865975011448e-02 0.0 
-2.358957761402e-03 5.702951435289e-02 0.0 
7.879483810402e-04 1.209097503065e-02 0.0 
2.263422734979e-02 2.423120438537e-02 0.0 
2.499288069922e-02 2.874774594666e-02 0.0 
3.990996736358e-02 6.758897855811e-02 0.0 
4.053644519890e-02 7.250565703267e-02 0.0 
1.480963568231e-02 1.383416830900e-02 0.0 
1.973973617999e-02 7.539986629598e-02 0.0 
1.337788548791e-02 7.602541086560e-02 0.0 
1.227379764952e-02 8.132382374756e-02 0.0 
1.114502447490e-03 5.955851662371e-02 0.0 
6.908368033187e-04 8.672278343285e-03 0.0 
9.129338218500e-03 4.206100362952e-02 0.0 
3.116657198097e-02 1.940312165787e-02 0.0 
3.207823307637e-02 2.806255061424e-02 0.0 
1.273487452800e-02 -1.562701685669e-02 0.0 
9.321045204661e-03 -2.124084401446e-02 0.0 
3.627184019436e-03 5.642412144421e-02 0.0 
3.086132802203e-03 4.472939289763e-02 0.0 
-5.621239046077e-03 4.001924501079e-02 0.0 
-4.710399368285e-03 4.057630939021e-02 0.0 
2.241272879184e-03 1.249616455900e-02 0.0 
-1.489773217974e-03 2.205520425368e-02 0.0 
3.520231867917e-03 3.928704763872e-02 0.0 
6.944398203974e-03 1.343574833947e-02 0.0 
7.273729366194e-03 1.302969265408e-02 0.0 
-4.162534452584e-03 4.707999230891e-02 0.0 
2.548445425782e-02 1.929486605399e-02 0.0 
2.185484549113e-02 9.305348349851e-03 0.0 
-1.264914692849e-03 7.951334185448e-03 0.0 
-3.436592245325e-03 2.213073850495e-02 0.0 
-1.214221050303e-03 6.021709995834e-02 0.0 
1.715630992495e-03 1.030584466768e-02 0.0 
9.117138156284e-03 3.654483567720e-02 0.0 
2.360689043884e-02 2.214047642140e-02 0.0 
2.762342306119e-02 2.580146870552e-02 0.0 
1.912010489415e-02 1.791508891572e-02 0.0 
1.382899190219e-03 2.214231389289e-02 0.0 
-2.789490502497e-04 1.146464992886e-02 0.0 
-2.140697602711e-03 2.451882103338e-02 0.0 
2.023950080386e-02 2.259246139075e-02 0.0 
2.231904497683e-02 2.682342363146e-02 0.0 
3.436500267558e-02 2.750032274470e-02 0.0 
3.504592928823e-02 3.661671453340e-02 0.0 
3.189469722881e-02 3.815261466768e-02 0.0 
3.460125613250e-02 4.675189286873e-02 0.0 
3.154226537658e-02 7.805299284766e-02 0.0 
3.710225177156e-02 3.524458241239e-02 0.0 
3.702568419137e-02 7.392999733853e-02 0.0 
3.588008621868e-02 8.120690949459e-02 0.0 
3.760269502587e-02 8.156795041574e-02 0.0 
4.160084898776e-02 6.722449592573e-02 0.0 
4.054860559658e-02 7.643037584523e-02 0.0 
3.030001705050e-02 1.364644327441e-02 0.0 
2.438279668939e-02 1.595361661702e-02 0.0 
-6.353375064381e-03 3.881461860642e-02 0.0 
-5.410607804457e-03 3.031591180960e-02 0.0 
-1.942086204632e-03 1.768503164976e-02 0.0 
7.054983067000e-03 4.127547394535e-02 0.0 
5.363035606564e-03 3.484316797877e-02 0.0 
9.434608184492e-03 8.080292795414e-02 0.0 
8.288446048923e-03 8.586817135844e-02 0.0 
1.412063785740e-04 4.442693014786e-02 0.0 
1.404026230533e-03 3.958644602540e-02 0.0 
-5.705770825687e-03 2.569333416951e-02 0.0 
-1.199716253687e-03 1.365591821567e-02 0.0 
1.129869112486e-02 3.707725680484e-02 0.0 
1.089624636059e-02 3.155468223774e-02 0.0 
1.364440827626e-02 3.726286834953e-02 0.0 
3.320575923816e-03 1.104971887878e-02 0.0 
1.906452602850e-02 1.854119941921e-03 0.0 
1.358738395255e-02 1.200352975824e-02 0.0 
7.744927919916e-03 -1.965083367625e-02 0.0 
3.443840820345e-02 3.170065109779e-02 0.0 
3.657644131961e-03 4.501254222871e-02 0.0 
2.981886681446e-02 4.459134873954e-02 0.0 
-1.741954618274e-03 1.972719352869e-02 0.0 
-1.921906101885e-03 1.657504984671e-02 0.0 
1.404498317913e-02 1.301559349064e-02 0.0 
3.063021842397e-02 9.328604919707e-02 0.0 
3.150091018327e-02 2.722319700490e-02 0.0 
3.121021611980e-02 2.484451289262e-02 0.0 
3.599963686303e-02 8.911694398238e-02 0.0 
3.731406086022e-02 8.907506850278e-02 0.0 
3.897766732250e-02 8.100965053429e-02 0.0 
3.825013340150e-02 8.813761891023e-02 0.0 
-3.092955794436e-03 1.324665591495e-02 0.0 
-4.223638223941e-03 1.741823928989e-02 0.0 
1.723258987208e-02 1.796017338201e-02 0.0 
1.726670198027e-02 1.659383041260e-02 0.0 
1.734000276886e-02 2.012027441781e-02 0.0 
1.926690740386e-02 2.410681832312e-02 0.0 
1.103586358788e-02 1.071034043618e-02 0.0 
1.176856704526e-02 1.180077776151e-02 0.0 
-2.154586562035e-03 5.825283938890e-02 0.0 
3.891603398057e-02 8.230063417088e-02 0.0 
6.981052470898e-03 3.026245246100e-02 0.0 
3.437679677145e-02 8.834791503734e-02 0.0 
-9.846947555232e-04 1.068101907197e-02 0.0 
-1.745347721199e-03 1.301162032384e-02 0.0 
6.562966515506e-03 -2.447797655256e-02 0.0 
4.929467726608e-03 -1.939660046052e-02 0.0 
2.416823957773e-03 3.293584992314e-02 0.0 
3.061916222743e-02 4.917925426299e-02 0.0 
3.313103897635e-02 5.755015294460e-02 0.0 
2.772765806297e-02 3.989009093299e-02 0.0 
-2.982905951443e-04 8.932696060175e-03 0.0 
2.229627542356e-03 1.061012120732e-01 0.0 
-1.323473156458e-03 1.462063137572e-02 0.0 
4.114339401003e-02 7.059954312297e-02 0.0 
2.583379268970e-03 2.691941376466e-02 0.0 
2.827882227971e-02 2.354695933859e-02 0.0 
4.005399427176e-02 4.034080506189e-02 0.0 
4.097906328713e-03 1.275985355755e-02 0.0 
1.979160601607e-03 3.942004847049e-02 0.0 
1.458493807121e-03 2.596804674205e-02 0.0 
1.405737957581e-02 8.664449616944e-02 0.0 
1.277688761757e-02 9.199983361228e-02 0.0 
1.533535071972e-02 8.147537103028e-02 0.0 
1.670776713025e-02 -7.927794962338e-03 0.0 
1.341139515622e-02 -1.043689744072e-02 0.0 
5.190448493757e-03 4.033526729722e-02 0.0 
-4.502302207073e-03 5.126514955530e-02 0.0 
-3.898455441767e-03 5.247160730941e-02 0.0 
-2.415722807813e-03 2.791915234490e-02 0.0 
-4.315966449196e-03 2.776354501109e-02 0.0 
-5.974198991705e-03 3.637828971323e-02 0.0 
-6.535755259715e-03 3.498494898290e-02 0.0 
2.863966069676e-02 3.894083506940e-02 0.0 
2.595742426174e-02 3.698218570059e-02 0.0 
3.318229740846e-02 4.074571447757e-02 0.0 
4.729686437372e-03 1.385582252452e-02 0.0 
4.579707480497e-03 1.317881199685e-02 0.0 
7.276913606079e-03 1.181680447060e-02 0.0 
5.385583125630e-03 2.970071521751e-02 0.0 
3.616456715122e-03 2.209904831385e-02 0.0 
-1.299534559760e-03 9.794200066663e-03 0.0 
1.026157608399e-03 4.943169754481e-03 0.0 
-4.527676919452e-03 1.812862435214e-02 0.0 
6.601885763139e-03 2.495560172479e-02 0.0 
-1.401097710624e-03 1.155390488229e-02 0.0 
-1.935312203615e-03 1.359213501452e-02 0.0 
5.247412532194e-03 4.010845996496e-02 0.0 
2.696882036998e-03 3.423166963467e-02 0.0 
2.109569945643e-02 1.972320695002e-02 0.0 
1.731813468206e-02 8.986394327477e-03 0.0 
1.032416708421e-02 2.649488184994e-02 0.0 
1.311872182678e-02 3.181507557301e-02 0.0 
7.390509657561e-03 2.011274953219e-02 0.0 
-1.070797055378e-03 6.110413350461e-02 0.0 
2.459164005913e-02 2.218672282009e-02 0.0 
2.547234034806e-03 8.696544141237e-03 0.0 
4.270773940082e-03 9.750849758316e-03 0.0 
1.142558257108e-03 7.145770589059e-03 0.0 
1.724639253135e-02 1.570812285820e-02 0.0 
1.279197245863e-02 1.185191233373e-02 0.0 
1.407626181411e-02 1.317526607139e-02 0.0 
7.044566708704e-03 -2.553512793471e-02 0.0 
1.102405983268e-03 3.105039789584e-02 0.0 
9.837708826339e-03 9.154909761159e-02 0.0 
5.917785258621e-03 -2.816348828719e-02 0.0 
8.523315236133e-03 9.683017771838e-02 0.0 
7.121700928039e-03 9.089287312788e-02 0.0 
7.379332357075e-03 1.019180086960e-01 0.0 
-3.368536668131e-04 6.276384135777e-02 0.0 
1.603160466914e-02 9.361409205374e-02 0.0 
1.746725267809e-02 8.704282426850e-02 0.0 
7.743172354958e-03 3.468400612197e-02 0.0 
4.510917813661e-03 1.861540687475e-02 0.0 
7.402751156576e-03 4.501957225995e-02 0.0 
5.542531636298e-03 4.940977595816e-02 0.0 
-1.314012447777e-03 9.460981364931e-03 0.0 
-1.977124323689e-03 1.202538346783e-02 0.0 
-1.392996164400e-03 8.033337796785e-03 0.0 
-1.990626428741e-03 1.093624997401e-02 0.0 
-2.595879636795e-03 1.479704743844e-02 0.0 
-2.463136298211e-03 1.365049106522e-02 0.0 
1.153133937188e-02 9.792359499214e-02 0.0 
-1.658101294186e-03 8.679477316857e-03 0.0 
-2.147331963728e-03 1.206073452228e-02 0.0 
-1.311541289740e-03 6.953665017143e-03 0.0 
3.605485296368e-02 9.668742575811e-02 0.0 
3.669914436959e-02 5.444912050572e-02 0.0 
3.514368381080e-02 6.541308559232e-02 0.0 
3.059802347196e-02 6.966549898815e-02 0.0 
1.287876749024e-02 1.535470279602e-02 0.0 
1.622482931561e-02 2.113655453049e-02 0.0 
-1.368913589553e-03 2.272778332849e-02 0.0 
-1.611703641652e-03 2.750138951028e-02 0.0 
5.895883183193e-03 9.658677850976e-02 0.0 
4.311883074820e-03 9.711186569778e-02 0.0 
4.696252783923e-03 8.744128681284e-02 0.0 
3.395749155963e-03 8.868688669141e-02 0.0 
3.644551807952e-03 7.894529226574e-02 0.0 
2.351121230070e-03 8.024832328270e-02 0.0 
2.771941150108e-03 7.024576426582e-02 0.0 
1.175012919110e-02 1.123469591463e-02 0.0 
2.529518531703e-02 5.094240051452e-02 0.0 
3.403416998209e-02 9.654670028605e-02 0.0 
8.190520140829e-03 8.624123700859e-03 0.0 
9.245640799307e-03 1.027695943919e-02 0.0 
3.886783199375e-02 8.571133643521e-02 0.0 
3.660928784002e-02 9.228759298083e-02 0.0 
-3.042991312032e-04 7.872570162530e-03 0.0 
3.579494912382e-02 2.712394537035e-02 0.0 
3.339365849406e-03 1.180281590067e-02 0.0 
1.502428191522e-03 -1.461960746607e-02 0.0 
8.023381058059e-03 -1.581946405191e-02 0.0 
3.824454651620e-02 3.407267723441e-02 0.0 
3.998256893246e-02 7.936182909431e-02 0.0 
3.854868305179e-02 6.149503448803e-02 0.0 
3.719245595787e-02 7.241204998086e-02 0.0 
4.561793627255e-03 1.372996248643e-02 0.0 
4.222895858684e-03 2.840103950829e-02 0.0 
2.454607479759e-02 3.000481442077e-02 0.0 
4.025515966688e-03 6.906500590603e-02 0.0 
1.894657384284e-02 3.061559999106e-02 0.0 
-7.465071864967e-04 2.519432812736e-02 0.0 
3.364941621137e-02 2.034427733018e-02 0.0 
4.165603021177e-02 6.206866834018e-02 0.0 
2.885521116598e-02 2.888615054236e-02 0.0 
3.763487060433e-02 4.465276106102e-02 0.0 
3.258544295116e-02 7.148164973776e-02 0.0 
3.020671087848e-02 8.445430851503e-02 0.0 
3.233306955646e-02 8.691923762478e-02 0.0 
3.066627043893e-02 1.496150792756e-02 0.0 
3.839396012831e-02 7.793335020349e-02 0.0 
3.486650531549e-02 8.408206564434e-02 0.0 
3.772175190159e-02 6.665030078089e-02 0.0 
1.648445788531e-02 4.261910305194e-02 0.0 
1.608365213117e-02 3.701191574160e-02 0.0 
1.235346439078e-02 2.673420025574e-02 0.0 
1.535649015300e-02 3.160047532179e-02 0.0 
1.911343529157e-02 4.187390053158e-02 0.0 
1.850934814220e-02 3.631762896928e-02 0.0 
1.429113595471e-02 2.644957827593e-02 0.0 
1.754690986469e-02 3.093798114368e-02 0.0 
1.177124942244e-02 1.943619302176e-02 0.0 
1.606279865979e-02 2.555211735742e-02 0.0 
2.082953458084e-02 3.519525747636e-02 0.0 
1.963649458411e-02 3.009927390386e-02 0.0 
1.495481714743e-02 2.176039615557e-02 0.0 
2.416393038194e-02 3.940251737116e-02 0.0 
6.940955833720e-03 6.986812444545e-03 0.0 
3.849875962447e-02 3.298156581354e-02 0.0 
9.982399843675e-03 -1.945737140895e-02 0.0 
1.135832454980e-02 -4.790232553387e-03 0.0 
4.079422348715e-02 6.466879511303e-02 0.0 
5.787008200500e-03 9.542927377559e-03 0.0 
4.924281925348e-03 9.899480878182e-03 0.0 
2.922442020975e-02 1.230423418078e-02 0.0 
6.483272093206e-03 7.179129800587e-03 0.0 
3.380783834359e-02 8.007075136964e-02 0.0 
1.915559014716e-02 -4.981451218630e-03 0.0 
6.437989874961e-03 6.406134680855e-03 0.0 
1.936345130435e-02 4.752188847237e-02 0.0 
2.226279323946e-02 5.221036595128e-02 0.0 
2.202780418902e-02 5.800041782000e-02 0.0 
3.904629446886e-03 9.566949248612e-03 0.0 
1.650004897436e-02 7.607480081905e-02 0.0 
4.920920228088e-03 4.625203774783e-03 0.0 
2.249498540313e-02 1.681620901178e-02 0.0 
2.646392447077e-02 1.894907642460e-02 0.0 
2.834560644655e-02 1.835717158782e-02 0.0 
2.170591871894e-02 4.085505895345e-02 0.0 
3.089877267723e-03 3.934084235272e-03 0.0 
5.178176486840e-03 6.998652551491e-03 0.0 
4.065318496938e-03 6.820748768270e-03 0.0 
6.668310537762e-03 9.593122717668e-03 0.0 
1.880966678787e-03 3.758009527967e-03 0.0 
5.788148082999e-03 7.979831801819e-03 0.0 
5.708562816348e-03 7.261608297814e-03 0.0 
9.872655507603e-04 2.435431444786e-03 0.0 
3.774569655164e-03 2.703111689861e-04 0.0 
3.913809547964e-03 3.102570992803e-03 0.0 
7.150292350945e-03 -5.761420944159e-04 0.0 
6.897059843151e-03 -3.907060584562e-03 0.0 
1.067202881070e-02 -3.398910511575e-03 0.0 
1.095956222617e-02 -3.557576344093e-05 0.0 
1.429868952151e-02 -4.896554500836e-03 0.0 
2.132232349997e-02 2.904935314378e-02 0.0 
7.855905960401e-04 3.627328269182e-03 0.0 
-1.342196668038e-03 1.766248222277e-02 0.0 
1.333268233115e-04 1.584970528222e-02 0.0 
-3.276507507959e-04 1.522212573426e-02 0.0 
-6.849830784425e-03 3.693584083397e-02 0.0 
-6.839489040373e-03 3.295750774749e-02 0.0 
-6.381700988443e-03 3.127329383998e-02 0.0 
-6.509387601183e-03 4.101309716927e-02 0.0 
3.040741803303e-02 3.004228260865e-02 0.0 
3.087139132099e-04 3.708854187970e-03 0.0 
1.022974772904e-02 1.237891671738e-02 0.0 
-6.830252626415e-03 3.027411615750e-02 0.0 
2.124702885663e-02 1.014715354120e-01 0.0 
2.202346967122e-02 9.220602946859e-02 0.0 
2.399832810207e-02 9.060208991001e-02 0.0 
2.222998925212e-02 8.141811819505e-02 0.0 
1.969455259425e-02 9.233831199163e-02 0.0 
-5.212230531472e-03 3.713579611165e-02 0.0 
-4.310529135904e-03 3.729529340356e-02 0.0 
-3.680479151191e-03 4.052740130211e-02 0.0 
-3.321530791754e-03 3.690434792675e-02 0.0 
-2.588161907815e-03 3.991744422646e-02 0.0 
-2.860144304965e-03 4.349116355238e-02 0.0 
-2.271107794233e-03 3.603029642776e-02 0.0 
-1.502788910809e-03 3.925120898551e-02 0.0 
1.720149833961e-02 1.034986898065e-01 0.0 
8.616961043836e-03 -1.361613601185e-02 0.0 
4.948605297800e-03 -7.641301694074e-03 0.0 
6.029783074473e-03 3.056273084437e-03 0.0 
2.744704481417e-03 -2.120524960584e-03 0.0 
3.107936954667e-03 -1.097999730087e-02 0.0 
1.472613619899e-03 -4.984303307157e-03 0.0 
3.279520983963e-03 -1.218461134197e-02 0.0 
4.454975811438e-03 -1.800559201716e-02 0.0 
1.173412665945e-02 8.358500912734e-03 0.0 
6.970620177521e-03 1.204626257433e-02 0.0 
1.256292997586e-02 1.674793422812e-02 0.0 
7.808550725395e-03 2.004479989682e-02 0.0 
3.008541021268e-03 1.558729697302e-02 0.0 
-7.251067766365e-04 3.382997366424e-02 0.0 
-7.705033408665e-04 5.763712020890e-03 0.0 
-1.181302338489e-03 4.988806842899e-02 0.0 
-2.278196613871e-03 5.095566110260e-02 0.0 
-2.177338592882e-03 5.402817985134e-02 0.0 
-3.378279162682e-03 5.113947983895e-02 0.0 
-2.193866894249e-03 4.790131122338e-02 0.0 
-1.047790520298e-03 5.637959404289e-02 0.0 
-1.935772250784e-03 5.663953121518e-02 0.0 
5.218260299600e-03 6.359591405513e-02 0.0 
2.978371647073e-03 6.481043437544e-02 0.0 
1.476646378161e-03 6.614207648094e-02 0.0 
1.380253304505e-03 6.532637378169e-02 0.0 
2.286927513583e-03 6.368102445409e-02 0.0 
4.356876503919e-03 6.273644431398e-02 0.0 
5.635109104278e-03 5.989321753076e-02 0.0 
8.828430688948e-03 5.802215704893e-02 0.0 
6.691093888753e-03 5.639606828047e-02 0.0 
3.658752417942e-03 5.811263174228e-02 0.0 
1.033543853399e-02 5.431110063730e-02 0.0 
8.884567040894e-04 5.528543078979e-02 0.0 
1.685728289310e-03 4.945087801481e-02 0.0 
-4.049004924198e-04 4.165197587689e-03 0.0 
1.335532652892e-02 1.038805934807e-01 0.0 
1.321044228805e-02 3.158809642280e-02 0.0 
1.344703100187e-03 1.302113029247e-02 0.0 
1.999765009842e-03 1.070639313911e-02 0.0 
1.628768801474e-03 1.041313476177e-02 0.0 
-4.695269260646e-04 1.471386254167e-02 0.0 
-7.573927140403e-04 1.195004156612e-02 0.0 
7.381548498202e-04 1.269938899110e-02 0.0 
-5.542295329005e-03 3.754090939022e-02 0.0 
1.126187111162e-02 2.188849246113e-02 0.0 
3.786640268380e-03 3.377484550444e-02 0.0 
2.102418120816e-02 9.242478166369e-04 0.0 
-4.626975279798e-03 2.229472475840e-02 0.0 
-2.499490542984e-03 2.898502213192e-02 0.0 
-5.077685911599e-03 2.701421443311e-02 0.0 
-2.512761660780e-03 1.829010541358e-02 0.0 
-4.171529345668e-03 3.063404794438e-02 0.0 
-3.457755882808e-03 2.059925951970e-02 0.0 
3.003593942793e-03 6.955316940619e-03 0.0 
6.595391560626e-05 6.155826326449e-02 0.0 
1.050220337046e-02 7.562305850641e-02 0.0 
6.849327156843e-03 8.008021512988e-02 0.0 
6.296755070352e-03 5.215442721778e-02 0.0 
-4.816316584772e-03 4.916086533389e-02 0.0 
-3.996588691208e-03 4.370035084367e-02 0.0 
-9.693328553100e-04 4.864271392772e-02 0.0 
1.181451763519e-02 1.234917478096e-02 0.0 
3.877164612054e-02 7.391898844234e-02 0.0 
-2.420973494820e-03 1.725841887938e-02 0.0 
-6.896288019014e-03 3.865380458793e-02 0.0 
-6.127673220730e-03 3.240203118291e-02 0.0 
-3.560779367906e-03 1.670233138325e-02 0.0 
3.987016943224e-02 3.829087183176e-02 0.0 
-6.191863660245e-03 2.646384866432e-02 0.0 
-2.606687601268e-03 1.844298044564e-02 0.0 
4.825272013235e-03 4.578982523782e-02 0.0 
1.190979112372e-02 4.459574380916e-02 0.0 
-1.474161779596e-03 1.609858804514e-02 0.0 
-5.048191749950e-03 2.456568871737e-02 0.0 
1.437072458860e-02 7.061886514310e-02 0.0 
1.450274535869e-02 1.424501279679e-02 0.0 
-4.440717487952e-05 2.642734336537e-03 0.0 
8.915174182121e-03 4.756268283958e-02 0.0 
8.444593230870e-03 2.624540850169e-02 0.0 
1.862453449576e-02 8.121122936598e-02 0.0 
2.117385259569e-03 4.945664380194e-02 0.0 
1.111604085511e-02 8.664998589282e-02 0.0 
5.226595177383e-04 9.389305383664e-03 0.0 
1.655120996210e-02 4.824569787566e-02 0.0 
-3.609354735590e-03 5.330403643891e-02 0.0 
1.417537704210e-02 9.999930215507e-03 0.0 
4.147701768650e-02 5.404677364432e-02 0.0 
3.031291276361e-02 1.018603726947e-01 0.0 
3.890481463515e-03 2.867348276453e-02 0.0 
3.361135414741e-02 2.574884236108e-02 0.0 
8.663219867337e-03 1.180512016022e-02 0.0 
1.290023582258e-02 1.326001181099e-02 0.0 
-3.348509118306e-03 5.491460950098e-02 0.0 
-2.505339368389e-03 1.556778962649e-02 0.0 
2.567959784188e-02 1.450956325467e-02 0.0 
7.150937194652e-03 3.585192721584e-02 0.0 
2.936327796169e-02 3.489026468647e-02 0.0 
1.909961976728e-02 4.781616581001e-03 0.0 
1.140901815070e-02 4.260638024643e-02 0.0 
1.758298548122e-03 1.267323964739e-02 0.0 
1.496482565523e-02 1.421922010400e-02 0.0 
4.017371424538e-02 7.280132894705e-02 0.0 
3.645207442306e-02 4.626262450580e-02 0.0 
3.053624360945e-02 5.049449381976e-02 0.0 
3.689691634914e-02 3.692901341700e-02 0.0 
-1.821156647682e-03 3.205147378957e-02 0.0 
-2.146400943582e-03 1.601064747722e-02 0.0 
8.859146467053e-03 -1.520150755803e-02 0.0 
3.934367340474e-02 4.243521039806e-02 0.0 
1.746285277769e-02 7.040250511288e-02 0.0 
2.014888105234e-02 2.031525591456e-02 0.0 
5.032380388862e-03 2.382819694940e-02 0.0 
4.195386647549e-02 5.847916899188e-02 0.0 
-3.185229803350e-03 1.830281579616e-02 0.0 
8.913330373588e-03 3.138588109281e-02 0.0 
-6.459838700017e-03 2.917741220520e-02 0.0 
-2.283558286270e-04 6.364113331115e-02 0.0 
1.804417379452e-02 -6.804524946586e-04 0.0 
1.863107666256e-02 -1.266592761194e-03 0.0 
3.201678009830e-02 2.180044161476e-02 0.0 
-5.886878539604e-03 2.778458232569e-02 0.0 
8.921552609671e-03 2.003558335966e-02 0.0 
-3.103883578375e-03 1.764094807887e-02 0.0 
2.567993679076e-03 1.395395715224e-02 0.0 
8.133839453684e-03 1.967965866909e-02 0.0 
3.252652309239e-02 9.514880510864e-02 0.0 
-2.832422079529e-03 1.659029358926e-02 0.0 
1.045658770552e-02 1.074800355808e-02 0.0 
1.193454813490e-02 1.254874031649e-02 0.0 
-1.733415950510e-03 4.274992650755e-02 0.0 
1.170479698262e-02 1.165788771476e-02 0.0 
3.668895867105e-02 9.475754239966e-02 0.0 
-2.420765917445e-03 1.518261855897e-02 0.0 
6.275947137668e-03 1.301753828985e-02 0.0 
3.277305002391e-02 1.979747226167e-02 0.0 
3.697898718514e-03 1.060567332417e-01 0.0 
-1.612038870141e-03 9.579767828821e-03 0.0 
5.305771820371e-03 1.170069614295e-02 0.0 
3.392341635942e-02 3.367460517725e-02 0.0 
7.281876192426e-03 1.014089865043e-02 0.0 
3.269436630815e-02 1.047680301364e-01 0.0 
-5.767508167363e-03 2.931804688533e-02 0.0 
3.457852573967e-02 4.659355365862e-02 0.0 
3.435229501321e-03 9.469044437921e-03 0.0 
6.277444675591e-03 1.081774892871e-02 0.0 
2.477789237447e-02 6.248077670526e-02 0.0 
-6.029615415134e-03 3.278474322934e-02 0.0 
2.481959061531e-02 2.048276737131e-02 0.0 
3.091697022392e-03 6.127494444728e-02 0.0 
3.519260824971e-02 9.701215172965e-02 0.0 
-5.452339929196e-03 3.369652892855e-02 0.0 
1.480562614349e-02 -1.423547803152e-03 0.0 
4.423660833314e-03 1.189678659630e-02 0.0 
9.906615312577e-03 9.384955797024e-03 0.0 
-4.710864237694e-03 3.401725743603e-02 0.0 
1.502398294138e-02 1.852308567017e-03 0.0 
-3.856631654698e-03 3.380034243567e-02 0.0 
3.380936101221e-02 1.044196020630e-01 0.0 
2.510780380883e-02 5.637093656822e-02 0.0 
-2.900082803807e-03 3.312159962457e-02 0.0 
3.107887919608e-02 4.024908966784e-02 0.0 
3.973263297607e-03 5.404442584017e-02 0.0 
3.123786634978e-02 2.899962454214e-02 0.0 
-1.065677461740e-03 1.743899271214e-02 0.0 
-5.679056801073e-03 2.289221861956e-02 0.0 
2.043275570555e-03 1.385532262857e-02 0.0 
2.215437820999e-02 4.645795898653e-02 0.0 
3.314060394883e-02 1.007945545396e-01 0.0 
2.430792887012e-03 1.460812912073e-02 0.0 
2.702875897430e-02 3.369467218282e-02 0.0 
2.825739550814e-02 2.501283472376e-02 0.0 
3.021052529614e-02 2.188681445036e-02 0.0 
2.645932162734e-03 1.466772513908e-02 0.0 
3.620600400192e-02 8.839563649055e-02 0.0 
-4.965808440607e-03 3.309582018824e-02 0.0 
-3.248493990647e-03 3.340465365343e-02 0.0 
1.108003656350e-02 3.108053036103e-03 0.0 
2.431189470224e-02 3.171092450009e-02 0.0 
7.988269424124e-04 6.376750407845e-02 0.0 
2.481089536271e-02 4.477602683282e-02 0.0 
3.312681846293e-04 2.818169220004e-02 0.0 
7.316069917698e-03 2.489211708992e-03 0.0 
2.115932679521e-02 1.886506180439e-02 0.0 
1.065933882181e-03 7.750330957017e-02 0.0 
4.047387695369e-03 5.781932259158e-03 0.0 
-5.778449211074e-04 6.162691262385e-02 0.0 
1.110308452885e-03 7.250238103254e-03 0.0 
2.768974108114e-02 2.151284913084e-02 0.0 
-1.175040540575e-03 1.147423860018e-02 0.0 
-3.134951978994e-03 1.438105932628e-02 0.0 
2.620602250239e-03 2.204238862520e-02 0.0 
-4.585214907253e-03 1.882523084711e-02 0.0 
3.667045804221e-04 1.053426841562e-02 0.0 
-3.490225718608e-04 5.381581358105e-03 0.0 
1.396217559872e-03 9.846672265271e-02 0.0 
2.992160793288e-02 9.399333882898e-02 0.0 
4.528000422855e-03 -3.013964059485e-02 0.0 
3.372791051093e-02 7.550767514226e-02 0.0 
-5.320014262841e-03 2.252413950216e-02 0.0 
2.712411576992e-02 4.242504623704e-02 0.0 
2.900836360958e-03 9.795523118212e-02 0.0 
-5.480016450756e-03 2.759278718803e-02 0.0 
1.097961348242e-02 1.632286554423e-02 0.0 
5.589510705658e-03 5.226328033874e-03 0.0 
1.910431997572e-03 6.038665076904e-02 0.0 
9.313322268738e-03 1.121966012826e-02 0.0 
2.494290997915e-02 2.157030337150e-02 0.0 
5.467710572162e-04 3.228031779238e-02 0.0 
8.582332403520e-03 1.064550150995e-01 0.0 
8.446196553905e-03 2.749911844892e-02 0.0 
-8.718947240203e-04 3.001871648099e-02 0.0 
2.566729089626e-02 8.038290286127e-02 0.0 
2.793312566718e-02 6.021467531294e-02 0.0 
2.201109842848e-02 4.099668914525e-02 0.0 
-2.740315925490e-03 5.601191948502e-02 0.0 
3.199044622937e-03 7.092517488570e-03 0.0 
2.157151052867e-02 6.259626998448e-02 0.0 
6.331927308391e-03 7.459395547848e-03 0.0 
1.433882821077e-02 9.624167861302e-02 0.0 
2.066896341505e-02 1.890501618370e-02 0.0 
1.520240068145e-02 4.243870055049e-02 0.0 
6.124832844783e-03 2.046233353105e-02 0.0 
1.047495330072e-02 9.718769608892e-03 0.0 
-7.311110550425e-04 3.978757278460e-03 0.0 
1.591270152743e-02 1.467948380161e-02 0.0 
1.536779800604e-02 1.947533371683e-02 0.0 
2.054311505772e-02 8.462678577446e-02 0.0 
1.179200563773e-02 1.304741411301e-02 0.0 
2.573788597843e-03 5.109295282509e-02 0.0 
-8.153965317170e-04 4.065061519452e-03 0.0 
1.796728261780e-02 9.590628545091e-02 0.0 
1.609882711321e-03 2.064806556674e-02 0.0 
5.965165254207e-03 -1.557042441793e-02 0.0 
8.215657794608e-04 2.008239516963e-02 0.0 
2.292341309871e-02 3.399147284291e-02 0.0 
5.906095544056e-03 8.510936837405e-02 0.0 
2.432870162679e-02 8.253315143089e-02 0.0 
-8.940320266020e-04 9.261914548478e-03 0.0 
9.922907480679e-03 1.767143834722e-02 0.0 
1.172072770431e-02 6.331604589830e-03 0.0 
2.991131921732e-03 6.150615321581e-02 0.0 
-4.381212152283e-03 4.932426074754e-02 0.0 
5.462783713813e-03 -2.549893041495e-02 0.0 
-7.753815040648e-04 7.508861280165e-03 0.0 
1.820918674189e-02 2.565256139676e-02 0.0 
-1.334715640918e-03 9.155173809020e-03 0.0 
6.595002217026e-04 6.606745836654e-02 0.0 
9.167852426847e-03 4.071483057534e-02 0.0 
3.097675807844e-04 6.503092360685e-03 0.0 
1.086239087135e-02 1.380410947763e-02 0.0 
2.918926798245e-03 -8.166688619715e-03 0.0 
2.083100982411e-03 8.288477621324e-03 0.0 
6.398183737815e-03 -5.644334031216e-03 0.0 
1.172034823111e-02 1.070181368558e-01 0.0 
7.786669623249e-03 5.265377563580e-02 0.0 
-7.787713083998e-04 4.280212720630e-03 0.0 
3.747540541795e-03 1.950255819715e-02 0.0 
-3.094253942276e-03 4.863243135736e-02 0.0 
2.520445491305e-02 9.757111710893e-02 0.0 
-1.543989754334e-03 5.915023022053e-02 0.0 
1.562520583466e-02 1.544914584808e-02 0.0 
4.633792782252e-03 2.278704535823e-02 0.0 
2.595715329484e-03 1.855908622634e-02 0.0 
1.806271336765e-03 6.084407264748e-03 0.0 
7.125632976596e-03 1.726223568016e-02 0.0 
3.100249750421e-03 3.211403548214e-03 0.0 
6.470710675753e-03 -2.390410834460e-02 0.0 
9.550716676461e-03 8.923234063925e-03 0.0 
4.857956689635e-03 8.851379279367e-03 0.0 
6.440172490940e-03 1.070836469378e-01 0.0 
8.786117559751e-03 1.788753725669e-02 0.0 
-2.957284207875e-03 5.397208697112e-02 0.0 
1.640801017709e-03 5.654098250917e-02 0.0 
1.566541240479e-04 9.342568921980e-03 0.0 
1.649998267124e-03 6.575600064629e-02 0.0 
1.085272475713e-03 1.072693587702e-01 0.0 
-1.351248690054e-04 4.419643338512e-03 0.0 
1.433706972985e-03 6.218515396898e-02 0.0 
2.300555049729e-03 9.080973503227e-02 0.0 
1.016607106325e-02 1.389681373014e-02 0.0 
-7.534848846218e-04 4.243470675592e-02 0.0 
1.267638489082e-03 4.011781457109e-02 0.0 
1.320363695998e-03 2.472881865391e-03 0.0 
6.580288597309e-03 -3.103239351985e-02 0.0 
1.833554712846e-03 7.195034005650e-02 0.0 
8.793139712768e-03 8.243086602345e-03 0.0 
5.651775137423e-03 1.695750625706e-02 0.0 
4.731061542337e-03 7.927510988531e-02 0.0 
1.495981101319e-02 -3.339825573834e-05 0.0 
1.419359082772e-02 1.929282872499e-02 0.0 
-3.178869389830e-03 4.593084375138e-02 0.0 
1.582653818920e-02 1.733774531180e-02 0.0 
7.470595026742e-03 9.290758416533e-03 0.0 
7.766376198362e-04 -3.375750076993e-03 0.0 
-6.318067330957e-04 3.850494244732e-02 0.0 
8.741428526736e-03 4.861936654989e-02 0.0 
-1.385719244623e-03 7.418554754896e-03 0.0 
-2.092918986874e-03 4.520446912024e-02 0.0 
2.512404954594e-02 1.101620847817e-01 0.0 
6.784433596039e-04 1.536136198313e-01 0.0 
2.851530865798e-02 1.152171387167e-01 0.0 
6.679136864705e-04 1.457065039900e-01 0.0 
2.950404576707e-02 1.165058164638e-01 0.0 
7.065756064151e-04 1.373449393442e-01 0.0 
2.877179609487e-02 1.146521926704e-01 0.0 
7.018303543234e-04 1.285296083303e-01 0.0 
2.674723122194e-02 1.103814741929e-01 0.0 
7.288357792916e-04 1.192694541544e-01 0.0 

VECTORS node_bounda_dof_materi_velocity_x float
1.000000000000e+00 0.0 0.0 
1.000000000000e+00 0.0 0.0 
1.000000000000e+00 0.0 0.0 
1.000000000000e+00 0.0 0.0 
1.000000000000e+00 0.0 0.0 
1.000000000000e+00 0.0 0.0 
1.000000000000e+00 0.0 0.0 
1.000000000000e+00 0.0 0.0 
1.000000000000e+00 0.0 0.0 
1.000000000000e+00 0.0 0.0 
1.000000000000e+00 0.0 0.0 
1.000000000000e+00 0.0 0.0 
1.000000000000e+00 0.0 0.0 
1.000000000000e+00 0.0 0.0 
1.000000000000e+00 0.0 0.0 
1.000000000000e+00 0.0 0.0 
1.000000000000e+00 0.0 0.0 
1.000000000000e+00 0.0 0.0 
1.000000000000e+00 0.0 0.0 
1.000000000000e+00 0.0 0.0 
1.000000000000e+00 0.0 0.0 
1.000000000000e+00 0.0 0.0 
1.000000000000e+00 0.0 0.0 
1.000000000000e+00 0.0 0.0 
1.000000000000e+00 0.0 0.0 
1.000000000000e+00 0.0 0.0 
1.000000000000e+00 0.0 0.0 
1.000000000000e+00 0.0 0.0 
1.000000000000e+00 0.0 0.0 
1.000000000000e+00 0.0 0.0 
1.000000000000e+00 0.0 0.0 
1.000000000000e+00 0.0 0.0 
1.000000000000e+00 0.0 0.0 
1.000000000000e+00 0.0 0.0 
1.000000000000e+00 0.0 0.0 
1.000000000000e+00 0.0 0.0 
1.000000000000e+00 0.0 0.0 
1.000000000000e+00 0.0 0.0 
1.000000000000e+00 0.0 0.0 
1.000000000000e+00 0.0 0.0 
1.000000000000e+00 0.0 0.0 
1.000000000000e+00 0.0 0.0 
1.000000000000e+00 0.0 0.0 
1.000000000000e+00 0.0 0.0 
1.000000000000e+00 0.0 0.0 
1.000000000000e+00 0.0 0.0 
1.000000000000e+00 0.0 0.0 
1.000000000000e+00 0.0 0.0 
1.000000000000e+00 0.0 0.0 
1.000000000000e+00 0.0 0.0 
1.000000000000e+00 0.0 0.0 
1.000000000000e+00 0.0 0.0 
1.000000000000e+00 0.0 0.0 
1.000000000000e+00 0.0 0.0 
1.000000000000e+00 0.0 0.0 
1.000000000000e+00 0.0 0.0 
1.000000000000e+00 0.0 0.0 
1.000000000000e+00 0.0 0.0 
1.000000000000e+00 0.0 0.0 
1.000000000000e+00 0.0 0.0 
1.000000000000e+00 0.0 0.0 
1.000000000000e+00 0.0 0.0 
1.000000000000e+00 0.0 0.0 
1.000000000000e+00 0.0 0.0 
1.000000000000e+00 0.0 0.0 
1.000000000000e+00 0.0 0.0 
1.000000000000e+00 0.0 0.0 
1.000000000000e+00 0.0 0.0 
1.000000000000e+00 0.0 0.0 
1.000000000000e+00 0.0 0.0 
1.000000000000e+00 0.0 0.0 
1.000000000000e+00 0.0 0.0 
1.000000000000e+00 0.0 0.0 
1.000000000000e+00 0.0 0.0 
1.000000000000e+00 0.0 0.0 
1.000000000000e+00 0.0 0.0 
1.000000000000e+00 0.0 0.0 
1.000000000000e+00 0.0 0.0 
1.000000000000e+00 0.0 0.0 
1.000000000000e+00 0.0 0.0 
1.000000000000e+00 0.0 0.0 
0.0 0.0 0.0 
0.0 0.0 0.0 
0.0 0.0 0.0 
0.0 0.0 0.0 
0.0 0.0 0.0 
0.0 0.0 0.0 
0.0 0.0 0.0 
0.0 0.0 0.0 
0.0 0.0 0.0 
0.0 0.0 0.0 
0.0 0.0 0.0 
1.000000000000e+00 0.0 0.0 
1.000000000000e+00 0.0 0.0 
1.000000000000e+00 0.0 0.0 
1.000000000000e+00 0.0 0.0 
1.000000000000e+00 0.0 0.0 
0.0 0.0 0.0 
0.0 0.0 0.0 
0.0 0.0 0.0 
0.0 0.0 0.0 
0.0 0.0 0.0 
0.0 0.0 0.0 
0.0 0.0 0.0 
0.0 0.0 0.0 
0.0 0.0 0.0 
0.0 0.0 0.0 
0.0 0.0 0.0 
0.0 0.0 0.0 
0.0 0.0 0.0 
0.0 0.0 0.0 
0.0 0.0 0.0 
0.0 0.0 0.0 
0.0 0.0 0.0 
0.0 0.0 0.0 
0.0 0.0 0.0 
0.0 0.0 0.0 
0.0 0.0 0.0 
0.0 0.0 0.0 
0.0 0.0 0.0 
0.0 0.0 0.0 
0.0 0.0 0.0 
0.0 0.0 0.0 
0.0 0.0 0.0 
0.0 0.0 0.0 
0.0 0.0 0.0 
0.0 0.0 0.0 
0.0 0.0 0.0 
0.0 0.0 0.0 
0.0 0.0 0.0 
0.0 0.0 0.0 
0.0 0.0 0.0 
0.0 0.0 0.0 
0.0 0.0 0.0 
0.0 0.0 0.0 
0.0 0.0 0.0 
0.0 0.0 0.0 
0.0 0.0 0.0 
0.0 0.0 0.0 
0.0 0.0 0.0 
0.0 0.0 0.0 
0.0 0.0 0.0 
0.0 0.0 0.0 
0.0 0.0 0.0 
0.0 0.0 0.0 
0.0 0.0 0.0 
0.0 0.0 0.0 
0.0 0.0 0.0 
0.0 0.0 0.0 
0.0 0.0 0.0 
0.0 0.0 0.0 
0.0 0.0 0.0 
0.0 0.0 0.0 
0.0 0.0 0.0 
0.0 0.0 0.0 
0.0 0.0 0.0 
0.0 0.0 0.0 
0.0 0.0 0.0 
0.0 0.0 0.0 
0.0 0.0 0.0 
0.0 0.0 0.0 
0.0 0.0 0.0 
0.0 0.0 0.0 
0.0 0.0 0.0 
0.0 0.0 0.0 
0.0 0.0 0.0 
0.0 0.0 0.0 
0.0 0.0 0.0 
0.0 0.0 0.0 
0.0 0.0 0.0 
0.0 0.0 0.0 
0.0 0.0 0.0 
0.0 0.0 0.0 
0.0 0.0 0.0 
0.0 0.0 0.0 
0.0 0.0 0.0 
0.0 0.0 0.0 
0.0 0.0 0.0 
0.0 0.0 0.0 
0.0 0.0 0.0 
0.0 0.0 0.0 
0.0 0.0 0.0 
0.0 0.0 0.0 
0.0 0.0 0.0 
0.0 0.0 0.0 
0.0 0.0 0.0 
0.0 0.0 0.0 
0.0 0.0 0.0 
0.0 0.0 0.0 
0.0 0.0 0.0 
0.0 0.0 0.0 
0.0 0.0 0.0 
0.0 0.0 0.0 
0.0 0.0 0.0 
0.0 0.0 0.0 
0.0 0.0 0.0 
0.0 0.0 0.0 
0.0 0.0 0.0 
0.0 0.0 0.0 
0.0 0.0 0.0 
0.0 0.0 0.0 
0.0 0.0 0.0 
0.0 0.0 0.0 
0.0 0.0 0.0 
0.0 0.0 0.0 
0.0 0.0 0.0 
0.0 0.0 0.0 
0.0 0.0 0.0 
0.0 0.0 0.0 
0.0 0.0 0.0 
0.0 0.0 0.0 
0.0 0.0 0.0 
0.0 0.0 0.0 
0.0 0.0 0.0 
0.0 0.0 0.0 
0.0 0.0 0.0 
0.0 0.0 0.0 
0.0 0.0 0.0 
0.0 0.0 0.0 
0.0 0.0 0.0 
0.0 0.0 0.0 
0.0 0.0 0.0 
0.0 0.0 0.0 
0.0 0.0 0.0 
0.0 0.0 0.0 
0.0 0.0 0.0 
0.0 0.0 0.0 
0.0 0.0 0.0 
0.0 0.0 0.0 
0.0 0.0 0.0 
0.0 0.0 0.0 
0.0 0.0 0.0 
0.0 0.0 0.0 
0.0 0.0 0.0 
0.0 0.0 0.0 
0.0 0.0 0.0 
0.0 0.0 0.0 
0.0 0.0 0.0 
0.0 0.0 0.0 
0.0 0.0 0.0 
0.0 0.0 0.0 
0.0 0.0 0.0 
0.0 0.0 0.0 
0.0 0.0 0.0 
0.0 0.0 0.0 
0.0 0.0 0.0 
0.0 0.0 0.0 
0.0 0.0 0.0 
0.0 0.0 0.0 
0.0 0.0 0.0 
0.0 0.0 0.0 
0.0 0.0 0.0 
0.0 0.0 0.0 
0.0 0.0 0.0 
0.0 0.0 0.0 
0.0 0.0 0.0 
0.0 0.0 0.0 
0.0 0.0 0.0 
0.0 0.0 0.0 
0.0 0.0 0.0 
0.0 0.0 0.0 
0.0 0.0 0.0 
0.0 0.0 0.0 
0.0 0.0 0.0 
0.0 0.0 0.0 
0.0 0.0 0.0 
0.0 0.0 0.0 
0.0 0.0 0.0 
0.0 0.0 0.0 
0.0 0.0 0.0 
0.0 0.0 0.0 
0.0 0.0 0.0 
0.0 0.0 0.0 
0.0 0.0 0.0 
0.0 0.0 0.0 
0.0 0.0 0.0 
0.0 0.0 0.0 
0.0 0.0 0.0 
0.0 0.0 0.0 
0.0 0.0 0.0 
0.0 0.0 0.0 
0.0 0.0 0.0 
0.0 0.0 0.0 
0.0 0.0 0.0 
0.0 0.0 0.0 
0.0 0.0 0.0 
0.0 0.0 0.0 
0.0 0.0 0.0 
0.0 0.0 0.0 
0.0 0.0 0.0 
0.0 0.0 0.0 
0.0 0.0 0.0 
0.0 0.0 0.0 
0.0 0.0 0.0 
0.0 0.0 0.0 
0.0 0.0 0.0 
0.0 0.0 0.0 
0.0 0.0 0.0 
0.0 0.0 0.0 
0.0 0.0 0.0 
0.0 0.0 0.0 
0.0 0.0 0.0 
0.0 0.0 0.0 
0.0 0.0 0.0 
0.0 0.0 0.0 
0.0 0.0 0.0 
0.0 0.0 0.0 
0.0 0.0 0.0 
0.0 0.0 0.0 
0.0 0.0 0.0 
0.0 0.0 0.0 
0.0 0.0 0.0 
0.0 0.0 0.0 
0.0 0.0 0.0 
0.0 0.0 0.0 
0.0 0.0 0.0 
0.0 0.0 0.0 
0.0 0.0 0.0 
0.0 0.0 0.0 
0.0 0.0 0.0 
0.0 0.0 0.0 
0.0 0.0 0.0 
0.0 0.0 0.0 
0.0 0.0 0.0 
0.0 0.0 0.0 
0.0 0.0 0.0 
0.0 0.0 0.0 
0.0 0.0 0.0 
0.0 0.0 0.0 
0.0 0.0 0.0 
0.0 0.0 0.0 
0.0 0.0 0.0 
0.0 0.0 0.0 
0.0 0.0 0.0 
0.0 0.0 0.0 
0.0 0.0 0.0 
0.0 0.0 0.0 
0.0 0.0 0.0 
0.0 0.0 0.0 
0.0 0.0 0.0 
0.0 0.0 0.0 
0.0 0.0 0.0 
0.0 0.0 0.0 
0.0 0.0 0.0 
0.0 0.0 0.0 
0.0 0.0 0.0 
0.0 0.0 0.0 
0.0 0.0 0.0 
0.0 0.0 0.0 
0.0 0.0 0.0 
0.0 0.0 0.0 
0.0 0.0 0.0 
0.0 0.0 0.0 
0.0 0.0 0.0 
0.0 0.0 0.0 
0.0 0.0 0.0 
0.0 0.0 0.0 
0.0 0.0 0.0 
0.0 0.0 0.0 
0.0 0.0 0.0 
0.0 0.0 0.0 
0.0 0.0 0.0 
0.0 0.0 0.0 
0.0 0.0 0.0 
0.0 0.0 0.0 
0.0 0.0 0.0 
0.0 0.0 0.0 
0.0 0.0 0.0 
0.0 0.0 0.0 
0.0 0.0 0.0 
0.0 0.0 0.0 
0.0 0.0 0.0 
0.0 0.0 0.0 
0.0 0.0 0.0 
0.0 0.0 0.0 
0.0 0.0 0.0 
0.0 0.0 0.0 
0.0 0.0 0.0 
0.0 0.0 0.0 
0.0 0.0 0.0 
0.0 0.0 0.0 
0.0 0.0 0.0 
0.0 0.0 0.0 
0.0 0.0 0.0 
0.0 0.0 0.0 
0.0 0.0 0.0 
0.0 0.0 0.0 
0.0 0.0 0.0 
0.0 0.0 0.0 
0.0 0.0 0.0 
0.0 0.0 0.0 
0.0 0.0 0.0 
0.0 0.0 0.0 
0.0 0.0 0.0 
0.0 0.0 0.0 
0.0 0.0 0.0 
0.0 0.0 0.0 
0.0 0.0 0.0 
0.0 0.0 0.0 
0.0 0.0 0.0 
0.0 0.0 0.0 
0.0 0.0 0.0 
0.0 0.0 0.0 
0.0 0.0 0.0 
0.0 0.0 0.0 
0.0 0.0 0.0 
0.0 0.0 0.0 
0.0 0.0 0.0 
0.0 0.0 0.0 
0.0 0.0 0.0 
0.0 0.0 0.0 
0.0 0.0 0.0 
0.0 0.0 0.0 
0.0 0.0 0.0 
0.0 0.0 0.0 
0.0 0.0 0.0 
0.0 0.0 0.0 
0.0 0.0 0.0 
0.0 0.0 0.0 
0.0 0.0 0.0 
0.0 0.0 0.0 
0.0 0.0 0.0 
0.0 0.0 0.0 
0.0 0.0 0.0 
0.0 0.0 0.0 
0.0 0.0 0.0 
0.0 0.0 0.0 
0.0 0.0 0.0 
0.0 0.0 0.0 
0.0 0.0 0.0 
0.0 0.0 0.0 
0.0 0.0 0.0 
0.0 0.0 0.0 
0.0 0.0 0.0 
0.0 0.0 0.0 
0.0 0.0 0.0 
0.0 0.0 0.0 
0.0 0.0 0.0 
0.0 0.0 0.0 
0.0 0.0 0.0 
0.0 0.0 0.0 
0.0 0.0 0.0 
0.0 0.0 0.0 
0.0 0.0 0.0 
0.0 0.0 0.0 
0.0 0.0 0.0 
0.0 0.0 0.0 
0.0 0.0 0.0 
0.0 0.0 0.0 
0.0 0.0 0.0 
0.0 0.0 0.0 
0.0 0.0 0.0 
0.0 0.0 0.0 
0.0 0.0 0.0 
0.0 0.0 0.0 
0.0 0.0 0.0 
0.0 0.0 0.0 
0.0 0.0 0.0 
0.0 0.0 0.0 
0.0 0.0 0.0 
0.0 0.0 0.0 
0.0 0.0 0.0 
0.0 0.0 0.0 
0.0 0.0 0.0 
0.0 0.0 0.0 
0.0 0.0 0.0 
0.0 0.0 0.0 
0.0 0.0 0.0 
0.0 0.0 0.0 
0.0 0.0 0.0 
0.0 0.0 0.0 
0.0 0.0 0.0 
0.0 0.0 0.0 
0.0 0.0 0.0 
0.0 0.0 0.0 
0.0 0.0 0.0 
0.0 0.0 0.0 
0.0 0.0 0.0 
0.0 0.0 0.0 
0.0 0.0 0.0 
0.0 0.0 0.0 
0.0 0.0 0.0 
0.0 0.0 0.0 
0.0 0.0 0.0 
0.0 0.0 0.0 
0.0 0.0 0.0 
0.0 0.0 0.0 
0.0 0.0 0.0 
0.0 0.0 0.0 
0.0 0.0 0.0 
0.0 0.0 0.0 
0.0 0.0 0.0 
0.0 0.0 0.0 
0.0 0.0 0.0 
0.0 0.0 0.0 
0.0 0.0 0.0 
0.0 0.0 0.0 
0.0 0.0 0.0 
0.0 0.0 0.0 
0.0 0.0 0.0 
0.0 0.0 0.0 
0.0 0.0 0.0 
0.0 0.0 0.0 
0.0 0.0 0.0 
0.0 0.0 0.0 
0.0 0.0 0.0 
0.0 0.0 0.0 
0.0 0.0 0.0 
0.0 0.0 0.0 
0.0 0.0 0.0 
0.0 0.0 0.0 
0.0 0.0 0.0 
0.0 0.0 0.0 
0.0 0.0 0.0 
0.0 0.0 0.0 
0.0 0.0 0.0 
0.0 0.0 0.0 
0.0 0.0 0.0 
0.0 0.0 0.0 
0.0 0.0 0.0 
0.0 0.0 0.0 
0.0 0.0 0.0 
0.0 0.0 0.0 
0.0 0.0 0.0 
0.0 0.0 0.0 
0.0 0.0 0.0 
0.0 0.0 0.0 
0.0 0.0 0.0 
0.0 0.0 0.0 
0.0 0.0 0.0 
0.0 0.0 0.0 
0.0 0.0 0.0 
0.0 0.0 0.0 
0.0 0.0 0.0 
0.0 0.0 0.0 
0.0 0.0 0.0 
0.0 0.0 0.0 
0.0 0.0 0.0 
0.0 0.0 0.0 
0.0 0.0 0.0 
0.0 0.0 0.0 
0.0 0.0 0.0 
0.0 0.0 0.0 
0.0 0.0 0.0 
0.0 0.0 0.0 
0.0 0.0 0.0 
0.0 0.0 0.0 
0.0 0.0 0.0 
0.0 0.0 0.0 
0.0 0.0 0.0 
0.0 0.0 0.0 
0.0 0.0 0.0 
0.0 0.0 0.0 
0.0 0.0 0.0 
0.0 0.0 0.0 
0.0 0.0 0.0 
0.0 0.0 0.0 
0.0 0.0 0.0 
0.0 0.0 0.0 
0.0 0.0 0.0 
0.0 0.0 0.0 
0.0 0.0 0.0 
0.0 0.0 0.0 
0.0 0.0 0.0 
0.0 0.0 0.0 
0.0 0.0 0.0 
0.0 0.0 0.0 
0.0 0.0 0.0 
0.0 0.0 0.0 
0.0 0.0 0.0 
0.0 0.0 0.0 
0.0 0.0 0.0 
0.0 0.0 0.0 
0.0 0.0 0.0 
0.0 0.0 0.0 
0.0 0.0 0.0 
0.0 0.0 0.0 
0.0 0.0 0.0 
0.0 0.0 0.0 
0.0 0.0 0.0 
0.0 0.0 0.0 
0.0 0.0 0.0 
0.0 0.0 0.0 
0.0 0.0 0.0 
0.0 0.0 0.0 
0.0 0.0 0.0 
0.0 0.0 0.0 
0.0 0.0 0.0 
0.0 0.0 0.0 
0.0 0.0 0.0 
0.0 0.0 0.0 
0.0 0.0 0.0 
0.0 0.0 0.0 
0.0 0.0 0.0 
0.0 0.0 0.0 
0.0 0.0 0.0 
0.0 0.0 0.0 
0.0 0.0 0.0 
0.0 0.0 0.0 
0.0 0.0 0.0 
0.0 0.0 0.0 
0.0 0.0 0.0 
0.0 0.0 0.0 
0.0 0.0 0.0 
0.0 0.0 0.0 
0.0 0.0 0.0 
0.0 0.0 0.0 
0.0 0.0 0.0 
0.0 0.0 0.0 
0.0 0.0 0.0 
0.0 0.0 0.0 
0.0 0.0 0.0 
0.0 0.0 0.0 
0.0 0.0 0.0 
0.0 0.0 0.0 
0.0 0.0 0.0 
0.0 0.0 0.0 
0.0 0.0 0.0 
0.0 0.0 0.0 
0.0 0.0 0.0 
0.0 0.0 0.0 
0.0 0.0 0.0 
0.0 0.0 0.0 
0.0 0.0 0.0 
0.0 0.0 0.0 
0.0 0.0 0.0 
0.0 0.0 0.0 
0.0 0.0 0.0 
0.0 0.0 0.0 
0.0 0.0 0.0 
0.0 0.0 0.0 
0.0 0.0 0.0 
0.0 0.0 0.0 
0.0 0.0 0.0 
0.0 0.0 0.0 
0.0 0.0 0.0 
0.0 0.0 0.0 
0.0 0.0 0.0 
0.0 0.0 0.0 
0.0 0.0 0.0 
0.0 0.0 0.0 
0.0 0.0 0.0 
0.0 0.0 0.0 
0.0 0.0 0.0 
0.0 0.0 0.0 
0.0 0.0 0.0 
0.0 0.0 0.0 
0.0 0.0 0.0 
0.0 0.0 0.0 
0.0 0.0 0.0 
0.0 0.0 0.0 
0.0 0.0 0.0 
0.0 0.0 0.0 
0.0 0.0 0.0 
0.0 0.0 0.0 
0.0 0.0 0.0 
0.0 0.0 0.0 
0.0 0.0 0.0 
0.0 0.0 0.0 
0.0 0.0 0.0 
0.0 0.0 0.0 
0.0 0.0 0.0 
0.0 0.0 0.0 
0.0 0.0 0.0 
0.0 0.0 0.0 
0.0 0.0 0.0 
0.0 0.0 0.0 
0.0 0.0 0.0 
0.0 0.0 0.0 
0.0 0.0 0.0 
0.0 0.0 0.0 
0.0 0.0 0.0 
0.0 0.0 0.0 
0.0 0.0 0.0 
0.0 0.0 0.0 
0.0 0.0 0.0 
0.0 0.0 0.0 
0.0 0.0 0.0 
0.0 0.0 0.0 
0.0 0.0 0.0 
0.0 0.0 0.0 
0.0 0.0 0.0 
0.0 0.0 0.0 
0.0 0.0 0.0 
0.0 0.0 0.0 
0.0 0.0 0.0 
0.0 0.0 0.0 
0.0 0.0 0.0 
0.0 0.0 0.0 
0.0 0.0 0.0 
0.0 0.0 0.0 
0.0 0.0 0.0 
0.0 0.0 0.0 
0.0 0.0 0.0 
0.0 0.0 0.0 
0.0 0.0 0.0 
0.0 0.0 0.0 
0.0 0.0 0.0 
0.0 0.0 0.0 
0.0 0.0 0.0 
0.0 0.0 0.0 
0.0 0.0 0.0 
0.0 0.0 0.0 
0.0 0.0 0.0 
0.0 0.0 0.0 
0.0 0.0 0.0 
0.0 0.0 0.0 
0.0 0.0 0.0 
0.0 0.0 0.0 
0.0 0.0 0.0 
0.0 0.0 0.0 
0.0 0.0 0.0 
0.0 0.0 0.0 
0.0 0.0 0.0 
0.0 0.0 0.0 
0.0 0.0 0.0 
0.0 0.0 0.0 
0.0 0.0 0.0 
0.0 0.0 0.0 
0.0 0.0 0.0 
0.0 0.0 0.0 
0.0 0.0 0.0 
0.0 0.0 0.0 
0.0 0.0 0.0 
0.0 0.0 0.0 
0.0 0.0 0.0 
0.0 0.0 0.0 
0.0 0.0 0.0 
0.0 0.0 0.0 
0.0 0.0 0.0 
0.0 0.0 0.0 
0.0 0.0 0.0 
0.0 0.0 0.0 
0.0 0.0 0.0 
0.0 0.0 0.0 
0.0 0.0 0.0 
0.0 0.0 0.0 
0.0 0.0 0.0 
0.0 0.0 0.0 
0.0 0.0 0.0 
0.0 0.0 0.0 
0.0 0.0 0.0 
0.0 0.0 0.0 
0.0 0.0 0.0 
0.0 0.0 0.0 
0.0 0.0 0.0 
0.0 0.0 0.0 
0.0 0.0 0.0 
0.0 0.0 0.0 
0.0 0.0 0.0 
0.0 0.0 0.0 
0.0 0.0 0.0 
0.0 0.0 0.0 
0.0 0.0 0.0 
0.0 0.0 0.0 
0.0 0.0 0.0 
0.0 0.0 0.0 
0.0 0.0 0.0 
0.0 0.0 0.0 
0.0 0.0 0.0 
0.0 0.0 0.0 
0.0 0.0 0.0 
0.0 0.0 0.0 
0.0 0.0 0.0 
0.0 0.0 0.0 
0.0 0.0 0.0 
0.0 0.0 0.0 
0.0 0.0 0.0 
0.0 0.0 0.0 
0.0 0.0 0.0 
0.0 0.0 0.0 
0.0 0.0 0.0 
0.0 0.0 0.0 
0.0 0.0 0.0 
0.0 0.0 0.0 
0.0 0.0 0.0 
0.0 0.0 0.0 
0.0 0.0 0.0 
0.0 0.0 0.0 
0.0 0.0 0.0 
0.0 0.0 0.0 
0.0 0.0 0.0 
0.0 0.0 0.0 
0.0 0.0 0.0 
0.0 0.0 0.0 
0.0 0.0 0.0 
0.0 0.0 0.0 
0.0 0.0 0.0 
0.0 0.0 0.0 
0.0 0.0 0.0 
0.0 0.0 0.0 
0.0 0.0 0.0 
0.0 0.0 0.0 
0.0 0.0 0.0 
0.0 0.0 0.0 
0.0 0.0 0.0 
0.0 0.0 0.0 
0.0 0.0 0.0 
0.0 0.0 0.0 
0.0 0.0 0.0 
0.0 0.0 0.0 
0.0 0.0 0.0 
0.0 0.0 0.0 
0.0 0.0 0.0 
0.0 0.0 0.0 
0.0 0.0 0.0 
0.0 0.0 0.0 
0.0 0.0 0.0 
0.0 0.0 0.0 
0.0 0.0 0.0 
0.0 0.0 0.0 
0.0 0.0 0.0 
0.0 0.0 0.0 
0.0 0.0 0.0 
0.0 0.0 0.0 
0.0 0.0 0.0 
0.0 0.0 0.0 
0.0 0.0 0.0 
0.0 0.0 0.0 
0.0 0.0 0.0 
0.0 0.0 0.0 
0.0 0.0 0.0 
0.0 0.0 0.0 
0.0 0.0 0.0 
0.0 0.0 0.0 
0.0 0.0 0.0 
0.0 0.0 0.0 
0.0 0.0 0.0 
0.0 0.0 0.0 
0.0 0.0 0.0 
0.0 0.0 0.0 
0.0 0.0 0.0 
0.0 0.0 0.0 
0.0 0.0 0.0 
0.0 0.0 0.0 
0.0 0.0 0.0 
0.0 0.0 0.0 
0.0 0.0 0.0 
0.0 0.0 0.0 
0.0 0.0 0.0 
0.0 0.0 0.0 
0.0 0.0 0.0 
0.0 0.0 0.0 
0.0 0.0 0.0 
0.0 0.0 0.0 
0.0 0.0 0.0 
0.0 0.0 0.0 
0.0 0.0 0.0 
0.0 0.0 0.0 
0.0 0.0 0.0 
0.0 0.0 0.0 
0.0 0.0 0.0 
0.0 0.0 0.0 
0.0 0.0 0.0 
0.0 0.0 0.0 
0.0 0.0 0.0 
0.0 0.0 0.0 
0.0 0.0 0.0 
0.0 0.0 0.0 
0.0 0.0 0.0 
0.0 0.0 0.0 
0.0 0.0 0.0 
0.0 0.0 0.0 
0.0 0.0 0.0 
0.0 0.0 0.0 
0.0 0.0 0.0 
0.0 0.0 0.0 
0.0 0.0 0.0 
0.0 0.0 0.0 
0.0 0.0 0.0 
0.0 0.0 0.0 
0.0 0.0 0.0 
0.0 0.0 0.0 
0.0 0.0 0.0 
0.0 0.0 0.0 
0.0 0.0 0.0 
0.0 0.0 0.0 
0.0 0.0 0.0 
0.0 0.0 0.0 
0.0 0.0 0.0 
0.0 0.0 0.0 
0.0 0.0 0.0 
0.0 0.0 0.0 
0.0 0.0 0.0 
0.0 0.0 0.0 
0.0 0.0 0.0 
0.0 0.0 0.0 
0.0 0.0 0.0 
0.0 0.0 0.0 
0.0 0.0 0.0 
0.0 0.0 0.0 
0.0 0.0 0.0 
0.0 0.0 0.0 
0.0 0.0 0.0 
0.0 0.0 0.0 
0.0 0.0 0.0 
0.0 0.0 0.0 
0.0 0.0 0.0 
0.0 0.0 0.0 
0.0 0.0 0.0 
0.0 0.0 0.0 
0.0 0.0 0.0 
0.0 0.0 0.0 
0.0 0.0 0.0 
0.0 0.0 0.0 
0.0 0.0 0.0 
0.0 0.0 0.0 
0.0 0.0 0.0 
0.0 0.0 0.0 
0.0 0.0 0.0 
0.0 0.0 0.0 
0.0 0.0 0.0 
0.0 0.0 0.0 
0.0 0.0 0.0 
0.0 0.0 0.0 
0.0 0.0 0.0 
0.0 0.0 0.0 
0.0 0.0 0.0 
0.0 0.0 0.0 
0.0 0.0 0.0 
0.0 0.0 0.0 
0.0 0.0 0.0 
0.0 0.0 0.0 
0.0 0.0 0.0 
0.0 0.0 0.0 
0.0 0.0 0.0 
0.0 0.0 0.0 
0.0 0.0 0.0 
0.0 0.0 0.0 
0.0 0.0 0.0 
0.0 0.0 0.0 
0.0 0.0 0.0 
0.0 0.0 0.0 
0.0 0.0 0.0 
0.0 0.0 0.0 
0.0 0.0 0.0 
0.0 0.0 0.0 
0.0 0.0 0.0 
0.0 0.0 0.0 
0.0 0.0 0.0 
0.0 0.0 0.0 
0.0 0.0 0.0 
0.0 0.0 0.0 
0.0 0.0 0.0 
0.0 0.0 0.0 
0.0 0.0 0.0 
0.0 0.0 0.0 
0.0 0.0 0.0 
0.0 0.0 0.0 
0.0 0.0 0.0 
0.0 0.0 0.0 
0.0 0.0 0.0 
0.0 0.0 0.0 
0.0 0.0 0.0 
0.0 0.0 0.0 
0.0 0.0 0.0 
0.0 0.0 0.0 
0.0 0.0 0.0 
0.0 0.0 0.0 
0.0 0.0 0.0 
0.0 0.0 0.0 
0.0 0.0 0.0 
0.0 0.0 0.0 
0.0 0.0 0.0 
0.0 0.0 0.0 
0.0 0.0 0.0 
0.0 0.0 0.0 
0.0 0.0 0.0 
0.0 0.0 0.0 
0.0 0.0 0.0 
0.0 0.0 0.0 
0.0 0.0 0.0 
0.0 0.0 0.0 
0.0 0.0 0.0 
0.0 0.0 0.0 
0.0 0.0 0.0 
0.0 0.0 0.0 
0.0 0.0 0.0 
0.0 0.0 0.0 
0.0 0.0 0.0 
0.0 0.0 0.0 
0.0 0.0 0.0 
0.0 0.0 0.0 
0.0 0.0 0.0 
0.0 0.0 0.0 
0.0 0.0 0.0 
0.0 0.0 0.0 
0.0 0.0 0.0 
0.0 0.0 0.0 
0.0 0.0 0.0 
0.0 0.0 0.0 
0.0 0.0 0.0 
0.0 0.0 0.0 
0.0 0.0 0.0 
0.0 0.0 0.0 
0.0 0.0 0.0 
0.0 0.0 0.0 
0.0 0.0 0.0 
0.0 0.0 0.0 
0.0 0.0 0.0 
0.0 0.0 0.0 
0.0 0.0 0.0 
0.0 0.0 0.0 
0.0 0.0 0.0 
0.0 0.0 0.0 
0.0 0.0 0.0 
0.0 0.0 0.0 
0.0 0.0 0.0 
0.0 0.0 0.0 
0.0 0.0 0.0 
0.0 0.0 0.0 
0.0 0.0 0.0 
0.0 0.0 0.0 
0.0 0.0 0.0 
0.0 0.0 0.0 
0.0 0.0 0.0 
0.0 0.0 0.0 
0.0 0.0 0.0 
0.0 0.0 0.0 
0.0 0.0 0.0 
0.0 0.0 0.0 
0.0 0.0 0.0 
0.0 0.0 0.0 
0.0 0.0 0.0 
0.0 0.0 0.0 
0.0 0.0 0.0 
0.0 0.0 0.0 
0.0 0.0 0.0 
0.0 0.0 0.0 
0.0 0.0 0.0 
0.0 0.0 0.0 
0.0 0.0 0.0 
0.0 0.0 0.0 
0.0 0.0 0.0 
0.0 0.0 0.0 
0.0 0.0 0.0 
0.0 0.0 0.0 
0.0 0.0 0.0 
0.0 0.0 0.0 
0.0 0.0 0.0 
0.0 0.0 0.0 
0.0 0.0 0.0 
0.0 0.0 0.0 
0.0 0.0 0.0 
0.0 0.0 0.0 
0.0 0.0 0.0 
0.0 0.0 0.0 
0.0 0.0 0.0 
0.0 0.0 0.0 
0.0 0.0 0.0 
0.0 0.0 0.0 
0.0 0.0 0.0 
0.0 0.0 0.0 
0.0 0.0 0.0 
0.0 0.0 0.0 
0.0 0.0 0.0 
0.0 0.0 0.0 
0.0 0.0 0.0 
0.0 0.0 0.0 
0.0 0.0 0.0 
0.0 0.0 0.0 
0.0 0.0 0.0 
0.0 0.0 0.0 
0.0 0.0 0.0 
0.0 0.0 0.0 
0.0 0.0 0.0 
0.0 0.0 0.0 
0.0 0.0 0.0 
0.0 0.0 0.0 
0.0 0.0 0.0 
0.0 0.0 0.0 
0.0 0.0 0.0 
0.0 0.0 0.0 
0.0 0.0 0.0 
0.0 0.0 0.0 
0.0 0.0 0.0 
0.0 0.0 0.0 
0.0 0.0 0.0 
0.0 0.0 0.0 
0.0 0.0 0.0 
0.0 0.0 0.0 
0.0 0.0 0.0 
0.0 0.0 0.0 
0.0 0.0 0.0 
0.0 0.0 0.0 
0.0 0.0 0.0 
0.0 0.0 0.0 
0.0 0.0 0.0 
0.0 0.0 0.0 
0.0 0.0 0.0 
0.0 0.0 0.0 
0.0 0.0 0.0 
0.0 0.0 0.0 
0.0 0.0 0.0 
0.0 0.0 0.0 
0.0 0.0 0.0 
0.0 0.0 0.0 
0.0 0.0 0.0 
0.0 0.0 0.0 
0.0 0.0 0.0 
0.0 0.0 0.0 
0.0 0.0 0.0 
0.0 0.0 0.0 
0.0 0.0 0.0 
0.0 0.0 0.0 
0.0 0.0 0.0 
0.0 0.0 0.0 
0.0 0.0 0.0 
0.0 0.0 0.0 
0.0 0.0 0.0 
0.0 0.0 0.0 
0.0 0.0 0.0 
0.0 0.0 0.0 
0.0 0.0 0.0 
0.0 0.0 0.0 
0.0 0.0 0.0 
0.0 0.0 0.0 
0.0 0.0 0.0 
0.0 0.0 0.0 
0.0 0.0 0.0 
0.0 0.0 0.0 
0.0 0.0 0.0 
0.0 0.0 0.0 
0.0 0.0 0.0 
0.0 0.0 0.0 
0.0 0.0 0.0 
0.0 0.0 0.0 
0.0 0.0 0.0 
0.0 0.0 0.0 
0.0 0.0 0.0 
0.0 0.0 0.0 
0.0 0.0 0.0 
0.0 0.0 0.0 
0.0 0.0 0.0 
0.0 0.0 0.0 
0.0 0.0 0.0 
0.0 0.0 0.0 

VECTORS node_bounda_dof_materi_velocity_y float
0.0 0.0 0.0 
0.0 0.0 0.0 
0.0 1.000000000000e+00 0.0 
0.0 1.000000000000e+00 0.0 
0.0 0.0 0.0 
0.0 0.0 0.0 
0.0 0.0 0.0 
0.0 0.0 0.0 
0.0 0.0 0.0 
0.0 0.0 0.0 
0.0 0.0 0.0 
0.0 0.0 0.0 
0.0 0.0 0.0 
0.0 0.0 0.0 
0.0 0.0 0.0 
0.0 0.0 0.0 
0.0 0.0 0.0 
0.0 0.0 0.0 
0.0 0.0 0.0 
0.0 0.0 0.0 
0.0 0.0 0.0 
0.0 0.0 0.0 
0.0 0.0 0.0 
0.0 1.000000000000e+00 0.0 
0.0 1.000000000000e+00 0.0 
0.0 1.000000000000e+00 0.0 
0.0 1.000000000000e+00 0.0 
0.0 1.000000000000e+00 0.0 
0.0 1.000000000000e+00 0.0 
0.0 1.000000000000e+00 0.0 
0.0 1.000000000000e+00 0.0 
0.0 1.000000000000e+00 0.0 
0.0 1.000000000000e+00 0.0 
0.0 1.000000000000e+00 0.0 
0.0 1.000000000000e+00 0.0 
0.0 1.000000000000e+00 0.0 
0.0 1.000000000000e+00 0.0 
0.0 1.000000000000e+00 0.0 
0.0 1.000000000000e+00 0.0 
0.0 1.000000000000e+00 0.0 
0.0 1.000000000000e+00 0.0 
0.0 1.000000000000e+00 0.0 
0.0 1.000000000000e+00 0.0 
0.0 1.000000000000e+00 0.0 
0.0 1.000000000000e+00 0.0 
0.0 1.000000000000e+00 0.0 
0.0 1.000000000000e+00 0.0 
0.0 1.000000000000e+00 0.0 
0.0 1.000000000000e+00 0.0 
0.0 1.000000000000e+00 0.0 
0.0 1.000000000000e+00 0.0 
0.0 1.000000000000e+00 0.0 
0.0 1.000000000000e+00 0.0 
0.0 1.000000000000e+00 0.0 
0.0 1.000000000000e+00 0.0 
0.0 1.000000000000e+00 0.0 
0.0 1.000000000000e+00 0.0 
0.0 1.000000000000e+00 0.0 
0.0 1.000000000000e+00 0.0 
0.0 1.000000000000e+00 0.0 
0.0 1.000000000000e+00 0.0 
0.0 1.000000000000e+00 0.0 
0.0 1.000000000000e+00 0.0 
0.0 1.000000000000e+00 0.0 
0.0 1.000000000000e+00 0.0 
0.0 1.000000000000e+00 0.0 
0.0 1.000000000000e+00 0.0 
0.0 1.000000000000e+00 0.0 
0.0 1.000000000000e+00 0.0 
0.0 1.000000000000e+00 0.0 
0.0 1.000000000000e+00 0.0 
0.0 1.000000000000e+00 0.0 
0.0 0.0 0.0 
0.0 0.0 0.0 
0.0 0.0 0.0 
0.0 0.0 0.0 
0.0 0.0 0.0 
0.0 0.0 0.0 
0.0 0.0 0.0 
0.0 0.0 0.0 
0.0 0.0 0.0 
0.0 0.0 0.0 
0.0 0.0 0.0 
0.0 0.0 0.0 
0.0 0.0 0.0 
0.0 0.0 0.0 
0.0 0.0 0.0 
0.0 0.0 0.0 
0.0 0.0 0.0 
0.0 0.0 0.0 
0.0 0.0 0.0 
0.0 0.0 0.0 
0.0 0.0 0.0 
0.0 0.0 0.0 
0.0 0.0 0.0 
0.0 0.0 0.0 
0.0 0.0 0.0 
0.0 0.0 0.0 
0.0 0.0 0.0 
0.0 0.0 0.0 
0.0 0.0 0.0 
0.0 0.0 0.0 
0.0 0.0 0.0 
0.0 0.0 0.0 
0.0 0.0 0.0 
0.0 0.0 0.0 
0.0 0.0 0.0 
0.0 0.0 0.0 
0.0 0.0 0.0 
0.0 0.0 0.0 
0.0 0.0 0.0 
0.0 0.0 0.0 
0.0 0.0 0.0 
0.0 0.0 0.0 
0.0 0.0 0.0 
0.0 0.0 0.0 
0.0 0.0 0.0 
0.0 0.0 0.0 
0.0 0.0 0.0 
0.0 0.0 0.0 
0.0 0.0 0.0 
0.0 0.0 0.0 
0.0 0.0 0.0 
0.0 0.0 0.0 
0.0 0.0 0.0 
0.0 0.0 0.0 
0.0 0.0 0.0 
0.0 0.0 0.0 
0.0 0.0 0.0 
0.0 0.0 0.0 
0.0 0.0 0.0 
0.0 0.0 0.0 
0.0 0.0 0.0 
0.0 0.0 0.0 
0.0 0.0 0.0 
0.0 0.0 0.0 
0.0 0.0 0.0 
0.0 0.0 0.0 
0.0 0.0 0.0 
0.0 0.0 0.0 
0.0 0.0 0.0 
0.0 0.0 0.0 
0.0 0.0 0.0 
0.0 0.0 0.0 
0.0 0.0 0.0 
0.0 0.0 0.0 
0.0 0.0 0.0 
0.0 0.0 0.0 
0.0 0.0 0.0 
0.0 0.0 0.0 
0.0 0.0 0.0 
0.0 0.0 0.0 
0.0 0.0 0.0 
0.0 0.0 0.0 
0.0 0.0 0.0 
0.0 0.0 0.0 
0.0 0.0 0.0 
0.0 0.0 0.0 
0.0 0.0 0.0 
0.0 0.0 0.0 
0.0 0.0 0.0 
0.0 0.0 0.0 
0.0 0.0 0.0 
0.0 0.0 0.0 
0.0 0.0 0.0 
0.0 0.0 0.0 
0.0 0.0 0.0 
0.0 0.0 0.0 
0.0 0.0 0.0 
0.0 0.0 0.0 
0.0 0.0 0.0 
0.0 0.0 0.0 
0.0 0.0 0.0 
0.0 0.0 0.0 
0.0 0.0 0.0 
0.0 0.0 0.0 
0.0 0.0 0.0 
0.0 0.0 0.0 
0.0 0.0 0.0 
0.0 0.0 0.0 
0.0 0.0 0.0 
0.0 0.0 0.0 
0.0 0.0 0.0 
0.0 0.0 0.0 
0.0 0.0 0.0 
0.0 0.0 0.0 
0.0 0.0 0.0 
0.0 0.0 0.0 
0.0 0.0 0.0 
0.0 0.0 0.0 
0.0 0.0 0.0 
0.0 0.0 0.0 
0.0 0.0 0.0 
0.0 0.0 0.0 
0.0 0.0 0.0 
0.0 0.0 0.0 
0.0 0.0 0.0 
0.0 0.0 0.0 
0.0 0.0 0.0 
0.0 0.0 0.0 
0.0 0.0 0.0 
0.0 0.0 0.0 
0.0 0.0 0.0 
0.0 0.0 0.0 
0.0 0.0 0.0 
0.0 0.0 0.0 
0.0 0.0 0.0 
0.0 0.0 0.0 
0.0 0.0 0.0 
0.0 0.0 0.0 
0.0 0.0 0.0 
0.0 0.0 0.0 
0.0 0.0 0.0 
0.0 0.0 0.0 
0.0 0.0 0.0 
0.0 0.0 0.0 
0.0 0.0 0.0 
0.0 0.0 0.0 
0.0 0.0 0.0 
0.0 0.0 0.0 
0.0 0.0 0.0 
0.0 0.0 0.0 
0.0 0.0 0.0 
0.0 0.0 0.0 
0.0 0.0 0.0 
0.0 0.0 0.0 
0.0 0.0 0.0 
0.0 0.0 0.0 
0.0 0.0 0.0 
0.0 0.0 0.0 
0.0 0.0 0.0 
0.0 0.0 0.0 
0.0 0.0 0.0 
0.0 0.0 0.0 
0.0 0.0 0.0 
0.0 0.0 0.0 
0.0 0.0 0.0 
0.0 0.0 0.0 
0.0 0.0 0.0 
0.0 0.0 0.0 
0.0 0.0 0.0 
0.0 0.0 0.0 
0.0 0.0 0.0 
0.0 0.0 0.0 
0.0 0.0 0.0 
0.0 0.0 0.0 
0.0 0.0 0.0 
0.0 0.0 0.0 
0.0 0.0 0.0 
0.0 0.0 0.0 
0.0 0.0 0.0 
0.0 0.0 0.0 
0.0 0.0 0.0 
0.0 0.0 0.0 
0.0 0.0 0.0 
0.0 0.0 0.0 
0.0 0.0 0.0 
0.0 0.0 0.0 
0.0 0.0 0.0 
0.0 0.0 0.0 
0.0 0.0 0.0 
0.0 0.0 0.0 
0.0 0.0 0.0 
0.0 0.0 0.0 
0.0 0.0 0.0 
0.0 0.0 0.0 
0.0 0.0 0.0 
0.0 0.0 0.0 
0.0 0.0 0.0 
0.0 0.0 0.0 
0.0 0.0 0.0 
0.0 0.0 0.0 
0.0 0.0 0.0 
0.0 0.0 0.0 
0.0 0.0 0.0 
0.0 0.0 0.0 
0.0 0.0 0.0 
0.0 0.0 0.0 
0.0 0.0 0.0 
0.0 0.0 0.0 
0.0 0.0 0.0 
0.0 0.0 0.0 
0.0 0.0 0.0 
0.0 0.0 0.0 
0.0 0.0 0.0 
0.0 0.0 0.0 
0.0 0.0 0.0 
0.0 0.0 0.0 
0.0 0.0 0.0 
0.0 0.0 0.0 
0.0 0.0 0.0 
0.0 0.0 0.0 
0.0 0.0 0.0 
0.0 0.0 0.0 
0.0 0.0 0.0 
0.0 0.0 0.0 
0.0 0.0 0.0 
0.0 0.0 0.0 
0.0 0.0 0.0 
0.0 0.0 0.0 
0.0 0.0 0.0 
0.0 0.0 0.0 
0.0 0.0 0.0 
0.0 0.0 0.0 
0.0 0.0 0.0 
0.0 0.0 0.0 
0.0 0.0 0.0 
0.0 0.0 0.0 
0.0 0.0 0.0 
0.0 0.0 0.0 
0.0 0.0 0.0 
0.0 0.0 0.0 
0.0 0.0 0.0 
0.0 0.0 0.0 
0.0 0.0 0.0 
0.0 0.0 0.0 
0.0 0.0 0.0 
0.0 0.0 0.0 
0.0 0.0 0.0 
0.0 0.0 0.0 
0.0 0.0 0.0 
0.0 0.0 0.0 
0.0 0.0 0.0 
0.0 0.0 0.0 
0.0 0.0 0.0 
0.0 0.0 0.0 
0.0 0.0 0.0 
0.0 0.0 0.0 
0.0 0.0 0.0 
0.0 0.0 0.0 
0.0 0.0 0.0 
0.0 0.0 0.0 
0.0 0.0 0.0 
0.0 0.0 0.0 
0.0 0.0 0.0 
0.0 0.0 0.0 
0.0 0.0 0.0 
0.0 0.0 0.0 
0.0 0.0 0.0 
0.0 0.0 0.0 
0.0 0.0 0.0 
0.0 0.0 0.0 
0.0 0.0 0.0 
0.0 0.0 0.0 
0.0 0.0 0.0 
0.0 0.0 0.0 
0.0 0.0 0.0 
0.0 0.0 0.0 
0.0 0.0 0.0 
0.0 0.0 0.0 
0.0 0.0 0.0 
0.0 0.0 0.0 
0.0 0.0 0.0 
0.0 0.0 0.0 
0.0 0.0 0.0 
0.0 0.0 0.0 
0.0 0.0 0.0 
0.0 0.0 0.0 
0.0 0.0 0.0 
0.0 0.0 0.0 
0.0 0.0 0.0 
0.0 0.0 0.0 
0.0 0.0 0.0 
0.0 0.0 0.0 
0.0 0.0 0.0 
0.0 0.0 0.0 
0.0 0.0 0.0 
0.0 0.0 0.0 
0.0 0.0 0.0 
0.0 0.0 0.0 
0.0 0.0 0.0 
0.0 0.0 0.0 
0.0 0.0 0.0 
0.0 0.0 0.0 
0.0 0.0 0.0 
0.0 0.0 0.0 
0.0 0.0 0.0 
0.0 0.0 0.0 
0.0 0.0 0.0 
0.0 0.0 0.0 
0.0 0.0 0.0 
0.0 0.0 0.0 
0.0 0.0 0.0 
0.0 0.0 0.0 
0.0 0.0 0.0 
0.0 0.0 0.0 
0.0 0.0 0.0 
0.0 0.0 0.0 
0.0 0.0 0.0 
0.0 0.0 0.0 
0.0 0.0 0.0 
0.0 0.0 0.0 
0.0 0.0 0.0 
0.0 0.0 0.0 
0.0 0.0 0.0 
0.0 0.0 0.0 
0.0 0.0 0.0 
0.0 0.0 0.0 
0.0 0.0 0.0 
0.0 0.0 0.0 
0.0 0.0 0.0 
0.0 0.0 0.0 
0.0 0.0 0.0 
0.0 0.0 0.0 
0.0 0.0 0.0 
0.0 0.0 0.0 
0.0 0.0 0.0 
0.0 0.0 0.0 
0.0 0.0 0.0 
0.0 0.0 0.0 
0.0 0.0 0.0 
0.0 0.0 0.0 
0.0 0.0 0.0 
0.0 0.0 0.0 
0.0 0.0 0.0 
0.0 0.0 0.0 
0.0 0.0 0.0 
0.0 0.0 0.0 
0.0 0.0 0.0 
0.0 0.0 0.0 
0.0 0.0 0.0 
0.0 0.0 0.0 
0.0 0.0 0.0 
0.0 0.0 0.0 
0.0 0.0 0.0 
0.0 0.0 0.0 
0.0 0.0 0.0 
0.0 0.0 0.0 
0.0 0.0 0.0 
0.0 0.0 0.0 
0.0 0.0 0.0 
0.0 0.0 0.0 
0.0 0.0 0.0 
0.0 0.0 0.0 
0.0 0.0 0.0 
0.0 0.0 0.0 
0.0 0.0 0.0 
0.0 0.0 0.0 
0.0 0.0 0.0 
0.0 0.0 0.0 
0.0 0.0 0.0 
0.0 0.0 0.0 
0.0 0.0 0.0 
0.0 0.0 0.0 
0.0 0.0 0.0 
0.0 0.0 0.0 
0.0 0.0 0.0 
0.0 0.0 0.0 
0.0 0.0 0.0 
0.0 0.0 0.0 
0.0 0.0 0.0 
0.0 0.0 0.0 
0.0 0.0 0.0 
0.0 0.0 0.0 
0.0 0.0 0.0 
0.0 0.0 0.0 
0.0 0.0 0.0 
0.0 0.0 0.0 
0.0 0.0 0.0 
0.0 0.0 0.0 
0.0 0.0 0.0 
0.0 0.0 0.0 
0.0 0.0 0.0 
0.0 0.0 0.0 
0.0 0.0 0.0 
0.0 0.0 0.0 
0.0 0.0 0.0 
0.0 0.0 0.0 
0.0 0.0 0.0 
0.0 0.0 0.0 
0.0 0.0 0.0 
0.0 0.0 0.0 
0.0 0.0 0.0 
0.0 0.0 0.0 
0.0 0.0 0.0 
0.0 0.0 0.0 
0.0 0.0 0.0 
0.0 0.0 0.0 
0.0 0.0 0.0 
0.0 0.0 0.0 
0.0 0.0 0.0 
0.0 0.0 0.0 
0.0 0.0 0.0 
0.0 0.0 0.0 
0.0 0.0 0.0 
0.0 0.0 0.0 
0.0 0.0 0.0 
0.0 0.0 0.0 
0.0 0.0 0.0 
0.0 0.0 0.0 
0.0 0.0 0.0 
0.0 0.0 0.0 
0.0 0.0 0.0 
0.0 0.0 0.0 
0.0 0.0 0.0 
0.0 0.0 0.0 
0.0 0.0 0.0 
0.0 0.0 0.0 
0.0 0.0 0.0 
0.0 0.0 0.0 
0.0 0.0 0.0 
0.0 0.0 0.0 
0.0 0.0 0.0 
0.0 0.0 0.0 
0.0 0.0 0.0 
0.0 0.0 0.0 
0.0 0.0 0.0 
0.0 0.0 0.0 
0.0 0.0 0.0 
0.0 0.0 0.0 
0.0 0.0 0.0 
0.0 0.0 0.0 
0.0 0.0 0.0 
0.0 0.0 0.0 
0.0 0.0 0.0 
0.0 0.0 0.0 
0.0 0.0 0.0 
0.0 0.0 0.0 
0.0 0.0 0.0 
0.0 0.0 0.0 
0.0 0.0 0.0 
0.0 0.0 0.0 
0.0 0.0 0.0 
0.0 0.0 0.0 
0.0 0.0 0.0 
0.0 0.0 0.0 
0.0 0.0 0.0 
0.0 0.0 0.0 
0.0 0.0 0.0 
0.0 0.0 0.0 
0.0 0.0 0.0 
0.0 0.0 0.0 
0.0 0.0 0.0 
0.0 0.0 0.0 
0.0 0.0 0.0 
0.0 0.0 0.0 
0.0 0.0 0.0 
0.0 0.0 0.0 
0.0 0.0 0.0 
0.0 0.0 0.0 
0.0 0.0 0.0 
0.0 0.0 0.0 
0.0 0.0 0.0 
0.0 0.0 0.0 
0.0 0.0 0.0 
0.0 0.0 0.0 
0.0 0.0 0.0 
0.0 0.0 0.0 
0.0 0.0 0.0 
0.0 0.0 0.0 
0.0 0.0 0.0 
0.0 0.0 0.0 
0.0 0.0 0.0 
0.0 0.0 0.0 
0.0 0.0 0.0 
0.0 0.0 0.0 
0.0 0.0 0.0 
0.0 0.0 0.0 
0.0 0.0 0.0 
0.0 0.0 0.0 
0.0 0.0 0.0 
0.0 0.0 0.0 
0.0 0.0 0.0 
0.0 0.0 0.0 
0.0 0.0 0.0 
0.0 0.0 0.0 
0.0 0.0 0.0 
0.0 0.0 0.0 
0.0 0.0 0.0 
0.0 0.0 0.0 
0.0 0.0 0.0 
0.0 0.0 0.0 
0.0 0.0 0.0 
0.0 0.0 0.0 
0.0 0.0 0.0 
0.0 0.0 0.0 
0.0 0.0 0.0 
0.0 0.0 0.0 
0.0 0.0 0.0 
0.0 0.0 0.0 
0.0 0.0 0.0 
0.0 0.0 0.0 
0.0 0.0 0.0 
0.0 0.0 0.0 
0.0 0.0 0.0 
0.0 0.0 0.0 
0.0 0.0 0.0 
0.0 0.0 0.0 
0.0 0.0 0.0 
0.0 0.0 0.0 
0.0 0.0 0.0 
0.0 0.0 0.0 
0.0 0.0 0.0 
0.0 0.0 0.0 
0.0 0.0 0.0 
0.0 0.0 0.0 
0.0 0.0 0.0 
0.0 0.0 0.0 
0.0 0.0 0.0 
0.0 0.0 0.0 
0.0 0.0 0.0 
0.0 0.0 0.0 
0.0 0.0 0.0 
0.0 0.0 0.0 
0.0 0.0 0.0 
0.0 0.0 0.0 
0.0 0.0 0.0 
0.0 0.0 0.0 
0.0 0.0 0.0 
0.0 0.0 0.0 
0.0 0.0 0.0 
0.0 0.0 0.0 
0.0 0.0 0.0 
0.0 0.0 0.0 
0.0 0.0 0.0 
0.0 0.0 0.0 
0.0 0.0 0.0 
0.0 0.0 0.0 
0.0 0.0 0.0 
0.0 0.0 0.0 
0.0 0.0 0.0 
0.0 0.0 0.0 
0.0 0.0 0.0 
0.0 0.0 0.0 
0.0 0.0 0.0 
0.0 0.0 0.0 
0.0 0.0 0.0 
0.0 0.0 0.0 
0.0 0.0 0.0 
0.0 0.0 0.0 
0.0 0.0 0.0 
0.0 0.0 0.0 
0.0 0.0 0.0 
0.0 0.0 0.0 
0.0 0.0 0.0 
0.0 0.0 0.0 
0.0 0.0 0.0 
0.0 0.0 0.0 
0.0 0.0 0.0 
0.0 0.0 0.0 
0.0 0.0 0.0 
0.0 0.0 0.0 
0.0 0.0 0.0 
0.0 0.0 0.0 
0.0 0.0 0.0 
0.0 0.0 0.0 
0.0 0.0 0.0 
0.0 0.0 0.0 
0.0 0.0 0.0 
0.0 0.0 0.0 
0.0 0.0 0.0 
0.0 0.0 0.0 
0.0 0.0 0.0 
0.0 0.0 0.0 
0.0 0.0 0.0 
0.0 0.0 0.0 
0.0 0.0 0.0 
0.0 0.0 0.0 
0.0 0.0 0.0 
0.0 0.0 0.0 
0.0 0.0 0.0 
0.0 0.0 0.0 
0.0 0.0 0.0 
0.0 0.0 0.0 
0.0 0.0 0.0 
0.0 0.0 0.0 
0.0 0.0 0.0 
0.0 0.0 0.0 
0.0 0.0 0.0 
0.0 0.0 0.0 
0.0 0.0 0.0 
0.0 0.0 0.0 
0.0 0.0 0.0 
0.0 0.0 0.0 
0.0 0.0 0.0 
0.0 0.0 0.0 
0.0 0.0 0.0 
0.0 0.0 0.0 
0.0 0.0 0.0 
0.0 0.0 0.0 
0.0 0.0 0.0 
0.0 0.0 0.0 
0.0 0.0 0.0 
0.0 0.0 0.0 
0.0 0.0 0.0 
0.0 0.0 0.0 
0.0 0.0 0.0 
0.0 0.0 0.0 
0.0 0.0 0.0 
0.0 0.0 0.0 
0.0 0.0 0.0 
0.0 0.0 0.0 
0.0 0.0 0.0 
0.0 0.0 0.0 
0.0 0.0 0.0 
0.0 0.0 0.0 
0.0 0.0 0.0 
0.0 0.0 0.0 
0.0 0.0 0.0 
0.0 0.0 0.0 
0.0 0.0 0.0 
0.0 0.0 0.0 
0.0 0.0 0.0 
0.0 0.0 0.0 
0.0 0.0 0.0 
0.0 0.0 0.0 
0.0 0.0 0.0 
0.0 0.0 0.0 
0.0 0.0 0.0 
0.0 0.0 0.0 
0.0 0.0 0.0 
0.0 0.0 0.0 
0.0 0.0 0.0 
0.0 0.0 0.0 
0.0 0.0 0.0 
0.0 0.0 0.0 
0.0 0.0 0.0 
0.0 0.0 0.0 
0.0 0.0 0.0 
0.0 0.0 0.0 
0.0 0.0 0.0 
0.0 0.0 0.0 
0.0 0.0 0.0 
0.0 0.0 0.0 
0.0 0.0 0.0 
0.0 0.0 0.0 
0.0 0.0 0.0 
0.0 0.0 0.0 
0.0 0.0 0.0 
0.0 0.0 0.0 
0.0 0.0 0.0 
0.0 0.0 0.0 
0.0 0.0 0.0 
0.0 0.0 0.0 
0.0 0.0 0.0 
0.0 0.0 0.0 
0.0 0.0 0.0 
0.0 0.0 0.0 
0.0 0.0 0.0 
0.0 0.0 0.0 
0.0 0.0 0.0 
0.0 0.0 0.0 
0.0 0.0 0.0 
0.0 0.0 0.0 
0.0 0.0 0.0 
0.0 0.0 0.0 
0.0 0.0 0.0 
0.0 0.0 0.0 
0.0 0.0 0.0 
0.0 0.0 0.0 
0.0 0.0 0.0 
0.0 0.0 0.0 
0.0 0.0 0.0 
0.0 0.0 0.0 
0.0 0.0 0.0 
0.0 0.0 0.0 
0.0 0.0 0.0 
0.0 0.0 0.0 
0.0 0.0 0.0 
0.0 0.0 0.0 
0.0 0.0 0.0 
0.0 0.0 0.0 
0.0 0.0 0.0 
0.0 0.0 0.0 
0.0 0.0 0.0 
0.0 0.0 0.0 
0.0 0.0 0.0 
0.0 0.0 0.0 
0.0 0.0 0.0 
0.0 0.0 0.0 
0.0 0.0 0.0 
0.0 0.0 0.0 
0.0 0.0 0.0 
0.0 0.0 0.0 
0.0 0.0 0.0 
0.0 0.0 0.0 
0.0 0.0 0.0 
0.0 0.0 0.0 
0.0 0.0 0.0 
0.0 0.0 0.0 
0.0 0.0 0.0 
0.0 0.0 0.0 
0.0 0.0 0.0 
0.0 0.0 0.0 
0.0 0.0 0.0 
0.0 0.0 0.0 
0.0 0.0 0.0 
0.0 0.0 0.0 
0.0 0.0 0.0 
0.0 0.0 0.0 
0.0 0.0 0.0 
0.0 0.0 0.0 
0.0 0.0 0.0 
0.0 0.0 0.0 
0.0 0.0 0.0 
0.0 0.0 0.0 
0.0 0.0 0.0 
0.0 0.0 0.0 
0.0 0.0 0.0 
0.0 0.0 0.0 
0.0 0.0 0.0 
0.0 0.0 0.0 
0.0 0.0 0.0 
0.0 0.0 0.0 
0.0 0.0 0.0 
0.0 0.0 0.0 
0.0 0.0 0.0 
0.0 0.0 0.0 
0.0 0.0 0.0 
0.0 0.0 0.0 
0.0 0.0 0.0 
0.0 0.0 0.0 
0.0 0.0 0.0 
0.0 0.0 0.0 
0.0 0.0 0.0 
0.0 0.0 0.0 
0.0 0.0 0.0 
0.0 0.0 0.0 
0.0 0.0 0.0 
0.0 0.0 0.0 
0.0 0.0 0.0 
0.0 0.0 0.0 
0.0 0.0 0.0 
0.0 0.0 0.0 
0.0 0.0 0.0 
0.0 0.0 0.0 
0.0 0.0 0.0 
0.0 0.0 0.0 
0.0 0.0 0.0 
0.0 0.0 0.0 
0.0 0.0 0.0 
0.0 0.0 0.0 
0.0 0.0 0.0 
0.0 0.0 0.0 
0.0 0.0 0.0 
0.0 0.0 0.0 
0.0 0.0 0.0 
0.0 0.0 0.0 
0.0 0.0 0.0 
0.0 0.0 0.0 
0.0 0.0 0.0 
0.0 0.0 0.0 
0.0 0.0 0.0 
0.0 0.0 0.0 
0.0 0.0 0.0 
0.0 0.0 0.0 
0.0 0.0 0.0 
0.0 0.0 0.0 
0.0 0.0 0.0 
0.0 0.0 0.0 
0.0 0.0 0.0 
0.0 0.0 0.0 
0.0 0.0 0.0 
0.0 0.0 0.0 
0.0 0.0 0.0 
0.0 0.0 0.0 
0.0 0.0 0.0 
0.0 0.0 0.0 
0.0 0.0 0.0 
0.0 0.0 0.0 
0.0 0.0 0.0 
0.0 0.0 0.0 
0.0 0.0 0.0 
0.0 0.0 0.0 
0.0 0.0 0.0 
0.0 0.0 0.0 
0.0 0.0 0.0 
0.0 0.0 0.0 
0.0 0.0 0.0 
0.0 0.0 0.0 
0.0 0.0 0.0 
0.0 0.0 0.0 
0.0 0.0 0.0 
0.0 0.0 0.0 
0.0 0.0 0.0 
0.0 0.0 0.0 
0.0 0.0 0.0 
0.0 0.0 0.0 
0.0 0.0 0.0 
0.0 0.0 0.0 
0.0 0.0 0.0 
0.0 0.0 0.0 
0.0 0.0 0.0 
0.0 0.0 0.0 
0.0 0.0 0.0 
0.0 0.0 0.0 
0.0 0.0 0.0 
0.0 0.0 0.0 
0.0 0.0 0.0 
0.0 0.0 0.0 
0.0 0.0 0.0 
0.0 0.0 0.0 
0.0 0.0 0.0 
0.0 0.0 0.0 
0.0 0.0 0.0 
0.0 0.0 0.0 
0.0 0.0 0.0 
0.0 0.0 0.0 
0.0 0.0 0.0 
0.0 0.0 0.0 
0.0 0.0 0.0 
0.0 0.0 0.0 
0.0 0.0 0.0 
0.0 0.0 0.0 
0.0 0.0 0.0 
0.0 0.0 0.0 
0.0 0.0 0.0 
0.0 0.0 0.0 
0.0 0.0 0.0 
0.0 0.0 0.0 
0.0 0.0 0.0 
0.0 0.0 0.0 
0.0 0.0 0.0 
0.0 0.0 0.0 
0.0 0.0 0.0 
0.0 0.0 0.0 
0.0 0.0 0.0 
0.0 0.0 0.0 
0.0 0.0 0.0 
0.0 0.0 0.0 
0.0 0.0 0.0 
0.0 0.0 0.0 
0.0 0.0 0.0 
0.0 0.0 0.0 
0.0 0.0 0.0 
0.0 0.0 0.0 
0.0 0.0 0.0 
0.0 0.0 0.0 
0.0 0.0 0.0 
0.0 0.0 0.0 
0.0 0.0 0.0 
0.0 0.0 0.0 
0.0 0.0 0.0 
0.0 0.0 0.0 
0.0 0.0 0.0 
0.0 0.0 0.0 
0.0 0.0 0.0 
0.0 0.0 0.0 
0.0 0.0 0.0 
0.0 0.0 0.0 
0.0 0.0 0.0 
0.0 0.0 0.0 
0.0 0.0 0.0 
0.0 0.0 0.0 
0.0 0.0 0.0 
0.0 0.0 0.0 
0.0 0.0 0.0 
0.0 0.0 0.0 
0.0 0.0 0.0 
0.0 0.0 0.0 
0.0 0.0 0.0 
0.0 0.0 0.0 
0.0 0.0 0.0 
0.0 0.0 0.0 
0.0 0.0 0.0 
0.0 0.0 0.0 
0.0 0.0 0.0 
0.0 0.0 0.0 
0.0 0.0 0.0 
0.0 0.0 0.0 
0.0 0.0 0.0 
0.0 0.0 0.0 
0.0 0.0 0.0 
0.0 0.0 0.0 
0.0 0.0 0.0 
0.0 0.0 0.0 
0.0 0.0 0.0 
0.0 0.0 0.0 
0.0 0.0 0.0 
0.0 0.0 0.0 
0.0 0.0 0.0 
0.0 0.0 0.0 
0.0 0.0 0.0 
0.0 0.0 0.0 
0.0 0.0 0.0 
0.0 0.0 0.0 
0.0 0.0 0.0 
0.0 0.0 0.0 
0.0 0.0 0.0 
0.0 0.0 0.0 
0.0 0.0 0.0 
0.0 0.0 0.0 
0.0 0.0 0.0 
0.0 0.0 0.0 
0.0 0.0 0.0 
0.0 0.0 0.0 
0.0 0.0 0.0 
0.0 0.0 0.0 
0.0 0.0 0.0 
0.0 0.0 0.0 
0.0 0.0 0.0 
0.0 0.0 0.0 
0.0 0.0 0.0 
0.0 0.0 0.0 
0.0 0.0 0.0 
0.0 0.0 0.0 
0.0 0.0 0.0 
0.0 0.0 0.0 
0.0 0.0 0.0 
0.0 0.0 0.0 
0.0 0.0 0.0 
0.0 0.0 0.0 
0.0 0.0 0.0 
0.0 0.0 0.0 
0.0 0.0 0.0 
0.0 0.0 0.0 
0.0 0.0 0.0 
0.0 0.0 0.0 
0.0 0.0 0.0 
0.0 0.0 0.0 
0.0 0.0 0.0 
0.0 0.0 0.0 
0.0 0.0 0.0 
0.0 0.0 0.0 
0.0 0.0 0.0 
0.0 0.0 0.0 
0.0 0.0 0.0 
0.0 0.0 0.0 
0.0 0.0 0.0 
0.0 0.0 0.0 
0.0 0.0 0.0 
0.0 0.0 0.0 
0.0 0.0 0.0 
0.0 0.0 0.0 
0.0 0.0 0.0 
0.0 0.0 0.0 
0.0 0.0 0.0 
0.0 0.0 0.0 
0.0 0.0 0.0 
0.0 0.0 0.0 
0.0 0.0 0.0 
0.0 0.0 0.0 
0.0 0.0 0.0 
0.0 0.0 0.0 
0.0 0.0 0.0 
0.0 0.0 0.0 
0.0 0.0 0.0 
0.0 0.0 0.0 
0.0 0.0 0.0 
0.0 0.0 0.0 
0.0 0.0 0.0 
0.0 0.0 0.0 
0.0 0.0 0.0 
0.0 0.0 0.0 
0.0 0.0 0.0 
0.0 0.0 0.0 
0.0 0.0 0.0 
0.0 0.0 0.0 
0.0 0.0 0.0 
0.0 0.0 0.0 
0.0 0.0 0.0 
0.0 0.0 0.0 
0.0 0.0 0.0 
0.0 0.0 0.0 
0.0 0.0 0.0 
0.0 0.0 0.0 
0.0 0.0 0.0 
0.0 0.0 0.0 
0.0 0.0 0.0 
0.0 0.0 0.0 
0.0 0.0 0.0 
0.0 0.0 0.0 
0.0 0.0 0.0 
0.0 0.0 0.0 
0.0 0.0 0.0 
0.0 0.0 0.0 
0.0 0.0 0.0 
0.0 0.0 0.0 
0.0 0.0 0.0 
0.0 0.0 0.0 
0.0 0.0 0.0 
0.0 0.0 0.0 
0.0 0.0 0.0 
0.0 0.0 0.0 
0.0 0.0 0.0 
0.0 0.0 0.0 
0.0 0.0 0.0 
0.0 0.0 0.0 
0.0 0.0 0.0 
0.0 0.0 0.0 
0.0 0.0 0.0 
0.0 0.0 0.0 
0.0 0.0 0.0 
0.0 0.0 0.0 
0.0 0.0 0.0 
0.0 0.0 0.0 
0.0 0.0 0.0 
0.0 0.0 0.0 
0.0 0.0 0.0 
0.0 0.0 0.0 
0.0 0.0 0.0 
0.0 0.0 0.0 
0.0 0.0 0.0 
0.0 0.0 0.0 
0.0 0.0 0.0 
0.0 0.0 0.0 
0.0 0.0 0.0 
0.0 0.0 0.0 
0.0 0.0 0.0 
0.0 0.0 0.0 
0.0 0.0 0.0 
0.0 0.0 0.0 
0.0 0.0 0.0 
0.0 0.0 0.0 
0.0 0.0 0.0 
0.0 0.0 0.0 
0.0 0.0 0.0 
0.0 0.0 0.0 
0.0 0.0 0.0 
0.0 0.0 0.0 
0.0 0.0 0.0 
0.0 0.0 0.0 
0.0 0.0 0.0 
0.0 0.0 0.0 
0.0 0.0 0.0 
0.0 0.0 0.0 
0.0 0.0 0.0 
0.0 0.0 0.0 
0.0 0.0 0.0 
0.0 0.0 0.0 
0.0 0.0 0.0 
0.0 0.0 0.0 
0.0 0.0 0.0 
0.0 0.0 0.0 
0.0 0.0 0.0 
0.0 0.0 0.0 
0.0 0.0 0.0 
0.0 0.0 0.0 
0.0 0.0 0.0 
0.0 0.0 0.0 
0.0 0.0 0.0 
0.0 0.0 0.0 
0.0 0.0 0.0 
0.0 0.0 0.0 
0.0 0.0 0.0 
0.0 0.0 0.0 
0.0 0.0 0.0 

SCALARS node_boundary float
LOOKUP_TABLE default
1.000000000000e+00 
1.000000000000e+00 
1.000000000000e+00 
1.000000000000e+00 
1.000000000000e+00 
1.000000000000e+00 
1.000000000000e+00 
1.000000000000e+00 
1.000000000000e+00 
1.000000000000e+00 
1.000000000000e+00 
1.000000000000e+00 
1.000000000000e+00 
1.000000000000e+00 
1.000000000000e+00 
1.000000000000e+00 
1.000000000000e+00 
1.000000000000e+00 
1.000000000000e+00 
1.000000000000e+00 
1.000000000000e+00 
1.000000000000e+00 
1.000000000000e+00 
1.000000000000e+00 
1.000000000000e+00 
1.000000000000e+00 
1.000000000000e+00 
1.000000000000e+00 
1.000000000000e+00 
1.000000000000e+00 
1.000000000000e+00 
1.000000000000e+00 
1.000000000000e+00 
1.000000000000e+00 
1.000000000000e+00 
1.000000000000e+00 
1.000000000000e+00 
1.000000000000e+00 
1.000000000000e+00 
1.000000000000e+00 
1.000000000000e+00 
1.000000000000e+00 
1.000000000000e+00 
1.000000000000e+00 
1.000000000000e+00 
1.000000000000e+00 
1.000000000000e+00 
1.000000000000e+00 
1.000000000000e+00 
1.000000000000e+00 
1.000000000000e+00 
1.000000000000e+00 
1.000000000000e+00 
1.000000000000e+00 
1.000000000000e+00 
1.000000000000e+00 
1.000000000000e+00 
1.000000000000e+00 
1.000000000000e+00 
1.000000000000e+00 
1.000000000000e+00 
1.000000000000e+00 
1.000000000000e+00 
1.000000000000e+00 
1.000000000000e+00 
1.000000000000e+00 
1.000000000000e+00 
1.000000000000e+00 
1.000000000000e+00 
1.000000000000e+00 
1.000000000000e+00 
1.000000000000e+00 
1.000000000000e+00 
1.000000000000e+00 
1.000000000000e+00 
1.000000000000e+00 
1.000000000000e+00 
1.000000000000e+00 
1.000000000000e+00 
1.000000000000e+00 
1.000000000000e+00 
1.000000000000e+00 
0.0
1.000000000000e+00 
1.000000000000e+00 
1.000000000000e+00 
1.000000000000e+00 
1.000000000000e+00 
0.0
0.0
0.0
0.0
1.000000000000e+00 
1.000000000000e+00 
1.000000000000e+00 
1.000000000000e+00 
1.000000000000e+00 
0.0
0.0
0.0
0.0
0.0
0.0
0.0
0.0
0.0
0.0
0.0
0.0
0.0
0.0
1.000000000000e+00 
1.000000000000e+00 
1.000000000000e+00 
1.000000000000e+00 
1.000000000000e+00 
1.000000000000e+00 
1.000000000000e+00 
1.000000000000e+00 
1.000000000000e+00 
1.000000000000e+00 
1.000000000000e+00 
1.000000000000e+00 
1.000000000000e+00 
1.000000000000e+00 
1.000000000000e+00 
1.000000000000e+00 
1.000000000000e+00 
1.000000000000e+00 
1.000000000000e+00 
1.000000000000e+00 
1.000000000000e+00 
1.000000000000e+00 
1.000000000000e+00 
1.000000000000e+00 
1.000000000000e+00 
1.000000000000e+00 
1.000000000000e+00 
1.000000000000e+00 
1.000000000000e+00 
1.000000000000e+00 
1.000000000000e+00 
1.000000000000e+00 
1.000000000000e+00 
1.000000000000e+00 
1.000000000000e+00 
1.000000000000e+00 
1.000000000000e+00 
1.000000000000e+00 
1.000000000000e+00 
1.000000000000e+00 
1.000000000000e+00 
0.0
0.0
0.0
0.0
0.0
0.0
0.0
0.0
0.0
0.0
0.0
0.0
0.0
0.0
0.0
0.0
0.0
0.0
0.0
0.0
0.0
0.0
0.0
0.0
0.0
0.0
0.0
0.0
0.0
0.0
0.0
0.0
0.0
0.0
0.0
0.0
0.0
0.0
0.0
0.0
0.0
0.0
0.0
0.0
0.0
0.0
0.0
0.0
0.0
0.0
0.0
0.0
0.0
0.0
0.0
0.0
0.0
0.0
0.0
0.0
0.0
0.0
0.0
0.0
0.0
0.0
0.0
0.0
0.0
0.0
0.0
0.0
1.000000000000e+00 
1.000000000000e+00 
1.000000000000e+00 
1.000000000000e+00 
1.000000000000e+00 
0.0
0.0
0.0
0.0
0.0
0.0
0.0
0.0
0.0
0.0
0.0
0.0
0.0
0.0
0.0
0.0
0.0
0.0
0.0
0.0
0.0
0.0
0.0
0.0
0.0
0.0
0.0
0.0
0.0
0.0
0.0
0.0
0.0
0.0
0.0
0.0
0.0
0.0
0.0
0.0
0.0
0.0
0.0
0.0
0.0
0.0
0.0
0.0
0.0
0.0
0.0
0.0
0.0
0.0
0.0
0.0
0.0
0.0
0.0
0.0
0.0
0.0
0.0
0.0
0.0
0.0
0.0
0.0
0.0
0.0
0.0
0.0
0.0
0.0
0.0
0.0
0.0
0.0
0.0
0.0
0.0
0.0
0.0
0.0
0.0
0.0
0.0
0.0
0.0
0.0
0.0
0.0
0.0
0.0
0.0
0.0
0.0
0.0
0.0
0.0
0.0
0.0
0.0
0.0
0.0
0.0
0.0
0.0
0.0
0.0
0.0
0.0
0.0
0.0
0.0
0.0
0.0
0.0
0.0
0.0
0.0
0.0
0.0
0.0
0.0
0.0
0.0
0.0
0.0
0.0
0.0
0.0
0.0
0.0
0.0
0.0
0.0
0.0
0.0
0.0
0.0
0.0
0.0
0.0
0.0
0.0
0.0
0.0
0.0
0.0
0.0
0.0
0.0
0.0
0.0
0.0
0.0
0.0
0.0
0.0
0.0
0.0
0.0
0.0
0.0
0.0
0.0
0.0
0.0
0.0
0.0
0.0
0.0
0.0
0.0
0.0
0.0
0.0
0.0
0.0
0.0
0.0
0.0
0.0
0.0
0.0
0.0
0.0
0.0
0.0
0.0
0.0
0.0
0.0
0.0
0.0
0.0
0.0
0.0
0.0
0.0
0.0
0.0
0.0
0.0
0.0
0.0
0.0
0.0
0.0
0.0
0.0
0.0
0.0
0.0
0.0
0.0
0.0
0.0
0.0
0.0
0.0
0.0
0.0
0.0
0.0
0.0
0.0
0.0
0.0
0.0
0.0
0.0
0.0
0.0
0.0
0.0
0.0
0.0
0.0
0.0
0.0
0.0
0.0
0.0
0.0
0.0
0.0
0.0
0.0
0.0
0.0
0.0
0.0
0.0
0.0
0.0
0.0
0.0
0.0
0.0
0.0
0.0
0.0
0.0
0.0
0.0
0.0
0.0
0.0
0.0
0.0
0.0
0.0
0.0
0.0
0.0
0.0
0.0
0.0
0.0
0.0
0.0
0.0
0.0
0.0
0.0
0.0
0.0
0.0
0.0
0.0
0.0
0.0
0.0
0.0
0.0
0.0
0.0
0.0
0.0
0.0
0.0
0.0
0.0
0.0
0.0
0.0
0.0
0.0
0.0
0.0
0.0
0.0
0.0
0.0
0.0
0.0
0.0
0.0
0.0
0.0
0.0
0.0
0.0
0.0
0.0
0.0
0.0
0.0
0.0
0.0
0.0
0.0
0.0
0.0
0.0
0.0
0.0
0.0
0.0
0.0
0.0
0.0
0.0
0.0
0.0
0.0
0.0
0.0
0.0
0.0
0.0
0.0
0.0
0.0
0.0
0.0
0.0
0.0
0.0
0.0
0.0
0.0
0.0
0.0
0.0
0.0
0.0
0.0
0.0
0.0
0.0
0.0
0.0
0.0
0.0
0.0
0.0
0.0
0.0
0.0
0.0
0.0
0.0
0.0
0.0
0.0
0.0
0.0
0.0
0.0
0.0
0.0
0.0
0.0
0.0
0.0
0.0
0.0
0.0
0.0
0.0
0.0
0.0
0.0
0.0
0.0
0.0
0.0
0.0
0.0
0.0
0.0
0.0
0.0
0.0
0.0
0.0
0.0
0.0
0.0
0.0
0.0
0.0
0.0
0.0
0.0
0.0
0.0
0.0
0.0
0.0
0.0
0.0
0.0
0.0
0.0
0.0
0.0
0.0
0.0
0.0
0.0
0.0
0.0
0.0
0.0
0.0
0.0
0.0
0.0
0.0
0.0
0.0
0.0
0.0
0.0
0.0
0.0
0.0
0.0
0.0
0.0
0.0
0.0
0.0
0.0
0.0
0.0
0.0
0.0
0.0
0.0
0.0
0.0
0.0
0.0
0.0
0.0
0.0
0.0
0.0
0.0
0.0
0.0
0.0
0.0
0.0
0.0
0.0
0.0
0.0
0.0
0.0
0.0
0.0
0.0
0.0
0.0
0.0
0.0
0.0
0.0
0.0
0.0
0.0
0.0
0.0
0.0
0.0
0.0
0.0
0.0
0.0
0.0
0.0
0.0
0.0
0.0
0.0
0.0
0.0
0.0
0.0
0.0
0.0
0.0
0.0
0.0
0.0
0.0
0.0
0.0
0.0
0.0
0.0
0.0
0.0
0.0
0.0
0.0
0.0
0.0
0.0
0.0
0.0
0.0
0.0
0.0
0.0
0.0
0.0
0.0
0.0
0.0
0.0
0.0
0.0
0.0
0.0
0.0
0.0
0.0
0.0
0.0
0.0
0.0
0.0
0.0
0.0
0.0
0.0
0.0
0.0
0.0
0.0
0.0
0.0
0.0
0.0
0.0
0.0
0.0
0.0
0.0
0.0
0.0
0.0
0.0
0.0
0.0
0.0
0.0
0.0
0.0
0.0
0.0
0.0
0.0
0.0
0.0
0.0
0.0
0.0
0.0
0.0
0.0
0.0
0.0
0.0
0.0
0.0
0.0
0.0
0.0
0.0
0.0
0.0
0.0
0.0
0.0
0.0
0.0
0.0
0.0
0.0
0.0
0.0
0.0
0.0
0.0
0.0
0.0
0.0
0.0
0.0
0.0
0.0
0.0
0.0
0.0
0.0
0.0
0.0
0.0
0.0
0.0
0.0
0.0
0.0
0.0
0.0
0.0
0.0
0.0
0.0
0.0
0.0
0.0
0.0
0.0
0.0
0.0
0.0
0.0
0.0
0.0
0.0
0.0
0.0
0.0
0.0
0.0
0.0
0.0
0.0
0.0
0.0
0.0
0.0
0.0
0.0
0.0
0.0
0.0
0.0
0.0
0.0
0.0
0.0
0.0
0.0
0.0
0.0
0.0
0.0
0.0
0.0
0.0
0.0
0.0
0.0
0.0
0.0
0.0
0.0
0.0
0.0
0.0
0.0
0.0
0.0
0.0
0.0
0.0
0.0
0.0
0.0
0.0
0.0
0.0
0.0
0.0
0.0
0.0
0.0
0.0
0.0
0.0
0.0
0.0
0.0
0.0
0.0
0.0
0.0
0.0
0.0
0.0
0.0
0.0
0.0
0.0
0.0
0.0
0.0
0.0
0.0
0.0
0.0
0.0
0.0
0.0
0.0
0.0
0.0
0.0
0.0
0.0
0.0
0.0
0.0
0.0
0.0
0.0
0.0
0.0
0.0
0.0
0.0
0.0
0.0
0.0
0.0
0.0
0.0
0.0
0.0
0.0
0.0
0.0
0.0
0.0
0.0
0.0
0.0
0.0
0.0
0.0
0.0
0.0
0.0
0.0
0.0
0.0
0.0
0.0
0.0
0.0
0.0
0.0
0.0
0.0
0.0
0.0
0.0
0.0
0.0
0.0
0.0
0.0
0.0
0.0
0.0
0.0
0.0
0.0
0.0
0.0
0.0
0.0
0.0
0.0
0.0
0.0
0.0
0.0
0.0
0.0
0.0
0.0
0.0
0.0
0.0
0.0
0.0
0.0
0.0
0.0
0.0
0.0
0.0
0.0
0.0
0.0
0.0
0.0
0.0
0.0
0.0
0.0
0.0
0.0
0.0
0.0
0.0
0.0
0.0
0.0
0.0
0.0
0.0
0.0
0.0
0.0
0.0
0.0
0.0
0.0
0.0
0.0
0.0
0.0
0.0
0.0
0.0
0.0
0.0
0.0
0.0
0.0
0.0
0.0
0.0
0.0
0.0
0.0
0.0
0.0
0.0
0.0
0.0
0.0
0.0
0.0
0.0
0.0
0.0
0.0
0.0
0.0
0.0
0.0
0.0
0.0
0.0
0.0

VECTORS node_force_edge float
0.0 0.0 0.0 
0.0 0.0 0.0 
0.0 0.0 0.0 
0.0 0.0 0.0 
0.0 0.0 0.0 
0.0 0.0 0.0 
0.0 0.0 0.0 
0.0 0.0 0.0 
0.0 0.0 0.0 
0.0 0.0 0.0 
0.0 0.0 0.0 
0.0 0.0 0.0 
0.0 0.0 0.0 
0.0 0.0 0.0 
0.0 0.0 0.0 
0.0 0.0 0.0 
0.0 0.0 0.0 
0.0 0.0 0.0 
0.0 0.0 0.0 
0.0 0.0 0.0 
0.0 0.0 0.0 
0.0 0.0 0.0 
0.0 0.0 0.0 
0.0 0.0 0.0 
0.0 0.0 0.0 
0.0 0.0 0.0 
0.0 0.0 0.0 
0.0 0.0 0.0 
0.0 0.0 0.0 
0.0 0.0 0.0 
0.0 0.0 0.0 
0.0 0.0 0.0 
0.0 0.0 0.0 
0.0 0.0 0.0 
0.0 0.0 0.0 
0.0 0.0 0.0 
0.0 0.0 0.0 
0.0 0.0 0.0 
0.0 0.0 0.0 
0.0 0.0 0.0 
0.0 0.0 0.0 
0.0 0.0 0.0 
0.0 0.0 0.0 
0.0 0.0 0.0 
0.0 0.0 0.0 
0.0 0.0 0.0 
0.0 0.0 0.0 
0.0 0.0 0.0 
0.0 0.0 0.0 
0.0 0.0 0.0 
0.0 0.0 0.0 
0.0 0.0 0.0 
0.0 0.0 0.0 
0.0 0.0 0.0 
0.0 0.0 0.0 
0.0 0.0 0.0 
0.0 0.0 0.0 
0.0 0.0 0.0 
0.0 0.0 0.0 
0.0 0.0 0.0 
0.0 0.0 0.0 
0.0 0.0 0.0 
0.0 0.0 0.0 
0.0 0.0 0.0 
0.0 0.0 0.0 
0.0 0.0 0.0 
0.0 0.0 0.0 
0.0 0.0 0.0 
0.0 0.0 0.0 
0.0 0.0 0.0 
0.0 0.0 0.0 
0.0 0.0 0.0 
0.0 0.0 0.0 
0.0 0.0 0.0 
0.0 0.0 0.0 
0.0 0.0 0.0 
0.0 0.0 0.0 
0.0 0.0 0.0 
0.0 0.0 0.0 
0.0 0.0 0.0 
0.0 0.0 0.0 
0.0 -1.000000000000e+02 0.0 
0.0 0.0 0.0 
0.0 0.0 0.0 
0.0 0.0 0.0 
0.0 0.0 0.0 
0.0 0.0 0.0 
0.0 0.0 0.0 
0.0 0.0 0.0 
0.0 0.0 0.0 
0.0 0.0 0.0 
0.0 0.0 0.0 
0.0 0.0 0.0 
0.0 0.0 0.0 
0.0 0.0 0.0 
0.0 0.0 0.0 
0.0 0.0 0.0 
0.0 0.0 0.0 
0.0 0.0 0.0 
0.0 0.0 0.0 
0.0 0.0 0.0 
0.0 0.0 0.0 
0.0 0.0 0.0 
0.0 0.0 0.0 
0.0 0.0 0.0 
0.0 0.0 0.0 
0.0 0.0 0.0 
0.0 0.0 0.0 
0.0 0.0 0.0 
0.0 0.0 0.0 
0.0 0.0 0.0 
0.0 -1.000000000000e+02 0.0 
0.0 -1.000000000000e+02 0.0 
0.0 -1.000000000000e+02 0.0 
0.0 -1.000000000000e+02 0.0 
0.0 -1.000000000000e+02 0.0 
0.0 0.0 0.0 
0.0 0.0 0.0 
0.0 0.0 0.0 
0.0 0.0 0.0 
0.0 0.0 0.0 
0.0 0.0 0.0 
0.0 0.0 0.0 
0.0 0.0 0.0 
0.0 0.0 0.0 
0.0 0.0 0.0 
0.0 0.0 0.0 
0.0 0.0 0.0 
0.0 0.0 0.0 
0.0 0.0 0.0 
0.0 0.0 0.0 
0.0 0.0 0.0 
0.0 0.0 0.0 
0.0 0.0 0.0 
0.0 0.0 0.0 
0.0 0.0 0.0 
0.0 0.0 0.0 
0.0 0.0 0.0 
0.0 0.0 0.0 
0.0 0.0 0.0 
0.0 0.0 0.0 
0.0 0.0 0.0 
0.0 0.0 0.0 
0.0 0.0 0.0 
0.0 0.0 0.0 
0.0 0.0 0.0 
0.0 0.0 0.0 
0.0 0.0 0.0 
0.0 0.0 0.0 
0.0 0.0 0.0 
0.0 0.0 0.0 
0.0 0.0 0.0 
0.0 0.0 0.0 
0.0 0.0 0.0 
0.0 0.0 0.0 
0.0 0.0 0.0 
0.0 0.0 0.0 
0.0 0.0 0.0 
0.0 0.0 0.0 
0.0 0.0 0.0 
0.0 0.0 0.0 
0.0 0.0 0.0 
0.0 0.0 0.0 
0.0 0.0 0.0 
0.0 0.0 0.0 
0.0 0.0 0.0 
0.0 0.0 0.0 
0.0 0.0 0.0 
0.0 0.0 0.0 
0.0 0.0 0.0 
0.0 0.0 0.0 
0.0 0.0 0.0 
0.0 0.0 0.0 
0.0 0.0 0.0 
0.0 0.0 0.0 
0.0 0.0 0.0 
0.0 0.0 0.0 
0.0 0.0 0.0 
0.0 0.0 0.0 
0.0 0.0 0.0 
0.0 0.0 0.0 
0.0 0.0 0.0 
0.0 0.0 0.0 
0.0 0.0 0.0 
0.0 0.0 0.0 
0.0 0.0 0.0 
0.0 0.0 0.0 
0.0 0.0 0.0 
0.0 0.0 0.0 
0.0 0.0 0.0 
0.0 0.0 0.0 
0.0 0.0 0.0 
0.0 0.0 0.0 
0.0 0.0 0.0 
0.0 0.0 0.0 
0.0 0.0 0.0 
0.0 0.0 0.0 
0.0 0.0 0.0 
0.0 0.0 0.0 
0.0 0.0 0.0 
0.0 0.0 0.0 
0.0 0.0 0.0 
0.0 0.0 0.0 
0.0 0.0 0.0 
0.0 0.0 0.0 
0.0 0.0 0.0 
0.0 0.0 0.0 
0.0 0.0 0.0 
0.0 0.0 0.0 
0.0 0.0 0.0 
0.0 0.0 0.0 
0.0 0.0 0.0 
0.0 0.0 0.0 
0.0 0.0 0.0 
0.0 0.0 0.0 
0.0 0.0 0.0 
0.0 0.0 0.0 
0.0 0.0 0.0 
0.0 0.0 0.0 
0.0 0.0 0.0 
0.0 0.0 0.0 
0.0 0.0 0.0 
0.0 0.0 0.0 
0.0 0.0 0.0 
0.0 0.0 0.0 
0.0 0.0 0.0 
0.0 0.0 0.0 
0.0 0.0 0.0 
0.0 0.0 0.0 
0.0 0.0 0.0 
0.0 0.0 0.0 
0.0 0.0 0.0 
0.0 0.0 0.0 
0.0 0.0 0.0 
0.0 0.0 0.0 
0.0 0.0 0.0 
0.0 0.0 0.0 
0.0 0.0 0.0 
0.0 0.0 0.0 
0.0 0.0 0.0 
0.0 0.0 0.0 
0.0 0.0 0.0 
0.0 0.0 0.0 
0.0 0.0 0.0 
0.0 0.0 0.0 
0.0 0.0 0.0 
0.0 0.0 0.0 
0.0 0.0 0.0 
0.0 0.0 0.0 
0.0 0.0 0.0 
0.0 0.0 0.0 
0.0 0.0 0.0 
0.0 0.0 0.0 
0.0 0.0 0.0 
0.0 0.0 0.0 
0.0 0.0 0.0 
0.0 0.0 0.0 
0.0 0.0 0.0 
0.0 0.0 0.0 
0.0 0.0 0.0 
0.0 0.0 0.0 
0.0 0.0 0.0 
0.0 0.0 0.0 
0.0 0.0 0.0 
0.0 0.0 0.0 
0.0 0.0 0.0 
0.0 0.0 0.0 
0.0 0.0 0.0 
0.0 0.0 0.0 
0.0 0.0 0.0 
0.0 0.0 0.0 
0.0 0.0 0.0 
0.0 0.0 0.0 
0.0 0.0 0.0 
0.0 0.0 0.0 
0.0 0.0 0.0 
0.0 0.0 0.0 
0.0 0.0 0.0 
0.0 0.0 0.0 
0.0 0.0 0.0 
0.0 0.0 0.0 
0.0 0.0 0.0 
0.0 0.0 0.0 
0.0 0.0 0.0 
0.0 0.0 0.0 
0.0 0.0 0.0 
0.0 0.0 0.0 
0.0 0.0 0.0 
0.0 0.0 0.0 
0.0 0.0 0.0 
0.0 0.0 0.0 
0.0 0.0 0.0 
0.0 0.0 0.0 
0.0 0.0 0.0 
0.0 0.0 0.0 
0.0 0.0 0.0 
0.0 0.0 0.0 
0.0 0.0 0.0 
0.0 0.0 0.0 
0.0 0.0 0.0 
0.0 0.0 0.0 
0.0 0.0 0.0 
0.0 0.0 0.0 
0.0 0.0 0.0 
0.0 0.0 0.0 
0.0 0.0 0.0 
0.0 0.0 0.0 
0.0 0.0 0.0 
0.0 0.0 0.0 
0.0 0.0 0.0 
0.0 0.0 0.0 
0.0 0.0 0.0 
0.0 0.0 0.0 
0.0 0.0 0.0 
0.0 0.0 0.0 
0.0 0.0 0.0 
0.0 0.0 0.0 
0.0 0.0 0.0 
0.0 0.0 0.0 
0.0 0.0 0.0 
0.0 0.0 0.0 
0.0 0.0 0.0 
0.0 0.0 0.0 
0.0 0.0 0.0 
0.0 0.0 0.0 
0.0 0.0 0.0 
0.0 0.0 0.0 
0.0 0.0 0.0 
0.0 0.0 0.0 
0.0 0.0 0.0 
0.0 0.0 0.0 
0.0 0.0 0.0 
0.0 0.0 0.0 
0.0 0.0 0.0 
0.0 0.0 0.0 
0.0 0.0 0.0 
0.0 0.0 0.0 
0.0 0.0 0.0 
0.0 0.0 0.0 
0.0 0.0 0.0 
0.0 0.0 0.0 
0.0 0.0 0.0 
0.0 0.0 0.0 
0.0 0.0 0.0 
0.0 0.0 0.0 
0.0 0.0 0.0 
0.0 0.0 0.0 
0.0 0.0 0.0 
0.0 0.0 0.0 
0.0 0.0 0.0 
0.0 0.0 0.0 
0.0 0.0 0.0 
0.0 0.0 0.0 
0.0 0.0 0.0 
0.0 0.0 0.0 
0.0 0.0 0.0 
0.0 0.0 0.0 
0.0 0.0 0.0 
0.0 0.0 0.0 
0.0 0.0 0.0 
0.0 0.0 0.0 
0.0 0.0 0.0 
0.0 0.0 0.0 
0.0 0.0 0.0 
0.0 0.0 0.0 
0.0 0.0 0.0 
0.0 0.0 0.0 
0.0 0.0 0.0 
0.0 0.0 0.0 
0.0 0.0 0.0 
0.0 0.0 0.0 
0.0 0.0 0.0 
0.0 0.0 0.0 
0.0 0.0 0.0 
0.0 0.0 0.0 
0.0 0.0 0.0 
0.0 0.0 0.0 
0.0 0.0 0.0 
0.0 0.0 0.0 
0.0 0.0 0.0 
0.0 0.0 0.0 
0.0 0.0 0.0 
0.0 0.0 0.0 
0.0 0.0 0.0 
0.0 0.0 0.0 
0.0 0.0 0.0 
0.0 0.0 0.0 
0.0 0.0 0.0 
0.0 0.0 0.0 
0.0 0.0 0.0 
0.0 0.0 0.0 
0.0 0.0 0.0 
0.0 0.0 0.0 
0.0 0.0 0.0 
0.0 0.0 0.0 
0.0 0.0 0.0 
0.0 0.0 0.0 
0.0 0.0 0.0 
0.0 0.0 0.0 
0.0 0.0 0.0 
0.0 0.0 0.0 
0.0 0.0 0.0 
0.0 0.0 0.0 
0.0 0.0 0.0 
0.0 0.0 0.0 
0.0 0.0 0.0 
0.0 0.0 0.0 
0.0 0.0 0.0 
0.0 0.0 0.0 
0.0 0.0 0.0 
0.0 0.0 0.0 
0.0 0.0 0.0 
0.0 0.0 0.0 
0.0 0.0 0.0 
0.0 0.0 0.0 
0.0 0.0 0.0 
0.0 0.0 0.0 
0.0 0.0 0.0 
0.0 0.0 0.0 
0.0 0.0 0.0 
0.0 0.0 0.0 
0.0 0.0 0.0 
0.0 0.0 0.0 
0.0 0.0 0.0 
0.0 0.0 0.0 
0.0 0.0 0.0 
0.0 0.0 0.0 
0.0 0.0 0.0 
0.0 0.0 0.0 
0.0 0.0 0.0 
0.0 0.0 0.0 
0.0 0.0 0.0 
0.0 0.0 0.0 
0.0 0.0 0.0 
0.0 0.0 0.0 
0.0 0.0 0.0 
0.0 0.0 0.0 
0.0 0.0 0.0 
0.0 0.0 0.0 
0.0 0.0 0.0 
0.0 0.0 0.0 
0.0 0.0 0.0 
0.0 0.0 0.0 
0.0 0.0 0.0 
0.0 0.0 0.0 
0.0 0.0 0.0 
0.0 0.0 0.0 
0.0 0.0 0.0 
0.0 0.0 0.0 
0.0 0.0 0.0 
0.0 0.0 0.0 
0.0 0.0 0.0 
0.0 0.0 0.0 
0.0 0.0 0.0 
0.0 0.0 0.0 
0.0 0.0 0.0 
0.0 0.0 0.0 
0.0 0.0 0.0 
0.0 0.0 0.0 
0.0 0.0 0.0 
0.0 0.0 0.0 
0.0 0.0 0.0 
0.0 0.0 0.0 
0.0 0.0 0.0 
0.0 0.0 0.0 
0.0 0.0 0.0 
0.0 0.0 0.0 
0.0 0.0 0.0 
0.0 0.0 0.0 
0.0 0.0 0.0 
0.0 0.0 0.0 
0.0 0.0 0.0 
0.0 0.0 0.0 
0.0 0.0 0.0 
0.0 0.0 0.0 
0.0 0.0 0.0 
0.0 0.0 0.0 
0.0 0.0 0.0 
0.0 0.0 0.0 
0.0 0.0 0.0 
0.0 0.0 0.0 
0.0 0.0 0.0 
0.0 0.0 0.0 
0.0 0.0 0.0 
0.0 0.0 0.0 
0.0 0.0 0.0 
0.0 0.0 0.0 
0.0 0.0 0.0 
0.0 0.0 0.0 
0.0 0.0 0.0 
0.0 0.0 0.0 
0.0 0.0 0.0 
0.0 0.0 0.0 
0.0 0.0 0.0 
0.0 0.0 0.0 
0.0 0.0 0.0 
0.0 0.0 0.0 
0.0 0.0 0.0 
0.0 0.0 0.0 
0.0 0.0 0.0 
0.0 0.0 0.0 
0.0 0.0 0.0 
0.0 0.0 0.0 
0.0 0.0 0.0 
0.0 0.0 0.0 
0.0 0.0 0.0 
0.0 0.0 0.0 
0.0 0.0 0.0 
0.0 0.0 0.0 
0.0 0.0 0.0 
0.0 0.0 0.0 
0.0 0.0 0.0 
0.0 0.0 0.0 
0.0 0.0 0.0 
0.0 0.0 0.0 
0.0 0.0 0.0 
0.0 0.0 0.0 
0.0 0.0 0.0 
0.0 0.0 0.0 
0.0 0.0 0.0 
0.0 0.0 0.0 
0.0 0.0 0.0 
0.0 0.0 0.0 
0.0 0.0 0.0 
0.0 0.0 0.0 
0.0 0.0 0.0 
0.0 0.0 0.0 
0.0 0.0 0.0 
0.0 0.0 0.0 
0.0 0.0 0.0 
0.0 0.0 0.0 
0.0 0.0 0.0 
0.0 0.0 0.0 
0.0 0.0 0.0 
0.0 0.0 0.0 
0.0 0.0 0.0 
0.0 0.0 0.0 
0.0 0.0 0.0 
0.0 0.0 0.0 
0.0 0.0 0.0 
0.0 0.0 0.0 
0.0 0.0 0.0 
0.0 0.0 0.0 
0.0 0.0 0.0 
0.0 0.0 0.0 
0.0 0.0 0.0 
0.0 0.0 0.0 
0.0 0.0 0.0 
0.0 0.0 0.0 
0.0 0.0 0.0 
0.0 0.0 0.0 
0.0 0.0 0.0 
0.0 0.0 0.0 
0.0 0.0 0.0 
0.0 0.0 0.0 
0.0 0.0 0.0 
0.0 0.0 0.0 
0.0 0.0 0.0 
0.0 0.0 0.0 
0.0 0.0 0.0 
0.0 0.0 0.0 
0.0 0.0 0.0 
0.0 0.0 0.0 
0.0 0.0 0.0 
0.0 0.0 0.0 
0.0 0.0 0.0 
0.0 0.0 0.0 
0.0 0.0 0.0 
0.0 0.0 0.0 
0.0 0.0 0.0 
0.0 0.0 0.0 
0.0 0.0 0.0 
0.0 0.0 0.0 
0.0 0.0 0.0 
0.0 0.0 0.0 
0.0 0.0 0.0 
0.0 0.0 0.0 
0.0 0.0 0.0 
0.0 0.0 0.0 
0.0 0.0 0.0 
0.0 0.0 0.0 
0.0 0.0 0.0 
0.0 0.0 0.0 
0.0 0.0 0.0 
0.0 0.0 0.0 
0.0 0.0 0.0 
0.0 0.0 0.0 
0.0 0.0 0.0 
0.0 0.0 0.0 
0.0 0.0 0.0 
0.0 0.0 0.0 
0.0 0.0 0.0 
0.0 0.0 0.0 
0.0 0.0 0.0 
0.0 0.0 0.0 
0.0 0.0 0.0 
0.0 0.0 0.0 
0.0 0.0 0.0 
0.0 0.0 0.0 
0.0 0.0 0.0 
0.0 0.0 0.0 
0.0 0.0 0.0 
0.0 0.0 0.0 
0.0 0.0 0.0 
0.0 0.0 0.0 
0.0 0.0 0.0 
0.0 0.0 0.0 
0.0 0.0 0.0 
0.0 0.0 0.0 
0.0 0.0 0.0 
0.0 0.0 0.0 
0.0 0.0 0.0 
0.0 0.0 0.0 
0.0 0.0 0.0 
0.0 0.0 0.0 
0.0 0.0 0.0 
0.0 0.0 0.0 
0.0 0.0 0.0 
0.0 0.0 0.0 
0.0 0.0 0.0 
0.0 0.0 0.0 
0.0 0.0 0.0 
0.0 0.0 0.0 
0.0 0.0 0.0 
0.0 0.0 0.0 
0.0 0.0 0.0 
0.0 0.0 0.0 
0.0 0.0 0.0 
0.0 0.0 0.0 
0.0 0.0 0.0 
0.0 0.0 0.0 
0.0 0.0 0.0 
0.0 0.0 0.0 
0.0 0.0 0.0 
0.0 0.0 0.0 
0.0 0.0 0.0 
0.0 0.0 0.0 
0.0 0.0 0.0 
0.0 0.0 0.0 
0.0 0.0 0.0 
0.0 0.0 0.0 
0.0 0.0 0.0 
0.0 0.0 0.0 
0.0 0.0 0.0 
0.0 0.0 0.0 
0.0 0.0 0.0 
0.0 0.0 0.0 
0.0 0.0 0.0 
0.0 0.0 0.0 
0.0 0.0 0.0 
0.0 0.0 0.0 
0.0 0.0 0.0 
0.0 0.0 0.0 
0.0 0.0 0.0 
0.0 0.0 0.0 
0.0 0.0 0.0 
0.0 0.0 0.0 
0.0 0.0 0.0 
0.0 0.0 0.0 
0.0 0.0 0.0 
0.0 0.0 0.0 
0.0 0.0 0.0 
0.0 0.0 0.0 
0.0 0.0 0.0 
0.0 0.0 0.0 
0.0 0.0 0.0 
0.0 0.0 0.0 
0.0 0.0 0.0 
0.0 0.0 0.0 
0.0 0.0 0.0 
0.0 0.0 0.0 
0.0 0.0 0.0 
0.0 0.0 0.0 
0.0 0.0 0.0 
0.0 0.0 0.0 
0.0 0.0 0.0 
0.0 0.0 0.0 
0.0 0.0 0.0 
0.0 0.0 0.0 
0.0 0.0 0.0 
0.0 0.0 0.0 
0.0 0.0 0.0 
0.0 0.0 0.0 
0.0 0.0 0.0 
0.0 0.0 0.0 
0.0 0.0 0.0 
0.0 0.0 0.0 
0.0 0.0 0.0 
0.0 0.0 0.0 
0.0 0.0 0.0 
0.0 0.0 0.0 
0.0 0.0 0.0 
0.0 0.0 0.0 
0.0 0.0 0.0 
0.0 0.0 0.0 
0.0 0.0 0.0 
0.0 0.0 0.0 
0.0 0.0 0.0 
0.0 0.0 0.0 
0.0 0.0 0.0 
0.0 0.0 0.0 
0.0 0.0 0.0 
0.0 0.0 0.0 
0.0 0.0 0.0 
0.0 0.0 0.0 
0.0 0.0 0.0 
0.0 0.0 0.0 
0.0 0.0 0.0 
0.0 0.0 0.0 
0.0 0.0 0.0 
0.0 0.0 0.0 
0.0 0.0 0.0 
0.0 0.0 0.0 
0.0 0.0 0.0 
0.0 0.0 0.0 
0.0 0.0 0.0 
0.0 0.0 0.0 
0.0 0.0 0.0 
0.0 0.0 0.0 
0.0 0.0 0.0 
0.0 0.0 0.0 
0.0 0.0 0.0 
0.0 0.0 0.0 
0.0 0.0 0.0 
0.0 0.0 0.0 
0.0 0.0 0.0 
0.0 0.0 0.0 
0.0 0.0 0.0 
0.0 0.0 0.0 
0.0 0.0 0.0 
0.0 0.0 0.0 
0.0 0.0 0.0 
0.0 0.0 0.0 
0.0 0.0 0.0 
0.0 0.0 0.0 
0.0 0.0 0.0 
0.0 0.0 0.0 
0.0 0.0 0.0 
0.0 0.0 0.0 
0.0 0.0 0.0 
0.0 0.0 0.0 
0.0 0.0 0.0 
0.0 0.0 0.0 
0.0 0.0 0.0 
0.0 0.0 0.0 
0.0 0.0 0.0 
0.0 0.0 0.0 
0.0 0.0 0.0 
0.0 0.0 0.0 
0.0 0.0 0.0 
0.0 0.0 0.0 
0.0 0.0 0.0 
0.0 0.0 0.0 
0.0 0.0 0.0 
0.0 0.0 0.0 
0.0 0.0 0.0 
0.0 0.0 0.0 
0.0 0.0 0.0 
0.0 0.0 0.0 
0.0 0.0 0.0 
0.0 0.0 0.0 
0.0 0.0 0.0 
0.0 0.0 0.0 
0.0 0.0 0.0 
0.0 0.0 0.0 
0.0 0.0 0.0 
0.0 0.0 0.0 
0.0 0.0 0.0 
0.0 0.0 0.0 
0.0 0.0 0.0 
0.0 0.0 0.0 
0.0 0.0 0.0 
0.0 0.0 0.0 
0.0 0.0 0.0 
0.0 0.0 0.0 
0.0 0.0 0.0 
0.0 0.0 0.0 
0.0 0.0 0.0 
0.0 0.0 0.0 
0.0 0.0 0.0 
0.0 0.0 0.0 
0.0 0.0 0.0 
0.0 0.0 0.0 
0.0 0.0 0.0 
0.0 0.0 0.0 
0.0 0.0 0.0 
0.0 0.0 0.0 
0.0 0.0 0.0 
0.0 0.0 0.0 
0.0 0.0 0.0 
0.0 0.0 0.0 
0.0 0.0 0.0 
0.0 0.0 0.0 
0.0 0.0 0.0 
0.0 0.0 0.0 
0.0 0.0 0.0 
0.0 0.0 0.0 
0.0 0.0 0.0 
0.0 0.0 0.0 
0.0 0.0 0.0 
0.0 0.0 0.0 
0.0 0.0 0.0 
0.0 0.0 0.0 
0.0 0.0 0.0 
0.0 0.0 0.0 
0.0 0.0 0.0 
0.0 0.0 0.0 
0.0 0.0 0.0 
0.0 0.0 0.0 
0.0 0.0 0.0 
0.0 0.0 0.0 
0.0 0.0 0.0 
0.0 0.0 0.0 
0.0 0.0 0.0 
0.0 0.0 0.0 
0.0 0.0 0.0 
0.0 0.0 0.0 
0.0 0.0 0.0 
0.0 0.0 0.0 
0.0 0.0 0.0 
0.0 0.0 0.0 
0.0 0.0 0.0 
0.0 0.0 0.0 
0.0 0.0 0.0 
0.0 0.0 0.0 
0.0 0.0 0.0 
0.0 0.0 0.0 
0.0 0.0 0.0 
0.0 0.0 0.0 
0.0 0.0 0.0 
0.0 0.0 0.0 
0.0 0.0 0.0 
0.0 0.0 0.0 
0.0 0.0 0.0 
0.0 0.0 0.0 
0.0 0.0 0.0 
0.0 0.0 0.0 
0.0 0.0 0.0 
0.0 0.0 0.0 
0.0 0.0 0.0 
0.0 0.0 0.0 
0.0 0.0 0.0 
0.0 0.0 0.0 
0.0 0.0 0.0 
0.0 0.0 0.0 
0.0 0.0 0.0 
0.0 0.0 0.0 
0.0 0.0 0.0 
0.0 0.0 0.0 
0.0 0.0 0.0 
0.0 0.0 0.0 
0.0 0.0 0.0 
0.0 0.0 0.0 
0.0 0.0 0.0 
0.0 0.0 0.0 
0.0 0.0 0.0 
0.0 0.0 0.0 
0.0 0.0 0.0 
0.0 0.0 0.0 
0.0 0.0 0.0 
0.0 0.0 0.0 
0.0 0.0 0.0 
0.0 0.0 0.0 
0.0 0.0 0.0 
0.0 0.0 0.0 
0.0 0.0 0.0 
0.0 0.0 0.0 
0.0 0.0 0.0 
0.0 0.0 0.0 
0.0 0.0 0.0 
0.0 0.0 0.0 
0.0 0.0 0.0 
0.0 0.0 0.0 
0.0 0.0 0.0 
0.0 0.0 0.0 
0.0 0.0 0.0 
0.0 0.0 0.0 
0.0 0.0 0.0 
0.0 0.0 0.0 
0.0 0.0 0.0 
0.0 0.0 0.0 
0.0 0.0 0.0 
0.0 0.0 0.0 
0.0 0.0 0.0 
0.0 0.0 0.0 
0.0 0.0 0.0 
0.0 0.0 0.0 
0.0 0.0 0.0 
0.0 0.0 0.0 
0.0 0.0 0.0 
0.0 0.0 0.0 
0.0 0.0 0.0 
0.0 0.0 0.0 
0.0 0.0 0.0 
0.0 0.0 0.0 
0.0 0.0 0.0 
0.0 0.0 0.0 
0.0 0.0 0.0 
0.0 0.0 0.0 
0.0 0.0 0.0 
0.0 0.0 0.0 
0.0 0.0 0.0 
0.0 0.0 0.0 
0.0 0.0 0.0 
0.0 0.0 0.0 
0.0 0.0 0.0 
0.0 0.0 0.0 
0.0 0.0 0.0 
0.0 0.0 0.0 
0.0 0.0 0.0 
0.0 0.0 0.0 
0.0 0.0 0.0 
0.0 0.0 0.0 
0.0 0.0 0.0 
0.0 0.0 0.0 
0.0 0.0 0.0 
0.0 0.0 0.0 
0.0 0.0 0.0 
0.0 0.0 0.0 
0.0 0.0 0.0 
0.0 0.0 0.0 
0.0 0.0 0.0 
0.0 0.0 0.0 
0.0 0.0 0.0 
0.0 0.0 0.0 
0.0 0.0 0.0 
0.0 0.0 0.0 
0.0 0.0 0.0 
0.0 0.0 0.0 
0.0 0.0 0.0 
0.0 0.0 0.0 
0.0 0.0 0.0 
0.0 0.0 0.0 
0.0 0.0 0.0 
0.0 0.0 0.0 
0.0 0.0 0.0 
0.0 0.0 0.0 
0.0 0.0 0.0 
0.0 0.0 0.0 
0.0 0.0 0.0 
0.0 0.0 0.0 
0.0 0.0 0.0 
0.0 0.0 0.0 
0.0 0.0 0.0 
0.0 0.0 0.0 
0.0 0.0 0.0 
0.0 0.0 0.0 
0.0 0.0 0.0 
0.0 0.0 0.0 
0.0 0.0 0.0 
0.0 0.0 0.0 
0.0 0.0 0.0 
0.0 0.0 0.0 
0.0 0.0 0.0 
0.0 0.0 0.0 
0.0 0.0 0.0 
0.0 0.0 0.0 
0.0 0.0 0.0 
0.0 0.0 0.0 
0.0 0.0 0.0 
0.0 0.0 0.0 
0.0 0.0 0.0 
0.0 0.0 0.0 
0.0 0.0 0.0 
0.0 0.0 0.0 
0.0 0.0 0.0 
0.0 0.0 0.0 
0.0 0.0 0.0 
0.0 0.0 0.0 
0.0 0.0 0.0 
0.0 0.0 0.0 
0.0 0.0 0.0 
0.0 0.0 0.0 
0.0 0.0 0.0 
0.0 0.0 0.0 
0.0 0.0 0.0 
0.0 0.0 0.0 
0.0 0.0 0.0 
0.0 0.0 0.0 
0.0 0.0 0.0 
0.0 0.0 0.0 
0.0 0.0 0.0 
0.0 0.0 0.0 
0.0 0.0 0.0 
0.0 0.0 0.0 
0.0 0.0 0.0 
0.0 0.0 0.0 
0.0 0.0 0.0 
0.0 0.0 0.0 
0.0 0.0 0.0 
0.0 0.0 0.0 
0.0 0.0 0.0 
0.0 0.0 0.0 
0.0 0.0 0.0 
0.0 0.0 0.0 
0.0 0.0 0.0 
0.0 0.0 0.0 
0.0 0.0 0.0 
0.0 0.0 0.0 
0.0 0.0 0.0 
0.0 0.0 0.0 
0.0 0.0 0.0 
0.0 0.0 0.0 
0.0 0.0 0.0 
0.0 0.0 0.0 
0.0 0.0 0.0 
0.0 0.0 0.0 
0.0 0.0 0.0 
0.0 0.0 0.0 
0.0 0.0 0.0 
0.0 0.0 0.0 
0.0 0.0 0.0 
0.0 0.0 0.0 
0.0 0.0 0.0 
0.0 0.0 0.0 
0.0 0.0 0.0 
0.0 0.0 0.0 
0.0 0.0 0.0 
0.0 0.0 0.0 
0.0 0.0 0.0 
0.0 0.0 0.0 
0.0 0.0 0.0 
0.0 0.0 0.0 
0.0 0.0 0.0 
0.0 0.0 0.0 
0.0 0.0 0.0 
0.0 0.0 0.0 
0.0 0.0 0.0 
0.0 0.0 0.0 
0.0 0.0 0.0 
0.0 0.0 0.0 
0.0 0.0 0.0 
0.0 0.0 0.0 
0.0 0.0 0.0 
0.0 0.0 0.0 
0.0 0.0 0.0 
0.0 0.0 0.0 
0.0 0.0 0.0 
0.0 0.0 0.0 
0.0 0.0 0.0 
0.0 0.0 0.0 
0.0 0.0 0.0 
0.0 0.0 0.0 
0.0 0.0 0.0 
0.0 0.0 0.0 
0.0 0.0 0.0 
0.0 0.0 0.0 
0.0 0.0 0.0 
0.0 0.0 0.0 
0.0 0.0 0.0 
0.0 0.0 0.0 
0.0 0.0 0.0 
0.0 0.0 0.0 
0.0 0.0 0.0 
0.0 0.0 0.0 
0.0 0.0 0.0 
0.0 0.0 0.0 
0.0 0.0 0.0 
0.0 0.0 0.0 
0.0 0.0 0.0 
0.0 0.0 0.0 
0.0 0.0 0.0 
0.0 0.0 0.0 
0.0 0.0 0.0 
0.0 0.0 0.0 
0.0 0.0 0.0 
0.0 0.0 0.0 
0.0 0.0 0.0 
0.0 0.0 0.0 
0.0 0.0 0.0 
0.0 0.0 0.0 
0.0 0.0 0.0 
0.0 0.0 0.0 
0.0 0.0 0.0 
0.0 0.0 0.0 
0.0 0.0 0.0 
0.0 0.0 0.0 
0.0 0.0 0.0 
0.0 0.0 0.0 
0.0 0.0 0.0 
0.0 0.0 0.0 
0.0 0.0 0.0 
0.0 0.0 0.0 
0.0 0.0 0.0 
0.0 0.0 0.0 
0.0 0.0 0.0 
0.0 0.0 0.0 
0.0 0.0 0.0 
0.0 0.0 0.0 
0.0 0.0 0.0 
0.0 0.0 0.0 
0.0 0.0 0.0 
0.0 0.0 0.0 
0.0 0.0 0.0 
0.0 0.0 0.0 
0.0 0.0 0.0 
0.0 0.0 0.0 
0.0 0.0 0.0 
0.0 0.0 0.0 
0.0 0.0 0.0 
0.0 0.0 0.0 
0.0 0.0 0.0 
0.0 0.0 0.0 
0.0 0.0 0.0 
0.0 0.0 0.0 
0.0 0.0 0.0 
0.0 0.0 0.0 
0.0 0.0 0.0 
0.0 0.0 0.0 
0.0 0.0 0.0 
0.0 0.0 0.0 
0.0 0.0 0.0 
0.0 0.0 0.0 
0.0 0.0 0.0 
0.0 0.0 0.0 
0.0 0.0 0.0 
0.0 0.0 0.0 
0.0 0.0 0.0 
0.0 0.0 0.0 
0.0 0.0 0.0 
0.0 0.0 0.0 
0.0 0.0 0.0 
0.0 0.0 0.0 
0.0 0.0 0.0 
0.0 0.0 0.0 
0.0 0.0 0.0 
0.0 0.0 0.0 
0.0 0.0 0.0 
0.0 0.0 0.0 
0.0 0.0 0.0 
0.0 0.0 0.0 
0.0 0.0 0.0 
0.0 0.0 0.0 
0.0 0.0 0.0 
0.0 0.0 0.0 
0.0 0.0 0.0 
0.0 0.0 0.0 

VECTORS node_force_gravity float
0.0 -1.962000000000e+01 0.0 
0.0 -1.962000000000e+01 0.0 
0.0 -1.962000000000e+01 0.0 
0.0 -1.962000000000e+01 0.0 
0.0 -1.962000000000e+01 0.0 
0.0 -1.962000000000e+01 0.0 
0.0 -1.962000000000e+01 0.0 
0.0 -1.962000000000e+01 0.0 
0.0 -1.962000000000e+01 0.0 
0.0 -1.962000000000e+01 0.0 
0.0 -1.962000000000e+01 0.0 
0.0 -1.962000000000e+01 0.0 
0.0 -1.962000000000e+01 0.0 
0.0 -1.962000000000e+01 0.0 
0.0 -1.962000000000e+01 0.0 
0.0 -1.962000000000e+01 0.0 
0.0 -1.962000000000e+01 0.0 
0.0 -1.962000000000e+01 0.0 
0.0 -1.962000000000e+01 0.0 
0.0 -1.962000000000e+01 0.0 
0.0 -1.962000000000e+01 0.0 
0.0 -1.962000000000e+01 0.0 
0.0 -1.962000000000e+01 0.0 
0.0 -1.962000000000e+01 0.0 
0.0 -1.962000000000e+01 0.0 
0.0 -1.962000000000e+01 0.0 
0.0 -1.962000000000e+01 0.0 
0.0 -1.962000000000e+01 0.0 
0.0 -1.962000000000e+01 0.0 
0.0 -1.962000000000e+01 0.0 
0.0 -1.962000000000e+01 0.0 
0.0 -1.962000000000e+01 0.0 
0.0 -1.962000000000e+01 0.0 
0.0 -1.962000000000e+01 0.0 
0.0 -1.962000000000e+01 0.0 
0.0 -1.962000000000e+01 0.0 
0.0 -1.962000000000e+01 0.0 
0.0 -1.962000000000e+01 0.0 
0.0 -1.962000000000e+01 0.0 
0.0 -1.962000000000e+01 0.0 
0.0 -1.962000000000e+01 0.0 
0.0 -1.962000000000e+01 0.0 
0.0 -1.962000000000e+01 0.0 
0.0 -1.962000000000e+01 0.0 
0.0 -1.962000000000e+01 0.0 
0.0 -1.962000000000e+01 0.0 
0.0 -1.962000000000e+01 0.0 
0.0 -1.962000000000e+01 0.0 
0.0 -1.962000000000e+01 0.0 
0.0 -1.962000000000e+01 0.0 
0.0 -1.962000000000e+01 0.0 
0.0 -1.962000000000e+01 0.0 
0.0 -1.962000000000e+01 0.0 
0.0 -1.962000000000e+01 0.0 
0.0 -1.962000000000e+01 0.0 
0.0 -1.962000000000e+01 0.0 
0.0 -1.962000000000e+01 0.0 
0.0 -1.962000000000e+01 0.0 
0.0 -1.962000000000e+01 0.0 
0.0 -1.962000000000e+01 0.0 
0.0 -1.962000000000e+01 0.0 
0.0 -1.962000000000e+01 0.0 
0.0 -1.962000000000e+01 0.0 
0.0 -1.962000000000e+01 0.0 
0.0 -1.962000000000e+01 0.0 
0.0 -1.962000000000e+01 0.0 
0.0 -1.962000000000e+01 0.0 
0.0 -1.962000000000e+01 0.0 
0.0 -1.962000000000e+01 0.0 
0.0 -1.962000000000e+01 0.0 
0.0 -1.962000000000e+01 0.0 
0.0 -1.962000000000e+01 0.0 
0.0 -1.962000000000e+01 0.0 
0.0 -1.962000000000e+01 0.0 
0.0 -1.962000000000e+01 0.0 
0.0 -1.962000000000e+01 0.0 
0.0 -1.962000000000e+01 0.0 
0.0 -1.962000000000e+01 0.0 
0.0 -1.962000000000e+01 0.0 
0.0 -1.962000000000e+01 0.0 
0.0 -1.962000000000e+01 0.0 
0.0 -1.962000000000e+01 0.0 
0.0 -1.962000000000e+01 0.0 
0.0 -1.962000000000e+01 0.0 
0.0 -1.962000000000e+01 0.0 
0.0 -1.962000000000e+01 0.0 
0.0 -1.962000000000e+01 0.0 
0.0 -1.962000000000e+01 0.0 
0.0 -1.962000000000e+01 0.0 
0.0 -1.962000000000e+01 0.0 
0.0 -1.962000000000e+01 0.0 
0.0 -1.962000000000e+01 0.0 
0.0 -1.962000000000e+01 0.0 
0.0 -1.962000000000e+01 0.0 
0.0 -1.962000000000e+01 0.0 
0.0 -1.962000000000e+01 0.0 
0.0 -1.962000000000e+01 0.0 
0.0 -1.962000000000e+01 0.0 
0.0 -1.962000000000e+01 0.0 
0.0 -1.962000000000e+01 0.0 
0.0 -1.962000000000e+01 0.0 
0.0 -1.962000000000e+01 0.0 
0.0 -1.962000000000e+01 0.0 
0.0 -1.962000000000e+01 0.0 
0.0 -1.962000000000e+01 0.0 
0.0 -1.962000000000e+01 0.0 
0.0 -1.962000000000e+01 0.0 
0.0 -1.962000000000e+01 0.0 
0.0 -1.962000000000e+01 0.0 
0.0 -1.962000000000e+01 0.0 
0.0 -1.962000000000e+01 0.0 
0.0 -1.962000000000e+01 0.0 
0.0 -1.962000000000e+01 0.0 
0.0 -1.962000000000e+01 0.0 
0.0 -1.962000000000e+01 0.0 
0.0 -1.962000000000e+01 0.0 
0.0 -1.962000000000e+01 0.0 
0.0 -1.962000000000e+01 0.0 
0.0 -1.962000000000e+01 0.0 
0.0 -1.962000000000e+01 0.0 
0.0 -1.962000000000e+01 0.0 
0.0 -1.962000000000e+01 0.0 
0.0 -1.962000000000e+01 0.0 
0.0 -1.962000000000e+01 0.0 
0.0 -1.962000000000e+01 0.0 
0.0 -1.962000000000e+01 0.0 
0.0 -1.962000000000e+01 0.0 
0.0 -1.962000000000e+01 0.0 
0.0 -1.962000000000e+01 0.0 
0.0 -1.962000000000e+01 0.0 
0.0 -1.962000000000e+01 0.0 
0.0 -1.962000000000e+01 0.0 
0.0 -1.962000000000e+01 0.0 
0.0 -1.962000000000e+01 0.0 
0.0 -1.962000000000e+01 0.0 
0.0 -1.962000000000e+01 0.0 
0.0 -1.962000000000e+01 0.0 
0.0 -1.962000000000e+01 0.0 
0.0 -1.962000000000e+01 0.0 
0.0 -1.962000000000e+01 0.0 
0.0 -1.962000000000e+01 0.0 
0.0 -1.962000000000e+01 0.0 
0.0 -1.962000000000e+01 0.0 
0.0 -1.962000000000e+01 0.0 
0.0 -1.962000000000e+01 0.0 
0.0 -1.962000000000e+01 0.0 
0.0 -1.962000000000e+01 0.0 
0.0 -1.962000000000e+01 0.0 
0.0 -1.962000000000e+01 0.0 
0.0 -1.962000000000e+01 0.0 
0.0 -1.962000000000e+01 0.0 
0.0 -1.962000000000e+01 0.0 
0.0 -1.962000000000e+01 0.0 
0.0 -1.962000000000e+01 0.0 
0.0 -1.962000000000e+01 0.0 
0.0 -1.962000000000e+01 0.0 
0.0 -1.962000000000e+01 0.0 
0.0 -1.962000000000e+01 0.0 
0.0 -1.962000000000e+01 0.0 
0.0 -1.962000000000e+01 0.0 
0.0 -1.962000000000e+01 0.0 
0.0 -1.962000000000e+01 0.0 
0.0 -1.962000000000e+01 0.0 
0.0 -1.962000000000e+01 0.0 
0.0 -1.962000000000e+01 0.0 
0.0 -1.962000000000e+01 0.0 
0.0 -1.962000000000e+01 0.0 
0.0 -1.962000000000e+01 0.0 
0.0 -1.962000000000e+01 0.0 
0.0 -1.962000000000e+01 0.0 
0.0 -1.962000000000e+01 0.0 
0.0 -1.962000000000e+01 0.0 
0.0 -1.962000000000e+01 0.0 
0.0 -1.962000000000e+01 0.0 
0.0 -1.962000000000e+01 0.0 
0.0 -1.962000000000e+01 0.0 
0.0 -1.962000000000e+01 0.0 
0.0 -1.962000000000e+01 0.0 
0.0 -1.962000000000e+01 0.0 
0.0 -1.962000000000e+01 0.0 
0.0 -1.962000000000e+01 0.0 
0.0 -1.962000000000e+01 0.0 
0.0 -1.962000000000e+01 0.0 
0.0 -1.962000000000e+01 0.0 
0.0 -1.962000000000e+01 0.0 
0.0 -1.962000000000e+01 0.0 
0.0 -1.962000000000e+01 0.0 
0.0 -1.962000000000e+01 0.0 
0.0 -1.962000000000e+01 0.0 
0.0 -1.962000000000e+01 0.0 
0.0 -1.962000000000e+01 0.0 
0.0 -1.962000000000e+01 0.0 
0.0 -1.962000000000e+01 0.0 
0.0 -1.962000000000e+01 0.0 
0.0 -1.962000000000e+01 0.0 
0.0 -1.962000000000e+01 0.0 
0.0 -1.962000000000e+01 0.0 
0.0 -1.962000000000e+01 0.0 
0.0 -1.962000000000e+01 0.0 
0.0 -1.962000000000e+01 0.0 
0.0 -1.962000000000e+01 0.0 
0.0 -1.962000000000e+01 0.0 
0.0 -1.962000000000e+01 0.0 
0.0 -1.962000000000e+01 0.0 
0.0 -1.962000000000e+01 0.0 
0.0 -1.962000000000e+01 0.0 
0.0 -1.962000000000e+01 0.0 
0.0 -1.962000000000e+01 0.0 
0.0 -1.962000000000e+01 0.0 
0.0 -1.962000000000e+01 0.0 
0.0 -1.962000000000e+01 0.0 
0.0 -1.962000000000e+01 0.0 
0.0 -1.962000000000e+01 0.0 
0.0 -1.962000000000e+01 0.0 
0.0 -1.962000000000e+01 0.0 
0.0 -1.962000000000e+01 0.0 
0.0 -1.962000000000e+01 0.0 
0.0 -1.962000000000e+01 0.0 
0.0 -1.962000000000e+01 0.0 
0.0 -1.962000000000e+01 0.0 
0.0 -1.962000000000e+01 0.0 
0.0 -1.962000000000e+01 0.0 
0.0 -1.962000000000e+01 0.0 
0.0 -1.962000000000e+01 0.0 
0.0 -1.962000000000e+01 0.0 
0.0 -1.962000000000e+01 0.0 
0.0 -1.962000000000e+01 0.0 
0.0 -1.962000000000e+01 0.0 
0.0 -1.962000000000e+01 0.0 
0.0 -1.962000000000e+01 0.0 
0.0 -1.962000000000e+01 0.0 
0.0 -1.962000000000e+01 0.0 
0.0 -1.962000000000e+01 0.0 
0.0 -1.962000000000e+01 0.0 
0.0 -1.962000000000e+01 0.0 
0.0 -1.962000000000e+01 0.0 
0.0 -1.962000000000e+01 0.0 
0.0 -1.962000000000e+01 0.0 
0.0 -1.962000000000e+01 0.0 
0.0 -1.962000000000e+01 0.0 
0.0 -1.962000000000e+01 0.0 
0.0 -1.962000000000e+01 0.0 
0.0 -1.962000000000e+01 0.0 
0.0 -1.962000000000e+01 0.0 
0.0 -1.962000000000e+01 0.0 
0.0 -1.962000000000e+01 0.0 
0.0 -1.962000000000e+01 0.0 
0.0 -1.962000000000e+01 0.0 
0.0 -1.962000000000e+01 0.0 
0.0 -1.962000000000e+01 0.0 
0.0 -1.962000000000e+01 0.0 
0.0 -1.962000000000e+01 0.0 
0.0 -1.962000000000e+01 0.0 
0.0 -1.962000000000e+01 0.0 
0.0 -1.962000000000e+01 0.0 
0.0 -1.962000000000e+01 0.0 
0.0 -1.962000000000e+01 0.0 
0.0 -1.962000000000e+01 0.0 
0.0 -1.962000000000e+01 0.0 
0.0 -1.962000000000e+01 0.0 
0.0 -1.962000000000e+01 0.0 
0.0 -1.962000000000e+01 0.0 
0.0 -1.962000000000e+01 0.0 
0.0 -1.962000000000e+01 0.0 
0.0 -1.962000000000e+01 0.0 
0.0 -1.962000000000e+01 0.0 
0.0 -1.962000000000e+01 0.0 
0.0 -1.962000000000e+01 0.0 
0.0 -1.962000000000e+01 0.0 
0.0 -1.962000000000e+01 0.0 
0.0 -1.962000000000e+01 0.0 
0.0 -1.962000000000e+01 0.0 
0.0 -1.962000000000e+01 0.0 
0.0 -1.962000000000e+01 0.0 
0.0 -1.962000000000e+01 0.0 
0.0 -1.962000000000e+01 0.0 
0.0 -1.962000000000e+01 0.0 
0.0 -1.962000000000e+01 0.0 
0.0 -1.962000000000e+01 0.0 
0.0 -1.962000000000e+01 0.0 
0.0 -1.962000000000e+01 0.0 
0.0 -1.962000000000e+01 0.0 
0.0 -1.962000000000e+01 0.0 
0.0 -1.962000000000e+01 0.0 
0.0 -1.962000000000e+01 0.0 
0.0 -1.962000000000e+01 0.0 
0.0 -1.962000000000e+01 0.0 
0.0 -1.962000000000e+01 0.0 
0.0 -1.962000000000e+01 0.0 
0.0 -1.962000000000e+01 0.0 
0.0 -1.962000000000e+01 0.0 
0.0 -1.962000000000e+01 0.0 
0.0 -1.962000000000e+01 0.0 
0.0 -1.962000000000e+01 0.0 
0.0 -1.962000000000e+01 0.0 
0.0 -1.962000000000e+01 0.0 
0.0 -1.962000000000e+01 0.0 
0.0 -1.962000000000e+01 0.0 
0.0 -1.962000000000e+01 0.0 
0.0 -1.962000000000e+01 0.0 
0.0 -1.962000000000e+01 0.0 
0.0 -1.962000000000e+01 0.0 
0.0 -1.962000000000e+01 0.0 
0.0 -1.962000000000e+01 0.0 
0.0 -1.962000000000e+01 0.0 
0.0 -1.962000000000e+01 0.0 
0.0 -1.962000000000e+01 0.0 
0.0 -1.962000000000e+01 0.0 
0.0 -1.962000000000e+01 0.0 
0.0 -1.962000000000e+01 0.0 
0.0 -1.962000000000e+01 0.0 
0.0 -1.962000000000e+01 0.0 
0.0 -1.962000000000e+01 0.0 
0.0 -1.962000000000e+01 0.0 
0.0 -1.962000000000e+01 0.0 
0.0 -1.962000000000e+01 0.0 
0.0 -1.962000000000e+01 0.0 
0.0 -1.962000000000e+01 0.0 
0.0 -1.962000000000e+01 0.0 
0.0 -1.962000000000e+01 0.0 
0.0 -1.962000000000e+01 0.0 
0.0 -1.962000000000e+01 0.0 
0.0 -1.962000000000e+01 0.0 
0.0 -1.962000000000e+01 0.0 
0.0 -1.962000000000e+01 0.0 
0.0 -1.962000000000e+01 0.0 
0.0 -1.962000000000e+01 0.0 
0.0 -1.962000000000e+01 0.0 
0.0 -1.962000000000e+01 0.0 
0.0 -1.962000000000e+01 0.0 
0.0 -1.962000000000e+01 0.0 
0.0 -1.962000000000e+01 0.0 
0.0 -1.962000000000e+01 0.0 
0.0 -1.962000000000e+01 0.0 
0.0 -1.962000000000e+01 0.0 
0.0 -1.962000000000e+01 0.0 
0.0 -1.962000000000e+01 0.0 
0.0 -1.962000000000e+01 0.0 
0.0 -1.962000000000e+01 0.0 
0.0 -1.962000000000e+01 0.0 
0.0 -1.962000000000e+01 0.0 
0.0 -1.962000000000e+01 0.0 
0.0 -1.962000000000e+01 0.0 
0.0 -1.962000000000e+01 0.0 
0.0 -1.962000000000e+01 0.0 
0.0 -1.962000000000e+01 0.0 
0.0 -1.962000000000e+01 0.0 
0.0 -1.962000000000e+01 0.0 
0.0 -1.962000000000e+01 0.0 
0.0 -1.962000000000e+01 0.0 
0.0 -1.962000000000e+01 0.0 
0.0 -1.962000000000e+01 0.0 
0.0 -1.962000000000e+01 0.0 
0.0 -1.962000000000e+01 0.0 
0.0 -1.962000000000e+01 0.0 
0.0 -1.962000000000e+01 0.0 
0.0 -1.962000000000e+01 0.0 
0.0 -1.962000000000e+01 0.0 
0.0 -1.962000000000e+01 0.0 
0.0 -1.962000000000e+01 0.0 
0.0 -1.962000000000e+01 0.0 
0.0 -1.962000000000e+01 0.0 
0.0 -1.962000000000e+01 0.0 
0.0 -1.962000000000e+01 0.0 
0.0 -1.962000000000e+01 0.0 
0.0 -1.962000000000e+01 0.0 
0.0 -1.962000000000e+01 0.0 
0.0 -1.962000000000e+01 0.0 
0.0 -1.962000000000e+01 0.0 
0.0 -1.962000000000e+01 0.0 
0.0 -1.962000000000e+01 0.0 
0.0 -1.962000000000e+01 0.0 
0.0 -1.962000000000e+01 0.0 
0.0 -1.962000000000e+01 0.0 
0.0 -1.962000000000e+01 0.0 
0.0 -1.962000000000e+01 0.0 
0.0 -1.962000000000e+01 0.0 
0.0 -1.962000000000e+01 0.0 
0.0 -1.962000000000e+01 0.0 
0.0 -1.962000000000e+01 0.0 
0.0 -1.962000000000e+01 0.0 
0.0 -1.962000000000e+01 0.0 
0.0 -1.962000000000e+01 0.0 
0.0 -1.962000000000e+01 0.0 
0.0 -1.962000000000e+01 0.0 
0.0 -1.962000000000e+01 0.0 
0.0 -1.962000000000e+01 0.0 
0.0 -1.962000000000e+01 0.0 
0.0 -1.962000000000e+01 0.0 
0.0 -1.962000000000e+01 0.0 
0.0 -1.962000000000e+01 0.0 
0.0 -1.962000000000e+01 0.0 
0.0 -1.962000000000e+01 0.0 
0.0 -1.962000000000e+01 0.0 
0.0 -1.962000000000e+01 0.0 
0.0 -1.962000000000e+01 0.0 
0.0 -1.962000000000e+01 0.0 
0.0 -1.962000000000e+01 0.0 
0.0 -1.962000000000e+01 0.0 
0.0 -1.962000000000e+01 0.0 
0.0 -1.962000000000e+01 0.0 
0.0 -1.962000000000e+01 0.0 
0.0 -1.962000000000e+01 0.0 
0.0 -1.962000000000e+01 0.0 
0.0 -1.962000000000e+01 0.0 
0.0 -1.962000000000e+01 0.0 
0.0 -1.962000000000e+01 0.0 
0.0 -1.962000000000e+01 0.0 
0.0 -1.962000000000e+01 0.0 
0.0 -1.962000000000e+01 0.0 
0.0 -1.962000000000e+01 0.0 
0.0 -1.962000000000e+01 0.0 
0.0 -1.962000000000e+01 0.0 
0.0 -1.962000000000e+01 0.0 
0.0 -1.962000000000e+01 0.0 
0.0 -1.962000000000e+01 0.0 
0.0 -1.962000000000e+01 0.0 
0.0 -1.962000000000e+01 0.0 
0.0 -1.962000000000e+01 0.0 
0.0 -1.962000000000e+01 0.0 
0.0 -1.962000000000e+01 0.0 
0.0 -1.962000000000e+01 0.0 
0.0 -1.962000000000e+01 0.0 
0.0 -1.962000000000e+01 0.0 
0.0 -1.962000000000e+01 0.0 
0.0 -1.962000000000e+01 0.0 
0.0 -1.962000000000e+01 0.0 
0.0 -1.962000000000e+01 0.0 
0.0 -1.962000000000e+01 0.0 
0.0 -1.962000000000e+01 0.0 
0.0 -1.962000000000e+01 0.0 
0.0 -1.962000000000e+01 0.0 
0.0 -1.962000000000e+01 0.0 
0.0 -1.962000000000e+01 0.0 
0.0 -1.962000000000e+01 0.0 
0.0 -1.962000000000e+01 0.0 
0.0 -1.962000000000e+01 0.0 
0.0 -1.962000000000e+01 0.0 
0.0 -1.962000000000e+01 0.0 
0.0 -1.962000000000e+01 0.0 
0.0 -1.962000000000e+01 0.0 
0.0 -1.962000000000e+01 0.0 
0.0 -1.962000000000e+01 0.0 
0.0 -1.962000000000e+01 0.0 
0.0 -1.962000000000e+01 0.0 
0.0 -1.962000000000e+01 0.0 
0.0 -1.962000000000e+01 0.0 
0.0 -1.962000000000e+01 0.0 
0.0 -1.962000000000e+01 0.0 
0.0 -1.962000000000e+01 0.0 
0.0 -1.962000000000e+01 0.0 
0.0 -1.962000000000e+01 0.0 
0.0 -1.962000000000e+01 0.0 
0.0 -1.962000000000e+01 0.0 
0.0 -1.962000000000e+01 0.0 
0.0 -1.962000000000e+01 0.0 
0.0 -1.962000000000e+01 0.0 
0.0 -1.962000000000e+01 0.0 
0.0 -1.962000000000e+01 0.0 
0.0 -1.962000000000e+01 0.0 
0.0 -1.962000000000e+01 0.0 
0.0 -1.962000000000e+01 0.0 
0.0 -1.962000000000e+01 0.0 
0.0 -1.962000000000e+01 0.0 
0.0 -1.962000000000e+01 0.0 
0.0 -1.962000000000e+01 0.0 
0.0 -1.962000000000e+01 0.0 
0.0 -1.962000000000e+01 0.0 
0.0 -1.962000000000e+01 0.0 
0.0 -1.962000000000e+01 0.0 
0.0 -1.962000000000e+01 0.0 
0.0 -1.962000000000e+01 0.0 
0.0 -1.962000000000e+01 0.0 
0.0 -1.962000000000e+01 0.0 
0.0 -1.962000000000e+01 0.0 
0.0 -1.962000000000e+01 0.0 
0.0 -1.962000000000e+01 0.0 
0.0 -1.962000000000e+01 0.0 
0.0 -1.962000000000e+01 0.0 
0.0 -1.962000000000e+01 0.0 
0.0 -1.962000000000e+01 0.0 
0.0 -1.962000000000e+01 0.0 
0.0 -1.962000000000e+01 0.0 
0.0 -1.962000000000e+01 0.0 
0.0 -1.962000000000e+01 0.0 
0.0 -1.962000000000e+01 0.0 
0.0 -1.962000000000e+01 0.0 
0.0 -1.962000000000e+01 0.0 
0.0 -1.962000000000e+01 0.0 
0.0 -1.962000000000e+01 0.0 
0.0 -1.962000000000e+01 0.0 
0.0 -1.962000000000e+01 0.0 
0.0 -1.962000000000e+01 0.0 
0.0 -1.962000000000e+01 0.0 
0.0 -1.962000000000e+01 0.0 
0.0 -1.962000000000e+01 0.0 
0.0 -1.962000000000e+01 0.0 
0.0 -1.962000000000e+01 0.0 
0.0 -1.962000000000e+01 0.0 
0.0 -1.962000000000e+01 0.0 
0.0 -1.962000000000e+01 0.0 
0.0 -1.962000000000e+01 0.0 
0.0 -1.962000000000e+01 0.0 
0.0 -1.962000000000e+01 0.0 
0.0 -1.962000000000e+01 0.0 
0.0 -1.962000000000e+01 0.0 
0.0 -1.962000000000e+01 0.0 
0.0 -1.962000000000e+01 0.0 
0.0 -1.962000000000e+01 0.0 
0.0 -1.962000000000e+01 0.0 
0.0 -1.962000000000e+01 0.0 
0.0 -1.962000000000e+01 0.0 
0.0 -1.962000000000e+01 0.0 
0.0 -1.962000000000e+01 0.0 
0.0 -1.962000000000e+01 0.0 
0.0 -1.962000000000e+01 0.0 
0.0 -1.962000000000e+01 0.0 
0.0 -1.962000000000e+01 0.0 
0.0 -1.962000000000e+01 0.0 
0.0 -1.962000000000e+01 0.0 
0.0 -1.962000000000e+01 0.0 
0.0 -1.962000000000e+01 0.0 
0.0 -1.962000000000e+01 0.0 
0.0 -1.962000000000e+01 0.0 
0.0 -1.962000000000e+01 0.0 
0.0 -1.962000000000e+01 0.0 
0.0 -1.962000000000e+01 0.0 
0.0 -1.962000000000e+01 0.0 
0.0 -1.962000000000e+01 0.0 
0.0 -1.962000000000e+01 0.0 
0.0 -1.962000000000e+01 0.0 
0.0 -1.962000000000e+01 0.0 
0.0 -1.962000000000e+01 0.0 
0.0 -1.962000000000e+01 0.0 
0.0 -1.962000000000e+01 0.0 
0.0 -1.962000000000e+01 0.0 
0.0 -1.962000000000e+01 0.0 
0.0 -1.962000000000e+01 0.0 
0.0 -1.962000000000e+01 0.0 
0.0 -1.962000000000e+01 0.0 
0.0 -1.962000000000e+01 0.0 
0.0 -1.962000000000e+01 0.0 
0.0 -1.962000000000e+01 0.0 
0.0 -1.962000000000e+01 0.0 
0.0 -1.962000000000e+01 0.0 
0.0 -1.962000000000e+01 0.0 
0.0 -1.962000000000e+01 0.0 
0.0 -1.962000000000e+01 0.0 
0.0 -1.962000000000e+01 0.0 
0.0 -1.962000000000e+01 0.0 
0.0 -1.962000000000e+01 0.0 
0.0 -1.962000000000e+01 0.0 
0.0 -1.962000000000e+01 0.0 
0.0 -1.962000000000e+01 0.0 
0.0 -1.962000000000e+01 0.0 
0.0 -1.962000000000e+01 0.0 
0.0 -1.962000000000e+01 0.0 
0.0 -1.962000000000e+01 0.0 
0.0 -1.962000000000e+01 0.0 
0.0 -1.962000000000e+01 0.0 
0.0 -1.962000000000e+01 0.0 
0.0 -1.962000000000e+01 0.0 
0.0 -1.962000000000e+01 0.0 
0.0 -1.962000000000e+01 0.0 
0.0 -1.962000000000e+01 0.0 
0.0 -1.962000000000e+01 0.0 
0.0 -1.962000000000e+01 0.0 
0.0 -1.962000000000e+01 0.0 
0.0 -1.962000000000e+01 0.0 
0.0 -1.962000000000e+01 0.0 
0.0 -1.962000000000e+01 0.0 
0.0 -1.962000000000e+01 0.0 
0.0 -1.962000000000e+01 0.0 
0.0 -1.962000000000e+01 0.0 
0.0 -1.962000000000e+01 0.0 
0.0 -1.962000000000e+01 0.0 
0.0 -1.962000000000e+01 0.0 
0.0 -1.962000000000e+01 0.0 
0.0 -1.962000000000e+01 0.0 
0.0 -1.962000000000e+01 0.0 
0.0 -1.962000000000e+01 0.0 
0.0 -1.962000000000e+01 0.0 
0.0 -1.962000000000e+01 0.0 
0.0 -1.962000000000e+01 0.0 
0.0 -1.962000000000e+01 0.0 
0.0 -1.962000000000e+01 0.0 
0.0 -1.962000000000e+01 0.0 
0.0 -1.962000000000e+01 0.0 
0.0 -1.962000000000e+01 0.0 
0.0 -1.962000000000e+01 0.0 
0.0 -1.962000000000e+01 0.0 
0.0 -1.962000000000e+01 0.0 
0.0 -1.962000000000e+01 0.0 
0.0 -1.962000000000e+01 0.0 
0.0 -1.962000000000e+01 0.0 
0.0 -1.962000000000e+01 0.0 
0.0 -1.962000000000e+01 0.0 
0.0 -1.962000000000e+01 0.0 
0.0 -1.962000000000e+01 0.0 
0.0 -1.962000000000e+01 0.0 
0.0 -1.962000000000e+01 0.0 
0.0 -1.962000000000e+01 0.0 
0.0 -1.962000000000e+01 0.0 
0.0 -1.962000000000e+01 0.0 
0.0 -1.962000000000e+01 0.0 
0.0 -1.962000000000e+01 0.0 
0.0 -1.962000000000e+01 0.0 
0.0 -1.962000000000e+01 0.0 
0.0 -1.962000000000e+01 0.0 
0.0 -1.962000000000e+01 0.0 
0.0 -1.962000000000e+01 0.0 
0.0 -1.962000000000e+01 0.0 
0.0 -1.962000000000e+01 0.0 
0.0 -1.962000000000e+01 0.0 
0.0 -1.962000000000e+01 0.0 
0.0 -1.962000000000e+01 0.0 
0.0 -1.962000000000e+01 0.0 
0.0 -1.962000000000e+01 0.0 
0.0 -1.962000000000e+01 0.0 
0.0 -1.962000000000e+01 0.0 
0.0 -1.962000000000e+01 0.0 
0.0 -1.962000000000e+01 0.0 
0.0 -1.962000000000e+01 0.0 
0.0 -1.962000000000e+01 0.0 
0.0 -1.962000000000e+01 0.0 
0.0 -1.962000000000e+01 0.0 
0.0 -1.962000000000e+01 0.0 
0.0 -1.962000000000e+01 0.0 
0.0 -1.962000000000e+01 0.0 
0.0 -1.962000000000e+01 0.0 
0.0 -1.962000000000e+01 0.0 
0.0 -1.962000000000e+01 0.0 
0.0 -1.962000000000e+01 0.0 
0.0 -1.962000000000e+01 0.0 
0.0 -1.962000000000e+01 0.0 
0.0 -1.962000000000e+01 0.0 
0.0 -1.962000000000e+01 0.0 
0.0 -1.962000000000e+01 0.0 
0.0 -1.962000000000e+01 0.0 
0.0 -1.962000000000e+01 0.0 
0.0 -1.962000000000e+01 0.0 
0.0 -1.962000000000e+01 0.0 
0.0 -1.962000000000e+01 0.0 
0.0 -1.962000000000e+01 0.0 
0.0 -1.962000000000e+01 0.0 
0.0 -1.962000000000e+01 0.0 
0.0 -1.962000000000e+01 0.0 
0.0 -1.962000000000e+01 0.0 
0.0 -1.962000000000e+01 0.0 
0.0 -1.962000000000e+01 0.0 
0.0 -1.962000000000e+01 0.0 
0.0 -1.962000000000e+01 0.0 
0.0 -1.962000000000e+01 0.0 
0.0 -1.962000000000e+01 0.0 
0.0 -1.962000000000e+01 0.0 
0.0 -1.962000000000e+01 0.0 
0.0 -1.962000000000e+01 0.0 
0.0 -1.962000000000e+01 0.0 
0.0 -1.962000000000e+01 0.0 
0.0 -1.962000000000e+01 0.0 
0.0 -1.962000000000e+01 0.0 
0.0 -1.962000000000e+01 0.0 
0.0 -1.962000000000e+01 0.0 
0.0 -1.962000000000e+01 0.0 
0.0 -1.962000000000e+01 0.0 
0.0 -1.962000000000e+01 0.0 
0.0 -1.962000000000e+01 0.0 
0.0 -1.962000000000e+01 0.0 
0.0 -1.962000000000e+01 0.0 
0.0 -1.962000000000e+01 0.0 
0.0 -1.962000000000e+01 0.0 
0.0 -1.962000000000e+01 0.0 
0.0 -1.962000000000e+01 0.0 
0.0 -1.962000000000e+01 0.0 
0.0 -1.962000000000e+01 0.0 
0.0 -1.962000000000e+01 0.0 
0.0 -1.962000000000e+01 0.0 
0.0 -1.962000000000e+01 0.0 
0.0 -1.962000000000e+01 0.0 
0.0 -1.962000000000e+01 0.0 
0.0 -1.962000000000e+01 0.0 
0.0 -1.962000000000e+01 0.0 
0.0 -1.962000000000e+01 0.0 
0.0 -1.962000000000e+01 0.0 
0.0 -1.962000000000e+01 0.0 
0.0 -1.962000000000e+01 0.0 
0.0 -1.962000000000e+01 0.0 
0.0 -1.962000000000e+01 0.0 
0.0 -1.962000000000e+01 0.0 
0.0 -1.962000000000e+01 0.0 
0.0 -1.962000000000e+01 0.0 
0.0 -1.962000000000e+01 0.0 
0.0 -1.962000000000e+01 0.0 
0.0 -1.962000000000e+01 0.0 
0.0 -1.962000000000e+01 0.0 
0.0 -1.962000000000e+01 0.0 
0.0 -1.962000000000e+01 0.0 
0.0 -1.962000000000e+01 0.0 
0.0 -1.962000000000e+01 0.0 
0.0 -1.962000000000e+01 0.0 
0.0 -1.962000000000e+01 0.0 
0.0 -1.962000000000e+01 0.0 
0.0 -1.962000000000e+01 0.0 
0.0 -1.962000000000e+01 0.0 
0.0 -1.962000000000e+01 0.0 
0.0 -1.962000000000e+01 0.0 
0.0 -1.962000000000e+01 0.0 
0.0 -1.962000000000e+01 0.0 
0.0 -1.962000000000e+01 0.0 
0.0 -1.962000000000e+01 0.0 
0.0 -1.962000000000e+01 0.0 
0.0 -1.962000000000e+01 0.0 
0.0 -1.962000000000e+01 0.0 
0.0 -1.962000000000e+01 0.0 
0.0 -1.962000000000e+01 0.0 
0.0 -1.962000000000e+01 0.0 
0.0 -1.962000000000e+01 0.0 
0.0 -1.962000000000e+01 0.0 
0.0 -1.962000000000e+01 0.0 
0.0 -1.962000000000e+01 0.0 
0.0 -1.962000000000e+01 0.0 
0.0 -1.962000000000e+01 0.0 
0.0 -1.962000000000e+01 0.0 
0.0 -1.962000000000e+01 0.0 
0.0 -1.962000000000e+01 0.0 
0.0 -1.962000000000e+01 0.0 
0.0 -1.962000000000e+01 0.0 
0.0 -1.962000000000e+01 0.0 
0.0 -1.962000000000e+01 0.0 
0.0 -1.962000000000e+01 0.0 
0.0 -1.962000000000e+01 0.0 
0.0 -1.962000000000e+01 0.0 
0.0 -1.962000000000e+01 0.0 
0.0 -1.962000000000e+01 0.0 
0.0 -1.962000000000e+01 0.0 
0.0 -1.962000000000e+01 0.0 
0.0 -1.962000000000e+01 0.0 
0.0 -1.962000000000e+01 0.0 
0.0 -1.962000000000e+01 0.0 
0.0 -1.962000000000e+01 0.0 
0.0 -1.962000000000e+01 0.0 
0.0 -1.962000000000e+01 0.0 
0.0 -1.962000000000e+01 0.0 
0.0 -1.962000000000e+01 0.0 
0.0 -1.962000000000e+01 0.0 
0.0 -1.962000000000e+01 0.0 
0.0 -1.962000000000e+01 0.0 
0.0 -1.962000000000e+01 0.0 
0.0 -1.962000000000e+01 0.0 
0.0 -1.962000000000e+01 0.0 
0.0 -1.962000000000e+01 0.0 
0.0 -1.962000000000e+01 0.0 
0.0 -1.962000000000e+01 0.0 
0.0 -1.962000000000e+01 0.0 
0.0 -1.962000000000e+01 0.0 
0.0 -1.962000000000e+01 0.0 
0.0 -1.962000000000e+01 0.0 
0.0 -1.962000000000e+01 0.0 
0.0 -1.962000000000e+01 0.0 
0.0 -1.962000000000e+01 0.0 
0.0 -1.962000000000e+01 0.0 
0.0 -1.962000000000e+01 0.0 
0.0 -1.962000000000e+01 0.0 
0.0 -1.962000000000e+01 0.0 
0.0 -1.962000000000e+01 0.0 
0.0 -1.962000000000e+01 0.0 
0.0 -1.962000000000e+01 0.0 
0.0 -1.962000000000e+01 0.0 
0.0 -1.962000000000e+01 0.0 
0.0 -1.962000000000e+01 0.0 
0.0 -1.962000000000e+01 0.0 
0.0 -1.962000000000e+01 0.0 
0.0 -1.962000000000e+01 0.0 
0.0 -1.962000000000e+01 0.0 
0.0 -1.962000000000e+01 0.0 
0.0 -1.962000000000e+01 0.0 
0.0 -1.962000000000e+01 0.0 
0.0 -1.962000000000e+01 0.0 
0.0 -1.962000000000e+01 0.0 
0.0 -1.962000000000e+01 0.0 
0.0 -1.962000000000e+01 0.0 
0.0 -1.962000000000e+01 0.0 
0.0 -1.962000000000e+01 0.0 
0.0 -1.962000000000e+01 0.0 
0.0 -1.962000000000e+01 0.0 
0.0 -1.962000000000e+01 0.0 
0.0 -1.962000000000e+01 0.0 
0.0 -1.962000000000e+01 0.0 
0.0 -1.962000000000e+01 0.0 
0.0 -1.962000000000e+01 0.0 
0.0 -1.962000000000e+01 0.0 
0.0 -1.962000000000e+01 0.0 
0.0 -1.962000000000e+01 0.0 
0.0 -1.962000000000e+01 0.0 
0.0 -1.962000000000e+01 0.0 
0.0 -1.962000000000e+01 0.0 
0.0 -1.962000000000e+01 0.0 
0.0 -1.962000000000e+01 0.0 
0.0 -1.962000000000e+01 0.0 
0.0 -1.962000000000e+01 0.0 
0.0 -1.962000000000e+01 0.0 
0.0 -1.962000000000e+01 0.0 
0.0 -1.962000000000e+01 0.0 
0.0 -1.962000000000e+01 0.0 
0.0 -1.962000000000e+01 0.0 
0.0 -1.962000000000e+01 0.0 
0.0 -1.962000000000e+01 0.0 
0.0 -1.962000000000e+01 0.0 
0.0 -1.962000000000e+01 0.0 
0.0 -1.962000000000e+01 0.0 
0.0 -1.962000000000e+01 0.0 
0.0 -1.962000000000e+01 0.0 
0.0 -1.962000000000e+01 0.0 
0.0 -1.962000000000e+01 0.0 
0.0 -1.962000000000e+01 0.0 
0.0 -1.962000000000e+01 0.0 
0.0 -1.962000000000e+01 0.0 
0.0 -1.962000000000e+01 0.0 
0.0 -1.962000000000e+01 0.0 
0.0 -1.962000000000e+01 0.0 
0.0 -1.962000000000e+01 0.0 
0.0 -1.962000000000e+01 0.0 
0.0 -1.962000000000e+01 0.0 
0.0 -1.962000000000e+01 0.0 
0.0 -1.962000000000e+01 0.0 
0.0 -1.962000000000e+01 0.0 
0.0 -1.962000000000e+01 0.0 
0.0 -1.962000000000e+01 0.0 
0.0 -1.962000000000e+01 0.0 
0.0 -1.962000000000e+01 0.0 
0.0 -1.962000000000e+01 0.0 
0.0 -1.962000000000e+01 0.0 
0.0 -1.962000000000e+01 0.0 
0.0 -1.962000000000e+01 0.0 
0.0 -1.962000000000e+01 0.0 
0.0 -1.962000000000e+01 0.0 
0.0 -1.962000000000e+01 0.0 
0.0 -1.962000000000e+01 0.0 
0.0 -1.962000000000e+01 0.0 
0.0 -1.962000000000e+01 0.0 
0.0 -1.962000000000e+01 0.0 
0.0 -1.962000000000e+01 0.0 
0.0 -1.962000000000e+01 0.0 
0.0 -1.962000000000e+01 0.0 
0.0 -1.962000000000e+01 0.0 
0.0 -1.962000000000e+01 0.0 
0.0 -1.962000000000e+01 0.0 
0.0 -1.962000000000e+01 0.0 
0.0 -1.962000000000e+01 0.0 
0.0 -1.962000000000e+01 0.0 
0.0 -1.962000000000e+01 0.0 
0.0 -1.962000000000e+01 0.0 
0.0 -1.962000000000e+01 0.0 
0.0 -1.962000000000e+01 0.0 
0.0 -1.962000000000e+01 0.0 
0.0 -1.962000000000e+01 0.0 
0.0 -1.962000000000e+01 0.0 
0.0 -1.962000000000e+01 0.0 
0.0 -1.962000000000e+01 0.0 
0.0 -1.962000000000e+01 0.0 
0.0 -1.962000000000e+01 0.0 
0.0 -1.962000000000e+01 0.0 
0.0 -1.962000000000e+01 0.0 
0.0 -1.962000000000e+01 0.0 
0.0 -1.962000000000e+01 0.0 
0.0 -1.962000000000e+01 0.0 
0.0 -1.962000000000e+01 0.0 
0.0 -1.962000000000e+01 0.0 
0.0 -1.962000000000e+01 0.0 
0.0 -1.962000000000e+01 0.0 
0.0 -1.962000000000e+01 0.0 
0.0 -1.962000000000e+01 0.0 
0.0 -1.962000000000e+01 0.0 
0.0 -1.962000000000e+01 0.0 
0.0 -1.962000000000e+01 0.0 
0.0 -1.962000000000e+01 0.0 
0.0 -1.962000000000e+01 0.0 
0.0 -1.962000000000e+01 0.0 
0.0 -1.962000000000e+01 0.0 
0.0 -1.962000000000e+01 0.0 
0.0 -1.962000000000e+01 0.0 
0.0 -1.962000000000e+01 0.0 
0.0 -1.962000000000e+01 0.0 
0.0 -1.962000000000e+01 0.0 
0.0 -1.962000000000e+01 0.0 
0.0 -1.962000000000e+01 0.0 
0.0 -1.962000000000e+01 0.0 
0.0 -1.962000000000e+01 0.0 
0.0 -1.962000000000e+01 0.0 
0.0 -1.962000000000e+01 0.0 
0.0 -1.962000000000e+01 0.0 
0.0 -1.962000000000e+01 0.0 
0.0 -1.962000000000e+01 0.0 
0.0 -1.962000000000e+01 0.0 
0.0 -1.962000000000e+01 0.0 
0.0 -1.962000000000e+01 0.0 
0.0 -1.962000000000e+01 0.0 
0.0 -1.962000000000e+01 0.0 
0.0 -1.962000000000e+01 0.0 
0.0 -1.962000000000e+01 0.0 
0.0 -1.962000000000e+01 0.0 
0.0 -1.962000000000e+01 0.0 
0.0 -1.962000000000e+01 0.0 
0.0 -1.962000000000e+01 0.0 
0.0 -1.962000000000e+01 0.0 
0.0 -1.962000000000e+01 0.0 
0.0 -1.962000000000e+01 0.0 
0.0 -1.962000000000e+01 0.0 
0.0 -1.962000000000e+01 0.0 
0.0 -1.962000000000e+01 0.0 
0.0 -1.962000000000e+01 0.0 
0.0 -1.962000000000e+01 0.0 
0.0 -1.962000000000e+01 0.0 
0.0 -1.962000000000e+01 0.0 
0.0 -1.962000000000e+01 0.0 
0.0 -1.962000000000e+01 0.0 
0.0 -1.962000000000e+01 0.0 
0.0 -1.962000000000e+01 0.0 
0.0 -1.962000000000e+01 0.0 
0.0 -1.962000000000e+01 0.0 
0.0 -1.962000000000e+01 0.0 
0.0 -1.962000000000e+01 0.0 
0.0 -1.962000000000e+01 0.0 
0.0 -1.962000000000e+01 0.0 
0.0 -1.962000000000e+01 0.0 
0.0 -1.962000000000e+01 0.0 
0.0 -1.962000000000e+01 0.0 
0.0 -1.962000000000e+01 0.0 
0.0 -1.962000000000e+01 0.0 
0.0 -1.962000000000e+01 0.0 
0.0 -1.962000000000e+01 0.0 
0.0 -1.962000000000e+01 0.0 
0.0 -1.962000000000e+01 0.0 
0.0 -1.962000000000e+01 0.0 
0.0 -1.962000000000e+01 0.0 
0.0 -1.962000000000e+01 0.0 
0.0 -1.962000000000e+01 0.0 
0.0 -1.962000000000e+01 0.0 
0.0 -1.962000000000e+01 0.0 
0.0 -1.962000000000e+01 0.0 
0.0 -1.962000000000e+01 0.0 
0.0 -1.962000000000e+01 0.0 
0.0 -1.962000000000e+01 0.0 
0.0 -1.962000000000e+01 0.0 
0.0 -1.962000000000e+01 0.0 
0.0 -1.962000000000e+01 0.0 
0.0 -1.962000000000e+01 0.0 
0.0 -1.962000000000e+01 0.0 
0.0 -1.962000000000e+01 0.0 
0.0 -1.962000000000e+01 0.0 
0.0 -1.962000000000e+01 0.0 
0.0 -1.962000000000e+01 0.0 
0.0 -1.962000000000e+01 0.0 
0.0 -1.962000000000e+01 0.0 
0.0 -1.962000000000e+01 0.0 
0.0 -1.962000000000e+01 0.0 
0.0 -1.962000000000e+01 0.0 
0.0 -1.962000000000e+01 0.0 
0.0 -1.962000000000e+01 0.0 
0.0 -1.962000000000e+01 0.0 
0.0 -1.962000000000e+01 0.0 
0.0 -1.962000000000e+01 0.0 
0.0 -1.962000000000e+01 0.0 
0.0 -1.962000000000e+01 0.0 
0.0 -1.962000000000e+01 0.0 
0.0 -1.962000000000e+01 0.0 
0.0 -1.962000000000e+01 0.0 
0.0 -1.962000000000e+01 0.0 
0.0 -1.962000000000e+01 0.0 
0.0 -1.962000000000e+01 0.0 
0.0 -1.962000000000e+01 0.0 
0.0 -1.962000000000e+01 0.0 
0.0 -1.962000000000e+01 0.0 
0.0 -1.962000000000e+01 0.0 
0.0 -1.962000000000e+01 0.0 
0.0 -1.962000000000e+01 0.0 
0.0 -1.962000000000e+01 0.0 
0.0 -1.962000000000e+01 0.0 
0.0 -1.962000000000e+01 0.0 
0.0 -1.962000000000e+01 0.0 
0.0 -1.962000000000e+01 0.0 
0.0 -1.962000000000e+01 0.0 
0.0 -1.962000000000e+01 0.0 
0.0 -1.962000000000e+01 0.0 
0.0 -1.962000000000e+01 0.0 
0.0 -1.962000000000e+01 0.0 
0.0 -1.962000000000e+01 0.0 
0.0 -1.962000000000e+01 0.0 
0.0 -1.962000000000e+01 0.0 
0.0 -1.962000000000e+01 0.0 
0.0 -1.962000000000e+01 0.0 
0.0 -1.962000000000e+01 0.0 
0.0 -1.962000000000e+01 0.0 
0.0 -1.962000000000e+01 0.0 
0.0 -1.962000000000e+01 0.0 
0.0 -1.962000000000e+01 0.0 
0.0 -1.962000000000e+01 0.0 
0.0 -1.962000000000e+01 0.0 
0.0 -1.962000000000e+01 0.0 
0.0 -1.962000000000e+01 0.0 
0.0 -1.962000000000e+01 0.0 
0.0 -1.962000000000e+01 0.0 
0.0 -1.962000000000e+01 0.0 
0.0 -1.962000000000e+01 0.0 
0.0 -1.962000000000e+01 0.0 
0.0 -1.962000000000e+01 0.0 
0.0 -1.962000000000e+01 0.0 
0.0 -1.962000000000e+01 0.0 
0.0 -1.962000000000e+01 0.0 
0.0 -1.962000000000e+01 0.0 
0.0 -1.962000000000e+01 0.0 
0.0 -1.962000000000e+01 0.0 
0.0 -1.962000000000e+01 0.0 
0.0 -1.962000000000e+01 0.0 
0.0 -1.962000000000e+01 0.0 
0.0 -1.962000000000e+01 0.0 
0.0 -1.962000000000e+01 0.0 
0.0 -1.962000000000e+01 0.0 
0.0 -1.962000000000e+01 0.0 
0.0 -1.962000000000e+01 0.0 
0.0 -1.962000000000e+01 0.0 
0.0 -1.962000000000e+01 0.0 
0.0 -1.962000000000e+01 0.0 
0.0 -1.962000000000e+01 0.0 
0.0 -1.962000000000e+01 0.0 
0.0 -1.962000000000e+01 0.0 
0.0 -1.962000000000e+01 0.0 
0.0 -1.962000000000e+01 0.0 
0.0 -1.962000000000e+01 0.0 
0.0 -1.962000000000e+01 0.0 
0.0 -1.962000000000e+01 0.0 
0.0 -1.962000000000e+01 0.0 
0.0 -1.962000000000e+01 0.0 
0.0 -1.962000000000e+01 0.0 
0.0 -1.962000000000e+01 0.0 
0.0 -1.962000000000e+01 0.0 
0.0 -1.962000000000e+01 0.0 
0.0 -1.962000000000e+01 0.0 
0.0 -1.962000000000e+01 0.0 
0.0 -1.962000000000e+01 0.0 
0.0 -1.962000000000e+01 0.0 
0.0 -1.962000000000e+01 0.0 
0.0 -1.962000000000e+01 0.0 
0.0 -1.962000000000e+01 0.0 
0.0 -1.962000000000e+01 0.0 
0.0 -1.962000000000e+01 0.0 
0.0 -1.962000000000e+01 0.0 
0.0 -1.962000000000e+01 0.0 
0.0 -1.962000000000e+01 0.0 
0.0 -1.962000000000e+01 0.0 
0.0 -1.962000000000e+01 0.0 
0.0 -1.962000000000e+01 0.0 
0.0 -1.962000000000e+01 0.0 
0.0 -1.962000000000e+01 0.0 
0.0 -1.962000000000e+01 0.0 
0.0 -1.962000000000e+01 0.0 
0.0 -1.962000000000e+01 0.0 
0.0 -1.962000000000e+01 0.0 
0.0 -1.962000000000e+01 0.0 
0.0 -1.962000000000e+01 0.0 
0.0 -1.962000000000e+01 0.0 
0.0 -1.962000000000e+01 0.0 
0.0 -1.962000000000e+01 0.0 
0.0 -1.962000000000e+01 0.0 
0.0 -1.962000000000e+01 0.0 
0.0 -1.962000000000e+01 0.0 
0.0 -1.962000000000e+01 0.0 
0.0 -1.962000000000e+01 0.0 
0.0 -1.962000000000e+01 0.0 
0.0 -1.962000000000e+01 0.0 
0.0 -1.962000000000e+01 0.0 
0.0 -1.962000000000e+01 0.0 
0.0 -1.962000000000e+01 0.0 
0.0 -1.962000000000e+01 0.0 
0.0 -1.962000000000e+01 0.0 
0.0 -1.962000000000e+01 0.0 
0.0 -1.962000000000e+01 0.0 
0.0 -1.962000000000e+01 0.0 
0.0 -1.962000000000e+01 0.0 
0.0 -1.962000000000e+01 0.0 
0.0 -1.962000000000e+01 0.0 
0.0 -1.962000000000e+01 0.0 
0.0 -1.962000000000e+01 0.0 
0.0 -1.962000000000e+01 0.0 
0.0 -1.962000000000e+01 0.0 
0.0 -1.962000000000e+01 0.0 
0.0 -1.962000000000e+01 0.0 
0.0 -1.962000000000e+01 0.0 
0.0 -1.962000000000e+01 0.0 
0.0 -1.962000000000e+01 0.0 
0.0 -1.962000000000e+01 0.0 
0.0 -1.962000000000e+01 0.0 
0.0 -1.962000000000e+01 0.0 
0.0 -1.962000000000e+01 0.0 
0.0 -1.962000000000e+01 0.0 
0.0 -1.962000000000e+01 0.0 
0.0 -1.962000000000e+01 0.0 
0.0 -1.962000000000e+01 0.0 
0.0 -1.962000000000e+01 0.0 
0.0 -1.962000000000e+01 0.0 
0.0 -1.962000000000e+01 0.0 
0.0 -1.962000000000e+01 0.0 
0.0 -1.962000000000e+01 0.0 
0.0 -1.962000000000e+01 0.0 
0.0 -1.962000000000e+01 0.0 
0.0 -1.962000000000e+01 0.0 
0.0 -1.962000000000e+01 0.0 
0.0 -1.962000000000e+01 0.0 
0.0 -1.962000000000e+01 0.0 
0.0 -1.962000000000e+01 0.0 
0.0 -1.962000000000e+01 0.0 
0.0 -1.962000000000e+01 0.0 
0.0 -1.962000000000e+01 0.0 
0.0 -1.962000000000e+01 0.0 
0.0 -1.962000000000e+01 0.0 
0.0 -1.962000000000e+01 0.0 
0.0 -1.962000000000e+01 0.0 
0.0 -1.962000000000e+01 0.0 
0.0 -1.962000000000e+01 0.0 
0.0 -1.962000000000e+01 0.0 
0.0 -1.962000000000e+01 0.0 
0.0 -1.962000000000e+01 0.0 
0.0 -1.962000000000e+01 0.0 
0.0 -1.962000000000e+01 0.0 
0.0 -1.962000000000e+01 0.0 
0.0 -1.962000000000e+01 0.0 
0.0 -1.962000000000e+01 0.0 
0.0 -1.962000000000e+01 0.0 
0.0 -1.962000000000e+01 0.0 
0.0 -1.962000000000e+01 0.0 
0.0 -1.962000000000e+01 0.0 
0.0 -1.962000000000e+01 0.0 
0.0 -1.962000000000e+01 0.0 
0.0 -1.962000000000e+01 0.0 
0.0 -1.962000000000e+01 0.0 
0.0 -1.962000000000e+01 0.0 
0.0 -1.962000000000e+01 0.0 

VECTORS node_rhside_materi_fixed float
-5.772208023567e+00 0.0 0.0 
5.460739344522e+01 0.0 0.0 
-8.397226192562e+01 -2.005184614437e+02 0.0 
6.254907877346e+01 -1.497783367078e+02 0.0 
-9.840129733581e+00 0.0 0.0 
-1.288087955057e+01 0.0 0.0 
-1.547088564409e+01 0.0 0.0 
-2.645339065698e+01 0.0 0.0 
-4.205410495527e+01 0.0 0.0 
-5.580460629581e+01 0.0 0.0 
-6.798964426259e+01 0.0 0.0 
-7.871557972102e+01 0.0 0.0 
-8.792939282516e+01 0.0 0.0 
-9.606529090660e+01 0.0 0.0 
-1.034396593537e+02 0.0 0.0 
-1.099347923635e+02 0.0 0.0 
-1.156728350632e+02 0.0 0.0 
-1.213912386252e+02 0.0 0.0 
-1.266489979440e+02 0.0 0.0 
-1.335707463599e+02 0.0 0.0 
-1.427157103056e+02 0.0 0.0 
-1.520667101097e+02 0.0 0.0 
-1.619254948843e+02 0.0 0.0 
6.965851414348e-01 -2.983875201364e+02 0.0 
1.166652756618e+00 -2.996991698360e+02 0.0 
3.615228226961e+00 -2.989392473166e+02 0.0 
2.535541942373e+00 -2.992244227734e+02 0.0 
4.761848254076e+00 -3.002240481131e+02 0.0 
5.523787705280e+00 -2.998657282679e+02 0.0 
6.287709799187e+00 -3.009148849144e+02 0.0 
7.453619513454e+00 -3.019131625967e+02 0.0 
9.649682481144e+00 -3.019598661616e+02 0.0 
9.027276371889e+00 -3.030539581812e+02 0.0 
1.166182448118e+01 -3.051020080346e+02 0.0 
1.291944633447e+01 -3.056473015471e+02 0.0 
1.409563428216e+01 -3.080830375377e+02 0.0 
1.543833666545e+01 -3.096833799774e+02 0.0 
1.710306831475e+01 -3.119261835915e+02 0.0 
1.820634229035e+01 -3.150107830399e+02 0.0 
2.055677570576e+01 -3.178939099147e+02 0.0 
2.175771997936e+01 -3.213837294267e+02 0.0 
2.311891328350e+01 -3.250411089417e+02 0.0 
2.419676522312e+01 -3.287401598916e+02 0.0 
2.471050221793e+01 -3.330573627629e+02 0.0 
2.587640702433e+01 -3.379485221726e+02 0.0 
2.619652351985e+01 -3.424425906242e+02 0.0 
2.648088108628e+01 -3.471750205771e+02 0.0 
2.644627847545e+01 -3.521757768917e+02 0.0 
2.598279324614e+01 -3.567184596324e+02 0.0 
2.537428804912e+01 -3.611648465731e+02 0.0 
2.449727318252e+01 -3.656547087598e+02 0.0 
2.360516985635e+01 -3.700325775885e+02 0.0 
2.248637809974e+01 -3.738418578090e+02 0.0 
2.102842005526e+01 -3.773701012407e+02 0.0 
1.972268431660e+01 -3.814806166967e+02 0.0 
1.831015113590e+01 -3.843908854903e+02 0.0 
1.680411411694e+01 -3.875269074792e+02 0.0 
1.508337882296e+01 -3.901427217997e+02 0.0 
1.354523974619e+01 -3.924388446370e+02 0.0 
1.194987663015e+01 -3.944410221152e+02 0.0 
1.035882471971e+01 -3.960611915813e+02 0.0 
8.964239371427e+00 -3.972913135265e+02 0.0 
7.668335979663e+00 -3.986309893430e+02 0.0 
6.454704138114e+00 -3.991580312925e+02 0.0 
5.393386453275e+00 -3.995874454683e+02 0.0 
4.436245345349e+00 -3.997781315706e+02 0.0 
3.608530048801e+00 -4.007758939166e+02 0.0 
2.699986068734e+00 -4.001330233696e+02 0.0 
2.024870083342e+00 -4.009058382480e+02 0.0 
1.854163944712e+00 -4.004035103624e+02 0.0 
9.426197667348e-01 -4.006411082840e+02 0.0 
4.816219068915e-01 -4.005152918357e+02 0.0 
6.237887215641e+01 0.0 0.0 
7.075502438454e+01 0.0 0.0 
7.853097715032e+01 0.0 0.0 
8.598033609170e+01 0.0 0.0 
9.336757436518e+01 0.0 0.0 
1.009271275290e+02 0.0 0.0 
1.078326093525e+02 0.0 0.0 
1.141980834602e+02 0.0 0.0 
1.218065601414e+02 0.0 0.0 
0.0 0.0 0.0 
0.0 0.0 0.0 
0.0 0.0 0.0 
0.0 0.0 0.0 
0.0 0.0 0.0 
0.0 0.0 0.0 
0.0 0.0 0.0 
0.0 0.0 0.0 
0.0 0.0 0.0 
0.0 0.0 0.0 
0.0 0.0 0.0 
8.020364936545e+00 0.0 0.0 
2.191016177086e+01 0.0 0.0 
2.994375630328e+01 0.0 0.0 
3.822203724526e+01 0.0 0.0 
4.652395624325e+01 0.0 0.0 
0.0 0.0 0.0 
0.0 0.0 0.0 
0.0 0.0 0.0 
0.0 0.0 0.0 
0.0 0.0 0.0 
0.0 0.0 0.0 
0.0 0.0 0.0 
0.0 0.0 0.0 
0.0 0.0 0.0 
0.0 0.0 0.0 
0.0 0.0 0.0 
0.0 0.0 0.0 
0.0 0.0 0.0 
0.0 0.0 0.0 
0.0 0.0 0.0 
0.0 0.0 0.0 
0.0 0.0 0.0 
0.0 0.0 0.0 
0.0 0.0 0.0 
0.0 0.0 0.0 
0.0 0.0 0.0 
0.0 0.0 0.0 
0.0 0.0 0.0 
0.0 0.0 0.0 
0.0 0.0 0.0 
0.0 0.0 0.0 
0.0 0.0 0.0 
0.0 0.0 0.0 
0.0 0.0 0.0 
0.0 0.0 0.0 
0.0 0.0 0.0 
0.0 0.0 0.0 
0.0 0.0 0.0 
0.0 0.0 0.0 
0.0 0.0 0.0 
0.0 0.0 0.0 
0.0 0.0 0.0 
0.0 0.0 0.0 
0.0 0.0 0.0 
0.0 0.0 0.0 
0.0 0.0 0.0 
0.0 0.0 0.0 
0.0 0.0 0.0 
0.0 0.0 0.0 
0.0 0.0 0.0 
0.0 0.0 0.0 
0.0 0.0 0.0 
0.0 0.0 0.0 
0.0 0.0 0.0 
0.0 0.0 0.0 
0.0 0.0 0.0 
0.0 0.0 0.0 
0.0 0.0 0.0 
0.0 0.0 0.0 
0.0 0.0 0.0 
0.0 0.0 0.0 
0.0 0.0 0.0 
0.0 0.0 0.0 
0.0 0.0 0.0 
0.0 0.0 0.0 
0.0 0.0 0.0 
0.0 0.0 0.0 
0.0 0.0 0.0 
0.0 0.0 0.0 
0.0 0.0 0.0 
0.0 0.0 0.0 
0.0 0.0 0.0 
0.0 0.0 0.0 
0.0 0.0 0.0 
0.0 0.0 0.0 
0.0 0.0 0.0 
0.0 0.0 0.0 
0.0 0.0 0.0 
0.0 0.0 0.0 
0.0 0.0 0.0 
0.0 0.0 0.0 
0.0 0.0 0.0 
0.0 0.0 0.0 
0.0 0.0 0.0 
0.0 0.0 0.0 
0.0 0.0 0.0 
0.0 0.0 0.0 
0.0 0.0 0.0 
0.0 0.0 0.0 
0.0 0.0 0.0 
0.0 0.0 0.0 
0.0 0.0 0.0 
0.0 0.0 0.0 
0.0 0.0 0.0 
0.0 0.0 0.0 
0.0 0.0 0.0 
0.0 0.0 0.0 
0.0 0.0 0.0 
0.0 0.0 0.0 
0.0 0.0 0.0 
0.0 0.0 0.0 
0.0 0.0 0.0 
0.0 0.0 0.0 
0.0 0.0 0.0 
0.0 0.0 0.0 
0.0 0.0 0.0 
0.0 0.0 0.0 
0.0 0.0 0.0 
0.0 0.0 0.0 
0.0 0.0 0.0 
0.0 0.0 0.0 
0.0 0.0 0.0 
0.0 0.0 0.0 
0.0 0.0 0.0 
0.0 0.0 0.0 
0.0 0.0 0.0 
0.0 0.0 0.0 
0.0 0.0 0.0 
0.0 0.0 0.0 
0.0 0.0 0.0 
0.0 0.0 0.0 
0.0 0.0 0.0 
0.0 0.0 0.0 
0.0 0.0 0.0 
0.0 0.0 0.0 
0.0 0.0 0.0 
0.0 0.0 0.0 
0.0 0.0 0.0 
0.0 0.0 0.0 
0.0 0.0 0.0 
0.0 0.0 0.0 
0.0 0.0 0.0 
0.0 0.0 0.0 
0.0 0.0 0.0 
0.0 0.0 0.0 
0.0 0.0 0.0 
0.0 0.0 0.0 
0.0 0.0 0.0 
0.0 0.0 0.0 
0.0 0.0 0.0 
0.0 0.0 0.0 
0.0 0.0 0.0 
0.0 0.0 0.0 
0.0 0.0 0.0 
0.0 0.0 0.0 
0.0 0.0 0.0 
0.0 0.0 0.0 
0.0 0.0 0.0 
0.0 0.0 0.0 
0.0 0.0 0.0 
0.0 0.0 0.0 
0.0 0.0 0.0 
0.0 0.0 0.0 
0.0 0.0 0.0 
0.0 0.0 0.0 
0.0 0.0 0.0 
0.0 0.0 0.0 
0.0 0.0 0.0 
0.0 0.0 0.0 
0.0 0.0 0.0 
0.0 0.0 0.0 
0.0 0.0 0.0 
0.0 0.0 0.0 
0.0 0.0 0.0 
0.0 0.0 0.0 
0.0 0.0 0.0 
0.0 0.0 0.0 
0.0 0.0 0.0 
0.0 0.0 0.0 
0.0 0.0 0.0 
0.0 0.0 0.0 
0.0 0.0 0.0 
0.0 0.0 0.0 
0.0 0.0 0.0 
0.0 0.0 0.0 
0.0 0.0 0.0 
0.0 0.0 0.0 
0.0 0.0 0.0 
0.0 0.0 0.0 
0.0 0.0 0.0 
0.0 0.0 0.0 
0.0 0.0 0.0 
0.0 0.0 0.0 
0.0 0.0 0.0 
0.0 0.0 0.0 
0.0 0.0 0.0 
0.0 0.0 0.0 
0.0 0.0 0.0 
0.0 0.0 0.0 
0.0 0.0 0.0 
0.0 0.0 0.0 
0.0 0.0 0.0 
0.0 0.0 0.0 
0.0 0.0 0.0 
0.0 0.0 0.0 
0.0 0.0 0.0 
0.0 0.0 0.0 
0.0 0.0 0.0 
0.0 0.0 0.0 
0.0 0.0 0.0 
0.0 0.0 0.0 
0.0 0.0 0.0 
0.0 0.0 0.0 
0.0 0.0 0.0 
0.0 0.0 0.0 
0.0 0.0 0.0 
0.0 0.0 0.0 
0.0 0.0 0.0 
0.0 0.0 0.0 
0.0 0.0 0.0 
0.0 0.0 0.0 
0.0 0.0 0.0 
0.0 0.0 0.0 
0.0 0.0 0.0 
0.0 0.0 0.0 
0.0 0.0 0.0 
0.0 0.0 0.0 
0.0 0.0 0.0 
0.0 0.0 0.0 
0.0 0.0 0.0 
0.0 0.0 0.0 
0.0 0.0 0.0 
0.0 0.0 0.0 
0.0 0.0 0.0 
0.0 0.0 0.0 
0.0 0.0 0.0 
0.0 0.0 0.0 
0.0 0.0 0.0 
0.0 0.0 0.0 
0.0 0.0 0.0 
0.0 0.0 0.0 
0.0 0.0 0.0 
0.0 0.0 0.0 
0.0 0.0 0.0 
0.0 0.0 0.0 
0.0 0.0 0.0 
0.0 0.0 0.0 
0.0 0.0 0.0 
0.0 0.0 0.0 
0.0 0.0 0.0 
0.0 0.0 0.0 
0.0 0.0 0.0 
0.0 0.0 0.0 
0.0 0.0 0.0 
0.0 0.0 0.0 
0.0 0.0 0.0 
0.0 0.0 0.0 
0.0 0.0 0.0 
0.0 0.0 0.0 
0.0 0.0 0.0 
0.0 0.0 0.0 
0.0 0.0 0.0 
0.0 0.0 0.0 
0.0 0.0 0.0 
0.0 0.0 0.0 
0.0 0.0 0.0 
0.0 0.0 0.0 
0.0 0.0 0.0 
0.0 0.0 0.0 
0.0 0.0 0.0 
0.0 0.0 0.0 
0.0 0.0 0.0 
0.0 0.0 0.0 
0.0 0.0 0.0 
0.0 0.0 0.0 
0.0 0.0 0.0 
0.0 0.0 0.0 
0.0 0.0 0.0 
0.0 0.0 0.0 
0.0 0.0 0.0 
0.0 0.0 0.0 
0.0 0.0 0.0 
0.0 0.0 0.0 
0.0 0.0 0.0 
0.0 0.0 0.0 
0.0 0.0 0.0 
0.0 0.0 0.0 
0.0 0.0 0.0 
0.0 0.0 0.0 
0.0 0.0 0.0 
0.0 0.0 0.0 
0.0 0.0 0.0 
0.0 0.0 0.0 
0.0 0.0 0.0 
0.0 0.0 0.0 
0.0 0.0 0.0 
0.0 0.0 0.0 
0.0 0.0 0.0 
0.0 0.0 0.0 
0.0 0.0 0.0 
0.0 0.0 0.0 
0.0 0.0 0.0 
0.0 0.0 0.0 
0.0 0.0 0.0 
0.0 0.0 0.0 
0.0 0.0 0.0 
0.0 0.0 0.0 
0.0 0.0 0.0 
0.0 0.0 0.0 
0.0 0.0 0.0 
0.0 0.0 0.0 
0.0 0.0 0.0 
0.0 0.0 0.0 
0.0 0.0 0.0 
0.0 0.0 0.0 
0.0 0.0 0.0 
0.0 0.0 0.0 
0.0 0.0 0.0 
0.0 0.0 0.0 
0.0 0.0 0.0 
0.0 0.0 0.0 
0.0 0.0 0.0 
0.0 0.0 0.0 
0.0 0.0 0.0 
0.0 0.0 0.0 
0.0 0.0 0.0 
0.0 0.0 0.0 
0.0 0.0 0.0 
0.0 0.0 0.0 
0.0 0.0 0.0 
0.0 0.0 0.0 
0.0 0.0 0.0 
0.0 0.0 0.0 
0.0 0.0 0.0 
0.0 0.0 0.0 
0.0 0.0 0.0 
0.0 0.0 0.0 
0.0 0.0 0.0 
0.0 0.0 0.0 
0.0 0.0 0.0 
0.0 0.0 0.0 
0.0 0.0 0.0 
0.0 0.0 0.0 
0.0 0.0 0.0 
0.0 0.0 0.0 
0.0 0.0 0.0 
0.0 0.0 0.0 
0.0 0.0 0.0 
0.0 0.0 0.0 
0.0 0.0 0.0 
0.0 0.0 0.0 
0.0 0.0 0.0 
0.0 0.0 0.0 
0.0 0.0 0.0 
0.0 0.0 0.0 
0.0 0.0 0.0 
0.0 0.0 0.0 
0.0 0.0 0.0 
0.0 0.0 0.0 
0.0 0.0 0.0 
0.0 0.0 0.0 
0.0 0.0 0.0 
0.0 0.0 0.0 
0.0 0.0 0.0 
0.0 0.0 0.0 
0.0 0.0 0.0 
0.0 0.0 0.0 
0.0 0.0 0.0 
0.0 0.0 0.0 
0.0 0.0 0.0 
0.0 0.0 0.0 
0.0 0.0 0.0 
0.0 0.0 0.0 
0.0 0.0 0.0 
0.0 0.0 0.0 
0.0 0.0 0.0 
0.0 0.0 0.0 
0.0 0.0 0.0 
0.0 0.0 0.0 
0.0 0.0 0.0 
0.0 0.0 0.0 
0.0 0.0 0.0 
0.0 0.0 0.0 
0.0 0.0 0.0 
0.0 0.0 0.0 
0.0 0.0 0.0 
0.0 0.0 0.0 
0.0 0.0 0.0 
0.0 0.0 0.0 
0.0 0.0 0.0 
0.0 0.0 0.0 
0.0 0.0 0.0 
0.0 0.0 0.0 
0.0 0.0 0.0 
0.0 0.0 0.0 
0.0 0.0 0.0 
0.0 0.0 0.0 
0.0 0.0 0.0 
0.0 0.0 0.0 
0.0 0.0 0.0 
0.0 0.0 0.0 
0.0 0.0 0.0 
0.0 0.0 0.0 
0.0 0.0 0.0 
0.0 0.0 0.0 
0.0 0.0 0.0 
0.0 0.0 0.0 
0.0 0.0 0.0 
0.0 0.0 0.0 
0.0 0.0 0.0 
0.0 0.0 0.0 
0.0 0.0 0.0 
0.0 0.0 0.0 
0.0 0.0 0.0 
0.0 0.0 0.0 
0.0 0.0 0.0 
0.0 0.0 0.0 
0.0 0.0 0.0 
0.0 0.0 0.0 
0.0 0.0 0.0 
0.0 0.0 0.0 
0.0 0.0 0.0 
0.0 0.0 0.0 
0.0 0.0 0.0 
0.0 0.0 0.0 
0.0 0.0 0.0 
0.0 0.0 0.0 
0.0 0.0 0.0 
0.0 0.0 0.0 
0.0 0.0 0.0 
0.0 0.0 0.0 
0.0 0.0 0.0 
0.0 0.0 0.0 
0.0 0.0 0.0 
0.0 0.0 0.0 
0.0 0.0 0.0 
0.0 0.0 0.0 
0.0 0.0 0.0 
0.0 0.0 0.0 
0.0 0.0 0.0 
0.0 0.0 0.0 
0.0 0.0 0.0 
0.0 0.0 0.0 
0.0 0.0 0.0 
0.0 0.0 0.0 
0.0 0.0 0.0 
0.0 0.0 0.0 
0.0 0.0 0.0 
0.0 0.0 0.0 
0.0 0.0 0.0 
0.0 0.0 0.0 
0.0 0.0 0.0 
0.0 0.0 0.0 
0.0 0.0 0.0 
0.0 0.0 0.0 
0.0 0.0 0.0 
0.0 0.0 0.0 
0.0 0.0 0.0 
0.0 0.0 0.0 
0.0 0.0 0.0 
0.0 0.0 0.0 
0.0 0.0 0.0 
0.0 0.0 0.0 
0.0 0.0 0.0 
0.0 0.0 0.0 
0.0 0.0 0.0 
0.0 0.0 0.0 
0.0 0.0 0.0 
0.0 0.0 0.0 
0.0 0.0 0.0 
0.0 0.0 0.0 
0.0 0.0 0.0 
0.0 0.0 0.0 
0.0 0.0 0.0 
0.0 0.0 0.0 
0.0 0.0 0.0 
0.0 0.0 0.0 
0.0 0.0 0.0 
0.0 0.0 0.0 
0.0 0.0 0.0 
0.0 0.0 0.0 
0.0 0.0 0.0 
0.0 0.0 0.0 
0.0 0.0 0.0 
0.0 0.0 0.0 
0.0 0.0 0.0 
0.0 0.0 0.0 
0.0 0.0 0.0 
0.0 0.0 0.0 
0.0 0.0 0.0 
0.0 0.0 0.0 
0.0 0.0 0.0 
0.0 0.0 0.0 
0.0 0.0 0.0 
0.0 0.0 0.0 
0.0 0.0 0.0 
0.0 0.0 0.0 
0.0 0.0 0.0 
0.0 0.0 0.0 
0.0 0.0 0.0 
0.0 0.0 0.0 
0.0 0.0 0.0 
0.0 0.0 0.0 
0.0 0.0 0.0 
0.0 0.0 0.0 
0.0 0.0 0.0 
0.0 0.0 0.0 
0.0 0.0 0.0 
0.0 0.0 0.0 
0.0 0.0 0.0 
0.0 0.0 0.0 
0.0 0.0 0.0 
0.0 0.0 0.0 
0.0 0.0 0.0 
0.0 0.0 0.0 
0.0 0.0 0.0 
0.0 0.0 0.0 
0.0 0.0 0.0 
0.0 0.0 0.0 
0.0 0.0 0.0 
0.0 0.0 0.0 
0.0 0.0 0.0 
0.0 0.0 0.0 
0.0 0.0 0.0 
0.0 0.0 0.0 
0.0 0.0 0.0 
0.0 0.0 0.0 
0.0 0.0 0.0 
0.0 0.0 0.0 
0.0 0.0 0.0 
0.0 0.0 0.0 
0.0 0.0 0.0 
0.0 0.0 0.0 
0.0 0.0 0.0 
0.0 0.0 0.0 
0.0 0.0 0.0 
0.0 0.0 0.0 
0.0 0.0 0.0 
0.0 0.0 0.0 
0.0 0.0 0.0 
0.0 0.0 0.0 
0.0 0.0 0.0 
0.0 0.0 0.0 
0.0 0.0 0.0 
0.0 0.0 0.0 
0.0 0.0 0.0 
0.0 0.0 0.0 
0.0 0.0 0.0 
0.0 0.0 0.0 
0.0 0.0 0.0 
0.0 0.0 0.0 
0.0 0.0 0.0 
0.0 0.0 0.0 
0.0 0.0 0.0 
0.0 0.0 0.0 
0.0 0.0 0.0 
0.0 0.0 0.0 
0.0 0.0 0.0 
0.0 0.0 0.0 
0.0 0.0 0.0 
0.0 0.0 0.0 
0.0 0.0 0.0 
0.0 0.0 0.0 
0.0 0.0 0.0 
0.0 0.0 0.0 
0.0 0.0 0.0 
0.0 0.0 0.0 
0.0 0.0 0.0 
0.0 0.0 0.0 
0.0 0.0 0.0 
0.0 0.0 0.0 
0.0 0.0 0.0 
0.0 0.0 0.0 
0.0 0.0 0.0 
0.0 0.0 0.0 
0.0 0.0 0.0 
0.0 0.0 0.0 
0.0 0.0 0.0 
0.0 0.0 0.0 
0.0 0.0 0.0 
0.0 0.0 0.0 
0.0 0.0 0.0 
0.0 0.0 0.0 
0.0 0.0 0.0 
0.0 0.0 0.0 
0.0 0.0 0.0 
0.0 0.0 0.0 
0.0 0.0 0.0 
0.0 0.0 0.0 
0.0 0.0 0.0 
0.0 0.0 0.0 
0.0 0.0 0.0 
0.0 0.0 0.0 
0.0 0.0 0.0 
0.0 0.0 0.0 
0.0 0.0 0.0 
0.0 0.0 0.0 
0.0 0.0 0.0 
0.0 0.0 0.0 
0.0 0.0 0.0 
0.0 0.0 0.0 
0.0 0.0 0.0 
0.0 0.0 0.0 
0.0 0.0 0.0 
0.0 0.0 0.0 
0.0 0.0 0.0 
0.0 0.0 0.0 
0.0 0.0 0.0 
0.0 0.0 0.0 
0.0 0.0 0.0 
0.0 0.0 0.0 
0.0 0.0 0.0 
0.0 0.0 0.0 
0.0 0.0 0.0 
0.0 0.0 0.0 
0.0 0.0 0.0 
0.0 0.0 0.0 
0.0 0.0 0.0 
0.0 0.0 0.0 
0.0 0.0 0.0 
0.0 0.0 0.0 
0.0 0.0 0.0 
0.0 0.0 0.0 
0.0 0.0 0.0 
0.0 0.0 0.0 
0.0 0.0 0.0 
0.0 0.0 0.0 
0.0 0.0 0.0 
0.0 0.0 0.0 
0.0 0.0 0.0 
0.0 0.0 0.0 
0.0 0.0 0.0 
0.0 0.0 0.0 
0.0 0.0 0.0 
0.0 0.0 0.0 
0.0 0.0 0.0 
0.0 0.0 0.0 
0.0 0.0 0.0 
0.0 0.0 0.0 
0.0 0.0 0.0 
0.0 0.0 0.0 
0.0 0.0 0.0 
0.0 0.0 0.0 
0.0 0.0 0.0 
0.0 0.0 0.0 
0.0 0.0 0.0 
0.0 0.0 0.0 
0.0 0.0 0.0 
0.0 0.0 0.0 
0.0 0.0 0.0 
0.0 0.0 0.0 
0.0 0.0 0.0 
0.0 0.0 0.0 
0.0 0.0 0.0 
0.0 0.0 0.0 
0.0 0.0 0.0 
0.0 0.0 0.0 
0.0 0.0 0.0 
0.0 0.0 0.0 
0.0 0.0 0.0 
0.0 0.0 0.0 
0.0 0.0 0.0 
0.0 0.0 0.0 
0.0 0.0 0.0 
0.0 0.0 0.0 
0.0 0.0 0.0 
0.0 0.0 0.0 
0.0 0.0 0.0 
0.0 0.0 0.0 
0.0 0.0 0.0 
0.0 0.0 0.0 
0.0 0.0 0.0 
0.0 0.0 0.0 
0.0 0.0 0.0 
0.0 0.0 0.0 
0.0 0.0 0.0 
0.0 0.0 0.0 
0.0 0.0 0.0 
0.0 0.0 0.0 
0.0 0.0 0.0 
0.0 0.0 0.0 
0.0 0.0 0.0 
0.0 0.0 0.0 
0.0 0.0 0.0 
0.0 0.0 0.0 
0.0 0.0 0.0 
0.0 0.0 0.0 
0.0 0.0 0.0 
0.0 0.0 0.0 
0.0 0.0 0.0 
0.0 0.0 0.0 
0.0 0.0 0.0 
0.0 0.0 0.0 
0.0 0.0 0.0 
0.0 0.0 0.0 
0.0 0.0 0.0 
0.0 0.0 0.0 
0.0 0.0 0.0 
0.0 0.0 0.0 
0.0 0.0 0.0 
0.0 0.0 0.0 
0.0 0.0 0.0 
0.0 0.0 0.0 
0.0 0.0 0.0 
0.0 0.0 0.0 
0.0 0.0 0.0 
0.0 0.0 0.0 
0.0 0.0 0.0 
0.0 0.0 0.0 
0.0 0.0 0.0 
0.0 0.0 0.0 
0.0 0.0 0.0 
0.0 0.0 0.0 
0.0 0.0 0.0 
0.0 0.0 0.0 
0.0 0.0 0.0 
0.0 0.0 0.0 
0.0 0.0 0.0 
0.0 0.0 0.0 
0.0 0.0 0.0 
0.0 0.0 0.0 
0.0 0.0 0.0 
0.0 0.0 0.0 
0.0 0.0 0.0 
0.0 0.0 0.0 
0.0 0.0 0.0 
0.0 0.0 0.0 
0.0 0.0 0.0 
0.0 0.0 0.0 
0.0 0.0 0.0 
0.0 0.0 0.0 
0.0 0.0 0.0 
0.0 0.0 0.0 
0.0 0.0 0.0 
0.0 0.0 0.0 
0.0 0.0 0.0 
0.0 0.0 0.0 
0.0 0.0 0.0 
0.0 0.0 0.0 
0.0 0.0 0.0 
0.0 0.0 0.0 
0.0 0.0 0.0 
0.0 0.0 0.0 
0.0 0.0 0.0 
0.0 0.0 0.0 
0.0 0.0 0.0 
0.0 0.0 0.0 
0.0 0.0 0.0 
0.0 0.0 0.0 
0.0 0.0 0.0 
0.0 0.0 0.0 
0.0 0.0 0.0 
0.0 0.0 0.0 
0.0 0.0 0.0 
0.0 0.0 0.0 
0.0 0.0 0.0 
0.0 0.0 0.0 
0.0 0.0 0.0 
0.0 0.0 0.0 
0.0 0.0 0.0 
0.0 0.0 0.0 
0.0 0.0 0.0 
0.0 0.0 0.0 
0.0 0.0 0.0 
0.0 0.0 0.0 
0.0 0.0 0.0 
0.0 0.0 0.0 
0.0 0.0 0.0 
0.0 0.0 0.0 
0.0 0.0 0.0 
0.0 0.0 0.0 
0.0 0.0 0.0 
0.0 0.0 0.0 
0.0 0.0 0.0 
0.0 0.0 0.0 
0.0 0.0 0.0 
0.0 0.0 0.0 
0.0 0.0 0.0 
0.0 0.0 0.0 
0.0 0.0 0.0 
0.0 0.0 0.0 
0.0 0.0 0.0 
0.0 0.0 0.0 
0.0 0.0 0.0 
0.0 0.0 0.0 
0.0 0.0 0.0 
0.0 0.0 0.0 
0.0 0.0 0.0 
0.0 0.0 0.0 
0.0 0.0 0.0 
0.0 0.0 0.0 
0.0 0.0 0.0 
0.0 0.0 0.0 
0.0 0.0 0.0 
0.0 0.0 0.0 
0.0 0.0 0.0 
0.0 0.0 0.0 
0.0 0.0 0.0 
0.0 0.0 0.0 
0.0 0.0 0.0 
0.0 0.0 0.0 
0.0 0.0 0.0 
0.0 0.0 0.0 
0.0 0.0 0.0 
0.0 0.0 0.0 
0.0 0.0 0.0 
0.0 0.0 0.0 
0.0 0.0 0.0 
0.0 0.0 0.0 
0.0 0.0 0.0 
0.0 0.0 0.0 
0.0 0.0 0.0 
0.0 0.0 0.0 
0.0 0.0 0.0 
0.0 0.0 0.0 
0.0 0.0 0.0 
0.0 0.0 0.0 
0.0 0.0 0.0 
0.0 0.0 0.0 
0.0 0.0 0.0 
0.0 0.0 0.0 
0.0 0.0 0.0 
0.0 0.0 0.0 
0.0 0.0 0.0 
0.0 0.0 0.0 
0.0 0.0 0.0 
0.0 0.0 0.0 
0.0 0.0 0.0 
0.0 0.0 0.0 
0.0 0.0 0.0 
0.0 0.0 0.0 
0.0 0.0 0.0 
0.0 0.0 0.0 
0.0 0.0 0.0 
0.0 0.0 0.0 
0.0 0.0 0.0 
0.0 0.0 0.0 
0.0 0.0 0.0 
0.0 0.0 0.0 
0.0 0.0 0.0 
0.0 0.0 0.0 
0.0 0.0 0.0 
0.0 0.0 0.0 
0.0 0.0 0.0 
0.0 0.0 0.0 
0.0 0.0 0.0 
0.0 0.0 0.0 
0.0 0.0 0.0 
0.0 0.0 0.0 
0.0 0.0 0.0 
0.0 0.0 0.0 
0.0 0.0 0.0 
0.0 0.0 0.0 
0.0 0.0 0.0 
0.0 0.0 0.0 
0.0 0.0 0.0 
0.0 0.0 0.0 
0.0 0.0 0.0 
0.0 0.0 0.0 
0.0 0.0 0.0 
0.0 0.0 0.0 
0.0 0.0 0.0 
0.0 0.0 0.0 
0.0 0.0 0.0 
0.0 0.0 0.0 
0.0 0.0 0.0 
0.0 0.0 0.0 
0.0 0.0 0.0 
0.0 0.0 0.0 
0.0 0.0 0.0 
0.0 0.0 0.0 
0.0 0.0 0.0 
0.0 0.0 0.0 
0.0 0.0 0.0 
0.0 0.0 0.0 
0.0 0.0 0.0 
0.0 0.0 0.0 
0.0 0.0 0.0 
0.0 0.0 0.0 
0.0 0.0 0.0 
0.0 0.0 0.0 
0.0 0.0 0.0 
0.0 0.0 0.0 
0.0 0.0 0.0 
0.0 0.0 0.0 
0.0 0.0 0.0 
0.0 0.0 0.0 
0.0 0.0 0.0 
0.0 0.0 0.0 
0.0 0.0 0.0 
0.0 0.0 0.0 
0.0 0.0 0.0 
0.0 0.0 0.0 
0.0 0.0 0.0 
0.0 0.0 0.0 
0.0 0.0 0.0 
0.0 0.0 0.0 
0.0 0.0 0.0 
0.0 0.0 0.0 
0.0 0.0 0.0 
0.0 0.0 0.0 
0.0 0.0 0.0 
0.0 0.0 0.0 
0.0 0.0 0.0 
0.0 0.0 0.0 
0.0 0.0 0.0 
0.0 0.0 0.0 
0.0 0.0 0.0 
0.0 0.0 0.0 
0.0 0.0 0.0 
0.0 0.0 0.0 
0.0 0.0 0.0 
0.0 0.0 0.0 
0.0 0.0 0.0 
0.0 0.0 0.0 
0.0 0.0 0.0 
0.0 0.0 0.0 
0.0 0.0 0.0 
0.0 0.0 0.0 
0.0 0.0 0.0 
0.0 0.0 0.0 
0.0 0.0 0.0 
0.0 0.0 0.0 
0.0 0.0 0.0 
0.0 0.0 0.0 
0.0 0.0 0.0 
0.0 0.0 0.0 
0.0 0.0 0.0 
0.0 0.0 0.0 
0.0 0.0 0.0 
0.0 0.0 0.0 
0.0 0.0 0.0 
0.0 0.0 0.0 
0.0 0.0 0.0 
0.0 0.0 0.0 
0.0 0.0 0.0 
0.0 0.0 0.0 
0.0 0.0 0.0 
0.0 0.0 0.0 
0.0 0.0 0.0 
0.0 0.0 0.0 
0.0 0.0 0.0 
0.0 0.0 0.0 
0.0 0.0 0.0 
0.0 0.0 0.0 
0.0 0.0 0.0 
0.0 0.0 0.0 
0.0 0.0 0.0 
0.0 0.0 0.0 
0.0 0.0 0.0 
0.0 0.0 0.0 
0.0 0.0 0.0 
0.0 0.0 0.0 
0.0 0.0 0.0 
0.0 0.0 0.0 
0.0 0.0 0.0 
0.0 0.0 0.0 
0.0 0.0 0.0 
0.0 0.0 0.0 
0.0 0.0 0.0 
0.0 0.0 0.0 
0.0 0.0 0.0 
0.0 0.0 0.0 
0.0 0.0 0.0 
0.0 0.0 0.0 
0.0 0.0 0.0 
0.0 0.0 0.0 
0.0 0.0 0.0 
0.0 0.0 0.0 
0.0 0.0 0.0 
0.0 0.0 0.0 
0.0 0.0 0.0 
0.0 0.0 0.0 
0.0 0.0 0.0 
0.0 0.0 0.0 
0.0 0.0 0.0 
0.0 0.0 0.0 
0.0 0.0 0.0 
0.0 0.0 0.0 
0.0 0.0 0.0 
0.0 0.0 0.0 
0.0 0.0 0.0 
0.0 0.0 0.0 
0.0 0.0 0.0 
0.0 0.0 0.0 
0.0 0.0 0.0 
0.0 0.0 0.0 
0.0 0.0 0.0 
0.0 0.0 0.0 
0.0 0.0 0.0 
0.0 0.0 0.0 
0.0 0.0 0.0 
0.0 0.0 0.0 
0.0 0.0 0.0 
0.0 0.0 0.0 
0.0 0.0 0.0 
0.0 0.0 0.0 
0.0 0.0 0.0 
0.0 0.0 0.0 
0.0 0.0 0.0 
0.0 0.0 0.0 
0.0 0.0 0.0 
0.0 0.0 0.0 
0.0 0.0 0.0 
0.0 0.0 0.0 
0.0 0.0 0.0 
0.0 0.0 0.0 
0.0 0.0 0.0 
0.0 0.0 0.0 
0.0 0.0 0.0 
0.0 0.0 0.0 
0.0 0.0 0.0 
0.0 0.0 0.0 
0.0 0.0 0.0 
0.0 0.0 0.0 
0.0 0.0 0.0 
0.0 0.0 0.0 
0.0 0.0 0.0 
0.0 0.0 0.0 
0.0 0.0 0.0 
0.0 0.0 0.0 
0.0 0.0 0.0 
0.0 0.0 0.0 
0.0 0.0 0.0 
0.0 0.0 0.0 
0.0 0.0 0.0 
0.0 0.0 0.0 
0.0 0.0 0.0 
0.0 0.0 0.0 
0.0 0.0 0.0 
0.0 0.0 0.0 
0.0 0.0 0.0 
0.0 0.0 0.0 
0.0 0.0 0.0 
0.0 0.0 0.0 
0.0 0.0 0.0 
0.0 0.0 0.0 
0.0 0.0 0.0 
0.0 0.0 0.0 
0.0 0.0 0.0 
0.0 0.0 0.0 
0.0 0.0 0.0 
0.0 0.0 0.0 
0.0 0.0 0.0 
0.0 0.0 0.0 
0.0 0.0 0.0 
0.0 0.0 0.0 
0.0 0.0 0.0 
0.0 0.0 0.0 
0.0 0.0 0.0 
0.0 0.0 0.0 
0.0 0.0 0.0 
0.0 0.0 0.0 
0.0 0.0 0.0 
0.0 0.0 0.0 

VECTORS node_materi_velocity float
0.0 -5.827484995280e-04 0.0 
0.0 9.876167349814e-03 0.0 
0.0 0.0 0.0 
0.0 0.0 0.0 
0.0 -5.718848373186e-04 0.0 
0.0 -5.589650260834e-04 0.0 
0.0 -5.429734283540e-04 0.0 
0.0 -5.231546712851e-04 0.0 
0.0 -4.983138407281e-04 0.0 
0.0 -4.687446704432e-04 0.0 
0.0 -4.346014280104e-04 0.0 
0.0 -3.960961454985e-04 0.0 
0.0 -3.539455252266e-04 0.0 
0.0 -3.089718377143e-04 0.0 
0.0 -2.623019741628e-04 0.0 
0.0 -2.154618949027e-04 0.0 
0.0 -1.697268522224e-04 0.0 
0.0 -1.258583724487e-04 0.0 
0.0 -8.617847820730e-05 0.0 
0.0 -5.209290265998e-05 0.0 
0.0 -2.492446574571e-05 0.0 
0.0 -6.553670056459e-06 0.0 
0.0 1.364390278707e-06 0.0 
0.0 0.0 0.0 
0.0 0.0 0.0 
0.0 0.0 0.0 
0.0 0.0 0.0 
0.0 0.0 0.0 
0.0 0.0 0.0 
0.0 0.0 0.0 
0.0 0.0 0.0 
0.0 0.0 0.0 
0.0 0.0 0.0 
0.0 0.0 0.0 
0.0 0.0 0.0 
0.0 0.0 0.0 
0.0 0.0 0.0 
0.0 0.0 0.0 
0.0 0.0 0.0 
0.0 0.0 0.0 
0.0 0.0 0.0 
0.0 0.0 0.0 
0.0 0.0 0.0 
0.0 0.0 0.0 
0.0 0.0 0.0 
0.0 0.0 0.0 
0.0 0.0 0.0 
0.0 0.0 0.0 
0.0 0.0 0.0 
0.0 0.0 0.0 
0.0 0.0 0.0 
0.0 0.0 0.0 
0.0 0.0 0.0 
0.0 0.0 0.0 
0.0 0.0 0.0 
0.0 0.0 0.0 
0.0 0.0 0.0 
0.0 0.0 0.0 
0.0 0.0 0.0 
0.0 0.0 0.0 
0.0 0.0 0.0 
0.0 0.0 0.0 
0.0 0.0 0.0 
0.0 0.0 0.0 
0.0 0.0 0.0 
0.0 0.0 0.0 
0.0 0.0 0.0 
0.0 0.0 0.0 
0.0 0.0 0.0 
0.0 0.0 0.0 
0.0 0.0 0.0 
0.0 0.0 0.0 
0.0 8.864091768991e-03 0.0 
0.0 7.853722717921e-03 0.0 
0.0 6.846423076242e-03 0.0 
0.0 5.843055600940e-03 0.0 
0.0 4.845597489059e-03 0.0 
0.0 3.855340792666e-03 0.0 
0.0 2.874096850654e-03 0.0 
0.0 1.903575279448e-03 0.0 
0.0 9.455305679914e-04 0.0 
-5.636830566677e-04 1.072132221595e-03 0.0 
1.872723642761e-03 9.519579785075e-03 0.0 
-4.688286842409e-04 1.664968066032e-03 0.0 
-3.324905712495e-04 2.337460511851e-03 0.0 
-2.144913522377e-05 3.361078024881e-03 0.0 
1.001744982036e-03 4.890087294680e-03 0.0 
4.063978339626e-04 8.056614219832e-03 0.0 
1.102345995747e-03 1.006312597570e-02 0.0 
1.687146158545e-03 1.064788938122e-02 0.0 
1.936698153314e-03 1.060671847486e-02 0.0 
1.971250103459e-03 1.018182999218e-02 0.0 
0.0 1.497773574338e-02 0.0 
0.0 1.393981452773e-02 0.0 
0.0 1.292015230950e-02 0.0 
0.0 1.190450170318e-02 0.0 
0.0 1.088952851039e-02 0.0 
1.098133936432e-04 9.877700197858e-03 0.0 
2.205274812431e-04 9.882412421621e-03 0.0 
3.316619119792e-04 9.889625812829e-03 0.0 
4.433675439740e-04 9.898913916531e-03 0.0 
5.558218558761e-04 9.909100234186e-03 0.0 
6.689437577756e-04 9.919314453252e-03 0.0 
7.836618849509e-04 9.928806883686e-03 0.0 
8.998850195905e-04 9.934760590650e-03 0.0 
1.019154635368e-03 9.935712444117e-03 0.0 
1.142341692795e-03 9.927677690928e-03 0.0 
1.270286119161e-03 9.905251195949e-03 0.0 
1.405153560801e-03 9.862414810341e-03 0.0 
1.548818333430e-03 9.791431840765e-03 0.0 
1.703549715854e-03 9.681188051673e-03 0.0 
-5.209164070633e-04 8.074264414675e-04 0.0 
-4.457106264672e-04 5.435682686385e-04 0.0 
-3.581986151432e-04 3.135132468501e-04 0.0 
-2.671258368116e-04 1.196516778238e-04 0.0 
-1.846488289025e-04 -4.039255589825e-05 0.0 
-1.114242545658e-04 -1.700919446792e-04 0.0 
-4.825947099067e-05 -2.736180893714e-04 0.0 
3.897094686513e-06 -3.555569257217e-04 0.0 
4.532234410039e-05 -4.190372526235e-04 0.0 
7.617764983336e-05 -4.671418776593e-04 0.0 
9.700821986737e-05 -5.038198078795e-04 0.0 
1.092760947997e-04 -5.297036121238e-04 0.0 
1.127702613112e-04 -5.485695854822e-04 0.0 
1.099566758393e-04 -5.616570801482e-04 0.0 
1.009654950453e-04 -5.707507996486e-04 0.0 
8.679070040709e-05 -5.763480416470e-04 0.0 
6.844851659879e-05 -5.796995899389e-04 0.0 
4.712866637701e-05 -5.818024494164e-04 0.0 
2.407721379805e-05 -5.825794553445e-04 0.0 
-5.199778732974e-04 1.049887702021e-02 0.0 
-3.066380224434e-04 1.169116424673e-02 0.0 
-8.088989040257e-05 1.261510020017e-02 0.0 
2.162304386207e-04 1.328526226465e-02 0.0 
5.012715989772e-04 1.378130873457e-02 0.0 
7.483730820890e-04 1.414167133372e-02 0.0 
9.423654624159e-04 1.440563859465e-02 0.0 
1.077106460174e-03 1.458834109941e-02 0.0 
1.154564831785e-03 1.472333251323e-02 0.0 
1.195477586829e-03 1.481694541116e-02 0.0 
1.200834155505e-03 1.488305724973e-02 0.0 
1.175773510704e-03 1.492845957350e-02 0.0 
1.125662219533e-03 1.495804057840e-02 0.0 
1.055159738084e-03 1.497556384270e-02 0.0 
9.680268214543e-04 1.498434644015e-02 0.0 
8.678240058902e-04 1.498754277431e-02 0.0 
7.579598608941e-04 1.498720924296e-02 0.0 
6.412996535226e-04 1.498476519637e-02 0.0 
5.206919570534e-04 1.498166595761e-02 0.0 
3.996116746391e-04 1.497785233303e-02 0.0 
2.835907578215e-04 1.496884944801e-02 0.0 
1.626543452848e-04 1.497128924728e-02 0.0 
1.324361964405e-04 1.394476209345e-02 0.0 
2.587798275415e-04 1.394974746193e-02 0.0 
3.818097963000e-04 1.395612976238e-02 0.0 
5.018568192837e-04 1.396132679540e-02 0.0 
6.183664153844e-04 1.396666253413e-02 0.0 
7.300365121568e-04 1.397190251676e-02 0.0 
8.350266881570e-04 1.397582425324e-02 0.0 
9.312439277071e-04 1.397688657637e-02 0.0 
1.016384511909e-03 1.397274731540e-02 0.0 
1.087886005294e-03 1.396022057828e-02 0.0 
1.143098308572e-03 1.393569444086e-02 0.0 
1.179468181063e-03 1.389459690087e-02 0.0 
1.194908775654e-03 1.383047133546e-02 0.0 
1.188393712539e-03 1.373322062695e-02 0.0 
1.158124164052e-03 1.359375219633e-02 0.0 
1.107281075821e-03 1.339045814041e-02 0.0 
1.041156733160e-03 1.309455971236e-02 0.0 
9.758244019555e-04 1.267305597224e-02 0.0 
9.370634171457e-04 1.208568283370e-02 0.0 
9.484723551382e-04 1.125725653456e-02 0.0 
1.552972378425e-03 1.136480569527e-02 0.0 
1.473282885308e-03 1.187463442831e-02 0.0 
1.413955193055e-03 1.223851531454e-02 0.0 
1.370609205824e-03 1.249439725007e-02 0.0 
1.332836268350e-03 1.267004845015e-02 0.0 
1.293829834690e-03 1.278956375998e-02 0.0 
1.248197861596e-03 1.286953253145e-02 0.0 
1.194102560734e-03 1.292034489412e-02 0.0 
1.130505082657e-03 1.295052643088e-02 0.0 
1.057347074087e-03 1.296613723811e-02 0.0 
9.752417741770e-04 1.297160784852e-02 0.0 
8.852046398591e-04 1.297039748018e-02 0.0 
7.883721516057e-04 1.296527099641e-02 0.0 
6.858315098727e-04 1.295822517193e-02 0.0 
5.786264575942e-04 1.295060285920e-02 0.0 
4.675808727985e-04 1.294322018566e-02 0.0 
3.533532882314e-04 1.293618209108e-02 0.0 
2.368874464893e-04 1.292922142319e-02 0.0 
1.183482243388e-04 1.292419930577e-02 0.0 
1.164752124885e-04 1.190617820247e-02 0.0 
2.333199315711e-04 1.191222988337e-02 0.0 
3.493305485624e-04 1.191984041068e-02 0.0 
4.637267130890e-04 1.192850357645e-02 0.0 
5.759618979759e-04 1.193791033443e-02 0.0 
6.856565693381e-04 1.194761796119e-02 0.0 
7.923429865465e-04 1.195667401363e-02 0.0 
8.957296455269e-04 1.196339919001e-02 0.0 
9.954443703588e-04 1.196553212206e-02 0.0 
1.091313990218e-03 1.195969760374e-02 0.0 
1.183649869009e-03 1.194150204857e-02 0.0 
1.273363382304e-03 1.190522636859e-02 0.0 
1.362222491867e-03 1.184302834563e-02 0.0 
1.453007999871e-03 1.174473066660e-02 0.0 
1.549942471442e-03 1.159504232525e-02 0.0 
1.659289188140e-03 1.137531199405e-02 0.0 
1.783185217630e-03 1.105856400503e-02 0.0 
1.810277409610e-03 1.045130565983e-02 0.0 
1.669309802180e-03 1.063828961271e-02 0.0 
1.537987414174e-03 1.076635489603e-02 0.0 
1.417009813282e-03 1.085170649548e-02 0.0 
1.302708207221e-03 1.090522878636e-02 0.0 
1.192603867818e-03 1.093581392246e-02 0.0 
1.084789152067e-03 1.095021553843e-02 0.0 
9.778854645425e-04 1.095343133029e-02 0.0 
8.711711305672e-04 1.094970860474e-02 0.0 
7.642866671425e-04 1.094214608585e-02 0.0 
6.567235219041e-04 1.093230741915e-02 0.0 
5.484643131698e-04 1.092212760770e-02 0.0 
4.394198741424e-04 1.091225346403e-02 0.0 
3.296940087715e-04 1.090337242551e-02 0.0 
2.196773641872e-04 1.089621352572e-02 0.0 
1.098253223772e-04 1.089170913042e-02 0.0 
-4.825982466093e-04 1.353431916903e-03 0.0 
-4.191476300416e-04 1.953822022871e-03 0.0 
-2.112489707395e-04 2.800707006046e-03 0.0 
3.109670678338e-04 4.034589418561e-03 0.0 
8.523134986600e-04 6.476326370009e-03 0.0 
7.392125210121e-04 9.263957334711e-03 0.0 
1.456811610280e-03 1.044795278207e-02 0.0 
1.850313321575e-03 1.068491861596e-02 0.0 
1.978191000032e-03 1.042901347284e-02 0.0 
1.936508591307e-03 9.872652933899e-03 0.0 
-1.275562823599e-04 1.952497855364e-03 0.0 
3.458251774027e-04 9.128108518957e-05 0.0 
1.121084455954e-04 -4.536425103142e-04 0.0 
-8.957302037892e-05 1.476715944806e-05 0.0 
2.011056403010e-04 3.431944285021e-05 0.0 
9.107840871500e-04 4.241387622866e-03 0.0 
6.417880834829e-05 -2.847989105451e-04 0.0 
4.853890769104e-04 1.811989609460e-04 0.0 
1.747938971799e-03 8.330564529159e-03 0.0 
5.811119622577e-04 3.112792531278e-04 0.0 
2.250760953300e-03 9.698449464438e-03 0.0 
1.060205637970e-04 1.340242513869e-05 0.0 
1.282235403967e-04 -5.546154169353e-04 0.0 
6.066174190261e-04 4.921875312671e-04 0.0 
2.073568110249e-03 8.916821730714e-03 0.0 
4.784866282170e-05 -4.512622096161e-04 0.0 
6.530425584858e-05 -1.557031326049e-04 0.0 
5.625524062723e-04 6.410637960030e-04 0.0 
3.855874150225e-04 7.254819096648e-04 0.0 
1.016476591651e-04 8.048033426355e-04 0.0 
1.935029065273e-04 8.633645740175e-04 0.0 
2.660638704742e-04 7.524256950348e-04 0.0 
1.679216228934e-03 8.826146294345e-03 0.0 
1.091018997402e-03 9.010112168516e-03 0.0 
7.196067349766e-04 8.980714598291e-03 0.0 
6.780925638786e-05 5.328452873331e-03 0.0 
6.294673605802e-05 6.457945935692e-06 0.0 
-2.918622173114e-04 6.606582806719e-04 0.0 
8.424811782934e-05 -5.707834528396e-04 0.0 
4.441564738667e-05 -3.923079414284e-05 0.0 
3.728050686828e-04 9.019576532636e-03 0.0 
3.540243258080e-05 -5.342344072909e-04 0.0 
5.341562766408e-04 7.859124276998e-04 0.0 
4.999916062046e-04 2.218942750354e-04 0.0 
6.011464195200e-04 3.938967132507e-04 0.0 
4.434195340276e-04 1.403971674208e-04 0.0 
2.684683512829e-04 5.923909686461e-05 0.0 
2.093528569913e-05 -2.446419547489e-04 0.0 
1.366100661127e-03 9.019877393159e-03 0.0 
1.760263859464e-04 2.463244035703e-05 0.0 
5.114080406831e-05 3.405511943417e-03 0.0 
1.343234800531e-04 -5.208321530542e-04 0.0 
5.882562681449e-05 -3.755088506383e-04 0.0 
5.070642322876e-05 6.541860420028e-04 0.0 
1.219229733972e-03 5.995921741740e-03 0.0 
2.297874647587e-04 2.837190213606e-03 0.0 
2.112322779494e-03 9.433674762942e-03 0.0 
2.219141817997e-03 9.461299084907e-03 0.0 
-3.402465872614e-04 1.314032403230e-03 0.0 
8.321977481008e-05 7.229681832001e-03 0.0 
2.818632441751e-05 3.164598620480e-06 0.0 
3.878991681916e-05 -5.736503082423e-04 0.0 
2.781934717306e-05 1.493458131659e-03 0.0 
1.999924966514e-03 8.529134808038e-03 0.0 
2.166070713678e-03 7.949240426106e-03 0.0 
1.993858222113e-03 7.683210473200e-03 0.0 
2.181427804456e-03 7.012780264659e-03 0.0 
2.011932996215e-03 6.642308046048e-03 0.0 
2.148095861025e-03 6.060912043467e-03 0.0 
2.339167109284e-03 6.375772078902e-03 0.0 
2.265539263722e-03 5.463907307362e-03 0.0 
2.470907139933e-03 5.732893219149e-03 0.0 
1.947129088596e-03 5.685159919478e-03 0.0 
2.353252181158e-03 4.861656121069e-03 0.0 
2.568223472193e-03 5.084939690672e-03 0.0 
2.405382912433e-03 4.265833173095e-03 0.0 
2.623873068943e-03 4.445873384723e-03 0.0 
2.763536439876e-03 5.235264058661e-03 0.0 
2.818368450795e-03 4.553386689170e-03 0.0 
2.931881437076e-03 5.299745675666e-03 0.0 
2.980263522748e-03 4.573732858170e-03 0.0 
2.824088471420e-03 3.904617482041e-03 0.0 
2.975618499494e-03 3.894630679583e-03 0.0 
3.101493221361e-03 4.501930756616e-03 0.0 
3.081140065745e-03 3.799945238616e-03 0.0 
3.172174733823e-03 4.334238200808e-03 0.0 
3.132769175963e-03 3.621487596879e-03 0.0 
3.183701504693e-03 4.072765329721e-03 0.0 
3.125551929869e-03 3.370993882531e-03 0.0 
3.048001172649e-03 2.996536703870e-03 0.0 
3.028151381918e-03 2.767713323757e-03 0.0 
3.057474947448e-03 3.065038516654e-03 0.0 
2.952792250300e-03 2.496810490829e-03 0.0 
2.931441010295e-03 2.723123862099e-03 0.0 
2.826913530538e-03 2.200589637310e-03 0.0 
2.823629907054e-03 2.019477391128e-03 0.0 
2.702759798084e-03 1.766392451003e-03 0.0 
2.658786955642e-03 1.895428277825e-03 0.0 
2.546139072474e-03 1.508607605379e-03 0.0 
2.459512695500e-03 1.595709967000e-03 0.0 
2.363449821362e-03 1.256463430678e-03 0.0 
2.240947918976e-03 1.311498914942e-03 0.0 
2.163190071933e-03 1.016106782813e-03 0.0 
2.254251549563e-03 9.774312723556e-04 0.0 
2.071802362426e-03 7.736675011295e-04 0.0 
1.954345234552e-03 7.933352571744e-04 0.0 
1.881612696607e-03 5.848584273695e-04 0.0 
1.968083464602e-03 5.775572685142e-04 0.0 
1.795580192312e-03 4.173121667892e-04 0.0 
1.853925254725e-03 4.206875679979e-04 0.0 
1.698462787692e-03 2.843915425480e-04 0.0 
1.622599193981e-03 2.717437682872e-04 0.0 
1.541296568641e-03 1.598080611795e-04 0.0 
1.592696891145e-03 1.808655492274e-04 0.0 
1.450060231779e-03 7.361844729718e-05 0.0 
1.384631868792e-03 4.660756842829e-05 0.0 
1.308338753058e-03 -2.332208850668e-05 0.0 
1.352400115317e-03 9.672147665983e-06 0.0 
1.223610658044e-03 -7.437981147854e-05 0.0 
1.169451372598e-03 -1.102913299241e-04 0.0 
1.097075476224e-03 -1.496854774599e-04 0.0 
1.134021920037e-03 -1.089629872126e-04 0.0 
1.018154474910e-03 -1.753118547632e-04 0.0 
9.738329467151e-04 -2.168674381137e-04 0.0 
9.055269877973e-04 -2.340525519129e-04 0.0 
9.352319609345e-04 -1.892322088849e-04 0.0 
8.318065980108e-04 -2.416763341866e-04 0.0 
8.488370744132e-04 -1.944728849649e-04 0.0 
7.952280915757e-04 -2.867909698965e-04 0.0 
7.309080062928e-04 -2.884347611714e-04 0.0 
6.897266187080e-04 -3.331844010613e-04 0.0 
6.338398463313e-04 -3.297533839349e-04 0.0 
2.675335071686e-03 1.620960199189e-03 0.0 
5.916352323423e-04 -3.727411635577e-04 0.0 
6.360415569255e-04 -3.729483134380e-04 0.0 
5.420021680996e-04 -3.658361942575e-04 0.0 
5.728068172909e-04 -3.209802311275e-04 0.0 
5.002240598641e-04 -4.066903655369e-04 0.0 
4.558775069740e-04 -3.971593804014e-04 0.0 
4.161367621318e-04 -4.355465645481e-04 0.0 
2.294056076790e-03 1.670449311528e-03 0.0 
2.780867871743e-03 3.302283731892e-03 0.0 
3.760996709911e-04 -4.242356510106e-04 0.0 
3.397938584050e-04 -4.598817896787e-04 0.0 
3.698312444364e-04 -4.686546186121e-04 0.0 
2.989917663147e-04 -4.900935279362e-04 0.0 
1.824663178434e-03 6.243502949491e-03 0.0 
1.738173726299e-03 5.272273643946e-03 0.0 
1.634291300540e-03 5.809201818626e-03 0.0 
1.524381894728e-03 4.833267079290e-03 0.0 
1.439106890957e-03 5.342696509972e-03 0.0 
2.712794550886e-04 -4.803973130917e-04 0.0 
2.168012876423e-03 3.994870861767e-03 0.0 
1.592436523041e-03 4.311756982442e-03 0.0 
3.156550873851e-03 5.129555162315e-03 0.0 
3.010944167470e-03 3.348912445733e-03 0.0 
2.001730755897e-03 5.663621577880e-04 0.0 
4.059881812192e-04 -3.838429226046e-04 0.0 
3.303065185022e-04 -4.098829064807e-04 0.0 
3.514846997421e-04 -3.678623192037e-04 0.0 
9.427382141485e-04 -1.429751504761e-04 0.0 
8.445969353389e-04 -1.470371134623e-04 0.0 
9.256317056794e-04 -9.755500572643e-05 0.0 
8.178021239476e-04 -1.012603785082e-04 0.0 
8.827056322554e-04 -5.511874193134e-05 0.0 
7.677850450119e-04 -5.915983398503e-05 0.0 
7.126369037739e-04 -9.984033873706e-05 0.0 
6.579047583192e-04 -5.868870961504e-05 0.0 
6.112786242144e-04 -9.468487886455e-05 0.0 
8.135602816467e-04 -1.785959237993e-05 0.0 
9.388845285295e-04 -7.648760406719e-06 0.0 
5.540539866579e-04 -5.505267747615e-05 0.0 
5.147172048585e-04 -8.699622388584e-05 0.0 
4.570886578052e-04 -4.942256668524e-05 0.0 
4.238870341386e-04 -7.771023616002e-05 0.0 
4.670818879399e-04 -1.189172615676e-04 0.0 
3.818035688692e-04 -1.064770048631e-04 0.0 
4.130791595294e-04 -1.503136025846e-04 0.0 
1.862326452100e-03 4.200244236679e-04 0.0 
1.980533409400e-03 5.486306674730e-04 0.0 
1.818970624596e-03 4.130942311669e-04 0.0 
1.902566411279e-03 5.217352045964e-04 0.0 
1.722670093636e-03 3.976677066390e-04 0.0 
1.767521331255e-03 4.839367597812e-04 0.0 
1.572869384214e-03 3.719256357918e-04 0.0 
1.542805383450e-03 3.008658972908e-04 0.0 
2.418680056887e-03 3.677256663286e-03 0.0 
1.745238822839e-03 5.907161030249e-04 0.0 
1.783722581321e-03 8.108036211617e-04 0.0 
1.563316880874e-03 5.980428833378e-04 0.0 
1.565248259260e-03 8.282161628430e-04 0.0 
1.341803740713e-03 6.087348450340e-04 0.0 
1.305634333650e-03 8.490625957222e-04 0.0 
1.087293085227e-03 6.259892209379e-04 0.0 
1.137033705836e-03 4.174175978452e-04 0.0 
8.926693207496e-04 4.331530377577e-04 0.0 
9.517133155514e-04 2.512529959088e-04 0.0 
7.219517278480e-04 2.659015779572e-04 0.0 
7.856439239453e-04 1.074770960826e-04 0.0 
2.926925801721e-03 2.457570344144e-03 0.0 
1.962266129344e-03 6.267101271966e-04 0.0 
1.783835099089e-03 5.616108879192e-04 0.0 
1.991552940483e-03 7.221643752931e-04 0.0 
3.192473237024e-04 -4.958857255031e-04 0.0 
3.394693367659e-04 -6.747058004624e-05 0.0 
8.470889470516e-04 2.290862641172e-05 0.0 
9.836828122745e-04 3.962367419531e-05 0.0 
1.381200132142e-03 2.842842130584e-04 0.0 
2.367655315324e-04 -5.076601892229e-04 0.0 
1.014119439687e-03 8.770181346414e-04 0.0 
1.243347307071e-03 1.137813639970e-03 0.0 
1.311542511230e-03 4.363124987354e-03 0.0 
1.245055704744e-03 4.853511258779e-03 0.0 
8.651590885229e-04 6.164704868596e-05 0.0 
2.104752591796e-04 -4.978034000228e-04 0.0 
5.827811400649e-04 -2.389510806236e-05 0.0 
6.332385472373e-04 4.598082935854e-04 0.0 
3.017792473695e-04 -9.337492867519e-05 0.0 
2.620554419631e-04 -5.675571570666e-05 0.0 
6.506592285167e-04 -1.390228168054e-04 0.0 
1.766021051707e-03 6.256045457669e-04 0.0 
1.988793108276e-03 8.036333722402e-04 0.0 
9.891061690932e-04 1.039043937174e-04 0.0 
8.281168112734e-04 -1.991784917606e-05 0.0 
6.386987951962e-04 -1.680314451525e-05 0.0 
6.895906864528e-04 -1.297763305093e-04 0.0 
8.523052728161e-04 -1.205879459401e-04 0.0 
7.142881888325e-04 -2.117597535380e-04 0.0 
5.635563673972e-04 -2.203300161161e-04 0.0 
5.916877535092e-04 -2.893778507568e-04 0.0 
7.247669040742e-04 -2.739757943484e-04 0.0 
6.063965143977e-04 -3.397659948138e-04 0.0 
4.839365863284e-04 -3.536661303614e-04 0.0 
5.018929337611e-04 -3.943261609037e-04 0.0 
2.866290162107e-04 -3.498292273235e-05 0.0 
4.833428489725e-04 2.914225395653e-04 0.0 
2.830530897390e-03 6.052948254732e-03 0.0 
7.266062748107e-04 4.456717458631e-05 0.0 
1.373389220733e-03 3.353020903133e-04 0.0 
1.103207614957e-03 3.872899931144e-03 0.0 
1.055016155352e-03 4.347723865074e-03 0.0 
1.166002797181e-03 5.342567380832e-03 0.0 
9.932930042695e-04 4.820470318192e-03 0.0 
8.722615406973e-04 3.830089499561e-03 0.0 
8.274071795839e-04 4.291958127202e-03 0.0 
9.221659344571e-04 5.290262726130e-03 0.0 
7.714367203930e-04 4.751586028840e-03 0.0 
8.445508298312e-04 5.755145400955e-03 0.0 
7.071902417821e-04 5.207976541342e-03 0.0 
6.289166857788e-04 4.209919539946e-03 0.0 
5.771476270575e-04 4.660812301255e-03 0.0 
6.369641764256e-04 5.661965552848e-03 0.0 
5.176486353264e-04 5.110259536968e-03 0.0 
5.623179802634e-04 6.113154703674e-03 0.0 
4.518853099523e-04 5.558314584619e-03 0.0 
4.067123915582e-04 4.560565906164e-03 0.0 
1.846727672143e-04 -5.214391511227e-04 0.0 
1.365686855047e-03 2.263604686647e-04 0.0 
1.194851117143e-03 2.167415315372e-04 0.0 
2.817624600685e-04 -3.933002324465e-04 0.0 
2.956274231745e-04 -3.497967028313e-04 0.0 
3.657102966601e-04 -3.224092850668e-04 0.0 
3.008577005151e-04 -3.039973404487e-04 0.0 
3.476579923316e-04 5.010452344113e-03 0.0 
3.060040067895e-04 4.014787110308e-03 0.0 
9.167284650198e-04 1.175982973437e-03 0.0 
1.154292814148e-03 1.482421288751e-03 0.0 
1.133237821998e-03 3.397649082780e-03 0.0 
2.276055360182e-04 -8.018415670219e-05 0.0 
2.565128956007e-04 -1.199034700767e-04 0.0 
2.831441421665e-03 2.930641846771e-03 0.0 
2.880109630938e-03 3.608234184473e-03 0.0 
2.646554603466e-03 3.115986350475e-03 0.0 
2.648182536043e-03 3.839935121217e-03 0.0 
2.891001034539e-03 4.423450977060e-03 0.0 
2.358750286161e-03 3.271701322890e-03 0.0 
1.069901789332e-03 8.955533372341e-06 0.0 
4.969740543433e-04 3.668707187486e-03 0.0 
3.922071473254e-04 -4.726679408270e-04 0.0 
3.308222428747e-04 -4.966083063535e-04 0.0 
1.921786944426e-04 -4.634032392882e-05 0.0 
1.489957403884e-03 2.250998550006e-04 0.0 
2.900446912862e-03 2.616227888211e-03 0.0 
2.755290118735e-03 2.136055498197e-03 0.0 
2.682768302461e-03 2.230183980829e-03 0.0 
2.513056447466e-03 1.806106735258e-03 0.0 
2.393643211271e-03 1.839727681345e-03 0.0 
2.198561428099e-03 1.470841716819e-03 0.0 
2.317679448437e-03 1.445382662869e-03 0.0 
1.707637065765e-03 6.689002943900e-04 0.0 
1.979847500010e-03 1.156967197753e-03 0.0 
3.871048146073e-04 6.014975740083e-03 0.0 
2.154649018970e-03 8.052886405060e-04 0.0 
7.210359751746e-04 -3.179737678799e-04 0.0 
2.041276571151e-04 -5.281491629090e-04 0.0 
3.884207223831e-04 -4.066639582713e-04 0.0 
1.575198285742e-04 -5.121345897442e-04 0.0 
1.778156621818e-04 -4.853455642460e-04 0.0 
7.157068602247e-04 7.296878765382e-05 0.0 
2.030136758959e-03 1.446001161943e-03 0.0 
2.225353094182e-03 1.818099274679e-03 0.0 
2.611352491826e-03 4.737681162434e-03 0.0 
2.848782296394e-03 5.407237961055e-03 0.0 
1.475755902981e-03 5.137663942271e-04 0.0 
1.517149189410e-03 6.344563961760e-03 0.0 
9.867509264287e-04 6.299993739304e-03 0.0 
8.923352129613e-04 6.767032396407e-03 0.0 
1.396747251594e-04 -5.353194885539e-04 0.0 
3.610939832924e-04 -3.588207695209e-04 0.0 
7.004999570599e-04 3.306492085638e-03 0.0 
1.493731848240e-03 1.441654496007e-03 0.0 
1.420181483811e-03 1.840973020519e-03 0.0 
3.692363201785e-04 4.968791493749e-04 0.0 
2.440551833202e-04 3.269552758870e-04 0.0 
2.573512182179e-04 4.451284963088e-03 0.0 
2.189627831040e-04 3.471099780799e-03 0.0 
3.710930871952e-04 -2.749856862924e-04 0.0 
3.007925368970e-04 -2.564314676817e-04 0.0 
8.642128734343e-04 9.660133620492e-05 0.0 
4.111745505232e-04 -4.391291976034e-04 0.0 
2.513616253108e-04 3.030833487244e-03 0.0 
1.327300563630e-03 1.629789701099e-04 0.0 
1.418889217373e-03 1.476425543373e-04 0.0 
2.317377846700e-04 -3.314505812233e-04 0.0 
7.895676328913e-04 1.526473998497e-03 0.0 
5.787201524565e-04 1.222639975665e-03 0.0 
8.469447098430e-04 -2.510035295841e-04 0.0 
5.064431114306e-04 -4.209524572114e-04 0.0 
1.256383228577e-04 -5.007235548486e-04 0.0 
6.816374828959e-04 9.461490411730e-05 0.0 
7.142385781149e-04 2.854554540710e-03 0.0 
2.104102681717e-03 1.146735574067e-03 0.0 
2.389506550412e-03 1.382486259808e-03 0.0 
1.744738689190e-03 8.968034662312e-04 0.0 
3.149483229495e-04 -4.496128882112e-04 0.0 
5.783496689358e-04 5.512719300560e-05 0.0 
1.599213501533e-04 -6.714669679744e-05 0.0 
1.833503691016e-03 1.392522362228e-03 0.0 
2.011088896361e-03 1.741219159436e-03 0.0 
1.760377919841e-03 1.789260156287e-03 0.0 
1.712843472826e-03 2.260122653756e-03 0.0 
1.325513981939e-03 2.323452331632e-03 0.0 
1.629003480567e-03 2.824841913871e-03 0.0 
2.517628020880e-03 6.635679991913e-03 0.0 
2.046418874796e-03 2.185205357032e-03 0.0 
2.972389434030e-03 6.075679181905e-03 0.0 
2.824022285478e-03 6.899489735996e-03 0.0 
2.934519626972e-03 6.884900472806e-03 0.0 
3.052143900179e-03 4.964777053347e-03 0.0 
2.984447241709e-03 5.996211244232e-03 0.0 
1.801657603477e-03 1.079328657641e-03 0.0 
2.137105206601e-03 7.197719031570e-04 0.0 
4.404642704493e-04 -2.923965474232e-04 0.0 
4.970966363538e-04 -1.641937318442e-04 0.0 
1.034816406857e-03 -8.687290356262e-05 0.0 
5.262322402362e-04 3.222759536196e-03 0.0 
3.957508254663e-04 2.688150770552e-03 0.0 
6.783638339519e-04 6.669790512748e-03 0.0 
5.923311049463e-04 7.121544388172e-03 0.0 
2.672081649016e-04 -5.169474964149e-04 0.0 
2.695742009205e-04 -5.137338112963e-04 0.0 
7.606348023667e-04 -1.930113687142e-04 0.0 
5.979606221508e-04 3.303917165424e-05 0.0 
9.144676465090e-04 2.908063862318e-03 0.0 
9.024100630732e-04 2.450539155842e-03 0.0 
1.139935412488e-03 2.923383780828e-03 0.0 
8.399096606783e-04 1.256103553437e-04 0.0 
1.542803334067e-03 4.106400414168e-04 0.0 
1.717436868795e-03 3.050129738628e-04 0.0 
3.556763893531e-04 1.477774753070e-04 0.0 
2.748893527825e-03 1.822510042141e-03 0.0 
2.168173002441e-04 -5.315504232031e-04 0.0 
2.600128668730e-03 3.257323077422e-03 0.0 
1.306387489991e-04 -3.618478760398e-05 0.0 
1.509002879211e-04 -1.995356753780e-05 0.0 
1.364559481014e-03 5.217698667266e-04 0.0 
2.289953944105e-03 8.256976639244e-03 0.0 
2.578777488447e-03 1.461084343084e-03 0.0 
2.512689872846e-03 1.291861170394e-03 0.0 
2.737120098952e-03 7.772100504208e-03 0.0 
2.810315417525e-03 7.725108913842e-03 0.0 
3.006791120593e-03 6.749330832050e-03 0.0 
2.841311584072e-03 7.545992925392e-03 0.0 
8.233820771476e-04 -2.890442465571e-04 0.0 
7.042018571937e-04 -3.469037409234e-04 0.0 
1.574142827084e-03 1.041762489323e-03 0.0 
1.579606481140e-03 8.674784490543e-04 0.0 
1.586366289588e-03 1.272905218886e-03 0.0 
1.753585627556e-03 1.598574336785e-03 0.0 
1.122617334949e-03 3.864374525455e-04 0.0 
1.245480841818e-03 3.886325380629e-04 0.0 
1.393300125116e-04 -4.714742206923e-04 0.0 
2.729406103588e-03 6.567054666131e-03 0.0 
5.404510469476e-04 2.335385957513e-03 0.0 
2.633151989968e-03 7.711033508415e-03 0.0 
4.567823195392e-04 4.224710881564e-05 0.0 
4.806409887332e-04 2.433203850919e-05 0.0 
1.383548416419e-04 1.815103671048e-04 0.0 
2.495000417228e-04 4.596419996823e-06 0.0 
1.709120171161e-04 2.514806467368e-03 0.0 
1.214363864813e-03 2.899176411120e-03 0.0 
1.500330816155e-03 3.490697925289e-03 0.0 
9.106714356424e-04 2.366204999912e-03 0.0 
1.953907856001e-05 -1.649996971774e-07 0.0 
1.614463736526e-04 9.020225428582e-03 0.0 
9.723881198305e-05 -1.319831857082e-05 0.0 
3.132120014607e-03 5.440153816162e-03 0.0 
1.845418772421e-04 2.041660331198e-03 0.0 
2.397810137551e-03 1.167099579331e-03 0.0 
2.600547931066e-03 2.510266756126e-03 0.0 
1.023201336151e-03 1.292867233158e-04 0.0 
1.393527784219e-04 3.031749636617e-03 0.0 
1.023602912171e-04 1.961879109628e-03 0.0 
1.021400690189e-03 7.299950785269e-03 0.0 
9.185726936855e-04 7.783643730498e-03 0.0 
1.131297805324e-03 6.838842604554e-03 0.0 
5.241932081317e-04 6.923944938079e-04 0.0 
2.020264947067e-04 7.723853169615e-04 0.0 
3.778003322409e-04 3.129172937668e-03 0.0 
2.606782566487e-04 -4.329630694392e-04 0.0 
2.111254431671e-04 -4.124728643909e-04 0.0 
4.147388216715e-04 -4.590696296452e-04 0.0 
4.968705424083e-04 -4.362653196999e-04 0.0 
4.426452308333e-04 -2.442094467008e-04 0.0 
5.174907343853e-04 -2.598183141340e-04 0.0 
2.516593082874e-03 2.722366688133e-03 0.0 
2.305900758186e-03 2.630327132579e-03 0.0 
2.821450303630e-03 2.722932810620e-03 0.0 
1.270499444233e-03 9.763541788571e-05 0.0 
1.334202633746e-03 7.141729967526e-05 0.0 
1.469836975899e-03 1.266673925605e-04 0.0 
4.036580436044e-04 2.279573206880e-03 0.0 
2.675255941377e-04 1.673358752934e-03 0.0 
9.520102546931e-04 -2.210986107099e-04 0.0 
9.839518395653e-04 -1.721276499938e-04 0.0 
7.871063088550e-04 -3.140451317316e-04 0.0 
5.223896516386e-04 1.912375319566e-03 0.0 
1.071493065389e-04 -2.916054191460e-06 0.0 
1.607010500670e-04 -6.283786626755e-06 0.0 
2.125000217305e-04 -5.242520550866e-04 0.0 
2.635751023870e-04 -5.023247941612e-04 0.0 
4.266987982830e-04 1.573053546664e-03 0.0 
2.447160279929e-04 1.276719415477e-03 0.0 
8.742240486798e-04 2.034159791572e-03 0.0 
1.120804720233e-03 2.462733292920e-03 0.0 
6.196621684164e-04 1.527550414605e-03 0.0 
8.698648512695e-05 -4.896059090028e-04 0.0 
2.179564502285e-03 1.102103436870e-03 0.0 
6.384579277889e-04 1.124283052455e-04 0.0 
8.078269242463e-04 1.494594955561e-04 0.0 
4.576811668352e-04 7.840534625891e-05 0.0 
1.617214247209e-03 6.922751997486e-04 0.0 
1.223459798320e-03 5.050667691678e-04 0.0 
1.308046017334e-03 6.399500904956e-04 0.0 
1.542090727265e-05 3.647857864433e-04 0.0 
7.691211398654e-05 2.360402753521e-03 0.0 
7.039166203627e-04 7.682988866811e-03 0.0 
-4.395171967439e-05 2.371431304695e-04 0.0 
6.091192295574e-04 8.170219254574e-03 0.0 
5.074869668995e-04 7.578657683181e-03 0.0 
5.290418068474e-04 8.652418958879e-03 0.0 
8.012116784744e-05 -5.144003974754e-04 0.0 
1.158513019567e-03 8.012509467519e-03 0.0 
1.285291004048e-03 7.409692583573e-03 0.0 
1.865388933090e-04 -5.090349940861e-04 0.0 
3.510276533416e-04 1.409728371595e-03 0.0 
1.753515045537e-04 -5.388052113327e-04 0.0 
1.776574760496e-04 -5.444257800765e-04 0.0 
3.453109937420e-04 3.088858110134e-05 0.0 
3.748273229025e-04 1.885975049944e-05 0.0 
2.484800746486e-04 2.403441827388e-05 0.0 
2.877908905526e-04 1.592501257720e-05 0.0 
3.888675879817e-04 1.891458493360e-06 0.0 
2.994529995064e-04 1.826655492152e-06 0.0 
8.247331571714e-04 8.332751712006e-03 0.0 
1.950009015644e-04 1.380418936717e-05 0.0 
2.196280515188e-04 2.973836891899e-06 0.0 
1.274468595939e-04 9.352430237291e-06 0.0 
2.578703191372e-03 8.632303033447e-03 0.0 
1.928235711546e-03 3.380164653110e-03 0.0 
1.805550993194e-03 4.183765403160e-03 0.0 
1.315738070695e-03 4.324883672717e-03 0.0 
1.191461645817e-03 9.875788599164e-04 0.0 
1.486520705392e-03 1.427212935028e-03 0.0 
9.911049240585e-05 -5.404154907855e-05 0.0 
1.141182746225e-04 -8.860571079773e-05 0.0 
4.209984098947e-04 8.109408457716e-03 0.0 
3.082754422343e-04 8.144916301439e-03 0.0 
3.333755669080e-04 7.224968416647e-03 0.0 
2.410365305658e-04 7.331241251302e-03 0.0 
2.580649274195e-04 6.430752612987e-03 0.0 
1.663471563725e-04 6.542050107199e-03 0.0 
1.954566367007e-04 5.644019203610e-03 0.0 
1.091884410314e-03 5.776517369440e-04 0.0 
7.391412482372e-04 2.875834438949e-03 0.0 
2.495699595584e-03 8.642990201410e-03 0.0 
8.845686104448e-04 2.778317065446e-04 0.0 
1.050500242703e-03 3.005193898174e-04 0.0 
2.826521262452e-03 7.141759569531e-03 0.0 
2.482539957292e-03 7.892474135423e-03 0.0 
3.814181021082e-04 5.084475319490e-05 0.0 
2.052215182888e-03 1.733561662162e-03 0.0 
2.662826123008e-04 8.837661110748e-04 0.0 
-3.571306814034e-04 9.105721209906e-04 0.0 
-1.041554310470e-04 7.737979713241e-04 0.0 
2.322271483388e-03 2.103999811257e-03 0.0 
3.029615339276e-03 6.462478425464e-03 0.0 
2.277827629055e-03 4.029155808234e-03 0.0 
2.219799222239e-03 5.032341383536e-03 0.0 
1.168495696221e-03 1.177253398590e-04 0.0 
2.449236116630e-04 -4.819761908273e-04 0.0 
6.461633442035e-04 1.928132155546e-03 0.0 
2.850300057655e-04 5.548189291363e-03 0.0 
2.463450875210e-04 1.940018447060e-03 0.0 
5.202210838594e-05 -7.013305166250e-05 0.0 
2.045525650560e-03 1.359743447850e-03 0.0 
3.159378700199e-03 4.522790531057e-03 0.0 
1.041418583445e-03 1.886719644736e-03 0.0 
2.043777112894e-03 2.747514338435e-03 0.0 
2.662230823125e-03 5.935210190725e-03 0.0 
2.347100885404e-03 7.312623126540e-03 0.0 
2.492179937378e-03 7.569077635773e-03 0.0 
2.011069906315e-03 1.050033732479e-03 0.0 
2.527633249523e-03 5.843011517119e-03 0.0 
2.040970167439e-03 6.334488127183e-03 0.0 
3.067070406064e-03 5.266895003843e-03 0.0 
1.386343285488e-03 3.374495850838e-03 0.0 
1.382260757571e-03 2.885926847383e-03 0.0 
1.077062658676e-03 2.036876618442e-03 0.0 
1.345869406125e-03 2.419387648041e-03 0.0 
1.648690148883e-03 3.284263205729e-03 0.0 
1.626409173987e-03 2.788837928544e-03 0.0 
1.274067654656e-03 1.981087770431e-03 0.0 
1.567266786004e-03 2.316516308243e-03 0.0 
1.068655093417e-03 1.411031403587e-03 0.0 
1.454994496188e-03 1.856361277440e-03 0.0 
1.857010646994e-03 2.629521134031e-03 0.0 
1.770956321063e-03 2.177787625415e-03 0.0 
1.366888113303e-03 1.534344795818e-03 0.0 
2.142697448044e-03 2.936246099481e-03 0.0 
7.167927484413e-04 2.466608774784e-04 0.0 
2.536495468189e-03 2.008780689925e-03 0.0 
1.089334691364e-04 5.460927547149e-04 0.0 
-1.276985000314e-05 9.925826858751e-04 0.0 
3.191373211389e-03 4.882136044181e-03 0.0 
5.279281461261e-04 6.826086942824e-04 0.0 
4.370308590276e-04 7.270402972227e-04 0.0 
1.541304257369e-03 1.106783311929e-03 0.0 
6.068701388913e-04 4.409222825511e-04 0.0 
2.679114321107e-03 6.818332033738e-03 0.0 
8.087263502224e-04 6.542464971327e-04 0.0 
6.015195857274e-04 3.563446342986e-04 0.0 
1.635963888685e-03 3.792166204839e-03 0.0 
1.884143343391e-03 4.195313385174e-03 0.0 
1.823259801268e-03 4.735301519492e-03 0.0 
3.341191901923e-04 7.106690995493e-04 0.0 
1.240391224950e-03 6.358570712719e-03 0.0 
4.779450080180e-04 1.946056143448e-04 0.0 
2.079970550287e-03 6.787947589307e-04 0.0 
2.252459586609e-03 8.753385290205e-04 0.0 
2.284230753833e-03 9.312388315109e-04 0.0 
1.906280150041e-03 3.143182857706e-03 0.0 
3.748048704031e-04 1.066854432049e-04 0.0 
6.628854735481e-04 1.740918455578e-04 0.0 
6.033994387453e-04 1.430777592570e-04 0.0 
9.091441860272e-04 2.143421140078e-04 0.0 
3.078420238265e-04 7.511997357771e-05 0.0 
5.384861699302e-04 5.448926445772e-04 0.0 
5.335576691735e-04 4.807939568432e-04 0.0 
8.569504470706e-04 -1.958460887199e-04 0.0 
1.003130586373e-03 -1.042368165754e-04 0.0 
1.131892847192e-03 -8.073548568145e-05 0.0 
1.160882038652e-03 2.214645411189e-06 0.0 
1.005483507326e-03 -1.319569001806e-05 0.0 
1.172343288787e-03 1.096128526140e-04 0.0 
1.328276284731e-03 1.233536776192e-04 0.0 
1.164224161380e-03 2.467456509637e-04 0.0 
1.926141096873e-03 2.013122244199e-03 0.0 
2.408931633581e-04 4.967151909341e-05 0.0 
1.001515935058e-03 -4.513038544662e-05 0.0 
1.122538159430e-03 -2.757087332889e-05 0.0 
1.143153069057e-03 -6.766286333791e-05 0.0 
5.081026650754e-04 -3.080185551581e-04 0.0 
5.910394257411e-04 -2.732858524392e-04 0.0 
5.951681988799e-04 -2.243442921253e-04 0.0 
4.279345594626e-04 -3.395370399511e-04 0.0 
2.583080129436e-03 1.727363605219e-03 0.0 
2.153130968473e-04 4.023828058153e-05 0.0 
1.569044288667e-03 2.158900319548e-04 0.0 
6.624995101013e-04 -2.833666147412e-04 0.0 
1.518839397316e-03 8.937151274112e-03 0.0 
1.624570342389e-03 8.012945969763e-03 0.0 
1.791196895317e-03 7.890146098587e-03 0.0 
1.700099748454e-03 6.951102101534e-03 0.0 
1.442289242005e-03 7.973712621251e-03 0.0 
3.676450436937e-04 -2.269652621019e-04 0.0 
2.934682221359e-04 -2.088278083660e-04 0.0 
2.301445741988e-04 -2.372580283656e-04 0.0 
2.207865954475e-04 -1.902920752452e-04 0.0 
1.602409513170e-04 -2.176785625308e-04 0.0 
1.672594711759e-04 -2.637714346863e-04 0.0 
1.488730505444e-04 -1.715930273944e-04 0.0 
9.275686376359e-05 -2.030597446092e-04 0.0 
1.223646087491e-03 9.030120792239e-03 0.0 
-2.663176978775e-05 -1.280915352484e-04 0.0 
1.236274694561e-04 -2.027587392168e-04 0.0 
1.440888052210e-04 -3.021848338393e-04 0.0 
2.482630632110e-04 -2.629173255651e-04 0.0 
2.508361464708e-04 -1.582917156978e-04 0.0 
3.987856933717e-04 -2.212948337185e-04 0.0 
3.853562544335e-04 -1.047967375773e-04 0.0 
9.445476857942e-05 -7.186916198080e-05 0.0 
5.984381564055e-05 -3.329458470186e-04 0.0 
1.620709469397e-04 -3.777520854809e-04 0.0 
9.021712256512e-05 -4.018693597275e-04 0.0 
1.701165401393e-04 -4.340466901524e-04 0.0 
2.675464523742e-04 -4.111162222921e-04 0.0 
3.357689235496e-04 -4.897004193209e-04 0.0 
5.519226845484e-05 5.221941186603e-06 0.0 
6.218823966779e-05 -3.316215114459e-04 0.0 
1.189277653015e-04 -3.542133832523e-04 0.0 
1.122678360055e-04 -3.951005996881e-04 0.0 
1.780591210005e-04 -3.737514916965e-04 0.0 
1.192643848434e-04 -3.133479936144e-04 0.0 
5.393784818073e-05 -4.155257248774e-04 0.0 
1.027717047341e-04 -4.292461697195e-04 0.0 
6.222928438986e-05 -5.724485757317e-04 0.0 
5.656593292864e-05 -5.628326613187e-04 0.0 
2.576235273384e-05 -5.644166975876e-04 0.0 
4.886250609803e-05 -5.507166505083e-04 0.0 
7.950051559280e-05 -5.508587648420e-04 0.0 
8.295183560289e-05 -5.620955686307e-04 0.0 
1.074997231363e-04 -5.610665154626e-04 0.0 
1.034812244774e-04 -5.679229533722e-04 0.0 
1.289809718852e-04 -5.584830793970e-04 0.0 
1.378267441044e-04 -5.491793236214e-04 0.0 
1.179343915831e-04 -5.630125323389e-04 0.0 
6.249909189087e-05 4.342954373241e-03 0.0 
1.185624508973e-04 3.854753914952e-03 0.0 
1.797333002527e-04 2.776485024289e-05 0.0 
9.523694715225e-04 8.965183716472e-03 0.0 
1.278815726594e-04 -4.926490566754e-04 0.0 
9.575820583963e-05 9.683690988715e-04 0.0 
1.500524178190e-04 7.987939133808e-04 0.0 
1.192071305682e-04 7.752723865894e-04 0.0 
3.237847002844e-05 -1.484963716230e-05 0.0 
5.239993845548e-05 -6.102223252903e-06 0.0 
5.202322936020e-05 9.422995273426e-04 0.0 
4.489948514998e-04 -4.427027913731e-04 0.0 
1.000498195541e-03 1.637934625044e-03 0.0 
2.729592937643e-04 2.590425265303e-03 0.0 
7.074549177024e-04 9.148772244379e-04 0.0 
5.954134649610e-04 -3.957072167179e-04 0.0 
1.820809566810e-04 -1.041947011363e-04 0.0 
5.569792051460e-04 -1.299044239377e-04 0.0 
2.144317613986e-04 -2.722951942757e-05 0.0 
3.326950190819e-04 -1.352857494171e-04 0.0 
3.677246643415e-04 -4.251921229868e-05 0.0 
5.593431426049e-04 1.179427935535e-04 0.0 
1.134960858411e-04 -5.241387811363e-04 0.0 
7.626573435672e-04 6.214703660863e-03 0.0 
4.886128666414e-04 6.566801187929e-03 0.0 
4.565544777020e-04 4.114967048074e-03 0.0 
3.030619192213e-04 -4.476483340254e-04 0.0 
2.362242160774e-04 -2.821862790434e-04 0.0 
2.564023639026e-04 -5.142265323951e-04 0.0 
1.093223310826e-03 7.197770964887e-04 0.0 
3.075934571756e-03 5.999490531954e-03 0.0 
1.039641048694e-03 -1.311512728913e-04 0.0 
4.870728830435e-04 -3.543198620392e-04 0.0 
5.382221896345e-04 -4.107799724451e-04 0.0 
6.074922513879e-04 -3.742361824878e-04 0.0 
2.754193259973e-03 2.364486167267e-03 0.0 
7.549390003086e-04 -2.412611785930e-04 0.0 
6.945677112166e-04 -2.278518376647e-05 0.0 
3.473290034386e-04 3.571719713470e-03 0.0 
1.380618866945e-04 -5.415770909935e-04 0.0 
7.184966113738e-04 1.221093643589e-05 0.0 
7.469125616372e-04 -1.451805767864e-04 0.0 
1.079036312633e-03 5.826145322355e-03 0.0 
1.576011775038e-03 4.342425659295e-04 0.0 
4.568373332436e-04 -2.985371607029e-04 0.0 
6.712085437618e-04 3.759790713924e-03 0.0 
6.907900679463e-04 2.018864601441e-03 0.0 
1.398503600382e-03 6.875642514995e-03 0.0 
2.133096182177e-04 -5.330313881162e-04 0.0 
7.998626082951e-04 7.242373394399e-03 0.0 
5.356078312613e-04 7.171217944544e-05 0.0 
1.360357904426e-03 3.867205428541e-03 0.0 
2.369823803193e-04 -4.679083994031e-04 0.0 
1.731703803410e-03 2.969626161650e-04 0.0 
3.130004022057e-03 3.735451563712e-03 0.0 
2.162976080894e-03 9.212572478499e-03 0.0 
2.835368974310e-04 2.188024643271e-03 0.0 
2.563986495749e-03 1.408701176684e-03 0.0 
1.172460492800e-03 2.567161997918e-04 0.0 
1.654705702924e-03 3.069893876687e-04 0.0 
1.977699977951e-04 -4.526839687416e-04 0.0 
4.880527002857e-04 2.577881979671e-06 0.0 
2.132903995050e-03 7.494301053389e-04 0.0 
5.428933497634e-04 2.784334118409e-03 0.0 
2.559698499815e-03 2.269054934464e-03 0.0 
1.691173304011e-03 4.136792020021e-04 0.0 
9.026560152863e-04 3.368568401582e-03 0.0 
1.249275877988e-03 -3.652488309114e-05 0.0 
1.544960513756e-03 4.827626443471e-04 0.0 
3.135116427181e-03 5.786855287830e-03 0.0 
3.011542710129e-03 3.170399659603e-03 0.0 
2.637239501648e-03 3.835881461454e-03 0.0 
2.900250314878e-03 2.254335748679e-03 0.0 
1.243731471211e-04 -1.290400928978e-04 0.0 
5.984962897576e-04 5.773405640205e-06 0.0 
5.740445977731e-04 1.250086434680e-04 0.0 
2.362604849833e-03 2.636446123481e-03 0.0 
1.341885377438e-03 5.851533239922e-03 0.0 
1.821946058092e-03 1.138466377222e-03 0.0 
3.838785292070e-04 1.816970506893e-03 0.0 
3.055493534627e-03 4.088780030485e-03 0.0 
4.794346499015e-04 -2.231046552464e-05 0.0 
7.134188817869e-04 2.434315767794e-03 0.0 
6.757014195303e-04 -2.350035119245e-04 0.0 
3.849089712619e-05 -5.106901404265e-04 0.0 
4.016574063507e-04 9.653835333421e-04 0.0 
1.356004847011e-03 4.109451139859e-04 0.0 
2.421086645014e-03 1.191659471549e-03 0.0 
6.721291722565e-04 -1.863327066746e-04 0.0 
7.744404843120e-04 1.510695084190e-03 0.0 
3.849176052645e-04 -1.930415142840e-05 0.0 
1.012190154970e-03 8.570841571984e-05 0.0 
-2.469886651069e-04 1.626898392180e-03 0.0 
2.410581881620e-03 8.476189527785e-03 0.0 
2.998279389000e-04 -1.536890940516e-05 0.0 
1.603247495926e-03 2.007091908059e-04 0.0 
1.329824797603e-03 3.715119104413e-04 0.0 
1.008573690158e-04 -2.451759641720e-04 0.0 
1.084161103013e-03 6.412165307677e-04 0.0 
2.576057125337e-03 8.327100043250e-03 0.0 
2.244978846570e-04 -1.093388430993e-05 0.0 
1.193166387761e-03 1.698973204231e-04 0.0 
1.793363212997e-03 1.400621552736e-03 0.0 
2.676630666323e-04 9.025289294156e-03 0.0 
1.408270434679e-04 5.377375717680e-06 0.0 
1.008919234888e-03 1.657369885937e-04 0.0 
2.777035154906e-03 1.998038005289e-03 0.0 
1.479575078058e-03 1.013134624860e-04 0.0 
2.256857712531e-03 9.621483451827e-03 0.0 
5.838795575177e-04 -1.762391051281e-04 0.0 
2.921561437734e-03 3.276454465383e-03 0.0 
2.865867372035e-04 7.059917569428e-04 0.0 
9.863499797993e-04 1.974499951167e-04 0.0 
2.050110340312e-03 5.141846532787e-03 0.0 
5.141736460165e-04 -2.114054884649e-04 0.0 
2.202181048756e-03 9.238519014193e-04 0.0 
1.087715672389e-04 -5.506685390484e-04 0.0 
2.553066008797e-03 8.693241836313e-03 0.0 
4.335696059485e-04 -1.963523247519e-04 0.0 
1.350896885528e-03 2.507246774766e-04 0.0 
1.361961831935e-03 4.211449837752e-05 0.0 
9.789835794769e-04 3.653326998828e-04 0.0 
3.548923773347e-04 -1.799757095964e-04 0.0 
1.505809976113e-03 2.598171676494e-04 0.0 
2.786278238773e-04 -1.629670135524e-04 0.0 
2.212537705999e-03 9.612700295986e-03 0.0 
2.123876357671e-03 4.552883468651e-03 0.0 
2.027176685205e-04 -1.458233407064e-04 0.0 
2.691592780133e-03 2.756392038786e-03 0.0 
1.664863554432e-04 -5.459025846976e-04 0.0 
2.604673143083e-03 1.610516278655e-03 0.0 
7.634872676170e-05 -2.533012503970e-05 0.0 
7.411944682727e-04 -3.285422675909e-04 0.0 
1.243218658986e-03 2.045623286480e-07 0.0 
1.912532570849e-03 3.660199576018e-03 0.0 
1.957154679130e-03 9.030195842237e-03 0.0 
1.202761750163e-03 3.435108646345e-05 0.0 
2.390824677658e-03 2.246281202409e-03 0.0 
2.416682786804e-03 1.290636722367e-03 0.0 
2.413412116285e-03 1.114811101871e-03 0.0 
1.125851854327e-03 6.362852389400e-05 0.0 
2.341214471003e-03 7.189641694507e-03 0.0 
4.724628685481e-04 -4.447287330643e-04 0.0 
4.071892387649e-04 -4.700792346434e-04 0.0 
1.452308483764e-03 1.402663053151e-04 0.0 
2.176295465277e-03 2.159577202040e-03 0.0 
7.714616924684e-05 -5.364710847012e-04 0.0 
2.172903896183e-03 3.441808024220e-03 0.0 
3.299726250004e-04 -4.744457482659e-04 0.0 
1.288453021610e-03 2.332784030010e-05 0.0 
1.937187282833e-03 8.594363609870e-04 0.0 
7.532703704016e-05 6.289076417164e-03 0.0 
1.234740279988e-03 -5.336967881662e-05 0.0 
4.208653062724e-05 -4.831464583843e-04 0.0 
1.089750897104e-03 -1.424495714683e-04 0.0 
2.339770747818e-03 1.024902190255e-03 0.0 
1.036942958572e-03 -1.866411081783e-04 0.0 
9.085957399987e-04 -2.547241921512e-04 0.0 
1.892649422098e-04 1.663218624624e-03 0.0 
8.558938842136e-04 -2.757616126408e-04 0.0 
2.600153448273e-05 7.794261366844e-04 0.0 
2.263120237150e-05 3.813092523502e-06 0.0 
9.991789373275e-05 8.260276139624e-03 0.0 
1.335643028971e-03 7.583093419712e-03 0.0 
-2.209028671704e-04 4.084895192429e-04 0.0 
1.733264101469e-03 5.126041987619e-03 0.0 
6.749354293072e-04 -3.645016207771e-04 0.0 
2.388227771576e-03 3.136797862009e-03 0.0 
2.074209652993e-04 8.217244303253e-03 0.0 
5.699089267474e-04 -4.078469536274e-04 0.0 
1.008083461992e-03 1.150891454719e-03 0.0 
5.265953423158e-04 2.560573593231e-04 0.0 
1.343707845274e-04 4.779529580373e-03 0.0 
1.136367442735e-03 2.888029890793e-04 0.0 
2.207669720368e-03 1.022244232421e-03 0.0 
3.822248098667e-05 2.457326311246e-03 0.0 
6.173796242578e-04 9.126538873385e-03 0.0 
1.747395379135e-04 -4.766762870038e-04 0.0 
5.950599809722e-05 -1.082656916829e-04 0.0 
1.043719869924e-03 5.101807562894e-03 0.0 
1.048701806173e-03 3.526501237818e-03 0.0 
4.495832560010e-04 2.352305636214e-03 0.0 
1.517294074183e-04 -4.396705774200e-04 0.0 
2.489961319795e-04 -3.452886380994e-04 0.0 
5.284959596955e-04 3.438785626157e-03 0.0 
7.376867902204e-04 2.123900656483e-04 0.0 
1.029275508664e-03 8.231351717550e-03 0.0 
1.882419937325e-03 9.094614318658e-04 0.0 
2.670954569398e-05 2.344679698104e-03 0.0 
4.948881711639e-04 1.557053553878e-03 0.0 
9.940723899525e-04 4.366307551770e-04 0.0 
1.210722802768e-04 1.571286052080e-05 0.0 
1.483229707003e-03 6.805674173549e-04 0.0 
6.808049623011e-05 1.594380753839e-03 0.0 
1.542327757801e-03 7.237704684852e-03 0.0 
1.092071185289e-03 7.983994655858e-04 0.0 
1.814451889414e-04 3.995178022745e-03 0.0 
8.616566826950e-05 1.018434278737e-05 0.0 
1.298573430957e-03 8.287488919813e-03 0.0 
1.137026161852e-04 1.550655575116e-03 0.0 
4.514805295593e-04 8.758966032988e-06 0.0 
5.773814991298e-05 1.505328096096e-03 0.0 
2.053850151800e-03 2.444943707133e-03 0.0 
4.200220930736e-04 7.020119863746e-03 0.0 
1.871833144917e-03 7.087078127023e-03 0.0 
6.299332074909e-05 7.643342381925e-07 0.0 
8.941778136494e-04 1.297359828230e-03 0.0 
-6.546774197454e-05 1.256566560409e-03 0.0 
2.111751705061e-04 4.882563140680e-03 0.0 
2.403202831356e-04 -3.727635579824e-04 0.0 
2.444451873809e-05 8.397072084937e-05 0.0 
3.112627535571e-04 3.767950823511e-05 0.0 
1.655932275986e-03 1.795826649220e-03 0.0 
1.062557237546e-04 3.331645653609e-06 0.0 
2.156202200030e-05 -5.515462737958e-04 0.0 
1.670651338469e-04 -5.287914682325e-04 0.0 
3.621669928856e-04 5.688459532033e-05 0.0 
1.007122352433e-03 9.171617877050e-04 0.0 
5.379462836964e-04 -1.383413511120e-04 0.0 
1.629272870954e-04 6.181328451189e-04 0.0 
-2.263799389267e-04 1.038246941639e-03 0.0 
8.378972152743e-04 9.246020751692e-03 0.0 
1.432234973381e-04 -5.547811173459e-04 0.0 
6.757755369316e-05 7.680275549012e-06 0.0 
2.819434006935e-04 1.475205104611e-03 0.0 
1.678050546080e-04 -3.338406965153e-04 0.0 
1.834451935399e-03 8.631530951610e-03 0.0 
9.289373907731e-05 -4.622913651016e-04 0.0 
1.433151214014e-03 8.403731989589e-04 0.0 
2.369896287140e-04 -4.531921167471e-04 0.0 
1.893291256603e-04 1.396792306081e-03 0.0 
4.399870939129e-04 8.654690903626e-05 0.0 
6.108524545746e-04 1.301051457848e-03 0.0 
3.247549163008e-04 1.112198990227e-04 0.0 
-1.012962362183e-04 5.456096942990e-04 0.0 
8.972883677359e-04 4.273830547449e-04 0.0 
7.753438394019e-04 1.655734185246e-04 0.0 
4.652857074711e-04 9.157540099042e-03 0.0 
7.754706906130e-04 1.334566101881e-03 0.0 
1.559661657456e-04 -4.086173032302e-04 0.0 
1.664605618660e-04 -5.366390281855e-04 0.0 
1.095529998714e-05 6.903723496643e-04 0.0 
1.837248534214e-05 -5.747990002449e-04 0.0 
7.883518236079e-05 9.136037555739e-03 0.0 
8.774790608834e-06 2.564727068076e-06 0.0 
1.038537963988e-04 -5.400857603303e-04 0.0 
1.634500761898e-04 7.527172241518e-03 0.0 
9.403287453004e-04 9.513453613204e-04 0.0 
4.438992768228e-05 -2.374702145177e-04 0.0 
8.858168101444e-05 3.087770853450e-03 0.0 
3.419186650530e-04 -3.058324737389e-04 0.0 
-1.807213030884e-04 1.885624360083e-04 0.0 
1.291636651241e-04 5.792004205350e-03 0.0 
8.525515323694e-04 3.416448495465e-04 0.0 
4.654668035239e-04 1.283402270401e-03 0.0 
3.355341061534e-04 6.471009681050e-03 0.0 
1.720675721899e-04 1.051202044715e-03 0.0 
1.303713906031e-03 1.324149215396e-03 0.0 
1.784422842580e-04 -2.989437670162e-04 0.0 
1.451522301062e-03 1.050585994159e-03 0.0 
9.171450715188e-04 2.414815360014e-04 0.0 
-3.874810530158e-04 1.118953461276e-03 0.0 
3.866066655204e-05 -1.920973441400e-04 0.0 
1.523827754748e-04 -5.486497680166e-04 0.0 
2.001889192206e-04 1.838075358422e-05 0.0 
1.183441624266e-04 -2.781711776796e-04 0.0 
3.054079551538e-04 1.046894461661e-02 0.0 
7.454872952385e-05 1.445369117952e-02 0.0 
1.291336434608e-03 1.109212234953e-02 0.0 
6.178949838718e-05 1.343067465660e-02 0.0 
1.718471484578e-03 1.111339661111e-02 0.0 
5.762797239966e-05 1.241307190989e-02 0.0 
1.858588665875e-03 1.072317471742e-02 0.0 
5.580646275058e-05 1.139750958357e-02 0.0 
1.824722690084e-03 1.008936292887e-02 0.0 
5.399492557799e-05 1.038330518709e-02 0.0 

VECTORS node_materi_displacement float
0.0 6.529369832494e-02 0.0 
0.0 1.144825418984e-01 0.0 
0.0 0.0 0.0 
0.0 0.0 0.0 
0.0 6.619834289196e-02 0.0 
0.0 6.640062616787e-02 0.0 
0.0 6.594174720118e-02 0.0 
0.0 6.481943197522e-02 0.0 
0.0 6.305754992429e-02 0.0 
0.0 6.080279560373e-02 0.0 
0.0 5.814125433673e-02 0.0 
0.0 5.513822019322e-02 0.0 
0.0 5.185682980623e-02 0.0 
0.0 4.833711537933e-02 0.0 
0.0 4.459081986955e-02 0.0 
0.0 4.063246248210e-02 0.0 
0.0 3.645430612957e-02 0.0 
0.0 3.204960409755e-02 0.0 
0.0 2.739139064085e-02 0.0 
0.0 2.246487437948e-02 0.0 
0.0 1.726395343216e-02 0.0 
0.0 1.178014493261e-02 0.0 
0.0 6.023388252133e-03 0.0 
0.0 0.0 0.0 
0.0 0.0 0.0 
0.0 0.0 0.0 
0.0 0.0 0.0 
0.0 0.0 0.0 
0.0 0.0 0.0 
0.0 0.0 0.0 
0.0 0.0 0.0 
0.0 0.0 0.0 
0.0 0.0 0.0 
0.0 0.0 0.0 
0.0 0.0 0.0 
0.0 0.0 0.0 
0.0 0.0 0.0 
0.0 0.0 0.0 
0.0 0.0 0.0 
0.0 0.0 0.0 
0.0 0.0 0.0 
0.0 0.0 0.0 
0.0 0.0 0.0 
0.0 0.0 0.0 
0.0 0.0 0.0 
0.0 0.0 0.0 
0.0 0.0 0.0 
0.0 0.0 0.0 
0.0 0.0 0.0 
0.0 0.0 0.0 
0.0 0.0 0.0 
0.0 0.0 0.0 
0.0 0.0 0.0 
0.0 0.0 0.0 
0.0 0.0 0.0 
0.0 0.0 0.0 
0.0 0.0 0.0 
0.0 0.0 0.0 
0.0 0.0 0.0 
0.0 0.0 0.0 
0.0 0.0 0.0 
0.0 0.0 0.0 
0.0 0.0 0.0 
0.0 0.0 0.0 
0.0 0.0 0.0 
0.0 0.0 0.0 
0.0 0.0 0.0 
0.0 0.0 0.0 
0.0 0.0 0.0 
0.0 0.0 0.0 
0.0 0.0 0.0 
0.0 0.0 0.0 
0.0 1.045831425162e-01 0.0 
0.0 9.428283074430e-02 0.0 
0.0 8.359809936133e-02 0.0 
0.0 7.255688147949e-02 0.0 
0.0 6.117673535600e-02 0.0 
0.0 4.948333582910e-02 0.0 
0.0 3.749866897585e-02 0.0 
0.0 2.524335818540e-02 0.0 
0.0 1.274261010814e-02 0.0 
-8.392724751704e-03 -8.146485698108e-03 0.0 
2.669073010241e-02 1.054183930837e-01 0.0 
-6.996257202875e-04 2.057977208129e-02 0.0 
6.808348761914e-03 4.417571725282e-02 0.0 
1.379291464591e-02 6.521537281973e-02 0.0 
1.993695418205e-02 8.350847168369e-02 0.0 
2.450055075563e-02 9.847607027293e-02 0.0 
2.862831649731e-02 1.078138422047e-01 0.0 
3.066229776332e-02 1.121372139165e-01 0.0 
3.072781028710e-02 1.127108212024e-01 0.0 
2.928174243755e-02 1.102639206048e-01 0.0 
0.0 1.574120118138e-01 0.0 
0.0 1.497015108165e-01 0.0 
0.0 1.415882925948e-01 0.0 
0.0 1.329821824207e-01 0.0 
0.0 1.239647991389e-01 0.0 
1.499108123283e-03 1.144771222368e-01 0.0 
2.992765730590e-03 1.144565796446e-01 0.0 
4.508692645207e-03 1.144153348046e-01 0.0 
6.050029306402e-03 1.143425277705e-01 0.0 
7.622944342925e-03 1.142366168379e-01 0.0 
9.229216087047e-03 1.140612153364e-01 0.0 
1.088727843432e-02 1.138267509740e-01 0.0 
1.259538011721e-02 1.134838345112e-01 0.0 
1.437430301619e-02 1.130360819771e-01 0.0 
1.622881932781e-02 1.124241185310e-01 0.0 
1.815862057246e-02 1.116202598662e-01 0.0 
2.017720095753e-02 1.105720735880e-01 0.0 
2.227490806328e-02 1.092313819733e-01 0.0 
2.444369713601e-02 1.075303299148e-01 0.0 
-5.109489479087e-03 -2.310519406061e-02 0.0 
-2.211884490567e-04 -3.102117881899e-02 0.0 
5.142929542197e-03 -3.377761218429e-02 0.0 
1.099734169860e-02 -3.099472368908e-02 0.0 
1.537312790685e-02 -2.023505677477e-02 0.0 
1.794840777266e-02 -6.559605265578e-03 0.0 
1.890442385898e-02 4.045316974724e-03 0.0 
1.914951253181e-02 1.295012538601e-02 0.0 
1.922439514447e-02 2.084849792583e-02 0.0 
1.902515430193e-02 2.815539780431e-02 0.0 
1.846534654412e-02 3.486353537704e-02 0.0 
1.760684610775e-02 4.090701508081e-02 0.0 
1.638290318599e-02 4.643661648684e-02 0.0 
1.472646994668e-02 5.137363834564e-02 0.0 
1.274193835483e-02 5.561431575618e-02 0.0 
1.052161568996e-02 5.906223488313e-02 0.0 
8.101755158451e-03 6.179878671501e-02 0.0 
5.520383762004e-03 6.379554319332e-02 0.0 
2.775165507589e-03 6.493209322581e-02 0.0 
2.234547889380e-02 1.099080879137e-01 0.0 
2.156620166018e-02 1.188969479146e-01 0.0 
2.080020402269e-02 1.264095249917e-01 0.0 
2.014471519459e-02 1.326827092540e-01 0.0 
1.949130185661e-02 1.378705811019e-01 0.0 
1.879810010102e-02 1.421242576103e-01 0.0 
1.803880201910e-02 1.455859862617e-01 0.0 
1.720013705498e-02 1.483726938642e-01 0.0 
1.628430807566e-02 1.505926082471e-01 0.0 
1.532756370459e-02 1.523261059398e-01 0.0 
1.432490982221e-02 1.536718271334e-01 0.0 
1.327799284121e-02 1.547067822197e-01 0.0 
1.219047204434e-02 1.554926828719e-01 0.0 
1.106654958332e-02 1.560800071665e-01 0.0 
9.910481021233e-03 1.565111265758e-01 0.0 
8.727451102735e-03 1.568221763860e-01 0.0 
7.523067870658e-03 1.570418669955e-01 0.0 
6.302469211813e-03 1.571925407400e-01 0.0 
5.071033437712e-03 1.572928650988e-01 0.0 
3.834633874181e-03 1.573557651894e-01 0.0 
2.599196795939e-03 1.573835065737e-01 0.0 
1.325461034147e-03 1.573714556672e-01 0.0 
1.372512001691e-03 1.497409300690e-01 0.0 
2.729512496033e-03 1.497163330597e-01 0.0 
4.081088016716e-03 1.496851414973e-01 0.0 
5.429717421528e-03 1.496230797334e-01 0.0 
6.777836129618e-03 1.495219636481e-01 0.0 
8.126228348062e-03 1.493676649195e-01 0.0 
9.474168439490e-03 1.491401713870e-01 0.0 
1.082040048605e-02 1.488157838239e-01 0.0 
1.216401732902e-02 1.483623739398e-01 0.0 
1.350489161605e-02 1.477394886237e-01 0.0 
1.484390360333e-02 1.469006713896e-01 0.0 
1.618329886668e-02 1.457900053174e-01 0.0 
1.752738632977e-02 1.443384506509e-01 0.0 
1.888285466148e-02 1.424575014791e-01 0.0 
2.022534314333e-02 1.400593409597e-01 0.0 
2.155480132943e-02 1.370414964486e-01 0.0 
2.288010022837e-02 1.332856901060e-01 0.0 
2.422005324006e-02 1.286497702485e-01 0.0 
2.560130504002e-02 1.230072319333e-01 0.0 
2.700516045314e-02 1.161515320461e-01 0.0 
2.884641498841e-02 1.181155578916e-01 0.0 
2.712487785977e-02 1.230441088970e-01 0.0 
2.539433531791e-02 1.270747948449e-01 0.0 
2.369608835208e-02 1.303656463242e-01 0.0 
2.202234257920e-02 1.330099198288e-01 0.0 
2.036794758618e-02 1.351163391473e-01 0.0 
1.874691956118e-02 1.367736951451e-01 0.0 
1.717072936276e-02 1.380618843844e-01 0.0 
1.563185366554e-02 1.390512342826e-01 0.0 
1.412393061889e-02 1.398005354531e-01 0.0 
1.264122280613e-02 1.403575388507e-01 0.0 
1.118135447457e-02 1.407639818212e-01 0.0 
9.741497767011e-03 1.410566880115e-01 0.0 
8.317369964815e-03 1.412631425547e-01 0.0 
6.910158553291e-03 1.414044483809e-01 0.0 
5.516433181907e-03 1.414968214974e-01 0.0 
4.131318758089e-03 1.415519652584e-01 0.0 
2.751308977317e-03 1.415768737820e-01 0.0 
1.374882813245e-03 1.415559741685e-01 0.0 
1.451729990495e-03 1.330115240289e-01 0.0 
2.908923427865e-03 1.329806703477e-01 0.0 
4.374647457636e-03 1.329494122954e-01 0.0 
5.853945764549e-03 1.328883033795e-01 0.0 
7.351251722686e-03 1.327863228264e-01 0.0 
8.874130140800e-03 1.326293115030e-01 0.0 
1.042744597616e-02 1.324016702086e-01 0.0 
1.202003390311e-02 1.320781997836e-01 0.0 
1.365961959506e-02 1.316303588891e-01 0.0 
1.534397755106e-02 1.310187923940e-01 0.0 
1.707800402919e-02 1.301939846261e-01 0.0 
1.886924710741e-02 1.291062174955e-01 0.0 
2.072537596474e-02 1.276905409568e-01 0.0 
2.265173029419e-02 1.258795547609e-01 0.0 
2.462722219487e-02 1.235779182711e-01 0.0 
2.663621191395e-02 1.207049579537e-01 0.0 
2.864747488906e-02 1.171228155023e-01 0.0 
2.712768961190e-02 1.132938924698e-01 0.0 
2.504408517858e-02 1.157324769855e-01 0.0 
2.296970896425e-02 1.176749303324e-01 0.0 
2.096926591752e-02 1.192356903288e-01 0.0 
1.904158474590e-02 1.204624661899e-01 0.0 
1.718538613557e-02 1.214123428382e-01 0.0 
1.539124398969e-02 1.221393403731e-01 0.0 
1.366876382931e-02 1.226850624246e-01 0.0 
1.200555390105e-02 1.230895632454e-01 0.0 
1.039825547715e-02 1.233900929730e-01 0.0 
8.833753522664e-03 1.236005086835e-01 0.0 
7.308556010605e-03 1.237510889336e-01 0.0 
5.811139768360e-03 1.238464900775e-01 0.0 
4.338358595628e-03 1.239066908025e-01 0.0 
2.884708495808e-03 1.239365052893e-01 0.0 
1.438823950947e-03 1.239246213895e-01 0.0 
-4.131227853151e-03 7.580155947883e-03 0.0 
3.050240861885e-03 3.264689121830e-02 0.0 
1.037200505633e-02 5.500065825610e-02 0.0 
1.699072947128e-02 7.472896046433e-02 0.0 
2.258541434214e-02 9.157808728785e-02 0.0 
2.683593225218e-02 1.038161174983e-01 0.0 
2.993727762382e-02 1.104793747413e-01 0.0 
3.091138789029e-02 1.128370187058e-01 0.0 
3.017180537035e-02 1.118171906303e-01 0.0 
2.810748373490e-02 1.081051733078e-01 0.0 
1.176786895835e-02 3.147924482272e-02 0.0 
2.512951900313e-03 3.888972931872e-03 0.0 
1.312004954884e-02 2.438327159721e-02 0.0 
7.498004619286e-03 -2.461475749208e-02 0.0 
-5.235771755103e-05 3.977522078072e-03 0.0 
2.433450758383e-02 7.168481401309e-02 0.0 
-1.163975715767e-03 4.621769968885e-02 0.0 
4.855805203989e-03 4.707521984945e-03 0.0 
3.224920796709e-02 9.717664287756e-02 0.0 
6.210674025842e-03 5.946615261477e-03 0.0 
3.337124459966e-02 1.051894785516e-01 0.0 
-8.383411095696e-04 4.205029892061e-03 0.0 
1.163751709663e-02 4.987238926066e-02 0.0 
6.484178590259e-03 7.684938239101e-03 0.0 
2.867390086735e-02 9.954280933004e-02 0.0 
-8.479515501372e-04 5.916352550528e-02 0.0 
-1.005244298806e-03 3.503860531712e-02 0.0 
6.093818862705e-03 9.157232886942e-03 0.0 
4.424631178902e-03 9.804077964563e-03 0.0 
1.410924094080e-03 1.081619967286e-02 0.0 
2.529705495509e-03 1.154998774517e-02 0.0 
3.256977025453e-03 1.005891163559e-02 0.0 
2.332828848354e-02 9.985734151601e-02 0.0 
1.532903193524e-02 1.038094616588e-01 0.0 
1.004842107823e-02 1.047675949686e-01 0.0 
9.690532128887e-04 6.672776655889e-02 0.0 
-8.146369228179e-04 4.959088139727e-03 0.0 
2.745913867188e-03 -2.441135891333e-02 0.0 
7.091578882843e-03 6.118980335624e-02 0.0 
-6.294730681538e-04 2.023795685178e-02 0.0 
5.159225982070e-03 1.058775842619e-01 0.0 
3.309607681030e-04 6.515185503378e-02 0.0 
5.930663145267e-03 1.079663297059e-02 0.0 
5.255535613498e-03 4.863969971972e-03 0.0 
6.429925235642e-03 6.715513676082e-03 0.0 
4.022232435915e-03 4.474941861752e-03 0.0 
1.259098276598e-03 3.599622220783e-03 0.0 
1.050246505536e-02 -1.332726870795e-03 0.0 
1.919171750417e-02 1.028383289631e-01 0.0 
-7.341432130168e-04 4.840457129169e-03 0.0 
7.276063645087e-04 4.403276328111e-02 0.0 
1.308374188989e-02 3.803562086452e-02 0.0 
-1.154826514189e-03 5.328311191560e-02 0.0 
7.160465297137e-04 8.837518527216e-03 0.0 
2.909403068328e-02 8.555373322304e-02 0.0 
1.836617484449e-02 5.304296125715e-02 0.0 
3.368894169605e-02 1.032196479005e-01 0.0 
3.158905484297e-02 1.037238099749e-01 0.0 
4.088792930106e-03 7.234739720211e-03 0.0 
1.178488842911e-03 8.770460968625e-02 0.0 
-4.148825728694e-04 4.071204934317e-03 0.0 
3.300061644027e-03 6.520761208812e-02 0.0 
3.986032958167e-04 1.994970749810e-02 0.0 
2.723457522201e-02 9.620415762260e-02 0.0 
2.868441246991e-02 9.056907795889e-02 0.0 
2.628983370221e-02 8.824085265611e-02 0.0 
2.788439531438e-02 8.155904889636e-02 0.0 
2.557359488164e-02 7.794780039530e-02 0.0 
2.662097053975e-02 7.204297603927e-02 0.0 
2.910692667465e-02 7.531515864911e-02 0.0 
2.742056095217e-02 6.604192837914e-02 0.0 
3.002910043277e-02 6.907366816582e-02 0.0 
2.408565138732e-02 6.813148330663e-02 0.0 
2.789784980998e-02 6.000783252561e-02 0.0 
3.059604497119e-02 6.279038880009e-02 0.0 
2.802150651589e-02 5.401555995014e-02 0.0 
3.075833276237e-02 5.654390011650e-02 0.0 
3.319563153547e-02 6.489095484525e-02 0.0 
3.336993473899e-02 5.838459002481e-02 0.0 
3.560314014335e-02 6.620701889660e-02 0.0 
3.578243627505e-02 5.939780819717e-02 0.0 
3.308296896533e-02 5.205124573764e-02 0.0 
3.543978430417e-02 5.282255741271e-02 0.0 
3.785888607199e-02 5.952582769058e-02 0.0 
3.744668881031e-02 5.269902094562e-02 0.0 
3.954161760980e-02 5.870245224312e-02 0.0 
3.901637385481e-02 5.162279108102e-02 0.0 
4.077496130143e-02 5.687218345359e-02 0.0 
4.010195309382e-02 4.959662294188e-02 0.0 
3.788716017787e-02 4.503117297680e-02 0.0 
3.880176553270e-02 4.292220170413e-02 0.0 
4.062938496824e-02 4.664776607530e-02 0.0 
3.913288793453e-02 3.995241639095e-02 0.0 
4.055391199967e-02 4.284096928446e-02 0.0 
3.884282247774e-02 3.622886011428e-02 0.0 
3.702410627676e-02 3.406516789452e-02 0.0 
3.650749873643e-02 3.053654903533e-02 0.0 
3.788487091915e-02 3.182088617885e-02 0.0 
3.523014320566e-02 2.629228936711e-02 0.0 
3.617899512838e-02 2.663746367573e-02 0.0 
3.318301917345e-02 2.140792517321e-02 0.0 
3.374477347506e-02 2.090037249271e-02 0.0 
3.040993308394e-02 1.619558899564e-02 0.0 
2.963128090902e-02 1.736265296432e-02 0.0 
2.657888826224e-02 1.281983003709e-02 0.0 
2.702319773952e-02 1.099566525906e-02 0.0 
2.300473808566e-02 8.523599390995e-03 0.0 
2.245904931131e-02 1.075778630914e-02 0.0 
1.881423305549e-02 7.420710505838e-03 0.0 
1.825167451340e-02 9.880742694731e-03 0.0 
1.464839337333e-02 7.516223452905e-03 0.0 
1.496390347635e-02 4.794557120366e-03 0.0 
1.096429341869e-02 5.954627788673e-03 0.0 
1.073587038819e-02 8.577949775754e-03 0.0 
7.313557573308e-03 7.947015290279e-03 0.0 
7.371767093624e-03 5.322517373579e-03 0.0 
4.115352683490e-03 8.231773880096e-03 0.0 
4.255350439768e-03 1.027130057447e-02 0.0 
1.479657737803e-03 1.119848808970e-02 0.0 
1.252998683280e-03 9.420407400375e-03 0.0 
-9.395441833300e-04 1.293408841841e-02 0.0 
-6.584034598142e-04 1.420432337245e-02 0.0 
-2.754447318261e-03 1.648988219561e-02 0.0 
-2.981422267903e-03 1.549140690225e-02 0.0 
-4.443185966757e-03 1.946211990343e-02 0.0 
-4.170246638898e-03 1.992858871873e-02 0.0 
-5.527021277669e-03 2.318964436324e-02 0.0 
-5.150609334438e-03 2.304583940502e-02 0.0 
-5.708784153055e-03 2.310487789254e-02 0.0 
-6.458856799352e-03 2.696068118136e-02 0.0 
-6.490093506576e-03 2.728591901998e-02 0.0 
-6.947395133417e-03 3.113356567791e-02 0.0 
3.436119075565e-02 2.902470768271e-02 0.0 
-6.749455567272e-03 3.182629598182e-02 0.0 
-6.184008750090e-03 2.743198393098e-02 0.0 
-6.983418708145e-03 3.557627416003e-02 0.0 
-7.062125267473e-03 3.437644725765e-02 0.0 
-6.517993282865e-03 3.661444602737e-02 0.0 
-6.599665153783e-03 4.016166777281e-02 0.0 
-5.850788383475e-03 4.148731134282e-02 0.0 
3.641461595736e-02 2.686839815813e-02 0.0 
3.232143775321e-02 4.597675217546e-02 0.0 
-5.849890491695e-03 4.473708957860e-02 0.0 
-4.832432023208e-03 4.628075810023e-02 0.0 
-4.540277003966e-03 4.263989813001e-02 0.0 
-3.224041311853e-03 4.759972264471e-02 0.0 
2.315667171329e-02 7.398360065354e-02 0.0 
2.150522797100e-02 6.377157051417e-02 0.0 
2.073066527365e-02 6.957727058821e-02 0.0 
1.890870963265e-02 5.905731772554e-02 0.0 
1.828678031650e-02 6.472229851040e-02 0.0 
-3.576488123686e-03 5.083795049765e-02 0.0 
2.515487897628e-02 5.057672090288e-02 0.0 
1.928350660008e-02 5.327647067891e-02 0.0 
3.946452409121e-02 6.616200009590e-02 0.0 
4.160191961995e-02 5.032269693730e-02 0.0 
2.155614978411e-02 1.279762255064e-02 0.0 
-6.371065291654e-03 4.298456455890e-02 0.0 
-5.546092427945e-03 4.723327650870e-02 0.0 
-5.857409543215e-03 4.506738233729e-02 0.0 
-3.724267311904e-03 2.009928514558e-02 0.0 
-4.581837184349e-03 2.256883026122e-02 0.0 
-3.113483931537e-03 1.987812094532e-02 0.0 
-3.885749877570e-03 2.168167632257e-02 0.0 
-2.437031256021e-03 1.918026904345e-02 0.0 
-3.188830038277e-03 2.032441050767e-02 0.0 
-4.323154851762e-03 2.303866037745e-02 0.0 
-3.628923358582e-03 2.104988074476e-02 0.0 
-4.476820070567e-03 2.391889002263e-02 0.0 
-1.869672556714e-03 1.793522797458e-02 0.0 
-7.904883829500e-04 1.707668030607e-02 0.0 
-3.791314566791e-03 2.134101420748e-02 0.0 
-4.389344291195e-03 2.431164340527e-02 0.0 
-3.722109734420e-03 2.118915369253e-02 0.0 
-4.101295583192e-03 2.422877881835e-02 0.0 
-4.749340529357e-03 2.746514702703e-02 0.0 
-4.249729490661e-03 2.739723038429e-02 0.0 
-4.861752279780e-03 3.074739854122e-02 0.0 
1.744064145718e-02 1.203474454429e-02 0.0 
2.031365943347e-02 1.443180666818e-02 0.0 
1.641143034991e-02 1.364555770001e-02 0.0 
1.866421421188e-02 1.528670174672e-02 0.0 
1.510649288957e-02 1.425046543010e-02 0.0 
1.675209058222e-02 1.517344806481e-02 0.0 
1.343297572393e-02 1.399556987033e-02 0.0 
1.182653390938e-02 1.360657332635e-02 0.0 
2.777264109438e-02 4.803231051247e-02 0.0 
2.319867184288e-02 6.126423237151e-03 0.0 
2.702990252034e-02 9.050220929521e-03 0.0 
2.294877542313e-02 3.515053538380e-03 0.0 
2.642689524939e-02 7.000835813586e-03 0.0 
2.218086949603e-02 7.884715836372e-04 0.0 
2.524257328603e-02 4.907543134625e-03 0.0 
2.097376298720e-02 -2.053539991970e-03 0.0 
1.781066626631e-02 -4.561723979067e-03 0.0 
1.658607837727e-02 -8.096480020820e-03 0.0 
1.349635890503e-02 -8.626075899411e-03 0.0 
1.242935376033e-02 -1.262839999349e-02 0.0 
9.504395613027e-03 -1.097899232373e-02 0.0 
3.617128403468e-02 3.903177444933e-02 0.0 
2.028300224950e-02 1.676527752536e-02 0.0 
1.779101625147e-02 1.587838729405e-02 0.0 
2.122290057062e-02 1.792370335922e-02 0.0 
-2.581545986993e-03 4.362803449052e-02 0.0 
-3.646122053092e-03 2.369145384428e-02 0.0 
-4.609614983292e-04 1.586039553767e-02 0.0 
9.132016401265e-04 1.536112297733e-02 0.0 
1.038079798642e-02 1.311331749473e-02 0.0 
-1.738777142742e-03 5.221785498789e-02 0.0 
2.348353006328e-02 2.846076388671e-03 0.0 
2.752731454966e-02 1.108416235504e-02 0.0 
1.633884095018e-02 5.390170469756e-02 0.0 
1.587819903617e-02 5.949968796843e-02 0.0 
9.418922181095e-04 1.407354445537e-02 0.0 
-2.219735415428e-03 5.502202044765e-02 0.0 
-3.033177801028e-03 1.856668796524e-02 0.0 
1.483147620949e-02 -1.180144027187e-02 0.0 
-3.622008333821e-03 2.685487718983e-02 0.0 
-3.061465794298e-03 2.273273915429e-02 0.0 
-5.193856708266e-03 2.605153241987e-02 0.0 
1.820325482460e-02 1.624661171082e-02 0.0 
2.155820732411e-02 1.867838348051e-02 0.0 
1.018434404788e-02 -7.036296933005e-03 0.0 
6.461097968904e-03 -7.500861290229e-03 0.0 
6.016521502639e-03 -1.129624232153e-02 0.0 
3.291058587093e-03 -5.821704658873e-03 0.0 
3.562106144387e-03 -2.779876348979e-03 0.0 
9.765392334679e-04 -1.412614907518e-04 0.0 
1.122470743014e-03 -2.578796953917e-03 0.0 
-6.968854197637e-04 4.066184405594e-03 0.0 
-1.091363222466e-03 5.948226854473e-03 0.0 
-2.269419703963e-03 1.059060619660e-02 0.0 
-1.241067598260e-03 9.455937800349e-03 0.0 
-2.406295720954e-03 1.607531834657e-02 0.0 
-3.036941404253e-03 1.960505280945e-02 0.0 
1.102462230951e-02 -1.677004718541e-02 0.0 
3.493591680864e-02 7.311818820092e-02 0.0 
-3.117897840656e-04 1.399563618285e-02 0.0 
1.145763690138e-02 1.294662795218e-02 0.0 
1.382925312386e-02 4.840213099942e-02 0.0 
1.352861867810e-02 5.395486995462e-02 0.0 
1.521088017931e-02 6.508874147048e-02 0.0 
1.301380075640e-02 5.947566666289e-02 0.0 
1.126696186469e-02 4.812362983157e-02 0.0 
1.090620846166e-02 5.362431751042e-02 0.0 
1.231905477608e-02 6.494768556832e-02 0.0 
1.035499337975e-02 5.907263769425e-02 0.0 
1.147284943522e-02 7.033680206507e-02 0.0 
9.642108631035e-03 6.444601794929e-02 0.0 
8.495884940278e-03 5.299042973361e-02 0.0 
7.909395066732e-03 5.837978313234e-02 0.0 
8.795083736977e-03 6.974184211778e-02 0.0 
7.176023966176e-03 6.369548868537e-02 0.0 
7.836615872300e-03 7.494143874827e-02 0.0 
6.317607464217e-03 6.892674160564e-02 0.0 
5.667333786856e-03 5.750082948082e-02 0.0 
-3.376021140469e-04 5.623484852171e-02 0.0 
8.864079308070e-03 1.324239539299e-02 0.0 
7.643119459844e-03 1.243265554100e-02 0.0 
-4.988945190175e-03 4.888188112530e-02 0.0 
-5.139838316087e-03 4.633457682664e-02 0.0 
-5.868171289232e-03 4.265275441641e-02 0.0 
-5.007244338865e-03 4.361010234279e-02 0.0 
4.883666796223e-03 6.282658662520e-02 0.0 
4.287196471100e-03 5.118419861862e-02 0.0 
2.507971393892e-02 1.006007429326e-02 0.0 
2.878191997603e-02 1.920761197947e-02 0.0 
1.388039834677e-02 4.283579039971e-02 0.0 
-2.904428213896e-03 2.587526744075e-02 0.0 
-3.384224344274e-03 3.003535306776e-02 0.0 
4.112778529174e-02 4.569450067573e-02 0.0 
4.167076979729e-02 5.395396801690e-02 0.0 
4.082392771797e-02 4.858760428054e-02 0.0 
4.075769293545e-02 5.766724821333e-02 0.0 
4.147421747911e-02 6.294190410732e-02 0.0 
3.948901401053e-02 5.153396633296e-02 0.0 
6.412911254564e-04 1.594476218964e-02 0.0 
6.766510389411e-03 4.673940739527e-02 0.0 
-3.975365590116e-03 3.829118083986e-02 0.0 
-1.679196519018e-03 3.903008777961e-02 0.0 
-2.415771015096e-03 2.139695086403e-02 0.0 
9.740903712634e-03 1.323019192677e-02 0.0 
3.490534840553e-02 4.029658461072e-02 0.0 
3.286008236100e-02 3.487391675164e-02 0.0 
3.132845230861e-02 3.528837367693e-02 0.0 
2.907137058639e-02 3.036439899262e-02 0.0 
2.725680285230e-02 2.994568075419e-02 0.0 
2.480112122017e-02 2.547740169935e-02 0.0 
2.646398658529e-02 2.596817019609e-02 0.0 
1.796482664413e-02 1.616291371271e-02 0.0 
2.205561072004e-02 2.145523155065e-02 0.0 
5.440467933411e-03 7.416244979683e-02 0.0 
2.396039730472e-02 1.885687007399e-02 0.0 
-2.830675422235e-03 1.191020433120e-02 0.0 
6.272928628148e-04 5.308573035337e-02 0.0 
-3.188341503737e-04 1.565458610826e-02 0.0 
-9.421211301311e-04 5.865975011448e-02 0.0 
-2.358957761402e-03 5.702951435289e-02 0.0 
7.879483810410e-04 1.209097503065e-02 0.0 
2.263422734979e-02 2.423120438536e-02 0.0 
2.499288069922e-02 2.874774594666e-02 0.0 
3.990996736358e-02 6.758897855811e-02 0.0 
4.053644519890e-02 7.250565703268e-02 0.0 
1.480963568231e-02 1.383416830900e-02 0.0 
1.973973617999e-02 7.539986629598e-02 0.0 
1.337788548791e-02 7.602541086559e-02 0.0 
1.227379764952e-02 8.132382374756e-02 0.0 
1.114502447490e-03 5.955851662371e-02 0.0 
6.908368033195e-04 8.672278343285e-03 0.0 
9.129338218503e-03 4.206100362952e-02 0.0 
3.116657198097e-02 1.940312165787e-02 0.0 
3.207823307637e-02 2.806255061424e-02 0.0 
1.273487452800e-02 -1.562701685669e-02 0.0 
9.321045204662e-03 -2.124084401446e-02 0.0 
3.627184019435e-03 5.642412144421e-02 0.0 
3.086132802199e-03 4.472939289763e-02 0.0 
-5.621239046077e-03 4.001924501079e-02 0.0 
-4.710399368285e-03 4.057630939021e-02 0.0 
2.241272879184e-03 1.249616455899e-02 0.0 
-1.489773217974e-03 2.205520425368e-02 0.0 
3.520231867916e-03 3.928704763872e-02 0.0 
6.944398203973e-03 1.343574833947e-02 0.0 
7.273729366194e-03 1.302969265408e-02 0.0 
-4.162534452584e-03 4.707999230891e-02 0.0 
2.548445425782e-02 1.929486605399e-02 0.0 
2.185484549113e-02 9.305348349851e-03 0.0 
-1.264914692848e-03 7.951334185449e-03 0.0 
-3.436592245326e-03 2.213073850495e-02 0.0 
-1.214221050304e-03 6.021709995834e-02 0.0 
1.715630992495e-03 1.030584466768e-02 0.0 
9.117138156283e-03 3.654483567720e-02 0.0 
2.360689043884e-02 2.214047642140e-02 0.0 
2.762342306119e-02 2.580146870552e-02 0.0 
1.912010489415e-02 1.791508891572e-02 0.0 
1.382899190219e-03 2.214231389289e-02 0.0 
-2.789490502498e-04 1.146464992886e-02 0.0 
-2.140697602711e-03 2.451882103337e-02 0.0 
2.023950080386e-02 2.259246139075e-02 0.0 
2.231904497683e-02 2.682342363146e-02 0.0 
3.436500267558e-02 2.750032274470e-02 0.0 
3.504592928823e-02 3.661671453340e-02 0.0 
3.189469722881e-02 3.815261466768e-02 0.0 
3.460125613250e-02 4.675189286873e-02 0.0 
3.154226537658e-02 7.805299284766e-02 0.0 
3.710225177156e-02 3.524458241239e-02 0.0 
3.702568419137e-02 7.392999733853e-02 0.0 
3.588008621868e-02 8.120690949459e-02 0.0 
3.760269502587e-02 8.156795041574e-02 0.0 
4.160084898776e-02 6.722449592573e-02 0.0 
4.054860559658e-02 7.643037584523e-02 0.0 
3.030001705050e-02 1.364644327441e-02 0.0 
2.438279668939e-02 1.595361661702e-02 0.0 
-6.353375064381e-03 3.881461860642e-02 0.0 
-5.410607804457e-03 3.031591180960e-02 0.0 
-1.942086204633e-03 1.768503164976e-02 0.0 
7.054983066997e-03 4.127547394535e-02 0.0 
5.363035606562e-03 3.484316797877e-02 0.0 
9.434608184492e-03 8.080292795413e-02 0.0 
8.288446048924e-03 8.586817135844e-02 0.0 
1.412063785738e-04 4.442693014786e-02 0.0 
1.404026230533e-03 3.958644602540e-02 0.0 
-5.705770825686e-03 2.569333416951e-02 0.0 
-1.199716253687e-03 1.365591821566e-02 0.0 
1.129869112486e-02 3.707725680484e-02 0.0 
1.089624636059e-02 3.155468223774e-02 0.0 
1.364440827626e-02 3.726286834952e-02 0.0 
3.320575923816e-03 1.104971887878e-02 0.0 
1.906452602850e-02 1.854119941921e-03 0.0 
1.358738395255e-02 1.200352975824e-02 0.0 
7.744927919914e-03 -1.965083367625e-02 0.0 
3.443840820345e-02 3.170065109779e-02 0.0 
3.657644131961e-03 4.501254222871e-02 0.0 
2.981886681446e-02 4.459134873954e-02 0.0 
-1.741954618274e-03 1.972719352869e-02 0.0 
-1.921906101885e-03 1.657504984672e-02 0.0 
1.404498317913e-02 1.301559349064e-02 0.0 
3.063021842397e-02 9.328604919707e-02 0.0 
3.150091018326e-02 2.722319700490e-02 0.0 
3.121021611980e-02 2.484451289262e-02 0.0 
3.599963686303e-02 8.911694398238e-02 0.0 
3.731406086022e-02 8.907506850278e-02 0.0 
3.897766732250e-02 8.100965053429e-02 0.0 
3.825013340150e-02 8.813761891023e-02 0.0 
-3.092955794437e-03 1.324665591495e-02 0.0 
-4.223638223941e-03 1.741823928989e-02 0.0 
1.723258987208e-02 1.796017338201e-02 0.0 
1.726670198026e-02 1.659383041260e-02 0.0 
1.734000276886e-02 2.012027441781e-02 0.0 
1.926690740386e-02 2.410681832312e-02 0.0 
1.103586358788e-02 1.071034043618e-02 0.0 
1.176856704526e-02 1.180077776151e-02 0.0 
-2.154586562035e-03 5.825283938890e-02 0.0 
3.891603398057e-02 8.230063417088e-02 0.0 
6.981052470897e-03 3.026245246100e-02 0.0 
3.437679677145e-02 8.834791503734e-02 0.0 
-9.846947555230e-04 1.068101907197e-02 0.0 
-1.745347721199e-03 1.301162032384e-02 0.0 
6.562966515507e-03 -2.447797655256e-02 0.0 
4.929467726608e-03 -1.939660046052e-02 0.0 
2.416823957774e-03 3.293584992314e-02 0.0 
3.061916222743e-02 4.917925426299e-02 0.0 
3.313103897635e-02 5.755015294460e-02 0.0 
2.772765806297e-02 3.989009093299e-02 0.0 
-2.982905951442e-04 8.932696060174e-03 0.0 
2.229627542356e-03 1.061012120732e-01 0.0 
-1.323473156458e-03 1.462063137572e-02 0.0 
4.114339401003e-02 7.059954312297e-02 0.0 
2.583379268967e-03 2.691941376466e-02 0.0 
2.827882227971e-02 2.354695933859e-02 0.0 
4.005399427176e-02 4.034080506189e-02 0.0 
4.097906328714e-03 1.275985355754e-02 0.0 
1.979160601605e-03 3.942004847048e-02 0.0 
1.458493807118e-03 2.596804674206e-02 0.0 
1.405737957581e-02 8.664449616944e-02 0.0 
1.277688761757e-02 9.199983361228e-02 0.0 
1.533535071972e-02 8.147537103028e-02 0.0 
1.670776713025e-02 -7.927794962338e-03 0.0 
1.341139515622e-02 -1.043689744072e-02 0.0 
5.190448493756e-03 4.033526729722e-02 0.0 
-4.502302207073e-03 5.126514955530e-02 0.0 
-3.898455441767e-03 5.247160730941e-02 0.0 
-2.415722807812e-03 2.791915234490e-02 0.0 
-4.315966449196e-03 2.776354501109e-02 0.0 
-5.974198991705e-03 3.637828971323e-02 0.0 
-6.535755259715e-03 3.498494898290e-02 0.0 
2.863966069676e-02 3.894083506940e-02 0.0 
2.595742426174e-02 3.698218570059e-02 0.0 
3.318229740846e-02 4.074571447757e-02 0.0 
4.729686437371e-03 1.385582252452e-02 0.0 
4.579707480496e-03 1.317881199685e-02 0.0 
7.276913606080e-03 1.181680447060e-02 0.0 
5.385583125632e-03 2.970071521751e-02 0.0 
3.616456715124e-03 2.209904831385e-02 0.0 
-1.299534559759e-03 9.794200066663e-03 0.0 
1.026157608400e-03 4.943169754480e-03 0.0 
-4.527676919452e-03 1.812862435214e-02 0.0 
6.601885763138e-03 2.495560172479e-02 0.0 
-1.401097710625e-03 1.155390488229e-02 0.0 
-1.935312203615e-03 1.359213501452e-02 0.0 
5.247412532194e-03 4.010845996496e-02 0.0 
2.696882036998e-03 3.423166963467e-02 0.0 
2.109569945643e-02 1.972320695002e-02 0.0 
1.731813468206e-02 8.986394327477e-03 0.0 
1.032416708421e-02 2.649488184994e-02 0.0 
1.311872182678e-02 3.181507557301e-02 0.0 
7.390509657564e-03 2.011274953219e-02 0.0 
-1.070797055378e-03 6.110413350461e-02 0.0 
2.459164005913e-02 2.218672282009e-02 0.0 
2.547234034806e-03 8.696544141236e-03 0.0 
4.270773940081e-03 9.750849758315e-03 0.0 
1.142558257108e-03 7.145770589059e-03 0.0 
1.724639253135e-02 1.570812285820e-02 0.0 
1.279197245863e-02 1.185191233373e-02 0.0 
1.407626181412e-02 1.317526607138e-02 0.0 
7.044566708703e-03 -2.553512793471e-02 0.0 
1.102405983271e-03 3.105039789584e-02 0.0 
9.837708826341e-03 9.154909761159e-02 0.0 
5.917785258622e-03 -2.816348828719e-02 0.0 
8.523315236134e-03 9.683017771838e-02 0.0 
7.121700928039e-03 9.089287312788e-02 0.0 
7.379332357079e-03 1.019180086960e-01 0.0 
-3.368536668131e-04 6.276384135777e-02 0.0 
1.603160466914e-02 9.361409205374e-02 0.0 
1.746725267809e-02 8.704282426850e-02 0.0 
7.743172354958e-03 3.468400612197e-02 0.0 
4.510917813665e-03 1.861540687475e-02 0.0 
7.402751156576e-03 4.501957225995e-02 0.0 
5.542531636298e-03 4.940977595816e-02 0.0 
-1.314012447776e-03 9.460981364932e-03 0.0 
-1.977124323689e-03 1.202538346783e-02 0.0 
-1.392996164400e-03 8.033337796784e-03 0.0 
-1.990626428741e-03 1.093624997400e-02 0.0 
-2.595879636795e-03 1.479704743843e-02 0.0 
-2.463136298211e-03 1.365049106523e-02 0.0 
1.153133937189e-02 9.792359499214e-02 0.0 
-1.658101294187e-03 8.679477316856e-03 0.0 
-2.147331963729e-03 1.206073452228e-02 0.0 
-1.311541289741e-03 6.953665017142e-03 0.0 
3.605485296368e-02 9.668742575811e-02 0.0 
3.669914436959e-02 5.444912050572e-02 0.0 
3.514368381080e-02 6.541308559232e-02 0.0 
3.059802347196e-02 6.966549898815e-02 0.0 
1.287876749024e-02 1.535470279602e-02 0.0 
1.622482931561e-02 2.113655453049e-02 0.0 
-1.368913589553e-03 2.272778332849e-02 0.0 
-1.611703641652e-03 2.750138951028e-02 0.0 
5.895883183193e-03 9.658677850976e-02 0.0 
4.311883074821e-03 9.711186569778e-02 0.0 
4.696252783926e-03 8.744128681284e-02 0.0 
3.395749155960e-03 8.868688669141e-02 0.0 
3.644551807949e-03 7.894529226574e-02 0.0 
2.351121230073e-03 8.024832328270e-02 0.0 
2.771941150105e-03 7.024576426582e-02 0.0 
1.175012919110e-02 1.123469591463e-02 0.0 
2.529518531704e-02 5.094240051452e-02 0.0 
3.403416998209e-02 9.654670028605e-02 0.0 
8.190520140829e-03 8.624123700859e-03 0.0 
9.245640799305e-03 1.027695943919e-02 0.0 
3.886783199375e-02 8.571133643521e-02 0.0 
3.660928784001e-02 9.228759298083e-02 0.0 
-3.042991312040e-04 7.872570162528e-03 0.0 
3.579494912382e-02 2.712394537035e-02 0.0 
3.339365849403e-03 1.180281590067e-02 0.0 
1.502428191523e-03 -1.461960746607e-02 0.0 
8.023381058060e-03 -1.581946405191e-02 0.0 
3.824454651620e-02 3.407267723441e-02 0.0 
3.998256893246e-02 7.936182909431e-02 0.0 
3.854868305179e-02 6.149503448803e-02 0.0 
3.719245595787e-02 7.241204998086e-02 0.0 
4.561793627256e-03 1.372996248643e-02 0.0 
4.222895858684e-03 2.840103950829e-02 0.0 
2.454607479759e-02 3.000481442077e-02 0.0 
4.025515966688e-03 6.906500590603e-02 0.0 
1.894657384284e-02 3.061559999106e-02 0.0 
-7.465071864967e-04 2.519432812735e-02 0.0 
3.364941621137e-02 2.034427733018e-02 0.0 
4.165603021176e-02 6.206866834018e-02 0.0 
2.885521116598e-02 2.888615054236e-02 0.0 
3.763487060432e-02 4.465276106102e-02 0.0 
3.258544295116e-02 7.148164973776e-02 0.0 
3.020671087848e-02 8.445430851503e-02 0.0 
3.233306955646e-02 8.691923762478e-02 0.0 
3.066627043893e-02 1.496150792756e-02 0.0 
3.839396012831e-02 7.793335020349e-02 0.0 
3.486650531549e-02 8.408206564434e-02 0.0 
3.772175190159e-02 6.665030078089e-02 0.0 
1.648445788531e-02 4.261910305195e-02 0.0 
1.608365213116e-02 3.701191574160e-02 0.0 
1.235346439077e-02 2.673420025574e-02 0.0 
1.535649015300e-02 3.160047532179e-02 0.0 
1.911343529157e-02 4.187390053158e-02 0.0 
1.850934814220e-02 3.631762896928e-02 0.0 
1.429113595472e-02 2.644957827593e-02 0.0 
1.754690986469e-02 3.093798114368e-02 0.0 
1.177124942245e-02 1.943619302177e-02 0.0 
1.606279865978e-02 2.555211735742e-02 0.0 
2.082953458084e-02 3.519525747636e-02 0.0 
1.963649458411e-02 3.009927390386e-02 0.0 
1.495481714743e-02 2.176039615558e-02 0.0 
2.416393038194e-02 3.940251737116e-02 0.0 
6.940955833720e-03 6.986812444546e-03 0.0 
3.849875962447e-02 3.298156581354e-02 0.0 
9.982399843675e-03 -1.945737140895e-02 0.0 
1.135832454980e-02 -4.790232553387e-03 0.0 
4.079422348715e-02 6.466879511303e-02 0.0 
5.787008200500e-03 9.542927377560e-03 0.0 
4.924281925351e-03 9.899480878183e-03 0.0 
2.922442020975e-02 1.230423418078e-02 0.0 
6.483272093205e-03 7.179129800587e-03 0.0 
3.380783834360e-02 8.007075136964e-02 0.0 
1.915559014716e-02 -4.981451218630e-03 0.0 
6.437989874962e-03 6.406134680856e-03 0.0 
1.936345130435e-02 4.752188847237e-02 0.0 
2.226279323946e-02 5.221036595128e-02 0.0 
2.202780418902e-02 5.800041782000e-02 0.0 
3.904629446885e-03 9.566949248612e-03 0.0 
1.650004897436e-02 7.607480081905e-02 0.0 
4.920920228089e-03 4.625203774783e-03 0.0 
2.249498540313e-02 1.681620901178e-02 0.0 
2.646392447077e-02 1.894907642460e-02 0.0 
2.834560644655e-02 1.835717158782e-02 0.0 
2.170591871894e-02 4.085505895345e-02 0.0 
3.089877267721e-03 3.934084235271e-03 0.0 
5.178176486839e-03 6.998652551491e-03 0.0 
4.065318496938e-03 6.820748768272e-03 0.0 
6.668310537764e-03 9.593122717667e-03 0.0 
1.880966678786e-03 3.758009527969e-03 0.0 
5.788148083000e-03 7.979831801818e-03 0.0 
5.708562816348e-03 7.261608297815e-03 0.0 
9.872655507596e-04 2.435431444786e-03 0.0 
3.774569655164e-03 2.703111689859e-04 0.0 
3.913809547964e-03 3.102570992802e-03 0.0 
7.150292350944e-03 -5.761420944156e-04 0.0 
6.897059843152e-03 -3.907060584563e-03 0.0 
1.067202881070e-02 -3.398910511575e-03 0.0 
1.095956222617e-02 -3.557576344058e-05 0.0 
1.429868952151e-02 -4.896554500836e-03 0.0 
2.132232349996e-02 2.904935314378e-02 0.0 
7.855905960399e-04 3.627328269181e-03 0.0 
-1.342196668038e-03 1.766248222277e-02 0.0 
1.333268233116e-04 1.584970528222e-02 0.0 
-3.276507507960e-04 1.522212573426e-02 0.0 
-6.849830784425e-03 3.693584083397e-02 0.0 
-6.839489040373e-03 3.295750774749e-02 0.0 
-6.381700988444e-03 3.127329383998e-02 0.0 
-6.509387601183e-03 4.101309716927e-02 0.0 
3.040741803303e-02 3.004228260865e-02 0.0 
3.087139132101e-04 3.708854187971e-03 0.0 
1.022974772904e-02 1.237891671738e-02 0.0 
-6.830252626415e-03 3.027411615750e-02 0.0 
2.124702885663e-02 1.014715354120e-01 0.0 
2.202346967121e-02 9.220602946859e-02 0.0 
2.399832810207e-02 9.060208991000e-02 0.0 
2.222998925212e-02 8.141811819505e-02 0.0 
1.969455259425e-02 9.233831199163e-02 0.0 
-5.212230531472e-03 3.713579611165e-02 0.0 
-4.310529135904e-03 3.729529340356e-02 0.0 
-3.680479151191e-03 4.052740130211e-02 0.0 
-3.321530791754e-03 3.690434792675e-02 0.0 
-2.588161907815e-03 3.991744422646e-02 0.0 
-2.860144304965e-03 4.349116355238e-02 0.0 
-2.271107794233e-03 3.603029642776e-02 0.0 
-1.502788910809e-03 3.925120898551e-02 0.0 
1.720149833961e-02 1.034986898065e-01 0.0 
8.616961043836e-03 -1.361613601185e-02 0.0 
4.948605297800e-03 -7.641301694074e-03 0.0 
6.029783074473e-03 3.056273084437e-03 0.0 
2.744704481417e-03 -2.120524960585e-03 0.0 
3.107936954667e-03 -1.097999730087e-02 0.0 
1.472613619900e-03 -4.984303307157e-03 0.0 
3.279520983963e-03 -1.218461134197e-02 0.0 
4.454975811438e-03 -1.800559201716e-02 0.0 
1.173412665945e-02 8.358500912734e-03 0.0 
6.970620177522e-03 1.204626257433e-02 0.0 
1.256292997586e-02 1.674793422812e-02 0.0 
7.808550725396e-03 2.004479989682e-02 0.0 
3.008541021268e-03 1.558729697302e-02 0.0 
-7.251067766374e-04 3.382997366424e-02 0.0 
-7.705033408663e-04 5.763712020891e-03 0.0 
-1.181302338489e-03 4.988806842899e-02 0.0 
-2.278196613871e-03 5.095566110260e-02 0.0 
-2.177338592882e-03 5.402817985134e-02 0.0 
-3.378279162682e-03 5.113947983895e-02 0.0 
-2.193866894249e-03 4.790131122338e-02 0.0 
-1.047790520298e-03 5.637959404289e-02 0.0 
-1.935772250784e-03 5.663953121518e-02 0.0 
5.218260299600e-03 6.359591405513e-02 0.0 
2.978371647073e-03 6.481043437544e-02 0.0 
1.476646378161e-03 6.614207648094e-02 0.0 
1.380253304505e-03 6.532637378169e-02 0.0 
2.286927513583e-03 6.368102445409e-02 0.0 
4.356876503919e-03 6.273644431398e-02 0.0 
5.635109104278e-03 5.989321753076e-02 0.0 
8.828430688948e-03 5.802215704893e-02 0.0 
6.691093888753e-03 5.639606828047e-02 0.0 
3.658752417942e-03 5.811263174228e-02 0.0 
1.033543853399e-02 5.431110063730e-02 0.0 
8.884567040882e-04 5.528543078979e-02 0.0 
1.685728289312e-03 4.945087801482e-02 0.0 
-4.049004924203e-04 4.165197587690e-03 0.0 
1.335532652892e-02 1.038805934807e-01 0.0 
1.321044228805e-02 3.158809642280e-02 0.0 
1.344703100186e-03 1.302113029247e-02 0.0 
1.999765009841e-03 1.070639313911e-02 0.0 
1.628768801478e-03 1.041313476176e-02 0.0 
-4.695269260646e-04 1.471386254167e-02 0.0 
-7.573927140403e-04 1.195004156613e-02 0.0 
7.381548498222e-04 1.269938899110e-02 0.0 
-5.542295329005e-03 3.754090939022e-02 0.0 
1.126187111162e-02 2.188849246113e-02 0.0 
3.786640268383e-03 3.377484550444e-02 0.0 
2.102418120816e-02 9.242478166370e-04 0.0 
-4.626975279798e-03 2.229472475840e-02 0.0 
-2.499490542984e-03 2.898502213192e-02 0.0 
-5.077685911599e-03 2.701421443311e-02 0.0 
-2.512761660780e-03 1.829010541358e-02 0.0 
-4.171529345668e-03 3.063404794438e-02 0.0 
-3.457755882808e-03 2.059925951971e-02 0.0 
3.003593942793e-03 6.955316940619e-03 0.0 
6.595391560640e-05 6.155826326449e-02 0.0 
1.050220337046e-02 7.562305850641e-02 0.0 
6.849327156843e-03 8.008021512988e-02 0.0 
6.296755070352e-03 5.215442721778e-02 0.0 
-4.816316584771e-03 4.916086533389e-02 0.0 
-3.996588691208e-03 4.370035084367e-02 0.0 
-9.693328553097e-04 4.864271392772e-02 0.0 
1.181451763519e-02 1.234917478096e-02 0.0 
3.877164612054e-02 7.391898844233e-02 0.0 
-2.420973494820e-03 1.725841887938e-02 0.0 
-6.896288019014e-03 3.865380458793e-02 0.0 
-6.127673220730e-03 3.240203118291e-02 0.0 
-3.560779367905e-03 1.670233138325e-02 0.0 
3.987016943224e-02 3.829087183176e-02 0.0 
-6.191863660246e-03 2.646384866431e-02 0.0 
-2.606687601268e-03 1.844298044564e-02 0.0 
4.825272013236e-03 4.578982523782e-02 0.0 
1.190979112372e-02 4.459574380916e-02 0.0 
-1.474161779597e-03 1.609858804514e-02 0.0 
-5.048191749950e-03 2.456568871737e-02 0.0 
1.437072458860e-02 7.061886514310e-02 0.0 
1.450274535870e-02 1.424501279679e-02 0.0 
-4.440717488025e-05 2.642734336537e-03 0.0 
8.915174182118e-03 4.756268283958e-02 0.0 
8.444593230871e-03 2.624540850169e-02 0.0 
1.862453449575e-02 8.121122936598e-02 0.0 
2.117385259569e-03 4.945664380194e-02 0.0 
1.111604085511e-02 8.664998589282e-02 0.0 
5.226595177379e-04 9.389305383665e-03 0.0 
1.655120996211e-02 4.824569787566e-02 0.0 
-3.609354735591e-03 5.330403643891e-02 0.0 
1.417537704211e-02 9.999930215508e-03 0.0 
4.147701768650e-02 5.404677364432e-02 0.0 
3.031291276361e-02 1.018603726947e-01 0.0 
3.890481463511e-03 2.867348276453e-02 0.0 
3.361135414741e-02 2.574884236108e-02 0.0 
8.663219867338e-03 1.180512016022e-02 0.0 
1.290023582258e-02 1.326001181099e-02 0.0 
-3.348509118306e-03 5.491460950099e-02 0.0 
-2.505339368389e-03 1.556778962649e-02 0.0 
2.567959784188e-02 1.450956325467e-02 0.0 
7.150937194652e-03 3.585192721584e-02 0.0 
2.936327796169e-02 3.489026468647e-02 0.0 
1.909961976728e-02 4.781616581000e-03 0.0 
1.140901815070e-02 4.260638024643e-02 0.0 
1.758298548122e-03 1.267323964739e-02 0.0 
1.496482565523e-02 1.421922010400e-02 0.0 
4.017371424538e-02 7.280132894705e-02 0.0 
3.645207442306e-02 4.626262450580e-02 0.0 
3.053624360945e-02 5.049449381976e-02 0.0 
3.689691634914e-02 3.692901341700e-02 0.0 
-1.821156647682e-03 3.205147378957e-02 0.0 
-2.146400943582e-03 1.601064747722e-02 0.0 
8.859146467053e-03 -1.520150755803e-02 0.0 
3.934367340474e-02 4.243521039806e-02 0.0 
1.746285277769e-02 7.040250511288e-02 0.0 
2.014888105234e-02 2.031525591456e-02 0.0 
5.032380388862e-03 2.382819694940e-02 0.0 
4.195386647549e-02 5.847916899188e-02 0.0 
-3.185229803350e-03 1.830281579616e-02 0.0 
8.913330373585e-03 3.138588109280e-02 0.0 
-6.459838700018e-03 2.917741220520e-02 0.0 
-2.283558286270e-04 6.364113331115e-02 0.0 
1.804417379452e-02 -6.804524946585e-04 0.0 
1.863107666256e-02 -1.266592761194e-03 0.0 
3.201678009830e-02 2.180044161476e-02 0.0 
-5.886878539605e-03 2.778458232569e-02 0.0 
8.921552609671e-03 2.003558335966e-02 0.0 
-3.103883578375e-03 1.764094807887e-02 0.0 
2.567993679076e-03 1.395395715224e-02 0.0 
8.133839453685e-03 1.967965866909e-02 0.0 
3.252652309239e-02 9.514880510864e-02 0.0 
-2.832422079529e-03 1.659029358926e-02 0.0 
1.045658770553e-02 1.074800355808e-02 0.0 
1.193454813489e-02 1.254874031649e-02 0.0 
-1.733415950510e-03 4.274992650755e-02 0.0 
1.170479698262e-02 1.165788771476e-02 0.0 
3.668895867105e-02 9.475754239966e-02 0.0 
-2.420765917445e-03 1.518261855897e-02 0.0 
6.275947137668e-03 1.301753828985e-02 0.0 
3.277305002390e-02 1.979747226167e-02 0.0 
3.697898718517e-03 1.060567332417e-01 0.0 
-1.612038870141e-03 9.579767828820e-03 0.0 
5.305771820371e-03 1.170069614295e-02 0.0 
3.392341635942e-02 3.367460517725e-02 0.0 
7.281876192426e-03 1.014089865043e-02 0.0 
3.269436630815e-02 1.047680301364e-01 0.0 
-5.767508167363e-03 2.931804688533e-02 0.0 
3.457852573967e-02 4.659355365862e-02 0.0 
3.435229501318e-03 9.469044437921e-03 0.0 
6.277444675591e-03 1.081774892871e-02 0.0 
2.477789237447e-02 6.248077670526e-02 0.0 
-6.029615415134e-03 3.278474322934e-02 0.0 
2.481959061531e-02 2.048276737131e-02 0.0 
3.091697022392e-03 6.127494444728e-02 0.0 
3.519260824971e-02 9.701215172965e-02 0.0 
-5.452339929196e-03 3.369652892855e-02 0.0 
1.480562614349e-02 -1.423547803152e-03 0.0 
4.423660833314e-03 1.189678659630e-02 0.0 
9.906615312576e-03 9.384955797026e-03 0.0 
-4.710864237694e-03 3.401725743603e-02 0.0 
1.502398294138e-02 1.852308567016e-03 0.0 
-3.856631654698e-03 3.380034243567e-02 0.0 
3.380936101221e-02 1.044196020630e-01 0.0 
2.510780380883e-02 5.637093656822e-02 0.0 
-2.900082803807e-03 3.312159962457e-02 0.0 
3.107887919608e-02 4.024908966784e-02 0.0 
3.973263297607e-03 5.404442584017e-02 0.0 
3.123786634978e-02 2.899962454214e-02 0.0 
-1.065677461740e-03 1.743899271214e-02 0.0 
-5.679056801072e-03 2.289221861955e-02 0.0 
2.043275570555e-03 1.385532262857e-02 0.0 
2.215437820999e-02 4.645795898654e-02 0.0 
3.314060394883e-02 1.007945545396e-01 0.0 
2.430792887011e-03 1.460812912073e-02 0.0 
2.702875897430e-02 3.369467218282e-02 0.0 
2.825739550814e-02 2.501283472377e-02 0.0 
3.021052529614e-02 2.188681445036e-02 0.0 
2.645932162734e-03 1.466772513908e-02 0.0 
3.620600400192e-02 8.839563649055e-02 0.0 
-4.965808440608e-03 3.309582018824e-02 0.0 
-3.248493990646e-03 3.340465365343e-02 0.0 
1.108003656350e-02 3.108053036102e-03 0.0 
2.431189470224e-02 3.171092450009e-02 0.0 
7.988269424122e-04 6.376750407845e-02 0.0 
2.481089536271e-02 4.477602683282e-02 0.0 
3.312681846291e-04 2.818169220004e-02 0.0 
7.316069917697e-03 2.489211708992e-03 0.0 
2.115932679521e-02 1.886506180439e-02 0.0 
1.065933882184e-03 7.750330957017e-02 0.0 
4.047387695370e-03 5.781932259158e-03 0.0 
-5.778449211074e-04 6.162691262385e-02 0.0 
1.110308452885e-03 7.250238103254e-03 0.0 
2.768974108114e-02 2.151284913084e-02 0.0 
-1.175040540575e-03 1.147423860018e-02 0.0 
-3.134951978995e-03 1.438105932628e-02 0.0 
2.620602250239e-03 2.204238862520e-02 0.0 
-4.585214907253e-03 1.882523084711e-02 0.0 
3.667045804200e-04 1.053426841562e-02 0.0 
-3.490225718608e-04 5.381581358104e-03 0.0 
1.396217559875e-03 9.846672265271e-02 0.0 
2.992160793289e-02 9.399333882898e-02 0.0 
4.528000422856e-03 -3.013964059485e-02 0.0 
3.372791051093e-02 7.550767514226e-02 0.0 
-5.320014262840e-03 2.252413950216e-02 0.0 
2.712411576992e-02 4.242504623703e-02 0.0 
2.900836360961e-03 9.795523118212e-02 0.0 
-5.480016450755e-03 2.759278718803e-02 0.0 
1.097961348242e-02 1.632286554422e-02 0.0 
5.589510705657e-03 5.226328033875e-03 0.0 
1.910431997575e-03 6.038665076904e-02 0.0 
9.313322268739e-03 1.121966012826e-02 0.0 
2.494290997915e-02 2.157030337150e-02 0.0 
5.467710572154e-04 3.228031779239e-02 0.0 
8.582332403518e-03 1.064550150995e-01 0.0 
8.446196553904e-03 2.749911844892e-02 0.0 
-8.718947240202e-04 3.001871648099e-02 0.0 
2.566729089626e-02 8.038290286127e-02 0.0 
2.793312566718e-02 6.021467531294e-02 0.0 
2.201109842847e-02 4.099668914525e-02 0.0 
-2.740315925491e-03 5.601191948502e-02 0.0 
3.199044622937e-03 7.092517488570e-03 0.0 
2.157151052867e-02 6.259626998448e-02 0.0 
6.331927308391e-03 7.459395547848e-03 0.0 
1.433882821077e-02 9.624167861302e-02 0.0 
2.066896341505e-02 1.890501618370e-02 0.0 
1.520240068145e-02 4.243870055049e-02 0.0 
6.124832844782e-03 2.046233353105e-02 0.0 
1.047495330072e-02 9.718769608892e-03 0.0 
-7.311110550434e-04 3.978757278461e-03 0.0 
1.591270152743e-02 1.467948380162e-02 0.0 
1.536779800604e-02 1.947533371683e-02 0.0 
2.054311505772e-02 8.462678577446e-02 0.0 
1.179200563773e-02 1.304741411301e-02 0.0 
2.573788597840e-03 5.109295282508e-02 0.0 
-8.153965317170e-04 4.065061519452e-03 0.0 
1.796728261780e-02 9.590628545091e-02 0.0 
1.609882711318e-03 2.064806556674e-02 0.0 
5.965165254207e-03 -1.557042441793e-02 0.0 
8.215657794585e-04 2.008239516963e-02 0.0 
2.292341309871e-02 3.399147284291e-02 0.0 
5.906095544057e-03 8.510936837405e-02 0.0 
2.432870162678e-02 8.253315143089e-02 0.0 
-8.940320266020e-04 9.261914548479e-03 0.0 
9.922907480678e-03 1.767143834722e-02 0.0 
1.172072770431e-02 6.331604589830e-03 0.0 
2.991131921732e-03 6.150615321581e-02 0.0 
-4.381212152283e-03 4.932426074754e-02 0.0 
5.462783713812e-03 -2.549893041495e-02 0.0 
-7.753815040655e-04 7.508861280164e-03 0.0 
1.820918674189e-02 2.565256139676e-02 0.0 
-1.334715640918e-03 9.155173809022e-03 0.0 
6.595002217026e-04 6.606745836654e-02 0.0 
9.167852426847e-03 4.071483057534e-02 0.0 
3.097675807851e-04 6.503092360686e-03 0.0 
1.086239087135e-02 1.380410947763e-02 0.0 
2.918926798245e-03 -8.166688619715e-03 0.0 
2.083100982408e-03 8.288477621323e-03 0.0 
6.398183737816e-03 -5.644334031216e-03 0.0 
1.172034823111e-02 1.070181368558e-01 0.0 
7.786669623249e-03 5.265377563580e-02 0.0 
-7.787713083994e-04 4.280212720631e-03 0.0 
3.747540541798e-03 1.950255819715e-02 0.0 
-3.094253942276e-03 4.863243135736e-02 0.0 
2.520445491305e-02 9.757111710893e-02 0.0 
-1.543989754334e-03 5.915023022053e-02 0.0 
1.562520583466e-02 1.544914584808e-02 0.0 
4.633792782252e-03 2.278704535823e-02 0.0 
2.595715329487e-03 1.855908622633e-02 0.0 
1.806271336766e-03 6.084407264747e-03 0.0 
7.125632976594e-03 1.726223568016e-02 0.0 
3.100249750423e-03 3.211403548213e-03 0.0 
6.470710675752e-03 -2.390410834460e-02 0.0 
9.550716676461e-03 8.923234063925e-03 0.0 
4.857956689635e-03 8.851379279369e-03 0.0 
6.440172490943e-03 1.070836469378e-01 0.0 
8.786117559748e-03 1.788753725669e-02 0.0 
-2.957284207875e-03 5.397208697112e-02 0.0 
1.640801017709e-03 5.654098250917e-02 0.0 
1.566541240496e-04 9.342568921978e-03 0.0 
1.649998267124e-03 6.575600064629e-02 0.0 
1.085272475713e-03 1.072693587702e-01 0.0 
-1.351248690053e-04 4.419643338512e-03 0.0 
1.433706972985e-03 6.218515396898e-02 0.0 
2.300555049729e-03 9.080973503227e-02 0.0 
1.016607106325e-02 1.389681373014e-02 0.0 
-7.534848846218e-04 4.243470675592e-02 0.0 
1.267638489082e-03 4.011781457109e-02 0.0 
1.320363695997e-03 2.472881865390e-03 0.0 
6.580288597308e-03 -3.103239351985e-02 0.0 
1.833554712846e-03 7.195034005651e-02 0.0 
8.793139712767e-03 8.243086602345e-03 0.0 
5.651775137424e-03 1.695750625706e-02 0.0 
4.731061542340e-03 7.927510988531e-02 0.0 
1.495981101319e-02 -3.339825573845e-05 0.0 
1.419359082772e-02 1.929282872499e-02 0.0 
-3.178869389830e-03 4.593084375138e-02 0.0 
1.582653818920e-02 1.733774531179e-02 0.0 
7.470595026743e-03 9.290758416532e-03 0.0 
7.766376198374e-04 -3.375750076993e-03 0.0 
-6.318067330957e-04 3.850494244732e-02 0.0 
8.741428526735e-03 4.861936654989e-02 0.0 
-1.385719244623e-03 7.418554754897e-03 0.0 
-2.092918986874e-03 4.520446912025e-02 0.0 
2.512404954594e-02 1.101620847817e-01 0.0 
6.784433596026e-04 1.536136198313e-01 0.0 
2.851530865798e-02 1.152171387167e-01 0.0 
6.679136864687e-04 1.457065039900e-01 0.0 
2.950404576707e-02 1.165058164638e-01 0.0 
7.065756064149e-04 1.373449393442e-01 0.0 
2.877179609487e-02 1.146521926704e-01 0.0 
7.018303543230e-04 1.285296083303e-01 0.0 
2.674723122194e-02 1.103814741929e-01 0.0 
7.288357792948e-04 1.192694541544e-01 0.0 

TENSORS node_materi_stress float
-1.060887881779e+01 3.567778213847e-02 0.0 
3.567778213847e-02 -8.498650141037e+00 0.0 
0.0 0.0 -4.497990264951e+00 
-5.468428234278e+01 4.630680146191e-01 0.0 
4.630680146191e-01 -9.859319729496e+01 0.0 
0.0 0.0 -4.558324389132e+01 
-1.670421027654e+02 -1.743323515527e-01 0.0 
-1.743323515527e-01 -3.921772705558e+02 0.0 
0.0 0.0 -1.673658119964e+02 
-1.245337911014e+02 7.510589507422e-01 0.0 
7.510589507422e-01 -2.897408327429e+02 0.0 
0.0 0.0 -1.238823871533e+02 
-1.021363736557e+01 -1.475658973813e-01 0.0 
-1.475658973813e-01 -2.075110428963e+01 0.0 
0.0 0.0 -7.068530229549e+00 
-1.287684033897e+01 -5.297599285217e-01 0.0 
-5.297599285217e-01 -4.027208142306e+01 0.0 
0.0 0.0 -1.326691851785e+01 
-1.607040191340e+01 -6.111439592550e-01 0.0 
-6.111439592550e-01 -5.846409035222e+01 0.0 
0.0 0.0 -2.116794532578e+01 
-2.666042953712e+01 -7.565134750100e-01 0.0 
-7.565134750100e-01 -7.953743811606e+01 0.0 
0.0 0.0 -3.070601297629e+01 
-4.231749372249e+01 -7.314771061664e-01 0.0 
-7.314771061664e-01 -1.001315478944e+02 0.0 
0.0 0.0 -3.990518304254e+01 
-5.605306297010e+01 -7.412832894520e-01 0.0 
-7.412832894520e-01 -1.206682079974e+02 0.0 
0.0 0.0 -4.901346366779e+01 
-6.811641962404e+01 -7.787064810844e-01 0.0 
-7.787064810844e-01 -1.413278881469e+02 0.0 
0.0 0.0 -5.805582608992e+01 
-7.869101638173e+01 -7.493267477825e-01 0.0 
-7.493267477825e-01 -1.620241021292e+02 0.0 
0.0 0.0 -6.702040783376e+01 
-8.788358972805e+01 -7.155358380626e-01 0.0 
-7.155358380626e-01 -1.827250399479e+02 0.0 
0.0 0.0 -7.593709565370e+01 
-9.606611016795e+01 -7.136479178780e-01 0.0 
-7.136479178780e-01 -2.035301598221e+02 0.0 
0.0 0.0 -8.482362882917e+01 
-1.033112955051e+02 -7.747073635956e-01 0.0 
-7.747073635956e-01 -2.247365305648e+02 0.0 
0.0 0.0 -9.381723868066e+01 
-1.098637321448e+02 -6.741901006427e-01 0.0 
-6.741901006427e-01 -2.450972527694e+02 0.0 
0.0 0.0 -1.026015838708e+02 
-1.155130976419e+02 -8.061229764546e-01 0.0 
-8.061229764546e-01 -2.634438393509e+02 0.0 
0.0 0.0 -1.105613112038e+02 
-1.209902225887e+02 -3.579938521674e-01 0.0 
-3.579938521674e-01 -2.834723479206e+02 0.0 
0.0 0.0 -1.191710659891e+02 
-1.264370990052e+02 -2.601233553456e-01 0.0 
-2.601233553456e-01 -3.037887738249e+02 0.0 
0.0 0.0 -1.280215343070e+02 
-1.333205047405e+02 -2.100160770307e-01 0.0 
-2.100160770307e-01 -3.233094931729e+02 0.0 
0.0 0.0 -1.365828439209e+02 
-1.425029589685e+02 -1.370317044241e-01 0.0 
-1.370317044241e-01 -3.428177072903e+02 0.0 
0.0 0.0 -1.451961998776e+02 
-1.520056153804e+02 -1.551481111845e-01 0.0 
-1.551481111845e-01 -3.623877222964e+02 0.0 
0.0 0.0 -1.539180013030e+02 
-1.612488092617e+02 -2.227637133983e-01 0.0 
-2.227637133983e-01 -3.810094858773e+02 0.0 
0.0 0.0 -1.622774885417e+02 
-1.248745452758e+02 9.660993021954e-01 0.0 
9.660993021954e-01 -2.909330896397e+02 0.0 
0.0 0.0 -1.243422904746e+02 
-1.243438109509e+02 1.727229069975e+00 0.0 
1.727229069975e+00 -2.899382781931e+02 0.0 
0.0 0.0 -1.238846267432e+02 
-1.245151166370e+02 2.800824648714e+00 0.0 
2.800824648714e+00 -2.903014110071e+02 0.0 
0.0 0.0 -1.240449582932e+02 
-1.245285763549e+02 3.289237682731e+00 0.0 
3.289237682731e+00 -2.904802399043e+02 0.0 
0.0 0.0 -1.241026448778e+02 
-1.245185278987e+02 4.301211945818e+00 0.0 
4.301211945818e+00 -2.900969025423e+02 0.0 
0.0 0.0 -1.239846291323e+02 
-1.249346122864e+02 5.246387296721e+00 0.0 
5.246387296721e+00 -2.910647386403e+02 0.0 
0.0 0.0 -1.243998052780e+02 
-1.255168565381e+02 6.284670601261e+00 0.0 
6.284670601261e+00 -2.918487587232e+02 0.0 
0.0 0.0 -1.248096845784e+02 
-1.254653657774e+02 7.467737614000e+00 0.0 
7.467737614000e+00 -2.921262451404e+02 0.0 
0.0 0.0 -1.248774832753e+02 
-1.262322282749e+02 8.727093903752e+00 0.0 
8.727093903752e+00 -2.936719252772e+02 0.0 
0.0 0.0 -1.255712460656e+02 
-1.265012088555e+02 9.642882929818e+00 0.0 
9.642882929818e+00 -2.945544641328e+02 0.0 
0.0 0.0 -1.259167018965e+02 
-1.269465497629e+02 1.099997417658e+01 0.0 
1.099997417658e+01 -2.950397554531e+02 0.0 
0.0 0.0 -1.261958915648e+02 
-1.277033032967e+02 1.236245814985e+01 0.0 
1.236245814985e+01 -2.969895486963e+02 0.0 
0.0 0.0 -1.270078555979e+02 
-1.289232912196e+02 1.376005536100e+01 0.0 
1.376005536100e+01 -2.992325613746e+02 0.0 
0.0 0.0 -1.280467557783e+02 
-1.293260534827e+02 1.517534594798e+01 0.0 
1.517534594798e+01 -3.007231443362e+02 0.0 
0.0 0.0 -1.286147593457e+02 
-1.304350936737e+02 1.661899179108e+01 0.0 
1.661899179108e+01 -3.027188773486e+02 0.0 
0.0 0.0 -1.295461913067e+02 
-1.309958693567e+02 1.790255081602e+01 0.0 
1.790255081602e+01 -3.045595992773e+02 0.0 
0.0 0.0 -1.302666405902e+02 
-1.322750088634e+02 1.934495549360e+01 0.0 
1.934495549360e+01 -3.074234557199e+02 0.0 
0.0 0.0 -1.315095393750e+02 
-1.342750900434e+02 2.074210716326e+01 0.0 
2.074210716326e+01 -3.117362080623e+02 0.0 
0.0 0.0 -1.334033894317e+02 
-1.357994688944e+02 2.202091481865e+01 0.0 
2.202091481865e+01 -3.159109242856e+02 0.0 
0.0 0.0 -1.351131179540e+02 
-1.374862952897e+02 2.314558982909e+01 0.0 
2.314558982909e+01 -3.203610121940e+02 0.0 
0.0 0.0 -1.369541922451e+02 
-1.391019442309e+02 2.394747866068e+01 0.0 
2.394747866068e+01 -3.246789110820e+02 0.0 
0.0 0.0 -1.387342565939e+02 
-1.410433565580e+02 2.472010486415e+01 0.0 
2.472010486415e+01 -3.292001187431e+02 0.0 
0.0 0.0 -1.406730425903e+02 
-1.427928518140e+02 2.514542450414e+01 0.0 
2.514542450414e+01 -3.339968075349e+02 0.0 
0.0 0.0 -1.426368978047e+02 
-1.446748154001e+02 2.533055286034e+01 0.0 
2.533055286034e+01 -3.388609223706e+02 0.0 
0.0 0.0 -1.446607213312e+02 
-1.466886807255e+02 2.524367174058e+01 0.0 
2.524367174058e+01 -3.439820981448e+02 0.0 
0.0 0.0 -1.468012336611e+02 
-1.487538829882e+02 2.496228460706e+01 0.0 
2.496228460706e+01 -3.490574560095e+02 0.0 
0.0 0.0 -1.489434016993e+02 
-1.505353374863e+02 2.438828342550e+01 0.0 
2.438828342550e+01 -3.538426163292e+02 0.0 
0.0 0.0 -1.509133861447e+02 
-1.524108733065e+02 2.361132196420e+01 0.0 
2.361132196420e+01 -3.583799070674e+02 0.0 
0.0 0.0 -1.528372341122e+02 
-1.539425122762e+02 2.265102146562e+01 0.0 
2.265102146562e+01 -3.624229828993e+02 0.0 
0.0 0.0 -1.545096485527e+02 
-1.560408653437e+02 2.175004536840e+01 0.0 
2.175004536840e+01 -3.670304619867e+02 0.0 
0.0 0.0 -1.565213981991e+02 
-1.572568954643e+02 2.023409561282e+01 0.0 
2.023409561282e+01 -3.706871307888e+02 0.0 
0.0 0.0 -1.579832078759e+02 
-1.582881435462e+02 1.902178199409e+01 0.0 
1.902178199409e+01 -3.733361985061e+02 0.0 
0.0 0.0 -1.590873026157e+02 
-1.597733378224e+02 1.754980370665e+01 0.0 
1.754980370665e+01 -3.768195590446e+02 0.0 
0.0 0.0 -1.605778690601e+02 
-1.611303463082e+02 1.611965826864e+01 0.0 
1.611965826864e+01 -3.800395455455e+02 0.0 
0.0 0.0 -1.619509675561e+02 
-1.623248687107e+02 1.458822096083e+01 0.0 
1.458822096083e+01 -3.828846153934e+02 0.0 
0.0 0.0 -1.631628452312e+02 
-1.634040130128e+02 1.307166984596e+01 0.0 
1.307166984596e+01 -3.852930002895e+02 0.0 
0.0 0.0 -1.642091039907e+02 
-1.642586197521e+02 1.155784719783e+01 0.0 
1.155784719783e+01 -3.872861894055e+02 0.0 
0.0 0.0 -1.650634427473e+02 
-1.648731269218e+02 1.006669685653e+01 0.0 
1.006669685653e+01 -3.886495026353e+02 0.0 
0.0 0.0 -1.656567888671e+02 
-1.653204097796e+02 8.740813511979e+00 0.0 
8.740813511979e+00 -3.896042995731e+02 0.0 
0.0 0.0 -1.660774128058e+02 
-1.655667689871e+02 7.399783340925e+00 0.0 
7.399783340925e+00 -3.901633205954e+02 0.0 
0.0 0.0 -1.663190268748e+02 
-1.661635299248e+02 6.366498685901e+00 0.0 
6.366498685901e+00 -3.911565419085e+02 0.0 
0.0 0.0 -1.667960215500e+02 
-1.669316708131e+02 5.233666433968e+00 0.0 
5.233666433968e+00 -3.924585767256e+02 0.0 
0.0 0.0 -1.674170742616e+02 
-1.672756550399e+02 4.435153996225e+00 0.0 
4.435153996225e+00 -3.930107344657e+02 0.0 
0.0 0.0 -1.676859168517e+02 
-1.660305019289e+02 3.512415153411e+00 0.0 
3.512415153411e+00 -3.907986571274e+02 0.0 
0.0 0.0 -1.666487477169e+02 
-1.673393490947e+02 2.696690939170e+00 0.0 
2.696690939170e+00 -3.928901386454e+02 0.0 
0.0 0.0 -1.676688463220e+02 
-1.669191856680e+02 2.085770245251e+00 0.0 
2.085770245251e+00 -3.921378455535e+02 0.0 
0.0 0.0 -1.673171093665e+02 
-1.672660706467e+02 1.718194104632e+00 0.0 
1.718194104632e+00 -3.926645607814e+02 0.0 
0.0 0.0 -1.675791894284e+02 
-1.675900087765e+02 9.481465645385e-01 0.0 
9.481465645385e-01 -3.932949529060e+02 0.0 
0.0 0.0 -1.678654885048e+02 
-1.675228559782e+02 5.644574347426e-01 0.0 
5.644574347426e-01 -3.931904539695e+02 0.0 
0.0 0.0 -1.678139929843e+02 
-6.311288227291e+01 3.533362647140e-01 0.0 
3.533362647140e-01 -1.184715858722e+02 0.0 
0.0 0.0 -5.407534044352e+01 
-7.094526716445e+01 4.278451870470e-01 0.0 
4.278451870470e-01 -1.383346713242e+02 0.0 
0.0 0.0 -6.238398154660e+01 
-7.872109672634e+01 4.431282219173e-01 0.0 
4.431282219173e-01 -1.580781580255e+02 0.0 
0.0 0.0 -7.063977642554e+01 
-8.609471952036e+01 5.032150220483e-01 0.0 
5.032150220483e-01 -1.774878293386e+02 0.0 
0.0 0.0 -7.867476465769e+01 
-9.343959860452e+01 4.891533206193e-01 0.0 
4.891533206193e-01 -1.974238449424e+02 0.0 
0.0 0.0 -8.685903306407e+01 
-1.008522662927e+02 5.616455920931e-01 0.0 
5.616455920931e-01 -2.175456908453e+02 0.0 
0.0 0.0 -9.511938714140e+01 
-1.077105870212e+02 5.396278034661e-01 0.0 
5.396278034661e-01 -2.374851327612e+02 0.0 
0.0 0.0 -1.031587159347e+02 
-1.142923508922e+02 6.430398027123e-01 0.0 
6.430398027123e-01 -2.573055391966e+02 0.0 
0.0 0.0 -1.110793670266e+02 
-1.212105922158e+02 7.010662926985e-01 0.0 
7.010662926985e-01 -2.778713085592e+02 0.0 
0.0 0.0 -1.193245702325e+02 
-6.763445479246e+01 3.189442373218e+01 0.0 
3.189442373218e+01 -6.958934386912e+01 0.0 
0.0 0.0 -4.159052375438e+01 
-6.533879074511e+01 5.182518662168e+00 0.0 
5.182518662168e+00 -1.020700674918e+02 0.0 
0.0 0.0 -4.932059802000e+01 
-4.723568735350e+01 3.352651702357e+01 0.0 
3.352651702357e+01 -3.205547754003e+01 0.0 
0.0 0.0 -2.238367895443e+01 
-4.280675673131e+01 2.946770522812e+01 0.0 
2.946770522812e+01 -2.974088980827e+01 0.0 
0.0 0.0 -1.789330257691e+01 
-4.073188307930e+01 2.783237591394e+01 0.0 
2.783237591394e+01 -2.764671450731e+01 0.0 
0.0 0.0 -1.691118661635e+01 
-3.981517393821e+01 2.640561479843e+01 0.0 
2.640561479843e+01 -2.580430442843e+01 0.0 
0.0 0.0 -1.664144661319e+01 
-4.156681389900e+01 1.812863631874e+01 0.0 
1.812863631874e+01 -2.105545720556e+01 0.0 
0.0 0.0 -1.520766064141e+01 
-3.476268190167e+01 1.011008710012e+01 0.0 
1.011008710012e+01 -2.363041261284e+01 0.0 
0.0 0.0 -1.270797897517e+01 
-4.255589288197e+01 7.742449587402e+00 0.0 
7.742449587402e+00 -4.332596029992e+01 0.0 
0.0 0.0 -2.090772475684e+01 
-5.105748977639e+01 6.123427245182e+00 0.0 
6.123427245182e+00 -6.262729851346e+01 0.0 
0.0 0.0 -3.082305716287e+01 
-5.853450201933e+01 5.359110075882e+00 0.0 
5.359110075882e+00 -8.181894800915e+01 0.0 
0.0 0.0 -4.012357902190e+01 
-1.673942948319e+01 7.142262681057e-01 0.0 
7.142262681057e-01 -7.270097962952e+00 0.0 
0.0 0.0 -6.802858233844e+00 
-2.187264944632e+01 8.209261233612e-01 0.0 
8.209261233612e-01 -1.971702141840e+01 0.0 
0.0 0.0 -1.207690125941e+01 
-2.993872020289e+01 6.284808325040e-01 0.0 
6.284808325040e-01 -3.930965324024e+01 0.0 
0.0 0.0 -2.037451203294e+01 
-3.820516581780e+01 7.671615179235e-01 0.0 
7.671615179235e-01 -5.882877309593e+01 0.0 
0.0 0.0 -2.871018167412e+01 
-4.649632788938e+01 5.528367985380e-01 0.0 
5.528367985380e-01 -7.825911104161e+01 0.0 
0.0 0.0 -3.702663167930e+01 
-5.386136170786e+01 -1.688097762863e-01 0.0 
-1.688097762863e-01 -9.595711702577e+01 0.0 
0.0 0.0 -4.454554362009e+01 
-5.456430859827e+01 9.439308422774e-02 0.0 
9.439308422774e-02 -9.713143741589e+01 0.0 
0.0 0.0 -4.510872380425e+01 
-5.466137506329e+01 1.606484120510e-01 0.0 
1.606484120510e-01 -9.715178328592e+01 0.0 
0.0 0.0 -4.514394750476e+01 
-5.482181201259e+01 2.814032580973e-01 0.0 
2.814032580973e-01 -9.692189668274e+01 0.0 
0.0 0.0 -4.512311260860e+01 
-5.632767570468e+01 3.840879085320e-01 0.0 
3.840879085320e-01 -9.958755293981e+01 0.0 
0.0 0.0 -4.637456859335e+01 
-5.560998964913e+01 4.530925381090e-01 0.0 
4.530925381090e-01 -9.722250360000e+01 0.0 
0.0 0.0 -4.544974797474e+01 
-5.613076458947e+01 6.345815902828e-01 0.0 
6.345815902828e-01 -9.707980615736e+01 0.0 
0.0 0.0 -4.556317122405e+01 
-5.664682186825e+01 7.491780141846e-01 0.0 
7.491780141846e-01 -9.730657979256e+01 0.0 
0.0 0.0 -4.578602049824e+01 
-5.739626422780e+01 1.047592933548e+00 0.0 
1.047592933548e+00 -9.782510626302e+01 0.0 
0.0 0.0 -4.616641114725e+01 
-5.810896913813e+01 1.335125732344e+00 0.0 
1.335125732344e+00 -9.789870050550e+01 0.0 
0.0 0.0 -4.640230089309e+01 
-5.902893586421e+01 1.806315444466e+00 0.0 
1.806315444466e+00 -9.807888856765e+01 0.0 
0.0 0.0 -4.673234732956e+01 
-5.994949994936e+01 2.373353017107e+00 0.0 
2.373353017107e+00 -9.836027647943e+01 0.0 
0.0 0.0 -4.707002784134e+01 
-6.125470866832e+01 3.025149119963e+00 0.0 
3.025149119963e+00 -9.899733504672e+01 0.0 
0.0 0.0 -4.757769220624e+01 
-6.271886187353e+01 3.869850004800e+00 0.0 
3.869850004800e+00 -1.000350500823e+02 0.0 
0.0 0.0 -4.820458583477e+01 
-9.341263151209e+01 1.553345779331e+01 0.0 
1.553345779331e+01 -9.625774665362e+01 0.0 
0.0 0.0 -5.726224646628e+01 
-1.110840474916e+02 3.460300383342e+00 0.0 
3.460300383342e+00 -1.042625948649e+02 0.0 
0.0 0.0 -6.497106749549e+01 
-1.177883820827e+02 -2.152897296259e+00 0.0 
-2.152897296259e+00 -1.038973952117e+02 0.0 
0.0 0.0 -6.683990353716e+01 
-1.072230025834e+02 -1.023851621787e+01 0.0 
-1.023851621787e+01 -9.504246792706e+01 0.0 
0.0 0.0 -6.101325871794e+01 
-7.147679142808e+01 -2.133544773837e+01 0.0 
-2.133544773837e+01 -5.665831414298e+01 0.0 
0.0 0.0 -3.881942191475e+01 
-3.876808772838e+01 -1.512744253865e+01 0.0 
-1.512744253865e+01 -1.984965668606e+01 0.0 
0.0 0.0 -1.731118238381e+01 
-2.190149176431e+01 -3.983426896297e+00 0.0 
-3.983426896297e+00 -1.081635212277e+01 0.0 
0.0 0.0 -9.247171841699e+00 
-1.565595110437e+01 -8.658170862252e-01 0.0 
-8.658170862252e-01 -9.220615322460e+00 0.0 
0.0 0.0 -6.836389627613e+00 
-1.307691958088e+01 1.592505140360e-01 0.0 
1.592505140360e-01 -8.552782651914e+00 0.0 
0.0 0.0 -6.118212621431e+00 
-1.234609506111e+01 4.737057673752e-01 0.0 
4.737057673752e-01 -7.892988741381e+00 0.0 
0.0 0.0 -5.639430893528e+00 
-1.191787253071e+01 2.586156049606e-01 0.0 
2.586156049606e-01 -7.968771426781e+00 0.0 
0.0 0.0 -5.311972947940e+00 
-1.198351866716e+01 -3.684149150834e-02 0.0 
-3.684149150834e-02 -8.736210762284e+00 0.0 
0.0 0.0 -5.354124836547e+00 
-1.170868342402e+01 -1.861342000906e-01 0.0 
-1.861342000906e-01 -8.535921152105e+00 0.0 
0.0 0.0 -4.752337897595e+00 
-1.116565151892e+01 -1.160908931212e-01 0.0 
-1.160908931212e-01 -7.870529248603e+00 0.0 
0.0 0.0 -4.396587716359e+00 
-1.063998762917e+01 -7.399406836966e-02 0.0 
-7.399406836966e-02 -7.946488719141e+00 0.0 
0.0 0.0 -4.252308485432e+00 
-1.042395822628e+01 -4.791833246815e-02 0.0 
-4.791833246815e-02 -8.208855115064e+00 0.0 
0.0 0.0 -4.247390472817e+00 
-1.027426474227e+01 1.666058170663e-02 0.0 
1.666058170663e-02 -8.254795236087e+00 0.0 
0.0 0.0 -4.190062842527e+00 
-1.025956086675e+01 -2.458524669998e-02 0.0 
-2.458524669998e-02 -7.796743756338e+00 0.0 
0.0 0.0 -4.087659395847e+00 
-1.055980471049e+01 -1.243900202259e-01 0.0 
-1.243900202259e-01 -7.126577221389e+00 0.0 
0.0 0.0 -4.058632334039e+00 
-2.652636005455e+01 6.160707024495e+00 0.0 
6.160707024495e+00 -5.580846206743e+00 0.0 
0.0 0.0 -5.329595885813e+00 
-1.863409502764e+01 4.201578119946e+00 0.0 
4.201578119946e+00 -1.004347415612e+01 0.0 
0.0 0.0 -4.003921042407e+00 
-1.356950943358e+01 1.992726285976e+00 0.0 
1.992726285976e+00 -1.035877967707e+01 0.0 
0.0 0.0 -2.935628732198e+00 
-1.126077231371e+01 7.987290699948e-01 0.0 
7.987290699948e-01 -9.832121471876e+00 0.0 
0.0 0.0 -2.873030455621e+00 
-1.017415820274e+01 1.559066320446e-01 0.0 
1.559066320446e-01 -9.699433652962e+00 0.0 
0.0 0.0 -3.361688516149e+00 
-1.002137025018e+01 -1.737256604328e-01 0.0 
-1.737256604328e-01 -9.633280319311e+00 0.0 
0.0 0.0 -3.911394758435e+00 
-1.040173696520e+01 -3.800044322049e-01 0.0 
-3.800044322049e-01 -9.649581793244e+00 0.0 
0.0 0.0 -4.541261100746e+00 
-1.111260904149e+01 -5.045710693784e-01 0.0 
-5.045710693784e-01 -9.666469413919e+00 0.0 
0.0 0.0 -5.133869591470e+00 
-1.199009183155e+01 -5.848119755481e-01 0.0 
-5.848119755481e-01 -9.666774842377e+00 0.0 
0.0 0.0 -5.605382079318e+00 
-1.280089841589e+01 -5.727054677924e-01 0.0 
-5.727054677924e-01 -9.660087734110e+00 0.0 
0.0 0.0 -5.931087087007e+00 
-1.360053288616e+01 -5.158307701930e-01 0.0 
-5.158307701930e-01 -9.684213700319e+00 0.0 
0.0 0.0 -6.251008730925e+00 
-1.433439190382e+01 -4.508846406034e-01 0.0 
-4.508846406034e-01 -9.712387109421e+00 0.0 
0.0 0.0 -6.541585185531e+00 
-1.498221621947e+01 -3.883948572780e-01 0.0 
-3.883948572780e-01 -9.740373809399e+00 0.0 
0.0 0.0 -6.796746198091e+00 
-1.553976904061e+01 -3.315491736746e-01 0.0 
-3.315491736746e-01 -9.764427570440e+00 0.0 
0.0 0.0 -7.014910038020e+00 
-1.600552547593e+01 -2.748172281837e-01 0.0 
-2.748172281837e-01 -9.783734279515e+00 0.0 
0.0 0.0 -7.196891026569e+00 
-1.637832627090e+01 -2.189957694681e-01 0.0 
-2.189957694681e-01 -9.801567914649e+00 0.0 
0.0 0.0 -7.345017969009e+00 
-1.666212068793e+01 -1.658198866448e-01 0.0 
-1.658198866448e-01 -9.813926346808e+00 0.0 
0.0 0.0 -7.459793155282e+00 
-1.686164664096e+01 -1.067399820891e-01 0.0 
-1.067399820891e-01 -9.814074610307e+00 0.0 
0.0 0.0 -7.540205135093e+00 
-1.698004983850e+01 -3.286673180782e-02 0.0 
-3.286673180782e-02 -9.798498701366e+00 0.0 
0.0 0.0 -7.586606060922e+00 
-1.701611976252e+01 6.336770801282e-02 0.0 
6.336770801282e-02 -9.754222961422e+00 0.0 
0.0 0.0 -7.594506977722e+00 
-1.702154840107e+01 1.757186547419e-01 0.0 
1.757186547419e-01 -9.155415631234e+00 0.0 
0.0 0.0 -7.414853178624e+00 
-1.680870921229e+01 -3.047285040907e-01 0.0 
-3.047285040907e-01 -6.883988464835e+00 0.0 
0.0 0.0 -6.707809303137e+00 
-2.174909427617e+01 -2.512596409574e-01 0.0 
-2.512596409574e-01 -1.967337967273e+01 0.0 
0.0 0.0 -1.201240367302e+01 
-2.148785326022e+01 -4.486933784702e-02 0.0 
-4.486933784702e-02 -1.955747710557e+01 0.0 
0.0 0.0 -1.187618317447e+01 
-2.140513862524e+01 -5.047604739911e-02 0.0 
-5.047604739911e-02 -1.953371767257e+01 0.0 
0.0 0.0 -1.183987971909e+01 
-2.134054142322e+01 -1.259779393173e-01 0.0 
-1.259779393173e-01 -1.954405001630e+01 0.0 
0.0 0.0 -1.181064256120e+01 
-2.126577192424e+01 -2.075001611146e-01 0.0 
-2.075001611146e-01 -1.955308875598e+01 0.0 
0.0 0.0 -1.177289210635e+01 
-2.117393194449e+01 -2.942863214575e-01 0.0 
-2.942863214575e-01 -1.955926316564e+01 0.0 
0.0 0.0 -1.171905470100e+01 
-2.107197740142e+01 -3.867754661951e-01 0.0 
-3.867754661951e-01 -1.956007596946e+01 0.0 
0.0 0.0 -1.164082045978e+01 
-2.093711176987e+01 -4.827912184155e-01 0.0 
-4.827912184155e-01 -1.956191482467e+01 0.0 
0.0 0.0 -1.154469094489e+01 
-2.076660754408e+01 -5.784935836743e-01 0.0 
-5.784935836743e-01 -1.956799879229e+01 0.0 
0.0 0.0 -1.142990920368e+01 
-2.056202273651e+01 -6.720140582968e-01 0.0 
-6.720140582968e-01 -1.957206199498e+01 0.0 
0.0 0.0 -1.129068484729e+01 
-2.034506804749e+01 -7.571950536769e-01 0.0 
-7.571950536769e-01 -1.958226935887e+01 0.0 
0.0 0.0 -1.113570163695e+01 
-2.014185750022e+01 -8.197952050542e-01 0.0 
-8.197952050542e-01 -1.960727232663e+01 0.0 
0.0 0.0 -1.097453950673e+01 
-1.999550937917e+01 -8.317706137338e-01 0.0 
-8.317706137338e-01 -1.966846948629e+01 0.0 
0.0 0.0 -1.082390704051e+01 
-1.989444652982e+01 -7.525726522023e-01 0.0 
-7.525726522023e-01 -1.978669042895e+01 0.0 
0.0 0.0 -1.062602745062e+01 
-1.989424649350e+01 -5.518993324141e-01 0.0 
-5.518993324141e-01 -1.987156668199e+01 0.0 
0.0 0.0 -1.028312903759e+01 
-2.014831453622e+01 -2.067082739226e-01 0.0 
-2.067082739226e-01 -2.003614951199e+01 0.0 
0.0 0.0 -9.946721594368e+00 
-2.085984480574e+01 3.896765190092e-01 0.0 
3.896765190092e-01 -2.023238828797e+01 0.0 
0.0 0.0 -9.635048099812e+00 
-2.210446115235e+01 1.308734415808e+00 0.0 
1.308734415808e+00 -2.068371672983e+01 0.0 
0.0 0.0 -9.474005634456e+00 
-2.550162555808e+01 3.265800469263e+00 0.0 
3.265800469263e+00 -2.248468056229e+01 0.0 
0.0 0.0 -1.012163825845e+01 
-2.666529643165e+01 4.932571292242e+00 0.0 
4.932571292242e+00 -1.920457805946e+01 0.0 
0.0 0.0 -8.946514712384e+00 
-3.788608224333e+01 4.480977293005e+00 0.0 
4.480977293005e+00 -3.934697587457e+01 0.0 
0.0 0.0 -1.936827407667e+01 
-3.763312537548e+01 3.181563404282e+00 0.0 
3.181563404282e+00 -4.244954437157e+01 0.0 
0.0 0.0 -2.090741404592e+01 
-3.499453113381e+01 1.483419801535e+00 0.0 
1.483419801535e+00 -4.063135197070e+01 0.0 
0.0 0.0 -2.023734857019e+01 
-3.372629844678e+01 5.877631742752e-01 0.0 
5.877631742752e-01 -4.003272788914e+01 0.0 
0.0 0.0 -2.017250606583e+01 
-3.272362845038e+01 6.273887598199e-03 0.0 
6.273887598199e-03 -3.973354006114e+01 0.0 
0.0 0.0 -2.025567606622e+01 
-3.195020139344e+01 -3.015429883661e-01 0.0 
-3.015429883661e-01 -3.946503099295e+01 0.0 
0.0 0.0 -2.027663750860e+01 
-3.134312956710e+01 -4.810902974570e-01 0.0 
-4.810902974570e-01 -3.928026920373e+01 0.0 
0.0 0.0 -2.022615604403e+01 
-3.089056602469e+01 -5.619905214013e-01 0.0 
-5.619905214013e-01 -3.917435313490e+01 0.0 
0.0 0.0 -2.019324055230e+01 
-3.055453066946e+01 -5.670591121243e-01 0.0 
-5.670591121243e-01 -3.911789495779e+01 0.0 
0.0 0.0 -2.019322728541e+01 
-3.030043321073e+01 -5.238349970521e-01 0.0 
-5.238349970521e-01 -3.908756229050e+01 0.0 
0.0 0.0 -2.021377332304e+01 
-3.010371609945e+01 -4.419512496334e-01 0.0 
-4.419512496334e-01 -3.908081096110e+01 0.0 
0.0 0.0 -2.023617618807e+01 
-2.997264242434e+01 -3.600444868528e-01 0.0 
-3.600444868528e-01 -3.908858856155e+01 0.0 
0.0 0.0 -2.024709322686e+01 
-2.988733802391e+01 -2.910898442417e-01 0.0 
-2.910898442417e-01 -3.909963937433e+01 0.0 
0.0 0.0 -2.026679805021e+01 
-2.983335985715e+01 -2.244297280708e-01 0.0 
-2.244297280708e-01 -3.910101183458e+01 0.0 
0.0 0.0 -2.027539329638e+01 
-2.981306291222e+01 -1.630144677240e-01 0.0 
-1.630144677240e-01 -3.910068397936e+01 0.0 
0.0 0.0 -2.027412406747e+01 
-2.981740079526e+01 -1.107507691972e-01 0.0 
-1.107507691972e-01 -3.909608174530e+01 0.0 
0.0 0.0 -2.027404476217e+01 
-2.984730270568e+01 -6.407733986379e-02 0.0 
-6.407733986379e-02 -3.910963581678e+01 0.0 
0.0 0.0 -2.028708155674e+01 
-2.987818423026e+01 -1.890402712518e-02 0.0 
-1.890402712518e-02 -3.917562524114e+01 0.0 
0.0 0.0 -2.031614284142e+01 
-2.992935186246e+01 -4.612334214356e-01 0.0 
-4.612334214356e-01 -3.927282194939e+01 0.0 
0.0 0.0 -2.036065214355e+01 
-3.819769935402e+01 -3.395775913784e-01 0.0 
-3.395775913784e-01 -5.882829675343e+01 0.0 
0.0 0.0 -2.870779883223e+01 
-3.826948247615e+01 -1.038793169904e-01 0.0 
-1.038793169904e-01 -5.871040324641e+01 0.0 
0.0 0.0 -2.869396571677e+01 
-3.832464039838e+01 -7.803705237126e-02 0.0 
-7.803705237126e-02 -5.866701692346e+01 0.0 
0.0 0.0 -2.869749719655e+01 
-3.839600730312e+01 -9.973383809527e-02 0.0 
-9.973383809527e-02 -5.867105362456e+01 0.0 
0.0 0.0 -2.872011827830e+01 
-3.852447417836e+01 -1.287344669996e-01 0.0 
-1.287344669996e-01 -5.866267222074e+01 0.0 
0.0 0.0 -2.875614391973e+01 
-3.866714011998e+01 -1.588654116175e-01 0.0 
-1.588654116175e-01 -5.866246457680e+01 0.0 
0.0 0.0 -2.879888140904e+01 
-3.884854643484e+01 -1.793425894114e-01 0.0 
-1.793425894114e-01 -5.867268738189e+01 0.0 
0.0 0.0 -2.885637014502e+01 
-3.909176900168e+01 -1.726273753085e-01 0.0 
-1.726273753085e-01 -5.866532664125e+01 0.0 
0.0 0.0 -2.892712869288e+01 
-3.945295907306e+01 -1.934600567251e-01 0.0 
-1.934600567251e-01 -5.865203355766e+01 0.0 
0.0 0.0 -2.900445618884e+01 
-3.991326704209e+01 -1.878188624614e-01 0.0 
-1.878188624614e-01 -5.873028273715e+01 0.0 
0.0 0.0 -2.909989154152e+01 
-4.058231409142e+01 -1.024922453977e-01 0.0 
-1.024922453977e-01 -5.883538932989e+01 0.0 
0.0 0.0 -2.920931932441e+01 
-4.141104390464e+01 7.179231449877e-02 0.0 
7.179231449877e-02 -5.899798894354e+01 0.0 
0.0 0.0 -2.937316048221e+01 
-4.239553709361e+01 3.691105904728e-01 0.0 
3.691105904728e-01 -5.928418254473e+01 0.0 
0.0 0.0 -2.959636587214e+01 
-4.365228522540e+01 8.207777416460e-01 0.0 
8.207777416460e-01 -5.962609733218e+01 0.0 
0.0 0.0 -2.980951613623e+01 
-4.497763424276e+01 1.463995717414e+00 0.0 
1.463995717414e+00 -6.027829387719e+01 0.0 
0.0 0.0 -3.003606262891e+01 
-4.734792669800e+01 2.863704096182e+00 0.0 
2.863704096182e+00 -6.218944142502e+01 0.0 
0.0 0.0 -3.082863147539e+01 
-4.753430212902e+01 3.859485135728e+00 0.0 
3.859485135728e+00 -5.911215807969e+01 0.0 
0.0 0.0 -2.945585576620e+01 
-5.548519829942e+01 3.653948936679e+00 0.0 
3.653948936679e+00 -7.856520267708e+01 0.0 
0.0 0.0 -3.878655238232e+01 
-5.522416057199e+01 3.006032165758e+00 0.0 
3.006032165758e+00 -8.147028200266e+01 0.0 
0.0 0.0 -3.991614397821e+01 
-5.307148360208e+01 1.997722767356e+00 0.0 
1.997722767356e+00 -7.966241003581e+01 0.0 
0.0 0.0 -3.899485065276e+01 
-5.177044307761e+01 1.434246662178e+00 0.0 
1.434246662178e+00 -7.912475040585e+01 0.0 
0.0 0.0 -3.861980448377e+01 
-5.064902005742e+01 1.051920693321e+00 0.0 
1.051920693321e+00 -7.881665031007e+01 0.0 
0.0 0.0 -3.831148480166e+01 
-4.974247095927e+01 7.243565278354e-01 0.0 
7.243565278354e-01 -7.863488365195e+01 0.0 
0.0 0.0 -3.807112652580e+01 
-4.901431603611e+01 4.844785383392e-01 0.0 
4.844785383392e-01 -7.842960670289e+01 0.0 
0.0 0.0 -3.783317682170e+01 
-4.844511463864e+01 3.640787892797e-01 0.0 
3.640787892797e-01 -7.834107359476e+01 0.0 
0.0 0.0 -3.763585647002e+01 
-4.806186550528e+01 2.235691862199e-01 0.0 
2.235691862199e-01 -7.839130847437e+01 0.0 
0.0 0.0 -3.753595219389e+01 
-4.762187543513e+01 1.509758522064e-01 0.0 
1.509758522064e-01 -7.833818160040e+01 0.0 
0.0 0.0 -3.738801711066e+01 
-4.731217080747e+01 9.161038162080e-02 0.0 
9.161038162080e-02 -7.831517650673e+01 0.0 
0.0 0.0 -3.728820419426e+01 
-4.707632009897e+01 9.043272971533e-02 0.0 
9.043272971533e-02 -7.831539576707e+01 0.0 
0.0 0.0 -3.721751475981e+01 
-4.685563894572e+01 3.776767478849e-02 0.0 
3.776767478849e-02 -7.833310113809e+01 0.0 
0.0 0.0 -3.715662202514e+01 
-4.669835186243e+01 4.276038543254e-02 0.0 
4.276038543254e-02 -7.827821025568e+01 0.0 
0.0 0.0 -3.709296863543e+01 
-4.660971395275e+01 1.243512701110e-01 0.0 
1.243512701110e-01 -7.844017283682e+01 0.0 
0.0 0.0 -3.711496603687e+01 
-4.648211318437e+01 -4.624140727312e-01 0.0 
-4.624140727312e-01 -7.853614772690e+01 0.0 
0.0 0.0 -3.710547827338e+01 
-5.044431940330e+01 3.769630299683e+01 0.0 
3.769630299683e+01 -4.026963159332e+01 0.0 
0.0 0.0 -2.780259328042e+01 
-4.439730371183e+01 3.120933774531e+01 0.0 
3.120933774531e+01 -3.121797364755e+01 0.0 
0.0 0.0 -1.943254398377e+01 
-4.148527405471e+01 2.841605211568e+01 0.0 
2.841605211568e+01 -2.832591742524e+01 0.0 
0.0 0.0 -1.709123379057e+01 
-4.019850773165e+01 2.719626923563e+01 0.0 
2.719626923563e+01 -2.718148075271e+01 0.0 
0.0 0.0 -1.696968448273e+01 
-4.377630129030e+01 2.633230587545e+01 0.0 
2.633230587545e+01 -2.639478495644e+01 0.0 
0.0 0.0 -1.793437804111e+01 
-3.677213271456e+01 1.242989294275e+01 0.0 
1.242989294275e+01 -1.757590469789e+01 0.0 
0.0 0.0 -1.205887753176e+01 
-3.997186440299e+01 9.157437661792e+00 0.0 
9.157437661792e+00 -3.565958143964e+01 0.0 
0.0 0.0 -1.723412903045e+01 
-4.830951516556e+01 6.988347914471e+00 0.0 
6.988347914471e+00 -5.501020716000e+01 0.0 
0.0 0.0 -2.702553943379e+01 
-5.620210975131e+01 5.773337275360e+00 0.0 
5.773337275360e+00 -7.420194533816e+01 0.0 
0.0 0.0 -3.657467186900e+01 
-6.290877286418e+01 5.255753098438e+00 0.0 
5.255753098438e+00 -9.349936854699e+01 0.0 
0.0 0.0 -4.563772781232e+01 
-4.460309400803e+01 3.189879379615e+01 0.0 
3.189879379615e+01 -4.156881580592e+01 0.0 
0.0 0.0 -2.221035784314e+01 
-1.548173275492e+02 1.648954126162e+01 0.0 
1.648954126162e+01 -3.705821950510e+02 0.0 
0.0 0.0 -1.572198567801e+02 
-1.582962705684e+01 -1.042773401649e+00 0.0 
-1.042773401649e+00 -1.720545507349e+01 0.0 
0.0 0.0 -9.029254366479e+00 
-6.480206125000e+01 -2.112467832973e+01 0.0 
-2.112467832973e+01 -8.562793032127e+01 0.0 
0.0 0.0 -4.595004396790e+01 
-1.595849777293e+02 9.070103920576e+00 0.0 
9.070103920576e+00 -3.812025395788e+02 0.0 
0.0 0.0 -1.618362551924e+02 
-4.209819170636e+01 2.802417711724e+01 0.0 
2.802417711724e+01 -3.683420657366e+01 0.0 
0.0 0.0 -2.048429481006e+01 
-1.000507858757e+02 -7.923186868867e-01 0.0 
-7.923186868867e-01 -2.149922071344e+02 0.0 
0.0 0.0 -8.965994933967e+01 
-1.491510122041e+02 2.152220856301e+01 0.0 
2.152220856301e+01 -3.555894615155e+02 0.0 
0.0 0.0 -1.510221421159e+02 
-4.503586358705e+01 1.833949714131e+01 0.0 
1.833949714131e+01 -4.099273064723e+01 0.0 
0.0 0.0 -2.142924052465e+01 
-1.436745649755e+02 2.464227283961e+01 0.0 
2.464227283961e+01 -3.384292303032e+02 0.0 
0.0 0.0 -1.442311385836e+02 
-5.820486807735e+01 9.599025658923e+00 0.0 
9.599025658923e+00 -7.429742828578e+01 0.0 
0.0 0.0 -3.592865272308e+01 
-1.625545139017e+02 4.574377198563e+00 0.0 
4.574377198563e+00 -3.852002641948e+02 0.0 
0.0 0.0 -1.639264334290e+02 
-1.155042313831e+01 -2.964715824158e-01 0.0 
-2.964715824158e-01 -1.622443946577e+01 0.0 
0.0 0.0 -6.571104428889e+00 
-1.375313877945e+02 2.396308927420e+01 0.0 
2.396308927420e+01 -3.186683625797e+02 0.0 
0.0 0.0 -1.364599251123e+02 
-7.036657069016e+01 7.044200861591e+00 0.0 
7.044200861591e+00 -1.117312836077e+02 0.0 
0.0 0.0 -5.364079682933e+01 
-6.287828458708e+01 -1.014106720653e+00 0.0 
-1.014106720653e+00 -1.320576387440e+02 0.0 
0.0 0.0 -5.395537741147e+01 
-1.172585401018e+02 -4.004696499778e-01 0.0 
-4.004696499778e-01 -2.704573174786e+02 0.0 
0.0 0.0 -1.134957503250e+02 
-1.332699753122e+02 2.104205690318e+01 0.0 
2.104205690318e+01 -3.050098488941e+02 0.0 
0.0 0.0 -1.310839472619e+02 
-1.284421892918e+02 1.542344809475e+01 0.0 
1.542344809475e+01 -2.934192606188e+02 0.0 
0.0 0.0 -1.261584349732e+02 
-1.228139997273e+02 4.770779384205e+00 0.0 
4.770779384205e+00 -2.827101618666e+02 0.0 
0.0 0.0 -1.212572484782e+02 
-1.235916942764e+02 7.757784656205e+00 0.0 
7.757784656205e+00 -2.827600335822e+02 0.0 
0.0 0.0 -1.215055183576e+02 
-1.259721988289e+02 1.156571707770e+01 0.0 
1.156571707770e+01 -2.883485554609e+02 0.0 
0.0 0.0 -1.238962262869e+02 
-6.988794561613e+01 4.754526144256e+00 0.0 
4.754526144256e+00 -1.181969016651e+02 0.0 
0.0 0.0 -5.601517096374e+01 
-6.564147958968e+01 1.945634647706e+00 0.0 
1.945634647706e+00 -1.160462574444e+02 0.0 
0.0 0.0 -5.410632111023e+01 
-6.423332271947e+01 1.119665505826e+00 0.0 
1.119665505826e+00 -1.169612180689e+02 0.0 
0.0 0.0 -5.395836223650e+01 
-8.990572245470e+01 5.169426024822e-01 0.0 
5.169426024822e-01 -1.875604415057e+02 0.0 
0.0 0.0 -8.283984918811e+01 
-1.626721189161e+02 2.434419170342e+00 0.0 
2.434419170342e+00 -3.844939621298e+02 0.0 
0.0 0.0 -1.637498243138e+02 
-7.521963029651e+01 1.222031131684e+01 0.0 
1.222031131684e+01 -1.058532062055e+02 0.0 
0.0 0.0 -5.514137958773e+01 
-1.039668861659e+01 -1.443491869799e-01 0.0 
-1.443491869799e-01 -1.725933497743e+01 0.0 
0.0 0.0 -6.204900153594e+00 
-1.374924021399e+02 2.346478846291e-01 0.0 
2.346478846291e-01 -3.324040804896e+02 0.0 
0.0 0.0 -1.405689447889e+02 
-6.187317888984e+01 3.383038653837e-01 0.0 
3.383038653837e-01 -1.145370195213e+02 0.0 
0.0 0.0 -5.252305952333e+01 
-2.110820069066e+01 -5.932875552271e-01 0.0 
-5.932875552271e-01 -6.893689047540e+01 0.0 
0.0 0.0 -2.585077569623e+01 
-1.295383743655e+02 1.806099819696e+01 0.0 
1.806099819696e+01 -2.949820866270e+02 0.0 
0.0 0.0 -1.269561382977e+02 
-1.471170183167e+02 2.353090181258e+01 0.0 
2.353090181258e+01 -3.486506877852e+02 0.0 
0.0 0.0 -1.483303118306e+02 
-1.405345673562e+02 2.482359200640e+01 0.0 
2.482359200640e+01 -3.283898721598e+02 0.0 
0.0 0.0 -1.402773318548e+02 
-1.511629115963e+02 1.929074079373e+01 0.0 
1.929074079373e+01 -3.620327262784e+02 0.0 
0.0 0.0 -1.535586913624e+02 
-1.574026864909e+02 1.354678995656e+01 0.0 
1.354678995656e+01 -3.765354130033e+02 0.0 
0.0 0.0 -1.597814298483e+02 
-3.428153604802e+01 -1.312444694156e+01 0.0 
-1.312444694156e+01 -2.555751775328e+01 0.0 
0.0 0.0 -1.581486248816e+01 
-6.729973748467e+01 3.023990003412e+00 0.0 
3.023990003412e+00 -1.160961960731e+02 0.0 
0.0 0.0 -5.461878006735e+01 
-1.592579754294e+02 6.477336257455e+00 0.0 
6.477336257455e+00 -3.802748022243e+02 0.0 
0.0 0.0 -1.614598332961e+02 
-1.040227616412e+02 6.644846768545e-01 0.0 
6.644846768545e-01 -2.270403308476e+02 0.0 
0.0 0.0 -9.891892774664e+01 
-1.264505919423e+01 -1.997881322306e-01 0.0 
-1.997881322306e-01 -1.679835307672e+01 0.0 
0.0 0.0 -7.946283167638e+00 
-8.345034462505e+01 -1.003130731183e+00 0.0 
-1.003130731183e+00 -1.725938433560e+02 0.0 
0.0 0.0 -7.150452477610e+01 
-1.233349705371e+02 2.965662788277e+00 0.0 
2.965662788277e+00 -2.850756540581e+02 0.0 
0.0 0.0 -1.221231873786e+02 
-4.546679875943e+01 2.557063016441e+01 0.0 
2.557063016441e+01 -3.919752087827e+01 0.0 
0.0 0.0 -2.193508164240e+01 
-4.262478177171e+01 2.953119679789e+01 0.0 
2.953119679789e+01 -3.841382416745e+01 0.0 
0.0 0.0 -2.053106060178e+01 
-5.114999374862e+01 1.292577821573e+01 0.0 
1.292577821573e+01 -5.621358506469e+01 0.0 
0.0 0.0 -2.662111756215e+01 
-6.462417119741e+01 7.959521941159e+00 0.0 
7.959521941159e+00 -9.259046045253e+01 0.0 
0.0 0.0 -4.485560712801e+01 
-4.868171159704e+01 3.721727159683e+01 0.0 
3.721727159683e+01 -4.803569811279e+01 0.0 
0.0 0.0 -2.879123977645e+01 
-7.561170208533e+01 2.629991879684e-01 0.0 
2.629991879684e-01 -1.497676540391e+02 0.0 
0.0 0.0 -6.721380683732e+01 
-1.644392615812e+02 1.301742275018e+00 0.0 
1.301742275018e+00 -3.876301614664e+02 0.0 
0.0 0.0 -1.652208269143e+02 
-1.005270956135e+01 -9.974048556958e-02 0.0 
-9.974048556958e-02 -1.637059961785e+01 0.0 
0.0 0.0 -5.879993166832e+00 
-1.173112991919e+02 7.402078068628e-01 0.0 
7.402078068628e-01 -2.663991098641e+02 0.0 
0.0 0.0 -1.147131227168e+02 
-7.315827018504e+01 6.913922905359e+00 0.0 
6.913922905359e+00 -1.206068775934e+02 0.0 
0.0 0.0 -5.754479222361e+01 
-7.731476774852e+01 8.815473568522e+00 0.0 
8.815473568522e+00 -1.304843630959e+02 0.0 
0.0 0.0 -6.175243631484e+01 
-7.966405621490e+01 8.038034553066e+00 0.0 
8.038034553066e+00 -1.388934799855e+02 0.0 
0.0 0.0 -6.516710829616e+01 
-8.443665857599e+01 1.042275902166e+01 0.0 
1.042275902166e+01 -1.509003504809e+02 0.0 
0.0 0.0 -7.020110271707e+01 
-8.752000485568e+01 9.688426349084e+00 0.0 
9.688426349084e+00 -1.601696080576e+02 0.0 
0.0 0.0 -7.390688387398e+01 
-9.160162451410e+01 1.162335771399e+01 0.0 
1.162335771399e+01 -1.712280907085e+02 0.0 
0.0 0.0 -7.844891456677e+01 
-8.862068579270e+01 1.250570994378e+01 0.0 
1.250570994378e+01 -1.622756205651e+02 0.0 
0.0 0.0 -7.486889190733e+01 
-9.560029260385e+01 1.356561511765e+01 0.0 
1.356561511765e+01 -1.828055435198e+02 0.0 
0.0 0.0 -8.312175083710e+01 
-9.242084839198e+01 1.458125954764e+01 0.0 
1.458125954764e+01 -1.741166748769e+02 0.0 
0.0 0.0 -7.956125698067e+01 
-9.488929702413e+01 1.095370533990e+01 0.0 
1.095370533990e+01 -1.807139708847e+02 0.0 
0.0 0.0 -8.228098037264e+01 
-9.929857004237e+01 1.544724844689e+01 0.0 
1.544724844689e+01 -1.948083237424e+02 0.0 
0.0 0.0 -8.783206813542e+01 
-9.596782617195e+01 1.654561413028e+01 0.0 
1.654561413028e+01 -1.865052938355e+02 0.0 
0.0 0.0 -8.434193600224e+01 
-1.027821400090e+02 1.718622516806e+01 0.0 
1.718622516806e+01 -2.072324312187e+02 0.0 
0.0 0.0 -9.260437136830e+01 
-9.928687657181e+01 1.831295646051e+01 0.0 
1.831295646051e+01 -1.993834374090e+02 0.0 
0.0 0.0 -8.920109419426e+01 
-9.279098831276e+01 1.781131360044e+01 0.0 
1.781131360044e+01 -1.786934072658e+02 0.0 
0.0 0.0 -8.087153788087e+01 
-9.579222435468e+01 1.958607390376e+01 0.0 
1.958607390376e+01 -1.920654586262e+02 0.0 
0.0 0.0 -8.585634968416e+01 
-9.006365537567e+01 1.907588171326e+01 0.0 
1.907588171326e+01 -1.713998508322e+02 0.0 
0.0 0.0 -7.738041609648e+01 
-9.270947790526e+01 2.087382689125e+01 0.0 
2.087382689125e+01 -1.853186337636e+02 0.0 
0.0 0.0 -8.249754301898e+01 
-9.865735953256e+01 2.096516602482e+01 0.0 
2.096516602482e+01 -2.057707747296e+02 0.0 
0.0 0.0 -9.088836404209e+01 
-9.509020720779e+01 2.217144865696e+01 0.0 
2.217144865696e+01 -1.995043340462e+02 0.0 
0.0 0.0 -8.764082260824e+01 
-8.979558139141e+01 2.212613529571e+01 0.0 
2.212613529571e+01 -1.791156570008e+02 0.0 
0.0 0.0 -7.907297181622e+01 
-9.179821748647e+01 2.325301583406e+01 0.0 
2.325301583406e+01 -1.937927371388e+02 0.0 
0.0 0.0 -8.437164492022e+01 
-8.684819450603e+01 2.347881525617e+01 0.0 
2.347881525617e+01 -1.735638240854e+02 0.0 
0.0 0.0 -7.564907737078e+01 
-8.857977282922e+01 2.427350457476e+01 0.0 
2.427350457476e+01 -1.886731782123e+02 0.0 
0.0 0.0 -8.107999682556e+01 
-8.350294169456e+01 2.486178931493e+01 0.0 
2.486178931493e+01 -1.686391423603e+02 0.0 
0.0 0.0 -7.245081815138e+01 
-8.514569904167e+01 2.527609144283e+01 0.0 
2.527609144283e+01 -1.840982316456e+02 0.0 
0.0 0.0 -7.826903534900e+01 
-9.014460828615e+01 2.446202374946e+01 0.0 
2.446202374946e+01 -2.035708218435e+02 0.0 
0.0 0.0 -8.649783719044e+01 
-8.648838775056e+01 2.502586292750e+01 0.0 
2.502586292750e+01 -1.990948156808e+02 0.0 
0.0 0.0 -8.398390984233e+01 
-8.119714060892e+01 2.620863834103e+01 0.0 
2.620863834103e+01 -1.799682253261e+02 0.0 
0.0 0.0 -7.613401816102e+01 
-8.251804351166e+01 2.551014837651e+01 0.0 
2.551014837651e+01 -1.949194687489e+02 0.0 
0.0 0.0 -8.199053245442e+01 
-7.676016106196e+01 2.697528273083e+01 0.0 
2.697528273083e+01 -1.762161483088e+02 0.0 
0.0 0.0 -7.450305971842e+01 
-7.784951358794e+01 2.585433862780e+01 0.0 
2.585433862780e+01 -1.908854160272e+02 0.0 
0.0 0.0 -8.031764700377e+01 
-8.364371900417e+01 2.427346005545e+01 0.0 
2.427346005545e+01 -2.089897609030e+02 0.0 
0.0 0.0 -8.761972002493e+01 
-7.908959276319e+01 2.419956370310e+01 0.0 
2.419956370310e+01 -2.043175957986e+02 0.0 
0.0 0.0 -8.584591754263e+01 
-7.305284721922e+01 2.572605769219e+01 0.0 
2.572605769219e+01 -1.864484407632e+02 0.0 
0.0 0.0 -7.830098518311e+01 
-7.459028385903e+01 2.363453720563e+01 0.0 
2.363453720563e+01 -1.996027005840e+02 0.0 
0.0 0.0 -8.376114683410e+01 
-6.855771306046e+01 2.510437976077e+01 0.0 
2.510437976077e+01 -1.824660848520e+02 0.0 
0.0 0.0 -7.594963222901e+01 
-7.019486728169e+01 2.242760496202e+01 0.0 
2.242760496202e+01 -1.955880019778e+02 0.0 
0.0 0.0 -8.111622511559e+01 
-6.437778819944e+01 2.356020282212e+01 0.0 
2.356020282212e+01 -1.792341466904e+02 0.0 
0.0 0.0 -7.276206003898e+01 
-6.623650059736e+01 2.027003989177e+01 0.0 
2.027003989177e+01 -1.920391881582e+02 0.0 
0.0 0.0 -7.767506784441e+01 
-7.204216686046e+01 1.940389745306e+01 0.0 
1.940389745306e+01 -2.078485344340e+02 0.0 
0.0 0.0 -8.624728704437e+01 
-6.838750055946e+01 1.680762992994e+01 0.0 
1.680762992994e+01 -2.038263062786e+02 0.0 
0.0 0.0 -8.273404973762e+01 
-6.273042301310e+01 1.729660832652e+01 0.0 
1.729660832652e+01 -1.884793411051e+02 0.0 
0.0 0.0 -7.427787167738e+01 
-6.522826085569e+01 1.340972752281e+01 0.0 
1.340972752281e+01 -1.994283890359e+02 0.0 
0.0 0.0 -7.913514122674e+01 
-7.086924618483e+01 1.336002315125e+01 0.0 
1.336002315125e+01 -2.146014280322e+02 0.0 
0.0 0.0 -8.790886733517e+01 
-6.807893421522e+01 9.691759008699e+00 0.0 
9.691759008699e+00 -2.092254847812e+02 0.0 
0.0 0.0 -8.418894630978e+01 
-7.377404432759e+01 1.007372503198e+01 0.0 
1.007372503198e+01 -2.243699109764e+02 0.0 
0.0 0.0 -9.304383072174e+01 
-7.134036745897e+01 6.296001047902e+00 0.0 
6.296001047902e+00 -2.181645728655e+02 0.0 
0.0 0.0 -8.942534600111e+01 
-6.581087142360e+01 5.471738487077e+00 0.0 
5.471738487077e+00 -2.033227130094e+02 0.0 
0.0 0.0 -8.077633895699e+01 
-6.941428274764e+01 2.159626069050e+00 0.0 
2.159626069050e+00 -2.111446706134e+02 0.0 
0.0 0.0 -8.587410364882e+01 
-7.515345271081e+01 3.546181250851e+00 0.0 
3.546181250851e+00 -2.263111838426e+02 0.0 
0.0 0.0 -9.427842500099e+01 
-7.358459416559e+01 -3.834796767508e-01 0.0 
-3.834796767508e-01 -2.186059719085e+02 0.0 
0.0 0.0 -9.062398359944e+01 
-6.787291503009e+01 -2.151381086154e+00 0.0 
-2.151381086154e+00 -2.032462956327e+02 0.0 
0.0 0.0 -8.239787464284e+01 
-7.227810377170e+01 -4.270966149818e+00 0.0 
-4.270966149818e+00 -2.101301359642e+02 0.0 
0.0 0.0 -8.677119154801e+01 
-7.849469451722e+01 -1.912991086477e+00 0.0 
-1.912991086477e+00 -2.269316937457e+02 0.0 
0.0 0.0 -9.471162495144e+01 
-7.733712329834e+01 -5.334496403740e+00 0.0 
-5.334496403740e+00 -2.177128350588e+02 0.0 
0.0 0.0 -9.052377193957e+01 
-7.097846964253e+01 -7.998936633651e+00 0.0 
-7.998936633651e+00 -2.008042621259e+02 0.0 
0.0 0.0 -8.268903754291e+01 
-7.624624324705e+01 -8.270983703930e+00 0.0 
-8.270983703930e+00 -2.073372596041e+02 0.0 
0.0 0.0 -8.596114630254e+01 
-8.337856354548e+01 -5.028672515533e+00 0.0 
-5.028672515533e+00 -2.252019113979e+02 0.0 
0.0 0.0 -9.410978404470e+01 
-8.224189881723e+01 -7.374036807473e+00 0.0 
-7.374036807473e+00 -2.144083107537e+02 0.0 
0.0 0.0 -8.934402871968e+01 
-7.518048092199e+01 -1.048876375664e+01 0.0 
-1.048876375664e+01 -1.958169338362e+02 0.0 
0.0 0.0 -8.111881840118e+01 
-8.084771786956e+01 -9.146328571371e+00 0.0 
-9.146328571371e+00 -2.029483504434e+02 0.0 
0.0 0.0 -8.432594227416e+01 
-8.797590388561e+01 -6.253051071559e+00 0.0 
-6.253051071559e+00 -2.220747518008e+02 0.0 
0.0 0.0 -9.253156820066e+01 
-8.630838395393e+01 -7.704001178805e+00 0.0 
-7.704001178805e+00 -2.105061910309e+02 0.0 
0.0 0.0 -8.739597661563e+01 
-9.321155865496e+01 -5.194230866074e+00 0.0 
-5.194230866074e+00 -2.298196563181e+02 0.0 
0.0 0.0 -9.533064160393e+01 
-7.901964435374e+01 -1.032013277793e+01 0.0 
-1.032013277793e+01 -1.908388614475e+02 0.0 
0.0 0.0 -7.907190953834e+01 
-8.420991517788e+01 -8.629093070316e+00 0.0 
-8.629093070316e+00 -1.984419965023e+02 0.0 
0.0 0.0 -8.207025401281e+01 
-7.660711925211e+01 -1.082911457895e+01 0.0 
-1.082911457895e+01 -1.782733569746e+02 0.0 
0.0 0.0 -7.360250554208e+01 
-8.159486643243e+01 -9.024189186541e+00 0.0 
-9.024189186541e+00 -1.860751236498e+02 0.0 
0.0 0.0 -7.662040630825e+01 
-8.494512850943e+01 2.278483753046e+01 0.0 
2.278483753046e+01 -2.221283600015e+02 0.0 
0.0 0.0 -9.298916325363e+01 
-7.351180291467e+01 -1.075521294629e+01 0.0 
-1.075521294629e+01 -1.655603135410e+02 0.0 
0.0 0.0 -6.805766814052e+01 
-6.878603895034e+01 -1.277791131562e+01 0.0 
-1.277791131562e+01 -1.579833465031e+02 0.0 
0.0 0.0 -6.513368925965e+01 
-7.834790559140e+01 -8.915646511970e+00 0.0 
-8.915646511970e+00 -1.736234853491e+02 0.0 
0.0 0.0 -7.109803382275e+01 
-8.635095104965e+01 -7.430512092171e+00 0.0 
-7.430512092171e+00 -1.941364330000e+02 0.0 
0.0 0.0 -7.953167855588e+01 
-6.964823901477e+01 -1.019278319641e+01 0.0 
-1.019278319641e+01 -1.528363982008e+02 0.0 
0.0 0.0 -6.244582517349e+01 
-7.438673490742e+01 -8.421388191547e+00 0.0 
-8.421388191547e+00 -1.611622225301e+02 0.0 
0.0 0.0 -6.552426439116e+01 
-6.497842668939e+01 -9.249486986260e+00 0.0 
-9.249486986260e+00 -1.402119964239e+02 0.0 
0.0 0.0 -5.676024612270e+01 
-6.259194556412e+01 2.642385622950e+01 0.0 
2.642385622950e+01 -1.650597704352e+02 0.0 
0.0 0.0 -6.767355172895e+01 
-1.014635763541e+02 2.192749726784e+01 0.0 
2.192749726784e+01 -2.196532073094e+02 0.0 
0.0 0.0 -9.593358606183e+01 
-6.966454720474e+01 -7.625096574685e+00 0.0 
-7.625096574685e+00 -1.487361798409e+02 0.0 
0.0 0.0 -5.990633749476e+01 
-5.947481351672e+01 -8.030951633785e+00 0.0 
-8.030951633785e+00 -1.277156919579e+02 0.0 
0.0 0.0 -5.104348081419e+01 
-5.510669370384e+01 -9.455758600925e+00 0.0 
-9.455758600925e+00 -1.190886102689e+02 0.0 
0.0 0.0 -4.785131086770e+01 
-4.865992200942e+01 -7.796646181476e+00 0.0 
-7.796646181476e+00 -1.066646718383e+02 0.0 
0.0 0.0 -4.205930594774e+01 
-9.089377590590e+01 9.275152432458e+00 0.0 
9.275152432458e+00 -1.699701483398e+02 0.0 
0.0 0.0 -7.785917727372e+01 
-9.781708925851e+01 1.033278407345e+01 0.0 
1.033278407345e+01 -1.903327508070e+02 0.0 
0.0 0.0 -8.604495201964e+01 
-9.351261755387e+01 8.675217837518e+00 0.0 
8.675217837518e+00 -1.791106080765e+02 0.0 
0.0 0.0 -8.138696768910e+01 
-1.006773662964e+02 9.865035556042e+00 0.0 
9.865035556042e+00 -2.000099753572e+02 0.0 
0.0 0.0 -8.980620249608e+01 
-9.661213520178e+01 8.308282606940e+00 0.0 
8.308282606940e+00 -1.894195360121e+02 0.0 
0.0 0.0 -8.540950136416e+01 
-5.307842128696e+01 -6.602407255437e+00 0.0 
-6.602407255437e+00 -1.153797241367e+02 0.0 
0.0 0.0 -4.532460185207e+01 
-1.061213203485e+02 1.625356164075e+01 0.0 
1.625356164075e+01 -2.156675962673e+02 0.0 
0.0 0.0 -9.613667498476e+01 
-1.046561163943e+02 1.147738024546e+01 0.0 
1.147738024546e+01 -2.109122082841e+02 0.0 
0.0 0.0 -9.427049740353e+01 
-8.469541808772e+01 2.199703829787e+01 0.0 
2.199703829787e+01 -1.584535873114e+02 0.0 
0.0 0.0 -7.022358058449e+01 
-7.527890899207e+01 2.746904585681e+01 0.0 
2.746904585681e+01 -1.605335946784e+02 0.0 
0.0 0.0 -6.832263613245e+01 
-7.693524674686e+01 1.321918621149e+01 0.0 
1.321918621149e+01 -2.302281541845e+02 0.0 
0.0 0.0 -9.658780196278e+01 
-7.901228600138e+01 -6.890694148581e+00 0.0 
-6.890694148581e+00 -1.695005138136e+02 0.0 
0.0 0.0 -6.857522186399e+01 
-7.430386926076e+01 -6.206058221222e+00 0.0 
-6.206058221222e+00 -1.572705502783e+02 0.0 
0.0 0.0 -6.305447098395e+01 
-8.340931314037e+01 -5.561536351321e+00 0.0 
-5.561536351321e+00 -1.779052928745e+02 0.0 
0.0 0.0 -7.197023340889e+01 
-9.463249209596e+01 -3.504998506106e+00 0.0 
-3.504998506106e+00 -2.409881396824e+02 0.0 
0.0 0.0 -1.002739619977e+02 
-9.928812744833e+01 -2.866666927391e+00 0.0 
-2.866666927391e+00 -2.488303763082e+02 0.0 
0.0 0.0 -1.028021703093e+02 
-1.002745657236e+02 -9.938624275568e-01 0.0 
-9.938624275568e-01 -2.596314473806e+02 0.0 
0.0 0.0 -1.074480948512e+02 
-1.046107018611e+02 -6.762942723615e-01 0.0 
-6.762942723615e-01 -2.676066930055e+02 0.0 
0.0 0.0 -1.103293455485e+02 
-1.058839822075e+02 1.230939934969e+00 0.0 
1.230939934969e+00 -2.781043805772e+02 0.0 
0.0 0.0 -1.146969735995e+02 
-1.104738363476e+02 1.325587261332e+00 0.0 
1.325587261332e+00 -2.862288720406e+02 0.0 
0.0 0.0 -1.182427930232e+02 
-1.087959755604e+02 -3.301164690811e-01 0.0 
-3.301164690811e-01 -2.755722131242e+02 0.0 
0.0 0.0 -1.137671774685e+02 
-1.150312689082e+02 1.442695237058e+00 0.0 
1.442695237058e+00 -2.943393039017e+02 0.0 
0.0 0.0 -1.221608403896e+02 
-1.129102865328e+02 1.594048533798e-02 0.0 
1.594048533798e-02 -2.835638509324e+02 0.0 
0.0 0.0 -1.176269825079e+02 
-1.135200765495e+02 2.910577350161e+00 0.0 
2.910577350161e+00 -2.965760351786e+02 0.0 
0.0 0.0 -1.225582863865e+02 
-1.084439921320e+02 3.044914623187e+00 0.0 
3.044914623187e+00 -2.882009402803e+02 0.0 
0.0 0.0 -1.187541685320e+02 
-1.195576124715e+02 1.543518190885e+00 0.0 
1.543518190885e+00 -3.024356713092e+02 0.0 
0.0 0.0 -1.260361749235e+02 
-1.169116151283e+02 3.359234091175e-01 0.0 
3.359234091175e-01 -2.915703923837e+02 0.0 
0.0 0.0 -1.214399369858e+02 
-1.240706176274e+02 1.597304972703e+00 0.0 
1.597304972703e+00 -3.105203676810e+02 0.0 
0.0 0.0 -1.298739179972e+02 
-1.208280547308e+02 6.000592718207e-01 0.0 
6.000592718207e-01 -2.996195168844e+02 0.0 
0.0 0.0 -1.252556205153e+02 
-1.150105031184e+02 -7.110952184895e-01 0.0 
-7.110952184895e-01 -2.804290540716e+02 0.0 
0.0 0.0 -1.167821352612e+02 
-1.185946956238e+02 -2.892694694905e-01 0.0 
-2.892694694905e-01 -2.884781107991e+02 0.0 
0.0 0.0 -1.205698009188e+02 
-1.130949862215e+02 -1.523365255683e+00 0.0 
-1.523365255683e+00 -2.691644304832e+02 0.0 
0.0 0.0 -1.120692858975e+02 
-8.020176753999e+01 1.045914941075e+01 0.0 
1.045914941075e+01 -2.401889344192e+02 0.0 
0.0 0.0 -1.014506974746e+02 
-8.384813095981e+01 1.317168669306e+01 0.0 
1.317168669306e+01 -2.467741354774e+02 0.0 
0.0 0.0 -1.042175428738e+02 
-8.776088627969e+01 1.119762609979e+01 0.0 
1.119762609979e+01 -2.570633662909e+02 0.0 
0.0 0.0 -1.082799723768e+02 
-9.205681537807e+01 1.362322243543e+01 0.0 
1.362322243543e+01 -2.636511268225e+02 0.0 
0.0 0.0 -1.101110172936e+02 
-9.738714676454e+01 1.225004831688e+01 0.0 
1.225004831688e+01 -2.744534250640e+02 0.0 
0.0 0.0 -1.140707728862e+02 
-1.024807780171e+02 1.434300730842e+01 0.0 
1.434300730842e+01 -2.812012260626e+02 0.0 
0.0 0.0 -1.162005687147e+02 
-1.079996326106e+02 1.329450691148e+01 0.0 
1.329450691148e+01 -2.921653807568e+02 0.0 
0.0 0.0 -1.204878786220e+02 
-1.031799537753e+02 1.121065867238e+01 0.0 
1.121065867238e+01 -2.850646203670e+02 0.0 
0.0 0.0 -1.179428464883e+02 
-1.060718625289e+02 1.875010169826e+01 0.0 
1.875010169826e+01 -2.199897054164e+02 0.0 
0.0 0.0 -9.741847038361e+01 
-5.961691179444e+01 1.354115155634e+01 0.0 
1.354115155634e+01 -1.847378666967e+02 0.0 
0.0 0.0 -7.134362522116e+01 
-5.710886201530e+01 1.785186470723e+01 0.0 
1.785186470723e+01 -1.735205330699e+02 0.0 
0.0 0.0 -6.671143526892e+01 
-5.407939529415e+01 1.364353772707e+01 0.0 
1.364353772707e+01 -1.706437112220e+02 0.0 
0.0 0.0 -6.423692761630e+01 
-5.180691600310e+01 1.844103765250e+01 0.0 
1.844103765250e+01 -1.590351673619e+02 0.0 
0.0 0.0 -5.960988550683e+01 
-4.881036056190e+01 1.400069322434e+01 0.0 
1.400069322434e+01 -1.570410568359e+02 0.0 
0.0 0.0 -5.776530227293e+01 
-4.703236837204e+01 1.937308783984e+01 0.0 
1.937308783984e+01 -1.448536020591e+02 0.0 
0.0 0.0 -5.316018863977e+01 
-4.405403992831e+01 1.473970940389e+01 0.0 
1.473970940389e+01 -1.439965357691e+02 0.0 
0.0 0.0 -5.234591808613e+01 
-4.629108027796e+01 8.492471904057e+00 0.0 
8.492471904057e+00 -1.543548838989e+02 0.0 
0.0 0.0 -5.645906044169e+01 
-4.157956927197e+01 8.617913374355e+00 0.0 
8.617913374355e+00 -1.425250985976e+02 0.0 
0.0 0.0 -5.228663248629e+01 
-4.447214701960e+01 1.944521870466e+00 0.0 
1.944521870466e+00 -1.501492936822e+02 0.0 
0.0 0.0 -5.520755232481e+01 
-3.958580826513e+01 1.241776683699e+00 0.0 
1.241776683699e+00 -1.391793872582e+02 0.0 
0.0 0.0 -5.191625324460e+01 
-4.329391287268e+01 -5.151533997321e+00 0.0 
-5.151533997321e+00 -1.431510896737e+02 0.0 
0.0 0.0 -5.288106240895e+01 
-9.180427724015e+01 2.413080735996e+01 0.0 
2.413080735996e+01 -2.180620175935e+02 0.0 
0.0 0.0 -9.189679237166e+01 
-9.710380405955e+01 1.568769917967e+01 0.0 
1.568769917967e+01 -2.700279967990e+02 0.0 
0.0 0.0 -1.118287811401e+02 
-1.078498757999e+02 1.609162197881e+01 0.0 
1.609162197881e+01 -2.878587148174e+02 0.0 
0.0 0.0 -1.188362864466e+02 
-1.027412623514e+02 1.724548005240e+01 0.0 
1.724548005240e+01 -2.762657283912e+02 0.0 
0.0 0.0 -1.140975026169e+02 
-4.480809150285e+01 -8.745966161137e+00 0.0 
-8.745966161137e+00 -9.800665832906e+01 0.0 
0.0 0.0 -3.887057704658e+01 
-1.247241115640e+02 7.718660344509e-01 0.0 
7.718660344509e-01 -3.077273652806e+02 0.0 
0.0 0.0 -1.290897173539e+02 
-1.173540673287e+02 4.554682987981e+00 0.0 
4.554682987981e+00 -3.065897377520e+02 0.0 
0.0 0.0 -1.267831415242e+02 
-1.119249929855e+02 4.923526032471e+00 0.0 
4.923526032471e+00 -2.978139475860e+02 0.0 
0.0 0.0 -1.226184471265e+02 
-1.135485004597e+02 1.234836510411e+01 0.0 
1.234836510411e+01 -3.028816833899e+02 0.0 
0.0 0.0 -1.248045207481e+02 
-4.135522828160e+01 -5.941349786912e+00 0.0 
-5.941349786912e+00 -9.457381148605e+01 0.0 
0.0 0.0 -3.651155248261e+01 
-4.289705673905e+01 2.077555935557e+01 0.0 
2.077555935557e+01 -1.309465699613e+02 0.0 
0.0 0.0 -4.758769626442e+01 
-4.605438599803e+01 2.423736363209e+01 0.0 
2.423736363209e+01 -1.306425213153e+02 0.0 
0.0 0.0 -4.836219069774e+01 
-1.035259994189e+02 9.449702934284e+00 0.0 
9.449702934284e+00 -2.098889132371e+02 0.0 
0.0 0.0 -9.362447379681e+01 
-9.953426702769e+01 7.978567238828e+00 0.0 
7.978567238828e+00 -1.994686174768e+02 0.0 
0.0 0.0 -8.930086535136e+01 
-1.216184666079e+02 6.282254831309e+00 0.0 
6.282254831309e+00 -3.162054285900e+02 0.0 
0.0 0.0 -1.309471685594e+02 
-4.566307791716e+01 -4.975913917975e+00 0.0 
-4.975913917975e+00 -1.033568530431e+02 0.0 
0.0 0.0 -4.011929055166e+01 
-1.234271040572e+02 2.739662405292e+00 0.0 
2.739662405292e+00 -3.130650872741e+02 0.0 
0.0 0.0 -1.305406693386e+02 
-3.720951917604e+01 9.402067204576e+00 0.0 
9.402067204576e+00 -1.319444624938e+02 0.0 
0.0 0.0 -4.941725128102e+01 
-1.220038432333e+02 2.645310318550e-02 0.0 
2.645310318550e-02 -2.965921327272e+02 0.0 
0.0 0.0 -1.243488052453e+02 
-1.286929699028e+02 8.467040981839e-01 0.0 
8.467040981839e-01 -3.158490412721e+02 0.0 
0.0 0.0 -1.328663163456e+02 
-1.074525320069e+02 -1.733523406214e+00 0.0 
-1.733523406214e+00 -2.645741270903e+02 0.0 
0.0 0.0 -1.091461827986e+02 
-1.132107618690e+02 1.755369319953e+01 0.0 
1.755369319953e+01 -2.944712352427e+02 0.0 
0.0 0.0 -1.219262035627e+02 
-1.082257585578e+02 1.850717838416e+01 0.0 
1.850717838416e+01 -2.825289449052e+02 0.0 
0.0 0.0 -1.169392369956e+02 
-4.813541250172e+01 -3.511357111118e+00 0.0 
-3.511357111118e+00 -1.555038525147e+02 0.0 
0.0 0.0 -5.762763065314e+01 
-4.752117446843e+01 -9.730289837215e+00 0.0 
-9.730289837215e+00 -1.457712062053e+02 0.0 
0.0 0.0 -5.394593282129e+01 
-4.297669294122e+01 -1.201537676056e+01 0.0 
-1.201537676056e+01 -1.323775382120e+02 0.0 
0.0 0.0 -4.846544049718e+01 
-4.793933994860e+01 -1.498547156801e+01 0.0 
-1.498547156801e+01 -1.335289276232e+02 0.0 
0.0 0.0 -4.958815322911e+01 
-5.194413725264e+01 -1.238680159716e+01 0.0 
-1.238680159716e+01 -1.486423266593e+02 0.0 
0.0 0.0 -5.612013279679e+01 
-5.188637669260e+01 -1.607726253159e+01 0.0 
-1.607726253159e+01 -1.354555098862e+02 0.0 
0.0 0.0 -5.155008924465e+01 
-4.850348216788e+01 -1.857399577669e+01 0.0 
-1.857399577669e+01 -1.186007834639e+02 0.0 
0.0 0.0 -4.447961874534e+01 
-5.167600598862e+01 -1.815151536847e+01 0.0 
-1.815151536847e+01 -1.198298136701e+02 0.0 
0.0 0.0 -4.588215008359e+01 
-5.532458341682e+01 -1.639031241400e+01 0.0 
-1.639031241400e+01 -1.380200534761e+02 0.0 
0.0 0.0 -5.399926198618e+01 
-5.421170201950e+01 -1.724577904517e+01 0.0 
-1.724577904517e+01 -1.226097359389e+02 0.0 
0.0 0.0 -4.856082057629e+01 
-5.083996555227e+01 -1.783598677096e+01 0.0 
-1.783598677096e+01 -1.026185006892e+02 0.0 
0.0 0.0 -4.055024906241e+01 
-5.183308193731e+01 -1.618147121392e+01 0.0 
-1.618147121392e+01 -1.061966280356e+02 0.0 
0.0 0.0 -4.297450033058e+01 
-1.331103611385e+02 1.531271215904e+00 0.0 
1.531271215904e+00 -3.267570099606e+02 0.0 
0.0 0.0 -1.375602113298e+02 
-3.478163458359e+01 8.398380948927e-01 0.0 
8.398380948927e-01 -1.297804346531e+02 0.0 
0.0 0.0 -4.975603573261e+01 
-8.704424641149e+01 1.690843201894e+01 0.0 
1.690843201894e+01 -1.579283657215e+02 0.0 
0.0 0.0 -7.230857582028e+01 
-1.270560837289e+02 5.786911248362e+00 0.0 
5.786911248362e+00 -3.249929792195e+02 0.0 
0.0 0.0 -1.352147188845e+02 
-1.184402934938e+02 1.419419425772e+01 0.0 
1.419419425772e+01 -3.099039475815e+02 0.0 
0.0 0.0 -1.281363821365e+02 
-1.063559284105e+02 9.056609127281e+00 0.0 
9.056609127281e+00 -2.199459099336e+02 0.0 
0.0 0.0 -9.749055150323e+01 
-1.024550270748e+02 7.658089669461e+00 0.0 
7.658089669461e+00 -2.097271635678e+02 0.0 
0.0 0.0 -9.325465719278e+01 
-9.538997919698e+01 6.566150018296e+00 0.0 
6.566150018296e+00 -1.892762769251e+02 0.0 
0.0 0.0 -8.499987683663e+01 
-9.845958006180e+01 6.338173963541e+00 0.0 
6.338173963541e+00 -1.997940393138e+02 0.0 
0.0 0.0 -8.907608581268e+01 
-1.053678859666e+02 7.347416087328e+00 0.0 
7.347416087328e+00 -2.202093070808e+02 0.0 
0.0 0.0 -9.727315791422e+01 
-1.015183982884e+02 6.093263468588e+00 0.0 
6.093263468588e+00 -2.103788852858e+02 0.0 
0.0 0.0 -9.316918507225e+01 
-9.440169582942e+01 5.160048943308e+00 0.0 
5.160048943308e+00 -1.900522601794e+02 0.0 
0.0 0.0 -8.493618680265e+01 
-9.762947083024e+01 4.965222970161e+00 0.0 
4.965222970161e+00 -2.006928611688e+02 0.0 
0.0 0.0 -8.909669959970e+01 
-9.034546149059e+01 4.113670776521e+00 0.0 
4.113670776521e+00 -1.804428765136e+02 0.0 
0.0 0.0 -8.083650140125e+01 
-9.371460103033e+01 3.961799730463e+00 0.0 
3.961799730463e+00 -1.911703331489e+02 0.0 
0.0 0.0 -8.506548025377e+01 
-1.008635513578e+02 4.735440942308e+00 0.0 
4.735440942308e+00 -2.114068144378e+02 0.0 
0.0 0.0 -9.328110973867e+01 
-9.709325289985e+01 3.791746446509e+00 0.0 
3.791746446509e+00 -2.019937018797e+02 0.0 
0.0 0.0 -8.932608643387e+01 
-8.977337604387e+01 3.081704847201e+00 0.0 
3.081704847201e+00 -1.818442881544e+02 0.0 
0.0 0.0 -8.108529925948e+01 
-9.330088459735e+01 2.965485764337e+00 0.0 
2.965485764337e+00 -1.926835739386e+02 0.0 
0.0 0.0 -8.539533756079e+01 
-8.583032626944e+01 2.351326757427e+00 0.0 
2.351326757427e+00 -1.725876802526e+02 0.0 
0.0 0.0 -7.712540195663e+01 
-8.952228715714e+01 2.272333255533e+00 0.0 
2.272333255533e+00 -1.833717663321e+02 0.0 
0.0 0.0 -8.146821604677e+01 
-9.685158649514e+01 2.745119398226e+00 0.0 
2.745119398226e+00 -2.035895695195e+02 0.0 
0.0 0.0 -8.973234680438e+01 
-3.280783417218e+01 -4.025528864470e+00 0.0 
-4.025528864470e+00 -8.324693558307e+01 0.0 
0.0 0.0 -3.173133783186e+01 
-1.088450860650e+02 1.029987460355e+01 0.0 
1.029987460355e+01 -2.954215338822e+02 0.0 
0.0 0.0 -1.216549227154e+02 
-1.192061510283e+02 1.145014586724e+01 0.0 
1.145014586724e+01 -3.134120473222e+02 0.0 
0.0 0.0 -1.293854595051e+02 
-7.897675034319e+01 -4.901517865968e+00 0.0 
-4.901517865968e+00 -1.663610707170e+02 0.0 
0.0 0.0 -6.718338537612e+01 
-8.756851384979e+01 -4.367945756570e+00 0.0 
-4.367945756570e+00 -1.860692779272e+02 0.0 
0.0 0.0 -7.601539801365e+01 
-9.143114538166e+01 -4.830846539927e+00 0.0 
-4.830846539927e+00 -1.982228344488e+02 0.0 
0.0 0.0 -8.091774733335e+01 
-9.535344889510e+01 -3.759648359575e+00 0.0 
-3.759648359575e+00 -2.066568879370e+02 0.0 
0.0 0.0 -8.518521601372e+01 
-9.317074131995e+01 2.064622975611e+00 0.0 
2.064622975611e+00 -1.941908223189e+02 0.0 
0.0 0.0 -8.580846909167e+01 
-1.003289668548e+02 2.439902082268e+00 0.0 
2.439902082268e+00 -2.145315546790e+02 0.0 
0.0 0.0 -9.405815646013e+01 
-4.292691310777e+01 2.602641443163e+01 0.0 
2.602641443163e+01 -1.157779467371e+02 0.0 
0.0 0.0 -4.262472785497e+01 
-4.568378005632e+01 2.821339806641e+01 0.0 
2.821339806641e+01 -1.146400734976e+02 0.0 
0.0 0.0 -4.348246796810e+01 
-1.101473308674e+02 1.053601439135e+01 0.0 
1.053601439135e+01 -2.304409837309e+02 0.0 
0.0 0.0 -1.017764943795e+02 
-1.253213300836e+02 2.526078736318e-01 0.0 
2.526078736318e-01 -3.048243691782e+02 0.0 
0.0 0.0 -1.281331035583e+02 
-1.197440123005e+02 -5.304885218675e-01 0.0 
-5.304885218675e-01 -2.854118946882e+02 0.0 
0.0 0.0 -1.196216307150e+02 
-7.058803812532e+01 2.844006854008e+01 0.0 
2.844006854008e+01 -1.573091229761e+02 0.0 
0.0 0.0 -6.676947604513e+01 
-6.897149393402e+01 2.866476046376e+01 0.0 
2.866476046376e+01 -1.407749595884e+02 0.0 
0.0 0.0 -6.040021779487e+01 
-6.428308431867e+01 2.973757798968e+01 0.0 
2.973757798968e+01 -1.380480851665e+02 0.0 
0.0 0.0 -5.883881032539e+01 
-6.235977552153e+01 2.958673354132e+01 0.0 
2.958673354132e+01 -1.203708718283e+02 0.0 
0.0 0.0 -5.218087435270e+01 
-6.691070414419e+01 2.798948121336e+01 0.0 
2.798948121336e+01 -1.235609651291e+02 0.0 
0.0 0.0 -5.371408523059e+01 
-5.797024679834e+01 3.081955726441e+01 0.0 
3.081955726441e+01 -1.181430601509e+02 0.0 
0.0 0.0 -5.082426134242e+01 
-1.032159196111e+02 3.249667282379e+00 0.0 
3.249667282379e+00 -2.795244217359e+02 0.0 
0.0 0.0 -1.154852105353e+02 
-1.041125014292e+02 4.475567743894e+00 0.0 
4.475567743894e+00 -2.222551729934e+02 0.0 
0.0 0.0 -9.751030232677e+01 
-5.139306742311e+01 -1.075652493874e+01 0.0 
-1.075652493874e+01 -1.105390050326e+02 0.0 
0.0 0.0 -4.472223999235e+01 
-4.207509023199e+01 -9.428569508027e+00 0.0 
-9.428569508027e+00 -8.947885748335e+01 0.0 
0.0 0.0 -3.583630732620e+01 
-1.327752868891e+02 8.386642022450e-01 0.0 
8.386642022450e-01 -3.240780906605e+02 0.0 
0.0 0.0 -1.366367757387e+02 
-9.881503755513e+01 8.880454173079e+00 0.0 
8.880454173079e+00 -2.776437961618e+02 0.0 
0.0 0.0 -1.155232317579e+02 
-9.579548462679e+01 2.377396024285e+01 0.0 
2.377396024285e+01 -2.228145693259e+02 0.0 
0.0 0.0 -9.486232471071e+01 
-9.818070086292e+01 2.325582046578e+01 0.0 
2.325582046578e+01 -2.367737722955e+02 0.0 
0.0 0.0 -9.996123734942e+01 
-1.028160960076e+02 2.304760791166e+01 0.0 
2.304760791166e+01 -2.419120753597e+02 0.0 
0.0 0.0 -1.030184514102e+02 
-1.060022165391e+02 2.262598502112e+01 0.0 
2.262598502112e+01 -2.555547461751e+02 0.0 
0.0 0.0 -1.080670888143e+02 
-1.108138622716e+02 2.270753333514e+01 0.0 
2.270753333514e+01 -2.611076463139e+02 0.0 
0.0 0.0 -1.111764525757e+02 
-1.143448694228e+02 2.243114044248e+01 0.0 
2.243114044248e+01 -2.744177726951e+02 0.0 
0.0 0.0 -1.162287926354e+02 
-1.095135814010e+02 2.201251277772e+01 0.0 
2.201251277772e+01 -2.687940544520e+02 0.0 
0.0 0.0 -1.130922907559e+02 
-1.184362407924e+02 1.885816497616e+01 0.0 
1.885816497616e+01 -3.010037700481e+02 0.0 
0.0 0.0 -1.254320032521e+02 
-1.182346327383e+02 2.204369190548e+01 0.0 
2.204369190548e+01 -2.874071294098e+02 0.0 
0.0 0.0 -1.212925286444e+02 
-8.573958229953e+01 1.599485402091e+00 0.0 
1.599485402091e+00 -1.738216277596e+02 0.0 
0.0 0.0 -7.746836301772e+01 
-9.255976363704e+01 1.729376357101e+01 0.0 
1.729376357101e+01 -2.584559546069e+02 0.0 
0.0 0.0 -1.074494912227e+02 
-5.807459975891e+01 -1.627286018542e+01 0.0 
-1.627286018542e+01 -1.413696496893e+02 0.0 
0.0 0.0 -5.702172516280e+01 
-2.896766325084e+01 -4.487434223772e+00 0.0 
-4.487434223772e+00 -7.418080234929e+01 0.0 
0.0 0.0 -2.790813668837e+01 
-4.633750632105e+01 -1.459142885251e+01 0.0 
-1.459142885251e+01 -8.421016025993e+01 0.0 
0.0 0.0 -3.399059087427e+01 
-3.722988678280e+01 -3.436740892081e+00 0.0 
-3.436740892081e+00 -9.113274058690e+01 0.0 
0.0 0.0 -3.522467858918e+01 
-5.065740879349e+01 -4.053302859187e+00 0.0 
-4.053302859187e+00 -1.119312412928e+02 0.0 
0.0 0.0 -4.408505974475e+01 
-1.317518374193e+02 7.472364348598e+00 0.0 
7.472364348598e+00 -3.345369766235e+02 0.0 
0.0 0.0 -1.394866442128e+02 
-1.189173026015e+02 2.271111409692e+01 0.0 
2.271111409692e+01 -2.802352132397e+02 0.0 
0.0 0.0 -1.193457547524e+02 
-1.152522762263e+02 2.263263986237e+01 0.0 
2.263263986237e+01 -2.667581702640e+02 0.0 
0.0 0.0 -1.142031339471e+02 
-5.996511406647e+01 2.842895970594e+01 0.0 
2.842895970594e+01 -1.024492834442e+02 0.0 
0.0 0.0 -4.527684046064e+01 
-6.436427062562e+01 2.630139905569e+01 0.0 
2.630139905569e+01 -1.059399131867e+02 0.0 
0.0 0.0 -4.687012219389e+01 
-1.236051402792e+02 1.813992668195e+01 0.0 
1.813992668195e+01 -3.127806612528e+02 0.0 
0.0 0.0 -1.305157404596e+02 
-8.941229952692e+01 7.101659876452e+00 0.0 
7.101659876452e+00 -1.689417734901e+02 0.0 
0.0 0.0 -7.710622190510e+01 
-8.700731822204e+01 4.212697805351e+00 0.0 
4.212697805351e+00 -1.698558596043e+02 0.0 
0.0 0.0 -7.665895334789e+01 
-8.270232104146e+01 3.243209350364e+00 0.0 
3.243209350364e+00 -1.602425333686e+02 0.0 
0.0 0.0 -7.248345632303e+01 
-2.306005141769e+01 -2.225861420359e+00 0.0 
-2.225861420359e+00 -6.899548815383e+01 0.0 
0.0 0.0 -2.586744825126e+01 
-4.659156368110e+01 -1.703368917390e+01 0.0 
-1.703368917390e+01 -8.111663528743e+01 0.0 
0.0 0.0 -3.219301019657e+01 
-1.083119082075e+02 6.996270443631e+00 0.0 
6.996270443631e+00 -2.308021327386e+02 0.0 
0.0 0.0 -1.013342122838e+02 
-4.904690930400e+01 2.681454830519e+01 0.0 
2.681454830519e+01 -1.306313993746e+02 0.0 
0.0 0.0 -4.999585761073e+01 
-4.838231830016e+01 2.975784415109e+01 0.0 
2.975784415109e+01 -1.144787122654e+02 0.0 
0.0 0.0 -4.511235612216e+01 
-3.334063152213e+01 1.159267557246e+01 0.0 
1.159267557246e+01 -1.227145209056e+02 0.0 
0.0 0.0 -4.797219530215e+01 
-3.050608922607e+01 8.110975226747e-01 0.0 
8.110975226747e-01 -1.230701149285e+02 0.0 
0.0 0.0 -4.835540613691e+01 
-9.680281086616e+01 1.693370980309e+00 0.0 
1.693370980309e+00 -2.048443455957e+02 0.0 
0.0 0.0 -9.009414693857e+01 
-1.038607391745e+02 2.047285842126e+00 0.0 
2.047285842126e+00 -2.250691320435e+02 0.0 
0.0 0.0 -9.827896136538e+01 
-9.867982451489e+01 -3.957817339807e+00 0.0 
-3.957817339807e+00 -2.184359061617e+02 0.0 
0.0 0.0 -9.000174120643e+01 
-1.023131676575e+02 -3.000831443727e+00 0.0 
-3.000831443727e+00 -2.267522338766e+02 0.0 
0.0 0.0 -9.402912242282e+01 
-1.261918267218e+02 8.106473323200e+00 0.0 
8.106473323200e+00 -3.254049979560e+02 0.0 
0.0 0.0 -1.350790474033e+02 
-4.698426064850e+01 -1.338243288098e+01 0.0 
-1.338243288098e+01 -9.000852364440e+01 0.0 
0.0 0.0 -3.678999582789e+01 
-1.073792083725e+02 2.867297228247e+00 0.0 
2.867297228247e+00 -2.348503751832e+02 0.0 
0.0 0.0 -1.022688750667e+02 
-1.045166191362e+02 8.082704575525e+00 0.0 
8.082704575525e+00 -2.875766610075e+02 0.0 
0.0 0.0 -1.187756873325e+02 
-9.513535807932e+01 6.460378560379e+00 0.0 
6.460378560379e+00 -2.698209849901e+02 0.0 
0.0 0.0 -1.129924038007e+02 
-9.143927992682e+01 -3.339051154031e+00 0.0 
-3.339051154031e+00 -1.943925918427e+02 0.0 
0.0 0.0 -8.022943664106e+01 
-4.381690571950e+01 3.000629465599e+01 0.0 
3.000629465599e+01 -9.844021333041e+01 0.0 
0.0 0.0 -3.793440387275e+01 
-4.159575865680e+01 2.854166799703e+01 0.0 
2.854166799703e+01 -1.008467119297e+02 0.0 
0.0 0.0 -3.827533725732e+01 
-5.943505617693e+01 -1.471414476978e+01 0.0 
-1.471414476978e+01 -1.555765222639e+02 0.0 
0.0 0.0 -6.238315898338e+01 
-5.284006387881e+01 -1.516407584182e+01 0.0 
-1.516407584182e+01 -1.110927471145e+02 0.0 
0.0 0.0 -4.558949090162e+01 
-4.243330110149e+01 -2.677773823065e+00 0.0 
-2.677773823065e+00 -9.971966827839e+01 0.0 
0.0 0.0 -3.927695150834e+01 
-1.366411940313e+02 9.220600137477e+00 0.0 
9.220600137477e+00 -3.435986443941e+02 0.0 
0.0 0.0 -1.436719515276e+02 
-1.119424020108e+02 8.265885271573e+00 0.0 
8.265885271573e+00 -2.406097232369e+02 0.0 
0.0 0.0 -1.053656375743e+02 
-1.134702986119e+02 2.135954520303e+01 0.0 
2.135954520303e+01 -2.815940117340e+02 0.0 
0.0 0.0 -1.181192931038e+02 
-1.044087345905e+02 2.145304322080e+01 0.0 
2.145304322080e+01 -2.631215949257e+02 0.0 
0.0 0.0 -1.098590988549e+02 
-1.227827132945e+02 2.158919136339e+01 0.0 
2.158919136339e+01 -3.002296026146e+02 0.0 
0.0 0.0 -1.265036947727e+02 
-4.031985891776e+01 -1.056369203646e+01 0.0 
-1.056369203646e+01 -6.848695671322e+01 0.0 
0.0 0.0 -2.800455841034e+01 
-1.373211101267e+02 6.882089486722e+00 0.0 
6.882089486722e+00 -3.436223604636e+02 0.0 
0.0 0.0 -1.438830411771e+02 
-1.286940515273e+02 3.611751307557e-01 0.0 
3.611751307557e-01 -3.132097435664e+02 0.0 
0.0 0.0 -1.319523970114e+02 
-1.227396935660e+02 2.279338868988e+01 0.0 
2.279338868988e+01 -2.853516730809e+02 0.0 
0.0 0.0 -1.220274099941e+02 
-1.193805087764e+02 2.245111138958e+01 0.0 
2.245111138958e+01 -2.727643299116e+02 0.0 
0.0 0.0 -1.172434516064e+02 
-5.205538337596e+01 2.866256380108e+01 0.0 
2.866256380108e+01 -1.311967676319e+02 0.0 
0.0 0.0 -5.210186610092e+01 
-5.110053595523e+01 3.083848163400e+01 0.0 
3.083848163400e+01 -1.150538968716e+02 0.0 
0.0 0.0 -4.727008549001e+01 
-4.785149900958e+01 3.151369082273e+01 0.0 
3.151369082273e+01 -9.707245655812e+01 0.0 
0.0 0.0 -4.012688271921e+01 
-4.992460512097e+01 3.173654931294e+01 0.0 
3.173654931294e+01 -9.740620706936e+01 0.0 
0.0 0.0 -4.154277053085e+01 
-8.575296331789e+01 1.346105248662e+01 0.0 
1.346105248662e+01 -1.534198025326e+02 0.0 
0.0 0.0 -7.111415642318e+01 
-5.546548983815e+01 2.985556796330e+01 0.0 
2.985556796330e+01 -1.326195021538e+02 0.0 
0.0 0.0 -5.471333344949e+01 
-8.465288865487e+01 1.825431243884e+01 0.0 
1.825431243884e+01 -1.504689146729e+02 0.0 
0.0 0.0 -6.856974448038e+01 
-8.119300863896e+01 1.568690215093e+01 0.0 
1.568690215093e+01 -1.369636600338e+02 0.0 
0.0 0.0 -6.344045482357e+01 
-7.867899142632e+01 1.717270112250e+01 0.0 
1.717270112250e+01 -1.294048313883e+02 0.0 
0.0 0.0 -5.957250968148e+01 
-7.132668191216e+01 2.600111790692e+01 0.0 
2.600111790692e+01 -1.272692662724e+02 0.0 
0.0 0.0 -5.527999455846e+01 
-6.862843783313e+01 2.378969793209e+01 0.0 
2.378969793209e+01 -1.103273433044e+02 0.0 
0.0 0.0 -4.871815706840e+01 
-5.504768584775e+01 2.198524763348e+01 0.0 
2.198524763348e+01 -1.607643739160e+02 0.0 
0.0 0.0 -6.197372514743e+01 
-8.072971948385e+01 1.570052553014e+01 0.0 
1.570052553014e+01 -2.358837390813e+02 0.0 
0.0 0.0 -9.949103657266e+01 
-9.483818376335e+01 -4.972009373440e+00 0.0 
-4.972009373440e+00 -2.102902305670e+02 0.0 
0.0 0.0 -8.591926961630e+01 
-1.095574015759e+02 -2.141884881505e+00 0.0 
-2.141884881505e+00 -2.611817685200e+02 0.0 
0.0 0.0 -1.082722007034e+02 
-9.560094273726e+01 -1.330475877413e+00 0.0 
-1.330475877413e+00 -2.515581498406e+02 0.0 
0.0 0.0 -1.049207809243e+02 
-1.076519686791e+02 5.484893964876e+00 0.0 
5.484893964876e+00 -2.316235257760e+02 0.0 
0.0 0.0 -1.013826483366e+02 
-1.108154410660e+02 5.131223980322e+00 0.0 
5.131223980322e+00 -2.426089182862e+02 0.0 
0.0 0.0 -1.056273078057e+02 
-8.217751849740e+01 2.381893348969e+00 0.0 
2.381893348969e+00 -1.617731794906e+02 0.0 
0.0 0.0 -7.278520939641e+01 
-7.822069634891e+01 1.762283606713e+00 0.0 
1.762283606713e+00 -1.525037922669e+02 0.0 
0.0 0.0 -6.881734658474e+01 
-3.454937721450e+01 -6.886621042534e+00 0.0 
-6.886621042534e+00 -7.705393512296e+01 0.0 
0.0 0.0 -3.003763196733e+01 
-3.291893347352e+01 -6.890880906091e+00 0.0 
-6.890880906091e+00 -6.862838568645e+01 0.0 
0.0 0.0 -2.710934711064e+01 
-9.784134199115e+01 -4.297873899636e+00 0.0 
-4.297873899636e+00 -2.375870057575e+02 0.0 
0.0 0.0 -9.791444169948e+01 
-1.323709874676e+02 5.331897591544e+00 0.0 
5.331897591544e+00 -3.335563207376e+02 0.0 
0.0 0.0 -1.393781924616e+02 
-1.127091423890e+02 1.004004934711e+01 0.0 
1.004004934711e+01 -2.402514333185e+02 0.0 
0.0 0.0 -1.054881727123e+02 
-1.163157163816e+02 1.157586729995e+01 0.0 
1.157586729995e+01 -2.508478454763e+02 0.0 
0.0 0.0 -1.097490685574e+02 
-1.138118370608e+02 1.209452032448e+01 0.0 
1.209452032448e+01 -2.410831772966e+02 0.0 
0.0 0.0 -1.060685043072e+02 
-1.309170565015e+02 9.962228488324e+00 0.0 
9.962228488324e+00 -3.339421303510e+02 0.0 
0.0 0.0 -1.390577560558e+02 
-5.698546459453e+01 8.957273528536e+00 0.0 
8.957273528536e+00 -1.805662251135e+02 0.0 
0.0 0.0 -6.876451673733e+01 
-8.432157871014e+01 8.427821743305e+00 0.0 
8.427821743305e+00 -2.499804102408e+02 0.0 
0.0 0.0 -1.057803394130e+02 
-3.434161648970e+01 -9.519337572582e+00 0.0 
-9.519337572582e+00 -1.227550160107e+02 0.0 
0.0 0.0 -4.804339886216e+01 
-8.941292606580e+01 2.308531059042e+01 0.0 
2.308531059042e+01 -2.271069548487e+02 0.0 
0.0 0.0 -9.494419460642e+01 
-2.461988122938e+01 -4.023773183238e+00 0.0 
-4.023773183238e+00 -5.663547827057e+01 0.0 
0.0 0.0 -2.163953794657e+01 
-1.054868731173e+02 2.093739199212e+01 0.0 
2.093739199212e+01 -2.259886808864e+02 0.0 
0.0 0.0 -9.904266620110e+01 
-1.371635727479e+02 7.316583292633e-01 0.0 
7.316583292633e-01 -3.324861869299e+02 0.0 
0.0 0.0 -1.404949279033e+02 
-1.420253202115e+02 1.219253090394e+00 0.0 
1.219253090394e+00 -3.431169663958e+02 0.0 
0.0 0.0 -1.451426859822e+02 
-1.285279184601e+02 1.950687339191e+01 0.0 
1.950687339191e+01 -3.192725721535e+02 0.0 
0.0 0.0 -1.339401471841e+02 
-7.507780681503e+01 9.351903490525e+00 0.0 
9.351903490525e+00 -1.218607191065e+02 0.0 
0.0 0.0 -5.794776767217e+01 
-9.128262059871e+01 2.160895381702e+01 0.0 
2.160895381702e+01 -2.397774922532e+02 0.0 
0.0 0.0 -9.990195628525e+01 
-8.665213370154e+01 2.100911931443e+01 0.0 
2.100911931443e+01 -2.344334071443e+02 0.0 
0.0 0.0 -9.806334712559e+01 
-7.463589104063e+01 1.414815322602e+01 0.0 
1.414815322602e+01 -1.160551764536e+02 0.0 
0.0 0.0 -5.444187888679e+01 
-7.183757860583e+01 1.574860440251e+01 0.0 
1.574860440251e+01 -1.081816756956e+02 0.0 
0.0 0.0 -5.035312186731e+01 
-7.578904478305e+01 1.897361648312e+01 0.0 
1.897361648312e+01 -1.223289551404e+02 0.0 
0.0 0.0 -5.562737875826e+01 
-6.879726831636e+01 1.785487711749e+01 0.0 
1.785487711749e+01 -1.008703556794e+02 0.0 
0.0 0.0 -4.618810491313e+01 
-6.262365532479e+01 -1.511757376081e+01 0.0 
-1.511757376081e+01 -1.596917825854e+02 0.0 
0.0 0.0 -6.522549294653e+01 
-6.085748427967e+01 -1.599647792683e+01 0.0 
-1.599647792683e+01 -1.457456236212e+02 0.0 
0.0 0.0 -5.971077622111e+01 
-1.277366048095e+02 2.317637966931e+01 0.0 
2.317637966931e+01 -3.006754429475e+02 0.0 
0.0 0.0 -1.281236143271e+02 
-1.270213210273e+02 2.239231321562e+01 0.0 
2.239231321562e+01 -3.058627683475e+02 0.0 
0.0 0.0 -1.294652268124e+02 
-1.266561388113e+02 2.298894230515e+01 0.0 
2.298894230515e+01 -2.918373024595e+02 0.0 
0.0 0.0 -1.251480323812e+02 
-1.234989980165e+02 2.229323334930e+01 0.0 
2.229323334930e+01 -2.796339136522e+02 0.0 
0.0 0.0 -1.205398735006e+02 
-1.340171781609e+02 1.894150738688e+01 0.0 
1.894150738688e+01 -3.310042242811e+02 0.0 
0.0 0.0 -1.391064207326e+02 
-1.288377526277e+02 1.744220419077e+01 0.0 
1.744220419077e+01 -3.240740321010e+02 0.0 
0.0 0.0 -1.354735354186e+02 
-5.541277833469e+01 -3.036991511820e+00 0.0 
-3.036991511820e+00 -1.198349454371e+02 0.0 
0.0 0.0 -4.799302341511e+01 
-6.125660468330e+01 2.338646455366e+01 0.0 
2.338646455366e+01 -8.839515495296e+01 0.0 
0.0 0.0 -4.001370484447e+01 
-1.148711264822e+02 7.839272564244e+00 0.0 
7.839272564244e+00 -2.511716830088e+02 0.0 
0.0 0.0 -1.094128428473e+02 
-7.712584574076e+01 1.287603297806e+01 0.0 
1.287603297806e+01 -1.242146343000e+02 0.0 
0.0 0.0 -5.843755381353e+01 
-1.425231294642e+02 6.281553748241e+00 0.0 
6.281553748241e+00 -3.517756639366e+02 0.0 
0.0 0.0 -1.478896380202e+02 
-1.376291414754e+02 4.923940523151e+00 0.0 
4.923940523151e+00 -3.420215644734e+02 0.0 
0.0 0.0 -1.434952117847e+02 
-3.358822127122e+01 -1.125751962936e+01 0.0 
-1.125751962936e+01 -1.184643586743e+02 0.0 
0.0 0.0 -4.772847032534e+01 
-3.712573049810e+01 -2.028298043115e+01 0.0 
-2.028298043115e+01 -1.073301081904e+02 0.0 
0.0 0.0 -4.283760648053e+01 
-1.108333776311e+02 2.413024642834e+00 0.0 
2.413024642834e+00 -2.457043102768e+02 0.0 
0.0 0.0 -1.065613063724e+02 
-4.672521071913e+01 3.158617133871e+01 0.0 
3.158617133871e+01 -7.798110091437e+01 0.0 
0.0 0.0 -3.417975752725e+01 
-4.806515762395e+01 3.095485293469e+01 0.0 
3.095485293469e+01 -7.753169613951e+01 0.0 
0.0 0.0 -3.481548117095e+01 
-4.541851392847e+01 3.180684308556e+01 0.0 
3.180684308556e+01 -7.863260746629e+01 0.0 
0.0 0.0 -3.343376117443e+01 
-1.565325562842e+02 3.584510584663e-01 0.0 
3.584510584663e-01 -3.713868797911e+02 0.0 
0.0 0.0 -1.579758308226e+02 
-6.143112148134e+01 1.774696940901e-01 0.0 
1.774696940901e-01 -1.140748225084e+02 0.0 
0.0 0.0 -5.225178319692e+01 
-1.465908691215e+02 9.744841301528e-01 0.0 
9.744841301528e-01 -3.516641645181e+02 0.0 
0.0 0.0 -1.490765100919e+02 
-7.544223998897e+01 2.381055867083e+01 0.0 
2.381055867083e+01 -1.319084927264e+02 0.0 
0.0 0.0 -5.764493922751e+01 
-1.143517775894e+02 3.246745634034e+00 0.0 
3.246745634034e+00 -2.556009208700e+02 0.0 
0.0 0.0 -1.105858095378e+02 
-9.403530170715e+01 2.005419312487e+01 0.0 
2.005419312487e+01 -2.519218699310e+02 0.0 
0.0 0.0 -1.045843083764e+02 
-6.541553391805e+01 2.902076050778e+01 0.0 
2.902076050778e+01 -1.541313532379e+02 0.0 
0.0 0.0 -6.481691999216e+01 
-1.205129655831e+02 8.801048458659e+00 0.0 
8.801048458659e+00 -3.158853670711e+02 0.0 
0.0 0.0 -1.305194997963e+02 
-1.070485572867e+02 1.663390143338e+00 0.0 
1.663390143338e+00 -2.347914604658e+02 0.0 
0.0 0.0 -1.021520053258e+02 
-1.143081405214e+02 1.835657186222e+00 0.0 
1.835657186222e+00 -2.570506885817e+02 0.0 
0.0 0.0 -1.110076487309e+02 
-7.929515044874e+01 3.244661005558e+00 0.0 
3.244661005558e+00 -1.496691169420e+02 0.0 
0.0 0.0 -6.828928021721e+01 
-7.455609425775e+01 2.498287127831e+00 0.0 
2.498287127831e+00 -1.396024547514e+02 0.0 
0.0 0.0 -6.384756470273e+01 
-8.341074434756e+01 4.263467768455e+00 0.0 
4.263467768455e+00 -1.587545296279e+02 0.0 
0.0 0.0 -7.224958219265e+01 
-3.649414554565e+01 1.824208727045e+01 0.0 
1.824208727045e+01 -1.197306344094e+02 0.0 
0.0 0.0 -4.463482136159e+01 
-3.483846709997e+01 2.333948336302e+01 0.0 
2.333948336302e+01 -1.061686977168e+02 0.0 
0.0 0.0 -4.244283441723e+01 
-1.073096503860e+02 4.122616940580e+00 0.0 
4.122616940580e+00 -2.330649777182e+02 0.0 
0.0 0.0 -1.017123884313e+02 
-6.905071535379e+01 -5.287568026352e+00 0.0 
-5.287568026352e+00 -1.451541798266e+02 0.0 
0.0 0.0 -5.799372115974e+01 
-7.459988234477e+01 -4.091313784120e+00 0.0 
-4.091313784120e+00 -1.556509847081e+02 0.0 
0.0 0.0 -6.311427649392e+01 
-4.752708275400e+01 -1.264967382334e+01 0.0 
-1.264967382334e+01 -9.597829716171e+01 0.0 
0.0 0.0 -3.927457710259e+01 
-5.441051089354e+01 -1.403210693951e+01 0.0 
-1.403210693951e+01 -1.169237940501e+02 0.0 
0.0 0.0 -4.802842650781e+01 
-1.015263717628e+02 -3.883258612751e+00 0.0 
-3.883258612751e+00 -2.302137034523e+02 0.0 
0.0 0.0 -9.483066407945e+01 
-9.770407237039e+01 -4.818447307320e+00 0.0 
-4.818447307320e+00 -2.222093647262e+02 0.0 
0.0 0.0 -9.098266636215e+01 
-1.086434242207e+02 2.178492244608e+01 0.0 
2.178492244608e+01 -2.396646785142e+02 0.0 
0.0 0.0 -1.040924308205e+02 
-1.125243389266e+02 2.108349672325e+01 0.0 
2.108349672325e+01 -2.461503478026e+02 0.0 
0.0 0.0 -1.072024060188e+02 
-1.000233648196e+02 2.320888587132e+01 0.0 
2.320888587132e+01 -2.279293499042e+02 0.0 
0.0 0.0 -9.791588696128e+01 
-1.007143212783e+02 5.824011863338e+00 0.0 
5.824011863338e+00 -2.792714523587e+02 0.0 
0.0 0.0 -1.159066904123e+02 
-9.255347339513e+01 3.989859868413e+00 0.0 
3.989859868413e+00 -2.614023559784e+02 0.0 
0.0 0.0 -1.099785329994e+02 
-8.679411861266e+01 4.356682159408e+00 0.0 
4.356682159408e+00 -2.521825321311e+02 0.0 
0.0 0.0 -1.064506040947e+02 
-1.138943988121e+02 6.181794572205e+00 0.0 
6.181794572205e+00 -2.515433674814e+02 0.0 
0.0 0.0 -1.092313298880e+02 
-1.178067941374e+02 5.705668246574e+00 0.0 
5.705668246574e+00 -2.648582174767e+02 0.0 
0.0 0.0 -1.143995034842e+02 
-6.407125392375e+01 -1.309890392201e+01 0.0 
-1.309890392201e+01 -1.727829936080e+02 0.0 
0.0 0.0 -7.039630895246e+01 
-6.032265218859e+01 -1.193491219720e+01 0.0 
-1.193491219720e+01 -1.683149718609e+02 0.0 
0.0 0.0 -6.717028752572e+01 
-6.673757869689e+01 -1.439853695145e+01 0.0 
-1.439853695145e+01 -1.647078165958e+02 0.0 
0.0 0.0 -6.787036304434e+01 
-1.182639116400e+02 9.126285321897e+00 0.0 
9.126285321897e+00 -2.610868757307e+02 0.0 
0.0 0.0 -1.134052362112e+02 
-1.513374492858e+02 1.428086816741e+00 0.0 
1.428086816741e+00 -3.618988967941e+02 0.0 
0.0 0.0 -1.535709038240e+02 
-1.468816865534e+02 1.824181383758e+00 0.0 
1.824181383758e+00 -3.536171142149e+02 0.0 
0.0 0.0 -1.497496402305e+02 
-2.362974073999e+01 -3.542959036140e+00 0.0 
-3.542959036140e+00 -4.857169041496e+01 0.0 
0.0 0.0 -1.890560403637e+01 
-3.175050758460e+01 -6.551482637626e+00 0.0 
-6.551482637626e+00 -6.027115237016e+01 0.0 
0.0 0.0 -2.396176321046e+01 
-4.296523303717e+01 3.169589511207e+01 0.0 
3.169589511207e+01 -8.149689538909e+01 0.0 
0.0 0.0 -3.243862867365e+01 
-4.130135635003e+01 3.130209874248e+01 0.0 
3.130209874248e+01 -8.542808566688e+01 0.0 
0.0 0.0 -3.379666341928e+01 
-1.195645680231e+02 1.311476147544e+01 0.0 
1.311476147544e+01 -2.611694396822e+02 0.0 
0.0 0.0 -1.138202023116e+02 
-1.174939222016e+02 1.372445723642e+01 0.0 
1.372445723642e+01 -2.523000006059e+02 0.0 
0.0 0.0 -1.105381768423e+02 
-1.226366151335e+02 1.262946019722e+01 0.0 
1.262946019722e+01 -2.727535343347e+02 0.0 
0.0 0.0 -1.182170448404e+02 
-4.627141843972e+01 -1.873026464318e+00 0.0 
-1.873026464318e+00 -1.064093433166e+02 0.0 
0.0 0.0 -4.247581028120e+01 
-1.084746106740e+02 2.047682036304e+01 0.0 
2.047682036304e+01 -2.757500459607e+02 0.0 
0.0 0.0 -1.148673969904e+02 
-1.412821872272e+02 1.103989159081e+01 0.0 
1.103989159081e+01 -3.511989620599e+02 0.0 
0.0 0.0 -1.473443447861e+02 
-1.353283737721e+02 1.183476351510e+01 0.0 
1.183476351510e+01 -3.413642344524e+02 0.0 
0.0 0.0 -1.426077824673e+02 
-1.483777089754e+02 1.037166476331e+01 0.0 
1.037166476331e+01 -3.631082345672e+02 0.0 
0.0 0.0 -1.530457830628e+02 
-1.232672752286e+02 2.010179455639e+01 0.0 
2.010179455639e+01 -3.071403612259e+02 0.0 
0.0 0.0 -1.287222909363e+02 
-1.329539369890e+02 2.073342529176e+01 0.0 
2.073342529176e+01 -3.251285935609e+02 0.0 
0.0 0.0 -1.370247591650e+02 
-1.320770753848e+02 2.211420192406e+01 0.0 
2.211420192406e+01 -3.185525235965e+02 0.0 
0.0 0.0 -1.347888796944e+02 
-3.867057267270e+01 1.345730338521e+00 0.0 
1.345730338521e+00 -1.208142664753e+02 0.0 
0.0 0.0 -4.971822426456e+01 
-1.118335649651e+02 1.271044994416e+00 0.0 
1.271044994416e+00 -2.498429606214e+02 0.0 
0.0 0.0 -1.081029576760e+02 
-7.395422724740e+01 1.745133139371e+00 0.0 
1.745133139371e+00 -1.408067675699e+02 0.0 
0.0 0.0 -6.402829844518e+01 
-5.026853192569e+01 -7.029641583120e+00 0.0 
-7.029641583120e+00 -1.157208694576e+02 0.0 
0.0 0.0 -5.123911894889e+01 
-6.995916033339e+01 1.225147898206e+00 0.0 
1.225147898206e+00 -1.317756209202e+02 0.0 
0.0 0.0 -6.012043437608e+01 
-7.410279861486e+01 1.257212548569e+00 0.0 
1.257212548569e+00 -1.431758327817e+02 0.0 
0.0 0.0 -6.478358941896e+01 
-6.539830641198e+01 8.292473278186e-01 0.0 
8.292473278186e-01 -1.215809583890e+02 0.0 
0.0 0.0 -5.569377944030e+01 
-3.225306505707e+01 -1.580022937142e+00 0.0 
-1.580022937142e+00 -8.636879543547e+01 0.0 
0.0 0.0 -3.360958645952e+01 
-7.427597283469e+01 3.214394293917e+00 0.0 
3.214394293917e+00 -1.355045992104e+02 0.0 
0.0 0.0 -6.253417161351e+01 
-8.009047380051e+01 4.490299662517e+00 0.0 
4.490299662517e+00 -1.481995062647e+02 0.0 
0.0 0.0 -6.808699401956e+01 
-2.094146373535e+01 -2.866070944607e+00 0.0 
-2.866070944607e+00 -3.671696282667e+01 0.0 
0.0 0.0 -1.507015418292e+01 
-1.206689507212e+02 8.470945337214e+00 0.0 
8.470945337214e+00 -2.712083209790e+02 0.0 
0.0 0.0 -1.171631815101e+02 
-1.659393272962e+01 -1.208612505531e+00 0.0 
-1.208612505531e+00 -3.776763209301e+01 0.0 
0.0 0.0 -1.457901272133e+01 
-1.801138664273e+01 -1.506587397196e+00 0.0 
-1.506587397196e+00 -4.556936365990e+01 0.0 
0.0 0.0 -1.707476336072e+01 
-1.478149570686e+02 5.703777967004e+00 0.0 
5.703777967004e+00 -3.604255761362e+02 0.0 
0.0 0.0 -1.520721599614e+02 
-1.426929784751e+02 4.502020964854e+00 0.0 
4.502020964854e+00 -3.502526422428e+02 0.0 
0.0 0.0 -1.474836862154e+02 
-1.525316985558e+02 5.182879436374e+00 0.0 
5.182879436374e+00 -3.681562263830e+02 0.0 
0.0 0.0 -1.558063774816e+02 
-1.473441928284e+02 4.042306583415e+00 0.0 
4.042306583415e+00 -3.578157814901e+02 0.0 
0.0 0.0 -1.511479922955e+02 
-1.378119183204e+02 3.434904653689e+00 0.0 
3.434904653689e+00 -3.398159583868e+02 0.0 
0.0 0.0 -1.428883630122e+02 
-1.428109920098e+02 3.132446598972e+00 0.0 
3.132446598972e+00 -3.482818338440e+02 0.0 
0.0 0.0 -1.469278477561e+02 
-6.993500404129e+01 1.776648354233e+00 0.0 
1.776648354233e+00 -1.296317095826e+02 0.0 
0.0 0.0 -5.947001408715e+01 
-1.537417649015e+02 3.754836770402e+00 0.0 
3.754836770402e+00 -3.688697449075e+02 0.0 
0.0 0.0 -1.563834529427e+02 
-1.478946178742e+02 2.804049275227e+00 0.0 
2.804049275227e+00 -3.569634814183e+02 0.0 
0.0 0.0 -1.510574297877e+02 
-1.585315376876e+02 3.240584740687e+00 0.0 
3.240584740687e+00 -3.776445617748e+02 0.0 
0.0 0.0 -1.604528298387e+02 
-6.417066066736e+01 1.380537477549e+01 0.0 
1.380537477549e+01 -8.701487028689e+01 0.0 
0.0 0.0 -4.103375349067e+01 
-5.239102757100e+01 3.127520884862e+01 0.0 
3.127520884862e+01 -9.774268653043e+01 0.0 
0.0 0.0 -4.262418460469e+01 
-5.011690602050e+01 2.981824033408e+01 0.0 
2.981824033408e+01 -7.829032802693e+01 0.0 
0.0 0.0 -3.574363096863e+01 
-4.568288869924e+01 2.889502594328e+01 0.0 
2.889502594328e+01 -5.592168774868e+01 0.0 
0.0 0.0 -2.743910963362e+01 
-1.313710854276e+02 2.312141163166e+01 0.0 
2.312141163166e+01 -3.016292143321e+02 0.0 
0.0 0.0 -1.295000899279e+02 
-1.263268470568e+02 2.193484068125e+01 0.0 
2.193484068125e+01 -2.853123189674e+02 0.0 
0.0 0.0 -1.230917498073e+02 
-1.326118928109e+02 3.420087206382e-01 0.0 
3.420087206382e-01 -3.222003704274e+02 0.0 
0.0 0.0 -1.360043080073e+02 
-1.256975175277e+02 1.562053403488e-02 0.0 
1.562053403488e-02 -3.026456017024e+02 0.0 
0.0 0.0 -1.274068934278e+02 
-6.954834063061e+01 7.667071101502e-01 0.0 
7.667071101502e-01 -1.328480512859e+02 0.0 
0.0 0.0 -6.031891757496e+01 
-6.882269755401e+01 5.888334101566e-01 0.0 
5.888334101566e-01 -1.317703930117e+02 0.0 
0.0 0.0 -5.977792716972e+01 
-7.604145249989e+01 7.462812822375e-01 0.0 
7.462812822375e-01 -1.497693415528e+02 0.0 
0.0 0.0 -6.734323821579e+01 
-7.481724034474e+01 6.354079039479e-01 0.0 
6.354079039479e-01 -1.473025961381e+02 0.0 
0.0 0.0 -6.623595094485e+01 
-8.191865648295e+01 7.938332731032e-01 0.0 
7.938332731032e-01 -1.654597402972e+02 0.0 
0.0 0.0 -7.381351903406e+01 
-8.076508586652e+01 6.368969693733e-01 0.0 
6.368969693733e-01 -1.626791413691e+02 0.0 
0.0 0.0 -7.263326817069e+01 
-8.787652097291e+01 1.033329150696e+00 0.0 
1.033329150696e+00 -1.812338145471e+02 0.0 
0.0 0.0 -8.033310065602e+01 
-1.362296004361e+02 2.321430174811e+01 0.0 
2.321430174811e+01 -3.245030886971e+02 0.0 
0.0 0.0 -1.378198067400e+02 
-4.416158901777e+01 3.089989016243e+01 0.0 
3.089989016243e+01 -5.846801932935e+01 0.0 
0.0 0.0 -2.713067149962e+01 
-6.996508217588e+01 1.096846190434e+01 0.0 
1.096846190434e+01 -1.037565660357e+02 0.0 
0.0 0.0 -4.953427347200e+01 
-1.393497343133e+02 1.832290087549e+01 0.0 
1.832290087549e+01 -3.421271653426e+02 0.0 
0.0 0.0 -1.440430698968e+02 
-1.334219748495e+02 1.666571731419e+01 0.0 
1.666571731419e+01 -3.337527132008e+02 0.0 
0.0 0.0 -1.397524064151e+02 
-6.512486564014e+01 2.044711781761e+01 0.0 
2.044711781761e+01 -9.381961297099e+01 0.0 
0.0 0.0 -4.233252264851e+01 
-5.712854820752e+01 1.876458234498e+01 0.0 
1.876458234498e+01 -7.159098637355e+01 0.0 
0.0 0.0 -3.314271819634e+01 
-1.491188286719e+02 7.796225289815e+00 0.0 
7.796225289815e+00 -3.640163784680e+02 0.0 
0.0 0.0 -1.535405621420e+02 
-5.688117301229e+01 2.759615213940e+01 0.0 
2.759615213940e+01 -1.478835980334e+02 0.0 
0.0 0.0 -5.957843618601e+01 
-1.245575831761e+02 9.990306021206e+00 0.0 
9.990306021206e+00 -2.840217724596e+02 0.0 
0.0 0.0 -1.221738066907e+02 
-6.273309476156e+01 2.797372451392e+01 0.0 
2.797372451392e+01 -8.597846210988e+01 0.0 
0.0 0.0 -4.542867315358e+01 
-4.186217352405e+01 2.601790749022e+01 0.0 
2.601790749022e+01 -1.006448485236e+02 0.0 
0.0 0.0 -4.427943814340e+01 
-6.088152714953e+01 2.866793807860e+01 0.0 
2.866793807860e+01 -1.502717138262e+02 0.0 
0.0 0.0 -6.242175671639e+01 
-7.254289061161e+01 2.122614554443e+01 0.0 
2.122614554443e+01 -1.159329466013e+02 0.0 
0.0 0.0 -5.173500159042e+01 
-5.565618462500e+01 3.007715959571e+01 0.0 
3.007715959571e+01 -9.918787729890e+01 0.0 
0.0 0.0 -4.374988566200e+01 
-5.341300402980e+01 2.847686271096e+01 0.0 
2.847686271096e+01 -8.133547510640e+01 0.0 
0.0 0.0 -3.709283792974e+01 
-1.102557097053e+02 7.397121377246e+00 0.0 
7.397121377246e+00 -2.974297018413e+02 0.0 
0.0 0.0 -1.224239159924e+02 
-3.136238460493e+01 -6.601699109359e+00 0.0 
-6.601699109359e+00 -5.327387211278e+01 0.0 
0.0 0.0 -2.154309043624e+01 
-4.445634118000e+01 3.186330480535e+01 0.0 
3.186330480535e+01 -7.982395202854e+01 0.0 
0.0 0.0 -3.290706583359e+01 
-8.907862286832e+01 1.263158775307e+00 0.0 
1.263158775307e+00 -1.835639173602e+02 0.0 
0.0 0.0 -8.139276206856e+01 
-4.430417479888e+01 3.239965709440e+01 0.0 
3.239965709440e+01 -6.136104867529e+01 0.0 
0.0 0.0 -2.729024883215e+01 
-1.292096185887e+02 7.896343566687e-02 0.0 
7.896343566687e-02 -3.128034511722e+02 0.0 
0.0 0.0 -1.319338135254e+02 
-5.865734462622e+01 2.462382450658e+01 0.0 
2.462382450658e+01 -1.626846711976e+02 0.0 
0.0 0.0 -6.460515156134e+01 
-7.775174768829e+01 2.545913231744e+01 0.0 
2.545913231744e+01 -1.481709317657e+02 0.0 
0.0 0.0 -6.382729675389e+01 
-4.585910453421e+01 3.094161641138e+01 0.0 
3.094161641138e+01 -9.742273835663e+01 0.0 
0.0 0.0 -3.880642888932e+01 
-5.419484997266e+01 3.143648752503e+01 0.0 
3.143648752503e+01 -1.166689968036e+02 0.0 
0.0 0.0 -4.936940731782e+01 
-8.946163445067e+01 1.572971943860e+01 0.0 
1.572971943860e+01 -1.657656516923e+02 0.0 
0.0 0.0 -7.594561419630e+01 
-8.167792252277e+01 1.116310564728e+01 0.0 
1.116310564728e+01 -1.417902565898e+02 0.0 
0.0 0.0 -6.641115857838e+01 
-7.945973859779e+01 1.189208604365e+01 0.0 
1.189208604365e+01 -1.329919690432e+02 0.0 
0.0 0.0 -6.251213080259e+01 
-6.057628662054e+01 2.111770602686e+01 0.0 
2.111770602686e+01 -1.762332297656e+02 0.0 
0.0 0.0 -6.948364596728e+01 
-5.705799117994e+01 2.611934145973e+01 0.0 
2.611934145973e+01 -8.404557473991e+01 0.0 
0.0 0.0 -3.824047214440e+01 
-4.930716870196e+01 2.485204996110e+01 0.0 
2.485204996110e+01 -5.945219251952e+01 0.0 
0.0 0.0 -2.892022133587e+01 
-8.748629603471e+01 2.044099501712e+01 0.0 
2.044099501712e+01 -1.645894872543e+02 0.0 
0.0 0.0 -7.378683171250e+01 
-1.112120739433e+02 1.257602250330e+01 0.0 
1.257602250330e+01 -2.315661385649e+02 0.0 
0.0 0.0 -1.024334637525e+02 
-1.148062756956e+02 1.419907335332e+01 0.0 
1.419907335332e+01 -2.427912253884e+02 0.0 
0.0 0.0 -1.068792503252e+02 
-1.207145819609e+02 1.529538603281e+01 0.0 
1.529538603281e+01 -2.628704281182e+02 0.0 
0.0 0.0 -1.146755030237e+02 
-1.184120763412e+02 1.584391971073e+01 0.0 
1.584391971073e+01 -2.543513382107e+02 0.0 
0.0 0.0 -1.114290243656e+02 
-1.121911347660e+02 1.481485377739e+01 0.0 
1.481485377739e+01 -2.337750980011e+02 0.0 
0.0 0.0 -1.033898698301e+02 
-1.158051772456e+02 1.648071972620e+01 0.0 
1.648071972620e+01 -2.455690195426e+02 0.0 
0.0 0.0 -1.080122590365e+02 
-1.217726518192e+02 1.738213910184e+01 0.0 
1.738213910184e+01 -2.660283753988e+02 0.0 
0.0 0.0 -1.159403081654e+02 
-1.196092955147e+02 1.805556081678e+01 0.0 
1.805556081678e+01 -2.583286585101e+02 0.0 
0.0 0.0 -1.129813862074e+02 
-1.266193407292e+02 1.928054852687e+01 0.0 
1.928054852687e+01 -2.821937911526e+02 0.0 
0.0 0.0 -1.222439395645e+02 
-1.229925243525e+02 1.963496342312e+01 0.0 
1.963496342312e+01 -2.706939075721e+02 0.0 
0.0 0.0 -1.177059295774e+02 
-1.163156785056e+02 1.862839610409e+01 0.0 
1.862839610409e+01 -2.493942703596e+02 0.0 
0.0 0.0 -1.093129846596e+02 
-1.194901385267e+02 1.995654908540e+01 0.0 
1.995654908540e+01 -2.615054272427e+02 0.0 
0.0 0.0 -1.138986697308e+02 
-1.258688828533e+02 2.090916815755e+01 0.0 
2.090916815755e+01 -2.812000513261e+02 0.0 
0.0 0.0 -1.217206802538e+02 
-1.128913031489e+02 1.930597367662e+01 0.0 
1.930597367662e+01 -2.408159179460e+02 0.0 
0.0 0.0 -1.057121663285e+02 
-1.444341391074e+02 1.985050496862e+01 0.0 
1.985050496862e+01 -3.488399352008e+02 0.0 
0.0 0.0 -1.475822222925e+02 
-6.689587849231e+01 2.723473428389e+01 0.0 
2.723473428389e+01 -1.683960221444e+02 0.0 
0.0 0.0 -7.047220469118e+01 
-3.284267163779e+01 1.371539488327e+01 0.0 
1.371539488327e+01 -1.171447613911e+02 0.0 
0.0 0.0 -4.731096324636e+01 
-3.947533066962e+01 3.247124140738e+01 0.0 
3.247124140738e+01 -8.885156287848e+01 0.0 
0.0 0.0 -3.878204834252e+01 
-8.147076156576e+01 2.368607532151e+01 0.0 
2.368607532151e+01 -1.529721011933e+02 0.0 
0.0 0.0 -6.665930449804e+01 
-1.315874776495e+02 1.973203596401e+01 0.0 
1.973203596401e+01 -3.009431425053e+02 0.0 
0.0 0.0 -1.293591860464e+02 
-1.294197743297e+02 1.677163740305e+01 0.0 
1.677163740305e+01 -2.951496548681e+02 0.0 
0.0 0.0 -1.269708287594e+02 
-5.015600314397e+01 2.296436942754e+01 0.0 
2.296436942754e+01 -1.456297476534e+02 0.0 
0.0 0.0 -5.488095455444e+01 
-1.389980891988e+02 2.453936395634e+01 0.0 
2.453936395634e+01 -3.231685011391e+02 0.0 
0.0 0.0 -1.382499771014e+02 
-8.350880450603e+01 1.446677493226e+01 0.0 
1.446677493226e+01 -1.450310797752e+02 0.0 
0.0 0.0 -6.732083436266e+01 
-3.989712199019e+01 1.594073929239e+01 0.0 
1.594073929239e+01 -1.315852721062e+02 0.0 
0.0 0.0 -4.802248325454e+01 
-1.421510125764e+02 2.491036313573e+01 0.0 
2.491036313573e+01 -3.333912624367e+02 0.0 
0.0 0.0 -1.422626825039e+02 
-1.085024661833e+02 1.312555252468e+01 0.0 
1.312555252468e+01 -2.221556774031e+02 0.0 
0.0 0.0 -9.879744307590e+01 
-1.055883894408e+02 1.377473203244e+01 0.0 
1.377473203244e+01 -2.127655850918e+02 0.0 
0.0 0.0 -9.510619235977e+01 
-1.017916255829e+02 1.203572083094e+01 0.0 
1.203572083094e+01 -2.013342122323e+02 0.0 
0.0 0.0 -9.053775134458e+01 
-1.278767683486e+02 1.419460962138e+01 0.0 
1.419460962138e+01 -2.918955774421e+02 0.0 
0.0 0.0 -1.255317037372e+02 
-8.781754327030e+01 5.460692105938e+00 0.0 
5.460692105938e+00 -1.687396212091e+02 0.0 
0.0 0.0 -7.656714934382e+01 
-1.484894533166e+02 2.280737263388e+01 0.0 
2.280737263388e+01 -3.525348344738e+02 0.0 
0.0 0.0 -1.499072863371e+02 
-8.787733179442e+01 1.555110356215e+01 0.0 
1.555110356215e+01 -2.527345847865e+02 0.0 
0.0 0.0 -1.060405824951e+02 
-8.477051774962e+01 1.766946959891e+01 0.0 
1.766946959891e+01 -2.411653166092e+02 0.0 
0.0 0.0 -1.014802166110e+02 
-7.821276802137e+01 1.843658291021e+01 0.0 
1.843658291021e+01 -2.242246997378e+02 0.0 
0.0 0.0 -9.432201330747e+01 
-1.128483975784e+02 1.710848567982e+01 0.0 
1.710848567982e+01 -2.368034118501e+02 0.0 
0.0 0.0 -1.044955428286e+02 
-1.534316568327e+02 1.785538447412e+01 0.0 
1.785538447412e+01 -3.672481610288e+02 0.0 
0.0 0.0 -1.558039453584e+02 
-1.447548704351e+02 1.616750084633e+01 0.0 
1.616750084633e+01 -3.542927535166e+02 0.0 
0.0 0.0 -1.493142871855e+02 
-1.459157200447e+02 1.487060515250e+01 0.0 
1.487060515250e+01 -3.572027020430e+02 0.0 
0.0 0.0 -1.505355266263e+02 
-1.353569317007e+02 1.451619945683e+01 0.0 
1.451619945683e+01 -3.397097280557e+02 0.0 
0.0 0.0 -1.421199979269e+02 
-1.559802387856e+02 1.495284580127e+01 0.0 
1.495284580127e+01 -3.735477923163e+02 0.0 
0.0 0.0 -1.584584093306e+02 
-1.349076479524e+02 2.223546327788e+01 0.0 
2.223546327788e+01 -3.104106475263e+02 0.0 
0.0 0.0 -1.331954886436e+02 
-1.364156538498e+02 2.326398343831e+01 0.0 
2.326398343831e+01 -3.151624752640e+02 0.0 
0.0 0.0 -1.350734387341e+02 
-5.593466551638e+01 -1.392750569164e+01 0.0 
-1.392750569164e+01 -1.520906159493e+02 0.0 
0.0 0.0 -5.921474273863e+01 
-5.643368873070e+01 -1.012649767396e+01 0.0 
-1.012649767396e+01 -1.640607964472e+02 0.0 
0.0 0.0 -6.351838358543e+01 
-6.126021460433e+01 -8.185329435729e+00 0.0 
-8.185329435729e+00 -1.792256493135e+02 0.0 
0.0 0.0 -7.119120483224e+01 
-5.723403767688e+01 -5.444446265313e+00 0.0 
-5.444446265313e+00 -1.742355061213e+02 0.0 
0.0 0.0 -6.725399946585e+01 
-5.229935270139e+01 -7.444135988808e+00 0.0 
-7.444135988808e+00 -1.598746285250e+02 0.0 
0.0 0.0 -6.023710324520e+01 
-5.319605501458e+01 -1.834765586547e+00 0.0 
-1.834765586547e+00 -1.687287447451e+02 0.0 
0.0 0.0 -6.355055633023e+01 
-5.856913629260e+01 -3.951202846921e-01 0.0 
-3.951202846921e-01 -1.824404167242e+02 0.0 
0.0 0.0 -7.038234139678e+01 
-4.940457003381e+01 2.810264447706e+00 0.0 
2.810264447706e+00 -1.623150736595e+02 0.0 
0.0 0.0 -6.003001164143e+01 
-1.196245075949e+02 2.143375905387e+01 0.0 
2.143375905387e+01 -2.661547331713e+02 0.0 
0.0 0.0 -1.153337722299e+02 
-1.583601100682e+02 1.194782416411e+01 0.0 
1.194782416411e+01 -3.787568280556e+02 0.0 
0.0 0.0 -1.607350814371e+02 
-1.012477524062e+02 1.163261942539e+00 0.0 
1.163261942539e+00 -2.698788815700e+02 0.0 
0.0 0.0 -1.117145932288e+02 
-9.643990175399e+01 1.092478256187e+00 0.0 
1.092478256187e+00 -2.614348668254e+02 0.0 
0.0 0.0 -1.091137234567e+02 
-9.028804904623e+01 -1.756131549244e+00 0.0 
-1.756131549244e+00 -2.433411431977e+02 0.0 
0.0 0.0 -1.020216617501e+02 
-9.076270229505e+01 -6.092800974765e+00 0.0 
-6.092800974765e+00 -2.022222189759e+02 0.0 
0.0 0.0 -8.247126165513e+01 
-9.359993599849e+01 -5.874698154341e+00 0.0 
-5.874698154341e+00 -2.142448305178e+02 0.0 
0.0 0.0 -8.771731859593e+01 
-1.000858182527e+02 -4.342653636757e+00 0.0 
-4.342653636757e+00 -2.339529952219e+02 0.0 
0.0 0.0 -9.599492378069e+01 
-8.737073151656e+01 -5.966403889070e+00 0.0 
-5.966403889070e+00 -1.900765469643e+02 0.0 
0.0 0.0 -7.717126645055e+01 
-1.009718658167e+02 2.238496307043e+01 0.0 
2.238496307043e+01 -2.501923052237e+02 0.0 
0.0 0.0 -1.049403578422e+02 
-1.591637199404e+02 1.059172453780e+01 0.0 
1.059172453780e+01 -3.803057991941e+02 0.0 
0.0 0.0 -1.614408557404e+02 
-8.940567107462e+01 7.180998499346e+00 0.0 
7.180998499346e+00 -2.600962159541e+02 0.0 
0.0 0.0 -1.096341238642e+02 
-8.910452905134e+01 -7.133192329369e+00 0.0 
-7.133192329369e+00 -2.062791271674e+02 0.0 
0.0 0.0 -8.490939197751e+01 
-6.857745208638e+01 3.897835827315e+00 0.0 
3.897835827315e+00 -1.171003107575e+02 0.0 
0.0 0.0 -5.530332885317e+01 
-7.655056122994e+01 5.407876636057e+00 0.0 
5.407876636057e+00 -1.353362536556e+02 0.0 
0.0 0.0 -6.316604446567e+01 
-7.807234867307e+01 6.715454091502e+00 0.0 
6.715454091502e+00 -1.367186381187e+02 0.0 
0.0 0.0 -6.403729603753e+01 
-8.507772442845e+01 7.361450368654e+00 0.0 
7.361450368654e+00 -1.556739197143e+02 0.0 
0.0 0.0 -7.182549324281e+01 
-7.615191483545e+01 4.678190631903e+00 0.0 
4.678190631903e+00 -1.363045572880e+02 0.0 
0.0 0.0 -6.333694163702e+01 
-1.051258358496e+02 -3.019032712267e+00 0.0 
-3.019032712267e+00 -2.383290842329e+02 0.0 
0.0 0.0 -9.879992367786e+01 
-1.085253468417e+02 -2.215397638870e+00 0.0 
-2.215397638870e+00 -2.465368357551e+02 0.0 
0.0 0.0 -1.026696639035e+02 
-1.057228059179e+02 -2.162333270328e+00 0.0 
-2.162333270328e+00 -2.351738545892e+02 0.0 
0.0 0.0 -9.797022592681e+01 
-1.117477076282e+02 -1.487092331102e+00 0.0 
-1.487092331102e+00 -2.548300960130e+02 0.0 
0.0 0.0 -1.064920575186e+02 
-1.087741924672e+02 -1.337770216269e+00 0.0 
-1.337770216269e+00 -2.431539286122e+02 0.0 
0.0 0.0 -1.016277585042e+02 
-1.029129789250e+02 -1.820368460959e+00 0.0 
-1.820368460959e+00 -2.247903642891e+02 0.0 
0.0 0.0 -9.371277316678e+01 
-1.146992545853e+02 -8.336569310596e-01 0.0 
-8.336569310596e-01 -2.628380736299e+02 0.0 
0.0 0.0 -1.101345647700e+02 
-1.111739866992e+02 -7.641795391055e-01 0.0 
-7.641795391055e-01 -2.499715941706e+02 0.0 
0.0 0.0 -1.046705531721e+02 
-6.648113344010e+01 2.524281342019e+00 0.0 
2.524281342019e+00 -1.158563820660e+02 0.0 
0.0 0.0 -5.430125465184e+01 
-4.756657775278e+01 -2.403342242179e+01 0.0 
-2.403342242179e+01 -4.727259524352e+01 0.0 
0.0 0.0 -2.841425398845e+01 
-4.374697123567e+01 -2.423329500608e+01 0.0 
-2.423329500608e+01 -5.894268615415e+01 0.0 
0.0 0.0 -2.700538693763e+01 
-3.858466145000e+01 -1.540284563799e+01 0.0 
-1.540284563799e+01 -4.467305418174e+01 0.0 
0.0 0.0 -1.967745526172e+01 
-4.535190907407e+01 -2.169752091595e+01 0.0 
-2.169752091595e+01 -7.231570759152e+01 0.0 
0.0 0.0 -2.879610590182e+01 
-4.301761888218e+01 -2.423639025363e+01 0.0 
-2.423639025363e+01 -8.853225120047e+01 0.0 
0.0 0.0 -3.576463475864e+01 
-4.604028406999e+01 -2.123811030616e+01 0.0 
-2.123811030616e+01 -9.921379115348e+01 0.0 
0.0 0.0 -3.793326194146e+01 
-4.184851742433e+01 -2.049257901888e+01 0.0 
-2.049257901888e+01 -1.082139967487e+02 0.0 
0.0 0.0 -4.063257846467e+01 
-4.264010614271e+01 -2.801587518035e+01 0.0 
-2.801587518035e+01 -8.222889972251e+01 0.0 
0.0 0.0 -3.750030914560e+01 
-2.524717262787e+01 -6.062310866923e+00 0.0 
-6.062310866923e+00 -2.017046511181e+01 0.0 
0.0 0.0 -1.190338538918e+01 
-3.232879561410e+01 -9.380953708477e+00 0.0 
-9.380953708477e+00 -3.905163527369e+01 0.0 
0.0 0.0 -1.738264193857e+01 
-1.926881121025e+01 -2.781444418740e+00 0.0 
-2.781444418740e+00 -1.836152520327e+01 0.0 
0.0 0.0 -9.865369950830e+00 
-2.692107906047e+01 -5.782929632692e+00 0.0 
-5.782929632692e+00 -3.603172204950e+01 0.0 
0.0 0.0 -1.556036666428e+01 
-3.882617050026e+01 -1.137508655953e+01 0.0 
-1.137508655953e+01 -5.912427109728e+01 0.0 
0.0 0.0 -2.422686110346e+01 
-4.065405049803e+01 -9.745416744150e+00 0.0 
-9.745416744150e+00 -8.164569653589e+01 0.0 
0.0 0.0 -3.295390394535e+01 
-1.615332572852e+02 1.656017032584e+00 0.0 
1.656017032584e+00 -3.820931476352e+02 0.0 
0.0 0.0 -1.626879214761e+02 
-9.196731813743e+01 -9.547199563052e-01 0.0 
-9.547199563052e-01 -1.930654446820e+02 0.0 
0.0 0.0 -8.029356009367e+01 
-8.771043263827e+01 -1.998146661999e+00 0.0 
-1.998146661999e+00 -1.833470131391e+02 0.0 
0.0 0.0 -7.592382691242e+01 
-7.914048632885e+01 -2.116678933235e+00 0.0 
-2.116678933235e+00 -1.634831602316e+02 0.0 
0.0 0.0 -6.738405064610e+01 
-8.364345501615e+01 -3.002140987280e+00 0.0 
-3.002140987280e+00 -1.746777174719e+02 0.0 
0.0 0.0 -7.185458178108e+01 
-9.498024975374e+01 -1.767512069453e+00 0.0 
-1.767512069453e+00 -2.014111778055e+02 0.0 
0.0 0.0 -8.372132049489e+01 
-7.383216372851e+01 -1.084538805795e+00 0.0 
-1.084538805795e+00 -1.522260965904e+02 0.0 
0.0 0.0 -6.270795993833e+01 
-6.967621782111e+01 -2.124366326228e+00 0.0 
-2.124366326228e+00 -1.450625494909e+02 0.0 
0.0 0.0 -5.939171244790e+01 
-1.019375075260e+01 -4.403771920526e-03 0.0 
-4.403771920526e-03 -1.721544242243e+01 0.0 
0.0 0.0 -6.153571159373e+00 
-1.212657180458e+01 -1.382261205172e-01 0.0 
-1.382261205172e-01 -3.365017353844e+01 0.0 
0.0 0.0 -1.104534929553e+01 
-1.184029431720e+01 -2.099811002046e-01 0.0 
-2.099811002046e-01 -3.196108825426e+01 0.0 
0.0 0.0 -1.048431521095e+01 
-1.484852989002e+01 -4.202419042422e-01 0.0 
-4.202419042422e-01 -5.038466442421e+01 0.0 
0.0 0.0 -1.751435132623e+01 
-1.526265428208e+01 -5.324702185196e-01 0.0 
-5.324702185196e-01 -5.014045700096e+01 0.0 
0.0 0.0 -1.753279781922e+01 
-1.269903873684e+01 -3.241825542204e-01 0.0 
-3.241825542204e-01 -3.408682068597e+01 0.0 
0.0 0.0 -1.132315453374e+01 
-1.299412411688e+01 -5.729730833440e-01 0.0 
-5.729730833440e-01 -3.410709511442e+01 0.0 
0.0 0.0 -1.149497515283e+01 
-1.060741008237e+01 -2.286241064329e-01 0.0 
-2.286241064329e-01 -1.704709195494e+01 0.0 
0.0 0.0 -6.221349133710e+00 
-1.345205292931e+01 -6.747692721608e-01 0.0 
-6.747692721608e-01 -3.385697043370e+01 0.0 
0.0 0.0 -1.172152400630e+01 
-1.687333588266e+01 -1.271311620502e+00 0.0 
-1.271311620502e+00 -5.105372784542e+01 0.0 
0.0 0.0 -1.830979427617e+01 
-1.084621232085e+01 -2.866550585205e-01 0.0 
-2.866550585205e-01 -1.644524781843e+01 0.0 
0.0 0.0 -6.191214581723e+00 
-9.726936537771e+01 5.875664192165e-01 0.0 
5.875664192165e-01 -2.076738212655e+02 0.0 
0.0 0.0 -9.108295599296e+01 
-1.010764146259e+02 1.108282847342e+00 0.0 
1.108282847342e+00 -2.186061551345e+02 0.0 
0.0 0.0 -9.550477092813e+01 
-1.599064147429e+02 7.918323663437e+00 0.0 
7.918323663437e+00 -3.817012335360e+02 0.0 
0.0 0.0 -1.620822944837e+02 
-6.561596576589e+01 1.745753224217e+00 0.0 
1.745753224217e+00 -1.175279921178e+02 0.0 
0.0 0.0 -5.454318736511e+01 
-1.392013113559e+01 -4.584237819573e-01 0.0 
-4.584237819573e-01 -1.690860717812e+01 0.0 
0.0 0.0 -8.564492840680e+00 
-1.215922866192e+02 3.667738371228e+00 0.0 
3.667738371228e+00 -2.791075822368e+02 0.0 
0.0 0.0 -1.198099606568e+02 
-1.236981887711e+02 6.686936740383e+00 0.0 
6.686936740383e+00 -2.837627894625e+02 0.0 
0.0 0.0 -1.218382934701e+02 
-1.234176395880e+02 5.616116160552e+00 0.0 
5.616116160552e+00 -2.835626454107e+02 0.0 
0.0 0.0 -1.216940854996e+02 
-1.470016202664e+02 2.881823300326e-01 0.0 
2.881823300326e-01 -3.521250143568e+02 0.0 
0.0 0.0 -1.493379903870e+02 
-1.516724358327e+02 6.842632017528e-01 0.0 
6.842632017528e-01 -3.617276357265e+02 0.0 
0.0 0.0 -1.536200214678e+02 
-1.213374279501e+02 2.044947306926e+00 0.0 
2.044947306926e+00 -2.792567387020e+02 0.0 
0.0 0.0 -1.197782499956e+02 
-6.056706997178e+01 -1.092545942405e+01 0.0 
-1.092545942405e+01 -1.317084489786e+02 0.0 
0.0 0.0 -5.360700417552e+01 
-1.245081949843e+02 1.691098579334e+01 0.0 
1.691098579334e+01 -2.744078465747e+02 0.0 
0.0 0.0 -1.192748124677e+02 
-1.105673574615e+02 3.703162356136e+00 0.0 
3.703162356136e+00 -2.439833703368e+02 0.0 
0.0 0.0 -1.059652183395e+02 
-3.991419143196e+01 2.295290982004e+01 0.0 
2.295290982004e+01 -1.173772400034e+02 0.0 
0.0 0.0 -4.272935582781e+01 
-5.837590738473e+01 -1.555405746845e+01 0.0 
-1.555405746845e+01 -1.314177394201e+02 0.0 
0.0 0.0 -5.401060885594e+01 
-1.228300890350e+02 -1.792435990492e-01 0.0 
-1.792435990492e-01 -2.938111121313e+02 0.0 
0.0 0.0 -1.234488394291e+02 
-1.112933629665e+02 -1.200005902359e+00 0.0 
-1.200005902359e+00 -2.724902618074e+02 0.0 
0.0 0.0 -1.129972083118e+02 
-1.375414225521e+02 1.402867726807e+00 0.0 
1.402867726807e+00 -3.348434469843e+02 0.0 
0.0 0.0 -1.413154608609e+02 
-1.164955601450e+02 -9.740799629448e-01 0.0 
-9.740799629448e-01 -2.772597087435e+02 0.0 
0.0 0.0 -1.158512632899e+02 
-1.285864962373e+02 1.594609212008e+00 0.0 
1.594609212008e+00 -3.186257771292e+02 0.0 
0.0 0.0 -1.337189314993e+02 
-1.462887032836e+02 1.304946043547e+01 0.0 
1.304946043547e+01 -3.590321049665e+02 0.0 
0.0 0.0 -1.511962424750e+02 
-2.820445475304e+01 -2.124397792550e+00 0.0 
-2.124397792550e+00 -7.984424122808e+01 0.0 
0.0 0.0 -3.063008766840e+01 
-8.623690694491e+01 3.166418151903e+00 0.0 
3.166418151903e+00 -1.709544301967e+02 0.0 
0.0 0.0 -7.675740114247e+01 
-8.196973670752e+01 1.708180732531e+00 0.0 
1.708180732531e+00 -1.633118521511e+02 0.0 
0.0 0.0 -7.318447665759e+01 
-1.004813354820e+02 3.555973024538e+00 0.0 
3.555973024538e+00 -2.128742127975e+02 0.0 
0.0 0.0 -9.360666448385e+01 
-6.416894945582e+01 -6.593330129031e+00 0.0 
-6.593330129031e+00 -1.363964843683e+02 0.0 
0.0 0.0 -5.425199976931e+01 
-9.927927294392e+01 -2.721920069694e+00 0.0 
-2.721920069694e+00 -2.158743064519e+02 0.0 
0.0 0.0 -8.958187713729e+01 
-3.725082580559e+01 -6.617024439578e+00 0.0 
-6.617024439578e+00 -8.580650819909e+01 0.0 
0.0 0.0 -3.314725209313e+01 
-1.348571085840e+02 2.387746501765e+01 0.0 
2.387746501765e+01 -3.154865867106e+02 0.0 
0.0 0.0 -1.347031085884e+02 
-8.199964555010e+01 1.984159866797e+01 0.0 
1.984159866797e+01 -1.435943731888e+02 0.0 
0.0 0.0 -6.484051434020e+01 
-8.929466170710e+01 -4.261358069147e+00 0.0 
-4.261358069147e+00 -2.330883921799e+02 0.0 
0.0 0.0 -9.743331709777e+01 
-8.300534979687e+01 -7.323879191820e+00 0.0 
-7.323879191820e+00 -1.818366848258e+02 0.0 
0.0 0.0 -7.407370428232e+01 
-6.511973387010e+01 -1.210414299998e+01 0.0 
-1.210414299998e+01 -1.447430164603e+02 0.0 
0.0 0.0 -5.940037770683e+01 
-5.604515714393e+01 -1.654974081414e+01 0.0 
-1.654974081414e+01 -1.263552119881e+02 0.0 
0.0 0.0 -5.139432179855e+01 
-7.167433471239e+01 2.744648473890e+01 0.0 
2.744648473890e+01 -1.725714703999e+02 0.0 
0.0 0.0 -7.265215092779e+01 
-9.136893910005e+01 -6.398522497721e+00 0.0 
-6.398522497721e+00 -2.182001064088e+02 0.0 
0.0 0.0 -9.018705769804e+01 
-1.185069432573e+02 2.816764349174e+00 0.0 
2.816764349174e+00 -3.048433417323e+02 0.0 
0.0 0.0 -1.265657433773e+02 
-1.038537222172e+02 3.256328331841e+00 0.0 
3.256328331841e+00 -2.238072267550e+02 0.0 
0.0 0.0 -9.789828469168e+01 
-1.262096788163e+01 -3.719967420221e-01 0.0 
-3.719967420221e-01 -1.888015475943e+01 0.0 
0.0 0.0 -8.118615293925e+00 
-1.226372416077e+02 4.233952824820e+00 0.0 
4.233952824820e+00 -3.151005674619e+02 0.0 
0.0 0.0 -1.309213427209e+02 
-1.034857576744e+02 -2.292398359421e+00 0.0 
-2.292398359421e+00 -2.566759490120e+02 0.0 
0.0 0.0 -1.057040032367e+02 
-9.116464328219e+01 5.303352370998e+00 0.0 
5.303352370998e+00 -1.794487499362e+02 0.0 
0.0 0.0 -8.078401796551e+01 
-1.130945024606e+02 1.509981046547e+01 0.0 
1.509981046547e+01 -2.990800761812e+02 0.0 
0.0 0.0 -1.234724430984e+02 
-4.943623153817e+01 -1.976320670466e+01 0.0 
-1.976320670466e+01 -1.011611620537e+02 0.0 
0.0 0.0 -3.907536079140e+01 
-1.046038503232e+02 5.791036425177e+00 0.0 
5.791036425177e+00 -2.210183759650e+02 0.0 
0.0 0.0 -9.728666788644e+01 
-1.183750627820e+02 1.090516031979e+01 0.0 
1.090516031979e+01 -2.598052576732e+02 0.0 
0.0 0.0 -1.130540961366e+02 
-8.456648344765e+01 5.777741016982e+00 0.0 
5.777741016982e+00 -1.582087254271e+02 0.0 
0.0 0.0 -7.243256266241e+01 
-2.610966934400e+01 -4.244504392672e+00 0.0 
-4.244504392672e+00 -6.523010152901e+01 0.0 
0.0 0.0 -2.456862602405e+01 
-7.827395086451e+01 2.398448309859e+00 0.0 
2.398448309859e+00 -1.505754673393e+02 0.0 
0.0 0.0 -6.825482546113e+01 
-1.423546857014e+02 8.472344186659e+00 0.0 
8.472344186659e+00 -3.527258360780e+02 0.0 
0.0 0.0 -1.481241565338e+02 
-1.074155434426e+02 1.098600096074e+01 0.0 
1.098600096074e+01 -2.205648926292e+02 0.0 
0.0 0.0 -9.799413082154e+01 
-5.790616632063e+01 -5.358817002477e+00 0.0 
-5.358817002477e+00 -1.241817271822e+02 0.0 
0.0 0.0 -4.899868430124e+01 
-7.729252067907e+01 7.227449025019e+00 0.0 
7.227449025019e+00 -2.335114707240e+02 0.0 
0.0 0.0 -9.790335012281e+01 
-7.964041882065e+01 2.621703092772e+01 0.0 
2.621703092772e+01 -1.643137541824e+02 0.0 
0.0 0.0 -7.005448566993e+01 
-6.754384486921e+01 7.449178921151e+00 0.0 
7.449178921151e+00 -1.019664128785e+02 0.0 
0.0 0.0 -4.926665194475e+01 
-1.135982502854e+02 4.553861516787e+00 0.0 
4.553861516787e+00 -2.528391334027e+02 0.0 
0.0 0.0 -1.095312151064e+02 
-8.056741880364e+01 2.217116194302e+01 0.0 
2.217116194302e+01 -2.168980787403e+02 0.0 
0.0 0.0 -9.119654432009e+01 
-1.240320256124e+02 1.335658479105e+01 0.0 
1.335658479105e+01 -3.207944967551e+02 0.0 
0.0 0.0 -1.330479567103e+02 
-9.298586896578e+01 9.830047735189e+00 0.0 
9.830047735189e+00 -2.674428353198e+02 0.0 
0.0 0.0 -1.120095058203e+02 
-6.288615759232e+01 -4.236662240346e+00 0.0 
-4.236662240346e+00 -1.328865408884e+02 0.0 
0.0 0.0 -5.313757770248e+01 
-1.328980143495e+02 3.711995123973e+00 0.0 
3.711995123973e+00 -3.317826124712e+02 0.0 
0.0 0.0 -1.390041880462e+02 
-7.426977149959e+01 1.625882782417e+01 0.0 
1.625882782417e+01 -2.194786726707e+02 0.0 
0.0 0.0 -9.145794822180e+01 
-1.112855139214e+02 6.592590917637e+00 0.0 
6.592590917637e+00 -2.414089238106e+02 0.0 
0.0 0.0 -1.054083313196e+02 
-1.075050343042e+02 2.275065281661e+01 0.0 
2.275065281661e+01 -2.474017084682e+02 0.0 
0.0 0.0 -1.060720228317e+02 
-6.252857470024e+01 9.320288386248e+00 0.0 
9.320288386248e+00 -1.945514947858e+02 0.0 
0.0 0.0 -7.597235611931e+01 
-1.090882430603e+02 8.664788126424e+00 0.0 
8.664788126424e+00 -2.300943250499e+02 0.0 
0.0 0.0 -1.013547704331e+02 
-8.419939226168e+01 -2.215119537143e+00 0.0 
-2.215119537143e+00 -2.351342347849e+02 0.0 
0.0 0.0 -9.851786766807e+01 
-1.183435764684e+02 1.668118278202e+01 0.0 
1.668118278202e+01 -3.059617207845e+02 0.0 
0.0 0.0 -1.268915891759e+02 
-7.896508835946e+01 2.169129994867e+01 0.0 
2.169129994867e+01 -1.373977314224e+02 0.0 
0.0 0.0 -6.106011623209e+01 
-9.375000772958e+01 2.380763446398e+01 0.0 
2.380763446398e+01 -2.084295878682e+02 0.0 
0.0 0.0 -8.965282356785e+01 
-1.024040489016e+02 1.978521930339e+01 0.0 
1.978521930339e+01 -2.125495560916e+02 0.0 
0.0 0.0 -9.408608149799e+01 
-8.782210635867e+01 2.425014184055e+01 0.0 
2.425014184055e+01 -2.134834631977e+02 0.0 
0.0 0.0 -8.957321618652e+01 
-1.203607461539e+02 -4.442290639296e-01 0.0 
-4.442290639296e-01 -2.828371389231e+02 0.0 
0.0 0.0 -1.187835537038e+02 
-1.278141040094e+02 3.968535517724e+00 0.0 
3.968535517724e+00 -3.234950111162e+02 0.0 
0.0 0.0 -1.349927345377e+02 
-3.863010687236e+01 -7.039296889638e+00 0.0 
-7.039296889638e+00 -1.324025436081e+02 0.0 
0.0 0.0 -4.987823982773e+01 
-5.947937473159e+01 3.041461431767e+01 0.0 
3.041461431767e+01 -1.355421980930e+02 0.0 
0.0 0.0 -5.707930982426e+01 
-9.229502432997e+01 6.824836722919e+00 0.0 
6.824836722919e+00 -1.789354496367e+02 0.0 
0.0 0.0 -8.096914219001e+01 
-1.225689281747e+02 2.260563989510e+01 0.0 
2.260563989510e+01 -2.928559330135e+02 0.0 
0.0 0.0 -1.242274583565e+02 
-1.176584629483e+02 7.249229916875e+00 0.0 
7.249229916875e+00 -2.616489760323e+02 0.0 
0.0 0.0 -1.133922316942e+02 
-7.349978811624e+01 2.717957072264e+01 0.0 
2.717957072264e+01 -1.441593599119e+02 0.0 
0.0 0.0 -6.188208164610e+01 
-1.283117051955e+02 2.633746228437e+00 0.0 
2.633746228437e+00 -3.212107129502e+02 0.0 
0.0 0.0 -1.344567254437e+02 
-1.151683804998e+02 9.552450464508e+00 0.0 
9.552450464508e+00 -2.500891908056e+02 0.0 
0.0 0.0 -1.091772713916e+02 
-9.594866246943e+01 -5.287906307581e+00 0.0 
-5.287906307581e+00 -2.260395378983e+02 0.0 
0.0 0.0 -9.287617331720e+01 
-3.612452622663e+01 -8.064117769755e-01 0.0 
-8.064117769755e-01 -9.144819181683e+01 0.0 
0.0 0.0 -3.601249933166e+01 
-3.895876366529e+01 2.650892147464e+01 0.0 
2.650892147464e+01 -1.041899034988e+02 0.0 
0.0 0.0 -3.988346390010e+01 
-5.142791547329e+01 8.627417325967e+00 0.0 
8.627417325967e+00 -1.670850883323e+02 0.0 
0.0 0.0 -6.204383013185e+01 
-7.621637617209e+01 2.116283829963e+01 0.0 
2.116283829963e+01 -2.121743432530e+02 0.0 
0.0 0.0 -8.906458631329e+01 
-1.020088198939e+02 -3.515572472120e+00 0.0 
-3.515572472120e+00 -2.454372934825e+02 0.0 
0.0 0.0 -1.009068108772e+02 
-1.238510991868e+02 1.495946759848e+01 0.0 
1.495946759848e+01 -2.749411392237e+02 0.0 
0.0 0.0 -1.192376715231e+02 
-1.331421940867e+02 2.486267836380e+00 0.0 
2.486267836380e+00 -3.293360827068e+02 0.0 
0.0 0.0 -1.383434830381e+02 
-1.160384617505e+02 6.830644101203e+00 0.0 
6.830644101203e+00 -3.070613499475e+02 0.0 
0.0 0.0 -1.265299435094e+02 
-4.612512664855e+01 3.421122532041e+01 0.0 
3.421122532041e+01 -4.389055417800e+01 0.0 
0.0 0.0 -2.450825562462e+01 
-7.254523372518e+01 1.003798302545e+01 0.0 
1.003798302545e+01 -1.126236867417e+02 0.0 
0.0 0.0 -5.373481961074e+01 
-1.379173457373e+02 2.302570078052e+00 0.0 
2.302570078052e+00 -3.375462015334e+02 0.0 
0.0 0.0 -1.422390641812e+02 
-8.162329149339e+01 5.281980234413e+00 0.0 
5.281980234413e+00 -2.426151342026e+02 0.0 
0.0 0.0 -1.023231441813e+02 
-1.234589343894e+02 1.584317945261e+01 0.0 
1.584317945261e+01 -3.168209381335e+02 0.0 
0.0 0.0 -1.316839617569e+02 
-1.052378529414e+02 -1.098631743146e+00 0.0 
-1.098631743146e+00 -2.309454421960e+02 0.0 
0.0 0.0 -9.652022434389e+01 
-1.357769288214e+02 2.380687148042e+01 0.0 
2.380687148042e+01 -3.201312811896e+02 0.0 
0.0 0.0 -1.363724630033e+02 
-6.071205851982e+01 1.601135028488e+01 0.0 
1.601135028488e+01 -7.888439186208e+01 0.0 
0.0 0.0 -3.657254758619e+01 
-1.426492774938e+02 2.056540283528e+00 0.0 
2.056540283528e+00 -3.460689885847e+02 0.0 
0.0 0.0 -1.462154798236e+02 
-1.145948104446e+02 9.488105849174e+00 0.0 
9.488105849174e+00 -3.057297219671e+02 0.0 
0.0 0.0 -1.258652841343e+02 
-5.336917688294e+01 2.566129225716e+01 0.0 
2.566129225716e+01 -1.465523636883e+02 0.0 
0.0 0.0 -5.706725722903e+01 
-6.183068093812e+01 2.747606197633e-01 0.0 
2.747606197633e-01 -1.146775583776e+02 0.0 
0.0 0.0 -5.255247179471e+01 
-1.536851064927e+02 2.427255336082e+00 0.0 
2.427255336082e+00 -3.675787082337e+02 0.0 
0.0 0.0 -1.559791444179e+02 
-1.251063228739e+02 1.071270068554e+01 0.0 
1.071270068554e+01 -3.239489290701e+02 0.0 
0.0 0.0 -1.343165755832e+02 
-9.368929002230e+01 2.326775722430e+01 0.0 
2.326775722430e+01 -2.319064593854e+02 0.0 
0.0 0.0 -9.715641279985e+01 
-7.976929362427e+01 1.715492109259e+00 0.0 
1.715492109259e+00 -2.350903885545e+02 0.0 
0.0 0.0 -9.857104958525e+01 
-6.150720195960e+01 8.637166786366e+00 0.0 
8.637166786366e+00 -8.328568154144e+01 0.0 
0.0 0.0 -4.043167894222e+01 
-1.058798985757e+02 -2.803169992791e+00 0.0 
-2.803169992791e+00 -2.533201007206e+02 0.0 
0.0 0.0 -1.044242143388e+02 
-9.748412085756e+01 2.295954168499e+01 0.0 
2.295954168499e+01 -2.137410986966e+02 0.0 
0.0 0.0 -9.276728364048e+01 
-1.270039033495e+02 1.281106717728e+01 0.0 
1.281106717728e+01 -2.903661424852e+02 0.0 
0.0 0.0 -1.248110137504e+02 
-1.296379911543e+02 1.254421651906e+01 0.0 
1.254421651906e+01 -3.309892502330e+02 0.0 
0.0 0.0 -1.377881724162e+02 
-9.873664559454e+01 1.273357576091e+01 0.0 
1.273357576091e+01 -1.918027467053e+02 0.0 
0.0 0.0 -8.676181768996e+01 
-1.039063816955e+02 -3.509532052389e+00 0.0 
-3.509532052389e+00 -2.418332856197e+02 0.0 
0.0 0.0 -9.963439317448e+01 
-9.787528101947e+01 1.856797497781e+01 0.0 
1.856797497781e+01 -2.641228866382e+02 0.0 
0.0 0.0 -1.092940435347e+02 
-1.584449688171e+01 -7.741706122768e-01 0.0 
-7.741706122768e-01 -5.036444387056e+01 0.0 
0.0 0.0 -1.777686676549e+01 
-6.712833177334e+01 1.215501570595e+01 0.0 
1.215501570595e+01 -9.521076632752e+01 0.0 
0.0 0.0 -4.532809074903e+01 
-1.075176921756e+02 -2.736304542252e+00 0.0 
-2.736304542252e+00 -2.498028561664e+02 0.0 
0.0 0.0 -1.035419381453e+02 
-5.480280883297e+01 3.762533388764e+00 0.0 
3.762533388764e+00 -1.754061409374e+02 0.0 
0.0 0.0 -6.618826876785e+01 
-8.526835664935e+01 1.046540355183e+00 0.0 
1.046540355183e+00 -2.440263419645e+02 0.0 
0.0 0.0 -1.026294224872e+02 
-1.384438174979e+02 2.034296419290e+01 0.0 
2.034296419290e+01 -3.371138072894e+02 0.0 
0.0 0.0 -1.422672874362e+02 
-1.109665801210e+02 -2.018938821943e+00 0.0 
-2.018938821943e+00 -2.579000904059e+02 0.0 
0.0 0.0 -1.073809577930e+02 
-6.032587351897e+01 4.629599808300e+00 0.0 
4.629599808300e+00 -1.891577320508e+02 0.0 
0.0 0.0 -7.321684723736e+01 
-1.142496145296e+02 -1.375829196250e+00 0.0 
-1.375829196250e+00 -2.660650005359e+02 0.0 
0.0 0.0 -1.111706634332e+02 
-5.461776628603e+01 1.101498196751e+01 0.0 
1.101498196751e+01 -6.502478825942e+01 0.0 
0.0 0.0 -3.119636192476e+01 
-1.025285867141e+02 1.455027139897e+01 0.0 
1.455027139897e+01 -2.035977472214e+02 0.0 
0.0 0.0 -9.143790018063e+01 
-1.173719060994e+02 -8.152475910716e-01 0.0 
-8.152475910716e-01 -2.742708559059e+02 0.0 
0.0 0.0 -1.149380388642e+02 
-1.043809774906e+02 2.250804926380e+01 0.0 
2.250804926380e+01 -2.335370069210e+02 0.0 
0.0 0.0 -1.009753953235e+02 
-1.872073607467e+01 -1.705147700219e+00 0.0 
-1.705147700219e+00 -5.277459446434e+01 0.0 
0.0 0.0 -1.932268410108e+01 
-9.609369317189e+01 2.206494693682e+01 0.0 
2.206494693682e+01 -2.449805026584e+02 0.0 
0.0 0.0 -1.021440464300e+02 
-1.419158924907e+02 5.335136458536e-01 0.0 
5.335136458536e-01 -3.418177806160e+02 0.0 
0.0 0.0 -1.447201019320e+02 
-7.155592700753e+01 -1.274555370295e+01 0.0 
-1.274555370295e+01 -1.709894671175e+02 0.0 
0.0 0.0 -7.067280058779e+01 
-9.116810602070e+01 1.058876961581e+00 0.0 
1.058876961581e+00 -2.527737829421e+02 0.0 
0.0 0.0 -1.062180606214e+02 
-1.092737256338e+02 1.550199703174e+01 0.0 
1.550199703174e+01 -2.246487931243e+02 0.0 
0.0 0.0 -9.977675562741e+01 
-4.754828819266e+01 1.527256732254e+01 0.0 
1.527256732254e+01 -4.763734413374e+01 0.0 
0.0 0.0 -2.329691560254e+01 
-9.792647633588e+01 3.582936255685e+00 0.0 
3.582936255685e+00 -2.705411827319e+02 0.0 
0.0 0.0 -1.127842039496e+02 
-1.118881425053e+02 2.234007798643e+01 0.0 
2.234007798643e+01 -2.532936220534e+02 0.0 
0.0 0.0 -1.091545293676e+02 
-9.921476169170e+01 2.073799909045e+01 0.0 
2.073799909045e+01 -2.574896636056e+02 0.0 
0.0 0.0 -1.069311216666e+02 
-8.241508311188e+01 2.000476217623e+01 0.0 
2.000476217623e+01 -2.292275454528e+02 0.0 
0.0 0.0 -9.643411177493e+01 
-1.063197362052e+02 5.325028453928e+00 0.0 
5.325028453928e+00 -2.886425337498e+02 0.0 
0.0 0.0 -1.189573812759e+02 
-5.358215911188e+01 2.189123666690e+01 0.0 
2.189123666690e+01 -6.606307939758e+01 0.0 
0.0 0.0 -3.126447298644e+01 
-5.691135405504e+01 -1.257321008209e+01 0.0 
-1.257321008209e+01 -1.236819123927e+02 0.0 
0.0 0.0 -5.061799223684e+01 
-4.876542162496e+01 -1.184168176866e+01 0.0 
-1.184168176866e+01 -1.026984373038e+02 0.0 
0.0 0.0 -4.184779755015e+01 
-6.393634782619e+01 8.668659591399e-01 0.0 
8.668659591399e-01 -1.965279324018e+02 0.0 
0.0 0.0 -7.767494226767e+01 
-1.159774059562e+02 2.187471413318e+01 0.0 
2.187471413318e+01 -2.595988572477e+02 0.0 
0.0 0.0 -1.122728789612e+02 
-2.000553291846e+01 -1.022213784916e+00 0.0 
-1.022213784916e+00 -6.694623583856e+01 0.0 
0.0 0.0 -2.493948660633e+01 
-1.096056103488e+02 1.788528846227e+01 0.0 
1.788528846227e+01 -2.281955809121e+02 0.0 
0.0 0.0 -1.009403573783e+02 
-4.004271856874e+01 -9.849437581627e+00 0.0 
-9.849437581627e+00 -7.461937890071e+01 0.0 
0.0 0.0 -3.024187870756e+01 
-6.248448711691e+01 -3.853423824379e+00 0.0 
-3.853423824379e+00 -1.886439059146e+02 0.0 
0.0 0.0 -7.460581499893e+01 
-1.133884219405e+02 1.963770150176e+01 0.0 
1.963770150176e+01 -2.886914574052e+02 0.0 
0.0 0.0 -1.202239638037e+02 
-8.305761177413e+01 4.989694626066e-01 0.0 
4.989694626066e-01 -1.689838644751e+02 0.0 
0.0 0.0 -7.521244287475e+01 
-6.661725312838e+01 -6.337165280613e+00 0.0 
-6.337165280613e+00 -1.943566785627e+02 0.0 
0.0 0.0 -7.892573929936e+01 
-5.036969232146e+01 -9.441555225567e-01 0.0 
-9.441555225567e-01 -1.118041875560e+02 0.0 
0.0 0.0 -4.505764043945e+01 
-6.541726508649e+01 -1.004107326639e+01 0.0 
-1.004107326639e+01 -1.842448914328e+02 0.0 
0.0 0.0 -7.501272750156e+01 
-8.909453322901e+01 1.913391523522e+01 0.0 
1.913391523522e+01 -2.464852422114e+02 0.0 
0.0 0.0 -1.029159163384e+02 
-6.979272442871e+01 -1.105457273050e+01 0.0 
-1.105457273050e+01 -1.899611738904e+02 0.0 
0.0 0.0 -7.815670877626e+01 
-6.841535666055e+01 -1.324603526514e+01 0.0 
-1.324603526514e+01 -1.777698568205e+02 0.0 
0.0 0.0 -7.316596965506e+01 
-1.170357084127e+02 4.171975550962e+00 0.0 
4.171975550962e+00 -2.641181114247e+02 0.0 
0.0 0.0 -1.139461459512e+02 
-7.370671793532e+01 -1.198971927090e+01 0.0 
-1.198971927090e+01 -1.837108322453e+02 0.0 
0.0 0.0 -7.604610702591e+01 
-1.226870309345e+02 1.258062753879e+00 0.0 
1.258062753879e+00 -2.826656549409e+02 0.0 
0.0 0.0 -1.212058057626e+02 
-1.623298739559e+02 7.832405762587e-01 0.0 
7.832405762587e-01 -3.832152340372e+02 0.0 
0.0 0.0 -1.632635323979e+02 
-6.770912427457e+01 3.141335211692e-01 0.0 
3.141335211692e-01 -1.297225294243e+02 0.0 
0.0 0.0 -5.882949610965e+01 
-4.248791947985e+01 2.012264176569e+01 0.0 
2.012264176569e+01 -3.364933904066e+01 0.0 
0.0 0.0 -1.891310900149e+01 
-7.795870687977e+01 2.303148103722e+00 0.0 
2.303148103722e+00 -1.113037379476e+02 0.0 
0.0 0.0 -5.765848201141e+01 
-4.888676204839e+01 2.790312936690e+01 0.0 
2.790312936690e+01 -6.307222517559e+01 0.0 
0.0 0.0 -3.052462709106e+01 
-6.455472479601e+01 -1.462582195919e+01 0.0 
-1.462582195919e+01 -1.512637383401e+02 0.0 
0.0 0.0 -6.237770810890e+01 
-1.092636383029e+02 2.005532941266e+01 0.0 
2.005532941266e+01 -2.329512048722e+02 0.0 
0.0 0.0 -1.022644529525e+02 
-6.816052762420e+01 3.310996586899e-01 0.0 
3.310996586899e-01 -1.304697390241e+02 0.0 
0.0 0.0 -5.918907999449e+01 
-6.139805964358e+01 -1.399781854652e+01 0.0 
-1.399781854652e+01 -1.375362146405e+02 0.0 
0.0 0.0 -5.662241040669e+01 
-1.293185871876e+02 2.077759115121e+01 0.0 
2.077759115121e+01 -2.914656229718e+02 0.0 
0.0 0.0 -1.258352630478e+02 
-1.455497589185e+02 2.431743074420e+01 0.0 
2.431743074420e+01 -3.438015015609e+02 0.0 
0.0 0.0 -1.464053781438e+02 
-9.380869528834e+01 9.081216484411e-01 0.0 
9.081216484411e-01 -1.978881102148e+02 0.0 
0.0 0.0 -8.710904165095e+01 
-1.285590522922e+02 1.501160177767e+01 0.0 
1.501160177767e+01 -3.268858522353e+02 0.0 
0.0 0.0 -1.362334713582e+02 
-1.034139375027e+02 1.956985798569e+01 0.0 
1.956985798569e+01 -2.701263573361e+02 0.0 
0.0 0.0 -1.118894306126e+02 
-1.101871770326e+02 6.837209076528e-01 0.0 
6.837209076528e-01 -2.454457229209e+02 0.0 
0.0 0.0 -1.062898699861e+02 
-6.231427902232e+01 1.009163972732e+00 0.0 
1.009163972732e+00 -1.133112439153e+02 0.0 
0.0 0.0 -5.228765688128e+01 
-2.313832604769e+01 -3.771889434319e+00 0.0 
-3.771889434319e+00 -3.428899927336e+01 0.0 
0.0 0.0 -1.494548524739e+01 
-1.233948378656e+02 -1.295265687596e-01 0.0 
-1.295265687596e-01 -2.927920327860e+02 0.0 
0.0 0.0 -1.231909259532e+02 
-4.196705529045e+01 2.719763243787e+01 0.0 
2.719763243787e+01 -3.299491643820e+01 0.0 
0.0 0.0 -1.932484204508e+01 
-4.471079917436e+01 3.017985798918e+01 0.0 
3.017985798918e+01 -5.754831218629e+01 0.0 
0.0 0.0 -2.747440801984e+01 
-4.410546679343e+01 3.164156693330e+01 0.0 
3.164156693330e+01 -5.954866529914e+01 0.0 
0.0 0.0 -2.700776828695e+01 
-6.670360101118e+01 -3.125663696504e+00 0.0 
-3.125663696504e+00 -1.396261430530e+02 0.0 
0.0 0.0 -5.660241334991e+01 
-4.237305227129e+01 -1.579326140523e+01 0.0 
-1.579326140523e+01 -6.114784137705e+01 0.0 
0.0 0.0 -2.461634675104e+01 
-4.211856938180e+01 2.874812725361e+01 0.0 
2.874812725361e+01 -3.773984181797e+01 0.0 
0.0 0.0 -2.053553177728e+01 
-1.431177000631e+02 1.739764871610e+01 0.0 
1.739764871610e+01 -3.500568192317e+02 0.0 
0.0 0.0 -1.475523557884e+02 
-7.204952076579e+01 2.692845134849e+00 0.0 
2.692845134849e+00 -1.316138075728e+02 0.0 
0.0 0.0 -6.069899850158e+01 
-1.180569313762e+02 2.069176186370e+01 0.0 
2.069176186370e+01 -2.942191843034e+02 0.0 
0.0 0.0 -1.232828347039e+02 
-4.341955098190e+01 3.041744417029e+01 0.0 
3.041744417029e+01 -3.955111513358e+01 0.0 
0.0 0.0 -2.091191566185e+01 
-1.209319036814e+02 1.050279722998e+01 0.0 
1.050279722998e+01 -2.699100285838e+02 0.0 
0.0 0.0 -1.168525796796e+02 
-1.385166548096e+02 2.207927214629e+01 0.0 
2.207927214629e+01 -3.335081450109e+02 0.0 
0.0 0.0 -1.412074399461e+02 
-1.618662838110e+02 5.570338511399e+00 0.0 
5.570338511399e+00 -3.845208502378e+02 0.0 
0.0 0.0 -1.635161402146e+02 
-1.278339596590e+02 2.116053789079e+01 0.0 
2.116053789079e+01 -3.130884911195e+02 0.0 
0.0 0.0 -1.318767352336e+02 
-4.430644722301e+01 3.363887453891e+01 0.0 
3.363887453891e+01 -6.376600166193e+01 0.0 
0.0 0.0 -2.801811967072e+01 
-8.251791996739e+01 6.203443503688e+00 0.0 
6.203443503688e+00 -1.506714163353e+02 0.0 
0.0 0.0 -6.955680089081e+01 
-1.335743186980e+02 2.377660233396e+01 0.0 
2.377660233396e+01 -3.102290103191e+02 0.0 
0.0 0.0 -1.327409987052e+02 
-9.984066731179e+01 1.434892658310e+00 0.0 
1.434892658310e+00 -2.138099844770e+02 0.0 
0.0 0.0 -9.369519553662e+01 
-1.632240982417e+02 3.771439792381e+00 0.0 
3.771439792381e+00 -3.861165476298e+02 0.0 
0.0 0.0 -1.644021937614e+02 
-7.290190844397e+01 3.510004324129e+00 0.0 
3.510004324129e+00 -1.298975398536e+02 0.0 
0.0 0.0 -6.043983448926e+01 
-1.173669011240e+02 2.656014624030e+00 0.0 
2.656014624030e+00 -2.663352599215e+02 0.0 
0.0 0.0 -1.147106483137e+02 
-3.903961391685e+01 -1.502725434376e+01 0.0 
-1.502725434376e+01 -1.209103739348e+02 0.0 
0.0 0.0 -4.493797443201e+01 
-1.171913977780e+02 1.314964292345e+00 0.0 
1.314964292345e+00 -2.663435686753e+02 0.0 
0.0 0.0 -1.146604899360e+02 
-1.161714817933e+02 2.050589104789e+01 0.0 
2.050589104789e+01 -2.534645038166e+02 0.0 
0.0 0.0 -1.104907956830e+02 
-7.840576641596e+01 1.115610873392e+00 0.0 
1.115610873392e+00 -1.547317048595e+02 0.0 
0.0 0.0 -6.954124138265e+01 
-8.431246922672e+01 8.120480217502e+00 0.0 
8.120480217502e+00 -1.519588400344e+02 0.0 
0.0 0.0 -7.048139277835e+01 
-1.560968179029e+02 1.122554304165e+00 0.0 
1.122554304165e+00 -3.707714237112e+02 0.0 
0.0 0.0 -1.576604724842e+02 
-1.268078849553e+02 1.840025448724e+01 0.0 
1.840025448724e+01 -2.837083951228e+02 0.0 
0.0 0.0 -1.227548840234e+02 
-4.361840130434e+01 3.516249939384e+01 0.0 
3.516249939384e+01 -7.070068644936e+01 0.0 
0.0 0.0 -3.198066060097e+01 
-9.382172468425e+01 1.113219308304e+00 0.0 
1.113219308304e+00 -1.968545587865e+02 0.0 
0.0 0.0 -8.680288504122e+01 
-8.350015171886e+01 -3.950645640770e+00 0.0 
-3.950645640770e+00 -1.754268550585e+02 0.0 
0.0 0.0 -7.168988680350e+01 
-4.215208070884e+01 -2.007188096554e+01 0.0 
-2.007188096554e+01 -1.049316123877e+02 0.0 
0.0 0.0 -4.546202315913e+01 
-1.516131866024e+02 6.740191927288e+00 0.0 
6.740191927288e+00 -3.676580674078e+02 0.0 
0.0 0.0 -1.553813762031e+02 
-1.225077266030e+02 2.104711117651e+01 0.0 
2.104711117651e+01 -2.727566845385e+02 0.0 
0.0 0.0 -1.181793233425e+02 
-1.550260252517e+02 1.845433397309e+00 0.0 
1.845433397309e+00 -3.696532006720e+02 0.0 
0.0 0.0 -1.570037677771e+02 
-1.433576954401e+01 -2.708612130957e-01 0.0 
-2.708612130957e-01 -4.965006195144e+01 0.0 
0.0 0.0 -1.711580794371e+01 
-1.626202321013e+01 -1.161417053561e+00 0.0 
-1.161417053561e+00 -3.121562890401e+01 0.0 
0.0 0.0 -1.274773651042e+01 
-1.515767799210e+02 9.264957980133e+00 0.0 
9.264957980133e+00 -3.684282869495e+02 0.0 
0.0 0.0 -1.556015200611e+02 
-1.320679792269e+02 2.265311792376e+01 0.0 
2.265311792376e+01 -3.017639926036e+02 0.0 
0.0 0.0 -1.297495915492e+02 
-4.457098419906e+01 -1.779693341940e+01 0.0 
-1.779693341940e+01 -1.186972879658e+02 0.0 
0.0 0.0 -4.344071985059e+01 
-1.257441509019e+02 9.052513734202e+00 0.0 
9.052513734202e+00 -2.891703686743e+02 0.0 
0.0 0.0 -1.240743558729e+02 
-4.556555807630e+01 3.760500121792e+01 0.0 
3.760500121792e+01 -7.666386692619e+01 0.0 
0.0 0.0 -3.759946012594e+01 
-6.248712279243e+01 1.115214294705e+00 0.0 
1.115214294705e+00 -1.113074024524e+02 0.0 
0.0 0.0 -5.173835757345e+01 
-1.398869948362e+01 -6.331401203773e-01 0.0 
-6.331401203773e-01 -3.224336957267e+01 0.0 
0.0 0.0 -1.163928326583e+01 
-1.633488403538e+02 3.096134830285e+00 0.0 
3.096134830285e+00 -3.858915034375e+02 0.0 
0.0 0.0 -1.643721031374e+02 
-1.192274266810e+02 6.600803904382e+00 0.0 
6.600803904382e+00 -2.689208785187e+02 0.0 
0.0 0.0 -1.160444915599e+02 
-9.135385774680e+01 -2.610705363770e+00 0.0 
-2.610705363770e+00 -1.926180523577e+02 0.0 
0.0 0.0 -7.978167382020e+01 
-7.153863968420e+01 5.785552972007e+00 0.0 
5.785552972007e+00 -1.198303402603e+02 0.0 
0.0 0.0 -5.694864912830e+01 
-5.878547330871e+01 -2.048792797916e+00 0.0 
-2.048792797916e+00 -1.259268925792e+02 0.0 
0.0 0.0 -5.102725960177e+01 
-1.298505697392e+02 2.289938417797e+01 0.0 
2.289938417797e+01 -3.091610743826e+02 0.0 
0.0 0.0 -1.313034932365e+02 
-3.279742888759e+01 -7.679354645429e+00 0.0 
-7.679354645429e+00 -4.973573688833e+01 0.0 
0.0 0.0 -2.063437034730e+01 
-1.190790424858e+02 5.010174349343e+00 0.0 
5.010174349343e+00 -2.700252985314e+02 0.0 
0.0 0.0 -1.163313023052e+02 
-1.501946951620e+02 1.209113186476e+01 0.0 
1.209113186476e+01 -3.658916245166e+02 0.0 
0.0 0.0 -1.544258959036e+02 
-1.245802574320e+02 1.405029661717e+01 0.0 
1.405029661717e+01 -2.788514716744e+02 0.0 
0.0 0.0 -1.206295187319e+02 
-1.532332804041e+02 2.087554511367e+01 0.0 
2.087554511367e+01 -3.641316844018e+02 0.0 
0.0 0.0 -1.548094894418e+02 
-4.883720446664e+01 1.234965731750e+01 0.0 
1.234965731750e+01 -1.152888143253e+02 0.0 
0.0 0.0 -5.076908199088e+01 
-1.399650472896e+02 2.314541981736e+01 0.0 
2.314541981736e+01 -3.341801570099e+02 0.0 
0.0 0.0 -1.418435612899e+02 
-1.384947772871e+02 1.330190763440e+01 0.0 
1.330190763440e+01 -3.459423521076e+02 0.0 
0.0 0.0 -1.449311388184e+02 
-6.163801080557e+01 3.324296583243e-01 0.0 
3.324296583243e-01 -1.130821411214e+02 0.0 
0.0 0.0 -5.201604557809e+01 
-1.255249752938e+02 1.616350309685e+01 0.0 
1.616350309685e+01 -2.802239301820e+02 0.0 
0.0 0.0 -1.213246716427e+02 
-7.516855429585e+01 -3.030053291944e+00 0.0 
-3.030053291944e+00 -1.560539060559e+02 0.0 
0.0 0.0 -6.385792879133e+01 
-2.272403202327e+01 -2.501603205775e+00 0.0 
-2.501603205775e+00 -6.622815577945e+01 0.0 
0.0 0.0 -2.469095867264e+01 
-1.232459454779e+02 7.152798783078e-01 0.0 
7.152798783078e-01 -2.846798213508e+02 0.0 
0.0 0.0 -1.219777300486e+02 
-1.039013423219e+01 -6.187080234859e-02 0.0 
-6.187080234859e-02 -1.412293763417e+01 0.0 
0.0 0.0 -5.517720580959e+00 
-6.044877227084e+01 1.649639280124e-01 0.0 
1.649639280124e-01 -1.120002995406e+02 0.0 
0.0 0.0 -5.133472154345e+01 
-1.644741295961e+02 1.852476290144e-01 0.0 
1.852476290144e-01 -3.873565547993e+02 0.0 
0.0 0.0 -1.651492053186e+02 
-1.859860564806e+01 -1.356399289865e+00 0.0 
-1.356399289865e+00 -6.306903505977e+01 0.0 
0.0 0.0 -2.328023764797e+01 
-7.360216162043e+01 4.975024107686e-01 0.0 
4.975024107686e-01 -1.441805051328e+02 0.0 
0.0 0.0 -6.493480002597e+01 
-1.313654317675e+02 2.194593001199e+01 0.0 
2.194593001199e+01 -2.984855344693e+02 0.0 
0.0 0.0 -1.285552898710e+02 
-1.070608177458e+02 -5.184671113066e-01 0.0 
-5.184671113066e-01 -2.360503291433e+02 0.0 
0.0 0.0 -9.872646991809e+01 
-1.063431303495e+02 1.277575415996e+00 0.0 
1.277575415996e+00 -2.339230991663e+02 0.0 
0.0 0.0 -1.016798688548e+02 
-4.703731717715e+01 -2.007580675095e+01 0.0 
-2.007580675095e+01 -8.225442986203e+01 0.0 
0.0 0.0 -3.221485351984e+01 
-8.131378716667e+01 -6.871571161453e+00 0.0 
-6.871571161453e+00 -1.073841484308e+02 0.0 
0.0 0.0 -5.735490359695e+01 
-8.706941149055e+01 7.888942149867e-01 0.0 
7.888942149867e-01 -1.794174445226e+02 0.0 
0.0 0.0 -7.954605680395e+01 
-1.413733840413e+02 2.135258479299e+01 0.0 
2.135258479299e+01 -3.409329338352e+02 0.0 
0.0 0.0 -1.442918953630e+02 
-1.231878923654e+02 1.173574559384e+01 0.0 
1.173574559384e+01 -2.766023357836e+02 0.0 
0.0 0.0 -1.195370684447e+02 
-8.240059573889e+01 1.027482910768e+00 0.0 
1.027482910768e+00 -1.656431623925e+02 0.0 
0.0 0.0 -7.401312743941e+01 
-3.967183420259e+01 3.054122028654e+01 0.0 
3.054122028654e+01 -9.099818226889e+01 0.0 
0.0 0.0 -3.697489293743e+01 
-1.278590245491e+02 2.169266972281e+01 0.0 
2.169266972281e+01 -2.885487881615e+02 0.0 
0.0 0.0 -1.245223438132e+02 
-9.721449275677e+01 -2.266365529149e+00 0.0 
-2.266365529149e+00 -2.082128954008e+02 0.0 
0.0 0.0 -8.655918548050e+01 
-1.291574662448e+02 2.344314794188e+01 0.0 
2.344314794188e+01 -3.007941398083e+02 0.0 
0.0 0.0 -1.285854818159e+02 
-1.368484242925e+02 1.597397450354e+01 0.0 
1.597397450354e+01 -3.408037002901e+02 0.0 
0.0 0.0 -1.428956373748e+02 
-5.418254939552e+01 3.780522057783e+01 0.0 
3.780522057783e+01 -6.025969305419e+01 0.0 
0.0 0.0 -3.516715846061e+01 
-1.124712455389e+02 -3.874502907482e-01 0.0 
-3.874502907482e-01 -2.535906658567e+02 0.0 
0.0 0.0 -1.062445177456e+02 
-1.424052518765e+01 -4.566063895146e-01 0.0 
-4.566063895146e-01 -3.019664477546e+01 0.0 
0.0 0.0 -1.150367849882e+01 
-1.554464311186e+02 4.707051912887e+00 0.0 
4.707051912887e+00 -3.728377428235e+02 0.0 
0.0 0.0 -1.580852521826e+02 
-1.004641607931e+02 -1.477974619371e+00 0.0 
-1.477974619371e+00 -2.167278891335e+02 0.0 
0.0 0.0 -9.034370149399e+01 
-2.492137034833e+01 6.214079469994e+00 0.0 
6.214079469994e+00 -7.771331668306e+00 0.0 
0.0 0.0 -5.203949374707e+00 
-1.773075932643e+01 8.553134586758e-02 0.0 
8.553134586758e-02 -9.361070962569e+00 0.0 
0.0 0.0 -7.727549086701e+00 
-3.458206346221e+01 6.472250427769e+00 0.0 
6.472250427769e+00 -3.054144027820e+01 0.0 
0.0 0.0 -1.447889510021e+01 
-2.611303669994e+01 -7.901520045070e-03 0.0 
-7.901520045070e-03 -3.007837201020e+01 0.0 
0.0 0.0 -1.645742261304e+01 
-4.442265915614e+01 5.391430627229e+00 0.0 
5.391430627229e+00 -5.065789878015e+01 0.0 
0.0 0.0 -2.503789525207e+01 
-3.380946388049e+01 -2.045495440610e-02 0.0 
-2.045495440610e-02 -4.851168780545e+01 0.0 
0.0 0.0 -2.429634550578e+01 
-5.303498104270e+01 4.669343742959e+00 0.0 
4.669343742959e+00 -7.016614050550e+01 0.0 
0.0 0.0 -3.475658705257e+01 
-4.261440500491e+01 -6.015501915324e-02 0.0 
-6.015501915324e-02 -6.917596492660e+01 0.0 
0.0 0.0 -3.313711097945e+01 
-6.025212156658e+01 4.486772082334e+00 0.0 
4.486772082334e+00 -8.971126981619e+01 0.0 
0.0 0.0 -4.393130449871e+01 
-5.022182223297e+01 -1.383624857363e-01 0.0 
-1.383624857363e-01 -8.757591540636e+01 0.0 
0.0 0.0 -4.093932129180e+01 

TENSORS node_materi_strain_total float
2.514552528340e-03 -2.837674811419e-05 0.0 
-2.837674811419e-05 -9.488831906738e-04 0.0 
0.0 0.0 0.0 
-1.495642360596e-03 -1.378218736057e-05 0.0 
-1.378218736057e-05 9.702178282051e-03 0.0 
0.0 0.0 0.0 
-9.229200187194e-05 -4.265679494894e-05 0.0 
-4.265679494894e-05 6.030366664099e-03 0.0 
0.0 0.0 0.0 
-1.069967565298e-04 4.860428429809e-05 0.0 
4.860428429809e-05 1.275239829608e-02 0.0 
0.0 0.0 0.0 
1.961241505286e-03 -4.437362876930e-05 0.0 
-4.437362876930e-05 -5.416341825402e-04 0.0 
0.0 0.0 0.0 
1.324580148693e-03 -2.875503330407e-05 0.0 
-2.875503330407e-05 1.483708125997e-04 0.0 
0.0 0.0 0.0 
6.494427128219e-04 -5.297196994235e-05 0.0 
-5.297196994235e-05 7.956338057160e-04 0.0 
0.0 0.0 0.0 
5.096723456344e-05 -7.194845237500e-05 0.0 
-7.194845237500e-05 1.457870798666e-03 0.0 
0.0 0.0 0.0 
-4.739713324505e-04 -9.818368687030e-05 0.0 
-9.818368687030e-05 2.012606873169e-03 0.0 
0.0 0.0 0.0 
-8.512570074776e-04 -1.077755147579e-04 0.0 
-1.077755147579e-04 2.461843479076e-03 0.0 
0.0 0.0 0.0 
-1.115807161701e-03 -1.163073735064e-04 0.0 
-1.163073735064e-04 2.834254381375e-03 0.0 
0.0 0.0 0.0 
-1.278141957196e-03 -1.242764024926e-04 0.0 
-1.242764024926e-04 3.138549826955e-03 0.0 
0.0 0.0 0.0 
-1.348882684386e-03 -1.256610423028e-04 0.0 
-1.256610423028e-04 3.394956013334e-03 0.0 
0.0 0.0 0.0 
-1.354975666335e-03 -1.191070868433e-04 0.0 
-1.191070868433e-04 3.624483173110e-03 0.0 
0.0 0.0 0.0 
-1.308966132022e-03 -9.962181513813e-05 0.0 
-9.962181513813e-05 3.841923601489e-03 0.0 
0.0 0.0 0.0 
-1.235325833782e-03 -6.896674899691e-05 0.0 
-6.896674899691e-05 4.063836983608e-03 0.0 
0.0 0.0 0.0 
-1.139994751976e-03 -7.153574764468e-05 0.0 
-7.153574764468e-05 4.283487816069e-03 0.0 
0.0 0.0 0.0 
-1.022907724766e-03 -7.950640119189e-05 0.0 
-7.950640119189e-05 4.513301990289e-03 0.0 
0.0 0.0 0.0 
-8.954405517264e-04 -6.585754804753e-05 0.0 
-6.585754804753e-05 4.777404286849e-03 0.0 
0.0 0.0 0.0 
-7.607337418155e-04 -5.454357413266e-05 0.0 
-5.454357413266e-05 5.048996773694e-03 0.0 
0.0 0.0 0.0 
-6.123992275742e-04 -4.454988711922e-05 0.0 
-4.454988711922e-05 5.331139043373e-03 0.0 
0.0 0.0 0.0 
-4.434695459939e-04 -3.848941392732e-05 0.0 
-3.848941392732e-05 5.615743379963e-03 0.0 
0.0 0.0 0.0 
-2.617565281745e-04 -3.359688111463e-05 0.0 
-3.359688111463e-05 5.877304905467e-03 0.0 
0.0 0.0 0.0 
-7.790414559964e-05 1.637679004973e-04 0.0 
1.637679004973e-04 1.275064551068e-02 0.0 
0.0 0.0 0.0 
-8.421558825455e-05 2.996494037078e-04 0.0 
2.996494037078e-04 1.272384321734e-02 0.0 
0.0 0.0 0.0 
-8.387351579042e-05 4.349490625790e-04 0.0 
4.349490625790e-04 1.271364935550e-02 0.0 
0.0 0.0 0.0 
-8.115327553023e-05 5.991371059841e-04 0.0 
5.991371059841e-04 1.268290849832e-02 0.0 
0.0 0.0 0.0 
-1.000651114799e-04 7.408438264199e-04 0.0 
7.408438264199e-04 1.264200042006e-02 0.0 
0.0 0.0 0.0 
-9.146972397978e-05 9.103090573611e-04 0.0 
9.103090573611e-04 1.260574614576e-02 0.0 
0.0 0.0 0.0 
-1.029272668854e-04 1.087555969909e-03 0.0 
1.087555969909e-03 1.254316295632e-02 0.0 
0.0 0.0 0.0 
-1.040229297316e-04 1.275237868699e-03 0.0 
1.275237868699e-03 1.245914630440e-02 0.0 
0.0 0.0 0.0 
-1.069529006282e-04 1.456956297258e-03 0.0 
1.456956297258e-03 1.237722552315e-02 0.0 
0.0 0.0 0.0 
-9.783125829728e-05 1.663974420121e-03 0.0 
1.663974420121e-03 1.226224321016e-02 0.0 
0.0 0.0 0.0 
-1.257575147917e-04 1.856332331540e-03 0.0 
1.856332331540e-03 1.213259281547e-02 0.0 
0.0 0.0 0.0 
-1.148178116304e-04 2.076946211387e-03 0.0 
2.076946211387e-03 1.198505103043e-02 0.0 
0.0 0.0 0.0 
-1.240912761921e-04 2.302326262556e-03 0.0 
2.302326262556e-03 1.179891929960e-02 0.0 
0.0 0.0 0.0 
-1.154455743704e-04 2.521421896141e-03 0.0 
2.521421896141e-03 1.158801757582e-02 0.0 
0.0 0.0 0.0 
-1.284763480334e-04 2.738388708255e-03 0.0 
2.738388708255e-03 1.135160269547e-02 0.0 
0.0 0.0 0.0 
-1.182768556800e-04 2.948409262156e-03 0.0 
2.948409262156e-03 1.107067565007e-02 0.0 
0.0 0.0 0.0 
-1.243666255600e-04 3.154802107714e-03 0.0 
3.154802107714e-03 1.076340422013e-02 0.0 
0.0 0.0 0.0 
-1.165966695825e-04 3.362827708272e-03 0.0 
3.362827708272e-03 1.041360050296e-02 0.0 
0.0 0.0 0.0 
-9.567291293015e-05 3.540040187196e-03 0.0 
3.540040187196e-03 1.003962790342e-02 0.0 
0.0 0.0 0.0 
-7.038011021306e-05 3.692095962959e-03 0.0 
3.692095962959e-03 9.636328425146e-03 0.0 
0.0 0.0 0.0 
-4.231435564502e-05 3.806075040677e-03 0.0 
3.806075040677e-03 9.191970529511e-03 0.0 
0.0 0.0 0.0 
-3.020144757478e-05 3.876594169584e-03 0.0 
3.876594169584e-03 8.731599622088e-03 0.0 
0.0 0.0 0.0 
1.613851612496e-06 3.902887900339e-03 0.0 
3.902887900339e-03 8.250743606560e-03 0.0 
0.0 0.0 0.0 
2.918116694787e-05 3.874232772867e-03 0.0 
3.874232772867e-03 7.765061631562e-03 0.0 
0.0 0.0 0.0 
5.409986847549e-05 3.796569884206e-03 0.0 
3.796569884206e-03 7.291144659650e-03 0.0 
0.0 0.0 0.0 
8.614676229879e-05 3.671381669370e-03 0.0 
3.671381669370e-03 6.831204321698e-03 0.0 
0.0 0.0 0.0 
1.010774783251e-04 3.489401135355e-03 0.0 
3.489401135355e-03 6.389619532414e-03 0.0 
0.0 0.0 0.0 
1.397431260086e-04 3.260646236318e-03 0.0 
3.260646236318e-03 5.983207004303e-03 0.0 
0.0 0.0 0.0 
1.493023766441e-04 2.987434660220e-03 0.0 
2.987434660220e-03 5.610500565740e-03 0.0 
0.0 0.0 0.0 
1.464115100263e-04 2.691725489637e-03 0.0 
2.691725489637e-03 5.317947175465e-03 0.0 
0.0 0.0 0.0 
1.686670023904e-04 2.372269831036e-03 0.0 
2.372269831036e-03 5.016431254204e-03 0.0 
0.0 0.0 0.0 
2.032104774505e-04 2.031557999164e-03 0.0 
2.031557999164e-03 4.742314129440e-03 0.0 
0.0 0.0 0.0 
2.014793288752e-04 1.646608635788e-03 0.0 
1.646608635788e-03 4.553521073478e-03 0.0 
0.0 0.0 0.0 
1.958013410035e-04 1.290335614450e-03 0.0 
1.290335614450e-03 4.463425122375e-03 0.0 
0.0 0.0 0.0 
1.918326896873e-04 9.457931346134e-04 0.0 
9.457931346134e-04 4.402420648677e-03 0.0 
0.0 0.0 0.0 
1.551924171006e-04 6.142932406710e-04 0.0 
6.142932406710e-04 4.404511232707e-03 0.0 
0.0 0.0 0.0 
1.607455270872e-04 3.261874618546e-04 0.0 
3.261874618546e-04 4.462642223395e-03 0.0 
0.0 0.0 0.0 
1.226630447841e-04 6.294120605154e-05 0.0 
6.294120605154e-05 4.541544341201e-03 0.0 
0.0 0.0 0.0 
1.198340471939e-04 -1.505897197035e-04 0.0 
-1.505897197035e-04 4.658081425124e-03 0.0 
0.0 0.0 0.0 
8.134008711772e-05 -3.238385861854e-04 0.0 
-3.238385861854e-04 4.802177466291e-03 0.0 
0.0 0.0 0.0 
5.607293682478e-05 -4.471065237252e-04 0.0 
-4.471065237252e-04 4.982490445258e-03 0.0 
0.0 0.0 0.0 
3.118579885516e-05 -5.214058559755e-04 0.0 
-5.214058559755e-04 5.189447101744e-03 0.0 
0.0 0.0 0.0 
1.093197329001e-05 -5.574627644413e-04 0.0 
-5.574627644413e-04 5.354170721534e-03 0.0 
0.0 0.0 0.0 
-1.707105932786e-05 -5.501609283438e-04 0.0 
-5.501609283438e-04 5.475912753477e-03 0.0 
0.0 0.0 0.0 
-2.783219990273e-05 -5.089182966548e-04 0.0 
-5.089182966548e-04 5.673723435402e-03 0.0 
0.0 0.0 0.0 
-4.754645488851e-05 -4.450032564412e-04 0.0 
-4.450032564412e-04 5.778470476327e-03 0.0 
0.0 0.0 0.0 
-5.014059903156e-05 -3.669971137297e-04 0.0 
-3.669971137297e-04 5.886563914012e-03 0.0 
0.0 0.0 0.0 
-5.906943187720e-05 -2.501086091429e-04 0.0 
-2.501086091429e-04 5.975002406284e-03 0.0 
0.0 0.0 0.0 
-6.659705188098e-05 -1.454342287436e-04 0.0 
-1.454342287436e-04 6.018138177392e-03 0.0 
0.0 0.0 0.0 
-1.471375768647e-03 -4.223883356280e-06 0.0 
-4.223883356280e-06 1.011621317585e-02 0.0 
0.0 0.0 0.0 
-1.432960371912e-03 -8.731841525477e-08 0.0 
-8.731841525477e-08 1.050943367201e-02 0.0 
0.0 0.0 0.0 
-1.361877324185e-03 4.478348607654e-06 0.0 
4.478348607654e-06 1.087676883934e-02 0.0 
0.0 0.0 0.0 
-1.261001003269e-03 9.918496823706e-06 0.0 
9.918496823706e-06 1.121587740763e-02 0.0 
0.0 0.0 0.0 
-1.129117277089e-03 1.668548977952e-05 0.0 
1.668548977952e-05 1.153868268473e-02 0.0 
0.0 0.0 0.0 
-9.667091483762e-04 2.245011355536e-05 0.0 
2.245011355536e-05 1.183912791761e-02 0.0 
0.0 0.0 0.0 
-7.756508718895e-04 2.692772229983e-05 0.0 
2.692772229983e-05 1.211585728856e-02 0.0 
0.0 0.0 0.0 
-5.471341090808e-04 3.454842499654e-05 0.0 
3.454842499654e-05 1.237217670751e-02 0.0 
0.0 0.0 0.0 
-3.142642946775e-04 3.664776620165e-05 0.0 
3.664776620165e-05 1.261081905499e-02 0.0 
0.0 0.0 0.0 
-2.248641327806e-03 2.989956125239e-03 0.0 
2.989956125239e-03 -2.068130836986e-03 0.0 
0.0 0.0 0.0 
-2.284501262642e-03 9.943497329930e-04 0.0 
9.943497329930e-04 9.439899949744e-03 0.0 
0.0 0.0 0.0 
-1.959546653926e-03 3.617730211098e-03 0.0 
3.617730211098e-03 8.380921922402e-04 0.0 
0.0 0.0 0.0 
-1.506218876053e-03 3.411192792585e-03 0.0 
3.411192792585e-03 2.088661960498e-03 0.0 
0.0 0.0 0.0 
-1.407133837603e-03 3.348222314615e-03 0.0 
3.348222314615e-03 3.265150519402e-03 0.0 
0.0 0.0 0.0 
-1.522172071719e-03 3.174911955149e-03 0.0 
3.174911955149e-03 4.525507714173e-03 0.0 
0.0 0.0 0.0 
-1.951285450113e-03 2.426939631551e-03 0.0 
2.426939631551e-03 6.251458234683e-03 0.0 
0.0 0.0 0.0 
-1.691497415708e-03 1.668896068747e-03 0.0 
1.668896068747e-03 7.121556879247e-03 0.0 
0.0 0.0 0.0 
-1.857051103497e-03 1.443937362885e-03 0.0 
1.443937362885e-03 7.686816761011e-03 0.0 
0.0 0.0 0.0 
-2.071859440945e-03 1.226968790831e-03 0.0 
1.226968790831e-03 8.289305546594e-03 0.0 
0.0 0.0 0.0 
-2.218066854861e-03 1.078035059836e-03 0.0 
1.078035059836e-03 8.874829976600e-03 0.0 
0.0 0.0 0.0 
-1.370977740602e-03 -2.655309206110e-05 0.0 
-2.655309206110e-05 7.633364407904e-03 0.0 
0.0 0.0 0.0 
-1.375535779422e-03 -3.810780987748e-05 0.0 
-3.810780987748e-05 7.909455590172e-03 0.0 
0.0 0.0 0.0 
-1.409934413397e-03 -3.248232471499e-05 0.0 
-3.248232471499e-05 8.360614421803e-03 0.0 
0.0 0.0 0.0 
-1.449760430476e-03 -3.671235918175e-05 0.0 
-3.671235918175e-05 8.813506508893e-03 0.0 
0.0 0.0 0.0 
-1.478222164744e-03 -2.264981725407e-05 0.0 
-2.264981725407e-05 9.254987218514e-03 0.0 
0.0 0.0 0.0 
-1.491744130803e-03 1.530695156311e-05 0.0 
1.530695156311e-05 9.644331369914e-03 0.0 
0.0 0.0 0.0 
-1.502274092628e-03 1.685058753448e-05 0.0 
1.685058753448e-05 9.673903565474e-03 0.0 
0.0 0.0 0.0 
-1.524749150668e-03 2.740344881087e-05 0.0 
2.740344881087e-05 9.681084958687e-03 0.0 
0.0 0.0 0.0 
-1.553839831163e-03 3.888407109366e-05 0.0 
3.888407109366e-05 9.680343512580e-03 0.0 
0.0 0.0 0.0 
-1.586613441270e-03 6.892405126994e-05 0.0 
6.892405126994e-05 9.740019417888e-03 0.0 
0.0 0.0 0.0 
-1.629423160476e-03 8.379416027781e-05 0.0 
8.379416027781e-05 9.697526715597e-03 0.0 
0.0 0.0 0.0 
-1.683285560461e-03 1.112397851099e-04 0.0 
1.112397851099e-04 9.696788274397e-03 0.0 
0.0 0.0 0.0 
-1.736190380874e-03 1.531232445101e-04 0.0 
1.531232445101e-04 9.700566058372e-03 0.0 
0.0 0.0 0.0 
-1.811081203914e-03 2.064947824067e-04 0.0 
2.064947824067e-04 9.710696561072e-03 0.0 
0.0 0.0 0.0 
-1.888402311147e-03 2.757022003432e-04 0.0 
2.757022003432e-04 9.700624325633e-03 0.0 
0.0 0.0 0.0 
-1.966758655615e-03 3.647666117191e-04 0.0 
3.647666117191e-04 9.680468300464e-03 0.0 
0.0 0.0 0.0 
-2.047625632730e-03 4.746867570313e-04 0.0 
4.746867570313e-04 9.648089607666e-03 0.0 
0.0 0.0 0.0 
-2.123586832473e-03 6.141273954571e-04 0.0 
6.141273954571e-04 9.595321985720e-03 0.0 
0.0 0.0 0.0 
-2.193117818275e-03 7.827138895483e-04 0.0 
7.827138895483e-04 9.527710588395e-03 0.0 
0.0 0.0 0.0 
-3.133033370637e-03 1.346233008753e-03 0.0 
1.346233008753e-03 -3.066628068543e-03 0.0 
0.0 0.0 0.0 
-3.996458266330e-03 2.998926998896e-04 0.0 
2.998926998896e-04 -3.087134221965e-03 0.0 
0.0 0.0 0.0 
-4.415534807284e-03 -1.865844323424e-04 0.0 
-1.865844323424e-04 -2.922034976142e-03 0.0 
0.0 0.0 0.0 
-4.004844468340e-03 -8.873380722155e-04 0.0 
-8.873380722155e-04 -2.660062908627e-03 0.0 
0.0 0.0 0.0 
-2.830305357822e-03 -1.849072137325e-03 0.0 
-1.849072137325e-03 -1.217665782136e-03 0.0 
0.0 0.0 0.0 
-1.750892702038e-03 -1.388890151368e-03 0.0 
-1.388890151368e-03 1.980361024006e-04 0.0 
0.0 0.0 0.0 
-8.041119407057e-04 -4.365192728101e-04 0.0 
-4.365192728101e-04 2.735374436640e-04 0.0 
0.0 0.0 0.0 
-3.712378218374e-04 -1.497879918737e-04 0.0 
-1.497879918737e-04 2.507000631523e-04 0.0 
0.0 0.0 0.0 
-1.222354623453e-04 -9.980725363091e-05 0.0 
-9.980725363091e-05 2.097750103252e-04 0.0 
0.0 0.0 0.0 
1.900147186714e-04 -1.488796096562e-04 0.0 
-1.488796096562e-04 1.021330133144e-04 0.0 
0.0 0.0 0.0 
5.132410946315e-04 -1.629193718644e-04 0.0 
-1.629193718644e-04 -4.728440233252e-05 0.0 
0.0 0.0 0.0 
8.847087639122e-04 -1.832294896340e-04 0.0 
-1.832294896340e-04 -2.211595303432e-04 0.0 
0.0 0.0 0.0 
1.288104666908e-03 -1.729189975632e-04 0.0 
-1.729189975632e-04 -4.086494581229e-04 0.0 
0.0 0.0 0.0 
1.642107295119e-03 -1.646829461899e-04 0.0 
-1.646829461899e-04 -5.654765896314e-04 0.0 
0.0 0.0 0.0 
1.900461551075e-03 -1.308952389465e-04 0.0 
-1.308952389465e-04 -6.718791104057e-04 0.0 
0.0 0.0 0.0 
2.125299006176e-03 -9.890826903806e-05 0.0 
-9.890826903806e-05 -7.642301829071e-04 0.0 
0.0 0.0 0.0 
2.298465805989e-03 -7.816782833435e-05 0.0 
-7.816782833435e-05 -8.378743388557e-04 0.0 
0.0 0.0 0.0 
2.446094898882e-03 -4.746617132950e-05 0.0 
-4.746617132950e-05 -9.161145190390e-04 0.0 
0.0 0.0 0.0 
2.556620809130e-03 1.809684396646e-05 0.0 
1.809684396646e-05 -9.599011275858e-04 0.0 
0.0 0.0 0.0 
-1.612502822242e-03 1.280718280669e-03 0.0 
1.280718280669e-03 7.009543203539e-03 0.0 
0.0 0.0 0.0 
-1.139723232372e-03 1.031677869488e-03 0.0 
1.031677869488e-03 6.961372740691e-03 0.0 
0.0 0.0 0.0 
-9.523101556107e-04 7.181476725258e-04 0.0 
7.181476725258e-04 7.074374395141e-03 0.0 
0.0 0.0 0.0 
-9.064135602811e-04 4.708329699119e-04 0.0 
4.708329699119e-04 7.172441768075e-03 0.0 
0.0 0.0 0.0 
-9.054976283636e-04 2.992247497434e-04 0.0 
2.992247497434e-04 7.261346805687e-03 0.0 
0.0 0.0 0.0 
-9.366921702002e-04 1.640497718329e-04 0.0 
1.640497718329e-04 7.331942707322e-03 0.0 
0.0 0.0 0.0 
-9.876438406768e-04 5.997967880540e-05 0.0 
5.997967880540e-05 7.397636031958e-03 0.0 
0.0 0.0 0.0 
-1.045323726519e-03 -2.177840817491e-05 0.0 
-2.177840817491e-05 7.453420382760e-03 0.0 
0.0 0.0 0.0 
-1.089884807733e-03 -8.347495306126e-05 0.0 
-8.347495306126e-05 7.497992593863e-03 0.0 
0.0 0.0 0.0 
-1.115675966638e-03 -1.225359440557e-04 0.0 
-1.225359440557e-04 7.529087738661e-03 0.0 
0.0 0.0 0.0 
-1.144837381966e-03 -1.442912856035e-04 0.0 
-1.442912856035e-04 7.556055827045e-03 0.0 
0.0 0.0 0.0 
-1.173627238587e-03 -1.547203027209e-04 0.0 
-1.547203027209e-04 7.579065189455e-03 0.0 
0.0 0.0 0.0 
-1.200486909484e-03 -1.569550543505e-04 0.0 
-1.569550543505e-04 7.598834141254e-03 0.0 
0.0 0.0 0.0 
-1.224758111092e-03 -1.528633230177e-04 0.0 
-1.528633230177e-04 7.615930088845e-03 0.0 
0.0 0.0 0.0 
-1.245770164467e-03 -1.433048910486e-04 0.0 
-1.433048910486e-04 7.630415432647e-03 0.0 
0.0 0.0 0.0 
-1.262802289197e-03 -1.294723903555e-04 0.0 
-1.294723903555e-04 7.641971961888e-03 0.0 
0.0 0.0 0.0 
-1.275754198617e-03 -1.127851202173e-04 0.0 
-1.127851202173e-04 7.650940571427e-03 0.0 
0.0 0.0 0.0 
-1.284880931707e-03 -9.335137038215e-05 0.0 
-9.335137038215e-05 7.658096474148e-03 0.0 
0.0 0.0 0.0 
-1.290435175915e-03 -7.095816161673e-05 0.0 
-7.095816161673e-05 7.663895562557e-03 0.0 
0.0 0.0 0.0 
-1.292780621876e-03 -4.564925186898e-05 0.0 
-4.564925186898e-05 7.666986792020e-03 0.0 
0.0 0.0 0.0 
-1.307310910280e-03 -2.080543803505e-05 0.0 
-2.080543803505e-05 7.654279346206e-03 0.0 
0.0 0.0 0.0 
-1.332681013796e-03 1.265404761421e-05 0.0 
1.265404761421e-05 7.605016662804e-03 0.0 
0.0 0.0 0.0 
-1.365679861799e-03 -5.549117329570e-06 0.0 
-5.549117329570e-06 7.906499628207e-03 0.0 
0.0 0.0 0.0 
-1.349239652101e-03 -3.944669962168e-05 0.0 
-3.944669962168e-05 7.902929245706e-03 0.0 
0.0 0.0 0.0 
-1.347485856455e-03 -6.552838866457e-05 0.0 
-6.552838866457e-05 7.900801097973e-03 0.0 
0.0 0.0 0.0 
-1.346959859796e-03 -8.732449444997e-05 0.0 
-8.732449444997e-05 7.897199023336e-03 0.0 
0.0 0.0 0.0 
-1.347339780340e-03 -1.077542896783e-04 0.0 
-1.077542896783e-04 7.893491880553e-03 0.0 
0.0 0.0 0.0 
-1.347409303901e-03 -1.265339497123e-04 0.0 
-1.265339497123e-04 7.888936514590e-03 0.0 
0.0 0.0 0.0 
-1.345739976434e-03 -1.431106102362e-04 0.0 
-1.431106102362e-04 7.882654676236e-03 0.0 
0.0 0.0 0.0 
-1.343126267767e-03 -1.559790841852e-04 0.0 
-1.559790841852e-04 7.874209361687e-03 0.0 
0.0 0.0 0.0 
-1.339767789599e-03 -1.632573651909e-04 0.0 
-1.632573651909e-04 7.863629418236e-03 0.0 
0.0 0.0 0.0 
-1.336341369081e-03 -1.635186105758e-04 0.0 
-1.635186105758e-04 7.851287696306e-03 0.0 
0.0 0.0 0.0 
-1.334221725405e-03 -1.550393636972e-04 0.0 
-1.550393636972e-04 7.836774310839e-03 0.0 
0.0 0.0 0.0 
-1.334750977375e-03 -1.347252990942e-04 0.0 
-1.347252990942e-04 7.819132894893e-03 0.0 
0.0 0.0 0.0 
-1.339951632122e-03 -9.735657761345e-05 0.0 
-9.735657761345e-05 7.796692863387e-03 0.0 
0.0 0.0 0.0 
-1.338151623149e-03 -3.650794693281e-05 0.0 
-3.650794693281e-05 7.763998912971e-03 0.0 
0.0 0.0 0.0 
-1.319642938377e-03 4.931674061991e-05 0.0 
4.931674061991e-05 7.718127971984e-03 0.0 
0.0 0.0 0.0 
-1.304579550410e-03 1.650672767427e-04 0.0 
1.650672767427e-04 7.662508961018e-03 0.0 
0.0 0.0 0.0 
-1.302337581292e-03 3.162554646395e-04 0.0 
3.162554646395e-04 7.592621598986e-03 0.0 
0.0 0.0 0.0 
-1.312670393989e-03 5.207274422049e-04 0.0 
5.207274422049e-04 7.506893878129e-03 0.0 
0.0 0.0 0.0 
-1.392233041783e-03 8.370389638330e-04 0.0 
8.370389638330e-04 7.405046275255e-03 0.0 
0.0 0.0 0.0 
-1.444889697554e-03 1.083283209136e-03 0.0 
1.083283209136e-03 7.271763851937e-03 0.0 
0.0 0.0 0.0 
-1.778734643426e-03 1.009971992126e-03 0.0 
1.009971992126e-03 7.855944332174e-03 0.0 
0.0 0.0 0.0 
-1.777170088610e-03 7.850358703211e-04 0.0 
7.850358703211e-04 8.017472870787e-03 0.0 
0.0 0.0 0.0 
-1.728329374796e-03 5.026551610696e-04 0.0 
5.026551610696e-04 8.122682475965e-03 0.0 
0.0 0.0 0.0 
-1.709226014522e-03 3.143777144003e-04 0.0 
3.143777144003e-04 8.202075559256e-03 0.0 
0.0 0.0 0.0 
-1.690822633286e-03 1.757958729092e-04 0.0 
1.757958729092e-04 8.262831434333e-03 0.0 
0.0 0.0 0.0 
-1.666773184726e-03 7.304744320095e-05 0.0 
7.304744320095e-05 8.304715028591e-03 0.0 
0.0 0.0 0.0 
-1.626435446018e-03 -5.115646444376e-07 0.0 
-5.115646444376e-07 8.331877933542e-03 0.0 
0.0 0.0 0.0 
-1.586752850304e-03 -5.001118381257e-05 0.0 
-5.001118381257e-05 8.346855348247e-03 0.0 
0.0 0.0 0.0 
-1.553813673760e-03 -8.071408904731e-05 0.0 
-8.071408904731e-05 8.356320393288e-03 0.0 
0.0 0.0 0.0 
-1.526643274491e-03 -9.782102441726e-05 0.0 
-9.782102441726e-05 8.362706202534e-03 0.0 
0.0 0.0 0.0 
-1.503209360719e-03 -1.038911613860e-04 0.0 
-1.038911613860e-04 8.367144527371e-03 0.0 
0.0 0.0 0.0 
-1.481162316653e-03 -1.017719234446e-04 0.0 
-1.017719234446e-04 8.368975447755e-03 0.0 
0.0 0.0 0.0 
-1.462682657801e-03 -9.495515253184e-05 0.0 
-9.495515253184e-05 8.369221652501e-03 0.0 
0.0 0.0 0.0 
-1.446524324461e-03 -8.486513268978e-05 0.0 
-8.486513268978e-05 8.368656794256e-03 0.0 
0.0 0.0 0.0 
-1.431822669299e-03 -7.249775526458e-05 0.0 
-7.249775526458e-05 8.367658323144e-03 0.0 
0.0 0.0 0.0 
-1.421351984504e-03 -5.859831947840e-05 0.0 
-5.859831947840e-05 8.367562865749e-03 0.0 
0.0 0.0 0.0 
-1.414891533484e-03 -4.427577049177e-05 0.0 
-4.427577049177e-05 8.367852688184e-03 0.0 
0.0 0.0 0.0 
-1.411403585148e-03 -3.077967580127e-05 0.0 
-3.077967580127e-05 8.366736438404e-03 0.0 
0.0 0.0 0.0 
-1.411456625937e-03 2.182914634399e-06 0.0 
2.182914634399e-06 8.363630742144e-03 0.0 
0.0 0.0 0.0 
-1.452452506260e-03 -4.573408028596e-06 0.0 
-4.573408028596e-06 8.816826858507e-03 0.0 
0.0 0.0 0.0 
-1.459821614006e-03 -2.857811657352e-05 0.0 
-2.857811657352e-05 8.821204494593e-03 0.0 
0.0 0.0 0.0 
-1.471347626142e-03 -3.985967657006e-05 0.0 
-3.985967657006e-05 8.823933899864e-03 0.0 
0.0 0.0 0.0 
-1.487577156907e-03 -4.719090212056e-05 0.0 
-4.719090212056e-05 8.826573309992e-03 0.0 
0.0 0.0 0.0 
-1.509179687727e-03 -5.159512387994e-05 0.0 
-5.159512387994e-05 8.830076262795e-03 0.0 
0.0 0.0 0.0 
-1.537490585205e-03 -5.377660394610e-05 0.0 
-5.377660394610e-05 8.834924037679e-03 0.0 
0.0 0.0 0.0 
-1.570764678606e-03 -5.102737876253e-05 0.0 
-5.102737876253e-05 8.839544512718e-03 0.0 
0.0 0.0 0.0 
-1.612543053300e-03 -4.372888736031e-05 0.0 
-4.372888736031e-05 8.844199997790e-03 0.0 
0.0 0.0 0.0 
-1.657214964437e-03 -2.808759160619e-05 0.0 
-2.808759160619e-05 8.845200794288e-03 0.0 
0.0 0.0 0.0 
-1.705311116358e-03 -1.113549878071e-06 0.0 
-1.113549878071e-06 8.842743948795e-03 0.0 
0.0 0.0 0.0 
-1.756886702372e-03 3.974460834307e-05 0.0 
3.974460834307e-05 8.835399055471e-03 0.0 
0.0 0.0 0.0 
-1.816240825903e-03 1.008935415942e-04 0.0 
1.008935415942e-04 8.820892747236e-03 0.0 
0.0 0.0 0.0 
-1.881436958793e-03 1.868028028221e-04 0.0 
1.868028028221e-04 8.795476589691e-03 0.0 
0.0 0.0 0.0 
-1.939623989563e-03 3.021550711590e-04 0.0 
3.021550711590e-04 8.748725045737e-03 0.0 
0.0 0.0 0.0 
-1.972061588721e-03 4.602314075627e-04 0.0 
4.602314075627e-04 8.678861692579e-03 0.0 
0.0 0.0 0.0 
-2.020580754005e-03 6.977700218769e-04 0.0 
6.977700218769e-04 8.589604411543e-03 0.0 
0.0 0.0 0.0 
-2.029031009582e-03 8.864283244046e-04 0.0 
8.864283244046e-04 8.434970141017e-03 0.0 
0.0 0.0 0.0 
-2.173397116849e-03 8.101475637713e-04 0.0 
8.101475637713e-04 8.979724997048e-03 0.0 
0.0 0.0 0.0 
-2.149812680824e-03 6.618866744184e-04 0.0 
6.618866744184e-04 9.126005931177e-03 0.0 
0.0 0.0 0.0 
-2.081956777929e-03 4.747617658248e-04 0.0 
4.747617658248e-04 9.200479278888e-03 0.0 
0.0 0.0 0.0 
-2.008025422401e-03 3.488109618451e-04 0.0 
3.488109618451e-04 9.246855430092e-03 0.0 
0.0 0.0 0.0 
-1.934484845789e-03 2.504074345438e-04 0.0 
2.504074345438e-04 9.275997047885e-03 0.0 
0.0 0.0 0.0 
-1.864290334746e-03 1.751089641115e-04 0.0 
1.751089641115e-04 9.291483505606e-03 0.0 
0.0 0.0 0.0 
-1.797541250820e-03 1.176486029152e-04 0.0 
1.176486029152e-04 9.297251314620e-03 0.0 
0.0 0.0 0.0 
-1.732513684499e-03 7.381656334583e-05 0.0 
7.381656334583e-05 9.297157080999e-03 0.0 
0.0 0.0 0.0 
-1.673319823580e-03 4.465266081023e-05 0.0 
4.465266081023e-05 9.293179040173e-03 0.0 
0.0 0.0 0.0 
-1.624534877539e-03 2.181479325248e-05 0.0 
2.181479325248e-05 9.286088314406e-03 0.0 
0.0 0.0 0.0 
-1.582633934720e-03 9.094603802609e-06 0.0 
9.094603802609e-06 9.280442166011e-03 0.0 
0.0 0.0 0.0 
-1.549772869253e-03 -1.132296935669e-06 0.0 
-1.132296935669e-06 9.274101598159e-03 0.0 
0.0 0.0 0.0 
-1.523506960413e-03 -5.363628095631e-06 0.0 
-5.363628095631e-06 9.270708743275e-03 0.0 
0.0 0.0 0.0 
-1.501978826738e-03 -7.459519016721e-06 0.0 
-7.459519016721e-06 9.265227416244e-03 0.0 
0.0 0.0 0.0 
-1.487608284386e-03 -1.038113645762e-05 0.0 
-1.038113645762e-05 9.263864955492e-03 0.0 
0.0 0.0 0.0 
-1.485233592975e-03 1.413135058310e-05 0.0 
1.413135058310e-05 9.264782903830e-03 0.0 
0.0 0.0 0.0 
-2.082777009773e-03 4.194690314902e-03 0.0 
4.194690314902e-03 -2.513834060990e-04 0.0 
0.0 0.0 0.0 
-1.634011303625e-03 3.404199050933e-03 0.0 
3.404199050933e-03 1.452889070200e-03 0.0 
0.0 0.0 0.0 
-1.429267556343e-03 3.381952099611e-03 0.0 
3.381952099611e-03 2.684306233188e-03 0.0 
0.0 0.0 0.0 
-1.433202959584e-03 3.274110693172e-03 0.0 
3.274110693172e-03 3.866374799537e-03 0.0 
0.0 0.0 0.0 
-1.815942988464e-03 3.166539997471e-03 0.0 
3.166539997471e-03 5.245584273517e-03 0.0 
0.0 0.0 0.0 
-1.869337596153e-03 1.907436161611e-03 0.0 
1.907436161611e-03 6.908111484011e-03 0.0 
0.0 0.0 0.0 
-1.793739717480e-03 1.618703841250e-03 0.0 
1.618703841250e-03 7.437555996989e-03 0.0 
0.0 0.0 0.0 
-2.000744305973e-03 1.376421989227e-03 0.0 
1.376421989227e-03 8.032235788139e-03 0.0 
0.0 0.0 0.0 
-2.179088954769e-03 1.182287349884e-03 0.0 
1.182287349884e-03 8.627725222403e-03 0.0 
0.0 0.0 0.0 
-2.274195334368e-03 1.062431774794e-03 0.0 
1.062431774794e-03 9.191181851383e-03 0.0 
0.0 0.0 0.0 
-1.183612586230e-03 3.619738415460e-03 0.0 
3.619738415460e-03 1.396676886169e-03 0.0 
0.0 0.0 0.0 
5.890346453037e-04 1.425201048254e-03 0.0 
1.425201048254e-03 4.120281406825e-03 0.0 
0.0 0.0 0.0 
-2.740721460771e-04 -4.018159387108e-04 0.0 
-4.018159387108e-04 3.751123386699e-04 0.0 
0.0 0.0 0.0 
-1.627490220769e-03 -1.882515100977e-03 0.0 
-1.882515100977e-03 -2.733527797315e-03 0.0 
0.0 0.0 0.0 
3.553467859493e-04 -5.704035362755e-05 0.0 
-5.704035362755e-05 4.298241522907e-03 0.0 
0.0 0.0 0.0 
-1.242035524085e-03 3.417617954839e-03 0.0 
3.417617954839e-03 3.982435375385e-03 0.0 
0.0 0.0 0.0 
-1.318323324877e-03 -2.494628071326e-04 0.0 
-2.494628071326e-04 3.716377744014e-03 0.0 
0.0 0.0 0.0 
5.151733774399e-04 2.784622534641e-03 0.0 
2.784622534641e-03 5.032133736809e-03 0.0 
0.0 0.0 0.0 
-1.697766604646e-03 2.562284047530e-03 0.0 
2.562284047530e-03 6.555699651359e-03 0.0 
0.0 0.0 0.0 
2.177492633858e-04 3.675096004071e-03 0.0 
3.675096004071e-03 6.788009049324e-03 0.0 
0.0 0.0 0.0 
-2.110005074292e-03 1.723436123758e-03 0.0 
1.723436123758e-03 8.125620028982e-03 0.0 
0.0 0.0 0.0 
5.862974464129e-05 -5.500654688508e-04 0.0 
-5.500654688508e-04 5.098547410432e-03 0.0 
0.0 0.0 0.0 
1.134669898058e-03 -2.903557549208e-04 0.0 
-2.903557549208e-04 -2.381088369237e-04 0.0 
0.0 0.0 0.0 
-1.094471217735e-04 3.781267604401e-03 0.0 
3.781267604401e-03 8.823958808853e-03 0.0 
0.0 0.0 0.0 
-2.315263749812e-03 1.313468130003e-03 0.0 
1.313468130003e-03 9.399617579741e-03 0.0 
0.0 0.0 0.0 
-1.001713339000e-03 -2.040926086165e-04 0.0 
-2.040926086165e-04 2.658177316675e-03 0.0 
0.0 0.0 0.0 
-1.074141373853e-03 -2.145928841590e-04 0.0 
-2.145928841590e-04 4.320300960269e-03 0.0 
0.0 0.0 0.0 
-3.006132377896e-04 3.388783926319e-03 0.0 
3.388783926319e-03 1.013839054251e-02 0.0 
0.0 0.0 0.0 
-3.523524110148e-04 2.570789370097e-03 0.0 
2.570789370097e-03 1.142463460516e-02 0.0 
0.0 0.0 0.0 
-2.743061212497e-04 8.125700476669e-04 0.0 
8.125700476669e-04 1.253901169450e-02 0.0 
0.0 0.0 0.0 
-3.439988832011e-04 1.337623369988e-03 0.0 
1.337623369988e-03 1.232829622023e-02 0.0 
0.0 0.0 0.0 
-3.406831552701e-04 1.932560996382e-03 0.0 
1.932560996382e-03 1.199834393729e-02 0.0 
0.0 0.0 0.0 
-2.172924634963e-03 8.893198206469e-04 0.0 
8.893198206469e-04 9.865283313729e-03 0.0 
0.0 0.0 0.0 
-1.856362326197e-03 3.740740503959e-04 0.0 
3.740740503959e-04 1.006322705145e-02 0.0 
0.0 0.0 0.0 
-1.661684439804e-03 1.921537786694e-04 0.0 
1.921537786694e-04 1.010805887834e-02 0.0 
0.0 0.0 0.0 
-1.198673618044e-03 6.053588110644e-05 0.0 
6.053588110644e-05 1.138427743616e-02 0.0 
0.0 0.0 0.0 
-1.040369785258e-04 -4.912645304470e-04 0.0 
-4.912645304470e-04 5.576126310702e-03 0.0 
0.0 0.0 0.0 
-1.740115061428e-03 1.059093647459e-03 0.0 
1.059093647459e-03 -3.684766821359e-03 0.0 
0.0 0.0 0.0 
1.824875121681e-03 -1.500102497029e-04 0.0 
-1.500102497029e-04 -5.105025182077e-04 0.0 
0.0 0.0 0.0 
-6.751808802435e-04 -1.328310589899e-04 0.0 
-1.328310589899e-04 5.157924316382e-03 0.0 
0.0 0.0 0.0 
-1.528555186990e-03 7.559740391540e-05 0.0 
7.559740391540e-05 1.004824723151e-02 0.0 
0.0 0.0 0.0 
3.444988157093e-04 -1.050245160404e-04 0.0 
-1.050245160404e-04 1.135219052726e-03 0.0 
0.0 0.0 0.0 
-3.930744040341e-04 2.959405713595e-03 0.0 
2.959405713595e-03 1.085077080748e-02 0.0 
0.0 0.0 0.0 
3.519645146648e-04 3.332360182834e-03 0.0 
3.332360182834e-03 5.897344040229e-03 0.0 
0.0 0.0 0.0 
4.249213097133e-05 3.831155448703e-03 0.0 
3.831155448703e-03 7.818022416425e-03 0.0 
0.0 0.0 0.0 
6.204055665817e-04 2.180511466381e-03 0.0 
2.180511466381e-03 4.445025864573e-03 0.0 
0.0 0.0 0.0 
5.000015269595e-04 7.477580121167e-04 0.0 
7.477580121167e-04 4.053138356946e-03 0.0 
0.0 0.0 0.0 
-1.288187373562e-03 -1.619421720626e-03 0.0 
-1.619421720626e-03 4.625525267942e-04 0.0 
0.0 0.0 0.0 
-2.017449222745e-03 5.775764386292e-04 0.0 
5.775764386292e-04 9.993588184654e-03 0.0 
0.0 0.0 0.0 
2.308642927533e-04 -4.030723743785e-04 0.0 
-4.030723743785e-04 4.575649226435e-03 0.0 
0.0 0.0 0.0 
-8.842317315363e-04 8.977951136072e-05 0.0 
8.977951136072e-05 1.197330457623e-02 0.0 
0.0 0.0 0.0 
3.885148028464e-04 -3.041289520188e-04 0.0 
-3.041289520188e-04 1.047612523883e-04 0.0 
0.0 0.0 0.0 
-1.309812576606e-03 -2.497384123226e-04 0.0 
-2.497384123226e-04 3.251541217566e-03 0.0 
0.0 0.0 0.0 
-2.228458576058e-04 5.088662292792e-04 0.0 
5.088662292792e-04 1.263817060356e-02 0.0 
0.0 0.0 0.0 
-1.544444304546e-03 3.223086348709e-03 0.0 
3.223086348709e-03 5.303120595213e-03 0.0 
0.0 0.0 0.0 
-1.108405462563e-03 3.566394458789e-03 0.0 
3.566394458789e-03 2.691617596989e-03 0.0 
0.0 0.0 0.0 
-1.909156674142e-03 2.099159604784e-03 0.0 
2.099159604784e-03 7.413114868656e-03 0.0 
0.0 0.0 0.0 
-2.250057664380e-03 1.474759561572e-03 0.0 
1.474759561572e-03 8.788244036844e-03 0.0 
0.0 0.0 0.0 
-1.566939760151e-03 4.036297280462e-03 0.0 
4.036297280462e-03 -2.265059235911e-04 0.0 
0.0 0.0 0.0 
-1.395863741585e-03 3.883826247452e-05 0.0 
3.883826247452e-05 1.072612461395e-02 0.0 
0.0 0.0 0.0 
-1.458397417750e-04 -3.123955744390e-04 0.0 
-3.123955744390e-04 5.857091155028e-03 0.0 
0.0 0.0 0.0 
2.089699050833e-03 -5.451965411691e-05 0.0 
-5.451965411691e-05 -6.470235059434e-04 0.0 
0.0 0.0 0.0 
-4.344515347026e-04 1.289896210479e-04 0.0 
1.289896210479e-04 1.247620841020e-02 0.0 
0.0 0.0 0.0 
-2.305613067067e-03 1.266505846338e-03 0.0 
1.266505846338e-03 9.654980842288e-03 0.0 
0.0 0.0 0.0 
-2.275541964358e-03 1.557100748840e-03 0.0 
1.557100748840e-03 9.609472835895e-03 0.0 
0.0 0.0 0.0 
-2.212849268726e-03 1.427428520721e-03 0.0 
1.427428520721e-03 9.901609757127e-03 0.0 
0.0 0.0 0.0 
-2.156023365432e-03 1.778050219239e-03 0.0 
1.778050219239e-03 9.783047434025e-03 0.0 
0.0 0.0 0.0 
-2.077349390964e-03 1.656139050273e-03 0.0 
1.656139050273e-03 1.009035182287e-02 0.0 
0.0 0.0 0.0 
-1.986927983939e-03 1.953796032268e-03 0.0 
1.953796032268e-03 9.944741561872e-03 0.0 
0.0 0.0 0.0 
-2.050099749918e-03 2.101192954045e-03 0.0 
2.101192954045e-03 9.603170383703e-03 0.0 
0.0 0.0 0.0 
-1.852853537613e-03 2.252754298656e-03 0.0 
2.252754298656e-03 9.741618847216e-03 0.0 
0.0 0.0 0.0 
-1.885000936928e-03 2.420607201434e-03 0.0 
2.420607201434e-03 9.346605367259e-03 0.0 
0.0 0.0 0.0 
-1.911230190845e-03 1.838677929913e-03 0.0 
1.838677929913e-03 1.026450650080e-02 0.0 
0.0 0.0 0.0 
-1.670594581041e-03 2.539200987088e-03 0.0 
2.539200987088e-03 9.474895444882e-03 0.0 
0.0 0.0 0.0 
-1.666682133596e-03 2.719587818891e-03 0.0 
2.719587818891e-03 9.020753440417e-03 0.0 
0.0 0.0 0.0 
-1.445000404256e-03 2.804152548832e-03 0.0 
2.804152548832e-03 9.148084110976e-03 0.0 
0.0 0.0 0.0 
-1.401478685580e-03 2.987482571837e-03 0.0 
2.987482571837e-03 8.633953772007e-03 0.0 
0.0 0.0 0.0 
-1.610625814895e-03 2.921908788740e-03 0.0 
2.921908788740e-03 8.513923491037e-03 0.0 
0.0 0.0 0.0 
-1.304992554288e-03 3.194709857524e-03 0.0 
3.194709857524e-03 8.061836730037e-03 0.0 
0.0 0.0 0.0 
-1.495500703498e-03 3.119624530465e-03 0.0 
3.119624530465e-03 7.946638216748e-03 0.0 
0.0 0.0 0.0 
-1.142965486893e-03 3.395034616971e-03 0.0 
3.395034616971e-03 7.422909878843e-03 0.0 
0.0 0.0 0.0 
-9.612688180963e-04 3.407630833557e-03 0.0 
3.407630833557e-03 7.565193005308e-03 0.0 
0.0 0.0 0.0 
-7.502155218024e-04 3.598778051909e-03 0.0 
3.598778051909e-03 6.855240636428e-03 0.0 
0.0 0.0 0.0 
-9.118232245597e-04 3.578816729555e-03 0.0 
3.578816729555e-03 6.714194763469e-03 0.0 
0.0 0.0 0.0 
-4.749946052334e-04 3.765335121408e-03 0.0 
3.765335121408e-03 6.077493693021e-03 0.0 
0.0 0.0 0.0 
-6.238119099493e-04 3.755351778804e-03 0.0 
3.755351778804e-03 5.941776314544e-03 0.0 
0.0 0.0 0.0 
-1.426265066327e-04 3.902116053633e-03 0.0 
3.902116053633e-03 5.239946888500e-03 0.0 
0.0 0.0 0.0 
-2.753032229378e-04 3.908779737783e-03 0.0 
3.908779737783e-03 5.106743446400e-03 0.0 
0.0 0.0 0.0 
2.459471431482e-04 4.000280972126e-03 0.0 
4.000280972126e-03 4.350726824919e-03 0.0 
0.0 0.0 0.0 
3.467442833115e-04 3.958077842521e-03 0.0 
3.958077842521e-03 4.544041464222e-03 0.0 
0.0 0.0 0.0 
7.665524718584e-04 3.999349301200e-03 0.0 
3.999349301200e-03 3.615359092573e-03 0.0 
0.0 0.0 0.0 
6.857256382568e-04 4.045861049338e-03 0.0 
4.045861049338e-03 3.431771862024e-03 0.0 
0.0 0.0 0.0 
1.225600963890e-03 3.970089165325e-03 0.0 
3.970089165325e-03 2.676483713062e-03 0.0 
0.0 0.0 0.0 
1.150808834787e-03 4.020539659268e-03 0.0 
4.020539659268e-03 2.516119902140e-03 0.0 
0.0 0.0 0.0 
1.719514916772e-03 3.870981507279e-03 0.0 
3.870981507279e-03 1.749259188888e-03 0.0 
0.0 0.0 0.0 
1.733994619500e-03 3.811105337488e-03 0.0 
3.811105337488e-03 1.985969935226e-03 0.0 
0.0 0.0 0.0 
2.270282264701e-03 3.660748287729e-03 0.0 
3.660748287729e-03 1.035647517379e-03 0.0 
0.0 0.0 0.0 
2.295310015658e-03 3.761246463882e-03 0.0 
3.761246463882e-03 7.855176583580e-04 0.0 
0.0 0.0 0.0 
2.891866321488e-03 3.492096258750e-03 0.0 
3.492096258750e-03 3.591602783389e-05 0.0 
0.0 0.0 0.0 
2.916917655891e-03 3.628611681297e-03 0.0 
3.628611681297e-03 -1.888534775918e-04 0.0 
0.0 0.0 0.0 
3.504888137345e-03 3.237264932488e-03 0.0 
3.237264932488e-03 -8.911310232934e-04 0.0 
0.0 0.0 0.0 
3.511100853332e-03 3.361234593226e-03 0.0 
3.361234593226e-03 -1.041218850660e-03 0.0 
0.0 0.0 0.0 
4.044380211625e-03 2.843624262947e-03 0.0 
2.843624262947e-03 -1.657998656261e-03 0.0 
0.0 0.0 0.0 
3.957123709763e-03 2.740384198353e-03 0.0 
2.740384198353e-03 -1.453468751105e-03 0.0 
0.0 0.0 0.0 
4.403741904821e-03 2.245322825556e-03 0.0 
2.245322825556e-03 -2.118233565304e-03 0.0 
0.0 0.0 0.0 
4.458594557126e-03 2.334633582930e-03 0.0 
2.334633582930e-03 -2.309089110657e-03 0.0 
0.0 0.0 0.0 
4.701663173274e-03 1.646960179166e-03 0.0 
1.646960179166e-03 -2.629560791428e-03 0.0 
0.0 0.0 0.0 
4.574063265953e-03 1.614618636798e-03 0.0 
1.614618636798e-03 -2.400090071685e-03 0.0 
0.0 0.0 0.0 
4.738644349486e-03 9.692623894707e-04 0.0 
9.692623894707e-04 -2.765700179273e-03 0.0 
0.0 0.0 0.0 
4.552342116050e-03 9.896423515091e-04 0.0 
9.896423515091e-04 -2.484639593567e-03 0.0 
0.0 0.0 0.0 
4.574392318104e-03 3.343749648119e-04 0.0 
3.343749648119e-04 -2.720641061601e-03 0.0 
0.0 0.0 0.0 
4.716813410800e-03 2.638522640248e-04 0.0 
2.638522640248e-04 -2.977224542221e-03 0.0 
0.0 0.0 0.0 
4.410920240340e-03 -3.406380051469e-04 0.0 
-3.406380051469e-04 -2.777322085875e-03 0.0 
0.0 0.0 0.0 
4.207170292404e-03 -2.101462665304e-04 0.0 
-2.101462665304e-04 -2.428815707298e-03 0.0 
0.0 0.0 0.0 
3.922259703028e-03 -8.150430936194e-04 0.0 
-8.150430936194e-04 -2.355435498212e-03 0.0 
0.0 0.0 0.0 
4.085384248375e-03 -1.009598925654e-03 0.0 
-1.009598925654e-03 -2.679168131499e-03 0.0 
0.0 0.0 0.0 
3.502892281673e-03 -1.365905127717e-03 0.0 
-1.365905127717e-03 -2.121483323405e-03 0.0 
0.0 0.0 0.0 
3.324610610281e-03 -1.129531852556e-03 0.0 
-1.129531852556e-03 -1.745767896889e-03 0.0 
0.0 0.0 0.0 
2.904350190884e-03 -1.570524994659e-03 0.0 
-1.570524994659e-03 -1.473460883862e-03 0.0 
0.0 0.0 0.0 
2.997902172460e-03 -1.826610113575e-03 0.0 
-1.826610113575e-03 -1.772816442554e-03 0.0 
0.0 0.0 0.0 
2.457119682544e-03 -1.948961322349e-03 0.0 
-1.948961322349e-03 -1.130085771151e-03 0.0 
0.0 0.0 0.0 
2.440469722632e-03 -1.739021102293e-03 0.0 
-1.739021102293e-03 -9.346121878960e-04 0.0 
0.0 0.0 0.0 
2.025884863698e-03 -2.048306579089e-03 0.0 
-2.048306579089e-03 -6.056956383512e-04 0.0 
0.0 0.0 0.0 
1.997886481160e-03 -2.250489880267e-03 0.0 
-2.250489880267e-03 -7.432969269404e-04 0.0 
0.0 0.0 0.0 
1.583217478351e-03 -2.273958747510e-03 0.0 
-2.273958747510e-03 -2.204062770094e-04 0.0 
0.0 0.0 0.0 
1.577067168535e-03 -2.076521565569e-03 0.0 
-2.076521565569e-03 -3.535651624842e-05 0.0 
0.0 0.0 0.0 
1.151239084851e-03 -2.224229650659e-03 0.0 
-2.224229650659e-03 3.410954182814e-04 0.0 
0.0 0.0 0.0 
1.128958632932e-03 -2.035708807888e-03 0.0 
-2.035708807888e-03 5.817635420040e-04 0.0 
0.0 0.0 0.0 
1.126713316682e-03 -2.399534167035e-03 0.0 
-2.399534167035e-03 1.974928260809e-04 0.0 
0.0 0.0 0.0 
7.270082497102e-04 -2.283592069608e-03 0.0 
-2.283592069608e-03 7.341436999837e-04 0.0 
0.0 0.0 0.0 
6.823813915993e-04 -2.415228501893e-03 0.0 
-2.415228501893e-03 6.211142863443e-04 0.0 
0.0 0.0 0.0 
3.218750443214e-04 -2.248519261615e-03 0.0 
-2.248519261615e-03 1.120981751470e-03 0.0 
0.0 0.0 0.0 
2.203424942099e-03 3.592761769515e-03 0.0 
3.592761769515e-03 1.373089059876e-03 0.0 
0.0 0.0 0.0 
2.751846940992e-04 -2.319248313918e-03 0.0 
-2.319248313918e-03 1.017951403078e-03 0.0 
0.0 0.0 0.0 
5.944223177324e-04 -2.482151437145e-03 0.0 
-2.482151437145e-03 5.622964031609e-04 0.0 
0.0 0.0 0.0 
-3.766719563005e-05 -2.123137818107e-03 0.0 
-2.123137818107e-03 1.470657888556e-03 0.0 
0.0 0.0 0.0 
-1.451408430705e-05 -2.047536748858e-03 0.0 
-2.047536748858e-03 1.617566637661e-03 0.0 
0.0 0.0 0.0 
-6.513011809976e-05 -2.129708929131e-03 0.0 
-2.129708929131e-03 1.354988342451e-03 0.0 
0.0 0.0 0.0 
-3.311877712093e-04 -1.923406543693e-03 0.0 
-1.923406543693e-03 1.759702857207e-03 0.0 
0.0 0.0 0.0 
-3.201769806023e-04 -1.871736860134e-03 0.0 
-1.871736860134e-03 1.615806651281e-03 0.0 
0.0 0.0 0.0 
2.843578488238e-03 3.756418286281e-03 0.0 
3.756418286281e-03 -2.887796949151e-04 0.0 
0.0 0.0 0.0 
-5.929420667158e-04 3.551071743753e-03 0.0 
3.551071743753e-03 7.042649417872e-03 0.0 
0.0 0.0 0.0 
-5.454138692497e-04 -1.666030052254e-03 0.0 
-1.666030052254e-03 1.973807202699e-03 0.0 
0.0 0.0 0.0 
-4.768765863304e-04 -1.566007459436e-03 0.0 
-1.566007459436e-03 1.783037413860e-03 0.0 
0.0 0.0 0.0 
-2.966979935818e-04 -1.745418789543e-03 0.0 
-1.745418789543e-03 1.475487310401e-03 0.0 
0.0 0.0 0.0 
-3.719793439212e-04 -1.394595092730e-03 0.0 
-1.394595092730e-03 1.570203396157e-03 0.0 
0.0 0.0 0.0 
-1.991870602350e-03 1.567412947664e-03 0.0 
1.567412947664e-03 1.036564249233e-02 0.0 
0.0 0.0 0.0 
-1.805799546949e-03 1.742552140026e-03 0.0 
1.742552140026e-03 1.056334762289e-02 0.0 
0.0 0.0 0.0 
-1.878316751950e-03 1.473136907650e-03 0.0 
1.473136907650e-03 1.063402470333e-02 0.0 
0.0 0.0 0.0 
-1.688608825259e-03 1.661331313111e-03 0.0 
1.661331313111e-03 1.084688622890e-02 0.0 
0.0 0.0 0.0 
-1.755306450905e-03 1.408222617918e-03 0.0 
1.408222617918e-03 1.089350844186e-02 0.0 
0.0 0.0 0.0 
-5.252591985864e-04 -1.239837167412e-03 0.0 
-1.239837167412e-03 1.846879708535e-03 0.0 
0.0 0.0 0.0 
-1.442338274845e-03 2.655377202463e-03 0.0 
2.655377202463e-03 9.613780828476e-03 0.0 
0.0 0.0 0.0 
-1.594035460631e-03 1.919728638307e-03 0.0 
1.919728638307e-03 1.075150685413e-02 0.0 
0.0 0.0 0.0 
-1.077129380907e-03 3.518138352350e-03 0.0 
3.518138352350e-03 6.623941496682e-03 0.0 
0.0 0.0 0.0 
5.761159129845e-04 4.079646642488e-03 0.0 
4.079646642488e-03 3.331822514013e-03 0.0 
0.0 0.0 0.0 
4.339756210819e-03 1.593060802876e-03 0.0 
1.593060802876e-03 -2.048869448393e-03 0.0 
0.0 0.0 0.0 
-5.807626411825e-04 -1.696194871559e-03 0.0 
-1.696194871559e-03 2.153861292964e-03 0.0 
0.0 0.0 0.0 
-7.584584179759e-04 -1.447419825758e-03 0.0 
-1.447419825758e-03 2.322301670607e-03 0.0 
0.0 0.0 0.0 
-7.997686343082e-04 -1.454904430624e-03 0.0 
-1.454904430624e-03 2.525191642017e-03 0.0 
0.0 0.0 0.0 
1.523603461840e-03 -1.877270395794e-03 0.0 
-1.877270395794e-03 2.597038434370e-04 0.0 
0.0 0.0 0.0 
1.090847977676e-03 -1.831783983204e-03 0.0 
-1.831783983204e-03 9.125882610771e-04 0.0 
0.0 0.0 0.0 
1.457811230395e-03 -1.657865174945e-03 0.0 
-1.657865174945e-03 6.552247910808e-04 0.0 
0.0 0.0 0.0 
1.056391550636e-03 -1.591859132701e-03 0.0 
-1.591859132701e-03 1.315646848056e-03 0.0 
0.0 0.0 0.0 
1.387401396527e-03 -1.384668250522e-03 0.0 
-1.384668250522e-03 1.134908013551e-03 0.0 
0.0 0.0 0.0 
1.008671963200e-03 -1.309618746193e-03 0.0 
-1.309618746193e-03 1.780519594355e-03 0.0 
0.0 0.0 0.0 
6.990947280074e-04 -1.474083313049e-03 0.0 
-1.474083313049e-03 1.943669323260e-03 0.0 
0.0 0.0 0.0 
6.675251775253e-04 -1.204999553653e-03 0.0 
-1.204999553653e-03 2.388149361194e-03 0.0 
0.0 0.0 0.0 
3.856269196996e-04 -1.326274280322e-03 0.0 
-1.326274280322e-03 2.528253897000e-03 0.0 
0.0 0.0 0.0 
1.281666352017e-03 -1.074044658552e-03 0.0 
-1.074044658552e-03 1.678916669271e-03 0.0 
0.0 0.0 0.0 
1.675823097165e-03 -1.094566042899e-03 0.0 
-1.094566042899e-03 1.035362586135e-03 0.0 
0.0 0.0 0.0 
3.708035663839e-04 -1.083101344834e-03 0.0 
-1.083101344834e-03 2.950945307531e-03 0.0 
0.0 0.0 0.0 
1.167537578966e-04 -1.163142879039e-03 0.0 
-1.163142879039e-03 3.065365612378e-03 0.0 
0.0 0.0 0.0 
1.209836790541e-04 -9.519286069703e-04 0.0 
-9.519286069703e-04 3.467171421589e-03 0.0 
0.0 0.0 0.0 
-1.111419425212e-04 -9.959957545651e-04 0.0 
-9.959957545651e-04 3.553933753926e-03 0.0 
0.0 0.0 0.0 
-1.539120910409e-04 -1.188593131562e-03 0.0 
-1.188593131562e-03 3.201132882814e-03 0.0 
0.0 0.0 0.0 
-3.516214751511e-04 -9.919859572787e-04 0.0 
-9.919859572787e-04 3.650958235493e-03 0.0 
0.0 0.0 0.0 
-4.142441102679e-04 -1.165064763851e-03 0.0 
-1.165064763851e-03 3.336566419221e-03 0.0 
0.0 0.0 0.0 
4.237844434414e-03 1.014103662727e-03 0.0 
1.014103662727e-03 -2.019908721008e-03 0.0 
0.0 0.0 0.0 
3.951836605994e-03 1.601899774927e-03 0.0 
1.601899774927e-03 -1.418963679529e-03 0.0 
0.0 0.0 0.0 
3.764174930663e-03 1.071289858331e-03 0.0 
1.071289858331e-03 -1.210681219148e-03 0.0 
0.0 0.0 0.0 
3.446182988861e-03 1.607041278735e-03 0.0 
1.607041278735e-03 -4.680597222906e-04 0.0 
0.0 0.0 0.0 
3.249788876862e-03 1.162246358524e-03 0.0 
1.162246358524e-03 -2.376162920750e-04 0.0 
0.0 0.0 0.0 
2.954539128565e-03 1.622414709452e-03 0.0 
1.622414709452e-03 4.522977700538e-04 0.0 
0.0 0.0 0.0 
2.787425622157e-03 1.259852965492e-03 0.0 
1.259852965492e-03 6.296029630324e-04 0.0 
0.0 0.0 0.0 
3.005133379501e-03 7.952608657035e-04 0.0 
7.952608657035e-04 5.114581077803e-05 0.0 
0.0 0.0 0.0 
-1.185082416803e-03 3.040893191148e-03 0.0 
3.040893191148e-03 8.768732544380e-03 0.0 
0.0 0.0 0.0 
4.738928929811e-03 1.702750092110e-03 0.0 
1.702750092110e-03 -2.879606194573e-03 0.0 
0.0 0.0 0.0 
4.405902908528e-03 2.430203492916e-03 0.0 
2.430203492916e-03 -2.494377663815e-03 0.0 
0.0 0.0 0.0 
4.664646554225e-03 1.753725071643e-03 0.0 
1.753725071643e-03 -3.095297952623e-03 0.0 
0.0 0.0 0.0 
4.248696910798e-03 2.536548161724e-03 0.0 
2.536548161724e-03 -2.626765431403e-03 0.0 
0.0 0.0 0.0 
4.467933470025e-03 1.848721122430e-03 0.0 
1.848721122430e-03 -3.260706389660e-03 0.0 
0.0 0.0 0.0 
3.971051829821e-03 2.707361547477e-03 0.0 
2.707361547477e-03 -2.711808515328e-03 0.0 
0.0 0.0 0.0 
4.153414957038e-03 1.983422717123e-03 0.0 
1.983422717123e-03 -3.432574152385e-03 0.0 
0.0 0.0 0.0 
4.484761620236e-03 9.889991794516e-04 0.0 
9.889991794516e-04 -3.757240372049e-03 0.0 
0.0 0.0 0.0 
4.096054865117e-03 1.039570692420e-03 0.0 
1.039570692420e-03 -4.004517509878e-03 0.0 
0.0 0.0 0.0 
4.277263977623e-03 -8.973921746696e-06 0.0 
-8.973921746696e-06 -4.037730673564e-03 0.0 
0.0 0.0 0.0 
3.783683680450e-03 -2.682485170422e-05 0.0 
-2.682485170422e-05 -4.286030206387e-03 0.0 
0.0 0.0 0.0 
3.904451625994e-03 -1.052712437104e-03 0.0 
-1.052712437104e-03 -4.034406796864e-03 0.0 
0.0 0.0 0.0 
8.244164753681e-04 3.923965162756e-03 0.0 
3.923965162756e-03 3.880353218107e-03 0.0 
0.0 0.0 0.0 
3.051919639104e-03 2.040488057738e-03 0.0 
2.040488057738e-03 3.621406069466e-04 0.0 
0.0 0.0 0.0 
2.602853860435e-03 2.009157587039e-03 0.0 
2.009157587039e-03 1.204060334891e-03 0.0 
0.0 0.0 0.0 
2.632878129523e-03 2.380644350015e-03 0.0 
2.380644350015e-03 1.201404957624e-03 0.0 
0.0 0.0 0.0 
-2.477179420103e-04 -1.530494195182e-03 0.0 
-1.530494195182e-03 1.318022764873e-03 0.0 
0.0 0.0 0.0 
-2.987191761283e-04 -8.319039218258e-04 0.0 
-8.319039218258e-04 3.993301717681e-03 0.0 
0.0 0.0 0.0 
1.494219984516e-03 -7.838485716464e-04 0.0 
-7.838485716464e-04 1.654035956835e-03 0.0 
0.0 0.0 0.0 
1.887201076830e-03 -7.399433054212e-04 0.0 
-7.399433054212e-04 1.035008220610e-03 0.0 
0.0 0.0 0.0 
2.561984628139e-03 9.431443962070e-04 0.0 
9.431443962070e-04 8.988787391918e-04 0.0 
0.0 0.0 0.0 
-3.278408699178e-04 -1.041846462337e-03 0.0 
-1.041846462337e-03 1.552387923795e-03 0.0 
0.0 0.0 0.0 
3.561069909994e-03 2.896946856873e-03 0.0 
2.896946856873e-03 -2.763346026845e-03 0.0 
0.0 0.0 0.0 
3.237938267362e-03 3.417996492867e-03 0.0 
3.417996492867e-03 -1.902765704960e-03 0.0 
0.0 0.0 0.0 
-1.553881302419e-03 1.589148318677e-03 0.0 
1.589148318677e-03 1.110777597775e-02 0.0 
0.0 0.0 0.0 
-1.618209599093e-03 1.351328095722e-03 0.0 
1.351328095722e-03 1.113402320513e-02 0.0 
0.0 0.0 0.0 
1.630629107090e-03 -4.579962300418e-04 0.0 
-4.579962300418e-04 1.717131027539e-03 0.0 
0.0 0.0 0.0 
-4.571818958392e-04 -9.135102182525e-04 0.0 
-9.135102182525e-04 1.807769076062e-03 0.0 
0.0 0.0 0.0 
6.015582467621e-04 -9.496893279444e-04 0.0 
-9.496893279444e-04 2.870466287216e-03 0.0 
0.0 0.0 0.0 
3.503979487382e-03 1.137412285330e-03 0.0 
1.137412285330e-03 -4.198424640219e-03 0.0 
0.0 0.0 0.0 
-5.059914375049e-04 -8.013730646523e-04 0.0 
-8.013730646523e-04 4.049406827424e-03 0.0 
0.0 0.0 0.0 
-4.353028599291e-04 -6.712719613830e-04 0.0 
-6.712719613830e-04 4.378158280160e-03 0.0 
0.0 0.0 0.0 
3.747272627627e-04 -1.566598817813e-03 0.0 
-1.566598817813e-03 2.146714112439e-03 0.0 
0.0 0.0 0.0 
2.227979412037e-03 2.330136020035e-03 0.0 
2.330136020035e-03 1.987034929991e-03 0.0 
0.0 0.0 0.0 
2.217007240582e-03 2.648738672563e-03 0.0 
2.648738672563e-03 2.040317067318e-03 0.0 
0.0 0.0 0.0 
4.212699643278e-03 -9.218043986506e-04 0.0 
-9.218043986506e-04 -3.762871839177e-03 0.0 
0.0 0.0 0.0 
3.717660756867e-03 -1.873010947173e-03 0.0 
-1.873010947173e-03 -3.480252049000e-03 0.0 
0.0 0.0 0.0 
3.419186722227e-03 -2.100437242568e-03 0.0 
-2.100437242568e-03 -3.654086135826e-03 0.0 
0.0 0.0 0.0 
2.995659725445e-03 -2.663120273425e-03 0.0 
-2.663120273425e-03 -2.868032596767e-03 0.0 
0.0 0.0 0.0 
3.312850833996e-03 -2.362580092851e-03 0.0 
-2.362580092851e-03 -2.833638539090e-03 0.0 
0.0 0.0 0.0 
2.541227777857e-03 -2.897127152421e-03 0.0 
-2.897127152421e-03 -2.175784011754e-03 0.0 
0.0 0.0 0.0 
2.109324608989e-03 -3.190720265979e-03 0.0 
-3.190720265979e-03 -2.033794876979e-03 0.0 
0.0 0.0 0.0 
1.694909197399e-03 -3.192764918548e-03 0.0 
-3.192764918548e-03 -1.319855642866e-03 0.0 
0.0 0.0 0.0 
2.082905039262e-03 -2.961531610652e-03 0.0 
-2.961531610652e-03 -1.517660641466e-03 0.0 
0.0 0.0 0.0 
1.281278125793e-03 -3.014210830682e-03 0.0 
-3.014210830682e-03 -7.355298856400e-04 0.0 
0.0 0.0 0.0 
7.450751874608e-04 -3.024094502674e-03 0.0 
-3.024094502674e-03 -4.093117524186e-04 0.0 
0.0 0.0 0.0 
5.346819331751e-04 -2.760112384260e-03 0.0 
-2.760112384260e-03 3.522196893165e-06 0.0 
0.0 0.0 0.0 
-2.519585595948e-04 -6.889440922606e-04 0.0 
-6.889440922606e-04 4.357434078390e-03 0.0 
0.0 0.0 0.0 
3.150222036532e-03 -1.138351394127e-05 0.0 
-1.138351394127e-05 -4.524546472122e-03 0.0 
0.0 0.0 0.0 
-1.792155354000e-03 2.789248459545e-03 0.0 
2.789248459545e-03 8.408426255367e-03 0.0 
0.0 0.0 0.0 
1.271160593113e-03 -5.265349552881e-04 0.0 
-5.265349552881e-04 2.288184082589e-03 0.0 
0.0 0.0 0.0 
2.328912202766e-03 1.354889060796e-03 0.0 
1.354889060796e-03 1.458305167472e-03 0.0 
0.0 0.0 0.0 
-1.403374968694e-03 1.524505235775e-03 0.0 
1.524505235775e-03 1.135103111398e-02 0.0 
0.0 0.0 0.0 
-1.469027355930e-03 1.298283538817e-03 0.0 
1.298283538817e-03 1.135783967097e-02 0.0 
0.0 0.0 0.0 
-1.656660873194e-03 1.127663587449e-03 0.0 
1.127663587449e-03 1.111656902772e-02 0.0 
0.0 0.0 0.0 
-1.513346230571e-03 1.085810254835e-03 0.0 
1.085810254835e-03 1.132755153982e-02 0.0 
0.0 0.0 0.0 
-1.307416178067e-03 1.245074758393e-03 0.0 
1.245074758393e-03 1.156511640073e-02 0.0 
0.0 0.0 0.0 
-1.361010948959e-03 1.041751762739e-03 0.0 
1.041751762739e-03 1.152598303739e-02 0.0 
0.0 0.0 0.0 
-1.540433994277e-03 8.911070528367e-04 0.0 
8.911070528367e-04 1.126563139068e-02 0.0 
0.0 0.0 0.0 
-1.399038164618e-03 8.557428374639e-04 0.0 
8.557428374639e-04 1.145871495966e-02 0.0 
0.0 0.0 0.0 
-1.553315073595e-03 7.157339917359e-04 0.0 
7.157339917359e-04 1.117674455166e-02 0.0 
0.0 0.0 0.0 
-1.424187561980e-03 6.889149913924e-04 0.0 
6.889149913924e-04 1.136656080925e-02 0.0 
0.0 0.0 0.0 
-1.251631082596e-03 8.153081614630e-04 0.0 
8.153081614630e-04 1.164303881131e-02 0.0 
0.0 0.0 0.0 
-1.289292436138e-03 6.553115274712e-04 0.0 
6.553115274712e-04 1.154785630699e-02 0.0 
0.0 0.0 0.0 
-1.439524938393e-03 5.416747824813e-04 0.0 
5.416747824813e-04 1.125227291043e-02 0.0 
0.0 0.0 0.0 
-1.318514038314e-03 5.132708198028e-04 0.0 
5.132708198028e-04 1.143425154190e-02 0.0 
0.0 0.0 0.0 
-1.448521783713e-03 4.140418688630e-04 0.0 
4.140418688630e-04 1.112045357555e-02 0.0 
0.0 0.0 0.0 
-1.341834177244e-03 3.897774017276e-04 0.0 
3.897774017276e-04 1.130344962120e-02 0.0 
0.0 0.0 0.0 
-1.192925861265e-03 4.757603579148e-04 0.0 
4.757603579148e-04 1.160911499384e-02 0.0 
0.0 0.0 0.0 
-1.367582390790e-04 -7.361869031558e-04 0.0 
-7.361869031558e-04 1.422693410152e-03 0.0 
0.0 0.0 0.0 
2.714691559206e-03 4.890824474383e-04 0.0 
4.890824474383e-04 4.160243891226e-04 0.0 
0.0 0.0 0.0 
2.281608667355e-03 6.723820537728e-04 0.0 
6.723820537728e-04 1.247350945464e-03 0.0 
0.0 0.0 0.0 
-9.430266425549e-04 -1.219530241974e-03 0.0 
-1.219530241974e-03 2.642093256928e-03 0.0 
0.0 0.0 0.0 
-9.796879783130e-04 -1.203849394839e-03 0.0 
-1.203849394839e-03 2.867094946404e-03 0.0 
0.0 0.0 0.0 
-8.036040016545e-04 -1.412954216532e-03 0.0 
-1.412954216532e-03 2.740803908263e-03 0.0 
0.0 0.0 0.0 
-9.797938537920e-04 -1.154717299089e-03 0.0 
-1.154717299089e-03 3.098375309081e-03 0.0 
0.0 0.0 0.0 
-1.232726083365e-03 3.544629144572e-04 0.0 
3.544629144572e-04 1.147908831264e-02 0.0 
0.0 0.0 0.0 
-1.064300827679e-03 4.276431109500e-04 0.0 
4.276431109500e-04 1.177736895833e-02 0.0 
0.0 0.0 0.0 
2.718542100007e-03 3.622659481214e-03 0.0 
3.622659481214e-03 -1.812720894910e-03 0.0 
0.0 0.0 0.0 
2.318766134285e-03 3.893476627111e-03 0.0 
3.893476627111e-03 -8.937280885528e-04 0.0 
0.0 0.0 0.0 
-1.313714651005e-03 1.762986642781e-03 0.0 
1.762986642781e-03 1.130372700282e-02 0.0 
0.0 0.0 0.0 
-6.164058455618e-04 -6.176824821095e-04 0.0 
-6.176824821095e-04 4.393788120618e-03 0.0 
0.0 0.0 0.0 
-7.073411847131e-04 -7.303745626528e-04 0.0 
-7.303745626528e-04 4.099424566980e-03 0.0 
0.0 0.0 0.0 
1.030376585399e-03 4.065423175316e-03 0.0 
4.065423175316e-03 2.443171823530e-03 0.0 
0.0 0.0 0.0 
4.249491828514e-04 4.094848653565e-03 0.0 
4.094848653565e-03 3.312623133137e-03 0.0 
0.0 0.0 0.0 
8.571685288511e-04 4.094736061223e-03 0.0 
4.094736061223e-03 2.442885045414e-03 0.0 
0.0 0.0 0.0 
2.237987582135e-04 4.066448203749e-03 0.0 
4.066448203749e-03 3.358839200279e-03 0.0 
0.0 0.0 0.0 
-1.740477461062e-04 4.000507319510e-03 0.0 
4.000507319510e-03 4.205883699010e-03 0.0 
0.0 0.0 0.0 
6.158052138237e-04 4.073898874885e-03 0.0 
4.073898874885e-03 2.492404757491e-03 0.0 
0.0 0.0 0.0 
2.098927922116e-03 -1.067724442064e-03 0.0 
-1.067724442064e-03 3.684049406008e-04 0.0 
0.0 0.0 0.0 
-1.098653247367e-03 7.672520149934e-04 0.0 
7.672520149934e-04 1.181669040124e-02 0.0 
0.0 0.0 0.0 
-1.491219379551e-04 -1.905723427557e-03 0.0 
-1.905723427557e-03 1.197306522656e-03 0.0 
0.0 0.0 0.0 
-1.826527891559e-04 -1.646539150124e-03 0.0 
-1.646539150124e-03 1.114964378211e-03 0.0 
0.0 0.0 0.0 
-5.246013024855e-04 -5.178189584362e-04 0.0 
-5.178189584362e-04 4.708938997931e-03 0.0 
0.0 0.0 0.0 
3.124052226287e-03 2.734872380486e-04 0.0 
2.734872380486e-04 -4.294008004230e-04 0.0 
0.0 0.0 0.0 
4.240720567008e-04 3.867306970323e-03 0.0 
3.867306970323e-03 4.812771587981e-03 0.0 
0.0 0.0 0.0 
8.444392183470e-04 3.779646564753e-03 0.0 
3.779646564753e-03 4.235718725551e-03 0.0 
0.0 0.0 0.0 
4.625449484351e-04 3.720546580534e-03 0.0 
3.720546580534e-03 5.153398937037e-03 0.0 
0.0 0.0 0.0 
8.163989429611e-04 3.614611237617e-03 0.0 
3.614611237617e-03 4.652035308023e-03 0.0 
0.0 0.0 0.0 
4.612657730861e-04 3.597521686582e-03 0.0 
3.597521686582e-03 5.537066109316e-03 0.0 
0.0 0.0 0.0 
7.425561910470e-04 3.503447422144e-03 0.0 
3.503447422144e-03 5.101333786567e-03 0.0 
0.0 0.0 0.0 
1.110490281178e-03 3.457885619094e-03 0.0 
3.457885619094e-03 4.225217207731e-03 0.0 
0.0 0.0 0.0 
1.853669668723e-03 2.604211759330e-03 0.0 
2.604211759330e-03 2.781020856192e-03 0.0 
0.0 0.0 0.0 
9.622641466799e-04 3.371837693895e-03 0.0 
3.371837693895e-03 4.746254241358e-03 0.0 
0.0 0.0 0.0 
-1.363929977270e-03 2.879458524307e-04 0.0 
2.879458524307e-04 1.115458815562e-02 0.0 
0.0 0.0 0.0 
3.048123687808e-03 2.499304583146e-03 0.0 
2.499304583146e-03 3.639128721127e-04 0.0 
0.0 0.0 0.0 
1.616573437458e-03 -2.852103214000e-03 0.0 
-2.852103214000e-03 -9.119088121772e-04 0.0 
0.0 0.0 0.0 
-5.283376464621e-05 -8.016594011142e-04 0.0 
-8.016594011142e-04 1.205501036458e-03 0.0 
0.0 0.0 0.0 
8.450688605782e-05 -2.537396564196e-03 0.0 
-2.537396564196e-03 3.272803446331e-04 0.0 
0.0 0.0 0.0 
-2.778199189122e-04 -6.202514170673e-04 0.0 
-6.202514170673e-04 1.655723538269e-03 0.0 
0.0 0.0 0.0 
-6.192966600381e-04 -7.727329814072e-04 0.0 
-7.727329814072e-04 2.070260682515e-03 0.0 
0.0 0.0 0.0 
1.335350172507e-03 -2.324845192033e-04 0.0 
-2.324845192033e-04 2.407293881679e-03 0.0 
0.0 0.0 0.0 
4.197131460035e-04 3.536707205657e-03 0.0 
3.536707205657e-03 5.956703360804e-03 0.0 
0.0 0.0 0.0 
1.600465466367e-04 3.570601203941e-03 0.0 
3.570601203941e-03 6.370552616770e-03 0.0 
0.0 0.0 0.0 
-3.783419756425e-04 3.917827730417e-03 0.0 
3.917827730417e-03 4.286447806298e-03 0.0 
0.0 0.0 0.0 
-7.479141493509e-04 3.763744495513e-03 0.0 
3.763744495513e-03 5.105450285656e-03 0.0 
0.0 0.0 0.0 
1.818094607855e-03 2.327807979105e-03 0.0 
2.327807979105e-03 2.750380524276e-03 0.0 
0.0 0.0 0.0 
-1.913979557802e-03 1.226681017838e-03 0.0 
1.226681017838e-03 1.065790798182e-02 0.0 
0.0 0.0 0.0 
-1.677225733857e-03 7.371203790921e-04 0.0 
7.371203790921e-04 1.097931141351e-02 0.0 
0.0 0.0 0.0 
-1.662010473196e-03 5.747080873883e-04 0.0 
5.747080873883e-04 1.086564823063e-02 0.0 
0.0 0.0 0.0 
2.123916512805e-04 -4.646104446786e-04 0.0 
-4.646104446786e-04 1.110586882689e-03 0.0 
0.0 0.0 0.0 
1.428445642912e-04 -2.870212395709e-03 0.0 
-2.870212395709e-03 5.255483195730e-05 0.0 
0.0 0.0 0.0 
-1.138490056615e-03 1.187491863477e-03 0.0 
1.187491863477e-03 1.175967123818e-02 0.0 
0.0 0.0 0.0 
2.814906751757e-03 3.744479870667e-03 0.0 
3.744479870667e-03 -1.053582066824e-03 0.0 
0.0 0.0 0.0 
1.905246518094e-03 4.033039466776e-03 0.0 
4.033039466776e-03 -5.320982971594e-05 0.0 
0.0 0.0 0.0 
2.676766504646e-03 1.309533751796e-03 0.0 
1.309533751796e-03 -4.334927161324e-03 0.0 
0.0 0.0 0.0 
2.345601964645e-03 3.425297566723e-05 0.0 
3.425297566723e-05 -4.679521993772e-03 0.0 
0.0 0.0 0.0 
-1.119532283292e-03 3.112015519204e-04 0.0 
3.112015519204e-04 1.164799909486e-02 0.0 
0.0 0.0 0.0 
-9.382831117707e-04 3.670324052518e-04 0.0 
3.670324052518e-04 1.193453779385e-02 0.0 
0.0 0.0 0.0 
-7.796450973240e-04 -1.334066108383e-03 0.0 
-1.334066108383e-03 2.966840526158e-03 0.0 
0.0 0.0 0.0 
-9.412771081970e-04 -1.073796005662e-03 0.0 
-1.073796005662e-03 3.329922122482e-03 0.0 
0.0 0.0 0.0 
1.680794661406e-03 -1.096016093243e-04 0.0 
-1.096016093243e-04 1.882271292839e-03 0.0 
0.0 0.0 0.0 
4.675027640431e-05 -2.340346928742e-03 0.0 
-2.340346928742e-03 5.451165178597e-04 0.0 
0.0 0.0 0.0 
-8.630015534975e-04 4.976487890977e-04 0.0 
4.976487890977e-04 1.204759716277e-02 0.0 
0.0 0.0 0.0 
2.769316735002e-03 -1.094343918130e-06 0.0 
-1.094343918130e-06 4.364443178675e-05 0.0 
0.0 0.0 0.0 
3.119786566546e-03 -2.784205497441e-04 0.0 
-2.784205497441e-04 -7.747417867075e-04 0.0 
0.0 0.0 0.0 
-1.141595151501e-03 -9.302278420077e-04 0.0 
-9.302278420077e-04 3.193860272771e-03 0.0 
0.0 0.0 0.0 
1.620492631191e-03 4.002254763627e-03 0.0 
4.002254763627e-03 -6.310963145914e-04 0.0 
0.0 0.0 0.0 
1.933950523585e-03 3.809592810437e-03 0.0 
3.809592810437e-03 -1.603328469478e-03 0.0 
0.0 0.0 0.0 
2.321550224268e-03 -2.692993340419e-03 0.0 
-2.692993340419e-03 -1.593477489530e-03 0.0 
0.0 0.0 0.0 
3.764713577356e-04 -2.559122922515e-03 0.0 
-2.559122922515e-03 3.471084769481e-04 0.0 
0.0 0.0 0.0 
-4.400762773960e-04 -5.064933179631e-04 0.0 
-5.064933179631e-04 1.906562536276e-03 0.0 
0.0 0.0 0.0 
1.319458660055e-03 8.480644939183e-05 0.0 
8.480644939183e-05 2.613081206504e-03 0.0 
0.0 0.0 0.0 
-1.059074845799e-03 1.395466790162e-03 0.0 
1.395466790162e-03 1.177592407973e-02 0.0 
0.0 0.0 0.0 
1.324232541403e-03 3.261989345040e-03 0.0 
3.261989345040e-03 3.891349940220e-03 0.0 
0.0 0.0 0.0 
1.512511055383e-03 3.389565670865e-03 0.0 
3.389565670865e-03 3.318663124168e-03 0.0 
0.0 0.0 0.0 
1.101371531722e-03 3.204986119303e-03 0.0 
3.204986119303e-03 4.470420594994e-03 0.0 
0.0 0.0 0.0 
-2.776036814230e-04 -1.984452855143e-03 0.0 
-1.984452855143e-03 7.378875966865e-04 0.0 
0.0 0.0 0.0 
1.003346788963e-03 -3.320165103799e-04 0.0 
-3.320165103799e-04 2.949138332812e-03 0.0 
0.0 0.0 0.0 
-6.856042918946e-04 -4.447853934224e-04 0.0 
-4.447853934224e-04 4.687022907575e-03 0.0 
0.0 0.0 0.0 
1.470848259703e-04 3.565028168781e-03 0.0 
3.565028168781e-03 6.751259994497e-03 0.0 
0.0 0.0 0.0 
-8.218162041296e-05 3.540612330915e-03 0.0 
3.540612330915e-03 7.143433597953e-03 0.0 
0.0 0.0 0.0 
2.359286822851e-03 3.940457428383e-03 0.0 
3.940457428383e-03 -2.301027552446e-04 0.0 
0.0 0.0 0.0 
1.469638996520e-03 4.087498311679e-03 0.0 
4.087498311679e-03 7.625490210587e-04 0.0 
0.0 0.0 0.0 
9.597091946282e-04 4.091657096076e-03 0.0 
4.091657096076e-03 1.010163213105e-03 0.0 
0.0 0.0 0.0 
6.259551016214e-04 4.065029764850e-03 0.0 
4.065029764850e-03 1.803901120411e-03 0.0 
0.0 0.0 0.0 
-2.065162305282e-03 2.260686738243e-03 0.0 
2.260686738243e-03 9.224311413822e-03 0.0 
0.0 0.0 0.0 
1.844045489747e-03 4.046536802289e-03 0.0 
4.046536802289e-03 6.167562401303e-04 0.0 
0.0 0.0 0.0 
-1.659864379812e-03 2.982797883907e-03 0.0 
2.982797883907e-03 7.861150404271e-03 0.0 
0.0 0.0 0.0 
-1.934654545684e-03 2.603285758625e-03 0.0 
2.603285758625e-03 8.318829624583e-03 0.0 
0.0 0.0 0.0 
-1.806765970512e-03 2.807432855442e-03 0.0 
2.807432855442e-03 7.801479983478e-03 0.0 
0.0 0.0 0.0 
-5.733620890119e-04 3.849863126275e-03 0.0 
3.849863126275e-03 5.040210197050e-03 0.0 
0.0 0.0 0.0 
-1.097026772457e-03 3.539440312601e-03 0.0 
3.539440312601e-03 5.876499854646e-03 0.0 
0.0 0.0 0.0 
3.868714423667e-03 3.077989916759e-03 0.0 
3.077989916759e-03 -1.898406478188e-03 0.0 
0.0 0.0 0.0 
3.950268288128e-03 2.142937960291e-03 0.0 
2.142937960291e-03 -1.366027602325e-03 0.0 
0.0 0.0 0.0 
-5.696276197787e-04 -1.585057329298e-03 0.0 
-1.585057329298e-03 2.554919879006e-03 0.0 
0.0 0.0 0.0 
-2.035766032593e-04 -1.384939907499e-03 0.0 
-1.384939907499e-03 2.877886139014e-03 0.0 
0.0 0.0 0.0 
1.901328221265e-03 -1.648181970039e-03 0.0 
-1.648181970039e-03 -1.414218683623e-05 0.0 
0.0 0.0 0.0 
-1.037596556049e-03 9.382422350144e-04 0.0 
9.382422350144e-04 1.189176660794e-02 0.0 
0.0 0.0 0.0 
-8.685706580475e-04 8.746987920867e-04 0.0 
8.746987920867e-04 1.205971406864e-02 0.0 
0.0 0.0 0.0 
-1.550842602998e-03 4.289270845094e-04 0.0 
4.289270845094e-04 1.092967541787e-02 0.0 
0.0 0.0 0.0 
-1.541008058212e-03 3.136904819648e-04 0.0 
3.136904819648e-04 1.077908352033e-02 0.0 
0.0 0.0 0.0 
-1.764875938099e-04 -1.229771406278e-03 0.0 
-1.229771406278e-03 1.130947571629e-03 0.0 
0.0 0.0 0.0 
-1.933140762496e-04 -1.302126872543e-03 0.0 
-1.302126872543e-03 1.001901047179e-03 0.0 
0.0 0.0 0.0 
7.181359209348e-04 -1.933921453908e-03 0.0 
-1.933921453908e-03 1.205990289258e-03 0.0 
0.0 0.0 0.0 
9.359626568262e-04 -5.670321934023e-04 0.0 
-5.670321934023e-04 2.844695348811e-03 0.0 
0.0 0.0 0.0 
-1.145387067789e-03 1.687899988318e-03 0.0 
1.687899988318e-03 1.154460062907e-02 0.0 
0.0 0.0 0.0 
-1.032804734336e-03 1.932066316531e-03 0.0 
1.932066316531e-03 1.147840360612e-02 0.0 
0.0 0.0 0.0 
-1.201641491247e-03 2.011067010833e-03 0.0 
2.011067010833e-03 1.121762764343e-02 0.0 
0.0 0.0 0.0 
1.648353304131e-03 2.540105826411e-04 0.0 
2.540105826411e-04 2.128855263520e-03 0.0 
0.0 0.0 0.0 
4.844632366277e-03 9.499440094256e-04 0.0 
9.499440094256e-04 -3.314493690426e-03 0.0 
0.0 0.0 0.0 
3.927070712569e-03 4.837582124623e-04 0.0 
4.837582124623e-04 -1.721789803016e-03 0.0 
0.0 0.0 0.0 
2.737550098865e-03 -1.303074706248e-03 0.0 
-1.303074706248e-03 -4.551214617726e-03 0.0 
0.0 0.0 0.0 
1.717780627226e-03 3.734030572111e-03 0.0 
3.734030572111e-03 2.319919404843e-03 0.0 
0.0 0.0 0.0 
-2.496655746024e-05 -9.226487092844e-04 0.0 
-9.226487092844e-04 8.748052182825e-04 0.0 
0.0 0.0 0.0 
-7.792769941333e-04 3.382169318341e-03 0.0 
3.382169318341e-03 7.740486140109e-03 0.0 
0.0 0.0 0.0 
-5.732537070474e-04 -3.732626093508e-04 0.0 
-3.732626093508e-04 4.993272243454e-03 0.0 
0.0 0.0 0.0 
-4.325409761985e-04 -4.420935703125e-04 0.0 
-4.420935703125e-04 5.035775711302e-03 0.0 
0.0 0.0 0.0 
1.468486347273e-03 2.605360045923e-03 0.0 
2.605360045923e-03 3.499665829527e-03 0.0 
0.0 0.0 0.0 
-2.278690006522e-03 1.663987365309e-03 0.0 
1.663987365309e-03 9.283237655843e-03 0.0 
0.0 0.0 0.0 
2.105020197221e-03 3.479998827330e-03 0.0 
3.479998827330e-03 1.831415912667e-03 0.0 
0.0 0.0 0.0 
2.612494023306e-03 3.305412385851e-03 0.0 
3.305412385851e-03 8.619778935136e-04 0.0 
0.0 0.0 0.0 
-2.043644730794e-03 2.376790237502e-03 0.0 
2.376790237502e-03 8.235669072768e-03 0.0 
0.0 0.0 0.0 
-1.921519290975e-03 2.584880195484e-03 0.0 
2.584880195484e-03 7.765916739957e-03 0.0 
0.0 0.0 0.0 
-1.629525826922e-03 3.033093583981e-03 0.0 
3.033093583981e-03 7.232772455786e-03 0.0 
0.0 0.0 0.0 
-1.755260402595e-03 2.830476397739e-03 0.0 
2.830476397739e-03 7.230067742035e-03 0.0 
0.0 0.0 0.0 
1.818740753570e-03 -2.630003460957e-03 0.0 
-2.630003460957e-03 -9.389664747912e-04 0.0 
0.0 0.0 0.0 
1.222819730012e-03 -2.703708738428e-03 0.0 
-2.703708738428e-03 -3.512932763766e-04 0.0 
0.0 0.0 0.0 
3.334262350026e-04 3.564175213743e-03 0.0 
3.564175213743e-03 6.447096791771e-03 0.0 
0.0 0.0 0.0 
7.804686139265e-04 3.376047458503e-03 0.0 
3.376047458503e-03 5.277853000817e-03 0.0 
0.0 0.0 0.0 
-3.771629415285e-05 3.592546760056e-03 0.0 
3.592546760056e-03 7.482557544600e-03 0.0 
0.0 0.0 0.0 
-2.489599596418e-04 3.520449741509e-03 0.0 
3.520449741509e-03 7.868672376568e-03 0.0 
0.0 0.0 0.0 
1.389833662320e-03 2.360597116875e-03 0.0 
2.360597116875e-03 3.498475697182e-03 0.0 
0.0 0.0 0.0 
1.727517293429e-03 2.053622802012e-03 0.0 
2.053622802012e-03 2.790797728434e-03 0.0 
0.0 0.0 0.0 
-7.754519436830e-04 -6.081985094299e-04 0.0 
-6.081985094299e-04 2.317238744170e-03 0.0 
0.0 0.0 0.0 
-1.262448881095e-03 3.373109701431e-03 0.0 
3.373109701431e-03 5.963271983378e-03 0.0 
0.0 0.0 0.0 
-8.751238534576e-04 1.325063981069e-03 0.0 
1.325063981069e-03 1.196901579339e-02 0.0 
0.0 0.0 0.0 
-2.129573985115e-03 2.194568724795e-03 0.0 
2.194568724795e-03 8.674464940351e-03 0.0 
0.0 0.0 0.0 
6.956826957770e-04 -4.116934215683e-04 0.0 
-4.116934215683e-04 3.459831817426e-03 0.0 
0.0 0.0 0.0 
6.380185344467e-04 -5.875291883605e-04 0.0 
-5.875291883605e-04 3.387545027039e-03 0.0 
0.0 0.0 0.0 
1.683446310514e-03 -1.163230980554e-03 0.0 
-1.163230980554e-03 -4.581686755513e-03 0.0 
0.0 0.0 0.0 
1.949259294347e-03 -2.716514637386e-03 0.0 
-2.716514637386e-03 -3.834352207475e-03 0.0 
0.0 0.0 0.0 
-7.233483167616e-04 4.202719739470e-04 0.0 
4.202719739470e-04 1.219905107231e-02 0.0 
0.0 0.0 0.0 
1.185817686761e-04 3.977683668015e-03 0.0 
3.977683668015e-03 2.076872341276e-03 0.0 
0.0 0.0 0.0 
-1.182508219247e-04 3.912171927070e-03 0.0 
3.912171927070e-03 2.841302802232e-03 0.0 
0.0 0.0 0.0 
3.524271729530e-04 4.012972260942e-03 0.0 
4.012972260942e-03 1.318706095142e-03 0.0 
0.0 0.0 0.0 
-3.383810937773e-04 -1.064473165957e-04 0.0 
-1.064473165957e-04 5.729759139330e-03 0.0 
0.0 0.0 0.0 
-1.487935999321e-03 2.916267356497e-05 0.0 
2.916267356497e-05 1.002773990561e-02 0.0 
0.0 0.0 0.0 
-4.470940456959e-04 -3.248350397862e-04 0.0 
-3.248350397862e-04 5.303038084960e-03 0.0 
0.0 0.0 0.0 
-9.390480793932e-04 3.645798765454e-03 0.0 
3.645798765454e-03 5.843580101723e-03 0.0 
0.0 0.0 0.0 
-6.276931359007e-04 5.658808824427e-04 0.0 
5.658808824427e-04 1.229962875404e-02 0.0 
0.0 0.0 0.0 
2.399470889552e-03 3.148406336526e-03 0.0 
3.148406336526e-03 1.485114812540e-03 0.0 
0.0 0.0 0.0 
1.530535872154e-03 4.028555542296e-03 0.0 
4.028555542296e-03 1.530827803867e-03 0.0 
0.0 0.0 0.0 
2.032151514438e-03 4.820367759330e-05 0.0 
4.820367759330e-05 1.362477957749e-03 0.0 
0.0 0.0 0.0 
-8.261599494416e-04 2.748282255209e-04 0.0 
2.748282255209e-04 1.207128645649e-02 0.0 
0.0 0.0 0.0 
-5.770757736546e-04 3.301956249354e-04 0.0 
3.301956249354e-04 1.234878580529e-02 0.0 
0.0 0.0 0.0 
-1.766630600706e-03 5.867211887612e-04 0.0 
5.867211887612e-04 1.066302197248e-02 0.0 
0.0 0.0 0.0 
-1.737289833310e-03 4.335476359672e-04 0.0 
4.335476359672e-04 1.051785854432e-02 0.0 
0.0 0.0 0.0 
-1.793949407299e-03 7.549086681365e-04 0.0 
7.549086681365e-04 1.076405187056e-02 0.0 
0.0 0.0 0.0 
3.094332564078e-03 2.380292690905e-03 0.0 
2.380292690905e-03 -3.710130626355e-03 0.0 
0.0 0.0 0.0 
1.950147643427e-03 2.751892586800e-03 0.0 
2.751892586800e-03 -3.527339571405e-03 0.0 
0.0 0.0 0.0 
-9.425397245840e-04 7.080250237228e-04 0.0 
7.080250237228e-04 1.198307512038e-02 0.0 
0.0 0.0 0.0 
-8.579995117266e-04 -1.166601671018e-03 0.0 
-1.166601671018e-03 2.415352221909e-03 0.0 
0.0 0.0 0.0 
-1.041417941947e-03 -9.344119941611e-04 0.0 
-9.344119941611e-04 2.744620929515e-03 0.0 
0.0 0.0 0.0 
1.069230988140e-05 -2.195202749510e-03 0.0 
-2.195202749510e-03 7.584557453413e-04 0.0 
0.0 0.0 0.0 
2.429084391384e-04 -2.402581031256e-03 0.0 
-2.402581031256e-03 6.531922552306e-04 0.0 
0.0 0.0 0.0 
-5.333372505315e-04 -1.472034061730e-03 0.0 
-1.472034061730e-03 2.791959086349e-03 0.0 
0.0 0.0 0.0 
-2.895604088207e-04 -1.708498824361e-03 0.0 
-1.708498824361e-03 2.327096262600e-03 0.0 
0.0 0.0 0.0 
-4.515553130304e-04 3.496061372932e-03 0.0 
3.496061372932e-03 7.271926532867e-03 0.0 
0.0 0.0 0.0 
-6.214068248990e-04 3.380964698140e-03 0.0 
3.380964698140e-03 7.959893928078e-03 0.0 
0.0 0.0 0.0 
7.148687832844e-05 3.761168543083e-03 0.0 
3.761168543083e-03 5.699230076640e-03 0.0 
0.0 0.0 0.0 
2.711870260341e-03 -5.103865788138e-04 0.0 
-5.103865788138e-04 -2.058531750374e-04 0.0 
0.0 0.0 0.0 
2.964286057900e-03 -7.834761750384e-04 0.0 
-7.834761750384e-04 -9.098814438841e-04 0.0 
0.0 0.0 0.0 
3.408967092541e-03 -4.808388718874e-04 0.0 
-4.808388718874e-04 -1.434021800097e-03 0.0 
0.0 0.0 0.0 
-7.824264365539e-04 1.050710204626e-03 0.0 
1.050710204626e-03 1.210598743990e-02 0.0 
0.0 0.0 0.0 
-5.776370974921e-04 9.803285580086e-04 0.0 
9.803285580086e-04 1.228553375604e-02 0.0 
0.0 0.0 0.0 
2.435717169118e-03 -2.419414102126e-03 0.0 
-2.419414102126e-03 -1.518994403120e-03 0.0 
0.0 0.0 0.0 
2.991995278308e-03 -2.326042334609e-03 0.0 
-2.326042334609e-03 -2.181765033399e-03 0.0 
0.0 0.0 0.0 
1.406841246510e-03 -2.576322562653e-03 0.0 
-2.576322562653e-03 -3.689714529039e-04 0.0 
0.0 0.0 0.0 
-7.725144058486e-04 1.540600346863e-03 0.0 
1.540600346863e-03 1.196539520455e-02 0.0 
0.0 0.0 0.0 
-3.240021563877e-04 -4.022154729676e-04 0.0 
-4.022154729676e-04 5.358468763805e-03 0.0 
0.0 0.0 0.0 
-2.908583227207e-04 -4.939050437333e-04 0.0 
-4.939050437333e-04 5.071099273719e-03 0.0 
0.0 0.0 0.0 
-9.115120894125e-05 -9.360200764104e-04 0.0 
-9.360200764104e-04 7.752636036202e-04 0.0 
0.0 0.0 0.0 
-2.370347747249e-04 -1.357364043933e-03 0.0 
-1.357364043933e-03 9.080920347149e-04 0.0 
0.0 0.0 0.0 
8.179152074419e-04 4.062659762051e-03 0.0 
4.062659762051e-03 -2.598593151318e-04 0.0 
0.0 0.0 0.0 
1.060925803235e-03 3.984863526507e-03 0.0 
3.984863526507e-03 -1.256189000963e-03 0.0 
0.0 0.0 0.0 
-8.945395091132e-04 2.179038411935e-03 0.0 
2.179038411935e-03 1.136381848410e-02 0.0 
0.0 0.0 0.0 
-1.067978645278e-03 2.270779219673e-03 0.0 
2.270779219673e-03 1.108844977515e-02 0.0 
0.0 0.0 0.0 
-6.916354388928e-04 2.109381439277e-03 0.0 
2.109381439277e-03 1.163016595376e-02 0.0 
0.0 0.0 0.0 
-5.614330356536e-04 -3.495132833914e-04 0.0 
-3.495132833914e-04 2.106419015241e-03 0.0 
0.0 0.0 0.0 
1.716745685947e-03 3.137584026722e-03 0.0 
3.137584026722e-03 3.036334301657e-03 0.0 
0.0 0.0 0.0 
1.229208325163e-03 4.213423102902e-04 0.0 
4.213423102902e-04 2.877084490468e-03 0.0 
0.0 0.0 0.0 
1.556851646098e-03 6.273977469755e-04 0.0 
6.273977469755e-04 2.462609781814e-03 0.0 
0.0 0.0 0.0 
8.780819029164e-04 2.343567596526e-04 0.0 
2.343567596526e-04 3.440013781797e-03 0.0 
0.0 0.0 0.0 
1.492512868299e-03 2.835531925058e-03 0.0 
2.835531925058e-03 3.555704279440e-03 0.0 
0.0 0.0 0.0 
1.114636624788e-03 2.842695656730e-03 0.0 
2.842695656730e-03 4.224167771618e-03 0.0 
0.0 0.0 0.0 
8.148045636902e-04 3.225436860775e-03 0.0 
3.225436860775e-03 5.078768515634e-03 0.0 
0.0 0.0 0.0 
1.046600159660e-03 1.139516576331e-04 0.0 
1.139516576331e-04 -4.627724495835e-03 0.0 
0.0 0.0 0.0 
-6.398784238589e-04 2.067338303720e-04 0.0 
2.067338303720e-04 1.227492332313e-02 0.0 
0.0 0.0 0.0 
-1.623693252046e-03 3.111101750922e-04 0.0 
3.111101750922e-04 1.056143007098e-02 0.0 
0.0 0.0 0.0 
8.411754201076e-05 -6.092356038704e-04 0.0 
-6.092356038704e-04 -4.338426314715e-03 0.0 
0.0 0.0 0.0 
-1.592742395684e-03 2.189591275369e-04 0.0 
2.189591275369e-04 1.039523787496e-02 0.0 
0.0 0.0 0.0 
-1.528862033421e-03 2.222701556361e-04 0.0 
2.222701556361e-04 1.061070463490e-02 0.0 
0.0 0.0 0.0 
-1.572103116290e-03 1.431463146445e-04 0.0 
1.431463146445e-04 1.019523890672e-02 0.0 
0.0 0.0 0.0 
-1.246509940158e-04 -2.877182505139e-04 0.0 
-2.877182505139e-04 1.613509131361e-03 0.0 
0.0 0.0 0.0 
-1.875610260065e-03 5.720107438882e-04 0.0 
5.720107438882e-04 1.039641236786e-02 0.0 
0.0 0.0 0.0 
-1.911398182278e-03 7.853918104579e-04 0.0 
7.853918104579e-04 1.054492575789e-02 0.0 
0.0 0.0 0.0 
-1.519292685354e-04 -8.123973218396e-04 0.0 
-8.123973218396e-04 6.231644907945e-04 0.0 
0.0 0.0 0.0 
-5.575362127664e-04 1.444460156812e-03 0.0 
1.444460156812e-03 1.214719384713e-02 0.0 
0.0 0.0 0.0 
2.444921570506e-04 -6.461130018116e-04 0.0 
-6.461130018116e-04 4.991986200514e-04 0.0 
0.0 0.0 0.0 
3.208807897522e-04 -6.639438794069e-04 0.0 
-6.639438794069e-04 6.106595402731e-04 0.0 
0.0 0.0 0.0 
4.674999300183e-04 -4.662933407632e-04 0.0 
-4.662933407632e-04 3.959379013053e-03 0.0 
0.0 0.0 0.0 
3.959898046847e-04 -5.982062431905e-04 0.0 
-5.982062431905e-04 3.889409962547e-03 0.0 
0.0 0.0 0.0 
2.595964117725e-04 -5.170636149567e-04 0.0 
-5.170636149567e-04 4.400352584943e-03 0.0 
0.0 0.0 0.0 
1.947457609320e-04 -5.892568322263e-04 0.0 
-5.892568322263e-04 4.328350731464e-03 0.0 
0.0 0.0 0.0 
2.675353220890e-04 -7.007817580228e-04 0.0 
-7.007817580228e-04 3.869072782463e-03 0.0 
0.0 0.0 0.0 
7.613179466128e-05 -6.451590200158e-04 0.0 
-6.451590200158e-04 4.331524983460e-03 0.0 
0.0 0.0 0.0 
-1.707068721675e-03 3.095990138540e-04 0.0 
3.095990138540e-04 1.034722519763e-02 0.0 
0.0 0.0 0.0 
5.294732807160e-05 -5.715746034739e-04 0.0 
-5.715746034739e-04 4.801806737573e-03 0.0 
0.0 0.0 0.0 
-6.324163693024e-05 -5.843084879378e-04 0.0 
-5.843084879378e-04 4.755684472941e-03 0.0 
0.0 0.0 0.0 
-4.630798107376e-05 -5.632418454589e-04 0.0 
-5.632418454589e-04 5.202675645517e-03 0.0 
0.0 0.0 0.0 
-2.003058076933e-03 2.290990646732e-03 0.0 
2.290990646732e-03 7.749663554640e-03 0.0 
0.0 0.0 0.0 
2.979684905382e-04 4.025743322371e-03 0.0 
4.025743322371e-03 2.615902425998e-03 0.0 
0.0 0.0 0.0 
-3.726761026144e-04 3.822629615928e-03 0.0 
3.822629615928e-03 3.627314442785e-03 0.0 
0.0 0.0 0.0 
-8.445531263147e-04 3.617982426985e-03 0.0 
3.617982426985e-03 3.929406529505e-03 0.0 
0.0 0.0 0.0 
-1.515142080361e-04 3.635695881325e-03 0.0 
3.635695881325e-03 8.236637099947e-03 0.0 
0.0 0.0 0.0 
-3.561465803871e-04 3.494665038133e-03 0.0 
3.494665038133e-03 8.501876878946e-03 0.0 
0.0 0.0 0.0 
-7.044084808761e-04 -2.826776040548e-04 0.0 
-2.826776040548e-04 4.939122090772e-03 0.0 
0.0 0.0 0.0 
-8.263755806866e-04 -3.295144150764e-04 0.0 
-3.295144150764e-04 4.654898618945e-03 0.0 
0.0 0.0 0.0 
-1.521534972389e-03 1.427148450798e-04 0.0 
1.427148450798e-04 1.041177709379e-02 0.0 
0.0 0.0 0.0 
-1.487456985942e-03 9.731031907544e-05 0.0 
9.731031907544e-05 1.038886056044e-02 0.0 
0.0 0.0 0.0 
-1.446480994407e-03 1.602396151870e-04 0.0 
1.602396151870e-04 1.073063141322e-02 0.0 
0.0 0.0 0.0 
-1.427323141465e-03 1.066179687576e-04 0.0 
1.066179687576e-04 1.068617417246e-02 0.0 
0.0 0.0 0.0 
-1.362923572451e-03 1.660802872518e-04 0.0 
1.660802872518e-04 1.101199650406e-02 0.0 
0.0 0.0 0.0 
-1.353266694035e-03 9.963515918344e-05 0.0 
9.963515918344e-05 1.096165176816e-02 0.0 
0.0 0.0 0.0 
-1.264335117656e-03 1.562678065377e-04 0.0 
1.562678065377e-04 1.127963185610e-02 0.0 
0.0 0.0 0.0 
5.159286849929e-04 3.456455603375e-03 0.0 
3.456455603375e-03 5.929904978832e-03 0.0 
0.0 0.0 0.0 
-4.425101685570e-04 3.824500891656e-03 0.0 
3.824500891656e-03 2.358627641115e-03 0.0 
0.0 0.0 0.0 
-2.192043765070e-03 1.921416236164e-03 0.0 
1.921416236164e-03 8.561010347713e-03 0.0 
0.0 0.0 0.0 
1.247066410031e-03 2.101790938504e-03 0.0 
2.101790938504e-03 3.559453624138e-03 0.0 
0.0 0.0 0.0 
1.588483964789e-03 1.779888948717e-03 0.0 
1.779888948717e-03 2.864287122695e-03 0.0 
0.0 0.0 0.0 
-1.532898585727e-03 3.099038255897e-03 0.0 
3.099038255897e-03 6.634421777318e-03 0.0 
0.0 0.0 0.0 
-1.667727765661e-03 2.803559730960e-03 0.0 
2.803559730960e-03 6.740438932916e-03 0.0 
0.0 0.0 0.0 
6.563653286211e-04 -1.995541467391e-04 0.0 
-1.995541467391e-04 3.716165624168e-03 0.0 
0.0 0.0 0.0 
2.663557294831e-03 3.850980774763e-03 0.0 
3.850980774763e-03 -3.031862563692e-04 0.0 
0.0 0.0 0.0 
-3.858887413272e-04 1.692188985589e-03 0.0 
1.692188985589e-03 1.212859224696e-02 0.0 
0.0 0.0 0.0 
-1.499716539359e-03 2.424389457873e-03 0.0 
2.424389457873e-03 -2.807803096354e-03 0.0 
0.0 0.0 0.0 
3.736775320046e-04 2.405988013699e-03 0.0 
2.405988013699e-03 -3.476903683488e-03 0.0 
0.0 0.0 0.0 
2.092380880528e-03 3.989857377657e-03 0.0 
3.989857377657e-03 5.788422247952e-04 0.0 
0.0 0.0 0.0 
-1.397380322718e-03 3.283671741384e-03 0.0 
3.283671741384e-03 6.590109863292e-03 0.0 
0.0 0.0 0.0 
-3.025026178109e-05 3.978447330355e-03 0.0 
3.978447330355e-03 3.451838803896e-03 0.0 
0.0 0.0 0.0 
-6.351532949480e-04 3.770310102500e-03 0.0 
3.770310102500e-03 4.409766136529e-03 0.0 
0.0 0.0 0.0 
2.395124579121e-03 -2.049621857746e-04 0.0 
-2.049621857746e-04 5.763253016850e-04 0.0 
0.0 0.0 0.0 
-3.125070664319e-04 -1.422216490316e-03 0.0 
-1.422216490316e-03 8.347499163691e-04 0.0 
0.0 0.0 0.0 
5.609590488616e-04 4.034720939574e-03 0.0 
4.034720939574e-03 5.595776957633e-04 0.0 
0.0 0.0 0.0 
-1.279408753015e-03 2.460470953386e-04 0.0 
2.460470953386e-04 1.131446413145e-02 0.0 
0.0 0.0 0.0 
-2.673595253102e-04 3.933493777644e-03 0.0 
3.933493777644e-03 9.636118296372e-04 0.0 
0.0 0.0 0.0 
-8.117147025528e-04 -1.543594399200e-04 0.0 
-1.543594399200e-04 4.876179793858e-03 0.0 
0.0 0.0 0.0 
3.399213684113e-03 3.479414160054e-03 0.0 
3.479414160054e-03 -1.114120612018e-03 0.0 
0.0 0.0 0.0 
-4.186403381931e-04 3.892616499357e-03 0.0 
3.892616499357e-03 5.040618713735e-03 0.0 
0.0 0.0 0.0 
1.288817584557e-03 4.069464481804e-03 0.0 
4.069464481804e-03 2.161265379316e-04 0.0 
0.0 0.0 0.0 
1.024140999273e-03 4.088083900928e-03 0.0 
4.088083900928e-03 1.614239385968e-03 0.0 
0.0 0.0 0.0 
-1.866988921736e-03 2.605532759430e-03 0.0 
2.605532759430e-03 8.904859575962e-03 0.0 
0.0 0.0 0.0 
-2.198526751536e-03 1.908945411143e-03 0.0 
1.908945411143e-03 9.458482133424e-03 0.0 
0.0 0.0 0.0 
-2.184137028259e-03 2.041234879821e-03 0.0 
2.041234879821e-03 9.082055305003e-03 0.0 
0.0 0.0 0.0 
4.014757237466e-03 2.964524470647e-03 0.0 
2.964524470647e-03 -1.796241887092e-03 0.0 
0.0 0.0 0.0 
-9.539147827422e-04 3.603996760961e-03 0.0 
3.603996760961e-03 5.239233931921e-03 0.0 
0.0 0.0 0.0 
-1.224831631504e-03 3.290018905537e-03 0.0 
3.290018905537e-03 5.423932277528e-03 0.0 
0.0 0.0 0.0 
-1.312592111513e-03 3.314357217648e-03 0.0 
3.314357217648e-03 7.317069598130e-03 0.0 
0.0 0.0 0.0 
-1.347650324833e-03 2.091875011341e-03 0.0 
2.091875011341e-03 1.092746144406e-02 0.0 
0.0 0.0 0.0 
-1.205008430180e-03 2.347786686507e-03 0.0 
2.347786686507e-03 1.077267489122e-02 0.0 
0.0 0.0 0.0 
-9.151918759950e-04 2.515576300836e-03 0.0 
2.515576300836e-03 1.091076190240e-02 0.0 
0.0 0.0 0.0 
-1.047150740610e-03 2.598622339211e-03 0.0 
2.598622339211e-03 1.057333475271e-02 0.0 
0.0 0.0 0.0 
-1.316978136073e-03 2.437231426572e-03 0.0 
2.437231426572e-03 1.042149914601e-02 0.0 
0.0 0.0 0.0 
-1.141799952428e-03 2.685047838389e-03 0.0 
2.685047838389e-03 1.019250422493e-02 0.0 
0.0 0.0 0.0 
-8.582653853175e-04 2.838548706775e-03 0.0 
2.838548706775e-03 1.035088316766e-02 0.0 
0.0 0.0 0.0 
-9.398725721043e-04 2.927372501273e-03 0.0 
2.927372501273e-03 9.926816209714e-03 0.0 
0.0 0.0 0.0 
-6.283678575458e-04 3.110660956305e-03 0.0 
3.110660956305e-03 1.013298851665e-02 0.0 
0.0 0.0 0.0 
-7.301977113316e-04 3.150003987048e-03 0.0 
3.150003987048e-03 9.614034875208e-03 0.0 
0.0 0.0 0.0 
-9.732758146465e-04 3.013367830423e-03 0.0 
3.013367830423e-03 9.442875937974e-03 0.0 
0.0 0.0 0.0 
-7.531829149261e-04 3.205641248932e-03 0.0 
3.205641248932e-03 9.108955870642e-03 0.0 
0.0 0.0 0.0 
-5.534455568100e-04 3.341329620657e-03 0.0 
3.341329620657e-03 9.269463506656e-03 0.0 
0.0 0.0 0.0 
-9.691524836063e-04 3.114472936185e-03 0.0 
3.114472936185e-03 8.926094408337e-03 0.0 
0.0 0.0 0.0 
8.716641801783e-04 2.425870590769e-03 0.0 
2.425870590769e-03 4.256899546788e-03 0.0 
0.0 0.0 0.0 
2.238121545936e-03 3.883570174382e-03 0.0 
3.883570174382e-03 6.328449583489e-04 0.0 
0.0 0.0 0.0 
1.580196782157e-03 1.293678588317e-03 0.0 
1.293678588317e-03 -4.301204182012e-03 0.0 
0.0 0.0 0.0 
7.987664453197e-04 3.645306735139e-03 0.0 
3.645306735139e-03 -2.679305920578e-03 0.0 
0.0 0.0 0.0 
-7.784982295737e-04 3.716704129445e-03 0.0 
3.716704129445e-03 5.863421101583e-03 0.0 
0.0 0.0 0.0 
-3.312195343648e-04 3.208460026878e-03 0.0 
3.208460026878e-03 1.049821330760e-02 0.0 
0.0 0.0 0.0 
-3.768839626307e-04 2.764362893873e-03 0.0 
2.764362893873e-03 1.118403760207e-02 0.0 
0.0 0.0 0.0 
3.616865353840e-03 3.228105826994e-03 0.0 
3.228105826994e-03 -1.935019064097e-03 0.0 
0.0 0.0 0.0 
-4.172799881604e-05 3.828754837658e-03 0.0 
3.828754837658e-03 8.328606600877e-03 0.0 
0.0 0.0 0.0 
-2.024652886117e-03 2.421694874152e-03 0.0 
2.421694874152e-03 8.791486430268e-03 0.0 
0.0 0.0 0.0 
3.702218630084e-03 2.133637162932e-03 0.0 
2.133637162932e-03 -3.593850541916e-03 0.0 
0.0 0.0 0.0 
1.255128944201e-04 3.775842297922e-03 0.0 
3.775842297922e-03 7.305945895488e-03 0.0 
0.0 0.0 0.0 
-1.470311943079e-03 2.179931958846e-03 0.0 
2.179931958846e-03 1.061068128304e-02 0.0 
0.0 0.0 0.0 
-1.567586597632e-03 2.276811399565e-03 0.0 
2.276811399565e-03 1.026279844369e-02 0.0 
0.0 0.0 0.0 
-1.704762994285e-03 2.010544458523e-03 0.0 
2.010544458523e-03 1.043972436204e-02 0.0 
0.0 0.0 0.0 
-3.581294494127e-04 2.355543097469e-03 0.0 
2.355543097469e-03 1.165220805202e-02 0.0 
0.0 0.0 0.0 
-1.801731269763e-03 9.526624396260e-04 0.0 
9.526624396260e-04 1.084567973151e-02 0.0 
0.0 0.0 0.0 
4.111481335582e-04 3.097663916699e-03 0.0 
3.097663916699e-03 5.507581183414e-03 0.0 
0.0 0.0 0.0 
3.527754236455e-03 2.115456270386e-03 0.0 
2.115456270386e-03 -5.743884430258e-04 0.0 
0.0 0.0 0.0 
3.441542766115e-03 2.608359622379e-03 0.0 
2.608359622379e-03 -4.678038143391e-04 0.0 
0.0 0.0 0.0 
3.755714847031e-03 2.655563871133e-03 0.0 
2.655563871133e-03 -1.074452826848e-03 0.0 
0.0 0.0 0.0 
-1.197883157406e-03 2.780728492673e-03 0.0 
2.780728492673e-03 9.760408368946e-03 0.0 
0.0 0.0 0.0 
5.877027937927e-04 1.787883588442e-03 0.0 
1.787883588442e-03 4.259207038288e-03 0.0 
0.0 0.0 0.0 
1.099356435017e-03 1.497443012841e-03 0.0 
1.497443012841e-03 3.459208859831e-03 0.0 
0.0 0.0 0.0 
1.079117756794e-03 1.170654830152e-03 0.0 
1.170654830152e-03 3.358873268863e-03 0.0 
0.0 0.0 0.0 
1.572123114597e-03 1.221430066994e-03 0.0 
1.221430066994e-03 2.647851333185e-03 0.0 
0.0 0.0 0.0 
5.656953703146e-04 1.078978760359e-03 0.0 
1.078978760359e-03 4.046420206762e-03 0.0 
0.0 0.0 0.0 
-2.280350371529e-04 3.561267046556e-03 0.0 
3.561267046556e-03 9.745004682355e-03 0.0 
0.0 0.0 0.0 
-1.669199655838e-04 3.695887981037e-03 0.0 
3.695887981037e-03 9.315482254501e-03 0.0 
0.0 0.0 0.0 
2.829792843694e-03 -2.615684890623e-03 0.0 
-2.615684890623e-03 -2.222333164242e-03 0.0 
0.0 0.0 0.0 
3.509520002671e-03 -2.062969623828e-03 0.0 
-2.062969623828e-03 -2.758656721493e-03 0.0 
0.0 0.0 0.0 
3.607448094851e-03 -1.817361398355e-03 0.0 
-1.817361398355e-03 -2.631080753830e-03 0.0 
0.0 0.0 0.0 
4.085901217719e-03 -1.372019750699e-03 0.0 
-1.372019750699e-03 -3.135082145139e-03 0.0 
0.0 0.0 0.0 
3.943449077787e-03 -1.614818898988e-03 0.0 
-1.614818898988e-03 -3.302299342376e-03 0.0 
0.0 0.0 0.0 
4.419403265902e-03 -7.502574858116e-04 0.0 
-7.502574858116e-04 -3.530218126691e-03 0.0 
0.0 0.0 0.0 
4.532295386545e-03 -6.090191457220e-04 0.0 
-6.090191457220e-04 -3.321546295514e-03 0.0 
0.0 0.0 0.0 
4.565974646476e-03 4.415681392622e-05 0.0 
4.415681392622e-05 -3.763219928969e-03 0.0 
0.0 0.0 0.0 
-4.820018399961e-04 3.413199228826e-03 0.0 
3.413199228826e-03 8.221733796100e-03 0.0 
0.0 0.0 0.0 
4.632279439734e-04 4.448021467427e-04 0.0 
4.448021467427e-04 4.104858972429e-03 0.0 
0.0 0.0 0.0 
1.804042179401e-03 -1.407842953218e-03 0.0 
-1.407842953218e-03 4.608333359685e-04 0.0 
0.0 0.0 0.0 
2.251925913218e-03 -1.350983825836e-03 0.0 
-1.350983825836e-03 -2.192707488986e-04 0.0 
0.0 0.0 0.0 
2.369023470362e-03 -1.547813474004e-03 0.0 
-1.547813474004e-03 -6.499441184467e-04 0.0 
0.0 0.0 0.0 
-3.145175865973e-04 -1.823873086511e-03 0.0 
-1.823873086511e-03 2.101422527215e-03 0.0 
0.0 0.0 0.0 
3.207467185518e-06 -1.927041823701e-03 0.0 
-1.927041823701e-03 1.819541050204e-03 0.0 
0.0 0.0 0.0 
2.423662085114e-05 -1.776008177690e-03 0.0 
-1.776008177690e-03 2.072274959336e-03 0.0 
0.0 0.0 0.0 
-5.863628393523e-04 -1.662213582300e-03 0.0 
-1.662213582300e-03 2.342202544980e-03 0.0 
0.0 0.0 0.0 
1.215380508013e-03 3.611077352386e-03 0.0 
3.611077352386e-03 3.729994958305e-03 0.0 
0.0 0.0 0.0 
4.104567952116e-04 1.745241264707e-04 0.0 
1.745241264707e-04 4.182396487082e-03 0.0 
0.0 0.0 0.0 
3.520092615385e-03 4.854537507855e-05 0.0 
4.854537507855e-05 -1.273597721038e-03 0.0 
0.0 0.0 0.0 
3.453586736930e-04 -2.121162865470e-03 0.0 
-2.121162865470e-03 1.281675646312e-03 0.0 
0.0 0.0 0.0 
-2.105887447443e-03 7.195760315911e-04 0.0 
7.195760315911e-04 9.948649466718e-03 0.0 
0.0 0.0 0.0 
-2.097417997191e-03 9.804871947109e-04 0.0 
9.804871947109e-04 1.017354009774e-02 0.0 
0.0 0.0 0.0 
-2.179565134589e-03 1.174137171410e-03 0.0 
1.174137171410e-03 1.007592517275e-02 0.0 
0.0 0.0 0.0 
-2.043565155246e-03 1.263529177469e-03 0.0 
1.263529177469e-03 1.037715340784e-02 0.0 
0.0 0.0 0.0 
-2.023029605375e-03 8.159679823129e-04 0.0 
8.159679823129e-04 1.029331555352e-02 0.0 
0.0 0.0 0.0 
-7.277339005723e-04 -1.223310820854e-03 0.0 
-1.223310820854e-03 3.206339317102e-03 0.0 
0.0 0.0 0.0 
-8.743688561592e-04 -9.696386771787e-04 0.0 
-9.696386771787e-04 3.565204844336e-03 0.0 
0.0 0.0 0.0 
-1.057496067836e-03 -8.102359946990e-04 0.0 
-8.102359946990e-04 3.636440029946e-03 0.0 
0.0 0.0 0.0 
-9.772179578397e-04 -7.195060013969e-04 0.0 
-7.195060013969e-04 3.869872163464e-03 0.0 
0.0 0.0 0.0 
-1.129868392283e-03 -5.563262861756e-04 0.0 
-5.563262861756e-04 3.884389853861e-03 0.0 
0.0 0.0 0.0 
-1.194504573637e-03 -6.272610479508e-04 0.0 
-6.272610479508e-04 3.672916165726e-03 0.0 
0.0 0.0 0.0 
-1.045442306868e-03 -4.725763390291e-04 0.0 
-4.725763390291e-04 4.124567871754e-03 0.0 
0.0 0.0 0.0 
-1.171102514073e-03 -3.203721929446e-04 0.0 
-3.203721929446e-04 4.063522067441e-03 0.0 
0.0 0.0 0.0 
-1.946283946516e-03 4.612793909344e-04 0.0 
4.612793909344e-04 1.003414707575e-02 0.0 
0.0 0.0 0.0 
-1.552467250251e-03 -2.373723301817e-03 0.0 
-2.373723301817e-03 -7.241749485979e-04 0.0 
0.0 0.0 0.0 
-6.421884565747e-04 -3.178893544489e-03 0.0 
-3.178893544489e-03 -4.758562408376e-04 0.0 
0.0 0.0 0.0 
-8.560842207961e-04 -2.348600838080e-03 0.0 
-2.348600838080e-03 5.532483478254e-04 0.0 
0.0 0.0 0.0 
1.962544525846e-05 -3.312884674671e-03 0.0 
-3.312884674671e-03 -4.213372608561e-04 0.0 
0.0 0.0 0.0 
8.986369633718e-04 -3.438421118801e-03 0.0 
-3.438421118801e-03 -2.032635086653e-03 0.0 
0.0 0.0 0.0 
1.319979096867e-03 -3.359435112734e-03 0.0 
-3.359435112734e-03 -1.682066280382e-03 0.0 
0.0 0.0 0.0 
2.208405963628e-03 -3.179804128911e-03 0.0 
-3.179804128911e-03 -3.041738229254e-03 0.0 
0.0 0.0 0.0 
1.473970911251e-04 -3.171810283655e-03 0.0 
-3.171810283655e-03 -2.475821594087e-03 0.0 
0.0 0.0 0.0 
-8.621463750578e-04 -8.492726713378e-04 0.0 
-8.492726713378e-04 5.272894401026e-04 0.0 
0.0 0.0 0.0 
-7.524581902516e-04 -1.586913636899e-03 0.0 
-1.586913636899e-03 7.201379902870e-04 0.0 
0.0 0.0 0.0 
-5.527748931184e-04 -5.221769095016e-04 0.0 
-5.221769095016e-04 4.652498700168e-04 0.0 
0.0 0.0 0.0 
-5.453300200141e-04 -1.163083096198e-03 0.0 
-1.163083096198e-03 6.931771737550e-04 0.0 
0.0 0.0 0.0 
-4.010706088980e-04 -2.074883425718e-03 0.0 
-2.074883425718e-03 6.733336471130e-04 0.0 
0.0 0.0 0.0 
-1.717830963331e-04 -1.758817864585e-03 0.0 
-1.758817864585e-03 9.718152958785e-04 0.0 
0.0 0.0 0.0 
-1.662374685859e-04 -3.986522855363e-04 0.0 
-3.986522855363e-04 5.680694536550e-03 0.0 
0.0 0.0 0.0 
-1.344022289731e-03 -2.530604121653e-04 0.0 
-2.530604121653e-04 3.487883357492e-03 0.0 
0.0 0.0 0.0 
-1.294752049060e-03 -4.988678964982e-04 0.0 
-4.988678964982e-04 3.311894131027e-03 0.0 
0.0 0.0 0.0 
-1.234220145679e-03 -4.836586829394e-04 0.0 
-4.836586829394e-04 3.079056257060e-03 0.0 
0.0 0.0 0.0 
-1.191750035666e-03 -7.592983517575e-04 0.0 
-7.592983517575e-04 3.081171169018e-03 0.0 
0.0 0.0 0.0 
-1.301705713198e-03 -4.786607650655e-04 0.0 
-4.786607650655e-04 3.527412456315e-03 0.0 
0.0 0.0 0.0 
-1.202303116425e-03 -2.317617264799e-04 0.0 
-2.317617264799e-04 2.982413455797e-03 0.0 
0.0 0.0 0.0 
-1.102937574361e-03 -4.492583281525e-04 0.0 
-4.492583281525e-04 2.816565178725e-03 0.0 
0.0 0.0 0.0 
1.964588894923e-03 -1.129308799396e-04 0.0 
-1.129308799396e-04 -5.692019314339e-04 0.0 
0.0 0.0 0.0 
1.437513930408e-03 -1.409568680762e-04 0.0 
-1.409568680762e-04 -2.835552896835e-05 0.0 
0.0 0.0 0.0 
1.579473317337e-03 -3.199808514288e-05 0.0 
-3.199808514288e-05 -1.266029862319e-04 0.0 
0.0 0.0 0.0 
8.991285485350e-04 -1.397459549335e-04 0.0 
-1.397459549335e-04 5.431575134283e-04 0.0 
0.0 0.0 0.0 
8.706871259967e-04 -2.260046887337e-04 0.0 
-2.260046887337e-04 5.380599351902e-04 0.0 
0.0 0.0 0.0 
1.345626611101e-03 -2.201005023355e-04 0.0 
-2.201005023355e-04 7.516947309216e-06 0.0 
0.0 0.0 0.0 
1.192138754478e-03 -2.939600230827e-04 0.0 
-2.939600230827e-04 6.552581552340e-05 0.0 
0.0 0.0 0.0 
1.632241715350e-03 -1.948216522671e-04 0.0 
-1.948216522671e-04 -4.271926565118e-04 0.0 
0.0 0.0 0.0 
9.964941091544e-04 -3.789304431930e-04 0.0 
-3.789304431930e-04 1.485173742939e-04 0.0 
0.0 0.0 0.0 
6.054358451284e-04 -4.373008120574e-04 0.0 
-4.373008120574e-04 6.287188047106e-04 0.0 
0.0 0.0 0.0 
1.405878943315e-03 -2.498723180508e-04 0.0 
-2.498723180508e-04 -3.424734513057e-04 0.0 
0.0 0.0 0.0 
-1.053263888207e-03 7.788439660360e-05 0.0 
7.788439660360e-05 1.169470840734e-02 0.0 
0.0 0.0 0.0 
-9.588554472891e-04 1.732797002818e-04 0.0 
1.732797002818e-04 1.185274890990e-02 0.0 
0.0 0.0 0.0 
2.965198112432e-04 -2.457511425471e-04 0.0 
-2.457511425471e-04 4.437459311538e-03 0.0 
0.0 0.0 0.0 
-1.781095623481e-03 3.002871897761e-04 0.0 
3.002871897761e-04 1.010551459153e-02 0.0 
0.0 0.0 0.0 
1.371807375213e-05 -3.579773924562e-04 0.0 
-3.579773924562e-04 2.716949229885e-04 0.0 
0.0 0.0 0.0 
-3.122063207713e-04 6.370150339080e-04 0.0 
6.370150339080e-04 1.254687909026e-02 0.0 
0.0 0.0 0.0 
-3.064590742939e-04 1.141174798085e-03 0.0 
1.141174798085e-03 1.243031849486e-02 0.0 
0.0 0.0 0.0 
-2.786347793080e-04 9.787011305252e-04 0.0 
9.787011305252e-04 1.249579767398e-02 0.0 
0.0 0.0 0.0 
-5.227086675795e-04 -1.146556863643e-04 0.0 
-1.146556863643e-04 5.451805457172e-03 0.0 
0.0 0.0 0.0 
-4.161791633843e-04 -2.130602725626e-04 0.0 
-2.130602725626e-04 5.545768010444e-03 0.0 
0.0 0.0 0.0 
-2.821800813948e-04 3.621242202342e-04 0.0 
3.621242202342e-04 1.260037319451e-02 0.0 
0.0 0.0 0.0 
-1.035645428952e-04 -2.061585309809e-03 0.0 
-2.061585309809e-03 1.268957549670e-03 0.0 
0.0 0.0 0.0 
-7.702659808927e-04 2.775493424590e-03 0.0 
2.775493424590e-03 1.071106935943e-02 0.0 
0.0 0.0 0.0 
-7.838480301264e-04 6.423625473601e-04 0.0 
6.423625473601e-04 1.214097714792e-02 0.0 
0.0 0.0 0.0 
3.042813938862e-03 3.160109248562e-03 0.0 
3.160109248562e-03 -2.777452464609e-03 0.0 
0.0 0.0 0.0 
6.805332548438e-04 -2.628887329997e-03 0.0 
-2.628887329997e-03 1.969666302201e-04 0.0 
0.0 0.0 0.0 
-7.929229234926e-04 -5.219598016061e-04 0.0 
-5.219598016061e-04 4.401671283336e-03 0.0 
0.0 0.0 0.0 
8.782441566542e-05 -1.383764455421e-03 0.0 
-1.383764455421e-03 2.699453181707e-03 0.0 
0.0 0.0 0.0 
-3.649858784285e-04 -5.619740539371e-04 0.0 
-5.619740539371e-04 4.722354121531e-03 0.0 
0.0 0.0 0.0 
-5.807011190292e-04 -9.449358555036e-04 0.0 
-9.449358555036e-04 3.742600926329e-03 0.0 
0.0 0.0 0.0 
-8.726781617454e-05 -8.196078158402e-04 0.0 
-8.196078158402e-04 3.937423859854e-03 0.0 
0.0 0.0 0.0 
1.054955142462e-03 7.989634377922e-04 0.0 
7.989634377922e-04 3.282912436813e-03 0.0 
0.0 0.0 0.0 
1.751433927070e-05 -4.069986662310e-04 0.0 
-4.069986662310e-04 1.404220185866e-03 0.0 
0.0 0.0 0.0 
-1.554865924722e-03 5.615333303350e-04 0.0 
5.615333303350e-04 1.106184201521e-02 0.0 
0.0 0.0 0.0 
-1.454329874654e-03 3.069903399410e-04 0.0 
3.069903399410e-04 1.097370510957e-02 0.0 
0.0 0.0 0.0 
-1.149802838678e-03 6.128507113060e-04 0.0 
6.128507113060e-04 1.172205280353e-02 0.0 
0.0 0.0 0.0 
-6.689228258383e-04 -1.375479560506e-03 0.0 
-1.375479560506e-03 2.100851152237e-03 0.0 
0.0 0.0 0.0 
-1.109284978468e-03 -8.884565940580e-04 0.0 
-8.884565940580e-04 3.419343294912e-03 0.0 
0.0 0.0 0.0 
-2.177329322339e-04 -1.141308657552e-03 0.0 
-1.141308657552e-03 1.320488810407e-03 0.0 
0.0 0.0 0.0 
1.583545534766e-04 3.666548794658e-03 0.0 
3.666548794658e-03 7.165042249093e-03 0.0 
0.0 0.0 0.0 
-1.480178125705e-03 3.194389281845e-03 0.0 
3.194389281845e-03 7.258446203882e-03 0.0 
0.0 0.0 0.0 
1.987172843856e-03 -1.847693124345e-03 0.0 
-1.847693124345e-03 -3.715919462600e-04 0.0 
0.0 0.0 0.0 
-3.284468136797e-04 -1.901919430117e-03 0.0 
-1.901919430117e-03 1.915017434188e-03 0.0 
0.0 0.0 0.0 
2.005916190121e-04 -2.317486168771e-03 0.0 
-2.317486168771e-03 9.567042474155e-04 0.0 
0.0 0.0 0.0 
9.374213314664e-04 -2.796925438122e-03 0.0 
-2.796925438122e-03 -2.302554953670e-04 0.0 
0.0 0.0 0.0 
1.658078625585e-03 3.945636060939e-03 0.0 
3.945636060939e-03 1.600759198219e-03 0.0 
0.0 0.0 0.0 
7.315328927135e-04 -2.117354024449e-03 0.0 
-2.117354024449e-03 9.296843578105e-04 0.0 
0.0 0.0 0.0 
9.225271946663e-04 -1.021262824968e-03 0.0 
-1.021262824968e-03 2.292123739377e-03 0.0 
0.0 0.0 0.0 
-1.006891035292e-03 5.614239071925e-04 0.0 
5.614239071925e-04 1.188872715023e-02 0.0 
0.0 0.0 0.0 
7.227532036043e-04 -3.423581445082e-04 0.0 
-3.423581445082e-04 -2.462815611926e-05 0.0 
0.0 0.0 0.0 
1.128857851618e-03 -7.916960872890e-04 0.0 
-7.916960872890e-04 2.252888106512e-03 0.0 
0.0 0.0 0.0 
7.076271957113e-04 -1.722130034530e-03 0.0 
-1.722130034530e-03 1.548188439492e-03 0.0 
0.0 0.0 0.0 
-1.675356873598e-03 9.233780723750e-04 0.0 
9.233780723750e-04 1.106296334308e-02 0.0 
0.0 0.0 0.0 
2.499124478170e-03 1.662189959221e-03 0.0 
1.662189959221e-03 1.289310879373e-03 0.0 
0.0 0.0 0.0 
1.024487617853e-03 -3.287525059347e-03 0.0 
-3.287525059347e-03 -9.596488511499e-04 0.0 
0.0 0.0 0.0 
-1.202443334239e-03 9.921888086901e-04 0.0 
9.921888086901e-04 1.171338876706e-02 0.0 
0.0 0.0 0.0 
-8.525519951226e-04 1.836242314373e-03 0.0 
1.836242314373e-03 1.170593496201e-02 0.0 
0.0 0.0 0.0 
-1.918030961372e-03 9.906357974146e-04 0.0 
9.906357974146e-04 1.062298348970e-02 0.0 
0.0 0.0 0.0 
1.160262636252e-05 -8.653112076583e-04 0.0 
-8.653112076583e-04 1.006321639341e-03 0.0 
0.0 0.0 0.0 
-1.647787281808e-03 4.316274329701e-04 0.0 
4.316274329701e-04 1.072459864954e-02 0.0 
0.0 0.0 0.0 
9.824103788408e-04 -6.832306629106e-05 0.0 
-6.832306629106e-05 3.110993843400e-03 0.0 
0.0 0.0 0.0 
-1.463772466099e-03 1.837566530306e-03 0.0 
1.837566530306e-03 1.104036316086e-02 0.0 
0.0 0.0 0.0 
-6.964166876234e-04 -1.069416354907e-03 0.0 
-1.069416354907e-03 2.133725105890e-03 0.0 
0.0 0.0 0.0 
4.323683290353e-03 4.074044929799e-04 0.0 
4.074044929799e-04 -2.330423006206e-03 0.0 
0.0 0.0 0.0 
1.308852149821e-04 4.023089008971e-03 0.0 
4.023089008971e-03 4.228295039705e-03 0.0 
0.0 0.0 0.0 
-2.290762304520e-03 1.382237653782e-03 0.0 
1.382237653782e-03 9.103526744465e-03 0.0 
0.0 0.0 0.0 
-6.984817746168e-04 7.921178094919e-04 0.0 
7.921178094919e-04 1.220947134134e-02 0.0 
0.0 0.0 0.0 
2.778653627309e-03 3.387349181126e-03 0.0 
3.387349181126e-03 3.872955869368e-04 0.0 
0.0 0.0 0.0 
2.102904099906e-03 1.080812991578e-03 0.0 
1.080812991578e-03 1.735721928079e-03 0.0 
0.0 0.0 0.0 
3.455095469460e-03 6.245975611055e-04 0.0 
6.245975611055e-04 -8.432359087877e-04 0.0 
0.0 0.0 0.0 
-8.656926776442e-04 -8.856087072648e-04 0.0 
-8.856087072648e-04 2.413500703870e-03 0.0 
0.0 0.0 0.0 
5.067110130378e-04 -7.446059401342e-04 0.0 
-7.446059401342e-04 3.374620281090e-03 0.0 
0.0 0.0 0.0 
4.241324661276e-03 2.178501584281e-03 0.0 
2.178501584281e-03 -1.849111353325e-03 0.0 
0.0 0.0 0.0 
-9.665144469811e-04 1.124028575658e-03 0.0 
1.124028575658e-03 1.194176173392e-02 0.0 
0.0 0.0 0.0 
1.346624770491e-04 3.641656592049e-03 0.0 
3.641656592049e-03 6.015067004010e-03 0.0 
0.0 0.0 0.0 
4.838262374513e-03 9.593225513836e-04 0.0 
9.593225513836e-04 -3.029156050842e-03 0.0 
0.0 0.0 0.0 
-1.236012251092e-03 1.461530808788e-03 0.0 
1.461530808788e-03 1.157285366728e-02 0.0 
0.0 0.0 0.0 
2.821843978927e-03 -1.364423766919e-03 0.0 
-1.364423766919e-03 -1.194994251420e-03 0.0 
0.0 0.0 0.0 
2.167639157969e-03 2.016885985544e-03 0.0 
2.016885985544e-03 2.006581803496e-03 0.0 
0.0 0.0 0.0 
-1.241112158281e-03 3.418851749392e-03 0.0 
3.418851749392e-03 6.587764390202e-03 0.0 
0.0 0.0 0.0 
-2.306265560633e-05 3.864112517611e-03 0.0 
3.864112517611e-03 5.434962470799e-03 0.0 
0.0 0.0 0.0 
-1.100515142644e-03 3.212082313085e-03 0.0 
3.212082313085e-03 8.198905461678e-03 0.0 
0.0 0.0 0.0 
1.264751784128e-03 3.908537901558e-03 0.0 
3.908537901558e-03 2.928664856021e-03 0.0 
0.0 0.0 0.0 
-9.458984879131e-04 -3.871470817595e-04 0.0 
-3.871470817595e-04 4.387348332029e-03 0.0 
0.0 0.0 0.0 
7.966630799074e-04 -7.738848793776e-04 0.0 
-7.738848793776e-04 2.829570023165e-03 0.0 
0.0 0.0 0.0 
3.403407446902e-03 -1.161838514201e-03 0.0 
-1.161838514201e-03 -4.305691406038e-03 0.0 
0.0 0.0 0.0 
1.323850761628e-03 4.081410159060e-03 0.0 
4.081410159060e-03 1.531102757699e-03 0.0 
0.0 0.0 0.0 
-1.786870755614e-03 1.171823587015e-03 0.0 
1.171823587015e-03 1.089240063833e-02 0.0 
0.0 0.0 0.0 
6.303577868916e-04 3.461050059688e-03 0.0 
3.461050059688e-03 5.565854901469e-03 0.0 
0.0 0.0 0.0 
-6.946119109349e-04 1.244066075651e-03 0.0 
1.244066075651e-03 1.214341073332e-02 0.0 
0.0 0.0 0.0 
-4.722955648554e-06 4.027923736245e-03 0.0 
4.027923736245e-03 4.180399171515e-03 0.0 
0.0 0.0 0.0 
3.277406086359e-04 -8.660279727263e-04 0.0 
-8.660279727263e-04 3.404139943991e-03 0.0 
0.0 0.0 0.0 
-9.630373749823e-04 1.613423039108e-03 0.0 
1.613423039108e-03 1.175945752278e-02 0.0 
0.0 0.0 0.0 
3.515406272336e-04 -1.964608868424e-03 0.0 
-1.964608868424e-03 1.514785282624e-03 0.0 
0.0 0.0 0.0 
-2.754606792191e-04 -1.412231935137e-04 0.0 
-1.412231935137e-04 1.786827131386e-03 0.0 
0.0 0.0 0.0 
2.183459540953e-03 3.444796175523e-03 0.0 
3.444796175523e-03 -2.652726935162e-03 0.0 
0.0 0.0 0.0 
4.720362440014e-03 9.520411234614e-04 0.0 
9.520411234614e-04 -3.525038052108e-03 0.0 
0.0 0.0 0.0 
3.394644950793e-03 3.115472011188e-03 0.0 
3.115472011188e-03 -5.985306279346e-04 0.0 
0.0 0.0 0.0 
3.601266381143e-04 -1.782163576248e-03 0.0 
-1.782163576248e-03 1.806552980075e-03 0.0 
0.0 0.0 0.0 
-7.132689083068e-04 2.478839732849e-03 0.0 
2.478839732849e-03 1.121395811651e-02 0.0 
0.0 0.0 0.0 
1.017423817530e-04 -7.735183334993e-04 0.0 
-7.735183334993e-04 3.893029314522e-03 0.0 
0.0 0.0 0.0 
2.008217178498e-03 -3.522844166598e-04 0.0 
-3.522844166598e-04 1.142972133038e-03 0.0 
0.0 0.0 0.0 
-1.321176903924e-03 3.675968051258e-03 0.0 
3.675968051258e-03 6.604636602763e-04 0.0 
0.0 0.0 0.0 
-2.244037052002e-03 1.781704683736e-03 0.0 
1.781704683736e-03 8.934143808078e-03 0.0 
0.0 0.0 0.0 
-7.731045991107e-05 -6.777355343145e-04 0.0 
-6.777355343145e-04 4.338197629369e-03 0.0 
0.0 0.0 0.0 
3.896986161394e-03 -8.504331564904e-05 0.0 
-8.504331564904e-05 -1.928916243130e-03 0.0 
0.0 0.0 0.0 
2.044809992257e-03 1.718687649745e-03 0.0 
1.718687649745e-03 2.092293508244e-03 0.0 
0.0 0.0 0.0 
-1.246863596674e-03 -3.886104707291e-04 0.0 
-3.886104707291e-04 3.857656121306e-03 0.0 
0.0 0.0 0.0 
3.153892428885e-04 3.591604295251e-03 0.0 
3.591604295251e-03 6.600111242383e-03 0.0 
0.0 0.0 0.0 
-1.850288381694e-03 2.539462744178e-03 0.0 
2.539462744178e-03 7.277413621597e-03 0.0 
0.0 0.0 0.0 
-2.086403087022e-04 -5.850705970716e-04 0.0 
-5.850705970716e-04 4.741281902528e-03 0.0 
0.0 0.0 0.0 
2.387295889980e-03 2.460244221338e-04 0.0 
2.460244221338e-04 8.649896238888e-04 0.0 
0.0 0.0 0.0 
3.170939036834e-03 3.595482960416e-03 0.0 
3.595482960416e-03 -1.129906364120e-03 0.0 
0.0 0.0 0.0 
-1.503225441602e-03 5.123834008003e-05 0.0 
5.123834008003e-05 1.004420759842e-02 0.0 
0.0 0.0 0.0 
-1.513302802663e-04 -5.242054883551e-04 0.0 
-5.242054883551e-04 5.178271116866e-03 0.0 
0.0 0.0 0.0 
1.964854395607e-03 4.487889933583e-04 0.0 
4.487889933583e-04 1.676561285489e-03 0.0 
0.0 0.0 0.0 
1.267289412015e-03 3.792231067740e-03 0.0 
3.792231067740e-03 3.282012561502e-03 0.0 
0.0 0.0 0.0 
3.672521108367e-03 -6.256720234909e-04 0.0 
-6.256720234909e-04 -1.906460870386e-03 0.0 
0.0 0.0 0.0 
-2.192771026881e-03 1.584747774043e-03 0.0 
1.584747774043e-03 8.467901555655e-03 0.0 
0.0 0.0 0.0 
5.407668254048e-05 -1.594666610685e-03 0.0 
-1.594666610685e-03 2.366990670791e-03 0.0 
0.0 0.0 0.0 
-3.369531451580e-04 3.722175677574e-03 0.0 
3.722175677574e-03 6.271096447670e-03 0.0 
0.0 0.0 0.0 
-3.388555169935e-04 2.150078176711e-03 0.0 
2.150078176711e-03 1.184017183354e-02 0.0 
0.0 0.0 0.0 
1.814759256563e-03 8.253545189246e-04 0.0 
8.253545189246e-04 2.058968508546e-03 0.0 
0.0 0.0 0.0 
-1.793715109380e-03 2.117579342763e-03 0.0 
2.117579342763e-03 1.010452404506e-02 0.0 
0.0 0.0 0.0 
-2.517975245102e-04 -1.561066267180e-03 0.0 
-1.561066267180e-03 2.586582621641e-03 0.0 
0.0 0.0 0.0 
2.574522956305e-03 2.769147904384e-03 0.0 
2.769147904384e-03 1.283020105918e-03 0.0 
0.0 0.0 0.0 
7.837813433186e-04 -3.093946479968e-04 0.0 
-3.093946479968e-04 5.588084713914e-04 0.0 
0.0 0.0 0.0 
-2.112627592327e-03 2.088094310620e-03 0.0 
2.088094310620e-03 8.179878075898e-03 0.0 
0.0 0.0 0.0 
-4.783598378079e-04 -1.329348452223e-03 0.0 
-1.329348452223e-03 3.051309455914e-03 0.0 
0.0 0.0 0.0 
4.740837591096e-03 1.161993998441e-04 0.0 
1.161993998441e-04 -3.535572677085e-03 0.0 
0.0 0.0 0.0 
3.152807598466e-03 -9.445795064577e-04 0.0 
-9.445795064577e-04 -1.371354511980e-03 0.0 
0.0 0.0 0.0 
1.057922020488e-03 2.663707107358e-03 0.0 
2.663707107358e-03 4.211353235542e-03 0.0 
0.0 0.0 0.0 
-6.572895743269e-04 -1.090382411894e-03 0.0 
-1.090382411894e-03 3.462364407119e-03 0.0 
0.0 0.0 0.0 
4.782498307716e-03 1.852195035322e-04 0.0 
1.852195035322e-04 -3.278876367757e-03 0.0 
0.0 0.0 0.0 
-7.922310066448e-04 -8.521689847651e-04 0.0 
-8.521689847651e-04 3.820132034582e-03 0.0 
0.0 0.0 0.0 
-2.013351670861e-03 1.897081749499e-03 0.0 
1.897081749499e-03 7.785051642087e-03 0.0 
0.0 0.0 0.0 
-1.636970191742e-03 2.394839072482e-03 0.0 
2.394839072482e-03 9.887078468341e-03 0.0 
0.0 0.0 0.0 
-8.897060887153e-04 -6.170100811486e-04 0.0 
-6.170100811486e-04 4.132474002712e-03 0.0 
0.0 0.0 0.0 
-2.200908223106e-04 3.626808985049e-03 0.0 
3.626808985049e-03 6.518810010078e-03 0.0 
0.0 0.0 0.0 
3.958976709071e-04 -5.881357856013e-04 0.0 
-5.881357856013e-04 7.231706985531e-04 0.0 
0.0 0.0 0.0 
1.647888078992e-03 3.573704750718e-03 0.0 
3.573704750718e-03 2.780503238482e-03 0.0 
0.0 0.0 0.0 
-5.708242498635e-04 -2.386296226635e-04 0.0 
-2.386296226635e-04 5.239809662625e-03 0.0 
0.0 0.0 0.0 
1.047711844555e-03 -2.525435957839e-03 0.0 
-2.525435957839e-03 1.242937968873e-04 0.0 
0.0 0.0 0.0 
2.706117905087e-03 -1.193892769455e-03 0.0 
-1.193892769455e-03 -8.471976430678e-04 0.0 
0.0 0.0 0.0 
-1.397244337371e-03 2.537809032236e-03 0.0 
2.537809032236e-03 1.003630359391e-02 0.0 
0.0 0.0 0.0 
-1.793164502343e-03 2.309944121413e-03 0.0 
2.309944121413e-03 7.027915467597e-03 0.0 
0.0 0.0 0.0 
2.531350234171e-03 -9.741792999763e-04 0.0 
-9.741792999763e-04 -2.970061318755e-04 0.0 
0.0 0.0 0.0 
-1.337813093185e-04 3.557492545748e-03 0.0 
3.557492545748e-03 6.811222393242e-03 0.0 
0.0 0.0 0.0 
1.943074225595e-03 3.293933201484e-03 0.0 
3.293933201484e-03 2.408319284724e-03 0.0 
0.0 0.0 0.0 
3.184247410415e-03 3.038771167802e-03 0.0 
3.038771167802e-03 -1.333650028305e-04 0.0 
0.0 0.0 0.0 
2.299911127701e-03 -6.537008650094e-04 0.0 
-6.537008650094e-04 4.091468202306e-04 0.0 
0.0 0.0 0.0 
-1.453593513435e-03 3.077980099888e-03 0.0 
3.077980099888e-03 6.144127188164e-03 0.0 
0.0 0.0 0.0 
8.448430246031e-05 -2.238167464470e-03 0.0 
-2.238167464470e-03 9.507754153308e-04 0.0 
0.0 0.0 0.0 
-4.540660963200e-05 -2.051489943259e-03 0.0 
-2.051489943259e-03 9.634848381421e-04 0.0 
0.0 0.0 0.0 
4.518929785851e-03 -4.792707841394e-04 0.0 
-4.792707841394e-04 -3.046228768313e-03 0.0 
0.0 0.0 0.0 
-3.435305345145e-04 3.478848051706e-03 0.0 
3.478848051706e-03 7.554401855954e-03 0.0 
0.0 0.0 0.0 
3.788875121869e-04 -2.288428807603e-04 0.0 
-2.288428807603e-04 1.068702127678e-03 0.0 
0.0 0.0 0.0 
-1.216770047282e-03 2.900268726826e-03 0.0 
2.900268726826e-03 9.287562630050e-03 0.0 
0.0 0.0 0.0 
-1.894735371296e-04 -1.860118809602e-03 0.0 
-1.860118809602e-03 8.436261828115e-04 0.0 
0.0 0.0 0.0 
4.136472867362e-03 -1.196690962695e-03 0.0 
-1.196690962695e-03 -2.931247736647e-03 0.0 
0.0 0.0 0.0 
1.824555503320e-03 2.873909663600e-03 0.0 
2.873909663600e-03 2.873482153268e-03 0.0 
0.0 0.0 0.0 
-1.315753764864e-03 4.613163271688e-05 0.0 
4.613163271688e-05 1.107010464729e-02 0.0 
0.0 0.0 0.0 
3.612992480065e-03 -1.611746795660e-03 0.0 
-1.611746795660e-03 -2.429604330182e-03 0.0 
0.0 0.0 0.0 
-6.957675490469e-04 -1.746870748173e-04 0.0 
-1.746870748173e-04 2.260598395197e-03 0.0 
0.0 0.0 0.0 
3.047307157277e-03 -2.082108820128e-03 0.0 
-2.082108820128e-03 -2.037092683769e-03 0.0 
0.0 0.0 0.0 
2.900728395236e-03 2.940422389454e-03 0.0 
2.940422389454e-03 5.160736531712e-04 0.0 
0.0 0.0 0.0 
2.461909860598e-03 -2.182416206945e-03 0.0 
-2.182416206945e-03 -1.339213032737e-03 0.0 
0.0 0.0 0.0 
1.927872901983e-03 -2.429398570572e-03 0.0 
-2.429398570572e-03 -8.593758202150e-04 0.0 
0.0 0.0 0.0 
-5.343861103305e-04 7.173369978961e-04 0.0 
7.173369978961e-04 1.235957704142e-02 0.0 
0.0 0.0 0.0 
1.522212527951e-03 -2.447452912214e-03 0.0 
-2.447452912214e-03 -3.193233181934e-04 0.0 
0.0 0.0 0.0 
-2.409155499040e-04 2.090423361227e-04 0.0 
2.090423361227e-04 1.265268472778e-02 0.0 
0.0 0.0 0.0 
-2.066585359703e-04 -2.016453794646e-04 0.0 
-2.016453794646e-04 5.857089914449e-03 0.0 
0.0 0.0 0.0 
-1.459301027225e-03 2.493792988958e-05 0.0 
2.493792988958e-05 1.034188363764e-02 0.0 
0.0 0.0 0.0 
-1.656358781048e-03 2.704906670051e-03 0.0 
2.704906670051e-03 6.152414660450e-03 0.0 
0.0 0.0 0.0 
-1.759352821925e-03 1.996061689892e-04 0.0 
1.996061689892e-04 -3.886806759713e-03 0.0 
0.0 0.0 0.0 
-9.239193565573e-04 3.566530538670e-03 0.0 
3.566530538670e-03 4.507762107919e-03 0.0 
0.0 0.0 0.0 
9.027822499625e-04 -2.602189654336e-03 0.0 
-2.602189654336e-03 1.171514819912e-04 0.0 
0.0 0.0 0.0 
-9.052044908905e-04 3.237132160633e-03 0.0 
3.237132160633e-03 8.363940199097e-03 0.0 
0.0 0.0 0.0 
-1.468391556998e-03 6.565653780741e-05 0.0 
6.565653780741e-05 1.036063054622e-02 0.0 
0.0 0.0 0.0 
4.453502164861e-04 -2.488732709197e-03 0.0 
-2.488732709197e-03 5.759624284768e-04 0.0 
0.0 0.0 0.0 
-4.713190120442e-04 3.338383895341e-03 0.0 
3.338383895341e-03 9.722509124018e-03 0.0 
0.0 0.0 0.0 
2.754303929152e-04 3.527538999609e-03 0.0 
3.527538999609e-03 6.339132646432e-03 0.0 
0.0 0.0 0.0 
-1.135219896266e-03 1.481528281658e-04 0.0 
1.481528281658e-04 1.154851809563e-02 0.0 
0.0 0.0 0.0 
1.849059520574e-03 1.454544352252e-03 0.0 
1.454544352252e-03 2.259892080726e-03 0.0 
0.0 0.0 0.0 
2.133815539226e-03 2.977336937201e-03 0.0 
2.977336937201e-03 2.172548296237e-03 0.0 
0.0 0.0 0.0 
-6.849199038632e-04 1.023934794661e-04 0.0 
1.023934794661e-04 1.222577374303e-02 0.0 
0.0 0.0 0.0 
-1.617289209596e-03 1.323434743238e-04 0.0 
1.323434743238e-04 1.003120103432e-02 0.0 
0.0 0.0 0.0 
-3.609885206596e-04 -9.265915582547e-04 0.0 
-9.265915582547e-04 6.496495858621e-04 0.0 
0.0 0.0 0.0 
-9.407149687527e-04 -1.781531554536e-04 0.0 
-1.781531554536e-04 4.605663434223e-03 0.0 
0.0 0.0 0.0 
-1.439070466758e-03 3.312640726608e-03 0.0 
3.312640726608e-03 4.701795917551e-03 0.0 
0.0 0.0 0.0 
-5.994421959570e-04 3.745302799384e-03 0.0 
3.745302799384e-03 3.071543176548e-03 0.0 
0.0 0.0 0.0 
-3.441403291322e-04 3.884707673298e-03 0.0 
3.884707673298e-03 1.670524936104e-03 0.0 
0.0 0.0 0.0 
-1.002937686714e-03 -6.692634214414e-04 0.0 
-6.692634214414e-04 2.642927408035e-03 0.0 
0.0 0.0 0.0 
-3.924721493656e-04 -2.660792218013e-03 0.0 
-2.660792218013e-03 4.532911909345e-04 0.0 
0.0 0.0 0.0 
-1.140045259883e-03 3.494323617717e-03 0.0 
3.494323617717e-03 3.312259811410e-03 0.0 
0.0 0.0 0.0 
1.103275420861e-03 1.808910204982e-03 0.0 
1.808910204982e-03 3.567616259761e-03 0.0 
0.0 0.0 0.0 
-1.815430426113e-03 4.478832898423e-04 0.0 
4.478832898423e-04 1.035782247123e-02 0.0 
0.0 0.0 0.0 
1.451129266236e-03 3.051167534391e-03 0.0 
3.051167534391e-03 3.676046473028e-03 0.0 
0.0 0.0 0.0 
-1.123054756367e-03 3.609373139001e-03 0.0 
3.609373139001e-03 2.076444011755e-03 0.0 
0.0 0.0 0.0 
-6.608826304759e-04 1.758962481280e-03 0.0 
1.758962481280e-03 1.190834472741e-02 0.0 
0.0 0.0 0.0 
7.582202295464e-04 3.102274426681e-03 0.0 
3.102274426681e-03 5.061946078515e-03 0.0 
0.0 0.0 0.0 
1.173800323848e-04 -5.091553845636e-04 0.0 
-5.091553845636e-04 4.902006756049e-03 0.0 
0.0 0.0 0.0 
1.146905613670e-03 3.033355552107e-03 0.0 
3.033355552107e-03 4.318694229788e-03 0.0 
0.0 0.0 0.0 
-1.735818190034e-04 4.029022226209e-03 0.0 
4.029022226209e-03 1.667585815688e-04 0.0 
0.0 0.0 0.0 
-2.016081241810e-03 1.053122738188e-03 0.0 
1.053122738188e-03 1.043707618124e-02 0.0 
0.0 0.0 0.0 
9.896631163557e-06 3.685275963843e-03 0.0 
3.685275963843e-03 7.710304176688e-03 0.0 
0.0 0.0 0.0 
-1.032940692413e-03 2.473899447023e-04 0.0 
2.473899447023e-04 1.178393974554e-02 0.0 
0.0 0.0 0.0 
1.089816564082e-06 -5.566380771296e-04 0.0 
-5.566380771296e-04 5.259920864584e-03 0.0 
0.0 0.0 0.0 
-1.964156714685e-03 6.369345098726e-04 0.0 
6.369345098726e-04 1.026159582232e-02 0.0 
0.0 0.0 0.0 
-4.595260488405e-04 4.714655957679e-04 0.0 
4.714655957679e-04 1.244000332605e-02 0.0 
0.0 0.0 0.0 
3.014498066986e-03 -2.377537944708e-03 0.0 
-2.377537944708e-03 -3.925178112972e-03 0.0 
0.0 0.0 0.0 
-4.379613130297e-04 2.445328182798e-04 0.0 
2.445328182798e-04 1.246945932885e-02 0.0 
0.0 0.0 0.0 
-7.226466897893e-04 3.286068103042e-03 0.0 
3.286068103042e-03 8.566578378014e-03 0.0 
0.0 0.0 0.0 
-1.459277932481e-03 2.233859005742e-04 0.0 
2.233859005742e-04 1.082190575076e-02 0.0 
0.0 0.0 0.0 
-2.113412080738e-03 1.417165075280e-03 0.0 
1.417165075280e-03 1.017754883588e-02 0.0 
0.0 0.0 0.0 
-2.930534816294e-04 -3.029435142737e-04 0.0 
-3.029435142737e-04 5.603512284817e-03 0.0 
0.0 0.0 0.0 
-6.104247582139e-04 2.975124143913e-03 0.0 
2.975124143913e-03 1.052417158535e-02 0.0 
0.0 0.0 0.0 
-1.561679570182e-05 4.077752308814e-03 0.0 
4.077752308814e-03 -1.075234768495e-03 0.0 
0.0 0.0 0.0 
-1.169312040881e-03 2.261444417655e-04 0.0 
2.261444417655e-04 1.153029981941e-02 0.0 
0.0 0.0 0.0 
-1.081471293641e-03 -1.023106734607e-03 0.0 
-1.023106734607e-03 2.920561039020e-03 0.0 
0.0 0.0 0.0 
5.141267516811e-04 -1.965690089850e-03 0.0 
-1.965690089850e-03 -3.917487901456e-03 0.0 
0.0 0.0 0.0 
4.679862102849e-04 -3.283357993270e-04 0.0 
-3.283357993270e-04 4.030018028820e-03 0.0 
0.0 0.0 0.0 
-5.498278662936e-04 3.356956678948e-03 0.0 
3.356956678948e-03 8.784950769322e-03 0.0 
0.0 0.0 0.0 
-2.179487546925e-04 -4.543051613043e-04 0.0 
-4.543051613043e-04 5.382262395923e-03 0.0 
0.0 0.0 0.0 
9.735875808599e-04 -3.012946475246e-05 0.0 
-3.012946475246e-05 4.963694535371e-04 0.0 
0.0 0.0 0.0 
1.672271557040e-04 -5.824563828934e-04 0.0 
-5.824563828934e-04 4.042704396867e-04 0.0 
0.0 0.0 0.0 
6.732228190938e-04 1.782608165763e-05 0.0 
1.782608165763e-05 3.746667732196e-03 0.0 
0.0 0.0 0.0 
-2.688414128117e-04 3.593696477022e-03 0.0 
3.593696477022e-03 8.874329875763e-03 0.0 
0.0 0.0 0.0 
2.617973172914e-03 -2.986141600770e-03 0.0 
-2.986141600770e-03 -2.839378771076e-03 0.0 
0.0 0.0 0.0 
-2.744997104939e-04 1.541060258557e-03 0.0 
1.541060258557e-03 1.228046359768e-02 0.0 
0.0 0.0 0.0 
-4.901255100260e-04 3.629136781422e-03 0.0 
3.629136781422e-03 -2.091769044979e-03 0.0 
0.0 0.0 0.0 
-1.720095708098e-03 2.112497767799e-04 0.0 
2.112497767799e-04 9.995728243018e-03 0.0 
0.0 0.0 0.0 
8.071517079626e-04 -4.613349436863e-04 0.0 
-4.613349436863e-04 1.934863054675e-04 0.0 
0.0 0.0 0.0 
-5.407078836899e-05 -5.412952839742e-04 0.0 
-5.412952839742e-04 5.487128505568e-03 0.0 
0.0 0.0 0.0 
-5.420907401105e-04 1.152262504300e-03 0.0 
1.152262504300e-03 1.226470011560e-02 0.0 
0.0 0.0 0.0 
-1.257948005595e-03 -6.814489483681e-04 0.0 
-6.814489483681e-04 3.349189780340e-03 0.0 
0.0 0.0 0.0 
-2.230154301027e-03 1.086750012541e-03 0.0 
1.086750012541e-03 9.767706929944e-03 0.0 
0.0 0.0 0.0 
-8.846259479924e-04 -4.023555123214e-04 0.0 
-4.023555123214e-04 2.501122430071e-03 0.0 
0.0 0.0 0.0 
5.264902350560e-04 3.495648454484e-03 0.0 
3.495648454484e-03 5.934479668434e-03 0.0 
0.0 0.0 0.0 
-4.636188753779e-04 -1.532493142721e-03 0.0 
-1.532493142721e-03 8.121314245941e-04 0.0 
0.0 0.0 0.0 
-4.807255944133e-04 8.534811767600e-04 0.0 
8.534811767600e-04 1.238385929858e-02 0.0 
0.0 0.0 0.0 
8.482227729799e-04 5.315798670529e-04 0.0 
5.315798670529e-04 3.545978319053e-03 0.0 
0.0 0.0 0.0 
-6.228597318119e-04 2.341933294074e-03 0.0 
2.341933294074e-03 1.146124147959e-02 0.0 
0.0 0.0 0.0 
4.186687031106e-04 2.526273873017e-03 0.0 
2.526273873017e-03 4.960203839939e-03 0.0 
0.0 0.0 0.0 
1.674293854341e-04 1.070303634184e-03 0.0 
1.070303634184e-03 -4.264603962805e-03 0.0 
0.0 0.0 0.0 
5.483154122204e-04 3.327827252947e-03 0.0 
3.327827252947e-03 5.666610226913e-03 0.0 
0.0 0.0 0.0 
1.424131706474e-03 9.425656217030e-04 0.0 
9.425656217030e-04 2.754202094627e-03 0.0 
0.0 0.0 0.0 
-1.559850296849e-03 9.866346025757e-05 0.0 
9.866346025757e-05 1.002196999831e-02 0.0 
0.0 0.0 0.0 
-6.344322106681e-04 2.688129716077e-03 0.0 
2.688129716077e-03 1.098555119109e-02 0.0 
0.0 0.0 0.0 
-1.140779091124e-03 -6.790697018526e-04 0.0 
-6.790697018526e-04 2.898809334849e-03 0.0 
0.0 0.0 0.0 
1.982890032124e-04 -5.821916341189e-04 0.0 
-5.821916341189e-04 1.039191594617e-03 0.0 
0.0 0.0 0.0 
-1.969183915946e-04 1.015953248732e-04 0.0 
1.015953248732e-04 1.268574493294e-02 0.0 
0.0 0.0 0.0 
2.268005784554e-03 -7.075568607234e-06 0.0 
-7.075568607234e-06 -7.682516338083e-04 0.0 
0.0 0.0 0.0 
-1.485928413108e-03 9.885707924671e-06 0.0 
9.885707924671e-06 9.983583917917e-03 0.0 
0.0 0.0 0.0 
-1.695453288163e-04 -8.798601833281e-05 0.0 
-8.798601833281e-05 5.956052588824e-03 0.0 
0.0 0.0 0.0 
4.495190683796e-04 -3.143701391538e-04 0.0 
-3.143701391538e-04 9.440524467842e-04 0.0 
0.0 0.0 0.0 
-1.427145466846e-03 6.549434888956e-05 0.0 
6.549434888956e-05 1.062449067381e-02 0.0 
0.0 0.0 0.0 
-3.555127280767e-04 3.493833499662e-03 0.0 
3.493833499662e-03 9.340654015256e-03 0.0 
0.0 0.0 0.0 
-1.260368931781e-03 -1.748178248764e-04 0.0 
-1.748178248764e-04 3.956338762294e-03 0.0 
0.0 0.0 0.0 
-8.061963474686e-04 1.701896520241e-04 0.0 
1.701896520241e-04 1.207072442636e-02 0.0 
0.0 0.0 0.0 
3.100730225017e-04 -3.209646530785e-03 0.0 
-3.209646530785e-03 -3.709144636551e-04 0.0 
0.0 0.0 0.0 
-2.076436576043e-03 -5.955361673260e-04 0.0 
-5.955361673260e-04 -3.689748023592e-03 0.0 
0.0 0.0 0.0 
-1.262400591528e-03 1.028013189923e-04 0.0 
1.028013189923e-04 1.125224642671e-02 0.0 
0.0 0.0 0.0 
7.858987024953e-04 2.904566108371e-03 0.0 
2.904566108371e-03 4.784320883444e-03 0.0 
0.0 0.0 0.0 
-5.922879431637e-04 1.957730238347e-03 0.0 
1.957730238347e-03 1.182870074274e-02 0.0 
0.0 0.0 0.0 
-1.391320833901e-03 2.160079210923e-04 0.0 
2.160079210923e-04 1.101511998382e-02 0.0 
0.0 0.0 0.0 
1.254355514767e-03 3.777091385841e-03 0.0 
3.777091385841e-03 -2.237214141264e-03 0.0 
0.0 0.0 0.0 
-4.202180591892e-04 3.461112711949e-03 0.0 
3.461112711949e-03 8.962208674236e-03 0.0 
0.0 0.0 0.0 
-1.234862414684e-03 -6.842172830586e-04 0.0 
-6.842172830586e-04 3.483333899645e-03 0.0 
0.0 0.0 0.0 
1.072788976185e-04 3.622898892431e-03 0.0 
3.622898892431e-03 7.143634745799e-03 0.0 
0.0 0.0 0.0 
1.452946019213e-03 1.551077838819e-03 0.0 
1.551077838819e-03 2.944738803318e-03 0.0 
0.0 0.0 0.0 
-1.676069177457e-03 3.770062106125e-03 0.0 
3.770062106125e-03 -1.423396739412e-03 0.0 
0.0 0.0 0.0 
-1.181911811633e-03 -1.406054720169e-04 0.0 
-1.406054720169e-04 4.145486059642e-03 0.0 
0.0 0.0 0.0 
6.456405020917e-04 -4.967941674083e-04 0.0 
-4.967941674083e-04 2.120458887174e-04 0.0 
0.0 0.0 0.0 
1.395067525598e-04 -5.496554048971e-04 0.0 
-5.496554048971e-04 4.696117057561e-03 0.0 
0.0 0.0 0.0 
-1.277139208932e-03 -4.751440284115e-04 0.0 
-4.751440284115e-04 3.667286297889e-03 0.0 
0.0 0.0 0.0 
-1.512640625407e-03 1.263589990028e-03 0.0 
1.263589990028e-03 7.138059963889e-03 0.0 
0.0 0.0 0.0 
-1.363888449892e-03 -4.307834569131e-06 0.0 
-4.307834569131e-06 7.670103326774e-03 0.0 
0.0 0.0 0.0 
-1.699599165518e-03 1.266589935825e-03 0.0 
1.266589935825e-03 7.544529020807e-03 0.0 
0.0 0.0 0.0 
-1.391073754824e-03 -1.135945941586e-05 0.0 
-1.135945941586e-05 8.149566339142e-03 0.0 
0.0 0.0 0.0 
-1.960008207331e-03 1.115979703742e-03 0.0 
1.115979703742e-03 8.108759875247e-03 0.0 
0.0 0.0 0.0 
-1.431178414857e-03 -9.792985454596e-06 0.0 
-9.792985454596e-06 8.574698663788e-03 0.0 
0.0 0.0 0.0 
-2.157975861161e-03 9.698828627648e-04 0.0 
9.698828627648e-04 8.686071681056e-03 0.0 
0.0 0.0 0.0 
-1.466810945399e-03 -5.141161172347e-06 0.0 
-5.141161172347e-06 9.052832149119e-03 0.0 
0.0 0.0 0.0 
-2.261249303426e-03 8.902090423458e-04 0.0 
8.902090423458e-04 9.218975895340e-03 0.0 
0.0 0.0 0.0 
-1.490909184898e-03 7.087213543910e-06 0.0 
7.087213543910e-06 9.463829782262e-03 0.0 
0.0 0.0 0.0 

TENSORS node_materi_strain_plasti float
2.934499401238e-03 -6.293764513238e-05 0.0 
-6.293764513238e-05 -1.067748591947e-03 0.0 
0.0 0.0 -1.096634683480e-04 
-1.402797370443e-03 -1.078294972551e-04 0.0 
-1.078294972551e-04 4.900277451411e-03 0.0 
0.0 0.0 -6.959116756397e-04 
-1.452967895051e-03 -5.509598229541e-05 0.0 
-5.509598229541e-05 7.203997768270e-03 0.0 
0.0 0.0 -1.332621093165e-03 
-1.383162840862e-03 -3.297498286580e-05 0.0 
-3.297498286580e-05 8.816768276200e-03 0.0 
0.0 0.0 -1.332621093165e-03 
2.013745495957e-03 -6.316916865917e-05 0.0 
-6.316916865917e-05 -5.120452549012e-04 0.0 
0.0 0.0 -2.200719611176e-04 
9.770148188976e-04 3.431498766894e-05 0.0 
3.431498766894e-05 4.169221136190e-04 0.0 
0.0 0.0 -3.137585542919e-04 
-7.178028314759e-05 -1.232028049955e-08 0.0 
-1.232028049955e-08 1.149279144839e-03 0.0 
0.0 0.0 -2.794359002296e-04 
-6.436375512209e-04 -1.276790241492e-05 0.0 
-1.276790241492e-05 1.873669559697e-03 0.0 
0.0 0.0 -3.439875543896e-04 
-7.879199919424e-04 -6.957800867177e-05 0.0 
-6.957800867177e-05 2.362265819291e-03 0.0 
0.0 0.0 -5.230155850880e-04 
-9.090757292185e-04 -8.706192601079e-05 0.0 
-8.706192601079e-05 2.790274002592e-03 0.0 
0.0 0.0 -6.679173279409e-04 
-1.029732123068e-03 -9.763895695819e-05 0.0 
-9.763895695819e-05 3.189834221624e-03 0.0 
0.0 0.0 -7.858430676574e-04 
-1.146480183378e-03 -1.186695020361e-04 0.0 
-1.186695020361e-04 3.556707151380e-03 0.0 
0.0 0.0 -8.797909670055e-04 
-1.263272361791e-03 -1.272958726748e-04 0.0 
-1.272958726748e-04 3.899470374148e-03 0.0 
0.0 0.0 -9.497524971825e-04 
-1.384672616284e-03 -1.145152012545e-04 0.0 
-1.145152012545e-04 4.236966414279e-03 0.0 
0.0 0.0 -1.004045332643e-03 
-1.526674903082e-03 -6.496102058636e-05 0.0 
-6.496102058636e-05 4.605045077914e-03 0.0 
0.0 0.0 -1.040527029177e-03 
-1.665462947768e-03 -2.107388054909e-05 0.0 
-2.107388054909e-05 4.948618842847e-03 0.0 
0.0 0.0 -1.059523297737e-03 
-1.782894097401e-03 -3.343512703910e-06 0.0 
-3.343512703910e-06 5.233549116132e-03 0.0 
0.0 0.0 -1.072054170059e-03 
-1.938902930101e-03 -9.696053467476e-05 0.0 
-9.696053467476e-05 5.600248017308e-03 0.0 
0.0 0.0 -1.073655443973e-03 
-2.100363589718e-03 -8.662704783515e-05 0.0 
-8.662704783515e-05 5.970821215845e-03 0.0 
0.0 0.0 -1.067605311830e-03 
-2.135124898814e-03 -7.268436157999e-05 0.0 
-7.268436157999e-05 6.300803109141e-03 0.0 
0.0 0.0 -1.091655094700e-03 
-2.004143563035e-03 -6.534761213825e-05 0.0 
-6.534761213825e-05 6.588381292475e-03 0.0 
0.0 0.0 -1.158330123333e-03 
-1.835283495390e-03 -5.008648858264e-05 0.0 
-5.008648858264e-05 6.864752160643e-03 0.0 
0.0 0.0 -1.226073836101e-03 
-1.640741500190e-03 -2.858138524020e-05 0.0 
-2.858138524020e-05 7.123085926045e-03 0.0 
0.0 0.0 -1.289832767750e-03 
-1.368677421570e-03 1.600785886141e-04 0.0 
1.600785886141e-04 8.818553082708e-03 0.0 
0.0 0.0 -1.336902025401e-03 
-1.377365391022e-03 2.999124352866e-04 0.0 
2.999124352866e-04 8.800585598907e-03 0.0 
0.0 0.0 -1.332945767435e-03 
-1.378029629414e-03 3.844218527142e-04 0.0 
3.844218527142e-04 8.780564209488e-03 0.0 
0.0 0.0 -1.334903170087e-03 
-1.378699113984e-03 6.281396802948e-04 0.0 
6.281396802948e-04 8.766528136653e-03 0.0 
0.0 0.0 -1.334459899807e-03 
-1.385861616700e-03 7.361442488981e-04 0.0 
7.361442488981e-04 8.736115872586e-03 0.0 
0.0 0.0 -1.332067731643e-03 
-1.380170718422e-03 9.112443166240e-04 0.0 
9.112443166240e-04 8.705993944759e-03 0.0 
0.0 0.0 -1.335050935171e-03 
-1.376694153872e-03 1.085769035599e-03 0.0 
1.085769035599e-03 8.675777653225e-03 0.0 
0.0 0.0 -1.335055123498e-03 
-1.386603367251e-03 1.256067884305e-03 0.0 
1.256067884305e-03 8.631282104952e-03 0.0 
0.0 0.0 -1.333530254363e-03 
-1.385927681412e-03 1.401216317866e-03 0.0 
1.401216317866e-03 8.584979043230e-03 0.0 
0.0 0.0 -1.336259905589e-03 
-1.382886472311e-03 1.656515799073e-03 0.0 
1.656515799073e-03 8.524207830888e-03 0.0 
0.0 0.0 -1.335712483792e-03 
-1.394014418558e-03 1.806002472474e-03 0.0 
1.806002472474e-03 8.445999086005e-03 0.0 
0.0 0.0 -1.333313947604e-03 
-1.390408237112e-03 2.011066343467e-03 0.0 
2.011066343467e-03 8.361388601017e-03 0.0 
0.0 0.0 -1.335862559377e-03 
-1.384222329824e-03 2.219576262539e-03 0.0 
2.219576262539e-03 8.276324698237e-03 0.0 
0.0 0.0 -1.336097458551e-03 
-1.389035125892e-03 2.412450494632e-03 0.0 
2.412450494632e-03 8.157453667495e-03 0.0 
0.0 0.0 -1.335235043394e-03 
-1.385735689378e-03 2.596152172723e-03 0.0 
2.596152172723e-03 8.026403168300e-03 0.0 
0.0 0.0 -1.334297546486e-03 
-1.387385464636e-03 2.793709716201e-03 0.0 
2.793709716201e-03 7.870413974245e-03 0.0 
0.0 0.0 -1.332308435384e-03 
-1.390045521020e-03 2.956478596536e-03 0.0 
2.956478596536e-03 7.707669454312e-03 0.0 
0.0 0.0 -1.332019584455e-03 
-1.374441407390e-03 3.130356841580e-03 0.0 
3.130356841580e-03 7.548288379511e-03 0.0 
0.0 0.0 -1.333392124151e-03 
-1.370916614240e-03 3.263121805825e-03 0.0 
3.263121805825e-03 7.369253492750e-03 0.0 
0.0 0.0 -1.334727449481e-03 
-1.360841402714e-03 3.372289688876e-03 0.0 
3.372289688876e-03 7.166176364928e-03 0.0 
0.0 0.0 -1.336576889699e-03 
-1.346336485325e-03 3.461253780169e-03 0.0 
3.461253780169e-03 6.951403103377e-03 0.0 
0.0 0.0 -1.335888391555e-03 
-1.332890796825e-03 3.468370162717e-03 0.0 
3.468370162717e-03 6.730314385053e-03 0.0 
0.0 0.0 -1.334783226448e-03 
-1.319924003398e-03 3.447235553293e-03 0.0 
3.447235553293e-03 6.491181615044e-03 0.0 
0.0 0.0 -1.335053869153e-03 
-1.304557536433e-03 3.357836383275e-03 0.0 
3.357836383275e-03 6.252969737423e-03 0.0 
0.0 0.0 -1.334960189349e-03 
-1.290544710403e-03 3.217570000044e-03 0.0 
3.217570000044e-03 6.038359705784e-03 0.0 
0.0 0.0 -1.334889991128e-03 
-1.266052279295e-03 3.015967340183e-03 0.0 
3.015967340183e-03 5.820251815716e-03 0.0 
0.0 0.0 -1.335774086633e-03 
-1.268292395628e-03 2.751499810292e-03 0.0 
2.751499810292e-03 5.611006951901e-03 0.0 
0.0 0.0 -1.336605656894e-03 
-1.233716587758e-03 2.428663332176e-03 0.0 
2.428663332176e-03 5.432453778555e-03 0.0 
0.0 0.0 -1.336508443943e-03 
-1.235192718271e-03 2.048692266400e-03 0.0 
2.048692266400e-03 5.281516895731e-03 0.0 
0.0 0.0 -1.335343284290e-03 
-1.233233161047e-03 1.613443115418e-03 0.0 
1.613443115418e-03 5.176753839955e-03 0.0 
0.0 0.0 -1.337998490269e-03 
-1.231527167288e-03 1.237296422517e-03 0.0 
1.237296422517e-03 5.075978590578e-03 0.0 
0.0 0.0 -1.337247094005e-03 
-1.199833465241e-03 7.660071193524e-04 0.0 
7.660071193524e-04 4.984249579952e-03 0.0 
0.0 0.0 -1.333783489999e-03 
-1.202795443341e-03 2.512512957567e-04 0.0 
2.512512957567e-04 4.957451962835e-03 0.0 
0.0 0.0 -1.334548731617e-03 
-1.209938913942e-03 -2.134028709971e-04 0.0 
-2.134028709971e-04 5.026425426342e-03 0.0 
0.0 0.0 -1.334619746794e-03 
-1.216034057197e-03 -6.370386973179e-04 0.0 
-6.370386973179e-04 5.098251117921e-03 0.0 
0.0 0.0 -1.335242115105e-03 
-1.250273571860e-03 -1.037169625291e-03 0.0 
-1.037169625291e-03 5.212102119693e-03 0.0 
0.0 0.0 -1.335691437541e-03 
-1.244652277412e-03 -1.350985257247e-03 0.0 
-1.350985257247e-03 5.369562904984e-03 0.0 
0.0 0.0 -1.335646478247e-03 
-1.280185566221e-03 -1.619011709695e-03 0.0 
-1.619011709695e-03 5.525208807417e-03 0.0 
0.0 0.0 -1.334931242407e-03 
-1.279873673449e-03 -1.816253781483e-03 0.0 
-1.816253781483e-03 5.699667194469e-03 0.0 
0.0 0.0 -1.334100791702e-03 
-1.316092894892e-03 -1.930306284798e-03 0.0 
-1.930306284798e-03 5.897360744271e-03 0.0 
0.0 0.0 -1.332237298415e-03 
-1.332492949627e-03 -1.997739486340e-03 0.0 
-1.997739486340e-03 6.101236304603e-03 0.0 
0.0 0.0 -1.333749945600e-03 
-1.347535005711e-03 -1.949980560505e-03 0.0 
-1.949980560505e-03 6.326575568891e-03 0.0 
0.0 0.0 -1.336652505695e-03 
-1.361718678089e-03 -1.883685554895e-03 0.0 
-1.883685554895e-03 6.509663460433e-03 0.0 
0.0 0.0 -1.337094627689e-03 
-1.399643089063e-03 -1.709140483279e-03 0.0 
-1.709140483279e-03 6.643034708910e-03 0.0 
0.0 0.0 -1.328990728106e-03 
-1.392288690639e-03 -1.485263022766e-03 0.0 
-1.485263022766e-03 6.836967868930e-03 0.0 
0.0 0.0 -1.335900064369e-03 
-1.414556676199e-03 -1.251540022059e-03 0.0 
-1.251540022059e-03 6.954271934946e-03 0.0 
0.0 0.0 -1.332523500780e-03 
-1.412496609790e-03 -1.031814538929e-03 0.0 
-1.031814538929e-03 7.047562735813e-03 0.0 
0.0 0.0 -1.335219049675e-03 
-1.419510763784e-03 -6.645626228058e-04 0.0 
-6.645626228058e-04 7.146959411296e-03 0.0 
0.0 0.0 -1.336566422126e-03 
-1.427684607805e-03 -3.887077461759e-04 0.0 
-3.887077461759e-04 7.195451913880e-03 0.0 
0.0 0.0 -1.335855682064e-03 
-1.453017564014e-03 -6.969271926299e-05 0.0 
-6.969271926299e-05 5.335351891541e-03 0.0 
0.0 0.0 -7.648954205800e-04 
-1.520880417330e-03 -7.433446925198e-05 0.0 
-7.433446925198e-05 5.819919600560e-03 0.0 
0.0 0.0 -8.298981322982e-04 
-1.557423966696e-03 -6.785219458369e-05 0.0 
-6.785219458369e-05 6.258440284560e-03 0.0 
0.0 0.0 -8.959277352460e-04 
-1.578985001560e-03 -6.738694350763e-05 0.0 
-6.738694350763e-05 6.671688470532e-03 0.0 
0.0 0.0 -9.610467530554e-04 
-1.585789406967e-03 -5.141559601497e-05 0.0 
-5.141559601497e-05 7.089803706817e-03 0.0 
0.0 0.0 -1.026987810050e-03 
-1.562649818793e-03 -5.245167551875e-05 0.0 
-5.245167551875e-05 7.497011482479e-03 0.0 
0.0 0.0 -1.092790196867e-03 
-1.539445803207e-03 -3.968004133447e-05 0.0 
-3.968004133447e-05 7.888080790164e-03 0.0 
0.0 0.0 -1.158290425478e-03 
-1.493157212652e-03 -4.236338247705e-05 0.0 
-4.236338247705e-05 8.249034422054e-03 0.0 
0.0 0.0 -1.224481705251e-03 
-1.439591118906e-03 -4.822262499776e-05 0.0 
-4.822262499776e-05 8.655254164316e-03 0.0 
0.0 0.0 -1.288782062784e-03 
8.499362160429e-06 4.515454702323e-04 0.0 
4.515454702323e-04 -8.499362160427e-06 0.0 
0.0 0.0 0.0 
-1.624278093923e-03 1.090396231210e-03 0.0 
1.090396231210e-03 4.601022683819e-03 0.0 
0.0 0.0 -7.280202007920e-04 
1.619080925504e-05 1.424197471444e-03 0.0 
1.424197471444e-03 3.993834751349e-04 0.0 
0.0 0.0 -1.781032647385e-04 
2.419898888436e-04 1.714650012296e-03 0.0 
1.714650012296e-03 7.169103887313e-04 0.0 
0.0 0.0 -4.109572618178e-04 
1.972324976643e-04 1.872166137481e-03 0.0 
1.872166137481e-03 8.763202269977e-04 0.0 
0.0 0.0 -4.600940248552e-04 
-9.545047460231e-07 1.772850678572e-03 0.0 
1.772850678572e-03 1.137689485315e-03 0.0 
0.0 0.0 -4.871721345294e-04 
-2.548981761466e-04 1.711582301187e-03 0.0 
1.711582301187e-03 1.627067751202e-03 0.0 
0.0 0.0 -5.880726750239e-04 
-4.987456418830e-04 1.585377040139e-03 0.0 
1.585377040139e-03 2.175609205872e-03 0.0 
0.0 0.0 -7.186558131380e-04 
-7.693623021415e-04 1.545850130620e-03 0.0 
1.545850130620e-03 2.800183439925e-03 0.0 
0.0 0.0 -7.884857694893e-04 
-1.068442602319e-03 1.392543525831e-03 0.0 
1.392543525831e-03 3.387126047545e-03 0.0 
0.0 0.0 -7.502339878794e-04 
-1.352818007869e-03 1.227157706519e-03 0.0 
1.227157706519e-03 3.981454431592e-03 0.0 
0.0 0.0 -7.303644794522e-04 
-8.920304545474e-04 -1.769054039272e-04 0.0 
-1.769054039272e-04 2.669414073316e-03 0.0 
0.0 0.0 -3.822222222222e-04 
-9.532376032239e-04 -2.185094811376e-04 0.0 
-2.185094811376e-04 2.944932670617e-03 0.0 
0.0 0.0 -4.266666666667e-04 
-1.074369705335e-03 -1.739013270640e-04 0.0 
-1.739013270640e-04 3.441659993103e-03 0.0 
0.0 0.0 -4.933333333333e-04 
-1.186861804691e-03 -2.063993814702e-04 0.0 
-2.063993814702e-04 3.930451098783e-03 0.0 
0.0 0.0 -5.600000000000e-04 
-1.284181826536e-03 -1.411246795881e-04 0.0 
-1.411246795881e-04 4.401802096581e-03 0.0 
0.0 0.0 -6.266666666667e-04 
-1.371869470260e-03 5.987426434916e-05 0.0 
5.987426434916e-05 4.821720366173e-03 0.0 
0.0 0.0 -6.874962403976e-04 
-1.373883297749e-03 1.733970713616e-05 0.0 
1.733970713616e-05 4.853900323376e-03 0.0 
0.0 0.0 -6.910932206029e-04 
-1.391096625977e-03 2.696117286623e-05 0.0 
2.696117286623e-05 4.858420634372e-03 0.0 
0.0 0.0 -6.911911970487e-04 
-1.403621533613e-03 2.899157745045e-05 0.0 
2.899157745045e-05 4.851539021186e-03 0.0 
0.0 0.0 -6.903356507966e-04 
-1.422086472761e-03 7.127286506100e-05 0.0 
7.127286506100e-05 4.925418991949e-03 0.0 
0.0 0.0 -6.980756478071e-04 
-1.440013737492e-03 8.905228061672e-05 0.0 
8.905228061672e-05 4.855137559965e-03 0.0 
0.0 0.0 -6.911448554634e-04 
-1.457810866496e-03 1.124854279040e-04 0.0 
1.124854279040e-04 4.842862400746e-03 0.0 
0.0 0.0 -6.903833977050e-04 
-1.485479761852e-03 1.763889665616e-04 0.0 
1.763889665616e-04 4.844524201239e-03 0.0 
0.0 0.0 -6.905588330458e-04 
-1.530071715646e-03 2.314067896651e-04 0.0 
2.314067896651e-04 4.843027902445e-03 0.0 
0.0 0.0 -6.922444453805e-04 
-1.565434249602e-03 3.199826070801e-04 0.0 
3.199826070801e-04 4.827774349685e-03 0.0 
0.0 0.0 -6.916098530255e-04 
-1.592220907441e-03 4.164385463974e-04 0.0 
4.164385463974e-04 4.800836260159e-03 0.0 
0.0 0.0 -6.911665914957e-04 
-1.624093306590e-03 5.379923244308e-04 0.0 
5.379923244308e-04 4.762121973516e-03 0.0 
0.0 0.0 -6.926885898885e-04 
-1.636272666442e-03 7.038956101205e-04 0.0 
7.038956101205e-04 4.710840836171e-03 0.0 
0.0 0.0 -6.980272606831e-04 
-1.642234561257e-03 8.946537782645e-04 0.0 
8.946537782645e-04 4.660104212790e-03 0.0 
0.0 0.0 -7.070206663417e-04 
0.0 0.0 0.0 
0.0 0.0 0.0 
0.0 0.0 0.0 
0.0 0.0 0.0 
0.0 0.0 0.0 
0.0 0.0 0.0 
0.0 0.0 0.0 
0.0 0.0 0.0 
0.0 0.0 0.0 
0.0 0.0 0.0 
0.0 0.0 0.0 
0.0 0.0 0.0 
0.0 0.0 0.0 
0.0 0.0 0.0 
0.0 0.0 0.0 
6.460969664659e-05 -1.556902627030e-04 0.0 
-1.556902627030e-04 3.828112054754e-05 0.0 
0.0 0.0 -4.409606451177e-05 
2.290958672754e-04 -1.825778835954e-04 0.0 
-1.825778835954e-04 1.295802149226e-05 0.0 
0.0 0.0 -6.349991864517e-05 
3.258301092639e-04 -1.495010221350e-04 0.0 
-1.495010221350e-04 5.825232736603e-05 0.0 
0.0 0.0 -6.729406355132e-05 
4.308097979006e-04 -2.272179296947e-04 0.0 
-2.272179296947e-04 4.144525422736e-05 0.0 
0.0 0.0 -5.004267624003e-05 
7.170242557017e-04 -3.798682189908e-04 0.0 
-3.798682189908e-04 -8.718929718944e-05 0.0 
0.0 0.0 -5.423469082675e-05 
1.016505377143e-03 -3.706654485886e-04 0.0 
-3.706654485886e-04 -2.196691987021e-04 0.0 
0.0 0.0 -6.924701466199e-05 
1.374691841568e-03 -3.600731207399e-04 0.0 
-3.600731207399e-04 -3.650587174241e-04 0.0 
0.0 0.0 -8.456438766380e-05 
1.776444192994e-03 -3.135747337774e-04 0.0 
-3.135747337774e-04 -5.394471043759e-04 0.0 
0.0 0.0 -1.145437528706e-04 
2.116489510919e-03 -3.092434709054e-04 0.0 
-3.092434709054e-04 -6.971504040322e-04 0.0 
0.0 0.0 -1.122699804219e-04 
2.340534228900e-03 -2.489648393755e-04 0.0 
-2.489648393755e-04 -7.939335318199e-04 0.0 
0.0 0.0 -1.135261812993e-04 
2.545448873624e-03 -1.895106937816e-04 0.0 
-1.895106937816e-04 -8.695809182027e-04 0.0 
0.0 0.0 -1.151526711856e-04 
2.708912883130e-03 -1.592234908312e-04 0.0 
-1.592234908312e-04 -9.353356256089e-04 0.0 
0.0 0.0 -1.168504208365e-04 
2.867102977547e-03 -9.067089989766e-05 0.0 
-9.067089989766e-05 -1.037120165575e-03 0.0 
0.0 0.0 -1.138900488129e-04 
3.013559206580e-03 5.775462477208e-05 0.0 
5.775462477208e-05 -1.103986210354e-03 0.0 
0.0 0.0 -1.064965418423e-04 
-4.091860140013e-04 1.493580677093e-03 0.0 
1.493580677093e-03 1.887903548894e-03 0.0 
0.0 0.0 -6.337360863825e-04 
-5.385718996581e-04 1.335082198185e-03 0.0 
1.335082198185e-03 2.135744650817e-03 0.0 
0.0 0.0 -6.667970793397e-04 
-6.765273245206e-04 1.090889455482e-03 0.0 
1.090889455482e-03 2.353375462148e-03 0.0 
0.0 0.0 -6.458201630293e-04 
-7.727614075467e-04 8.032195676915e-04 0.0 
8.032195676915e-04 2.463758995999e-03 0.0 
0.0 0.0 -5.932854749666e-04 
-8.514058211928e-04 5.714256832656e-04 0.0 
5.714256832656e-04 2.555777300026e-03 0.0 
0.0 0.0 -5.363222323337e-04 
-9.024572847059e-04 3.582119914741e-04 0.0 
3.582119914741e-04 2.614024613622e-03 0.0 
0.0 0.0 -4.952963237905e-04 
-9.409745305062e-04 1.858267925263e-04 0.0 
1.858267925263e-04 2.660600042040e-03 0.0 
0.0 0.0 -4.612385980821e-04 
-9.634528668237e-04 4.390216900909e-05 0.0 
4.390216900909e-05 2.691440622880e-03 0.0 
0.0 0.0 -4.362865593065e-04 
-9.589514536938e-04 -6.558249702753e-05 0.0 
-6.558249702753e-05 2.709053290323e-03 0.0 
0.0 0.0 -4.224081578202e-04 
-9.370691982965e-04 -1.458029403608e-04 0.0 
-1.458029403608e-04 2.716972396062e-03 0.0 
0.0 0.0 -4.167768801626e-04 
-9.198026011425e-04 -1.991719043735e-04 0.0 
-1.991719043735e-04 2.723157759909e-03 0.0 
0.0 0.0 -4.119239792976e-04 
-9.060435205279e-04 -2.312872677373e-04 0.0 
-2.312872677373e-04 2.727556640148e-03 0.0 
0.0 0.0 -4.077928641925e-04 
-8.953778579653e-04 -2.465883334394e-04 0.0 
-2.465883334394e-04 2.731131665381e-03 0.0 
0.0 0.0 -4.042983503342e-04 
-8.873232235168e-04 -2.482581225986e-04 0.0 
-2.482581225986e-04 2.734316863820e-03 0.0 
0.0 0.0 -4.013862259827e-04 
-8.813106018226e-04 -2.389747958787e-04 0.0 
-2.389747958787e-04 2.737134573083e-03 0.0 
0.0 0.0 -3.989554229673e-04 
-8.768085517729e-04 -2.209855140032e-04 0.0 
-2.209855140032e-04 2.739461456585e-03 0.0 
0.0 0.0 -3.968929820733e-04 
-8.733835057593e-04 -1.968281267495e-04 0.0 
-1.968281267495e-04 2.741282569535e-03 0.0 
0.0 0.0 -3.951643599723e-04 
-8.708197135139e-04 -1.682011438688e-04 0.0 
-1.682011438688e-04 2.742849597833e-03 0.0 
0.0 0.0 -3.937970456488e-04 
-8.690969115569e-04 -1.362194230534e-04 0.0 
-1.362194230534e-04 2.744314209845e-03 0.0 
0.0 0.0 -3.927601963655e-04 
-8.683101994533e-04 -1.022822397935e-04 0.0 
-1.022822397935e-04 2.743574306495e-03 0.0 
0.0 0.0 -3.920693522604e-04 
-8.669093560357e-04 -7.206877622536e-05 0.0 
-7.206877622536e-05 2.694430875213e-03 0.0 
0.0 0.0 -3.921786983674e-04 
-8.394919105589e-04 7.812770260414e-05 0.0 
7.812770260414e-05 2.615841079040e-03 0.0 
0.0 0.0 -3.822222222222e-04 
-9.494559103031e-04 3.245343644015e-05 0.0 
3.245343644015e-05 2.942828314072e-03 0.0 
0.0 0.0 -4.276225674433e-04 
-9.453893070207e-04 -7.111604734988e-05 0.0 
-7.111604734988e-05 2.939480324051e-03 0.0 
0.0 0.0 -4.291610623509e-04 
-9.479485626056e-04 -1.223075957800e-04 0.0 
-1.223075957800e-04 2.938148575924e-03 0.0 
0.0 0.0 -4.294518113500e-04 
-9.513509497972e-04 -1.528128127516e-04 0.0 
-1.528128127516e-04 2.937112011401e-03 0.0 
0.0 0.0 -4.303156580442e-04 
-9.561412693041e-04 -1.795418847633e-04 0.0 
-1.795418847633e-04 2.936257850339e-03 0.0 
0.0 0.0 -4.315177398476e-04 
-9.613801982685e-04 -2.020582703720e-04 0.0 
-2.020582703720e-04 2.935027659389e-03 0.0 
0.0 0.0 -4.333935888026e-04 
-9.649594115909e-04 -2.191801396652e-04 0.0 
-2.191801396652e-04 2.932403783643e-03 0.0 
0.0 0.0 -4.365863700986e-04 
-9.694509318337e-04 -2.282743571783e-04 0.0 
-2.282743571783e-04 2.928700962369e-03 0.0 
0.0 0.0 -4.403344688981e-04 
-9.752854465798e-04 -2.262425092116e-04 0.0 
-2.262425092116e-04 2.924232336100e-03 0.0 
0.0 0.0 -4.446981798157e-04 
-9.827947901593e-04 -2.105547843802e-04 0.0 
-2.105547843802e-04 2.919037677629e-03 0.0 
0.0 0.0 -4.499693714774e-04 
-9.922432754887e-04 -1.788315847570e-04 0.0 
-1.788315847570e-04 2.912643541075e-03 0.0 
0.0 0.0 -4.561666389974e-04 
-1.003596714027e-03 -1.273527626457e-04 0.0 
-1.273527626457e-04 2.903956443196e-03 0.0 
0.0 0.0 -4.633466294216e-04 
-1.016765204047e-03 -5.053958217971e-05 0.0 
-5.053958217971e-05 2.891535834080e-03 0.0 
0.0 0.0 -4.716857746087e-04 
-1.020109545419e-03 5.743003251611e-05 0.0 
5.743003251611e-05 2.872702128626e-03 0.0 
0.0 0.0 -4.852209091340e-04 
-9.964537532025e-04 1.942960321916e-04 0.0 
1.942960321916e-04 2.839351573495e-03 0.0 
0.0 0.0 -5.097743276704e-04 
-9.610160034558e-04 3.659639876319e-04 0.0 
3.659639876319e-04 2.796351539205e-03 0.0 
0.0 0.0 -5.405745080065e-04 
-9.090299886647e-04 5.649669993174e-04 0.0 
5.649669993174e-04 2.731549626740e-03 0.0 
0.0 0.0 -5.795081218868e-04 
-8.421940977849e-04 8.146075856698e-04 0.0 
8.146075856698e-04 2.654238991049e-03 0.0 
0.0 0.0 -6.241631820133e-04 
-7.469235452296e-04 1.108005846327e-03 0.0 
1.108005846327e-03 2.554144737090e-03 0.0 
0.0 0.0 -6.876227360811e-04 
-6.222319269350e-04 1.311587394284e-03 0.0 
1.311587394284e-03 2.351737594925e-03 0.0 
0.0 0.0 -7.129699783845e-04 
-8.859289441425e-04 1.243241253464e-03 0.0 
1.243241253464e-03 2.913195279952e-03 0.0 
0.0 0.0 -7.120710084939e-04 
-1.004734523472e-03 1.018600750567e-03 0.0 
1.018600750567e-03 3.106427625498e-03 0.0 
0.0 0.0 -6.771260834247e-04 
-1.079401310026e-03 7.481842232065e-04 0.0 
7.481842232065e-04 3.193468346598e-03 0.0 
0.0 0.0 -6.300277574108e-04 
-1.131577463836e-03 5.268764785930e-04 0.0 
5.268764785930e-04 3.259614661613e-03 0.0 
0.0 0.0 -5.970134556630e-04 
-1.175698392474e-03 3.505042719681e-04 0.0 
3.505042719681e-04 3.318814681410e-03 0.0 
0.0 0.0 -5.654316324824e-04 
-1.198259795194e-03 1.983623377187e-04 0.0 
1.983623377187e-04 3.357846983414e-03 0.0 
0.0 0.0 -5.431954804876e-04 
-1.193688646499e-03 8.236585560367e-05 0.0 
8.236585560367e-05 3.385843501569e-03 0.0 
0.0 0.0 -5.307242391481e-04 
-1.181400322402e-03 -2.610677248912e-06 0.0 
-2.610677248912e-06 3.403469425701e-03 0.0 
0.0 0.0 -5.217490130384e-04 
-1.169734073994e-03 -6.313793199308e-05 0.0 
-6.313793199308e-05 3.415891564710e-03 0.0 
0.0 0.0 -5.139000268513e-04 
-1.159307772713e-03 -1.048439826788e-04 0.0 
-1.048439826788e-04 3.424926224559e-03 0.0 
0.0 0.0 -5.068416884887e-04 
-1.149301363739e-03 -1.311774395022e-04 0.0 
-1.311774395022e-04 3.432400745694e-03 0.0 
0.0 0.0 -5.012787953396e-04 
-1.136366457465e-03 -1.411361358348e-04 0.0 
-1.411361358348e-04 3.437153305501e-03 0.0 
0.0 0.0 -4.980850712606e-04 
-1.124188871364e-03 -1.394547320618e-04 0.0 
-1.394547320618e-04 3.439448222641e-03 0.0 
0.0 0.0 -4.952863446172e-04 
-1.111828436603e-03 -1.308291125140e-04 0.0 
-1.308291125140e-04 3.439882520158e-03 0.0 
0.0 0.0 -4.936612140760e-04 
-1.098447969421e-03 -1.167396694570e-04 0.0 
-1.167396694570e-04 3.439293515508e-03 0.0 
0.0 0.0 -4.933333333333e-04 
-1.087594461636e-03 -9.799983896262e-05 0.0 
-9.799983896262e-05 3.438806070953e-03 0.0 
0.0 0.0 -4.933333333333e-04 
-1.079672367243e-03 -7.744480207381e-05 0.0 
-7.744480207381e-05 3.439140724054e-03 0.0 
0.0 0.0 -4.933333333333e-04 
-1.076026664782e-03 -5.828265356752e-05 0.0 
-5.828265356752e-05 3.441224913047e-03 0.0 
0.0 0.0 -4.933333333333e-04 
-1.075502650299e-03 8.431295565096e-05 0.0 
8.431295565096e-05 3.442685458650e-03 0.0 
0.0 0.0 -4.933333333333e-04 
-1.189994461039e-03 4.971329978173e-05 0.0 
4.971329978173e-05 3.933936678343e-03 0.0 
0.0 0.0 -5.600000000000e-04 
-1.189943494860e-03 -3.915048486870e-05 0.0 
-3.915048486870e-05 3.929295747162e-03 0.0 
0.0 0.0 -5.600000000000e-04 
-1.196995215316e-03 -6.619293072910e-05 0.0 
-6.619293072910e-05 3.927958942862e-03 0.0 
0.0 0.0 -5.600000000000e-04 
-1.209000108090e-03 -7.709460563794e-05 0.0 
-7.709460563794e-05 3.928987706667e-03 0.0 
0.0 0.0 -5.600000000000e-04 
-1.222591065312e-03 -8.087627347994e-05 0.0 
-8.087627347994e-05 3.928642048882e-03 0.0 
0.0 0.0 -5.600000000000e-04 
-1.242241496923e-03 -8.001653654516e-05 0.0 
-8.001653654516e-05 3.929767912219e-03 0.0 
0.0 0.0 -5.600000000000e-04 
-1.264776066821e-03 -7.096870869374e-05 0.0 
-7.096870869374e-05 3.930292006580e-03 0.0 
0.0 0.0 -5.600000000000e-04 
-1.291607559870e-03 -5.753569633380e-05 0.0 
-5.753569633380e-05 3.928177153315e-03 0.0 
0.0 0.0 -5.600000000000e-04 
-1.313480821163e-03 -2.264210671336e-05 0.0 
-2.264210671336e-05 3.919521392894e-03 0.0 
0.0 0.0 -5.618027733580e-04 
-1.334363465792e-03 3.032816973716e-05 0.0 
3.032816973716e-05 3.911166292933e-03 0.0 
0.0 0.0 -5.662115594836e-04 
-1.345626602697e-03 9.725453922173e-05 0.0 
9.725453922173e-05 3.895259009147e-03 0.0 
0.0 0.0 -5.743994467985e-04 
-1.356260887442e-03 1.893430820086e-04 0.0 
1.893430820086e-04 3.871741255735e-03 0.0 
0.0 0.0 -5.833032914833e-04 
-1.366012120890e-03 3.096264366290e-04 0.0 
3.096264366290e-04 3.841250700024e-03 0.0 
0.0 0.0 -5.938366679572e-04 
-1.351517243904e-03 4.620420004327e-04 0.0 
4.620420004327e-04 3.787895507316e-03 0.0 
0.0 0.0 -6.115999087365e-04 
-1.313173102658e-03 6.667035574404e-04 0.0 
6.667035574404e-04 3.730474013625e-03 0.0 
0.0 0.0 -6.360477204719e-04 
-1.260419596383e-03 8.991646670823e-04 0.0 
8.991646670823e-04 3.667954377089e-03 0.0 
0.0 0.0 -6.715110950050e-04 
-1.156777947287e-03 1.103879225283e-03 0.0 
1.103879225283e-03 3.481215616997e-03 0.0 
0.0 0.0 -6.945456224821e-04 
-1.413371839818e-03 9.869439785182e-04 0.0 
9.869439785182e-04 4.044630377487e-03 0.0 
0.0 0.0 -6.871907024512e-04 
-1.498556740945e-03 8.027277734388e-04 0.0 
8.027277734388e-04 4.217784539438e-03 0.0 
0.0 0.0 -6.754388315825e-04 
-1.517003084896e-03 6.032515853078e-04 0.0 
6.032515853078e-04 4.269979929512e-03 0.0 
0.0 0.0 -6.550211625735e-04 
-1.511553648353e-03 4.490191689128e-04 0.0 
4.490191689128e-04 4.314033839254e-03 0.0 
0.0 0.0 -6.432502374181e-04 
-1.500446210863e-03 3.184819489120e-04 0.0 
3.184819489120e-04 4.351230304708e-03 0.0 
0.0 0.0 -6.352144205724e-04 
-1.482245807683e-03 2.246627967315e-04 0.0 
2.246627967315e-04 4.377537132701e-03 0.0 
0.0 0.0 -6.294719905043e-04 
-1.455175852238e-03 1.513209258517e-04 0.0 
1.513209258517e-04 4.388941904323e-03 0.0 
0.0 0.0 -6.266666666667e-04 
-1.422377976552e-03 8.452613654984e-05 0.0 
8.452613654984e-05 4.398275898476e-03 0.0 
0.0 0.0 -6.266666666667e-04 
-1.387740669927e-03 5.055332934235e-05 0.0 
5.055332934235e-05 4.407309917814e-03 0.0 
0.0 0.0 -6.266666666667e-04 
-1.364267156085e-03 1.746043878918e-05 0.0 
1.746043878918e-05 4.408435903517e-03 0.0 
0.0 0.0 -6.266666666667e-04 
-1.340556828241e-03 2.310074790946e-06 0.0 
2.310074790946e-06 4.409446433091e-03 0.0 
0.0 0.0 -6.266666666667e-04 
-1.322009739859e-03 -1.793960035533e-05 0.0 
-1.793960035533e-05 4.409251285455e-03 0.0 
0.0 0.0 -6.266666666667e-04 
-1.309592160630e-03 -1.727365315460e-05 0.0 
-1.727365315460e-05 4.412670266398e-03 0.0 
0.0 0.0 -6.266666666667e-04 
-1.296178947065e-03 -2.233083817508e-05 0.0 
-2.233083817508e-05 4.407948356665e-03 0.0 
0.0 0.0 -6.266666666667e-04 
-1.291396798343e-03 -4.231649306782e-05 0.0 
-4.231649306782e-05 4.418716211488e-03 0.0 
0.0 0.0 -6.266666666667e-04 
-1.299258567356e-03 1.084144737729e-04 0.0 
1.084144737729e-04 4.428774256468e-03 0.0 
0.0 0.0 -6.266666666667e-04 
-1.319544013151e-04 1.855354777021e-03 0.0 
1.855354777021e-03 1.586951530957e-04 0.0 
0.0 0.0 -1.146032219169e-05 
1.936976575994e-04 1.398779559345e-03 0.0 
1.398779559345e-03 5.900772889955e-04 0.0 
0.0 0.0 -3.359035485407e-04 
2.417267202073e-04 1.838455165837e-03 0.0 
1.838455165837e-03 7.923036657008e-04 0.0 
0.0 0.0 -4.431558796749e-04 
1.101677228067e-04 1.834201385501e-03 0.0 
1.834201385501e-03 9.860182752854e-04 0.0 
0.0 0.0 -4.697939991823e-04 
-1.015326029610e-04 1.768813643197e-03 0.0 
1.768813643197e-03 1.327052849400e-03 0.0 
0.0 0.0 -5.252229627595e-04 
-3.816487368501e-04 1.660357546477e-03 0.0 
1.660357546477e-03 1.907944113222e-03 0.0 
0.0 0.0 -6.541265898738e-04 
-6.251830612815e-04 1.650118487789e-03 0.0 
1.650118487789e-03 2.533700233250e-03 0.0 
0.0 0.0 -8.020470760878e-04 
-9.259280155328e-04 1.541530339945e-03 0.0 
1.541530339945e-03 3.121438131384e-03 0.0 
0.0 0.0 -7.697949396469e-04 
-1.219707571260e-03 1.363862905373e-03 0.0 
1.363862905373e-03 3.712475698443e-03 0.0 
0.0 0.0 -7.416632329583e-04 
-1.501649114425e-03 1.213866345860e-03 0.0 
1.213866345860e-03 4.312722460883e-03 0.0 
0.0 0.0 -7.242776845527e-04 
3.539823178863e-04 1.710352572919e-03 0.0 
1.710352572919e-03 5.866051080763e-04 0.0 
0.0 0.0 -4.031088968411e-04 
-9.225734973571e-04 -7.785055507499e-06 0.0 
-7.785055507499e-06 4.710905526494e-03 0.0 
0.0 0.0 -1.303388942653e-03 
2.002003524453e-04 -6.228844878024e-04 0.0 
-6.228844878024e-04 2.361800845582e-04 0.0 
0.0 0.0 -1.150931346421e-04 
6.351277012352e-06 -1.034192914689e-04 0.0 
-1.034192914689e-04 -6.351277012355e-06 0.0 
0.0 0.0 0.0 
-1.143124804619e-03 -1.686232053488e-03 0.0 
-1.686232053488e-03 5.409600557008e-03 0.0 
0.0 0.0 -1.303360877099e-03 
1.234786051762e-04 1.977711876023e-03 0.0 
1.977711876023e-03 1.061132021132e-03 0.0 
0.0 0.0 -5.076902684178e-04 
-1.444704152341e-03 -3.615903752048e-04 0.0 
-3.615903752048e-04 4.407515592965e-03 0.0 
0.0 0.0 -1.026919993916e-03 
-9.479894819801e-04 1.838728918359e-03 0.0 
1.838728918359e-03 4.893992345869e-03 0.0 
0.0 0.0 -1.300998267065e-03 
-3.669420938573e-04 1.945721923899e-03 0.0 
1.945721923899e-03 2.035468676857e-03 0.0 
0.0 0.0 -7.150828212858e-04 
-1.134501767780e-03 3.078864715943e-03 0.0 
3.078864715943e-03 5.708971873236e-03 0.0 
0.0 0.0 -1.304014651794e-03 
-9.933335184060e-04 1.783041133304e-03 0.0 
1.783041133304e-03 3.368272424712e-03 0.0 
0.0 0.0 -8.139337748180e-04 
-1.367928456590e-03 -1.893022985453e-03 0.0 
-1.893022985453e-03 6.315060285992e-03 0.0 
0.0 0.0 -1.307658508868e-03 
1.393566666495e-03 -5.293231022229e-04 0.0 
-5.293231022229e-04 -2.919979710108e-04 0.0 
0.0 0.0 -1.726441863791e-04 
-1.321068622768e-03 3.408933067941e-03 0.0 
3.408933067941e-03 6.699280987615e-03 0.0 
0.0 0.0 -1.304481600125e-03 
-1.625241511018e-03 1.405941443998e-03 0.0 
1.405941443998e-03 4.657250357868e-03 0.0 
0.0 0.0 -7.595448291451e-04 
-9.674687493222e-04 -2.324067189866e-04 0.0 
-2.324067189866e-04 3.002016490702e-03 0.0 
0.0 0.0 -7.390740322083e-04 
-1.821851265128e-03 -3.597710289885e-04 0.0 
-3.597710289885e-04 5.333319395799e-03 0.0 
0.0 0.0 -1.073818338595e-03 
-1.412437544610e-03 3.130277989420e-03 0.0 
3.130277989420e-03 7.340714354146e-03 0.0 
0.0 0.0 -1.301280071178e-03 
-1.458721797288e-03 2.468181070438e-03 0.0 
2.468181070438e-03 8.007112846752e-03 0.0 
0.0 0.0 -1.304294760550e-03 
-1.442626291436e-03 7.982050020717e-04 0.0 
7.982050020717e-04 8.632923623264e-03 0.0 
0.0 0.0 -1.303238611779e-03 
-1.460924372811e-03 1.330564066234e-03 0.0 
1.330564066234e-03 8.482170570322e-03 0.0 
0.0 0.0 -1.297727402575e-03 
-1.466071718827e-03 1.860397699296e-03 0.0 
1.860397699296e-03 8.323259225048e-03 0.0 
0.0 0.0 -1.305306183856e-03 
-1.723504189141e-03 9.545217762893e-04 0.0 
9.545217762893e-04 5.069531762335e-03 0.0 
0.0 0.0 -7.528866907182e-04 
-1.609633540750e-03 4.109047618561e-04 0.0 
4.109047618561e-04 5.236232241604e-03 0.0 
0.0 0.0 -7.529849494387e-04 
-1.529214909887e-03 1.902322029956e-04 0.0 
1.902322029956e-04 5.302594416650e-03 0.0 
0.0 0.0 -7.580270452736e-04 
-1.581306103182e-03 3.146837778263e-05 0.0 
3.146837778263e-05 6.876614414943e-03 0.0 
0.0 0.0 -9.950081682429e-04 
-1.500312298629e-03 -1.404495050420e-03 0.0 
-1.404495050420e-03 6.813712989149e-03 0.0 
0.0 0.0 -1.302874185639e-03 
0.0 0.0 0.0 
0.0 0.0 0.0 
0.0 0.0 0.0 
1.991019007460e-03 -2.749999736625e-04 0.0 
-2.749999736625e-04 -4.994877663417e-04 0.0 
0.0 0.0 -1.971444476807e-04 
-2.064700972320e-03 -3.063344179821e-04 0.0 
-3.063344179821e-04 6.409893202118e-03 0.0 
0.0 0.0 -1.122886395833e-03 
-1.468245391393e-03 9.255547116428e-05 0.0 
9.255547116428e-05 5.268982738319e-03 0.0 
0.0 0.0 -7.500338828344e-04 
-3.768246537726e-04 -1.072125225081e-04 0.0 
-1.072125225081e-04 1.532862867376e-03 0.0 
0.0 0.0 -3.103003023327e-04 
-1.462480749969e-03 2.788238406384e-03 0.0 
2.788238406384e-03 7.654884390723e-03 0.0 
0.0 0.0 -1.293200138473e-03 
-1.060495443339e-03 2.586030718155e-03 0.0 
2.586030718155e-03 5.302800007763e-03 0.0 
0.0 0.0 -1.307307853467e-03 
-1.239947575843e-03 3.359554949631e-03 0.0 
3.359554949631e-03 6.201507605709e-03 0.0 
0.0 0.0 -1.304733450272e-03 
-8.851569131084e-04 1.017294528516e-03 0.0 
1.017294528516e-03 4.688446957818e-03 0.0 
0.0 0.0 -1.297928233296e-03 
-1.011734799512e-03 -8.525942349034e-04 0.0 
-8.525942349034e-04 4.907050266684e-03 0.0 
0.0 0.0 -1.305578568836e-03 
1.120011211769e-04 -9.639393047147e-04 0.0 
-9.639393047147e-04 3.552641554252e-04 0.0 
0.0 0.0 -2.002565471152e-04 
-1.668530992619e-03 6.309946100002e-04 0.0 
6.309946100002e-04 5.166924460567e-03 0.0 
0.0 0.0 -7.500980793755e-04 
-1.253144254253e-03 -1.928883033382e-03 0.0 
-1.928883033382e-03 5.781747753778e-03 0.0 
0.0 0.0 -1.293180865222e-03 
-1.565497950727e-03 6.438167873332e-05 0.0 
6.438167873332e-05 7.693447317596e-03 0.0 
0.0 0.0 -1.123598490052e-03 
6.785802533228e-04 -5.736279611176e-04 0.0 
-5.736279611176e-04 1.838174080764e-07 0.0 
0.0 0.0 -1.171618051616e-04 
-1.195500737651e-03 -3.256008312402e-04 0.0 
-3.256008312402e-04 3.719620558921e-03 0.0 
0.0 0.0 -9.209925479532e-04 
-1.429805954471e-03 5.036842419237e-04 0.0 
5.036842419237e-04 8.739646127293e-03 0.0 
0.0 0.0 -1.311981303940e-03 
-9.905702435700e-05 2.013930135586e-03 0.0 
2.013930135586e-03 1.485122832027e-03 0.0 
0.0 0.0 -5.940282032871e-04 
3.261360612195e-04 2.014048139277e-03 0.0 
2.014048139277e-03 7.944417754282e-04 0.0 
0.0 0.0 -4.802476442776e-04 
-6.470413752911e-04 1.957850985508e-03 0.0 
1.957850985508e-03 2.728601734132e-03 0.0 
0.0 0.0 -8.637206373099e-04 
-1.316804590616e-03 1.569868653343e-03 0.0 
1.569868653343e-03 4.005894671503e-03 0.0 
0.0 0.0 -7.800224789174e-04 
5.349534357336e-05 1.621600817472e-03 0.0 
1.621600817472e-03 1.877848270120e-04 0.0 
0.0 0.0 -1.034057873937e-04 
-1.536524951872e-03 3.208999903453e-05 0.0 
3.208999903453e-05 6.068754859848e-03 0.0 
0.0 0.0 -8.684787984471e-04 
-1.527482046669e-03 -8.504264765478e-04 0.0 
-8.504264765478e-04 7.084540485198e-03 0.0 
0.0 0.0 -1.313906642692e-03 
2.259445629762e-03 -9.175095740177e-05 0.0 
-9.175095740177e-05 -6.502150918460e-04 0.0 
0.0 0.0 -1.918888419282e-04 
-1.463207116020e-03 1.296765555730e-04 0.0 
1.296765555730e-04 8.413961701398e-03 0.0 
0.0 0.0 -1.253930875827e-03 
-1.717988966153e-03 1.334598389081e-03 0.0 
1.334598389081e-03 4.909530889206e-03 0.0 
0.0 0.0 -7.655439890770e-04 
-1.720228455065e-03 1.586186079137e-03 0.0 
1.586186079137e-03 4.967329360851e-03 0.0 
0.0 0.0 -7.934218816250e-04 
-1.768015179977e-03 1.461597718910e-03 0.0 
1.461597718910e-03 5.276074626724e-03 0.0 
0.0 0.0 -8.115680642089e-04 
-1.765114281844e-03 1.749488874724e-03 0.0 
1.749488874724e-03 5.323901634960e-03 0.0 
0.0 0.0 -8.428390908522e-04 
-1.776011419960e-03 1.632950866705e-03 0.0 
1.632950866705e-03 5.614599388379e-03 0.0 
0.0 0.0 -8.784658474099e-04 
-1.753067371520e-03 1.892876727445e-03 0.0 
1.892876727445e-03 5.647697331923e-03 0.0 
0.0 0.0 -9.060409163497e-04 
-1.729403370927e-03 2.034729517834e-03 0.0 
2.034729517834e-03 5.329326258993e-03 0.0 
0.0 0.0 -8.711257577415e-04 
-1.705524146156e-03 2.154135310252e-03 0.0 
2.154135310252e-03 5.649528349792e-03 0.0 
0.0 0.0 -9.341442283280e-04 
-1.669480427723e-03 2.313796081278e-03 0.0 
2.313796081278e-03 5.302391134739e-03 0.0 
0.0 0.0 -8.989774131092e-04 
-1.760017773414e-03 1.778713600910e-03 0.0 
1.778713600910e-03 5.960915318729e-03 0.0 
0.0 0.0 -9.415083590319e-04 
-1.639128685698e-03 2.400878910049e-03 0.0 
2.400878910049e-03 5.620671151866e-03 0.0 
0.0 0.0 -9.622976032585e-04 
-1.585968914987e-03 2.571269188534e-03 0.0 
2.571269188534e-03 5.245482773901e-03 0.0 
0.0 0.0 -9.268639294333e-04 
-1.553264337981e-03 2.629359401866e-03 0.0 
2.629359401866e-03 5.564461608518e-03 0.0 
0.0 0.0 -9.903372159162e-04 
-1.482148429882e-03 2.800719357184e-03 0.0 
2.800719357184e-03 5.162964478957e-03 0.0 
0.0 0.0 -9.547708836903e-04 
-1.480872876733e-03 2.756523220070e-03 0.0 
2.756523220070e-03 4.843370134984e-03 0.0 
0.0 0.0 -9.032660992691e-04 
-1.370066982921e-03 2.994500238396e-03 0.0 
2.994500238396e-03 4.734217419357e-03 0.0 
0.0 0.0 -9.261835667445e-04 
-1.296697830142e-03 2.932762897298e-03 0.0 
2.932762897298e-03 4.406716792506e-03 0.0 
0.0 0.0 -9.004111975071e-04 
-1.176154479742e-03 3.171939239460e-03 0.0 
3.171939239460e-03 4.268382598936e-03 0.0 
0.0 0.0 -9.182233496599e-04 
-1.237826052231e-03 3.181299556145e-03 0.0 
3.181299556145e-03 4.604885530242e-03 0.0 
0.0 0.0 -9.498701766430e-04 
-1.038924370446e-03 3.354505003279e-03 0.0 
3.354505003279e-03 4.108768898160e-03 0.0 
0.0 0.0 -9.343221806050e-04 
-9.113966935237e-04 3.322436674522e-03 0.0 
3.322436674522e-03 3.767445704006e-03 0.0 
0.0 0.0 -9.288662988139e-04 
-7.681433481646e-04 3.500147498246e-03 0.0 
3.500147498246e-03 3.577220508926e-03 0.0 
0.0 0.0 -9.367850320061e-04 
-6.050859616232e-04 3.441042246538e-03 0.0 
3.441042246538e-03 3.246213294712e-03 0.0 
0.0 0.0 -9.518642033955e-04 
-4.467796431526e-04 3.596824647640e-03 0.0 
3.596824647640e-03 3.023253834938e-03 0.0 
0.0 0.0 -9.541337235040e-04 
-2.817347476968e-04 3.508182660979e-03 0.0 
3.508182660979e-03 2.709346421897e-03 0.0 
0.0 0.0 -9.642822318347e-04 
-1.040481770833e-04 3.619372760828e-03 0.0 
3.619372760828e-03 2.449228749823e-03 0.0 
0.0 0.0 -9.459728402633e-04 
-2.870166289118e-04 3.676071568470e-03 0.0 
3.676071568470e-03 2.794184702227e-03 0.0 
0.0 0.0 -9.498144071847e-04 
6.429436302438e-05 3.660882361634e-03 0.0 
3.660882361634e-03 2.186835241716e-03 0.0 
0.0 0.0 -9.193128608805e-04 
2.331588354861e-04 3.548891452897e-03 0.0 
3.548891452897e-03 1.871725410986e-03 0.0 
0.0 0.0 -8.913707482552e-04 
4.174760030635e-04 3.518419278721e-03 0.0 
3.518419278721e-03 1.585153718146e-03 0.0 
0.0 0.0 -8.538425857873e-04 
5.455280992742e-04 3.365363645192e-03 0.0 
3.365363645192e-03 1.323229666394e-03 0.0 
0.0 0.0 -8.008961852862e-04 
7.498486656370e-04 3.260544319073e-03 0.0 
3.260544319073e-03 1.013594496255e-03 0.0 
0.0 0.0 -7.557613550964e-04 
5.794043773309e-04 3.414810932032e-03 0.0 
3.414810932032e-03 1.312272080423e-03 0.0 
0.0 0.0 -8.100034870355e-04 
9.766186802750e-04 3.126905533587e-03 0.0 
3.126905533587e-03 6.756506724320e-04 0.0 
0.0 0.0 -7.081154368744e-04 
1.170764685342e-03 3.063309594450e-03 0.0 
3.063309594450e-03 3.918842971428e-04 0.0 
0.0 0.0 -6.697067067790e-04 
1.469956798013e-03 2.887539401857e-03 0.0 
2.887539401857e-03 -6.720200421089e-06 0.0 
0.0 0.0 -6.271013989681e-04 
1.655398318796e-03 2.905797537394e-03 0.0 
2.905797537394e-03 -2.066635196578e-04 0.0 
0.0 0.0 -6.208863424878e-04 
1.958892900495e-03 2.587078338226e-03 0.0 
2.587078338226e-03 -5.601119320347e-04 0.0 
0.0 0.0 -5.994775579116e-04 
2.135455672651e-03 2.638700697284e-03 0.0 
2.638700697284e-03 -6.211030008372e-04 0.0 
0.0 0.0 -6.490082879202e-04 
2.410352153471e-03 2.173774944653e-03 0.0 
2.173774944653e-03 -9.107525055140e-04 0.0 
0.0 0.0 -6.426855634101e-04 
2.158594858366e-03 2.117426171510e-03 0.0 
2.117426171510e-03 -8.346185089651e-04 0.0 
0.0 0.0 -5.674184354577e-04 
2.548284906519e-03 1.577323129924e-03 0.0 
1.577323129924e-03 -1.120076299841e-03 0.0 
0.0 0.0 -6.120894028618e-04 
2.766282761562e-03 1.671188389262e-03 0.0 
1.671188389262e-03 -1.152705968468e-03 0.0 
0.0 0.0 -6.915329113260e-04 
2.831831315373e-03 9.695675877105e-04 0.0 
9.695675877105e-04 -1.281170566415e-03 0.0 
0.0 0.0 -6.645688924106e-04 
2.536993124922e-03 9.134999273791e-04 0.0 
9.134999273791e-04 -1.229619517363e-03 0.0 
0.0 0.0 -5.603029746683e-04 
2.733867997822e-03 2.586198841001e-04 0.0 
2.586198841001e-04 -1.313858956396e-03 0.0 
0.0 0.0 -6.085753034686e-04 
2.382754168972e-03 2.331723641419e-04 0.0 
2.331723641419e-04 -1.217161318829e-03 0.0 
0.0 0.0 -4.995397929185e-04 
2.475502276821e-03 -4.225569186791e-04 0.0 
-4.225569186791e-04 -1.235276730126e-03 0.0 
0.0 0.0 -5.315252342980e-04 
2.783353977069e-03 -4.207301430438e-04 0.0 
-4.207301430438e-04 -1.298298732893e-03 0.0 
0.0 0.0 -6.364522475042e-04 
2.431423533239e-03 -1.055611195596e-03 0.0 
-1.055611195596e-03 -1.141139443354e-03 0.0 
0.0 0.0 -5.529788956651e-04 
2.074488083004e-03 -1.034963949875e-03 0.0 
-1.034963949875e-03 -9.657239908617e-04 0.0 
0.0 0.0 -4.751846109182e-04 
1.948746609120e-03 -1.563616376602e-03 0.0 
-1.563616376602e-03 -7.896259199600e-04 0.0 
0.0 0.0 -4.967660096401e-04 
2.266914827687e-03 -1.646291796375e-03 0.0 
-1.646291796375e-03 -9.610891233280e-04 0.0 
0.0 0.0 -5.596395875825e-04 
1.725234701887e-03 -1.991509456133e-03 0.0 
-1.991509456133e-03 -5.081914327056e-04 0.0 
0.0 0.0 -5.215899725061e-04 
1.402225958191e-03 -1.927478583456e-03 0.0 
-1.927478583456e-03 -1.960854800127e-04 0.0 
0.0 0.0 -5.169173477906e-04 
1.209383151701e-03 -2.216403946003e-03 0.0 
-2.216403946003e-03 7.890654783241e-05 0.0 
0.0 0.0 -5.521241569428e-04 
1.437995882087e-03 -2.266737877318e-03 0.0 
-2.266737877318e-03 -1.663516021812e-04 0.0 
0.0 0.0 -5.449904056737e-04 
1.024600490131e-03 -2.464285469351e-03 0.0 
-2.464285469351e-03 3.533750076132e-04 0.0 
0.0 0.0 -5.905609276045e-04 
8.985317602796e-04 -2.606405635227e-03 0.0 
-2.606405635227e-03 5.292322287011e-04 0.0 
0.0 0.0 -6.118988524203e-04 
7.560704768117e-04 -2.818446778216e-03 0.0 
-2.818446778216e-03 7.706212678724e-04 0.0 
0.0 0.0 -6.542964620075e-04 
8.580312086144e-04 -2.682927376050e-03 0.0 
-2.682927376050e-03 6.007672926437e-04 0.0 
0.0 0.0 -6.251993576820e-04 
5.867828103229e-04 -2.962553875983e-03 0.0 
-2.962553875983e-03 1.034857146591e-03 0.0 
0.0 0.0 -6.949885529632e-04 
4.441790608849e-04 -3.069180945402e-03 0.0 
-3.069180945402e-03 1.277969962145e-03 0.0 
0.0 0.0 -7.380638670128e-04 
2.783519300776e-04 -3.113099096991e-03 0.0 
-3.113099096991e-03 1.538449359472e-03 0.0 
0.0 0.0 -7.786291240925e-04 
1.058234640361e-04 -3.171084265656e-03 0.0 
-3.171084265656e-03 1.852966267041e-03 0.0 
0.0 0.0 -8.394813133188e-04 
3.929316153892e-04 -3.010245319228e-03 0.0 
-3.010245319228e-03 1.308656505855e-03 0.0 
0.0 0.0 -7.292520519616e-04 
9.932532998196e-05 -3.071474673695e-03 0.0 
-3.071474673695e-03 1.797955184989e-03 0.0 
0.0 0.0 -8.131202207017e-04 
1.861203807317e-04 -2.953410476768e-03 0.0 
-2.953410476768e-03 1.579421639320e-03 0.0 
0.0 0.0 -7.566608657364e-04 
-8.642223961803e-05 -2.932845730897e-03 0.0 
-2.932845730897e-03 2.045062282812e-03 0.0 
0.0 0.0 -8.394171613687e-04 
7.378179429990e-04 3.236151700417e-03 0.0 
3.236151700417e-03 1.055249139964e-03 0.0 
0.0 0.0 -7.684573212697e-04 
-2.470987176264e-05 -2.774259717146e-03 0.0 
-2.774259717146e-03 1.827411113102e-03 0.0 
0.0 0.0 -7.725862462883e-04 
2.168591650758e-04 -2.749464912916e-03 0.0 
-2.749464912916e-03 1.402707795240e-03 0.0 
0.0 0.0 -6.941001258497e-04 
-2.655633051019e-04 -2.700896907473e-03 0.0 
-2.700896907473e-03 2.263406073752e-03 0.0 
0.0 0.0 -8.562183294215e-04 
-3.538412369767e-04 -2.807118068406e-03 0.0 
-2.807118068406e-03 2.524613030834e-03 0.0 
0.0 0.0 -9.303307687962e-04 
-2.182790499822e-04 -2.492668770886e-03 0.0 
-2.492668770886e-03 2.032114690057e-03 0.0 
0.0 0.0 -7.773581314605e-04 
-4.250446102995e-04 -2.387105800852e-03 0.0 
-2.387105800852e-03 2.436232383686e-03 0.0 
0.0 0.0 -8.619376171656e-04 
-3.808762253420e-04 -2.140229309317e-03 0.0 
-2.140229309317e-03 2.184406533220e-03 0.0 
0.0 0.0 -7.729415605190e-04 
1.763159166294e-03 2.932701492782e-03 0.0 
2.932701492782e-03 -2.697944395366e-04 0.0 
0.0 0.0 -6.400134543247e-04 
-1.088844513542e-03 3.301377294412e-03 0.0 
3.301377294412e-03 4.460583281383e-03 0.0 
0.0 0.0 -9.751682721562e-04 
-5.557439599788e-04 -2.010376698230e-03 0.0 
-2.010376698230e-03 2.553174357475e-03 0.0 
0.0 0.0 -8.560415989269e-04 
-5.027177784437e-04 -1.739983302349e-03 0.0 
-1.739983302349e-03 2.268016728775e-03 0.0 
0.0 0.0 -7.565566929991e-04 
-3.487326511453e-04 -1.851839421592e-03 0.0 
-1.851839421592e-03 1.937346492323e-03 0.0 
0.0 0.0 -6.808345033620e-04 
-4.519877827048e-04 -1.437771514004e-03 0.0 
-1.437771514004e-03 1.973465387895e-03 0.0 
0.0 0.0 -6.520618307959e-04 
-1.774841257907e-03 1.527132807035e-03 0.0 
1.527132807035e-03 5.918357799879e-03 0.0 
0.0 0.0 -9.126358703463e-04 
-1.762808846704e-03 1.694088373988e-03 0.0 
1.694088373988e-03 6.266633471383e-03 0.0 
0.0 0.0 -9.772611937912e-04 
-1.774288393461e-03 1.442569390130e-03 0.0 
1.442569390130e-03 6.194015386497e-03 0.0 
0.0 0.0 -9.468612964576e-04 
-1.759396418391e-03 1.612723129842e-03 0.0 
1.612723129842e-03 6.563174828670e-03 0.0 
0.0 0.0 -1.012955122490e-03 
-1.767929614200e-03 1.376342917300e-03 0.0 
1.376342917300e-03 6.485124768915e-03 0.0 
0.0 0.0 -9.835180958883e-04 
-5.788967960072e-04 -1.335257077215e-03 0.0 
-1.335257077215e-03 2.277225899990e-03 0.0 
0.0 0.0 -7.256352817785e-04 
-1.603689512328e-03 2.493470387195e-03 0.0 
2.493470387195e-03 5.946173640174e-03 0.0 
0.0 0.0 -1.026687169009e-03 
-1.736212695290e-03 1.850044700733e-03 0.0 
1.850044700733e-03 6.615422803056e-03 0.0 
0.0 0.0 -1.042264213861e-03 
-7.638319934371e-04 3.223456733069e-03 0.0 
3.223456733069e-03 3.455847564200e-03 0.0 
0.0 0.0 -9.409285294772e-04 
3.366430025168e-04 3.397992003127e-03 0.0 
3.397992003127e-03 1.628840077963e-03 0.0 
0.0 0.0 -8.423498916340e-04 
2.156368313925e-03 8.947959957603e-04 0.0 
8.947959957603e-04 -1.035979942615e-03 0.0 
0.0 0.0 -4.801664448473e-04 
-6.227154585167e-04 -2.198002757365e-03 0.0 
-2.198002757365e-03 2.831211668969e-03 0.0 
0.0 0.0 -9.464983759081e-04 
-7.218347779198e-04 -1.819122893170e-03 0.0 
-1.819122893170e-03 2.913297155100e-03 0.0 
0.0 0.0 -9.383242106009e-04 
-8.133368797394e-04 -1.945809227020e-03 0.0 
-1.945809227020e-03 3.204453228297e-03 0.0 
0.0 0.0 -1.004955155493e-03 
2.358180408842e-04 -3.147007717197e-03 0.0 
-3.147007717197e-03 1.628184027877e-03 0.0 
0.0 0.0 -7.988580294692e-04 
-1.225410220003e-04 -3.166679032327e-03 0.0 
-3.166679032327e-03 2.260222165472e-03 0.0 
0.0 0.0 -9.088386183890e-04 
-3.596074933626e-05 -3.143460862446e-03 0.0 
-3.143460862446e-03 2.089404171616e-03 0.0 
0.0 0.0 -8.720661220001e-04 
-3.940691537939e-04 -3.066493924859e-03 0.0 
-3.066493924859e-03 2.736277962959e-03 0.0 
0.0 0.0 -9.548449181928e-04 
-3.127433245065e-04 -2.982699423106e-03 0.0 
-2.982699423106e-03 2.620883950583e-03 0.0 
0.0 0.0 -9.363521337227e-04 
-6.475470341843e-04 -2.849005951016e-03 0.0 
-2.849005951016e-03 3.244198139691e-03 0.0 
0.0 0.0 -9.829094188347e-04 
-7.290342086422e-04 -2.890946438125e-03 0.0 
-2.890946438125e-03 3.342200867435e-03 0.0 
0.0 0.0 -9.972914379494e-04 
-9.540874880885e-04 -2.660066281729e-03 0.0 
-2.660066281729e-03 3.821872870679e-03 0.0 
0.0 0.0 -1.003716470558e-03 
-1.033871380646e-03 -2.655311578103e-03 0.0 
-2.655311578103e-03 3.899288306138e-03 0.0 
0.0 0.0 -1.010717982506e-03 
-5.020318707035e-04 -2.652589391131e-03 0.0 
-2.652589391131e-03 3.162848563043e-03 0.0 
0.0 0.0 -1.000386703517e-03 
-1.738328040713e-04 -2.716917287151e-03 0.0 
-2.716917287151e-03 2.542650585114e-03 0.0 
0.0 0.0 -9.561072799058e-04 
-1.217140716833e-03 -2.433745842754e-03 0.0 
-2.433745842754e-03 4.355239653684e-03 0.0 
0.0 0.0 -1.026468870702e-03 
-1.301004518180e-03 -2.384512482324e-03 0.0 
-2.384512482324e-03 4.413129634354e-03 0.0 
0.0 0.0 -1.025303715086e-03 
-1.433223260983e-03 -2.180723409209e-03 0.0 
-2.180723409209e-03 4.841898264917e-03 0.0 
0.0 0.0 -1.051254241329e-03 
-1.533782143048e-03 -2.096001782913e-03 0.0 
-2.096001782913e-03 4.882119290392e-03 0.0 
0.0 0.0 -1.038917832539e-03 
-1.344970022650e-03 -2.253929758585e-03 0.0 
-2.253929758585e-03 4.461736113479e-03 0.0 
0.0 0.0 -1.037516479237e-03 
-1.569102967331e-03 -1.933831873179e-03 0.0 
-1.933831873179e-03 4.899834166201e-03 0.0 
0.0 0.0 -1.046305699947e-03 
-1.376153231101e-03 -2.066079550050e-03 0.0 
-2.066079550050e-03 4.500968763913e-03 0.0 
0.0 0.0 -1.050803148915e-03 
1.947540486422e-03 2.152880942579e-04 0.0 
2.152880942579e-04 -9.005037723215e-04 0.0 
0.0 0.0 -4.487300203286e-04 
1.680967532914e-03 9.207071897223e-04 0.0 
9.207071897223e-04 -5.014207716637e-04 0.0 
0.0 0.0 -5.055200405360e-04 
1.438850481880e-03 2.016578593639e-04 0.0 
2.016578593639e-04 -1.625086232559e-04 0.0 
0.0 0.0 -5.470036536960e-04 
1.202172879279e-03 8.527240019949e-04 0.0 
8.527240019949e-04 3.828898779410e-04 0.0 
0.0 0.0 -6.793126102372e-04 
1.037530362003e-03 2.011510087903e-04 0.0 
2.011510087903e-04 7.506062236288e-04 0.0 
0.0 0.0 -7.663442509849e-04 
8.675854264309e-04 7.587081521114e-04 0.0 
7.587081521114e-04 1.231843798103e-03 0.0 
0.0 0.0 -8.979051750036e-04 
7.349701041776e-04 2.153247329944e-04 0.0 
2.153247329944e-04 1.546423059999e-03 0.0 
0.0 0.0 -9.701408636527e-04 
8.610381847209e-04 -3.526591051395e-04 0.0 
-3.526591051395e-04 1.156465632251e-03 0.0 
0.0 0.0 -8.646444929881e-04 
-1.453224264520e-03 2.831768754596e-03 0.0 
2.831768754596e-03 5.484804576212e-03 0.0 
0.0 0.0 -1.018102500310e-03 
3.008867090267e-03 1.058367247789e-03 0.0 
1.058367247789e-03 -1.343458179846e-03 0.0 
0.0 0.0 -7.137466758949e-04 
2.853497805066e-03 1.766083769912e-03 0.0 
1.766083769912e-03 -1.173072932721e-03 0.0 
0.0 0.0 -7.201820881480e-04 
3.053541270561e-03 1.142570270594e-03 0.0 
1.142570270594e-03 -1.348374367158e-03 0.0 
0.0 0.0 -7.307858157443e-04 
2.838618046953e-03 1.876649797015e-03 0.0 
1.876649797015e-03 -1.126367864291e-03 0.0 
0.0 0.0 -7.338215068551e-04 
2.971080593981e-03 1.270655419308e-03 0.0 
1.270655419308e-03 -1.289312095888e-03 0.0 
0.0 0.0 -7.207579277541e-04 
2.719217330289e-03 2.056721202716e-03 0.0 
2.056721202716e-03 -1.037451596634e-03 0.0 
0.0 0.0 -7.207567429950e-04 
2.772942118414e-03 1.411962470906e-03 0.0 
1.411962470906e-03 -1.228640855760e-03 0.0 
0.0 0.0 -6.618433982802e-04 
2.936188635973e-03 5.059698955333e-04 0.0 
5.059698955333e-04 -1.379043216914e-03 0.0 
0.0 0.0 -6.673480367399e-04 
2.617932977065e-03 5.853697332861e-04 0.0 
5.853697332861e-04 -1.334188021617e-03 0.0 
0.0 0.0 -5.501764094776e-04 
2.753067280877e-03 -3.549983010408e-04 0.0 
-3.549983010408e-04 -1.367545839080e-03 0.0 
0.0 0.0 -5.937949036274e-04 
2.283697930113e-03 -2.688909952497e-04 0.0 
-2.688909952497e-04 -1.277221164065e-03 0.0 
0.0 0.0 -4.313471854492e-04 
2.525026440165e-03 -1.212492314672e-03 0.0 
-1.212492314672e-03 -1.245102357231e-03 0.0 
0.0 0.0 -5.485388926860e-04 
-1.241644147846e-04 3.665257049786e-03 0.0 
3.665257049786e-03 2.568141902724e-03 0.0 
0.0 0.0 -9.405629120884e-04 
9.458807958305e-04 1.361774924333e-03 0.0 
1.361774924333e-03 9.904922510770e-04 0.0 
0.0 0.0 -8.298741629604e-04 
6.513001348098e-04 1.229100697752e-03 0.0 
1.229100697752e-03 1.753882193068e-03 0.0 
0.0 0.0 -9.993981362447e-04 
6.963768604448e-04 1.772072157614e-03 0.0 
1.772072157614e-03 1.581186938205e-03 0.0 
0.0 0.0 -9.522937794042e-04 
-3.189420848090e-04 -1.545020922433e-03 0.0 
-1.545020922433e-03 1.685829119162e-03 0.0 
0.0 0.0 -5.858087290083e-04 
-1.729227017080e-03 -1.797597956290e-03 0.0 
-1.797597956290e-03 5.304685395965e-03 0.0 
0.0 0.0 -1.052155339158e-03 
-3.558894212413e-04 -2.357175527876e-03 0.0 
-2.357175527876e-03 3.123019306479e-03 0.0 
0.0 0.0 -1.032922975483e-03 
-3.685387661375e-05 -2.333297789804e-03 0.0 
-2.333297789804e-03 2.519376975604e-03 0.0 
0.0 0.0 -9.972889278909e-04 
5.502284084495e-04 -2.540944922989e-04 0.0 
-2.540944922989e-04 1.932880194956e-03 0.0 
0.0 0.0 -1.036234461364e-03 
-5.051250462252e-04 -1.053858961610e-03 0.0 
-1.053858961610e-03 1.923683454344e-03 0.0 
0.0 0.0 -5.970694122200e-04 
2.486914527932e-03 2.192796758779e-03 0.0 
2.192796758779e-03 -9.291035182538e-04 0.0 
0.0 0.0 -6.676332898623e-04 
2.328692636026e-03 2.634849956172e-03 0.0 
2.634849956172e-03 -6.738088910714e-04 0.0 
0.0 0.0 -7.092358906949e-04 
-1.744623678677e-03 1.540348128746e-03 0.0 
1.540348128746e-03 6.846449706807e-03 0.0 
0.0 0.0 -1.048874596840e-03 
-1.750773001735e-03 1.319704536713e-03 0.0 
1.319704536713e-03 6.756146718387e-03 0.0 
0.0 0.0 -1.019458214591e-03 
-2.480160767706e-04 -2.004916630844e-03 0.0 
-2.004916630844e-03 3.137306023889e-03 0.0 
0.0 0.0 -1.070157681403e-03 
-6.234076530390e-04 -9.645286907226e-04 0.0 
-9.645286907226e-04 2.209865459266e-03 0.0 
0.0 0.0 -6.466873288763e-04 
-1.068414060457e-03 -2.374253472806e-03 0.0 
-2.374253472806e-03 4.293485734694e-03 0.0 
0.0 0.0 -1.053463316161e-03 
2.067995625182e-03 6.451329218673e-04 0.0 
6.451329218673e-04 -1.186041327943e-03 0.0 
0.0 0.0 -3.779804131024e-04 
-1.762784595192e-03 -1.607331333857e-03 0.0 
-1.607331333857e-03 5.293267446583e-03 0.0 
0.0 0.0 -1.053563116650e-03 
-1.867913240625e-03 -1.489305966451e-03 0.0 
-1.489305966451e-03 5.673891533939e-03 0.0 
0.0 0.0 -1.070920355653e-03 
-7.933761041048e-04 -2.832720245216e-03 0.0 
-2.832720245216e-03 3.452224715287e-03 0.0 
0.0 0.0 -1.021320298254e-03 
4.031722277788e-04 1.617631885485e-03 0.0 
1.617631885485e-03 2.296315845658e-03 0.0 
0.0 0.0 -1.069468904140e-03 
4.279180701410e-04 2.089566425205e-03 0.0 
2.089566425205e-03 2.165414708705e-03 0.0 
0.0 0.0 -1.033921039166e-03 
2.748961671600e-03 -1.234973564708e-03 0.0 
-1.234973564708e-03 -1.253110519415e-03 0.0 
0.0 0.0 -6.410790652217e-04 
2.518060065866e-03 -2.059438322562e-03 0.0 
-2.059438322562e-03 -1.018220698221e-03 0.0 
0.0 0.0 -6.427883004194e-04 
2.357888963389e-03 -2.118209179973e-03 0.0 
-2.118209179973e-03 -9.914742540871e-04 0.0 
0.0 0.0 -5.856063039867e-04 
2.191323313200e-03 -2.728758808394e-03 0.0 
-2.728758808394e-03 -6.479650369089e-04 0.0 
0.0 0.0 -6.614392612675e-04 
2.278763046571e-03 -2.578114575528e-03 0.0 
-2.578114575528e-03 -7.103706415061e-04 0.0 
0.0 0.0 -6.721681735992e-04 
1.895457018917e-03 -3.007528799367e-03 0.0 
-3.007528799367e-03 -3.206537863592e-04 0.0 
0.0 0.0 -6.749156710960e-04 
1.780393766489e-03 -3.161947930664e-03 0.0 
-3.161947930664e-03 -1.991738640969e-04 0.0 
0.0 0.0 -6.776656724536e-04 
1.498218282607e-03 -3.239267173229e-03 0.0 
-3.239267173229e-03 1.323736015907e-04 0.0 
0.0 0.0 -6.988250932278e-04 
1.538218957511e-03 -3.082075736210e-03 0.0 
-3.082075736210e-03 7.246781046869e-07 0.0 
0.0 0.0 -6.595472724067e-04 
1.116756184221e-03 -3.039153293536e-03 0.0 
-3.039153293536e-03 4.098621490744e-04 0.0 
0.0 0.0 -6.542649999838e-04 
9.813252680918e-04 -2.956617965048e-03 0.0 
-2.956617965048e-03 5.482338783846e-04 0.0 
0.0 0.0 -6.555253484899e-04 
6.892512545273e-04 -2.715436424775e-03 0.0 
-2.715436424775e-03 7.414890539001e-04 0.0 
0.0 0.0 -6.131744178975e-04 
-1.739487401810e-03 -1.643308528611e-03 0.0 
-1.643308528611e-03 5.674904400731e-03 0.0 
0.0 0.0 -1.101875158976e-03 
1.625849311047e-03 -1.683389643306e-04 0.0 
-1.683389643306e-04 -1.097136295050e-03 0.0 
0.0 0.0 -2.265912925700e-04 
-1.396148361601e-03 2.647702035806e-03 0.0 
2.647702035806e-03 4.519072400057e-03 0.0 
0.0 0.0 -8.810844588398e-04 
-5.349333944456e-04 -2.056134526959e-03 0.0 
-2.056134526959e-03 3.696128141265e-03 0.0 
0.0 0.0 -1.099012274073e-03 
4.001314244547e-04 2.494511169208e-04 0.0 
2.494511169208e-04 2.291122324032e-03 0.0 
0.0 0.0 -1.088453095952e-03 
-1.720074879915e-03 1.479198222822e-03 0.0 
1.479198222822e-03 7.120039440071e-03 0.0 
0.0 0.0 -1.085032576515e-03 
-1.727265597861e-03 1.269164868262e-03 0.0 
1.269164868262e-03 7.020339379643e-03 0.0 
0.0 0.0 -1.055603631703e-03 
-1.745923234167e-03 1.117194505061e-03 0.0 
1.117194505061e-03 6.644193117880e-03 0.0 
0.0 0.0 -9.897378988699e-04 
-1.726111739886e-03 1.073003689324e-03 0.0 
1.073003689324e-03 6.905750690588e-03 0.0 
0.0 0.0 -1.026001677571e-03 
-1.697815529865e-03 1.216597394983e-03 0.0 
1.216597394983e-03 7.279055033116e-03 0.0 
0.0 0.0 -1.091942449670e-03 
-1.699755368788e-03 1.027337857590e-03 0.0 
1.027337857590e-03 7.158023142695e-03 0.0 
0.0 0.0 -1.062342898562e-03 
-1.716352618538e-03 8.878056221667e-04 0.0 
8.878056221667e-04 6.774679391188e-03 0.0 
0.0 0.0 -9.962627399151e-04 
-1.692178280540e-03 8.508470267666e-04 0.0 
8.508470267666e-04 7.019991579685e-03 0.0 
0.0 0.0 -1.032646955902e-03 
-1.695660932446e-03 7.184317155414e-04 0.0 
7.184317155414e-04 6.625583462411e-03 0.0 
0.0 0.0 -9.664557332607e-04 
-1.677486126932e-03 6.911180295046e-04 0.0 
6.911180295046e-04 6.868534941944e-03 0.0 
0.0 0.0 -1.002889032254e-03 
-1.663620555798e-03 8.098065595925e-04 0.0 
8.098065595925e-04 7.259384762552e-03 0.0 
0.0 0.0 -1.069134413525e-03 
-1.655525420696e-03 6.533870042141e-04 0.0 
6.533870042141e-04 7.107625883104e-03 0.0 
0.0 0.0 -1.039387411609e-03 
-1.659615819212e-03 5.491873914478e-04 0.0 
5.491873914478e-04 6.708579784798e-03 0.0 
0.0 0.0 -9.730575354659e-04 
-1.642941155605e-03 5.125241071205e-04 0.0 
5.125241071205e-04 6.945188648216e-03 0.0 
0.0 0.0 -1.009574527126e-03 
-1.637255380195e-03 4.205204331053e-04 0.0 
4.205204331053e-04 6.536272510904e-03 0.0 
0.0 0.0 -9.431603702596e-04 
-1.623420800787e-03 3.856837058294e-04 0.0 
3.856837058294e-04 6.767271635738e-03 0.0 
0.0 0.0 -9.796061197752e-04 
-1.622026920778e-03 4.757000201370e-04 0.0 
4.757000201370e-04 7.177981971167e-03 0.0 
0.0 0.0 -1.046101832713e-03 
-5.260638759536e-04 -7.746154698035e-04 0.0 
-7.746154698035e-04 1.804698088172e-03 0.0 
0.0 0.0 -4.826019863697e-04 
6.384355500235e-04 -8.071467030727e-04 0.0 
-8.071467030727e-04 1.625869863801e-03 0.0 
0.0 0.0 -9.660701661439e-04 
3.155700960172e-04 -6.399278427758e-04 0.0 
-6.399278427758e-04 2.369342842803e-03 0.0 
0.0 0.0 -1.083831836677e-03 
-8.892645420983e-04 -1.589464053846e-03 0.0 
-1.589464053846e-03 3.243112049151e-03 0.0 
0.0 0.0 -9.683295300234e-04 
-9.893521759344e-04 -1.650588191873e-03 0.0 
-1.650588191873e-03 3.517832807879e-03 0.0 
0.0 0.0 -1.010934236754e-03 
-9.339052402119e-04 -1.988561699477e-03 0.0 
-1.988561699477e-03 3.508091553521e-03 0.0 
0.0 0.0 -1.041462402745e-03 
-1.131758993546e-03 -1.657762215853e-03 0.0 
-1.657762215853e-03 3.856452720899e-03 0.0 
0.0 0.0 -1.033211989474e-03 
-1.610140258144e-03 3.510578464752e-04 0.0 
3.510578464752e-04 7.002203508451e-03 0.0 
0.0 0.0 -1.015477767897e-03 
-1.603569950634e-03 4.323698609735e-04 0.0 
4.323698609735e-04 7.406712470395e-03 0.0 
0.0 0.0 -1.082739357160e-03 
2.075859047304e-03 2.734073794279e-03 0.0 
2.734073794279e-03 -5.151566843200e-04 0.0 
0.0 0.0 -6.688724412789e-04 
1.829803788864e-03 2.896630922712e-03 0.0 
2.896630922712e-03 -2.437374272620e-04 0.0 
0.0 0.0 -6.797427264007e-04 
-1.702624885041e-03 1.699730791061e-03 0.0 
1.699730791061e-03 7.199957864770e-03 0.0 
0.0 0.0 -1.114382729655e-03 
-1.921178658721e-03 -1.279150328982e-03 0.0 
-1.279150328982e-03 5.641022297000e-03 0.0 
0.0 0.0 -1.061085778683e-03 
-1.759404772593e-03 -1.368797781515e-03 0.0 
-1.368797781515e-03 5.258990087990e-03 0.0 
0.0 0.0 -1.062669991958e-03 
6.091469494368e-04 3.201234470351e-03 0.0 
3.201234470351e-03 1.145920310691e-03 0.0 
0.0 0.0 -7.521716829121e-04 
3.812479400786e-04 3.221138826746e-03 0.0 
3.221138826746e-03 1.454024134529e-03 0.0 
0.0 0.0 -7.865451748317e-04 
6.223231318809e-04 3.034958604236e-03 0.0 
3.034958604236e-03 1.026602646357e-03 0.0 
0.0 0.0 -7.066824763876e-04 
3.755190555598e-04 3.004529260336e-03 0.0 
3.004529260336e-03 1.328866931440e-03 0.0 
0.0 0.0 -7.304511372856e-04 
1.504650344152e-04 3.149504562038e-03 0.0 
3.149504562038e-03 1.760988080228e-03 0.0 
0.0 0.0 -8.191941919899e-04 
5.829936888595e-04 2.805741157272e-03 0.0 
2.805741157272e-03 9.386435949221e-04 0.0 
0.0 0.0 -6.521302644778e-04 
1.691581229929e-04 -2.698724546406e-03 0.0 
-2.698724546406e-03 1.880405331260e-03 0.0 
0.0 0.0 -8.664312523603e-04 
-1.632170864774e-03 7.587389543785e-04 0.0 
7.587389543785e-04 7.494664304375e-03 0.0 
0.0 0.0 -1.105708206284e-03 
-1.867627977739e-04 -1.946982532398e-03 0.0 
-1.946982532398e-03 1.623581017794e-03 0.0 
0.0 0.0 -6.157792371515e-04 
-1.766459924498e-04 -1.658792918857e-03 0.0 
-1.658792918857e-03 1.424250676640e-03 0.0 
0.0 0.0 -5.346877217957e-04 
-1.953846352874e-03 -1.181006378595e-03 0.0 
-1.181006378595e-03 5.993034579258e-03 0.0 
0.0 0.0 -1.094582683422e-03 
9.227653006670e-04 -9.923042472365e-04 0.0 
-9.923042472365e-04 8.348026981178e-04 0.0 
0.0 0.0 -7.532434280506e-04 
-4.484070588213e-04 3.613794165219e-03 0.0 
3.613794165219e-03 3.179623750880e-03 0.0 
0.0 0.0 -9.533529749162e-04 
-2.780489895403e-04 3.528284248772e-03 0.0 
3.528284248772e-03 2.993445099109e-03 0.0 
0.0 0.0 -9.681750457242e-04 
-5.507055311170e-04 3.446174456380e-03 0.0 
3.446174456380e-03 3.597530854088e-03 0.0 
0.0 0.0 -9.957130113267e-04 
-3.863084581791e-04 3.307385071573e-03 0.0 
3.307385071573e-03 3.448440357162e-03 0.0 
0.0 0.0 -1.023751803962e-03 
-6.300320690614e-04 3.259070928407e-03 0.0 
3.259070928407e-03 4.039542678780e-03 0.0 
0.0 0.0 -1.059873349132e-03 
-5.085717340789e-04 3.118830500926e-03 0.0 
3.118830500926e-03 3.927747937877e-03 0.0 
0.0 0.0 -1.087854580038e-03 
-2.514557000785e-04 3.100269023384e-03 0.0 
3.100269023384e-03 3.340960341130e-03 0.0 
0.0 0.0 -1.051791170495e-03 
1.399069373120e-04 1.939674922792e-03 0.0 
1.939674922792e-03 2.839420856551e-03 0.0 
0.0 0.0 -1.107463318235e-03 
-4.186704419438e-04 2.922768790841e-03 0.0 
2.922768790841e-03 3.866682433006e-03 0.0 
0.0 0.0 -1.115916943430e-03 
-1.595806012880e-03 2.986475684988e-04 0.0 
2.986475684988e-04 6.569860539438e-03 0.0 
0.0 0.0 -9.487150400336e-04 
9.874874757951e-04 2.001023480651e-03 0.0 
2.001023480651e-03 8.096298849095e-04 0.0 
0.0 0.0 -7.701931545877e-04 
1.099587361542e-03 -2.883577329194e-03 0.0 
-2.883577329194e-03 3.196281228081e-04 0.0 
0.0 0.0 -6.082352075787e-04 
-4.120182269500e-04 -8.254968701079e-04 0.0 
-8.254968701079e-04 1.533206618467e-03 0.0 
0.0 0.0 -4.510100977180e-04 
5.592980566656e-04 -2.545612127290e-03 0.0 
-2.545612127290e-03 8.296765578219e-04 0.0 
0.0 0.0 -5.952748347803e-04 
-6.262840441887e-04 -6.448010795071e-04 0.0 
-6.448010795071e-04 2.035833554771e-03 0.0 
0.0 0.0 -5.222488353909e-04 
-7.319508735308e-04 -8.428934672220e-04 0.0 
-8.428934672220e-04 2.464651158961e-03 0.0 
0.0 0.0 -6.822577977165e-04 
-4.713603530403e-04 -1.760178858830e-03 0.0 
-1.760178858830e-03 3.749274242464e-03 0.0 
0.0 0.0 -1.136360603439e-03 
-7.414846696447e-04 3.136821301181e-03 0.0 
3.136821301181e-03 4.510208953631e-03 0.0 
0.0 0.0 -1.124065295910e-03 
-8.446432131550e-04 3.218211498406e-03 0.0 
3.218211498406e-03 4.600039828402e-03 0.0 
0.0 0.0 -1.095615423988e-03 
1.374965702112e-04 2.907969111804e-03 0.0 
2.907969111804e-03 1.629175485309e-03 0.0 
0.0 0.0 -7.571451666514e-04 
-7.702727876907e-05 2.968579821374e-03 0.0 
2.968579821374e-03 2.049330152496e-03 0.0 
0.0 0.0 -8.452726601685e-04 
8.289727363508e-05 1.511362000005e-03 0.0 
1.511362000005e-03 2.985439199539e-03 0.0 
0.0 0.0 -1.136278651916e-03 
-1.765237675762e-03 1.222407657091e-03 0.0 
1.222407657091e-03 6.114667953270e-03 0.0 
0.0 0.0 -9.177848451843e-04 
-1.710580504207e-03 7.440398052567e-04 0.0 
7.440398052567e-04 6.380060456859e-03 0.0 
0.0 0.0 -9.302130594432e-04 
-1.676565589941e-03 5.872598873801e-04 0.0 
5.872598873801e-04 6.215440748447e-03 0.0 
0.0 0.0 -9.001900590098e-04 
-3.803857748505e-04 -5.434049098283e-04 0.0 
-5.434049098283e-04 1.471759670645e-03 0.0 
0.0 0.0 -3.494697005546e-04 
7.568627899495e-04 -2.787918667943e-03 0.0 
-2.787918667943e-03 7.221354992753e-04 0.0 
0.0 0.0 -6.338564096678e-04 
-1.662120244785e-03 1.162296850059e-03 0.0 
1.162296850059e-03 7.529797322482e-03 0.0 
0.0 0.0 -1.128363834889e-03 
2.037234962576e-03 2.841104701767e-03 0.0 
2.841104701767e-03 -4.145658898484e-04 0.0 
0.0 0.0 -6.954296025976e-04 
1.531315725723e-03 2.908052614029e-03 0.0 
2.908052614029e-03 2.448474694819e-06 0.0 
0.0 0.0 -6.573275144647e-04 
1.261589428094e-03 6.096704043663e-04 0.0 
6.096704043663e-04 -9.183369249884e-04 0.0 
0.0 0.0 -1.471082156167e-04 
7.631106832774e-04 -7.208428592914e-05 0.0 
-7.208428592914e-05 -6.801595576128e-04 0.0 
0.0 0.0 -3.555048242768e-05 
-1.589929625905e-03 3.288854672539e-04 0.0 
3.288854672539e-04 7.214274616426e-03 0.0 
0.0 0.0 -1.051814883004e-03 
-1.572388470156e-03 3.792019312018e-04 0.0 
3.792019312018e-04 7.619653826889e-03 0.0 
0.0 0.0 -1.117859435171e-03 
-1.078769339999e-03 -1.982110544533e-03 0.0 
-1.982110544533e-03 3.829235274235e-03 0.0 
0.0 0.0 -1.051224796075e-03 
-1.274189695606e-03 -1.627447894412e-03 0.0 
-1.627447894412e-03 4.185605639052e-03 0.0 
0.0 0.0 -1.050863174419e-03 
-1.969895269108e-04 -1.624325261337e-03 0.0 
-1.624325261337e-03 3.218036131210e-03 0.0 
0.0 0.0 -1.107558395918e-03 
3.636511301315e-04 -2.361072158115e-03 0.0 
-2.361072158115e-03 9.584204304499e-04 0.0 
0.0 0.0 -5.666020973920e-04 
-1.569287665322e-03 4.982993919659e-04 0.0 
4.982993919659e-04 7.796117196338e-03 0.0 
0.0 0.0 -1.149181664990e-03 
6.559202405712e-04 -1.403190814261e-03 0.0 
-1.403190814261e-03 1.391837788957e-03 0.0 
0.0 0.0 -8.776105840836e-04 
9.173022590222e-04 -1.676640049954e-03 0.0 
-1.676640049954e-03 6.107363237665e-04 0.0 
0.0 0.0 -6.548736783380e-04 
-1.171879392758e-03 -1.281686817317e-03 0.0 
-1.281686817317e-03 3.846852730435e-03 0.0 
0.0 0.0 -1.001803992689e-03 
1.504150752549e-03 2.803418453549e-03 0.0 
2.803418453549e-03 -4.311377337536e-05 0.0 
0.0 0.0 -6.261587053603e-04 
1.650316852641e-03 2.671963168056e-03 0.0 
2.671963168056e-03 -3.170419596538e-04 0.0 
0.0 0.0 -5.714035255658e-04 
1.466801754994e-03 -2.835534920743e-03 0.0 
-2.835534920743e-03 -6.856056088169e-05 0.0 
0.0 0.0 -5.992462260482e-04 
4.198225928608e-04 -2.489806032447e-03 0.0 
-2.489806032447e-03 9.452515050113e-04 0.0 
0.0 0.0 -5.850317562309e-04 
-7.228005656972e-04 -5.488391732617e-04 0.0 
-5.488391732617e-04 2.276834511977e-03 0.0 
0.0 0.0 -5.562745863746e-04 
-4.637036380639e-04 -1.428624458379e-03 0.0 
-1.428624458379e-03 3.853108176796e-03 0.0 
0.0 0.0 -1.173829981771e-03 
-1.646663843551e-03 1.358180133252e-03 0.0 
1.358180133252e-03 7.637691352308e-03 0.0 
0.0 0.0 -1.157575248917e-03 
-1.588531343900e-04 2.821657521555e-03 0.0 
2.821657521555e-03 3.283406077172e-03 0.0 
0.0 0.0 -1.080172819833e-03 
2.446831455112e-05 3.060603850123e-03 0.0 
3.060603850123e-03 2.728589719442e-03 0.0 
0.0 0.0 -1.015677837919e-03 
-3.660685555016e-04 2.667845735617e-03 0.0 
2.667845735617e-03 3.843962247037e-03 0.0 
0.0 0.0 -1.144955025780e-03 
2.673047132891e-04 -2.137865757300e-03 0.0 
-2.137865757300e-03 9.516698016607e-04 0.0 
0.0 0.0 -5.224176492642e-04 
-7.311483308604e-04 -1.856928531792e-03 0.0 
-1.856928531792e-03 4.285424001286e-03 0.0 
0.0 0.0 -1.165794428787e-03 
-2.038713827362e-03 -9.521744761757e-04 0.0 
-9.521744761757e-04 5.942161280998e-03 0.0 
0.0 0.0 -1.070719593515e-03 
-9.487823984943e-04 3.179202297983e-03 0.0 
3.179202297983e-03 5.046317585578e-03 0.0 
0.0 0.0 -1.157598467365e-03 
-1.028189826122e-03 3.189698687636e-03 0.0 
3.189698687636e-03 5.131498804919e-03 0.0 
0.0 0.0 -1.131219827106e-03 
1.693489723556e-03 2.912737131245e-03 0.0 
2.912737131245e-03 -1.493629984725e-04 0.0 
0.0 0.0 -6.617685964645e-04 
1.185947765099e-03 2.829659806798e-03 0.0 
2.829659806798e-03 2.506006467406e-04 0.0 
0.0 0.0 -6.156636050741e-04 
1.024663306531e-03 2.720941116212e-03 0.0 
2.720941116212e-03 3.858661710823e-04 0.0 
0.0 0.0 -6.045126332627e-04 
7.581467413336e-04 2.629057648791e-03 0.0 
2.629057648791e-03 6.283993164515e-04 0.0 
0.0 0.0 -5.942340247651e-04 
-1.648477658061e-03 2.188124378807e-03 0.0 
2.188124378807e-03 4.981950326516e-03 0.0 
0.0 0.0 -8.520119503206e-04 
1.288363213325e-03 2.918108490938e-03 0.0 
2.918108490938e-03 1.603315013667e-04 0.0 
0.0 0.0 -6.208691634391e-04 
-1.164374950017e-03 2.801514945082e-03 0.0 
2.801514945082e-03 4.086272555253e-03 0.0 
0.0 0.0 -8.983830653277e-04 
-1.269722602642e-03 2.487508477755e-03 0.0 
2.487508477755e-03 4.199128990551e-03 0.0 
0.0 0.0 -8.736227209573e-04 
-1.046332524412e-03 2.638264182984e-03 0.0 
2.638264182984e-03 3.789437134256e-03 0.0 
0.0 0.0 -8.954616384525e-04 
-9.535589006009e-05 3.192865815352e-03 0.0 
3.192865815352e-03 2.227004452414e-03 0.0 
0.0 0.0 -9.127067050351e-04 
-3.022280285659e-04 2.955332983640e-03 0.0 
2.955332983640e-03 2.491438051520e-03 0.0 
0.0 0.0 -9.307589223859e-04 
2.556968385694e-03 2.345203577048e-03 0.0 
2.345203577048e-03 -8.968266888023e-04 0.0 
0.0 0.0 -7.114892986678e-04 
1.812389688023e-03 1.564451495357e-03 0.0 
1.564451495357e-03 -6.179615212951e-04 0.0 
0.0 0.0 -5.118977857407e-04 
-8.515674767651e-04 -2.308299700533e-03 0.0 
-2.308299700533e-03 3.434983390257e-03 0.0 
0.0 0.0 -1.054912416397e-03 
-1.137266829401e-03 -2.398619768870e-03 0.0 
-2.398619768870e-03 4.055285407119e-03 0.0 
0.0 0.0 -1.045074301760e-03 
3.367977982503e-04 -3.065748121326e-03 0.0 
-3.065748121326e-03 1.429094799845e-03 0.0 
0.0 0.0 -7.568111134693e-04 
-1.629365191565e-03 9.257695161170e-04 0.0 
9.257695161170e-04 7.634439739813e-03 0.0 
0.0 0.0 -1.135109731873e-03 
-1.590870954180e-03 8.599854275843e-04 0.0 
8.599854275843e-04 7.870981141839e-03 0.0 
0.0 0.0 -1.171938512032e-03 
-1.643416432560e-03 4.449926551975e-04 0.0 
4.449926551975e-04 6.296597502974e-03 0.0 
0.0 0.0 -9.065739516476e-04 
-1.602464872442e-03 3.219184720994e-04 0.0 
3.219184720994e-04 6.108782366366e-03 0.0 
0.0 0.0 -8.764137937918e-04 
-2.696764371388e-04 -1.265861831851e-03 0.0 
-1.265861831851e-03 1.411045974668e-03 0.0 
0.0 0.0 -4.842067647502e-04 
-1.400634450087e-04 -1.409834388031e-03 0.0 
-1.409834388031e-03 1.204297259864e-03 0.0 
0.0 0.0 -4.502468535423e-04 
-2.319199994023e-04 -3.122878098546e-03 0.0 
-3.122878098546e-03 2.451044877422e-03 0.0 
0.0 0.0 -9.437206122825e-04 
-7.988578011231e-04 -2.058259969339e-03 0.0 
-2.058259969339e-03 4.234722114073e-03 0.0 
0.0 0.0 -1.127529358476e-03 
-1.669665556383e-03 1.635524756470e-03 0.0 
1.635524756470e-03 7.469407833496e-03 0.0 
0.0 0.0 -1.150095860580e-03 
-1.643068085807e-03 1.857648967737e-03 0.0 
1.857648967737e-03 7.542411325100e-03 0.0 
0.0 0.0 -1.179372829571e-03 
-1.673921977860e-03 1.925750498755e-03 0.0 
1.925750498755e-03 7.258395415596e-03 0.0 
0.0 0.0 -1.143369325255e-03 
-2.014473825755e-04 -1.218765106027e-03 0.0 
-1.218765106027e-03 3.345673547677e-03 0.0 
0.0 0.0 -1.144273392007e-03 
3.110341159347e-03 3.472939405717e-04 0.0 
3.472939405717e-04 -1.445647776500e-03 0.0 
0.0 0.0 -7.134400212203e-04 
1.600864292633e-03 -4.933060105816e-04 0.0 
-4.933060105816e-04 -5.124875882505e-04 0.0 
0.0 0.0 -4.664471590211e-04 
1.395368066446e-03 -9.561308999161e-04 0.0 
-9.561308999161e-04 -1.034414870566e-03 0.0 
0.0 0.0 -1.546942268056e-04 
3.758232775366e-04 3.466607308548e-03 0.0 
3.466607308548e-03 1.708095271688e-03 0.0 
0.0 0.0 -8.625807428358e-04 
-1.387284875597e-04 -1.147843400141e-03 0.0 
-1.147843400141e-03 1.071097091449e-03 0.0 
0.0 0.0 -3.720583479433e-04 
-1.231098641636e-03 3.135190691380e-03 0.0 
3.135190691380e-03 4.944666622865e-03 0.0 
0.0 0.0 -1.010319580236e-03 
-1.984786992954e-03 -8.733459957740e-04 0.0 
-8.733459957740e-04 6.259759611652e-03 0.0 
0.0 0.0 -1.122815839103e-03 
-1.861926426933e-03 -1.095524342960e-03 0.0 
-1.095524342960e-03 6.311220838631e-03 0.0 
0.0 0.0 -1.159213750608e-03 
-1.725327838232e-04 1.829528703914e-03 0.0 
1.829528703914e-03 3.501045676607e-03 0.0 
0.0 0.0 -1.171959308352e-03 
-1.590101240846e-03 1.706978125594e-03 0.0 
1.706978125594e-03 4.660773429978e-03 0.0 
0.0 0.0 -7.960146267056e-04 
5.073336669335e-04 3.214445659709e-03 0.0 
3.214445659709e-03 1.538412133141e-03 0.0 
0.0 0.0 -8.506774374544e-04 
8.851619009454e-04 2.969244090533e-03 0.0 
2.969244090533e-03 8.376787810317e-04 0.0 
0.0 0.0 -7.383602922759e-04 
-1.156062255108e-03 2.301233915827e-03 0.0 
2.301233915827e-03 3.896290621430e-03 0.0 
0.0 0.0 -8.625652443140e-04 
-9.471297243856e-04 2.440002294532e-03 0.0 
2.440002294532e-03 3.517004994648e-03 0.0 
0.0 0.0 -8.875966840820e-04 
-8.066787093543e-04 2.777426977554e-03 0.0 
2.777426977554e-03 3.370899001042e-03 0.0 
0.0 0.0 -9.244972712473e-04 
-7.192390311965e-04 2.566107428446e-03 0.0 
2.566107428446e-03 3.124935059627e-03 0.0 
0.0 0.0 -9.234394568817e-04 
1.009712769882e-03 -2.639627470040e-03 0.0 
-2.639627470040e-03 3.518698063256e-04 0.0 
0.0 0.0 -5.835353898034e-04 
7.225051380104e-04 -2.634694636205e-03 0.0 
-2.634694636205e-03 6.767854285005e-04 0.0 
0.0 0.0 -5.996959570761e-04 
-8.921567267479e-04 3.111111284804e-03 0.0 
3.111111284804e-03 5.059665355678e-03 0.0 
0.0 0.0 -1.192042136895e-03 
-6.099967263224e-04 2.870760626298e-03 0.0 
2.870760626298e-03 4.411064189710e-03 0.0 
0.0 0.0 -1.178660172201e-03 
-1.100042912757e-03 3.200343520554e-03 0.0 
3.200343520554e-03 5.573219155758e-03 0.0 
0.0 0.0 -1.193029175878e-03 
-1.160667669830e-03 3.176739035806e-03 0.0 
3.176739035806e-03 5.649176834465e-03 0.0 
0.0 0.0 -1.168165168231e-03 
-2.521445186915e-04 1.437999620024e-03 0.0 
1.437999620024e-03 3.663538457504e-03 0.0 
0.0 0.0 -1.200910491468e-03 
-1.175265126893e-05 1.083930210957e-03 0.0 
1.083930210957e-03 3.184478001405e-03 0.0 
0.0 0.0 -1.164168769488e-03 
-8.338945190871e-04 -6.899851568111e-04 0.0 
-6.899851568111e-04 2.693161182237e-03 0.0 
0.0 0.0 -7.014880017679e-04 
-2.848117966112e-04 2.692565546894e-03 0.0 
2.692565546894e-03 2.299445011333e-03 0.0 
0.0 0.0 -8.634142348809e-04 
-1.596224494799e-03 1.291320717670e-03 0.0 
1.291320717670e-03 7.883322151599e-03 0.0 
0.0 0.0 -1.194151889699e-03 
-1.353314944435e-03 2.157291733394e-03 0.0 
2.157291733394e-03 4.270289119183e-03 0.0 
0.0 0.0 -8.433929263471e-04 
-9.622501338421e-04 -1.912189492832e-03 0.0 
-1.912189492832e-03 4.776924830183e-03 0.0 
0.0 0.0 -1.192835421428e-03 
-1.026421419571e-03 -2.028541400734e-03 0.0 
-2.028541400734e-03 4.755168212354e-03 0.0 
0.0 0.0 -1.156047193884e-03 
4.478208592864e-04 -3.751585586859e-04 0.0 
-3.751585586859e-04 -4.241673929217e-04 0.0 
0.0 0.0 -1.013719987055e-05 
1.244125017972e-03 -1.917312666705e-03 0.0 
-1.917312666705e-03 -7.538799606522e-04 0.0 
0.0 0.0 -2.101050245656e-04 
-1.537691014338e-03 4.222863431362e-04 0.0 
4.222863431362e-04 8.020533850651e-03 0.0 
0.0 0.0 -1.184588873336e-03 
6.358527835684e-04 2.480430970654e-03 0.0 
2.480430970654e-03 6.941509382628e-04 0.0 
0.0 0.0 -5.700015950705e-04 
4.499471129459e-04 2.458836012126e-03 0.0 
2.458836012126e-03 9.036367217386e-04 0.0 
0.0 0.0 -5.801073577219e-04 
8.196974528425e-04 2.512758387053e-03 0.0 
2.512758387053e-03 5.135885621210e-04 0.0 
0.0 0.0 -5.714082921272e-04 
-1.721775180469e-03 -2.750261499923e-04 0.0 
-2.750261499923e-04 6.955705942823e-03 0.0 
0.0 0.0 -1.258310293365e-03 
-1.440319018305e-03 2.756393348766e-05 0.0 
2.756393348766e-05 5.261443928406e-03 0.0 
0.0 0.0 -7.479256703001e-04 
-1.851935248777e-03 -8.185806621322e-04 0.0 
-8.185806621322e-04 6.555435669483e-03 0.0 
0.0 0.0 -1.189418985649e-03 
-3.624356194934e-04 3.164434027964e-03 0.0 
3.164434027964e-03 2.710514095153e-03 0.0 
0.0 0.0 -9.658202727595e-04 
-1.517819935298e-03 5.689925216528e-04 0.0 
5.689925216528e-04 8.183121975380e-03 0.0 
0.0 0.0 -1.216510697198e-03 
6.201224625516e-04 2.820752531408e-03 0.0 
2.820752531408e-03 1.452084294343e-03 0.0 
0.0 0.0 -8.651011823288e-04 
9.038760669871e-04 3.026845929911e-03 0.0 
3.026845929911e-03 6.793831834175e-04 0.0 
0.0 0.0 -6.785396787449e-04 
8.674105580954e-05 -1.429107710981e-03 0.0 
-1.429107710981e-03 2.679701546003e-03 0.0 
0.0 0.0 -1.078177493492e-03 
-1.550932841916e-03 2.613354928632e-04 0.0 
2.613354928632e-04 7.825402361396e-03 0.0 
0.0 0.0 -1.149140729088e-03 
-1.512659112896e-03 3.422106709257e-04 0.0 
3.422106709257e-04 8.249752470507e-03 0.0 
0.0 0.0 -1.221625961084e-03 
-1.676659295308e-03 6.110344698925e-04 0.0 
6.110344698925e-04 5.968416883272e-03 0.0 
0.0 0.0 -8.638707813346e-04 
-1.641988205188e-03 4.340588364437e-04 0.0 
4.340588364437e-04 5.771155948817e-03 0.0 
0.0 0.0 -8.327709333130e-04 
-1.719162707249e-03 7.708162564075e-04 0.0 
7.708162564075e-04 6.112617701018e-03 0.0 
0.0 0.0 -8.925140200429e-04 
1.977927820577e-03 1.598623588264e-03 0.0 
1.598623588264e-03 -1.019208972965e-03 0.0 
0.0 0.0 -4.108795061196e-04 
1.108521086627e-03 1.458274724011e-03 0.0 
1.458274724011e-03 -6.824978449185e-04 0.0 
0.0 0.0 -1.825813893037e-04 
-1.599533954581e-03 7.014631110784e-04 0.0 
7.014631110784e-04 7.724369133548e-03 0.0 
0.0 0.0 -1.142090266074e-03 
-7.915237200633e-04 -1.416691550801e-03 0.0 
-1.416691550801e-03 2.916147842675e-03 0.0 
0.0 0.0 -8.917970384883e-04 
-9.526528541598e-04 -1.159662932408e-03 0.0 
-1.159662932408e-03 3.237497577102e-03 0.0 
0.0 0.0 -9.066540859529e-04 
1.679025679155e-04 -2.197795369639e-03 0.0 
-2.197795369639e-03 1.134113528401e-03 0.0 
0.0 0.0 -5.580068984213e-04 
1.993437938488e-04 -2.372930192997e-03 0.0 
-2.372930192997e-03 1.192906332053e-03 0.0 
0.0 0.0 -5.966786253865e-04 
-1.011942446972e-03 -2.270969963916e-03 0.0 
-2.270969963916e-03 3.766401779748e-03 0.0 
0.0 0.0 -1.058899862332e-03 
-7.573046355122e-04 -2.581800115454e-03 0.0 
-2.581800115454e-03 3.322201121737e-03 0.0 
0.0 0.0 -1.050266080739e-03 
-1.095827954621e-03 3.216069521876e-03 0.0 
3.216069521876e-03 4.826499025112e-03 0.0 
0.0 0.0 -1.038692069610e-03 
-1.234301998555e-03 3.107456630916e-03 0.0 
3.107456630916e-03 5.310904523361e-03 0.0 
0.0 0.0 -1.074129358999e-03 
-7.180889207275e-04 3.499463535137e-03 0.0 
3.499463535137e-03 3.763199671929e-03 0.0 
0.0 0.0 -9.722238801078e-04 
6.053063119579e-04 -2.030268547273e-03 0.0 
-2.030268547273e-03 1.237774920504e-03 0.0 
0.0 0.0 -7.898919567692e-04 
8.551862749054e-04 -2.258528060602e-03 0.0 
-2.258528060602e-03 5.423122765455e-04 0.0 
0.0 0.0 -5.989279506218e-04 
1.198969096751e-03 -1.716835984739e-03 0.0 
-1.716835984739e-03 -1.728528183355e-05 0.0 
0.0 0.0 -5.064359206787e-04 
-1.578160803348e-03 1.029909350069e-03 0.0 
1.029909350069e-03 7.988225935028e-03 0.0 
0.0 0.0 -1.199867006878e-03 
-1.525066789097e-03 9.716746199443e-04 0.0 
9.716746199443e-04 8.273760627129e-03 0.0 
0.0 0.0 -1.242728214876e-03 
1.321351467926e-03 -2.568351524438e-03 0.0 
-2.568351524438e-03 -2.315153931380e-07 0.0 
0.0 0.0 -5.661942653711e-04 
1.809254267051e-03 -2.583366555036e-03 0.0 
-2.583366555036e-03 -4.342692756295e-04 0.0 
0.0 0.0 -5.892792820379e-04 
6.921033763950e-04 -2.656898720389e-03 0.0 
-2.656898720389e-03 7.465441525006e-04 0.0 
0.0 0.0 -6.165632266696e-04 
-1.574485567314e-03 1.499311237931e-03 0.0 
1.499311237931e-03 7.988348182121e-03 0.0 
0.0 0.0 -1.223056365294e-03 
-1.741572698048e-03 -1.051965994170e-03 0.0 
-1.051965994170e-03 6.624165410999e-03 0.0 
0.0 0.0 -1.224004481682e-03 
-1.735235085971e-03 -1.304001527318e-03 0.0 
-1.304001527318e-03 6.344789461694e-03 0.0 
0.0 0.0 -1.195820777905e-03 
-2.679240954609e-05 -1.257927253223e-03 0.0 
-1.257927253223e-03 9.029103496679e-04 0.0 
0.0 0.0 -3.450663815859e-04 
-3.035170911774e-06 -1.579137764012e-03 0.0 
-1.579137764012e-03 1.039327180488e-03 0.0 
0.0 0.0 -4.410249086127e-04 
1.155100538592e-03 2.631364371344e-03 0.0 
2.631364371344e-03 1.868470155697e-04 0.0 
0.0 0.0 -5.751203803551e-04 
1.215808673203e-03 2.544029937651e-03 0.0 
2.544029937651e-03 -5.958635491021e-05 0.0 
0.0 0.0 -4.955238506970e-04 
-1.603953202991e-03 2.084851501461e-03 0.0 
2.084851501461e-03 7.579130278610e-03 0.0 
0.0 0.0 -1.207258722210e-03 
-1.637778905667e-03 2.162652518366e-03 0.0 
2.162652518366e-03 7.304299819900e-03 0.0 
0.0 0.0 -1.172631524865e-03 
-1.556077565275e-03 2.029656444368e-03 0.0 
2.029656444368e-03 7.905393318382e-03 0.0 
0.0 0.0 -1.247471551777e-03 
-8.078621275666e-04 -3.743686463011e-04 0.0 
-3.743686463011e-04 2.476609172107e-03 0.0 
0.0 0.0 -5.753817989848e-04 
1.173818397494e-04 2.725852523849e-03 0.0 
2.725852523849e-03 2.691650762888e-03 0.0 
0.0 0.0 -1.045322365442e-03 
-5.040778805934e-04 -1.070896588493e-03 0.0 
-1.070896588493e-03 3.980562278462e-03 0.0 
0.0 0.0 -1.207899217314e-03 
-2.520428194526e-04 -7.965635153337e-04 0.0 
-7.965635153337e-04 3.542662319704e-03 0.0 
0.0 0.0 -1.178012378629e-03 
-7.711086010594e-04 -1.329041706335e-03 0.0 
-1.329041706335e-03 4.567355749165e-03 0.0 
0.0 0.0 -1.244624083072e-03 
-1.223572839919e-04 2.186752793674e-03 0.0 
2.186752793674e-03 3.375840631155e-03 0.0 
0.0 0.0 -1.142102124289e-03 
-4.435966474857e-04 2.091597596222e-03 0.0 
2.091597596222e-03 3.997165180884e-03 0.0 
0.0 0.0 -1.205428683694e-03 
-6.295415077105e-04 2.617745388046e-03 0.0 
2.617745388046e-03 4.421095216534e-03 0.0 
0.0 0.0 -1.209323031234e-03 
8.913702169857e-05 -5.356610077544e-06 0.0 
-5.356610077544e-06 -8.913702169857e-05 0.0 
0.0 0.0 0.0 
-1.516551893121e-03 1.931531950452e-04 0.0 
1.931531950452e-04 8.105824831205e-03 0.0 
0.0 0.0 -1.199992767657e-03 
-1.600603275175e-03 3.197306060267e-04 0.0 
3.197306060267e-04 5.842030124630e-03 0.0 
0.0 0.0 -8.371571859873e-04 
0.0 0.0 0.0 
0.0 0.0 0.0 
0.0 0.0 0.0 
-1.547068004807e-03 2.255592860515e-04 0.0 
2.255592860515e-04 5.653808019545e-03 0.0 
0.0 0.0 -8.070151920887e-04 
-1.566358775821e-03 2.266234695203e-04 0.0 
2.266234695203e-04 5.919104175052e-03 0.0 
0.0 0.0 -8.451615393777e-04 
-1.505853756260e-03 1.425564258005e-04 0.0 
1.425564258005e-04 5.404792730384e-03 0.0 
0.0 0.0 -7.748096441827e-04 
-6.628775469822e-04 -3.015658585898e-04 0.0 
-3.015658585898e-04 2.010090265861e-03 0.0 
0.0 0.0 -4.206613647546e-04 
-1.675398106948e-03 5.868598101642e-04 0.0 
5.868598101642e-04 5.623434088204e-03 0.0 
0.0 0.0 -8.174106193842e-04 
-1.726757844430e-03 7.924650127462e-04 0.0 
7.924650127462e-04 5.855419414792e-03 0.0 
0.0 0.0 -8.556612431672e-04 
8.558548932515e-05 -1.128009013281e-03 0.0 
-1.128009013281e-03 6.309628739441e-04 0.0 
0.0 0.0 -2.713320700168e-04 
-1.513004436039e-03 1.420623121839e-03 0.0 
1.420623121839e-03 8.214217499082e-03 0.0 
0.0 0.0 -1.259301554906e-03 
1.749391661274e-04 -1.082733169331e-03 0.0 
-1.082733169331e-03 5.892299780132e-04 0.0 
0.0 0.0 -2.441793916413e-04 
1.147662153238e-04 -1.066745943300e-03 0.0 
-1.066745943300e-03 7.910181080930e-04 0.0 
0.0 0.0 -2.872885922025e-04 
-1.122672355991e-03 -1.921241529141e-03 0.0 
-1.921241529141e-03 5.266335920734e-03 0.0 
0.0 0.0 -1.221214701962e-03 
-1.203549749022e-03 -1.976762786956e-03 0.0 
-1.976762786956e-03 5.228557791274e-03 0.0 
0.0 0.0 -1.184344882880e-03 
-1.271935696370e-03 -1.932492998885e-03 0.0 
-1.932492998885e-03 5.682500405781e-03 0.0 
0.0 0.0 -1.247726601234e-03 
-1.345935677545e-03 -1.879180138911e-03 0.0 
-1.879180138911e-03 5.631962343118e-03 0.0 
0.0 0.0 -1.211018817991e-03 
-1.319489507466e-03 -1.996946989352e-03 0.0 
-1.996946989352e-03 5.223869660522e-03 0.0 
0.0 0.0 -1.147066289601e-03 
-1.457152980048e-03 -1.833275450520e-03 0.0 
-1.833275450520e-03 5.658001904065e-03 0.0 
0.0 0.0 -1.176490610025e-03 
-1.598701855115e-03 3.112456463076e-04 0.0 
3.112456463076e-04 5.594187128056e-03 0.0 
0.0 0.0 -7.985989294648e-04 
-1.425017338431e-03 -1.793987580484e-03 0.0 
-1.793987580484e-03 6.077694866820e-03 0.0 
0.0 0.0 -1.249018369598e-03 
-1.544794874514e-03 -1.654652183582e-03 0.0 
-1.654652183582e-03 6.043342076509e-03 0.0 
0.0 0.0 -1.207442871744e-03 
-1.490747382805e-03 -1.688185045970e-03 0.0 
-1.688185045970e-03 6.481641932430e-03 0.0 
0.0 0.0 -1.277927415301e-03 
-8.701201880038e-04 2.189049665711e-03 0.0 
2.189049665711e-03 3.268695103799e-03 0.0 
0.0 0.0 -8.722607330507e-04 
5.310970710450e-04 2.630450444314e-03 0.0 
2.630450444314e-03 9.000089298474e-04 0.0 
0.0 0.0 -6.133311432396e-04 
2.617133158352e-04 2.476764240616e-03 0.0 
2.476764240616e-03 1.164640329384e-03 0.0 
0.0 0.0 -6.112944193795e-04 
1.728571300418e-04 2.227493690469e-03 0.0 
2.227493690469e-03 1.142483149507e-03 0.0 
0.0 0.0 -5.637172626637e-04 
-1.229541831672e-03 3.263680413163e-03 0.0 
3.263680413163e-03 6.138633277811e-03 0.0 
0.0 0.0 -1.240180566941e-03 
-1.276361500880e-03 3.187291024850e-03 0.0 
3.187291024850e-03 6.099399323178e-03 0.0 
0.0 0.0 -1.200590015451e-03 
-2.088598425736e-03 -6.246367196868e-04 0.0 
-6.246367196868e-04 6.194373546362e-03 0.0 
0.0 0.0 -1.090180627845e-03 
-2.041663287848e-03 -6.617363893855e-04 0.0 
-6.617363893855e-04 5.852171557009e-03 0.0 
0.0 0.0 -1.067141795818e-03 
-1.532469855713e-03 1.525337910669e-04 0.0 
1.525337910669e-04 5.692847008020e-03 0.0 
0.0 0.0 -8.108182148135e-04 
-1.511312180107e-03 9.255618039040e-05 0.0 
9.255618039040e-05 5.666580148835e-03 0.0 
0.0 0.0 -8.077352941366e-04 
-1.560488436606e-03 1.911238081195e-04 0.0 
1.911238081195e-04 6.070956180256e-03 0.0 
0.0 0.0 -8.678526801547e-04 
-1.544526745633e-03 1.030985674976e-04 0.0 
1.030985674976e-04 6.005801825662e-03 0.0 
0.0 0.0 -8.609153521579e-04 
-1.580530064686e-03 1.945628071657e-04 0.0 
1.945628071657e-04 6.420611350931e-03 0.0 
0.0 0.0 -9.200517378055e-04 
-1.559403933791e-03 8.887484367551e-05 0.0 
8.887484367551e-05 6.359767284502e-03 0.0 
0.0 0.0 -9.108947733944e-04 
-1.583263469338e-03 1.334252269549e-04 0.0 
1.334252269549e-04 6.753346818615e-03 0.0 
0.0 0.0 -9.726914458129e-04 
-8.669769815257e-04 2.889098903744e-03 0.0 
2.889098903744e-03 5.024560399167e-03 0.0 
0.0 0.0 -1.245087786853e-03 
4.982055672495e-04 2.293020821825e-03 0.0 
2.293020821825e-03 7.508210362061e-04 0.0 
0.0 0.0 -5.352971157667e-04 
-1.245162061090e-03 1.941632408908e-03 0.0 
1.941632408908e-03 3.965163190857e-03 0.0 
0.0 0.0 -8.237883836899e-04 
-3.879507205886e-04 1.027612391922e-03 0.0 
1.027612391922e-03 3.877749242080e-03 0.0 
0.0 0.0 -1.228261380050e-03 
-1.475502455479e-04 6.710535629733e-04 0.0 
6.710535629733e-04 3.400758398957e-03 0.0 
0.0 0.0 -1.187396807988e-03 
-4.877113708210e-04 2.653909423409e-03 0.0 
2.653909423409e-03 2.711925927626e-03 0.0 
0.0 0.0 -9.301491777014e-04 
-4.673273112926e-04 2.354591855457e-03 0.0 
2.354591855457e-03 2.518811343451e-03 0.0 
0.0 0.0 -8.783714799336e-04 
-9.656459474725e-04 -1.750454010380e-03 0.0 
-1.750454010380e-03 4.960948450779e-03 0.0 
0.0 0.0 -1.238794375355e-03 
1.773029984471e-03 2.918628512030e-03 0.0 
2.918628512030e-03 -2.405794798709e-04 0.0 
0.0 0.0 -6.567645019713e-04 
-1.474754496101e-03 1.652724927503e-03 0.0 
1.652724927503e-03 8.365646577830e-03 0.0 
0.0 0.0 -1.295459716840e-03 
0.0 0.0 0.0 
0.0 0.0 0.0 
0.0 0.0 0.0 
1.498393906149e-04 3.022053957605e-04 0.0 
3.022053957605e-04 -1.163750170629e-04 0.0 
0.0 0.0 -1.434187437942e-05 
1.327025876230e-03 3.010605488358e-03 0.0 
3.010605488358e-03 1.473338213913e-04 0.0 
0.0 0.0 -6.318684418375e-04 
-5.499021132442e-04 2.888144921732e-03 0.0 
2.888144921732e-03 2.938437648155e-03 0.0 
0.0 0.0 -9.558721723632e-04 
3.323415439528e-04 2.743520330787e-03 0.0 
2.743520330787e-03 1.229329144075e-03 0.0 
0.0 0.0 -6.692874377263e-04 
9.209566797494e-05 2.604630668434e-03 0.0 
2.604630668434e-03 1.511290340994e-03 0.0 
0.0 0.0 -6.871654324154e-04 
3.645468755337e-04 -1.692092076938e-03 0.0 
-1.692092076938e-03 1.976975662064e-03 0.0 
0.0 0.0 -9.759998253719e-04 
1.091376312940e-04 -1.700138468344e-03 0.0 
-1.700138468344e-03 9.084482070208e-04 0.0 
0.0 0.0 -4.293607968937e-04 
9.860679807434e-04 2.546469046220e-03 0.0 
2.546469046220e-03 3.575313038065e-04 0.0 
0.0 0.0 -5.758282648071e-04 
-1.592993118431e-03 2.731466696240e-04 0.0 
2.731466696240e-04 6.800272037187e-03 0.0 
0.0 0.0 -9.796923013958e-04 
6.911227834126e-04 2.251046992259e-03 0.0 
2.251046992259e-03 5.130124139505e-04 0.0 
0.0 0.0 -5.160579417270e-04 
-2.121618955622e-03 -3.224058753556e-04 0.0 
-3.224058753556e-04 6.099005119318e-03 0.0 
0.0 0.0 -1.073807358551e-03 
2.201373567652e-03 2.690698738968e-03 0.0 
2.690698738968e-03 -6.091920316776e-04 0.0 
0.0 0.0 -6.823635154174e-04 
-1.638384935320e-04 3.372316730358e-03 0.0 
3.372316730358e-03 2.445531910937e-03 0.0 
0.0 0.0 -9.519839029876e-04 
1.275974649949e-03 2.775715452302e-03 0.0 
2.775715452302e-03 1.801999389927e-04 0.0 
0.0 0.0 -6.240748238320e-04 
8.350192799097e-04 2.727176630851e-03 0.0 
2.727176630851e-03 5.820764688072e-04 0.0 
0.0 0.0 -6.073267494501e-04 
-1.574296698924e-03 2.484580816168e-03 0.0 
2.484580816168e-03 4.927078130058e-03 0.0 
0.0 0.0 -8.786961992330e-04 
-1.699341285066e-03 1.882952510091e-03 0.0 
1.882952510091e-03 5.001649373791e-03 0.0 
0.0 0.0 -8.239340753773e-04 
-1.544077067517e-03 2.021174845409e-03 0.0 
2.021174845409e-03 4.648313902463e-03 0.0 
0.0 0.0 -8.287327148421e-04 
2.547623254183e-03 2.268646563305e-03 0.0 
2.268646563305e-03 -9.255766277510e-04 0.0 
0.0 0.0 -6.951628398994e-04 
-9.793607364304e-05 2.680641002234e-03 0.0 
2.680641002234e-03 1.905972935152e-03 0.0 
0.0 0.0 -7.748729406467e-04 
-1.401926105552e-04 2.272349151151e-03 0.0 
2.272349151151e-03 1.732062029039e-03 0.0 
0.0 0.0 -6.822297507788e-04 
-1.042335079289e-03 3.085608632330e-03 0.0 
3.085608632330e-03 3.939330989580e-03 0.0 
0.0 0.0 -9.170298757010e-04 
-1.694312562690e-03 2.003906122110e-03 0.0 
2.003906122110e-03 6.960974899569e-03 0.0 
0.0 0.0 -1.107475121065e-03 
-1.654341182746e-03 2.234400658440e-03 0.0 
2.234400658440e-03 6.989596744706e-03 0.0 
0.0 0.0 -1.136341617999e-03 
-1.591073595122e-03 2.379952355984e-03 0.0 
2.379952355984e-03 7.311228899108e-03 0.0 
0.0 0.0 -1.199268560344e-03 
-1.606550985090e-03 2.450965261895e-03 0.0 
2.450965261895e-03 7.002228799418e-03 0.0 
0.0 0.0 -1.164598082371e-03 
-1.654615127137e-03 2.306554865062e-03 0.0 
2.306554865062e-03 6.662432923767e-03 0.0 
0.0 0.0 -1.100413285504e-03 
-1.595489437176e-03 2.513437590904e-03 0.0 
2.513437590904e-03 6.653696588520e-03 0.0 
0.0 0.0 -1.129075729544e-03 
-1.546389988990e-03 2.664193302564e-03 0.0 
2.664193302564e-03 6.994860909819e-03 0.0 
0.0 0.0 -1.193594387005e-03 
-1.524710140769e-03 2.725114460972e-03 0.0 
2.725114460972e-03 6.640657221836e-03 0.0 
0.0 0.0 -1.159256375294e-03 
-1.483453285402e-03 2.879360167952e-03 0.0 
2.879360167952e-03 7.061959584516e-03 0.0 
0.0 0.0 -1.234286862126e-03 
-1.459335345335e-03 2.896614314087e-03 0.0 
2.896614314087e-03 6.597331098230e-03 0.0 
0.0 0.0 -1.187309181180e-03 
-1.487240193726e-03 2.797813669470e-03 0.0 
2.797813669470e-03 6.237817525026e-03 0.0 
0.0 0.0 -1.120864512401e-03 
-1.416348664038e-03 2.952147323061e-03 0.0 
2.952147323061e-03 6.179572228468e-03 0.0 
0.0 0.0 -1.147759711419e-03 
-1.401702611885e-03 3.058403427338e-03 0.0 
3.058403427338e-03 6.528924407833e-03 0.0 
0.0 0.0 -1.207767947030e-03 
-1.429554607918e-03 2.882577101757e-03 0.0 
2.882577101757e-03 5.825437132677e-03 0.0 
0.0 0.0 -1.082593982084e-03 
-6.657140394303e-04 1.410986986977e-03 0.0 
1.410986986977e-03 4.342280522210e-03 0.0 
0.0 0.0 -1.264544343569e-03 
1.285034861164e-03 3.046453072889e-03 0.0 
3.046453072889e-03 2.156214386420e-04 0.0 
0.0 0.0 -6.431384142027e-04 
3.221685064304e-04 2.100220635338e-04 0.0 
2.100220635338e-04 -3.125792772457e-04 0.0 
0.0 0.0 -4.109669650582e-06 
7.277286052914e-04 1.662264959666e-03 0.0 
1.662264959666e-03 -4.217765524128e-04 0.0 
0.0 0.0 -1.311223083766e-04 
-4.639929809661e-04 3.327821869830e-03 0.0 
3.327821869830e-03 2.959449472573e-03 0.0 
0.0 0.0 -9.691543639280e-04 
-1.437907230863e-03 2.996700486661e-03 0.0 
2.996700486661e-03 7.518201304671e-03 0.0 
0.0 0.0 -1.299806302097e-03 
-1.466395687024e-03 2.621641971218e-03 0.0 
2.621641971218e-03 7.881651097987e-03 0.0 
0.0 0.0 -1.301753673823e-03 
2.487482228611e-03 2.475720953215e-03 0.0 
2.475720953215e-03 -8.077451105291e-04 0.0 
0.0 0.0 -7.198873363210e-04 
-1.280305576935e-03 3.404019922885e-03 0.0 
3.404019922885e-03 6.453749912264e-03 0.0 
0.0 0.0 -1.303413959896e-03 
-1.478986277362e-03 2.335815426712e-03 0.0 
2.335815426712e-03 4.599949913439e-03 0.0 
0.0 0.0 -8.572908036711e-04 
2.443469762099e-03 1.504212848516e-03 0.0 
1.504212848516e-03 -1.149517681368e-03 0.0 
0.0 0.0 -5.545508917418e-04 
-1.188451958700e-03 3.233888318984e-03 0.0 
3.233888318984e-03 5.957074391346e-03 0.0 
0.0 0.0 -1.304286792737e-03 
-1.700650587437e-03 2.084768146748e-03 0.0 
2.084768146748e-03 6.648225866754e-03 0.0 
0.0 0.0 -1.071440646998e-03 
-1.693986595116e-03 2.166002580174e-03 0.0 
2.166002580174e-03 6.318613390721e-03 0.0 
0.0 0.0 -1.034857077839e-03 
-1.735485188954e-03 1.934897306350e-03 0.0 
1.934897306350e-03 6.303939504401e-03 0.0 
0.0 0.0 -1.006057961993e-03 
-1.460757887231e-03 2.250687193900e-03 0.0 
2.250687193900e-03 8.134933915156e-03 0.0 
0.0 0.0 -1.305867370806e-03 
-1.749991994699e-03 9.588049142227e-04 0.0 
9.588049142227e-04 6.254499179949e-03 0.0 
0.0 0.0 -9.232948652302e-04 
-1.017747060708e-03 2.242049910193e-03 0.0 
2.242049910193e-03 5.131073367086e-03 0.0 
0.0 0.0 -1.306016332489e-03 
1.333415972402e-03 1.535387923333e-03 0.0 
1.535387923333e-03 1.136937242501e-04 0.0 
0.0 0.0 -6.201898699939e-04 
1.391903311676e-03 2.154011180947e-03 0.0 
2.154011180947e-03 1.151631227135e-05 0.0 
0.0 0.0 -6.014655531204e-04 
1.815463505361e-03 2.115453371163e-03 0.0 
2.115453371163e-03 -5.458577548768e-04 0.0 
0.0 0.0 -5.441167502075e-04 
-1.566214445404e-03 2.595986134179e-03 0.0 
2.595986134179e-03 6.282321888988e-03 0.0 
0.0 0.0 -1.092245366321e-03 
-9.205735445318e-04 4.808338680360e-04 0.0 
4.808338680360e-04 4.693547071086e-03 0.0 
0.0 0.0 -1.302677999426e-03 
-5.441937307524e-04 1.925192123183e-04 0.0 
1.925192123183e-04 4.093065944914e-03 0.0 
0.0 0.0 -1.248400714067e-03 
-5.696920249624e-04 -2.362618994637e-04 0.0 
-2.362618994637e-04 4.138723512730e-03 0.0 
0.0 0.0 -1.248426544684e-03 
-2.031241474020e-04 -7.328110519664e-05 0.0 
-7.328110519664e-05 3.471353297543e-03 0.0 
0.0 0.0 -1.189114855724e-03 
-9.524782035086e-04 -4.338690848369e-04 0.0 
-4.338690848369e-04 4.786583626593e-03 0.0 
0.0 0.0 -1.303398793257e-03 
-1.386313891139e-03 3.268387124946e-03 0.0 
3.268387124946e-03 7.156994535034e-03 0.0 
0.0 0.0 -1.306665994082e-03 
-1.359095365040e-03 3.359352166101e-03 0.0 
3.359352166101e-03 6.950855487648e-03 0.0 
0.0 0.0 -1.308500709484e-03 
1.902852668699e-03 -2.817268794694e-03 0.0 
-2.817268794694e-03 -4.032967653229e-04 0.0 
0.0 0.0 -6.426668157327e-04 
2.253407391376e-03 -2.370679650838e-03 0.0 
-2.370679650838e-03 -7.551607023087e-04 0.0 
0.0 0.0 -6.421057238860e-04 
2.152188401618e-03 -2.215932361183e-03 0.0 
-2.215932361183e-03 -7.648493634962e-04 0.0 
0.0 0.0 -5.945738734806e-04 
2.568498674833e-03 -1.800335482077e-03 0.0 
-1.800335482077e-03 -1.054151680982e-03 0.0 
0.0 0.0 -6.490058545078e-04 
2.589267859695e-03 -1.939320893250e-03 0.0 
-1.939320893250e-03 -1.034701238564e-03 0.0 
0.0 0.0 -6.662428376277e-04 
2.845251393852e-03 -1.182488936622e-03 0.0 
-1.182488936622e-03 -1.266140625123e-03 0.0 
0.0 0.0 -6.767617580267e-04 
2.841382791890e-03 -1.149550775431e-03 0.0 
-1.149550775431e-03 -1.284812658761e-03 0.0 
0.0 0.0 -6.671014856266e-04 
2.966198092938e-03 -3.987988764167e-04 0.0 
-3.987988764167e-04 -1.382086548665e-03 0.0 
0.0 0.0 -6.789049475453e-04 
-1.248651035025e-03 3.111213554981e-03 0.0 
3.111213554981e-03 5.700369437698e-03 0.0 
0.0 0.0 -1.138512926666e-03 
-1.048382069547e-03 -1.181351894960e-03 0.0 
-1.181351894960e-03 5.065835417687e-03 0.0 
0.0 0.0 -1.305779161548e-03 
4.789526992596e-05 -3.017317976477e-03 0.0 
-3.017317976477e-03 1.955725826502e-03 0.0 
0.0 0.0 -8.490207048509e-04 
4.255875009583e-04 -2.891330549410e-03 0.0 
-2.891330549410e-03 1.272940405536e-03 0.0 
0.0 0.0 -7.279405313547e-04 
7.016485745697e-04 -2.791230812805e-03 0.0 
-2.791230812805e-03 8.160956132734e-04 0.0 
0.0 0.0 -6.504617947899e-04 
-6.090620729236e-04 -2.591660670729e-03 0.0 
-2.591660670729e-03 2.996920806010e-03 0.0 
0.0 0.0 -1.013136008453e-03 
-4.847718747428e-04 -2.835802633982e-03 0.0 
-2.835802633982e-03 2.833935359093e-03 0.0 
0.0 0.0 -9.978061834832e-04 
-6.569091499038e-04 -2.799289725008e-03 0.0 
-2.799289725008e-03 3.183472627718e-03 0.0 
0.0 0.0 -1.035689958333e-03 
-7.207313198164e-04 -2.290250490495e-03 0.0 
-2.290250490495e-03 3.125345330795e-03 0.0 
0.0 0.0 -1.018322119518e-03 
-1.167877884792e-04 3.342094439232e-03 0.0 
3.342094439232e-03 2.837618912037e-03 0.0 
0.0 0.0 -9.882323209451e-04 
-1.091898030697e-03 -1.486850666943e-03 0.0 
-1.486850666943e-03 5.227315460995e-03 0.0 
0.0 0.0 -1.305003056577e-03 
1.225364256890e-03 -1.147615656396e-03 0.0 
-1.147615656396e-03 3.835923769498e-05 0.0 
0.0 0.0 -5.415957833937e-04 
-1.980397502487e-04 -3.005905727183e-03 0.0 
-3.005905727183e-03 2.314319347710e-03 0.0 
0.0 0.0 -9.069769703405e-04 
-1.707142071172e-03 7.635271864477e-04 0.0 
7.635271864477e-04 5.127553643252e-03 0.0 
0.0 0.0 -7.516786372745e-04 
-1.746908817975e-03 1.023609105839e-03 0.0 
1.023609105839e-03 5.442206395915e-03 0.0 
0.0 0.0 -8.094822736869e-04 
-1.772933357879e-03 1.184262300292e-03 0.0 
1.184262300292e-03 5.385289162601e-03 0.0 
0.0 0.0 -8.097394517040e-04 
-1.768350599280e-03 1.251073624371e-03 0.0 
1.251073624371e-03 5.764313646979e-03 0.0 
0.0 0.0 -8.733121467894e-04 
-1.727990335715e-03 8.210495884293e-04 0.0 
8.210495884293e-04 5.545557871090e-03 0.0 
0.0 0.0 -8.155917408702e-04 
-1.236784994223e-03 -1.923322638249e-03 0.0 
-1.923322638249e-03 4.168389852977e-03 0.0 
0.0 0.0 -1.057296815204e-03 
-1.427088068768e-03 -1.555275096953e-03 0.0 
-1.555275096953e-03 4.526520888732e-03 0.0 
0.0 0.0 -1.060211733922e-03 
-1.439309846138e-03 -1.245667555875e-03 0.0 
-1.245667555875e-03 4.501167157264e-03 0.0 
0.0 0.0 -1.053704044192e-03 
-1.586214255689e-03 -1.181249332069e-03 0.0 
-1.181249332069e-03 4.840144294026e-03 0.0 
0.0 0.0 -1.064485974018e-03 
-1.568580492753e-03 -8.807724015312e-04 0.0 
-8.807724015312e-04 4.760936091880e-03 0.0 
0.0 0.0 -1.058069710598e-03 
-1.437909822652e-03 -9.389915626686e-04 0.0 
-9.389915626686e-04 4.447516747931e-03 0.0 
0.0 0.0 -1.040756414728e-03 
-1.718221607956e-03 -8.006521433412e-04 0.0 
-8.006521433412e-04 5.111220650433e-03 0.0 
0.0 0.0 -1.068385751750e-03 
-1.669418493281e-03 -5.082865991109e-04 0.0 
-5.082865991109e-04 4.972394175886e-03 0.0 
0.0 0.0 -1.061946884890e-03 
-1.641647603362e-03 4.850166825857e-04 0.0 
4.850166825857e-04 5.202247326036e-03 0.0 
0.0 0.0 -7.509531518293e-04 
4.681733094658e-05 -5.816533838581e-04 0.0 
-5.816533838581e-04 9.454411860111e-05 0.0 
0.0 0.0 -6.058347837758e-05 
4.397814964137e-04 -2.157349287924e-03 0.0 
-2.157349287924e-03 4.211423268834e-04 0.0 
0.0 0.0 -3.689673528416e-04 
3.155046189534e-04 -2.027375098909e-03 0.0 
-2.027375098909e-03 7.742453397045e-04 0.0 
0.0 0.0 -4.670356965677e-04 
8.520514226530e-04 -2.864865723911e-03 0.0 
-2.864865723911e-03 5.535726049248e-04 0.0 
0.0 0.0 -6.024102975334e-04 
1.107532573262e-03 -2.675867926973e-03 0.0 
-2.675867926973e-03 -1.282410957994e-04 0.0 
0.0 0.0 -4.196963474839e-04 
1.414391538560e-03 -3.037597772400e-03 0.0 
-3.037597772400e-03 4.732794591139e-06 0.0 
0.0 0.0 -6.081961427792e-04 
1.798568626031e-03 -2.807561227883e-03 0.0 
-2.807561227883e-03 -5.963916264621e-04 0.0 
0.0 0.0 -5.152187141009e-04 
4.798167785024e-04 -1.487535536050e-03 0.0 
-1.487535536050e-03 -2.160815451901e-04 0.0 
0.0 0.0 -1.130293857052e-04 
1.221925142391e-04 -6.477447924089e-04 0.0 
-6.477447924089e-04 3.263707583015e-04 0.0 
0.0 0.0 -1.721226713898e-04 
1.600896537738e-04 -1.547795297662e-03 0.0 
-1.547795297662e-03 7.330764534416e-04 0.0 
0.0 0.0 -3.827854745209e-04 
1.103966075786e-04 -5.622367864216e-04 0.0 
-5.622367864216e-04 3.103757836854e-04 0.0 
0.0 0.0 -1.517934084529e-04 
1.053013884946e-04 -1.323791722729e-03 0.0 
-1.323791722729e-03 6.739471651028e-04 0.0 
0.0 0.0 -3.339636658274e-04 
3.430982234410e-04 -2.178085181117e-03 0.0 
-2.178085181117e-03 8.728126235658e-04 0.0 
0.0 0.0 -5.211046487172e-04 
-1.935346954464e-05 -1.828430160185e-03 0.0 
-1.828430160185e-03 1.220825087692e-03 0.0 
0.0 0.0 -5.149164077774e-04 
-1.561183168720e-03 -1.084347523387e-03 0.0 
-1.084347523387e-03 6.914233553436e-03 0.0 
0.0 0.0 -1.294874803588e-03 
-1.312931512090e-03 -3.406360319044e-04 0.0 
-3.406360319044e-04 4.053324067572e-03 0.0 
0.0 0.0 -9.806349194848e-04 
-1.232619789514e-03 -6.513903715833e-04 0.0 
-6.513903715833e-04 3.864959534980e-03 0.0 
0.0 0.0 -9.593735700280e-04 
-1.113036939270e-03 -6.004263507847e-04 0.0 
-6.004263507847e-04 3.522372894904e-03 0.0 
0.0 0.0 -8.977078860960e-04 
-1.116965318077e-03 -9.982255990531e-04 0.0 
-9.982255990531e-04 3.625196753216e-03 0.0 
0.0 0.0 -9.469176294500e-04 
-1.332244483269e-03 -6.509527714259e-04 0.0 
-6.509527714259e-04 4.142116544653e-03 0.0 
0.0 0.0 -1.006312639172e-03 
-1.080865388107e-03 -2.755367266220e-04 0.0 
-2.755367266220e-04 3.371661966390e-03 0.0 
0.0 0.0 -8.426599334973e-04 
-1.024104142748e-03 -5.302931597588e-04 0.0 
-5.302931597588e-04 3.225767958481e-03 0.0 
0.0 0.0 -8.124903673991e-04 
2.119334771273e-03 -2.250984394130e-04 0.0 
-2.250984394130e-04 -5.528535054759e-04 0.0 
0.0 0.0 -1.954030217304e-04 
1.237953986699e-03 -2.579545419294e-04 0.0 
-2.579545419294e-04 1.543244489082e-04 0.0 
0.0 0.0 -2.932658944931e-04 
1.411332111426e-03 -2.759944625030e-05 0.0 
-2.759944625030e-05 3.743876493098e-05 0.0 
0.0 0.0 -2.856593951198e-04 
3.600465984566e-04 -2.066499797985e-04 0.0 
-2.066499797985e-04 8.608267290585e-04 0.0 
0.0 0.0 -3.080440922735e-04 
3.653305054747e-04 -3.597145395908e-04 0.0 
-3.597145395908e-04 8.532226922973e-04 0.0 
0.0 0.0 -3.086108473030e-04 
1.169231949576e-03 -3.840093619394e-04 0.0 
-3.840093619394e-04 1.923594400946e-04 0.0 
0.0 0.0 -2.956379591255e-04 
1.031256041784e-03 -4.886047117192e-04 0.0 
-4.886047117192e-04 2.379226924498e-04 0.0 
0.0 0.0 -2.908089562448e-04 
1.816529586793e-03 -3.500151260859e-04 0.0 
-3.500151260859e-04 -4.323507490206e-04 0.0 
0.0 0.0 -1.958374107737e-04 
8.667756449627e-04 -6.409008792115e-04 0.0 
-6.409008792115e-04 2.928477416533e-04 0.0 
0.0 0.0 -2.796976375194e-04 
1.702636575089e-04 -6.542409432277e-04 0.0 
-6.542409432277e-04 9.095668014512e-04 0.0 
0.0 0.0 -3.106791268491e-04 
1.620102908946e-03 -4.500577592913e-04 0.0 
-4.500577592913e-04 -3.726586433767e-04 0.0 
0.0 0.0 -1.892091717599e-04 
-1.577535716708e-03 5.392394720966e-05 0.0 
5.392394720966e-05 7.299934411769e-03 0.0 
0.0 0.0 -1.060427308513e-03 
-1.573061893325e-03 1.544570403577e-04 0.0 
1.544570403577e-04 7.509050943264e-03 0.0 
0.0 0.0 -1.097082233180e-03 
-1.192953449252e-03 -1.864011720090e-03 0.0 
-1.864011720090e-03 5.605209134645e-03 0.0 
0.0 0.0 -1.300897016293e-03 
-1.579855819088e-03 2.979771540211e-04 0.0 
2.979771540211e-04 5.293250471981e-03 0.0 
0.0 0.0 -7.584009903415e-04 
3.744709763724e-04 -6.364946627065e-04 0.0 
-6.364946627065e-04 1.401291707387e-04 0.0 
0.0 0.0 -1.034024162715e-04 
-1.449845600680e-03 6.382887501364e-04 0.0 
6.382887501364e-04 8.609834207447e-03 0.0 
0.0 0.0 -1.292107529982e-03 
-1.448440923656e-03 1.123280561170e-03 0.0 
1.123280561170e-03 8.566022624529e-03 0.0 
0.0 0.0 -1.303172775453e-03 
-1.434083243244e-03 9.839421265548e-04 0.0 
9.839421265548e-04 8.603548743914e-03 0.0 
0.0 0.0 -1.304823151597e-03 
-1.916252571144e-03 -2.792629766010e-04 0.0 
-2.792629766010e-04 6.698528630947e-03 0.0 
0.0 0.0 -1.191058493115e-03 
-1.809292576517e-03 -5.447261667623e-04 0.0 
-5.447261667623e-04 6.787910699568e-03 0.0 
0.0 0.0 -1.224322658093e-03 
-1.441620689681e-03 3.697909072679e-04 0.0 
3.697909072679e-04 8.644537781625e-03 0.0 
0.0 0.0 -1.294569364341e-03 
-1.966831809583e-04 -2.229424319449e-03 0.0 
-2.229424319449e-03 1.821439975238e-03 0.0 
0.0 0.0 -6.963243404055e-04 
-1.542446802675e-03 2.619749311667e-03 0.0 
2.619749311667e-03 7.342230023592e-03 0.0 
0.0 0.0 -1.225740639889e-03 
-1.563624804990e-03 6.428436196565e-04 0.0 
6.428436196565e-04 7.948413338163e-03 0.0 
0.0 0.0 -1.178628832109e-03 
2.201456429693e-03 2.341714128316e-03 0.0 
2.341714128316e-03 -8.075777083502e-04 0.0 
0.0 0.0 -5.973765948613e-04 
4.529977292289e-04 -2.561738032130e-03 0.0 
-2.561738032130e-03 9.606788663604e-04 0.0 
0.0 0.0 -6.058613981097e-04 
-1.912750157524e-03 -1.012850712710e-03 0.0 
-1.012850712710e-03 5.577288917285e-03 0.0 
0.0 0.0 -1.066202199875e-03 
-1.088098720313e-03 -2.559527887766e-03 0.0 
-2.559527887766e-03 3.979421504262e-03 0.0 
0.0 0.0 -1.028256539386e-03 
-1.822459650115e-03 -1.367111847188e-03 0.0 
-1.367111847188e-03 6.015979930005e-03 0.0 
0.0 0.0 -1.130390451587e-03 
-1.582105737625e-03 -1.721031184097e-03 0.0 
-1.721031184097e-03 4.901863080820e-03 0.0 
0.0 0.0 -1.057243679378e-03 
-1.608185598285e-03 -1.915614561762e-03 0.0 
-1.915614561762e-03 5.282640092044e-03 0.0 
0.0 0.0 -1.076106726067e-03 
-6.144948469041e-04 -6.639795998970e-04 0.0 
-6.639795998970e-04 4.224201553889e-03 0.0 
0.0 0.0 -1.244129926109e-03 
-5.789303246957e-04 -4.457683817534e-04 0.0 
-4.457683817534e-04 1.808907778624e-03 0.0 
0.0 0.0 -3.862231446352e-04 
-1.669791442216e-03 5.742208476735e-04 0.0 
5.742208476735e-04 6.461493581352e-03 0.0 
0.0 0.0 -9.364826870394e-04 
-1.605975857622e-03 3.178960195767e-04 0.0 
3.178960195767e-04 6.348918363535e-03 0.0 
0.0 0.0 -9.130351872960e-04 
-1.629937813867e-03 6.093327650254e-04 0.0 
6.093327650254e-04 7.342083193620e-03 0.0 
0.0 0.0 -1.075939795031e-03 
-6.482537929307e-04 -1.608115231979e-03 0.0 
-1.608115231979e-03 2.605453652753e-03 0.0 
0.0 0.0 -8.387999399238e-04 
-1.303549504287e-03 -1.305113709369e-03 0.0 
-1.305113709369e-03 4.181114019267e-03 0.0 
0.0 0.0 -1.034705495726e-03 
-3.971862798800e-04 -1.135666412244e-03 0.0 
-1.135666412244e-03 1.660229728604e-03 0.0 
0.0 0.0 -5.350964027253e-04 
-1.079760018860e-03 3.194336986256e-03 0.0 
3.194336986256e-03 5.659153012299e-03 0.0 
0.0 0.0 -1.251461238623e-03 
-9.146057249504e-04 2.949568127909e-03 0.0 
2.949568127909e-03 3.641380823932e-03 0.0 
0.0 0.0 -9.215523041033e-04 
5.869540678773e-04 -2.956750850037e-03 0.0 
-2.956750850037e-03 1.034406097070e-03 0.0 
0.0 0.0 -6.948686421203e-04 
-4.983222250127e-04 -2.534366466985e-03 0.0 
-2.534366466985e-03 2.700875388843e-03 0.0 
0.0 0.0 -9.439513559275e-04 
-3.730260252316e-06 -2.536920884211e-03 0.0 
-2.536920884211e-03 1.637062224885e-03 0.0 
0.0 0.0 -6.999994134141e-04 
7.353476243331e-04 -2.725229135126e-03 0.0 
-2.725229135126e-03 6.766599510438e-04 0.0 
0.0 0.0 -6.051461037329e-04 
8.595376325540e-04 3.133881433802e-03 0.0 
3.133881433802e-03 8.059885165152e-04 0.0 
0.0 0.0 -7.137969210297e-04 
-4.203429083409e-05 -3.125630815959e-03 0.0 
-3.125630815959e-03 2.086027069296e-03 0.0 
0.0 0.0 -8.759969050552e-04 
-8.028650656472e-04 -2.530764803792e-03 0.0 
-2.530764803792e-03 3.746131268308e-03 0.0 
0.0 0.0 -1.026962916580e-03 
-1.603305794962e-03 5.584175701992e-04 0.0 
5.584175701992e-04 7.571764629350e-03 0.0 
0.0 0.0 -1.112552678551e-03 
9.600606219979e-04 -6.202368537327e-04 0.0 
-6.202368537327e-04 -7.835338607429e-05 0.0 
0.0 0.0 -1.528964725408e-04 
-6.507698434307e-04 -2.317277330880e-03 0.0 
-2.317277330880e-03 3.698342537328e-03 0.0 
0.0 0.0 -1.061672265243e-03 
-4.694800132291e-04 -3.046911020093e-03 0.0 
-3.046911020093e-03 2.876301697078e-03 0.0 
0.0 0.0 -9.848592602066e-04 
-1.735611780566e-03 9.275084004437e-04 0.0 
9.275084004437e-04 6.521846032081e-03 0.0 
0.0 0.0 -9.599091010803e-04 
5.517342203791e-04 7.070794377615e-04 0.0 
7.070794377615e-04 1.993016539601e-03 0.0 
0.0 0.0 -1.047968735850e-03 
1.251262826807e-03 -3.149427623220e-03 0.0 
-3.149427623220e-03 3.147933255355e-04 0.0 
0.0 0.0 -6.711669224326e-04 
-1.667035138543e-03 9.805979703494e-04 0.0 
9.805979703494e-04 7.401003517057e-03 0.0 
0.0 0.0 -1.098747615487e-03 
-1.603855099599e-03 1.782256839983e-03 0.0 
1.782256839983e-03 7.796685969376e-03 0.0 
0.0 0.0 -1.212453547082e-03 
-1.753933973529e-03 9.797964852189e-04 0.0 
9.797964852189e-04 5.978451539688e-03 0.0 
0.0 0.0 -8.875094802107e-04 
-2.613102227183e-04 -9.949083205869e-04 0.0 
-9.949083205869e-04 1.295268273910e-03 0.0 
0.0 0.0 -4.064699368096e-04 
-1.648709990180e-03 4.475238255647e-04 0.0 
4.475238255647e-04 6.036264205668e-03 0.0 
0.0 0.0 -8.692469099983e-04 
-7.203164161434e-04 -1.605185791603e-03 0.0 
-1.605185791603e-03 4.351922217429e-03 0.0 
0.0 0.0 -1.202705989510e-03 
-1.725470359675e-03 1.770892894084e-03 0.0 
1.770892894084e-03 6.914744693878e-03 0.0 
0.0 0.0 -1.078220320736e-03 
-7.065492097226e-04 -1.209971096051e-03 0.0 
-1.209971096051e-03 2.577314578998e-03 0.0 
0.0 0.0 -7.821142971127e-04 
2.080536798912e-03 -4.379488450435e-04 0.0 
-4.379488450435e-04 -1.014496050842e-03 0.0 
0.0 0.0 -4.568746063161e-04 
3.673244141799e-05 3.501892657137e-03 0.0 
3.501892657137e-03 2.162557991526e-03 0.0 
0.0 0.0 -9.249336466263e-04 
-1.472424715948e-03 1.473284294565e-03 0.0 
1.473284294565e-03 4.326140179341e-03 0.0 
0.0 0.0 -7.656857982150e-04 
-1.552562983666e-03 7.948996227407e-04 0.0 
7.948996227407e-04 8.084351316505e-03 0.0 
0.0 0.0 -1.206557591227e-03 
1.197294541337e-03 2.931696958795e-03 0.0 
2.931696958795e-03 3.430979437177e-04 0.0 
0.0 0.0 -6.601682078804e-04 
2.014691518502e-04 -1.535153806246e-04 0.0 
-1.535153806246e-04 2.672995857900e-03 0.0 
0.0 0.0 -1.120054252910e-03 
1.167692333485e-03 -4.546798185550e-04 0.0 
-4.546798185550e-04 3.225795309946e-04 0.0 
0.0 0.0 -6.386879419198e-04 
-8.300689796229e-04 -1.036862626203e-03 0.0 
-1.036862626203e-03 2.843866615447e-03 0.0 
0.0 0.0 -8.092532257643e-04 
-1.141410086144e-03 -2.132624368424e-03 0.0 
-2.132624368424e-03 4.763879094691e-03 0.0 
0.0 0.0 -1.118919378802e-03 
2.226178382358e-03 1.538806345707e-03 0.0 
1.538806345707e-03 -1.000001690931e-03 0.0 
0.0 0.0 -5.255042963258e-04 
-1.621773390463e-03 1.105341392258e-03 0.0 
1.105341392258e-03 7.770539650855e-03 0.0 
0.0 0.0 -1.164614768972e-03 
-7.726765049569e-04 3.339866695887e-03 0.0 
3.339866695887e-03 4.168840091130e-03 0.0 
0.0 0.0 -1.031533309622e-03 
2.985503110291e-03 3.031284491510e-04 0.0 
3.031284491510e-04 -1.381029514076e-03 0.0 
0.0 0.0 -6.876315412354e-04 
-1.686948173027e-03 1.421165008995e-03 0.0 
1.421165008995e-03 7.380565372555e-03 0.0 
0.0 0.0 -1.121170216299e-03 
1.011452247809e-03 -2.344893480733e-03 0.0 
-2.344893480733e-03 3.172812092828e-04 0.0 
0.0 0.0 -5.694571958966e-04 
3.273818053523e-04 1.142366955538e-03 0.0 
1.142366955538e-03 2.480645691333e-03 0.0 
0.0 0.0 -1.099429584637e-03 
-6.433175181119e-04 3.077878174349e-03 0.0 
3.077878174349e-03 3.183682229986e-03 0.0 
0.0 0.0 -9.539696108702e-04 
-6.121546724542e-04 3.601568394799e-03 0.0 
3.601568394799e-03 3.377991454684e-03 0.0 
0.0 0.0 -9.441813108648e-04 
-1.362049427310e-03 2.994726613582e-03 0.0 
2.994726613582e-03 5.058459491364e-03 0.0 
0.0 0.0 -9.824247929831e-04 
2.242703281786e-04 3.613717884088e-03 0.0 
3.613717884088e-03 1.934819861174e-03 0.0 
0.0 0.0 -8.887186042024e-04 
-1.881029170096e-03 -6.972944591045e-04 0.0 
-6.972944591045e-04 5.485539571048e-03 0.0 
0.0 0.0 -1.071820694527e-03 
-9.158007506096e-04 -2.235649248494e-03 0.0 
-2.235649248494e-03 4.248678740424e-03 0.0 
0.0 0.0 -1.090315851396e-03 
2.052665481287e-03 -1.103532234197e-03 0.0 
-1.103532234197e-03 -1.175556670273e-03 0.0 
0.0 0.0 -3.759037761492e-04 
8.914746630086e-04 2.890953836391e-03 0.0 
2.890953836391e-03 6.027493594732e-04 0.0 
0.0 0.0 -6.403817239208e-04 
-1.758945777430e-03 1.160675475390e-03 0.0 
1.160675475390e-03 6.378359981790e-03 0.0 
0.0 0.0 -9.536514739466e-04 
-6.639671926482e-04 3.003789204226e-03 0.0 
3.003789204226e-03 4.418789612070e-03 0.0 
0.0 0.0 -1.150585697120e-03 
-1.554201493046e-03 1.231598965710e-03 0.0 
1.231598965710e-03 8.128380504732e-03 0.0 
0.0 0.0 -1.229329624135e-03 
1.209824795641e-04 3.344721880567e-03 0.0 
3.344721880567e-03 1.935063257791e-03 0.0 
0.0 0.0 -8.811624588665e-04 
-1.286404788732e-03 -2.188571958382e-03 0.0 
-2.188571958382e-03 4.794074532598e-03 0.0 
0.0 0.0 -1.081576975854e-03 
-1.629163603093e-03 1.571087997701e-03 0.0 
1.571087997701e-03 7.723510960528e-03 0.0 
0.0 0.0 -1.185355684152e-03 
-3.559661832873e-04 -3.012647310201e-03 0.0 
-3.012647310201e-03 2.646809915025e-03 0.0 
0.0 0.0 -9.737892037141e-04 
-7.230165557545e-04 -1.426683456850e-04 0.0 
-1.426683456850e-04 2.147619513236e-03 0.0 
0.0 0.0 -4.572648740992e-04 
1.660426463556e-03 2.294712628775e-03 0.0 
2.294712628775e-03 -6.270108860030e-04 0.0 
0.0 0.0 -4.428923903797e-04 
3.083725212360e-03 4.086632437554e-04 0.0 
4.086632437554e-04 -1.411678867675e-03 0.0 
0.0 0.0 -7.165912905795e-04 
1.695879907660e-03 2.562718717107e-03 0.0 
2.562718717107e-03 -3.302884133479e-04 0.0 
0.0 0.0 -5.852534975623e-04 
-5.576706971117e-04 -2.954961257328e-03 0.0 
-2.954961257328e-03 3.029681223364e-03 0.0 
0.0 0.0 -1.013304783341e-03 
-1.555713883054e-03 2.364705081961e-03 0.0 
2.364705081961e-03 7.663070105557e-03 0.0 
0.0 0.0 -1.242275372262e-03 
-1.459222448555e-03 -1.977989758638e-03 0.0 
-1.977989758638e-03 5.249777589170e-03 0.0 
0.0 0.0 -1.110186454522e-03 
5.809827755289e-05 -1.888547144195e-03 0.0 
-1.888547144195e-03 2.563693945277e-03 0.0 
0.0 0.0 -1.040857148505e-03 
2.605850441788e-04 1.421990380311e-03 0.0 
1.421990380311e-03 4.200487728662e-04 0.0 
0.0 0.0 -2.917002073050e-04 
-1.420828704055e-03 1.823492309729e-03 0.0 
1.823492309729e-03 4.313202363895e-03 0.0 
0.0 0.0 -8.070275419711e-04 
-1.590933393314e-03 -1.754583215491e-03 0.0 
-1.754583215491e-03 5.664446844218e-03 0.0 
0.0 0.0 -1.139074001596e-03 
1.644076570115e-03 -1.085629871930e-03 0.0 
-1.085629871930e-03 -5.732577340253e-04 0.0 
0.0 0.0 -4.589223583244e-04 
2.052489302078e-04 6.912241943710e-04 0.0 
6.912241943710e-04 2.710009798059e-03 0.0 
0.0 0.0 -1.126725356868e-03 
-1.535445043143e-03 -5.867914393128e-04 0.0 
-5.867914393128e-04 4.647107690583e-03 0.0 
0.0 0.0 -1.044109258258e-03 
-9.859779036616e-04 3.056684200562e-03 0.0 
3.056684200562e-03 5.375983574251e-03 0.0 
0.0 0.0 -1.249754184115e-03 
-6.610476002560e-04 2.303624772309e-03 0.0 
2.303624772309e-03 2.903406990762e-03 0.0 
0.0 0.0 -9.028501661438e-04 
-1.686501264746e-03 -1.526608176621e-03 0.0 
-1.526608176621e-03 6.045524770636e-03 0.0 
0.0 0.0 -1.168790087466e-03 
3.742641179637e-04 -1.152556169589e-03 0.0 
-1.152556169589e-03 2.146769681943e-03 0.0 
0.0 0.0 -1.036257385577e-03 
2.158291477526e-03 2.743008596258e-03 0.0 
2.743008596258e-03 -5.432811980168e-04 0.0 
0.0 0.0 -6.921472626470e-04 
-1.448920855555e-03 5.485150606776e-05 0.0 
5.485150606776e-05 5.277752212934e-03 0.0 
0.0 0.0 -7.498068730476e-04 
-1.593954056461e-03 -1.469135234964e-03 0.0 
-1.469135234964e-03 6.450266463409e-03 0.0 
0.0 0.0 -1.243807156011e-03 
5.209000563453e-05 -9.592901321100e-04 0.0 
-9.592901321100e-04 2.854437082012e-03 0.0 
0.0 0.0 -1.114542488500e-03 
3.461661553033e-05 3.551384216602e-03 0.0 
3.551384216602e-03 2.362376837699e-03 0.0 
0.0 0.0 -9.321888224300e-04 
1.558216832635e-03 -1.548696012587e-03 0.0 
-1.548696012587e-03 -4.269730613691e-04 0.0 
0.0 0.0 -4.848187591140e-04 
-1.159109189925e-03 1.672386638450e-03 0.0 
1.672386638450e-03 3.686907530899e-03 0.0 
0.0 0.0 -7.928834912169e-04 
-8.622534806161e-04 -2.703450422620e-03 0.0 
-2.703450422620e-03 3.567462389003e-03 0.0 
0.0 0.0 -1.042489463686e-03 
-8.810352068874e-04 3.464697463085e-03 0.0 
3.464697463085e-03 3.935493660585e-03 0.0 
0.0 0.0 -9.528746205426e-04 
-1.455694182561e-03 2.079571376027e-03 0.0 
2.079571376027e-03 8.238502292373e-03 0.0 
0.0 0.0 -1.306889097489e-03 
-4.021262128288e-05 -5.236218254538e-04 0.0 
-5.236218254538e-04 3.069008893941e-03 0.0 
0.0 0.0 -1.148622835147e-03 
-1.725562695568e-03 2.028005553636e-03 0.0 
2.028005553636e-03 5.979413828880e-03 0.0 
0.0 0.0 -9.696660045843e-04 
-9.371362615476e-04 -2.513813645279e-03 0.0 
-2.513813645279e-03 3.674904326905e-03 0.0 
0.0 0.0 -1.055577742195e-03 
6.828857261752e-04 2.319846812613e-03 0.0 
2.319846812613e-03 1.471382999158e-03 0.0 
0.0 0.0 -9.020111454724e-04 
3.069126660921e-04 -4.845997231989e-04 0.0 
-4.845997231989e-04 8.592191971431e-04 0.0 
0.0 0.0 -3.093966206321e-04 
-1.066278201586e-03 2.069319232208e-03 0.0 
2.069319232208e-03 3.624795843977e-03 0.0 
0.0 0.0 -8.430048313659e-04 
-1.188974335056e-03 -2.184404117123e-03 0.0 
-2.184404117123e-03 4.121734009211e-03 0.0 
0.0 0.0 -1.055179846540e-03 
3.051680346467e-03 -4.197736543643e-04 0.0 
-4.197736543643e-04 -1.412706451387e-03 0.0 
0.0 0.0 -7.024173836058e-04 
1.117277129867e-03 -2.070559341147e-03 0.0 
-2.070559341147e-03 1.215006496444e-04 0.0 
0.0 0.0 -5.309047626477e-04 
-5.077233341081e-04 1.801300421280e-03 0.0 
1.801300421280e-03 4.164826850224e-03 0.0 
0.0 0.0 -1.234277959947e-03 
-1.405357231203e-03 -1.830815427985e-03 0.0 
-1.830815427985e-03 4.525691195773e-03 0.0 
0.0 0.0 -1.058821591963e-03 
2.981871888689e-03 -4.320249597075e-04 0.0 
-4.320249597075e-04 -1.387251596233e-03 0.0 
0.0 0.0 -6.834086967669e-04 
-1.589234832291e-03 -1.465860908847e-03 0.0 
-1.465860908847e-03 4.884351969089e-03 0.0 
0.0 0.0 -1.063846254002e-03 
-8.219124233661e-04 1.884899957964e-03 0.0 
1.884899957964e-03 3.049244611375e-03 0.0 
0.0 0.0 -8.384157971481e-04 
-1.674104129450e-03 2.267631102477e-03 0.0 
2.267631102477e-03 5.977690423385e-03 0.0 
0.0 0.0 -9.983267706061e-04 
-1.746776969671e-03 -1.092710579845e-03 0.0 
-1.092710579845e-03 5.203384673320e-03 0.0 
0.0 0.0 -1.068006041337e-03 
-9.280916248974e-04 3.352222764373e-03 0.0 
3.352222764373e-03 4.310032082870e-03 0.0 
0.0 0.0 -1.003151257071e-03 
2.463563334715e-05 -8.807126364979e-04 0.0 
-8.807126364979e-04 9.974910621111e-04 0.0 
0.0 0.0 -3.190932086048e-04 
1.865633619246e-04 3.322818699054e-03 0.0 
3.322818699054e-03 2.196662702388e-03 0.0 
0.0 0.0 -9.369607680273e-04 
-1.969274810505e-03 -5.697349439415e-04 0.0 
-5.697349439415e-04 6.492408088354e-03 0.0 
0.0 0.0 -1.155419075730e-03 
4.460939102830e-04 -2.841642607167e-03 0.0 
-2.841642607167e-03 1.136269056788e-03 0.0 
0.0 0.0 -6.781555573162e-04 
7.887889646567e-04 -2.571324212251e-03 0.0 
-2.571324212251e-03 6.415432993246e-04 0.0 
0.0 0.0 -6.129995417062e-04 
-1.637827184878e-03 2.388605245637e-03 0.0 
2.388605245637e-03 6.314063370822e-03 0.0 
0.0 0.0 -1.063653581392e-03 
-4.992814516217e-04 1.972643240252e-03 0.0 
1.972643240252e-03 2.384387457051e-03 0.0 
0.0 0.0 -8.079025737556e-04 
5.124750958276e-04 -2.569400884271e-03 0.0 
-2.569400884271e-03 1.193670865080e-03 0.0 
0.0 0.0 -7.312054118175e-04 
-9.641562230990e-04 3.242704907183e-03 0.0 
3.242704907183e-03 4.707911026065e-03 0.0 
0.0 0.0 -1.067288052377e-03 
3.154663455590e-04 2.993279893955e-03 0.0 
2.993279893955e-03 2.102244501383e-03 0.0 
0.0 0.0 -9.588566822092e-04 
1.346446614896e-03 2.610050225058e-03 0.0 
2.610050225058e-03 1.067961116776e-04 0.0 
0.0 0.0 -6.228183113887e-04 
2.887356895726e-04 -2.230406662033e-03 0.0 
-2.230406662033e-03 1.886206335840e-03 0.0 
0.0 0.0 -9.159128653295e-04 
-3.070381522363e-04 2.361479177514e-03 0.0 
2.361479177514e-03 2.144874392585e-03 0.0 
0.0 0.0 -7.876441030066e-04 
-4.603323552836e-06 -2.296978514711e-03 0.0 
-2.296978514711e-03 1.485132063043e-03 0.0 
0.0 0.0 -6.345123169243e-04 
-1.725456702673e-05 -2.050421713285e-03 0.0 
-2.050421713285e-03 1.350463780520e-03 0.0 
0.0 0.0 -5.713753772113e-04 
2.694499012180e-03 -1.108798334530e-03 0.0 
-1.108798334530e-03 -1.215742971782e-03 0.0 
0.0 0.0 -6.337525887422e-04 
-1.125553493016e-03 3.166078986994e-03 0.0 
3.166078986994e-03 5.226172467772e-03 0.0 
0.0 0.0 -1.103081964739e-03 
-3.505794759798e-04 -2.805020388018e-04 0.0 
-2.805020388018e-04 1.476517852756e-03 0.0 
0.0 0.0 -3.018576685516e-04 
-1.520679869667e-03 2.700420786858e-03 0.0 
2.700420786858e-03 5.894437551981e-03 0.0 
0.0 0.0 -1.054898413167e-03 
1.434637815246e-04 -2.013001771722e-03 0.0 
-2.013001771722e-03 1.061630091320e-03 0.0 
0.0 0.0 -5.164688026476e-04 
2.470206604480e-03 -1.725455129164e-03 0.0 
-1.725455129164e-03 -1.033453851675e-03 0.0 
0.0 0.0 -6.157511797736e-04 
1.550603106910e-04 2.343951066894e-03 0.0 
2.343951066894e-03 2.741523029304e-03 0.0 
0.0 0.0 -1.077081564483e-03 
-1.567382262079e-03 5.775225248615e-06 0.0 
5.775225248615e-06 6.502023960398e-03 0.0 
0.0 0.0 -9.315431351609e-04 
1.994050342792e-03 -2.125051609346e-03 0.0 
-2.125051609346e-03 -7.055681148420e-04 0.0 
0.0 0.0 -5.522066691216e-04 
-8.473530892992e-04 -1.857205257249e-04 0.0 
-1.857205257249e-04 2.593065685554e-03 0.0 
0.0 0.0 -6.119633700263e-04 
1.664939330105e-03 -2.423764940749e-03 0.0 
-2.423764940749e-03 -3.798301328600e-04 0.0 
0.0 0.0 -5.507610845334e-04 
9.691114688175e-04 2.564299471471e-03 0.0 
2.564299471471e-03 7.430038862534e-04 0.0 
0.0 0.0 -7.337637236018e-04 
1.166584806499e-03 -2.448706473937e-03 0.0 
-2.448706473937e-03 1.644568183363e-04 0.0 
0.0 0.0 -5.704464106438e-04 
9.207629563978e-04 -2.562817695187e-03 0.0 
-2.562817695187e-03 4.684807333005e-04 0.0 
0.0 0.0 -5.953901527278e-04 
-1.509599202053e-03 7.115315669588e-04 0.0 
7.115315669588e-04 8.319494978419e-03 0.0 
0.0 0.0 -1.242975171717e-03 
6.644834369663e-04 -2.816687817472e-03 0.0 
-2.816687817472e-03 8.638079814567e-04 0.0 
0.0 0.0 -6.549820364670e-04 
-1.417913046649e-03 2.000204615730e-04 0.0 
2.000204615730e-04 8.717353493565e-03 0.0 
0.0 0.0 -1.305370344976e-03 
-1.585981038622e-03 -5.390524588140e-04 0.0 
-5.390524588140e-04 7.088561262435e-03 0.0 
0.0 0.0 -1.298405437673e-03 
-1.489518803289e-03 -4.573950556845e-06 0.0 
-4.573950556845e-06 5.635615486584e-03 0.0 
0.0 0.0 -7.997855503562e-04 
-2.605550091072e-04 1.921888767382e-03 0.0 
1.921888767382e-03 1.771030104647e-03 0.0 
0.0 0.0 -6.473464695169e-04 
0.0 0.0 0.0 
0.0 0.0 0.0 
0.0 0.0 0.0 
5.300339532942e-05 2.296518653744e-03 0.0 
2.296518653744e-03 1.380741919417e-03 0.0 
0.0 0.0 -6.144622777483e-04 
4.589079226346e-04 -2.669236835745e-03 0.0 
-2.669236835745e-03 1.017039993413e-03 0.0 
0.0 0.0 -6.325491068774e-04 
-1.344360499523e-03 2.998007223071e-03 0.0 
2.998007223071e-03 5.396263019476e-03 0.0 
0.0 0.0 -1.045752072333e-03 
-1.493847809746e-03 7.392246810856e-05 0.0 
7.392246810856e-05 5.643210332918e-03 0.0 
0.0 0.0 -8.029817139903e-04 
2.189770723719e-04 -2.551176870332e-03 0.0 
-2.551176870332e-03 1.274969331798e-03 0.0 
0.0 0.0 -6.402627446442e-04 
-1.419524211431e-03 3.075318657805e-03 0.0 
3.075318657805e-03 6.922500903080e-03 0.0 
0.0 0.0 -1.250093291501e-03 
-1.105460999237e-03 2.840056670224e-03 0.0 
2.840056670224e-03 5.499135179184e-03 0.0 
0.0 0.0 -1.306737725957e-03 
-1.583352928322e-03 1.388979039351e-04 0.0 
1.388979039351e-04 7.093261842357e-03 0.0 
0.0 0.0 -1.028769680629e-03 
3.110761131384e-05 3.070777297068e-04 0.0 
3.070777297068e-04 2.990066827201e-03 0.0 
0.0 0.0 -1.152835590205e-03 
4.038330844269e-04 2.562565156884e-03 0.0 
2.562565156884e-03 2.099896012322e-03 0.0 
0.0 0.0 -9.954397186036e-04 
-1.532870607185e-03 8.627533493903e-05 0.0 
8.627533493903e-05 8.032571934377e-03 0.0 
0.0 0.0 -1.185717314024e-03 
-1.493423908883e-03 8.976519337403e-05 0.0 
8.976519337403e-05 5.235057922781e-03 0.0 
0.0 0.0 -7.451086181774e-04 
8.476467916489e-05 -1.199388947894e-03 0.0 
-1.199388947894e-03 6.043361303539e-04 0.0 
0.0 0.0 -2.642930028689e-04 
-1.995343437528e-03 -3.338550389889e-04 0.0 
-3.338550389889e-04 5.735331553200e-03 0.0 
0.0 0.0 -1.072300834510e-03 
-4.728391316332e-06 1.911025163986e-03 0.0 
1.911025163986e-03 1.236688893795e-03 0.0 
0.0 0.0 -5.279830724910e-04 
3.550394143264e-04 2.259430213976e-03 0.0 
2.259430213976e-03 9.034181507030e-04 0.0 
0.0 0.0 -5.393389564412e-04 
6.085214745978e-04 2.284877078157e-03 0.0 
2.284877078157e-03 6.261355702317e-04 0.0 
0.0 0.0 -5.291387334984e-04 
-9.396181000691e-04 -7.967451354887e-04 0.0 
-7.967451354887e-04 3.058992386408e-03 0.0 
0.0 0.0 -8.121166773320e-04 
5.494964702923e-04 -2.584085792452e-03 0.0 
-2.584085792452e-03 8.433772001581e-04 0.0 
0.0 0.0 -5.969458587645e-04 
2.401282782028e-04 2.005638511475e-03 0.0 
2.005638511475e-03 9.040366262875e-04 0.0 
0.0 0.0 -4.903563876387e-04 
-5.261734606055e-04 6.022279658391e-04 0.0 
6.022279658391e-04 4.033101031005e-03 0.0 
0.0 0.0 -1.245112051941e-03 
-1.636730137181e-03 4.290067563108e-04 0.0 
4.290067563108e-04 5.580276288558e-03 0.0 
0.0 0.0 -8.050116406322e-04 
-1.121915910908e-04 2.515763012409e-03 0.0 
2.515763012409e-03 3.291467473346e-03 0.0 
0.0 0.0 -1.110409235593e-03 
3.679053624996e-04 1.946389288486e-03 0.0 
1.946389288486e-03 7.047317248665e-04 0.0 
0.0 0.0 -4.597016088712e-04 
-1.554707372438e-03 1.697440109364e-03 0.0 
1.697440109364e-03 8.056864122716e-03 0.0 
0.0 0.0 -1.247366155457e-03 
-7.215899275846e-04 2.377475014672e-03 0.0 
2.377475014672e-03 4.622150950018e-03 0.0 
0.0 0.0 -1.246608778627e-03 
-1.331856878630e-03 -1.983836111103e-03 0.0 
-1.983836111103e-03 6.114923973583e-03 0.0 
0.0 0.0 -1.306249356034e-03 
-3.798399904625e-04 2.398884536475e-03 0.0 
2.398884536475e-03 3.901175645834e-03 0.0 
0.0 0.0 -1.176371721005e-03 
7.581050863864e-04 2.227306199006e-03 0.0 
2.227306199006e-03 3.618205949459e-04 0.0 
0.0 0.0 -4.799681491424e-04 
-1.753134334940e-03 1.030981935736e-03 0.0 
1.030981935736e-03 5.768775069705e-03 0.0 
0.0 0.0 -8.603500797662e-04 
-1.168709675212e-03 3.249274189801e-03 0.0 
3.249274189801e-03 5.927681969270e-03 0.0 
0.0 0.0 -1.250827372426e-03 
-1.580586288305e-03 2.460651619642e-04 0.0 
2.460651619642e-04 7.417010690682e-03 0.0 
0.0 0.0 -1.080253149739e-03 
-1.410996846028e-03 -1.766992384939e-03 0.0 
-1.766992384939e-03 6.482040820837e-03 0.0 
0.0 0.0 -1.309985050881e-03 
-1.682012249170e-03 6.654682702296e-04 0.0 
6.654682702296e-04 5.457303072723e-03 0.0 
0.0 0.0 -7.979019438933e-04 
-1.482092413582e-03 4.825553233706e-04 0.0 
4.825553233706e-04 8.388620482460e-03 0.0 
0.0 0.0 -1.252774941638e-03 
2.053124764649e-03 -2.150351803165e-03 0.0 
-2.150351803165e-03 -1.002699963371e-03 0.0 
0.0 0.0 -4.501820576904e-04 
-1.472782165905e-03 2.611384925530e-04 0.0 
2.611384925530e-04 8.403666031078e-03 0.0 
0.0 0.0 -1.254166199180e-03 
-1.340636802885e-03 3.017781757784e-03 0.0 
3.017781757784e-03 5.759872352408e-03 0.0 
0.0 0.0 -1.110316242656e-03 
-1.575034003637e-03 2.533992497604e-04 0.0 
2.533992497604e-04 6.175537215493e-03 0.0 
0.0 0.0 -8.840149073763e-04 
-1.771751416511e-03 1.426780246192e-03 0.0 
1.426780246192e-03 5.587137473215e-03 0.0 
0.0 0.0 -8.570326279659e-04 
-1.684907386527e-03 -8.004631079360e-04 0.0 
-8.004631079360e-04 6.831074281255e-03 0.0 
0.0 0.0 -1.256337174517e-03 
-1.508670120193e-03 2.760870843371e-03 0.0 
2.760870843371e-03 7.327066348949e-03 0.0 
0.0 0.0 -1.249505442739e-03 
6.883790236625e-04 2.060671389361e-03 0.0 
2.060671389361e-03 2.237385116845e-05 0.0 
0.0 0.0 -3.046083749275e-04 
-1.585370214117e-03 2.593308700915e-04 0.0 
2.593308700915e-04 7.073771685170e-03 0.0 
0.0 0.0 -1.024357608964e-03 
-1.028891659838e-03 -1.361434891480e-03 0.0 
-1.361434891480e-03 3.507211596145e-03 0.0 
0.0 0.0 -9.709766588611e-04 
2.096603589134e-04 -4.522541456736e-04 0.0 
-4.522541456736e-04 -1.685826935135e-04 0.0 
0.0 0.0 -1.760471374282e-05 
-1.108111334259e-03 -1.824971532717e-03 0.0 
-1.824971532717e-03 5.280702358381e-03 0.0 
0.0 0.0 -1.249521112489e-03 
-1.346888651128e-03 3.065747420634e-03 0.0 
3.065747420634e-03 6.117675129117e-03 0.0 
0.0 0.0 -1.172189067419e-03 
-1.641216111045e-03 -1.228485444809e-03 0.0 
-1.228485444809e-03 6.632464522082e-03 0.0 
0.0 0.0 -1.251863004148e-03 
4.253395517685e-04 -1.330965256832e-05 0.0 
-1.330965256832e-05 8.162616228349e-04 0.0 
0.0 0.0 -3.073113677837e-04 
2.659967583917e-04 -9.636004765028e-04 0.0 
-9.636004765028e-04 4.197455964224e-04 0.0 
0.0 0.0 -2.058019112872e-04 
-9.341108583894e-04 -1.570273886574e-03 0.0 
-1.570273886574e-03 4.919000747850e-03 0.0 
0.0 0.0 -1.258522865334e-03 
-1.325021295734e-03 3.260852513925e-03 0.0 
3.260852513925e-03 6.529415890564e-03 0.0 
0.0 0.0 -1.257106814994e-03 
2.069780564081e-03 -2.887481408844e-03 0.0 
-2.887481408844e-03 -5.620999085580e-04 0.0 
0.0 0.0 -6.461488523668e-04 
-1.444494309143e-03 1.513018136519e-03 0.0 
1.513018136519e-03 8.529509024149e-03 0.0 
0.0 0.0 -1.314710167832e-03 
1.606042082751e-04 7.400733517384e-04 0.0 
7.400733517384e-04 -6.805152101560e-05 0.0 
0.0 0.0 -3.966543739693e-05 
-1.527500430813e-03 2.291957424775e-04 0.0 
2.291957424775e-04 5.159544215479e-03 0.0 
0.0 0.0 -7.389643750272e-04 
7.522855132365e-04 -8.129255998406e-04 0.0 
-8.129255998406e-04 2.933811725579e-04 0.0 
0.0 0.0 -2.584822669346e-04 
-1.451285018422e-03 -1.619253938531e-03 0.0 
-1.619253938531e-03 6.712702821616e-03 0.0 
0.0 0.0 -1.308531455474e-03 
-1.521082113150e-03 1.160385665173e-03 0.0 
1.160385665173e-03 8.292813149207e-03 0.0 
0.0 0.0 -1.254845750201e-03 
-1.245470008181e-03 -9.103756336826e-04 0.0 
-9.103756336826e-04 3.950697369425e-03 0.0 
0.0 0.0 -9.904446095582e-04 
-1.723966937065e-03 1.170670843267e-03 0.0 
1.170670843267e-03 5.001993590100e-03 0.0 
0.0 0.0 -7.582784842146e-04 
-9.206532372436e-04 -4.495869396707e-04 0.0 
-4.495869396707e-04 2.876332750162e-03 0.0 
0.0 0.0 -7.084058105195e-04 
-8.029287135569e-04 3.022070318119e-03 0.0 
3.022070318119e-03 4.846485263972e-03 0.0 
0.0 0.0 -1.203498912175e-03 
1.578052768763e-04 -1.733898146901e-03 0.0 
-1.733898146901e-03 8.518457615679e-04 0.0 
0.0 0.0 -4.327075879046e-04 
-1.502885003929e-03 8.385321329672e-04 0.0 
8.385321329672e-04 8.406515819115e-03 0.0 
0.0 0.0 -1.260296891839e-03 
-7.798982579111e-04 -1.032636455785e-03 0.0 
-1.032636455785e-03 4.559837266151e-03 0.0 
0.0 0.0 -1.261416966621e-03 
-1.541080814648e-03 2.248481841172e-03 0.0 
2.248481841172e-03 7.871819285488e-03 0.0 
0.0 0.0 -1.260618436842e-03 
-1.035661708301e-03 1.434119926330e-03 0.0 
1.434119926330e-03 4.999968609048e-03 0.0 
0.0 0.0 -1.317725628150e-03 
0.0 0.0 0.0 
0.0 0.0 0.0 
0.0 0.0 0.0 
-8.775793509473e-04 2.643781737553e-03 0.0 
2.643781737553e-03 4.999185491909e-03 0.0 
0.0 0.0 -1.263090216482e-03 
-3.359262024726e-04 -4.205327465571e-04 0.0 
-4.205327465571e-04 3.690481845722e-03 0.0 
0.0 0.0 -1.202239909569e-03 
-1.469921091904e-03 1.397057797389e-04 0.0 
1.397057797389e-04 5.245389338611e-03 0.0 
0.0 0.0 -7.439744481034e-04 
-1.522980262771e-03 2.574585562032e-03 0.0 
2.574585562032e-03 7.567445771786e-03 0.0 
0.0 0.0 -1.252574368527e-03 
-1.039501310576e-03 -8.329301664350e-04 0.0 
-8.329301664350e-04 3.357758752277e-03 0.0 
0.0 0.0 -8.789764298429e-04 
-3.276933337434e-04 -7.307720459036e-04 0.0 
-7.307720459036e-04 1.390604940151e-03 0.0 
0.0 0.0 -3.555153606766e-04 
-1.400496614823e-03 7.920880417302e-05 0.0 
7.920880417302e-05 8.744396333073e-03 0.0 
0.0 0.0 -1.313490227100e-03 
2.520733888645e-03 -3.426864807379e-06 0.0 
-3.426864807379e-06 -8.047604136628e-04 0.0 
0.0 0.0 -1.695477456824e-04 
-1.436285120339e-03 -8.822331672806e-06 0.0 
-8.822331672806e-06 5.224558560537e-03 0.0 
0.0 0.0 -7.402411036050e-04 
-1.541544735514e-03 -2.080816256948e-04 0.0 
-2.080816256948e-04 7.171789726740e-03 0.0 
0.0 0.0 -1.313492844077e-03 
-2.510837729256e-04 -3.936310680644e-04 0.0 
-3.936310680644e-04 1.321735893226e-03 0.0 
0.0 0.0 -2.948614013126e-04 
-1.524937947447e-03 4.475494657923e-05 0.0 
4.475494657923e-05 5.953624986698e-03 0.0 
0.0 0.0 -8.489638187885e-04 
-1.372178966628e-03 3.183705797245e-03 0.0 
3.183705797245e-03 6.771642373061e-03 0.0 
0.0 0.0 -1.260211869575e-03 
-1.590513358799e-03 -2.597680171264e-04 0.0 
-2.597680171264e-04 4.769333481416e-03 0.0 
0.0 0.0 -1.052454572086e-03 
-1.550492385742e-03 1.189328986090e-04 0.0 
1.189328986090e-04 7.800235903878e-03 0.0 
0.0 0.0 -1.148445367820e-03 
9.452528930191e-04 -2.939486558072e-03 0.0 
-2.939486558072e-03 5.700922820308e-04 0.0 
0.0 0.0 -6.494336464500e-04 
0.0 0.0 0.0 
0.0 0.0 0.0 
0.0 0.0 0.0 
-1.577256117848e-03 6.886097405366e-05 0.0 
6.886097405366e-05 6.718118974100e-03 0.0 
0.0 0.0 -9.668795991591e-04 
-7.257532866393e-04 2.108017519290e-03 0.0 
2.108017519290e-03 4.551210106726e-03 0.0 
0.0 0.0 -1.258714341260e-03 
-1.539880904137e-03 1.881264573762e-03 0.0 
1.881264573762e-03 8.091722768049e-03 0.0 
0.0 0.0 -1.263997700767e-03 
-1.584367033562e-03 2.539188043181e-04 0.0 
2.539188043181e-04 6.423614681133e-03 0.0 
0.0 0.0 -9.199601189493e-04 
1.149887053528e-03 2.260371255349e-03 0.0 
2.260371255349e-03 -3.607458547944e-04 0.0 
0.0 0.0 -3.382033708860e-04 
-1.352077778871e-03 3.162162671945e-03 0.0 
3.162162671945e-03 6.429958482634e-03 0.0 
0.0 0.0 -1.221038716794e-03 
-1.328731786449e-03 -9.755978743980e-04 0.0 
-9.755978743980e-04 4.177204897338e-03 0.0 
0.0 0.0 -1.017329335709e-03 
-1.052088232510e-03 3.182318808270e-03 0.0 
3.182318808270e-03 5.489904176315e-03 0.0 
0.0 0.0 -1.208939113964e-03 
-2.749523466846e-04 3.333334303576e-04 0.0 
3.333334303576e-04 3.590145673266e-03 0.0 
0.0 0.0 -1.203806565432e-03 
-2.806862976403e-05 9.872193120935e-04 0.0 
9.872193120935e-04 2.806862976403e-05 0.0 
0.0 0.0 0.0 
-1.710135402111e-03 -2.140528936374e-04 0.0 
-2.140528936374e-04 5.062773823412e-03 0.0 
0.0 0.0 -1.067873332563e-03 
6.585939474405e-04 -9.144432273007e-04 0.0 
-9.144432273007e-04 2.765533765623e-04 0.0 
0.0 0.0 -2.242399343496e-04 
-1.352905233575e-03 -1.915199808028e-03 0.0 
-1.915199808028e-03 5.962667998270e-03 0.0 
0.0 0.0 -1.263714160583e-03 
-1.428737268169e-03 -6.941057894653e-04 0.0 
-6.941057894653e-04 4.390777467220e-03 0.0 
0.0 0.0 -1.028704531826e-03 
-4.699579755836e-04 1.450072871925e-03 0.0 
1.450072871925e-03 2.024332478440e-03 0.0 
0.0 0.0 -6.661605012242e-04 
-8.902768957816e-04 -2.344110242198e-05 0.0 
-2.344110242198e-05 2.651675222682e-03 0.0 
0.0 0.0 -3.933333333333e-04 
-7.205553837693e-04 1.411323130837e-03 0.0 
1.411323130837e-03 2.635120153819e-03 0.0 
0.0 0.0 -7.632308096241e-04 
-1.014253867293e-03 -2.134932202391e-05 0.0 
-2.134932202391e-05 3.236715286896e-03 0.0 
0.0 0.0 -4.600000000000e-04 
-1.004964497974e-03 1.297444765431e-03 0.0 
1.297444765431e-03 3.201027753380e-03 0.0 
0.0 0.0 -7.249691623289e-04 
-1.133374822382e-03 -1.604044547880e-05 0.0 
-1.604044547880e-05 3.646694996426e-03 0.0 
0.0 0.0 -5.266666666667e-04 
-1.280118750972e-03 1.130412810083e-03 0.0 
1.130412810083e-03 3.777030638565e-03 0.0 
0.0 0.0 -7.062703689559e-04 
-1.238778796526e-03 1.445476418682e-07 0.0 
1.445476418682e-07 4.216199491205e-03 0.0 
0.0 0.0 -5.933333333333e-04 
-1.543151210513e-03 1.002710923754e-03 0.0 
1.002710923754e-03 4.354039341919e-03 0.0 
0.0 0.0 -6.963727196364e-04 
-1.346425769997e-03 3.815725794878e-05 0.0 
3.815725794878e-05 4.612334605524e-03 0.0 
0.0 0.0 -6.600000000000e-04 

SCALARS node_materi_plasti_kappa_shear float
LOOKUP_TABLE default
2.115083374134e-03
3.458023789683e-03
4.967886194112e-03
5.876066285134e-03
1.429593561868e-03
9.260891180627e-04
9.750663137551e-04
1.375519170543e-03
1.749514182145e-03
2.072909783402e-03
2.372334959694e-03
2.646556194044e-03
2.900020015941e-03
3.146970300908e-03
3.414657029732e-03
3.664527045737e-03
3.866039465253e-03
4.132559423194e-03
4.398804352871e-03
4.605615939913e-03
4.743184926543e-03
4.864835234233e-03
4.967891461667e-03
5.874817732443e-03
5.871659258458e-03
5.865996944230e-03
5.879052454380e-03
5.875406408010e-03
5.881746665879e-03
5.893121739855e-03
5.904403498293e-03
5.911667380715e-03
5.942687471040e-03
5.945547502063e-03
5.964504727329e-03
5.990682248078e-03
6.003086871528e-03
6.009687630856e-03
6.018022142948e-03
6.013722829185e-03
6.018405848819e-03
6.000999157977e-03
5.961878918865e-03
5.908140669358e-03
5.805875616932e-03
5.680054112450e-03
5.512945864727e-03
5.326235031303e-03
5.099814575695e-03
4.848871496600e-03
4.578436030419e-03
4.312126051031e-03
4.068983510438e-03
3.878948019144e-03
3.696536407386e-03
3.610414615740e-03
3.648906839705e-03
3.740049181565e-03
3.899047133921e-03
4.078094335185e-03
4.265058537564e-03
4.435125269455e-03
4.594665148187e-03
4.735181100800e-03
4.838272090162e-03
4.913247143246e-03
4.935696440884e-03
4.963163630605e-03
4.970148499816e-03
4.972729571996e-03
4.968771048834e-03
4.969260551934e-03
3.740141790492e-03
4.058111443788e-03
4.339280484927e-03
4.600412294281e-03
4.861219744615e-03
5.105119180278e-03
5.341101545075e-03
5.553418984263e-03
5.788796962491e-03
4.516294989535e-04
3.540835783254e-03
1.470853437553e-03
1.806164222754e-03
1.988465623784e-03
1.960646228179e-03
2.089541966634e-03
2.264787004423e-03
2.585388498505e-03
2.853460972533e-03
3.168094353423e-03
1.943639486274e-03
2.132257304510e-03
2.471218391375e-03
2.803483841189e-03
3.120103201879e-03
3.399382940078e-03
3.415840330809e-03
3.424362395235e-03
3.424497136894e-03
3.479931295206e-03
3.440294557840e-03
3.439848037433e-03
3.453307638175e-03
3.471621284897e-03
3.481974088033e-03
3.486271779339e-03
3.492543524408e-03
3.498742868845e-03
3.518045244631e-03
0.0
0.0
0.0
0.0
0.0
1.744449562148e-04
3.008916063010e-04
4.050478665291e-04
5.046139784359e-04
6.936516565606e-04
8.134086808571e-04
1.035447660179e-03
1.317664285716e-03
1.556461179225e-03
1.698703308833e-03
1.829256340020e-03
1.936274606327e-03
2.057713747761e-03
2.160946537055e-03
2.048856554532e-03
2.073725647167e-03
2.058286255151e-03
1.993835126729e-03
1.971516266182e-03
1.960142833361e-03
1.967212518524e-03
1.978382383504e-03
1.983762783276e-03
1.983036748069e-03
1.983734396203e-03
1.983824396977e-03
1.983124955747e-03
1.981658296202e-03
1.979474590740e-03
1.976678055136e-03
1.973586251368e-03
1.970638400171e-03
1.968174943320e-03
1.965226630877e-03
1.935373732832e-03
1.887387186908e-03
2.120050012342e-03
2.111449579431e-03
2.113835223347e-03
2.116675236187e-03
2.120310449716e-03
2.123984102461e-03
2.126249522508e-03
2.127631391968e-03
2.128064366183e-03
2.127554982720e-03
2.126046799571e-03
2.123459660332e-03
2.120356283497e-03
2.114885182925e-03
2.101970331483e-03
2.096356667345e-03
2.097335722453e-03
2.128284095306e-03
2.196494271365e-03
2.186295543855e-03
2.483010702437e-03
2.506754027907e-03
2.468879242947e-03
2.457348499547e-03
2.466578465204e-03
2.474302737319e-03
2.478559870350e-03
2.480374252064e-03
2.482060617048e-03
2.483166610535e-03
2.483757347614e-03
2.481626238939e-03
2.477865116003e-03
2.472879665190e-03
2.467009561395e-03
2.462065239057e-03
2.458696764635e-03
2.458241881530e-03
2.465987666585e-03
2.800073416758e-03
2.792133891103e-03
2.794251622192e-03
2.799303906406e-03
2.804006642559e-03
2.811538170580e-03
2.819615238005e-03
2.827588526175e-03
2.830423737218e-03
2.834223597871e-03
2.832548011680e-03
2.829858727631e-03
2.829414630415e-03
2.819420454677e-03
2.821018701118e-03
2.841223476047e-03
2.785918999873e-03
3.125502671646e-03
3.195441658547e-03
3.182187427784e-03
3.176497158046e-03
3.175725551500e-03
3.174775535585e-03
3.166739352413e-03
3.157972763163e-03
3.150169453340e-03
3.142150136721e-03
3.134434164911e-03
3.127916890668e-03
3.125563909718e-03
3.118279613313e-03
3.123246277339e-03
3.139058430584e-03
1.865982719044e-03
1.474374331820e-03
1.940173948538e-03
1.976172725544e-03
2.018544812754e-03
2.180915114782e-03
2.503079452047e-03
2.766578717886e-03
3.045897946307e-03
3.384322342055e-03
1.792071878644e-03
3.375143360345e-03
7.233637867985e-04
1.036141330496e-04
4.185730067683e-03
2.132887875458e-03
3.290669112102e-03
3.943090107724e-03
2.459850990970e-03
5.049081016827e-03
3.049657566422e-03
4.807738799368e-03
1.182564866658e-03
5.746835578076e-03
3.688122146157e-03
2.243660734344e-03
3.956138881533e-03
5.918594875086e-03
5.957497874511e-03
5.833020523938e-03
5.849817635203e-03
5.907569221224e-03
3.796891756948e-03
3.753148626160e-03
3.750719424971e-03
4.728883318265e-03
4.949356106529e-03
0.0
1.446675358332e-03
4.662329876841e-03
3.701848086155e-03
1.172285973879e-03
5.916122430582e-03
4.554740200655e-03
5.468890302383e-03
3.503959695460e-03
3.612570973627e-03
1.012610592318e-03
3.764133124860e-03
4.509011244357e-03
5.226961181745e-03
8.281022762432e-04
2.786147332295e-03
5.862108365073e-03
2.293034409321e-03
2.118172696952e-03
2.814022264942e-03
3.328976841209e-03
1.647283992044e-03
4.215679675405e-03
4.988678889666e-03
1.603073179023e-03
5.647207016452e-03
3.826980774528e-03
3.959485929510e-03
4.093805969592e-03
4.237157459642e-03
4.355175514086e-03
4.475551541186e-03
4.360600218784e-03
4.584917723766e-03
4.472803770017e-03
4.603457862675e-03
4.678779703983e-03
4.566901197709e-03
4.755547519284e-03
4.640471696753e-03
4.457539912409e-03
4.538567241607e-03
4.334573614265e-03
4.420847848507e-03
4.584491396975e-03
4.467742894371e-03
4.290813753397e-03
4.341561214995e-03
4.161369484108e-03
4.203844918484e-03
4.020961676830e-03
4.033609205765e-03
4.190038035743e-03
3.995998885876e-03
3.816070395907e-03
3.728966813226e-03
3.537030536043e-03
3.407128807490e-03
3.586398617854e-03
3.288807272957e-03
3.252863900070e-03
3.170185754012e-03
3.233111113295e-03
3.074120756272e-03
3.162643393988e-03
2.933378461355e-03
2.797468942969e-03
2.619962109437e-03
2.778421306725e-03
2.482787310082e-03
2.288870685994e-03
2.245276885126e-03
2.009188259652e-03
2.106063465321e-03
2.298880449605e-03
2.277186157407e-03
2.045146607384e-03
2.269833337431e-03
2.492081268530e-03
2.449252250951e-03
2.235847836527e-03
2.412279828812e-03
2.543747264894e-03
2.600115002725e-03
2.727482019444e-03
2.938942653524e-03
2.800953391655e-03
3.099410076939e-03
3.236731448007e-03
3.326718393122e-03
3.458435113975e-03
3.182252973246e-03
3.349632840797e-03
3.182734544931e-03
3.297058188961e-03
3.395874895856e-03
3.084763359842e-03
2.947638229530e-03
3.173599872694e-03
3.367971322397e-03
2.907366739478e-03
2.989778207621e-03
2.681037591212e-03
3.273090083598e-03
4.583977419968e-03
2.763122244056e-03
2.422279070482e-03
2.341976270933e-03
2.055104190934e-03
4.487857016271e-03
4.743988105410e-03
4.617567667593e-03
4.883368050274e-03
4.763228887328e-03
2.160659489003e-03
4.890919826071e-03
4.994559216402e-03
4.077898647515e-03
3.620014606063e-03
2.026865546520e-03
3.041451028518e-03
2.832922892333e-03
3.077663964185e-03
3.380542676541e-03
3.577929148800e-03
3.502531489785e-03
3.663458989421e-03
3.546277218968e-03
3.702657791091e-03
3.786178392521e-03
3.850978684801e-03
3.897450996605e-03
3.504687425170e-03
3.291824593051e-03
3.999992240266e-03
4.016767369501e-03
4.146857594668e-03
4.147424783067e-03
3.977096144328e-03
4.088166746606e-03
3.903561376438e-03
1.647610095171e-03
1.670364952503e-03
1.200482357020e-03
1.361632881091e-03
1.080278838397e-03
1.418148903541e-03
1.352867822665e-03
1.212666352797e-03
4.813044669928e-03
2.629702736151e-03
2.873791510621e-03
2.692884768804e-03
2.922961960319e-03
2.693279210870e-03
2.967619989366e-03
2.640231682294e-03
2.442231823403e-03
2.256451765602e-03
2.304389301660e-03
1.970174595809e-03
2.413972446824e-03
4.105974986965e-03
1.752978929950e-03
1.881015725757e-03
2.212471553438e-03
1.986920103444e-03
4.283844059937e-03
3.257008008793e-03
2.972866264147e-03
1.546774196166e-03
1.779410363677e-03
2.938187575973e-03
3.188246772319e-03
5.018824155785e-03
4.900262887059e-03
3.011629305590e-03
1.908912131209e-03
3.906913380700e-03
1.895281348439e-03
4.211749337744e-03
4.409990212532e-03
3.799088406628e-03
2.355436507833e-03
2.649299599465e-03
2.548634680734e-03
2.876527123569e-03
2.844168383616e-03
3.212913817799e-03
3.129285464298e-03
3.337589162415e-03
3.439166685576e-03
3.438974933722e-03
3.303340296455e-03
3.181680302338e-03
3.085186834318e-03
2.829834518630e-03
4.432489689449e-03
1.483659745450e-03
4.217722169449e-03
3.341461549786e-03
1.739764648709e-03
5.152372939051e-03
5.035369681437e-03
4.778294671962e-03
4.917428704147e-03
5.167012334313e-03
5.050565403691e-03
4.795745429522e-03
4.929418857156e-03
4.668419815856e-03
4.805864584515e-03
5.058823087727e-03
4.939281816885e-03
4.682797093272e-03
4.818002280012e-03
4.556116505805e-03
4.690388347301e-03
4.950293242362e-03
1.552403935002e-03
1.574322739071e-03
1.877343647282e-03
2.891197733424e-03
3.092514519054e-03
3.276732472821e-03
3.305456961863e-03
4.827759947093e-03
5.081593595751e-03
3.163419766099e-03
3.211991907021e-03
5.265451275810e-03
4.339993450943e-03
4.108622684801e-03
3.351327486416e-03
3.414147971325e-03
3.173366515349e-03
3.179934844101e-03
3.412464276917e-03
2.933374923412e-03
3.048978120526e-03
5.184623155997e-03
2.285735175407e-03
1.964820094476e-03
4.525309975274e-03
1.417417973454e-03
4.266164728390e-03
4.121971091758e-03
4.284403972733e-03
4.105296115865e-03
4.321717176209e-03
4.160575813867e-03
3.892235684062e-03
2.811745021311e-03
3.984494120429e-03
4.554222149543e-03
2.269911801835e-03
3.028107761873e-03
1.410044382037e-03
2.660796390279e-03
1.642549087339e-03
2.019881341573e-03
3.191265930906e-03
4.449437667659e-03
4.556738233615e-03
3.151991049237e-03
3.330144195961e-03
2.615443417616e-03
4.499456307731e-03
4.528967056282e-03
4.393751219098e-03
1.261306655149e-03
2.904934706402e-03
5.293699107592e-03
3.240583809678e-03
3.137492166912e-03
1.326987575174e-03
7.734678318549e-04
4.951662652887e-03
5.199111337285e-03
3.458302994746e-03
3.498814191065e-03
2.813032372855e-03
2.488302007795e-03
5.318301846901e-03
1.850643022250e-03
1.900800904807e-03
3.131639576739e-03
3.027700141336e-03
2.957799237182e-03
3.061527549215e-03
2.613926403272e-03
1.775348210848e-03
3.082947151770e-03
5.403046930315e-03
3.649594930354e-03
3.629629087466e-03
3.791790756931e-03
2.266631384107e-03
3.561658471125e-03
4.464949176004e-03
4.749074667133e-03
4.803902692703e-03
3.195369272568e-03
2.992485238832e-03
2.855378574955e-03
2.741778446605e-03
4.234794425954e-03
3.108532495677e-03
4.079034698662e-03
3.940552543924e-03
3.815579800974e-03
3.588995439569e-03
3.476421980838e-03
3.087431809056e-03
2.199698414150e-03
3.435465997500e-03
3.826462726601e-03
3.261674752205e-03
5.297684949133e-03
5.419151855637e-03
4.414057560104e-03
4.275097580202e-03
1.647451024479e-03
1.675335589964e-03
3.606226530559e-03
3.650868628108e-03
5.391618930748e-03
5.502109459712e-03
5.372609048885e-03
2.675369016162e-03
2.527778908692e-03
1.410070067518e-03
1.620197969852e-03
3.704561518482e-03
1.421863687494e-03
4.706685273956e-03
4.622442071867e-03
4.666940698600e-03
3.076866095470e-03
3.811195532018e-03
3.440349836705e-03
3.147617514472e-03
3.657267983904e-03
3.541815125300e-03
3.706500821150e-03
3.438152628286e-03
2.775184890772e-03
2.746720812631e-03
4.705097558488e-03
4.212391869045e-03
5.032584068110e-03
5.060540397521e-03
2.962566848859e-03
2.515241370603e-03
2.118397082965e-03
3.180431248684e-03
5.518846616804e-03
3.789817242396e-03
3.891070071717e-03
3.945571653991e-03
5.986403847301e-04
2.213189616717e-03
5.440739059520e-03
2.585939956196e-03
2.577091143894e-03
2.623503978078e-03
4.897871729883e-03
3.686454329978e-03
4.752961752010e-03
3.733356492718e-03
5.550112872523e-03
3.071330919958e-03
3.165660564610e-03
2.415063932661e-03
5.310812901883e-03
5.569340241546e-03
4.247537830652e-03
4.096212274891e-03
4.376310335557e-03
2.295285634796e-03
1.760148970824e-03
5.307204263575e-03
2.597022010623e-03
2.677083653507e-03
2.361042937549e-03
2.540509620076e-03
3.590752619766e-03
3.561980325172e-03
4.687546968051e-03
4.862462070621e-03
4.404636295064e-03
2.304172143242e-03
2.399216396593e-03
1.964677543140e-03
5.518361070662e-03
5.664420780412e-03
2.775557848670e-03
2.950132041529e-03
2.770175388850e-03
5.630497223971e-03
4.810959073252e-03
4.708255592783e-03
1.439105625328e-03
1.764440458605e-03
2.782344288704e-03
2.711314613078e-03
5.598196232205e-03
5.483018715217e-03
5.749000539319e-03
1.876891076347e-03
3.340823531716e-03
3.019076182411e-03
2.638636300015e-03
3.496239648933e-03
3.233921457243e-03
3.509435497577e-03
4.060457021751e-03
9.830298147039e-05
5.472024458089e-03
4.113394862956e-03
0.0
3.974022231900e-03
4.142147385999e-03
3.808811843470e-03
1.512139063608e-03
4.035840610883e-03
4.228908811524e-03
1.229665042051e-03
5.727754258707e-03
1.213722886229e-03
1.289130077108e-03
4.190343840825e-03
4.208177283858e-03
4.453725484854e-03
4.415818037714e-03
4.236650972425e-03
4.433395698974e-03
3.960847876624e-03
4.646929544121e-03
4.602784854752e-03
4.854292446809e-03
3.246379902709e-03
2.751258169961e-03
2.634703286177e-03
2.390161293581e-03
5.366413333148e-03
5.305369359066e-03
4.571502884887e-03
4.361148070353e-03
3.986570332512e-03
3.958169901241e-03
4.225562744729e-03
4.178369498049e-03
4.446132963819e-03
4.399693690965e-03
4.649688467265e-03
4.553994310106e-03
2.395247212063e-03
3.489844342941e-03
2.935834930029e-03
2.507685734422e-03
3.320342588166e-03
3.002197588997e-03
3.920773109245e-03
3.240450602112e-03
5.870937815019e-03
0.0
3.323452107101e-04
3.218749665587e-03
3.600131537244e-03
2.907036869022e-03
2.836905823125e-03
2.270773315379e-03
1.834790987996e-03
2.673096930044e-03
4.690114924130e-03
2.348836148975e-03
4.492676789655e-03
3.205482778443e-03
3.817317219374e-03
2.948492527326e-03
2.849084286571e-03
4.354187352303e-03
4.105094102283e-03
3.949385469094e-03
3.043885708512e-03
3.025811206364e-03
2.606730506197e-03
4.199509327046e-03
5.239720060421e-03
5.342311723545e-03
5.568723597318e-03
5.436074129988e-03
5.195127512814e-03
5.275945829576e-03
5.522846822361e-03
5.362101483362e-03
5.654790167380e-03
5.418798555265e-03
5.183358795615e-03
5.228039527145e-03
5.462723589554e-03
5.010149217662e-03
3.394314338742e-03
3.254416177728e-03
3.998143781563e-04
1.780285334436e-03
3.960367887196e-03
5.943039136803e-03
5.959345631699e-03
3.141346465330e-03
5.620347987340e-03
4.084459886071e-03
2.498622170437e-03
5.268940025094e-03
5.099701809653e-03
4.951938385870e-03
4.853275658762e-03
5.939990338712e-03
4.510478805277e-03
4.274617599746e-03
1.914060081792e-03
2.484209945367e-03
2.639018446471e-03
5.114013007791e-03
3.400229055208e-03
2.914794698409e-03
2.950236209628e-03
2.471629201444e-03
3.451405133461e-03
5.898428211788e-03
5.845499826008e-03
3.178797580669e-03
2.960279401288e-03
2.804058035340e-03
2.729987471253e-03
2.829725808593e-03
2.578048860295e-03
2.561856093753e-03
2.441038645177e-03
5.056780879738e-03
3.797514540817e-03
3.350528560522e-03
3.070190277767e-03
2.914035417259e-03
3.410817836896e-03
3.523130452731e-03
3.651707279838e-03
3.259955241283e-03
3.906281668705e-03
3.999951674760e-03
1.514180247365e-03
3.455226154399e-03
3.780489020667e-03
4.041242521720e-03
4.062468817485e-03
4.304541709678e-03
4.049230948442e-03
3.629888373411e-03
3.687995609435e-03
3.556481715217e-03
3.766062809759e-03
3.630392003192e-03
3.425625743275e-03
3.859887208052e-03
3.712754465682e-03
3.753295504860e-03
5.944650398121e-04
2.225590346816e-03
2.127823725117e-03
2.979469021594e-03
2.824219377905e-03
3.230470095965e-03
3.141720754719e-03
1.550829825203e-03
7.467435189644e-04
1.647650571366e-03
6.781160949691e-04
1.418844655901e-03
2.293180220520e-03
2.042650195457e-03
4.943618431220e-03
3.031335723016e-03
2.945155604069e-03
2.688743593994e-03
2.875725181900e-03
3.142994710358e-03
2.523324995075e-03
2.457510238830e-03
1.510421340239e-03
1.007815092101e-03
1.077602730068e-03
9.323160320548e-04
9.716390507349e-04
1.014619391924e-03
1.008787792094e-03
1.356424777816e-03
1.016122513265e-03
1.104929402575e-03
1.269761046994e-03
4.987755442147e-03
5.116267723268e-03
4.373987183766e-03
3.768398534654e-03
7.723067608076e-04
5.801414033109e-03
5.849888523554e-03
5.842497446698e-03
4.794097655678e-03
4.842845514710e-03
5.795857190058e-03
2.602280117318e-03
5.684608119029e-03
5.426766964233e-03
2.915293754372e-03
2.687040126660e-03
4.231633519162e-03
3.882386612765e-03
4.556515040671e-03
3.998756045770e-03
4.293387971553e-03
3.074535552154e-03
1.408470089399e-03
4.539066931421e-03
4.423048734156e-03
5.069081138623e-03
2.521812465648e-03
3.361884437641e-03
1.678049688451e-03
5.074061553586e-03
3.958676471230e-03
3.095099427902e-03
3.226856089265e-03
2.810734054587e-03
2.838974017310e-03
3.275246495708e-03
3.484344474013e-03
3.705978157807e-03
5.196157012198e-03
1.018518931270e-03
3.521375643282e-03
3.706077620756e-03
4.658000838490e-03
1.709680317594e-03
3.305261692782e-03
5.177694957922e-03
5.612493104205e-03
4.353675085413e-03
1.412398444283e-03
4.259060800003e-03
3.477784717748e-03
5.132413977016e-03
2.272689532028e-03
1.816489196477e-03
3.846604393139e-03
3.494167407997e-03
5.528278511332e-03
3.146089818610e-03
1.957139825605e-03
1.112448474457e-03
2.360079505855e-03
4.023485214536e-03
2.432815649017e-03
5.414327495685e-03
4.449676466395e-03
2.421354826549e-03
5.279237453520e-03
2.481134471885e-03
2.154599998102e-03
3.850201562972e-03
4.337013816297e-03
4.689567346140e-03
3.889632788579e-03
4.106706360112e-03
3.777078850776e-03
2.080073589128e-03
3.024091218619e-03
4.636084587167e-03
4.310138882828e-03
5.639613987774e-03
3.640972516568e-03
4.095996415080e-03
5.509310551577e-03
3.587895264237e-03
1.596224348258e-03
2.654907617398e-03
2.518196502036e-03
2.963465931010e-03
3.699806971781e-03
5.746687556824e-03
4.270512341206e-03
2.658558888212e-03
1.483151969506e-03
3.642720607827e-03
4.434127154033e-03
1.755325851135e-03
2.085706409627e-03
3.490851329931e-03
4.839928513279e-03
3.143753996542e-03
4.591157827227e-03
1.995758212990e-03
3.213796841356e-03
3.698867822439e-03
4.783484472751e-03
2.274372036269e-03
3.942041855717e-03
2.018129477521e-03
3.179171001688e-03
3.766024258519e-03
4.461967294443e-03
5.932012927013e-03
2.263421662545e-03
4.710985723029e-03
3.694491554536e-03
2.635139483983e-03
1.025903351167e-03
3.364049018946e-03
3.741140459926e-03
2.496086040746e-03
2.247981960543e-03
3.447314890979e-03
3.806063609485e-03
2.443637327429e-03
3.889607978100e-03
2.932212877137e-03
4.809565923031e-03
3.991122142150e-03
4.535682597544e-03
1.253579093275e-03
3.692076032167e-03
4.710605835282e-03
2.989317964917e-03
2.692080032987e-03
5.041460301469e-03
2.649271473601e-03
2.763935828314e-03
4.635607043239e-03
3.377136231024e-03
2.886852932384e-03
2.656221383019e-03
2.841982051278e-03
2.546121946089e-03
2.280710634061e-03
2.448224017802e-03
4.844932991548e-03
1.159538546380e-03
4.958406181658e-03
2.170695742773e-03
2.635116820677e-03
3.060192089563e-03
4.490482294088e-03
2.676098572190e-03
1.933023820066e-03
2.768539009112e-03
2.773761821372e-03
2.620450107336e-03
2.685714993396e-03
5.648300186419e-03
2.938653539912e-03
5.823614188445e-03
4.963188208300e-03
3.932121989893e-03
2.324149862710e-03
0.0
2.514548860694e-03
2.801591293186e-03
4.851561224056e-03
3.937231005468e-03
2.729494295403e-03
5.675085357911e-03
4.803426685540e-03
4.862248751244e-03
2.171293786245e-03
3.009255413908e-03
5.428982077181e-03
3.693412385959e-03
1.283308417236e-03
4.241990484630e-03
2.118254558368e-03
2.377043969348e-03
2.382468483149e-03
2.413239708947e-03
2.697664909012e-03
2.126804265286e-03
2.932528478253e-03
3.975655703172e-03
3.423996743188e-03
2.040734890307e-03
5.723862858495e-03
4.029709976472e-03
4.729446121623e-03
3.643538952676e-03
2.324384274866e-03
4.240145590125e-03
5.248251932663e-03
5.065638731077e-03
4.865415511008e-03
3.950525462167e-03
5.659251463191e-03
2.734727135404e-03
5.648629554702e-03
5.043134290996e-03
4.301884988432e-03
4.260018092810e-03
4.871863521837e-03
5.738997361023e-03
2.142169266280e-03
4.855264715639e-03
2.941329875457e-03
4.982839675412e-04
4.155649936064e-03
5.251942821196e-03
4.831609780295e-03
9.013000089023e-04
1.077083856090e-03
3.817677234665e-03
5.571067232882e-03
3.300048357497e-03
5.920327576545e-03
7.577862853330e-04
3.663422898644e-03
1.060195543772e-03
4.951255767581e-03
5.712619248511e-03
3.070814862917e-03
3.822820158157e-03
2.186156026243e-03
4.538463984820e-03
1.851321241038e-03
5.716697476405e-03
3.395600169627e-03
5.810236312995e-03
3.850312672382e-03
0.0
4.395921499424e-03
2.651166453379e-03
3.693193394849e-03
5.779881690989e-03
2.632058365002e-03
1.305216945228e-03
5.834411797515e-03
1.794472957361e-03
3.663155821034e-03
4.974463401011e-03
1.126337765141e-03
4.139350774126e-03
5.652422135997e-03
3.542221846802e-03
5.289169342971e-03
3.063748398770e-03
0.0
4.627165150353e-03
3.844266386451e-03
5.798941796910e-03
4.453871606854e-03
2.441774290393e-03
5.465528199286e-03
3.248665564556e-03
4.976193501889e-03
2.571640358639e-03
9.923177928698e-04
3.751244995352e-03
1.075195837059e-03
4.615840899057e-03
3.326084611542e-03
2.087628460925e-03
1.933797938159e-03
2.408370959842e-03
2.324628182171e-03
2.687439418484e-03
2.614478323154e-03
2.992334186830e-03
2.991431796678e-03
3.343927869160e-03
3.270124677663e-03

SCALARS node_materi_plasti_phimob float
LOOKUP_TABLE default
-4.963543210827e+01
9.252016508941e+00
2.063370912496e+01
1.942637972983e+01
-3.040443805979e+01
-3.249869745818e+00
9.519121248729e+00
1.303318737635e+01
1.271184920705e+01
1.450624921913e+01
1.581110329800e+01
1.680586560830e+01
1.758328955080e+01
1.822234195737e+01
1.876626107751e+01
1.916405545963e+01
1.945629440926e+01
1.975134691035e+01
2.028643491748e+01
2.077172357448e+01
2.079198796500e+01
2.076166140697e+01
2.070363892171e+01
1.945521332739e+01
1.945023183979e+01
1.946033936407e+01
1.947224339869e+01
1.946734394900e+01
1.949341698074e+01
1.950728221161e+01
1.954352273740e+01
1.958463209850e+01
1.962863888358e+01
1.965687704449e+01
1.972756340813e+01
1.978927885051e+01
1.987357595344e+01
1.993820405249e+01
2.002789205800e+01
2.011645878097e+01
2.021627126392e+01
2.038040792366e+01
2.052860699305e+01
2.065450207198e+01
2.073553902849e+01
2.084655518068e+01
2.092168484929e+01
2.097525151437e+01
2.100370730535e+01
2.104036096910e+01
2.103230863202e+01
2.103660608398e+01
2.099758606124e+01
2.100493134301e+01
2.098609930618e+01
2.095093064850e+01
2.092410780251e+01
2.089744982973e+01
2.086285000654e+01
2.083829877138e+01
2.081034790366e+01
2.078602484785e+01
2.076727768717e+01
2.073389997358e+01
2.069799855193e+01
2.067799943858e+01
2.070100699853e+01
2.064727701927e+01
2.065363475131e+01
2.063782707643e+01
2.063235657995e+01
2.063434985435e+01
1.165675786138e+01
1.344076548310e+01
1.477987399144e+01
1.583021032462e+01
1.671813767821e+01
1.744961218425e+01
1.808873690793e+01
1.864322329249e+01
1.913096714927e+01
1.869967924019e+01
8.918314455611e+00
3.347010662671e+01
2.778945221383e+01
2.628436000723e+01
2.467922218943e+01
1.141790934373e+01
-2.838352196050e+00
-4.592317583038e-01
2.453230933258e+00
5.945281845618e+00
-3.603617632483e+01
-2.767996426457e+01
-1.089565288363e+01
-2.096760947233e-01
5.516682585572e+00
8.806816772913e+00
8.939194977343e+00
8.930872387744e+00
8.867255974216e+00
9.171978960383e+00
8.809201314028e+00
8.710057522014e+00
8.679092037466e+00
8.670888230559e+00
8.594450799404e+00
8.517205305042e+00
8.476862050292e+00
8.491582860954e+00
8.608536665179e+00
1.003056413841e+01
8.597300627953e+00
9.276920752046e+00
1.022717952328e+01
1.126555314442e+01
1.945502769126e+00
-2.471035301471e+01
-3.927828174308e+01
-4.569404387362e+01
-4.767836981484e+01
-4.812688521098e+01
-4.801585846962e+01
-4.890745516727e+01
-5.003540568747e+01
-5.071677138341e+01
-5.128548077666e+01
-5.153408614754e+01
-5.137228387785e+01
-5.135645967104e+01
-1.270165455031e+01
-2.827700957765e+01
-3.947234004647e+01
-4.544608230449e+01
-4.771038628328e+01
-4.856159982119e+01
-4.880780032483e+01
-4.876565212397e+01
-4.833928163262e+01
-4.712948478754e+01
-4.504853917344e+01
-4.308174416647e+01
-4.140828733055e+01
-4.002093721013e+01
-3.890089927310e+01
-3.803068889669e+01
-3.738389469869e+01
-3.693718193195e+01
-3.667472118419e+01
-3.658953658838e+01
-3.645003245394e+01
-3.613331713127e+01
-2.707549814646e+01
-2.761088969301e+01
-2.770265530614e+01
-2.772434192597e+01
-2.776325250087e+01
-2.783404612285e+01
-2.794938091733e+01
-2.811704001200e+01
-2.833304576829e+01
-2.859434350007e+01
-2.889044259960e+01
-2.919050883621e+01
-2.935388727009e+01
-2.912075547491e+01
-2.884743520007e+01
-2.823660074483e+01
-2.709419936737e+01
-2.494891708277e+01
-1.935036326391e+01
-1.575075935203e+01
-5.703390941878e+00
-6.437229660353e+00
-8.739754092061e+00
-9.883870192158e+00
-1.052415310514e+01
-1.098812407116e+01
-1.130169671554e+01
-1.149535245966e+01
-1.161654329915e+01
-1.170703842831e+01
-1.176818530296e+01
-1.179920021800e+01
-1.182319066952e+01
-1.184349304493e+01
-1.185429105228e+01
-1.186665620770e+01
-1.185769341280e+01
-1.161442710835e+01
-1.088727169600e+01
-4.652968118053e-01
-5.431310573742e-01
-5.658272842038e-01
-5.767709781794e-01
-6.036990261096e-01
-6.297464491570e-01
-6.590852913032e-01
-7.061149520308e-01
-7.593132628924e-01
-7.680794075651e-01
-7.700287787368e-01
-7.697617912546e-01
-7.258533165157e-01
-6.193178087440e-01
-3.005946784763e-01
6.545205616383e-01
2.918365746372e-01
4.956292013946e+00
5.423913294087e+00
5.019773441384e+00
4.949780231550e+00
4.961350534903e+00
4.999479784773e+00
5.032167565545e+00
5.099252999516e+00
5.177604926488e+00
5.234970801206e+00
5.280351606985e+00
5.319481542510e+00
5.360630397654e+00
5.374813177505e+00
5.468675878271e+00
5.626122849889e+00
3.499586537224e+01
3.001239318997e+01
2.688624188953e+01
2.532179300665e+01
2.377940995116e+01
3.456167998404e+00
-3.267890605754e-01
1.417592866967e+00
4.694804680595e+00
7.743391962114e+00
2.669765664937e+01
2.124135661157e+01
-3.443175014502e+01
1.319740912933e+01
2.106792028738e+01
2.214467411739e+01
1.853629245373e+01
2.125163055186e+01
6.874421917899e+00
2.101489862215e+01
6.385783055565e+00
2.083353101713e+01
-3.791042111460e+01
2.042728966473e+01
1.023767249993e+01
1.529950827856e+01
1.958007164599e+01
1.986869025331e+01
1.952239453197e+01
1.925620104899e+01
1.923915376517e+01
1.938703957938e+01
1.087891604839e+01
1.096164065419e+01
1.125512599091e+01
1.629453374401e+01
2.074692762404e+01
1.080557751754e+01
-3.661985503333e+01
2.080172483461e+01
1.117926523575e+01
1.180104339954e+01
1.957491119468e+01
2.116386887079e+01
2.076242492341e+01
2.130629518112e+01
2.117467913054e+01
-1.866725570507e+00
1.079164594916e+01
2.100868111404e+01
1.777583896854e+01
-3.730537093789e+01
1.725231218534e+01
1.931258555368e+01
1.706936664832e+01
2.420491825329e+01
6.122162931226e+00
8.223272785280e+00
3.208310693325e+01
1.424126916453e+01
2.070060729084e+01
-3.770519078256e+01
1.886991225355e+01
1.110209128425e+01
1.213375436109e+01
1.278551479054e+01
1.378459208633e+01
1.436147054874e+01
1.508180525246e+01
1.461484864654e+01
1.576345307633e+01
1.541118313278e+01
1.554110830316e+01
1.641791787650e+01
1.616384983412e+01
1.703489846557e+01
1.686481043169e+01
1.598665245971e+01
1.676309130884e+01
1.590900445751e+01
1.676201029462e+01
1.745645375485e+01
1.750441221858e+01
1.687900200979e+01
1.767259314076e+01
1.713026401161e+01
1.797254103150e+01
1.743904753867e+01
1.823386879908e+01
1.899600991383e+01
1.941401066059e+01
1.866234940191e+01
2.008415644416e+01
1.961130819786e+01
2.100711713061e+01
2.134056327971e+01
2.206721058227e+01
2.188412444657e+01
2.274554201340e+01
2.269641181792e+01
2.343077436287e+01
2.337613786249e+01
2.393678770414e+01
2.400453752007e+01
2.435195512823e+01
2.423264399843e+01
2.446024285708e+01
2.462411525506e+01
2.454993267597e+01
2.472713175989e+01
2.450843200532e+01
2.427543466233e+01
2.407468152249e+01
2.428890190315e+01
2.373240783535e+01
2.346867330345e+01
2.304675362596e+01
2.333423378242e+01
2.254778790279e+01
2.228980044621e+01
2.158417294177e+01
2.175572552999e+01
2.072682263670e+01
2.038676523316e+01
1.961301651672e+01
2.009910609725e+01
1.903793767262e+01
1.967631506347e+01
1.847826683795e+01
1.836465373039e+01
1.777085820382e+01
1.806042004942e+01
2.236018194594e+01
1.735830598601e+01
1.704453891977e+01
1.771947582097e+01
1.841648477718e+01
1.687550457171e+01
1.732700431840e+01
1.633204554276e+01
2.265170940297e+01
1.806844644303e+01
1.687654380538e+01
1.570150054500e+01
1.498186031543e+01
1.406594442513e+01
1.492854450971e+01
1.600612994740e+01
1.544188759146e+01
1.644891471413e+01
1.597425096991e+01
1.495234528879e+01
1.725492636499e+01
1.690640775517e+01
1.618472541174e+01
1.812928631394e+01
2.469310287320e+01
1.777181641475e+01
1.739046286458e+01
1.809363052047e+01
2.067092552907e+01
2.043458051360e+01
2.142191016728e+01
2.127328091554e+01
2.209809551305e+01
2.189734405544e+01
2.116825515701e+01
2.171535005865e+01
2.108841372317e+01
2.226873902635e+01
2.256074503680e+01
2.155038293729e+01
2.103911309657e+01
2.139732462705e+01
2.101469072293e+01
2.037584264198e+01
2.041913366196e+01
1.983887291708e+01
2.475006598629e+01
2.463336912497e+01
2.460032425902e+01
2.431666443267e+01
2.403291248922e+01
2.359748045872e+01
2.334876053656e+01
2.366743899287e+01
1.761028703501e+01
2.434893786849e+01
2.417923546039e+01
2.429515079714e+01
2.410081074711e+01
2.425350196797e+01
2.395518268728e+01
2.417029175320e+01
2.418202361687e+01
2.413972994170e+01
2.379723940101e+01
2.394909908626e+01
2.307027473770e+01
2.020060797727e+01
2.384120868047e+01
2.311315492183e+01
2.321853217990e+01
1.301115240515e+01
2.100210008869e+01
2.243015083164e+01
2.276129565393e+01
2.310303728641e+01
1.283888924448e+01
2.376892167830e+01
2.336705496472e+01
1.687186612588e+01
1.645287979507e+01
2.246636520181e+01
1.382306955616e+01
2.176865476196e+01
2.433093791658e+01
2.049710769103e+01
2.097809815374e+01
2.038587306054e+01
2.264968876496e+01
2.266311561971e+01
2.319416760397e+01
2.204169657089e+01
2.174863548427e+01
2.021128267125e+01
2.101090161871e+01
1.908724704313e+01
1.803825601391e+01
1.714589517288e+01
1.824749515672e+01
1.638472288259e+01
1.499734570940e+01
1.449803997524e+01
2.111988801051e+01
2.452212295302e+01
1.495126956149e+01
2.216254310746e+01
2.279495460374e+01
1.727391879820e+01
1.690389215856e+01
1.602257609300e+01
1.652794932761e+01
1.733075330251e+01
1.699109273961e+01
1.613782361343e+01
1.663565308873e+01
1.572080027624e+01
1.626249080949e+01
1.708982259302e+01
1.675475434468e+01
1.587204886519e+01
1.639932592572e+01
1.544882120978e+01
1.600905027800e+01
1.687387323293e+01
1.172247368506e+01
2.334950256325e+01
2.284528712295e+01
1.763042977798e+01
1.815119225108e+01
1.859084237412e+01
1.860190727185e+01
1.651339734134e+01
1.730973121648e+01
2.305106674072e+01
2.258329691397e+01
1.763808360367e+01
2.060662252692e+01
1.995314796483e+01
1.933118889518e+01
1.768911355198e+01
1.918485413383e+01
1.736927750027e+01
1.627943709153e+01
1.919821421007e+01
2.288019266493e+01
1.750893683286e+01
1.417400930199e+01
1.173129715762e+01
2.094344866325e+01
2.387001379427e+01
1.969444452092e+01
2.065108133204e+01
2.008205070342e+01
2.076998866393e+01
2.027280575793e+01
2.082501633686e+01
2.128388604362e+01
2.223172417943e+01
2.122779352927e+01
1.555869194095e+01
2.387855478853e+01
1.776082674119e+01
9.790903725331e+00
1.194201791957e+01
1.246298504548e+01
1.442382227523e+01
2.212093779679e+01
2.045304252072e+01
1.988007761214e+01
1.548661305136e+01
1.498249195102e+01
2.220156163572e+01
1.489124962423e+01
1.512318157125e+01
1.462089915392e+01
1.038973067306e+01
1.263595149269e+01
1.772540122331e+01
2.296474445887e+01
2.210781951079e+01
2.501157795164e+01
2.569449856785e+01
1.695607965957e+01
1.767677905081e+01
1.894188833825e+01
1.898911780336e+01
2.241304925339e+01
1.213363731532e+01
1.797686229196e+01
2.349498891680e+01
2.388675143224e+01
1.818074707093e+01
2.215838909554e+01
2.269109064805e+01
1.965065847715e+01
1.444906561191e+01
1.314070943837e+01
2.201415869762e+01
1.802158954585e+01
2.162712070344e+01
2.181747775409e+01
2.145588702141e+01
8.007934937613e+00
2.184468317793e+01
2.073309429340e+01
2.016967775807e+01
1.959966162256e+01
2.248900623789e+01
2.157435055165e+01
2.111290683503e+01
2.036816418198e+01
1.420026797338e+01
2.178806151710e+01
1.490618875019e+01
1.368758487050e+01
1.365565861315e+01
1.606602423377e+01
1.478190623661e+01
2.380896654851e+01
2.444101860065e+01
1.893495802302e+01
1.981210350189e+01
2.165705795895e+01
1.780004349597e+01
1.816581712736e+01
1.480903369169e+01
1.426760813573e+01
9.698341862291e+00
7.523559825099e+00
1.960542051630e+01
2.188383422578e+01
1.798031093090e+01
1.830444706792e+01
1.799086188052e+01
2.228615296781e+01
2.426000675076e+01
2.462162600897e+01
2.399994744393e+01
2.176548308330e+01
3.693563581732e+00
1.807168066126e+01
2.086940442373e+01
2.090320538851e+01
2.188201774439e+01
1.149306241080e+01
2.255362592491e+01
2.311551969095e+01
1.205725697644e+01
1.202203639709e+01
1.386091139627e+01
1.238806422827e+01
1.926474157478e+01
1.748768348562e+01
2.063176784797e+01
2.118055740986e+01
2.001771570358e+01
1.946441281944e+01
2.181239708379e+01
2.212590846265e+01
1.478680363197e+01
1.328310660164e+01
1.835556880520e+01
1.231021898148e+01
2.157597608465e+01
2.162593975708e+01
2.410102537716e+01
2.210045778240e+01
1.830699799852e+01
1.996611216817e+01
1.878450756543e+01
2.080502600720e+01
2.072383055005e+01
1.117027878967e+01
2.081480723402e+01
1.582518244812e+01
1.856457986402e+01
2.302976587039e+01
2.082590809442e+01
2.271942237757e+01
1.798986361078e+01
1.863165027678e+01
1.387633840648e+01
1.321112480700e+01
1.442008220001e+01
2.412740379464e+01
2.479702053751e+01
1.789203565248e+01
1.677211782284e+01
1.698609385435e+01
1.265707314652e+01
1.475101090543e+01
1.924116770705e+01
1.920039073651e+01
1.857717157566e+01
1.859823302571e+01
1.917693083399e+01
2.349191268611e+01
2.357403566013e+01
2.407086360843e+01
1.842035075662e+01
1.879006216775e+01
2.071797713022e+01
2.119776876218e+01
1.857310400367e+01
1.862549411781e+01
2.083594762674e+01
2.092634348741e+01
-3.802369364505e-01
4.891122390893e+00
2.214847850696e+01
2.303472453797e+01
1.861518966418e+01
1.834319741806e+01
1.892851892391e+01
1.372223582883e+01
2.208416547256e+01
2.184837611146e+01
2.213946829160e+01
2.155046636315e+01
2.188238679998e+01
2.161443394769e+01
2.130354521910e+01
2.070880900293e+01
1.844486286454e+01
1.340670325018e+01
1.611797879077e+01
1.273053474136e+01
1.367143342098e+01
1.183543832232e+01
1.264819743431e+01
1.273619653881e+01
1.366178801013e+01
-1.004598983748e+01
1.892336774266e+01
-8.094033342912e+00
-1.709750464719e+00
2.134716619482e+01
2.139826503476e+01
2.115615492150e+01
2.120038708208e+01
2.139170972191e+01
2.120344557439e+01
1.245227360589e+01
2.099893530341e+01
2.102939740479e+01
2.089199508213e+01
9.718373360129e+00
1.907386308237e+01
1.696216913127e+01
1.764212440368e+01
2.001356050346e+01
1.946245168097e+01
2.080549526937e+01
2.034349754453e+01
1.289949897903e+01
1.285393080320e+01
1.419658135048e+01
1.405502964510e+01
1.516912834110e+01
1.501965917862e+01
1.597700646562e+01
2.110883286435e+01
2.051770555437e+01
1.022458854453e+01
2.172690187422e+01
2.204134687742e+01
1.290771017276e+01
1.058144050843e+01
2.144242195127e+01
2.264088040043e+01
1.926353033794e+01
1.632816493852e+01
2.229081646233e+01
2.180361509052e+01
1.436409567010e+01
1.718694387869e+01
1.498251342714e+01
2.314162971043e+01
2.193347574992e+00
2.141597220757e+01
1.605381300577e+01
2.225185095110e+01
2.059509455139e+01
2.331702407613e+01
1.685006168526e+01
2.167456307020e+01
2.081399150811e+01
1.512936830839e+01
1.322239488349e+01
1.272935745100e+01
2.384731510655e+01
1.362291903463e+01
1.205355744712e+01
1.597040429955e+01
1.767436183985e+01
1.806288585661e+01
1.866774927492e+01
1.843466614217e+01
1.778868491024e+01
1.819929194158e+01
1.879277917611e+01
1.860180575582e+01
1.922124980541e+01
1.897862040508e+01
1.841696531580e+01
1.880959433103e+01
1.927248241255e+01
1.825175635913e+01
2.144500240406e+01
2.180417364667e+01
2.493794441916e+01
2.546637177532e+01
1.656623787184e+01
1.973337655846e+01
1.956433656828e+01
2.365467443798e+01
2.058295062470e+01
1.388359683649e+01
2.406931646041e+01
2.089168662586e+01
1.735173542298e+01
1.702629821726e+01
1.652116374618e+01
1.946798425233e+01
1.497338709949e+01
2.119298421110e+01
2.435624605418e+01
2.407575941119e+01
2.404101552880e+01
1.797548737836e+01
2.126744986663e+01
2.165747601621e+01
2.163799297691e+01
2.209028686184e+01
2.122364569989e+01
2.008885786128e+01
2.028130028925e+01
2.025416389968e+01
2.175536992426e+01
2.233965582589e+01
2.286806915248e+01
2.244157172708e+01
2.341356389860e+01
2.359549308346e+01
2.389934033866e+01
1.904842579227e+01
2.114429447224e+01
2.231307662879e+01
2.256281880865e+01
2.206564826936e+01
1.875482731613e+01
1.900348996073e+01
1.942673648768e+01
1.846508660868e+01
2.135578148388e+01
2.109918427820e+01
2.433278597862e+01
1.867127850158e+01
1.082050020124e+01
1.254613509458e+01
1.262056313041e+01
1.403371473854e+01
1.267517063490e+01
1.926522223315e+01
1.932455316770e+01
1.907068785415e+01
1.940224760521e+01
1.916227388107e+01
1.880614210230e+01
1.948412332051e+01
1.925521412990e+01
1.084112217050e+01
1.367202290152e+01
1.338542330494e+01
4.708908827239e+00
1.334001693857e+01
1.743864810223e+01
1.665028632683e+01
1.945393646723e+01
2.007099541714e+01
-1.780244782961e+01
-3.060058446114e+00
-2.822633566589e+01
-8.451719840540e+00
6.008167702675e+00
1.040960450498e+01
2.074313746540e+01
1.793788096567e+01
1.770096744903e+01
1.697203306883e+01
1.752114828696e+01
1.822786183911e+01
1.639859447258e+01
1.613860996306e+01
-3.665403852546e+01
-1.035612450831e+01
-1.239447204951e+01
4.356833293622e+00
3.964832503281e+00
-1.016034385889e+01
-1.024799635226e+01
-3.679305896066e+01
-1.100155346530e+01
3.304089742158e+00
-3.756423548964e+01
1.710452649622e+01
1.749964747321e+01
2.103344538586e+01
1.118680677201e+01
-3.679126570067e+01
1.916835702533e+01
1.926434350565e+01
1.926198111901e+01
2.078078564601e+01
2.076535194298e+01
1.918393982235e+01
1.575935069711e+01
1.897389348354e+01
1.824373113696e+01
2.353081538138e+01
1.594385593822e+01
2.010011403919e+01
2.036657122770e+01
2.100519793563e+01
1.988422104890e+01
2.125446408365e+01
2.165928126477e+01
1.238792332752e+01
1.527627221119e+01
1.496980671613e+01
1.720122669164e+01
1.636222499534e+01
1.869128009549e+01
1.153123481358e+01
2.064027773278e+01
1.502547075963e+01
2.110868729296e+01
1.811744717037e+01
1.644524827666e+01
1.603654314051e+01
2.083952828636e+01
1.895618716364e+01
2.200549362738e+01
1.761004061054e+01
-3.395994078633e+01
2.212857757988e+01
2.037259871424e+01
1.558753497576e+01
2.297121053696e+01
1.572151101486e+01
1.741328927179e+01
1.858755686190e+01
1.429437317244e+01
7.072288258240e+00
1.406427668801e+01
2.172209765610e+01
1.727782455619e+01
1.557405453034e+01
2.465323563191e+01
1.763035994050e+01
9.217925952610e+00
1.848998386574e+01
2.289704015485e+01
2.259710655592e+01
2.429393749032e+01
1.590888755418e+01
2.161295551903e+01
2.443510374064e+01
1.808613424460e+01
1.956284138040e+01
2.436472494219e+01
1.765698004357e+01
2.273105106401e+01
2.257879039083e+01
1.537719265527e+01
1.857127701232e+01
1.750213394885e+01
2.072608804719e+01
1.978688317839e+01
2.185808465836e+01
2.333156623922e+01
2.086265688888e+01
1.548042384916e+01
2.089510864030e+01
1.866801393452e+01
1.702741399381e+01
2.154617262788e+01
1.830738874839e+01
1.921421486334e+01
1.255158495783e+01
2.350122496824e+01
2.423688403320e+01
2.347822866469e+01
1.973142240066e+01
1.899136484706e+01
2.134500584527e+01
2.279163102190e+01
2.943287319640e+01
1.081203767199e+01
2.117232126840e+01
2.441884822217e+01
2.246908451688e+01
1.889096459220e+01
2.086203697959e+01
1.009838053427e+01
2.104229405527e+01
2.304308428075e+01
2.324165359019e+01
1.121262570173e+01
2.089861178688e+01
2.256862976645e+01
2.122668838552e+01
2.398049383474e+01
7.195733295380e+00
1.981413899612e+01
1.823475183750e+01
1.942966874639e+01
2.235707471372e+01
1.613009980365e+01
1.949596518888e+01
2.324242000413e+01
3.619707748953e+00
9.789219828122e+00
1.950874895020e+01
2.397244065800e+01
2.349942221557e+01
2.158267057276e+01
1.955250655375e+01
2.409348892078e+01
1.961302360193e+01
5.909331403319e+00
1.670970918470e+01
1.968158952122e+01
1.874903466900e+01
3.004531824052e+00
2.195015680343e+01
2.081233903758e+01
1.786563213162e+01
2.293252114837e+01
1.751582611779e+01
6.108053471983e+00
2.320942619383e+01
1.918748454868e+01
2.239964833562e+01
2.358121955354e+01
2.312020459368e+01
1.097521695016e+01
1.519799022735e+01
1.335846330445e+01
2.382577544221e+01
1.903330962699e+01
1.151618509001e+01
1.777384450465e+01
9.100808611129e+00
2.318912116565e+01
2.219862409166e+01
1.538371955827e+01
2.270758606033e+01
1.382745995354e+01
2.179883954866e+01
2.363270722402e+01
2.128192176359e+01
2.004906251812e+01
1.879647298444e+01
1.911581334041e+01
1.924431344062e+01
2.070002935519e+01
1.271345807383e+01
9.294439054971e+00
1.021004714814e+01
1.501456547564e+01
1.705497663207e+01
1.813195672237e+01
1.276642061905e+01
1.609468339720e+01
1.948825456597e+01
2.109746609137e+01
1.671745089624e+01
2.230776309160e+01
2.260906563805e+01
1.833427366107e+01
1.095089557047e+01
-1.158689909015e+01
1.997110149302e+01
2.243991119579e+01
1.943137749883e+01
2.145310102423e+01
1.603852816497e+01
9.305791706306e+00
2.316831306059e+01
2.165659295343e+01
1.250097484322e+01
2.180450395258e+01
2.516602511642e+01
1.887707123370e+01
2.137169024040e+01
2.090119103179e+01
2.157828188243e+01
2.375055418199e+01
1.374465684288e+01
2.041576161491e+01
1.729776592873e+01
2.079055182357e+01
1.219695050498e+01
1.886861427090e+01
2.193503590057e+01
1.887879260541e+01
1.867838921985e+01
1.447536706594e+01
1.378387438793e+01
2.074770365615e+01
1.925364731613e+01
2.586407693476e+01
1.665065964846e+01
1.772710125324e+01
1.964846898084e+01
2.128948070230e+01
1.913651805350e+01
2.083639798989e+01
4.376624067997e+00
-1.495033372947e+01
2.139965225396e+01
1.986097762530e+01
1.939220432767e+01
1.939672174772e+01
2.791734446944e+01
1.059795333735e+01
-1.325511254342e+01
2.075027373648e+01
1.889502147105e+01
1.803435578217e+01
1.101316408180e+01
1.502501369753e+01
2.096237661692e+01
1.232011418838e+00
1.894106561188e+01
2.150217917971e+01
1.909794108537e+01
2.119410424198e+01
1.737938872786e+01
2.123066725971e+01
2.198584096677e+01
1.099332516918e+01
1.913966668260e+01
1.678717744494e+01
9.246318865241e+00
1.929426104907e+01
-4.141520614825e+01
1.097412748728e+01
2.067332973156e+01
1.044512160048e+01
1.384440163820e+01
1.970258159244e+01
1.898806467528e+01
1.799762074250e+01
1.402736720915e+01
1.035078498945e+01
1.590660393859e+01
2.142437160124e+01
1.904866972991e+01
1.514802786030e+01
2.390908624515e+01
1.947394417749e+01
1.843235895849e+01
2.038974677254e+01
2.196229595471e+01
2.816170963983e+01
1.931500458555e+01
-1.542800066259e+01
2.103323962514e+01
1.860083629167e+01
-1.440764097896e+01
-3.456472379517e+01
-5.466789200961e+00
-1.855169757337e+01
-9.256626730658e-01
-4.547892263537e+00
3.555439891581e+00
3.385043332256e+00
7.107177473003e+00
7.539812487878e+00

SCALARS node_materi_stress_average_a_sig float
LOOKUP_TABLE default
-7.868506407926e+00
-6.628690784302e+01
-2.421950617725e+02
-1.793856703325e+02
-1.267775729492e+01
-2.213861342663e+01
-3.190081253047e+01
-4.563462687649e+01
-6.078474155314e+01
-7.524491154509e+01
-8.916671128696e+01
-1.025785087815e+02
-1.155152417765e+02
-1.281399662731e+02
-1.406216882502e+02
-1.525208562617e+02
-1.631727493989e+02
-1.745445454995e+02
-1.860824690457e+02
-1.977376139447e+02
-2.101722887121e+02
-2.227704463266e+02
-2.348452612269e+02
-1.800499751300e+02
-1.793889052957e+02
-1.796204953124e+02
-1.797038203790e+02
-1.795333531911e+02
-1.801330520682e+02
-1.807250999466e+02
-1.808230313977e+02
-1.818251332059e+02
-1.823241249616e+02
-1.827273989270e+02
-1.839002358636e+02
-1.854008694575e+02
-1.862213190549e+02
-1.875667207763e+02
-1.886073697414e+02
-1.904026679861e+02
-1.931382291791e+02
-1.956078370447e+02
-1.982671665763e+02
-2.008383706356e+02
-2.036388392971e+02
-2.064755190512e+02
-2.093988197006e+02
-2.124906708438e+02
-2.155849135657e+02
-2.184304466534e+02
-2.212093381620e+02
-2.236250479094e+02
-2.265309085098e+02
-2.286424113763e+02
-2.302372148893e+02
-2.323902553091e+02
-2.343736198033e+02
-2.361241097784e+02
-2.376353724310e+02
-2.388694173016e+02
-2.397264728081e+02
-2.403340407195e+02
-2.406830388191e+02
-2.413720311278e+02
-2.422691072668e+02
-2.426574354524e+02
-2.411593022577e+02
-2.426327780207e+02
-2.421247135293e+02
-2.425032736188e+02
-2.429168167291e+02
-2.428424343107e+02
-7.855326952953e+01
-9.055464001176e+01
-1.024796770591e+02
-1.140857711722e+02
-1.259074922037e+02
-1.378391147598e+02
-1.494514785724e+02
-1.608924190385e+02
-1.728021570025e+02
-5.960477413865e+01
-7.224315208564e+01
-3.389161461599e+01
-3.014698303883e+01
-2.842992806765e+01
-2.742030832661e+01
-2.594331058199e+01
-2.370035782990e+01
-3.559652597958e+01
-4.816928181757e+01
-6.015900968346e+01
-1.027079522666e+01
-1.788885737471e+01
-2.987429515869e+01
-4.191470686262e+01
-5.392735687010e+01
-6.478800745124e+01
-6.560148993947e+01
-6.565236861799e+01
-6.562227376797e+01
-6.742993241261e+01
-6.609408040795e+01
-6.625791399029e+01
-6.657980738635e+01
-6.712926054602e+01
-6.746999017891e+01
-6.794672392048e+01
-6.845993475671e+01
-6.927657864043e+01
-7.031949926355e+01
-8.231087487733e+01
-9.343923661735e+01
-9.617522694386e+01
-8.775957640947e+01
-5.565150916194e+01
-2.530964226608e+01
-1.398833857626e+01
-1.057098535148e+01
-9.249304951410e+00
-8.626171565339e+00
-8.399538968475e+00
-8.691284755330e+00
-8.332314157907e+00
-7.810922827960e+00
-7.612928277915e+00
-7.626734604720e+00
-7.573040940295e+00
-7.381321339646e+00
-7.248338088638e+00
-1.247893404903e+01
-1.089383007539e+01
-8.954639280947e+00
-7.988641413736e+00
-7.745093457284e+00
-7.855348442643e+00
-8.197526619730e+00
-8.637649348960e+00
-9.087416251080e+00
-9.464024412337e+00
-9.845251772469e+00
-1.019612139959e+01
-1.050644540899e+01
-1.077303554969e+01
-1.099538359401e+01
-1.117497071819e+01
-1.131194673001e+01
-1.140530879545e+01
-1.145505153360e+01
-1.145494990056e+01
-1.119727240364e+01
-1.013350232675e+01
-1.781162587397e+01
-1.764050451342e+01
-1.759291200563e+01
-1.756507800024e+01
-1.753058426219e+01
-1.748408327038e+01
-1.742429127689e+01
-1.734790584648e+01
-1.725483851335e+01
-1.714158985959e+01
-1.702101301444e+01
-1.690788977786e+01
-1.682929530199e+01
-1.676905480313e+01
-1.668298073769e+01
-1.671039521419e+01
-1.690909373118e+01
-1.742072783888e+01
-1.936931479294e+01
-1.827212973450e+01
-3.220044406486e+01
-3.366336126432e+01
-3.195441055824e+01
-3.131051080058e+01
-3.090428152592e+01
-3.056395663167e+01
-3.028318493829e+01
-3.008605323730e+01
-2.995521763755e+01
-2.986725627475e+01
-2.980690108288e+01
-2.976944140425e+01
-2.975125848282e+01
-2.973658832937e+01
-2.972929031968e+01
-2.972917576757e+01
-2.974800669306e+01
-2.978998410427e+01
-2.985427531847e+01
-4.191126497989e+01
-4.189128381311e+01
-4.189638483947e+01
-4.192905973533e+01
-4.198109677294e+01
-4.204282870194e+01
-4.212586798725e+01
-4.222807477860e+01
-4.236981627319e+01
-4.258114710692e+01
-4.287567424857e+01
-4.326073111013e+01
-4.375869517016e+01
-4.436263289794e+01
-4.509733024962e+01
-4.678866653280e+01
-4.536743865830e+01
-5.761231778627e+01
-5.887019551762e+01
-5.724291476355e+01
-5.650499932241e+01
-5.592571838972e+01
-5.548282704567e+01
-5.509236652023e+01
-5.480734823447e+01
-5.466304205785e+01
-5.444935804873e+01
-5.430518383615e+01
-5.420307687529e+01
-5.411512070298e+01
-5.402317691785e+01
-5.405495094215e+01
-5.404124639488e+01
-3.950551475901e+01
-3.168260711438e+01
-2.896747509017e+01
-2.811655765569e+01
-2.936848809595e+01
-2.213563831473e+01
-3.095519162436e+01
-4.344842058645e+01
-5.565957565282e+01
-6.734862307450e+01
-3.612742255236e+01
-2.275397931268e+02
-1.402144549893e+01
-6.546001184639e+01
-2.342079241668e+02
-3.313889769670e+01
-1.349009807832e+02
-2.185875386118e+02
-3.581927825298e+01
-2.087783112874e+02
-5.614364969540e+01
-2.372270705085e+02
-1.144865567766e+01
-1.975532251622e+02
-7.857955037574e+01
-8.296376691417e+01
-1.670705359684e+02
-1.897879238227e+02
-1.826732949613e+02
-1.755938033573e+02
-1.759524154054e+02
-1.794056601922e+02
-8.136667274832e+01
-7.859801938144e+01
-7.838430100828e+01
-1.201020043828e+02
-2.369719684532e+02
-7.873807202991e+01
-1.128697458254e+01
-2.034884758061e+02
-7.631108597814e+01
-3.863195562076e+01
-1.838255330967e+02
-2.146993393108e+02
-2.030672571236e+02
-2.222514430791e+02
-2.312398431142e+02
-2.521797209648e+01
-7.933823787505e+01
-2.336642036499e+02
-1.433273400785e+02
-1.246323181286e+01
-1.091829042524e+02
-1.768446039912e+02
-3.553313376003e+01
-3.385655551365e+01
-4.466156545849e+01
-6.735674625931e+01
-4.183621649543e+01
-9.753105432058e+01
-2.390967499873e+02
-1.076776744868e+01
-1.661411772576e+02
-8.376998000070e+01
-8.985052238641e+01
-9.457488149886e+01
-1.018460372580e+02
-1.071988322624e+02
-1.137595432631e+02
-1.085883994217e+02
-1.205091956536e+02
-1.153662600832e+02
-1.192947494271e+02
-1.273129873067e+02
-1.222716853366e+02
-1.342063141987e+02
-1.292904693917e+02
-1.174519778198e+02
-1.245713442217e+02
-1.129479741015e+02
-1.201752182293e+02
-1.317721661014e+02
-1.274117879541e+02
-1.159947367362e+02
-1.233208665152e+02
-1.120203653207e+02
-1.194443159557e+02
-1.081976340687e+02
-1.158376553454e+02
-1.267377557734e+02
-1.231890377579e+02
-1.124331280320e+02
-1.198093482383e+02
-1.091597896964e+02
-1.163508588730e+02
-1.267510666440e+02
-1.230843687015e+02
-1.126007577219e+02
-1.193180437590e+02
-1.089911433805e+02
-1.156330314584e+02
-1.054579983096e+02
-1.119835855333e+02
-1.220459961130e+02
-1.183159521919e+02
-1.084958785985e+02
-1.145972637061e+02
-1.244598471841e+02
-1.204977884354e+02
-1.303959286752e+02
-1.263100954419e+02
-1.166366411300e+02
-1.221443523366e+02
-1.319143538515e+02
-1.276048498912e+02
-1.178390284352e+02
-1.230598104280e+02
-1.333793377381e+02
-1.285245767656e+02
-1.181572564371e+02
-1.231815497179e+02
-1.342300863294e+02
-1.286647460969e+02
-1.173720777198e+02
-1.227073368624e+02
-1.341940746290e+02
-1.280701838668e+02
-1.394539521923e+02
-1.163101384465e+02
-1.215740552310e+02
-1.094943272563e+02
-1.147634654635e+02
-1.333542172549e+02
-1.023765948654e+02
-9.730102490438e+01
-1.076898082544e+02
-1.200063542019e+02
-9.497682079635e+01
-1.003577406096e+02
-8.731688974532e+01
-9.844175590941e+01
-1.390167899084e+02
-9.276902151348e+01
-7.941132876295e+01
-7.401553828013e+01
-6.579463326515e+01
-1.129077005065e+02
-1.247315973617e+02
-1.180033977731e+02
-1.301645147166e+02
-1.238137241927e+02
-7.126091575857e+01
-1.393085305335e+02
-1.366129406940e+02
-1.044575286612e+02
-1.013783799343e+02
-1.345837342981e+02
-1.056960072263e+02
-9.820963017433e+01
-1.110949464746e+02
-1.452981979254e+02
-1.503068913553e+02
-1.557847026518e+02
-1.608489134717e+02
-1.662284454614e+02
-1.716485004704e+02
-1.660451220511e+02
-1.771771377332e+02
-1.713670399910e+02
-1.775514660382e+02
-1.717997003148e+02
-1.826764862347e+02
-1.766406481659e+02
-1.881549677685e+02
-1.819010640435e+02
-1.707405641504e+02
-1.758808691139e+02
-1.647762342008e+02
-1.406137998112e+02
-1.449466031036e+02
-1.510347416491e+02
-1.552729864981e+02
-1.619704482382e+02
-1.666275242648e+02
-1.735509639965e+02
-1.687291402102e+02
-1.411600127763e+02
-1.052328012374e+02
-9.911361011803e+01
-9.632001137747e+01
-9.015065629061e+01
-8.787223989023e+01
-8.168205302363e+01
-8.013216459452e+01
-8.570167487286e+01
-7.879710011861e+01
-8.327633100886e+01
-7.689381625599e+01
-7.977535498510e+01
-1.339210290684e+02
-1.596535273329e+02
-1.715149590213e+02
-1.643681644532e+02
-6.056177562616e+01
-1.871803980662e+02
-1.835756488683e+02
-1.774524625660e+02
-1.804115681992e+02
-5.748019741675e+01
-7.381044098827e+01
-7.501969933703e+01
-1.356797954843e+02
-1.294345832853e+02
-1.895903545858e+02
-6.304640717063e+01
-1.890109535566e+02
-7.285707765028e+01
-1.809815937352e+02
-1.924694425068e+02
-1.603909472986e+02
-1.765360668915e+02
-1.692313134862e+02
-8.708896522317e+01
-8.241277116499e+01
-7.460655721679e+01
-7.701880693365e+01
-8.556886556958e+01
-7.963065860783e+01
-7.052796145903e+01
-7.246265658076e+01
-8.244796629303e+01
-7.512741951155e+01
-6.466957176795e+01
-6.700140343451e+01
-1.991425274763e+02
-7.143936832309e+01
-1.057603959844e+02
-1.957545939443e+02
-1.854935410706e+02
-1.412641299491e+02
-1.351456159451e+02
-1.232220443196e+02
-1.291099017294e+02
-1.409501169872e+02
-1.350221562155e+02
-1.231300476038e+02
-1.291396771996e+02
-1.172082798018e+02
-1.233168048110e+02
-1.351838251781e+02
-1.294710137378e+02
-1.175676544859e+02
-1.237932653656e+02
-1.118478028262e+02
-1.181207565120e+02
-1.300578342730e+02
-4.926203586237e+01
-1.753071808875e+02
-1.873345526185e+02
-1.041737354788e+02
-1.165510632635e+02
-1.235239090546e+02
-1.290651842819e+02
-1.243900109102e+02
-1.363062259980e+02
-6.710986256663e+01
-6.793544050735e+01
-1.474549363259e+02
-1.860929342734e+02
-1.749258459012e+02
-9.822221238217e+01
-9.004889043909e+01
-8.705665993685e+01
-7.830384056750e+01
-8.139525150129e+01
-7.564585609723e+01
-1.660751839608e+02
-1.412926589165e+02
-6.888477081601e+01
-5.579675168051e+01
-1.978300510961e+02
-1.639940218249e+02
-1.378241262211e+02
-1.449719035026e+02
-1.492488742592e+02
-1.565413505095e+02
-1.610326537204e+02
-1.683304782511e+02
-1.637999755363e+02
-1.816240046975e+02
-1.756447635975e+02
-1.123431910256e+02
-1.528217364889e+02
-8.548865820368e+01
-4.368553409617e+01
-5.484608581842e+01
-5.452910198629e+01
-6.889123661034e+01
-2.019251527519e+02
-1.728327568645e+02
-1.654045268125e+02
-6.923041265711e+01
-7.239143533539e+01
-1.889671806639e+02
-1.118200983074e+02
-1.111740437247e+02
-1.051427702444e+02
-3.930766260759e+01
-5.330040305503e+01
-1.468160844100e+02
-7.655805542978e+01
-6.932446222923e+01
-6.800911590995e+01
-6.731053676383e+01
-1.305804344668e+02
-1.424029441944e+02
-1.357058239610e+02
-1.410315079857e+02
-1.955586240270e+02
-5.792759337360e+01
-1.481661528741e+02
-1.702896558254e+02
-1.593162489567e+02
-1.220204361369e+02
-6.006384097422e+01
-6.023926928126e+01
-9.246491247473e+01
-6.984076729830e+01
-6.047664029607e+01
-2.079705966510e+02
-1.526392542740e+02
-1.710612011499e+02
-1.591298094570e+02
-1.831720035606e+02
-4.560379134711e+01
-2.082755039225e+02
-1.912853973684e+02
-1.767062588803e+02
-1.697960967648e+02
-7.845133903627e+01
-7.114150610562e+01
-6.168361276230e+01
-6.295786090706e+01
-1.034289740912e+02
-8.093277514714e+01
-1.012305159360e+02
-9.386570783211e+01
-8.921877749871e+01
-8.462531424767e+01
-7.589131273532e+01
-9.259526163705e+01
-1.387014983793e+02
-1.303492279822e+02
-1.596704569331e+02
-1.506932911674e+02
-1.468860475972e+02
-1.530172223859e+02
-1.055786357948e+02
-9.984727840018e+01
-4.721364810159e+01
-4.288555542353e+01
-1.444475964827e+02
-2.017685002223e+02
-1.528162494733e+02
-1.589708768051e+02
-1.536545062215e+02
-2.013056476361e+02
-1.021054021485e+02
-1.466941094546e+02
-6.838001045419e+01
-1.371546918403e+02
-3.429829914884e+01
-1.435060734016e+02
-2.033815625270e+02
-2.100949908632e+02
-1.939135459326e+02
-8.496209786455e+01
-1.436540230457e+02
-1.397162959905e+02
-8.171098212699e+01
-7.679079205626e+01
-8.458179289390e+01
-7.195190963630e+01
-9.584697695224e+01
-8.877129470733e+01
-1.855118873614e+02
-1.874497720624e+02
-1.812138245507e+02
-1.745575950564e+02
-2.013759410582e+02
-1.961284400491e+02
-7.441358239564e+01
-6.322182149358e+01
-1.584852174461e+02
-8.659267795143e+01
-2.140628104737e+02
-2.077153059112e+02
-6.659368342362e+01
-6.243114838967e+01
-1.543663314268e+02
-5.296202305358e+01
-5.347077831147e+01
-5.249496085640e+01
-2.286317556326e+02
-7.591924239556e+01
-2.157771812438e+02
-8.833189064764e+01
-1.601795026657e+02
-1.501804933382e+02
-9.478793571604e+01
-1.889726108168e+02
-1.479973410261e+02
-1.607888259447e+02
-9.908451586930e+01
-9.266870457061e+01
-1.048049520560e+02
-6.695320043887e+01
-6.114999974468e+01
-1.473623388452e+02
-9.073287211338e+01
-9.778838118228e+01
-6.092665233943e+01
-7.312091048381e+01
-1.421902464315e+02
-1.369653678196e+02
-1.508001778518e+02
-1.552923642493e+02
-1.419562005617e+02
-1.652974880165e+02
-1.546447874577e+02
-1.484757516128e+02
-1.582230320605e+02
-1.656881716994e+02
-1.024168521614e+02
-9.860263719175e+01
-9.977191944566e+01
-1.642520078606e+02
-2.222690833013e+02
-2.167494803329e+02
-3.036901173044e+01
-3.866114105507e+01
-5.230025236664e+01
-5.350870181207e+01
-1.648514033390e+02
-1.601106998833e+02
-1.712023981029e+02
-6.505219067916e+01
-1.663640178750e+02
-2.132751646911e+02
-2.064334635639e+02
-2.215105755351e+02
-1.863766424636e+02
-1.983690965716e+02
-1.951394928919e+02
-6.973435447087e+01
-1.565931610875e+02
-9.292976442082e+01
-7.240950677740e+01
-8.728507187656e+01
-9.402074027184e+01
-8.089101474709e+01
-5.074381565069e+01
-9.077158121952e+01
-9.879232469492e+01
-2.424286024831e+01
-1.696801510701e+02
-2.298019251465e+01
-2.688517122111e+01
-2.201042310554e+02
-2.134764356444e+02
-2.254981008068e+02
-2.187693222047e+02
-2.068387465731e+02
-2.126735578700e+02
-8.634557590366e+01
-2.263316542506e+02
-2.186385096934e+02
-2.322096431004e+02
-6.407309481497e+01
-6.425263290204e+01
-5.471695500535e+01
-4.301456202718e+01
-1.875001298959e+02
-1.782436386105e+02
-1.969388570819e+02
-1.852500042193e+02
-8.757176983050e+01
-8.679033924515e+01
-9.771801075615e+01
-9.611859580923e+01
-1.070639719381e+02
-1.053591651354e+02
-1.164811453920e+02
-1.995174986244e+02
-4.325342661558e+01
-7.441864056120e+01
-2.085066565176e+02
-2.023090314885e+02
-6.709233375321e+01
-5.395408425914e+01
-2.222252564273e+02
-8.811440241055e+01
-1.769177207755e+02
-6.471341000834e+01
-6.226215339703e+01
-9.119166589736e+01
-8.007027960112e+01
-6.619798252863e+01
-5.728043902198e+01
-1.767031091797e+02
-3.539311571798e+01
-5.239578634737e+01
-1.180117674324e+02
-4.431849076877e+01
-1.913156277621e+02
-9.531572246173e+01
-9.658332540263e+01
-6.069609059339e+01
-7.341108469801e+01
-1.103909667797e+02
-9.662644589697e+01
-9.165461281452e+01
-1.020977207845e+02
-5.978134602142e+01
-4.589319418578e+01
-1.086208716672e+02
-1.484038920869e+02
-1.548255838030e+02
-1.660868377009e+02
-1.613974796392e+02
-1.497853675324e+02
-1.564621519416e+02
-1.679137784611e+02
-1.636397800774e+02
-1.770190238154e+02
-1.704641205007e+02
-1.583409778416e+02
-1.649647451667e+02
-1.762632048111e+02
-1.531397958078e+02
-2.136187655335e+02
-1.019213684426e+02
-6.576613209174e+01
-5.570298063021e+01
-1.003673890857e+02
-1.872966020671e+02
-1.838467526524e+02
-8.355556845062e+01
-2.001388558131e+02
-9.862023954796e+01
-7.316829245031e+01
-2.059349858390e+02
-1.431518622207e+02
-1.378200556308e+02
-1.312211963866e+02
-1.817680165093e+02
-1.110414379411e+02
-2.169771913759e+02
-1.488841663587e+02
-1.424720169900e+02
-1.322531603556e+02
-1.513824507524e+02
-2.254945877400e+02
-2.161206370457e+02
-2.178846495713e+02
-2.057288858944e+02
-2.293288134775e+02
-1.928379280408e+02
-1.955505226160e+02
-8.908000806809e+01
-9.467095625446e+01
-1.038923562500e+02
-9.957451442135e+01
-9.080369482386e+01
-9.515845202998e+01
-1.037972981379e+02
-9.058321844493e+01
-1.670376709987e+02
-2.326173398537e+02
-1.609470757350e+02
-1.556628306787e+02
-1.452169513313e+02
-1.251520609754e+02
-1.318540283707e+02
-1.433445790851e+02
-1.182061816438e+02
-1.520348429609e+02
-2.336367916250e+02
-1.530453369643e+02
-1.267643493988e+02
-8.032703056568e+01
-9.168428645041e+01
-9.294276094310e+01
-1.041923791285e+02
-9.193113792014e+01
-1.474182812535e+02
-1.525772821668e+02
-1.462889621446e+02
-1.576899537199e+02
-1.511852931945e+02
-1.404720387936e+02
-1.625572976617e+02
-1.552720446806e+02
-7.887959005266e+01
-4.108447566159e+01
-4.323168144249e+01
-3.431172363115e+01
-4.882124085580e+01
-5.577150161377e+01
-6.106244572164e+01
-6.356503087922e+01
-5.412310500361e+01
-1.910700770962e+01
-2.958769094212e+01
-1.583190212145e+01
-2.617105592475e+01
-4.072576756700e+01
-5.175121699309e+01
-2.354381087988e+02
-1.217754409710e+02
-1.156604242299e+02
-1.033358990689e+02
-1.100585847564e+02
-1.267042493514e+02
-9.625540675242e+01
-9.137682658664e+01
-1.118758811147e+01
-1.894069821285e+01
-1.809523259414e+01
-2.758251521349e+01
-2.764530303409e+01
-1.936967131885e+01
-1.953206479471e+01
-1.129195039034e+01
-1.967684912311e+01
-2.874561933475e+01
-1.116089157367e+01
-1.320087142121e+02
-1.383957802295e+02
-2.345633142542e+02
-7.922904841627e+01
-1.313107705146e+01
-1.735032765043e+02
-1.764330905679e+02
-1.762247901661e+02
-2.161548750034e+02
-2.223400310090e+02
-1.734574722159e+02
-8.196084104197e+01
-1.727302846756e+02
-1.535053153793e+02
-6.667359575440e+01
-8.126808522027e+01
-1.800300135318e+02
-1.655936110285e+02
-2.045667767991e+02
-1.698688440595e+02
-1.936437349553e+02
-2.188390169084e+02
-4.622626121651e+01
-1.113162460947e+02
-1.061553551721e+02
-1.356540709211e+02
-8.493914453114e+01
-1.349118188444e+02
-5.206819536594e+01
-1.950156012943e+02
-9.681151102638e+01
-1.399387903283e+02
-1.129719129683e+02
-8.975437601239e+01
-7.793156364352e+01
-1.056326520134e+02
-1.332520344023e+02
-1.833053427890e+02
-1.418530778880e+02
-1.320657931166e+01
-1.895530505968e+02
-1.552885699744e+02
-1.171324703946e+02
-1.785490072467e+02
-6.322425146109e+01
-1.409696313915e+02
-1.637448055306e+02
-1.050692571790e+02
-3.863613229902e+01
-9.903474788830e+01
-2.144015594378e+02
-1.419915222978e+02
-7.702885926804e+01
-1.362357805086e+02
-1.046695528910e+02
-7.292563656416e+01
-1.586561995982e+02
-1.295540139547e+02
-1.926248263593e+02
-1.574794033686e+02
-8.297009206106e+01
-2.012282716223e+02
-1.284021307974e+02
-1.527009230172e+02
-1.536595885347e+02
-1.110174752018e+02
-1.468457795144e+02
-1.392838315716e+02
-1.837322954763e+02
-9.247431200466e+01
-1.306108063886e+02
-1.363465621638e+02
-1.302929285810e+02
-1.739938129269e+02
-1.954339498877e+02
-7.363696343606e+01
-8.403362754963e+01
-1.173998720522e+02
-1.798841065149e+02
-1.642332235583e+02
-9.318040989142e+01
-1.946597145298e+02
-1.581449475657e+02
-1.382881245616e+02
-5.452840579171e+01
-6.101071035474e+01
-9.351894464580e+01
-1.258184352461e+02
-1.494509747512e+02
-1.726766366445e+02
-2.002739199439e+02
-1.832099184025e+02
-3.817464548372e+01
-7.963458002586e+01
-2.059008704840e+02
-1.421871899591e+02
-1.906546114266e+02
-1.442345064938e+02
-1.974268910048e+02
-5.872299932270e+01
-2.116445819674e+02
-1.820632721820e+02
-8.566293260008e+01
-7.635357037014e+01
-2.257476530481e+02
-1.944572758424e+02
-1.409173874025e+02
-1.378102439214e+02
-6.174152081442e+01
-1.545414045451e+02
-1.346641677315e+02
-1.807270198617e+02
-1.994718046012e+02
-1.257670699966e+02
-1.484580201632e+02
-1.570974037308e+02
-2.799526917259e+01
-6.922239628330e+01
-1.536208288291e+02
-9.879907284606e+01
-1.439747070337e+02
-2.059416374079e+02
-1.587492094400e+02
-1.075668176024e+02
-1.638284261662e+02
-5.027963882340e+01
-1.325214113720e+02
-1.688602669565e+02
-1.462977932450e+02
-3.027267154670e+01
-1.477394140868e+02
-2.094845916796e+02
-1.044060649043e+02
-1.500533165281e+02
-1.445664247951e+02
-3.949418264298e+01
-1.604172876725e+02
-1.581120979754e+02
-1.545451823213e+02
-1.360255801132e+02
-1.713065504103e+02
-5.030323716530e+01
-7.707041956152e+01
-6.443721882631e+01
-1.127130741652e+02
-1.626163807217e+02
-3.729708512112e+01
-1.462471828797e+02
-4.830132539234e+01
-1.085780693435e+02
-1.741012810498e+02
-1.090846397080e+02
-1.132998903301e+02
-6.907717343898e+01
-1.082249613403e+02
-1.461652305929e+02
-1.126368690318e+02
-1.064503943787e+02
-1.650333219295e+02
-1.111545524022e+02
-1.755194972127e+02
-2.362695467970e+02
-8.542038326950e+01
-3.168345584066e+01
-8.230697561294e+01
-4.749453810501e+01
-9.273205708166e+01
-1.481597653759e+02
-8.593978221427e+01
-8.518556156361e+01
-1.822064910691e+02
-2.119188795411e+02
-1.262686157180e+02
-1.972261252952e+02
-1.618099084838e+02
-1.539742566465e+02
-7.597105993962e+01
-2.412427018948e+01
-1.797925988683e+02
-3.142893792458e+01
-4.324450646016e+01
-4.355396679317e+01
-8.764405247135e+01
-4.271241346646e+01
-3.346464765902e+01
-2.135756250277e+02
-8.812077561340e+01
-1.785196501278e+02
-3.462752725911e+01
-1.692315039816e+02
-2.044107465889e+02
-2.366344247545e+02
-1.909330620040e+02
-4.536352285189e+01
-1.009153790645e+02
-1.921814425741e+02
-1.357819491085e+02
-2.379142798776e+02
-8.774642759559e+01
-1.661376031197e+02
-6.829598742789e+01
-1.660651521297e+02
-1.600422604310e+02
-1.008929042194e+02
-1.022509006798e+02
-2.281762380328e+02
-1.777570547005e+02
-4.876658278489e+01
-1.258263895040e+02
-1.102056311936e+02
-6.418190541857e+01
-2.248842100711e+02
-1.711479114947e+02
-2.272276645669e+02
-2.703387981305e+01
-2.007512954152e+01
-2.252021956439e+02
-1.878605211266e+02
-6.890299733847e+01
-1.796629584830e+02
-5.327629504281e+01
-7.517762760609e+01
-1.929045077404e+01
-2.378708156429e+02
-1.680642655865e+02
-1.212511946416e+02
-8.277254302428e+01
-7.857987516322e+01
-1.901050457861e+02
-3.438917870774e+01
-1.684785477741e+02
-2.235040718607e+02
-1.746870826128e+02
-2.240581514159e+02
-7.163170026095e+01
-2.053295885298e+02
-2.097894227377e+02
-7.557873250168e+01
-1.756911923728e+02
-9.836012971436e+01
-3.788104882512e+01
-1.766344989591e+02
-1.001026414910e+01
-7.459459778498e+01
-2.389932965713e+02
-3.498262611860e+01
-9.423915559306e+01
-1.861354187026e+02
-1.472792056024e+02
-1.473153661235e+02
-5.383553351967e+01
-8.201761306481e+01
-1.153443042724e+02
-2.088660710798e+02
-1.731090988646e+02
-1.073522951903e+02
-5.588163646963e+01
-1.803100521746e+02
-1.306621912127e+02
-1.861790292897e+02
-2.068492539858e+02
-4.986980030344e+01
-1.574354763804e+02
-1.864694948731e+01
-2.287898087082e+02
-1.358452504735e+02
-1.263221713045e+01
-1.160645979190e+01
-2.653413294687e+01
-2.421627710773e+01
-4.003948439612e+01
-3.553916573057e+01
-5.265256953359e+01
-4.830916030365e+01
-6.463156529383e+01
-5.957901964371e+01

SCALARS node_materi_stress_size_dev_sd_sig float
LOOKUP_TABLE default
4.389720600157e+00
4.009224141462e+01
1.836902490733e+02
1.351618775713e+02
1.013695212489e+01
2.222321677938e+01
3.274371788987e+01
4.163446784668e+01
4.823107393379e+01
5.586403827050e+01
6.428843671937e+01
7.327954957397e+01
8.275336125351e+01
9.268083515518e+01
1.032435419138e+02
1.135026970996e+02
1.228616986014e+02
1.334159293151e+02
1.441650159474e+02
1.538111014241e+02
1.624680735817e+02
1.710010303351e+02
1.790156395105e+02
1.358109199157e+02
1.354171991942e+02
1.356141490050e+02
1.357529062751e+02
1.355492199905e+02
1.360659795731e+02
1.363889494243e+02
1.367271556686e+02
1.375394493580e+02
1.381289786841e+02
1.384318559809e+02
1.396054855019e+02
1.407676934929e+02
1.418690847511e+02
1.429783396004e+02
1.442520288948e+02
1.459093715997e+02
1.481859333503e+02
1.505965674152e+02
1.530749454695e+02
1.554083339226e+02
1.577044326560e+02
1.601783862843e+02
1.625543846143e+02
1.649529794834e+02
1.672382391796e+02
1.693940132996e+02
1.712855142804e+02
1.729843880379e+02
1.748039793419e+02
1.763069893250e+02
1.773131534216e+02
1.786226484012e+02
1.798551260279e+02
1.809252677114e+02
1.817862035141e+02
1.825069831440e+02
1.829483179852e+02
1.832362012154e+02
1.833748305871e+02
1.836691703542e+02
1.840929532639e+02
1.842514508100e+02
1.833378575829e+02
1.840665917571e+02
1.837517067029e+02
1.839254513305e+02
1.841798351297e+02
1.841398113602e+02
4.930817623515e+01
5.883375729166e+01
6.833617799374e+01
7.783165028060e+01
8.771552614522e+01
9.770758031046e+01
1.078694978494e+02
1.181068297813e+02
1.286936340330e+02
5.023135625710e+01
3.894195131767e+01
5.061544178647e+01
4.524686474599e+01
4.282423639997e+01
4.082818888625e+01
3.225731011301e+01
2.115750508524e+01
2.106724650216e+01
2.435693380164e+01
3.050656579867e+01
7.993387174626e+00
7.371530121120e+00
1.341886688448e+01
2.180327705532e+01
3.055323586466e+01
3.873911865682e+01
3.919092042560e+01
3.916199709059e+01
3.894470891612e+01
4.001244874517e+01
3.880069505526e+01
3.849189469869e+01
3.842268668830e+01
3.845259573081e+01
3.822234660969e+01
3.800065282666e+01
3.788471542299e+01
3.790538861550e+01
3.820738833367e+01
3.778590530912e+01
3.553686037315e+01
3.737099798943e+01
3.683592548082e+01
3.801545786339e+01
2.706650315065e+01
1.126470297522e+01
6.567104354105e+00
4.999023674355e+00
4.872863841364e+00
4.714982473299e+00
4.688301759788e+00
4.932225373453e+00
4.789822122016e+00
4.536415602425e+00
4.425820079100e+00
4.382521523977e+00
4.393888531635e+00
4.602804085728e+00
1.928562810789e+01
1.197548206125e+01
8.212127669809e+00
6.445981002192e+00
5.383554009375e+00
4.844360030198e+00
4.541375535706e+00
4.468730549364e+00
4.644324920755e+00
4.930598157643e+00
5.251553609380e+00
5.578665654781e+00
5.889224007394e+00
6.171093525454e+00
6.414765041763e+00
6.612533600953e+00
6.764799042206e+00
6.874988150478e+00
6.945272087853e+00
6.980697160631e+00
7.242915107762e+00
8.187723671324e+00
7.261337726331e+00
7.190848580812e+00
7.169537962012e+00
7.163499312708e+00
7.160955445557e+00
7.164504038611e+00
7.184352130213e+00
7.206088594459e+00
7.230653035285e+00
7.262427357195e+00
7.307048284589e+00
7.368445369972e+00
7.452126844748e+00
7.598928507548e+00
7.876966142375e+00
8.289310488253e+00
8.936898577836e+00
9.957932495791e+00
1.241616550686e+01
1.438548997190e+01
1.697711106197e+01
1.661068696719e+01
1.504068667436e+01
1.437564542763e+01
1.395201442348e+01
1.368070138597e+01
1.355277587154e+01
1.348124049806e+01
1.342584818526e+01
1.337685406174e+01
1.334477127603e+01
1.333499806039e+01
1.332423353243e+01
1.331603323710e+01
1.331477950483e+01
1.331055014063e+01
1.331041982036e+01
1.333613219080e+01
1.338913778597e+01
2.178390869146e+01
2.168388826288e+01
2.163872162172e+01
2.161649478911e+01
2.156746907446e+01
2.151883329437e+01
2.146350318914e+01
2.137742804734e+01
2.126796556787e+01
2.120676705945e+01
2.113675170221e+01
2.107030026107e+01
2.106520862847e+01
2.113335042140e+01
2.148497924271e+01
2.255262646673e+01
2.183076568587e+01
2.871689661623e+01
3.002309125453e+01
2.934294195372e+01
2.929272065384e+01
2.939919401373e+01
2.954972272038e+01
2.966342099268e+01
2.982347199451e+01
3.000072220100e+01
3.014009541363e+01
3.024857617008e+01
3.034337260464e+01
3.044345877098e+01
3.047286192169e+01
3.061151116408e+01
3.073090596735e+01
5.567065844746e+01
4.753934123996e+01
4.373895323671e+01
4.183748066819e+01
4.164069559443e+01
2.540794607966e+01
2.143400474238e+01
2.290611682021e+01
2.783900529515e+01
3.507395918636e+01
4.827210942754e+01
1.767438517680e+02
6.364288063447e+00
4.099171562993e+01
1.804943022245e+02
4.271735288221e+01
9.837249151776e+01
1.705357786665e+02
3.148741894012e+01
1.625689986158e+02
3.044235516709e+01
1.813474290132e+02
6.839938917096e+00
1.521589566170e+02
4.344736368994e+01
6.047460903531e+01
1.266516479635e+02
1.442292054422e+02
1.373876873424e+02
1.313681993464e+02
1.312796384114e+02
1.344340659890e+02
4.664907950950e+01
4.666536970784e+01
4.782846958666e+01
8.277353955463e+01
1.807112100710e+02
4.003855448393e+01
7.894989022444e+00
1.579040606602e+02
4.728397464215e+01
3.727644838103e+01
1.385258184324e+02
1.673994873288e+02
1.574518697396e+02
1.733647771042e+02
1.789862122912e+02
2.269766878132e+01
4.610220827607e+01
1.798008266959e+02
1.025948579377e+02
6.269688447454e+00
7.813312130883e+01
1.326245257055e+02
4.005904028652e+01
4.493776221145e+01
2.889910213006e+01
3.573816642924e+01
5.500651237203e+01
6.425258115182e+01
1.819256880612e+02
7.470827923154e+00
1.228085935572e+02
4.746504548924e+01
5.247077038223e+01
5.639599282011e+01
6.267441108787e+01
6.700182366316e+01
7.287422518827e+01
6.878094249917e+01
7.916540447416e+01
7.540111181725e+01
7.731709573187e+01
8.588600562952e+01
8.248654463734e+01
9.296099616961e+01
8.995068926891e+01
7.956941280751e+01
8.746297847399e+01
7.702690209014e+01
8.537606213952e+01
9.551411485598e+01
9.384506241474e+01
8.374362523136e+01
9.251167118041e+01
8.274427846717e+01
9.162686518020e+01
8.232287495056e+01
9.105309036090e+01
1.002916284849e+02
9.948997194919e+01
9.070880388159e+01
9.881280169600e+01
9.056882386111e+01
9.835161314545e+01
1.064476879426e+02
1.053200717148e+02
9.755845427578e+01
1.040561110361e+02
9.687946396015e+01
1.032222307610e+02
9.648675777556e+01
1.024720386848e+02
1.090735007505e+02
1.078699938280e+02
1.012968336936e+02
1.060698919693e+02
1.126517273652e+02
1.101205374962e+02
1.167702283555e+02
1.135723558661e+02
1.069746467169e+02
1.096648339333e+02
1.165082630290e+02
1.121038394619e+02
1.051491609203e+02
1.073003703807e+02
1.151819363355e+02
1.098893792913e+02
1.021876998410e+02
1.039580842129e+02
1.119015820964e+02
1.056499469112e+02
9.730392300918e+01
9.915286211671e+01
1.080421143089e+02
1.015521423356e+02
1.109285628144e+02
9.243812782165e+01
9.494331025571e+01
8.564394719064e+01
8.833613925022e+01
1.135426066315e+02
7.895882764214e+01
7.652931527353e+01
8.189097928724e+01
9.152365340454e+01
7.249357962798e+01
7.567621014832e+01
6.634541228099e+01
8.981253534842e+01
1.035870087707e+02
6.973076609930e+01
6.053514111133e+01
5.703083165480e+01
5.146746087588e+01
7.170210397988e+01
8.208587857252e+01
7.632280935578e+01
8.701328353989e+01
8.159036976831e+01
5.510851386223e+01
9.656222596412e+01
9.272520046973e+01
7.379578546736e+01
8.235472648088e+01
1.194336125828e+02
7.909457678542e+01
7.329797557487e+01
8.259976528321e+01
1.173683541274e+02
1.207597840262e+02
1.272946380303e+02
1.308170532736e+02
1.371721623433e+02
1.404517177923e+02
1.341896042784e+02
1.435967893297e+02
1.374529399350e+02
1.459728044128e+02
1.428130451923e+02
1.467622035712e+02
1.407968312762e+02
1.499395830245e+02
1.442115564736e+02
1.343500200404e+02
1.379105729333e+02
1.278691151086e+02
1.237633114972e+02
1.269161638859e+02
1.316221636838e+02
1.347326739612e+02
1.393482298818e+02
1.421135453121e+02
1.467499089177e+02
1.437402001923e+02
1.003082942124e+02
9.958446980012e+01
9.480542246274e+01
9.332683704443e+01
8.847711966512e+01
8.722741638117e+01
8.219108873121e+01
8.115961154790e+01
8.523985413382e+01
7.935832753024e+01
8.229931044185e+01
7.680066723653e+01
7.825444999577e+01
1.085548475756e+02
1.373841532019e+02
1.445061779800e+02
1.394306009593e+02
4.768427149588e+01
1.476755828436e+02
1.509458283297e+02
1.477700504576e+02
1.512174160277e+02
4.632746679117e+01
7.596745772824e+01
7.627850326387e+01
9.213090476271e+01
8.681489067560e+01
1.554654663880e+02
5.002283775904e+01
1.520672714435e+02
7.408299851165e+01
1.416031281856e+02
1.511420865052e+02
1.276269832777e+02
1.466877624510e+02
1.413418677691e+02
8.420573356311e+01
7.893942473001e+01
7.286996020296e+01
7.239184083427e+01
7.926523460990e+01
7.205299657909e+01
6.453353159335e+01
6.357051800601e+01
7.190652426120e+01
6.318746379029e+01
5.337945101169e+01
5.354732208650e+01
1.563418510062e+02
7.224297219604e+01
6.901163481834e+01
1.586004372320e+02
1.538404408504e+02
9.741445243864e+01
9.221294348655e+01
8.176153272362e+01
8.728539877675e+01
9.779447928632e+01
9.288199677182e+01
8.255860914998e+01
8.812206406410e+01
7.795496178857e+01
8.351615006193e+01
9.374706208631e+01
8.915284382833e+01
7.908200555287e+01
8.466196886171e+01
7.471910326917e+01
8.018293117233e+01
9.028171066413e+01
4.201725004093e+01
1.481060683571e+02
1.554262617688e+02
7.693171309317e+01
8.575586509422e+01
9.204256682869e+01
9.544985649897e+01
8.569630547594e+01
9.597067701502e+01
7.005474844391e+01
6.975957756823e+01
1.028935214001e+02
1.454297462982e+02
1.353193289579e+02
8.283634595155e+01
7.442964133478e+01
7.539002135209e+01
6.676082156800e+01
6.573293391577e+01
6.807526204569e+01
1.392927950485e+02
9.946983944011e+01
5.344406860516e+01
4.357732700589e+01
1.546502942258e+02
1.402558862209e+02
1.093887603627e+02
1.171521497753e+02
1.180767046968e+02
1.254252009245e+02
1.267037335286e+02
1.337529729393e+02
1.323296638284e+02
1.487044844026e+02
1.404021498669e+02
7.555607530955e+01
1.320866479504e+02
7.220937642589e+01
3.789165487068e+01
4.237235011362e+01
4.511510106466e+01
5.322705532662e+01
1.628509435706e+02
1.354053641692e+02
1.281946359463e+02
5.813367574168e+01
5.678732559696e+01
1.538722165981e+02
7.121036148440e+01
7.248704191620e+01
6.802371098647e+01
3.654996764857e+01
4.294841636637e+01
1.034539713652e+02
7.631762601871e+01
6.953246973792e+01
6.974843071198e+01
6.945725772827e+01
9.110944429994e+01
1.013632517268e+02
1.016630854959e+02
1.052349131816e+02
1.595651666215e+02
4.420316354973e+01
1.063049017498e+02
1.444530481378e+02
1.362345589487e+02
8.911634081770e+01
6.346003691130e+01
6.409534164748e+01
8.007478194136e+01
5.512506285396e+01
4.826328920104e+01
1.666949480673e+02
1.084734149375e+02
1.387426403125e+02
1.309838025468e+02
1.466043364415e+02
3.293137376326e+01
1.661156619477e+02
1.493448646467e+02
1.369126358307e+02
1.300541189966e+02
7.626405814167e+01
6.929507319099e+01
6.240685591155e+01
6.188358045645e+01
6.494745256072e+01
7.609381952188e+01
6.657629813793e+01
5.861641926660e+01
5.652177050347e+01
6.487391092545e+01
5.575723627925e+01
8.922571961348e+01
1.218014301029e+02
9.836188850661e+01
1.243656736502e+02
1.237236824411e+02
1.041656403261e+02
1.100278384949e+02
6.922567933036e+01
6.488054761873e+01
3.795646342365e+01
3.325483560470e+01
1.142338410979e+02
1.616584460492e+02
1.081436241505e+02
1.138052191142e+02
1.085734462645e+02
1.631572318593e+02
9.728303882669e+01
1.279624376888e+02
6.862992670577e+01
1.149707572666e+02
2.802226045443e+01
1.053687974426e+02
1.581411574344e+02
1.629420176099e+02
1.560384904808e+02
4.861993102258e+01
1.217810422138e+02
1.200202932951e+02
4.871883689868e+01
4.695646265873e+01
5.532192169329e+01
4.634215349961e+01
8.108455871396e+01
7.335900295529e+01
1.448044572525e+02
1.484529361578e+02
1.393357489164e+02
1.325137872440e+02
1.610457988155e+02
1.586996835817e+02
5.604126468271e+01
4.764482051186e+01
1.141226365212e+02
5.127697316849e+01
1.689395174474e+02
1.646904745408e+02
6.625169616326e+01
6.215292624439e+01
1.119585201889e+02
5.489078267868e+01
5.359640336406e+01
5.585635629794e+01
1.748423195490e+02
4.718013943680e+01
1.664418720732e+02
6.434778736468e+01
1.169873691912e+02
1.280114981599e+02
8.346885679688e+01
1.560937340879e+02
1.063830371726e+02
1.179478918640e+02
6.260849014614e+01
5.808600983718e+01
6.681673043053e+01
6.983458385428e+01
6.448566444658e+01
1.052001429480e+02
6.752453932756e+01
7.156506548609e+01
4.687224261284e+01
5.737773491483e+01
1.080498455549e+02
1.047321919526e+02
1.131586085077e+02
1.152646906739e+02
1.103023078183e+02
1.402438558018e+02
1.314512151688e+02
1.279210481423e+02
1.146748829463e+02
1.217495835076e+02
8.826242984187e+01
8.716675811746e+01
8.209922923453e+01
1.193476811008e+02
1.710301150311e+02
1.676600478983e+02
2.309264207922e+01
2.857735121600e+01
5.782153733078e+01
5.929648874821e+01
1.194832163668e+02
1.146700196269e+02
1.256889921015e+02
5.079213411866e+01
1.371385755845e+02
1.696955924907e+02
1.661808880384e+02
1.740714907238e+02
1.506613969831e+02
1.580189569662e+02
1.543629392579e+02
6.307442745450e+01
1.142518161597e+02
5.910722592411e+01
5.397327067157e+01
5.495921824668e+01
6.058811497548e+01
5.031869925292e+01
4.369921963973e+01
5.559823699692e+01
6.143266013731e+01
1.634226777263e+01
1.249464403906e+02
1.824702698037e+01
2.299188581633e+01
1.720733793541e+02
1.676711300822e+02
1.748888144763e+02
1.704135900975e+02
1.629751225738e+02
1.661701100168e+02
5.358735876510e+01
1.746635273559e+02
1.694739619478e+02
1.781847968134e+02
3.792522346594e+01
6.071530717918e+01
5.210668195656e+01
4.567443078363e+01
1.435587738006e+02
1.347704005655e+02
1.534329112961e+02
1.437847381804e+02
5.584513674621e+01
5.546535171155e+01
6.405431206341e+01
6.298674134125e+01
7.175796549825e+01
7.044319710349e+01
7.949810926918e+01
1.565604310740e+02
4.900875684022e+01
4.171803077764e+01
1.657230571177e+02
1.627626850425e+02
4.655572881177e+01
3.818991484823e+01
1.740356904641e+02
8.297751477485e+01
1.319445734189e+02
4.891915464597e+01
5.972128207123e+01
8.294917477480e+01
5.519763544444e+01
5.926761992538e+01
5.121527576826e+01
1.484783913402e+02
2.479831254585e+01
5.679515538936e+01
8.048822217283e+01
5.176761118755e+01
1.488040992206e+02
8.965610158266e+01
7.338393352113e+01
6.295162708828e+01
6.924607125193e+01
7.201196527477e+01
5.852710133343e+01
5.467741449529e+01
9.578985373604e+01
4.924041735060e+01
4.145880171584e+01
7.502156431352e+01
1.035798413851e+02
1.097341213255e+02
1.205683539163e+02
1.161338487524e+02
1.051622705795e+02
1.117302278392e+02
1.227232530294e+02
1.188400045943e+02
1.317028803683e+02
1.259128783882e+02
1.146935319054e+02
1.216236609710e+02
1.319113454304e+02
1.109137720562e+02
1.679886525875e+02
9.010092083173e+01
6.663734064068e+01
6.129637929659e+01
7.336643348558e+01
1.419665219644e+02
1.383765817327e+02
8.273870131252e+01
1.546256157504e+02
6.148617306727e+01
7.523323969089e+01
1.600272235728e+02
9.876263572300e+01
9.412583753804e+01
8.790218700919e+01
1.363739090300e+02
7.153002535264e+01
1.691306285732e+02
1.297150322571e+02
1.239942676677e+02
1.161796675635e+02
1.075425336694e+02
1.754467346407e+02
1.707936502416e+02
1.719512161003e+02
1.654406501592e+02
1.779014239564e+02
1.473950947282e+02
1.501461136558e+02
7.967957919822e+01
8.632851929603e+01
9.325218005535e+01
9.203738006828e+01
8.543140573938e+01
9.043905424953e+01
9.668090969250e+01
8.826343385574e+01
1.251571223700e+02
1.797872249825e+02
1.336289310697e+02
1.298625632801e+02
1.204887645123e+02
9.496490047761e+01
1.013345605814e+02
1.111796411320e+02
8.871997864914e+01
1.243478134292e+02
1.802627487949e+02
1.322783605461e+02
9.795133627751e+01
4.633463743441e+01
5.482977535296e+01
5.534597665858e+01
6.458882450071e+01
5.549219065601e+01
1.115141194960e+02
1.151935634075e+02
1.090421422017e+02
1.190484971905e+02
1.127672819056e+02
1.035051660411e+02
1.228664283175e+02
1.160789484574e+02
4.623681906918e+01
3.736382977340e+01
4.104752123676e+01
2.853545665634e+01
4.366459764991e+01
5.301894175316e+01
5.584142100662e+01
6.189447530501e+01
5.261074819844e+01
1.281514601944e+01
2.054379963089e+01
8.323683636042e+00
1.665132270972e+01
2.954847718811e+01
3.949825672359e+01
1.796321297365e+02
8.771179075524e+01
8.336461296424e+01
7.419303934649e+01
7.969292902418e+01
9.187664382436e+01
6.901669062798e+01
6.622043986258e+01
7.916066305335e+00
1.803262960605e+01
1.701177396905e+01
2.799666982738e+01
2.760782050248e+01
1.805681161136e+01
1.790049114822e+01
7.707514834861e+00
1.743621956999e+01
2.739966661872e+01
7.272240067760e+00
9.277736220244e+01
9.832870665315e+01
1.805605656324e+02
4.761945140777e+01
6.013845382728e+00
1.294484338890e+02
1.317977854458e+02
1.317068319927e+02
1.665374240358e+02
1.707225512359e+02
1.296140668308e+02
6.304910251798e+01
1.268587676036e+02
1.109839371642e+02
7.009938675838e+01
6.531360537924e+01
1.393537343609e+02
1.309376664463e+02
1.595903316311e+02
1.315344135545e+02
1.531307376130e+02
1.727245544637e+02
4.131852913125e+01
7.348504900608e+01
7.031873065032e+01
9.483325316616e+01
6.409293006719e+01
9.946971418400e+01
4.246646103358e+01
1.513610452530e+02
6.494266898972e+01
1.143884158849e+02
8.520974570493e+01
6.960604815995e+01
6.384259984706e+01
9.071000618347e+01
1.044358320145e+02
1.490153288531e+02
1.005667178606e+02
7.661366725749e+00
1.539916697914e+02
1.242258887243e+02
7.703965100891e+01
1.493367578524e+02
5.471431510845e+01
9.851672470620e+01
1.187156985617e+02
6.615198581942e+01
3.313725760295e+01
6.361104611463e+01
1.698841160643e+02
9.770582239539e+01
5.858493736530e+01
1.204604293713e+02
8.219949269945e+01
3.928178276515e+01
1.155654932367e+02
1.117277426530e+02
1.582360162397e+02
1.360593385486e+02
6.181337892486e+01
1.600401648523e+02
1.145374191841e+02
1.091231380360e+02
1.192375307634e+02
1.035905489049e+02
1.028374489505e+02
1.178697271243e+02
1.516677506770e+02
6.425332223817e+01
1.011219288930e+02
9.761069880905e+01
1.075112530209e+02
1.333114506252e+02
1.570245777606e+02
7.309209101076e+01
7.637196437897e+01
7.640180337335e+01
1.420118151598e+02
1.197870872776e+02
7.377820612441e+01
1.550983129409e+02
1.134947624843e+02
1.077548598203e+02
4.523176732267e+01
6.482698089239e+01
9.123146237344e+01
1.102918128115e+02
1.176664174135e+02
1.270639836095e+02
1.581500949872e+02
1.521746254671e+02
5.121979940006e+01
4.484261130751e+01
1.612937756510e+02
1.240914926919e+02
1.562458037837e+02
1.063888718952e+02
1.540073460774e+02
3.760062889951e+01
1.646805976946e+02
1.522617689949e+02
8.297665917054e+01
4.739499609076e+01
1.737483431993e+02
1.594492730397e+02
1.162209290667e+02
1.199073752934e+02
3.267286990098e+01
1.210480122081e+02
1.022015014650e+02
1.355055610715e+02
1.621517351796e+02
8.328896717188e+01
1.145083790472e+02
1.339268996341e+02
2.745242561159e+01
3.932184042382e+01
1.178955114041e+02
9.431909661509e+01
1.231600108616e+02
1.632304783815e+02
1.214945528250e+02
1.005563074664e+02
1.252477604198e+02
2.903566590337e+01
8.979248708055e+01
1.291176963321e+02
1.115125291726e+02
2.766768928840e+01
1.231899797622e+02
1.620882796813e+02
8.351833577100e+01
1.262645410955e+02
1.007248659438e+02
2.932633253737e+01
1.353771003307e+02
1.207939496746e+02
1.295617600163e+02
1.180193082361e+02
1.441810194579e+02
3.974985513670e+01
5.995766273753e+01
5.000258868015e+01
1.031177632303e+02
1.227691700983e+02
3.650849214826e+01
1.036851980824e+02
3.579121376882e+01
9.858482806141e+01
1.431467908567e+02
7.357409170437e+01
1.000568494475e+02
5.248131486480e+01
9.442577725955e+01
1.261898800882e+02
9.616630104349e+01
8.939741409509e+01
1.215165697428e+02
9.048128935896e+01
1.312429469787e+02
1.799755963690e+02
5.462271952943e+01
3.306847914465e+01
3.844316436080e+01
4.571378084047e+01
7.462664137691e+01
1.077650643357e+02
5.490754292885e+01
6.718755522649e+01
1.370248890451e+02
1.651441185885e+02
8.785283169741e+01
1.603047470136e+02
1.356486465574e+02
1.120672707049e+02
4.630051196942e+01
1.473085863153e+01
1.383956734978e+02
4.170654341747e+01
4.771889074451e+01
5.032185145187e+01
6.421653334636e+01
3.415116411580e+01
4.374059127336e+01
1.689848040635e+02
5.400357165235e+01
1.447395121019e+02
4.626122804133e+01
1.242303743678e+02
1.611763509277e+02
1.812981263518e+02
1.525995807282e+02
5.388672756112e+01
6.224512506059e+01
1.484380113851e+02
9.568470463326e+01
1.815902247398e+02
5.260576300380e+01
1.227884046224e+02
6.798119280990e+01
1.228425913385e+02
1.181045789607e+02
6.625483951253e+01
6.272043198278e+01
1.746534375045e+02
1.323778000444e+02
5.711548465109e+01
8.714707004174e+01
8.050880973095e+01
5.746343705010e+01
1.751414328737e+02
1.279915757163e+02
1.744600727497e+02
2.777136259027e+01
1.396563545697e+01
1.759271099216e+02
1.431433413954e+02
6.597959908662e+01
1.347334384915e+02
6.066687209158e+01
4.492545301251e+01
1.597588085872e+01
1.813418916244e+02
1.238962926022e+02
8.786598804894e+01
4.725780001839e+01
5.831895173184e+01
1.493697626783e+02
2.334930928429e+01
1.245856838329e+02
1.752502929994e+02
1.291431599469e+02
1.740796109537e+02
5.626552727692e+01
1.611734743093e+02
1.678720498841e+02
4.643566101090e+01
1.300845065752e+02
7.124033487693e+01
3.492546558660e+01
1.323348592469e+02
6.103194915682e+00
4.626410241512e+01
1.817079554808e+02
3.461080796478e+01
6.147572030140e+01
1.410709711674e+02
1.088840523457e+02
1.061389963020e+02
4.612352167621e+01
3.669663071890e+01
7.866127441967e+01
1.645557928665e+02
1.278608416948e+02
7.165210431859e+01
6.098300339097e+01
1.360887449815e+02
9.533209423956e+01
1.442368236365e+02
1.656632446952e+02
5.657903109049e+01
1.178491281249e+02
1.429179259445e+01
1.765573712651e+02
9.934073948320e+01
1.752313395082e+01
7.590085326577e+00
1.760501372810e+01
9.907663777803e+00
2.037512380995e+01
1.725340664595e+01
2.589870918967e+01
2.642067544620e+01
3.342056478746e+01
3.491217493559e+01

SCALARS node_materi_strain_total_average_a_ept float
LOOKUP_TABLE default
5.218897792222e-04
2.735511973818e-03
1.979358220742e-03
4.215133846515e-03
4.732024409153e-04
4.909836537642e-04
4.816921728460e-04
5.029460110764e-04
5.128785135730e-04
5.368621571993e-04
5.728157398912e-04
6.201359565865e-04
6.820244429826e-04
7.565025022584e-04
8.443191564890e-04
9.428370499419e-04
1.047831021364e-03
1.163464755174e-03
1.293987911708e-03
1.429421010626e-03
1.572913271933e-03
1.724091277990e-03
1.871849459097e-03
4.224247121694e-03
4.213209209694e-03
4.209925279904e-03
4.200585074263e-03
4.180645102861e-03
4.171425473925e-03
4.146745229812e-03
4.118374458223e-03
4.090090874173e-03
4.054803983954e-03
4.002278433559e-03
3.956744406268e-03
3.891609341137e-03
3.824190667151e-03
3.741042115812e-03
3.650799598129e-03
3.546345864856e-03
3.432334611127e-03
3.314651663496e-03
3.188649438311e-03
3.049885391289e-03
2.900466058171e-03
2.750785819391e-03
2.598080932837e-03
2.448414842708e-03
2.305783694666e-03
2.163565670246e-03
2.040983376771e-03
1.919934314128e-03
1.821452895164e-03
1.728366085531e-03
1.648508202297e-03
1.585000134118e-03
1.553075487793e-03
1.531417779455e-03
1.519901216603e-03
1.541129250161e-03
1.554735795328e-03
1.592638490773e-03
1.627839184469e-03
1.679521127361e-03
1.740210966867e-03
1.788367564941e-03
1.819613898050e-03
1.881963745166e-03
1.910308007146e-03
1.945474438327e-03
1.971977658136e-03
1.983847041837e-03
2.881612469066e-03
3.025491100032e-03
3.171630505053e-03
3.318292134786e-03
3.469855135881e-03
3.624139589746e-03
3.780068805558e-03
3.941680866142e-03
4.098851586769e-03
-1.438924054931e-03
2.385132895701e-03
-3.738181538954e-04
1.941476948152e-04
6.193388939332e-04
1.001111880818e-03
1.433390928190e-03
1.810019821179e-03
1.943255219171e-03
2.072482035216e-03
2.218921040580e-03
2.087462222434e-03
2.177973270250e-03
2.316893336135e-03
2.454582026139e-03
2.592255017923e-03
2.717529079704e-03
2.723876490949e-03
2.718778602673e-03
2.708834560472e-03
2.717801992206e-03
2.689367851707e-03
2.671167571312e-03
2.654791892499e-03
2.633205119053e-03
2.604074004828e-03
2.571236548283e-03
2.533487991645e-03
2.490578384416e-03
2.444864256707e-03
-2.066553813060e-03
-2.361197496098e-03
-2.445856594475e-03
-2.221635792322e-03
-1.349323713319e-03
-5.176188665457e-04
-1.768581656806e-04
-4.017925289505e-05
2.917984932664e-05
9.738257732861e-05
1.553188974330e-04
2.211830778563e-04
2.931517362616e-04
3.588769018293e-04
4.095274802232e-04
4.536896077564e-04
4.868638223778e-04
5.099934599476e-04
5.322398938482e-04
1.799013460432e-03
1.940549836106e-03
2.040688079843e-03
2.088676069265e-03
2.118616392441e-03
2.131750179041e-03
2.136664063760e-03
2.136032218747e-03
2.136035928710e-03
2.137803924008e-03
2.137072815026e-03
2.135145983623e-03
2.132782410590e-03
2.130390659251e-03
2.128215089393e-03
2.126389890897e-03
2.125062124270e-03
2.124405180814e-03
2.124486795547e-03
2.124735390048e-03
2.115656145309e-03
2.090778549669e-03
2.180273255469e-03
2.184563197868e-03
2.184438413839e-03
2.183413054514e-03
2.182050700071e-03
2.180509070229e-03
2.178971566601e-03
2.177027697973e-03
2.174620542879e-03
2.171648775742e-03
2.167517528478e-03
2.161460639173e-03
2.152247077088e-03
2.141949096608e-03
2.132828344536e-03
2.119309803536e-03
2.096761339231e-03
2.064741161380e-03
2.004271077824e-03
1.942291384794e-03
2.025736562916e-03
2.080100927392e-03
2.131451033723e-03
2.164283181578e-03
2.190669600349e-03
2.212647281288e-03
2.235147495842e-03
2.253367499314e-03
2.267502239842e-03
2.278687642681e-03
2.287978388884e-03
2.295937710367e-03
2.302179664900e-03
2.307377489932e-03
2.311945217948e-03
2.315403627082e-03
2.317653718233e-03
2.318444284419e-03
2.317391372069e-03
2.454791450749e-03
2.453794293529e-03
2.450862091241e-03
2.446332051028e-03
2.440298858356e-03
2.432477817491e-03
2.422926611371e-03
2.410552314830e-03
2.395995276617e-03
2.379144277479e-03
2.359504117700e-03
2.334883973778e-03
2.304679876966e-03
2.269700352058e-03
2.235600034620e-03
2.189674552513e-03
2.135313043812e-03
2.268775960066e-03
2.325397750118e-03
2.372840833653e-03
2.412943335897e-03
2.447170734032e-03
2.475731056954e-03
2.499903354600e-03
2.521547798833e-03
2.539953072198e-03
2.553851145622e-03
2.565936077097e-03
2.574776242969e-03
2.582400594288e-03
2.587749529835e-03
2.592085557036e-03
2.593183103618e-03
-7.780534719574e-04
-6.037407780859e-05
4.183462256148e-04
8.110572799841e-04
1.143213761684e-03
1.679591295953e-03
1.881272093170e-03
2.010497160722e-03
2.149545422545e-03
2.305662172338e-03
7.102143331279e-05
1.569772017376e-03
3.368006419763e-05
-1.453672672695e-03
1.551196102952e-03
9.134666170998e-04
7.993514730456e-04
1.849102371416e-03
1.619311015571e-03
2.335252770903e-03
2.005204984897e-03
1.719059051691e-03
2.988536870446e-04
2.904837229026e-03
2.361451276643e-03
5.521546592251e-04
1.082053195472e-03
3.279259101574e-03
3.690760731382e-03
4.088235191084e-03
3.994765779010e-03
3.885886927339e-03
2.564119559589e-03
2.735621575084e-03
2.815458146180e-03
3.395201272704e-03
1.824029777392e-03
-1.808293960929e-03
4.381242011578e-04
1.494247812046e-03
2.839897348174e-03
4.932392894786e-04
3.485898801150e-03
2.083102851631e-03
2.620171515799e-03
1.688477143718e-03
1.517713294635e-03
-2.752116155894e-04
2.658712987303e-03
1.602171173063e-03
3.696357614899e-03
1.644253517449e-04
6.472428803200e-04
4.138441581983e-03
1.252892096889e-03
5.277373781421e-04
1.834652731505e-03
2.179395457488e-03
-5.978152279140e-04
3.110086957456e-03
1.903750471084e-03
4.808918482964e-04
4.013918958501e-03
2.449789258407e-03
2.444643623845e-03
2.562920162800e-03
2.542341356198e-03
2.671000810636e-03
2.652604525978e-03
2.517690211262e-03
2.629588436534e-03
2.487201476777e-03
2.784425436651e-03
2.601433621280e-03
2.451357102274e-03
2.567694568907e-03
2.410825028809e-03
2.301099225381e-03
2.252281391917e-03
2.150379171084e-03
2.093314797317e-03
2.201308062404e-03
2.035008371542e-03
1.934123846303e-03
1.867499695929e-03
1.772654801531e-03
1.699106793956e-03
1.610480074488e-03
1.532224656022e-03
1.630261915844e-03
1.460637188144e-03
1.372499166760e-03
1.300694892318e-03
1.222309578976e-03
1.156258035220e-03
1.239988184908e-03
1.101976594027e-03
1.026942558005e-03
9.759274497738e-04
9.093547260998e-04
8.712523713505e-04
8.232940008905e-04
7.954605184549e-04
8.345516528861e-04
7.618361131724e-04
7.165018154895e-04
6.907007939488e-04
7.246577314228e-04
6.576480567377e-04
6.892341741611e-04
6.179170855011e-04
5.798629561929e-04
5.445327181550e-04
5.927848617019e-04
5.222747349387e-04
4.687387056254e-04
4.604696527562e-04
5.262809044638e-04
4.769631023406e-04
4.083619099689e-04
4.423446371311e-04
5.019525115786e-04
4.733964084490e-04
4.181965180732e-04
4.542704004473e-04
5.139035507622e-04
4.974448343775e-04
5.702407249786e-04
4.414020475878e-04
4.870506498980e-04
4.344985593145e-04
4.809522652638e-04
1.192171333992e-03
4.310453657257e-04
3.855729069644e-04
4.776635643086e-04
5.343508511179e-04
4.299527414505e-04
4.761716953326e-04
4.318765568929e-04
8.515995977743e-04
2.149902450386e-03
4.761311111498e-04
4.353869425099e-04
3.929297722730e-04
3.994080174119e-04
2.791257296660e-03
2.919182691981e-03
2.918569317127e-03
3.052759134546e-03
3.046067330320e-03
4.405401699830e-04
2.723814184543e-03
3.052490464501e-03
1.848937371925e-03
1.302646142333e-03
7.636289208085e-04
5.243662172604e-04
5.212810842105e-04
5.751410025696e-04
5.944357684257e-04
6.678120795844e-04
7.043453404920e-04
7.906794662307e-04
8.407698033595e-04
9.297305191849e-04
8.809213504225e-04
1.018558179573e-03
9.712936055666e-04
9.868610070960e-04
9.037285611001e-04
1.107249624638e-03
1.060706456758e-03
1.196051700214e-03
1.147597270468e-03
1.015740263924e-03
1.099778920114e-03
9.741074363178e-04
7.393119044687e-04
8.442909754882e-04
8.511645705047e-04
9.927077555236e-04
1.004057528262e-03
1.135612299540e-03
1.139009528396e-03
1.018759730093e-03
2.527883375859e-03
6.197742450795e-04
6.371750815709e-04
5.231162005342e-04
5.406438264649e-04
4.024090267884e-04
4.197477714977e-04
2.402802682177e-04
2.425070827290e-04
3.051245174639e-05
7.984443468636e-05
-1.674488419793e-04
-4.331839029024e-05
1.568256564492e-03
1.138020082017e-03
1.268971398442e-03
1.278094362382e-03
3.567682742877e-04
1.231527513851e-03
1.049418647117e-03
9.740697658133e-04
1.153621122444e-03
4.081823512923e-04
2.659079610495e-04
4.450575208008e-04
3.184631558443e-03
3.171937868678e-03
1.115920044877e-03
4.501957267409e-04
1.157341511326e-03
-2.314817176123e-04
1.181138463306e-03
1.314285140077e-03
8.404804584007e-04
1.405004780676e-03
1.419108102633e-03
1.499426013671e-04
7.913623595559e-05
-7.829980453322e-05
4.254237622604e-05
1.597374316352e-04
1.218145887008e-04
2.517657733655e-05
1.250178515110e-04
1.884147992653e-04
1.819160800511e-04
1.119211450141e-04
1.794013766894e-04
1.368491839598e-03
-4.581081451966e-04
2.205423633789e-03
1.186448225234e-03
1.262405790079e-03
3.315885381762e-03
3.296270771681e-03
3.153302718176e-03
3.271401769749e-03
3.419233407553e-03
3.388324029479e-03
3.241732465468e-03
3.353225598348e-03
3.207809826021e-03
3.314124415758e-03
3.463802576239e-03
3.419521290284e-03
3.270915990678e-03
3.371912501196e-03
3.223977263946e-03
3.320538481317e-03
3.472063044193e-03
4.286450570245e-04
1.043571982776e-03
1.176319870940e-03
5.663555381242e-04
6.291356560302e-04
6.457333022030e-04
7.061938184298e-04
3.415454076427e-03
3.571022710217e-03
3.019404016990e-04
4.750126819109e-04
3.330004117273e-03
1.259127425019e-03
1.130694460755e-03
1.157849469643e-03
1.245857438663e-03
1.100017858088e-03
1.194212652831e-03
1.343945317635e-03
1.036069990438e-03
8.224442875724e-04
3.572679051291e-03
3.493948615670e-04
3.107705296850e-04
1.394779231815e-03
8.982171419548e-04
1.745614548227e-03
1.693385981299e-03
1.871981295157e-03
1.822811416995e-03
1.999443960801e-03
1.947963325871e-03
1.778569162970e-03
1.544896841638e-03
1.902839462679e-03
3.263552726116e-03
1.137345519973e-03
2.348882084268e-04
3.842224239373e-04
1.372624102303e-04
4.593012064522e-04
4.836546741589e-04
1.247548018062e-03
2.125472168936e-03
2.176866387802e-03
1.302701943552e-03
1.452512045435e-03
1.522825044044e-03
2.914642808006e-03
3.100695226552e-03
3.067879252479e-03
4.409928446565e-04
6.513313208284e-05
3.540393727189e-03
5.871082283109e-04
6.173455627927e-04
-5.527202188928e-04
-7.779733430424e-04
3.509488937190e-03
3.665418227361e-03
7.290651429445e-04
7.962150047616e-04
1.187688651415e-03
1.972889314214e-04
3.728198536424e-03
9.376537222631e-04
7.816815932796e-04
6.840883737564e-04
3.297987721998e-04
1.102073513688e-04
2.426909115792e-04
2.411932782279e-04
4.888287529599e-04
1.310846622186e-03
3.572283077976e-03
1.738527493874e-03
1.610391393184e-03
1.857264042239e-03
1.534279717545e-04
1.317495040592e-03
1.333806205227e-03
2.299448273489e-03
2.353750659180e-03
7.097280225356e-04
7.440626725264e-04
6.566241359112e-04
8.099520740107e-04
2.386383036180e-03
8.202672432923e-04
2.067095341486e-03
2.128058359633e-03
1.998238004322e-03
1.488949369346e-03
1.593157694063e-03
6.567693151594e-04
8.614135619343e-04
6.617640864092e-04
8.914365119184e-04
6.290620114764e-04
3.618056683964e-03
3.730381136864e-03
3.126277604959e-03
3.079358487373e-03
3.181533259397e-04
2.695289903099e-04
6.413754033978e-04
1.260219335212e-03
3.466404520428e-03
3.481866290595e-03
3.338662050727e-03
1.259069522551e-03
5.100462252837e-04
7.350936365175e-04
-6.045548396204e-04
1.345900010690e-03
2.832795536074e-04
2.320403048658e-03
1.473339512135e-03
1.534411578368e-03
1.656050725600e-03
2.334849216440e-03
1.312145369963e-03
1.158157305606e-03
2.064008113991e-03
1.948132482994e-03
1.867748876288e-03
1.824935779814e-03
2.932580929261e-04
2.905088178784e-04
2.260174342258e-03
2.019440538248e-03
2.481613750149e-03
2.539904138975e-03
1.629436453167e-03
1.506105007288e-03
5.139289334957e-04
1.566941034094e-03
3.697963979978e-03
2.181630318412e-03
1.385171504401e-03
1.341854520495e-03
-9.660801483327e-04
-6.283643043759e-04
3.825234251849e-03
7.318180366507e-04
9.076839934359e-04
5.570444226985e-04
1.797126015184e-03
2.846601302097e-03
1.618648013088e-03
1.634844007443e-03
3.890645206045e-03
1.294861900698e-03
1.020454558674e-03
1.131543157396e-03
3.748375502349e-03
3.923903343877e-03
2.965463790591e-03
2.926856237002e-03
2.990034154421e-03
-2.052660207591e-04
-5.257306426595e-04
3.680178465266e-03
5.191175700608e-04
5.677343291891e-04
2.563826850742e-04
2.987002314563e-04
7.528739452724e-04
6.791786179264e-04
2.273457073279e-03
2.446162367726e-03
1.923572318323e-03
8.353390284344e-04
6.848015380053e-04
6.583150974813e-04
3.774520334447e-03
3.902632219517e-03
3.055742553327e-04
2.700767483030e-04
3.459565978688e-04
3.730960266234e-03
1.678155535806e-03
1.593413650333e-03
2.280374648930e-04
2.236857533300e-04
1.860186307700e-04
-6.508773257594e-05
3.489759658329e-03
3.340157043292e-03
3.646176838288e-03
5.149953265292e-04
1.584359995868e-03
1.368764271877e-03
1.339820475971e-03
1.439365228238e-03
1.682739049246e-03
1.779601465469e-03
1.964524359775e-03
-1.193708112058e-03
3.878348299757e-03
2.979245606311e-03
-1.418102924235e-03
2.934165159759e-03
3.027280867161e-03
2.874378596810e-03
4.962860457817e-04
2.840267369264e-03
2.877842525203e-03
1.570784074197e-04
3.863219211454e-03
2.478969257007e-04
3.105134433418e-04
1.475626314357e-03
1.428466589077e-03
1.553316332239e-03
1.507698830799e-03
1.378869368184e-03
1.469218926040e-03
2.880052158651e-03
1.618251355215e-03
1.564147612004e-03
1.718789221481e-03
1.915535159236e-03
9.712903055122e-04
1.084879446724e-03
1.028284467730e-03
2.695040963970e-03
2.715243432853e-03
1.411571203299e-03
1.276174346086e-03
2.963414040468e-03
2.967134524833e-03
3.094716806270e-03
3.086283676997e-03
3.216357643871e-03
3.202795024709e-03
3.338432246148e-03
2.148611221275e-03
6.387058241861e-04
2.122988860881e-03
1.602173344723e-03
1.484257029162e-03
1.700507730530e-03
1.690903722418e-03
1.457510317596e-03
7.867903461538e-04
3.914234501876e-03
-1.435839878571e-03
-1.034408717161e-03
8.904077017745e-04
1.730909846858e-03
1.140529514038e-03
1.258204280527e-03
9.904832936020e-04
1.740809499791e-04
3.735122482083e-04
3.345018459479e-03
2.320841014423e-04
1.354821697102e-03
7.616976906981e-04
1.540659458514e-03
5.016480408294e-04
8.794601284136e-04
2.345956884742e-03
2.419985127296e-03
2.299306092248e-03
7.395051167916e-04
1.428439716393e-03
1.399700215341e-03
2.001492495539e-03
3.193270373077e-03
3.189222153681e-03
3.331856675467e-03
3.175394670700e-03
3.034840336647e-03
3.016901424169e-03
3.164205927449e-03
2.995647879203e-03
3.168206886367e-03
2.961279054625e-03
2.823200041109e-03
2.785257651905e-03
2.905339316615e-03
2.652313974910e-03
1.709521242322e-03
9.569888347618e-04
-9.070024666183e-04
-6.268464917528e-04
1.694974290670e-03
3.388997924412e-03
3.602384546481e-03
5.606154299143e-04
2.762292867354e-03
2.255611181384e-03
3.612269605610e-05
2.477152929969e-03
3.046789779986e-03
2.898403948686e-03
2.911653789251e-03
3.764692867536e-03
3.014649487250e-03
1.972909772324e-03
9.844552644764e-04
9.912463172588e-04
8.937540067275e-04
2.854175070513e-03
1.615636610694e-03
1.519521764949e-03
1.479330341886e-03
1.406658149261e-03
1.537371859025e-03
3.172323215067e-03
3.049520762972e-03
2.024865598171e-04
2.502877603929e-04
3.254557803402e-04
3.169396908600e-04
2.137165784703e-04
2.963950464036e-04
4.035830303437e-04
2.675849058358e-04
2.579910652035e-03
1.522695638801e-03
7.549585051233e-04
6.775517214398e-04
5.730264506384e-04
5.956349802059e-04
6.075828391297e-04
6.988371933959e-04
5.852799018759e-04
1.648458488773e-03
1.530951094098e-03
7.488316314492e-04
5.423447733351e-04
2.614254006425e-03
2.692040700181e-03
2.632120012722e-03
2.777862750864e-03
2.756761982717e-03
8.262018055099e-04
8.969453293921e-04
8.596479873701e-04
9.642180685415e-04
9.181738205259e-04
8.261371973628e-04
1.026375188295e-03
9.641398511227e-04
2.695954376411e-03
-7.588807329495e-04
-3.726815658041e-04
-1.009452909902e-04
-1.339039385325e-04
-3.779993744272e-04
-1.206957278383e-04
-2.777774218753e-04
-7.761415009872e-04
-1.116189783184e-04
-1.077339998821e-05
-2.917500770055e-05
4.928238458030e-05
9.075434607167e-05
2.666773998485e-04
1.838152355988e-03
7.146203559201e-04
6.723806939888e-04
6.149453704602e-04
6.298070444507e-04
7.419022477057e-04
5.933701131239e-04
5.712092014548e-04
4.651289878298e-04
4.697194671467e-04
4.842901103685e-04
4.807620206545e-04
4.695823537289e-04
4.510478528033e-04
4.192215233338e-04
4.016830196126e-04
3.816704944828e-04
4.113848832796e-04
3.544684973365e-04
3.547148173043e-03
3.631297820869e-03
1.577993040927e-03
2.774806322682e-03
9.513766558022e-05
4.078224256496e-03
4.041286473520e-03
4.072387631556e-03
1.643032263198e-03
1.709862949020e-03
4.106064371039e-03
3.884643355915e-04
3.313601126179e-03
3.785709705932e-03
8.845382475109e-05
2.924999616880e-04
1.202916119948e-03
9.290925324576e-04
1.452456081034e-03
1.053966602433e-03
1.283385347893e-03
1.445955859758e-03
4.739115083789e-04
3.168992030162e-03
3.173125078307e-03
3.524083321619e-03
4.773094421330e-04
7.700194388146e-04
3.675852927243e-04
2.441132267523e-03
1.926089359392e-03
5.385269658652e-04
5.288568735027e-04
3.857652888092e-04
2.357219453665e-04
1.086279274601e-03
5.537390835080e-04
1.071550311348e-03
3.627278704980e-03
2.327083491617e-04
1.127248652710e-03
7.519385450677e-04
3.129202156495e-03
1.262811785848e-03
2.161292223442e-05
3.503648477608e-03
3.617794322297e-03
2.901650842777e-03
3.393080885678e-04
3.025603789244e-03
1.364468074080e-03
3.192196898253e-03
4.791028060887e-04
6.644200947156e-04
1.453060084896e-03
2.270921479982e-03
3.836996522242e-03
1.055316404749e-03
1.279542009328e-03
8.706198535576e-04
5.159360087418e-04
1.293777098043e-03
7.974044359835e-04
3.658415762312e-03
2.049909827020e-03
6.030354412237e-04
3.445613805397e-03
5.422832425022e-04
1.391406987155e-03
1.782217410641e-03
1.803966605064e-03
2.366130106345e-03
1.397805546716e-03
1.147149948039e-03
1.208744367691e-03
-3.007613197122e-04
9.516511731091e-04
3.035176627571e-03
2.065404229454e-03
3.816266274128e-03
1.391892071955e-03
1.243960184209e-03
3.598806715931e-03
6.221086366193e-04
5.037888173890e-04
-1.564224647365e-04
3.984414626356e-04
9.320381076194e-04
7.222265393964e-04
3.500229736066e-03
1.331590565425e-03
1.050396437179e-03
-2.202377478824e-04
2.230035585358e-03
1.420295723152e-03
6.560233060879e-04
1.379034500167e-03
8.702641748774e-04
2.305166828424e-03
1.809041746634e-03
1.510880531275e-03
1.084095171290e-03
6.803442242381e-04
2.846994052272e-03
1.675646945533e-03
1.213805227032e-03
1.516433991172e-03
5.886867459936e-04
2.091710176258e-03
8.070224511106e-04
1.978047767504e-03
3.833772105516e-03
1.291242588369e-03
2.770269645227e-03
7.782616990437e-04
1.285847687407e-03
4.475299382367e-04
2.022416827857e-03
8.576498727021e-04
4.017549713370e-04
5.938176954953e-04
1.756425085343e-03
9.350249442641e-04
5.012073133196e-04
1.009300342646e-03
1.923899990409e-03
2.750036092200e-03
1.080922637999e-03
2.099573062589e-03
3.730227898201e-04
1.476130439158e-03
1.556328470921e-03
3.906685471475e-04
6.196400873397e-04
2.879686418847e-03
1.744916988418e-03
7.447813674320e-04
2.225813694641e-03
1.450464503440e-03
1.016960802528e-03
9.030193159774e-04
1.563511224910e-03
3.450865725970e-04
3.060260761700e-04
4.909003391794e-04
2.403623773813e-03
4.825298799550e-04
2.690264194256e-03
2.180508818940e-04
4.017417102384e-04
1.566012552196e-03
3.251450294143e-03
3.944627166277e-04
5.216102820499e-04
3.367381578360e-04
1.138934016136e-03
3.742322759536e-04
3.561656939228e-04
3.941730310363e-03
4.009630699193e-04
4.137256392625e-03
1.883477126160e-03
2.960860870137e-03
1.498685293134e-03
-1.882053193879e-03
1.194614250454e-03
3.399779106512e-04
2.486245236069e-03
2.964079663073e-03
3.404375483210e-04
3.083730037325e-03
2.204854346449e-03
3.471099399789e-03
1.369650533767e-03
1.435454611821e-03
3.846951279722e-03
2.804637274908e-03
9.622035506750e-05
1.221649488490e-03
1.087575150264e-03
8.240336601971e-04
4.421282023239e-04
5.466632404403e-04
2.027301385631e-05
7.240715171758e-04
1.556963893541e-03
2.847464015040e-03
1.709058579755e-03
3.177964184626e-04
3.749154032312e-03
1.940055436021e-03
1.673128929478e-03
1.821866614486e-03
-2.274412478212e-06
2.806998313143e-03
2.573400269284e-03
3.583666351042e-03
1.753670227049e-03
2.765813035880e-03
3.993492425735e-03
-3.035600153285e-04
4.010499338608e-03
2.614643896075e-03
3.120875939428e-03
2.688045585046e-03
1.770152934396e-03
3.304582275712e-03
-3.636171880657e-04
3.453662592844e-03
6.130299151264e-04
-1.134453716591e-03
1.499334746368e-03
2.745040967676e-03
1.721437880410e-03
4.899856781323e-04
1.904991984636e-04
1.473296850430e-03
2.868496154317e-03
-7.380186605414e-05
4.001987962394e-03
-8.606315183351e-04
2.758544178307e-03
3.335460044767e-04
1.811019239066e-03
3.907536458496e-03
6.970805915816e-04
2.512517542972e-03
5.388321606927e-04
2.153656634497e-03
1.161708497387e-04
3.967711234723e-03
1.464733697344e-03
3.612793915925e-03
1.792957514350e-03
-1.365724859124e-03
2.071641879711e-03
1.392777933700e-03
2.820706567152e-03
3.450372993473e-03
5.860100812416e-04
4.124935326098e-04
4.162942180449e-03
4.999180502485e-04
2.832551834936e-03
1.928835753336e-03
4.645238383879e-04
3.065781735655e-03
2.995047095726e-03
8.986566101712e-04
3.754842692963e-03
-2.028048038446e-05
-1.922061533211e-03
3.329948611727e-03
1.856739861980e-03
3.745470933194e-03
3.207933049974e-03
-3.276195421657e-04
2.847330205016e-03
7.494904949870e-04
2.416971214472e-03
1.465894940844e-03
-1.033155305623e-03
9.878580826696e-04
2.858954636030e-04
1.611874603374e-03
7.967156963188e-04
1.875139779494e-03
2.102071625627e-03
1.948309951763e-03
2.252830861439e-03
2.049583889305e-03
2.381173416310e-03
2.176031939965e-03
2.528673734573e-03
2.319242197305e-03
2.657640199121e-03

SCALARS node_materi_strain_total_size_dev_sd_ept float
LOOKUP_TABLE default
2.531374603259e-03
8.597703885816e-03
4.962247698708e-03
1.045647050053e-02
1.863333630177e-03
1.027124786690e-03
6.036050041969e-04
1.174510116613e-03
1.872266597895e-03
2.438007383892e-03
2.884566642514e-03
3.218901258738e-03
3.461404368365e-03
3.644766414604e-03
3.788798462905e-03
3.922179070575e-03
4.045273919443e-03
4.167484480474e-03
4.314031268780e-03
4.466240138283e-03
4.623621655751e-03
4.776895394843e-03
4.909381400965e-03
1.044537594393e-02
1.043213604594e-02
1.043320964460e-02
1.042333629296e-02
1.041606962196e-02
1.041000270451e-02
1.039810554589e-02
1.037355224180e-02
1.035693312719e-02
1.032402514511e-02
1.029819716502e-02
1.026228841791e-02
1.021750644384e-02
1.015565423785e-02
1.009389652344e-02
9.998753422342e-03
9.901625278788e-03
9.784228531751e-03
9.638791617643e-03
9.467020035643e-03
9.249925645682e-03
9.003310432024e-03
8.708580407762e-03
8.370562659611e-03
8.000462317206e-03
7.594797241142e-03
7.151660350161e-03
6.677206191341e-03
6.187979976076e-03
5.730593229895e-03
5.242767533611e-03
4.757368571936e-03
4.319850901364e-03
4.006782196685e-03
3.764496700756e-03
3.639810040613e-03
3.609511485221e-03
3.660189098484e-03
3.761375440240e-03
3.915058908349e-03
4.094604992755e-03
4.288363240391e-03
4.437794209835e-03
4.545138258072e-03
4.699419677339e-03
4.779247583160e-03
4.854782197570e-03
4.915604126968e-03
4.945480488594e-03
8.921416932778e-03
9.221755926065e-03
9.485838400485e-03
9.713549208758e-03
9.914483180856e-03
1.008450896893e-02
1.022400712989e-02
1.033256769883e-02
1.042748543087e-02
4.582763460418e-03
8.901771906353e-03
5.504447777539e-03
5.458076276672e-03
5.823373325731e-03
6.320655404238e-03
6.964516369365e-03
7.022794942832e-03
7.441570962755e-03
7.945473394096e-03
8.440137150170e-03
6.861249645088e-03
7.086874355169e-03
7.468996891812e-03
7.855410817619e-03
8.226882579555e-03
8.548918284375e-03
8.578070652206e-03
8.595027433158e-03
8.608898806258e-03
8.673838741643e-03
8.661003915992e-03
8.687951030826e-03
8.718857285795e-03
8.767075648224e-03
8.802079000695e-03
8.832436998139e-03
8.858519889492e-03
8.872721560696e-03
8.881454452153e-03
3.167468776988e-03
2.992688890462e-03
3.187196274895e-03
3.143637196158e-03
3.296884963657e-03
2.481750870660e-03
1.004330854369e-03
4.906096309253e-04
2.762528699330e-04
2.498337906724e-04
4.963524953906e-04
8.671801224416e-04
1.276007895959e-03
1.638335495446e-03
1.895865106514e-03
2.122028875612e-03
2.299149787023e-03
2.459038867851e-03
2.570707531815e-03
6.730898276638e-03
6.371122109550e-03
6.284259411941e-03
6.294534983845e-03
6.345120017320e-03
6.407458487023e-03
6.481639790747e-03
6.554328705132e-03
6.613148229181e-03
6.652165685072e-03
6.689172713616e-03
6.722422306816e-03
6.751772839154e-03
6.777423172330e-03
6.799143854993e-03
6.816401498099e-03
6.829510544209e-03
6.839261470066e-03
6.846185494497e-03
6.849425850429e-03
6.846160754967e-03
6.818986181583e-03
7.079343545529e-03
7.068444050088e-03
7.066233120337e-03
7.063527922567e-03
7.061283506055e-03
7.058257109816e-03
7.052976028481e-03
7.045386532974e-03
7.035483478442e-03
7.023804396576e-03
7.010624573559e-03
6.995781938279e-03
6.978993061060e-03
6.950478886391e-03
6.904270484040e-03
6.855366048771e-03
6.808435695355e-03
6.769741886394e-03
6.791390430173e-03
6.782018380135e-03
7.389791557594e-03
7.462593904844e-03
7.472694756749e-03
7.506050804045e-03
7.536442992130e-03
7.554447196133e-03
7.554987074669e-03
7.547170714157e-03
7.538617761454e-03
7.530430300080e-03
7.522353178820e-03
7.512677085603e-03
7.503415952729e-03
7.494616781375e-03
7.486191404570e-03
7.480637368119e-03
7.477448834827e-03
7.474669342982e-03
7.472056625458e-03
7.859267953693e-03
7.866577527284e-03
7.874622271760e-03
7.884929590379e-03
7.898608655703e-03
7.916735368802e-03
7.937149133183e-03
7.961890839696e-03
7.985182293381e-03
8.007573074804e-03
8.028219452522e-03
8.048117114976e-03
8.064450138610e-03
8.064137117910e-03
8.039998167989e-03
8.028311939589e-03
7.947233045601e-03
8.439772575691e-03
8.518183061504e-03
8.517220179697e-03
8.503702310728e-03
8.482088587901e-03
8.454634095377e-03
8.423132944227e-03
8.388982138519e-03
8.355422119680e-03
8.324964534441e-03
8.299362537954e-03
8.277822229268e-03
8.262009023836e-03
8.246887162563e-03
8.238668900519e-03
8.238247668301e-03
6.146210682160e-03
5.286500435980e-03
5.621251196648e-03
6.038963879830e-03
6.851783804556e-03
7.073186833446e-03
7.290925288889e-03
7.757742456359e-03
8.253486619043e-03
8.715450455219e-03
5.435211618638e-03
3.740791918975e-03
7.316651316748e-04
3.296836685399e-03
3.374763796471e-03
6.185418736918e-03
3.709045022242e-03
5.553240507567e-03
7.150084191649e-03
7.535046540112e-03
8.022203270917e-03
4.211683168737e-03
1.115725748484e-03
9.008660230221e-03
8.968517019985e-03
2.690356768737e-03
4.049489219234e-03
9.673904245134e-03
1.014885213829e-02
1.041544993531e-02
1.038312258417e-02
1.030754842933e-02
9.159861814927e-03
9.085351196256e-03
9.012629022443e-03
9.821595864484e-03
4.648164811742e-03
3.006507029025e-03
1.749265484121e-03
4.516305025529e-03
8.894949829860e-03
8.364251547994e-04
9.947634271694e-03
6.640319424039e-03
8.359598549725e-03
4.593425009645e-03
3.299371943680e-03
2.625111553411e-03
9.132515042921e-03
3.689707500553e-03
1.015720582148e-02
5.155583595050e-04
3.340074518056e-03
1.043603420735e-02
6.824642969441e-03
5.751190016714e-03
7.570616977458e-03
8.508615080769e-03
5.832482102648e-03
9.379940244564e-03
4.863041275785e-03
2.024266636684e-03
1.037030206211e-02
9.150856712121e-03
9.189142373291e-03
9.343875146287e-03
9.342851828999e-03
9.498075463897e-03
9.453648666176e-03
9.286415996694e-03
9.366845884279e-03
9.169101663332e-03
9.618487020859e-03
9.228068194022e-03
8.995370078433e-03
9.040068910492e-03
8.770585642860e-03
8.733323406993e-03
8.478811518776e-03
8.424802904871e-03
8.143253695700e-03
8.175745053939e-03
7.812539742591e-03
7.765641385205e-03
7.419863965994e-03
7.380532900816e-03
7.019224559375e-03
6.995055422079e-03
6.629530332130e-03
6.642894180908e-03
6.264792952701e-03
6.271682321097e-03
5.925660903353e-03
5.958403856663e-03
5.654629694885e-03
5.602423548323e-03
5.420871346246e-03
5.569165371164e-03
5.467755497597e-03
5.691831134257e-03
5.635679351991e-03
5.828749680928e-03
5.777551075389e-03
5.540882708556e-03
5.676409304603e-03
5.879784122234e-03
5.745779272994e-03
5.506458690901e-03
5.539429935674e-03
5.237452183915e-03
5.234988206914e-03
5.499337016194e-03
5.149005359582e-03
4.757475048720e-03
4.630602051233e-03
5.024712767175e-03
4.457156331229e-03
3.977626289694e-03
3.854471834412e-03
4.278203623032e-03
3.784762228005e-03
3.481653662507e-03
3.491401422432e-03
3.761487090551e-03
3.503976097420e-03
3.212473187967e-03
3.254802375391e-03
2.987589941981e-03
3.498500743037e-03
3.284119127168e-03
3.457125649854e-03
3.282976717342e-03
5.319070580281e-03
3.363387702329e-03
3.541986342564e-03
3.239628742641e-03
3.185114356737e-03
3.218225832110e-03
3.150397831989e-03
3.026646675650e-03
5.849360938529e-03
7.829717142884e-03
3.010747569493e-03
2.782572021477e-03
2.809783725932e-03
2.452573748090e-03
9.641281428516e-03
9.764902363043e-03
9.767122367026e-03
9.902947495093e-03
9.893443801340e-03
2.485764945200e-03
9.292453204402e-03
9.876916050371e-03
7.715937750612e-03
6.295182550872e-03
5.133970008008e-03
3.147328710179e-03
3.056663314601e-03
3.202710568148e-03
2.894311701377e-03
2.719505993004e-03
2.561886006614e-03
2.457518805386e-03
2.219646272629e-03
2.241578720695e-03
2.506862546619e-03
2.437316718665e-03
2.688596105320e-03
1.961348958089e-03
1.956101338339e-03
2.741128480290e-03
2.956451577385e-03
3.091380250642e-03
3.267395638631e-03
3.162477364143e-03
3.434044984941e-03
3.342509471674e-03
4.738820833577e-03
4.541382444613e-03
3.969463750421e-03
3.782064829671e-03
3.208555419821e-03
3.213952057719e-03
2.729207277233e-03
2.680430571496e-03
8.810140207942e-03
5.949448263948e-03
6.018945268845e-03
6.055571687908e-03
6.078041459520e-03
6.078188558662e-03
6.103622414715e-03
6.060375289096e-03
6.000812586816e-03
5.913750701958e-03
5.880415953638e-03
5.709959625520e-03
5.807922021168e-03
6.257277591970e-03
3.726563190001e-03
3.386321410877e-03
3.848347770431e-03
2.470125977734e-03
3.587455919284e-03
1.701037032055e-03
1.697458802321e-03
2.271181596514e-03
2.046567249904e-03
6.073695845182e-03
6.072555723192e-03
1.002109697300e-02
1.000268367765e-02
1.513663999843e-03
2.130262326293e-03
2.527241687690e-03
5.686062237126e-03
3.708484374756e-03
3.882902820055e-03
2.745549764818e-03
3.721444950019e-03
4.131348996413e-03
5.791203770390e-03
5.738528401311e-03
5.817943276730e-03
5.601658485386e-03
5.485572829487e-03
5.285267238019e-03
5.380061520004e-03
4.995532340609e-03
4.906793838880e-03
4.500481233309e-03
4.356074980959e-03
3.927567104602e-03
3.792320271634e-03
5.455830789947e-03
8.653414738098e-03
1.784134410322e-03
2.537898659782e-03
1.012315728842e-02
1.009620922216e-02
9.951679678951e-03
1.004267892061e-02
1.017291528752e-02
1.012071687508e-02
9.967399006142e-03
1.004946178560e-02
9.873541671811e-03
9.961222848803e-03
1.012238129412e-02
1.003965881416e-02
9.857790147124e-03
9.944752370696e-03
9.742867967230e-03
9.838415407280e-03
1.002405374779e-02
1.604833920775e-03
2.180344556497e-03
1.874735295520e-03
3.143594799327e-03
3.300165704383e-03
3.301476972256e-03
3.424987665076e-03
9.926952722614e-03
1.009694525599e-02
6.053944797194e-03
5.984716837877e-03
1.012173660400e-02
3.961336629906e-03
3.812754574417e-03
6.005351735974e-03
6.327174926379e-03
6.050292074750e-03
6.334465807352e-03
6.656523182868e-03
6.046840377160e-03
2.189074638375e-03
1.018461857387e-02
2.890175343882e-03
2.531591393864e-03
4.141178412448e-03
2.770071442476e-03
6.641778633757e-03
6.214754925126e-03
6.628986366041e-03
6.202486932965e-03
6.690505461179e-03
6.303935312285e-03
5.788753771251e-03
4.192122047874e-03
5.943825907390e-03
9.721041011320e-03
4.246866244411e-03
4.421352218006e-03
1.516066994961e-03
3.596455696651e-03
1.719056482063e-03
2.271997939326e-03
1.737007152320e-03
6.864559268290e-03
7.203589358388e-03
6.642622120510e-03
6.973318415411e-03
3.840631805094e-03
9.735419089123e-03
9.777633942823e-03
9.656579090594e-03
1.061515473759e-03
4.060379046122e-03
1.023734037044e-02
6.003491149409e-03
5.917792124613e-03
5.335722143014e-03
5.058299480258e-03
1.000866576814e-02
1.016253515513e-02
3.372661560331e-03
3.518321284127e-03
1.469771390758e-03
3.337216854319e-03
1.023163157719e-02
2.243532683458e-03
2.941980748084e-03
3.439578447816e-03
5.893561200288e-03
5.941412676334e-03
4.717679045975e-03
3.631241199736e-03
1.903906023883e-03
1.851645812353e-03
1.026669681143e-02
5.395360193204e-03
5.338487068530e-03
5.602969072653e-03
2.902934334480e-03
2.171914378000e-03
4.182916218895e-03
7.426816953471e-03
7.712771372599e-03
5.929793376024e-03
5.873305449543e-03
5.842201748616e-03
5.892940346985e-03
9.082386992259e-03
5.874631661755e-03
8.338366291908e-03
8.538975984864e-03
8.240872909752e-03
6.980289709191e-03
7.292293152337e-03
6.018712861040e-03
4.942561804141e-03
3.250093778570e-03
3.126629494032e-03
2.803765249856e-03
1.024599014975e-02
1.029437147573e-02
9.638985393557e-03
9.503304937202e-03
2.007785119858e-03
2.052877783737e-03
2.866382551971e-03
2.201569989962e-03
1.020979172477e-02
1.019392058388e-02
1.009593484514e-02
1.619372691075e-03
5.956565870916e-03
4.151313112762e-03
5.523339819186e-03
5.548371332097e-03
1.492557156004e-03
8.200471083418e-03
4.362092331314e-03
4.344394720208e-03
4.444367558043e-03
8.975192189249e-03
5.180810895658e-03
5.039409485068e-03
8.397654675215e-03
8.122761225941e-03
7.931091198664e-03
7.834975437761e-03
4.214891629873e-03
3.998198447156e-03
7.194286332428e-03
6.247066205598e-03
7.957867425303e-03
8.210467690132e-03
4.165407284331e-03
3.521724621131e-03
2.432768612536e-03
7.248738885345e-03
1.032036613389e-02
8.668053910568e-03
2.652789715561e-03
2.677907651945e-03
4.871562898625e-03
5.663589595017e-03
1.028572241857e-02
5.862143137719e-03
6.018761712258e-03
5.756751509767e-03
4.824760914121e-03
8.857866851361e-03
4.546765603323e-03
7.320846412199e-03
1.033943654888e-02
4.770529263128e-03
5.832710417706e-03
1.466104839671e-03
1.021756337704e-02
1.033694990113e-02
9.546076591547e-03
9.397871521373e-03
9.664467321520e-03
5.877512012123e-03
5.528277107368e-03
1.023982073735e-02
2.912655022657e-03
3.065416793942e-03
3.164807011876e-03
3.429692460088e-03
3.273040663974e-03
3.154886357114e-03
7.875524538380e-03
8.285938171419e-03
7.048313278207e-03
2.413344335353e-03
3.071756251613e-03
3.583259814735e-03
1.032637863078e-02
1.036814726594e-02
4.434756413065e-03
4.930948787124e-03
3.877004025893e-03
1.033219077646e-02
4.548967075759e-03
4.321068109745e-03
1.485128313881e-03
2.101329335145e-03
5.800268273246e-03
5.869338955716e-03
1.014385138178e-02
1.004675201796e-02
1.023495399095e-02
2.049601579036e-03
4.932019768978e-03
2.126753408584e-03
1.972342041273e-03
2.549363067120e-03
4.738805551754e-03
5.074140442872e-03
5.973827426170e-03
4.273448103548e-03
1.029776228783e-02
9.367286205452e-03
3.679443841121e-03
9.212258651432e-03
9.355746451487e-03
9.037102929300e-03
1.430249507232e-03
9.383833990737e-03
9.551787793019e-03
1.287390548379e-03
1.035686763700e-02
9.795616581027e-04
1.033565048690e-03
3.130124319254e-03
3.143003151864e-03
3.567467988455e-03
3.556336022009e-03
3.212420782800e-03
3.622782397110e-03
9.235082820423e-03
3.982126827872e-03
3.995459156663e-03
4.340708685327e-03
7.972388495157e-03
6.042742320022e-03
6.244229469171e-03
6.257874439577e-03
8.515396582779e-03
8.643869365627e-03
4.367302577702e-03
4.205029651224e-03
9.187787418704e-03
9.151405835190e-03
9.410541691584e-03
9.363699256815e-03
9.599058470165e-03
9.551717471251e-03
9.769446645907e-03
6.743480970657e-03
5.812806409104e-03
8.482829105702e-03
3.919063249317e-03
3.233322529738e-03
7.543091341865e-03
7.440246033794e-03
2.819102184761e-03
5.915187915669e-03
1.034480410315e-02
3.962742477443e-03
4.538286745446e-03
5.845730256551e-03
7.613085661744e-03
6.298394224726e-03
6.597779898600e-03
1.791541273137e-03
2.179209730307e-03
5.724265382901e-03
9.808548220949e-03
5.637657880813e-03
4.356264262065e-03
5.938687909523e-03
6.983346509434e-03
5.837284601027e-03
5.895688525631e-03
8.935839776273e-03
9.166000505235e-03
8.928999791298e-03
5.939778431354e-03
6.943759129034e-03
6.833024264251e-03
8.075544344398e-03
9.969279317430e-03
9.900169717882e-03
9.961663665962e-03
9.805519601020e-03
9.725816279766e-03
9.607535099394e-03
9.693065660038e-03
9.467963951512e-03
9.607919701402e-03
9.300558294968e-03
9.185018657457e-03
8.989975118312e-03
9.123334550444e-03
8.883129684912e-03
4.677958936001e-03
5.729435618350e-03
4.677245711108e-03
5.763195369242e-03
7.348110787238e-03
9.821135358244e-03
1.007852269739e-02
6.060072544615e-03
8.706053681016e-03
8.823566154627e-03
5.976879205835e-03
7.968544981153e-03
9.818543542719e-03
9.640947234894e-03
9.723448786106e-03
1.022157710911e-02
9.768613067464e-03
6.165745522811e-03
4.337951820488e-03
4.766804912579e-03
5.193023508808e-03
9.366239986670e-03
4.128976828106e-03
3.276055933298e-03
2.936347297367e-03
2.555466521120e-03
3.454183170234e-03
9.496918365896e-03
9.285823452671e-03
5.148505094147e-03
5.315136216962e-03
5.120947978628e-03
5.476025283672e-03
5.615534471542e-03
5.731996839507e-03
5.641590388952e-03
5.899071393787e-03
8.435714161917e-03
3.241039830955e-03
2.391880447907e-03
2.718884986462e-03
3.137048727937e-03
3.178613051730e-03
3.103264343009e-03
3.022945706873e-03
3.213718163877e-03
5.772133512875e-03
3.269617521939e-03
3.512203018908e-03
3.142962825114e-03
9.162041009136e-03
9.385176677018e-03
9.394030081564e-03
9.586705324054e-03
9.411556272845e-03
3.428608887726e-03
3.597509143213e-03
3.665784332517e-03
3.765248175043e-03
3.801967319684e-03
3.695478206517e-03
3.923178361568e-03
3.911556265415e-03
9.115545847187e-03
3.532139386538e-03
4.520276414293e-03
3.469905743015e-03
4.698353880516e-03
5.306221140007e-03
5.205727419386e-03
5.841237545561e-03
4.946209915739e-03
1.557717008082e-03
2.474072277975e-03
1.031892160268e-03
1.864434965875e-03
3.033118731653e-03
2.635804328149e-03
4.741240381124e-03
3.545103470406e-03
3.433143831394e-03
3.215161709674e-03
3.298026857766e-03
3.597784293328e-03
3.064553071389e-03
2.928196874238e-03
1.886815360901e-03
1.202114337327e-03
1.345065536770e-03
6.701594836408e-04
6.987403259378e-04
1.139001074056e-03
1.034926749046e-03
1.561592069253e-03
9.301706201162e-04
7.978667381475e-04
1.357097001673e-03
1.000704357064e-02
1.009495619641e-02
3.525559569274e-03
9.076090633475e-03
5.505891549137e-04
1.041333206713e-02
1.040265859308e-02
1.041082540388e-02
4.682203956805e-03
4.716846761121e-03
1.041786946951e-02
3.109426512489e-03
9.888740401764e-03
1.028825588681e-02
6.076353145436e-03
3.750646593489e-03
4.025829025585e-03
2.921426011862e-03
4.091037376167e-03
3.577365822543e-03
3.451550725964e-03
2.625788362594e-03
1.276581590725e-03
9.761406902375e-03
9.618710779835e-03
1.011050200100e-02
2.821603877739e-03
3.566839239790e-03
1.997726805525e-03
7.769986259993e-03
8.009666265539e-03
3.169359930726e-03
3.189152762415e-03
3.354185404145e-03
4.051007979760e-03
5.736526353359e-03
3.073426197286e-03
2.178573608485e-03
1.017421269711e-02
7.713218590885e-04
1.947131655480e-03
2.670740099162e-03
9.875500711596e-03
2.941022917745e-03
4.856412407642e-03
1.018781456843e-02
1.025836354582e-02
9.655599759587e-03
1.471378570606e-03
9.520608632494e-03
2.251095189758e-03
1.001075356560e-02
2.576133384392e-03
4.809646893291e-03
6.628118088836e-03
8.744809882515e-03
1.032697155693e-02
5.241956186346e-03
2.204442435092e-03
3.339916007837e-03
2.710063676212e-03
2.780668366811e-03
5.384442819939e-03
1.029148610716e-02
7.079272534488e-03
5.773578913469e-03
1.020362922746e-02
3.497414157417e-03
3.324552300527e-03
7.667280934107e-03
7.045508747141e-03
8.501318420123e-03
5.904949697575e-03
4.061459842467e-03
2.335753701199e-03
5.705306835352e-03
5.890310212613e-03
9.846153986181e-03
6.521973847073e-03
1.036091916390e-02
6.641687147827e-03
2.924599245063e-03
1.027444989700e-02
2.996076402491e-03
1.595966242264e-03
5.955190440186e-03
6.003683255968e-03
5.356127319001e-03
2.860193239570e-03
1.008940421437e-02
3.323144546766e-03
1.509149471605e-03
5.390889433940e-03
8.734093822393e-03
3.700387366750e-03
4.198878899395e-03
2.959984129332e-03
3.803437467957e-03
7.315654399512e-03
7.711300931112e-03
4.044702723985e-03
1.744321566422e-03
5.983137422283e-03
8.878902992058e-03
4.354721270450e-03
1.629221984122e-03
5.851576343276e-03
4.106735814360e-03
8.271075997891e-03
2.955949358816e-03
7.443880219071e-03
1.026921315243e-02
1.973119453106e-03
9.553215317098e-03
3.132186714803e-03
4.318617423644e-03
7.191530166779e-04
8.235494332686e-03
3.296507581153e-03
5.875253071159e-03
3.542232554768e-03
4.877527954020e-03
3.489276363568e-03
5.739190405845e-03
3.690170882456e-03
7.794503116287e-03
9.445443604657e-03
3.889105287833e-03
7.458296696309e-03
9.767703028397e-04
5.427023258701e-03
4.541900361105e-03
3.662094601491e-03
3.120851861119e-03
9.522754292903e-03
7.358295492222e-03
2.594204967152e-03
7.540518188114e-03
4.996397629073e-03
5.052014488658e-03
1.966039242379e-03
7.174779017224e-03
3.251560311301e-03
3.011084670053e-03
5.425558741585e-03
8.003720786296e-03
8.318129943660e-04
9.102192154969e-03
2.743182598367e-03
5.299299047155e-03
4.554934690860e-03
9.621169059994e-03
4.866759170583e-03
2.199817464216e-03
4.665405023140e-03
4.699065100198e-03
4.118279169792e-03
3.984797805584e-03
1.036639495562e-02
3.730527539972e-03
1.043480700082e-02
4.877199348012e-03
9.098641062612e-03
6.963519076550e-03
2.766930015556e-03
6.506344345589e-03
3.744965596057e-03
8.555039097139e-03
9.118670730684e-03
3.545413566437e-03
9.408016077461e-03
7.110793157642e-03
9.927502193873e-03
2.670150579751e-03
4.562961264615e-03
1.027436252495e-02
8.926235345170e-03
1.497239479151e-03
4.205148629619e-03
6.525069095676e-03
5.984245995146e-03
5.701277181507e-03
2.826703777686e-03
3.810236837968e-03
5.926088478717e-03
3.635519906862e-03
9.308991293876e-03
5.047345517986e-03
5.596877427823e-03
1.030848534680e-02
5.844224839161e-03
4.020428518908e-03
5.330235479332e-03
5.702978498305e-03
9.569616460444e-03
8.169714772369e-03
1.007584301303e-02
4.365819830397e-03
9.328476098055e-03
1.037137702016e-02
5.960129958546e-03
1.037046304796e-02
8.660016304300e-03
9.493331280215e-03
9.507310735902e-03
4.718946448247e-03
9.801670328870e-03
5.832310785391e-03
9.931466723297e-03
3.265782401185e-03
4.413383863687e-03
3.151452229508e-03
8.798308772030e-03
4.531996402148e-03
6.897920606802e-04
8.723763821368e-04
2.824813758382e-03
8.942622916406e-03
5.721328387109e-03
1.037242241487e-02
5.360497036525e-03
8.951752193769e-03
8.836469200396e-04
4.567070396093e-03
1.037138493791e-02
3.502925442327e-03
9.154534660153e-03
2.547731560126e-03
6.783778183239e-03
2.351825541661e-03
1.038362803340e-02
2.724383234697e-03
1.017646667414e-02
5.281944247614e-03
3.861394323931e-03
6.456383621861e-03
2.360328172110e-03
8.889506619514e-03
9.991081050646e-03
3.097825102964e-03
1.134318805918e-03
1.044017632913e-02
2.232578502107e-03
8.821002032457e-03
4.935338797708e-03
8.022545697017e-04
9.312790791642e-03
9.212873084027e-03
3.857397786203e-03
1.020361400761e-02
4.564663254845e-03
2.748125610804e-03
9.744853403363e-03
5.480686352724e-03
1.028828091117e-02
9.617143931827e-03
5.898251423267e-03
8.951787645955e-03
3.592993016171e-03
7.731013475480e-03
3.024513141961e-03
5.482679370240e-03
3.961555152235e-03
8.427427591374e-04
3.857823281281e-03
3.691521277585e-03
6.773835948529e-03
6.887278018507e-03
7.185354590824e-03
7.288692277173e-03
7.712461210771e-03
7.652709331957e-03
8.232903594086e-03
8.057467627299e-03
8.692011052684e-03
8.402251514831e-03


CELL_DATA 2134

SCALARS element_number int
LOOKUP_TABLE default
407
408
409
410
411
412
413
414
415
416
417
418
419
420
421
422
423
424
425
426
427
428
429
430
431
432
433
434
435
436
437
438
439
440
441
442
443
444
445
446
447
448
449
450
451
452
453
454
455
456
457
458
459
460
461
462
463
464
465
466
467
468
469
470
471
472
473
474
475
476
477
478
479
480
481
482
483
484
485
486
487
488
489
490
491
492
493
494
495
496
497
498
499
500
501
502
503
504
505
506
507
508
509
510
511
512
513
514
515
516
517
518
519
520
521
522
523
524
525
526
527
528
529
530
531
532
533
534
535
536
537
538
539
540
541
542
543
544
545
546
547
548
549
550
551
552
553
554
555
556
557
558
559
560
561
562
563
564
565
566
567
568
569
570
571
572
573
574
575
576
577
578
579
580
581
582
583
584
585
586
587
588
589
590
591
592
593
594
595
596
597
598
599
600
601
602
603
604
605
606
607
608
609
610
611
612
613
614
615
616
617
618
619
620
621
622
623
624
625
626
627
628
629
630
631
632
633
634
635
636
637
638
639
640
641
642
643
644
645
646
647
648
649
650
651
652
653
654
655
656
657
658
659
660
661
662
663
664
665
666
667
668
669
670
671
672
673
674
675
676
677
678
679
680
681
682
683
684
685
686
687
688
689
690
691
692
693
694
695
696
697
698
699
700
701
702
703
704
705
706
707
708
709
710
711
712
713
714
715
716
717
718
719
720
721
722
723
724
725
726
727
728
729
730
731
732
733
734
735
736
737
738
739
740
741
742
743
744
745
746
747
748
749
750
751
752
753
754
755
756
757
758
759
760
761
762
763
764
765
766
767
768
769
770
771
772
773
774
775
776
777
778
779
780
781
782
783
784
785
786
787
788
789
790
791
792
793
794
795
796
797
798
799
800
801
802
803
804
805
806
807
808
809
810
811
812
813
814
815
816
817
818
819
820
821
822
823
824
825
826
827
828
829
830
831
832
833
834
835
836
837
838
839
840
841
842
843
844
845
846
847
848
849
850
851
852
853
854
855
856
857
858
859
860
861
862
863
864
865
866
867
868
869
870
871
872
873
874
875
876
877
878
879
880
881
882
883
884
885
886
887
888
889
890
891
892
893
894
895
896
897
898
899
900
901
902
903
904
905
906
907
908
909
910
911
912
913
914
915
916
917
918
919
920
921
922
923
924
925
926
927
928
929
930
931
932
933
934
935
936
937
938
939
940
941
942
943
944
945
946
947
948
949
950
951
952
953
954
955
956
957
958
959
960
961
962
963
964
965
966
967
968
969
970
971
972
973
974
975
976
977
978
979
980
981
982
983
984
985
986
987
988
989
990
991
992
993
994
995
996
997
998
999
1000
1001
1002
1003
1004
1005
1006
1007
1008
1009
1010
1011
1012
1013
1014
1015
1016
1017
1018
1019
1020
1021
1022
1023
1024
1025
1026
1027
1028
1029
1030
1031
1032
1033
1034
1035
1036
1037
1038
1039
1040
1041
1042
1043
1044
1045
1046
1047
1048
1049
1050
1051
1052
1053
1054
1055
1056
1057
1058
1059
1060
1061
1062
1063
1064
1065
1066
1067
1068
1069
1070
1071
1072
1073
1074
1075
1076
1077
1078
1079
1080
1081
1082
1083
1084
1085
1086
1087
1088
1089
1090
1091
1092
1093
1094
1095
1096
1097
1098
1099
1100
1101
1102
1103
1104
1105
1106
1107
1108
1109
1110
1111
1112
1113
1114
1115
1116
1117
1118
1119
1120
1121
1122
1123
1124
1125
1126
1127
1128
1129
1130
1131
1132
1133
1134
1135
1136
1137
1138
1139
1140
1141
1142
1143
1144
1145
1146
1147
1148
1149
1150
1151
1152
1153
1154
1155
1156
1157
1158
1159
1160
1161
1162
1163
1164
1165
1166
1167
1168
1169
1170
1171
1172
1173
1174
1175
1176
1177
1178
1179
1180
1181
1182
1183
1184
1185
1186
1187
1188
1189
1190
1191
1192
1193
1194
1195
1196
1197
1198
1199
1200
1201
1202
1203
1204
1205
1206
1207
1208
1209
1210
1211
1212
1213
1214
1215
1216
1217
1218
1219
1220
1221
1222
1223
1224
1225
1226
1227
1228
1229
1230
1231
1232
1233
1234
1235
1236
1237
1238
1239
1240
1241
1242
1243
1244
1245
1246
1247
1248
1249
1250
1251
1252
1253
1254
1255
1256
1257
1258
1259
1260
1261
1262
1263
1264
1265
1266
1267
1268
1269
1270
1271
1272
1273
1274
1275
1276
1277
1278
1279
1280
1281
1282
1283
1284
1285
1286
1287
1288
1289
1290
1291
1292
1293
1294
1295
1296
1297
1298
1299
1300
1301
1302
1303
1304
1305
1306
1307
1308
1309
1310
1311
1312
1313
1314
1315
1316
1317
1318
1319
1320
1321
1322
1323
1324
1325
1326
1327
1328
1329
1330
1331
1332
1333
1334
1335
1336
1337
1338
1339
1340
1341
1342
1343
1344
1345
1346
1347
1348
1349
1350
1351
1352
1353
1354
1355
1356
1357
1358
1359
1360
1361
1362
1363
1364
1365
1366
1367
1368
1369
1370
1371
1372
1373
1374
1375
1376
1377
1378
1379
1380
1381
1382
1383
1384
1385
1386
1387
1388
1389
1390
1391
1392
1393
1394
1395
1396
1397
1398
1399
1400
1401
1402
1403
1404
1405
1406
1407
1408
1409
1410
1411
1412
1413
1414
1415
1416
1417
1418
1419
1420
1421
1422
1423
1424
1425
1426
1427
1428
1429
1430
1431
1432
1433
1434
1435
1436
1437
1438
1439
1440
1441
1442
1443
1444
1445
1446
1447
1448
1449
1450
1451
1452
1453
1454
1455
1456
1457
1458
1459
1460
1461
1462
1463
1464
1465
1466
1467
1468
1469
1470
1471
1472
1473
1474
1475
1476
1477
1478
1479
1480
1481
1482
1483
1484
1485
1486
1487
1488
1489
1490
1491
1492
1493
1494
1495
1496
1497
1498
1499
1500
1501
1502
1503
1504
1505
1506
1507
1508
1509
1510
1511
1512
1513
1514
1515
1516
1517
1518
1519
1520
1521
1522
1523
1524
1525
1526
1527
1528
1529
1530
1531
1532
1533
1534
1535
1536
1537
1538
1539
1540
1541
1542
1543
1544
1545
1546
1547
1548
1549
1550
1551
1552
1553
1554
1555
1556
1557
1558
1559
1560
1561
1562
1563
1564
1565
1566
1567
1568
1569
1570
1571
1572
1573
1574
1575
1576
1577
1578
1579
1580
1581
1582
1583
1584
1585
1586
1587
1588
1589
1590
1591
1592
1593
1594
1595
1596
1597
1598
1599
1600
1601
1602
1603
1604
1605
1606
1607
1608
1609
1610
1611
1612
1613
1614
1615
1616
1617
1618
1619
1620
1621
1622
1623
1624
1625
1626
1627
1628
1629
1630
1631
1632
1633
1634
1635
1636
1637
1638
1639
1640
1641
1642
1643
1644
1645
1646
1647
1648
1649
1650
1651
1652
1653
1654
1655
1656
1657
1658
1659
1660
1661
1662
1663
1664
1665
1666
1667
1668
1669
1670
1671
1672
1673
1674
1675
1676
1677
1678
1679
1680
1681
1682
1683
1684
1685
1686
1687
1688
1689
1690
1691
1692
1693
1694
1695
1696
1697
1698
1699
1700
1701
1702
1703
1704
1705
1706
1707
1708
1709
1710
1711
1712
1713
1714
1715
1716
1717
1718
1719
1720
1721
1722
1723
1724
1725
1726
1727
1728
1729
1730
1731
1732
1733
1734
1735
1736
1737
1738
1739
1740
1741
1742
1743
1744
1745
1746
1747
1748
1749
1750
1751
1752
1753
1754
1755
1756
1757
1758
1759
1760
1761
1762
1763
1764
1765
1766
1767
1768
1769
1770
1771
1772
1773
1774
1775
1776
1777
1778
1779
1780
1781
1782
1783
1784
1785
1786
1787
1788
1789
1790
1791
1792
1793
1794
1795
1796
1797
1798
1799
1800
1801
1802
1803
1804
1805
1806
1807
1808
1809
1810
1811
1812
1813
1814
1815
1816
1817
1818
1819
1820
1821
1822
1823
1824
1825
1826
1827
1828
1829
1830
1831
1832
1833
1834
1835
1836
1837
1838
1839
1840
1841
1842
1843
1844
1845
1846
1847
1848
1849
1850
1851
1852
1853
1854
1855
1856
1857
1858
1859
1860
1861
1862
1863
1864
1865
1866
1867
1868
1869
1870
1871
1872
1873
1874
1875
1876
1877
1878
1879
1880
1881
1882
1883
1884
1885
1886
1887
1888
1889
1890
1891
1892
1893
1894
1895
1896
1897
1898
1899
1900
1901
1902
1903
1904
1905
1906
1907
1908
1909
1910
1911
1912
1913
1914
1915
1916
1917
1918
1919
1920
1921
1922
1923
1924
1925
1926
1927
1928
1929
1930
1931
1932
1933
1934
1935
1936
1937
1938
1939
1940
1941
1942
1943
1944
1945
1946
1947
1948
1949
1950
1951
1952
1953
1954
1955
1956
1957
1958
1959
1960
1961
1962
1963
1964
1965
1966
1967
1968
1969
1970
1971
1972
1973
1974
1975
1976
1977
1978
1979
1980
1981
1982
1983
1984
1985
1986
1987
1988
1989
1990
1991
1992
1993
1994
1995
1996
1997
1998
1999
2000
2001
2002
2003
2004
2005
2006
2007
2008
2009
2010
2011
2012
2013
2014
2015
2016
2017
2018
2019
2020
2021
2022
2023
2024
2025
2026
2027
2028
2029
2030
2031
2032
2033
2034
2035
2036
2037
2038
2039
2040
2041
2042
2043
2044
2045
2046
2047
2048
2049
2050
2051
2052
2053
2054
2055
2056
2057
2058
2059
2060
2061
2062
2063
2064
2065
2066
2067
2068
2069
2070
2071
2072
2073
2074
2075
2076
2077
2078
2079
2080
2081
2082
2083
2084
2085
2086
2087
2088
2089
2090
2091
2092
2093
2094
2095
2096
2097
2098
2099
2100
2101
2102
2103
2104
2105
2106
2107
2108
2109
2110
2111
2112
2113
2114
2115
2116
2117
2118
2119
2120
2121
2122
2123
2124
2125
2126
2127
2128
2129
2130
2131
2132
2133
2134
2135
2136
2137
2138
2139
2140
2141
2142
2143
2144
2145
2146
2147
2148
2149
2150
2151
2152
2153
2154
2155
2156
2157
2158
2159
2160
2161
2162
2163
2164
2165
2166
2167
2168
2169
2170
2171
2172
2173
2174
2175
2176
2177
2178
2179
2180
2181
2182
2183
2184
2185
2186
2187
2188
2189
2190
2191
2192
2193
2194
2195
2196
2197
2198
2199
2200
2201
2202
2203
2204
2205
2206
2207
2208
2209
2210
2211
2212
2213
2214
2215
2216
2217
2218
2219
2220
2221
2222
2223
2224
2225
2226
2227
2228
2229
2230
2231
2232
2233
2234
2235
2236
2237
2238
2239
2240
2241
2242
2243
2244
2245
2246
2247
2248
2249
2250
2251
2252
2253
2254
2255
2256
2257
2258
2259
2260
2261
2262
2263
2264
2265
2266
2267
2268
2269
2270
2271
2272
2273
2274
2275
2276
2277
2278
2279
2280
2281
2282
2283
2284
2285
2286
2287
2288
2289
2290
2291
2292
2293
2294
2295
2296
2297
2298
2299
2300
2301
2302
2303
2304
2305
2306
2307
2308
2309
2310
2311
2312
2313
2314
2315
2316
2317
2318
2319
2320
2321
2322
2323
2324
2325
2616
2617
2618
2619
2620
2621
2622
2623
2624
2625
2626
2627
2628
2629
2630
2631
2632
2633
2634
2635
2636
2637
2638
2639
2640
2641
2642
2643
2644
2645
2646
2647
2648
2649
2650
2651
2652
2653
2654
2655
2656
2657
2658
2659
2660
2661
2662
2663
2664
2665
2666
2667
2668
2669
2670
2671
2672
2673
2674
2675
2676
2677
2678
2679
2680
2681
2682
2683
2684
2685
2686
2687
2688
2689
2690
2691
2692
2693
2694
2695
2696
2697
2698
2699
2700
2701
2702
2703
2704
2705
2706
2707
2708
2709
2710
2711
2712
2713
2714
2715
2716
2717
2718
2719
2720
2721
2722
2723
2724
2725
2726
2727
2728
2729
2730
2731
2732
2733
2734
2735
2736
2737
2738
2739
2740
2741
2742
2743
2744
2745
2746
2747
2748
2749
2750
2751
2752
2753
2754
2755
2756
2757
2758
2759
2760
2761
2762
2763
2764
2765
2766
2767
2768
2769
2770
2771
2772
2773
2774
2775
2776
2777
2778
2779
2780
2781
2782
2783
2784
2785
2786
2787
2788
2789
2790
2791
2792
2793
2794
2795
2796
2797
2798
2799
2800
2801
2802
2803
2804
2805
2806
2807
2808
2809
2810
2811
2812
2813
2814
2815
2816
2817
2818
2819
2820
2821
2822
2823
2824
2825
2826
2827
2828
2829
2830

SCALARS element_group int
LOOKUP_TABLE default
0
0
0
0
0
0
0
0
0
0
0
0
0
0
0
0
0
0
0
0
0
0
0
0
0
0
0
0
0
0
0
0
0
0
0
0
0
0
0
0
0
0
0
0
0
0
0
0
0
0
0
0
0
0
0
0
0
0
0
0
0
0
0
0
0
0
0
0
0
0
0
0
0
0
0
0
0
0
0
0
0
0
0
0
0
0
0
0
0
0
0
0
0
0
0
0
0
0
0
0
0
0
0
0
0
0
0
0
0
0
0
0
0
0
0
0
0
0
0
0
0
0
0
0
0
0
0
0
0
0
0
0
0
0
0
0
0
0
0
0
0
0
0
0
0
0
0
0
0
0
0
0
0
0
0
0
0
0
0
0
0
0
0
0
0
0
0
0
0
0
0
0
0
0
0
0
0
0
0
0
0
0
0
0
0
0
0
0
0
0
0
0
0
0
0
0
0
0
0
0
0
0
0
0
0
0
0
0
0
0
0
0
0
0
0
0
0
0
0
0
0
0
0
0
0
0
0
0
0
0
0
0
0
0
0
0
0
0
0
0
0
0
0
0
0
0
0
0
0
0
0
0
0
0
0
0
0
0
0
0
0
0
0
0
0
0
0
0
0
0
0
0
0
0
0
0
0
0
0
0
0
0
0
0
0
0
0
0
0
0
0
0
0
0
0
0
0
0
0
0
0
0
0
0
0
0
0
0
0
0
0
0
0
0
0
0
0
0
0
0
0
0
0
0
0
0
0
0
0
0
0
0
0
0
0
0
0
0
0
0
0
0
0
0
0
0
0
0
0
0
0
0
0
0
0
0
0
0
0
0
0
0
0
0
0
0
0
0
0
0
0
0
0
0
0
0
0
0
0
0
0
0
0
0
0
0
0
0
0
0
0
0
0
0
0
0
0
0
0
0
0
0
0
0
0
0
0
0
0
0
0
0
0
0
0
0
0
0
0
0
0
0
0
0
0
0
0
0
0
0
0
0
0
0
0
0
0
0
0
0
0
0
0
0
0
0
0
0
0
0
0
0
0
0
0
0
0
0
0
0
0
0
0
0
0
0
0
0
0
0
0
0
0
0
0
0
0
0
0
0
0
0
0
0
0
0
0
0
0
0
0
0
0
0
0
0
0
0
0
0
0
0
0
0
0
0
0
0
0
0
0
0
0
0
0
0
0
0
0
0
0
0
0
0
0
0
0
0
0
0
0
0
0
0
0
0
0
0
0
0
0
0
0
0
0
0
0
0
0
0
0
0
0
0
0
0
0
0
0
0
0
0
0
0
0
0
0
0
0
0
0
0
0
0
0
0
0
0
0
0
0
0
0
0
0
0
0
0
0
0
0
0
0
0
0
0
0
0
0
0
0
0
0
0
0
0
0
0
0
0
0
0
0
0
0
0
0
0
0
0
0
0
0
0
0
0
0
0
0
0
0
0
0
0
0
0
0
0
0
0
0
0
0
0
0
0
0
0
0
0
0
0
0
0
0
0
0
0
0
0
0
0
0
0
0
0
0
0
0
0
0
0
0
0
0
0
0
0
0
0
0
0
0
0
0
0
0
0
0
0
0
0
0
0
0
0
0
0
0
0
0
0
0
0
0
0
0
0
0
0
0
0
0
0
0
0
0
0
0
0
0
0
0
0
0
0
0
0
0
0
0
0
0
0
0
0
0
0
0
0
0
0
0
0
0
0
0
0
0
0
0
0
0
0
0
0
0
0
0
0
0
0
0
0
0
0
0
0
0
0
0
0
0
0
0
0
0
0
0
0
0
0
0
0
0
0
0
0
0
0
0
0
0
0
0
0
0
0
0
0
0
0
0
0
0
0
0
0
0
0
0
0
0
0
0
0
0
0
0
0
0
0
0
0
0
0
0
0
0
0
0
0
0
0
0
0
0
0
0
0
0
0
0
0
0
0
0
0
0
0
0
0
0
0
0
0
0
0
0
0
0
0
0
0
0
0
0
0
0
0
0
0
0
0
0
0
0
0
0
0
0
0
0
0
0
0
0
0
0
0
0
0
0
0
0
0
0
0
0
0
0
0
0
0
0
0
0
0
0
0
0
0
0
0
0
0
0
0
0
0
0
0
0
0
0
0
0
0
0
0
0
0
0
0
0
0
0
0
0
0
0
0
0
0
0
0
0
0
0
0
0
0
0
0
0
0
0
0
0
0
0
0
0
0
0
0
0
0
0
0
0
0
0
0
0
0
0
0
0
0
0
0
0
0
0
0
0
0
0
0
0
0
0
0
0
0
0
0
0
0
0
0
0
0
0
0
0
0
0
0
0
0
0
0
0
0
0
0
0
0
0
0
0
0
0
0
0
0
0
0
0
0
0
0
0
0
0
0
0
0
0
0
0
0
0
0
0
0
0
0
0
0
0
0
0
0
0
0
0
0
0
0
0
0
0
0
0
0
0
0
0
0
0
0
0
0
0
0
0
0
0
0
0
0
0
0
0
0
0
0
0
0
0
0
0
0
0
0
0
0
0
0
0
0
0
0
0
0
0
0
0
0
0
0
0
0
0
0
0
0
0
0
0
0
0
0
0
0
0
0
0
0
0
0
0
0
0
0
0
0
0
0
0
0
0
0
0
0
0
0
0
0
0
0
0
0
0
0
0
0
0
0
0
0
0
0
0
0
0
0
0
0
0
0
0
0
0
0
0
0
0
0
0
0
0
0
0
0
0
0
0
0
0
0
0
0
0
0
0
0
0
0
0
0
0
0
0
0
0
0
0
0
0
0
0
0
0
0
0
0
0
0
0
0
0
0
0
0
0
0
0
0
0
0
0
0
0
0
0
0
0
0
0
0
0
0
0
0
0
0
0
0
0
0
0
0
0
0
0
0
0
0
0
0
0
0
0
0
0
0
0
0
0
0
0
0
0
0
0
0
0
0
0
0
0
0
0
0
0
0
0
0
0
0
0
0
0
0
0
0
0
0
0
0
0
0
0
0
0
0
0
0
0
0
0
0
0
0
0
0
0
0
0
0
0
0
0
0
0
0
0
0
0
0
0
0
0
0
0
0
0
0
0
0
0
0
0
0
0
0
0
0
0
0
0
0
0
0
0
0
0
0
0
0
0
0
0
0
0
0
0
0
0
0
0
0
0
0
0
0
0
0
0
0
0
0
0
0
0
0
0
0
0
0
0
0
0
0
0
0
0
0
0
0
0
0
0
0
0
0
0
0
0
0
0
0
0
0
0
0
0
0
0
0
0
0
0
0
0
0
0
0
0
0
0
0
0
0
0
0
0
0
0
0
0
0
0
0
0
0
0
0
0
0
0
0
0
0
0
0
0
0
0
0
0
0
0
0
0
0
0
0
0
0
0
0
0
0
0
0
0
0
0
0
0
0
0
0
0
0
0
0
0
0
0
0
0
0
0
0
0
0
0
0
0
0
0
0
0
0
0
0
0
0
0
0
0
0
0
0
0
0
0
0
0
0
0
0
0
0
0
0
0
0
0
0
0
0
0
0
0
0
0
0
0
0
0
0
0
0
0
0
0
0
0
0
0
0
0
0
0
0
0
0
0
0
0
0
0
0
0
0
0
0
0
0
0
0
0
0
0
0
0
0
0
0
0
0
0
0
0
0
0
0
0
0
0
0
0
0
0
0
0
0
0
0
0
0
0
0
0
0
0
0
0
0
0
0
0
0
0
0
0
0
0
0
0
0
0
0
0
0
0
0
0
0
0
0
0
0
0
0
0
0
0
0
0
0
0
0
0
0
0
0
0
0
0
0
0
0
0
0
0
0
0
0
0
0
0
0
0
0
0
0
0
0
0
0
0
0
0
0
0
0
0
0
0
0
0
0
0
0
0
0
0
0
0
0
0
0
0
0
0
0
0
0
0
0
0
0
0
0
0
0
0
0
0
0
0
0
0
0
0
0
0
0
0
0
0
0
0
0
0
0
0
0
0
0
0
0
0
0
0
0
0
0
0
0
0
0
0
0
0
0
0
0
0
0
0
0
0
0
0
0
0
0
0
0
0
0
0
0
0
0
0
0
0
0
0
0
0
0
0
0
0
0
0
0
0
0
0
0
0
0
0
0
0
0
0
0
0
0
0
0
0
0
0
0
0
0
0
0
0
0
0
0
0
0
0
0
0
0
0
0
0
0
0
0
0
0
0
0
0
0
0
0
0
0
0
0
0
0
0
0
0
0
0
0
0
0
0
0
0
0
0
0
0
0
0
0
0
0
0
0
0
0
0
0
0
0
0
0
0
0
0
0
0
0
0
0
0
0
0
0
0
0
0
0
0
0
0
0
0
0
0
0
0
0
0
0
0
0
0
0
0
0
0
0
0
0
0
0
0
0
0
0
0
0
0
0
0
0
0
0
0
0
0
0
0
0
0
0
0
0
0
0
0
0
0
0
0
0
0
0
0
0
0
0
0
0
0
0
0
0
0
0
0
0
0
0
0
0
0
0
0
0
0
0
0
0
0
0
0
0
0
0
0
0
0
0
0
0
0
0
0
0
0
0
0
0
0
0
0
0
0
0
0
0
0
0
0
0
0
0
0
0
0
0
0
0
0
0
0
0
0
0
0
0
0
0
0
0
0
0
0
0
0
0
0
0
0
0
0
0
0
0
0
0
0
0
0
0
0
0
0
0
0
0
0
0
0
0
0
0
0
0
0
0
0
0
0
0
0
0
0
0
0
0
0
0
0
0
0
0
0
0
0
0
0
0
0
0
0
0
0
0
0
0
0
0
0
0
0
0
0
0
0
0
0
0
0
0
0
0
0
0
0
0
0
0
0
0
0
0
0
0
0
0
0
0
0
0
0
0
0
0
0
0
0
0
0
0
0
0


VECTORS element_materi_velocity float
1.531947643461e-03 6.637834429545e-03 0.0 
1.664488000960e-03 5.818817285514e-03 0.0 
7.197118819385e-04 9.115679646241e-04 0.0 
8.936204558750e-05 1.484944737362e-03 0.0 
8.985584407931e-04 8.360526386325e-03 0.0 
2.836707121885e-05 8.462553247202e-04 0.0 
6.775475282989e-04 8.277974239892e-03 0.0 
1.422743968712e-03 5.148949134026e-03 0.0 
7.494188375035e-04 8.332151725703e-03 0.0 
1.313342330890e-04 1.520228335062e-03 0.0 
1.023113900522e-04 -1.767853015362e-04 0.0 
1.192895891530e-03 5.140870992451e-03 0.0 
4.600815385869e-05 -5.082654970697e-07 0.0 
1.375361282145e-03 7.419682573273e-03 0.0 
3.793694917937e-05 2.580675127391e-06 0.0 
7.214408959140e-05 1.049047048154e-03 0.0 
1.157726034820e-03 8.684247476091e-03 0.0 
6.893484426537e-05 6.974253476668e-04 0.0 
6.422325655836e-05 -5.283686298225e-04 0.0 
5.133816585148e-05 -5.197749817309e-04 0.0 
1.565216750972e-04 1.557749351565e-03 0.0 
2.015436040644e-03 8.183467355301e-03 0.0 
2.260303035808e-03 8.037437224056e-03 0.0 
6.685426648801e-04 1.266101981184e-04 0.0 
1.617180079468e-03 6.368289293974e-03 0.0 
1.128501511713e-04 -1.521120842990e-04 0.0 
1.803575098005e-03 9.277432929453e-03 0.0 
9.190524918615e-04 5.100491736132e-04 0.0 
1.719684742476e-03 6.334602289884e-03 0.0 
5.459293881023e-04 1.056393359451e-04 0.0 
2.952308142090e-04 -8.616401109277e-05 0.0 
1.495813153405e-04 -5.075054012719e-04 0.0 
8.302536843975e-04 1.130333308700e-03 0.0 
3.214591859087e-05 -5.381891615510e-05 0.0 
2.566058181123e-04 2.651847991075e-05 0.0 
7.120417595445e-05 6.512257674887e-06 0.0 
6.500813776234e-05 5.677568595434e-06 0.0 
6.815936309712e-04 2.216299171480e-04 0.0 
5.674144289938e-04 9.229352688817e-03 0.0 
5.167164567315e-04 9.239686430702e-03 0.0 
2.455766007570e-03 8.857367790894e-03 0.0 
2.540856808873e-04 3.764301542933e-05 0.0 
8.293272843395e-04 3.735558162280e-03 0.0 
1.902366848225e-03 8.893415181575e-03 0.0 
4.765131404876e-05 2.103729065475e-03 0.0 
7.721130047019e-04 3.280373767641e-03 0.0 
1.982636522577e-04 -7.518815256060e-05 0.0 
5.415653702419e-05 1.786396327092e-03 0.0 
6.381682274925e-05 -1.342398121487e-04 0.0 
1.342051225670e-03 7.890298041546e-03 0.0 
2.390306620708e-03 8.551082980538e-03 0.0 
6.853285003353e-05 -5.048988156349e-04 0.0 
5.427085361506e-04 -4.879517653142e-05 0.0 
2.300305870277e-03 9.124491700726e-03 0.0 
5.323529194540e-04 9.877390970259e-04 0.0 
1.279843863358e-04 -4.578120544046e-04 0.0 
5.585463762679e-05 -4.944808359379e-04 0.0 
6.518274939282e-05 -5.446846496130e-05 0.0 
1.287576788342e-04 -5.450557837412e-04 0.0 
8.672241508454e-05 1.057736905330e-03 0.0 
-8.194993490973e-05 9.576677210191e-05 0.0 
1.261782704763e-03 5.857160876758e-04 0.0 
2.512454218975e-03 4.202257363962e-03 0.0 
4.582610225631e-04 -7.812637421877e-05 0.0 
7.511163191427e-05 1.023407077778e-06 0.0 
2.184005805305e-03 8.785448246867e-03 0.0 
-6.674283467489e-05 1.698920957757e-04 0.0 
8.797636538937e-04 1.067662218103e-03 0.0 
3.236384992356e-04 -4.224643562582e-04 0.0 
8.016497345781e-04 6.402295579115e-04 0.0 
1.697239241075e-04 -1.263527115802e-04 0.0 
8.876087076693e-05 2.945887036916e-04 0.0 
1.203065575780e-03 6.864138222235e-04 0.0 
8.587450911279e-06 -5.650888536632e-04 0.0 
1.157982837432e-04 -4.437360374137e-04 0.0 
3.094696963586e-04 1.363354484169e-03 0.0 
6.623140113175e-04 1.190767161098e-03 0.0 
2.408792964053e-04 2.212334593793e-03 0.0 
1.479873437099e-04 -5.403792801203e-04 0.0 
2.353600888179e-04 2.511391849308e-03 0.0 
3.390203860166e-04 -3.922003166948e-04 0.0 
1.092935841878e-03 8.417991117862e-03 0.0 
2.043374536747e-03 7.284898116950e-03 0.0 
1.708184056070e-03 7.416048692018e-03 0.0 
8.477228197173e-04 7.786256278968e-03 0.0 
7.761707952764e-04 7.752704657739e-03 0.0 
9.933247328025e-05 -1.086371651262e-04 0.0 
1.734070279531e-05 -6.946814417659e-05 0.0 
2.057537330407e-03 3.002525085911e-03 0.0 
9.667392246241e-04 8.326726388173e-03 0.0 
1.630533346273e-04 -4.927867792551e-04 0.0 
1.873169017610e-03 8.068295841132e-03 0.0 
1.447928081220e-04 4.209820506023e-03 0.0 
1.756637146583e-04 4.552423581266e-03 0.0 
1.774488275917e-04 5.453972687032e-04 0.0 
4.949890662565e-04 1.660926479740e-04 0.0 
1.226910846005e-03 8.443373059857e-03 0.0 
2.908047186393e-04 3.876303722430e-05 0.0 
1.082979894076e-04 6.686936118788e-03 0.0 
2.369659781040e-03 4.599726118068e-03 0.0 
8.716666146561e-04 8.847985393390e-03 0.0 
4.879063787381e-05 3.050291348425e-06 0.0 
2.044550037159e-03 8.951046552162e-04 0.0 
1.233587298425e-03 5.407549805665e-04 0.0 
1.795208022096e-03 2.610826302021e-03 0.0 
1.563061281688e-04 -1.443065389651e-04 0.0 
5.370904508187e-05 -1.542732848497e-05 0.0 
1.464534727535e-04 3.627227191438e-03 0.0 
-7.250007195751e-06 -6.173117926038e-05 0.0 
9.045044440634e-05 6.505199067461e-06 0.0 
2.244760467038e-03 3.351770262329e-03 0.0 
1.471161269199e-05 -5.703668450504e-04 0.0 
2.486438294214e-03 2.207682419103e-03 0.0 
2.287837302206e-03 8.648579548509e-03 0.0 
2.098349491011e-04 -3.863293046899e-04 0.0 
2.101059281496e-03 4.415087531644e-03 0.0 
2.428253483753e-03 3.713597417447e-03 0.0 
1.818595802906e-04 2.145990638391e-05 0.0 
1.376723357908e-04 7.099634726906e-03 0.0 
2.188271208921e-03 3.560340594745e-03 0.0 
2.794904463501e-04 -4.862489110848e-04 0.0 
1.942745041342e-03 8.281292077616e-03 0.0 
1.154989701112e-04 3.324758135006e-03 0.0 
2.110254370200e-03 3.133126771478e-03 0.0 
-8.145863695045e-05 1.492615235476e-03 0.0 
2.435207772304e-03 8.985905163183e-03 0.0 
1.817169099711e-04 -3.982805531059e-04 0.0 
2.353561558209e-03 9.337724917526e-03 0.0 
2.358192823214e-04 9.637419302440e-04 0.0 
8.244292741617e-05 1.375888909908e-03 0.0 
1.586546220620e-04 -1.488188203329e-04 0.0 
7.070722349675e-05 1.469835577689e-03 0.0 
3.048727531864e-03 5.966281161953e-03 0.0 
2.460843384490e-03 9.007998111399e-03 0.0 
2.775333777485e-04 3.106684323116e-05 0.0 
3.152340646233e-05 -8.180434755264e-07 0.0 
1.401907928082e-04 -1.072801682773e-04 0.0 
3.098950593688e-03 5.896495843152e-03 0.0 
3.795204747021e-04 7.154125812953e-05 0.0 
2.899149395267e-03 7.050076973462e-03 0.0 
1.789283808416e-04 1.082475017635e-03 0.0 
9.350671390919e-04 7.989760596295e-04 0.0 
1.461040200063e-03 7.362353273699e-03 0.0 
3.399309375681e-04 5.524539125186e-03 0.0 
2.946861281146e-03 6.533483079742e-03 0.0 
2.347333950224e-03 9.314484264624e-03 0.0 
3.152869884393e-03 5.369715049391e-03 0.0 
2.150933612508e-03 2.523055272983e-03 0.0 
6.487018629306e-04 8.759157575417e-03 0.0 
2.384274342789e-03 1.927743270903e-03 0.0 
1.626425024030e-04 -5.195528717909e-04 0.0 
1.569296450740e-04 8.001564228132e-03 0.0 
5.380370264189e-05 -5.404740475001e-04 0.0 
2.375141098400e-03 8.860159604700e-03 0.0 
3.046291423469e-04 5.610504864461e-05 0.0 
1.867005435002e-03 2.984173635139e-03 0.0 
7.521546036854e-05 -8.900148471439e-05 0.0 
1.091741321339e-03 4.030924177800e-03 0.0 
2.108140501829e-03 9.945946767595e-04 0.0 
3.673596402706e-04 8.424633763930e-03 0.0 
2.222847581022e-03 1.836003594982e-03 0.0 
7.329162218474e-05 -3.953415608703e-05 0.0 
2.966148532043e-04 -4.686782757682e-04 0.0 
7.532915906675e-05 -1.487688895447e-05 0.0 
2.601482082818e-03 7.366147725975e-03 0.0 
1.033431677602e-04 5.055655768994e-06 0.0 
1.562617442282e-04 8.499248623819e-03 0.0 
1.934346486839e-03 2.397614116408e-03 0.0 
2.264233260170e-03 9.050020363730e-03 0.0 
6.557392872140e-05 -1.836200737847e-04 0.0 
1.090080675923e-03 4.556026286159e-03 0.0 
2.130598970079e-03 1.587918140513e-03 0.0 
2.966797387717e-04 5.003308866188e-03 0.0 
4.196963953496e-04 8.762175029798e-03 0.0 
2.243765069339e-03 2.308550430590e-03 0.0 
2.323899708704e-03 9.241924246048e-03 0.0 
1.952007396569e-03 1.923757927674e-03 0.0 
2.167057296021e-04 -3.593218769674e-04 0.0 
7.331972382958e-04 3.816627831316e-04 0.0 
9.634676566658e-04 7.423002026844e-04 0.0 
1.919538105634e-03 4.780716258105e-03 0.0 
1.925339867595e-04 -3.463475898117e-04 0.0 
1.022651552876e-03 2.228361029721e-04 0.0 
2.747963323953e-03 7.671617512724e-03 0.0 
1.618184388453e-03 4.544897021166e-03 0.0 
2.397571921034e-03 8.100747934267e-03 0.0 
2.428474754762e-03 2.416904230288e-03 0.0 
1.288902690715e-04 1.145463688710e-03 0.0 
1.995608532438e-03 3.599417765164e-03 0.0 
5.104761472560e-05 -2.647018544828e-05 0.0 
4.728373229990e-04 2.688443429590e-03 0.0 
1.880182155678e-03 1.279897886076e-03 0.0 
1.978731564406e-03 3.071504005319e-03 0.0 
-4.805767150448e-04 9.300435946844e-04 0.0 
2.665357300260e-03 8.168465334030e-03 0.0 
1.075095652933e-03 1.549736774442e-04 0.0 
1.462302748888e-04 -5.530555938135e-04 0.0 
7.700417209314e-04 1.252804384875e-03 0.0 
1.836187538721e-03 5.230911694305e-03 0.0 
7.974388146873e-04 -2.970316167094e-04 0.0 
1.132312246597e-03 1.841252801847e-04 0.0 
1.885629420782e-03 7.553478232937e-03 0.0 
1.586525565222e-03 6.844456916049e-03 0.0 
5.120420628457e-04 9.246018684690e-05 0.0 
5.268646616433e-04 -4.211185530456e-04 0.0 
3.178151138760e-03 4.492563968319e-03 0.0 
2.777889167992e-03 6.590256674822e-03 0.0 
1.717956683536e-03 4.773110715294e-03 0.0 
2.562974093122e-03 7.007696553808e-03 0.0 
2.511971269655e-03 7.918766890658e-03 0.0 
2.232200271848e-03 9.180142440601e-04 0.0 
2.136112440112e-03 2.267675526272e-03 0.0 
-2.510494432539e-04 7.816761243289e-04 0.0 
1.998011163715e-03 5.497623832779e-03 0.0 
2.452928321196e-03 5.204344687696e-03 0.0 
3.160957308732e-03 4.948360130466e-03 0.0 
1.815073964959e-03 3.197406787423e-03 0.0 
3.759590363964e-04 8.100544480372e-04 0.0 
1.067962395781e-03 1.109068262982e-04 0.0 
4.717753080711e-04 8.639789171879e-03 0.0 
1.963701348815e-03 1.497975554250e-03 0.0 
1.040574940524e-03 6.298687126972e-05 0.0 
1.552653889077e-04 -5.430106901143e-04 0.0 
1.683886737664e-03 4.279741568924e-03 0.0 
1.395560675220e-04 -5.482807586484e-04 0.0 
1.444313571443e-04 -5.511883292386e-04 0.0 
4.991415575638e-04 3.050603426237e-03 0.0 
4.588408832404e-04 -4.503577624692e-04 0.0 
1.538247899071e-03 3.826139679373e-03 0.0 
4.395995342816e-04 -4.551380613295e-04 0.0 
8.660844544304e-04 2.060352266731e-03 0.0 
4.730597980042e-04 -2.467206701792e-04 0.0 
3.097722169790e-04 -4.888236539160e-04 0.0 
1.117887196581e-03 2.236359088152e-04 0.0 
2.712096198851e-03 7.142951759383e-03 0.0 
8.953243291612e-05 1.879177549584e-06 0.0 
-3.899697685927e-04 7.928856143766e-04 0.0 
1.262371349732e-03 2.017048332296e-03 0.0 
2.193509882109e-03 1.447230558107e-03 0.0 
2.628372781694e-03 7.787111249401e-03 0.0 
1.128287806711e-03 1.389697945326e-04 0.0 
1.119504855850e-04 7.470027167994e-06 0.0 
2.068140601648e-03 4.069317968812e-03 0.0 
1.363428632697e-03 1.031219849207e-03 0.0 
1.063373443944e-03 1.933095050825e-04 0.0 
8.306113368896e-05 -1.310029723952e-04 0.0 
3.161013504141e-03 5.266182164775e-03 0.0 
1.919171161657e-03 4.690820479151e-03 0.0 
1.066468925008e-03 5.013213001392e-04 0.0 
2.099181158617e-03 1.240425365090e-03 0.0 
1.092534667009e-03 2.192125658760e-03 0.0 
2.550255327979e-03 6.101261133929e-03 0.0 
1.430699664654e-04 5.006329853979e-04 0.0 
3.157694742317e-03 4.110335808163e-03 0.0 
2.223795432815e-03 8.860334030684e-04 0.0 
3.542164730123e-04 7.826431058601e-03 0.0 
2.925455225487e-04 -3.717418766375e-04 0.0 
2.452302947887e-03 7.172460251409e-03 0.0 
1.426127804227e-03 1.228750482636e-03 0.0 
6.801248253522e-04 7.538394051262e-04 0.0 
3.621122752385e-04 -3.048045051584e-05 0.0 
1.446379237651e-03 3.851152753941e-03 0.0 
2.723958680540e-03 6.268830159731e-03 0.0 
2.255044082963e-03 2.885220594935e-03 0.0 
1.295545534134e-03 3.388361686736e-03 0.0 
2.082398974216e-03 3.526620581231e-03 0.0 
3.099851950557e-03 5.465313566037e-03 0.0 
1.290623778770e-04 1.246365243108e-05 0.0 
2.184746651828e-03 8.001469466689e-04 0.0 
2.990447092390e-03 5.547439953805e-03 0.0 
2.630412219743e-03 2.294511204440e-03 0.0 
2.224598515681e-03 8.421164212295e-04 0.0 
9.700462917122e-04 7.190846175707e-04 0.0 
1.698327822213e-03 8.243079454232e-03 0.0 
2.042868404267e-03 9.531585908222e-04 0.0 
1.055644321735e-03 6.677385210446e-05 0.0 
1.973517423970e-03 4.136132143281e-03 0.0 
-4.194964169473e-04 6.705509969260e-04 0.0 
2.401298671856e-03 6.774691732452e-03 0.0 
1.470728950093e-03 9.280206901647e-04 0.0 
1.205297627135e-03 1.736704651335e-03 0.0 
9.295629187329e-04 5.711295852761e-04 0.0 
2.567120478417e-03 5.584347700182e-03 0.0 
2.020673476285e-04 -4.892291573057e-04 0.0 
2.701940549835e-03 5.939101381435e-03 0.0 
2.156511781166e-03 7.579683970361e-04 0.0 
2.619657721704e-03 6.463074072125e-03 0.0 
1.705288995387e-03 7.618064723295e-03 0.0 
2.267320946739e-04 6.051190736838e-04 0.0 
1.108557873087e-03 1.534209657651e-04 0.0 
8.953018638051e-04 -5.123382837809e-05 0.0 
2.262800879734e-03 5.736613675946e-03 0.0 
2.019376680458e-03 4.630014462204e-03 0.0 
2.662589345915e-03 5.329310213536e-03 0.0 
1.916379240729e-03 8.847242036049e-04 0.0 
1.952751053450e-03 1.163035279323e-03 0.0 
3.651520076723e-04 6.538863200481e-04 0.0 
2.649825227935e-03 2.089565045006e-03 0.0 
4.397357433358e-04 1.813734716423e-03 0.0 
2.742060913500e-04 4.841740689625e-04 0.0 
3.540281409223e-04 4.895070406607e-04 0.0 
3.146419152206e-03 3.726403591988e-03 0.0 
1.187700360136e-03 9.546314567779e-04 0.0 
9.535296373529e-04 1.394959420228e-03 0.0 
2.993071788629e-03 5.046791179226e-03 0.0 
1.058065070593e-03 1.063604916016e-03 0.0 
9.409021625642e-04 2.359695150776e-05 0.0 
3.122533957596e-03 5.638633660700e-03 0.0 
2.331738042168e-04 1.315785923642e-03 0.0 
1.712108357948e-03 1.195577840769e-03 0.0 
2.313253978042e-03 1.038617890335e-03 0.0 
6.208099251259e-04 1.675886566902e-03 0.0 
1.921034583698e-04 4.478635681411e-05 0.0 
1.104789528746e-03 1.265405967386e-03 0.0 
3.173366273021e-03 4.781976469101e-03 0.0 
5.088893585158e-04 5.496939789227e-04 0.0 
1.571235798492e-03 2.493264248747e-04 0.0 
2.138402632408e-03 1.125879810078e-03 0.0 
9.536397888385e-04 -7.934015084455e-05 0.0 
2.875647538966e-03 6.342705724211e-03 0.0 
3.573479463679e-04 3.418955338068e-04 0.0 
1.716876148019e-03 9.061161472151e-04 0.0 
2.065869722096e-03 6.490657765202e-04 0.0 
5.983288612102e-04 1.440722506942e-03 0.0 
1.161810111588e-03 5.842427805302e-03 0.0 
1.102179235173e-03 8.902075982427e-05 0.0 
1.389627109106e-03 2.682490218875e-03 0.0 
1.150241780969e-03 6.341186213210e-03 0.0 
4.026721861371e-04 2.782729986006e-04 0.0 
9.665347881852e-04 1.038654917468e-04 0.0 
3.670128587342e-04 3.953188135267e-04 0.0 
1.419179389077e-03 6.357246572226e-03 0.0 
2.316535092169e-03 3.250100208258e-03 0.0 
9.547255162308e-04 2.713738616660e-03 0.0 
2.831887337134e-03 7.185496904337e-03 0.0 
2.911600589499e-03 5.809457704101e-03 0.0 
2.841982924781e-03 5.529319329686e-03 0.0 
3.065480574718e-03 3.724381346643e-03 0.0 
3.942105159950e-04 2.225412958088e-04 0.0 
1.798865357268e-03 6.760561059349e-03 0.0 
2.376411588962e-03 7.712892467186e-03 0.0 
1.865483363704e-03 9.800553370937e-04 0.0 
3.858989946620e-04 -4.729497612032e-04 0.0 
2.621990561501e-03 8.042041404677e-03 0.0 
1.555786978444e-03 2.469472299753e-03 0.0 
3.162478591831e-04 8.729927376077e-03 0.0 
9.041287687534e-04 -1.402236170785e-04 0.0 
1.636070040035e-03 1.004776044138e-03 0.0 
1.722932460320e-03 3.757247598581e-03 0.0 
1.486179646192e-03 2.141516001969e-03 0.0 
2.910310448827e-03 6.620023130235e-03 0.0 
1.987690123655e-03 5.830535436667e-04 0.0 
1.072536841536e-03 -9.522901326395e-05 0.0 
3.259788714075e-04 1.388332964601e-04 0.0 
2.743443397656e-03 7.967801624227e-03 0.0 
1.084323727589e-03 3.051387482393e-04 0.0 
7.947315537804e-04 -3.061163373211e-04 0.0 
1.540539960015e-03 3.999782333722e-03 0.0 
1.447899387178e-03 3.071572083427e-03 0.0 
1.776852527680e-03 2.696406766660e-03 0.0 
3.143406276345e-03 4.655241373246e-03 0.0 
2.679489107777e-03 7.200429457028e-03 0.0 
2.827318381150e-03 7.460703296952e-03 0.0 
2.727414681436e-04 8.236087020858e-05 0.0 
6.885583115643e-04 2.102063132046e-04 0.0 
1.699985370011e-03 2.749512364831e-03 0.0 
1.781122344448e-03 4.240927036501e-03 0.0 
1.105605345929e-03 -1.025923744806e-04 0.0 
2.716845354136e-03 4.333689086904e-03 0.0 
1.135682286188e-03 7.840233171005e-04 0.0 
1.404228777874e-03 7.620045345331e-04 0.0 
3.182416483302e-03 4.429713191570e-03 0.0 
1.647062286795e-03 2.759641311621e-04 0.0 
5.573163027025e-04 -3.007615462416e-04 0.0 
1.458940104193e-03 2.863192567051e-03 0.0 
1.035014548675e-03 2.006343468633e-04 0.0 
2.907498406691e-03 3.295929492326e-03 0.0 
3.038464803950e-03 5.780688239234e-03 0.0 
2.724948923482e-03 3.521385218722e-03 0.0 
3.634935174661e-04 4.412241634285e-04 0.0 
3.237290452228e-04 5.043175749742e-04 0.0 
8.096107619436e-04 1.240402293658e-03 0.0 
1.100169211781e-03 -6.070221340981e-05 0.0 
1.211177046304e-03 3.396079430716e-03 0.0 
1.150183094131e-03 2.529611247555e-03 0.0 
1.637429240485e-03 7.456875557808e-04 0.0 
6.553860351971e-04 6.021497615086e-04 0.0 
2.854211880564e-03 5.990167957139e-03 0.0 
1.528566327236e-03 8.307936621709e-03 0.0 
1.326926734257e-03 6.361915489212e-03 0.0 
4.901948683922e-04 1.120468421294e-04 0.0 
1.923554805367e-03 2.581184952976e-03 0.0 
2.442567423366e-03 6.248115096655e-03 0.0 
2.837928775916e-03 5.029465474499e-03 0.0 
7.782114060698e-04 5.157359428253e-04 0.0 
1.999113131511e-04 -4.076383326418e-04 0.0 
2.430021413493e-03 1.758313322818e-03 0.0 
2.999953375071e-03 3.045691608162e-03 0.0 
2.551598373110e-03 1.833306311583e-03 0.0 
-1.021548170789e-04 1.724592333794e-03 0.0 
2.942291799027e-04 7.567041989796e-03 0.0 
3.601601234072e-04 -4.744052657440e-04 0.0 
1.356068715399e-03 1.588349601759e-03 0.0 
1.026140079422e-04 2.503999119257e-05 0.0 
2.036156029599e-03 7.180543809985e-04 0.0 
2.267708514395e-03 7.839613397297e-03 0.0 
3.527565355971e-05 -5.454991105317e-04 0.0 
3.114958752295e-03 4.115674041751e-03 0.0 
2.331505563755e-03 1.525886064490e-03 0.0 
2.664663578398e-03 5.418471313353e-03 0.0 
3.800583627332e-04 3.243271627034e-04 0.0 
2.731431458133e-03 7.460874582873e-03 0.0 
3.049609050058e-03 4.780852872876e-03 0.0 
6.087819177111e-04 -2.925442327693e-04 0.0 
1.468189310581e-03 3.350862967687e-03 0.0 
1.052956833781e-03 -5.319138744605e-05 0.0 
4.044958526391e-04 3.110366046061e-04 0.0 
1.875174687574e-04 2.136879320010e-04 0.0 
1.285291383408e-04 2.418273032216e-04 0.0 
1.780520922136e-04 2.619708092333e-04 0.0 
2.651877660337e-03 4.922025711352e-03 0.0 
1.555638265047e-03 3.320785419317e-03 0.0 
1.626423976395e-03 2.267466239905e-03 0.0 
2.806431067173e-03 3.957206760917e-03 0.0 
2.783711940920e-03 4.856123366849e-03 0.0 
4.743700358605e-04 -3.339584857161e-04 0.0 
1.540322909665e-03 2.830829594105e-03 0.0 
4.008886684158e-04 2.500804491831e-04 0.0 
1.215694472736e-03 2.920204308195e-03 0.0 
2.162359718622e-03 7.864739761524e-04 0.0 
1.296469587764e-03 2.907718663714e-03 0.0 
2.617142231879e-03 1.889841946225e-03 0.0 
2.924608866477e-03 3.000892718201e-03 0.0 
2.846791535916e-03 6.568341826631e-03 0.0 
7.616720834559e-04 1.308365649200e-03 0.0 
3.424115513130e-04 1.064415119996e-03 0.0 
2.551162475223e-03 3.409207598194e-03 0.0 
1.250509080308e-03 8.009187055266e-04 0.0 
5.226607884700e-04 -3.277728827749e-04 0.0 
7.653351799924e-04 -2.271938788687e-04 0.0 
3.785511725714e-04 8.410062133193e-05 0.0 
1.631134292160e-03 1.963451943521e-03 0.0 
1.794953899767e-04 1.816308815257e-04 0.0 
5.822192754271e-04 9.491729422680e-04 0.0 
3.118269340310e-03 4.212038065347e-03 0.0 
1.408015365480e-04 -4.045560451203e-04 0.0 
2.022058063420e-04 1.640625104224e-04 0.0 
4.611718404513e-04 1.240194579841e-04 0.0 
8.078479695731e-04 -1.760645960660e-04 0.0 
1.981601030303e-03 6.090800302412e-04 0.0 
3.211113616428e-04 1.252681917636e-04 0.0 
8.254930408697e-05 -4.248497075551e-04 0.0 
2.786035218690e-03 3.218287460573e-03 0.0 
3.019125081201e-03 4.323431431456e-03 0.0 
3.162881804827e-03 4.009497042469e-03 0.0 
3.108371500426e-03 4.966126974258e-03 0.0 
9.950930101614e-04 1.631871643995e-03 0.0 
2.003821398400e-04 1.312989044169e-04 0.0 
1.827768879571e-03 7.316183271203e-04 0.0 
2.407416575451e-04 4.566423933256e-04 0.0 
1.670701281940e-04 1.519578936336e-05 0.0 
1.241473694333e-04 -4.298528533980e-04 0.0 
2.886139374063e-03 7.340144223761e-03 0.0 
3.449926980920e-04 -1.614610956646e-04 0.0 
2.513144489057e-03 8.276737745870e-03 0.0 
2.402100159353e-04 6.598884279817e-05 0.0 
1.937039874192e-04 1.037597510426e-04 0.0 
2.752099386797e-03 5.741140834706e-03 0.0 
2.075755597126e-04 -2.079892601599e-04 0.0 
1.228031865764e-04 4.126112723484e-04 0.0 
2.992949676845e-04 -2.141679583272e-04 0.0 
5.223966595922e-04 1.089444204302e-05 0.0 
1.607541989546e-03 8.592081179407e-03 0.0 
2.231533134513e-03 7.424881272435e-03 0.0 
1.666638687349e-04 7.396475834512e-05 0.0 
1.442409766816e-03 8.643580429508e-03 0.0 
2.399022017383e-04 4.787170030713e-04 0.0 
2.471272008446e-03 1.659617667782e-03 0.0 
1.218993344774e-03 6.869035300282e-03 0.0 
1.744705840299e-03 3.684875993853e-03 0.0 
2.065628566200e-03 7.035978422111e-04 0.0 
5.444351773949e-04 8.575517505293e-04 0.0 
1.617963589701e-04 6.039965364866e-05 0.0 
1.759760487087e-04 2.275362314275e-04 0.0 
1.456769530092e-04 2.423467657409e-04 0.0 
9.873213491980e-04 -7.651943157856e-05 0.0 
3.951358134746e-04 -3.637474272531e-04 0.0 
2.839025230644e-03 2.672750625379e-03 0.0 
9.366177576642e-04 -6.593471103480e-05 0.0 
1.478065113425e-04 4.679905580693e-05 0.0 
1.297123989819e-03 1.353963141576e-03 0.0 
1.112902944922e-03 3.287726933572e-05 0.0 
1.098635157406e-03 -6.091921894857e-05 0.0 
1.065695014795e-03 6.321660555405e-03 0.0 
1.697871715470e-04 3.630353865267e-05 0.0 
1.719931126294e-04 -2.559536328738e-04 0.0 
1.152750591342e-04 3.042702839652e-05 0.0 
9.480109576697e-04 -1.574035184297e-04 0.0 
1.778525563912e-04 1.602646522811e-04 0.0 
1.694320488081e-03 2.221223345629e-03 0.0 
4.647885378401e-05 -3.921545126909e-04 0.0 
2.728727537568e-03 2.601798256721e-03 0.0 
1.058527765853e-03 2.923857339817e-03 0.0 
2.022900462971e-04 1.469740941837e-04 0.0 
2.735259319871e-03 4.744841377518e-03 0.0 
2.270429560188e-03 1.324868165581e-03 0.0 
4.167116595775e-04 1.357470979269e-03 0.0 
7.251430327735e-04 1.771705729409e-04 0.0 
9.276356013671e-04 -2.147432634293e-04 0.0 
1.039658424377e-03 -1.190333174169e-04 0.0 
3.931032845582e-05 -1.918307430714e-04 0.0 
2.005065285758e-04 1.187815447662e-04 0.0 
8.434335692041e-04 8.153806187373e-04 0.0 
9.091079567547e-04 1.171661382881e-04 0.0 
1.191700609646e-03 7.420348218549e-03 0.0 
6.357025245142e-04 -3.722823800430e-04 0.0 
1.056498710784e-03 -3.840595372744e-05 0.0 
2.910171136873e-03 4.808955074335e-03 0.0 
1.593150026727e-04 6.486853811495e-05 0.0 
3.817098519549e-04 -3.432695480738e-04 0.0 
9.974897100454e-04 1.364348238698e-05 0.0 
3.070392753078e-03 3.067915240981e-03 0.0 
1.407642942339e-03 1.152424155244e-04 0.0 
1.220500537390e-03 7.839372521481e-05 0.0 
1.064651961273e-03 -2.124857513439e-05 0.0 
3.104343633125e-03 3.390494654299e-03 0.0 
2.687972368635e-03 2.407390575304e-03 0.0 
1.912551389638e-03 6.368284634696e-04 0.0 
2.980569402681e-03 2.761657623194e-03 0.0 
6.757491209085e-04 -3.005182532825e-04 0.0 
1.558097083964e-03 1.690629224271e-03 0.0 
4.403318745751e-04 -3.592332748650e-04 0.0 
2.430088709428e-03 1.518410842632e-03 0.0 
2.039789790633e-03 6.115882428060e-04 0.0 
2.178890670764e-04 5.546701958909e-05 0.0 
1.044988060467e-03 2.473425621773e-03 0.0 
5.697829425932e-04 -3.969652854724e-04 0.0 
1.249349568010e-04 3.556181440165e-05 0.0 
5.373700298987e-04 1.361502300014e-04 0.0 
2.554812907872e-03 1.666581950068e-03 0.0 
9.621718679208e-05 -2.498618426017e-04 0.0 
1.520687534018e-04 2.996993322498e-05 0.0 
1.268397607458e-03 2.447397037955e-03 0.0 
8.095540203293e-04 -2.402751375508e-04 0.0 
8.948945042763e-05 1.974636562154e-05 0.0 
9.410353652809e-04 -3.596596259489e-05 0.0 
2.961791146094e-03 5.456075419545e-03 0.0 
2.289231933048e-03 6.900391823367e-03 0.0 
2.090579985849e-03 6.785213887613e-04 0.0 
1.005731889900e-03 -1.203331089767e-04 0.0 
1.492630303308e-03 1.962108137643e-04 0.0 
1.940166410059e-03 5.187435990585e-03 0.0 
3.057174295684e-03 6.332888181782e-03 0.0 
1.915455700155e-03 7.171340977667e-04 0.0 
2.774923416311e-04 6.995654093646e-03 0.0 
6.230487245745e-04 -3.113667432678e-04 0.0 
1.877451290626e-03 5.441273638581e-04 0.0 
8.741123472279e-04 -2.537154622837e-04 0.0 
5.070525764799e-04 -1.376718057832e-04 0.0 
5.160479778798e-06 -3.207069540372e-04 0.0 
1.839880089154e-03 2.078196055692e-03 0.0 
8.959489988263e-04 -2.063257560992e-04 0.0 
5.388776084006e-04 -2.803742405771e-04 0.0 
2.729486761421e-03 1.954136788713e-03 0.0 
1.003434084307e-03 -1.460787082700e-05 0.0 
1.046483140647e-03 6.812929043042e-03 0.0 
7.642491963639e-04 -2.809843639374e-04 0.0 
8.029772111937e-05 1.655717303114e-05 0.0 
3.052750595534e-03 4.065502224938e-03 0.0 
4.668667452226e-04 -2.654747694193e-04 0.0 
3.128694658511e-03 3.918557012101e-03 0.0 
4.886858899700e-04 -2.867444722384e-04 0.0 
5.131934429739e-05 -3.634573774892e-04 0.0 
2.222896924922e-03 6.483154795676e-03 0.0 
1.364182407692e-04 -3.743551582123e-04 0.0 
1.187048692731e-04 -5.597616764741e-04 0.0 
3.924225514349e-04 -2.965971729274e-04 0.0 
9.232187626185e-04 1.829451340010e-05 0.0 
2.905499741712e-04 3.064326155339e-03 0.0 
1.547376253497e-03 1.810888717737e-04 0.0 
1.485923493980e-03 1.633999929509e-04 0.0 
2.176530922677e-03 8.374346265355e-03 0.0 
1.430031206415e-03 9.273147825871e-03 0.0 
4.134560319374e-04 9.814037570324e-04 0.0 
3.147340870175e-03 3.688415603043e-03 0.0 
1.096188541559e-04 -5.651401373786e-04 0.0 
2.896394089524e-04 -5.019196749261e-04 0.0 
1.220011892671e-04 -3.376275887796e-04 0.0 
5.130807792346e-04 -4.296136687972e-04 0.0 
1.980323329731e-03 1.833123566087e-03 0.0 
3.326962098146e-04 3.097105972147e-03 0.0 
5.564433767027e-04 -5.181273480829e-06 0.0 
4.551185578319e-04 -4.283132404860e-04 0.0 
4.590858946077e-04 -1.444748653321e-04 0.0 
7.952533390028e-04 1.056088652220e-04 0.0 
4.952725721294e-04 4.160366608419e-04 0.0 
9.667374270716e-05 -3.749409445263e-04 0.0 
6.818607191217e-05 -4.320113680710e-04 0.0 
1.388062457161e-04 2.485257447724e-05 0.0 
7.177103228245e-05 1.341276019384e-05 0.0 
1.001267966042e-04 -3.330609627709e-04 0.0 
4.180675294926e-04 -2.705305601388e-04 0.0 
9.677287755615e-04 -1.091343532550e-04 0.0 
7.620648375712e-04 1.291660520485e-04 0.0 
3.120551224483e-04 -5.000141789902e-04 0.0 
8.150262740606e-04 7.707239084823e-05 0.0 
1.247691463753e-04 -5.562429728270e-04 0.0 
4.113697088573e-04 -3.181142908137e-04 0.0 
5.678994530021e-04 -2.524828195662e-04 0.0 
9.156655885619e-05 -5.646485123110e-04 0.0 
7.998054392792e-05 -3.537812484455e-04 0.0 
9.721898414138e-04 2.469360909414e-03 0.0 
9.707913997662e-05 -5.716739315559e-04 0.0 
1.582291319893e-03 9.184909803074e-03 0.0 
1.643861426073e-03 9.432922062261e-03 0.0 
1.562489496752e-03 2.776517133200e-04 0.0 
3.392883700081e-05 -4.337964541679e-04 0.0 
7.971209207217e-04 -2.860071813403e-04 0.0 
8.257165201800e-04 1.780441932926e-03 0.0 
3.504952671456e-04 1.222540719000e-05 0.0 
7.652964386911e-04 4.900061480127e-04 0.0 
6.087858232589e-04 3.730823263355e-03 0.0 
1.685856669423e-03 3.231901497423e-03 0.0 
2.316792024530e-04 -4.977786596916e-04 0.0 
2.917208721697e-03 7.119780072899e-03 0.0 
1.020847701431e-03 9.303669443035e-03 0.0 
9.571363754938e-04 9.611885583746e-03 0.0 
1.074603703686e-04 -5.672287617866e-04 0.0 
1.133206398330e-04 -5.624908494106e-04 0.0 
6.164298487316e-05 -5.548026922230e-04 0.0 
3.604285718214e-04 -4.790694283140e-04 0.0 
7.647641260736e-05 -5.684425324007e-04 0.0 
8.187714428647e-05 -3.099228052018e-04 0.0 
-1.002845396897e-04 -5.123897723286e-05 0.0 
4.116542860227e-04 -4.489679915111e-04 0.0 
2.461838566286e-04 5.874320369320e-03 0.0 
1.347180113696e-03 9.595847799817e-03 0.0 
1.722082476607e-03 1.679636505337e-03 0.0 
8.783834808105e-04 -2.687569823933e-05 0.0 
2.218162047859e-04 6.768014657163e-03 0.0 
1.797928272691e-05 -4.154077661287e-04 0.0 
7.300609470811e-05 -5.585956649305e-04 0.0 
5.001747260633e-05 2.662646377936e-04 0.0 
1.145184414488e-04 5.540528291328e-04 0.0 
1.103737171693e-03 7.383767619114e-03 0.0 
1.152335592563e-03 9.322636883894e-03 0.0 
8.965912964010e-05 -4.132908314283e-04 0.0 
7.361826324442e-05 5.266919097416e-04 0.0 
4.036777477539e-04 -4.613417836041e-04 0.0 
1.490937097182e-03 9.530332641739e-03 0.0 
1.286677622593e-03 9.318416460449e-03 0.0 
2.595295234444e-03 8.369444180644e-03 0.0 
1.113730633974e-04 2.368896998498e-04 0.0 
8.975318279572e-05 5.246887666567e-04 0.0 
9.840968848103e-05 -5.665909738915e-04 0.0 
9.150668090462e-05 -5.716848159529e-04 0.0 
2.485497750127e-04 -5.134368868480e-04 0.0 
6.206363480504e-04 -2.442112188297e-04 0.0 
3.477249568131e-05 -7.038953370793e-06 0.0 
-1.804492286977e-04 3.134209379122e-05 0.0 
7.740078228550e-05 3.867740077203e-03 0.0 
-3.904024621814e-05 -1.809418115588e-04 0.0 
1.412049061629e-03 1.785737931493e-04 0.0 
-4.624947995245e-05 -2.294506629332e-04 0.0 
-1.075682844187e-04 -1.128586786086e-04 0.0 
1.341197098451e-03 1.055650906328e-04 0.0 
1.395835481756e-04 -9.717802785340e-06 0.0 
2.066229068309e-04 6.205607307932e-03 0.0 
3.072614039844e-03 6.178558883945e-03 0.0 
6.724901764046e-05 -5.657922685604e-04 0.0 
3.758592491602e-04 -1.306921189549e-04 0.0 
1.734107645340e-05 3.140998424475e-04 0.0 
3.424321752966e-05 5.321618564485e-04 0.0 
1.212091299816e-03 9.621016559705e-03 0.0 
1.466149880794e-03 2.507754069854e-04 0.0 
3.973571018939e-05 2.584241288631e-04 0.0 
2.224391244805e-03 1.210441756915e-03 0.0 
4.373026392017e-05 -5.593220031382e-04 0.0 
5.252837804588e-05 -5.696438484309e-04 0.0 
4.037273416054e-05 -5.669665557162e-04 0.0 
1.960854227150e-05 -3.751835071211e-04 0.0 
2.779286429078e-05 2.795513269027e-06 0.0 
9.273115724352e-06 1.447521326366e-03 0.0 
4.938262252868e-05 -5.759671111301e-04 0.0 
4.212234933869e-05 -3.084640865684e-04 0.0 
9.395441472503e-06 1.054866206827e-06 0.0 
3.937966817095e-05 3.893295707432e-06 0.0 
1.269463135179e-04 2.069476436437e-05 0.0 
4.343611609291e-05 4.839001578543e-03 0.0 
1.704693468944e-05 3.378316528912e-03 0.0 
1.839742281828e-05 1.740647062201e-06 0.0 
2.098224535267e-05 2.152648645231e-06 0.0 
3.787996531973e-05 3.867935703108e-03 0.0 
3.666526566474e-05 -5.793440710011e-04 0.0 
7.240707925677e-04 9.609611978410e-03 0.0 
1.084171775189e-03 9.624500767854e-03 0.0 
7.164197293933e-05 -5.743105395034e-04 0.0 
3.534018793234e-05 4.467475046231e-06 0.0 
1.185865620664e-04 1.746576353331e-05 0.0 
5.867546198213e-05 8.210813452344e-06 0.0 
5.926882245522e-05 -5.779835383623e-04 0.0 
7.982911161174e-05 -5.756103614752e-04 0.0 
6.703521343367e-05 1.143981428340e-05 0.0 
5.991110008423e-05 9.254950080962e-06 0.0 
2.260308546262e-05 5.339035321110e-03 0.0 
3.826115082120e-04 9.602705420665e-03 0.0 
2.083303063029e-05 4.347964218322e-03 0.0 
2.773992493669e-05 7.309942542055e-03 0.0 
1.639290828463e-04 9.593446016020e-03 0.0 
1.169834925157e-04 -5.549473608552e-04 0.0 
1.135359315734e-04 -5.181185243525e-04 0.0 
1.003558141200e-04 -4.878702474047e-04 0.0 
7.786947984305e-05 -4.466072135323e-04 0.0 
2.139293611610e-05 -2.853575741407e-04 0.0 
2.072941322260e-05 -3.315129581289e-04 0.0 
1.197377575266e-04 -5.057670058697e-04 0.0 
2.176808528286e-05 -1.504294524253e-04 0.0 
1.053892226961e-04 -4.711444815496e-04 0.0 
8.868795682475e-05 2.508085650116e-04 0.0 
3.388255305503e-05 2.682677808785e-04 0.0 
6.450096884242e-05 2.877881913392e-04 0.0 
1.180081086027e-05 -5.334541689767e-04 0.0 
1.594955427390e-05 -4.515361026899e-04 0.0 
3.191940194654e-05 3.227896996238e-04 0.0 
1.480521579556e-05 -3.874938751617e-05 0.0 
1.690214107625e-05 2.180620140009e-04 0.0 
1.079282334281e-05 -1.544259098815e-05 0.0 
6.513026186671e-06 -1.784759824977e-06 0.0 
4.033795549409e-05 -3.536919624369e-04 0.0 
6.580195500157e-05 5.910574805023e-04 0.0 
4.882154302280e-05 5.408517136248e-04 0.0 
2.559803913837e-05 -2.633496568361e-05 0.0 
1.730584952948e-05 -7.189435638645e-06 0.0 
2.220664627666e-04 -1.014274426384e-04 0.0 
1.083987678300e-05 -2.837352970463e-04 0.0 
3.376074731922e-04 -3.466894357006e-04 0.0 
1.167988626486e-04 -5.631395217027e-04 0.0 
3.253704926802e-04 6.547708854237e-06 0.0 
4.588338316624e-04 -3.133173808441e-04 0.0 
2.543720731908e-04 -3.965605262220e-05 0.0 
3.474255713008e-04 -4.883873242279e-04 0.0 
1.624557762770e-04 -5.483698273733e-04 0.0 
1.753443664622e-04 -1.782229119738e-05 0.0 
3.458870281235e-04 -3.004641039359e-04 0.0 
7.501043700023e-05 -3.953783917346e-04 0.0 
2.228886326014e-04 -4.344185302102e-05 0.0 
1.062083945418e-04 2.451343833255e-03 0.0 
3.758782499841e-05 -3.957102403380e-04 0.0 
8.986436159497e-04 4.139311643100e-05 0.0 
6.581915855017e-04 -1.111826781357e-04 0.0 
2.619658929961e-04 -9.782085181803e-05 0.0 
1.898692809508e-04 -8.384185154532e-05 0.0 
1.697426095012e-03 6.665208691748e-04 0.0 
2.959239347980e-03 6.919267394302e-03 0.0 
2.746631248717e-03 2.153501360801e-03 0.0 
4.206548721128e-04 -1.252359563384e-04 0.0 
1.579059104542e-04 -3.415955969020e-05 0.0 
1.243833723939e-04 -6.993131889124e-05 0.0 
4.726841585035e-04 -4.387624688522e-04 0.0 
2.022718398897e-04 2.529100095270e-03 0.0 
2.587761384014e-04 3.505573459450e-03 0.0 
4.858423945472e-04 8.113495033259e-03 0.0 
4.685620423123e-04 -9.454124053783e-05 0.0 
3.387592784402e-04 -1.117125609851e-04 0.0 
1.375416955850e-04 2.502811737871e-03 0.0 
1.764091928807e-04 3.005885294928e-03 0.0 
7.034028979760e-04 -1.280145774430e-04 0.0 
1.184294688143e-04 -1.202264676670e-05 0.0 
5.507076601194e-04 3.700462087876e-03 0.0 
8.841695847142e-05 -7.092677051293e-05 0.0 
2.380273175298e-04 6.201560583741e-06 0.0 
2.362875987724e-04 2.554306361248e-03 0.0 
4.587487789456e-04 5.076380009251e-03 0.0 
8.665112524093e-04 -8.665754583094e-07 0.0 
1.819369166452e-04 -4.984278513376e-04 0.0 
4.731701985716e-04 -4.181359385728e-04 0.0 
2.208713391422e-04 -5.118706144446e-04 0.0 
7.495596885357e-05 -2.932575452023e-04 0.0 
2.137454751770e-04 3.005579911804e-03 0.0 
1.262592829677e-04 -2.311222457087e-05 0.0 
1.040439617151e-04 -3.708557640757e-04 0.0 
1.489247871549e-03 2.362147335739e-03 0.0 
5.696457671344e-04 7.623473775309e-03 0.0 
2.960512649799e-04 -5.306973949508e-05 0.0 
1.609129311983e-04 -4.989060277675e-05 0.0 
7.715634143988e-04 -3.166643730707e-04 0.0 
1.298901971861e-04 -5.245767782666e-05 0.0 
5.485493344348e-04 8.133765298878e-03 0.0 
1.837874186563e-03 5.574192582990e-04 0.0 
1.806919375590e-04 8.710152165455e-06 0.0 
9.758199194403e-05 -5.015766204422e-04 0.0 
3.036994293679e-04 1.960639378351e-05 0.0 
3.534581302264e-04 4.528601786862e-03 0.0 
1.475946658504e-04 -4.858477799290e-04 0.0 
5.329090396000e-04 -4.176416645431e-04 0.0 
1.858816655639e-04 -2.395693418609e-04 0.0 
6.258819968803e-04 6.148303589757e-03 0.0 
4.126551197281e-04 -4.017459846722e-04 0.0 
2.607726693705e-04 3.979057284732e-03 0.0 
3.955493722971e-04 5.527914222939e-03 0.0 
3.937944539074e-04 -2.487201316984e-04 0.0 
1.520401938189e-04 -8.664903624383e-05 0.0 
1.932351935380e-04 -6.455705914281e-05 0.0 
3.036710724463e-04 4.492174805836e-03 0.0 
2.085219852872e-04 -5.190828344182e-04 0.0 
3.242477748691e-04 -2.784714981409e-04 0.0 
1.563136931329e-03 6.276484536217e-04 0.0 
4.035319575663e-04 4.082417555903e-03 0.0 
3.207318067832e-04 -3.254011094489e-04 0.0 
6.063056859591e-04 -1.212040398692e-04 0.0 
4.002597684592e-04 2.469345670332e-05 0.0 
4.020852312807e-04 5.043110944966e-03 0.0 
1.326103107449e-04 2.910838098117e-04 0.0 
1.899420936158e-04 -5.382604715375e-04 0.0 
7.492865319450e-04 3.862876364335e-04 0.0 
1.858369145874e-04 -3.117447029806e-05 0.0 
5.106173085141e-04 5.593909608421e-03 0.0 
1.339569552083e-04 -1.974437781781e-04 0.0 
6.582038530870e-04 7.158107922577e-03 0.0 
7.538524055183e-04 8.806167599201e-05 0.0 
3.206352675755e-04 -2.307415127166e-04 0.0 
2.272798908079e-04 -6.109339877922e-05 0.0 
1.536579378713e-04 -4.994012362796e-04 0.0 
2.607482638745e-04 1.051861914551e-05 0.0 
3.465102225953e-04 -2.527941386920e-04 0.0 
1.173182734988e-04 -4.872678948479e-04 0.0 
2.792914844965e-04 -2.808716957246e-04 0.0 
3.625931331545e-04 -3.871960494297e-04 0.0 
3.752539549911e-04 -4.546943242796e-04 0.0 
1.766335324363e-04 -1.931878883901e-04 0.0 
1.263518961341e-04 -5.482540311370e-04 0.0 
1.272204871824e-04 -5.307042853905e-04 0.0 
2.969957206840e-04 -1.161880493897e-04 0.0 
1.842226183227e-04 -5.104590469632e-04 0.0 
4.242574969825e-04 -1.010348341969e-04 0.0 
5.129260993148e-04 -1.119393031304e-04 0.0 
5.828829439073e-04 -3.388566031066e-04 0.0 
6.840664645488e-04 -3.105718523473e-04 0.0 
4.729857066819e-04 3.193205831411e-03 0.0 
1.204414056312e-04 9.387233491839e-04 0.0 
3.096248609950e-04 -3.703197514938e-04 0.0 
7.200016904544e-04 1.108845215689e-04 0.0 
1.606224403160e-04 -5.229644098069e-04 0.0 
6.110043063872e-04 6.634829868198e-03 0.0 
6.351223182888e-04 7.658250836519e-03 0.0 
2.892015362323e-04 -5.090965380216e-04 0.0 
5.117946434744e-04 3.320610632636e-05 0.0 
7.025145493180e-04 4.723160703376e-03 0.0 
2.106378526421e-04 -5.089675801228e-04 0.0 
4.909278778680e-04 2.762222287161e-03 0.0 
4.418803697690e-04 2.730161171209e-03 0.0 
2.395067486002e-04 -4.952869674458e-04 0.0 
2.003871444599e-03 3.864361954835e-03 0.0 
3.293567781511e-04 -4.848779573504e-04 0.0 
2.638134084503e-04 -7.677160036135e-05 0.0 
2.481331305941e-04 -2.121259706589e-04 0.0 
1.193376045494e-03 2.461845586248e-03 0.0 
4.235084040168e-04 3.162010298569e-03 0.0 
3.410173843349e-04 -8.910750452816e-05 0.0 
3.817199799245e-04 -8.388594035644e-05 0.0 
3.057592438262e-04 -5.031471760905e-04 0.0 
3.011013420328e-04 -7.253374147603e-05 0.0 
6.377515182061e-04 4.692902794181e-03 0.0 
2.037240403211e-04 -2.150762220472e-04 0.0 
5.723102640052e-04 5.628459931163e-03 0.0 
5.676794557265e-04 4.179813009563e-03 0.0 
2.152985969013e-03 8.335096262747e-04 0.0 
3.938946044605e-04 3.605286566404e-03 0.0 
2.562732337542e-04 -3.058780669051e-04 0.0 
2.748017777439e-04 -2.341724348045e-04 0.0 
2.909157450731e-04 -4.120487361221e-04 0.0 
6.391344693253e-04 -3.596246260190e-04 0.0 
5.772534796032e-04 5.144345797024e-03 0.0 
9.089357498320e-04 -1.755600814420e-04 0.0 
3.033550266028e-04 -4.767908769022e-04 0.0 
2.329638409650e-04 -5.231787631953e-04 0.0 
6.404340150884e-04 5.176918131815e-03 0.0 
3.362056230520e-04 -4.728766454090e-04 0.0 
3.228727970977e-04 2.459424995822e-05 0.0 
4.603051681955e-04 4.595264163735e-03 0.0 
3.312743391060e-04 -4.832423835909e-05 0.0 
4.190222133248e-04 1.031596060081e-04 0.0 
2.760743027865e-04 -3.284148748344e-04 0.0 
2.690122509786e-04 -4.927170100836e-04 0.0 
2.511998886887e-04 -5.207439103048e-04 0.0 
4.652309656008e-04 -7.137634224370e-05 0.0 
4.425343304003e-04 6.046697170877e-03 0.0 
2.015562755094e-04 -5.315358965408e-04 0.0 
3.707981235708e-04 -4.059871600320e-04 0.0 
1.064185255154e-04 -5.130875778201e-04 0.0 
6.926617846482e-04 6.182153242153e-03 0.0 
3.211845594376e-04 -3.903484860436e-04 0.0 
5.609916780730e-04 -1.038618422294e-04 0.0 
2.511887199614e-04 -4.129120554255e-04 0.0 
3.015648785130e-04 3.539113437007e-03 0.0 
3.773434305093e-04 -4.398880017458e-04 0.0 
5.982466283473e-04 -4.587883171785e-05 0.0 
4.441188278751e-04 -4.397170948200e-04 0.0 
5.600166052436e-04 -7.891126007552e-05 0.0 
2.112094204840e-04 -2.610719140318e-04 0.0 
4.162334520951e-04 -5.655067171465e-05 0.0 
1.283838819682e-03 1.612304025700e-04 0.0 
1.322180790910e-04 -5.123323085763e-04 0.0 
5.294769794957e-04 7.089001086427e-03 0.0 
1.338896408412e-03 1.360856474443e-04 0.0 
2.982182444345e-03 3.681975553564e-03 0.0 
5.009387189524e-04 6.079423492074e-03 0.0 
5.386094321932e-04 -3.965049335343e-04 0.0 
9.178225635723e-04 5.781800622130e-03 0.0 
1.368968798582e-04 -5.238642864781e-04 0.0 
4.172492037233e-04 7.776363657490e-06 0.0 
1.394314940854e-03 2.048130979251e-04 0.0 
1.847136363760e-03 6.364599363264e-04 0.0 
3.556448210695e-04 2.213694243455e-03 0.0 
9.043222850556e-04 -1.291890898883e-04 0.0 
2.324318508500e-04 -5.166786281757e-04 0.0 
7.660746909112e-04 -8.675351707677e-05 0.0 
4.275781006715e-04 3.248924280873e-05 0.0 
7.495399698387e-04 -3.179739184535e-04 0.0 
3.770270117487e-04 -6.256667616831e-05 0.0 
5.171169133620e-04 4.628679628766e-03 0.0 
6.769142821386e-04 -2.583711328810e-04 0.0 
6.606067621025e-04 -8.440464240555e-05 0.0 
9.441028656120e-04 7.283542304058e-03 0.0 
1.716385574962e-04 -4.698345845600e-04 0.0 
4.160379800323e-04 -4.189805319867e-04 0.0 
3.012806193222e-03 2.776520777080e-03 0.0 
5.086199497739e-04 -6.382382268241e-05 0.0 
2.930642410371e-03 4.931821997154e-03 0.0 
2.903715597044e-03 2.473507996746e-03 0.0 
7.743925973354e-04 5.238235990379e-03 0.0 
5.477539839504e-04 6.600500093259e-03 0.0 
9.668289431930e-04 6.788992306993e-03 0.0 
2.557204423911e-04 -2.586252583636e-04 0.0 
6.343055219658e-04 4.424451308205e-05 0.0 
8.753798206275e-04 -8.464470872200e-05 0.0 
7.273810208699e-04 7.198384257986e-03 0.0 
1.363638791869e-03 1.861302996423e-03 0.0 
1.820817075249e-03 6.993794041324e-04 0.0 
6.077457897305e-04 -6.947542198525e-05 0.0 
5.102253863676e-04 4.148162178939e-03 0.0 
5.891590822577e-04 -3.561102472501e-04 0.0 
4.993679116459e-04 -3.898953133986e-04 0.0 
2.809526175022e-04 -5.090199181044e-04 0.0 
8.213503196380e-04 -4.404605609876e-05 0.0 
4.496461904122e-04 -3.784407216817e-04 0.0 
7.714661383935e-04 5.725941867720e-03 0.0 
9.078789897404e-04 6.274057178889e-03 0.0 
1.941246491741e-03 5.215356647667e-04 0.0 
4.958137003328e-04 -4.200577097850e-04 0.0 
1.490122960282e-03 6.783312970716e-04 0.0 
4.574127763233e-04 -4.131321034955e-04 0.0 
5.446204867687e-04 -3.817559077841e-04 0.0 
2.915471513066e-04 -5.000685952781e-04 0.0 
7.691574078527e-04 5.972767030870e-05 0.0 
8.441872257946e-04 -2.541732853320e-04 0.0 
4.437762880954e-04 3.637615724409e-03 0.0 
9.529711412141e-04 -1.995322051870e-04 0.0 
8.227642670716e-04 -7.184631814153e-05 0.0 
8.787240746335e-04 -1.614950496344e-04 0.0 
2.635895275400e-03 1.723476111402e-03 0.0 
2.640532205832e-04 -5.039934165181e-04 0.0 
5.443642035419e-04 4.347115782516e-05 0.0 
4.721833635277e-04 4.940635167205e-05 0.0 
2.801555172984e-03 2.523114893220e-03 0.0 
6.384005657939e-04 -3.452263161846e-04 0.0 
8.626769216553e-04 -1.152841658990e-04 0.0 
7.022705872583e-04 5.694881918351e-03 0.0 
5.339606228113e-04 -3.470454291414e-04 0.0 
2.692847985399e-03 2.852298317791e-03 0.0 
3.396518162058e-04 -4.439219249049e-04 0.0 
6.449749136534e-04 -3.439919817271e-04 0.0 
6.848248237774e-04 -3.171241820559e-04 0.0 
3.047117442383e-04 -4.626424789319e-04 0.0 
2.084244338936e-04 -4.836857878906e-04 0.0 
8.180229373729e-04 -1.781737890471e-04 0.0 
7.127755690350e-04 -7.256296077904e-05 0.0 
2.023315227186e-03 1.650613598781e-03 0.0 
1.200360809351e-04 -5.399500961998e-04 0.0 
1.233800261233e-03 -6.933107663642e-05 0.0 
1.029687632617e-03 -1.806215901123e-04 0.0 
7.386209055255e-04 -3.028033773764e-04 0.0 
8.331811287865e-04 6.245627152742e-03 0.0 
8.719585444528e-04 -2.084604760121e-04 0.0 
3.364893695715e-04 -4.272556305055e-04 0.0 
7.859808986264e-04 -2.723006884182e-04 0.0 
3.533484672621e-04 4.049024243314e-03 0.0 
2.980155647907e-04 -4.301647699818e-04 0.0 
2.025947981705e-04 -5.363358637986e-04 0.0 
2.456400490073e-04 -5.214018056421e-04 0.0 
6.775766945854e-04 -3.463712304304e-04 0.0 
5.886329929674e-04 -3.854898164803e-04 0.0 
1.151569351435e-03 -1.110094253837e-04 0.0 
8.908551822475e-04 -2.216536983282e-04 0.0 
4.338294022225e-04 -4.133731055928e-04 0.0 
2.246132130785e-04 -5.251356944734e-04 0.0 
1.308061943127e-03 6.881301937096e-03 0.0 
2.704412515431e-04 -4.653180155067e-04 0.0 
8.129514367951e-04 4.304094989466e-05 0.0 
2.216377688137e-03 1.701276039323e-03 0.0 
2.358537837646e-03 5.857524201804e-03 0.0 
7.623333586240e-04 3.330378708636e-03 0.0 
1.783680271168e-03 1.537566238369e-03 0.0 
2.057596607359e-03 7.002182916609e-04 0.0 
2.545370004516e-03 2.112988865546e-03 0.0 
5.307420114957e-04 -3.625860953596e-04 0.0 
7.161155055676e-04 -2.710208515018e-04 0.0 
2.354636811946e-03 1.387890770873e-03 0.0 
7.900042568474e-04 -9.009404187516e-05 0.0 
4.111504306680e-04 -3.730502860512e-04 0.0 
4.949841860390e-04 -3.724384788994e-04 0.0 
9.658381364743e-04 -2.087439482633e-04 0.0 
1.083083957057e-03 -1.446534398119e-04 0.0 
2.669075187298e-04 -4.495066009559e-04 0.0 
9.725370745922e-04 -1.544528774174e-04 0.0 
1.163379168955e-03 -1.114522062875e-04 0.0 
1.370266366718e-03 1.998950215216e-05 0.0 
5.433604939470e-04 -3.967371671799e-04 0.0 
1.612781620433e-03 3.568197465739e-04 0.0 
8.460511615604e-04 5.265664718642e-03 0.0 
1.458662889737e-03 9.334469230166e-05 0.0 
6.735542679904e-04 5.755438508191e-05 0.0 
6.409503906604e-04 -3.010398799730e-04 0.0 
5.925921925067e-04 9.514951854058e-05 0.0 
1.063939147880e-03 -1.384753716224e-04 0.0 
1.477189326255e-03 1.337788710576e-03 0.0 
2.926656831221e-03 4.124327006598e-03 0.0 
5.719272331822e-04 -3.694427794018e-04 0.0 
2.464127597761e-03 5.226496343630e-03 0.0 
9.833718438602e-04 2.918750700313e-03 0.0 
1.175483622361e-03 -7.105024454722e-05 0.0 
2.140301847024e-03 2.007588943484e-03 0.0 
2.532493151190e-03 4.598882082830e-03 0.0 
3.066141045659e-03 3.383134175366e-03 0.0 
4.580834141575e-04 -3.848854165121e-04 0.0 
3.798999724270e-04 1.401956600745e-03 0.0 
3.715145319519e-04 -4.318020146953e-04 0.0 
1.060183231656e-03 3.223278781417e-04 0.0 
3.114321744787e-04 2.635874282080e-03 0.0 
1.429897456880e-03 2.705035263380e-04 0.0 
7.469612619380e-04 6.708955856003e-03 0.0 
8.000562257804e-04 3.809513237467e-03 0.0 
1.294783175473e-03 -2.934325077308e-05 0.0 
1.948196872466e-03 5.116724163096e-04 0.0 
5.923597589004e-04 2.367438605930e-03 0.0 
6.450845365335e-04 -3.512300048129e-05 0.0 
9.142887061035e-04 4.800897057175e-03 0.0 
1.255431901361e-03 1.261132426182e-04 0.0 
5.606736180784e-04 -3.276033253106e-04 0.0 
9.735235667729e-04 4.332761227609e-03 0.0 
9.263013331887e-04 5.724460871850e-04 0.0 
4.984585341018e-04 5.922804188198e-05 0.0 
7.725512015374e-04 -2.571240913170e-04 0.0 
8.182850549412e-04 6.741369817223e-03 0.0 
8.702568383139e-04 7.264349840435e-03 0.0 
9.976758281795e-04 -1.652317788465e-04 0.0 
7.586376792917e-04 -3.326820337714e-05 0.0 
7.930486133574e-04 5.753323489226e-06 0.0 
2.324450277878e-04 -5.271764359114e-04 0.0 
1.244910386530e-03 6.945955538980e-04 0.0 
1.610818749159e-03 2.083550509850e-04 0.0 
1.381010284543e-03 3.230130907293e-05 0.0 
2.837515933602e-03 2.429399888892e-03 0.0 
4.712894506426e-04 1.885829882891e-03 0.0 
1.415448744923e-03 2.396437782339e-03 0.0 
3.523626850461e-04 2.668449450497e-03 0.0 
3.056237052165e-03 5.467047371247e-03 0.0 
1.182662649395e-03 3.877891333759e-03 0.0 
7.067525048492e-04 -4.687790912218e-05 0.0 
4.434766408583e-04 2.293625944060e-03 0.0 
1.155358219092e-03 4.847934168228e-03 0.0 
8.118608909109e-04 -2.258034659148e-04 0.0 
1.705547391328e-03 3.244824925415e-04 0.0 
8.976539081836e-04 4.314172648318e-03 0.0 
6.517298607074e-04 2.832144194620e-03 0.0 
6.905206499778e-04 4.240432094237e-03 0.0 
8.403366114780e-04 4.777935627390e-03 0.0 
5.590326335472e-04 2.104820526788e-05 0.0 
1.281284693249e-03 4.296121282785e-04 0.0 
6.810211694451e-04 2.993909422548e-05 0.0 
7.591171964529e-04 -1.154270980106e-04 0.0 
2.647361539231e-03 8.350217927867e-03 0.0 
1.442486245697e-03 3.305039797212e-04 0.0 
1.618330714689e-03 4.805765901893e-03 0.0 
2.395790315292e-04 -4.820363708392e-04 0.0 
1.528017897188e-03 1.380973525680e-04 0.0 
1.517553183294e-03 1.428966819508e-04 0.0 
1.900690148425e-03 4.944867010788e-04 0.0 
9.088211361966e-04 1.542114952363e-04 0.0 
1.620786183438e-03 2.386477906716e-04 0.0 
1.797585945390e-03 4.677798903389e-04 0.0 
3.005748439774e-03 6.544573945603e-03 0.0 
7.881369590295e-04 -2.095818107574e-04 0.0 
1.249426466523e-03 5.850890444491e-03 0.0 
7.940790358074e-04 8.853162353996e-03 0.0 
-2.930648278837e-04 2.081260130029e-03 0.0 
8.031038736413e-04 -1.311593562523e-04 0.0 
1.313912701444e-03 2.424620710868e-04 0.0 
1.141143420114e-03 2.031399630509e-03 0.0 
1.905994154241e-03 4.690247164846e-04 0.0 
7.840480997809e-04 -1.617430196543e-04 0.0 
9.959843911728e-04 5.805467262596e-03 0.0 
-9.702137348390e-07 2.999658414844e-03 0.0 
1.498958299935e-03 3.190252487137e-04 0.0 
1.799577981830e-03 3.793772095658e-04 0.0 
2.994281210919e-03 6.320023395555e-03 0.0 
7.422082014124e-04 -9.477946570169e-06 0.0 
7.520613827005e-04 -1.540413433291e-04 0.0 
7.640639444121e-04 2.656224581131e-05 0.0 
6.443173914606e-04 7.976529040552e-05 0.0 
1.687686936368e-03 4.178433674040e-04 0.0 
7.566841479129e-04 4.267778289988e-03 0.0 
2.133876543388e-03 1.249695144896e-03 0.0 
6.098881201406e-04 6.660272003495e-05 0.0 
7.411653790066e-04 4.388688112036e-03 0.0 
1.079444038028e-03 5.329727673793e-03 0.0 
1.401744508848e-03 5.730372785476e-04 0.0 
7.330385601352e-04 3.786080308921e-03 0.0 
1.814735709837e-03 4.441657141341e-04 0.0 
1.782656078243e-03 3.741304257784e-04 0.0 
4.634628275994e-04 -2.173224199726e-04 0.0 
3.655447841571e-04 3.717523216091e-04 0.0 
5.801113779205e-04 3.255628122843e-03 0.0 
2.041893467654e-04 -4.686459774636e-04 0.0 
8.259803555315e-04 6.842954110527e-03 0.0 
2.343099108001e-03 1.574110371649e-03 0.0 
3.156044390117e-04 2.183178055586e-03 0.0 
6.231774365796e-04 -2.404892068036e-04 0.0 
3.067234828145e-03 3.045081303386e-03 0.0 
1.071437318934e-03 4.836920521366e-03 0.0 
6.476662635555e-04 -2.152268369081e-04 0.0 
8.676223014373e-04 6.382121354133e-05 0.0 
1.953003992508e-03 1.902675725160e-03 0.0 
4.339559676215e-04 -3.370080201951e-04 0.0 
6.558117475608e-04 -1.872887000545e-04 0.0 
5.373604847167e-04 -2.694150091919e-04 0.0 
1.887276828699e-03 4.605831074359e-04 0.0 
2.069019757986e-04 4.722202854973e-04 0.0 
1.196499162853e-03 9.219215946522e-03 0.0 
4.478403373071e-04 1.525655699610e-05 0.0 
1.860398918000e-03 6.563032625229e-04 0.0 
1.342015991046e-03 5.349247002891e-03 0.0 
6.128443746859e-04 3.390441370360e-04 0.0 
5.583088269975e-04 8.157747660722e-05 0.0 
5.108205576937e-04 -3.138603806070e-04 0.0 
2.231912325370e-04 -4.327066341906e-04 0.0 
1.709122735127e-03 4.932634045433e-04 0.0 
1.202302818690e-03 -7.328922726077e-05 0.0 
1.515984149920e-03 5.681455184479e-04 0.0 
2.455969913153e-03 3.008044598949e-03 0.0 
1.492392107398e-03 4.337409830091e-03 0.0 
1.084222262404e-03 3.509672323844e-04 0.0 
9.981650837864e-04 5.312292788892e-03 0.0 
1.206811752107e-03 2.012803347838e-03 0.0 
1.020293261865e-03 3.863064065933e-03 0.0 
1.050304361155e-03 3.392870958747e-03 0.0 
8.794342741366e-04 9.892927775056e-04 0.0 
4.521183127230e-04 -5.947041683871e-06 0.0 
1.134426491684e-03 4.358045018332e-03 0.0 
2.319856316137e-03 1.033443191805e-03 0.0 
1.752093516107e-03 1.017650564208e-02 0.0 
9.079928979450e-04 3.036433455229e-04 0.0 
1.038998703937e-03 4.921866188469e-04 0.0 
2.318102115877e-04 -4.511851458613e-04 0.0 
1.649804673484e-03 6.027570781280e-04 0.0 
2.463110990233e-05 -5.226930730009e-04 0.0 
2.784434411892e-03 1.995486493147e-03 0.0 
1.507423459995e-03 3.804900973449e-04 0.0 
8.358892591762e-04 2.459155873201e-03 0.0 
7.987654267231e-04 2.004083120673e-03 0.0 
1.638800830169e-03 4.300349871675e-04 0.0 
8.297187113662e-04 3.351070813951e-03 0.0 
2.063112556304e-03 8.610365137058e-04 0.0 
2.392898268423e-03 1.975627296829e-03 0.0 
2.012590809396e-03 1.033002885175e-02 0.0 
1.530946310184e-03 1.856164566224e-03 0.0 
2.056194307163e-03 1.002404751664e-02 0.0 
2.023578258553e-03 9.755685134859e-03 0.0 
2.034239405183e-03 6.311165105470e-04 0.0 
1.960933448106e-03 9.436351483229e-03 0.0 
2.588934144326e-03 1.457968570889e-03 0.0 
2.456367196445e-03 1.453593667686e-03 0.0 
1.674287827415e-03 2.540732359801e-04 0.0 
7.508198434716e-04 2.358536746378e-05 0.0 
1.872529637213e-03 4.718523344337e-04 0.0 
5.946147845903e-04 2.808737387186e-03 0.0 
1.303329844692e-03 1.902878494087e-03 0.0 
5.387565922081e-04 -3.375275035439e-05 0.0 
1.320977572981e-03 4.739912378331e-04 0.0 
1.275095550450e-03 -3.374418230123e-05 0.0 
9.734437589173e-04 3.383177398348e-03 0.0 
1.761363948609e-03 3.340139089036e-04 0.0 
3.577460642509e-04 -5.195345814295e-06 0.0 
9.433112371119e-04 3.848793922072e-03 0.0 
1.268379412551e-03 3.875993166225e-03 0.0 
1.640060393337e-03 3.351743305328e-04 0.0 
1.973832841212e-03 6.453610656711e-04 0.0 
2.029664514719e-03 1.552207599617e-03 0.0 
2.874240148321e-03 4.343912343127e-03 0.0 
7.188020976408e-04 -5.549910806686e-05 0.0 
9.938054473789e-04 3.672745438373e-04 0.0 
2.536569128122e-03 2.754233076694e-03 0.0 
3.102107426160e-03 3.329672727760e-03 0.0 
2.729696633084e-04 -3.522805673703e-06 0.0 
1.219935276977e-03 4.363178725759e-03 0.0 
1.881758784507e-03 5.265759542243e-04 0.0 
2.911146642207e-03 2.836520119478e-03 0.0 
1.309016615225e-03 2.921008343878e-04 0.0 
6.382006168617e-04 3.283538972657e-03 0.0 
1.810319625655e-03 1.468882246850e-03 0.0 
1.432713819268e-03 5.846264570552e-03 0.0 
9.573434105727e-04 1.402113557511e-04 0.0 
1.815985170078e-03 3.792248692769e-04 0.0 
1.249503914028e-03 2.525806481291e-04 0.0 
2.867778562631e-03 2.238959173089e-03 0.0 
6.500157038468e-04 2.400415209357e-03 0.0 
1.510471187654e-03 1.286352805196e-03 0.0 
1.730371065438e-03 3.416988642328e-04 0.0 
8.554447880497e-04 3.167692038746e-04 0.0 
1.942896290305e-03 1.066835412684e-03 0.0 
2.749286168855e-03 1.820982544153e-03 0.0 
1.969253431195e-03 7.172870618911e-04 0.0 
1.732115473719e-03 3.725837751582e-04 0.0 
9.138540389757e-04 8.131893353691e-05 0.0 
8.197696557816e-04 2.082105566496e-04 0.0 
1.770489041435e-03 3.406666712319e-04 0.0 
2.442286188595e-03 4.737476328278e-03 0.0 
2.479846250253e-04 -7.776318941065e-06 0.0 
2.482645346088e-03 4.129654407034e-03 0.0 
2.165362792182e-03 1.357730525814e-03 0.0 
2.363232861604e-03 5.352818882527e-03 0.0 
2.113818887232e-03 6.572000118058e-03 0.0 
2.860191614219e-03 3.700510631172e-03 0.0 
1.422065752852e-03 4.617205255457e-04 0.0 
5.167561634174e-04 -1.454256386911e-05 0.0 
1.331901702310e-03 4.853110918702e-03 0.0 
7.376207664787e-04 1.998984723963e-03 0.0 
2.250934078010e-03 5.966863809910e-03 0.0 
1.617119679260e-03 5.331330092598e-04 0.0 
1.768064223447e-03 9.737497043462e-04 0.0 
4.890743086393e-04 2.312230194271e-03 0.0 
2.604295122102e-03 1.561233744355e-03 0.0 
2.733908258941e-03 1.802276680440e-03 0.0 
1.772674941152e-03 5.297512441322e-04 0.0 
1.398760770128e-03 4.354532498395e-03 0.0 
2.999546156448e-03 4.492336020297e-03 0.0 
2.496425832948e-03 1.306681697603e-03 0.0 
2.942201400035e-03 4.040155064006e-03 0.0 
1.698272221517e-03 5.566593593444e-04 0.0 
1.326512302930e-03 6.950267588313e-04 0.0 
1.703117563434e-03 3.675783790262e-04 0.0 
3.610248072153e-04 2.553850969197e-04 0.0 
9.231564177417e-04 2.002529389561e-03 0.0 
3.114547538328e-03 4.975907133522e-03 0.0 
1.397979008437e-03 5.103336950982e-05 0.0 
1.544130395888e-03 8.014106685937e-04 0.0 
1.425010432305e-03 4.846362858872e-03 0.0 
6.252817136797e-04 -1.363562872954e-05 0.0 
2.255862604090e-03 1.194689709478e-03 0.0 
2.460288047718e-04 2.187477060996e-04 0.0 
1.753419927306e-04 -3.946765073003e-06 0.0 
3.001026118763e-03 2.740606790590e-03 0.0 
2.060842365838e-03 8.165498829842e-04 0.0 
1.812594425686e-03 1.293428671165e-03 0.0 
3.660800974673e-05 2.611464280059e-04 0.0 
6.705202041160e-04 -1.600280563458e-06 0.0 
1.609466439535e-03 1.316353120224e-03 0.0 
1.530182460303e-03 5.832154096786e-03 0.0 
6.355559860970e-04 -1.671982095360e-04 0.0 
1.789455397643e-03 4.719499320536e-04 0.0 
3.280661812237e-04 -1.094880178047e-05 0.0 
2.667668695986e-03 1.634851528138e-03 0.0 
1.659738486972e-03 4.716784488146e-04 0.0 
2.958457962411e-03 2.690111645408e-03 0.0 
2.478437575726e-04 1.112947541362e-04 0.0 
2.529822653733e-03 1.958672799144e-03 0.0 
1.634935795961e-03 4.928720327319e-04 0.0 
1.228368234547e-03 1.110651194217e-03 0.0 
2.207447132776e-03 1.585523520036e-03 0.0 
1.219087571409e-03 3.583694542649e-04 0.0 
4.968590981215e-04 -4.226190322868e-05 0.0 
4.251190764988e-04 1.854028278667e-03 0.0 
7.270551349429e-04 2.643975127691e-04 0.0 
1.595579156148e-03 5.407111947804e-04 0.0 
2.163081327974e-03 9.224018520995e-04 0.0 
2.779501778019e-03 2.327489122412e-03 0.0 
1.998768987075e-04 -1.481573012142e-05 0.0 
1.427859305029e-04 -2.422086537964e-04 0.0 
2.368420362279e-03 1.705558711141e-03 0.0 
1.250981293121e-03 5.349203959844e-03 0.0 
4.177399477159e-04 -1.324105281989e-05 0.0 
6.383178410941e-04 1.700783791011e-05 0.0 
3.240433490981e-04 9.311497213207e-03 0.0 
2.165456405093e-04 9.309309048120e-03 0.0 
2.308882656672e-03 4.374120051977e-03 0.0 
2.650371622887e-03 2.057448738095e-03 0.0 
5.459851330059e-04 -1.567790869700e-04 0.0 
2.735028337298e-03 3.488074763785e-03 0.0 
2.584003813427e-03 1.440507515422e-03 0.0 
8.902793350761e-04 1.924551758830e-04 0.0 
2.260297147619e-03 1.083333828616e-03 0.0 
1.842168692259e-04 4.861391506592e-04 0.0 
2.113785580082e-03 7.548410387988e-03 0.0 
2.647360455173e-03 1.598684608959e-03 0.0 
6.899003208035e-04 -1.568453667555e-04 0.0 
1.188710177258e-03 5.507138879390e-04 0.0 
7.304250740685e-04 -2.230920197439e-04 0.0 
2.860887611106e-03 2.403284576850e-03 0.0 
3.075150650613e-03 3.530610831699e-03 0.0 
1.532593362075e-03 5.328388469296e-03 0.0 
2.632529874449e-03 3.093991165816e-03 0.0 
2.474207503263e-03 2.870005632711e-03 0.0 
6.850306364589e-05 -5.460155000172e-04 0.0 
6.977133099801e-04 -2.532104350862e-04 0.0 
3.089005378335e-03 4.525449204963e-03 0.0 
2.693160340462e-03 4.278380511782e-03 0.0 
2.559930875826e-03 3.986337169821e-03 0.0 
1.208601960708e-03 3.535546127739e-04 0.0 
1.283029904206e-05 -5.107195508133e-04 0.0 
6.661291056382e-04 7.189419834513e-05 0.0 
2.960397982365e-03 2.506286521089e-03 0.0 
6.430801184576e-04 -2.638853263683e-04 0.0 
2.117789334117e-03 9.618567185195e-03 0.0 
2.057684260817e-03 9.334015714371e-03 0.0 
1.632282307189e-03 5.304914180621e-03 0.0 
7.343011783929e-04 1.104500057847e-03 0.0 
6.170589762180e-04 -1.956387013093e-04 0.0 
1.251234786650e-03 2.043331068750e-04 0.0 
6.938800831888e-04 1.661291058360e-04 0.0 
7.555975503326e-04 4.362801393980e-04 0.0 
8.435141811941e-04 2.903649343898e-03 0.0 
4.914365370784e-04 -2.384777497666e-04 0.0 
4.404803043238e-04 -3.034572787943e-05 0.0 
1.180326781599e-04 -5.536381260441e-04 0.0 
1.229654215871e-03 1.502005434640e-04 0.0 
2.951775832839e-03 2.493206472193e-03 0.0 
9.040797281154e-05 -5.545409575070e-04 0.0 
7.767711583960e-04 2.885812903362e-03 0.0 
5.931130581979e-04 2.274442536635e-04 0.0 
2.759898807954e-03 4.097961877555e-03 0.0 
3.064104352914e-03 3.262807986784e-03 0.0 
1.427345141718e-03 6.153468581637e-05 0.0 
1.131733899642e-03 5.245248835631e-06 0.0 
7.728921987474e-04 2.453748077185e-03 0.0 
1.059812151978e-03 3.740257715388e-05 0.0 
2.824257916586e-03 2.032107727316e-03 0.0 
2.892224157411e-03 2.256874543545e-03 0.0 
-3.783216597964e-04 1.748562827028e-03 0.0 
4.710212786996e-04 1.880695527801e-04 0.0 
2.000118328734e-03 1.255425097265e-03 0.0 
2.035719315279e-03 6.129460002997e-03 0.0 
1.793800013081e-03 1.054304008010e-03 0.0 
1.682490993693e-03 1.543845401677e-03 0.0 
1.729210631240e-03 3.244433570097e-03 0.0 
1.808741881378e-03 1.208743342830e-03 0.0 
2.175499378416e-03 8.795456949486e-03 0.0 
2.016881415050e-03 1.351769751995e-03 0.0 
4.032436424704e-04 -3.708197680411e-05 0.0 
2.705135134359e-03 1.953819036235e-03 0.0 
7.028217980511e-04 -2.047825291044e-04 0.0 
7.265588454201e-04 -1.748415507251e-04 0.0 
9.907692877404e-04 2.003434998517e-03 0.0 
1.169636629157e-03 -3.167639144605e-05 0.0 
2.986663598547e-03 2.927721417228e-03 0.0 
2.316700818909e-03 9.737961541340e-04 0.0 
9.536773519224e-04 6.232637953371e-05 0.0 
2.510404071079e-03 1.369656084537e-03 0.0 
1.290375297973e-03 3.028051474754e-04 0.0 
1.629909551129e-03 2.405373988745e-04 0.0 
1.487375020651e-03 4.732093462468e-04 0.0 
2.687152213933e-03 3.665940673639e-03 0.0 
1.416568355535e-03 3.574366109598e-04 0.0 
2.892682602990e-03 3.491122958953e-03 0.0 
1.373422051059e-03 4.143023642838e-04 0.0 
1.483599028799e-03 4.295057069060e-04 0.0 
2.443558512950e-03 1.318910169202e-03 0.0 
1.732376068424e-03 5.774992804021e-03 0.0 
3.508234028354e-04 -2.573075771074e-05 0.0 
3.180605398174e-04 -3.095701481206e-05 0.0 
4.083645289334e-04 1.154914308161e-03 0.0 
2.798007363203e-03 3.111710078687e-03 0.0 
1.949843265479e-04 -8.608905667853e-07 0.0 
2.517720177294e-03 7.216390165354e-03 0.0 
4.816132961063e-04 -1.906505150203e-04 0.0 
-2.645641925028e-04 1.844406090138e-03 0.0 
2.703182799226e-04 -2.042857214915e-05 0.0 
1.278280764520e-03 4.790325189550e-04 0.0 
1.179517280321e-04 -2.219714237707e-04 0.0 
2.132881292467e-03 9.165765020269e-04 0.0 
1.836655331110e-03 5.733645504305e-03 0.0 
1.927908421082e-03 6.190323638339e-03 0.0 
2.868070423835e-03 2.236648032704e-03 0.0 
2.148105606382e-03 9.975550463709e-03 0.0 
2.151396843520e-03 9.837265336525e-03 0.0 
2.418528874221e-04 -2.438210882329e-05 0.0 
1.132838464607e-03 3.564504790993e-05 0.0 
1.437124628631e-03 9.003178447465e-05 0.0 
1.295384602146e-03 1.864122530659e-04 0.0 
1.642549396827e-03 2.261791187328e-04 0.0 
1.420375156199e-03 5.392409474526e-04 0.0 
2.057248955292e-03 1.021907179984e-02 0.0 
2.062406340928e-03 7.112766261303e-03 0.0 
2.732841532848e-04 9.599109176202e-03 0.0 
1.426408597791e-03 3.803521888947e-04 0.0 
2.346262671980e-03 1.141851391528e-03 0.0 
9.394645542890e-04 3.328103433023e-04 0.0 
1.020326560555e-04 -3.851882057407e-05 0.0 
1.684129389377e-03 2.675615936112e-04 0.0 
1.626339848602e-04 5.901214282290e-06 0.0 
1.394994382124e-03 2.112985075818e-04 0.0 
1.189000952937e-03 4.640564452590e-04 0.0 
2.808726332537e-03 2.024961265370e-03 0.0 
2.525753274310e-03 1.573455381227e-03 0.0 
8.855519399376e-04 1.469356131645e-04 0.0 
7.420497261855e-04 -3.161725461829e-04 0.0 
2.918184817164e-03 3.056595645202e-03 0.0 
1.558506488376e-03 1.609627341731e-04 0.0 
3.004748071203e-03 3.415599787867e-03 0.0 
1.868652105242e-03 1.641147790395e-03 0.0 
2.328584613167e-03 1.258408806348e-03 0.0 
1.507444066994e-03 1.185991530035e-04 0.0 
5.971726637268e-04 -1.483887819571e-04 0.0 
2.992773334324e-03 3.657010127861e-03 0.0 
-2.106980893875e-04 1.202948635092e-03 0.0 
2.248959784466e-03 9.018431199272e-04 0.0 
6.228976713040e-05 1.828965685421e-03 0.0 
1.946412102587e-04 -5.356943785743e-04 0.0 
5.317166132960e-04 -1.839461084791e-04 0.0 
2.209088889400e-03 1.935199878841e-03 0.0 
2.048445096645e-03 5.629306165244e-03 0.0 
2.004002214680e-03 9.898088146716e-03 0.0 
9.552891240115e-05 2.353305856476e-04 0.0 
-4.305578393705e-04 1.444144128722e-03 0.0 
2.104537326958e-03 9.998689458794e-03 0.0 
1.388667147193e-03 8.006639687109e-05 0.0 
4.146199601585e-04 -2.225090111849e-04 0.0 
2.700167175091e-03 8.063483751454e-03 0.0 
1.218362049597e-03 -3.692577473265e-05 0.0 
1.189506189526e-03 2.328258487734e-06 0.0 
2.819750358454e-03 2.197221282543e-03 0.0 
2.116127669403e-03 8.171016390728e-04 0.0 
1.826912916283e-03 2.139519327256e-03 0.0 
5.626108255032e-04 1.034300244482e-03 0.0 
5.422775264272e-04 -2.318560315747e-04 0.0 
3.853690089923e-04 -2.010977654834e-04 0.0 
4.865599698941e-04 -4.327371656275e-04 0.0 
2.079854596814e-03 8.465065654953e-03 0.0 
2.154581821687e-03 5.555555294539e-03 0.0 
3.717603549439e-05 -8.819240718425e-05 0.0 
9.974104199271e-05 -5.579435410472e-04 0.0 
-8.314455985738e-05 3.368061453852e-04 0.0 
3.579268017298e-04 -4.854626534393e-04 0.0 
3.386685477214e-04 -2.052562600214e-04 0.0 
1.526905884619e-03 2.239424137506e-04 0.0 
1.193742635818e-03 -1.839766665672e-05 0.0 
1.229154778565e-03 2.023610603515e-04 0.0 
4.479151339439e-04 -1.702865530602e-04 0.0 
2.215047138417e-03 4.469803483829e-03 0.0 
3.089961411160e-04 -1.839235105050e-04 0.0 
1.606527491368e-03 3.150800459796e-04 0.0 
2.811534840499e-03 2.918593104930e-03 0.0 
1.247459151524e-03 7.903230323635e-03 0.0 
1.877872485625e-03 7.773233425391e-04 0.0 
2.642942138203e-04 -1.873622990546e-04 0.0 
4.005137142709e-04 -1.755472123110e-04 0.0 
1.602479882225e-03 9.141295449031e-03 0.0 
1.459412307066e-03 1.155606449743e-04 0.0 
2.340440292818e-04 -1.663608098347e-04 0.0 
4.771209780934e-05 5.820194963812e-03 0.0 
5.284893728341e-05 6.788393775136e-03 0.0 
1.842096356301e-03 9.637274462415e-03 0.0 
3.668888519820e-04 -1.551916871994e-04 0.0 
1.008570997121e-03 -1.785586107240e-04 0.0 
4.473638959085e-04 2.073485412940e-03 0.0 
1.155386798480e-03 4.245133397183e-04 0.0 
3.852953323984e-04 -4.575481918382e-04 0.0 
1.026234703456e-03 -1.833964301188e-04 0.0 
2.335214150238e-03 1.005017273715e-03 0.0 
1.916665728707e-03 1.031516943105e-02 0.0 
1.907924381708e-04 -1.692361477820e-04 0.0 
2.997839781631e-05 -4.677177794812e-04 0.0 
2.053284634102e-03 8.053861902448e-03 0.0 
3.220717400980e-04 -1.594094908553e-04 0.0 
1.321212608413e-03 5.087254317455e-06 0.0 
5.644071341380e-04 -2.039962952394e-04 0.0 
-1.144350733256e-04 9.348758662795e-04 0.0 
5.931498868981e-05 2.983536369371e-03 0.0 
1.237510135215e-03 -6.232769908245e-05 0.0 
1.072657373854e-03 2.532871009596e-04 0.0 
2.470287493433e-03 1.427879753610e-03 0.0 
2.892785795200e-04 -1.393854110154e-04 0.0 
2.459527959995e-04 -1.428979414452e-04 0.0 
1.428798248202e-03 1.744790501946e-04 0.0 
2.731614680126e-04 -4.379737424168e-04 0.0 
-1.015391769681e-04 1.095798729308e-03 0.0 
2.137705069341e-04 -1.233071706398e-04 0.0 
9.343653796446e-04 1.708821597555e-04 0.0 
8.396947086671e-04 -2.859378568133e-04 0.0 
2.690913861193e-03 2.582793261290e-03 0.0 
2.303272629322e-03 6.455713779603e-03 0.0 
2.663017911583e-03 2.927014152937e-03 0.0 
3.148969117649e-04 4.734959712181e-05 0.0 
-3.416040362603e-04 4.218570115772e-04 0.0 
8.667178160911e-06 2.598087122281e-04 0.0 
7.543734123834e-06 1.271030841167e-06 0.0 
3.330596457758e-05 8.326030208845e-03 0.0 
1.035950460504e-03 -1.843980079173e-04 0.0 
2.654929475808e-03 1.778639296388e-03 0.0 
1.579928871397e-03 3.613788036894e-04 0.0 
1.858178165702e-04 -5.411199176301e-04 0.0 
-3.520213122031e-04 1.535299620481e-03 0.0 
2.485870444684e-04 2.147222844399e-03 0.0 
2.247555934184e-03 4.959482299027e-03 0.0 
1.982072239841e-03 8.988512107942e-03 0.0 
3.692357681912e-04 1.891122041503e-04 0.0 
2.685914258448e-05 -4.973834798463e-04 0.0 
3.421956495068e-04 1.593172114528e-04 0.0 
2.146508653902e-03 5.052879102934e-03 0.0 
8.522163211955e-04 -2.655350448168e-04 0.0 
2.710200608605e-03 1.810354775361e-03 0.0 
9.731238817619e-04 -2.194109128144e-04 0.0 
6.997986466269e-04 2.531448358358e-03 0.0 
8.505319776891e-04 -2.815103121745e-04 0.0 
2.248766561680e-03 3.900837353027e-03 0.0 
1.014087625813e-04 -2.490441040483e-05 0.0 
1.164647516563e-03 -1.020368600696e-04 0.0 
2.533003513555e-03 2.575013309776e-03 0.0 
-2.532742618007e-04 3.035217340338e-04 0.0 
1.375131124722e-03 7.006723801450e-05 0.0 
1.815122021041e-03 3.713258722307e-03 0.0 
6.889875479687e-04 -3.448916606967e-04 0.0 
7.220811984520e-04 -3.418168311441e-04 0.0 
2.644114719785e-03 1.631370221293e-03 0.0 
5.000961148217e-04 -1.933220669822e-04 0.0 
9.870901989686e-04 7.211876460428e-03 0.0 
1.274264840594e-03 8.392538427860e-03 0.0 
6.269619709934e-04 -3.817656292809e-04 0.0 
1.313127708222e-03 3.791212012714e-05 0.0 
2.466161752349e-03 1.238390583368e-03 0.0 
2.547371985869e-03 2.423909391886e-03 0.0 
1.177244350532e-03 1.472761378582e-03 0.0 
1.505437428386e-03 9.847091533333e-03 0.0 
8.822637760204e-05 4.816978942315e-03 0.0 
1.289966373565e-03 1.019627848129e-03 0.0 
1.466503398569e-03 3.070606288476e-04 0.0 
4.849945028502e-05 2.079065333509e-03 0.0 
2.532751274705e-03 6.533235959252e-03 0.0 
1.211882535344e-03 -3.466106136680e-05 0.0 
2.431419066164e-03 3.008149357336e-03 0.0 
1.284818789636e-03 1.931392538343e-06 0.0 
2.585838244158e-04 9.296569650062e-04 0.0 
1.269154609381e-03 6.780126800814e-05 0.0 
1.000735639741e-03 3.100504029296e-03 0.0 
2.372909838377e-03 1.079236468310e-03 0.0 
1.260061014298e-03 3.532431615579e-05 0.0 
2.533377806111e-03 1.454079114702e-03 0.0 
3.358896421754e-04 6.011391570832e-03 0.0 
5.813908911025e-04 -3.971917465035e-04 0.0 
2.470414606780e-04 1.702484249187e-03 0.0 
1.199704349574e-03 6.520500941439e-05 0.0 
1.288256897674e-03 3.780694278608e-03 0.0 
-1.022593987053e-04 4.396283333284e-04 0.0 
2.201394271991e-05 1.951453240784e-03 0.0 
2.978776168499e-05 2.912311701772e-03 0.0 
1.523215078828e-04 -4.547884958235e-04 0.0 
1.188282331594e-03 9.299642721289e-05 0.0 
4.239530848794e-04 -4.624919695116e-04 0.0 
4.378882891244e-04 -4.533664884215e-04 0.0 
2.192736346432e-03 2.049025854628e-03 0.0 
2.464423470934e-03 1.306273548261e-03 0.0 
2.391958757219e-03 2.111145137184e-03 0.0 
1.302608390130e-03 5.521909970590e-06 0.0 
6.140484126365e-04 9.651651186941e-03 0.0 
2.223408132521e-04 3.002559961168e-05 0.0 
3.767395429883e-04 -4.797851606080e-04 0.0 
1.227405718756e-03 2.936070930615e-04 0.0 
2.496696161627e-03 1.271791149649e-03 0.0 
9.025447431178e-05 -5.250034211043e-04 0.0 
2.481382443370e-03 3.549978662249e-03 0.0 
1.538734748795e-03 1.906060449273e-04 0.0 
2.262045104311e-04 -3.780523152908e-04 0.0 
1.259203781664e-03 4.963205444350e-05 0.0 
1.983533269907e-05 -1.067675141130e-04 0.0 
2.332322288501e-03 3.794965953533e-03 0.0 
3.520318328244e-04 -4.543959446935e-04 0.0 
7.933472015390e-05 -2.285686410997e-04 0.0 
2.332929768779e-03 2.504090340917e-03 0.0 
1.754012865269e-03 7.402039517085e-04 0.0 
7.344120688116e-04 -3.356963400332e-04 0.0 
6.094297750875e-05 -4.655666777007e-04 0.0 
2.421957578983e-03 1.143858154173e-03 0.0 
2.510901234672e-05 6.326185031449e-03 0.0 
2.137826668039e-04 -3.034635991680e-04 0.0 
9.288136385450e-04 6.373577584417e-04 0.0 
6.520874121388e-04 9.219603167373e-04 0.0 
1.155292482442e-04 7.672376737714e-03 0.0 
4.278534783678e-04 1.451064994840e-03 0.0 
7.030406793981e-04 7.789492984331e-04 0.0 
1.309236967279e-03 -1.002806629834e-05 0.0 
1.098715076091e-03 -1.464606698569e-04 0.0 
5.917923780572e-04 1.643891181370e-04 0.0 
-3.194919036497e-04 5.375720228511e-04 0.0 
1.402884354241e-05 -4.834016565185e-04 0.0 
5.860248599930e-05 -2.108757677556e-04 0.0 
6.840571515018e-04 -3.553307339354e-04 0.0 
1.068531861287e-03 -1.317709023812e-04 0.0 
9.854163130366e-04 4.744427493480e-03 0.0 
1.038421034185e-03 5.858018558214e-03 0.0 
1.069729739473e-03 7.847937323446e-03 0.0 
1.356345930035e-03 9.564927441148e-05 0.0 
1.629431392417e-04 -4.546095889513e-04 0.0 
2.055362373776e-03 1.052766814268e-03 0.0 
7.569761469129e-05 9.705095219832e-06 0.0 
9.903288874107e-05 1.344843362595e-05 0.0 
1.101156602465e-03 -1.488726385207e-04 0.0 
1.368987778030e-03 8.427026311408e-03 0.0 
-1.485252966444e-04 2.780650285736e-04 0.0 
2.456114297435e-04 3.212351288214e-03 0.0 
4.406960771672e-04 -1.548109741360e-04 0.0 
5.834157048931e-04 3.904920889195e-03 0.0 
2.416756919405e-03 1.161287646660e-03 0.0 
8.946626906131e-04 -2.549556831394e-04 0.0 
1.152128008095e-03 -9.218491198878e-05 0.0 
1.227997763468e-04 5.565992955130e-06 0.0 
6.790542532922e-05 2.635166639405e-03 0.0 
9.658496510879e-04 -2.208213036798e-04 0.0 
2.155887044054e-04 2.098434740375e-03 0.0 
1.799202501558e-04 3.499342480054e-03 0.0 
2.600825461431e-05 5.739085546757e-04 0.0 
1.693917559634e-05 2.325897047994e-06 0.0 
6.104588951428e-05 7.781226896515e-03 0.0 
9.127741903091e-04 -2.491177476352e-04 0.0 
8.270844613154e-04 8.301221658085e-03 0.0 
9.117512729087e-04 -2.422272008891e-04 0.0 
2.872188942317e-05 3.394780929124e-06 0.0 
-1.444457693051e-04 2.211546021773e-03 0.0 
1.508267990441e-05 2.660858972585e-03 0.0 
1.172230827680e-03 3.202780964460e-04 0.0 
1.024221325863e-03 8.735549200846e-03 0.0 
1.289916415061e-04 2.009113717371e-03 0.0 
2.361237741936e-03 2.376075030861e-03 0.0 
1.441301250844e-03 6.259697954237e-04 0.0 
1.989167973635e-03 2.519659144010e-03 0.0 
3.914653566255e-04 7.451498912703e-03 0.0 
6.134192736719e-04 -3.893519303741e-04 0.0 
6.581835838207e-04 -3.690375261395e-04 0.0 
1.104479020131e-04 5.299995553018e-03 0.0 
1.660954630512e-03 7.607680163231e-04 0.0 
1.739072626729e-03 9.046288432543e-03 0.0 
2.121768018614e-04 8.754253008663e-03 0.0 
2.522443126998e-04 7.897800618665e-03 0.0 
4.495024899560e-04 7.569395334881e-03 0.0 
3.522189868784e-04 5.371095377893e-05 0.0 
5.540643113722e-04 -4.132731633484e-04 0.0 
1.920206167887e-04 1.281807815201e-03 0.0 
4.319132581074e-04 6.533965597253e-03 0.0 
5.089789138841e-04 1.796932458157e-04 0.0 
1.276655357161e-03 1.513865842659e-03 0.0 
2.541865313985e-03 3.410000800295e-03 0.0 
6.330323736324e-04 2.003411307705e-03 0.0 
2.558951636600e-04 -3.513369473456e-04 0.0 
2.444027287904e-04 -3.928455516066e-04 0.0 
3.831543917348e-04 4.359045674855e-05 0.0 
9.775422312860e-06 8.956239438875e-06 0.0 
7.398891827717e-05 -4.783479108296e-04 0.0 
1.755317807719e-04 8.535245310771e-05 0.0 
1.898815152703e-05 -5.429180364803e-04 0.0 
2.611198247220e-04 8.462483299616e-03 0.0 
7.626291547248e-04 1.743310972631e-04 0.0 
1.887013496288e-04 -5.206928391351e-04 0.0 
1.297938097727e-04 -5.574696888733e-04 0.0 
1.188100645409e-04 4.938324730455e-04 0.0 
8.967172354624e-04 9.381988352938e-03 0.0 
2.864416121426e-04 1.385180061840e-03 0.0 
7.725724450957e-04 2.093211490692e-04 0.0 
7.803886117339e-04 9.385180744556e-03 0.0 
-2.046871069000e-04 5.382524980713e-04 0.0 
4.525430458530e-05 1.075684586708e-03 0.0 
1.790248581414e-04 -5.368969252640e-04 0.0 
3.177090128119e-04 1.809379021475e-03 0.0 
2.252585123105e-05 2.560091849671e-06 0.0 
1.078966853908e-03 1.563159667416e-03 0.0 
5.547413075095e-04 3.898815499524e-05 0.0 
1.536395780732e-03 7.741454425289e-03 0.0 
1.549306469700e-04 -3.539351904880e-04 0.0 
1.999723907481e-03 9.570004099077e-04 0.0 
2.700479977371e-04 9.747295332289e-05 0.0 
1.051441091052e-04 4.325745956189e-03 0.0 
2.560581501095e-04 8.387235548115e-05 0.0 
1.374331340343e-04 9.002583598365e-05 0.0 
1.362044764759e-04 1.111365413061e-05 0.0 
6.220785884485e-04 -9.497360871217e-05 0.0 
8.683349374614e-05 -5.424718699578e-04 0.0 
4.225995292669e-04 8.790959981811e-05 0.0 
5.215446043944e-04 1.179756990667e-03 0.0 
2.600791842459e-04 9.705424425964e-04 0.0 
5.851802202209e-04 8.649725695613e-03 0.0 
1.959208121082e-03 7.137532215424e-03 0.0 
6.688060119490e-04 2.215547597224e-03 0.0 
8.289661257408e-04 8.823764868722e-04 0.0 
1.236685688284e-04 -4.109880242126e-04 0.0 
1.171052860694e-04 1.194829340200e-03 0.0 
1.812273822456e-03 8.203909975338e-04 0.0 
4.881583691071e-04 9.655184749920e-03 0.0 
7.015795572236e-04 1.620920554675e-03 0.0 
3.651766662379e-06 5.453009725519e-04 0.0 
3.651766662379e-06 2.301241165548e-04 0.0 
1.414989971340e-05 -5.800423183725e-04 0.0 
6.124161780714e-06 -5.764774456972e-04 0.0 
2.627839412026e-05 9.292098891515e-03 0.0 
6.288285866800e-05 9.629968367804e-03 0.0 
2.924930202945e-06 8.549090226921e-07 0.0 
2.924930202945e-06 1.309705782261e-06 0.0 
2.764158496505e-05 -5.709553353583e-04 0.0 
-1.791400534263e-04 1.076604244267e-04 0.0 
1.359279390965e-04 8.084115815114e-07 0.0 
1.368214035156e-03 7.618344616524e-04 0.0 
1.636026847465e-04 -5.311325559540e-04 0.0 
2.276602371125e-04 1.603665184287e-05 0.0 
3.465497413354e-05 -1.725091096557e-04 0.0 
3.618957867685e-05 -2.615236997419e-04 0.0 
2.928763464461e-04 6.149983861800e-03 0.0 
3.991805638894e-04 -2.752214893868e-04 0.0 
2.267972336486e-03 1.138328130553e-03 0.0 
1.569245538045e-04 -5.439069788348e-04 0.0 
2.154680950018e-04 -3.041935424276e-04 0.0 
1.105100106865e-03 1.212193870619e-03 0.0 
1.274082699556e-05 2.411666147116e-03 0.0 
6.980870168214e-05 -2.558150297449e-04 0.0 
1.902779210427e-04 7.133487866673e-03 0.0 
1.372962812991e-03 9.373751933236e-04 0.0 
1.878641174886e-03 2.084630866851e-03 0.0 
2.249326227187e-03 2.737356233907e-03 0.0 
6.686433723367e-04 9.342189308309e-03 0.0 
2.269220302225e-03 1.037731904391e-03 0.0 
8.756579445337e-04 1.627379268171e-03 0.0 
1.064034122386e-04 -4.744571649322e-04 0.0 
1.382431853894e-04 -4.743226179978e-04 0.0 
1.619722939721e-03 1.161623615237e-03 0.0 
1.279860487024e-03 3.318723299446e-04 0.0 
3.296558072119e-04 -2.633482110075e-04 0.0 
1.529970287841e-04 5.405184329778e-03 0.0 
7.479824275583e-05 5.003844258635e-06 0.0 
1.609746699730e-03 1.006867355168e-03 0.0 
1.363818381370e-03 8.411174063499e-04 0.0 
4.160341798194e-05 -1.299423989122e-04 0.0 
-2.292220171257e-04 9.075390113179e-04 0.0 
9.659261168733e-04 5.489407075861e-03 0.0 
1.254465495714e-03 3.305458524742e-03 0.0 
1.622332616215e-03 7.400584252050e-03 0.0 
2.340720881574e-03 1.159993511373e-03 0.0 
2.467972057430e-04 1.752725234095e-03 0.0 
5.186370648837e-04 1.531575587580e-04 0.0 
1.850519613801e-04 -3.417418524732e-04 0.0 
1.939485689223e-04 -4.546383646344e-04 0.0 
2.726712974352e-04 3.611484356533e-03 0.0 
2.511854648298e-04 4.960679131710e-03 0.0 
1.868749494602e-04 -4.349424701842e-04 0.0 
5.919730132955e-04 1.609939095483e-03 0.0 
9.816535049556e-05 -5.335652087226e-04 0.0 
8.909185477896e-04 2.635803873368e-04 0.0 
9.897496308463e-04 7.771648744439e-03 0.0 
6.573363347250e-04 2.843768815191e-04 0.0 
1.910420436077e-03 9.843334907212e-04 0.0 
1.787709929563e-03 7.309442109048e-03 0.0 
3.450537521894e-04 5.850940738692e-05 0.0 
4.572385697146e-04 1.172314813983e-03 0.0 
3.718634385625e-05 1.259404121480e-03 0.0 
-1.723433320983e-04 2.494282405334e-03 0.0 
5.768989015298e-04 1.967914880413e-03 0.0 
7.666959145668e-04 5.444061537959e-04 0.0 
9.017773681475e-04 2.514636638224e-04 0.0 
1.703462777839e-03 8.289441051506e-04 0.0 
4.035742675895e-05 5.237620173601e-06 0.0 
2.194925123807e-03 2.839329222874e-03 0.0 
-4.360982636956e-04 1.033885934621e-03 0.0 
2.464984408353e-04 1.481384571993e-03 0.0 
1.597925570117e-03 1.835986356818e-03 0.0 
1.485993515865e-03 6.819303720536e-03 0.0 
7.087735706254e-05 -6.178735861844e-06 0.0 
1.512004804509e-03 7.391069913606e-04 0.0 
1.424272544315e-04 1.583201308124e-05 0.0 
2.192530634211e-04 3.972520922210e-03 0.0 
6.052952057659e-04 2.391498082791e-04 0.0 
4.263976420850e-04 5.981384265355e-05 0.0 
4.518186636607e-04 6.900070700823e-05 0.0 
1.368224259660e-04 -4.258446834566e-04 0.0 
6.406207735551e-05 7.862255975355e-06 0.0 
1.296106726525e-03 8.779162368404e-03 0.0 
1.563855035145e-04 2.035707457894e-03 0.0 
2.248842070758e-04 -4.327850097305e-04 0.0 
1.016155244743e-04 2.826641081196e-03 0.0 
2.305539376574e-04 5.358257211884e-03 0.0 
1.577479157804e-05 -5.583093324889e-04 0.0 
4.604005055618e-04 9.384836160265e-05 0.0 
2.095297335619e-03 2.362797694637e-03 0.0 
2.084995750133e-04 1.045787864003e-03 0.0 
7.900351837220e-05 1.942536653082e-03 0.0 
7.723080629189e-04 2.960588367918e-04 0.0 
4.720406422048e-04 7.055192911619e-03 0.0 
1.464835001982e-04 -5.304002374267e-04 0.0 
-3.217273270962e-05 6.218334734460e-04 0.0 
1.601595083650e-04 -5.363912568529e-04 0.0 
2.656205211088e-04 -4.615937319285e-04 0.0 
-4.779207854310e-04 1.181505866591e-03 0.0 
1.926617078453e-04 -3.214116815849e-04 0.0 
8.912714642368e-05 -5.116679508030e-06 0.0 
1.056247887949e-03 1.638794074568e-03 0.0 
1.902809773189e-03 6.657629707521e-03 0.0 
2.725700554595e-04 -3.719534977534e-04 0.0 
3.711186889461e-04 3.693839938403e-05 0.0 
7.141713020844e-04 1.443252358781e-04 0.0 
7.971174546310e-04 3.619693616524e-04 0.0 
1.212272265726e-03 8.562541854111e-04 0.0 
1.689531359417e-03 1.745387276149e-03 0.0 
2.188842594302e-04 -4.706148648594e-04 0.0 
3.961588023521e-05 1.675414061412e-04 0.0 
1.247020267868e-04 -1.956065054869e-06 0.0 
3.206229361072e-05 -5.555598739639e-04 0.0 
7.187340666765e-06 -5.511615760778e-04 0.0 
-2.175676647809e-04 1.399165785273e-03 0.0 
1.849722200437e-04 -5.306162448839e-04 0.0 
2.595285766780e-04 4.381410625069e-05 0.0 
7.157658135441e-04 6.300477586051e-04 0.0 
2.207103217670e-04 1.749345191325e-03 0.0 
6.412917720854e-04 3.017782297011e-04 0.0 
8.565069144825e-04 1.708276363991e-04 0.0 
3.808870046114e-04 6.502035094960e-03 0.0 
5.430909569847e-05 2.060442817063e-04 0.0 
5.970311125155e-04 -1.628158992458e-04 0.0 
8.404813732719e-04 9.703196075343e-03 0.0 
2.797259534145e-04 -3.046794791345e-04 0.0 
1.300462869355e-04 -5.587589096939e-04 0.0 
4.350809658373e-05 4.712740494901e-06 0.0 
1.768288353216e-03 8.449274448181e-03 0.0 
9.737529307684e-05 -5.472043547402e-04 0.0 
1.353324015843e-04 -3.338006911273e-04 0.0 
8.270029223022e-04 7.831003686229e-04 0.0 
3.564933245017e-04 1.857249606128e-03 0.0 
4.435196865965e-04 9.124008223540e-04 0.0 
8.117136887770e-05 -4.475999148124e-04 0.0 
7.686046730271e-06 4.854960784857e-04 0.0 
1.899137580487e-04 1.937601079297e-05 0.0 
1.231894482329e-05 4.899328287829e-04 0.0 
1.046866432678e-05 2.125939863859e-06 0.0 
5.958435869785e-05 8.753468488118e-03 0.0 
6.460288069174e-04 1.421979904450e-04 0.0 
1.174333629324e-04 -5.420245959775e-04 0.0 
5.503816808780e-04 1.619773475240e-03 0.0 
1.412766044032e-04 -5.526821007659e-04 0.0 
3.164495361846e-04 6.515250833142e-05 0.0 
5.902934513030e-04 1.179076150568e-03 0.0 
-1.657712948589e-04 6.600219820983e-04 0.0 
1.611567917749e-03 9.487726750785e-04 0.0 
2.166571925551e-04 4.443008708837e-03 0.0 
1.367279717978e-04 9.922893451019e-04 0.0 
1.082516387669e-04 3.707329967422e-05 0.0 
9.076665285072e-05 5.803177831948e-03 0.0 
6.707908614681e-04 6.590106542469e-04 0.0 
7.531723291888e-04 1.615302111203e-03 0.0 
1.803341972447e-04 5.102037308221e-03 0.0 
1.083721667921e-03 1.064218788141e-03 0.0 
1.487643742505e-04 -3.924897982050e-04 0.0 
4.271527733760e-04 9.358676849403e-03 0.0 
1.099072931795e-03 5.483282940615e-04 0.0 
1.292488238673e-05 1.043120349771e-03 0.0 
2.707987198645e-05 -5.770095879439e-04 0.0 
1.166983165522e-04 9.344654394060e-03 0.0 
9.437956389616e-06 1.254705883202e-06 0.0 
1.850869953984e-04 -5.287424474057e-04 0.0 
8.297249103647e-04 2.099718318557e-04 0.0 
9.510105149432e-04 1.669792448456e-03 0.0 
1.600805756784e-04 1.288271424447e-03 0.0 
1.190082024664e-04 -5.331813433402e-04 0.0 
3.127666007075e-05 1.100117097000e-03 0.0 
1.479664256076e-05 -2.384113611944e-04 0.0 
8.609497866003e-05 3.449345570606e-03 0.0 
-2.686819183477e-04 2.072424535607e-04 0.0 
3.393724704005e-04 9.139399074596e-04 0.0 
1.636558193991e-04 5.992691172053e-03 0.0 
3.866166605297e-04 -3.210634679876e-04 0.0 
3.089915334936e-04 6.708910236895e-03 0.0 
8.385893734552e-04 4.203640503373e-04 0.0 
2.768353141144e-05 -2.150098178535e-04 0.0 
-4.034419622955e-04 1.262139260470e-03 0.0 
1.729403387770e-04 -4.202535816804e-04 0.0 
1.939753238371e-04 -2.816338269153e-04 0.0 
1.288688885068e-05 -1.924286970884e-04 0.0 
1.018331636722e-03 4.040147728657e-04 0.0 
1.005957852061e-04 -2.921060272797e-04 0.0 
1.288203342061e-04 -2.623728588460e-04 0.0 
1.684639186927e-04 -5.439602531419e-04 0.0 
2.454866281406e-04 1.944672814510e-05 0.0 
1.623797427222e-03 1.238671191757e-03 0.0 
2.728136688445e-04 1.097768331178e-03 0.0 
2.159206054764e-05 9.877522060024e-04 0.0 
1.698169051345e-05 2.070939964800e-06 0.0 
1.133998165821e-04 8.805513041315e-03 0.0 
1.236126195123e-04 6.207710243238e-03 0.0 
1.386836105093e-04 -2.968209794367e-04 0.0 
1.546819726201e-04 -2.802954597940e-04 0.0 
9.446011326358e-05 -2.693820174655e-04 0.0 
1.034670918986e-03 2.769346382994e-04 0.0 
3.173362601083e-04 -3.366472937864e-04 0.0 
1.376653258647e-03 1.040630226210e-03 0.0 
2.039691906850e-04 7.691885932025e-03 0.0 
4.088062817207e-04 1.197627173105e-03 0.0 
9.875522334269e-04 2.482088796962e-04 0.0 
3.629772553783e-04 6.905365987148e-03 0.0 
1.442178098440e-03 1.551440220145e-03 0.0 
1.023361240214e-03 4.277807912971e-04 0.0 
7.748563101133e-04 3.242937396894e-04 0.0 
-3.180358597346e-04 1.157077602048e-03 0.0 
1.482055629136e-03 1.515729599881e-03 0.0 
1.265785654618e-03 1.222841312710e-03 0.0 
1.577545829542e-04 -5.492855551463e-04 0.0 
1.551705745698e-04 -3.153774857153e-04 0.0 
-3.236638911153e-04 1.022590841302e-03 0.0 
1.203643588211e-03 1.269946457511e-03 0.0 
1.928937665156e-04 1.462830026292e-02 0.0 
2.249355939345e-04 1.428778633446e-02 0.0 
3.139940866674e-04 1.463214974765e-02 0.0 
3.467337661602e-04 1.429457651911e-02 0.0 
4.340378093308e-04 1.463854935100e-02 0.0 
4.681195242124e-04 1.429970750513e-02 0.0 
5.546161432866e-04 1.464258598313e-02 0.0 
5.871742960636e-04 1.430425150863e-02 0.0 
6.725419766004e-04 1.464621232448e-02 0.0 
7.021209294784e-04 1.430859143128e-02 0.0 
7.852734596470e-04 1.464888484468e-02 0.0 
8.109624020680e-04 1.431175651477e-02 0.0 
8.902925051671e-04 1.464923782257e-02 0.0 
9.114324791061e-04 1.431235242325e-02 0.0 
9.848101624153e-04 1.464559895307e-02 0.0 
1.000929392567e-03 1.430839924482e-02 0.0 
1.065735489842e-03 1.463545057883e-02 0.0 
3.670386428191e-04 1.074107827968e-02 0.0 
1.076644245579e-03 1.429700282403e-02 0.0 
1.129773911844e-03 1.461557357672e-02 0.0 
5.813934428139e-04 1.100384891900e-02 0.0 
1.135585941523e-03 1.427479153088e-02 0.0 
1.173235324927e-03 1.458240375470e-02 0.0 
1.174466881713e-03 1.423778286382e-02 0.0 
1.191926641132e-03 1.453153318726e-02 0.0 
1.189951514515e-03 1.418067121583e-02 0.0 
-1.737359801957e-04 1.088632862785e-02 0.0 
1.181650398089e-03 1.445691641995e-02 0.0 
1.179289106659e-03 1.409567482521e-02 0.0 
1.140021668166e-03 1.434829807986e-02 0.0 
1.141208112255e-03 1.397177130756e-02 0.0 
1.059198695547e-03 1.419591063013e-02 0.0 
1.069256900763e-03 1.379661631046e-02 0.0 
9.326732067752e-04 1.397925602293e-02 0.0 
9.656036303567e-04 1.354222972883e-02 0.0 
7.636004714088e-04 1.367251326022e-02 0.0 
8.394175780310e-04 1.318297480639e-02 0.0 
7.156554906376e-04 9.932009309007e-03 0.0 
7.097060859073e-04 1.268133369019e-02 0.0 
5.644421465178e-04 1.324654232382e-02 0.0 
6.015486272938e-04 1.198601318948e-02 0.0 
3.574679884546e-04 1.266201509951e-02 0.0 
1.869814807641e-04 1.185450699382e-02 0.0 
1.748808676229e-04 1.007725965718e-02 0.0 
2.484957650795e-05 1.445708048354e-02 0.0 
1.232130904164e-04 1.445658084008e-02 0.0 
6.899497532145e-05 1.411275593357e-02 0.0 
7.906769160289e-05 1.480090539006e-02 0.0 
2.085441605591e-04 9.273149524919e-03 0.0 
1.625572890895e-04 1.326606094081e-02 0.0 
2.093678234904e-04 1.360791032619e-02 0.0 
2.830068540874e-04 1.327171699207e-02 0.0 
3.313143040243e-04 1.361401977180e-02 0.0 
4.009146524433e-04 1.327851067971e-02 0.0 
4.504158294607e-04 1.362022558115e-02 0.0 
5.160213832255e-04 1.328504994675e-02 0.0 
5.662832307541e-04 1.362619739625e-02 0.0 
6.276081276171e-04 1.329183018842e-02 0.0 
6.780781458046e-04 1.363226340761e-02 0.0 
7.347467245450e-04 1.329846622837e-02 0.0 
7.844784506398e-04 1.363766592213e-02 0.0 
8.362011598739e-04 1.330383090994e-02 0.0 
8.838250852410e-04 1.364103610326e-02 0.0 
9.305634472477e-04 1.330629730169e-02 0.0 
9.742900712645e-04 1.364041391343e-02 0.0 
1.305182003433e-03 1.127523152148e-02 0.0 
1.016324453391e-03 1.330349746734e-02 0.0 
1.053872530430e-03 1.363303504393e-02 0.0 
1.058957402297e-03 1.147835390593e-02 0.0 
1.091912720679e-03 1.329229474909e-02 0.0 
1.120496465508e-03 1.361548048334e-02 0.0 
1.392393984705e-03 1.136612597006e-02 0.0 
1.155901983988e-03 1.326885525529e-02 0.0 
1.172223016790e-03 1.358354541195e-02 0.0 
1.207256201131e-03 1.322815810882e-02 0.0 
1.207524939437e-03 1.353153358926e-02 0.0 
1.245645490646e-03 1.316318920896e-02 0.0 
1.225710774294e-03 1.345108524080e-02 0.0 
1.478431401145e-03 1.072932150427e-02 0.0 
1.271686605193e-03 1.306427761236e-02 0.0 
1.226451381647e-03 1.333234042448e-02 0.0 
1.287189879408e-03 1.291939929885e-02 0.0 
1.212004815232e-03 1.315953586227e-02 0.0 
1.187464334012e-03 1.290784438911e-02 0.0 
1.297281824900e-03 1.270779023501e-02 0.0 
1.163421340141e-03 1.254741670431e-02 0.0 
1.309464937175e-03 1.240256981841e-02 0.0 
1.155286732509e-03 1.204118150040e-02 0.0 
1.334026555229e-03 1.197083203194e-02 0.0 
1.232206800009e-03 1.093244388872e-02 0.0 
2.059649946239e-05 1.343021383128e-02 0.0 
1.041913063888e-04 1.343321201861e-02 0.0 
6.474189827589e-05 1.377175042593e-02 0.0 
6.004590757532e-05 1.309167542395e-02 0.0 
1.169209987055e-03 1.058944509744e-02 0.0 
1.572369611055e-04 1.258653297714e-02 0.0 
1.955608635163e-04 1.224920983634e-02 0.0 
2.745202220973e-04 1.259254446588e-02 0.0 
3.120012561216e-04 1.225608412838e-02 0.0 
3.900882365308e-04 1.259974756247e-02 0.0 
4.268793781500e-04 1.226385472426e-02 0.0 
5.033113478272e-04 1.260744220711e-02 0.0 
5.394383562197e-04 1.227233892336e-02 0.0 
6.134732884809e-04 1.261557945519e-02 0.0 
6.491499923956e-04 1.228125115585e-02 0.0 
7.199534102722e-04 1.262370470984e-02 0.0 
7.554572358301e-04 1.228985432374e-02 0.0 
8.219732593371e-04 1.263078083007e-02 0.0 
8.577590906442e-04 1.229682356127e-02 0.0 
9.187253531877e-04 1.263513483957e-02 0.0 
1.709484174400e-03 1.119824983810e-02 0.0 
9.554719300209e-04 1.230017972020e-02 0.0 
1.731055418751e-03 1.117997230274e-02 0.0 
1.009344406208e-03 1.263442573623e-02 0.0 
1.048035144888e-03 1.229712232130e-02 0.0 
1.093055382321e-03 1.262545375758e-02 0.0 
1.135156313962e-03 1.228390869440e-02 0.0 
1.169419170800e-03 1.260412445786e-02 0.0 
1.217038604016e-03 1.225569110376e-02 0.0 
1.581575582770e-03 1.145094557823e-02 0.0 
1.238554601545e-03 1.256503459806e-02 0.0 
1.294594578589e-03 1.220592908189e-02 0.0 
1.301416729384e-03 1.250070821235e-02 0.0 
1.369686775476e-03 1.212577425740e-02 0.0 
1.359891367637e-03 1.240144762558e-02 0.0 
1.445262246554e-03 1.200327381400e-02 0.0 
1.417795981872e-03 1.225316267516e-02 0.0 
1.526613621802e-03 1.182158385646e-02 0.0 
1.618809866275e-03 1.155746377121e-02 0.0 
1.481284529007e-03 1.203607485289e-02 0.0 
1.835160986489e-03 1.080167790064e-02 0.0 
1.556807765331e-03 1.172390458263e-02 0.0 
1.707252394859e-03 1.105437364078e-02 0.0 
1.920932413322e-05 1.241257530752e-02 0.0 
9.748380307565e-05 1.241448313937e-02 0.0 
5.803439496272e-05 1.207458393851e-02 0.0 
5.865873224615e-05 1.275247450838e-02 0.0 
1.696810619515e-03 1.089920456415e-02 0.0 
1.486592996843e-04 1.123136695287e-02 0.0 
1.898241694156e-04 1.157154053718e-02 0.0 
2.608971015099e-04 1.123727194487e-02 0.0 
3.041148296350e-04 1.157848090652e-02 0.0 
3.728148104921e-04 1.124515543341e-02 0.0 
4.174923785979e-04 1.158686581706e-02 0.0 
4.838703001337e-04 1.125429488273e-02 0.0 
5.293843080782e-04 1.159618050620e-02 0.0 
5.937165776833e-04 1.126411512043e-02 0.0 
6.394473297394e-04 1.160594523826e-02 0.0 
7.022222527949e-04 1.127402382206e-02 0.0 
7.474287410090e-04 1.161547935356e-02 0.0 
8.092669280854e-04 1.128284290141e-02 0.0 
1.829709319158e-03 1.076010556789e-02 0.0 
8.530812542135e-04 1.162326060279e-02 0.0 
9.149287468789e-04 1.128884637501e-02 0.0 
1.767021023882e-03 1.105235023884e-02 0.0 
9.563531601427e-04 1.162745421412e-02 0.0 
1.019372995656e-03 1.128972633026e-02 0.0 
1.813605567070e-03 1.066948254869e-02 0.0 
1.057182504215e-03 1.162514842141e-02 0.0 
1.122902336701e-03 1.128190902154e-02 0.0 
1.155855909015e-03 1.161233785825e-02 0.0 
1.226320648016e-03 1.126084825246e-02 0.0 
1.253240486178e-03 1.158398573451e-02 0.0 
1.936009923122e-03 1.044467272748e-02 0.0 
1.331027134269e-03 1.122072055015e-02 0.0 
1.350865229151e-03 1.153332040323e-02 0.0 
1.451072635304e-03 1.145137130275e-02 0.0 
1.439073239775e-03 1.115369657904e-02 0.0 
1.557420091164e-03 1.132602086819e-02 0.0 
1.553435072075e-03 1.104979172511e-02 0.0 
1.673169689731e-03 1.114055332638e-02 0.0 
1.676509894411e-03 1.089487919926e-02 0.0 
1.873321627846e-03 1.073691739843e-02 0.0 
1.860215425019e-05 1.139717993238e-02 0.0 
9.403566587211e-05 1.139846563882e-02 0.0 
5.742722507969e-05 1.173606316307e-02 0.0 
5.521059504261e-05 1.105958240813e-02 0.0 
1.899358123659e-03 1.069809865091e-02 0.0 
1.464386934025e-04 1.055520761800e-02 0.0 
1.833394130245e-04 1.021877538173e-02 0.0 
2.566329514006e-04 1.056066612428e-02 0.0 
2.939611339979e-04 1.022513688665e-02 0.0 
3.669252649644e-04 1.056841723413e-02 0.0 
4.048164433652e-04 1.023359773113e-02 0.0 
4.770839104287e-04 1.057776499609e-02 0.0 
5.158845710066e-04 1.024338058614e-02 0.0 
5.870032303167e-04 1.058784508701e-02 0.0 
6.271630451853e-04 1.025357403553e-02 0.0 
6.966513156074e-04 1.059792265275e-02 0.0 
7.389641032897e-04 1.026342247426e-02 0.0 
1.788918711675e-03 1.008241077555e-02 0.0 
8.063732275535e-04 1.060688719143e-02 0.0 
1.748527720265e-03 9.946352483153e-03 0.0 
8.515726783695e-04 1.027109202636e-02 0.0 
9.163138715667e-04 1.061263350856e-02 0.0 
9.656417065004e-04 1.027463478835e-02 0.0 
1.027276417326e-03 1.061311977095e-02 0.0 
1.082095160077e-03 1.027120189116e-02 0.0 
1.139911570894e-03 1.060456905061e-02 0.0 
1.201743893258e-03 1.025624760311e-02 0.0 
1.768103300625e-03 1.039298606714e-02 0.0 
1.255199398067e-03 1.058209796826e-02 0.0 
1.326049295728e-03 1.022429826422e-02 0.0 
1.374957193768e-03 1.053978336406e-02 0.0 
1.456993902505e-03 1.016851771553e-02 0.0 
1.596785154486e-03 1.007965826282e-02 0.0 
1.501271853629e-03 1.046983107742e-02 0.0 
1.636948977403e-03 1.036194418680e-02 0.0 
1.877984974717e-03 9.827198549283e-03 0.0 
1.857169563667e-03 1.013777384087e-02 0.0 
1.799830852600e-05 1.038300034910e-02 0.0 
9.121121386615e-05 1.038423817179e-02 0.0 
5.460277307373e-05 1.004572424492e-02 0.0 
5.460674931841e-05 1.072151427597e-02 0.0 
1.906012034792e-03 1.016859619530e-02 0.0 

VECTORS element_materi_displacement float
0.0 0.0 0.0 
0.0 0.0 0.0 
0.0 0.0 0.0 
0.0 0.0 0.0 
0.0 0.0 0.0 
0.0 0.0 0.0 
0.0 0.0 0.0 
0.0 0.0 0.0 
0.0 0.0 0.0 
0.0 0.0 0.0 
0.0 0.0 0.0 
0.0 0.0 0.0 
0.0 0.0 0.0 
0.0 0.0 0.0 
0.0 0.0 0.0 
0.0 0.0 0.0 
0.0 0.0 0.0 
0.0 0.0 0.0 
0.0 0.0 0.0 
0.0 0.0 0.0 
0.0 0.0 0.0 
0.0 0.0 0.0 
0.0 0.0 0.0 
0.0 0.0 0.0 
0.0 0.0 0.0 
0.0 0.0 0.0 
0.0 0.0 0.0 
0.0 0.0 0.0 
0.0 0.0 0.0 
0.0 0.0 0.0 
0.0 0.0 0.0 
0.0 0.0 0.0 
0.0 0.0 0.0 
0.0 0.0 0.0 
0.0 0.0 0.0 
0.0 0.0 0.0 
0.0 0.0 0.0 
0.0 0.0 0.0 
0.0 0.0 0.0 
0.0 0.0 0.0 
0.0 0.0 0.0 
0.0 0.0 0.0 
0.0 0.0 0.0 
0.0 0.0 0.0 
0.0 0.0 0.0 
0.0 0.0 0.0 
0.0 0.0 0.0 
0.0 0.0 0.0 
0.0 0.0 0.0 
0.0 0.0 0.0 
0.0 0.0 0.0 
0.0 0.0 0.0 
0.0 0.0 0.0 
0.0 0.0 0.0 
0.0 0.0 0.0 
0.0 0.0 0.0 
0.0 0.0 0.0 
0.0 0.0 0.0 
0.0 0.0 0.0 
0.0 0.0 0.0 
0.0 0.0 0.0 
0.0 0.0 0.0 
0.0 0.0 0.0 
0.0 0.0 0.0 
0.0 0.0 0.0 
0.0 0.0 0.0 
0.0 0.0 0.0 
0.0 0.0 0.0 
0.0 0.0 0.0 
0.0 0.0 0.0 
0.0 0.0 0.0 
0.0 0.0 0.0 
0.0 0.0 0.0 
0.0 0.0 0.0 
0.0 0.0 0.0 
0.0 0.0 0.0 
0.0 0.0 0.0 
0.0 0.0 0.0 
0.0 0.0 0.0 
0.0 0.0 0.0 
0.0 0.0 0.0 
0.0 0.0 0.0 
0.0 0.0 0.0 
0.0 0.0 0.0 
0.0 0.0 0.0 
0.0 0.0 0.0 
0.0 0.0 0.0 
0.0 0.0 0.0 
0.0 0.0 0.0 
0.0 0.0 0.0 
0.0 0.0 0.0 
0.0 0.0 0.0 
0.0 0.0 0.0 
0.0 0.0 0.0 
0.0 0.0 0.0 
0.0 0.0 0.0 
0.0 0.0 0.0 
0.0 0.0 0.0 
0.0 0.0 0.0 
0.0 0.0 0.0 
0.0 0.0 0.0 
0.0 0.0 0.0 
0.0 0.0 0.0 
0.0 0.0 0.0 
0.0 0.0 0.0 
0.0 0.0 0.0 
0.0 0.0 0.0 
0.0 0.0 0.0 
0.0 0.0 0.0 
0.0 0.0 0.0 
0.0 0.0 0.0 
0.0 0.0 0.0 
0.0 0.0 0.0 
0.0 0.0 0.0 
0.0 0.0 0.0 
0.0 0.0 0.0 
0.0 0.0 0.0 
0.0 0.0 0.0 
0.0 0.0 0.0 
0.0 0.0 0.0 
0.0 0.0 0.0 
0.0 0.0 0.0 
0.0 0.0 0.0 
0.0 0.0 0.0 
0.0 0.0 0.0 
0.0 0.0 0.0 
0.0 0.0 0.0 
0.0 0.0 0.0 
0.0 0.0 0.0 
0.0 0.0 0.0 
0.0 0.0 0.0 
0.0 0.0 0.0 
0.0 0.0 0.0 
0.0 0.0 0.0 
0.0 0.0 0.0 
0.0 0.0 0.0 
0.0 0.0 0.0 
0.0 0.0 0.0 
0.0 0.0 0.0 
0.0 0.0 0.0 
0.0 0.0 0.0 
0.0 0.0 0.0 
0.0 0.0 0.0 
0.0 0.0 0.0 
0.0 0.0 0.0 
0.0 0.0 0.0 
0.0 0.0 0.0 
0.0 0.0 0.0 
0.0 0.0 0.0 
0.0 0.0 0.0 
0.0 0.0 0.0 
0.0 0.0 0.0 
0.0 0.0 0.0 
0.0 0.0 0.0 
0.0 0.0 0.0 
0.0 0.0 0.0 
0.0 0.0 0.0 
0.0 0.0 0.0 
0.0 0.0 0.0 
0.0 0.0 0.0 
0.0 0.0 0.0 
0.0 0.0 0.0 
0.0 0.0 0.0 
0.0 0.0 0.0 
0.0 0.0 0.0 
0.0 0.0 0.0 
0.0 0.0 0.0 
0.0 0.0 0.0 
0.0 0.0 0.0 
0.0 0.0 0.0 
0.0 0.0 0.0 
0.0 0.0 0.0 
0.0 0.0 0.0 
0.0 0.0 0.0 
0.0 0.0 0.0 
0.0 0.0 0.0 
0.0 0.0 0.0 
0.0 0.0 0.0 
0.0 0.0 0.0 
0.0 0.0 0.0 
0.0 0.0 0.0 
0.0 0.0 0.0 
0.0 0.0 0.0 
0.0 0.0 0.0 
0.0 0.0 0.0 
0.0 0.0 0.0 
0.0 0.0 0.0 
0.0 0.0 0.0 
0.0 0.0 0.0 
0.0 0.0 0.0 
0.0 0.0 0.0 
0.0 0.0 0.0 
0.0 0.0 0.0 
0.0 0.0 0.0 
0.0 0.0 0.0 
0.0 0.0 0.0 
0.0 0.0 0.0 
0.0 0.0 0.0 
0.0 0.0 0.0 
0.0 0.0 0.0 
0.0 0.0 0.0 
0.0 0.0 0.0 
0.0 0.0 0.0 
0.0 0.0 0.0 
0.0 0.0 0.0 
0.0 0.0 0.0 
0.0 0.0 0.0 
0.0 0.0 0.0 
0.0 0.0 0.0 
0.0 0.0 0.0 
0.0 0.0 0.0 
0.0 0.0 0.0 
0.0 0.0 0.0 
0.0 0.0 0.0 
0.0 0.0 0.0 
0.0 0.0 0.0 
0.0 0.0 0.0 
0.0 0.0 0.0 
0.0 0.0 0.0 
0.0 0.0 0.0 
0.0 0.0 0.0 
0.0 0.0 0.0 
0.0 0.0 0.0 
0.0 0.0 0.0 
0.0 0.0 0.0 
0.0 0.0 0.0 
0.0 0.0 0.0 
0.0 0.0 0.0 
0.0 0.0 0.0 
0.0 0.0 0.0 
0.0 0.0 0.0 
0.0 0.0 0.0 
0.0 0.0 0.0 
0.0 0.0 0.0 
0.0 0.0 0.0 
0.0 0.0 0.0 
0.0 0.0 0.0 
0.0 0.0 0.0 
0.0 0.0 0.0 
0.0 0.0 0.0 
0.0 0.0 0.0 
0.0 0.0 0.0 
0.0 0.0 0.0 
0.0 0.0 0.0 
0.0 0.0 0.0 
0.0 0.0 0.0 
0.0 0.0 0.0 
0.0 0.0 0.0 
0.0 0.0 0.0 
0.0 0.0 0.0 
0.0 0.0 0.0 
0.0 0.0 0.0 
0.0 0.0 0.0 
0.0 0.0 0.0 
0.0 0.0 0.0 
0.0 0.0 0.0 
0.0 0.0 0.0 
0.0 0.0 0.0 
0.0 0.0 0.0 
0.0 0.0 0.0 
0.0 0.0 0.0 
0.0 0.0 0.0 
0.0 0.0 0.0 
0.0 0.0 0.0 
0.0 0.0 0.0 
0.0 0.0 0.0 
0.0 0.0 0.0 
0.0 0.0 0.0 
0.0 0.0 0.0 
0.0 0.0 0.0 
0.0 0.0 0.0 
0.0 0.0 0.0 
0.0 0.0 0.0 
0.0 0.0 0.0 
0.0 0.0 0.0 
0.0 0.0 0.0 
0.0 0.0 0.0 
0.0 0.0 0.0 
0.0 0.0 0.0 
0.0 0.0 0.0 
0.0 0.0 0.0 
0.0 0.0 0.0 
0.0 0.0 0.0 
0.0 0.0 0.0 
0.0 0.0 0.0 
0.0 0.0 0.0 
0.0 0.0 0.0 
0.0 0.0 0.0 
0.0 0.0 0.0 
0.0 0.0 0.0 
0.0 0.0 0.0 
0.0 0.0 0.0 
0.0 0.0 0.0 
0.0 0.0 0.0 
0.0 0.0 0.0 
0.0 0.0 0.0 
0.0 0.0 0.0 
0.0 0.0 0.0 
0.0 0.0 0.0 
0.0 0.0 0.0 
0.0 0.0 0.0 
0.0 0.0 0.0 
0.0 0.0 0.0 
0.0 0.0 0.0 
0.0 0.0 0.0 
0.0 0.0 0.0 
0.0 0.0 0.0 
0.0 0.0 0.0 
0.0 0.0 0.0 
0.0 0.0 0.0 
0.0 0.0 0.0 
0.0 0.0 0.0 
0.0 0.0 0.0 
0.0 0.0 0.0 
0.0 0.0 0.0 
0.0 0.0 0.0 
0.0 0.0 0.0 
0.0 0.0 0.0 
0.0 0.0 0.0 
0.0 0.0 0.0 
0.0 0.0 0.0 
0.0 0.0 0.0 
0.0 0.0 0.0 
0.0 0.0 0.0 
0.0 0.0 0.0 
0.0 0.0 0.0 
0.0 0.0 0.0 
0.0 0.0 0.0 
0.0 0.0 0.0 
0.0 0.0 0.0 
0.0 0.0 0.0 
0.0 0.0 0.0 
0.0 0.0 0.0 
0.0 0.0 0.0 
0.0 0.0 0.0 
0.0 0.0 0.0 
0.0 0.0 0.0 
0.0 0.0 0.0 
0.0 0.0 0.0 
0.0 0.0 0.0 
0.0 0.0 0.0 
0.0 0.0 0.0 
0.0 0.0 0.0 
0.0 0.0 0.0 
0.0 0.0 0.0 
0.0 0.0 0.0 
0.0 0.0 0.0 
0.0 0.0 0.0 
0.0 0.0 0.0 
0.0 0.0 0.0 
0.0 0.0 0.0 
0.0 0.0 0.0 
0.0 0.0 0.0 
0.0 0.0 0.0 
0.0 0.0 0.0 
0.0 0.0 0.0 
0.0 0.0 0.0 
0.0 0.0 0.0 
0.0 0.0 0.0 
0.0 0.0 0.0 
0.0 0.0 0.0 
0.0 0.0 0.0 
0.0 0.0 0.0 
0.0 0.0 0.0 
0.0 0.0 0.0 
0.0 0.0 0.0 
0.0 0.0 0.0 
0.0 0.0 0.0 
0.0 0.0 0.0 
0.0 0.0 0.0 
0.0 0.0 0.0 
0.0 0.0 0.0 
0.0 0.0 0.0 
0.0 0.0 0.0 
0.0 0.0 0.0 
0.0 0.0 0.0 
0.0 0.0 0.0 
0.0 0.0 0.0 
0.0 0.0 0.0 
0.0 0.0 0.0 
0.0 0.0 0.0 
0.0 0.0 0.0 
0.0 0.0 0.0 
0.0 0.0 0.0 
0.0 0.0 0.0 
0.0 0.0 0.0 
0.0 0.0 0.0 
0.0 0.0 0.0 
0.0 0.0 0.0 
0.0 0.0 0.0 
0.0 0.0 0.0 
0.0 0.0 0.0 
0.0 0.0 0.0 
0.0 0.0 0.0 
0.0 0.0 0.0 
0.0 0.0 0.0 
0.0 0.0 0.0 
0.0 0.0 0.0 
0.0 0.0 0.0 
0.0 0.0 0.0 
0.0 0.0 0.0 
0.0 0.0 0.0 
0.0 0.0 0.0 
0.0 0.0 0.0 
0.0 0.0 0.0 
0.0 0.0 0.0 
0.0 0.0 0.0 
0.0 0.0 0.0 
0.0 0.0 0.0 
0.0 0.0 0.0 
0.0 0.0 0.0 
0.0 0.0 0.0 
0.0 0.0 0.0 
0.0 0.0 0.0 
0.0 0.0 0.0 
0.0 0.0 0.0 
0.0 0.0 0.0 
0.0 0.0 0.0 
0.0 0.0 0.0 
0.0 0.0 0.0 
0.0 0.0 0.0 
0.0 0.0 0.0 
0.0 0.0 0.0 
0.0 0.0 0.0 
0.0 0.0 0.0 
0.0 0.0 0.0 
0.0 0.0 0.0 
0.0 0.0 0.0 
0.0 0.0 0.0 
0.0 0.0 0.0 
0.0 0.0 0.0 
0.0 0.0 0.0 
0.0 0.0 0.0 
0.0 0.0 0.0 
0.0 0.0 0.0 
0.0 0.0 0.0 
0.0 0.0 0.0 
0.0 0.0 0.0 
0.0 0.0 0.0 
0.0 0.0 0.0 
0.0 0.0 0.0 
0.0 0.0 0.0 
0.0 0.0 0.0 
0.0 0.0 0.0 
0.0 0.0 0.0 
0.0 0.0 0.0 
0.0 0.0 0.0 
0.0 0.0 0.0 
0.0 0.0 0.0 
0.0 0.0 0.0 
0.0 0.0 0.0 
0.0 0.0 0.0 
0.0 0.0 0.0 
0.0 0.0 0.0 
0.0 0.0 0.0 
0.0 0.0 0.0 
0.0 0.0 0.0 
0.0 0.0 0.0 
0.0 0.0 0.0 
0.0 0.0 0.0 
0.0 0.0 0.0 
0.0 0.0 0.0 
0.0 0.0 0.0 
0.0 0.0 0.0 
0.0 0.0 0.0 
0.0 0.0 0.0 
0.0 0.0 0.0 
0.0 0.0 0.0 
0.0 0.0 0.0 
0.0 0.0 0.0 
0.0 0.0 0.0 
0.0 0.0 0.0 
0.0 0.0 0.0 
0.0 0.0 0.0 
0.0 0.0 0.0 
0.0 0.0 0.0 
0.0 0.0 0.0 
0.0 0.0 0.0 
0.0 0.0 0.0 
0.0 0.0 0.0 
0.0 0.0 0.0 
0.0 0.0 0.0 
0.0 0.0 0.0 
0.0 0.0 0.0 
0.0 0.0 0.0 
0.0 0.0 0.0 
0.0 0.0 0.0 
0.0 0.0 0.0 
0.0 0.0 0.0 
0.0 0.0 0.0 
0.0 0.0 0.0 
0.0 0.0 0.0 
0.0 0.0 0.0 
0.0 0.0 0.0 
0.0 0.0 0.0 
0.0 0.0 0.0 
0.0 0.0 0.0 
0.0 0.0 0.0 
0.0 0.0 0.0 
0.0 0.0 0.0 
0.0 0.0 0.0 
0.0 0.0 0.0 
0.0 0.0 0.0 
0.0 0.0 0.0 
0.0 0.0 0.0 
0.0 0.0 0.0 
0.0 0.0 0.0 
0.0 0.0 0.0 
0.0 0.0 0.0 
0.0 0.0 0.0 
0.0 0.0 0.0 
0.0 0.0 0.0 
0.0 0.0 0.0 
0.0 0.0 0.0 
0.0 0.0 0.0 
0.0 0.0 0.0 
0.0 0.0 0.0 
0.0 0.0 0.0 
0.0 0.0 0.0 
0.0 0.0 0.0 
0.0 0.0 0.0 
0.0 0.0 0.0 
0.0 0.0 0.0 
0.0 0.0 0.0 
0.0 0.0 0.0 
0.0 0.0 0.0 
0.0 0.0 0.0 
0.0 0.0 0.0 
0.0 0.0 0.0 
0.0 0.0 0.0 
0.0 0.0 0.0 
0.0 0.0 0.0 
0.0 0.0 0.0 
0.0 0.0 0.0 
0.0 0.0 0.0 
0.0 0.0 0.0 
0.0 0.0 0.0 
0.0 0.0 0.0 
0.0 0.0 0.0 
0.0 0.0 0.0 
0.0 0.0 0.0 
0.0 0.0 0.0 
0.0 0.0 0.0 
0.0 0.0 0.0 
0.0 0.0 0.0 
0.0 0.0 0.0 
0.0 0.0 0.0 
0.0 0.0 0.0 
0.0 0.0 0.0 
0.0 0.0 0.0 
0.0 0.0 0.0 
0.0 0.0 0.0 
0.0 0.0 0.0 
0.0 0.0 0.0 
0.0 0.0 0.0 
0.0 0.0 0.0 
0.0 0.0 0.0 
0.0 0.0 0.0 
0.0 0.0 0.0 
0.0 0.0 0.0 
0.0 0.0 0.0 
0.0 0.0 0.0 
0.0 0.0 0.0 
0.0 0.0 0.0 
0.0 0.0 0.0 
0.0 0.0 0.0 
0.0 0.0 0.0 
0.0 0.0 0.0 
0.0 0.0 0.0 
0.0 0.0 0.0 
0.0 0.0 0.0 
0.0 0.0 0.0 
0.0 0.0 0.0 
0.0 0.0 0.0 
0.0 0.0 0.0 
0.0 0.0 0.0 
0.0 0.0 0.0 
0.0 0.0 0.0 
0.0 0.0 0.0 
0.0 0.0 0.0 
0.0 0.0 0.0 
0.0 0.0 0.0 
0.0 0.0 0.0 
0.0 0.0 0.0 
0.0 0.0 0.0 
0.0 0.0 0.0 
0.0 0.0 0.0 
0.0 0.0 0.0 
0.0 0.0 0.0 
0.0 0.0 0.0 
0.0 0.0 0.0 
0.0 0.0 0.0 
0.0 0.0 0.0 
0.0 0.0 0.0 
0.0 0.0 0.0 
0.0 0.0 0.0 
0.0 0.0 0.0 
0.0 0.0 0.0 
0.0 0.0 0.0 
0.0 0.0 0.0 
0.0 0.0 0.0 
0.0 0.0 0.0 
0.0 0.0 0.0 
0.0 0.0 0.0 
0.0 0.0 0.0 
0.0 0.0 0.0 
0.0 0.0 0.0 
0.0 0.0 0.0 
0.0 0.0 0.0 
0.0 0.0 0.0 
0.0 0.0 0.0 
0.0 0.0 0.0 
0.0 0.0 0.0 
0.0 0.0 0.0 
0.0 0.0 0.0 
0.0 0.0 0.0 
0.0 0.0 0.0 
0.0 0.0 0.0 
0.0 0.0 0.0 
0.0 0.0 0.0 
0.0 0.0 0.0 
0.0 0.0 0.0 
0.0 0.0 0.0 
0.0 0.0 0.0 
0.0 0.0 0.0 
0.0 0.0 0.0 
0.0 0.0 0.0 
0.0 0.0 0.0 
0.0 0.0 0.0 
0.0 0.0 0.0 
0.0 0.0 0.0 
0.0 0.0 0.0 
0.0 0.0 0.0 
0.0 0.0 0.0 
0.0 0.0 0.0 
0.0 0.0 0.0 
0.0 0.0 0.0 
0.0 0.0 0.0 
0.0 0.0 0.0 
0.0 0.0 0.0 
0.0 0.0 0.0 
0.0 0.0 0.0 
0.0 0.0 0.0 
0.0 0.0 0.0 
0.0 0.0 0.0 
0.0 0.0 0.0 
0.0 0.0 0.0 
0.0 0.0 0.0 
0.0 0.0 0.0 
0.0 0.0 0.0 
0.0 0.0 0.0 
0.0 0.0 0.0 
0.0 0.0 0.0 
0.0 0.0 0.0 
0.0 0.0 0.0 
0.0 0.0 0.0 
0.0 0.0 0.0 
0.0 0.0 0.0 
0.0 0.0 0.0 
0.0 0.0 0.0 
0.0 0.0 0.0 
0.0 0.0 0.0 
0.0 0.0 0.0 
0.0 0.0 0.0 
0.0 0.0 0.0 
0.0 0.0 0.0 
0.0 0.0 0.0 
0.0 0.0 0.0 
0.0 0.0 0.0 
0.0 0.0 0.0 
0.0 0.0 0.0 
0.0 0.0 0.0 
0.0 0.0 0.0 
0.0 0.0 0.0 
0.0 0.0 0.0 
0.0 0.0 0.0 
0.0 0.0 0.0 
0.0 0.0 0.0 
0.0 0.0 0.0 
0.0 0.0 0.0 
0.0 0.0 0.0 
0.0 0.0 0.0 
0.0 0.0 0.0 
0.0 0.0 0.0 
0.0 0.0 0.0 
0.0 0.0 0.0 
0.0 0.0 0.0 
0.0 0.0 0.0 
0.0 0.0 0.0 
0.0 0.0 0.0 
0.0 0.0 0.0 
0.0 0.0 0.0 
0.0 0.0 0.0 
0.0 0.0 0.0 
0.0 0.0 0.0 
0.0 0.0 0.0 
0.0 0.0 0.0 
0.0 0.0 0.0 
0.0 0.0 0.0 
0.0 0.0 0.0 
0.0 0.0 0.0 
0.0 0.0 0.0 
0.0 0.0 0.0 
0.0 0.0 0.0 
0.0 0.0 0.0 
0.0 0.0 0.0 
0.0 0.0 0.0 
0.0 0.0 0.0 
0.0 0.0 0.0 
0.0 0.0 0.0 
0.0 0.0 0.0 
0.0 0.0 0.0 
0.0 0.0 0.0 
0.0 0.0 0.0 
0.0 0.0 0.0 
0.0 0.0 0.0 
0.0 0.0 0.0 
0.0 0.0 0.0 
0.0 0.0 0.0 
0.0 0.0 0.0 
0.0 0.0 0.0 
0.0 0.0 0.0 
0.0 0.0 0.0 
0.0 0.0 0.0 
0.0 0.0 0.0 
0.0 0.0 0.0 
0.0 0.0 0.0 
0.0 0.0 0.0 
0.0 0.0 0.0 
0.0 0.0 0.0 
0.0 0.0 0.0 
0.0 0.0 0.0 
0.0 0.0 0.0 
0.0 0.0 0.0 
0.0 0.0 0.0 
0.0 0.0 0.0 
0.0 0.0 0.0 
0.0 0.0 0.0 
0.0 0.0 0.0 
0.0 0.0 0.0 
0.0 0.0 0.0 
0.0 0.0 0.0 
0.0 0.0 0.0 
0.0 0.0 0.0 
0.0 0.0 0.0 
0.0 0.0 0.0 
0.0 0.0 0.0 
0.0 0.0 0.0 
0.0 0.0 0.0 
0.0 0.0 0.0 
0.0 0.0 0.0 
0.0 0.0 0.0 
0.0 0.0 0.0 
0.0 0.0 0.0 
0.0 0.0 0.0 
0.0 0.0 0.0 
0.0 0.0 0.0 
0.0 0.0 0.0 
0.0 0.0 0.0 
0.0 0.0 0.0 
0.0 0.0 0.0 
0.0 0.0 0.0 
0.0 0.0 0.0 
0.0 0.0 0.0 
0.0 0.0 0.0 
0.0 0.0 0.0 
0.0 0.0 0.0 
0.0 0.0 0.0 
0.0 0.0 0.0 
0.0 0.0 0.0 
0.0 0.0 0.0 
0.0 0.0 0.0 
0.0 0.0 0.0 
0.0 0.0 0.0 
0.0 0.0 0.0 
0.0 0.0 0.0 
0.0 0.0 0.0 
0.0 0.0 0.0 
0.0 0.0 0.0 
0.0 0.0 0.0 
0.0 0.0 0.0 
0.0 0.0 0.0 
0.0 0.0 0.0 
0.0 0.0 0.0 
0.0 0.0 0.0 
0.0 0.0 0.0 
0.0 0.0 0.0 
0.0 0.0 0.0 
0.0 0.0 0.0 
0.0 0.0 0.0 
0.0 0.0 0.0 
0.0 0.0 0.0 
0.0 0.0 0.0 
0.0 0.0 0.0 
0.0 0.0 0.0 
0.0 0.0 0.0 
0.0 0.0 0.0 
0.0 0.0 0.0 
0.0 0.0 0.0 
0.0 0.0 0.0 
0.0 0.0 0.0 
0.0 0.0 0.0 
0.0 0.0 0.0 
0.0 0.0 0.0 
0.0 0.0 0.0 
0.0 0.0 0.0 
0.0 0.0 0.0 
0.0 0.0 0.0 
0.0 0.0 0.0 
0.0 0.0 0.0 
0.0 0.0 0.0 
0.0 0.0 0.0 
0.0 0.0 0.0 
0.0 0.0 0.0 
0.0 0.0 0.0 
0.0 0.0 0.0 
0.0 0.0 0.0 
0.0 0.0 0.0 
0.0 0.0 0.0 
0.0 0.0 0.0 
0.0 0.0 0.0 
0.0 0.0 0.0 
0.0 0.0 0.0 
0.0 0.0 0.0 
0.0 0.0 0.0 
0.0 0.0 0.0 
0.0 0.0 0.0 
0.0 0.0 0.0 
0.0 0.0 0.0 
0.0 0.0 0.0 
0.0 0.0 0.0 
0.0 0.0 0.0 
0.0 0.0 0.0 
0.0 0.0 0.0 
0.0 0.0 0.0 
0.0 0.0 0.0 
0.0 0.0 0.0 
0.0 0.0 0.0 
0.0 0.0 0.0 
0.0 0.0 0.0 
0.0 0.0 0.0 
0.0 0.0 0.0 
0.0 0.0 0.0 
0.0 0.0 0.0 
0.0 0.0 0.0 
0.0 0.0 0.0 
0.0 0.0 0.0 
0.0 0.0 0.0 
0.0 0.0 0.0 
0.0 0.0 0.0 
0.0 0.0 0.0 
0.0 0.0 0.0 
0.0 0.0 0.0 
0.0 0.0 0.0 
0.0 0.0 0.0 
0.0 0.0 0.0 
0.0 0.0 0.0 
0.0 0.0 0.0 
0.0 0.0 0.0 
0.0 0.0 0.0 
0.0 0.0 0.0 
0.0 0.0 0.0 
0.0 0.0 0.0 
0.0 0.0 0.0 
0.0 0.0 0.0 
0.0 0.0 0.0 
0.0 0.0 0.0 
0.0 0.0 0.0 
0.0 0.0 0.0 
0.0 0.0 0.0 
0.0 0.0 0.0 
0.0 0.0 0.0 
0.0 0.0 0.0 
0.0 0.0 0.0 
0.0 0.0 0.0 
0.0 0.0 0.0 
0.0 0.0 0.0 
0.0 0.0 0.0 
0.0 0.0 0.0 
0.0 0.0 0.0 
0.0 0.0 0.0 
0.0 0.0 0.0 
0.0 0.0 0.0 
0.0 0.0 0.0 
0.0 0.0 0.0 
0.0 0.0 0.0 
0.0 0.0 0.0 
0.0 0.0 0.0 
0.0 0.0 0.0 
0.0 0.0 0.0 
0.0 0.0 0.0 
0.0 0.0 0.0 
0.0 0.0 0.0 
0.0 0.0 0.0 
0.0 0.0 0.0 
0.0 0.0 0.0 
0.0 0.0 0.0 
0.0 0.0 0.0 
0.0 0.0 0.0 
0.0 0.0 0.0 
0.0 0.0 0.0 
0.0 0.0 0.0 
0.0 0.0 0.0 
0.0 0.0 0.0 
0.0 0.0 0.0 
0.0 0.0 0.0 
0.0 0.0 0.0 
0.0 0.0 0.0 
0.0 0.0 0.0 
0.0 0.0 0.0 
0.0 0.0 0.0 
0.0 0.0 0.0 
0.0 0.0 0.0 
0.0 0.0 0.0 
0.0 0.0 0.0 
0.0 0.0 0.0 
0.0 0.0 0.0 
0.0 0.0 0.0 
0.0 0.0 0.0 
0.0 0.0 0.0 
0.0 0.0 0.0 
0.0 0.0 0.0 
0.0 0.0 0.0 
0.0 0.0 0.0 
0.0 0.0 0.0 
0.0 0.0 0.0 
0.0 0.0 0.0 
0.0 0.0 0.0 
0.0 0.0 0.0 
0.0 0.0 0.0 
0.0 0.0 0.0 
0.0 0.0 0.0 
0.0 0.0 0.0 
0.0 0.0 0.0 
0.0 0.0 0.0 
0.0 0.0 0.0 
0.0 0.0 0.0 
0.0 0.0 0.0 
0.0 0.0 0.0 
0.0 0.0 0.0 
0.0 0.0 0.0 
0.0 0.0 0.0 
0.0 0.0 0.0 
0.0 0.0 0.0 
0.0 0.0 0.0 
0.0 0.0 0.0 
0.0 0.0 0.0 
0.0 0.0 0.0 
0.0 0.0 0.0 
0.0 0.0 0.0 
0.0 0.0 0.0 
0.0 0.0 0.0 
0.0 0.0 0.0 
0.0 0.0 0.0 
0.0 0.0 0.0 
0.0 0.0 0.0 
0.0 0.0 0.0 
0.0 0.0 0.0 
0.0 0.0 0.0 
0.0 0.0 0.0 
0.0 0.0 0.0 
0.0 0.0 0.0 
0.0 0.0 0.0 
0.0 0.0 0.0 
0.0 0.0 0.0 
0.0 0.0 0.0 
0.0 0.0 0.0 
0.0 0.0 0.0 
0.0 0.0 0.0 
0.0 0.0 0.0 
0.0 0.0 0.0 
0.0 0.0 0.0 
0.0 0.0 0.0 
0.0 0.0 0.0 
0.0 0.0 0.0 
0.0 0.0 0.0 
0.0 0.0 0.0 
0.0 0.0 0.0 
0.0 0.0 0.0 
0.0 0.0 0.0 
0.0 0.0 0.0 
0.0 0.0 0.0 
0.0 0.0 0.0 
0.0 0.0 0.0 
0.0 0.0 0.0 
0.0 0.0 0.0 
0.0 0.0 0.0 
0.0 0.0 0.0 
0.0 0.0 0.0 
0.0 0.0 0.0 
0.0 0.0 0.0 
0.0 0.0 0.0 
0.0 0.0 0.0 
0.0 0.0 0.0 
0.0 0.0 0.0 
0.0 0.0 0.0 
0.0 0.0 0.0 
0.0 0.0 0.0 
0.0 0.0 0.0 
0.0 0.0 0.0 
0.0 0.0 0.0 
0.0 0.0 0.0 
0.0 0.0 0.0 
0.0 0.0 0.0 
0.0 0.0 0.0 
0.0 0.0 0.0 
0.0 0.0 0.0 
0.0 0.0 0.0 
0.0 0.0 0.0 
0.0 0.0 0.0 
0.0 0.0 0.0 
0.0 0.0 0.0 
0.0 0.0 0.0 
0.0 0.0 0.0 
0.0 0.0 0.0 
0.0 0.0 0.0 
0.0 0.0 0.0 
0.0 0.0 0.0 
0.0 0.0 0.0 
0.0 0.0 0.0 
0.0 0.0 0.0 
0.0 0.0 0.0 
0.0 0.0 0.0 
0.0 0.0 0.0 
0.0 0.0 0.0 
0.0 0.0 0.0 
0.0 0.0 0.0 
0.0 0.0 0.0 
0.0 0.0 0.0 
0.0 0.0 0.0 
0.0 0.0 0.0 
0.0 0.0 0.0 
0.0 0.0 0.0 
0.0 0.0 0.0 
0.0 0.0 0.0 
0.0 0.0 0.0 
0.0 0.0 0.0 
0.0 0.0 0.0 
0.0 0.0 0.0 
0.0 0.0 0.0 
0.0 0.0 0.0 
0.0 0.0 0.0 
0.0 0.0 0.0 
0.0 0.0 0.0 
0.0 0.0 0.0 
0.0 0.0 0.0 
0.0 0.0 0.0 
0.0 0.0 0.0 
0.0 0.0 0.0 
0.0 0.0 0.0 
0.0 0.0 0.0 
0.0 0.0 0.0 
0.0 0.0 0.0 
0.0 0.0 0.0 
0.0 0.0 0.0 
0.0 0.0 0.0 
0.0 0.0 0.0 
0.0 0.0 0.0 
0.0 0.0 0.0 
0.0 0.0 0.0 
0.0 0.0 0.0 
0.0 0.0 0.0 
0.0 0.0 0.0 
0.0 0.0 0.0 
0.0 0.0 0.0 
0.0 0.0 0.0 
0.0 0.0 0.0 
0.0 0.0 0.0 
0.0 0.0 0.0 
0.0 0.0 0.0 
0.0 0.0 0.0 
0.0 0.0 0.0 
0.0 0.0 0.0 
0.0 0.0 0.0 
0.0 0.0 0.0 
0.0 0.0 0.0 
0.0 0.0 0.0 
0.0 0.0 0.0 
0.0 0.0 0.0 
0.0 0.0 0.0 
0.0 0.0 0.0 
0.0 0.0 0.0 
0.0 0.0 0.0 
0.0 0.0 0.0 
0.0 0.0 0.0 
0.0 0.0 0.0 
0.0 0.0 0.0 
0.0 0.0 0.0 
0.0 0.0 0.0 
0.0 0.0 0.0 
0.0 0.0 0.0 
0.0 0.0 0.0 
0.0 0.0 0.0 
0.0 0.0 0.0 
0.0 0.0 0.0 
0.0 0.0 0.0 
0.0 0.0 0.0 
0.0 0.0 0.0 
0.0 0.0 0.0 
0.0 0.0 0.0 
0.0 0.0 0.0 
0.0 0.0 0.0 
0.0 0.0 0.0 
0.0 0.0 0.0 
0.0 0.0 0.0 
0.0 0.0 0.0 
0.0 0.0 0.0 
0.0 0.0 0.0 
0.0 0.0 0.0 
0.0 0.0 0.0 
0.0 0.0 0.0 
0.0 0.0 0.0 
0.0 0.0 0.0 
0.0 0.0 0.0 
0.0 0.0 0.0 
0.0 0.0 0.0 
0.0 0.0 0.0 
0.0 0.0 0.0 
0.0 0.0 0.0 
0.0 0.0 0.0 
0.0 0.0 0.0 
0.0 0.0 0.0 
0.0 0.0 0.0 
0.0 0.0 0.0 
0.0 0.0 0.0 
0.0 0.0 0.0 
0.0 0.0 0.0 
0.0 0.0 0.0 
0.0 0.0 0.0 
0.0 0.0 0.0 
0.0 0.0 0.0 
0.0 0.0 0.0 
0.0 0.0 0.0 
0.0 0.0 0.0 
0.0 0.0 0.0 
0.0 0.0 0.0 
0.0 0.0 0.0 
0.0 0.0 0.0 
0.0 0.0 0.0 
0.0 0.0 0.0 
0.0 0.0 0.0 
0.0 0.0 0.0 
0.0 0.0 0.0 
0.0 0.0 0.0 
0.0 0.0 0.0 
0.0 0.0 0.0 
0.0 0.0 0.0 
0.0 0.0 0.0 
0.0 0.0 0.0 
0.0 0.0 0.0 
0.0 0.0 0.0 
0.0 0.0 0.0 
0.0 0.0 0.0 
0.0 0.0 0.0 
0.0 0.0 0.0 
0.0 0.0 0.0 
0.0 0.0 0.0 
0.0 0.0 0.0 
0.0 0.0 0.0 
0.0 0.0 0.0 
0.0 0.0 0.0 
0.0 0.0 0.0 
0.0 0.0 0.0 
0.0 0.0 0.0 
0.0 0.0 0.0 
0.0 0.0 0.0 
0.0 0.0 0.0 
0.0 0.0 0.0 
0.0 0.0 0.0 
0.0 0.0 0.0 
0.0 0.0 0.0 
0.0 0.0 0.0 
0.0 0.0 0.0 
0.0 0.0 0.0 
0.0 0.0 0.0 
0.0 0.0 0.0 
0.0 0.0 0.0 
0.0 0.0 0.0 
0.0 0.0 0.0 
0.0 0.0 0.0 
0.0 0.0 0.0 
0.0 0.0 0.0 
0.0 0.0 0.0 
0.0 0.0 0.0 
0.0 0.0 0.0 
0.0 0.0 0.0 
0.0 0.0 0.0 
0.0 0.0 0.0 
0.0 0.0 0.0 
0.0 0.0 0.0 
0.0 0.0 0.0 
0.0 0.0 0.0 
0.0 0.0 0.0 
0.0 0.0 0.0 
0.0 0.0 0.0 
0.0 0.0 0.0 
0.0 0.0 0.0 
0.0 0.0 0.0 
0.0 0.0 0.0 
0.0 0.0 0.0 
0.0 0.0 0.0 
0.0 0.0 0.0 
0.0 0.0 0.0 
0.0 0.0 0.0 
0.0 0.0 0.0 
0.0 0.0 0.0 
0.0 0.0 0.0 
0.0 0.0 0.0 
0.0 0.0 0.0 
0.0 0.0 0.0 
0.0 0.0 0.0 
0.0 0.0 0.0 
0.0 0.0 0.0 
0.0 0.0 0.0 
0.0 0.0 0.0 
0.0 0.0 0.0 
0.0 0.0 0.0 
0.0 0.0 0.0 
0.0 0.0 0.0 
0.0 0.0 0.0 
0.0 0.0 0.0 
0.0 0.0 0.0 
0.0 0.0 0.0 
0.0 0.0 0.0 
0.0 0.0 0.0 
0.0 0.0 0.0 
0.0 0.0 0.0 
0.0 0.0 0.0 
0.0 0.0 0.0 
0.0 0.0 0.0 
0.0 0.0 0.0 
0.0 0.0 0.0 
0.0 0.0 0.0 
0.0 0.0 0.0 
0.0 0.0 0.0 
0.0 0.0 0.0 
0.0 0.0 0.0 
0.0 0.0 0.0 
0.0 0.0 0.0 
0.0 0.0 0.0 
0.0 0.0 0.0 
0.0 0.0 0.0 
0.0 0.0 0.0 
0.0 0.0 0.0 
0.0 0.0 0.0 
0.0 0.0 0.0 
0.0 0.0 0.0 
0.0 0.0 0.0 
0.0 0.0 0.0 
0.0 0.0 0.0 
0.0 0.0 0.0 
0.0 0.0 0.0 
0.0 0.0 0.0 
0.0 0.0 0.0 
0.0 0.0 0.0 
0.0 0.0 0.0 
0.0 0.0 0.0 
0.0 0.0 0.0 
0.0 0.0 0.0 
0.0 0.0 0.0 
0.0 0.0 0.0 
0.0 0.0 0.0 
0.0 0.0 0.0 
0.0 0.0 0.0 
0.0 0.0 0.0 
0.0 0.0 0.0 
0.0 0.0 0.0 
0.0 0.0 0.0 
0.0 0.0 0.0 
0.0 0.0 0.0 
0.0 0.0 0.0 
0.0 0.0 0.0 
0.0 0.0 0.0 
0.0 0.0 0.0 
0.0 0.0 0.0 
0.0 0.0 0.0 
0.0 0.0 0.0 
0.0 0.0 0.0 
0.0 0.0 0.0 
0.0 0.0 0.0 
0.0 0.0 0.0 
0.0 0.0 0.0 
0.0 0.0 0.0 
0.0 0.0 0.0 
0.0 0.0 0.0 
0.0 0.0 0.0 
0.0 0.0 0.0 
0.0 0.0 0.0 
0.0 0.0 0.0 
0.0 0.0 0.0 
0.0 0.0 0.0 
0.0 0.0 0.0 
0.0 0.0 0.0 
0.0 0.0 0.0 
0.0 0.0 0.0 
0.0 0.0 0.0 
0.0 0.0 0.0 
0.0 0.0 0.0 
0.0 0.0 0.0 
0.0 0.0 0.0 
0.0 0.0 0.0 
0.0 0.0 0.0 
0.0 0.0 0.0 
0.0 0.0 0.0 
0.0 0.0 0.0 
0.0 0.0 0.0 
0.0 0.0 0.0 
0.0 0.0 0.0 
0.0 0.0 0.0 
0.0 0.0 0.0 
0.0 0.0 0.0 
0.0 0.0 0.0 
0.0 0.0 0.0 
0.0 0.0 0.0 
0.0 0.0 0.0 
0.0 0.0 0.0 
0.0 0.0 0.0 
0.0 0.0 0.0 
0.0 0.0 0.0 
0.0 0.0 0.0 
0.0 0.0 0.0 
0.0 0.0 0.0 
0.0 0.0 0.0 
0.0 0.0 0.0 
0.0 0.0 0.0 
0.0 0.0 0.0 
0.0 0.0 0.0 
0.0 0.0 0.0 
0.0 0.0 0.0 
0.0 0.0 0.0 
0.0 0.0 0.0 
0.0 0.0 0.0 
0.0 0.0 0.0 
0.0 0.0 0.0 
0.0 0.0 0.0 
0.0 0.0 0.0 
0.0 0.0 0.0 
0.0 0.0 0.0 
0.0 0.0 0.0 
0.0 0.0 0.0 
0.0 0.0 0.0 
0.0 0.0 0.0 
0.0 0.0 0.0 
0.0 0.0 0.0 
0.0 0.0 0.0 
0.0 0.0 0.0 
0.0 0.0 0.0 
0.0 0.0 0.0 
0.0 0.0 0.0 
0.0 0.0 0.0 
0.0 0.0 0.0 
0.0 0.0 0.0 
0.0 0.0 0.0 
0.0 0.0 0.0 
0.0 0.0 0.0 
0.0 0.0 0.0 
0.0 0.0 0.0 
0.0 0.0 0.0 
0.0 0.0 0.0 
0.0 0.0 0.0 
0.0 0.0 0.0 
0.0 0.0 0.0 
0.0 0.0 0.0 
0.0 0.0 0.0 
0.0 0.0 0.0 
0.0 0.0 0.0 
0.0 0.0 0.0 
0.0 0.0 0.0 
0.0 0.0 0.0 
0.0 0.0 0.0 
0.0 0.0 0.0 
0.0 0.0 0.0 
0.0 0.0 0.0 
0.0 0.0 0.0 
0.0 0.0 0.0 
0.0 0.0 0.0 
0.0 0.0 0.0 
0.0 0.0 0.0 
0.0 0.0 0.0 
0.0 0.0 0.0 
0.0 0.0 0.0 
0.0 0.0 0.0 
0.0 0.0 0.0 
0.0 0.0 0.0 
0.0 0.0 0.0 
0.0 0.0 0.0 
0.0 0.0 0.0 
0.0 0.0 0.0 
0.0 0.0 0.0 
0.0 0.0 0.0 
0.0 0.0 0.0 
0.0 0.0 0.0 
0.0 0.0 0.0 
0.0 0.0 0.0 
0.0 0.0 0.0 
0.0 0.0 0.0 
0.0 0.0 0.0 
0.0 0.0 0.0 
0.0 0.0 0.0 
0.0 0.0 0.0 
0.0 0.0 0.0 
0.0 0.0 0.0 
0.0 0.0 0.0 
0.0 0.0 0.0 
0.0 0.0 0.0 
0.0 0.0 0.0 
0.0 0.0 0.0 
0.0 0.0 0.0 
0.0 0.0 0.0 
0.0 0.0 0.0 
0.0 0.0 0.0 
0.0 0.0 0.0 
0.0 0.0 0.0 
0.0 0.0 0.0 
0.0 0.0 0.0 
0.0 0.0 0.0 
0.0 0.0 0.0 
0.0 0.0 0.0 
0.0 0.0 0.0 
0.0 0.0 0.0 
0.0 0.0 0.0 
0.0 0.0 0.0 
0.0 0.0 0.0 
0.0 0.0 0.0 
0.0 0.0 0.0 
0.0 0.0 0.0 
0.0 0.0 0.0 
0.0 0.0 0.0 
0.0 0.0 0.0 
0.0 0.0 0.0 
0.0 0.0 0.0 
0.0 0.0 0.0 
0.0 0.0 0.0 
0.0 0.0 0.0 
0.0 0.0 0.0 
0.0 0.0 0.0 
0.0 0.0 0.0 
0.0 0.0 0.0 
0.0 0.0 0.0 
0.0 0.0 0.0 
0.0 0.0 0.0 
0.0 0.0 0.0 
0.0 0.0 0.0 
0.0 0.0 0.0 
0.0 0.0 0.0 
0.0 0.0 0.0 
0.0 0.0 0.0 
0.0 0.0 0.0 
0.0 0.0 0.0 
0.0 0.0 0.0 
0.0 0.0 0.0 
0.0 0.0 0.0 
0.0 0.0 0.0 
0.0 0.0 0.0 
0.0 0.0 0.0 
0.0 0.0 0.0 
0.0 0.0 0.0 
0.0 0.0 0.0 
0.0 0.0 0.0 
0.0 0.0 0.0 
0.0 0.0 0.0 
0.0 0.0 0.0 
0.0 0.0 0.0 
0.0 0.0 0.0 
0.0 0.0 0.0 
0.0 0.0 0.0 
0.0 0.0 0.0 
0.0 0.0 0.0 
0.0 0.0 0.0 
0.0 0.0 0.0 
0.0 0.0 0.0 
0.0 0.0 0.0 
0.0 0.0 0.0 
0.0 0.0 0.0 
0.0 0.0 0.0 
0.0 0.0 0.0 
0.0 0.0 0.0 
0.0 0.0 0.0 
0.0 0.0 0.0 
0.0 0.0 0.0 
0.0 0.0 0.0 
0.0 0.0 0.0 
0.0 0.0 0.0 
0.0 0.0 0.0 
0.0 0.0 0.0 
0.0 0.0 0.0 
0.0 0.0 0.0 
0.0 0.0 0.0 
0.0 0.0 0.0 
0.0 0.0 0.0 
0.0 0.0 0.0 
0.0 0.0 0.0 
0.0 0.0 0.0 
0.0 0.0 0.0 
0.0 0.0 0.0 
0.0 0.0 0.0 
0.0 0.0 0.0 
0.0 0.0 0.0 
0.0 0.0 0.0 
0.0 0.0 0.0 
0.0 0.0 0.0 
0.0 0.0 0.0 
0.0 0.0 0.0 
0.0 0.0 0.0 
0.0 0.0 0.0 
0.0 0.0 0.0 
0.0 0.0 0.0 
0.0 0.0 0.0 
0.0 0.0 0.0 
0.0 0.0 0.0 
0.0 0.0 0.0 
0.0 0.0 0.0 
0.0 0.0 0.0 
0.0 0.0 0.0 
0.0 0.0 0.0 
0.0 0.0 0.0 
0.0 0.0 0.0 
0.0 0.0 0.0 
0.0 0.0 0.0 
0.0 0.0 0.0 
0.0 0.0 0.0 
0.0 0.0 0.0 
0.0 0.0 0.0 
0.0 0.0 0.0 
0.0 0.0 0.0 
0.0 0.0 0.0 
0.0 0.0 0.0 
0.0 0.0 0.0 
0.0 0.0 0.0 
0.0 0.0 0.0 
0.0 0.0 0.0 
0.0 0.0 0.0 
0.0 0.0 0.0 
0.0 0.0 0.0 
0.0 0.0 0.0 
0.0 0.0 0.0 
0.0 0.0 0.0 
0.0 0.0 0.0 
0.0 0.0 0.0 
0.0 0.0 0.0 
0.0 0.0 0.0 
0.0 0.0 0.0 
0.0 0.0 0.0 
0.0 0.0 0.0 
0.0 0.0 0.0 
0.0 0.0 0.0 
0.0 0.0 0.0 
0.0 0.0 0.0 
0.0 0.0 0.0 
0.0 0.0 0.0 
0.0 0.0 0.0 
0.0 0.0 0.0 
0.0 0.0 0.0 
0.0 0.0 0.0 
0.0 0.0 0.0 
0.0 0.0 0.0 
0.0 0.0 0.0 
0.0 0.0 0.0 
0.0 0.0 0.0 
0.0 0.0 0.0 
0.0 0.0 0.0 
0.0 0.0 0.0 
0.0 0.0 0.0 
0.0 0.0 0.0 
0.0 0.0 0.0 
0.0 0.0 0.0 
0.0 0.0 0.0 
0.0 0.0 0.0 
0.0 0.0 0.0 
0.0 0.0 0.0 
0.0 0.0 0.0 
0.0 0.0 0.0 
0.0 0.0 0.0 
0.0 0.0 0.0 
0.0 0.0 0.0 
0.0 0.0 0.0 
0.0 0.0 0.0 
0.0 0.0 0.0 
0.0 0.0 0.0 
0.0 0.0 0.0 
0.0 0.0 0.0 
0.0 0.0 0.0 
0.0 0.0 0.0 
0.0 0.0 0.0 
0.0 0.0 0.0 
0.0 0.0 0.0 
0.0 0.0 0.0 
0.0 0.0 0.0 
0.0 0.0 0.0 
0.0 0.0 0.0 
0.0 0.0 0.0 
0.0 0.0 0.0 
0.0 0.0 0.0 
0.0 0.0 0.0 
0.0 0.0 0.0 
0.0 0.0 0.0 
0.0 0.0 0.0 
0.0 0.0 0.0 
0.0 0.0 0.0 
0.0 0.0 0.0 
0.0 0.0 0.0 
0.0 0.0 0.0 
0.0 0.0 0.0 
0.0 0.0 0.0 
0.0 0.0 0.0 
0.0 0.0 0.0 
0.0 0.0 0.0 
0.0 0.0 0.0 
0.0 0.0 0.0 
0.0 0.0 0.0 
0.0 0.0 0.0 
0.0 0.0 0.0 
0.0 0.0 0.0 
0.0 0.0 0.0 
0.0 0.0 0.0 
0.0 0.0 0.0 
0.0 0.0 0.0 
0.0 0.0 0.0 
0.0 0.0 0.0 
0.0 0.0 0.0 
0.0 0.0 0.0 
0.0 0.0 0.0 
0.0 0.0 0.0 
0.0 0.0 0.0 
0.0 0.0 0.0 
0.0 0.0 0.0 
0.0 0.0 0.0 
0.0 0.0 0.0 
0.0 0.0 0.0 
0.0 0.0 0.0 
0.0 0.0 0.0 
0.0 0.0 0.0 
0.0 0.0 0.0 
0.0 0.0 0.0 
0.0 0.0 0.0 
0.0 0.0 0.0 
0.0 0.0 0.0 
0.0 0.0 0.0 
0.0 0.0 0.0 
0.0 0.0 0.0 
0.0 0.0 0.0 
0.0 0.0 0.0 
0.0 0.0 0.0 
0.0 0.0 0.0 
0.0 0.0 0.0 
0.0 0.0 0.0 
0.0 0.0 0.0 
0.0 0.0 0.0 
0.0 0.0 0.0 
0.0 0.0 0.0 
0.0 0.0 0.0 
0.0 0.0 0.0 
0.0 0.0 0.0 
0.0 0.0 0.0 
0.0 0.0 0.0 
0.0 0.0 0.0 
0.0 0.0 0.0 
0.0 0.0 0.0 
0.0 0.0 0.0 
0.0 0.0 0.0 
0.0 0.0 0.0 
0.0 0.0 0.0 
0.0 0.0 0.0 
0.0 0.0 0.0 
0.0 0.0 0.0 
0.0 0.0 0.0 
0.0 0.0 0.0 
0.0 0.0 0.0 
0.0 0.0 0.0 
0.0 0.0 0.0 
0.0 0.0 0.0 
0.0 0.0 0.0 
0.0 0.0 0.0 
0.0 0.0 0.0 
0.0 0.0 0.0 
0.0 0.0 0.0 
0.0 0.0 0.0 
0.0 0.0 0.0 
0.0 0.0 0.0 
0.0 0.0 0.0 
0.0 0.0 0.0 
0.0 0.0 0.0 
0.0 0.0 0.0 
0.0 0.0 0.0 
0.0 0.0 0.0 
0.0 0.0 0.0 
0.0 0.0 0.0 
0.0 0.0 0.0 
0.0 0.0 0.0 
0.0 0.0 0.0 
0.0 0.0 0.0 
0.0 0.0 0.0 
0.0 0.0 0.0 
0.0 0.0 0.0 
0.0 0.0 0.0 
0.0 0.0 0.0 
0.0 0.0 0.0 
0.0 0.0 0.0 
0.0 0.0 0.0 
0.0 0.0 0.0 
0.0 0.0 0.0 
0.0 0.0 0.0 
0.0 0.0 0.0 
0.0 0.0 0.0 
0.0 0.0 0.0 
0.0 0.0 0.0 
0.0 0.0 0.0 
0.0 0.0 0.0 
0.0 0.0 0.0 
0.0 0.0 0.0 
0.0 0.0 0.0 
0.0 0.0 0.0 
0.0 0.0 0.0 
0.0 0.0 0.0 
0.0 0.0 0.0 
0.0 0.0 0.0 
0.0 0.0 0.0 
0.0 0.0 0.0 
0.0 0.0 0.0 
0.0 0.0 0.0 
0.0 0.0 0.0 
0.0 0.0 0.0 
0.0 0.0 0.0 
0.0 0.0 0.0 
0.0 0.0 0.0 
0.0 0.0 0.0 
0.0 0.0 0.0 
0.0 0.0 0.0 
0.0 0.0 0.0 
0.0 0.0 0.0 
0.0 0.0 0.0 
0.0 0.0 0.0 
0.0 0.0 0.0 
0.0 0.0 0.0 
0.0 0.0 0.0 
0.0 0.0 0.0 
0.0 0.0 0.0 
0.0 0.0 0.0 
0.0 0.0 0.0 
0.0 0.0 0.0 
0.0 0.0 0.0 
0.0 0.0 0.0 
0.0 0.0 0.0 
0.0 0.0 0.0 
0.0 0.0 0.0 
0.0 0.0 0.0 
0.0 0.0 0.0 
0.0 0.0 0.0 
0.0 0.0 0.0 
0.0 0.0 0.0 
0.0 0.0 0.0 
0.0 0.0 0.0 
0.0 0.0 0.0 
0.0 0.0 0.0 
0.0 0.0 0.0 
0.0 0.0 0.0 
0.0 0.0 0.0 
0.0 0.0 0.0 
0.0 0.0 0.0 
0.0 0.0 0.0 
0.0 0.0 0.0 
0.0 0.0 0.0 
0.0 0.0 0.0 
0.0 0.0 0.0 
0.0 0.0 0.0 
0.0 0.0 0.0 
0.0 0.0 0.0 
0.0 0.0 0.0 
0.0 0.0 0.0 
0.0 0.0 0.0 
0.0 0.0 0.0 
0.0 0.0 0.0 
0.0 0.0 0.0 
0.0 0.0 0.0 
0.0 0.0 0.0 
0.0 0.0 0.0 
0.0 0.0 0.0 
0.0 0.0 0.0 
0.0 0.0 0.0 
0.0 0.0 0.0 
0.0 0.0 0.0 
0.0 0.0 0.0 
0.0 0.0 0.0 
0.0 0.0 0.0 
0.0 0.0 0.0 
0.0 0.0 0.0 
0.0 0.0 0.0 
0.0 0.0 0.0 
0.0 0.0 0.0 
0.0 0.0 0.0 
0.0 0.0 0.0 
0.0 0.0 0.0 
0.0 0.0 0.0 
0.0 0.0 0.0 
0.0 0.0 0.0 
0.0 0.0 0.0 
0.0 0.0 0.0 
0.0 0.0 0.0 
0.0 0.0 0.0 
0.0 0.0 0.0 
0.0 0.0 0.0 
0.0 0.0 0.0 
0.0 0.0 0.0 
0.0 0.0 0.0 
0.0 0.0 0.0 
0.0 0.0 0.0 
0.0 0.0 0.0 
0.0 0.0 0.0 
0.0 0.0 0.0 
0.0 0.0 0.0 
0.0 0.0 0.0 
0.0 0.0 0.0 
0.0 0.0 0.0 
0.0 0.0 0.0 
0.0 0.0 0.0 
0.0 0.0 0.0 
0.0 0.0 0.0 
0.0 0.0 0.0 
0.0 0.0 0.0 
0.0 0.0 0.0 
0.0 0.0 0.0 
0.0 0.0 0.0 
0.0 0.0 0.0 
0.0 0.0 0.0 
0.0 0.0 0.0 
0.0 0.0 0.0 
0.0 0.0 0.0 
0.0 0.0 0.0 
0.0 0.0 0.0 
0.0 0.0 0.0 
0.0 0.0 0.0 
0.0 0.0 0.0 
0.0 0.0 0.0 
0.0 0.0 0.0 
0.0 0.0 0.0 
0.0 0.0 0.0 
0.0 0.0 0.0 
0.0 0.0 0.0 
0.0 0.0 0.0 
0.0 0.0 0.0 
0.0 0.0 0.0 
0.0 0.0 0.0 
0.0 0.0 0.0 
0.0 0.0 0.0 
0.0 0.0 0.0 
0.0 0.0 0.0 
0.0 0.0 0.0 
0.0 0.0 0.0 
0.0 0.0 0.0 
0.0 0.0 0.0 
0.0 0.0 0.0 
0.0 0.0 0.0 
0.0 0.0 0.0 
0.0 0.0 0.0 
0.0 0.0 0.0 
0.0 0.0 0.0 
0.0 0.0 0.0 
0.0 0.0 0.0 
0.0 0.0 0.0 
0.0 0.0 0.0 
0.0 0.0 0.0 
0.0 0.0 0.0 
0.0 0.0 0.0 
0.0 0.0 0.0 
0.0 0.0 0.0 
0.0 0.0 0.0 
0.0 0.0 0.0 
0.0 0.0 0.0 
0.0 0.0 0.0 
0.0 0.0 0.0 
0.0 0.0 0.0 
0.0 0.0 0.0 
0.0 0.0 0.0 
0.0 0.0 0.0 
0.0 0.0 0.0 
0.0 0.0 0.0 
0.0 0.0 0.0 
0.0 0.0 0.0 
0.0 0.0 0.0 
0.0 0.0 0.0 
0.0 0.0 0.0 
0.0 0.0 0.0 
0.0 0.0 0.0 
0.0 0.0 0.0 
0.0 0.0 0.0 
0.0 0.0 0.0 
0.0 0.0 0.0 
0.0 0.0 0.0 
0.0 0.0 0.0 
0.0 0.0 0.0 
0.0 0.0 0.0 
0.0 0.0 0.0 
0.0 0.0 0.0 
0.0 0.0 0.0 
0.0 0.0 0.0 
0.0 0.0 0.0 
0.0 0.0 0.0 
0.0 0.0 0.0 
0.0 0.0 0.0 
0.0 0.0 0.0 
0.0 0.0 0.0 
0.0 0.0 0.0 
0.0 0.0 0.0 
0.0 0.0 0.0 
0.0 0.0 0.0 
0.0 0.0 0.0 
0.0 0.0 0.0 
0.0 0.0 0.0 
0.0 0.0 0.0 
0.0 0.0 0.0 
0.0 0.0 0.0 
0.0 0.0 0.0 
0.0 0.0 0.0 
0.0 0.0 0.0 
0.0 0.0 0.0 
0.0 0.0 0.0 
0.0 0.0 0.0 
0.0 0.0 0.0 
0.0 0.0 0.0 
0.0 0.0 0.0 
0.0 0.0 0.0 
0.0 0.0 0.0 
0.0 0.0 0.0 
0.0 0.0 0.0 
0.0 0.0 0.0 
0.0 0.0 0.0 
0.0 0.0 0.0 
0.0 0.0 0.0 
0.0 0.0 0.0 
0.0 0.0 0.0 
0.0 0.0 0.0 
0.0 0.0 0.0 
0.0 0.0 0.0 
0.0 0.0 0.0 
0.0 0.0 0.0 
0.0 0.0 0.0 
0.0 0.0 0.0 
0.0 0.0 0.0 
0.0 0.0 0.0 
0.0 0.0 0.0 
0.0 0.0 0.0 
0.0 0.0 0.0 
0.0 0.0 0.0 
0.0 0.0 0.0 
0.0 0.0 0.0 
0.0 0.0 0.0 
0.0 0.0 0.0 
0.0 0.0 0.0 
0.0 0.0 0.0 
0.0 0.0 0.0 
0.0 0.0 0.0 
0.0 0.0 0.0 
0.0 0.0 0.0 
0.0 0.0 0.0 
0.0 0.0 0.0 
0.0 0.0 0.0 
0.0 0.0 0.0 
0.0 0.0 0.0 
0.0 0.0 0.0 
0.0 0.0 0.0 
0.0 0.0 0.0 
0.0 0.0 0.0 
0.0 0.0 0.0 
0.0 0.0 0.0 
0.0 0.0 0.0 
0.0 0.0 0.0 
0.0 0.0 0.0 
0.0 0.0 0.0 
0.0 0.0 0.0 
0.0 0.0 0.0 
0.0 0.0 0.0 
0.0 0.0 0.0 
0.0 0.0 0.0 
0.0 0.0 0.0 
0.0 0.0 0.0 
0.0 0.0 0.0 
0.0 0.0 0.0 
0.0 0.0 0.0 
0.0 0.0 0.0 
0.0 0.0 0.0 
0.0 0.0 0.0 
0.0 0.0 0.0 
0.0 0.0 0.0 
0.0 0.0 0.0 
0.0 0.0 0.0 
0.0 0.0 0.0 
0.0 0.0 0.0 
0.0 0.0 0.0 
0.0 0.0 0.0 
0.0 0.0 0.0 
0.0 0.0 0.0 
0.0 0.0 0.0 
0.0 0.0 0.0 
0.0 0.0 0.0 
0.0 0.0 0.0 
0.0 0.0 0.0 
0.0 0.0 0.0 
0.0 0.0 0.0 
0.0 0.0 0.0 
0.0 0.0 0.0 
0.0 0.0 0.0 
0.0 0.0 0.0 
0.0 0.0 0.0 
0.0 0.0 0.0 
0.0 0.0 0.0 
0.0 0.0 0.0 
0.0 0.0 0.0 
0.0 0.0 0.0 
0.0 0.0 0.0 
0.0 0.0 0.0 
0.0 0.0 0.0 
0.0 0.0 0.0 
0.0 0.0 0.0 
0.0 0.0 0.0 
0.0 0.0 0.0 
0.0 0.0 0.0 
0.0 0.0 0.0 
0.0 0.0 0.0 
0.0 0.0 0.0 
0.0 0.0 0.0 
0.0 0.0 0.0 
0.0 0.0 0.0 
0.0 0.0 0.0 
0.0 0.0 0.0 
0.0 0.0 0.0 
0.0 0.0 0.0 
0.0 0.0 0.0 
0.0 0.0 0.0 
0.0 0.0 0.0 
0.0 0.0 0.0 
0.0 0.0 0.0 
0.0 0.0 0.0 
0.0 0.0 0.0 
0.0 0.0 0.0 
0.0 0.0 0.0 
0.0 0.0 0.0 
0.0 0.0 0.0 
0.0 0.0 0.0 
0.0 0.0 0.0 
0.0 0.0 0.0 
0.0 0.0 0.0 
0.0 0.0 0.0 
0.0 0.0 0.0 
0.0 0.0 0.0 
0.0 0.0 0.0 
0.0 0.0 0.0 
0.0 0.0 0.0 
0.0 0.0 0.0 
0.0 0.0 0.0 
0.0 0.0 0.0 
0.0 0.0 0.0 
0.0 0.0 0.0 
0.0 0.0 0.0 
0.0 0.0 0.0 
0.0 0.0 0.0 
0.0 0.0 0.0 
0.0 0.0 0.0 
0.0 0.0 0.0 
0.0 0.0 0.0 
0.0 0.0 0.0 
0.0 0.0 0.0 
0.0 0.0 0.0 
0.0 0.0 0.0 
0.0 0.0 0.0 
0.0 0.0 0.0 
0.0 0.0 0.0 
0.0 0.0 0.0 
0.0 0.0 0.0 
0.0 0.0 0.0 
0.0 0.0 0.0 
0.0 0.0 0.0 
0.0 0.0 0.0 
0.0 0.0 0.0 
0.0 0.0 0.0 
0.0 0.0 0.0 
0.0 0.0 0.0 
0.0 0.0 0.0 
0.0 0.0 0.0 
0.0 0.0 0.0 
0.0 0.0 0.0 
0.0 0.0 0.0 
0.0 0.0 0.0 
0.0 0.0 0.0 
0.0 0.0 0.0 
0.0 0.0 0.0 
0.0 0.0 0.0 
0.0 0.0 0.0 
0.0 0.0 0.0 
0.0 0.0 0.0 
0.0 0.0 0.0 
0.0 0.0 0.0 
0.0 0.0 0.0 
0.0 0.0 0.0 
0.0 0.0 0.0 
0.0 0.0 0.0 
0.0 0.0 0.0 
0.0 0.0 0.0 
0.0 0.0 0.0 
0.0 0.0 0.0 
0.0 0.0 0.0 
0.0 0.0 0.0 
0.0 0.0 0.0 
0.0 0.0 0.0 
0.0 0.0 0.0 
0.0 0.0 0.0 
0.0 0.0 0.0 
0.0 0.0 0.0 
0.0 0.0 0.0 
0.0 0.0 0.0 
0.0 0.0 0.0 
0.0 0.0 0.0 
0.0 0.0 0.0 
0.0 0.0 0.0 
0.0 0.0 0.0 
0.0 0.0 0.0 
0.0 0.0 0.0 
0.0 0.0 0.0 
0.0 0.0 0.0 
0.0 0.0 0.0 
0.0 0.0 0.0 
0.0 0.0 0.0 
0.0 0.0 0.0 
0.0 0.0 0.0 
0.0 0.0 0.0 
0.0 0.0 0.0 
0.0 0.0 0.0 
0.0 0.0 0.0 
0.0 0.0 0.0 
0.0 0.0 0.0 
0.0 0.0 0.0 
0.0 0.0 0.0 
0.0 0.0 0.0 
0.0 0.0 0.0 
0.0 0.0 0.0 

TENSORS element_materi_stress float
-4.568307679875e+01 2.509044227483e+01 0.0 
2.509044227483e+01 -4.984199337272e+01 0.0 
0.0 0.0 -2.431756111630e+01 
-4.715553500156e+01 2.553101443010e+01 0.0 
2.553101443010e+01 -5.054216694584e+01 0.0 
0.0 0.0 -2.636536095964e+01 
-1.284522545531e+02 1.950936017487e+01 0.0 
1.950936017487e+01 -2.924094286960e+02 0.0 
0.0 0.0 -1.258585049747e+02 
-1.180962430974e+02 2.796895130798e+00 0.0 
2.796895130798e+00 -2.678634842527e+02 0.0 
0.0 0.0 -1.153879182050e+02 
-6.969946654509e+01 9.632237850994e-01 0.0 
9.632237850994e-01 -1.288875123974e+02 0.0 
0.0 0.0 -5.917609368274e+01 
-3.791873027941e+01 3.000647921436e+01 0.0 
3.000647921436e+01 -9.388203862694e+01 0.0 
0.0 0.0 -4.032452314596e+01 
-6.882624944760e+01 2.176400823800e-01 0.0 
2.176400823800e-01 -1.289441558963e+02 0.0 
0.0 0.0 -5.893112160318e+01 
-4.876857886119e+01 2.850554541529e+01 0.0 
2.850554541529e+01 -5.490457701359e+01 0.0 
0.0 0.0 -2.727407200017e+01 
-6.994363780713e+01 2.669378561931e+00 0.0 
2.669378561931e+00 -1.297945481378e+02 0.0 
0.0 0.0 -5.952145578347e+01 
-1.174368999616e+02 2.441403818586e+00 0.0 
2.441403818586e+00 -2.662409574993e+02 0.0 
0.0 0.0 -1.147033572383e+02 
-1.137435054660e+02 -1.207156607371e+00 0.0 
-1.207156607371e+00 -2.596578269721e+02 0.0 
0.0 0.0 -1.088404849093e+02 
-4.170582812991e+01 2.634107440038e+01 0.0 
2.634107440038e+01 -4.132837050692e+01 0.0 
0.0 0.0 -2.207105194509e+01 
-1.565426068846e+02 -1.085122251337e-01 0.0 
-1.085122251337e-01 -3.717898151412e+02 0.0 
0.0 0.0 -1.580997266077e+02 
-7.975866372839e+01 4.063728966600e+00 0.0 
4.063728966600e+00 -1.475130980634e+02 0.0 
0.0 0.0 -6.778152853753e+01 
-1.608872013381e+02 1.879414026186e+00 0.0 
1.879414026186e+00 -3.798637279490e+02 0.0 
0.0 0.0 -1.618252787861e+02 
-1.198987794378e+02 1.882718837482e+00 0.0 
1.882718837482e+00 -2.760551231551e+02 0.0 
0.0 0.0 -1.183861707779e+02 
-6.982107467673e+01 2.638584640094e+00 0.0 
2.638584640094e+00 -1.252870741517e+02 0.0 
0.0 0.0 -5.813244464853e+01 
-2.936575131910e+01 1.933111212073e+01 0.0 
1.933111212073e+01 -1.103462933909e+02 0.0 
0.0 0.0 -4.425297019925e+01 
-2.188783327371e+01 -4.215193571896e-01 0.0 
-4.215193571896e-01 -7.727339369997e+01 0.0 
0.0 0.0 -2.934836809210e+01 
-3.185643478999e+01 -1.833898022202e+00 0.0 
-1.833898022202e+00 -7.992309178638e+01 0.0 
0.0 0.0 -3.095374800831e+01 
-1.188044689511e+02 4.535744307842e+00 0.0 
4.535744307842e+00 -2.673241483332e+02 0.0 
0.0 0.0 -1.154385851853e+02 
-4.653750695446e+01 1.718584790310e+01 0.0 
1.718584790310e+01 -4.933473441226e+01 0.0 
0.0 0.0 -2.401785130579e+01 
-5.501412439286e+01 2.065272679254e+01 0.0 
2.065272679254e+01 -6.288684564989e+01 0.0 
0.0 0.0 -3.018206420327e+01 
-1.413371931239e+02 1.283054510519e+01 0.0 
1.283054510519e+01 -3.503085446798e+02 0.0 
0.0 0.0 -1.470937213411e+02 
-8.842848707758e+01 6.636362130573e+00 0.0 
6.636362130573e+00 -1.673181327937e+02 0.0 
0.0 0.0 -7.632398596139e+01 
-1.185005702588e+02 1.502297976638e-02 0.0 
1.502297976638e-02 -2.734491935207e+02 0.0 
0.0 0.0 -1.147536438382e+02 
-6.704622499336e+01 5.487116664407e+00 0.0 
5.487116664407e+00 -1.106451314447e+02 0.0 
0.0 0.0 -5.290740693141e+01 
-1.391037970555e+02 2.454995915676e+01 0.0 
2.454995915676e+01 -3.299778454997e+02 0.0 
0.0 0.0 -1.403244927666e+02 
-9.072853751862e+01 9.498640944692e+00 0.0 
9.498640944692e+00 -1.686522996483e+02 0.0 
0.0 0.0 -7.741425115008e+01 
-1.455234158650e+02 1.119471051797e+01 0.0 
1.119471051797e+01 -3.589652359826e+02 0.0 
0.0 0.0 -1.509465955543e+02 
-4.091188926115e+01 -2.238273326201e+01 0.0 
-2.238273326201e+01 -9.882726167665e+01 0.0 
0.0 0.0 -3.834539470363e+01 
-1.574342424925e+01 8.150842436419e-02 0.0 
8.150842436419e-02 -2.493178623703e+01 0.0 
0.0 0.0 -1.180256314588e+01 
-1.303295428673e+02 1.948648969010e+01 0.0 
1.948648969010e+01 -2.927993156937e+02 0.0 
0.0 0.0 -1.265386575683e+02 
-1.329881077603e+02 9.117360986152e-01 0.0 
9.117360986152e-01 -3.225007299550e+02 0.0 
0.0 0.0 -1.362466513146e+02 
-1.538348465337e+02 6.828720696850e+00 0.0 
6.828720696850e+00 -3.703409567747e+02 0.0 
0.0 0.0 -1.568527409925e+02 
-1.637282826011e+02 2.085435652162e+00 0.0 
2.085435652162e+00 -3.881416881941e+02 0.0 
0.0 0.0 -1.651609912386e+02 
-1.642854079985e+02 4.882232898986e+00 0.0 
4.882232898986e+00 -3.881335337122e+02 0.0 
0.0 0.0 -1.653256825132e+02 
-1.445851133302e+02 1.811067794434e+01 0.0 
1.811067794434e+01 -3.515316281323e+02 0.0 
0.0 0.0 -1.484350224387e+02 
-6.108155907505e+01 1.907358289436e+00 0.0 
1.907358289436e+00 -1.101313023100e+02 0.0 
0.0 0.0 -5.096385841551e+01 
-6.068011681626e+01 -8.750949436818e-01 0.0 
-8.750949436818e-01 -1.106146792461e+02 0.0 
0.0 0.0 -5.098843881869e+01 
-6.162584816330e+01 1.516414432297e+01 0.0 
1.516414432297e+01 -7.731371995145e+01 0.0 
0.0 0.0 -3.681200786608e+01 
-1.565313891236e+02 8.131710260455e+00 0.0 
8.131710260455e+00 -3.740525535376e+02 0.0 
0.0 0.0 -1.587751827984e+02 
-4.203547649368e+01 2.944329695118e+01 0.0 
2.944329695118e+01 -4.710368979962e+01 0.0 
0.0 0.0 -2.354628580112e+01 
-6.924853717412e+01 5.284892772425e+00 0.0 
5.284892772425e+00 -1.113060764558e+02 0.0 
0.0 0.0 -5.345581428240e+01 
-1.144954686664e+02 1.150404430429e+00 0.0 
1.150404430429e+00 -2.563537601720e+02 0.0 
0.0 0.0 -1.108547686515e+02 
-4.403192438817e+01 2.956116785397e+01 0.0 
2.956116785397e+01 -4.820485064358e+01 0.0 
0.0 0.0 -2.418887527830e+01 
-3.764216545921e+01 -2.477956022376e+01 0.0 
-2.477956022376e+01 -9.529742109844e+01 0.0 
0.0 0.0 -3.905042826938e+01 
-1.137004477478e+02 9.033040238118e-01 0.0 
9.033040238118e-01 -2.576207922754e+02 0.0 
0.0 0.0 -1.109963720070e+02 
-3.613631899243e+01 -2.668366941418e+01 0.0 
-2.668366941418e+01 -5.761980611948e+01 0.0 
0.0 0.0 -2.846561828407e+01 
-7.748592614414e+01 4.990678712039e+00 0.0 
4.990678712039e+00 -1.387929472300e+02 0.0 
0.0 0.0 -6.448366201224e+01 
-5.863017351260e+01 1.766297073933e+01 0.0 
1.766297073933e+01 -7.037798766763e+01 0.0 
0.0 0.0 -3.251894576586e+01 
-3.577132021273e+01 -6.546040623463e-01 0.0 
-6.546040623463e-01 -9.744906060305e+01 0.0 
0.0 0.0 -3.850545310126e+01 
-4.375567990251e+01 -1.636886908610e+01 0.0 
-1.636886908610e+01 -1.256260599628e+02 0.0 
0.0 0.0 -4.629635940786e+01 
-5.380876172029e+01 1.170100236630e+01 0.0 
1.170100236630e+01 -6.433505381400e+01 0.0 
0.0 0.0 -3.029283287477e+01 
-1.252340124583e+02 1.527368656503e+01 0.0 
1.527368656503e+01 -2.842540122281e+02 0.0 
0.0 0.0 -1.224464074059e+02 
-5.986833201532e+01 -1.914950088525e+00 0.0 
-1.914950088525e+00 -1.304216234403e+02 0.0 
0.0 0.0 -5.276227075492e+01 
-4.598924167779e+01 -2.102028013850e+00 0.0 
-2.102028013850e+00 -1.007064022911e+02 0.0 
0.0 0.0 -4.022337532887e+01 
-1.324866546809e+02 -5.925566148017e-01 0.0 
-5.925566148017e-01 -3.223450612088e+02 0.0 
0.0 0.0 -1.360495147669e+02 
-1.876569432738e+01 -7.953872890505e-01 0.0 
-7.953872890505e-01 -5.938117544846e+01 0.0 
0.0 0.0 -2.164550307276e+01 
-1.205232739605e+02 3.756450851119e+00 0.0 
3.756450851119e+00 -2.763608470081e+02 0.0 
0.0 0.0 -1.186652362906e+02 
-6.209472145463e+01 -2.487216159258e+01 0.0 
-2.487216159258e+01 -9.385577418165e+01 0.0 
0.0 0.0 -4.781504897407e+01 
-1.321723717121e+02 2.073009288180e+01 0.0 
2.073009288180e+01 -3.224487865643e+02 0.0 
0.0 0.0 -1.359863474829e+02 
-5.939285596281e+01 2.984747414237e+01 0.0 
2.984747414237e+01 -1.097136522756e+02 0.0 
0.0 0.0 -4.842522122604e+01 
-3.889290028351e+01 -1.693886499542e+01 0.0 
-1.693886499542e+01 -1.123794768656e+02 0.0 
0.0 0.0 -3.839804401340e+01 
-1.562934175645e+02 2.292923634520e+00 0.0 
2.292923634520e+00 -3.715477049567e+02 0.0 
0.0 0.0 -1.579523367564e+02 
-5.015110890416e+01 1.394425353331e+01 0.0 
1.394425353331e+01 -5.524706044657e+01 0.0 
0.0 0.0 -2.604529766037e+01 
-4.661935428293e+01 -8.282611692141e+00 0.0 
-8.282611692141e+00 -1.194371653210e+02 0.0 
0.0 0.0 -5.105184276385e+01 
-1.320301961908e+02 2.113607414489e+01 0.0 
2.113607414489e+01 -2.956752069944e+02 0.0 
0.0 0.0 -1.279116209556e+02 
-4.168986169782e+01 -1.137718840716e+01 0.0 
-1.137718840716e+01 -7.135598740980e+01 0.0 
0.0 0.0 -2.831107655213e+01 
-1.344011879272e+02 2.306713501493e+01 0.0 
2.306713501493e+01 -3.114274098300e+02 0.0 
0.0 0.0 -1.333485793272e+02 
-1.212585135696e+02 1.995487985400e-01 0.0 
1.995487985400e-01 -2.843820963145e+02 0.0 
0.0 0.0 -1.194258207847e+02 
-1.252888171497e+02 1.020259123528e+01 0.0 
1.020259123528e+01 -2.936739066827e+02 0.0 
0.0 0.0 -1.252888171497e+02 
-1.333294567519e+02 2.270144190554e+01 0.0 
2.270144190554e+01 -3.154995977046e+02 0.0 
0.0 0.0 -1.342487163370e+02 
-1.079875131799e+01 -6.243746517199e-01 0.0 
-6.243746517199e-01 -2.988546504047e+01 0.0 
0.0 0.0 -9.430076709345e+00 
-6.606702796711e+01 -3.240458497712e+00 0.0 
-3.240458497712e+00 -1.353653890410e+02 0.0 
0.0 0.0 -5.502075149114e+01 
-1.212384906650e+02 8.408669329834e+00 0.0 
8.408669329834e+00 -2.720493416106e+02 0.0 
0.0 0.0 -1.175863496827e+02 
-1.287263176614e+02 1.649954845694e+01 0.0 
1.649954845694e+01 -2.870776842968e+02 0.0 
0.0 0.0 -1.243412005874e+02 
-4.404990516813e+01 3.113644280109e+01 0.0 
3.113644280109e+01 -4.953398473526e+01 0.0 
0.0 0.0 -2.401555724408e+01 
-1.971449360872e+01 -2.870574247023e+00 0.0 
-2.870574247023e+00 -5.878303649083e+01 0.0 
0.0 0.0 -2.163714149447e+01 
-4.296217274032e+01 3.102690967094e+01 0.0 
3.102690967094e+01 -4.920024085400e+01 0.0 
0.0 0.0 -2.334197902088e+01 
-4.305046187160e+01 -1.433327920629e+01 0.0 
-1.433327920629e+01 -7.225007112245e+01 0.0 
0.0 0.0 -2.902961092115e+01 
-6.924282530501e+01 2.247216464412e+00 0.0 
2.247216464412e+00 -1.245030058407e+02 0.0 
0.0 0.0 -5.772374934372e+01 
-5.257436210930e+01 2.390562677662e+01 0.0 
2.390562677662e+01 -5.819605303964e+01 0.0 
0.0 0.0 -2.875182305109e+01 
-4.286563879241e+01 2.007992103689e+01 0.0 
2.007992103689e+01 -4.128173841266e+01 0.0 
0.0 0.0 -2.196298209623e+01 
-7.470227451106e+01 3.131141105347e+00 0.0 
3.131141105347e+00 -1.403264698740e+02 0.0 
0.0 0.0 -6.410862331552e+01 
-7.333031632782e+01 9.975253827014e-01 0.0 
9.975253827014e-01 -1.397075181378e+02 0.0 
0.0 0.0 -6.351135033969e+01 
-1.237219212966e+02 5.941175430946e-01 0.0 
5.941175430946e-01 -2.926818656054e+02 0.0 
0.0 0.0 -1.231137922943e+02 
-1.290161566055e+02 -8.002281682003e-01 0.0 
-8.002281682003e-01 -3.140201423361e+02 0.0 
0.0 0.0 -1.324924233230e+02 
-1.140208564310e+02 1.966306130828e+01 0.0 
1.966306130828e+01 -2.397235076227e+02 0.0 
0.0 0.0 -1.057233092161e+02 
-7.068906622228e+01 3.358675240646e+00 0.0 
3.358675240646e+00 -1.285361027287e+02 0.0 
0.0 0.0 -5.936755068529e+01 
-1.835449562421e+01 -3.210752813517e+00 0.0 
-3.210752813517e+00 -2.663222900808e+01 0.0 
0.0 0.0 -1.247388910584e+01 
-7.520456429370e+01 6.504797339344e+00 0.0 
6.504797339344e+00 -1.289951960763e+02 0.0 
0.0 0.0 -6.085992811101e+01 
-9.718505046812e+01 1.390471589095e+00 0.0 
1.390471589095e+00 -2.085815490303e+02 0.0 
0.0 0.0 -9.132997984951e+01 
-9.696773047329e+01 8.223109864104e-01 0.0 
8.223109864104e-01 -2.052126362209e+02 0.0 
0.0 0.0 -9.025411000826e+01 
-1.295633799856e+02 1.123715623500e+01 0.0 
1.123715623500e+01 -2.961413046518e+02 0.0 
0.0 0.0 -1.273114053912e+02 
-1.503227836781e+02 2.085587833781e+01 0.0 
2.085587833781e+01 -3.578109575178e+02 0.0 
0.0 0.0 -1.520401223588e+02 
-7.044688616642e+01 3.349998015636e+00 0.0 
3.349998015636e+00 -1.244245397885e+02 0.0 
0.0 0.0 -5.806142778647e+01 
-1.534437608621e+02 7.790549403714e+00 0.0 
7.790549403714e+00 -3.731856894340e+02 0.0 
0.0 0.0 -1.575888350888e+02 
-7.940981358716e+01 9.151220338529e-01 0.0 
9.151220338529e-01 -1.594008612545e+02 0.0 
0.0 0.0 -7.124320245251e+01 
-5.621166907950e+01 2.901325120210e+01 0.0 
2.901325120210e+01 -9.211686976696e+01 0.0 
0.0 0.0 -4.058274703775e+01 
-6.661358738315e+01 2.279914666991e+00 0.0 
2.279914666991e+00 -1.197843567650e+02 0.0 
0.0 0.0 -5.551938324445e+01 
-1.603572202862e+02 4.955272537179e-01 0.0 
4.955272537179e-01 -3.795133596265e+02 0.0 
0.0 0.0 -1.615611739738e+02 
-1.085162178944e+02 2.023417996403e+01 0.0 
2.023417996403e+01 -2.797757351426e+02 0.0 
0.0 0.0 -1.160875859111e+02 
-1.335277482947e+02 2.233823036748e+01 0.0 
2.233823036748e+01 -3.233890195405e+02 0.0 
0.0 0.0 -1.366750303506e+02 
-5.051696803054e+01 3.140839678439e+01 0.0 
3.140839678439e+01 -1.068750515949e+02 0.0 
0.0 0.0 -4.439389216042e+01 
-5.123876550484e+01 -2.959444124959e+01 0.0 
-2.959444124959e+01 -7.798974835785e+01 0.0 
0.0 0.0 -3.652111328056e+01 
-1.468595200497e+02 1.408528257015e+00 0.0 
1.408528257015e+00 -3.517725082242e+02 0.0 
0.0 0.0 -1.491896084822e+02 
-1.037806918191e+02 1.176986007193e+00 0.0 
1.176986007193e+00 -2.246163777675e+02 0.0 
0.0 0.0 -9.811912087598e+01 
-5.470804506733e+01 -3.728794728847e+01 0.0 
-3.728794728847e+01 -7.187188587895e+01 0.0 
0.0 0.0 -3.913117665587e+01 
-1.599347449533e+02 2.988700578234e+00 0.0 
2.988700578234e+00 -3.776640934389e+02 0.0 
0.0 0.0 -1.608796515177e+02 
-1.087431637991e+02 1.769825871038e+01 0.0 
1.769825871038e+01 -2.295012780223e+02 0.0 
0.0 0.0 -1.010733325464e+02 
-1.108052875712e+01 5.431833824520e-02 0.0 
5.431833824520e-02 -2.153469629798e+01 0.0 
0.0 0.0 -7.619082679674e+00 
-6.607660978838e+01 2.898400188267e+01 0.0 
2.898400188267e+01 -1.605644633826e+02 0.0 
0.0 0.0 -6.847634758824e+01 
-7.312814089517e+01 1.003494509257e+01 0.0 
1.003494509257e+01 -1.125031107602e+02 0.0 
0.0 0.0 -5.414904948459e+01 
-8.087915324781e+01 -3.413326116262e+00 0.0 
-3.413326116262e+00 -1.665150357640e+02 0.0 
0.0 0.0 -6.809483236386e+01 
-5.245367579254e+01 2.988039768729e+01 0.0 
2.988039768729e+01 -8.765813469138e+01 0.0 
0.0 0.0 -4.003516944639e+01 
-5.828915639689e+01 2.980719942693e+01 0.0 
2.980719942693e+01 -1.094016962393e+02 0.0 
0.0 0.0 -4.743981957332e+01 
-1.577325979354e+02 5.029508635144e+00 0.0 
5.029508635144e+00 -3.770030277176e+02 0.0 
0.0 0.0 -1.600206876959e+02 
-7.716272700291e+01 -3.068042996406e-01 0.0 
-3.068042996406e-01 -1.527644787599e+02 0.0 
0.0 0.0 -6.857816172886e+01 
-5.519619370075e+01 3.173735861658e+01 0.0 
3.173735861658e+01 -1.080199186668e+02 0.0 
0.0 0.0 -4.706426664458e+01 
-3.319161897306e+01 -5.827351781342e+00 0.0 
-5.827351781342e+00 -6.301174701148e+01 0.0 
0.0 0.0 -2.387680927945e+01 
-7.569323612531e+01 6.716997988158e+00 0.0 
6.716997988158e+00 -1.295262127519e+02 0.0 
0.0 0.0 -6.116583466316e+01 
-1.034984760080e+02 1.529589930236e+00 0.0 
1.529589930236e+00 -2.259446788618e+02 0.0 
0.0 0.0 -9.843294646095e+01 
-5.432257422818e+01 3.059390749925e+01 0.0 
3.059390749925e+01 -1.075542547917e+02 0.0 
0.0 0.0 -4.618844197961e+01 
-4.594714212685e+01 3.512001581059e+01 0.0 
3.512001581059e+01 -5.449498461067e+01 0.0 
0.0 0.0 -2.737621755459e+01 
-6.800732679391e+01 1.188621449837e+01 0.0 
1.188621449837e+01 -9.493824432195e+01 0.0 
0.0 0.0 -4.583974056730e+01 
-7.774933080876e+01 -3.731393059552e+00 0.0 
-3.731393059552e+00 -1.642824418581e+02 0.0 
0.0 0.0 -6.710547107406e+01 
-6.079094579814e+01 8.669776270314e+00 0.0 
8.669776270314e+00 -8.276163415803e+01 0.0 
0.0 0.0 -3.974684634878e+01 
-1.224791706463e+02 7.936501469960e+00 0.0 
7.936501469960e+00 -2.804873920931e+02 0.0 
0.0 0.0 -1.204899688218e+02 
-4.431561007872e+01 3.461314769903e+01 0.0 
3.461314769903e+01 -7.668262849639e+01 0.0 
0.0 0.0 -3.133310687128e+01 
-1.165052307641e+02 -1.320533057022e+00 0.0 
-1.320533057022e+00 -2.721275361801e+02 0.0 
0.0 0.0 -1.141090561555e+02 
-1.175312158881e+02 9.660747364917e-01 0.0 
9.660747364917e-01 -2.676992597101e+02 0.0 
0.0 0.0 -1.151691426795e+02 
-7.317934543612e+01 2.236849192927e+01 0.0 
2.236849192927e+01 -1.210601718060e+02 0.0 
0.0 0.0 -5.330190323089e+01 
-6.513744935636e+01 1.321357689226e+01 0.0 
1.321357689226e+01 -8.641303784785e+01 0.0 
0.0 0.0 -4.158825241987e+01 
-1.524637879024e+02 5.347947035235e+00 0.0 
5.347947035235e+00 -3.697959867978e+02 0.0 
0.0 0.0 -1.562779324100e+02 
-1.569935170063e+02 1.722579399133e+00 0.0 
1.722579399133e+00 -3.724808500629e+02 0.0 
0.0 0.0 -1.584423101208e+02 
-1.222408455870e+02 -8.720049378182e-01 0.0 
-8.720049378182e-01 -2.925316667021e+02 0.0 
0.0 0.0 -1.229263315937e+02 
-7.526874689112e+01 2.303014295987e+01 0.0 
2.303014295987e+01 -1.268714107781e+02 0.0 
0.0 0.0 -5.645351473317e+01 
-1.517173775449e+02 1.142110242623e+01 0.0 
1.142110242623e+01 -3.706642511601e+02 0.0 
0.0 0.0 -1.563144886115e+02 
-6.924302221916e+01 1.889928603821e+01 0.0 
1.889928603821e+01 -1.046811492069e+02 0.0 
0.0 0.0 -4.668699080655e+01 
-1.200340863890e+02 5.890059692981e+00 0.0 
5.890059692981e+00 -2.742285687946e+02 0.0 
0.0 0.0 -1.178787965551e+02 
-1.349492825763e+02 2.366558469913e+01 0.0 
2.366558469913e+01 -3.105285482200e+02 0.0 
0.0 0.0 -1.332433492389e+02 
-8.103768047251e+01 6.511742245737e+00 0.0 
6.511742245737e+00 -1.473524101930e+02 0.0 
0.0 0.0 -6.811702719964e+01 
-8.929337409560e+01 9.890082164430e-01 0.0 
9.890082164430e-01 -1.840099018995e+02 0.0 
0.0 0.0 -8.159098279854e+01 
-6.862238077196e+01 2.288400050723e+01 0.0 
2.288400050723e+01 -1.047683756082e+02 0.0 
0.0 0.0 -4.658877299399e+01 
-5.783265142602e+01 9.810685090923e+00 0.0 
9.810685090923e+00 -7.426676417155e+01 0.0 
0.0 0.0 -3.537766871183e+01 
-7.967602585574e+01 2.258321279135e+01 0.0 
2.258321279135e+01 -1.422944924509e+02 0.0 
0.0 0.0 -6.186255467787e+01 
-5.471843062988e+01 3.053191089296e+01 0.0 
3.053191089296e+01 -1.257766649917e+02 0.0 
0.0 0.0 -5.171194589675e+01 
-6.653241586543e+01 1.858046571817e+00 0.0 
1.858046571817e+00 -1.224728589304e+02 0.0 
0.0 0.0 -5.630158243875e+01 
-6.147000329331e+01 2.694024923244e+01 0.0 
2.694024923244e+01 -1.571987740833e+02 0.0 
0.0 0.0 -6.452572193490e+01 
-1.327210623581e+01 -7.902274826488e-01 0.0 
-7.902274826488e-01 -2.567248641179e+01 0.0 
0.0 0.0 -1.046868759129e+01 
-7.104303656152e+01 3.912731202937e-01 0.0 
3.912731202937e-01 -1.374217216255e+02 0.0 
0.0 0.0 -6.213942745610e+01 
-1.656088033016e+01 -9.938617292646e-01 0.0 
-9.938617292646e-01 -5.983716570645e+01 0.0 
0.0 0.0 -2.187490795505e+01 
-7.061595488014e+01 1.087973480293e+01 0.0 
1.087973480293e+01 -1.039338339221e+02 0.0 
0.0 0.0 -5.009957449410e+01 
-1.556844321366e+02 1.067620315558e+01 0.0 
1.067620315558e+01 -3.725791808565e+02 0.0 
0.0 0.0 -1.580790838979e+02 
-5.254547281088e+01 3.268448051853e+01 0.0 
3.268448051853e+01 -1.077141052233e+02 0.0 
0.0 0.0 -4.627435236384e+01 
-1.256053966814e+02 -8.153964295551e-01 0.0 
-8.153964295551e-01 -3.027533059254e+02 0.0 
0.0 0.0 -1.274877485322e+02 
-4.465340970505e+01 2.892631627607e+01 0.0 
2.892631627607e+01 -4.736861617917e+01 0.0 
0.0 0.0 -2.436260081978e+01 
-1.084420472973e+02 1.887660867600e+01 0.0 
1.887660867600e+01 -2.795685778548e+02 0.0 
0.0 0.0 -1.160031875456e+02 
-6.541636413758e+01 5.051275268041e-01 0.0 
5.051275268041e-01 -1.237483174489e+02 0.0 
0.0 0.0 -5.634940447594e+01 
-6.187692292093e+01 2.859793765188e+01 0.0 
2.859793765188e+01 -1.580532318494e+02 0.0 
0.0 0.0 -6.540512613068e+01 
-1.372523015177e+02 1.338753433165e+00 0.0 
1.338753433165e+00 -3.320331053668e+02 0.0 
0.0 0.0 -1.403856220653e+02 
-3.809088073385e+01 -1.006683538067e+01 0.0 
-1.006683538067e+01 -6.411512364276e+01 0.0 
0.0 0.0 -2.713701567762e+01 
-1.465136172038e+02 -2.006349322026e-01 0.0 
-2.006349322026e-01 -3.513818379855e+02 0.0 
0.0 0.0 -1.489686365568e+02 
-7.947118105116e+01 1.200479883451e+01 0.0 
1.200479883451e+01 -1.340258220099e+02 0.0 
0.0 0.0 -6.247179794439e+01 
-1.574703788049e+02 2.289073130850e+00 0.0 
2.289073130850e+00 -3.760538928677e+02 0.0 
0.0 0.0 -1.596572815018e+02 
-6.472333713118e+01 1.179482634492e-01 0.0 
1.179482634492e-01 -1.227009386796e+02 0.0 
0.0 0.0 -5.582728274325e+01 
-5.508844699052e+01 3.136122967206e+01 0.0 
3.136122967206e+01 -1.247593219569e+02 0.0 
0.0 0.0 -5.293992890731e+01 
-6.697256170718e+01 7.216242666051e+00 0.0 
7.216242666051e+00 -1.010626572496e+02 0.0 
0.0 0.0 -4.856899309497e+01 
-1.144133670276e+02 -2.927642369902e-02 0.0 
-2.927642369902e-02 -2.608558939499e+02 0.0 
0.0 0.0 -1.092344748844e+02 
-4.385007333925e+01 2.931504213497e+01 0.0 
2.931504213497e+01 -4.634372703607e+01 0.0 
0.0 0.0 -2.381224651839e+01 
-5.748282768093e+01 2.554138651262e+01 0.0 
2.554138651262e+01 -1.544469283984e+02 0.0 
0.0 0.0 -6.153321589031e+01 
-9.347106278675e+01 2.607595102594e+00 0.0 
2.607595102594e+00 -1.950039476206e+02 0.0 
0.0 0.0 -8.614250312222e+01 
-6.532881610312e+01 -4.387197663199e-02 0.0 
-4.387197663199e-02 -1.226004999017e+02 0.0 
0.0 0.0 -5.597879480145e+01 
-6.026717117149e+01 3.016428074190e+01 0.0 
3.016428074190e+01 -1.423033828962e+02 0.0 
0.0 0.0 -6.065062300655e+01 
-6.414729786946e+01 7.856687498294e+00 0.0 
7.856687498294e+00 -9.173324522791e+01 0.0 
0.0 0.0 -4.413529338609e+01 
-1.194823048347e+02 2.092102122807e+01 0.0 
2.092102122807e+01 -2.694068417423e+02 0.0 
0.0 0.0 -1.162667439731e+02 
-8.659792617855e+01 -3.304146696007e+00 0.0 
-3.304146696007e+00 -1.841195982902e+02 0.0 
0.0 0.0 -7.564654100938e+01 
-1.411140112594e+02 2.304547482901e+01 0.0 
2.304547482901e+01 -3.333953453400e+02 0.0 
0.0 0.0 -1.419528069798e+02 
-1.362555187607e+02 2.465936990503e+01 0.0 
2.465936990503e+01 -3.145280613412e+02 0.0 
0.0 0.0 -1.348350740306e+02 
-5.070771629309e+01 2.849018155788e+01 0.0 
2.849018155788e+01 -7.187215297152e+01 0.0 
0.0 0.0 -3.279484499173e+01 
-8.893239000817e+01 -3.204210920359e+00 0.0 
-3.204210920359e+00 -1.848620742353e+02 0.0 
0.0 0.0 -7.641620208025e+01 
-1.300883596321e+02 1.441757468500e+01 0.0 
1.441757468500e+01 -3.302635943309e+02 0.0 
0.0 0.0 -1.377055861889e+02 
-6.537380360460e+01 1.944111063514e+01 0.0 
1.944111063514e+01 -8.991152577657e+01 0.0 
0.0 0.0 -4.137292137083e+01 
-4.707790084155e+01 2.887385454615e+01 0.0 
2.887385454615e+01 -6.657683080574e+01 0.0 
0.0 0.0 -3.221685898221e+01 
-7.489675642015e+01 9.326768674173e+00 0.0 
9.326768674173e+00 -1.222524663987e+02 0.0 
0.0 0.0 -5.770328193828e+01 
-6.008723717267e+01 2.918439744659e+01 0.0 
2.918439744659e+01 -1.440971258175e+02 0.0 
0.0 0.0 -5.908051839877e+01 
-1.186399466552e+02 3.701705684798e+00 0.0 
3.701705684798e+00 -2.726954527057e+02 0.0 
0.0 0.0 -1.170006198083e+02 
-1.084522665975e+02 1.534043653651e+01 0.0 
1.534043653651e+01 -2.252809607197e+02 0.0 
0.0 0.0 -9.971996819514e+01 
-1.420015474236e+02 -6.110579957585e-01 0.0 
-6.110579957585e-01 -3.419374463249e+02 0.0 
0.0 0.0 -1.447816981246e+02 
-4.421321954474e+01 3.056484205160e+01 0.0 
3.056484205160e+01 -4.882311575739e+01 0.0 
0.0 0.0 -2.402674810059e+01 
-5.401890752410e+01 2.343822204193e+01 0.0 
2.343822204193e+01 -1.527286472246e+02 0.0 
0.0 0.0 -5.881160748210e+01 
-1.120957379707e+02 1.695381906457e+01 0.0 
1.695381906457e+01 -2.379252637798e+02 0.0 
0.0 0.0 -1.046063005252e+02 
-8.811368277527e+01 2.828180413249e+01 0.0 
2.828180413249e+01 -7.842711891792e+01 0.0 
0.0 0.0 -5.023019886046e+01 
-6.439908581435e+01 1.484709294661e+01 0.0 
1.484709294661e+01 -8.955244065993e+01 0.0 
0.0 0.0 -4.121980722649e+01 
-1.209693897180e+02 1.070210543449e+01 0.0 
1.070210543449e+01 -3.155795030128e+02 0.0 
0.0 0.0 -1.305646678192e+02 
-1.731939867227e+01 -3.467263828517e-01 0.0 
-3.467263828517e-01 -4.234867209406e+01 0.0 
0.0 0.0 -1.540256741815e+01 
-1.266800070769e+02 1.632026401352e+01 0.0 
1.632026401352e+01 -2.839030869408e+02 0.0 
0.0 0.0 -1.227749282053e+02 
-9.716608073809e+01 1.019965826996e+01 0.0 
1.019965826996e+01 -1.901837073346e+02 0.0 
0.0 0.0 -8.580493642180e+01 
-7.293613596528e+01 -1.053341138505e+01 0.0 
-1.053341138505e+01 -1.800467335521e+02 0.0 
0.0 0.0 -7.363573830294e+01 
-1.187874394279e+02 9.579346268629e+00 0.0 
9.579346268629e+00 -3.145373280700e+02 0.0 
0.0 0.0 -1.295974302494e+02 
-8.258767873352e+01 8.078389112218e+00 0.0 
8.078389112218e+00 -1.458704266119e+02 0.0 
0.0 0.0 -6.813743160361e+01 
-8.745452799096e+01 7.633851766555e+00 0.0 
7.633851766555e+00 -1.602473722691e+02 0.0 
0.0 0.0 -7.391057007802e+01 
-1.471885472188e+02 1.186894393517e+01 0.0 
1.186894393517e+01 -3.594019656677e+02 0.0 
0.0 0.0 -1.515771538659e+02 
-6.001173613056e+01 -1.283232131735e+01 0.0 
-1.283232131735e+01 -1.339490358898e+02 0.0 
0.0 0.0 -5.457430509179e+01 
-8.238567258548e+01 2.455522461153e+01 0.0 
2.455522461153e+01 -1.585245988472e+02 0.0 
0.0 0.0 -6.801807081105e+01 
-8.366016558148e+01 1.467778262609e+01 0.0 
1.467778262609e+01 -1.467518728555e+02 0.0 
0.0 0.0 -6.748092965052e+01 
-1.025216768921e+02 1.214562514702e+01 0.0 
1.214562514702e+01 -2.013604539759e+02 0.0 
0.0 0.0 -9.076463926039e+01 
-8.383211913607e+01 1.435659538807e+01 0.0 
1.435659538807e+01 -1.438898577378e+02 0.0 
0.0 0.0 -6.740090315751e+01 
-7.741562102967e+01 1.269934835401e+01 0.0 
1.269934835401e+01 -1.230516892693e+02 0.0 
0.0 0.0 -5.851346100808e+01 
-9.187425708729e+01 1.924791884066e+01 0.0 
1.924791884066e+01 -2.547943533163e+02 0.0 
0.0 0.0 -1.043565297911e+02 
-1.162996307947e+02 2.234856910091e+01 0.0 
2.234856910091e+01 -2.561873083119e+02 0.0 
0.0 0.0 -1.113460817320e+02 
-6.159398506656e+01 2.681636595394e+01 0.0 
2.681636595394e+01 -9.090592619429e+01 0.0 
0.0 0.0 -4.687378048342e+01 
-5.072407924456e+01 2.811505088507e+01 0.0 
2.811505088507e+01 -7.146539814126e+01 0.0 
0.0 0.0 -3.397199852155e+01 
-5.689653618173e+01 2.782920027474e+01 0.0 
2.782920027474e+01 -9.164000029784e+01 0.0 
0.0 0.0 -4.163147061355e+01 
-7.727018897872e+01 2.476838718638e+01 0.0 
2.476838718638e+01 -1.424195782108e+02 0.0 
0.0 0.0 -6.191590273312e+01 
-1.137482546146e+02 1.728701509889e+01 0.0 
1.728701509889e+01 -2.360138463058e+02 0.0 
0.0 0.0 -1.045286302761e+02 
-3.707743306190e+01 2.300132260404e+01 0.0 
2.300132260404e+01 -1.154932571862e+02 0.0 
0.0 0.0 -4.381466093607e+01 
-1.165014457977e+02 8.626217434890e+00 0.0 
8.626217434890e+00 -3.073056390881e+02 0.0 
0.0 0.0 -1.267421254657e+02 
-6.534718332379e+01 1.602167612253e+00 0.0 
1.602167612253e+00 -1.213385593404e+02 0.0 
0.0 0.0 -5.560572279925e+01 
-5.786164641862e+01 2.696237241042e+01 0.0 
2.696237241042e+01 -1.565665208385e+02 0.0 
0.0 0.0 -6.272706564963e+01 
-1.124247144700e+02 6.566654941207e+00 0.0 
6.566654941207e+00 -2.986055127052e+02 0.0 
0.0 0.0 -1.229090681525e+02 
-1.392656356047e+01 2.774456738853e-02 0.0 
2.774456738853e-02 -2.819364948771e+01 0.0 
0.0 0.0 -1.077024280027e+01 
-1.040234344344e+02 1.134596979321e+01 0.0 
1.134596979321e+01 -2.109167534198e+02 0.0 
0.0 0.0 -9.408205635626e+01 
-1.442996605710e+01 -2.577634697602e-01 0.0 
-2.577634697602e-01 -2.413139961920e+01 0.0 
0.0 0.0 -9.938511960030e+00 
-1.347297146920e+01 -1.363768238502e+00 0.0 
-1.363768238502e+00 -4.275579832324e+01 0.0 
0.0 0.0 -1.486275472462e+01 
-4.191661556182e+01 3.004219444793e+01 0.0 
3.004219444793e+01 -4.785530576198e+01 0.0 
0.0 0.0 -2.317991200596e+01 
-5.277335503389e+01 -1.280879423622e+01 0.0 
-1.280879423622e+01 -1.132517002236e+02 0.0 
0.0 0.0 -4.621274257295e+01 
-1.091701034563e+02 1.318452791484e+01 0.0 
1.318452791484e+01 -2.219154118416e+02 0.0 
0.0 0.0 -9.892565458936e+01 
-5.051761828577e+01 -1.317130836049e+01 0.0 
-1.317130836049e+01 -1.059458749333e+02 0.0 
0.0 0.0 -4.341078029567e+01 
-4.645304934091e+01 3.236769906668e+01 0.0 
3.236769906668e+01 -8.967535933935e+01 0.0 
0.0 0.0 -3.694297085106e+01 
-5.057456189031e+01 -2.133405561847e+01 0.0 
-2.133405561847e+01 -1.107650438875e+02 0.0 
0.0 0.0 -4.257017360342e+01 
-3.862932469210e+01 -9.968181053458e+00 0.0 
-9.968181053458e+00 -7.139958531394e+01 0.0 
0.0 0.0 -2.968367837976e+01 
-1.236927761405e+02 1.145538971612e+01 0.0 
1.145538971612e+01 -3.220538838912e+02 0.0 
0.0 0.0 -1.333239980095e+02 
-8.143026565222e+01 1.546663987839e+01 0.0 
1.546663987839e+01 -1.349748788279e+02 0.0 
0.0 0.0 -6.329177160390e+01 
-1.558770094867e+02 7.039495076279e-01 0.0 
7.039495076279e-01 -3.714946510322e+02 0.0 
0.0 0.0 -1.578114981557e+02 
-6.785564675876e+01 1.277185852120e+01 0.0 
1.277185852120e+01 -1.093101846902e+02 0.0 
0.0 0.0 -5.369144895955e+01 
-4.888352070252e+01 3.173321432817e+01 0.0 
3.173321432817e+01 -1.073615004803e+02 0.0 
0.0 0.0 -4.340674206007e+01 
-6.346390760800e+01 2.595271610506e+01 0.0 
2.595271610506e+01 -1.731306197240e+02 0.0 
0.0 0.0 -7.053220005529e+01 
-6.043467830380e+01 1.725178069896e+01 0.0 
1.725178069896e+01 -8.181562330291e+01 0.0 
0.0 0.0 -3.721877041308e+01 
-1.140401719650e+02 7.637543980767e+00 0.0 
7.637543980767e+00 -3.061562307133e+02 0.0 
0.0 0.0 -1.256589208035e+02 
-1.582927689809e+02 2.012125483397e+00 0.0 
2.012125483397e+00 -3.778252648122e+02 0.0 
0.0 0.0 -1.604354101379e+02 
-1.070246868714e+02 1.636349624742e+01 0.0 
1.636349624742e+01 -2.149000425131e+02 0.0 
0.0 0.0 -9.617741881536e+01 
-4.633220924665e+01 2.135685380900e+01 0.0 
2.135685380900e+01 -1.362740266880e+02 0.0 
0.0 0.0 -4.925469013165e+01 
-1.253482763030e+02 1.249269410832e+01 0.0 
1.249269410832e+01 -3.227735636979e+02 0.0 
0.0 0.0 -1.340365520003e+02 
-1.199373954473e+02 -1.281525710139e+00 0.0 
-1.281525710139e+00 -2.818504752156e+02 0.0 
0.0 0.0 -1.183726775564e+02 
-8.110638371992e+01 2.315676769593e+01 0.0 
2.315676769593e+01 -1.481750793908e+02 0.0 
0.0 0.0 -6.583610421696e+01 
-1.009791347573e+02 1.186015292612e+01 0.0 
1.186015292612e+01 -2.012231541014e+02 0.0 
0.0 0.0 -9.026068665760e+01 
-1.372514148060e+02 2.293574886039e+01 0.0 
2.293574886039e+01 -3.272826739231e+02 0.0 
0.0 0.0 -1.389602266187e+02 
-5.971967175731e+01 2.242000511786e+01 0.0 
2.242000511786e+01 -1.688164289372e+02 0.0 
0.0 0.0 -6.653635430371e+01 
-4.505473919822e+01 3.119622333425e+01 0.0 
3.119622333425e+01 -8.720471422679e+01 0.0 
0.0 0.0 -3.559843964503e+01 
-8.982193023773e+01 1.568991030652e+01 0.0 
1.568991030652e+01 -1.643783438237e+02 0.0 
0.0 0.0 -7.586008221844e+01 
-1.285148671488e+02 9.572004467409e+00 0.0 
9.572004467409e+00 -2.953562870906e+02 0.0 
0.0 0.0 -1.267613462718e+02 
-7.904296788644e+01 2.555426633419e+01 0.0 
2.555426633419e+01 -1.581898011645e+02 0.0 
0.0 0.0 -6.754309761788e+01 
-7.372098781888e+01 1.765172818133e+01 0.0 
1.765172818133e+01 -2.132235500712e+02 0.0 
0.0 0.0 -8.894890622877e+01 
-7.296342183249e+01 1.000021953104e+00 0.0 
1.000021953104e+00 -1.412790817894e+02 0.0 
0.0 0.0 -6.387275108658e+01 
-4.520863270990e+01 -1.552011107250e+01 0.0 
-1.552011107250e+01 -6.947654965970e+01 0.0 
0.0 0.0 -2.798695516260e+01 
-8.118865767696e+01 1.106714008322e+01 0.0 
1.106714008322e+01 -1.421387053047e+02 0.0 
0.0 0.0 -6.615952874633e+01 
-4.973733536014e+01 2.580043842975e+01 0.0 
2.580043842975e+01 -1.402544864270e+02 0.0 
0.0 0.0 -5.374069300735e+01 
-4.001361185410e+01 2.059908207381e+01 0.0 
2.059908207381e+01 -1.279313621370e+02 0.0 
0.0 0.0 -4.779328001886e+01 
-4.106508988934e+01 -1.999855529542e+01 0.0 
-1.999855529542e+01 -1.175468360030e+02 0.0 
0.0 0.0 -4.432549257753e+01 
-1.068359972604e+02 1.088473386545e+01 0.0 
1.088473386545e+01 -2.204991049423e+02 0.0 
0.0 0.0 -9.780053066079e+01 
-8.721938464682e+01 1.675200139906e+01 0.0 
1.675200139906e+01 -1.560877261786e+02 0.0 
0.0 0.0 -7.218246415562e+01 
-5.797720714599e+01 3.203899978301e+01 0.0 
3.203899978301e+01 -1.273345822629e+02 0.0 
0.0 0.0 -5.470788259898e+01 
-1.118684692472e+02 1.263986906992e+01 0.0 
1.263986906992e+01 -2.315209155151e+02 0.0 
0.0 0.0 -1.026168154287e+02 
-1.105206090839e+02 1.802303476678e+01 0.0 
1.802303476678e+01 -2.269332653171e+02 0.0 
0.0 0.0 -1.008361623203e+02 
-8.443837910611e+01 2.160433891025e+01 0.0 
2.160433891025e+01 -1.545330958372e+02 0.0 
0.0 0.0 -6.960821178534e+01 
-1.596502827537e+02 3.769267573426e+00 0.0 
3.769267573426e+00 -3.781363588262e+02 0.0 
0.0 0.0 -1.609359924740e+02 
-7.833944078774e+01 1.712845680631e+01 0.0 
1.712845680631e+01 -2.301964358634e+02 0.0 
0.0 0.0 -9.701044973900e+01 
-8.735110102313e+01 2.018276748290e+01 0.0 
2.018276748290e+01 -1.613847021358e+02 0.0 
0.0 0.0 -7.330748053968e+01 
-6.603787368942e+01 2.707442087374e+01 0.0 
2.707442087374e+01 -1.621681839310e+02 0.0 
0.0 0.0 -6.683932396342e+01 
-8.031377705444e+01 1.689250834651e+01 0.0 
1.689250834651e+01 -2.299968102332e+02 0.0 
0.0 0.0 -9.696249949368e+01 
-4.320503636593e+01 1.846074359848e+01 0.0 
1.846074359848e+01 -1.396973568993e+02 0.0 
0.0 0.0 -5.146376827214e+01 
-7.289136398496e+01 5.075577536859e+00 0.0 
5.075577536859e+00 -1.264662139452e+02 0.0 
0.0 0.0 -5.940727337906e+01 
-6.198042242179e+01 1.887906429885e+01 0.0 
1.887906429885e+01 -1.819113264972e+02 0.0 
0.0 0.0 -7.149845824383e+01 
-5.244422198401e+01 -5.423709718340e+00 0.0 
-5.423709718340e+00 -1.627522868868e+02 0.0 
0.0 0.0 -6.164065487210e+01 
-1.048401071132e+02 1.367516215486e+01 0.0 
1.367516215486e+01 -2.132494208335e+02 0.0 
0.0 0.0 -9.502685838402e+01 
-1.242685650023e+02 5.546710726230e+00 0.0 
5.546710726230e+00 -1.010359363527e+02 0.0 
0.0 0.0 -6.786509157883e+01 
-8.617706078957e+01 1.351430095898e+01 0.0 
1.351430095898e+01 -1.527009193773e+02 0.0 
0.0 0.0 -7.126339405005e+01 
-5.060949172381e+01 2.123000910028e+01 0.0 
2.123000910028e+01 -1.539355647254e+02 0.0 
0.0 0.0 -5.822281098260e+01 
-4.478447561964e+01 2.897700742134e+01 0.0 
2.897700742134e+01 -1.044274923185e+02 0.0 
0.0 0.0 -3.990236253174e+01 
-4.066699005071e+01 1.182392492954e+01 0.0 
1.182392492954e+01 -1.365206481138e+02 0.0 
0.0 0.0 -4.899000346731e+01 
-9.191377856713e+01 1.470675032161e+01 0.0 
1.470675032161e+01 -1.755078030692e+02 0.0 
0.0 0.0 -7.982647449089e+01 
-2.415039424763e+01 -2.792245995303e+00 0.0 
-2.792245995303e+00 -4.201802454465e+01 0.0 
0.0 0.0 -1.601384927158e+01 
-6.126145669493e+01 2.485501456662e+01 0.0 
2.485501456662e+01 -9.481564458912e+01 0.0 
0.0 0.0 -4.291052053649e+01 
-8.478232672509e+01 1.612344849225e+01 0.0 
1.612344849225e+01 -2.458609875763e+02 0.0 
0.0 0.0 -1.043152821823e+02 
-8.543971096844e+01 1.354283146746e+01 0.0 
1.354283146746e+01 -1.544563210413e+02 0.0 
0.0 0.0 -7.109713966399e+01 
-8.106880351191e+01 6.800034319019e+00 0.0 
6.800034319019e+00 -1.453136235654e+02 0.0 
0.0 0.0 -6.751472812319e+01 
-3.504377302391e+01 2.060879202601e+01 0.0 
2.060879202601e+01 -1.206945724812e+02 0.0 
0.0 0.0 -4.923226486130e+01 
-4.903677058084e+01 1.168921162111e-01 0.0 
1.168921162111e-01 -1.621504758029e+02 0.0 
0.0 0.0 -5.970301641194e+01 
-5.258963755579e+01 -1.101356027913e+01 0.0 
-1.101356027913e+01 -1.537593077087e+02 0.0 
0.0 0.0 -5.847480169599e+01 
-5.348434758736e+01 2.753309465867e+01 0.0 
2.753309465867e+01 -7.326029476942e+01 0.0 
0.0 0.0 -3.354079696747e+01 
-1.032973334882e+02 1.462918036977e+01 0.0 
1.462918036977e+01 -2.029441055182e+02 0.0 
0.0 0.0 -9.147243170191e+01 
-6.019567284571e+01 2.760593257714e+01 0.0 
2.760593257714e+01 -9.522838507614e+01 0.0 
0.0 0.0 -4.206718252795e+01 
-6.106695488349e+01 1.955618596508e+01 0.0 
1.955618596508e+01 -1.828371323674e+02 0.0 
0.0 0.0 -7.200585674454e+01 
-5.939710676835e+01 2.342824485157e+01 0.0 
2.342824485157e+01 -1.704188820631e+02 0.0 
0.0 0.0 -6.749046598700e+01 
-3.240534060321e+01 1.566622863072e+01 0.0 
1.566622863072e+01 -1.127481561946e+02 0.0 
0.0 0.0 -4.357238770194e+01 
-7.249167743586e+01 2.766908470217e+01 0.0 
2.766908470217e+01 -1.791621785382e+02 0.0 
0.0 0.0 -7.639119027289e+01 
-4.269954235970e+01 3.158400698043e+01 0.0 
3.158400698043e+01 -7.013001888875e+01 0.0 
0.0 0.0 -2.901838734270e+01 
-1.336024937738e+02 1.710139959300e+01 0.0 
1.710139959300e+01 -3.041834618020e+02 0.0 
0.0 0.0 -1.309357866727e+02 
-1.349341471622e+02 2.002107960376e+01 0.0 
2.002107960376e+01 -3.085249818278e+02 0.0 
0.0 0.0 -1.326377386970e+02 
-8.451832188638e+01 2.569717710040e+01 0.0 
2.569717710040e+01 -1.745794179542e+02 0.0 
0.0 0.0 -7.452176926814e+01 
-4.648886032369e+01 2.248230195387e+01 0.0 
2.248230195387e+01 -1.398630973000e+02 0.0 
0.0 0.0 -5.205630457479e+01 
-4.208420574427e+01 2.732592341061e+01 0.0 
2.732592341061e+01 -1.046530527452e+02 0.0 
0.0 0.0 -3.805629524719e+01 
-9.057451984791e+01 1.936037717992e+01 0.0 
1.936037717992e+01 -1.745393732300e+02 0.0 
0.0 0.0 -7.794251297354e+01 
-4.223527917299e+01 2.286553766099e+01 0.0 
2.286553766099e+01 -1.214258651759e+02 0.0 
0.0 0.0 -4.323079197233e+01 
-4.746844546169e+01 -6.159922332639e+00 0.0 
-6.159922332639e+00 -1.525454816100e+02 0.0 
0.0 0.0 -5.592241034756e+01 
-8.260187796295e+01 2.050502268212e+01 0.0 
2.050502268212e+01 -1.474558289619e+02 0.0 
0.0 0.0 -6.548370768505e+01 
-1.222497095354e+02 6.607219583335e+00 0.0 
6.607219583335e+00 -2.758615945777e+02 0.0 
0.0 0.0 -1.190333912339e+02 
-5.406260743352e+01 2.452216186640e+01 0.0 
2.452216186640e+01 -1.551337000178e+02 0.0 
0.0 0.0 -6.036272374268e+01 
-9.363715643773e+01 1.833247030565e+01 0.0 
1.833247030565e+01 -2.553872369073e+02 0.0 
0.0 0.0 -1.072581384479e+02 
-4.495718627973e+01 3.200644362982e+01 0.0 
3.200644362982e+01 -9.104881592121e+01 0.0 
0.0 0.0 -3.656477482878e+01 
-1.593868694521e+02 1.499490858058e+01 0.0 
1.499490858058e+01 -3.816157939268e+02 0.0 
0.0 0.0 -1.619007990137e+02 
-4.632356176792e+01 2.724109424827e+01 0.0 
2.724109424827e+01 -1.253164670048e+02 0.0 
0.0 0.0 -4.753345925927e+01 
-8.553881548437e+01 2.264918271310e+01 0.0 
2.264918271310e+01 -1.631291378233e+02 0.0 
0.0 0.0 -7.107403791254e+01 
-3.715229745005e+01 1.593884141843e+01 0.0 
1.593884141843e+01 -1.295006158460e+02 0.0 
0.0 0.0 -4.955528705593e+01 
-9.243963882274e+01 7.750999181826e+00 0.0 
7.750999181826e+00 -2.682016939043e+02 0.0 
0.0 0.0 -1.121595644392e+02 
-6.504561216764e+01 2.261682273844e+01 0.0 
2.261682273844e+01 -1.866231265086e+02 0.0 
0.0 0.0 -7.543090765019e+01 
-5.165779507356e+01 -9.352933383112e+00 0.0 
-9.352933383112e+00 -1.553807281899e+02 0.0 
0.0 0.0 -5.760197506428e+01 
-8.473603407435e+01 1.800329995916e+01 0.0 
1.800329995916e+01 -1.479729317575e+02 0.0 
0.0 0.0 -6.829281582586e+01 
-1.393325710440e+02 2.385954439090e+01 0.0 
2.385954439090e+01 -3.211216353234e+02 0.0 
0.0 0.0 -1.377362619102e+02 
-5.557145699201e+01 2.025574141787e+01 0.0 
2.025574141787e+01 -1.680484063256e+02 0.0 
0.0 0.0 -6.483124000148e+01 
-8.367119301428e+01 1.522646831407e+01 0.0 
1.522646831407e+01 -2.433806011246e+02 0.0 
0.0 0.0 -1.024157333661e+02 
-4.154228304283e+01 2.973581723781e+01 0.0 
2.973581723781e+01 -8.845192645749e+01 0.0 
0.0 0.0 -3.355561517988e+01 
-9.055683094799e+01 4.893026500933e+00 0.0 
4.893026500933e+00 -1.783446196151e+02 0.0 
0.0 0.0 -8.027043516894e+01 
-1.096895992995e+02 5.651506251426e+00 0.0 
5.651506251426e+00 -2.972768373294e+02 0.0 
0.0 0.0 -1.216899309886e+02 
-4.783005107921e+01 3.114708027908e+01 0.0 
3.114708027908e+01 -8.759131728183e+01 0.0 
0.0 0.0 -3.702222800920e+01 
-8.845029546346e+01 5.810304562798e+00 0.0 
5.810304562798e+00 -1.699170908936e+02 0.0 
0.0 0.0 -7.711021590710e+01 
-1.433385395523e+02 2.590665825853e+01 0.0 
2.590665825853e+01 -3.342303855286e+02 0.0 
0.0 0.0 -1.428706775243e+02 
-1.200283901237e+02 7.024824538991e+00 0.0 
7.024824538991e+00 -3.158214843355e+02 0.0 
0.0 0.0 -1.303549623377e+02 
-1.381694495912e+02 2.269934465319e+01 0.0 
2.269934465319e+01 -3.168652063085e+02 0.0 
0.0 0.0 -1.361103967699e+02 
-8.974718388852e+01 7.428309600088e+00 0.0 
7.428309600088e+00 -1.692672547827e+02 0.0 
0.0 0.0 -7.730433160136e+01 
-1.099937874410e+02 2.027435834670e+01 0.0 
2.027435834670e+01 -2.307734872105e+02 0.0 
0.0 0.0 -1.018301823954e+02 
-4.544955119595e+01 3.082319942592e+01 0.0 
3.082319942592e+01 -6.848067021195e+01 0.0 
0.0 0.0 -3.031915657795e+01 
-7.899733326764e+01 1.679471282788e+01 0.0 
1.679471282788e+01 -1.271111440848e+02 0.0 
0.0 0.0 -5.942556749925e+01 
-8.737267218153e+01 1.716939967801e+01 0.0 
1.716939967801e+01 -1.603419754275e+02 0.0 
0.0 0.0 -7.265608895296e+01 
-9.000907168985e+01 1.893278760021e+01 0.0 
1.893278760021e+01 -1.688241147872e+02 0.0 
0.0 0.0 -7.703533009997e+01 
-7.487473406667e+01 2.656261471108e+01 0.0 
2.656261471108e+01 -1.538732206152e+02 0.0 
0.0 0.0 -6.477000272226e+01 
-1.462544274092e+02 2.607939924371e+01 0.0 
2.607939924371e+01 -3.437191933107e+02 0.0 
0.0 0.0 -1.465920862160e+02 
-8.683353741877e+01 7.726056768825e+00 0.0 
7.726056768825e+00 -1.603016347935e+02 0.0 
0.0 0.0 -7.374055166368e+01 
-7.995409627274e+01 1.189786492791e+01 0.0 
1.189786492791e+01 -1.325932735385e+02 0.0 
0.0 0.0 -6.282381202097e+01 
-5.624795172466e+01 1.980591318933e+01 0.0 
1.980591318933e+01 -1.667924822200e+02 0.0 
0.0 0.0 -6.393983287442e+01 
-4.592811185363e+01 -1.201081511637e+01 0.0 
-1.201081511637e+01 -9.252122030496e+01 0.0 
0.0 0.0 -3.806628153804e+01 
-7.518728945578e+01 1.388489721977e+01 0.0 
1.388489721977e+01 -1.145411667673e+02 0.0 
0.0 0.0 -5.449938003092e+01 
-5.078178847342e+01 3.218754846559e+01 0.0 
3.218754846559e+01 -1.068904013963e+02 0.0 
0.0 0.0 -4.512446720648e+01 
-6.571899211097e+01 6.088008679767e-01 0.0 
6.088008679767e-01 -1.235761375528e+02 0.0 
0.0 0.0 -5.638853889912e+01 
-5.685711362491e+01 -1.314236734706e+01 0.0 
-1.314236734706e+01 -1.577648160312e+02 0.0 
0.0 0.0 -6.193981994096e+01 
-5.098808464389e+01 2.046120243379e+01 0.0 
2.046120243379e+01 -1.514641256446e+02 0.0 
0.0 0.0 -5.640648079690e+01 
-1.078144694969e+02 1.300163808317e+01 0.0 
1.300163808317e+01 -2.224737899800e+02 0.0 
0.0 0.0 -9.868647784304e+01 
-4.736035584744e+01 3.013763981168e+01 0.0 
3.013763981168e+01 -1.050885878790e+02 0.0 
0.0 0.0 -4.192255706472e+01 
-8.132590342109e+01 1.604932259530e+01 0.0 
1.604932259530e+01 -1.392152466016e+02 0.0 
0.0 0.0 -6.367728971245e+01 
-8.774050004499e+01 1.319533369658e+01 0.0 
1.319533369658e+01 -2.550386734909e+02 0.0 
0.0 0.0 -1.084579911406e+02 
-9.008880388972e+01 -1.300813166429e+00 0.0 
-1.300813166429e+00 -2.408569147236e+02 0.0 
0.0 0.0 -1.000964660622e+02 
-1.509417599237e+02 2.427470648613e+01 0.0 
2.427470648613e+01 -3.577943812119e+02 0.0 
0.0 0.0 -1.522208423407e+02 
-6.921112781474e+01 1.714690463616e+01 0.0 
1.714690463616e+01 -9.833671957975e+01 0.0 
0.0 0.0 -4.612760954484e+01 
-4.612222407133e+01 5.618723642658e+00 0.0 
5.618723642658e+00 -1.570223905507e+02 0.0 
0.0 0.0 -5.757623088737e+01 
-7.255360464376e+01 -1.450795481665e+01 0.0 
-1.450795481665e+01 -1.749270851914e+02 0.0 
0.0 0.0 -7.310621130927e+01 
-4.789057969297e+01 2.936128042027e+01 0.0 
2.936128042027e+01 -6.802479829938e+01 0.0 
0.0 0.0 -3.119067734564e+01 
-4.816298914848e+01 3.266001116558e+01 0.0 
3.266001116558e+01 -8.780857781253e+01 0.0 
0.0 0.0 -3.844787185081e+01 
-1.171183118382e+02 1.879452404632e+01 0.0 
1.879452404632e+01 -2.481418675868e+02 0.0 
0.0 0.0 -1.091780538275e+02 
-8.630398525165e+01 2.315518098999e+01 0.0 
2.315518098999e+01 -1.689617176695e+02 0.0 
0.0 0.0 -7.483910602626e+01 
-6.168417668696e+01 2.236535045783e+01 0.0 
2.236535045783e+01 -8.258668159756e+01 0.0 
0.0 0.0 -3.754899399799e+01 
-7.460590642119e+01 1.456897247904e+01 0.0 
1.456897247904e+01 -1.179777196673e+02 0.0 
0.0 0.0 -5.453544115775e+01 
-1.555482105310e+02 1.954274106219e+01 0.0 
1.954274106219e+01 -3.722707486008e+02 0.0 
0.0 0.0 -1.579456877395e+02 
-1.447096617083e+02 1.945755878095e+01 0.0 
1.945755878095e+01 -3.522817576121e+02 0.0 
0.0 0.0 -1.486974257961e+02 
-1.151552053657e+02 1.625208456582e+01 0.0 
1.625208456582e+01 -2.465252673914e+02 0.0 
0.0 0.0 -1.081041418271e+02 
-1.064617055443e+02 1.385991981360e+01 0.0 
1.385991981360e+01 -2.125735587562e+02 0.0 
0.0 0.0 -9.531057929017e+01 
-8.949066793125e+01 -5.044328864290e+00 0.0 
-5.044328864290e+00 -2.360996961017e+02 0.0 
0.0 0.0 -9.957372506074e+01 
-6.269058381780e+01 2.846309437018e+01 0.0 
2.846309437018e+01 -1.130084561068e+02 0.0 
0.0 0.0 -4.880022600098e+01 
-4.325633031644e+01 1.750927024410e+01 0.0 
1.750927024410e+01 -1.362949427088e+02 0.0 
0.0 0.0 -4.856900037354e+01 
-4.820930024268e+01 1.647505696795e+01 0.0 
1.647505696795e+01 -1.504697460676e+02 0.0 
0.0 0.0 -5.449670291058e+01 
-8.284748277035e+01 2.440367693074e+01 0.0 
2.440367693074e+01 -1.632897204370e+02 0.0 
0.0 0.0 -7.124915663671e+01 
-8.913140789109e+01 9.272863572192e+00 0.0 
9.272863572192e+00 -2.599410048982e+02 0.0 
0.0 0.0 -1.096979877413e+02 
-9.225049629094e+01 -6.477337030594e+00 0.0 
-6.477337030594e+00 -2.047306035204e+02 0.0 
0.0 0.0 -8.453177742397e+01 
-1.142981653596e+02 1.413208793999e+01 0.0 
1.413208793999e+01 -2.435152769122e+02 0.0 
0.0 0.0 -1.069440326815e+02 
-4.802263443028e+01 -9.503004780000e-01 0.0 
-9.503004780000e-01 -1.561658143598e+02 0.0 
0.0 0.0 -5.781018148992e+01 
-7.053276997051e+01 2.728477142697e+01 0.0 
2.728477142697e+01 -1.501016691031e+02 0.0 
0.0 0.0 -6.321771618722e+01 
-8.502701830708e+01 1.867206297207e+01 0.0 
1.867206297207e+01 -1.534176091748e+02 0.0 
0.0 0.0 -6.900618807187e+01 
-6.461864602794e+01 2.843355440235e+01 0.0 
2.843355440235e+01 -1.303401460502e+02 0.0 
0.0 0.0 -5.533918220774e+01 
-1.373034488614e+02 2.148831976077e+01 0.0 
2.148831976077e+01 -3.129910412267e+02 0.0 
0.0 0.0 -1.346883470264e+02 
-1.335984366844e+02 1.827149849683e+01 0.0 
1.827149849683e+01 -3.057707312655e+02 0.0 
0.0 0.0 -1.314107503850e+02 
-1.287755358280e+02 1.882169580571e+01 0.0 
1.882169580571e+01 -2.853218619256e+02 0.0 
0.0 0.0 -1.238292193261e+02 
-9.636268803967e+01 -1.686849624573e+00 0.0 
-1.686849624573e+00 -2.540796144885e+02 0.0 
0.0 0.0 -1.071292653055e+02 
-1.095212767663e+02 1.044012924950e+01 0.0 
1.044012924950e+01 -2.301203440228e+02 0.0 
0.0 0.0 -1.014924862367e+02 
-4.719853875667e+01 3.268043871764e+01 0.0 
3.268043871764e+01 -8.829821808444e+01 0.0 
0.0 0.0 -3.768686232977e+01 
-5.336752544011e+01 1.603938425268e+01 0.0 
1.603938425268e+01 -1.648902508177e+02 0.0 
0.0 0.0 -6.153613076049e+01 
-3.641947215280e+01 1.271980936745e+01 0.0 
1.271980936745e+01 -1.246395675146e+02 0.0 
0.0 0.0 -4.541951972514e+01 
-6.449904262865e+01 2.536322486561e+01 0.0 
2.536322486561e+01 -9.943114086870e+01 0.0 
0.0 0.0 -4.393995550404e+01 
-7.254130249997e+01 4.395131218938e+00 0.0 
4.395131218938e+00 -1.259883472154e+02 0.0 
0.0 0.0 -5.915889491460e+01 
-8.730036637815e+01 5.020181130603e+00 0.0 
5.020181130603e+00 -1.678980407833e+02 0.0 
0.0 0.0 -7.615952214843e+01 
-1.489682885161e+02 1.476509425413e+01 0.0 
1.476509425413e+01 -3.648548071323e+02 0.0 
0.0 0.0 -1.537469286945e+02 
-1.152433309016e+02 1.823573437979e+01 0.0 
1.823573437979e+01 -2.502664397383e+02 0.0 
0.0 0.0 -1.092529311920e+02 
-8.805830109855e+01 1.259553671545e+01 0.0 
1.259553671545e+01 -1.629546679107e+02 0.0 
0.0 0.0 -7.490389070277e+01 
-9.268500090069e+01 1.802346949244e+01 0.0 
1.802346949244e+01 -1.812067462517e+02 0.0 
0.0 0.0 -8.139355608119e+01 
-4.003762793641e+01 1.304737356284e+01 0.0 
1.304737356284e+01 -1.385292244218e+02 0.0 
0.0 0.0 -5.135373397136e+01 
-3.567422336858e+01 -9.664694977444e+00 0.0 
-9.664694977444e+00 -4.709833304287e+01 0.0 
0.0 0.0 -2.006773435532e+01 
-6.798701339424e+01 2.726512209103e+01 0.0 
2.726512209103e+01 -1.757214563599e+02 0.0 
0.0 0.0 -7.418056736218e+01 
-7.641093129118e+01 2.607026001979e+01 0.0 
2.607026001979e+01 -1.695990507660e+02 0.0 
0.0 0.0 -7.094121304772e+01 
-6.731209335262e+01 2.547552692131e+01 0.0 
2.547552692131e+01 -1.755610765714e+02 0.0 
0.0 0.0 -7.242007702548e+01 
-4.440968395567e+01 3.405928859412e+01 0.0 
3.405928859412e+01 -5.474305573211e+01 0.0 
0.0 0.0 -2.607176101268e+01 
-7.172403690866e+01 3.454576033940e-01 0.0 
3.454576033940e-01 -1.400994571115e+02 0.0 
0.0 0.0 -6.314704820606e+01 
-4.260853749017e+01 -1.018581389672e+01 0.0 
-1.018581389672e+01 -8.467782555535e+01 0.0 
0.0 0.0 -3.386746966041e+01 
-4.920653852787e+01 2.929249179384e+01 0.0 
2.929249179384e+01 -1.244471569035e+02 0.0 
0.0 0.0 -4.862039595230e+01 
-1.632563164821e+02 1.513641971132e+01 0.0 
1.513641971132e+01 -3.822647384582e+02 0.0 
0.0 0.0 -1.632563164821e+02 
-9.714692722869e+01 1.774509150150e+01 0.0 
1.774509150150e+01 -2.673233334530e+02 0.0 
0.0 0.0 -1.093834507902e+02 
-7.674173524387e+01 8.720460967030e+00 0.0 
8.720460967030e+00 -1.308763433439e+02 0.0 
0.0 0.0 -6.148873171463e+01 
-1.723808706937e+01 -7.631259425827e-01 0.0 
-7.631259425827e-01 -5.896232610117e+01 0.0 
0.0 0.0 -2.107028501155e+01 
-7.850940078710e+01 2.660042411472e+01 0.0 
2.660042411472e+01 -1.545756282337e+02 0.0 
0.0 0.0 -6.687544075840e+01 
-6.327099848729e+01 2.424572578398e+01 0.0 
2.424572578398e+01 -1.718076121960e+02 0.0 
0.0 0.0 -6.986447900036e+01 
-9.310685198898e+01 1.777150228584e+01 0.0 
1.777150228584e+01 -1.765721427180e+02 0.0 
0.0 0.0 -8.050369841210e+01 
-1.404167605121e+02 2.457040427067e+01 0.0 
2.457040427067e+01 -3.252955648247e+02 0.0 
0.0 0.0 -1.393136976010e+02 
-7.700834983695e+01 1.312965501874e+01 0.0 
1.312965501874e+01 -1.257558860755e+02 0.0 
0.0 0.0 -5.847435464946e+01 
-8.934369092272e+01 2.191468676175e+01 0.0 
2.191468676175e+01 -1.751954789626e+02 0.0 
0.0 0.0 -7.835628102381e+01 
-8.789932450331e+01 -6.635427784032e+00 0.0 
-6.635427784032e+00 -2.037717476971e+02 0.0 
0.0 0.0 -8.262895855563e+01 
-1.106572294999e+02 1.253584245719e+01 0.0 
1.253584245719e+01 -2.318395293542e+02 0.0 
0.0 0.0 -1.023490276562e+02 
-9.520662263829e+01 1.312803254859e+00 0.0 
1.312803254859e+00 -2.593403071011e+02 0.0 
0.0 0.0 -1.071497440211e+02 
-1.423334838692e+02 2.555783511017e+01 0.0 
2.555783511017e+01 -3.297416560181e+02 0.0 
0.0 0.0 -1.412225419662e+02 
-1.336968374299e+02 2.108145899398e+01 0.0 
2.108145899398e+01 -3.132926206697e+02 0.0 
0.0 0.0 -1.336968374299e+02 
-1.283795114507e+02 1.567666597103e+01 0.0 
1.567666597103e+01 -3.008855267184e+02 0.0 
0.0 0.0 -1.283795114507e+02 
-1.300658955891e+02 1.835724414203e+01 0.0 
1.835724414203e+01 -3.048204230411e+02 0.0 
0.0 0.0 -1.300658955891e+02 
-9.553508962134e+01 1.662812280656e+01 0.0 
1.662812280656e+01 -1.885745039429e+02 0.0 
0.0 0.0 -8.483287806926e+01 
-1.128878546679e+02 1.482541708605e+01 0.0 
1.482541708605e+01 -2.332150210666e+02 0.0 
0.0 0.0 -1.034308627204e+02 
-1.187319053260e+02 1.784687058226e+01 0.0 
1.784687058226e+01 -2.594447074896e+02 0.0 
0.0 0.0 -1.130529838447e+02 
-6.698295555825e+01 2.964415270684e+01 0.0 
2.964415270684e+01 -1.309295671465e+02 0.0 
0.0 0.0 -5.726954120529e+01 
-6.440336651127e+01 2.781480566913e+01 0.0 
2.781480566913e+01 -1.129883371419e+02 0.0 
0.0 0.0 -5.015419535757e+01 
-8.870272116436e+01 -6.201730349182e+00 0.0 
-6.201730349182e+00 -1.925352706871e+02 0.0 
0.0 0.0 -7.893830281937e+01 
-1.165692804655e+02 1.658410740238e+01 0.0 
1.658410740238e+01 -2.449980116741e+02 0.0 
0.0 0.0 -1.080701876419e+02 
-1.447257281558e+02 2.615867932275e+01 0.0 
2.615867932275e+01 -3.388857583415e+02 0.0 
0.0 0.0 -1.446834459492e+02 
-1.132551226529e+02 1.199716104433e+01 0.0 
1.199716104433e+01 -2.411207026902e+02 0.0 
0.0 0.0 -1.059127476029e+02 
-8.754863918522e+01 1.755929619700e+01 0.0 
1.755929619700e+01 -2.492839831498e+02 0.0 
0.0 0.0 -1.033184068996e+02 
-1.154855215435e+02 1.421400066807e+01 0.0 
1.421400066807e+01 -2.425011670464e+02 0.0 
0.0 0.0 -1.069960065770e+02 
-1.011084692785e+02 2.362699786501e+01 0.0 
2.362699786501e+01 -2.459681398006e+02 0.0 
0.0 0.0 -1.037229827237e+02 
-7.555057743339e+01 2.893455089312e+01 0.0 
2.893455089312e+01 -1.675975408648e+02 0.0 
0.0 0.0 -7.203883774966e+01 
-6.539113225438e+01 2.184117856828e+01 0.0 
2.184117856828e+01 -9.915432233384e+01 0.0 
0.0 0.0 -4.457868630866e+01 
-4.433891690621e+01 2.959402933982e+01 0.0 
2.959402933982e+01 -1.106201210837e+02 0.0 
0.0 0.0 -4.244167973261e+01 
-1.215757632170e+02 1.013129892691e+01 0.0 
1.013129892691e+01 -2.778860691022e+02 0.0 
0.0 0.0 -1.194385496958e+02 
-6.218445536549e+01 3.132492619922e+01 0.0 
3.132492619922e+01 -1.288317131512e+02 0.0 
0.0 0.0 -5.581125590282e+01 
-1.321389425435e+02 2.292702671178e+01 0.0 
2.292702671178e+01 -3.097063904562e+02 0.0 
0.0 0.0 -1.321535998999e+02 
-8.526810686709e+01 -7.079716218731e+00 0.0 
-7.079716218731e+00 -1.916463181134e+02 0.0 
0.0 0.0 -7.745724837519e+01 
-5.696371885298e+01 -1.660426151011e+01 0.0 
-1.660426151011e+01 -1.453251090803e+02 0.0 
0.0 0.0 -5.736076228601e+01 
-1.535688504422e+02 1.325719575710e+01 0.0 
1.325719575710e+01 -3.683144888446e+02 0.0 
0.0 0.0 -1.561650017860e+02 
-5.208185688090e+01 3.082890846777e+01 0.0 
3.082890846777e+01 -1.244327751802e+02 0.0 
0.0 0.0 -5.040354386034e+01 
-1.355321196622e+02 2.228194080879e+01 0.0 
2.228194080879e+01 -3.175749458785e+02 0.0 
0.0 0.0 -1.355321196622e+02 
-1.260341096037e+02 1.640478149729e+01 0.0 
1.640478149729e+01 -2.865243960912e+02 0.0 
0.0 0.0 -1.233675517085e+02 
-9.075552917091e+01 2.254538681994e+01 0.0 
2.254538681994e+01 -1.835625314238e+02 0.0 
0.0 0.0 -7.996811400200e+01 
-2.390867403991e+01 -5.356910566457e+00 0.0 
-5.356910566457e+00 -2.780544459379e+01 0.0 
0.0 0.0 -1.317193488486e+01 
-1.392948770176e+02 2.397674742381e+01 0.0 
2.397674742381e+01 -3.263547130412e+02 0.0 
0.0 0.0 -1.392948770176e+02 
-1.513755404183e+02 1.635944211419e+01 0.0 
1.635944211419e+01 -3.624485096935e+02 0.0 
0.0 0.0 -1.537472150335e+02 
-5.092719982743e+01 -1.348264081209e+01 0.0 
-1.348264081209e+01 -1.427616869442e+02 0.0 
0.0 0.0 -5.331029743365e+01 
-9.145260434152e+01 1.592935053236e+01 0.0 
1.592935053236e+01 -2.611438936821e+02 0.0 
0.0 0.0 -1.076997407047e+02 
-1.519981015469e+02 2.323092953475e+01 0.0 
2.323092953475e+01 -3.616669330406e+02 0.0 
0.0 0.0 -1.536995103763e+02 
-1.280078184921e+01 -9.402085479293e-01 0.0 
-9.402085479293e-01 -9.081679855057e+00 0.0 
0.0 0.0 -7.134651654067e+00 
-6.895487183139e+01 3.043587236412e+01 0.0 
3.043587236412e+01 -1.484053876854e+02 0.0 
0.0 0.0 -6.412314889657e+01 
-9.321134725895e+01 2.111443983122e+01 0.0 
2.111443983122e+01 -1.890407235028e+02 0.0 
0.0 0.0 -8.323916642616e+01 
-8.791336248876e+01 2.408957739090e+01 0.0 
2.408957739090e+01 -1.787767284609e+02 0.0 
0.0 0.0 -7.663000197145e+01 
-8.818306700131e+01 2.091173679582e+01 0.0 
2.091173679582e+01 -1.684666641854e+02 0.0 
0.0 0.0 -7.450031588077e+01 
-4.649482856143e+01 3.076591583371e+01 0.0 
3.076591583371e+01 -1.082750867176e+02 0.0 
0.0 0.0 -4.242508957705e+01 
-1.435383071026e+02 2.490388319543e+01 0.0 
2.490388319543e+01 -3.362560499061e+02 0.0 
0.0 0.0 -1.435383071026e+02 
-5.891294590460e+01 1.575759627569e+01 0.0 
1.575759627569e+01 -1.794192820694e+02 0.0 
0.0 0.0 -6.893527482719e+01 
-2.871845988137e+01 5.482889013771e+00 0.0 
5.482889013771e+00 -1.177710792904e+02 0.0 
0.0 0.0 -4.680680716916e+01 
-1.570010626801e+02 4.198934464786e+00 0.0 
4.198934464786e+00 -3.770624874059e+02 0.0 
0.0 0.0 -1.598190650258e+02 
-2.090819732214e+01 -2.818926632958e+00 0.0 
-2.818926632958e+00 -2.616530308901e+01 0.0 
0.0 0.0 -1.130545268054e+01 
-7.184992525049e+01 1.641146880657e+01 0.0 
1.641146880657e+01 -1.107797734912e+02 0.0 
0.0 0.0 -5.055436613378e+01 
-3.988552586683e+01 -2.131168390173e+01 0.0 
-2.131168390173e+01 -9.959597418649e+01 0.0 
0.0 0.0 -3.854662583487e+01 
-7.224236741879e+01 1.007085856295e+01 0.0 
1.007085856295e+01 -1.129383628500e+02 0.0 
0.0 0.0 -5.337455764444e+01 
-1.569715537491e+02 1.806394475618e+01 0.0 
1.806394475618e+01 -3.756456044581e+02 0.0 
0.0 0.0 -1.593851474622e+02 
-1.480512038255e+02 2.472251991519e+01 0.0 
2.472251991519e+01 -3.467861422596e+02 0.0 
0.0 0.0 -1.480512038255e+02 
-8.926815029489e+01 1.591532085114e+01 0.0 
1.591532085114e+01 -1.675915733228e+02 0.0 
0.0 0.0 -7.620382623675e+01 
-3.928638190110e+01 -2.295353358202e+01 0.0 
-2.295353358202e+01 -7.101937262423e+01 0.0 
0.0 0.0 -2.674560962904e+01 
-2.918502096923e+01 9.558240118252e+00 0.0 
9.558240118252e+00 -1.226953391728e+02 0.0 
0.0 0.0 -4.792116305236e+01 
-4.914098529998e+01 -2.439638930266e+01 0.0 
-2.439638930266e+01 -8.846372925920e+01 0.0 
0.0 0.0 -3.537863683437e+01 
-1.334870987673e+02 5.104866148825e+00 0.0 
5.104866148825e+00 -3.333446373814e+02 0.0 
0.0 0.0 -1.396495208446e+02 
-7.339028375572e+01 4.840887079457e+00 0.0 
4.840887079457e+00 -1.269620964874e+02 0.0 
0.0 0.0 -5.970571407294e+01 
-8.197361482054e+01 1.131716310339e+01 0.0 
1.131716310339e+01 -1.412522176128e+02 0.0 
0.0 0.0 -6.656774972999e+01 
-1.522232335368e+02 2.366902579835e+01 0.0 
2.366902579835e+01 -3.565208782525e+02 0.0 
0.0 0.0 -1.522232335368e+02 
-7.194809318989e+01 4.230177507843e+00 0.0 
4.230177507843e+00 -1.262767912973e+02 0.0 
0.0 0.0 -5.906746534615e+01 
-1.318289717963e+02 1.543254380445e+01 0.0 
1.543254380445e+01 -3.018213261548e+02 0.0 
0.0 0.0 -1.296950893853e+02 
-1.057636341039e+02 2.143430033556e+01 0.0 
2.143430033556e+01 -2.595921553486e+02 0.0 
0.0 0.0 -1.092067368357e+02 
-8.282083819081e+01 3.809942102350e+00 0.0 
3.809942102350e+00 -1.578963644218e+02 0.0 
0.0 0.0 -7.181516078379e+01 
-5.017800668532e+01 3.212645129390e+01 0.0 
3.212645129390e+01 -8.739305924021e+01 0.0 
0.0 0.0 -3.927214500185e+01 
-9.206872745545e+01 1.527272414063e+01 0.0 
1.527272414063e+01 -2.616993696950e+02 0.0 
0.0 0.0 -1.100363406774e+02 
-3.589671815186e+01 2.152723952828e+01 0.0 
2.152723952828e+01 -1.080708475777e+02 0.0 
0.0 0.0 -3.765379273162e+01 
-1.557618088227e+02 2.183190125400e+01 0.0 
2.183190125400e+01 -3.647775539196e+02 0.0 
0.0 0.0 -1.557618088227e+02 
-1.318249838388e+02 1.965654273502e+01 0.0 
1.965654273502e+01 -3.089249622906e+02 0.0 
0.0 0.0 -1.318249838388e+02 
-1.293232757966e+02 1.707890980921e+01 0.0 
1.707890980921e+01 -3.030876435253e+02 0.0 
0.0 0.0 -1.293232757966e+02 
-1.016582287631e+02 -1.100510188074e+00 0.0 
-1.100510188074e+00 -2.620656879813e+02 0.0 
0.0 0.0 -1.097439676144e+02 
-8.454123740923e+01 -5.644294515870e+00 0.0 
-5.644294515870e+00 -1.802989714948e+02 0.0 
0.0 0.0 -7.328551387880e+01 
-7.217283497552e+01 2.625661869271e+01 0.0 
2.625661869271e+01 -1.658170307030e+02 0.0 
0.0 0.0 -6.932281112417e+01 
-9.941609191309e+01 9.570392822545e-01 0.0 
9.570392822545e-01 -2.678334406161e+02 0.0 
0.0 0.0 -1.097748597588e+02 
-1.588482375114e+02 1.951303036293e+01 0.0 
1.951303036293e+01 -3.719792208600e+02 0.0 
0.0 0.0 -1.588482375114e+02 
-4.520907011680e+01 2.567795569068e+01 0.0 
2.567795569068e+01 -1.207211852961e+02 0.0 
0.0 0.0 -4.435720524105e+01 
-5.272315139383e+01 -4.132610210507e+00 0.0 
-4.132610210507e+00 -1.666140982829e+02 0.0 
0.0 0.0 -6.237303306880e+01 
-5.653893210175e+01 -7.316767072154e+00 0.0 
-7.316767072154e+00 -1.707590805917e+02 0.0 
0.0 0.0 -6.550108854813e+01 
-8.639983940842e+01 3.795083416057e+00 0.0 
3.795083416057e+00 -1.687163570473e+02 0.0 
0.0 0.0 -7.613485893671e+01 
-1.605848436722e+02 1.342439836665e+01 0.0 
1.342439836665e+01 -3.840822116809e+02 0.0 
0.0 0.0 -1.630001166059e+02 
-5.072440247086e+01 -2.473628779629e+01 0.0 
-2.473628779629e+01 -6.361188902922e+01 0.0 
0.0 0.0 -2.857386231858e+01 
-1.618804771221e+02 1.657589180662e+01 0.0 
1.657589180662e+01 -3.790544466183e+02 0.0 
0.0 0.0 -1.618804771221e+02 
-5.549251469100e+01 -1.133614728551e+01 0.0 
-1.133614728551e+01 -1.592191592002e+02 0.0 
0.0 0.0 -6.123034425447e+01 
-1.375941951629e+02 2.329528428756e+01 0.0 
2.329528428756e+01 -3.223864553801e+02 0.0 
0.0 0.0 -1.375941951629e+02 
-1.206839285659e+02 2.027636724331e+01 0.0 
2.027636724331e+01 -2.608638359404e+02 0.0 
0.0 0.0 -1.140643293519e+02 
-1.334824921004e+01 3.529961895625e-01 0.0 
3.529961895625e-01 -9.304429092267e+00 0.0 
0.0 0.0 -5.513796202680e+00 
-7.020284412343e+01 3.006557993272e+01 0.0 
3.006557993272e+01 -1.649632779778e+02 0.0 
0.0 0.0 -7.047995641249e+01 
-1.145348998152e+02 1.215425750032e+01 0.0 
1.215425750032e+01 -2.414225936868e+02 0.0 
0.0 0.0 -1.063872480506e+02 
-1.415017087872e+02 2.462573205846e+01 0.0 
2.462573205846e+01 -3.315039871701e+02 0.0 
0.0 0.0 -1.415017087872e+02 
-9.614176538084e+01 1.959667856646e+01 0.0 
1.959667856646e+01 -1.893913625724e+02 0.0 
0.0 0.0 -8.525993838596e+01 
-1.092055787218e+02 2.061861807316e+01 0.0 
2.061861807316e+01 -2.723719790274e+02 0.0 
0.0 0.0 -1.140732673248e+02 
-4.319144143764e+01 3.145283375897e+01 0.0 
3.145283375897e+01 -9.457251193398e+01 0.0 
0.0 0.0 -3.763929086027e+01 
-1.424156872708e+02 1.468818005344e+01 0.0 
1.468818005344e+01 -3.491152488705e+02 0.0 
0.0 0.0 -1.470592808424e+02 
-5.870425139181e+01 -1.238576226888e+01 0.0 
-1.238576226888e+01 -1.622180186247e+02 0.0 
0.0 0.0 -6.438742286503e+01 
-6.114291215355e+01 -1.102869094680e+01 0.0 
-1.102869094680e+01 -1.730451261987e+02 0.0 
0.0 0.0 -6.942732928223e+01 
-5.138799542349e+01 -2.719605635998e+01 0.0 
-2.719605635998e+01 -4.832603041065e+01 0.0 
0.0 0.0 -2.733828905794e+01 
-1.457604109418e+02 2.492909606284e+01 0.0 
2.492909606284e+01 -3.414409588642e+02 0.0 
0.0 0.0 -1.457604109418e+02 
-3.903999358118e+01 1.899350222221e+01 0.0 
1.899350222221e+01 -1.221934735506e+02 0.0 
0.0 0.0 -4.311459407243e+01 
-1.266279695391e+02 9.933918170742e+00 0.0 
9.933918170742e+00 -3.257035590465e+02 0.0 
0.0 0.0 -1.352994585757e+02 
-8.017597245395e+01 4.941640710903e+00 0.0 
4.941640710903e+00 -1.482933490396e+02 0.0 
0.0 0.0 -6.814079644805e+01 
-6.007910868797e+01 -1.790755256943e+01 0.0 
-1.790755256943e+01 -1.366067013784e+02 0.0 
0.0 0.0 -5.671432142666e+01 
-5.691286473947e+01 -8.582080009119e+00 0.0 
-8.582080009119e+00 -1.681958684717e+02 0.0 
0.0 0.0 -6.540974442249e+01 
-9.238956661088e+01 2.078648884611e+01 0.0 
2.078648884611e+01 -1.821021931609e+02 0.0 
0.0 0.0 -8.194752793154e+01 
-1.540676264591e+02 2.289023360811e+01 0.0 
2.289023360811e+01 -3.608244617378e+02 0.0 
0.0 0.0 -1.540676264591e+02 
-8.651466166928e+01 -5.967283356680e+00 0.0 
-5.967283356680e+00 -1.877529193661e+02 0.0 
0.0 0.0 -7.605043130111e+01 
-1.086817320556e+02 4.605255454801e+00 0.0 
4.605255454801e+00 -2.893755138891e+02 0.0 
0.0 0.0 -1.195977635136e+02 
-8.620942225137e+01 2.606628917897e+01 0.0 
2.606628917897e+01 -1.901408676383e+02 0.0 
0.0 0.0 -8.080754202932e+01 
-9.217748261499e+01 5.514048226604e+00 0.0 
5.514048226604e+00 -2.620939568041e+02 0.0 
0.0 0.0 -1.111426355217e+02 
-5.746642100723e+01 -3.440192217699e+00 0.0 
-3.440192217699e+00 -1.763812945376e+02 0.0 
0.0 0.0 -6.808058637012e+01 
-1.020356206024e+02 1.689940759316e+00 0.0 
1.689940759316e+00 -2.717198319781e+02 0.0 
0.0 0.0 -1.137902531797e+02 
-8.052415801813e+01 2.554992662576e+01 0.0 
2.554992662576e+01 -1.738174918578e+02 0.0 
0.0 0.0 -7.320880039288e+01 
-1.030492156598e+02 2.391976150495e+01 0.0 
2.391976150495e+01 -2.375557390589e+02 0.0 
0.0 0.0 -1.017814864156e+02 
-1.025545707342e+02 1.530796408724e+01 0.0 
1.530796408724e+01 -2.787925589576e+02 0.0 
0.0 0.0 -1.158911089658e+02 
-8.184334545784e+01 2.732772490047e+01 0.0 
2.732772490047e+01 -1.865172440981e+02 0.0 
0.0 0.0 -7.965771347738e+01 
-8.309746353940e+01 -7.683949655368e+00 0.0 
-7.683949655368e+00 -1.957296649442e+02 0.0 
0.0 0.0 -7.970981566447e+01 
-4.797716222259e+01 2.757780308375e+01 0.0 
2.757780308375e+01 -1.211147608307e+02 0.0 
0.0 0.0 -4.641853526377e+01 
-8.210492070067e+01 -7.131623242982e+00 0.0 
-7.131623242982e+00 -1.793646843408e+02 0.0 
0.0 0.0 -7.225026814016e+01 
-1.045779734392e+02 2.281841353147e+01 0.0 
2.281841353147e+01 -2.594400408811e+02 0.0 
0.0 0.0 -1.088054042961e+02 
-8.059590512890e+01 1.382852707686e+01 0.0 
1.382852707686e+01 -2.402923581013e+02 0.0 
0.0 0.0 -1.015892008260e+02 
-1.582542453205e+02 1.664666328797e+01 0.0 
1.664666328797e+01 -3.787994515601e+02 0.0 
0.0 0.0 -1.607161090642e+02 
-1.181598520442e+02 1.367201096672e+01 0.0 
1.367201096672e+01 -2.519627580676e+02 0.0 
0.0 0.0 -1.106367830335e+02 
-5.437725778427e+01 -1.497114075690e+01 0.0 
-1.497114075690e+01 -1.211498369483e+02 0.0 
0.0 0.0 -4.901415874869e+01 
-1.604679825961e+02 1.800957455715e+01 0.0 
1.800957455715e+01 -3.757586260575e+02 0.0 
0.0 0.0 -1.604679825961e+02 
-1.479752861846e+02 1.637451238825e+01 0.0 
1.637451238825e+01 -3.621076839999e+02 0.0 
0.0 0.0 -1.526248910553e+02 
-7.412788901125e+01 2.580438828293e+01 0.0 
2.580438828293e+01 -1.933601822231e+02 0.0 
0.0 0.0 -8.212583437686e+01 
-3.370796312131e+01 -1.423578163442e+01 0.0 
-1.423578163442e+01 -3.508927038350e+01 0.0 
0.0 0.0 -1.438782905561e+01 
-1.614419683175e+02 1.182844723378e+01 0.0 
1.182844723378e+01 -3.860794893597e+02 0.0 
0.0 0.0 -1.638564373032e+02 
-1.189545054470e+02 1.575349178543e+01 0.0 
1.575349178543e+01 -2.535949473090e+02 0.0 
0.0 0.0 -1.113648358268e+02 
-5.452691119201e+01 -1.436100248929e+01 0.0 
-1.436100248929e+01 -1.455841361167e+02 0.0 
0.0 0.0 -5.599970505500e+01 
-1.643314201979e+02 1.363333459060e+01 0.0 
1.363333459060e+01 -3.847733137951e+02 0.0 
0.0 0.0 -1.643314201979e+02 
-1.068140358691e+02 2.083857289682e+00 0.0 
2.083857289682e+00 -2.800313923362e+02 0.0 
0.0 0.0 -1.160371715812e+02 
-6.901928534347e+01 2.513518661058e+01 0.0 
2.513518661058e+01 -1.165739108404e+02 0.0 
0.0 0.0 -5.173890404331e+01 
-8.403237033295e+01 1.046170384315e+01 0.0 
1.046170384315e+01 -1.511800803614e+02 0.0 
0.0 0.0 -7.016373520832e+01 
-7.667567419263e+01 1.500374414486e+01 0.0 
1.500374414486e+01 -2.255752415893e+02 0.0 
0.0 0.0 -9.465305382891e+01 
-9.556377249374e+01 -4.117120446422e+00 0.0 
-4.117120446422e+00 -2.438137566688e+02 0.0 
0.0 0.0 -1.026891404197e+02 
-9.544372949067e+01 8.327297790051e+00 0.0 
8.327297790051e+00 -2.696072374148e+02 0.0 
0.0 0.0 -1.134013731857e+02 
-9.959772113144e+01 1.280299903573e+01 0.0 
1.280299903573e+01 -1.917476458060e+02 0.0 
0.0 0.0 -8.700361008125e+01 
-7.623720315650e+01 1.979155218978e+01 0.0 
1.979155218978e+01 -1.262560468466e+02 0.0 
0.0 0.0 -5.621189338161e+01 
-1.080153747083e+02 1.674185025596e+01 0.0 
1.674185025596e+01 -2.852828391178e+02 0.0 
0.0 0.0 -1.177190907230e+02 
-7.902019699115e+01 8.817845492056e-01 0.0 
8.817845492056e-01 -1.571652384227e+02 0.0 
0.0 0.0 -7.045563062415e+01 
-8.778623981070e+01 -8.235993936113e+00 0.0 
-8.235993936113e+00 -1.967522048138e+02 0.0 
0.0 0.0 -8.190541886242e+01 
-9.673210477322e+01 1.348899111261e+01 0.0 
1.348899111261e+01 -2.721419187936e+02 0.0 
0.0 0.0 -1.137080795332e+02 
-6.496442757619e+01 -1.562241499673e+01 0.0 
-1.562241499673e+01 -1.667204631008e+02 0.0 
0.0 0.0 -6.880263363554e+01 
-1.097684939284e+02 -1.772196000226e+00 0.0 
-1.772196000226e+00 -2.702525911103e+02 0.0 
0.0 0.0 -1.121948559204e+02 
-1.570676463244e+01 -1.509694267591e+00 0.0 
-1.509694267591e+00 -9.003490093248e+00 0.0 
0.0 0.0 -6.241096825159e+00 
-5.077379950857e+01 2.910716660252e+01 0.0 
2.910716660252e+01 -1.222772432224e+02 0.0 
0.0 0.0 -4.883612374075e+01 
-6.084053490995e+01 -1.463861470579e+01 0.0 
-1.463861470579e+01 -1.618887883230e+02 0.0 
0.0 0.0 -6.544752746169e+01 
-9.236179558469e+01 -5.715785880693e+00 0.0 
-5.715785880693e+00 -2.118495271227e+02 0.0 
0.0 0.0 -8.593476751411e+01 
-7.821668617689e+01 2.662636763236e+01 0.0 
2.662636763236e+01 -1.977322553814e+02 0.0 
0.0 0.0 -8.400680096591e+01 
-1.023559146512e+02 2.036441257194e+00 0.0 
2.036441257194e+00 -2.782826294075e+02 0.0 
0.0 0.0 -1.137915632176e+02 
-8.437409391546e+01 4.674179150061e+00 0.0 
4.674179150061e+00 -1.604923433405e+02 0.0 
0.0 0.0 -7.305993117677e+01 
-6.028825673015e+01 -1.688817190507e+01 0.0 
-1.688817190507e+01 -1.484753573255e+02 0.0 
0.0 0.0 -6.041106380512e+01 
-1.652957751683e+02 1.215727658062e+01 0.0 
1.215727658062e+01 -3.870234753926e+02 0.0 
0.0 0.0 -1.652957751683e+02 
-9.097586874291e+01 2.311538057551e+01 0.0 
2.311538057551e+01 -1.894668262610e+02 0.0 
0.0 0.0 -8.353484753830e+01 
-9.649461330182e+01 -4.907424993194e+00 0.0 
-4.907424993194e+00 -2.198593287610e+02 0.0 
0.0 0.0 -9.013826222553e+01 
-8.772999187016e+01 2.402988669234e+01 0.0 
2.402988669234e+01 -1.836631086980e+02 0.0 
0.0 0.0 -8.013404767574e+01 
-9.628936801028e+01 -5.069869763190e+00 0.0 
-5.069869763190e+00 -2.127315937476e+02 0.0 
0.0 0.0 -8.698663316708e+01 
-1.791283947064e+01 -1.440753180647e+00 0.0 
-1.440753180647e+00 -9.353926781863e+00 0.0 
0.0 0.0 -8.754275855001e+00 
-8.930099264961e+01 1.240321240253e+01 0.0 
1.240321240253e+01 -1.618879437526e+02 0.0 
0.0 0.0 -7.495668092066e+01 
-8.370250558075e+01 -3.232644936598e+00 0.0 
-3.232644936598e+00 -1.731088001265e+02 0.0 
0.0 0.0 -7.142172236471e+01 
-7.791375158214e+00 -4.509709642376e-01 0.0 
-4.509709642376e-01 -8.804902527833e+00 0.0 
0.0 0.0 -3.255373754768e+00 
-9.382051827220e+01 -5.120634778599e+00 0.0 
-5.120634778599e+00 -2.078854281848e+02 0.0 
0.0 0.0 -8.520719785651e+01 
-1.113381190535e+02 3.392338282529e+00 0.0 
3.392338282529e+00 -2.967828232722e+02 0.0 
0.0 0.0 -1.220362826977e+02 
-1.066996227577e+02 2.604487886216e+00 0.0 
2.604487886216e+00 -2.335046038830e+02 0.0 
0.0 0.0 -1.016612679922e+02 
-8.605188185227e+01 6.006472562069e+00 0.0 
6.006472562069e+00 -2.532289378566e+02 0.0 
0.0 0.0 -1.070373010788e+02 
-8.918612263147e+01 5.579574080975e+00 0.0 
5.579574080975e+00 -2.600885045193e+02 0.0 
0.0 0.0 -1.094818990941e+02 
-7.580715712277e+01 9.403171026510e+00 0.0 
9.403171026510e+00 -1.219844752313e+02 0.0 
0.0 0.0 -5.842997520423e+01 
-6.367186907912e+01 2.908798821115e+00 0.0 
2.908798821115e+00 -1.071551400405e+02 0.0 
0.0 0.0 -5.084810273589e+01 
-1.238835302883e+02 1.296727602234e+01 0.0 
1.296727602234e+01 -2.814458898034e+02 0.0 
0.0 0.0 -1.211988260275e+02 
-8.430984254994e+01 2.487081352182e+01 0.0 
2.487081352182e+01 -1.784745872981e+02 0.0 
0.0 0.0 -7.674281260303e+01 
-1.256606450710e+01 1.197937128207e-01 0.0 
1.197937128207e-01 -7.180262412663e+00 0.0 
0.0 0.0 -4.846620698142e+00 
-3.421617458758e+01 -6.484460912452e+00 0.0 
-6.484460912452e+00 -7.064704008049e+01 0.0 
0.0 0.0 -2.709820675479e+01 
-2.935298887976e+01 -8.438621081109e+00 0.0 
-8.438621081109e+00 -2.971262103233e+01 0.0 
0.0 0.0 -1.411076638886e+01 
-5.875388776132e+01 -1.430494447523e+01 0.0 
-1.430494447523e+01 -1.270735953776e+02 0.0 
0.0 0.0 -5.267662423162e+01 
-1.198575913876e+02 2.307954153768e+01 0.0 
2.307954153768e+01 -2.697028087347e+02 0.0 
0.0 0.0 -1.164681200367e+02 
-1.079348507747e+02 4.392927001678e+00 0.0 
4.392927001678e+00 -2.343366521088e+02 0.0 
0.0 0.0 -1.022814508651e+02 
-1.271855351322e+02 2.611498173470e+00 0.0 
2.611498173470e+00 -3.219502323993e+02 0.0 
0.0 0.0 -1.343407302594e+02 
-6.578848105087e+01 -9.927014547770e+00 0.0 
-9.927014547770e+00 -1.426129962885e+02 0.0 
0.0 0.0 -5.833147010564e+01 
-1.146541900850e+02 -1.052461720413e+00 0.0 
-1.052461720413e+00 -2.713251177735e+02 0.0 
0.0 0.0 -1.128652326629e+02 
-1.305623659087e+02 8.155615291222e+00 0.0 
8.155615291222e+00 -3.340970671219e+02 0.0 
0.0 0.0 -1.389978299092e+02 
-3.397517206734e+01 4.512382506395e+00 0.0 
4.512382506395e+00 -1.263949114765e+02 0.0 
0.0 0.0 -4.812027635787e+01 
-8.359498046267e+01 -7.867151835486e-01 0.0 
-7.867151835486e-01 -1.734996874638e+02 0.0 
0.0 0.0 -7.178992192404e+01 
-6.946844616077e+01 -2.283930879822e+00 0.0 
-2.283930879822e+00 -1.417582805569e+02 0.0 
0.0 0.0 -5.817400992799e+01 
-1.621332162683e+02 1.021129261858e+01 0.0 
1.021129261858e+01 -3.874807907462e+02 0.0 
0.0 0.0 -1.644842021043e+02 
-1.660381157704e+02 1.068781777909e+01 0.0 
1.068781777909e+01 -3.887556034643e+02 0.0 
0.0 0.0 -1.660381157704e+02 
-9.201692996989e+01 -8.745534795403e-01 0.0 
-8.745534795403e-01 -1.929612266846e+02 0.0 
0.0 0.0 -8.016015658577e+01 
-1.000637548400e+02 -3.880634835951e+00 0.0 
-3.880634835951e+00 -2.207575968115e+02 0.0 
0.0 0.0 -9.068044188481e+01 
-9.472554059897e+01 -1.090365093837e+00 0.0 
-1.090365093837e+00 -2.491926180804e+02 0.0 
0.0 0.0 -1.027161021230e+02 
-1.353953173245e+02 1.008618452044e+01 0.0 
1.008618452044e+01 -3.426174047001e+02 0.0 
0.0 0.0 -1.430038166074e+02 
-3.954138730692e+01 -9.754532594416e+00 0.0 
-9.754532594416e+00 -7.916020973865e+01 0.0 
0.0 0.0 -3.242589876991e+01 
-1.256564530769e+02 6.360384405279e+00 0.0 
6.360384405279e+00 -3.249332705160e+02 0.0 
0.0 0.0 -1.347769170779e+02 
-1.683826775042e+01 -7.657058726292e-01 0.0 
-7.657058726292e-01 -4.314359099479e+01 0.0 
0.0 0.0 -1.520323080542e+01 
-9.265712230286e+01 -4.841125263509e+00 0.0 
-4.841125263509e+00 -2.006674352328e+02 0.0 
0.0 0.0 -8.152424193285e+01 
-9.929980138431e+01 -4.975828958545e+00 0.0 
-4.975828958545e+00 -2.246691707009e+02 0.0 
0.0 0.0 -9.232170361819e+01 
-9.473246305534e+00 -4.122716970107e-01 0.0 
-4.122716970107e-01 -2.544508755774e+01 0.0 
0.0 0.0 -7.891402129797e+00 
-8.785355977030e+01 -2.115758755451e+00 0.0 
-2.115758755451e+00 -1.827041241803e+02 0.0 
0.0 0.0 -7.586402945127e+01 
-1.155314018387e+02 1.166369411607e+01 0.0 
1.166369411607e+01 -2.503517497969e+02 0.0 
0.0 0.0 -1.093649454907e+02 
-1.209317407828e+01 4.778805054874e-02 0.0 
4.778805054874e-02 -7.505700356877e+00 0.0 
0.0 0.0 -4.794211543903e+00 
-6.517631535566e+01 3.590776761762e+00 0.0 
3.590776761762e+00 -1.079659137041e+02 0.0 
0.0 0.0 -5.154266871793e+01 
-6.583043508173e+01 4.300402419753e+00 0.0 
4.300402419753e+00 -1.092777610205e+02 0.0 
0.0 0.0 -5.213245883066e+01 
-9.914182639444e+01 1.092097931741e+01 0.0 
1.092097931741e+01 -2.768212118578e+02 0.0 
0.0 0.0 -1.152209638516e+02 
-6.810173694528e+01 2.231431560146e-01 0.0 
2.231431560146e-01 -1.416994810359e+02 0.0 
0.0 0.0 -5.821131753052e+01 
-5.728595526148e+01 -1.438890225289e+01 0.0 
-1.438890225289e+01 -1.485723700926e+02 0.0 
0.0 0.0 -5.925060107790e+01 
-4.348401378255e+01 3.060963848415e+01 0.0 
3.060963848415e+01 -8.759227705723e+01 0.0 
0.0 0.0 -3.456296867097e+01 
-1.420178373278e+02 3.156771493754e+00 0.0 
3.156771493754e+00 -3.485883886675e+02 0.0 
0.0 0.0 -1.467818677986e+02 
-1.379484845893e+02 2.374778141953e+01 0.0 
2.374778141953e+01 -3.228656695156e+02 0.0 
0.0 0.0 -1.378442462315e+02 
-1.052310806653e+02 6.036811770305e+00 0.0 
6.036811770305e+00 -2.220485482398e+02 0.0 
0.0 0.0 -9.778388867151e+01 
-4.971036118332e+01 3.033177866449e+01 0.0 
3.033177866449e+01 -8.755778910728e+01 0.0 
0.0 0.0 -3.799381159435e+01 
-2.921051251097e+01 -7.106248641378e+00 0.0 
-7.106248641378e+00 -4.920629114428e+01 0.0 
0.0 0.0 -2.076273851186e+01 
-7.611450009409e+01 1.843613276231e+01 0.0 
1.843613276231e+01 -1.192987029234e+02 0.0 
0.0 0.0 -5.536470391841e+01 
-6.177895778422e+01 1.401266227334e+00 0.0 
1.401266227334e+00 -1.073629546906e+02 0.0 
0.0 0.0 -5.034257374245e+01 
-6.110026400292e+01 1.384377963084e+00 0.0 
1.384377963084e+00 -1.073312453213e+02 0.0 
0.0 0.0 -5.012945279725e+01 
-7.260724302139e+00 -3.895639684784e-01 0.0 
-3.895639684784e-01 -9.153503387882e+00 0.0 
0.0 0.0 -3.116093214251e+00 
-9.744133588429e+00 -5.617613280150e-01 0.0 
-5.617613280150e-01 -2.530882034333e+01 0.0 
0.0 0.0 -7.878396482237e+00 
-1.165498478011e+01 -2.481823101862e-01 0.0 
-2.481823101862e-01 -4.170941226451e+01 0.0 
0.0 0.0 -1.381439961951e+01 
-5.106444160300e+01 -1.040092311434e+01 0.0 
-1.040092311434e+01 -1.085086476481e+02 0.0 
0.0 0.0 -4.378818700035e+01 
-1.322829839997e+01 -2.606774076515e-02 0.0 
-2.606774076515e-02 -2.598814271076e+01 0.0 
0.0 0.0 -9.159929841468e+00 
-9.553510516830e+01 -1.897800837050e+00 0.0 
-1.897800837050e+00 -2.032883565124e+02 0.0 
0.0 0.0 -8.456080230293e+01 
-5.183622429246e+01 -1.402546304174e+01 0.0 
-1.402546304174e+01 -5.983173882155e+01 0.0 
0.0 0.0 -3.406872429935e+01 
-6.005260700573e+01 -1.046966609032e+01 0.0 
-1.046966609032e+01 -1.294070162014e+02 0.0 
0.0 0.0 -5.228695040996e+01 
-8.501522559544e+01 7.821931215065e-01 0.0 
7.821931215065e-01 -1.741500092701e+02 0.0 
0.0 0.0 -7.734957045966e+01 
-6.369234715951e+01 2.592798257334e+00 0.0 
2.592798257334e+00 -1.077887997572e+02 0.0 
0.0 0.0 -5.104434407501e+01 
-1.237143674929e+02 2.272254925510e+01 0.0 
2.272254925510e+01 -2.761478965857e+02 0.0 
0.0 0.0 -1.195586792236e+02 
-1.075253170669e+02 1.793294327256e+00 0.0 
1.793294327256e+00 -2.866345317702e+02 0.0 
0.0 0.0 -1.178479546511e+02 
-7.794696782645e+01 3.774285232686e-01 0.0 
3.774285232686e-01 -1.562832788936e+02 0.0 
0.0 0.0 -6.986907401600e+01 
-7.375077019154e+01 -1.257099924611e+00 0.0 
-1.257099924611e+00 -1.515292013240e+02 0.0 
0.0 0.0 -6.248087826013e+01 
-1.555935337736e+01 -2.019615781264e-01 0.0 
-2.019615781264e-01 -4.284933146256e+01 0.0 
0.0 0.0 -1.429273238608e+01 
-1.243249614109e+02 6.892517862164e+00 0.0 
6.892517862164e+00 -2.914249099589e+02 0.0 
0.0 0.0 -1.243249614109e+02 
-1.275203401503e+02 7.537093359489e+00 0.0 
7.537093359489e+00 -2.930019686635e+02 0.0 
0.0 0.0 -1.257566926441e+02 
-7.824342665326e+01 2.549656668563e+00 0.0 
2.549656668563e+00 -1.472116730249e+02 0.0 
0.0 0.0 -6.723652990345e+01 
-6.208486432256e+01 1.774633507400e+00 0.0 
1.774633507400e+00 -1.069814974866e+02 0.0 
0.0 0.0 -5.031990854275e+01 
-7.396719299794e+01 -1.093147889754e+00 0.0 
-1.093147889754e+00 -1.541026375123e+02 0.0 
0.0 0.0 -6.344014290469e+01 
-1.268039719223e+02 5.418565889877e+00 0.0 
5.418565889877e+00 -2.918611977347e+02 0.0 
0.0 0.0 -1.251995508971e+02 
-5.572645424918e+01 -1.010042976144e+01 0.0 
-1.010042976144e+01 -1.211260309164e+02 0.0 
0.0 0.0 -4.902086646284e+01 
-6.473684863789e+01 3.421243574773e+00 0.0 
3.421243574773e+00 -1.082535758004e+02 0.0 
0.0 0.0 -5.149712733147e+01 
-6.334159938410e+01 2.232137709631e+00 0.0 
2.232137709631e+00 -1.070360216821e+02 0.0 
0.0 0.0 -5.071328631988e+01 
-6.959025663719e+01 1.123237884376e+01 0.0 
1.123237884376e+01 -1.044545431250e+02 0.0 
0.0 0.0 -4.925709470916e+01 
-1.277696772010e+02 1.441682806845e+01 0.0 
1.441682806845e+01 -2.994625801356e+02 0.0 
0.0 0.0 -1.277696772010e+02 
-1.279929581858e+02 6.332793875881e+00 0.0 
6.332793875881e+00 -2.929118495028e+02 0.0 
0.0 0.0 -1.258714423066e+02 
-1.345554304694e+01 -1.567876550312e-01 0.0 
-1.567876550312e-01 -2.574830237873e+01 0.0 
0.0 0.0 -9.129584222133e+00 
-7.292257872009e+00 -2.099315676579e-01 0.0 
-2.099315676579e-01 -9.298924890369e+00 0.0 
0.0 0.0 -3.208850335158e+00 
-3.113434548360e+01 -7.263311621975e+00 0.0 
-7.263311621975e+00 -5.866750778786e+01 0.0 
0.0 0.0 -2.431423597861e+01 
-9.461592288436e+01 -5.081542901678e+00 0.0 
-5.081542901678e+00 -2.236799304893e+02 0.0 
0.0 0.0 -9.089896171238e+01 
-1.517023127799e+02 -5.538636762475e-01 0.0 
-5.538636762475e-01 -3.618870262791e+02 0.0 
0.0 0.0 -1.536768017177e+02 
-1.051068271351e+02 -2.341346331419e+01 0.0 
-2.341346331419e+01 -7.602965431900e+01 0.0 
0.0 0.0 -5.461698627064e+01 
-1.007135466684e+02 1.441335425758e+00 0.0 
1.441335425758e+00 -2.172947492471e+02 0.0 
0.0 0.0 -9.500248877467e+01 
-3.384355988430e+01 -1.243998156717e+01 0.0 
-1.243998156717e+01 -1.187256094213e+01 0.0 
0.0 0.0 -1.370916045923e+01 
-9.828058570168e+01 6.997887997066e+00 0.0 
6.997887997066e+00 -2.780688087047e+02 0.0 
0.0 0.0 -1.151186736914e+02 
-2.497338044419e+01 -6.374929189591e+00 0.0 
-6.374929189591e+00 -1.356285982765e+01 0.0 
0.0 0.0 -1.045183151795e+01 
-5.748732285666e+01 -2.656741685918e+01 0.0 
-2.656741685918e+01 -3.411354928839e+01 0.0 
0.0 0.0 -2.777255517427e+01 
-9.463602171553e+01 4.753259061718e+00 0.0 
4.753259061718e+00 -2.696819404669e+02 0.0 
0.0 0.0 -1.120100867080e+02 
-1.464336302110e+02 6.381058782857e-01 0.0 
6.381058782857e-01 -3.523392001040e+02 0.0 
0.0 0.0 -1.492318490945e+02 
-8.527590914949e+01 1.232289062385e+00 0.0 
1.232289062385e+00 -1.731572778094e+02 0.0 
0.0 0.0 -7.712995608767e+01 
-7.890029257056e+01 2.108110137294e+01 0.0 
2.108110137294e+01 -1.333335301062e+02 0.0 
0.0 0.0 -6.051292269790e+01 
-9.176152434000e+00 -1.542594640075e-01 0.0 
-1.542594640075e-01 -2.535658219276e+01 0.0 
0.0 0.0 -7.862437494431e+00 
-1.178689496896e+02 -3.661809256116e-01 0.0 
-3.661809256116e-01 -2.792972290033e+02 0.0 
0.0 0.0 -1.166340977472e+02 
-1.232455986530e+02 2.240453726703e+00 0.0 
2.240453726703e+00 -2.889063968569e+02 0.0 
0.0 0.0 -1.232455986530e+02 
-1.260736833893e+02 3.104404528852e+00 0.0 
3.104404528852e+00 -2.908036778037e+02 0.0 
0.0 0.0 -1.246632083579e+02 
-6.266896095495e+01 1.981204105540e+00 0.0 
1.981204105540e+00 -1.074439808105e+02 0.0 
0.0 0.0 -5.063388252964e+01 
-1.027279930056e+02 9.270800087572e+00 0.0 
9.270800087572e+00 -2.860508379133e+02 0.0 
0.0 0.0 -1.182041345179e+02 
-1.242326500176e+02 5.628700065737e+00 0.0 
5.628700065737e+00 -2.912095167078e+02 0.0 
0.0 0.0 -1.242326500176e+02 
-1.086116234392e+02 2.201884867083e+01 0.0 
2.201884867083e+01 -2.724111501079e+02 0.0 
0.0 0.0 -1.139068320641e+02 
-1.459174208469e+01 -2.463123182657e-01 0.0 
-2.463123182657e-01 -4.154620708221e+01 0.0 
0.0 0.0 -1.352853102033e+01 
-1.293466378457e+01 2.387897591648e-02 0.0 
2.387897591648e-02 -2.575861052473e+01 0.0 
0.0 0.0 -9.039729683178e+00 
-8.842534366717e+00 -2.520028434187e-03 0.0 
-2.520028434187e-03 -2.468089770388e+01 0.0 
0.0 0.0 -7.734265569630e+00 
-8.353067338609e+01 -1.171290243864e+00 0.0 
-1.171290243864e+00 -1.722937191922e+02 0.0 
0.0 0.0 -7.146721626943e+01 
-1.661168482935e+02 2.059418088333e+00 0.0 
2.059418088333e+00 -3.920705005021e+02 0.0 
0.0 0.0 -1.670562046387e+02 
-1.181479097231e+02 1.078357333506e+00 0.0 
1.078357333506e+00 -2.684090446729e+02 0.0 
0.0 0.0 -1.155670863188e+02 
-6.887038398802e+00 9.843237191782e-02 0.0 
9.843237191782e-02 -9.246873496026e+00 0.0 
0.0 0.0 -3.028250948971e+00 
-9.627821811802e+01 1.351106045338e-01 0.0 
1.351106045338e-01 -2.035575600634e+02 0.0 
0.0 0.0 -8.483230153041e+01 
-1.682346360900e+02 1.277693733653e+00 0.0 
1.277693733653e+00 -3.938808175433e+02 0.0 
0.0 0.0 -1.682346360900e+02 
-1.655240619997e+02 1.947382617142e+00 0.0 
1.947382617142e+00 -3.915353816501e+02 0.0 
0.0 0.0 -1.667178330949e+02 
-1.626762957339e+02 8.879238069398e+00 0.0 
8.879238069398e+00 -3.884813869748e+02 0.0 
0.0 0.0 -1.649473048126e+02 
-9.343513035113e+01 -5.187336550131e-01 0.0 
-5.187336550131e-01 -1.974142398096e+02 0.0 
0.0 0.0 -8.685481104823e+01 
-1.044651427758e+02 9.588873085869e-01 0.0 
9.588873085869e-01 -2.277242935580e+02 0.0 
0.0 0.0 -9.925683090015e+01 
-1.674467275566e+02 1.817470491910e+00 0.0 
1.817470491910e+00 -3.920423642987e+02 0.0 
0.0 0.0 -1.674467275566e+02 
-1.677867674478e+02 2.492457626703e+00 0.0 
2.492457626703e+00 -3.928357907116e+02 0.0 
0.0 0.0 -1.677867674478e+02 
-1.007793013569e+02 -2.673860973756e-01 0.0 
-2.673860973756e-01 -2.174090235434e+02 0.0 
0.0 0.0 -9.505649747011e+01 
-1.199963604975e+01 -2.832063185525e-01 0.0 
-2.832063185525e-01 -6.454524391704e+00 0.0 
0.0 0.0 -4.504173103996e+00 
-5.972901530918e+01 7.597901334178e-01 0.0 
7.597901334178e-01 -1.063170320765e+02 0.0 
0.0 0.0 -4.941381421572e+01 
-6.186069954228e+01 1.460619468863e+00 0.0 
1.460619468863e+00 -1.074863892278e+02 0.0 
0.0 0.0 -5.040412663103e+01 
-7.044343346548e+00 -7.942498111952e-02 0.0 
-7.942498111952e-02 -9.253612229034e+00 0.0 
0.0 0.0 -3.100524853617e+00 
-1.679026666666e+02 4.727004749215e+00 0.0 
4.727004749215e+00 -3.931062222222e+02 0.0 
0.0 0.0 -1.679026666666e+02 
-1.629352470058e+02 7.415322533485e+00 0.0 
7.415322533485e+00 -3.890381552233e+02 0.0 
0.0 0.0 -1.651920206687e+02 
-1.669281750773e+02 6.741805194669e+00 0.0 
6.741805194669e+00 -3.908324085137e+02 0.0 
0.0 0.0 -1.669281750773e+02 
-1.189200815171e+01 1.110182065347e-01 0.0 
1.110182065347e-01 -7.688833381283e+00 0.0 
0.0 0.0 -4.730554134575e+00 
-1.188644272855e+01 1.838851970470e-02 0.0 
1.838851970470e-02 -7.821940097945e+00 0.0 
0.0 0.0 -4.739109539390e+00 
-1.664480487266e+02 9.300980171915e+00 0.0 
9.300980171915e+00 -3.897121136954e+02 0.0 
0.0 0.0 -1.664480487266e+02 
-1.668368848783e+02 8.042222294623e+00 0.0 
8.042222294623e+00 -3.906193980493e+02 0.0 
0.0 0.0 -1.668368848783e+02 
-8.957131071695e+01 9.927580518029e-01 0.0 
9.927580518029e-01 -1.873535395832e+02 0.0 
0.0 0.0 -8.267745509004e+01 
-5.853151426395e+01 1.792629149915e-01 0.0 
1.792629149915e-01 -1.059222634963e+02 0.0 
0.0 0.0 -4.893613332809e+01 
-9.731235474547e+01 9.934355650681e-01 0.0 
9.934355650681e-01 -2.075037554344e+02 0.0 
0.0 0.0 -9.104483305395e+01 
-7.438233427232e+01 9.298837837032e-01 0.0 
9.298837837032e-01 -1.474842914506e+02 0.0 
0.0 0.0 -6.615998771688e+01 
-5.845803055594e+01 5.821747321200e-02 0.0 
5.821747321200e-02 -1.060536291695e+02 0.0 
0.0 0.0 -4.895349791762e+01 
-1.313951489144e+01 -1.709542794670e-02 0.0 
-1.709542794670e-02 -7.626422805313e+00 0.0 
0.0 0.0 -5.087768696168e+00 
-1.387428907805e+01 3.594969371232e-01 0.0 
3.594969371232e-01 -7.672969715110e+00 0.0 
0.0 0.0 -6.064177637947e+00 
-1.361964044603e+01 7.526721758178e-01 0.0 
7.526721758178e-01 -6.889853151900e+00 0.0 
0.0 0.0 -5.752848079378e+00 
-1.308172768341e+01 1.064963900475e+00 0.0 
1.064963900475e+00 -7.272239008418e+00 0.0 
0.0 0.0 -5.706190007547e+00 
-9.981803464347e+01 -1.149559995477e+00 0.0 
-1.149559995477e+00 -2.139500689375e+02 0.0 
0.0 0.0 -8.925908427069e+01 
-9.210207774235e+01 -1.126494362691e+00 0.0 
-1.126494362691e+00 -1.930828504653e+02 0.0 
0.0 0.0 -8.037950068641e+01 
-8.259688068044e+00 -3.363222980593e-01 0.0 
-3.363222980593e-01 -9.343491413332e+00 0.0 
0.0 0.0 -4.118893126494e+00 
-1.183236666004e+02 -9.598994205371e-01 0.0 
-9.598994205371e-01 -2.739500637179e+02 0.0 
0.0 0.0 -1.150328353668e+02 
-1.033691705390e+01 -3.965187741672e-01 0.0 
-3.965187741672e-01 -9.516874063826e+00 0.0 
0.0 0.0 -5.459254593658e+00 
-1.259874521535e+02 1.156017505945e+01 0.0 
1.156017505945e+01 -2.953040550249e+02 0.0 
0.0 0.0 -1.259874521535e+02 
-1.237672149193e+02 4.691895934548e+00 0.0 
4.691895934548e+00 -2.901235014783e+02 0.0 
0.0 0.0 -1.237672149193e+02 
-1.245507957709e+02 7.973601620346e+00 0.0 
7.973601620346e+00 -2.919518567987e+02 0.0 
0.0 0.0 -1.245507957709e+02 
-1.891021648292e+01 -1.492163566933e+00 0.0 
-1.492163566933e+00 -6.886300598595e+01 0.0 
0.0 0.0 -2.593196674066e+01 
-6.249675173530e+01 -1.302162674656e+00 0.0 
-1.302162674656e+00 -1.307549820809e+02 0.0 
0.0 0.0 -5.347528247912e+01 
-1.234066131668e+02 3.782973324259e+00 0.0 
3.782973324259e+00 -2.892820973893e+02 0.0 
0.0 0.0 -1.234066131668e+02 
-1.379572498556e+02 -7.415561615071e-01 0.0 
-7.415561615071e-01 -3.334076072276e+02 0.0 
0.0 0.0 -1.410094571250e+02 
-1.242260678688e+02 3.057615690587e+00 0.0 
3.057615690587e+00 -2.911941583606e+02 0.0 
0.0 0.0 -1.242260678688e+02 
-1.472830754485e+02 -7.721074998268e-01 0.0 
-7.721074998268e-01 -3.528449817884e+02 0.0 
0.0 0.0 -1.496384171711e+02 
-1.568390563973e+02 -8.483631806784e-01 0.0 
-8.483631806784e-01 -3.722105944313e+02 0.0 
0.0 0.0 -1.583148952486e+02 
-8.801801805572e+01 1.511770923670e-01 0.0 
1.511770923670e-01 -1.827985501862e+02 0.0 
0.0 0.0 -7.596457000525e+01 
-1.263817556100e+02 4.428766578646e+00 0.0 
4.428766578646e+00 -2.908851087592e+02 0.0 
0.0 0.0 -1.247800593108e+02 
-1.259530480291e+02 3.027124033346e+00 0.0 
3.027124033346e+00 -2.909644639629e+02 0.0 
0.0 0.0 -1.246752535976e+02 
-1.422685516012e+02 1.102568548062e+00 0.0 
1.102568548062e+00 -3.422005328549e+02 0.0 
0.0 0.0 -1.449407253368e+02 
-1.518947142954e+02 1.155026346952e+00 0.0 
1.155026346952e+00 -3.621075906694e+02 0.0 
0.0 0.0 -1.538006914894e+02 
-1.238467786128e+02 5.813028681142e-01 0.0 
5.813028681142e-01 -2.954585787968e+02 0.0 
0.0 0.0 -1.241248250450e+02 
-2.502433021631e+01 -4.065657231710e+00 0.0 
-4.065657231710e+00 -9.882706447406e+00 0.0 
0.0 0.0 -1.104858718199e+01 
-8.848718215481e+01 -4.372873492438e+00 0.0 
-4.372873492438e+00 -1.885457304559e+02 0.0 
0.0 0.0 -7.664567483561e+01 
-1.379862760641e+01 -1.014881699636e-01 0.0 
-1.014881699636e-01 -2.526730037243e+01 0.0 
0.0 0.0 -9.200959004579e+00 
-1.431355890670e+02 4.409775944847e+00 0.0 
4.409775944847e+00 -3.492463997812e+02 0.0 
0.0 0.0 -1.473145966545e+02 
-8.970372585297e+01 -6.012366606198e+00 0.0 
-6.012366606198e+00 -1.998400006642e+02 0.0 
0.0 0.0 -8.097884063103e+01 
-1.324778515035e+02 4.499203897916e-01 0.0 
4.499203897916e-01 -3.250104446729e+02 0.0 
0.0 0.0 -1.368464888529e+02 
-4.510415982878e+01 -9.197367221441e+00 0.0 
-9.197367221441e+00 -9.961889553300e+01 0.0 
0.0 0.0 -3.954351615830e+01 
-1.483768328434e+01 -1.757118503627e+00 0.0 
-1.757118503627e+00 -4.163286846658e+01 0.0 
0.0 0.0 -1.504428174184e+01 
-1.425293391192e+02 2.329150634780e+00 0.0 
2.329150634780e+00 -3.445340461572e+02 0.0 
0.0 0.0 -1.457190155829e+02 
-9.648517579531e+01 -3.636246724633e+00 0.0 
-3.636246724633e+00 -2.088371279481e+02 0.0 
0.0 0.0 -8.586151029500e+01 
-7.891323050797e+01 -2.276607221727e+00 0.0 
-2.276607221727e+00 -1.620175932421e+02 0.0 
0.0 0.0 -6.682828203490e+01 
-1.333512226987e+02 1.922314514636e+00 0.0 
1.922314514636e+00 -3.257150526057e+02 0.0 
0.0 0.0 -1.373198825913e+02 
-1.103532671188e+02 8.627953067295e-01 0.0 
8.627953067295e-01 -2.457578188033e+02 0.0 
0.0 0.0 -1.064333257766e+02 
-7.879160556754e+01 1.804099251278e-01 0.0 
1.804099251278e-01 -1.622493858714e+02 0.0 
0.0 0.0 -6.711312897173e+01 
-1.178774931027e+02 6.113569645822e+00 0.0 
6.113569645822e+00 -3.076983665753e+02 0.0 
0.0 0.0 -1.272727579034e+02 
-1.069522546778e+02 -8.261241413238e-01 0.0 
-8.261241413238e-01 -2.734003617075e+02 0.0 
0.0 0.0 -1.130403152001e+02 
-1.209728551763e+02 -8.000911355974e-01 0.0 
-8.000911355974e-01 -2.946444352745e+02 0.0 
0.0 0.0 -1.235711029907e+02 
-1.244271544034e+02 -5.871444576090e-01 0.0 
-5.871444576090e-01 -3.032610459003e+02 0.0 
0.0 0.0 -1.275168362903e+02 
-5.748633714693e+01 1.569636714272e+01 0.0 
1.569636714272e+01 -1.791356446191e+02 0.0 
0.0 0.0 -6.902027640538e+01 
-7.270664519481e+01 2.038339964224e+01 0.0 
2.038339964224e+01 -1.119605253622e+02 0.0 
0.0 0.0 -5.116693439629e+01 
-7.242619712927e+01 2.523567961237e+01 0.0 
2.523567961237e+01 -1.801417115035e+02 0.0 
0.0 0.0 -7.475704973986e+01 
-1.136341484727e+02 -1.409229567732e+00 0.0 
-1.409229567732e+00 -2.783137213192e+02 0.0 
0.0 0.0 -1.159749476740e+02 
-1.377027285212e+02 1.848260755412e+00 0.0 
1.848260755412e+00 -3.340162730586e+02 0.0 
0.0 0.0 -1.411157004739e+02 
-1.275693555790e+02 -5.808373853655e-01 0.0 
-5.808373853655e-01 -3.120529271249e+02 0.0 
0.0 0.0 -1.314866848112e+02 
-5.125301721057e+01 -1.383094981419e+01 0.0 
-1.383094981419e+01 -1.069267814758e+02 0.0 
0.0 0.0 -4.382135925117e+01 
-1.105673241329e+02 2.055705632474e+00 0.0 
2.055705632474e+00 -2.447982329610e+02 0.0 
0.0 0.0 -1.062096671282e+02 
-1.033082522001e+02 1.722182891619e+00 0.0 
1.722182891619e+00 -2.242669996253e+02 0.0 
0.0 0.0 -9.787257554762e+01 
-6.954254727148e+01 3.792813460332e-02 0.0 
3.792813460332e-02 -1.327376998187e+02 0.0 
0.0 0.0 -6.028407412706e+01 
-1.152789276570e+02 -4.056968967107e-01 0.0 
-4.056968967107e-01 -2.894824193799e+02 0.0 
0.0 0.0 -1.206429749154e+02 
-1.174010463554e+02 -1.069707014023e+00 0.0 
-1.069707014023e+00 -2.864711852383e+02 0.0 
0.0 0.0 -1.197785158124e+02 
-1.112426084733e+02 2.723185501947e+00 0.0 
2.723185501947e+00 -2.468799607065e+02 0.0 
0.0 0.0 -1.070367707539e+02 
-1.070743086549e+02 1.453152974087e+00 0.0 
1.453152974087e+00 -2.352379378139e+02 0.0 
0.0 0.0 -1.022936739407e+02 
-1.092923005661e+02 -1.518047456043e+00 0.0 
-1.518047456043e+00 -2.668898026232e+02 0.0 
0.0 0.0 -1.098733580665e+02 
-1.469523627078e+02 2.087987504133e+00 0.0 
2.087987504133e+00 -3.527470377504e+02 0.0 
0.0 0.0 -1.495098201375e+02 
-1.034757083350e+02 4.189656737741e+00 0.0 
4.189656737741e+00 -2.209899403998e+02 0.0 
0.0 0.0 -9.693969462045e+01 
-1.287040832019e+02 9.304984079364e-01 0.0 
9.304984079364e-01 -3.122018976820e+02 0.0 
0.0 0.0 -1.316355684797e+02 
-1.483418493011e+02 4.233902726072e+00 0.0 
4.233902726072e+00 -3.583167824806e+02 0.0 
0.0 0.0 -1.515975895345e+02 
-1.113593294333e+02 4.023314844640e+00 0.0 
4.023314844640e+00 -2.456000967314e+02 0.0 
0.0 0.0 -1.066878278494e+02 
-9.387416147136e+01 3.410183164694e+00 0.0 
3.410183164694e+00 -1.938867391882e+02 0.0 
0.0 0.0 -8.592827019788e+01 
-1.139488340958e+02 4.358301127660e+00 0.0 
4.358301127660e+00 -2.980987510065e+02 0.0 
0.0 0.0 -1.232142755307e+02 
-4.595359604581e+01 -5.217468353467e+00 0.0 
-5.217468353467e+00 -1.009611429504e+02 0.0 
0.0 0.0 -3.915645527773e+01 
-5.015261002868e+01 -1.480017777086e+01 0.0 
-1.480017777086e+01 -1.008850885466e+02 0.0 
0.0 0.0 -4.125149509406e+01 
-2.412106926029e+01 -2.659341815148e+00 0.0 
-2.659341815148e+00 -4.869474288293e+01 0.0 
0.0 0.0 -1.803491035826e+01 
-3.675198719851e+01 -1.443427566647e+01 0.0 
-1.443427566647e+01 -3.461167850834e+01 0.0 
0.0 0.0 -1.795347765624e+01 
-1.078698142390e+02 3.187484642300e+00 0.0 
3.187484642300e+00 -2.358185825652e+02 0.0 
0.0 0.0 -1.027065190413e+02 
-1.415285109587e+02 1.239602898855e-01 0.0 
1.239602898855e-01 -3.416819737401e+02 0.0 
0.0 0.0 -1.445631454096e+02 
-2.673412536958e+01 -6.484863774010e+00 0.0 
-6.484863774010e+00 -2.845836780765e+01 0.0 
0.0 0.0 -1.331210842783e+01 
-1.200964192301e+02 1.807966635322e+01 0.0 
1.807966635322e+01 -2.564389649678e+02 0.0 
0.0 0.0 -1.125606152594e+02 
-7.373264795046e+01 5.306772024423e-01 0.0 
5.306772024423e-01 -1.418503707021e+02 0.0 
0.0 0.0 -6.427490559578e+01 
-1.292163801904e+02 1.929012844868e+00 0.0 
1.929012844868e+00 -3.177511105504e+02 0.0 
0.0 0.0 -1.336902472222e+02 
-1.320409726068e+02 -1.980843360151e-01 0.0 
-1.980843360151e-01 -3.223894405603e+02 0.0 
0.0 0.0 -1.359291239501e+02 
-6.089130857774e+01 -1.413173308302e+01 0.0 
-1.413173308302e+01 -1.540273364408e+02 0.0 
0.0 0.0 -6.231916625699e+01 
-1.328408556513e+02 1.350320153394e+00 0.0 
1.350320153394e+00 -3.230476484260e+02 0.0 
0.0 0.0 -1.363665512232e+02 
-7.039341210784e+01 2.188420457452e+00 0.0 
2.188420457452e+00 -1.330340577319e+02 0.0 
0.0 0.0 -6.062824095191e+01 
-1.026678898242e+02 1.638207370368e+01 0.0 
1.638207370368e+01 -2.790669062124e+02 0.0 
0.0 0.0 -1.142539661693e+02 
-1.527314627731e+02 2.258456020574e+00 0.0 
2.258456020574e+00 -3.664495826159e+02 0.0 
0.0 0.0 -1.553543136167e+02 
-4.265286720093e+01 -2.967716684801e+00 0.0 
-2.967716684801e+00 -9.699983715858e+01 0.0 
0.0 0.0 -3.832110330911e+01 
-1.479499301086e+02 5.410392224543e+00 0.0 
5.410392224543e+00 -3.596917445300e+02 0.0 
0.0 0.0 -1.518925023916e+02 
-9.744357006041e+01 3.081696958220e+00 0.0 
3.081696958220e+00 -2.048776236233e+02 0.0 
0.0 0.0 -9.029635810511e+01 
-5.088172814394e+01 -4.361496324206e+00 0.0 
-4.361496324206e+00 -1.095017268443e+02 0.0 
0.0 0.0 -4.338258667332e+01 
-5.629952337606e+01 -1.619982291576e+01 0.0 
-1.619982291576e+01 -1.210026060029e+02 0.0 
0.0 0.0 -5.026605249076e+01 
-1.050091414251e+02 -2.517906733329e+00 0.0 
-2.517906733329e+00 -2.331508651314e+02 0.0 
0.0 0.0 -9.723970457165e+01 
-8.523437197540e+01 1.822439062065e+00 0.0 
1.822439062065e+00 -1.713261707762e+02 0.0 
0.0 0.0 -7.656816282548e+01 
-7.378896227721e+01 -8.213403403615e+00 0.0 
-8.213403403615e+00 -1.586487477492e+02 0.0 
0.0 0.0 -6.395524592180e+01 
-1.009529151156e+02 2.852878048979e+00 0.0 
2.852878048979e+00 -2.157545667076e+02 0.0 
0.0 0.0 -9.461224454694e+01 
-8.994483454236e+01 2.808409051132e+00 0.0 
2.808409051132e+00 -1.841943437846e+02 0.0 
0.0 0.0 -8.184175349808e+01 
-1.003916936925e+02 -4.104295388699e+00 0.0 
-4.104295388699e+00 -2.280079347277e+02 0.0 
0.0 0.0 -9.418362445804e+01 
-1.263435028202e+02 8.373460059171e-01 0.0 
8.373460059171e-01 -3.036519471744e+02 0.0 
0.0 0.0 -1.277912348556e+02 
-1.289424681031e+02 1.345450804213e+00 0.0 
1.345450804213e+00 -3.148554522126e+02 0.0 
0.0 0.0 -1.326239509377e+02 
-9.611603866268e+01 1.269743400661e+00 0.0 
1.269743400661e+00 -2.039454390714e+02 0.0 
0.0 0.0 -8.961844332022e+01 
-3.316485928122e+01 -4.064677429347e+00 0.0 
-4.064677429347e+00 -8.469232059386e+01 0.0 
0.0 0.0 -3.203177754154e+01 
-9.774370581765e+01 -4.172008806947e+00 0.0 
-4.172008806947e+00 -2.162512926652e+02 0.0 
0.0 0.0 -8.934516939359e+01 
-1.231432349816e+02 1.850184092848e+01 0.0 
1.850184092848e+01 -3.100032027138e+02 0.0 
0.0 0.0 -1.295439313086e+02 
-1.010868423648e+02 3.891820822030e+00 0.0 
3.891820822030e+00 -2.141260718458e+02 0.0 
0.0 0.0 -9.416387426318e+01 
-9.062221209553e+01 -5.046915623704e+00 0.0 
-5.046915623704e+00 -1.956483655050e+02 0.0 
0.0 0.0 -8.021742777902e+01 
-1.130732215963e+02 -7.554404689318e-01 0.0 
-7.554404689318e-01 -2.747509757310e+02 0.0 
0.0 0.0 -1.138020334958e+02 
-1.432900144672e+02 5.985213222981e+00 0.0 
5.985213222981e+00 -3.516693906964e+02 0.0 
0.0 0.0 -1.480878215491e+02 
-9.275556777192e+01 1.631285124614e+00 0.0 
1.631285124614e+00 -1.931136779142e+02 0.0 
0.0 0.0 -8.536077370584e+01 
-2.943303473509e+01 -8.368474017964e+00 0.0 
-8.368474017964e+00 -1.202726235204e+02 0.0 
0.0 0.0 -4.722179078481e+01 
-1.818929469037e+01 -3.284364939074e-01 0.0 
-3.284364939074e-01 -4.646147098393e+01 0.0 
0.0 0.0 -1.737322504489e+01 
-3.900127212255e+01 4.260810708311e+00 0.0 
4.260810708311e+00 -1.365439416962e+02 0.0 
0.0 0.0 -5.078331843955e+01 
-1.370053497513e+02 2.880534798694e-01 0.0 
2.880534798694e-01 -3.333832675647e+02 0.0 
0.0 0.0 -1.407165851948e+02 
-8.893041173055e+01 1.774729110119e+00 0.0 
1.774729110119e+00 -1.821981922925e+02 0.0 
0.0 0.0 -8.093858120690e+01 
-1.126264495002e+02 -1.855661597084e-01 0.0 
-1.855661597084e-01 -2.537559775415e+02 0.0 
0.0 0.0 -1.063044010171e+02 
-7.769863055406e+01 1.222076461104e+00 0.0 
1.222076461104e+00 -1.514192559428e+02 0.0 
0.0 0.0 -6.833536594906e+01 
-1.321769390144e+02 9.189004546042e+00 0.0 
9.189004546042e+00 -3.349964374779e+02 0.0 
0.0 0.0 -1.397520129477e+02 
-1.040974709275e+02 -3.346440515500e+00 0.0 
-3.346440515500e+00 -2.362234210321e+02 0.0 
0.0 0.0 -9.810005344555e+01 
-1.276089796536e+02 -1.740100046447e-01 0.0 
-1.740100046447e-01 -3.141090579613e+02 0.0 
0.0 0.0 -1.321154112845e+02 
-4.245944156612e+01 -2.412193887840e+00 0.0 
-2.412193887840e+00 -1.020497130116e+02 0.0 
0.0 0.0 -4.006506076916e+01 
-1.474072040149e+02 2.631952330402e+00 0.0 
2.631952330402e+00 -3.580116324587e+02 0.0 
0.0 0.0 -1.512256509421e+02 
-1.035740986716e+02 -2.833083504014e+00 0.0 
-2.833083504014e+00 -2.288760566328e+02 0.0 
0.0 0.0 -9.473250335062e+01 
-4.769032598567e+01 -1.513168918689e+00 0.0 
-1.513168918689e+00 -1.104687147237e+02 0.0 
0.0 0.0 -4.406662343355e+01 
-1.002009707395e+02 -2.557171180604e+00 0.0 
-2.557171180604e+00 -2.171330180838e+02 0.0 
0.0 0.0 -8.991545743026e+01 
-7.839516550292e+01 -6.880077396023e+00 0.0 
-6.880077396023e+00 -1.670282892677e+02 0.0 
0.0 0.0 -6.705658184685e+01 
-5.995449493954e+01 -8.398027978813e+00 0.0 
-8.398027978813e+00 -1.299818236757e+02 0.0 
0.0 0.0 -5.225625733324e+01 
-1.109896071589e+02 -1.946792897952e+00 0.0 
-1.946792897952e+00 -2.528175598083e+02 0.0 
0.0 0.0 -1.057240046716e+02 
-8.918195273191e+00 -4.873236331470e-01 0.0 
-4.873236331470e-01 -9.379461481819e+00 0.0 
0.0 0.0 -3.857753837363e+00 
-9.007926815997e+00 -4.160378724700e-01 0.0 
-4.160378724700e-01 -9.933783402559e+00 0.0 
0.0 0.0 -4.686705712440e+00 
-1.209142670151e+02 1.863469416213e-01 0.0 
1.863469416213e-01 -2.873607302506e+02 0.0 
0.0 0.0 -1.203837490486e+02 
-3.693214379287e+01 -3.166908136518e+00 0.0 
-3.166908136518e+00 -9.366181522550e+01 0.0 
0.0 0.0 -3.609164785815e+01 
-1.200633381796e+02 4.694101099944e-01 0.0 
4.694101099944e-01 -2.905596478880e+02 0.0 
0.0 0.0 -1.213888236947e+02 
-1.166639203878e+02 -9.639723585002e-02 0.0 
-9.639723585002e-02 -2.826408269589e+02 0.0 
0.0 0.0 -1.176259766995e+02 
-8.056760448657e+01 -8.244655589252e+00 0.0 
-8.244655589252e+00 -1.835444485263e+02 0.0 
0.0 0.0 -7.446978803046e+01 
-5.341847451417e+01 -1.590548711844e+01 0.0 
-1.590548711844e+01 -1.309356248171e+02 0.0 
0.0 0.0 -5.074713680568e+01 
-1.083569180220e+02 5.747074718050e+00 0.0 
5.747074718050e+00 -2.329303330534e+02 0.0 
0.0 0.0 -1.019861753226e+02 
-3.552455631653e+01 2.763925052688e+01 0.0 
2.763925052688e+01 -9.578412520100e+01 0.0 
0.0 0.0 -3.906451758831e+01 
-8.288199078915e+01 -5.657738704789e+00 0.0 
-5.657738704789e+00 -1.756369147680e+02 0.0 
0.0 0.0 -7.117382928182e+01 
-1.368633828889e+02 1.099172767422e+01 0.0 
1.099172767422e+01 -3.431253231848e+02 0.0 
0.0 0.0 -1.435966118221e+02 
-3.236057434358e+01 -4.323988267466e+00 0.0 
-4.323988267466e+00 -7.984560634547e+01 0.0 
0.0 0.0 -3.036600082221e+01 
-8.272749363469e+01 2.923952747957e+00 0.0 
2.923952747957e+00 -1.630401599384e+02 0.0 
0.0 0.0 -7.333029607192e+01 
-7.492521675149e+01 2.441398658297e+00 0.0 
2.441398658297e+00 -1.427228303736e+02 0.0 
0.0 0.0 -6.489441413753e+01 
-3.495568320274e+01 -7.050103187946e+00 0.0 
-7.050103187946e+00 -7.847760080010e+01 0.0 
0.0 0.0 -3.020499189051e+01 
-1.381150005795e+02 6.419112768489e+00 0.0 
6.419112768489e+00 -3.432311925895e+02 0.0 
0.0 0.0 -1.440038579507e+02 
-9.824357019099e+01 5.299202957685e+00 0.0 
5.299202957685e+00 -2.017965111632e+02 0.0 
0.0 0.0 -8.961202440626e+01 
-4.158212492033e+01 -5.929075379187e+00 0.0 
-5.929075379187e+00 -9.262878816983e+01 0.0 
0.0 0.0 -3.577846235343e+01 
-1.118325396383e+02 6.699880446476e+00 0.0 
6.699880446476e+00 -2.421542901128e+02 0.0 
0.0 0.0 -1.057960489253e+02 
-1.099327014472e+02 5.033912963824e+00 0.0 
5.033912963824e+00 -2.409771393155e+02 0.0 
0.0 0.0 -1.048729522288e+02 
-4.562163930359e+01 -4.977897089248e+00 0.0 
-4.977897089248e+00 -1.054459025636e+02 0.0 
0.0 0.0 -4.029671011947e+01 
-5.239355681753e+01 3.017727649897e+01 0.0 
3.017727649897e+01 -8.821699215338e+01 0.0 
0.0 0.0 -3.895209004392e+01 
-4.889748028741e+01 -8.084230696652e+00 0.0 
-8.084230696652e+00 -1.086164693034e+02 0.0 
0.0 0.0 -4.287008642623e+01 
-1.261297445523e+02 1.150139167315e+00 0.0 
1.150139167315e+00 -3.066176449237e+02 0.0 
0.0 0.0 -1.288464948015e+02 
-1.076360312206e+02 -2.617786776246e+00 0.0 
-2.617786776246e+00 -2.445762381708e+02 0.0 
0.0 0.0 -1.019641033485e+02 
-1.165543776555e+02 1.373360018318e+01 0.0 
1.373360018318e+01 -2.520814106420e+02 0.0 
0.0 0.0 -1.101907364893e+02 
-1.067478718451e+02 3.867100146692e+00 0.0 
3.867100146692e+00 -2.319295280476e+02 0.0 
0.0 0.0 -1.012032199678e+02 
-1.232315054825e+02 8.891829826590e-01 0.0 
8.891829826590e-01 -2.985678637572e+02 0.0 
0.0 0.0 -1.251335954972e+02 
-1.193691855631e+02 -2.490924022297e-01 0.0 
-2.490924022297e-01 -2.976590175886e+02 0.0 
0.0 0.0 -1.245088250872e+02 
-4.181729865539e+01 -9.238587603125e+00 0.0 
-9.238587603125e+00 -8.786756746184e+01 0.0 
0.0 0.0 -3.537365144298e+01 
-1.233736408183e+02 -1.971523228616e-01 0.0 
-1.971523228616e-01 -3.058909369187e+02 0.0 
0.0 0.0 -1.283793733211e+02 
-9.647695742801e+01 3.411613457788e+00 0.0 
3.411613457788e+00 -2.007289788511e+02 0.0 
0.0 0.0 -8.876178088374e+01 
-1.098104908770e+02 -1.037052128437e+00 0.0 
-1.037052128437e+00 -2.453815813168e+02 0.0 
0.0 0.0 -1.024926215699e+02 
-9.034892428329e+01 3.556447077395e+00 0.0 
3.556447077395e+00 -1.830988093618e+02 0.0 
0.0 0.0 -8.163432009353e+01 
-1.014985601082e+02 5.069941759527e+00 0.0 
5.069941759527e+00 -2.126084561730e+02 0.0 
0.0 0.0 -9.383210488439e+01 
-7.240166228714e+01 1.800381745516e+01 0.0 
1.800381745516e+01 -2.138525328004e+02 0.0 
0.0 0.0 -8.866426991263e+01 
-1.032479923160e+02 2.935823086994e+00 0.0 
2.935823086994e+00 -2.225313336463e+02 0.0 
0.0 0.0 -9.733379778871e+01 
-9.474059115003e+01 -4.029936383845e+00 0.0 
-4.029936383845e+00 -2.053170108436e+02 0.0 
0.0 0.0 -8.484056582125e+01 
-1.068074233414e+02 -1.862183386082e+00 0.0 
-1.862183386082e+00 -2.370501319553e+02 0.0 
0.0 0.0 -9.862639389199e+01 
-7.397867069797e+01 -6.393877580910e+00 0.0 
-6.393877580910e+00 -1.549804327624e+02 0.0 
0.0 0.0 -6.188815078961e+01 
-7.478901065737e+01 -1.209892674708e+01 0.0 
-1.209892674708e+01 -1.686250996000e+02 0.0 
0.0 0.0 -7.028102353845e+01 
-9.269458215233e+01 2.522994096968e+00 0.0 
2.522994096968e+00 -1.914026117830e+02 0.0 
0.0 0.0 -8.482915818059e+01 
-9.435883448305e+01 -6.042188679209e+00 0.0 
-6.042188679209e+00 -2.327292374683e+02 0.0 
0.0 0.0 -9.789807066736e+01 
-5.322108990329e+01 -6.746448401902e+00 0.0 
-6.746448401902e+00 -1.175893445950e+02 0.0 
0.0 0.0 -4.615125727588e+01 
-2.535137391568e+01 -3.374114300407e+00 0.0 
-3.374114300407e+00 -5.838436515447e+01 0.0 
0.0 0.0 -2.169738601648e+01 
-9.433014364773e+01 4.359549599733e+00 0.0 
4.359549599733e+00 -1.924056631139e+02 0.0 
0.0 0.0 -8.562074202849e+01 
-5.494468413818e+01 -9.281273963991e+00 0.0 
-9.281273963991e+00 -1.168916738681e+02 0.0 
0.0 0.0 -4.688551757361e+01 
-1.473834500761e+02 4.186611235716e+00 0.0 
4.186611235716e+00 -3.592747695369e+02 0.0 
0.0 0.0 -1.515974658839e+02 
-9.626725968413e+01 2.353426597905e+00 0.0 
2.353426597905e+00 -2.023023408322e+02 0.0 
0.0 0.0 -8.917088015490e+01 
-1.277445713031e+02 4.697317891002e-01 0.0 
4.697317891002e-01 -3.168101143479e+02 0.0 
0.0 0.0 -1.329664056953e+02 
-1.524468625006e+02 1.491679321653e+01 0.0 
1.491679321653e+01 -3.654374739761e+02 0.0 
0.0 0.0 -1.549653009430e+02 
-9.232803777260e+01 -3.115611437715e+00 0.0 
-3.115611437715e+00 -1.967545125759e+02 0.0 
0.0 0.0 -8.093116536320e+01 
-4.882968767017e+01 -7.835930359890e+00 0.0 
-7.835930359890e+00 -1.043309602567e+02 0.0 
0.0 0.0 -4.141840347592e+01 
-3.231463634460e+01 -7.418762819348e+00 0.0 
-7.418762819348e+00 -6.643359055712e+01 0.0 
0.0 0.0 -2.691536325351e+01 
-1.218720367891e+02 1.511269314539e+00 0.0 
1.511269314539e+00 -3.016419756788e+02 0.0 
0.0 0.0 -1.260339381681e+02 
-8.526489635342e+01 1.104539033329e+00 0.0 
1.104539033329e+00 -1.731413979134e+02 0.0 
0.0 0.0 -7.712188828005e+01 
-2.212942932277e+01 -4.360741941139e+00 0.0 
-4.360741941139e+00 -4.719877871179e+01 0.0 
0.0 0.0 -1.838269849214e+01 
-7.511245794885e+01 -6.264551720252e+00 0.0 
-6.264551720252e+00 -1.596987575008e+02 0.0 
0.0 0.0 -6.451581128461e+01 
-3.333311663417e+01 -9.778784211880e-01 0.0 
-9.778784211880e-01 -9.024077325117e+01 0.0 
0.0 0.0 -3.524718600371e+01 
-8.686687186757e+01 3.619600604295e+00 0.0 
3.619600604295e+00 -1.723189533471e+02 0.0 
0.0 0.0 -7.735574756440e+01 
-7.963564131685e+01 -4.846950642126e+00 0.0 
-4.846950642126e+00 -1.681689318947e+02 0.0 
0.0 0.0 -6.760936930914e+01 
-1.111363530211e+02 -6.136123263831e-01 0.0 
-6.136123263831e-01 -2.814336785228e+02 0.0 
0.0 0.0 -1.168430930286e+02 
-7.441715335621e+01 -3.946938638540e+00 0.0 
-3.946938638540e+00 -1.560461922862e+02 0.0 
0.0 0.0 -6.288861003338e+01 
-1.044709074718e+02 3.610607472235e+00 0.0 
3.610607472235e+00 -2.251137353333e+02 0.0 
0.0 0.0 -9.847539284153e+01 
-6.462762812742e+01 -9.041410313327e+00 0.0 
-9.041410313327e+00 -1.377463472031e+02 0.0 
0.0 0.0 -5.545546845879e+01 
-1.199707528630e+02 2.805757385826e+00 0.0 
2.805757385826e+00 -3.042989974984e+02 0.0 
0.0 0.0 -1.268389967439e+02 
-4.987368212716e+01 -1.418066979086e+01 0.0 
-1.418066979086e+01 -1.001367676559e+02 0.0 
0.0 0.0 -4.106552984398e+01 
-1.182362304186e+02 1.141941164408e+00 0.0 
1.141941164408e+00 -2.936422618191e+02 0.0 
0.0 0.0 -1.222346147720e+02 
-1.036184121955e+02 -1.704969328660e+00 0.0 
-1.704969328660e+00 -2.259048280706e+02 0.0 
0.0 0.0 -9.404337515393e+01 
-1.229754541696e+02 4.849521901618e-01 0.0 
4.849521901618e-01 -3.086888922506e+02 0.0 
0.0 0.0 -1.290993039261e+02 
-5.450481230546e+01 1.318592309280e+00 0.0 
1.318592309280e+00 -1.754343267267e+02 0.0 
0.0 0.0 -6.600278517576e+01 
-3.758232707812e+01 -3.834188701666e+00 0.0 
-3.834188701666e+00 -8.905724468096e+01 0.0 
0.0 0.0 -3.457914886118e+01 
-7.886328428327e+01 2.330058072766e+00 0.0 
2.330058072766e+00 -1.538236343970e+02 0.0 
0.0 0.0 -6.940607560409e+01 
-1.010882063216e+02 7.590204205864e+00 0.0 
7.590204205864e+00 -2.793854620311e+02 0.0 
0.0 0.0 -1.167997546033e+02 
-7.393151091146e+01 2.862430140977e+01 0.0 
2.862430140977e+01 -1.511831214522e+02 0.0 
0.0 0.0 -6.556024382784e+01 
-8.636385107324e+01 2.904854049312e+00 0.0 
2.904854049312e+00 -1.736962468997e+02 0.0 
0.0 0.0 -7.761802939188e+01 
-5.508429274611e+01 -1.700169400236e+01 0.0 
-1.700169400236e+01 -1.164554020574e+02 0.0 
0.0 0.0 -4.811834998108e+01 
-8.975856133777e+01 3.705442036394e+00 0.0 
3.705442036394e+00 -1.793371523392e+02 0.0 
0.0 0.0 -8.032871410308e+01 
-2.809123787033e+01 -1.665698005532e+00 0.0 
-1.665698005532e+00 -8.122092130753e+01 0.0 
0.0 0.0 -3.108975794662e+01 
-1.384350082487e+02 4.784722090374e+00 0.0 
4.784722090374e+00 -3.415826634194e+02 0.0 
0.0 0.0 -1.436053015004e+02 
-1.048564519156e+02 1.001476066455e+01 0.0 
1.001476066455e+01 -2.871129871757e+02 0.0 
0.0 0.0 -1.190346808613e+02 
-1.080739895338e+02 1.794372695798e+01 0.0 
1.794372695798e+01 -2.855465903656e+02 0.0 
0.0 0.0 -1.176861739698e+02 
-1.149551666356e+02 6.394294858880e+00 0.0 
6.394294858880e+00 -2.536423662866e+02 0.0 
0.0 0.0 -1.101792598766e+02 
-1.007848214972e+02 -3.219258936712e+00 0.0 
-3.219258936712e+00 -2.514395600812e+02 0.0 
0.0 0.0 -1.052332259584e+02 
-3.775467091251e+01 -6.738766277106e+00 0.0 
-6.738766277106e+00 -8.388435906284e+01 0.0 
0.0 0.0 -3.280477763294e+01 
-1.104592850994e+02 1.360410615017e-01 0.0 
1.360410615017e-01 -2.777917543076e+02 0.0 
0.0 0.0 -1.145265303715e+02 
-1.420070103208e+02 4.704319516713e+00 0.0 
4.704319516713e+00 -3.508417120848e+02 0.0 
0.0 0.0 -1.474546167217e+02 
-6.291618798331e+01 -1.737565321742e+01 0.0 
-1.737565321742e+01 -1.523087916104e+02 0.0 
0.0 0.0 -6.302423744006e+01 
-1.254093860266e+02 1.789513315170e+00 0.0 
1.789513315170e+00 -3.096851485207e+02 0.0 
0.0 0.0 -1.298598573005e+02 
-9.768996826243e+01 4.175134538939e+00 0.0 
4.175134538939e+00 -2.032127501740e+02 0.0 
0.0 0.0 -8.987081553092e+01 
-5.026650382119e+01 -1.629333742746e+01 0.0 
-1.629333742746e+01 -1.273977737997e+02 0.0 
0.0 0.0 -4.761383231752e+01 
-1.144459738539e+02 6.888399776349e-01 0.0 
6.888399776349e-01 -2.856970419745e+02 0.0 
0.0 0.0 -1.184188971103e+02 
-7.971233675023e+01 3.785422801043e+00 0.0 
3.785422801043e+00 -1.507377974064e+02 0.0 
0.0 0.0 -6.873504024700e+01 
-5.592533815320e+01 -2.869941426319e+00 0.0 
-2.869941426319e+00 -1.229121049936e+02 0.0 
0.0 0.0 -4.908649567682e+01 
-7.045270890199e+01 -7.945202015482e+00 0.0 
-7.945202015482e+00 -1.512200624299e+02 0.0 
0.0 0.0 -6.142614851530e+01 
-8.182205635580e+01 2.489985264104e+01 0.0 
2.489985264104e+01 -1.888877323277e+02 0.0 
0.0 0.0 -7.878103675879e+01 
-1.182822224959e+02 4.780364347025e-01 0.0 
4.780364347025e-01 -3.005811919425e+02 0.0 
0.0 0.0 -1.252590243315e+02 
-6.680679972972e+01 2.703423004505e+01 0.0 
2.703423004505e+01 -1.166020606037e+02 0.0 
0.0 0.0 -5.040997519397e+01 
-7.786869629299e+01 2.488501725925e+01 0.0 
2.488501725925e+01 -1.845895836747e+02 0.0 
0.0 0.0 -7.693520885770e+01 
-9.312078529024e+01 3.567775957304e+00 0.0 
3.567775957304e+00 -1.899860203974e+02 0.0 
0.0 0.0 -8.453204170629e+01 
-8.137690491950e+01 1.125538497712e+00 0.0 
1.125538497712e+00 -1.621665022473e+02 0.0 
0.0 0.0 -7.266302215004e+01 
-8.218578897907e+01 2.751861022623e+00 0.0 
2.751861022623e+00 -1.591995818543e+02 0.0 
0.0 0.0 -7.201561125003e+01 
-1.014553364475e+02 -3.234101269215e+00 0.0 
-3.234101269215e+00 -2.249794828905e+02 0.0 
0.0 0.0 -9.345515702491e+01 
-1.329031617070e+02 6.883497145704e+00 0.0 
6.883497145704e+00 -3.346926263748e+02 0.0 
0.0 0.0 -1.398787364245e+02 
-1.062489599209e+02 -4.797740392152e-01 0.0 
-4.797740392152e-01 -2.699208259900e+02 0.0 
0.0 0.0 -1.118934640302e+02 
-7.900131259628e+01 2.922779689812e+00 0.0 
2.922779689812e+00 -1.522522969308e+02 0.0 
0.0 0.0 -6.897608285814e+01 
-1.243908230914e+02 2.004405046704e+01 0.0 
2.004405046704e+01 -2.702855051074e+02 0.0 
0.0 0.0 -1.180028984596e+02 
-1.134744936252e+02 1.928928348582e+01 0.0 
1.928928348582e+01 -2.919974171042e+02 0.0 
0.0 0.0 -1.212415732188e+02 
-1.136176856293e+02 4.600387066241e-01 0.0 
4.600387066241e-01 -2.924587858394e+02 0.0 
0.0 0.0 -1.214229414406e+02 
-9.986930580036e+01 3.211245226101e+00 0.0 
3.211245226101e+00 -2.116037511834e+02 0.0 
0.0 0.0 -9.304191709512e+01 
-7.959956799633e+01 -9.917756795671e+00 0.0 
-9.917756795671e+00 -1.761823315932e+02 0.0 
0.0 0.0 -7.324415737280e+01 
-7.546168244470e+01 -9.033859412622e+00 0.0 
-9.033859412622e+00 -1.637002317730e+02 0.0 
0.0 0.0 -6.735948372502e+01 
-3.707696618681e+01 -6.824446851538e+00 0.0 
-6.824446851538e+00 -8.732932529096e+01 0.0 
0.0 0.0 -3.335663408918e+01 
-1.112567671907e+02 2.393081281640e+00 0.0 
2.393081281640e+00 -2.881019179506e+02 0.0 
0.0 0.0 -1.189843227507e+02 
-8.013097216942e+01 -7.210214612742e+00 0.0 
-7.210214612742e+00 -1.719636325280e+02 0.0 
0.0 0.0 -7.038791011174e+01 
-9.095078728813e+01 4.523457767521e+00 0.0 
4.523457767521e+00 -1.815913048235e+02 0.0 
0.0 0.0 -8.136262763348e+01 
-8.756623480201e+01 4.667472077057e+00 0.0 
4.667472077057e+00 -1.708809543788e+02 0.0 
0.0 0.0 -7.713415675425e+01 
-7.341155485554e+01 1.239760395534e+01 0.0 
1.239760395534e+01 -2.211949958328e+02 0.0 
0.0 0.0 -9.175098513873e+01 
-6.424716429876e+01 -1.129079213867e+01 0.0 
-1.129079213867e+01 -1.420104645948e+02 0.0 
0.0 0.0 -5.768565174876e+01 
-5.209563697613e+01 1.618483174243e+01 0.0 
1.618483174243e+01 -1.654029105904e+02 0.0 
0.0 0.0 -6.216594758896e+01 
-6.899464011077e+01 -9.715600971845e+00 0.0 
-9.715600971845e+00 -1.503037327446e+02 0.0 
0.0 0.0 -6.080518191329e+01 
-7.263320074113e+01 -9.977616546993e+00 0.0 
-9.977616546993e+00 -1.628036969170e+02 0.0 
0.0 0.0 -6.610627756080e+01 
-4.488820245569e+01 -8.730241479730e+00 0.0 
-8.730241479730e+00 -9.609904473705e+01 0.0 
0.0 0.0 -3.829138716245e+01 
-1.275648046240e+02 7.428627181693e+00 0.0 
7.428627181693e+00 -3.259649739138e+02 0.0 
0.0 0.0 -1.356589335613e+02 
-8.022115298294e+01 -7.687731911811e+00 0.0 
-7.687731911811e+00 -1.999291035534e+02 0.0 
0.0 0.0 -8.191276252871e+01 
-1.047266444644e+02 4.768387875256e+00 0.0 
4.768387875256e+00 -2.234690291031e+02 0.0 
0.0 0.0 -9.805870207026e+01 
-8.193766691008e+01 -6.180723820717e+00 0.0 
-6.180723820717e+00 -2.113295098237e+02 0.0 
0.0 0.0 -8.709948644217e+01 
-1.040427212842e+02 6.381414681948e-01 0.0 
6.381414681948e-01 -2.761041748000e+02 0.0 
0.0 0.0 -1.136440688253e+02 
-9.358755349405e+01 -3.053644053585e+00 0.0 
-3.053644053585e+00 -2.384280960021e+02 0.0 
0.0 0.0 -9.788658816220e+01 
-7.374254020941e+01 2.354529900204e+01 0.0 
2.354529900204e+01 -1.927332403618e+02 0.0 
0.0 0.0 -8.010495871765e+01 
-4.117838760178e+01 -6.101752186692e+00 0.0 
-6.101752186692e+00 -9.646053826954e+01 0.0 
0.0 0.0 -3.673918377233e+01 
-1.365505651468e+02 5.240275161642e+00 0.0 
5.240275161642e+00 -3.422593896609e+02 0.0 
0.0 0.0 -1.432429864423e+02 
-1.433227273437e+02 8.014051264059e+00 0.0 
8.014051264059e+00 -3.538432464742e+02 0.0 
0.0 0.0 -1.487497921454e+02 
-9.971934885651e+01 2.246366902055e+01 0.0 
2.246366902055e+01 -2.325271506307e+02 0.0 
0.0 0.0 -9.927394984616e+01 
-7.564825174984e+01 -9.690602294752e+00 0.0 
-9.690602294752e+00 -1.753573817561e+02 0.0 
0.0 0.0 -7.133639219054e+01 
-9.881375164815e+01 -1.030305589757e+00 0.0 
-1.030305589757e+00 -2.573365515344e+02 0.0 
0.0 0.0 -1.053269496228e+02 
-8.916536233690e+01 2.609198642747e+00 0.0 
2.609198642747e+00 -1.805135205444e+02 0.0 
0.0 0.0 -8.050366486438e+01 
-8.433393433927e+01 -7.909941994309e+00 0.0 
-7.909941994309e+00 -1.843732753291e+02 0.0 
0.0 0.0 -7.619688008761e+01 
-6.611433041770e+01 2.766301793083e+01 0.0 
2.766301793083e+01 -1.469698315224e+02 0.0 
0.0 0.0 -6.143438590067e+01 
-6.466658769402e+01 -6.670138246310e+00 0.0 
-6.670138246310e+00 -1.388271945885e+02 0.0 
0.0 0.0 -5.545011122370e+01 
-5.875127759551e+01 -1.755755597619e+01 0.0 
-1.755755597619e+01 -1.330706962749e+02 0.0 
0.0 0.0 -5.470274115231e+01 
-8.287007101173e+01 -1.037217684809e+01 0.0 
-1.037217684809e+01 -1.888847102653e+02 0.0 
0.0 0.0 -7.905686572879e+01 
-5.943439629788e+01 -8.048410898365e+00 0.0 
-8.048410898365e+00 -1.252577678173e+02 0.0 
0.0 0.0 -5.006227301994e+01 
-5.060180066715e+01 -3.843747723830e+00 0.0 
-3.843747723830e+00 -1.144448505193e+02 0.0 
0.0 0.0 -4.482269613654e+01 
-9.940326724137e+01 -4.784342873129e+00 0.0 
-4.784342873129e+00 -2.402444051389e+02 0.0 
0.0 0.0 -1.003802709921e+02 
-1.087936901662e+02 5.104500531598e-01 0.0 
5.104500531598e-01 -2.842806992735e+02 0.0 
0.0 0.0 -1.175223168319e+02 
-1.191372536439e+02 2.179666876542e+01 0.0 
2.179666876542e+01 -2.761831305767e+02 0.0 
0.0 0.0 -1.181961152662e+02 
-1.306834010744e+01 -5.398353917819e-02 0.0 
-5.398353917819e-02 -8.601879169182e+00 0.0 
0.0 0.0 -5.311491159253e+00 
-7.112240707846e+01 -5.370274921366e+00 0.0 
-5.370274921366e+00 -2.061937731248e+02 0.0 
0.0 0.0 -8.457953772182e+01 
-7.666371093932e+01 -7.030797125647e+00 0.0 
-7.030797125647e+00 -2.037944305998e+02 0.0 
0.0 0.0 -8.386874709640e+01 
-7.815165975835e+01 -8.861064395344e+00 0.0 
-8.861064395344e+00 -1.878520587200e+02 0.0 
0.0 0.0 -7.661209501580e+01 
-8.567619432192e+01 2.695768048745e+00 0.0 
2.695768048745e+00 -1.697525874877e+02 0.0 
0.0 0.0 -7.622863454290e+01 
-8.719922562348e+01 -5.308095759065e+00 0.0 
-5.308095759065e+00 -2.192473308481e+02 0.0 
0.0 0.0 -9.015316714911e+01 
-6.933893827893e+01 -7.615873749123e+00 0.0 
-7.615873749123e+00 -1.462759695742e+02 0.0 
0.0 0.0 -5.863523956438e+01 
-8.532841154027e+01 -1.008693229441e+01 0.0 
-1.008693229441e+01 -2.015055697187e+02 0.0 
0.0 0.0 -8.464598945520e+01 
-9.968211761830e+01 2.102303721894e+00 0.0 
2.102303721894e+00 -2.132309637129e+02 0.0 
0.0 0.0 -9.347392439936e+01 
-6.936234181901e+01 -5.235018238898e+00 0.0 
-5.235018238898e+00 -1.474709206699e+02 0.0 
0.0 0.0 -5.862167310909e+01 
-2.305896090711e+01 -4.806404778147e+00 0.0 
-4.806404778147e+00 -5.480164098142e+01 0.0 
0.0 0.0 -2.084638036344e+01 
-3.445608670167e+01 -6.933647026769e+00 0.0 
-6.933647026769e+00 -7.568250339305e+01 0.0 
0.0 0.0 -2.975297661883e+01 
-5.578744646882e+01 -1.552139064252e+01 0.0 
-1.552139064252e+01 -1.348550580155e+02 0.0 
0.0 0.0 -5.399457069571e+01 
-6.763652090093e+01 -1.163455973271e+01 0.0 
-1.163455973271e+01 -1.548061044929e+02 0.0 
0.0 0.0 -6.299127219310e+01 
-7.792555689598e+01 -4.809657396298e+00 0.0 
-4.809657396298e+00 -2.145622035325e+02 0.0 
0.0 0.0 -8.878569739770e+01 
-8.713320302230e+01 -9.088946661186e+00 0.0 
-9.088946661186e+00 -2.136247109215e+02 0.0 
0.0 0.0 -8.992524432924e+01 
-4.953153729685e+01 -1.481561613200e+01 0.0 
-1.481561613200e+01 -9.500861889304e+01 0.0 
0.0 0.0 -3.855102096029e+01 
-2.815064097505e+01 -4.373292815630e+00 0.0 
-4.373292815630e+00 -7.538327844112e+01 0.0 
0.0 0.0 -2.793855328306e+01 
-8.486922847189e+01 6.106490314789e+00 0.0 
6.106490314789e+00 -1.587514902458e+02 0.0 
0.0 0.0 -7.268621561532e+01 
-5.807655177362e+01 -5.285369957616e+00 0.0 
-5.285369957616e+00 -1.266557507578e+02 0.0 
0.0 0.0 -4.944919565651e+01 
-1.210254280322e+02 4.676286314352e+00 0.0 
4.676286314352e+00 -3.152773343081e+02 0.0 
0.0 0.0 -1.304908287021e+02 
-1.150591148615e+02 2.177677878875e+01 0.0 
2.177677878875e+01 -2.706220406095e+02 0.0 
0.0 0.0 -1.153043466413e+02 
-9.312443282633e+01 1.446121466212e+01 0.0 
1.446121466212e+01 -1.731893207478e+02 0.0 
0.0 0.0 -7.949412607224e+01 
-1.076702746024e+02 6.806802391145e+00 0.0 
6.806802391145e+00 -2.298152823756e+02 0.0 
0.0 0.0 -1.008456670934e+02 
-1.229354443807e+02 2.164474035978e+01 0.0 
2.164474035978e+01 -2.820509808205e+02 0.0 
0.0 0.0 -1.210959275604e+02 
-7.024069841582e+01 1.537204966977e+01 0.0 
1.537204966977e+01 -2.098492699291e+02 0.0 
0.0 0.0 -8.600146233718e+01 
-1.072892685798e+02 2.194603587651e+01 0.0 
2.194603587651e+01 -2.515535740147e+02 0.0 
0.0 0.0 -1.072528527784e+02 
-5.489111191633e+01 -1.816131643624e+01 0.0 
-1.816131643624e+01 -1.136920530881e+02 0.0 
0.0 0.0 -4.595930422476e+01 
-9.052281838598e+01 -8.055174090211e+00 0.0 
-8.055174090211e+00 -2.090318414361e+02 0.0 
0.0 0.0 -8.744222426988e+01 
-6.957223945036e+01 2.473158439112e+01 0.0 
2.473158439112e+01 -1.898231646838e+02 0.0 
0.0 0.0 -7.922571165551e+01 
-4.658383684380e+01 -1.180705205870e+01 0.0 
-1.180705205870e+01 -1.397364640620e+02 0.0 
0.0 0.0 -5.049351148145e+01 
-4.999401209004e+01 -1.760188715043e+01 0.0 
-1.760188715043e+01 -9.199258086937e+01 0.0 
0.0 0.0 -3.692116405475e+01 
-7.749144354040e+01 -8.410048732972e+00 0.0 
-8.410048732972e+00 -1.711369279560e+02 0.0 
0.0 0.0 -6.921161615983e+01 
-8.097920332445e+01 -1.081153339399e+01 0.0 
-1.081153339399e+01 -2.062406789733e+02 0.0 
0.0 0.0 -8.665468108117e+01 
-8.202051581034e+01 -8.622694393610e+00 0.0 
-8.622694393610e+00 -2.176508293334e+02 0.0 
0.0 0.0 -9.142133131009e+01 
-6.413488087147e+01 -6.705169683872e+00 0.0 
-6.705169683872e+00 -1.338913028022e+02 0.0 
0.0 0.0 -5.329350604222e+01 
-8.877443000874e+01 -3.507413826867e+00 0.0 
-3.507413826867e+00 -2.303255697937e+02 0.0 
0.0 0.0 -9.522064465574e+01 
-7.595297911713e+01 -8.900064350374e+00 0.0 
-8.900064350374e+00 -2.117199229109e+02 0.0 
0.0 0.0 -8.821730793367e+01 
-7.265470521573e+01 -1.979901181226e+00 0.0 
-1.979901181226e+00 -2.155253408302e+02 0.0 
0.0 0.0 -8.904300110668e+01 
-7.076426544241e+01 -1.121181556054e+01 0.0 
-1.121181556054e+01 -1.555872668868e+02 0.0 
0.0 0.0 -6.438688598742e+01 
-1.034643356196e+02 1.326536089952e+01 0.0 
1.326536089952e+01 -2.837342347735e+02 0.0 
0.0 0.0 -1.170840905127e+02 
-9.500020590346e+01 5.522108772107e+00 0.0 
5.522108772107e+00 -1.911092396549e+02 0.0 
0.0 0.0 -8.543283366751e+01 
-6.896317850242e+01 3.257446411534e-02 0.0 
3.257446411534e-02 -2.098387714304e+02 0.0 
0.0 0.0 -8.547775479454e+01 
-1.311707634430e+02 5.801089169997e+00 0.0 
5.801089169997e+00 -3.337235292626e+02 0.0 
0.0 0.0 -1.390682878117e+02 
-5.648363539043e+01 -1.828961403365e+01 0.0 
-1.828961403365e+01 -1.304023197173e+02 0.0 
0.0 0.0 -5.186307164772e+01 
-1.413852669420e+02 9.267237791872e+00 0.0 
9.267237791872e+00 -3.527752981446e+02 0.0 
0.0 0.0 -1.478481695260e+02 
-8.339823265316e+01 -4.207534428562e+00 0.0 
-4.207534428562e+00 -2.222422638424e+02 0.0 
0.0 0.0 -9.212713042788e+01 
-1.269082256164e+02 2.156679225333e+01 0.0 
2.156679225333e+01 -2.898946367207e+02 0.0 
0.0 0.0 -1.246408587011e+02 
-9.500499997392e+01 2.234912200217e+01 0.0 
2.234912200217e+01 -1.957631705750e+02 0.0 
0.0 0.0 -8.683045116467e+01 
-5.219155958091e+01 -1.633911093746e+01 0.0 
-1.633911093746e+01 -1.159935772540e+02 0.0 
0.0 0.0 -4.582178878688e+01 
-9.661517445314e+01 1.644825571553e+01 0.0 
1.644825571553e+01 -1.849498863664e+02 0.0 
0.0 0.0 -8.406951824585e+01 
-1.122054798324e+02 9.985603924533e+00 0.0 
9.985603924533e+00 -2.400398535535e+02 0.0 
0.0 0.0 -1.052736000157e+02 
-8.459617249012e+01 -1.770515029995e+00 0.0 
-1.770515029995e+00 -2.325136773720e+02 0.0 
0.0 0.0 -9.691139013752e+01 
-5.551121855039e+01 2.813676151611e+01 0.0 
2.813676151611e+01 -1.394133049280e+02 0.0 
0.0 0.0 -5.639220323920e+01 
-9.989846817824e+01 1.826322138547e+01 0.0 
1.826322138547e+01 -1.972299461339e+02 0.0 
0.0 0.0 -8.873852429364e+01 
-8.037293027919e+01 2.733777668016e+01 0.0 
2.733777668016e+01 -1.708469652688e+02 0.0 
0.0 0.0 -7.340780326003e+01 
-4.914738005496e+01 -1.597091200458e+01 0.0 
-1.597091200458e+01 -9.514502837473e+01 0.0 
0.0 0.0 -3.814504293641e+01 
-1.206043625168e+02 8.511037803157e+00 0.0 
8.511037803157e+00 -2.713886328512e+02 0.0 
0.0 0.0 -1.171978986104e+02 
-4.461178491504e+01 -1.344969021461e+01 0.0 
-1.344969021461e+01 -7.950867489017e+01 0.0 
0.0 0.0 -3.298562982088e+01 
-1.344453321013e+02 1.859303221927e+01 0.0 
1.859303221927e+01 -3.335672007892e+02 0.0 
0.0 0.0 -1.400037598671e+02 
-1.099060024441e+02 3.501530852716e+00 0.0 
3.501530852716e+00 -2.426660855183e+02 0.0 
0.0 0.0 -1.053716263887e+02 
-1.091427194948e+02 1.227590747179e+01 0.0 
1.227590747179e+01 -2.944410377434e+02 0.0 
0.0 0.0 -1.211896590527e+02 
-8.153643035639e+01 1.780511528579e+00 0.0 
1.780511528579e+00 -1.602822400085e+02 0.0 
0.0 0.0 -7.214560110947e+01 
-1.060132311391e+02 7.555537269668e+00 0.0 
7.555537269668e+00 -2.211751142695e+02 0.0 
0.0 0.0 -9.775650362259e+01 
-7.798325274784e+01 -4.692223223954e+00 0.0 
-4.692223223954e+00 -2.213653911203e+02 0.0 
0.0 0.0 -9.258857301582e+01 
-7.993850946472e+01 1.267696193616e+01 0.0 
1.267696193616e+01 -2.372299273118e+02 0.0 
0.0 0.0 -1.001116996798e+02 
-1.142885291026e+02 7.674464264483e+00 0.0 
7.674464264483e+00 -2.502811175828e+02 0.0 
0.0 0.0 -1.089708940056e+02 
-1.176997023433e+02 1.571667344921e+00 0.0 
1.571667344921e+00 -3.031025368015e+02 0.0 
0.0 0.0 -1.258406717435e+02 
-9.908396741228e+01 6.627936029047e+00 0.0 
6.627936029047e+00 -2.008038039745e+02 0.0 
0.0 0.0 -8.956633141604e+01 
-1.039526920079e+02 6.263328503848e+00 0.0 
6.263328503848e+00 -2.876824728748e+02 0.0 
0.0 0.0 -1.178538641354e+02 
-4.953415311963e+01 -1.722158976902e+01 0.0 
-1.722158976902e+01 -1.115641444819e+02 0.0 
0.0 0.0 -4.227088084037e+01 
-1.031236069185e+02 7.879996574781e+00 0.0 
7.879996574781e+00 -2.106258620851e+02 0.0 
0.0 0.0 -9.372484070108e+01 
-1.387292896912e+02 2.486619753329e+01 0.0 
2.486619753329e+01 -3.253854960974e+02 0.0 
0.0 0.0 -1.388344357366e+02 
-1.421612867237e+02 6.709798839609e+00 0.0 
6.709798839609e+00 -3.529414600379e+02 0.0 
0.0 0.0 -1.481308240285e+02 
-8.528906683158e+01 -6.715261138471e+00 0.0 
-6.715261138471e+00 -2.076481339294e+02 0.0 
0.0 0.0 -8.495453394270e+01 
-8.322579549857e+01 3.769972319529e+00 0.0 
3.769972319529e+00 -1.612679749687e+02 0.0 
0.0 0.0 -7.294813114019e+01 
-7.784757589697e+01 1.788759833186e+00 0.0 
1.788759833186e+00 -1.496163041157e+02 0.0 
0.0 0.0 -6.783916400379e+01 
-8.845206326601e+01 -7.390937682313e+00 0.0 
-7.390937682313e+00 -2.251921519494e+02 0.0 
0.0 0.0 -9.489279596033e+01 
-1.126307457516e+02 1.656391749310e+00 0.0 
1.656391749310e+00 -2.948969238885e+02 0.0 
0.0 0.0 -1.218583008920e+02 
-1.167362497944e+02 3.077048078499e+00 0.0 
3.077048078499e+00 -3.052576591142e+02 0.0 
0.0 0.0 -1.261981726726e+02 
-2.667559219576e+01 -3.854178766479e+00 0.0 
-3.854178766479e+00 -6.653302323466e+01 0.0 
0.0 0.0 -2.462217450895e+01 
-4.729801837896e+01 1.718503496383e+01 0.0 
1.718503496383e+01 -1.522842348645e+02 0.0 
0.0 0.0 -5.636162286548e+01 
-7.106158515083e+01 3.910516577473e+00 0.0 
3.910516577473e+00 -2.182700357120e+02 0.0 
0.0 0.0 -8.958331362450e+01 
-7.269029336687e+01 -2.751854868972e+00 0.0 
-2.751854868972e+00 -2.125648284640e+02 0.0 
0.0 0.0 -8.828417188126e+01 
-7.671458092085e+01 2.837752461967e+01 0.0 
2.837752461967e+01 -1.831764397461e+02 0.0 
0.0 0.0 -7.812257405389e+01 
-1.189284837289e+02 9.101925837484e+00 0.0 
9.101925837484e+00 -2.616140630269e+02 0.0 
0.0 0.0 -1.137627640267e+02 
-1.178224514370e+02 1.595791163121e+01 0.0 
1.595791163121e+01 -2.551190199044e+02 0.0 
0.0 0.0 -1.114824414024e+02 
-1.112945404718e+02 5.269932680144e+00 0.0 
5.269932680144e+00 -2.434572378852e+02 0.0 
0.0 0.0 -1.060255335071e+02 
-7.105944056420e+01 2.514610511158e+01 0.0 
2.514610511158e+01 -1.209761383694e+02 0.0 
0.0 0.0 -5.216072032948e+01 
-1.057346509814e+02 8.898822286656e+00 0.0 
8.898822286656e+00 -2.194176612126e+02 0.0 
0.0 0.0 -9.714569365818e+01 
-1.156598085934e+02 2.619417954185e+00 0.0 
2.619417954185e+00 -2.961977620231e+02 0.0 
0.0 0.0 -1.229212184675e+02 
-1.136656771983e+02 5.960879035132e+00 0.0 
5.960879035132e+00 -2.511425666594e+02 0.0 
0.0 0.0 -1.090424731573e+02 
-1.001770285156e+02 8.190706469461e+00 0.0 
8.190706469461e+00 -2.001429324096e+02 0.0 
0.0 0.0 -8.969598827757e+01 
-9.267924372300e+01 -7.337039307884e+00 0.0 
-7.337039307884e+00 -2.210822972140e+02 0.0 
0.0 0.0 -9.278416228885e+01 
-6.808387012261e+01 7.268408055108e+00 0.0 
7.268408055108e+00 -2.111721440203e+02 0.0 
0.0 0.0 -8.486097526542e+01 
-1.008885962054e+02 5.829705007334e+00 0.0 
5.829705007334e+00 -2.093323247953e+02 0.0 
0.0 0.0 -9.266627630021e+01 
-1.126417192642e+02 8.434294591584e+00 0.0 
8.434294591584e+00 -2.416349149980e+02 0.0 
0.0 0.0 -1.058829902786e+02 
-1.002554314192e+02 4.405418970803e+00 0.0 
4.405418970803e+00 -2.102684517996e+02 0.0 
0.0 0.0 -9.275716496565e+01 
-9.701721412340e+01 4.633404967941e+00 0.0 
4.633404967941e+00 -1.995917477085e+02 0.0 
0.0 0.0 -8.858268854958e+01 
-1.317940940957e+02 3.841715960142e+00 0.0 
3.841715960142e+00 -3.323335574818e+02 0.0 
0.0 0.0 -1.388382954733e+02 
-1.292930380767e+02 1.922626432207e+01 0.0 
1.922626432207e+01 -3.223328328420e+02 0.0 
0.0 0.0 -1.350877612756e+02 
-1.264740646735e+02 4.221413199403e+00 0.0 
4.221413199403e+00 -3.238759192221e+02 0.0 
0.0 0.0 -1.347049951687e+02 
-1.028323489992e+02 -9.718583094167e-01 0.0 
-9.718583094167e-01 -2.653736188591e+02 0.0 
0.0 0.0 -1.092216472307e+02 
-6.681780142940e+01 1.264984476405e+01 0.0 
1.264984476405e+01 -9.620653951083e+01 0.0 
0.0 0.0 -4.507717517488e+01 
-1.137939947187e+02 1.428349160971e+01 0.0 
1.428349160971e+01 -3.014506807494e+02 0.0 
0.0 0.0 -1.241734026404e+02 
-1.001105680959e+02 9.732034367386e+00 0.0 
9.732034367386e+00 -1.998412396518e+02 0.0 
0.0 0.0 -8.958554232429e+01 
-5.328716277323e+01 -6.720386825603e+00 0.0 
-6.720386825603e+00 -1.129986188297e+02 0.0 
0.0 0.0 -4.456977156467e+01 
-7.375281230093e+01 1.532367521682e+00 0.0 
1.532367521682e+00 -2.197501778742e+02 0.0 
0.0 0.0 -9.132102099221e+01 
-8.166647577812e+01 3.555390050347e+00 0.0 
3.555390050347e+00 -2.405010789167e+02 0.0 
0.0 0.0 -1.015100145599e+02 
-8.752136130608e+01 1.341561243972e+01 0.0 
1.341561243972e+01 -2.554989735454e+02 0.0 
0.0 0.0 -1.067923578407e+02 
-4.391026268014e+01 -1.074241042295e+00 0.0 
-1.074241042295e+00 -1.498420945834e+02 0.0 
0.0 0.0 -5.486860075937e+01 
-6.939169917782e+01 4.481333924114e+00 0.0 
4.481333924114e+00 -2.109582908869e+02 0.0 
0.0 0.0 -8.547290957898e+01 
-9.759073238517e+01 1.438952202138e+01 0.0 
1.438952202138e+01 -2.726972443157e+02 0.0 
0.0 0.0 -1.125922322670e+02 
-7.892570243185e+01 1.773804412488e+01 0.0 
1.773804412488e+01 -1.323451521127e+02 0.0 
0.0 0.0 -5.995345202156e+01 
-9.204122736483e+01 -4.640074523569e+00 0.0 
-4.640074523569e+00 -2.271865712375e+02 0.0 
0.0 0.0 -9.288159036393e+01 
-9.290770016946e+01 7.124208024157e+00 0.0 
7.124208024157e+00 -1.796301212950e+02 0.0 
0.0 0.0 -8.136134643934e+01 
-6.532074167347e+01 6.187066233287e-01 0.0 
6.187066233287e-01 -1.192898521833e+02 0.0 
0.0 0.0 -5.498317815704e+01 
-4.222618434802e+01 2.943695368144e+01 0.0 
2.943695368144e+01 -3.087117891770e+01 0.0 
0.0 0.0 -1.788031462687e+01 
-1.052671442147e+02 -2.350010225476e+00 0.0 
-2.350010225476e+00 -2.591132325419e+02 0.0 
0.0 0.0 -1.073634132102e+02 
-1.131545482090e+02 1.044386067555e+01 0.0 
1.044386067555e+01 -3.039730028177e+02 0.0 
0.0 0.0 -1.247382653080e+02 
-1.205279807936e+02 1.515949488565e+01 0.0 
1.515949488565e+01 -2.638158171594e+02 0.0 
0.0 0.0 -1.149031393859e+02 
-7.674967134408e+01 1.101510946813e+01 0.0 
1.101510946813e+01 -2.329013965012e+02 0.0 
0.0 0.0 -9.795232501894e+01 
-9.787222659446e+01 -2.762439885684e+00 0.0 
-2.762439885684e+00 -2.464204125509e+02 0.0 
0.0 0.0 -1.006225739103e+02 
-9.175939088952e+01 5.682149129910e+00 0.0 
5.682149129910e+00 -1.805087686655e+02 0.0 
0.0 0.0 -8.128044786650e+01 
-3.982570687086e+01 2.769484461683e+01 0.0 
2.769484461683e+01 -2.756905950260e+01 0.0 
0.0 0.0 -1.631214075794e+01 
-1.076274451796e+02 1.137218657647e+01 0.0 
1.137218657647e+01 -2.936037124471e+02 0.0 
0.0 0.0 -1.211076089659e+02 
-8.389211242597e+01 1.088567599592e+01 0.0 
1.088567599592e+01 -2.483344740102e+02 0.0 
0.0 0.0 -1.054056028947e+02 
-8.210460292205e+01 1.944902194559e+01 0.0 
1.944902194559e+01 -1.404810229402e+02 0.0 
0.0 0.0 -6.447860377948e+01 
-1.190225453978e+02 4.185347536603e+00 0.0 
4.185347536603e+00 -3.064664273419e+02 0.0 
0.0 0.0 -1.272466918219e+02 
-5.304924059037e+01 -1.552225570288e+01 0.0 
-1.552225570288e+01 -1.424509570197e+02 0.0 
0.0 0.0 -5.490039116439e+01 
-1.231982798938e+02 5.710554479023e+00 0.0 
5.710554479023e+00 -3.164234922355e+02 0.0 
0.0 0.0 -1.314865316388e+02 
-1.361239079616e+02 7.411255449259e+00 0.0 
7.411255449259e+00 -3.433297375994e+02 0.0 
0.0 0.0 -1.434360936683e+02 
-1.021264395929e+02 1.233987784647e+01 0.0 
1.233987784647e+01 -2.829682430744e+02 0.0 
0.0 0.0 -1.174972125152e+02 
-1.021396180542e+02 6.363426195126e+00 0.0 
6.363426195126e+00 -2.114051962890e+02 0.0 
0.0 0.0 -9.366344430295e+01 
-1.137047786279e+02 2.270436617879e+01 0.0 
2.270436617879e+01 -2.782420988766e+02 0.0 
0.0 0.0 -1.171840632513e+02 
-1.378181563957e+02 8.643825339319e+00 0.0 
8.643825339319e+00 -3.442739109712e+02 0.0 
0.0 0.0 -1.442276202101e+02 
-3.906826560691e+01 2.670694691596e+01 0.0 
2.670694691596e+01 -2.666487151300e+01 0.0 
0.0 0.0 -1.666650315799e+01 
-9.603066767362e+01 6.850297891838e+00 0.0 
6.850297891838e+00 -1.902428146618e+02 0.0 
0.0 0.0 -8.548204470062e+01 
-1.287618492678e+02 2.109014965415e+01 0.0 
2.109014965415e+01 -3.168738299761e+02 0.0 
0.0 0.0 -1.332907037732e+02 
-1.039677627960e+02 5.549571342410e+00 0.0 
5.549571342410e+00 -2.199651246778e+02 0.0 
0.0 0.0 -9.677986624214e+01 
-9.130358941746e+01 1.132052480995e+01 0.0 
1.132052480995e+01 -2.653860571075e+02 0.0 
0.0 0.0 -1.114157022755e+02 
-7.105517306416e+01 8.747959270461e+00 0.0 
8.747959270461e+00 -2.162576687055e+02 0.0 
0.0 0.0 -8.847250620840e+01 
-1.025808910151e+02 -3.751859614177e+00 0.0 
-3.751859614177e+00 -2.395946754965e+02 0.0 
0.0 0.0 -9.897410114861e+01 
-3.274874610688e+01 7.346919839425e+00 0.0 
7.346919839425e+00 -1.291777901447e+02 0.0 
0.0 0.0 -5.054614866669e+01 
-1.070828639671e+02 5.202027152858e+00 0.0 
5.202027152858e+00 -2.306409035349e+02 0.0 
0.0 0.0 -1.009171302506e+02 
-5.812254818471e+01 -5.614969439458e+00 0.0 
-5.614969439458e+00 -1.217179094375e+02 0.0 
0.0 0.0 -4.799706393494e+01 
-4.767399650097e+01 2.477851125405e+01 0.0 
2.477851125405e+01 -2.750208445210e+01 0.0 
0.0 0.0 -1.970365643731e+01 
-1.097340490918e+02 2.325822318998e+01 0.0 
2.325822318998e+01 -2.650149575029e+02 0.0 
0.0 0.0 -1.120247019784e+02 
-1.136054479745e+02 4.475028514341e+00 0.0 
4.475028514341e+00 -2.527169051286e+02 0.0 
0.0 0.0 -1.094967059309e+02 
-5.339993479848e+01 -1.881876221883e+01 0.0 
-1.881876221883e+01 -1.286471496833e+02 0.0 
0.0 0.0 -5.001010013131e+01 
-8.550874211137e+01 2.466599649779e+01 0.0 
2.466599649779e+01 -1.934456730623e+02 0.0 
0.0 0.0 -8.221479286111e+01 
-9.783980685089e+01 6.051855553794e+00 0.0 
6.051855553794e+00 -1.987965816323e+02 0.0 
0.0 0.0 -8.859091654495e+01 
-1.017801209566e+02 -4.537865281089e+00 0.0 
-4.537865281089e+00 -2.363615069296e+02 0.0 
0.0 0.0 -9.752356536675e+01 
-4.793013987333e+01 -7.576861211644e+00 0.0 
-7.576861211644e+00 -1.495669618451e+02 0.0 
0.0 0.0 -5.582092003797e+01 
-5.643387217807e+01 2.983205835426e+01 0.0 
2.983205835426e+01 -1.411870949275e+02 0.0 
0.0 0.0 -5.774917590639e+01 
-4.761598300646e+01 -1.786527864562e+01 0.0 
-1.786527864562e+01 -9.111866256487e+01 0.0 
0.0 0.0 -3.561666378256e+01 
-4.671166226516e+01 -1.574231751815e+01 0.0 
-1.574231751815e+01 -1.261503827903e+02 0.0 
0.0 0.0 -4.610515213501e+01 
-4.651465567576e+01 -1.809085214193e+01 0.0 
-1.809085214193e+01 -1.087689595825e+02 0.0 
0.0 0.0 -3.914657702897e+01 
-8.362131679988e+01 1.068721669500e+01 0.0 
1.068721669500e+01 -2.492042792901e+02 0.0 
0.0 0.0 -1.059382743895e+02 
-1.319989054637e+02 1.405535182985e+01 0.0 
1.405535182985e+01 -3.005654250016e+02 0.0 
0.0 0.0 -1.293692991396e+02 
-3.593489419289e+01 1.257651299299e+01 0.0 
1.257651299299e+01 -2.717852747549e+01 0.0 
0.0 0.0 -1.473423390333e+01 
-1.370816306220e+02 3.488415521758e+00 0.0 
3.488415521758e+00 -3.407088966068e+02 0.0 
0.0 0.0 -1.429371581686e+02 
-6.299563221257e+01 1.539751872984e+01 0.0 
1.539751872984e+01 -1.939560443684e+02 0.0 
0.0 0.0 -7.624845987219e+01 
-9.722360917509e+01 8.546481294171e+00 0.0 
8.546481294171e+00 -1.898881329170e+02 0.0 
0.0 0.0 -8.573352262764e+01 
-3.667127332708e+01 5.933185664035e+00 0.0 
5.933185664035e+00 -1.360585140075e+02 0.0 
0.0 0.0 -5.127137213624e+01 
-1.427353014721e+02 1.030876007224e+01 0.0 
1.030876007224e+01 -3.532680028357e+02 0.0 
0.0 0.0 -1.484009912923e+02 
-5.385715312620e+01 -2.019493661989e+01 0.0 
-2.019493661989e+01 -1.121985347559e+02 0.0 
0.0 0.0 -4.438843853564e+01 
-6.919719172447e+01 -5.461145631408e+00 0.0 
-5.461145631408e+00 -1.431542996922e+02 0.0 
0.0 0.0 -5.741051451153e+01 
-1.075295900061e+02 1.419073444072e+01 0.0 
1.419073444072e+01 -2.899041209500e+02 0.0 
0.0 0.0 -1.199518714386e+02 
-8.284023549205e+01 -5.717304980443e+00 0.0 
-5.717304980443e+00 -2.281427982053e+02 0.0 
0.0 0.0 -9.583942993426e+01 
-1.238926771864e+02 1.985007516049e+01 0.0 
1.985007516049e+01 -3.105729242799e+02 0.0 
0.0 0.0 -1.299396804399e+02 
-5.985189395276e+01 2.941495206144e+01 0.0 
2.941495206144e+01 -1.277161957937e+02 0.0 
0.0 0.0 -5.373390135520e+01 
-1.052749182269e+02 1.157139038487e+01 0.0 
1.157139038487e+01 -2.109402858733e+02 0.0 
0.0 0.0 -9.446456123008e+01 
-1.337741965247e+02 1.719374038495e+01 0.0 
1.719374038495e+01 -3.329762737815e+02 0.0 
0.0 0.0 -1.396251410918e+02 
-9.379083531013e+01 4.789252724449e+00 0.0 
4.789252724449e+00 -1.889628487338e+02 0.0 
0.0 0.0 -8.442610521318e+01 
-1.223000745447e+02 1.747642461975e+01 0.0 
1.747642461975e+01 -2.650649563049e+02 0.0 
0.0 0.0 -1.158095092549e+02 
-1.070134809397e+02 9.220222485934e+00 0.0 
9.220222485934e+00 -2.205633862957e+02 0.0 
0.0 0.0 -9.787306017061e+01 
-1.108116578329e+02 1.064116725369e+01 0.0 
1.064116725369e+01 -2.308408151256e+02 0.0 
0.0 0.0 -1.020957418875e+02 
-4.315684067409e+01 2.434200045380e+01 0.0 
2.434200045380e+01 -1.262046841334e+02 0.0 
0.0 0.0 -4.709171832132e+01 
-1.322588003348e+02 2.389447698248e+00 0.0 
2.389447698248e+00 -3.301243903422e+02 0.0 
0.0 0.0 -1.383149572031e+02 
-1.018583907635e+02 7.444144277810e+00 0.0 
7.444144277810e+00 -2.089946923461e+02 0.0 
0.0 0.0 -9.285592493287e+01 
-7.657596622124e+01 2.043453706154e+01 0.0 
2.043453706154e+01 -2.189909723705e+02 0.0 
0.0 0.0 -9.229972897867e+01 
-4.249198395966e+01 7.896560376540e+00 0.0 
7.896560376540e+00 -4.391549283561e+01 0.0 
0.0 0.0 -2.057107595664e+01 
-1.399573639901e+02 2.012975546254e+01 0.0 
2.012975546254e+01 -3.406505969620e+02 0.0 
0.0 0.0 -1.437823882856e+02 
-4.427467434834e+01 1.201266829498e+01 0.0 
1.201266829498e+01 -1.498868868291e+02 0.0 
0.0 0.0 -5.495904534324e+01 
-6.321405365361e+01 -3.983258384484e+00 0.0 
-3.983258384484e+00 -1.353819307469e+02 0.0 
0.0 0.0 -5.385987247258e+01 
-1.181597918220e+02 1.712751281659e+01 0.0 
1.712751281659e+01 -3.034100949191e+02 0.0 
0.0 0.0 -1.260709660223e+02 
-2.589006831428e+01 6.097863917625e-01 0.0 
6.097863917625e-01 -8.027480352943e+01 0.0 
0.0 0.0 -3.101255326710e+01 
-7.889674302099e+01 2.346193980226e+01 0.0 
2.346193980226e+01 -1.984591674961e+02 0.0 
0.0 0.0 -8.256678291528e+01 
-1.127476690318e+02 1.323927981102e+01 0.0 
1.323927981102e+01 -3.008064904669e+02 0.0 
0.0 0.0 -1.238649067328e+02 
-1.167106082309e+02 1.145891254531e+01 0.0 
1.145891254531e+01 -2.507411537284e+02 0.0 
0.0 0.0 -1.098355285878e+02 
-1.203824336496e+02 1.307028071664e+01 0.0 
1.307028071664e+01 -2.618346898982e+02 0.0 
0.0 0.0 -1.142651370644e+02 
-1.082379115209e+02 1.526684472567e+01 0.0 
1.526684472567e+01 -2.904289230296e+02 0.0 
0.0 0.0 -1.192000503652e+02 
-1.097937584739e+02 8.850842626059e+00 0.0 
8.850842626059e+00 -2.310677323210e+02 0.0 
0.0 0.0 -1.018584472385e+02 
-6.682004734916e+01 1.880760984053e+01 0.0 
1.880760984053e+01 -1.984472051940e+02 0.0 
0.0 0.0 -7.993546776030e+01 
-1.111006323248e+02 2.362750163115e+01 0.0 
2.362750163115e+01 -2.571922169832e+02 0.0 
0.0 0.0 -1.100878547924e+02 
-5.094858515977e+01 5.864983145589e+00 0.0 
5.864983145589e+00 -6.290270413053e+01 0.0 
0.0 0.0 -3.046560859557e+01 
-1.217109044711e+02 1.920978528664e+01 0.0 
1.920978528664e+01 -2.708614617519e+02 0.0 
0.0 0.0 -1.173717098669e+02 
-5.830851464410e+01 4.941543611688e+00 0.0 
4.941543611688e+00 -8.182383389437e+01 0.0 
0.0 0.0 -3.969816929437e+01 
-6.156830501895e+01 4.759681379600e+00 0.0 
4.759681379600e+00 -9.130761004180e+01 0.0 
0.0 0.0 -4.433041931628e+01 
-7.424016549531e+01 1.439317068758e+01 0.0 
1.439317068758e+01 -2.241750057709e+02 0.0 
0.0 0.0 -9.346954728433e+01 
-6.456940597369e+01 4.513942089836e+00 0.0 
4.513942089836e+00 -1.010134446769e+02 0.0 
0.0 0.0 -4.860085833803e+01 
-8.608317375834e+01 2.127947891082e+01 0.0 
2.127947891082e+01 -2.298986968796e+02 0.0 
0.0 0.0 -9.486398317747e+01 
-6.907604466700e+01 2.310393109424e+01 0.0 
2.310393109424e+01 -1.885230170778e+02 0.0 
0.0 0.0 -7.788112395365e+01 
-7.483514669453e+01 5.726520252801e+00 0.0 
5.726520252801e+00 -2.264659352899e+02 0.0 
0.0 0.0 -9.441264127546e+01 
-4.235831261238e+01 -8.094727877407e+00 0.0 
-8.094727877407e+00 -1.391652606160e+02 0.0 
0.0 0.0 -5.048030396333e+01 
-7.093691225494e+01 1.111854515120e+01 0.0 
1.111854515120e+01 -2.178837179989e+02 0.0 
0.0 0.0 -8.907891422201e+01 
-1.106321164060e+02 6.442453947414e+00 0.0 
6.442453947414e+00 -2.404403288618e+02 0.0 
0.0 0.0 -1.049217335804e+02 
-1.221631082368e+02 1.731616888601e+01 0.0 
1.731616888601e+01 -2.691356385177e+02 0.0 
0.0 0.0 -1.169896240264e+02 
-1.227410348381e+02 1.512251247855e+00 0.0 
1.512251247855e+00 -3.112921696897e+02 0.0 
0.0 0.0 -1.298099613583e+02 
-1.283909625651e+02 1.781422057362e+01 0.0 
1.781422057362e+01 -3.216493184216e+02 0.0 
0.0 0.0 -1.346120842960e+02 
-7.819830845855e+01 -2.517453550002e+00 0.0 
-2.517453550002e+00 -2.242929214590e+02 0.0 
0.0 0.0 -9.313208563414e+01 
-1.085511884821e+02 8.516515870377e+00 0.0 
8.516515870377e+00 -2.295122221401e+02 0.0 
0.0 0.0 -1.010190231867e+02 
-7.361473054391e+01 7.641268207454e+00 0.0 
7.641268207454e+00 -2.258633625784e+02 0.0 
0.0 0.0 -9.374973005390e+01 
-1.372817316691e+02 2.145097146714e+00 0.0 
2.145097146714e+00 -3.383075147077e+02 0.0 
0.0 0.0 -1.422767739130e+02 
-1.047178484603e+02 7.161612654984e+00 0.0 
7.161612654984e+00 -2.192395266383e+02 0.0 
0.0 0.0 -9.678721252959e+01 
-1.080760199763e+02 1.109610613337e+01 0.0 
1.109610613337e+01 -2.208046347841e+02 0.0 
0.0 0.0 -9.826419642815e+01 
-9.697540295768e+01 1.015871768154e+01 0.0 
1.015871768154e+01 -2.757366874667e+02 0.0 
0.0 0.0 -1.148506220288e+02 
-6.877015033024e+01 1.486999984917e+01 0.0 
1.486999984917e+01 -2.087729973355e+02 0.0 
0.0 0.0 -8.444320651733e+01 
-1.189892008305e+02 2.353089291593e+01 0.0 
2.353089291593e+01 -2.762864790054e+02 0.0 
0.0 0.0 -1.181827039508e+02 
-9.573274281720e+01 1.971784672631e+01 0.0 
1.971784672631e+01 -1.952708631504e+02 0.0 
0.0 0.0 -8.666931859416e+01 
-4.819667446359e+01 -1.372961526376e+01 0.0 
-1.372961526376e+01 -1.398537613897e+02 0.0 
0.0 0.0 -5.248364940144e+01 
-4.398917007030e+01 4.896261182555e+00 0.0 
4.896261182555e+00 -1.478225215609e+02 0.0 
0.0 0.0 -5.386809795180e+01 
-6.397430831672e+01 3.115314498011e+01 0.0 
3.115314498011e+01 -1.460252367962e+02 0.0 
0.0 0.0 -6.259098768935e+01 
-8.980370743286e+01 2.480634573224e+01 0.0 
2.480634573224e+01 -1.941313520628e+02 0.0 
0.0 0.0 -8.211849493951e+01 
-1.422219699456e+02 1.853961443953e+00 0.0 
1.853961443953e+00 -3.466908090634e+02 0.0 
0.0 0.0 -1.462738337027e+02 
-1.041662014633e+02 9.618782589212e+00 0.0 
9.618782589212e+00 -2.103466824818e+02 0.0 
0.0 0.0 -9.395386518351e+01 
-6.761599575711e+01 1.200876959442e+01 0.0 
1.200876959442e+01 -2.057325813259e+02 0.0 
0.0 0.0 -8.270908851143e+01 
-9.548301805043e+01 2.439651290130e+01 0.0 
2.439651290130e+01 -2.180511932135e+02 0.0 
0.0 0.0 -9.366026337916e+01 
-1.181685117537e+02 1.236475318568e+01 0.0 
1.236475318568e+01 -3.115821958735e+02 0.0 
0.0 0.0 -1.285252122882e+02 
-1.089463450373e+02 7.188963119562e+00 0.0 
7.188963119562e+00 -2.317820312487e+02 0.0 
0.0 0.0 -1.018185128858e+02 
-1.230627700057e+02 2.349054193212e+01 0.0 
2.349054193212e+01 -2.823893488600e+02 0.0 
0.0 0.0 -1.212356356597e+02 
-9.176344534428e+01 6.543034618905e+00 0.0 
6.543034618905e+00 -1.784285561055e+02 0.0 
0.0 0.0 -8.065760043494e+01 
-1.249104263555e+02 8.881681192075e+00 0.0 
8.881681192075e+00 -3.247457862301e+02 0.0 
0.0 0.0 -1.344968637757e+02 
-7.687622390291e+01 9.521864139294e+00 0.0 
9.521864139294e+00 -2.321183242418e+02 0.0 
0.0 0.0 -9.725852368848e+01 
-1.194037834024e+02 1.334999110547e+01 0.0 
1.334999110547e+01 -3.122394707084e+02 0.0 
0.0 0.0 -1.290929762332e+02 
-8.297417798663e+01 2.653950284089e+01 0.0 
2.653950284089e+01 -2.012133383616e+02 0.0 
0.0 0.0 -8.551746548995e+01 
-1.160487358149e+02 9.640431248547e+00 0.0 
9.640431248547e+00 -2.513197495202e+02 0.0 
0.0 0.0 -1.098105456005e+02 
-1.280960543867e+02 2.382475546181e+01 0.0 
2.382475546181e+01 -2.906003173093e+02 0.0 
0.0 0.0 -1.252089115088e+02 
-8.736455711429e+01 8.850440015762e+00 0.0 
8.850440015762e+00 -2.577583301457e+02 0.0 
0.0 0.0 -1.091431191428e+02 
-4.150768110351e+01 5.666441567910e+00 0.0 
5.666441567910e+00 -1.458473689636e+02 0.0 
0.0 0.0 -5.376559574444e+01 
-1.179837985126e+02 2.065770587609e+01 0.0 
2.065770587609e+01 -2.906841124181e+02 0.0 
0.0 0.0 -1.222003732792e+02 
-8.439566275082e+01 2.210617902109e+01 0.0 
2.210617902109e+01 -2.168721506253e+02 0.0 
0.0 0.0 -8.986042862771e+01 
-6.460653530698e+01 1.538167484916e+01 0.0 
1.538167484916e+01 -1.943050561344e+02 0.0 
0.0 0.0 -7.704371261620e+01 
-9.286238061445e+01 1.202628664240e+01 0.0 
1.202628664240e+01 -2.661980836464e+02 0.0 
0.0 0.0 -1.109847777179e+02 
-1.220988426682e+02 7.975092986922e+00 0.0 
7.975092986922e+00 -3.168781692381e+02 0.0 
0.0 0.0 -1.312931035719e+02 
-4.328090976201e+01 -2.489753650033e+00 0.0 
-2.489753650033e+00 -1.441955720745e+02 0.0 
0.0 0.0 -5.335660711594e+01 
-8.013277130236e+01 7.968068230006e+00 0.0 
7.968068230006e+00 -2.413452051598e+02 0.0 
0.0 0.0 -1.020377591760e+02 
-9.873759422288e+01 1.545583226669e+01 0.0 
1.545583226669e+01 -1.961974807828e+02 0.0 
0.0 0.0 -8.808052250169e+01 
-1.432061660813e+02 3.325706952684e+00 0.0 
3.325706952684e+00 -3.474035266215e+02 0.0 
0.0 0.0 -1.467829078108e+02 
-1.022412026207e+02 1.717353191085e+01 0.0 
1.717353191085e+01 -2.090492342176e+02 0.0 
0.0 0.0 -9.298713105149e+01 
-1.140954744211e+02 2.124115535735e+01 0.0 
2.124115535735e+01 -2.781030950756e+02 0.0 
0.0 0.0 -1.172595708490e+02 
-9.499147316901e+01 1.358588956461e+01 0.0 
1.358588956461e+01 -1.837200273438e+02 0.0 
0.0 0.0 -8.321345015384e+01 
-8.650640826470e+01 9.526836900477e+00 0.0 
9.526836900477e+00 -1.600575392256e+02 0.0 
0.0 0.0 -7.356918424710e+01 
-9.830642832998e+01 2.078968089211e+01 0.0 
2.078968089211e+01 -2.094581357132e+02 0.0 
0.0 0.0 -9.192067498971e+01 
-1.232632751472e+02 1.635666363154e+01 0.0 
1.635666363154e+01 -3.148229625086e+02 0.0 
0.0 0.0 -1.310258712967e+02 
-1.289400129923e+02 3.893021111163e+00 0.0 
3.893021111163e+00 -3.229848546783e+02 0.0 
0.0 0.0 -1.351774603012e+02 
-9.895253122438e+01 7.784483132725e+00 0.0 
7.784483132725e+00 -1.989386727697e+02 0.0 
0.0 0.0 -8.896736119822e+01 
-1.185294749229e+02 1.112245499679e+01 0.0 
1.112245499679e+01 -2.606970321941e+02 0.0 
0.0 0.0 -1.133679521351e+02 
-9.103095705922e+01 1.159829108047e+01 0.0 
1.159829108047e+01 -1.717407912407e+02 0.0 
0.0 0.0 -7.843152448996e+01 
-5.642136108645e+01 1.144812983857e+01 0.0 
1.144812983857e+01 -1.767724429645e+02 0.0 
0.0 0.0 -6.692368243374e+01 
-1.228354294543e+02 2.292192828195e+01 0.0 
2.292192828195e+01 -2.970226547549e+02 0.0 
0.0 0.0 -1.255574252627e+02 
-1.155535412817e+02 8.061341804379e+00 0.0 
8.061341804379e+00 -2.522934224460e+02 0.0 
0.0 0.0 -1.099540891183e+02 
-7.979570997747e+01 2.450550654446e+01 0.0 
2.450550654446e+01 -2.111117439402e+02 0.0 
0.0 0.0 -8.951834526439e+01 
-8.390480122259e+01 2.511124621600e+01 0.0 
2.511124621600e+01 -2.150299937384e+02 0.0 
0.0 0.0 -9.103639364935e+01 
-6.208159126614e+01 1.170359836561e+01 0.0 
1.170359836561e+01 -1.907078341650e+02 0.0 
0.0 0.0 -7.400266033472e+01 
-1.029165791786e+02 9.283777061317e+00 0.0 
9.283777061317e+00 -2.095040706374e+02 0.0 
0.0 0.0 -9.332619494481e+01 
-7.177230994354e+01 2.741469401650e+01 0.0 
2.741469401650e+01 -1.341475036828e+02 0.0 
0.0 0.0 -5.875909918116e+01 
-9.108642623288e+01 2.062548311727e+01 0.0 
2.062548311727e+01 -2.438399686346e+02 0.0 
0.0 0.0 -1.027578565038e+02 
-6.880820930454e+01 2.756591047248e+01 0.0 
2.756591047248e+01 -1.336898660929e+02 0.0 
0.0 0.0 -5.689147444459e+01 
-1.129098246473e+02 1.575496209343e+01 0.0 
1.575496209343e+01 -2.966946354036e+02 0.0 
0.0 0.0 -1.224813380153e+02 
-1.319587007494e+02 2.324557669662e+01 0.0 
2.324557669662e+01 -3.151889880987e+02 0.0 
0.0 0.0 -1.337443066544e+02 
-6.548199383142e+01 7.910068232330e+00 0.0 
7.910068232330e+00 -2.012109757503e+02 0.0 
0.0 0.0 -7.964847414284e+01 
-3.321676487139e+01 -5.541719982199e+00 0.0 
-5.541719982199e+00 -1.241063079566e+02 0.0 
0.0 0.0 -4.862981401930e+01 
-1.194424735714e+02 1.319716273013e+01 0.0 
1.319716273013e+01 -2.620180551717e+02 0.0 
0.0 0.0 -1.140381586230e+02 
-7.619969220790e+01 2.496701204651e+01 0.0 
2.496701204651e+01 -1.378291647434e+02 0.0 
0.0 0.0 -6.017503966055e+01 
-7.973057596053e+01 5.331842457044e-01 0.0 
5.331842457044e-01 -2.323871249546e+02 0.0 
0.0 0.0 -9.729507829327e+01 
-1.271779107427e+02 2.103907223586e+01 0.0 
2.103907223586e+01 -3.094098880193e+02 0.0 
0.0 0.0 -1.305763396286e+02 
-1.013100136895e+02 1.001624640242e+01 0.0 
1.001624640242e+01 -2.003217575371e+02 0.0 
0.0 0.0 -9.008953136798e+01 
-1.240255861741e+02 4.043779168516e+00 0.0 
4.043779168516e+00 -3.147617325773e+02 0.0 
0.0 0.0 -1.312361956254e+02 
-6.519429972600e+01 2.139436279625e+01 0.0 
2.139436279625e+01 -1.852039280930e+02 0.0 
0.0 0.0 -7.498270756882e+01 
-2.973450879242e+01 -3.611269835237e+00 0.0 
-3.611269835237e+00 -1.243975494863e+02 0.0 
0.0 0.0 -4.900671312913e+01 
-1.479572268804e+02 3.096986566918e+00 0.0 
3.096986566918e+00 -3.567227597017e+02 0.0 
0.0 0.0 -1.510039959746e+02 
-9.127868659291e+01 2.485195245278e+01 0.0 
2.485195245278e+01 -2.090518638483e+02 0.0 
0.0 0.0 -8.767616202479e+01 
-1.028642451030e+02 1.903395767712e+01 0.0 
1.903395767712e+01 -2.732527817556e+02 0.0 
0.0 0.0 -1.124351080576e+02 
-1.230585926749e+02 2.206152001754e+01 0.0 
2.206152001754e+01 -2.899410001236e+02 0.0 
0.0 0.0 -1.234998778395e+02 
-3.793286987066e+01 -1.838041571914e-01 0.0 
-1.838041571914e-01 -1.235126635121e+02 0.0 
0.0 0.0 -5.028713423953e+01 
-1.220032712836e+02 2.823982341508e+00 0.0 
2.823982341508e+00 -3.136346677613e+02 0.0 
0.0 0.0 -1.302913817135e+02 
-4.920629045581e+01 2.441555092601e+01 0.0 
2.441555092601e+01 -1.367165824178e+02 0.0 
0.0 0.0 -5.129832866548e+01 
-9.439437511375e+01 8.832407298515e+00 0.0 
8.832407298515e+00 -1.799192664953e+02 0.0 
0.0 0.0 -8.189409248272e+01 
-1.076618711941e+02 -2.700393443058e+00 0.0 
-2.700393443058e+00 -2.556605791439e+02 0.0 
0.0 0.0 -1.051133502857e+02 
-6.529966026109e+01 1.109680374867e+01 0.0 
1.109680374867e+01 -2.030958208861e+02 0.0 
0.0 0.0 -8.036371950857e+01 
-1.384776080608e+02 3.519990001846e+00 0.0 
3.519990001846e+00 -3.391178645725e+02 0.0 
0.0 0.0 -1.428786417900e+02 
-8.990465434194e+01 2.320329077387e+01 0.0 
2.320329077387e+01 -2.321581405140e+02 0.0 
0.0 0.0 -9.787097234140e+01 
-5.980360314993e+01 1.124369898561e+01 0.0 
1.124369898561e+01 -1.884359519941e+02 0.0 
0.0 0.0 -7.293139745372e+01 
-9.069255534562e+01 2.426625210903e+01 0.0 
2.426625210903e+01 -2.129371822347e+02 0.0 
0.0 0.0 -9.068892127411e+01 
-3.634584754604e+01 -1.785469016337e+01 0.0 
-1.785469016337e+01 -1.169011175837e+02 0.0 
0.0 0.0 -4.778345496544e+01 
-1.062299808677e+02 2.369034243252e+01 0.0 
2.369034243252e+01 -2.514446737725e+02 0.0 
0.0 0.0 -1.069023963921e+02 
-1.133633900536e+02 1.697027058980e+01 0.0 
1.697027058980e+01 -2.971474770152e+02 0.0 
0.0 0.0 -1.227532601206e+02 
-1.297380533792e+02 2.282345233478e+01 0.0 
2.282345233478e+01 -2.942968948580e+02 0.0 
0.0 0.0 -1.268104844712e+02 
-1.146370847835e+02 2.352198781341e+01 0.0 
2.352198781341e+01 -2.707880309955e+02 0.0 
0.0 0.0 -1.152275347337e+02 
-4.893141379995e+01 5.544204029788e+00 0.0 
5.544204029788e+00 -1.601158281554e+02 0.0 
0.0 0.0 -5.870506127130e+01 
-1.244977485838e+02 2.863084205893e+00 0.0 
2.863084205893e+00 -3.123406210661e+02 0.0 
0.0 0.0 -1.306515108950e+02 
-1.171823691100e+02 7.321154940119e+00 0.0 
7.321154940119e+00 -2.607662511375e+02 0.0 
0.0 0.0 -1.129845860742e+02 
-1.445049511775e+02 2.151468177237e+01 0.0 
2.151468177237e+01 -3.466463798467e+02 0.0 
0.0 0.0 -1.469453993073e+02 
-1.186310968777e+02 1.846482358738e+01 0.0 
1.846482358738e+01 -3.038958345457e+02 0.0 
0.0 0.0 -1.263580794270e+02 
-6.748590966742e+01 1.841062791583e+01 0.0 
1.841062791583e+01 -1.977307762785e+02 0.0 
0.0 0.0 -8.031617928208e+01 
-9.799868840135e+01 2.420234580023e+01 0.0 
2.420234580023e+01 -2.321281055635e+02 0.0 
0.0 0.0 -9.863803818945e+01 
-1.417047009523e+02 9.221485093358e-01 0.0 
9.221485093358e-01 -3.438372912457e+02 0.0 
0.0 0.0 -1.452625976594e+02 
-1.063261879089e+02 -7.361290289805e-01 0.0 
-7.361290289805e-01 -2.339368224900e+02 0.0 
0.0 0.0 -9.768889527763e+01 
-1.105670922124e+02 2.168255346849e+01 0.0 
2.168255346849e+01 -2.650453415079e+02 0.0 
0.0 0.0 -1.122837301161e+02 
-9.482784102430e+01 6.286805669591e+00 0.0 
6.286805669591e+00 -1.885005919369e+02 0.0 
0.0 0.0 -8.459852988835e+01 
-1.337425432748e+02 3.723613548200e+00 0.0 
3.723613548200e+00 -3.310463934030e+02 0.0 
0.0 0.0 -1.390366810033e+02 
-1.283890386033e+02 5.385371313885e+00 0.0 
5.385371313885e+00 -3.249452390962e+02 0.0 
0.0 0.0 -1.356002833098e+02 
-5.821915568612e+01 3.162044862188e-01 0.0 
3.162044862188e-01 -1.060966153477e+02 0.0 
0.0 0.0 -4.889473131013e+01 
-5.808827800752e+01 2.710805606960e-02 0.0 
2.710805606960e-02 -1.060772508725e+02 0.0 
0.0 0.0 -4.884965866401e+01 
-1.035622802239e+02 1.725120852176e+01 0.0 
1.725120852176e+01 -2.058277554475e+02 0.0 
0.0 0.0 -9.241701070144e+01 
-1.026100736804e+02 2.206349283518e+01 0.0 
2.206349283518e+01 -2.462632091180e+02 0.0 
0.0 0.0 -1.042619848395e+02 
-1.112764426906e+02 -1.832323771537e+00 0.0 
-1.832323771537e+00 -2.635149229219e+02 0.0 
0.0 0.0 -1.090746413662e+02 
-1.018868139780e+02 2.220951109149e+01 0.0 
2.220951109149e+01 -2.160236481291e+02 0.0 
0.0 0.0 -9.497313863213e+01 
-8.540140301113e+01 2.306180723944e+01 0.0 
2.306180723944e+01 -2.279720043785e+02 0.0 
0.0 0.0 -9.646097798264e+01 
-1.341703638942e+02 1.255901281408e+01 0.0 
1.255901281408e+01 -3.388086983337e+02 0.0 
0.0 0.0 -1.414937186684e+02 
-7.089271225213e+01 2.151175176073e+01 0.0 
2.151175176073e+01 -2.023187663780e+02 0.0 
0.0 0.0 -8.388668656123e+01 
-1.301211667423e+02 1.271921320541e+01 0.0 
1.271921320541e+01 -2.979949120774e+02 0.0 
0.0 0.0 -1.280348236459e+02 
-7.982523335739e+01 8.477341179068e+00 0.0 
8.477341179068e+00 -1.401565499001e+02 0.0 
0.0 0.0 -6.559453497724e+01 
-7.998107597176e+01 2.194702302152e+01 0.0 
2.194702302152e+01 -2.108391738735e+02 0.0 
0.0 0.0 -8.784222374319e+01 
-1.018937978327e+02 -2.471069316697e+00 0.0 
-2.471069316697e+00 -2.543944677366e+02 0.0 
0.0 0.0 -1.046053903836e+02 
-4.562319010949e+01 1.144661439240e+01 0.0 
1.144661439240e+01 -1.492951451993e+02 0.0 
0.0 0.0 -5.373206819508e+01 
-9.753222556958e+01 -5.817243786204e+00 0.0 
-5.817243786204e+00 -2.286304940986e+02 0.0 
0.0 0.0 -9.527764356155e+01 
-9.624274530229e+01 2.341336938874e+01 0.0 
2.341336938874e+01 -2.277677627941e+02 0.0 
0.0 0.0 -9.610588565954e+01 
-9.277432620399e+01 2.356442064364e+01 0.0 
2.356442064364e+01 -1.986104544197e+02 0.0 
0.0 0.0 -8.537286163630e+01 
-9.602883666363e+01 8.127042894903e+00 0.0 
8.127042894903e+00 -1.890208302479e+02 0.0 
0.0 0.0 -8.511490007346e+01 
-1.052171771047e+02 2.063756133481e+01 0.0 
2.063756133481e+01 -2.294898739374e+02 0.0 
0.0 0.0 -1.000121153126e+02 
-1.089896036755e+02 2.216022531813e+01 0.0 
2.216022531813e+01 -2.361756719763e+02 0.0 
0.0 0.0 -1.031495826955e+02 
-1.785037869819e+01 9.807520371706e-02 0.0 
9.807520371706e-02 -5.932011748204e+01 0.0 
0.0 0.0 -2.142350928695e+01 
-9.014905272532e+01 -5.826342139988e+00 0.0 
-5.826342139988e+00 -2.156213005371e+02 0.0 
0.0 0.0 -8.778219176131e+01 
-7.310256368413e+01 2.630947961127e+01 0.0 
2.630947961127e+01 -1.374868193946e+02 0.0 
0.0 0.0 -5.843622894232e+01 
-9.882209390356e+01 1.831093092553e+01 0.0 
1.831093092553e+01 -2.018738214976e+02 0.0 
0.0 0.0 -8.980877462034e+01 
-1.030826397262e+02 1.990525316820e+01 0.0 
1.990525316820e+01 -2.101817560899e+02 0.0 
0.0 0.0 -9.357931874484e+01 
-1.283461616277e+02 1.561302330391e+01 0.0 
1.561302330391e+01 -3.253607410084e+02 0.0 
0.0 0.0 -1.357120707908e+02 
-3.518100381416e+01 -1.387163249859e+00 0.0 
-1.387163249859e+00 -8.947450483279e+01 0.0 
0.0 0.0 -3.517351892112e+01 
-4.322913850601e+01 -9.798753130515e+00 0.0 
-9.798753130515e+00 -1.368781246759e+02 0.0 
0.0 0.0 -5.089333120232e+01 
-8.752937947438e+01 2.575290269348e+01 0.0 
2.575290269348e+01 -2.050443747552e+02 0.0 
0.0 0.0 -8.679890858494e+01 
-9.517227534333e+01 -6.362266370505e+00 0.0 
-6.362266370505e+00 -2.167680035762e+02 0.0 
0.0 0.0 -8.998774275133e+01 
-6.542686590655e+01 8.258119917165e+00 0.0 
8.258119917165e+00 -9.318521371360e+01 0.0 
0.0 0.0 -4.551704802046e+01 
-6.822824075192e+01 7.697874216562e+00 0.0 
7.697874216562e+00 -1.027852401398e+02 0.0 
0.0 0.0 -4.994264608191e+01 
-9.842328192365e+01 1.045972222535e+01 0.0 
1.045972222535e+01 -1.904316681959e+02 0.0 
0.0 0.0 -8.625648503588e+01 
-3.942267438112e+01 2.478990147626e+01 0.0 
2.478990147626e+01 -1.064474902798e+02 0.0 
0.0 0.0 -3.739442259707e+01 
-1.005180242035e+02 -3.600964462643e+00 0.0 
-3.600964462643e+00 -2.431670555659e+02 0.0 
0.0 0.0 -9.987398785842e+01 
-1.148500826868e+02 1.137959332934e+01 0.0 
1.137959332934e+01 -3.048950347479e+02 0.0 
0.0 0.0 -1.255235352304e+02 
-3.905471380223e+01 -1.874867072032e+00 0.0 
-1.874867072032e+00 -1.392585242472e+02 0.0 
0.0 0.0 -5.186661137479e+01 
-1.394877346713e+02 2.368102523227e+01 0.0 
2.368102523227e+01 -3.280504984906e+02 0.0 
0.0 0.0 -1.398614699486e+02 
-1.132417871989e+02 1.005105861357e+01 0.0 
1.005105861357e+01 -2.406435402802e+02 0.0 
0.0 0.0 -1.057655982437e+02 
-1.030700120249e+02 -3.836330836819e+00 0.0 
-3.836330836819e+00 -2.325423245488e+02 0.0 
0.0 0.0 -9.549190547285e+01 
-1.276900911490e+02 1.421059559265e+00 0.0 
1.421059559265e+00 -3.194758485222e+02 0.0 
0.0 0.0 -1.337497819013e+02 
-1.239156930111e+01 -1.081542397613e+00 0.0 
-1.081542397613e+00 -4.218474473188e+01 0.0 
0.0 0.0 -1.424554235428e+01 
-1.105830577924e+02 9.215720689297e+00 0.0 
9.215720689297e+00 -2.971539323635e+02 0.0 
0.0 0.0 -1.226078893814e+02 
-8.658203971752e+01 2.391818410093e+01 0.0 
2.391818410093e+01 -2.079983824530e+02 0.0 
0.0 0.0 -8.762501679503e+01 
-1.269519719533e+01 -6.907652956481e-01 0.0 
-6.907652956481e-01 -4.206975551192e+01 0.0 
0.0 0.0 -1.411073042757e+01 
-1.112113948072e+02 8.188476507619e+00 0.0 
8.188476507619e+00 -2.395395426240e+02 0.0 
0.0 0.0 -1.048252812294e+02 
-3.799899947340e+01 -4.045157115994e+00 0.0 
-4.045157115994e+00 -1.331724025606e+02 0.0 
0.0 0.0 -5.045401465661e+01 
-9.898217651490e+01 2.108102886570e+01 0.0 
2.108102886570e+01 -2.025477651244e+02 0.0 
0.0 0.0 -9.005898249178e+01 
-8.894740642961e+01 2.427998346764e+01 0.0 
2.427998346764e+01 -1.983828383342e+02 0.0 
0.0 0.0 -8.548176212732e+01 
-7.878817129182e+01 -7.016110011391e-01 0.0 
-7.016110011391e-01 -2.300330998844e+02 0.0 
0.0 0.0 -9.625836063418e+01 
-9.727455133950e+01 2.528724120080e+00 0.0 
2.528724120080e+00 -2.695654719793e+02 0.0 
0.0 0.0 -1.109545975809e+02 
-1.147341327570e+02 9.587037875146e+00 0.0 
9.587037875146e+00 -2.497310150833e+02 0.0 
0.0 0.0 -1.089395443521e+02 
-1.057401210874e+02 3.723769416684e+00 0.0 
3.723769416684e+00 -2.879410120856e+02 0.0 
0.0 0.0 -1.177043399519e+02 
-8.862032354167e+01 2.476600252856e+01 0.0 
2.476600252856e+01 -2.190993759205e+02 0.0 
0.0 0.0 -9.248438790954e+01 
-8.307060550231e+01 2.365588992392e+01 0.0 
2.365588992392e+01 -2.032645392762e+02 0.0 
0.0 0.0 -8.425286155777e+01 
-4.462344580636e+01 3.172706593694e+01 0.0 
3.172706593694e+01 -3.204509627770e+01 0.0 
0.0 0.0 -1.973357175304e+01 
-3.407885165542e+01 -3.166582342305e+00 0.0 
-3.166582342305e+00 -1.297726817727e+02 0.0 
0.0 0.0 -4.951458855892e+01 
-1.184000364802e+02 2.322115147252e+01 0.0 
2.322115147252e+01 -2.839226254289e+02 0.0 
0.0 0.0 -1.202967985727e+02 
-9.235019954702e+01 1.179416867562e+01 0.0 
1.179416867562e+01 -1.711188171750e+02 0.0 
0.0 0.0 -7.864070501660e+01 
-1.223882789341e+02 2.151584426618e+01 0.0 
2.151584426618e+01 -2.964681899045e+02 0.0 
0.0 0.0 -1.252569406516e+02 
-5.294505914079e+01 2.812304990711e+01 0.0 
2.812304990711e+01 -1.405342243725e+02 0.0 
0.0 0.0 -5.553998753443e+01 
-1.114394523609e+02 1.472353330566e+01 0.0 
1.472353330566e+01 -2.343190070121e+02 0.0 
0.0 0.0 -1.033275378119e+02 
-1.231243429109e+02 2.371373369278e+01 0.0 
2.371373369278e+01 -2.901411430443e+02 0.0 
0.0 0.0 -1.235796457866e+02 
-6.993895493548e+01 6.728210254954e+00 0.0 
6.728210254954e+00 -1.109546453661e+02 0.0 
0.0 0.0 -5.309175567029e+01 
-1.186354795479e+02 2.166177135311e+01 0.0 
2.166177135311e+01 -2.836325856598e+02 0.0 
0.0 0.0 -1.202804195623e+02 
-1.291061525773e+02 2.825428131656e+00 0.0 
2.825428131656e+00 -3.203936766258e+02 0.0 
0.0 0.0 -1.344499487609e+02 
-9.779839057913e+01 2.211788661914e+01 0.0 
2.211788661914e+01 -2.412732312000e+02 0.0 
0.0 0.0 -1.012681257144e+02 
-9.644237733736e+01 -4.102177366020e+00 0.0 
-4.102177366020e+00 -2.351759917589e+02 0.0 
0.0 0.0 -9.578693474987e+01 
-1.037567278393e+02 -3.680964963211e+00 0.0 
-3.680964963211e+00 -2.478641597601e+02 0.0 
0.0 0.0 -1.025376366191e+02 
-1.220661857420e+02 1.553280782610e+01 0.0 
1.553280782610e+01 -2.641159100177e+02 0.0 
0.0 0.0 -1.154546287279e+02 
-9.104216571332e+01 1.321398826099e+00 0.0 
1.321398826099e+00 -2.505869469288e+02 0.0 
0.0 0.0 -1.046318198114e+02 
-9.463655180455e+01 2.390161223727e+01 0.0 
2.390161223727e+01 -2.134760215188e+02 0.0 
0.0 0.0 -9.080688991582e+01 
-8.256683112770e+01 1.929716233351e+01 0.0 
1.929716233351e+01 -2.351955252337e+02 0.0 
0.0 0.0 -9.945726472188e+01 
-1.154877781438e+02 5.139568453784e+00 0.0 
5.139568453784e+00 -3.064804569889e+02 0.0 
0.0 0.0 -1.261904705398e+02 
-7.554137461030e+01 2.143502092410e+01 0.0 
2.143502092410e+01 -2.052034929723e+02 0.0 
0.0 0.0 -8.558344904053e+01 
-5.131342450434e+01 5.979633173808e+00 0.0 
5.979633173808e+00 -1.693959468546e+02 0.0 
0.0 0.0 -6.288231770533e+01 
-8.418124575946e+01 6.148783808966e+00 0.0 
6.148783808966e+00 -2.495099171316e+02 0.0 
0.0 0.0 -1.060266176463e+02 
-5.427530271949e+01 1.121625198853e+01 0.0 
1.121625198853e+01 -1.748532451450e+02 0.0 
0.0 0.0 -6.585391543308e+01 
-1.020309955814e+02 1.964380657114e+01 0.0 
1.964380657114e+01 -2.155610656855e+02 0.0 
0.0 0.0 -9.487761838006e+01 
-5.441133415185e+01 6.311793484234e+00 0.0 
6.311793484234e+00 -1.733512055453e+02 0.0 
0.0 0.0 -6.498621430390e+01 
-9.744316189375e+01 2.335227969507e+01 0.0 
2.335227969507e+01 -2.096000953540e+02 0.0 
0.0 0.0 -9.171297717432e+01 
-1.239045122889e+02 1.767050128287e+01 0.0 
1.767050128287e+01 -3.153841816764e+02 0.0 
0.0 0.0 -1.313866081896e+02 
-1.179893597958e+02 1.486987550711e+01 0.0 
1.486987550711e+01 -3.078252335576e+02 0.0 
0.0 0.0 -1.273443780060e+02 
-7.525814467873e+01 2.341307738604e+01 0.0 
2.341307738604e+01 -2.066845269289e+02 0.0 
0.0 0.0 -8.735316965150e+01 
-9.307218702602e+01 8.497131531075e+00 0.0 
8.497131531075e+00 -1.793214510775e+02 0.0 
0.0 0.0 -8.131809143106e+01 
-1.325550377891e+02 1.282418630598e+00 0.0 
1.282418630598e+00 -3.276751984099e+02 0.0 
0.0 0.0 -1.376690708597e+02 
-1.337283755581e+02 2.715611215361e+00 0.0 
2.715611215361e+00 -3.285016326206e+02 0.0 
0.0 0.0 -1.382690024536e+02 
-3.912392622362e+01 2.821169300345e+01 0.0 
2.821169300345e+01 -9.157263948087e+01 0.0 
0.0 0.0 -3.529268794848e+01 
-1.011507656640e+02 2.154385410405e+01 0.0 
2.154385410405e+01 -2.235648686216e+02 0.0 
0.0 0.0 -9.701469028568e+01 
-1.475325827728e+02 1.371048615928e+00 0.0 
1.371048615928e+00 -3.559815963673e+02 0.0 
0.0 0.0 -1.506542537420e+02 
-5.685702744477e+01 2.071041184789e+01 0.0 
2.071041184789e+01 -7.663171957674e+01 0.0 
0.0 0.0 -3.534223713750e+01 
-1.090972360255e+02 -2.508285783585e+00 0.0 
-2.508285783585e+00 -2.520289991038e+02 0.0 
0.0 0.0 -1.042769690878e+02 
-4.634228098112e+01 3.246399361756e+01 0.0 
3.246399361756e+01 -3.073764574725e+01 0.0 
0.0 0.0 -2.068374557140e+01 
-1.373149169887e+02 1.117732223870e+00 0.0 
1.117732223870e+00 -3.358881779126e+02 0.0 
0.0 0.0 -1.415609284704e+02 
-4.880580926834e+01 1.143635988196e+01 0.0 
1.143635988196e+01 -1.619865310982e+02 0.0 
0.0 0.0 -5.991385900133e+01 
-1.078832779330e+02 -1.603174349205e+00 0.0 
-1.603174349205e+00 -2.398807653850e+02 0.0 
0.0 0.0 -1.003169239170e+02 
-1.031934162418e+02 1.781192132105e+01 0.0 
1.781192132105e+01 -2.731841174834e+02 0.0 
0.0 0.0 -1.130605892825e+02 
-9.560874087537e+01 1.096253289990e+01 0.0 
1.096253289990e+01 -1.808579846060e+02 0.0 
0.0 0.0 -8.254001764441e+01 
-9.043016001819e+01 9.105855720852e+00 0.0 
9.105855720852e+00 -1.698015771865e+02 0.0 
0.0 0.0 -7.766952116142e+01 
-9.270379854662e+01 2.422425582194e+01 0.0 
2.422425582194e+01 -2.233747289335e+02 0.0 
0.0 0.0 -9.351436150658e+01 
-5.918954631378e+01 9.538208874025e+00 0.0 
9.538208874025e+00 -7.438482045818e+01 0.0 
0.0 0.0 -3.655428768231e+01 
-6.227383217704e+01 8.604803150824e+00 0.0 
8.604803150824e+00 -8.380397870757e+01 0.0 
0.0 0.0 -4.111456447804e+01 
-1.381800712874e+02 2.505618832431e+00 0.0 
2.505618832431e+00 -3.365805796595e+02 0.0 
0.0 0.0 -1.420281952841e+02 
-1.032075779306e+02 4.913872686196e+00 0.0 
4.913872686196e+00 -2.802620710761e+02 0.0 
0.0 0.0 -1.170727457680e+02 
-8.422824045967e+01 1.864180691070e+00 0.0 
1.864180691070e+00 -2.465225403669e+02 0.0 
0.0 0.0 -1.035997665765e+02 
-1.083387210779e+02 8.414325392519e+00 0.0 
8.414325392519e+00 -2.960563028950e+02 0.0 
0.0 0.0 -1.212392613221e+02 
-7.706887386308e+01 5.065874483578e+00 0.0 
5.065874483578e+00 -2.322824669746e+02 0.0 
0.0 0.0 -9.759049666613e+01 
-5.083020839579e+01 1.127626139748e+01 0.0 
1.127626139748e+01 -1.628077731951e+02 0.0 
0.0 0.0 -5.992161307615e+01 
-5.463426280525e+01 5.267310426370e+00 0.0 
5.267310426370e+00 -7.209216637497e+01 0.0 
0.0 0.0 -3.519934119077e+01 
-8.498133203073e+01 1.035029670135e+01 0.0 
1.035029670135e+01 -1.508677720329e+02 0.0 
0.0 0.0 -7.035473121909e+01 
-5.852818177231e+01 1.748637833044e-01 0.0 
1.748637833044e-01 -1.064098444582e+02 0.0 
0.0 0.0 -4.908140786915e+01 
-1.186990943554e+02 1.606185771851e+01 0.0 
1.606185771851e+01 -3.083682120680e+02 0.0 
0.0 0.0 -1.277201919270e+02 
-7.117576291594e+01 2.041092234374e+01 0.0 
2.041092234374e+01 -2.009746087055e+02 0.0 
0.0 0.0 -8.336795130285e+01 
-1.385516790769e+02 1.872898692950e+01 0.0 
1.872898692950e+01 -3.396626118115e+02 0.0 
0.0 0.0 -1.430642872665e+02 
-1.368181062349e+02 -3.941256704984e-01 0.0 
-3.941256704984e-01 -3.315215827560e+02 0.0 
0.0 0.0 -1.401019066973e+02 
-8.122737776764e+01 7.441098836980e+00 0.0 
7.441098836980e+00 -2.429935300993e+02 0.0 
0.0 0.0 -1.023709498769e+02 
-1.533336763712e+02 3.781219892150e+00 0.0 
3.781219892150e+00 -3.669385913609e+02 0.0 
0.0 0.0 -1.556816803197e+02 
-5.860039538616e+01 1.952701431898e+00 0.0 
1.952701431898e+00 -1.824648856806e+02 0.0 
0.0 0.0 -7.011441278366e+01 
-1.328429580276e+02 1.922887738614e+01 0.0 
1.922887738614e+01 -3.277824456615e+02 0.0 
0.0 0.0 -1.377876211067e+02 
-8.842649136953e+01 2.318361597449e+01 0.0 
2.318361597449e+01 -2.221193778481e+02 0.0 
0.0 0.0 -9.276376076527e+01 
-1.006806763422e+02 2.102715165198e+01 0.0 
2.102715165198e+01 -2.540920978972e+02 0.0 
0.0 0.0 -1.060318322718e+02 
-1.311428769924e+02 1.172424408124e+01 0.0 
1.172424408124e+01 -3.333636418226e+02 0.0 
0.0 0.0 -1.389519556445e+02 
-7.773533418515e+01 -1.251633472435e+01 0.0 
-1.251633472435e+01 -1.814730689045e+02 0.0 
0.0 0.0 -7.601336991460e+01 
-9.770459200531e+01 2.274804620676e+01 0.0 
2.274804620676e+01 -2.183005705645e+02 0.0 
0.0 0.0 -9.398198403579e+01 
-7.954389393976e+01 3.474261664535e+00 0.0 
3.474261664535e+00 -2.371748742366e+02 0.0 
0.0 0.0 -9.940348525983e+01 
-9.295415188361e+01 2.395523132727e+01 0.0 
2.395523132727e+01 -2.037564491587e+02 0.0 
0.0 0.0 -8.861318031270e+01 
-5.212055032481e+01 2.650639639109e+01 0.0 
2.650639639109e+01 -1.376345072584e+02 0.0 
0.0 0.0 -5.366383029984e+01 
-1.040670603090e+02 1.996112653352e+01 0.0 
1.996112653352e+01 -2.665690699456e+02 0.0 
0.0 0.0 -1.107908390764e+02 
-7.465840431574e+01 1.567547005035e+00 0.0 
1.567547005035e+00 -2.239236129681e+02 0.0 
0.0 0.0 -9.335959218778e+01 
-1.058417461747e+02 -2.130065611229e+00 0.0 
-2.130065611229e+00 -2.623485755994e+02 0.0 
0.0 0.0 -1.084426493601e+02 
-9.559943704724e+01 2.230778894566e+01 0.0 
2.230778894566e+01 -2.036970528716e+02 0.0 
0.0 0.0 -8.860681835628e+01 
-4.761120835531e+01 3.772996757836e+01 0.0 
3.772996757836e+01 -5.891657552557e+01 0.0 
0.0 0.0 -3.091473820311e+01 
-8.892756406516e+01 1.723726091164e+01 0.0 
1.723726091164e+01 -2.502384213292e+02 0.0 
0.0 0.0 -1.061321359831e+02 
-4.576530207370e+01 3.264452606433e+01 0.0 
3.264452606433e+01 -5.189724199932e+01 0.0 
0.0 0.0 -2.547392875549e+01 
-2.427852704272e+01 -4.827810727570e+00 0.0 
-4.827810727570e+00 -6.366156374172e+01 0.0 
0.0 0.0 -2.353640298047e+01 
-1.043891110200e+02 -3.100995863171e+00 0.0 
-3.100995863171e+00 -2.509934069234e+02 0.0 
0.0 0.0 -1.037120592093e+02 
-1.156002582913e+02 2.338798072056e+01 0.0 
2.338798072056e+01 -2.632057650982e+02 0.0 
0.0 0.0 -1.132418070169e+02 
-9.418287983465e+01 1.085701743733e+01 0.0 
1.085701743733e+01 -1.805740931999e+02 0.0 
0.0 0.0 -8.202709191035e+01 
-5.255607251527e+01 1.225276955713e+01 0.0 
1.225276955713e+01 -5.631495542961e+01 0.0 
0.0 0.0 -2.733733564586e+01 
-1.270012909942e+02 1.280798618469e+01 0.0 
1.280798618469e+01 -2.976696789865e+02 0.0 
0.0 0.0 -1.270012909942e+02 
-4.748818235459e+01 3.421213830566e+01 0.0 
3.421213830566e+01 -3.198947897806e+01 0.0 
0.0 0.0 -2.426760190794e+01 
-5.533003041005e+01 1.049692368042e+01 0.0 
1.049692368042e+01 -6.505560894854e+01 0.0 
0.0 0.0 -3.183925258010e+01 
-8.745450833943e+01 3.620427345384e+00 0.0 
3.620427345384e+00 -2.506601743227e+02 0.0 
0.0 0.0 -1.059320077372e+02 
-1.065572657026e+02 -2.819006007665e+00 0.0 
-2.819006007665e+00 -2.405203603681e+02 0.0 
0.0 0.0 -9.951564928687e+01 
-7.242621062505e+01 1.527830296696e+01 0.0 
1.527830296696e+01 -1.064905990015e+02 0.0 
0.0 0.0 -5.045943527420e+01 
-6.178925477405e+01 -5.762042803909e+00 0.0 
-5.762042803909e+00 -1.859958144246e+02 0.0 
0.0 0.0 -7.351998063075e+01 
-9.671776219083e+01 1.388852201341e+00 0.0 
1.388852201341e+00 -2.633170284762e+02 0.0 
0.0 0.0 -1.110266608419e+02 
-9.332583793592e+01 2.411083028635e+01 0.0 
2.411083028635e+01 -2.272421852971e+02 0.0 
0.0 0.0 -9.577040696991e+01 
-9.779246680042e+01 1.670028983462e+01 0.0 
1.670028983462e+01 -2.673962666979e+02 0.0 
0.0 0.0 -1.114700831948e+02 
-1.185055191681e+02 1.952888716977e+01 0.0 
1.952888716977e+01 -2.627433636594e+02 0.0 
0.0 0.0 -1.139746648483e+02 
-4.195530994938e+01 2.746573316588e+01 0.0 
2.746573316588e+01 -1.134155823421e+02 0.0 
0.0 0.0 -4.332832722559e+01 
-9.870884391635e+01 -4.405443411478e+00 0.0 
-4.405443411478e+00 -2.316042434764e+02 0.0 
0.0 0.0 -9.502272617513e+01 
-1.063161916932e+02 -3.103737874048e+00 0.0 
-3.103737874048e+00 -2.477254638486e+02 0.0 
0.0 0.0 -1.028506544505e+02 
-6.149704188710e+01 -1.191490047829e+01 0.0 
-1.191490047829e+01 -1.341172599116e+02 0.0 
0.0 0.0 -5.515130831839e+01 
-7.234695367786e+01 6.328988950609e+00 0.0 
6.328988950609e+00 -1.200843899601e+02 0.0 
0.0 0.0 -5.711085977199e+01 
-9.623830972940e+01 1.356061978748e+01 0.0 
1.356061978748e+01 -1.819893596570e+02 0.0 
0.0 0.0 -8.306830081592e+01 
-1.264573126022e+02 8.397273200067e-01 0.0 
8.397273200067e-01 -3.029995699261e+02 0.0 
0.0 0.0 -1.276909747363e+02 
-1.606198470882e+01 -4.597695497648e-01 0.0 
-4.597695497648e-01 -4.281202468006e+01 0.0 
0.0 0.0 -1.462169492312e+01 
-4.980041311544e+01 -7.656346670956e+00 0.0 
-7.656346670956e+00 -1.175958071051e+02 0.0 
0.0 0.0 -5.159725737496e+01 
-4.300076705779e+01 -1.006869689148e+01 0.0 
-1.006869689148e+01 -9.146829822194e+01 0.0 
0.0 0.0 -3.658188856917e+01 
-1.098182944103e+02 -1.907632983679e+00 0.0 
-1.907632983679e+00 -2.486212687878e+02 0.0 
0.0 0.0 -1.034170570756e+02 
-6.381580791975e+01 3.161178448417e+00 0.0 
3.161178448417e+00 -1.965007636544e+02 0.0 
0.0 0.0 -7.725439944427e+01 
-6.173920756386e+01 -6.582247671511e+00 0.0 
-6.582247671511e+00 -1.825588018408e+02 0.0 
0.0 0.0 -7.253899162214e+01 
-5.300095281611e+01 5.524342017737e-01 0.0 
5.524342017737e-01 -1.690399862338e+02 0.0 
0.0 0.0 -6.350326208269e+01 
-1.081589357062e+02 -2.585046150097e+00 0.0 
-2.585046150097e+00 -2.589755732869e+02 0.0 
0.0 0.0 -1.075094459740e+02 
-1.017928099724e+02 1.444611401054e+01 0.0 
1.444611401054e+01 -2.042991523337e+02 0.0 
0.0 0.0 -9.142758869185e+01 
-1.099141204508e+02 -2.477524577704e+00 0.0 
-2.477524577704e+00 -2.559383824150e+02 0.0 
0.0 0.0 -1.066728544610e+02 
-6.248934706731e+01 6.903839842589e+00 0.0 
6.903839842589e+00 -1.966243754701e+02 0.0 
0.0 0.0 -7.663661503218e+01 
-1.000526166514e+02 2.385004983110e+01 0.0 
2.385004983110e+01 -2.235275556089e+02 0.0 
0.0 0.0 -9.667405167810e+01 
-7.543221381388e+01 3.029317168418e+00 0.0 
3.029317168418e+00 -1.379497885875e+02 0.0 
0.0 0.0 -6.361460072043e+01 
-1.132908037742e+02 1.793187760099e+01 0.0 
1.793187760099e+01 -2.916807788276e+02 0.0 
0.0 0.0 -1.210914747805e+02 
-1.128787406996e+02 -1.080817594007e+00 0.0 
-1.080817594007e+00 -2.568115721698e+02 0.0 
0.0 0.0 -1.072375211982e+02 
-1.123956329107e+02 -1.649891823939e+00 0.0 
-1.649891823939e+00 -2.599720648947e+02 0.0 
0.0 0.0 -1.081248089239e+02 
-4.679319819530e+01 1.677586686422e+01 0.0 
1.677586686422e+01 -3.779380392066e+01 0.0 
0.0 0.0 -2.048995916674e+01 
-6.771391093111e+01 -1.046384929874e-01 0.0 
-1.046384929874e-01 -2.045810195029e+02 0.0 
0.0 0.0 -8.260496262444e+01 
-1.133412114493e+02 -1.883188745902e+00 0.0 
-1.883188745902e+00 -2.641732768557e+02 0.0 
0.0 0.0 -1.104582962952e+02 
-8.629587861814e+01 -3.865031000589e-01 0.0 
-3.865031000589e-01 -1.778692594903e+02 0.0 
0.0 0.0 -7.884954143253e+01 
-7.936398668073e+01 -5.038892323523e-01 0.0 
-5.038892323523e-01 -1.595094936834e+02 0.0 
0.0 0.0 -7.126204410924e+01 
-4.926186187976e+01 1.409711272180e+01 0.0 
1.409711272180e+01 -4.709096019473e+01 0.0 
0.0 0.0 -2.296121746942e+01 
-1.118580604650e+02 -2.077381346308e+00 0.0 
-2.077381346308e+00 -2.671028766218e+02 0.0 
0.0 0.0 -1.113071824030e+02 
-6.560849836950e+01 -1.279293890973e+01 0.0 
-1.279293890973e+01 -1.787601431396e+02 0.0 
0.0 0.0 -7.326477804562e+01 
-4.505229822832e+01 3.334770910733e+01 0.0 
3.334770910733e+01 -7.159796751298e+01 0.0 
0.0 0.0 -3.060718771337e+01 
-1.341358287322e+02 2.055607664861e+01 0.0 
2.055607664861e+01 -3.287537118680e+02 0.0 
0.0 0.0 -1.384668621800e+02 
-4.498152955672e+01 -1.251848596143e+01 0.0 
-1.251848596143e+01 -8.566131304495e+01 0.0 
0.0 0.0 -3.541604202630e+01 
-6.369917471826e+01 -1.062853749977e+01 0.0 
-1.062853749977e+01 -1.783073248649e+02 0.0 
0.0 0.0 -7.243419844583e+01 
-8.448396834011e+01 1.890714131256e+01 0.0 
1.890714131256e+01 -2.364161721333e+02 0.0 
0.0 0.0 -9.869571038540e+01 
-4.655323348123e+01 6.664366787315e+00 0.0 
6.664366787315e+00 -5.286262724140e+01 0.0 
0.0 0.0 -2.551907386993e+01 
-1.158301643637e+02 -3.569158440700e-01 0.0 
-3.569158440700e-01 -2.652203477568e+02 0.0 
0.0 0.0 -1.110757980280e+02 
-5.595004837252e+01 4.150171695820e-01 0.0 
4.150171695820e-01 -1.211907909190e+02 0.0 
0.0 0.0 -4.922942568109e+01 
-7.719391226868e+01 8.645716184528e+00 0.0 
8.645716184528e+00 -1.285522025272e+02 0.0 
0.0 0.0 -6.132276649096e+01 
-1.154971807957e+02 -8.974643259798e-01 0.0 
-8.974643259798e-01 -2.680404858675e+02 0.0 
0.0 0.0 -1.119131894442e+02 
-8.361315342883e+01 -2.119941808242e+00 0.0 
-2.119941808242e+00 -2.379862842257e+02 0.0 
0.0 0.0 -9.995265102453e+01 
-1.055921961713e+02 -3.454276805106e+00 0.0 
-3.454276805106e+00 -2.442360641692e+02 0.0 
0.0 0.0 -1.003285979533e+02 
-3.949968953209e+01 3.331531415099e+01 0.0 
3.331531415099e+01 -8.500539425683e+01 0.0 
0.0 0.0 -3.918549076076e+01 
-1.071779106530e+02 1.425569334857e+00 0.0 
1.425569334857e+00 -2.365489769181e+02 0.0 
0.0 0.0 -1.027180662713e+02 
-7.193163242909e+01 -7.085492070904e+00 0.0 
-7.085492070904e+00 -2.049570161360e+02 0.0 
0.0 0.0 -8.499492605968e+01 
-1.287045796908e+02 1.340474694386e+01 0.0 
1.340474694386e+01 -3.297468607878e+02 0.0 
0.0 0.0 -1.371354321436e+02 
-9.930949529155e+01 2.227410086386e+01 0.0 
2.227410086386e+01 -2.538452316953e+02 0.0 
0.0 0.0 -1.055464180960e+02 
-1.154338565495e+02 -1.620093107367e+00 0.0 
-1.620093107367e+00 -2.752857454792e+02 0.0 
0.0 0.0 -1.150908452838e+02 
-1.184325772325e+02 -2.958868265371e-01 0.0 
-2.958868265371e-01 -2.761405404284e+02 0.0 
0.0 0.0 -1.156512739166e+02 
-6.004850428118e+01 2.236112252623e+00 0.0 
2.236112252623e+00 -1.893718624674e+02 0.0 
0.0 0.0 -7.340376536446e+01 
-4.006438070200e+01 -1.124703569953e+01 0.0 
-1.124703569953e+01 -5.932461176690e+01 0.0 
0.0 0.0 -2.567711206481e+01 
-3.848665535627e+01 3.519841317413e+01 0.0 
3.519841317413e+01 -8.300023943968e+01 0.0 
0.0 0.0 -3.760755438416e+01 
-1.188637392169e+02 -1.234509871439e+00 0.0 
-1.234509871439e+00 -2.835813378996e+02 0.0 
0.0 0.0 -1.189079880052e+02 
-1.294795284465e+02 1.089613302847e+01 0.0 
1.089613302847e+01 -3.326937515869e+02 0.0 
0.0 0.0 -1.382519840100e+02 
-6.770226929806e+01 -1.620766981267e+01 0.0 
-1.620766981267e+01 -1.699404915846e+02 0.0 
0.0 0.0 -7.061844042903e+01 
-1.041313976940e+02 2.187527576324e+01 0.0 
2.187527576324e+01 -2.376138903488e+02 0.0 
0.0 0.0 -1.021235864128e+02 
-5.266314137978e+01 2.370919966548e+01 0.0 
2.370919966548e+01 -7.157770295512e+01 0.0 
0.0 0.0 -3.353102663882e+01 
-1.047771111541e+02 2.303209648953e+01 0.0 
2.303209648953e+01 -2.297826221009e+02 0.0 
0.0 0.0 -9.996791997651e+01 
-1.529098507997e+02 8.417778041380e+00 0.0 
8.417778041380e+00 -3.726597989854e+02 0.0 
0.0 0.0 -1.572708949355e+02 
-1.328647080824e+02 -7.405148978182e-01 0.0 
-7.405148978182e-01 -1.027825183914e+02 0.0 
0.0 0.0 -7.097103895259e+01 
-1.238378963174e+02 1.435015012285e+00 0.0 
1.435015012285e+00 -2.902884247407e+02 0.0 
0.0 0.0 -1.238378963174e+02 
-1.679349883416e+02 7.700876867635e-01 0.0 
7.700876867635e-01 -3.931816394636e+02 0.0 
0.0 0.0 -1.679349883416e+02 
-6.671985286811e+01 7.986785338197e-01 0.0 
7.986785338197e-01 -1.275353356427e+02 0.0 
0.0 0.0 -5.787655655326e+01 
-7.489583388743e+01 -1.202763556721e+01 0.0 
-1.202763556721e+01 -1.997481184313e+02 0.0 
0.0 0.0 -8.334889014273e+01 
-9.590205115718e+01 2.328502841940e+01 0.0 
2.328502841940e+01 -2.407881662147e+02 0.0 
0.0 0.0 -1.006070652116e+02 
-6.001525262554e+01 7.063721142679e+00 0.0 
7.063721142679e+00 -1.872340104491e+02 0.0 
0.0 0.0 -7.225127024382e+01 
-2.003820824167e+01 -6.716922414372e-01 0.0 
-6.716922414372e-01 -5.531859938211e+01 0.0 
0.0 0.0 -2.071526838954e+01 
-4.959543389956e+01 3.464034682812e+01 0.0 
3.464034682812e+01 -3.213185736434e+01 0.0 
0.0 0.0 -2.314986320230e+01 
-1.142853626923e+02 4.664488575984e+00 0.0 
4.664488575984e+00 -2.543037296981e+02 0.0 
0.0 0.0 -1.101767277171e+02 
-1.000920882128e+02 1.549619060219e+01 0.0 
1.549619060219e+01 -1.938556401801e+02 0.0 
0.0 0.0 -8.778431851787e+01 
-7.130871167923e+01 7.593018631076e+00 0.0 
7.593018631076e+00 -1.135655062722e+02 0.0 
0.0 0.0 -5.466868590953e+01 
-1.480362156320e+02 2.577525866073e+01 0.0 
2.577525866073e+01 -3.486463569188e+02 0.0 
0.0 0.0 -1.486047717652e+02 
-4.205908855083e+01 5.294362946418e-01 0.0 
5.294362946418e-01 -1.008612878582e+02 0.0 
0.0 0.0 -4.020634736333e+01 
-1.492085494149e+02 2.510674923287e+01 0.0 
2.510674923287e+01 -3.532671018852e+02 0.0 
0.0 0.0 -1.503426953900e+02 
-9.812449462630e+01 1.269148500901e+01 0.0 
1.269148500901e+01 -1.923381219495e+02 0.0 
0.0 0.0 -8.673878497275e+01 
-7.974517169047e+01 -1.223532195662e+01 0.0 
-1.223532195662e+01 -1.942266342364e+02 0.0 
0.0 0.0 -8.161150201278e+01 
-9.397917054542e+01 2.268492622445e+01 0.0 
2.268492622445e+01 -2.366410668191e+02 0.0 
0.0 0.0 -9.901475663134e+01 
-6.940321315318e+01 -1.031685813803e+01 0.0 
-1.031685813803e+01 -1.852615620808e+02 0.0 
0.0 0.0 -7.571734349904e+01 
-4.426324799031e+01 3.250916640517e+01 0.0 
3.250916640517e+01 -6.923740948349e+01 0.0 
0.0 0.0 -3.030903204814e+01 
-6.786447108489e+01 -1.191586915214e+01 0.0 
-1.191586915214e+01 -1.732077275599e+02 0.0 
0.0 0.0 -7.079994194275e+01 
-1.053752693420e+02 1.609707976148e+01 0.0 
1.609707976148e+01 -2.167644012729e+02 0.0 
0.0 0.0 -9.624190118447e+01 
-1.420502625145e+02 1.659618783401e+00 0.0 
1.659618783401e+00 -3.422602030384e+02 0.0 
0.0 0.0 -1.448931396659e+02 
-6.557506265192e+01 -7.468083936050e+00 0.0 
-7.468083936050e+00 -1.896155918530e+02 0.0 
0.0 0.0 -7.705357485538e+01 
-1.083414796187e+02 2.128769362351e+01 0.0 
2.128769362351e+01 -2.432976637530e+02 0.0 
0.0 0.0 -1.050917430115e+02 
-8.262223430043e+01 -2.408465961258e+00 0.0 
-2.408465961258e+00 -1.131115049237e+02 0.0 
0.0 0.0 -5.922137729048e+01 
-6.366631788192e+01 -1.371903799753e+00 0.0 
-1.371903799753e+00 -1.951579825824e+02 0.0 
0.0 0.0 -7.692991997136e+01 
-1.101375862449e+02 1.562233884712e+01 0.0 
1.562233884712e+01 -2.241294813614e+02 0.0 
0.0 0.0 -9.988012028191e+01 
-7.044838815020e+01 -1.143558246411e+01 0.0 
-1.143558246411e+01 -1.674478226016e+02 0.0 
0.0 0.0 -6.831528686432e+01 
-6.586018302401e+01 -1.677520584550e+01 0.0 
-1.677520584550e+01 -1.557261354184e+02 0.0 
0.0 0.0 -6.498039155598e+01 
-9.115125384539e+01 2.256784902008e+01 0.0 
2.256784902008e+01 -2.357516173654e+02 0.0 
0.0 0.0 -9.767086136325e+01 
-4.319551765886e+01 -1.853121993051e+01 0.0 
-1.853121993051e+01 -1.084757554770e+02 0.0 
0.0 0.0 -3.885636529600e+01 
-4.337845724825e+01 2.092567520155e+01 0.0 
2.092567520155e+01 -2.370901098100e+01 0.0 
0.0 0.0 -1.633079395792e+01 
-4.550958127791e+01 1.951320727404e+01 0.0 
1.951320727404e+01 -3.217152662264e+01 0.0 
0.0 0.0 -1.861859362475e+01 
-6.317217588487e+01 -1.313068034865e+01 0.0 
-1.313068034865e+01 -1.474091162629e+02 0.0 
0.0 0.0 -6.003353969698e+01 
-9.078297422043e+01 1.491212075085e+00 0.0 
1.491212075085e+00 -2.546422100409e+02 0.0 
0.0 0.0 -1.075126861372e+02 
-8.098740348813e+01 2.206836735034e+01 0.0 
2.206836735034e+01 -2.234475538863e+02 0.0 
0.0 0.0 -9.452998822336e+01 
-1.078324941613e+02 2.345932577138e+01 0.0 
2.345932577138e+01 -2.434354410926e+02 0.0 
0.0 0.0 -1.049803805762e+02 
-1.245342667188e+02 1.902266306310e+01 0.0 
1.902266306310e+01 -2.798604379091e+02 0.0 
0.0 0.0 -1.209184113884e+02 
-3.753192882941e+01 8.979596120301e+00 0.0 
8.979596120301e+00 -3.347066017829e+01 0.0 
0.0 0.0 -1.608510380964e+01 
-9.378515983556e+01 1.486838314704e+00 0.0 
1.486838314704e+00 -1.977835272497e+02 0.0 
0.0 0.0 -8.707060612557e+01 
-1.292492753465e+02 2.224279175261e+01 0.0 
2.224279175261e+01 -3.001286320458e+02 0.0 
0.0 0.0 -1.284133722177e+02 
-5.698593383391e+01 6.460045731592e+00 0.0 
6.460045731592e+00 -1.827504945832e+02 0.0 
0.0 0.0 -6.964062055575e+01 
-4.368030848364e+01 3.207700402438e+01 0.0 
3.207700402438e+01 -5.158138553394e+01 0.0 
0.0 0.0 -2.404434816506e+01 
-5.784679239010e+01 2.518360701576e+01 0.0 
2.518360701576e+01 -7.775142075182e+01 0.0 
0.0 0.0 -3.576183558215e+01 
-9.014779621329e+01 -2.055681436274e+00 0.0 
-2.055681436274e+00 -2.459100095712e+02 0.0 
0.0 0.0 -1.037873041233e+02 
-1.087826168006e+02 1.977568223874e+01 0.0 
1.977568223874e+01 -2.356556049384e+02 0.0 
0.0 0.0 -1.029314665217e+02 
-8.580068748720e+01 8.901795820977e-01 0.0 
8.901795820977e-01 -2.419597178763e+02 0.0 
0.0 0.0 -1.014843451547e+02 
-3.653368509574e+01 2.712319841841e+01 0.0 
2.712319841841e+01 -9.423244093707e+01 0.0 
0.0 0.0 -3.683851648778e+01 
-9.775260318124e+01 5.242911980546e+00 0.0 
5.242911980546e+00 -2.711090694768e+02 0.0 
0.0 0.0 -1.144082342326e+02 
-4.509497542565e+01 3.189877078996e+01 0.0 
3.189877078996e+01 -6.820676411770e+01 0.0 
0.0 0.0 -3.076030498678e+01 
-7.775960511823e+01 1.921510473204e+01 0.0 
1.921510473204e+01 -2.177449046548e+02 0.0 
0.0 0.0 -9.125323068284e+01 
-9.251725029914e+01 3.317300521139e+00 0.0 
3.317300521139e+00 -2.602267847591e+02 0.0 
0.0 0.0 -1.088655476598e+02 
-9.553951184961e+01 2.055062544115e+01 0.0 
2.055062544115e+01 -2.487648359585e+02 0.0 
0.0 0.0 -1.039933450062e+02 
-8.550427622502e+01 2.004116194220e+00 0.0 
2.004116194220e+00 -1.730984775689e+02 0.0 
0.0 0.0 -7.718082613819e+01 
-6.656167456082e+01 -1.374046877234e+01 0.0 
-1.374046877234e+01 -1.479879669856e+02 0.0 
0.0 0.0 -6.161284290153e+01 
-4.457769247978e+01 3.360825358885e+01 0.0 
3.360825358885e+01 -7.342569338147e+01 0.0 
0.0 0.0 -3.058208377219e+01 
-1.000891130740e+02 4.105956024806e+00 0.0 
4.105956024806e+00 -2.787666706240e+02 0.0 
0.0 0.0 -1.143774376147e+02 
-4.583385032475e+01 3.094206840981e+01 0.0 
3.094206840981e+01 -6.690489439990e+01 0.0 
0.0 0.0 -3.114625982406e+01 
-4.796228213872e+01 1.182472318863e+01 0.0 
1.182472318863e+01 -1.201849274706e+02 0.0 
0.0 0.0 -5.185195120882e+01 
-1.133731695754e+02 -1.021371074884e-01 0.0 
-1.021371074884e-01 -2.554794664188e+02 0.0 
0.0 0.0 -1.102557907983e+02 
-1.073106449097e+02 -2.929030803081e-01 0.0 
-2.929030803081e-01 -2.367029982274e+02 0.0 
0.0 0.0 -1.028040929411e+02 
-2.064351706028e+01 -3.524820949133e+00 0.0 
-3.524820949133e+00 -2.705922523007e+01 0.0 
0.0 0.0 -1.279046827023e+01 
-1.067672913696e+02 6.988411403247e+00 0.0 
6.988411403247e+00 -2.890030986788e+02 0.0 
0.0 0.0 -1.199907651799e+02 
-5.234143217835e+01 -1.172834645763e+01 0.0 
-1.172834645763e+01 -1.127229569945e+02 0.0 
0.0 0.0 -4.592719519876e+01 
-5.609067133904e+01 -1.184995352785e+01 0.0 
-1.184995352785e+01 -1.209769259588e+02 0.0 
0.0 0.0 -4.916577800753e+01 
-1.156897349491e+02 2.130719502192e+01 0.0 
2.130719502192e+01 -2.630539453794e+02 0.0 
0.0 0.0 -1.132231040985e+02 
-9.393070356410e+01 2.142699563892e+01 0.0 
2.142699563892e+01 -2.482516941669e+02 0.0 
0.0 0.0 -1.022547193193e+02 
-1.116271974057e+02 2.167601635242e+01 0.0 
2.167601635242e+01 -2.570593893111e+02 0.0 
0.0 0.0 -1.102059760150e+02 
-6.691745770603e+01 -4.966413186847e+00 0.0 
-4.966413186847e+00 -1.971607057067e+02 0.0 
0.0 0.0 -7.995349908262e+01 
-5.932036992984e+01 5.163412719790e-01 0.0 
5.163412719790e-01 -1.062677030859e+02 0.0 
0.0 0.0 -4.927642190473e+01 
-1.570149108535e+02 7.250899418947e+00 0.0 
7.250899418947e+00 -3.748302179970e+02 0.0 
0.0 0.0 -1.591535386551e+02 
-4.803124534032e+01 -1.126212954975e+01 0.0 
-1.126212954975e+01 -1.002805731446e+02 0.0 
0.0 0.0 -4.088789712632e+01 
-1.241341430551e+02 1.514705311014e+01 0.0 
1.514705311014e+01 -3.188809749391e+02 0.0 
0.0 0.0 -1.325045353983e+02 
-8.169754576308e+01 2.000924657826e+01 0.0 
2.000924657826e+01 -2.228145033912e+02 0.0 
0.0 0.0 -9.324428166640e+01 
-2.801681823090e+01 -2.624521075127e+00 0.0 
-2.624521075127e+00 -7.632661611370e+01 0.0 
0.0 0.0 -2.928166024260e+01 
-1.054923561205e+02 1.857273089134e+01 0.0 
1.857273089134e+01 -2.221067075008e+02 0.0 
0.0 0.0 -9.787971908636e+01 
-6.560251042271e+01 3.105602419904e+00 0.0 
3.105602419904e+00 -2.034697282742e+02 0.0 
0.0 0.0 -8.078466027826e+01 
-3.535562288926e+01 -1.050739156861e+01 0.0 
-1.050739156861e+01 -4.866404340121e+01 0.0 
0.0 0.0 -2.008225396518e+01 
-5.802364925512e+01 -2.612780410889e+00 0.0 
-2.612780410889e+00 -1.809038930032e+02 0.0 
0.0 0.0 -6.962055276345e+01 
-1.238378278078e+02 -8.198692178432e-01 0.0 
-8.198692178432e-01 -2.943466092126e+02 0.0 
0.0 0.0 -1.238812048618e+02 
-1.068780254660e+02 1.887647716212e+01 0.0 
1.887647716212e+01 -2.183257694576e+02 0.0 
0.0 0.0 -9.716113847708e+01 
-4.275441996652e+01 -1.052995741613e+01 0.0 
-1.052995741613e+01 -7.885067883578e+01 0.0 
0.0 0.0 -3.147025722184e+01 
-1.086919055003e+02 -3.095520623240e-01 0.0 
-3.095520623240e-01 -2.406643427930e+02 0.0 
0.0 0.0 -1.008401867689e+02 
-1.122974831656e+02 2.066970148174e+01 0.0 
2.066970148174e+01 -2.495327116314e+02 0.0 
0.0 0.0 -1.081490584391e+02 
-1.186564433652e+02 2.044839986461e+01 0.0 
2.044839986461e+01 -2.983582024437e+02 0.0 
0.0 0.0 -1.247043937427e+02 
-6.555363555290e+01 -1.285278899873e+01 0.0 
-1.285278899873e+01 -1.604181233794e+02 0.0 
0.0 0.0 -6.539802677205e+01 
-5.828940802957e+01 -2.275584955898e+00 0.0 
-2.275584955898e+00 -1.212396289539e+02 0.0 
0.0 0.0 -4.921401245678e+01 
-8.699514483405e+01 2.053155075068e+01 0.0 
2.053155075068e+01 -2.397466134172e+02 0.0 
0.0 0.0 -1.014241949697e+02 
-8.241696922597e+01 9.033901144010e-01 0.0 
9.033901144010e-01 -1.672406889424e+02 0.0 
0.0 0.0 -7.449729745050e+01 
-3.802348789202e+01 -1.473886736640e+01 0.0 
-1.473886736640e+01 -5.244186437272e+01 0.0 
0.0 0.0 -1.948774254170e+01 
-1.374982484413e+02 2.480509645124e+01 0.0 
2.480509645124e+01 -3.205218627203e+02 0.0 
0.0 0.0 -1.370060333485e+02 
-1.266804886142e+02 1.823042381955e+01 0.0 
1.823042381955e+01 -2.900091252969e+02 0.0 
0.0 0.0 -1.246068841733e+02 
-7.161773661593e+01 9.887095986291e-01 0.0 
9.887095986291e-01 -1.394624122067e+02 0.0 
0.0 0.0 -6.292404464679e+01 
-1.227750645543e+02 1.073167083795e+01 0.0 
1.073167083795e+01 -2.727619616840e+02 0.0 
0.0 0.0 -1.182611078715e+02 
-1.299676652466e+02 2.033778369138e+01 0.0 
2.033778369138e+01 -2.988255894696e+02 0.0 
0.0 0.0 -1.282379764149e+02 
-6.728633179219e+01 -3.746050632482e+00 0.0 
-3.746050632482e+00 -2.001744661099e+02 0.0 
0.0 0.0 -8.113693950282e+01 
-7.126987374648e+01 -1.093465113277e+01 0.0 
-1.093465113277e+01 -1.957912159143e+02 0.0 
0.0 0.0 -8.116397475230e+01 
-1.469001670292e+02 1.794186830133e+01 0.0 
1.794186830133e+01 -3.588069016528e+02 0.0 
0.0 0.0 -1.513121206046e+02 
-7.611886939010e+01 5.574705321613e+00 0.0 
5.574705321613e+00 -1.089693298507e+02 0.0 
0.0 0.0 -5.607707195504e+01 
-4.971238880248e+01 -1.336704363282e+00 0.0 
-1.336704363282e+00 -1.100588509922e+02 0.0 
0.0 0.0 -4.433568284317e+01 
-1.096854147680e+02 -1.250351632325e+00 0.0 
-1.250351632325e+00 -2.450147583823e+02 0.0 
0.0 0.0 -1.024868475356e+02 
-7.010846354788e+01 -1.462724982881e+01 0.0 
-1.462724982881e+01 -1.616239690758e+02 0.0 
0.0 0.0 -6.756817036355e+01 
-6.014720161574e+01 -9.427319066518e+00 0.0 
-9.427319066518e+00 -1.747585956794e+02 0.0 
0.0 0.0 -6.926432324531e+01 
-4.062446761319e+01 2.611363928169e+01 0.0 
2.611363928169e+01 -2.562021423079e+01 0.0 
0.0 0.0 -1.664143407589e+01 
-4.390211877538e+01 2.782214817467e+01 0.0 
2.782214817467e+01 -2.655444287572e+01 0.0 
0.0 0.0 -1.748307508034e+01 
-7.656941077356e+01 3.744346389393e+00 0.0 
3.744346389393e+00 -1.408627640396e+02 0.0 
0.0 0.0 -6.482965244395e+01 
-6.277103552048e+01 -1.825155073365e+00 0.0 
-1.825155073365e+00 -1.900862379295e+02 0.0 
0.0 0.0 -7.507194592325e+01 
-6.280416864435e+01 -4.456820473491e+00 0.0 
-4.456820473491e+00 -1.296416218197e+02 0.0 
0.0 0.0 -5.205885640109e+01 
-1.130222502371e+02 1.988476343496e+01 0.0 
1.988476343496e+01 -2.846068904634e+02 0.0 
0.0 0.0 -1.188887422102e+02 
-1.652261937730e+02 5.343453977509e+00 0.0 
5.343453977509e+00 -3.917151532888e+02 0.0 
0.0 0.0 -1.666824041186e+02 
-1.638962626974e+02 6.727150287856e+00 0.0 
6.727150287856e+00 -3.900828625461e+02 0.0 
0.0 0.0 -1.657937375731e+02 
-7.001886283208e+01 -8.235053390445e+00 0.0 
-8.235053390445e+00 -1.965480528166e+02 0.0 
0.0 0.0 -8.012490393461e+01 
-7.062110095954e+01 3.010897650741e+00 0.0 
3.010897650741e+00 -1.243552451850e+02 0.0 
0.0 0.0 -5.809290384337e+01 
-7.998423234695e+01 1.635897616682e+00 0.0 
1.635897616682e+00 -1.088026966963e+02 0.0 
0.0 0.0 -5.761836267010e+01 
-4.320014225908e+01 2.856024347763e+01 0.0 
2.856024347763e+01 -2.839563395753e+01 0.0 
0.0 0.0 -1.805556728813e+01 
-4.848718182080e+01 -2.183105763982e+01 0.0 
-2.183105763982e+01 -1.127204350116e+02 0.0 
0.0 0.0 -4.354733519393e+01 
-4.235745748008e+01 2.763982114360e+01 0.0 
2.763982114360e+01 -2.790412068332e+01 0.0 
0.0 0.0 -1.787669848722e+01 
-8.864910860974e+01 2.054714929012e+01 0.0 
2.054714929012e+01 -2.423286561650e+02 0.0 
0.0 0.0 -9.962878845351e+01 
-6.198178325195e+01 -1.297906920214e+01 0.0 
-1.297906920214e+01 -1.665812426834e+02 0.0 
0.0 0.0 -6.733787883966e+01 
-6.620377941702e+01 -8.994909053486e+00 0.0 
-8.994909053486e+00 -1.882364771456e+02 0.0 
0.0 0.0 -7.689551566492e+01 
-3.973276903171e+01 -2.659297247446e+01 0.0 
-2.659297247446e+01 -9.171559529613e+01 0.0 
0.0 0.0 -3.986068629102e+01 
-1.074098950133e+02 9.684926863084e-01 0.0 
9.684926863084e-01 -2.395610292910e+02 0.0 
0.0 0.0 -1.036912772913e+02 
-6.946938823480e+01 -1.418470065480e+01 0.0 
-1.418470065480e+01 -1.841107692344e+02 0.0 
0.0 0.0 -7.615094188306e+01 
-1.132189766672e+02 3.032224975583e+00 0.0 
3.032224975583e+00 -2.534890540810e+02 0.0 
0.0 0.0 -1.096124092244e+02 
-1.034512023426e+02 2.155201324205e+00 0.0 
2.155201324205e+00 -2.241045821387e+02 0.0 
0.0 0.0 -9.786673534438e+01 
-1.259479378823e+02 1.506218470936e+00 0.0 
1.506218470936e+00 -2.906200129817e+02 0.0 
0.0 0.0 -1.245703852592e+02 
-1.666004018980e+02 7.966582731995e-01 0.0 
7.966582731995e-01 -3.928224017111e+02 0.0 
0.0 0.0 -1.674268410827e+02 
-7.173361435291e+01 -4.450267563819e-01 0.0 
-4.450267563819e-01 -1.399843868793e+02 0.0 
0.0 0.0 -6.311540036967e+01 
-7.407101494041e+01 -1.387204463104e+01 0.0 
-1.387204463104e+01 -1.875173477802e+02 0.0 
0.0 0.0 -7.837127133684e+01 
-3.500284328190e+01 1.500396304115e+01 0.0 
1.500396304115e+01 -2.124242581428e+01 0.0 
0.0 0.0 -1.333561421224e+01 
-7.506990928712e+01 -8.873713683910e+00 0.0 
-8.873713683910e+00 -1.923394651518e+02 0.0 
0.0 0.0 -7.875197725089e+01 
-1.680762817613e+02 4.097830305977e+00 0.0 
4.097830305977e+00 -3.935113241097e+02 0.0 
0.0 0.0 -1.680762817613e+02 
-4.519480420604e+01 3.071099679510e+01 0.0 
3.071099679510e+01 -2.958238690520e+01 0.0 
0.0 0.0 -1.910804892730e+01 
-4.363083365342e+01 2.929814652239e+01 0.0 
2.929814652239e+01 -2.863958917120e+01 0.0 
0.0 0.0 -1.827001643720e+01 
-1.287161302201e+02 1.677508879200e+01 0.0 
1.677508879200e+01 -3.256521290987e+02 0.0 
0.0 0.0 -1.359104777956e+02 
-6.906045590726e+01 2.151487578133e+00 0.0 
2.151487578133e+00 -1.246566232690e+02 0.0 
0.0 0.0 -5.771512375289e+01 
-1.135225438966e+02 1.666538881116e+00 0.0 
1.666538881116e+00 -2.553381119999e+02 0.0 
0.0 0.0 -1.102581967690e+02 
-1.122376906056e+02 2.292225642877e+01 0.0 
2.292225642877e+01 -2.497095276863e+02 0.0 
0.0 0.0 -1.081841654876e+02 
-1.275743594130e+02 1.961046788018e+01 0.0 
1.961046788018e+01 -3.158444561017e+02 0.0 
0.0 0.0 -1.326256446544e+02 
-1.172197098513e+02 2.099964389839e+01 0.0 
2.099964389839e+01 -2.520328776909e+02 0.0 
0.0 0.0 -1.103757762627e+02 
-7.364519323895e+01 2.213304295025e-01 0.0 
2.213304295025e-01 -1.434548679853e+02 0.0 
0.0 0.0 -6.473001836727e+01 
-6.302321983025e+01 -1.610167453037e+01 0.0 
-1.610167453037e+01 -1.414553670401e+02 0.0 
0.0 0.0 -5.905415031356e+01 
-5.961067093616e+01 -1.426733220311e+01 0.0 
-1.426733220311e+01 -1.409497188639e+02 0.0 
0.0 0.0 -5.723196995129e+01 
-8.989203063793e+01 -8.012720808983e-02 0.0 
-8.012720808983e-02 -1.870388998771e+02 0.0 
0.0 0.0 -8.267927915450e+01 
-1.233238996098e+02 2.164096341320e+01 0.0 
2.164096341320e+01 -3.038355635262e+02 0.0 
0.0 0.0 -1.277478389408e+02 
-6.664679471226e+01 4.330141936403e+00 0.0 
4.330141936403e+00 -1.092932523612e+02 0.0 
0.0 0.0 -5.232031479826e+01 
-6.534104013782e+01 2.414371286073e-01 0.0 
2.414371286073e-01 -1.229998271958e+02 0.0 
0.0 0.0 -5.610226020008e+01 
-7.202493242040e+01 7.934431132584e-01 0.0 
7.934431132584e-01 -1.390136893290e+02 0.0 
0.0 0.0 -6.291158652482e+01 
-7.459485850685e+01 2.044246091417e+00 0.0 
2.044246091417e+00 -1.447773327171e+02 0.0 
0.0 0.0 -6.541165736718e+01 
-3.310507562865e+01 -1.350681500863e+01 0.0 
-1.350681500863e+01 -1.145763423851e+02 0.0 
0.0 0.0 -4.406705741955e+01 
-5.686566369365e+01 -1.387682183514e+01 0.0 
-1.387682183514e+01 -1.273422062872e+02 0.0 
0.0 0.0 -5.178300020470e+01 
-1.216059550420e+02 5.254941051821e+00 0.0 
5.254941051821e+00 -2.755399399492e+02 0.0 
0.0 0.0 -1.187437684974e+02 
-8.245944204649e+01 2.372149409337e+00 0.0 
2.372149409337e+00 -1.642114301258e+02 0.0 
0.0 0.0 -7.360126165168e+01 
-1.486829433914e+02 1.976304936517e+01 0.0 
1.976304936517e+01 -3.567374369347e+02 0.0 
0.0 0.0 -1.512261140978e+02 
-1.279033179419e+02 2.141004389640e+01 0.0 
2.141004389640e+01 -2.828474972341e+02 0.0 
0.0 0.0 -1.228252445528e+02 
-1.060140315633e+02 2.119756539842e+01 0.0 
2.119756539842e+01 -2.230262206518e+02 0.0 
0.0 0.0 -9.831207566453e+01 
-1.188359382982e+02 1.074951660240e+01 0.0 
1.074951660240e+01 -2.601455676069e+02 0.0 
0.0 0.0 -1.132944517715e+02 
-8.707663326893e+01 -4.472153762137e+00 0.0 
-4.472153762137e+00 -1.831656886477e+02 0.0 
0.0 0.0 -7.516770780151e+01 
-7.893201888125e+01 -5.021220110810e+00 0.0 
-5.021220110810e+00 -1.666694969800e+02 0.0 
0.0 0.0 -6.758376982204e+01 
-1.472328402830e+02 6.141707684014e+00 0.0 
6.141707684014e+00 -3.598478018835e+02 0.0 
0.0 0.0 -1.517241926499e+02 
-3.638257280071e+01 -2.315666043166e+01 0.0 
-2.315666043166e+01 -9.887894158423e+01 0.0 
0.0 0.0 -4.197283209270e+01 
-5.021797849557e+01 -8.950692665352e-01 0.0 
-8.950692665352e-01 -1.167681643217e+02 0.0 
0.0 0.0 -4.713699896348e+01 
-1.501742295072e+02 2.438907524526e+01 0.0 
2.438907524526e+01 -3.517398688500e+02 0.0 
0.0 0.0 -1.501742295072e+02 
-1.541388457417e+01 7.417693398202e-01 0.0 
7.417693398202e-01 -5.742444651844e+01 0.0 
0.0 0.0 -2.076360079881e+01 
-6.508843791398e+01 2.801493964028e-01 0.0 
2.801493964028e-01 -1.229056748386e+02 0.0 
0.0 0.0 -5.599823382578e+01 
-1.397395766055e+02 1.499873840431e+01 0.0 
1.499873840431e+01 -3.490937044091e+02 0.0 
0.0 0.0 -1.462499843044e+02 
-2.173824401930e+01 -3.585188288616e+00 0.0 
-3.585188288616e+00 -3.986317955791e+01 0.0 
0.0 0.0 -1.593444129574e+01 
-1.412156386209e+01 1.146467973900e-02 0.0 
1.146467973900e-02 -2.394787773540e+01 0.0 
0.0 0.0 -8.947005215793e+00 
-1.284459467859e+02 9.053627004145e+00 0.0 
9.053627004145e+00 -2.944307204076e+02 0.0 
0.0 0.0 -1.264630001581e+02 
-6.036996251632e+01 6.813271082337e-01 0.0 
6.813271082337e-01 -1.061371496527e+02 0.0 
0.0 0.0 -4.955213365071e+01 
-1.208400389612e+02 6.533063741212e+00 0.0 
6.533063741212e+00 -2.722511102242e+02 0.0 
0.0 0.0 -1.175273447556e+02 
-1.414646797280e+02 1.576421011153e+01 0.0 
1.576421011153e+01 -3.468978382626e+02 0.0 
0.0 0.0 -1.461087553972e+02 
-5.998916856967e+01 1.064727254330e+00 0.0 
1.064727254330e+00 -1.058551758946e+02 0.0 
0.0 0.0 -4.935330333927e+01 
-7.635820878432e+01 7.892038129162e+00 0.0 
7.892038129162e+00 -1.076793811957e+02 0.0 
0.0 0.0 -5.627231462788e+01 
-1.185685373030e+02 1.817865717217e+00 0.0 
1.817865717217e+00 -2.728492161541e+02 0.0 
0.0 0.0 -1.170253260371e+02 
-2.104134497337e+01 -2.218026129351e+00 0.0 
-2.218026129351e+00 -6.363063815932e+01 0.0 
0.0 0.0 -2.343292024749e+01 
-1.155096474794e+02 5.791529478345e+00 0.0 
5.791529478345e+00 -2.599526783978e+02 0.0 
0.0 0.0 -1.122386977632e+02 
-1.680320353545e+02 2.984161756520e+00 0.0 
2.984161756520e+00 -3.934080824938e+02 0.0 
0.0 0.0 -1.680320353545e+02 
-1.244351934461e+02 1.844903326208e+01 0.0 
1.844903326208e+01 -2.751910051497e+02 0.0 
0.0 0.0 -1.194878595787e+02 
-3.785028735283e+01 -9.915473573229e+00 0.0 
-9.915473573229e+00 -1.285574315124e+02 0.0 
0.0 0.0 -4.728212809309e+01 
-7.967063685367e+01 5.544978121423e+00 0.0 
5.544978121423e+00 -1.438530618318e+02 0.0 
0.0 0.0 -6.665710960563e+01 
-8.811144534157e+01 -2.009265178316e+00 0.0 
-2.009265178316e+00 -1.856933522620e+02 0.0 
0.0 0.0 -7.670435909755e+01 
-1.132811545773e+02 2.101619730720e+01 0.0 
2.101619730720e+01 -2.848385375688e+02 0.0 
0.0 0.0 -1.190359076438e+02 
-1.542382260697e+02 2.256954138986e+01 0.0 
2.256954138986e+01 -3.660278560504e+02 0.0 
0.0 0.0 -1.556798246360e+02 
-9.759069930874e+01 3.899089621587e-01 0.0 
3.899089621587e-01 -2.086376323087e+02 0.0 
0.0 0.0 -9.146849948523e+01 
-1.547998877429e+02 2.034056301417e+01 0.0 
2.034056301417e+01 -3.697961955161e+02 0.0 
0.0 0.0 -1.569788249777e+02 
-3.107727667063e+01 -1.686553659041e+01 0.0 
-1.686553659041e+01 -1.164461832898e+02 0.0 
0.0 0.0 -4.643073113714e+01 
-1.588176274007e+02 4.424038496856e+00 0.0 
4.424038496856e+00 -3.783787099536e+02 0.0 
0.0 0.0 -1.607589012063e+02 
-4.247006480996e+01 -1.418482163233e+01 0.0 
-1.418482163233e+01 -1.241845911150e+02 0.0 
0.0 0.0 -4.335687091506e+01 
-1.563726377793e+01 -1.520336755953e+00 0.0 
-1.520336755953e+00 -5.738632043274e+01 0.0 
0.0 0.0 -2.078068546834e+01 
-1.511078716114e+02 1.379138522262e+01 0.0 
1.379138522262e+01 -3.683143098889e+02 0.0 
0.0 0.0 -1.554266544501e+02 
-1.274218938540e+02 1.410967012781e+01 0.0 
1.410967012781e+01 -2.840367364041e+02 0.0 
0.0 0.0 -1.230375890774e+02 
-1.235808276605e+02 9.546382642730e+00 0.0 
9.546382642730e+00 -2.809442451549e+02 0.0 
0.0 0.0 -1.209575218446e+02 
-6.534501987749e+01 1.147044168492e-01 0.0 
1.147044168492e-01 -1.216294518870e+02 0.0 
0.0 0.0 -5.569234152935e+01 
-8.216243669498e+01 7.492703366793e+00 0.0 
7.492703366793e+00 -1.482859999984e+02 0.0 
0.0 0.0 -6.873453100803e+01 
-4.409195708876e+01 3.126433156370e+01 0.0 
3.126433156370e+01 -6.889927345174e+01 0.0 
0.0 0.0 -2.974610559464e+01 
-1.341291411113e+02 2.241160441016e+01 0.0 
2.241160441016e+01 -3.028348024252e+02 0.0 
0.0 0.0 -1.306891830610e+02 
-7.513357447637e+01 -3.190958363914e+00 0.0 
-3.190958363914e+00 -1.540075232779e+02 0.0 
0.0 0.0 -6.323129017050e+01 
-3.718839822769e+01 3.002256038910e+01 0.0 
3.002256038910e+01 -7.603367486933e+01 0.0 
0.0 0.0 -2.887047670655e+01 
-1.181438647345e+02 1.931894559775e+01 0.0 
1.931894559775e+01 -2.979269125936e+02 0.0 
0.0 0.0 -1.244212331984e+02 
-5.880970674743e+01 5.146482267389e-01 0.0 
5.146482267389e-01 -1.055786837386e+02 0.0 
0.0 0.0 -4.891651714580e+01 
-1.208705914283e+02 1.266127341131e+01 0.0 
1.266127341131e+01 -2.695505959754e+02 0.0 
0.0 0.0 -1.167263562211e+02 
-1.250357125454e+02 8.507139534133e-01 0.0 
8.507139534133e-01 -2.887406362855e+02 0.0 
0.0 0.0 -1.237329046493e+02 
-1.240318696573e+02 6.514039480711e-01 0.0 
6.514039480711e-01 -2.907410292003e+02 0.0 
0.0 0.0 -1.240318696573e+02 
-1.245612561398e+01 -5.600305705375e-02 0.0 
-5.600305705375e-02 -6.164148751626e+00 0.0 
0.0 0.0 -4.839549230275e+00 
-8.761632021601e+00 1.273586213307e-01 0.0 
1.273586213307e-01 -1.083315153045e+01 0.0 
0.0 0.0 -4.156431299627e+00 
-5.883899965587e+01 6.715095040281e-01 0.0 
6.715095040281e-01 -1.079554481261e+02 0.0 
0.0 0.0 -4.963833433458e+01 
-5.764902434799e+01 -5.661786346264e-02 0.0 
-5.661786346264e-02 -1.055047865965e+02 0.0 
0.0 0.0 -4.854614328335e+01 
-1.681128743701e+02 3.237092309262e-01 0.0 
3.237092309262e-01 -3.935967068635e+02 0.0 
0.0 0.0 -1.681128743701e+02 
-1.659713311608e+02 -6.723739340317e-01 0.0 
-6.723739340317e-01 -3.907578342480e+02 0.0 
0.0 0.0 -1.666187496226e+02 
-1.242873230051e+01 -4.010672291936e-01 0.0 
-4.010672291936e-01 -2.332163306994e+01 0.0 
0.0 0.0 -8.141365027372e+00 
-7.868397674974e+01 -3.992374309723e+00 0.0 
-3.992374309723e+00 -1.132995871422e+02 0.0 
0.0 0.0 -5.809549551479e+01 
-1.512743666855e+02 1.451633085097e+00 0.0 
1.451633085097e+00 -3.618647590869e+02 0.0 
0.0 0.0 -1.535417377317e+02 
-1.311856085540e+02 2.215856205539e+01 0.0 
2.215856205539e+01 -3.151668612756e+02 0.0 
0.0 0.0 -1.335057409489e+02 
-2.339136637494e+01 -1.966492010673e+00 0.0 
-1.966492010673e+00 -7.482042906686e+01 0.0 
0.0 0.0 -2.841574997109e+01 
-1.522428653867e+02 4.767305780700e+00 0.0 
4.767305780700e+00 -3.657326606117e+02 0.0 
0.0 0.0 -1.549926577995e+02 
-1.150821025544e+02 -4.623944974324e-02 0.0 
-4.623944974324e-02 -2.613173981424e+02 0.0 
0.0 0.0 -1.096369779815e+02 
-1.036999987816e+02 2.366242586451e-01 0.0 
2.366242586451e-01 -2.257330432577e+02 0.0 
0.0 0.0 -9.425216848525e+01 
-8.563216590704e+01 7.855146933137e-01 0.0 
7.855146933137e-01 -1.742257151208e+02 0.0 
0.0 0.0 -7.755736430836e+01 
-4.657009659673e+01 -2.013740733790e+01 0.0 
-2.013740733790e+01 -9.105281153823e+01 0.0 
0.0 0.0 -3.487981625361e+01 
-1.034235281841e+02 2.110337755575e+01 0.0 
2.110337755575e+01 -2.665060498236e+02 0.0 
0.0 0.0 -1.105788734023e+02 
-2.005701883913e+01 -7.508916781948e-01 0.0 
-7.508916781948e-01 -6.007402108334e+01 0.0 
0.0 0.0 -2.226459320543e+01 
-9.677426711713e+01 -2.084701458446e+00 0.0 
-2.084701458446e+00 -2.061932015377e+02 0.0 
0.0 0.0 -8.554459174136e+01 
-1.273469359161e+02 2.034737770133e+01 0.0 
2.034737770133e+01 -2.887502037982e+02 0.0 
0.0 0.0 -1.244291419143e+02 
-1.113559733781e+02 9.528991821195e-01 0.0 
9.528991821195e-01 -2.480281064982e+02 0.0 
0.0 0.0 -1.074152239629e+02 
-1.038299147613e+02 -1.177182988990e+00 0.0 
-1.177182988990e+00 -2.246621283107e+02 0.0 
0.0 0.0 -9.398898536955e+01 
-7.744492634147e+01 1.251986704433e+00 0.0 
1.251986704433e+00 -1.534773305957e+02 0.0 
0.0 0.0 -6.887667708115e+01 
-1.313122136396e+02 2.380212869716e+01 0.0 
2.380212869716e+01 -3.080446202612e+02 0.0 
0.0 0.0 -1.314070501703e+02 
-1.203999921480e+02 2.199522760301e+01 0.0 
2.199522760301e+01 -2.640620742004e+02 0.0 
0.0 0.0 -1.149386199045e+02 
-1.131720674226e+02 2.154685418461e+01 0.0 
2.154685418461e+01 -2.435472915405e+02 0.0 
0.0 0.0 -1.066158076889e+02 
-5.929203036379e+01 6.493693135790e-01 0.0 
6.493693135790e-01 -1.060549033631e+02 0.0 
0.0 0.0 -4.920408011806e+01 
-9.789014444663e+01 2.028129188778e+01 0.0 
2.028129188778e+01 -2.607225636688e+02 0.0 
0.0 0.0 -1.071838124346e+02 
-1.212375344849e+02 1.491851593985e+01 0.0 
1.491851593985e+01 -2.704937940119e+02 0.0 
0.0 0.0 -1.171193985490e+02 
-5.530677706565e+01 -3.105571839687e+00 0.0 
-3.105571839687e+00 -1.160638808011e+02 0.0 
0.0 0.0 -4.660130755094e+01 
-1.720662137210e+01 3.588705938176e-01 0.0 
3.588705938176e-01 -2.413740919454e+01 0.0 
0.0 0.0 -1.177950899283e+01 
-1.263663562370e+02 2.356622739474e+01 0.0 
2.356622739474e+01 -2.936760618462e+02 0.0 
0.0 0.0 -1.256127254250e+02 
-1.230983480484e+02 1.406873011128e+01 0.0 
1.406873011128e+01 -3.183351313919e+02 0.0 
0.0 0.0 -1.320300438321e+02 
-4.442811935641e+01 -2.112495841203e+01 0.0 
-2.112495841203e+01 -8.342278871432e+01 0.0 
0.0 0.0 -3.175388057399e+01 
-9.088494508818e+01 1.428918310160e+00 0.0 
1.428918310160e+00 -1.884743774413e+02 0.0 
0.0 0.0 -8.340779675885e+01 
-1.591175158091e+02 2.275447634837e+00 0.0 
2.275447634837e+00 -3.764480713798e+02 0.0 
0.0 0.0 -1.602696761567e+02 
-1.262834334460e+02 2.204844282828e+01 0.0 
2.204844282828e+01 -3.010510260115e+02 0.0 
0.0 0.0 -1.278003378373e+02 
-1.318723522148e+02 2.411557834290e+01 0.0 
2.411557834290e+01 -3.121678588892e+02 0.0 
0.0 0.0 -1.328120633312e+02 
-1.208091733580e+02 7.057870818781e-01 0.0 
7.057870818781e-01 -2.821203708313e+02 0.0 
0.0 0.0 -1.185991577385e+02 
-4.250134226808e+01 3.352459929214e+01 0.0 
3.352459929214e+01 -9.641876230706e+01 0.0 
0.0 0.0 -4.302820722360e+01 
-3.975278859454e+01 2.639625819763e+01 0.0 
2.639625819763e+01 -2.512782754150e+01 0.0 
0.0 0.0 -1.661640260569e+01 
-4.661515870883e+01 3.030752765409e+01 0.0 
3.030752765409e+01 -6.750105797776e+01 0.0 
0.0 0.0 -3.084212140901e+01 
-7.974097677339e+01 5.790651540646e+00 0.0 
5.790651540646e+00 -1.434341788886e+02 0.0 
0.0 0.0 -6.655254669860e+01 
-9.901827095183e+01 1.911176850951e+01 0.0 
1.911176850951e+01 -2.610011000436e+02 0.0 
0.0 0.0 -1.084225350995e+02 
-1.166875459056e+02 5.526604546318e+00 0.0 
5.526604546318e+00 -2.620654692028e+02 0.0 
0.0 0.0 -1.132259045325e+02 
-1.493264866725e+02 1.721473605369e+01 0.0 
1.721473605369e+01 -3.585585757099e+02 0.0 
0.0 0.0 -1.519655187147e+02 
-4.294713913752e+01 -1.583324028323e+01 0.0 
-1.583324028323e+01 -5.257100176431e+01 0.0 
0.0 0.0 -2.355105360935e+01 
-2.965185230922e+01 -6.356319684980e+00 0.0 
-6.356319684980e+00 -4.236172506318e+01 0.0 
0.0 0.0 -1.759332509170e+01 
-3.916980010794e+01 2.724203964734e+01 0.0 
2.724203964734e+01 -2.697545006180e+01 0.0 
0.0 0.0 -1.636585180296e+01 
-9.261751986439e+01 3.656232866652e-01 0.0 
3.656232866652e-01 -1.940173584704e+02 0.0 
0.0 0.0 -8.559046350043e+01 
-6.805364519357e+01 -3.033838086913e+00 0.0 
-3.033838086913e+00 -1.445113786405e+02 0.0 
0.0 0.0 -5.841266321794e+01 
-1.214545733221e+02 1.205603707498e+01 0.0 
1.205603707498e+01 -2.689798864855e+02 0.0 
0.0 0.0 -1.167303379423e+02 
-2.008002319989e+01 -6.711189956800e-01 0.0 
-6.711189956800e-01 -7.153380159648e+01 0.0 
0.0 0.0 -2.692778859293e+01 
-1.386267382250e+02 1.645264046091e+01 0.0 
1.645264046091e+01 -3.417555347787e+02 0.0 
0.0 0.0 -1.437146819011e+02 
-7.468584562086e+01 1.962500001662e+00 0.0 
1.962500001662e+00 -1.395105419861e+02 0.0 
0.0 0.0 -6.385891628208e+01 
-1.446703740650e+02 2.214267672514e+01 0.0 
2.214267672514e+01 -3.429966371958e+02 0.0 
0.0 0.0 -1.459001033783e+02 
-1.182937621332e+02 2.227296898436e+01 0.0 
2.227296898436e+01 -2.912478395106e+02 0.0 
0.0 0.0 -1.224624804931e+02 
-8.128920070790e+01 7.444555110269e+00 0.0 
7.444555110269e+00 -1.444501960412e+02 0.0 
0.0 0.0 -6.732181902474e+01 
-1.528735214257e+02 1.066696207802e+01 0.0 
1.066696207802e+01 -3.721111372050e+02 0.0 
0.0 0.0 -1.570953975892e+02 
-1.259138084690e+02 1.241922903068e+01 0.0 
1.241922903068e+01 -2.827299095821e+02 0.0 
0.0 0.0 -1.221931154153e+02 
-1.210538232964e+02 8.891234239574e-01 0.0 
8.891234239574e-01 -2.747830792194e+02 0.0 
0.0 0.0 -1.183510707547e+02 
-4.099928163985e+01 2.825516520782e+01 0.0 
2.825516520782e+01 -2.876910360191e+01 0.0 
0.0 0.0 -1.669154417657e+01 
-1.169382941226e+02 9.098181939763e+00 0.0 
9.098181939763e+00 -2.591557297192e+02 0.0 
0.0 0.0 -1.124282071525e+02 
-1.361580962962e+02 2.341945339089e+01 0.0 
2.341945339089e+01 -3.175795069465e+02 0.0 
0.0 0.0 -1.357212809728e+02 
-1.376784670158e+02 1.755487858820e+01 0.0 
1.755487858820e+01 -3.420403073738e+02 0.0 
0.0 0.0 -1.435156323169e+02 
-1.222766569653e+02 2.001673244471e+01 0.0 
2.001673244471e+01 -3.028593621575e+02 0.0 
0.0 0.0 -1.271408057368e+02 
-1.676661519996e+02 5.630540575179e+00 0.0 
5.630540575179e+00 -3.925543546658e+02 0.0 
0.0 0.0 -1.676661519996e+02 
-1.121269704695e+02 1.896478541618e+01 0.0 
1.896478541618e+01 -2.425979173914e+02 0.0 
0.0 0.0 -1.060174663583e+02 
-6.177351817626e+01 2.428761909242e+01 0.0 
2.428761909242e+01 -7.583681944108e+01 0.0 
0.0 0.0 -4.183484418573e+01 
-4.082325262333e+01 3.178801547654e+01 0.0 
3.178801547654e+01 -7.135240575164e+01 0.0 
0.0 0.0 -2.727162005806e+01 
-1.235774382019e+02 2.148887653450e+01 0.0 
2.148887653450e+01 -2.722645846753e+02 0.0 
0.0 0.0 -1.183526068632e+02 
-8.468577774640e+01 5.535993844077e+00 0.0 
5.535993844077e+00 -1.584700584942e+02 0.0 
0.0 0.0 -7.254675087218e+01 
-1.514230410717e+02 1.837482387953e+00 0.0 
1.837482387953e+00 -3.610537766661e+02 0.0 
0.0 0.0 -1.533430453214e+02 
-1.281287219592e+02 2.262674035740e+01 0.0 
2.262674035740e+01 -3.101537588269e+02 0.0 
0.0 0.0 -1.310847442358e+02 
-1.596988608450e+02 4.926975492960e+00 0.0 
4.926975492960e+00 -3.787667063607e+02 0.0 
0.0 0.0 -1.611396701617e+02 
-1.005079424946e+02 9.128151715662e-01 0.0 
9.128151715662e-01 -2.152321234102e+02 0.0 
0.0 0.0 -9.432201977143e+01 
-1.462796990498e+02 2.142094857173e+01 0.0 
2.142094857173e+01 -3.474138053827e+02 0.0 
0.0 0.0 -1.477080513298e+02 
-1.482299455675e+02 9.367981535477e+00 0.0 
9.367981535477e+00 -3.615840989231e+02 0.0 
0.0 0.0 -1.525442133472e+02 
-1.470595160880e+02 8.392443884051e+00 0.0 
8.392443884051e+00 -3.609578061008e+02 0.0 
0.0 0.0 -1.520051966567e+02 
-7.045774904543e+01 -2.076580187027e+00 0.0 
-2.076580187027e+00 -1.494387976402e+02 0.0 
0.0 0.0 -6.105586379972e+01 
-1.658480166916e+02 4.480626933484e+00 0.0 
4.480626933484e+00 -3.924146570652e+02 0.0 
0.0 0.0 -1.670788021270e+02 
-7.052341513586e+01 3.169130073810e+00 0.0 
3.169130073810e+00 -1.239651784767e+02 0.0 
0.0 0.0 -5.794657808378e+01 
-1.147236663901e+02 3.392080225079e+00 0.0 
3.392080225079e+00 -2.561530356141e+02 0.0 
0.0 0.0 -1.108630106013e+02 
-3.074001026268e+01 -6.975904985181e+00 0.0 
-6.975904985181e+00 -4.570030127805e+01 0.0 
0.0 0.0 -1.843328470304e+01 
-1.099393465901e+02 1.742819958967e+00 0.0 
1.742819958967e+00 -2.409988671691e+02 0.0 
0.0 0.0 -1.048814641278e+02 
-9.201673560400e+01 1.308060812406e+00 0.0 
1.308060812406e+00 -1.904420115710e+02 0.0 
0.0 0.0 -8.433762415251e+01 
-1.394466501580e+01 1.181325168070e-01 0.0 
1.181325168070e-01 -4.182596067645e+01 0.0 
0.0 0.0 -1.356241040634e+01 
-3.956865044425e+01 -1.343494810375e+01 0.0 
-1.343494810375e+01 -1.267760968799e+02 0.0 
0.0 0.0 -4.925876508063e+01 
-1.156046317003e+02 1.999994801539e+01 0.0 
1.999994801539e+01 -2.558034984173e+02 0.0 
0.0 0.0 -1.110224390353e+02 
-1.200670769553e+02 6.861936068445e+00 0.0 
6.861936068445e+00 -2.751478452777e+02 0.0 
0.0 0.0 -1.181644766699e+02 
-1.151029646544e+02 1.998453560248e+00 0.0 
1.998453560248e+00 -2.587654960176e+02 0.0 
0.0 0.0 -1.117605382016e+02 
-1.425913553705e+02 2.032440805320e+01 0.0 
2.032440805320e+01 -3.458562654339e+02 0.0 
0.0 0.0 -1.461342862413e+02 
-7.749004156924e+01 4.119453327312e-01 0.0 
4.119453327312e-01 -1.528319013233e+02 0.0 
0.0 0.0 -6.869658286777e+01 
-1.571292071823e+01 -9.714650169254e-02 0.0 
-9.714650169254e-02 -2.323560128051e+01 0.0 
0.0 0.0 -1.053667179177e+01 
-3.703320942604e+01 2.441129245049e+01 0.0 
2.441129245049e+01 -1.107370459401e+02 0.0 
0.0 0.0 -4.622252526915e+01 
-1.328286263899e+01 -1.319466745295e+00 0.0 
-1.319466745295e+00 -2.868530887502e+01 0.0 
0.0 0.0 -1.172892979634e+01 
-3.470782549132e+01 -6.711445100657e+00 0.0 
-6.711445100657e+00 -5.776666373391e+01 0.0 
0.0 0.0 -2.244625912479e+01 
-5.301616342585e+01 4.311384797164e+01 0.0 
4.311384797164e+01 -5.450409324836e+01 0.0 
0.0 0.0 -3.270652821695e+01 
-9.362511399234e+01 -3.162597419710e+00 0.0 
-3.162597419710e+00 -2.003360567687e+02 0.0 
0.0 0.0 -8.305928267049e+01 
-1.510774202724e+02 3.384907477465e-01 0.0 
3.384907477465e-01 -3.608601579278e+02 0.0 
0.0 0.0 -1.531812734601e+02 
-1.238186640207e+02 1.701362985875e+01 0.0 
1.701362985875e+01 -2.752206675482e+02 0.0 
0.0 0.0 -1.193117994707e+02 
-8.868949257846e+01 9.860696729407e+00 0.0 
9.860696729407e+00 -1.608859427271e+02 0.0 
0.0 0.0 -7.447263059167e+01 
-8.401502701773e+01 -3.542381518636e+00 0.0 
-3.542381518636e+00 -1.766644556106e+02 0.0 
0.0 0.0 -7.195658302071e+01 
-1.479106331113e+02 7.169856094530e+00 0.0 
7.169856094530e+00 -3.606306409266e+02 0.0 
0.0 0.0 -1.521623822114e+02 
-1.395666842360e+02 1.202697959294e+01 0.0 
1.202697959294e+01 -3.498600543675e+02 0.0 
0.0 0.0 -1.464280215811e+02 
-1.420349416056e+02 2.309534321676e+01 0.0 
2.309534321676e+01 -3.410267286083e+02 0.0 
0.0 0.0 -1.445185010642e+02 
-1.315154725990e+02 2.311655929292e+01 0.0 
2.311655929292e+01 -3.063954812129e+02 0.0 
0.0 0.0 -1.309732861436e+02 
-1.222461185988e+02 2.061523912073e+01 0.0 
2.061523912073e+01 -2.753207797701e+02 0.0 
0.0 0.0 -1.188700695107e+02 
-2.882307567273e+01 -7.106067756798e+00 0.0 
-7.106067756798e+00 -4.352538259962e+01 0.0 
0.0 0.0 -1.902187075215e+01 
-3.700579001246e+01 -2.066134301199e+01 0.0 
-2.066134301199e+01 -1.092560146536e+02 0.0 
0.0 0.0 -4.564099769601e+01 
-1.513908554722e+02 2.507063628131e+00 0.0 
2.507063628131e+00 -3.624046289936e+02 0.0 
0.0 0.0 -1.537386453397e+02 
-1.119510637758e+01 -3.680443288711e-01 0.0 
-3.680443288711e-01 -4.093275790888e+01 0.0 
0.0 0.0 -1.337447506398e+01 
-1.388710468311e+01 -1.083037650652e+00 0.0 
-1.083037650652e+00 -4.910481855226e+01 0.0 
0.0 0.0 -1.680826843788e+01 
-4.583277312173e+01 3.725664113513e+01 0.0 
3.725664113513e+01 -5.919068533592e+01 0.0 
0.0 0.0 -3.003437465368e+01 
-1.730398243832e+01 -1.505624955477e-02 0.0 
-1.505624955477e-02 -3.862156839482e+01 0.0 
0.0 0.0 -1.506995207695e+01 
-1.568110657238e+02 9.479624361731e+00 0.0 
9.479624361731e+00 -3.748285935332e+02 0.0 
0.0 0.0 -1.590918977771e+02 
-1.337927348648e+02 2.294082912648e+01 0.0 
2.294082912648e+01 -3.086622835443e+02 0.0 
0.0 0.0 -1.323365055227e+02 
-1.158106022244e+02 3.885583931219e+00 0.0 
3.885583931219e+00 -2.618253729834e+02 0.0 
0.0 0.0 -1.128907925623e+02 
-1.436232513540e+02 2.289690941621e+01 0.0 
2.289690941621e+01 -3.402983995574e+02 0.0 
0.0 0.0 -1.447764952734e+02 
-1.350486425093e+02 1.344449476234e+01 0.0 
1.344449476234e+01 -3.393420095574e+02 0.0 
0.0 0.0 -1.419171956200e+02 
-8.197067053428e+01 3.186905080871e-01 0.0 
3.186905080871e-01 -1.642742152651e+02 0.0 
0.0 0.0 -7.347346573981e+01 
-1.256999422680e+02 9.154053086766e+00 0.0 
9.154053086766e+00 -2.946331986252e+02 0.0 
0.0 0.0 -1.256999422680e+02 
-5.062456071870e+01 -1.892676723224e+01 0.0 
-1.892676723224e+01 -1.287974093626e+02 0.0 
0.0 0.0 -5.018934427731e+01 
-6.014215381954e+01 9.313958206432e-01 0.0 
9.313958206432e-01 -1.054704777663e+02 0.0 
0.0 0.0 -4.928378947576e+01 
-5.050807752404e+01 -2.223508903627e+01 0.0 
-2.223508903627e+01 -7.493460154943e+01 0.0 
0.0 0.0 -3.083690351325e+01 
-9.538918489146e+00 -9.091656410028e-01 0.0 
-9.091656410028e-01 -2.431764047437e+01 0.0 
0.0 0.0 -7.781235602805e+00 
-1.661992444818e+02 2.613453434287e+00 0.0 
2.613453434287e+00 -3.924265427307e+02 0.0 
0.0 0.0 -1.671877361637e+02 
-7.539248080643e+01 6.389371131304e+00 0.0 
6.389371131304e+00 -1.292161724722e+02 0.0 
0.0 0.0 -6.098259598359e+01 
-1.817874786357e+01 -6.316505749207e-01 0.0 
-6.316505749207e-01 -5.750780485201e+01 0.0 
0.0 0.0 -2.077472972688e+01 
-9.098317470447e+01 -2.969942438542e+00 0.0 
-2.969942438542e+00 -1.921148881176e+02 0.0 
0.0 0.0 -7.960277205117e+01 
-1.350427204560e+02 2.309527684138e+01 0.0 
2.309527684138e+01 -3.082672067588e+02 0.0 
0.0 0.0 -1.325929781644e+02 
-1.174706604737e+02 7.210270650572e+00 0.0 
7.210270650572e+00 -2.613911641160e+02 0.0 
0.0 0.0 -1.132585473769e+02 
-1.243576314884e+02 1.418598787537e+01 0.0 
1.418598787537e+01 -2.840415071530e+02 0.0 
0.0 0.0 -1.221197415924e+02 
-6.296331627902e+01 -8.611221391371e-01 0.0 
-8.611221391371e-01 -1.357026689171e+02 0.0 
0.0 0.0 -5.542821639332e+01 
-3.770981520705e+01 2.900043570362e+00 0.0 
2.900043570362e+00 -1.206242380710e+02 0.0 
0.0 0.0 -4.943004892690e+01 
-1.569776356156e+02 5.764402099746e+00 0.0 
5.764402099746e+00 -3.770029968477e+02 0.0 
0.0 0.0 -1.597941897390e+02 
-1.267538698526e+02 8.118789462302e-01 0.0 
8.118789462302e-01 -2.917698149780e+02 0.0 
0.0 0.0 -1.251571054492e+02 
-1.665207052231e+02 5.995753865379e-01 0.0 
5.995753865379e-01 -3.927930155812e+02 0.0 
0.0 0.0 -1.673941162413e+02 
-6.377979429475e+01 -4.101792437057e-01 0.0 
-4.101792437057e-01 -1.199239738477e+02 0.0 
0.0 0.0 -5.471113044273e+01 
-1.439486191906e+02 1.348031259834e+01 0.0 
1.348031259834e+01 -3.526072938701e+02 0.0 
0.0 0.0 -1.485667739182e+02 
-1.697378789407e+01 -9.859085666640e-01 0.0 
-9.859085666640e-01 -5.823115799900e+01 0.0 
0.0 0.0 -2.126300008835e+01 
-1.199856491611e+02 1.045700282409e+01 0.0 
1.045700282409e+01 -2.685368909411e+02 0.0 
0.0 0.0 -1.161567620306e+02 
-1.090192358781e+01 -5.771406791422e-01 0.0 
-5.771406791422e-01 -2.345657262507e+01 0.0 
0.0 0.0 -8.340213109213e+00 
-1.554362635699e+02 1.217951722180e+01 0.0 
1.217951722180e+01 -3.721123598837e+02 0.0 
0.0 0.0 -1.578645870361e+02 
-1.272505147830e+02 1.487040475960e+01 0.0 
1.487040475960e+01 -2.853297296567e+02 0.0 
0.0 0.0 -1.233740733319e+02 
-4.512250677707e+01 1.472018924887e+01 0.0 
1.472018924887e+01 -1.172184789493e+02 0.0 
0.0 0.0 -5.006856992165e+01 
-1.265819977291e+02 2.347289575773e+01 0.0 
2.347289575773e+01 -3.019200280321e+02 0.0 
0.0 0.0 -1.281506077284e+02 
-9.715138627303e+01 2.151570871389e+00 0.0 
2.151570871389e+00 -2.051126382942e+02 0.0 
0.0 0.0 -9.027920737017e+01 
-1.198362159710e+02 5.171636387012e+00 0.0 
5.171636387012e+00 -2.756247997748e+02 0.0 
0.0 0.0 -1.182383047238e+02 
-1.581225611386e+02 2.084869346135e+01 0.0 
2.084869346135e+01 -3.702859759901e+02 0.0 
0.0 0.0 -1.581225611386e+02 
-8.645482456850e+01 1.607423211548e+00 0.0 
1.607423211548e+00 -1.779031830241e+02 0.0 
0.0 0.0 -7.890740227778e+01 
-1.323149410591e+02 2.182256171284e+01 0.0 
2.182256171284e+01 -3.052417057525e+02 0.0 
0.0 0.0 -1.308669940435e+02 
-1.230006556064e+02 1.442414691174e+01 0.0 
1.442414691174e+01 -2.712987891831e+02 0.0 
0.0 0.0 -1.178898334368e+02 
-9.035525120652e+01 9.185305846494e-01 0.0 
9.185305846494e-01 -1.894881493760e+02 0.0 
0.0 0.0 -8.355302017475e+01 
-1.292661049032e+02 2.158341196407e+01 0.0 
2.158341196407e+01 -2.940536744403e+02 0.0 
0.0 0.0 -1.265959338030e+02 
-7.953143394740e+01 -2.120000003869e+00 0.0 
-2.120000003869e+00 -1.641627197672e+02 0.0 
0.0 0.0 -6.759294447776e+01 
-5.802423103726e+01 4.642993729431e-01 0.0 
4.642993729431e-01 -1.052782833802e+02 0.0 
0.0 0.0 -4.859075432525e+01 
-1.357733323390e+02 2.210798051231e+01 0.0 
2.210798051231e+01 -3.268310461466e+02 0.0 
0.0 0.0 -1.383813135457e+02 
-1.204481543790e+02 1.741275911762e-01 0.0 
1.741275911762e-01 -2.764642447191e+02 0.0 
0.0 0.0 -1.186737197294e+02 
-7.223652467737e+00 -3.396068507155e-02 0.0 
-3.396068507155e-02 -8.761058520838e+00 0.0 
0.0 0.0 -2.832174667848e+00 
-5.762954495801e+01 -1.374238888783e-01 0.0 
-1.374238888783e-01 -1.055883520447e+02 0.0 
0.0 0.0 -4.856536910080e+01 
-1.609360402270e+02 8.524459745151e-01 0.0 
8.524459745151e-01 -3.800600289524e+02 0.0 
0.0 0.0 -1.618988207538e+02 
-2.941593632017e+01 -4.702031963630e+00 0.0 
-4.702031963630e+00 -7.383265409688e+01 0.0 
0.0 0.0 -2.770438844471e+01 
-1.383978619797e+02 1.587679210923e+01 0.0 
1.587679210923e+01 -3.463803386202e+02 0.0 
0.0 0.0 -1.450334601800e+02 
-1.249469076420e+02 1.667440557666e+01 0.0 
1.667440557666e+01 -2.731206895695e+02 0.0 
0.0 0.0 -1.190202791635e+02 
-1.214548932860e+02 5.212105830346e+00 0.0 
5.212105830346e+00 -2.750709107467e+02 0.0 
0.0 0.0 -1.185577412098e+02 
-2.212320550483e+01 -2.972981556105e+00 0.0 
-2.972981556105e+00 -7.068609041864e+01 0.0 
0.0 0.0 -2.665498436335e+01 
-4.594702186379e+01 3.619674997055e+01 0.0 
3.619674997055e+01 -8.658601686797e+01 0.0 
0.0 0.0 -3.772815583342e+01 
-1.064158530901e+02 -1.411186353955e+00 0.0 
-1.411186353955e+00 -2.345264794993e+02 0.0 
0.0 0.0 -9.794046328603e+01 
-1.036900234832e+02 7.214051696098e-01 0.0 
7.214051696098e-01 -2.265619435915e+02 0.0 
0.0 0.0 -9.867559012242e+01 
-1.378782038654e+02 -3.309711029699e+00 0.0 
-3.309711029699e+00 -9.579816231995e+01 0.0 
0.0 0.0 -7.032729436840e+01 
-1.231047181394e+02 1.189734679070e+01 0.0 
1.189734679070e+01 -2.817910394600e+02 0.0 
0.0 0.0 -1.210687272798e+02 
-8.371105919386e+01 5.299830130662e-01 0.0 
5.299830130662e-01 -1.716910618150e+02 0.0 
0.0 0.0 -7.622063630266e+01 
-5.148493893357e+01 -2.095670986416e+01 0.0 
-2.095670986416e+01 -9.306295999324e+01 0.0 
0.0 0.0 -3.785049554420e+01 
-7.862147342814e+01 7.037896889401e-01 0.0 
7.037896889401e-01 -1.577769222669e+02 0.0 
0.0 0.0 -7.051951870850e+01 
-1.411422963435e+02 2.469111708112e+01 0.0 
2.469111708112e+01 -3.354619368142e+02 0.0 
0.0 0.0 -1.425812699473e+02 
-1.100418195734e+02 8.008461111099e-01 0.0 
8.008461111099e-01 -2.457012226166e+02 0.0 
0.0 0.0 -1.028501680632e+02 
-5.082861242945e+01 3.576292271320e+01 0.0 
3.576292271320e+01 -3.431532255354e+01 0.0 
0.0 0.0 -2.643364971636e+01 
-7.297068320129e+01 -4.031334845357e+00 0.0 
-4.031334845357e+00 -1.483780477361e+02 0.0 
0.0 0.0 -6.030407443462e+01 
-9.888606001386e+01 -2.720640797398e+00 0.0 
-2.720640797398e+00 -2.157182972852e+02 0.0 
0.0 0.0 -8.969211565203e+01 
-1.131335237710e+02 -1.412230059083e+00 0.0 
-1.412230059083e+00 -2.550640561923e+02 0.0 
0.0 0.0 -1.070141202631e+02 
-1.380361326029e+02 2.170475436757e+01 0.0 
2.170475436757e+01 -3.339814291150e+02 0.0 
0.0 0.0 -1.412052685154e+02 
-9.874062169041e+01 -7.013784300601e-01 0.0 
-7.013784300601e-01 -2.101649250622e+02 0.0 
0.0 0.0 -8.749878312221e+01 
-1.022422235788e+02 -1.773708609570e+00 0.0 
-1.773708609570e+00 -2.229392264004e+02 0.0 
0.0 0.0 -9.305883443355e+01 
-1.473146372679e+01 -1.255718170680e+00 0.0 
-1.255718170680e+00 -3.744501610478e+01 0.0 
0.0 0.0 -1.414902811740e+01 
-1.513117310654e+02 3.877641726245e+00 0.0 
3.877641726245e+00 -3.656238628914e+02 0.0 
0.0 0.0 -1.546806781870e+02 
-1.258239880039e+02 2.231448111351e+01 0.0 
2.231448111351e+01 -2.936340180733e+02 0.0 
0.0 0.0 -1.254374018231e+02 
-4.316550950921e+01 3.172434212778e+01 0.0 
3.172434212778e+01 -1.023546534691e+02 0.0 
0.0 0.0 -4.237279807107e+01 
-1.199601209553e+02 1.088274952648e+00 0.0 
1.088274952648e+00 -2.756833815712e+02 0.0 
0.0 0.0 -1.182930507580e+02 
-1.608296969993e+02 -1.771185128755e-01 0.0 
-1.771185128755e-01 -3.795751883514e+02 0.0 
0.0 0.0 -1.617214656052e+02 
-6.434649809758e+01 7.575311320805e-01 0.0 
7.575311320805e-01 -1.210289370883e+02 0.0 
0.0 0.0 -5.521263055578e+01 
-8.440419796428e+01 4.582737482483e-01 0.0 
4.582737482483e-01 -1.719797004556e+02 0.0 
0.0 0.0 -7.651516952595e+01 
-9.748850230189e+01 -2.453886369598e+00 0.0 
-2.453886369598e+00 -2.098537800512e+02 0.0 
0.0 0.0 -8.737965570567e+01 
-1.013958484279e+02 -1.468856267819e+00 0.0 
-1.468856267819e+00 -2.170921463569e+02 0.0 
0.0 0.0 -9.055371391187e+01 
-1.024536079664e+02 -9.920434198081e-01 0.0 
-9.920434198081e-01 -2.235893677969e+02 0.0 
0.0 0.0 -9.322752029666e+01 
-1.327190199074e+02 1.500564052086e+01 0.0 
1.500564052086e+01 -3.341403661562e+02 0.0 
0.0 0.0 -1.396578158191e+02 
-4.219535347503e+01 -1.592486910438e+01 0.0 
-1.592486910438e+01 -6.879898751492e+01 0.0 
0.0 0.0 -2.575317171414e+01 
-1.307693007444e+02 2.441634321107e+01 0.0 
2.441634321107e+01 -3.022205176481e+02 0.0 
0.0 0.0 -1.294969455178e+02 
-7.074238158031e+01 1.623469301281e-01 0.0 
1.623469301281e-01 -1.377765824761e+02 0.0 
0.0 0.0 -6.215568921693e+01 
-1.254807127353e+02 1.184911224874e+01 0.0 
1.184911224874e+01 -2.809739524493e+02 0.0 
0.0 0.0 -1.215363995554e+02 
-1.339820928315e+02 1.566835118790e+01 0.0 
1.566835118790e+01 -3.345596510378e+02 0.0 
0.0 0.0 -1.401625231608e+02 
-8.027439259997e+01 1.325303469279e+00 0.0 
1.325303469279e+00 -1.588404817407e+02 0.0 
0.0 0.0 -7.133446230220e+01 
-1.245819534298e+02 2.058357808425e+01 0.0 
2.058357808425e+01 -2.807109468559e+02 0.0 
0.0 0.0 -1.211878700857e+02 
-1.369805743282e+02 2.042807209504e+01 0.0 
2.042807209504e+01 -3.329003809703e+02 0.0 
0.0 0.0 -1.405642865896e+02 
-1.429791588552e+02 2.288474087743e+01 0.0 
2.288474087743e+01 -3.445127882740e+02 0.0 
0.0 0.0 -1.458475841388e+02 
-5.073405942160e+01 4.370161302055e+01 0.0 
4.370161302055e+01 -7.167026891928e+01 0.0 
0.0 0.0 -3.794721097530e+01 
-1.257353380716e+02 2.207085854681e+01 0.0 
2.207085854681e+01 -2.814383580698e+02 0.0 
0.0 0.0 -1.217521088424e+02 
-1.296189791818e+02 2.181015257676e+01 0.0 
2.181015257676e+01 -2.947753478004e+02 0.0 
0.0 0.0 -1.269182980947e+02 
-1.721270900608e+01 -2.201541953793e-01 0.0 
-2.201541953793e-01 -3.775658604055e+01 0.0 
0.0 0.0 -1.432039650720e+01 
-9.511716468747e+01 -1.707510861925e+00 0.0 
-1.707510861925e+00 -2.000838904047e+02 0.0 
0.0 0.0 -8.312575320157e+01 
-5.456039352446e+01 4.216010009133e+01 0.0 
4.216010009133e+01 -6.497196110869e+01 0.0 
0.0 0.0 -3.691355920871e+01 
-1.300927471590e+02 2.241534744216e+01 0.0 
2.241534744216e+01 -2.917656136410e+02 0.0 
0.0 0.0 -1.261575082400e+02 
-1.663447207276e+01 4.581246280149e-01 0.0 
4.581246280149e-01 -7.974211415757e+00 0.0 
0.0 0.0 -6.982605046557e+00 
-1.772715672768e+01 -9.114430176990e-02 0.0 
-9.114430176990e-02 -9.867536495244e+00 0.0 
0.0 0.0 -7.763699873678e+00 
-1.670301640276e+01 1.601756379807e-01 0.0 
1.601756379807e-01 -9.624498982701e+00 0.0 
0.0 0.0 -7.498254615638e+00 
-1.760859837913e+01 -6.453238917971e-03 0.0 
-6.453238917971e-03 -9.923325041602e+00 0.0 
0.0 0.0 -7.749789507835e+00 
-1.673674450569e+01 3.638072497573e-02 0.0 
3.638072497573e-02 -9.714844859964e+00 0.0 
0.0 0.0 -7.535476809695e+00 
-1.759456439104e+01 -9.170064732823e-02 0.0 
-9.170064732823e-02 -9.944871699254e+00 0.0 
0.0 0.0 -7.720955323977e+00 
-1.660884061877e+01 -4.328027307097e-02 0.0 
-4.328027307097e-02 -9.735779544880e+00 0.0 
0.0 0.0 -7.503386049094e+00 
-1.763567651013e+01 -1.827519865517e-01 0.0 
-1.827519865517e-01 -9.982894891703e+00 0.0 
0.0 0.0 -7.698037699685e+00 
-1.634042279400e+01 -9.418768664460e-02 0.0 
-9.418768664460e-02 -9.723549394339e+00 0.0 
0.0 0.0 -7.419191656501e+00 
-1.769937063271e+01 -2.741065465539e-01 0.0 
-2.741065465539e-01 -1.002890296899e+01 0.0 
0.0 0.0 -7.669419215090e+00 
-1.594656863709e+01 -1.291654267359e-01 0.0 
-1.291654267359e-01 -9.689326677090e+00 0.0 
0.0 0.0 -7.290768594256e+00 
-1.775834198666e+01 -3.658495688823e-01 0.0 
-3.658495688823e-01 -1.007632432932e+01 0.0 
0.0 0.0 -7.623549034828e+00 
-1.543006818894e+01 -1.619723127862e-01 0.0 
-1.619723127862e-01 -9.639052737534e+00 0.0 
0.0 0.0 -7.120736277943e+00 
-1.780573090110e+01 -4.690929122231e-01 0.0 
-4.690929122231e-01 -1.013022514948e+01 0.0 
0.0 0.0 -7.561126114976e+00 
-1.478077733775e+01 -1.933864595419e-01 0.0 
-1.933864595419e-01 -9.581924951534e+00 0.0 
0.0 0.0 -6.908810686787e+00 
-1.784459596176e+01 -5.802311819868e-01 0.0 
-5.802311819868e-01 -1.019041237142e+01 0.0 
0.0 0.0 -7.481455664063e+00 
-1.399393382233e+01 -2.210298794951e-01 0.0 
-2.210298794951e-01 -9.520945388368e+00 0.0 
0.0 0.0 -6.654463763210e+00 
-2.369598955928e+01 6.707953715408e+00 0.0 
6.707953715408e+00 -1.264062073285e+01 0.0 
0.0 0.0 -6.070100114277e+00 
-1.788567294003e+01 -6.911223147488e-01 0.0 
-6.911223147488e-01 -1.025211047228e+01 0.0 
0.0 0.0 -7.381242591988e+00 
-1.306704189604e+01 -2.530323775900e-01 0.0 
-2.530323775900e-01 -9.448065567547e+00 0.0 
0.0 0.0 -6.354532239076e+00 
-2.802594492874e+01 4.639674097269e+00 0.0 
4.639674097269e+00 -1.188513164168e+01 0.0 
0.0 0.0 -7.741169559954e+00 
-1.794806089885e+01 -8.095930646143e-01 0.0 
-8.095930646143e-01 -1.031902231406e+01 0.0 
0.0 0.0 -7.262779408545e+00 
-1.198807291658e+01 -2.900284796058e-01 0.0 
-2.900284796058e-01 -9.370073446656e+00 0.0 
0.0 0.0 -6.007443908972e+00 
-1.805970357663e+01 -9.299165278066e-01 0.0 
-9.299165278066e-01 -1.039373797050e+01 0.0 
0.0 0.0 -7.132786729082e+00 
-1.075382216527e+01 -3.275473031666e-01 0.0 
-3.275473031666e-01 -9.288829683798e+00 0.0 
0.0 0.0 -5.612795554722e+00 
-1.826367186826e+01 -1.037698921860e+00 0.0 
-1.037698921860e+00 -1.047737992486e+01 0.0 
0.0 0.0 -7.000689263949e+00 
-1.201597286424e+01 2.469085594424e+00 0.0 
2.469085594424e+00 -5.350065240341e+00 0.0 
0.0 0.0 -5.414518925075e-01 
-9.385201214153e+00 -3.528701783502e-01 0.0 
-3.528701783502e-01 -9.214053593677e+00 0.0 
0.0 0.0 -5.179776442349e+00 
-1.860220678834e+01 -1.098100046403e+00 0.0 
-1.098100046403e+00 -1.057036735112e+01 0.0 
0.0 0.0 -6.876738473259e+00 
-7.982867492150e+00 -3.034657018913e-01 0.0 
-3.034657018913e-01 -9.215903582336e+00 0.0 
0.0 0.0 -4.759631322346e+00 
-1.859976426801e+01 -9.948108041461e-01 0.0 
-9.948108041461e-01 -1.068509650374e+01 0.0 
0.0 0.0 -6.587434131737e+00 
-6.755195364314e+00 -2.154367020979e-01 0.0 
-2.154367020979e-01 -9.098408155679e+00 0.0 
0.0 0.0 -4.054543320327e+00 
-1.866388280651e+01 -8.548593909401e-01 0.0 
-8.548593909401e-01 -1.082395265316e+01 0.0 
0.0 0.0 -6.278665438895e+00 
-5.786132724778e+00 -6.971720357675e-02 0.0 
-6.971720357675e-02 -9.026384570893e+00 0.0 
0.0 0.0 -3.290574543017e+00 
-1.901425520790e+01 -5.708059269036e-01 0.0 
-5.708059269036e-01 -1.095877679222e+01 0.0 
0.0 0.0 -5.927225758335e+00 
-5.263722817868e+00 1.193461491818e-01 0.0 
1.193461491818e-01 -8.914679594819e+00 0.0 
0.0 0.0 -2.516383973952e+00 
-1.982807066906e+01 -1.976259866410e-01 0.0 
-1.976259866410e-01 -1.118730183920e+01 0.0 
0.0 0.0 -5.732072992225e+00 
-3.662237023526e+01 1.147263886929e+01 0.0 
1.147263886929e+01 -1.347047489502e+01 0.0 
0.0 0.0 -1.021748768529e+01 
-2.141431081165e+01 5.686374603285e-01 0.0 
5.686374603285e-01 -1.141701971933e+01 0.0 
0.0 0.0 -5.477739261914e+00 
-5.430681121290e+00 5.459997335930e-01 0.0 
5.459997335930e-01 -8.996319524862e+00 0.0 
0.0 0.0 -1.836608582270e+00 
-2.297273053423e+01 1.707029769181e+00 0.0 
1.707029769181e+00 -1.169523485015e+01 0.0 
0.0 0.0 -5.839180071024e+00 
-6.937325008193e+00 1.281550016063e+00 0.0 
1.281550016063e+00 -9.083025171435e+00 0.0 
0.0 0.0 -1.304743522679e+00 
-1.079847275830e+01 2.989599072684e+00 0.0 
2.989599072684e+00 -1.029807900962e+01 0.0 
0.0 0.0 -1.662962602890e+00 
-2.735114873452e+01 4.206639700857e+00 0.0 
4.206639700857e+00 3.758341949906e-01 0.0 
0.0 0.0 -3.986757806750e+00 
-1.755312397947e+01 1.497894572026e+00 0.0 
1.497894572026e+00 -1.025454124554e+01 0.0 
0.0 0.0 -7.942299567501e+00 
-1.786592057718e+01 -1.302868104473e+00 0.0 
-1.302868104473e+00 -8.392099298377e+00 0.0 
0.0 0.0 -7.477405962668e+00 
-1.957825776216e+01 2.165409517317e-01 0.0 
2.165409517317e-01 -1.451198862600e+01 0.0 
0.0 0.0 -9.827073916447e+00 
-1.592573498692e+01 -6.944203581418e-02 0.0 
-6.944203581418e-02 -4.285654680369e+00 0.0 
0.0 0.0 -5.663416900186e+00 
-4.021195856487e+01 1.180639577820e+01 0.0 
1.180639577820e+01 -1.176830757488e+01 0.0 
0.0 0.0 -1.146057795818e+01 
-2.644843134853e+01 2.708115003107e-01 0.0 
2.708115003107e-01 -3.118522584430e+01 0.0 
0.0 0.0 -1.689009715785e+01 
-2.571269302049e+01 -2.626435939370e-01 0.0 
-2.626435939370e-01 -2.939260269052e+01 0.0 
0.0 0.0 -1.613158871330e+01 
-2.567200548974e+01 -4.236593371821e-03 0.0 
-4.236593371821e-03 -2.933829342189e+01 0.0 
0.0 0.0 -1.610308967349e+01 
-2.550364954154e+01 -6.491393706613e-02 0.0 
-6.491393706613e-02 -2.919860600147e+01 0.0 
0.0 0.0 -1.601067666290e+01 
-2.562114478753e+01 -5.978008905804e-02 0.0 
-5.978008905804e-02 -2.924731751539e+01 0.0 
0.0 0.0 -1.606053869087e+01 
-2.536613014650e+01 -1.163890970000e-01 0.0 
-1.163890970000e-01 -2.917334091772e+01 0.0 
0.0 0.0 -1.596184131926e+01 
-2.561216748674e+01 -1.177772610297e-01 0.0 
-1.177772610297e-01 -2.927716670466e+01 0.0 
0.0 0.0 -1.606680025742e+01 
-2.522586938617e+01 -2.039683709228e-01 0.0 
-2.039683709228e-01 -2.915024633959e+01 0.0 
0.0 0.0 -1.591283471773e+01 
-2.564184095225e+01 -1.812539499244e-01 0.0 
-1.812539499244e-01 -2.931501135615e+01 0.0 
0.0 0.0 -1.608705569252e+01 
-2.505145127019e+01 -3.087324260903e-01 0.0 
-3.087324260903e-01 -2.911792758509e+01 0.0 
0.0 0.0 -1.585081365658e+01 
-2.576667790155e+01 -2.611046051825e-01 0.0 
-2.611046051825e-01 -2.934950458847e+01 0.0 
0.0 0.0 -1.610534548016e+01 
-2.482118123873e+01 -4.267593553001e-01 0.0 
-4.267593553001e-01 -2.909359284490e+01 0.0 
0.0 0.0 -1.577443222509e+01 
-2.609724757752e+01 -3.525612529357e-01 0.0 
-3.525612529357e-01 -2.936931030013e+01 0.0 
0.0 0.0 -1.609370561458e+01 
-2.451929451555e+01 -5.444173950432e-01 0.0 
-5.444173950432e-01 -2.905195045539e+01 0.0 
0.0 0.0 -1.567137349128e+01 
-2.651958259834e+01 -4.436790828700e-01 0.0 
-4.436790828700e-01 -2.940284052808e+01 0.0 
0.0 0.0 -1.609533227319e+01 
-2.415268930471e+01 -6.659402788278e-01 0.0 
-6.659402788278e-01 -2.901413549212e+01 0.0 
0.0 0.0 -1.555004743905e+01 
-3.437697043843e+01 6.809054481258e+00 0.0 
6.809054481258e+00 -3.434552859208e+01 0.0 
0.0 0.0 -1.567616962200e+01 
-2.700590592626e+01 -5.292115760894e-01 0.0 
-5.292115760894e-01 -2.945064926754e+01 0.0 
0.0 0.0 -1.610326964232e+01 
-2.371684730939e+01 -7.834262708978e-01 0.0 
-7.834262708978e-01 -2.897973976203e+01 0.0 
0.0 0.0 -1.540897612142e+01 
-2.814031903209e+01 4.726957519059e+00 0.0 
4.726957519059e+00 -2.731352653738e+01 0.0 
0.0 0.0 -1.206983241879e+01 
-2.754299112139e+01 -6.089648629104e-01 0.0 
-6.089648629104e-01 -2.948998993195e+01 0.0 
0.0 0.0 -1.609008887007e+01 
-2.321152225337e+01 -8.859454590192e-01 0.0 
-8.859454590192e-01 -2.894344392202e+01 0.0 
0.0 0.0 -1.524648985262e+01 
-3.793249916928e+01 4.602098589754e+00 0.0 
4.602098589754e+00 -3.224792383248e+01 0.0 
0.0 0.0 -1.651767167085e+01 
-2.820025766144e+01 -6.648551977005e-01 0.0 
-6.648551977005e-01 -2.954390254905e+01 0.0 
0.0 0.0 -1.608884184377e+01 
-2.266279097807e+01 -9.628315933150e-01 0.0 
-9.628315933150e-01 -2.892343595093e+01 0.0 
0.0 0.0 -1.507586807870e+01 
-2.900245686865e+01 -6.729347618847e-01 0.0 
-6.729347618847e-01 -2.962041838722e+01 0.0 
0.0 0.0 -1.611053793785e+01 
-2.210869954445e+01 -9.878421222920e-01 0.0 
-9.878421222920e-01 -2.893983204249e+01 0.0 
0.0 0.0 -1.491455947608e+01 
-2.999465516529e+01 -6.058396561876e-01 0.0 
-6.058396561876e-01 -2.973294552324e+01 0.0 
0.0 0.0 -1.616322053434e+01 
-2.161862169451e+01 -9.082727573102e-01 0.0 
-9.082727573102e-01 -2.907623848236e+01 0.0 
0.0 0.0 -1.480845805306e+01 
-4.049110041257e+01 8.439189456848e+00 0.0 
8.439189456848e+00 -3.544487911128e+01 0.0 
0.0 0.0 -1.742143332537e+01 
-3.087528181197e+01 -4.564399261073e-01 0.0 
-4.564399261073e-01 -2.992568771389e+01 0.0 
0.0 0.0 -1.618173165851e+01 
-2.168793712393e+01 -7.543466773564e-01 0.0 
-7.543466773564e-01 -2.924684894023e+01 0.0 
0.0 0.0 -1.454217106480e+01 
-3.158681941005e+01 -1.081854347776e-01 0.0 
-1.081854347776e-01 -3.005538216407e+01 0.0 
0.0 0.0 -1.603218442576e+01 
-2.207187998819e+01 -3.837569851663e-01 0.0 
-3.837569851663e-01 -2.931971167505e+01 0.0 
0.0 0.0 -1.420377584402e+01 
-2.280197629393e+01 2.706606199677e-01 0.0 
2.706606199677e-01 -2.975574243978e+01 0.0 
0.0 0.0 -1.397878930629e+01 
-3.255176019604e+01 3.682292430834e-01 0.0 
3.682292430834e-01 -3.033232894085e+01 0.0 
0.0 0.0 -1.600129867565e+01 
-2.438332556873e+01 1.389473186833e+00 0.0 
1.389473186833e+00 -2.997962003266e+01 0.0 
0.0 0.0 -1.377561148909e+01 
-3.386771827697e+01 1.327011071617e+00 0.0 
1.327011071617e+00 -3.059820902914e+01 0.0 
0.0 0.0 -1.588020507898e+01 
-2.673722391270e+01 3.165275449201e+00 0.0 
3.165275449201e+00 -3.129050523314e+01 0.0 
0.0 0.0 -1.396613124189e+01 
-3.483315483068e+01 2.380646651535e+00 0.0 
2.380646651535e+00 -3.123153402981e+01 0.0 
0.0 0.0 -1.605587023935e+01 
-3.531986396575e+01 5.913800253909e+00 0.0 
5.913800253909e+00 -2.506182687204e+01 0.0 
0.0 0.0 -1.274814503467e+01 
-2.630240984434e+01 1.439399636371e+00 0.0 
1.439399636371e+00 -2.913962082274e+01 0.0 
0.0 0.0 -1.623260920012e+01 
-2.596901650123e+01 -1.428767540853e+00 0.0 
-1.428767540853e+00 -3.110143803230e+01 0.0 
0.0 0.0 -1.672113636006e+01 
-2.405680619930e+01 1.298693333165e-01 0.0 
1.298693333165e-01 -2.496193497932e+01 0.0 
0.0 0.0 -1.430562235359e+01 
-2.812391425489e+01 -1.721075090144e-01 0.0 
-1.721075090144e-01 -3.511049420644e+01 0.0 
0.0 0.0 -1.857032253840e+01 
-3.473444737081e+01 9.618367041349e+00 0.0 
9.618367041349e+00 -2.897366944591e+01 0.0 
0.0 0.0 -1.361779858698e+01 
-3.335612584819e+01 2.096464448711e-01 0.0 
2.096464448711e-01 -4.730317967684e+01 0.0 
0.0 0.0 -2.379779165751e+01 
-3.400436063158e+01 -2.615893841902e-01 0.0 
-2.615893841902e-01 -4.888802810044e+01 0.0 
0.0 0.0 -2.446771661961e+01 
-3.407548904301e+01 -6.541253643394e-02 0.0 
-6.541253643394e-02 -4.894642171285e+01 0.0 
0.0 0.0 -2.450657322676e+01 
-3.414926079233e+01 -8.631590449138e-02 0.0 
-8.631590449138e-02 -4.898390788478e+01 0.0 
0.0 0.0 -2.453995060313e+01 
-3.406226657991e+01 -1.038049787614e-01 0.0 
-1.038049787614e-01 -4.894326836428e+01 0.0 
0.0 0.0 -2.450166048326e+01 
-3.420621090659e+01 -1.399384752082e-01 0.0 
-1.399384752082e-01 -4.900148971741e+01 0.0 
0.0 0.0 -2.456231018720e+01 
-3.403648486430e+01 -1.268147141259e-01 0.0 
-1.268147141259e-01 -4.893390725231e+01 0.0 
0.0 0.0 -2.449111763498e+01 
-3.432228376756e+01 -1.878615452545e-01 0.0 
-1.878615452545e-01 -4.901768405122e+01 0.0 
0.0 0.0 -2.460199034564e+01 
-3.403973101627e+01 -1.604109650866e-01 0.0 
-1.604109650866e-01 -4.891008817221e+01 0.0 
0.0 0.0 -2.448494575654e+01 
-3.446075196565e+01 -2.457090295603e-01 0.0 
-2.457090295603e-01 -4.903089862077e+01 0.0 
0.0 0.0 -2.464749517593e+01 
-3.403970603700e+01 -1.893673925806e-01 0.0 
-1.893673925806e-01 -4.888264068478e+01 0.0 
0.0 0.0 -2.447670401654e+01 
-3.464571762142e+01 -3.090518288677e-01 0.0 
-3.090518288677e-01 -4.906528261282e+01 0.0 
0.0 0.0 -2.471330007027e+01 
-3.395349776725e+01 -2.076946305836e-01 0.0 
-2.076946305836e-01 -4.883750521486e+01 0.0 
0.0 0.0 -2.443730089463e+01 
-3.485923980490e+01 -3.713645483930e-01 0.0 
-3.713645483930e-01 -4.908912341745e+01 0.0 
0.0 0.0 -2.478450896670e+01 
-3.388699228247e+01 -2.405500112912e-01 0.0 
-2.405500112912e-01 -4.878080145340e+01 0.0 
0.0 0.0 -2.440033812076e+01 
-4.455691888197e+01 5.905765126875e+00 0.0 
5.905765126875e+00 -5.413196635381e+01 0.0 
0.0 0.0 -2.615319693448e+01 
-3.524918867589e+01 -4.678440367324e-01 0.0 
-4.678440367324e-01 -4.914294397843e+01 0.0 
0.0 0.0 -2.491763979629e+01 
-4.723076266038e+01 3.785588958631e+00 0.0 
3.785588958631e+00 -5.219879370627e+01 0.0 
0.0 0.0 -2.662934254966e+01 
-3.380793780904e+01 -3.044825119894e-01 0.0 
-3.044825119894e-01 -4.869349504703e+01 0.0 
0.0 0.0 -2.435042985682e+01 
-3.600934810724e+01 -5.891018454266e-01 0.0 
-5.891018454266e-01 -4.919058605428e+01 0.0 
0.0 0.0 -2.499773064623e+01 
-3.371956899106e+01 -3.278229149990e-01 0.0 
-3.278229149990e-01 -4.872091368014e+01 0.0 
0.0 0.0 -2.433214480136e+01 
-3.699510138155e+01 -6.195102025558e-01 0.0 
-6.195102025558e-01 -4.924245849819e+01 0.0 
0.0 0.0 -2.507447721262e+01 
-3.365774260795e+01 -2.952560355608e-01 0.0 
-2.952560355608e-01 -4.876666116539e+01 0.0 
0.0 0.0 -2.432732113200e+01 
-3.815951641727e+01 -5.839073037062e-01 0.0 
-5.839073037062e-01 -4.933101528368e+01 0.0 
0.0 0.0 -2.520047919512e+01 
-3.959786599765e+01 4.289251371510e+00 0.0 
4.289251371510e+00 -4.740964118421e+01 0.0 
0.0 0.0 -2.298039572392e+01 
-3.366063161476e+01 -1.921582362406e-01 0.0 
-1.921582362406e-01 -4.886068547314e+01 0.0 
0.0 0.0 -2.435639512637e+01 
-3.953207377944e+01 -4.457005408955e-01 0.0 
-4.457005408955e-01 -4.946950404007e+01 0.0 
0.0 0.0 -2.536667613365e+01 
-3.376026043003e+01 1.793353275827e-02 0.0 
1.793353275827e-02 -4.905822975623e+01 0.0 
0.0 0.0 -2.444554705588e+01 
-4.114862819450e+01 -1.646593719239e-01 0.0 
-1.646593719239e-01 -4.973702552689e+01 0.0 
0.0 0.0 -2.559246535021e+01 
-3.430376106432e+01 3.080202485743e-01 0.0 
3.080202485743e-01 -4.926005895511e+01 0.0 
0.0 0.0 -2.446840239963e+01 
-4.250650661625e+01 1.831628526146e-01 0.0 
1.831628526146e-01 -5.014189313403e+01 0.0 
0.0 0.0 -2.582691584427e+01 
-3.538146467580e+01 8.654322626417e-01 0.0 
8.654322626417e-01 -4.977136945952e+01 0.0 
0.0 0.0 -2.448265100437e+01 
-4.377795974539e+01 1.018721156684e+00 0.0 
1.018721156684e+00 -5.039487322099e+01 0.0 
0.0 0.0 -2.574539091101e+01 
-4.479569395869e+01 1.975271608379e+00 0.0 
1.975271608379e+00 -5.118208327501e+01 0.0 
0.0 0.0 -2.611678652008e+01 
-3.698790666524e+01 1.766138803187e+00 0.0 
1.766138803187e+00 -5.032270187435e+01 0.0 
0.0 0.0 -2.456973553418e+01 
-4.880949239262e+01 6.455222177472e+00 0.0 
6.455222177472e+00 -5.533805167174e+01 0.0 
0.0 0.0 -2.763972597311e+01 
-3.896213141200e+01 3.193207462973e+00 0.0 
3.193207462973e+00 -5.159704626509e+01 0.0 
0.0 0.0 -2.487727630598e+01 
-4.472635935233e+01 4.915483833059e+00 0.0 
4.915483833059e+00 -4.575193591082e+01 0.0 
0.0 0.0 -2.337826237678e+01 
-3.361221824646e+01 1.439440795919e+00 0.0 
1.439440795919e+00 -4.949568056640e+01 0.0 
0.0 0.0 -2.453236964386e+01 
-3.396228475604e+01 -1.454173830667e+00 0.0 
-1.454173830667e+00 -4.744377657110e+01 0.0 
0.0 0.0 -2.402181839814e+01 
-3.594701405362e+01 1.257228103837e-01 0.0 
1.257228103837e-01 -5.361447671893e+01 0.0 
0.0 0.0 -2.646844723176e+01 
-3.171633846585e+01 -1.928095932600e-01 0.0 
-1.928095932600e-01 -4.349281736536e+01 0.0 
0.0 0.0 -2.216274674937e+01 
-4.348939019737e+01 7.533107862973e+00 0.0 
7.533107862973e+00 -4.815031505699e+01 0.0 
0.0 0.0 -2.331131320723e+01 
-4.298997158972e+01 2.924965332476e-01 0.0 
2.924965332476e-01 -7.040533675998e+01 0.0 
0.0 0.0 -3.361859250491e+01 
-4.243810275398e+01 -2.254984775698e-01 0.0 
-2.254984775698e-01 -6.856675971938e+01 0.0 
0.0 0.0 -3.290145874201e+01 
-4.251173326533e+01 4.176060878636e-02 0.0 
4.176060878636e-02 -6.855312316021e+01 0.0 
0.0 0.0 -3.291945692766e+01 
-4.243794837064e+01 -2.622020804367e-02 0.0 
-2.622020804367e-02 -6.832417890083e+01 0.0 
0.0 0.0 -3.282863818144e+01 
-4.259129848341e+01 -4.468129594815e-02 0.0 
-4.468129594815e-02 -6.839359213744e+01 0.0 
0.0 0.0 -3.289546718625e+01 
-4.250085725742e+01 -6.726145177472e-02 0.0 
-6.726145177472e-02 -6.835566453602e+01 0.0 
0.0 0.0 -3.285695653803e+01 
-4.273000608526e+01 -8.564161427520e-03 0.0 
-8.564161427520e-03 -6.843141874246e+01 0.0 
0.0 0.0 -3.294842744832e+01 
-4.258020093757e+01 -6.796268078080e-02 0.0 
-6.796268078080e-02 -6.828615744791e+01 0.0 
0.0 0.0 -3.285990751564e+01 
-4.303242340801e+01 -1.316315828147e-02 0.0 
-1.316315828147e-02 -6.844866838952e+01 0.0 
0.0 0.0 -3.304432753926e+01 
-4.271145397509e+01 -9.729942303407e-02 0.0 
-9.729942303407e-02 -6.828253664279e+01 0.0 
0.0 0.0 -3.289819718536e+01 
-4.327708002036e+01 -3.645631911785e-03 0.0 
-3.645631911785e-03 -6.846251483596e+01 0.0 
0.0 0.0 -3.312187845690e+01 
-4.286813110037e+01 -1.081191637506e-01 0.0 
-1.081191637506e-01 -6.825091406371e+01 0.0 
0.0 0.0 -3.293571354922e+01 
-4.367252271768e+01 1.422494986698e-02 0.0 
1.422494986698e-02 -6.849400604911e+01 0.0 
0.0 0.0 -3.324995863004e+01 
-5.323465924432e+01 5.136550042103e+00 0.0 
5.136550042103e+00 -7.360757180789e+01 0.0 
0.0 0.0 -3.585064460377e+01 
-4.309216959745e+01 -9.405031474065e-02 0.0 
-9.405031474065e-02 -6.829929293340e+01 0.0 
0.0 0.0 -3.301743875925e+01 
-4.405632088739e+01 1.458724994320e-01 0.0 
1.458724994320e-01 -6.850265455213e+01 0.0 
0.0 0.0 -3.336769263186e+01 
-4.894207626595e+01 3.761370473771e+00 0.0 
3.761370473771e+00 -6.690788406081e+01 0.0 
0.0 0.0 -3.285964456985e+01 
-4.340670276199e+01 -7.827840126072e-03 0.0 
-7.827840126072e-03 -6.817714351267e+01 0.0 
0.0 0.0 -3.307515388240e+01 
-4.461912403628e+01 1.723920054290e-01 0.0 
1.723920054290e-01 -6.848473539232e+01 0.0 
0.0 0.0 -3.353115782858e+01 
-5.516850712984e+01 3.556949891103e+00 0.0 
3.556949891103e+00 -7.159310614086e+01 0.0 
0.0 0.0 -3.594263732602e+01 
-4.362545304790e+01 3.610388849493e-02 0.0 
3.610388849493e-02 -6.822329736123e+01 0.0 
0.0 0.0 -3.315462512274e+01 
-4.525342843734e+01 2.455521893811e-01 0.0 
2.455521893811e-01 -6.861882962940e+01 0.0 
0.0 0.0 -3.376167742002e+01 
-4.387670228745e+01 1.278657103372e-01 0.0 
1.278657103372e-01 -6.838561119964e+01 0.0 
0.0 0.0 -3.327869404613e+01 
-4.656544776078e+01 4.235843049859e-01 0.0 
4.235843049859e-01 -6.873956600818e+01 0.0 
0.0 0.0 -3.393902498530e+01 
-4.423937409350e+01 3.322700541138e-01 0.0 
3.322700541138e-01 -6.854702382422e+01 0.0 
0.0 0.0 -3.343591937532e+01 
-5.672090040439e+01 5.384894152659e+00 0.0 
5.384894152659e+00 -7.470455188107e+01 0.0 
0.0 0.0 -3.718387159919e+01 
-4.814843324463e+01 6.777488095652e-01 0.0 
6.777488095652e-01 -6.892925514041e+01 0.0 
0.0 0.0 -3.420648780939e+01 
-4.472623427826e+01 6.425011041560e-01 0.0 
6.425011041560e-01 -6.885044989971e+01 0.0 
0.0 0.0 -3.367300525339e+01 
-4.532491284192e+01 1.115779487179e+00 0.0 
1.115779487179e+00 -6.937588340634e+01 0.0 
0.0 0.0 -3.401023887448e+01 
-4.988111303752e+01 1.048809331563e+00 0.0 
1.048809331563e+00 -6.921400263911e+01 0.0 
0.0 0.0 -3.449026256525e+01 
-4.679685294536e+01 1.784028949892e+00 0.0 
1.784028949892e+00 -6.968992960181e+01 0.0 
0.0 0.0 -3.420715899908e+01 
-5.183304969006e+01 1.698334283540e+00 0.0 
1.698334283540e+00 -6.955179336890e+01 0.0 
0.0 0.0 -3.475191534971e+01 
-4.852868387659e+01 2.830926698044e+00 0.0 
2.830926698044e+00 -7.131786959521e+01 0.0 
0.0 0.0 -3.471558086280e+01 
-5.287433759720e+01 2.101702384606e+00 0.0 
2.101702384606e+00 -7.035382825156e+01 0.0 
0.0 0.0 -3.523867815192e+01 
-5.324228825614e+01 4.394560303302e+00 0.0 
4.394560303302e+00 -6.544455427224e+01 0.0 
0.0 0.0 -3.313218743747e+01 
-4.282952852077e+01 1.408749048368e+00 0.0 
1.408749048368e+00 -6.812571878706e+01 0.0 
0.0 0.0 -3.288657419235e+01 
-4.245183274865e+01 -1.497958244125e+00 0.0 
-1.497958244125e+00 -7.032560016940e+01 0.0 
0.0 0.0 -3.343322987541e+01 
-4.043190245037e+01 9.473341702300e-02 0.0 
9.473341702300e-02 -6.407921631134e+01 0.0 
0.0 0.0 -3.095333562851e+01 
-4.474435629987e+01 -2.461442978790e-01 0.0 
-2.461442978790e-01 -7.417332443859e+01 0.0 
0.0 0.0 -3.527530422154e+01 
-5.203286022096e+01 6.046912007313e+00 0.0 
6.046912007313e+00 -6.734258689872e+01 0.0 
0.0 0.0 -3.311989721415e+01 
-5.006833490340e+01 4.679519332255e-01 0.0 
4.679519332255e-01 -8.692151782524e+01 0.0 
0.0 0.0 -4.069695581859e+01 
-5.074873499469e+01 8.839629850781e-02 0.0 
8.839629850781e-02 -8.806527285988e+01 0.0 
0.0 0.0 -4.124420235637e+01 
-5.090140620935e+01 8.100072446882e-02 0.0 
8.100072446882e-02 -8.812902669624e+01 0.0 
0.0 0.0 -4.130912987168e+01 
-5.066122004981e+01 1.367721698038e-01 0.0 
1.367721698038e-01 -8.805360043905e+01 0.0 
0.0 0.0 -4.121444614666e+01 
-5.108650479605e+01 6.793031352804e-02 0.0 
6.793031352804e-02 -8.821574020028e+01 0.0 
0.0 0.0 -4.139067349890e+01 
-5.094167381151e+01 8.885680445955e-02 0.0 
8.885680445955e-02 -8.821263577397e+01 0.0 
0.0 0.0 -4.134629287565e+01 
-5.128349324064e+01 1.903258398938e-01 0.0 
1.903258398938e-01 -8.838955543836e+01 0.0 
0.0 0.0 -4.150191460370e+01 
-5.134025297474e+01 2.510263895570e-01 0.0 
2.510263895570e-01 -8.814995826895e+01 0.0 
0.0 0.0 -4.144706337311e+01 
-5.149154394760e+01 1.909341493311e-01 0.0 
1.909341493311e-01 -8.818661631524e+01 0.0 
0.0 0.0 -4.150344807885e+01 
-5.157018044186e+01 1.834019763637e-01 0.0 
1.834019763637e-01 -8.818392761397e+01 0.0 
0.0 0.0 -4.152623241675e+01 
-5.179034305190e+01 2.894343772573e-01 0.0 
2.894343772573e-01 -8.832679524289e+01 0.0 
0.0 0.0 -4.163514148844e+01 
-5.195799879820e+01 3.202181560574e-01 0.0 
3.202181560574e-01 -8.818466021758e+01 0.0 
0.0 0.0 -4.164279770473e+01 
-6.055730329080e+01 5.072660263707e+00 0.0 
5.072660263707e+00 -9.299243237175e+01 0.0 
0.0 0.0 -4.496114154916e+01 
-5.216517692228e+01 3.937424257194e-01 0.0 
3.937424257194e-01 -8.831019919318e+01 0.0 
0.0 0.0 -4.174261283464e+01 
-6.121606853473e+01 3.409655257559e+00 0.0 
3.409655257559e+00 -9.073089781874e+01 0.0 
0.0 0.0 -4.436635764377e+01 
-5.280107411796e+01 3.376157515295e-01 0.0 
3.376157515295e-01 -8.834129179596e+01 0.0 
0.0 0.0 -4.194270977417e+01 
-5.258392878894e+01 5.440098055124e-01 0.0 
5.440098055124e-01 -8.840040632243e+01 0.0 
0.0 0.0 -4.189530053341e+01 
-5.288354796383e+01 6.163416361048e-01 0.0 
6.163416361048e-01 -8.815890789669e+01 0.0 
0.0 0.0 -4.191273675816e+01 
-5.312106339341e+01 7.136846293263e-01 0.0 
7.136846293263e-01 -8.832259389229e+01 0.0 
0.0 0.0 -4.203309718571e+01 
-5.363305268014e+01 7.092676765747e-01 0.0 
7.092676765747e-01 -8.828854654948e+01 0.0 
0.0 0.0 -4.217647976889e+01 
-5.383377462157e+01 1.029870840829e+00 0.0 
1.029870840829e+00 -8.863963739262e+01 0.0 
0.0 0.0 -4.234202360426e+01 
-5.457246270729e+01 1.055158794859e+00 0.0 
1.055158794859e+00 -8.855215156598e+01 0.0 
0.0 0.0 -4.253738428198e+01 
-5.667825932218e+01 3.787438697859e+00 0.0 
3.787438697859e+00 -8.647347905393e+01 0.0 
0.0 0.0 -4.215389630117e+01 
-5.435300994119e+01 1.464107326620e+00 0.0 
1.464107326620e+00 -8.887350611588e+01 0.0 
0.0 0.0 -4.256795481712e+01 
-5.554523503823e+01 1.512486472813e+00 0.0 
1.512486472813e+00 -8.877887147420e+01 0.0 
0.0 0.0 -4.289723195373e+01 
-5.504262026616e+01 1.901327191828e+00 0.0 
1.901327191828e+00 -8.903167929751e+01 0.0 
0.0 0.0 -4.282228986910e+01 
-5.700807951525e+01 1.903463784780e+00 0.0 
1.903463784780e+00 -8.915359250682e+01 0.0 
0.0 0.0 -4.331107108285e+01 
-5.896039529553e+01 2.503378427537e+00 0.0 
2.503378427537e+00 -8.976364429707e+01 0.0 
0.0 0.0 -4.376711695189e+01 
-5.581617812384e+01 2.431629751174e+00 0.0 
2.431629751174e+00 -8.956952295153e+01 0.0 
0.0 0.0 -4.321571032261e+01 
-5.661325262358e+01 3.188405323143e+00 0.0 
3.188405323143e+00 -9.049961355192e+01 0.0 
0.0 0.0 -4.373385985265e+01 
-6.342528356985e+01 4.916344956168e+00 0.0 
4.916344956168e+00 -9.423698340260e+01 0.0 
0.0 0.0 -4.628392148567e+01 
-6.034764008351e+01 4.170644411603e+00 0.0 
4.170644411603e+00 -8.514218443646e+01 0.0 
0.0 0.0 -4.232625865884e+01 
-5.008340685586e+01 1.296137114954e+00 0.0 
1.296137114954e+00 -8.820219481277e+01 0.0 
0.0 0.0 -4.108568050059e+01 
-5.031016368356e+01 -1.543435689565e+00 0.0 
-1.543435689565e+00 -8.685590104017e+01 0.0 
0.0 0.0 -4.074981941712e+01 
-5.216569851141e+01 -5.875669704323e-02 0.0 
-5.875669704323e-02 -9.271035964449e+01 0.0 
0.0 0.0 -4.306281744677e+01 
-4.832801988105e+01 -2.473946712915e-01 0.0 
-2.473946712915e-01 -8.253520612801e+01 0.0 
0.0 0.0 -3.885896780272e+01 
-5.931376178717e+01 5.476031536857e+00 0.0 
5.476031536857e+00 -8.651074858443e+01 0.0 
0.0 0.0 -4.234226299318e+01 

TENSORS element_materi_strain_total float
-1.294813444403e-03 3.333049390100e-03 0.0 
3.333049390100e-03 5.338481178647e-03 0.0 
0.0 0.0 0.0 
-1.317505268976e-03 3.224864791310e-03 0.0 
3.224864791310e-03 5.267725786538e-03 0.0 
0.0 0.0 0.0 
-3.459744686561e-04 3.125483300317e-03 0.0 
3.125483300317e-03 1.024123442864e-02 0.0 
0.0 0.0 0.0 
-4.788933890137e-04 3.393039509586e-04 0.0 
3.393039509586e-04 1.247964735108e-02 0.0 
0.0 0.0 0.0 
-1.706126092765e-03 3.768000072479e-04 0.0 
3.768000072479e-04 1.032869487652e-02 0.0 
0.0 0.0 0.0 
1.284200439021e-03 3.625426937906e-03 0.0 
3.625426937906e-03 -3.297482163383e-03 0.0 
0.0 0.0 0.0 
-1.589197717261e-03 2.707124239412e-04 0.0 
2.707124239412e-04 1.034912941283e-02 0.0 
0.0 0.0 0.0 
-1.167594516684e-03 3.663792102513e-03 0.0 
3.663792102513e-03 4.566195158588e-03 0.0 
0.0 0.0 0.0 
-1.710780622959e-03 2.335365583527e-04 0.0 
2.335365583527e-04 1.035344136727e-02 0.0 
0.0 0.0 0.0 
-4.596601836706e-04 6.133211206928e-04 0.0 
6.133211206928e-04 1.242897185827e-02 0.0 
0.0 0.0 0.0 
-1.081298761851e-03 -3.277934945371e-04 0.0 
-3.277934945371e-04 4.208790773132e-03 0.0 
0.0 0.0 0.0 
-1.160455044145e-03 3.264950099866e-03 0.0 
3.264950099866e-03 4.621855331195e-03 0.0 
0.0 0.0 0.0 
-3.331566582077e-04 -1.949892267045e-04 0.0 
-1.949892267045e-04 5.707285775724e-03 0.0 
0.0 0.0 0.0 
-1.892880274762e-03 8.816932738571e-04 0.0 
8.816932738571e-04 1.047161835864e-02 0.0 
0.0 0.0 0.0 
-1.894232762502e-04 -3.067959561339e-04 0.0 
-3.067959561339e-04 5.738986078833e-03 0.0 
0.0 0.0 0.0 
-2.859266395622e-04 5.009075027873e-04 0.0 
5.009075027873e-04 1.254131866801e-02 0.0 
0.0 0.0 0.0 
-1.901563129991e-03 4.959077009959e-04 0.0 
4.959077009959e-04 1.019924637835e-02 0.0 
0.0 0.0 0.0 
1.363796100654e-03 1.708216529630e-03 0.0 
1.708216529630e-03 -3.774215926226e-03 0.0 
0.0 0.0 0.0 
3.091881450306e-04 -1.513582366907e-04 0.0 
-1.513582366907e-04 1.288416109739e-03 0.0 
0.0 0.0 0.0 
-1.796401827988e-04 -2.672797882247e-04 0.0 
-2.672797882247e-04 1.536490963188e-03 0.0 
0.0 0.0 0.0 
-5.542787727105e-04 5.952789992251e-04 0.0 
5.952789992251e-04 1.243267789288e-02 0.0 
0.0 0.0 0.0 
-1.568302451944e-03 2.554077121816e-03 0.0 
2.554077121816e-03 6.669996996646e-03 0.0 
0.0 0.0 0.0 
-1.765336784444e-03 2.902905886451e-03 0.0 
2.902905886451e-03 6.640773472963e-03 0.0 
0.0 0.0 0.0 
1.270000966446e-03 6.246822538120e-04 0.0 
6.246822538120e-04 2.822901086501e-03 0.0 
0.0 0.0 0.0 
-1.865861554551e-03 1.328524076279e-03 0.0 
1.328524076279e-03 1.052622355920e-02 0.0 
0.0 0.0 0.0 
-1.055359657477e-03 -3.725190904257e-04 0.0 
-3.725190904257e-04 4.244205104674e-03 0.0 
0.0 0.0 0.0 
-2.247032966403e-03 1.030297877816e-03 0.0 
1.030297877816e-03 9.614127051101e-03 0.0 
0.0 0.0 0.0 
4.165395861704e-04 3.679037696300e-03 0.0 
3.679037696300e-03 6.507652489474e-03 0.0 
0.0 0.0 0.0 
-2.063870786163e-03 1.417608867615e-03 0.0 
1.417608867615e-03 1.051892888563e-02 0.0 
0.0 0.0 0.0 
1.052497501617e-03 5.480017840675e-04 0.0 
5.480017840675e-04 3.250002866175e-03 0.0 
0.0 0.0 0.0 
1.553036734495e-03 -3.221372568047e-03 0.0 
-3.221372568047e-03 -2.657257409294e-03 0.0 
0.0 0.0 0.0 
1.219894619429e-04 -4.645816919364e-04 0.0 
-4.645816919364e-04 3.350608219788e-04 0.0 
0.0 0.0 0.0 
-5.914292552361e-04 3.212606005024e-03 0.0 
3.212606005024e-03 1.039474317809e-02 0.0 
0.0 0.0 0.0 
-7.536518604929e-04 -1.213953373622e-04 0.0 
-1.213953373622e-04 5.019553112408e-03 0.0 
0.0 0.0 0.0 
3.476163461964e-04 -4.758731232146e-04 0.0 
-4.758731232146e-04 4.249608318508e-03 0.0 
0.0 0.0 0.0 
-6.712884200855e-05 -5.212618697699e-04 0.0 
-5.212618697699e-04 5.432532930705e-03 0.0 
0.0 0.0 0.0 
-1.155395302876e-06 -6.240821818330e-04 0.0 
-6.240821818330e-04 5.426129493249e-03 0.0 
0.0 0.0 0.0 
9.655473916028e-04 2.199686596864e-03 0.0 
2.199686596864e-03 3.943959894142e-03 0.0 
0.0 0.0 0.0 
-1.625606624566e-03 6.576834074455e-05 0.0 
6.576834074455e-05 9.965565501204e-03 0.0 
0.0 0.0 0.0 
-1.550898284583e-03 1.488385471361e-04 0.0 
1.488385471361e-04 9.978676014476e-03 0.0 
0.0 0.0 0.0 
-2.101135740634e-03 2.368962947443e-03 0.0 
2.368962947443e-03 7.712243410510e-03 0.0 
0.0 0.0 0.0 
3.619793999567e-04 -1.228935683718e-04 0.0 
-1.228935683718e-04 4.041834839505e-03 0.0 
0.0 0.0 0.0 
-7.944295980949e-04 3.611382661337e-03 0.0 
3.611382661337e-03 3.171580878901e-03 0.0 
0.0 0.0 0.0 
-2.266405490189e-03 1.037643521397e-03 0.0 
1.037643521397e-03 9.634209927895e-03 0.0 
0.0 0.0 0.0 
-6.499988715470e-04 1.180577877519e-04 0.0 
1.180577877519e-04 1.236404982479e-02 0.0 
0.0 0.0 0.0 
-8.894415899027e-04 3.657722572096e-03 0.0 
3.657722572096e-03 3.175999121984e-03 0.0 
0.0 0.0 0.0 
1.541472855224e-03 -3.330410032015e-03 0.0 
-3.330410032015e-03 -3.342699097751e-03 0.0 
0.0 0.0 0.0 
-4.452559083159e-04 2.099613954463e-04 0.0 
2.099613954463e-04 1.237007954618e-02 0.0 
0.0 0.0 0.0 
-3.988487945764e-04 -2.715640948083e-03 0.0 
-2.715640948083e-03 -1.198226556713e-03 0.0 
0.0 0.0 0.0 
-2.044011403369e-03 7.399235847750e-04 0.0 
7.399235847750e-04 1.039841413885e-02 0.0 
0.0 0.0 0.0 
-1.941173842505e-03 2.640802790494e-03 0.0 
2.640802790494e-03 7.163832143278e-03 0.0 
0.0 0.0 0.0 
-2.103473793789e-04 -1.648347968342e-04 0.0 
-1.648347968342e-04 1.869009414618e-03 0.0 
0.0 0.0 0.0 
3.091805262978e-03 -2.799970192404e-03 0.0 
-2.799970192404e-03 -3.620809460727e-03 0.0 
0.0 0.0 0.0 
-1.862239614009e-03 2.059937754827e-03 0.0 
2.059937754827e-03 7.560831622456e-03 0.0 
0.0 0.0 0.0 
-4.045034440896e-04 2.513316572036e-03 0.0 
2.513316572036e-03 1.128748509325e-02 0.0 
0.0 0.0 0.0 
-8.616680230232e-04 -5.116523300141e-04 0.0 
-5.116523300141e-04 2.491471423374e-03 0.0 
0.0 0.0 0.0 
-6.043301574185e-04 -2.982213006411e-04 0.0 
-2.982213006411e-04 2.042980992464e-03 0.0 
0.0 0.0 0.0 
-7.339448900046e-04 -1.683796490884e-04 0.0 
-1.683796490884e-04 5.018255995474e-03 0.0 
0.0 0.0 0.0 
6.694344584433e-04 -4.402519840465e-04 0.0 
-4.402519840465e-04 7.366159440569e-04 0.0 
0.0 0.0 0.0 
-3.332222745048e-04 4.791540114826e-04 0.0 
4.791540114826e-04 1.254163076343e-02 0.0 
0.0 0.0 0.0 
-1.237571614982e-03 -2.155587338024e-03 0.0 
-2.155587338024e-03 -3.097615939226e-03 0.0 
0.0 0.0 0.0 
1.002664816822e-03 3.124849248213e-03 0.0 
3.124849248213e-03 4.648658677150e-03 0.0 
0.0 0.0 0.0 
7.023703262754e-05 3.983865390167e-03 0.0 
3.983865390167e-03 3.400018082903e-03 0.0 
0.0 0.0 0.0 
3.022900626330e-03 -2.853375065270e-03 0.0 
-2.853375065270e-03 -3.121906234605e-03 0.0 
0.0 0.0 0.0 
-2.701782194621e-04 -4.062911751700e-04 0.0 
-4.062911751700e-04 5.523590082394e-03 0.0 
0.0 0.0 0.0 
-1.758305991747e-03 2.267599285657e-03 0.0 
2.267599285657e-03 7.191530931315e-03 0.0 
0.0 0.0 0.0 
3.841490016792e-04 -7.178263466523e-04 0.0 
-7.178263466523e-04 -4.856492656646e-03 0.0 
0.0 0.0 0.0 
-5.892081620542e-04 3.352065770493e-03 0.0 
3.352065770493e-03 1.007946957746e-02 0.0 
0.0 0.0 0.0 
-8.543606678846e-05 -2.238952523601e-03 0.0 
-2.238952523601e-03 5.191825414546e-04 0.0 
0.0 0.0 0.0 
-8.084003621356e-05 3.606495470472e-03 0.0 
3.606495470472e-03 8.423450486305e-03 0.0 
0.0 0.0 0.0 
-9.105667505930e-04 -5.206610308345e-04 0.0 
-5.206610308345e-04 4.267587416732e-03 0.0 
0.0 0.0 0.0 
0.0 1.725712737723e-03 0.0 
1.725712737723e-03 1.219888485379e-02 0.0 
0.0 0.0 0.0 
3.813210711776e-04 3.414806886573e-03 0.0 
3.414806886573e-03 6.116483185460e-03 0.0 
0.0 0.0 0.0 
1.603040564129e-03 -9.958187991321e-05 0.0 
-9.958187991321e-05 -2.022832759084e-04 0.0 
0.0 0.0 0.0 
-1.060400416165e-03 -5.643037969863e-04 0.0 
-5.643037969863e-04 2.685820856306e-03 0.0 
0.0 0.0 0.0 
-5.908858585731e-04 1.292230046920e-03 0.0 
1.292230046920e-03 1.224664515017e-02 0.0 
0.0 0.0 0.0 
-6.887114070864e-04 2.718330240807e-03 0.0 
2.718330240807e-03 1.114005120116e-02 0.0 
0.0 0.0 0.0 
-7.692738489694e-04 3.765853496459e-03 0.0 
3.765853496459e-03 1.883565706293e-03 0.0 
0.0 0.0 0.0 
1.840674746532e-04 -4.164179198278e-04 0.0 
-4.164179198278e-04 9.583967327795e-04 0.0 
0.0 0.0 0.0 
-6.667435886004e-04 3.797544172501e-03 0.0 
3.797544172501e-03 1.884862655087e-03 0.0 
0.0 0.0 0.0 
-1.466263647719e-04 -2.496396551127e-03 0.0 
-2.496396551127e-03 5.591916013712e-04 0.0 
0.0 0.0 0.0 
-1.832090914027e-03 4.363340843359e-04 0.0 
4.363340843359e-04 1.024348431672e-02 0.0 
0.0 0.0 0.0 
-1.608611262001e-03 3.197852208890e-03 0.0 
3.197852208890e-03 6.056253492531e-03 0.0 
0.0 0.0 0.0 
-1.435618082487e-03 2.686109884076e-03 0.0 
2.686109884076e-03 6.128555750031e-03 0.0 
0.0 0.0 0.0 
-1.762439862674e-03 3.511116749045e-04 0.0 
3.511116749045e-04 1.054114576690e-02 0.0 
0.0 0.0 0.0 
-1.611552652165e-03 3.699892458728e-04 0.0 
3.699892458728e-04 1.054094988122e-02 0.0 
0.0 0.0 0.0 
-9.237953504728e-04 -3.139233321541e-04 0.0 
-3.139233321541e-04 4.522877762352e-03 0.0 
0.0 0.0 0.0 
-8.349983330076e-04 -2.757851443114e-05 0.0 
-2.757851443114e-05 4.926516261372e-03 0.0 
0.0 0.0 0.0 
-1.158826159185e-03 3.016916935474e-03 0.0 
3.016916935474e-03 9.356135781028e-03 0.0 
0.0 0.0 0.0 
-1.831520626613e-03 3.533994699427e-04 0.0 
3.533994699427e-04 1.032504020850e-02 0.0 
0.0 0.0 0.0 
-3.559508480349e-04 -5.719102930675e-04 0.0 
-5.719102930675e-04 5.922240773006e-04 0.0 
0.0 0.0 0.0 
-2.208150078047e-03 1.174958623677e-03 0.0 
1.174958623677e-03 9.971390199374e-03 0.0 
0.0 0.0 0.0 
-1.016530236331e-03 1.501098048233e-04 0.0 
1.501098048233e-04 1.171108160588e-02 0.0 
0.0 0.0 0.0 
-1.136076539332e-03 2.382360153292e-04 0.0 
2.382360153292e-04 1.166197686757e-02 0.0 
0.0 0.0 0.0 
-3.772725443750e-04 1.890135958922e-03 0.0 
1.890135958922e-03 1.213461067812e-02 0.0 
0.0 0.0 0.0 
5.423215762324e-04 2.419016435638e-03 0.0 
2.419016435638e-03 4.664474911984e-03 0.0 
0.0 0.0 0.0 
-1.958685349389e-03 5.145780668184e-04 0.0 
5.145780668184e-04 1.022805651272e-02 0.0 
0.0 0.0 0.0 
5.442744568853e-04 -2.812571400380e-04 0.0 
-2.812571400380e-04 4.168749556619e-03 0.0 
0.0 0.0 0.0 
-1.350356145310e-03 3.118580943812e-05 0.0 
3.118580943812e-05 1.090236865561e-02 0.0 
0.0 0.0 0.0 
-4.591195958343e-04 3.972167589647e-03 0.0 
3.972167589647e-03 4.318587095999e-03 0.0 
0.0 0.0 0.0 
-1.784881916687e-03 2.611986139377e-04 0.0 
2.611986139377e-04 1.015952185761e-02 0.0 
0.0 0.0 0.0 
-2.121453398987e-04 -2.911871915626e-04 0.0 
-2.911871915626e-04 5.738032393130e-03 0.0 
0.0 0.0 0.0 
2.054235849763e-03 2.811264436585e-03 0.0 
2.811264436585e-03 2.533543620881e-03 0.0 
0.0 0.0 0.0 
9.702439417025e-04 2.989403616042e-03 0.0 
2.989403616042e-03 4.670405646302e-03 0.0 
0.0 0.0 0.0 
9.471355534540e-04 4.097222935847e-03 0.0 
4.097222935847e-03 1.689755914419e-03 0.0 
0.0 0.0 0.0 
-4.381774178992e-04 -3.963339696229e-03 0.0 
-3.963339696229e-03 -1.427773728006e-03 0.0 
0.0 0.0 0.0 
-5.124559533607e-04 -2.238000812930e-04 0.0 
-2.238000812930e-04 5.396566953857e-03 0.0 
0.0 0.0 0.0 
-9.835872887736e-04 2.663179656126e-04 0.0 
2.663179656126e-04 1.193612227616e-02 0.0 
0.0 0.0 0.0 
-1.311887600253e-03 -3.541879972741e-03 0.0 
-3.541879972741e-03 -1.872731405689e-03 0.0 
0.0 0.0 0.0 
-6.777366365918e-05 -5.033385568656e-04 0.0 
-5.033385568656e-04 5.360662412339e-03 0.0 
0.0 0.0 0.0 
-1.049692123681e-03 3.012803465316e-03 0.0 
3.012803465316e-03 8.859754205063e-03 0.0 
0.0 0.0 0.0 
2.026744402637e-03 1.030249195172e-04 0.0 
1.030249195172e-04 -5.179747046918e-04 0.0 
0.0 0.0 0.0 
1.988731080442e-03 3.975123860713e-03 0.0 
3.975123860713e-03 5.734396579142e-04 0.0 
0.0 0.0 0.0 
-2.384940219953e-03 1.656914457272e-03 0.0 
1.656914457272e-03 9.187145590885e-03 0.0 
0.0 0.0 0.0 
-1.130697531822e-03 -8.650088324555e-04 0.0 
-8.650088324555e-04 2.933611117314e-03 0.0 
0.0 0.0 0.0 
-2.188987063272e-04 3.799431195328e-03 0.0 
3.799431195328e-03 3.541215058170e-03 0.0 
0.0 0.0 0.0 
1.458551282951e-04 4.056341991497e-03 0.0 
4.056341991497e-03 3.394481233466e-03 0.0 
0.0 0.0 0.0 
1.602863202890e-04 -4.503595482407e-04 0.0 
-4.503595482407e-04 4.648568040996e-03 0.0 
0.0 0.0 0.0 
-1.392338474027e-03 1.023198305495e-04 0.0 
1.023198305495e-04 1.078757338781e-02 0.0 
0.0 0.0 0.0 
4.438938190712e-04 4.065198827131e-03 0.0 
4.065198827131e-03 2.534300301652e-03 0.0 
0.0 0.0 0.0 
-1.037950290080e-04 -1.553192247378e-03 0.0 
-1.553192247378e-03 8.609391907068e-04 0.0 
0.0 0.0 0.0 
-2.230852944915e-03 1.318906094181e-03 0.0 
1.318906094181e-03 9.750596968338e-03 0.0 
0.0 0.0 0.0 
-8.272002902411e-04 1.874612853111e-04 0.0 
1.874612853111e-04 1.195816033139e-02 0.0 
0.0 0.0 0.0 
5.215424478242e-04 4.033889520909e-03 0.0 
4.033889520909e-03 2.535759581785e-03 0.0 
0.0 0.0 0.0 
-8.826515224684e-04 3.831336396169e-03 0.0 
3.831336396169e-03 3.833972240213e-04 0.0 
0.0 0.0 0.0 
-2.293255074439e-03 1.945055444152e-03 0.0 
1.945055444152e-03 8.460716415630e-03 0.0 
0.0 0.0 0.0 
-1.118505161065e-03 -8.564590725311e-04 0.0 
-8.564590725311e-04 2.914104694880e-03 0.0 
0.0 0.0 0.0 
-2.058989845551e-03 1.708374625551e-03 0.0 
1.708374625551e-03 8.264255053379e-03 0.0 
0.0 0.0 0.0 
-3.239507780856e-04 1.490742596087e-03 0.0 
1.490742596087e-03 1.221537130618e-02 0.0 
0.0 0.0 0.0 
4.895668075713e-04 4.466370402613e-03 0.0 
4.466370402613e-03 -9.458998481581e-04 0.0 
0.0 0.0 0.0 
-9.488139271296e-04 -4.785481467768e-04 0.0 
-4.785481467768e-04 4.289576897565e-03 0.0 
0.0 0.0 0.0 
-4.341638428510e-04 3.630263102598e-04 0.0 
3.630263102598e-04 1.248034328788e-02 0.0 
0.0 0.0 0.0 
-1.079020378486e-03 3.446343469346e-03 0.0 
3.446343469346e-03 5.877937485283e-03 0.0 
0.0 0.0 0.0 
-2.217173059763e-03 2.123554881049e-03 0.0 
2.123554881049e-03 8.095637914426e-03 0.0 
0.0 0.0 0.0 
4.265657032780e-04 -3.737590441596e-04 0.0 
-3.737590441596e-04 4.251652472069e-03 0.0 
0.0 0.0 0.0 
-3.320965797963e-04 -2.196616462663e-04 0.0 
-2.196616462663e-04 5.711984502946e-03 0.0 
0.0 0.0 0.0 
-8.471451935003e-04 -3.921586050794e-04 0.0 
-3.921586050794e-04 4.520745089339e-03 0.0 
0.0 0.0 0.0 
-1.292644782063e-03 3.520935708125e-03 0.0 
3.520935708125e-03 6.574914605499e-03 0.0 
0.0 0.0 0.0 
8.835703803887e-04 4.046423018248e-04 0.0 
4.046423018248e-04 3.777128784654e-03 0.0 
0.0 0.0 0.0 
-1.487258415296e-03 3.011458749301e-03 0.0 
3.011458749301e-03 6.632191244847e-03 0.0 
0.0 0.0 0.0 
-3.146576759034e-04 1.005112598620e-03 0.0 
1.005112598620e-03 1.238507818319e-02 0.0 
0.0 0.0 0.0 
-1.694865546628e-04 3.791985036170e-03 0.0 
3.791985036170e-03 8.638992336054e-03 0.0 
0.0 0.0 0.0 
-2.050155823064e-03 9.186058207311e-04 0.0 
9.186058207311e-04 1.048051463008e-02 0.0 
0.0 0.0 0.0 
-1.272329334346e-03 3.370270537284e-04 0.0 
3.370270537284e-04 1.132397742930e-02 0.0 
0.0 0.0 0.0 
-1.460670160457e-03 3.403857716447e-03 0.0 
3.403857716447e-03 6.615688699762e-03 0.0 
0.0 0.0 0.0 
-1.968581659025e-03 1.849313333151e-03 0.0 
1.849313333151e-03 7.866339763335e-03 0.0 
0.0 0.0 0.0 
-9.222390594712e-04 3.562480120989e-03 0.0 
3.562480120989e-03 5.873234529584e-03 0.0 
0.0 0.0 0.0 
1.343764760386e-03 4.122297882576e-03 0.0 
4.122297882576e-03 1.549016186005e-03 0.0 
0.0 0.0 0.0 
-1.659778667119e-03 1.671153627040e-04 0.0 
1.671153627040e-04 1.020899812159e-02 0.0 
0.0 0.0 0.0 
2.377713305205e-03 3.905661174117e-03 0.0 
3.905661174117e-03 5.804938236236e-04 0.0 
0.0 0.0 0.0 
5.037491989746e-05 -4.281190794369e-04 0.0 
-4.281190794369e-04 3.866050316013e-04 0.0 
0.0 0.0 0.0 
-1.467902228027e-03 5.707585038706e-05 0.0 
5.707585038706e-05 1.049034460924e-02 0.0 
0.0 0.0 0.0 
3.152788897616e-04 -1.689908506896e-04 0.0 
-1.689908506896e-04 1.007277339182e-03 0.0 
0.0 0.0 0.0 
-2.340966614473e-03 1.795134859710e-03 0.0 
1.795134859710e-03 8.814356193117e-03 0.0 
0.0 0.0 0.0 
4.821247233049e-04 3.018619846186e-04 0.0 
3.018619846186e-04 3.786217509671e-03 0.0 
0.0 0.0 0.0 
7.659271195748e-04 4.109269027397e-03 0.0 
4.109269027397e-03 1.689113155543e-03 0.0 
0.0 0.0 0.0 
-8.675311676519e-04 -2.009594907316e-04 0.0 
-2.009594907316e-04 4.749318040131e-03 0.0 
0.0 0.0 0.0 
-1.049309989054e-03 3.587633091736e-03 0.0 
3.587633091736e-03 3.909140591032e-03 0.0 
0.0 0.0 0.0 
1.924406003964e-03 3.024460290135e-03 0.0 
3.024460290135e-03 2.514533889736e-03 0.0 
0.0 0.0 0.0 
-1.505764157075e-03 9.281037093154e-05 0.0 
9.281037093154e-05 1.023997536599e-02 0.0 
0.0 0.0 0.0 
2.593118216823e-03 3.949210595520e-03 0.0 
3.949210595520e-03 -3.320629130045e-04 0.0 
0.0 0.0 0.0 
-6.647221582510e-04 -2.488018753669e-04 0.0 
-2.488018753669e-04 5.090794599624e-03 0.0 
0.0 0.0 0.0 
-4.269827856931e-04 -1.723377958172e-03 0.0 
-1.723377958172e-03 8.959799818160e-04 0.0 
0.0 0.0 0.0 
-4.864069552521e-04 -2.213064356002e-04 0.0 
-2.213064356002e-04 5.396230717175e-03 0.0 
0.0 0.0 0.0 
-2.031156262781e-03 2.186072860835e-03 0.0 
2.186072860835e-03 8.749303304610e-03 0.0 
0.0 0.0 0.0 
-2.004380439632e-04 -5.169915069678e-04 0.0 
-5.169915069678e-04 5.431376512955e-03 0.0 
0.0 0.0 0.0 
-1.465868438971e-03 4.084936390115e-05 0.0 
4.084936390115e-05 1.020948511760e-02 0.0 
0.0 0.0 0.0 
1.497384510795e-03 4.088416588618e-03 0.0 
4.088416588618e-03 6.637824292115e-04 0.0 
0.0 0.0 0.0 
-2.185856545593e-03 1.482180222344e-03 0.0 
1.482180222344e-03 8.929569975806e-03 0.0 
0.0 0.0 0.0 
-1.163057872089e-03 -2.397664997310e-04 0.0 
-2.397664997310e-04 4.160715544712e-03 0.0 
0.0 0.0 0.0 
-1.037946617447e-03 3.613173318158e-03 0.0 
3.613173318158e-03 3.916057101659e-03 0.0 
0.0 0.0 0.0 
2.969051451912e-03 3.664943890616e-03 0.0 
3.664943890616e-03 -2.952559158221e-04 0.0 
0.0 0.0 0.0 
-1.242789846025e-03 2.603718412576e-04 0.0 
2.603718412576e-04 1.149754836983e-02 0.0 
0.0 0.0 0.0 
-1.538518588130e-03 1.260875477740e-04 0.0 
1.260875477740e-04 1.021152649833e-02 0.0 
0.0 0.0 0.0 
1.790418707970e-03 4.042961951997e-03 0.0 
4.042961951997e-03 5.603023836764e-04 0.0 
0.0 0.0 0.0 
-2.144409180334e-03 1.577422771579e-03 0.0 
1.577422771579e-03 8.599524118829e-03 0.0 
0.0 0.0 0.0 
-2.941408531502e-04 3.480703821446e-03 0.0 
3.480703821446e-03 7.719364582767e-03 0.0 
0.0 0.0 0.0 
-1.133068379262e-03 -9.483620827654e-04 0.0 
-9.483620827654e-04 3.019690032797e-03 0.0 
0.0 0.0 0.0 
3.008576490355e-04 3.427420548478e-03 0.0 
3.427420548478e-03 6.230169178469e-03 0.0 
0.0 0.0 0.0 
-9.356905508306e-05 3.830969288962e-03 0.0 
3.830969288962e-03 8.184448822995e-03 0.0 
0.0 0.0 0.0 
-7.614528558149e-04 3.798599396201e-03 0.0 
3.798599396201e-03 4.475506688195e-03 0.0 
0.0 0.0 0.0 
-1.234495647559e-03 -7.761118476912e-04 0.0 
-7.761118476912e-04 3.276976508432e-03 0.0 
0.0 0.0 0.0 
1.821357728104e-03 1.034027892892e-03 0.0 
1.034027892892e-03 2.149495060496e-03 0.0 
0.0 0.0 0.0 
-1.843260224402e-03 2.937714423858e-03 0.0 
2.937714423858e-03 7.258360670908e-03 0.0 
0.0 0.0 0.0 
-5.938334100547e-04 3.548225872098e-03 0.0 
3.548225872098e-03 3.778467820342e-03 0.0 
0.0 0.0 0.0 
-2.151718159018e-03 1.791068131123e-03 0.0 
1.791068131123e-03 9.016727897535e-03 0.0 
0.0 0.0 0.0 
1.607181234248e-03 4.090889029004e-03 0.0 
4.090889029004e-03 1.522904678221e-03 0.0 
0.0 0.0 0.0 
-2.946278534828e-04 7.437308035571e-04 0.0 
7.437308035571e-04 1.245077550461e-02 0.0 
0.0 0.0 0.0 
-1.260388327163e-03 2.662207516101e-03 0.0 
2.662207516101e-03 9.703064554629e-03 0.0 
0.0 0.0 0.0 
-5.975787855155e-04 -1.272657177633e-04 0.0 
-1.272657177633e-04 5.309333560216e-03 0.0 
0.0 0.0 0.0 
-8.226490273835e-04 3.753207211586e-03 0.0 
3.753207211586e-03 2.527737416937e-03 0.0 
0.0 0.0 0.0 
3.493129500446e-03 3.320871002610e-03 0.0 
3.320871002610e-03 -1.116911356450e-03 0.0 
0.0 0.0 0.0 
-1.044199586215e-03 2.903519728027e-03 0.0 
2.903519728027e-03 9.383321868586e-03 0.0 
0.0 0.0 0.0 
-3.283235272616e-03 2.451089691483e-03 0.0 
2.451089691483e-03 -2.211502499475e-03 0.0 
0.0 0.0 0.0 
-1.784824906923e-03 2.490537320182e-03 0.0 
2.490537320182e-03 7.266886356555e-03 0.0 
0.0 0.0 0.0 
2.082413607183e-03 2.192392131460e-04 0.0 
2.192392131460e-04 1.275617064576e-03 0.0 
0.0 0.0 0.0 
8.957025510516e-04 -4.953759666349e-04 0.0 
-4.953759666349e-04 3.772084498537e-04 0.0 
0.0 0.0 0.0 
-5.476185333351e-04 2.862255149332e-03 0.0 
2.862255149332e-03 1.079250415589e-02 0.0 
0.0 0.0 0.0 
-1.723833793068e-03 1.872038213089e-03 0.0 
1.872038213089e-03 1.036523167845e-02 0.0 
0.0 0.0 0.0 
1.276606919178e-03 -2.440474918095e-03 0.0 
-2.440474918095e-03 1.438728992584e-04 0.0 
0.0 0.0 0.0 
2.287729265701e-03 4.896773529749e-04 0.0 
4.896773529749e-04 1.256991476171e-03 0.0 
0.0 0.0 0.0 
-2.225716818637e-03 1.404756894144e-03 0.0 
1.404756894144e-03 1.005848694428e-02 0.0 
0.0 0.0 0.0 
-2.091013466177e-03 1.193735162916e-03 0.0 
1.193735162916e-03 1.053660160232e-02 0.0 
0.0 0.0 0.0 
9.267581188523e-04 4.148547372442e-04 0.0 
4.148547372442e-04 3.217359013837e-03 0.0 
0.0 0.0 0.0 
2.175462241898e-04 -2.350349349236e-03 0.0 
-2.350349349236e-03 9.587447861685e-04 0.0 
0.0 0.0 0.0 
-4.332827730664e-04 3.824236286723e-03 0.0 
3.824236286723e-03 5.077223899194e-03 0.0 
0.0 0.0 0.0 
-1.840245209900e-03 2.573060647569e-03 0.0 
2.573060647569e-03 8.390445585017e-03 0.0 
0.0 0.0 0.0 
-1.801612066521e-03 1.876925900685e-03 0.0 
1.876925900685e-03 1.065898737346e-02 0.0 
0.0 0.0 0.0 
-2.210709889016e-03 2.273372489975e-03 0.0 
2.273372489975e-03 9.151008942961e-03 0.0 
0.0 0.0 0.0 
-2.304431829371e-03 2.049137268437e-03 0.0 
2.049137268437e-03 9.018194516840e-03 0.0 
0.0 0.0 0.0 
2.887291095454e-03 2.720014786667e-03 0.0 
2.720014786667e-03 9.096519907164e-04 0.0 
0.0 0.0 0.0 
-5.589065624918e-04 3.405187409620e-03 0.0 
3.405187409620e-03 8.096990454283e-03 0.0 
0.0 0.0 0.0 
-1.275751063872e-03 2.324085049342e-03 0.0 
2.324085049342e-03 -2.842153137134e-03 0.0 
0.0 0.0 0.0 
-7.792107312566e-04 3.597170531227e-03 0.0 
3.597170531227e-03 4.450915085929e-03 0.0 
0.0 0.0 0.0 
-5.316467940050e-04 3.735539415946e-03 0.0 
3.735539415946e-03 4.357627969569e-03 0.0 
0.0 0.0 0.0 
-7.931440911277e-04 3.814575195278e-03 0.0 
3.814575195278e-03 5.838350709766e-03 0.0 
0.0 0.0 0.0 
-1.352813149675e-03 2.656749996940e-03 0.0 
2.656749996940e-03 1.011205745681e-02 0.0 
0.0 0.0 0.0 
3.003597670548e-03 3.150112877416e-03 0.0 
3.150112877416e-03 -4.062956672086e-03 0.0 
0.0 0.0 0.0 
2.093008823358e-03 -1.995914876470e-04 0.0 
-1.995914876470e-04 9.667678290768e-04 0.0 
0.0 0.0 0.0 
-1.585176475449e-03 8.441605106338e-05 0.0 
8.441605106338e-05 1.019290227969e-02 0.0 
0.0 0.0 0.0 
3.130666077777e-03 3.745610053718e-03 0.0 
3.745610053718e-03 -1.174923748987e-03 0.0 
0.0 0.0 0.0 
2.001900823193e-03 -6.203332633202e-04 0.0 
-6.203332633202e-04 7.820851730731e-04 0.0 
0.0 0.0 0.0 
6.180872992514e-04 -4.261007571450e-04 0.0 
-4.261007571450e-04 2.427924149160e-04 0.0 
0.0 0.0 0.0 
-1.506258785095e-03 2.052392290884e-03 0.0 
2.052392290884e-03 1.053927783199e-02 0.0 
0.0 0.0 0.0 
8.792522026981e-04 -4.892463160241e-04 0.0 
-4.892463160241e-04 -3.624444259454e-05 0.0 
0.0 0.0 0.0 
5.127342609048e-04 -4.317895360895e-04 0.0 
-4.317895360895e-04 5.335158950812e-04 0.0 
0.0 0.0 0.0 
-6.846074700922e-04 3.697662842426e-03 0.0 
3.697662842426e-03 2.524838964800e-03 0.0 
0.0 0.0 0.0 
4.321177584665e-05 -2.220871812948e-03 0.0 
-2.220871812948e-03 9.767501257032e-04 0.0 
0.0 0.0 0.0 
-1.570481590085e-03 2.041199998342e-03 0.0 
2.041199998342e-03 1.084242652888e-02 0.0 
0.0 0.0 0.0 
1.185948894442e-04 -2.273812138747e-03 0.0 
-2.273812138747e-03 7.079913899712e-04 0.0 
0.0 0.0 0.0 
8.341877860860e-04 4.125504122589e-03 0.0 
4.125504122589e-03 3.848667868180e-04 0.0 
0.0 0.0 0.0 
1.566636037903e-03 -3.640572661889e-03 0.0 
-3.640572661889e-03 -1.882047169532e-03 0.0 
0.0 0.0 0.0 
-3.538026609522e-04 -1.669401487490e-03 0.0 
-1.669401487490e-03 9.929474331414e-04 0.0 
0.0 0.0 0.0 
2.126132388230e-03 8.605430709509e-04 0.0 
8.605430709509e-04 1.638951983387e-03 0.0 
0.0 0.0 0.0 
-2.150304532357e-03 2.446210664065e-03 0.0 
2.446210664065e-03 8.739246361613e-03 0.0 
0.0 0.0 0.0 
-2.584033598214e-04 -3.829727163154e-04 0.0 
-3.829727163154e-04 5.524866324211e-03 0.0 
0.0 0.0 0.0 
-1.227563809264e-03 1.106894405171e-03 0.0 
1.106894405171e-03 -4.350817508454e-03 0.0 
0.0 0.0 0.0 
1.475369832882e-03 4.180377214240e-03 0.0 
4.180377214240e-03 5.619610865293e-05 0.0 
0.0 0.0 0.0 
3.307436508117e-03 3.621032442685e-03 0.0 
3.621032442685e-03 -1.119807295127e-03 0.0 
0.0 0.0 0.0 
-1.569095961691e-03 2.738821228263e-03 0.0 
2.738821228263e-03 6.702327525875e-03 0.0 
0.0 0.0 0.0 
2.360480472505e-03 6.721929772658e-05 0.0 
6.721929772658e-05 9.481493456769e-04 0.0 
0.0 0.0 0.0 
-1.179282831747e-04 -5.226316378856e-04 0.0 
-5.226316378856e-04 5.353942060819e-03 0.0 
0.0 0.0 0.0 
-1.594896504581e-03 2.523857377469e-03 0.0 
2.523857377469e-03 9.957187835821e-03 0.0 
0.0 0.0 0.0 
3.655384671436e-03 3.019280160530e-03 0.0 
3.019280160530e-03 -1.896868064943e-03 0.0 
0.0 0.0 0.0 
1.973510043740e-03 6.400766340778e-04 0.0 
6.400766340778e-04 1.640470666976e-03 0.0 
0.0 0.0 0.0 
-9.897100483058e-04 -2.450722852864e-04 0.0 
-2.450722852864e-04 4.479097721513e-03 0.0 
0.0 0.0 0.0 
-1.122036342516e-03 3.610069951197e-03 0.0 
3.610069951197e-03 6.588451544933e-03 0.0 
0.0 0.0 0.0 
-1.602825632015e-03 2.137921497412e-03 0.0 
2.137921497412e-03 1.019932753188e-02 0.0 
0.0 0.0 0.0 
6.012405712530e-04 3.185389517754e-03 0.0 
3.185389517754e-03 5.381724525589e-03 0.0 
0.0 0.0 0.0 
3.670958477301e-03 3.230667382971e-03 0.0 
3.230667382971e-03 -1.064398709079e-03 0.0 
0.0 0.0 0.0 
7.561261461044e-04 4.031087530264e-03 0.0 
4.031087530264e-03 1.172712629414e-03 0.0 
0.0 0.0 0.0 
-2.046552736335e-03 2.458987122432e-03 0.0 
2.458987122432e-03 9.283103253972e-03 0.0 
0.0 0.0 0.0 
-2.934937748919e-04 1.715995792025e-03 0.0 
1.715995792025e-03 1.225150562514e-02 0.0 
0.0 0.0 0.0 
-2.558205171617e-04 3.985880938623e-03 0.0 
3.985880938623e-03 5.056148766086e-03 0.0 
0.0 0.0 0.0 
4.035010700359e-03 2.494955260312e-03 0.0 
2.494955260312e-03 -1.310471938305e-03 0.0 
0.0 0.0 0.0 
-1.509798662809e-03 1.357034797935e-04 0.0 
1.357034797935e-04 1.056628248676e-02 0.0 
0.0 0.0 0.0 
-2.895726375057e-04 -2.674484746208e-03 0.0 
-2.674484746208e-03 3.392808317897e-04 0.0 
0.0 0.0 0.0 
-2.066075098851e-03 2.043022743073e-03 0.0 
2.043022743073e-03 9.186465261775e-03 0.0 
0.0 0.0 0.0 
3.270969021675e-03 3.626005722394e-03 0.0 
3.626005722394e-03 -1.986201196043e-03 0.0 
0.0 0.0 0.0 
3.441522708714e-03 2.830989509814e-03 0.0 
2.830989509814e-03 -3.828902409198e-03 0.0 
0.0 0.0 0.0 
2.910599414524e-03 -3.221833013105e-03 0.0 
-3.221833013105e-03 -4.288775927005e-03 0.0 
0.0 0.0 0.0 
-1.388685288659e-03 1.972494837480e-03 0.0 
1.972494837480e-03 1.085052135773e-02 0.0 
0.0 0.0 0.0 
-2.007973163926e-03 2.641462445704e-03 0.0 
2.641462445704e-03 8.839793433183e-03 0.0 
0.0 0.0 0.0 
1.069091603605e-03 4.077407450224e-03 0.0 
4.077407450224e-03 1.558009048843e-03 0.0 
0.0 0.0 0.0 
-1.437042904762e-03 1.950591898584e-03 0.0 
1.950591898584e-03 1.113604746226e-02 0.0 
0.0 0.0 0.0 
-1.387935437055e-03 2.771832389078e-03 0.0 
2.771832389078e-03 9.682074176584e-03 0.0 
0.0 0.0 0.0 
-1.383635882680e-03 3.393380983999e-03 0.0 
3.393380983999e-03 7.266430982185e-03 0.0 
0.0 0.0 0.0 
2.388522865582e-05 -5.150301747474e-04 0.0 
-5.150301747474e-04 5.019492887766e-03 0.0 
0.0 0.0 0.0 
4.047064687355e-03 2.368872436949e-03 0.0 
2.368872436949e-03 -1.715854507118e-03 0.0 
0.0 0.0 0.0 
-1.586955642382e-03 3.179330364968e-03 0.0 
3.179330364968e-03 7.890352090138e-03 0.0 
0.0 0.0 0.0 
1.788426802717e-03 3.962167897031e-03 0.0 
3.962167897031e-03 1.563588259265e-03 0.0 
0.0 0.0 0.0 
3.727237849521e-03 2.453503230317e-03 0.0 
2.453503230317e-03 -8.114271493371e-04 0.0 
0.0 0.0 0.0 
3.939734597838e-03 2.581955957467e-03 0.0 
2.581955957467e-03 -3.648147843965e-03 0.0 
0.0 0.0 0.0 
-2.135076941671e-03 9.534951590324e-04 0.0 
9.534951590324e-04 1.004943211078e-02 0.0 
0.0 0.0 0.0 
4.227279481514e-03 2.659689864108e-03 0.0 
2.659689864108e-03 -1.708522447177e-03 0.0 
0.0 0.0 0.0 
4.122622764079e-03 -1.314856097675e-03 0.0 
-1.314856097675e-03 -3.593939349945e-03 0.0 
0.0 0.0 0.0 
-1.447758498635e-03 2.410024104681e-03 0.0 
2.410024104681e-03 9.977434633415e-03 0.0 
0.0 0.0 0.0 
-4.888301030030e-03 4.807149296066e-04 0.0 
4.807149296066e-04 -2.637564197701e-03 0.0 
0.0 0.0 0.0 
-2.223354090839e-03 2.119966508586e-03 0.0 
2.119966508586e-03 9.533155677637e-03 0.0 
0.0 0.0 0.0 
4.009390185254e-03 2.988973269760e-03 0.0 
2.988973269760e-03 -2.757832306650e-03 0.0 
0.0 0.0 0.0 
1.801229680179e-03 3.958993056049e-03 0.0 
3.958993056049e-03 8.538279024073e-05 0.0 
0.0 0.0 0.0 
3.987363707117e-03 1.494989834859e-03 0.0 
1.494989834859e-03 -3.464036212156e-03 0.0 
0.0 0.0 0.0 
-1.747051272275e-03 2.583604167629e-03 0.0 
2.583604167629e-03 8.983429934612e-03 0.0 
0.0 0.0 0.0 
-1.638786181013e-04 -1.128523236232e-03 0.0 
-1.128523236232e-03 7.361710260032e-04 0.0 
0.0 0.0 0.0 
-8.888623295800e-04 3.542001048929e-03 0.0 
3.542001048929e-03 5.198164262145e-03 0.0 
0.0 0.0 0.0 
3.707917627725e-03 2.344049645560e-03 0.0 
2.344049645560e-03 -1.097892187586e-03 0.0 
0.0 0.0 0.0 
-1.907528258721e-03 2.409990136763e-03 0.0 
2.409990136763e-03 8.879120954224e-03 0.0 
0.0 0.0 0.0 
-2.145154210756e-03 1.183147899473e-03 0.0 
1.183147899473e-03 1.021706823601e-02 0.0 
0.0 0.0 0.0 
2.210209493372e-03 2.292556360454e-03 0.0 
2.292556360454e-03 -4.570541502388e-03 0.0 
0.0 0.0 0.0 
4.541325302255e-03 -3.580131098168e-04 0.0 
-3.580131098168e-04 -3.743862919017e-03 0.0 
0.0 0.0 0.0 
3.608997396230e-03 -2.197695174359e-03 0.0 
-2.197695174359e-03 -3.355262793445e-03 0.0 
0.0 0.0 0.0 
-1.060591086450e-03 3.718952486650e-03 0.0 
3.718952486650e-03 5.314744921310e-03 0.0 
0.0 0.0 0.0 
-1.769806611842e-03 2.252844866792e-03 0.0 
2.252844866792e-03 1.017925674932e-02 0.0 
0.0 0.0 0.0 
-8.034583122669e-04 3.871961530060e-03 0.0 
3.871961530060e-03 5.148302202267e-03 0.0 
0.0 0.0 0.0 
4.355083257566e-03 2.712920605438e-03 0.0 
2.712920605438e-03 -2.475313010373e-03 0.0 
0.0 0.0 0.0 
3.824040089124e-03 3.293360187724e-03 0.0 
3.293360187724e-03 -1.913426646646e-03 0.0 
0.0 0.0 0.0 
2.466181136076e-03 1.788504681248e-03 0.0 
1.788504681248e-03 -3.578015115353e-03 0.0 
0.0 0.0 0.0 
2.089691596038e-03 3.866258384440e-03 0.0 
3.866258384440e-03 6.835894375228e-04 0.0 
0.0 0.0 0.0 
2.612437309064e-04 3.963908793359e-03 0.0 
3.963908793359e-03 7.562628292599e-04 0.0 
0.0 0.0 0.0 
-3.854290441002e-04 2.829692548658e-03 0.0 
2.829692548658e-03 1.133670692061e-02 0.0 
0.0 0.0 0.0 
-3.730998766801e-04 3.250485402808e-03 0.0 
3.250485402808e-03 1.076719089585e-02 0.0 
0.0 0.0 0.0 
8.455264142815e-05 3.977148978761e-03 0.0 
3.977148978761e-03 4.284361605646e-03 0.0 
0.0 0.0 0.0 
3.684639854920e-03 3.213192510868e-03 0.0 
3.213192510868e-03 -2.825083135226e-03 0.0 
0.0 0.0 0.0 
2.238531584978e-03 3.790061151628e-03 0.0 
3.790061151628e-03 -7.548739317653e-04 0.0 
0.0 0.0 0.0 
-1.250252611833e-03 3.261413238483e-03 0.0 
3.261413238483e-03 7.386253058807e-03 0.0 
0.0 0.0 0.0 
3.184261746718e-03 3.199157961898e-03 0.0 
3.199157961898e-03 -1.829122721967e-03 0.0 
0.0 0.0 0.0 
4.094211005049e-03 -1.309086683832e-03 0.0 
-1.309086683832e-03 -3.496128291796e-03 0.0 
0.0 0.0 0.0 
-1.202596930460e-03 3.346263954774e-03 0.0 
3.346263954774e-03 6.635996739853e-03 0.0 
0.0 0.0 0.0 
-5.726786455376e-04 1.106637736232e-03 0.0 
1.106637736232e-03 1.235601084338e-02 0.0 
0.0 0.0 0.0 
3.603984301239e-03 3.430567528055e-03 0.0 
3.430567528055e-03 -1.982626539810e-03 0.0 
0.0 0.0 0.0 
2.607961364880e-03 2.994988085869e-03 0.0 
2.994988085869e-03 8.776092735630e-04 0.0 
0.0 0.0 0.0 
1.072485286606e-03 4.125512406155e-03 0.0 
4.125512406155e-03 -4.271548515652e-04 0.0 
0.0 0.0 0.0 
5.754980690620e-04 9.635495621837e-04 0.0 
9.635495621837e-04 4.402694147016e-03 0.0 
0.0 0.0 0.0 
2.836135674837e-03 3.822763705312e-03 0.0 
3.822763705312e-03 -1.927569214968e-03 0.0 
0.0 0.0 0.0 
-7.672597086992e-04 3.646611185864e-03 0.0 
3.646611185864e-03 5.916421829006e-03 0.0 
0.0 0.0 0.0 
3.243063654877e-03 2.008910241664e-03 0.0 
2.008910241664e-03 -4.482509637811e-03 0.0 
0.0 0.0 0.0 
3.454048982429e-03 3.431795109650e-04 0.0 
3.431795109650e-04 -9.101139167244e-04 0.0 
0.0 0.0 0.0 
3.899173504454e-03 3.136279873638e-03 0.0 
3.136279873638e-03 -1.782382718455e-03 0.0 
0.0 0.0 0.0 
3.762882004828e-03 -1.917383824856e-03 0.0 
-1.917383824856e-03 -2.864028960018e-03 0.0 
0.0 0.0 0.0 
-1.905406729146e-03 2.835526403052e-03 0.0 
2.835526403052e-03 8.357054707245e-03 0.0 
0.0 0.0 0.0 
-2.111403306392e-04 3.801369883512e-03 0.0 
3.801369883512e-03 9.639606031242e-03 0.0 
0.0 0.0 0.0 
4.240172817741e-03 2.820135248742e-03 0.0 
2.820135248742e-03 -2.642751791927e-03 0.0 
0.0 0.0 0.0 
3.832496127104e-03 1.955532114082e-03 0.0 
1.955532114082e-03 -1.043818841481e-03 0.0 
0.0 0.0 0.0 
1.331394370077e-03 3.911740412729e-03 0.0 
3.911740412729e-03 -3.991631541326e-04 0.0 
0.0 0.0 0.0 
-1.646501134347e-03 1.023573126377e-03 0.0 
1.023573126377e-03 1.099105784770e-02 0.0 
0.0 0.0 0.0 
2.333482444282e-03 -3.649710069652e-04 0.0 
-3.649710069652e-04 7.485104178273e-04 0.0 
0.0 0.0 0.0 
4.458172035502e-04 4.052318426495e-03 0.0 
4.052318426495e-03 1.936997345972e-03 0.0 
0.0 0.0 0.0 
-1.834828382207e-03 8.579010268597e-04 0.0 
8.579010268597e-04 1.092465988991e-02 0.0 
0.0 0.0 0.0 
4.841554837487e-06 4.039884980242e-03 0.0 
4.039884980242e-03 8.250779909555e-03 0.0 
0.0 0.0 0.0 
1.972234455911e-03 -1.108140778145e-04 0.0 
-1.108140778145e-04 1.490190349822e-03 0.0 
0.0 0.0 0.0 
-2.870187387904e-04 3.646574744756e-03 0.0 
3.646574744756e-03 1.004635686790e-02 0.0 
0.0 0.0 0.0 
-1.952175814418e-03 1.111599962757e-03 0.0 
1.111599962757e-03 1.076308057095e-02 0.0 
0.0 0.0 0.0 
-1.101317112969e-03 3.130521644482e-03 0.0 
3.130521644482e-03 8.836500681696e-03 0.0 
0.0 0.0 0.0 
-1.316406738517e-04 3.925346782850e-03 0.0 
3.925346782850e-03 2.218516494748e-03 0.0 
0.0 0.0 0.0 
-2.051095471088e-03 2.649084951423e-03 0.0 
2.649084951423e-03 8.266763714272e-03 0.0 
0.0 0.0 0.0 
-1.574546881679e-03 2.939394117529e-03 0.0 
2.939394117529e-03 7.924513819188e-03 0.0 
0.0 0.0 0.0 
-1.739950398711e-03 2.980440717366e-03 0.0 
2.980440717366e-03 8.454594933688e-03 0.0 
0.0 0.0 0.0 
1.766733531876e-04 4.085738945828e-03 0.0 
4.085738945828e-03 4.186262541078e-03 0.0 
0.0 0.0 0.0 
1.622996054265e-04 3.927506849445e-03 0.0 
3.927506849445e-03 7.299490956606e-03 0.0 
0.0 0.0 0.0 
-1.997388576344e-03 1.455296212239e-03 0.0 
1.455296212239e-03 1.026969453346e-02 0.0 
0.0 0.0 0.0 
-2.340730930518e-03 1.904735785481e-03 0.0 
1.904735785481e-03 9.370631906298e-03 0.0 
0.0 0.0 0.0 
4.112008614840e-03 2.754228910001e-03 0.0 
2.754228910001e-03 -1.833407790820e-03 0.0 
0.0 0.0 0.0 
-1.730246551623e-04 -1.997439272656e-03 0.0 
-1.997439272656e-03 9.986974881286e-04 0.0 
0.0 0.0 0.0 
-2.251679624499e-03 2.217631204614e-03 0.0 
2.217631204614e-03 8.601301112871e-03 0.0 
0.0 0.0 0.0 
1.098615895248e-03 4.138504960716e-03 0.0 
4.138504960716e-03 8.597174888028e-04 0.0 
0.0 0.0 0.0 
-1.517411768800e-03 7.379669143500e-05 0.0 
7.379669143500e-05 1.022172292332e-02 0.0 
0.0 0.0 0.0 
3.118739156698e-03 -2.508945985240e-03 0.0 
-2.508945985240e-03 -2.772674046094e-03 0.0 
0.0 0.0 0.0 
3.938951218610e-03 2.848776623425e-03 0.0 
2.848776623425e-03 -1.901314743478e-03 0.0 
0.0 0.0 0.0 
-1.364232883363e-03 2.312122594643e-03 0.0 
2.312122594643e-03 1.035560813575e-02 0.0 
0.0 0.0 0.0 
1.404187953406e-03 4.062475524404e-03 0.0 
4.062475524404e-03 8.683226532242e-04 0.0 
0.0 0.0 0.0 
-1.717312613541e-03 2.763264698348e-03 0.0 
2.763264698348e-03 7.859591707464e-03 0.0 
0.0 0.0 0.0 
3.668456498680e-03 1.836393232897e-03 0.0 
1.836393232897e-03 -1.038907502554e-03 0.0 
0.0 0.0 0.0 
2.138484796430e-03 -1.650575283726e-03 0.0 
-1.650575283726e-03 -2.395062048914e-04 0.0 
0.0 0.0 0.0 
4.192293780259e-04 3.362456538910e-03 0.0 
3.362456538910e-03 5.978391865513e-03 0.0 
0.0 0.0 0.0 
-2.019723223297e-03 2.663668920262e-03 0.0 
2.663668920262e-03 7.729880867443e-03 0.0 
0.0 0.0 0.0 
4.578897517360e-03 5.678402815497e-04 0.0 
5.678402815497e-04 -4.028465955556e-03 0.0 
0.0 0.0 0.0 
1.297148768052e-03 -2.594004372602e-03 0.0 
-2.594004372602e-03 -3.423543443944e-04 0.0 
0.0 0.0 0.0 
-5.511061485745e-04 3.827732664231e-03 0.0 
3.827732664231e-03 3.738117950211e-03 0.0 
0.0 0.0 0.0 
3.310217862271e-04 4.008549247569e-03 0.0 
4.008549247569e-03 1.942160440508e-03 0.0 
0.0 0.0 0.0 
-1.137613210015e-03 2.889402910452e-03 0.0 
2.889402910452e-03 9.832099746110e-03 0.0 
0.0 0.0 0.0 
-9.524756986516e-04 3.657479252248e-03 0.0 
3.657479252248e-03 6.653784636993e-03 0.0 
0.0 0.0 0.0 
-1.632073605511e-03 3.213709896900e-03 0.0 
3.213709896900e-03 6.662994593457e-03 0.0 
0.0 0.0 0.0 
-1.836092868853e-03 2.539783647026e-03 0.0 
2.539783647026e-03 7.814407881199e-03 0.0 
0.0 0.0 0.0 
6.096314323514e-04 2.089456657152e-03 0.0 
2.089456657152e-03 4.732842134588e-03 0.0 
0.0 0.0 0.0 
1.080218925054e-03 2.087232658884e-03 0.0 
2.087232658884e-03 3.980619646594e-03 0.0 
0.0 0.0 0.0 
-1.004349234311e-03 2.800658415443e-03 0.0 
2.800658415443e-03 9.849832410958e-03 0.0 
0.0 0.0 0.0 
-1.687330280654e-03 2.142176658086e-03 0.0 
2.142176658086e-03 1.052502552317e-02 0.0 
0.0 0.0 0.0 
2.225724172984e-03 -1.778376031300e-03 0.0 
-1.778376031300e-03 -8.104332719413e-04 0.0 
0.0 0.0 0.0 
-2.095744180003e-04 4.059543176871e-03 0.0 
4.059543176871e-03 4.235756125117e-03 0.0 
0.0 0.0 0.0 
3.907198212405e-03 2.391234195122e-03 0.0 
2.391234195122e-03 -2.696350490254e-03 0.0 
0.0 0.0 0.0 
4.278419438126e-03 2.225958854565e-03 0.0 
2.225958854565e-03 -2.642656111770e-03 0.0 
0.0 0.0 0.0 
-6.330274025611e-04 3.842252036622e-03 0.0 
3.842252036622e-03 5.886844097017e-03 0.0 
0.0 0.0 0.0 
3.593242900759e-03 3.101202994569e-04 0.0 
3.101202994569e-04 -1.303339290959e-03 0.0 
0.0 0.0 0.0 
-1.332245411066e-04 -1.953554739110e-03 0.0 
-1.953554739110e-03 1.707043561011e-03 0.0 
0.0 0.0 0.0 
-1.102398623765e-03 2.483447189328e-03 0.0 
2.483447189328e-03 1.050901621870e-02 0.0 
0.0 0.0 0.0 
4.329453651612e-03 -5.517945654513e-04 0.0 
-5.517945654513e-04 -3.852827446496e-03 0.0 
0.0 0.0 0.0 
6.291712829936e-04 4.107705656683e-03 0.0 
4.107705656683e-03 3.304104484802e-03 0.0 
0.0 0.0 0.0 
-1.412373023246e-03 3.132529653474e-03 0.0 
3.132529653474e-03 7.316832004570e-03 0.0 
0.0 0.0 0.0 
4.294553008299e-04 4.116662659189e-03 0.0 
4.116662659189e-03 3.325488404337e-03 0.0 
0.0 0.0 0.0 
-3.497900087476e-04 3.472870285341e-03 0.0 
3.472870285341e-03 1.041803359156e-02 0.0 
0.0 0.0 0.0 
-3.548305670399e-04 3.049743991411e-03 0.0 
3.049743991411e-03 1.104995802713e-02 0.0 
0.0 0.0 0.0 
-7.211189408463e-04 2.894117203212e-03 0.0 
2.894117203212e-03 1.078873886592e-02 0.0 
0.0 0.0 0.0 
2.130840899014e-03 -1.589488713562e-03 0.0 
-1.589488713562e-03 -4.553345292634e-04 0.0 
0.0 0.0 0.0 
-1.246901804705e-03 1.900600095555e-03 0.0 
1.900600095555e-03 1.114166196841e-02 0.0 
0.0 0.0 0.0 
5.781381365784e-04 4.085178920340e-03 0.0 
4.085178920340e-03 1.167033052565e-03 0.0 
0.0 0.0 0.0 
4.468354722019e-03 2.125886870712e-03 0.0 
2.125886870712e-03 -2.537520559252e-03 0.0 
0.0 0.0 0.0 
3.442072509789e-03 1.593574643835e-03 0.0 
1.593574643835e-03 -3.618323384043e-03 0.0 
0.0 0.0 0.0 
-1.146885167209e-03 3.653367406479e-03 0.0 
3.653367406479e-03 5.896615676473e-03 0.0 
0.0 0.0 0.0 
-2.088506083585e-03 7.802052698754e-04 0.0 
7.802052698754e-04 1.014758885882e-02 0.0 
0.0 0.0 0.0 
-1.763994976816e-03 1.053764436312e-03 0.0 
1.053764436312e-03 1.076812054650e-02 0.0 
0.0 0.0 0.0 
1.058534442867e-03 1.043208488194e-03 0.0 
1.043208488194e-03 3.660974259969e-03 0.0 
0.0 0.0 0.0 
-7.978215558205e-04 3.105861160831e-03 0.0 
3.105861160831e-03 9.027808440670e-03 0.0 
0.0 0.0 0.0 
-1.936753757928e-03 2.258781428632e-03 0.0 
2.258781428632e-03 9.313014392362e-03 0.0 
0.0 0.0 0.0 
-1.411457688672e-03 3.081695889193e-03 0.0 
3.081695889193e-03 8.025163395776e-03 0.0 
0.0 0.0 0.0 
3.949899367341e-03 1.730030419901e-03 0.0 
1.730030419901e-03 -4.285120578301e-03 0.0 
0.0 0.0 0.0 
-7.037193094613e-04 -1.758467214078e-03 0.0 
-1.758467214078e-03 7.136488663193e-04 0.0 
0.0 0.0 0.0 
2.694501335132e-03 3.819240816296e-03 0.0 
3.819240816296e-03 -2.989147937206e-04 0.0 
0.0 0.0 0.0 
7.618959240956e-04 4.076534950730e-03 0.0 
4.076534950730e-03 3.363544972366e-03 0.0 
0.0 0.0 0.0 
2.489665156084e-03 3.772968913695e-03 0.0 
3.772968913695e-03 6.948733654888e-04 0.0 
0.0 0.0 0.0 
-6.688330192063e-04 3.822018035780e-03 0.0 
3.822018035780e-03 3.831879303089e-04 0.0 
0.0 0.0 0.0 
-1.434733796719e-03 1.272791237502e-04 0.0 
1.272791237502e-04 1.056039277580e-02 0.0 
0.0 0.0 0.0 
-4.294354149526e-05 -1.977596401072e-03 0.0 
-1.977596401072e-03 8.187944195155e-04 0.0 
0.0 0.0 0.0 
2.405894542553e-03 4.024710691924e-03 0.0 
4.024710691924e-03 -1.008788281211e-03 0.0 
0.0 0.0 0.0 
0.0 1.108960828125e-03 0.0 
1.108960828125e-03 4.431216570966e-03 0.0 
0.0 0.0 0.0 
2.928403069222e-03 2.287934615439e-03 0.0 
2.287934615439e-03 8.135011690926e-04 0.0 
0.0 0.0 0.0 
-2.163787375819e-03 1.687234462733e-03 0.0 
1.687234462733e-03 9.396556018610e-03 0.0 
0.0 0.0 0.0 
9.375820987017e-04 -1.117216626350e-04 0.0 
-1.117216626350e-04 6.969113874211e-04 0.0 
0.0 0.0 0.0 
-3.922196767092e-05 3.977343613684e-03 0.0 
3.977343613684e-03 4.202151717110e-03 0.0 
0.0 0.0 0.0 
3.119650112239e-03 3.578420798451e-03 0.0 
3.578420798451e-03 -2.671310754407e-04 0.0 
0.0 0.0 0.0 
-1.808018358525e-03 2.773546258004e-03 0.0 
2.773546258004e-03 8.959554825902e-03 0.0 
0.0 0.0 0.0 
-1.269430669351e-04 3.930850006861e-03 0.0 
3.930850006861e-03 9.184458665254e-03 0.0 
0.0 0.0 0.0 
-1.943562718074e-03 2.352567187290e-03 0.0 
2.352567187290e-03 8.299875671887e-03 0.0 
0.0 0.0 0.0 
-1.207563786506e-03 3.464464278948e-03 0.0 
3.464464278948e-03 7.359986205959e-03 0.0 
0.0 0.0 0.0 
1.236778664051e-04 -2.035508923985e-03 0.0 
-2.035508923985e-03 1.717869807114e-03 0.0 
0.0 0.0 0.0 
-1.259002506936e-03 2.234025977591e-03 0.0 
2.234025977591e-03 1.070465130301e-02 0.0 
0.0 0.0 0.0 
2.040596775986e-03 -1.445613294176e-03 0.0 
-1.445613294176e-03 1.809658451917e-04 0.0 
0.0 0.0 0.0 
-9.060434272434e-05 4.011054213538e-03 0.0 
4.011054213538e-03 8.732876265559e-03 0.0 
0.0 0.0 0.0 
0.0 3.403103181038e-03 0.0 
3.403103181038e-03 1.022774357728e-02 0.0 
0.0 0.0 0.0 
0.0 2.591401042945e-03 0.0 
2.591401042945e-03 1.148402966721e-02 0.0 
0.0 0.0 0.0 
0.0 3.001411261894e-03 0.0 
3.001411261894e-03 1.092799742448e-02 0.0 
0.0 0.0 0.0 
-1.505175986357e-03 2.877030357556e-03 0.0 
2.877030357556e-03 8.591601532621e-03 0.0 
0.0 0.0 0.0 
-1.434565612341e-03 2.297674233531e-03 0.0 
2.297674233531e-03 1.069709837543e-02 0.0 
0.0 0.0 0.0 
-7.777565262991e-04 3.045516421147e-03 0.0 
3.045516421147e-03 9.534684199308e-03 0.0 
0.0 0.0 0.0 
2.432563378834e-04 4.068261642084e-03 0.0 
4.068261642084e-03 3.332080045380e-03 0.0 
0.0 0.0 0.0 
-3.364897663761e-04 3.883889279810e-03 0.0 
3.883889279810e-03 4.258395361932e-03 0.0 
0.0 0.0 0.0 
-4.249782308697e-04 -1.806392047553e-03 0.0 
-1.806392047553e-03 1.998348964965e-03 0.0 
0.0 0.0 0.0 
-1.273062152796e-03 2.556129343704e-03 0.0 
2.556129343704e-03 1.049919506340e-02 0.0 
0.0 0.0 0.0 
8.754350084361e-05 4.009000140197e-03 0.0 
4.009000140197e-03 7.764717932618e-03 0.0 
0.0 0.0 0.0 
-1.124563984453e-03 2.148009170669e-03 0.0 
2.148009170669e-03 1.101902234793e-02 0.0 
0.0 0.0 0.0 
3.382983626076e-03 2.403053980902e-03 0.0 
2.403053980902e-03 -7.442242250888e-05 0.0 
0.0 0.0 0.0 
-1.306125674101e-03 2.204928185380e-03 0.0 
2.204928185380e-03 1.101209966457e-02 0.0 
0.0 0.0 0.0 
9.695307911961e-04 3.668333461905e-03 0.0 
3.668333461905e-03 4.440250206502e-03 0.0 
0.0 0.0 0.0 
9.734148196119e-04 4.075263520587e-03 0.0 
4.075263520587e-03 2.459424243349e-03 0.0 
0.0 0.0 0.0 
-1.205033147007e-03 3.288667520612e-03 0.0 
3.288667520612e-03 5.934967929061e-03 0.0 
0.0 0.0 0.0 
2.214552483395e-03 4.065389643565e-03 0.0 
4.065389643565e-03 -1.802986862549e-03 0.0 
0.0 0.0 0.0 
-3.487373848701e-04 1.784475282633e-03 0.0 
1.784475282633e-03 1.197627348952e-02 0.0 
0.0 0.0 0.0 
6.635631676450e-04 4.114014362684e-03 0.0 
4.114014362684e-03 2.465211310474e-03 0.0 
0.0 0.0 0.0 
2.441600453587e-04 3.489756495592e-03 0.0 
3.489756495592e-03 6.679736426567e-03 0.0 
0.0 0.0 0.0 
-2.228790332088e-04 -1.936565561719e-03 0.0 
-1.936565561719e-03 2.016729308141e-03 0.0 
0.0 0.0 0.0 
2.421430889260e-03 -3.007963732333e-03 0.0 
-3.007963732333e-03 -2.192288454282e-03 0.0 
0.0 0.0 0.0 
5.806459773512e-04 8.700567006521e-04 0.0 
8.700567006521e-04 3.652960026837e-03 0.0 
0.0 0.0 0.0 
1.985096656603e-03 4.111969963137e-03 0.0 
4.111969963137e-03 -1.773652439552e-04 0.0 
0.0 0.0 0.0 
0.0 3.570442635793e-03 0.0 
3.570442635793e-03 9.844783265081e-03 0.0 
0.0 0.0 0.0 
-4.278293134681e-04 2.681021477166e-03 0.0 
2.681021477166e-03 1.105595287171e-02 0.0 
0.0 0.0 0.0 
-6.163932687140e-04 3.692177784547e-03 0.0 
3.692177784547e-03 6.019542014426e-03 0.0 
0.0 0.0 0.0 
-6.517506042127e-04 -9.378328851175e-04 0.0 
-9.378328851175e-04 7.651774533024e-04 0.0 
0.0 0.0 0.0 
0.0 3.782899745599e-03 0.0 
3.782899745599e-03 8.966856944165e-03 0.0 
0.0 0.0 0.0 
6.008534927577e-04 1.521820281671e-03 0.0 
1.521820281671e-03 3.800534898240e-03 0.0 
0.0 0.0 0.0 
3.019144313478e-03 -2.523690154722e-03 0.0 
-2.523690154722e-03 -2.268656417582e-03 0.0 
0.0 0.0 0.0 
3.376375866591e-03 1.903012440301e-03 0.0 
1.903012440301e-03 -7.180795599182e-05 0.0 
0.0 0.0 0.0 
4.479071299324e-04 3.076690103770e-03 0.0 
3.076690103770e-03 5.601928043728e-03 0.0 
0.0 0.0 0.0 
-4.910646169121e-04 -8.148474082054e-05 0.0 
-8.148474082054e-05 3.251822796637e-04 0.0 
0.0 0.0 0.0 
8.324582466226e-04 4.109475056344e-03 0.0 
4.109475056344e-03 2.433078784377e-03 0.0 
0.0 0.0 0.0 
-8.746789484444e-04 3.521049178208e-03 0.0 
3.521049178208e-03 6.795927922323e-03 0.0 
0.0 0.0 0.0 
-2.949135209459e-04 3.852015253995e-03 0.0 
3.852015253995e-03 5.176069936021e-03 0.0 
0.0 0.0 0.0 
-1.034771722432e-03 3.455024786018e-03 0.0 
3.455024786018e-03 6.682563247119e-03 0.0 
0.0 0.0 0.0 
1.834566688578e-03 4.136752261552e-03 0.0 
4.136752261552e-03 -8.047699970006e-04 0.0 
0.0 0.0 0.0 
0.0 3.832950171158e-03 0.0 
3.832950171158e-03 8.006385253587e-03 0.0 
0.0 0.0 0.0 
4.561724597616e-03 2.068451743035e-03 0.0 
2.068451743035e-03 -2.375251623771e-03 0.0 
0.0 0.0 0.0 
2.168680396702e-03 5.135712188450e-04 0.0 
5.135712188450e-04 -4.272641186992e-03 0.0 
0.0 0.0 0.0 
1.059072682454e-04 -5.798998312619e-04 0.0 
-5.798998312619e-04 4.910497289299e-03 0.0 
0.0 0.0 0.0 
-5.030386013123e-04 -7.599253845345e-04 0.0 
-7.599253845345e-04 5.014340030780e-04 0.0 
0.0 0.0 0.0 
-1.680068426185e-03 2.757096318191e-03 0.0 
2.757096318191e-03 7.272434212878e-03 0.0 
0.0 0.0 0.0 
1.721871299086e-03 -3.070931235441e-03 0.0 
-3.070931235441e-03 -2.538340982869e-03 0.0 
0.0 0.0 0.0 
-2.096308943604e-03 1.915793163532e-03 0.0 
1.915793163532e-03 8.638868674283e-03 0.0 
0.0 0.0 0.0 
6.044379866257e-04 1.675946079896e-03 0.0 
1.675946079896e-03 4.552352095843e-03 0.0 
0.0 0.0 0.0 
0.0 3.681454795926e-03 0.0 
3.681454795926e-03 7.049861313861e-03 0.0 
0.0 0.0 0.0 
-1.684809740637e-03 2.765606426049e-03 0.0 
2.765606426049e-03 8.484155053881e-03 0.0 
0.0 0.0 0.0 
5.384806038780e-04 -3.288004748722e-03 0.0 
-3.288004748722e-03 -9.817468069300e-04 0.0 
0.0 0.0 0.0 
1.926333740090e-03 8.807449658309e-04 0.0 
8.807449658309e-04 -4.740182348225e-03 0.0 
0.0 0.0 0.0 
4.751377054473e-04 -3.756468432351e-03 0.0 
-3.756468432351e-03 -1.247992495070e-03 0.0 
0.0 0.0 0.0 
6.172997936889e-04 -7.264427342227e-04 0.0 
-7.264427342227e-04 3.113272134206e-03 0.0 
0.0 0.0 0.0 
-2.157731363936e-03 9.134876799766e-04 0.0 
9.134876799766e-04 1.001229294768e-02 0.0 
0.0 0.0 0.0 
-2.327498478598e-03 1.773017195873e-03 0.0 
1.773017195873e-03 9.704548652103e-03 0.0 
0.0 0.0 0.0 
0.0 3.337368734810e-03 0.0 
3.337368734810e-03 6.177433664353e-03 0.0 
0.0 0.0 0.0 
-2.076830964432e-03 7.430806211400e-04 0.0 
7.430806211400e-04 1.009871429280e-02 0.0 
0.0 0.0 0.0 
-3.463367231112e-04 2.585939785752e-03 0.0 
2.585939785752e-03 1.158334899483e-02 0.0 
0.0 0.0 0.0 
1.057761848974e-03 3.567766458835e-03 0.0 
3.567766458835e-03 3.960451251054e-03 0.0 
0.0 0.0 0.0 
-1.765251508737e-03 8.428058329303e-04 0.0 
8.428058329303e-04 1.070091796974e-02 0.0 
0.0 0.0 0.0 
5.270375360356e-05 3.968109579350e-03 0.0 
3.968109579350e-03 2.708148088605e-03 0.0 
0.0 0.0 0.0 
3.198295672554e-03 2.250696208574e-03 0.0 
2.250696208574e-03 -1.194817480329e-04 0.0 
0.0 0.0 0.0 
2.969557704463e-03 2.909664191452e-03 0.0 
2.909664191452e-03 -2.690076539640e-03 0.0 
0.0 0.0 0.0 
0.0 2.803500441655e-03 0.0 
2.803500441655e-03 5.435778170449e-03 0.0 
0.0 0.0 0.0 
0.0 3.212509658438e-03 0.0 
3.212509658438e-03 1.059502434005e-02 0.0 
0.0 0.0 0.0 
0.0 2.794072533163e-03 0.0 
2.794072533163e-03 1.123407149859e-02 0.0 
0.0 0.0 0.0 
1.665356328349e-03 -1.646488835622e-03 0.0 
-1.646488835622e-03 2.128306731963e-04 0.0 
0.0 0.0 0.0 
-6.632322890817e-04 -1.604069692451e-03 0.0 
-1.604069692451e-03 2.240341025863e-03 0.0 
0.0 0.0 0.0 
1.230102194706e-03 4.015305894948e-03 0.0 
4.015305894948e-03 2.467106381576e-03 0.0 
0.0 0.0 0.0 
1.615871921254e-03 -1.461586356004e-03 0.0 
-1.461586356004e-03 8.640990395818e-04 0.0 
0.0 0.0 0.0 
0.0 2.193758332215e-03 0.0 
2.193758332215e-03 4.881339480900e-03 0.0 
0.0 0.0 0.0 
2.796238634589e-03 3.627578896202e-03 0.0 
3.627578896202e-03 -9.517498966126e-04 0.0 
0.0 0.0 0.0 
4.291310249623e-03 -1.093751410798e-03 0.0 
-1.093751410798e-03 -3.308524923102e-03 0.0 
0.0 0.0 0.0 
3.867547751865e-03 -1.645212518853e-03 0.0 
-1.645212518853e-03 -2.759856942572e-03 0.0 
0.0 0.0 0.0 
-1.656713830165e-03 8.260819972696e-04 0.0 
8.260819972696e-04 1.092769896156e-02 0.0 
0.0 0.0 0.0 
4.655772513018e-04 5.976722842049e-04 0.0 
5.976722842049e-04 4.404423809174e-03 0.0 
0.0 0.0 0.0 
-9.329276762013e-04 -3.471084139260e-03 0.0 
-3.471084139260e-03 -6.085472172268e-05 0.0 
0.0 0.0 0.0 
0.0 1.452420819343e-03 0.0 
1.452420819343e-03 4.495450351761e-03 0.0 
0.0 0.0 0.0 
3.241437370590e-03 -2.249070686076e-03 0.0 
-2.249070686076e-03 -2.276434425049e-03 0.0 
0.0 0.0 0.0 
0.0 3.704475369572e-03 0.0 
3.704475369572e-03 9.424595979113e-03 0.0 
0.0 0.0 0.0 
-9.234378503449e-04 3.118989826604e-03 0.0 
3.118989826604e-03 9.523205592139e-03 0.0 
0.0 0.0 0.0 
-7.488261266675e-05 -9.481539162771e-05 0.0 
-9.481539162771e-05 1.682409680561e-04 0.0 
0.0 0.0 0.0 
1.432226774010e-03 4.011429274769e-03 0.0 
4.011429274769e-03 1.558169523233e-03 0.0 
0.0 0.0 0.0 
-1.279083703456e-03 1.869482731182e-03 0.0 
1.869482731182e-03 1.139657081831e-02 0.0 
0.0 0.0 0.0 
0.0 3.835828549617e-03 0.0 
3.835828549617e-03 8.495065656540e-03 0.0 
0.0 0.0 0.0 
-1.514342716467e-03 3.053133084273e-03 0.0 
3.053133084273e-03 8.568471204355e-03 0.0 
0.0 0.0 0.0 
1.333723764495e-03 3.370449685208e-03 0.0 
3.370449685208e-03 3.578560490276e-03 0.0 
0.0 0.0 0.0 
1.373298400638e-03 4.111711618153e-03 0.0 
4.111711618153e-03 -1.474767090167e-03 0.0 
0.0 0.0 0.0 
1.148912138643e-03 1.268508751797e-03 0.0 
1.268508751797e-03 3.023484192820e-03 0.0 
0.0 0.0 0.0 
2.699244654418e-03 -2.437632101220e-03 0.0 
-2.437632101220e-03 -1.616146935667e-03 0.0 
0.0 0.0 0.0 
3.285842685135e-03 -2.201064525536e-03 0.0 
-2.201064525536e-03 -2.683034219274e-03 0.0 
0.0 0.0 0.0 
-1.767555087480e-03 -3.330125855704e-03 0.0 
-3.330125855704e-03 -4.615523847762e-05 0.0 
0.0 0.0 0.0 
0.0 3.780748007246e-03 0.0 
3.780748007246e-03 7.524081708481e-03 0.0 
0.0 0.0 0.0 
3.452718889706e-03 2.570282611714e-03 0.0 
2.570282611714e-03 -2.718572823832e-03 0.0 
0.0 0.0 0.0 
1.756803688811e-03 4.785782413189e-05 0.0 
4.785782413189e-05 1.764153674740e-03 0.0 
0.0 0.0 0.0 
-1.931237047283e-03 6.821229133813e-04 0.0 
6.821229133813e-04 1.059971691758e-02 0.0 
0.0 0.0 0.0 
9.175697222699e-04 -2.780876538854e-03 0.0 
-2.780876538854e-03 -2.866960661244e-04 0.0 
0.0 0.0 0.0 
3.780671046911e-03 -1.856140202411e-03 0.0 
-1.856140202411e-03 -3.195911735949e-03 0.0 
0.0 0.0 0.0 
-1.409840997710e-03 3.275472855253e-03 0.0 
3.275472855253e-03 7.998952002892e-03 0.0 
0.0 0.0 0.0 
0.0 3.082113435235e-03 0.0 
3.082113435235e-03 5.793795483043e-03 0.0 
0.0 0.0 0.0 
-7.488572471336e-04 -1.526975238945e-03 0.0 
-1.526975238945e-03 2.649718639959e-03 0.0 
0.0 0.0 0.0 
1.813886451062e-03 -1.016867956218e-03 0.0 
-1.016867956218e-03 7.054947550507e-04 0.0 
0.0 0.0 0.0 
6.106979660956e-04 4.025312982066e-03 0.0 
4.025312982066e-03 3.509371627400e-03 0.0 
0.0 0.0 0.0 
3.128521347175e-03 -6.211082499196e-04 0.0 
-6.211082499196e-04 -1.161214758791e-03 0.0 
0.0 0.0 0.0 
4.306069200357e-03 -1.086176870798e-03 0.0 
-1.086176870798e-03 -3.402865830520e-03 0.0 
0.0 0.0 0.0 
1.989932328620e-03 -1.363112100892e-03 0.0 
-1.363112100892e-03 5.374239228439e-05 0.0 
0.0 0.0 0.0 
3.011721686583e-04 4.056531917721e-03 0.0 
4.056531917721e-03 4.272797838864e-03 0.0 
0.0 0.0 0.0 
2.067978902425e-04 3.708700885148e-03 0.0 
3.708700885148e-03 5.853533651337e-03 0.0 
0.0 0.0 0.0 
2.769116689300e-03 2.154434289496e-03 0.0 
2.154434289496e-03 7.644648675087e-04 0.0 
0.0 0.0 0.0 
1.069896840239e-03 4.031894601646e-03 0.0 
4.031894601646e-03 2.569260245136e-03 0.0 
0.0 0.0 0.0 
4.905342816015e-04 -2.219226414843e-03 0.0 
-2.219226414843e-03 1.191727627636e-03 0.0 
0.0 0.0 0.0 
2.359700442942e-03 3.859710350900e-03 0.0 
3.859710350900e-03 -1.430070052469e-04 0.0 
0.0 0.0 0.0 
-5.179797883467e-04 -1.774100132133e-03 0.0 
-1.774100132133e-03 2.265038342997e-03 0.0 
0.0 0.0 0.0 
1.293283894211e-03 3.478716107524e-03 0.0 
3.478716107524e-03 3.974278609472e-03 0.0 
0.0 0.0 0.0 
4.164987603327e-03 1.811866940114e-03 0.0 
1.811866940114e-03 -1.866778494126e-03 0.0 
0.0 0.0 0.0 
5.874040230105e-04 1.309625195882e-03 0.0 
1.309625195882e-03 4.463608444399e-03 0.0 
0.0 0.0 0.0 
-1.162383827692e-03 2.117541671842e-03 0.0 
2.117541671842e-03 1.130374730775e-02 0.0 
0.0 0.0 0.0 
6.527278149380e-04 -2.627673459867e-03 0.0 
-2.627673459867e-03 2.758504490352e-04 0.0 
0.0 0.0 0.0 
0.0 1.811459008125e-03 0.0 
1.811459008125e-03 4.612760772831e-03 0.0 
0.0 0.0 0.0 
1.149422659831e-03 1.412922125615e-03 0.0 
1.412922125615e-03 3.742674859324e-03 0.0 
0.0 0.0 0.0 
2.721650788095e-03 3.659959582729e-03 0.0 
3.659959582729e-03 -1.284708660801e-04 0.0 
0.0 0.0 0.0 
-8.541023671694e-04 -2.305165878935e-03 0.0 
-2.305165878935e-03 8.596196068236e-04 0.0 
0.0 0.0 0.0 
4.822365812616e-04 3.113773122080e-04 0.0 
3.113773122080e-04 4.462658808088e-03 0.0 
0.0 0.0 0.0 
-1.157700805634e-03 2.456177961878e-03 0.0 
2.456177961878e-03 1.085334551075e-02 0.0 
0.0 0.0 0.0 
2.539729688088e-03 -2.722533018631e-03 0.0 
-2.722533018631e-03 -1.611948520984e-03 0.0 
0.0 0.0 0.0 
0.0 7.648690135318e-04 0.0 
7.648690135318e-04 4.373351228050e-03 0.0 
0.0 0.0 0.0 
1.550894180031e-03 -1.365037249338e-03 0.0 
-1.365037249338e-03 7.425170442461e-04 0.0 
0.0 0.0 0.0 
-7.273098017824e-04 3.686236372572e-03 0.0 
3.686236372572e-03 5.084156961473e-03 0.0 
0.0 0.0 0.0 
-2.069714534590e-03 1.925695771111e-03 0.0 
1.925695771111e-03 9.559535284120e-03 0.0 
0.0 0.0 0.0 
4.221905833734e-03 1.923803394723e-03 0.0 
1.923803394723e-03 -1.660394434300e-03 0.0 
0.0 0.0 0.0 
1.761378386989e-03 -1.853361631898e-03 0.0 
-1.853361631898e-03 -2.081838538152e-04 0.0 
0.0 0.0 0.0 
3.193829304244e-03 -4.531992903374e-05 0.0 
-4.531992903374e-05 -8.451686538955e-04 0.0 
0.0 0.0 0.0 
-1.906717408360e-03 1.981812190981e-03 0.0 
1.981812190981e-03 1.035049623329e-02 0.0 
0.0 0.0 0.0 
-1.348260980542e-03 3.197052150442e-03 0.0 
3.197052150442e-03 6.619274044779e-03 0.0 
0.0 0.0 0.0 
2.373089846513e-03 2.462394234730e-03 0.0 
2.462394234730e-03 1.578016322604e-03 0.0 
0.0 0.0 0.0 
-1.441741197814e-03 1.381409875764e-04 0.0 
1.381409875764e-04 1.086270712356e-02 0.0 
0.0 0.0 0.0 
1.923691660546e-04 -2.166731914060e-03 0.0 
-2.166731914060e-03 1.185525831656e-03 0.0 
0.0 0.0 0.0 
3.168651341983e-03 1.768228632590e-03 0.0 
1.768228632590e-03 -1.832755030540e-05 0.0 
0.0 0.0 0.0 
2.108618560212e-03 -2.661643779606e-03 0.0 
-2.661643779606e-03 -1.585274109261e-03 0.0 
0.0 0.0 0.0 
-5.038517426448e-05 -1.301551601536e-03 0.0 
-1.301551601536e-03 3.038914301122e-03 0.0 
0.0 0.0 0.0 
-2.450886728232e-04 -2.296833083372e-04 0.0 
-2.296833083372e-04 1.381491197130e-04 0.0 
0.0 0.0 0.0 
1.885413409616e-03 4.026399897353e-03 0.0 
4.026399897353e-03 6.710808846504e-04 0.0 
0.0 0.0 0.0 
2.638275644048e-03 -2.681905766734e-03 0.0 
-2.681905766734e-03 -2.211997121464e-03 0.0 
0.0 0.0 0.0 
-1.933527298408e-04 -1.823376207018e-03 0.0 
-1.823376207018e-03 2.220101265834e-03 0.0 
0.0 0.0 0.0 
2.107936431944e-03 3.763721099875e-03 0.0 
3.763721099875e-03 8.874517601947e-04 0.0 
0.0 0.0 0.0 
1.961601542167e-03 -1.165219883279e-03 0.0 
-1.165219883279e-03 7.108450213107e-04 0.0 
0.0 0.0 0.0 
-1.821825175033e-03 6.676952715102e-04 0.0 
6.676952715102e-04 1.082965941052e-02 0.0 
0.0 0.0 0.0 
1.938654513311e-03 -2.955688265897e-03 0.0 
-2.955688265897e-03 -1.572083490445e-03 0.0 
0.0 0.0 0.0 
0.0 4.803384242763e-04 0.0 
4.803384242763e-04 4.435758660896e-03 0.0 
0.0 0.0 0.0 
-7.850559226105e-04 3.682705097363e-03 0.0 
3.682705097363e-03 6.773364553991e-03 0.0 
0.0 0.0 0.0 
-4.586766977430e-04 -1.592065077006e-03 0.0 
-1.592065077006e-03 2.684438829804e-03 0.0 
0.0 0.0 0.0 
-4.788018601241e-04 3.841575159548e-03 0.0 
3.841575159548e-03 5.997995373799e-03 0.0 
0.0 0.0 0.0 
-4.161068125116e-04 -1.722905223592e-03 0.0 
-1.722905223592e-03 2.206380453295e-03 0.0 
0.0 0.0 0.0 
-7.937421800223e-04 -1.248652756561e-04 0.0 
-1.248652756561e-04 4.457101016877e-04 0.0 
0.0 0.0 0.0 
-2.162132050784e-03 1.945651367856e-03 0.0 
1.945651367856e-03 9.858091600597e-03 0.0 
0.0 0.0 0.0 
-1.279611375093e-03 -6.180249973819e-04 0.0 
-6.180249973819e-04 3.206811433850e-03 0.0 
0.0 0.0 0.0 
1.285357054198e-03 -1.402333776080e-04 0.0 
-1.402333776080e-04 -4.290567652194e-04 0.0 
0.0 0.0 0.0 
-7.243711112953e-04 -1.455214064223e-03 0.0 
-1.455214064223e-03 2.870692555239e-03 0.0 
0.0 0.0 0.0 
1.773208439366e-03 -8.392433669518e-04 0.0 
-8.392433669518e-04 1.320834875342e-03 0.0 
0.0 0.0 0.0 
-8.497079389500e-04 6.139214957454e-04 0.0 
6.139214957454e-04 1.202093554874e-02 0.0 
0.0 0.0 0.0 
3.599529418142e-03 -2.479982732027e-04 0.0 
-2.479982732027e-04 -1.641238109649e-03 0.0 
0.0 0.0 0.0 
3.444165012926e-03 -2.214023447595e-04 0.0 
-2.214023447595e-04 -1.232258303324e-03 0.0 
0.0 0.0 0.0 
-2.411949015578e-03 1.540314699278e-03 0.0 
1.540314699278e-03 9.503746884851e-03 0.0 
0.0 0.0 0.0 
-2.067083062120e-03 5.416203419354e-04 0.0 
5.416203419354e-04 9.867058625134e-03 0.0 
0.0 0.0 0.0 
-3.820936226652e-04 2.143758839016e-03 0.0 
2.143758839016e-03 1.170499143429e-02 0.0 
0.0 0.0 0.0 
-1.193277653200e-04 3.971144931978e-03 0.0 
3.971144931978e-03 5.159812374439e-03 0.0 
0.0 0.0 0.0 
1.984531591851e-03 -1.627395812032e-04 0.0 
-1.627395812032e-04 -7.021968736638e-04 0.0 
0.0 0.0 0.0 
-9.867728493118e-05 -1.487732692002e-03 0.0 
-1.487732692002e-03 9.591489608012e-04 0.0 
0.0 0.0 0.0 
-9.018081074975e-04 -1.389872068639e-03 0.0 
-1.389872068639e-03 9.226122829262e-04 0.0 
0.0 0.0 0.0 
2.619286426606e-04 -2.444245720768e-03 0.0 
-2.444245720768e-03 6.146034938459e-04 0.0 
0.0 0.0 0.0 
-2.976665472949e-04 3.495029148711e-03 0.0 
3.495029148711e-03 7.718737957169e-03 0.0 
0.0 0.0 0.0 
-9.587408099709e-04 5.930979135917e-04 0.0 
5.930979135917e-04 1.202381856944e-02 0.0 
0.0 0.0 0.0 
6.803904342028e-04 -7.916506257226e-04 0.0 
-7.916506257226e-04 3.110275877507e-03 0.0 
0.0 0.0 0.0 
-1.324855297831e-04 -2.032212026625e-03 0.0 
-2.032212026625e-03 1.297930398332e-03 0.0 
0.0 0.0 0.0 
-3.045899961319e-04 -1.277921154570e-03 0.0 
-1.277921154570e-03 3.036757117167e-03 0.0 
0.0 0.0 0.0 
1.596648744368e-03 8.895452925184e-05 0.0 
8.895452925184e-05 2.226617588871e-03 0.0 
0.0 0.0 0.0 
3.089747625772e-03 4.392799197360e-04 0.0 
4.392799197360e-04 -4.222457130176e-03 0.0 
0.0 0.0 0.0 
-1.285182253268e-03 -3.789884368516e-04 0.0 
-3.789884368516e-04 3.202512706689e-03 0.0 
0.0 0.0 0.0 
-1.148279553233e-03 -3.454111082908e-04 0.0 
-3.454111082908e-04 2.828704212494e-03 0.0 
0.0 0.0 0.0 
3.679891343522e-04 3.220571139696e-05 0.0 
3.220571139696e-05 4.542276937471e-03 0.0 
0.0 0.0 0.0 
0.0 1.868466490797e-04 0.0 
1.868466490797e-04 4.489509201200e-03 0.0 
0.0 0.0 0.0 
-1.323748969536e-03 -3.944518297165e-04 0.0 
-3.944518297165e-04 3.424795029069e-03 0.0 
0.0 0.0 0.0 
-6.554816164401e-04 -1.478415228248e-03 0.0 
-1.478415228248e-03 2.668239139604e-03 0.0 
0.0 0.0 0.0 
1.671312140824e-03 -1.703564061249e-03 0.0 
-1.703564061249e-03 4.243749485646e-04 0.0 
0.0 0.0 0.0 
1.550805039573e-03 4.285310926975e-04 0.0 
4.285310926975e-04 2.496473193660e-03 0.0 
0.0 0.0 0.0 
-3.072187903022e-04 -1.579848845038e-03 0.0 
-1.579848845038e-03 1.090640814257e-03 0.0 
0.0 0.0 0.0 
1.608628008540e-03 -2.458174770031e-04 0.0 
-2.458174770031e-04 2.037026297624e-03 0.0 
0.0 0.0 0.0 
1.098445632655e-03 -4.060228972948e-04 0.0 
-4.060228972948e-04 2.750131498475e-04 0.0 
0.0 0.0 0.0 
-6.665653086360e-04 -1.561299642645e-03 0.0 
-1.561299642645e-03 2.439836686053e-03 0.0 
0.0 0.0 0.0 
-1.206360245044e-04 -1.830486525138e-03 0.0 
-1.830486525138e-03 1.939017638482e-03 0.0 
0.0 0.0 0.0 
1.270250297082e-03 -2.094101451174e-04 0.0 
-2.094101451174e-04 -1.441784685168e-04 0.0 
0.0 0.0 0.0 
-1.339404134915e-03 -3.691287822751e-04 0.0 
-3.691287822751e-04 3.383848587757e-03 0.0 
0.0 0.0 0.0 
-9.598727224098e-04 2.080176497163e-03 0.0 
2.080176497163e-03 1.130871595589e-02 0.0 
0.0 0.0 0.0 
2.220322664867e-03 -1.050587148178e-04 0.0 
-1.050587148178e-04 -7.890360017673e-04 0.0 
0.0 0.0 0.0 
-2.147466104833e-03 6.883778111001e-04 0.0 
6.883778111001e-04 9.813689251637e-03 0.0 
0.0 0.0 0.0 
-2.168789072730e-03 8.218643155978e-04 0.0 
8.218643155978e-04 9.680368139320e-03 0.0 
0.0 0.0 0.0 
3.150500030124e-03 5.338036285710e-04 0.0 
5.338036285710e-04 -3.703444909942e-04 0.0 
0.0 0.0 0.0 
-1.113250197578e-03 -8.787836737391e-05 0.0 
-8.787836737391e-05 2.838187733590e-03 0.0 
0.0 0.0 0.0 
2.004778285530e-03 -2.698557110426e-03 0.0 
-2.698557110426e-03 -9.634147593613e-04 0.0 
0.0 0.0 0.0 
1.031425373511e-03 3.984072706130e-03 0.0 
3.984072706130e-03 4.023709094643e-04 0.0 
0.0 0.0 0.0 
3.043059048669e-04 -5.995931628676e-04 0.0 
-5.995931628676e-04 4.095194959395e-03 0.0 
0.0 0.0 0.0 
7.790895503779e-05 3.622625938046e-03 0.0 
3.622625938046e-03 7.365146388426e-03 0.0 
0.0 0.0 0.0 
-1.229568662959e-03 8.747262826080e-04 0.0 
8.747262826080e-04 1.177671191977e-02 0.0 
0.0 0.0 0.0 
1.672130516743e-04 3.984313991078e-03 0.0 
3.984313991078e-03 2.705662377218e-03 0.0 
0.0 0.0 0.0 
-4.205640350113e-04 -1.221293353383e-03 0.0 
-1.221293353383e-03 8.625336638308e-04 0.0 
0.0 0.0 0.0 
-1.912526806377e-03 2.874611347856e-03 0.0 
2.874611347856e-03 7.771413977814e-03 0.0 
0.0 0.0 0.0 
-1.824932273371e-03 2.613895891104e-04 0.0 
2.613895891104e-04 9.931379571719e-03 0.0 
0.0 0.0 0.0 
-1.778922898985e-03 2.353792244505e-04 0.0 
2.353792244505e-04 9.884777706272e-03 0.0 
0.0 0.0 0.0 
1.496530396508e-03 -1.248874208184e-04 0.0 
-1.248874208184e-04 -5.244044557859e-04 0.0 
0.0 0.0 0.0 
1.098781838370e-03 -2.811968640246e-04 0.0 
-2.811968640246e-04 -6.748057788142e-05 0.0 
0.0 0.0 0.0 
8.628358191782e-04 -1.800663551381e-04 0.0 
-1.800663551381e-04 3.944909653881e-04 0.0 
0.0 0.0 0.0 
-3.251932656607e-04 -1.760151329005e-03 0.0 
-1.760151329005e-03 1.425968028075e-03 0.0 
0.0 0.0 0.0 
1.893422955658e-03 -1.795048150577e-04 0.0 
-1.795048150577e-04 -3.865103828844e-04 0.0 
0.0 0.0 0.0 
-1.332672008604e-03 -3.545991197884e-04 0.0 
-3.545991197884e-04 3.607739292442e-03 0.0 
0.0 0.0 0.0 
-1.539849999402e-03 -1.215540130284e-03 0.0 
-1.215540130284e-03 -1.740237275458e-03 0.0 
0.0 0.0 0.0 
-3.017921117884e-04 -1.921480786991e-03 0.0 
-1.921480786991e-03 1.566967478389e-03 0.0 
0.0 0.0 0.0 
-1.272254370394e-03 1.866897190323e-04 0.0 
1.866897190323e-04 1.116767855415e-02 0.0 
0.0 0.0 0.0 
-2.018580385065e-03 5.100988349661e-04 0.0 
5.100988349661e-04 9.812498430623e-03 0.0 
0.0 0.0 0.0 
-4.460676975715e-04 3.447433794674e-03 0.0 
3.447433794674e-03 8.368143740966e-03 0.0 
0.0 0.0 0.0 
1.537666858342e-03 -1.156651316100e-03 0.0 
-1.156651316100e-03 1.381607585105e-03 0.0 
0.0 0.0 0.0 
-1.354708815232e-03 1.317471104662e-04 0.0 
1.317471104662e-04 1.085637827851e-02 0.0 
0.0 0.0 0.0 
-1.223074273182e-03 -1.304414326662e-04 0.0 
-1.304414326662e-04 3.003034143520e-03 0.0 
0.0 0.0 0.0 
1.396509671825e-03 -2.247453168885e-04 0.0 
-2.247453168885e-04 1.668857205936e-04 0.0 
0.0 0.0 0.0 
0.0 1.167914528451e-03 0.0 
1.167914528451e-03 1.250562144346e-02 0.0 
0.0 0.0 0.0 
-3.120687891947e-04 1.298592072519e-03 0.0 
1.298592072519e-03 1.246023495134e-02 0.0 
0.0 0.0 0.0 
-1.753840500369e-03 6.528449668681e-04 0.0 
6.528449668681e-04 1.060165807406e-02 0.0 
0.0 0.0 0.0 
-1.913268664613e-03 3.291546744672e-04 0.0 
3.291546744672e-04 9.916475609955e-03 0.0 
0.0 0.0 0.0 
-1.177239289871e-03 -3.399104568740e-04 0.0 
-3.399104568740e-04 2.966822247331e-03 0.0 
0.0 0.0 0.0 
-2.744091719393e-04 9.232142701760e-04 0.0 
9.232142701760e-04 1.260600132285e-02 0.0 
0.0 0.0 0.0 
-1.309260675260e-04 -1.916024764276e-03 0.0 
-1.916024764276e-03 1.226178278208e-03 0.0 
0.0 0.0 0.0 
-2.097707105753e-03 6.506844655193e-04 0.0 
6.506844655193e-04 9.752552824238e-03 0.0 
0.0 0.0 0.0 
-1.991341621151e-03 4.288274503212e-04 0.0 
4.288274503212e-04 9.899475870487e-03 0.0 
0.0 0.0 0.0 
-2.025643153069e-03 2.077459973397e-03 0.0 
2.077459973397e-03 8.251295571547e-03 0.0 
0.0 0.0 0.0 
0.0 2.386924859726e-03 0.0 
2.386924859726e-03 1.169667406543e-02 0.0 
0.0 0.0 0.0 
-3.087818006561e-04 1.110784652475e-03 0.0 
1.110784652475e-03 1.254234085763e-02 0.0 
0.0 0.0 0.0 
1.735837633673e-03 -2.370219970109e-04 0.0 
-2.370219970109e-04 -3.324468245537e-04 0.0 
0.0 0.0 0.0 
1.735713822152e-03 -1.048881465606e-04 0.0 
-1.048881465606e-04 -6.273220598447e-04 0.0 
0.0 0.0 0.0 
-3.612240388263e-04 -1.191788212571e-03 0.0 
-1.191788212571e-03 9.393155528552e-04 0.0 
0.0 0.0 0.0 
1.433274226947e-04 -1.885789511267e-03 0.0 
-1.885789511267e-03 1.945784502619e-03 0.0 
0.0 0.0 0.0 
-4.404399557164e-04 -1.010538327450e-04 0.0 
-1.010538327450e-04 5.605771086270e-03 0.0 
0.0 0.0 0.0 
-4.375786208255e-03 -2.029166820563e-03 0.0 
-2.029166820563e-03 -1.616528307708e-03 0.0 
0.0 0.0 0.0 
-9.808677600912e-04 7.106844660020e-05 0.0 
7.106844660020e-05 1.183827259822e-02 0.0 
0.0 0.0 0.0 
-1.721382153985e-03 -1.136643442962e-03 0.0 
-1.136643442962e-03 8.085325479912e-04 0.0 
0.0 0.0 0.0 
3.100888856819e-03 3.509024091147e-05 0.0 
3.509024091147e-05 -4.110357397458e-04 0.0 
0.0 0.0 0.0 
-9.560160863200e-04 -7.275175500117e-04 0.0 
-7.275175500117e-04 8.180752245246e-05 0.0 
0.0 0.0 0.0 
-2.575279865808e-03 -2.302509461129e-03 0.0 
-2.302509461129e-03 -2.962317632418e-04 0.0 
0.0 0.0 0.0 
3.048345606353e-03 -5.022443849197e-04 0.0 
-5.022443849197e-04 -6.415028729617e-04 0.0 
0.0 0.0 0.0 
-3.543847414812e-04 -4.118496379844e-04 0.0 
-4.118496379844e-04 5.202465146407e-03 0.0 
0.0 0.0 0.0 
-1.359960157663e-03 1.373375954994e-04 0.0 
1.373375954994e-04 1.114043449413e-02 0.0 
0.0 0.0 0.0 
-1.558894854630e-03 3.276308610826e-03 0.0 
3.276308610826e-03 7.234714876566e-03 0.0 
0.0 0.0 0.0 
1.397149436635e-03 -1.540606277241e-04 0.0 
-1.540606277241e-04 -1.979641449666e-04 0.0 
0.0 0.0 0.0 
-4.907462943388e-04 -1.060948747043e-03 0.0 
-1.060948747043e-03 3.490469324111e-03 0.0 
0.0 0.0 0.0 
0.0 3.694105518568e-04 0.0 
3.694105518568e-04 1.271085137916e-02 0.0 
0.0 0.0 0.0 
-2.516205473713e-04 4.202491393328e-04 0.0 
4.202491393328e-04 1.271310454566e-02 0.0 
0.0 0.0 0.0 
-1.929801244652e-03 3.976028282396e-04 0.0 
3.976028282396e-04 9.842922524238e-03 0.0 
0.0 0.0 0.0 
3.020656768813e-03 5.499621894360e-04 0.0 
5.499621894360e-04 -4.484450398401e-05 0.0 
0.0 0.0 0.0 
0.0 9.839687287999e-04 0.0 
9.839687287999e-04 1.258152656787e-02 0.0 
0.0 0.0 0.0 
1.522144327260e-03 3.250008547466e-03 0.0 
3.250008547466e-03 3.595058370488e-03 0.0 
0.0 0.0 0.0 
1.471487113467e-03 -1.185316737859e-04 0.0 
-1.185316737859e-04 1.158003238360e-04 0.0 
0.0 0.0 0.0 
2.009729045006e-03 -1.221346808122e-04 0.0 
-1.221346808122e-04 -4.383861512469e-04 0.0 
0.0 0.0 0.0 
1.487372496339e-03 -4.620255410842e-05 0.0 
-4.620255410842e-05 -2.109598874143e-04 0.0 
0.0 0.0 0.0 
-1.333468759539e-03 -1.235789099021e-04 0.0 
-1.235789099021e-04 3.281390386979e-03 0.0 
0.0 0.0 0.0 
-1.504217970947e-04 -4.080691454427e-04 0.0 
-4.080691454427e-04 5.878347530933e-03 0.0 
0.0 0.0 0.0 
-4.337200538586e-04 -9.340080167584e-06 0.0 
-9.340080167584e-06 1.250074807726e-02 0.0 
0.0 0.0 0.0 
2.011695045784e-03 -7.415961677649e-05 0.0 
-7.415961677649e-05 -7.550603800478e-04 0.0 
0.0 0.0 0.0 
-1.355129331712e-03 -1.467785242054e-04 0.0 
-1.467785242054e-04 3.607439582659e-03 0.0 
0.0 0.0 0.0 
0.0 -3.032431058806e-04 0.0 
-3.032431058806e-04 5.951394007322e-03 0.0 
0.0 0.0 0.0 
-1.426393646655e-04 -4.749998327807e-04 0.0 
-4.749998327807e-04 5.779199480427e-03 0.0 
0.0 0.0 0.0 
3.595021415816e-04 -1.920495240595e-04 0.0 
-1.920495240595e-04 4.659867381531e-03 0.0 
0.0 0.0 0.0 
-1.129058349387e-03 8.962108983773e-05 0.0 
8.962108983773e-05 1.154250240380e-02 0.0 
0.0 0.0 0.0 
-8.808650914364e-04 -1.547506836633e-05 0.0 
-1.547506836633e-05 1.198466685325e-02 0.0 
0.0 0.0 0.0 
0.0 -3.896790898657e-04 0.0 
-3.896790898657e-04 5.829950203781e-03 0.0 
0.0 0.0 0.0 
0.0 -4.703308466774e-04 0.0 
-4.703308466774e-04 5.726261744772e-03 0.0 
0.0 0.0 0.0 
-9.650603578010e-04 1.008287192303e-04 0.0 
1.008287192303e-04 1.183931737269e-02 0.0 
0.0 0.0 0.0 
2.745218254415e-03 -2.971806679405e-06 0.0 
-2.971806679405e-06 -1.052217533949e-03 0.0 
0.0 0.0 0.0 
-1.658062347271e-03 1.403387118898e-04 0.0 
1.403387118898e-04 9.884098128484e-03 0.0 
0.0 0.0 0.0 
-1.854516311614e-03 3.124868824262e-04 0.0 
3.124868824262e-04 9.882184616300e-03 0.0 
0.0 0.0 0.0 
1.894165490011e-03 -8.245844873474e-05 0.0 
-8.245844873474e-05 -6.962248863375e-04 0.0 
0.0 0.0 0.0 
0.0 -5.266700178612e-04 0.0 
-5.266700178612e-04 5.283441651802e-03 0.0 
0.0 0.0 0.0 
2.440202613532e-04 -3.719225658422e-04 0.0 
-3.719225658422e-04 4.804580464866e-03 0.0 
0.0 0.0 0.0 
0.0 -3.701022999850e-04 0.0 
-3.701022999850e-04 4.880421925098e-03 0.0 
0.0 0.0 0.0 
2.581371396446e-03 -6.526709053260e-05 0.0 
-6.526709053260e-05 -9.410656431202e-04 0.0 
0.0 0.0 0.0 
2.419860531510e-03 -8.677794573572e-05 0.0 
-8.677794573572e-05 -8.763324871094e-04 0.0 
0.0 0.0 0.0 
0.0 -3.022874232203e-05 0.0 
-3.022874232203e-05 4.592846884932e-03 0.0 
0.0 0.0 0.0 
0.0 -2.294908927290e-04 0.0 
-2.294908927290e-04 4.721530008908e-03 0.0 
0.0 0.0 0.0 
-1.204091485988e-03 -2.156131030125e-05 0.0 
-2.156131030125e-05 1.138014612349e-02 0.0 
0.0 0.0 0.0 
-1.541336661195e-03 5.983306911228e-05 0.0 
5.983306911228e-05 9.868623612202e-03 0.0 
0.0 0.0 0.0 
-1.054201995891e-03 -1.800331019792e-05 0.0 
-1.800331019792e-05 1.169339952690e-02 0.0 
0.0 0.0 0.0 
-1.402724839458e-03 -2.586980144124e-05 0.0 
-2.586980144124e-05 1.068473138297e-02 0.0 
0.0 0.0 0.0 
-1.493657607307e-03 2.289658322098e-05 0.0 
2.289658322098e-05 9.858000145913e-03 0.0 
0.0 0.0 0.0 
1.656433239309e-03 -1.910758797584e-04 0.0 
-1.910758797584e-04 -5.651761300108e-04 0.0 
0.0 0.0 0.0 
8.585004363657e-04 -1.624966851136e-04 0.0 
-1.624966851136e-04 -1.736041863630e-04 0.0 
0.0 0.0 0.0 
5.598077578144e-04 -1.567395703904e-04 0.0 
-1.567395703904e-04 -4.845192314828e-05 0.0 
0.0 0.0 0.0 
1.992408425429e-04 -1.231216284445e-04 0.0 
-1.231216284445e-04 1.359017832558e-04 0.0 
0.0 0.0 0.0 
-1.345463300900e-03 -9.694387055041e-05 0.0 
-9.694387055041e-05 3.746295509773e-03 0.0 
0.0 0.0 0.0 
-1.364334366394e-03 -1.135988657743e-04 0.0 
-1.135988657743e-04 3.519714426900e-03 0.0 
0.0 0.0 0.0 
1.214150897144e-04 -1.695218600891e-04 0.0 
-1.695218600891e-04 8.020290251376e-05 0.0 
0.0 0.0 0.0 
-1.095197005322e-03 -5.690178512639e-05 0.0 
-5.690178512639e-05 4.404702032013e-03 0.0 
0.0 0.0 0.0 
-1.890044443430e-04 -1.667776301337e-04 0.0 
-1.667776301337e-04 2.189491798357e-04 0.0 
0.0 0.0 0.0 
0.0 1.953148297976e-03 0.0 
1.953148297976e-03 1.206428291450e-02 0.0 
0.0 0.0 0.0 
0.0 8.237441731075e-04 0.0 
8.237441731075e-04 1.262971054654e-02 0.0 
0.0 0.0 0.0 
0.0 1.359207005128e-03 0.0 
1.359207005128e-03 1.241158251839e-02 0.0 
0.0 0.0 0.0 
3.509401795931e-04 -1.235844811893e-04 0.0 
-1.235844811893e-04 1.122315225960e-03 0.0 
0.0 0.0 0.0 
-1.011097014342e-03 -1.306023204791e-04 0.0 
-1.306023204791e-04 2.661541267014e-03 0.0 
0.0 0.0 0.0 
0.0 6.533908251588e-04 0.0 
6.533908251588e-04 1.265392645428e-02 0.0 
0.0 0.0 0.0 
-6.935510319461e-04 -1.465687060468e-05 0.0 
-1.465687060468e-05 5.200920947304e-03 0.0 
0.0 0.0 0.0 
0.0 5.151874965474e-04 0.0 
5.151874965474e-04 1.271699214169e-02 0.0 
0.0 0.0 0.0 
-5.360100955253e-04 -2.505886999047e-06 0.0 
-2.505886999047e-06 5.483808499548e-03 0.0 
0.0 0.0 0.0 
-3.522678823483e-04 3.859340848847e-06 0.0 
3.859340848847e-06 5.756756680466e-03 0.0 
0.0 0.0 0.0 
-1.348844927225e-03 -1.398053512321e-04 0.0 
-1.398053512321e-04 3.383763226122e-03 0.0 
0.0 0.0 0.0 
-3.001953344396e-04 7.453964809934e-04 0.0 
7.453964809934e-04 1.264236425936e-02 0.0 
0.0 0.0 0.0 
-2.434598265907e-04 6.288329962460e-04 0.0 
6.288329962460e-04 1.267780689899e-02 0.0 
0.0 0.0 0.0 
-6.076365552511e-04 -1.164869037539e-04 0.0 
-1.164869037539e-04 5.308687683268e-03 0.0 
0.0 0.0 0.0 
-4.421306601081e-04 -1.168216956317e-04 0.0 
-1.168216956317e-04 5.606664959875e-03 0.0 
0.0 0.0 0.0 
-7.408145138714e-04 -6.460251026926e-04 0.0 
-6.460251026926e-04 4.246504354873e-03 0.0 
0.0 0.0 0.0 
-1.211231062974e-03 -3.523569600815e-04 0.0 
-3.523569600815e-04 6.006556888265e-04 0.0 
0.0 0.0 0.0 
-8.665489176602e-04 -1.355445239498e-03 0.0 
-1.355445239498e-03 2.626091173073e-03 0.0 
0.0 0.0 0.0 
1.506263936529e-03 -3.158767703704e-04 0.0 
-3.158767703704e-04 -2.224660192379e-04 0.0 
0.0 0.0 0.0 
1.613054994523e-04 -6.663257411726e-04 0.0 
-6.663257411726e-04 4.102312982412e-03 0.0 
0.0 0.0 0.0 
-4.965641720460e-04 -1.700444740075e-03 0.0 
-1.700444740075e-03 2.459931610043e-03 0.0 
0.0 0.0 0.0 
-3.319984550090e-04 -6.067961738987e-04 0.0 
-6.067961738987e-04 4.553441230764e-03 0.0 
0.0 0.0 0.0 
-1.059145325047e-04 -1.695420911298e-03 0.0 
-1.695420911298e-03 1.149162918873e-03 0.0 
0.0 0.0 0.0 
3.360460806552e-04 -6.028109589956e-04 0.0 
-6.028109589956e-04 5.514946463909e-04 0.0 
0.0 0.0 0.0 
-3.815547596341e-04 -5.301148810804e-04 0.0 
-5.301148810804e-04 4.901781950406e-03 0.0 
0.0 0.0 0.0 
-8.731817270758e-04 -1.305720186459e-03 0.0 
-1.305720186459e-03 2.847648039800e-03 0.0 
0.0 0.0 0.0 
-1.274092545822e-03 -3.681201287654e-04 0.0 
-3.681201287654e-04 3.126507447481e-03 0.0 
0.0 0.0 0.0 
-4.685614618846e-04 -6.101128363734e-04 0.0 
-6.101128363734e-04 4.554828069086e-03 0.0 
0.0 0.0 0.0 
-6.573849576856e-04 3.140207052590e-04 0.0 
3.140207052590e-04 1.221365236928e-02 0.0 
0.0 0.0 0.0 
-1.277882838866e-03 -1.188088649094e-04 0.0 
-1.188088649094e-04 3.131224950367e-03 0.0 
0.0 0.0 0.0 
1.615522257951e-03 -6.943985980666e-04 0.0 
-6.943985980666e-04 1.382538793841e-03 0.0 
0.0 0.0 0.0 
5.401202263826e-04 -1.433642089630e-03 0.0 
-1.433642089630e-03 2.328713663737e-03 0.0 
0.0 0.0 0.0 
-5.880488872528e-04 -6.931349779718e-04 0.0 
-6.931349779718e-04 4.252859314298e-03 0.0 
0.0 0.0 0.0 
-6.856437491890e-04 -5.062453416703e-04 0.0 
-5.062453416703e-04 4.548075987127e-03 0.0 
0.0 0.0 0.0 
4.698073441385e-03 2.099597579568e-03 0.0 
2.099597579568e-03 -3.102021206747e-03 0.0 
0.0 0.0 0.0 
-1.716427219464e-03 3.122382654638e-03 0.0 
3.122382654638e-03 7.220653099582e-03 0.0 
0.0 0.0 0.0 
1.867423249444e-03 3.855842458574e-03 0.0 
3.855842458574e-03 1.673061991941e-03 0.0 
0.0 0.0 0.0 
-2.709206548684e-04 -1.096508177727e-03 0.0 
-1.096508177727e-03 3.494644113321e-03 0.0 
0.0 0.0 0.0 
-5.322608962185e-04 -4.728496193378e-04 0.0 
-4.728496193378e-04 4.877602010664e-03 0.0 
0.0 0.0 0.0 
-7.371769387251e-04 -3.340488929559e-04 0.0 
-3.340488929559e-04 4.795901809955e-03 0.0 
0.0 0.0 0.0 
1.381049914146e-04 -2.368220192434e-03 0.0 
-2.368220192434e-03 7.240608604868e-04 0.0 
0.0 0.0 0.0 
-7.108478909442e-04 5.403453664099e-04 0.0 
5.403453664099e-04 1.217472329367e-02 0.0 
0.0 0.0 0.0 
-9.258975168400e-04 4.738689725080e-04 0.0 
4.738689725080e-04 1.191598712542e-02 0.0 
0.0 0.0 0.0 
-1.518295882514e-03 2.066566753538e-04 0.0 
2.066566753538e-04 1.041525878940e-02 0.0 
0.0 0.0 0.0 
-8.241077428250e-06 -1.089009964777e-03 0.0 
-1.089009964777e-03 3.376509370822e-03 0.0 
0.0 0.0 0.0 
-4.497190050406e-04 -8.914315225357e-04 0.0 
-8.914315225357e-04 3.898200037983e-03 0.0 
0.0 0.0 0.0 
-7.390225349846e-04 2.953213850178e-04 0.0 
2.953213850178e-04 1.222054447832e-02 0.0 
0.0 0.0 0.0 
-8.169253092367e-04 4.078937661726e-04 0.0 
4.078937661726e-04 1.207396523002e-02 0.0 
0.0 0.0 0.0 
5.354516245120e-04 -1.636799492627e-03 0.0 
-1.636799492627e-03 1.743774512772e-03 0.0 
0.0 0.0 0.0 
-4.147466093258e-04 -4.228860046085e-04 0.0 
-4.228860046085e-04 5.203579360239e-03 0.0 
0.0 0.0 0.0 
-1.080439583803e-03 8.814532788961e-04 0.0 
8.814532788961e-04 1.177540229253e-02 0.0 
0.0 0.0 0.0 
-7.904348870499e-04 -2.804972418065e-04 0.0 
-2.804972418065e-04 4.795952211276e-03 0.0 
0.0 0.0 0.0 
2.026656266541e-05 -6.322384759852e-04 0.0 
-6.322384759852e-04 4.561447263209e-03 0.0 
0.0 0.0 0.0 
-7.983987698208e-04 5.234145009882e-04 0.0 
5.234145009882e-04 1.217812751184e-02 0.0 
0.0 0.0 0.0 
-1.329328704156e-03 4.215760049628e-04 0.0 
4.215760049628e-04 1.146397930594e-02 0.0 
0.0 0.0 0.0 
1.417681112021e-03 -1.024376485510e-03 0.0 
-1.024376485510e-03 1.350876235758e-03 0.0 
0.0 0.0 0.0 
-5.539478129265e-04 -8.323907385790e-04 0.0 
-8.323907385790e-04 1.903855788436e-03 0.0 
0.0 0.0 0.0 
2.187950772750e-04 -2.519709486993e-03 0.0 
-2.519709486993e-03 4.710578659453e-04 0.0 
0.0 0.0 0.0 
-8.414559962022e-05 -1.020776270777e-03 0.0 
-1.020776270777e-03 8.336674069540e-04 0.0 
0.0 0.0 0.0 
-1.218837483445e-03 -1.864720636060e-03 0.0 
-1.864720636060e-03 4.708550331491e-04 0.0 
0.0 0.0 0.0 
-8.738403591124e-04 3.819643373956e-04 0.0 
3.819643373956e-04 1.207662211637e-02 0.0 
0.0 0.0 0.0 
-4.811001841921e-04 -3.413271164878e-04 0.0 
-3.413271164878e-04 5.152096499313e-03 0.0 
0.0 0.0 0.0 
-8.021707435846e-04 -1.134137779253e-03 0.0 
-1.134137779253e-03 5.857544143129e-04 0.0 
0.0 0.0 0.0 
-1.094792046619e-03 2.788399829379e-03 0.0 
2.788399829379e-03 1.028047744551e-02 0.0 
0.0 0.0 0.0 
-1.519102586655e-03 2.758084633970e-04 0.0 
2.758084633970e-04 1.059494216753e-02 0.0 
0.0 0.0 0.0 
-3.695378779650e-04 -7.623257306072e-04 0.0 
-7.623257306072e-04 4.178672131966e-03 0.0 
0.0 0.0 0.0 
-5.790960212009e-04 -4.159678092189e-04 0.0 
-4.159678092189e-04 4.842964468230e-03 0.0 
0.0 0.0 0.0 
1.533288673953e-03 -2.580395572759e-03 0.0 
-2.580395572759e-03 -3.730799825541e-04 0.0 
0.0 0.0 0.0 
-6.832834938715e-04 -3.988274851032e-04 0.0 
-3.988274851032e-04 4.841038337635e-03 0.0 
0.0 0.0 0.0 
-1.593812093941e-03 1.587957955570e-04 0.0 
1.587957955570e-04 1.041420546114e-02 0.0 
0.0 0.0 0.0 
2.870675194971e-03 1.878622160028e-03 0.0 
1.878622160028e-03 8.044948594084e-04 0.0 
0.0 0.0 0.0 
-2.751313701654e-05 -5.266909438103e-04 0.0 
-5.266909438103e-04 4.964360725871e-03 0.0 
0.0 0.0 0.0 
-4.970915672332e-04 -4.692098728754e-04 0.0 
-4.692098728754e-04 1.929815645133e-03 0.0 
0.0 0.0 0.0 
2.886365215540e-04 -5.941170860205e-04 0.0 
-5.941170860205e-04 4.150629982827e-03 0.0 
0.0 0.0 0.0 
-1.202693891642e-03 3.788687197999e-04 0.0 
3.788687197999e-04 1.163660442094e-02 0.0 
0.0 0.0 0.0 
-7.063940586506e-04 -6.968478999490e-04 0.0 
-6.968478999490e-04 2.161563022787e-03 0.0 
0.0 0.0 0.0 
4.482027378403e-04 -2.613588094806e-03 0.0 
-2.613588094806e-03 2.748804188555e-04 0.0 
0.0 0.0 0.0 
-1.128980125071e-03 -6.635428289998e-04 0.0 
-6.635428289998e-04 3.790850754401e-03 0.0 
0.0 0.0 0.0 
-1.440509064939e-03 4.909973769896e-04 0.0 
4.909973769896e-04 1.109645006504e-02 0.0 
0.0 0.0 0.0 
-5.265236161780e-04 -1.791737102741e-03 0.0 
-1.791737102741e-03 2.085521946114e-03 0.0 
0.0 0.0 0.0 
-1.074930264515e-03 3.272951806666e-04 0.0 
3.272951806666e-04 1.180629159798e-02 0.0 
0.0 0.0 0.0 
-1.347093069195e-03 3.030903832798e-04 0.0 
3.030903832798e-04 1.132276743603e-02 0.0 
0.0 0.0 0.0 
-6.735246330853e-04 -1.345360146648e-03 0.0 
-1.345360146648e-03 3.100760610680e-03 0.0 
0.0 0.0 0.0 
-7.921699467197e-04 -4.554989277310e-04 0.0 
-4.554989277310e-04 4.544596800617e-03 0.0 
0.0 0.0 0.0 
-6.362556016617e-04 -5.581239038548e-04 0.0 
-5.581239038548e-04 4.549560041883e-03 0.0 
0.0 0.0 0.0 
-1.107735634033e-03 4.037455931053e-04 0.0 
4.037455931053e-04 1.163258879564e-02 0.0 
0.0 0.0 0.0 
-1.055519003903e-04 -7.993430485641e-04 0.0 
-7.993430485641e-04 1.365009818308e-03 0.0 
0.0 0.0 0.0 
-9.049783615692e-04 -1.197111653087e-03 0.0 
-1.197111653087e-03 3.231211853861e-03 0.0 
0.0 0.0 0.0 
1.644327941974e-03 2.688905722205e-03 0.0 
2.688905722205e-03 3.130055180675e-03 0.0 
0.0 0.0 0.0 
-1.163460197232e-03 5.088662030012e-04 0.0 
5.088662030012e-04 1.175633515252e-02 0.0 
0.0 0.0 0.0 
-9.420996981263e-04 -1.273070927422e-03 0.0 
-1.273070927422e-03 3.010836355457e-03 0.0 
0.0 0.0 0.0 
2.260422307772e-04 -1.465574709425e-03 0.0 
-1.465574709425e-03 2.335854782953e-03 0.0 
0.0 0.0 0.0 
4.880837281964e-04 -5.760489969715e-04 0.0 
-5.760489969715e-04 3.680819954893e-03 0.0 
0.0 0.0 0.0 
-1.223714724948e-03 4.436738955723e-04 0.0 
4.436738955723e-04 1.146104342413e-02 0.0 
0.0 0.0 0.0 
1.773979561615e-03 -7.937017340386e-04 0.0 
-7.937017340386e-04 -4.561278673971e-03 0.0 
0.0 0.0 0.0 
2.682286239346e-04 -6.939139594790e-04 0.0 
-6.939139594790e-04 6.776975594665e-04 0.0 
0.0 0.0 0.0 
3.739889666705e-03 3.764990674910e-04 0.0 
3.764990674910e-04 -4.060288647301e-03 0.0 
0.0 0.0 0.0 
-4.311986663394e-04 -4.735341623758e-04 0.0 
-4.735341623758e-04 4.877129300786e-03 0.0 
0.0 0.0 0.0 
-1.334729461490e-03 4.725489650295e-04 0.0 
4.725489650295e-04 1.128231218257e-02 0.0 
0.0 0.0 0.0 
-1.148057157536e-03 -4.567944014584e-04 0.0 
-4.567944014584e-04 3.996662325063e-03 0.0 
0.0 0.0 0.0 
-1.533683926137e-03 3.780300106155e-04 0.0 
3.780300106155e-04 1.076205440563e-02 0.0 
0.0 0.0 0.0 
1.420815325513e-03 -1.041124167713e-04 0.0 
-1.041124167713e-04 2.255508607218e-03 0.0 
0.0 0.0 0.0 
-8.403637507636e-04 -1.089194250228e-03 0.0 
-1.089194250228e-03 3.462878031391e-03 0.0 
0.0 0.0 0.0 
-5.002351676079e-04 -5.763254194562e-04 0.0 
-5.763254194562e-04 4.551550096936e-03 0.0 
0.0 0.0 0.0 
-3.887396244360e-04 -5.678014459713e-04 0.0 
-5.678014459713e-04 1.859948443876e-03 0.0 
0.0 0.0 0.0 
1.048178121454e-04 -5.715561441844e-04 0.0 
-5.715561441844e-04 4.563931561804e-03 0.0 
0.0 0.0 0.0 
-8.463331344782e-04 -1.222575371634e-03 0.0 
-1.222575371634e-03 3.082490957763e-03 0.0 
0.0 0.0 0.0 
-5.643175920569e-04 -4.264533305372e-04 0.0 
-4.264533305372e-04 2.118661575788e-03 0.0 
0.0 0.0 0.0 
-1.031751291626e-03 -1.040461682201e-03 0.0 
-1.040461682201e-03 3.206460606161e-03 0.0 
0.0 0.0 0.0 
-7.505755873805e-04 -1.563142403356e-03 0.0 
-1.563142403356e-03 2.448493821526e-03 0.0 
0.0 0.0 0.0 
-3.184015960572e-04 -1.721346634112e-03 0.0 
-1.721346634112e-03 1.535808028017e-03 0.0 
0.0 0.0 0.0 
-1.040176531043e-03 -5.817521357066e-04 0.0 
-5.817521357066e-04 4.019822042165e-03 0.0 
0.0 0.0 0.0 
9.839378396523e-04 -1.357077117362e-04 0.0 
-1.357077117362e-04 -2.866799534987e-04 0.0 
0.0 0.0 0.0 
5.716829336093e-04 -1.952183825934e-04 0.0 
-1.952183825934e-04 -1.157821138076e-04 0.0 
0.0 0.0 0.0 
-6.341470123424e-04 -8.500739915286e-04 0.0 
-8.500739915286e-04 3.892935806221e-03 0.0 
0.0 0.0 0.0 
-2.044563435506e-04 -6.758644812792e-04 0.0 
-6.758644812792e-04 1.607165486736e-03 0.0 
0.0 0.0 0.0 
-2.526334474580e-04 -1.087608821900e-03 0.0 
-1.087608821900e-03 3.377735796603e-03 0.0 
0.0 0.0 0.0 
-3.670219609408e-05 -1.278959068858e-03 0.0 
-1.278959068858e-03 2.882236597848e-03 0.0 
0.0 0.0 0.0 
9.373020992687e-05 -2.150823090429e-03 0.0 
-2.150823090429e-03 1.546763094418e-03 0.0 
0.0 0.0 0.0 
1.743188050962e-03 -2.921943436300e-03 0.0 
-2.921943436300e-03 -8.550039835660e-04 0.0 
0.0 0.0 0.0 
-1.059786328140e-03 8.186758138952e-04 0.0 
8.186758138952e-04 1.194393500562e-02 0.0 
0.0 0.0 0.0 
1.660963676799e-03 3.329061396166e-03 0.0 
3.329061396166e-03 -3.088248556782e-03 0.0 
0.0 0.0 0.0 
-9.404095691812e-04 -1.317402375233e-03 0.0 
-1.317402375233e-03 2.768270973331e-03 0.0 
0.0 0.0 0.0 
1.371370266070e-03 2.623693196783e-04 0.0 
2.623693196783e-04 2.481613636472e-03 0.0 
0.0 0.0 0.0 
-1.994894900387e-04 -6.517395536134e-04 0.0 
-6.517395536134e-04 1.469533368801e-03 0.0 
0.0 0.0 0.0 
-1.559904189879e-03 3.546946174505e-04 0.0 
3.546946174505e-04 1.095815857803e-02 0.0 
0.0 0.0 0.0 
-1.635733972443e-03 2.469202416102e-04 0.0 
2.469202416102e-04 1.059932669227e-02 0.0 
0.0 0.0 0.0 
-8.244781891786e-05 -1.388068959577e-03 0.0 
-1.388068959577e-03 1.056688338223e-03 0.0 
0.0 0.0 0.0 
7.441401216488e-04 -5.351406178896e-04 0.0 
-5.351406178896e-04 3.149289939790e-03 0.0 
0.0 0.0 0.0 
-1.422151810141e-03 7.508545220664e-04 0.0 
7.508545220664e-04 1.151233410712e-02 0.0 
0.0 0.0 0.0 
-4.289812599426e-04 -9.494545434139e-04 0.0 
-9.494545434139e-04 1.664428772081e-03 0.0 
0.0 0.0 0.0 
-9.976950841940e-04 9.945668489479e-04 0.0 
9.945668489479e-04 1.201174969905e-02 0.0 
0.0 0.0 0.0 
-8.431792757061e-04 1.004159995270e-03 0.0 
1.004159995270e-03 1.200931165515e-02 0.0 
0.0 0.0 0.0 
-3.631863531677e-04 -1.024880397328e-03 0.0 
-1.024880397328e-03 1.692170958482e-03 0.0 
0.0 0.0 0.0 
-1.634692485188e-04 3.993678988360e-03 0.0 
3.993678988360e-03 3.522431051188e-03 0.0 
0.0 0.0 0.0 
-2.369769327575e-04 -1.546732562480e-03 0.0 
-1.546732562480e-03 1.392129715688e-03 0.0 
0.0 0.0 0.0 
-5.474371537879e-04 -7.262401470114e-04 0.0 
-7.262401470114e-04 4.214178928592e-03 0.0 
0.0 0.0 0.0 
-9.610077052787e-04 -8.309510097716e-04 0.0 
-8.309510097716e-04 3.765853562609e-03 0.0 
0.0 0.0 0.0 
-9.702573583003e-04 2.410466571335e-03 0.0 
2.410466571335e-03 1.085983827488e-02 0.0 
0.0 0.0 0.0 
-9.267960713204e-04 8.249750968091e-04 0.0 
8.249750968091e-04 1.194273732604e-02 0.0 
0.0 0.0 0.0 
-4.225495232852e-04 -9.015262879151e-04 0.0 
-9.015262879151e-04 3.821987653835e-03 0.0 
0.0 0.0 0.0 
-2.231599259156e-04 -9.138921865513e-04 0.0 
-9.138921865513e-04 3.822712487107e-03 0.0 
0.0 0.0 0.0 
-3.214699864593e-04 -1.495383490920e-03 0.0 
-1.495383490920e-03 1.246694262576e-03 0.0 
0.0 0.0 0.0 
-3.940470433205e-04 -7.458314609511e-04 0.0 
-7.458314609511e-04 4.216279223614e-03 0.0 
0.0 0.0 0.0 
-1.274301644171e-03 7.547388001662e-04 0.0 
7.547388001662e-04 1.151137655604e-02 0.0 
0.0 0.0 0.0 
-1.080120166790e-03 -7.036016312742e-04 0.0 
-7.036016312742e-04 3.746840269701e-03 0.0 
0.0 0.0 0.0 
-1.451611518847e-03 4.546950354678e-04 0.0 
4.546950354678e-04 1.128478535811e-02 0.0 
0.0 0.0 0.0 
-1.271958924135e-03 7.077927532754e-04 0.0 
7.077927532754e-04 1.168933135153e-02 0.0 
0.0 0.0 0.0 
4.253697469711e-03 2.458487857705e-03 0.0 
2.458487857705e-03 -2.073590654604e-03 0.0 
0.0 0.0 0.0 
-9.948896065540e-04 6.705776311965e-04 0.0 
6.705776311965e-04 1.185853182071e-02 0.0 
0.0 0.0 0.0 
-1.091065955364e-03 -1.017692675655e-03 0.0 
-1.017692675655e-03 3.319714431184e-03 0.0 
0.0 0.0 0.0 
-9.872359152810e-04 -9.596199674665e-04 0.0 
-9.596199674665e-04 3.443413068039e-03 0.0 
0.0 0.0 0.0 
-9.085518554525e-04 -1.318249573818e-03 0.0 
-1.318249573818e-03 2.561901468309e-03 0.0 
0.0 0.0 0.0 
5.072350923350e-04 -2.453337841628e-03 0.0 
-2.453337841628e-03 5.839250857971e-04 0.0 
0.0 0.0 0.0 
-1.307885893912e-03 6.037596268033e-04 0.0 
6.037596268033e-04 1.140571898854e-02 0.0 
0.0 0.0 0.0 
1.366726876135e-03 -2.050791170188e-03 0.0 
-2.050791170188e-03 9.729594983154e-05 0.0 
0.0 0.0 0.0 
-3.973044396166e-04 -1.376016719441e-03 0.0 
-1.376016719441e-03 1.669704783789e-03 0.0 
0.0 0.0 0.0 
-1.330914754394e-05 -1.003037568435e-03 0.0 
-1.003037568435e-03 9.142818834735e-04 0.0 
0.0 0.0 0.0 
-1.441046880603e-03 5.937469674632e-04 0.0 
5.937469674632e-04 1.140734099099e-02 0.0 
0.0 0.0 0.0 
-4.668979877008e-04 -1.606776660392e-03 0.0 
-1.606776660392e-03 1.705872334027e-03 0.0 
0.0 0.0 0.0 
3.924162280555e-04 -4.956638978914e-04 0.0 
-4.956638978914e-04 4.140504745971e-03 0.0 
0.0 0.0 0.0 
-1.183126835886e-03 5.718751860716e-04 0.0 
5.718751860716e-04 1.158317323013e-02 0.0 
0.0 0.0 0.0 
-1.800502753114e-04 -7.517886650908e-04 0.0 
-7.517886650908e-04 4.175981985648e-03 0.0 
0.0 0.0 0.0 
5.920897095970e-04 1.178471787114e-03 0.0 
1.178471787114e-03 3.667067791385e-03 0.0 
0.0 0.0 0.0 
-1.035686088991e-03 -1.094246669712e-03 0.0 
-1.094246669712e-03 2.974380568026e-03 0.0 
0.0 0.0 0.0 
-5.113267647304e-04 -1.271499628313e-03 0.0 
-1.271499628313e-03 1.731116729625e-03 0.0 
0.0 0.0 0.0 
-2.970073769759e-04 -1.162284957636e-03 0.0 
-1.162284957636e-03 1.051330733465e-03 0.0 
0.0 0.0 0.0 
1.867664291666e-06 -1.072223714358e-03 0.0 
-1.072223714358e-03 3.262453795184e-03 0.0 
0.0 0.0 0.0 
-1.359226895194e-03 3.630255614260e-04 0.0 
3.630255614260e-04 1.114482233123e-02 0.0 
0.0 0.0 0.0 
-9.162009802188e-05 -8.746160145130e-04 0.0 
-8.746160145130e-04 7.271789046155e-04 0.0 
0.0 0.0 0.0 
-6.126246498498e-04 -1.596624115676e-03 0.0 
-1.596624115676e-03 2.056063780489e-03 0.0 
0.0 0.0 0.0 
-1.344942825757e-04 -3.018042305819e-04 0.0 
-3.018042305819e-04 1.648272079735e-03 0.0 
0.0 0.0 0.0 
-1.568452839223e-03 4.796349656803e-04 0.0 
4.796349656803e-04 1.109819388295e-02 0.0 
0.0 0.0 0.0 
-8.289881954118e-04 -1.362391634263e-03 0.0 
-1.362391634263e-03 2.418234218350e-03 0.0 
0.0 0.0 0.0 
2.455321708641e-04 -1.266342467405e-03 0.0 
-1.266342467405e-03 2.878467480683e-03 0.0 
0.0 0.0 0.0 
-9.308185905538e-04 -1.072051284962e-03 0.0 
-1.072051284962e-03 2.536274840838e-03 0.0 
0.0 0.0 0.0 
-1.019316845318e-03 4.523780615392e-04 0.0 
4.523780615392e-04 1.191918738059e-02 0.0 
0.0 0.0 0.0 
-5.108721426079e-04 -1.734806605270e-03 0.0 
-1.734806605270e-03 1.906146705532e-03 0.0 
0.0 0.0 0.0 
4.880766226101e-04 -1.113741065994e-03 0.0 
-1.113741065994e-03 2.633037781043e-03 0.0 
0.0 0.0 0.0 
1.870636220431e-04 -2.434139031269e-03 0.0 
-2.434139031269e-03 4.578488937483e-04 0.0 
0.0 0.0 0.0 
2.429181942283e-04 -1.229509515937e-03 0.0 
-1.229509515937e-03 2.736097710369e-03 0.0 
0.0 0.0 0.0 
-1.150632299132e-03 -7.698874213248e-04 0.0 
-7.698874213248e-04 3.518604307253e-03 0.0 
0.0 0.0 0.0 
1.828554235472e-05 -8.971806399660e-04 0.0 
-8.971806399660e-04 3.740014249922e-03 0.0 
0.0 0.0 0.0 
4.705949326811e-03 -2.501124926768e-04 0.0 
-2.501124926768e-04 -3.521336318096e-03 0.0 
0.0 0.0 0.0 
-3.494205394234e-04 -5.768431278640e-04 0.0 
-5.768431278640e-04 1.721114450335e-03 0.0 
0.0 0.0 0.0 
-1.550159415519e-03 2.501239405705e-04 0.0 
2.501239405705e-04 1.080477705626e-02 0.0 
0.0 0.0 0.0 
2.802969271761e-03 -3.155386307436e-04 0.0 
-3.155386307436e-04 -3.572703915270e-04 0.0 
0.0 0.0 0.0 
3.975844865676e-04 4.076747121889e-03 0.0 
4.076747121889e-03 3.309551073038e-03 0.0 
0.0 0.0 0.0 
-1.456912208483e-03 3.347496000950e-04 0.0 
3.347496000950e-04 1.114577304727e-02 0.0 
0.0 0.0 0.0 
6.139339029025e-04 -2.791407269718e-03 0.0 
-2.791407269718e-03 -1.210476263824e-04 0.0 
0.0 0.0 0.0 
-1.534228001295e-03 8.072074442764e-04 0.0 
8.072074442764e-04 1.112963203702e-02 0.0 
0.0 0.0 0.0 
2.913429690188e-05 -4.168691550966e-04 0.0 
-4.168691550966e-04 1.372723691428e-03 0.0 
0.0 0.0 0.0 
3.674581307920e-04 -7.121565520115e-04 0.0 
-7.121565520115e-04 3.643350622579e-03 0.0 
0.0 0.0 0.0 
2.824389415294e-03 2.242077874421e-04 0.0 
2.242077874421e-04 5.102502805832e-06 0.0 
0.0 0.0 0.0 
2.492478057287e-03 2.233312544723e-03 0.0 
2.233312544723e-03 1.609244711266e-03 0.0 
0.0 0.0 0.0 
-8.075511866225e-04 9.266082378965e-04 0.0 
9.266082378965e-04 1.217809966929e-02 0.0 
0.0 0.0 0.0 
1.306469420423e-03 -1.850997153501e-03 0.0 
-1.850997153501e-03 4.486247924511e-04 0.0 
0.0 0.0 0.0 
-3.326437287511e-04 -1.043218819041e-03 0.0 
-1.043218819041e-03 1.420895246194e-03 0.0 
0.0 0.0 0.0 
8.581278589264e-04 -1.513693924885e-03 0.0 
-1.513693924885e-03 1.544569303191e-03 0.0 
0.0 0.0 0.0 
6.130651260245e-04 -4.630516351520e-04 0.0 
-4.630516351520e-04 3.662570833104e-03 0.0 
0.0 0.0 0.0 
1.496214676789e-03 -2.803913714097e-03 0.0 
-2.803913714097e-03 -9.453334588349e-04 0.0 
0.0 0.0 0.0 
-2.029704109719e-04 -9.160591998393e-04 0.0 
-9.160591998393e-04 3.744176823918e-03 0.0 
0.0 0.0 0.0 
-1.304401815592e-03 5.551701004815e-04 0.0 
5.551701004815e-04 1.158554018612e-02 0.0 
0.0 0.0 0.0 
2.218145782823e-03 -2.967740405600e-03 0.0 
-2.967740405600e-03 -1.455867129322e-03 0.0 
0.0 0.0 0.0 
5.265984067295e-04 -1.379895430857e-03 0.0 
-1.379895430857e-03 2.163219508433e-03 0.0 
0.0 0.0 0.0 
-1.774311353403e-03 5.096400164514e-04 0.0 
5.096400164514e-04 1.070153304666e-02 0.0 
0.0 0.0 0.0 
-7.175448860859e-04 -7.055476765937e-04 0.0 
-7.055476765937e-04 2.246457992571e-03 0.0 
0.0 0.0 0.0 
-3.766756996493e-04 -1.820948007641e-03 0.0 
-1.820948007641e-03 1.680439734563e-03 0.0 
0.0 0.0 0.0 
8.527353190015e-04 4.029002184654e-03 0.0 
4.029002184654e-03 3.507608718931e-03 0.0 
0.0 0.0 0.0 
2.551477915180e-04 -1.042812542897e-03 0.0 
-1.042812542897e-03 3.256428719364e-03 0.0 
0.0 0.0 0.0 
-5.844795188911e-04 3.945011335228e-03 0.0 
3.945011335228e-03 5.047067249644e-03 0.0 
0.0 0.0 0.0 
1.328942093476e-03 3.961426531828e-03 0.0 
3.961426531828e-03 2.578343974638e-03 0.0 
0.0 0.0 0.0 
-1.407473368118e-03 7.832026850086e-04 0.0 
7.832026850086e-04 1.132512629601e-02 0.0 
0.0 0.0 0.0 
-1.447464258639e-03 3.765656181453e-04 0.0 
3.765656181453e-04 1.095524222227e-02 0.0 
0.0 0.0 0.0 
-1.648068649073e-03 6.496353538446e-04 0.0 
6.496353538446e-04 1.083128528833e-02 0.0 
0.0 0.0 0.0 
-1.037000195464e-03 -9.338131093573e-04 0.0 
-9.338131093573e-04 3.553078217676e-03 0.0 
0.0 0.0 0.0 
1.045012569328e-03 -4.962563895790e-04 0.0 
-4.962563895790e-04 2.618011498003e-03 0.0 
0.0 0.0 0.0 
1.238253815768e-03 -1.611843493299e-03 0.0 
-1.611843493299e-03 8.886580690524e-04 0.0 
0.0 0.0 0.0 
-1.661210621312e-03 3.674725701607e-04 0.0 
3.674725701607e-04 1.076367866666e-02 0.0 
0.0 0.0 0.0 
-9.000915845577e-04 3.038918826224e-03 0.0 
3.038918826224e-03 1.003101116735e-02 0.0 
0.0 0.0 0.0 
2.093785661773e-03 2.518020197163e-03 0.0 
2.518020197163e-03 2.423813054820e-03 0.0 
0.0 0.0 0.0 
5.325502892157e-04 -1.182681468680e-03 0.0 
-1.182681468680e-03 2.727170235827e-03 0.0 
0.0 0.0 0.0 
-1.136159458413e-03 7.166609166375e-04 0.0 
7.166609166375e-04 1.168782976872e-02 0.0 
0.0 0.0 0.0 
1.723839897789e-04 -2.259498253911e-03 0.0 
-2.259498253911e-03 1.063510478505e-03 0.0 
0.0 0.0 0.0 
-1.390068519616e-04 -2.075704476161e-03 0.0 
-2.075704476161e-03 1.406188134315e-03 0.0 
0.0 0.0 0.0 
-1.027382084821e-04 -1.281414228997e-03 0.0 
-1.281414228997e-03 1.212490868292e-03 0.0 
0.0 0.0 0.0 
1.158024885454e-03 -1.307956028811e-03 0.0 
-1.307956028811e-03 1.406714925748e-03 0.0 
0.0 0.0 0.0 
-4.136399162581e-04 -1.847495782999e-03 0.0 
-1.847495782999e-03 1.827708840794e-03 0.0 
0.0 0.0 0.0 
-1.572508236009e-03 6.237322511665e-04 0.0 
6.237322511665e-04 1.122203872842e-02 0.0 
0.0 0.0 0.0 
-1.698156272453e-03 6.493169936896e-04 0.0 
6.493169936896e-04 1.102917749838e-02 0.0 
0.0 0.0 0.0 
4.524130536628e-03 1.346452982145e-03 0.0 
1.346452982145e-03 -2.258725390599e-03 0.0 
0.0 0.0 0.0 
-2.275878150815e-05 -2.182560118385e-03 0.0 
-2.182560118385e-03 1.318985146537e-03 0.0 
0.0 0.0 0.0 
4.556893083038e-03 2.209558103144e-03 0.0 
2.209558103144e-03 -3.278517075342e-03 0.0 
0.0 0.0 0.0 
-2.808348037276e-04 -1.999627100166e-03 0.0 
-1.999627100166e-03 1.707547562851e-03 0.0 
0.0 0.0 0.0 
3.809339187022e-05 -2.205838031845e-03 0.0 
-2.205838031845e-03 1.425206475868e-03 0.0 
0.0 0.0 0.0 
-3.940147261973e-04 -1.403862648392e-03 0.0 
-1.403862648392e-03 1.481690795736e-03 0.0 
0.0 0.0 0.0 
1.377459673250e-03 -4.283805084651e-04 0.0 
-4.283805084651e-04 2.064750400952e-03 0.0 
0.0 0.0 0.0 
1.345706849477e-03 -2.283054701396e-03 0.0 
-2.283054701396e-03 2.410563814959e-04 0.0 
0.0 0.0 0.0 
-1.116779118389e-03 6.539542304474e-04 0.0 
6.539542304474e-04 1.186090666301e-02 0.0 
0.0 0.0 0.0 
1.797138920843e-03 -2.106485264979e-03 0.0 
-2.106485264979e-03 -1.682557128584e-04 0.0 
0.0 0.0 0.0 
1.223696718314e-03 -1.404935059582e-03 0.0 
-1.404935059582e-03 1.525851417574e-03 0.0 
0.0 0.0 0.0 
1.286529350080e-03 -1.896188199374e-03 0.0 
-1.896188199374e-03 7.227721479310e-04 0.0 
0.0 0.0 0.0 
2.495492872341e-03 3.648728343977e-03 0.0 
3.648728343977e-03 9.026002610810e-04 0.0 
0.0 0.0 0.0 
-2.253552125249e-04 -1.162682337362e-03 0.0 
-1.162682337362e-03 1.440706018077e-03 0.0 
0.0 0.0 0.0 
9.121258288196e-04 -4.197073989129e-04 0.0 
-4.197073989129e-04 3.126530432605e-03 0.0 
0.0 0.0 0.0 
8.050168145899e-04 -3.424912292600e-04 0.0 
-3.424912292600e-04 3.319105201441e-03 0.0 
0.0 0.0 0.0 
3.251001080802e-04 3.804004576622e-03 0.0 
3.804004576622e-03 4.976056433219e-03 0.0 
0.0 0.0 0.0 
4.339949985899e-04 -2.337138215650e-03 0.0 
-2.337138215650e-03 1.073934837517e-03 0.0 
0.0 0.0 0.0 
1.249603755754e-03 -1.672711149995e-03 0.0 
-1.672711149995e-03 1.092761223638e-03 0.0 
0.0 0.0 0.0 
-1.427643432837e-03 6.272147224835e-04 0.0 
6.272147224835e-04 1.122114817693e-02 0.0 
0.0 0.0 0.0 
-1.407581739133e-04 -2.042036263845e-03 0.0 
-2.042036263845e-03 1.531468223624e-03 0.0 
0.0 0.0 0.0 
1.084886194449e-03 4.073359648563e-03 0.0 
4.073359648563e-03 2.437147523846e-03 0.0 
0.0 0.0 0.0 
-5.284948098283e-04 -1.520322632159e-03 0.0 
-1.520322632159e-03 1.873140435635e-03 0.0 
0.0 0.0 0.0 
1.221029030920e-03 -2.987435257490e-03 0.0 
-2.987435257490e-03 -8.417964609502e-04 0.0 
0.0 0.0 0.0 
5.482376199766e-04 -2.357697680799e-03 0.0 
-2.357697680799e-03 6.644286390876e-04 0.0 
0.0 0.0 0.0 
-6.392885421712e-04 -1.436775505240e-03 0.0 
-1.436775505240e-03 2.007552196160e-03 0.0 
0.0 0.0 0.0 
-5.351950295941e-04 -8.676267407548e-04 0.0 
-8.676267407548e-04 1.969257770488e-03 0.0 
0.0 0.0 0.0 
9.327220859598e-04 -1.984763104686e-03 0.0 
-1.984763104686e-03 7.384280230092e-04 0.0 
0.0 0.0 0.0 
8.602370247657e-04 -1.305276627987e-03 0.0 
-1.305276627987e-03 2.149820218497e-03 0.0 
0.0 0.0 0.0 
1.211825684333e-04 3.556531176401e-03 0.0 
3.556531176401e-03 6.562442729405e-03 0.0 
0.0 0.0 0.0 
1.223942921762e-03 -1.919734011951e-04 0.0 
-1.919734011951e-04 -3.740922908591e-04 0.0 
0.0 0.0 0.0 
3.206670544899e-03 -1.545834271723e-03 0.0 
-1.545834271723e-03 -1.623156775417e-03 0.0 
0.0 0.0 0.0 
2.234650810520e-03 -2.038933075701e-03 0.0 
-2.038933075701e-03 -7.188253795889e-04 0.0 
0.0 0.0 0.0 
8.857892909631e-04 -2.365072137304e-03 0.0 
-2.365072137304e-03 6.637347632799e-04 0.0 
0.0 0.0 0.0 
-1.541300986049e-03 6.411980196210e-04 0.0 
6.411980196210e-04 1.102959287689e-02 0.0 
0.0 0.0 0.0 
1.332200654460e-03 -2.095067219483e-03 0.0 
-2.095067219483e-03 4.333113787376e-04 0.0 
0.0 0.0 0.0 
-7.172922973848e-04 -1.531741850038e-03 0.0 
-1.531741850038e-03 2.241530613860e-03 0.0 
0.0 0.0 0.0 
9.629839284049e-04 -2.350759191708e-03 0.0 
-2.350759191708e-03 2.536809501661e-04 0.0 
0.0 0.0 0.0 
-1.055230813724e-03 5.297021380808e-04 0.0 
5.297021380808e-04 1.175355442940e-02 0.0 
0.0 0.0 0.0 
-7.327179223758e-04 -1.312369377393e-03 0.0 
-1.312369377393e-03 2.207586121111e-03 0.0 
0.0 0.0 0.0 
-3.709109656402e-05 -8.523123580475e-04 0.0 
-8.523123580475e-04 8.623762731983e-04 0.0 
0.0 0.0 0.0 
-2.762619224339e-04 -1.101749402945e-03 0.0 
-1.101749402945e-03 1.202515271740e-03 0.0 
0.0 0.0 0.0 
1.295576067234e-03 -2.745081499792e-03 0.0 
-2.745081499792e-03 -2.938207199060e-04 0.0 
0.0 0.0 0.0 
3.531888255095e-04 -2.377365718871e-03 0.0 
-2.377365718871e-03 9.870592039765e-04 0.0 
0.0 0.0 0.0 
2.658579892420e-03 -1.689503217299e-03 0.0 
-1.689503217299e-03 -1.075271105507e-03 0.0 
0.0 0.0 0.0 
1.394789775455e-03 -2.246248909428e-03 0.0 
-2.246248909428e-03 -1.426405759924e-04 0.0 
0.0 0.0 0.0 
2.691600851803e-04 -2.584917131689e-03 0.0 
-2.584917131689e-03 1.746162929865e-04 0.0 
0.0 0.0 0.0 
2.461620498573e-05 -8.549245085761e-04 0.0 
-8.549245085761e-04 1.164634662401e-03 0.0 
0.0 0.0 0.0 
-1.967781342557e-03 8.774657434461e-04 0.0 
8.774657434461e-04 1.070116059136e-02 0.0 
0.0 0.0 0.0 
-5.831245159785e-04 -1.199006345989e-03 0.0 
-1.199006345989e-03 1.970997903007e-03 0.0 
0.0 0.0 0.0 
1.533488178558e-03 -5.613841325043e-04 0.0 
-5.613841325043e-04 1.948191644391e-03 0.0 
0.0 0.0 0.0 
3.844913567665e-04 3.569900607795e-03 0.0 
3.569900607795e-03 5.741753522514e-03 0.0 
0.0 0.0 0.0 
-2.022428961280e-03 2.260075013138e-03 0.0 
2.260075013138e-03 9.666800838502e-03 0.0 
0.0 0.0 0.0 
-1.104085413244e-03 1.313621316280e-03 0.0 
1.313621316280e-03 1.167882858437e-02 0.0 
0.0 0.0 0.0 
-6.483098544108e-05 3.533878569656e-03 0.0 
3.533878569656e-03 7.317294521575e-03 0.0 
0.0 0.0 0.0 
4.442951532650e-03 1.967451804424e-03 0.0 
1.967451804424e-03 -2.001112974579e-03 0.0 
0.0 0.0 0.0 
3.740005149921e-04 3.658388208907e-03 0.0 
3.658388208907e-03 5.339373575183e-03 0.0 
0.0 0.0 0.0 
8.389290445940e-04 -3.074092312989e-03 0.0 
-3.074092312989e-03 -5.891327692290e-04 0.0 
0.0 0.0 0.0 
5.665865396853e-04 -2.209080760910e-03 0.0 
-2.209080760910e-03 8.173503815316e-04 0.0 
0.0 0.0 0.0 
3.339750250523e-03 3.476544148366e-03 0.0 
3.476544148366e-03 -1.032162554144e-03 0.0 
0.0 0.0 0.0 
3.504442881363e-03 -2.197885103342e-03 0.0 
-2.197885103342e-03 -2.912502605417e-03 0.0 
0.0 0.0 0.0 
3.115615446057e-04 -2.896472518594e-03 0.0 
-2.896472518594e-03 -1.630503167150e-04 0.0 
0.0 0.0 0.0 
-2.504457394814e-04 -2.004926792452e-03 0.0 
-2.004926792452e-03 1.850810924605e-03 0.0 
0.0 0.0 0.0 
1.821086637956e-03 -2.261028931333e-03 0.0 
-2.261028931333e-03 -6.774617202862e-04 0.0 
0.0 0.0 0.0 
2.254187702729e-03 -1.988266561932e-03 0.0 
-1.988266561932e-03 -1.024863594803e-03 0.0 
0.0 0.0 0.0 
-8.126188672912e-04 -1.252661652214e-03 0.0 
-1.252661652214e-03 2.304299643650e-03 0.0 
0.0 0.0 0.0 
1.749204596590e-03 -1.908720158556e-03 0.0 
-1.908720158556e-03 7.333907565910e-05 0.0 
0.0 0.0 0.0 
2.681863814692e-03 -1.838959297822e-03 0.0 
-1.838959297822e-03 -1.568535853172e-03 0.0 
0.0 0.0 0.0 
3.674802761785e-03 -1.066925636664e-03 0.0 
-1.066925636664e-03 -1.975001274667e-03 0.0 
0.0 0.0 0.0 
1.462118665116e-04 -2.282311821605e-03 0.0 
-2.282311821605e-03 9.740723368044e-04 0.0 
0.0 0.0 0.0 
2.990997603806e-03 1.055383053300e-03 0.0 
1.055383053300e-03 2.136625485183e-04 0.0 
0.0 0.0 0.0 
-1.566223577644e-03 7.897465566531e-04 0.0 
7.897465566531e-04 1.132489987322e-02 0.0 
0.0 0.0 0.0 
4.263318796420e-03 -6.565330050850e-04 0.0 
-6.565330050850e-04 -2.635379295668e-03 0.0 
0.0 0.0 0.0 
1.252524858855e-03 -3.397369161035e-04 0.0 
-3.397369161035e-04 2.593115921435e-03 0.0 
0.0 0.0 0.0 
1.636281311124e-03 -3.193320805152e-03 0.0 
-3.193320805152e-03 -1.418772270196e-03 0.0 
0.0 0.0 0.0 
1.203818058420e-03 2.496146742420e-04 0.0 
2.496146742420e-04 2.994157146163e-03 0.0 
0.0 0.0 0.0 
2.225902922414e-03 -1.843308969805e-03 0.0 
-1.843308969805e-03 -5.395782097033e-04 0.0 
0.0 0.0 0.0 
-1.565643124178e-04 3.581106208795e-03 0.0 
3.581106208795e-03 8.044315535740e-03 0.0 
0.0 0.0 0.0 
-1.020942374801e-03 3.502643769019e-03 0.0 
3.502643769019e-03 7.487343941440e-03 0.0 
0.0 0.0 0.0 
9.236914505344e-04 -2.849078603010e-03 0.0 
-2.849078603010e-03 -1.140225478740e-04 0.0 
0.0 0.0 0.0 
-1.827440043148e-03 2.562049816231e-03 0.0 
2.562049816231e-03 9.406188209124e-03 0.0 
0.0 0.0 0.0 
-1.087167976778e-03 1.828440868927e-03 0.0 
1.828440868927e-03 1.140098960736e-02 0.0 
0.0 0.0 0.0 
2.623491503533e-03 -1.503853859683e-03 0.0 
-1.503853859683e-03 -8.549591169669e-04 0.0 
0.0 0.0 0.0 
2.197122738482e-03 3.975297654593e-03 0.0 
3.975297654593e-03 5.679757183406e-04 0.0 
0.0 0.0 0.0 
-1.584008734814e-03 2.836119065636e-03 0.0 
2.836119065636e-03 9.081870699305e-03 0.0 
0.0 0.0 0.0 
5.179556114510e-04 4.055889659210e-03 0.0 
4.055889659210e-03 3.368047769445e-03 0.0 
0.0 0.0 0.0 
3.435820385647e-04 -2.741469501161e-03 0.0 
-2.741469501161e-03 1.996619659126e-04 0.0 
0.0 0.0 0.0 
-5.298550282148e-04 1.613253826458e-03 0.0 
1.613253826458e-03 1.206239605983e-02 0.0 
0.0 0.0 0.0 
-1.851999204433e-04 -2.266171159003e-03 0.0 
-2.266171159003e-03 6.740799827889e-04 0.0 
0.0 0.0 0.0 
1.536855591740e-03 2.000888043270e-03 0.0 
2.000888043270e-03 3.191987712969e-03 0.0 
0.0 0.0 0.0 
-7.712313523769e-04 7.616342422612e-04 0.0 
7.616342422612e-04 1.210544634436e-02 0.0 
0.0 0.0 0.0 
2.732908305861e-03 7.221628298259e-04 0.0 
7.221628298259e-04 4.896890279318e-04 0.0 
0.0 0.0 0.0 
-1.541294976499e-03 5.027329661596e-04 0.0 
5.027329661596e-04 1.089951690893e-02 0.0 
0.0 0.0 0.0 
-1.345421904851e-03 1.121399099719e-03 0.0 
1.121399099719e-03 1.165003767663e-02 0.0 
0.0 0.0 0.0 
3.154511320828e-03 -1.422074895975e-03 0.0 
-1.422074895975e-03 -1.913863993166e-03 0.0 
0.0 0.0 0.0 
4.224345237651e-03 1.360618504327e-03 0.0 
1.360618504327e-03 -1.803315503550e-03 0.0 
0.0 0.0 0.0 
-8.388913810923e-04 1.458983947407e-03 0.0 
1.458983947407e-03 1.187592678968e-02 0.0 
0.0 0.0 0.0 
7.939451711212e-04 -1.028851380572e-03 0.0 
-1.028851380572e-03 2.617964740289e-03 0.0 
0.0 0.0 0.0 
-1.547067315061e-03 9.742909021467e-04 0.0 
9.742909021467e-04 1.140284836845e-02 0.0 
0.0 0.0 0.0 
2.721855787785e-03 -2.024798133675e-04 0.0 
-2.024798133675e-04 1.506002267542e-04 0.0 
0.0 0.0 0.0 
1.324549866625e-03 -3.059394569153e-03 0.0 
-3.059394569153e-03 -5.944512820250e-04 0.0 
0.0 0.0 0.0 
-1.512511501605e-03 1.177962546084e-03 0.0 
1.177962546084e-03 1.145347770936e-02 0.0 
0.0 0.0 0.0 
2.569668524262e-04 3.782821225327e-03 0.0 
3.782821225327e-03 7.084052239572e-03 0.0 
0.0 0.0 0.0 
9.097528255444e-04 -1.773155396879e-04 0.0 
-1.773155396879e-04 3.281151702844e-03 0.0 
0.0 0.0 0.0 
9.079178376299e-04 -2.199716232087e-03 0.0 
-2.199716232087e-03 8.139398382010e-04 0.0 
0.0 0.0 0.0 
-1.677995077716e-03 4.946870568989e-04 0.0 
4.946870568989e-04 1.090056151712e-02 0.0 
0.0 0.0 0.0 
-1.632230500481e-03 5.037710838241e-04 0.0 
5.037710838241e-04 1.070173915640e-02 0.0 
0.0 0.0 0.0 
1.822342187727e-03 -2.051816670783e-03 0.0 
-2.051816670783e-03 -5.051892128679e-04 0.0 
0.0 0.0 0.0 
1.148201741030e-03 -1.106299488062e-03 0.0 
-1.106299488062e-03 2.018478018042e-03 0.0 
0.0 0.0 0.0 
1.374638578816e-03 -8.526980529583e-04 0.0 
-8.526980529583e-04 1.946160228871e-03 0.0 
0.0 0.0 0.0 
2.099975040970e-05 -9.497273975949e-04 0.0 
-9.497273975949e-04 1.015965955476e-03 0.0 
0.0 0.0 0.0 
4.291278616785e-03 2.405530294017e-03 0.0 
2.405530294017e-03 -3.452060983124e-03 0.0 
0.0 0.0 0.0 
4.511006320402e-03 -1.262079773586e-05 0.0 
-1.262079773586e-05 -2.724102248711e-03 0.0 
0.0 0.0 0.0 
3.800086499625e-03 -1.167666015441e-03 0.0 
-1.167666015441e-03 -2.546381362440e-03 0.0 
0.0 0.0 0.0 
1.540601136593e-03 3.962812455870e-03 0.0 
3.962812455870e-03 1.659039595774e-03 0.0 
0.0 0.0 0.0 
-8.163165073142e-04 1.388223062636e-03 0.0 
1.388223062636e-03 1.207187518728e-02 0.0 
0.0 0.0 0.0 
-9.317392662775e-04 2.740112922419e-03 0.0 
2.740112922419e-03 1.028552397876e-02 0.0 
0.0 0.0 0.0 
-8.868013888926e-04 7.439110280310e-04 0.0 
7.439110280310e-04 1.210700999874e-02 0.0 
0.0 0.0 0.0 
-9.632419798011e-04 3.758169390151e-03 0.0 
3.758169390151e-03 5.849632375826e-03 0.0 
0.0 0.0 0.0 
-1.348318363813e-03 1.652521970049e-03 0.0 
1.652521970049e-03 1.121611512103e-02 0.0 
0.0 0.0 0.0 
8.037435507098e-04 -1.219551347828e-03 0.0 
-1.219551347828e-03 2.037683683076e-03 0.0 
0.0 0.0 0.0 
-7.685860724557e-04 1.185396073606e-03 0.0 
1.185396073606e-03 1.204975859732e-02 0.0 
0.0 0.0 0.0 
-1.668523144807e-03 1.231009864155e-03 0.0 
1.231009864155e-03 1.124429701835e-02 0.0 
0.0 0.0 0.0 
9.638354636794e-04 -2.170531649851e-03 0.0 
-2.170531649851e-03 4.472245370803e-04 0.0 
0.0 0.0 0.0 
4.783912452592e-03 6.108475877732e-04 0.0 
6.108475877732e-04 -2.937230379733e-03 0.0 
0.0 0.0 0.0 
-1.331119207861e-03 1.155871668570e-03 0.0 
1.155871668570e-03 1.145543643563e-02 0.0 
0.0 0.0 0.0 
-1.100033655750e-03 1.261195008129e-03 0.0 
1.261195008129e-03 1.187254912829e-02 0.0 
0.0 0.0 0.0 
-1.231365870370e-03 9.222833317657e-04 0.0 
9.222833317657e-04 1.159307664090e-02 0.0 
0.0 0.0 0.0 
-1.376049549323e-03 9.604627221237e-04 0.0 
9.604627221237e-04 1.140387852728e-02 0.0 
0.0 0.0 0.0 
8.304841224782e-04 -6.128333825464e-04 0.0 
-6.128333825464e-04 3.093357790624e-03 0.0 
0.0 0.0 0.0 
1.633376670297e-03 2.258822392629e-03 0.0 
2.258822392629e-03 3.132180547538e-03 0.0 
0.0 0.0 0.0 
1.167696938305e-03 -6.024609911891e-04 0.0 
-6.024609911891e-04 2.529421067945e-03 0.0 
0.0 0.0 0.0 
8.740332267285e-04 -1.575192312310e-03 0.0 
-1.575192312310e-03 1.731918732930e-03 0.0 
0.0 0.0 0.0 
-1.926909871957e-03 2.249906478305e-03 0.0 
2.249906478305e-03 7.826993015574e-03 0.0 
0.0 0.0 0.0 
2.542498771919e-03 1.179651402579e-03 0.0 
1.179651402579e-03 1.050960436810e-03 0.0 
0.0 0.0 0.0 
-1.618469997347e-03 1.792188302333e-03 0.0 
1.792188302333e-03 1.067020776626e-02 0.0 
0.0 0.0 0.0 
-6.573245758539e-04 -1.130844408160e-03 0.0 
-1.130844408160e-03 2.009735680149e-03 0.0 
0.0 0.0 0.0 
4.170631908683e-03 -5.579400462120e-04 0.0 
-5.579400462120e-04 -2.634052310383e-03 0.0 
0.0 0.0 0.0 
3.709735461565e-03 -3.519762314037e-04 0.0 
-3.519762314037e-04 -1.699079651442e-03 0.0 
0.0 0.0 0.0 
3.749414848492e-03 1.392819009773e-03 0.0 
1.392819009773e-03 -9.753751728012e-04 0.0 
0.0 0.0 0.0 
4.264312541338e-03 -4.406179342898e-04 0.0 
-4.406179342898e-04 -4.034327667950e-03 0.0 
0.0 0.0 0.0 
4.558879762601e-03 -1.337122292671e-05 0.0 
-1.337122292671e-05 -2.830458555479e-03 0.0 
0.0 0.0 0.0 
3.201105095613e-03 1.440659186763e-03 0.0 
1.440659186763e-03 3.006488571744e-05 0.0 
0.0 0.0 0.0 
-1.560976674334e-03 2.971110421930e-03 0.0 
2.971110421930e-03 7.278144523100e-03 0.0 
0.0 0.0 0.0 
8.917373672768e-04 -2.016911503745e-03 0.0 
-2.016911503745e-03 1.051549215434e-03 0.0 
0.0 0.0 0.0 
-1.832030273915e-03 1.060464471831e-03 0.0 
1.060464471831e-03 1.098816154388e-02 0.0 
0.0 0.0 0.0 
-1.666631182802e-03 2.649579828084e-04 0.0 
2.649579828084e-04 1.015959743624e-02 0.0 
0.0 0.0 0.0 
-1.439450556701e-03 3.397315227532e-03 0.0 
3.397315227532e-03 1.647381066232e-03 0.0 
0.0 0.0 0.0 
8.946339283269e-04 -1.772778856134e-03 0.0 
-1.772778856134e-03 1.110122341950e-03 0.0 
0.0 0.0 0.0 
2.579897422057e-03 7.141024368526e-04 0.0 
7.141024368526e-04 7.934272282046e-04 0.0 
0.0 0.0 0.0 
-8.321274251214e-04 2.646517736067e-03 0.0 
2.646517736067e-03 1.065074492333e-02 0.0 
0.0 0.0 0.0 
4.455850309727e-03 1.258184244370e-03 0.0 
1.258184244370e-03 -2.370759256739e-03 0.0 
0.0 0.0 0.0 
8.751293255118e-04 -1.813265435535e-03 0.0 
-1.813265435535e-03 1.362821037483e-03 0.0 
0.0 0.0 0.0 
-1.704362475122e-03 8.227852139620e-04 0.0 
8.227852139620e-04 1.112841528526e-02 0.0 
0.0 0.0 0.0 
-1.322114086444e-03 3.353985494606e-03 0.0 
3.353985494606e-03 2.870012819796e-03 0.0 
0.0 0.0 0.0 
2.837314541703e-03 1.021032195477e-03 0.0 
1.021032195477e-03 4.440745873755e-04 0.0 
0.0 0.0 0.0 
4.016863256214e-03 8.083554917304e-04 0.0 
8.083554917304e-04 -1.718865091750e-03 0.0 
0.0 0.0 0.0 
-1.762591388879e-03 3.046742066070e-03 0.0 
3.046742066070e-03 7.818558097019e-03 0.0 
0.0 0.0 0.0 
1.053784936440e-03 -9.962865798678e-04 0.0 
-9.962865798678e-04 1.969663022100e-03 0.0 
0.0 0.0 0.0 
2.862899251378e-03 -2.829880314588e-03 0.0 
-2.829880314588e-03 -2.828706411986e-03 0.0 
0.0 0.0 0.0 
1.250781340381e-03 -7.309907938874e-04 0.0 
-7.309907938874e-04 1.975613962807e-03 0.0 
0.0 0.0 0.0 
1.257025332240e-03 -6.026820814065e-05 0.0 
-6.026820814065e-05 2.736446822300e-03 0.0 
0.0 0.0 0.0 
3.038520805779e-03 1.367436271201e-03 0.0 
1.367436271201e-03 1.665951056817e-04 0.0 
0.0 0.0 0.0 
-1.390964812113e-03 9.279072071661e-04 0.0 
9.279072071661e-04 1.159297431343e-02 0.0 
0.0 0.0 0.0 
1.126096667171e-03 3.354790650240e-03 0.0 
3.354790650240e-03 4.490146170020e-03 0.0 
0.0 0.0 0.0 
1.095647836642e-03 -2.165915887360e-04 0.0 
-2.165915887360e-04 2.756915240543e-03 0.0 
0.0 0.0 0.0 
-1.396229075402e-03 3.214591135929e-03 0.0 
3.214591135929e-03 4.064940521039e-03 0.0 
0.0 0.0 0.0 
-1.695062372527e-03 1.017777591924e-03 0.0 
1.017777591924e-03 1.120183382121e-02 0.0 
0.0 0.0 0.0 
1.337187416121e-03 2.772737927076e-03 0.0 
2.772737927076e-03 3.896334068045e-03 0.0 
0.0 0.0 0.0 
-1.175442904544e-03 1.110578976710e-03 0.0 
1.110578976710e-03 1.165072290294e-02 0.0 
0.0 0.0 0.0 
3.513094281808e-03 1.301135170085e-03 0.0 
1.301135170085e-03 -7.340050378084e-04 0.0 
0.0 0.0 0.0 
4.638429577103e-03 6.886113164566e-04 0.0 
6.886113164566e-04 -2.627046463149e-03 0.0 
0.0 0.0 0.0 
-4.031391494753e-04 -1.450324543662e-03 0.0 
-1.450324543662e-03 2.930014680741e-03 0.0 
0.0 0.0 0.0 
2.882716721075e-03 8.143800888307e-04 0.0 
8.143800888307e-04 -4.883398395225e-03 0.0 
0.0 0.0 0.0 
-1.014910401495e-03 1.055871190469e-03 0.0 
1.055871190469e-03 1.183348907553e-02 0.0 
0.0 0.0 0.0 
-8.139585485357e-04 -9.661833865952e-04 0.0 
-9.661833865952e-04 2.280481076932e-03 0.0 
0.0 0.0 0.0 
-2.052670682865e-03 2.984975118067e-03 0.0 
2.984975118067e-03 5.522877660963e-03 0.0 
0.0 0.0 0.0 
8.871863586495e-04 3.525812255766e-03 0.0 
3.525812255766e-03 4.870685073733e-03 0.0 
0.0 0.0 0.0 
-6.873096976032e-04 9.298625806184e-04 0.0 
9.298625806184e-04 1.217719075700e-02 0.0 
0.0 0.0 0.0 
2.071644996170e-03 -3.302550374718e-03 0.0 
-3.302550374718e-03 -2.119296225752e-03 0.0 
0.0 0.0 0.0 
4.050215950639e-04 4.011597721824e-03 0.0 
4.011597721824e-03 4.434885269397e-03 0.0 
0.0 0.0 0.0 
-1.479643939158e-03 1.196809342429e-03 0.0 
1.196809342429e-03 1.124759865140e-02 0.0 
0.0 0.0 0.0 
2.038132860815e-04 -1.876497055248e-03 0.0 
-1.876497055248e-03 1.654034099062e-03 0.0 
0.0 0.0 0.0 
3.924272595335e-03 -1.556458000839e-03 0.0 
-1.556458000839e-03 -3.856145359858e-03 0.0 
0.0 0.0 0.0 
2.350168811230e-03 4.023846838595e-03 0.0 
4.023846838595e-03 -3.116201611021e-04 0.0 
0.0 0.0 0.0 
5.357755843842e-04 -2.968352688807e-03 0.0 
-2.968352688807e-03 -1.526183113323e-04 0.0 
0.0 0.0 0.0 
2.654101434029e-03 -2.750937932563e-03 0.0 
-2.750937932563e-03 -2.189889431600e-03 0.0 
0.0 0.0 0.0 
1.802780181662e-03 -3.228797931327e-03 0.0 
-3.228797931327e-03 -1.174467148780e-03 0.0 
0.0 0.0 0.0 
4.071319320709e-03 1.254168848366e-03 0.0 
1.254168848366e-03 -1.785586562662e-03 0.0 
0.0 0.0 0.0 
-3.722738285763e-04 2.360893095914e-03 0.0 
2.360893095914e-03 1.179683844075e-02 0.0 
0.0 0.0 0.0 
-1.555263069722e-03 1.955408272282e-03 0.0 
1.955408272282e-03 6.747270046431e-03 0.0 
0.0 0.0 0.0 
5.350383146432e-04 -6.116577633805e-04 0.0 
-6.116577633805e-04 3.625959509616e-03 0.0 
0.0 0.0 0.0 
4.689050564455e-03 2.010641525136e-03 0.0 
2.010641525136e-03 -2.815993000117e-03 0.0 
0.0 0.0 0.0 
-1.812569287198e-03 1.289122526746e-03 0.0 
1.289122526746e-03 1.102109865617e-02 0.0 
0.0 0.0 0.0 
3.559204099809e-03 6.761794193542e-04 0.0 
6.761794193542e-04 -4.521848463681e-03 0.0 
0.0 0.0 0.0 
1.067074233718e-03 7.228079809083e-05 0.0 
7.228079809083e-05 2.984143437998e-03 0.0 
0.0 0.0 0.0 
1.116053045991e-03 -3.404785425339e-03 0.0 
-3.404785425339e-03 -1.156279801123e-03 0.0 
0.0 0.0 0.0 
-9.870112461992e-04 -1.044102541993e-03 0.0 
-1.044102541993e-03 2.614472696435e-03 0.0 
0.0 0.0 0.0 
2.710958261370e-03 1.774994279778e-03 0.0 
1.774994279778e-03 8.458639898261e-04 0.0 
0.0 0.0 0.0 
2.654932141712e-03 -1.630817973737e-03 0.0 
-1.630817973737e-03 -1.302567828455e-03 0.0 
0.0 0.0 0.0 
1.702127288252e-03 2.516277881046e-03 0.0 
2.516277881046e-03 3.152277616328e-03 0.0 
0.0 0.0 0.0 
8.508851165010e-04 4.096541096864e-03 0.0 
4.096541096864e-03 2.466667068728e-03 0.0 
0.0 0.0 0.0 
-1.678705036079e-03 1.783170500116e-03 0.0 
1.783170500116e-03 1.094762026648e-02 0.0 
0.0 0.0 0.0 
1.490735735464e-03 2.165674919094e-03 0.0 
2.165674919094e-03 3.167053604006e-03 0.0 
0.0 0.0 0.0 
-1.514673047218e-03 9.921494778582e-04 0.0 
9.921494778582e-04 1.120411425285e-02 0.0 
0.0 0.0 0.0 
-9.858761700657e-04 2.709348881869e-03 0.0 
2.709348881869e-03 1.064218282133e-02 0.0 
0.0 0.0 0.0 
-1.458372030987e-03 1.395916758234e-03 0.0 
1.395916758234e-03 1.147320521521e-02 0.0 
0.0 0.0 0.0 
-1.381098975442e-03 1.625448878306e-03 0.0 
1.625448878306e-03 1.145625001942e-02 0.0 
0.0 0.0 0.0 
3.197866158374e-03 3.425857904168e-03 0.0 
3.425857904168e-03 -2.862799145825e-03 0.0 
0.0 0.0 0.0 
3.991304116435e-04 -7.421053773392e-04 0.0 
-7.421053773392e-04 3.628457178011e-03 0.0 
0.0 0.0 0.0 
-1.425769017212e-03 1.418426367269e-03 0.0 
1.418426367269e-03 1.125280935295e-02 0.0 
0.0 0.0 0.0 
3.742319631074e-03 2.884969988319e-03 0.0 
2.884969988319e-03 -1.363306992967e-03 0.0 
0.0 0.0 0.0 
-1.737568127254e-03 1.573005416719e-03 0.0 
1.573005416719e-03 7.487926604559e-03 0.0 
0.0 0.0 0.0 
1.166294373726e-03 2.328048321336e-03 0.0 
2.328048321336e-03 3.867532876051e-03 0.0 
0.0 0.0 0.0 
4.402191737129e-03 1.596426668429e-03 0.0 
1.596426668429e-03 -4.034534767522e-03 0.0 
0.0 0.0 0.0 
-7.762785884871e-04 -1.000175595727e-03 0.0 
-1.000175595727e-03 2.267578561110e-03 0.0 
0.0 0.0 0.0 
1.987595315554e-03 2.415616594224e-03 0.0 
2.415616594224e-03 2.350351835857e-03 0.0 
0.0 0.0 0.0 
6.527117145638e-05 4.567086952219e-05 0.0 
4.567086952219e-05 1.489415119098e-03 0.0 
0.0 0.0 0.0 
1.873989684952e-03 3.773988249144e-03 0.0 
3.773988249144e-03 1.858078597907e-03 0.0 
0.0 0.0 0.0 
2.577897938061e-03 1.431067144041e-03 0.0 
1.431067144041e-03 1.017229769814e-03 0.0 
0.0 0.0 0.0 
-1.091971974760e-03 1.774318730482e-03 0.0 
1.774318730482e-03 1.163745472817e-02 0.0 
0.0 0.0 0.0 
-9.715426044670e-04 2.037170771386e-03 0.0 
2.037170771386e-03 1.156151396952e-02 0.0 
0.0 0.0 0.0 
2.737324071673e-03 1.504547726353e-03 0.0 
1.504547726353e-03 8.850953299946e-04 0.0 
0.0 0.0 0.0 
-1.282014539035e-03 1.332017564974e-03 0.0 
1.332017564974e-03 1.167726791978e-02 0.0 
0.0 0.0 0.0 
4.359588645922e-03 2.558376757400e-03 0.0 
2.558376757400e-03 -2.282835242349e-03 0.0 
0.0 0.0 0.0 
2.227022164583e-04 3.602238598969e-03 0.0 
3.602238598969e-03 6.190367569697e-03 0.0 
0.0 0.0 0.0 
-1.969729425222e-03 1.327861064531e-03 0.0 
1.327861064531e-03 8.117136597519e-03 0.0 
0.0 0.0 0.0 
-5.847785320111e-04 3.221259196839e-03 0.0 
3.221259196839e-03 9.211459615723e-03 0.0 
0.0 0.0 0.0 
-2.128086289186e-03 1.167611181477e-03 0.0 
1.167611181477e-03 8.727378947873e-03 0.0 
0.0 0.0 0.0 
-2.180933258912e-03 1.108397782181e-03 0.0 
1.108397782181e-03 9.027011665006e-03 0.0 
0.0 0.0 0.0 
4.447317743845e-03 1.857438751575e-03 0.0 
1.857438751575e-03 -2.333243611046e-03 0.0 
0.0 0.0 0.0 
-2.205260195678e-03 1.072888477974e-03 0.0 
1.072888477974e-03 9.303800425071e-03 0.0 
0.0 0.0 0.0 
2.304408891375e-03 3.469043726107e-03 0.0 
3.469043726107e-03 1.581899714159e-03 0.0 
0.0 0.0 0.0 
3.136288293273e-03 3.464535828244e-03 0.0 
3.464535828244e-03 -1.013149416541e-04 0.0 
0.0 0.0 0.0 
4.372865179916e-03 9.187948286294e-05 0.0 
9.187948286294e-05 -2.560893489470e-03 0.0 
0.0 0.0 0.0 
3.808429030117e-03 -1.467929711279e-03 0.0 
-1.467929711279e-03 -3.715199720340e-03 0.0 
0.0 0.0 0.0 
4.705695318191e-03 1.268347063539e-03 0.0 
1.268347063539e-03 -2.715430432766e-03 0.0 
0.0 0.0 0.0 
-9.335491073440e-04 1.256390916604e-03 0.0 
1.256390916604e-03 1.187253138704e-02 0.0 
0.0 0.0 0.0 
-7.246328308245e-04 3.001338604994e-03 0.0 
3.001338604994e-03 1.003279228905e-02 0.0 
0.0 0.0 0.0 
4.804294460736e-04 -9.356278793070e-04 0.0 
-9.356278793070e-04 3.171068980536e-03 0.0 
0.0 0.0 0.0 
1.587058724619e-03 2.416529639656e-03 0.0 
2.416529639656e-03 3.108960529194e-03 0.0 
0.0 0.0 0.0 
3.069543430753e-03 -1.295960311398e-03 0.0 
-1.295960311398e-03 -1.357369747455e-03 0.0 
0.0 0.0 0.0 
-1.190487665891e-03 1.593822209620e-03 0.0 
1.593822209620e-03 1.145937058188e-02 0.0 
0.0 0.0 0.0 
4.581260616013e-03 6.409034224413e-04 0.0 
6.409034224413e-04 -2.644115233065e-03 0.0 
0.0 0.0 0.0 
1.698922392530e-04 -6.760155767409e-04 0.0 
-6.760155767409e-04 4.105320176596e-03 0.0 
0.0 0.0 0.0 
-1.269344501809e-03 1.369576354732e-03 0.0 
1.369576354732e-03 1.147565007858e-02 0.0 
0.0 0.0 0.0 
-1.539717081834e-03 1.701425312666e-03 0.0 
1.701425312666e-03 1.121077448240e-02 0.0 
0.0 0.0 0.0 
3.298423026697e-03 8.892212976109e-04 0.0 
8.892212976109e-04 -4.253623041792e-04 0.0 
0.0 0.0 0.0 
4.630717216537e-03 1.915492617853e-03 0.0 
1.915492617853e-03 -2.590433169609e-03 0.0 
0.0 0.0 0.0 
2.067576226217e-04 3.548433009473e-03 0.0 
3.548433009473e-03 6.562890519263e-03 0.0 
0.0 0.0 0.0 
-1.094514202064e-03 3.345164381917e-03 0.0 
3.345164381917e-03 7.508996141635e-03 0.0 
0.0 0.0 0.0 
3.365611633105e-03 -2.509011009387e-03 0.0 
-2.509011009387e-03 -3.546273523144e-03 0.0 
0.0 0.0 0.0 
4.288806026341e-03 4.186561125085e-04 0.0 
4.186561125085e-04 -3.845209507855e-03 0.0 
0.0 0.0 0.0 
1.281763147059e-03 4.058363543697e-03 0.0 
4.058363543697e-03 1.529717180721e-03 0.0 
0.0 0.0 0.0 
1.935662529633e-04 3.959949300409e-03 0.0 
3.959949300409e-03 4.443132233769e-03 0.0 
0.0 0.0 0.0 
-9.644517081520e-06 -5.977229526920e-04 0.0 
-5.977229526920e-04 4.541991486665e-03 0.0 
0.0 0.0 0.0 
-1.616203758821e-03 1.460895231173e-03 0.0 
1.460895231173e-03 1.124843639339e-02 0.0 
0.0 0.0 0.0 
4.693567247870e-03 1.332528601250e-03 0.0 
1.332528601250e-03 -2.501594851510e-03 0.0 
0.0 0.0 0.0 
1.330152013514e-04 3.854481013423e-03 0.0 
3.854481013423e-03 5.556688314100e-03 0.0 
0.0 0.0 0.0 
2.384260759035e-03 1.139881001433e-03 0.0 
1.139881001433e-03 1.295566701259e-03 0.0 
0.0 0.0 0.0 
-1.172407353956e-03 1.061765863421e-03 0.0 
1.061765863421e-03 1.183335774980e-02 0.0 
0.0 0.0 0.0 
-5.418146275449e-05 3.578357862595e-03 0.0 
3.578357862595e-03 7.312477338508e-03 0.0 
0.0 0.0 0.0 
-1.742249806925e-03 1.279642996460e-03 0.0 
1.279642996460e-03 1.078747722865e-02 0.0 
0.0 0.0 0.0 
1.927968038862e-03 2.653112960168e-04 0.0 
2.653112960168e-04 1.729989482603e-03 0.0 
0.0 0.0 0.0 
4.408686338641e-03 7.353550801024e-04 0.0 
7.353550801024e-04 -2.291760785083e-03 0.0 
0.0 0.0 0.0 
2.295027968261e-03 8.820365110742e-04 0.0 
8.820365110742e-04 1.319554453570e-03 0.0 
0.0 0.0 0.0 
1.598196904224e-03 3.908098248383e-03 0.0 
3.908098248383e-03 1.839579212874e-03 0.0 
0.0 0.0 0.0 
-1.011407453716e-03 1.476547557959e-03 0.0 
1.476547557959e-03 1.187458015937e-02 0.0 
0.0 0.0 0.0 
-2.344893619756e-04 3.584546905770e-03 0.0 
3.584546905770e-03 8.044177921191e-03 0.0 
0.0 0.0 0.0 
3.777765429283e-03 7.516174578427e-04 0.0 
7.516174578427e-04 -1.373602499489e-03 0.0 
0.0 0.0 0.0 
4.208178686068e-03 6.208220513346e-04 0.0 
6.208220513346e-04 -4.337915346131e-03 0.0 
0.0 0.0 0.0 
1.159614933227e-03 3.265219575629e-03 0.0 
3.265219575629e-03 4.162568158111e-03 0.0 
0.0 0.0 0.0 
1.852361918299e-03 3.720980494088e-03 0.0 
3.720980494088e-03 2.131260178709e-03 0.0 
0.0 0.0 0.0 
4.558840795682e-03 1.997721002463e-03 0.0 
1.997721002463e-03 -2.196619340157e-03 0.0 
0.0 0.0 0.0 
3.456592447469e-03 9.196431721866e-04 0.0 
9.196431721866e-04 -6.766529503799e-04 0.0 
0.0 0.0 0.0 
1.729637745292e-03 -3.336780377409e-04 0.0 
-3.336780377409e-04 1.520131238759e-03 0.0 
0.0 0.0 0.0 
3.993935443017e-03 -6.687494761319e-04 0.0 
-6.687494761319e-04 -4.127638117393e-03 0.0 
0.0 0.0 0.0 
4.250002143540e-03 6.679398074687e-04 0.0 
6.679398074687e-04 -2.149165126263e-03 0.0 
0.0 0.0 0.0 
-1.528398406455e-03 2.685177248292e-03 0.0 
2.685177248292e-03 9.101875440940e-03 0.0 
0.0 0.0 0.0 
-1.345903214782e-04 -6.464785250472e-04 0.0 
-6.464785250472e-04 4.549426590302e-03 0.0 
0.0 0.0 0.0 
-1.283737120154e-03 2.941744762440e-03 0.0 
2.941744762440e-03 8.721966170633e-03 0.0 
0.0 0.0 0.0 
9.648891535683e-04 3.449778556992e-03 0.0 
3.449778556992e-03 4.477181651831e-03 0.0 
0.0 0.0 0.0 
-1.729778850600e-03 2.400145660545e-03 0.0 
2.400145660545e-03 9.427095574979e-03 0.0 
0.0 0.0 0.0 
-1.985977206588e-03 1.788103411707e-03 0.0 
1.788103411707e-03 9.881740481746e-03 0.0 
0.0 0.0 0.0 
-7.415293356792e-04 3.530107725420e-03 0.0 
3.530107725420e-03 6.957814783452e-03 0.0 
0.0 0.0 0.0 
1.932149945110e-03 2.131115645932e-03 0.0 
2.131115645932e-03 2.380661582917e-03 0.0 
0.0 0.0 0.0 
4.409489932566e-04 -8.836225881286e-04 0.0 
-8.836225881286e-04 3.126406364620e-03 0.0 
0.0 0.0 0.0 
-1.567988012108e-03 1.472167457006e-03 0.0 
1.472167457006e-03 1.101103252609e-02 0.0 
0.0 0.0 0.0 
-8.071894241436e-04 2.002808300044e-03 0.0 
2.002808300044e-03 1.156517655748e-02 0.0 
0.0 0.0 0.0 
-1.886215104087e-03 2.096987634946e-03 0.0 
2.096987634946e-03 9.688424508998e-03 0.0 
0.0 0.0 0.0 
4.771409317646e-03 1.349276444969e-03 0.0 
1.349276444969e-03 -2.982019858990e-03 0.0 
0.0 0.0 0.0 
9.210615495368e-04 3.303624703395e-03 0.0 
3.303624703395e-03 5.019278916837e-03 0.0 
0.0 0.0 0.0 
-9.119386624420e-04 1.190180560897e-03 0.0 
1.190180560897e-03 1.204968389475e-02 0.0 
0.0 0.0 0.0 
2.663429536309e-03 3.521220334185e-03 0.0 
3.521220334185e-03 1.700022319653e-04 0.0 
0.0 0.0 0.0 
2.090123930008e-03 3.704031709721e-03 0.0 
3.704031709721e-03 1.187207817837e-03 0.0 
0.0 0.0 0.0 
4.795297986061e-03 1.338299607579e-03 0.0 
1.338299607579e-03 -2.711411280564e-03 0.0 
0.0 0.0 0.0 
-1.491582680553e-03 1.717116537436e-03 0.0 
1.717116537436e-03 1.095555342787e-02 0.0 
0.0 0.0 0.0 
-1.747685534650e-04 3.956098697867e-03 0.0 
3.956098697867e-03 4.190567405099e-03 0.0 
0.0 0.0 0.0 
2.367971184834e-03 3.362637557838e-03 0.0 
3.362637557838e-03 1.134125734827e-03 0.0 
0.0 0.0 0.0 
1.776944221166e-05 4.090239785203e-03 0.0 
4.090239785203e-03 4.171436006889e-03 0.0 
0.0 0.0 0.0 
2.354667887796e-03 2.122986828227e-03 0.0 
2.122986828227e-03 1.582932621574e-03 0.0 
0.0 0.0 0.0 
6.533192090634e-04 3.331723767208e-03 0.0 
3.331723767208e-03 5.550072444082e-03 0.0 
0.0 0.0 0.0 
4.767756272118e-03 6.281620470913e-04 0.0 
6.281620470913e-04 -2.851585841867e-03 0.0 
0.0 0.0 0.0 
2.791984682703e-03 -7.844404165850e-04 0.0 
-7.844404165850e-04 -4.624249456889e-03 0.0 
0.0 0.0 0.0 
-8.214771596552e-04 2.342475896153e-03 0.0 
2.342475896153e-03 1.117459607706e-02 0.0 
0.0 0.0 0.0 
-5.839981854097e-04 3.772288708832e-03 0.0 
3.772288708832e-03 5.047410904380e-03 0.0 
0.0 0.0 0.0 
3.441820702238e-03 -8.491541188263e-04 0.0 
-8.491541188263e-04 -1.578234597700e-03 0.0 
0.0 0.0 0.0 
9.718615635590e-04 3.250845251455e-03 0.0 
3.250845251455e-03 4.737812811910e-03 0.0 
0.0 0.0 0.0 
-1.759477917385e-03 1.530763403735e-03 0.0 
1.530763403735e-03 1.100474391570e-02 0.0 
0.0 0.0 0.0 
7.255588133084e-04 -9.446424279423e-04 0.0 
-9.446424279423e-04 2.564043979301e-03 0.0 
0.0 0.0 0.0 
3.729636267356e-03 3.124462913242e-03 0.0 
3.124462913242e-03 -9.814307517156e-04 0.0 
0.0 0.0 0.0 
2.529916685684e-03 -4.250362688796e-04 0.0 
-4.250362688796e-04 -4.995381901331e-03 0.0 
0.0 0.0 0.0 
-2.295768821278e-04 -5.780081314757e-04 0.0 
-5.780081314757e-04 4.960743976324e-03 0.0 
0.0 0.0 0.0 
6.865890735421e-04 3.979903149597e-03 0.0 
3.979903149597e-03 3.731266512934e-03 0.0 
0.0 0.0 0.0 
2.480716160321e-03 2.572811593256e-03 0.0 
2.572811593256e-03 1.667283927071e-03 0.0 
0.0 0.0 0.0 
3.597569018510e-04 3.561198318741e-03 0.0 
3.561198318741e-03 6.182259763808e-03 0.0 
0.0 0.0 0.0 
1.070702911968e-03 -1.592969362326e-05 0.0 
-1.592969362326e-05 -4.739868208888e-03 0.0 
0.0 0.0 0.0 
1.009928955388e-03 -8.319457255347e-04 0.0 
-8.319457255347e-04 2.544908993452e-03 0.0 
0.0 0.0 0.0 
3.222512724825e-03 3.455031657802e-03 0.0 
3.455031657802e-03 -1.085271533658e-03 0.0 
0.0 0.0 0.0 
-1.951379168126e-03 1.345898361234e-03 0.0 
1.345898361234e-03 1.078065868910e-02 0.0 
0.0 0.0 0.0 
2.126105079661e-04 -1.689398322580e-03 0.0 
-1.689398322580e-03 1.972971524061e-03 0.0 
0.0 0.0 0.0 
4.842505229043e-03 1.287077720714e-03 0.0 
1.287077720714e-03 -2.961313106612e-03 0.0 
0.0 0.0 0.0 
1.015317153308e-05 -7.270952293195e-04 0.0 
-7.270952293195e-04 4.114146430075e-03 0.0 
0.0 0.0 0.0 
2.029149944010e-03 3.656609025684e-03 0.0 
3.656609025684e-03 1.554944899226e-03 0.0 
0.0 0.0 0.0 
4.918017671704e-03 1.350233652376e-03 0.0 
1.350233652376e-03 -3.290940197247e-03 0.0 
0.0 0.0 0.0 
5.035410913337e-04 3.941753100714e-03 0.0 
3.941753100714e-03 4.662789552059e-03 0.0 
0.0 0.0 0.0 
2.279719084686e-03 -2.303582385222e-03 0.0 
-2.303582385222e-03 -4.656271712386e-03 0.0 
0.0 0.0 0.0 
5.726369745498e-04 3.641119272495e-03 0.0 
3.641119272495e-03 5.340805847671e-03 0.0 
0.0 0.0 0.0 
2.419227071885e-03 1.890595419984e-03 0.0 
1.890595419984e-03 1.617360959763e-03 0.0 
0.0 0.0 0.0 
-3.363352182467e-04 3.493046309392e-03 0.0 
3.493046309392e-03 8.651517206999e-03 0.0 
0.0 0.0 0.0 
5.176266817228e-04 3.541944116198e-03 0.0 
3.541944116198e-03 5.744981053853e-03 0.0 
0.0 0.0 0.0 
4.590099011937e-03 4.504169876841e-04 0.0 
4.504169876841e-04 -3.588558699175e-03 0.0 
0.0 0.0 0.0 
2.256990546574e-04 -9.942355961884e-04 0.0 
-9.942355961884e-04 3.181868418047e-03 0.0 
0.0 0.0 0.0 
-6.500138068032e-04 1.395410390742e-03 0.0 
1.395410390742e-03 1.207152837330e-02 0.0 
0.0 0.0 0.0 
7.735991439659e-04 2.637529497093e-03 0.0 
2.637529497093e-03 4.584017547806e-03 0.0 
0.0 0.0 0.0 
2.066259703300e-03 2.228485721142e-03 0.0 
2.228485721142e-03 2.377851033824e-03 0.0 
0.0 0.0 0.0 
4.176655768423e-03 2.574406913494e-03 0.0 
2.574406913494e-03 -1.564810010523e-03 0.0 
0.0 0.0 0.0 
5.815934123765e-04 3.797969878458e-03 0.0 
3.797969878458e-03 4.975719732611e-03 0.0 
0.0 0.0 0.0 
-2.786053825623e-04 -5.092628762381e-04 0.0 
-5.092628762381e-04 4.897411167700e-03 0.0 
0.0 0.0 0.0 
-1.205260009982e-03 -5.163399795434e-04 0.0 
-5.163399795434e-04 3.764632940507e-03 0.0 
0.0 0.0 0.0 
6.961368940273e-04 3.571539315129e-03 0.0 
3.571539315129e-03 4.865115086979e-03 0.0 
0.0 0.0 0.0 
-1.618204374409e-03 1.236347127981e-03 0.0 
1.236347127981e-03 1.102646528380e-02 0.0 
0.0 0.0 0.0 
2.031197465266e-04 -8.084941380050e-04 0.0 
-8.084941380050e-04 3.639800775785e-03 0.0 
0.0 0.0 0.0 
9.163163603780e-04 -7.357943802967e-04 0.0 
-7.357943802967e-04 2.551561363898e-03 0.0 
0.0 0.0 0.0 
-1.516556847175e-03 4.403842721932e-05 0.0 
4.403842721932e-05 9.878350289452e-03 0.0 
0.0 0.0 0.0 
-1.496775409106e-03 3.251927604467e-05 0.0 
3.251927604467e-05 9.870329411798e-03 0.0 
0.0 0.0 0.0 
-1.613891186560e-03 2.665334373563e-03 0.0 
2.665334373563e-03 9.538702605938e-03 0.0 
0.0 0.0 0.0 
7.151407903696e-04 3.713096661573e-03 0.0 
3.713096661573e-03 4.434904382199e-03 0.0 
0.0 0.0 0.0 
-7.127233568627e-05 -1.491073488779e-03 0.0 
-1.491073488779e-03 2.530939152842e-03 0.0 
0.0 0.0 0.0 
-8.281530865721e-04 3.448807874084e-03 0.0 
3.448807874084e-03 7.648823947645e-03 0.0 
0.0 0.0 0.0 
2.553783836250e-03 3.453105672016e-03 0.0 
3.453105672016e-03 5.746773140392e-04 0.0 
0.0 0.0 0.0 
1.592112490128e-03 9.592666089162e-04 0.0 
9.592666089162e-04 2.411986575338e-03 0.0 
0.0 0.0 0.0 
3.873947602084e-03 3.008529255797e-03 0.0 
3.008529255797e-03 -1.628010767344e-03 0.0 
0.0 0.0 0.0 
-3.444534348912e-04 2.118529504157e-03 0.0 
2.118529504157e-03 1.198762478417e-02 0.0 
0.0 0.0 0.0 
-2.145984734894e-03 1.601491536812e-03 0.0 
1.601491536812e-03 9.711892985641e-03 0.0 
0.0 0.0 0.0 
2.390721132654e-03 3.552799989473e-03 0.0 
3.552799989473e-03 1.208544435287e-03 0.0 
0.0 0.0 0.0 
5.204071885423e-04 -1.675092896096e-03 0.0 
-1.675092896096e-03 1.968663416319e-03 0.0 
0.0 0.0 0.0 
4.392722870955e-03 1.430399352847e-03 0.0 
1.430399352847e-03 -3.300314617290e-03 0.0 
0.0 0.0 0.0 
5.595887690635e-04 -2.044989856761e-03 0.0 
-2.044989856761e-03 1.057891470841e-03 0.0 
0.0 0.0 0.0 
7.171717246193e-04 3.886764762650e-03 0.0 
3.886764762650e-03 4.038436539485e-03 0.0 
0.0 0.0 0.0 
-1.640190308912e-04 3.851616383357e-03 0.0 
3.851616383357e-03 5.337435152206e-03 0.0 
0.0 0.0 0.0 
-1.698174513691e-03 1.531740962326e-03 0.0 
1.531740962326e-03 1.075603963547e-02 0.0 
0.0 0.0 0.0 
-5.670891317403e-04 3.478130699357e-03 0.0 
3.478130699357e-03 7.161020520347e-03 0.0 
0.0 0.0 0.0 
-6.730056693922e-04 3.412778551564e-03 0.0 
3.412778551564e-03 7.843385311390e-03 0.0 
0.0 0.0 0.0 
8.608028546748e-04 -1.648302085999e-04 0.0 
-1.648302085999e-04 7.126321226840e-04 0.0 
0.0 0.0 0.0 
4.995313789462e-04 -2.062894143337e-03 0.0 
-2.062894143337e-03 1.390150703775e-03 0.0 
0.0 0.0 0.0 
-4.063744947223e-04 3.981374253002e-03 0.0 
3.981374253002e-03 5.022426285875e-03 0.0 
0.0 0.0 0.0 
-1.219364013506e-03 3.129917002681e-03 0.0 
3.129917002681e-03 8.146516771311e-03 0.0 
0.0 0.0 0.0 
-1.302243542182e-03 3.086951158433e-03 0.0 
3.086951158433e-03 8.693296253815e-03 0.0 
0.0 0.0 0.0 
1.804639160238e-03 1.833263377461e-03 0.0 
1.833263377461e-03 2.461810185550e-03 0.0 
0.0 0.0 0.0 
-2.633096473592e-04 -1.379317454578e-04 0.0 
-1.379317454578e-04 1.761882050940e-03 0.0 
0.0 0.0 0.0 
3.605539811550e-03 -1.745870698389e-03 0.0 
-1.745870698389e-03 -4.094805215769e-03 0.0 
0.0 0.0 0.0 
1.127524254609e-03 3.982696965607e-03 0.0 
3.982696965607e-03 2.777184422154e-03 0.0 
0.0 0.0 0.0 
1.994528094651e-04 -2.033535035686e-03 0.0 
-2.033535035686e-03 1.387429526161e-03 0.0 
0.0 0.0 0.0 
-2.374227542526e-03 1.361785973380e-03 0.0 
1.361785973380e-03 8.976906880493e-03 0.0 
0.0 0.0 0.0 
-2.399601921889e-03 1.280490831547e-03 0.0 
1.280490831547e-03 9.275908717721e-03 0.0 
0.0 0.0 0.0 
-1.885242806500e-03 1.613008172722e-03 0.0 
1.613008172722e-03 1.074715236160e-02 0.0 
0.0 0.0 0.0 
2.639904951740e-03 3.432726520712e-03 0.0 
3.432726520712e-03 -1.698973492386e-03 0.0 
0.0 0.0 0.0 
1.742908682991e-04 -1.708394360838e-03 0.0 
-1.708394360838e-03 2.218396852223e-03 0.0 
0.0 0.0 0.0 
2.427354916138e-03 4.478563167063e-04 0.0 
4.478563167063e-04 8.347098644765e-04 0.0 
0.0 0.0 0.0 
3.830220334604e-03 -4.366488016943e-04 0.0 
-4.366488016943e-04 -4.378324699876e-03 0.0 
0.0 0.0 0.0 
1.683584527863e-04 3.532351627273e-03 0.0 
3.532351627273e-03 6.798186147223e-03 0.0 
0.0 0.0 0.0 
-1.197838136872e-03 1.547416618941e-03 0.0 
1.547416618941e-03 1.167523631140e-02 0.0 
0.0 0.0 0.0 
-3.937191836360e-04 -1.604324654487e-03 0.0 
-1.604324654487e-03 2.451350195300e-03 0.0 
0.0 0.0 0.0 
2.171159996573e-04 -8.320822573896e-04 0.0 
-8.320822573896e-04 3.677237946946e-03 0.0 
0.0 0.0 0.0 
6.785868153978e-04 -3.182145601763e-04 0.0 
-3.182145601763e-04 4.616288267534e-04 0.0 
0.0 0.0 0.0 
2.462854551283e-03 -2.404877211797e-05 0.0 
-2.404877211797e-05 4.564077771323e-04 0.0 
0.0 0.0 0.0 
9.167466228384e-04 3.967582803453e-03 0.0 
3.967582803453e-03 3.731838004625e-03 0.0 
0.0 0.0 0.0 
8.454969957143e-04 -2.409884343528e-04 0.0 
-2.409884343528e-04 4.062501721380e-04 0.0 
0.0 0.0 0.0 
-1.018016631958e-03 1.530435346225e-03 0.0 
1.530435346225e-03 1.167639189686e-02 0.0 
0.0 0.0 0.0 
3.370673852495e-03 -7.290513705790e-04 0.0 
-7.290513705790e-04 -4.290165963941e-03 0.0 
0.0 0.0 0.0 
-1.180435707306e-03 3.282875931827e-03 0.0 
3.282875931827e-03 8.122920864254e-03 0.0 
0.0 0.0 0.0 
7.736884521936e-06 3.936395292511e-03 0.0 
3.936395292511e-03 5.325236260763e-03 0.0 
0.0 0.0 0.0 
3.584301449268e-03 -9.337992277795e-04 0.0 
-9.337992277795e-04 -2.135365438939e-03 0.0 
0.0 0.0 0.0 
2.392639329043e-03 -1.109232264592e-03 0.0 
-1.109232264592e-03 1.480176579860e-05 0.0 
0.0 0.0 0.0 
-9.237576769887e-04 1.757952623630e-03 0.0 
1.757952623630e-03 1.163830252621e-02 0.0 
0.0 0.0 0.0 
2.199649710455e-03 -7.844980214999e-04 0.0 
-7.844980214999e-04 6.689479366859e-04 0.0 
0.0 0.0 0.0 
1.612984907722e-03 3.852116863766e-03 0.0 
3.852116863766e-03 2.112768099385e-03 0.0 
0.0 0.0 0.0 
1.376310371794e-03 3.907416459829e-03 0.0 
3.907416459829e-03 2.786925704641e-03 0.0 
0.0 0.0 0.0 
-1.654456567090e-03 3.408478237422e-03 0.0 
3.408478237422e-03 1.063323460706e-03 0.0 
0.0 0.0 0.0 
3.207005237337e-03 -4.846487244045e-04 0.0 
-4.846487244045e-04 -4.605159422817e-03 0.0 
0.0 0.0 0.0 
7.623476790186e-04 3.451693095595e-03 0.0 
3.451693095595e-03 5.326965967190e-03 0.0 
0.0 0.0 0.0 
-2.089603074019e-03 1.818945539759e-03 0.0 
1.818945539759e-03 1.017520977719e-02 0.0 
0.0 0.0 0.0 
8.395748975583e-04 3.405919581521e-03 0.0 
3.405919581521e-03 5.001384584161e-03 0.0 
0.0 0.0 0.0 
2.834125143958e-03 3.873841904780e-03 0.0 
3.873841904780e-03 -1.146474488174e-03 0.0 
0.0 0.0 0.0 
-1.194043864887e-03 2.568236522448e-03 0.0 
2.568236522448e-03 1.012793899417e-02 0.0 
0.0 0.0 0.0 
4.224959337633e-04 3.518849988547e-03 0.0 
3.518849988547e-03 6.185261419569e-03 0.0 
0.0 0.0 0.0 
-2.219014338246e-03 1.403656655968e-03 0.0 
1.403656655968e-03 9.224617636878e-03 0.0 
0.0 0.0 0.0 
6.271503792954e-04 3.479917193185e-03 0.0 
3.479917193185e-03 5.323073885817e-03 0.0 
0.0 0.0 0.0 
7.786021845479e-06 -8.730368910232e-04 0.0 
-8.730368910232e-04 3.685025400072e-03 0.0 
0.0 0.0 0.0 
1.107176120430e-03 3.757799347037e-03 0.0 
3.757799347037e-03 3.483096175546e-03 0.0 
0.0 0.0 0.0 
5.035300971505e-04 -1.883947608247e-03 0.0 
-1.883947608247e-03 1.653421393286e-03 0.0 
0.0 0.0 0.0 
5.461078806464e-04 -1.859651214476e-03 0.0 
-1.859651214476e-03 1.371830595497e-03 0.0 
0.0 0.0 0.0 
-1.023063867463e-03 2.401253822656e-03 0.0 
2.401253822656e-03 1.116139497874e-02 0.0 
0.0 0.0 0.0 
2.495703073611e-03 -1.331211109907e-03 0.0 
-1.331211109907e-03 -4.946069283266e-04 0.0 
0.0 0.0 0.0 
2.840108024438e-04 3.918868490074e-03 0.0 
3.918868490074e-03 4.666938956410e-03 0.0 
0.0 0.0 0.0 
3.518208282548e-03 2.807468257748e-03 0.0 
2.807468257748e-03 -8.550294467693e-04 0.0 
0.0 0.0 0.0 
1.919038778951e-03 -4.843186264709e-04 0.0 
-4.843186264709e-04 1.350147789669e-03 0.0 
0.0 0.0 0.0 
3.045741115002e-03 3.329571928580e-03 0.0 
3.329571928580e-03 1.959244637089e-04 0.0 
0.0 0.0 0.0 
4.806929643406e-03 5.551262226961e-04 0.0 
5.551262226961e-04 -3.754825134102e-03 0.0 
0.0 0.0 0.0 
3.835740073811e-03 1.526929870453e-04 0.0 
1.526929870453e-04 -1.709468051674e-03 0.0 
0.0 0.0 0.0 
4.860714507714e-03 1.387406975148e-03 0.0 
1.387406975148e-03 -3.527378149869e-03 0.0 
0.0 0.0 0.0 
-9.020382021550e-04 3.336185319072e-03 0.0 
3.336185319072e-03 7.665258353422e-03 0.0 
0.0 0.0 0.0 
4.776144665783e-03 4.984164252319e-04 0.0 
4.984164252319e-04 -3.388776779065e-03 0.0 
0.0 0.0 0.0 
-6.018074270344e-04 3.649003080047e-03 0.0 
3.649003080047e-03 6.941025424551e-03 0.0 
0.0 0.0 0.0 
1.967346657724e-03 1.931972433686e-03 0.0 
1.931972433686e-03 2.411092737623e-03 0.0 
0.0 0.0 0.0 
2.266183682000e-03 1.796159864295e-03 0.0 
1.796159864295e-03 1.669591885273e-03 0.0 
0.0 0.0 0.0 
3.288595323906e-03 3.328561534786e-03 0.0 
3.328561534786e-03 -8.232449820176e-04 0.0 
0.0 0.0 0.0 
-1.805371682671e-03 1.602041005724e-03 0.0 
1.602041005724e-03 1.047514508899e-02 0.0 
0.0 0.0 0.0 
2.387111702307e-06 -7.243859085178e-04 0.0 
-7.243859085178e-04 4.136645157656e-03 0.0 
0.0 0.0 0.0 
-1.690448866664e-04 -7.551955906041e-04 0.0 
-7.551955906041e-04 4.142699541910e-03 0.0 
0.0 0.0 0.0 
1.489239715482e-03 3.544853913955e-03 0.0 
3.544853913955e-03 -1.378689840863e-03 0.0 
0.0 0.0 0.0 
-3.574813410563e-04 3.640952007708e-03 0.0 
3.640952007708e-03 6.398081555132e-03 0.0 
0.0 0.0 0.0 
-1.479494034275e-04 -5.191156563061e-04 0.0 
-5.191156563061e-04 4.946300100792e-03 0.0 
0.0 0.0 0.0 
-1.340380408068e-03 3.057519297995e-03 0.0 
3.057519297995e-03 6.081174930608e-03 0.0 
0.0 0.0 0.0 
-3.541550655292e-04 -1.453865050609e-03 0.0 
-1.453865050609e-03 2.727511940098e-03 0.0 
0.0 0.0 0.0 
-1.808126787086e-03 3.406803687844e-03 0.0 
3.406803687844e-03 1.647962683661e-03 0.0 
0.0 0.0 0.0 
-1.631233174757e-04 -6.155349997061e-04 0.0 
-6.155349997061e-04 4.544276569604e-03 0.0 
0.0 0.0 0.0 
4.655852557696e-03 1.470255673692e-03 0.0 
1.470255673692e-03 -3.746358684898e-03 0.0 
0.0 0.0 0.0 
-1.176616363278e-03 -4.159267400710e-04 0.0 
-4.159267400710e-04 3.987530791330e-03 0.0 
0.0 0.0 0.0 
2.318574906762e-03 2.815078475681e-03 0.0 
2.815078475681e-03 1.638933166211e-03 0.0 
0.0 0.0 0.0 
-2.000266935584e-03 1.699111245605e-03 0.0 
1.699111245605e-03 1.046336146859e-02 0.0 
0.0 0.0 0.0 
-1.924363032870e-03 1.691517459098e-03 0.0 
1.691517459098e-03 1.019110324717e-02 0.0 
0.0 0.0 0.0 
1.146427868785e-03 3.913871883228e-03 0.0 
3.913871883228e-03 3.075883382578e-03 0.0 
0.0 0.0 0.0 
-2.272059513050e-03 1.585435529567e-03 0.0 
1.585435529567e-03 8.361107858901e-03 0.0 
0.0 0.0 0.0 
-2.326799814169e-03 1.464422360942e-03 0.0 
1.464422360942e-03 8.681728104944e-03 0.0 
0.0 0.0 0.0 
-2.979965451414e-04 -6.420233936565e-04 0.0 
-6.420233936565e-04 4.549533010446e-03 0.0 
0.0 0.0 0.0 
2.235858171351e-03 -9.674164259009e-04 0.0 
-9.674164259009e-04 5.659777247446e-05 0.0 
0.0 0.0 0.0 
3.351225683910e-03 -7.403803910638e-04 0.0 
-7.403803910638e-04 -1.632543984405e-03 0.0 
0.0 0.0 0.0 
2.702942527072e-03 2.762031243668e-04 0.0 
2.762031243668e-04 4.180622153009e-04 0.0 
0.0 0.0 0.0 
4.240474992204e-03 9.652593377435e-05 0.0 
9.652593377435e-05 -2.260304645396e-03 0.0 
0.0 0.0 0.0 
4.632434253550e-03 1.350624456317e-03 0.0 
1.350624456317e-03 -3.144330865536e-03 0.0 
0.0 0.0 0.0 
-2.061112733743e-03 1.227775912471e-03 0.0 
1.227775912471e-03 8.440077782248e-03 0.0 
0.0 0.0 0.0 
-2.244833187136e-03 1.634342032076e-03 0.0 
1.634342032076e-03 9.982475599941e-03 0.0 
0.0 0.0 0.0 
-1.515926914617e-03 3.779899375398e-05 0.0 
3.779899375398e-05 9.870539124716e-03 0.0 
0.0 0.0 0.0 
2.283155844031e-03 1.575775320877e-03 0.0 
1.575775320877e-03 1.700723341569e-03 0.0 
0.0 0.0 0.0 
3.661111086928e-03 3.020955914492e-03 0.0 
3.020955914492e-03 -7.806221428854e-04 0.0 
0.0 0.0 0.0 
1.176436193473e-03 2.449385907419e-03 0.0 
2.449385907419e-03 3.843475553342e-03 0.0 
0.0 0.0 0.0 
-6.168885173544e-04 -2.655104800078e-04 0.0 
-2.655104800078e-04 5.092789590666e-03 0.0 
0.0 0.0 0.0 
4.088810471803e-03 2.118232312296e-04 0.0 
2.118232312296e-04 -2.076298757961e-03 0.0 
0.0 0.0 0.0 
-8.001900524301e-05 -5.836043737861e-04 0.0 
-5.836043737861e-04 4.970580670810e-03 0.0 
0.0 0.0 0.0 
4.689620304109e-03 -2.619258126880e-04 0.0 
-2.619258126880e-04 -3.404073023988e-03 0.0 
0.0 0.0 0.0 
1.255116436332e-03 2.692587584436e-03 0.0 
2.692587584436e-03 3.838716509959e-03 0.0 
0.0 0.0 0.0 
1.408516679021e-03 3.827542433468e-03 0.0 
3.827542433468e-03 3.087389522744e-03 0.0 
0.0 0.0 0.0 
1.457510412279e-03 3.533484275433e-03 0.0 
3.533484275433e-03 3.024743828397e-03 0.0 
0.0 0.0 0.0 
1.686524047105e-03 4.310394340704e-04 0.0 
4.310394340704e-04 2.074284004777e-03 0.0 
0.0 0.0 0.0 
9.249306202392e-04 -2.512410692953e-03 0.0 
-2.512410692953e-03 1.566752810829e-04 0.0 
0.0 0.0 0.0 
-7.070136424769e-05 3.806537084065e-03 0.0 
3.806537084065e-03 5.562818270420e-03 0.0 
0.0 0.0 0.0 
3.907626550835e-03 -3.713275413372e-04 0.0 
-3.713275413372e-04 -2.187108242656e-03 0.0 
0.0 0.0 0.0 
-3.284184268162e-04 3.816776842238e-03 0.0 
3.816776842238e-03 6.160657870894e-03 0.0 
0.0 0.0 0.0 
2.741216472758e-03 3.746975615534e-03 0.0 
3.746975615534e-03 -2.732305176402e-04 0.0 
0.0 0.0 0.0 
1.738848165063e-03 3.293372730384e-03 0.0 
3.293372730384e-03 2.694308128014e-03 0.0 
0.0 0.0 0.0 
4.040416802385e-03 -5.073946305347e-04 0.0 
-5.073946305347e-04 -2.206433307175e-03 0.0 
0.0 0.0 0.0 
2.137317983961e-04 -1.499085396521e-03 0.0 
-1.499085396521e-03 2.530306774796e-03 0.0 
0.0 0.0 0.0 
-4.772791222446e-04 3.707159461398e-03 0.0 
3.707159461398e-03 6.175967192814e-03 0.0 
0.0 0.0 0.0 
-9.961358774490e-04 4.167586120796e-03 0.0 
4.167586120796e-03 -6.244726702254e-04 0.0 
0.0 0.0 0.0 
3.138303709043e-03 2.761149084844e-03 0.0 
2.761149084844e-03 -1.216905047896e-04 0.0 
0.0 0.0 0.0 
-8.486426363411e-04 3.791323180778e-03 0.0 
3.791323180778e-03 1.194199807427e-03 0.0 
0.0 0.0 0.0 
2.629892700279e-06 -7.934562319022e-04 0.0 
-7.934562319022e-04 1.013196170104e-03 0.0 
0.0 0.0 0.0 
-1.043959209565e-04 -1.503001740674e-03 0.0 
-1.503001740674e-03 2.734202250078e-03 0.0 
0.0 0.0 0.0 
-6.682324011664e-05 3.551240941025e-03 0.0 
3.551240941025e-03 6.974069402161e-03 0.0 
0.0 0.0 0.0 
-1.822596901166e-03 1.968642930948e-03 0.0 
1.968642930948e-03 1.004163660010e-02 0.0 
0.0 0.0 0.0 
-2.111501052787e-03 1.926953782643e-03 0.0 
1.926953782643e-03 7.688156371874e-03 0.0 
0.0 0.0 0.0 
0.0 2.159160832028e-03 0.0 
2.159160832028e-03 1.190324539263e-02 0.0 
0.0 0.0 0.0 
-2.104244286649e-03 3.785369106500e-03 0.0 
3.785369106500e-03 3.862310962248e-04 0.0 
0.0 0.0 0.0 
-2.173496943140e-03 1.746077308703e-03 0.0 
1.746077308703e-03 8.049242986333e-03 0.0 
0.0 0.0 0.0 
3.220625631525e-03 -7.021677409749e-04 0.0 
-7.021677409749e-04 -1.237795992969e-03 0.0 
0.0 0.0 0.0 
-6.154822228093e-04 -1.361714720328e-03 0.0 
-1.361714720328e-03 2.916951061964e-03 0.0 
0.0 0.0 0.0 
-2.153794549182e-03 2.424214461264e-03 0.0 
2.424214461264e-03 8.180370484833e-03 0.0 
0.0 0.0 0.0 
3.897701513761e-03 -1.471883314037e-03 0.0 
-1.471883314037e-03 -2.613788386584e-03 0.0 
0.0 0.0 0.0 
2.461843073032e-03 -1.267245471885e-03 0.0 
-1.267245471885e-03 -6.151930390763e-04 0.0 
0.0 0.0 0.0 
9.760224710902e-04 3.853915276897e-03 0.0 
3.853915276897e-03 4.041905316962e-03 0.0 
0.0 0.0 0.0 
2.753464954496e-03 2.572978822449e-03 0.0 
2.572978822449e-03 7.759187481988e-04 0.0 
0.0 0.0 0.0 
-5.781245692169e-04 3.283262353722e-03 0.0 
3.283262353722e-03 8.687285082577e-03 0.0 
0.0 0.0 0.0 
2.555313220175e-03 3.791134753510e-03 0.0 
3.791134753510e-03 -2.865390376771e-03 0.0 
0.0 0.0 0.0 
-1.548710046885e-04 -1.677835258926e-03 0.0 
-1.677835258926e-03 2.461289192884e-03 0.0 
0.0 0.0 0.0 
-6.028384350852e-04 -1.209011151012e-03 0.0 
-1.209011151012e-03 3.344785227441e-03 0.0 
0.0 0.0 0.0 
9.308297250787e-05 -2.230418547769e-03 0.0 
-2.230418547769e-03 9.479614513934e-04 0.0 
0.0 0.0 0.0 
-2.228982308512e-03 1.348025097487e-03 0.0 
1.348025097487e-03 9.539626972880e-03 0.0 
0.0 0.0 0.0 
-1.975043566989e-03 2.104445308393e-03 0.0 
2.104445308393e-03 1.002334640260e-02 0.0 
0.0 0.0 0.0 
-8.897270771101e-04 -1.273464061003e-04 0.0 
-1.273464061003e-04 4.747483142487e-03 0.0 
0.0 0.0 0.0 
1.270930309690e-03 -3.118936748723e-04 0.0 
-3.118936748723e-04 2.006187874914e-04 0.0 
0.0 0.0 0.0 
1.557265024921e-04 -6.635500448162e-04 0.0 
-6.635500448162e-04 -4.525268508978e-03 0.0 
0.0 0.0 0.0 
-5.503164515519e-05 -1.840888489255e-03 0.0 
-1.840888489255e-03 9.706626594279e-04 0.0 
0.0 0.0 0.0 
-7.878612272119e-04 -1.112009285276e-03 0.0 
-1.112009285276e-03 3.330170013373e-03 0.0 
0.0 0.0 0.0 
4.642572471370e-03 -1.427506375165e-04 0.0 
-1.427506375165e-04 -3.073801608220e-03 0.0 
0.0 0.0 0.0 
3.892939571326e-03 -1.610939532290e-03 0.0 
-1.610939532290e-03 -3.021558031926e-03 0.0 
0.0 0.0 0.0 
4.549142752288e-03 -3.986349331045e-04 0.0 
-3.986349331045e-04 -3.610779419468e-03 0.0 
0.0 0.0 0.0 
-3.366611269874e-04 -1.282226408823e-03 0.0 
-1.282226408823e-03 3.198992072780e-03 0.0 
0.0 0.0 0.0 
-1.505704792672e-03 2.527435911040e-03 0.0 
2.527435911040e-03 9.564545833269e-03 0.0 
0.0 0.0 0.0 
-7.566629964216e-04 -9.642722853658e-04 0.0 
-9.642722853658e-04 3.702479127514e-03 0.0 
0.0 0.0 0.0 
4.881727907514e-03 5.921587113180e-04 0.0 
5.921587113180e-04 -3.195484109167e-03 0.0 
0.0 0.0 0.0 
-1.860311895489e-04 3.712625589991e-03 0.0 
3.712625589991e-03 6.388028372211e-03 0.0 
0.0 0.0 0.0 
-1.867227516960e-03 6.883395143573e-04 0.0 
6.883395143573e-04 1.039772657117e-02 0.0 
0.0 0.0 0.0 
1.981641018358e-03 2.712863097964e-03 0.0 
2.712863097964e-03 2.400312312323e-03 0.0 
0.0 0.0 0.0 
-9.130815419984e-04 -8.617852649646e-04 0.0 
-8.617852649646e-04 3.686435263089e-03 0.0 
0.0 0.0 0.0 
-5.578830269608e-04 -1.218948838905e-03 0.0 
-1.218948838905e-03 3.189601752460e-03 0.0 
0.0 0.0 0.0 
-2.016951153318e-03 2.342238148825e-03 0.0 
2.342238148825e-03 7.071041261648e-03 0.0 
0.0 0.0 0.0 
4.295653055326e-03 -7.114300573310e-04 0.0 
-7.114300573310e-04 -2.865153346146e-03 0.0 
0.0 0.0 0.0 
-8.699739957568e-04 -7.208952013946e-04 0.0 
-7.208952013946e-04 4.011931755296e-03 0.0 
0.0 0.0 0.0 
-1.263854847489e-03 7.437071990343e-05 0.0 
7.437071990343e-05 1.122626821755e-02 0.0 
0.0 0.0 0.0 
-1.367850456770e-03 6.235876639527e-05 0.0 
6.235876639527e-05 1.090435725322e-02 0.0 
0.0 0.0 0.0 
-2.044151416548e-03 2.126658598367e-03 0.0 
2.126658598367e-03 7.386411538452e-03 0.0 
0.0 0.0 0.0 
-5.246635623198e-04 -1.053835256036e-03 0.0 
-1.053835256036e-03 3.608934135488e-03 0.0 
0.0 0.0 0.0 
2.761114454696e-03 -2.384165676624e-03 0.0 
-2.384165676624e-03 -2.125502164066e-03 0.0 
0.0 0.0 0.0 
1.160728473590e-04 4.080924949634e-03 0.0 
4.080924949634e-03 7.578762309983e-04 0.0 
0.0 0.0 0.0 
1.285100276343e-03 2.545121521116e-03 0.0 
2.545121521116e-03 3.871651072960e-03 0.0 
0.0 0.0 0.0 
-1.636414469560e-04 -2.120009460878e-03 0.0 
-2.120009460878e-03 8.433414201974e-04 0.0 
0.0 0.0 0.0 
2.722008500492e-03 -2.195526714675e-03 0.0 
-2.195526714675e-03 -1.462575450741e-03 0.0 
0.0 0.0 0.0 
3.174605501779e-03 2.880933534904e-03 0.0 
2.880933534904e-03 1.536388249563e-04 0.0 
0.0 0.0 0.0 
-1.863155015571e-03 1.431245370232e-03 0.0 
1.431245370232e-03 7.833495698018e-03 0.0 
0.0 0.0 0.0 
-9.989478061715e-04 -6.180507652698e-04 0.0 
-6.180507652698e-04 3.988350087927e-03 0.0 
0.0 0.0 0.0 
-8.444775379137e-04 -6.084730808803e-05 0.0 
-6.084730808803e-05 2.469234849653e-03 0.0 
0.0 0.0 0.0 
-2.375049872747e-03 1.392521500859e-03 0.0 
1.392521500859e-03 9.800465501284e-03 0.0 
0.0 0.0 0.0 
-7.138281979622e-04 -9.842176547702e-04 0.0 
-9.842176547702e-04 3.598216186440e-03 0.0 
0.0 0.0 0.0 
3.022683996812e-03 -1.209276924693e-03 0.0 
-1.209276924693e-03 -1.514772329409e-03 0.0 
0.0 0.0 0.0 
-1.005048227757e-04 -1.677046354720e-03 0.0 
-1.677046354720e-03 2.215127470748e-03 0.0 
0.0 0.0 0.0 
-2.723056018206e-05 2.887327226419e-03 0.0 
2.887327226419e-03 -2.381621428788e-03 0.0 
0.0 0.0 0.0 
-8.193477157166e-04 7.988122934599e-05 0.0 
7.988122934599e-05 1.210640336833e-02 0.0 
0.0 0.0 0.0 
3.303659183604e-03 -1.702884500857e-03 0.0 
-1.702884500857e-03 -2.295591458670e-03 0.0 
0.0 0.0 0.0 
1.921777836018e-03 1.265262288179e-03 0.0 
1.265262288179e-03 2.161496346809e-03 0.0 
0.0 0.0 0.0 
1.729555768988e-03 3.411362679174e-03 0.0 
3.411362679174e-03 3.045029318361e-03 0.0 
0.0 0.0 0.0 
-6.711026421713e-04 -8.291079611082e-04 0.0 
-8.291079611082e-04 3.966850067732e-03 0.0 
0.0 0.0 0.0 
-8.287366655587e-04 -7.527355409871e-04 0.0 
-7.527355409871e-04 3.954879807423e-03 0.0 
0.0 0.0 0.0 
4.739561128486e-03 -1.904957987493e-04 0.0 
-1.904957987493e-04 -3.302052307781e-03 0.0 
0.0 0.0 0.0 
-6.294183228707e-04 -1.894533412629e-03 0.0 
-1.894533412629e-03 8.460010740183e-04 0.0 
0.0 0.0 0.0 
5.451924800972e-04 3.867760364922e-03 0.0 
3.867760364922e-03 -2.581282760350e-03 0.0 
0.0 0.0 0.0 
-7.811973870820e-04 -6.111698016288e-04 0.0 
-6.111698016288e-04 4.282518051330e-03 0.0 
0.0 0.0 0.0 
1.830981371050e-03 6.473900298636e-04 0.0 
6.473900298636e-04 2.082015017830e-03 0.0 
0.0 0.0 0.0 
1.654379183067e-03 -2.605617787495e-03 0.0 
-2.605617787495e-03 -8.714582347086e-04 0.0 
0.0 0.0 0.0 
2.074062409307e-05 3.680662109248e-03 0.0 
3.680662109248e-03 5.858255418554e-03 0.0 
0.0 0.0 0.0 
-1.077471544956e-03 3.272133046506e-03 0.0 
3.272133046506e-03 5.410849727710e-03 0.0 
0.0 0.0 0.0 
-4.615920782124e-04 3.559429075899e-03 0.0 
3.559429075899e-03 7.149130276108e-03 0.0 
0.0 0.0 0.0 
6.707617182176e-04 -9.767883396050e-05 0.0 
-9.767883396050e-05 4.012316338205e-03 0.0 
0.0 0.0 0.0 
-5.364117991254e-03 -6.417795781091e-05 0.0 
-6.417795781091e-05 -2.517040008982e-03 0.0 
0.0 0.0 0.0 
0.0 2.216909787531e-04 0.0 
2.216909787531e-04 1.273696812204e-02 0.0 
0.0 0.0 0.0 
0.0 -1.944002483728e-04 0.0 
-1.944002483728e-04 5.994917446606e-03 0.0 
0.0 0.0 0.0 
-1.458117530020e-03 -2.463820969152e-05 0.0 
-2.463820969152e-05 1.030031177185e-02 0.0 
0.0 0.0 0.0 
2.218279324797e-03 -2.204015200348e-03 0.0 
-2.204015200348e-03 -1.169635670956e-03 0.0 
0.0 0.0 0.0 
1.407019980989e-03 3.660364463586e-03 0.0 
3.660364463586e-03 3.497149678860e-03 0.0 
0.0 0.0 0.0 
4.824269180640e-03 5.600035692234e-04 0.0 
5.600035692234e-04 -3.164201769596e-03 0.0 
0.0 0.0 0.0 
3.347229290773e-04 -6.396973468843e-04 0.0 
-6.396973468843e-04 7.792415031256e-04 0.0 
0.0 0.0 0.0 
-2.119939108040e-03 3.659343289373e-03 0.0 
3.659343289373e-03 1.064722019790e-03 0.0 
0.0 0.0 0.0 
-7.215594074015e-04 6.724439320900e-04 0.0 
6.724439320900e-04 1.226045972531e-02 0.0 
0.0 0.0 0.0 
-1.818354206813e-03 2.395062912856e-03 0.0 
2.395062912856e-03 9.810965005040e-03 0.0 
0.0 0.0 0.0 
-2.426774718968e-03 1.235433017768e-03 0.0 
1.235433017768e-03 9.550004841042e-03 0.0 
0.0 0.0 0.0 
2.584402868964e-04 3.802804507006e-03 0.0 
3.802804507006e-03 6.842694210311e-03 0.0 
0.0 0.0 0.0 
-4.604078798156e-04 -2.474239944652e-05 0.0 
-2.474239944652e-05 2.021184248009e-03 0.0 
0.0 0.0 0.0 
3.032324349752e-04 3.600948966078e-03 0.0 
3.600948966078e-03 6.390367491968e-03 0.0 
0.0 0.0 0.0 
-1.685300535911e-03 2.259809262054e-03 0.0 
2.259809262054e-03 9.833080753179e-03 0.0 
0.0 0.0 0.0 
1.364262291832e-03 -2.445433360754e-03 0.0 
-2.445433360754e-03 -2.740633187976e-04 0.0 
0.0 0.0 0.0 
1.558573351772e-03 3.739893002227e-03 0.0 
3.739893002227e-03 2.506651292321e-03 0.0 
0.0 0.0 0.0 
2.170604589842e-03 -2.229953790645e-03 0.0 
-2.229953790645e-03 -8.180064979869e-04 0.0 
0.0 0.0 0.0 
2.741237409976e-05 3.982313550033e-03 0.0 
3.982313550033e-03 1.485863337704e-03 0.0 
0.0 0.0 0.0 
1.652559664802e-03 -2.435796538260e-03 0.0 
-2.435796538260e-03 -3.675428524027e-04 0.0 
0.0 0.0 0.0 
-1.291213401041e-03 2.781595647525e-03 0.0 
2.781595647525e-03 9.237109964613e-03 0.0 
0.0 0.0 0.0 
-5.468931294472e-04 -3.450931459495e-04 0.0 
-3.450931459495e-04 5.153142554213e-03 0.0 
0.0 0.0 0.0 
3.342804446134e-03 -1.814604614319e-03 0.0 
-1.814604614319e-03 -1.993783446281e-03 0.0 
0.0 0.0 0.0 
-2.279458099911e-04 3.562498267410e-03 0.0 
3.562498267410e-03 6.662284586752e-03 0.0 
0.0 0.0 0.0 
-2.028074274195e-03 -2.087337166424e-04 0.0 
-2.087337166424e-04 -4.236056274736e-03 0.0 
0.0 0.0 0.0 
4.394057588041e-03 -8.135093792728e-04 0.0 
-8.135093792728e-04 -2.884403702931e-03 0.0 
0.0 0.0 0.0 
-1.533565679285e-03 2.405778675777e-03 0.0 
2.405778675777e-03 1.034013808862e-02 0.0 
0.0 0.0 0.0 
7.941007274923e-04 -2.465714443028e-03 0.0 
-2.465714443028e-03 5.839871113011e-04 0.0 
0.0 0.0 0.0 
1.140953375980e-03 -2.706369152425e-03 0.0 
-2.706369152425e-03 -3.536940702553e-04 0.0 
0.0 0.0 0.0 
1.845096962535e-03 3.607041613431e-03 0.0 
3.607041613431e-03 2.526502436673e-03 0.0 
0.0 0.0 0.0 
2.172608251676e-03 -3.040988303586e-03 0.0 
-3.040988303586e-03 -1.960322730173e-03 0.0 
0.0 0.0 0.0 
-1.991407642306e-03 2.715037453610e-03 0.0 
2.715037453610e-03 6.345224517139e-03 0.0 
0.0 0.0 0.0 
-2.001853608402e-03 2.638018649289e-03 0.0 
2.638018649289e-03 6.661080360864e-03 0.0 
0.0 0.0 0.0 
6.649644350345e-04 -2.510319794606e-03 0.0 
-2.510319794606e-03 5.561233910933e-04 0.0 
0.0 0.0 0.0 
2.919973152158e-03 -1.053240177030e-03 0.0 
-1.053240177030e-03 -1.169308340453e-03 0.0 
0.0 0.0 0.0 
3.165654616522e-03 3.205158647802e-03 0.0 
3.205158647802e-03 -4.293071868541e-04 0.0 
0.0 0.0 0.0 
-1.082351391479e-04 3.604686860039e-03 0.0 
3.604686860039e-03 6.657079851709e-03 0.0 
0.0 0.0 0.0 
-4.894625098627e-04 3.163996903460e-03 0.0 
3.163996903460e-03 9.721493106248e-03 0.0 
0.0 0.0 0.0 
-1.605939216058e-03 1.666185687363e-03 0.0 
1.666185687363e-03 7.207738604559e-03 0.0 
0.0 0.0 0.0 
-1.136310090674e-03 5.096990378367e-05 0.0 
5.096990378367e-05 1.154547493759e-02 0.0 
0.0 0.0 0.0 
1.068508234714e-05 3.561721949716e-03 0.0 
3.561721949716e-03 7.669557390348e-03 0.0 
0.0 0.0 0.0 
4.917238854177e-03 5.543269896058e-04 0.0 
5.543269896058e-04 -3.533645387789e-03 0.0 
0.0 0.0 0.0 
-6.371995241756e-04 3.852043670071e-03 0.0 
3.852043670071e-03 1.196333193777e-03 0.0 
0.0 0.0 0.0 
-1.361458629196e-03 3.483393037673e-03 0.0 
3.483393037673e-03 6.005714508523e-03 0.0 
0.0 0.0 0.0 
2.599896376598e-03 -1.433375845845e-03 0.0 
-1.433375845845e-03 -1.044824659290e-03 0.0 
0.0 0.0 0.0 
-7.111175095474e-04 3.338942920156e-03 0.0 
3.338942920156e-03 7.852886351228e-03 0.0 
0.0 0.0 0.0 
2.960516424151e-03 -1.113257686159e-03 0.0 
-1.113257686159e-03 -1.095471826944e-03 0.0 
0.0 0.0 0.0 
1.662084987517e-03 3.369369324783e-03 0.0 
3.369369324783e-03 -2.319917063618e-03 0.0 
0.0 0.0 0.0 
2.669475279216e-03 -8.570701714819e-04 0.0 
-8.570701714819e-04 -5.856856338129e-04 0.0 
0.0 0.0 0.0 
-1.541346242118e-04 3.930752390944e-03 0.0 
3.930752390944e-03 2.218810510519e-03 0.0 
0.0 0.0 0.0 
3.464447931325e-03 2.923614053151e-03 0.0 
2.923614053151e-03 -3.906269265918e-04 0.0 
0.0 0.0 0.0 
2.798775330972e-03 -9.650263259049e-04 0.0 
-9.650263259049e-04 -6.637810643173e-04 0.0 
0.0 0.0 0.0 
1.889571997386e-03 3.490082470459e-03 0.0 
3.490082470459e-03 2.082942876281e-03 0.0 
0.0 0.0 0.0 
-1.357467191849e-03 2.079650011318e-04 0.0 
2.079650011318e-04 1.114749507728e-02 0.0 
0.0 0.0 0.0 
4.162786068618e-04 -2.481911456758e-03 0.0 
-2.481911456758e-03 5.534025596134e-04 0.0 
0.0 0.0 0.0 
2.736422793592e-04 4.146908575565e-03 0.0 
4.146908575565e-03 -6.566789931051e-06 0.0 
0.0 0.0 0.0 
2.629510221414e-03 -6.790851400937e-04 0.0 
-6.790851400937e-04 1.122340768056e-05 0.0 
0.0 0.0 0.0 
-3.516261582434e-04 3.820369840294e-03 0.0 
3.820369840294e-03 2.976011753510e-03 0.0 
0.0 0.0 0.0 
3.371046527418e-04 1.024809343014e-03 0.0 
1.024809343014e-03 -4.702108060133e-03 0.0 
0.0 0.0 0.0 
-5.299818804232e-04 1.272016922696e-04 0.0 
1.272016922696e-04 1.236047125481e-02 0.0 
0.0 0.0 0.0 
-7.683871312716e-04 1.104745723782e-04 0.0 
1.104745723782e-04 1.210759422199e-02 0.0 
0.0 0.0 0.0 
-4.846174818568e-04 -6.612529392116e-04 0.0 
-6.612529392116e-04 6.170223067357e-04 0.0 
0.0 0.0 0.0 
2.399065395514e-03 -5.059013322766e-04 0.0 
-5.059013322766e-04 1.875162136424e-04 0.0 
0.0 0.0 0.0 
1.764393883064e-05 -2.096303741292e-03 0.0 
-2.096303741292e-03 9.508700897145e-04 0.0 
0.0 0.0 0.0 
-1.265077392737e-04 -2.086815614809e-03 0.0 
-2.086815614809e-03 1.255722545159e-03 0.0 
0.0 0.0 0.0 
-1.307700553039e-04 3.528636287101e-03 0.0 
3.528636287101e-03 6.975579638900e-03 0.0 
0.0 0.0 0.0 
2.193922203186e-03 3.294578570459e-03 0.0 
3.294578570459e-03 2.108079814838e-03 0.0 
0.0 0.0 0.0 
9.196875565687e-05 3.595262889985e-03 0.0 
3.595262889985e-03 6.191791957581e-03 0.0 
0.0 0.0 0.0 
3.881566171535e-03 -1.418409651151e-03 0.0 
-1.418409651151e-03 -2.768786005737e-03 0.0 
0.0 0.0 0.0 
-1.606271744122e-03 1.118657432604e-04 0.0 
1.118657432604e-04 9.879539904508e-03 0.0 
0.0 0.0 0.0 
2.693426076821e-04 -2.768931642424e-04 0.0 
-2.768931642424e-04 4.228193617799e-03 0.0 
0.0 0.0 0.0 
-2.238339615960e-04 -1.879624204658e-03 0.0 
-1.879624204658e-03 1.175937275907e-03 0.0 
0.0 0.0 0.0 
2.068867919786e-03 1.303127184941e-03 0.0 
1.303127184941e-03 1.849267022953e-03 0.0 
0.0 0.0 0.0 
2.852591527115e-03 3.262238514701e-03 0.0 
3.262238514701e-03 6.039322634750e-04 0.0 
0.0 0.0 0.0 
-3.552069713864e-05 -3.718225778765e-04 0.0 
-3.718225778765e-04 1.409050575752e-03 0.0 
0.0 0.0 0.0 
-1.004751025321e-03 3.158393920682e-03 0.0 
3.158393920682e-03 8.293898170646e-03 0.0 
0.0 0.0 0.0 
4.666031598607e-03 -9.193290159053e-05 0.0 
-9.193290159053e-05 -2.974786758863e-03 0.0 
0.0 0.0 0.0 
-5.424903423213e-04 -1.939493578132e-03 0.0 
-1.939493578132e-03 8.639975401166e-04 0.0 
0.0 0.0 0.0 
4.376869486234e-03 -9.398979690434e-04 0.0 
-9.398979690434e-04 -3.121775406767e-03 0.0 
0.0 0.0 0.0 
-9.615962450614e-04 -4.264772361118e-05 0.0 
-4.264772361118e-05 4.658213456689e-03 0.0 
0.0 0.0 0.0 
-1.368753576512e-03 2.914944195533e-03 0.0 
2.914944195533e-03 9.206979784427e-03 0.0 
0.0 0.0 0.0 
-4.567575867320e-05 -2.117135302622e-03 0.0 
-2.117135302622e-03 6.497546514921e-04 0.0 
0.0 0.0 0.0 
-1.273123691501e-03 -2.899088663269e-04 0.0 
-2.899088663269e-04 3.961476843961e-03 0.0 
0.0 0.0 0.0 
-4.188168218383e-04 3.460901614430e-03 0.0 
3.460901614430e-03 7.409209580260e-03 0.0 
0.0 0.0 0.0 
1.712540786427e-03 2.773587063379e-03 0.0 
2.773587063379e-03 3.229315137152e-03 0.0 
0.0 0.0 0.0 
1.162717813208e-03 -2.535751952380e-03 0.0 
-2.535751952380e-03 9.430076689165e-05 0.0 
0.0 0.0 0.0 
-9.187456045213e-04 -3.186719790117e-04 0.0 
-3.186719790117e-04 2.463538209037e-03 0.0 
0.0 0.0 0.0 
2.929976603202e-03 3.153213998509e-03 0.0 
3.153213998509e-03 1.172024548006e-04 0.0 
0.0 0.0 0.0 
-1.315056676328e-03 -2.305391913106e-05 0.0 
-2.305391913106e-05 1.104121788184e-02 0.0 
0.0 0.0 0.0 
-3.160196560308e-04 -2.699084009410e-03 0.0 
-2.699084009410e-03 6.576205010316e-04 0.0 
0.0 0.0 0.0 
7.485488882186e-05 3.834174939458e-03 0.0 
3.834174939458e-03 7.636086550057e-03 0.0 
0.0 0.0 0.0 
-3.270235968690e-04 2.976805509341e-03 0.0 
2.976805509341e-03 1.057305341140e-02 0.0 
0.0 0.0 0.0 
-1.423873787688e-03 1.278891401846e-05 0.0 
1.278891401846e-05 1.053445914292e-02 0.0 
0.0 0.0 0.0 
-7.176671593311e-04 1.628848283339e-03 0.0 
1.628848283339e-03 1.206112801628e-02 0.0 
0.0 0.0 0.0 
-2.316880484889e-04 3.332606275968e-03 0.0 
3.332606275968e-03 9.817505212235e-03 0.0 
0.0 0.0 0.0 
3.877623379300e-03 -1.290045445643e-03 0.0 
-1.290045445643e-03 -2.374905076069e-03 0.0 
0.0 0.0 0.0 
2.757258495325e-03 -2.123287415736e-03 0.0 
-2.123287415736e-03 -1.932448098903e-03 0.0 
0.0 0.0 0.0 
1.072175217361e-03 1.773310035819e-03 0.0 
1.773310035819e-03 3.925351778791e-03 0.0 
0.0 0.0 0.0 
-1.736955777705e-03 4.831411278732e-04 0.0 
4.831411278732e-04 -4.106798459213e-03 0.0 
0.0 0.0 0.0 
-6.981964701768e-04 -1.318769157065e-04 0.0 
-1.318769157065e-04 2.254754320560e-03 0.0 
0.0 0.0 0.0 
-1.184461238183e-03 -1.920431555431e-04 0.0 
-1.920431555431e-04 4.065956126450e-03 0.0 
0.0 0.0 0.0 
8.307662191616e-04 -2.604259367978e-03 0.0 
-2.604259367978e-03 1.092810671839e-04 0.0 
0.0 0.0 0.0 
3.326056860960e-03 -2.002415251463e-03 0.0 
-2.002415251463e-03 -2.177475334874e-03 0.0 
0.0 0.0 0.0 
-1.601792389670e-03 3.170435340671e-03 0.0 
3.170435340671e-03 4.757191995313e-03 0.0 
0.0 0.0 0.0 
-1.826663532442e-03 3.374935485496e-03 0.0 
3.374935485496e-03 5.459484533421e-03 0.0 
0.0 0.0 0.0 
-1.884627362438e-03 5.339479604607e-04 0.0 
5.339479604607e-04 1.050499780439e-02 0.0 
0.0 0.0 0.0 
4.375702873276e-03 -9.255059303762e-04 0.0 
-9.255059303762e-04 -3.177174885936e-03 0.0 
0.0 0.0 0.0 
-9.587232288826e-04 -7.840919660349e-04 0.0 
-7.840919660349e-04 2.519129738514e-03 0.0 
0.0 0.0 0.0 
1.528622540138e-03 3.165398523260e-03 0.0 
3.165398523260e-03 3.341668440487e-03 0.0 
0.0 0.0 0.0 
9.355739656547e-05 -5.689271538394e-04 0.0 
-5.689271538394e-04 5.184369988462e-03 0.0 
0.0 0.0 0.0 
1.682188104744e-04 -5.025968749647e-04 0.0 
-5.025968749647e-04 4.966519745706e-03 0.0 
0.0 0.0 0.0 
2.695156550108e-03 -1.934090580994e-03 0.0 
-1.934090580994e-03 -1.223383022878e-03 0.0 
0.0 0.0 0.0 
-1.967815634404e-03 6.402257586481e-04 0.0 
6.402257586481e-04 1.016507633014e-02 0.0 
0.0 0.0 0.0 
-1.938375371994e-03 1.417777934458e-04 0.0 
1.417777934458e-04 -3.584662852768e-03 0.0 
0.0 0.0 0.0 
-1.568413097857e-03 3.391432686855e-03 0.0 
3.391432686855e-03 3.466956025205e-03 0.0 
0.0 0.0 0.0 
1.833621743706e-03 -3.531508762693e-03 0.0 
-3.531508762693e-03 -2.602410592499e-03 0.0 
0.0 0.0 0.0 
-1.572505474843e-03 3.308492181204e-03 0.0 
3.308492181204e-03 4.075701164364e-03 0.0 
0.0 0.0 0.0 
2.666232097059e-03 3.132234845933e-03 0.0 
3.132234845933e-03 1.160029879780e-03 0.0 
0.0 0.0 0.0 
2.115165141867e-03 -2.429892801360e-03 0.0 
-2.429892801360e-03 -8.952383040276e-04 0.0 
0.0 0.0 0.0 
3.374600186057e-03 -1.972653247950e-03 0.0 
-1.972653247950e-03 -2.530771607751e-03 0.0 
0.0 0.0 0.0 
1.007334365616e-03 -3.472680482121e-03 0.0 
-3.472680482121e-03 -3.290096694018e-03 0.0 
0.0 0.0 0.0 
-6.641034312603e-04 1.929619321633e-04 0.0 
1.929619321633e-04 1.216081299781e-02 0.0 
0.0 0.0 0.0 
2.208151703024e-03 -2.407623539274e-03 0.0 
-2.407623539274e-03 -1.429229454957e-03 0.0 
0.0 0.0 0.0 
-6.034499022383e-04 6.896631994839e-04 0.0 
6.896631994839e-04 1.225707518784e-02 0.0 
0.0 0.0 0.0 
-9.295312979459e-04 2.540378269490e-04 0.0 
2.540378269490e-04 1.193188811891e-02 0.0 
0.0 0.0 0.0 
-2.526467647637e-04 3.078466805134e-04 0.0 
3.078466805134e-04 1.272371015081e-02 0.0 
0.0 0.0 0.0 
-1.772082956316e-04 -2.526824731753e-04 0.0 
-2.526824731753e-04 5.978695764925e-03 0.0 
0.0 0.0 0.0 
-1.438038746258e-03 5.024605588700e-05 0.0 
5.024605588700e-05 1.054325786119e-02 0.0 
0.0 0.0 0.0 
1.766377129300e-03 -2.467506966401e-03 0.0 
-2.467506966401e-03 -7.747795772067e-04 0.0 
0.0 0.0 0.0 
-1.558101127642e-03 2.152317973180e-03 0.0 
2.152317973180e-03 6.288731495566e-03 0.0 
0.0 0.0 0.0 
1.776320394545e-03 -2.301501317174e-03 0.0 
-2.301501317174e-03 -3.010727156174e-04 0.0 
0.0 0.0 0.0 
0.0 -5.434352102588e-04 0.0 
-5.434352102588e-04 5.418462001271e-03 0.0 
0.0 0.0 0.0 
-1.699422993872e-03 3.448926690752e-03 0.0 
3.448926690752e-03 2.310996635606e-03 0.0 
0.0 0.0 0.0 
-1.585905505000e-03 3.404534344756e-03 0.0 
3.404534344756e-03 2.875297700111e-03 0.0 
0.0 0.0 0.0 
1.830742625784e-03 1.675122591245e-03 0.0 
1.675122591245e-03 2.474459167021e-03 0.0 
0.0 0.0 0.0 
-1.811802663567e-03 4.091713710398e-04 0.0 
4.091713710398e-04 1.020659181565e-02 0.0 
0.0 0.0 0.0 
-5.599305102720e-04 4.628448808301e-04 0.0 
4.628448808301e-04 1.232225453576e-02 0.0 
0.0 0.0 0.0 
-3.608823670080e-04 3.502630028930e-03 0.0 
3.502630028930e-03 7.406528922347e-03 0.0 
0.0 0.0 0.0 
1.300214774722e-03 2.887576993843e-03 0.0 
2.887576993843e-03 3.868002715034e-03 0.0 
0.0 0.0 0.0 
-9.202703546711e-04 3.202808841754e-03 0.0 
3.202808841754e-03 9.006534831788e-03 0.0 
0.0 0.0 0.0 
-1.451799449891e-03 1.933497588240e-04 0.0 
1.933497588240e-04 1.062088298838e-02 0.0 
0.0 0.0 0.0 
6.639757925457e-04 -2.650821705983e-03 0.0 
-2.650821705983e-03 1.520330976186e-04 0.0 
0.0 0.0 0.0 
9.533158638448e-04 -2.605615952643e-03 0.0 
-2.605615952643e-03 1.448646394151e-04 0.0 
0.0 0.0 0.0 
-1.188121949344e-03 1.423224953959e-04 0.0 
1.423224953959e-04 1.138556716789e-02 0.0 
0.0 0.0 0.0 
1.327812020893e-03 2.954145357644e-03 0.0 
2.954145357644e-03 4.002332669077e-03 0.0 
0.0 0.0 0.0 
-2.189826731728e-03 8.520759170579e-04 0.0 
8.520759170579e-04 9.724724757342e-03 0.0 
0.0 0.0 0.0 
-1.496790374207e-03 5.225784474487e-05 0.0 
5.225784474487e-05 1.020700465823e-02 0.0 
0.0 0.0 0.0 
-1.481142194542e-03 8.725344126006e-05 0.0 
8.725344126006e-05 1.052749062778e-02 0.0 
0.0 0.0 0.0 
-1.541391590854e-03 1.599800318184e-04 0.0 
1.599800318184e-04 1.063561124800e-02 0.0 
0.0 0.0 0.0 
2.654677652660e-03 -1.815237907334e-03 0.0 
-1.815237907334e-03 -4.053883921668e-03 0.0 
0.0 0.0 0.0 
4.474075976242e-04 -2.494748227832e-03 0.0 
-2.494748227832e-03 6.208672425208e-04 0.0 
0.0 0.0 0.0 
-5.030348030036e-04 9.832162516815e-04 0.0 
9.832162516815e-04 1.240735673663e-02 0.0 
0.0 0.0 0.0 
-1.461805839050e-03 2.352212922897e-04 0.0 
2.352212922897e-04 1.099218291332e-02 0.0 
0.0 0.0 0.0 
6.057864020705e-04 2.521556786264e-03 0.0 
2.521556786264e-03 4.637936497401e-03 0.0 
0.0 0.0 0.0 
-7.056592649138e-04 3.311342748012e-03 0.0 
3.311342748012e-03 9.662355570482e-03 0.0 
0.0 0.0 0.0 
-9.942583653929e-04 3.278170545811e-03 0.0 
3.278170545811e-03 8.271542356620e-03 0.0 
0.0 0.0 0.0 
-9.062554449357e-04 1.690440684512e-03 0.0 
1.690440684512e-03 1.184576922797e-02 0.0 
0.0 0.0 0.0 
-1.094198912389e-03 -1.055076174249e-03 0.0 
-1.055076174249e-03 3.081626004253e-03 0.0 
0.0 0.0 0.0 
-1.050206961200e-03 -1.119231600644e-03 0.0 
-1.119231600644e-03 2.826513436455e-03 0.0 
0.0 0.0 0.0 
5.624958352202e-04 -2.964063010050e-04 0.0 
-2.964063010050e-04 3.730376743840e-03 0.0 
0.0 0.0 0.0 
4.844891386391e-04 -2.006910570744e-03 0.0 
-2.006910570744e-03 -3.723402082343e-03 0.0 
0.0 0.0 0.0 
-6.484476444356e-04 -2.137625460102e-04 0.0 
-2.137625460102e-04 2.311897751456e-03 0.0 
0.0 0.0 0.0 
0.0 3.529885705178e-03 0.0 
3.529885705178e-03 6.601057440922e-03 0.0 
0.0 0.0 0.0 
6.128714082207e-04 4.209253762456e-05 0.0 
4.209253762456e-05 8.057072244974e-04 0.0 
0.0 0.0 0.0 
-1.475891335710e-03 6.701880728233e-05 0.0 
6.701880728233e-05 1.021729918299e-02 0.0 
0.0 0.0 0.0 
1.473506551619e-03 1.153423723736e-03 0.0 
1.153423723736e-03 3.057018000847e-03 0.0 
0.0 0.0 0.0 
-2.113301608201e-04 -8.515773280437e-04 0.0 
-8.515773280437e-04 6.158894078929e-04 0.0 
0.0 0.0 0.0 
1.295554245389e-03 -4.121761335608e-04 0.0 
-4.121761335608e-04 -1.720299420274e-04 0.0 
0.0 0.0 0.0 
-3.208587018847e-04 1.461447156031e-03 0.0 
1.461447156031e-03 1.238375489950e-02 0.0 
0.0 0.0 0.0 
-1.729482892377e-03 2.046720527034e-04 0.0 
2.046720527034e-04 9.902596104422e-03 0.0 
0.0 0.0 0.0 
-5.296605201979e-04 1.303137513020e-03 0.0 
1.303137513020e-03 1.224786002591e-02 0.0 
0.0 0.0 0.0 
1.101615070026e-03 1.545023401911e-03 0.0 
1.545023401911e-03 3.140317201040e-03 0.0 
0.0 0.0 0.0 
-1.711380865733e-03 1.458499640920e-04 0.0 
1.458499640920e-04 9.904071432118e-03 0.0 
0.0 0.0 0.0 
-1.740777493559e-03 6.839766378607e-04 0.0 
6.839766378607e-04 -3.535713153177e-03 0.0 
0.0 0.0 0.0 
-2.720093862019e-04 2.341254059307e-04 0.0 
2.341254059307e-04 1.255363697898e-02 0.0 
0.0 0.0 0.0 
2.001015532445e-04 -5.427124837929e-04 0.0 
-5.427124837929e-04 1.000395945572e-03 0.0 
0.0 0.0 0.0 
-5.609604552076e-04 1.095488203313e-03 0.0 
1.095488203313e-03 1.219201666009e-02 0.0 
0.0 0.0 0.0 
0.0 -5.118644515136e-04 0.0 
-5.118644515136e-04 5.626526588685e-03 0.0 
0.0 0.0 0.0 
-7.577761916293e-04 2.880217283622e-03 0.0 
2.880217283622e-03 1.043017586970e-02 0.0 
0.0 0.0 0.0 
3.445008195307e-03 -1.569308955071e-03 0.0 
-1.569308955071e-03 -4.093351842560e-03 0.0 
0.0 0.0 0.0 
-2.041007054008e-03 1.008041547164e-03 0.0 
1.008041547164e-03 1.029128226534e-02 0.0 
0.0 0.0 0.0 
-1.249804455904e-03 -6.474917809520e-04 0.0 
-6.474917809520e-04 3.201734107471e-03 0.0 
0.0 0.0 0.0 
1.641515091751e-03 2.985044607336e-03 0.0 
2.985044607336e-03 3.355002052855e-03 0.0 
0.0 0.0 0.0 
4.392345300788e-04 2.767744982290e-03 0.0 
2.767744982290e-03 5.330653508602e-03 0.0 
0.0 0.0 0.0 
-1.054084775397e-03 1.728215303676e-04 0.0 
1.728215303676e-04 1.170928360481e-02 0.0 
0.0 0.0 0.0 
5.060010071711e-04 2.419120115927e-03 0.0 
2.419120115927e-03 4.980544434367e-03 0.0 
0.0 0.0 0.0 
1.697974953226e-03 -1.650486073856e-03 0.0 
-1.650486073856e-03 -4.551480690205e-03 0.0 
0.0 0.0 0.0 
1.589677630309e-05 -6.011800656683e-04 0.0 
-6.011800656683e-04 5.068507991645e-03 0.0 
0.0 0.0 0.0 
3.198726400302e-03 -2.510532888878e-03 0.0 
-2.510532888878e-03 -2.854077052417e-03 0.0 
0.0 0.0 0.0 
4.139686033715e-04 -2.521785552694e-04 0.0 
-2.521785552694e-04 8.983648180667e-04 0.0 
0.0 0.0 0.0 
9.124291364584e-04 7.174799388042e-04 0.0 
7.174799388042e-04 3.722434668505e-03 0.0 
0.0 0.0 0.0 
-6.844926638169e-04 2.308414564108e-03 0.0 
2.308414564108e-03 1.161563284850e-02 0.0 
0.0 0.0 0.0 
-4.341952976075e-04 1.486901018026e-03 0.0 
1.486901018026e-03 1.221534700601e-02 0.0 
0.0 0.0 0.0 
-1.558829336688e-03 1.944024780122e-04 0.0 
1.944024780122e-04 1.020482539442e-02 0.0 
0.0 0.0 0.0 
-2.059357244703e-03 1.465022963297e-03 0.0 
1.465022963297e-03 1.003596010103e-02 0.0 
0.0 0.0 0.0 
5.033926870124e-05 3.928402659575e-03 0.0 
3.928402659575e-03 1.483244269604e-03 0.0 
0.0 0.0 0.0 
-4.526897338460e-04 3.530015736684e-03 0.0 
3.530015736684e-03 9.681762989923e-03 0.0 
0.0 0.0 0.0 
-1.193127711062e-03 -5.932782292379e-04 0.0 
-5.932782292379e-04 2.956413418622e-03 0.0 
0.0 0.0 0.0 
9.970587711239e-04 3.766426465953e-03 0.0 
3.766426465953e-03 -1.130679274340e-03 0.0 
0.0 0.0 0.0 
1.632994269658e-03 2.936238486200e-03 0.0 
2.936238486200e-03 3.208185906659e-03 0.0 
0.0 0.0 0.0 
-1.572915036523e-03 7.695683829407e-05 0.0 
7.695683829407e-05 9.857460499256e-03 0.0 
0.0 0.0 0.0 
-6.390224470348e-04 2.227617722051e-03 0.0 
2.227617722051e-03 1.142178149400e-02 0.0 
0.0 0.0 0.0 
-2.139935130596e-04 -9.788187933318e-06 0.0 
-9.788187933318e-06 1.274261010814e-02 0.0 
0.0 0.0 0.0 
0.0 1.069967565295e-04 0.0 
1.069967565295e-04 1.276218648401e-02 0.0 
0.0 0.0 0.0 
2.775165507589e-03 7.981042968351e-05 0.0 
7.981042968351e-05 -9.931218143272e-04 0.0 
0.0 0.0 0.0 
2.253939549092e-03 -1.365639259119e-04 0.0 
-1.365639259119e-04 -9.046445670203e-04 0.0 
0.0 0.0 0.0 
-1.482509771852e-03 -2.300399345634e-05 0.0 
-2.300399345634e-05 9.899399382287e-03 0.0 
0.0 0.0 0.0 
-1.499108123282e-03 1.100900652251e-05 0.0 
1.100900652251e-05 9.847971733760e-03 0.0 
0.0 0.0 0.0 
0.0 -9.229200187212e-05 0.0 
-9.229200187212e-05 6.037345076073e-03 0.0 
0.0 0.0 0.0 
-1.845840037439e-04 6.978411974243e-06 0.0 
6.978411974243e-06 6.023388252124e-03 0.0 
0.0 0.0 0.0 
2.134700798065e-03 -5.910117522028e-05 0.0 
-5.910117522028e-05 -5.911530485210e-04 0.0 
0.0 0.0 0.0 
-1.784335040362e-03 -3.460057735093e-04 0.0 
-3.460057735093e-04 -4.350651773465e-03 0.0 
0.0 0.0 0.0 
-2.156266802689e-04 -4.457485551984e-04 0.0 
-4.457485551984e-04 5.224292084022e-03 0.0 
0.0 0.0 0.0 
6.955628229768e-04 3.502663046122e-03 0.0 
3.502663046122e-03 5.582914638626e-03 0.0 
0.0 0.0 0.0 
2.240841691148e-04 -5.644184772557e-04 0.0 
-5.644184772557e-04 1.161148638820e-03 0.0 
0.0 0.0 0.0 
1.273707855025e-04 -5.744265886598e-04 0.0 
-5.744265886598e-04 4.524409443416e-03 0.0 
0.0 0.0 0.0 
-1.122436348011e-03 -1.211273391682e-04 0.0 
-1.211273391682e-04 4.267605063672e-03 0.0 
0.0 0.0 0.0 
-1.315061193701e-03 -1.451116935153e-04 0.0 
-1.451116935153e-04 3.821117907247e-03 0.0 
0.0 0.0 0.0 
-1.372666584463e-03 2.237644404235e-04 0.0 
2.237644404235e-04 1.115829799048e-02 0.0 
0.0 0.0 0.0 
7.513541590156e-04 -3.199998066125e-03 0.0 
-3.199998066125e-03 -6.920474624600e-04 0.0 
0.0 0.0 0.0 
1.944937987509e-03 3.107219461748e-03 0.0 
3.107219461748e-03 2.717434928363e-03 0.0 
0.0 0.0 0.0 
4.893464287159e-04 -6.111079749094e-04 0.0 
-6.111079749094e-04 8.071422797449e-04 0.0 
0.0 0.0 0.0 
-1.163913102874e-03 -8.116842586139e-04 0.0 
-8.116842586139e-04 3.300311074212e-03 0.0 
0.0 0.0 0.0 
-3.592063530993e-04 3.340275937428e-03 0.0 
3.340275937428e-03 9.372468287759e-03 0.0 
0.0 0.0 0.0 
-6.777003929607e-04 -1.421633711233e-05 0.0 
-1.421633711233e-05 1.225531079045e-02 0.0 
0.0 0.0 0.0 
-1.285940868546e-03 -2.515211055219e-04 0.0 
-2.515211055219e-04 3.876127097806e-03 0.0 
0.0 0.0 0.0 
-1.428858073956e-03 6.580323022375e-05 0.0 
6.580323022375e-05 1.079791714763e-02 0.0 
0.0 0.0 0.0 
2.297961778142e-04 3.732352734878e-03 0.0 
3.732352734878e-03 6.943970280582e-03 0.0 
0.0 0.0 0.0 
-6.839032334121e-04 3.344434160455e-03 0.0 
3.344434160455e-03 8.678925972635e-03 0.0 
0.0 0.0 0.0 
-8.327953368015e-04 3.298838363411e-03 0.0 
3.298838363411e-03 8.458981124613e-03 0.0 
0.0 0.0 0.0 
-1.635959675483e-03 1.225654468976e-04 0.0 
1.225654468976e-04 9.897076249872e-03 0.0 
0.0 0.0 0.0 
2.399129255916e-03 2.939015662381e-03 0.0 
2.939015662381e-03 1.828723529745e-03 0.0 
0.0 0.0 0.0 
-6.279227899525e-04 2.550194854384e-03 0.0 
2.550194854384e-03 1.098114893820e-02 0.0 
0.0 0.0 0.0 
-8.440638733987e-04 -5.245978534505e-04 0.0 
-5.245978534505e-04 2.366148711987e-03 0.0 
0.0 0.0 0.0 
-1.759485745810e-04 -6.183333091200e-04 0.0 
-6.183333091200e-04 4.521844794507e-04 0.0 
0.0 0.0 0.0 
1.236389459705e-04 3.547805020033e-03 0.0 
3.547805020033e-03 6.941103743080e-03 0.0 
0.0 0.0 0.0 
2.116791983766e-03 1.499832310907e-03 0.0 
1.499832310907e-03 1.836083732426e-03 0.0 
0.0 0.0 0.0 
7.186244812338e-04 -3.275578327051e-03 0.0 
-3.275578327051e-03 -8.513025300685e-04 0.0 
0.0 0.0 0.0 
-1.266630830856e-03 1.151391734395e-04 0.0 
1.151391734395e-04 1.140306878562e-02 0.0 
0.0 0.0 0.0 
-1.298741991589e-04 -4.373668476173e-04 0.0 
-4.373668476173e-04 5.490875740972e-03 0.0 
0.0 0.0 0.0 
5.291461908492e-04 3.448412097965e-03 0.0 
3.448412097965e-03 5.782788942789e-03 0.0 
0.0 0.0 0.0 
4.249894494117e-04 3.650851840442e-03 0.0 
3.650851840442e-03 6.414556966003e-03 0.0 
0.0 0.0 0.0 
-1.011929923914e-03 -1.389696948381e-04 0.0 
-1.389696948381e-04 4.476990482166e-03 0.0 
0.0 0.0 0.0 
4.566162947839e-05 2.905465271986e-03 0.0 
2.905465271986e-03 -3.455295702984e-03 0.0 
0.0 0.0 0.0 
-1.568494750084e-03 3.139709388849e-03 0.0 
3.139709388849e-03 4.754390626168e-03 0.0 
0.0 0.0 0.0 
-3.577112162353e-04 3.863956239894e-03 0.0 
3.863956239894e-03 2.977716203343e-03 0.0 
0.0 0.0 0.0 
-2.017032329191e-03 1.044545612745e-03 0.0 
1.044545612745e-03 1.032357616778e-02 0.0 
0.0 0.0 0.0 
2.161609231441e-03 3.166983296678e-03 0.0 
3.166983296678e-03 1.802120642488e-03 0.0 
0.0 0.0 0.0 
-5.972672185670e-04 8.153742976986e-04 0.0 
8.153742976986e-04 1.230298344273e-02 0.0 
0.0 0.0 0.0 
6.391186336598e-04 1.855309467987e-03 0.0 
1.855309467987e-03 3.931400549439e-03 0.0 
0.0 0.0 0.0 
-9.128100344320e-04 -2.361678296176e-03 0.0 
-2.361678296176e-03 4.696373847444e-04 0.0 
0.0 0.0 0.0 
-5.186229046750e-04 -1.339164199995e-03 0.0 
-1.339164199995e-03 6.897473383733e-04 0.0 
0.0 0.0 0.0 
-1.330874328507e-03 3.299248762383e-03 0.0 
3.299248762383e-03 3.458482713206e-03 0.0 
0.0 0.0 0.0 
-1.159819163084e-03 3.001586409933e-04 0.0 
3.001586409933e-04 1.148899620101e-02 0.0 
0.0 0.0 0.0 
-9.406395676750e-04 -8.135510766449e-04 0.0 
-8.135510766449e-04 2.552884157656e-03 0.0 
0.0 0.0 0.0 
-7.554406116955e-04 1.898259168771e-03 0.0 
1.898259168771e-03 1.177474014847e-02 0.0 
0.0 0.0 0.0 
4.096072774218e-04 -2.638768554356e-04 0.0 
-2.638768554356e-04 1.096471800646e-03 0.0 
0.0 0.0 0.0 
1.242746442600e-03 1.829215091574e-03 0.0 
1.829215091574e-03 3.205568011068e-03 0.0 
0.0 0.0 0.0 
-1.717110563921e-03 5.065635634325e-04 0.0 
5.065635634325e-04 1.050899821091e-02 0.0 
0.0 0.0 0.0 
4.128892416650e-04 3.079177389167e-03 0.0 
3.079177389167e-03 5.408587526282e-03 0.0 
0.0 0.0 0.0 
1.275193016128e-03 3.166069088440e-03 0.0 
3.166069088440e-03 4.180098011938e-03 0.0 
0.0 0.0 0.0 
-2.124635163538e-03 1.221846411016e-03 0.0 
1.221846411016e-03 1.024798087047e-02 0.0 
0.0 0.0 0.0 
7.585420107634e-04 1.464502659697e-04 0.0 
1.464502659697e-04 3.873409710262e-03 0.0 
0.0 0.0 0.0 
-6.016666984264e-04 2.147640709560e-03 0.0 
2.147640709560e-03 1.176732522404e-02 0.0 
0.0 0.0 0.0 
-4.453180206592e-04 2.088944624750e-04 0.0 
2.088944624750e-04 1.256696402183e-02 0.0 
0.0 0.0 0.0 
-1.379783077585e-03 3.387336459471e-03 0.0 
3.387336459471e-03 2.307608179656e-03 0.0 
0.0 0.0 0.0 
-7.209489054238e-04 1.677745403381e-03 0.0 
1.677745403381e-03 1.184646501485e-02 0.0 
0.0 0.0 0.0 
9.803886287241e-06 3.648296523118e-03 0.0 
3.648296523118e-03 7.885018464308e-03 0.0 
0.0 0.0 0.0 
1.483778236467e-03 1.763370573714e-03 0.0 
1.763370573714e-03 3.222440371632e-03 0.0 
0.0 0.0 0.0 
1.300638658847e-03 3.100109143469e-03 0.0 
3.100109143469e-03 3.968991757152e-03 0.0 
0.0 0.0 0.0 
0.0 -4.686203962257e-04 0.0 
-4.686203962257e-04 5.100529664970e-03 0.0 
0.0 0.0 0.0 
-7.869875953116e-04 3.217925569254e-03 0.0 
3.217925569254e-03 8.469832509776e-03 0.0 
0.0 0.0 0.0 
-1.728018412513e-03 2.104926988010e-03 0.0 
2.104926988010e-03 -2.468660675008e-03 0.0 
0.0 0.0 0.0 
5.954271770647e-04 4.116176766347e-03 0.0 
4.116176766347e-03 -7.766834255296e-06 0.0 
0.0 0.0 0.0 
-7.146646274921e-04 3.301666113842e-03 0.0 
3.301666113842e-03 9.197441660956e-03 0.0 
0.0 0.0 0.0 
-1.881197536613e-03 1.100685547383e-03 0.0 
1.100685547383e-03 1.055340624068e-02 0.0 
0.0 0.0 0.0 
-3.925188779724e-04 -3.175504127663e-04 0.0 
-3.175504127663e-04 5.456769026694e-03 0.0 
0.0 0.0 0.0 
9.798594690340e-04 3.144048953429e-03 0.0 
3.144048953429e-03 4.753773914016e-03 0.0 
0.0 0.0 0.0 
9.563265451096e-05 -5.075825701914e-04 0.0 
-5.075825701914e-04 4.832874133735e-03 0.0 
0.0 0.0 0.0 
-1.008573922975e-03 3.571343478192e-04 0.0 
3.571343478192e-04 1.180247257441e-02 0.0 
0.0 0.0 0.0 
4.221131551341e-04 2.861919241654e-03 0.0 
2.861919241654e-03 5.047349844742e-03 0.0 
0.0 0.0 0.0 
7.402762499333e-04 -7.883641485040e-05 0.0 
-7.883641485040e-05 3.459624986719e-03 0.0 
0.0 0.0 0.0 
8.246857949670e-04 5.079255557778e-05 0.0 
5.079255557778e-05 3.447680869998e-03 0.0 
0.0 0.0 0.0 
-1.064148349425e-03 -5.715018090702e-04 0.0 
-5.715018090702e-04 2.773772709336e-03 0.0 
0.0 0.0 0.0 
3.279591987004e-05 -6.022830652037e-04 0.0 
-6.022830652037e-04 5.360608511531e-03 0.0 
0.0 0.0 0.0 
-1.983043669301e-03 6.016056247642e-04 0.0 
6.016056247642e-04 1.011870555874e-02 0.0 
0.0 0.0 0.0 
-6.395232960199e-04 4.332621078561e-04 0.0 
4.332621078561e-04 1.232619677972e-02 0.0 
0.0 0.0 0.0 
-4.102312185663e-04 -1.521855954250e-03 0.0 
-1.521855954250e-03 8.720330747212e-04 0.0 
0.0 0.0 0.0 
-8.294679672238e-04 1.987446443243e-04 0.0 
1.987446443243e-04 1.216467239133e-02 0.0 
0.0 0.0 0.0 
-1.278534780942e-03 2.063529708033e-04 0.0 
2.063529708033e-04 1.141725529812e-02 0.0 
0.0 0.0 0.0 
1.386183331298e-03 9.074074626326e-05 0.0 
9.074074626326e-05 1.885167470173e-04 0.0 
0.0 0.0 0.0 
2.961997250118e-03 -2.005502535065e-03 0.0 
-2.005502535065e-03 -4.372341291266e-03 0.0 
0.0 0.0 0.0 
-5.337990493229e-04 3.369139329660e-03 0.0 
3.369139329660e-03 8.097910746696e-03 0.0 
0.0 0.0 0.0 
-3.305675344716e-04 1.158007200213e-03 0.0 
1.158007200213e-03 1.233262469013e-02 0.0 
0.0 0.0 0.0 
-5.930594071206e-04 2.066565172871e-04 0.0 
2.066565172871e-04 1.237627280939e-02 0.0 
0.0 0.0 0.0 
9.175732808977e-04 2.823416689757e-03 0.0 
2.823416689757e-03 4.587272544936e-03 0.0 
0.0 0.0 0.0 
-1.450410631041e-03 2.822560271198e-04 0.0 
2.822560271198e-04 1.079943308709e-02 0.0 
0.0 0.0 0.0 
6.071259755485e-04 -4.048360129433e-04 0.0 
-4.048360129433e-04 1.160850584065e-04 0.0 
0.0 0.0 0.0 
7.964073730695e-04 2.115645345709e-03 0.0 
2.115645345709e-03 -3.952002953428e-03 0.0 
0.0 0.0 0.0 
1.752432527091e-04 -5.534244299205e-04 0.0 
-5.534244299205e-04 2.815242346026e-04 0.0 
0.0 0.0 0.0 
-2.929092340691e-04 -1.666546774831e-03 0.0 
-1.666546774831e-03 8.423273485489e-04 0.0 
0.0 0.0 0.0 
-1.734670298290e-03 4.413851696224e-03 0.0 
4.413851696224e-03 -1.524229336476e-03 0.0 
0.0 0.0 0.0 
-1.238737974070e-03 -8.084211853673e-04 0.0 
-8.084211853673e-04 3.384323290490e-03 0.0 
0.0 0.0 0.0 
-3.608985179857e-04 -3.008471233047e-04 0.0 
-3.008471233047e-04 5.456410352126e-03 0.0 
0.0 0.0 0.0 
-6.547758064890e-04 2.911874718365e-03 0.0 
2.911874718365e-03 1.043414660164e-02 0.0 
0.0 0.0 0.0 
-2.159962600469e-03 1.538902895702e-03 0.0 
1.538902895702e-03 1.027562173015e-02 0.0 
0.0 0.0 0.0 
-9.991846835304e-04 -1.127854982921e-03 0.0 
-1.127854982921e-03 2.741364604282e-03 0.0 
0.0 0.0 0.0 
5.372524483589e-04 -4.133633471902e-04 0.0 
-4.133633471902e-04 3.771117753775e-03 0.0 
0.0 0.0 0.0 
1.458336934291e-03 8.219207945618e-04 0.0 
8.219207945618e-04 2.869093640871e-03 0.0 
0.0 0.0 0.0 
6.704027508555e-04 3.333808049474e-03 0.0 
3.333808049474e-03 5.580250330992e-03 0.0 
0.0 0.0 0.0 
6.644040140102e-05 3.537561434646e-03 0.0 
3.537561434646e-03 7.281261609352e-03 0.0 
0.0 0.0 0.0 
-3.751936440280e-04 3.432296857101e-03 0.0 
3.432296857101e-03 8.369067279253e-03 0.0 
0.0 0.0 0.0 
-4.669126967085e-04 -1.240365371901e-03 0.0 
-1.240365371901e-03 8.105482873089e-04 0.0 
0.0 0.0 0.0 
7.483846659080e-04 -1.790649727706e-03 0.0 
-1.790649727706e-03 -3.985839346295e-03 0.0 
0.0 0.0 0.0 
-2.854014902502e-04 -4.884461804227e-04 0.0 
-4.884461804227e-04 5.239901317454e-03 0.0 
0.0 0.0 0.0 
9.467845154270e-04 -9.433497875284e-05 0.0 
-9.433497875284e-05 3.318329420592e-04 0.0 
0.0 0.0 0.0 
9.845165506519e-04 -7.742396626227e-05 0.0 
-7.742396626227e-05 4.588789666904e-04 0.0 
0.0 0.0 0.0 
-7.930544196513e-04 3.927828660958e-03 0.0 
3.927828660958e-03 -5.798113568288e-04 0.0 
0.0 0.0 0.0 
2.147217911850e-04 -6.743250641225e-04 0.0 
-6.743250641225e-04 6.212484659300e-04 0.0 
0.0 0.0 0.0 
3.718483215878e-04 6.840283555152e-05 0.0 
6.840283555152e-05 3.940306755798e-03 0.0 
0.0 0.0 0.0 
-1.888087301054e-04 3.564321153767e-03 0.0 
3.564321153767e-03 8.997118155777e-03 0.0 
0.0 0.0 0.0 
-5.267215828594e-04 8.294807762523e-04 0.0 
8.294807762523e-04 1.230373777991e-02 0.0 
0.0 0.0 0.0 
3.060332824669e-04 3.280401418564e-03 0.0 
3.280401418564e-03 5.849033362270e-03 0.0 
0.0 0.0 0.0 
1.544461518124e-03 8.108228768475e-04 0.0 
8.108228768475e-04 2.430891747246e-03 0.0 
0.0 0.0 0.0 
-1.385657533985e-03 2.813458227284e-04 0.0 
2.813458227284e-04 1.099628374655e-02 0.0 
0.0 0.0 0.0 
0.0 1.550214730615e-03 0.0 
1.550214730615e-03 1.233633915154e-02 0.0 
0.0 0.0 0.0 
2.388176752491e-03 -3.180474391790e-03 0.0 
-3.180474391790e-03 -2.876746556037e-03 0.0 
0.0 0.0 0.0 
-1.708101682892e-03 1.795702703577e-04 0.0 
1.795702703577e-04 9.852854384694e-03 0.0 
0.0 0.0 0.0 
-3.655427867761e-04 -3.387088391231e-03 0.0 
-3.387088391231e-03 -4.374751237712e-05 0.0 
0.0 0.0 0.0 
8.670364354162e-04 -3.433206247439e-04 0.0 
-3.433206247439e-04 -4.686651899788e-06 0.0 
0.0 0.0 0.0 
-8.349659970819e-05 -5.445595917734e-04 0.0 
-5.445595917734e-04 5.668381972749e-03 0.0 
0.0 0.0 0.0 
-2.238657594882e-03 1.106618041117e-03 0.0 
1.106618041117e-03 9.911192675613e-03 0.0 
0.0 0.0 0.0 
8.445088112159e-04 -2.932192621538e-04 0.0 
-2.932192621538e-04 6.497358122706e-04 0.0 
0.0 0.0 0.0 
-1.290761105644e-03 -5.851215518124e-04 0.0 
-5.851215518124e-04 3.451662921324e-03 0.0 
0.0 0.0 0.0 
-2.889542946699e-04 3.687718469887e-03 0.0 
3.687718469887e-03 9.207100967867e-03 0.0 
0.0 0.0 0.0 
-7.165865451377e-04 1.098041868720e-03 0.0 
1.098041868720e-03 1.219498835847e-02 0.0 
0.0 0.0 0.0 
-3.635798583067e-04 2.347327440300e-03 0.0 
2.347327440300e-03 1.151576252830e-02 0.0 
0.0 0.0 0.0 
-9.744301264109e-04 -2.811445684557e-04 0.0 
-2.811445684557e-04 2.687857628264e-03 0.0 
0.0 0.0 0.0 
1.015753589054e-03 2.513371094314e-04 0.0 
2.513371094314e-04 -4.497641174812e-03 0.0 
0.0 0.0 0.0 
1.865850124689e-04 -5.568457639196e-04 0.0 
-5.568457639196e-04 4.679178962427e-03 0.0 
0.0 0.0 0.0 
-2.337124367989e-04 1.626159662094e-04 0.0 
1.626159662094e-04 1.275278192600e-02 0.0 
0.0 0.0 0.0 
-1.997911556429e-04 -1.496104359858e-04 0.0 
-1.496104359858e-04 6.022152009496e-03 0.0 
0.0 0.0 0.0 
-1.473500004070e-03 3.497055307902e-05 0.0 
3.497055307902e-05 1.014892837340e-02 0.0 
0.0 0.0 0.0 
1.052241038205e-03 9.673941044539e-04 0.0 
9.673941044539e-04 3.002020508831e-03 0.0 
0.0 0.0 0.0 
3.937306694506e-04 -2.517999723789e-04 0.0 
-2.517999723789e-04 8.980012856383e-04 0.0 
0.0 0.0 0.0 
-6.306968382125e-04 1.893674378799e-03 0.0 
1.893674378799e-03 1.177416658380e-02 0.0 
0.0 0.0 0.0 
7.074848070987e-04 -3.736951108375e-04 0.0 
-3.736951108375e-04 6.053421180852e-05 0.0 
0.0 0.0 0.0 
4.658587275834e-04 5.729205733237e-04 0.0 
5.729205733237e-04 3.762966262093e-03 0.0 
0.0 0.0 0.0 
-6.142653964810e-04 2.557058830892e-03 0.0 
2.557058830892e-03 1.134047442675e-02 0.0 
0.0 0.0 0.0 
4.286588058637e-04 1.275749734902e-03 0.0 
1.275749734902e-03 -4.635554472473e-03 0.0 
0.0 0.0 0.0 
6.014316408649e-04 3.461508401316e-03 0.0 
3.461508401316e-03 5.775654609289e-03 0.0 
0.0 0.0 0.0 
-1.123344869123e-03 2.185037076805e-04 0.0 
2.185037076805e-04 1.166009703030e-02 0.0 
0.0 0.0 0.0 
-2.709252243456e-04 8.659102813993e-04 0.0 
8.659102813993e-04 1.245248237568e-02 0.0 
0.0 0.0 0.0 
0.0 2.503931044966e-03 0.0 
2.503931044966e-03 5.187409847343e-03 0.0 
0.0 0.0 0.0 
-1.270604985382e-03 2.749238801911e-05 0.0 
2.749238801911e-05 1.122570576660e-02 0.0 
0.0 0.0 0.0 
-1.856733711531e-04 3.486593002621e-03 0.0 
3.486593002621e-03 9.440013727751e-03 0.0 
0.0 0.0 0.0 
-8.129382934201e-04 2.269247913017e-03 0.0 
2.269247913017e-03 1.141255610037e-02 0.0 
0.0 0.0 0.0 
-1.148784851926e-03 1.674708740210e-04 0.0 
1.674708740210e-04 1.142317370007e-02 0.0 
0.0 0.0 0.0 
-3.220071225439e-04 3.418022773090e-03 0.0 
3.418022773090e-03 9.059769955445e-03 0.0 
0.0 0.0 0.0 
-1.196067698956e-03 -6.036298485257e-04 0.0 
-6.036298485257e-04 3.015270288384e-03 0.0 
0.0 0.0 0.0 
-1.551743099563e-03 5.701831702022e-05 0.0 
5.701831702022e-05 9.869284699778e-03 0.0 
0.0 0.0 0.0 
6.798817524096e-04 3.315764426592e-03 0.0 
3.315764426592e-03 5.400568721060e-03 0.0 
0.0 0.0 0.0 
-2.950793171143e-04 1.290715667059e-04 0.0 
1.290715667059e-04 1.258909897955e-02 0.0 
0.0 0.0 0.0 
2.149478665387e-03 -2.254809110472e-05 0.0 
-2.254809110472e-05 -8.343640344812e-04 0.0 
0.0 0.0 0.0 
-1.486717710793e-03 2.317999183230e-05 0.0 
2.317999183230e-05 9.855221512874e-03 0.0 
0.0 0.0 0.0 
-2.484176984313e-04 -1.116283961670e-04 0.0 
-1.116283961670e-04 5.851769783810e-03 0.0 
0.0 0.0 0.0 
-1.061546096663e-04 -7.763013148088e-04 0.0 
-7.763013148088e-04 1.268874376170e-03 0.0 
0.0 0.0 0.0 
1.523160031480e-03 1.463073480232e-03 0.0 
1.463073480232e-03 3.122890228772e-03 0.0 
0.0 0.0 0.0 
-8.800790094987e-04 2.628846858695e-03 0.0 
2.628846858695e-03 1.095809878848e-02 0.0 
0.0 0.0 0.0 
-5.056791432907e-04 7.734242767683e-04 0.0 
7.734242767683e-04 1.245273615796e-02 0.0 
0.0 0.0 0.0 
1.857799804383e-04 -5.107760505313e-04 0.0 
-5.107760505313e-04 1.177688517299e-03 0.0 
0.0 0.0 0.0 
5.307061908635e-04 4.516957750283e-03 0.0 
4.516957750283e-03 -2.047894693586e-03 0.0 
0.0 0.0 0.0 
-1.266373901464e-03 -5.680988134865e-05 0.0 
-5.680988134865e-05 3.958357387446e-03 0.0 
0.0 0.0 0.0 
-8.908623329013e-04 1.918991689760e-04 0.0 
1.918991689760e-04 1.196357304292e-02 0.0 
0.0 0.0 0.0 
-5.854412156403e-03 -2.868416225739e-04 0.0 
-2.868416225739e-04 -2.013008644706e-03 0.0 
0.0 0.0 0.0 
-3.326455174020e-04 1.970486079590e-03 0.0 
1.970486079590e-03 1.188100572537e-02 0.0 
0.0 0.0 0.0 
-1.259845714155e-03 1.246165064307e-04 0.0 
1.246165064307e-04 1.112618030450e-02 0.0 
0.0 0.0 0.0 
3.743266981626e-04 -3.282643582598e-03 0.0 
-3.282643582598e-03 -7.004332136717e-04 0.0 
0.0 0.0 0.0 
-1.376210309142e-03 1.788018705129e-04 0.0 
1.788018705129e-04 1.088648258355e-02 0.0 
0.0 0.0 0.0 
4.840187041171e-04 3.523772852352e-03 0.0 
3.523772852352e-03 6.121474194654e-03 0.0 
0.0 0.0 0.0 
-1.237252697288e-03 -1.135122470027e-04 0.0 
-1.135122470027e-04 4.054997210856e-03 0.0 
0.0 0.0 0.0 
-2.409416444380e-03 4.384850141983e-03 0.0 
4.384850141983e-03 3.838480219538e-04 0.0 
0.0 0.0 0.0 
-1.132046535114e-03 -7.704795498980e-04 0.0 
-7.704795498980e-04 2.834485563023e-03 0.0 
0.0 0.0 0.0 
-1.181347026347e-03 -7.572004171956e-04 0.0 
-7.572004171956e-04 3.617891132984e-03 0.0 
0.0 0.0 0.0 
-1.202350902594e-03 -3.657811863943e-05 0.0 
-3.657811863943e-05 4.178156352521e-03 0.0 
0.0 0.0 0.0 
9.397067919183e-04 2.834201444325e-03 0.0 
2.834201444325e-03 4.542986184249e-03 0.0 
0.0 0.0 0.0 
-1.296219857913e-03 -3.798545479888e-04 0.0 
-3.798545479888e-04 3.614036609012e-03 0.0 
0.0 0.0 0.0 
-1.242463933973e-03 -4.865353445534e-04 0.0 
-4.865353445534e-04 3.814280845073e-03 0.0 
0.0 0.0 0.0 
2.822920732453e-04 -6.542977856893e-04 0.0 
-6.542977856893e-04 4.447501407778e-04 0.0 
0.0 0.0 0.0 
1.820380420712e-04 -5.295222704531e-04 0.0 
-5.295222704531e-04 4.533625458931e-03 0.0 
0.0 0.0 0.0 
1.253543796997e-04 3.597843625440e-03 0.0 
3.597843625440e-03 6.946385872914e-03 0.0 
0.0 0.0 0.0 
1.420963947531e-03 3.903641992022e-03 0.0 
3.903641992022e-03 -2.599331117994e-03 0.0 
0.0 0.0 0.0 
-2.418066910004e-04 1.190805228545e-04 0.0 
1.190805228545e-04 1.258204716701e-02 0.0 
0.0 0.0 0.0 
-2.149337862631e-04 -9.337766961337e-05 0.0 
-9.337766961337e-05 5.845607822614e-03 0.0 
0.0 0.0 0.0 
-1.487806455543e-03 3.272981645855e-06 0.0 
3.272981645855e-06 1.016639858727e-02 0.0 
0.0 0.0 0.0 
-1.326799477902e-03 1.044360316764e-04 0.0 
1.044360316764e-04 1.112071010893e-02 0.0 
0.0 0.0 0.0 
-1.290891492693e-03 -5.678391650696e-04 0.0 
-5.678391650696e-04 3.634988812062e-03 0.0 
0.0 0.0 0.0 
-1.258344047319e-03 -5.700602960878e-04 0.0 
-5.700602960878e-04 3.531237014137e-03 0.0 
0.0 0.0 0.0 
-1.297776712762e-03 -3.714307883578e-04 0.0 
-3.714307883578e-04 3.741888209158e-03 0.0 
0.0 0.0 0.0 
1.632141731906e-03 1.577474015035e-03 0.0 
1.577474015035e-03 2.629457287934e-03 0.0 
0.0 0.0 0.0 
7.160256087246e-05 -2.902924286919e-03 0.0 
-2.902924286919e-03 4.329584003020e-04 0.0 
0.0 0.0 0.0 
-8.835416792863e-06 3.698931647161e-03 0.0 
3.698931647161e-03 7.605452223066e-03 0.0 
0.0 0.0 0.0 
-1.422754770530e-03 8.948391926899e-05 0.0 
8.948391926899e-05 1.051215908146e-02 0.0 
0.0 0.0 0.0 
-6.409900500821e-04 1.878590855014e-03 0.0 
1.878590855014e-03 1.194626603206e-02 0.0 
0.0 0.0 0.0 
1.524035026185e-03 1.406447723203e-03 0.0 
1.406447723203e-03 2.608588927212e-03 0.0 
0.0 0.0 0.0 
-1.464602550065e-03 1.881624706648e-04 0.0 
1.881624706648e-04 1.088704052126e-02 0.0 
0.0 0.0 0.0 
-4.318190701952e-04 3.373058649560e-03 0.0 
3.373058649560e-03 8.890247742229e-03 0.0 
0.0 0.0 0.0 
8.853503879349e-04 2.879666374659e-03 0.0 
2.879666374659e-03 4.528561506118e-03 0.0 
0.0 0.0 0.0 
7.647498965917e-04 3.123626791458e-03 0.0 
3.123626791458e-03 5.215434337173e-03 0.0 
0.0 0.0 0.0 
-9.788484247362e-04 4.292806363161e-03 0.0 
4.292806363161e-03 -1.989552652460e-03 0.0 
0.0 0.0 0.0 
-5.152620534172e-04 3.407021939010e-03 0.0 
3.407021939010e-03 8.886736878283e-03 0.0 
0.0 0.0 0.0 
-3.074565566412e-04 3.607085119827e-03 0.0 
3.607085119827e-03 8.691480632434e-03 0.0 
0.0 0.0 0.0 
7.410861281651e-04 -5.406308673453e-04 0.0 
-5.406308673453e-04 3.483971186793e-04 0.0 
0.0 0.0 0.0 
-1.275940844798e-03 -5.900983760174e-04 0.0 
-5.900983760174e-04 3.431252073982e-03 0.0 
0.0 0.0 0.0 
-1.529392307365e-03 3.653875341249e-03 0.0 
3.653875341249e-03 -1.518389055068e-03 0.0 
0.0 0.0 0.0 
-5.245454931483e-04 3.500375078259e-03 0.0 
3.500375078259e-03 9.282808162789e-03 0.0 
0.0 0.0 0.0 
-1.302041000943e-03 -1.553221641737e-05 0.0 
-1.553221641737e-05 7.630793396196e-03 0.0 
0.0 0.0 0.0 
-1.357000494361e-03 -2.335933470138e-05 0.0 
-2.335933470138e-05 7.666104078827e-03 0.0 
0.0 0.0 0.0 
-1.262891235536e-03 -2.352476298640e-05 0.0 
-2.352476298640e-05 7.665940563595e-03 0.0 
0.0 0.0 0.0 
-1.351575520703e-03 -6.355817527570e-05 0.0 
-6.355817527570e-05 7.668589459750e-03 0.0 
0.0 0.0 0.0 
-1.263875109388e-03 -4.986481734484e-05 0.0 
-4.986481734484e-05 7.666430352714e-03 0.0 
0.0 0.0 0.0 
-1.348629404831e-03 -8.967504892267e-05 0.0 
-8.967504892267e-05 7.664388690309e-03 0.0 
0.0 0.0 0.0 
-1.258801013525e-03 -7.333461858268e-05 0.0 
-7.333461858268e-05 7.660867644648e-03 0.0 
0.0 0.0 0.0 
-1.348118708110e-03 -1.138580952102e-04 0.0 
-1.138580952102e-04 7.659586213064e-03 0.0 
0.0 0.0 0.0 
-1.247723073486e-03 -9.286139735358e-05 0.0 
-9.286139735358e-05 7.653835564732e-03 0.0 
0.0 0.0 0.0 
-1.348392218464e-03 -1.364922515136e-04 0.0 
-1.364922515136e-04 7.654076154840e-03 0.0 
0.0 0.0 0.0 
-1.231147303901e-03 -1.090017117846e-04 0.0 
-1.090017117846e-04 7.644909994708e-03 0.0 
0.0 0.0 0.0 
-1.347940091447e-03 -1.570512430675e-04 0.0 
-1.570512430675e-04 7.647386417976e-03 0.0 
0.0 0.0 0.0 
-1.209319472242e-03 -1.223642162144e-04 0.0 
-1.223642162144e-04 7.633619472980e-03 0.0 
0.0 0.0 0.0 
-1.346232046576e-03 -1.757022946912e-04 0.0 
-1.757022946912e-04 7.638927523552e-03 0.0 
0.0 0.0 0.0 
-1.181758974582e-03 -1.318481622403e-04 0.0 
-1.318481622403e-04 7.618699301408e-03 0.0 
0.0 0.0 0.0 
-1.343616842991e-03 -1.905881527932e-04 0.0 
-1.905881527932e-04 7.628922597271e-03 0.0 
0.0 0.0 0.0 
-1.148898515704e-03 -1.361536540197e-04 0.0 
-1.361536540197e-04 7.600168367855e-03 0.0 
0.0 0.0 0.0 
-1.356122572640e-03 1.274834620284e-03 0.0 
1.274834620284e-03 6.977749677512e-03 0.0 
0.0 0.0 0.0 
-1.340874287055e-03 -2.000199227756e-04 0.0 
-2.000199227756e-04 7.617784396966e-03 0.0 
0.0 0.0 0.0 
-1.111687925692e-03 -1.346915862561e-04 0.0 
-1.346915862561e-04 7.578549658940e-03 0.0 
0.0 0.0 0.0 
-1.623156044160e-03 1.008290512227e-03 0.0 
1.008290512227e-03 7.276769043158e-03 0.0 
0.0 0.0 0.0 
-1.339011987269e-03 -2.034475047615e-04 0.0 
-2.034475047615e-04 7.605524100295e-03 0.0 
0.0 0.0 0.0 
-1.070181802802e-03 -1.260218171452e-04 0.0 
-1.260218171452e-04 7.553121809131e-03 0.0 
0.0 0.0 0.0 
-1.339395263329e-03 -1.991577562247e-04 0.0 
-1.991577562247e-04 7.592082840797e-03 0.0 
0.0 0.0 0.0 
-1.024935079765e-03 -1.076942834405e-04 0.0 
-1.076942834405e-04 7.522962831205e-03 0.0 
0.0 0.0 0.0 
-1.344087463059e-03 -1.842085770269e-04 0.0 
-1.842085770269e-04 7.577433318047e-03 0.0 
0.0 0.0 0.0 
-7.965945054774e-04 9.360812462641e-04 0.0 
9.360812462641e-04 6.671902441903e-03 0.0 
0.0 0.0 0.0 
-9.780053570885e-04 -7.570497169976e-05 0.0 
-7.570497169976e-05 7.486867066730e-03 0.0 
0.0 0.0 0.0 
-1.355468331687e-03 -1.525317870243e-04 0.0 
-1.525317870243e-04 7.562643976822e-03 0.0 
0.0 0.0 0.0 
-9.361807344243e-04 -2.218810045975e-05 0.0 
-2.218810045975e-05 7.444466738038e-03 0.0 
0.0 0.0 0.0 
-1.342488481820e-03 -9.463879295807e-05 0.0 
-9.463879295807e-05 7.531344039699e-03 0.0 
0.0 0.0 0.0 
-8.573019633131e-04 5.149166889308e-05 0.0 
5.149166889308e-05 7.384450370542e-03 0.0 
0.0 0.0 0.0 
-1.329458186079e-03 -1.786728036245e-05 0.0 
-1.786728036245e-05 7.494804765915e-03 0.0 
0.0 0.0 0.0 
-7.761713726382e-04 1.463146478856e-04 0.0 
1.463146478856e-04 7.313652959416e-03 0.0 
0.0 0.0 0.0 
-1.325298898917e-03 8.179529540693e-05 0.0 
8.179529540693e-05 7.450552116902e-03 0.0 
0.0 0.0 0.0 
-7.086062390456e-04 2.640393722062e-04 0.0 
2.640393722062e-04 7.231623045649e-03 0.0 
0.0 0.0 0.0 
-1.339953011663e-03 2.157489566832e-04 0.0 
2.157489566832e-04 7.406755257077e-03 0.0 
0.0 0.0 0.0 
-2.059893809900e-03 1.792798479169e-03 0.0 
1.792798479169e-03 7.394859832493e-03 0.0 
0.0 0.0 0.0 
-1.381251799958e-03 3.782327587436e-04 0.0 
3.782327587436e-04 7.344863668830e-03 0.0 
0.0 0.0 0.0 
-6.679336343826e-04 4.178859203407e-04 0.0 
4.178859203407e-04 7.145662114336e-03 0.0 
0.0 0.0 0.0 
-1.403855413119e-03 6.305576877503e-04 0.0 
6.305576877503e-04 7.277253864171e-03 0.0 
0.0 0.0 0.0 
-6.700552465022e-04 6.163802306515e-04 0.0 
6.163802306515e-04 7.026799521060e-03 0.0 
0.0 0.0 0.0 
-7.830198072111e-04 9.075050991756e-04 0.0 
9.075050991756e-04 6.919069800192e-03 0.0 
0.0 0.0 0.0 
-1.837951613609e-03 1.050645614397e-03 0.0 
1.050645614397e-03 7.507727903648e-03 0.0 
0.0 0.0 0.0 
-1.387039757410e-03 -5.812203875141e-05 0.0 
-5.812203875141e-05 7.710500997381e-03 0.0 
0.0 0.0 0.0 
-1.341086316652e-03 4.847850463079e-05 0.0 
4.847850463079e-05 7.628028773787e-03 0.0 
0.0 0.0 0.0 
-1.372512001711e-03 -1.260365878511e-05 0.0 
-1.260365878511e-05 7.785655717499e-03 0.0 
0.0 0.0 0.0 
-1.354915723795e-03 5.015854629212e-06 0.0 
5.015854629212e-06 7.556227818427e-03 0.0 
0.0 0.0 0.0 
-2.202962347641e-03 1.855427981347e-03 0.0 
1.855427981347e-03 6.848999265066e-03 0.0 
0.0 0.0 0.0 
-1.411719142636e-03 -2.954964560525e-05 0.0 
-2.954964560525e-05 8.184420012979e-03 0.0 
0.0 0.0 0.0 
-1.357000494361e-03 -3.252474836177e-05 0.0 
-3.252474836177e-05 8.140689128147e-03 0.0 
0.0 0.0 0.0 
-1.415394646943e-03 -3.350950494018e-05 0.0 
-3.350950494018e-05 8.140736637870e-03 0.0 
0.0 0.0 0.0 
-1.351575520703e-03 -6.020367146467e-05 0.0 
-6.020367146467e-05 8.135515606049e-03 0.0 
0.0 0.0 0.0 
-1.420630178273e-03 -5.011015053544e-05 0.0 
-5.011015053544e-05 8.137418066636e-03 0.0 
0.0 0.0 0.0 
-1.348629404831e-03 -7.975846844408e-05 0.0 
-7.975846844408e-05 8.132464412380e-03 0.0 
0.0 0.0 0.0 
-1.429461919366e-03 -6.746014714881e-05 0.0 
-6.746014714881e-05 8.135732401782e-03 0.0 
0.0 0.0 0.0 
-1.348118708110e-03 -9.986058839143e-05 0.0 
-9.986058839143e-05 8.130154777834e-03 0.0 
0.0 0.0 0.0 
-1.443293755408e-03 -8.390254520745e-05 0.0 
-8.390254520745e-05 8.135631398739e-03 0.0 
0.0 0.0 0.0 
-1.348392218464e-03 -1.195508603933e-04 0.0 
-1.195508603933e-04 8.127667174106e-03 0.0 
0.0 0.0 0.0 
-1.460643899687e-03 -9.924497607381e-05 0.0 
-9.924497607381e-05 8.136284602222e-03 0.0 
0.0 0.0 0.0 
-1.347940091447e-03 -1.378626554409e-04 0.0 
-1.378626554409e-04 8.123294743685e-03 0.0 
0.0 0.0 0.0 
-1.476776110312e-03 -1.127768347402e-04 0.0 
-1.127768347402e-04 8.136020383997e-03 0.0 
0.0 0.0 0.0 
-1.346232046576e-03 -1.529064172629e-04 0.0 
-1.529064172629e-04 8.116679515228e-03 0.0 
0.0 0.0 0.0 
-1.497300852886e-03 -1.217747868485e-04 0.0 
-1.217747868485e-04 8.135174919631e-03 0.0 
0.0 0.0 0.0 
-1.343616842991e-03 -1.630546912748e-04 0.0 
-1.630546912748e-04 8.106852313029e-03 0.0 
0.0 0.0 0.0 
-1.642917748093e-03 1.249654380576e-03 0.0 
1.249654380576e-03 7.500596711621e-03 0.0 
0.0 0.0 0.0 
-1.520725961799e-03 -1.240416411535e-04 0.0 
-1.240416411535e-04 8.133374334701e-03 0.0 
0.0 0.0 0.0 
-1.340874287055e-03 -1.656861291288e-04 0.0 
-1.656861291288e-04 8.094674499593e-03 0.0 
0.0 0.0 0.0 
-1.403855413119e-03 1.112848778751e-03 0.0 
1.112848778751e-03 7.309729826165e-03 0.0 
0.0 0.0 0.0 
-1.546587740149e-03 -1.185859583272e-04 0.0 
-1.185859583272e-04 8.131081675781e-03 0.0 
0.0 0.0 0.0 
-1.339011987269e-03 -1.586805622058e-04 0.0 
-1.586805622058e-04 8.080111846262e-03 0.0 
0.0 0.0 0.0 
-1.862443871733e-03 1.000932029474e-03 0.0 
1.000932029474e-03 7.804200593637e-03 0.0 
0.0 0.0 0.0 
-1.578334048433e-03 -1.036370404921e-04 0.0 
-1.036370404921e-04 8.128484514042e-03 0.0 
0.0 0.0 0.0 
-1.339395263329e-03 -1.392915013537e-04 0.0 
-1.392915013537e-04 8.061320754506e-03 0.0 
0.0 0.0 0.0 
-1.616605331708e-03 -7.559618138878e-05 0.0 
-7.559618138878e-05 8.124486852598e-03 0.0 
0.0 0.0 0.0 
-1.344087463059e-03 -1.024034951306e-04 0.0 
-1.024034951306e-04 8.036510772203e-03 0.0 
0.0 0.0 0.0 
-1.662592846151e-03 -3.001180037951e-05 0.0 
-3.001180037951e-05 8.117207504838e-03 0.0 
0.0 0.0 0.0 
-1.355468331687e-03 -3.927883441960e-05 0.0 
-3.927883441960e-05 7.999494541682e-03 0.0 
0.0 0.0 0.0 
-1.919328037308e-03 1.505876168134e-03 0.0 
1.505876168134e-03 7.695498656427e-03 0.0 
0.0 0.0 0.0 
-1.696815377454e-03 4.072588183057e-05 0.0 
4.072588183057e-05 8.097312856123e-03 0.0 
0.0 0.0 0.0 
-1.342488481820e-03 4.886395143426e-05 0.0 
4.886395143426e-05 7.948731325463e-03 0.0 
0.0 0.0 0.0 
-1.716662331154e-03 1.356637896897e-04 0.0 
1.356637896897e-04 8.066449401679e-03 0.0 
0.0 0.0 0.0 
-1.329458186079e-03 1.723871070230e-04 0.0 
1.723871070230e-04 7.882987928606e-03 0.0 
0.0 0.0 0.0 
-1.325298898917e-03 3.391596104972e-04 0.0 
3.391596104972e-04 7.807112956510e-03 0.0 
0.0 0.0 0.0 
-1.741791759832e-03 2.686142800057e-04 0.0 
2.686142800057e-04 8.025943038758e-03 0.0 
0.0 0.0 0.0 
-1.339953011663e-03 5.640581912792e-04 0.0 
5.640581912792e-04 7.691825287235e-03 0.0 
0.0 0.0 0.0 
-1.774915427547e-03 4.327313617643e-04 0.0 
4.327313617643e-04 7.967860930544e-03 0.0 
0.0 0.0 0.0 
-1.381251799958e-03 8.706668808853e-04 0.0 
8.706668808853e-04 7.571879741299e-03 0.0 
0.0 0.0 0.0 
-1.765679106310e-03 6.777719452975e-04 0.0 
6.777719452975e-04 7.880377199998e-03 0.0 
0.0 0.0 0.0 
-1.832295463554e-03 1.197980415840e-03 0.0 
1.197980415840e-03 7.672290889013e-03 0.0 
0.0 0.0 0.0 
-1.370079356857e-03 -6.318183009285e-05 0.0 
-6.318183009285e-05 8.113218221653e-03 0.0 
0.0 0.0 0.0 
-1.411567442019e-03 3.922187248406e-05 0.0 
3.922187248406e-05 8.187858494068e-03 0.0 
0.0 0.0 0.0 
-1.372512001711e-03 -1.852371188054e-05 0.0 
-1.852371188054e-05 8.028447424153e-03 0.0 
0.0 0.0 0.0 
-1.410136218711e-03 -2.954168174116e-06 0.0 
-2.954168174116e-06 8.268741216695e-03 0.0 
0.0 0.0 0.0 
-1.623156044160e-03 1.642516761075e-03 0.0 
1.642516761075e-03 7.175469688925e-03 0.0 
0.0 0.0 0.0 
-1.411719142636e-03 -3.149484989952e-05 0.0 
-3.149484989952e-05 8.544986027067e-03 0.0 
0.0 0.0 0.0 
-1.457193437369e-03 -2.695054875232e-05 0.0 
-2.695054875232e-05 8.594660750244e-03 0.0 
0.0 0.0 0.0 
-1.415394646943e-03 -3.064875724860e-05 0.0 
-3.064875724860e-05 8.594926074117e-03 0.0 
0.0 0.0 0.0 
-1.465724029772e-03 -5.107067247254e-05 0.0 
-5.107067247254e-05 8.600208609136e-03 0.0 
0.0 0.0 0.0 
-1.420630178273e-03 -4.011186628917e-05 0.0 
-4.011186628917e-05 8.598311135294e-03 0.0 
0.0 0.0 0.0 
-1.479298306913e-03 -6.423691805987e-05 0.0 
-6.423691805987e-05 8.602407226305e-03 0.0 
0.0 0.0 0.0 
-1.429461919366e-03 -4.991236639306e-05 0.0 
-4.991236639306e-05 8.599043952097e-03 0.0 
0.0 0.0 0.0 
-1.497305958137e-03 -7.597468574170e-05 0.0 
-7.597468574170e-05 8.605377985421e-03 0.0 
0.0 0.0 0.0 
-1.443293755408e-03 -5.787619870505e-05 0.0 
-5.787619870505e-05 8.600009422994e-03 0.0 
0.0 0.0 0.0 
-1.522878418114e-03 -8.565854494655e-05 0.0 
-8.565854494655e-05 8.610279353190e-03 0.0 
0.0 0.0 0.0 
-1.460643899687e-03 -6.295767081246e-05 0.0 
-6.295767081246e-05 8.602068814286e-03 0.0 
0.0 0.0 0.0 
-1.553315835362e-03 -9.323832178466e-05 0.0 
-9.323832178466e-05 8.615180576401e-03 0.0 
0.0 0.0 0.0 
-1.476776110312e-03 -6.365045633897e-05 0.0 
-6.365045633897e-05 8.602480794416e-03 0.0 
0.0 0.0 0.0 
-1.592587926944e-03 -9.834570909465e-05 0.0 
-9.834570909465e-05 8.621087952652e-03 0.0 
0.0 0.0 0.0 
-1.497300852886e-03 -6.117733638251e-05 0.0 
-6.117733638251e-05 8.602409120607e-03 0.0 
0.0 0.0 0.0 
-1.938713142842e-03 1.102370738000e-03 0.0 
1.102370738000e-03 8.112423849549e-03 0.0 
0.0 0.0 0.0 
-1.639585691956e-03 -1.008245568837e-04 0.0 
-1.008245568837e-04 8.626415760298e-03 0.0 
0.0 0.0 0.0 
-2.080335398048e-03 8.726064008088e-04 0.0 
8.726064008088e-04 8.347890259687e-03 0.0 
0.0 0.0 0.0 
-1.520725961799e-03 -5.247395577296e-05 0.0 
-5.247395577296e-05 8.598640715961e-03 0.0 
0.0 0.0 0.0 
-1.684357955999e-03 -9.369547403050e-05 0.0 
-9.369547403050e-05 8.628851435314e-03 0.0 
0.0 0.0 0.0 
-1.546587740149e-03 -3.244298809064e-05 0.0 
-3.244298809064e-05 8.589614553856e-03 0.0 
0.0 0.0 0.0 
-1.734026478130e-03 -7.224265713760e-05 0.0 
-7.224265713760e-05 8.630427520392e-03 0.0 
0.0 0.0 0.0 
-1.578334048433e-03 1.304671969472e-06 0.0 
1.304671969472e-06 8.578202249391e-03 0.0 
0.0 0.0 0.0 
-1.791243078215e-03 -3.668884532568e-05 0.0 
-3.668884532568e-05 8.629336749775e-03 0.0 
0.0 0.0 0.0 
-1.765679106310e-03 1.028094277490e-03 0.0 
1.028094277490e-03 7.926918895414e-03 0.0 
0.0 0.0 0.0 
-1.616605331708e-03 5.384179371537e-05 0.0 
5.384179371537e-05 8.559300969169e-03 0.0 
0.0 0.0 0.0 
-1.856128857330e-03 2.023100688514e-05 0.0 
2.023100688514e-05 8.623059313314e-03 0.0 
0.0 0.0 0.0 
-1.662592846151e-03 1.308692884318e-04 0.0 
1.308692884318e-04 8.530702189134e-03 0.0 
0.0 0.0 0.0 
-1.926354329455e-03 1.007137515635e-04 0.0 
1.007137515635e-04 8.602939217906e-03 0.0 
0.0 0.0 0.0 
-1.696815377454e-03 2.352663721790e-04 0.0 
2.352663721790e-04 8.480633861863e-03 0.0 
0.0 0.0 0.0 
-1.975491900679e-03 2.187831684390e-04 0.0 
2.187831684390e-04 8.568887874079e-03 0.0 
0.0 0.0 0.0 
-1.716662331154e-03 3.754720738830e-04 0.0 
3.754720738830e-04 8.414973286792e-03 0.0 
0.0 0.0 0.0 
-2.008989719084e-03 3.682163215554e-04 0.0 
3.682163215554e-04 8.511504243660e-03 0.0 
0.0 0.0 0.0 
-2.011262975102e-03 5.918948222966e-04 0.0 
5.918948222966e-04 8.429568800856e-03 0.0 
0.0 0.0 0.0 
-1.741791759832e-03 5.659127142454e-04 0.0 
5.659127142454e-04 8.310595456041e-03 0.0 
0.0 0.0 0.0 
-2.100730475660e-03 1.270981372287e-03 0.0 
1.270981372287e-03 8.241249884272e-03 0.0 
0.0 0.0 0.0 
-1.774915427547e-03 8.176181776082e-04 0.0 
8.176181776082e-04 8.195013673079e-03 0.0 
0.0 0.0 0.0 
-2.034910104513e-03 1.062472427191e-03 0.0 
1.062472427191e-03 8.154446871754e-03 0.0 
0.0 0.0 0.0 
-1.449385859311e-03 -6.123265278013e-05 0.0 
-6.123265278013e-05 8.606110174074e-03 0.0 
0.0 0.0 0.0 
-1.413461590910e-03 4.043492681409e-05 0.0 
4.043492681409e-05 8.541390627262e-03 0.0 
0.0 0.0 0.0 
-1.451729990495e-03 -1.581356803947e-05 0.0 
-1.581356803947e-05 8.696905779025e-03 0.0 
0.0 0.0 0.0 
-1.410136218711e-03 -2.560647812882e-06 0.0 
-2.560647812882e-06 8.454388074792e-03 0.0 
0.0 0.0 0.0 
-1.862443871733e-03 1.419894392418e-03 0.0 
1.419894392418e-03 7.797842690940e-03 0.0 
0.0 0.0 0.0 
-1.489699228007e-03 -2.157633080350e-05 0.0 
-2.157633080350e-05 9.086542521225e-03 0.0 
0.0 0.0 0.0 
-1.457193437369e-03 -1.532432386301e-05 0.0 
-1.532432386301e-05 9.045979980811e-03 0.0 
0.0 0.0 0.0 
-1.497700102812e-03 -1.658355891182e-05 0.0 
-1.658355891182e-05 9.045971996983e-03 0.0 
0.0 0.0 0.0 
-1.465724029772e-03 -3.089083819284e-05 0.0 
-3.089083819284e-05 9.045479556265e-03 0.0 
0.0 0.0 0.0 
-1.517410905207e-03 -1.778767301679e-05 0.0 
-1.778767301679e-05 9.048194285999e-03 0.0 
0.0 0.0 0.0 
-1.479298306913e-03 -3.506009138914e-05 0.0 
-3.506009138914e-05 9.049002586182e-03 0.0 
0.0 0.0 0.0 
-1.542792491977e-03 -2.020345750228e-05 0.0 
-2.020345750228e-05 9.053377076990e-03 0.0 
0.0 0.0 0.0 
-1.497305958137e-03 -3.775789363730e-05 0.0 
-3.775789363730e-05 9.050231032954e-03 0.0 
0.0 0.0 0.0 
-1.571415618451e-03 -1.662576597881e-05 0.0 
-1.662576597881e-05 9.058049082179e-03 0.0 
0.0 0.0 0.0 
-1.522878418114e-03 -3.567765427022e-05 0.0 
-3.567765427022e-05 9.056510700030e-03 0.0 
0.0 0.0 0.0 
-1.611911104590e-03 -1.364316916231e-05 0.0 
-1.364316916231e-05 9.067060221333e-03 0.0 
0.0 0.0 0.0 
-1.553315835362e-03 -3.148426270038e-05 0.0 
-3.148426270038e-05 9.058444560831e-03 0.0 
0.0 0.0 0.0 
-1.656004436710e-03 -1.057450781652e-06 0.0 
-1.057450781652e-06 9.075325965607e-03 0.0 
0.0 0.0 0.0 
-2.142440976074e-03 9.505798176913e-04 0.0 
9.505798176913e-04 8.703302513434e-03 0.0 
0.0 0.0 0.0 
-1.592587926944e-03 -1.838807187487e-05 0.0 
-1.838807187487e-05 9.064747226402e-03 0.0 
0.0 0.0 0.0 
-1.713610229113e-03 1.401800845655e-05 0.0 
1.401800845655e-05 9.086697343198e-03 0.0 
0.0 0.0 0.0 
-2.011262975102e-03 8.967875071055e-04 0.0 
8.967875071055e-04 8.529070305420e-03 0.0 
0.0 0.0 0.0 
-1.639585691956e-03 2.344341617343e-06 0.0 
2.344341617343e-06 9.063842583585e-03 0.0 
0.0 0.0 0.0 
-1.774676528914e-03 4.167376646831e-05 0.0 
4.167376646831e-05 9.094129751208e-03 0.0 
0.0 0.0 0.0 
-2.219327153755e-03 7.929611238092e-04 0.0 
7.929611238092e-04 8.880142751736e-03 0.0 
0.0 0.0 0.0 
-1.684357955999e-03 3.445032896439e-05 0.0 
3.445032896439e-05 9.059324519364e-03 0.0 
0.0 0.0 0.0 
-1.848510089739e-03 7.904094337550e-05 0.0 
7.904094337550e-05 9.099754304089e-03 0.0 
0.0 0.0 0.0 
-1.734026478130e-03 7.820854765043e-05 0.0 
7.820854765043e-05 9.048491359756e-03 0.0 
0.0 0.0 0.0 
-1.912447053106e-03 1.262729064615e-04 0.0 
1.262729064615e-04 9.098267337206e-03 0.0 
0.0 0.0 0.0 
-1.791243078215e-03 1.416130264403e-04 0.0 
1.416130264403e-04 9.027669116308e-03 0.0 
0.0 0.0 0.0 
-2.262125609819e-03 1.094251605807e-03 0.0 
1.094251605807e-03 8.808888692290e-03 0.0 
0.0 0.0 0.0 
-1.986095752622e-03 1.953191387028e-04 0.0 
1.953191387028e-04 9.089851618636e-03 0.0 
0.0 0.0 0.0 
-1.856128857330e-03 2.310451291474e-04 0.0 
2.310451291474e-04 8.996138716213e-03 0.0 
0.0 0.0 0.0 
-1.926354329455e-03 3.499014010160e-04 0.0 
3.499014010160e-04 8.950324626660e-03 0.0 
0.0 0.0 0.0 
-2.061062533041e-03 2.880562398891e-04 0.0 
2.880562398891e-04 9.069695474919e-03 0.0 
0.0 0.0 0.0 
-1.975491900679e-03 5.066164808949e-04 0.0 
5.066164808949e-04 8.860869148657e-03 0.0 
0.0 0.0 0.0 
-2.137236099655e-03 4.016492528616e-04 0.0 
4.016492528616e-04 9.028695545256e-03 0.0 
0.0 0.0 0.0 
-2.008989719084e-03 7.180378464350e-04 0.0 
7.180378464350e-04 8.763046809651e-03 0.0 
0.0 0.0 0.0 
-2.146743961644e-03 5.742625541690e-04 0.0 
5.742625541690e-04 8.953888792639e-03 0.0 
0.0 0.0 0.0 
-2.216073883648e-03 9.379125204551e-04 0.0 
9.379125204551e-04 8.703025213079e-03 0.0 
0.0 0.0 0.0 
-1.446195881604e-03 -5.781808231184e-05 0.0 
-5.781808231184e-05 9.017383281867e-03 0.0 
0.0 0.0 0.0 
-1.486893232796e-03 4.612256391051e-05 0.0 
4.612256391051e-05 9.090522381815e-03 0.0 
0.0 0.0 0.0 
-1.451729990495e-03 -1.198513359555e-05 0.0 
-1.198513359555e-05 8.933626800605e-03 0.0 
0.0 0.0 0.0 
-1.482424676701e-03 3.116007307493e-06 0.0 
3.116007307493e-06 9.169796132188e-03 0.0 
0.0 0.0 0.0 
-2.080335398048e-03 1.201750518153e-03 0.0 
1.201750518153e-03 8.405252593982e-03 0.0 
0.0 0.0 0.0 
-1.489699228007e-03 -1.435675360002e-05 0.0 
-1.435675360002e-05 9.447859270859e-03 0.0 
0.0 0.0 0.0 
-1.493657607307e-03 1.737847783829e-07 0.0 
1.737847783829e-07 9.478717256946e-03 0.0 
0.0 0.0 0.0 
-1.497700102812e-03 5.380363654254e-06 0.0 
5.380363654254e-06 9.478118706129e-03 0.0 
0.0 0.0 0.0 
-1.515926914617e-03 2.334523754625e-06 0.0 
2.334523754625e-06 9.487716747339e-03 0.0 
0.0 0.0 0.0 
-1.517410905207e-03 1.279006861225e-05 0.0 
1.279006861225e-05 9.485883204749e-03 0.0 
0.0 0.0 0.0 
-1.541336661195e-03 7.625610412777e-06 0.0 
7.625610412777e-06 9.495396773664e-03 0.0 
0.0 0.0 0.0 
-1.542792491977e-03 2.045377430941e-05 0.0 
2.045377430941e-05 9.492398532068e-03 0.0 
0.0 0.0 0.0 
-1.572915036523e-03 1.141681741320e-05 0.0 
1.141681741320e-05 9.498896958511e-03 0.0 
0.0 0.0 0.0 
-1.571415618451e-03 3.592274378177e-05 0.0 
3.592274378177e-05 9.491656906252e-03 0.0 
0.0 0.0 0.0 
-1.606271744122e-03 3.169932825939e-05 0.0 
3.169932825939e-05 9.508340141008e-03 0.0 
0.0 0.0 0.0 
-1.611911104590e-03 5.289214018583e-05 0.0 
5.289214018583e-05 9.501035945262e-03 0.0 
0.0 0.0 0.0 
-1.658062347271e-03 4.340359117372e-05 0.0 
4.340359117372e-05 9.515069924446e-03 0.0 
0.0 0.0 0.0 
-2.258203776086e-03 8.731945083951e-04 0.0 
8.731945083951e-04 9.256686445044e-03 0.0 
0.0 0.0 0.0 
-1.656004436710e-03 8.077791079970e-05 0.0 
8.077791079970e-05 9.499593268956e-03 0.0 
0.0 0.0 0.0 
-2.247032966403e-03 7.283149903239e-04 0.0 
7.283149903239e-04 9.382347064629e-03 0.0 
0.0 0.0 0.0 
-1.708101682892e-03 7.749826234624e-05 0.0 
7.749826234624e-05 9.525042507682e-03 0.0 
0.0 0.0 0.0 
-1.713610229113e-03 1.150673059154e-04 0.0 
1.150673059154e-04 9.507667929196e-03 0.0 
0.0 0.0 0.0 
-1.778922898985e-03 1.065523512874e-04 0.0 
1.065523512874e-04 9.530457717966e-03 0.0 
0.0 0.0 0.0 
-1.774676528914e-03 1.632436063299e-04 0.0 
1.632436063299e-04 9.500147160838e-03 0.0 
0.0 0.0 0.0 
-1.854516311614e-03 1.599170408359e-04 0.0 
1.599170408359e-04 9.535232593336e-03 0.0 
0.0 0.0 0.0 
-1.848510089739e-03 2.275659315174e-04 0.0 
2.275659315174e-04 9.494919558883e-03 0.0 
0.0 0.0 0.0 
-1.929801244652e-03 2.274858445730e-04 0.0 
2.274858445730e-04 9.532011051084e-03 0.0 
0.0 0.0 0.0 
-2.146743961644e-03 8.454860384273e-04 0.0 
8.454860384273e-04 9.079025221186e-03 0.0 
0.0 0.0 0.0 
-1.912447053106e-03 3.120796110912e-04 0.0 
3.120796110912e-04 9.475457422618e-03 0.0 
0.0 0.0 0.0 
-2.018580385065e-03 3.125051011236e-04 0.0 
3.125051011236e-04 9.520444503736e-03 0.0 
0.0 0.0 0.0 
-1.986095752622e-03 4.146548234436e-04 0.0 
4.146548234436e-04 9.444292288808e-03 0.0 
0.0 0.0 0.0 
-2.097707105753e-03 4.185569752001e-04 0.0 
4.185569752001e-04 9.491690973456e-03 0.0 
0.0 0.0 0.0 
-2.168789072730e-03 5.600473406372e-04 0.0 
5.600473406372e-04 9.444167217150e-03 0.0 
0.0 0.0 0.0 
-2.061062533041e-03 5.452334646878e-04 0.0 
5.452334646878e-04 9.389463508518e-03 0.0 
0.0 0.0 0.0 
-2.137236099655e-03 7.036828958569e-04 0.0 
7.036828958569e-04 9.320529300827e-03 0.0 
0.0 0.0 0.0 
-2.340798724763e-03 9.826757372773e-04 0.0 
9.826757372773e-04 9.338123893423e-03 0.0 
0.0 0.0 0.0 
-2.299250751209e-03 8.594798852834e-04 0.0 
8.594798852834e-04 9.202068021708e-03 0.0 
0.0 0.0 0.0 
-1.501843423969e-03 -4.717101864876e-05 0.0 
-4.717101864876e-05 9.482257240429e-03 0.0 
0.0 0.0 0.0 
-1.480260515640e-03 6.020879204728e-05 0.0 
6.020879204728e-05 9.443464897319e-03 0.0 
0.0 0.0 0.0 
-1.499108123282e-03 4.037256140302e-06 0.0 
4.037256140302e-06 9.579084771728e-03 0.0 
0.0 0.0 0.0 
-1.482424676701e-03 1.127382463682e-05 0.0 
1.127382463682e-05 9.350512219572e-03 0.0 
0.0 0.0 0.0 
-2.219327153755e-03 1.070657934504e-03 0.0 
1.070657934504e-03 9.000178385369e-03 0.0 
0.0 0.0 0.0 

TENSORS element_materi_strain_plasti float
-1.278716781713e-04 2.317088785895e-03 0.0 
2.317088785895e-03 1.725589617193e-03 0.0 
0.0 0.0 -6.847362595807e-04 
-1.156199042648e-04 2.024353748068e-03 0.0 
2.024353748068e-03 1.515455915080e-03 0.0 
0.0 0.0 -5.999297189210e-04 
-1.399419419615e-03 2.869344170324e-03 0.0 
2.869344170324e-03 7.127002349296e-03 0.0 
0.0 0.0 -1.278236581085e-03 
-1.499770292198e-03 1.938127459123e-04 0.0 
1.938127459123e-04 8.462485561252e-03 0.0 
0.0 0.0 -1.255598393855e-03 
-1.590286579790e-03 5.866412250785e-04 0.0 
5.866412250785e-04 5.570411940462e-03 0.0 
0.0 0.0 -7.961861350945e-04 
9.753052699299e-04 2.049730811989e-03 0.0 
2.049730811989e-03 -7.410546550660e-04 0.0 
0.0 0.0 -1.003931206560e-04 
-1.532722360608e-03 5.037005669365e-04 0.0 
5.037005669365e-04 5.548158926813e-03 0.0 
0.0 0.0 -8.011023898636e-04 
6.217083316276e-05 2.386622999709e-03 0.0 
2.386622999709e-03 1.415043626867e-03 0.0 
0.0 0.0 -6.330919114413e-04 
-1.605315258057e-03 4.380832637377e-06 0.0 
4.380832637377e-06 5.621376957900e-03 0.0 
0.0 0.0 -7.977904104815e-04 
-1.475813289088e-03 8.034655794974e-04 0.0 
8.034655794974e-04 8.366055234102e-03 0.0 
0.0 0.0 -1.253060141438e-03 
-1.723349006480e-03 -4.463465104632e-04 0.0 
-4.463465104632e-04 5.097851564140e-03 0.0 
0.0 0.0 -1.066978692879e-03 
5.108532101029e-06 1.964113970332e-03 0.0 
1.964113970332e-03 1.245831196254e-03 0.0 
0.0 0.0 -5.361170264378e-04 
-1.727294747470e-03 -3.711696677191e-04 0.0 
-3.711696677191e-04 6.945132129710e-03 0.0 
0.0 0.0 -1.259187713256e-03 
-1.707478703098e-03 1.059006860170e-03 0.0 
1.059006860170e-03 5.791719022601e-03 0.0 
0.0 0.0 -8.526168115438e-04 
-1.560262196776e-03 -9.393570101401e-04 0.0 
-9.393570101401e-04 6.928774089182e-03 0.0 
0.0 0.0 -1.289538875031e-03 
-1.440818830272e-03 6.754770737443e-04 0.0 
6.754770737443e-04 8.548838696717e-03 0.0 
0.0 0.0 -1.285984941237e-03 
-1.662616207287e-03 5.344607310422e-04 0.0 
5.344607310422e-04 5.529033418926e-03 0.0 
0.0 0.0 -7.740676797406e-04 
7.357046437425e-05 6.570695833459e-05 0.0 
6.570695833459e-05 -7.357046437425e-05 0.0 
0.0 0.0 0.0 
-6.149932217399e-04 -2.296531181353e-04 0.0 
-2.296531181353e-04 1.902161440616e-03 0.0 
0.0 0.0 -2.776016825098e-04 
-5.498585393581e-04 -2.166839192677e-04 0.0 
-2.166839192677e-04 1.738279106343e-03 0.0 
0.0 0.0 -4.484512109716e-04 
-1.512957112042e-03 4.043623184242e-04 0.0 
4.043623184242e-04 8.437324312554e-03 0.0 
0.0 0.0 -1.250388265701e-03 
-3.873012428043e-04 2.129273940428e-03 0.0 
2.129273940428e-03 2.185606563766e-03 0.0 
0.0 0.0 -7.707022804121e-04 
-4.415956435739e-04 2.226005795527e-03 0.0 
2.226005795527e-03 2.374460708771e-03 0.0 
0.0 0.0 -8.283707422273e-04 
-4.392711161920e-04 -9.745966439417e-04 0.0 
-9.745966439417e-04 3.836297522503e-03 0.0 
0.0 0.0 -1.210372970477e-03 
-1.729903628601e-03 1.506745383258e-03 0.0 
1.506745383258e-03 5.975665893657e-03 0.0 
0.0 0.0 -9.130988374533e-04 
-1.810671457854e-03 -7.476421640110e-04 0.0 
-7.476421640110e-04 5.330964071115e-03 0.0 
0.0 0.0 -1.080045423496e-03 
-1.736477005164e-03 1.109495533801e-03 0.0 
1.109495533801e-03 4.957414051106e-03 0.0 
0.0 0.0 -7.148082707961e-04 
-9.553018808659e-04 3.102749138761e-03 0.0 
3.102749138761e-03 5.566273317297e-03 0.0 
0.0 0.0 -1.266047838742e-03 
-1.821356794347e-03 1.188786638151e-03 0.0 
1.188786638151e-03 6.013421513739e-03 0.0 
0.0 0.0 -9.113908267906e-04 
-6.554257296263e-04 -8.444129216472e-04 0.0 
-8.444129216472e-04 4.294151155513e-03 0.0 
0.0 0.0 -1.237914324842e-03 
1.345111965206e-03 -2.563071370678e-03 0.0 
-2.563071370678e-03 -3.409519374557e-04 0.0 
0.0 0.0 -4.303542976074e-04 
3.575551772738e-04 -9.432915107626e-04 0.0 
-9.432915107626e-04 3.359353657627e-04 0.0 
0.0 0.0 -1.059755802940e-04 
-1.524187206040e-03 3.047553797097e-03 0.0 
3.047553797097e-03 7.492448074924e-03 0.0 
0.0 0.0 -1.261301343383e-03 
-2.126259398598e-03 -4.008249318176e-04 0.0 
-4.008249318176e-04 6.245433906960e-03 0.0 
0.0 0.0 -1.090200430068e-03 
-1.168924377092e-03 -2.135391167217e-03 0.0 
-2.135391167217e-03 5.528728836968e-03 0.0 
0.0 0.0 -1.254989870190e-03 
-1.506183274607e-03 -1.403999252581e-03 0.0 
-1.403999252581e-03 6.695784423920e-03 0.0 
0.0 0.0 -1.314886350686e-03 
-1.405965625827e-03 -2.094418066157e-03 0.0 
-2.094418066157e-03 6.677666447639e-03 0.0 
0.0 0.0 -1.314653105918e-03 
-6.328504155879e-04 1.260189016710e-03 0.0 
1.260189016710e-03 4.185986138576e-03 0.0 
0.0 0.0 -1.264739017786e-03 
-1.486815579568e-03 -1.990720886798e-04 0.0 
-1.990720886798e-04 5.107008468447e-03 0.0 
0.0 0.0 -7.380763454961e-04 
-1.448070308282e-03 4.493602178438e-04 0.0 
4.493602178438e-04 5.173305882684e-03 0.0 
0.0 0.0 -7.371174501546e-04 
-8.280494050984e-04 2.109474212237e-03 0.0 
2.109474212237e-03 3.158688487348e-03 0.0 
0.0 0.0 -8.774464902234e-04 
-1.113239206738e-03 -1.655283581889e-03 0.0 
-1.655283581889e-03 5.115282801902e-03 0.0 
0.0 0.0 -1.280756488215e-03 
3.008174076713e-04 2.119260517804e-03 0.0 
2.119260517804e-03 8.825314744810e-04 0.0 
0.0 0.0 -5.071495209224e-04 
-1.653413400617e-03 1.159238962241e-03 0.0 
1.159238962241e-03 4.683778627350e-03 0.0 
0.0 0.0 -7.557105610435e-04 
-1.547330050851e-03 3.671214089611e-05 0.0 
3.671214089611e-05 8.340609894927e-03 0.0 
0.0 0.0 -1.212858513926e-03 
3.049695683184e-04 2.191509382836e-03 0.0 
2.191509382836e-03 9.207765491606e-04 0.0 
0.0 0.0 -5.253197646338e-04 
1.207574275293e-03 -2.365696291912e-03 0.0 
-2.365696291912e-03 -7.132596237324e-04 0.0 
0.0 0.0 -2.118491363831e-04 
-1.445646034229e-03 2.633500934319e-04 0.0 
2.633500934319e-04 8.137788974429e-03 0.0 
0.0 0.0 -1.234743356787e-03 
1.908988241954e-04 -8.061125310431e-04 0.0 
-8.061125310431e-04 -1.579045808257e-05 0.0 
0.0 0.0 -7.504644261978e-05 
-1.740092141895e-03 6.147961927965e-04 0.0 
6.147961927965e-04 5.664008038323e-03 0.0 
0.0 0.0 -8.229436299569e-04 
-6.078592580179e-04 2.220023986171e-03 0.0 
2.220023986171e-03 2.788765867991e-03 0.0 
0.0 0.0 -9.296584868968e-04 
-8.623973456416e-04 -2.162048895284e-04 0.0 
-2.162048895284e-04 2.432076766193e-03 0.0 
0.0 0.0 -4.150917825895e-04 
2.292279279293e-03 -2.762669743217e-03 0.0 
-2.762669743217e-03 -9.405005062222e-04 0.0 
0.0 0.0 -5.793337598876e-04 
-6.898259874441e-04 2.091701766161e-03 0.0 
2.091701766161e-03 2.855891423984e-03 0.0 
0.0 0.0 -8.656335400463e-04 
-1.445100174427e-03 2.379194139466e-03 0.0 
2.379194139466e-03 7.706829156199e-03 0.0 
0.0 0.0 -1.282189168212e-03 
-9.586804568965e-04 -6.913799780171e-04 0.0 
-6.913799780171e-04 2.989840683449e-03 0.0 
0.0 0.0 -7.128710764410e-04 
-6.997308059935e-04 -2.320910788817e-04 0.0 
-2.320910788817e-04 2.233925226019e-03 0.0 
0.0 0.0 -5.951090654820e-04 
-2.130460140960e-03 -2.340494849444e-04 0.0 
-2.340494849444e-04 6.282260078053e-03 0.0 
0.0 0.0 -1.087734043503e-03 
1.076454852669e-04 -7.426368379909e-04 0.0 
-7.426368379909e-04 1.194913348537e-03 0.0 
0.0 0.0 -3.122055485762e-04 
-1.457512378927e-03 3.071898754378e-04 0.0 
3.071898754378e-04 8.560769857503e-03 0.0 
0.0 0.0 -1.285320035817e-03 
0.0 0.0 0.0 
0.0 0.0 0.0 
0.0 0.0 0.0 
-5.387044635242e-04 2.656482396914e-03 0.0 
2.656482396914e-03 4.203857407929e-03 0.0 
0.0 0.0 -1.210824713543e-03 
3.439414593790e-04 2.794168595655e-03 0.0 
2.794168595655e-03 1.235314347192e-03 0.0 
0.0 0.0 -6.768239171020e-04 
2.349935129578e-03 -2.770680198001e-03 0.0 
-2.770680198001e-03 -6.796113691984e-04 0.0 
0.0 0.0 -7.158530401625e-04 
-1.671429738175e-03 -1.210022446990e-03 0.0 
-1.210022446990e-03 6.777156017205e-03 0.0 
0.0 0.0 -1.257478522087e-03 
-5.278364963199e-04 2.118194625541e-03 0.0 
2.118194625541e-03 2.531471725177e-03 0.0 
0.0 0.0 -8.587008123673e-04 
0.0 0.0 0.0 
0.0 0.0 0.0 
0.0 0.0 0.0 
-1.493925828084e-03 3.040545355870e-03 0.0 
3.040545355870e-03 7.302395090943e-03 0.0 
0.0 0.0 -1.261660853087e-03 
4.867824217369e-04 -2.505859056628e-03 0.0 
-2.505859056628e-03 8.835287678333e-04 0.0 
0.0 0.0 -5.872762241015e-04 
-1.271990412820e-03 3.214687538356e-03 0.0 
3.214687538356e-03 6.250345422673e-03 0.0 
0.0 0.0 -1.282376455277e-03 
-1.831786578585e-03 -1.075910520083e-03 0.0 
-1.075910520083e-03 5.407233681497e-03 0.0 
0.0 0.0 -1.080053202689e-03 
-1.338499280800e-03 1.682976327997e-03 0.0 
1.682976327997e-03 8.399936015446e-03 0.0 
0.0 0.0 -1.338499280800e-03 
-9.312572041143e-04 2.894697176184e-03 0.0 
2.894697176184e-03 4.910832013066e-03 0.0 
0.0 0.0 -1.232909111256e-03 
1.433784453303e-03 -9.093882019497e-05 0.0 
-9.093882019497e-05 -5.456392549777e-05 0.0 
0.0 0.0 -2.878745769087e-04 
-9.147252279940e-04 -5.669281210358e-04 0.0 
-5.669281210358e-04 2.973437083954e-03 0.0 
0.0 0.0 -8.116687730804e-04 
-1.536993954654e-03 1.126957410002e-03 0.0 
1.126957410002e-03 8.303326713538e-03 0.0 
0.0 0.0 -1.262626981217e-03 
-1.574019976009e-03 2.576738749078e-03 0.0 
2.576738749078e-03 7.875617774672e-03 0.0 
0.0 0.0 -1.265352048664e-03 
4.720058723338e-04 2.134723574062e-03 0.0 
2.134723574062e-03 6.830651359346e-04 0.0 
0.0 0.0 -4.950304321150e-04 
-3.200456338227e-04 -3.352696368382e-04 0.0 
-3.352696368382e-04 1.110105412521e-03 0.0 
0.0 0.0 -3.374836250442e-04 
5.206675697946e-04 2.217090668705e-03 0.0 
2.217090668705e-03 6.763455683265e-04 0.0 
0.0 0.0 -5.130056306233e-04 
4.804782057485e-04 -2.508358039830e-03 0.0 
-2.508358039830e-03 8.916054330170e-04 0.0 
0.0 0.0 -5.880358451852e-04 
-1.625607394925e-03 4.831506481737e-04 0.0 
4.831506481737e-04 5.291976980867e-03 0.0 
0.0 0.0 -7.918363975426e-04 
-2.908848742719e-04 2.252062443166e-03 0.0 
2.252062443166e-03 2.033636756898e-03 0.0 
0.0 0.0 -7.468936639825e-04 
-2.599695243754e-04 1.891700121758e-03 0.0 
1.891700121758e-03 1.743771242898e-03 0.0 
0.0 0.0 -6.359150222241e-04 
-1.678000531135e-03 1.594922248822e-04 0.0 
1.594922248822e-04 5.821879659601e-03 0.0 
0.0 0.0 -8.336771054075e-04 
-1.596383286677e-03 5.670740920774e-04 0.0 
5.670740920774e-04 5.789976808295e-03 0.0 
0.0 0.0 -8.358076868167e-04 
-1.951624680642e-03 -7.308270384445e-04 0.0 
-7.308270384445e-04 5.657668243585e-03 0.0 
0.0 0.0 -1.080533843704e-03 
-2.196082702137e-03 8.354918695911e-05 0.0 
8.354918695911e-05 6.184278536814e-03 0.0 
0.0 0.0 -1.059807920279e-03 
-1.525646772161e-03 2.625569910847e-03 0.0 
2.625569910847e-03 6.112973773832e-03 0.0 
0.0 0.0 -1.085941371602e-03 
-1.648645582224e-03 1.246285648401e-04 0.0 
1.246285648401e-04 5.489793155500e-03 0.0 
0.0 0.0 -7.983229688164e-04 
-1.123057724715e-05 -5.872900984588e-04 0.0 
-5.872900984588e-04 3.960725969021e-04 0.0 
0.0 0.0 -1.649322941379e-04 
-1.757846623502e-03 1.222419041867e-03 0.0 
1.222419041867e-03 5.122536551657e-03 0.0 
0.0 0.0 -7.928983479555e-04 
-1.578530100158e-03 5.920453420347e-05 0.0 
5.920453420347e-05 7.247400490716e-03 0.0 
0.0 0.0 -1.069439317440e-03 
-1.600676841679e-03 3.339381263473e-04 0.0 
3.339381263473e-04 7.321452075562e-03 0.0 
0.0 0.0 -1.046447409317e-03 
-1.502072334268e-03 1.832498170444e-03 0.0 
1.832498170444e-03 8.633609047693e-03 0.0 
0.0 0.0 -1.319970921405e-03 
-9.007094055422e-04 1.223013959388e-03 0.0 
1.223013959388e-03 4.725884480151e-03 0.0 
0.0 0.0 -1.294194962782e-03 
-1.674253522828e-03 4.484898109266e-04 0.0 
4.484898109266e-04 5.280548957068e-03 0.0 
0.0 0.0 -7.889745663688e-04 
-1.078149223136e-03 -1.912876176720e-03 0.0 
-1.912876176720e-03 5.515902141362e-03 0.0 
0.0 0.0 -1.263183913703e-03 
-1.546584036688e-03 -9.624953365827e-05 0.0 
-9.624953365827e-05 6.233353762451e-03 0.0 
0.0 0.0 -9.040008563810e-04 
1.411194399049e-04 2.915371637598e-03 0.0 
2.915371637598e-03 1.618838156256e-03 0.0 
0.0 0.0 -7.542675412120e-04 
-1.587713497171e-03 1.272120189302e-04 0.0 
1.272120189302e-04 5.375209747655e-03 0.0 
0.0 0.0 -7.643292725052e-04 
-1.604005809179e-03 -6.682657737697e-04 0.0 
-6.682657737697e-04 6.948639054056e-03 0.0 
0.0 0.0 -1.287517816355e-03 
3.542986660605e-04 2.115271012738e-03 0.0 
2.115271012738e-03 2.453989176071e-03 0.0 
0.0 0.0 -1.043751955586e-03 
-5.121197440995e-04 2.106847301720e-03 0.0 
2.106847301720e-03 4.264562002622e-03 0.0 
0.0 0.0 -1.209599240962e-03 
8.414669120651e-04 2.750323762399e-03 0.0 
2.750323762399e-03 6.433152604662e-04 0.0 
0.0 0.0 -6.363352167991e-04 
5.516999887664e-04 -2.796976242529e-03 0.0 
-2.796976242529e-03 1.148224010342e-04 0.0 
0.0 0.0 -2.856524527717e-04 
-1.904299824368e-03 -6.917450604687e-04 0.0 
-6.917450604687e-04 6.641778035438e-03 0.0 
0.0 0.0 -1.189902873528e-03 
-1.601708388107e-03 3.286250233117e-04 0.0 
3.286250233117e-04 7.722816405099e-03 0.0 
0.0 0.0 -1.108790581071e-03 
3.810766207412e-05 -6.205157488134e-04 0.0 
-6.205157488134e-04 -3.810766207413e-05 0.0 
0.0 0.0 0.0 
-1.434793545909e-03 -1.524718547292e-03 0.0 
-1.524718547292e-03 6.503522325473e-03 0.0 
0.0 0.0 -1.285127980003e-03 
-1.436465131336e-03 2.957908754166e-03 0.0 
2.957908754166e-03 5.615958785865e-03 0.0 
0.0 0.0 -1.051491716222e-03 
2.107685358584e-03 1.966346604052e-04 0.0 
1.966346604052e-04 -5.019158565474e-04 0.0 
0.0 0.0 -2.190510374322e-04 
1.208695653732e-03 2.926354061763e-03 0.0 
2.926354061763e-03 1.261066979529e-04 0.0 
0.0 0.0 -5.720581507223e-04 
-1.531499204645e-03 1.574438431832e-03 0.0 
1.574438431832e-03 4.499656748010e-03 0.0 
0.0 0.0 -7.914135736088e-04 
-9.815222315618e-04 -1.138374471426e-03 0.0 
-1.138374471426e-03 3.347141370850e-03 0.0 
0.0 0.0 -9.587991763485e-04 
2.655737035557e-04 2.419593458192e-03 0.0 
2.419593458192e-03 1.115288623384e-03 0.0 
0.0 0.0 -5.917981401168e-04 
3.744529332960e-04 2.946102748991e-03 0.0 
2.946102748991e-03 1.286129190467e-03 0.0 
0.0 0.0 -7.116780530414e-04 
-1.321847859093e-03 -1.772500593240e-03 0.0 
-1.772500593240e-03 5.826707907603e-03 0.0 
0.0 0.0 -1.283833066805e-03 
-1.525040410968e-03 2.578190730368e-04 0.0 
2.578190730368e-04 6.156621214154e-03 0.0 
0.0 0.0 -8.766975940251e-04 
5.363756903500e-04 2.629255494055e-03 0.0 
2.629255494055e-03 8.922896369145e-04 0.0 
0.0 0.0 -6.122851402562e-04 
1.683483209039e-04 -2.096310185990e-03 0.0 
-2.096310185990e-03 1.080312045122e-03 0.0 
0.0 0.0 -5.351401568681e-04 
-1.746303579404e-03 1.473532537081e-03 0.0 
1.473532537081e-03 5.178940412439e-03 0.0 
0.0 0.0 -7.744920945421e-04 
-1.517476482960e-03 1.097936493812e-04 0.0 
1.097936493812e-04 7.545801257606e-03 0.0 
0.0 0.0 -1.129288753466e-03 
5.838877050126e-04 2.764835075281e-03 0.0 
2.764835075281e-03 9.155423273699e-04 0.0 
0.0 0.0 -6.426128710211e-04 
3.893622582553e-04 1.575203385168e-03 0.0 
1.575203385168e-03 3.980592224466e-04 0.0 
0.0 0.0 -3.374663488723e-04 
-1.195366450636e-03 1.829833708586e-03 0.0 
1.829833708586e-03 3.827762851113e-03 0.0 
0.0 0.0 -8.233021825037e-04 
-1.094193203907e-03 -1.066143348073e-03 0.0 
-1.066143348073e-03 3.532112380788e-03 0.0 
0.0 0.0 -8.981558865158e-04 
-1.046482062160e-03 1.913988030913e-03 0.0 
1.913988030913e-03 3.510208918747e-03 0.0 
0.0 0.0 -8.113141688877e-04 
-1.442225258082e-03 1.605824937381e-03 0.0 
1.605824937381e-03 8.359073722744e-03 0.0 
0.0 0.0 -1.290671971449e-03 
1.101065632512e-03 2.933128537393e-03 0.0 
2.933128537393e-03 9.745442457705e-05 0.0 
0.0 0.0 -5.136514530381e-04 
-1.801548102835e-03 -7.282038970032e-04 0.0 
-7.282038970032e-04 5.288878918754e-03 0.0 
0.0 0.0 -1.060402641786e-03 
-1.486141105577e-03 5.585996661944e-04 0.0 
5.585996661944e-04 8.452622925900e-03 0.0 
0.0 0.0 -1.256690274141e-03 
-3.198454740031e-04 3.015481670953e-03 0.0 
3.015481670953e-03 2.568097898378e-03 0.0 
0.0 0.0 -9.635367533037e-04 
-1.021958554670e-03 1.956756434106e-03 0.0 
1.956756434106e-03 3.500404682426e-03 0.0 
0.0 0.0 -8.457158960689e-04 
-1.158957625686e-03 -1.674495574427e-03 0.0 
-1.674495574427e-03 5.533719249484e-03 0.0 
0.0 0.0 -1.254964138299e-03 
-1.718729624033e-03 -7.379037217155e-04 0.0 
-7.379037217155e-04 6.953664324138e-03 0.0 
0.0 0.0 -1.261070974318e-03 
-1.967620110819e-03 -6.331696876036e-04 0.0 
-6.331696876036e-04 5.669647458342e-03 0.0 
0.0 0.0 -1.061066130071e-03 
-6.061740370739e-04 3.049979969874e-03 0.0 
3.049979969874e-03 3.089302566165e-03 0.0 
0.0 0.0 -9.441827087005e-04 
-7.851765230129e-04 -1.170373150230e-03 0.0 
-1.170373150230e-03 4.916146318737e-03 0.0 
0.0 0.0 -1.270330610962e-03 
-5.043578746139e-04 2.747041251980e-03 0.0 
2.747041251980e-03 2.809200300211e-03 0.0 
0.0 0.0 -9.719555150774e-04 
-1.411040385942e-03 9.892815171228e-04 0.0 
9.892815171228e-04 8.317615504874e-03 0.0 
0.0 0.0 -1.283174495648e-03 
-1.289076372121e-03 3.481935391156e-03 0.0 
3.481935391156e-03 6.606253020577e-03 0.0 
0.0 0.0 -1.267437373369e-03 
-1.784736589840e-03 7.085096522011e-04 0.0 
7.085096522011e-04 5.733057783552e-03 0.0 
0.0 0.0 -8.543707170918e-04 
-1.586571893561e-03 5.026260166066e-04 0.0 
5.026260166066e-04 6.801986481939e-03 0.0 
0.0 0.0 -9.817831382938e-04 
-5.156399995053e-04 2.841155344974e-03 0.0 
2.841155344974e-03 2.858892473080e-03 0.0 
0.0 0.0 -9.645491798066e-04 
-8.623176927628e-04 1.998107917208e-03 0.0 
1.998107917208e-03 3.164246376073e-03 0.0 
0.0 0.0 -8.398345356346e-04 
-3.881715109885e-04 3.210536691478e-03 0.0 
3.210536691478e-03 2.805390491743e-03 0.0 
0.0 0.0 -1.009766620266e-03 
9.302504035183e-04 2.952397877038e-03 0.0 
2.952397877038e-03 6.425944529841e-04 0.0 
0.0 0.0 -6.740763670724e-04 
-1.542505755946e-03 1.216931962656e-05 0.0 
1.216931962656e-05 5.518918282905e-03 0.0 
0.0 0.0 -7.693993191400e-04 
1.440386328935e-03 3.141679147944e-03 0.0 
3.141679147944e-03 1.287757348394e-04 0.0 
0.0 0.0 -6.724980273319e-04 
1.173568897977e-04 -7.192653952147e-04 0.0 
-7.192653952147e-04 2.932653952173e-04 0.0 
0.0 0.0 -1.759809792922e-04 
-1.513364044801e-03 4.633102658988e-05 0.0 
4.633102658988e-05 5.921965621168e-03 0.0 
0.0 0.0 -8.171079392438e-04 
-4.255541535768e-04 -1.657123349734e-04 0.0 
-1.657123349734e-04 1.278602330907e-03 0.0 
0.0 0.0 -2.802839825148e-04 
-1.368206188634e-03 1.704449020245e-03 0.0 
1.704449020245e-03 4.168743630605e-03 0.0 
0.0 0.0 -8.053258742841e-04 
-1.010207907769e-03 -1.246817911064e-03 0.0 
-1.246817911064e-03 4.735746548095e-03 0.0 
0.0 0.0 -1.284796145094e-03 
7.390568671829e-04 2.553228098249e-03 0.0 
2.553228098249e-03 5.918003010214e-04 0.0 
0.0 0.0 -5.703673578019e-04 
-2.093082199977e-03 -2.605836003403e-04 0.0 
-2.605836003403e-04 5.949086090445e-03 0.0 
0.0 0.0 -1.062413871926e-03 
1.655520854684e-04 2.161371362285e-03 0.0 
2.161371362285e-03 1.103022204114e-03 0.0 
0.0 0.0 -5.436746955351e-04 
2.242015872536e-04 2.776975076431e-03 0.0 
2.776975076431e-03 2.408189383906e-03 0.0 
0.0 0.0 -1.044905595188e-03 
-1.509926535812e-03 9.806530388370e-05 0.0 
9.806530388370e-05 5.368363465218e-03 0.0 
0.0 0.0 -7.899655494116e-04 
1.682599579449e-03 2.941445331381e-03 0.0 
2.941445331381e-03 -2.715371857708e-04 0.0 
0.0 0.0 -6.047410258623e-04 
-2.057240178145e-03 -7.296543458156e-04 0.0 
-7.296543458156e-04 6.353419805029e-03 0.0 
0.0 0.0 -1.120963572432e-03 
7.939550842650e-05 -1.701837783695e-03 0.0 
-1.701837783695e-03 9.541700722220e-04 0.0 
0.0 0.0 -4.429566774208e-04 
-1.888286542342e-03 -4.078361496187e-04 0.0 
-4.078361496187e-04 6.637817436663e-03 0.0 
0.0 0.0 -1.189111243166e-03 
-1.407485654430e-03 2.291313923690e-03 0.0 
2.291313923690e-03 4.423118315057e-03 0.0 
0.0 0.0 -8.496092609019e-04 
-1.655956820216e-03 -1.430755689950e-03 0.0 
-1.430755689950e-03 6.808595235967e-03 0.0 
0.0 0.0 -1.265987209193e-03 
-1.479137566383e-03 6.125436213776e-05 0.0 
6.125436213776e-05 5.372221524286e-03 0.0 
0.0 0.0 -7.842605076999e-04 
1.138347058752e-03 2.740886700746e-03 0.0 
2.740886700746e-03 1.338850972854e-04 0.0 
0.0 0.0 -5.452423525874e-04 
-1.371065394049e-03 1.713545049238e-03 0.0 
1.713545049238e-03 4.152463321133e-03 0.0 
0.0 0.0 -7.801847948469e-04 
-1.782923268792e-03 -4.744584193542e-04 0.0 
-4.744584193542e-04 5.239530130494e-03 0.0 
0.0 0.0 -1.068702715777e-03 
1.574789883305e-04 2.145072666255e-03 0.0 
2.145072666255e-03 1.105288466408e-03 0.0 
0.0 0.0 -5.411860520308e-04 
1.917158204157e-03 2.902714119045e-03 0.0 
2.902714119045e-03 -2.818191306246e-04 0.0 
0.0 0.0 -7.008596029424e-04 
-1.624113157274e-03 6.876053139899e-05 0.0 
6.876053139899e-05 7.048361475913e-03 0.0 
0.0 0.0 -1.016465148841e-03 
-1.496185645618e-03 2.597795714976e-04 0.0 
2.597795714976e-04 5.580042956141e-03 0.0 
0.0 0.0 -7.680022369673e-04 
1.209193990119e-03 2.857448575399e-03 0.0 
2.857448575399e-03 6.945453600021e-05 0.0 
0.0 0.0 -5.479922254795e-04 
-1.208481437465e-03 1.793019710120e-03 0.0 
1.793019710120e-03 3.824789842828e-03 0.0 
0.0 0.0 -7.984459790235e-04 
-1.152184433486e-03 3.335097296693e-03 0.0 
3.335097296693e-03 5.424015752646e-03 0.0 
0.0 0.0 -1.136725521675e-03 
-1.147448492341e-03 -1.324005404889e-03 0.0 
-1.324005404889e-03 3.757906895843e-03 0.0 
0.0 0.0 -9.635001610743e-04 
-1.057040178935e-03 2.860292126594e-03 0.0 
2.860292126594e-03 5.175691718835e-03 0.0 
0.0 0.0 -1.285202198870e-03 
-1.235950081423e-03 3.387647794385e-03 0.0 
3.387647794385e-03 6.387700415222e-03 0.0 
0.0 0.0 -1.265486236287e-03 
9.281696803103e-05 2.658900655702e-03 0.0 
2.658900655702e-03 1.536267417270e-03 0.0 
0.0 0.0 -6.981790222718e-04 
-1.143109251794e-03 -9.968271358534e-04 0.0 
-9.968271358534e-04 3.727905850470e-03 0.0 
0.0 0.0 -9.933498913217e-04 
8.375618411639e-06 -4.309904929494e-04 0.0 
-4.309904929494e-04 3.045007785971e-03 0.0 
0.0 0.0 -1.152822474774e-03 
-6.877546197814e-04 2.505636337626e-03 0.0 
2.505636337626e-03 3.038701524841e-03 0.0 
0.0 0.0 -9.245708556394e-04 
1.703115487888e-04 2.091650289530e-03 0.0 
2.091650289530e-03 1.051916456575e-03 0.0 
0.0 0.0 -5.238120022987e-04 
-1.475392442541e-03 1.965496358724e-03 0.0 
1.965496358724e-03 4.467421796523e-03 0.0 
0.0 0.0 -8.137754052845e-04 
9.749921592096e-04 3.123149167265e-03 0.0 
3.123149167265e-03 7.036965901566e-04 0.0 
0.0 0.0 -7.194380354427e-04 
-1.431612767918e-03 8.458326217491e-04 0.0 
8.458326217491e-04 8.384155646033e-03 0.0 
0.0 0.0 -1.279059907835e-03 
-1.564281029058e-03 2.665406032541e-03 0.0 
2.665406032541e-03 6.081997352065e-03 0.0 
0.0 0.0 -1.060691896764e-03 
-1.994493389840e-03 -1.486147162618e-04 0.0 
-1.486147162618e-04 6.559276794178e-03 0.0 
0.0 0.0 -1.155968210243e-03 
4.093528604226e-04 2.208508467563e-03 0.0 
2.208508467563e-03 7.981291822907e-04 0.0 
0.0 0.0 -5.174923040200e-04 
2.334418016396e-03 2.579116851284e-03 0.0 
2.579116851284e-03 -5.999483228990e-04 0.0 
0.0 0.0 -7.433441543560e-04 
-1.484568773685e-03 2.868377484862e-03 0.0 
2.868377484862e-03 6.031945958818e-03 0.0 
0.0 0.0 -1.089453766084e-03 
0.0 0.0 0.0 
0.0 0.0 0.0 
0.0 0.0 0.0 
-6.877179378264e-04 2.407578529618e-03 0.0 
2.407578529618e-03 2.994584755227e-03 0.0 
0.0 0.0 -9.117638418509e-04 
1.701472924961e-04 -1.416553182353e-03 0.0 
-1.416553182353e-03 2.527445138619e-03 0.0 
0.0 0.0 -1.080675545910e-03 
7.614101656211e-04 -9.306526935755e-04 0.0 
-9.306526935755e-04 6.714955075901e-04 0.0 
0.0 0.0 -3.004177607877e-04 
-1.466695883915e-03 2.895664536321e-03 0.0 
2.895664536321e-03 7.498365973997e-03 0.0 
0.0 0.0 -1.257517519450e-03 
-1.714163728762e-03 1.976135659385e-03 0.0 
1.976135659385e-03 6.108584287411e-03 0.0 
0.0 0.0 -9.749624431058e-04 
4.925108656531e-04 -3.055158529449e-03 0.0 
-3.055158529449e-03 1.195571453177e-03 0.0 
0.0 0.0 -7.234638509273e-04 
2.687278214663e-04 -6.810653139458e-04 0.0 
-6.810653139458e-04 2.481884598028e-03 0.0 
0.0 0.0 -1.082135573043e-03 
-1.799351909415e-03 1.409259675503e-03 0.0 
1.409259675503e-03 5.578155389814e-03 0.0 
0.0 0.0 -8.259898420369e-04 
-1.801064707900e-03 1.064269352962e-03 0.0 
1.064269352962e-03 5.991738140388e-03 0.0 
0.0 0.0 -8.838609275114e-04 
-6.913788155710e-04 -1.227574140941e-03 0.0 
-1.227574140941e-03 4.246435019945e-03 0.0 
0.0 0.0 -1.237791025003e-03 
1.617016974439e-05 -2.476429670131e-03 0.0 
-2.476429670131e-03 1.553276678470e-03 0.0 
0.0 0.0 -6.726200778060e-04 
-1.931314796257e-04 3.392233640780e-03 0.0 
3.392233640780e-03 2.538226820427e-03 0.0 
0.0 0.0 -1.005040860343e-03 
-1.319730188756e-03 2.601972306617e-03 0.0 
2.601972306617e-03 4.340655659079e-03 0.0 
0.0 0.0 -8.816854262052e-04 
-1.791217628275e-03 1.648610109221e-03 0.0 
1.648610109221e-03 6.470941124492e-03 0.0 
0.0 0.0 -1.008548823165e-03 
-1.624650418518e-03 2.058268446018e-03 0.0 
2.058268446018e-03 4.841940123608e-03 0.0 
0.0 0.0 -8.379792476443e-04 
-1.489577849007e-03 1.897054155513e-03 0.0 
1.897054155513e-03 4.494677002446e-03 0.0 
0.0 0.0 -8.233332215064e-04 
9.144592983676e-04 2.103723640953e-03 0.0 
2.103723640953e-03 1.164621970286e-03 0.0 
0.0 0.0 -8.910348294228e-04 
-1.234709836901e-03 2.936622841749e-03 0.0 
2.936622841749e-03 5.525011386670e-03 0.0 
0.0 0.0 -1.105110859848e-03 
0.0 0.0 0.0 
0.0 0.0 0.0 
0.0 0.0 0.0 
5.533753092925e-05 2.321065575708e-03 0.0 
2.321065575708e-03 1.385026181291e-03 0.0 
0.0 0.0 -6.172987338087e-04 
9.775337925356e-05 2.647350784272e-03 0.0 
2.647350784272e-03 1.520581698043e-03 0.0 
0.0 0.0 -6.935721759841e-04 
-4.200121646643e-04 3.335963278249e-03 0.0 
3.335963278249e-03 2.868206010904e-03 0.0 
0.0 0.0 -9.575728814879e-04 
-1.648855317221e-03 2.317084043405e-03 0.0 
2.317084043405e-03 6.523041636329e-03 0.0 
0.0 0.0 -1.095076276885e-03 
2.058287304795e-03 2.313329836799e-03 0.0 
2.313329836799e-03 -1.214980310369e-03 0.0 
0.0 0.0 -3.614172833254e-04 
1.621278099486e-04 -1.894393997341e-03 0.0 
-1.894393997341e-03 2.355296152545e-03 0.0 
0.0 0.0 -1.043355442177e-03 
-1.517251520276e-03 -1.088769506638e-04 0.0 
-1.088769506638e-04 5.367725382565e-03 0.0 
0.0 0.0 -7.763349569542e-04 
2.071225716726e-03 2.817742222964e-03 0.0 
2.817742222964e-03 -5.830940965428e-04 0.0 
0.0 0.0 -6.377706943641e-04 
8.701785889744e-05 -2.378886716450e-03 0.0 
-2.378886716450e-03 2.268431335651e-03 0.0 
0.0 0.0 -1.006238978475e-03 
6.688501451719e-04 -8.570105726374e-04 0.0 
-8.570105726374e-04 2.508766139633e-04 0.0 
0.0 0.0 -2.227849532966e-04 
-1.684683593515e-03 2.138149817611e-03 0.0 
2.138149817611e-03 6.451465524737e-03 0.0 
0.0 0.0 -1.040010908530e-03 
1.085799585697e-03 -9.338136306232e-04 0.0 
-9.338136306232e-04 4.841625588175e-05 0.0 
0.0 0.0 -1.827119720807e-04 
1.032861128012e-04 -6.271925775052e-04 0.0 
-6.271925775052e-04 6.433353347809e-04 0.0 
0.0 0.0 -2.890002659678e-04 
4.284292636794e-04 2.188011980544e-03 0.0 
2.188011980544e-03 7.634628543711e-04 0.0 
0.0 0.0 -5.108109077359e-04 
5.217682496461e-06 -2.221552624950e-03 0.0 
-2.221552624950e-03 1.410136832977e-03 0.0 
0.0 0.0 -6.065805066316e-04 
-1.756426844714e-03 1.797081824779e-03 0.0 
1.797081824779e-03 6.815040634103e-03 0.0 
0.0 0.0 -1.073797489760e-03 
1.622101319788e-04 -2.264597495009e-03 0.0 
-2.264597495009e-03 1.173181540105e-03 0.0 
0.0 0.0 -5.723107166073e-04 
1.082074594484e-03 2.640607073619e-03 0.0 
2.640607073619e-03 2.626720583109e-04 0.0 
0.0 0.0 -5.763199940550e-04 
1.605964786137e-03 -3.583242349909e-03 0.0 
-3.583242349909e-03 -7.906667844752e-05 0.0 
0.0 0.0 -6.543849032956e-04 
-3.494454807525e-05 -1.610984925714e-03 0.0 
-1.610984925714e-03 1.099950761190e-03 0.0 
0.0 0.0 -4.564312341920e-04 
1.739023189569e-04 -2.645147422265e-04 0.0 
-2.645147422265e-04 2.696870324371e-03 0.0 
0.0 0.0 -1.117524173959e-03 
-1.429083730494e-03 2.211537082543e-03 0.0 
2.211537082543e-03 4.453302943283e-03 0.0 
0.0 0.0 -8.507820156577e-04 
-1.682802659426e-03 -8.879633472863e-04 0.0 
-8.879633472863e-04 6.796328964063e-03 0.0 
0.0 0.0 -1.256743614961e-03 
0.0 0.0 0.0 
0.0 0.0 0.0 
0.0 0.0 0.0 
1.341168508293e-03 2.860330611598e-03 0.0 
2.860330611598e-03 7.949426344501e-05 0.0 
0.0 0.0 -6.088554736019e-04 
2.068683241690e-03 2.743594093827e-03 0.0 
2.743594093827e-03 -6.076247593681e-04 0.0 
0.0 0.0 -6.261679209952e-04 
-4.650783933680e-04 2.487333802040e-03 0.0 
2.487333802040e-03 2.583809885183e-03 0.0 
0.0 0.0 -9.080277822064e-04 
3.082871487027e-04 -1.189402361213e-03 0.0 
-1.189402361213e-03 2.304624928689e-03 0.0 
0.0 0.0 -1.045235091131e-03 
-1.579554839483e-03 -1.394031692893e-03 0.0 
-1.394031692893e-03 6.678028948098e-03 0.0 
0.0 0.0 -1.275930989368e-03 
-1.684299046229e-03 2.211375405385e-03 0.0 
2.211375405385e-03 6.180161065170e-03 0.0 
0.0 0.0 -1.029499106509e-03 
2.603806802799e-03 2.336705660835e-03 0.0 
2.336705660835e-03 -7.411156882784e-04 0.0 
0.0 0.0 -7.982961919374e-04 
1.043592575535e-04 -8.852470439530e-04 0.0 
-8.852470439530e-04 2.718008520162e-03 0.0 
0.0 0.0 -1.116166892424e-03 
-1.922924089839e-03 -2.680134474821e-04 0.0 
-2.680134474821e-04 5.558845052998e-03 0.0 
0.0 0.0 -1.068822925414e-03 
-7.222094777076e-04 3.206300168432e-03 0.0 
3.206300168432e-03 3.349356457826e-03 0.0 
0.0 0.0 -9.235973587808e-04 
-1.677093997722e-03 2.220083154297e-03 0.0 
2.220083154297e-03 6.117933896180e-03 0.0 
0.0 0.0 -1.003200534345e-03 
-7.865873312168e-04 2.395249233040e-03 0.0 
2.395249233040e-03 4.693437656803e-03 0.0 
0.0 0.0 -1.239730878702e-03 
2.351260119446e-03 2.575200545511e-03 0.0 
2.575200545511e-03 -6.504486438349e-04 0.0 
0.0 0.0 -7.289192038335e-04 
9.551102574568e-04 2.654829682591e-03 0.0 
2.654829682591e-03 4.928673923672e-04 0.0 
0.0 0.0 -6.205618499245e-04 
-1.702788092325e-03 2.198389791733e-03 0.0 
2.198389791733e-03 5.173682012494e-03 0.0 
0.0 0.0 -8.662621843288e-04 
-1.465090691244e-03 1.772844143032e-03 0.0 
1.772844143032e-03 8.679771669805e-03 0.0 
0.0 0.0 -1.323568725688e-03 
-2.196076664333e-04 3.542355712652e-03 0.0 
3.542355712652e-03 2.609169075547e-03 0.0 
0.0 0.0 -9.604425725471e-04 
2.156116458846e-03 1.930277635860e-03 0.0 
1.930277635860e-03 -8.514533959833e-04 0.0 
0.0 0.0 -5.591413126556e-04 
-1.551301896676e-03 9.806982104899e-05 0.0 
9.806982104899e-05 6.010438701821e-03 0.0 
0.0 0.0 -8.293613651800e-04 
5.856186318512e-04 -2.658816906517e-03 0.0 
-2.658816906517e-03 8.548743103245e-04 0.0 
0.0 0.0 -6.173541180753e-04 
-1.598852307231e-03 2.167741205054e-03 0.0 
2.167741205054e-03 4.803959338789e-03 0.0 
0.0 0.0 -8.353017157004e-04 
2.274495282906e-03 2.779935450298e-03 0.0 
2.779935450298e-03 -7.589577722122e-04 0.0 
0.0 0.0 -6.495160760114e-04 
2.298330951285e-03 2.091471460167e-03 0.0 
2.091471460167e-03 -1.204105301713e-03 0.0 
0.0 0.0 -4.689538498166e-04 
2.194832401766e-03 -2.977249775004e-03 0.0 
-2.977249775004e-03 -1.184035248941e-03 0.0 
0.0 0.0 -4.331987797821e-04 
-1.681597496447e-03 2.058302471615e-03 0.0 
2.058302471615e-03 6.767260745606e-03 0.0 
0.0 0.0 -1.075985979751e-03 
-1.563333733845e-03 2.379244648904e-03 0.0 
2.379244648904e-03 4.793451180047e-03 0.0 
0.0 0.0 -8.585603458244e-04 
7.771067329277e-04 2.601388271392e-03 0.0 
2.601388271392e-03 5.653213737160e-04 0.0 
0.0 0.0 -5.753263314187e-04 
-1.744996038836e-03 1.710273158382e-03 0.0 
1.710273158382e-03 7.117718959599e-03 0.0 
0.0 0.0 -1.109763131677e-03 
-1.606390224900e-03 2.419672085247e-03 0.0 
2.419672085247e-03 6.148327333334e-03 0.0 
0.0 0.0 -1.057773507355e-03 
-9.992751282894e-04 3.042009890222e-03 0.0 
3.042009890222e-03 3.819168416919e-03 0.0 
0.0 0.0 -9.009204134090e-04 
-1.375955048470e-03 -1.683400062222e-03 0.0 
-1.683400062222e-03 6.152421885777e-03 0.0 
0.0 0.0 -1.288412101370e-03 
1.944327134549e-03 1.768812360803e-03 0.0 
1.768812360803e-03 -8.136324325899e-04 0.0 
0.0 0.0 -4.845834436969e-04 
-1.254552424136e-03 2.860314366234e-03 0.0 
2.860314366234e-03 4.275922517579e-03 0.0 
0.0 0.0 -8.847105569873e-04 
9.718205800213e-04 3.231436175948e-03 0.0 
3.231436175948e-03 7.715228841926e-04 0.0 
0.0 0.0 -7.471471989488e-04 
1.727666947234e-03 1.978971680572e-03 0.0 
1.978971680572e-03 -4.287431573860e-04 0.0 
0.0 0.0 -5.566816242204e-04 
2.636933750934e-03 1.964049691199e-03 0.0 
1.964049691199e-03 -1.267164226969e-03 0.0 
0.0 0.0 -5.870440816995e-04 
-1.756261579278e-03 1.027223545009e-03 0.0 
1.027223545009e-03 5.150592098184e-03 0.0 
0.0 0.0 -7.898058234521e-04 
2.669142654027e-03 2.047008583083e-03 0.0 
2.047008583083e-03 -9.582484116816e-04 0.0 
0.0 0.0 -7.332403895767e-04 
2.689606729154e-03 -1.689602510838e-03 0.0 
-1.689602510838e-03 -1.205625742808e-03 0.0 
0.0 0.0 -6.359918512911e-04 
-1.629595190705e-03 2.449686769187e-03 0.0 
2.449686769187e-03 6.117601231972e-03 0.0 
0.0 0.0 -1.032318248600e-03 
0.0 0.0 0.0 
0.0 0.0 0.0 
0.0 0.0 0.0 
-1.769475386321e-03 1.897454184282e-03 0.0 
1.897454184282e-03 5.196794091963e-03 0.0 
0.0 0.0 -8.386390795737e-04 
2.679831450569e-03 2.298078295471e-03 0.0 
2.298078295471e-03 -1.117110075304e-03 0.0 
0.0 0.0 -6.697377322564e-04 
1.525405513799e-03 2.895304825734e-03 0.0 
2.895304825734e-03 1.054559655311e-04 0.0 
0.0 0.0 -6.989406339984e-04 
2.631491351563e-03 9.404993485972e-04 0.0 
9.404993485972e-04 -1.150887457296e-03 0.0 
0.0 0.0 -6.345445261146e-04 
-1.595995973144e-03 2.618038279511e-03 0.0 
2.618038279511e-03 5.071323653385e-03 0.0 
0.0 0.0 -8.965110541436e-04 
1.511841627677e-04 -1.773057166612e-03 0.0 
-1.773057166612e-03 8.535234281834e-04 0.0 
0.0 0.0 -3.901044503889e-04 
-9.397222903951e-05 2.775799572976e-03 0.0 
2.775799572976e-03 1.950195750929e-03 0.0 
0.0 0.0 -7.955243665241e-04 
1.510533742235e-03 1.893368219128e-03 0.0 
1.893368219128e-03 -3.333023352098e-04 0.0 
0.0 0.0 -5.045277458680e-04 
-1.529633938128e-03 2.472556152499e-03 0.0 
2.472556152499e-03 4.747231259560e-03 0.0 
0.0 0.0 -8.651285257930e-04 
-1.800570073848e-03 1.187623183650e-03 0.0 
1.187623183650e-03 5.684872286068e-03 0.0 
0.0 0.0 -8.301023967811e-04 
9.558821828944e-04 1.012922103067e-03 0.0 
1.012922103067e-03 -8.983468077863e-04 0.0 
0.0 0.0 -2.465801790350e-05 
2.929345942082e-03 -7.362875197769e-04 0.0 
-7.362875197769e-04 -1.325012703078e-03 0.0 
0.0 0.0 -6.875713881444e-04 
2.465820499106e-03 -2.486373233668e-03 0.0 
-2.486373233668e-03 -9.885187097241e-04 0.0 
0.0 0.0 -6.331293383067e-04 
-1.000270138248e-04 2.665501899130e-03 0.0 
2.665501899130e-03 1.891739969722e-03 0.0 
0.0 0.0 -7.678769810987e-04 
-1.745645462288e-03 1.969965136157e-03 0.0 
1.969965136157e-03 6.177510406470e-03 0.0 
0.0 0.0 -1.000663671924e-03 
-6.743676206496e-05 2.958894746749e-03 0.0 
2.958894746749e-03 2.016036742517e-03 0.0 
0.0 0.0 -8.351142773366e-04 
2.740866472437e-03 2.036102310260e-03 0.0 
2.036102310260e-03 -1.186449683482e-03 0.0 
0.0 0.0 -6.661786238380e-04 
2.465496107494e-03 2.525824601176e-03 0.0 
2.525824601176e-03 -9.322172367962e-04 0.0 
0.0 0.0 -6.571195160133e-04 
1.273787981714e-03 8.615297331710e-04 0.0 
8.615297331710e-04 -7.497623681705e-04 0.0 
0.0 0.0 -2.245824058045e-04 
1.142131131016e-03 2.936542087170e-03 0.0 
2.936542087170e-03 2.802751358821e-04 0.0 
0.0 0.0 -6.096026858133e-04 
8.727535464249e-04 2.453256376776e-03 0.0 
2.453256376776e-03 4.670237874706e-04 0.0 
0.0 0.0 -5.741902859552e-04 
-1.475760748405e-03 2.695142501196e-03 0.0 
2.695142501196e-03 8.197923622284e-03 0.0 
0.0 0.0 -1.321446319728e-03 
-1.492107186378e-03 3.030650340964e-03 0.0 
3.030650340964e-03 7.905007360297e-03 0.0 
0.0 0.0 -1.318029376683e-03 
-1.178085073701e-05 3.500120593452e-03 0.0 
3.500120593452e-03 2.258084084144e-03 0.0 
0.0 0.0 -9.627013857460e-04 
2.548877331085e-03 2.529452683065e-03 0.0 
2.529452683065e-03 -1.024625724028e-03 0.0 
0.0 0.0 -6.532506887387e-04 
1.850654072594e-03 2.843628912083e-03 0.0 
2.843628912083e-03 -1.310735320691e-04 0.0 
0.0 0.0 -7.369630887965e-04 
-1.088841516862e-03 3.167027765780e-03 0.0 
3.167027765780e-03 4.070335559596e-03 0.0 
0.0 0.0 -9.333628341409e-04 
2.340427504556e-03 2.434956062557e-03 0.0 
2.434956062557e-03 -5.727957500432e-04 0.0 
0.0 0.0 -7.575564662197e-04 
2.682095355776e-03 -1.550453496673e-03 0.0 
-1.550453496673e-03 -1.096738406614e-03 0.0 
0.0 0.0 -6.794386924979e-04 
-6.843102871119e-04 3.138323977980e-03 0.0 
3.138323977980e-03 3.288670793621e-03 0.0 
0.0 0.0 -9.652881140700e-04 
-1.560571318974e-03 1.068024078019e-03 0.0 
1.068024078019e-03 8.561491499252e-03 0.0 
0.0 0.0 -1.266640259566e-03 
2.402271625794e-03 2.610626999267e-03 0.0 
2.610626999267e-03 -8.722989033853e-04 0.0 
0.0 0.0 -6.557025953181e-04 
6.813860835502e-04 2.812347985425e-03 0.0 
2.812347985425e-03 1.059490988612e-03 0.0 
0.0 0.0 -7.460901737839e-04 
1.236363456041e-03 2.703241249809e-03 0.0 
2.703241249809e-03 7.838624202408e-05 0.0 
0.0 0.0 -5.634641563138e-04 
-9.652389989341e-04 -6.720183629338e-04 0.0 
-6.720183629338e-04 5.271242622276e-03 0.0 
0.0 0.0 -1.322863172658e-03 
2.098067576592e-03 2.923737740925e-03 0.0 
2.923737740925e-03 -6.205768400508e-04 0.0 
0.0 0.0 -6.332103156605e-04 
-5.055876985533e-04 3.367364034790e-03 0.0 
3.367364034790e-03 3.063510178626e-03 0.0 
0.0 0.0 -9.919420460789e-04 
1.879903345484e-03 1.255087970799e-03 0.0 
1.255087970799e-03 -1.207356077200e-03 0.0 
0.0 0.0 -2.882345435504e-04 
1.114970489587e-03 -6.571475029199e-04 0.0 
-6.571475029199e-04 3.550721468189e-04 0.0 
0.0 0.0 -6.300182727452e-04 
2.369471702773e-03 2.352310472614e-03 0.0 
2.352310472614e-03 -9.003050297678e-04 0.0 
0.0 0.0 -6.296428598595e-04 
2.511210871122e-03 -2.213592529972e-03 0.0 
-2.213592529972e-03 -7.926901794877e-04 0.0 
0.0 0.0 -7.365088678434e-04 
-1.351376459572e-03 2.550480813182e-03 0.0 
2.550480813182e-03 4.385207787700e-03 0.0 
0.0 0.0 -8.710486452961e-04 
-1.397658873592e-03 3.467085405935e-03 0.0 
3.467085405935e-03 7.331557043367e-03 0.0 
0.0 0.0 -1.324865334549e-03 
2.762976518654e-03 2.129275318385e-03 0.0 
2.129275318385e-03 -1.188719051590e-03 0.0 
0.0 0.0 -6.746817715991e-04 
1.650992187785e-03 1.271809720393e-03 0.0 
1.271809720393e-03 -3.513789338484e-04 0.0 
0.0 0.0 -5.569771088299e-04 
1.383242402169e-03 2.669272504238e-03 0.0 
2.669272504238e-03 1.108605796806e-04 0.0 
0.0 0.0 -6.403298493639e-04 
-1.712702943967e-03 1.199021659258e-03 0.0 
1.199021659258e-03 6.429834953111e-03 0.0 
0.0 0.0 -9.576894438039e-04 
2.851085176734e-04 -1.709536430844e-03 0.0 
-1.709536430844e-03 2.195876444368e-03 0.0 
0.0 0.0 -1.008345180213e-03 
7.579314461175e-04 2.705809604616e-03 0.0 
2.705809604616e-03 6.993839864940e-04 0.0 
0.0 0.0 -6.245637568335e-04 
-1.777734376668e-03 7.086825961679e-04 0.0 
7.086825961679e-04 6.354608604567e-03 0.0 
0.0 0.0 -9.257128893455e-04 
-1.277191206466e-03 3.589282529004e-03 0.0 
3.589282529004e-03 6.665823351058e-03 0.0 
0.0 0.0 -1.322580803729e-03 
1.403185707490e-06 -1.439264409054e-03 0.0 
-1.439264409054e-03 2.848558759865e-03 0.0 
0.0 0.0 -1.075861678316e-03 
-1.430658668499e-03 3.358596416292e-03 0.0 
3.358596416292e-03 7.549163922134e-03 0.0 
0.0 0.0 -1.322091174222e-03 
-1.793445118784e-03 9.356262614995e-04 0.0 
9.356262614995e-04 6.204769543778e-03 0.0 
0.0 0.0 -9.196498359204e-04 
-1.442068331431e-03 2.746821175537e-03 0.0 
2.746821175537e-03 5.682562585269e-03 0.0 
0.0 0.0 -1.048263655743e-03 
5.998084775859e-04 2.508005665207e-03 0.0 
2.508005665207e-03 7.531788584781e-04 0.0 
0.0 0.0 -5.798517154560e-04 
-1.223045542115e-03 2.387086346015e-03 0.0 
2.387086346015e-03 4.064515837256e-03 0.0 
0.0 0.0 -8.681697709544e-04 
-1.209389184573e-03 2.902758957536e-03 0.0 
2.902758957536e-03 4.217242041572e-03 0.0 
0.0 0.0 -9.102795160361e-04 
-1.488840206319e-03 2.679198250696e-03 0.0 
2.679198250696e-03 4.716368235080e-03 0.0 
0.0 0.0 -8.732807453983e-04 
1.119499660130e-04 3.567291341735e-03 0.0 
3.567291341735e-03 2.082472498151e-03 0.0 
0.0 0.0 -9.404667703562e-04 
-1.189299144518e-03 3.334584496646e-03 0.0 
3.334584496646e-03 6.217817091132e-03 0.0 
0.0 0.0 -1.322334986692e-03 
-1.743738005580e-03 1.571409251216e-03 0.0 
1.571409251216e-03 5.783273679231e-03 0.0 
0.0 0.0 -8.810748613436e-04 
-1.668503733379e-03 1.747174983457e-03 0.0 
1.747174983457e-03 4.858766838357e-03 0.0 
0.0 0.0 -8.123974380148e-04 
2.689502468919e-03 2.075432867186e-03 0.0 
2.075432867186e-03 -9.257907609435e-04 0.0 
0.0 0.0 -7.558764462751e-04 
-2.431074983303e-05 -1.913003925140e-03 0.0 
-1.913003925140e-03 1.267148434552e-03 0.0 
0.0 0.0 -5.326447220222e-04 
-1.300250353668e-03 2.028546891134e-03 0.0 
2.028546891134e-03 4.120204910714e-03 0.0 
0.0 0.0 -8.415228793236e-04 
1.029960534553e-03 2.697834854064e-03 0.0 
2.697834854064e-03 2.742713854926e-04 0.0 
0.0 0.0 -5.589565371624e-04 
-1.478386704748e-03 4.206789908739e-05 0.0 
4.206789908739e-05 5.616715806328e-03 0.0 
0.0 0.0 -7.696142143080e-04 
2.082223251132e-03 -2.739881630323e-03 0.0 
-2.739881630323e-03 -6.915223042800e-04 0.0 
0.0 0.0 -5.960146915079e-04 
2.687145576905e-03 2.150944824992e-03 0.0 
2.150944824992e-03 -8.619858571997e-04 0.0 
0.0 0.0 -7.822113084450e-04 
-1.642192723937e-03 2.370627921536e-03 0.0 
2.370627921536e-03 6.463774212935e-03 0.0 
0.0 0.0 -1.069052450572e-03 
1.210732016110e-03 2.901093481449e-03 0.0 
2.901093481449e-03 3.403089247521e-04 0.0 
0.0 0.0 -6.647318317980e-04 
-1.090838761359e-03 2.744646813510e-03 0.0 
2.744646813510e-03 3.916911857046e-03 0.0 
0.0 0.0 -9.030726692333e-04 
1.373131851669e-03 1.385595291722e-03 0.0 
1.385595291722e-03 -2.069114301952e-04 0.0 
0.0 0.0 -4.998087520603e-04 
5.484712090762e-04 -3.075676285272e-03 0.0 
-3.075676285272e-03 1.137788810983e-03 0.0 
0.0 0.0 -7.226828657397e-04 
-1.016387097360e-03 2.517297286892e-03 0.0 
2.517297286892e-03 5.594754578216e-03 0.0 
0.0 0.0 -1.324762665914e-03 
-9.072903591933e-04 2.355207703591e-03 0.0 
2.355207703591e-03 3.405907050817e-03 0.0 
0.0 0.0 -8.881387192877e-04 
2.946142820410e-03 1.617684650386e-04 0.0 
1.617684650386e-04 -1.452636572549e-03 0.0 
0.0 0.0 -6.400741062262e-04 
6.309307785542e-04 -2.673296576986e-03 0.0 
-2.673296576986e-03 8.118285156915e-04 0.0 
0.0 0.0 -6.183254118196e-04 
2.654857369397e-04 2.566176722282e-03 0.0 
2.566176722282e-03 1.206224560431e-03 0.0 
0.0 0.0 -6.307329845874e-04 
6.292944620548e-04 2.356029893105e-03 0.0 
2.356029893105e-03 6.393485700988e-04 0.0 
0.0 0.0 -5.437041566372e-04 
-1.573343830476e-03 2.521088319541e-03 0.0 
2.521088319541e-03 6.487888532466e-03 0.0 
0.0 0.0 -1.123886314723e-03 
-8.643744592464e-04 3.301393799564e-03 0.0 
3.301393799564e-03 3.642299074364e-03 0.0 
0.0 0.0 -9.055216267950e-04 
-4.630807398905e-04 2.550759047776e-03 0.0 
2.550759047776e-03 2.616100997212e-03 0.0 
0.0 0.0 -9.227229674235e-04 
-9.883417377340e-04 2.554278731018e-03 0.0 
2.554278731018e-03 3.636783780997e-03 0.0 
0.0 0.0 -8.916891917129e-04 
-9.188251607234e-04 7.915048635257e-04 0.0 
7.915048635257e-04 5.164894119245e-03 0.0 
0.0 0.0 -1.320675234999e-03 
-5.234519663279e-04 8.018217957374e-04 0.0 
8.018217957374e-04 4.358356351167e-03 0.0 
0.0 0.0 -1.258064670439e-03 
-1.519847497081e-03 2.784288839478e-03 0.0 
2.784288839478e-03 6.420730520918e-03 0.0 
0.0 0.0 -1.126590436115e-03 
-1.758421539440e-03 1.881967215149e-03 0.0 
1.881967215149e-03 6.509172932200e-03 0.0 
0.0 0.0 -1.037522200811e-03 
7.328240466091e-04 -2.682401726123e-03 0.0 
-2.682401726123e-03 7.115913620792e-04 0.0 
0.0 0.0 -6.190351751521e-04 
1.760096404851e-04 3.185483329578e-03 0.0 
3.185483329578e-03 1.733233248228e-03 0.0 
0.0 0.0 -8.182469523055e-04 
2.700024770010e-03 1.747528214601e-03 0.0 
1.747528214601e-03 -9.576266826323e-04 0.0 
0.0 0.0 -7.467420374474e-04 
2.935361494200e-03 1.596241168019e-03 0.0 
1.596241168019e-03 -1.073012164550e-03 0.0 
0.0 0.0 -7.981497127072e-04 
-5.548455542571e-04 3.454533405249e-03 0.0 
3.454533405249e-03 3.132006875912e-03 0.0 
0.0 0.0 -9.270064166112e-04 
1.279127165458e-03 -9.870557535994e-04 0.0 
-9.870557535994e-04 -3.854326390960e-05 0.0 
0.0 0.0 -5.316788149495e-04 
-4.227815079073e-04 -2.784371059583e-03 0.0 
-2.784371059583e-03 2.659310912429e-03 0.0 
0.0 0.0 -9.585126019377e-04 
-1.599277265462e-03 2.517332469059e-03 0.0 
2.517332469059e-03 6.812542085539e-03 0.0 
0.0 0.0 -1.134236807130e-03 
2.838543821024e-03 -9.388703813827e-04 0.0 
-9.388703813827e-04 -1.339013732820e-03 0.0 
0.0 0.0 -6.426557520871e-04 
4.165970448057e-04 3.486050932692e-03 0.0 
3.486050932692e-03 1.558675942698e-03 0.0 
0.0 0.0 -8.465455660731e-04 
-9.570428297717e-04 3.028568391790e-03 0.0 
3.028568391790e-03 3.758744006407e-03 0.0 
0.0 0.0 -9.331417602438e-04 
4.382192218767e-04 3.304842555304e-03 0.0 
3.304842555304e-03 1.417845423766e-03 0.0 
0.0 0.0 -7.954562767040e-04 
-1.443236035943e-03 3.221098478814e-03 0.0 
3.221098478814e-03 7.736365815094e-03 0.0 
0.0 0.0 -1.320088186226e-03 
-1.483693740833e-03 2.932428243371e-03 0.0 
2.932428243371e-03 8.049345893719e-03 0.0 
0.0 0.0 -1.318462653075e-03 
-1.548932721531e-03 2.525807133433e-03 0.0 
2.525807133433e-03 7.540510939249e-03 0.0 
0.0 0.0 -1.256494544188e-03 
5.199835747165e-04 -2.886590158864e-03 0.0 
-2.886590158864e-03 1.061442334883e-03 0.0 
0.0 0.0 -6.777539612569e-04 
-1.663138327388e-03 1.991577787862e-03 0.0 
1.991577787862e-03 7.067165816428e-03 0.0 
0.0 0.0 -1.112065035246e-03 
8.530770766536e-04 2.505748462956e-03 0.0 
2.505748462956e-03 4.288710739428e-04 0.0 
0.0 0.0 -5.494063502556e-04 
2.976026969438e-03 1.471613804293e-03 0.0 
1.471613804293e-03 -1.145802400427e-03 0.0 
0.0 0.0 -7.843819581477e-04 
2.176227096681e-03 9.823823306462e-04 0.0 
9.823823306462e-04 -1.042597419614e-03 0.0 
0.0 0.0 -4.858412901716e-04 
-2.813268701102e-04 2.910442502919e-03 0.0 
2.910442502919e-03 2.419195128745e-03 0.0 
0.0 0.0 -9.162292537005e-04 
-1.720195429854e-03 7.985877951349e-04 0.0 
7.985877951349e-04 5.205169340213e-03 0.0 
0.0 0.0 -7.914980036671e-04 
-1.719905413863e-03 1.237364143320e-03 0.0 
1.237364143320e-03 6.165155044144e-03 0.0 
0.0 0.0 -9.214502702889e-04 
-6.210179595173e-04 -4.728660276610e-04 0.0 
-4.728660276610e-04 4.588006840987e-03 0.0 
0.0 0.0 -1.265403586923e-03 
-1.395878555712e-03 3.050861695832e-03 0.0 
3.050861695832e-03 5.954496201824e-03 0.0 
0.0 0.0 -1.117224974728e-03 
-1.665465805844e-03 2.334336493253e-03 0.0 
2.334336493253e-03 5.128095132681e-03 0.0 
0.0 0.0 -8.687609488834e-04 
-1.346991783092e-03 3.039323733030e-03 0.0 
3.039323733030e-03 4.548648496957e-03 0.0 
0.0 0.0 -9.141259787764e-04 
2.498396854009e-03 1.198516088911e-03 0.0 
1.198516088911e-03 -1.399925765526e-03 0.0 
0.0 0.0 -4.707733236356e-04 
1.968831457284e-04 -1.841720632066e-03 0.0 
-1.841720632066e-03 8.576900148433e-04 0.0 
0.0 0.0 -4.519599259593e-04 
1.596184388708e-03 2.912527136814e-03 0.0 
2.912527136814e-03 -2.859190939001e-04 0.0 
0.0 0.0 -5.615422692032e-04 
3.342051080177e-04 3.634224831363e-03 0.0 
3.634224831363e-03 1.769838707620e-03 0.0 
0.0 0.0 -9.017330638447e-04 
1.350991084574e-03 3.130179827696e-03 0.0 
3.130179827696e-03 2.729672728852e-04 0.0 
0.0 0.0 -6.959821531966e-04 
5.181840272175e-04 1.740426048580e-03 0.0 
1.740426048580e-03 4.204450595975e-04 0.0 
0.0 0.0 -4.022696086350e-04 
-1.537623298193e-03 1.946789295788e-04 0.0 
1.946789295788e-04 5.729068901156e-03 0.0 
0.0 0.0 -8.462285223656e-04 
1.561759615532e-04 -2.189651726713e-03 0.0 
-2.189651726713e-03 1.146850025796e-03 0.0 
0.0 0.0 -5.584397088639e-04 
1.820241129970e-03 2.972056139581e-03 0.0 
2.972056139581e-03 -3.351854464419e-04 0.0 
0.0 0.0 -6.364524357979e-04 
-1.341153861134e-03 -4.057244270456e-04 0.0 
-4.057244270456e-04 4.982459086358e-03 0.0 
0.0 0.0 -1.341153861134e-03 
9.256271036625e-04 1.500053370618e-03 0.0 
1.500053370618e-03 1.273019829082e-03 0.0 
0.0 0.0 -9.422772568906e-04 
-1.647307264160e-03 1.862922357847e-03 0.0 
1.862922357847e-03 4.824359254377e-03 0.0 
0.0 0.0 -8.054468608743e-04 
2.951539872400e-04 -9.116816188897e-05 0.0 
-9.116816188897e-05 1.187821972232e-03 0.0 
0.0 0.0 -3.103042898065e-04 
7.971140923123e-05 3.343947047482e-03 0.0 
3.343947047482e-03 1.995422628245e-03 0.0 
0.0 0.0 -8.893431589182e-04 
1.873943254827e-03 2.954249127679e-03 0.0 
2.954249127679e-03 -3.006422023954e-04 0.0 
0.0 0.0 -6.742718796133e-04 
-1.609808059559e-03 2.466698786463e-03 0.0 
2.466698786463e-03 5.115271177997e-03 0.0 
0.0 0.0 -8.940630110299e-04 
-1.355176868643e-03 3.602829940139e-03 0.0 
3.602829940139e-03 7.115897601981e-03 0.0 
0.0 0.0 -1.323832587333e-03 
-1.204260933556e-03 2.429327504665e-03 0.0 
2.429327504665e-03 4.034179858945e-03 0.0 
0.0 0.0 -8.669777983973e-04 
-1.147063666963e-03 3.130382852526e-03 0.0 
3.130382852526e-03 4.139734973133e-03 0.0 
0.0 0.0 -8.917420716958e-04 
-4.014841504774e-04 -2.920877032072e-03 0.0 
-2.920877032072e-03 2.692647303736e-03 0.0 
0.0 0.0 -9.819270656821e-04 
-1.644216929044e-03 2.295172595936e-03 0.0 
2.295172595936e-03 6.800207970354e-03 0.0 
0.0 0.0 -1.105258581891e-03 
2.154052283226e-04 -3.118779152528e-03 0.0 
-3.118779152528e-03 1.628210503259e-03 0.0 
0.0 0.0 -7.901210278208e-04 
-1.316497550801e-03 3.592083674646e-03 0.0 
3.592083674646e-03 6.907418394644e-03 0.0 
0.0 0.0 -1.322174839672e-03 
-1.340103718614e-03 3.152086803121e-03 0.0 
3.152086803121e-03 7.377926064128e-03 0.0 
0.0 0.0 -1.340103718614e-03 
-1.341028575724e-03 2.465513317577e-03 0.0 
2.465513317577e-03 8.006817596930e-03 0.0 
0.0 0.0 -1.341028575724e-03 
-1.338044909071e-03 2.820900205836e-03 0.0 
2.820900205836e-03 7.687427743330e-03 0.0 
0.0 0.0 -1.338044909071e-03 
-1.502118998928e-03 2.871852761975e-03 0.0 
2.871852761975e-03 4.986656915824e-03 0.0 
0.0 0.0 -9.244680137507e-04 
-1.717961893973e-03 2.025609505479e-03 0.0 
2.025609505479e-03 6.849693926195e-03 0.0 
0.0 0.0 -1.103002250422e-03 
-1.441498127645e-03 2.997575274703e-03 0.0 
2.997575274703e-03 6.385826432379e-03 0.0 
0.0 0.0 -1.155914796392e-03 
3.567381933022e-04 2.998203481649e-03 0.0 
2.998203481649e-03 1.342739046541e-03 0.0 
0.0 0.0 -7.283473885043e-04 
1.335922643098e-04 2.946545576970e-03 0.0 
2.946545576970e-03 1.651048719616e-03 0.0 
0.0 0.0 -7.648461359682e-04 
-5.579616973433e-04 -2.537817501247e-03 0.0 
-2.537817501247e-03 2.842838828880e-03 0.0 
0.0 0.0 -9.792330563728e-04 
-1.668326353393e-03 2.237680070997e-03 0.0 
2.237680070997e-03 6.867008378533e-03 0.0 
0.0 0.0 -1.131852245309e-03 
-1.231232325275e-03 3.483829197783e-03 0.0 
3.483829197783e-03 6.428087696954e-03 0.0 
0.0 0.0 -1.322440284024e-03 
-1.629405615007e-03 2.216510426988e-03 0.0 
2.216510426988e-03 7.107180567101e-03 0.0 
0.0 0.0 -1.141180801552e-03 
1.287843860462e-03 1.762496620991e-03 0.0 
1.762496620991e-03 4.118181214961e-04 0.0 
0.0 0.0 -7.284265636965e-04 
-1.709232452093e-03 1.946096254963e-03 0.0 
1.946096254963e-03 7.158440520652e-03 0.0 
0.0 0.0 -1.138864741757e-03 
-2.474149681312e-04 3.241320627208e-03 0.0 
3.241320627208e-03 3.249866169459e-03 0.0 
0.0 0.0 -9.903545940741e-04 
5.390850837396e-04 3.135204886366e-03 0.0 
3.135204886366e-03 1.184502769340e-03 0.0 
0.0 0.0 -7.386805084625e-04 
-2.903565977667e-04 2.791530756056e-03 0.0 
2.791530756056e-03 2.364850385229e-03 0.0 
0.0 0.0 -8.890687660554e-04 
1.802555558832e-03 3.001147534895e-03 0.0 
3.001147534895e-03 -4.575658841899e-04 0.0 
0.0 0.0 -5.764241462752e-04 
-1.445725615323e-03 1.812858751269e-03 0.0 
1.812858751269e-03 8.104070872614e-03 0.0 
0.0 0.0 -1.282213402295e-03 
5.637528850199e-04 2.798374850836e-03 0.0 
2.798374850836e-03 9.579403324455e-04 0.0 
0.0 0.0 -6.521542360566e-04 
-9.878773185600e-04 3.005495027809e-03 0.0 
3.005495027809e-03 5.183572772416e-03 0.0 
0.0 0.0 -1.230767059693e-03 
-5.402829230253e-04 -2.645980312191e-03 0.0 
-2.645980312191e-03 2.860421160958e-03 0.0 
0.0 0.0 -9.943449591140e-04 
1.769669881029e-03 -3.137855469582e-03 0.0 
-3.137855469582e-03 -3.291852005029e-04 0.0 
0.0 0.0 -6.173505773685e-04 
-9.286667060019e-04 -5.578005299265e-04 0.0 
-5.578005299265e-04 4.405534968834e-03 0.0 
0.0 0.0 -1.284312900220e-03 
1.520178245233e-03 2.880262458528e-03 0.0 
2.880262458528e-03 -9.597643010145e-05 0.0 
0.0 0.0 -6.103722064851e-04 
-1.341987455608e-03 3.278682198062e-03 0.0 
3.278682198062e-03 7.180670491988e-03 0.0 
0.0 0.0 -1.341987455608e-03 
-1.479381738464e-03 2.518547494800e-03 0.0 
2.518547494800e-03 7.585721855360e-03 0.0 
0.0 0.0 -1.282654109251e-03 
-6.562251040144e-04 3.476488520305e-03 0.0 
3.476488520305e-03 3.368345711390e-03 0.0 
0.0 0.0 -9.747411499392e-04 
2.825665296399e-05 -9.471346053823e-04 0.0 
-9.471346053823e-04 5.562669983103e-04 0.0 
0.0 0.0 -2.505101362604e-04 
-1.340954708392e-03 3.409829937737e-03 0.0 
3.409829937737e-03 6.752010148723e-03 0.0 
0.0 0.0 -1.340954708392e-03 
-8.893530910468e-04 2.080039302171e-04 0.0 
2.080039302171e-04 4.249386795326e-03 0.0 
0.0 0.0 -1.284661450484e-03 
2.094151919582e-03 -2.710389235349e-03 0.0 
-2.710389235349e-03 -4.177516275291e-04 0.0 
0.0 0.0 -7.184572680229e-04 
1.187697048236e-03 1.044937454993e-03 0.0 
1.044937454993e-03 6.336881744863e-04 0.0 
0.0 0.0 -7.805936668811e-04 
-1.022563228378e-03 2.126685754851e-03 0.0 
2.126685754851e-03 5.450229037892e-03 0.0 
0.0 0.0 -1.323014926434e-03 
0.0 0.0 0.0 
0.0 0.0 0.0 
0.0 0.0 0.0 
5.629949439262e-04 2.943398902906e-03 0.0 
2.943398902906e-03 1.042834511407e-03 0.0 
0.0 0.0 -6.882126237144e-04 
-9.611236283513e-04 3.382262119005e-03 0.0 
3.382262119005e-03 3.900518768528e-03 0.0 
0.0 0.0 -9.507003520820e-04 
-3.264045535916e-04 3.528503760233e-03 0.0 
3.528503760233e-03 2.824189618732e-03 0.0 
0.0 0.0 -1.009382277479e-03 
-8.072349097140e-04 3.285348527428e-03 0.0 
3.285348527428e-03 3.572080463846e-03 0.0 
0.0 0.0 -9.583016177293e-04 
1.577973122007e-03 2.940745778594e-03 0.0 
2.940745778594e-03 -1.562631387263e-04 0.0 
0.0 0.0 -6.093042785491e-04 
-1.341360672448e-03 3.349227255108e-03 0.0 
3.349227255108e-03 6.276206882279e-03 0.0 
0.0 0.0 -1.341360672448e-03 
2.936452016240e-03 1.405586798284e-03 0.0 
1.405586798284e-03 -1.170886952934e-03 0.0 
0.0 0.0 -7.566707414170e-04 
6.010236317608e-04 7.677500863631e-05 0.0 
7.677500863631e-05 -6.010236317608e-04 0.0 
0.0 0.0 0.0 
-1.410674428243e-03 -1.887614969753e-03 0.0 
-1.887614969753e-03 6.271959657533e-03 0.0 
0.0 0.0 -1.272354826527e-03 
6.614899321087e-05 -1.031236819356e-03 0.0 
-1.031236819356e-03 5.476349804252e-04 0.0 
0.0 0.0 -2.630502744155e-04 
-7.579795143834e-04 2.669538043242e-03 0.0 
2.669538043242e-03 3.232540244350e-03 0.0 
0.0 0.0 -9.235262116470e-04 
1.408180871100e-03 -2.447837261249e-03 0.0 
-2.447837261249e-03 -4.054811993359e-04 0.0 
0.0 0.0 -4.297284307560e-04 
-1.289231145457e-03 2.085970842819e-03 0.0 
2.085970842819e-03 4.096251684655e-03 0.0 
0.0 0.0 -8.281323822960e-04 
-9.265632325981e-04 2.208084020548e-04 0.0 
2.208084020548e-04 5.136068338207e-03 0.0 
0.0 0.0 -1.321823097425e-03 
-1.341255375116e-03 3.077672806554e-03 0.0 
3.077672806554e-03 5.842647393183e-03 0.0 
0.0 0.0 -1.341255375116e-03 
-1.444220396543e-03 2.772557237900e-03 0.0 
2.772557237900e-03 4.661509496866e-03 0.0 
0.0 0.0 -8.916520742786e-04 
1.049542071535e-03 -2.597397009894e-03 0.0 
-2.597397009894e-03 2.940040078369e-04 0.0 
0.0 0.0 -5.758054625880e-04 
3.025347595527e-04 1.047283111649e-04 0.0 
1.047283111649e-04 -3.025347595527e-04 0.0 
0.0 0.0 0.0 
1.083086267670e-03 -3.284229385575e-03 0.0 
-3.284229385575e-03 2.814197768567e-04 0.0 
0.0 0.0 -5.847883047970e-04 
-1.038610003698e-03 -2.337728934242e-03 0.0 
-2.337728934242e-03 4.541183857773e-03 0.0 
0.0 0.0 -1.121833217354e-03 
-1.742165347554e-03 9.878882661806e-04 0.0 
9.878882661806e-04 5.401825771171e-03 0.0 
0.0 0.0 -7.704300227928e-04 
-1.803256776378e-03 1.584392787159e-03 0.0 
1.584392787159e-03 5.170803389825e-03 0.0 
0.0 0.0 -8.109332722942e-04 
-1.342502730507e-03 2.572106331239e-03 0.0 
2.572106331239e-03 5.434857979280e-03 0.0 
0.0 0.0 -1.342502730507e-03 
-1.732554351108e-03 7.529304742537e-04 0.0 
7.529304742537e-04 5.461566678014e-03 0.0 
0.0 0.0 -7.720444664677e-04 
-1.484252812585e-03 2.496905312066e-03 0.0 
2.496905312066e-03 8.327686936920e-03 0.0 
0.0 0.0 -1.322852565091e-03 
-2.616390310425e-04 3.420254192840e-03 0.0 
3.420254192840e-03 3.046539849901e-03 0.0 
0.0 0.0 -1.020998643257e-03 
-1.702171015059e-03 1.025221701453e-03 0.0 
1.025221701453e-03 6.037527275999e-03 0.0 
0.0 0.0 -8.907448815977e-04 
4.435059004645e-04 2.367634267758e-03 0.0 
2.367634267758e-03 8.500300084059e-04 0.0 
0.0 0.0 -5.543725323730e-04 
9.902971440261e-04 1.854120232773e-03 0.0 
1.854120232773e-03 5.282487487715e-04 0.0 
0.0 0.0 -6.508053826275e-04 
2.181030243503e-03 2.087940198003e-03 0.0 
2.087940198003e-03 -6.964523607222e-04 0.0 
0.0 0.0 -6.362476640488e-04 
-1.340754991027e-03 1.822804665951e-03 0.0 
1.822804665951e-03 5.126572871134e-03 0.0 
0.0 0.0 -1.340754991027e-03 
-1.339984467612e-03 3.017885242806e-03 0.0 
3.017885242806e-03 7.530573259310e-03 0.0 
0.0 0.0 -1.339984467612e-03 
-1.340417744004e-03 2.627800699396e-03 0.0 
2.627800699396e-03 7.874468285687e-03 0.0 
0.0 0.0 -1.340417744004e-03 
1.663950741528e-04 -3.102222571978e-03 0.0 
-3.102222571978e-03 1.696065106834e-03 0.0 
0.0 0.0 -7.981972204229e-04 
-6.783966376360e-04 -2.229795002151e-03 0.0 
-2.229795002151e-03 2.989937542639e-03 0.0 
0.0 0.0 -9.906603878584e-04 
6.633751209167e-04 3.479464549828e-03 0.0 
3.479464549828e-03 1.235326207863e-03 0.0 
0.0 0.0 -8.137291409057e-04 
-1.800452847873e-04 -3.089059520932e-03 0.0 
-3.089059520932e-03 2.334973482046e-03 0.0 
0.0 0.0 -8.981573260837e-04 
-1.339627896631e-03 1.005258068188e-03 0.0 
1.005258068188e-03 4.944567484942e-03 0.0 
0.0 0.0 -1.339627896631e-03 
2.106481318219e-03 2.804312139354e-03 0.0 
2.804312139354e-03 -3.247815718152e-04 0.0 
0.0 0.0 -7.635856056017e-04 
2.753925008266e-03 -1.471183718442e-03 0.0 
-1.471183718442e-03 -1.118113294929e-03 0.0 
0.0 0.0 -7.010621628588e-04 
2.411027346534e-03 -2.022185411865e-03 0.0 
-2.022185411865e-03 -8.248269265831e-04 0.0 
0.0 0.0 -6.798001799788e-04 
-1.695040583491e-03 9.943495357559e-04 0.0 
9.943495357559e-04 6.306677945551e-03 0.0 
0.0 0.0 -9.279583942086e-04 
-1.067283559268e-03 -1.131551148477e-03 0.0 
-1.131551148477e-03 5.382018527302e-03 0.0 
0.0 0.0 -1.323537156312e-03 
4.718253126561e-04 -2.654545060497e-03 0.0 
-2.654545060497e-03 7.297491663584e-04 0.0 
0.0 0.0 -5.149604910062e-04 
-1.340775759057e-03 3.168705887179e-05 0.0 
3.168705887179e-05 4.893000414627e-03 0.0 
0.0 0.0 -1.340775759057e-03 
2.068072739009e-03 -2.533209175997e-03 0.0 
-2.533209175997e-03 -4.905385770438e-04 0.0 
0.0 0.0 -6.760860694135e-04 
-1.342877878941e-03 3.371101462632e-03 0.0 
3.371101462632e-03 6.986301559429e-03 0.0 
0.0 0.0 -1.342877878941e-03 
-1.502505102679e-03 2.723409331035e-03 0.0 
2.723409331035e-03 6.453774250835e-03 0.0 
0.0 0.0 -1.152765850879e-03 
4.995410750134e-04 -2.508167894462e-04 0.0 
-2.508167894462e-04 1.439641133543e-04 0.0 
0.0 0.0 -1.045622396246e-04 
7.611624550475e-04 2.811491361200e-03 0.0 
2.811491361200e-03 7.486160262995e-04 0.0 
0.0 0.0 -6.470479205773e-04 
-1.718973478826e-03 1.632227495642e-03 0.0 
1.632227495642e-03 7.402026443868e-03 0.0 
0.0 0.0 -1.146019594970e-03 
-1.341220131281e-03 3.403196875767e-03 0.0 
3.403196875767e-03 6.531514611794e-03 0.0 
0.0 0.0 -1.341220131281e-03 
-1.493257815958e-03 2.709508550359e-03 0.0 
2.709508550359e-03 5.031766487179e-03 0.0 
0.0 0.0 -9.220067723808e-04 
-1.371432860580e-04 3.167005571068e-03 0.0 
3.167005571068e-03 2.958438968348e-03 0.0 
0.0 0.0 -1.049000704964e-03 
1.363417131051e-03 2.771598718083e-03 0.0 
2.771598718083e-03 -2.175926074803e-04 0.0 
0.0 0.0 -4.910676529589e-04 
-4.822149847462e-04 -8.933705669702e-06 0.0 
-8.933705669702e-06 3.680115228026e-03 0.0 
0.0 0.0 -1.228682347183e-03 
1.589016691459e-03 -2.728398742501e-03 0.0 
-2.728398742501e-03 -1.477483424757e-04 0.0 
0.0 0.0 -6.176864352786e-04 
2.014961445712e-03 -2.490489286961e-03 0.0 
-2.490489286961e-03 -7.248651286365e-04 0.0 
0.0 0.0 -5.528984216039e-04 
6.740675851827e-05 -1.946268609011e-03 0.0 
-1.946268609011e-03 5.144006658537e-04 0.0 
0.0 0.0 -2.493460390166e-04 
-1.341079611575e-03 3.240452696934e-03 0.0 
3.240452696934e-03 6.054614633037e-03 0.0 
0.0 0.0 -1.341079611575e-03 
2.419438568119e-03 1.848358171578e-03 0.0 
1.848358171578e-03 -8.324259170898e-04 0.0 
0.0 0.0 -6.801482790127e-04 
-1.052268534161e-04 -1.626163501332e-03 0.0 
-1.626163501332e-03 3.065488155398e-03 0.0 
0.0 0.0 -1.110501492391e-03 
-1.743720672030e-03 5.076947702062e-04 0.0 
5.076947702062e-04 5.915487175230e-03 0.0 
0.0 0.0 -8.555322119248e-04 
6.419311454372e-04 -2.457777299007e-03 0.0 
-2.457777299007e-03 6.816602911272e-04 0.0 
0.0 0.0 -5.672534728133e-04 
2.432948694747e-03 -2.224719869907e-03 0.0 
-2.224719869907e-03 -1.006521097821e-03 0.0 
0.0 0.0 -6.113261129685e-04 
-1.391571865871e-03 2.947954310513e-03 0.0 
2.947954310513e-03 4.611783904251e-03 0.0 
0.0 0.0 -8.867075537039e-04 
-1.342259935407e-03 2.196586378398e-03 0.0 
2.196586378398e-03 5.267748778168e-03 0.0 
0.0 0.0 -1.342259935407e-03 
-8.685003091139e-04 -2.019621362732e-03 0.0 
-2.019621362732e-03 3.358195832711e-03 0.0 
0.0 0.0 -1.026543027222e-03 
-6.279763244927e-05 -2.831980191268e-03 0.0 
-2.831980191268e-03 2.234263021353e-03 0.0 
0.0 0.0 -9.306280238158e-04 
1.626113199364e-04 3.532469173109e-03 0.0 
3.532469173109e-03 1.975304410449e-03 0.0 
0.0 0.0 -9.162495987365e-04 
9.545056478258e-04 -2.197984859117e-03 0.0 
-2.197984859117e-03 2.830222850846e-04 0.0 
0.0 0.0 -5.303691141045e-04 
2.741947853495e-03 -1.576053757195e-03 0.0 
-1.576053757195e-03 -1.238751484203e-03 0.0 
0.0 0.0 -6.442270154112e-04 
2.055993336022e-04 -3.019147266732e-03 0.0 
-3.019147266732e-03 1.580796400243e-03 0.0 
0.0 0.0 -7.655981716482e-04 
-1.735594457478e-05 3.684409886977e-03 0.0 
3.684409886977e-03 2.338058889169e-03 0.0 
0.0 0.0 -9.525257740877e-04 
-6.815819430517e-04 3.271309776104e-03 0.0 
3.271309776104e-03 3.991806398053e-03 0.0 
0.0 0.0 -9.982497011217e-04 
7.359468455794e-04 1.655488137203e-03 0.0 
1.655488137203e-03 1.311171725172e-03 0.0 
0.0 0.0 -8.773365303219e-04 
4.616179257589e-04 3.326983553877e-03 0.0 
3.326983553877e-03 1.399682897410e-03 0.0 
0.0 0.0 -7.977003527865e-04 
-1.068767707281e-04 -3.106568222755e-03 0.0 
-3.106568222755e-03 2.185893574205e-03 0.0 
0.0 0.0 -8.910072014901e-04 
1.770168940932e-03 2.939268167283e-03 0.0 
2.939268167283e-03 -7.940642901588e-05 0.0 
0.0 0.0 -7.246125051071e-04 
-6.590777518814e-04 -2.312052235482e-03 0.0 
-2.312052235482e-03 2.981136073476e-03 0.0 
0.0 0.0 -9.951678521122e-04 
-9.129757635955e-05 3.002240536259e-03 0.0 
3.002240536259e-03 3.121089298537e-03 0.0 
0.0 0.0 -1.018204129641e-03 
1.890566440799e-03 1.226789186906e-03 0.0 
1.226789186906e-03 -8.288946358717e-04 0.0 
0.0 0.0 -4.550022021117e-04 
-9.478871216341e-04 -2.661712448175e-04 0.0 
-2.661712448175e-04 5.203816778040e-03 0.0 
0.0 0.0 -1.321929620191e-03 
-1.684709762555e-03 1.865268109453e-03 0.0 
1.865268109453e-03 7.458111656375e-03 0.0 
0.0 0.0 -1.174325249119e-03 
4.942655387039e-04 -2.660349188538e-03 0.0 
-2.660349188538e-03 9.600175774831e-04 0.0 
0.0 0.0 -6.232641926516e-04 
-1.341047338368e-03 5.012584263436e-04 0.0 
5.012584263436e-04 4.843287135669e-03 0.0 
0.0 0.0 -1.341047338368e-03 
-5.199572059754e-04 -1.240456273397e-05 0.0 
-1.240456273397e-05 4.514719369705e-03 0.0 
0.0 0.0 -1.266414110344e-03 
1.456677627038e-03 2.847158529750e-03 0.0 
2.847158529750e-03 -1.224358696167e-04 0.0 
0.0 0.0 -5.718178960378e-04 
3.073160228107e-04 -2.142796274570e-03 0.0 
-2.142796274570e-03 8.896681783000e-04 0.0 
0.0 0.0 -5.129932290474e-04 
-1.050487114865e-03 -1.427509562772e-03 0.0 
-1.427509562772e-03 5.540080609798e-03 0.0 
0.0 0.0 -1.323469717371e-03 
-1.667087300368e-03 2.181750680949e-03 0.0 
2.181750680949e-03 7.186411773731e-03 0.0 
0.0 0.0 -1.167157861819e-03 
1.716323073858e-03 -2.955825605783e-03 0.0 
-2.955825605783e-03 -9.287262183541e-05 0.0 
0.0 0.0 -6.957644794382e-04 
-1.341709311524e-03 -8.333733019742e-04 0.0 
-8.333733019742e-04 5.041051645130e-03 0.0 
0.0 0.0 -1.341709311524e-03 
-1.554347035982e-04 -3.091276428888e-03 0.0 
-3.091276428888e-03 2.271745765848e-03 0.0 
0.0 0.0 -9.069904552498e-04 
-8.856300375339e-05 3.015707065978e-03 0.0 
3.015707065978e-03 2.092630915718e-03 0.0 
0.0 0.0 -8.588862479847e-04 
-1.708652242928e-03 2.038029542744e-03 0.0 
2.038029542744e-03 5.155213329433e-03 0.0 
0.0 0.0 -8.408860858065e-04 
2.150251675539e-03 1.246957804337e-03 0.0 
1.246957804337e-03 -9.518176328646e-04 0.0 
0.0 0.0 -5.136145897175e-04 
4.280369650893e-04 -2.993089053083e-03 0.0 
-2.993089053083e-03 1.242185283195e-03 0.0 
0.0 0.0 -7.158095349792e-04 
1.005063584136e-03 -1.534038141676e-03 0.0 
-1.534038141676e-03 4.706218155617e-04 0.0 
0.0 0.0 -6.324365998706e-04 
-1.787330646013e-03 1.744437882435e-03 0.0 
1.744437882435e-03 6.165539261386e-03 0.0 
0.0 0.0 -9.721028620036e-04 
-5.830614128886e-04 2.963568587990e-03 0.0 
2.963568587990e-03 3.036456168777e-03 0.0 
0.0 0.0 -9.703272795031e-04 
5.013338592635e-04 2.022867758426e-03 0.0 
2.022867758426e-03 1.903789761340e-03 0.0 
0.0 0.0 -1.030767265973e-03 
-1.583428582628e-03 1.234393199571e-04 0.0 
1.234393199571e-04 6.348909220080e-03 0.0 
0.0 0.0 -8.839498032872e-04 
-1.538973880155e-04 -2.905891545860e-03 0.0 
-2.905891545860e-03 2.151085361499e-03 0.0 
0.0 0.0 -8.559377029216e-04 
9.606550472545e-04 1.198365472328e-03 0.0 
1.198365472328e-03 7.584169667694e-04 0.0 
0.0 0.0 -7.367451488674e-04 
1.240241290569e-03 -2.615402293113e-03 0.0 
-2.615402293113e-03 9.801779930626e-06 0.0 
0.0 0.0 -5.357327444998e-04 
-1.264139912559e-03 -2.295922563033e-03 0.0 
-2.295922563033e-03 4.258611210865e-03 0.0 
0.0 0.0 -1.003470032316e-03 
4.779492527782e-04 -1.976862769587e-04 0.0 
-1.976862769587e-04 3.079286874380e-05 0.0 
0.0 0.0 -9.731995102935e-05 
1.375001823881e-03 3.007557583602e-03 0.0 
3.007557583602e-03 2.077996425490e-04 0.0 
0.0 0.0 -6.783434856127e-04 
1.686675147585e-03 -2.826451651131e-03 0.0 
-2.826451651131e-03 -3.979102607463e-04 0.0 
0.0 0.0 -5.523278086452e-04 
-6.775751599431e-04 -2.656016194715e-03 0.0 
-2.656016194715e-03 3.173617743200e-03 0.0 
0.0 0.0 -1.041231529553e-03 
9.547448531119e-04 2.912205143476e-03 0.0 
2.912205143476e-03 5.651456179382e-04 0.0 
0.0 0.0 -6.513816304500e-04 
3.545197186364e-05 -2.683422917804e-03 0.0 
-2.683422917804e-03 2.222563700784e-03 0.0 
0.0 0.0 -9.350600278798e-04 
-1.737561363205e-03 5.251994903431e-04 0.0 
5.251994903431e-04 6.205644374021e-03 0.0 
0.0 0.0 -8.962969588583e-04 
1.356254452431e-03 -2.984093401581e-03 0.0 
-2.984093401581e-03 -2.215529665071e-05 0.0 
0.0 0.0 -5.717567810488e-04 
-1.341827844788e-03 -1.146584425421e-03 0.0 
-1.146584425421e-03 5.213236186647e-03 0.0 
0.0 0.0 -1.341827844788e-03 
-1.032358392854e-03 3.358744228303e-03 0.0 
3.358744228303e-03 3.981695232776e-03 0.0 
0.0 0.0 -8.921909746423e-04 
-9.403772787457e-04 -2.333509821859e-03 0.0 
-2.333509821859e-03 3.602948163807e-03 0.0 
0.0 0.0 -1.032584340947e-03 
-7.230784000767e-04 3.517969959091e-03 0.0 
3.517969959091e-03 3.446928309249e-03 0.0 
0.0 0.0 -9.025917034692e-04 
-6.743760556383e-04 -2.567033021564e-03 0.0 
-2.567033021564e-03 3.158224002336e-03 0.0 
0.0 0.0 -1.064506262870e-03 
0.0 0.0 0.0 
0.0 0.0 0.0 
0.0 0.0 0.0 
-1.792312889487e-03 1.741412585942e-03 0.0 
1.741412585942e-03 5.511837739733e-03 0.0 
0.0 0.0 -8.733545218784e-04 
-1.159018419121e-03 -6.757248724201e-04 0.0 
-6.757248724201e-04 3.679422689167e-03 0.0 
0.0 0.0 -9.437415894182e-04 
1.526598219851e-03 -2.022984547481e-04 0.0 
-2.022984547481e-04 -5.806947110268e-04 0.0 
0.0 0.0 -1.518789559795e-04 
-1.008983259281e-03 -2.022851433489e-03 0.0 
-2.022851433489e-03 3.664714944016e-03 0.0 
0.0 0.0 -1.031099917346e-03 
-1.552203916554e-04 -2.266492036209e-03 0.0 
-2.266492036209e-03 2.794636645768e-03 0.0 
0.0 0.0 -1.001254648526e-03 
-1.559997350991e-03 7.763984245468e-04 0.0 
7.763984245468e-04 7.736769108545e-03 0.0 
0.0 0.0 -1.146946825052e-03 
1.304436411006e-03 -1.537118457164e-03 0.0 
-1.537118457164e-03 -1.929375046108e-04 0.0 
0.0 0.0 -4.763566741695e-04 
1.141009119650e-03 -1.409930863555e-03 0.0 
-1.409930863555e-03 1.287642799873e-04 0.0 
0.0 0.0 -5.441885998444e-04 
-1.689284059370e-03 1.450746420627e-03 0.0 
1.450746420627e-03 4.831311448006e-03 0.0 
0.0 0.0 -7.833574767318e-04 
-1.686952509024e-03 5.790488882109e-04 0.0 
5.790488882109e-04 4.855993105087e-03 0.0 
0.0 0.0 -7.312625299844e-04 
-1.435530838734e-03 2.039856500826e-03 0.0 
2.039856500826e-03 7.934174766789e-03 0.0 
0.0 0.0 -1.286111585339e-03 
-3.846383815358e-04 3.631348853507e-03 0.0 
3.631348853507e-03 2.894402056622e-03 0.0 
0.0 0.0 -9.211198782815e-04 
2.563042352686e-03 -3.462434059620e-04 0.0 
-3.462434059620e-04 -8.334153675030e-04 0.0 
0.0 0.0 -9.050770260813e-05 
-2.801224181593e-06 -1.851492159178e-03 0.0 
-1.851492159178e-03 1.218501688618e-03 0.0 
0.0 0.0 -5.210144847585e-04 
8.331805258011e-05 -1.317049816552e-03 0.0 
-1.317049816552e-03 7.003703442878e-04 0.0 
0.0 0.0 -3.358664558005e-04 
1.821034446314e-04 -2.408967732496e-03 0.0 
-2.408967732496e-03 1.233113086777e-03 0.0 
0.0 0.0 -6.065213706036e-04 
-1.138435434649e-03 2.989604430891e-03 0.0 
2.989604430891e-03 5.462421315605e-03 0.0 
0.0 0.0 -1.134523071099e-03 
-1.613429135808e-03 4.247551468927e-04 0.0 
4.247551468927e-04 7.790174225159e-03 0.0 
0.0 0.0 -1.144649651339e-03 
-1.027154245499e-03 -2.035960934847e-03 0.0 
-2.035960934847e-03 4.492443968240e-03 0.0 
0.0 0.0 -1.087427768671e-03 
-2.215897922679e-04 -2.343741531637e-03 0.0 
-2.343741531637e-03 1.937473062545e-03 0.0 
0.0 0.0 -7.353785444044e-04 
-1.224434476437e-03 -2.373415610936e-03 0.0 
-2.373415610936e-03 4.259607832395e-03 0.0 
0.0 0.0 -1.074887456883e-03 
-2.765309671832e-04 -1.235730925308e-03 0.0 
-1.235730925308e-03 3.492398506195e-03 0.0 
0.0 0.0 -1.142106164841e-03 
1.609002123108e-03 9.641353836346e-05 0.0 
9.641353836346e-05 -1.014383706755e-03 0.0 
0.0 0.0 -2.548364641514e-04 
-1.185520630974e-03 -6.216129085547e-04 0.0 
-6.216129085547e-04 3.715832065426e-03 0.0 
0.0 0.0 -9.234434510542e-04 
-9.870309350746e-04 -2.949408640791e-04 0.0 
-2.949408640791e-04 3.127712701104e-03 0.0 
0.0 0.0 -8.176025220169e-04 
-1.158159835052e-03 -1.705545964426e-03 0.0 
-1.705545964426e-03 5.701758529228e-03 0.0 
0.0 0.0 -1.322396863610e-03 
-1.341641872583e-03 -1.478861783549e-03 0.0 
-1.478861783549e-03 5.355371918508e-03 0.0 
0.0 0.0 -1.341641872583e-03 
-1.283076775259e-03 -6.373143896461e-04 0.0 
-6.373143896461e-04 4.006265140635e-03 0.0 
0.0 0.0 -9.869148323457e-04 
-9.252167440016e-04 -2.284187084932e-03 0.0 
-2.284187084932e-03 3.604049524323e-03 0.0 
0.0 0.0 -1.082955583678e-03 
1.424947381447e-04 -3.218131506232e-03 0.0 
-3.218131506232e-03 1.808876759913e-03 0.0 
0.0 0.0 -8.363020705961e-04 
-2.858765317583e-04 -8.912097981478e-04 0.0 
-8.912097981478e-04 3.661087959600e-03 0.0 
0.0 0.0 -1.177278300149e-03 
-1.642185562706e-04 -1.468912040377e-03 0.0 
-1.468912040377e-03 1.269461247680e-03 0.0 
0.0 0.0 -4.736754391754e-04 
-2.865195494759e-04 -1.594101584254e-03 0.0 
-1.594101584254e-03 3.398007437901e-03 0.0 
0.0 0.0 -1.104707344597e-03 
9.194713961983e-04 -6.793234433339e-04 0.0 
-6.793234433339e-04 6.261768049846e-04 0.0 
0.0 0.0 -3.206774383567e-04 
-7.790564292393e-04 -2.283470906283e-03 0.0 
-2.283470906283e-03 3.292851518803e-03 0.0 
0.0 0.0 -1.077340752670e-03 
-5.608514076299e-04 -2.798496030794e-03 0.0 
-2.798496030794e-03 2.999147072071e-03 0.0 
0.0 0.0 -1.044983856189e-03 
1.138912068891e-03 -3.473598627530e-04 0.0 
-3.473598627530e-04 -1.413469007123e-04 0.0 
0.0 0.0 -2.684313900889e-04 
-1.253955737825e-03 -3.715260469387e-04 0.0 
-3.715260469387e-04 3.888476539148e-03 0.0 
0.0 0.0 -9.536442305595e-04 
-1.602308644549e-03 2.138646014206e-03 0.0 
2.138646014206e-03 7.398169050205e-03 0.0 
0.0 0.0 -1.176862138969e-03 
2.761299412783e-03 -2.184006917307e-04 0.0 
-2.184006917307e-04 -8.957163604378e-04 0.0 
0.0 0.0 -9.160000506328e-05 
-1.698158774402e-03 7.543543168281e-04 0.0 
7.543543168281e-04 4.798515189366e-03 0.0 
0.0 0.0 -7.322753781719e-04 
-1.694678419912e-03 8.983255451051e-04 0.0 
8.983255451051e-04 4.996965617242e-03 0.0 
0.0 0.0 -7.130472889423e-04 
9.905782610910e-04 -8.253624912090e-04 0.0 
-8.253624912090e-04 7.976802919736e-04 0.0 
0.0 0.0 -7.663965227419e-04 
-1.039035016572e-03 -2.144348817903e-04 0.0 
-2.144348817903e-04 3.210973696896e-03 0.0 
0.0 0.0 -7.829545016062e-04 
1.212299874062e-03 -2.903037830351e-03 0.0 
-2.903037830351e-03 2.395213764874e-04 0.0 
0.0 0.0 -6.222091073784e-04 
1.174115903652e-03 2.662474741674e-03 0.0 
2.662474741674e-03 2.969730930284e-04 0.0 
0.0 0.0 -6.304667128631e-04 
-1.289472189001e-03 -1.746360051319e-03 0.0 
-1.746360051319e-03 5.399223758463e-03 0.0 
0.0 0.0 -1.180895453064e-03 
-1.199251439186e-03 3.128969763373e-03 0.0 
3.128969763373e-03 5.740281679720e-03 0.0 
0.0 0.0 -1.286194385238e-03 
-1.685234284086e-03 7.030718583631e-04 0.0 
7.030718583631e-04 7.477737434154e-03 0.0 
0.0 0.0 -1.101088927253e-03 
5.511702260285e-04 2.711119680311e-03 0.0 
2.711119680311e-03 9.222763951361e-04 0.0 
0.0 0.0 -6.314771233563e-04 
-3.649363196540e-05 -1.210836942261e-03 0.0 
-1.210836942261e-03 8.486569891216e-04 0.0 
0.0 0.0 -3.480700102098e-04 
-1.004741383637e-03 2.553626350246e-03 0.0 
2.553626350246e-03 3.669626505377e-03 0.0 
0.0 0.0 -8.905302458185e-04 
-1.568290103670e-03 2.798930321494e-04 0.0 
2.798930321494e-04 4.936656992355e-03 0.0 
0.0 0.0 -7.345111139194e-04 
-1.542599483069e-03 2.307996019665e-04 0.0 
2.307996019665e-04 5.186209951631e-03 0.0 
0.0 0.0 -7.144802219086e-04 
1.697260921232e-03 -1.822504204338e-04 0.0 
-1.822504204338e-04 -6.526688675189e-04 0.0 
0.0 0.0 -1.584708362264e-04 
9.885439547911e-04 -4.650217645265e-04 0.0 
-4.650217645265e-04 -7.811083121430e-05 0.0 
0.0 0.0 -2.719350994485e-04 
3.764836072069e-04 -3.171144431772e-04 0.0 
-3.171144431772e-04 5.254813268562e-04 0.0 
0.0 0.0 -2.992029258896e-04 
-3.222613347251e-04 -1.717475984859e-03 0.0 
-1.717475984859e-03 1.786840537745e-03 0.0 
0.0 0.0 -6.276768012942e-04 
1.995445303676e-03 -3.544912217161e-04 0.0 
-3.544912217161e-04 -1.783707534186e-04 0.0 
0.0 0.0 -2.505695937184e-04 
-1.385796394707e-03 -3.802460944882e-04 0.0 
-3.802460944882e-04 4.246303149623e-03 0.0 
0.0 0.0 -1.004230634435e-03 
0.0 0.0 0.0 
0.0 0.0 0.0 
0.0 0.0 0.0 
-3.537348662354e-04 -2.028219451660e-03 0.0 
-2.028219451660e-03 2.045322960423e-03 0.0 
0.0 0.0 -7.249663260806e-04 
-1.566153664312e-03 2.377992970035e-04 0.0 
2.377992970035e-04 6.488131571459e-03 0.0 
0.0 0.0 -9.582560723523e-04 
-1.634454558496e-03 5.707793053276e-04 0.0 
5.707793053276e-04 5.108535752511e-03 0.0 
0.0 0.0 -7.120344407548e-04 
-1.255391157734e-03 2.956292385131e-03 0.0 
2.956292385131e-03 5.913112370001e-03 0.0 
0.0 0.0 -1.169483110168e-03 
-3.211066572615e-04 -2.624140315591e-03 0.0 
-2.624140315591e-03 2.858415319154e-03 0.0 
0.0 0.0 -9.641449249716e-04 
-1.553469395463e-03 1.980732768992e-04 0.0 
1.980732768992e-04 6.108450087988e-03 0.0 
0.0 0.0 -8.988447104697e-04 
-1.086829048493e-03 -4.298554506639e-05 0.0 
-4.298554506639e-05 3.376551179836e-03 0.0 
0.0 0.0 -8.404787427002e-04 
1.157325761144e-03 -4.144839602351e-04 0.0 
-4.144839602351e-04 5.556060787113e-04 0.0 
0.0 0.0 -3.489577299251e-04 
-1.340974968048e-03 1.141125960794e-03 0.0 
1.141125960794e-03 8.560634098268e-03 0.0 
0.0 0.0 -1.340974968048e-03 
-1.479514720207e-03 1.290754629394e-03 0.0 
1.290754629394e-03 8.817356864728e-03 0.0 
0.0 0.0 -1.320295381545e-03 
-1.658748233041e-03 8.637494445187e-04 0.0 
8.637494445187e-04 5.855760830743e-03 0.0 
0.0 0.0 -8.588387843224e-04 
-1.626246500550e-03 3.507062076516e-04 0.0 
3.507062076516e-04 4.917310602464e-03 0.0 
0.0 0.0 -7.326073368542e-04 
-1.101733211462e-03 -4.903419461906e-04 0.0 
-4.903419461906e-04 3.425201513199e-03 0.0 
0.0 0.0 -8.368382630048e-04 
-1.457935752510e-03 9.072104527732e-04 0.0 
9.072104527732e-04 8.880607743519e-03 0.0 
0.0 0.0 -1.322576402756e-03 
-2.087604691238e-04 -2.081308369903e-03 0.0 
-2.081308369903e-03 1.746392936312e-03 0.0 
0.0 0.0 -6.589853430805e-04 
-1.662826015092e-03 7.083533780780e-04 0.0 
7.083533780780e-04 5.042251775661e-03 0.0 
0.0 0.0 -7.125614225629e-04 
-1.628165374516e-03 4.707510309731e-04 0.0 
4.707510309731e-04 4.889560536843e-03 0.0 
0.0 0.0 -7.312775522649e-04 
-1.109436790681e-03 2.207974280543e-03 0.0 
2.207974280543e-03 3.753226225228e-03 0.0 
0.0 0.0 -8.460010047089e-04 
-1.341823989366e-03 2.274932854254e-03 0.0 
2.274932854254e-03 8.137856468635e-03 0.0 
0.0 0.0 -1.341823989366e-03 
-1.447499776368e-03 1.123885033130e-03 0.0 
1.123885033130e-03 8.849685221172e-03 0.0 
0.0 0.0 -1.322582685247e-03 
1.858413942133e-03 -4.468674671497e-04 0.0 
-4.468674671497e-04 -1.442261551490e-04 0.0 
0.0 0.0 -2.523401230232e-04 
1.933225188622e-03 -1.733881547272e-04 0.0 
-1.733881547272e-04 -7.561870514403e-04 0.0 
0.0 0.0 -1.563839533901e-04 
-1.406822219416e-04 -1.124602410666e-03 0.0 
-1.124602410666e-03 1.005262349108e-03 0.0 
0.0 0.0 -3.705343402141e-04 
-5.636260726475e-04 -2.890778252910e-03 0.0 
-2.890778252910e-03 3.024028366260e-03 0.0 
0.0 0.0 -1.029090130247e-03 
-1.836231348186e-03 -1.061046282737e-04 0.0 
-1.061046282737e-04 6.851957631603e-03 0.0 
0.0 0.0 -1.224669017856e-03 
0.0 0.0 0.0 
0.0 0.0 0.0 
0.0 0.0 0.0 
-1.578428037932e-03 -1.076945805976e-04 0.0 
-1.076945805976e-04 7.488341038297e-03 0.0 
0.0 0.0 -1.092518628634e-03 
-1.550925910831e-05 -1.170234142814e-04 0.0 
-1.170234142814e-04 1.067621659097e-04 0.0 
0.0 0.0 -3.910838862915e-05 
8.665365973905e-04 -1.142786771002e-03 0.0 
-1.142786771002e-03 9.419164366956e-04 0.0 
0.0 0.0 -7.750513003226e-04 
2.093383490481e-04 -3.500473738276e-04 0.0 
-3.500473738276e-04 8.081195732961e-06 0.0 
0.0 0.0 -9.317980490616e-05 
0.0 0.0 0.0 
0.0 0.0 0.0 
0.0 0.0 0.0 
8.379829542950e-04 -1.828387007204e-03 0.0 
-1.828387007204e-03 8.061078686980e-04 0.0 
0.0 0.0 -7.046103527113e-04 
-1.789860880868e-03 -9.343042948716e-04 0.0 
-9.343042948716e-04 6.450275194502e-03 0.0 
0.0 0.0 -1.192963836147e-03 
-1.590104708056e-03 6.107842018535e-05 0.0 
6.107842018535e-05 6.703688956183e-03 0.0 
0.0 0.0 -9.361271490834e-04 
-8.759783829009e-04 2.898559650342e-03 0.0 
2.898559650342e-03 3.532916901786e-03 0.0 
0.0 0.0 -9.106555839008e-04 
1.248462822196e-03 -2.813829483536e-04 0.0 
-2.813829483536e-04 -1.929931588244e-04 0.0 
0.0 0.0 -2.625419092021e-04 
-1.459678414727e-03 -2.058426133646e-03 0.0 
-2.058426133646e-03 4.704925736718e-03 0.0 
0.0 0.0 -1.075952622059e-03 
-1.337797817327e-03 3.504757910850e-04 0.0 
3.504757910850e-04 8.685617780919e-03 0.0 
0.0 0.0 -1.337797817327e-03 
-1.451734133111e-03 3.024014936646e-04 0.0 
3.024014936646e-04 8.945645325804e-03 0.0 
0.0 0.0 -1.322354755130e-03 
-1.599337559302e-03 4.517969448523e-04 0.0 
4.517969448523e-04 5.137060814106e-03 0.0 
0.0 0.0 -7.125764448434e-04 
8.243811469618e-04 -5.070143029738e-04 0.0 
-5.070143029738e-04 1.170642242664e-03 0.0 
0.0 0.0 -8.550100241253e-04 
-1.341607717199e-03 9.922961128721e-04 0.0 
9.922961128721e-04 8.617013640237e-03 0.0 
0.0 0.0 -1.341607717199e-03 
1.651597580356e-05 2.683416658655e-03 0.0 
2.683416658655e-03 3.024822145470e-03 0.0 
0.0 0.0 -1.046710270629e-03 
1.210451057929e-03 -1.943692124057e-04 0.0 
-1.943692124057e-04 4.706046126820e-04 0.0 
0.0 0.0 -3.531810144492e-04 
2.099767295814e-03 -2.484083841165e-04 0.0 
-2.484083841165e-04 -2.289154150212e-04 0.0 
0.0 0.0 -2.475227046456e-04 
1.335233375907e-03 -9.196830328825e-05 0.0 
-9.196830328825e-05 -2.038367509550e-04 0.0 
0.0 0.0 -2.481890828467e-04 
-1.206645058523e-03 -4.413417753443e-05 0.0 
-4.413417753443e-05 3.734312456454e-03 0.0 
0.0 0.0 -9.186759157619e-04 
-1.554661254855e-03 -1.173104092863e-03 0.0 
-1.173104092863e-03 7.206653129246e-03 0.0 
0.0 0.0 -1.322828574513e-03 
-1.468378470940e-03 -2.055954314762e-04 0.0 
-2.055954314762e-04 8.477100898234e-03 0.0 
0.0 0.0 -1.258329778789e-03 
2.187416576026e-03 -1.653808446854e-04 0.0 
-1.653808446854e-04 -8.676741714944e-04 0.0 
0.0 0.0 -1.587067154099e-04 
-1.371588137901e-03 -3.169762198632e-04 0.0 
-3.169762198632e-04 4.214800910036e-03 0.0 
0.0 0.0 -1.008438243783e-03 
-1.344798314370e-03 -8.279531255943e-04 0.0 
-8.279531255943e-04 7.026886665436e-03 0.0 
0.0 0.0 -1.344798314369e-03 
-1.564884777426e-03 -1.287545985866e-03 0.0 
-1.287545985866e-03 7.147060172158e-03 0.0 
0.0 0.0 -1.318785251170e-03 
-1.158469832793e-03 -1.923166980148e-03 0.0 
-1.923166980148e-03 5.883371209853e-03 0.0 
0.0 0.0 -1.321151187552e-03 
-1.585912391543e-03 2.691560132111e-04 0.0 
2.691560132111e-04 7.090908885405e-03 0.0 
0.0 0.0 -1.027148381742e-03 
-1.555187588006e-03 -1.971572702211e-04 0.0 
-1.971572702211e-04 7.705246922455e-03 0.0 
0.0 0.0 -1.125709525796e-03 
-1.338030260144e-03 -1.094386398329e-03 0.0 
-1.094386398329e-03 6.909148412757e-03 0.0 
0.0 0.0 -1.338030260144e-03 
-1.340754991027e-03 -1.372687681983e-03 0.0 
-1.372687681983e-03 6.806607219922e-03 0.0 
0.0 0.0 -1.340754991027e-03 
-1.561602649575e-03 2.480043620058e-04 0.0 
2.480043620058e-04 7.494608831512e-03 0.0 
0.0 0.0 -1.092518628634e-03 
3.307271248664e-03 4.314548185695e-05 0.0 
4.314548185695e-05 -1.214475185733e-03 0.0 
0.0 0.0 -8.755379438333e-05 
-1.478032168390e-03 1.489804673206e-04 0.0 
1.489804673206e-04 5.167022187345e-03 0.0 
0.0 0.0 -7.139539158865e-04 
-1.574977551316e-03 3.717997235828e-04 0.0 
3.717997235828e-04 5.188881553203e-03 0.0 
0.0 0.0 -7.133642253441e-04 
2.078295521971e-03 -1.511499007421e-04 0.0 
-1.511499007421e-04 -8.199563945998e-04 0.0 
0.0 0.0 -1.576675707606e-04 
-1.342313591240e-03 -1.872687525586e-03 0.0 
-1.872687525586e-03 6.355359522584e-03 0.0 
0.0 0.0 -1.342313591240e-03 
-1.269922737054e-03 -2.029167704155e-03 0.0 
-2.029167704155e-03 6.094262192879e-03 0.0 
0.0 0.0 -1.318355947622e-03 
-1.337959751097e-03 -1.908784167046e-03 0.0 
-1.908784167046e-03 5.900685640896e-03 0.0 
0.0 0.0 -1.337959751097e-03 
3.106621107953e-03 -1.497773368645e-04 0.0 
-1.497773368645e-04 -1.029211139497e-03 0.0 
0.0 0.0 -9.540963664561e-05 
2.941822019467e-03 -1.767432348869e-04 0.0 
-1.767432348869e-04 -9.568393427299e-04 0.0 
0.0 0.0 -9.747405510327e-05 
-1.340754991027e-03 -1.672627381109e-03 0.0 
-1.672627381109e-03 5.518495974516e-03 0.0 
0.0 0.0 -1.340754991027e-03 
-1.340396196526e-03 -1.852966983193e-03 0.0 
-1.852966983193e-03 5.697134399037e-03 0.0 
0.0 0.0 -1.340396196526e-03 
-1.600296610560e-03 -2.152006829150e-04 0.0 
-2.152006829150e-04 6.887323541576e-03 0.0 
0.0 0.0 -9.936726122374e-04 
-1.422222177314e-03 8.859389962602e-05 0.0 
8.859389962602e-05 5.179295465595e-03 0.0 
0.0 0.0 -7.124851972278e-04 
-1.571159218797e-03 -2.082021183410e-04 0.0 
-2.082021183410e-04 7.291178693471e-03 0.0 
0.0 0.0 -1.060142436171e-03 
-1.552782223510e-03 -2.129194587244e-04 0.0 
-2.129194587244e-04 6.002253842572e-03 0.0 
0.0 0.0 -8.626607521899e-04 
-1.382122713210e-03 3.570213775188e-05 0.0 
3.570213775188e-05 5.182667103943e-03 0.0 
0.0 0.0 -7.121912678902e-04 
2.259827960221e-03 -3.791885520061e-04 0.0 
-3.791885520061e-04 -6.773411335669e-04 0.0 
0.0 0.0 -9.442328267794e-05 
1.489465085535e-03 -3.873061726619e-04 0.0 
-3.873061726619e-04 -3.302723319640e-04 0.0 
0.0 0.0 -4.591167563965e-05 
1.195706273835e-03 -4.439423179226e-04 0.0 
-4.439423179226e-04 -2.457069974477e-04 0.0 
0.0 0.0 -4.589015575604e-05 
7.928883186884e-04 -4.308369996379e-04 0.0 
-4.308369996379e-04 -1.962835067220e-05 0.0 
0.0 0.0 -4.556578909549e-05 
-1.455576565641e-03 5.369324781880e-06 0.0 
5.369324781880e-06 4.421569252006e-03 0.0 
0.0 0.0 -1.025222297049e-03 
-1.326853145310e-03 -3.193870868211e-05 0.0 
-3.193870868211e-05 4.074529080795e-03 0.0 
0.0 0.0 -9.784754570978e-04 
3.643447720584e-04 -2.807478551813e-04 0.0 
-2.807478551813e-04 -8.302826669459e-05 0.0 
0.0 0.0 -1.159392125903e-04 
-1.882114812679e-03 5.257899597366e-05 0.0 
5.257899597366e-05 5.463849854237e-03 0.0 
0.0 0.0 -1.072123180932e-03 
1.624781745822e-04 -2.648253394118e-04 0.0 
-2.648253394118e-04 3.767456551543e-06 0.0 
0.0 0.0 -7.124812762874e-05 
-1.341471640605e-03 1.902532918980e-03 0.0 
1.902532918980e-03 8.304452194875e-03 0.0 
0.0 0.0 -1.341471640605e-03 
-1.340968685557e-03 8.342263842268e-04 0.0 
8.342263842268e-04 8.620360450522e-03 0.0 
0.0 0.0 -1.340968685557e-03 
-1.339320413496e-03 1.336323062728e-03 0.0 
1.336323062728e-03 8.515855351859e-03 0.0 
0.0 0.0 -1.339320413496e-03 
-5.175251243654e-04 1.147272255642e-05 0.0 
1.147272255642e-05 1.550881351190e-03 0.0 
0.0 0.0 -2.599136149544e-04 
-9.633323041400e-04 -3.549644401783e-05 0.0 
-3.549644401783e-05 2.981977788141e-03 0.0 
0.0 0.0 -7.340959586659e-04 
-1.337132911908e-03 6.510662741128e-04 0.0 
6.510662741128e-04 8.656607653519e-03 0.0 
0.0 0.0 -1.337132911908e-03 
-2.083032595708e-03 9.922266011855e-05 0.0 
9.922266011855e-05 6.472696883650e-03 0.0 
0.0 0.0 -1.124956933753e-03 
-1.344556937803e-03 5.003882733929e-04 0.0 
5.003882733929e-04 8.710429521741e-03 0.0 
0.0 0.0 -1.344556937803e-03 
-1.932677962729e-03 1.288201926386e-04 0.0 
1.288201926386e-04 6.746175248938e-03 0.0 
0.0 0.0 -1.192538251246e-03 
-1.740079752366e-03 1.547682996820e-04 0.0 
1.547682996820e-04 7.002368902305e-03 0.0 
0.0 0.0 -1.259905836238e-03 
-1.256318881540e-03 -3.058147318078e-04 0.0 
-3.058147318078e-04 3.889569585195e-03 0.0 
0.0 0.0 -9.521061186879e-04 
-1.479483252636e-03 7.231400883548e-04 0.0 
7.231400883548e-04 8.931379513718e-03 0.0 
0.0 0.0 -1.318101597465e-03 
-1.454407492241e-03 7.329644933787e-04 0.0 
7.329644933787e-04 8.932547234701e-03 0.0 
0.0 0.0 -1.321689849711e-03 
-1.996720130669e-03 -4.240856891719e-04 0.0 
-4.240856891719e-04 6.546271744836e-03 0.0 
0.0 0.0 -1.157495185000e-03 
-1.833092771074e-03 -4.338479580684e-04 0.0 
-4.338479580684e-04 6.845712330688e-03 0.0 
0.0 0.0 -1.225777420818e-03 
-1.841879665554e-03 -1.392809369192e-03 0.0 
-1.392809369192e-03 5.462425115064e-03 0.0 
0.0 0.0 -1.076967794221e-03 
0.0 0.0 0.0 
0.0 0.0 0.0 
0.0 0.0 0.0 
-8.795889895974e-04 -1.952925740306e-03 0.0 
-1.952925740306e-03 3.376145193665e-03 0.0 
0.0 0.0 -1.039304039601e-03 
1.660434101197e-03 -6.141622579472e-04 0.0 
-6.141622579472e-04 -6.719522836332e-05 0.0 
0.0 0.0 -2.442944474907e-04 
-1.378694188408e-03 -2.097012646119e-03 0.0 
-2.097012646119e-03 5.460269496084e-03 0.0 
0.0 0.0 -1.177819030284e-03 
-7.813950936845e-04 -2.358745935075e-03 0.0 
-2.358745935075e-03 3.287112188259e-03 0.0 
0.0 0.0 -1.040987640873e-03 
-1.809630590335e-03 -1.291578548695e-03 0.0 
-1.291578548695e-03 5.821414157847e-03 0.0 
0.0 0.0 -1.099016898379e-03 
-2.060296257065e-04 -1.796631504213e-03 0.0 
-1.796631504213e-03 1.564117229874e-03 0.0 
0.0 0.0 -5.820375446434e-04 
4.475341314438e-05 -9.010547106959e-04 0.0 
-9.010547106959e-04 6.723802247933e-04 0.0 
0.0 0.0 -2.733874678612e-04 
-1.819661686397e-03 -1.463949205523e-03 0.0 
-1.463949205523e-03 6.215728401457e-03 0.0 
0.0 0.0 -1.161668299909e-03 
-1.009350816753e-03 -1.981157607315e-03 0.0 
-1.981157607315e-03 3.679610224835e-03 0.0 
0.0 0.0 -1.056886766371e-03 
-1.124597673924e-03 -3.416283390981e-04 0.0 
-3.416283390981e-04 3.530274889455e-03 0.0 
0.0 0.0 -8.978673291013e-04 
-1.908614693689e-03 -1.553426855284e-03 0.0 
-1.553426855284e-03 5.883638228136e-03 0.0 
0.0 0.0 -1.096102707776e-03 
-1.506564574904e-03 4.784902240182e-04 0.0 
4.784902240182e-04 7.990398295391e-03 0.0 
0.0 0.0 -1.188907866872e-03 
-1.145966443117e-03 -2.688887835076e-04 0.0 
-2.688887835076e-04 3.559257817850e-03 0.0 
0.0 0.0 -8.802182425544e-04 
-2.343808151550e-04 -2.448482601409e-03 0.0 
-2.448482601409e-03 2.867036480139e-03 0.0 
0.0 0.0 -1.035646790376e-03 
-9.500506080825e-04 -2.724089328098e-03 0.0 
-2.724089328098e-03 3.674446532369e-03 0.0 
0.0 0.0 -9.625389225288e-04 
-1.856114660532e-03 -1.247587492440e-03 0.0 
-1.247587492440e-03 5.444374226428e-03 0.0 
0.0 0.0 -1.042884296030e-03 
-2.003615679542e-03 -9.107189773551e-04 0.0 
-9.107189773551e-04 5.760788445208e-03 0.0 
0.0 0.0 -1.050199500156e-03 
3.015162384708e-03 1.478491521065e-03 0.0 
1.478491521065e-03 -1.420788746949e-03 0.0 
0.0 0.0 -6.833029876111e-04 
-7.703338813803e-04 2.711642704622e-03 0.0 
2.711642704622e-03 3.268676482316e-03 0.0 
0.0 0.0 -9.206815977879e-04 
8.952220710028e-04 3.337500451005e-03 0.0 
3.337500451005e-03 9.018971507738e-04 0.0 
0.0 0.0 -7.701939521900e-04 
-1.492273682533e-03 -1.948749897048e-03 0.0 
-1.948749897048e-03 4.700056634630e-03 0.0 
0.0 0.0 -1.018483763552e-03 
-1.953152701418e-03 -1.266064436280e-03 0.0 
-1.266064436280e-03 6.190905664489e-03 0.0 
0.0 0.0 -1.125100902632e-03 
-2.130434678919e-03 -5.674193057818e-04 0.0 
-5.674193057818e-04 6.039060582820e-03 0.0 
0.0 0.0 -1.053755873404e-03 
1.981272582958e-04 -2.339075750409e-03 0.0 
-2.339075750409e-03 1.164667172993e-03 0.0 
0.0 0.0 -5.840547562666e-04 
-1.516698384373e-03 7.243684231909e-04 0.0 
7.243684231909e-04 7.963201592157e-03 0.0 
0.0 0.0 -1.183514100502e-03 
-1.571889609711e-03 6.492262438020e-04 0.0 
6.492262438020e-04 7.577660240319e-03 0.0 
0.0 0.0 -1.117084069417e-03 
-1.526943038589e-03 4.067391407097e-04 0.0 
4.067391407097e-04 5.686565415721e-03 0.0 
0.0 0.0 -8.110481619253e-04 
-1.474195239190e-03 -2.107699134124e-03 0.0 
-2.107699134124e-03 4.674985602820e-03 0.0 
0.0 0.0 -1.001070066037e-03 
-1.687869148980e-03 -1.597447162641e-03 0.0 
-1.597447162641e-03 5.094192157887e-03 0.0 
0.0 0.0 -1.032102790996e-03 
-1.559878786953e-03 1.186239496982e-04 0.0 
1.186239496982e-04 8.091883647163e-03 0.0 
0.0 0.0 -1.185362187646e-03 
-1.553576411269e-03 5.639076835034e-04 0.0 
5.639076835034e-04 7.828849217298e-03 0.0 
0.0 0.0 -1.150972777267e-03 
-5.736846005059e-04 -3.010470759541e-03 0.0 
-3.010470759541e-03 3.112745496219e-03 0.0 
0.0 0.0 -1.058777908313e-03 
-1.827264969184e-03 -1.207689843267e-03 0.0 
-1.207689843267e-03 6.491929530035e-03 0.0 
0.0 0.0 -1.190872049285e-03 
-1.617401302618e-03 1.036699389917e-03 0.0 
1.036699389917e-03 7.425262889637e-03 0.0 
0.0 0.0 -1.103416240745e-03 
-2.113993614968e-03 -7.222808743220e-04 0.0 
-7.222808743220e-04 6.023476369147e-03 0.0 
0.0 0.0 -1.069496670503e-03 
-1.471914821471e-03 -1.998353424490e-03 0.0 
-1.998353424490e-03 5.883536090439e-03 0.0 
0.0 0.0 -1.210017230578e-03 
-1.575272729869e-03 3.494544289054e-04 0.0 
3.494544289054e-04 8.019533452472e-03 0.0 
0.0 0.0 -1.181737430652e-03 
-1.652502708926e-03 2.520535947120e-04 0.0 
2.520535947120e-04 7.001595806507e-03 0.0 
0.0 0.0 -1.011817915138e-03 
-3.838894113269e-04 -2.804191833148e-03 0.0 
-2.804191833148e-03 2.874279057775e-03 0.0 
0.0 0.0 -9.985655989919e-04 
-6.304965187655e-04 -7.604202958905e-04 0.0 
-7.604202958905e-04 2.203620271365e-03 0.0 
0.0 0.0 -6.656342390725e-04 
4.047615641515e-04 -2.474054827037e-03 0.0 
-2.474054827037e-03 9.613198754716e-04 0.0 
0.0 0.0 -5.854634741242e-04 
2.836227978939e-05 -1.580599960261e-03 0.0 
-1.580599960261e-03 9.832792497712e-04 0.0 
0.0 0.0 -4.149592254337e-04 
1.034548557929e-04 -1.227500156599e-03 0.0 
-1.227500156599e-03 6.126727267546e-04 0.0 
0.0 0.0 -3.069118210918e-04 
-1.577352812428e-03 2.114313367924e-04 0.0 
2.114313367924e-04 7.845695102100e-03 0.0 
0.0 0.0 -1.150998037120e-03 
-1.900941556448e-03 -7.041406832224e-04 0.0 
-7.041406832224e-04 6.386638876857e-03 0.0 
0.0 0.0 -1.156839719840e-03 
6.843292428348e-05 -1.144232504345e-03 0.0 
-1.144232504345e-03 6.143886100226e-04 0.0 
0.0 0.0 -2.926378004169e-04 
-1.601987702258e-03 2.442990824200e-03 0.0 
2.442990824200e-03 6.852419756780e-03 0.0 
0.0 0.0 -1.160298666437e-03 
-1.543111448516e-03 4.596328783708e-04 0.0 
4.596328783708e-04 5.853297686999e-03 0.0 
0.0 0.0 -8.436798659344e-04 
-1.824750470194e-03 -1.859013687658e-03 0.0 
-1.859013687658e-03 5.532595994557e-03 0.0 
0.0 0.0 -1.067477449466e-03 
-2.006499161308e-03 -7.976010001953e-04 0.0 
-7.976010001953e-04 6.083504909474e-03 0.0 
0.0 0.0 -1.090430023688e-03 
7.833829666557e-04 -2.711290744461e-03 0.0 
-2.711290744461e-03 6.776524641225e-04 0.0 
0.0 0.0 -6.261580417621e-04 
-2.076799610215e-03 -1.031710463461e-03 0.0 
-1.031710463461e-03 6.135351760274e-03 0.0 
0.0 0.0 -1.087955833448e-03 
-1.557514890525e-03 -6.173462151110e-05 0.0 
-6.173462151110e-05 5.695796094032e-03 0.0 
0.0 0.0 -8.100176300978e-04 
8.750615862245e-04 9.176848780839e-04 0.0 
9.176848780839e-04 1.438408062181e-03 0.0 
0.0 0.0 -9.914869921737e-04 
-1.497791782641e-03 -1.444847597853e-03 0.0 
-1.444847597853e-03 6.204442023908e-03 0.0 
0.0 0.0 -1.242964905849e-03 
-6.875629852487e-04 -4.240155203853e-04 0.0 
-4.240155203853e-04 2.190912803371e-03 0.0 
0.0 0.0 -5.658909553065e-04 
-1.268098618658e-03 -2.126035490962e-03 0.0 
-2.126035490962e-03 5.495926708526e-03 0.0 
0.0 0.0 -1.215045542354e-03 
-1.631557581403e-03 2.235766335083e-04 0.0 
2.235766335083e-04 7.237605270102e-03 0.0 
0.0 0.0 -1.048288725887e-03 
-7.383595785151e-04 -6.377031037024e-04 0.0 
-6.377031037024e-04 2.446869421887e-03 0.0 
0.0 0.0 -6.818911139857e-04 
3.993077738021e-04 -2.419206884214e-03 0.0 
-2.419206884214e-03 9.348823657586e-04 0.0 
0.0 0.0 -5.717957740974e-04 
-1.500476059484e-03 -8.906484908892e-04 0.0 
-8.906484908892e-04 4.589149281530e-03 0.0 
0.0 0.0 -1.044847128380e-03 
-1.630418366467e-03 6.661053165545e-04 0.0 
6.661053165545e-04 6.481746764143e-03 0.0 
0.0 0.0 -9.409807611877e-04 
-5.756498552716e-04 -2.159817615522e-03 0.0 
-2.159817615522e-03 2.678873720584e-03 0.0 
0.0 0.0 -9.013816565627e-04 
-1.610525300296e-03 1.600914995101e-04 0.0 
1.600914995101e-04 7.460282061065e-03 0.0 
0.0 0.0 -1.085119818393e-03 
-1.626505474320e-03 1.193898643633e-04 0.0 
1.193898643633e-04 6.796479922044e-03 0.0 
0.0 0.0 -9.816794289629e-04 
-1.168002604940e-03 -1.979309092588e-03 0.0 
-1.979309092588e-03 4.001814082530e-03 0.0 
0.0 0.0 -1.032510638845e-03 
-1.993224441762e-03 -1.056137829821e-03 0.0 
-1.056137829821e-03 5.774090597717e-03 0.0 
0.0 0.0 -1.075584385303e-03 
-2.021709392423e-03 -1.349459280440e-03 0.0 
-1.349459280440e-03 5.860171390496e-03 0.0 
0.0 0.0 -1.066391945090e-03 
-1.595291763312e-03 5.874023300959e-04 0.0 
5.874023300959e-04 7.178060268656e-03 0.0 
0.0 0.0 -1.050681058959e-03 
-5.082515002275e-04 -8.941420093747e-04 0.0 
-8.941420093747e-04 1.798316205834e-03 0.0 
0.0 0.0 -5.009000172756e-04 
-1.206852124203e-03 -1.671075112969e-03 0.0 
-1.671075112969e-03 4.019505130445e-03 0.0 
0.0 0.0 -1.029746919386e-03 
-5.152753143586e-05 2.170825683475e-03 0.0 
2.170825683475e-03 3.140726951459e-03 0.0 
0.0 0.0 -1.141128458404e-03 
-1.641668485544e-03 3.431501301840e-04 0.0 
3.431501301840e-04 7.404941610079e-03 0.0 
0.0 0.0 -1.078198857115e-03 
-1.057951637287e-03 -1.671343146736e-03 0.0 
-1.671343146736e-03 3.677031607098e-03 0.0 
0.0 0.0 -1.017599913258e-03 
-8.954401304147e-04 -2.800206404235e-03 0.0 
-2.800206404235e-03 3.674164100142e-03 0.0 
0.0 0.0 -1.058318663232e-03 
-1.115312546428e-03 -2.189534952593e-03 0.0 
-2.189534952593e-03 5.045014028914e-03 0.0 
0.0 0.0 -1.187586327529e-03 
-1.596801678993e-03 6.045917028781e-04 0.0 
6.045917028781e-04 6.950727632054e-03 0.0 
0.0 0.0 -1.013969106439e-03 
2.322873706387e-04 -1.368679716301e-04 0.0 
-1.368679716301e-04 -2.322873706387e-04 0.0 
0.0 0.0 0.0 
4.726741315202e-05 -1.330898926681e-03 0.0 
-1.330898926681e-03 8.674614564573e-04 0.0 
0.0 0.0 -2.916872467244e-04 
2.273358372470e-03 1.445761220817e-05 0.0 
1.445761220817e-05 -1.234043607805e-03 0.0 
0.0 0.0 -4.454206134279e-04 
-1.880676767284e-03 -9.969975945957e-04 0.0 
-9.969975945957e-04 6.131847364448e-03 0.0 
0.0 0.0 -1.127837695838e-03 
-1.619604464873e-03 6.374782176385e-04 0.0 
6.374782176385e-04 6.719807393941e-03 0.0 
0.0 0.0 -9.775003154318e-04 
-1.665473239862e-03 -8.814240019008e-04 0.0 
-8.814240019008e-04 4.990171794499e-03 0.0 
0.0 0.0 -1.065326950858e-03 
-1.596762474986e-03 5.442334346395e-04 0.0 
5.442334346395e-04 6.065464133813e-03 0.0 
0.0 0.0 -8.745614812816e-04 
-3.748877525410e-04 -1.800985621523e-03 0.0 
-1.800985621523e-03 3.574605346147e-03 0.0 
0.0 0.0 -1.139196670502e-03 
-1.359206623324e-03 -1.598338811102e-03 0.0 
-1.598338811102e-03 4.356288718259e-03 0.0 
0.0 0.0 -1.038619054332e-03 
-1.952425401121e-03 -1.122489104774e-03 0.0 
-1.122489104774e-03 5.808139918506e-03 0.0 
0.0 0.0 -1.061632825506e-03 
-7.352512267089e-04 -7.174892847169e-04 0.0 
-7.174892847169e-04 2.324934696345e-03 0.0 
0.0 0.0 -5.540246046759e-04 
-1.437645385880e-03 -1.599317358972e-03 0.0 
-1.599317358972e-03 5.870614125847e-03 0.0 
0.0 0.0 -1.211531131004e-03 
-1.154210490817e-03 -1.954082935906e-03 0.0 
-1.954082935906e-03 4.005717739264e-03 0.0 
0.0 0.0 -1.074148950826e-03 
-8.379192553434e-04 -5.906240485017e-04 0.0 
-5.906240485017e-04 2.576604047046e-03 0.0 
0.0 0.0 -5.876558844704e-04 
-1.197102623790e-03 -1.637680359765e-03 0.0 
-1.637680359765e-03 4.017415051808e-03 0.0 
0.0 0.0 -1.056762485630e-03 
-7.509293429896e-04 -1.933738058068e-03 0.0 
-1.933738058068e-03 3.044668356527e-03 0.0 
0.0 0.0 -9.830310058020e-04 
-3.848069222800e-04 -1.987035085230e-03 0.0 
-1.987035085230e-03 2.096507399408e-03 0.0 
0.0 0.0 -7.335859187690e-04 
-1.641529108376e-03 -8.260601691015e-04 0.0 
-8.260601691015e-04 4.922455749525e-03 0.0 
0.0 0.0 -1.057704792895e-03 
1.274028603033e-03 -1.869459937269e-04 0.0 
-1.869459937269e-04 -4.728594485301e-04 0.0 
0.0 0.0 -1.484808277242e-04 
8.391344234421e-04 -3.183235339587e-04 0.0 
-3.183235339587e-04 -2.967630892776e-04 0.0 
0.0 0.0 -1.070543391422e-04 
-1.665019363331e-03 -1.732448119605e-03 0.0 
-1.732448119605e-03 5.107282910853e-03 0.0 
0.0 0.0 -1.076850574752e-03 
-6.443609575616e-04 -8.027982188953e-04 0.0 
-8.027982188953e-04 2.093114862673e-03 0.0 
0.0 0.0 -5.127475950200e-04 
-1.433152566994e-03 -2.256582062865e-03 0.0 
-2.256582062865e-03 4.678524487026e-03 0.0 
0.0 0.0 -1.065643708224e-03 
-1.181624258185e-03 -2.541209283503e-03 0.0 
-2.541209283503e-03 4.198630913141e-03 0.0 
0.0 0.0 -1.061543848411e-03 
-2.864899867882e-04 -2.872572545388e-03 0.0 
-2.872572545388e-03 2.406784440249e-03 0.0 
0.0 0.0 -9.086976229117e-04 
1.281208818910e-03 -3.086935772070e-03 0.0 
-3.086935772070e-03 3.369465702636e-04 0.0 
0.0 0.0 -6.934951667886e-04 
-1.645375116221e-03 6.411920099951e-04 0.0 
6.411920099951e-04 7.711017833911e-03 0.0 
0.0 0.0 -1.137719822027e-03 
1.154207816654e-03 1.867319367673e-03 0.0 
1.867319367673e-03 -6.876363112737e-04 0.0 
0.0 0.0 -1.999592165914e-04 
-9.249733248304e-04 -1.654130041636e-03 0.0 
-1.654130041636e-03 3.362873241434e-03 0.0 
0.0 0.0 -9.992710862841e-04 
-3.877098979375e-04 -1.380494157509e-03 0.0 
-1.380494157509e-03 3.663297430763e-03 0.0 
0.0 0.0 -1.175533656463e-03 
-5.174404311479e-04 -5.539878075327e-04 0.0 
-5.539878075327e-04 1.742776399261e-03 0.0 
0.0 0.0 -4.908139796285e-04 
-1.654366313170e-03 2.025707585884e-04 0.0 
2.025707585884e-04 6.355277344232e-03 0.0 
0.0 0.0 -9.088859120638e-04 
-1.608026372927e-03 7.066471578212e-05 0.0 
7.066471578212e-05 5.908321987661e-03 0.0 
0.0 0.0 -8.416286270284e-04 
-1.832935889570e-04 -1.554120033244e-03 0.0 
-1.554120033244e-03 1.379295739965e-03 0.0 
0.0 0.0 -5.125723504322e-04 
-9.249495539582e-04 -2.182927448984e-03 0.0 
-2.182927448984e-03 4.540217093715e-03 0.0 
0.0 0.0 -1.158722036769e-03 
-1.708983070523e-03 5.831805314674e-04 0.0 
5.831805314674e-04 7.093076428562e-03 0.0 
0.0 0.0 -1.034898561726e-03 
-5.347835094169e-04 -8.712026877687e-04 0.0 
-8.712026877687e-04 1.955284966163e-03 0.0 
0.0 0.0 -6.087863386054e-04 
-1.641053002078e-03 8.278210871732e-04 0.0 
8.278210871732e-04 7.844844353227e-03 0.0 
0.0 0.0 -1.166520446339e-03 
-1.573669309360e-03 1.135775076811e-03 0.0 
1.135775076811e-03 7.785651679837e-03 0.0 
0.0 0.0 -1.169001632583e-03 
-5.801197933913e-04 -1.186925299187e-03 0.0 
-1.186925299187e-03 2.194197512368e-03 0.0 
0.0 0.0 -6.784273028471e-04 
3.325860372313e-04 2.756630050232e-03 0.0 
2.756630050232e-03 1.228114910237e-03 0.0 
0.0 0.0 -6.688718346291e-04 
-3.593200341485e-04 -1.692198470874e-03 0.0 
-1.692198470874e-03 1.863660251544e-03 0.0 
0.0 0.0 -6.447172360267e-04 
-1.851327153153e-03 -1.651837749691e-03 0.0 
-1.651837749691e-03 5.510234686298e-03 0.0 
0.0 0.0 -1.068438311093e-03 
-1.517049278155e-03 -1.208152311661e-03 0.0 
-1.208152311661e-03 4.665351215207e-03 0.0 
0.0 0.0 -1.047608655120e-03 
-1.588271255534e-03 2.440442444252e-03 0.0 
2.440442444252e-03 7.130284191767e-03 0.0 
0.0 0.0 -1.169529464977e-03 
-1.586290284398e-03 9.796528348583e-04 0.0 
9.796528348583e-04 7.658587432112e-03 0.0 
0.0 0.0 -1.140030709108e-03 
-1.655646109898e-03 -1.957177626158e-03 0.0 
-1.957177626158e-03 5.116194479746e-03 0.0 
0.0 0.0 -1.068248785331e-03 
-1.685997880852e-03 -1.784608356716e-03 0.0 
-1.784608356716e-03 5.105111501202e-03 0.0 
0.0 0.0 -1.017402529519e-03 
-2.876771207717e-04 -1.389411797297e-03 0.0 
-1.389411797297e-03 1.511875759344e-03 0.0 
0.0 0.0 -5.246565593881e-04 
-1.860731135260e-03 -1.457489852606e-03 0.0 
-1.457489852606e-03 5.487326218288e-03 0.0 
0.0 0.0 -1.032853941699e-03 
-1.642797758815e-03 9.181312676492e-04 0.0 
9.181312676492e-04 7.041840567815e-03 0.0 
0.0 0.0 -1.037144748481e-03 
-1.515109443870e-03 -1.227447560286e-03 0.0 
-1.227447560286e-03 4.684685552436e-03 0.0 
0.0 0.0 -1.069204617036e-03 
-1.671620005891e-03 2.929392441870e-04 0.0 
2.929392441870e-04 6.771202525829e-03 0.0 
0.0 0.0 -9.752741834902e-04 
-1.678948556331e-03 5.367956015661e-04 0.0 
5.367956015661e-04 7.330127940856e-03 0.0 
0.0 0.0 -1.071415751597e-03 
2.313268375330e-03 1.796314023182e-03 0.0 
1.796314023182e-03 -1.074261141593e-03 0.0 
0.0 0.0 -5.310031001729e-04 
-1.592584348350e-03 8.322792606474e-04 0.0 
8.322792606474e-04 7.512035850087e-03 0.0 
0.0 0.0 -1.110258267496e-03 
-1.248028584087e-03 -1.336863044777e-03 0.0 
-1.336863044777e-03 4.037984938667e-03 0.0 
0.0 0.0 -1.014964823884e-03 
-1.349668852610e-03 -1.596461481346e-03 0.0 
-1.596461481346e-03 4.366516516387e-03 0.0 
0.0 0.0 -1.071455489612e-03 
-8.215746796524e-04 -1.528227033612e-03 0.0 
-1.528227033612e-03 3.070718427055e-03 0.0 
0.0 0.0 -9.608678829247e-04 
1.835549677296e-04 -2.809528380429e-03 0.0 
-2.809528380429e-03 1.483313829287e-03 0.0 
0.0 0.0 -7.143723415785e-04 
-1.633555633710e-03 7.702002767988e-04 0.0 
7.702002767988e-04 6.885994191198e-03 0.0 
0.0 0.0 -1.007339817349e-03 
3.076530191659e-04 -3.054269635980e-03 0.0 
-3.054269635980e-03 1.447807107602e-03 0.0 
0.0 0.0 -7.523400543292e-04 
-5.051265774841e-04 -1.582649049219e-03 0.0 
-1.582649049219e-03 2.186388830496e-03 0.0 
0.0 0.0 -7.205409655765e-04 
-1.167533049478e-04 -1.421228658134e-03 0.0 
-1.421228658134e-03 1.178987498042e-03 0.0 
0.0 0.0 -4.201231086673e-04 
-1.691347074083e-03 4.318386709728e-04 0.0 
4.318386709728e-04 6.937090811669e-03 0.0 
0.0 0.0 -1.005115000480e-03 
-4.635122803593e-04 -1.604799167025e-03 0.0 
-1.604799167025e-03 2.085354868508e-03 0.0 
0.0 0.0 -6.950753949209e-04 
-1.191515342284e-03 -1.717007076640e-03 0.0 
-1.717007076640e-03 5.423834924642e-03 0.0 
0.0 0.0 -1.218716866995e-03 
-1.611990725284e-03 7.358230951730e-04 0.0 
7.358230951730e-04 7.120198208464e-03 0.0 
0.0 0.0 -1.043883448597e-03 
-1.702982719558e-03 -1.584997506959e-03 0.0 
-1.584997506959e-03 5.470541578607e-03 0.0 
0.0 0.0 -1.070373463590e-03 
-9.109045738307e-04 -2.286339166372e-04 0.0 
-2.286339166372e-04 4.268441463060e-03 0.0 
0.0 0.0 -1.284729618418e-03 
-1.071268175159e-03 -1.648454023553e-03 0.0 
-1.648454023553e-03 3.707169372543e-03 0.0 
0.0 0.0 -1.023311028316e-03 
-5.174967158518e-04 -1.184771327579e-03 0.0 
-1.184771327579e-03 2.030619627748e-03 0.0 
0.0 0.0 -6.484812479557e-04 
-2.326317737538e-04 -1.038651026586e-03 0.0 
-1.038651026586e-03 1.174275035768e-03 0.0 
0.0 0.0 -4.035613980062e-04 
-1.410090236189e-03 -2.406400776569e-03 0.0 
-2.406400776569e-03 4.648410275236e-03 0.0 
0.0 0.0 -1.051259780966e-03 
-1.600848466290e-03 5.345976904083e-04 0.0 
5.345976904083e-04 6.550294708413e-03 0.0 
0.0 0.0 -9.473489374553e-04 
-8.717253142324e-05 -9.933700925620e-04 0.0 
-9.933700925620e-04 8.344671106644e-04 0.0 
0.0 0.0 -3.202691053891e-04 
-6.027995719924e-04 -2.107392599842e-03 0.0 
-2.107392599842e-03 2.722751826872e-03 0.0 
0.0 0.0 -9.085509663768e-04 
-7.199860598078e-04 -4.341095348245e-04 0.0 
-4.341095348245e-04 2.121552428607e-03 0.0 
0.0 0.0 -4.196057652059e-04 
-1.682938822042e-03 3.318724932828e-04 0.0 
3.318724932828e-04 6.532037136807e-03 0.0 
0.0 0.0 -9.387834224271e-04 
-7.776326742692e-04 -1.884645157224e-03 0.0 
-1.884645157224e-03 3.094899202807e-03 0.0 
0.0 0.0 -9.909213861921e-04 
-1.231039957355e-03 -2.426325464904e-03 0.0 
-2.426325464904e-03 4.199347214172e-03 0.0 
0.0 0.0 -9.819879942351e-04 
-8.554599545912e-04 -1.459966539243e-03 0.0 
-1.459966539243e-03 3.093994812612e-03 0.0 
0.0 0.0 -9.237817853494e-04 
-1.614515104562e-03 2.789174945577e-04 0.0 
2.789174945577e-04 7.633843682432e-03 0.0 
0.0 0.0 -1.114809527198e-03 
-5.165996464755e-04 -1.902435422896e-03 0.0 
-1.902435422896e-03 2.384778332934e-03 0.0 
0.0 0.0 -8.006480084822e-04 
-1.128557246388e-03 -2.713813412197e-03 0.0 
-2.713813412197e-03 4.096504171839e-03 0.0 
0.0 0.0 -1.021386065992e-03 
3.769531236008e-04 -2.410295298791e-03 0.0 
-2.410295298791e-03 9.611755011410e-04 0.0 
0.0 0.0 -5.734836963179e-04 
-1.146759310470e-03 -2.656955500371e-03 0.0 
-2.656955500371e-03 4.139056916818e-03 0.0 
0.0 0.0 -1.043150860743e-03 
-1.375457983811e-03 -1.244246825682e-03 0.0 
-1.244246825682e-03 4.353109699875e-03 0.0 
0.0 0.0 -1.054662228279e-03 
-1.554003148348e-03 -1.878419659560e-03 0.0 
-1.878419659560e-03 5.069341272683e-03 0.0 
0.0 0.0 -1.041555045145e-03 
3.002499616426e-03 -7.287809856288e-04 0.0 
-7.287809856288e-04 -1.352929250409e-03 0.0 
0.0 0.0 -7.069587282928e-04 
-6.177242885591e-04 -4.890935474393e-04 0.0 
-4.890935474393e-04 2.000133674606e-03 0.0 
0.0 0.0 -5.285791946032e-04 
-1.609261505607e-03 9.637114852810e-05 0.0 
9.637114852810e-05 6.165456359686e-03 0.0 
0.0 0.0 -8.787268422831e-04 
6.987156508361e-04 -1.946712657170e-03 0.0 
-1.946712657170e-03 1.033985256572e-03 0.0 
0.0 0.0 -7.425861031749e-04 
3.405430775163e-04 3.191948666083e-03 0.0 
3.191948666083e-03 1.485409776068e-03 0.0 
0.0 0.0 -7.825512229649e-04 
-1.644262011324e-03 1.659911649759e-04 0.0 
1.659911649759e-04 6.584724351472e-03 0.0 
0.0 0.0 -9.453210152248e-04 
6.455202986104e-04 -2.635854245695e-03 0.0 
-2.635854245695e-03 6.894465372206e-04 0.0 
0.0 0.0 -5.721286439276e-04 
-1.681255032869e-03 9.721382689111e-04 0.0 
9.721382689111e-04 6.557103597372e-03 0.0 
0.0 0.0 -9.642804585795e-04 
-6.124308423891e-04 -5.450173225678e-04 0.0 
-5.450173225678e-04 1.850421424375e-03 0.0 
0.0 0.0 -3.816933993452e-04 
-1.231036729784e-03 -2.253664933021e-03 0.0 
-2.253664933021e-03 5.042416419642e-03 0.0 
0.0 0.0 -1.150402778756e-03 
7.350617248358e-04 -1.287476273638e-03 0.0 
-1.287476273638e-03 1.272883254993e-03 0.0 
0.0 0.0 -8.605478484982e-04 
6.223710608225e-04 1.356379083397e-03 0.0 
1.356379083397e-03 1.985099964088e-03 0.0 
0.0 0.0 -1.037051012011e-03 
-1.598102879926e-03 7.448720335872e-04 0.0 
7.448720335872e-04 8.095744984387e-03 0.0 
0.0 0.0 -1.204463612412e-03 
8.919152436733e-05 -3.143989424638e-03 0.0 
-3.143989424638e-03 1.851557330956e-03 0.0 
0.0 0.0 -8.317495094241e-04 
-4.309306607764e-04 -9.183848167176e-04 0.0 
-9.183848167176e-04 1.661245254261e-03 0.0 
0.0 0.0 -5.272776829218e-04 
-5.215676815475e-04 -3.050968300431e-03 0.0 
-3.050968300431e-03 3.002352665044e-03 0.0 
0.0 0.0 -1.027200950222e-03 
-1.049023862644e-03 -1.741518653201e-03 0.0 
-1.741518653201e-03 4.976635689622e-03 0.0 
0.0 0.0 -1.189963100592e-03 
9.320234363391e-04 -2.596047537173e-03 0.0 
-2.596047537173e-03 3.625727901238e-04 0.0 
0.0 0.0 -5.548269541984e-04 
-1.645253786717e-03 -2.142300707641e-03 0.0 
-2.142300707641e-03 5.116342603387e-03 0.0 
0.0 0.0 -1.056575865346e-03 
-1.668373394945e-03 3.866502142135e-04 0.0 
3.866502142135e-04 7.172333763355e-03 0.0 
0.0 0.0 -1.041631482750e-03 
1.707610751817e-03 -3.111302323774e-03 0.0 
-3.111302323774e-03 2.006678016111e-05 0.0 
0.0 0.0 -7.404332279907e-04 
-8.518987020310e-04 -2.879189791171e-03 0.0 
-2.879189791171e-03 3.589652711545e-03 0.0 
0.0 0.0 -1.034177093206e-03 
-1.689258382171e-03 3.631400807220e-04 0.0 
3.631400807220e-04 6.026727173804e-03 0.0 
0.0 0.0 -8.663127257150e-04 
-8.305596344540e-04 -9.136388392921e-04 0.0 
-9.136388392921e-04 2.720781083117e-03 0.0 
0.0 0.0 -7.057144296542e-04 
-4.174774710502e-04 -2.264727665933e-03 0.0 
-2.264727665933e-03 2.338052704739e-03 0.0 
0.0 0.0 -8.231036715810e-04 
1.803968687695e-04 3.742029911528e-03 0.0 
3.742029911528e-03 2.055326787370e-03 0.0 
0.0 0.0 -9.358934819731e-04 
-1.362318107691e-03 -2.168484734475e-03 0.0 
-2.168484734475e-03 4.618346883937e-03 0.0 
0.0 0.0 -1.012809740122e-03 
-6.445707195622e-05 3.204089462648e-03 0.0 
3.204089462648e-03 2.166873657449e-03 0.0 
0.0 0.0 -9.010356794969e-04 
5.513709198924e-04 3.609450072054e-03 0.0 
3.609450072054e-03 1.451733722049e-03 0.0 
0.0 0.0 -8.584734179747e-04 
-1.663785911262e-03 9.479908707512e-04 0.0 
9.479908707512e-04 6.801753296704e-03 0.0 
0.0 0.0 -1.000670320419e-03 
-1.603261119446e-03 5.580378966873e-04 0.0 
5.580378966873e-04 6.304876685805e-03 0.0 
0.0 0.0 -9.110000341593e-04 
-1.665053571431e-03 8.222814637678e-04 0.0 
8.222814637678e-04 6.156291516455e-03 0.0 
0.0 0.0 -8.984003255416e-04 
-1.378097458895e-03 -1.307048665384e-03 0.0 
-1.307048665384e-03 4.348190678149e-03 0.0 
0.0 0.0 -1.034446146726e-03 
-6.901682956972e-04 -2.185652284413e-03 0.0 
-2.185652284413e-03 4.019713840668e-03 0.0 
0.0 0.0 -1.130631056169e-03 
-1.834308716731e-04 -3.140526153133e-03 0.0 
-3.140526153133e-03 2.359250978041e-03 0.0 
0.0 0.0 -9.324943313007e-04 
-1.664409897791e-03 2.283299940873e-04 0.0 
2.283299940873e-04 6.118881933301e-03 0.0 
0.0 0.0 -8.720525204519e-04 
-1.540055594527e-03 2.603535571495e-03 0.0 
2.603535571495e-03 6.865325717395e-03 0.0 
0.0 0.0 -1.193584144721e-03 
3.472050528190e-04 1.692564590117e-03 0.0 
1.692564590117e-03 2.541247573186e-03 0.0 
0.0 0.0 -1.073433710836e-03 
-1.128039575521e-03 -2.445102979842e-03 0.0 
-2.445102979842e-03 4.119062361786e-03 0.0 
0.0 0.0 -9.841343610905e-04 
-1.618130106290e-03 8.767059940841e-04 0.0 
8.767059940841e-04 7.278368023729e-03 0.0 
0.0 0.0 -1.073677668998e-03 
-6.910390954277e-05 -2.799918663238e-03 0.0 
-2.799918663238e-03 1.917780934052e-03 0.0 
0.0 0.0 -7.922901533612e-04 
-2.515921695526e-04 -2.585539987467e-03 0.0 
-2.585539987467e-03 2.152735873912e-03 0.0 
0.0 0.0 -8.147758732969e-04 
-3.310614028043e-04 -1.379924337061e-03 0.0 
-1.379924337061e-03 1.616149347076e-03 0.0 
0.0 0.0 -5.507519761165e-04 
-5.011752582021e-04 -3.030712813107e-03 0.0 
-3.030712813107e-03 2.924383664169e-03 0.0 
0.0 0.0 -9.894786617912e-04 
-4.694395913292e-04 -2.445221033123e-03 0.0 
-2.445221033123e-03 2.569902493715e-03 0.0 
0.0 0.0 -9.001983867369e-04 
-1.710187933828e-03 4.633984892961e-04 0.0 
4.633984892961e-04 6.694041267773e-03 0.0 
0.0 0.0 -9.686535345556e-04 
-1.726289188827e-03 4.896054940225e-04 0.0 
4.896054940225e-04 6.449117765340e-03 0.0 
0.0 0.0 -9.322463471790e-04 
2.416944889244e-03 5.439879453653e-04 0.0 
5.439879453653e-04 -1.208818724836e-03 0.0 
0.0 0.0 -5.177683561747e-04 
-1.928901237433e-04 -2.408049599402e-03 0.0 
-2.408049599402e-03 1.916746904624e-03 0.0 
0.0 0.0 -7.387957632348e-04 
2.990366271950e-03 1.613745370932e-03 0.0 
1.613745370932e-03 -1.371577636674e-03 0.0 
0.0 0.0 -6.937665579755e-04 
-3.910486537430e-04 -2.315216698545e-03 0.0 
-2.315216698545e-03 2.304304739270e-03 0.0 
0.0 0.0 -8.199668937971e-04 
-2.230223782308e-04 -2.682222528879e-03 0.0 
-2.682222528879e-03 2.152181418268e-03 0.0 
0.0 0.0 -8.267824457303e-04 
-4.073029906979e-04 -1.294483440297e-03 0.0 
-1.294483440297e-03 1.772331589387e-03 0.0 
0.0 0.0 -5.850122565809e-04 
-4.258807302887e-04 -2.144389728424e-03 0.0 
-2.144389728424e-03 3.478718025925e-03 0.0 
0.0 0.0 -1.101849228970e-03 
4.193172772845e-04 -3.233569204744e-03 0.0 
-3.233569204744e-03 1.400177349689e-03 0.0 
0.0 0.0 -7.797834115600e-04 
-1.646879822787e-03 4.813878958504e-04 0.0 
4.813878958504e-04 7.564621706005e-03 0.0 
0.0 0.0 -1.107989045227e-03 
6.164328486864e-04 -3.141645067701e-03 0.0 
-3.141645067701e-03 1.094713369857e-03 0.0 
0.0 0.0 -7.333483793757e-04 
-5.352671715167e-04 -2.920481306985e-03 0.0 
-2.920481306985e-03 2.976534494236e-03 0.0 
0.0 0.0 -9.268471029391e-04 
3.090740504692e-05 -3.263078096127e-03 0.0 
-3.263078096127e-03 2.029516789361e-03 0.0 
0.0 0.0 -8.830389404604e-04 
1.224821345307e-03 3.216271527602e-03 0.0 
3.216271527602e-03 4.534564749945e-04 0.0 
0.0 0.0 -7.192619229864e-04 
-4.591680976874e-04 -1.267727629031e-03 0.0 
-1.267727629031e-03 1.902437159688e-03 0.0 
0.0 0.0 -6.185438837147e-04 
-8.295759423418e-04 -1.747729159177e-03 0.0 
-1.747729159177e-03 4.457598420487e-03 0.0 
0.0 0.0 -1.161691925552e-03 
-8.640451209017e-04 -2.074084677624e-03 0.0 
-2.074084677624e-03 4.658509439049e-03 0.0 
0.0 0.0 -1.198716319349e-03 
-6.013355258858e-04 3.714306523016e-03 0.0 
3.714306523016e-03 3.360817493125e-03 0.0 
0.0 0.0 -9.650368815299e-04 
-1.923559704036e-05 -2.994572033542e-03 0.0 
-2.994572033542e-03 1.948727475502e-03 0.0 
0.0 0.0 -8.269250907692e-04 
-2.503696762219e-04 -3.166835997765e-03 0.0 
-3.166835997765e-03 2.485701371906e-03 0.0 
0.0 0.0 -9.354962741733e-04 
-1.647815013080e-03 8.021683468908e-04 0.0 
8.021683468908e-04 6.643407279142e-03 0.0 
0.0 0.0 -9.708520278613e-04 
-3.181114656463e-04 -2.713015915343e-03 0.0 
-2.713015915343e-03 2.377429006136e-03 0.0 
0.0 0.0 -8.825646602100e-04 
7.116670481849e-04 3.351796189116e-03 0.0 
3.351796189116e-03 1.105566406541e-03 0.0 
0.0 0.0 -7.788143377395e-04 
-5.501781971430e-04 -1.884487968291e-03 0.0 
-1.884487968291e-03 2.464549120431e-03 0.0 
0.0 0.0 -8.204446814089e-04 
9.957483789486e-04 -2.931560812442e-03 0.0 
-2.931560812442e-03 3.486105119444e-04 0.0 
0.0 0.0 -5.761538103827e-04 
1.170702144068e-04 -2.917551374595e-03 0.0 
-2.917551374595e-03 1.660101911363e-03 0.0 
0.0 0.0 -7.616451967584e-04 
-5.960830469200e-04 -1.478493121431e-03 0.0 
-1.478493121431e-03 2.390521820873e-03 0.0 
0.0 0.0 -7.690451888369e-04 
-7.193147455851e-04 -1.069003876046e-03 0.0 
-1.069003876046e-03 2.479314286133e-03 0.0 
0.0 0.0 -6.849754419779e-04 
-1.850126680382e-05 -3.140240111362e-03 0.0 
-3.140240111362e-03 2.040450553655e-03 0.0 
0.0 0.0 -8.665496943648e-04 
-8.517286139436e-04 -2.699031265188e-03 0.0 
-2.699031265188e-03 3.572094775893e-03 0.0 
0.0 0.0 -9.554846610150e-04 
-9.258628841067e-04 3.334973100130e-03 0.0 
3.334973100130e-03 4.800766489173e-03 0.0 
0.0 0.0 -1.128610778606e-03 
1.795476015728e-03 -3.745896555992e-04 0.0 
-3.745896555992e-04 -4.681407310308e-04 0.0 
0.0 0.0 -1.007271482096e-04 
1.477477984761e-03 -2.160820890410e-03 0.0 
-2.160820890410e-03 -1.640262078733e-04 0.0 
0.0 0.0 -5.629079043802e-04 
9.457248714060e-04 -2.859194649623e-03 0.0 
-2.859194649623e-03 6.047505636496e-04 0.0 
0.0 0.0 -6.644894721667e-04 
2.064739481844e-04 -3.194226446081e-03 0.0 
-3.194226446081e-03 1.689929388459e-03 0.0 
0.0 0.0 -8.127442871328e-04 
-1.656928892650e-03 8.151295774597e-04 0.0 
8.151295774597e-04 6.399838907814e-03 0.0 
0.0 0.0 -9.344164207832e-04 
2.545948249673e-04 -3.270064507394e-03 0.0 
-3.270064507394e-03 1.662466157556e-03 0.0 
0.0 0.0 -8.215975639385e-04 
-6.717590179400e-04 -1.743398916895e-03 0.0 
-1.743398916895e-03 2.730040439290e-03 0.0 
0.0 0.0 -8.821206091502e-04 
2.940147133768e-04 -2.953116785718e-03 0.0 
-2.953116785718e-03 1.404914365559e-03 0.0 
0.0 0.0 -7.281124624012e-04 
-1.597640344519e-03 6.950049643667e-04 0.0 
6.950049643667e-04 7.352823299798e-03 0.0 
0.0 0.0 -1.080452943103e-03 
-7.063133806754e-04 -1.717335593378e-03 0.0 
-1.717335593378e-03 2.816704678048e-03 0.0 
0.0 0.0 -9.044534131596e-04 
-1.993759384210e-04 -8.715145545495e-04 0.0 
-8.715145545495e-04 1.025473523807e-03 0.0 
0.0 0.0 -3.540418223084e-04 
-3.396899465816e-04 -1.001666654583e-03 0.0 
-1.001666654583e-03 1.438762041900e-03 0.0 
0.0 0.0 -4.710308979937e-04 
8.199892085620e-04 -2.799788621547e-03 0.0 
-2.799788621547e-03 6.522727846800e-04 0.0 
0.0 0.0 -6.309694256751e-04 
9.078868863824e-06 -2.738074417405e-03 0.0 
-2.738074417405e-03 1.733216879781e-03 0.0 
0.0 0.0 -7.466981779905e-04 
1.103409613190e-03 -2.545332485906e-03 0.0 
-2.545332485906e-03 3.291592924430e-04 0.0 
0.0 0.0 -6.139581024141e-04 
4.609298661722e-04 -2.917080397583e-03 0.0 
-2.917080397583e-03 1.153463791195e-03 0.0 
0.0 0.0 -6.918829960147e-04 
6.174604848126e-04 -2.601794133831e-03 0.0 
-2.601794133831e-03 7.903429974379e-04 0.0 
0.0 0.0 -6.033443495359e-04 
-4.149645807323e-04 -9.518115957764e-04 0.0 
-9.518115957764e-04 1.570452979312e-03 0.0 
0.0 0.0 -4.579617190245e-04 
-1.800428115941e-03 6.964731656622e-04 0.0 
6.964731656622e-04 6.067707299324e-03 0.0 
0.0 0.0 -8.885078876198e-04 
-6.431842488821e-04 -1.481881899324e-03 0.0 
-1.481881899324e-03 2.527966751562e-03 0.0 
0.0 0.0 -8.077639297199e-04 
-3.542476587942e-04 -1.933324559496e-03 0.0 
-1.933324559496e-03 3.366073220136e-03 0.0 
0.0 0.0 -1.067401112627e-03 
-7.301428169590e-04 3.365159558875e-03 0.0 
3.365159558875e-03 4.241956460408e-03 0.0 
0.0 0.0 -1.093380752811e-03 
-1.742519381031e-03 2.013539484841e-03 0.0 
2.013539484841e-03 5.514346305573e-03 0.0 
0.0 0.0 -9.013836717722e-04 
-1.638703746775e-03 1.447396884762e-03 0.0 
1.447396884762e-03 7.437681461836e-03 0.0 
0.0 0.0 -1.126084317643e-03 
-1.069717058735e-03 3.316002143618e-03 0.0 
3.316002143618e-03 5.313047036020e-03 0.0 
0.0 0.0 -1.164310864388e-03 
2.494431731371e-03 1.270414999422e-03 0.0 
1.270414999422e-03 -1.135062232485e-03 0.0 
0.0 0.0 -5.825869280942e-04 
-6.518857880869e-04 3.512796865886e-03 0.0 
3.512796865886e-03 3.785510000148e-03 0.0 
0.0 0.0 -1.029042339204e-03 
9.845026743479e-04 -3.000223110364e-03 0.0 
-3.000223110364e-03 4.820355227438e-04 0.0 
0.0 0.0 -6.285163701822e-04 
9.169108146706e-06 -3.021931346183e-03 0.0 
-3.021931346183e-03 1.914436153364e-03 0.0 
0.0 0.0 -8.244022549332e-04 
1.935620549985e-03 2.666280335606e-03 0.0 
2.666280335606e-03 -6.114645168814e-04 0.0 
0.0 0.0 -5.674954427585e-04 
2.434658683002e-03 -2.349214516508e-03 0.0 
-2.349214516508e-03 -7.291186468832e-04 0.0 
0.0 0.0 -7.309457297651e-04 
8.115117363057e-04 -2.741951264447e-03 0.0 
-2.741951264447e-03 6.655581968644e-04 0.0 
0.0 0.0 -6.330299713586e-04 
-4.450599208505e-04 -2.552111804523e-03 0.0 
-2.552111804523e-03 2.573524769895e-03 0.0 
0.0 0.0 -9.121992210190e-04 
7.181167573208e-04 -2.648058741041e-03 0.0 
-2.648058741041e-03 7.077719066917e-04 0.0 
0.0 0.0 -6.110951417196e-04 
8.603807904587e-04 -2.481932762305e-03 0.0 
-2.481932762305e-03 4.907815371097e-04 0.0 
0.0 0.0 -5.790695689579e-04 
-7.220048660239e-04 -1.343093892557e-03 0.0 
-1.343093892557e-03 2.702939106315e-03 0.0 
0.0 0.0 -8.489718172674e-04 
4.166245934909e-04 -3.209488587121e-03 0.0 
-3.209488587121e-03 1.389160896237e-03 0.0 
0.0 0.0 -7.739080670262e-04 
1.094305293400e-03 -2.135240774913e-03 0.0 
-2.135240774913e-03 1.298780956037e-04 0.0 
0.0 0.0 -5.246500238586e-04 
1.735397459642e-03 -1.790668401916e-03 0.0 
-1.790668401916e-03 -5.241960348096e-04 0.0 
0.0 0.0 -5.190863249281e-04 
-2.953118235534e-05 -2.621242279383e-03 0.0 
-2.621242279383e-03 1.729246141722e-03 0.0 
0.0 0.0 -7.284492682998e-04 
9.068086297483e-04 -1.885631159827e-04 0.0 
-1.885631159827e-04 1.202081875786e-03 0.0 
0.0 0.0 -9.038102166577e-04 
-1.735518635242e-03 6.223275928078e-04 0.0 
6.223275928078e-04 6.851645939463e-03 0.0 
0.0 0.0 -9.984673180475e-04 
2.290762220203e-03 -1.318712250617e-03 0.0 
-1.318712250617e-03 -1.027744525883e-03 0.0 
0.0 0.0 -5.412932975660e-04 
-5.654229652914e-04 -1.684995955007e-03 0.0 
-1.684995955007e-03 3.940963543082e-03 0.0 
0.0 0.0 -1.133495712197e-03 
1.398246767020e-03 -3.216441844472e-03 0.0 
-3.216441844472e-03 9.154783719246e-05 0.0 
0.0 0.0 -6.384834018056e-04 
-5.648051924757e-04 -1.107091868774e-03 0.0 
-1.107091868774e-03 4.182104582450e-03 0.0 
0.0 0.0 -1.208505026952e-03 
7.869283801720e-04 -2.957311971993e-03 0.0 
-2.957311971993e-03 8.055017795032e-04 0.0 
0.0 0.0 -6.824700684322e-04 
-1.163518298392e-03 3.423968427013e-03 0.0 
3.423968427013e-03 5.864548636599e-03 0.0 
0.0 0.0 -1.203459118631e-03 
-1.226888468028e-03 3.131439724330e-03 0.0 
3.131439724330e-03 4.473148429932e-03 0.0 
0.0 0.0 -9.144069900286e-04 
8.146311757364e-04 -2.866044643526e-03 0.0 
-2.866044643526e-03 7.279520038073e-04 0.0 
0.0 0.0 -6.611070769473e-04 
-1.669436221743e-03 2.273068641771e-03 0.0 
2.273068641771e-03 5.485810747731e-03 0.0 
0.0 0.0 -9.292863832265e-04 
-1.634774651159e-03 1.926043724267e-03 0.0 
1.926043724267e-03 7.350223961808e-03 0.0 
0.0 0.0 -1.148369591821e-03 
9.266283371582e-04 -2.700818447501e-03 0.0 
-2.700818447501e-03 5.423083712425e-04 0.0 
0.0 0.0 -6.295443036003e-04 
1.446287545932e-03 3.073556646394e-03 0.0 
3.073556646394e-03 1.275065551695e-04 0.0 
0.0 0.0 -6.744831861864e-04 
-1.574055992192e-03 2.506613091125e-03 0.0 
2.506613091125e-03 5.429733742182e-03 0.0 
0.0 0.0 -9.572423940436e-04 
2.774777350088e-04 3.373231360524e-03 0.0 
3.373231360524e-03 1.692140773898e-03 0.0 
0.0 0.0 -8.441222181028e-04 
6.686313295052e-04 -2.714647588195e-03 0.0 
-2.714647588195e-03 7.978373867195e-04 0.0 
0.0 0.0 -6.284865926677e-04 
-1.493705396886e-03 1.751261100369e-03 0.0 
1.751261100369e-03 8.145178326217e-03 0.0 
0.0 0.0 -1.259077240559e-03 
2.909241618845e-04 -2.201062680806e-03 0.0 
-2.201062680806e-03 9.491865650592e-04 0.0 
0.0 0.0 -5.314760258330e-04 
-1.393014638960e-04 7.789838351986e-04 0.0 
7.789838351986e-04 3.592179503210e-03 0.0 
0.0 0.0 -1.194426649262e-03 
-1.554233915862e-03 9.163364700516e-04 0.0 
9.163364700516e-04 7.887220632938e-03 0.0 
0.0 0.0 -1.175981821618e-03 
7.026255322913e-04 -6.834983021250e-04 0.0 
-6.834983021250e-04 1.598542050998e-03 0.0 
0.0 0.0 -9.862146785524e-04 
-1.631602720906e-03 6.968439340323e-04 0.0 
6.968439340323e-04 6.226177705545e-03 0.0 
0.0 0.0 -9.041796124736e-04 
-1.724067531766e-03 9.331717393615e-04 0.0 
9.331717393615e-04 7.373782435820e-03 0.0 
0.0 0.0 -1.094228678348e-03 
1.385482593825e-03 -2.030831099799e-03 0.0 
-2.030831099799e-03 -2.112692183438e-04 0.0 
0.0 0.0 -5.032343037776e-04 
1.999660538583e-03 5.238969397191e-04 0.0 
5.238969397191e-04 -8.881969286874e-04 0.0 
0.0 0.0 -4.763415470983e-04 
-1.569811974871e-03 1.587727422304e-03 0.0 
1.587727422304e-03 7.784527269149e-03 0.0 
0.0 0.0 -1.191782302182e-03 
-9.330696091187e-04 -2.330125100931e-03 0.0 
-2.330125100931e-03 4.026828994110e-03 0.0 
0.0 0.0 -1.021464098896e-03 
-1.750430558126e-03 7.997395592586e-04 0.0 
7.997395592586e-04 6.994945578504e-03 0.0 
0.0 0.0 -1.028225029406e-03 
5.898974709842e-04 -1.490603234069e-03 0.0 
-1.490603234069e-03 1.573546015772e-03 0.0 
0.0 0.0 -9.271900657525e-04 
1.226199290364e-03 -3.133713578343e-03 0.0 
-3.133713578343e-03 4.720804484946e-04 0.0 
0.0 0.0 -7.278341737966e-04 
-1.755813224466e-03 9.900590192067e-04 0.0 
9.900590192067e-04 7.121505765451e-03 0.0 
0.0 0.0 -1.057861461704e-03 
-1.020230912339e-03 3.255501544884e-03 0.0 
3.255501544884e-03 5.845285965923e-03 0.0 
0.0 0.0 -1.268085107495e-03 
-8.098027228146e-04 -1.517662878241e-03 0.0 
-1.517662878241e-03 4.547334409745e-03 0.0 
0.0 0.0 -1.202195648613e-03 
7.610076650519e-05 -3.235453866840e-03 0.0 
-3.235453866840e-03 1.932455716982e-03 0.0 
0.0 0.0 -8.608099214947e-04 
-1.689275270792e-03 3.359122450795e-04 0.0 
3.359122450795e-04 6.273459191033e-03 0.0 
0.0 0.0 -9.020111041354e-04 
-1.632588233776e-03 6.974904632293e-04 0.0 
6.974904632293e-04 5.987209936235e-03 0.0 
0.0 0.0 -8.677534307045e-04 
6.088392128265e-04 -2.822537476632e-03 0.0 
-2.822537476632e-03 9.202084504230e-04 0.0 
0.0 0.0 -6.553061413926e-04 
-6.443122983676e-04 -2.499706879338e-03 0.0 
-2.499706879338e-03 3.462729029903e-03 0.0 
0.0 0.0 -9.927925938929e-04 
-4.755079025855e-04 -2.238751106190e-03 0.0 
-2.238751106190e-03 3.389731406328e-03 0.0 
0.0 0.0 -1.030113165296e-03 
-2.437047899643e-04 -1.231397142334e-03 0.0 
-1.231397142334e-03 1.345917923955e-03 0.0 
0.0 0.0 -4.426674065645e-04 
2.847402133071e-03 1.832321194303e-03 0.0 
1.832321194303e-03 -1.311219245011e-03 0.0 
0.0 0.0 -6.583640948828e-04 
2.391065633377e-03 -7.030644689003e-04 0.0 
-7.030644689003e-04 -1.190042454993e-03 0.0 
0.0 0.0 -5.147242193072e-04 
1.968235762107e-03 -1.858343853594e-03 0.0 
-1.858343853594e-03 -8.473461408074e-04 0.0 
0.0 0.0 -4.803812662710e-04 
7.235144373202e-04 3.006853977664e-03 0.0 
3.006853977664e-03 8.982936940798e-04 0.0 
0.0 0.0 -6.950606277428e-04 
-1.594047644543e-03 1.198778980109e-03 0.0 
1.198778980109e-03 8.076345274144e-03 0.0 
0.0 0.0 -1.225426844749e-03 
-1.544957883650e-03 2.714187828761e-03 0.0 
2.714187828761e-03 6.803087963728e-03 0.0 
0.0 0.0 -1.162686153705e-03 
-1.603786220280e-03 5.743670581703e-04 0.0 
5.743670581703e-04 7.933574954986e-03 0.0 
0.0 0.0 -1.173632101657e-03 
-3.176362262569e-04 3.157680560962e-03 0.0 
3.157680560962e-03 2.644961507973e-03 0.0 
0.0 0.0 -9.922833334649e-04 
-1.686655624371e-03 1.762581410411e-03 0.0 
1.762581410411e-03 7.001695775819e-03 0.0 
0.0 0.0 -1.082713561900e-03 
-8.312311815285e-04 -2.893135141048e-03 0.0 
-2.893135141048e-03 3.527094208899e-03 0.0 
0.0 0.0 -1.005652543148e-03 
-1.566323459329e-03 1.337573114455e-03 0.0 
1.337573114455e-03 7.933955714899e-03 0.0 
0.0 0.0 -1.198415070424e-03 
-1.781797660459e-03 1.042297273604e-03 0.0 
1.042297273604e-03 6.860193468522e-03 0.0 
0.0 0.0 -1.021631336281e-03 
1.651541321597e-04 -3.069309819670e-03 0.0 
-3.069309819670e-03 1.677218775847e-03 0.0 
0.0 0.0 -7.895883891459e-04 
2.729895556258e-03 -3.816222067231e-05 0.0 
-3.816222067231e-05 -1.329892949249e-03 0.0 
0.0 0.0 -6.000011172896e-04 
-1.678629276342e-03 1.301261135869e-03 0.0 
1.301261135869e-03 7.071604861536e-03 0.0 
0.0 0.0 -1.060111126929e-03 
-1.674561038714e-03 1.060445620383e-03 0.0 
1.060445620383e-03 7.740408073351e-03 0.0 
0.0 0.0 -1.160283895044e-03 
-1.648358362413e-03 1.080960708592e-03 0.0 
1.080960708592e-03 7.188263314287e-03 0.0 
0.0 0.0 -1.066842251349e-03 
-1.675485628863e-03 1.117801916471e-03 0.0 
1.117801916471e-03 6.945334177936e-03 0.0 
0.0 0.0 -1.030428295937e-03 
-9.047694827226e-04 -1.891564198184e-03 0.0 
-1.891564198184e-03 4.463027696646e-03 0.0 
0.0 0.0 -1.124756152480e-03 
-3.636288725449e-05 1.185092302766e-03 0.0 
1.185092302766e-03 3.361330425582e-03 0.0 
0.0 0.0 -1.167530213646e-03 
-6.417903686716e-04 -1.936633603608e-03 0.0 
-1.936633603608e-03 3.924941189051e-03 0.0 
0.0 0.0 -1.096139997395e-03 
-6.252750457425e-04 -2.981929184320e-03 0.0 
-2.981929184320e-03 3.101913023538e-03 0.0 
0.0 0.0 -9.455690924112e-04 
-9.133871784712e-04 2.307173197510e-03 0.0 
2.307173197510e-03 3.388339270904e-03 0.0 
0.0 0.0 -8.706649152390e-04 
5.857890875911e-04 -1.165024071921e-04 0.0 
-1.165024071921e-04 1.961403903997e-03 0.0 
0.0 0.0 -1.057160997780e-03 
-1.717096850446e-03 1.897490647652e-03 0.0 
1.897490647652e-03 6.421227655064e-03 0.0 
0.0 0.0 -1.010795753303e-03 
-6.313703935138e-04 -1.096821766549e-03 0.0 
-1.096821766549e-03 2.333660856895e-03 0.0 
0.0 0.0 -7.295530557346e-04 
2.168606455157e-03 -1.381490462849e-03 0.0 
-1.381490462849e-03 -1.049895932277e-03 0.0 
0.0 0.0 -4.794473669488e-04 
1.521212506514e-03 -1.320220071534e-03 0.0 
-1.320220071534e-03 -4.274634539344e-04 0.0 
0.0 0.0 -4.687495939627e-04 
1.466355838383e-03 4.602651966615e-04 0.0 
4.602651966615e-04 -3.624189179880e-05 0.0 
0.0 0.0 -6.129059771076e-04 
2.718390450017e-03 -6.950340879152e-04 0.0 
-6.950340879152e-04 -1.327258381844e-03 0.0 
0.0 0.0 -5.961994577885e-04 
2.586833026508e-03 -8.035069926998e-04 0.0 
-8.035069926998e-04 -1.237368745637e-03 0.0 
0.0 0.0 -5.783418346592e-04 
1.064335855090e-03 3.871345564871e-04 0.0 
3.871345564871e-04 8.878223967010e-04 0.0 
0.0 0.0 -8.366392507678e-04 
-8.479776809358e-04 2.867626528881e-03 0.0 
2.867626528881e-03 3.485177703647e-03 0.0 
0.0 0.0 -9.312627088267e-04 
-1.048673303190e-04 -3.229543423404e-03 0.0 
-3.229543423404e-03 2.260338218225e-03 0.0 
0.0 0.0 -9.237732376742e-04 
-1.787010102696e-03 8.860662194747e-04 0.0 
8.860662194747e-04 6.472161902549e-03 0.0 
0.0 0.0 -9.556638187253e-04 
-1.534511977861e-03 4.226734842399e-04 0.0 
4.226734842399e-04 5.386267654424e-03 0.0 
0.0 0.0 -7.638029664831e-04 
2.694004404959e-04 1.692225150283e-03 0.0 
1.692225150283e-03 6.665564429896e-04 0.0 
0.0 0.0 -4.011243786367e-04 
-2.485044760616e-04 -3.138222606519e-03 0.0 
-3.138222606519e-03 2.491915244985e-03 0.0 
0.0 0.0 -9.614617581102e-04 
5.241395104488e-04 -3.820643100564e-04 0.0 
-3.820643100564e-04 1.948070463321e-03 0.0 
0.0 0.0 -1.051835763028e-03 
-1.541512456067e-03 2.665389691955e-03 0.0 
2.665389691955e-03 7.146978989113e-03 0.0 
0.0 0.0 -1.196871286280e-03 
2.182111420875e-03 6.070828475979e-04 0.0 
6.070828475979e-04 -1.164368423359e-03 0.0 
0.0 0.0 -4.361755703639e-04 
-3.379696423289e-04 -3.147707957552e-03 0.0 
-3.147707957552e-03 2.662191701970e-03 0.0 
0.0 0.0 -9.747355338013e-04 
-1.758283285419e-03 6.606645787396e-04 0.0 
6.606645787396e-04 6.605527542412e-03 0.0 
0.0 0.0 -9.620958722924e-04 
2.572595780151e-04 1.907531255629e-03 0.0 
1.907531255629e-03 8.125007966373e-04 0.0 
0.0 0.0 -4.584687319938e-04 
7.215561543482e-04 7.088538436549e-05 0.0 
7.088538436549e-05 1.489224739350e-03 0.0 
0.0 0.0 -9.474775258707e-04 
1.699588376700e-03 -2.701395224992e-04 0.0 
-2.701395224992e-04 -6.431195081869e-04 0.0 
0.0 0.0 -4.527723722201e-04 
-1.123050040693e-03 2.722320328238e-03 0.0 
2.722320328238e-03 3.963607121214e-03 0.0 
0.0 0.0 -8.880452441695e-04 
-6.861996964778e-04 -2.718033399413e-03 0.0 
-2.718033399413e-03 3.467552900927e-03 0.0 
0.0 0.0 -1.027225276160e-03 
2.084513055480e-03 -2.969236307345e-03 0.0 
-2.969236307345e-03 -6.426223811324e-04 0.0 
0.0 0.0 -6.179531461491e-04 
-5.320903479306e-04 -2.451811030805e-03 0.0 
-2.451811030805e-03 3.446359028726e-03 0.0 
0.0 0.0 -1.064556537081e-03 
-5.475761825290e-04 -1.405154027486e-03 0.0 
-1.405154027486e-03 4.014926747039e-03 0.0 
0.0 0.0 -1.170878753521e-03 
8.694157167214e-04 5.959603823475e-04 0.0 
5.959603823475e-04 1.083517633446e-03 0.0 
0.0 0.0 -8.369714357860e-04 
-1.720938074938e-03 7.528205405103e-04 0.0 
7.528205405103e-04 7.239876321155e-03 0.0 
0.0 0.0 -1.064574987933e-03 
-2.581275539260e-04 2.774157829489e-03 0.0 
2.774157829489e-03 3.637568838645e-03 0.0 
0.0 0.0 -1.082686220397e-03 
-6.278749381159e-04 -1.931446236287e-03 0.0 
-1.931446236287e-03 4.088424354687e-03 0.0 
0.0 0.0 -1.168035910845e-03 
7.662032872175e-05 1.799978139758e-03 0.0 
1.799978139758e-03 1.016865245771e-03 0.0 
0.0 0.0 -4.686366747828e-04 
-1.772766923136e-03 8.481702159287e-04 0.0 
8.481702159287e-04 6.740907635403e-03 0.0 
0.0 0.0 -9.919185416031e-04 
-2.292199257427e-04 1.889849914101e-03 0.0 
1.889849914101e-03 3.718845686110e-03 0.0 
0.0 0.0 -1.173906618061e-03 
-1.648981142695e-03 1.259232254070e-03 0.0 
1.259232254070e-03 7.322595481216e-03 0.0 
0.0 0.0 -1.096489272820e-03 
1.160861635041e-03 6.400460397782e-04 0.0 
6.400460397782e-04 2.605650516831e-04 0.0 
0.0 0.0 -6.091828657388e-04 
2.574979574883e-03 -1.390903072999e-04 0.0 
-1.390903072999e-04 -1.282434716650e-03 0.0 
0.0 0.0 -5.539477963855e-04 
-1.116067155649e-03 -2.250326754200e-03 0.0 
-2.250326754200e-03 3.947993630682e-03 0.0 
0.0 0.0 -1.025516461270e-03 
1.249937303602e-03 3.552940721610e-04 0.0 
3.552940721610e-04 -1.039148958258e-03 0.0 
0.0 0.0 -9.033786229012e-05 
-1.613458135024e-03 1.210057674443e-03 0.0 
1.210057674443e-03 7.562124248112e-03 0.0 
0.0 0.0 -1.132911322290e-03 
-7.377235371559e-04 -9.591054036843e-04 0.0 
-9.591054036843e-04 2.612387194917e-03 0.0 
0.0 0.0 -8.013069569330e-04 
-1.500810255742e-04 1.675008285432e-03 0.0 
1.675008285432e-03 1.366929482546e-03 0.0 
0.0 0.0 -5.215064815592e-04 
-3.658200529699e-04 3.020199158602e-03 0.0 
3.020199158602e-03 3.713742958922e-03 0.0 
0.0 0.0 -1.054483161448e-03 
-1.538001914897e-03 1.084053552084e-03 0.0 
1.084053552084e-03 8.041309965801e-03 0.0 
0.0 0.0 -1.206783194404e-03 
1.727844094968e-03 -3.343181964838e-03 0.0 
-3.343181964838e-03 -2.401420928011e-04 0.0 
0.0 0.0 -6.375865723574e-04 
-2.167964077171e-04 3.747756050696e-03 0.0 
3.747756050696e-03 2.648111889763e-03 0.0 
0.0 0.0 -9.072936044704e-04 
-1.701887886532e-03 1.344630388867e-03 0.0 
1.344630388867e-03 6.812020791196e-03 0.0 
0.0 0.0 -1.023814440555e-03 
-4.458873681724e-04 -2.966430795108e-03 0.0 
-2.966430795108e-03 2.822625691825e-03 0.0 
0.0 0.0 -1.018602138708e-03 
2.635787731545e-03 -1.799593391660e-03 0.0 
-1.799593391660e-03 -1.225014149329e-03 0.0 
0.0 0.0 -6.046172495213e-04 
1.631098457746e-03 2.876803562451e-03 0.0 
2.876803562451e-03 -2.192512757881e-04 0.0 
0.0 0.0 -6.050773636963e-04 
9.159182720240e-04 -2.840057079041e-03 0.0 
-2.840057079041e-03 6.236111220924e-04 0.0 
0.0 0.0 -6.597983117642e-04 
1.988952410622e-03 -2.773207495313e-03 0.0 
-2.773207495313e-03 -3.142881963505e-04 0.0 
0.0 0.0 -7.177132346876e-04 
1.648220485470e-03 -3.321848158051e-03 0.0 
-3.321848158051e-03 2.024080431041e-04 0.0 
0.0 0.0 -7.931265122463e-04 
1.705098340266e-03 6.558868029328e-04 0.0 
6.558868029328e-04 -6.969008095806e-04 0.0 
0.0 0.0 -4.320846560080e-04 
-1.468520801646e-03 2.285525207987e-03 0.0 
2.285525207987e-03 8.442456052557e-03 0.0 
0.0 0.0 -1.324146187826e-03 
-3.956257745020e-04 1.730887625779e-03 0.0 
1.730887625779e-03 1.977050055323e-03 0.0 
0.0 0.0 -6.777532632091e-04 
-1.125863067977e-03 -1.827974217199e-03 0.0 
-1.827974217199e-03 4.964930907455e-03 0.0 
0.0 0.0 -1.153422328581e-03 
2.868285214674e-03 1.352379803766e-03 0.0 
1.352379803766e-03 -1.299848991907e-03 0.0 
0.0 0.0 -6.721869526143e-04 
-1.802402553613e-03 1.096854962503e-03 0.0 
1.096854962503e-03 6.595527473872e-03 0.0 
0.0 0.0 -9.856407671940e-04 
1.971085959338e-03 3.239399902758e-04 0.0 
3.239399902758e-04 -1.217941390756e-03 0.0 
0.0 0.0 -3.227762436777e-04 
-6.307118357170e-04 -1.642290149673e-03 0.0 
-1.642290149673e-03 4.191316448183e-03 0.0 
0.0 0.0 -1.206759618350e-03 
1.281188306004e-03 -3.309115169896e-03 0.0 
-3.309115169896e-03 2.482805933930e-04 0.0 
0.0 0.0 -6.554866711701e-04 
-8.580919722625e-04 -1.141606507875e-03 0.0 
-1.141606507875e-03 3.004910753851e-03 0.0 
0.0 0.0 -8.925927511852e-04 
6.775973206905e-04 1.090261256499e-03 0.0 
1.090261256499e-03 1.554850184539e-03 0.0 
0.0 0.0 -9.567632165269e-04 
9.810193940895e-04 -2.270636417532e-03 0.0 
-2.270636417532e-03 2.960510298287e-04 0.0 
0.0 0.0 -5.473158959649e-04 
3.899080625908e-05 1.591876067608e-03 0.0 
1.591876067608e-03 3.206945282166e-03 0.0 
0.0 0.0 -1.139062866688e-03 
6.623861865506e-04 3.094490503078e-03 0.0 
3.094490503078e-03 1.014638708619e-03 0.0 
0.0 0.0 -7.187249550728e-04 
-1.786253758345e-03 1.560633333520e-03 0.0 
1.560633333520e-03 6.766601134335e-03 0.0 
0.0 0.0 -1.044446328659e-03 
-2.152386475275e-04 1.351101504798e-03 0.0 
1.351101504798e-03 3.486323150058e-03 0.0 
0.0 0.0 -1.198892520503e-03 
-1.697142570711e-03 1.154161816812e-03 0.0 
1.154161816812e-03 6.693519511439e-03 0.0 
0.0 0.0 -9.940794652285e-04 
-1.618144651602e-03 2.389450829648e-03 0.0 
2.389450829648e-03 7.197343605865e-03 0.0 
0.0 0.0 -1.194784139986e-03 
-1.753520328123e-03 1.193661618907e-03 0.0 
1.193661618907e-03 7.230580119665e-03 0.0 
0.0 0.0 -1.087318097122e-03 
-1.742396685637e-03 1.406428765971e-03 0.0 
1.406428765971e-03 7.327343743658e-03 0.0 
0.0 0.0 -1.116677092124e-03 
2.275785242891e-03 2.632435729676e-03 0.0 
2.632435729676e-03 -9.199828087608e-04 0.0 
0.0 0.0 -5.810581860557e-04 
-1.241644556097e-03 -1.898381689041e-03 0.0 
-1.898381689041e-03 4.975895501890e-03 0.0 
0.0 0.0 -1.115908039155e-03 
-1.698919862003e-03 1.546534393052e-03 0.0 
1.546534393052e-03 6.917732160494e-03 0.0 
0.0 0.0 -1.053364550114e-03 
1.868987763194e-03 2.227953552638e-03 0.0 
2.227953552638e-03 -6.775743179747e-04 0.0 
0.0 0.0 -5.106057622367e-04 
-6.587012442941e-04 1.777273701504e-03 0.0 
1.777273701504e-03 2.655555522869e-03 0.0 
0.0 0.0 -8.209451439681e-04 
-3.975005523331e-04 1.166939029163e-03 0.0 
1.166939029163e-03 4.024011475053e-03 0.0 
0.0 0.0 -1.232292820449e-03 
2.869313435600e-03 1.110657499061e-03 0.0 
1.110657499061e-03 -1.453214644336e-03 0.0 
0.0 0.0 -6.068994819702e-04 
-7.856974671747e-04 -1.309919738143e-03 0.0 
-1.309919738143e-03 2.807619278170e-03 0.0 
0.0 0.0 -8.201145810434e-04 
1.968962910781e-04 1.862464300239e-03 0.0 
1.862464300239e-03 2.595514694035e-03 0.0 
0.0 0.0 -1.105063927110e-03 
-7.017846764740e-04 -1.435456886112e-05 0.0 
-1.435456886112e-05 1.960630528106e-03 0.0 
0.0 0.0 -3.231071520192e-04 
7.474966936510e-04 3.481240265895e-03 0.0 
3.481240265895e-03 1.138823329650e-03 0.0 
0.0 0.0 -8.084228671290e-04 
5.678040040528e-04 5.673257875062e-04 0.0 
5.673257875062e-04 1.874262662432e-03 0.0 
0.0 0.0 -1.046599999922e-03 
-1.677286885825e-03 1.562425953110e-03 0.0 
1.562425953110e-03 7.659770185164e-03 0.0 
0.0 0.0 -1.181155146799e-03 
-1.652320647354e-03 1.808826218554e-03 0.0 
1.808826218554e-03 7.744329424571e-03 0.0 
0.0 0.0 -1.210943746944e-03 
7.584470326040e-04 3.628423669224e-04 0.0 
3.628423669224e-04 1.668047544981e-03 0.0 
0.0 0.0 -1.028825005900e-03 
-1.718024774256e-03 1.129889074764e-03 0.0 
1.129889074764e-03 7.489751701523e-03 0.0 
0.0 0.0 -1.123737208958e-03 
2.593889195352e-03 1.856767809109e-03 0.0 
1.856767809109e-03 -1.126153271608e-03 0.0 
0.0 0.0 -6.290296816045e-04 
-7.519765885532e-04 3.109043581873e-03 0.0 
3.109043581873e-03 4.411738950076e-03 0.0 
0.0 0.0 -1.062452857821e-03 
-9.715076255527e-04 1.639125050494e-03 0.0 
1.639125050494e-03 3.248586274010e-03 0.0 
0.0 0.0 -7.769695025612e-04 
-1.390466882155e-03 3.112822277327e-03 0.0 
3.112822277327e-03 6.316045090648e-03 0.0 
0.0 0.0 -1.181751882508e-03 
-1.269001708520e-03 1.478688136927e-03 0.0 
1.478688136927e-03 3.854232216412e-03 0.0 
0.0 0.0 -7.538120163098e-04 
-1.420223830458e-03 1.391784125232e-03 0.0 
1.391784125232e-03 4.161040048690e-03 0.0 
0.0 0.0 -7.332406657775e-04 
2.298674918512e-03 1.220061250636e-03 0.0 
1.220061250636e-03 -1.173783310071e-03 0.0 
0.0 0.0 -4.820964036177e-04 
-1.557422700527e-03 1.363360327043e-03 0.0 
1.363360327043e-03 4.471575651466e-03 0.0 
0.0 0.0 -7.361032999402e-04 
6.913968744153e-04 3.249644441005e-03 0.0 
3.249644441005e-03 1.296623038176e-03 0.0 
0.0 0.0 -8.520085339679e-04 
1.718973007646e-03 2.924390266821e-03 0.0 
2.924390266821e-03 -1.924867080382e-04 0.0 
0.0 0.0 -6.542084141176e-04 
2.210348991445e-03 -8.088378780929e-04 0.0 
-8.088378780929e-04 -1.123482344713e-03 0.0 
0.0 0.0 -4.657999914567e-04 
2.497491272241e-03 -1.532773257142e-03 0.0 
-1.532773257142e-03 -1.081083643723e-03 0.0 
0.0 0.0 -6.070318407937e-04 
2.586887755130e-03 6.094796342036e-04 0.0 
6.094796342036e-04 -1.311719394663e-03 0.0 
0.0 0.0 -5.465007259145e-04 
-1.601167176657e-03 1.396089815657e-03 0.0 
1.396089815657e-03 7.688892179250e-03 0.0 
0.0 0.0 -1.162517914204e-03 
-1.471528092625e-03 3.001207936412e-03 0.0 
3.001207936412e-03 6.831752371077e-03 0.0 
0.0 0.0 -1.195263893373e-03 
-1.182311321110e-03 -2.133379308242e-03 0.0 
-2.133379308242e-03 4.544787139884e-03 0.0 
0.0 0.0 -1.050100468764e-03 
-1.223721568856e-04 1.745261046552e-03 0.0 
1.745261046552e-03 3.281782845900e-03 0.0 
0.0 0.0 -1.170266998156e-03 
1.214604030940e-03 -2.155562007462e-03 0.0 
-2.155562007462e-03 9.364629533618e-05 0.0 
0.0 0.0 -5.606787112612e-04 
-1.656719624483e-03 1.711448335042e-03 0.0 
1.711448335042e-03 7.275839845738e-03 0.0 
0.0 0.0 -1.119019617531e-03 
2.359890878457e-03 -4.267964440931e-05 0.0 
-4.267964440931e-05 -1.248439169515e-03 0.0 
0.0 0.0 -4.763364466896e-04 
-1.407406798469e-03 -1.723847992245e-03 0.0 
-1.723847992245e-03 5.419782439974e-03 0.0 
0.0 0.0 -1.144395376583e-03 
-1.671654625585e-03 1.497806515934e-03 0.0 
1.497806515934e-03 7.180003972529e-03 0.0 
0.0 0.0 -1.089631904438e-03 
-1.769810542863e-03 1.479525562214e-03 0.0 
1.479525562214e-03 7.051291447038e-03 0.0 
0.0 0.0 -1.080451501872e-03 
1.020279383885e-03 1.759819708792e-05 0.0 
1.759819708792e-05 6.806225927368e-04 0.0 
0.0 0.0 -7.289579899807e-04 
2.670406423032e-03 1.253518595181e-03 0.0 
1.253518595181e-03 -1.265788156022e-03 0.0 
0.0 0.0 -6.019792572900e-04 
-8.493845713370e-04 3.018177913519e-03 0.0 
3.018177913519e-03 4.847344094450e-03 0.0 
0.0 0.0 -1.126038590206e-03 
-1.241437732375e-03 3.272568664608e-03 0.0 
3.272568664608e-03 4.414773958175e-03 0.0 
0.0 0.0 -9.324202963083e-04 
2.392506853527e-03 -2.638222039722e-03 0.0 
-2.638222039722e-03 -9.888506330534e-04 0.0 
0.0 0.0 -6.015669516317e-04 
2.802892214258e-03 -1.137304662585e-05 0.0 
-1.137304662585e-05 -1.333498735436e-03 0.0 
0.0 0.0 -6.297400623524e-04 
7.949185057269e-04 2.716848624173e-03 0.0 
2.716848624173e-03 6.207904953631e-04 0.0 
0.0 0.0 -6.067324290386e-04 
-1.563287978713e-04 3.620132007229e-03 0.0 
3.620132007229e-03 2.581411168791e-03 0.0 
0.0 0.0 -1.015946800258e-03 
-1.534351365184e-03 -1.516799222336e-03 0.0 
-1.516799222336e-03 5.828494836448e-03 0.0 
0.0 0.0 -1.173545322487e-03 
-1.782237154873e-03 1.254534813549e-03 0.0 
1.254534813549e-03 6.967044995053e-03 0.0 
0.0 0.0 -1.051102540299e-03 
2.754613032243e-03 5.835371394657e-04 0.0 
5.835371394657e-04 -1.282545286099e-03 0.0 
0.0 0.0 -6.308861769187e-04 
-6.435068013720e-04 3.480233123954e-03 0.0 
3.480233123954e-03 3.600985193807e-03 0.0 
0.0 0.0 -9.344940742331e-04 
3.980809440766e-04 1.365381173478e-04 0.0 
1.365381173478e-04 2.266784517746e-03 0.0 
0.0 0.0 -1.088599101970e-03 
-1.685240832100e-03 8.774447861184e-04 0.0 
8.774447861184e-04 7.615424303421e-03 0.0 
0.0 0.0 -1.130578931274e-03 
-1.056611405718e-03 3.085021790290e-03 0.0 
3.085021790290e-03 5.374856941272e-03 0.0 
0.0 0.0 -1.160781586281e-03 
-1.731537587415e-03 1.425159992310e-03 0.0 
1.425159992310e-03 6.282505969900e-03 0.0 
0.0 0.0 -9.517943393003e-04 
-1.629224858150e-05 -1.008868814593e-03 0.0 
-1.008868814593e-03 2.976796140904e-03 0.0 
0.0 0.0 -1.113435711030e-03 
2.175710495241e-03 -1.797462906061e-04 0.0 
-1.797462906061e-04 -1.087187483949e-03 0.0 
0.0 0.0 -4.665098619825e-04 
3.691792219411e-04 -5.499254361333e-04 0.0 
-5.499254361333e-04 2.333255494325e-03 0.0 
0.0 0.0 -1.086118700983e-03 
6.267430188437e-04 3.216016004345e-03 0.0 
3.216016004345e-03 1.125673463038e-03 0.0 
0.0 0.0 -7.510356350920e-04 
-1.659468944553e-03 1.282087032836e-03 0.0 
1.282087032836e-03 7.843512833905e-03 0.0 
0.0 0.0 -1.188704642750e-03 
-1.184759635984e-03 3.039469531493e-03 0.0 
3.039469531493e-03 5.917915895918e-03 0.0 
0.0 0.0 -1.200489323427e-03 
1.397717749359e-03 -3.084135371350e-05 0.0 
-3.084135371350e-05 -2.483823730722e-04 0.0 
0.0 0.0 -4.925723041230e-04 
2.632145634489e-03 2.594608975648e-04 0.0 
2.594608975648e-04 -1.433557919304e-03 0.0 
0.0 0.0 -5.136804493649e-04 
-3.195071874590e-04 2.949770132737e-03 0.0 
2.949770132737e-03 3.519559910754e-03 0.0 
0.0 0.0 -1.113685640909e-03 
5.151939740245e-04 3.610223291188e-03 0.0 
3.610223291188e-03 1.499767463066e-03 0.0 
0.0 0.0 -8.635549016102e-04 
2.789061016644e-03 1.329285031073e-03 0.0 
1.329285031073e-03 -1.174648499198e-03 0.0 
0.0 0.0 -6.918910789057e-04 
1.203480951529e-03 -2.452700069764e-04 0.0 
-2.452700069764e-04 3.890277914199e-04 0.0 
0.0 0.0 -6.825037469782e-04 
-1.401752245562e-04 -2.049705526548e-03 0.0 
-2.049705526548e-03 2.929158581755e-03 0.0 
0.0 0.0 -1.072977024862e-03 
2.580288745065e-03 -9.059416529247e-04 0.0 
-9.059416529247e-04 -1.319309692526e-03 0.0 
0.0 0.0 -5.404195939453e-04 
1.923073746863e-03 -4.525221159698e-05 0.0 
-4.525221159698e-05 -9.232494801660e-04 0.0 
0.0 0.0 -4.284961142987e-04 
-1.564398244357e-03 2.691343570358e-03 0.0 
2.691343570358e-03 5.384100406286e-03 0.0 
0.0 0.0 -9.596127204057e-04 
-1.615413359891e-03 -1.869412921893e-03 0.0 
-1.869412921893e-03 5.891470981236e-03 0.0 
0.0 0.0 -1.170838755190e-03 
-1.469366754309e-03 2.906743993666e-03 0.0 
2.906743993666e-03 5.300260062947e-03 0.0 
0.0 0.0 -9.876491701490e-04 
-3.947067001148e-04 3.217756852044e-03 0.0 
3.217756852044e-03 3.568382132428e-03 0.0 
0.0 0.0 -1.085374163265e-03 
-1.640677092253e-03 2.445403796559e-03 0.0 
2.445403796559e-03 5.441088956569e-03 0.0 
0.0 0.0 -9.316602363005e-04 
-1.740388366318e-03 1.924888427331e-03 0.0 
1.924888427331e-03 5.465143202308e-03 0.0 
0.0 0.0 -8.756372412555e-04 
-1.133390563237e-03 3.456670762875e-03 0.0 
3.456670762875e-03 4.264491800942e-03 0.0 
0.0 0.0 -9.452931837154e-04 
1.258865816682e-04 1.427076262396e-03 0.0 
1.427076262396e-03 2.787339061218e-03 0.0 
0.0 0.0 -1.133505030480e-03 
-1.184151913809e-03 -2.442035502192e-03 0.0 
-2.442035502192e-03 4.566403913145e-03 0.0 
0.0 0.0 -1.084522140297e-03 
-1.719906891250e-03 1.595024504340e-03 0.0 
1.595024504340e-03 6.646342255881e-03 0.0 
0.0 0.0 -1.017300281410e-03 
-1.572744207127e-03 2.077724400643e-03 0.0 
2.077724400643e-03 7.699948884985e-03 0.0 
0.0 0.0 -1.212886757924e-03 
-1.697994519952e-03 2.183604815945e-03 0.0 
2.183604815945e-03 5.469670954577e-03 0.0 
0.0 0.0 -9.037302385344e-04 
3.109518991990e-03 7.142103845853e-04 0.0 
7.142103845853e-04 -1.355577660133e-03 0.0 
0.0 0.0 -7.516891422245e-04 
-4.615783183021e-04 2.634115171252e-03 0.0 
2.634115171252e-03 4.171995570701e-03 0.0 
0.0 0.0 -1.146733564437e-03 
-1.623397737588e-03 9.830618757014e-04 0.0 
9.830618757014e-04 7.977997106224e-03 0.0 
0.0 0.0 -1.196744929305e-03 
1.210285564886e-03 2.794819533997e-03 0.0 
2.794819533997e-03 2.142507881916e-04 0.0 
0.0 0.0 -6.105155798904e-04 
7.664634744893e-04 3.055447408668e-03 0.0 
3.055447408668e-03 8.799111198642e-04 0.0 
0.0 0.0 -7.055891118658e-04 
3.026285545234e-03 6.479754984524e-04 0.0 
6.479754984524e-04 -1.309294928286e-03 0.0 
0.0 0.0 -7.358531215491e-04 
-1.707025994169e-03 1.825045050910e-03 0.0 
1.825045050910e-03 6.718430060264e-03 0.0 
0.0 0.0 -1.046609947212e-03 
1.285120213061e-04 3.160317099540e-03 0.0 
3.160317099540e-03 1.795393702842e-03 0.0 
0.0 0.0 -8.245310246350e-04 
6.213466678406e-04 3.150191375349e-03 0.0 
3.150191375349e-03 1.093887972575e-03 0.0 
0.0 0.0 -7.351005601782e-04 
1.723951590445e-04 3.402388421843e-03 0.0 
3.402388421843e-03 1.876640106691e-03 0.0 
0.0 0.0 -8.781579710297e-04 
4.568820957443e-04 1.515113560259e-03 0.0 
1.515113560259e-03 2.072520192967e-03 0.0 
0.0 0.0 -1.068254633495e-03 
-7.126619732765e-04 2.634214240334e-03 0.0 
2.634214240334e-03 4.664743447894e-03 0.0 
0.0 0.0 -1.211228670573e-03 
2.874495408011e-03 -1.147543994212e-04 0.0 
-1.147543994212e-04 -1.321663854737e-03 0.0 
0.0 0.0 -6.654992371173e-04 
1.333222057608e-03 -6.083160362555e-04 0.0 
-6.083160362555e-04 -1.046303648964e-03 0.0 
0.0 0.0 -1.229650322759e-04 
-1.560287505520e-03 2.397443585750e-03 0.0 
2.397443585750e-03 7.445606798374e-03 0.0 
0.0 0.0 -1.207184308065e-03 
-1.227743039735e-04 3.216961996269e-03 0.0 
3.216961996269e-03 2.287126095753e-03 0.0 
0.0 0.0 -9.275793393341e-04 
1.407399929741e-03 -1.790726840241e-03 0.0 
-1.790726840241e-03 -2.123508212015e-04 0.0 
0.0 0.0 -5.121639036598e-04 
-5.005943122338e-04 2.854917982027e-03 0.0 
2.854917982027e-03 4.092431792890e-03 0.0 
0.0 0.0 -1.177925372349e-03 
-1.802105864534e-03 1.325377431051e-03 0.0 
1.325377431051e-03 6.693893706785e-03 0.0 
0.0 0.0 -1.015069748350e-03 
-9.552400268193e-04 -2.590206578427e-03 0.0 
-2.590206578427e-03 4.033946220946e-03 0.0 
0.0 0.0 -1.055879354346e-03 
2.213755167184e-03 2.540569608467e-03 0.0 
2.540569608467e-03 -6.561328527755e-04 0.0 
0.0 0.0 -6.675524204610e-04 
8.596589765025e-04 -2.241190996513e-04 0.0 
-2.241190996513e-04 -8.596589765025e-04 0.0 
0.0 0.0 0.0 
-1.695761363760e-03 -1.692827267884e-03 0.0 
-1.692827267884e-03 6.306533924159e-03 0.0 
0.0 0.0 -1.202131160132e-03 
-2.109701725836e-06 3.652134540712e-03 0.0 
3.652134540712e-03 2.337584034461e-03 0.0 
0.0 0.0 -1.000917571172e-03 
6.440987285096e-04 1.846403855810e-03 0.0 
1.846403855810e-03 1.851485320469e-03 0.0 
0.0 0.0 -1.007142642412e-03 
-8.363103258721e-04 3.298399834443e-03 0.0 
3.298399834443e-03 4.744308506763e-03 0.0 
0.0 0.0 -1.157822513452e-03 
0.0 0.0 0.0 
0.0 0.0 0.0 
0.0 0.0 0.0 
-7.671375815713e-04 -2.153381723597e-03 0.0 
-2.153381723597e-03 3.958636255064e-03 0.0 
0.0 0.0 -1.058763633038e-03 
2.277342632696e-03 2.678034488429e-03 0.0 
2.678034488429e-03 -4.950023667951e-04 0.0 
0.0 0.0 -7.638601139576e-04 
-1.817865112225e-03 1.160846124058e-03 0.0 
1.160846124058e-03 6.325027627169e-03 0.0 
0.0 0.0 -9.498437721210e-04 
-6.483445776371e-04 -2.910728448364e-03 0.0 
-2.910728448364e-03 3.240421631363e-03 0.0 
0.0 0.0 -1.081826897668e-03 
2.882336660409e-03 6.507094583248e-04 0.0 
6.507094583248e-04 -1.354897536976e-03 0.0 
0.0 0.0 -6.546167671857e-04 
-1.512905320875e-03 -2.064322058959e-03 0.0 
-2.064322058959e-03 5.485314435598e-03 0.0 
0.0 0.0 -1.141635569211e-03 
5.629634582603e-04 3.291314317230e-03 0.0 
3.291314317230e-03 1.247171813043e-03 0.0 
0.0 0.0 -7.757722591300e-04 
3.097498388755e-03 7.515594805802e-04 0.0 
7.515594805802e-04 -1.504351798864e-03 0.0 
0.0 0.0 -6.827771099535e-04 
-3.950988348044e-04 3.677355835862e-03 0.0 
3.677355835862e-03 3.018937195948e-03 0.0 
0.0 0.0 -8.989548790023e-04 
1.227636575782e-03 -1.512351808794e-03 0.0 
-1.512351808794e-03 -1.085715777594e-03 0.0 
0.0 0.0 -6.082319922330e-05 
-5.120566939223e-04 3.175912523353e-03 0.0 
3.175912523353e-03 3.844622698218e-03 0.0 
0.0 0.0 -1.026417656363e-03 
5.399418997976e-04 8.396772710701e-04 0.0 
8.396772710701e-04 2.161243029461e-03 0.0 
0.0 0.0 -1.065496432940e-03 
-1.316213487934e-03 3.030027547422e-03 0.0 
3.030027547422e-03 6.243260056489e-03 0.0 
0.0 0.0 -1.233600908384e-03 
-6.242951805065e-04 3.006743678072e-03 0.0 
3.006743678072e-03 4.303063931573e-03 0.0 
0.0 0.0 -1.090749533212e-03 
3.026627229701e-03 -6.016138979488e-05 0.0 
-6.016138979488e-05 -1.354975115356e-03 0.0 
0.0 0.0 -7.164223347191e-04 
-1.354858739815e-03 -2.484739121398e-03 0.0 
-2.484739121398e-03 4.613680447839e-03 0.0 
0.0 0.0 -1.047231727503e-03 
-1.514361396418e-03 1.521820591863e-03 0.0 
1.521820591863e-03 8.031763007479e-03 0.0 
0.0 0.0 -1.228155452712e-03 
-7.050516080877e-04 1.545847486976e-03 0.0 
1.545847486976e-03 4.498069063216e-03 0.0 
0.0 0.0 -1.267145247477e-03 
2.943450069451e-04 1.256402020470e-03 0.0 
1.256402020470e-03 2.679722888331e-03 0.0 
0.0 0.0 -1.102242875413e-03 
2.428652697383e-03 1.957638321578e-03 0.0 
1.957638321578e-03 -9.445444981417e-04 0.0 
0.0 0.0 -6.360463711034e-04 
-4.362885790870e-04 3.400866484877e-03 0.0 
3.400866484877e-03 3.416922100764e-03 0.0 
0.0 0.0 -9.624716764950e-04 
-1.751273191057e-03 -1.178364827428e-03 0.0 
-1.178364827428e-03 6.153449964232e-03 0.0 
0.0 0.0 -1.164316760544e-03 
-1.510592316959e-03 -9.050842607301e-04 0.0 
-9.050842607301e-04 4.622892738446e-03 0.0 
0.0 0.0 -1.053897668350e-03 
-5.098353463404e-04 3.384769362386e-03 0.0 
3.384769362386e-03 3.650364032255e-03 0.0 
0.0 0.0 -1.057196955382e-03 
-1.719373888211e-03 1.382981273232e-03 0.0 
1.382981273232e-03 6.550039956498e-03 0.0 
0.0 0.0 -9.877098122506e-04 
-1.368682583039e-03 -2.262414624365e-03 0.0 
-2.262414624365e-03 5.045630347078e-03 0.0 
0.0 0.0 -1.112977059762e-03 
-8.018931633473e-04 -2.405053121667e-03 0.0 
-2.405053121667e-03 4.002834443873e-03 0.0 
0.0 0.0 -1.093234982489e-03 
-1.439791436846e-03 3.326807682738e-05 0.0 
3.326807682738e-05 4.943594407769e-03 0.0 
0.0 0.0 -7.313513689239e-04 
-1.427152505588e-03 6.033982237060e-05 0.0 
6.033982237060e-05 4.941916582327e-03 0.0 
0.0 0.0 -7.310574395863e-04 
-1.640756721107e-03 2.340459270020e-03 0.0 
2.340459270020e-03 5.815255979654e-03 0.0 
0.0 0.0 -9.927888931628e-04 
-4.210846566685e-04 3.601854565047e-03 0.0 
3.601854565047e-03 3.185506434217e-03 0.0 
0.0 0.0 -9.930598132463e-04 
-9.560102716365e-04 -2.664544190492e-03 0.0 
-2.664544190492e-03 3.772312719303e-03 0.0 
0.0 0.0 -1.075560717398e-03 
-1.206510850392e-03 3.047967158976e-03 0.0 
3.047967158976e-03 4.800933324251e-03 0.0 
0.0 0.0 -9.775429604617e-04 
9.349897265997e-04 2.908831422528e-03 0.0 
2.908831422528e-03 6.057047016785e-04 0.0 
0.0 0.0 -6.602976121192e-04 
-2.228664070200e-04 -2.583623366081e-04 0.0 
-2.583623366081e-04 3.335250712245e-03 0.0 
0.0 0.0 -1.180288150054e-03 
2.187201504106e-03 2.288354873068e-03 0.0 
2.288354873068e-03 -8.791309691096e-04 0.0 
0.0 0.0 -5.606016578557e-04 
-1.487430872272e-03 2.032395386043e-03 0.0 
2.032395386043e-03 8.531052034659e-03 0.0 
0.0 0.0 -1.323793839065e-03 
-1.724651487443e-03 1.733577269253e-03 0.0 
1.733577269253e-03 5.152685708698e-03 0.0 
0.0 0.0 -8.119939454945e-04 
9.559001502051e-04 3.301449321883e-03 0.0 
3.301449321883e-03 8.023167039533e-04 0.0 
0.0 0.0 -7.535215089251e-04 
-6.923989162598e-04 -2.921867110632e-03 0.0 
-2.921867110632e-03 3.238107663680e-03 0.0 
0.0 0.0 -9.778014170610e-04 
2.952487269304e-03 8.767188776773e-04 0.0 
8.767188776773e-04 -1.231732878316e-03 0.0 
0.0 0.0 -7.374661675664e-04 
-1.449260709310e-04 -3.081657457247e-03 0.0 
-3.081657457247e-03 2.244720614764e-03 0.0 
0.0 0.0 -8.999119473571e-04 
-2.467797576170e-04 3.715212164584e-03 0.0 
3.715212164584e-03 2.738719973416e-03 0.0 
0.0 0.0 -9.758126512751e-04 
-5.058945486498e-04 3.618733188483e-03 0.0 
3.618733188483e-03 3.154888480052e-03 0.0 
0.0 0.0 -9.833357802921e-04 
-1.733759676165e-03 1.654794489536e-03 0.0 
1.654794489536e-03 6.367451579884e-03 0.0 
0.0 0.0 -9.814596669550e-04 
-1.124005872780e-03 3.379084100680e-03 0.0 
3.379084100680e-03 4.616783585522e-03 0.0 
0.0 0.0 -1.008022096355e-03 
-1.207720735867e-03 2.984451381318e-03 0.0 
2.984451381318e-03 5.147076662744e-03 0.0 
0.0 0.0 -1.040850218070e-03 
2.462504755941e-04 -3.466601191775e-04 0.0 
-3.466601191775e-04 1.225957598323e-03 0.0 
0.0 0.0 -3.048810613884e-04 
-2.528363505661e-04 -3.115888982409e-03 0.0 
-3.115888982409e-03 2.486992936593e-03 0.0 
0.0 0.0 -9.574956797260e-04 
-1.072167557266e-04 3.402438706717e-03 0.0 
3.402438706717e-03 2.375040834749e-03 0.0 
0.0 0.0 -9.719246052952e-04 
-1.390405142798e-03 3.085939311603e-03 0.0 
3.085939311603e-03 4.874750960273e-03 0.0 
0.0 0.0 -9.521954671713e-04 
-1.463685875107e-03 2.723658434378e-03 0.0 
2.723658434378e-03 5.354618705334e-03 0.0 
0.0 0.0 -9.850634846466e-04 
6.151608619475e-06 9.602693822456e-04 0.0 
9.602693822456e-04 3.003172333009e-03 0.0 
0.0 0.0 -1.160108757481e-03 
-7.116028528234e-04 -3.542186094007e-05 0.0 
-3.542186094007e-05 2.109496799795e-03 0.0 
0.0 0.0 -4.489418961951e-04 
2.420991236615e-03 -1.793290854156e-03 0.0 
-1.793290854156e-03 -1.206914640352e-03 0.0 
0.0 0.0 -5.203185412556e-04 
3.220195077698e-04 3.501557464345e-03 0.0 
3.501557464345e-03 1.705209014718e-03 0.0 
0.0 0.0 -8.688122239235e-04 
-2.823129498517e-04 -2.964277233818e-03 0.0 
-2.964277233818e-03 2.454860756862e-03 0.0 
0.0 0.0 -9.310919172903e-04 
-1.415275034250e-03 1.292164494452e-03 0.0 
1.292164494452e-03 4.167269738145e-03 0.0 
0.0 0.0 -7.665650418521e-04 
-1.567864091306e-03 1.226683465556e-03 0.0 
1.226683465556e-03 4.493286725470e-03 0.0 
0.0 0.0 -7.530137074853e-04 
-1.810136366687e-03 1.412997826384e-03 0.0 
1.412997826384e-03 6.411444835685e-03 0.0 
0.0 0.0 -9.793492904611e-04 
2.087664328359e-03 2.568536785539e-03 0.0 
2.568536785539e-03 -3.889452908062e-04 0.0 
0.0 0.0 -7.280224446656e-04 
-7.741376345699e-04 -2.792621548151e-03 0.0 
-2.792621548151e-03 3.378364177398e-03 0.0 
0.0 0.0 -1.004244986112e-03 
4.531124457367e-04 -1.076750210340e-03 0.0 
-1.076750210340e-03 2.037967656610e-03 0.0 
0.0 0.0 -1.049209916622e-03 
2.297209205504e-03 -5.483206442365e-04 0.0 
-5.483206442365e-04 -1.311033635610e-03 0.0 
0.0 0.0 -4.226466728115e-04 
-1.149618319309e-03 2.959992214286e-03 0.0 
2.959992214286e-03 5.456359281312e-03 0.0 
0.0 0.0 -1.285586381397e-03 
-1.702357103576e-03 1.352649744862e-03 0.0 
1.352649744862e-03 7.576949821791e-03 0.0 
0.0 0.0 -1.152455342817e-03 
-8.320143767109e-04 -2.543685297260e-03 0.0 
-2.543685297260e-03 3.497707295059e-03 0.0 
0.0 0.0 -1.095064427584e-03 
-1.386779618523e-03 -1.910481505052e-03 0.0 
-1.910481505052e-03 5.018049845752e-03 0.0 
0.0 0.0 -1.078722419643e-03 
2.229975894309e-04 -4.489617714331e-04 0.0 
-4.489617714331e-04 5.979694486616e-04 0.0 
0.0 0.0 -2.949115613585e-04 
4.540170595140e-04 -1.645489130381e-03 0.0 
-1.645489130381e-03 1.801582255490e-03 0.0 
0.0 0.0 -9.666854207159e-04 
-6.035540888641e-05 3.789347029411e-03 0.0 
3.789347029411e-03 2.399475313532e-03 0.0 
0.0 0.0 -8.867106850074e-04 
4.160484422948e-04 -3.622442174599e-04 0.0 
-3.622442174599e-04 5.441875866839e-04 0.0 
0.0 0.0 -3.067690066256e-04 
-1.619412582140e-03 1.641534764462e-03 0.0 
1.641534764462e-03 7.530266774085e-03 0.0 
0.0 0.0 -1.154859126927e-03 
1.948099663815e-03 -7.569421743857e-04 0.0 
-7.569421743857e-04 -1.147440738389e-03 0.0 
0.0 0.0 -3.431395394681e-04 
-1.356737557429e-03 2.911706860265e-03 0.0 
2.911706860265e-03 4.923580709307e-03 0.0 
0.0 0.0 -9.496453321265e-04 
-5.843331771905e-04 3.664260117298e-03 0.0 
3.664260117298e-03 3.237703376181e-03 0.0 
0.0 0.0 -8.924259012440e-04 
1.585702125321e-03 -1.745985882028e-03 0.0 
-1.745985882028e-03 -4.551642142343e-04 0.0 
0.0 0.0 -4.845162476086e-04 
3.886198775371e-04 -2.656776709997e-03 0.0 
-2.656776709997e-03 1.521016158266e-03 0.0 
0.0 0.0 -8.184154439158e-04 
-1.604458387616e-03 1.854152015569e-03 0.0 
1.854152015569e-03 7.626319442818e-03 0.0 
0.0 0.0 -1.182898372388e-03 
1.911502030331e-04 -2.214449408558e-03 0.0 
-2.214449408558e-03 2.167051973238e-03 0.0 
0.0 0.0 -9.716005391690e-04 
4.578213256305e-04 3.411459955915e-03 0.0 
3.411459955915e-03 1.456160682634e-03 0.0 
0.0 0.0 -8.202780035418e-04 
3.627077773465e-04 3.714478666179e-03 0.0 
3.714478666179e-03 1.773296424289e-03 0.0 
0.0 0.0 -9.111404029742e-04 
1.874131474266e-04 1.317598379107e-03 0.0 
1.317598379107e-03 5.481764939296e-04 0.0 
0.0 0.0 -3.152527034384e-04 
1.643748758810e-03 -4.204231761426e-04 0.0 
-4.204231761426e-04 -1.117599327178e-03 0.0 
0.0 0.0 -2.254926135565e-04 
-5.203694144565e-04 2.878386602619e-03 0.0 
2.878386602619e-03 4.197902991695e-03 0.0 
0.0 0.0 -1.118331045454e-03 
-1.809983628728e-03 1.593568509076e-03 0.0 
1.593568509076e-03 5.817131701425e-03 0.0 
0.0 0.0 -9.085367473448e-04 
-5.577334774044e-04 3.082426156906e-03 0.0 
3.082426156906e-03 4.104685153811e-03 0.0 
0.0 0.0 -1.148691026115e-03 
1.974680470733e-03 2.873021825660e-03 0.0 
2.873021825660e-03 -4.940617528099e-04 0.0 
0.0 0.0 -6.345508791099e-04 
-1.588961869452e-03 2.584393938582e-03 0.0 
2.584393938582e-03 6.455891274831e-03 0.0 
0.0 0.0 -1.097950598811e-03 
-7.723714131083e-04 2.927319470345e-03 0.0 
2.927319470345e-03 4.791549148204e-03 0.0 
0.0 0.0 -1.155407764312e-03 
-1.528620740983e-03 1.641090201076e-03 0.0 
1.641090201076e-03 4.483124494598e-03 0.0 
0.0 0.0 -7.696970057192e-04 
-6.364037100851e-04 3.205127351833e-03 0.0 
3.205127351833e-03 4.133031580390e-03 0.0 
0.0 0.0 -1.120992621467e-03 
-1.531289715330e-03 -2.235814658200e-03 0.0 
-2.235814658200e-03 5.083560864057e-03 0.0 
0.0 0.0 -1.075946734593e-03 
-1.542078502361e-04 3.681831680089e-03 0.0 
3.681831680089e-03 2.560354402538e-03 0.0 
0.0 0.0 -9.606735922745e-04 
-4.462082875552e-04 -3.056851139717e-03 0.0 
-3.056851139717e-03 2.847631123845e-03 0.0 
0.0 0.0 -1.006543408955e-03 
-3.390473984761e-04 -3.081268501996e-03 0.0 
-3.081268501996e-03 2.650937052075e-03 0.0 
0.0 0.0 -9.908098515424e-04 
-1.654766843293e-03 2.110154288789e-03 0.0 
2.110154288789e-03 7.526175185133e-03 0.0 
0.0 0.0 -1.204704583718e-03 
6.478121330843e-04 -2.891464683005e-03 0.0 
-2.891464683005e-03 9.158033438756e-04 0.0 
0.0 0.0 -6.701209186971e-04 
-3.674328541615e-04 3.694790859021e-03 0.0 
3.694790859021e-03 2.941360548218e-03 0.0 
0.0 0.0 -9.833476869619e-04 
1.512914527637e-03 2.270095044354e-03 0.0 
2.270095044354e-03 -2.495167818894e-04 0.0 
0.0 0.0 -5.414561767490e-04 
-4.689248235341e-05 -1.859495784931e-03 0.0 
-1.859495784931e-03 2.784842397477e-03 0.0 
0.0 0.0 -1.038364586984e-03 
1.508518420493e-03 2.943740230317e-03 0.0 
2.943740230317e-03 4.760392635737e-05 0.0 
0.0 0.0 -6.669095772216e-04 
3.102345530720e-03 7.378269526544e-05 0.0 
7.378269526544e-05 -1.464469892876e-03 0.0 
0.0 0.0 -7.019467019332e-04 
1.507578771505e-03 -7.604032194635e-04 0.0 
-7.604032194635e-04 -4.928220476776e-04 0.0 
0.0 0.0 -4.348957387830e-04 
3.148975456484e-03 8.306636056168e-04 0.0 
8.306636056168e-04 -1.496370463473e-03 0.0 
0.0 0.0 -7.082592827190e-04 
-1.261991141926e-03 3.267444165813e-03 0.0 
3.267444165813e-03 4.752384958846e-03 0.0 
0.0 0.0 -9.799122972177e-04 
3.123536661893e-03 -9.721135346994e-05 0.0 
-9.721135346994e-05 -1.405927083563e-03 0.0 
0.0 0.0 -7.361183907127e-04 
-1.047249439091e-03 3.250277679615e-03 0.0 
3.250277679615e-03 4.315763371752e-03 0.0 
0.0 0.0 -9.420580210740e-04 
1.883489007768e-04 8.010579783403e-04 0.0 
8.010579783403e-04 2.876523535355e-03 0.0 
0.0 0.0 -1.130549445556e-03 
3.588863471818e-04 1.014874640691e-03 0.0 
1.014874640691e-03 2.306525440664e-03 0.0 
0.0 0.0 -1.096529089934e-03 
1.700464822711e-03 2.598856322658e-03 0.0 
2.598856322658e-03 -4.407098144151e-04 0.0 
0.0 0.0 -5.398950035552e-04 
-1.732708782740e-03 1.731245879395e-03 0.0 
1.731245879395e-03 6.071080868846e-03 0.0 
0.0 0.0 -9.460253849645e-04 
-1.548270655095e-03 -1.671057713006e-03 0.0 
-1.671057713006e-03 5.446327602559e-03 0.0 
0.0 0.0 -1.107441567342e-03 
-1.667313564664e-03 -1.981097125204e-03 0.0 
-1.981097125204e-03 5.509726630970e-03 0.0 
0.0 0.0 -1.104747680386e-03 
1.318532451431e-03 2.199681040646e-03 0.0 
2.199681040646e-03 -1.454539841179e-04 0.0 
0.0 0.0 -5.027479145627e-04 
-9.715008187727e-04 3.547635970715e-03 0.0 
3.547635970715e-03 4.097719530490e-03 0.0 
0.0 0.0 -9.724793438395e-04 
-1.624312607657e-03 -1.275879739373e-03 0.0 
-1.275879739373e-03 6.206545711786e-03 0.0 
0.0 0.0 -1.205818386895e-03 
-2.985133365854e-04 2.525233875689e-03 0.0 
2.525233875689e-03 2.218258876373e-03 0.0 
0.0 0.0 -8.227480884806e-04 
-1.021411894397e-03 -2.472960565398e-03 0.0 
-2.472960565398e-03 3.861949643739e-03 0.0 
0.0 0.0 -1.085013296808e-03 
1.242793848756e-04 1.186515148645e-03 0.0 
1.186515148645e-03 5.554989300674e-04 0.0 
0.0 0.0 -2.913335635470e-04 
-1.667346094177e-03 -1.424810251550e-03 0.0 
-1.424810251550e-03 5.825346578498e-03 0.0 
0.0 0.0 -1.136235114959e-03 
3.019668846566e-03 9.582089678435e-04 0.0 
9.582089678435e-04 -1.448201355488e-03 0.0 
0.0 0.0 -6.734860676048e-04 
-1.578302787965e-03 -5.539699262797e-04 0.0 
-5.539699262797e-04 4.756261434844e-03 0.0 
0.0 0.0 -1.057437106069e-03 
4.911868189057e-04 2.542757255714e-03 0.0 
2.542757255714e-03 1.777357060087e-03 0.0 
0.0 0.0 -9.722330909969e-04 
-1.811529723315e-03 1.498050121893e-03 0.0 
1.498050121893e-03 6.116522056800e-03 0.0 
0.0 0.0 -9.438854677472e-04 
-1.729248363348e-03 1.804686593249e-03 0.0 
1.804686593249e-03 5.771244996451e-03 0.0 
0.0 0.0 -9.108073647308e-04 
1.218753398279e-04 3.628872757319e-03 0.0 
3.628872757319e-03 2.104833384723e-03 0.0 
0.0 0.0 -9.543037390934e-04 
-1.106695794268e-03 1.517581520969e-03 0.0 
1.517581520969e-03 3.539684992285e-03 0.0 
0.0 0.0 -7.963586959451e-04 
-1.268797780777e-03 1.437345509075e-03 0.0 
1.437345509075e-03 3.867869279896e-03 0.0 
0.0 0.0 -7.758011671882e-04 
-1.764900971931e-03 -1.718354051601e-03 0.0 
-1.718354051601e-03 5.889801463908e-03 0.0 
0.0 0.0 -1.133400347077e-03 
2.569249843707e-04 -2.786570784076e-03 0.0 
-2.786570784076e-03 1.556740733674e-03 0.0 
0.0 0.0 -7.772853077335e-04 
1.174175751745e-03 -1.803885435246e-03 0.0 
-1.803885435246e-03 -1.174563587325e-05 0.0 
0.0 0.0 -4.981843353734e-04 
5.912929398665e-04 -9.060768193030e-04 0.0 
-9.060768193030e-04 1.727113514221e-03 0.0 
0.0 0.0 -9.936027660373e-04 
2.016096735556e-03 -6.850330429382e-04 0.0 
-6.850330429382e-04 -9.758089702167e-04 0.0 
0.0 0.0 -4.458376137168e-04 
3.081197548797e-03 7.466969370712e-04 0.0 
7.466969370712e-04 -1.300129295292e-03 0.0 
0.0 0.0 -7.633149657881e-04 
-1.128831614242e-03 1.542551351037e-03 0.0 
1.542551351037e-03 3.551129300523e-03 0.0 
0.0 0.0 -7.520787537531e-04 
-1.821423928511e-03 1.474632635918e-03 0.0 
1.474632635918e-03 5.487726439764e-03 0.0 
0.0 0.0 -8.442294783838e-04 
-1.409406014707e-03 4.528826506854e-05 0.0 
4.528826506854e-05 5.214877225355e-03 0.0 
0.0 0.0 -7.121995050294e-04 
4.077287179479e-04 3.674953038794e-04 0.0 
3.674953038794e-04 2.393170375530e-03 0.0 
0.0 0.0 -1.093598669875e-03 
1.997342351340e-03 2.504018622736e-03 0.0 
2.504018622736e-03 -5.807467309884e-04 0.0 
0.0 0.0 -6.071124087219e-04 
-4.482284720357e-04 1.652414080391e-03 0.0 
1.652414080391e-03 3.958656300163e-03 0.0 
0.0 0.0 -1.233571955743e-03 
-2.022662331208e-03 -4.627058437959e-04 0.0 
-4.627058437959e-04 6.332672682848e-03 0.0 
0.0 0.0 -1.121177773779e-03 
1.798099945912e-03 -8.661440026173e-04 0.0 
-8.661440026173e-04 -7.288088564904e-04 0.0 
0.0 0.0 -4.582676097521e-04 
-1.524985310237e-03 -1.822620195545e-03 0.0 
-1.822620195545e-03 6.245562815238e-03 0.0 
0.0 0.0 -1.241472629463e-03 
3.003131752772e-03 -8.623198735716e-04 0.0 
-8.623198735716e-04 -1.396381984480e-03 0.0 
0.0 0.0 -6.886070435535e-04 
-3.779034990216e-04 2.052169755275e-03 0.0 
2.052169755275e-03 3.788846745744e-03 0.0 
0.0 0.0 -1.204482468497e-03 
1.415534273829e-04 3.636591431357e-03 0.0 
3.636591431357e-03 2.169944347150e-03 0.0 
0.0 0.0 -8.910665706739e-04 
8.940143763455e-06 3.422262264522e-03 0.0 
3.422262264522e-03 2.416052284656e-03 0.0 
0.0 0.0 -9.848034212814e-04 
-1.370477965762e-04 -1.170123439274e-03 0.0 
-1.170123439274e-03 3.214973093205e-03 0.0 
0.0 0.0 -1.146785027167e-03 
3.884013163081e-04 -2.855323367017e-03 0.0 
-2.855323367017e-03 1.211719834243e-03 0.0 
0.0 0.0 -6.857662073788e-04 
-7.129927410741e-04 3.670079492291e-03 0.0 
3.670079492291e-03 3.538541594785e-03 0.0 
0.0 0.0 -9.649174008510e-04 
1.717035050200e-03 -1.344860437860e-03 0.0 
-1.344860437860e-03 -6.217055712217e-04 0.0 
0.0 0.0 -4.694269195620e-04 
-8.587679122771e-04 3.481313587749e-03 0.0 
3.481313587749e-03 3.794469535060e-03 0.0 
0.0 0.0 -9.065670216064e-04 
1.889810402813e-03 2.899509189946e-03 0.0 
2.899509189946e-03 -2.152817456685e-04 0.0 
0.0 0.0 -7.176551387762e-04 
1.428912843794e-04 3.126816861625e-03 0.0 
3.126816861625e-03 2.356543378173e-03 0.0 
0.0 0.0 -1.013229387512e-03 
1.943775632291e-03 -1.286497408609e-03 0.0 
-1.286497408609e-03 -8.334086717492e-04 0.0 
0.0 0.0 -4.758715545177e-04 
-1.000337791729e-03 -2.628959420428e-03 0.0 
-2.628959420428e-03 3.773462867951e-03 0.0 
0.0 0.0 -9.886579807222e-04 
-8.325357311160e-04 3.547635505547e-03 0.0 
3.547635505547e-03 3.716995785029e-03 0.0 
0.0 0.0 -9.612835620876e-04 
2.687167972919e-04 1.795311194676e-03 0.0 
1.795311194676e-03 1.563575924244e-04 0.0 
0.0 0.0 -1.821747384498e-04 
1.057813883420e-03 2.534506278338e-03 0.0 
2.534506278338e-03 3.175156107454e-04 0.0 
0.0 0.0 -5.894269260710e-04 
4.651919044669e-04 1.924261843739e-03 0.0 
1.924261843739e-03 5.725607713308e-04 0.0 
0.0 0.0 -4.447511467704e-04 
-3.371303889653e-04 -7.500919376923e-04 0.0 
-7.500919376923e-04 1.299829984783e-03 0.0 
0.0 0.0 -4.040777003935e-04 
-1.056371726126e-03 -2.468497531733e-03 0.0 
-2.468497531733e-03 3.865104933196e-03 0.0 
0.0 0.0 -1.010653628765e-03 
-9.607789536056e-04 3.048565223821e-03 0.0 
3.048565223821e-03 4.940644900743e-03 0.0 
0.0 0.0 -1.098354823938e-03 
-1.707850550320e-03 2.055402839425e-03 0.0 
2.055402839425e-03 5.786469608898e-03 0.0 
0.0 0.0 -9.387552692591e-04 
-7.756723233026e-04 1.730094175383e-03 0.0 
1.730094175383e-03 2.916527936956e-03 0.0 
0.0 0.0 -8.497951325312e-04 
-1.342322198460e-03 2.098270725376e-03 0.0 
2.098270725376e-03 8.248661573518e-03 0.0 
0.0 0.0 -1.342322198460e-03 
-1.261749478483e-04 1.640634240020e-03 0.0 
1.640634240020e-03 2.063972031901e-04 0.0 
0.0 0.0 -3.438096657507e-05 
-9.510393810217e-04 1.672687846132e-03 0.0 
1.672687846132e-03 3.246503304730e-03 0.0 
0.0 0.0 -8.134098498104e-04 
1.098475143763e-03 -2.031876221816e-03 0.0 
-2.031876221816e-03 1.166483383452e-04 0.0 
0.0 0.0 -5.207672066180e-04 
-1.089976521784e-03 -2.234801732660e-03 0.0 
-2.234801732660e-03 3.943897982090e-03 0.0 
0.0 0.0 -1.084767721667e-03 
-1.111038172895e-03 2.200189741588e-03 0.0 
2.200189741588e-03 3.768833115442e-03 0.0 
0.0 0.0 -8.610308207870e-04 
2.262464148868e-03 -1.945012542063e-03 0.0 
-1.945012542063e-03 -8.191237484730e-04 0.0 
0.0 0.0 -6.185744573122e-04 
5.761048584873e-04 -2.775225325336e-03 0.0 
-2.775225325336e-03 9.303736926873e-04 0.0 
0.0 0.0 -6.456336647891e-04 
-1.625181255020e-04 3.528619970826e-03 0.0 
3.528619970826e-03 2.809301514261e-03 0.0 
0.0 0.0 -9.266779469803e-04 
7.488835648315e-04 2.251240740231e-03 0.0 
2.251240740231e-03 1.162555029076e-03 0.0 
0.0 0.0 -8.191879688175e-04 
-1.329752805185e-03 3.181517598016e-03 0.0 
3.181517598016e-03 5.907007101231e-03 0.0 
0.0 0.0 -1.144302277022e-03 
1.946489244002e-03 2.821542424935e-03 0.0 
2.821542424935e-03 -8.035545710095e-04 0.0 
0.0 0.0 -4.898291455683e-04 
-8.586335344055e-04 -2.592060326530e-03 0.0 
-2.592060326530e-03 3.501562453949e-03 0.0 
0.0 0.0 -1.023226067289e-03 
-1.335563518602e-03 -1.880041070522e-03 0.0 
-1.880041070522e-03 4.351195601973e-03 0.0 
0.0 0.0 -1.033071644556e-03 
-2.022124363338e-05 -2.395587679301e-03 0.0 
-2.395587679301e-03 1.567846091858e-03 0.0 
0.0 0.0 -6.632677920962e-04 
-1.674900766220e-03 1.599025443535e-03 0.0 
1.599025443535e-03 4.804084785627e-03 0.0 
0.0 0.0 -7.663799295492e-04 
-1.769874274313e-03 1.858383186956e-03 0.0 
1.858383186956e-03 5.835930784600e-03 0.0 
0.0 0.0 -9.362314798257e-04 
-2.069835677089e-03 -4.002455476683e-04 0.0 
-4.002455476683e-04 5.909495734486e-03 0.0 
0.0 0.0 -1.073191215027e-03 
1.059197299257e-03 -5.440939611188e-04 0.0 
-5.440939611188e-04 5.670737881280e-04 0.0 
0.0 0.0 -3.365581251930e-04 
0.0 0.0 0.0 
0.0 0.0 0.0 
0.0 0.0 0.0 
-4.602170046064e-05 -1.936536183988e-03 0.0 
-1.936536183988e-03 1.323038368316e-03 0.0 
0.0 0.0 -5.472928576524e-04 
-1.313750205869e-03 -1.893362186714e-03 0.0 
-1.893362186714e-03 4.351424993746e-03 0.0 
0.0 0.0 -1.080662880999e-03 
2.816321063082e-03 -8.334388727588e-04 0.0 
-8.334388727588e-04 -1.272649618703e-03 0.0 
0.0 0.0 -6.615734761625e-04 
2.373065583622e-03 -2.080956134851e-03 0.0 
-2.080956134851e-03 -1.010649277428e-03 0.0 
0.0 0.0 -5.838927026542e-04 
2.954183213689e-03 -8.930251278497e-04 0.0 
-8.930251278497e-04 -1.356411275311e-03 0.0 
0.0 0.0 -6.847594021618e-04 
-1.301232695251e-03 -2.116378151629e-03 0.0 
-2.116378151629e-03 4.314126103213e-03 0.0 
0.0 0.0 -1.020860678390e-03 
-1.603005468093e-03 2.550878726920e-03 0.0 
2.550878726920e-03 5.754736739264e-03 0.0 
0.0 0.0 -9.956198530692e-04 
-1.518941795168e-03 -1.499106977263e-03 0.0 
-1.499106977263e-03 4.706029179031e-03 0.0 
0.0 0.0 -1.043188517862e-03 
2.974270505683e-03 -1.234815007946e-05 0.0 
-1.234815007946e-05 -1.384428534307e-03 0.0 
0.0 0.0 -6.813608448753e-04 
-8.631645989931e-04 3.291242542591e-03 0.0 
3.291242542591e-03 4.149472146392e-03 0.0 
0.0 0.0 -9.699423737970e-04 
-1.666656418554e-03 8.515973861887e-04 0.0 
8.515973861887e-04 5.656067677278e-03 0.0 
0.0 0.0 -8.236220363599e-04 
2.293852952879e-04 2.317534078424e-03 0.0 
2.317534078424e-03 2.464619361077e-03 0.0 
0.0 0.0 -1.076197569190e-03 
-1.503911657480e-03 -1.536228813635e-03 0.0 
-1.536228813635e-03 4.713514709764e-03 0.0 
0.0 0.0 -1.079735805607e-03 
-1.269594224654e-03 -2.151916428327e-03 0.0 
-2.151916428327e-03 4.311241093571e-03 0.0 
0.0 0.0 -1.081849276551e-03 
-4.912617181252e-04 1.776659374520e-03 0.0 
1.776659374520e-03 2.250419150674e-03 0.0 
0.0 0.0 -7.539246139495e-04 
2.432965561316e-03 -1.404722775878e-03 0.0 
-1.404722775878e-03 -1.097996306609e-03 0.0 
0.0 0.0 -5.721296805886e-04 
-1.672927313923e-03 -1.115371020166e-03 0.0 
-1.115371020166e-03 5.017856732658e-03 0.0 
0.0 0.0 -1.052805964859e-03 
-1.580075754320e-03 2.157353104837e-04 0.0 
2.157353104837e-04 6.692661968395e-03 0.0 
0.0 0.0 -9.615701295831e-04 
-1.562907036777e-03 2.120583330649e-04 0.0 
2.120583330649e-04 6.337987109484e-03 0.0 
0.0 0.0 -8.972249362023e-04 
-6.223529423683e-04 1.809817658288e-03 0.0 
1.809817658288e-03 2.623397927817e-03 0.0 
0.0 0.0 -8.575907080495e-04 
-1.509705893005e-03 -1.747591078712e-03 0.0 
-1.747591078712e-03 4.715855182949e-03 0.0 
0.0 0.0 -1.032785096058e-03 
1.569414128809e-03 -2.550888608895e-03 0.0 
-2.550888608895e-03 -3.370499251341e-04 0.0 
0.0 0.0 -5.281560872893e-04 
8.209882341614e-04 2.381580320664e-03 0.0 
2.381580320664e-03 4.553315452112e-04 0.0 
0.0 0.0 -5.469941911596e-04 
-2.931643961127e-04 1.527189756473e-03 0.0 
1.527189756473e-03 3.869126548266e-03 0.0 
0.0 0.0 -1.202908440308e-03 
1.382596818972e-04 -2.070148021774e-03 0.0 
-2.070148021774e-03 1.091658495820e-03 0.0 
0.0 0.0 -5.271077904503e-04 
1.398235426833e-03 -2.548773596058e-03 0.0 
-2.548773596058e-03 -7.584749764511e-05 0.0 
0.0 0.0 -5.667376839375e-04 
1.254646909069e-03 2.484629242297e-03 0.0 
2.484629242297e-03 3.513264158718e-04 0.0 
0.0 0.0 -6.882742821176e-04 
-8.245697505670e-04 1.707333830662e-03 0.0 
1.707333830662e-03 2.953610139157e-03 0.0 
0.0 0.0 -7.843752346430e-04 
-1.666758732331e-03 -1.174236117568e-03 0.0 
-1.174236117568e-03 5.037001804565e-03 0.0 
0.0 0.0 -1.079856008588e-03 
-9.244628747481e-04 -1.936309255703e-04 0.0 
-1.936309255703e-04 2.822852214519e-03 0.0 
0.0 0.0 -6.624393034254e-04 
-1.781970376818e-03 1.286452196401e-03 0.0 
1.286452196401e-03 5.020731578576e-03 0.0 
0.0 0.0 -7.824198048058e-04 
-1.484587749919e-03 -1.812874826371e-03 0.0 
-1.812874826371e-03 4.718401123365e-03 0.0 
0.0 0.0 -1.081372135754e-03 
1.084769609676e-03 -2.051097269290e-03 0.0 
-2.051097269290e-03 1.328211131767e-04 0.0 
0.0 0.0 -5.218245955084e-04 
-7.383188819978e-04 -2.755351396555e-03 0.0 
-2.755351396555e-03 3.375108004806e-03 0.0 
0.0 0.0 -1.093992571453e-03 
0.0 0.0 0.0 
0.0 0.0 0.0 
0.0 0.0 0.0 
-1.585395185030e-03 -8.733622601649e-05 0.0 
-8.733622601649e-05 7.915806537563e-03 0.0 
0.0 0.0 -1.152567315725e-03 
1.675271907871e-03 -2.177617042757e-03 0.0 
-2.177617042757e-03 -5.173898653476e-04 0.0 
0.0 0.0 -4.962351610816e-04 
3.706447397785e-05 2.070351060898e-04 0.0 
2.070351060898e-04 3.044600736775e-03 0.0 
0.0 0.0 -1.154039482800e-03 
2.069033457779e-04 2.961881208612e-03 0.0 
2.961881208612e-03 2.494592241471e-03 0.0 
0.0 0.0 -9.821191134873e-04 
-1.685773855788e-03 -1.377399783606e-03 0.0 
-1.377399783606e-03 5.070521373149e-03 0.0 
0.0 0.0 -1.044398856648e-03 
-1.669266621470e-03 -1.454184032041e-03 0.0 
-1.454184032041e-03 5.079788696568e-03 0.0 
0.0 0.0 -1.081576243284e-03 
2.914990553637e-03 -7.685843879532e-04 0.0 
-7.685843879532e-04 -1.358389786941e-03 0.0 
0.0 0.0 -6.671146142982e-04 
1.578300081431e-04 -1.839580637340e-03 0.0 
-1.839580637340e-03 9.146826550122e-04 0.0 
0.0 0.0 -4.596482842094e-04 
5.655633450819e-04 1.634462446329e-03 0.0 
1.634462446329e-03 -4.353216112412e-04 0.0 
0.0 0.0 -5.581788593170e-05 
-1.838374468883e-03 -1.008357892208e-03 0.0 
-1.008357892208e-03 5.389548205880e-03 0.0 
0.0 0.0 -1.053342186814e-03 
-7.735429255109e-05 -5.938829985412e-04 0.0 
-5.938829985412e-04 3.207515001155e-03 0.0 
0.0 0.0 -1.148056181429e-03 
8.407270435530e-04 -2.401906140793e-03 0.0 
-2.401906140793e-03 4.680800088293e-04 0.0 
0.0 0.0 -5.609173081639e-04 
-8.059519139880e-04 3.569609752867e-03 0.0 
3.569609752867e-03 3.937575205409e-03 0.0 
0.0 0.0 -1.000702849114e-03 
-1.423128099077e-04 2.434671484328e-03 0.0 
2.434671484328e-03 1.829214520191e-03 0.0 
0.0 0.0 -7.229578758357e-04 
-1.050409536978e-03 3.126628093613e-03 0.0 
3.126628093613e-03 4.667808075339e-03 0.0 
0.0 0.0 -1.005614027492e-03 
-9.737300203529e-04 -1.654439195094e-03 0.0 
-1.654439195094e-03 5.294537233988e-03 0.0 
0.0 0.0 -1.266534580134e-03 
0.0 0.0 0.0 
0.0 0.0 0.0 
0.0 0.0 0.0 
-1.341620833825e-03 1.946460220436e-04 0.0 
1.946460220436e-04 8.726655578502e-03 0.0 
0.0 0.0 -1.341620833825e-03 
-1.340051318819e-03 -5.222823624513e-04 0.0 
-5.222823624513e-04 7.102242080382e-03 0.0 
0.0 0.0 -1.340051318819e-03 
-1.487218295656e-03 -1.877140319118e-04 0.0 
-1.877140319118e-04 5.546795712007e-03 0.0 
0.0 0.0 -7.955197795907e-04 
9.332368058577e-04 -2.323240235713e-03 0.0 
-2.323240235713e-03 3.557999178189e-04 0.0 
0.0 0.0 -5.524443101471e-04 
4.489255113101e-05 3.284657334475e-03 0.0 
3.284657334475e-03 2.631811467132e-03 0.0 
0.0 0.0 -9.543595451431e-04 
3.058132153657e-03 -1.043711929510e-04 0.0 
-1.043711929510e-04 -1.411540431284e-03 0.0 
0.0 0.0 -7.056821667315e-04 
-3.299569164523e-05 -1.162968038586e-03 0.0 
-1.162968038586e-03 1.091173189700e-03 0.0 
0.0 0.0 -3.090400745732e-04 
-1.266577181316e-05 1.314359795206e-03 0.0 
1.314359795206e-03 4.435767282848e-04 0.0 
0.0 0.0 -1.846761242021e-04 
-1.574977123889e-03 5.363765110094e-04 0.0 
5.363765110094e-04 8.165141429638e-03 0.0 
0.0 0.0 -1.209499414335e-03 
-1.716498366635e-03 2.104119454666e-03 0.0 
2.104119454666e-03 5.843034081691e-03 0.0 
0.0 0.0 -9.648175333861e-04 
-1.733356707705e-03 1.154742806149e-03 0.0 
1.154742806149e-03 4.860119042041e-03 0.0 
0.0 0.0 -7.487175554447e-04 
-1.114495707937e-03 3.137897512820e-03 0.0 
3.137897512820e-03 5.995042437661e-03 0.0 
0.0 0.0 -1.323661129950e-03 
-8.127251142362e-04 -1.412537566310e-04 0.0 
-1.412537566310e-04 2.411308652960e-03 0.0 
0.0 0.0 -5.128881373376e-04 
-1.119968701545e-03 2.850061398458e-03 0.0 
2.850061398458e-03 5.775097260118e-03 0.0 
0.0 0.0 -1.324908485340e-03 
-1.665581242751e-03 2.319761122546e-03 0.0 
2.319761122546e-03 5.793099015745e-03 0.0 
0.0 0.0 -9.670422101491e-04 
5.568715715285e-04 -2.770077582360e-03 0.0 
-2.770077582360e-03 9.496266440003e-04 0.0 
0.0 0.0 -6.456420923695e-04 
2.161043505782e-04 3.547732125549e-03 0.0 
3.547732125549e-03 1.898015910390e-03 0.0 
0.0 0.0 -9.060515404150e-04 
9.950905598312e-04 -2.671652170698e-03 0.0 
-2.671652170698e-03 4.709180402517e-04 0.0 
0.0 0.0 -6.282894000355e-04 
6.980021611784e-04 2.329704923171e-03 0.0 
2.329704923171e-03 5.591408928334e-04 0.0 
0.0 0.0 -5.387755945765e-04 
7.505691487916e-04 -2.806175756815e-03 0.0 
-2.806175756815e-03 7.604579484207e-04 0.0 
0.0 0.0 -6.475830416624e-04 
-1.523404584578e-03 2.773030803061e-03 0.0 
2.773030803061e-03 5.696563371559e-03 0.0 
0.0 0.0 -1.023749757194e-03 
-1.948666597127e-03 -9.778535476886e-04 0.0 
-9.778535476886e-04 6.429483775968e-03 0.0 
0.0 0.0 -1.155390781228e-03 
1.789573321784e-03 -2.334741346390e-03 0.0 
-2.334741346390e-03 -4.865776105569e-04 0.0 
0.0 0.0 -5.584267333832e-04 
-9.825735489597e-04 3.435129640079e-03 0.0 
3.435129640079e-03 4.478995622056e-03 0.0 
0.0 0.0 -1.036271578259e-03 
0.0 0.0 0.0 
0.0 0.0 0.0 
0.0 0.0 0.0 
2.596759179503e-03 -1.389222099922e-03 0.0 
-1.389222099922e-03 -1.085257982110e-03 0.0 
0.0 0.0 -6.477862274541e-04 
-1.710970656604e-03 2.103685284721e-03 0.0 
2.103685284721e-03 6.525687664567e-03 0.0 
0.0 0.0 -1.066385360782e-03 
2.404574348015e-04 -2.949261258943e-03 0.0 
-2.949261258943e-03 1.482737397066e-03 0.0 
0.0 0.0 -7.385120708004e-04 
6.388802882870e-04 -2.505035958296e-03 0.0 
-2.505035958296e-03 7.105369687538e-04 0.0 
0.0 0.0 -5.783216815889e-04 
3.613031293431e-04 3.302322730047e-03 0.0 
3.302322730047e-03 1.977511413847e-03 0.0 
0.0 0.0 -9.187611816440e-04 
1.834377336541e-03 -2.869898485884e-03 0.0 
-2.869898485884e-03 -1.676988345135e-04 0.0 
0.0 0.0 -7.142907865831e-04 
-2.603602936992e-04 1.802957872284e-03 0.0 
1.802957872284e-03 1.690888390106e-03 0.0 
0.0 0.0 -6.130834698885e-04 
-3.766094290651e-04 1.893748037744e-03 0.0 
1.893748037744e-03 2.022328291586e-03 0.0 
0.0 0.0 -7.053080839374e-04 
2.569187355972e-04 -2.744654995445e-03 0.0 
-2.744654995445e-03 1.329889881086e-03 0.0 
0.0 0.0 -6.800608357214e-04 
9.113223760588e-04 -2.364957113740e-03 0.0 
-2.364957113740e-03 3.924099138829e-04 0.0 
0.0 0.0 -5.587424099750e-04 
1.417197887517e-03 2.585133621544e-03 0.0 
2.585133621544e-03 -7.607709962935e-05 0.0 
0.0 0.0 -5.747660519518e-04 
-8.949493316928e-04 3.143090586373e-03 0.0 
3.143090586373e-03 4.528621917534e-03 0.0 
0.0 0.0 -1.033897369924e-03 
-1.400349245868e-03 3.030732209316e-03 0.0 
3.030732209316e-03 6.703483299750e-03 0.0 
0.0 0.0 -1.224260864640e-03 
-5.253406665386e-04 1.775908047208e-03 0.0 
1.775908047208e-03 2.340968666104e-03 0.0 
0.0 0.0 -7.781262855279e-04 
-1.583002963210e-03 -1.557788336479e-04 0.0 
-1.557788336479e-04 7.086569384723e-03 0.0 
0.0 0.0 -1.028620860735e-03 
-1.145284533028e-03 3.268026662313e-03 0.0 
3.268026662313e-03 5.700409497196e-03 0.0 
0.0 0.0 -1.228414553209e-03 
3.124385303303e-03 -1.108728093105e-05 0.0 
-1.108728093105e-05 -1.500119221682e-03 0.0 
0.0 0.0 -6.961140349804e-04 
5.697530012785e-04 2.144073309248e-03 0.0 
2.144073309248e-03 5.848519704173e-04 0.0 
0.0 0.0 -4.948307021553e-04 
-2.816210062748e-04 2.601627525948e-03 0.0 
2.601627525948e-03 2.228068929511e-03 0.0 
0.0 0.0 -8.341919671012e-04 
8.341721467740e-04 -2.510433576068e-03 0.0 
-2.510433576068e-03 5.276394565767e-04 0.0 
0.0 0.0 -5.836335442932e-04 
-1.247042165843e-03 3.250100918931e-03 0.0 
3.250100918931e-03 5.099970820779e-03 0.0 
0.0 0.0 -1.043024347135e-03 
1.027519968218e-03 -2.380813166548e-03 0.0 
-2.380813166548e-03 3.112209895361e-04 0.0 
0.0 0.0 -5.737461247516e-04 
1.268606586028e-03 2.037384257040e-03 0.0 
2.037384257040e-03 -4.121339973903e-04 0.0 
0.0 0.0 -3.670596808449e-04 
5.930292221715e-04 -2.622911752925e-03 0.0 
-2.622911752925e-03 8.838728538733e-04 0.0 
0.0 0.0 -6.329580325906e-04 
5.486710723125e-04 2.332384511628e-03 0.0 
2.332384511628e-03 7.102378801027e-04 0.0 
0.0 0.0 -5.395324081779e-04 
1.682768200706e-03 2.516609952748e-03 0.0 
2.516609952748e-03 -2.542264434373e-04 0.0 
0.0 0.0 -6.122321816866e-04 
7.358023053180e-04 -2.505051408807e-03 0.0 
-2.505051408807e-03 7.718123993888e-04 0.0 
0.0 0.0 -6.461205877315e-04 
2.812366509539e-04 3.418056531118e-03 0.0 
3.418056531118e-03 1.761992896829e-03 0.0 
0.0 0.0 -8.756698061928e-04 
-1.585509504414e-03 6.854986193214e-05 0.0 
6.854986193214e-05 6.515313053331e-03 0.0 
0.0 0.0 -9.494079867578e-04 
1.950119496099e-04 -2.582141659643e-03 0.0 
-2.582141659643e-03 1.322040652856e-03 0.0 
0.0 0.0 -6.501654010570e-04 
9.460441418101e-04 2.468386529063e-03 0.0 
2.468386529063e-03 3.152412733386e-04 0.0 
0.0 0.0 -5.405508922066e-04 
5.243693270813e-04 -2.069869324487e-03 0.0 
-2.069869324487e-03 1.498209352589e-03 0.0 
0.0 0.0 -8.668194341442e-04 
3.838921855015e-04 2.277447822888e-03 0.0 
2.277447822888e-03 8.700555358996e-04 0.0 
0.0 0.0 -5.374061663147e-04 
0.0 0.0 0.0 
0.0 0.0 0.0 
0.0 0.0 0.0 
-1.483198277618e-03 2.721071498371e-04 0.0 
2.721071498371e-04 8.165740664983e-03 0.0 
0.0 0.0 -1.223389224544e-03 
-1.535254932215e-03 2.717190120097e-04 0.0 
2.717190120097e-04 7.854733745092e-03 0.0 
0.0 0.0 -1.157435638217e-03 
1.714590457335e-06 -7.115369139069e-04 0.0 
-7.115369139069e-04 4.515715516867e-04 0.0 
0.0 0.0 -1.942654894903e-04 
3.878432463794e-04 -2.223127307783e-03 0.0 
-2.223127307783e-03 1.630928175518e-03 0.0 
0.0 0.0 -8.651877522419e-04 
-2.798740380973e-05 -2.159694096595e-03 0.0 
-2.159694096595e-03 1.431561792510e-03 0.0 
0.0 0.0 -6.015318808715e-04 
-1.829025907462e-04 -2.119639284792e-03 0.0 
-2.119639284792e-03 1.714857895665e-03 0.0 
0.0 0.0 -6.565522735366e-04 
-1.017733219917e-03 3.364025437069e-03 0.0 
3.364025437069e-03 4.897256146699e-03 0.0 
0.0 0.0 -1.100737838324e-03 
5.257552207879e-04 2.875144563505e-03 0.0 
2.875144563505e-03 1.853285664374e-03 0.0 
0.0 0.0 -9.467522836136e-04 
-8.497134643687e-04 3.433349612216e-03 0.0 
3.433349612216e-03 4.357788075562e-03 0.0 
0.0 0.0 -1.064854740548e-03 
2.203223739880e-03 -1.975974349915e-03 0.0 
-1.975974349915e-03 -9.232686555068e-04 0.0 
0.0 0.0 -5.485521790173e-04 
-1.446388010227e-03 1.342323327112e-04 0.0 
1.342323327112e-04 5.217166277606e-03 0.0 
0.0 0.0 -7.105917616147e-04 
-1.197543499266e-03 -1.810608894436e-03 0.0 
-1.810608894436e-03 5.325302062837e-03 0.0 
0.0 0.0 -1.281538364137e-03 
-1.726353625323e-04 -1.807145954026e-03 0.0 
-1.807145954026e-03 1.497715714659e-03 0.0 
0.0 0.0 -5.678915794829e-04 
2.222123337372e-04 -1.923483587620e-05 0.0 
-1.923483587620e-05 2.651456288210e-03 0.0 
0.0 0.0 -1.121221582973e-03 
1.156875498320e-03 3.056207622502e-03 0.0 
3.056207622502e-03 4.647886417546e-04 0.0 
0.0 0.0 -6.949989171746e-04 
-5.424671300971e-04 -2.887281693977e-04 0.0 
-2.887281693977e-04 1.675559050033e-03 0.0 
0.0 0.0 -3.973267919445e-04 
-1.360155763593e-03 3.097514486866e-03 0.0 
3.097514486866e-03 5.194571229381e-03 0.0 
0.0 0.0 -1.015166614560e-03 
2.718308302872e-03 -7.221702226311e-04 0.0 
-7.221702226311e-04 -1.243788694723e-03 0.0 
0.0 0.0 -6.319369749211e-04 
2.871950510200e-04 -2.057705951039e-03 0.0 
-2.057705951039e-03 8.654869691646e-04 0.0 
0.0 0.0 -4.940065800791e-04 
2.698077562336e-03 -1.426914000199e-03 0.0 
-1.426914000199e-03 -1.126048004927e-03 0.0 
0.0 0.0 -6.737269531753e-04 
-2.035172389928e-03 5.681521720379e-05 0.0 
5.681521720379e-05 5.818689376235e-03 0.0 
0.0 0.0 -1.069816800183e-03 
-1.547603731344e-03 2.557965682965e-03 0.0 
2.557965682965e-03 5.760856088478e-03 0.0 
0.0 0.0 -1.020980360542e-03 
3.535477644423e-04 -2.409077986448e-03 0.0 
-2.409077986448e-03 9.968391477695e-04 0.0 
0.0 0.0 -5.787372480908e-04 
-1.638049386592e-03 -5.261620418510e-04 0.0 
-5.261620418510e-04 4.881654597217e-03 0.0 
0.0 0.0 -1.045407985144e-03 
-1.131069213092e-03 3.339054972024e-03 0.0 
3.339054972024e-03 5.004170711216e-03 0.0 
0.0 0.0 -1.071782534217e-03 
7.849170986353e-05 2.002784816892e-03 0.0 
2.002784816892e-03 3.087471277383e-03 0.0 
0.0 0.0 -1.109893377180e-03 
5.081300325286e-04 -2.843687144981e-03 0.0 
-2.843687144981e-03 1.050709009186e-03 0.0 
0.0 0.0 -6.680738750205e-04 
-8.485846460072e-04 -2.429092323345e-04 0.0 
-2.429092323345e-04 2.701937249489e-03 0.0 
0.0 0.0 -7.163733244607e-04 
1.054276666128e-03 2.747625866901e-03 0.0 
2.747625866901e-03 4.044819373952e-04 0.0 
0.0 0.0 -6.251822586527e-04 
-1.556582639800e-03 -2.026954580916e-04 0.0 
-2.026954580916e-04 6.435079901625e-03 0.0 
0.0 0.0 -9.278975173457e-04 
6.306613738133e-04 -2.843431008643e-03 0.0 
-2.843431008643e-03 9.087558385051e-04 0.0 
0.0 0.0 -6.597502338507e-04 
-1.151665732863e-03 3.368799827368e-03 0.0 
3.368799827368e-03 6.118948746046e-03 0.0 
0.0 0.0 -1.269179263065e-03 
-1.428509069589e-03 2.793670889960e-03 0.0 
2.793670889960e-03 7.317810969107e-03 0.0 
0.0 0.0 -1.281197857596e-03 
-1.509195270466e-03 -1.457985023921e-04 0.0 
-1.457985023921e-04 5.771603983327e-03 0.0 
0.0 0.0 -8.387747867703e-04 
-1.581495188537e-03 1.397540288099e-03 0.0 
1.397540288099e-03 8.227342162666e-03 0.0 
0.0 0.0 -1.255037608383e-03 
-1.367281596907e-03 3.139996712098e-03 0.0 
3.139996712098e-03 6.951432883283e-03 0.0 
0.0 0.0 -1.285499913836e-03 
2.109542503114e-03 -1.930775448323e-03 0.0 
-1.930775448323e-03 -7.849211290522e-04 0.0 
0.0 0.0 -5.676948745980e-04 
1.380801218232e-03 -2.351235301793e-03 0.0 
-2.351235301793e-03 -1.698746639676e-04 0.0 
0.0 0.0 -5.189685232560e-04 
-5.757297583633e-04 4.366962327414e-04 0.0 
4.366962327414e-04 4.537400147680e-03 0.0 
0.0 0.0 -1.265535665854e-03 
0.0 0.0 0.0 
0.0 0.0 0.0 
0.0 0.0 0.0 
-8.394320087675e-04 -3.205840844428e-05 0.0 
-3.205840844428e-05 2.565992005118e-03 0.0 
0.0 0.0 -6.072167217314e-04 
-1.628413269992e-03 -1.673586948164e-04 0.0 
-1.673586948164e-04 4.868895534125e-03 0.0 
0.0 0.0 -1.067827858613e-03 
4.161330338528e-04 -2.673128765629e-03 0.0 
-2.673128765629e-03 1.065048131365e-03 0.0 
0.0 0.0 -6.347919279505e-04 
1.927385449734e-03 -2.370761864729e-03 0.0 
-2.370761864729e-03 -5.075034197406e-04 0.0 
0.0 0.0 -6.085208699972e-04 
-3.171269370445e-05 1.814506539183e-03 0.0 
1.814506539183e-03 1.218095740662e-03 0.0 
0.0 0.0 -5.084498772674e-04 
-1.067456340534e-04 1.927365287384e-03 0.0 
1.927365287384e-03 1.436121596143e-03 0.0 
0.0 0.0 -5.697325551813e-04 
-1.696184299969e-03 4.188758800933e-04 0.0 
4.188758800933e-04 5.835163577314e-03 0.0 
0.0 0.0 -8.290026594306e-04 
2.687649412673e-03 -1.534651648036e-03 0.0 
-1.534651648036e-03 -1.236375441606e-03 0.0 
0.0 0.0 -6.219745590288e-04 
-8.374689021838e-04 -7.956683833314e-04 0.0 
-7.956683833314e-04 2.821114433129e-03 0.0 
0.0 0.0 -8.100060677168e-04 
-5.763887782379e-05 2.884104717794e-03 0.0 
2.884104717794e-03 2.960925031656e-03 0.0 
0.0 0.0 -1.077832113627e-03 
-1.357626258592e-03 -2.064052997114e-03 0.0 
-2.064052997114e-03 6.484172296954e-03 0.0 
0.0 0.0 -1.324978758543e-03 
-1.316853930481e-03 -2.171233133158e-03 0.0 
-2.171233133158e-03 6.262828385778e-03 0.0 
0.0 0.0 -1.320624918399e-03 
1.210545566472e-03 -2.440771907645e-03 0.0 
-2.440771907645e-03 2.098806390541e-04 0.0 
0.0 0.0 -6.087540880828e-04 
-1.669792706879e-03 7.585625911679e-04 0.0 
7.585625911679e-04 5.225921064138e-03 0.0 
0.0 0.0 -7.877541558771e-04 
0.0 0.0 0.0 
0.0 0.0 0.0 
0.0 0.0 0.0 
1.526705898496e-04 1.832423170921e-03 0.0 
1.832423170921e-03 9.162592996274e-04 0.0 
0.0 0.0 -4.581128097759e-04 
1.694782762505e-03 -3.278967534484e-03 0.0 
-3.278967534484e-03 -3.718783773796e-04 0.0 
0.0 0.0 -5.669590221966e-04 
7.211551457005e-05 1.826082030850e-03 0.0 
1.826082030850e-03 1.040988995356e-03 0.0 
0.0 0.0 -4.770447899684e-04 
8.520859723696e-04 2.702963814911e-03 0.0 
2.702963814911e-03 1.160586394610e-03 0.0 
0.0 0.0 -8.625738715628e-04 
1.049602008115e-03 -2.610080274348e-03 0.0 
-2.610080274348e-03 3.535904184599e-04 0.0 
0.0 0.0 -6.013681828177e-04 
1.924226435236e-03 -2.386188926630e-03 0.0 
-2.386188926630e-03 -7.021276801157e-04 0.0 
0.0 0.0 -5.237566093371e-04 
8.906199206854e-04 -2.335912402002e-03 0.0 
-2.335912402002e-03 -6.441539282859e-04 0.0 
0.0 0.0 -1.056282824569e-04 
-1.518150307999e-03 2.180517986998e-04 0.0 
2.180517986998e-04 7.814279060755e-03 0.0 
0.0 0.0 -1.176327079312e-03 
1.081599261770e-03 -2.356565631716e-03 0.0 
-2.356565631716e-03 1.958644745057e-04 0.0 
0.0 0.0 -5.474844584040e-04 
-1.503838573524e-03 8.537407365334e-04 0.0 
8.537407365334e-04 8.091641180223e-03 0.0 
0.0 0.0 -1.212957849656e-03 
-1.563004608103e-03 1.345074243690e-04 0.0 
1.345074243690e-04 7.574721874408e-03 0.0 
0.0 0.0 -1.117460450001e-03 
-1.452677521913e-03 3.546154927313e-04 0.0 
3.546154927313e-04 8.989483437301e-03 0.0 
0.0 0.0 -1.319418651152e-03 
-1.573682658163e-03 -6.434523803718e-04 0.0 
-6.434523803718e-04 7.311749488072e-03 0.0 
0.0 0.0 -1.324849633189e-03 
-1.522640732825e-03 1.776300828802e-04 0.0 
1.776300828802e-04 5.910709247101e-03 0.0 
0.0 0.0 -8.315138651140e-04 
8.069897163257e-04 -2.530526196753e-03 0.0 
-2.530526196753e-03 5.619735093356e-04 0.0 
0.0 0.0 -5.866985252834e-04 
-2.779641202251e-04 1.703949019227e-03 0.0 
1.703949019227e-03 1.672572981451e-03 0.0 
0.0 0.0 -5.976895119538e-04 
7.490285409449e-04 -3.064892262470e-03 0.0 
-3.064892262470e-03 9.033898181147e-04 0.0 
0.0 0.0 -7.081792967398e-04 
-1.343328350294e-03 -1.797161006887e-03 0.0 
-1.797161006887e-03 6.496235434020e-03 0.0 
0.0 0.0 -1.343328350294e-03 
1.770851489837e-04 1.574613937019e-03 0.0 
1.574613937019e-03 7.197174740553e-04 0.0 
0.0 0.0 -3.843439813024e-04 
1.884365055557e-04 1.730723292298e-03 0.0 
1.730723292298e-03 7.999529513160e-04 0.0 
0.0 0.0 -4.235954815164e-04 
5.120454739846e-05 4.425631252095e-04 0.0 
4.425631252095e-04 3.081010907522e-03 0.0 
0.0 0.0 -1.156027955174e-03 
-1.600063486753e-03 4.454182285367e-04 0.0 
4.454182285367e-04 5.553533901810e-03 0.0 
0.0 0.0 -7.715229432315e-04 
-1.496300168116e-03 6.368230222668e-04 0.0 
6.368230222668e-04 8.172597464420e-03 0.0 
0.0 0.0 -1.219279742240e-03 
-1.079188820050e-03 3.032068943539e-03 0.0 
3.032068943539e-03 5.044159493797e-03 0.0 
0.0 0.0 -1.069611963270e-03 
-3.125996649260e-04 2.376006221788e-03 0.0 
2.376006221788e-03 3.643123644996e-03 0.0 
0.0 0.0 -1.175036385391e-03 
-1.440706362563e-03 2.765679407787e-03 0.0 
2.765679407787e-03 6.040073424197e-03 0.0 
0.0 0.0 -1.113576918908e-03 
-1.533426048517e-03 3.483355765343e-04 0.0 
3.483355765343e-04 5.830518730214e-03 0.0 
0.0 0.0 -8.542750875040e-04 
4.145616627609e-04 -2.510686493370e-03 0.0 
-2.510686493370e-03 9.700386978898e-04 0.0 
0.0 0.0 -5.934001545646e-04 
5.188237827814e-04 -2.738227656747e-03 0.0 
-2.738227656747e-03 9.760172721955e-04 0.0 
0.0 0.0 -6.406461664186e-04 
-1.559322814184e-03 2.985337068608e-04 0.0 
2.985337068608e-04 6.828450389527e-03 0.0 
0.0 0.0 -9.963059934037e-04 
-1.981024320875e-04 2.157190390334e-03 0.0 
2.157190390334e-03 3.614846179737e-03 0.0 
0.0 0.0 -1.142506377625e-03 
-1.686833987170e-03 9.535938984725e-04 0.0 
9.535938984725e-04 4.721621554871e-03 0.0 
0.0 0.0 -7.386355146563e-04 
-1.463703012742e-03 6.266658719779e-05 0.0 
6.266658719779e-05 5.604963867248e-03 0.0 
0.0 0.0 -7.676068998053e-04 
-1.515549186513e-03 3.697674288865e-05 0.0 
3.697674288865e-05 5.930448629907e-03 0.0 
0.0 0.0 -8.242303029217e-04 
-1.592254304502e-03 -3.437592554212e-05 0.0 
-3.437592554212e-05 6.006274404460e-03 0.0 
0.0 0.0 -8.467401457521e-04 
1.475757754276e-03 -1.289294546505e-03 0.0 
-1.289294546505e-03 -9.417009757612e-04 0.0 
0.0 0.0 -2.288814765064e-04 
2.490964718879e-04 -2.584180670905e-03 0.0 
-2.584180670905e-03 1.241456993708e-03 0.0 
0.0 0.0 -6.388086281126e-04 
-1.524289002589e-03 1.055576054381e-03 0.0 
1.055576054381e-03 8.572679794113e-03 0.0 
0.0 0.0 -1.269310366786e-03 
-1.609154575879e-03 5.927002029432e-05 0.0 
5.927002029432e-05 6.380922986421e-03 0.0 
0.0 0.0 -9.150577043801e-04 
-9.099437829954e-04 1.617518349232e-03 0.0 
1.617518349232e-03 4.661075676102e-03 0.0 
0.0 0.0 -1.295322057178e-03 
-1.481137119135e-03 2.911611220647e-03 0.0 
2.911611220647e-03 6.859531798370e-03 0.0 
0.0 0.0 -1.215577547940e-03 
-1.339321083005e-03 2.882096422564e-03 0.0 
2.882096422564e-03 5.250850385045e-03 0.0 
0.0 0.0 -1.012565562176e-03 
-1.640900346179e-03 1.517631824607e-03 0.0 
1.517631824607e-03 7.910833663920e-03 0.0 
0.0 0.0 -1.214907066889e-03 
-1.059540956040e-03 -1.334979029727e-03 0.0 
-1.334979029727e-03 3.594823103032e-03 0.0 
0.0 0.0 -9.974489174931e-04 
-1.013156646554e-03 -1.368118382081e-03 0.0 
-1.368118382081e-03 3.447232281497e-03 0.0 
0.0 0.0 -9.464646038184e-04 
-1.053605941392e-03 -1.657375267239e-03 0.0 
-1.657375267239e-03 4.938505543447e-03 0.0 
0.0 0.0 -1.226851238141e-03 
0.0 0.0 0.0 
0.0 0.0 0.0 
0.0 0.0 0.0 
-9.591830860426e-04 -2.723797524876e-04 0.0 
-2.723797524876e-04 2.822378765221e-03 0.0 
0.0 0.0 -5.777536677209e-04 
-1.342405754833e-03 2.832331701177e-03 0.0 
2.832331701177e-03 5.623065616304e-03 0.0 
0.0 0.0 -1.342405754833e-03 
-1.232108481340e-04 -4.438827698639e-05 0.0 
-4.438827698639e-05 1.111663342237e-03 0.0 
0.0 0.0 -2.724401835525e-04 
-1.475085458698e-03 8.547838585484e-05 0.0 
8.547838585484e-05 5.344445388578e-03 0.0 
0.0 0.0 -7.870118106326e-04 
-3.041907190684e-04 -2.929338759418e-04 0.0 
-2.929338759418e-04 3.995006628254e-03 0.0 
0.0 0.0 -1.213461936786e-03 
-7.635875139995e-06 -1.081722019394e-03 0.0 
-1.081722019394e-03 7.060070926500e-04 0.0 
0.0 0.0 -2.993019503614e-04 
1.505773719545e-03 -8.263394782763e-04 0.0 
-8.263394782763e-04 -6.336254798976e-05 0.0 
0.0 0.0 -2.382422751898e-04 
-1.473393185853e-03 1.353598964677e-03 0.0 
1.353598964677e-03 8.746165970417e-03 0.0 
0.0 0.0 -1.324389858384e-03 
-1.521392000938e-03 2.912474066464e-04 0.0 
2.912474066464e-04 4.940937614450e-03 0.0 
0.0 0.0 -7.294542769151e-04 
-1.503978704987e-03 1.473877310897e-03 0.0 
1.473877310897e-03 8.344062810088e-03 0.0 
0.0 0.0 -1.261418349269e-03 
-5.327298325037e-04 3.575837178235e-04 0.0 
3.575837178235e-04 3.642687559217e-03 0.0 
0.0 0.0 -1.231858344535e-03 
-1.518533849991e-03 1.071472041001e-04 0.0 
1.071472041001e-04 4.942575461076e-03 0.0 
0.0 0.0 -7.289279708929e-04 
0.0 0.0 0.0 
0.0 0.0 0.0 
0.0 0.0 0.0 
-1.422405127371e-03 1.531540875437e-04 0.0 
1.531540875437e-04 8.427070743481e-03 0.0 
0.0 0.0 -1.284140717545e-03 
-3.551011727049e-04 -7.009671051649e-04 0.0 
-7.009671051649e-04 1.319322733909e-03 0.0 
0.0 0.0 -3.479328688591e-04 
-1.509662464093e-03 1.187111297047e-03 0.0 
1.187111297047e-03 8.089981201651e-03 0.0 
0.0 0.0 -1.232184317627e-03 
-1.343095105526e-03 -1.540983607491e-03 0.0 
-1.540983607491e-03 6.702452530061e-03 0.0 
0.0 0.0 -1.343095105526e-03 
-1.554707611052e-03 2.562602135152e-03 0.0 
2.562602135152e-03 7.111310188225e-03 0.0 
0.0 0.0 -1.225700354592e-03 
2.173759747286e-03 -1.419935824116e-03 0.0 
-1.419935824116e-03 -1.114841162711e-03 0.0 
0.0 0.0 -4.538222505322e-04 
-1.741082427331e-03 1.054953553281e-03 0.0 
1.054953553281e-03 5.737463170789e-03 0.0 
0.0 0.0 -8.279144014868e-04 
-1.224194647146e-03 -9.467109309958e-04 0.0 
-9.467109309958e-04 3.877522353974e-03 0.0 
0.0 0.0 -9.630043323905e-04 
6.517046530341e-05 2.327281681424e-03 0.0 
2.327281681424e-03 2.984838930140e-03 0.0 
0.0 0.0 -1.077599360682e-03 
-1.012701747737e-03 1.623436123670e-03 0.0 
1.623436123670e-03 5.329514602195e-03 0.0 
0.0 0.0 -1.326997735404e-03 
-1.585109039191e-03 2.780588406276e-04 0.0 
2.780588406276e-04 7.347999637207e-03 0.0 
0.0 0.0 -1.061614915164e-03 
-1.008710860855e-03 1.312542642731e-03 0.0 
1.312542642731e-03 5.209194240256e-03 0.0 
0.0 0.0 -1.325870641008e-03 
3.673422327950e-04 -3.776124720398e-04 0.0 
-3.776124720398e-04 -3.673422327950e-04 0.0 
0.0 0.0 0.0 
-1.430003464036e-03 -1.969193470792e-03 0.0 
-1.969193470792e-03 6.388366935774e-03 0.0 
0.0 0.0 -1.277656510522e-03 
2.370305391374e-03 -2.562363361486e-03 0.0 
-2.562363361486e-03 -6.166549384612e-04 0.0 
0.0 0.0 -7.515644798196e-04 
-3.100324176095e-04 -2.408320728402e-04 0.0 
-2.408320728402e-04 1.151728361162e-03 0.0 
0.0 0.0 -2.782378078114e-04 
-7.322007537650e-04 -9.555468943118e-04 0.0 
-9.555468943118e-04 4.734669521016e-03 0.0 
0.0 0.0 -1.270335377537e-03 
-1.575122942683e-03 2.171152972729e-03 0.0 
2.171152972729e-03 8.127111917130e-03 0.0 
0.0 0.0 -1.270603359501e-03 
-1.496692965649e-03 1.319095711312e-03 0.0 
1.319095711312e-03 8.369617950368e-03 0.0 
0.0 0.0 -1.289850838753e-03 
-1.498527200318e-03 3.689228571039e-04 0.0 
3.689228571039e-04 5.398355138859e-03 0.0 
0.0 0.0 -7.762633204683e-04 
-1.744558354744e-03 1.631310676350e-03 0.0 
1.631310676350e-03 5.391746306119e-03 0.0 
0.0 0.0 -8.489529362435e-04 
7.301121496963e-04 2.437654514774e-03 0.0 
2.437654514774e-03 5.848010967936e-04 0.0 
0.0 0.0 -5.635342484957e-04 
-1.427601509624e-03 3.175353375607e-03 0.0 
3.175353375607e-03 7.125136039489e-03 0.0 
0.0 0.0 -1.273041473476e-03 
-1.038080719471e-03 -6.334570087308e-04 0.0 
-6.334570087308e-04 3.329140480764e-03 0.0 
0.0 0.0 -8.764843149172e-04 
1.193441318594e-03 2.328942464463e-03 0.0 
2.328942464463e-03 3.040131158427e-05 0.0 
0.0 0.0 -5.245039843621e-04 
-2.118585962265e-05 2.523859735457e-03 0.0 
2.523859735457e-03 3.050030047244e-03 0.0 
0.0 0.0 -1.110141529071e-03 
-1.425138137322e-03 6.470798395339e-05 0.0 
6.470798395339e-05 5.179988142805e-03 0.0 
0.0 0.0 -7.096328662732e-04 
-1.517585115342e-03 2.260614719474e-03 0.0 
2.260614719474e-03 7.684999531697e-03 0.0 
0.0 0.0 -1.237729719596e-03 
-1.422593477448e-03 -1.670334611249e-04 0.0 
-1.670334611249e-04 8.888807101193e-03 0.0 
0.0 0.0 -1.321509982054e-03 
-1.343732204276e-03 1.010834953933e-04 0.0 
1.010834953933e-04 8.744729451207e-03 0.0 
0.0 0.0 -1.343732204276e-03 
3.369232126492e-03 1.693280559230e-04 0.0 
1.693280559230e-04 -1.155841201236e-03 0.0 
0.0 0.0 -6.603666768414e-05 
2.499766675984e-03 -2.952033461878e-04 0.0 
-2.952033461878e-04 -9.796559826583e-04 0.0 
0.0 0.0 -1.532902690118e-04 
-1.416942128620e-03 -1.624029676109e-04 0.0 
-1.624029676109e-04 5.054688992973e-03 0.0 
0.0 0.0 -7.318233512793e-04 
-1.419792893404e-03 3.183177604522e-05 0.0 
3.183177604522e-05 5.196638347434e-03 0.0 
0.0 0.0 -7.096011290571e-04 
-1.343732204276e-03 -2.406936037715e-04 0.0 
-2.406936037715e-04 7.113693032304e-03 0.0 
0.0 0.0 -1.343732204276e-03 
-1.562203585825e-03 1.305016391806e-04 0.0 
1.305016391806e-04 7.294302504235e-03 0.0 
0.0 0.0 -1.321509982054e-03 
2.262811037578e-03 -4.868403071367e-05 0.0 
-4.868403071367e-05 -4.447467837794e-04 0.0 
0.0 0.0 -2.434615908245e-04 
0.0 0.0 0.0 
0.0 0.0 0.0 
0.0 0.0 0.0 
-1.642313907969e-03 -1.143113511814e-03 0.0 
-1.143113511814e-03 6.403076283141e-03 0.0 
0.0 0.0 -1.230181737024e-03 
-7.148794360532e-04 3.164508669310e-03 0.0 
3.164508669310e-03 4.742447412984e-03 0.0 
0.0 0.0 -1.209364118140e-03 
-5.258157990741e-04 -7.879783393280e-04 0.0 
-7.879783393280e-04 1.688623542397e-03 0.0 
0.0 0.0 -3.144533898553e-04 
-1.351136438279e-03 -1.975186179308e-03 0.0 
-1.975186179308e-03 5.772523348463e-03 0.0 
0.0 0.0 -1.240191881334e-03 
-1.731554632553e-03 -2.342398403810e-04 0.0 
-2.342398403810e-04 5.123990276158e-03 0.0 
0.0 0.0 -1.081029080859e-03 
-1.535845139517e-03 -3.312382585291e-04 0.0 
-3.312382585291e-04 4.629162629476e-03 0.0 
0.0 0.0 -1.039595904837e-03 
-1.612928706957e-03 3.113730006726e-04 0.0 
3.113730006726e-04 6.721792739589e-03 0.0 
0.0 0.0 -9.400782610458e-04 
1.101421061084e-03 -2.909512193680e-03 0.0 
-2.909512193680e-03 4.457906368086e-04 0.0 
0.0 0.0 -6.630907276683e-04 
3.131506035800e-04 2.556520147165e-03 0.0 
2.556520147165e-03 2.414585707981e-03 0.0 
0.0 0.0 -1.011657465016e-03 
-1.177300482134e-05 -1.092061392265e-03 0.0 
-1.092061392265e-03 1.284900459222e-03 0.0 
0.0 0.0 -3.097963217911e-04 
-1.220126007134e-03 -1.262020264430e-03 0.0 
-1.262020264430e-03 3.977099482089e-03 0.0 
0.0 0.0 -1.029451436826e-03 
-1.346849968967e-03 3.153673073291e-03 0.0 
3.153673073291e-03 6.593026306646e-03 0.0 
0.0 0.0 -1.240519096027e-03 
-1.527894889398e-03 -1.936018657920e-04 0.0 
-1.936018657920e-04 8.104261702945e-03 0.0 
0.0 0.0 -1.191726112421e-03 
-1.479396360357e-03 -2.989971596189e-04 0.0 
-2.989971596189e-04 4.503238817139e-03 0.0 
0.0 0.0 -1.046336039097e-03 
-1.560842421660e-03 -8.540456832086e-05 0.0 
-8.540456832086e-05 6.232717148515e-03 0.0 
0.0 0.0 -8.745659502648e-04 
-9.955423334814e-04 3.339003162247e-03 0.0 
3.339003162247e-03 5.559555520798e-03 0.0 
0.0 0.0 -1.217119345309e-03 
-1.351529115626e-03 2.876362203055e-03 0.0 
2.876362203055e-03 5.976398005188e-03 0.0 
0.0 0.0 -1.140944809983e-03 
-1.341013158963e-03 2.862888668155e-03 0.0 
2.862888668155e-03 5.603065071307e-03 0.0 
0.0 0.0 -1.076426999079e-03 
-1.492882998354e-03 1.325735461083e-04 0.0 
1.325735461083e-04 4.933841446090e-03 0.0 
0.0 0.0 -7.312123441678e-04 
6.172998628868e-04 2.362607397547e-03 0.0 
2.362607397547e-03 1.812787626421e-03 0.0 
0.0 0.0 -9.763781674015e-04 
-1.502422605285e-03 2.514513612527e-03 0.0 
2.514513612527e-03 7.380594194812e-03 0.0 
0.0 0.0 -1.231404929774e-03 
-8.003792871297e-04 -5.108965880218e-04 0.0 
-5.108965880218e-04 2.603757424793e-03 0.0 
0.0 0.0 -7.107894383394e-04 
1.779720377328e-04 -1.298870854502e-03 0.0 
-1.298870854502e-03 4.337348693579e-04 0.0 
0.0 0.0 -1.164291272224e-04 
-9.970216092610e-04 3.010797291644e-03 0.0 
3.010797291644e-03 5.249606407737e-03 0.0 
0.0 0.0 -1.185975225609e-03 
2.191734593223e-04 5.610847358595e-04 0.0 
5.610847358595e-04 2.599656196276e-03 0.0 
0.0 0.0 -1.123538223191e-03 
1.172927684885e-03 -2.889497196016e-03 0.0 
-2.889497196016e-03 3.300442381492e-04 0.0 
0.0 0.0 -6.441308241577e-04 
-1.607945126080e-03 -1.740082688204e-05 0.0 
-1.740082688204e-05 7.004832338719e-03 0.0 
0.0 0.0 -9.893338170986e-04 
-1.512467681835e-03 -1.269144618606e-03 0.0 
-1.269144618606e-03 6.614649124568e-03 0.0 
0.0 0.0 -1.282739585886e-03 
-7.843923001707e-04 3.075094105696e-03 0.0 
3.075094105696e-03 4.595487038338e-03 0.0 
0.0 0.0 -1.182073443778e-03 
-8.715817867822e-04 3.121670101447e-03 0.0 
3.121670101447e-03 5.293578095492e-03 0.0 
0.0 0.0 -1.215129606110e-03 
-1.899421587696e-03 -4.002758172017e-04 0.0 
-4.002758172017e-04 5.518204821451e-03 0.0 
0.0 0.0 -1.079026350805e-03 
0.0 0.0 0.0 
0.0 0.0 0.0 
0.0 0.0 0.0 
-4.777114925537e-05 1.704067356774e-03 0.0 
1.704067356774e-03 1.178107469511e-03 0.0 
0.0 0.0 -4.844298515380e-04 
4.263341666864e-04 2.474607686413e-03 0.0 
2.474607686413e-03 9.338852604604e-04 0.0 
0.0 0.0 -5.829511830629e-04 
-1.721178049984e-03 1.085378291777e-03 0.0 
1.085378291777e-03 5.473315709064e-03 0.0 
0.0 0.0 -8.471429939415e-04 
4.228609678746e-04 3.021260051708e-03 0.0 
3.021260051708e-03 1.732467119469e-03 0.0 
0.0 0.0 -9.237120374330e-04 
-1.533799557255e-03 6.728038073689e-04 0.0 
6.728038073689e-04 8.237501439824e-03 0.0 
0.0 0.0 -1.236541257690e-03 
-8.719226860915e-04 7.267313533335e-04 0.0 
7.267313533335e-04 4.230245890387e-03 0.0 
0.0 0.0 -1.282325209426e-03 
2.964520960670e-04 -1.978928276592e-03 0.0 
-1.978928276592e-03 8.042557840210e-04 0.0 
0.0 0.0 -4.717319486092e-04 
1.319048487483e-04 -1.576566321261e-03 0.0 
-1.576566321261e-03 7.886992305850e-04 0.0 
0.0 0.0 -3.945446054286e-04 
1.817673251283e-04 1.876543985894e-03 0.0 
1.876543985894e-03 9.002005847285e-04 0.0 
0.0 0.0 -4.637005327958e-04 
-1.570049742763e-03 5.369425789645e-04 0.0 
5.369425789645e-04 6.963270594615e-03 0.0 
0.0 0.0 -1.019242131223e-03 
-9.308723645065e-04 -1.101236884891e-03 0.0 
-1.101236884891e-03 3.096386949501e-03 0.0 
0.0 0.0 -8.257845680531e-04 
-1.587305306336e-03 1.706805244546e-03 0.0 
1.706805244546e-03 7.938189703079e-03 0.0 
0.0 0.0 -1.241298427557e-03 
-4.566804084497e-04 -4.114264182866e-04 0.0 
-4.114264182866e-04 1.625098335496e-03 0.0 
0.0 0.0 -2.728146851408e-04 
-4.193612778590e-04 8.066391699243e-04 0.0 
8.066391699243e-04 3.619638834416e-03 0.0 
0.0 0.0 -1.221152601860e-03 
-1.613149922033e-03 6.729604599103e-04 0.0 
6.729604599103e-04 5.730913827298e-03 0.0 
0.0 0.0 -8.343732341398e-04 
-9.805029045404e-04 2.320290812643e-03 0.0 
2.320290812643e-03 4.821535310315e-03 0.0 
0.0 0.0 -1.286815605725e-03 
-1.972178768770e-04 2.471490219589e-03 0.0 
2.471490219589e-03 3.599121568157e-03 0.0 
0.0 0.0 -1.111121968474e-03 
-1.760642934702e-03 1.153303269584e-03 0.0 
1.153303269584e-03 5.427908306702e-03 0.0 
0.0 0.0 -8.465141837044e-04 
-8.764965121591e-04 -1.556039561585e-03 0.0 
-1.556039561585e-03 5.086777567782e-03 0.0 
0.0 0.0 -1.269142588751e-03 
-1.551933899349e-03 2.142615053803e-03 0.0 
2.142615053803e-03 8.208999000424e-03 0.0 
0.0 0.0 -1.272727265576e-03 
-1.482418812719e-03 2.636741981307e-04 0.0 
2.636741981307e-04 8.672320582664e-03 0.0 
0.0 0.0 -1.271339345674e-03 
2.794840770511e-04 1.877110949586e-03 0.0 
1.877110949586e-03 7.644572491491e-04 0.0 
0.0 0.0 -4.474034255144e-04 
-1.548384254494e-03 1.778472603870e-03 0.0 
1.778472603870e-03 7.853183226647e-03 0.0 
0.0 0.0 -1.218309553141e-03 
-1.238984078820e-03 3.237221125149e-03 0.0 
3.237221125149e-03 5.979697278194e-03 0.0 
0.0 0.0 -1.286645293131e-03 
-2.338452424877e-04 4.838955254747e-04 0.0 
4.838955254747e-04 3.810277403162e-03 0.0 
0.0 0.0 -1.211735819529e-03 
-2.641749654371e-04 2.730651329854e-03 0.0 
2.730651329854e-03 3.539043083142e-03 0.0 
0.0 0.0 -1.143254064081e-03 
-1.342665167303e-03 -1.913201158816e-03 0.0 
-1.913201158816e-03 6.140194887135e-03 0.0 
0.0 0.0 -1.342665167303e-03 
-1.336562494305e-03 3.148621666370e-03 0.0 
3.148621666370e-03 5.546558025077e-03 0.0 
0.0 0.0 -1.079065255302e-03 
0.0 0.0 0.0 
0.0 0.0 0.0 
0.0 0.0 0.0 
1.128782554056e-03 2.722430850094e-03 0.0 
2.722430850094e-03 3.671628183846e-04 0.0 
0.0 0.0 -6.411194453319e-04 
-1.438782275937e-03 2.878593628370e-03 0.0 
2.878593628370e-03 6.406037302073e-03 0.0 
0.0 0.0 -1.176936364471e-03 
-1.717609899646e-03 1.241798828460e-03 0.0 
1.241798828460e-03 5.908300544731e-03 0.0 
0.0 0.0 -8.884613587993e-04 
-1.780913372705e-03 -9.535977727778e-04 0.0 
-9.535977727778e-04 6.697114639858e-03 0.0 
0.0 0.0 -1.221994126432e-03 
-4.533386727007e-04 2.366129578243e-03 0.0 
2.366129578243e-03 4.141621556580e-03 0.0 
0.0 0.0 -1.177009544428e-03 
-1.321487320261e-03 -1.869174225829e-03 0.0 
-1.869174225829e-03 5.949052928407e-03 0.0 
0.0 0.0 -1.292249833993e-03 
-1.557982079132e-03 5.560473992337e-04 0.0 
5.560473992337e-04 7.430714466144e-03 0.0 
0.0 0.0 -1.085521458831e-03 
-9.906508321286e-04 2.010874064209e-03 0.0 
2.010874064209e-03 4.656220140669e-03 0.0 
0.0 0.0 -1.288973456333e-03 
-8.669493969727e-04 -1.781456295850e-03 0.0 
-1.781456295850e-03 4.656567585957e-03 0.0 
0.0 0.0 -1.233322439334e-03 
-8.389834207113e-04 -1.353105162080e-03 0.0 
-1.353105162080e-03 4.612963758963e-03 0.0 
0.0 0.0 -1.235043566395e-03 
-1.060688043098e-03 -7.830630523890e-04 0.0 
-7.830630523890e-04 3.332470677800e-03 0.0 
0.0 0.0 -8.113697483009e-04 
-1.399514092732e-03 -1.981208132211e-03 0.0 
-1.981208132211e-03 6.677395424695e-03 0.0 
0.0 0.0 -1.325641941534e-03 
-1.659266455691e-03 6.538953700681e-04 0.0 
6.538953700681e-04 5.459969626810e-03 0.0 
0.0 0.0 -7.662153309038e-04 
-1.522339522893e-03 2.785636433653e-04 0.0 
2.785636433653e-04 8.220976080768e-03 0.0 
0.0 0.0 -1.217406395242e-03 
2.069000998586e-04 -1.834555044401e-03 0.0 
-1.834555044401e-03 8.418202147660e-04 0.0 
0.0 0.0 -4.494515634106e-04 
-1.554320641115e-03 9.540049576088e-05 0.0 
9.540049576088e-05 8.023345832809e-03 0.0 
0.0 0.0 -1.163202487293e-03 
-1.605625159736e-03 1.859754007895e-04 0.0 
1.859754007895e-04 7.063048343461e-03 0.0 
0.0 0.0 -9.926133712568e-04 
1.071864880333e-03 1.610051896133e-04 0.0 
1.610051896133e-04 5.200375252643e-04 0.0 
0.0 0.0 -3.474471837849e-04 
1.832184275694e-03 -1.682280732148e-03 0.0 
-1.682280732148e-03 -1.155510517394e-03 0.0 
0.0 0.0 -2.900030392716e-04 
-1.244256880666e-03 3.271621003319e-03 0.0 
3.271621003319e-03 5.486132487448e-03 0.0 
0.0 0.0 -1.107581195644e-03 
-1.451044372397e-03 1.126612148562e-03 0.0 
1.126612148562e-03 8.289352558878e-03 0.0 
0.0 0.0 -1.285368862661e-03 
-1.527299749628e-03 6.691441746447e-05 0.0 
6.691441746447e-05 8.328526928916e-03 0.0 
0.0 0.0 -1.223917301752e-03 
-6.542601835067e-04 2.123935983624e-03 0.0 
2.123935983624e-03 4.536265029875e-03 0.0 
0.0 0.0 -1.264779455601e-03 
-1.569067467187e-03 4.931081965661e-04 0.0 
4.931081965661e-04 6.107235089411e-03 0.0 
0.0 0.0 -8.807565902733e-04 
9.036251718301e-04 -7.928332989266e-04 0.0 
-7.928332989266e-04 8.196583140466e-05 0.0 
0.0 0.0 -1.521090440113e-04 
0.0 0.0 0.0 
0.0 0.0 0.0 
0.0 0.0 0.0 
1.535104090838e-04 -8.781412906566e-04 0.0 
-8.781412906566e-04 3.080308650687e-04 0.0 
0.0 0.0 -1.564070233212e-04 
2.353484151011e-04 -2.169776398881e-03 0.0 
-2.169776398881e-03 1.011611602068e-03 0.0 
0.0 0.0 -5.344114359296e-04 
2.549808648129e-05 1.354636410697e-03 0.0 
1.354636410697e-03 -2.549808648128e-05 0.0 
0.0 0.0 0.0 
-1.313634282752e-03 -1.068658817985e-03 0.0 
-1.068658817985e-03 4.125079470398e-03 0.0 
0.0 0.0 -9.906016899089e-04 
-1.765538454854e-03 -6.603659762189e-04 0.0 
-6.603659762189e-04 6.689629757519e-03 0.0 
0.0 0.0 -1.222305993939e-03 
-1.487013992754e-03 2.874720261212e-03 0.0 
2.874720261212e-03 7.173251573241e-03 0.0 
0.0 0.0 -1.222833113937e-03 
-1.810465878115e-03 1.368618358307e-03 0.0 
1.368618358307e-03 5.754603684206e-03 0.0 
0.0 0.0 -8.826313165011e-04 
-9.427899726930e-04 -1.641697169279e-03 0.0 
-1.641697169279e-03 3.388954329502e-03 0.0 
0.0 0.0 -9.886704355714e-04 
-1.052300381815e-03 -2.069501750766e-03 0.0 
-2.069501750766e-03 5.090082794775e-03 0.0 
0.0 0.0 -1.221067908166e-03 
-3.450149565899e-04 -4.408348736528e-04 0.0 
-4.408348736528e-04 3.924699322023e-03 0.0 
0.0 0.0 -1.208702654310e-03 
-8.170914780341e-04 2.664423274710e-03 0.0 
2.664423274710e-03 5.146096323449e-03 0.0 
0.0 0.0 -1.272252409145e-03 
-1.123992376730e-03 3.068252591852e-03 0.0 
3.068252591852e-03 5.507273388894e-03 0.0 
0.0 0.0 -1.237422270938e-03 
-1.253834785736e-03 3.291285599942e-03 0.0 
3.291285599942e-03 5.877546624236e-03 0.0 
0.0 0.0 -1.171232062679e-03 
5.704301253037e-05 -1.249012332624e-03 0.0 
-1.249012332624e-03 7.024151054082e-04 0.0 
0.0 0.0 -3.254820505451e-04 
0.0 0.0 0.0 
0.0 0.0 0.0 
0.0 0.0 0.0 
-1.712539485778e-03 -1.411450056388e-03 0.0 
-1.411450056388e-03 6.539673002672e-03 0.0 
0.0 0.0 -1.223662873675e-03 
4.574946163465e-04 -1.248756071680e-04 0.0 
-1.248756071680e-04 4.764925333501e-04 0.0 
0.0 0.0 -3.004112795925e-04 
4.253951230566e-04 3.287859358848e-05 0.0 
3.287859358848e-05 7.852927410903e-04 0.0 
0.0 0.0 -3.059539021820e-04 
3.569372191111e-04 1.397839525162e-03 0.0 
1.397839525162e-03 1.545362028711e-04 0.0 
0.0 0.0 -2.192028951352e-04 
1.631271963867e-04 -1.346040378322e-03 0.0 
-1.346040378322e-03 7.094587977712e-04 0.0 
0.0 0.0 -2.452105594499e-04 
-1.114394941751e-03 -1.506329218264e-03 0.0 
-1.506329218264e-03 4.944157592562e-03 0.0 
0.0 0.0 -1.288571152055e-03 
-1.352715823829e-03 3.152231925611e-03 0.0 
3.152231925611e-03 6.563761337094e-03 0.0 
0.0 0.0 -1.290113636706e-03 
-1.510579169811e-03 9.854603377599e-04 0.0 
9.854603377599e-04 8.241359475843e-03 0.0 
0.0 0.0 -1.236907757659e-03 
-1.086519748050e-03 2.592005204986e-03 0.0 
2.592005204986e-03 5.044458595201e-03 0.0 
0.0 0.0 -1.292605224168e-03 
-2.276922230483e-04 -7.087333384445e-04 0.0 
-7.087333384445e-04 3.411401019740e-03 0.0 
0.0 0.0 -1.176879138244e-03 
-1.566246162816e-03 5.074519573883e-04 0.0 
5.074519573883e-04 6.374166084480e-03 0.0 
0.0 0.0 -9.170130443517e-04 
-1.345069444888e-03 1.513726926191e-03 0.0 
1.513726926191e-03 8.492915807412e-03 0.0 
0.0 0.0 -1.345069444888e-03 
1.877003485193e-03 -3.080309129991e-03 0.0 
-3.080309129991e-03 -5.962554255729e-04 0.0 
0.0 0.0 -5.488920255517e-04 
-1.475350828104e-03 1.976985984706e-04 0.0 
1.976985984706e-04 5.152730599786e-03 0.0 
0.0 0.0 -7.083073883397e-04 
7.042658253586e-04 -2.920094682842e-03 0.0 
-2.920094682842e-03 7.774626018425e-04 0.0 
0.0 0.0 -6.350264688005e-04 
7.675081391674e-04 -5.290525383807e-04 0.0 
-5.290525383807e-04 -3.861513785839e-05 0.0 
0.0 0.0 -2.518608130650e-04 
-1.493015975364e-03 -1.542117778823e-03 0.0 
-1.542117778823e-03 7.001843856807e-03 0.0 
0.0 0.0 -1.323850096553e-03 
-1.762927026530e-03 1.105745086140e-03 0.0 
1.105745086140e-03 5.347670343178e-03 0.0 
0.0 0.0 -7.731261162940e-04 
3.059071642176e-04 -4.769524246547e-04 0.0 
-4.769524246547e-04 1.116375202047e-03 0.0 
0.0 0.0 -3.136165521777e-04 
-1.289952526759e-03 -6.554530809443e-04 0.0 
-6.554530809443e-04 4.022238421528e-03 0.0 
0.0 0.0 -9.854929843998e-04 
-1.353447502636e-03 3.372255620603e-03 0.0 
3.372255620603e-03 6.903608554072e-03 0.0 
0.0 0.0 -1.276804206569e-03 
-1.580153705301e-03 9.463034913401e-04 0.0 
9.463034913401e-04 8.179177676168e-03 0.0 
0.0 0.0 -1.228616961883e-03 
-1.459295938370e-03 2.235750315535e-03 0.0 
2.235750315535e-03 7.840317348904e-03 0.0 
0.0 0.0 -1.289666537713e-03 
-1.042366719392e-03 -4.130279661277e-04 0.0 
-4.130279661277e-04 3.166645294064e-03 0.0 
0.0 0.0 -7.209785830746e-04 
0.0 0.0 0.0 
0.0 0.0 0.0 
0.0 0.0 0.0 
-1.330660736049e-03 -2.112854558462e-03 0.0 
-2.112854558462e-03 6.026587435622e-03 0.0 
0.0 0.0 -1.273144391159e-03 
-1.420679226607e-03 1.845062484055e-04 0.0 
1.845062484055e-04 8.984274218415e-03 0.0 
0.0 0.0 -1.325353038101e-03 
-1.599270300318e-03 -4.031472723049e-04 0.0 
-4.031472723049e-04 7.370420628954e-03 0.0 
0.0 0.0 -1.323783523096e-03 
-1.454892267765e-03 1.410388417337e-04 0.0 
1.410388417337e-04 5.404570969644e-03 0.0 
0.0 0.0 -7.673431308700e-04 
-5.798667066363e-04 -4.017993081382e-04 0.0 
-4.017993081382e-04 3.786051546347e-03 0.0 
0.0 0.0 -1.231867668451e-03 
-2.703199839151e-04 -3.327091265360e-04 0.0 
-3.327091265360e-04 1.134795808800e-03 0.0 
0.0 0.0 -2.923189298614e-04 
-1.540435464510e-03 1.974801601423e-03 0.0 
1.974801601423e-03 7.945053936292e-03 0.0 
0.0 0.0 -1.241575510934e-03 
7.093719106213e-04 -6.473525039570e-04 0.0 
-6.473525039570e-04 -6.146240833120e-06 0.0 
0.0 0.0 -2.201278046225e-04 
-1.035309467581e-03 -9.652751717972e-04 0.0 
-9.652751717972e-04 4.607784315543e-03 0.0 
0.0 0.0 -1.290713494763e-03 
-1.546892534215e-03 2.536580836788e-03 0.0 
2.536580836788e-03 7.963102419275e-03 0.0 
0.0 0.0 -1.268585396830e-03 
0.0 0.0 0.0 
0.0 0.0 0.0 
0.0 0.0 0.0 
-7.125328406643e-04 2.854381537959e-03 0.0 
2.854381537959e-03 4.690081759982e-03 0.0 
0.0 0.0 -1.178018281593e-03 
-1.581615712652e-03 6.406846432010e-05 0.0 
6.406846432010e-05 7.204958832163e-03 0.0 
0.0 0.0 -1.053859681778e-03 
-1.422126824857e-03 8.354035890497e-04 0.0 
8.354035890497e-04 8.383690559568e-03 0.0 
0.0 0.0 -1.289687241943e-03 
-1.346242744377e-03 1.394088556631e-03 0.0 
1.394088556631e-03 5.074174046536e-03 0.0 
0.0 0.0 -1.346242744377e-03 
-1.579226085277e-03 -2.236352472968e-04 0.0 
-2.236352472968e-04 6.673772320033e-03 0.0 
0.0 0.0 -9.627310317561e-04 
-1.352695242601e-03 3.190608641684e-03 0.0 
3.190608641684e-03 6.804006829943e-03 0.0 
0.0 0.0 -1.292510612804e-03 
-1.606507542629e-03 2.038310361331e-03 0.0 
2.038310361331e-03 7.743565210436e-03 0.0 
0.0 0.0 -1.236507170568e-03 
-1.568883613753e-03 1.757297800362e-04 0.0 
1.757297800362e-04 6.816128580048e-03 0.0 
0.0 0.0 -1.009625451247e-03 
-1.338198193755e-03 3.094920805743e-03 0.0 
3.094920805743e-03 6.452958212167e-03 0.0 
0.0 0.0 -1.247605899893e-03 
-1.069270980668e-03 -8.397930297141e-04 0.0 
-8.397930297141e-04 3.454365731416e-03 0.0 
0.0 0.0 -9.078723690805e-04 
-1.462959848022e-03 3.355807606363e-05 0.0 
3.355807606363e-05 4.925884328863e-03 0.0 
0.0 0.0 -7.287847301676e-04 
-7.853622933110e-04 2.799478897718e-03 0.0 
2.799478897718e-03 4.730479437110e-03 0.0 
0.0 0.0 -1.239219007812e-03 
-1.427801408329e-03 2.279610176079e-04 0.0 
2.279610176079e-04 8.599854493521e-03 0.0 
0.0 0.0 -1.286506427510e-03 
2.364174244584e-03 -3.920966346370e-05 0.0 
-3.920966346370e-05 -9.416422440926e-04 0.0 
0.0 0.0 -1.658991634594e-04 
-1.429614866782e-03 7.018012440351e-05 0.0 
7.018012440351e-05 4.945453144079e-03 0.0 
0.0 0.0 -7.284590636140e-04 
-1.619941162379e-03 -3.710140945832e-04 0.0 
-3.710140945832e-04 7.072586371596e-03 0.0 
0.0 0.0 -1.288082484959e-03 
-4.257310582937e-04 -7.375837559217e-04 0.0 
-7.375837559217e-04 1.550072552707e-03 0.0 
0.0 0.0 -4.679105978332e-04 
-2.651775118790e-04 1.741696615315e-04 0.0 
1.741696615315e-04 3.934086569527e-03 0.0 
0.0 0.0 -1.213252366005e-03 
-1.592381110183e-03 2.367463417435e-03 0.0 
2.367463417435e-03 7.496929060090e-03 0.0 
0.0 0.0 -1.225943235494e-03 
-1.523630465134e-03 6.434168762766e-04 0.0 
6.434168762766e-04 8.597347826225e-03 0.0 
0.0 0.0 -1.269037835114e-03 
-5.242932188711e-04 -5.062352980044e-04 0.0 
-5.062352980044e-04 1.580681758625e-03 0.0 
0.0 0.0 -3.173190315717e-04 
9.435665947915e-04 2.759812172338e-03 0.0 
2.759812172338e-03 -2.448701844830e-04 0.0 
0.0 0.0 -2.994413187036e-04 
-1.588603004086e-03 1.309858719882e-04 0.0 
1.309858719882e-04 4.764403352260e-03 0.0 
0.0 0.0 -1.056762885644e-03 
-1.577119311605e-03 2.587547752196e-04 0.0 
2.587547752196e-04 7.701946830658e-03 0.0 
0.0 0.0 -1.120841203304e-03 
0.0 0.0 0.0 
0.0 0.0 0.0 
0.0 0.0 0.0 
-1.448426484907e-03 1.878765382125e-03 0.0 
1.878765382125e-03 8.065670326291e-03 0.0 
0.0 0.0 -1.292233508669e-03 
-1.560868544091e-03 1.573692905966e-04 0.0 
1.573692905966e-04 6.444251121821e-03 0.0 
0.0 0.0 -9.501928138396e-04 
9.548640501235e-04 -2.932790788742e-03 0.0 
-2.932790788742e-03 4.477362362625e-04 0.0 
0.0 0.0 -6.011144084512e-04 
-1.577095330701e-03 2.356135282763e-04 0.0 
2.356135282763e-04 6.152695530289e-03 0.0 
0.0 0.0 -9.030544305944e-04 
-9.123359041244e-04 2.767752077309e-03 0.0 
2.767752077309e-03 5.381455446983e-03 0.0 
0.0 0.0 -1.271643562581e-03 
-1.672772992247e-03 -3.658378199310e-04 0.0 
-3.658378199310e-04 4.968645958279e-03 0.0 
0.0 0.0 -1.058796759180e-03 
-2.951863425782e-04 2.570793680345e-03 0.0 
2.570793680345e-03 2.951863425782e-04 0.0 
0.0 0.0 0.0 
-9.352736057356e-04 -8.421943932676e-04 0.0 
-8.421943932676e-04 3.140704490616e-03 0.0 
0.0 0.0 -9.009998304000e-04 
-1.402484368002e-03 -1.042823096176e-03 0.0 
-1.042823096176e-03 4.352884265014e-03 0.0 
0.0 0.0 -1.017945853013e-03 
-1.735012846972e-03 1.716303062956e-04 0.0 
1.716303062956e-04 5.112807218002e-03 0.0 
0.0 0.0 -1.063010248388e-03 
-5.677318458841e-04 1.906245464939e-03 0.0 
1.906245464939e-03 4.337997414081e-03 0.0 
0.0 0.0 -1.232780192057e-03 
-1.357670205510e-03 -6.381368347671e-04 0.0 
-6.381368347671e-04 4.227863364473e-03 0.0 
0.0 0.0 -1.035743023508e-03 
-1.479273144233e-03 -6.656278634480e-04 0.0 
-6.656278634480e-04 4.508927527855e-03 0.0 
0.0 0.0 -1.032702936181e-03 
1.040523643933e-04 -1.090937755128e-03 0.0 
-1.090937755128e-03 5.650850241542e-04 0.0 
0.0 0.0 -2.287174616664e-04 
-1.350567245042e-03 -1.731169106789e-03 0.0 
-1.731169106789e-03 5.793216621325e-03 0.0 
0.0 0.0 -1.240629869904e-03 
-1.027503594671e-03 3.327843857872e-03 0.0 
3.327843857872e-03 5.261023074075e-03 0.0 
0.0 0.0 -1.186362110037e-03 
1.189612951575e-03 2.308398015229e-03 0.0 
2.308398015229e-03 -4.894900924091e-04 0.0 
0.0 0.0 -3.000526539282e-04 
-1.387676757457e-03 4.952672058335e-05 0.0 
4.952672058335e-05 8.504316401028e-03 0.0 
0.0 0.0 -1.290349483557e-03 
-1.582576424774e-03 -1.560547969950e-04 0.0 
-1.560547969950e-04 7.007946096611e-03 0.0 
0.0 0.0 -1.290356026000e-03 
-1.460183445125e-03 -1.247594329356e-04 0.0 
-1.247594329356e-04 5.521441348557e-03 0.0 
0.0 0.0 -7.639788432047e-04 
-1.578918019610e-03 1.294379469898e-04 0.0 
1.294379469898e-04 6.639288700401e-03 0.0 
0.0 0.0 -9.358343396975e-04 
-1.420511664925e-03 -7.103380260756e-04 0.0 
-7.103380260756e-04 4.349288440906e-03 0.0 
0.0 0.0 -1.005720210571e-03 
-1.359175063422e-03 -8.855188390870e-04 0.0 
-8.855188390870e-04 4.258136974865e-03 0.0 
0.0 0.0 -1.040482674164e-03 
-1.527056262754e-03 -5.709073839489e-04 0.0 
-5.709073839489e-04 4.609671028000e-03 0.0 
0.0 0.0 -1.028873814706e-03 
-1.501496450629e-04 5.539703397871e-04 0.0 
5.539703397871e-04 3.298271412421e-03 0.0 
0.0 0.0 -1.180929064624e-03 
7.927858436439e-04 -3.045537929079e-03 0.0 
-3.045537929079e-03 8.494276970912e-04 0.0 
0.0 0.0 -7.038058031722e-04 
-1.116381248406e-03 3.165697137737e-03 0.0 
3.165697137737e-03 5.872062490069e-03 0.0 
0.0 0.0 -1.217816617926e-03 
-1.516247589342e-03 1.508277039824e-04 0.0 
1.508277039824e-04 5.685216966324e-03 0.0 
0.0 0.0 -8.376728236383e-04 
-1.571303365585e-03 1.703335586913e-03 0.0 
1.703335586913e-03 8.300700874157e-03 0.0 
0.0 0.0 -1.272153791098e-03 
-1.928595014899e-04 9.704790717135e-05 0.0 
9.704790717135e-05 3.265405422004e-03 0.0 
0.0 0.0 -1.181257232468e-03 
-1.580055462922e-03 1.466056733213e-04 0.0 
1.466056733213e-04 6.354105997974e-03 0.0 
0.0 0.0 -8.902468719968e-04 
-1.338698042931e-03 3.178297097849e-03 0.0 
3.178297097849e-03 6.247787653213e-03 0.0 
0.0 0.0 -1.201032862555e-03 
-6.620052052400e-04 2.218466919512e-03 0.0 
2.218466919512e-03 4.229615591751e-03 0.0 
0.0 0.0 -1.236767197193e-03 
-7.541183664370e-04 2.280565164163e-03 0.0 
2.280565164163e-03 4.995952357256e-03 0.0 
0.0 0.0 -1.270271405117e-03 
1.293451072768e-04 1.010666469426e-03 0.0 
1.010666469426e-03 -1.293451072768e-04 0.0 
0.0 0.0 0.0 
-1.368734881355e-03 2.988428396573e-03 0.0 
2.988428396573e-03 6.291274088760e-03 0.0 
0.0 0.0 -1.198686027802e-03 
-1.300476394130e-03 3.433743793017e-03 0.0 
3.433743793017e-03 6.406654162985e-03 0.0 
0.0 0.0 -1.227078865044e-03 
7.248957313196e-04 -1.043101674158e-03 0.0 
-1.043101674158e-03 5.245352296454e-04 0.0 
0.0 0.0 -2.668574800815e-04 
-1.256459332456e-03 -8.842282026345e-04 0.0 
-8.842282026345e-04 4.000740750754e-03 0.0 
0.0 0.0 -1.019774149770e-03 
0.0 0.0 0.0 
0.0 0.0 0.0 
0.0 0.0 0.0 
-1.414281382184e-03 3.115423266543e-03 0.0 
3.115423266543e-03 6.751118296047e-03 0.0 
0.0 0.0 -1.230789928679e-03 
-8.477680808939e-04 -1.104727016907e-04 0.0 
-1.104727016907e-04 2.712288170416e-03 0.0 
0.0 0.0 -3.822222222222e-04 
-9.055925510058e-04 -3.092032376263e-05 0.0 
-3.092032376263e-05 2.525233824261e-03 0.0 
0.0 0.0 -4.120916506577e-04 
-8.473674362076e-04 -7.481330322279e-05 0.0 
-7.481330322279e-05 2.845770630963e-03 0.0 
0.0 0.0 -3.822222222222e-04 
-9.089090308611e-04 -1.259977891390e-04 0.0 
-1.259977891390e-04 2.534087815895e-03 0.0 
0.0 0.0 -4.117636123367e-04 
-8.486541312913e-04 -1.060356270188e-04 0.0 
-1.060356270188e-04 2.850864472627e-03 0.0 
0.0 0.0 -3.822222222222e-04 
-9.067527636706e-04 -1.634553189751e-04 0.0 
-1.634553189751e-04 2.532180853737e-03 0.0 
0.0 0.0 -4.138361446519e-04 
-8.518838397089e-04 -1.391673231664e-04 0.0 
-1.391673231664e-04 2.849897303172e-03 0.0 
0.0 0.0 -3.822222222222e-04 
-9.038033703738e-04 -1.960391794180e-04 0.0 
-1.960391794180e-04 2.529549366092e-03 0.0 
0.0 0.0 -4.169466925021e-04 
-8.567719304589e-04 -1.693969290221e-04 0.0 
-1.693969290221e-04 2.849102124234e-03 0.0 
0.0 0.0 -3.822222222222e-04 
-9.001783977425e-04 -2.254727016246e-04 0.0 
-2.254727016246e-04 2.526405000261e-03 0.0 
0.0 0.0 -4.210486354725e-04 
-8.632001890766e-04 -1.956147496017e-04 0.0 
-1.956147496017e-04 2.848340584109e-03 0.0 
0.0 0.0 -3.822222222222e-04 
-8.958258707308e-04 -2.506885608621e-04 0.0 
-2.506885608621e-04 2.522614663946e-03 0.0 
0.0 0.0 -4.262345017756e-04 
-8.713995955112e-04 -2.166532315458e-04 0.0 
-2.166532315458e-04 2.847429121701e-03 0.0 
0.0 0.0 -3.822222222222e-04 
-8.907881229033e-04 -2.700951512637e-04 0.0 
-2.700951512637e-04 2.518049837640e-03 0.0 
0.0 0.0 -4.324218244576e-04 
-8.817440870532e-04 -2.301760048267e-04 0.0 
-2.301760048267e-04 2.845924759909e-03 0.0 
0.0 0.0 -3.822222222222e-04 
-8.851922506948e-04 -2.806029007086e-04 0.0 
-2.806029007086e-04 2.512873500627e-03 0.0 
0.0 0.0 -4.397142335037e-04 
-8.950333328024e-04 -2.339954622603e-04 0.0 
-2.339954622603e-04 2.844152330925e-03 0.0 
0.0 0.0 -3.822222222222e-04 
-5.153963270574e-04 1.386957263231e-03 0.0 
1.386957263231e-03 2.118048286245e-03 0.0 
0.0 0.0 -6.868508396518e-04 
-8.789409301159e-04 -2.802453109947e-04 0.0 
-2.802453109947e-04 2.507031228923e-03 0.0 
0.0 0.0 -4.484506065581e-04 
-9.121593109776e-04 -2.255242270632e-04 0.0 
-2.255242270632e-04 2.842211436296e-03 0.0 
0.0 0.0 -3.822222222222e-04 
-5.250635173879e-04 1.212370847594e-03 0.0 
1.212370847594e-03 2.064879973941e-03 0.0 
0.0 0.0 -6.599213385227e-04 
-8.718884062418e-04 -2.665655449899e-04 0.0 
-2.665655449899e-04 2.500353226196e-03 0.0 
0.0 0.0 -4.589341481330e-04 
-9.340828443643e-04 -2.017720311588e-04 0.0 
-2.017720311588e-04 2.840105257953e-03 0.0 
0.0 0.0 -3.822222222222e-04 
-8.637232966567e-04 -2.371299809629e-04 0.0 
-2.371299809629e-04 2.492260010494e-03 0.0 
0.0 0.0 -4.713274934483e-04 
-9.616016624064e-04 -1.586137009988e-04 0.0 
-1.586137009988e-04 2.837108011281e-03 0.0 
0.0 0.0 -3.822222222222e-04 
-8.538485000622e-04 -1.885493409314e-04 0.0 
-1.885493409314e-04 2.481749201505e-03 0.0 
0.0 0.0 -4.858861960434e-04 
-4.559297430570e-04 1.444187656161e-03 0.0 
1.444187656161e-03 1.981448427249e-03 0.0 
0.0 0.0 -6.537937217965e-04 
-9.957574324210e-04 -9.024577915214e-05 0.0 
-9.024577915214e-05 2.832059975401e-03 0.0 
0.0 0.0 -3.822222222222e-04 
-8.420411067301e-04 -1.147262326721e-04 0.0 
-1.147262326721e-04 2.468867339442e-03 0.0 
0.0 0.0 -5.027800290162e-04 
-1.039055821930e-03 8.224520741657e-06 0.0 
8.224520741657e-06 2.826232556126e-03 0.0 
0.0 0.0 -3.822222222222e-04 
-8.257325877732e-04 -1.684371319749e-05 0.0 
-1.684371319749e-05 2.451050949731e-03 0.0 
0.0 0.0 -5.243127177637e-04 
-1.025570190768e-03 1.403256994831e-04 0.0 
1.403256994831e-04 2.797038362784e-03 0.0 
0.0 0.0 -4.023247379336e-04 
-8.050294719308e-04 1.124410670381e-04 0.0 
1.124410670381e-04 2.428661755662e-03 0.0 
0.0 0.0 -5.489567910448e-04 
-9.923239288200e-04 3.047136110578e-04 0.0 
3.047136110578e-04 2.756100007675e-03 0.0 
0.0 0.0 -4.324342652679e-04 
-7.731797138455e-04 2.625302848105e-04 0.0 
2.625302848105e-04 2.393418728170e-03 0.0 
0.0 0.0 -5.820900338912e-04 
-9.418682114520e-04 5.073920785542e-04 0.0 
5.073920785542e-04 2.692555105023e-03 0.0 
0.0 0.0 -4.713646722125e-04 
-7.342469081316e-04 4.657530843841e-04 0.0 
4.657530843841e-04 2.352483617576e-03 0.0 
0.0 0.0 -6.159470284615e-04 
-4.680647983613e-04 1.597006220995e-03 0.0 
1.597006220995e-03 2.093451131542e-03 0.0 
0.0 0.0 -6.965941427916e-04 
-6.693040365848e-04 6.579016910303e-04 0.0 
6.579016910303e-04 2.279268426426e-03 0.0 
0.0 0.0 -6.692217709364e-04 
-8.781023439948e-04 7.411318868586e-04 0.0 
7.411318868586e-04 2.622293177478e-03 0.0 
0.0 0.0 -5.216549963272e-04 
-6.008061203709e-04 9.652302155092e-04 0.0 
9.652302155092e-04 2.191809086520e-03 0.0 
0.0 0.0 -6.818584140638e-04 
-7.708778420605e-04 1.010625125185e-03 0.0 
1.010625125185e-03 2.489715384094e-03 0.0 
0.0 0.0 -5.889796576362e-04 
-6.578980111303e-04 1.296813025753e-03 0.0 
1.296813025753e-03 2.378601915831e-03 0.0 
0.0 0.0 -6.666224173880e-04 
-4.404410338588e-04 1.372140347312e-03 0.0 
1.372140347312e-03 1.904382068725e-03 0.0 
0.0 0.0 -6.274033006571e-04 
-9.474349750393e-04 -3.758791366539e-04 0.0 
-3.758791366539e-04 2.750895276144e-03 0.0 
0.0 0.0 -3.933333333333e-04 
-8.340817167273e-04 3.227874807035e-04 0.0 
3.227874807035e-04 2.547302196216e-03 0.0 
0.0 0.0 -3.933333333333e-04 
-9.429649573043e-04 -6.274108253705e-05 0.0 
-6.274108253705e-05 2.720570547882e-03 0.0 
0.0 0.0 -4.155555555556e-04 
-8.366259340555e-04 2.206832879955e-05 0.0 
2.206832879955e-05 2.587932870487e-03 0.0 
0.0 0.0 -3.711111111111e-04 
-3.311872650881e-04 1.664414027805e-03 0.0 
1.664414027805e-03 1.777880150707e-03 0.0 
0.0 0.0 -6.200112366940e-04 
-1.054441290555e-03 -1.060399512644e-04 0.0 
-1.060399512644e-04 3.174442276916e-03 0.0 
0.0 0.0 -4.711111111111e-04 
-9.755270099610e-04 -1.952460710779e-05 0.0 
-1.952460710779e-05 3.352199228394e-03 0.0 
0.0 0.0 -4.488888888889e-04 
-1.057199720646e-03 -6.628466702925e-05 0.0 
-6.628466702925e-05 3.038898740510e-03 0.0 
0.0 0.0 -4.711111111111e-04 
-9.777400934430e-04 -1.091555938379e-04 0.0 
-1.091555938379e-04 3.340691704280e-03 0.0 
0.0 0.0 -4.488888888889e-04 
-1.063155427674e-03 -8.985841896749e-05 0.0 
-8.985841896749e-05 3.031383342538e-03 0.0 
0.0 0.0 -4.711111111111e-04 
-9.824799286931e-04 -1.393428267415e-04 0.0 
-1.393428267415e-04 3.339683266468e-03 0.0 
0.0 0.0 -4.488888888889e-04 
-1.073307870603e-03 -1.145055690525e-04 0.0 
-1.145055690525e-04 3.031741938321e-03 0.0 
0.0 0.0 -4.711111111111e-04 
-9.898779257340e-04 -1.643666591562e-04 0.0 
-1.643666591562e-04 3.339619340617e-03 0.0 
0.0 0.0 -4.488888888889e-04 
-1.086323477342e-03 -1.363877390947e-04 0.0 
-1.363877390947e-04 3.033165334032e-03 0.0 
0.0 0.0 -4.711111111111e-04 
-9.998925141734e-04 -1.855881002644e-04 0.0 
-1.855881002644e-04 3.339705936799e-03 0.0 
0.0 0.0 -4.488888888889e-04 
-1.096406818734e-03 -1.532318205826e-04 0.0 
-1.532318205826e-04 3.033255551597e-03 0.0 
0.0 0.0 -4.730783955673e-04 
-1.012777399154e-03 -2.017536892965e-04 0.0 
-2.017536892965e-04 3.339844219624e-03 0.0 
0.0 0.0 -4.488888888889e-04 
-1.090664367884e-03 -1.644430523049e-04 0.0 
-1.644430523049e-04 3.027933117942e-03 0.0 
0.0 0.0 -4.808618943584e-04 
-1.028301113362e-03 -2.114471527184e-04 0.0 
-2.114471527184e-04 3.338551741007e-03 0.0 
0.0 0.0 -4.488888888889e-04 
-1.083736580133e-03 -1.666451993329e-04 0.0 
-1.666451993329e-04 3.020843768517e-03 0.0 
0.0 0.0 -4.898707554272e-04 
-1.046943436856e-03 -2.106797342195e-04 0.0 
-2.106797342195e-04 3.335962166517e-03 0.0 
0.0 0.0 -4.488888888889e-04 
-7.831296468648e-04 1.319072651067e-03 0.0 
1.319072651067e-03 2.747172324488e-03 0.0 
0.0 0.0 -7.609479695289e-04 
-1.075855056023e-03 -1.563532757849e-04 0.0 
-1.563532757849e-04 3.012345218943e-03 0.0 
0.0 0.0 -5.000242388326e-04 
-1.069747672987e-03 -1.955783713019e-04 0.0 
-1.955783713019e-04 3.333029570668e-03 0.0 
0.0 0.0 -4.488888888889e-04 
-7.248550649329e-04 1.406358254198e-03 0.0 
1.406358254198e-03 2.595476185353e-03 0.0 
0.0 0.0 -7.137751583000e-04 
-1.066434352541e-03 -1.316180070833e-04 0.0 
-1.316180070833e-04 3.002197182527e-03 0.0 
0.0 0.0 -5.124314741735e-04 
-1.097598068092e-03 -1.637972448482e-04 0.0 
-1.637972448482e-04 3.329403421166e-03 0.0 
0.0 0.0 -4.488888888889e-04 
-7.533669482919e-04 1.204166970056e-03 0.0 
1.204166970056e-03 2.642836543444e-03 0.0 
0.0 0.0 -7.468747930895e-04 
-1.055416203304e-03 -9.203251338284e-05 0.0 
-9.203251338284e-05 2.990073804986e-03 0.0 
0.0 0.0 -5.267381924031e-04 
-1.130750834273e-03 -1.116921931994e-04 0.0 
-1.116921931994e-04 3.323665525655e-03 0.0 
0.0 0.0 -4.488888888889e-04 
-1.042171778077e-03 -3.455033738422e-05 0.0 
-3.455033738422e-05 2.974699293394e-03 0.0 
0.0 0.0 -5.428660870381e-04 
-1.169484212689e-03 -3.358102239734e-05 0.0 
-3.358102239734e-05 3.314256616847e-03 0.0 
0.0 0.0 -4.488888888889e-04 
-1.025316934061e-03 4.498860631349e-05 0.0 
4.498860631349e-05 2.954024136839e-03 0.0 
0.0 0.0 -5.614484225926e-04 
-1.214143038317e-03 7.887627576123e-05 0.0 
7.887627576123e-05 3.298257734444e-03 0.0 
0.0 0.0 -4.488888888889e-04 
-7.199346667002e-04 1.548959497082e-03 0.0 
1.548959497082e-03 2.702620874801e-03 0.0 
0.0 0.0 -7.999777769487e-04 
-1.005056088549e-03 1.605680175197e-04 0.0 
1.605680175197e-04 2.928996212084e-03 0.0 
0.0 0.0 -5.816817243943e-04 
-1.194628629214e-03 2.284813269436e-04 0.0 
2.284813269436e-04 3.262807979926e-03 0.0 
0.0 0.0 -4.714398725188e-04 
-9.770701467258e-04 2.900797214075e-04 0.0 
2.900797214075e-04 2.895539247012e-03 0.0 
0.0 0.0 -6.084761808760e-04 
-1.150691492803e-03 4.112920914748e-04 0.0 
4.112920914748e-04 3.201011145854e-03 0.0 
0.0 0.0 -5.031356658855e-04 
-1.102080003132e-03 6.314047135334e-04 0.0 
6.314047135334e-04 3.144102696047e-03 0.0 
0.0 0.0 -5.414573098104e-04 
-9.427914102034e-04 4.734021578769e-04 0.0 
4.734021578769e-04 2.854814901825e-03 0.0 
0.0 0.0 -6.353729821390e-04 
-1.011724826405e-03 8.872743635075e-04 0.0 
8.872743635075e-04 3.016176770478e-03 0.0 
0.0 0.0 -5.911070349773e-04 
-8.910802690226e-04 6.354474711150e-04 0.0 
6.354474711150e-04 2.790560843145e-03 0.0 
0.0 0.0 -6.750826519681e-04 
-9.261251575016e-04 1.192686017243e-03 0.0 
1.192686017243e-03 2.932735209306e-03 0.0 
0.0 0.0 -6.517013890130e-04 
-8.336613140921e-04 9.428984709957e-04 0.0 
9.428984709957e-04 2.722476745029e-03 0.0 
0.0 0.0 -6.953468723645e-04 
-6.543021565792e-04 1.370902121002e-03 0.0 
1.370902121002e-03 2.495211230633e-03 0.0 
0.0 0.0 -7.782223337189e-04 
-9.573633010252e-04 -3.758595971567e-04 0.0 
-3.758595971567e-04 3.138492562280e-03 0.0 
0.0 0.0 -4.600000000000e-04 
-1.070084496450e-03 3.260967853827e-04 0.0 
3.260967853827e-04 3.340817972329e-03 0.0 
0.0 0.0 -4.600000000000e-04 
-9.651871795266e-04 -5.955810820259e-05 0.0 
-5.955810820259e-05 3.169772296161e-03 0.0 
0.0 0.0 -4.377777777778e-04 
-1.064380492171e-03 2.392363188093e-05 0.0 
2.392363188093e-05 3.297778316814e-03 0.0 
0.0 0.0 -4.822222222222e-04 
-5.704666912088e-04 1.617849901649e-03 0.0 
1.617849901649e-03 2.384447177274e-03 0.0 
0.0 0.0 -7.774202083136e-04 
-1.098885735000e-03 -9.932841691003e-05 0.0 
-9.932841691003e-05 3.711008544298e-03 0.0 
0.0 0.0 -5.155555555556e-04 
-1.168462067443e-03 -8.558937578339e-06 0.0 
-8.558937578339e-06 3.528865523027e-03 0.0 
0.0 0.0 -5.377777777778e-04 
-1.101644165090e-03 -4.995934151532e-05 0.0 
-4.995934151532e-05 3.841935165134e-03 0.0 
0.0 0.0 -5.155555555556e-04 
-1.170694924485e-03 -8.717992149991e-05 0.0 
-8.717992149991e-05 3.536462684656e-03 0.0 
0.0 0.0 -5.377777777778e-04 
-1.107599872119e-03 -6.223086959302e-05 0.0 
-6.223086959302e-05 3.845472707205e-03 0.0 
0.0 0.0 -5.155555555556e-04 
-1.181271355677e-03 -1.042178337503e-04 0.0 
-1.042178337503e-04 3.538247230035e-03 0.0 
0.0 0.0 -5.377777777778e-04 
-1.117752315047e-03 -7.784351567095e-05 0.0 
-7.784351567095e-05 3.846307941154e-03 0.0 
0.0 0.0 -5.155555555556e-04 
-1.192658306015e-03 -1.193867036393e-04 0.0 
-1.193867036393e-04 3.539182551016e-03 0.0 
0.0 0.0 -5.377777777778e-04 
-1.130767921787e-03 -8.794783012842e-05 0.0 
-8.794783012842e-05 3.845743987908e-03 0.0 
0.0 0.0 -5.155555555556e-04 
-1.210173940783e-03 -1.287275247693e-04 0.0 
-1.287275247693e-04 3.541285429521e-03 0.0 
0.0 0.0 -5.377777777778e-04 
-1.147405946802e-03 -9.309166024428e-05 0.0 
-9.309166024428e-05 3.846138881089e-03 0.0 
0.0 0.0 -5.155555555556e-04 
-1.230284092040e-03 -1.329076598989e-04 0.0 
-1.329076598989e-04 3.543463507866e-03 0.0 
0.0 0.0 -5.377777777778e-04 
-1.167594603574e-03 -9.130051004344e-05 0.0 
-9.130051004344e-05 3.846054057724e-03 0.0 
0.0 0.0 -5.155555555556e-04 
-1.257222365411e-03 -1.323215631345e-04 0.0 
-1.323215631345e-04 3.545265649495e-03 0.0 
0.0 0.0 -5.377777777778e-04 
-1.190679714427e-03 -8.065933747456e-05 0.0 
-8.065933747456e-05 3.844271498324e-03 0.0 
0.0 0.0 -5.155555555556e-04 
-1.072061725773e-03 1.181075520675e-03 0.0 
1.181075520675e-03 3.333527226650e-03 0.0 
0.0 0.0 -7.283378183804e-04 
-1.281962566836e-03 -1.205561474005e-04 0.0 
-1.205561474005e-04 3.543719900527e-03 0.0 
0.0 0.0 -5.377777777778e-04 
-1.019291723586e-03 1.089044048788e-03 0.0 
1.089044048788e-03 3.195052180348e-03 0.0 
0.0 0.0 -7.244127351333e-04 
-1.216630828162e-03 -5.217094280109e-05 0.0 
-5.217094280109e-05 3.837261921334e-03 0.0 
0.0 0.0 -5.155555555556e-04 
-1.278612193971e-03 -8.527996152039e-05 0.0 
-8.527996152039e-05 3.532526708308e-03 0.0 
0.0 0.0 -5.485944179258e-04 
-1.248566532597e-03 -8.063337581444e-06 0.0 
-8.063337581444e-06 3.832196745573e-03 0.0 
0.0 0.0 -5.155555555556e-04 
-1.265136211354e-03 -3.710354583219e-05 0.0 
-3.710354583219e-05 3.516310959499e-03 0.0 
0.0 0.0 -5.642304945314e-04 
-1.285253076073e-03 5.378705676948e-05 0.0 
5.378705676948e-05 3.825167274507e-03 0.0 
0.0 0.0 -5.155555555556e-04 
-1.249016317751e-03 2.783290865771e-05 0.0 
2.783290865771e-05 3.495315634217e-03 0.0 
0.0 0.0 -5.808897987891e-04 
-1.009506465037e-03 1.312718317251e-03 0.0 
1.312718317251e-03 3.173615454217e-03 0.0 
0.0 0.0 -6.840081157839e-04 
-1.325793724936e-03 1.409910150458e-04 0.0 
1.409910150458e-04 3.811895021444e-03 0.0 
0.0 0.0 -5.155555555556e-04 
-1.228491986619e-03 1.177167741922e-04 0.0 
1.177167741922e-04 3.467495695501e-03 0.0 
0.0 0.0 -6.000309252581e-04 
-1.370873242614e-03 2.586300978522e-04 0.0 
2.586300978522e-04 3.792690245387e-03 0.0 
0.0 0.0 -5.155555555556e-04 
-1.200813378474e-03 2.299684609271e-04 0.0 
2.299684609271e-04 3.428363493249e-03 0.0 
0.0 0.0 -6.226598288582e-04 
-1.373356089150e-03 4.171425679384e-04 0.0 
4.171425679384e-04 3.744750078480e-03 0.0 
0.0 0.0 -5.289384626357e-04 
-1.172212083606e-03 4.058181090915e-04 0.0 
4.058181090915e-04 3.389456744915e-03 0.0 
0.0 0.0 -6.422847164987e-04 
-1.331867317601e-03 6.009358889080e-04 0.0 
6.009358889080e-04 3.691337826045e-03 0.0 
0.0 0.0 -5.597688379707e-04 
-1.124375463142e-03 5.598543092857e-04 0.0 
5.598543092857e-04 3.325139889709e-03 0.0 
0.0 0.0 -6.782083763712e-04 
-1.081971884868e-03 8.414092324740e-04 0.0 
8.414092324740e-04 3.267902520726e-03 0.0 
0.0 0.0 -6.895475544463e-04 
-1.262668952542e-03 8.256947026051e-04 0.0 
8.256947026051e-04 3.589844959231e-03 0.0 
0.0 0.0 -5.971186907353e-04 
-1.015537556123e-03 1.423057567146e-03 0.0 
1.423057567146e-03 3.272421342693e-03 0.0 
0.0 0.0 -7.495201701545e-04 
-1.195815340391e-03 1.081747061634e-03 0.0 
1.081747061634e-03 3.513584158614e-03 0.0 
0.0 0.0 -6.415873553655e-04 
-9.227522449622e-04 1.272927656652e-03 0.0 
1.272927656652e-03 3.024546989958e-03 0.0 
0.0 0.0 -7.380105449967e-04 
-1.189132313752e-03 -3.719683768529e-04 0.0 
-3.719683768529e-04 3.742930454027e-03 0.0 
0.0 0.0 -5.266666666667e-04 
-1.078621173226e-03 3.329266509439e-04 0.0 
3.329266509439e-04 3.544627002251e-03 0.0 
0.0 0.0 -5.266666666667e-04 
-1.179143088157e-03 -5.341908987877e-05 0.0 
-5.341908987877e-05 3.711783890135e-03 0.0 
0.0 0.0 -5.488888888889e-04 
-1.086602714393e-03 2.829903387263e-05 0.0 
2.829903387263e-05 3.587438639290e-03 0.0 
0.0 0.0 -5.044444444444e-04 
-8.701615349701e-04 1.534050088586e-03 0.0 
1.534050088586e-03 2.982960737759e-03 0.0 
0.0 0.0 -7.564843357160e-04 
-1.281957485101e-03 -9.385206070326e-05 0.0 
-9.385206070326e-05 4.159171467776e-03 0.0 
0.0 0.0 -6.044444444444e-04 
-1.212906511887e-03 8.437755052735e-06 0.0 
8.437755052735e-06 4.332528287739e-03 0.0 
0.0 0.0 -5.822222222222e-04 
-1.270813931325e-03 -4.040562334661e-05 0.0 
-4.040562334661e-05 4.018667514915e-03 0.0 
0.0 0.0 -6.044444444444e-04 
-1.215139368930e-03 -5.723684032478e-05 0.0 
-5.723684032478e-05 4.317315307501e-03 0.0 
0.0 0.0 -5.822222222222e-04 
-1.281549970565e-03 -2.783058806924e-05 0.0 
-2.783058806924e-05 4.009142892880e-03 0.0 
0.0 0.0 -6.044444444444e-04 
-1.225715800122e-03 -5.846153113734e-05 0.0 
-5.846153113734e-05 4.321112834897e-03 0.0 
0.0 0.0 -5.822222222222e-04 
-1.299500121220e-03 -3.892246035712e-05 0.0 
-3.892246035712e-05 4.013014100261e-03 0.0 
0.0 0.0 -6.044444444444e-04 
-1.237102750459e-03 -6.373558927260e-05 0.0 
-6.373558927260e-05 4.316061582639e-03 0.0 
0.0 0.0 -5.822222222222e-04 
-1.310225087603e-03 -3.096991785550e-05 0.0 
-3.096991785550e-05 4.010869733645e-03 0.0 
0.0 0.0 -6.044444444444e-04 
-1.254618385227e-03 -5.449007521454e-05 0.0 
-5.449007521454e-05 4.318709008563e-03 0.0 
0.0 0.0 -5.822222222222e-04 
-1.336238080201e-03 -2.665442879324e-05 0.0 
-2.665442879324e-05 4.014359818630e-03 0.0 
0.0 0.0 -6.044444444444e-04 
-1.274728536484e-03 -4.422787035067e-05 0.0 
-4.422787035067e-05 4.314650827642e-03 0.0 
0.0 0.0 -5.822222222222e-04 
-1.357159993559e-03 -4.580559540248e-06 0.0 
-4.580559540248e-06 4.014254519705e-03 0.0 
0.0 0.0 -6.044444444444e-04 
-1.347537318405e-03 1.010824294751e-03 0.0 
1.010824294751e-03 3.920037731601e-03 0.0 
0.0 0.0 -7.117109445114e-04 
-1.301666809856e-03 -2.047408919469e-05 0.0 
-2.047408919469e-05 4.318063477050e-03 0.0 
0.0 0.0 -5.822222222222e-04 
-1.391706891411e-03 2.751450344882e-06 0.0 
2.751450344882e-06 4.016171820733e-03 0.0 
0.0 0.0 -6.044444444444e-04 
-1.286495538148e-03 1.141604132091e-03 0.0 
1.141604132091e-03 3.755942445139e-03 0.0 
0.0 0.0 -6.690433100420e-04 
-1.326407011280e-03 6.045508856538e-06 0.0 
6.045508856538e-06 4.301570573764e-03 0.0 
0.0 0.0 -5.822222222222e-04 
-1.418163902024e-03 5.346625199558e-05 0.0 
5.346625199558e-05 4.007884251177e-03 0.0 
0.0 0.0 -6.044444444444e-04 
-1.269919325548e-03 9.693842664938e-04 0.0 
9.693842664938e-04 3.741904716454e-03 0.0 
0.0 0.0 -7.168342214570e-04 
-1.359108424707e-03 6.264265058965e-05 0.0 
6.264265058965e-05 4.294165002255e-03 0.0 
0.0 0.0 -5.822222222222e-04 
-1.457002779349e-03 1.155195072583e-04 0.0 
1.155195072583e-04 4.005151940014e-03 0.0 
0.0 0.0 -6.044444444444e-04 
-1.397754652771e-03 1.342537055091e-04 0.0 
1.342537055091e-04 4.286646401950e-03 0.0 
0.0 0.0 -5.822222222222e-04 
-1.439433466702e-03 1.791245333921e-04 0.0 
1.791245333921e-04 3.981926727275e-03 0.0 
0.0 0.0 -6.212763874705e-04 
-1.437165891528e-03 2.256325768342e-04 0.0 
2.256325768342e-04 4.266187057435e-03 0.0 
0.0 0.0 -5.822222222222e-04 
-1.294521127295e-03 1.255121558487e-03 0.0 
1.255121558487e-03 3.846810996671e-03 0.0 
0.0 0.0 -7.256046805931e-04 
-1.416692839753e-03 2.731618170809e-04 0.0 
2.731618170809e-04 3.949147984694e-03 0.0 
0.0 0.0 -6.388990248527e-04 
-1.480404564063e-03 3.507234002411e-04 0.0 
3.507234002411e-04 4.240406141116e-03 0.0 
0.0 0.0 -5.822222222222e-04 
-1.527971474499e-03 5.064010242542e-04 0.0 
5.064010242542e-04 4.210902708310e-03 0.0 
0.0 0.0 -5.822222222222e-04 
-1.387518079071e-03 3.943188623073e-04 0.0 
3.943188623073e-04 3.907645916582e-03 0.0 
0.0 0.0 -6.603292536270e-04 
-1.489199031895e-03 7.040012771420e-04 0.0 
7.040012771420e-04 4.109006438777e-03 0.0 
0.0 0.0 -6.048139398938e-04 
-1.345551405801e-03 5.089205632429e-04 0.0 
5.089205632429e-04 3.844893580165e-03 0.0 
0.0 0.0 -6.886802823100e-04 
-1.449968692027e-03 9.453817318756e-04 0.0 
9.453817318756e-04 4.074908376766e-03 0.0 
0.0 0.0 -6.381145674715e-04 
-1.311416027678e-03 7.842300283395e-04 0.0 
7.842300283395e-04 3.792994805538e-03 0.0 
0.0 0.0 -6.930958846255e-04 
-1.191921020040e-03 1.114101255005e-03 0.0 
1.114101255005e-03 3.585331380848e-03 0.0 
0.0 0.0 -7.187225406772e-04 
-1.177806506474e-03 -3.598193330075e-04 0.0 
-3.598193330075e-04 4.111442480075e-03 0.0 
0.0 0.0 -5.933333333333e-04 
-1.298614317116e-03 3.518912234694e-04 0.0 
3.518912234694e-04 4.327861140627e-03 0.0 
0.0 0.0 -5.933333333333e-04 
-1.201365310379e-03 -4.039072614176e-05 0.0 
-4.039072614176e-05 4.155647570895e-03 0.0 
0.0 0.0 -5.711111111111e-04 
-1.277329052135e-03 4.889702624734e-05 0.0 
4.889702624734e-05 4.269846773222e-03 0.0 
0.0 0.0 -6.155555555555e-04 
-1.165172176686e-03 1.355369621706e-03 0.0 
1.355369621706e-03 3.569481016305e-03 0.0 
0.0 0.0 -7.239602392282e-04 
-1.326401929546e-03 -1.098251756258e-04 0.0 
-1.098251756258e-04 4.716210200324e-03 0.0 
0.0 0.0 -6.488888888889e-04 
-1.341042556431e-03 -1.497445551792e-05 0.0 
-1.497445551792e-05 4.487654478362e-03 0.0 
0.0 0.0 -6.711111111111e-04 
-1.315258375770e-03 -3.279398266088e-06 0.0 
-3.279398266088e-06 4.798065319814e-03 0.0 
0.0 0.0 -6.488888888889e-04 
-1.368317620788e-03 -1.903812859008e-05 0.0 
-1.903812859008e-05 4.498221230458e-03 0.0 
0.0 0.0 -6.711111111111e-04 
-1.325994415009e-03 1.380554954630e-05 0.0 
1.380554954630e-05 4.806277874424e-03 0.0 
0.0 0.0 -6.488888888889e-04 
-1.380848091197e-03 -1.506252807686e-07 0.0 
-1.506252807686e-07 4.508257602630e-03 0.0 
0.0 0.0 -6.711111111111e-04 
-1.343944565664e-03 7.917736370567e-06 0.0 
7.917736370567e-06 4.818216293294e-03 0.0 
0.0 0.0 -6.488888888889e-04 
-1.386616382160e-03 -2.067760603014e-05 0.0 
-2.067760603014e-05 4.497592293928e-03 0.0 
0.0 0.0 -6.711111111111e-04 
-1.354669532048e-03 3.875023501283e-05 0.0 
3.875023501283e-05 4.799753708961e-03 0.0 
0.0 0.0 -6.488888888889e-04 
-1.406907359723e-03 3.160898061574e-05 0.0 
3.160898061574e-05 4.503118169212e-03 0.0 
0.0 0.0 -6.711111111111e-04 
-1.380682524645e-03 5.561565498039e-05 0.0 
5.561565498039e-05 4.809868159536e-03 0.0 
0.0 0.0 -6.488888888889e-04 
-1.435189363615e-03 3.130270196416e-05 0.0 
3.130270196416e-05 4.499809120004e-03 0.0 
0.0 0.0 -6.711111111111e-04 
-1.611535782568e-03 8.671279044143e-04 0.0 
8.671279044143e-04 4.506015908724e-03 0.0 
0.0 0.0 -7.049993574243e-04 
-1.401604438003e-03 9.330713447470e-05 0.0 
9.330713447470e-05 4.797672975585e-03 0.0 
0.0 0.0 -6.488888888889e-04 
-1.512351284449e-03 8.656230693377e-04 0.0 
8.656230693377e-04 4.297202840087e-03 0.0 
0.0 0.0 -7.256265952625e-04 
-1.438154550875e-03 9.647646109404e-05 0.0 
9.647646109404e-05 4.497364060681e-03 0.0 
0.0 0.0 -6.711111111111e-04 
-1.436151335856e-03 1.358395788754e-04 0.0 
1.358395788754e-04 4.800332653133e-03 0.0 
0.0 0.0 -6.488888888889e-04 
-1.499230372271e-03 1.062721523167e-04 0.0 
1.062721523167e-04 4.489570327750e-03 0.0 
0.0 0.0 -6.711111111111e-04 
-1.462608346469e-03 2.027818769099e-04 0.0 
2.027818769099e-04 4.774125764298e-03 0.0 
0.0 0.0 -6.488888888889e-04 
-1.532724437083e-03 1.968943510655e-04 0.0 
1.968943510655e-04 4.482722825432e-03 0.0 
0.0 0.0 -6.711111111111e-04 
-1.501447223794e-03 2.766209172912e-04 0.0 
2.766209172912e-04 4.769601642763e-03 0.0 
0.0 0.0 -6.488888888889e-04 
-1.557872225570e-03 2.720774980370e-04 0.0 
2.720774980370e-04 4.471068660141e-03 0.0 
0.0 0.0 -6.711111111111e-04 
-1.549932705829e-03 1.034482702559e-03 0.0 
1.034482702559e-03 4.338594692453e-03 0.0 
0.0 0.0 -6.619668726724e-04 
-1.539964497909e-03 3.703806189017e-04 0.0 
3.703806189017e-04 4.750827424066e-03 0.0 
0.0 0.0 -6.488888888889e-04 
-1.593531228853e-03 3.628458802930e-04 0.0 
3.628458802930e-04 4.447964373288e-03 0.0 
0.0 0.0 -6.711111111111e-04 
-1.575889340432e-03 4.997462669703e-04 0.0 
4.997462669703e-04 4.711328261492e-03 0.0 
0.0 0.0 -6.488888888889e-04 
-1.590906187641e-03 5.071802277050e-04 0.0 
5.071802277050e-04 4.406658573059e-03 0.0 
0.0 0.0 -6.802731460288e-04 
-1.553155722451e-03 6.861757538348e-04 0.0 
6.861757538348e-04 4.351637703117e-03 0.0 
0.0 0.0 -7.011174395038e-04 
-1.617910879156e-03 6.689844391721e-04 0.0 
6.689844391721e-04 4.669016158580e-03 0.0 
0.0 0.0 -6.488888888889e-04 
-1.669910948397e-03 8.547088690357e-04 0.0 
8.547088690357e-04 4.635783510319e-03 0.0 
0.0 0.0 -6.488888888889e-04 
-1.565389776433e-03 1.113185015486e-03 0.0 
1.113185015486e-03 4.431052665958e-03 0.0 
0.0 0.0 -7.101757656324e-04 
-1.445746577220e-03 9.960480725557e-04 0.0 
9.960480725557e-04 4.140494100543e-03 0.0 
0.0 0.0 -7.083488828164e-04 
-1.382040473179e-03 -3.190058038896e-04 0.0 
-3.190058038896e-04 4.672355147485e-03 0.0 
0.0 0.0 -6.600000000000e-04 
-1.311697345882e-03 3.879464369525e-04 0.0 
3.879464369525e-04 4.545991971317e-03 0.0 
0.0 0.0 -6.600000000000e-04 
-1.392413986569e-03 1.825900643476e-05 0.0 
1.825900643476e-05 4.677427317752e-03 0.0 
0.0 0.0 -6.822222222222e-04 
-1.299551274357e-03 6.542939229750e-05 0.0 
6.542939229750e-05 4.553563985542e-03 0.0 
0.0 0.0 -6.377777777778e-04 
-1.453247710607e-03 1.192137069286e-03 0.0 
1.192137069286e-03 4.178885573169e-03 0.0 
0.0 0.0 -7.047837856643e-04 

SCALARS element_materi_plasti_kappa_shear float
LOOKUP_TABLE default
2.638449368411e-03
2.307880314974e-03
5.668059790692e-03
5.685840565928e-03
3.968724762264e-03
2.227775623383e-03
3.926609063437e-03
2.603981897009e-03
3.959861142706e-03
5.676159459017e-03
3.789460879762e-03
2.166184027025e-03
4.891618303360e-03
4.239593676266e-03
4.915486508882e-03
5.763080812267e-03
3.957109970888e-03
9.864085158713e-05
1.385502992053e-03
1.310811347843e-03
5.684919687706e-03
2.668003560693e-03
2.830444855211e-03
2.887992383095e-03
4.492952651090e-03
3.999825579596e-03
3.772973464484e-03
4.950933107395e-03
4.446798420902e-03
3.154878546999e-03
2.756846244610e-03
9.905717093618e-04
5.968283596401e-03
4.581378283716e-03
4.439297578914e-03
4.887177070447e-03
5.091662130986e-03
3.236750732307e-03
3.615750744496e-03
3.662711387174e-03
3.132788783305e-03
4.003574433579e-03
2.231218125306e-03
3.619781891395e-03
5.614862315127e-03
2.308537538977e-03
2.567928975722e-03
5.479464518158e-03
8.195853011298e-04
4.082692105509e-03
3.028705324844e-03
1.800022130003e-03
3.293726347817e-03
2.963783223813e-03
5.752538416863e-03
2.317662380795e-03
1.680471960424e-03
4.591779384906e-03
1.282089538117e-03
5.743217870912e-03
0.0
3.970806248155e-03
2.953445704213e-03
3.287038662097e-03
4.914099357777e-03
2.824966036789e-03
0.0
5.862902570517e-03
2.620748184046e-03
5.405750626231e-03
4.123083578977e-03
5.868967824668e-03
4.513723255217e-03
9.779064778028e-04
2.287061364591e-03
5.715984257660e-03
5.955190373470e-03
2.225229681788e-03
8.958780141002e-04
2.309523210765e-03
2.623606725785e-03
3.807044789785e-03
2.701030844542e-03
2.283651859930e-03
4.111166650998e-03
4.102179279090e-03
4.228241446566e-03
4.546798255786e-03
5.028716670228e-03
3.901152697752e-03
6.549433232100e-04
3.920650833441e-03
4.955587413478e-03
5.010029682247e-03
6.082587846612e-03
3.583046306489e-03
3.812238424463e-03
4.309414704673e-03
4.319293153851e-03
3.152072117772e-03
3.806820599516e-03
4.894923453038e-03
2.752080048091e-03
3.649256563451e-03
2.864912835823e-03
2.832888651383e-03
4.791522079347e-03
5.257296183678e-03
6.216847982975e-04
4.789762209254e-03
4.946970942302e-03
1.455853485302e-03
3.116660414769e-03
3.646713869330e-03
2.740266031466e-03
2.565730635348e-03
3.111248311779e-03
4.481696809263e-03
4.267994674223e-03
2.744319843462e-03
2.256121814009e-03
4.028535080126e-03
5.125478964429e-03
2.884095006377e-03
1.634010763882e-03
3.343960081378e-03
2.825136596843e-03
3.200895695618e-03
5.840634446843e-03
3.049581698772e-03
3.964814282569e-03
5.700506446746e-03
3.554006587530e-03
3.223480759992e-03
4.236959910874e-03
4.935732901856e-03
4.220142662913e-03
3.782725374417e-03
3.633905000164e-03
3.434454553281e-03
5.667308756995e-03
5.731127569311e-03
4.159105326719e-03
4.705255006089e-03
3.527054415499e-03
3.060528253236e-03
3.807578355912e-03
3.078773552032e-03
3.873095872756e-03
3.370616847933e-03
7.627933793163e-04
4.106841682748e-03
9.591787070335e-04
3.491582586837e-03
3.620903548599e-03
2.658320563693e-03
4.383820681644e-03
2.313821533157e-03
3.280595579104e-03
3.781797064791e-03
3.239934934191e-03
4.666843953081e-03
1.844128017672e-03
4.751176865938e-03
3.949884846235e-03
4.988018486650e-03
3.771577015596e-03
2.896598297230e-03
3.483459645253e-03
3.893786270809e-03
2.298745108616e-03
3.272701774280e-03
4.841674106423e-03
3.900979634001e-03
3.037833255544e-03
3.320787467051e-03
5.050201609921e-03
3.079663805871e-03
4.649906474496e-03
5.561012058297e-03
2.890227526471e-03
2.943961554453e-03
2.210045688094e-03
3.349611072643e-03
2.235768342795e-03
3.804052174663e-03
3.255583921612e-03
5.686869579948e-03
5.039238049397e-03
4.717478710770e-03
2.309621426061e-03
3.143595662693e-03
5.111000880600e-03
0.0
3.256985193650e-03
2.315875762829e-03
1.186781807755e-03
5.879212306885e-03
4.749545806609e-03
3.205712272384e-03
1.923895110586e-03
4.248611553850e-03
4.390119912627e-03
3.260852054243e-03
2.726046229142e-03
3.866905638561e-03
4.085059299403e-03
4.849847065370e-03
4.084848891733e-03
3.788784052669e-03
2.384045379571e-03
4.854751456170e-03
0.0
2.534886222220e-03
2.875294506275e-03
3.926615174907e-03
5.120800106263e-03
2.883704576323e-03
2.560806566150e-03
3.780927287153e-03
3.250336732161e-03
2.904934106925e-03
9.744138873205e-04
5.002746784696e-03
1.187677453753e-03
9.712234474307e-04
2.285555067131e-03
2.450408811608e-03
5.091607850684e-03
2.428262004319e-03
2.774880105580e-03
3.779138720656e-03
1.803156298713e-03
1.957999132830e-03
3.924614645831e-03
4.859013116494e-03
0.0
3.040676180201e-03
3.206874618957e-03
3.130650380996e-03
2.062644621155e-03
4.885442700903e-03
4.892149880117e-03
3.059373875750e-03
2.149562808967e-03
4.104130610049e-03
4.011618650566e-03
4.856263363195e-03
4.079661242982e-03
3.170623979729e-03
2.775910294641e-03
4.348640566437e-03
6.080884502444e-03
4.012120085899e-03
2.651654117440e-03
4.174160396721e-03
2.772644652466e-03
4.114504492513e-03
3.290795862291e-03
2.811701725688e-03
3.471873507376e-03
5.142731837040e-03
4.219310466071e-03
2.711805464269e-03
5.231202940207e-03
4.958047196859e-03
4.103438709337e-03
4.637764333400e-03
2.438306330947e-03
4.211956383520e-03
3.365372856234e-03
2.450675261700e-03
2.887962119562e-03
3.878533253387e-03
2.940597055344e-03
2.728683675051e-03
4.958207544710e-03
0.0
4.231308200600e-03
3.120397780434e-03
3.113605546756e-03
2.278736831083e-03
4.503373325418e-03
1.884659263120e-03
3.120901491325e-03
2.297614029118e-03
4.243041167150e-03
4.240307436026e-03
1.373936041198e-03
2.435310679187e-03
3.155120820171e-03
3.003223930663e-03
4.798301013803e-03
3.306297059748e-03
2.985321424422e-03
3.188763902837e-03
1.370686704752e-03
3.117506418936e-03
2.564683140303e-03
6.161779301333e-03
6.171298087031e-03
3.871585823704e-03
3.224089549692e-03
3.155590452933e-03
4.317766949050e-03
3.003359536048e-03
2.608662778043e-03
3.938150114373e-03
5.859163444552e-03
3.214653691530e-03
2.969191311487e-03
2.861811173678e-03
3.768586856653e-03
3.337633072254e-03
4.030230270756e-03
2.035757012657e-03
1.094219009940e-03
3.031075150381e-03
2.930652641428e-03
4.078338297131e-03
6.100030670434e-03
3.051206385844e-03
1.821620188347e-03
2.861790791984e-03
4.656042724998e-03
2.349687270255e-03
2.816498775574e-03
4.525435709533e-03
5.833892866330e-03
2.486522419677e-03
6.151276113808e-03
4.485990906698e-03
4.856089461195e-03
2.611916462935e-03
3.799226166888e-03
4.210806094155e-03
4.343507042611e-03
3.883342781648e-03
5.453648402860e-03
4.408884898377e-03
3.954238356753e-03
2.946932738359e-03
2.126147916000e-03
3.626304909236e-03
2.828752624356e-03
3.908082809323e-03
3.189022324685e-03
2.979438473071e-03
5.107150669262e-03
3.057133034874e-03
3.948493172095e-03
1.767047002602e-03
3.219295742043e-03
4.649421512783e-03
3.423567528206e-03
2.373751734207e-03
2.784414744251e-03
2.725624955031e-03
2.452240531365e-03
5.184269692729e-03
4.210892199139e-03
3.195156139090e-03
3.675464466287e-03
3.719198240263e-03
3.156300643646e-03
5.270722120896e-03
4.951030620452e-03
2.791959147438e-03
3.435291521076e-03
2.714045320190e-03
2.771808396209e-03
4.119259232477e-03
1.360400106286e-03
3.400766620885e-03
5.356429761657e-03
2.456112603846e-03
3.687823897699e-03
4.067889866897e-03
3.485977458347e-03
6.171877983723e-03
6.194847258957e-03
5.749913356992e-03
3.020677987419e-03
5.279204517925e-03
2.613300540084e-03
2.741755212613e-03
2.004260055720e-03
3.406978849626e-03
3.842950909138e-03
4.513278632072e-03
3.244307823644e-03
5.163355495152e-03
4.386423237292e-03
4.476099206042e-03
2.391474383936e-03
1.955161698588e-03
3.217570021580e-03
3.872368428504e-03
3.338770506916e-03
1.812371568338e-03
4.015486225801e-03
2.355558185554e-03
3.278219706871e-03
3.673414290175e-03
1.915648292058e-03
3.981389866812e-03
1.053059668761e-03
3.652003582868e-03
3.330842304649e-03
4.441446771420e-03
6.067281547840e-03
3.807583682193e-03
4.322942112553e-03
3.526145110671e-03
5.255189385440e-03
3.347041718801e-03
5.955073764805e-03
5.938883086238e-03
5.933478345373e-03
5.925413924026e-03
4.598269985990e-03
5.190485547386e-03
5.356291838170e-03
3.172127365247e-03
3.189545386338e-03
3.291257441844e-03
5.278332870253e-03
5.650465782490e-03
5.386391458906e-03
2.086314033400e-03
5.331196890249e-03
3.953887606243e-03
3.284431480345e-03
3.285128967487e-03
3.301125392640e-03
5.759722545495e-03
2.921518703947e-03
4.716770599090e-03
3.382244159206e-03
3.419989620685e-03
3.235774226863e-03
3.108654577361e-03
5.912838273886e-03
5.757913193712e-03
4.236288878953e-03
1.032336198831e-03
5.784372647958e-03
3.094301216638e-03
3.133163714027e-03
1.473651489525e-03
4.377992282328e-03
0.0
3.076087156915e-03
4.393331777553e-03
4.078214650418e-03
4.173061940919e-03
3.172673925433e-03
5.528089032988e-03
2.695300704482e-03
6.061028079687e-04
4.784301089445e-03
1.109397696731e-03
3.558631343330e-03
2.671343080510e-03
3.641731318210e-03
3.626491229388e-03
5.164773912347e-03
4.369311817321e-03
2.723039152115e-03
3.202065681838e-04
3.393270163090e-03
4.000013488580e-03
3.998607249003e-03
4.091967694103e-03
4.682585152391e-03
3.977798602140e-03
6.148717226547e-03
4.046693637694e-03
4.375476627736e-03
2.475463655856e-03
2.038113747758e-03
2.665603733635e-03
4.155084444683e-03
5.944456476497e-03
5.933805245862e-03
3.347496143322e-03
3.141954240646e-03
3.636565096111e-03
3.524861024850e-03
3.764870203374e-03
3.214228737877e-03
2.609429685079e-03
2.752166065871e-03
4.525635562498e-03
3.964553113648e-03
2.737089484301e-03
3.599211839311e-03
2.982464518279e-03
5.872767812274e-03
5.256518196814e-03
6.948896764315e-04
2.926992632798e-03
5.363068251323e-03
5.678180438031e-03
4.516604651069e-03
3.800290162266e-03
2.959233318371e-03
2.645089123398e-03
2.991327947613e-03
2.961565605678e-03
1.984606166548e-03
5.360282778703e-03
2.617597906633e-03
2.719354908298e-03
4.219904639673e-03
2.558238552366e-03
2.945805251787e-03
4.447306010212e-03
4.403301426083e-03
3.203880338452e-03
3.270240138625e-03
3.822758874253e-03
2.320351021533e-03
2.695647363228e-03
3.241179321446e-03
4.055854335950e-03
4.302137120783e-03
2.006945487216e-03
3.504931263533e-03
3.493889225164e-03
3.226663955409e-03
3.195012242961e-03
3.705694372684e-03
2.015330950654e-03
3.674094389629e-03
5.465741692551e-03
2.782005441388e-03
3.605540778520e-03
3.144508273297e-03
3.122849437202e-03
2.256333325417e-03
4.140151503650e-03
5.431033007288e-03
3.225301536712e-03
3.778146397866e-03
3.509424093333e-03
3.382045560242e-03
4.257156002915e-03
2.174643724136e-03
3.150567633663e-03
1.746587665763e-03
4.710220312248e-03
3.696882214136e-03
2.499260062840e-03
4.393497597306e-03
3.304371545067e-03
1.515148851358e-03
2.794723090240e-03
3.870525163770e-03
5.202539231559e-04
3.198860063348e-03
3.122843769625e-03
3.536839909767e-03
3.054969112373e-03
3.133169061378e-03
4.394974799046e-03
3.171453652514e-03
3.954441890249e-03
4.408365611267e-03
3.531054572272e-03
4.293331672903e-03
3.469160005882e-03
0.0
4.342827187450e-03
2.815733446127e-03
1.169868182888e-03
3.377528405656e-03
3.017950135559e-03
5.309388747160e-03
1.836141118027e-03
1.645439494872e-03
3.818624685672e-03
3.581263554169e-03
5.741565943865e-03
4.177684629919e-03
1.850928756814e-03
2.067405024286e-03
1.416744999512e-03
2.579714406710e-03
4.842819569639e-03
5.316030625827e-03
3.796388360631e-03
2.739477237490e-03
3.923275296672e-03
2.756654641123e-03
1.368956117904e-03
2.826459377296e-03
2.346887089609e-03
4.356557030682e-03
4.139689611657e-03
3.039564492647e-03
3.507425817395e-03
3.484969287982e-03
2.724837710706e-03
1.738579034053e-03
2.880004918018e-03
1.059860394561e-03
3.342988300000e-03
3.564932177344e-03
9.012381607526e-04
2.910014888118e-03
5.510045432400e-03
1.959702749170e-03
3.585704259986e-03
3.723526099815e-03
1.268716263999e-03
2.392889037010e-03
3.063515298584e-03
2.813209111348e-03
4.210048530920e-03
5.103573185464e-03
5.177892081959e-03
2.829945348819e-03
1.363451425510e-03
3.691969532227e-03
3.550626997966e-03
3.676511325993e-03
1.285478420515e-03
8.537344141222e-04
7.845181071081e-04
2.162938812804e-03
1.377340432524e-03
3.170219899797e-03
0.0
2.524870915773e-03
4.491269867148e-03
3.700282617022e-03
5.066161758073e-03
3.327949804502e-03
4.251884330892e-03
2.509212341416e-03
1.018037242248e-03
5.829475890603e-03
6.039028528119e-03
4.216434674855e-03
3.565489033799e-03
2.587498848121e-03
5.999263223227e-03
2.442752516004e-03
3.696609549568e-03
3.563907472710e-03
3.514699694935e-03
5.927065042664e-03
6.015277257663e-03
1.330400211541e-03
1.449907591737e-03
1.344592241943e-03
3.643608196866e-03
4.850396606121e-03
0.0
5.101358492196e-03
1.409139728971e-04
1.499124232117e-03
3.824208957472e-04
0.0
2.029814193675e-03
4.688865864911e-03
4.611649624508e-03
3.864254668426e-03
9.306078872588e-04
4.020589784949e-03
5.797624803762e-03
5.973591106953e-03
3.688007304244e-03
1.196237126604e-03
5.834612071299e-03
3.414725027011e-03
9.671159728271e-04
1.409744689688e-03
9.368666534769e-04
2.773625038877e-03
5.128733981852e-03
5.686078140094e-03
1.614169892137e-03
3.141780048589e-03
4.903795419049e-03
5.124707089311e-03
4.540751789241e-03
4.863760003676e-03
5.230664655895e-03
4.885659315087e-03
4.900079095049e-03
5.104618843216e-03
2.371313285604e-03
3.639130252576e-03
3.700407251155e-03
1.543007074285e-03
4.822691056273e-03
4.723797952646e-03
4.594502443142e-03
2.187658065542e-03
2.078158679153e-03
4.298928970353e-03
4.465695048772e-03
4.739825188448e-03
3.625004239622e-03
4.980074041723e-03
4.182381661481e-03
3.612530889479e-03
1.648586597975e-03
1.078919747717e-03
9.715320649564e-04
8.189522588763e-04
3.276017880373e-03
3.023112973762e-03
3.897742298982e-04
4.028126407989e-03
2.904706458492e-04
5.885086834910e-03
5.811364703112e-03
5.844706076157e-03
1.127270833140e-03
2.214903500655e-03
5.806505327904e-03
4.688671280238e-03
5.826774921974e-03
4.813055851057e-03
4.917144813202e-03
2.903322035183e-03
6.008349193016e-03
6.003877113261e-03
4.727827648335e-03
4.864305038441e-03
4.249335747199e-03
0.0
3.175859147544e-03
1.259325279811e-03
4.420798695160e-03
3.384638883793e-03
4.409067033902e-03
2.131043982543e-03
1.108023222196e-03
4.695482135487e-03
3.365831542969e-03
2.646631452456e-03
4.556588175849e-03
5.414895944389e-03
2.656831201839e-03
3.200576911771e-03
3.816886599349e-03
4.190899904542e-03
4.331300515814e-03
2.822232598008e-03
3.605666078604e-03
3.473782743791e-03
3.959311659394e-03
4.657481856823e-03
4.474738788930e-03
2.497721918515e-03
5.428170056435e-03
5.196932708230e-03
3.994972095663e-03
4.018877418988e-03
4.067532001752e-03
5.468828346424e-03
5.334434594670e-03
3.777218885507e-03
4.785229386991e-03
5.183640898652e-03
4.486085823949e-03
4.626918442455e-03
5.440760853048e-03
4.828731435924e-03
3.492214324912e-03
1.813629337524e-03
2.595415623828e-03
1.751915947168e-03
1.311389193297e-03
5.325791288567e-03
4.638904880307e-03
1.232072997821e-03
5.349220756651e-03
4.109200150890e-03
4.453473742339e-03
4.501290464753e-03
2.822661026846e-03
4.600361826760e-03
3.989940508894e-03
1.568365711787e-03
4.607579259789e-03
1.682217231393e-03
4.433060704539e-03
4.965853579252e-03
1.931234771425e-03
2.536905363929e-03
3.506959235330e-03
4.546823231474e-03
2.929878446617e-03
5.094658413771e-03
4.689487714454e-03
3.549548679273e-03
4.373859018118e-03
4.508144441649e-03
4.950601638813e-03
1.602271484754e-03
3.405781233643e-03
3.108775469077e-03
5.079843116042e-03
3.194307102305e-03
3.880531337843e-03
4.194530845224e-03
4.813687637528e-03
2.696113206384e-04
1.541456333067e-03
1.874707634932e-03
4.535680067079e-03
4.684102630711e-03
3.785681380179e-03
4.265606377495e-03
3.105476038775e-03
3.587079011170e-03
4.392674845493e-03
1.860767443432e-03
4.452816754116e-03
3.543702289538e-03
1.992785431315e-03
3.392397121739e-03
2.975423009005e-03
2.515877789845e-03
3.725661475431e-03
9.890849693237e-04
7.121019429699e-04
4.132428392348e-03
1.740140079302e-03
4.103577769620e-03
3.987009557526e-03
3.370047699069e-03
3.248806400505e-03
5.300420175180e-03
2.104285098992e-03
2.995450123017e-03
2.940527097191e-03
1.410651741479e-03
4.429529881649e-03
4.136718757980e-03
1.859816294009e-03
3.894261520894e-03
4.933477745413e-03
1.699722713993e-03
5.408694418047e-03
5.411197824938e-03
2.017061567542e-03
2.915404601559e-03
2.179306637539e-03
4.367605250964e-03
3.647788208579e-03
5.489535749250e-03
5.304729192866e-03
4.231498250214e-03
4.146491013704e-03
1.780674243216e-03
4.280532226645e-03
4.934868325194e-03
3.669316609231e-03
4.695546322833e-03
5.063717161736e-03
2.645489529404e-03
5.190164349716e-03
3.272404207533e-03
3.596661715041e-03
2.751844944681e-03
3.019000093276e-03
4.810385432176e-03
3.246422704326e-03
2.264566458407e-03
1.689403800147e-03
4.815225778648e-03
2.226110953632e-03
4.194754128453e-03
4.940895878954e-03
4.276223362944e-03
3.112253213804e-03
3.202020562987e-03
1.919623832173e-03
1.352217145348e-03
4.164633130640e-03
4.560658305418e-03
1.177128837243e-03
2.915068821861e-03
1.620327168500e-03
4.555465457416e-03
2.973416926450e-03
3.909810264466e-03
2.724408296497e-03
5.208767427969e-03
2.593619795372e-03
4.035142549939e-03
2.532928249258e-03
4.024142569854e-03
3.450900747862e-03
4.136123601672e-03
2.485244761370e-03
1.564757219021e-03
4.294495704809e-03
2.163488820880e-03
3.387401299419e-03
4.565662359773e-03
2.738581822716e-03
4.665942928302e-03
1.465348703278e-03
4.246327033609e-03
1.699623542301e-03
2.032350589391e-03
5.536974569683e-03
3.426908671018e-03
1.540384123315e-03
3.758577465195e-03
3.927524684089e-03
2.715033437353e-03
4.314845763778e-03
4.948351979472e-03
3.360890771607e-03
3.891846381777e-03
4.252820554628e-03
2.212724349773e-03
2.843833598180e-03
4.035789724436e-03
3.996131275531e-03
3.575096828484e-03
3.792627721388e-03
4.802343365754e-03
4.415034608388e-03
4.389129640424e-03
3.467263775260e-03
3.595494986516e-03
3.583279255749e-03
4.289394557029e-03
5.421975200704e-03
2.486182053314e-03
3.861488826342e-03
5.063142224082e-03
3.131891392016e-03
3.028041098227e-03
1.823938140991e-03
3.705908196928e-03
3.091369410019e-03
4.675935954995e-03
4.534875968551e-03
2.056161555857e-03
2.786655864968e-03
2.873165513745e-03
2.868546210609e-03
3.110365765296e-03
1.843618803568e-03
3.272992134604e-03
3.412916071715e-03
5.192089283469e-03
3.281566540745e-03
3.626240938450e-03
3.586985508785e-03
3.409305181201e-03
1.897398460282e-03
3.604818096321e-03
3.888630237913e-03
4.421922450971e-03
3.317485446496e-03
3.647674555787e-03
4.673336337087e-03
3.224252799485e-03
3.496064654626e-03
2.622358304585e-03
3.055333394029e-03
3.164663825952e-03
2.311141121049e-03
2.125313783725e-03
3.477924834306e-03
3.736945563828e-03
4.738585916755e-03
1.315321289851e-03
2.446620192041e-03
2.982448329977e-03
3.433203482514e-03
4.531582693643e-03
3.499304588405e-03
2.673974497719e-03
3.139905464341e-03
5.072747806473e-03
2.707809154280e-03
1.166214898562e-03
1.463299212712e-03
2.914504388254e-03
3.018723201689e-03
2.686713935682e-03
3.062407380188e-03
2.712109552951e-03
1.499659389839e-03
4.359635542217e-03
2.393958649680e-03
3.066798902882e-03
4.495652146628e-03
4.450791082476e-03
5.300178894970e-03
4.977951589195e-03
2.397146190700e-03
4.416844529747e-03
3.119400395624e-03
3.332129797491e-03
3.122426360325e-03
2.988793531740e-03
2.855846187293e-03
3.177000482072e-03
2.756193394154e-03
2.592075865469e-03
2.421633066575e-03
3.387402253471e-03
2.293172573691e-03
2.277057048855e-03
2.911114260278e-03
1.155684839829e-03
4.799837983891e-03
2.295247612437e-03
3.251041652365e-03
3.393599796704e-03
3.145369302234e-03
3.078086569887e-03
5.318104494318e-03
4.480500477960e-03
2.985180505105e-03
4.544225245269e-03
5.407567982517e-03
2.819844426375e-03
3.291868619470e-03
4.617460502529e-03
3.604719748764e-03
2.828319211558e-03
5.770682299556e-03
2.324148480044e-03
2.632797394299e-03
5.423157329672e-03
1.479799231386e-03
4.397525855562e-03
5.165585481732e-03
2.315901153844e-03
1.693562376470e-03
5.527898528543e-03
3.711930513200e-03
4.919552001560e-03
1.951673982838e-03
3.287761322063e-03
5.034502267977e-03
5.186304779390e-03
3.552693579741e-03
3.534005249318e-03
4.400555289825e-03
4.253543167516e-03
2.943285220908e-03
3.519756308427e-03
3.287722794547e-03
1.604761110599e-03
2.916005013921e-03
2.089170602373e-03
2.495795305072e-03
3.131259226377e-03
5.609482615871e-03
5.438909998859e-03
5.417054799902e-03
3.703317504642e-03
5.161557093516e-03
3.868518273720e-03
5.545650970965e-03
4.897334775276e-03
3.311771604762e-03
2.197730088428e-03
5.053606803532e-03
5.398699092692e-03
5.059342313408e-03
4.930251969398e-03
3.686756924755e-03
2.638215958256e-03
3.385656639266e-03
3.735595459470e-03
3.380928897864e-03
1.515738106098e-03
4.891642251277e-03
2.057605305164e-03
2.303129579541e-03
1.798145096306e-03
1.202338881616e-03
2.291547627481e-03
2.255519192117e-03
1.119365171026e-03
3.821601090175e-03
3.628201443265e-03
4.633003595104e-03
3.816334825167e-03
1.776186669795e-03
3.629386261877e-03
1.548469868944e-03
5.595449219484e-03
1.931840670526e-03
3.698695061029e-03
4.663243438870e-03
2.011134684472e-03
1.247841792706e-03
1.362382450494e-03
3.956724378172e-03
3.694573121702e-03
3.378959753737e-03
3.476784983087e-03
3.160808567775e-03
1.209468731440e-03
5.051259765074e-03
3.748618971867e-03
3.477272273897e-03
1.950538792296e-03
4.782003339930e-03
3.210604208947e-03
5.183136400848e-03
1.092245890419e-03
2.105066893939e-03
3.669072015162e-03
1.206486766565e-03
5.304264296023e-03
2.175618363556e-03
1.951041802013e-03
3.970362899570e-03
5.544534571255e-03
3.589900622387e-03
4.195224401096e-03
4.919263556773e-03
3.618574329088e-03
2.771490720799e-03
3.147261186436e-03
2.962169357454e-03
3.142630492045e-03
3.544072557654e-03
1.522290315328e-03
6.123405621243e-03
2.263220382989e-03
3.970342460406e-03
2.658927723359e-03
4.758938700212e-03
1.696532885482e-03
3.388847263524e-03
3.457624531915e-03
2.514428578240e-03
1.677345446119e-03
2.396212171814e-03
2.754267880200e-03
3.227262210638e-03
4.988779509347e-03
2.815825285194e-03
4.795644255112e-03
5.516289922385e-03
5.146103467286e-03
5.257081820144e-03
3.182071023712e-03
4.029201795451e-03
5.042361025696e-03
2.756595180964e-03
2.647290714061e-03
3.056301189697e-03
2.572569436643e-03
2.462008023465e-03
2.644345930535e-03
1.440401882729e-03
3.630426804566e-03
1.569273956402e-03
5.480811851792e-03
5.602378623592e-03
1.419199509514e-03
5.275547562051e-03
2.804242796237e-03
4.372719245337e-03
2.891727352859e-03
5.381895938702e-03
3.185020396507e-03
3.346610583280e-03
2.289654001474e-03
3.542499471540e-03
3.433320806316e-03
3.266208049096e-03
2.035076047681e-03
2.493404353718e-03
2.201070291381e-03
5.424319885087e-03
5.590129291020e-03
3.903582702292e-03
2.909258766393e-03
2.335058945798e-03
5.293513921390e-03
1.953817967391e-03
4.234737884749e-03
5.172652995614e-03
5.124227989435e-03
9.277188622566e-04
2.506898590902e-03
4.525242961084e-03
4.563239763712e-03
3.241690536946e-03
2.241320889606e-03
2.833288907621e-03
4.078547169666e-03
4.419169055791e-03
5.013620306272e-03
2.282293485652e-03
4.307804809555e-03
1.686847443505e-03
5.290274890223e-03
4.851002717086e-03
4.643175649224e-03
2.345179317856e-03
1.807172178817e-03
1.801948734361e-03
3.359707236442e-03
5.507142592636e-03
5.108003363980e-03
1.046447068849e-03
2.179901417413e-03
3.852336584430e-03
3.800392508022e-03
2.586138136504e-03
9.771895354137e-04
2.930181311238e-03
2.283701537404e-03
1.568412579387e-03
4.696631355627e-03
4.607881037575e-03
4.766072203044e-03
4.081754060291e-03
4.603369163212e-03
4.379957173958e-03
4.618906992019e-03
2.458376662123e-03
4.098638148539e-03
4.907202475208e-03
5.648784616652e-03
4.495095601971e-03
2.548434779706e-03
3.912793135380e-03
5.512760513766e-03
3.001262042829e-03
3.180884923332e-03
2.468543689254e-03
5.028337068141e-03
3.427253910037e-03
3.290153938343e-03
3.675470650321e-03
2.182285102727e-03
4.189801390205e-03
2.291578316535e-03
1.349449754861e-03
5.636015473331e-03
3.625895958899e-03
2.103450277768e-03
4.046287823861e-03
4.878000002137e-03
3.895798009600e-03
3.114017949884e-03
8.889497729122e-04
4.793301523209e-03
4.034143798685e-03
2.338495865229e-03
4.679004096828e-03
0.0
3.545292720195e-03
3.183419108901e-03
4.620052298240e-03
3.760015126243e-03
2.393922234819e-03
4.445933361572e-03
3.448409215898e-03
2.584776922099e-03
4.250432662385e-03
1.906468634271e-03
4.153126910283e-03
1.818802017300e-03
5.293743423829e-03
4.239353654533e-03
2.394815569185e-03
4.179465517636e-03
5.639919064862e-03
3.534684727708e-03
2.288195308190e-03
2.779857412875e-03
4.157293753941e-03
4.559059439739e-03
3.534808419225e-03
4.252606570727e-03
4.782120039691e-03
4.278791894662e-03
3.738223600894e-03
3.499074933205e-03
3.494139593801e-03
4.747419654542e-03
4.255099070675e-03
3.839964885527e-03
4.569340265878e-03
3.056246348132e-03
2.393304954355e-03
2.930480403413e-03
6.086851266750e-03
4.117844399000e-03
3.455995573439e-03
3.753400023371e-03
2.472071372363e-03
3.491628202087e-03
4.204348122107e-03
4.268597776756e-03
4.772004198945e-03
4.710233733702e-03
4.692963440339e-03
1.106720622824e-03
3.608330547153e-03
3.820362875112e-03
4.664326353529e-03
4.680096484355e-03
2.352584026883e-03
1.558884795758e-03
2.654480659437e-03
3.731003145245e-03
3.466490700851e-03
3.315280051285e-03
3.510786059953e-03
4.741445271794e-03
3.000739119005e-03
3.725942709322e-03
1.882186228005e-03
1.989209782105e-03
4.859365221654e-03
5.378791863780e-03
3.622412790060e-03
4.086298431898e-03
8.788451117360e-04
2.150327118180e-03
4.157073371539e-03
8.318441689136e-04
5.408814910997e-03
1.796994317519e-03
4.563827465076e-03
4.326693611244e-03
2.179157756358e-03
2.902957421488e-03
5.531946144864e-03
2.724274636976e-03
3.597238446451e-03
3.949741788311e-03
1.387126890400e-03
1.483538630366e-03
4.094562523506e-03
4.462003929120e-03
4.216899447097e-03
3.250175486718e-03
5.197689124532e-03
4.432557972304e-03
3.662154238880e-03
4.324815174578e-03
4.318493610634e-03
4.118093824424e-03
3.698739609380e-03
3.642170033284e-03
5.589231027012e-03
3.013506558343e-03
4.255186571382e-03
2.631728022376e-03
2.719221655027e-03
3.230635052549e-03
2.472264286779e-03
1.402294089302e-03
2.643957478187e-03
4.711133417206e-03
2.471516709082e-03
4.468472658716e-03
2.193648896864e-03
1.986292001410e-03
2.990854761195e-03
4.632153164590e-03
4.258818863725e-03
4.455822626565e-03
2.409857783535e-03
4.599243387348e-03
4.586353591898e-03
3.003262797050e-03
3.764237663719e-03
1.259809435264e-03
4.417137978971e-03
2.598861938414e-03
3.559924899756e-03
2.891071441809e-03
4.599295072823e-03
4.492928374407e-03
3.946747793921e-03
3.008453656814e-03
3.177730900320e-03
4.583213391973e-03
3.022048143241e-03
1.998492614778e-03
1.639620437187e-03
1.813972294795e-03
2.527763030566e-03
3.023198208948e-03
4.233192300425e-03
3.640278608643e-03
1.787168974819e-03
3.020737013717e-03
3.250114505745e-03
4.609207531696e-03
1.720484110792e-03
4.768807741004e-03
2.542365269620e-03
3.372604860332e-03
3.955992186008e-03
3.843149938690e-03
2.565660421796e-03
3.009689123218e-03
4.457896627465e-03
1.960918397589e-03
4.405903501378e-03
3.240600366134e-03
3.564971743916e-03
2.068612722327e-03
3.806478467456e-03
4.436879848710e-03
1.816133218611e-03
2.713220334332e-03
2.003794310319e-03
1.222241799405e-03
3.754040591865e-03
4.602132618812e-03
4.606753680845e-03
2.762317310720e-03
5.921576080326e-03
1.655277107015e-03
2.912859680010e-03
2.189495913324e-03
3.665001844436e-03
3.520328983887e-03
2.638881836419e-03
2.895778659108e-03
4.043104173156e-03
2.482129023893e-03
5.209900433282e-03
3.214049017557e-03
3.647482495706e-03
3.710983494359e-03
2.656638786889e-03
3.855170451250e-03
4.566671673770e-03
4.366198307929e-03
1.028648459849e-03
0.0
2.165054714133e-03
3.723014921691e-03
2.395137752120e-03
2.817631679997e-03
2.513976997857e-03
3.806732758052e-03
4.815158278389e-03
3.775227130307e-03
2.362468453277e-03
4.403407743042e-03
4.096150277746e-03
2.928708125507e-03
3.798202669823e-03
3.830814983830e-03
2.434166470534e-03
2.429201062824e-03
3.861528244714e-03
4.613156150105e-03
4.387204249011e-03
2.657070979426e-03
3.880643775732e-03
2.837716406776e-03
2.485420115051e-03
3.105685387870e-03
2.225639351650e-03
2.780093807568e-03
2.725707991279e-03
2.761000011738e-03
3.893879650775e-03
2.100922071665e-03
3.891918480221e-03
3.915697350990e-03
2.204461836540e-03
3.709703770702e-03
0.0
5.365652246451e-03
2.578069340872e-03
2.173697461019e-03
3.448943280228e-03
3.975644968851e-03
4.011347503912e-03
2.443864926480e-03
1.964861984032e-03
1.711666579155e-03
4.092079591951e-03
2.346058795579e-03
2.509223878502e-03
4.534649018568e-03
2.777991002642e-03
4.537667482143e-03
4.058891197805e-03
0.0
5.816180050420e-03
4.902062641942e-03
3.881412651745e-03
2.440978645024e-03
3.770170632493e-03
2.426839343308e-03
1.518214254580e-03
1.370156315244e-03
5.546974744787e-03
4.665874526858e-03
3.739497969649e-03
5.215858982210e-03
1.786753972791e-03
4.945218504881e-03
4.727704294311e-03
2.892091425302e-03
3.818142524302e-03
2.797163094051e-03
2.426438530921e-03
2.920765910813e-03
4.893505897122e-03
4.727405870860e-03
2.743689612102e-03
4.673515583297e-03
0.0
2.485522009972e-03
5.040677103797e-03
3.152365298128e-03
2.607652291814e-03
3.607194230213e-03
3.172614263735e-03
2.188759691854e-03
2.409032827129e-03
2.923122928886e-03
2.479690312005e-03
2.876821812237e-03
4.465612370866e-03
5.532694685970e-03
2.480976938953e-03
4.855765288150e-03
5.147151796070e-03
2.491148219769e-03
2.231684133508e-03
3.071159247528e-03
2.618928641937e-03
4.855263855775e-03
2.512300808846e-03
2.262013899534e-03
2.743671721340e-03
2.429414246353e-03
2.905151765398e-03
2.632275217683e-03
3.664855587076e-03
4.505149016415e-03
2.765225984554e-03
2.582205512883e-03
2.386883807025e-03
2.387003191431e-03
0.0
5.504082384171e-03
5.322543550804e-03
7.848135277644e-04
2.549500333694e-03
2.400638059405e-03
2.463285382783e-03
4.810923744731e-03
3.198165242386e-03
4.606096513073e-03
2.664651155853e-03
3.655834997024e-03
4.200689173686e-03
2.113752298900e-03
1.912300493824e-03
3.255578082472e-03
1.273953511854e-03
4.816843425833e-03
2.290848895151e-03
2.168710725122e-03
2.559244781557e-03
4.283416494899e-03
4.812195502839e-03
2.539570789041e-03
3.643462494389e-03
4.855540140174e-03
2.948190669232e-03
2.976334480875e-03
2.027418807040e-03
2.926129920543e-03
4.448255544290e-03
2.964508539853e-03
5.409142776678e-03
5.734258886474e-03
4.026664295728e-03
5.743896818908e-03
5.718569705541e-03
2.582070465025e-03
2.595631204153e-03
3.199953522585e-03
0.0
1.902903777885e-03
3.604210869196e-03
2.807391870645e-03
2.804874001204e-03
2.021751019950e-03
2.194943763957e-03
4.142001498770e-03
2.644769460266e-03
2.249798190126e-03
3.567736017229e-03
4.967219196927e-03
4.886134841971e-03
2.605300666506e-03
3.828525680063e-03
0.0
1.957535475967e-03
3.521502279004e-03
1.981252673420e-03
2.924275991023e-03
2.745952613108e-03
2.849229022871e-03
2.462891224688e-03
5.296655538006e-03
2.503533226713e-03
5.524289484905e-03
5.153625615526e-03
6.001172921191e-03
5.100455085510e-03
4.110540018138e-03
2.637651237191e-03
2.100855566225e-03
3.191285649529e-03
4.869911819268e-03
1.668585154639e-03
1.835666317314e-03
2.227285640186e-03
3.938213713365e-03
5.540832376998e-03
4.655361428653e-03
3.499491474384e-03
5.052024159388e-03
4.084593475503e-03
2.632811007746e-03
2.862235179152e-03
4.698107313135e-03
3.316215251475e-03
3.587892556505e-03
3.896233695222e-03
4.114095616366e-03
4.188562373750e-03
1.799506149793e-03
2.750045215379e-03
5.853261315327e-03
4.426727944562e-03
3.704988570506e-03
5.563415471233e-03
4.701176930839e-03
5.605287308872e-03
2.984653430048e-03
2.899269361477e-03
3.882189993689e-03
0.0
2.099672330588e-03
4.918810832529e-03
9.297763855901e-04
3.755397294441e-03
2.797405890751e-03
1.199320246670e-03
1.287155906031e-03
6.012085979982e-03
3.536739645719e-03
5.807206894269e-03
2.659927490576e-03
3.526193540084e-03
0.0
5.649183673557e-03
1.226889212049e-03
5.591486415216e-03
4.894034742833e-03
5.539486036354e-03
2.262943268428e-03
4.213950339262e-03
3.025007021002e-03
3.131326445098e-03
4.091554630855e-03
5.020955983920e-03
3.911662398283e-03
5.268125805587e-04
4.885085777727e-03
3.118765135349e-03
9.712620635747e-04
3.457233058136e-03
5.927711436663e-03
5.789822867449e-03
3.808569037443e-03
4.215889140078e-03
2.538577934307e-03
5.833806765854e-03
2.555830622428e-03
2.490656388983e-03
3.320251670345e-03
3.625198829927e-03
5.701509361268e-03
5.926679449314e-03
5.825453120953e-03
2.375146025770e-03
1.855020722498e-03
3.558870854792e-03
3.632521599668e-03
4.888825416704e-03
5.046946971520e-03
1.549964253441e-03
0.0
4.672705056340e-03
4.574124372469e-03
1.492817307624e-03
4.534041151919e-03
3.791507055834e-03
3.441092852532e-03
4.640515334488e-03
3.044493888229e-03
3.085586377938e-03
1.541679909506e-03
3.205964040354e-03
5.539122948349e-03
5.470096428524e-03
3.349468659420e-03
4.316012489498e-03
5.096328403816e-03
5.066889044332e-03
4.866255092984e-03
3.513811278074e-03
2.745903881908e-03
5.643353601341e-03
2.006177374357e-03
1.336548591570e-03
4.740994586223e-03
1.967258917603e-03
3.030928276529e-03
4.804010908766e-03
4.798192704978e-03
4.457553134226e-03
4.812474116929e-03
4.086135366692e-03
0.0
1.909648872290e-03
2.592269180864e-03
4.073105943506e-03
3.300295154597e-03
5.598216389854e-03
3.155889343856e-03
2.080876808324e-03
1.684831239890e-03
1.996726710914e-03
4.805748266782e-03
2.545899529970e-03
5.665640345273e-03
1.260613380941e-03
2.717034335033e-03
4.089865816188e-03
4.150741350700e-03
3.513862819322e-03
4.079622705219e-03
3.886731369533e-03
5.955413447924e-03
5.808855366257e-03
1.973720843828e-03
5.623880488313e-03
5.288178170346e-03
2.706065533823e-03
3.694588255657e-03
4.724906017287e-03
5.013738577708e-03
0.0
2.864341795004e-03
5.304542939534e-03
4.364446428508e-03
4.836626331640e-03
3.730875922937e-03
4.587318565965e-03
5.089225402943e-03
3.906899070662e-03
3.750017617315e-03
3.537069004234e-03
2.588839608145e-03
5.047138554197e-03
3.933020823055e-03
5.546377694027e-03
1.946527573604e-03
5.421130664064e-03
4.841192871563e-03
9.322091538505e-04
2.293274876912e-03
5.049998438284e-03
5.689077263393e-03
5.605137768792e-03
3.830427027326e-03
4.275713481985e-03
1.034452648196e-03
0.0
9.165803274728e-04
2.306330849804e-03
1.354888496860e-03
3.232809435929e-03
4.778427176324e-03
5.703044928894e-03
4.347082166528e-03
3.002796748421e-03
4.148995897399e-03
2.783709893463e-03
4.463871432644e-03
4.932249577077e-03
5.252682971647e-03
1.354054557860e-03
0.0
4.840119537013e-03
7.233031137748e-04
8.681517225348e-04
1.435436843906e-03
1.472272678795e-03
3.855676984439e-03
5.537407312308e-03
5.639733232520e-03
4.436603250530e-03
2.523558595448e-03
4.438054910322e-03
5.878210086007e-03
3.406643456978e-03
3.631025882734e-03
3.027978513677e-03
7.658097359086e-04
5.095377053932e-03
4.007087122991e-03
1.117452099742e-03
3.054154399225e-03
5.821463871987e-03
5.616162225123e-03
5.771476761292e-03
2.378943900085e-03
0.0
4.729401298327e-03
5.982820025955e-03
5.116893597155e-03
3.780141864939e-03
2.757852932878e-03
1.016540728646e-03
5.742488357776e-03
8.130160899770e-04
3.471132188594e-03
5.976997195660e-03
0.0
4.334445045259e-03
4.928068088589e-03
5.685262055675e-03
3.960311455775e-03
4.602685966077e-03
5.674047741207e-03
5.673486810091e-03
4.691284669015e-03
5.438753250395e-03
2.700307817537e-03
3.496149835990e-03
4.345309502369e-03
5.753633298066e-03
1.736380299792e-03
3.496568385412e-03
4.939582600280e-03
1.368820282863e-03
2.744988563961e-03
5.663738979535e-03
5.807014388648e-03
1.265820552801e-03
2.857699370651e-03
3.526860356291e-03
5.236929301907e-03
0.0
5.763265201970e-03
4.458722862593e-03
3.044071100787e-03
4.287981028573e-03
4.654162068594e-03
3.688235848984e-03
2.587782553257e-03
2.490177180056e-03
3.382376733098e-03
3.778484931935e-03
3.590372836895e-03
3.200278276933e-03
3.401617339723e-03
1.200485253478e-03
4.444142389629e-03
4.959617724818e-03
2.494216693804e-03
5.683473093287e-03
4.880068419397e-03
3.847676400356e-03
4.572298701193e-03
3.295609289569e-03
3.277091984412e-03
3.455826167072e-03
2.410347476307e-03
3.171270214627e-03
5.151777217512e-03
3.979240728433e-03
5.867901631608e-03
2.336872728529e-03
4.397657744471e-03
5.380026001316e-03
3.734283041451e-03
4.159349955921e-03
1.018917914231e-03
5.297615537063e-03
5.603907969465e-03
1.200386500765e-03
3.098141903975e-03
0.0
5.607338238193e-03
1.938210228367e-03
1.855070982470e-03
2.012839987660e-03
1.865237882432e-03
2.017602022539e-03
1.866750885935e-03
2.020171921487e-03
1.868036742157e-03
2.023706536869e-03
1.869204362041e-03
2.027847855192e-03
1.869894456575e-03
2.032291853640e-03
1.869637544109e-03
2.036494374470e-03
1.867953593694e-03
2.040526920442e-03
2.096576136937e-03
1.864413530055e-03
2.044434416743e-03
1.956595450656e-03
1.858595784876e-03
2.048442989312e-03
1.850082569554e-03
2.052677629743e-03
1.838558006539e-03
2.059066600854e-03
2.057874607925e-03
1.825142622328e-03
2.068271119575e-03
1.811199211737e-03
2.055676819201e-03
1.801129383856e-03
2.044831352514e-03
1.794948757603e-03
2.040648389966e-03
1.809928005653e-03
2.224878849609e-03
1.825042548851e-03
2.063972402928e-03
1.899703936827e-03
2.092490428407e-03
2.182664400219e-03
1.969992256298e-03
2.029719175036e-03
1.866391534843e-03
1.981521245243e-03
1.857559797512e-03
2.117510806444e-03
2.294241220172e-03
2.361395076424e-03
2.216154836749e-03
2.357998710852e-03
2.214786627200e-03
2.360635211121e-03
2.219711824722e-03
2.364744831697e-03
2.226366150586e-03
2.369804074944e-03
2.231513212677e-03
2.375640653335e-03
2.228923351831e-03
2.381109275559e-03
2.224559756434e-03
2.386033807545e-03
2.422469400763e-03
2.218422108439e-03
2.391036236924e-03
2.374971160047e-03
2.210476424915e-03
2.396373502810e-03
2.299438040081e-03
2.200919367465e-03
2.401866583409e-03
2.189558096147e-03
2.408015076602e-03
2.176427520762e-03
2.416119866827e-03
2.529299764460e-03
2.165470136003e-03
2.403108141081e-03
2.157002805424e-03
2.383705627598e-03
2.391643415084e-03
2.161881467416e-03
2.385265248373e-03
2.161580518042e-03
2.461344384578e-03
2.224151981452e-03
2.306743514097e-03
2.266428057819e-03
2.412209071277e-03
2.251360739942e-03
2.368514859645e-03
2.397094801283e-03
2.626734283379e-03
2.549531866633e-03
2.701394005823e-03
2.556134915907e-03
2.705711491278e-03
2.561480290484e-03
2.710065989537e-03
2.566655120162e-03
2.714513451666e-03
2.574446997273e-03
2.720634103997e-03
2.582981102361e-03
2.727498271816e-03
2.593510788275e-03
2.734155989720e-03
2.720163723611e-03
2.600860379507e-03
2.592487705640e-03
2.738512044037e-03
2.594197665573e-03
2.746355183321e-03
2.582395027498e-03
2.755844196279e-03
2.568241209878e-03
2.671612935326e-03
2.765816059205e-03
2.551965904305e-03
2.779576565079e-03
2.532839083947e-03
2.775383251297e-03
2.527604753952e-03
2.770901703469e-03
2.513452816674e-03
2.549007397530e-03
2.757146576703e-03
2.792368389522e-03
2.792016082909e-03
2.565612625475e-03
2.702582909373e-03
2.546878826374e-03
2.661103818204e-03
2.547347738664e-03
2.675904247711e-03
2.966754512287e-03
3.036028368872e-03
2.881134676313e-03
3.028579513069e-03
2.879228433618e-03
3.034375088800e-03
2.887788164751e-03
3.035458784700e-03
2.890186158662e-03
3.042779342889e-03
2.901207661542e-03
3.047179815419e-03
2.908355221936e-03
3.047821965847e-03
3.058166228224e-03
2.921616972915e-03
2.977904379741e-03
3.057220798405e-03
2.926740671622e-03
2.913842577925e-03
3.065010864165e-03
2.940817269049e-03
3.076565577618e-03
2.928097216781e-03
3.084144842026e-03
3.085339738652e-03
2.912475768239e-03
3.096508582135e-03
3.118274552756e-03
2.897323094266e-03
3.090734832649e-03
2.871686253460e-03
3.129388617912e-03
2.894029482055e-03
2.858270663078e-03
2.922028373713e-03
3.085335394846e-03
2.928220263468e-03
3.030143154684e-03
2.945827770339e-03
3.312321515307e-03
3.189480759148e-03
3.353757832105e-03
3.204854301679e-03
3.362122923095e-03
3.214839365167e-03
3.375029482880e-03
3.210761067781e-03
3.368277685235e-03
3.220984354806e-03
3.383169786334e-03
3.228836678226e-03
3.413512167486e-03
3.384151656869e-03
3.268396400584e-03
3.229750214111e-03
3.398976425987e-03
3.246842334506e-03
3.396439375541e-03
3.258900424221e-03
3.412527509879e-03
3.266513004898e-03
3.338906532064e-03
3.424132635284e-03
3.274787641877e-03
3.430715204795e-03
3.271602579017e-03
3.264657004864e-03
3.450357719823e-03
3.490825941533e-03
3.429189117639e-03
3.194103659451e-03
3.322189248393e-03
3.233743975656e-03
3.318513455877e-03
3.206052030725e-03
3.282745160465e-03

SCALARS element_materi_plasti_phimob float
LOOKUP_TABLE default
1.275696747665e+01
1.297791852106e+01
1.952612783414e+01
1.889780852456e+01
1.241281948649e+01
2.455431165709e+01
1.251979373518e+01
1.595380393766e+01
1.253269902749e+01
1.886530851623e+01
1.942147200100e+01
1.677119736909e+01
2.075116375746e+01
1.363783429399e+01
2.067728142624e+01
1.914223725733e+01
1.192541010661e+01
2.678236207480e+01
1.548912060960e+01
1.012632064555e+01
1.883712662565e+01
7.347630023234e+00
1.062304755602e+01
2.181351242853e+01
1.484135590949e+01
1.963392898708e+01
1.012992222913e+01
2.113108768824e+01
1.485606556709e+01
2.172577824780e+01
1.869103964322e+01
-2.316559340615e+01
1.943180987222e+01
2.076265481433e+01
2.112950288872e+01
2.084928468548e+01
2.078282805083e+01
2.154483641418e+01
1.063978104842e+01
1.075835383425e+01
9.393307774306e+00
2.099723437764e+01
2.033294151103e+01
1.008569835870e+01
1.859114929604e+01
1.964977618195e+01
2.119185461206e+01
1.870481130940e+01
1.801814898068e+01
1.289952957763e+01
1.051501620131e+01
1.416628823910e+01
2.079217361200e+01
6.636286609886e+00
1.930709695641e+01
1.544383348122e+01
1.283001101836e+01
2.084194563075e+01
8.049032463261e+00
1.912339370601e+01
1.122994112704e+01
2.152910679663e+01
1.697889892894e+01
2.043132699413e+01
2.077843850711e+01
6.824489914296e+00
1.602612834143e+01
1.948207631837e+01
9.635778781467e+00
2.031804910071e+01
1.979147189993e+01
1.972124365110e+01
2.084425140366e+01
-1.288128640399e+01
1.571817069241e+01
1.892976103139e+01
1.923688651669e+01
2.172839012157e+01
7.112167543136e+00
2.202039581262e+01
1.053329309065e+01
1.187354900415e+01
1.134713767533e+01
7.126874662525e+00
1.333190399537e+01
1.337863272024e+01
1.987479264970e+01
2.074901521633e+01
1.814152954811e+01
1.229384685911e+01
-1.902184317099e+01
1.197836866138e+01
1.718332409452e+01
1.697649858062e+01
1.945620638057e+01
2.118960153538e+01
1.174831641146e+01
2.142475549369e+01
1.486485782128e+01
1.536791434304e+01
1.149841643877e+01
2.073064280415e+01
2.244500303579e+01
2.145487840072e+01
2.099215807334e+01
1.624503495594e+01
2.077734387007e+01
1.766219744704e+01
2.270079416076e+01
2.066746205732e+01
1.790659315052e+01
-2.638915955236e+01
2.146434419964e+01
1.066305025146e+01
1.732815534170e+01
1.686528237602e+01
1.730619900311e+01
2.098375709372e+01
1.442328284930e+01
1.942739859842e+01
6.817971838246e+00
1.200717487645e+01
1.776184565304e+01
1.901386131445e+01
2.582454057259e+01
9.511806143731e+00
1.725626704491e+01
7.451119867665e+00
1.921007565828e+01
2.388267788301e+01
1.963247855999e+01
1.892178361933e+01
1.506513966536e+01
9.226931463231e+00
2.129192944689e+01
2.073495762615e+01
2.003751120765e+01
1.516191994921e+01
2.159280432783e+01
1.340837485013e+01
1.907585755795e+01
2.018165965605e+01
1.357038001102e+01
1.608792969588e+01
1.432775481708e+01
6.881204937349e+00
1.617784884196e+01
2.136396478067e+01
1.190030672448e+01
2.203593739427e+01
-2.072144616567e+01
1.335498295403e+01
1.041927632959e+01
1.008353169516e+01
2.107402263147e+01
2.104055924326e+01
2.035943218444e+01
1.869745011584e+01
2.234158071414e+01
1.220701337640e+01
2.250549378653e+01
2.081444637772e+01
6.431197583041e+00
2.080223000458e+01
1.302370482144e+01
2.093253790582e+01
1.214001990061e+01
2.146999423023e+01
9.274138145981e+00
1.946677388080e+01
1.972686855897e+01
2.274231433643e+01
1.656471697009e+01
1.205054942331e+01
2.139537347673e+01
8.334272892024e+00
1.918334424872e+01
1.793895314901e+01
2.095652400010e+01
2.036103497730e+01
1.504155379413e+01
1.782024118963e+01
2.227260054665e+01
1.216841138167e+01
1.644672587234e+01
1.173047095014e+01
2.135610407006e+01
1.908252400937e+01
1.761450279808e+01
2.080580533976e+01
2.096583238880e+01
2.328181359843e+01
1.808812998853e+01
1.149987658377e+01
1.077857298051e+01
2.264737501954e+01
-2.985746051592e+00
1.922729613609e+01
1.605967929030e+01
1.860955505591e+01
2.296398393752e+01
1.332453808096e+01
1.430673511746e+01
2.149481783746e+01
1.604589889984e+01
1.718698513676e+01
1.422409617479e+01
1.648240201599e+01
1.363888353551e+01
1.201802010379e+01
2.381147111052e+01
1.886029435391e+01
1.202770347316e+01
1.465282525301e+01
1.423848687041e+01
1.640649353402e+01
1.788731725855e+01
2.465642911905e+01
2.275388441034e+01
1.187505192142e+01
2.333253894072e+01
2.275429055572e+01
-1.684274887565e+01
1.696275478657e+01
-2.313366808998e+01
-5.999588634680e-01
2.115574654330e+01
1.450672519605e+01
1.730110292985e+01
1.381488323828e+01
2.151723790363e+01
1.679497887635e+01
8.200391877580e+00
2.269818695156e+01
1.332084758684e+01
2.083612999128e+01
1.027436013860e+01
2.198023834131e+01
2.335375308685e+01
1.109868825795e+01
2.314114759398e+01
2.093385392017e+01
1.715778698316e+01
2.322156579771e+01
2.247080205064e+01
1.975111576601e+01
1.592724895652e+01
1.658482351199e+01
2.113660239008e+01
2.330069825676e+01
2.094446616223e+01
1.492686784289e+01
1.946675255446e+01
1.734554631576e+01
2.395028668172e+01
1.360561747779e+01
1.074526570537e+01
1.340558477445e+01
2.382588639991e+01
2.456015142110e+01
2.161119774677e+01
1.732463182682e+01
1.465810296013e+01
2.100341140671e+01
1.763624918661e+01
1.765541432089e+01
1.566193329145e+01
2.075338077163e+01
2.459109920634e+01
1.555634500797e+01
2.115383977078e+01
2.396356010024e+01
2.456240121369e+01
1.182004610375e+01
2.376310599175e+01
2.273628140177e+01
1.712035970798e+01
8.317455692860e+00
1.404004224280e+01
2.436410728737e+01
2.175285133848e+01
2.371433533199e+01
1.559007965755e+01
-3.447530234180e+00
1.379095289356e+01
2.447226798862e+01
1.443594594023e+01
1.335434370025e+01
2.591751937028e+01
2.393978153511e+01
2.150005078687e+01
1.372901792623e+01
1.662350360115e+01
1.495821784266e+01
2.435058304611e+01
2.389102623761e+01
2.390043430461e+01
2.150676804858e+01
2.125777116021e+01
1.962178806961e+01
1.976192158600e+01
1.781888600421e+01
2.415754215112e+01
2.213420170715e+01
1.629901682671e+01
2.295215211778e+01
2.300996568749e+01
1.564398649722e+01
1.901397183637e+01
2.395126174414e+01
2.334551104145e+01
2.205785861621e+01
2.127359882481e+01
2.350244235283e+01
1.679995955004e+01
2.503132887049e+01
2.442562327239e+01
2.398693116784e+01
2.200718925456e+01
1.451663139253e+01
2.030858572194e+01
2.435546606028e+01
2.443207505281e+01
2.159906394899e+01
1.555995983053e+01
2.320510334595e+01
1.970394638954e+01
1.504939588177e+01
2.082180793831e+01
2.276212187970e+01
2.007562677809e+01
1.492008731262e+01
1.798527493418e+01
1.920527455790e+01
1.318680824949e+01
1.532404173202e+01
1.558275564497e+01
1.761320597839e+01
2.108199733931e+01
1.437486796115e+01
1.255948052065e+01
2.379154593925e+01
1.212351500738e+01
1.166434726291e+01
2.137155447181e+01
1.214566826402e+01
2.080493812235e+01
2.358268571134e+01
1.742694629970e+01
2.135791611705e+01
1.414574659087e+01
2.448466736825e+01
2.180645955910e+01
2.126584218721e+01
1.164466569715e+01
2.447558379663e+01
1.835494444514e+01
1.671914076310e+01
2.083971955793e+01
1.831692635585e+01
1.660981474603e+01
1.291475334955e+01
1.260110293185e+01
2.136402520105e+01
2.164324953191e+01
1.829063354825e+01
1.696354261769e+01
2.144387216771e+01
1.602263935140e+01
2.361375406169e+01
2.373692571482e+01
1.689889121173e+01
2.445432471225e+01
1.854725204761e+01
1.814039691583e+01
2.324804675169e+01
1.793485738236e+01
1.537903010173e+01
1.739392075926e+01
1.981981487356e+01
1.970217296093e+01
1.921552750545e+01
2.175541614646e+01
1.767227449440e+01
2.131931952824e+01
2.395864798840e+01
2.353414085404e+01
1.471532915528e+01
1.176315143309e+01
1.495604999345e+01
2.170471972749e+01
1.852376540510e+01
1.475428350439e+01
1.626622772043e+01
2.470663798271e+01
2.021441685068e+00
2.243812049144e+01
1.857002472342e+01
2.222603197530e+01
2.485533377891e+01
1.360093272383e+01
1.132138092694e+01
2.295824041006e+01
2.072287571929e+01
2.367682198457e+01
1.235478731213e+01
9.163431315869e+00
1.705278357146e+01
2.283463732229e+01
1.576322398509e+01
2.051374407211e+01
1.273137922849e+01
1.646069114024e+01
1.895391489492e+01
1.773679406767e+01
2.263768147255e+01
2.061017086239e+01
2.047746351244e+01
2.004724022593e+01
2.023591935113e+01
1.636351994102e+01
1.771927183642e+01
1.871023285412e+01
1.720629657894e+01
1.535352097169e+01
1.832920926744e+01
1.813050445052e+01
2.096969368500e+01
1.803705255457e+01
2.421265459712e+01
1.801034047361e+01
2.099699668765e+01
1.931269110706e+01
1.352827838016e+01
2.330662562537e+01
1.918251159138e+01
1.930771037997e+01
2.057883125706e+01
1.865648962738e+01
1.905409071832e+01
2.116155444177e+01
2.242220028640e+01
2.058813348044e+01
1.937249104406e+01
1.735292782034e+01
-1.388972119492e+01
2.076066036705e+01
2.117708308330e+01
2.042631012502e+01
2.433995133907e+01
2.132632274725e+01
-4.672029000763e+01
1.928063403980e+01
1.714598503157e+01
1.772022806984e+01
1.646540942917e+01
2.260930470630e+01
2.088207174770e+01
2.405977375322e+01
2.529966439233e+01
2.109668829435e+01
-1.860600076859e+01
1.276141959747e+01
1.880615367909e+01
1.110301488542e+01
2.132524121961e+01
2.093046808861e+01
1.540198946448e+01
1.436912227615e+01
2.688799109770e+01
1.532868344689e+01
2.165048329864e+01
1.182030132846e+01
1.309321662024e+01
2.092415425064e+01
1.186578343184e+01
1.960506379385e+01
2.113031039581e+01
1.441109301155e+01
1.952434195946e+01
2.419585997919e+01
2.308193819858e+01
2.087656604646e+01
2.035153540576e+01
2.014558386194e+01
2.136092443250e+01
1.808612468079e+01
1.940417335717e+01
2.252998386826e+01
2.081524913062e+01
2.254274096897e+01
2.326350129667e+01
2.263116857227e+01
1.509037886487e+01
2.121955108610e+01
1.293640051761e+01
2.074852713902e+01
2.136985941523e+01
2.068910177678e+01
1.872120774309e+01
-4.498187249556e+01
2.098500545986e+01
1.796833961503e+01
2.083578585602e+01
1.654219800226e+01
2.158922457265e+01
2.289003048534e+01
2.159212795336e+01
2.078265303596e+01
2.158662224605e+01
1.480129358000e+01
2.091328911518e+01
2.333823195896e+01
2.239408644715e+01
1.370517536246e+01
1.645780599070e+01
2.213244193510e+01
1.642563981297e+01
2.090692945822e+01
1.844914050258e+01
2.264194270404e+01
1.853100794364e+01
2.377440924597e+01
2.303576528619e+01
2.232360640507e+01
1.806425443240e+01
1.964471840000e+01
2.338197953234e+01
1.955288527860e+01
1.862005081666e+01
2.217547057142e+01
1.829583441097e+01
2.152114906120e+01
2.484998366907e+01
2.130092054921e+01
1.828947487346e+01
1.553584403397e+01
2.077902358687e+01
2.171816274150e+01
2.246175252002e+01
3.942539519264e+00
2.119000393463e+01
1.836771856024e+01
1.962903011448e+01
2.069587494509e+01
2.208861078213e+01
1.510960302018e+01
1.388125783068e+01
2.433712558681e+01
2.078475066133e+01
2.383464528105e+01
1.607378025456e+01
1.465444387613e+01
2.285503353441e+01
1.468339598861e+01
1.814153309682e+01
2.400553001708e+01
1.972781476840e+01
2.039006443172e+01
-3.821973244479e+01
2.183228013106e+01
2.024075490267e+01
1.916524686304e+01
2.191920861090e+01
2.293765281225e+01
1.453286085411e+01
1.842181888445e+01
2.067312398841e+01
1.723918389141e+01
1.911354499033e+01
1.739976267168e+01
1.898938934696e+01
-3.463324028890e+01
1.453342799358e+01
1.740436193306e+01
-5.764663052319e+01
1.879583903099e+01
2.276223732038e+01
1.795866241769e+01
2.442496102471e+01
2.433608817259e+01
1.138790157888e+01
9.804519905942e+00
1.923252566006e+01
1.766374849369e+01
-4.700180314715e+01
8.736518263693e+00
-6.550373336973e+00
1.534933930932e+01
1.925585384103e+01
1.792783380403e+01
2.182619826760e+01
1.629899638880e+01
1.981603186045e+01
2.231548014195e+01
2.409586192721e+01
1.733276528964e+01
1.590344625563e+01
2.114831534399e+01
2.065176839109e+01
1.797151679765e+01
1.908076397955e+01
2.159711548173e+01
2.217513184737e+01
9.834177722381e+00
2.243389392934e+01
-1.982672288432e+00
1.878883404593e+01
1.918037721640e+01
-1.892294353339e+01
1.762269903047e+01
1.834178055906e+01
-4.838228791858e+01
9.784746767853e+00
9.970581725130e+00
2.377409914513e+01
1.585922718890e+01
1.910187915692e+01
2.124327996923e+01
2.136460153800e+01
2.069588561318e+01
1.744108576579e+01
1.826104735602e+01
5.656912491041e-01
1.323012704989e+01
1.004825553896e+01
1.013346489971e+01
-5.676622308452e+01
-1.914410605836e+01
6.285710692835e-02
1.406094156807e+01
-1.912543733594e+01
1.827508879335e+01
3.514840074440e+00
1.576828803024e+01
1.566787821220e+01
9.903383537832e+00
1.925435778527e+01
2.259593956854e+01
1.470259781667e+01
1.635913121946e+01
-1.436445131365e+00
1.959127931998e+01
1.941219785109e+01
1.373158922528e+01
9.946501036363e+00
1.653525368368e+01
1.939287020263e+01
1.507977079610e+01
9.884498340266e+00
9.801691759146e+00
1.065055838792e+01
1.996842384053e+01
1.937061087656e+01
-1.952054533223e+01
-5.649665079265e+01
4.216187248004e+00
1.942532518452e+01
2.077116542435e+01
1.138557619637e+01
1.745708454923e+01
4.100817450787e+00
2.397420772574e+01
-1.716055230585e+01
1.889624316244e+01
2.394926820151e+01
2.089398039456e+01
1.556014167326e+01
1.469770781060e+01
-1.907568410266e+01
1.985065548247e+01
1.947926006147e+01
1.938213540263e+01
9.957470960937e+00
2.378657206961e+01
1.955995643828e+01
2.184379875388e+01
-2.040483596480e+00
-1.942555220641e+01
-2.022143911988e+01
1.722480418896e+01
2.076976201200e+01
1.891427309147e+01
-5.667280268389e+01
1.823291670910e+01
2.057813738153e+01
2.082071601439e+01
2.111123547023e+01
1.673018658915e+01
1.779092998476e+01
2.056558183577e+01
2.057460640376e+01
1.745663644937e+01
-4.849534371284e+01
1.012644262770e+01
1.006070052693e+01
-5.667604958705e+01
2.059263242800e+01
2.108767086626e+01
2.059828309784e+01
-4.894870523683e+01
-4.897750361874e+01
2.063095997588e+01
2.061587909743e+01
1.632295632687e+01
1.021470879537e+01
1.710127011862e+01
1.415450458026e+01
1.024861859228e+01
-4.545778339208e+01
-4.381185070708e+01
-4.418944677768e+01
-4.537996911766e+01
1.850814081470e+01
1.792596834830e+01
-5.637935814818e+01
1.962805963219e+01
-5.346569354916e+01
1.979318110180e+01
1.952742430129e+01
1.962709104112e+01
1.377870671385e+01
1.521495148566e+01
1.950156879363e+01
2.080350069278e+01
1.951962262812e+01
2.079046704990e+01
2.073658113135e+01
1.759909611514e+01
1.937303875209e+01
1.939553877434e+01
2.078199615232e+01
2.075793603966e+01
2.000210236690e+01
-1.875077429349e+01
1.836617260025e+01
-2.044854057761e+01
2.123481117449e+01
1.884137674434e+01
2.107958579662e+01
1.331246682855e+01
-2.979036217168e+00
2.093588749938e+01
1.873293424501e+01
1.690084707134e+01
2.098357212719e+01
1.834587372203e+01
1.683366141649e+01
2.244553156565e+01
2.135706614538e+01
2.050401499165e+01
2.064078823989e+01
2.455939597505e+01
1.356694086270e+01
2.111057214403e+01
2.039408587283e+01
2.090561224611e+01
2.084717258156e+01
1.399536666370e+01
1.828470878732e+01
1.767894523608e+01
1.293747761893e+01
2.117874484051e+01
2.042905623518e+01
1.834749618531e+01
1.802223001082e+01
2.012928779183e+01
2.084337768978e+01
1.748827685254e+01
2.064223220340e+01
2.107041972909e+01
1.828174644139e+01
1.645707679360e+01
2.233808703346e+01
1.363248459132e+01
1.364814291079e+01
8.099738687330e-01
1.866322626246e+00
1.800461538640e+01
2.086723492852e+01
-1.052688923975e+01
1.849201938260e+01
1.358549535001e+01
2.105469133871e+01
2.092909920563e+01
1.870237972700e+01
2.084027152875e+01
1.289596259375e+01
2.344710923058e+01
2.096380889223e+01
1.260374424778e+01
2.125858206005e+01
1.692758075894e+01
1.410899309798e+01
1.509570023847e+01
1.900270895155e+01
1.540833434946e+01
1.741423404658e+01
1.735063164182e+01
1.605690822723e+01
1.912677138288e+01
2.029984444045e+01
2.084138976411e+01
1.696180374822e+01
1.163019520507e+01
1.882515357083e+01
2.206072241489e+01
1.724698313301e+01
1.841213381994e+01
2.013763806788e+01
2.142446042242e+01
1.648144464770e+01
2.589536087939e+01
-8.122074847552e-01
2.365543048315e+01
2.097313957268e+01
1.598030752348e+01
1.932302630344e+01
1.423019202999e+01
2.211258863600e+01
1.918147658316e+01
2.102787906377e+01
1.337447818540e+01
2.119111636281e+01
1.908986782023e+01
1.397405731808e+01
1.878058872787e+01
1.785826157472e+01
1.578700393675e+01
1.935133485848e+01
-5.549749098431e+01
-5.446863357637e+01
1.989702038049e+01
1.265986668296e+01
2.028508837865e+01
2.019104046768e+01
1.830663190836e+01
1.741163051738e+01
1.783356603184e+01
2.451176553950e+01
1.797469141728e+01
2.197460179074e+01
1.062035752260e+01
1.490492020491e+01
1.357564712760e+01
1.043279857254e+01
2.165631440576e+01
1.667952874251e+01
1.264462811005e+01
1.809636870497e+01
1.814919152684e+01
1.446669411936e+01
1.717597002259e+01
1.432790043952e+01
2.062356073521e+01
1.926298062770e+01
1.840279328588e+01
1.787592027032e+01
2.042969394267e+01
2.112622205994e+01
1.147758216370e+01
2.109929986095e+01
1.672639100708e+01
1.922854984357e+01
1.594301243473e+01
1.713218079819e+01
2.448971154390e+01
1.758733839464e+01
1.851261598449e+01
1.914731557568e+01
1.738964044442e+01
1.723121119100e+01
1.636619722457e+01
1.977565272480e+01
1.522761119128e+01
5.098323775118e+00
1.632152022885e+01
1.486725712190e+01
2.130767075082e+01
1.684322363340e+01
2.124774384579e+01
2.117820493675e+01
1.834801728294e+01
1.373178171157e+01
6.823353368854e+00
2.100209823489e+01
1.555918966540e+01
-3.856368814602e-01
1.735256182691e+01
1.295568500242e+01
1.536312725463e+01
1.782739234717e+01
2.125955478230e+01
1.716928980580e+01
1.765249548290e+01
1.632049295383e+01
2.165025359159e+01
1.341118990628e+01
2.097079169091e+01
1.887226758401e+01
2.144104133951e+01
2.400788535507e+01
1.182729877855e+01
1.437241616634e+01
2.345188996655e+01
1.745745535164e+01
1.551937481057e+01
1.500814991826e+01
1.569374889136e+01
1.266342451205e+01
2.143863542572e+01
2.342493527167e+01
2.294277950898e+01
1.846109127013e+01
2.038175991325e+01
1.107607665747e+01
2.103071946990e+01
2.156458287083e+01
1.825533537317e+01
2.105494948410e+01
1.680613794453e+01
1.810749854806e+01
2.097643501402e+01
1.398639575727e+01
1.515275450238e+01
1.684780912021e+01
1.936844069265e+01
2.163244856311e+01
1.596732782275e+01
1.995126378316e+01
1.623403727895e+01
1.493697793552e+01
1.458513396152e+01
1.891030454238e+01
2.190216071806e+01
2.114483966685e+01
1.420325486057e+01
1.889277631619e+01
2.246213535843e+01
2.182899663850e+01
1.717609886483e+01
1.750685468092e+01
1.720023728848e+01
1.213086700785e+01
2.191896050996e+01
1.762388194853e+01
1.578336590067e+01
1.519054195318e+01
2.458495844676e+01
1.649796973502e+01
2.460703172046e+01
1.696968282671e+01
1.750386328016e+01
1.275715642319e+01
2.217441308718e+01
1.925129299200e+01
1.754757817944e+01
2.032153737475e+01
2.231023868254e+01
2.061345959283e+01
2.208041338058e+01
1.348395966334e+01
2.184051638282e+01
2.162762128743e+01
1.969211994004e+01
1.797504961856e+01
2.151683764109e+01
1.583010169889e+01
1.789308708797e+01
1.906977202484e+01
1.645530702480e+01
1.620396101516e+01
1.781240017520e+01
1.555133104142e+01
1.484102742520e+01
1.940948351989e+01
2.206915654223e+01
1.993430069302e+01
-4.576709112542e+01
2.288867120158e+01
2.086120269024e+01
1.834854714519e+01
1.523582815027e+01
1.989121532011e+01
1.686885785992e+01
1.816261382917e+01
1.728693043095e+01
1.704606313432e+01
3.547281795965e+00
9.435183144128e+00
1.717033550009e+01
1.715057923432e+01
2.190999398817e+01
1.931508998127e+01
1.326638421895e+01
1.030416598549e+01
1.435468633956e+01
1.604293726104e+01
2.246996668895e+01
2.023504785664e+01
1.528699519194e+01
1.772265709419e+01
1.972100162246e+01
2.438270927078e+01
1.997745132196e+01
1.547634728381e+01
1.838202832491e+01
2.326720863281e+01
2.146470260391e+01
1.382840087673e+01
1.790618067991e+01
2.015199735937e+01
2.128197182673e+01
1.620885365054e+01
2.087281480050e+01
2.230298999187e+01
2.361409733995e+01
1.678227791108e+01
2.355091893688e+01
1.618727948301e+01
2.401660563840e+01
2.212519215245e+01
1.686090215761e+01
2.190641451689e+01
2.132590018705e+01
1.967766995753e+01
1.720945089041e+01
1.584316238491e+01
1.600842722070e+01
1.801120566478e+01
2.227446581874e+01
2.206443761587e+01
1.668771333290e+01
1.788748334076e+01
1.374605313470e+01
1.894189367527e+01
1.064219741492e+01
2.192252777792e+01
1.822753790188e+01
2.325667841423e+01
1.474437345059e+01
1.735426628955e+01
2.280666744393e+01
2.460280615541e+01
1.835543159254e+01
2.199677476540e+01
1.656598324282e+01
2.357930115236e+01
1.651233393669e+01
1.692605889973e+01
2.084235099124e+01
2.173450525864e+01
1.886228209119e+01
1.470083681211e+01
1.402665828920e+01
2.041832638206e+01
2.228450532789e+01
2.241150919566e+01
7.890266916670e+00
2.463720111098e+01
2.453046622283e+01
2.320795590095e+01
2.087681093776e+01
1.861357290377e+01
1.851890061568e+01
1.818600536456e+01
1.594533238161e+01
1.729563947020e+01
2.177048380013e+01
1.842038348403e+01
1.646625946446e+01
1.874513182197e+01
2.467093993916e+01
1.698001004239e+01
1.803753144917e+01
1.707147239201e+01
1.661722369868e+01
2.186415753329e+01
2.197677026104e+01
2.214995281239e+01
2.144686597869e+01
1.038555730823e+01
2.299295529642e+01
1.649215849681e+01
1.469371640805e+01
2.383105887776e+01
2.411175957855e+01
2.460710850804e+01
2.391002340522e+01
2.409754469892e+01
2.390158318595e+01
1.425482918080e+01
1.962294740123e+01
1.550913754006e+01
1.155916996696e+01
2.704810250005e+01
2.019018405419e+01
2.320928162570e+01
1.872481675412e+01
2.492405322682e+01
2.049575836032e+01
1.564642490243e+01
2.626875056084e+01
2.347739551408e+01
2.465950893735e+01
1.451533767600e+01
2.206343252256e+01
1.986221881956e+01
2.215357318575e+01
2.204143570757e+01
2.374379312380e+01
1.702437693722e+01
2.135861429240e+01
2.183810326818e+01
2.483636493747e+01
1.606276891272e+01
2.171943862013e+01
1.740469622701e+01
2.456114617765e+01
2.445565468158e+01
1.938760888079e+01
2.582465884494e+01
1.779177209381e+01
1.543319584912e+01
1.962407471723e+01
2.096504804635e+01
1.848912830050e+01
1.777220318610e+01
1.888543714335e+01
1.651659340574e+01
1.935112579322e+01
2.232090684256e+01
2.260231886802e+01
1.427382235687e+01
1.930116086171e+01
1.747531654119e+01
2.482357399625e+01
1.952560589853e+01
1.339540506710e-01
2.159564001155e+01
2.467549285654e+01
1.598026693918e+01
2.496222738191e+01
2.173443139260e+01
1.614711666762e+01
1.659426331388e+01
2.326969784887e+01
2.229814919153e+01
2.204181959367e+01
1.913070455778e+01
1.687539647498e+01
2.193002708317e+01
1.611628146224e+01
1.872565955662e+01
1.727581508984e+01
1.762453994537e+01
2.398944856656e+01
2.157475073420e+01
1.691038333007e+01
2.411982944976e+01
4.492053396603e-01
2.158351429595e+01
2.467255374395e+01
1.622459658806e+01
2.240099830928e+01
1.376447751524e+01
2.123985955244e+01
2.311033100215e+01
1.827798702732e+01
1.859860870728e+01
2.321716934605e+01
1.767328472770e+01
2.439819331747e+01
1.989592362690e+01
2.916664716531e+00
1.905890957456e+01
6.231639802175e+00
7.576699491497e+00
2.485969015431e+01
8.936867732748e+00
2.277475654775e+01
2.295071996566e+01
2.445980539960e+01
2.285602794619e+01
2.485512691434e+01
1.808692406506e+01
1.890824607790e+01
2.173200548305e+01
2.201573653413e+01
2.308025559965e+01
1.766936616047e+01
2.483618108980e+01
2.134805690724e+01
1.732824276150e+01
1.725650243226e+01
2.415896987730e+01
2.467498097635e+01
2.012754353366e+01
1.703127806580e+01
2.109852555835e+01
2.360405468054e+01
2.092638304133e+01
1.843987877717e+01
2.116522244269e+01
1.686776879325e+01
2.438722576780e+01
1.929630382382e+01
2.291884444477e+01
1.774633221487e+01
1.988342980798e+01
1.549626390513e+01
2.261791891472e+01
2.470681620006e+01
2.276306842328e+01
2.094498775535e+01
1.831769993776e+01
1.969424946163e+01
2.466954430109e+01
2.448536742785e+01
2.148195794966e+01
2.178371694541e+01
2.414871502551e+01
2.428106363375e+01
2.246012448619e+01
2.306036034414e+01
2.478363740184e+01
1.657013486743e+01
2.106143391914e+01
1.719717850961e+01
2.113896989330e+01
1.590044537920e+01
1.446311807594e+01
1.768904634648e+01
2.234976490179e+01
2.159202537644e+01
1.647186283895e+01
1.862876083406e+01
1.519308511588e+01
2.407273541778e+01
2.124792290699e+01
1.837502490486e+01
2.275022061915e+01
2.213271986915e+01
2.413463218298e+01
1.690189292207e+01
1.626532062451e+01
2.295057767588e+01
1.686151719989e+01
2.281290566425e+01
2.111072544459e+01
2.419023841965e+01
2.407296214460e+01
1.867001598775e+01
1.619436031658e+01
2.364462718896e+01
2.137023324570e+01
1.643753029854e+01
2.181467108769e+01
2.351359870835e+01
2.618635404811e+01
2.099861293105e+01
1.935328227498e+01
2.300231456187e+01
2.048191293121e+01
2.088392839882e+01
2.210309426059e+01
2.298253968740e+01
1.545585441672e+01
1.982532767536e+01
2.474041033331e+01
2.121104683004e+01
2.223337228866e+01
2.459159702536e+01
1.989339128222e+01
2.327590431347e+01
2.039207691572e+01
2.282445774597e+01
1.963938054649e+01
2.050076706657e+01
2.377670511644e+01
2.148780165656e+01
1.866492791580e+01
2.133956381142e+01
2.242428021442e+01
2.401742063534e+01
2.028600546455e+01
2.101694914025e+01
1.898462264384e+01
2.063556775979e+01
1.602073740451e+01
2.138940255179e+01
2.188990350235e+01
1.028997346804e+01
1.030380988189e+01
1.690296406358e+01
2.049993217824e+01
1.980306754402e+01
1.786130322405e+01
2.295568456327e+01
2.215799553405e+01
2.394147640410e+01
1.951570231010e+01
1.298608407984e+01
2.228084146143e+01
2.044785661022e+01
2.382150505692e+01
1.894341302421e+01
2.011755182305e+01
1.808885296318e+01
1.600372742093e+01
1.826701135325e+01
1.840340210199e+01
8.813877415307e+00
1.918132031831e+01
1.691420123696e+01
1.706924589849e+01
1.732900690584e+01
2.223767770383e+01
1.155637789996e+01
2.214456029116e+01
2.001079295128e+01
1.874882355789e+01
8.258898423042e+00
9.272085552112e+00
1.598278267143e+01
2.242153007463e+01
1.960330353300e+01
2.296639974898e+01
2.412976959697e+01
2.084690301122e+01
1.797223904817e+01
1.937501599697e+01
2.150104996524e+01
-1.347154364710e-01
2.308645113519e+01
2.033510295762e+01
-6.185575852778e-01
1.802293247371e+01
2.340143928356e+01
1.724395835310e+01
1.852277521344e+01
2.362627636485e+01
2.324886386538e+01
1.832652773931e+01
2.314951032423e+01
2.126552735200e+01
2.067656820392e+01
3.041858913564e+01
2.477558813593e+01
2.095722949455e+01
1.503377796301e+01
2.118206663871e+01
2.330358871545e+01
1.787637639391e+01
2.062046797566e+01
1.026268385156e+01
2.075251576060e+01
2.131950800297e+01
2.111614182885e+01
1.963528130192e+01
1.952563949021e+01
1.864950733309e+01
2.271015154342e+01
1.888129479185e+01
2.416097770188e+01
2.281426145353e+01
2.282700353430e+01
2.445775631530e+01
2.452107340871e+01
2.459648478318e+01
1.770368564924e+01
2.387200977962e+01
1.789226237677e+01
2.233868304815e+01
2.272265077041e+01
2.340314206068e+01
1.551153956312e+01
2.130097081431e+01
2.116257101523e+01
2.213570168554e+01
1.828712763562e+01
2.100203227449e+01
1.151264777145e+01
1.959932309842e+01
3.257048793423e+01
2.113268258901e+01
2.474173930673e+01
1.908340068553e+01
2.282994979699e+01
1.550821764675e+01
1.496754173562e+01
2.061445951589e+01
6.264125430135e+00
7.157155753303e+00
2.104205347768e+01
2.297957987862e+01
2.407952536497e+01
2.345314824929e+01
2.449130640762e+01
2.397660889793e+01
4.455919685421e+00
1.375044791772e+01
1.030397038139e+01
2.268295650829e+01
2.350850040559e+01
2.168378764100e+01
2.084690329407e+01
2.464166729256e+01
2.091346717113e+01
2.357940600405e+01
2.176984261603e+01
2.145407730242e+01
2.170379236779e+01
2.223969866491e+01
1.761119236597e+01
1.853414855854e+01
2.432232162088e+01
1.810428672306e+01
2.259817885501e+01
2.211654575234e+01
2.409845289021e+01
2.041806207258e+01
1.785054477487e+01
2.785826090134e+01
2.392225710255e+01
2.285462602643e+01
7.160821287196e+00
1.961355595813e+01
1.951858136957e+01
1.560365292875e+01
5.883116947373e+00
1.987380681248e+01
3.499586537224e+01
5.574651918481e+00
2.369843826378e+01
1.936330101179e+01
1.150934579795e+01
2.308147318117e+01
2.270119341901e+01
2.088986000986e+01
2.345226395726e+01
1.891913692285e+01
2.379359206843e+01
1.937877000533e+01
1.943141272092e+01
1.578421576635e+01
1.112944967366e+01
1.566376943759e+01
2.021528725909e+01
-1.782995464680e+00
1.396216133459e+01
1.224164323193e+01
1.939850387990e+01
2.388549227065e+01
2.258816470363e+01
2.349816851679e+01
1.965057811858e+01
1.682018148253e+01
1.949519326359e+01
2.452367617034e+01
1.874014095616e+01
1.296240947557e+01
2.238425743080e+01
1.946184907618e+01
1.962026987073e+01
6.719458549460e+00
2.368769722178e+01
1.956627201223e+01
1.586116036311e+01
1.487860311018e+01
6.424862574836e+00
1.970161629740e+01
2.111260820033e+01
2.216012993119e+01
2.168454668747e+01
1.127610313658e+01
2.148785929196e+01
2.372283897673e+01
1.087420232522e+00
1.954249921309e+01
1.459066087929e+01
1.185108690181e+01
1.966804328994e+01
2.323347875721e+01
1.962151719362e+01
2.550503019442e+01
1.808609489537e+01
2.252368164447e+01
2.245326379844e+01
2.213035601667e+01
1.975893460790e+01
1.972784936177e+01
2.414514558103e+01
5.710452570029e+00
2.785665985321e+01
1.982896608030e+01
2.247200001136e+01
1.940577159806e+01
1.915415332538e+01
1.178416061504e+01
1.841392772203e+01
2.148315559222e+01
9.114087706180e+00
1.949364610498e+01
2.057171952805e+01
1.258131719376e+01
2.116748286168e+01
2.166629856198e+01
2.400779552146e+01
4.096010419997e+00
3.499586537224e+01
1.852247774424e+01
1.630535424555e+01
1.043704661064e+01
2.114241160540e+01
1.286603442874e+01
2.125868643460e+01
1.623106908785e+01
1.888639963944e+01
2.161929309413e+01
2.059947687750e+01
2.158430222620e+01
1.930354929181e+01
1.737870854171e+01
2.082730533927e+01
2.238840694851e+01
1.876312535971e+01
8.124059389626e+00
2.370421795112e+01
1.743861356506e+01
1.764674872700e+01
1.769294804051e+01
2.223691151716e+01
1.785867290301e+01
1.490141609651e+01
8.571476546173e+00
1.683582497679e+01
2.324403108227e+01
2.355055650499e+01
1.913573301509e+01
1.925389340444e+01
-1.291167785948e+00
1.672983076899e+01
2.022287982450e+01
2.441941797715e+01
2.285072645346e+01
1.323667805986e+01
2.240352438072e+01
1.829875198435e+01
2.309643263622e+01
2.325632169721e+01
2.333827333867e+01
2.054530142809e+01
2.346034003285e+01
2.343979382857e+01
2.234428926284e+01
1.553884530433e+01
1.641054811332e+01
2.265946201376e+01
2.354885283276e+01
1.917968420875e+01
1.630322674369e+01
1.862312138604e+01
1.808300533907e+01
-1.789288827522e+01
2.308389062479e+01
1.437489872643e+01
1.512686346615e+01
1.928480240132e+01
2.278184825715e+01
1.956906859307e+01
2.295611488355e+01
1.017115488350e+01
2.096389700989e+01
1.308911442665e+01
2.247667517084e+01
2.301793424595e+01
1.054802586140e+01
1.777097723174e+01
2.428471647523e+01
3.398040825143e+00
2.355737312100e+01
1.989500227704e+01
1.747269147817e+01
1.055780630439e+01
1.905052763801e+01
1.876196636369e+01
2.204041196953e+01
1.797903091950e+01
1.463262275205e+01
2.357466985886e+01
1.530651428388e+01
8.871413052547e+00
2.065423554280e+01
1.950904977911e+01
1.353989195086e+01
1.889612924132e+01
1.983103220328e+01
2.323944822487e+01
2.165365659893e+01
2.170823846511e+01
8.360358484821e+00
1.371313529243e+01
1.918608427061e+01
1.699232127617e+01
2.209411477284e+01
2.398733491461e+01
2.650018842005e+01
1.320692618614e+01
2.324738315343e+01
1.561416459290e+01
2.189796610335e+01
2.090367379982e+01
2.100572739494e+01
2.198139629192e+01
1.170715431173e+01
7.428618705143e+00
2.674240004476e+01
1.772996427292e+01
2.528708466640e+01
2.341949525401e+01
2.039526882516e+01
2.205639147940e+01
2.062018378916e+01
1.822999564992e+01
2.080165865954e+01
1.854412851254e+01
1.766051733650e+01
1.937778935292e+01
2.074721283026e+01
1.358647467529e+01
1.978864985669e+01
3.115460492997e+00
1.975178175348e+01
2.059024287359e+01
3.000666320316e+01
2.807638416944e+01
2.224457387067e+01
1.191542771214e+01
1.860847732029e+01
1.885359655329e+01
2.176938756117e+01
1.856711616977e+01
1.378011000277e+01
1.618243829716e+01
1.664729628226e+01
1.626902777116e+01
2.167227305864e+01
9.897766426433e+00
1.210738014256e+01
1.343940090466e+01
1.384067303258e+01
2.323747692282e+01
1.574405078676e+01
1.902922514758e+01
1.503430595465e+01
2.132871072645e+01
1.923470253808e+01
1.789592965467e+01
1.857669593520e+01
1.794683312228e+01
1.756225938940e+01
2.140197077180e+01
2.164995600426e+01
1.433229535038e+01
2.093824222205e+01
9.865970667070e+00
1.212495207248e+01
2.207217672437e+01
-5.341181003200e+00
-2.267391865306e+01
1.942888480921e+01
1.000541646890e+01
1.894392237314e+01
2.162159052763e+01
1.001023757574e+01
8.177817672934e+00
1.908656453820e+01
8.958947158474e+00
1.872100565588e+01
2.058167238425e+01
1.905381881463e+01
2.308664102904e+01
1.328236138502e+01
1.785715881342e+01
2.194840422414e+01
2.125266404966e+01
1.715215050197e+01
2.133601681081e+01
2.607554744928e+01
2.090872777297e+01
2.051388446889e+01
9.687019674810e+00
2.158123462044e+01
1.914526942327e+01
1.917997527147e+01
1.190600291715e+01
1.360090301559e+01
2.025955566499e+01
1.965749286497e+01
1.661606989827e+01
2.278988531601e+01
2.203208717553e+01
1.011499257956e+01
1.890700134683e+01
1.935562194729e+01
1.949713751236e+01
-4.732799599352e+01
-5.194286822302e+01
1.054131601247e+01
1.025983682537e+01
2.057444270588e+01
2.069297554404e+01
-2.316996766562e+01
8.703347213129e+00
2.084231624821e+01
2.118046218259e+01
1.316457853139e+01
2.100840530083e+01
1.942817243305e+01
1.879246838223e+01
1.561688928912e+01
1.516742678099e+01
2.235669728752e+01
7.380685034922e+00
1.842630471842e+01
1.947033006669e+01
1.839227539997e+01
1.871979254449e+01
1.447206269684e+01
2.065228994872e+01
1.893283992904e+01
1.845454758218e+01
1.013723227881e+01
2.301300955668e+01
1.896962937648e+01
1.442701879928e+01
-2.452565915184e+01
2.029363736540e+01
2.258796519994e+01
1.486612432857e+01
1.629527988402e+01
2.070069109311e+01
2.086643793163e+01
2.092879752609e+01
1.973097882182e+01
2.507059417756e+01
2.521396671621e+01
1.818311154733e+01
1.323660661690e+01
2.266815343718e+01
1.874015540588e+01
2.125108764386e+01
7.187150584740e+00
-2.356051750578e+00
2.584192941609e+01
1.655526748359e+01
1.643435047873e+01
1.883412357425e+01
1.413979064937e+01
2.173725614218e+01
1.321512445455e+01
2.105657577509e+01
2.159116254874e+01
1.326602829741e+01
2.149437440367e+01
1.915334292162e+01
1.901234127097e+01
2.631359093829e+01
1.862823735617e+01
2.055085501346e+01
2.197813540989e+01
2.168513060509e+01
2.059768942798e+01
1.838625894712e+01
9.603295764581e+00
2.242668481727e+01
1.906743017080e+01
1.432720108398e+01
2.075525097528e+01
2.135891487231e+01
2.080368779484e+01
1.734373469322e+01
2.109102006249e+01
2.142771087744e+01
2.155639943215e+01
1.646257813855e+01
2.085112301416e+01
1.166734274850e+01
1.857446030098e+01
1.290126099575e-02
1.812888492074e+01
1.634516408520e+01
-1.781009198734e+00
2.245139909866e+01
1.881043576815e+01
1.912214359197e+01
1.866846228913e+01
2.154656641931e+01
1.439657576430e+01
-2.528534362386e+01
2.441994401647e+01
-1.672460922874e+01
5.070176971832e+00
3.499586537224e+01
1.827226404973e+01
2.079344446668e+01
1.905803060926e+01
1.435303458455e+01
1.785930526379e+01
2.136485078924e+01
2.206560360935e+01
2.141211305716e+01
2.041807304365e+01
1.924928266852e+01
-2.277421958091e+00
2.228905717386e+01
2.087031471101e+01
-2.779588094880e-01
4.912686365268e+00
2.793242238480e+01
-6.679088625898e+00
2.103662096434e+01
2.017945393005e+01
1.877459847739e+01
2.106584152002e+01
2.207086318807e+01
1.507497279819e+01
1.969792044517e+01
1.902720371509e+01
9.916526236385e+00
1.366835800964e+01
-2.084829695232e+01
2.078555226981e+01
1.198005393872e+01
7.280243539281e+00
1.801730282993e+01
1.992464011569e+01
1.867406389787e+01
1.933101689772e+01
1.559614110984e+01
2.032018556339e+01
2.111261067942e+01
1.937485636482e+01
2.075688732912e+01
1.184764037791e+01
2.156256577800e+01
8.925238977603e+00
1.888124606126e+01
-2.305303504498e+01
2.111626086499e+01
1.922216124831e+01
1.767576964284e+01
2.099193404062e+01
1.696032342049e+01
1.914336649109e+01
2.086352808759e+01
1.585404064480e+01
2.007227611895e+01
1.888425651071e+01
1.641604467241e+01
1.961217963427e+01
1.704290053699e+01
1.016767808736e+01
2.131568856527e+01
1.912300640905e+01
-5.824603930675e+01
1.027796475632e+01
2.068136008974e+01
9.615216058288e+00
2.212765332633e+01
1.889203033969e+01
1.901798253745e+01
1.219331516135e+01
2.490409163237e+01
1.899817403560e+01
1.778128259345e+01
1.059261516033e+01
1.927702887555e+01
1.557753026660e+01
1.447040486613e+01
1.478386706673e+01
2.122309076601e+01
1.918134118075e+01
3.499586537224e+01
1.655807160600e+01
1.864559901575e+01
1.931265116254e+01
2.147171626130e+01
1.845156347810e+01
1.873336758720e+01
-7.119908960973e+00
2.114480605628e+01
2.029724221716e+01
2.408336704064e+01
1.912068301185e+01
2.066098298903e+01
1.194387946435e+01
1.553714112636e+01
1.844688710749e+01
1.859828683144e+01
1.877407645410e+01
2.212791036001e+01
1.196452206040e+01
2.028749128775e+01
1.343178773996e+01
1.909760721688e+01
2.195619014971e+01
1.472556484313e+01
1.932495137108e+01
2.150134022679e+01
2.151121503633e+01
3.172036219666e+01
1.932546725875e+01
1.962855186924e+01
-6.990642341382e+00
1.820481202814e+01
2.949315949344e+01
1.947857075409e+01
-3.708588380346e+01
-3.498268049342e+01
-3.728153306495e+01
-3.525747038839e+01
-3.722960631181e+01
-3.526986797550e+01
-3.752468926528e+01
-3.514972283720e+01
-3.813713369338e+01
-3.496723892594e+01
-3.904731147676e+01
-3.477976577945e+01
-4.026498943386e+01
-3.460044324403e+01
-4.183726514140e+01
-3.442032279031e+01
-4.380522369868e+01
-1.451313584991e+01
-3.421351406893e+01
-4.620612422405e+01
-1.217148732373e+01
-3.393265774362e+01
-4.910645053173e+01
-3.351891115469e+01
-5.252025583389e+01
-3.288919210022e+01
-4.400285889832e+01
-5.597900642851e+01
-3.198270703682e+01
-5.705613143254e+01
-3.183669664200e+01
-5.740412829738e+01
-3.153292109924e+01
-5.748635157786e+01
-3.056611183817e+01
-5.763233604754e+01
-2.860214631330e+01
3.018221653181e+00
-2.475521374208e+01
-5.689667648900e+01
-2.131010721842e+01
-5.468635668238e+01
-4.242055623862e+01
-2.132790820785e+00
-3.481345482608e+01
-3.405516976677e+01
-3.213137276423e+01
-3.725889782358e+01
8.030686068185e+00
-1.733268086545e+01
-1.928028499503e+01
-1.936486487716e+01
-1.949850433910e+01
-1.946422127568e+01
-1.949626154637e+01
-1.942148095999e+01
-1.948402897149e+01
-1.937399288830e+01
-1.946739768890e+01
-1.932299225851e+01
-1.941957060752e+01
-1.925910219270e+01
-1.937241424642e+01
-1.916996903558e+01
-1.930182561428e+01
-4.454605219709e+00
-1.904537931646e+01
-1.921200912105e+01
-1.163322575820e+01
-1.888604203688e+01
-1.911571380590e+01
-5.898630267679e+00
-1.866739973827e+01
-1.900152262338e+01
-1.835026843766e+01
-1.886290286742e+01
-1.778265010666e+01
-1.862686508091e+01
-5.744549187703e-01
-1.699988971215e+01
-1.822224294505e+01
-1.615675824007e+01
-1.793186397665e+01
-1.712660135653e+01
-1.477575462055e+01
-1.617800398853e+01
-1.245999666015e+01
-1.271440395890e+01
-1.054705800480e+01
-5.204870907163e+00
-1.887977288715e+01
-1.684065590246e+01
-2.489525658082e+01
-1.359110492306e+01
-1.764308666068e+00
-5.140492122914e+00
-4.292539089808e+00
-4.275700699713e+00
-4.268403583226e+00
-4.274465701917e+00
-4.269102847590e+00
-4.274404914636e+00
-4.282862609612e+00
-4.288975969642e+00
-4.302561476569e+00
-4.305037987656e+00
-4.318609808061e+00
-4.313831162643e+00
-4.346462675237e+00
-4.333421995444e+00
5.482457781786e-01
-4.390580244666e+00
-1.682043989888e+00
-4.367935611306e+00
-4.399083614101e+00
-4.331780870041e+00
-4.406314270784e+00
-4.292009073050e+00
-4.422642990827e+00
-2.884391226235e+00
-4.238271894767e+00
-4.434190275547e+00
-4.141896711188e+00
-4.388467692522e+00
-3.988975123506e+00
-4.226398981181e+00
-3.550653628896e+00
-3.855004832588e+00
-3.185626529904e+00
-3.033185854194e+00
1.102682527926e+00
-1.857359531046e+00
-2.469187772132e+00
-3.744668957943e+00
-5.051631595754e+00
-2.028203734092e+00
-7.367064766357e+00
2.933255784761e-01
3.778358543419e+00
3.228643599755e+00
3.209289520723e+00
3.139923908024e+00
3.137142266473e+00
3.139942253015e+00
3.125536655411e+00
3.100265594337e+00
3.076804864795e+00
3.075135440032e+00
3.037427663589e+00
3.035167473722e+00
2.977263813717e+00
4.705652194163e+00
3.011960610682e+00
2.911598258695e+00
2.759016913995e+00
2.910216333784e+00
2.804064853851e+00
3.410354002003e+00
2.887438705085e+00
2.739846537880e+00
2.901417066572e+00
2.702678137945e+00
2.896698457723e+00
4.607080258005e+00
2.654201763499e+00
2.925634192390e+00
3.025289160140e+00
2.658511427633e+00
3.121717720436e+00
2.740928064170e+00
3.780438037993e+00
2.926333613379e+00
2.150010200162e+00
3.039094021466e+00
3.888415613276e+00
1.895074291676e+00
4.717589402604e+00
3.567022384504e+00
7.420036786451e+00
7.592057416675e+00
7.583669402603e+00
7.603044189225e+00
7.575809777980e+00
7.597727714457e+00
7.587623718589e+00
7.520804949961e+00
7.505853471970e+00
7.492911955020e+00
7.493976246505e+00
7.433489892631e+00
7.910046046300e+00
7.432499717075e+00
7.203934047905e+00
7.341149082558e+00
7.391158076203e+00
7.286837461038e+00
7.291643013523e+00
7.204427943198e+00
7.265584339734e+00
7.132019989258e+00
6.670613597822e+00
7.255332637252e+00
7.053332945825e+00
7.205859267174e+00
7.009578304711e+00
7.055195593870e+00
7.244896433891e+00
7.393819968599e+00
7.724686163848e+00
6.123364084041e+00
7.747244770405e+00
7.389534605773e+00
8.459668427521e+00
6.562802147812e+00
6.826648748437e+00


