# vtk DataFile Version 2.0
Calculation C:\Users\johan\Documents\GitHub\TOCHNOG\standsicherheit_phiC at time 3.000000000000e+00 
ASCII
DATASET UNSTRUCTURED_GRID
Field FieldData 1
Time 1 1 double
3.000000000000e+00

POINTS 1220 float
0.0 0.0 0.0 
5.000000000000e+01 -1.000000000000e+01 0.0 
0.0 -2.000000000000e+01 0.0 
5.000000000000e+01 -2.000000000000e+01 0.0 
0.0 -9.999999999991e-01 0.0 
0.0 -1.999999999998e+00 0.0 
0.0 -2.999999999997e+00 0.0 
0.0 -3.999999999994e+00 0.0 
0.0 -4.999999999991e+00 0.0 
0.0 -5.999999999988e+00 0.0 
0.0 -6.999999999985e+00 0.0 
0.0 -7.999999999982e+00 0.0 
0.0 -8.999999999983e+00 0.0 
0.0 -9.999999999985e+00 0.0 
0.0 -1.099999999999e+01 0.0 
0.0 -1.199999999999e+01 0.0 
0.0 -1.299999999999e+01 0.0 
0.0 -1.399999999999e+01 0.0 
0.0 -1.499999999999e+01 0.0 
0.0 -1.599999999999e+01 0.0 
0.0 -1.700000000000e+01 0.0 
0.0 -1.800000000000e+01 0.0 
0.0 -1.900000000000e+01 0.0 
4.900000000001e+01 -2.000000000000e+01 0.0 
4.800000000001e+01 -2.000000000000e+01 0.0 
4.700000000002e+01 -2.000000000000e+01 0.0 
4.600000000003e+01 -2.000000000000e+01 0.0 
4.500000000004e+01 -2.000000000000e+01 0.0 
4.400000000004e+01 -2.000000000000e+01 0.0 
4.300000000005e+01 -2.000000000000e+01 0.0 
4.200000000006e+01 -2.000000000000e+01 0.0 
4.100000000006e+01 -2.000000000000e+01 0.0 
4.000000000007e+01 -2.000000000000e+01 0.0 
3.900000000008e+01 -2.000000000000e+01 0.0 
3.800000000009e+01 -2.000000000000e+01 0.0 
3.700000000009e+01 -2.000000000000e+01 0.0 
3.600000000010e+01 -2.000000000000e+01 0.0 
3.500000000011e+01 -2.000000000000e+01 0.0 
3.400000000011e+01 -2.000000000000e+01 0.0 
3.300000000012e+01 -2.000000000000e+01 0.0 
3.200000000013e+01 -2.000000000000e+01 0.0 
3.100000000013e+01 -2.000000000000e+01 0.0 
3.000000000013e+01 -2.000000000000e+01 0.0 
2.900000000013e+01 -2.000000000000e+01 0.0 
2.800000000013e+01 -2.000000000000e+01 0.0 
2.700000000013e+01 -2.000000000000e+01 0.0 
2.600000000013e+01 -2.000000000000e+01 0.0 
2.500000000013e+01 -2.000000000000e+01 0.0 
2.400000000013e+01 -2.000000000000e+01 0.0 
2.300000000013e+01 -2.000000000000e+01 0.0 
2.200000000013e+01 -2.000000000000e+01 0.0 
2.100000000013e+01 -2.000000000000e+01 0.0 
2.000000000013e+01 -2.000000000000e+01 0.0 
1.900000000013e+01 -2.000000000000e+01 0.0 
1.800000000013e+01 -2.000000000000e+01 0.0 
1.700000000012e+01 -2.000000000000e+01 0.0 
1.600000000011e+01 -2.000000000000e+01 0.0 
1.500000000011e+01 -2.000000000000e+01 0.0 
1.400000000010e+01 -2.000000000000e+01 0.0 
1.300000000009e+01 -2.000000000000e+01 0.0 
1.200000000009e+01 -2.000000000000e+01 0.0 
1.100000000008e+01 -2.000000000000e+01 0.0 
1.000000000007e+01 -2.000000000000e+01 0.0 
9.000000000064e+00 -2.000000000000e+01 0.0 
8.000000000057e+00 -2.000000000000e+01 0.0 
7.000000000050e+00 -2.000000000000e+01 0.0 
6.000000000043e+00 -2.000000000000e+01 0.0 
5.000000000036e+00 -2.000000000000e+01 0.0 
4.000000000028e+00 -2.000000000000e+01 0.0 
3.000000000021e+00 -2.000000000000e+01 0.0 
2.000000000014e+00 -2.000000000000e+01 0.0 
1.000000000007e+00 -2.000000000000e+01 0.0 
5.000000000000e+01 -1.100000000000e+01 0.0 
5.000000000000e+01 -1.200000000000e+01 0.0 
5.000000000000e+01 -1.300000000000e+01 0.0 
5.000000000000e+01 -1.400000000000e+01 0.0 
5.000000000000e+01 -1.500000000000e+01 0.0 
5.000000000000e+01 -1.600000000000e+01 0.0 
5.000000000000e+01 -1.700000000000e+01 0.0 
5.000000000000e+01 -1.800000000000e+01 0.0 
5.000000000000e+01 -1.900000000000e+01 0.0 
2.000000000000e+01 0.0 0.0 
3.500000000000e+01 -1.000000000000e+01 0.0 
2.150000000000e+01 -1.000000000000e+00 0.0 
2.300000000000e+01 -2.000000000000e+00 0.0 
2.450000000000e+01 -3.000000000000e+00 0.0 
2.600000000000e+01 -4.000000000000e+00 0.0 
2.750000000000e+01 -5.000000000000e+00 0.0 
2.900000000000e+01 -6.000000000000e+00 0.0 
3.050000000000e+01 -7.000000000000e+00 0.0 
3.200000000000e+01 -8.000000000000e+00 0.0 
3.350000000000e+01 -9.000000000000e+00 0.0 
5.000000000000e+01 -2.000000000000e+00 0.0 
5.000000000000e+01 -3.000000000000e+00 0.0 
5.000000000000e+01 -4.000000000000e+00 0.0 
5.000000000000e+01 -5.000000000000e+00 0.0 
5.000000000000e+01 -6.000000000000e+00 0.0 
5.000000000000e+01 -7.000000000000e+00 0.0 
5.000000000000e+01 -8.000000000000e+00 0.0 
5.000000000000e+01 -9.000000000000e+00 0.0 
4.900000000000e+01 -1.000000000000e+01 0.0 
4.800000000000e+01 -1.000000000000e+01 0.0 
4.700000000000e+01 -1.000000000000e+01 0.0 
4.600000000000e+01 -1.000000000000e+01 0.0 
4.500000000000e+01 -1.000000000000e+01 0.0 
4.400000000000e+01 -1.000000000000e+01 0.0 
4.300000000000e+01 -1.000000000000e+01 0.0 
4.200000000000e+01 -1.000000000000e+01 0.0 
4.100000000000e+01 -1.000000000000e+01 0.0 
4.000000000000e+01 -1.000000000000e+01 0.0 
3.900000000000e+01 -1.000000000000e+01 0.0 
3.800000000000e+01 -1.000000000000e+01 0.0 
3.700000000000e+01 -1.000000000000e+01 0.0 
3.600000000000e+01 -1.000000000000e+01 0.0 
1.900000000000e+01 0.0 0.0 
1.800000000000e+01 0.0 0.0 
1.700000000000e+01 0.0 0.0 
1.600000000000e+01 0.0 0.0 
1.500000000000e+01 0.0 0.0 
1.400000000000e+01 0.0 0.0 
1.300000000000e+01 0.0 0.0 
1.200000000000e+01 0.0 0.0 
1.100000000000e+01 0.0 0.0 
1.000000000000e+01 0.0 0.0 
9.000000000000e+00 0.0 0.0 
8.000000000000e+00 0.0 0.0 
7.000000000000e+00 0.0 0.0 
6.000000000000e+00 0.0 0.0 
5.000000000000e+00 0.0 0.0 
4.000000000000e+00 0.0 0.0 
3.000000000000e+00 0.0 0.0 
2.000000000000e+00 0.0 0.0 
1.000000000000e+00 0.0 0.0 
2.400000000000e+01 -2.000000000000e+00 0.0 
2.500000000000e+01 -2.000000000000e+00 0.0 
2.600000000000e+01 -2.000000000000e+00 0.0 
2.700000000000e+01 -2.000000000000e+00 0.0 
2.800000000000e+01 -2.000000000000e+00 0.0 
2.900000000000e+01 -2.000000000000e+00 0.0 
3.000000000000e+01 -2.000000000000e+00 0.0 
3.100000000000e+01 -2.000000000000e+00 0.0 
3.200000000000e+01 -2.000000000000e+00 0.0 
3.300000000000e+01 -2.000000000000e+00 0.0 
3.400000000000e+01 -2.000000000000e+00 0.0 
3.500000000000e+01 -2.000000000000e+00 0.0 
3.600000000000e+01 -2.000000000000e+00 0.0 
3.700000000000e+01 -2.000000000000e+00 0.0 
3.800000000000e+01 -2.000000000000e+00 0.0 
3.900000000000e+01 -2.000000000000e+00 0.0 
4.000000000000e+01 -2.000000000000e+00 0.0 
4.100000000000e+01 -2.000000000000e+00 0.0 
4.200000000000e+01 -2.000000000000e+00 0.0 
4.300000000000e+01 -2.000000000000e+00 0.0 
4.400000000000e+01 -2.000000000000e+00 0.0 
4.500000000000e+01 -2.000000000000e+00 0.0 
4.600000000000e+01 -2.000000000000e+00 0.0 
4.700000000000e+01 -2.000000000000e+00 0.0 
4.800000000000e+01 -2.000000000000e+00 0.0 
4.900000000000e+01 -2.000000000000e+00 0.0 
2.548076923077e+01 -3.000000000000e+00 0.0 
2.646153846153e+01 -3.000000000000e+00 0.0 
2.744230769230e+01 -3.000000000000e+00 0.0 
2.842307692306e+01 -3.000000000000e+00 0.0 
2.940384615383e+01 -3.000000000000e+00 0.0 
3.038461538459e+01 -3.000000000000e+00 0.0 
3.136538461536e+01 -3.000000000000e+00 0.0 
3.234615384612e+01 -3.000000000000e+00 0.0 
3.332692307687e+01 -3.000000000000e+00 0.0 
3.430769230762e+01 -3.000000000000e+00 0.0 
3.528846153837e+01 -3.000000000000e+00 0.0 
3.626923076912e+01 -3.000000000000e+00 0.0 
3.724999999988e+01 -3.000000000000e+00 0.0 
3.823076923065e+01 -3.000000000000e+00 0.0 
3.921153846143e+01 -3.000000000000e+00 0.0 
4.019230769221e+01 -3.000000000000e+00 0.0 
4.117307692299e+01 -3.000000000000e+00 0.0 
4.215384615377e+01 -3.000000000000e+00 0.0 
4.313461538455e+01 -3.000000000000e+00 0.0 
4.411538461533e+01 -3.000000000000e+00 0.0 
4.509615384611e+01 -3.000000000000e+00 0.0 
4.607692307688e+01 -3.000000000000e+00 0.0 
4.705769230766e+01 -3.000000000000e+00 0.0 
4.803846153844e+01 -3.000000000000e+00 0.0 
4.901923076922e+01 -3.000000000000e+00 0.0 
4.900000000000e+01 -4.000000000000e+00 0.0 
4.800000000000e+01 -4.000000000000e+00 0.0 
4.700000000000e+01 -4.000000000000e+00 0.0 
4.600000000000e+01 -4.000000000000e+00 0.0 
4.500000000000e+01 -4.000000000000e+00 0.0 
4.400000000000e+01 -4.000000000000e+00 0.0 
4.300000000000e+01 -4.000000000000e+00 0.0 
4.200000000000e+01 -4.000000000000e+00 0.0 
4.100000000000e+01 -4.000000000000e+00 0.0 
4.000000000000e+01 -4.000000000000e+00 0.0 
3.900000000000e+01 -4.000000000000e+00 0.0 
3.800000000000e+01 -4.000000000000e+00 0.0 
3.700000000000e+01 -4.000000000000e+00 0.0 
3.600000000000e+01 -4.000000000000e+00 0.0 
3.500000000000e+01 -4.000000000000e+00 0.0 
3.400000000000e+01 -4.000000000000e+00 0.0 
3.300000000000e+01 -4.000000000000e+00 0.0 
3.200000000000e+01 -4.000000000000e+00 0.0 
3.100000000000e+01 -4.000000000000e+00 0.0 
3.000000000000e+01 -4.000000000000e+00 0.0 
2.900000000000e+01 -4.000000000000e+00 0.0 
2.800000000000e+01 -4.000000000000e+00 0.0 
2.700000000000e+01 -4.000000000000e+00 0.0 
2.847826086957e+01 -5.000000000000e+00 0.0 
2.945652173913e+01 -5.000000000000e+00 0.0 
3.043478260870e+01 -5.000000000000e+00 0.0 
3.141304347826e+01 -5.000000000000e+00 0.0 
3.239130434783e+01 -5.000000000000e+00 0.0 
3.336956521739e+01 -5.000000000000e+00 0.0 
3.434782608696e+01 -5.000000000000e+00 0.0 
3.532608695652e+01 -5.000000000000e+00 0.0 
3.630434782609e+01 -5.000000000000e+00 0.0 
3.728260869565e+01 -5.000000000000e+00 0.0 
3.826086956522e+01 -5.000000000000e+00 0.0 
3.923913043478e+01 -5.000000000000e+00 0.0 
4.021739130435e+01 -5.000000000000e+00 0.0 
4.119565217391e+01 -5.000000000000e+00 0.0 
4.217391304348e+01 -5.000000000000e+00 0.0 
4.315217391304e+01 -5.000000000000e+00 0.0 
4.413043478261e+01 -5.000000000000e+00 0.0 
4.510869565217e+01 -5.000000000000e+00 0.0 
4.608695652174e+01 -5.000000000000e+00 0.0 
4.706521739130e+01 -5.000000000000e+00 0.0 
4.804347826087e+01 -5.000000000000e+00 0.0 
4.902173913043e+01 -5.000000000000e+00 0.0 
4.900000000001e+01 -6.000000000000e+00 0.0 
4.800000000003e+01 -6.000000000000e+00 0.0 
4.700000000004e+01 -6.000000000000e+00 0.0 
4.600000000006e+01 -6.000000000000e+00 0.0 
4.500000000007e+01 -6.000000000000e+00 0.0 
4.400000000009e+01 -6.000000000000e+00 0.0 
4.300000000010e+01 -6.000000000000e+00 0.0 
4.200000000012e+01 -6.000000000000e+00 0.0 
4.100000000013e+01 -6.000000000000e+00 0.0 
4.000000000014e+01 -6.000000000000e+00 0.0 
3.900000000014e+01 -6.000000000000e+00 0.0 
3.800000000012e+01 -6.000000000000e+00 0.0 
3.700000000010e+01 -6.000000000000e+00 0.0 
3.600000000008e+01 -6.000000000000e+00 0.0 
3.500000000006e+01 -6.000000000000e+00 0.0 
3.400000000005e+01 -6.000000000000e+00 0.0 
3.300000000003e+01 -6.000000000000e+00 0.0 
3.200000000001e+01 -6.000000000000e+00 0.0 
3.100000000000e+01 -6.000000000000e+00 0.0 
3.000000000000e+01 -6.000000000000e+00 0.0 
3.147499999998e+01 -7.000000000000e+00 0.0 
3.244999999998e+01 -7.000000000000e+00 0.0 
3.342499999998e+01 -7.000000000000e+00 0.0 
3.439999999998e+01 -7.000000000000e+00 0.0 
3.537499999998e+01 -7.000000000000e+00 0.0 
3.634999999998e+01 -7.000000000000e+00 0.0 
3.732499999998e+01 -7.000000000000e+00 0.0 
3.829999999998e+01 -7.000000000000e+00 0.0 
3.927499999999e+01 -7.000000000000e+00 0.0 
4.024999999999e+01 -7.000000000000e+00 0.0 
4.122499999999e+01 -7.000000000000e+00 0.0 
4.219999999999e+01 -7.000000000000e+00 0.0 
4.317499999999e+01 -7.000000000000e+00 0.0 
4.414999999999e+01 -7.000000000000e+00 0.0 
4.512499999999e+01 -7.000000000000e+00 0.0 
4.609999999999e+01 -7.000000000000e+00 0.0 
4.707500000000e+01 -7.000000000000e+00 0.0 
4.805000000000e+01 -7.000000000000e+00 0.0 
4.902500000000e+01 -7.000000000000e+00 0.0 
4.900000000000e+01 -8.000000000000e+00 0.0 
4.800000000000e+01 -8.000000000000e+00 0.0 
4.700000000000e+01 -8.000000000000e+00 0.0 
4.600000000000e+01 -8.000000000000e+00 0.0 
4.500000000000e+01 -8.000000000000e+00 0.0 
4.400000000000e+01 -8.000000000000e+00 0.0 
4.300000000000e+01 -8.000000000000e+00 0.0 
4.200000000000e+01 -8.000000000000e+00 0.0 
4.100000000000e+01 -8.000000000000e+00 0.0 
4.000000000000e+01 -8.000000000000e+00 0.0 
3.900000000000e+01 -8.000000000000e+00 0.0 
3.800000000000e+01 -8.000000000000e+00 0.0 
3.700000000000e+01 -8.000000000000e+00 0.0 
3.600000000000e+01 -8.000000000000e+00 0.0 
3.500000000000e+01 -8.000000000000e+00 0.0 
3.400000000000e+01 -8.000000000000e+00 0.0 
3.300000000000e+01 -8.000000000000e+00 0.0 
3.447058823527e+01 -9.000000000000e+00 0.0 
3.544117647055e+01 -9.000000000000e+00 0.0 
3.641176470582e+01 -9.000000000000e+00 0.0 
3.738235294109e+01 -9.000000000000e+00 0.0 
3.835294117637e+01 -9.000000000000e+00 0.0 
3.932352941164e+01 -9.000000000000e+00 0.0 
4.029411764691e+01 -9.000000000000e+00 0.0 
4.126470588219e+01 -9.000000000000e+00 0.0 
4.223529411748e+01 -9.000000000000e+00 0.0 
4.320588235279e+01 -9.000000000000e+00 0.0 
4.417647058811e+01 -9.000000000000e+00 0.0 
4.514705882342e+01 -9.000000000000e+00 0.0 
4.611764705874e+01 -9.000000000000e+00 0.0 
4.708823529405e+01 -9.000000000000e+00 0.0 
4.805882352937e+01 -9.000000000000e+00 0.0 
4.902941176468e+01 -9.000000000000e+00 0.0 
2.075000000000e+01 -5.000000000006e-01 0.0 
2.225000000000e+01 -1.500000000000e+00 0.0 
2.375000000000e+01 -2.500000000000e+00 0.0 
2.525000000000e+01 -3.500000000000e+00 0.0 
2.675000000000e+01 -4.500000000000e+00 0.0 
2.825000000000e+01 -5.500000000000e+00 0.0 
2.975000000000e+01 -6.500000000000e+00 0.0 
3.125000000000e+01 -7.500000000000e+00 0.0 
3.275000000000e+01 -8.500000000000e+00 0.0 
3.425000000000e+01 -9.500000000000e+00 0.0 
2.226951693683e+01 -2.403913980114e+00 0.0 
1.650149491944e+01 -1.913490915758e+01 0.0 
1.050042386896e+01 -8.504605092970e-01 0.0 
1.553146524712e+01 -8.281255032105e-01 0.0 
1.150000000008e+01 -1.913397459621e+01 0.0 
2.530060260647e+01 -4.428336431260e+00 0.0 
8.651114563942e-01 -1.052096295641e+01 0.0 
2.050000000013e+01 -1.913397459622e+01 0.0 
2.819198729811e+01 -6.399519052838e+00 0.0 
2.445670302931e+01 -1.915649188023e+01 0.0 
3.117591465718e+01 -8.394293040695e+00 0.0 
7.465053044742e+00 -1.920411160581e+01 0.0 
6.398295709691e+00 -8.230098819370e-01 0.0 
2.849659607461e+01 -1.914296187762e+01 0.0 
3.418732642882e+01 -1.040265792588e+01 0.0 
8.386450935063e-01 -6.533605142809e+00 0.0 
9.178661865596e-01 -1.329769195597e+01 0.0 
3.149448624493e+01 -1.910466733764e+01 0.0 
3.552916747426e+01 -1.914628590759e+01 0.0 
4.449210346537e+01 -1.914359085008e+01 0.0 
4.140975975145e+01 -1.906941860733e+01 0.0 
3.847475958753e+01 -1.916622382724e+01 0.0 
3.653774794640e+01 -1.088712800241e+01 0.0 
4.047886341787e+01 -1.090139014048e+01 0.0 
4.348006339825e+01 -1.092792621489e+01 0.0 
4.919519968029e+01 -1.451526755068e+01 0.0 
4.500000000032e+00 -1.913397459621e+01 0.0 
1.856136921614e+01 -8.212235170404e-01 0.0 
3.499895312306e+00 -8.661165539723e-01 0.0 
9.076088696565e-01 -1.642306201891e+01 0.0 
4.655174095477e+01 -1.086183387525e+01 0.0 
9.430688970604e-01 -3.496112672958e+00 0.0 
3.353992337063e+01 -1.901202090820e+01 0.0 
2.249746016977e+01 -1.921262287282e+01 0.0 
2.650122741777e+01 -1.916123026018e+01 0.0 
1.863571384842e+01 -1.908325534840e+01 0.0 
1.450089971693e+01 -1.917691901860e+01 0.0 
1.350044695317e+01 -8.659695299584e-01 0.0 
3.849987469880e+01 -1.084154983397e+01 0.0 
9.454419857884e+00 -1.900818879936e+01 0.0 
4.917398660523e+01 -1.645692866081e+01 0.0 
8.500000000000e+00 -8.660254037844e-01 0.0 
8.660319230785e-01 -8.500111697188e+00 0.0 
4.649022621545e+01 -1.930506220113e+01 0.0 
2.667688107845e+01 -5.420288124331e+00 0.0 
2.379251615665e+01 -3.412225477429e+00 0.0 
2.966631491830e+01 -7.389030232731e+00 0.0 
3.267915035995e+01 -9.396934932445e+00 0.0 
2.074836922338e+01 -1.320054020319e+00 0.0 
4.915985743621e+01 -1.261973384855e+01 0.0 
2.527129768623e+00 -1.931592414663e+01 0.0 
1.538676247410e+00 -8.436956619311e-01 0.0 
4.908096641539e+01 -1.842484004551e+01 0.0 
3.478612492673e+01 -1.090889364140e+01 0.0 
3.409757055860e+01 -1.131991530427e+01 0.0 
3.501895309466e+01 -1.177687842717e+01 0.0 
3.407758073088e+01 -1.224293381580e+01 0.0 
3.484541875390e+01 -1.277051428430e+01 0.0 
3.400322025842e+01 -1.319022775640e+01 0.0 
3.321672625034e+01 -1.266779191233e+01 0.0 
3.315244139236e+01 -1.360984106532e+01 0.0 
3.236335186892e+01 -1.308463225210e+01 0.0 
3.478337442841e+01 -1.372341158982e+01 0.0 
3.230105923633e+01 -1.403023731610e+01 0.0 
3.150954055289e+01 -1.350301767700e+01 0.0 
3.144604792090e+01 -1.444931742516e+01 0.0 
3.065653897123e+01 -1.392357262981e+01 0.0 
3.071897610812e+01 -1.297447031198e+01 0.0 
2.986790411740e+01 -1.339226181535e+01 0.0 
2.993181466745e+01 -1.244703272398e+01 0.0 
2.908023061869e+01 -1.286254537734e+01 0.0 
2.901619051372e+01 -1.380881655279e+01 0.0 
2.822986160390e+01 -1.327695262116e+01 0.0 
2.829453476870e+01 -1.233265343811e+01 0.0 
2.744542905518e+01 -1.274510491105e+01 0.0 
2.751120089246e+01 -1.180368086886e+01 0.0 
2.666218649885e+01 -1.221619339205e+01 0.0 
2.672371209234e+01 -1.127125228527e+01 0.0 
2.587763216302e+01 -1.168539979114e+01 0.0 
2.581165585299e+01 -1.262994410089e+01 0.0 
2.502890882577e+01 -1.209827323619e+01 0.0 
2.509631327757e+01 -1.115492410304e+01 0.0 
2.424662989877e+01 -1.156630981079e+01 0.0 
2.431704046904e+01 -1.062389179334e+01 0.0 
2.346445438728e+01 -1.103427680694e+01 0.0 
2.339382552877e+01 -1.197964871788e+01 0.0 
2.260936050780e+01 -1.144513277642e+01 0.0 
2.268075012022e+01 -1.049911928216e+01 0.0 
2.182525737661e+01 -1.090920811464e+01 0.0 
2.189682319817e+01 -9.961716944568e+00 0.0 
2.104174127792e+01 -1.037266986667e+01 0.0 
2.111304367575e+01 -9.424179358711e+00 0.0 
2.025306185381e+01 -9.832727364719e+00 0.0 
2.018141124247e+01 -1.079140628871e+01 0.0 
1.938594498257e+01 -1.025147354112e+01 0.0 
1.946106490453e+01 -9.288010758448e+00 0.0 
1.858929958352e+01 -9.706319802516e+00 0.0 
1.851540991219e+01 -1.067205988724e+01 0.0 
1.771485303178e+01 -1.012504443115e+01 0.0 
1.764134552256e+01 -1.109360378538e+01 0.0 
1.683745148095e+01 -1.054496365337e+01 0.0 
1.691852964353e+01 -9.582555261178e+00 0.0 
1.603603813062e+01 -1.000160132379e+01 0.0 
1.595824239350e+01 -1.096750698862e+01 0.0 
1.515080624291e+01 -1.041639501931e+01 0.0 
1.523171602559e+01 -9.451711491453e+00 0.0 
1.434621060709e+01 -9.871956467464e+00 0.0 
1.426777178765e+01 -1.083749501371e+01 0.0 
1.345775282374e+01 -1.028803175500e+01 0.0 
1.354103873368e+01 -9.324918457162e+00 0.0 
1.265072018622e+01 -9.742612837270e+00 0.0 
1.257285762070e+01 -1.071557782384e+01 0.0 
1.175874815690e+01 -1.015972324288e+01 0.0 
1.184203019714e+01 -9.193604071377e+00 0.0 
1.094927709905e+01 -9.612103238656e+00 0.0 
1.086938022910e+01 -1.058685085646e+01 0.0 
1.005424098961e+01 -1.002939116380e+01 0.0 
9.977974613295e+00 -1.101324897989e+01 0.0 
1.012915646404e+01 -9.051815821181e+00 0.0 
9.237127782494e+00 -9.471239055559e+00 0.0 
9.308426593771e+00 -8.483376461131e+00 0.0 
8.418806073345e+00 -8.910712374517e+00 0.0 
2.253688464062e+01 -1.239459402279e+01 0.0 
8.495126726666e+00 -7.921646665254e+00 0.0 
9.389727383206e+00 -7.512103628377e+00 0.0 
7.601560812974e+00 -8.349460349344e+00 0.0 
7.525680547759e+00 -9.339736686940e+00 0.0 
7.677888324502e+00 -7.359727833346e+00 0.0 
6.782001206724e+00 -7.788454494773e+00 0.0 
6.858778622885e+00 -6.797338062822e+00 0.0 
2.196596590865e+01 -8.979025665442e+00 0.0 
2.816540108272e+01 -1.422634142353e+01 0.0 
5.961601194403e+00 -7.226824010712e+00 0.0 
6.038171749656e+00 -6.234825887079e+00 0.0 
6.936257279557e+00 -5.805287640737e+00 0.0 
6.115068918323e+00 -5.242109758768e+00 0.0 
3.564391741903e+01 -1.329240553876e+01 0.0 
3.558115605778e+01 -1.425902892003e+01 0.0 
3.645445282201e+01 -1.381970786460e+01 0.0 
3.639744204358e+01 -1.479198128612e+01 0.0 
3.727266909778e+01 -1.435399586226e+01 0.0 
5.216667013081e+00 -5.671788584287e+00 0.0 
3.220697293295e+01 -1.499594545107e+01 0.0 
3.551112158269e+01 -1.523479869250e+01 0.0 
2.836056961467e+01 -1.139032434851e+01 0.0 
2.516730388602e+01 -1.021382726837e+01 0.0 
1.844436907403e+01 -1.164097215196e+01 0.0 
5.885434318740e+00 -8.218694781467e+00 0.0 
5.064071066867e+00 -7.656614643901e+00 0.0 
4.988089103470e+00 -8.649722082718e+00 0.0 
1.079421050408e+01 -1.157014985435e+01 0.0 
9.902420005256e+00 -1.199903342656e+01 0.0 
1.071994252214e+01 -1.255727909771e+01 0.0 
9.826974788171e+00 -1.298659581767e+01 0.0 
1.064607883789e+01 -1.354595476388e+01 0.0 
9.751541265343e+00 -1.397556905071e+01 0.0 
8.932296185869e+00 -1.341553353988e+01 0.0 
8.856399248106e+00 -1.440570715508e+01 0.0 
8.036186803543e+00 -1.384470558472e+01 0.0 
1.057112875118e+01 -1.453516759081e+01 0.0 
1.146582585687e+01 -1.410539926903e+01 0.0 
7.959894480382e+00 -1.483563350928e+01 0.0 
7.138792279156e+00 -1.427465094140e+01 0.0 
7.062506792418e+00 -1.526615385482e+01 0.0 
6.240693558277e+00 -1.470508863040e+01 0.0 
6.316957575451e+00 -1.371212581281e+01 0.0 
5.418183007107e+00 -1.414253605022e+01 0.0 
5.494748364428e+00 -1.314886770603e+01 0.0 
1.756825565873e+01 -1.206433872514e+01 0.0 
1.837565773345e+01 -1.261356468266e+01 0.0 
1.749574831391e+01 -1.303769280014e+01 0.0 
1.830539187332e+01 -1.358828364284e+01 0.0 
1.742278925170e+01 -1.401367746928e+01 0.0 
1.823303007798e+01 -1.456432294258e+01 0.0 
1.734941694138e+01 -1.499213734361e+01 0.0 
1.653760041637e+01 -1.443920312098e+01 0.0 
3.056237977307e+01 -1.487132260174e+01 0.0 
1.866469084762e+01 -8.742953000418e+00 0.0 
1.953669694916e+01 -8.326038909849e+00 0.0 
1.874194303780e+01 -7.780688158966e+00 0.0 
1.961032016741e+01 -7.366854697285e+00 0.0 
1.881715755159e+01 -6.821102209649e+00 0.0 
1.968369797150e+01 -6.407747217358e+00 0.0 
1.889237123259e+01 -5.858375520026e+00 0.0 
1.802038875366e+01 -6.276202618170e+00 0.0 
1.809793837984e+01 -5.307629520489e+00 0.0 
1.721985207997e+01 -5.728242054488e+00 0.0 
1.729850893523e+01 -4.756990819347e+00 0.0 
1.641745664240e+01 -5.174636548624e+00 0.0 
2.495978509456e+01 -1.304406404294e+01 0.0 
1.911567814831e+01 -1.413854250293e+01 0.0 
1.904387332608e+01 -1.511463127723e+01 0.0 
1.992115934240e+01 -1.468788025898e+01 0.0 
7.013706899628e+00 -4.812582868662e+00 0.0 
5.342091874585e+00 -1.513658157269e+01 0.0 
1.139098043784e+01 -1.509488509480e+01 0.0 
1.228151810610e+01 -1.465617481983e+01 0.0 
1.646373110164e+01 -1.541993323337e+01 0.0 
5.293328636712e+00 -4.678385108584e+00 0.0 
1.975965862987e+01 -5.448124345648e+00 0.0 
2.054318374236e+01 -5.992561293251e+00 0.0 
3.721453439063e+01 -1.533216152738e+01 0.0 
3.809302733893e+01 -1.489235527381e+01 0.0 
1.220852788900e+01 -1.565304565230e+01 0.0 
4.394120899730e+00 -5.108397613210e+00 0.0 
8.779354620288e+00 -1.539524721159e+01 0.0 
1.817791047702e+01 -4.338570146253e+00 0.0 
4.518860013839e+00 -1.457343189307e+01 0.0 
4.442712140414e+00 -1.556841391069e+01 0.0 
8.115343466391e+00 -1.285760324283e+01 0.0 
1.985334703171e+01 -1.566478400426e+01 0.0 
2.071953850276e+01 -1.522074243119e+01 0.0 
1.634012953883e+01 -6.154777738301e+00 0.0 
1.553479994708e+01 -5.593730508879e+00 0.0 
1.561265946942e+01 -4.617761762647e+00 0.0 
1.470674212978e+01 -5.064576488228e+00 0.0 
1.464498299883e+01 -6.026514471420e+00 0.0 
1.383271561817e+01 -5.467796261169e+00 0.0 
1.389241253067e+01 -4.504338666645e+00 0.0 
1.301868735463e+01 -4.907185188626e+00 0.0 
1.294514184846e+01 -5.888160903592e+00 0.0 
1.212955968622e+01 -5.328262335277e+00 0.0 
1.220721122383e+01 -4.341264976687e+00 0.0 
1.131324345897e+01 -4.766773516508e+00 0.0 
5.266597955397e+00 -1.613148974258e+01 0.0 
1.737805990867e+01 -3.786677807525e+00 0.0 
3.078438094513e+01 -1.203225297748e+01 0.0 
1.131569882285e+01 -1.608511932110e+01 0.0 
1.728478341782e+01 -1.596017432313e+01 0.0 
3.803465906019e+01 -1.587509751228e+01 0.0 
3.891681276677e+01 -1.543395196905e+01 0.0 
3.897340985302e+01 -1.444710288980e+01 0.0 
3.980095968193e+01 -1.499059496613e+01 0.0 
3.974334598189e+01 -1.597921884150e+01 0.0 
4.062964983717e+01 -1.553518690417e+01 0.0 
4.068729602479e+01 -1.454434445295e+01 0.0 
4.151772679790e+01 -1.508974196007e+01 0.0 
4.157505195739e+01 -1.409694289912e+01 0.0 
4.240699932656e+01 -1.464347955968e+01 0.0 
4.234898051011e+01 -1.563721375790e+01 0.0 
4.323934606035e+01 -1.519082036405e+01 0.0 
4.329740528208e+01 -1.419587509788e+01 0.0 
4.413056841369e+01 -1.474359631875e+01 0.0 
4.418850110108e+01 -1.374786684042e+01 0.0 
4.502219770667e+01 -1.429605103525e+01 0.0 
4.496411937907e+01 -1.529215882720e+01 0.0 
4.490027319897e+00 -4.154167794594e+00 0.0 
1.565080385988e+01 -1.486411982419e+01 0.0 
1.557610691279e+01 -1.584855627870e+01 0.0 
4.195350646612e+00 -8.089117689096e+00 0.0 
4.124027797830e+00 -9.082831955007e+00 0.0 
4.917944318925e+00 -9.643530901533e+00 0.0 
4.020105689502e+00 -1.007439673661e+01 0.0 
4.587185899277e+01 -1.484039992728e+01 0.0 
4.580078661551e+01 -1.584043391042e+01 0.0 
2.061956522375e+01 -5.046701343981e+00 0.0 
2.139572955529e+01 -5.579553449826e+00 0.0 
3.715344357292e+01 -1.631485124583e+01 0.0 
3.618886196443e+00 -1.500471207167e+01 0.0 
3.695606940204e+00 -1.400939692294e+01 0.0 
2.438890661143e+01 -9.686110599723e+00 0.0 
2.523267572778e+01 -9.276766000622e+00 0.0 
2.446094171539e+01 -8.751904591412e+00 0.0 
2.529089822738e+01 -8.321495612547e+00 0.0 
2.606882688827e+01 -8.864724051119e+00 0.0 
2.452116646430e+01 -7.792756462004e+00 0.0 
1.235543269617e+01 -1.365845617339e+01 0.0 
4.318116874181e+01 -1.618567469992e+01 0.0 
7.835066111909e+00 -5.376366223896e+00 0.0 
7.905687335704e+00 -4.382539065697e+00 0.0 
3.542640009567e+00 -1.600035116542e+01 0.0 
1.572431503071e+01 -1.388358386695e+01 0.0 
2.574684696680e+01 -1.357896141127e+01 0.0 
2.488842657651e+01 -1.399674354505e+01 0.0 
2.568301775611e+01 -1.453552048595e+01 0.0 
2.481535572009e+01 -1.495542756508e+01 0.0 
2.561729699688e+01 -1.549784648532e+01 0.0 
2.474623061296e+01 -1.592058894178e+01 0.0 
2.394234041695e+01 -1.537572575827e+01 0.0 
2.065825452567e+01 -1.621899055217e+01 0.0 
2.387180528935e+01 -1.634552264687e+01 0.0 
4.585364400844e+01 -1.383912334080e+01 0.0 
1.998744432052e+01 -1.370317155541e+01 0.0 
1.205356951443e+01 -6.313580285498e+00 0.0 
5.396543905849e+00 -3.731818611283e+00 0.0 
1.139652573295e+01 -3.745819399350e+00 0.0 
3.574124306703e+00 -4.551456826011e+00 0.0 
3.494140761930e+00 -5.539787055649e+00 0.0 
1.213651452413e+01 -1.664505033022e+01 0.0 
2.555045568519e+01 -1.646529356744e+01 0.0 
2.641671114986e+01 -1.603899382371e+01 0.0 
2.612920721894e+01 -7.906435260873e+00 0.0 
2.690339829698e+01 -8.456969591431e+00 0.0 
1.978024383368e+01 -1.664410216353e+01 0.0 
3.732829979082e+01 -1.336926601859e+01 0.0 
4.074336584605e+01 -1.355133328401e+01 0.0 
4.163204691081e+01 -1.310280943992e+01 0.0 
3.773826114429e+00 -3.493444309145e+00 0.0 
1.228783001032e+01 -3.374822835872e+00 0.0 
4.057110462520e+01 -1.652588478000e+01 0.0 
2.132535497898e+01 -6.523623360525e+00 0.0 
2.216932532211e+01 -6.110044769206e+00 0.0 
1.825781152128e+01 -3.370146817147e+00 0.0 
1.745679445888e+01 -2.812942552063e+00 0.0 
4.666517057280e+01 -1.539981381543e+01 0.0 
4.660575894464e+01 -1.639014410186e+01 0.0 
4.838230979954e+00 -1.063643436446e+01 0.0 
3.938942630206e+00 -1.106778981745e+01 0.0 
1.302967218620e+01 -1.621373452436e+01 0.0 
1.049548003190e+01 -4.204825123240e+00 0.0 
4.573571907195e+01 -1.683820511148e+01 0.0 
1.483686335807e+01 -1.430849689310e+01 0.0 
1.490982658890e+01 -1.332679386284e+01 0.0 
3.190805600162e+00 -9.510968358545e+00 0.0 
2.146625721848e+01 -4.642437303115e+00 0.0 
2.069866208266e+01 -4.111852942193e+00 0.0 
1.286859345584e+01 -6.873252723348e+00 0.0 
1.041794493184e+01 -5.194814260291e+00 0.0 
2.671081808965e+00 -4.976806516331e+00 0.0 
1.295786792925e+01 -1.720506531799e+01 0.0 
3.968438206511e+01 -1.696869067241e+01 0.0 
2.308550456051e+01 -1.579963151273e+01 0.0 
2.315593682844e+01 -1.482967445235e+01 0.0 
2.299471449450e+01 -1.677069968132e+01 0.0 
1.057344714696e+01 -3.214252277840e+00 0.0 
1.124057603753e+01 -1.707713739755e+01 0.0 
2.718402535754e+00 -1.543629882103e+01 0.0 
2.638549692805e+01 -1.696744916809e+01 0.0 
2.723416349007e+01 -1.658104204545e+01 0.0 
2.210193351704e+01 -7.046769643417e+00 0.0 
2.295180925161e+01 -6.657397605239e+00 0.0 
2.301355235833e+01 -5.709111896800e+00 0.0 
2.379052718281e+01 -6.254965406962e+00 0.0 
3.243528601237e+01 -1.214181853533e+01 0.0 
2.287977995457e+01 -7.583722368300e+00 0.0 
2.999876029544e+01 -1.150837653096e+01 0.0 
3.084435366963e+01 -1.109693775882e+01 0.0 
3.006650579669e+01 -1.057778994262e+01 0.0 
2.683802665066e+01 -9.386863216633e+00 0.0 
2.768641973621e+01 -8.988883915666e+00 0.0 
2.040296980397e+01 -7.903629133404e+00 0.0 
1.925235024054e+01 -1.218872783130e+01 0.0 
5.735667000424e+00 -1.020577277283e+01 0.0 
6.396559909872e+00 -1.272326295703e+01 0.0 
1.161199420714e+01 -1.212812778229e+01 0.0 
4.229046132615e+01 -1.663084237572e+01 0.0 
4.312275399692e+01 -1.718087491556e+01 0.0 
4.335502068163e+01 -1.320039231514e+01 0.0 
4.424630298089e+01 -1.275160688731e+01 0.0 
7.090116643816e+00 -3.818998061530e+00 0.0 
7.989472176569e+00 -3.389238711200e+00 0.0 
9.085824861778e+00 -1.144036167408e+01 0.0 
1.041972423731e+01 -1.651614080893e+01 0.0 
3.797525112640e+01 -1.686052038746e+01 0.0 
3.709114253394e+01 -1.730125999865e+01 0.0 
3.626966748340e+01 -1.675477052919e+01 0.0 
1.385164591440e+01 -1.677597757552e+01 0.0 
1.787152588784e+01 -8.198993896093e+00 0.0 
1.668849729812e+01 -1.248560611628e+01 0.0 
1.659546177905e+01 -3.232482605530e+00 0.0 
2.332214717345e+01 -1.292598167641e+01 0.0 
7.168238450786e+00 -2.824711686516e+00 0.0 
2.894878403906e+01 -1.475427524446e+01 0.0 
2.646763248247e+00 -1.643270107952e+01 0.0 
3.467431944285e+00 -1.699648837348e+01 0.0 
2.059475877282e+01 -1.719473628526e+01 0.0 
3.333868355437e+01 -1.080596971682e+01 0.0 
2.246451062637e+01 -1.334557761546e+01 0.0 
2.167821896388e+01 -1.280847834858e+01 0.0 
3.089653185767e+01 -1.017198487212e+01 0.0 
3.012604365669e+01 -9.657298805968e+00 0.0 
2.929627299435e+01 -1.006100135274e+01 0.0 
2.936201435219e+01 -9.136748899251e+00 0.0 
1.198219052702e+01 -7.291887238230e+00 0.0 
1.116702076035e+01 -6.731976101053e+00 0.0 
2.551388807505e+01 -1.746927036981e+01 0.0 
2.378639090370e+01 -1.728678807149e+01 0.0 
2.718543627188e+01 -1.748668016909e+01 0.0 
2.804681050301e+01 -1.712626668293e+01 0.0 
1.970737034667e+01 -1.762317646822e+01 0.0 
1.889535776135e+01 -1.707158098231e+01 0.0 
2.593777711283e+00 -5.971157087874e+00 0.0 
2.773468281110e+01 -8.067164273938e+00 0.0 
4.051205884347e+01 -1.751819982458e+01 0.0 
3.166903145421e+01 -1.068032992414e+01 0.0 
1.033042452886e+01 -1.748285844336e+01 0.0 
9.519274604626e+00 -1.694349240233e+01 0.0 
1.668308673328e+01 -2.255861778986e+00 0.0 
1.570531902832e+01 -2.676795860126e+00 0.0 
4.655826903379e+01 -1.736656245706e+01 0.0 
2.384148070773e+01 -5.328744256413e+00 0.0 
2.460255123641e+01 -5.852182672816e+00 0.0 
2.306638135119e+01 -4.798935440613e+00 0.0 
8.467720450578e-01 -1.849576263072e+01 0.0 
4.849657322345e+01 -1.084860705506e+01 0.0 
2.565860899507e+00 -1.742859793981e+01 0.0 
2.764418872564e+01 -9.927142821799e+00 0.0 
4.565165880064e+01 -1.785336695404e+01 0.0 
2.162231831329e+01 -1.376528337468e+01 0.0 
2.360646352969e+01 -9.136041963102e+00 0.0 
1.392738739903e+01 -1.578285505772e+01 0.0 
4.756405947478e+01 -1.683706841809e+01 0.0 
4.740895034054e+01 -1.793766756892e+01 0.0 
4.080779328826e+01 -1.257387192544e+01 0.0 
4.168907939671e+01 -1.210739129181e+01 0.0 
3.991197722154e+01 -1.300815793917e+01 0.0 
1.905536506762e+01 -3.940076697685e+00 0.0 
1.923879596617e+01 -2.875000734166e+00 0.0 
4.401386745746e+01 -1.673483229438e+01 0.0 
4.247233362525e+00 -7.094581653070e+00 0.0 
3.286051630211e+00 -7.635300020553e+00 0.0 
9.609533347623e+00 -4.594311677967e+00 0.0 
9.523554636369e+00 -5.595597029530e+00 0.0 
5.660336628893e+00 -1.119290329628e+01 0.0 
6.558070063295e+00 -1.076385809362e+01 0.0 
2.809866407414e+01 -1.518037766799e+01 0.0 
2.888868674504e+01 -1.570360690070e+01 0.0 
2.654431550819e+01 -1.411217777162e+01 0.0 
1.402158265969e+01 -1.375404617952e+01 0.0 
1.409592494026e+01 -1.277071998942e+01 0.0 
1.499355196178e+01 -1.235270737023e+01 0.0 
4.221535326155e+01 -1.759335617494e+01 0.0 
4.305583287033e+01 -1.822663146802e+01 0.0 
1.280748808359e+01 -7.834332838285e+00 0.0 
1.368988389326e+01 -7.420529606172e+00 0.0 
1.110091796060e+01 -7.683966794328e+00 0.0 
3.963446145980e+01 -1.794331310122e+01 0.0 
3.423932362213e+00 -1.796415590455e+01 0.0 
4.280814572302e+00 -1.752272834860e+01 0.0 
8.050136380041e+00 -2.421582378631e+00 0.0 
8.888674091650e+00 -2.984264211327e+00 0.0 
2.152839430898e+01 -3.732609965436e+00 0.0 
2.077799585292e+01 -3.183896021866e+00 0.0 
3.618719395821e+01 -1.770276572576e+01 0.0 
3.538165138340e+01 -1.718709995539e+01 0.0 
3.702925326420e+01 -1.828844288807e+01 0.0 
1.756739438711e+00 -5.353284859169e+00 0.0 
2.233710191104e+01 -1.527265621324e+01 0.0 
1.389483555057e+01 -1.771797164730e+01 0.0 
1.475634224300e+01 -1.728357428390e+01 0.0 
1.298797563052e+01 -1.825968924755e+01 0.0 
2.145331271866e+01 -1.673705379077e+01 0.0 
2.133282821169e+01 -1.769400773673e+01 0.0 
2.292139194136e+01 -1.774915400288e+01 0.0 
1.750750053243e+01 -1.861475593469e+00 0.0 
4.830478841772e+01 -1.752611802221e+01 0.0 
4.341203507805e+01 -1.220326745522e+01 0.0 
1.685254151866e+01 -1.443085301632e+00 0.0 
4.431538535165e+01 -1.171841387375e+01 0.0 
4.511308610496e+01 -1.229557320599e+01 0.0 
4.510133242889e+01 -1.123680627466e+01 0.0 
1.846818030617e+00 -4.410877617069e+00 0.0 
3.995468694584e+01 -1.186571542989e+01 0.0 
3.901387459804e+01 -1.242507616755e+01 0.0 
8.966735877533e+00 -1.837818700423e+00 0.0 
4.049310011091e+01 -1.848269508791e+01 0.0 
7.278862053803e+00 -1.918523922691e+00 0.0 
6.429715522129e+00 -2.316676521184e+00 0.0 
9.443505505022e+00 -1.792198868094e+01 0.0 
8.620386951051e+00 -1.737590365556e+01 0.0 
8.571868171503e+00 -1.834436667826e+01 0.0 
7.758629848526e+00 -1.775677907213e+01 0.0 
7.806648388584e+00 -1.680761266021e+01 0.0 
6.908555145436e+00 -1.723746463044e+01 0.0 
4.251709122090e+01 -1.156937480156e+01 0.0 
6.931136405615e+00 -1.832465719263e+01 0.0 
6.015545461353e+00 -1.768865355295e+01 0.0 
5.960535926343e+00 -1.872011001764e+01 0.0 
3.023253444786e+01 -8.761960642196e+00 0.0 
2.454622702599e+01 -6.749421992767e+00 0.0 
2.537499741604e+01 -6.347634963783e+00 0.0 
2.544077378460e+01 -5.431358513649e+00 0.0 
2.801367161747e+01 -1.820907270221e+01 0.0 
2.884507806914e+01 -1.762032095326e+01 0.0 
1.821474531936e+00 -1.588901260460e+01 0.0 
1.821006262604e+00 -1.489370287756e+01 0.0 
4.599962488908e+01 -1.176478780598e+01 0.0 
4.705457470007e+01 -1.172182804229e+01 0.0 
4.667668314802e+01 -1.263464558483e+01 0.0 
4.759648056504e+01 -1.252380987933e+01 0.0 
4.728041618103e+01 -1.341928568376e+01 0.0 
4.825209352360e+01 -1.330491640804e+01 0.0 
4.778118233428e+01 -1.420151961695e+01 0.0 
2.388192727579e+01 -1.826934810142e+01 0.0 
2.381714684947e+01 -4.385917965223e+00 0.0 
3.172733219247e+01 -9.758744265248e+00 0.0 
1.882012070658e+01 -1.805540597212e+01 0.0 
1.805667505243e+01 -1.742221226236e+01 0.0 
2.852599958080e+01 -8.597196079481e+00 0.0 
2.856486123437e+01 -7.661382718527e+00 0.0 
1.111792842875e+01 -1.818223852980e+01 0.0 
2.203322722466e+01 -7.986646678802e+00 0.0 
3.955703676900e+01 -1.903246763601e+01 0.0 
1.944842206513e+01 -8.038750575182e-01 0.0 
1.909882767783e+01 -1.746322740933e+00 0.0 
2.281147422941e+01 -8.525912918334e+00 0.0 
2.850633001468e+01 -9.533271335986e+00 0.0 
2.532883344309e+01 -7.308951659710e+00 0.0 
2.620475466461e+01 -6.979208585400e+00 0.0 
1.396278270396e+01 -1.475095389807e+01 0.0 
9.791001166724e+00 -2.554159793552e+00 0.0 
2.229293380421e+01 -4.269762271052e+00 0.0 
4.677238984118e+01 -1.430071795514e+01 0.0 
2.228658385918e+01 -3.344747535984e+00 0.0 
8.940223674553e-01 -1.543595733415e+01 0.0 
2.118566862474e+01 -8.435876987696e+00 0.0 
2.678325936437e+01 -1.032621195706e+01 0.0 
2.223400220487e+01 -5.179046761770e+00 0.0 
2.375370625384e+01 -7.251580562134e+00 0.0 
3.156971327386e+01 -1.255534750737e+01 0.0 
3.328226391312e+01 -1.172914813316e+01 0.0 
3.250948774219e+01 -1.120157009348e+01 0.0 
2.032993445717e+01 -8.867880112202e+00 0.0 
2.697226974856e+01 -7.536633082045e+00 0.0 
2.707377810386e+01 -6.590835263295e+00 0.0 
2.914099246827e+01 -1.191678458549e+01 0.0 
3.544824072239e+01 -1.621126558525e+01 0.0 
3.456511855436e+01 -1.665054783843e+01 0.0 
3.448395810225e+01 -1.759117813016e+01 0.0 
3.368378673938e+01 -1.708037781328e+01 0.0 
3.375560452567e+01 -1.610973066913e+01 0.0 
3.288001547988e+01 -1.654324255651e+01 0.0 
3.282475929147e+01 -1.749725654692e+01 0.0 
3.199880906313e+01 -1.697294088625e+01 0.0 
3.197001272932e+01 -1.811667776864e+01 0.0 
3.111884713021e+01 -1.742166785755e+01 0.0 
3.120418962865e+01 -1.642155709385e+01 0.0 
3.034666704371e+01 -1.683123833816e+01 0.0 
3.026224379976e+01 -1.772592851714e+01 0.0 
3.046632362943e+01 -1.582232843075e+01 0.0 
1.961344017324e+01 -1.857459447985e+01 0.0 
2.274975894774e+01 -9.532738811922e+00 0.0 
1.833923246887e+01 -2.396746883672e+00 0.0 
1.988859500848e+01 -2.249244376594e+00 0.0 
2.758045562861e+01 -1.086434261689e+01 0.0 
3.247300178163e+01 -1.909930104252e+01 0.0 
3.461947482503e+01 -1.911879848019e+01 0.0 
2.047161538662e+01 -6.941478180358e+00 0.0 
2.750230940214e+01 -1.915490590764e+01 0.0 
3.165081350803e+01 -1.161860780120e+01 0.0 
1.897456727641e+01 -4.889634688522e+00 0.0 
2.549338539756e+01 -1.914858252089e+01 0.0 
3.462873135081e+01 -1.567482276144e+01 0.0 
3.384432415243e+01 -1.512280684518e+01 0.0 
3.471433767690e+01 -1.469086942990e+01 0.0 
3.651470373046e+01 -1.918207952149e+01 0.0 
3.901742690249e+01 -1.345028556517e+01 0.0 
2.153224102692e+01 -1.920169709333e+01 0.0 
1.918382939341e+01 -1.316226275662e+01 0.0 
2.005389162382e+01 -1.271962165174e+01 0.0 
2.011472087878e+01 -1.175029352900e+01 0.0 
3.210679478412e+01 -1.598038618242e+01 0.0 
1.752175226543e+01 -1.914713022656e+01 0.0 
1.696897240059e+01 -1.832772588765e+01 0.0 
1.599682523337e+01 -1.832599992024e+01 0.0 
1.644507199462e+01 -1.743697981535e+01 0.0 
1.549987712903e+01 -1.915192375101e+01 0.0 
3.050250861901e+01 -1.918943550234e+01 0.0 
2.949944061527e+01 -1.922950455235e+01 0.0 
1.375892575273e+01 -6.447160534926e+00 0.0 
1.457223670180e+01 -7.006709243857e+00 0.0 
1.450818793236e+01 -7.965943451779e+00 0.0 
1.538804712402e+01 -7.553409623699e+00 0.0 
1.545817644768e+01 -6.580929593419e+00 0.0 
1.626506893751e+01 -7.129032608911e+00 0.0 
1.619833811522e+01 -8.086588580887e+00 0.0 
1.714448609609e+01 -6.697429609777e+00 0.0 
2.887616543568e+01 -1.668015232137e+01 0.0 
1.349814589130e+01 -1.918225301544e+01 0.0 
1.153887772210e+01 -1.311384581217e+01 0.0 
1.242708159886e+01 -1.267046795531e+01 0.0 
1.249799674267e+01 -1.169005616014e+01 0.0 
6.631723893693e+00 -9.774184881867e+00 0.0 
7.451471631867e+00 -1.033148796006e+01 0.0 
7.377795355458e+00 -1.132196345268e+01 0.0 
5.810931797536e+00 -9.211654212252e+00 0.0 
2.402683899133e+01 -1.441378562320e+01 0.0 
1.249768692036e+01 -1.917388426624e+01 0.0 
1.580373499437e+01 -1.290751860664e+01 0.0 
8.344650507834e+00 -9.898403995170e+00 0.0 
3.750622115305e+01 -1.086526401533e+01 0.0 
3.699391251667e+01 -1.171695900794e+01 0.0 
3.606517829518e+01 -1.173717504500e+01 0.0 
3.650257641795e+01 -1.270047380221e+01 0.0 
3.808951488918e+01 -1.183518714175e+01 0.0 
4.760380962420e+00 -1.162484888315e+01 0.0 
3.861210370848e+00 -1.205657631736e+01 0.0 
3.038284309476e+00 -1.149851280664e+01 0.0 
2.961598794889e+00 -1.248856794980e+01 0.0 
2.138953225512e+00 -1.193212674534e+01 0.0 
2.227383593457e+00 -1.096258903918e+01 0.0 
2.043265419276e+00 -1.292158472959e+01 0.0 
1.252449446028e+00 -1.225502002753e+01 0.0 
3.949985210740e+01 -1.086594001795e+01 0.0 
1.453499444792e+01 -8.768805922472e-01 0.0 
1.403518950933e+01 -1.749965556633e+00 0.0 
1.300715031023e+01 -1.714737233040e+00 0.0 
1.350929389899e+01 -2.527443911291e+00 0.0 
1.449600910711e+01 -2.595486162864e+00 0.0 
1.395693872901e+01 -3.484211041558e+00 0.0 
1.495105865208e+01 -3.364609636216e+00 0.0 
1.508822528740e+01 -1.766586020494e+00 0.0 
1.250223858430e+01 -8.634590186802e-01 0.0 
1.200279523409e+01 -1.709044504992e+00 0.0 
1.150086239419e+01 -8.592789190668e-01 0.0 
1.101482754194e+01 -1.677730591922e+00 0.0 
1.148018564526e+01 -2.659323866909e+00 0.0 
8.800552119754e+00 -3.989875954728e+00 0.0 
3.452790439430e+00 -1.901136170646e+01 0.0 
8.658451825200e-01 -9.503462241795e+00 0.0 
1.694787786797e+00 -9.000589234502e+00 0.0 
1.703436717094e+00 -8.038819004041e+00 0.0 
2.594197971110e+00 -8.563955242845e+00 0.0 
1.630513735412e+00 -9.907244747511e+00 0.0 
8.566859292791e-01 -7.512203837972e+00 0.0 
1.685461277022e+00 -7.164280248030e+00 0.0 
2.506394468801e+00 -8.623386730818e-01 0.0 
2.007475081581e+00 -1.727729545205e+00 0.0 
9.211534699767e-01 -1.628791366312e+00 0.0 
1.500000000020e+00 -2.598063549486e+00 0.0 
2.482078929963e+00 -2.553580088725e+00 0.0 
2.999795253092e+00 -1.732169015019e+00 0.0 
3.999712607169e+00 -1.728832897453e+00 0.0 
4.499752199340e+00 -8.656478679175e-01 0.0 
4.964377774841e+00 -1.730129617941e+00 0.0 
4.425017908337e+00 -2.597541756243e+00 0.0 
5.446573195014e+00 -8.410144840023e-01 0.0 
4.915722346614e+01 -1.550640962770e+01 0.0 
4.826794919243e+01 -1.600000000000e+01 0.0 
1.053139533193e+01 -1.911782884365e+01 0.0 
4.156049861949e+01 -1.095160998589e+01 0.0 
9.494526624416e+00 -8.650570090219e-01 0.0 
4.555762166964e+01 -1.897098103585e+01 0.0 
4.250656411371e+01 -1.914387356218e+01 0.0 
4.350906466345e+01 -1.917234727395e+01 0.0 
8.759665722424e-01 -1.746422130609e+01 0.0 
1.698936011838e+00 -1.795012186674e+01 0.0 
4.742476811029e+01 -1.900090177972e+01 0.0 
7.749196752349e+00 -6.368049313489e+00 0.0 
3.361572113416e+01 -1.798765193915e+01 0.0 
4.484660149212e+01 -1.728661231383e+01 0.0 
1.984038172228e+01 -4.502575320116e+00 0.0 
1.035080352627e+01 -6.166639575753e+00 0.0 
2.753558010652e+00 -1.444909521181e+01 0.0 
7.217069543032e+00 -1.328635391078e+01 0.0 
4.364336727739e+00 -1.655585677381e+01 0.0 
4.595208426108e+00 -1.357919665443e+01 0.0 
6.164967006980e+00 -1.569873454630e+01 0.0 
1.487855768353e+01 -1.826523774028e+01 0.0 
2.791876456372e+00 -4.019632415181e+00 0.0 
4.246464893515e+01 -1.364898659620e+01 0.0 
4.503855590351e+01 -1.329552780944e+01 0.0 
4.407239109604e+01 -1.573900004093e+01 0.0 
5.141054449252e+00 -6.664290382472e+00 0.0 
3.141083947149e+00 -1.055790764912e+01 0.0 
6.196463198741e+00 -4.256497932609e+00 0.0 
2.599618716181e+01 -1.836893455464e+01 0.0 
2.923057372337e+01 -1.098461757645e+01 0.0 
1.168343877486e+01 -1.114079645041e+01 0.0 
6.706222096238e+00 -8.780364234441e+00 0.0 
8.567858614669e+00 -6.943121440850e+00 0.0 
1.123755132901e+01 -5.753525820030e+00 0.0 
2.353456234423e+01 -1.008536320953e+01 0.0 
9.162073319168e+00 -1.045593739109e+01 0.0 
9.676343469685e+00 -1.496493008366e+01 0.0 
4.490637882905e+01 -1.628778970202e+01 0.0 
7.398129387772e+00 -9.639977982323e-01 0.0 
1.049641705805e+01 -1.552503975272e+01 0.0 
9.010356286268e+00 -1.242805042052e+01 0.0 
3.985573925497e+01 -1.399863651620e+01 0.0 
1.816196318262e+01 -1.554066497931e+01 0.0 
1.306332244168e+01 -3.963646550326e+00 0.0 
4.145850903932e+01 -1.608094559275e+01 0.0 
3.794664933633e+01 -1.779020121986e+01 0.0 
3.819614412903e+01 -1.290749321016e+01 0.0 
6.270014188119e+00 -3.255093186826e+00 0.0 
4.251165370388e+01 -1.263870364997e+01 0.0 
1.207347709171e+01 -1.763942826023e+01 0.0 
3.633240829927e+01 -1.577330481104e+01 0.0 
4.319052668832e+00 -6.101812561904e+00 0.0 
1.676492415806e+01 -1.151547901392e+01 0.0 
2.594059220037e+01 -1.074225223009e+01 0.0 
3.340750911501e+01 -9.898764354137e+00 0.0 
4.397619591281e+01 -1.769773736461e+01 0.0 
2.175611595028e+01 -1.185718747128e+01 0.0 
1.641818733106e+01 -1.640685203215e+01 0.0 
1.661211421753e+01 -1.346121366338e+01 0.0 
3.428853504935e+00 -6.551993389271e+00 0.0 
8.700728832502e+00 -1.638460872825e+01 0.0 
1.931369795309e+01 -1.121629383702e+01 0.0 
4.139798872363e+01 -1.706922153459e+01 0.0 
2.647837478700e+01 -1.507353829290e+01 0.0 
1.779469616424e+01 -9.161615782908e+00 0.0 
3.885879219319e+01 -1.642026488918e+01 0.0 
1.338194936770e+01 -1.125916521471e+01 0.0 
1.897071181111e+01 -1.609204322578e+01 0.0 
2.844308548793e+01 -1.046221003096e+01 0.0 
2.659854702194e+01 -1.316109415760e+01 0.0 
2.979604503271e+01 -1.433296157755e+01 0.0 
2.417694041347e+01 -1.251231397779e+01 0.0 
1.807401327411e+00 -1.388891148480e+01 0.0 
9.599810618782e+00 -1.595439365034e+01 0.0 
1.652144692160e+01 -4.205392788472e+00 0.0 
2.367839450246e+01 -8.188385218643e+00 0.0 
3.814894930468e+01 -1.390748338767e+01 0.0 
2.466448215774e+01 -1.685878545680e+01 0.0 
4.134044524611e+01 -1.806610045954e+01 0.0 
2.600511411958e+01 -9.801774120648e+00 0.0 
7.882158050716e+00 -1.582364037353e+01 0.0 
3.881607873422e+01 -1.737970515013e+01 0.0 
8.270182347708e+00 -1.088622154920e+01 0.0 
8.672520392520e-01 -4.532984309881e+00 0.0 
1.993447205337e+01 -3.579061902667e+00 0.0 
1.794616079549e+01 -7.238038888498e+00 0.0 
2.097277068165e+01 -1.132450168636e+01 0.0 
8.194803300681e+00 -1.187214224265e+01 0.0 
3.522279404911e+01 -1.823342818178e+01 0.0 
6.984481050295e+00 -1.625271465557e+01 0.0 
1.309433007797e+01 -1.521718594215e+01 0.0 
2.150246167611e+01 -1.885399038185e+00 0.0 
3.250689370209e+01 -1.028789870535e+01 0.0 
6.085886272238e+00 -1.668342132851e+01 0.0 
1.588455661727e+01 -1.193498985921e+01 0.0 
1.809323400821e+01 -1.651110084195e+01 0.0 
1.348885082381e+00 -1.136065576512e+01 0.0 
2.497670221995e+01 -1.834631276173e+01 0.0 
2.937062818424e+01 -8.233711194470e+00 0.0 
5.185823744469e+00 -1.711566910207e+01 0.0 
1.477497877209e+01 -1.530177014512e+01 0.0 
2.125346158933e+01 -7.473003997367e+00 0.0 
4.751561118290e+01 -1.084897772632e+01 0.0 
5.056026576843e+00 -1.825750475525e+01 0.0 
1.473948554523e+01 -1.634577436309e+01 0.0 
2.410566630936e+01 -1.345970002612e+01 0.0 
1.507337507513e+01 -1.138527895328e+01 0.0 
3.189857338687e+01 -8.887781229006e+00 0.0 
7.298712468334e+00 -1.230231046246e+01 0.0 
2.738235495295e+01 -1.368931690364e+01 0.0 
3.750141041969e+01 -1.920449893070e+01 0.0 
1.557271965640e+01 -1.683317951731e+01 0.0 
3.393731848929e+01 -1.413034777044e+01 0.0 
6.482156824153e+00 -1.174575135362e+01 0.0 
2.077971718439e+01 -1.421279621836e+01 0.0 
3.455084320178e+00 -2.562590040585e+00 0.0 
3.099056096250e+01 -9.270280416035e+00 0.0 
5.580176125418e+00 -1.217387969259e+01 0.0 
1.707247630389e+01 -7.660651981710e+00 0.0 
1.418658814174e+01 -1.180390575393e+01 0.0 
2.049103025389e+01 -1.811296706038e+01 0.0 
4.680386172316e+00 -1.260396879301e+01 0.0 
1.699679896554e+01 -8.624561788199e+00 0.0 
3.779470168555e+00 -1.303424899720e+01 0.0 
3.036589870126e+01 -7.879832518349e+00 0.0 
3.306993001774e+01 -1.457671062095e+01 0.0 
2.840150110165e+00 -1.346530088269e+01 0.0 
2.732011135052e+01 -1.464591214560e+01 0.0 
5.423639259568e+00 -2.659711955016e+00 0.0 
2.324455961696e+01 -1.387269388211e+01 0.0 
1.752768355571e+00 -1.693128613594e+01 0.0 
1.020244783051e+01 -8.076834012808e+00 0.0 
1.330873875224e+01 -1.222417528206e+01 0.0 
3.297727364880e+01 -1.555480372087e+01 0.0 
2.890929955439e+01 -6.868664170731e+00 0.0 
1.323294664622e+01 -1.320754260334e+01 0.0 
2.726532861246e+01 -1.560593120806e+01 0.0 
2.240020643398e+01 -1.429299177247e+01 0.0 
2.090445823633e+01 -1.228128621332e+01 0.0 
1.315809881502e+01 -1.420739326938e+01 0.0 
2.781328038068e+01 -7.181956082300e+00 0.0 
8.614200829057e+00 -5.936933226306e+00 0.0 
8.714765730069e+00 -4.979270529687e+00 0.0 
1.611881701099e+01 -9.041973294003e+00 0.0 
2.806830314340e+01 -1.614622947108e+01 0.0 
2.084435391396e+00 -3.385085422913e+00 0.0 
3.133211811152e+01 -1.542347619750e+01 0.0 
9.693114650768e+00 -3.590281506442e+00 0.0 
1.531883592202e+01 -8.504584946143e+00 0.0 
2.151589117094e+01 -1.578915763018e+01 0.0 
4.918943882696e+01 -1.355538828056e+01 0.0 
1.443236615188e+01 -8.918701794549e+00 0.0 
8.276250966452e-01 -5.537685192197e+00 0.0 
1.362790867918e+01 -8.374718262212e+00 0.0 
2.083767477370e+01 -1.324843956035e+01 0.0 
1.273834678703e+01 -8.790890389337e+00 0.0 
1.192275845670e+01 -8.242261327467e+00 0.0 
4.477236023583e+01 -1.824312396664e+01 0.0 
1.102989384254e+01 -8.649855800911e+00 0.0 
4.849096516045e+01 -1.917293752213e+01 0.0 
1.588996752238e+00 -1.910230934687e+01 0.0 
4.904245197583e+01 -1.159839008158e+01 0.0 
2.753852929608e+01 -5.782128488093e+00 0.0 
1.756133602833e+01 -8.306130313187e-01 0.0 
2.615423700951e+01 -6.153865090092e+00 0.0 
1.028818761294e+01 -7.122020845892e+00 0.0 
2.970818901196e+01 -1.527821347593e+01 0.0 
4.801461623449e+01 -1.164472570985e+01 0.0 
9.455722100419e+00 -6.546069291118e+00 0.0 
3.089099236677e+01 -1.835339328261e+01 0.0 
2.350000000013e+01 -1.920825896750e+01 0.0 
4.830620531887e+01 -1.506626155470e+01 0.0 
1.725381944701e+01 -1.688794487850e+01 0.0 
2.156246225273e+01 -1.475893794002e+01 0.0 
4.919319648787e+01 -1.742767505896e+01 0.0 
4.437935623576e+01 -1.077662927266e+01 0.0 
1.001520521978e+01 -1.652692675208e+00 0.0 
9.067160240050e-01 -1.441937727541e+01 0.0 
2.603365149390e+01 -4.755996613848e+00 0.0 
2.458344439002e+01 -4.873645517696e+00 0.0 
2.304312390142e+01 -3.836552768096e+00 0.0 
2.546923202198e+00 -6.902480355749e+00 0.0 
1.251534969393e+01 -2.490989965776e+00 0.0 
2.454061833377e+01 -3.933354231935e+00 0.0 
1.788186558740e+01 -1.827424884923e+01 0.0 
4.090785243552e+01 -1.166553231904e+01 0.0 
2.230128851568e+01 -1.623015738726e+01 0.0 
2.302362347568e+01 -2.916239960270e+00 0.0 
3.878119254461e+01 -1.830091164002e+01 0.0 
2.210081359958e+01 -1.829238229150e+01 0.0 
8.443704882233e+00 -1.921993252862e+01 0.0 
2.218405824691e+01 -1.724557581508e+01 0.0 
2.151157503963e+01 -2.790636689331e+00 0.0 
3.741658958955e+01 -1.250400191722e+01 0.0 
2.697247663737e+01 -1.838290202309e+01 0.0 
4.743362342862e+01 -1.585850773010e+01 0.0 
6.671345075358e+00 -1.924977576322e+01 0.0 
3.900825404537e+01 -1.157220003875e+01 0.0 
4.649692961375e+01 -1.836335837481e+01 0.0 
1.578831424832e+01 -3.678284023361e+00 0.0 
4.814208768888e+01 -1.841249298770e+01 0.0 
2.964123298315e+01 -1.625739458193e+01 0.0 
4.580760351902e+01 -1.284294554687e+01 0.0 
3.561520879615e+01 -1.245548941949e+01 0.0 
2.555418095658e+00 -1.841101588290e+01 0.0 
3.288468366144e+01 -1.834258164109e+01 0.0 
2.065894391445e+01 -2.240688571739e+00 0.0 
4.739171429915e+01 -1.496536413446e+01 0.0 
3.478086729185e+00 -8.576434653209e+00 0.0 
1.606010630246e+01 -1.588421807951e+00 0.0 
1.018329200594e+01 -1.834320874317e+01 0.0 
2.957213339430e+01 -1.720496954591e+01 0.0 
4.142712790164e+00 -1.837794506222e+01 0.0 
6.698721532573e-01 -2.499999999997e+00 0.0 
8.037039123140e+00 -1.571229354954e+00 0.0 
1.203541361428e+01 -1.847784298001e+01 0.0 
2.899968332038e+01 -1.848264722179e+01 0.0 
1.469229460948e+01 -4.219485753730e+00 0.0 
4.049590781957e+01 -1.932812501995e+01 0.0 
1.996211678340e+01 -1.506329754720e+00 0.0 
4.250588298353e+01 -1.067383247529e+01 0.0 
5.831497011152e+00 -1.635396227234e+00 0.0 
5.317606125670e+00 -1.923927974868e+01 0.0 
4.208546426993e+01 -1.842830665025e+01 0.0 
2.327553405011e+00 -9.459409929662e+00 0.0 
3.568351902251e+01 -1.096637218582e+01 0.0 
1.682104374890e+00 -6.231413350963e+00 0.0 
2.451812238018e+01 -1.766524914339e+01 0.0 
1.058003429638e+01 -2.391839617098e+00 0.0 
4.399988753123e+01 -1.851998776342e+01 0.0 
1.400000000010e+01 -1.852293523028e+01 0.0 
3.604719565984e+01 -1.850662876800e+01 0.0 
1.951297136734e+01 -1.938092349694e+01 0.0 
1.821365318472e+01 -1.531276353287e+00 0.0 
2.298031859732e+01 -1.854635324722e+01 0.0 
1.552168066204e+01 -1.764280741977e+01 0.0 
4.572957713638e+01 -1.073347898229e+01 0.0 
3.429637429624e+01 -1.838861552790e+01 0.0 
2.427434426052e+00 -7.705577451869e+00 0.0 
4.662792031485e+00 -3.359424455416e+00 0.0 
4.926794919243e+01 -1.926794919243e+01 0.0 
7.320508075690e-01 -7.320508075688e-01 0.0 
4.926794919243e+01 -1.073205080757e+01 0.0 
7.320508075705e-01 -1.926794919243e+01 0.0 
2.917460242467e+00 -3.202866455310e+00 0.0 
4.838200575963e+01 -1.232674147454e+01 0.0 
2.998445708009e+01 -1.854403752148e+01 0.0 
5.949940090766e-01 -1.152762038165e+01 0.0 
4.844763495759e+01 -1.678092548787e+01 0.0 
1.301685480160e+01 -3.170056592566e+00 0.0 
1.650046335855e+01 -6.731535384067e-01 0.0 
4.854881540991e+01 -1.405224059779e+01 0.0 
2.119545114693e+01 -1.846813384545e+01 0.0 
3.797852849897e+01 -1.857978513215e+01 0.0 
4.649823708745e+01 -1.338351810816e+01 0.0 
2.012685900976e+01 -2.889659035009e+00 0.0 
2.953271913273e+01 -1.791558075192e+01 0.0 
2.408509097292e+00 -1.021949208421e+01 0.0 
2.642589566221e+01 -1.773216561448e+01 0.0 
1.730010270775e+01 -1.763165076721e+01 0.0 
2.017406551304e+01 -8.513536440582e-01 0.0 
5.254761581934e-01 -1.249999999999e+01 0.0 
6.640448215642e+00 -1.545337834885e+00 0.0 
7.843361506349e+00 -1.852719839527e+01 0.0 
1.588442191088e+00 -1.066158564320e+01 0.0 
2.431250000000e+01 -2.420918367347e+00 0.0 
4.950961538461e+01 -2.500000000000e+00 0.0 
2.580823483239e+01 -3.416278049680e+00 0.0 
4.950961538461e+01 -3.500000000000e+00 0.0 
2.731250000000e+01 -4.420918367347e+00 0.0 
4.951086956522e+01 -4.500000000000e+00 0.0 
2.880770112393e+01 -5.415638864241e+00 0.0 
4.951086956522e+01 -5.500000000000e+00 0.0 
3.031250000000e+01 -6.420918367347e+00 0.0 
4.951250000000e+01 -6.500000000000e+00 0.0 
3.180701530612e+01 -7.414795918363e+00 0.0 
4.951250000000e+01 -7.500000000000e+00 0.0 
3.331250000000e+01 -8.420918367347e+00 0.0 
4.951470588234e+01 -8.500000000000e+00 0.0 
3.480610198624e+01 -9.413633635267e+00 0.0 
4.951470588234e+01 -9.500000000000e+00 0.0 

CELLS 2299 9196 
3 355 825 1101 
3 825 355 1103 
3 835 328 846 
3 948 713 1137 
3 715 775 941 
3 805 718 844 
3 335 757 759 
3 355 782 1103 
3 757 335 775 
3 708 943 1137 
3 327 902 903 
3 782 355 1117 
3 947 1099 1143 
3 764 895 985 
3 1099 361 1143 
3 354 948 1137 
3 763 334 904 
3 718 805 843 
3 342 762 1084 
3 762 342 1022 
3 943 708 1096 
3 1073 319 1079 
3 800 1073 1079 
3 750 749 959 
3 449 605 894 
3 902 327 1011 
3 113 82 1164 
3 794 320 1036 
3 447 449 894 
3 959 749 1169 
3 699 909 911 
3 352 765 942 
3 835 846 1144 
3 19 340 815 
3 350 769 771 
3 778 66 1135 
3 66 778 1161 
3 797 346 841 
3 761 104 1114 
3 104 761 1175 
3 1037 779 1063 
3 315 801 940 
3 1118 316 1122 
3 82 364 1164 
3 756 363 1113 
3 795 1118 1122 
3 909 699 912 
3 363 756 1139 
3 905 906 912 
3 895 764 1136 
3 357 800 1037 
3 747 762 1022 
3 525 1138 1156 
3 357 1037 1063 
3 847 329 1027 
3 1120 692 1165 
3 747 1022 1091 
3 340 785 815 
3 608 936 1054 
3 943 354 1137 
3 314 1148 1189 
3 1128 754 1130 
3 574 602 808 
3 1138 911 1156 
3 919 738 1143 
3 800 357 1073 
3 1148 758 1189 
3 328 835 1108 
3 635 596 917 
3 324 783 849 
3 1011 954 1065 
3 33 32 803 
3 794 1036 1166 
3 4 5 929 
3 926 1120 1165 
3 766 331 1017 
3 847 1027 1176 
3 814 1119 1126 
3 936 608 1178 
3 1119 356 1126 
3 596 609 917 
3 334 763 1124 
3 319 825 1079 
3 825 319 1101 
3 775 715 987 
3 757 775 987 
3 786 1011 1116 
3 18 19 815 
3 840 837 1085 
3 715 941 1124 
3 942 765 1115 
3 366 893 1164 
3 939 1110 1134 
3 1134 1110 1146 
3 332 33 803 
3 841 346 1171 
3 763 904 1136 
3 940 801 1149 
3 360 792 1089 
3 808 602 809 
3 941 775 1159 
3 361 919 1143 
3 522 1088 1112 
3 753 1128 1130 
3 643 641 819 
3 906 909 912 
3 946 947 1069 
3 712 939 1134 
3 314 905 912 
3 1042 337 1161 
3 487 840 1085 
3 4 929 1180 
3 710 806 842 
3 677 993 1031 
3 721 923 1147 
3 781 808 809 
3 576 574 808 
3 350 771 1129 
3 792 360 1184 
3 780 576 808 
3 811 741 1086 
3 364 366 1164 
3 939 712 1187 
3 576 780 819 
3 1131 1030 1145 
3 796 1046 1055 
3 923 721 1177 
3 1046 321 1055 
3 331 766 1157 
3 743 1131 1145 
3 902 1011 1065 
3 713 948 1139 
3 650 707 807 
3 321 779 1055 
3 769 350 1149 
3 947 704 1099 
3 786 954 1011 
3 807 707 1007 
3 751 879 1169 
3 683 799 807 
3 733 944 945 
3 783 324 1155 
3 985 895 1132 
3 592 564 813 
3 799 650 807 
3 779 321 1063 
3 707 845 1007 
3 819 645 1014 
3 335 759 1114 
3 806 441 842 
3 765 352 1153 
3 1100 1106 1184 
3 930 342 1084 
3 358 796 1031 
3 879 751 888 
3 780 643 819 
3 815 786 1116 
3 782 316 1118 
3 1088 748 1112 
3 341 787 788 
3 802 441 806 
3 785 340 1069 
3 635 811 1086 
3 947 706 1069 
3 822 695 850 
3 337 1042 1151 
3 1100 705 1106 
3 641 645 819 
3 993 358 1031 
3 327 903 1200 
3 316 782 1117 
3 441 802 816 
3 564 615 813 
3 787 341 1175 
3 645 806 1014 
3 796 358 1046 
3 689 878 1083 
3 923 624 1147 
3 320 794 1109 
3 849 783 1133 
3 781 809 1103 
3 624 923 1163 
3 866 996 1050 
3 799 683 1037 
3 782 781 1103 
3 822 677 1031 
3 806 710 1014 
3 330 943 1096 
3 453 862 1072 
3 340 946 1069 
3 795 356 1119 
3 651 816 1040 
3 837 862 1085 
3 81 114 804 
3 683 779 1037 
3 1039 711 1043 
3 935 1067 1160 
3 950 343 1176 
3 448 373 855 
3 1070 429 1097 
3 559 1039 1043 
3 893 366 1142 
3 894 605 1132 
3 749 751 1169 
3 1080 971 1107 
3 817 388 845 
3 647 537 850 
3 454 448 855 
3 644 822 850 
3 695 822 1031 
3 593 1053 1093 
3 878 727 1083 
3 804 338 805 
3 809 825 1103 
3 809 602 824 
3 707 817 845 
3 862 832 1072 
3 718 717 1023 
3 711 810 1029 
3 761 787 1175 
3 816 802 1040 
3 507 1029 1078 
3 767 977 1201 
3 853 454 855 
3 977 323 1201 
3 935 936 1067 
3 356 795 1122 
3 1080 723 1081 
3 827 454 853 
3 723 722 1081 
3 703 812 818 
3 529 910 982 
3 741 918 1086 
3 996 559 1050 
3 695 647 850 
3 738 919 1151 
3 114 338 804 
3 612 642 818 
3 402 441 816 
3 800 799 1037 
3 810 711 1039 
3 778 1042 1161 
3 1064 453 1072 
3 511 493 848 
3 559 1043 1050 
3 1011 327 1116 
3 845 455 1007 
3 854 855 1051 
3 754 1128 1173 
3 402 816 823 
3 642 703 818 
3 372 644 820 
3 803 32 1157 
3 388 817 992 
3 861 404 1000 
3 788 787 789 
3 917 609 1121 
3 644 821 822 
3 611 511 848 
3 717 851 952 
3 699 911 1138 
3 454 827 989 
3 537 820 850 
3 576 819 1014 
3 827 666 989 
3 862 453 1085 
3 455 826 968 
3 322 776 1135 
3 652 861 1000 
3 380 646 826 
3 710 842 973 
3 652 860 861 
3 494 510 851 
3 892 333 893 
3 406 403 823 
3 523 874 875 
3 854 1064 1072 
3 114 115 338 
3 644 370 821 
3 493 491 848 
3 567 612 818 
3 496 494 851 
3 375 372 820 
3 765 811 1115 
3 603 693 824 
3 652 859 860 
3 820 644 850 
3 892 893 894 
3 613 718 843 
3 523 875 877 
3 524 527 874 
3 809 824 825 
3 854 1051 1064 
3 602 603 824 
3 489 406 823 
3 816 651 823 
3 613 717 718 
3 842 398 973 
3 742 812 814 
3 37 329 847 
3 39 343 846 
3 389 388 992 
3 510 493 511 
3 566 567 625 
3 381 380 826 
3 510 511 566 
3 523 524 874 
3 455 968 1007 
3 944 733 1162 
3 848 651 1040 
3 1053 709 1093 
3 742 625 812 
3 347 57 867 
3 566 511 567 
3 386 455 845 
3 613 517 717 
3 889 582 997 
3 403 402 823 
3 527 871 874 
3 646 537 647 
3 42 868 869 
3 491 489 651 
3 652 480 859 
3 626 625 742 
3 857 542 980 
3 1029 810 1078 
3 642 643 701 
3 716 857 980 
3 345 45 849 
3 619 711 1029 
3 41 328 868 
3 985 605 1015 
3 840 487 1105 
3 703 701 795 
3 648 647 680 
3 380 537 646 
3 380 378 537 
3 456 992 1018 
3 320 47 852 
3 447 894 1142 
3 821 677 822 
3 651 489 823 
3 722 918 1081 
3 680 695 796 
3 642 641 643 
3 341 788 1041 
3 527 870 871 
3 491 651 848 
3 831 853 854 
3 612 641 642 
3 646 647 648 
3 480 482 859 
3 655 882 969 
3 50 344 858 
3 683 681 779 
3 495 497 877 
3 736 1070 1097 
3 702 781 782 
3 701 643 702 
3 837 834 862 
3 386 384 455 
3 693 799 800 
3 648 680 681 
3 54 346 863 
3 346 797 1123 
3 834 832 862 
3 854 853 855 
3 882 422 969 
3 574 575 602 
3 494 493 510 
3 492 491 493 
3 388 386 845 
3 669 889 997 
3 437 883 884 
3 830 828 831 
3 497 523 877 
3 571 456 572 
3 826 646 968 
3 573 572 574 
3 328 40 846 
3 343 38 847 
3 343 950 1144 
3 655 881 882 
3 666 568 989 
3 642 701 703 
3 490 489 491 
3 717 517 851 
3 603 650 693 
3 891 892 895 
3 857 985 1015 
3 867 865 959 
3 838 837 840 
3 372 370 644 
3 379 378 380 
3 517 496 851 
3 914 916 917 
3 441 400 842 
3 394 392 456 
3 400 398 842 
3 311 1030 1131 
3 788 789 790 
3 918 722 1086 
3 567 611 612 
3 57 56 867 
3 501 503 593 
3 365 677 821 
3 342 930 1152 
3 992 817 1018 
3 402 400 441 
3 378 375 820 
3 324 43 869 
3 680 647 695 
3 384 381 826 
3 437 884 890 
3 828 827 853 
3 655 880 881 
3 44 324 849 
3 41 40 328 
3 37 36 329 
3 39 38 343 
3 377 375 378 
3 831 828 853 
3 836 834 837 
3 574 572 575 
3 602 575 603 
3 886 883 970 
3 830 831 832 
3 46 345 852 
3 745 666 827 
3 859 593 860 
3 745 827 828 
3 586 584 887 
3 394 456 571 
3 693 650 799 
3 566 625 626 
3 332 803 1127 
3 573 574 576 
3 967 686 1036 
3 883 437 970 
3 528 531 870 
3 347 867 959 
3 612 640 641 
3 42 41 868 
3 343 847 1176 
3 385 384 386 
3 914 915 916 
3 44 43 324 
3 312 863 864 
3 527 528 870 
3 482 501 859 
3 318 51 858 
3 122 313 915 
3 571 572 573 
3 383 381 384 
3 387 386 388 
3 455 384 826 
3 625 567 818 
3 46 45 345 
3 488 406 489 
3 614 613 843 
3 776 322 1202 
3 915 313 916 
3 682 681 683 
3 909 910 911 
3 796 695 1031 
3 312 55 863 
3 48 47 320 
3 537 378 820 
3 906 908 909 
3 755 614 843 
3 909 908 910 
3 999 697 1012 
3 891 333 892 
3 367 365 821 
3 50 49 344 
3 349 891 895 
3 329 36 856 
3 589 586 887 
3 716 764 857 
3 702 780 781 
3 501 593 859 
3 717 952 1023 
3 52 51 318 
3 40 39 846 
3 38 37 847 
3 655 463 880 
3 458 460 886 
3 394 571 973 
3 463 465 880 
3 54 53 346 
3 567 511 611 
3 874 873 875 
3 871 872 873 
3 606 716 980 
3 58 347 879 
3 906 907 908 
3 56 55 312 
3 870 735 871 
3 43 42 869 
3 836 837 838 
3 121 122 915 
3 571 710 973 
3 665 568 666 
3 45 44 849 
3 377 378 379 
3 632 589 633 
3 626 742 743 
3 865 864 866 
3 627 734 735 
3 871 735 872 
3 905 348 906 
3 47 46 852 
3 851 510 952 
3 619 667 711 
3 716 763 764 
3 953 685 972 
3 871 873 874 
3 379 380 381 
3 51 50 858 
3 460 562 886 
3 471 507 577 
3 391 389 392 
3 730 623 731 
3 875 873 876 
3 880 577 881 
3 392 389 992 
3 728 585 1002 
3 501 502 503 
3 393 392 394 
3 430 432 890 
3 612 611 640 
3 458 886 970 
3 633 589 887 
3 457 480 652 
3 56 312 867 
3 744 666 745 
3 628 953 972 
3 55 54 863 
3 312 864 865 
3 399 398 400 
3 906 348 907 
3 59 879 888 
3 829 828 830 
3 531 627 870 
3 58 57 347 
3 465 471 880 
3 603 649 650 
3 370 367 821 
3 457 652 1000 
3 461 655 969 
3 623 582 889 
3 855 373 1051 
3 682 807 1007 
3 503 521 522 
3 790 789 791 
3 432 437 890 
3 482 484 501 
3 627 684 734 
3 654 476 955 
3 120 121 913 
3 641 640 645 
3 627 735 870 
3 883 725 884 
3 397 395 398 
3 471 577 880 
3 606 714 716 
3 531 594 627 
3 59 58 879 
3 383 384 385 
3 653 724 725 
3 385 386 387 
3 653 725 883 
3 913 121 915 
3 369 367 370 
3 922 921 923 
3 323 127 937 
3 562 617 653 
3 471 506 507 
3 951 621 976 
3 731 889 1033 
3 731 623 889 
3 365 325 677 
3 349 111 891 
3 746 856 1049 
3 387 388 389 
3 127 128 937 
3 741 661 918 
3 907 913 914 
3 723 1080 1107 
3 639 689 1083 
3 719 951 976 
3 516 999 1012 
3 440 438 949 
3 478 476 654 
3 619 630 667 
3 536 517 613 
3 353 921 922 
3 326 925 926 
3 315 60 888 
3 60 59 888 
3 921 920 924 
3 653 617 724 
3 461 463 655 
3 667 749 750 
3 661 580 918 
3 514 599 619 
3 935 933 936 
3 562 653 886 
3 884 725 885 
3 339 932 933 
3 353 920 921 
3 665 666 744 
3 128 129 934 
3 112 333 891 
3 112 113 333 
3 582 486 997 
3 326 10 925 
3 627 594 684 
3 812 625 818 
3 772 770 773 
3 852 345 967 
3 656 550 983 
3 702 643 780 
3 765 741 811 
3 648 681 682 
3 108 334 941 
3 107 108 941 
3 128 934 937 
3 934 933 935 
3 928 930 931 
3 504 445 579 
3 339 927 932 
3 920 317 924 
3 314 118 905 
3 445 440 949 
3 793 791 813 
3 110 111 349 
3 689 784 878 
3 465 470 471 
3 790 791 792 
3 10 11 925 
3 928 931 932 
3 30 29 944 
3 331 30 944 
3 716 714 763 
3 334 109 904 
3 925 922 926 
3 28 330 945 
3 579 445 949 
3 111 112 891 
3 110 349 904 
3 680 796 1055 
3 36 35 856 
3 944 29 945 
3 339 933 934 
3 129 339 934 
3 740 661 741 
3 884 885 1021 
3 946 704 947 
3 117 118 314 
3 351 938 939 
3 119 348 905 
3 622 582 623 
3 119 120 348 
3 118 119 905 
3 729 623 730 
3 675 738 739 
3 792 791 793 
3 968 682 1007 
3 927 928 932 
3 477 478 957 
3 25 24 948 
3 354 25 948 
3 109 110 904 
3 558 486 582 
3 29 28 945 
3 632 633 748 
3 928 929 930 
3 927 362 928 
3 928 362 929 
3 11 12 353 
3 361 69 919 
3 80 79 363 
3 131 362 927 
3 13 317 920 
3 70 69 361 
3 68 337 919 
3 61 315 940 
3 76 336 938 
3 78 77 351 
3 69 68 919 
3 68 67 337 
3 351 77 938 
3 131 132 362 
3 105 106 335 
3 108 109 334 
3 339 130 927 
3 65 64 322 
3 350 62 940 
3 63 62 350 
3 130 131 927 
3 129 130 339 
3 61 60 315 
3 62 61 940 
3 76 75 336 
3 102 103 341 
3 77 76 938 
3 74 73 360 
3 100 101 705 
3 126 127 323 
3 124 125 352 
3 123 124 942 
3 122 123 313 
3 13 14 317 
3 12 13 920 
3 124 352 942 
3 16 17 327 
3 313 123 942 
3 34 33 332 
3 28 27 330 
3 31 30 331 
3 6 7 342 
3 9 10 326 
3 27 26 943 
3 19 20 340 
3 26 25 354 
3 20 21 946 
3 21 22 704 
3 353 12 920 
3 330 27 943 
3 26 354 943 
3 340 20 946 
3 21 704 946 
3 569 570 954 
3 348 120 913 
3 460 561 562 
3 934 935 937 
3 772 773 774 
3 653 883 886 
3 535 519 956 
3 504 579 580 
3 1067 768 1160 
3 675 739 956 
3 562 563 617 
3 353 922 925 
3 519 581 956 
3 712 713 756 
3 11 353 925 
3 507 506 514 
3 469 467 520 
3 569 518 570 
3 637 569 954 
3 488 489 490 
3 682 683 807 
3 398 395 973 
3 477 476 478 
3 581 674 675 
3 785 637 786 
3 628 722 723 
3 700 621 708 
3 616 565 621 
3 761 760 787 
3 475 473 476 
3 518 477 957 
3 712 700 713 
3 616 700 712 
3 520 467 979 
3 675 706 738 
3 578 550 656 
3 785 786 815 
3 776 774 777 
3 708 621 951 
3 555 553 556 
3 471 470 506 
3 515 597 598 
3 534 620 628 
3 740 741 765 
3 907 348 913 
3 616 621 700 
3 675 674 706 
3 914 913 915 
3 833 832 834 
3 759 659 760 
3 505 519 535 
3 581 637 674 
3 684 685 736 
3 674 637 785 
3 759 760 761 
3 501 484 502 
3 776 777 778 
3 747 629 762 
3 771 770 772 
3 564 556 565 
3 598 629 692 
3 628 723 953 
3 900 898 901 
3 552 554 658 
3 439 443 458 
3 615 565 616 
3 555 564 592 
3 724 617 896 
3 786 637 954 
3 581 569 637 
3 564 565 615 
3 557 509 595 
3 617 563 618 
3 590 676 752 
3 556 963 976 
3 562 561 563 
3 469 520 955 
3 769 697 770 
3 555 556 564 
3 698 614 755 
3 672 767 768 
3 498 496 517 
3 581 675 956 
3 554 553 555 
3 902 900 903 
3 658 659 757 
3 619 599 630 
3 896 618 897 
3 519 569 581 
3 598 597 629 
3 772 774 776 
3 617 618 896 
3 692 629 747 
3 618 563 965 
3 458 459 460 
3 444 440 445 
3 899 900 902 
3 126 323 977 
3 352 125 977 
3 570 518 957 
3 515 557 597 
3 475 476 477 
3 476 473 955 
3 432 436 437 
3 531 532 594 
3 578 656 657 
3 844 718 1194 
3 460 560 561 
3 667 630 749 
3 597 557 608 
3 658 554 659 
3 757 659 759 
3 660 580 661 
3 696 663 697 
3 549 547 550 
3 515 509 557 
3 732 656 1001 
3 657 656 732 
3 452 509 515 
3 781 780 808 
3 446 445 504 
3 519 518 569 
3 897 898 899 
3 745 828 829 
3 578 657 719 
3 505 477 518 
3 475 477 505 
3 504 580 660 
3 505 518 519 
3 549 550 551 
3 899 898 900 
3 552 553 554 
3 551 550 578 
3 404 405 1000 
3 963 719 976 
3 563 624 965 
3 897 618 898 
3 560 459 720 
3 434 431 435 
3 552 551 553 
3 426 428 461 
3 444 446 452 
3 672 661 740 
3 549 551 552 
3 444 445 446 
3 769 770 771 
3 556 553 963 
3 505 535 958 
3 312 865 867 
3 563 561 624 
3 452 446 509 
3 660 661 672 
3 474 473 475 
3 555 592 962 
3 672 740 767 
3 458 443 459 
3 762 629 960 
3 552 658 961 
3 460 459 560 
3 473 469 955 
3 560 720 721 
3 621 565 976 
3 443 440 444 
3 468 472 516 
3 628 620 722 
3 472 469 473 
3 901 898 965 
3 474 475 958 
3 875 876 1057 
3 629 597 960 
3 760 659 962 
3 622 623 729 
3 572 456 1018 
3 554 555 962 
3 534 628 972 
3 546 548 606 
3 597 608 960 
3 773 770 999 
3 558 582 622 
3 503 502 521 
3 657 732 733 
3 461 462 463 
3 595 509 966 
3 466 464 467 
3 696 697 769 
3 684 594 685 
3 475 505 958 
3 553 551 963 
3 528 530 531 
3 468 467 469 
3 714 607 715 
3 598 692 998 
3 439 440 443 
3 391 392 393 
3 472 473 474 
3 603 575 649 
3 393 394 395 
3 548 547 549 
3 659 554 962 
3 606 607 714 
3 898 618 965 
3 636 538 663 
3 463 464 465 
3 658 757 987 
3 835 834 836 
3 522 521 590 
3 468 469 472 
3 551 578 963 
3 432 434 436 
3 436 438 439 
3 504 660 966 
3 465 466 470 
3 439 458 970 
3 548 549 961 
3 606 548 607 
3 408 410 457 
3 949 438 971 
3 490 491 492 
3 439 438 440 
3 436 434 438 
3 446 504 966 
3 514 538 599 
3 427 425 429 
3 578 719 963 
3 423 425 426 
3 465 464 466 
3 461 428 462 
3 397 398 399 
3 509 446 966 
3 636 663 696 
3 636 696 801 
3 583 585 728 
3 432 431 434 
3 463 462 464 
3 549 552 961 
3 437 436 970 
3 571 573 710 
3 443 444 964 
3 594 532 972 
3 430 431 432 
3 444 452 964 
3 515 598 990 
3 462 428 662 
3 466 467 468 
3 601 638 639 
3 125 126 977 
3 419 417 420 
3 423 421 424 
3 430 429 431 
3 607 548 961 
3 426 427 428 
3 459 443 964 
3 427 429 430 
3 565 556 976 
3 720 459 964 
3 672 768 986 
3 966 660 986 
3 685 594 972 
3 434 435 971 
3 419 421 422 
3 426 425 427 
3 534 596 620 
3 595 966 986 
3 857 764 985 
3 964 452 990 
3 514 506 538 
3 587 600 601 
3 371 370 372 
3 610 544 631 
3 639 688 689 
3 405 408 1000 
3 585 587 1002 
3 532 533 534 
3 430 890 974 
3 401 400 402 
3 524 526 527 
3 596 533 609 
3 436 439 970 
3 423 424 425 
3 422 421 423 
3 720 964 990 
3 426 461 969 
3 419 420 421 
3 415 417 418 
3 438 434 971 
3 485 483 486 
3 546 547 548 
3 415 413 416 
3 599 538 636 
3 531 530 532 
3 749 630 751 
3 422 423 969 
3 689 783 784 
3 382 381 383 
3 532 534 972 
3 374 372 375 
3 664 568 665 
3 422 882 1005 
3 645 802 806 
3 376 375 377 
3 456 392 992 
3 534 533 596 
3 766 737 803 
3 620 596 635 
3 797 691 798 
3 951 719 994 
3 508 486 558 
3 961 658 987 
3 545 544 610 
3 418 417 419 
3 457 479 480 
3 694 631 737 
3 468 516 975 
3 543 545 546 
3 622 729 810 
3 532 530 533 
3 543 541 544 
3 852 967 1036 
3 636 801 988 
3 427 430 974 
3 607 961 987 
3 715 607 987 
3 423 426 969 
3 470 466 975 
3 506 470 978 
3 660 672 986 
3 492 493 494 
3 411 413 414 
3 415 416 417 
3 395 394 973 
3 694 737 766 
3 830 832 833 
3 719 657 994 
3 650 649 707 
3 540 512 568 
3 466 468 975 
3 732 1001 1017 
3 513 541 542 
3 428 427 974 
3 411 409 412 
3 543 544 545 
3 610 631 694 
3 550 547 983 
3 546 545 547 
3 697 663 1012 
3 690 604 691 
3 663 538 978 
3 467 464 979 
3 779 681 1055 
3 485 508 539 
3 450 448 454 
3 452 515 990 
3 414 413 415 
3 731 1033 1045 
3 480 481 482 
3 497 499 523 
3 411 412 413 
3 482 483 484 
3 648 682 968 
3 662 428 974 
3 542 857 1015 
3 775 335 1159 
3 84 302 311 
3 464 462 979 
3 508 558 559 
3 829 830 950 
3 457 410 479 
3 462 662 979 
3 546 606 980 
3 85 303 356 
3 485 486 508 
3 481 479 669 
3 646 648 968 
3 470 975 978 
3 527 526 528 
3 538 506 978 
3 630 599 988 
3 484 483 485 
3 547 545 983 
3 591 589 632 
3 599 636 988 
3 86 304 316 
3 542 543 980 
3 752 676 753 
3 545 610 983 
3 482 481 483 
3 410 409 411 
3 1052 724 1056 
3 536 613 614 
3 656 983 1001 
3 990 598 998 
3 87 305 355 
3 588 586 589 
3 657 733 994 
3 528 529 530 
3 390 389 391 
3 542 541 543 
3 1021 885 1026 
3 523 499 524 
3 645 640 802 
3 609 533 982 
3 528 526 529 
3 530 529 982 
3 480 479 481 
3 856 35 1049 
3 88 306 319 
3 770 697 999 
3 407 406 488 
3 451 513 1015 
3 498 517 536 
3 751 630 988 
3 533 530 982 
3 721 720 998 
3 502 484 981 
3 419 422 1005 
3 590 604 676 
3 573 576 1014 
3 450 454 989 
3 690 691 797 
3 543 546 980 
3 830 833 950 
3 541 540 1004 
3 540 568 664 
3 510 566 952 
3 773 999 1019 
3 513 540 541 
3 404 861 1025 
3 89 307 357 
3 690 797 841 
3 495 494 496 
3 720 990 998 
3 590 521 604 
3 342 7 1022 
3 396 395 397 
3 485 539 981 
3 664 665 984 
3 665 744 746 
3 484 485 981 
3 631 544 1004 
3 405 403 406 
3 587 601 1002 
3 90 308 321 
3 836 838 839 
3 91 309 358 
3 310 91 993 
3 408 457 1000 
3 82 310 325 
3 678 433 679 
3 399 400 401 
3 411 414 991 
3 524 499 525 
3 408 409 410 
3 610 694 1001 
3 833 834 835 
3 516 472 1019 
3 676 604 690 
3 418 419 1005 
3 540 664 1004 
3 410 411 991 
3 774 773 1028 
3 544 541 1004 
3 568 512 989 
3 486 483 997 
3 405 407 408 
3 601 600 638 
3 379 381 382 
3 524 525 526 
3 495 496 497 
3 710 573 1014 
3 387 389 390 
3 777 774 1032 
3 513 512 540 
3 408 407 409 
3 583 728 1008 
3 539 508 996 
3 983 610 1001 
3 639 638 688 
3 605 451 1015 
3 711 667 1043 
3 479 410 991 
3 508 559 996 
3 393 395 396 
3 737 631 1020 
3 689 688 783 
3 481 669 997 
3 497 496 498 
3 591 632 634 
3 396 433 671 
3 405 406 407 
3 483 481 997 
3 514 619 1029 
3 497 498 499 
3 669 479 991 
3 374 375 376 
3 777 1032 1038 
3 376 377 487 
3 588 589 591 
3 371 372 374 
3 368 367 369 
3 382 383 442 
3 691 604 1006 
3 999 516 1019 
3 451 512 513 
3 665 746 984 
3 369 370 371 
3 488 490 668 
3 591 634 687 
3 1001 694 1017 
3 397 399 995 
3 396 397 433 
3 407 488 1003 
3 512 450 989 
3 649 575 1018 
3 678 679 709 
3 575 572 1018 
3 521 502 1006 
3 687 754 794 
3 412 409 1003 
3 536 614 670 
3 744 745 1027 
3 707 649 817 
3 1045 418 1058 
3 687 634 754 
3 451 450 512 
3 975 516 1012 
3 401 402 403 
3 670 614 698 
3 1038 739 1042 
3 390 391 500 
3 503 522 1053 
3 638 600 686 
3 698 755 758 
3 978 975 1012 
3 611 848 1040 
3 449 451 605 
3 520 1026 1047 
3 409 407 1003 
3 774 1028 1032 
3 671 433 678 
3 488 668 1003 
3 390 500 583 
3 670 698 699 
3 585 586 587 
3 502 981 1006 
3 784 783 1155 
3 587 588 600 
3 495 877 1024 
3 472 474 1019 
3 694 766 1017 
3 841 318 1059 
3 604 521 1006 
3 404 403 405 
3 583 584 585 
3 956 739 1038 
3 900 901 1035 
3 587 586 588 
3 513 542 1015 
3 773 1019 1028 
3 663 978 1012 
3 102 341 1041 
3 705 101 1041 
3 374 376 453 
3 585 584 586 
3 654 955 1047 
3 382 442 673 
3 679 433 995 
3 866 1050 1174 
3 401 403 404 
3 34 332 1049 
3 366 365 367 
3 433 397 995 
3 520 979 1026 
3 492 494 495 
3 662 974 1021 
3 583 500 584 
3 385 387 1008 
3 449 450 451 
3 673 442 726 
3 673 726 727 
3 931 930 1084 
3 974 890 1021 
3 817 649 1018 
3 377 379 1009 
3 487 377 1009 
3 798 691 1034 
3 7 8 1022 
3 525 499 1013 
3 391 393 1010 
3 890 884 1021 
3 91 358 993 
3 325 310 993 
3 449 448 450 
3 566 626 952 
3 1026 885 1047 
3 559 558 1039 
3 499 498 1013 
3 320 852 1036 
3 1004 664 1020 
3 725 724 1052 
3 1019 474 1028 
3 936 933 1054 
3 622 810 1039 
3 500 391 1010 
3 932 931 1054 
3 631 1004 1020 
3 498 536 1013 
3 379 382 1009 
3 387 390 1008 
3 415 418 1045 
3 881 577 1074 
3 664 984 1020 
3 577 507 1078 
3 396 671 1010 
3 393 396 1010 
3 302 83 1030 
3 536 670 1013 
3 588 591 1016 
3 368 369 373 
3 591 687 1016 
3 640 611 1040 
3 832 831 1072 
3 686 600 1016 
3 677 325 993 
3 600 588 1016 
3 474 958 1028 
3 887 584 1044 
3 662 1021 1026 
3 979 662 1026 
3 745 829 1027 
3 882 881 1071 
3 390 583 1008 
3 861 860 1077 
3 507 514 1029 
3 995 399 1025 
3 1024 877 1057 
3 889 669 1033 
3 668 490 1024 
3 382 673 1009 
3 668 1024 1057 
3 442 383 1048 
3 691 1006 1034 
3 1006 981 1034 
3 399 401 1025 
3 447 448 449 
3 1028 958 1032 
3 958 535 1032 
3 626 743 1023 
3 442 1048 1066 
3 777 1038 1042 
3 693 800 1079 
3 654 1052 1056 
3 311 302 1030 
3 1032 535 1038 
3 492 495 1024 
3 903 900 1035 
3 1053 522 1112 
3 447 373 448 
3 368 373 447 
3 500 1010 1044 
3 90 321 1046 
3 358 309 1046 
3 535 956 1038 
3 1074 577 1078 
3 731 1045 1058 
3 558 622 1039 
3 991 414 1033 
3 490 492 1024 
3 309 90 1046 
3 366 367 368 
3 101 102 1041 
3 981 539 1034 
3 401 404 1025 
3 690 841 1059 
3 674 785 1069 
3 669 991 1033 
3 778 777 1042 
3 1057 876 1061 
3 753 676 1059 
3 1010 671 1044 
3 633 887 1068 
3 667 750 1043 
3 431 429 1070 
3 1008 728 1048 
3 1033 414 1045 
3 385 1008 1048 
3 802 640 1040 
3 748 633 1076 
3 414 415 1045 
3 955 520 1047 
3 383 385 1048 
3 1145 359 1158 
3 860 593 1093 
3 814 311 1131 
3 595 986 1067 
3 654 1047 1052 
3 601 639 1075 
3 373 369 1051 
3 89 357 1063 
3 35 34 1049 
3 83 301 359 
3 321 308 1063 
3 730 731 1058 
3 724 896 1056 
3 681 680 1055 
3 1087 872 1090 
3 1071 881 1074 
3 584 500 1044 
3 593 503 1053 
3 838 1140 1150 
3 952 626 1023 
3 885 725 1052 
3 1056 896 1060 
3 949 971 1080 
3 364 325 365 
3 369 371 1051 
3 18 815 1116 
3 933 932 1054 
3 758 755 1102 
3 918 580 1081 
3 896 897 1060 
3 412 1061 1082 
3 873 872 1087 
3 877 875 1057 
3 478 654 1056 
3 374 453 1064 
3 1060 897 1062 
3 412 1003 1061 
3 1048 728 1066 
3 764 763 1136 
3 522 590 1088 
3 897 899 1062 
3 478 1056 1060 
3 88 319 1073 
3 416 413 1082 
3 1062 899 1065 
3 336 75 1089 
3 74 360 1089 
3 357 307 1073 
3 957 478 1060 
3 735 734 1092 
3 814 812 1119 
3 676 690 1059 
3 722 620 1086 
3 1092 734 1094 
3 1077 860 1093 
3 308 89 1063 
3 899 902 1065 
3 9 326 1091 
3 364 365 366 
3 957 1060 1062 
3 418 1005 1058 
3 1047 885 1052 
3 805 844 1158 
3 1113 351 1187 
3 420 417 1090 
3 996 866 1111 
3 633 1068 1076 
3 570 957 1062 
3 570 1062 1065 
3 1061 876 1082 
3 635 917 1167 
3 844 1145 1158 
3 954 570 1065 
3 1043 750 1050 
3 684 736 1095 
3 728 1002 1066 
3 825 824 1079 
3 726 442 1066 
3 801 315 1154 
3 115 116 1102 
3 24 23 1098 
3 71 70 1099 
3 73 72 1100 
3 424 421 1094 
3 887 1044 1068 
3 1003 668 1061 
3 986 768 1067 
3 83 359 1030 
3 951 994 1096 
3 371 374 1064 
3 82 325 364 
3 48 320 1109 
3 1022 8 1091 
3 344 49 1109 
3 1051 371 1064 
3 429 425 1097 
3 1044 671 1068 
3 424 1094 1095 
3 703 795 1119 
3 1095 736 1097 
3 453 376 1085 
3 706 674 1069 
3 420 1090 1092 
3 726 1066 1075 
3 1102 116 1189 
3 416 1082 1087 
3 831 854 1072 
3 435 431 1070 
3 736 685 1104 
3 671 678 1068 
3 910 529 1156 
3 87 355 1101 
3 319 306 1101 
3 435 1104 1107 
3 730 1058 1071 
3 995 1025 1077 
3 1066 1002 1075 
3 835 836 1108 
3 307 88 1073 
3 938 336 1110 
3 783 688 1133 
3 668 1057 1061 
3 311 814 1126 
3 824 693 1079 
3 1005 882 1071 
3 673 727 1105 
3 1058 1005 1071 
3 718 1023 1194 
3 729 730 1074 
3 795 701 1118 
3 1025 861 1077 
3 730 1071 1074 
3 1068 678 1076 
3 592 813 1193 
3 971 435 1107 
3 742 814 1131 
3 729 1074 1078 
3 702 782 1118 
3 1102 755 1172 
3 363 79 1113 
3 78 351 1113 
3 916 313 1115 
3 810 729 1078 
3 579 1080 1081 
3 579 949 1080 
3 1075 639 1083 
3 678 709 1076 
3 1002 601 1075 
3 416 1087 1090 
3 104 105 1114 
3 350 940 1149 
3 580 579 1081 
3 539 996 1111 
3 679 995 1077 
3 762 960 1084 
3 487 1009 1105 
3 413 412 1082 
3 914 917 1121 
3 876 873 1087 
3 17 18 1116 
3 376 487 1085 
3 620 635 1086 
3 903 1035 1186 
3 727 726 1083 
3 590 752 1088 
3 1070 736 1104 
3 1091 326 1165 
3 679 1077 1093 
3 75 74 1089 
3 908 907 1121 
3 967 345 1133 
3 846 343 1144 
3 360 1100 1184 
3 803 737 1127 
3 868 328 1108 
3 417 416 1090 
3 420 1092 1094 
3 864 863 1123 
3 338 115 1102 
3 8 9 1091 
3 903 1186 1200 
3 435 1070 1104 
3 872 735 1092 
3 86 316 1117 
3 355 305 1117 
3 763 714 1124 
3 1082 876 1087 
3 998 692 1120 
3 632 748 1125 
3 322 64 1129 
3 63 350 1129 
3 421 420 1094 
3 349 895 1136 
3 758 1102 1189 
3 85 356 1122 
3 911 910 1156 
3 316 304 1122 
3 709 679 1093 
3 734 684 1095 
3 1090 872 1092 
3 912 699 1148 
3 756 1113 1187 
3 1094 734 1095 
3 708 951 1096 
3 616 712 1134 
3 948 24 1098 
3 70 361 1099 
3 360 73 1100 
3 424 1095 1097 
3 306 87 1101 
3 425 424 1097 
3 66 65 1135 
3 84 311 1126 
3 356 303 1126 
3 798 1034 1111 
3 941 334 1124 
3 713 700 1137 
3 726 1075 1083 
3 752 753 1130 
3 838 840 1140 
3 789 787 1141 
3 1104 953 1107 
3 685 953 1104 
3 1110 336 1190 
3 1125 752 1130 
3 333 113 1164 
3 705 1041 1106 
3 788 790 1106 
3 787 760 1141 
3 670 699 1138 
3 953 723 1107 
3 733 945 1168 
3 962 592 1141 
3 318 841 1171 
3 836 839 1108 
3 1009 673 1105 
3 1020 984 1127 
3 624 561 1147 
3 560 721 1147 
3 801 696 1149 
3 314 912 1148 
3 747 1091 1165 
3 49 48 1109 
3 6 342 1152 
3 1041 788 1106 
3 865 866 1174 
3 740 765 1153 
3 323 937 1160 
3 31 331 1157 
3 107 941 1159 
3 1017 331 1162 
3 864 1123 1198 
3 335 106 1159 
3 338 1102 1172 
3 948 1098 1139 
3 595 1067 1178 
3 733 732 1162 
3 67 66 1161 
3 833 835 1144 
3 525 1013 1138 
3 895 892 1132 
3 923 921 1163 
3 748 1088 1125 
3 52 318 1171 
3 939 938 1110 
3 346 53 1171 
3 699 698 1148 
3 776 778 1135 
3 526 525 1156 
3 931 1084 1183 
3 347 959 1169 
3 856 746 1170 
3 766 803 1157 
3 759 761 1114 
3 366 368 1142 
3 812 703 1119 
3 868 1108 1185 
3 926 922 1177 
3 743 1145 1194 
3 1088 752 1125 
3 103 104 1175 
3 746 744 1170 
3 3 80 1179 
3 23 3 1179 
3 132 0 1180 
3 0 4 1180 
3 72 1 1181 
3 1 100 1181 
3 2 71 1182 
3 22 2 1182 
3 929 362 1180 
3 117 314 1189 
3 1042 739 1151 
3 687 794 1166 
3 608 557 1178 
3 772 776 1202 
3 16 327 1200 
3 317 14 1186 
3 813 791 1193 
3 982 910 1188 
3 748 1076 1112 
3 1067 936 1178 
3 965 624 1196 
3 1108 839 1185 
3 79 78 1113 
3 1035 317 1186 
3 790 792 1184 
3 686 967 1197 
3 1140 878 1150 
3 1105 727 1140 
3 105 335 1114 
3 709 1053 1112 
3 1027 829 1176 
3 692 747 1165 
3 313 942 1115 
3 638 686 1197 
3 1034 539 1111 
3 910 908 1188 
3 793 1110 1190 
3 919 337 1151 
3 686 1016 1166 
3 1036 686 1166 
3 327 17 1116 
3 804 805 1158 
3 305 86 1117 
3 701 702 1118 
3 892 894 1132 
3 1076 709 1112 
3 994 733 1168 
3 863 346 1123 
3 907 914 1121 
3 916 1115 1167 
3 304 85 1122 
3 813 615 1146 
3 721 998 1120 
3 984 746 1192 
3 1084 960 1183 
3 797 798 1123 
3 714 715 1124 
3 858 344 1128 
3 634 632 1125 
3 894 893 1142 
3 888 751 1154 
3 746 1049 1192 
3 1098 363 1139 
3 303 84 1126 
3 737 1020 1127 
3 345 849 1133 
3 1123 798 1198 
3 634 1125 1130 
3 64 63 1129 
3 840 1105 1140 
3 81 804 1199 
3 743 742 1131 
3 839 838 1150 
3 605 985 1132 
3 706 947 1143 
3 754 634 1130 
3 322 1129 1202 
3 615 616 1134 
3 318 858 1191 
3 988 801 1154 
3 751 988 1154 
3 1120 926 1177 
3 65 322 1135 
3 904 349 1136 
3 700 708 1137 
3 917 916 1167 
3 712 756 1187 
3 793 813 1146 
3 929 5 1152 
3 1013 670 1138 
3 727 878 1140 
3 331 944 1162 
3 756 713 1139 
3 1059 318 1191 
3 760 962 1141 
3 352 977 1153 
3 843 805 1172 
3 977 767 1153 
3 811 635 1167 
3 301 81 1199 
3 624 1163 1196 
3 738 706 1143 
3 950 833 1144 
3 368 447 1142 
3 561 560 1147 
3 696 769 1149 
3 750 959 1174 
3 1128 344 1173 
3 967 1133 1197 
3 878 784 1150 
3 1115 811 1167 
3 698 758 1148 
3 739 738 1151 
3 930 929 1152 
3 5 6 1152 
3 1030 359 1145 
3 767 740 1153 
3 315 888 1154 
3 324 869 1155 
3 1096 994 1168 
3 344 1109 1173 
3 1050 750 1174 
3 1141 592 1193 
3 32 31 1157 
3 529 526 1156 
3 106 107 1159 
3 908 1121 1188 
3 937 935 1160 
3 337 67 1161 
3 893 333 1164 
3 1054 931 1183 
3 921 924 1163 
3 1155 869 1185 
3 732 1017 1162 
3 329 856 1170 
3 326 926 1165 
3 755 843 1172 
3 1129 771 1202 
3 1098 23 1179 
3 71 1099 1182 
3 1100 72 1181 
3 959 865 1174 
3 608 1054 1183 
3 1127 984 1192 
3 323 1160 1201 
3 879 347 1169 
3 1027 329 1170 
3 805 338 1172 
3 1016 687 1166 
3 615 1134 1146 
3 945 330 1168 
3 53 52 1171 
3 336 1089 1190 
3 869 868 1185 
3 744 1027 1170 
3 1110 793 1146 
3 1155 1185 1195 
3 922 923 1177 
3 341 103 1175 
3 794 754 1173 
3 80 363 1179 
3 362 132 1180 
3 100 705 1181 
3 704 22 1182 
3 557 595 1178 
3 866 864 1198 
3 829 950 1176 
3 330 1096 1168 
3 960 608 1183 
3 1145 844 1194 
3 14 15 1186 
3 351 939 1187 
3 116 117 1189 
3 1049 332 1192 
3 792 793 1190 
3 609 982 1188 
3 791 789 1193 
3 1109 794 1173 
3 1186 15 1200 
3 359 301 1199 
3 721 1120 1177 
3 901 965 1196 
3 15 16 1200 
3 753 1059 1191 
3 924 317 1203 
3 1035 901 1203 
3 768 767 1201 
3 771 772 1202 
3 688 638 1197 
3 1023 743 1194 
3 363 1098 1179 
3 1099 704 1182 
3 705 1100 1181 
3 1089 792 1190 
3 1196 924 1203 
3 901 1196 1203 
3 317 1035 1203 
3 798 1111 1198 
3 1121 609 1188 
3 1133 688 1197 
3 1106 790 1184 
3 332 1127 1192 
3 1111 866 1198 
3 789 1141 1193 
3 839 1150 1195 
3 1128 753 1191 
3 858 1128 1191 
3 1158 359 1199 
3 1150 784 1195 
3 784 1155 1195 
3 1160 768 1201 
3 1163 924 1196 
3 804 1158 1199 
3 1185 839 1195 
3 183 182 158 
3 182 157 158 
3 182 181 157 
3 181 156 157 
3 181 180 156 
3 180 155 156 
3 180 179 155 
3 179 154 155 
3 179 178 154 
3 178 153 154 
3 178 177 153 
3 177 152 153 
3 177 176 152 
3 176 151 152 
3 176 175 151 
3 151 175 150 
3 175 174 150 
3 174 149 150 
3 174 173 149 
3 173 148 149 
3 134 85 1204 
3 173 172 148 
3 172 147 148 
3 172 171 147 
3 133 134 1204 
3 171 146 147 
3 171 170 146 
3 159 85 134 
3 170 145 146 
3 170 169 145 
3 169 144 145 
3 169 168 144 
3 168 143 144 
3 168 167 143 
3 167 142 143 
3 167 166 142 
3 142 166 141 
3 85 303 1204 
3 166 165 141 
3 141 165 140 
3 165 164 140 
3 140 164 139 
3 163 138 139 
3 164 163 139 
3 138 162 137 
3 163 162 138 
3 137 161 136 
3 162 161 137 
3 136 160 135 
3 159 134 135 
3 161 160 136 
3 160 159 135 
3 303 133 1204 
3 92 93 1205 
3 183 158 1205 
3 158 92 1205 
3 93 183 1205 
3 133 303 84 
3 182 183 184 
3 182 184 185 
3 181 182 185 
3 186 181 185 
3 180 181 186 
3 187 180 186 
3 179 180 187 
3 188 179 187 
3 178 179 188 
3 189 178 188 
3 177 178 189 
3 190 177 189 
3 176 177 190 
3 191 176 190 
3 175 176 191 
3 192 175 191 
3 174 175 192 
3 174 192 193 
3 173 174 193 
3 160 86 1206 
3 194 173 193 
3 172 173 194 
3 172 194 195 
3 86 160 206 
3 171 172 195 
3 171 195 196 
3 170 171 196 
3 170 196 197 
3 169 170 197 
3 159 160 1206 
3 169 197 198 
3 168 169 198 
3 168 198 199 
3 167 168 199 
3 167 199 200 
3 166 167 200 
3 166 200 201 
3 165 166 201 
3 165 201 202 
3 164 165 202 
3 164 202 203 
3 86 304 1206 
3 163 203 204 
3 163 164 203 
3 162 204 205 
3 162 163 204 
3 161 205 206 
3 161 162 205 
3 160 161 206 
3 304 159 1206 
3 93 94 1207 
3 184 183 1207 
3 94 184 1207 
3 183 93 1207 
3 159 304 85 
3 184 227 228 
3 184 185 227 
3 185 226 227 
3 185 186 226 
3 186 225 226 
3 186 187 225 
3 187 224 225 
3 187 188 224 
3 188 223 224 
3 188 189 223 
3 189 222 223 
3 189 190 222 
3 190 221 222 
3 190 191 221 
3 221 191 220 
3 191 192 220 
3 192 219 220 
3 192 193 219 
3 87 205 1208 
3 193 218 219 
3 193 194 218 
3 194 217 218 
3 205 206 1208 
3 217 194 195 
3 205 87 207 
3 216 217 195 
3 196 216 195 
3 215 216 196 
3 197 215 196 
3 215 197 214 
3 197 198 214 
3 214 198 213 
3 198 199 213 
3 305 87 1208 
3 213 199 212 
3 199 200 212 
3 212 200 211 
3 200 201 211 
3 201 202 210 
3 201 210 211 
3 202 203 209 
3 210 202 209 
3 203 204 208 
3 204 205 207 
3 209 203 208 
3 208 204 207 
3 206 305 1208 
3 95 94 1209 
3 184 228 1209 
3 94 184 1209 
3 228 95 1209 
3 305 206 86 
3 227 228 229 
3 227 229 230 
3 226 227 230 
3 226 230 231 
3 225 226 231 
3 232 225 231 
3 232 224 225 
3 232 233 224 
3 233 223 224 
3 233 234 223 
3 234 222 223 
3 234 235 222 
3 235 221 222 
3 235 236 221 
3 221 236 220 
3 236 237 220 
3 237 219 220 
3 208 88 1210 
3 237 238 219 
3 238 218 219 
3 248 88 208 
3 238 239 218 
3 239 217 218 
3 239 240 217 
3 217 240 216 
3 240 241 216 
3 207 208 1210 
3 216 241 215 
3 241 242 215 
3 215 242 214 
3 242 243 214 
3 214 243 213 
3 243 244 213 
3 213 244 212 
3 244 245 212 
3 212 245 211 
3 245 246 211 
3 88 306 1210 
3 246 247 210 
3 246 210 211 
3 247 248 209 
3 210 247 209 
3 209 248 208 
3 306 207 1210 
3 95 96 1211 
3 229 228 1211 
3 96 229 1211 
3 228 95 1211 
3 306 87 207 
3 266 267 229 
3 230 266 229 
3 265 266 230 
3 231 265 230 
3 264 265 231 
3 232 264 231 
3 263 264 232 
3 233 263 232 
3 262 263 233 
3 262 233 234 
3 261 262 234 
3 235 261 234 
3 260 261 235 
3 236 260 235 
3 259 260 236 
3 237 259 236 
3 89 247 1212 
3 258 259 237 
3 258 237 238 
3 247 248 1212 
3 258 238 257 
3 257 238 239 
3 247 89 249 
3 256 257 239 
3 256 239 240 
3 255 256 240 
3 255 240 241 
3 254 255 241 
3 242 254 241 
3 307 89 1212 
3 253 254 242 
3 253 242 243 
3 252 253 243 
3 252 243 244 
3 251 244 245 
3 251 252 244 
3 245 246 250 
3 251 245 250 
3 246 247 249 
3 246 249 250 
3 248 307 1212 
3 97 96 1213 
3 229 267 1213 
3 96 229 1213 
3 267 97 1213 
3 248 88 307 
3 266 267 268 
3 269 266 268 
3 265 266 269 
3 270 265 269 
3 264 265 270 
3 271 264 270 
3 263 264 271 
3 272 263 271 
3 262 263 272 
3 273 262 272 
3 261 262 273 
3 274 261 273 
3 260 261 274 
3 260 274 275 
3 259 260 275 
3 250 90 1214 
3 276 259 275 
3 90 250 284 
3 259 276 258 
3 276 277 258 
3 258 277 257 
3 277 278 257 
3 278 256 257 
3 256 278 279 
3 249 250 1214 
3 256 279 255 
3 279 280 255 
3 280 254 255 
3 280 281 254 
3 281 253 254 
3 282 253 281 
3 253 282 252 
3 252 282 283 
3 251 283 284 
3 251 252 283 
3 90 308 1214 
3 250 251 284 
3 308 249 1214 
3 97 98 1215 
3 268 267 1215 
3 98 268 1215 
3 267 97 1215 
3 89 249 308 
3 299 300 268 
3 269 299 268 
3 298 299 269 
3 270 298 269 
3 297 298 270 
3 271 297 270 
3 296 297 271 
3 272 296 271 
3 295 296 272 
3 273 295 272 
3 294 295 273 
3 274 294 273 
3 293 294 274 
3 91 283 1216 
3 293 274 275 
3 292 293 275 
3 283 284 1216 
3 276 292 275 
3 292 276 291 
3 283 91 285 
3 276 277 291 
3 277 290 291 
3 277 278 290 
3 278 289 290 
3 278 279 289 
3 309 91 1216 
3 279 288 289 
3 279 280 288 
3 280 281 287 
3 280 287 288 
3 281 282 286 
3 281 286 287 
3 282 283 285 
3 282 285 286 
3 284 309 1216 
3 99 98 1217 
3 268 300 1217 
3 98 268 1217 
3 300 99 1217 
3 90 309 284 
3 299 300 100 
3 299 100 101 
3 298 299 101 
3 298 101 102 
3 297 298 102 
3 297 102 103 
3 296 297 103 
3 296 103 104 
3 295 296 104 
3 295 104 105 
3 294 295 105 
3 294 105 106 
3 286 82 1218 
3 293 294 106 
3 113 82 286 
3 293 106 107 
3 292 293 107 
3 108 292 107 
3 291 292 108 
3 109 291 108 
3 290 291 109 
3 290 109 110 
3 285 286 1218 
3 290 110 289 
3 110 111 289 
3 111 288 289 
3 111 112 288 
3 112 113 287 
3 288 112 287 
3 287 113 286 
3 82 310 1218 
3 310 285 1218 
3 99 1 1219 
3 100 300 1219 
3 1 100 1219 
3 300 99 1219 
3 310 91 285 

CELL_TYPES 2299
5
5
5
5
5
5
5
5
5
5
5
5
5
5
5
5
5
5
5
5
5
5
5
5
5
5
5
5
5
5
5
5
5
5
5
5
5
5
5
5
5
5
5
5
5
5
5
5
5
5
5
5
5
5
5
5
5
5
5
5
5
5
5
5
5
5
5
5
5
5
5
5
5
5
5
5
5
5
5
5
5
5
5
5
5
5
5
5
5
5
5
5
5
5
5
5
5
5
5
5
5
5
5
5
5
5
5
5
5
5
5
5
5
5
5
5
5
5
5
5
5
5
5
5
5
5
5
5
5
5
5
5
5
5
5
5
5
5
5
5
5
5
5
5
5
5
5
5
5
5
5
5
5
5
5
5
5
5
5
5
5
5
5
5
5
5
5
5
5
5
5
5
5
5
5
5
5
5
5
5
5
5
5
5
5
5
5
5
5
5
5
5
5
5
5
5
5
5
5
5
5
5
5
5
5
5
5
5
5
5
5
5
5
5
5
5
5
5
5
5
5
5
5
5
5
5
5
5
5
5
5
5
5
5
5
5
5
5
5
5
5
5
5
5
5
5
5
5
5
5
5
5
5
5
5
5
5
5
5
5
5
5
5
5
5
5
5
5
5
5
5
5
5
5
5
5
5
5
5
5
5
5
5
5
5
5
5
5
5
5
5
5
5
5
5
5
5
5
5
5
5
5
5
5
5
5
5
5
5
5
5
5
5
5
5
5
5
5
5
5
5
5
5
5
5
5
5
5
5
5
5
5
5
5
5
5
5
5
5
5
5
5
5
5
5
5
5
5
5
5
5
5
5
5
5
5
5
5
5
5
5
5
5
5
5
5
5
5
5
5
5
5
5
5
5
5
5
5
5
5
5
5
5
5
5
5
5
5
5
5
5
5
5
5
5
5
5
5
5
5
5
5
5
5
5
5
5
5
5
5
5
5
5
5
5
5
5
5
5
5
5
5
5
5
5
5
5
5
5
5
5
5
5
5
5
5
5
5
5
5
5
5
5
5
5
5
5
5
5
5
5
5
5
5
5
5
5
5
5
5
5
5
5
5
5
5
5
5
5
5
5
5
5
5
5
5
5
5
5
5
5
5
5
5
5
5
5
5
5
5
5
5
5
5
5
5
5
5
5
5
5
5
5
5
5
5
5
5
5
5
5
5
5
5
5
5
5
5
5
5
5
5
5
5
5
5
5
5
5
5
5
5
5
5
5
5
5
5
5
5
5
5
5
5
5
5
5
5
5
5
5
5
5
5
5
5
5
5
5
5
5
5
5
5
5
5
5
5
5
5
5
5
5
5
5
5
5
5
5
5
5
5
5
5
5
5
5
5
5
5
5
5
5
5
5
5
5
5
5
5
5
5
5
5
5
5
5
5
5
5
5
5
5
5
5
5
5
5
5
5
5
5
5
5
5
5
5
5
5
5
5
5
5
5
5
5
5
5
5
5
5
5
5
5
5
5
5
5
5
5
5
5
5
5
5
5
5
5
5
5
5
5
5
5
5
5
5
5
5
5
5
5
5
5
5
5
5
5
5
5
5
5
5
5
5
5
5
5
5
5
5
5
5
5
5
5
5
5
5
5
5
5
5
5
5
5
5
5
5
5
5
5
5
5
5
5
5
5
5
5
5
5
5
5
5
5
5
5
5
5
5
5
5
5
5
5
5
5
5
5
5
5
5
5
5
5
5
5
5
5
5
5
5
5
5
5
5
5
5
5
5
5
5
5
5
5
5
5
5
5
5
5
5
5
5
5
5
5
5
5
5
5
5
5
5
5
5
5
5
5
5
5
5
5
5
5
5
5
5
5
5
5
5
5
5
5
5
5
5
5
5
5
5
5
5
5
5
5
5
5
5
5
5
5
5
5
5
5
5
5
5
5
5
5
5
5
5
5
5
5
5
5
5
5
5
5
5
5
5
5
5
5
5
5
5
5
5
5
5
5
5
5
5
5
5
5
5
5
5
5
5
5
5
5
5
5
5
5
5
5
5
5
5
5
5
5
5
5
5
5
5
5
5
5
5
5
5
5
5
5
5
5
5
5
5
5
5
5
5
5
5
5
5
5
5
5
5
5
5
5
5
5
5
5
5
5
5
5
5
5
5
5
5
5
5
5
5
5
5
5
5
5
5
5
5
5
5
5
5
5
5
5
5
5
5
5
5
5
5
5
5
5
5
5
5
5
5
5
5
5
5
5
5
5
5
5
5
5
5
5
5
5
5
5
5
5
5
5
5
5
5
5
5
5
5
5
5
5
5
5
5
5
5
5
5
5
5
5
5
5
5
5
5
5
5
5
5
5
5
5
5
5
5
5
5
5
5
5
5
5
5
5
5
5
5
5
5
5
5
5
5
5
5
5
5
5
5
5
5
5
5
5
5
5
5
5
5
5
5
5
5
5
5
5
5
5
5
5
5
5
5
5
5
5
5
5
5
5
5
5
5
5
5
5
5
5
5
5
5
5
5
5
5
5
5
5
5
5
5
5
5
5
5
5
5
5
5
5
5
5
5
5
5
5
5
5
5
5
5
5
5
5
5
5
5
5
5
5
5
5
5
5
5
5
5
5
5
5
5
5
5
5
5
5
5
5
5
5
5
5
5
5
5
5
5
5
5
5
5
5
5
5
5
5
5
5
5
5
5
5
5
5
5
5
5
5
5
5
5
5
5
5
5
5
5
5
5
5
5
5
5
5
5
5
5
5
5
5
5
5
5
5
5
5
5
5
5
5
5
5
5
5
5
5
5
5
5
5
5
5
5
5
5
5
5
5
5
5
5
5
5
5
5
5
5
5
5
5
5
5
5
5
5
5
5
5
5
5
5
5
5
5
5
5
5
5
5
5
5
5
5
5
5
5
5
5
5
5
5
5
5
5
5
5
5
5
5
5
5
5
5
5
5
5
5
5
5
5
5
5
5
5
5
5
5
5
5
5
5
5
5
5
5
5
5
5
5
5
5
5
5
5
5
5
5
5
5
5
5
5
5
5
5
5
5
5
5
5
5
5
5
5
5
5
5
5
5
5
5
5
5
5
5
5
5
5
5
5
5
5
5
5
5
5
5
5
5
5
5
5
5
5
5
5
5
5
5
5
5
5
5
5
5
5
5
5
5
5
5
5
5
5
5
5
5
5
5
5
5
5
5
5
5
5
5
5
5
5
5
5
5
5
5
5
5
5
5
5
5
5
5
5
5
5
5
5
5
5
5
5
5
5
5
5
5
5
5
5
5
5
5
5
5
5
5
5
5
5
5
5
5
5
5
5
5
5
5
5
5
5
5
5
5
5
5
5
5
5
5
5
5
5
5
5
5
5
5
5
5
5
5
5
5
5
5
5
5
5
5
5
5
5
5
5
5
5
5
5
5
5
5
5
5
5
5
5
5
5
5
5
5
5
5
5
5
5
5
5
5
5
5
5
5
5
5
5
5
5
5
5
5
5
5
5
5
5
5
5
5
5
5
5
5
5
5
5
5
5
5
5
5
5
5
5
5
5
5
5
5
5
5
5
5
5
5
5
5
5
5
5
5
5
5
5
5
5
5
5
5
5
5
5
5
5
5
5
5
5
5
5
5
5
5
5
5
5
5
5
5
5
5
5
5
5
5
5
5
5
5
5
5
5
5
5
5
5
5
5
5
5
5
5
5
5
5
5
5
5
5
5
5
5
5
5
5
5
5
5
5
5
5
5
5
5
5
5
5
5
5
5
5
5
5
5
5
5
5
5
5
5
5
5
5
5
5
5
5
5
5
5
5
5
5
5
5
5
5
5
5
5
5
5
5
5
5
5
5
5
5
5
5
5
5
5
5
5
5
5
5
5
5
5
5
5
5
5
5
5
5
5
5
5
5
5
5
5
5
5
5
5
5
5
5
5
5
5
5
5
5
5
5
5
5
5
5
5
5
5
5
5
5
5
5
5
5
5
5
5
5
5
5
5
5
5
5
5
5
5
5
5
5
5
5
5
5
5
5
5
5
5
5
5
5
5
5
5
5
5
5
5
5
5
5
5
5
5
5
5
5
5
5
5
5
5
5
5
5
5
5
5
5
5
5
5
5
5
5
5
5
5
5
5
5
5
5
5
5
5
5
5
5
5
5
5
5
5
5
5
5
5
5
5
5
5
5
5
5
5
5
5
5
5
5
5
5
5
5
5
5
5
5
5
5
5
5
5
5
5
5
5
5
5
5
5
5
5
5
5
5
5
5
5
5
5
5
5
5
5
5
5
5
5
5
5
5
5
5
5
5
5
5
5
5
5
5
5
5
5
5
5
5
5
5
5
5
5
5
5
5
5
5
5
5
5
5
5
5
5
5
5
5
5
5
5
5
5
5
5
5
5
5
5
5
5
5
5
5
5
5
5
5
5
5
5
5
5
5
5
5
5
5
5
5
5
5
5
5
5
5
5
5
5
5
5
5
5
5
5
5
5
5
5
5
5
5
5
5
5
5
5
5
5
5
5
5
5
5
5
5
5
5
5
5
5
5
5
5
5
5
5
5
5
5
5
5
5
5
5
5
5
5
5
5
5
5
5
5
5
5
5
5
5
5
5
5
5
5
5
5
5
5
5
5
5
5
5
5
5
5
5
5
5
5
5
5
5
5
5
5
5
5
5
5
5
5
5
5
5
5
5
5
5
5
5
5
5
5
5
5
5
5
5
5
5
5
5
5
5
5
5
5
5
5
5
5
5
5
5
5
5
5
5
5
5
5
5
5
5
5
5
5
5
5
5
5
5
5
5
5
5
5
5
5
5
5
5
5
5
5
5
5
5
5
5
5
5
5
5
5
5
5
5
5
5
5
5
5
5
5
5
5
5
5
5
5
5
5
5
5
5
5
5
5
5
5
5
5
5
5
5
5
5
5
5
5
5
5
5
5
5
5
5
5
5
5
5
5
5
5
5
5
5
5
5
5
5
5
5
5
5
5
5
5
5
5
5
5
5
5
5
5
5
5
5
5
5
5
5
5
5
5
5
5
5
5
5
5
5
5
5
5
5
5
5
5
5
5
5
5
5
5
5
5
5
5
5
5
5
5
5
5
5
5
5
5
5
5
5
5
5
5
5
5
5
5
5
5
5
5
5
5
5
5
5
5
5
5
5
5
5
5
5
5
5
5
5
5
5
5
5
5
5
5
5
5
5
5
5
5
5
5
5
5
5
5
5
5
5
5
5
5
5
5
5
5
5
5
5
5

POINT_DATA 1220

VECTORS coord float
0.0 0.0 0.0 
5.000000000000e+01 -1.000000000000e+01 0.0 
0.0 -2.000000000000e+01 0.0 
5.000000000000e+01 -2.000000000000e+01 0.0 
0.0 -9.999999999991e-01 0.0 
0.0 -1.999999999998e+00 0.0 
0.0 -2.999999999997e+00 0.0 
0.0 -3.999999999994e+00 0.0 
0.0 -4.999999999991e+00 0.0 
0.0 -5.999999999988e+00 0.0 
0.0 -6.999999999985e+00 0.0 
0.0 -7.999999999982e+00 0.0 
0.0 -8.999999999983e+00 0.0 
0.0 -9.999999999985e+00 0.0 
0.0 -1.099999999999e+01 0.0 
0.0 -1.199999999999e+01 0.0 
0.0 -1.299999999999e+01 0.0 
0.0 -1.399999999999e+01 0.0 
0.0 -1.499999999999e+01 0.0 
0.0 -1.599999999999e+01 0.0 
0.0 -1.700000000000e+01 0.0 
0.0 -1.800000000000e+01 0.0 
0.0 -1.900000000000e+01 0.0 
4.900000000001e+01 -2.000000000000e+01 0.0 
4.800000000001e+01 -2.000000000000e+01 0.0 
4.700000000002e+01 -2.000000000000e+01 0.0 
4.600000000003e+01 -2.000000000000e+01 0.0 
4.500000000004e+01 -2.000000000000e+01 0.0 
4.400000000004e+01 -2.000000000000e+01 0.0 
4.300000000005e+01 -2.000000000000e+01 0.0 
4.200000000006e+01 -2.000000000000e+01 0.0 
4.100000000006e+01 -2.000000000000e+01 0.0 
4.000000000007e+01 -2.000000000000e+01 0.0 
3.900000000008e+01 -2.000000000000e+01 0.0 
3.800000000009e+01 -2.000000000000e+01 0.0 
3.700000000009e+01 -2.000000000000e+01 0.0 
3.600000000010e+01 -2.000000000000e+01 0.0 
3.500000000011e+01 -2.000000000000e+01 0.0 
3.400000000011e+01 -2.000000000000e+01 0.0 
3.300000000012e+01 -2.000000000000e+01 0.0 
3.200000000013e+01 -2.000000000000e+01 0.0 
3.100000000013e+01 -2.000000000000e+01 0.0 
3.000000000013e+01 -2.000000000000e+01 0.0 
2.900000000013e+01 -2.000000000000e+01 0.0 
2.800000000013e+01 -2.000000000000e+01 0.0 
2.700000000013e+01 -2.000000000000e+01 0.0 
2.600000000013e+01 -2.000000000000e+01 0.0 
2.500000000013e+01 -2.000000000000e+01 0.0 
2.400000000013e+01 -2.000000000000e+01 0.0 
2.300000000013e+01 -2.000000000000e+01 0.0 
2.200000000013e+01 -2.000000000000e+01 0.0 
2.100000000013e+01 -2.000000000000e+01 0.0 
2.000000000013e+01 -2.000000000000e+01 0.0 
1.900000000013e+01 -2.000000000000e+01 0.0 
1.800000000013e+01 -2.000000000000e+01 0.0 
1.700000000012e+01 -2.000000000000e+01 0.0 
1.600000000011e+01 -2.000000000000e+01 0.0 
1.500000000011e+01 -2.000000000000e+01 0.0 
1.400000000010e+01 -2.000000000000e+01 0.0 
1.300000000009e+01 -2.000000000000e+01 0.0 
1.200000000009e+01 -2.000000000000e+01 0.0 
1.100000000008e+01 -2.000000000000e+01 0.0 
1.000000000007e+01 -2.000000000000e+01 0.0 
9.000000000064e+00 -2.000000000000e+01 0.0 
8.000000000057e+00 -2.000000000000e+01 0.0 
7.000000000050e+00 -2.000000000000e+01 0.0 
6.000000000043e+00 -2.000000000000e+01 0.0 
5.000000000036e+00 -2.000000000000e+01 0.0 
4.000000000028e+00 -2.000000000000e+01 0.0 
3.000000000021e+00 -2.000000000000e+01 0.0 
2.000000000014e+00 -2.000000000000e+01 0.0 
1.000000000007e+00 -2.000000000000e+01 0.0 
5.000000000000e+01 -1.100000000000e+01 0.0 
5.000000000000e+01 -1.200000000000e+01 0.0 
5.000000000000e+01 -1.300000000000e+01 0.0 
5.000000000000e+01 -1.400000000000e+01 0.0 
5.000000000000e+01 -1.500000000000e+01 0.0 
5.000000000000e+01 -1.600000000000e+01 0.0 
5.000000000000e+01 -1.700000000000e+01 0.0 
5.000000000000e+01 -1.800000000000e+01 0.0 
5.000000000000e+01 -1.900000000000e+01 0.0 
2.000000000000e+01 0.0 0.0 
3.500000000000e+01 -1.000000000000e+01 0.0 
2.150000000000e+01 -1.000000000000e+00 0.0 
2.300000000000e+01 -2.000000000000e+00 0.0 
2.450000000000e+01 -3.000000000000e+00 0.0 
2.600000000000e+01 -4.000000000000e+00 0.0 
2.750000000000e+01 -5.000000000000e+00 0.0 
2.900000000000e+01 -6.000000000000e+00 0.0 
3.050000000000e+01 -7.000000000000e+00 0.0 
3.200000000000e+01 -8.000000000000e+00 0.0 
3.350000000000e+01 -9.000000000000e+00 0.0 
5.000000000000e+01 -2.000000000000e+00 0.0 
5.000000000000e+01 -3.000000000000e+00 0.0 
5.000000000000e+01 -4.000000000000e+00 0.0 
5.000000000000e+01 -5.000000000000e+00 0.0 
5.000000000000e+01 -6.000000000000e+00 0.0 
5.000000000000e+01 -7.000000000000e+00 0.0 
5.000000000000e+01 -8.000000000000e+00 0.0 
5.000000000000e+01 -9.000000000000e+00 0.0 
4.900000000000e+01 -1.000000000000e+01 0.0 
4.800000000000e+01 -1.000000000000e+01 0.0 
4.700000000000e+01 -1.000000000000e+01 0.0 
4.600000000000e+01 -1.000000000000e+01 0.0 
4.500000000000e+01 -1.000000000000e+01 0.0 
4.400000000000e+01 -1.000000000000e+01 0.0 
4.300000000000e+01 -1.000000000000e+01 0.0 
4.200000000000e+01 -1.000000000000e+01 0.0 
4.100000000000e+01 -1.000000000000e+01 0.0 
4.000000000000e+01 -1.000000000000e+01 0.0 
3.900000000000e+01 -1.000000000000e+01 0.0 
3.800000000000e+01 -1.000000000000e+01 0.0 
3.700000000000e+01 -1.000000000000e+01 0.0 
3.600000000000e+01 -1.000000000000e+01 0.0 
1.900000000000e+01 0.0 0.0 
1.800000000000e+01 0.0 0.0 
1.700000000000e+01 0.0 0.0 
1.600000000000e+01 0.0 0.0 
1.500000000000e+01 0.0 0.0 
1.400000000000e+01 0.0 0.0 
1.300000000000e+01 0.0 0.0 
1.200000000000e+01 0.0 0.0 
1.100000000000e+01 0.0 0.0 
1.000000000000e+01 0.0 0.0 
9.000000000000e+00 0.0 0.0 
8.000000000000e+00 0.0 0.0 
7.000000000000e+00 0.0 0.0 
6.000000000000e+00 0.0 0.0 
5.000000000000e+00 0.0 0.0 
4.000000000000e+00 0.0 0.0 
3.000000000000e+00 0.0 0.0 
2.000000000000e+00 0.0 0.0 
1.000000000000e+00 0.0 0.0 
2.400000000000e+01 -2.000000000000e+00 0.0 
2.500000000000e+01 -2.000000000000e+00 0.0 
2.600000000000e+01 -2.000000000000e+00 0.0 
2.700000000000e+01 -2.000000000000e+00 0.0 
2.800000000000e+01 -2.000000000000e+00 0.0 
2.900000000000e+01 -2.000000000000e+00 0.0 
3.000000000000e+01 -2.000000000000e+00 0.0 
3.100000000000e+01 -2.000000000000e+00 0.0 
3.200000000000e+01 -2.000000000000e+00 0.0 
3.300000000000e+01 -2.000000000000e+00 0.0 
3.400000000000e+01 -2.000000000000e+00 0.0 
3.500000000000e+01 -2.000000000000e+00 0.0 
3.600000000000e+01 -2.000000000000e+00 0.0 
3.700000000000e+01 -2.000000000000e+00 0.0 
3.800000000000e+01 -2.000000000000e+00 0.0 
3.900000000000e+01 -2.000000000000e+00 0.0 
4.000000000000e+01 -2.000000000000e+00 0.0 
4.100000000000e+01 -2.000000000000e+00 0.0 
4.200000000000e+01 -2.000000000000e+00 0.0 
4.300000000000e+01 -2.000000000000e+00 0.0 
4.400000000000e+01 -2.000000000000e+00 0.0 
4.500000000000e+01 -2.000000000000e+00 0.0 
4.600000000000e+01 -2.000000000000e+00 0.0 
4.700000000000e+01 -2.000000000000e+00 0.0 
4.800000000000e+01 -2.000000000000e+00 0.0 
4.900000000000e+01 -2.000000000000e+00 0.0 
2.548076923077e+01 -3.000000000000e+00 0.0 
2.646153846153e+01 -3.000000000000e+00 0.0 
2.744230769230e+01 -3.000000000000e+00 0.0 
2.842307692306e+01 -3.000000000000e+00 0.0 
2.940384615383e+01 -3.000000000000e+00 0.0 
3.038461538459e+01 -3.000000000000e+00 0.0 
3.136538461536e+01 -3.000000000000e+00 0.0 
3.234615384612e+01 -3.000000000000e+00 0.0 
3.332692307687e+01 -3.000000000000e+00 0.0 
3.430769230762e+01 -3.000000000000e+00 0.0 
3.528846153837e+01 -3.000000000000e+00 0.0 
3.626923076912e+01 -3.000000000000e+00 0.0 
3.724999999988e+01 -3.000000000000e+00 0.0 
3.823076923065e+01 -3.000000000000e+00 0.0 
3.921153846143e+01 -3.000000000000e+00 0.0 
4.019230769221e+01 -3.000000000000e+00 0.0 
4.117307692299e+01 -3.000000000000e+00 0.0 
4.215384615377e+01 -3.000000000000e+00 0.0 
4.313461538455e+01 -3.000000000000e+00 0.0 
4.411538461533e+01 -3.000000000000e+00 0.0 
4.509615384611e+01 -3.000000000000e+00 0.0 
4.607692307688e+01 -3.000000000000e+00 0.0 
4.705769230766e+01 -3.000000000000e+00 0.0 
4.803846153844e+01 -3.000000000000e+00 0.0 
4.901923076922e+01 -3.000000000000e+00 0.0 
4.900000000000e+01 -4.000000000000e+00 0.0 
4.800000000000e+01 -4.000000000000e+00 0.0 
4.700000000000e+01 -4.000000000000e+00 0.0 
4.600000000000e+01 -4.000000000000e+00 0.0 
4.500000000000e+01 -4.000000000000e+00 0.0 
4.400000000000e+01 -4.000000000000e+00 0.0 
4.300000000000e+01 -4.000000000000e+00 0.0 
4.200000000000e+01 -4.000000000000e+00 0.0 
4.100000000000e+01 -4.000000000000e+00 0.0 
4.000000000000e+01 -4.000000000000e+00 0.0 
3.900000000000e+01 -4.000000000000e+00 0.0 
3.800000000000e+01 -4.000000000000e+00 0.0 
3.700000000000e+01 -4.000000000000e+00 0.0 
3.600000000000e+01 -4.000000000000e+00 0.0 
3.500000000000e+01 -4.000000000000e+00 0.0 
3.400000000000e+01 -4.000000000000e+00 0.0 
3.300000000000e+01 -4.000000000000e+00 0.0 
3.200000000000e+01 -4.000000000000e+00 0.0 
3.100000000000e+01 -4.000000000000e+00 0.0 
3.000000000000e+01 -4.000000000000e+00 0.0 
2.900000000000e+01 -4.000000000000e+00 0.0 
2.800000000000e+01 -4.000000000000e+00 0.0 
2.700000000000e+01 -4.000000000000e+00 0.0 
2.847826086957e+01 -5.000000000000e+00 0.0 
2.945652173913e+01 -5.000000000000e+00 0.0 
3.043478260870e+01 -5.000000000000e+00 0.0 
3.141304347826e+01 -5.000000000000e+00 0.0 
3.239130434783e+01 -5.000000000000e+00 0.0 
3.336956521739e+01 -5.000000000000e+00 0.0 
3.434782608696e+01 -5.000000000000e+00 0.0 
3.532608695652e+01 -5.000000000000e+00 0.0 
3.630434782609e+01 -5.000000000000e+00 0.0 
3.728260869565e+01 -5.000000000000e+00 0.0 
3.826086956522e+01 -5.000000000000e+00 0.0 
3.923913043478e+01 -5.000000000000e+00 0.0 
4.021739130435e+01 -5.000000000000e+00 0.0 
4.119565217391e+01 -5.000000000000e+00 0.0 
4.217391304348e+01 -5.000000000000e+00 0.0 
4.315217391304e+01 -5.000000000000e+00 0.0 
4.413043478261e+01 -5.000000000000e+00 0.0 
4.510869565217e+01 -5.000000000000e+00 0.0 
4.608695652174e+01 -5.000000000000e+00 0.0 
4.706521739130e+01 -5.000000000000e+00 0.0 
4.804347826087e+01 -5.000000000000e+00 0.0 
4.902173913043e+01 -5.000000000000e+00 0.0 
4.900000000001e+01 -6.000000000000e+00 0.0 
4.800000000003e+01 -6.000000000000e+00 0.0 
4.700000000004e+01 -6.000000000000e+00 0.0 
4.600000000006e+01 -6.000000000000e+00 0.0 
4.500000000007e+01 -6.000000000000e+00 0.0 
4.400000000009e+01 -6.000000000000e+00 0.0 
4.300000000010e+01 -6.000000000000e+00 0.0 
4.200000000012e+01 -6.000000000000e+00 0.0 
4.100000000013e+01 -6.000000000000e+00 0.0 
4.000000000014e+01 -6.000000000000e+00 0.0 
3.900000000014e+01 -6.000000000000e+00 0.0 
3.800000000012e+01 -6.000000000000e+00 0.0 
3.700000000010e+01 -6.000000000000e+00 0.0 
3.600000000008e+01 -6.000000000000e+00 0.0 
3.500000000006e+01 -6.000000000000e+00 0.0 
3.400000000005e+01 -6.000000000000e+00 0.0 
3.300000000003e+01 -6.000000000000e+00 0.0 
3.200000000001e+01 -6.000000000000e+00 0.0 
3.100000000000e+01 -6.000000000000e+00 0.0 
3.000000000000e+01 -6.000000000000e+00 0.0 
3.147499999998e+01 -7.000000000000e+00 0.0 
3.244999999998e+01 -7.000000000000e+00 0.0 
3.342499999998e+01 -7.000000000000e+00 0.0 
3.439999999998e+01 -7.000000000000e+00 0.0 
3.537499999998e+01 -7.000000000000e+00 0.0 
3.634999999998e+01 -7.000000000000e+00 0.0 
3.732499999998e+01 -7.000000000000e+00 0.0 
3.829999999998e+01 -7.000000000000e+00 0.0 
3.927499999999e+01 -7.000000000000e+00 0.0 
4.024999999999e+01 -7.000000000000e+00 0.0 
4.122499999999e+01 -7.000000000000e+00 0.0 
4.219999999999e+01 -7.000000000000e+00 0.0 
4.317499999999e+01 -7.000000000000e+00 0.0 
4.414999999999e+01 -7.000000000000e+00 0.0 
4.512499999999e+01 -7.000000000000e+00 0.0 
4.609999999999e+01 -7.000000000000e+00 0.0 
4.707500000000e+01 -7.000000000000e+00 0.0 
4.805000000000e+01 -7.000000000000e+00 0.0 
4.902500000000e+01 -7.000000000000e+00 0.0 
4.900000000000e+01 -8.000000000000e+00 0.0 
4.800000000000e+01 -8.000000000000e+00 0.0 
4.700000000000e+01 -8.000000000000e+00 0.0 
4.600000000000e+01 -8.000000000000e+00 0.0 
4.500000000000e+01 -8.000000000000e+00 0.0 
4.400000000000e+01 -8.000000000000e+00 0.0 
4.300000000000e+01 -8.000000000000e+00 0.0 
4.200000000000e+01 -8.000000000000e+00 0.0 
4.100000000000e+01 -8.000000000000e+00 0.0 
4.000000000000e+01 -8.000000000000e+00 0.0 
3.900000000000e+01 -8.000000000000e+00 0.0 
3.800000000000e+01 -8.000000000000e+00 0.0 
3.700000000000e+01 -8.000000000000e+00 0.0 
3.600000000000e+01 -8.000000000000e+00 0.0 
3.500000000000e+01 -8.000000000000e+00 0.0 
3.400000000000e+01 -8.000000000000e+00 0.0 
3.300000000000e+01 -8.000000000000e+00 0.0 
3.447058823527e+01 -9.000000000000e+00 0.0 
3.544117647055e+01 -9.000000000000e+00 0.0 
3.641176470582e+01 -9.000000000000e+00 0.0 
3.738235294109e+01 -9.000000000000e+00 0.0 
3.835294117637e+01 -9.000000000000e+00 0.0 
3.932352941164e+01 -9.000000000000e+00 0.0 
4.029411764691e+01 -9.000000000000e+00 0.0 
4.126470588219e+01 -9.000000000000e+00 0.0 
4.223529411748e+01 -9.000000000000e+00 0.0 
4.320588235279e+01 -9.000000000000e+00 0.0 
4.417647058811e+01 -9.000000000000e+00 0.0 
4.514705882342e+01 -9.000000000000e+00 0.0 
4.611764705874e+01 -9.000000000000e+00 0.0 
4.708823529405e+01 -9.000000000000e+00 0.0 
4.805882352937e+01 -9.000000000000e+00 0.0 
4.902941176468e+01 -9.000000000000e+00 0.0 
2.075000000000e+01 -5.000000000006e-01 0.0 
2.225000000000e+01 -1.500000000000e+00 0.0 
2.375000000000e+01 -2.500000000000e+00 0.0 
2.525000000000e+01 -3.500000000000e+00 0.0 
2.675000000000e+01 -4.500000000000e+00 0.0 
2.825000000000e+01 -5.500000000000e+00 0.0 
2.975000000000e+01 -6.500000000000e+00 0.0 
3.125000000000e+01 -7.500000000000e+00 0.0 
3.275000000000e+01 -8.500000000000e+00 0.0 
3.425000000000e+01 -9.500000000000e+00 0.0 
2.226951693683e+01 -2.403913980114e+00 0.0 
1.650149491944e+01 -1.913490915758e+01 0.0 
1.050042386896e+01 -8.504605092970e-01 0.0 
1.553146524712e+01 -8.281255032105e-01 0.0 
1.150000000008e+01 -1.913397459621e+01 0.0 
2.530060260647e+01 -4.428336431260e+00 0.0 
8.651114563942e-01 -1.052096295641e+01 0.0 
2.050000000013e+01 -1.913397459622e+01 0.0 
2.819198729811e+01 -6.399519052838e+00 0.0 
2.445670302931e+01 -1.915649188023e+01 0.0 
3.117591465718e+01 -8.394293040695e+00 0.0 
7.465053044742e+00 -1.920411160581e+01 0.0 
6.398295709691e+00 -8.230098819370e-01 0.0 
2.849659607461e+01 -1.914296187762e+01 0.0 
3.418732642882e+01 -1.040265792588e+01 0.0 
8.386450935063e-01 -6.533605142809e+00 0.0 
9.178661865596e-01 -1.329769195597e+01 0.0 
3.149448624493e+01 -1.910466733764e+01 0.0 
3.552916747426e+01 -1.914628590759e+01 0.0 
4.449210346537e+01 -1.914359085008e+01 0.0 
4.140975975145e+01 -1.906941860733e+01 0.0 
3.847475958753e+01 -1.916622382724e+01 0.0 
3.653774794640e+01 -1.088712800241e+01 0.0 
4.047886341787e+01 -1.090139014048e+01 0.0 
4.348006339825e+01 -1.092792621489e+01 0.0 
4.919519968029e+01 -1.451526755068e+01 0.0 
4.500000000032e+00 -1.913397459621e+01 0.0 
1.856136921614e+01 -8.212235170404e-01 0.0 
3.499895312306e+00 -8.661165539723e-01 0.0 
9.076088696565e-01 -1.642306201891e+01 0.0 
4.655174095477e+01 -1.086183387525e+01 0.0 
9.430688970604e-01 -3.496112672958e+00 0.0 
3.353992337063e+01 -1.901202090820e+01 0.0 
2.249746016977e+01 -1.921262287282e+01 0.0 
2.650122741777e+01 -1.916123026018e+01 0.0 
1.863571384842e+01 -1.908325534840e+01 0.0 
1.450089971693e+01 -1.917691901860e+01 0.0 
1.350044695317e+01 -8.659695299584e-01 0.0 
3.849987469880e+01 -1.084154983397e+01 0.0 
9.454419857884e+00 -1.900818879936e+01 0.0 
4.917398660523e+01 -1.645692866081e+01 0.0 
8.500000000000e+00 -8.660254037844e-01 0.0 
8.660319230785e-01 -8.500111697188e+00 0.0 
4.649022621545e+01 -1.930506220113e+01 0.0 
2.667688107845e+01 -5.420288124331e+00 0.0 
2.379251615665e+01 -3.412225477429e+00 0.0 
2.966631491830e+01 -7.389030232731e+00 0.0 
3.267915035995e+01 -9.396934932445e+00 0.0 
2.074836922338e+01 -1.320054020319e+00 0.0 
4.915985743621e+01 -1.261973384855e+01 0.0 
2.527129768623e+00 -1.931592414663e+01 0.0 
1.538676247410e+00 -8.436956619311e-01 0.0 
4.908096641539e+01 -1.842484004551e+01 0.0 
3.478612492673e+01 -1.090889364140e+01 0.0 
3.409757055860e+01 -1.131991530427e+01 0.0 
3.501895309466e+01 -1.177687842717e+01 0.0 
3.407758073088e+01 -1.224293381580e+01 0.0 
3.484541875390e+01 -1.277051428430e+01 0.0 
3.400322025842e+01 -1.319022775640e+01 0.0 
3.321672625034e+01 -1.266779191233e+01 0.0 
3.315244139236e+01 -1.360984106532e+01 0.0 
3.236335186892e+01 -1.308463225210e+01 0.0 
3.478337442841e+01 -1.372341158982e+01 0.0 
3.230105923633e+01 -1.403023731610e+01 0.0 
3.150954055289e+01 -1.350301767700e+01 0.0 
3.144604792090e+01 -1.444931742516e+01 0.0 
3.065653897123e+01 -1.392357262981e+01 0.0 
3.071897610812e+01 -1.297447031198e+01 0.0 
2.986790411740e+01 -1.339226181535e+01 0.0 
2.993181466745e+01 -1.244703272398e+01 0.0 
2.908023061869e+01 -1.286254537734e+01 0.0 
2.901619051372e+01 -1.380881655279e+01 0.0 
2.822986160390e+01 -1.327695262116e+01 0.0 
2.829453476870e+01 -1.233265343811e+01 0.0 
2.744542905518e+01 -1.274510491105e+01 0.0 
2.751120089246e+01 -1.180368086886e+01 0.0 
2.666218649885e+01 -1.221619339205e+01 0.0 
2.672371209234e+01 -1.127125228527e+01 0.0 
2.587763216302e+01 -1.168539979114e+01 0.0 
2.581165585299e+01 -1.262994410089e+01 0.0 
2.502890882577e+01 -1.209827323619e+01 0.0 
2.509631327757e+01 -1.115492410304e+01 0.0 
2.424662989877e+01 -1.156630981079e+01 0.0 
2.431704046904e+01 -1.062389179334e+01 0.0 
2.346445438728e+01 -1.103427680694e+01 0.0 
2.339382552877e+01 -1.197964871788e+01 0.0 
2.260936050780e+01 -1.144513277642e+01 0.0 
2.268075012022e+01 -1.049911928216e+01 0.0 
2.182525737661e+01 -1.090920811464e+01 0.0 
2.189682319817e+01 -9.961716944568e+00 0.0 
2.104174127792e+01 -1.037266986667e+01 0.0 
2.111304367575e+01 -9.424179358711e+00 0.0 
2.025306185381e+01 -9.832727364719e+00 0.0 
2.018141124247e+01 -1.079140628871e+01 0.0 
1.938594498257e+01 -1.025147354112e+01 0.0 
1.946106490453e+01 -9.288010758448e+00 0.0 
1.858929958352e+01 -9.706319802516e+00 0.0 
1.851540991219e+01 -1.067205988724e+01 0.0 
1.771485303178e+01 -1.012504443115e+01 0.0 
1.764134552256e+01 -1.109360378538e+01 0.0 
1.683745148095e+01 -1.054496365337e+01 0.0 
1.691852964353e+01 -9.582555261178e+00 0.0 
1.603603813062e+01 -1.000160132379e+01 0.0 
1.595824239350e+01 -1.096750698862e+01 0.0 
1.515080624291e+01 -1.041639501931e+01 0.0 
1.523171602559e+01 -9.451711491453e+00 0.0 
1.434621060709e+01 -9.871956467464e+00 0.0 
1.426777178765e+01 -1.083749501371e+01 0.0 
1.345775282374e+01 -1.028803175500e+01 0.0 
1.354103873368e+01 -9.324918457162e+00 0.0 
1.265072018622e+01 -9.742612837270e+00 0.0 
1.257285762070e+01 -1.071557782384e+01 0.0 
1.175874815690e+01 -1.015972324288e+01 0.0 
1.184203019714e+01 -9.193604071377e+00 0.0 
1.094927709905e+01 -9.612103238656e+00 0.0 
1.086938022910e+01 -1.058685085646e+01 0.0 
1.005424098961e+01 -1.002939116380e+01 0.0 
9.977974613295e+00 -1.101324897989e+01 0.0 
1.012915646404e+01 -9.051815821181e+00 0.0 
9.237127782494e+00 -9.471239055559e+00 0.0 
9.308426593771e+00 -8.483376461131e+00 0.0 
8.418806073345e+00 -8.910712374517e+00 0.0 
2.253688464062e+01 -1.239459402279e+01 0.0 
8.495126726666e+00 -7.921646665254e+00 0.0 
9.389727383206e+00 -7.512103628377e+00 0.0 
7.601560812974e+00 -8.349460349344e+00 0.0 
7.525680547759e+00 -9.339736686940e+00 0.0 
7.677888324502e+00 -7.359727833346e+00 0.0 
6.782001206724e+00 -7.788454494773e+00 0.0 
6.858778622885e+00 -6.797338062822e+00 0.0 
2.196596590865e+01 -8.979025665442e+00 0.0 
2.816540108272e+01 -1.422634142353e+01 0.0 
5.961601194403e+00 -7.226824010712e+00 0.0 
6.038171749656e+00 -6.234825887079e+00 0.0 
6.936257279557e+00 -5.805287640737e+00 0.0 
6.115068918323e+00 -5.242109758768e+00 0.0 
3.564391741903e+01 -1.329240553876e+01 0.0 
3.558115605778e+01 -1.425902892003e+01 0.0 
3.645445282201e+01 -1.381970786460e+01 0.0 
3.639744204358e+01 -1.479198128612e+01 0.0 
3.727266909778e+01 -1.435399586226e+01 0.0 
5.216667013081e+00 -5.671788584287e+00 0.0 
3.220697293295e+01 -1.499594545107e+01 0.0 
3.551112158269e+01 -1.523479869250e+01 0.0 
2.836056961467e+01 -1.139032434851e+01 0.0 
2.516730388602e+01 -1.021382726837e+01 0.0 
1.844436907403e+01 -1.164097215196e+01 0.0 
5.885434318740e+00 -8.218694781467e+00 0.0 
5.064071066867e+00 -7.656614643901e+00 0.0 
4.988089103470e+00 -8.649722082718e+00 0.0 
1.079421050408e+01 -1.157014985435e+01 0.0 
9.902420005256e+00 -1.199903342656e+01 0.0 
1.071994252214e+01 -1.255727909771e+01 0.0 
9.826974788171e+00 -1.298659581767e+01 0.0 
1.064607883789e+01 -1.354595476388e+01 0.0 
9.751541265343e+00 -1.397556905071e+01 0.0 
8.932296185869e+00 -1.341553353988e+01 0.0 
8.856399248106e+00 -1.440570715508e+01 0.0 
8.036186803543e+00 -1.384470558472e+01 0.0 
1.057112875118e+01 -1.453516759081e+01 0.0 
1.146582585687e+01 -1.410539926903e+01 0.0 
7.959894480382e+00 -1.483563350928e+01 0.0 
7.138792279156e+00 -1.427465094140e+01 0.0 
7.062506792418e+00 -1.526615385482e+01 0.0 
6.240693558277e+00 -1.470508863040e+01 0.0 
6.316957575451e+00 -1.371212581281e+01 0.0 
5.418183007107e+00 -1.414253605022e+01 0.0 
5.494748364428e+00 -1.314886770603e+01 0.0 
1.756825565873e+01 -1.206433872514e+01 0.0 
1.837565773345e+01 -1.261356468266e+01 0.0 
1.749574831391e+01 -1.303769280014e+01 0.0 
1.830539187332e+01 -1.358828364284e+01 0.0 
1.742278925170e+01 -1.401367746928e+01 0.0 
1.823303007798e+01 -1.456432294258e+01 0.0 
1.734941694138e+01 -1.499213734361e+01 0.0 
1.653760041637e+01 -1.443920312098e+01 0.0 
3.056237977307e+01 -1.487132260174e+01 0.0 
1.866469084762e+01 -8.742953000418e+00 0.0 
1.953669694916e+01 -8.326038909849e+00 0.0 
1.874194303780e+01 -7.780688158966e+00 0.0 
1.961032016741e+01 -7.366854697285e+00 0.0 
1.881715755159e+01 -6.821102209649e+00 0.0 
1.968369797150e+01 -6.407747217358e+00 0.0 
1.889237123259e+01 -5.858375520026e+00 0.0 
1.802038875366e+01 -6.276202618170e+00 0.0 
1.809793837984e+01 -5.307629520489e+00 0.0 
1.721985207997e+01 -5.728242054488e+00 0.0 
1.729850893523e+01 -4.756990819347e+00 0.0 
1.641745664240e+01 -5.174636548624e+00 0.0 
2.495978509456e+01 -1.304406404294e+01 0.0 
1.911567814831e+01 -1.413854250293e+01 0.0 
1.904387332608e+01 -1.511463127723e+01 0.0 
1.992115934240e+01 -1.468788025898e+01 0.0 
7.013706899628e+00 -4.812582868662e+00 0.0 
5.342091874585e+00 -1.513658157269e+01 0.0 
1.139098043784e+01 -1.509488509480e+01 0.0 
1.228151810610e+01 -1.465617481983e+01 0.0 
1.646373110164e+01 -1.541993323337e+01 0.0 
5.293328636712e+00 -4.678385108584e+00 0.0 
1.975965862987e+01 -5.448124345648e+00 0.0 
2.054318374236e+01 -5.992561293251e+00 0.0 
3.721453439063e+01 -1.533216152738e+01 0.0 
3.809302733893e+01 -1.489235527381e+01 0.0 
1.220852788900e+01 -1.565304565230e+01 0.0 
4.394120899730e+00 -5.108397613210e+00 0.0 
8.779354620288e+00 -1.539524721159e+01 0.0 
1.817791047702e+01 -4.338570146253e+00 0.0 
4.518860013839e+00 -1.457343189307e+01 0.0 
4.442712140414e+00 -1.556841391069e+01 0.0 
8.115343466391e+00 -1.285760324283e+01 0.0 
1.985334703171e+01 -1.566478400426e+01 0.0 
2.071953850276e+01 -1.522074243119e+01 0.0 
1.634012953883e+01 -6.154777738301e+00 0.0 
1.553479994708e+01 -5.593730508879e+00 0.0 
1.561265946942e+01 -4.617761762647e+00 0.0 
1.470674212978e+01 -5.064576488228e+00 0.0 
1.464498299883e+01 -6.026514471420e+00 0.0 
1.383271561817e+01 -5.467796261169e+00 0.0 
1.389241253067e+01 -4.504338666645e+00 0.0 
1.301868735463e+01 -4.907185188626e+00 0.0 
1.294514184846e+01 -5.888160903592e+00 0.0 
1.212955968622e+01 -5.328262335277e+00 0.0 
1.220721122383e+01 -4.341264976687e+00 0.0 
1.131324345897e+01 -4.766773516508e+00 0.0 
5.266597955397e+00 -1.613148974258e+01 0.0 
1.737805990867e+01 -3.786677807525e+00 0.0 
3.078438094513e+01 -1.203225297748e+01 0.0 
1.131569882285e+01 -1.608511932110e+01 0.0 
1.728478341782e+01 -1.596017432313e+01 0.0 
3.803465906019e+01 -1.587509751228e+01 0.0 
3.891681276677e+01 -1.543395196905e+01 0.0 
3.897340985302e+01 -1.444710288980e+01 0.0 
3.980095968193e+01 -1.499059496613e+01 0.0 
3.974334598189e+01 -1.597921884150e+01 0.0 
4.062964983717e+01 -1.553518690417e+01 0.0 
4.068729602479e+01 -1.454434445295e+01 0.0 
4.151772679790e+01 -1.508974196007e+01 0.0 
4.157505195739e+01 -1.409694289912e+01 0.0 
4.240699932656e+01 -1.464347955968e+01 0.0 
4.234898051011e+01 -1.563721375790e+01 0.0 
4.323934606035e+01 -1.519082036405e+01 0.0 
4.329740528208e+01 -1.419587509788e+01 0.0 
4.413056841369e+01 -1.474359631875e+01 0.0 
4.418850110108e+01 -1.374786684042e+01 0.0 
4.502219770667e+01 -1.429605103525e+01 0.0 
4.496411937907e+01 -1.529215882720e+01 0.0 
4.490027319897e+00 -4.154167794594e+00 0.0 
1.565080385988e+01 -1.486411982419e+01 0.0 
1.557610691279e+01 -1.584855627870e+01 0.0 
4.195350646612e+00 -8.089117689096e+00 0.0 
4.124027797830e+00 -9.082831955007e+00 0.0 
4.917944318925e+00 -9.643530901533e+00 0.0 
4.020105689502e+00 -1.007439673661e+01 0.0 
4.587185899277e+01 -1.484039992728e+01 0.0 
4.580078661551e+01 -1.584043391042e+01 0.0 
2.061956522375e+01 -5.046701343981e+00 0.0 
2.139572955529e+01 -5.579553449826e+00 0.0 
3.715344357292e+01 -1.631485124583e+01 0.0 
3.618886196443e+00 -1.500471207167e+01 0.0 
3.695606940204e+00 -1.400939692294e+01 0.0 
2.438890661143e+01 -9.686110599723e+00 0.0 
2.523267572778e+01 -9.276766000622e+00 0.0 
2.446094171539e+01 -8.751904591412e+00 0.0 
2.529089822738e+01 -8.321495612547e+00 0.0 
2.606882688827e+01 -8.864724051119e+00 0.0 
2.452116646430e+01 -7.792756462004e+00 0.0 
1.235543269617e+01 -1.365845617339e+01 0.0 
4.318116874181e+01 -1.618567469992e+01 0.0 
7.835066111909e+00 -5.376366223896e+00 0.0 
7.905687335704e+00 -4.382539065697e+00 0.0 
3.542640009567e+00 -1.600035116542e+01 0.0 
1.572431503071e+01 -1.388358386695e+01 0.0 
2.574684696680e+01 -1.357896141127e+01 0.0 
2.488842657651e+01 -1.399674354505e+01 0.0 
2.568301775611e+01 -1.453552048595e+01 0.0 
2.481535572009e+01 -1.495542756508e+01 0.0 
2.561729699688e+01 -1.549784648532e+01 0.0 
2.474623061296e+01 -1.592058894178e+01 0.0 
2.394234041695e+01 -1.537572575827e+01 0.0 
2.065825452567e+01 -1.621899055217e+01 0.0 
2.387180528935e+01 -1.634552264687e+01 0.0 
4.585364400844e+01 -1.383912334080e+01 0.0 
1.998744432052e+01 -1.370317155541e+01 0.0 
1.205356951443e+01 -6.313580285498e+00 0.0 
5.396543905849e+00 -3.731818611283e+00 0.0 
1.139652573295e+01 -3.745819399350e+00 0.0 
3.574124306703e+00 -4.551456826011e+00 0.0 
3.494140761930e+00 -5.539787055649e+00 0.0 
1.213651452413e+01 -1.664505033022e+01 0.0 
2.555045568519e+01 -1.646529356744e+01 0.0 
2.641671114986e+01 -1.603899382371e+01 0.0 
2.612920721894e+01 -7.906435260873e+00 0.0 
2.690339829698e+01 -8.456969591431e+00 0.0 
1.978024383368e+01 -1.664410216353e+01 0.0 
3.732829979082e+01 -1.336926601859e+01 0.0 
4.074336584605e+01 -1.355133328401e+01 0.0 
4.163204691081e+01 -1.310280943992e+01 0.0 
3.773826114429e+00 -3.493444309145e+00 0.0 
1.228783001032e+01 -3.374822835872e+00 0.0 
4.057110462520e+01 -1.652588478000e+01 0.0 
2.132535497898e+01 -6.523623360525e+00 0.0 
2.216932532211e+01 -6.110044769206e+00 0.0 
1.825781152128e+01 -3.370146817147e+00 0.0 
1.745679445888e+01 -2.812942552063e+00 0.0 
4.666517057280e+01 -1.539981381543e+01 0.0 
4.660575894464e+01 -1.639014410186e+01 0.0 
4.838230979954e+00 -1.063643436446e+01 0.0 
3.938942630206e+00 -1.106778981745e+01 0.0 
1.302967218620e+01 -1.621373452436e+01 0.0 
1.049548003190e+01 -4.204825123240e+00 0.0 
4.573571907195e+01 -1.683820511148e+01 0.0 
1.483686335807e+01 -1.430849689310e+01 0.0 
1.490982658890e+01 -1.332679386284e+01 0.0 
3.190805600162e+00 -9.510968358545e+00 0.0 
2.146625721848e+01 -4.642437303115e+00 0.0 
2.069866208266e+01 -4.111852942193e+00 0.0 
1.286859345584e+01 -6.873252723348e+00 0.0 
1.041794493184e+01 -5.194814260291e+00 0.0 
2.671081808965e+00 -4.976806516331e+00 0.0 
1.295786792925e+01 -1.720506531799e+01 0.0 
3.968438206511e+01 -1.696869067241e+01 0.0 
2.308550456051e+01 -1.579963151273e+01 0.0 
2.315593682844e+01 -1.482967445235e+01 0.0 
2.299471449450e+01 -1.677069968132e+01 0.0 
1.057344714696e+01 -3.214252277840e+00 0.0 
1.124057603753e+01 -1.707713739755e+01 0.0 
2.718402535754e+00 -1.543629882103e+01 0.0 
2.638549692805e+01 -1.696744916809e+01 0.0 
2.723416349007e+01 -1.658104204545e+01 0.0 
2.210193351704e+01 -7.046769643417e+00 0.0 
2.295180925161e+01 -6.657397605239e+00 0.0 
2.301355235833e+01 -5.709111896800e+00 0.0 
2.379052718281e+01 -6.254965406962e+00 0.0 
3.243528601237e+01 -1.214181853533e+01 0.0 
2.287977995457e+01 -7.583722368300e+00 0.0 
2.999876029544e+01 -1.150837653096e+01 0.0 
3.084435366963e+01 -1.109693775882e+01 0.0 
3.006650579669e+01 -1.057778994262e+01 0.0 
2.683802665066e+01 -9.386863216633e+00 0.0 
2.768641973621e+01 -8.988883915666e+00 0.0 
2.040296980397e+01 -7.903629133404e+00 0.0 
1.925235024054e+01 -1.218872783130e+01 0.0 
5.735667000424e+00 -1.020577277283e+01 0.0 
6.396559909872e+00 -1.272326295703e+01 0.0 
1.161199420714e+01 -1.212812778229e+01 0.0 
4.229046132615e+01 -1.663084237572e+01 0.0 
4.312275399692e+01 -1.718087491556e+01 0.0 
4.335502068163e+01 -1.320039231514e+01 0.0 
4.424630298089e+01 -1.275160688731e+01 0.0 
7.090116643816e+00 -3.818998061530e+00 0.0 
7.989472176569e+00 -3.389238711200e+00 0.0 
9.085824861778e+00 -1.144036167408e+01 0.0 
1.041972423731e+01 -1.651614080893e+01 0.0 
3.797525112640e+01 -1.686052038746e+01 0.0 
3.709114253394e+01 -1.730125999865e+01 0.0 
3.626966748340e+01 -1.675477052919e+01 0.0 
1.385164591440e+01 -1.677597757552e+01 0.0 
1.787152588784e+01 -8.198993896093e+00 0.0 
1.668849729812e+01 -1.248560611628e+01 0.0 
1.659546177905e+01 -3.232482605530e+00 0.0 
2.332214717345e+01 -1.292598167641e+01 0.0 
7.168238450786e+00 -2.824711686516e+00 0.0 
2.894878403906e+01 -1.475427524446e+01 0.0 
2.646763248247e+00 -1.643270107952e+01 0.0 
3.467431944285e+00 -1.699648837348e+01 0.0 
2.059475877282e+01 -1.719473628526e+01 0.0 
3.333868355437e+01 -1.080596971682e+01 0.0 
2.246451062637e+01 -1.334557761546e+01 0.0 
2.167821896388e+01 -1.280847834858e+01 0.0 
3.089653185767e+01 -1.017198487212e+01 0.0 
3.012604365669e+01 -9.657298805968e+00 0.0 
2.929627299435e+01 -1.006100135274e+01 0.0 
2.936201435219e+01 -9.136748899251e+00 0.0 
1.198219052702e+01 -7.291887238230e+00 0.0 
1.116702076035e+01 -6.731976101053e+00 0.0 
2.551388807505e+01 -1.746927036981e+01 0.0 
2.378639090370e+01 -1.728678807149e+01 0.0 
2.718543627188e+01 -1.748668016909e+01 0.0 
2.804681050301e+01 -1.712626668293e+01 0.0 
1.970737034667e+01 -1.762317646822e+01 0.0 
1.889535776135e+01 -1.707158098231e+01 0.0 
2.593777711283e+00 -5.971157087874e+00 0.0 
2.773468281110e+01 -8.067164273938e+00 0.0 
4.051205884347e+01 -1.751819982458e+01 0.0 
3.166903145421e+01 -1.068032992414e+01 0.0 
1.033042452886e+01 -1.748285844336e+01 0.0 
9.519274604626e+00 -1.694349240233e+01 0.0 
1.668308673328e+01 -2.255861778986e+00 0.0 
1.570531902832e+01 -2.676795860126e+00 0.0 
4.655826903379e+01 -1.736656245706e+01 0.0 
2.384148070773e+01 -5.328744256413e+00 0.0 
2.460255123641e+01 -5.852182672816e+00 0.0 
2.306638135119e+01 -4.798935440613e+00 0.0 
8.467720450578e-01 -1.849576263072e+01 0.0 
4.849657322345e+01 -1.084860705506e+01 0.0 
2.565860899507e+00 -1.742859793981e+01 0.0 
2.764418872564e+01 -9.927142821799e+00 0.0 
4.565165880064e+01 -1.785336695404e+01 0.0 
2.162231831329e+01 -1.376528337468e+01 0.0 
2.360646352969e+01 -9.136041963102e+00 0.0 
1.392738739903e+01 -1.578285505772e+01 0.0 
4.756405947478e+01 -1.683706841809e+01 0.0 
4.740895034054e+01 -1.793766756892e+01 0.0 
4.080779328826e+01 -1.257387192544e+01 0.0 
4.168907939671e+01 -1.210739129181e+01 0.0 
3.991197722154e+01 -1.300815793917e+01 0.0 
1.905536506762e+01 -3.940076697685e+00 0.0 
1.923879596617e+01 -2.875000734166e+00 0.0 
4.401386745746e+01 -1.673483229438e+01 0.0 
4.247233362525e+00 -7.094581653070e+00 0.0 
3.286051630211e+00 -7.635300020553e+00 0.0 
9.609533347623e+00 -4.594311677967e+00 0.0 
9.523554636369e+00 -5.595597029530e+00 0.0 
5.660336628893e+00 -1.119290329628e+01 0.0 
6.558070063295e+00 -1.076385809362e+01 0.0 
2.809866407414e+01 -1.518037766799e+01 0.0 
2.888868674504e+01 -1.570360690070e+01 0.0 
2.654431550819e+01 -1.411217777162e+01 0.0 
1.402158265969e+01 -1.375404617952e+01 0.0 
1.409592494026e+01 -1.277071998942e+01 0.0 
1.499355196178e+01 -1.235270737023e+01 0.0 
4.221535326155e+01 -1.759335617494e+01 0.0 
4.305583287033e+01 -1.822663146802e+01 0.0 
1.280748808359e+01 -7.834332838285e+00 0.0 
1.368988389326e+01 -7.420529606172e+00 0.0 
1.110091796060e+01 -7.683966794328e+00 0.0 
3.963446145980e+01 -1.794331310122e+01 0.0 
3.423932362213e+00 -1.796415590455e+01 0.0 
4.280814572302e+00 -1.752272834860e+01 0.0 
8.050136380041e+00 -2.421582378631e+00 0.0 
8.888674091650e+00 -2.984264211327e+00 0.0 
2.152839430898e+01 -3.732609965436e+00 0.0 
2.077799585292e+01 -3.183896021866e+00 0.0 
3.618719395821e+01 -1.770276572576e+01 0.0 
3.538165138340e+01 -1.718709995539e+01 0.0 
3.702925326420e+01 -1.828844288807e+01 0.0 
1.756739438711e+00 -5.353284859169e+00 0.0 
2.233710191104e+01 -1.527265621324e+01 0.0 
1.389483555057e+01 -1.771797164730e+01 0.0 
1.475634224300e+01 -1.728357428390e+01 0.0 
1.298797563052e+01 -1.825968924755e+01 0.0 
2.145331271866e+01 -1.673705379077e+01 0.0 
2.133282821169e+01 -1.769400773673e+01 0.0 
2.292139194136e+01 -1.774915400288e+01 0.0 
1.750750053243e+01 -1.861475593469e+00 0.0 
4.830478841772e+01 -1.752611802221e+01 0.0 
4.341203507805e+01 -1.220326745522e+01 0.0 
1.685254151866e+01 -1.443085301632e+00 0.0 
4.431538535165e+01 -1.171841387375e+01 0.0 
4.511308610496e+01 -1.229557320599e+01 0.0 
4.510133242889e+01 -1.123680627466e+01 0.0 
1.846818030617e+00 -4.410877617069e+00 0.0 
3.995468694584e+01 -1.186571542989e+01 0.0 
3.901387459804e+01 -1.242507616755e+01 0.0 
8.966735877533e+00 -1.837818700423e+00 0.0 
4.049310011091e+01 -1.848269508791e+01 0.0 
7.278862053803e+00 -1.918523922691e+00 0.0 
6.429715522129e+00 -2.316676521184e+00 0.0 
9.443505505022e+00 -1.792198868094e+01 0.0 
8.620386951051e+00 -1.737590365556e+01 0.0 
8.571868171503e+00 -1.834436667826e+01 0.0 
7.758629848526e+00 -1.775677907213e+01 0.0 
7.806648388584e+00 -1.680761266021e+01 0.0 
6.908555145436e+00 -1.723746463044e+01 0.0 
4.251709122090e+01 -1.156937480156e+01 0.0 
6.931136405615e+00 -1.832465719263e+01 0.0 
6.015545461353e+00 -1.768865355295e+01 0.0 
5.960535926343e+00 -1.872011001764e+01 0.0 
3.023253444786e+01 -8.761960642196e+00 0.0 
2.454622702599e+01 -6.749421992767e+00 0.0 
2.537499741604e+01 -6.347634963783e+00 0.0 
2.544077378460e+01 -5.431358513649e+00 0.0 
2.801367161747e+01 -1.820907270221e+01 0.0 
2.884507806914e+01 -1.762032095326e+01 0.0 
1.821474531936e+00 -1.588901260460e+01 0.0 
1.821006262604e+00 -1.489370287756e+01 0.0 
4.599962488908e+01 -1.176478780598e+01 0.0 
4.705457470007e+01 -1.172182804229e+01 0.0 
4.667668314802e+01 -1.263464558483e+01 0.0 
4.759648056504e+01 -1.252380987933e+01 0.0 
4.728041618103e+01 -1.341928568376e+01 0.0 
4.825209352360e+01 -1.330491640804e+01 0.0 
4.778118233428e+01 -1.420151961695e+01 0.0 
2.388192727579e+01 -1.826934810142e+01 0.0 
2.381714684947e+01 -4.385917965223e+00 0.0 
3.172733219247e+01 -9.758744265248e+00 0.0 
1.882012070658e+01 -1.805540597212e+01 0.0 
1.805667505243e+01 -1.742221226236e+01 0.0 
2.852599958080e+01 -8.597196079481e+00 0.0 
2.856486123437e+01 -7.661382718527e+00 0.0 
1.111792842875e+01 -1.818223852980e+01 0.0 
2.203322722466e+01 -7.986646678802e+00 0.0 
3.955703676900e+01 -1.903246763601e+01 0.0 
1.944842206513e+01 -8.038750575182e-01 0.0 
1.909882767783e+01 -1.746322740933e+00 0.0 
2.281147422941e+01 -8.525912918334e+00 0.0 
2.850633001468e+01 -9.533271335986e+00 0.0 
2.532883344309e+01 -7.308951659710e+00 0.0 
2.620475466461e+01 -6.979208585400e+00 0.0 
1.396278270396e+01 -1.475095389807e+01 0.0 
9.791001166724e+00 -2.554159793552e+00 0.0 
2.229293380421e+01 -4.269762271052e+00 0.0 
4.677238984118e+01 -1.430071795514e+01 0.0 
2.228658385918e+01 -3.344747535984e+00 0.0 
8.940223674553e-01 -1.543595733415e+01 0.0 
2.118566862474e+01 -8.435876987696e+00 0.0 
2.678325936437e+01 -1.032621195706e+01 0.0 
2.223400220487e+01 -5.179046761770e+00 0.0 
2.375370625384e+01 -7.251580562134e+00 0.0 
3.156971327386e+01 -1.255534750737e+01 0.0 
3.328226391312e+01 -1.172914813316e+01 0.0 
3.250948774219e+01 -1.120157009348e+01 0.0 
2.032993445717e+01 -8.867880112202e+00 0.0 
2.697226974856e+01 -7.536633082045e+00 0.0 
2.707377810386e+01 -6.590835263295e+00 0.0 
2.914099246827e+01 -1.191678458549e+01 0.0 
3.544824072239e+01 -1.621126558525e+01 0.0 
3.456511855436e+01 -1.665054783843e+01 0.0 
3.448395810225e+01 -1.759117813016e+01 0.0 
3.368378673938e+01 -1.708037781328e+01 0.0 
3.375560452567e+01 -1.610973066913e+01 0.0 
3.288001547988e+01 -1.654324255651e+01 0.0 
3.282475929147e+01 -1.749725654692e+01 0.0 
3.199880906313e+01 -1.697294088625e+01 0.0 
3.197001272932e+01 -1.811667776864e+01 0.0 
3.111884713021e+01 -1.742166785755e+01 0.0 
3.120418962865e+01 -1.642155709385e+01 0.0 
3.034666704371e+01 -1.683123833816e+01 0.0 
3.026224379976e+01 -1.772592851714e+01 0.0 
3.046632362943e+01 -1.582232843075e+01 0.0 
1.961344017324e+01 -1.857459447985e+01 0.0 
2.274975894774e+01 -9.532738811922e+00 0.0 
1.833923246887e+01 -2.396746883672e+00 0.0 
1.988859500848e+01 -2.249244376594e+00 0.0 
2.758045562861e+01 -1.086434261689e+01 0.0 
3.247300178163e+01 -1.909930104252e+01 0.0 
3.461947482503e+01 -1.911879848019e+01 0.0 
2.047161538662e+01 -6.941478180358e+00 0.0 
2.750230940214e+01 -1.915490590764e+01 0.0 
3.165081350803e+01 -1.161860780120e+01 0.0 
1.897456727641e+01 -4.889634688522e+00 0.0 
2.549338539756e+01 -1.914858252089e+01 0.0 
3.462873135081e+01 -1.567482276144e+01 0.0 
3.384432415243e+01 -1.512280684518e+01 0.0 
3.471433767690e+01 -1.469086942990e+01 0.0 
3.651470373046e+01 -1.918207952149e+01 0.0 
3.901742690249e+01 -1.345028556517e+01 0.0 
2.153224102692e+01 -1.920169709333e+01 0.0 
1.918382939341e+01 -1.316226275662e+01 0.0 
2.005389162382e+01 -1.271962165174e+01 0.0 
2.011472087878e+01 -1.175029352900e+01 0.0 
3.210679478412e+01 -1.598038618242e+01 0.0 
1.752175226543e+01 -1.914713022656e+01 0.0 
1.696897240059e+01 -1.832772588765e+01 0.0 
1.599682523337e+01 -1.832599992024e+01 0.0 
1.644507199462e+01 -1.743697981535e+01 0.0 
1.549987712903e+01 -1.915192375101e+01 0.0 
3.050250861901e+01 -1.918943550234e+01 0.0 
2.949944061527e+01 -1.922950455235e+01 0.0 
1.375892575273e+01 -6.447160534926e+00 0.0 
1.457223670180e+01 -7.006709243857e+00 0.0 
1.450818793236e+01 -7.965943451779e+00 0.0 
1.538804712402e+01 -7.553409623699e+00 0.0 
1.545817644768e+01 -6.580929593419e+00 0.0 
1.626506893751e+01 -7.129032608911e+00 0.0 
1.619833811522e+01 -8.086588580887e+00 0.0 
1.714448609609e+01 -6.697429609777e+00 0.0 
2.887616543568e+01 -1.668015232137e+01 0.0 
1.349814589130e+01 -1.918225301544e+01 0.0 
1.153887772210e+01 -1.311384581217e+01 0.0 
1.242708159886e+01 -1.267046795531e+01 0.0 
1.249799674267e+01 -1.169005616014e+01 0.0 
6.631723893693e+00 -9.774184881867e+00 0.0 
7.451471631867e+00 -1.033148796006e+01 0.0 
7.377795355458e+00 -1.132196345268e+01 0.0 
5.810931797536e+00 -9.211654212252e+00 0.0 
2.402683899133e+01 -1.441378562320e+01 0.0 
1.249768692036e+01 -1.917388426624e+01 0.0 
1.580373499437e+01 -1.290751860664e+01 0.0 
8.344650507834e+00 -9.898403995170e+00 0.0 
3.750622115305e+01 -1.086526401533e+01 0.0 
3.699391251667e+01 -1.171695900794e+01 0.0 
3.606517829518e+01 -1.173717504500e+01 0.0 
3.650257641795e+01 -1.270047380221e+01 0.0 
3.808951488918e+01 -1.183518714175e+01 0.0 
4.760380962420e+00 -1.162484888315e+01 0.0 
3.861210370848e+00 -1.205657631736e+01 0.0 
3.038284309476e+00 -1.149851280664e+01 0.0 
2.961598794889e+00 -1.248856794980e+01 0.0 
2.138953225512e+00 -1.193212674534e+01 0.0 
2.227383593457e+00 -1.096258903918e+01 0.0 
2.043265419276e+00 -1.292158472959e+01 0.0 
1.252449446028e+00 -1.225502002753e+01 0.0 
3.949985210740e+01 -1.086594001795e+01 0.0 
1.453499444792e+01 -8.768805922472e-01 0.0 
1.403518950933e+01 -1.749965556633e+00 0.0 
1.300715031023e+01 -1.714737233040e+00 0.0 
1.350929389899e+01 -2.527443911291e+00 0.0 
1.449600910711e+01 -2.595486162864e+00 0.0 
1.395693872901e+01 -3.484211041558e+00 0.0 
1.495105865208e+01 -3.364609636216e+00 0.0 
1.508822528740e+01 -1.766586020494e+00 0.0 
1.250223858430e+01 -8.634590186802e-01 0.0 
1.200279523409e+01 -1.709044504992e+00 0.0 
1.150086239419e+01 -8.592789190668e-01 0.0 
1.101482754194e+01 -1.677730591922e+00 0.0 
1.148018564526e+01 -2.659323866909e+00 0.0 
8.800552119754e+00 -3.989875954728e+00 0.0 
3.452790439430e+00 -1.901136170646e+01 0.0 
8.658451825200e-01 -9.503462241795e+00 0.0 
1.694787786797e+00 -9.000589234502e+00 0.0 
1.703436717094e+00 -8.038819004041e+00 0.0 
2.594197971110e+00 -8.563955242845e+00 0.0 
1.630513735412e+00 -9.907244747511e+00 0.0 
8.566859292791e-01 -7.512203837972e+00 0.0 
1.685461277022e+00 -7.164280248030e+00 0.0 
2.506394468801e+00 -8.623386730818e-01 0.0 
2.007475081581e+00 -1.727729545205e+00 0.0 
9.211534699767e-01 -1.628791366312e+00 0.0 
1.500000000020e+00 -2.598063549486e+00 0.0 
2.482078929963e+00 -2.553580088725e+00 0.0 
2.999795253092e+00 -1.732169015019e+00 0.0 
3.999712607169e+00 -1.728832897453e+00 0.0 
4.499752199340e+00 -8.656478679175e-01 0.0 
4.964377774841e+00 -1.730129617941e+00 0.0 
4.425017908337e+00 -2.597541756243e+00 0.0 
5.446573195014e+00 -8.410144840023e-01 0.0 
4.915722346614e+01 -1.550640962770e+01 0.0 
4.826794919243e+01 -1.600000000000e+01 0.0 
1.053139533193e+01 -1.911782884365e+01 0.0 
4.156049861949e+01 -1.095160998589e+01 0.0 
9.494526624416e+00 -8.650570090219e-01 0.0 
4.555762166964e+01 -1.897098103585e+01 0.0 
4.250656411371e+01 -1.914387356218e+01 0.0 
4.350906466345e+01 -1.917234727395e+01 0.0 
8.759665722424e-01 -1.746422130609e+01 0.0 
1.698936011838e+00 -1.795012186674e+01 0.0 
4.742476811029e+01 -1.900090177972e+01 0.0 
7.749196752349e+00 -6.368049313489e+00 0.0 
3.361572113416e+01 -1.798765193915e+01 0.0 
4.484660149212e+01 -1.728661231383e+01 0.0 
1.984038172228e+01 -4.502575320116e+00 0.0 
1.035080352627e+01 -6.166639575753e+00 0.0 
2.753558010652e+00 -1.444909521181e+01 0.0 
7.217069543032e+00 -1.328635391078e+01 0.0 
4.364336727739e+00 -1.655585677381e+01 0.0 
4.595208426108e+00 -1.357919665443e+01 0.0 
6.164967006980e+00 -1.569873454630e+01 0.0 
1.487855768353e+01 -1.826523774028e+01 0.0 
2.791876456372e+00 -4.019632415181e+00 0.0 
4.246464893515e+01 -1.364898659620e+01 0.0 
4.503855590351e+01 -1.329552780944e+01 0.0 
4.407239109604e+01 -1.573900004093e+01 0.0 
5.141054449252e+00 -6.664290382472e+00 0.0 
3.141083947149e+00 -1.055790764912e+01 0.0 
6.196463198741e+00 -4.256497932609e+00 0.0 
2.599618716181e+01 -1.836893455464e+01 0.0 
2.923057372337e+01 -1.098461757645e+01 0.0 
1.168343877486e+01 -1.114079645041e+01 0.0 
6.706222096238e+00 -8.780364234441e+00 0.0 
8.567858614669e+00 -6.943121440850e+00 0.0 
1.123755132901e+01 -5.753525820030e+00 0.0 
2.353456234423e+01 -1.008536320953e+01 0.0 
9.162073319168e+00 -1.045593739109e+01 0.0 
9.676343469685e+00 -1.496493008366e+01 0.0 
4.490637882905e+01 -1.628778970202e+01 0.0 
7.398129387772e+00 -9.639977982323e-01 0.0 
1.049641705805e+01 -1.552503975272e+01 0.0 
9.010356286268e+00 -1.242805042052e+01 0.0 
3.985573925497e+01 -1.399863651620e+01 0.0 
1.816196318262e+01 -1.554066497931e+01 0.0 
1.306332244168e+01 -3.963646550326e+00 0.0 
4.145850903932e+01 -1.608094559275e+01 0.0 
3.794664933633e+01 -1.779020121986e+01 0.0 
3.819614412903e+01 -1.290749321016e+01 0.0 
6.270014188119e+00 -3.255093186826e+00 0.0 
4.251165370388e+01 -1.263870364997e+01 0.0 
1.207347709171e+01 -1.763942826023e+01 0.0 
3.633240829927e+01 -1.577330481104e+01 0.0 
4.319052668832e+00 -6.101812561904e+00 0.0 
1.676492415806e+01 -1.151547901392e+01 0.0 
2.594059220037e+01 -1.074225223009e+01 0.0 
3.340750911501e+01 -9.898764354137e+00 0.0 
4.397619591281e+01 -1.769773736461e+01 0.0 
2.175611595028e+01 -1.185718747128e+01 0.0 
1.641818733106e+01 -1.640685203215e+01 0.0 
1.661211421753e+01 -1.346121366338e+01 0.0 
3.428853504935e+00 -6.551993389271e+00 0.0 
8.700728832502e+00 -1.638460872825e+01 0.0 
1.931369795309e+01 -1.121629383702e+01 0.0 
4.139798872363e+01 -1.706922153459e+01 0.0 
2.647837478700e+01 -1.507353829290e+01 0.0 
1.779469616424e+01 -9.161615782908e+00 0.0 
3.885879219319e+01 -1.642026488918e+01 0.0 
1.338194936770e+01 -1.125916521471e+01 0.0 
1.897071181111e+01 -1.609204322578e+01 0.0 
2.844308548793e+01 -1.046221003096e+01 0.0 
2.659854702194e+01 -1.316109415760e+01 0.0 
2.979604503271e+01 -1.433296157755e+01 0.0 
2.417694041347e+01 -1.251231397779e+01 0.0 
1.807401327411e+00 -1.388891148480e+01 0.0 
9.599810618782e+00 -1.595439365034e+01 0.0 
1.652144692160e+01 -4.205392788472e+00 0.0 
2.367839450246e+01 -8.188385218643e+00 0.0 
3.814894930468e+01 -1.390748338767e+01 0.0 
2.466448215774e+01 -1.685878545680e+01 0.0 
4.134044524611e+01 -1.806610045954e+01 0.0 
2.600511411958e+01 -9.801774120648e+00 0.0 
7.882158050716e+00 -1.582364037353e+01 0.0 
3.881607873422e+01 -1.737970515013e+01 0.0 
8.270182347708e+00 -1.088622154920e+01 0.0 
8.672520392520e-01 -4.532984309881e+00 0.0 
1.993447205337e+01 -3.579061902667e+00 0.0 
1.794616079549e+01 -7.238038888498e+00 0.0 
2.097277068165e+01 -1.132450168636e+01 0.0 
8.194803300681e+00 -1.187214224265e+01 0.0 
3.522279404911e+01 -1.823342818178e+01 0.0 
6.984481050295e+00 -1.625271465557e+01 0.0 
1.309433007797e+01 -1.521718594215e+01 0.0 
2.150246167611e+01 -1.885399038185e+00 0.0 
3.250689370209e+01 -1.028789870535e+01 0.0 
6.085886272238e+00 -1.668342132851e+01 0.0 
1.588455661727e+01 -1.193498985921e+01 0.0 
1.809323400821e+01 -1.651110084195e+01 0.0 
1.348885082381e+00 -1.136065576512e+01 0.0 
2.497670221995e+01 -1.834631276173e+01 0.0 
2.937062818424e+01 -8.233711194470e+00 0.0 
5.185823744469e+00 -1.711566910207e+01 0.0 
1.477497877209e+01 -1.530177014512e+01 0.0 
2.125346158933e+01 -7.473003997367e+00 0.0 
4.751561118290e+01 -1.084897772632e+01 0.0 
5.056026576843e+00 -1.825750475525e+01 0.0 
1.473948554523e+01 -1.634577436309e+01 0.0 
2.410566630936e+01 -1.345970002612e+01 0.0 
1.507337507513e+01 -1.138527895328e+01 0.0 
3.189857338687e+01 -8.887781229006e+00 0.0 
7.298712468334e+00 -1.230231046246e+01 0.0 
2.738235495295e+01 -1.368931690364e+01 0.0 
3.750141041969e+01 -1.920449893070e+01 0.0 
1.557271965640e+01 -1.683317951731e+01 0.0 
3.393731848929e+01 -1.413034777044e+01 0.0 
6.482156824153e+00 -1.174575135362e+01 0.0 
2.077971718439e+01 -1.421279621836e+01 0.0 
3.455084320178e+00 -2.562590040585e+00 0.0 
3.099056096250e+01 -9.270280416035e+00 0.0 
5.580176125418e+00 -1.217387969259e+01 0.0 
1.707247630389e+01 -7.660651981710e+00 0.0 
1.418658814174e+01 -1.180390575393e+01 0.0 
2.049103025389e+01 -1.811296706038e+01 0.0 
4.680386172316e+00 -1.260396879301e+01 0.0 
1.699679896554e+01 -8.624561788199e+00 0.0 
3.779470168555e+00 -1.303424899720e+01 0.0 
3.036589870126e+01 -7.879832518349e+00 0.0 
3.306993001774e+01 -1.457671062095e+01 0.0 
2.840150110165e+00 -1.346530088269e+01 0.0 
2.732011135052e+01 -1.464591214560e+01 0.0 
5.423639259568e+00 -2.659711955016e+00 0.0 
2.324455961696e+01 -1.387269388211e+01 0.0 
1.752768355571e+00 -1.693128613594e+01 0.0 
1.020244783051e+01 -8.076834012808e+00 0.0 
1.330873875224e+01 -1.222417528206e+01 0.0 
3.297727364880e+01 -1.555480372087e+01 0.0 
2.890929955439e+01 -6.868664170731e+00 0.0 
1.323294664622e+01 -1.320754260334e+01 0.0 
2.726532861246e+01 -1.560593120806e+01 0.0 
2.240020643398e+01 -1.429299177247e+01 0.0 
2.090445823633e+01 -1.228128621332e+01 0.0 
1.315809881502e+01 -1.420739326938e+01 0.0 
2.781328038068e+01 -7.181956082300e+00 0.0 
8.614200829057e+00 -5.936933226306e+00 0.0 
8.714765730069e+00 -4.979270529687e+00 0.0 
1.611881701099e+01 -9.041973294003e+00 0.0 
2.806830314340e+01 -1.614622947108e+01 0.0 
2.084435391396e+00 -3.385085422913e+00 0.0 
3.133211811152e+01 -1.542347619750e+01 0.0 
9.693114650768e+00 -3.590281506442e+00 0.0 
1.531883592202e+01 -8.504584946143e+00 0.0 
2.151589117094e+01 -1.578915763018e+01 0.0 
4.918943882696e+01 -1.355538828056e+01 0.0 
1.443236615188e+01 -8.918701794549e+00 0.0 
8.276250966452e-01 -5.537685192197e+00 0.0 
1.362790867918e+01 -8.374718262212e+00 0.0 
2.083767477370e+01 -1.324843956035e+01 0.0 
1.273834678703e+01 -8.790890389337e+00 0.0 
1.192275845670e+01 -8.242261327467e+00 0.0 
4.477236023583e+01 -1.824312396664e+01 0.0 
1.102989384254e+01 -8.649855800911e+00 0.0 
4.849096516045e+01 -1.917293752213e+01 0.0 
1.588996752238e+00 -1.910230934687e+01 0.0 
4.904245197583e+01 -1.159839008158e+01 0.0 
2.753852929608e+01 -5.782128488093e+00 0.0 
1.756133602833e+01 -8.306130313187e-01 0.0 
2.615423700951e+01 -6.153865090092e+00 0.0 
1.028818761294e+01 -7.122020845892e+00 0.0 
2.970818901196e+01 -1.527821347593e+01 0.0 
4.801461623449e+01 -1.164472570985e+01 0.0 
9.455722100419e+00 -6.546069291118e+00 0.0 
3.089099236677e+01 -1.835339328261e+01 0.0 
2.350000000013e+01 -1.920825896750e+01 0.0 
4.830620531887e+01 -1.506626155470e+01 0.0 
1.725381944701e+01 -1.688794487850e+01 0.0 
2.156246225273e+01 -1.475893794002e+01 0.0 
4.919319648787e+01 -1.742767505896e+01 0.0 
4.437935623576e+01 -1.077662927266e+01 0.0 
1.001520521978e+01 -1.652692675208e+00 0.0 
9.067160240050e-01 -1.441937727541e+01 0.0 
2.603365149390e+01 -4.755996613848e+00 0.0 
2.458344439002e+01 -4.873645517696e+00 0.0 
2.304312390142e+01 -3.836552768096e+00 0.0 
2.546923202198e+00 -6.902480355749e+00 0.0 
1.251534969393e+01 -2.490989965776e+00 0.0 
2.454061833377e+01 -3.933354231935e+00 0.0 
1.788186558740e+01 -1.827424884923e+01 0.0 
4.090785243552e+01 -1.166553231904e+01 0.0 
2.230128851568e+01 -1.623015738726e+01 0.0 
2.302362347568e+01 -2.916239960270e+00 0.0 
3.878119254461e+01 -1.830091164002e+01 0.0 
2.210081359958e+01 -1.829238229150e+01 0.0 
8.443704882233e+00 -1.921993252862e+01 0.0 
2.218405824691e+01 -1.724557581508e+01 0.0 
2.151157503963e+01 -2.790636689331e+00 0.0 
3.741658958955e+01 -1.250400191722e+01 0.0 
2.697247663737e+01 -1.838290202309e+01 0.0 
4.743362342862e+01 -1.585850773010e+01 0.0 
6.671345075358e+00 -1.924977576322e+01 0.0 
3.900825404537e+01 -1.157220003875e+01 0.0 
4.649692961375e+01 -1.836335837481e+01 0.0 
1.578831424832e+01 -3.678284023361e+00 0.0 
4.814208768888e+01 -1.841249298770e+01 0.0 
2.964123298315e+01 -1.625739458193e+01 0.0 
4.580760351902e+01 -1.284294554687e+01 0.0 
3.561520879615e+01 -1.245548941949e+01 0.0 
2.555418095658e+00 -1.841101588290e+01 0.0 
3.288468366144e+01 -1.834258164109e+01 0.0 
2.065894391445e+01 -2.240688571739e+00 0.0 
4.739171429915e+01 -1.496536413446e+01 0.0 
3.478086729185e+00 -8.576434653209e+00 0.0 
1.606010630246e+01 -1.588421807951e+00 0.0 
1.018329200594e+01 -1.834320874317e+01 0.0 
2.957213339430e+01 -1.720496954591e+01 0.0 
4.142712790164e+00 -1.837794506222e+01 0.0 
6.698721532573e-01 -2.499999999997e+00 0.0 
8.037039123140e+00 -1.571229354954e+00 0.0 
1.203541361428e+01 -1.847784298001e+01 0.0 
2.899968332038e+01 -1.848264722179e+01 0.0 
1.469229460948e+01 -4.219485753730e+00 0.0 
4.049590781957e+01 -1.932812501995e+01 0.0 
1.996211678340e+01 -1.506329754720e+00 0.0 
4.250588298353e+01 -1.067383247529e+01 0.0 
5.831497011152e+00 -1.635396227234e+00 0.0 
5.317606125670e+00 -1.923927974868e+01 0.0 
4.208546426993e+01 -1.842830665025e+01 0.0 
2.327553405011e+00 -9.459409929662e+00 0.0 
3.568351902251e+01 -1.096637218582e+01 0.0 
1.682104374890e+00 -6.231413350963e+00 0.0 
2.451812238018e+01 -1.766524914339e+01 0.0 
1.058003429638e+01 -2.391839617098e+00 0.0 
4.399988753123e+01 -1.851998776342e+01 0.0 
1.400000000010e+01 -1.852293523028e+01 0.0 
3.604719565984e+01 -1.850662876800e+01 0.0 
1.951297136734e+01 -1.938092349694e+01 0.0 
1.821365318472e+01 -1.531276353287e+00 0.0 
2.298031859732e+01 -1.854635324722e+01 0.0 
1.552168066204e+01 -1.764280741977e+01 0.0 
4.572957713638e+01 -1.073347898229e+01 0.0 
3.429637429624e+01 -1.838861552790e+01 0.0 
2.427434426052e+00 -7.705577451869e+00 0.0 
4.662792031485e+00 -3.359424455416e+00 0.0 
4.926794919243e+01 -1.926794919243e+01 0.0 
7.320508075690e-01 -7.320508075688e-01 0.0 
4.926794919243e+01 -1.073205080757e+01 0.0 
7.320508075705e-01 -1.926794919243e+01 0.0 
2.917460242467e+00 -3.202866455310e+00 0.0 
4.838200575963e+01 -1.232674147454e+01 0.0 
2.998445708009e+01 -1.854403752148e+01 0.0 
5.949940090766e-01 -1.152762038165e+01 0.0 
4.844763495759e+01 -1.678092548787e+01 0.0 
1.301685480160e+01 -3.170056592566e+00 0.0 
1.650046335855e+01 -6.731535384067e-01 0.0 
4.854881540991e+01 -1.405224059779e+01 0.0 
2.119545114693e+01 -1.846813384545e+01 0.0 
3.797852849897e+01 -1.857978513215e+01 0.0 
4.649823708745e+01 -1.338351810816e+01 0.0 
2.012685900976e+01 -2.889659035009e+00 0.0 
2.953271913273e+01 -1.791558075192e+01 0.0 
2.408509097292e+00 -1.021949208421e+01 0.0 
2.642589566221e+01 -1.773216561448e+01 0.0 
1.730010270775e+01 -1.763165076721e+01 0.0 
2.017406551304e+01 -8.513536440582e-01 0.0 
5.254761581934e-01 -1.249999999999e+01 0.0 
6.640448215642e+00 -1.545337834885e+00 0.0 
7.843361506349e+00 -1.852719839527e+01 0.0 
1.588442191088e+00 -1.066158564320e+01 0.0 
2.431250000000e+01 -2.420918367347e+00 0.0 
4.950961538461e+01 -2.500000000000e+00 0.0 
2.580823483239e+01 -3.416278049680e+00 0.0 
4.950961538461e+01 -3.500000000000e+00 0.0 
2.731250000000e+01 -4.420918367347e+00 0.0 
4.951086956522e+01 -4.500000000000e+00 0.0 
2.880770112393e+01 -5.415638864241e+00 0.0 
4.951086956522e+01 -5.500000000000e+00 0.0 
3.031250000000e+01 -6.420918367347e+00 0.0 
4.951250000000e+01 -6.500000000000e+00 0.0 
3.180701530612e+01 -7.414795918363e+00 0.0 
4.951250000000e+01 -7.500000000000e+00 0.0 
3.331250000000e+01 -8.420918367347e+00 0.0 
4.951470588234e+01 -8.500000000000e+00 0.0 
3.480610198624e+01 -9.413633635267e+00 0.0 
4.951470588234e+01 -9.500000000000e+00 0.0 

SCALARS node_number int
LOOKUP_TABLE default
1
2
3
4
5
6
7
8
9
10
11
12
13
14
15
16
17
18
19
20
21
22
23
24
25
26
27
28
29
30
31
32
33
34
35
36
37
38
39
40
41
42
43
44
45
46
47
48
49
50
51
52
53
54
55
56
57
58
59
60
61
62
63
64
65
66
67
68
69
70
71
72
73
74
75
76
77
78
79
80
81
82
84
85
86
87
88
89
90
91
92
93
95
96
97
98
99
100
101
102
104
105
106
107
108
109
110
111
112
113
114
115
116
117
118
119
120
121
122
123
124
125
126
127
128
129
130
131
132
133
134
135
136
194
195
196
197
198
199
200
201
202
203
204
205
206
207
208
209
210
211
212
213
214
215
216
217
218
219
220
221
222
223
224
225
226
227
228
229
230
231
232
233
234
235
236
237
238
239
240
241
242
243
244
245
246
247
248
249
250
251
252
253
254
255
256
257
258
259
260
261
262
263
264
265
266
267
268
269
270
271
272
273
274
275
276
277
278
279
280
281
282
283
284
285
286
287
288
289
290
291
292
293
294
295
296
297
298
299
300
301
302
303
304
305
306
307
308
309
310
311
312
313
314
315
316
317
318
319
320
321
322
323
324
325
326
327
328
329
330
331
332
333
334
335
336
337
338
339
340
341
342
343
344
345
346
347
348
349
350
351
352
353
354
355
356
357
358
359
360
361
362
363
364
365
366
367
368
369
370
371
372
373
374
375
376
377
378
379
380
381
382
383
384
385
386
387
388
389
390
391
392
393
394
395
396
397
398
399
400
401
402
403
404
405
406
407
408
409
410
411
412
413
414
415
416
417
418
419
420
421
422
423
424
425
426
427
428
429
430
431
432
433
434
435
436
437
438
439
440
441
442
443
444
445
446
447
448
449
450
451
452
453
454
455
456
457
458
459
460
461
462
463
464
465
466
467
468
469
470
471
472
473
474
475
476
477
478
479
480
481
482
483
484
485
486
487
488
489
490
491
492
493
494
495
496
497
498
499
500
501
502
503
504
505
506
507
508
509
510
511
512
513
514
515
516
517
518
519
520
521
522
523
524
525
526
527
528
529
530
531
532
533
534
535
536
537
538
539
540
541
542
543
544
545
546
547
548
549
550
551
552
553
554
555
556
557
558
559
560
561
562
563
564
565
566
567
568
569
570
571
572
573
574
575
576
577
578
579
580
581
582
583
584
585
586
587
588
589
590
591
592
593
594
595
596
597
598
599
600
601
602
603
604
605
606
607
608
609
610
611
612
613
614
615
616
617
618
619
620
621
622
623
624
625
626
627
628
629
630
631
632
633
634
635
636
637
638
639
640
641
642
643
644
645
646
647
648
649
650
651
652
653
654
655
656
657
658
659
660
661
662
663
664
665
666
667
668
669
670
671
672
673
674
675
676
677
678
679
680
681
682
683
684
685
686
687
688
689
690
691
692
693
694
695
696
697
698
699
700
701
702
703
704
705
706
707
708
709
710
711
712
713
714
715
716
717
718
719
720
721
722
723
724
725
726
727
728
729
730
731
732
733
734
735
736
737
738
739
740
741
742
743
744
745
746
747
748
749
750
751
752
753
754
755
756
757
758
759
760
761
762
763
764
765
766
767
768
769
770
771
772
773
774
775
776
777
778
779
780
781
782
783
784
785
786
787
788
789
790
791
792
793
794
795
796
797
798
799
800
801
802
803
804
805
806
807
808
809
810
811
812
813
814
815
816
817
818
819
820
821
822
823
824
825
826
827
828
829
830
831
832
833
834
835
836
837
838
839
840
841
842
843
844
845
846
847
848
849
850
851
852
853
854
855
856
857
858
859
860
861
862
863
864
865
866
867
868
869
870
871
872
873
874
875
876
877
878
879
880
881
882
883
884
885
886
887
888
889
890
891
892
893
894
895
896
897
898
899
900
901
902
903
904
905
906
907
908
909
910
911
912
913
914
915
916
917
918
919
920
921
922
923
924
925
926
927
928
929
930
931
932
933
934
935
936
937
938
939
940
941
942
943
944
945
946
947
948
949
950
951
952
953
954
955
956
957
958
959
960
961
962
963
964
965
966
967
968
969
970
971
972
973
974
975
976
977
978
979
980
981
982
983
984
985
986
987
988
989
990
991
992
993
994
995
996
997
998
999
1000
1001
1002
1003
1004
1005
1006
1007
1008
1009
1010
1011
1012
1013
1014
1015
1016
1017
1018
1019
1020
1021
1022
1023
1024
1025
1026
1027
1028
1029
1030
1031
1032
1033
1034
1035
1036
1037
1038
1039
1040
1041
1042
1043
1044
1045
1046
1047
1048
1049
1050
1051
1052
1053
1054
1055
1056
1057
1058
1059
1060
1061
1062
1063
1064
1065
1066
1067
1068
1069
1070
1071
1072
1073
1074
1075
1076
1077
1078
1079
1080
1081
1082
1083
1084
1085
1086
1087
1088
1089
1090
1091
1092
1093
1094
1095
1096
1097
1098
1099
1100
1101
1102
1103
1104
1105
1106
1107
1108
1109
1110
1111
1112
1113
1114
1115
1116
1117
1118
1119
1120
1121
1122
1123
1124
1125
1126
1127
1128
1129
1130
1131
1132
1133
1134
1135
1136
1137
1138
1139
1140
1141
1142
1143
1144
1145
1146
1147
1148
1149
1150
1151
1152
1153
1154
1155
1156
1157
1158
1159
1160
1161
1162
1163
1164
1165
1166
1167
1168
1169
1170
1171
1172
1173
1174
1175
1176
1177
1178
1179
1180
1181
1182
1183
1184
1185
1186
1187
1188
1189
1190
1191
1192
1193
1194
1195
1196
1197
1198
1199
1200
1201
1202
1203
1204
1205
1206
1207
1208
1209
1210
1211
1212
1213
1214
1215
1216
1217
1218
1219
1220
1221
1222
1223
1224
1225
1226
1227
1228
1229
1230
1231
1232
1233
1234
1235
1236
1237
1238
1239
1240
1241
1242
1243
1244
1245
1246
1247
1248
1249
1250
1251
1252
1253
1254
1255
1256
1257
1258
1259
1260
1261
1262
1263
1264
1269
1270
1271
1272
1273
1274
1275
1276
1277
1278
1279
1280
1281
1282
1283
1284

VECTORS node_mesh_deformation float
0.0 7.774855638212e-02 0.0 
0.000000000000e+00 8.304600430305e-02 0.0 
0.0 0.000000000000e+00 0.0 
0.000000000000e+00 0.000000000000e+00 0.0 
0.0 7.791203829145e-02 0.0 
0.0 7.757337607527e-02 0.0 
0.0 7.675282494840e-02 0.0 
0.0 7.545847220731e-02 0.0 
0.0 7.368226714719e-02 0.0 
0.0 7.146825902247e-02 0.0 
0.0 6.883930785299e-02 0.0 
0.0 6.580913703747e-02 0.0 
0.0 6.239474607859e-02 0.0 
0.0 5.860384306364e-02 0.0 
0.0 5.443458745363e-02 0.0 
0.0 4.989073076176e-02 0.0 
0.0 4.497857244410e-02 0.0 
0.0 3.970981596087e-02 0.0 
0.0 3.405255139716e-02 0.0 
0.0 2.801149895592e-02 0.0 
0.0 2.158648581820e-02 0.0 
0.0 1.477212417217e-02 0.0 
0.0 7.571106625271e-03 0.0 
0.000000000000e+00 0.000000000000e+00 0.0 
0.000000000000e+00 0.000000000000e+00 0.0 
0.000000000000e+00 0.000000000000e+00 0.0 
0.000000000000e+00 0.000000000000e+00 0.0 
0.000000000000e+00 0.000000000000e+00 0.0 
0.000000000000e+00 0.000000000000e+00 0.0 
0.000000000000e+00 0.000000000000e+00 0.0 
0.000000000000e+00 0.000000000000e+00 0.0 
0.000000000000e+00 0.000000000000e+00 0.0 
0.000000000000e+00 0.000000000000e+00 0.0 
0.000000000000e+00 0.000000000000e+00 0.0 
0.000000000000e+00 0.000000000000e+00 0.0 
0.000000000000e+00 0.000000000000e+00 0.0 
0.000000000000e+00 0.000000000000e+00 0.0 
0.000000000000e+00 0.000000000000e+00 0.0 
0.000000000000e+00 0.000000000000e+00 0.0 
0.000000000000e+00 0.000000000000e+00 0.0 
0.000000000000e+00 0.000000000000e+00 0.0 
0.000000000000e+00 0.000000000000e+00 0.0 
0.000000000000e+00 0.000000000000e+00 0.0 
0.000000000000e+00 0.000000000000e+00 0.0 
0.000000000000e+00 0.000000000000e+00 0.0 
0.000000000000e+00 0.000000000000e+00 0.0 
0.000000000000e+00 0.000000000000e+00 0.0 
0.000000000000e+00 0.000000000000e+00 0.0 
0.000000000000e+00 0.000000000000e+00 0.0 
0.000000000000e+00 0.000000000000e+00 0.0 
0.000000000000e+00 0.000000000000e+00 0.0 
0.000000000000e+00 0.000000000000e+00 0.0 
0.000000000000e+00 0.000000000000e+00 0.0 
0.000000000000e+00 0.000000000000e+00 0.0 
0.000000000000e+00 0.000000000000e+00 0.0 
0.000000000000e+00 0.000000000000e+00 0.0 
0.000000000000e+00 0.000000000000e+00 0.0 
0.000000000000e+00 0.000000000000e+00 0.0 
0.000000000000e+00 0.000000000000e+00 0.0 
0.000000000000e+00 0.000000000000e+00 0.0 
0.000000000000e+00 0.000000000000e+00 0.0 
0.000000000000e+00 0.000000000000e+00 0.0 
0.000000000000e+00 0.000000000000e+00 0.0 
0.000000000000e+00 0.000000000000e+00 0.0 
0.000000000000e+00 0.000000000000e+00 0.0 
0.000000000000e+00 0.000000000000e+00 0.0 
0.000000000000e+00 0.000000000000e+00 0.0 
0.000000000000e+00 0.000000000000e+00 0.0 
0.000000000000e+00 0.000000000000e+00 0.0 
0.000000000000e+00 0.000000000000e+00 0.0 
0.000000000000e+00 0.000000000000e+00 0.0 
0.000000000000e+00 0.000000000000e+00 0.0 
0.000000000000e+00 7.655606340738e-02 0.0 
0.000000000000e+00 6.964638382369e-02 0.0 
0.000000000000e+00 6.231710483262e-02 0.0 
0.000000000000e+00 5.458565592329e-02 0.0 
0.000000000000e+00 4.644836467034e-02 0.0 
0.000000000000e+00 3.791964322200e-02 0.0 
0.000000000000e+00 2.900396588514e-02 0.0 
0.000000000000e+00 1.970723697159e-02 0.0 
0.000000000000e+00 1.003831965654e-02 0.0 
-9.559869965031e-03 4.038366796978e-02 0.0 
7.781433476289e-03 8.058768374710e-02 0.0 
-3.004349519323e-03 6.217857167511e-02 0.0 
1.809839591800e-03 7.751380246968e-02 0.0 
5.696458277288e-03 8.657677975236e-02 0.0 
7.781962827572e-03 9.131096677784e-02 0.0 
8.913461117334e-03 9.341714910396e-02 0.0 
9.407750996012e-03 9.352621331329e-02 0.0 
9.444700814168e-03 9.204892720395e-02 0.0 
9.138093450360e-03 8.927062396378e-02 0.0 
8.561270695814e-03 8.539403185210e-02 0.0 
0.000000000000e+00 1.192698656078e-01 0.0 
0.000000000000e+00 1.162776887967e-01 0.0 
0.000000000000e+00 1.128345626093e-01 0.0 
0.000000000000e+00 1.089860466543e-01 0.0 
0.000000000000e+00 1.046607222900e-01 0.0 
0.000000000000e+00 9.992811974576e-02 0.0 
0.000000000000e+00 9.472062344523e-02 0.0 
0.000000000000e+00 8.911260961218e-02 0.0 
4.349774925458e-04 8.304553060565e-02 0.0 
8.590729619300e-04 8.304216504765e-02 0.0 
1.294340972343e-03 8.303369717578e-02 0.0 
1.737834335955e-03 8.301210564347e-02 0.0 
2.189043712008e-03 8.298998463899e-02 0.0 
2.652231274880e-03 8.294111007604e-02 0.0 
3.132938103377e-03 8.288074413455e-02 0.0 
3.624001165164e-03 8.278693574962e-02 0.0 
4.144636959076e-03 8.267247184706e-02 0.0 
4.688472525395e-03 8.250335691753e-02 0.0 
5.253441574780e-03 8.228175380678e-02 0.0 
5.845061026463e-03 8.199853350840e-02 0.0 
6.461567890739e-03 8.163252864523e-02 0.0 
7.105431137859e-03 8.116433471178e-02 0.0 
-7.210835864296e-03 2.805756031448e-02 0.0 
-3.646456228036e-03 2.212270869259e-02 0.0 
2.094019447334e-04 2.043791796919e-02 0.0 
4.296217726509e-03 2.318131425209e-02 0.0 
7.045411880489e-03 3.254411489178e-02 0.0 
8.322607955474e-03 4.343645100709e-02 0.0 
8.601129384786e-03 5.079972411509e-02 0.0 
8.392121405450e-03 5.654294516841e-02 0.0 
7.664531176337e-03 6.114768397627e-02 0.0 
6.959122870430e-03 6.484137099104e-02 0.0 
6.293329017016e-03 6.784521254102e-02 0.0 
5.584581676036e-03 7.023384613178e-02 0.0 
4.933471549473e-03 7.220143642572e-02 0.0 
4.179855321308e-03 7.379796279388e-02 0.0 
3.455275141197e-03 7.507669884358e-02 0.0 
2.774344631665e-03 7.606198986475e-02 0.0 
2.108790924431e-03 7.681953755104e-02 0.0 
1.444248446574e-03 7.736753712149e-02 0.0 
7.305998724523e-04 7.766777683095e-02 0.0 
6.202003767761e-04 8.621476335100e-02 0.0 
5.537070035189e-04 9.259323376889e-02 0.0 
5.373851630601e-04 9.762448549856e-02 0.0 
6.816287719538e-04 1.016956572165e-01 0.0 
1.000200226827e-03 1.050368998677e-01 0.0 
1.329028886158e-03 1.077647408296e-01 0.0 
1.622008402716e-03 1.100075650320e-01 0.0 
1.858474069383e-03 1.118543326390e-01 0.0 
2.071922588264e-03 1.133769521657e-01 0.0 
2.250774724793e-03 1.146255775594e-01 0.0 
2.389145785585e-03 1.156440259740e-01 0.0 
2.484282721419e-03 1.164691970987e-01 0.0 
2.535623416350e-03 1.171324590642e-01 0.0 
2.543936882674e-03 1.176606519863e-01 0.0 
2.511011550361e-03 1.180767932970e-01 0.0 
2.439298860224e-03 1.184005776849e-01 0.0 
2.331679314430e-03 1.186488488432e-01 0.0 
2.191291331030e-03 1.188359833390e-01 0.0 
2.021451043298e-03 1.189742232982e-01 0.0 
1.825626828072e-03 1.190739359389e-01 0.0 
1.607472607866e-03 1.191438340849e-01 0.0 
1.370938370599e-03 1.191911738740e-01 0.0 
1.120493129534e-03 1.192219530472e-01 0.0 
8.614909347315e-04 1.192412520144e-01 0.0 
6.005490492669e-04 1.192555901696e-01 0.0 
3.397218692669e-04 1.192950090575e-01 0.0 
4.889420442986e-03 9.223426484397e-02 0.0 
4.382870323891e-03 9.674210570852e-02 0.0 
4.044723826947e-03 1.004294839769e-01 0.0 
3.833907617619e-03 1.034485168114e-01 0.0 
3.702122408320e-03 1.059142885196e-01 0.0 
3.614819415017e-03 1.079464231626e-01 0.0 
3.551847829833e-03 1.096269471869e-01 0.0 
3.498793724916e-03 1.110106580824e-01 0.0 
3.444076990682e-03 1.121432026380e-01 0.0 
3.379800343843e-03 1.130651649920e-01 0.0 
3.300365859118e-03 1.138100910925e-01 0.0 
3.202314050007e-03 1.144069423934e-01 0.0 
3.083655042943e-03 1.148803531876e-01 0.0 
2.943569166781e-03 1.152515185822e-01 0.0 
2.782111395049e-03 1.155385784772e-01 0.0 
2.600006935097e-03 1.157570869876e-01 0.0 
2.398463017357e-03 1.159203273424e-01 0.0 
2.179045880169e-03 1.160396247304e-01 0.0 
1.943602221957e-03 1.161246029371e-01 0.0 
1.694208393573e-03 1.161834039982e-01 0.0 
1.433116663044e-03 1.162228797970e-01 0.0 
1.162651251107e-03 1.162487435000e-01 0.0 
8.848797978587e-04 1.162655234644e-01 0.0 
6.001780666125e-04 1.162745221660e-01 0.0 
3.022039490901e-04 1.162530755033e-01 0.0 
3.214786790835e-04 1.128666756076e-01 0.0 
6.423399070172e-04 1.128491219438e-01 0.0 
9.578686275873e-04 1.128414736709e-01 0.0 
1.268243053602e-03 1.128271929558e-01 0.0 
1.573312583005e-03 1.128031959582e-01 0.0 
1.872407970254e-03 1.127650087998e-01 0.0 
2.164611396935e-03 1.127066935856e-01 0.0 
2.448977448068e-03 1.126208943032e-01 0.0 
2.724719534513e-03 1.124987257071e-01 0.0 
2.991332028579e-03 1.123296091783e-01 0.0 
3.248704415356e-03 1.121010300216e-01 0.0 
3.497238208887e-03 1.117982399428e-01 0.0 
3.737999690159e-03 1.114038703062e-01 0.0 
3.973038433955e-03 1.108976105298e-01 0.0 
4.205459622810e-03 1.102556730076e-01 0.0 
4.440002362031e-03 1.094503695820e-01 0.0 
4.682717386864e-03 1.084488102570e-01 0.0 
4.942917535935e-03 1.072132623550e-01 0.0 
5.230595733924e-03 1.056969749872e-01 0.0 
5.563308855745e-03 1.038491718409e-01 0.0 
5.958474050949e-03 1.015911883082e-01 0.0 
6.452459605423e-03 9.884597285210e-02 0.0 
7.029779538808e-03 9.547468756227e-02 0.0 
8.196126778710e-03 9.639596487321e-02 0.0 
7.590809278938e-03 9.885633413226e-02 0.0 
7.033164428673e-03 1.008674644687e-01 0.0 
6.542495981929e-03 1.025358411786e-01 0.0 
6.097015717906e-03 1.039001862541e-01 0.0 
5.689846536463e-03 1.050176917390e-01 0.0 
5.309855703644e-03 1.059225094964e-01 0.0 
4.950581571968e-03 1.066512673303e-01 0.0 
4.605697714148e-03 1.072316963673e-01 0.0 
4.270612301234e-03 1.076892760722e-01 0.0 
3.941589857682e-03 1.080451794381e-01 0.0 
3.616094326702e-03 1.083180725251e-01 0.0 
3.292250961437e-03 1.085236787310e-01 0.0 
2.968707584664e-03 1.086754038594e-01 0.0 
2.644572410127e-03 1.087846626073e-01 0.0 
2.319320732418e-03 1.088610960096e-01 0.0 
1.992722652155e-03 1.089127870833e-01 0.0 
1.664617810910e-03 1.089462715525e-01 0.0 
1.334809611500e-03 1.089666841304e-01 0.0 
1.003005996999e-03 1.089777023043e-01 0.0 
6.691342350535e-04 1.089805010424e-01 0.0 
3.345313176482e-04 1.089565726014e-01 0.0 
3.650284751302e-04 1.046914902908e-01 0.0 
7.305934002559e-04 1.046722140572e-01 0.0 
1.096674050423e-03 1.046672005293e-01 0.0 
1.463562534667e-03 1.046559346363e-01 0.0 
1.831951783679e-03 1.046344747163e-01 0.0 
2.202708191575e-03 1.045986708960e-01 0.0 
2.576810837958e-03 1.045429944913e-01 0.0 
2.955175180823e-03 1.044604711831e-01 0.0 
3.338898726540e-03 1.043421484769e-01 0.0 
3.729481512856e-03 1.041773663882e-01 0.0 
4.128862621364e-03 1.039534554486e-01 0.0 
4.539294255757e-03 1.036556557219e-01 0.0 
4.963410979400e-03 1.032666261809e-01 0.0 
5.404284062614e-03 1.027651319702e-01 0.0 
5.867105811838e-03 1.021278227668e-01 0.0 
6.355876321123e-03 1.013259924835e-01 0.0 
6.878955700529e-03 1.003307352840e-01 0.0 
7.437674492785e-03 9.909753422874e-02 0.0 
8.048564674429e-03 9.759905949832e-02 0.0 
8.690252574205e-03 9.575755428626e-02 0.0 
8.753791398060e-03 9.364305641174e-02 0.0 
8.114718215445e-03 9.497028506489e-02 0.0 
7.490794218427e-03 9.604218181647e-02 0.0 
6.907693949699e-03 9.692722112951e-02 0.0 
6.354510402900e-03 9.763581329288e-02 0.0 
5.831309855346e-03 9.820425438107e-02 0.0 
5.331700340328e-03 9.865046283932e-02 0.0 
4.853552047130e-03 9.899867331474e-02 0.0 
4.394100976413e-03 9.926642098649e-02 0.0 
3.951025861504e-03 9.946859454145e-02 0.0 
3.521919544085e-03 9.961791936576e-02 0.0 
3.104252182887e-03 9.972560165556e-02 0.0 
2.696567854493e-03 9.980142812984e-02 0.0 
2.297399266347e-03 9.985331304718e-02 0.0 
1.905195000177e-03 9.988699244744e-02 0.0 
1.518390626870e-03 9.990735448725e-02 0.0 
1.135738963420e-03 9.991806274546e-02 0.0 
7.558423581315e-04 9.992086612910e-02 0.0 
3.776405761613e-04 9.989807839775e-02 0.0 
4.065649101364e-04 9.474933665499e-02 0.0 
8.140926324316e-04 9.472969149221e-02 0.0 
1.223932207282e-03 9.472401834166e-02 0.0 
1.639203427430e-03 9.471068737977e-02 0.0 
2.060879652369e-03 9.468694324433e-02 0.0 
2.491759666782e-03 9.464791604979e-02 0.0 
2.933294886581e-03 9.458888096259e-02 0.0 
3.388693739652e-03 9.450345584891e-02 0.0 
3.858206173447e-03 9.438408159025e-02 0.0 
4.345196418825e-03 9.421775291507e-02 0.0 
4.852775788976e-03 9.399307133848e-02 0.0 
5.382611409210e-03 9.369716973785e-02 0.0 
5.937414413630e-03 9.331319943104e-02 0.0 
6.520203567334e-03 9.282339724896e-02 0.0 
7.128854346995e-03 9.219511576277e-02 0.0 
7.776417841256e-03 9.142036274011e-02 0.0 
8.436926810369e-03 9.044732688080e-02 0.0 
7.892567819532e-03 8.620815525294e-02 0.0 
7.258116590748e-03 8.688978694511e-02 0.0 
6.630248888435e-03 8.741459290379e-02 0.0 
6.034684716774e-03 8.783984555540e-02 0.0 
5.466475548552e-03 8.817392320829e-02 0.0 
4.922592675612e-03 8.843299058119e-02 0.0 
4.402185487081e-03 8.863317158224e-02 0.0 
3.903880602664e-03 8.878159821085e-02 0.0 
3.422834808902e-03 8.888666529984e-02 0.0 
2.960623163261e-03 8.896777099938e-02 0.0 
2.511552917937e-03 8.902226838225e-02 0.0 
2.076389447964e-03 8.906110946787e-02 0.0 
1.649368641509e-03 8.908321305691e-02 0.0 
1.231601140717e-03 8.909810910378e-02 0.0 
8.202006716118e-04 8.910117120293e-02 0.0 
4.075533033685e-04 8.907740745770e-02 0.0 
-5.930505074044e-03 5.275588734019e-02 0.0 
-3.766906004579e-04 7.045268392824e-02 0.0 
4.054563614883e-03 8.266805732561e-02 0.0 
6.937129465420e-03 8.933398458453e-02 0.0 
8.473780422559e-03 9.264497964520e-02 0.0 
9.237871760764e-03 9.368026888193e-02 0.0 
9.484437425218e-03 9.296110977441e-02 0.0 
9.336675165937e-03 9.080764839277e-02 0.0 
8.887042183666e-03 8.745801579236e-02 0.0 
8.199182582878e-03 8.309781578415e-02 0.0 
5.271266501996e-03 6.913830801926e-02 0.0 
1.041439922226e-03 6.174997027717e-03 0.0 
4.225290266088e-03 6.312111186742e-02 0.0 
1.034179210368e-03 2.954573664330e-02 0.0 
1.045685475809e-04 6.176401125263e-03 0.0 
9.627920781451e-03 8.637619725972e-02 0.0 
-3.123500353219e-04 5.642455152391e-02 0.0 
1.850007304615e-03 6.545479611631e-03 0.0 
1.058613948389e-02 8.962004940644e-02 0.0 
2.207123393717e-03 6.927817353940e-03 0.0 
9.998864574914e-03 8.600193286171e-02 0.0 
-2.092260557003e-04 5.865383950219e-03 0.0 
3.182334628560e-03 7.330939149870e-02 0.0 
2.152398164771e-03 7.623579209596e-03 0.0 
8.409333030201e-03 7.748361423709e-02 0.0 
-2.412151703971e-04 7.004213031938e-02 0.0 
-2.695860916243e-04 4.342164510547e-02 0.0 
1.944074689316e-03 8.329685835701e-03 0.0 
1.359479071688e-03 8.273706675510e-03 0.0 
4.220089622393e-04 8.584988480401e-03 0.0 
7.558028205494e-04 9.269181421992e-03 0.0 
9.860697975839e-04 8.223057619528e-03 0.0 
6.828678683675e-03 7.572972821511e-02 0.0 
4.454212651581e-03 7.674916970495e-02 0.0 
2.911130785030e-03 7.691429386071e-02 0.0 
2.887459859338e-04 5.044337160001e-02 0.0 
-2.326408385080e-04 6.497117025358e-03 0.0 
-1.316317318178e-03 2.812156895175e-02 0.0 
1.789456512153e-03 7.657810140401e-02 0.0 
-1.738528503210e-04 2.532043623358e-02 0.0 
1.489208190819e-03 7.746488804418e-02 0.0 
3.702914027748e-05 7.609942718748e-02 0.0 
1.852304791612e-03 9.390762400681e-03 0.0 
1.934674239038e-03 6.199046817201e-03 0.0 
2.203552931036e-03 7.181971967942e-03 0.0 
1.585205671930e-03 6.703771076303e-03 0.0 
5.786087981772e-04 5.824069338868e-03 0.0 
3.028862666062e-03 4.716850586117e-02 0.0 
5.592194846841e-03 7.671658779521e-02 0.0 
-1.348641897074e-04 7.153517082742e-03 0.0 
2.135154042477e-04 3.389187124445e-02 0.0 
3.894442897732e-03 6.916223757367e-02 0.0 
-3.111931634318e-04 6.407579728352e-02 0.0 
2.094139308184e-04 6.999580831216e-03 0.0 
1.041465976908e-02 8.880993600932e-02 0.0 
8.184334241214e-03 8.033996349182e-02 0.0 
1.044557541183e-02 8.853062025840e-02 0.0 
9.302012550400e-03 8.226156271581e-02 0.0 
4.349265106889e-04 5.260206933339e-02 0.0 
3.477356307755e-04 6.515819100909e-02 0.0 
-1.172986316926e-04 5.192480169470e-03 0.0 
8.227632824980e-04 7.767628498111e-02 0.0 
1.162215985389e-04 1.565048251409e-02 0.0 
8.002208476086e-03 7.462363366722e-02 0.0 
8.470825302552e-03 7.144877381876e-02 0.0 
7.783021495094e-03 6.894545157317e-02 0.0 
8.322875780891e-03 6.511899663750e-02 0.0 
7.643209249160e-03 6.180978310072e-02 0.0 
8.022979403904e-03 5.826435989431e-02 0.0 
8.764661102212e-03 6.152129986842e-02 0.0 
8.340866201550e-03 5.462969013097e-02 0.0 
9.134045804075e-03 5.789343848026e-02 0.0 
7.264997515499e-03 5.469452888992e-02 0.0 
8.574645483016e-03 5.091737995201e-02 0.0 
9.414282329228e-03 5.417837429279e-02 0.0 
8.712829334517e-03 4.715638161086e-02 0.0 
9.586704451053e-03 5.039247239747e-02 0.0 
1.022122995790e-02 5.716174608233e-02 0.0 
1.042366177058e-02 5.336479987141e-02 0.0 
1.098310264006e-02 5.982588421134e-02 0.0 
1.120724367786e-02 5.599409665898e-02 0.0 
1.049668363591e-02 4.954402234751e-02 0.0 
1.128773754638e-02 5.214834180880e-02 0.0 
1.192783100549e-02 5.826652901481e-02 0.0 
1.200129755534e-02 5.437911281401e-02 0.0 
1.257339528735e-02 6.014471306312e-02 0.0 
1.262320163553e-02 5.618922929606e-02 0.0 
1.313792825767e-02 6.160790686915e-02 0.0 
1.314479267863e-02 5.757758392605e-02 0.0 
1.248121648254e-02 5.227560225616e-02 0.0 
1.294043107293e-02 5.363034142499e-02 0.0 
1.354779731427e-02 5.850947453483e-02 0.0 
1.325855250447e-02 5.453340549213e-02 0.0 
1.381413393019e-02 5.896069815173e-02 0.0 
1.341370999932e-02 5.496645036705e-02 0.0 
1.274205720696e-02 5.071881931695e-02 0.0 
1.277307907385e-02 5.120318555625e-02 0.0 
1.338146524654e-02 5.492724303807e-02 0.0 
1.259416914310e-02 5.126273458933e-02 0.0 
1.313243554586e-02 5.441929581373e-02 0.0 
1.217920221669e-02 5.091907483119e-02 0.0 
1.263600655140e-02 5.345859158495e-02 0.0 
1.149612664814e-02 5.021076314774e-02 0.0 
1.102999619036e-02 4.781739600938e-02 0.0 
1.018818974706e-02 4.744082560362e-02 0.0 
1.052154462078e-02 4.921361833401e-02 0.0 
9.071220649151e-03 4.689697717944e-02 0.0 
8.796436177647e-03 4.514573930816e-02 0.0 
7.594341113389e-03 4.510193328383e-02 0.0 
7.391391485228e-03 4.326326954462e-02 0.0 
6.161947852029e-03 4.372700641010e-02 0.0 
6.179732226045e-03 4.509965323916e-02 0.0 
4.771247527863e-03 4.429240209637e-02 0.0 
4.828833470294e-03 4.265760573883e-02 0.0 
3.508813494006e-03 4.375403416004e-02 0.0 
3.269587681645e-03 4.509011998205e-02 0.0 
2.147989057507e-03 4.507076311852e-02 0.0 
2.420825765226e-03 4.334060804466e-02 0.0 
1.213384249123e-03 4.510602669167e-02 0.0 
8.179556720140e-04 4.669181161374e-02 0.0 
8.102318001768e-05 4.711790193374e-02 0.0 
4.684124604264e-04 4.505819411157e-02 0.0 
-4.819946798911e-04 4.740362464245e-02 0.0 
-9.157335749101e-04 4.940785036113e-02 0.0 
-1.277471735806e-03 4.992417897488e-02 0.0 
-8.893071375802e-04 4.746020622531e-02 0.0 
-1.514051359326e-03 5.018376703660e-02 0.0 
-1.171975494934e-03 4.728564992648e-02 0.0 
-1.891198445280e-03 5.266565090575e-02 0.0 
-1.962941447404e-03 5.301742180066e-02 0.0 
-2.284487451007e-03 5.555017075060e-02 0.0 
-2.220324949256e-03 5.591562912153e-02 0.0 
1.201820293618e-02 4.710801890159e-02 0.0 
-2.441354469276e-03 5.845803311977e-02 0.0 
-2.558111083857e-03 5.768595714628e-02 0.0 
-2.285313243472e-03 5.881038862201e-02 0.0 
-2.105437428156e-03 5.594024953688e-02 0.0 
-2.383268637188e-03 6.134624259020e-02 0.0 
-2.177477560674e-03 6.164011823980e-02 0.0 
-2.143268752528e-03 6.413776802541e-02 0.0 
1.354129474661e-02 5.728729082968e-02 0.0 
1.042506445316e-02 4.571690113383e-02 0.0 
-1.929631891791e-03 6.434327890397e-02 0.0 
-1.771024248946e-03 6.676140588652e-02 0.0 
-1.938467705680e-03 6.631453065771e-02 0.0 
-1.426980860384e-03 6.883747816387e-02 0.0 
6.933059084190e-03 5.834694151253e-02 0.0 
6.487744258749e-03 5.090128029896e-02 0.0 
6.211881747539e-03 5.464831184003e-02 0.0 
5.701220923093e-03 4.693287786686e-02 0.0 
5.479965042184e-03 5.070266454513e-02 0.0 
-1.326179505418e-03 6.915965099422e-02 0.0 
7.804576470164e-03 4.346425716533e-02 0.0 
5.854955114330e-03 4.304200626843e-02 0.0 
1.234330477553e-02 6.410843855446e-02 0.0 
1.395484614025e-02 6.312746942500e-02 0.0 
8.412696398899e-03 4.279756717876e-02 0.0 
-1.950425306312e-03 6.158580422233e-02 0.0 
-1.697127811531e-03 6.421527664077e-02 0.0 
-1.699913563230e-03 6.120984446247e-02 0.0 
-5.629295554588e-04 4.452772606798e-02 0.0 
-8.820737407493e-04 4.395828275603e-02 0.0 
-3.116315050171e-04 4.112605192730e-02 0.0 
-6.528343361634e-04 4.018596820495e-02 0.0 
-1.380518608958e-04 3.725048719203e-02 0.0 
-4.851148182166e-04 3.595636835239e-02 0.0 
-8.824833124841e-04 3.903806510143e-02 0.0 
-7.194692645491e-04 3.446492024318e-02 0.0 
-1.013664887196e-03 3.767220628968e-02 0.0 
-3.680397148109e-05 3.289693956578e-02 0.0 
4.230492085906e-04 3.436016019551e-02 0.0 
-8.542080537133e-04 3.277383060690e-02 0.0 
-1.059257542853e-03 3.608445037584e-02 0.0 
-9.026689676910e-04 3.087767846190e-02 0.0 
-1.032358994593e-03 3.428007056177e-02 0.0 
-1.196463943494e-03 3.936715776750e-02 0.0 
-1.098107567929e-03 3.763528015233e-02 0.0 
-1.257123230694e-03 4.260004649838e-02 0.0 
7.071620066775e-03 4.081010162002e-02 0.0 
7.917020966879e-03 3.986553639495e-02 0.0 
6.633596952877e-03 3.776445254060e-02 0.0 
7.300598259974e-03 3.636604188401e-02 0.0 
6.074846406850e-03 3.414243059439e-02 0.0 
6.560401011388e-03 3.231439744392e-02 0.0 
5.394320496535e-03 2.995694603331e-02 0.0 
4.905256381981e-03 3.206696503509e-02 0.0 
8.748302551176e-03 4.331518132034e-02 0.0 
9.233854605096e-03 4.802884952447e-02 0.0 
1.074074145831e-02 5.041138124700e-02 0.0 
9.282546935300e-03 4.851475428401e-02 0.0 
1.083369953992e-02 5.101388227724e-02 0.0 
9.205968440039e-03 4.831160195240e-02 0.0 
1.078849624686e-02 5.101362506551e-02 0.0 
8.999349283190e-03 4.738300099671e-02 0.0 
7.198368234743e-03 4.563900183771e-02 0.0 
6.770036019482e-03 4.378224162340e-02 0.0 
4.851409272465e-03 4.333062451789e-02 0.0 
4.179687112064e-03 4.069193957479e-02 0.0 
2.313701206344e-03 4.177361770925e-02 0.0 
1.214529667855e-02 4.845010621214e-02 0.0 
7.757041498209e-03 3.481792578684e-02 0.0 
6.837921471174e-03 3.031654136731e-02 0.0 
7.988579057482e-03 3.305806205334e-02 0.0 
-1.499512879134e-03 6.816947127913e-02 0.0 
-9.467175960332e-04 3.226507754809e-02 0.0 
4.332593559528e-04 2.985414772397e-02 0.0 
9.924222171573e-04 3.154786708108e-02 0.0 
4.292813243815e-03 2.769991439359e-02 0.0 
-8.855979365938e-04 7.108142592511e-02 0.0 
1.057669706982e-02 5.042215306034e-02 0.0 
1.204572505631e-02 5.480594159550e-02 0.0 
4.921552610327e-03 4.271587702712e-02 0.0 
4.756622290635e-03 4.654668746048e-02 0.0 
8.911139633785e-04 2.682465292959e-02 0.0 
-8.679160808081e-04 7.129487762979e-02 0.0 
-5.962691399599e-04 2.944611021479e-02 0.0 
6.163357787830e-03 4.099014332353e-02 0.0 
-9.543696735648e-04 3.569018042422e-02 0.0 
-8.163096659359e-04 3.005536854553e-02 0.0 
-1.204591766706e-03 4.212164788780e-02 0.0 
6.894848762879e-03 2.809736148012e-02 0.0 
8.010241385954e-03 3.111725957847e-02 0.0 
3.117806554108e-03 4.392629054278e-02 0.0 
8.083913241528e-04 4.367358808439e-02 0.0 
-1.739905845692e-04 4.135431817017e-02 0.0 
-1.253113877793e-03 4.465873874753e-02 0.0 
-3.086256755207e-04 4.597545772834e-02 0.0 
-1.940267689188e-03 4.768654520055e-02 0.0 
-2.724780798468e-03 4.668461836290e-02 0.0 
-3.016851565711e-03 5.030166237070e-02 0.0 
-2.343912159334e-03 5.051596590002e-02 0.0 
-3.056273192808e-03 5.342048137401e-02 0.0 
-3.338164249111e-03 5.362592618767e-02 0.0 
-3.167820469026e-03 5.675653254093e-02 0.0 
-7.977698945822e-04 2.647867611271e-02 0.0 
3.351524231572e-03 3.713660374754e-02 0.0 
1.063147770823e-02 6.359895413852e-02 0.0 
3.791037537066e-04 2.484198679967e-02 0.0 
4.606850048607e-03 2.528323208216e-02 0.0 
4.160453524861e-03 3.829957009224e-02 0.0 
4.050291298206e-03 4.219724824479e-02 0.0 
4.534931109831e-03 5.034025588413e-02 0.0 
3.879147789107e-03 4.603640352565e-02 0.0 
3.370331544694e-03 3.765973868611e-02 0.0 
3.249179804264e-03 4.157068926947e-02 0.0 
3.657070939617e-03 4.981536021143e-02 0.0 
3.073423209862e-03 4.541334879688e-02 0.0 
3.392773080265e-03 5.351424589924e-02 0.0 
2.852057264086e-03 4.917735223046e-02 0.0 
2.520919092412e-03 4.085343984534e-02 0.0 
2.339674130127e-03 4.469749658089e-02 0.0 
2.593215735608e-03 5.286473142651e-02 0.0 
2.116234428911e-03 4.846330473043e-02 0.0 
2.302874814887e-03 5.646474269367e-02 0.0 
1.857128652233e-03 5.214478345130e-02 0.0 
1.672290480599e-03 4.392585214241e-02 0.0 
-4.046313271422e-04 7.293873381792e-02 0.0 
3.823303285445e-03 3.008678585386e-02 0.0 
3.283145496217e-03 2.549432043902e-02 0.0 
-1.451671465369e-03 6.374393281683e-02 0.0 
-1.434760505561e-03 6.050156545534e-02 0.0 
-1.633042503219e-03 5.784082938068e-02 0.0 
-1.364952805311e-03 5.692986990513e-02 0.0 
1.438505526174e-03 4.773121302839e-02 0.0 
1.264024779012e-03 3.926428847151e-02 0.0 
1.168011757008e-02 5.482200711277e-02 0.0 
1.278834358667e-02 5.966904192609e-02 0.0 
4.198678632761e-03 3.434445525134e-02 0.0 
-7.778257245792e-04 3.354642201636e-02 0.0 
-8.987900653006e-04 3.902952063801e-02 0.0 
1.417623243621e-02 6.311190699607e-02 0.0 
1.413788101412e-02 6.748313966946e-02 0.0 
1.431642862287e-02 6.702647214199e-02 0.0 
1.406092851438e-02 7.169394284730e-02 0.0 
1.381915227223e-02 7.193247405718e-02 0.0 
1.418629644240e-02 7.080228113830e-02 0.0 
1.012235713439e-03 3.574721560068e-02 0.0 
2.007352052040e-03 3.615055425383e-02 0.0 
-2.095295822837e-03 6.549191649164e-02 0.0 
-1.543061592311e-03 6.713665236200e-02 0.0 
-6.552190155209e-04 2.766582942975e-02 0.0 
4.249967032852e-03 3.410724433305e-02 0.0 
1.161771102661e-02 4.666536959530e-02 0.0 
1.116100341223e-02 4.291991144699e-02 0.0 
1.055014184553e-02 4.070250763790e-02 0.0 
9.981908529156e-03 3.702308845137e-02 0.0 
9.271911094867e-03 3.437262927439e-02 0.0 
8.595774721915e-03 3.074267110429e-02 0.0 
9.265808239412e-03 3.345315371346e-02 0.0 
6.720041201977e-03 2.558771590212e-02 0.0 
7.789777559029e-03 2.719501390250e-02 0.0 
1.594719065089e-03 5.580847583098e-02 0.0 
8.946053912144e-03 3.754989549280e-02 0.0 
-2.548344547490e-03 5.294573449340e-02 0.0 
-2.725164800319e-04 7.250530492913e-02 0.0 
-2.804905446624e-03 5.739806187202e-02 0.0 
-4.572019024942e-04 7.311520975381e-02 0.0 
-7.949693152498e-04 7.119863430026e-02 0.0 
7.236859088167e-04 2.160228020526e-02 0.0 
7.767301545680e-03 2.766032101287e-02 0.0 
8.425237736976e-03 3.135536601610e-02 0.0 
1.349831038943e-02 7.638266304287e-02 0.0 
1.324686174413e-02 7.635305084538e-02 0.0 
5.641578161800e-03 2.262052515980e-02 0.0 
5.880184618043e-03 5.838601651951e-02 0.0 
3.954123601986e-03 5.770075998850e-02 0.0 
3.614376636854e-03 6.124039091082e-02 0.0 
4.313318392546e-05 7.460986308154e-02 0.0 
-2.872237740743e-03 5.368308541297e-02 0.0 
2.727922712381e-03 3.296013645417e-02 0.0 
1.309281881570e-02 5.867089904321e-02 0.0 
1.351997260678e-02 6.372006763905e-02 0.0 
5.086090208362e-03 3.757829806014e-02 0.0 
2.407032607405e-03 3.314001492340e-02 0.0 
1.066612853265e-03 4.306336080170e-02 0.0 
9.099132099308e-04 3.446676253406e-02 0.0 
-1.519784385539e-03 5.412520281817e-02 0.0 
-1.260565014280e-03 5.296514541999e-02 0.0 
1.304395741375e-03 2.376511229803e-02 0.0 
-2.666889353328e-03 6.025292120364e-02 0.0 
1.041217227367e-03 3.043315359123e-02 0.0 
3.210896584919e-03 3.240845316378e-02 0.0 
3.459612449566e-03 3.612892132620e-02 0.0 
-1.135503705668e-03 5.959966439248e-02 0.0 
1.208002778345e-02 6.043681372115e-02 0.0 
1.078172953012e-02 5.455061134310e-02 0.0 
-1.636807046543e-03 5.033824370155e-02 0.0 
-2.947116605746e-03 5.919983661595e-02 0.0 
-4.453851421573e-04 7.295051738589e-02 0.0 
9.994555531669e-04 1.831243302943e-02 0.0 
2.734868971345e-03 2.891765092932e-02 0.0 
8.424646725114e-03 3.000947985686e-02 0.0 
9.769461430974e-03 3.582077027392e-02 0.0 
6.881500650962e-03 2.376659754901e-02 0.0 
-1.695088742791e-03 6.112574978805e-02 0.0 
2.789082571404e-04 1.931288470518e-02 0.0 
-5.808705192676e-04 3.122234962746e-02 0.0 
6.871746706047e-03 2.455982722956e-02 0.0 
7.455348006335e-03 2.799188070021e-02 0.0 
1.377947289209e-02 6.188141310988e-02 0.0 
1.396074546592e-02 6.695504386408e-02 0.0 
1.335819302501e-02 6.939580586458e-02 0.0 
1.361572216020e-02 7.238201753103e-02 0.0 
9.479800675450e-03 6.455710171541e-02 0.0 
1.417669037056e-02 6.438379818398e-02 0.0 
1.131583260901e-02 6.597134927856e-02 0.0 
1.082564466563e-02 6.970435115965e-02 0.0 
1.142056259974e-02 7.180129650514e-02 0.0 
1.347838850249e-02 7.167412742456e-02 0.0 
1.289674382692e-02 7.587669273710e-02 0.0 
1.208179083613e-02 5.352224078027e-02 0.0 
9.210019128695e-03 4.223099676710e-02 0.0 
-1.749207408299e-03 5.501523154539e-02 0.0 
-1.374745586667e-03 4.402581891399e-02 0.0 
1.548310207138e-04 4.187270909003e-02 0.0 
2.098952955102e-03 3.215653508227e-02 0.0 
1.594914845874e-03 2.722863225452e-02 0.0 
2.771746639901e-03 6.064710415217e-02 0.0 
2.426962021325e-03 6.407468701511e-02 0.0 
-7.591302086007e-04 6.968627648719e-02 0.0 
-6.109372779006e-04 6.843412738164e-02 0.0 
-1.347401940704e-03 4.685604722277e-02 0.0 
-3.252591517011e-06 2.272448759867e-02 0.0 
3.410580419782e-03 2.968049384284e-02 0.0 
3.306866626843e-03 2.560028689745e-02 0.0 
4.152550706692e-03 3.032509837843e-02 0.0 
1.633463887339e-03 2.065204127452e-02 0.0 
7.654997743202e-03 4.682671573475e-02 0.0 
5.778122958539e-03 3.908843701769e-02 0.0 
8.399381272675e-04 3.483862725150e-02 0.0 
1.191345150067e-02 4.613577213005e-02 0.0 
3.377292469633e-04 7.081969438508e-02 0.0 
9.567735504529e-03 4.281054957052e-02 0.0 
-4.780728888996e-04 2.511115836524e-02 0.0 
-5.253803784044e-04 2.138090578396e-02 0.0 
5.287335126905e-03 1.969684045999e-02 0.0 
9.039174864789e-03 7.422700634064e-02 0.0 
1.112107115864e-02 4.263465626999e-02 0.0 
1.112300317504e-02 4.374817523534e-02 0.0 
1.080508672241e-02 7.545614521569e-02 0.0 
1.130110347368e-02 7.729751010125e-02 0.0 
1.195867327058e-02 7.354523384503e-02 0.0 
1.173527357541e-02 7.882851158057e-02 0.0 
-1.974103136400e-03 5.212958935800e-02 0.0 
-2.624393602296e-03 5.491548242872e-02 0.0 
5.957824945256e-03 2.033459333220e-02 0.0 
6.148511326021e-03 2.073365337801e-02 0.0 
5.826833672227e-03 2.100475039358e-02 0.0 
6.379463263457e-03 2.425621159901e-02 0.0 
4.229073468728e-03 1.664702318034e-02 0.0 
4.566304318416e-03 1.973523812279e-02 0.0 
-6.648800470441e-04 7.081792017209e-02 0.0 
1.247752305018e-02 8.057211511044e-02 0.0 
2.091582349323e-03 2.397659532697e-02 0.0 
1.025939504400e-02 7.333528021637e-02 0.0 
-3.202707796923e-05 1.704794279964e-02 0.0 
-2.616703730371e-04 2.046681055522e-02 0.0 
3.481680409472e-04 3.057366780882e-02 0.0 
-1.168566324864e-03 3.496816652689e-02 0.0 
7.175935212445e-04 2.562252350070e-02 0.0 
1.261741126434e-02 7.528126154406e-02 0.0 
1.279890736642e-02 7.785607863825e-02 0.0 
1.228713005460e-02 7.167081506585e-02 0.0 
-8.569681761961e-05 1.124603707733e-02 0.0 
6.428909752927e-04 7.757324328898e-02 0.0 
-3.663303679806e-04 1.860855621527e-02 0.0 
1.303068105786e-02 7.089809852756e-02 0.0 
7.642654529434e-04 2.106462193695e-02 0.0 
1.019765906319e-02 3.937021714601e-02 0.0 
1.424734648457e-02 6.260429656916e-02 0.0 
2.024271029724e-03 2.583378651187e-02 0.0 
5.846222161310e-04 3.048784200980e-02 0.0 
4.324276366887e-04 2.029539407262e-02 0.0 
4.135210819250e-03 6.508545703557e-02 0.0 
3.746528159539e-03 6.857960768471e-02 0.0 
4.528337331898e-03 6.171878605600e-02 0.0 
7.831278645142e-03 4.339512888304e-02 0.0 
6.196031777094e-03 4.095804308711e-02 0.0 
1.539330044686e-03 3.130954291150e-02 0.0 
-1.370036801921e-03 6.665203206633e-02 0.0 
-1.119029847798e-03 6.586918650326e-02 0.0 
-2.447891559884e-03 6.249405296438e-02 0.0 
-2.739104681872e-03 6.111395677937e-02 0.0 
-1.590990769117e-03 5.121755454910e-02 0.0 
-1.760483530915e-03 5.209808697565e-02 0.0 
9.337038498796e-03 3.895661777955e-02 0.0 
8.407173823489e-03 3.576220304959e-02 0.0 
1.096239401931e-02 4.449583023766e-02 0.0 
2.490841961453e-03 3.471933870868e-02 0.0 
2.575407823139e-03 3.818534315921e-02 0.0 
3.603893500404e-03 3.925858780908e-02 0.0 
1.607004285731e-03 2.338213325795e-02 0.0 
1.078212694452e-03 1.746448287480e-02 0.0 
-9.702878221809e-04 4.969853451402e-02 0.0 
-3.393790919510e-04 4.824635235713e-02 0.0 
-2.179198611044e-03 5.360559195262e-02 0.0 
1.981744652575e-03 1.996721105031e-02 0.0 
-3.846540402135e-04 1.488706370477e-02 0.0 
-5.248001351141e-04 1.780412653213e-02 0.0 
7.402074009022e-04 6.939903551366e-02 0.0 
-4.547432033988e-04 6.673071602353e-02 0.0 
1.050241179993e-02 6.110406184446e-02 0.0 
8.758279753060e-03 5.427386632184e-02 0.0 
3.152629832989e-03 2.182120566066e-02 0.0 
4.019635836215e-03 2.632404555689e-02 0.0 
2.247819238420e-03 1.651835131195e-02 0.0 
-3.474070325649e-04 7.262949068981e-02 0.0 
8.864616090889e-03 3.239593778959e-02 0.0 
1.240991904769e-03 1.522962503430e-02 0.0 
1.919387532448e-03 1.776873307666e-02 0.0 
6.603351384715e-04 1.192239757093e-02 0.0 
6.378394183862e-03 2.300927575306e-02 0.0 
4.767459490935e-03 1.680141475492e-02 0.0 
5.102825975179e-03 1.707902957004e-02 0.0 
1.171766032126e-03 2.886986177379e-02 0.0 
3.280250900701e-04 2.415812355467e-02 0.0 
2.874762428320e-03 6.804411062272e-02 0.0 
2.480644668594e-04 2.668925854540e-02 0.0 
2.482640544429e-03 7.153812929274e-02 0.0 
2.082589870390e-03 6.745714638146e-02 0.0 
2.140651088979e-03 7.489402745580e-02 0.0 
-1.798467243701e-04 7.441594834274e-02 0.0 
4.701061368621e-03 7.005758784206e-02 0.0 
5.149407566947e-03 6.585073443511e-02 0.0 
1.597944331948e-03 6.760690991628e-02 0.0 
1.353223736587e-03 1.491231035317e-02 0.0 
1.625078913831e-03 7.139140767520e-02 0.0 
1.070652268109e-03 7.260970998107e-02 0.0 
-2.121892019709e-04 1.441570171574e-02 0.0 
-4.074850090401e-04 1.802022184833e-02 0.0 
-3.059636592422e-04 1.175487791110e-02 0.0 
-4.693346534079e-04 1.574909083223e-02 0.0 
-5.952751797764e-04 2.171280279445e-02 0.0 
-6.118152452110e-04 1.924250754957e-02 0.0 
3.361381452486e-03 7.246042431152e-02 0.0 
-4.202242495914e-04 1.207390037438e-02 0.0 
-5.612092137870e-04 1.646451431263e-02 0.0 
-3.523585448253e-04 9.398932273985e-03 0.0 
1.092180657080e-02 8.247915245096e-02 0.0 
1.367748959117e-02 7.456363783277e-02 0.0 
1.281810097013e-02 7.976355122105e-02 0.0 
1.153428211097e-02 8.349728943688e-02 0.0 
4.290569558485e-03 1.548503799826e-02 0.0 
5.327266172706e-03 2.062815256310e-02 0.0 
-3.760635981991e-04 2.860518264411e-02 0.0 
-4.360738285811e-04 3.454731702492e-02 0.0 
1.716003335254e-03 7.127893414758e-02 0.0 
1.251756551831e-03 7.159756333046e-02 0.0 
1.374679185176e-03 6.502563766482e-02 0.0 
9.917740719771e-04 6.586088643274e-02 0.0 
1.065708369765e-03 5.912169398518e-02 0.0 
6.860002517470e-04 6.001067583985e-02 0.0 
8.159284738838e-04 5.297887076198e-02 0.0 
4.197587656293e-03 1.366963793965e-02 0.0 
1.100071819068e-02 7.777052001159e-02 0.0 
1.011409444833e-02 7.902088203495e-02 0.0 
3.194818829495e-03 1.363887068893e-02 0.0 
3.652871560860e-03 1.740450468854e-02 0.0 
1.215668041440e-02 7.990839227867e-02 0.0 
1.155655504665e-02 8.469525581748e-02 0.0 
1.377460434160e-04 1.255982857231e-02 0.0 
1.376578816792e-02 5.979497281616e-02 0.0 
1.004518578398e-03 9.575190056974e-03 0.0 
-1.828275440296e-03 3.572351751568e-02 0.0 
2.656838416378e-03 3.589101791321e-02 0.0 
1.412697522743e-02 6.159879150575e-02 0.0 
1.245070204517e-02 7.492466755936e-02 0.0 
1.363584419010e-02 7.588140665984e-02 0.0 
1.282054187058e-02 8.058892395240e-02 0.0 
2.307640375321e-03 3.064134621827e-02 0.0 
-1.371456496937e-04 6.454408795997e-02 0.0 
1.163895082675e-02 6.693650095423e-02 0.0 
1.183373958753e-03 5.216135862214e-02 0.0 
9.263501810764e-03 6.804019998510e-02 0.0 
-2.027386836548e-04 3.143990750191e-02 0.0 
1.296810225863e-02 5.564921223325e-02 0.0 
1.342948948074e-02 6.677452007265e-02 0.0 
1.288862295380e-02 6.537921147188e-02 0.0 
1.417420469020e-02 6.928505765316e-02 0.0 
9.904760291370e-03 6.091118848201e-02 0.0 
8.991808284655e-03 6.808257304032e-02 0.0 
9.620741536253e-03 7.090616454141e-02 0.0 
1.185789863653e-02 5.212609373873e-02 0.0 
1.270509858191e-02 8.082260025279e-02 0.0 
1.175399096408e-02 8.536319538356e-02 0.0 
1.169754629170e-02 6.215933949391e-02 0.0 
5.030869411961e-03 3.484458247055e-02 0.0 
4.946413615677e-03 3.082614814721e-02 0.0 
3.814864800951e-03 2.253200819021e-02 0.0 
4.763939664294e-03 2.685456616658e-02 0.0 
5.898773531236e-03 3.516950506030e-02 0.0 
5.767648222943e-03 3.120397140851e-02 0.0 
4.475048286523e-03 2.297925825452e-02 0.0 
5.525026460770e-03 2.725130007103e-02 0.0 
3.726568216855e-03 1.732124194634e-02 0.0 
5.113939232036e-03 2.312910830373e-02 0.0 
6.592473481458e-03 3.151637510841e-02 0.0 
6.290429995790e-03 2.775768525455e-02 0.0 
4.818031524280e-03 2.024633563170e-02 0.0 
7.679600672244e-03 3.592488624320e-02 0.0 
2.678144839688e-03 1.036175176309e-02 0.0 
1.384346585034e-02 5.837699471281e-02 0.0 
3.454293141814e-03 3.389281219306e-02 0.0 
5.077577102991e-03 4.448058791399e-02 0.0 
1.292012652338e-02 6.565079018249e-02 0.0 
1.829466733547e-03 8.477598808543e-03 0.0 
1.520892273675e-03 8.470704758409e-03 0.0 
1.215305770357e-02 5.439781471091e-02 0.0 
2.185529116296e-03 7.382921229656e-03 0.0 
1.016436122198e-02 6.729823361710e-02 0.0 
8.635259213168e-03 4.570916210101e-02 0.0 
2.245406091227e-03 7.141350572724e-03 0.0 
5.924854489358e-03 3.910859657115e-02 0.0 
6.825134097362e-03 4.330485344765e-02 0.0 
6.695812102990e-03 4.713720455555e-02 0.0 
1.190216443312e-03 7.984278276204e-03 0.0 
4.896190726399e-03 5.818875222923e-02 0.0 
1.841583632533e-03 6.157737919551e-03 0.0 
8.544881313220e-03 3.879462379217e-02 0.0 
9.771614710910e-03 4.152654478705e-02 0.0 
1.045826069226e-02 4.493462407910e-02 0.0 
6.789076109463e-03 3.555037716212e-02 0.0 
1.246236853941e-03 6.134312706610e-03 0.0 
2.109721332587e-03 1.157776136163e-02 0.0 
1.708779013033e-03 1.150045210055e-02 0.0 
2.754917461381e-03 1.701778053771e-02 0.0 
8.105682833772e-04 6.029466451142e-03 0.0 
1.869020765429e-03 7.446143325957e-03 0.0 
1.867905763813e-03 6.976854089181e-03 0.0 
-1.103251431633e-03 4.824145676337e-02 0.0 
5.277081461355e-04 4.668441689567e-02 0.0 
1.224132443722e-03 4.673413900357e-02 0.0 
2.375162470436e-03 4.582052704117e-02 0.0 
1.672338180514e-03 4.515214902866e-02 0.0 
3.769609375837e-03 4.516226702964e-02 0.0 
4.266914657769e-03 4.558148276832e-02 0.0 
5.401136683531e-03 4.499679370255e-02 0.0 
6.957069632257e-03 2.822077393979e-02 0.0 
4.077477736324e-04 5.802677238222e-03 0.0 
3.330225123221e-04 3.837513011210e-02 0.0 
9.344449932200e-04 3.938685004174e-02 0.0 
7.528226407025e-04 4.248667545907e-02 0.0 
-1.946124521822e-03 5.562457699835e-02 0.0 
-1.884671529213e-03 5.271228493733e-02 0.0 
-1.653906908460e-03 4.911947124445e-02 0.0 
-1.878466770704e-03 5.847831714666e-02 0.0 
1.053899260864e-02 3.929965613898e-02 0.0 
2.302794831923e-04 5.870729833092e-03 0.0 
4.566599173982e-03 3.754914206047e-02 0.0 
-1.956135670046e-03 5.302992748603e-02 0.0 
6.207590464960e-03 7.625868558242e-02 0.0 
6.479426018998e-03 7.028590438146e-02 0.0 
7.082769955076e-03 6.976034376989e-02 0.0 
6.604847227194e-03 6.309651292545e-02 0.0 
5.788170961175e-03 6.983370180914e-02 0.0 
-1.381796697038e-03 5.005911424271e-02 0.0 
-1.142414273682e-03 4.864975096454e-02 0.0 
-9.799684779286e-04 5.155854359585e-02 0.0 
-8.820437645363e-04 4.700677609004e-02 0.0 
-6.891311274830e-04 4.990719436821e-02 0.0 
-7.632431716731e-04 5.421039503766e-02 0.0 
-6.055185569585e-04 4.515173690865e-02 0.0 
-4.036045246272e-04 4.858384868031e-02 0.0 
5.008909863619e-03 7.680362476699e-02 0.0 
1.669227729680e-03 3.839592607084e-02 0.0 
-9.105896224835e-04 4.307339945960e-02 0.0 
9.441106056940e-06 5.031341042898e-02 0.0 
-2.300519165653e-03 4.705138368211e-02 0.0 
-2.336309002947e-03 4.096946984648e-02 0.0 
-3.075136382295e-03 4.525867914239e-02 0.0 
-2.142161247813e-03 4.035066315549e-02 0.0 
-1.269183887839e-03 3.551277966614e-02 0.0 
3.772161717825e-03 5.370031126096e-02 0.0 
7.330473039850e-04 5.609636253282e-02 0.0 
4.125903400142e-03 5.896622026750e-02 0.0 
1.377742305767e-03 6.072729275593e-02 0.0 
-1.374248151940e-03 5.796894040661e-02 0.0 
-1.606485835296e-03 6.562335042387e-02 0.0 
-2.190160475539e-04 7.437476396888e-03 0.0 
-3.154299206197e-04 6.046546885205e-02 0.0 
-6.125399924761e-04 6.212121781242e-02 0.0 
-6.005010181398e-04 6.539776842851e-02 0.0 
-9.303506843916e-04 6.329501768581e-02 0.0 
-5.918812779413e-04 5.872961914268e-02 0.0 
-2.890127189822e-04 6.726118795118e-02 0.0 
-5.422153161119e-04 6.807736928445e-02 0.0 
1.303708252541e-03 7.722745243677e-02 0.0 
6.789467221222e-04 7.729000837110e-02 0.0 
3.445842835794e-04 7.769136389938e-02 0.0 
2.627519338039e-04 7.692769805886e-02 0.0 
4.409388641369e-04 7.650859250784e-02 0.0 
1.002507398127e-03 7.673138834779e-02 0.0 
1.309895072879e-03 7.597240088442e-02 0.0 
2.272229383072e-03 7.571135352003e-02 0.0 
1.567291345188e-03 7.500753246275e-02 0.0 
6.725618797301e-04 7.498013455924e-02 0.0 
2.733532452933e-03 7.465788372657e-02 0.0 
2.602599495702e-04 4.217962401973e-02 0.0 
4.965240114529e-04 3.791995227089e-02 0.0 
-2.828392636012e-05 6.324722031206e-03 0.0 
3.878255797986e-03 7.657641937169e-02 0.0 
4.070108767278e-03 6.648694801739e-02 0.0 
3.983804838938e-04 1.031349272119e-02 0.0 
5.932430597326e-04 8.554143165153e-03 0.0 
4.876682319761e-04 8.292455742087e-03 0.0 
-1.324285253714e-04 1.845870599546e-02 0.0 
-2.138785800363e-04 1.508918598892e-02 0.0 
2.134741052160e-04 1.003108764454e-02 0.0 
-2.341255740480e-03 6.358243990116e-02 0.0 
3.506327863121e-03 1.880013448762e-02 0.0 
1.122122031397e-03 2.631937839720e-02 0.0 
1.006833479886e-02 4.931720963397e-02 0.0 
-2.877755767189e-03 5.794972042836e-02 0.0 
-6.723180598369e-04 3.689836044538e-02 0.0 
-1.235730865013e-03 4.085279541821e-02 0.0 
-6.760831822206e-04 2.406288626888e-02 0.0 
-1.094376071224e-03 4.092133507512e-02 0.0 
-8.788193037885e-04 2.877256566520e-02 0.0 
1.335450092318e-03 1.184719787476e-02 0.0 
-1.407295408722e-04 7.456767560415e-02 0.0 
3.095309039864e-03 5.712412386255e-02 0.0 
2.006707360941e-03 6.000436581814e-02 0.0 
1.862786280789e-03 4.007793123035e-02 0.0 
-1.583284034846e-03 6.686587744214e-02 0.0 
-1.073799293242e-03 5.552854401701e-02 0.0 
-8.577124542404e-04 7.053800457038e-02 0.0 
4.070233584901e-03 1.355762865736e-02 0.0 
1.193772657852e-02 6.802091911833e-02 0.0 
-1.192104924304e-04 4.488913315718e-02 0.0 
-2.096820888686e-03 5.880804806653e-02 0.0 
-2.569060906538e-03 6.066318705620e-02 0.0 
-2.991169224957e-03 5.595830707164e-02 0.0 
1.392291837064e-02 5.892041632088e-02 0.0 
-1.642771823779e-03 5.013089748170e-02 0.0 
-3.727754512983e-04 3.126374051928e-02 0.0 
1.427186594078e-03 3.532522426505e-02 0.0 
3.324239523242e-03 7.155993838310e-02 0.0 
3.142590118799e-06 2.805760035546e-02 0.0 
-1.090928774605e-03 4.315857136358e-02 0.0 
4.265923526873e-03 5.407185773967e-02 0.0 
5.695246012362e-03 2.772718262279e-02 0.0 
-3.342509886945e-03 4.992154734798e-02 0.0 
2.654031381006e-03 3.695087638886e-02 0.0 
2.554587871259e-03 2.123846107127e-02 0.0 
5.522361777814e-03 6.210163518567e-02 0.0 
3.569608789000e-06 7.189712494428e-02 0.0 
3.262593907422e-03 6.479352789219e-02 0.0 
5.106888108823e-04 1.584038026306e-02 0.0 
5.016496945551e-03 3.879877846028e-02 0.0 
-1.188810384807e-03 6.916402369028e-02 0.0 
6.034112255922e-03 4.171142032264e-02 0.0 
1.360346731840e-02 6.260303805358e-02 0.0 
8.896647379665e-03 7.997543787337e-02 0.0 
1.156481514570e-03 2.247753272481e-02 0.0 
1.192670891897e-02 4.772192624936e-02 0.0 
3.580988928533e-03 2.275641830240e-02 0.0 
5.400493519751e-03 3.586567684823e-02 0.0 
-1.019182570280e-03 6.880912173617e-02 0.0 
-4.989289098383e-04 2.397112765462e-02 0.0 
9.749613407024e-03 4.511207015647e-02 0.0 
2.134575685979e-03 2.814951443104e-02 0.0 
9.807100807979e-03 3.810157335231e-02 0.0 
7.688162434082e-03 4.630303931283e-02 0.0 
3.427747878739e-03 3.370023254776e-02 0.0 
1.502200917999e-03 4.295584399860e-02 0.0 
5.779308942142e-03 2.529047954026e-02 0.0 
1.251366586463e-02 6.964996980462e-02 0.0 
1.189884263515e-02 5.049866616291e-02 0.0 
9.651974144820e-03 4.664431615632e-02 0.0 
1.252530909755e-02 4.979960790430e-02 0.0 
-4.905980451060e-04 4.016286496914e-02 0.0 
-3.046897818830e-04 2.610213356125e-02 0.0 
1.512252192835e-03 3.862488030144e-02 0.0 
1.434525836509e-02 6.604587592160e-02 0.0 
5.205182447241e-03 5.445368308805e-02 0.0 
7.041349630835e-03 2.427627147940e-02 0.0 
1.509140020168e-03 1.891269674490e-02 0.0 
1.383799062831e-02 6.738218031228e-02 0.0 
-7.197344600183e-04 2.745324308948e-02 0.0 
2.683693099932e-03 2.510151033274e-02 0.0 
-1.684782427070e-03 4.977751707920e-02 0.0 
-9.977283516704e-05 7.448806623823e-02 0.0 
8.923128911270e-03 4.798228227729e-02 0.0 
7.490585380907e-03 4.662521945898e-02 0.0 
1.160478188318e-02 4.794035879362e-02 0.0 
-1.429612842234e-03 4.614747791814e-02 0.0 
2.745824826754e-03 1.682216012837e-02 0.0 
-7.585632574933e-04 2.527045039141e-02 0.0 
1.533887915771e-03 2.870954585675e-02 0.0 
3.177786897446e-03 6.142055519383e-02 0.0 
9.619081410499e-03 7.670624054363e-02 0.0 
-7.278953930028e-04 2.289760385497e-02 0.0 
4.764873884618e-03 4.040579978650e-02 0.0 
4.703430826755e-03 2.264425837981e-02 0.0 
-4.614682526591e-04 5.270464562767e-02 0.0 
4.102214549736e-03 1.342540050014e-02 0.0 
1.131369644691e-02 8.364013479308e-02 0.0 
-6.442554689574e-04 2.034590739127e-02 0.0 
2.857873082213e-03 2.807881518463e-02 0.0 
1.312601819965e-02 5.734908064712e-02 0.0 
1.066306926532e-03 7.755558498109e-02 0.0 
-4.384669490003e-04 1.272282339681e-02 0.0 
2.396007864412e-03 2.292539882928e-02 0.0 
1.162159114807e-02 4.474077409415e-02 0.0 
3.621507377975e-03 4.179829528610e-02 0.0 
9.698466218961e-03 8.427908945694e-02 0.0 
-1.434906467866e-03 4.519021070195e-02 0.0 
1.121272834342e-02 4.832915595795e-02 0.0 
1.045999096817e-03 7.816352312080e-03 0.0 
2.687792993429e-03 2.035267423728e-02 0.0 
7.534677097496e-03 5.115433604460e-02 0.0 
-1.564952125330e-03 4.823709838379e-02 0.0 
9.145494242095e-03 3.618902303415e-02 0.0 
5.952521122765e-04 7.586301846957e-02 0.0 
1.053923996304e-02 8.086012406609e-02 0.0 
-1.422362525526e-03 4.708096983394e-02 0.0 
5.807079212072e-03 4.579091103352e-02 0.0 
2.563687003356e-03 4.103950013394e-02 0.0 
3.756521252171e-03 1.369245616542e-02 0.0 
-1.237188014509e-03 4.566601262165e-02 0.0 
6.064930846108e-03 4.580242234994e-02 0.0 
-1.019872694076e-03 4.401889314172e-02 0.0 
1.029167841636e-02 8.739757778560e-02 0.0 
7.709006011801e-03 4.723043008990e-02 0.0 
-7.724526303070e-04 4.216436587383e-02 0.0 
1.019822601515e-02 4.190781266587e-02 0.0 
6.687815684767e-04 7.378888140690e-02 0.0 
1.092818752772e-02 4.119465900431e-02 0.0 
-2.956091011683e-04 2.197811083043e-02 0.0 
-2.278112229005e-03 5.477189423986e-02 0.0 
1.673464652029e-03 4.028592086818e-02 0.0 
6.856917476611e-03 3.942063195265e-02 0.0 
1.054712924503e-02 8.934396280179e-02 0.0 
1.730365754124e-03 3.702845441899e-02 0.0 
8.956857111290e-03 3.516117855766e-02 0.0 
1.008986553351e-02 3.780364029801e-02 0.0 
1.091056956616e-02 4.449929741415e-02 0.0 
1.679692023661e-03 3.316721416385e-02 0.0 
1.174931097150e-02 8.498271666168e-02 0.0 
-2.525595570807e-03 6.269542676307e-02 0.0 
-2.255032393242e-03 6.424219125978e-02 0.0 
4.590942595900e-03 4.527661779046e-02 0.0 
7.993848928958e-03 3.182932938876e-02 0.0 
8.181848102007e-05 7.583526904619e-02 0.0 
7.787981315111e-03 3.958945118755e-02 0.0 
-1.668445357508e-03 6.366518936334e-02 0.0 
2.910630300914e-03 4.577596576656e-02 0.0 
7.772397759943e-03 2.869514774717e-02 0.0 
3.107200034762e-04 5.807212635213e-02 0.0 
1.762036712423e-03 4.619448958007e-02 0.0 
-1.803673189990e-04 7.246998149247e-02 0.0 
3.130474979081e-04 4.771391751369e-02 0.0 
1.008818833128e-02 4.056525967491e-02 0.0 
-3.874503422079e-04 4.862858752833e-02 0.0 
-1.416953061094e-03 5.094868270900e-02 0.0 
7.744186689962e-04 1.734679348791e-02 0.0 
-1.712171154651e-03 5.194312883271e-02 0.0 
1.026241558222e-04 8.326838466022e-03 0.0 
-9.922312455002e-05 6.818388368544e-03 0.0 
4.056425647647e-04 7.247672456925e-02 0.0 
1.025397199756e-02 9.031396099507e-02 0.0 
-3.559773603783e-04 2.402086204470e-02 0.0 
1.196094678538e-02 8.375477538337e-02 0.0 
-2.622309331551e-03 5.647512544581e-02 0.0 
8.661014592644e-03 3.959258244605e-02 0.0 
8.432043222228e-04 7.214361446716e-02 0.0 
-2.735073574950e-03 5.954235178877e-02 0.0 
3.521306729734e-03 1.498038598123e-02 0.0 
2.020525649900e-03 6.366926520364e-03 0.0 
5.629044108346e-04 4.590679451167e-02 0.0 
3.751251900283e-03 2.031231044280e-02 0.0 
9.088833336481e-03 3.436510949005e-02 0.0 
1.613984141073e-04 2.507174932254e-02 0.0 
2.480641176639e-03 7.794348454649e-02 0.0 
1.827332141181e-03 6.451279946128e-02 0.0 
-2.351468820259e-04 3.735008171971e-02 0.0 
9.676191366413e-03 8.865936757953e-02 0.0 
1.129836735482e-02 8.098603216707e-02 0.0 
1.026189540604e-02 7.355121755061e-02 0.0 
-7.935539714867e-04 6.843738447252e-02 0.0 
-1.657167921548e-03 5.293762099926e-02 0.0 
9.097904111638e-03 8.379859462784e-02 0.0 
2.520624915451e-03 1.204945861472e-02 0.0 
4.193586027398e-03 7.159842964843e-02 0.0 
7.505533085983e-03 2.670899231385e-02 0.0 
7.010960972135e-03 7.543878776553e-02 0.0 
1.844110112849e-03 1.654270007905e-02 0.0 
3.865499342787e-03 1.294609257668e-02 0.0 
-1.632103136178e-04 5.697681567614e-03 0.0 
5.826959110500e-03 2.016495480942e-02 0.0 
7.549114491127e-03 6.115405208350e-02 0.0 
6.083410906150e-03 6.483662868250e-02 0.0 
3.997486761669e-03 1.372702916096e-02 0.0 
7.609158772865e-04 3.914763680034e-02 0.0 
-2.183972923442e-04 5.563621590948e-03 0.0 
5.263159096806e-03 7.189104036617e-02 0.0 
4.766540691605e-04 1.622311314317e-02 0.0 
-5.798999478817e-04 3.817964106269e-02 0.0 
2.387751293398e-04 1.575512659479e-02 0.0 
7.381762369324e-03 3.199924570922e-02 0.0 
1.728194419435e-03 6.344908934372e-02 0.0 
7.230177249284e-03 6.446980123265e-02 0.0 
-2.506807467326e-04 1.180530107062e-02 0.0 
3.111157486188e-03 1.545757232097e-02 0.0 
5.457253035225e-03 5.220924015760e-02 0.0 
8.810151979830e-04 4.672352372829e-02 0.0 
-1.228331466726e-03 6.270490019846e-02 0.0 
-3.936412461272e-04 2.945233517018e-02 0.0 
-5.839866033952e-05 1.158386898878e-02 0.0 
5.904413655333e-03 2.434035578481e-02 0.0 
-3.672027089916e-04 1.194045484831e-02 0.0 
1.276301721099e-04 7.717446712459e-02 0.0 
2.248051005827e-03 7.002547577350e-02 0.0 
3.251429003726e-04 1.054394765058e-02 0.0 
3.569280559493e-03 1.342860321883e-02 0.0 
-2.091769039083e-03 4.323779918680e-02 0.0 
6.236080166389e-04 6.694690961652e-03 0.0 
1.919316873241e-03 4.337366653314e-02 0.0 
3.392295467293e-03 7.849853699113e-02 0.0 
1.865167612337e-03 7.395968892871e-02 0.0 
-2.136261970929e-04 5.690806345662e-03 0.0 
1.122670841539e-03 1.549219927835e-02 0.0 
-8.403446296086e-04 6.019758746669e-02 0.0 
7.393771644431e-03 7.479479870712e-02 0.0 
-4.533693922935e-04 7.060689171644e-02 0.0 
5.503332084015e-03 1.838906810255e-02 0.0 
-1.978544106631e-04 6.190134046128e-02 0.0 
7.712759092229e-04 1.466185104366e-02 0.0 
8.679253836501e-04 1.017883710744e-02 0.0 
2.180054162757e-03 1.436540922839e-02 0.0 
1.201542895608e-03 4.623339388665e-03 0.0 
1.146246793905e-03 2.947922572637e-02 0.0 
3.472200689270e-03 1.131696964550e-02 0.0 
2.085522131615e-03 1.569134592078e-02 0.0 
1.861003438492e-03 7.828281577411e-02 0.0 
2.725172627265e-03 1.525409388125e-02 0.0 
-8.271266074087e-04 6.613607232957e-02 0.0 
1.019216729548e-04 7.388840110414e-02 0.0 
4.514543349643e-05 7.382055213689e-03 0.0 
4.278344408738e-04 7.782388164037e-02 0.0 
3.117865382194e-04 7.833217642788e-02 0.0 
-3.687899717653e-05 5.574217384311e-03 0.0 
1.888496897529e-04 7.558252674313e-02 0.0 
6.714463842030e-04 6.729231154270e-02 0.0 
3.297983868354e-03 1.310867013220e-02 0.0 
-2.064130293813e-04 5.206089090336e-02 0.0 
3.785723821252e-04 3.098102489284e-02 0.0 
-2.889377829474e-03 4.999902097394e-02 0.0 
8.415766069305e-04 2.372338569150e-02 0.0 
5.393721526303e-04 5.416908932354e-02 0.0 
3.299854102501e-03 1.143437558622e-02 0.0 
1.710616396338e-03 1.383499983260e-02 0.0 
1.387179696074e-03 5.936781738825e-02 0.0 
7.365849868005e-03 4.810737179752e-02 0.0 
4.620772468396e-03 1.839864137375e-02 0.0 
-8.566253705578e-04 5.722770032463e-02 0.0 
5.393204220596e-03 1.873138077302e-02 0.0 
3.007178688321e-03 1.596152805798e-02 0.0 
-2.187659126573e-03 4.468054792833e-02 0.0 
-1.659040632749e-04 4.746348379667e-02 0.0 
2.159140779142e-03 7.273545582627e-02 0.0 
-3.303226220277e-04 1.057853433885e-02 0.0 
-5.644927185346e-04 5.566795665240e-02 0.0 
2.979343559865e-03 8.710061164031e-02 0.0 
1.517499293513e-04 1.178244057597e-01 0.0 
6.129155749441e-03 9.242176315088e-02 0.0 
1.625192508996e-04 1.146146721440e-01 0.0 
7.822669929570e-03 9.500312581530e-02 0.0 
1.533825443332e-04 1.109685589871e-01 0.0 
8.669267492952e-03 9.553401197062e-02 0.0 
1.816013157665e-04 1.068816667827e-01 0.0 
8.973925235306e-03 9.443043164622e-02 0.0 
1.745654935945e-04 1.023523764918e-01 0.0 
8.865364739183e-03 9.203188276456e-02 0.0 
2.020428222167e-04 9.738140626974e-02 0.0 
8.446350866066e-03 8.846566387734e-02 0.0 
1.912414111302e-04 9.197143786002e-02 0.0 
7.792147675538e-03 8.401174483958e-02 0.0 
2.127804270842e-04 8.612731288954e-02 0.0 

VECTORS node_bounda_dof_materi_velocity_x float
1.000000000000e+00 0.0 0.0 
1.000000000000e+00 0.0 0.0 
1.000000000000e+00 0.0 0.0 
1.000000000000e+00 0.0 0.0 
1.000000000000e+00 0.0 0.0 
1.000000000000e+00 0.0 0.0 
1.000000000000e+00 0.0 0.0 
1.000000000000e+00 0.0 0.0 
1.000000000000e+00 0.0 0.0 
1.000000000000e+00 0.0 0.0 
1.000000000000e+00 0.0 0.0 
1.000000000000e+00 0.0 0.0 
1.000000000000e+00 0.0 0.0 
1.000000000000e+00 0.0 0.0 
1.000000000000e+00 0.0 0.0 
1.000000000000e+00 0.0 0.0 
1.000000000000e+00 0.0 0.0 
1.000000000000e+00 0.0 0.0 
1.000000000000e+00 0.0 0.0 
1.000000000000e+00 0.0 0.0 
1.000000000000e+00 0.0 0.0 
1.000000000000e+00 0.0 0.0 
1.000000000000e+00 0.0 0.0 
1.000000000000e+00 0.0 0.0 
1.000000000000e+00 0.0 0.0 
1.000000000000e+00 0.0 0.0 
1.000000000000e+00 0.0 0.0 
1.000000000000e+00 0.0 0.0 
1.000000000000e+00 0.0 0.0 
1.000000000000e+00 0.0 0.0 
1.000000000000e+00 0.0 0.0 
1.000000000000e+00 0.0 0.0 
1.000000000000e+00 0.0 0.0 
1.000000000000e+00 0.0 0.0 
1.000000000000e+00 0.0 0.0 
1.000000000000e+00 0.0 0.0 
1.000000000000e+00 0.0 0.0 
1.000000000000e+00 0.0 0.0 
1.000000000000e+00 0.0 0.0 
1.000000000000e+00 0.0 0.0 
1.000000000000e+00 0.0 0.0 
1.000000000000e+00 0.0 0.0 
1.000000000000e+00 0.0 0.0 
1.000000000000e+00 0.0 0.0 
1.000000000000e+00 0.0 0.0 
1.000000000000e+00 0.0 0.0 
1.000000000000e+00 0.0 0.0 
1.000000000000e+00 0.0 0.0 
1.000000000000e+00 0.0 0.0 
1.000000000000e+00 0.0 0.0 
1.000000000000e+00 0.0 0.0 
1.000000000000e+00 0.0 0.0 
1.000000000000e+00 0.0 0.0 
1.000000000000e+00 0.0 0.0 
1.000000000000e+00 0.0 0.0 
1.000000000000e+00 0.0 0.0 
1.000000000000e+00 0.0 0.0 
1.000000000000e+00 0.0 0.0 
1.000000000000e+00 0.0 0.0 
1.000000000000e+00 0.0 0.0 
1.000000000000e+00 0.0 0.0 
1.000000000000e+00 0.0 0.0 
1.000000000000e+00 0.0 0.0 
1.000000000000e+00 0.0 0.0 
1.000000000000e+00 0.0 0.0 
1.000000000000e+00 0.0 0.0 
1.000000000000e+00 0.0 0.0 
1.000000000000e+00 0.0 0.0 
1.000000000000e+00 0.0 0.0 
1.000000000000e+00 0.0 0.0 
1.000000000000e+00 0.0 0.0 
1.000000000000e+00 0.0 0.0 
1.000000000000e+00 0.0 0.0 
1.000000000000e+00 0.0 0.0 
1.000000000000e+00 0.0 0.0 
1.000000000000e+00 0.0 0.0 
1.000000000000e+00 0.0 0.0 
1.000000000000e+00 0.0 0.0 
1.000000000000e+00 0.0 0.0 
1.000000000000e+00 0.0 0.0 
1.000000000000e+00 0.0 0.0 
0.0 0.0 0.0 
0.0 0.0 0.0 
0.0 0.0 0.0 
0.0 0.0 0.0 
0.0 0.0 0.0 
0.0 0.0 0.0 
0.0 0.0 0.0 
0.0 0.0 0.0 
0.0 0.0 0.0 
0.0 0.0 0.0 
0.0 0.0 0.0 
1.000000000000e+00 0.0 0.0 
1.000000000000e+00 0.0 0.0 
1.000000000000e+00 0.0 0.0 
1.000000000000e+00 0.0 0.0 
1.000000000000e+00 0.0 0.0 
1.000000000000e+00 0.0 0.0 
1.000000000000e+00 0.0 0.0 
1.000000000000e+00 0.0 0.0 
0.0 0.0 0.0 
0.0 0.0 0.0 
0.0 0.0 0.0 
0.0 0.0 0.0 
0.0 0.0 0.0 
0.0 0.0 0.0 
0.0 0.0 0.0 
0.0 0.0 0.0 
0.0 0.0 0.0 
0.0 0.0 0.0 
0.0 0.0 0.0 
0.0 0.0 0.0 
0.0 0.0 0.0 
0.0 0.0 0.0 
0.0 0.0 0.0 
0.0 0.0 0.0 
0.0 0.0 0.0 
0.0 0.0 0.0 
0.0 0.0 0.0 
0.0 0.0 0.0 
0.0 0.0 0.0 
0.0 0.0 0.0 
0.0 0.0 0.0 
0.0 0.0 0.0 
0.0 0.0 0.0 
0.0 0.0 0.0 
0.0 0.0 0.0 
0.0 0.0 0.0 
0.0 0.0 0.0 
0.0 0.0 0.0 
0.0 0.0 0.0 
0.0 0.0 0.0 
0.0 0.0 0.0 
0.0 0.0 0.0 
0.0 0.0 0.0 
0.0 0.0 0.0 
0.0 0.0 0.0 
0.0 0.0 0.0 
0.0 0.0 0.0 
0.0 0.0 0.0 
0.0 0.0 0.0 
0.0 0.0 0.0 
0.0 0.0 0.0 
0.0 0.0 0.0 
0.0 0.0 0.0 
0.0 0.0 0.0 
0.0 0.0 0.0 
0.0 0.0 0.0 
0.0 0.0 0.0 
0.0 0.0 0.0 
0.0 0.0 0.0 
0.0 0.0 0.0 
0.0 0.0 0.0 
0.0 0.0 0.0 
0.0 0.0 0.0 
0.0 0.0 0.0 
0.0 0.0 0.0 
0.0 0.0 0.0 
0.0 0.0 0.0 
0.0 0.0 0.0 
0.0 0.0 0.0 
0.0 0.0 0.0 
0.0 0.0 0.0 
0.0 0.0 0.0 
0.0 0.0 0.0 
0.0 0.0 0.0 
0.0 0.0 0.0 
0.0 0.0 0.0 
0.0 0.0 0.0 
0.0 0.0 0.0 
0.0 0.0 0.0 
0.0 0.0 0.0 
0.0 0.0 0.0 
0.0 0.0 0.0 
0.0 0.0 0.0 
0.0 0.0 0.0 
0.0 0.0 0.0 
0.0 0.0 0.0 
0.0 0.0 0.0 
0.0 0.0 0.0 
0.0 0.0 0.0 
0.0 0.0 0.0 
0.0 0.0 0.0 
0.0 0.0 0.0 
0.0 0.0 0.0 
0.0 0.0 0.0 
0.0 0.0 0.0 
0.0 0.0 0.0 
0.0 0.0 0.0 
0.0 0.0 0.0 
0.0 0.0 0.0 
0.0 0.0 0.0 
0.0 0.0 0.0 
0.0 0.0 0.0 
0.0 0.0 0.0 
0.0 0.0 0.0 
0.0 0.0 0.0 
0.0 0.0 0.0 
0.0 0.0 0.0 
0.0 0.0 0.0 
0.0 0.0 0.0 
0.0 0.0 0.0 
0.0 0.0 0.0 
0.0 0.0 0.0 
0.0 0.0 0.0 
0.0 0.0 0.0 
0.0 0.0 0.0 
0.0 0.0 0.0 
0.0 0.0 0.0 
0.0 0.0 0.0 
0.0 0.0 0.0 
0.0 0.0 0.0 
0.0 0.0 0.0 
0.0 0.0 0.0 
0.0 0.0 0.0 
0.0 0.0 0.0 
0.0 0.0 0.0 
0.0 0.0 0.0 
0.0 0.0 0.0 
0.0 0.0 0.0 
0.0 0.0 0.0 
0.0 0.0 0.0 
0.0 0.0 0.0 
0.0 0.0 0.0 
0.0 0.0 0.0 
0.0 0.0 0.0 
0.0 0.0 0.0 
0.0 0.0 0.0 
0.0 0.0 0.0 
0.0 0.0 0.0 
0.0 0.0 0.0 
0.0 0.0 0.0 
0.0 0.0 0.0 
0.0 0.0 0.0 
0.0 0.0 0.0 
0.0 0.0 0.0 
0.0 0.0 0.0 
0.0 0.0 0.0 
0.0 0.0 0.0 
0.0 0.0 0.0 
0.0 0.0 0.0 
0.0 0.0 0.0 
0.0 0.0 0.0 
0.0 0.0 0.0 
0.0 0.0 0.0 
0.0 0.0 0.0 
0.0 0.0 0.0 
0.0 0.0 0.0 
0.0 0.0 0.0 
0.0 0.0 0.0 
0.0 0.0 0.0 
0.0 0.0 0.0 
0.0 0.0 0.0 
0.0 0.0 0.0 
0.0 0.0 0.0 
0.0 0.0 0.0 
0.0 0.0 0.0 
0.0 0.0 0.0 
0.0 0.0 0.0 
0.0 0.0 0.0 
0.0 0.0 0.0 
0.0 0.0 0.0 
0.0 0.0 0.0 
0.0 0.0 0.0 
0.0 0.0 0.0 
0.0 0.0 0.0 
0.0 0.0 0.0 
0.0 0.0 0.0 
0.0 0.0 0.0 
0.0 0.0 0.0 
0.0 0.0 0.0 
0.0 0.0 0.0 
0.0 0.0 0.0 
0.0 0.0 0.0 
0.0 0.0 0.0 
0.0 0.0 0.0 
0.0 0.0 0.0 
0.0 0.0 0.0 
0.0 0.0 0.0 
0.0 0.0 0.0 
0.0 0.0 0.0 
0.0 0.0 0.0 
0.0 0.0 0.0 
0.0 0.0 0.0 
0.0 0.0 0.0 
0.0 0.0 0.0 
0.0 0.0 0.0 
0.0 0.0 0.0 
0.0 0.0 0.0 
0.0 0.0 0.0 
0.0 0.0 0.0 
0.0 0.0 0.0 
0.0 0.0 0.0 
0.0 0.0 0.0 
0.0 0.0 0.0 
0.0 0.0 0.0 
0.0 0.0 0.0 
0.0 0.0 0.0 
0.0 0.0 0.0 
0.0 0.0 0.0 
0.0 0.0 0.0 
0.0 0.0 0.0 
0.0 0.0 0.0 
0.0 0.0 0.0 
0.0 0.0 0.0 
0.0 0.0 0.0 
0.0 0.0 0.0 
0.0 0.0 0.0 
0.0 0.0 0.0 
0.0 0.0 0.0 
0.0 0.0 0.0 
0.0 0.0 0.0 
0.0 0.0 0.0 
0.0 0.0 0.0 
0.0 0.0 0.0 
0.0 0.0 0.0 
0.0 0.0 0.0 
0.0 0.0 0.0 
0.0 0.0 0.0 
0.0 0.0 0.0 
0.0 0.0 0.0 
0.0 0.0 0.0 
0.0 0.0 0.0 
0.0 0.0 0.0 
0.0 0.0 0.0 
0.0 0.0 0.0 
0.0 0.0 0.0 
0.0 0.0 0.0 
0.0 0.0 0.0 
0.0 0.0 0.0 
0.0 0.0 0.0 
0.0 0.0 0.0 
0.0 0.0 0.0 
0.0 0.0 0.0 
0.0 0.0 0.0 
0.0 0.0 0.0 
0.0 0.0 0.0 
0.0 0.0 0.0 
0.0 0.0 0.0 
0.0 0.0 0.0 
0.0 0.0 0.0 
0.0 0.0 0.0 
0.0 0.0 0.0 
0.0 0.0 0.0 
0.0 0.0 0.0 
0.0 0.0 0.0 
0.0 0.0 0.0 
0.0 0.0 0.0 
0.0 0.0 0.0 
0.0 0.0 0.0 
0.0 0.0 0.0 
0.0 0.0 0.0 
0.0 0.0 0.0 
0.0 0.0 0.0 
0.0 0.0 0.0 
0.0 0.0 0.0 
0.0 0.0 0.0 
0.0 0.0 0.0 
0.0 0.0 0.0 
0.0 0.0 0.0 
0.0 0.0 0.0 
0.0 0.0 0.0 
0.0 0.0 0.0 
0.0 0.0 0.0 
0.0 0.0 0.0 
0.0 0.0 0.0 
0.0 0.0 0.0 
0.0 0.0 0.0 
0.0 0.0 0.0 
0.0 0.0 0.0 
0.0 0.0 0.0 
0.0 0.0 0.0 
0.0 0.0 0.0 
0.0 0.0 0.0 
0.0 0.0 0.0 
0.0 0.0 0.0 
0.0 0.0 0.0 
0.0 0.0 0.0 
0.0 0.0 0.0 
0.0 0.0 0.0 
0.0 0.0 0.0 
0.0 0.0 0.0 
0.0 0.0 0.0 
0.0 0.0 0.0 
0.0 0.0 0.0 
0.0 0.0 0.0 
0.0 0.0 0.0 
0.0 0.0 0.0 
0.0 0.0 0.0 
0.0 0.0 0.0 
0.0 0.0 0.0 
0.0 0.0 0.0 
0.0 0.0 0.0 
0.0 0.0 0.0 
0.0 0.0 0.0 
0.0 0.0 0.0 
0.0 0.0 0.0 
0.0 0.0 0.0 
0.0 0.0 0.0 
0.0 0.0 0.0 
0.0 0.0 0.0 
0.0 0.0 0.0 
0.0 0.0 0.0 
0.0 0.0 0.0 
0.0 0.0 0.0 
0.0 0.0 0.0 
0.0 0.0 0.0 
0.0 0.0 0.0 
0.0 0.0 0.0 
0.0 0.0 0.0 
0.0 0.0 0.0 
0.0 0.0 0.0 
0.0 0.0 0.0 
0.0 0.0 0.0 
0.0 0.0 0.0 
0.0 0.0 0.0 
0.0 0.0 0.0 
0.0 0.0 0.0 
0.0 0.0 0.0 
0.0 0.0 0.0 
0.0 0.0 0.0 
0.0 0.0 0.0 
0.0 0.0 0.0 
0.0 0.0 0.0 
0.0 0.0 0.0 
0.0 0.0 0.0 
0.0 0.0 0.0 
0.0 0.0 0.0 
0.0 0.0 0.0 
0.0 0.0 0.0 
0.0 0.0 0.0 
0.0 0.0 0.0 
0.0 0.0 0.0 
0.0 0.0 0.0 
0.0 0.0 0.0 
0.0 0.0 0.0 
0.0 0.0 0.0 
0.0 0.0 0.0 
0.0 0.0 0.0 
0.0 0.0 0.0 
0.0 0.0 0.0 
0.0 0.0 0.0 
0.0 0.0 0.0 
0.0 0.0 0.0 
0.0 0.0 0.0 
0.0 0.0 0.0 
0.0 0.0 0.0 
0.0 0.0 0.0 
0.0 0.0 0.0 
0.0 0.0 0.0 
0.0 0.0 0.0 
0.0 0.0 0.0 
0.0 0.0 0.0 
0.0 0.0 0.0 
0.0 0.0 0.0 
0.0 0.0 0.0 
0.0 0.0 0.0 
0.0 0.0 0.0 
0.0 0.0 0.0 
0.0 0.0 0.0 
0.0 0.0 0.0 
0.0 0.0 0.0 
0.0 0.0 0.0 
0.0 0.0 0.0 
0.0 0.0 0.0 
0.0 0.0 0.0 
0.0 0.0 0.0 
0.0 0.0 0.0 
0.0 0.0 0.0 
0.0 0.0 0.0 
0.0 0.0 0.0 
0.0 0.0 0.0 
0.0 0.0 0.0 
0.0 0.0 0.0 
0.0 0.0 0.0 
0.0 0.0 0.0 
0.0 0.0 0.0 
0.0 0.0 0.0 
0.0 0.0 0.0 
0.0 0.0 0.0 
0.0 0.0 0.0 
0.0 0.0 0.0 
0.0 0.0 0.0 
0.0 0.0 0.0 
0.0 0.0 0.0 
0.0 0.0 0.0 
0.0 0.0 0.0 
0.0 0.0 0.0 
0.0 0.0 0.0 
0.0 0.0 0.0 
0.0 0.0 0.0 
0.0 0.0 0.0 
0.0 0.0 0.0 
0.0 0.0 0.0 
0.0 0.0 0.0 
0.0 0.0 0.0 
0.0 0.0 0.0 
0.0 0.0 0.0 
0.0 0.0 0.0 
0.0 0.0 0.0 
0.0 0.0 0.0 
0.0 0.0 0.0 
0.0 0.0 0.0 
0.0 0.0 0.0 
0.0 0.0 0.0 
0.0 0.0 0.0 
0.0 0.0 0.0 
0.0 0.0 0.0 
0.0 0.0 0.0 
0.0 0.0 0.0 
0.0 0.0 0.0 
0.0 0.0 0.0 
0.0 0.0 0.0 
0.0 0.0 0.0 
0.0 0.0 0.0 
0.0 0.0 0.0 
0.0 0.0 0.0 
0.0 0.0 0.0 
0.0 0.0 0.0 
0.0 0.0 0.0 
0.0 0.0 0.0 
0.0 0.0 0.0 
0.0 0.0 0.0 
0.0 0.0 0.0 
0.0 0.0 0.0 
0.0 0.0 0.0 
0.0 0.0 0.0 
0.0 0.0 0.0 
0.0 0.0 0.0 
0.0 0.0 0.0 
0.0 0.0 0.0 
0.0 0.0 0.0 
0.0 0.0 0.0 
0.0 0.0 0.0 
0.0 0.0 0.0 
0.0 0.0 0.0 
0.0 0.0 0.0 
0.0 0.0 0.0 
0.0 0.0 0.0 
0.0 0.0 0.0 
0.0 0.0 0.0 
0.0 0.0 0.0 
0.0 0.0 0.0 
0.0 0.0 0.0 
0.0 0.0 0.0 
0.0 0.0 0.0 
0.0 0.0 0.0 
0.0 0.0 0.0 
0.0 0.0 0.0 
0.0 0.0 0.0 
0.0 0.0 0.0 
0.0 0.0 0.0 
0.0 0.0 0.0 
0.0 0.0 0.0 
0.0 0.0 0.0 
0.0 0.0 0.0 
0.0 0.0 0.0 
0.0 0.0 0.0 
0.0 0.0 0.0 
0.0 0.0 0.0 
0.0 0.0 0.0 
0.0 0.0 0.0 
0.0 0.0 0.0 
0.0 0.0 0.0 
0.0 0.0 0.0 
0.0 0.0 0.0 
0.0 0.0 0.0 
0.0 0.0 0.0 
0.0 0.0 0.0 
0.0 0.0 0.0 
0.0 0.0 0.0 
0.0 0.0 0.0 
0.0 0.0 0.0 
0.0 0.0 0.0 
0.0 0.0 0.0 
0.0 0.0 0.0 
0.0 0.0 0.0 
0.0 0.0 0.0 
0.0 0.0 0.0 
0.0 0.0 0.0 
0.0 0.0 0.0 
0.0 0.0 0.0 
0.0 0.0 0.0 
0.0 0.0 0.0 
0.0 0.0 0.0 
0.0 0.0 0.0 
0.0 0.0 0.0 
0.0 0.0 0.0 
0.0 0.0 0.0 
0.0 0.0 0.0 
0.0 0.0 0.0 
0.0 0.0 0.0 
0.0 0.0 0.0 
0.0 0.0 0.0 
0.0 0.0 0.0 
0.0 0.0 0.0 
0.0 0.0 0.0 
0.0 0.0 0.0 
0.0 0.0 0.0 
0.0 0.0 0.0 
0.0 0.0 0.0 
0.0 0.0 0.0 
0.0 0.0 0.0 
0.0 0.0 0.0 
0.0 0.0 0.0 
0.0 0.0 0.0 
0.0 0.0 0.0 
0.0 0.0 0.0 
0.0 0.0 0.0 
0.0 0.0 0.0 
0.0 0.0 0.0 
0.0 0.0 0.0 
0.0 0.0 0.0 
0.0 0.0 0.0 
0.0 0.0 0.0 
0.0 0.0 0.0 
0.0 0.0 0.0 
0.0 0.0 0.0 
0.0 0.0 0.0 
0.0 0.0 0.0 
0.0 0.0 0.0 
0.0 0.0 0.0 
0.0 0.0 0.0 
0.0 0.0 0.0 
0.0 0.0 0.0 
0.0 0.0 0.0 
0.0 0.0 0.0 
0.0 0.0 0.0 
0.0 0.0 0.0 
0.0 0.0 0.0 
0.0 0.0 0.0 
0.0 0.0 0.0 
0.0 0.0 0.0 
0.0 0.0 0.0 
0.0 0.0 0.0 
0.0 0.0 0.0 
0.0 0.0 0.0 
0.0 0.0 0.0 
0.0 0.0 0.0 
0.0 0.0 0.0 
0.0 0.0 0.0 
0.0 0.0 0.0 
0.0 0.0 0.0 
0.0 0.0 0.0 
0.0 0.0 0.0 
0.0 0.0 0.0 
0.0 0.0 0.0 
0.0 0.0 0.0 
0.0 0.0 0.0 
0.0 0.0 0.0 
0.0 0.0 0.0 
0.0 0.0 0.0 
0.0 0.0 0.0 
0.0 0.0 0.0 
0.0 0.0 0.0 
0.0 0.0 0.0 
0.0 0.0 0.0 
0.0 0.0 0.0 
0.0 0.0 0.0 
0.0 0.0 0.0 
0.0 0.0 0.0 
0.0 0.0 0.0 
0.0 0.0 0.0 
0.0 0.0 0.0 
0.0 0.0 0.0 
0.0 0.0 0.0 
0.0 0.0 0.0 
0.0 0.0 0.0 
0.0 0.0 0.0 
0.0 0.0 0.0 
0.0 0.0 0.0 
0.0 0.0 0.0 
0.0 0.0 0.0 
0.0 0.0 0.0 
0.0 0.0 0.0 
0.0 0.0 0.0 
0.0 0.0 0.0 
0.0 0.0 0.0 
0.0 0.0 0.0 
0.0 0.0 0.0 
0.0 0.0 0.0 
0.0 0.0 0.0 
0.0 0.0 0.0 
0.0 0.0 0.0 
0.0 0.0 0.0 
0.0 0.0 0.0 
0.0 0.0 0.0 
0.0 0.0 0.0 
0.0 0.0 0.0 
0.0 0.0 0.0 
0.0 0.0 0.0 
0.0 0.0 0.0 
0.0 0.0 0.0 
0.0 0.0 0.0 
0.0 0.0 0.0 
0.0 0.0 0.0 
0.0 0.0 0.0 
0.0 0.0 0.0 
0.0 0.0 0.0 
0.0 0.0 0.0 
0.0 0.0 0.0 
0.0 0.0 0.0 
0.0 0.0 0.0 
0.0 0.0 0.0 
0.0 0.0 0.0 
0.0 0.0 0.0 
0.0 0.0 0.0 
0.0 0.0 0.0 
0.0 0.0 0.0 
0.0 0.0 0.0 
0.0 0.0 0.0 
0.0 0.0 0.0 
0.0 0.0 0.0 
0.0 0.0 0.0 
0.0 0.0 0.0 
0.0 0.0 0.0 
0.0 0.0 0.0 
0.0 0.0 0.0 
0.0 0.0 0.0 
0.0 0.0 0.0 
0.0 0.0 0.0 
0.0 0.0 0.0 
0.0 0.0 0.0 
0.0 0.0 0.0 
0.0 0.0 0.0 
0.0 0.0 0.0 
0.0 0.0 0.0 
0.0 0.0 0.0 
0.0 0.0 0.0 
0.0 0.0 0.0 
0.0 0.0 0.0 
0.0 0.0 0.0 
0.0 0.0 0.0 
0.0 0.0 0.0 
0.0 0.0 0.0 
0.0 0.0 0.0 
0.0 0.0 0.0 
0.0 0.0 0.0 
0.0 0.0 0.0 
0.0 0.0 0.0 
0.0 0.0 0.0 
0.0 0.0 0.0 
0.0 0.0 0.0 
0.0 0.0 0.0 
0.0 0.0 0.0 
0.0 0.0 0.0 
0.0 0.0 0.0 
0.0 0.0 0.0 
0.0 0.0 0.0 
0.0 0.0 0.0 
0.0 0.0 0.0 
0.0 0.0 0.0 
0.0 0.0 0.0 
0.0 0.0 0.0 
0.0 0.0 0.0 
0.0 0.0 0.0 
0.0 0.0 0.0 
0.0 0.0 0.0 
0.0 0.0 0.0 
0.0 0.0 0.0 
0.0 0.0 0.0 
0.0 0.0 0.0 
0.0 0.0 0.0 
0.0 0.0 0.0 
0.0 0.0 0.0 
0.0 0.0 0.0 
0.0 0.0 0.0 
0.0 0.0 0.0 
0.0 0.0 0.0 
0.0 0.0 0.0 
0.0 0.0 0.0 
0.0 0.0 0.0 
0.0 0.0 0.0 
0.0 0.0 0.0 
0.0 0.0 0.0 
0.0 0.0 0.0 
0.0 0.0 0.0 
0.0 0.0 0.0 
0.0 0.0 0.0 
0.0 0.0 0.0 
0.0 0.0 0.0 
0.0 0.0 0.0 
0.0 0.0 0.0 
0.0 0.0 0.0 
0.0 0.0 0.0 
0.0 0.0 0.0 
0.0 0.0 0.0 
0.0 0.0 0.0 
0.0 0.0 0.0 
0.0 0.0 0.0 
0.0 0.0 0.0 
0.0 0.0 0.0 
0.0 0.0 0.0 
0.0 0.0 0.0 
0.0 0.0 0.0 
0.0 0.0 0.0 
0.0 0.0 0.0 
0.0 0.0 0.0 
0.0 0.0 0.0 
0.0 0.0 0.0 
0.0 0.0 0.0 
0.0 0.0 0.0 
0.0 0.0 0.0 
0.0 0.0 0.0 
0.0 0.0 0.0 
0.0 0.0 0.0 
0.0 0.0 0.0 
0.0 0.0 0.0 
0.0 0.0 0.0 
0.0 0.0 0.0 
0.0 0.0 0.0 
0.0 0.0 0.0 
0.0 0.0 0.0 
0.0 0.0 0.0 
0.0 0.0 0.0 
0.0 0.0 0.0 
0.0 0.0 0.0 
0.0 0.0 0.0 
0.0 0.0 0.0 
0.0 0.0 0.0 
0.0 0.0 0.0 
0.0 0.0 0.0 
0.0 0.0 0.0 
0.0 0.0 0.0 
0.0 0.0 0.0 
0.0 0.0 0.0 
0.0 0.0 0.0 
0.0 0.0 0.0 
0.0 0.0 0.0 
0.0 0.0 0.0 
0.0 0.0 0.0 
0.0 0.0 0.0 
0.0 0.0 0.0 
0.0 0.0 0.0 
0.0 0.0 0.0 
0.0 0.0 0.0 
0.0 0.0 0.0 
0.0 0.0 0.0 
0.0 0.0 0.0 
0.0 0.0 0.0 
0.0 0.0 0.0 
0.0 0.0 0.0 
0.0 0.0 0.0 
0.0 0.0 0.0 
0.0 0.0 0.0 
0.0 0.0 0.0 
0.0 0.0 0.0 
0.0 0.0 0.0 
0.0 0.0 0.0 
0.0 0.0 0.0 
0.0 0.0 0.0 
0.0 0.0 0.0 
0.0 0.0 0.0 
0.0 0.0 0.0 
0.0 0.0 0.0 
0.0 0.0 0.0 
0.0 0.0 0.0 
0.0 0.0 0.0 
0.0 0.0 0.0 
0.0 0.0 0.0 
0.0 0.0 0.0 
0.0 0.0 0.0 
0.0 0.0 0.0 
0.0 0.0 0.0 
0.0 0.0 0.0 
0.0 0.0 0.0 
0.0 0.0 0.0 
0.0 0.0 0.0 
0.0 0.0 0.0 
0.0 0.0 0.0 
0.0 0.0 0.0 
0.0 0.0 0.0 
0.0 0.0 0.0 
0.0 0.0 0.0 
0.0 0.0 0.0 
0.0 0.0 0.0 
0.0 0.0 0.0 
0.0 0.0 0.0 
0.0 0.0 0.0 
0.0 0.0 0.0 
0.0 0.0 0.0 
0.0 0.0 0.0 
0.0 0.0 0.0 
0.0 0.0 0.0 
0.0 0.0 0.0 
0.0 0.0 0.0 
0.0 0.0 0.0 
0.0 0.0 0.0 
0.0 0.0 0.0 
0.0 0.0 0.0 
0.0 0.0 0.0 
0.0 0.0 0.0 
0.0 0.0 0.0 
0.0 0.0 0.0 
0.0 0.0 0.0 
0.0 0.0 0.0 
0.0 0.0 0.0 
0.0 0.0 0.0 
0.0 0.0 0.0 
0.0 0.0 0.0 
0.0 0.0 0.0 
0.0 0.0 0.0 
0.0 0.0 0.0 
0.0 0.0 0.0 
0.0 0.0 0.0 
0.0 0.0 0.0 
0.0 0.0 0.0 
0.0 0.0 0.0 
0.0 0.0 0.0 
0.0 0.0 0.0 
0.0 0.0 0.0 
0.0 0.0 0.0 
0.0 0.0 0.0 
0.0 0.0 0.0 
0.0 0.0 0.0 
0.0 0.0 0.0 
0.0 0.0 0.0 
0.0 0.0 0.0 
0.0 0.0 0.0 
0.0 0.0 0.0 
0.0 0.0 0.0 
0.0 0.0 0.0 
0.0 0.0 0.0 
0.0 0.0 0.0 
0.0 0.0 0.0 
0.0 0.0 0.0 
0.0 0.0 0.0 
0.0 0.0 0.0 
0.0 0.0 0.0 
0.0 0.0 0.0 
0.0 0.0 0.0 
0.0 0.0 0.0 
0.0 0.0 0.0 
0.0 0.0 0.0 
0.0 0.0 0.0 
0.0 0.0 0.0 
0.0 0.0 0.0 
0.0 0.0 0.0 
0.0 0.0 0.0 
0.0 0.0 0.0 
0.0 0.0 0.0 
0.0 0.0 0.0 
0.0 0.0 0.0 
0.0 0.0 0.0 
0.0 0.0 0.0 
0.0 0.0 0.0 
0.0 0.0 0.0 
0.0 0.0 0.0 
0.0 0.0 0.0 
0.0 0.0 0.0 
0.0 0.0 0.0 
0.0 0.0 0.0 
0.0 0.0 0.0 
0.0 0.0 0.0 
0.0 0.0 0.0 
0.0 0.0 0.0 
0.0 0.0 0.0 
0.0 0.0 0.0 
0.0 0.0 0.0 
0.0 0.0 0.0 
0.0 0.0 0.0 
0.0 0.0 0.0 
0.0 0.0 0.0 
0.0 0.0 0.0 
0.0 0.0 0.0 
0.0 0.0 0.0 
0.0 0.0 0.0 
0.0 0.0 0.0 
0.0 0.0 0.0 
0.0 0.0 0.0 
0.0 0.0 0.0 
0.0 0.0 0.0 
0.0 0.0 0.0 
0.0 0.0 0.0 
0.0 0.0 0.0 
0.0 0.0 0.0 
0.0 0.0 0.0 
0.0 0.0 0.0 
0.0 0.0 0.0 
0.0 0.0 0.0 
0.0 0.0 0.0 
0.0 0.0 0.0 
0.0 0.0 0.0 
0.0 0.0 0.0 
0.0 0.0 0.0 
0.0 0.0 0.0 
0.0 0.0 0.0 
0.0 0.0 0.0 
0.0 0.0 0.0 
0.0 0.0 0.0 
0.0 0.0 0.0 
0.0 0.0 0.0 
0.0 0.0 0.0 
0.0 0.0 0.0 
0.0 0.0 0.0 
0.0 0.0 0.0 
0.0 0.0 0.0 
0.0 0.0 0.0 
0.0 0.0 0.0 
0.0 0.0 0.0 
0.0 0.0 0.0 
0.0 0.0 0.0 
0.0 0.0 0.0 
0.0 0.0 0.0 
0.0 0.0 0.0 
0.0 0.0 0.0 
0.0 0.0 0.0 
0.0 0.0 0.0 
0.0 0.0 0.0 
0.0 0.0 0.0 
0.0 0.0 0.0 
0.0 0.0 0.0 
0.0 0.0 0.0 
0.0 0.0 0.0 
0.0 0.0 0.0 
0.0 0.0 0.0 
0.0 0.0 0.0 
0.0 0.0 0.0 
0.0 0.0 0.0 
0.0 0.0 0.0 
0.0 0.0 0.0 
0.0 0.0 0.0 
0.0 0.0 0.0 
0.0 0.0 0.0 
0.0 0.0 0.0 
0.0 0.0 0.0 
0.0 0.0 0.0 
0.0 0.0 0.0 
0.0 0.0 0.0 
0.0 0.0 0.0 
0.0 0.0 0.0 
0.0 0.0 0.0 
0.0 0.0 0.0 
0.0 0.0 0.0 
0.0 0.0 0.0 
0.0 0.0 0.0 
0.0 0.0 0.0 
0.0 0.0 0.0 
0.0 0.0 0.0 
0.0 0.0 0.0 
0.0 0.0 0.0 
0.0 0.0 0.0 
0.0 0.0 0.0 
0.0 0.0 0.0 
0.0 0.0 0.0 
0.0 0.0 0.0 
0.0 0.0 0.0 
0.0 0.0 0.0 
0.0 0.0 0.0 
0.0 0.0 0.0 
0.0 0.0 0.0 
0.0 0.0 0.0 
0.0 0.0 0.0 
0.0 0.0 0.0 
0.0 0.0 0.0 
0.0 0.0 0.0 
0.0 0.0 0.0 
0.0 0.0 0.0 
0.0 0.0 0.0 
0.0 0.0 0.0 
0.0 0.0 0.0 
0.0 0.0 0.0 
0.0 0.0 0.0 
0.0 0.0 0.0 
0.0 0.0 0.0 
0.0 0.0 0.0 
0.0 0.0 0.0 
0.0 0.0 0.0 
0.0 0.0 0.0 
0.0 0.0 0.0 
0.0 0.0 0.0 
0.0 0.0 0.0 
0.0 0.0 0.0 
0.0 0.0 0.0 
0.0 0.0 0.0 
0.0 0.0 0.0 
0.0 0.0 0.0 
0.0 0.0 0.0 
0.0 0.0 0.0 
0.0 0.0 0.0 
0.0 0.0 0.0 
0.0 0.0 0.0 
0.0 0.0 0.0 
0.0 0.0 0.0 
0.0 0.0 0.0 
0.0 0.0 0.0 
0.0 0.0 0.0 
0.0 0.0 0.0 
0.0 0.0 0.0 
0.0 0.0 0.0 
0.0 0.0 0.0 
0.0 0.0 0.0 
0.0 0.0 0.0 
0.0 0.0 0.0 
0.0 0.0 0.0 
0.0 0.0 0.0 
0.0 0.0 0.0 
0.0 0.0 0.0 
0.0 0.0 0.0 
0.0 0.0 0.0 
0.0 0.0 0.0 
0.0 0.0 0.0 
0.0 0.0 0.0 
0.0 0.0 0.0 
0.0 0.0 0.0 
0.0 0.0 0.0 
0.0 0.0 0.0 
0.0 0.0 0.0 
0.0 0.0 0.0 
0.0 0.0 0.0 
0.0 0.0 0.0 
0.0 0.0 0.0 
0.0 0.0 0.0 
0.0 0.0 0.0 
0.0 0.0 0.0 
0.0 0.0 0.0 
0.0 0.0 0.0 
0.0 0.0 0.0 
0.0 0.0 0.0 
0.0 0.0 0.0 
0.0 0.0 0.0 
0.0 0.0 0.0 
0.0 0.0 0.0 
0.0 0.0 0.0 
0.0 0.0 0.0 
0.0 0.0 0.0 
0.0 0.0 0.0 
0.0 0.0 0.0 
0.0 0.0 0.0 
0.0 0.0 0.0 
0.0 0.0 0.0 
0.0 0.0 0.0 
0.0 0.0 0.0 
0.0 0.0 0.0 
0.0 0.0 0.0 
0.0 0.0 0.0 
0.0 0.0 0.0 
0.0 0.0 0.0 
0.0 0.0 0.0 
0.0 0.0 0.0 
0.0 0.0 0.0 
0.0 0.0 0.0 
0.0 0.0 0.0 
0.0 0.0 0.0 
0.0 0.0 0.0 
0.0 0.0 0.0 
0.0 0.0 0.0 
0.0 0.0 0.0 
0.0 0.0 0.0 
0.0 0.0 0.0 
0.0 0.0 0.0 
0.0 0.0 0.0 
0.0 0.0 0.0 
0.0 0.0 0.0 
0.0 0.0 0.0 
0.0 0.0 0.0 
0.0 0.0 0.0 
0.0 0.0 0.0 
0.0 0.0 0.0 
0.0 0.0 0.0 
0.0 0.0 0.0 
0.0 0.0 0.0 
0.0 0.0 0.0 
0.0 0.0 0.0 
0.0 0.0 0.0 
0.0 0.0 0.0 
0.0 0.0 0.0 
0.0 0.0 0.0 
0.0 0.0 0.0 
0.0 0.0 0.0 
0.0 0.0 0.0 
0.0 0.0 0.0 
0.0 0.0 0.0 
0.0 0.0 0.0 
0.0 0.0 0.0 
0.0 0.0 0.0 
0.0 0.0 0.0 
0.0 0.0 0.0 
0.0 0.0 0.0 
0.0 0.0 0.0 
0.0 0.0 0.0 
0.0 0.0 0.0 
0.0 0.0 0.0 
0.0 0.0 0.0 
0.0 0.0 0.0 
0.0 0.0 0.0 
0.0 0.0 0.0 
0.0 0.0 0.0 
0.0 0.0 0.0 
0.0 0.0 0.0 
0.0 0.0 0.0 
0.0 0.0 0.0 
0.0 0.0 0.0 
0.0 0.0 0.0 
0.0 0.0 0.0 
0.0 0.0 0.0 
0.0 0.0 0.0 
0.0 0.0 0.0 
0.0 0.0 0.0 
0.0 0.0 0.0 
0.0 0.0 0.0 
0.0 0.0 0.0 
0.0 0.0 0.0 
0.0 0.0 0.0 
0.0 0.0 0.0 
0.0 0.0 0.0 
0.0 0.0 0.0 
0.0 0.0 0.0 
0.0 0.0 0.0 
0.0 0.0 0.0 
0.0 0.0 0.0 
0.0 0.0 0.0 
0.0 0.0 0.0 
0.0 0.0 0.0 
0.0 0.0 0.0 
0.0 0.0 0.0 
0.0 0.0 0.0 
0.0 0.0 0.0 
0.0 0.0 0.0 
0.0 0.0 0.0 

VECTORS node_bounda_dof_materi_velocity_y float
0.0 0.0 0.0 
0.0 0.0 0.0 
0.0 1.000000000000e+00 0.0 
0.0 1.000000000000e+00 0.0 
0.0 0.0 0.0 
0.0 0.0 0.0 
0.0 0.0 0.0 
0.0 0.0 0.0 
0.0 0.0 0.0 
0.0 0.0 0.0 
0.0 0.0 0.0 
0.0 0.0 0.0 
0.0 0.0 0.0 
0.0 0.0 0.0 
0.0 0.0 0.0 
0.0 0.0 0.0 
0.0 0.0 0.0 
0.0 0.0 0.0 
0.0 0.0 0.0 
0.0 0.0 0.0 
0.0 0.0 0.0 
0.0 0.0 0.0 
0.0 0.0 0.0 
0.0 1.000000000000e+00 0.0 
0.0 1.000000000000e+00 0.0 
0.0 1.000000000000e+00 0.0 
0.0 1.000000000000e+00 0.0 
0.0 1.000000000000e+00 0.0 
0.0 1.000000000000e+00 0.0 
0.0 1.000000000000e+00 0.0 
0.0 1.000000000000e+00 0.0 
0.0 1.000000000000e+00 0.0 
0.0 1.000000000000e+00 0.0 
0.0 1.000000000000e+00 0.0 
0.0 1.000000000000e+00 0.0 
0.0 1.000000000000e+00 0.0 
0.0 1.000000000000e+00 0.0 
0.0 1.000000000000e+00 0.0 
0.0 1.000000000000e+00 0.0 
0.0 1.000000000000e+00 0.0 
0.0 1.000000000000e+00 0.0 
0.0 1.000000000000e+00 0.0 
0.0 1.000000000000e+00 0.0 
0.0 1.000000000000e+00 0.0 
0.0 1.000000000000e+00 0.0 
0.0 1.000000000000e+00 0.0 
0.0 1.000000000000e+00 0.0 
0.0 1.000000000000e+00 0.0 
0.0 1.000000000000e+00 0.0 
0.0 1.000000000000e+00 0.0 
0.0 1.000000000000e+00 0.0 
0.0 1.000000000000e+00 0.0 
0.0 1.000000000000e+00 0.0 
0.0 1.000000000000e+00 0.0 
0.0 1.000000000000e+00 0.0 
0.0 1.000000000000e+00 0.0 
0.0 1.000000000000e+00 0.0 
0.0 1.000000000000e+00 0.0 
0.0 1.000000000000e+00 0.0 
0.0 1.000000000000e+00 0.0 
0.0 1.000000000000e+00 0.0 
0.0 1.000000000000e+00 0.0 
0.0 1.000000000000e+00 0.0 
0.0 1.000000000000e+00 0.0 
0.0 1.000000000000e+00 0.0 
0.0 1.000000000000e+00 0.0 
0.0 1.000000000000e+00 0.0 
0.0 1.000000000000e+00 0.0 
0.0 1.000000000000e+00 0.0 
0.0 1.000000000000e+00 0.0 
0.0 1.000000000000e+00 0.0 
0.0 1.000000000000e+00 0.0 
0.0 0.0 0.0 
0.0 0.0 0.0 
0.0 0.0 0.0 
0.0 0.0 0.0 
0.0 0.0 0.0 
0.0 0.0 0.0 
0.0 0.0 0.0 
0.0 0.0 0.0 
0.0 0.0 0.0 
0.0 0.0 0.0 
0.0 0.0 0.0 
0.0 0.0 0.0 
0.0 0.0 0.0 
0.0 0.0 0.0 
0.0 0.0 0.0 
0.0 0.0 0.0 
0.0 0.0 0.0 
0.0 0.0 0.0 
0.0 0.0 0.0 
0.0 0.0 0.0 
0.0 0.0 0.0 
0.0 0.0 0.0 
0.0 0.0 0.0 
0.0 0.0 0.0 
0.0 0.0 0.0 
0.0 0.0 0.0 
0.0 0.0 0.0 
0.0 0.0 0.0 
0.0 0.0 0.0 
0.0 0.0 0.0 
0.0 0.0 0.0 
0.0 0.0 0.0 
0.0 0.0 0.0 
0.0 0.0 0.0 
0.0 0.0 0.0 
0.0 0.0 0.0 
0.0 0.0 0.0 
0.0 0.0 0.0 
0.0 0.0 0.0 
0.0 0.0 0.0 
0.0 0.0 0.0 
0.0 0.0 0.0 
0.0 0.0 0.0 
0.0 0.0 0.0 
0.0 0.0 0.0 
0.0 0.0 0.0 
0.0 0.0 0.0 
0.0 0.0 0.0 
0.0 0.0 0.0 
0.0 0.0 0.0 
0.0 0.0 0.0 
0.0 0.0 0.0 
0.0 0.0 0.0 
0.0 0.0 0.0 
0.0 0.0 0.0 
0.0 0.0 0.0 
0.0 0.0 0.0 
0.0 0.0 0.0 
0.0 0.0 0.0 
0.0 0.0 0.0 
0.0 0.0 0.0 
0.0 0.0 0.0 
0.0 0.0 0.0 
0.0 0.0 0.0 
0.0 0.0 0.0 
0.0 0.0 0.0 
0.0 0.0 0.0 
0.0 0.0 0.0 
0.0 0.0 0.0 
0.0 0.0 0.0 
0.0 0.0 0.0 
0.0 0.0 0.0 
0.0 0.0 0.0 
0.0 0.0 0.0 
0.0 0.0 0.0 
0.0 0.0 0.0 
0.0 0.0 0.0 
0.0 0.0 0.0 
0.0 0.0 0.0 
0.0 0.0 0.0 
0.0 0.0 0.0 
0.0 0.0 0.0 
0.0 0.0 0.0 
0.0 0.0 0.0 
0.0 0.0 0.0 
0.0 0.0 0.0 
0.0 0.0 0.0 
0.0 0.0 0.0 
0.0 0.0 0.0 
0.0 0.0 0.0 
0.0 0.0 0.0 
0.0 0.0 0.0 
0.0 0.0 0.0 
0.0 0.0 0.0 
0.0 0.0 0.0 
0.0 0.0 0.0 
0.0 0.0 0.0 
0.0 0.0 0.0 
0.0 0.0 0.0 
0.0 0.0 0.0 
0.0 0.0 0.0 
0.0 0.0 0.0 
0.0 0.0 0.0 
0.0 0.0 0.0 
0.0 0.0 0.0 
0.0 0.0 0.0 
0.0 0.0 0.0 
0.0 0.0 0.0 
0.0 0.0 0.0 
0.0 0.0 0.0 
0.0 0.0 0.0 
0.0 0.0 0.0 
0.0 0.0 0.0 
0.0 0.0 0.0 
0.0 0.0 0.0 
0.0 0.0 0.0 
0.0 0.0 0.0 
0.0 0.0 0.0 
0.0 0.0 0.0 
0.0 0.0 0.0 
0.0 0.0 0.0 
0.0 0.0 0.0 
0.0 0.0 0.0 
0.0 0.0 0.0 
0.0 0.0 0.0 
0.0 0.0 0.0 
0.0 0.0 0.0 
0.0 0.0 0.0 
0.0 0.0 0.0 
0.0 0.0 0.0 
0.0 0.0 0.0 
0.0 0.0 0.0 
0.0 0.0 0.0 
0.0 0.0 0.0 
0.0 0.0 0.0 
0.0 0.0 0.0 
0.0 0.0 0.0 
0.0 0.0 0.0 
0.0 0.0 0.0 
0.0 0.0 0.0 
0.0 0.0 0.0 
0.0 0.0 0.0 
0.0 0.0 0.0 
0.0 0.0 0.0 
0.0 0.0 0.0 
0.0 0.0 0.0 
0.0 0.0 0.0 
0.0 0.0 0.0 
0.0 0.0 0.0 
0.0 0.0 0.0 
0.0 0.0 0.0 
0.0 0.0 0.0 
0.0 0.0 0.0 
0.0 0.0 0.0 
0.0 0.0 0.0 
0.0 0.0 0.0 
0.0 0.0 0.0 
0.0 0.0 0.0 
0.0 0.0 0.0 
0.0 0.0 0.0 
0.0 0.0 0.0 
0.0 0.0 0.0 
0.0 0.0 0.0 
0.0 0.0 0.0 
0.0 0.0 0.0 
0.0 0.0 0.0 
0.0 0.0 0.0 
0.0 0.0 0.0 
0.0 0.0 0.0 
0.0 0.0 0.0 
0.0 0.0 0.0 
0.0 0.0 0.0 
0.0 0.0 0.0 
0.0 0.0 0.0 
0.0 0.0 0.0 
0.0 0.0 0.0 
0.0 0.0 0.0 
0.0 0.0 0.0 
0.0 0.0 0.0 
0.0 0.0 0.0 
0.0 0.0 0.0 
0.0 0.0 0.0 
0.0 0.0 0.0 
0.0 0.0 0.0 
0.0 0.0 0.0 
0.0 0.0 0.0 
0.0 0.0 0.0 
0.0 0.0 0.0 
0.0 0.0 0.0 
0.0 0.0 0.0 
0.0 0.0 0.0 
0.0 0.0 0.0 
0.0 0.0 0.0 
0.0 0.0 0.0 
0.0 0.0 0.0 
0.0 0.0 0.0 
0.0 0.0 0.0 
0.0 0.0 0.0 
0.0 0.0 0.0 
0.0 0.0 0.0 
0.0 0.0 0.0 
0.0 0.0 0.0 
0.0 0.0 0.0 
0.0 0.0 0.0 
0.0 0.0 0.0 
0.0 0.0 0.0 
0.0 0.0 0.0 
0.0 0.0 0.0 
0.0 0.0 0.0 
0.0 0.0 0.0 
0.0 0.0 0.0 
0.0 0.0 0.0 
0.0 0.0 0.0 
0.0 0.0 0.0 
0.0 0.0 0.0 
0.0 0.0 0.0 
0.0 0.0 0.0 
0.0 0.0 0.0 
0.0 0.0 0.0 
0.0 0.0 0.0 
0.0 0.0 0.0 
0.0 0.0 0.0 
0.0 0.0 0.0 
0.0 0.0 0.0 
0.0 0.0 0.0 
0.0 0.0 0.0 
0.0 0.0 0.0 
0.0 0.0 0.0 
0.0 0.0 0.0 
0.0 0.0 0.0 
0.0 0.0 0.0 
0.0 0.0 0.0 
0.0 0.0 0.0 
0.0 0.0 0.0 
0.0 0.0 0.0 
0.0 0.0 0.0 
0.0 0.0 0.0 
0.0 0.0 0.0 
0.0 0.0 0.0 
0.0 0.0 0.0 
0.0 0.0 0.0 
0.0 0.0 0.0 
0.0 0.0 0.0 
0.0 0.0 0.0 
0.0 0.0 0.0 
0.0 0.0 0.0 
0.0 0.0 0.0 
0.0 0.0 0.0 
0.0 0.0 0.0 
0.0 0.0 0.0 
0.0 0.0 0.0 
0.0 0.0 0.0 
0.0 0.0 0.0 
0.0 0.0 0.0 
0.0 0.0 0.0 
0.0 0.0 0.0 
0.0 0.0 0.0 
0.0 0.0 0.0 
0.0 0.0 0.0 
0.0 0.0 0.0 
0.0 0.0 0.0 
0.0 0.0 0.0 
0.0 0.0 0.0 
0.0 0.0 0.0 
0.0 0.0 0.0 
0.0 0.0 0.0 
0.0 0.0 0.0 
0.0 0.0 0.0 
0.0 0.0 0.0 
0.0 0.0 0.0 
0.0 0.0 0.0 
0.0 0.0 0.0 
0.0 0.0 0.0 
0.0 0.0 0.0 
0.0 0.0 0.0 
0.0 0.0 0.0 
0.0 0.0 0.0 
0.0 0.0 0.0 
0.0 0.0 0.0 
0.0 0.0 0.0 
0.0 0.0 0.0 
0.0 0.0 0.0 
0.0 0.0 0.0 
0.0 0.0 0.0 
0.0 0.0 0.0 
0.0 0.0 0.0 
0.0 0.0 0.0 
0.0 0.0 0.0 
0.0 0.0 0.0 
0.0 0.0 0.0 
0.0 0.0 0.0 
0.0 0.0 0.0 
0.0 0.0 0.0 
0.0 0.0 0.0 
0.0 0.0 0.0 
0.0 0.0 0.0 
0.0 0.0 0.0 
0.0 0.0 0.0 
0.0 0.0 0.0 
0.0 0.0 0.0 
0.0 0.0 0.0 
0.0 0.0 0.0 
0.0 0.0 0.0 
0.0 0.0 0.0 
0.0 0.0 0.0 
0.0 0.0 0.0 
0.0 0.0 0.0 
0.0 0.0 0.0 
0.0 0.0 0.0 
0.0 0.0 0.0 
0.0 0.0 0.0 
0.0 0.0 0.0 
0.0 0.0 0.0 
0.0 0.0 0.0 
0.0 0.0 0.0 
0.0 0.0 0.0 
0.0 0.0 0.0 
0.0 0.0 0.0 
0.0 0.0 0.0 
0.0 0.0 0.0 
0.0 0.0 0.0 
0.0 0.0 0.0 
0.0 0.0 0.0 
0.0 0.0 0.0 
0.0 0.0 0.0 
0.0 0.0 0.0 
0.0 0.0 0.0 
0.0 0.0 0.0 
0.0 0.0 0.0 
0.0 0.0 0.0 
0.0 0.0 0.0 
0.0 0.0 0.0 
0.0 0.0 0.0 
0.0 0.0 0.0 
0.0 0.0 0.0 
0.0 0.0 0.0 
0.0 0.0 0.0 
0.0 0.0 0.0 
0.0 0.0 0.0 
0.0 0.0 0.0 
0.0 0.0 0.0 
0.0 0.0 0.0 
0.0 0.0 0.0 
0.0 0.0 0.0 
0.0 0.0 0.0 
0.0 0.0 0.0 
0.0 0.0 0.0 
0.0 0.0 0.0 
0.0 0.0 0.0 
0.0 0.0 0.0 
0.0 0.0 0.0 
0.0 0.0 0.0 
0.0 0.0 0.0 
0.0 0.0 0.0 
0.0 0.0 0.0 
0.0 0.0 0.0 
0.0 0.0 0.0 
0.0 0.0 0.0 
0.0 0.0 0.0 
0.0 0.0 0.0 
0.0 0.0 0.0 
0.0 0.0 0.0 
0.0 0.0 0.0 
0.0 0.0 0.0 
0.0 0.0 0.0 
0.0 0.0 0.0 
0.0 0.0 0.0 
0.0 0.0 0.0 
0.0 0.0 0.0 
0.0 0.0 0.0 
0.0 0.0 0.0 
0.0 0.0 0.0 
0.0 0.0 0.0 
0.0 0.0 0.0 
0.0 0.0 0.0 
0.0 0.0 0.0 
0.0 0.0 0.0 
0.0 0.0 0.0 
0.0 0.0 0.0 
0.0 0.0 0.0 
0.0 0.0 0.0 
0.0 0.0 0.0 
0.0 0.0 0.0 
0.0 0.0 0.0 
0.0 0.0 0.0 
0.0 0.0 0.0 
0.0 0.0 0.0 
0.0 0.0 0.0 
0.0 0.0 0.0 
0.0 0.0 0.0 
0.0 0.0 0.0 
0.0 0.0 0.0 
0.0 0.0 0.0 
0.0 0.0 0.0 
0.0 0.0 0.0 
0.0 0.0 0.0 
0.0 0.0 0.0 
0.0 0.0 0.0 
0.0 0.0 0.0 
0.0 0.0 0.0 
0.0 0.0 0.0 
0.0 0.0 0.0 
0.0 0.0 0.0 
0.0 0.0 0.0 
0.0 0.0 0.0 
0.0 0.0 0.0 
0.0 0.0 0.0 
0.0 0.0 0.0 
0.0 0.0 0.0 
0.0 0.0 0.0 
0.0 0.0 0.0 
0.0 0.0 0.0 
0.0 0.0 0.0 
0.0 0.0 0.0 
0.0 0.0 0.0 
0.0 0.0 0.0 
0.0 0.0 0.0 
0.0 0.0 0.0 
0.0 0.0 0.0 
0.0 0.0 0.0 
0.0 0.0 0.0 
0.0 0.0 0.0 
0.0 0.0 0.0 
0.0 0.0 0.0 
0.0 0.0 0.0 
0.0 0.0 0.0 
0.0 0.0 0.0 
0.0 0.0 0.0 
0.0 0.0 0.0 
0.0 0.0 0.0 
0.0 0.0 0.0 
0.0 0.0 0.0 
0.0 0.0 0.0 
0.0 0.0 0.0 
0.0 0.0 0.0 
0.0 0.0 0.0 
0.0 0.0 0.0 
0.0 0.0 0.0 
0.0 0.0 0.0 
0.0 0.0 0.0 
0.0 0.0 0.0 
0.0 0.0 0.0 
0.0 0.0 0.0 
0.0 0.0 0.0 
0.0 0.0 0.0 
0.0 0.0 0.0 
0.0 0.0 0.0 
0.0 0.0 0.0 
0.0 0.0 0.0 
0.0 0.0 0.0 
0.0 0.0 0.0 
0.0 0.0 0.0 
0.0 0.0 0.0 
0.0 0.0 0.0 
0.0 0.0 0.0 
0.0 0.0 0.0 
0.0 0.0 0.0 
0.0 0.0 0.0 
0.0 0.0 0.0 
0.0 0.0 0.0 
0.0 0.0 0.0 
0.0 0.0 0.0 
0.0 0.0 0.0 
0.0 0.0 0.0 
0.0 0.0 0.0 
0.0 0.0 0.0 
0.0 0.0 0.0 
0.0 0.0 0.0 
0.0 0.0 0.0 
0.0 0.0 0.0 
0.0 0.0 0.0 
0.0 0.0 0.0 
0.0 0.0 0.0 
0.0 0.0 0.0 
0.0 0.0 0.0 
0.0 0.0 0.0 
0.0 0.0 0.0 
0.0 0.0 0.0 
0.0 0.0 0.0 
0.0 0.0 0.0 
0.0 0.0 0.0 
0.0 0.0 0.0 
0.0 0.0 0.0 
0.0 0.0 0.0 
0.0 0.0 0.0 
0.0 0.0 0.0 
0.0 0.0 0.0 
0.0 0.0 0.0 
0.0 0.0 0.0 
0.0 0.0 0.0 
0.0 0.0 0.0 
0.0 0.0 0.0 
0.0 0.0 0.0 
0.0 0.0 0.0 
0.0 0.0 0.0 
0.0 0.0 0.0 
0.0 0.0 0.0 
0.0 0.0 0.0 
0.0 0.0 0.0 
0.0 0.0 0.0 
0.0 0.0 0.0 
0.0 0.0 0.0 
0.0 0.0 0.0 
0.0 0.0 0.0 
0.0 0.0 0.0 
0.0 0.0 0.0 
0.0 0.0 0.0 
0.0 0.0 0.0 
0.0 0.0 0.0 
0.0 0.0 0.0 
0.0 0.0 0.0 
0.0 0.0 0.0 
0.0 0.0 0.0 
0.0 0.0 0.0 
0.0 0.0 0.0 
0.0 0.0 0.0 
0.0 0.0 0.0 
0.0 0.0 0.0 
0.0 0.0 0.0 
0.0 0.0 0.0 
0.0 0.0 0.0 
0.0 0.0 0.0 
0.0 0.0 0.0 
0.0 0.0 0.0 
0.0 0.0 0.0 
0.0 0.0 0.0 
0.0 0.0 0.0 
0.0 0.0 0.0 
0.0 0.0 0.0 
0.0 0.0 0.0 
0.0 0.0 0.0 
0.0 0.0 0.0 
0.0 0.0 0.0 
0.0 0.0 0.0 
0.0 0.0 0.0 
0.0 0.0 0.0 
0.0 0.0 0.0 
0.0 0.0 0.0 
0.0 0.0 0.0 
0.0 0.0 0.0 
0.0 0.0 0.0 
0.0 0.0 0.0 
0.0 0.0 0.0 
0.0 0.0 0.0 
0.0 0.0 0.0 
0.0 0.0 0.0 
0.0 0.0 0.0 
0.0 0.0 0.0 
0.0 0.0 0.0 
0.0 0.0 0.0 
0.0 0.0 0.0 
0.0 0.0 0.0 
0.0 0.0 0.0 
0.0 0.0 0.0 
0.0 0.0 0.0 
0.0 0.0 0.0 
0.0 0.0 0.0 
0.0 0.0 0.0 
0.0 0.0 0.0 
0.0 0.0 0.0 
0.0 0.0 0.0 
0.0 0.0 0.0 
0.0 0.0 0.0 
0.0 0.0 0.0 
0.0 0.0 0.0 
0.0 0.0 0.0 
0.0 0.0 0.0 
0.0 0.0 0.0 
0.0 0.0 0.0 
0.0 0.0 0.0 
0.0 0.0 0.0 
0.0 0.0 0.0 
0.0 0.0 0.0 
0.0 0.0 0.0 
0.0 0.0 0.0 
0.0 0.0 0.0 
0.0 0.0 0.0 
0.0 0.0 0.0 
0.0 0.0 0.0 
0.0 0.0 0.0 
0.0 0.0 0.0 
0.0 0.0 0.0 
0.0 0.0 0.0 
0.0 0.0 0.0 
0.0 0.0 0.0 
0.0 0.0 0.0 
0.0 0.0 0.0 
0.0 0.0 0.0 
0.0 0.0 0.0 
0.0 0.0 0.0 
0.0 0.0 0.0 
0.0 0.0 0.0 
0.0 0.0 0.0 
0.0 0.0 0.0 
0.0 0.0 0.0 
0.0 0.0 0.0 
0.0 0.0 0.0 
0.0 0.0 0.0 
0.0 0.0 0.0 
0.0 0.0 0.0 
0.0 0.0 0.0 
0.0 0.0 0.0 
0.0 0.0 0.0 
0.0 0.0 0.0 
0.0 0.0 0.0 
0.0 0.0 0.0 
0.0 0.0 0.0 
0.0 0.0 0.0 
0.0 0.0 0.0 
0.0 0.0 0.0 
0.0 0.0 0.0 
0.0 0.0 0.0 
0.0 0.0 0.0 
0.0 0.0 0.0 
0.0 0.0 0.0 
0.0 0.0 0.0 
0.0 0.0 0.0 
0.0 0.0 0.0 
0.0 0.0 0.0 
0.0 0.0 0.0 
0.0 0.0 0.0 
0.0 0.0 0.0 
0.0 0.0 0.0 
0.0 0.0 0.0 
0.0 0.0 0.0 
0.0 0.0 0.0 
0.0 0.0 0.0 
0.0 0.0 0.0 
0.0 0.0 0.0 
0.0 0.0 0.0 
0.0 0.0 0.0 
0.0 0.0 0.0 
0.0 0.0 0.0 
0.0 0.0 0.0 
0.0 0.0 0.0 
0.0 0.0 0.0 
0.0 0.0 0.0 
0.0 0.0 0.0 
0.0 0.0 0.0 
0.0 0.0 0.0 
0.0 0.0 0.0 
0.0 0.0 0.0 
0.0 0.0 0.0 
0.0 0.0 0.0 
0.0 0.0 0.0 
0.0 0.0 0.0 
0.0 0.0 0.0 
0.0 0.0 0.0 
0.0 0.0 0.0 
0.0 0.0 0.0 
0.0 0.0 0.0 
0.0 0.0 0.0 
0.0 0.0 0.0 
0.0 0.0 0.0 
0.0 0.0 0.0 
0.0 0.0 0.0 
0.0 0.0 0.0 
0.0 0.0 0.0 
0.0 0.0 0.0 
0.0 0.0 0.0 
0.0 0.0 0.0 
0.0 0.0 0.0 
0.0 0.0 0.0 
0.0 0.0 0.0 
0.0 0.0 0.0 
0.0 0.0 0.0 
0.0 0.0 0.0 
0.0 0.0 0.0 
0.0 0.0 0.0 
0.0 0.0 0.0 
0.0 0.0 0.0 
0.0 0.0 0.0 
0.0 0.0 0.0 
0.0 0.0 0.0 
0.0 0.0 0.0 
0.0 0.0 0.0 
0.0 0.0 0.0 
0.0 0.0 0.0 
0.0 0.0 0.0 
0.0 0.0 0.0 
0.0 0.0 0.0 
0.0 0.0 0.0 
0.0 0.0 0.0 
0.0 0.0 0.0 
0.0 0.0 0.0 
0.0 0.0 0.0 
0.0 0.0 0.0 
0.0 0.0 0.0 
0.0 0.0 0.0 
0.0 0.0 0.0 
0.0 0.0 0.0 
0.0 0.0 0.0 
0.0 0.0 0.0 
0.0 0.0 0.0 
0.0 0.0 0.0 
0.0 0.0 0.0 
0.0 0.0 0.0 
0.0 0.0 0.0 
0.0 0.0 0.0 
0.0 0.0 0.0 
0.0 0.0 0.0 
0.0 0.0 0.0 
0.0 0.0 0.0 
0.0 0.0 0.0 
0.0 0.0 0.0 
0.0 0.0 0.0 
0.0 0.0 0.0 
0.0 0.0 0.0 
0.0 0.0 0.0 
0.0 0.0 0.0 
0.0 0.0 0.0 
0.0 0.0 0.0 
0.0 0.0 0.0 
0.0 0.0 0.0 
0.0 0.0 0.0 
0.0 0.0 0.0 
0.0 0.0 0.0 
0.0 0.0 0.0 
0.0 0.0 0.0 
0.0 0.0 0.0 
0.0 0.0 0.0 
0.0 0.0 0.0 
0.0 0.0 0.0 
0.0 0.0 0.0 
0.0 0.0 0.0 
0.0 0.0 0.0 
0.0 0.0 0.0 
0.0 0.0 0.0 
0.0 0.0 0.0 
0.0 0.0 0.0 
0.0 0.0 0.0 
0.0 0.0 0.0 
0.0 0.0 0.0 
0.0 0.0 0.0 
0.0 0.0 0.0 
0.0 0.0 0.0 
0.0 0.0 0.0 
0.0 0.0 0.0 
0.0 0.0 0.0 
0.0 0.0 0.0 
0.0 0.0 0.0 
0.0 0.0 0.0 
0.0 0.0 0.0 
0.0 0.0 0.0 
0.0 0.0 0.0 
0.0 0.0 0.0 
0.0 0.0 0.0 
0.0 0.0 0.0 
0.0 0.0 0.0 
0.0 0.0 0.0 
0.0 0.0 0.0 
0.0 0.0 0.0 
0.0 0.0 0.0 
0.0 0.0 0.0 
0.0 0.0 0.0 
0.0 0.0 0.0 
0.0 0.0 0.0 
0.0 0.0 0.0 
0.0 0.0 0.0 
0.0 0.0 0.0 
0.0 0.0 0.0 
0.0 0.0 0.0 
0.0 0.0 0.0 
0.0 0.0 0.0 
0.0 0.0 0.0 
0.0 0.0 0.0 
0.0 0.0 0.0 
0.0 0.0 0.0 
0.0 0.0 0.0 
0.0 0.0 0.0 
0.0 0.0 0.0 
0.0 0.0 0.0 
0.0 0.0 0.0 
0.0 0.0 0.0 
0.0 0.0 0.0 
0.0 0.0 0.0 
0.0 0.0 0.0 
0.0 0.0 0.0 
0.0 0.0 0.0 
0.0 0.0 0.0 
0.0 0.0 0.0 
0.0 0.0 0.0 
0.0 0.0 0.0 
0.0 0.0 0.0 
0.0 0.0 0.0 
0.0 0.0 0.0 
0.0 0.0 0.0 
0.0 0.0 0.0 
0.0 0.0 0.0 
0.0 0.0 0.0 
0.0 0.0 0.0 
0.0 0.0 0.0 
0.0 0.0 0.0 
0.0 0.0 0.0 
0.0 0.0 0.0 
0.0 0.0 0.0 
0.0 0.0 0.0 
0.0 0.0 0.0 
0.0 0.0 0.0 
0.0 0.0 0.0 
0.0 0.0 0.0 
0.0 0.0 0.0 
0.0 0.0 0.0 
0.0 0.0 0.0 
0.0 0.0 0.0 
0.0 0.0 0.0 
0.0 0.0 0.0 
0.0 0.0 0.0 
0.0 0.0 0.0 
0.0 0.0 0.0 
0.0 0.0 0.0 
0.0 0.0 0.0 
0.0 0.0 0.0 
0.0 0.0 0.0 
0.0 0.0 0.0 
0.0 0.0 0.0 
0.0 0.0 0.0 
0.0 0.0 0.0 
0.0 0.0 0.0 
0.0 0.0 0.0 
0.0 0.0 0.0 
0.0 0.0 0.0 
0.0 0.0 0.0 
0.0 0.0 0.0 
0.0 0.0 0.0 
0.0 0.0 0.0 
0.0 0.0 0.0 
0.0 0.0 0.0 
0.0 0.0 0.0 
0.0 0.0 0.0 
0.0 0.0 0.0 
0.0 0.0 0.0 
0.0 0.0 0.0 
0.0 0.0 0.0 
0.0 0.0 0.0 
0.0 0.0 0.0 
0.0 0.0 0.0 
0.0 0.0 0.0 
0.0 0.0 0.0 
0.0 0.0 0.0 
0.0 0.0 0.0 
0.0 0.0 0.0 
0.0 0.0 0.0 
0.0 0.0 0.0 
0.0 0.0 0.0 
0.0 0.0 0.0 
0.0 0.0 0.0 
0.0 0.0 0.0 
0.0 0.0 0.0 
0.0 0.0 0.0 
0.0 0.0 0.0 
0.0 0.0 0.0 
0.0 0.0 0.0 
0.0 0.0 0.0 
0.0 0.0 0.0 
0.0 0.0 0.0 
0.0 0.0 0.0 
0.0 0.0 0.0 
0.0 0.0 0.0 
0.0 0.0 0.0 
0.0 0.0 0.0 
0.0 0.0 0.0 
0.0 0.0 0.0 
0.0 0.0 0.0 
0.0 0.0 0.0 
0.0 0.0 0.0 
0.0 0.0 0.0 
0.0 0.0 0.0 
0.0 0.0 0.0 
0.0 0.0 0.0 
0.0 0.0 0.0 
0.0 0.0 0.0 
0.0 0.0 0.0 
0.0 0.0 0.0 
0.0 0.0 0.0 
0.0 0.0 0.0 
0.0 0.0 0.0 
0.0 0.0 0.0 
0.0 0.0 0.0 
0.0 0.0 0.0 
0.0 0.0 0.0 
0.0 0.0 0.0 
0.0 0.0 0.0 
0.0 0.0 0.0 
0.0 0.0 0.0 
0.0 0.0 0.0 
0.0 0.0 0.0 
0.0 0.0 0.0 
0.0 0.0 0.0 
0.0 0.0 0.0 
0.0 0.0 0.0 
0.0 0.0 0.0 
0.0 0.0 0.0 
0.0 0.0 0.0 
0.0 0.0 0.0 
0.0 0.0 0.0 
0.0 0.0 0.0 
0.0 0.0 0.0 
0.0 0.0 0.0 
0.0 0.0 0.0 
0.0 0.0 0.0 
0.0 0.0 0.0 
0.0 0.0 0.0 
0.0 0.0 0.0 
0.0 0.0 0.0 
0.0 0.0 0.0 
0.0 0.0 0.0 
0.0 0.0 0.0 
0.0 0.0 0.0 
0.0 0.0 0.0 
0.0 0.0 0.0 
0.0 0.0 0.0 
0.0 0.0 0.0 
0.0 0.0 0.0 
0.0 0.0 0.0 
0.0 0.0 0.0 
0.0 0.0 0.0 
0.0 0.0 0.0 
0.0 0.0 0.0 
0.0 0.0 0.0 
0.0 0.0 0.0 
0.0 0.0 0.0 
0.0 0.0 0.0 
0.0 0.0 0.0 
0.0 0.0 0.0 
0.0 0.0 0.0 
0.0 0.0 0.0 
0.0 0.0 0.0 
0.0 0.0 0.0 
0.0 0.0 0.0 
0.0 0.0 0.0 
0.0 0.0 0.0 
0.0 0.0 0.0 
0.0 0.0 0.0 
0.0 0.0 0.0 
0.0 0.0 0.0 
0.0 0.0 0.0 
0.0 0.0 0.0 
0.0 0.0 0.0 
0.0 0.0 0.0 
0.0 0.0 0.0 
0.0 0.0 0.0 
0.0 0.0 0.0 
0.0 0.0 0.0 
0.0 0.0 0.0 
0.0 0.0 0.0 
0.0 0.0 0.0 
0.0 0.0 0.0 
0.0 0.0 0.0 
0.0 0.0 0.0 
0.0 0.0 0.0 
0.0 0.0 0.0 
0.0 0.0 0.0 
0.0 0.0 0.0 
0.0 0.0 0.0 
0.0 0.0 0.0 
0.0 0.0 0.0 
0.0 0.0 0.0 
0.0 0.0 0.0 
0.0 0.0 0.0 
0.0 0.0 0.0 
0.0 0.0 0.0 
0.0 0.0 0.0 
0.0 0.0 0.0 
0.0 0.0 0.0 
0.0 0.0 0.0 
0.0 0.0 0.0 
0.0 0.0 0.0 
0.0 0.0 0.0 
0.0 0.0 0.0 
0.0 0.0 0.0 
0.0 0.0 0.0 
0.0 0.0 0.0 
0.0 0.0 0.0 
0.0 0.0 0.0 
0.0 0.0 0.0 
0.0 0.0 0.0 
0.0 0.0 0.0 
0.0 0.0 0.0 
0.0 0.0 0.0 
0.0 0.0 0.0 
0.0 0.0 0.0 
0.0 0.0 0.0 
0.0 0.0 0.0 
0.0 0.0 0.0 
0.0 0.0 0.0 
0.0 0.0 0.0 
0.0 0.0 0.0 
0.0 0.0 0.0 
0.0 0.0 0.0 
0.0 0.0 0.0 
0.0 0.0 0.0 
0.0 0.0 0.0 
0.0 0.0 0.0 
0.0 0.0 0.0 
0.0 0.0 0.0 
0.0 0.0 0.0 
0.0 0.0 0.0 
0.0 0.0 0.0 
0.0 0.0 0.0 
0.0 0.0 0.0 
0.0 0.0 0.0 
0.0 0.0 0.0 
0.0 0.0 0.0 
0.0 0.0 0.0 
0.0 0.0 0.0 
0.0 0.0 0.0 
0.0 0.0 0.0 
0.0 0.0 0.0 
0.0 0.0 0.0 
0.0 0.0 0.0 
0.0 0.0 0.0 
0.0 0.0 0.0 
0.0 0.0 0.0 
0.0 0.0 0.0 
0.0 0.0 0.0 
0.0 0.0 0.0 
0.0 0.0 0.0 
0.0 0.0 0.0 
0.0 0.0 0.0 
0.0 0.0 0.0 
0.0 0.0 0.0 
0.0 0.0 0.0 
0.0 0.0 0.0 
0.0 0.0 0.0 
0.0 0.0 0.0 
0.0 0.0 0.0 
0.0 0.0 0.0 
0.0 0.0 0.0 
0.0 0.0 0.0 
0.0 0.0 0.0 
0.0 0.0 0.0 
0.0 0.0 0.0 
0.0 0.0 0.0 
0.0 0.0 0.0 
0.0 0.0 0.0 
0.0 0.0 0.0 
0.0 0.0 0.0 
0.0 0.0 0.0 
0.0 0.0 0.0 
0.0 0.0 0.0 
0.0 0.0 0.0 
0.0 0.0 0.0 
0.0 0.0 0.0 
0.0 0.0 0.0 
0.0 0.0 0.0 
0.0 0.0 0.0 
0.0 0.0 0.0 
0.0 0.0 0.0 
0.0 0.0 0.0 
0.0 0.0 0.0 
0.0 0.0 0.0 
0.0 0.0 0.0 
0.0 0.0 0.0 
0.0 0.0 0.0 
0.0 0.0 0.0 
0.0 0.0 0.0 
0.0 0.0 0.0 
0.0 0.0 0.0 
0.0 0.0 0.0 
0.0 0.0 0.0 
0.0 0.0 0.0 
0.0 0.0 0.0 
0.0 0.0 0.0 
0.0 0.0 0.0 
0.0 0.0 0.0 
0.0 0.0 0.0 
0.0 0.0 0.0 
0.0 0.0 0.0 
0.0 0.0 0.0 
0.0 0.0 0.0 
0.0 0.0 0.0 
0.0 0.0 0.0 
0.0 0.0 0.0 
0.0 0.0 0.0 
0.0 0.0 0.0 
0.0 0.0 0.0 
0.0 0.0 0.0 
0.0 0.0 0.0 
0.0 0.0 0.0 
0.0 0.0 0.0 
0.0 0.0 0.0 
0.0 0.0 0.0 
0.0 0.0 0.0 
0.0 0.0 0.0 
0.0 0.0 0.0 
0.0 0.0 0.0 
0.0 0.0 0.0 
0.0 0.0 0.0 
0.0 0.0 0.0 
0.0 0.0 0.0 
0.0 0.0 0.0 
0.0 0.0 0.0 
0.0 0.0 0.0 
0.0 0.0 0.0 
0.0 0.0 0.0 
0.0 0.0 0.0 
0.0 0.0 0.0 
0.0 0.0 0.0 
0.0 0.0 0.0 
0.0 0.0 0.0 
0.0 0.0 0.0 
0.0 0.0 0.0 
0.0 0.0 0.0 
0.0 0.0 0.0 
0.0 0.0 0.0 
0.0 0.0 0.0 
0.0 0.0 0.0 
0.0 0.0 0.0 
0.0 0.0 0.0 
0.0 0.0 0.0 
0.0 0.0 0.0 
0.0 0.0 0.0 
0.0 0.0 0.0 
0.0 0.0 0.0 
0.0 0.0 0.0 
0.0 0.0 0.0 
0.0 0.0 0.0 
0.0 0.0 0.0 
0.0 0.0 0.0 
0.0 0.0 0.0 
0.0 0.0 0.0 
0.0 0.0 0.0 
0.0 0.0 0.0 
0.0 0.0 0.0 
0.0 0.0 0.0 
0.0 0.0 0.0 
0.0 0.0 0.0 
0.0 0.0 0.0 
0.0 0.0 0.0 
0.0 0.0 0.0 
0.0 0.0 0.0 
0.0 0.0 0.0 
0.0 0.0 0.0 
0.0 0.0 0.0 
0.0 0.0 0.0 
0.0 0.0 0.0 
0.0 0.0 0.0 
0.0 0.0 0.0 
0.0 0.0 0.0 
0.0 0.0 0.0 
0.0 0.0 0.0 
0.0 0.0 0.0 
0.0 0.0 0.0 
0.0 0.0 0.0 
0.0 0.0 0.0 
0.0 0.0 0.0 
0.0 0.0 0.0 

SCALARS node_boundary float
LOOKUP_TABLE default
1.000000000000e+00 
1.000000000000e+00 
1.000000000000e+00 
1.000000000000e+00 
1.000000000000e+00 
1.000000000000e+00 
1.000000000000e+00 
1.000000000000e+00 
1.000000000000e+00 
1.000000000000e+00 
1.000000000000e+00 
1.000000000000e+00 
1.000000000000e+00 
1.000000000000e+00 
1.000000000000e+00 
1.000000000000e+00 
1.000000000000e+00 
1.000000000000e+00 
1.000000000000e+00 
1.000000000000e+00 
1.000000000000e+00 
1.000000000000e+00 
1.000000000000e+00 
1.000000000000e+00 
1.000000000000e+00 
1.000000000000e+00 
1.000000000000e+00 
1.000000000000e+00 
1.000000000000e+00 
1.000000000000e+00 
1.000000000000e+00 
1.000000000000e+00 
1.000000000000e+00 
1.000000000000e+00 
1.000000000000e+00 
1.000000000000e+00 
1.000000000000e+00 
1.000000000000e+00 
1.000000000000e+00 
1.000000000000e+00 
1.000000000000e+00 
1.000000000000e+00 
1.000000000000e+00 
1.000000000000e+00 
1.000000000000e+00 
1.000000000000e+00 
1.000000000000e+00 
1.000000000000e+00 
1.000000000000e+00 
1.000000000000e+00 
1.000000000000e+00 
1.000000000000e+00 
1.000000000000e+00 
1.000000000000e+00 
1.000000000000e+00 
1.000000000000e+00 
1.000000000000e+00 
1.000000000000e+00 
1.000000000000e+00 
1.000000000000e+00 
1.000000000000e+00 
1.000000000000e+00 
1.000000000000e+00 
1.000000000000e+00 
1.000000000000e+00 
1.000000000000e+00 
1.000000000000e+00 
1.000000000000e+00 
1.000000000000e+00 
1.000000000000e+00 
1.000000000000e+00 
1.000000000000e+00 
1.000000000000e+00 
1.000000000000e+00 
1.000000000000e+00 
1.000000000000e+00 
1.000000000000e+00 
1.000000000000e+00 
1.000000000000e+00 
1.000000000000e+00 
1.000000000000e+00 
1.000000000000e+00 
0.0
1.000000000000e+00 
1.000000000000e+00 
0.0
0.0
0.0
0.0
0.0
0.0
0.0
1.000000000000e+00 
1.000000000000e+00 
1.000000000000e+00 
1.000000000000e+00 
1.000000000000e+00 
1.000000000000e+00 
1.000000000000e+00 
1.000000000000e+00 
0.0
0.0
0.0
0.0
0.0
0.0
0.0
0.0
0.0
0.0
0.0
0.0
0.0
0.0
1.000000000000e+00 
1.000000000000e+00 
1.000000000000e+00 
1.000000000000e+00 
1.000000000000e+00 
1.000000000000e+00 
1.000000000000e+00 
1.000000000000e+00 
1.000000000000e+00 
1.000000000000e+00 
1.000000000000e+00 
1.000000000000e+00 
1.000000000000e+00 
1.000000000000e+00 
1.000000000000e+00 
1.000000000000e+00 
1.000000000000e+00 
1.000000000000e+00 
1.000000000000e+00 
1.000000000000e+00 
1.000000000000e+00 
1.000000000000e+00 
1.000000000000e+00 
1.000000000000e+00 
1.000000000000e+00 
1.000000000000e+00 
1.000000000000e+00 
1.000000000000e+00 
1.000000000000e+00 
1.000000000000e+00 
1.000000000000e+00 
1.000000000000e+00 
1.000000000000e+00 
1.000000000000e+00 
1.000000000000e+00 
1.000000000000e+00 
1.000000000000e+00 
1.000000000000e+00 
1.000000000000e+00 
1.000000000000e+00 
1.000000000000e+00 
1.000000000000e+00 
1.000000000000e+00 
1.000000000000e+00 
1.000000000000e+00 
0.0
0.0
0.0
0.0
0.0
0.0
0.0
0.0
0.0
0.0
0.0
0.0
0.0
0.0
0.0
0.0
0.0
0.0
0.0
0.0
0.0
0.0
0.0
0.0
0.0
0.0
0.0
0.0
0.0
0.0
0.0
0.0
0.0
0.0
0.0
0.0
0.0
0.0
0.0
0.0
0.0
0.0
0.0
0.0
0.0
0.0
0.0
0.0
0.0
0.0
0.0
0.0
0.0
0.0
0.0
0.0
0.0
0.0
0.0
0.0
0.0
0.0
0.0
0.0
0.0
0.0
0.0
0.0
0.0
0.0
0.0
0.0
0.0
0.0
0.0
0.0
0.0
0.0
0.0
0.0
0.0
0.0
0.0
0.0
0.0
0.0
0.0
0.0
0.0
0.0
0.0
0.0
0.0
0.0
0.0
0.0
0.0
0.0
0.0
0.0
0.0
0.0
0.0
0.0
0.0
0.0
0.0
0.0
0.0
0.0
0.0
0.0
0.0
0.0
0.0
0.0
0.0
0.0
0.0
0.0
0.0
0.0
0.0
0.0
0.0
0.0
0.0
0.0
0.0
0.0
0.0
0.0
0.0
0.0
0.0
0.0
0.0
0.0
0.0
0.0
0.0
0.0
1.000000000000e+00 
1.000000000000e+00 
0.0
0.0
0.0
0.0
0.0
0.0
0.0
0.0
0.0
0.0
0.0
0.0
0.0
0.0
0.0
0.0
0.0
0.0
0.0
0.0
0.0
0.0
0.0
0.0
0.0
0.0
0.0
0.0
0.0
0.0
0.0
0.0
0.0
0.0
0.0
0.0
0.0
0.0
0.0
0.0
0.0
0.0
0.0
0.0
0.0
0.0
0.0
0.0
0.0
0.0
0.0
0.0
0.0
0.0
0.0
0.0
0.0
0.0
0.0
0.0
0.0
0.0
0.0
0.0
0.0
0.0
0.0
0.0
0.0
0.0
0.0
0.0
0.0
0.0
0.0
0.0
0.0
0.0
0.0
0.0
0.0
0.0
0.0
0.0
0.0
0.0
0.0
0.0
0.0
0.0
0.0
0.0
0.0
0.0
0.0
0.0
0.0
0.0
0.0
0.0
0.0
0.0
0.0
0.0
0.0
0.0
0.0
0.0
0.0
0.0
0.0
0.0
0.0
0.0
0.0
0.0
0.0
0.0
0.0
0.0
0.0
0.0
0.0
0.0
0.0
0.0
0.0
0.0
0.0
0.0
0.0
0.0
0.0
0.0
0.0
0.0
0.0
0.0
0.0
0.0
0.0
0.0
0.0
0.0
0.0
0.0
0.0
0.0
0.0
0.0
0.0
0.0
0.0
0.0
0.0
0.0
0.0
0.0
0.0
0.0
0.0
0.0
0.0
0.0
0.0
0.0
0.0
0.0
0.0
0.0
0.0
0.0
0.0
0.0
0.0
0.0
0.0
0.0
0.0
0.0
0.0
0.0
0.0
0.0
0.0
0.0
0.0
0.0
0.0
0.0
0.0
0.0
0.0
0.0
0.0
0.0
0.0
0.0
0.0
0.0
0.0
0.0
0.0
0.0
0.0
0.0
0.0
0.0
0.0
0.0
0.0
0.0
0.0
0.0
0.0
0.0
0.0
0.0
0.0
0.0
0.0
0.0
0.0
0.0
0.0
0.0
0.0
0.0
0.0
0.0
0.0
0.0
0.0
0.0
0.0
0.0
0.0
0.0
0.0
0.0
0.0
0.0
0.0
0.0
0.0
0.0
0.0
0.0
0.0
0.0
0.0
0.0
0.0
0.0
0.0
0.0
0.0
0.0
0.0
0.0
0.0
0.0
0.0
0.0
0.0
0.0
0.0
0.0
0.0
0.0
0.0
0.0
0.0
0.0
0.0
0.0
0.0
0.0
0.0
0.0
0.0
0.0
0.0
0.0
0.0
0.0
0.0
0.0
0.0
0.0
0.0
0.0
0.0
0.0
0.0
0.0
0.0
0.0
0.0
0.0
0.0
0.0
0.0
0.0
0.0
0.0
0.0
0.0
0.0
0.0
0.0
0.0
0.0
0.0
0.0
0.0
0.0
0.0
0.0
0.0
0.0
0.0
0.0
0.0
0.0
0.0
0.0
0.0
0.0
0.0
0.0
0.0
0.0
0.0
0.0
0.0
0.0
0.0
0.0
0.0
0.0
0.0
0.0
0.0
0.0
0.0
0.0
0.0
0.0
0.0
0.0
0.0
0.0
0.0
0.0
0.0
0.0
0.0
0.0
0.0
0.0
0.0
0.0
0.0
0.0
0.0
0.0
0.0
0.0
0.0
0.0
0.0
0.0
0.0
0.0
0.0
0.0
0.0
0.0
0.0
0.0
0.0
0.0
0.0
0.0
0.0
0.0
0.0
0.0
0.0
0.0
0.0
0.0
0.0
0.0
0.0
0.0
0.0
0.0
0.0
0.0
0.0
0.0
0.0
0.0
0.0
0.0
0.0
0.0
0.0
0.0
0.0
0.0
0.0
0.0
0.0
0.0
0.0
0.0
0.0
0.0
0.0
0.0
0.0
0.0
0.0
0.0
0.0
0.0
0.0
0.0
0.0
0.0
0.0
0.0
0.0
0.0
0.0
0.0
0.0
0.0
0.0
0.0
0.0
0.0
0.0
0.0
0.0
0.0
0.0
0.0
0.0
0.0
0.0
0.0
0.0
0.0
0.0
0.0
0.0
0.0
0.0
0.0
0.0
0.0
0.0
0.0
0.0
0.0
0.0
0.0
0.0
0.0
0.0
0.0
0.0
0.0
0.0
0.0
0.0
0.0
0.0
0.0
0.0
0.0
0.0
0.0
0.0
0.0
0.0
0.0
0.0
0.0
0.0
0.0
0.0
0.0
0.0
0.0
0.0
0.0
0.0
0.0
0.0
0.0
0.0
0.0
0.0
0.0
0.0
0.0
0.0
0.0
0.0
0.0
0.0
0.0
0.0
0.0
0.0
0.0
0.0
0.0
0.0
0.0
0.0
0.0
0.0
0.0
0.0
0.0
0.0
0.0
0.0
0.0
0.0
0.0
0.0
0.0
0.0
0.0
0.0
0.0
0.0
0.0
0.0
0.0
0.0
0.0
0.0
0.0
0.0
0.0
0.0
0.0
0.0
0.0
0.0
0.0
0.0
0.0
0.0
0.0
0.0
0.0
0.0
0.0
0.0
0.0
0.0
0.0
0.0
0.0
0.0
0.0
0.0
0.0
0.0
0.0
0.0
0.0
0.0
0.0
0.0
0.0
0.0
0.0
0.0
0.0
0.0
0.0
0.0
0.0
0.0
0.0
0.0
0.0
0.0
0.0
0.0
0.0
0.0
0.0
0.0
0.0
0.0
0.0
0.0
0.0
0.0
0.0
0.0
0.0
0.0
0.0
0.0
0.0
0.0
0.0
0.0
0.0
0.0
0.0
0.0
0.0
0.0
0.0
0.0
0.0
0.0
0.0
0.0
0.0
0.0
0.0
0.0
0.0
0.0
0.0
0.0
0.0
0.0
0.0
0.0
0.0
0.0
0.0
0.0
0.0
0.0
0.0
0.0
0.0
0.0
0.0
0.0
0.0
0.0
0.0
0.0
0.0
0.0
0.0
0.0
0.0
0.0
0.0
0.0
0.0
0.0
0.0
0.0
0.0
0.0
0.0
0.0
0.0
0.0
0.0
0.0
0.0
0.0
0.0
0.0
0.0
0.0
0.0
0.0
0.0
0.0
0.0
0.0
0.0
0.0
0.0
0.0
0.0
0.0
0.0
0.0
0.0
0.0
0.0
0.0
0.0
0.0
0.0
0.0
0.0
0.0
0.0
0.0
0.0
0.0
0.0
0.0
0.0
0.0
0.0
0.0
0.0
0.0
0.0
0.0
0.0
0.0
0.0
0.0
0.0
0.0
0.0
0.0
0.0
0.0
0.0
0.0
0.0
0.0
0.0
0.0
0.0
0.0
0.0
0.0
0.0
0.0
0.0
0.0
0.0
0.0
0.0
0.0
0.0
0.0
0.0
0.0
0.0
0.0
0.0
0.0
0.0
0.0
0.0
0.0
0.0
0.0
0.0
0.0
0.0
0.0
0.0
0.0
0.0
0.0
0.0
0.0
0.0
0.0
0.0
0.0
0.0
0.0
0.0
0.0
0.0
0.0
0.0
0.0
0.0
0.0
0.0
0.0
0.0
0.0
0.0
0.0
0.0
0.0
0.0
0.0
0.0
0.0
0.0
0.0
0.0
0.0
0.0
0.0
0.0
0.0
0.0
0.0
0.0
0.0
0.0
0.0
0.0
0.0
0.0
0.0
0.0
0.0
0.0
0.0
0.0
0.0
0.0
0.0
0.0
0.0
0.0
0.0
0.0
0.0
0.0
0.0
0.0
0.0
0.0
0.0
0.0
0.0
0.0
0.0
0.0
0.0
0.0
0.0
0.0
0.0
0.0
0.0
0.0
0.0
0.0
0.0
0.0
0.0
0.0
0.0
0.0
0.0
0.0
0.0
0.0
0.0
0.0
0.0
0.0
0.0
0.0
0.0
0.0
0.0
0.0
0.0
0.0
0.0
0.0
0.0
0.0
0.0
0.0
0.0
0.0
0.0
0.0
0.0
0.0
0.0
0.0
0.0
0.0
0.0
0.0
0.0
0.0
0.0
0.0
0.0
0.0
0.0
0.0
0.0
0.0
0.0
0.0
0.0
0.0
0.0
0.0
0.0
0.0
0.0
0.0
0.0
0.0

VECTORS node_force_edge float
0.0 0.0 0.0 
0.0 0.0 0.0 
0.0 0.0 0.0 
0.0 0.0 0.0 
0.0 0.0 0.0 
0.0 0.0 0.0 
0.0 0.0 0.0 
0.0 0.0 0.0 
0.0 0.0 0.0 
0.0 0.0 0.0 
0.0 0.0 0.0 
0.0 0.0 0.0 
0.0 0.0 0.0 
0.0 0.0 0.0 
0.0 0.0 0.0 
0.0 0.0 0.0 
0.0 0.0 0.0 
0.0 0.0 0.0 
0.0 0.0 0.0 
0.0 0.0 0.0 
0.0 0.0 0.0 
0.0 0.0 0.0 
0.0 0.0 0.0 
0.0 0.0 0.0 
0.0 0.0 0.0 
0.0 0.0 0.0 
0.0 0.0 0.0 
0.0 0.0 0.0 
0.0 0.0 0.0 
0.0 0.0 0.0 
0.0 0.0 0.0 
0.0 0.0 0.0 
0.0 0.0 0.0 
0.0 0.0 0.0 
0.0 0.0 0.0 
0.0 0.0 0.0 
0.0 0.0 0.0 
0.0 0.0 0.0 
0.0 0.0 0.0 
0.0 0.0 0.0 
0.0 0.0 0.0 
0.0 0.0 0.0 
0.0 0.0 0.0 
0.0 0.0 0.0 
0.0 0.0 0.0 
0.0 0.0 0.0 
0.0 0.0 0.0 
0.0 0.0 0.0 
0.0 0.0 0.0 
0.0 0.0 0.0 
0.0 0.0 0.0 
0.0 0.0 0.0 
0.0 0.0 0.0 
0.0 0.0 0.0 
0.0 0.0 0.0 
0.0 0.0 0.0 
0.0 0.0 0.0 
0.0 0.0 0.0 
0.0 0.0 0.0 
0.0 0.0 0.0 
0.0 0.0 0.0 
0.0 0.0 0.0 
0.0 0.0 0.0 
0.0 0.0 0.0 
0.0 0.0 0.0 
0.0 0.0 0.0 
0.0 0.0 0.0 
0.0 0.0 0.0 
0.0 0.0 0.0 
0.0 0.0 0.0 
0.0 0.0 0.0 
0.0 0.0 0.0 
0.0 0.0 0.0 
0.0 0.0 0.0 
0.0 0.0 0.0 
0.0 0.0 0.0 
0.0 0.0 0.0 
0.0 0.0 0.0 
0.0 0.0 0.0 
0.0 0.0 0.0 
0.0 0.0 0.0 
0.0 -1.000000000000e+02 0.0 
0.0 0.0 0.0 
0.0 0.0 0.0 
0.0 0.0 0.0 
0.0 0.0 0.0 
0.0 0.0 0.0 
0.0 0.0 0.0 
0.0 0.0 0.0 
0.0 0.0 0.0 
0.0 0.0 0.0 
0.0 0.0 0.0 
0.0 0.0 0.0 
0.0 0.0 0.0 
0.0 0.0 0.0 
0.0 0.0 0.0 
0.0 0.0 0.0 
0.0 0.0 0.0 
0.0 0.0 0.0 
0.0 0.0 0.0 
0.0 0.0 0.0 
0.0 0.0 0.0 
0.0 0.0 0.0 
0.0 0.0 0.0 
0.0 0.0 0.0 
0.0 0.0 0.0 
0.0 0.0 0.0 
0.0 0.0 0.0 
0.0 0.0 0.0 
0.0 0.0 0.0 
0.0 0.0 0.0 
0.0 0.0 0.0 
0.0 0.0 0.0 
0.0 0.0 0.0 
0.0 -1.000000000000e+02 0.0 
0.0 -1.000000000000e+02 0.0 
0.0 -1.000000000000e+02 0.0 
0.0 -1.000000000000e+02 0.0 
0.0 -1.000000000000e+02 0.0 
0.0 0.0 0.0 
0.0 0.0 0.0 
0.0 0.0 0.0 
0.0 0.0 0.0 
0.0 0.0 0.0 
0.0 0.0 0.0 
0.0 0.0 0.0 
0.0 0.0 0.0 
0.0 0.0 0.0 
0.0 0.0 0.0 
0.0 0.0 0.0 
0.0 0.0 0.0 
0.0 0.0 0.0 
0.0 0.0 0.0 
0.0 0.0 0.0 
0.0 0.0 0.0 
0.0 0.0 0.0 
0.0 0.0 0.0 
0.0 0.0 0.0 
0.0 0.0 0.0 
0.0 0.0 0.0 
0.0 0.0 0.0 
0.0 0.0 0.0 
0.0 0.0 0.0 
0.0 0.0 0.0 
0.0 0.0 0.0 
0.0 0.0 0.0 
0.0 0.0 0.0 
0.0 0.0 0.0 
0.0 0.0 0.0 
0.0 0.0 0.0 
0.0 0.0 0.0 
0.0 0.0 0.0 
0.0 0.0 0.0 
0.0 0.0 0.0 
0.0 0.0 0.0 
0.0 0.0 0.0 
0.0 0.0 0.0 
0.0 0.0 0.0 
0.0 0.0 0.0 
0.0 0.0 0.0 
0.0 0.0 0.0 
0.0 0.0 0.0 
0.0 0.0 0.0 
0.0 0.0 0.0 
0.0 0.0 0.0 
0.0 0.0 0.0 
0.0 0.0 0.0 
0.0 0.0 0.0 
0.0 0.0 0.0 
0.0 0.0 0.0 
0.0 0.0 0.0 
0.0 0.0 0.0 
0.0 0.0 0.0 
0.0 0.0 0.0 
0.0 0.0 0.0 
0.0 0.0 0.0 
0.0 0.0 0.0 
0.0 0.0 0.0 
0.0 0.0 0.0 
0.0 0.0 0.0 
0.0 0.0 0.0 
0.0 0.0 0.0 
0.0 0.0 0.0 
0.0 0.0 0.0 
0.0 0.0 0.0 
0.0 0.0 0.0 
0.0 0.0 0.0 
0.0 0.0 0.0 
0.0 0.0 0.0 
0.0 0.0 0.0 
0.0 0.0 0.0 
0.0 0.0 0.0 
0.0 0.0 0.0 
0.0 0.0 0.0 
0.0 0.0 0.0 
0.0 0.0 0.0 
0.0 0.0 0.0 
0.0 0.0 0.0 
0.0 0.0 0.0 
0.0 0.0 0.0 
0.0 0.0 0.0 
0.0 0.0 0.0 
0.0 0.0 0.0 
0.0 0.0 0.0 
0.0 0.0 0.0 
0.0 0.0 0.0 
0.0 0.0 0.0 
0.0 0.0 0.0 
0.0 0.0 0.0 
0.0 0.0 0.0 
0.0 0.0 0.0 
0.0 0.0 0.0 
0.0 0.0 0.0 
0.0 0.0 0.0 
0.0 0.0 0.0 
0.0 0.0 0.0 
0.0 0.0 0.0 
0.0 0.0 0.0 
0.0 0.0 0.0 
0.0 0.0 0.0 
0.0 0.0 0.0 
0.0 0.0 0.0 
0.0 0.0 0.0 
0.0 0.0 0.0 
0.0 0.0 0.0 
0.0 0.0 0.0 
0.0 0.0 0.0 
0.0 0.0 0.0 
0.0 0.0 0.0 
0.0 0.0 0.0 
0.0 0.0 0.0 
0.0 0.0 0.0 
0.0 0.0 0.0 
0.0 0.0 0.0 
0.0 0.0 0.0 
0.0 0.0 0.0 
0.0 0.0 0.0 
0.0 0.0 0.0 
0.0 0.0 0.0 
0.0 0.0 0.0 
0.0 0.0 0.0 
0.0 0.0 0.0 
0.0 0.0 0.0 
0.0 0.0 0.0 
0.0 0.0 0.0 
0.0 0.0 0.0 
0.0 0.0 0.0 
0.0 0.0 0.0 
0.0 0.0 0.0 
0.0 0.0 0.0 
0.0 0.0 0.0 
0.0 0.0 0.0 
0.0 0.0 0.0 
0.0 0.0 0.0 
0.0 0.0 0.0 
0.0 0.0 0.0 
0.0 0.0 0.0 
0.0 0.0 0.0 
0.0 0.0 0.0 
0.0 0.0 0.0 
0.0 0.0 0.0 
0.0 0.0 0.0 
0.0 0.0 0.0 
0.0 0.0 0.0 
0.0 0.0 0.0 
0.0 0.0 0.0 
0.0 0.0 0.0 
0.0 0.0 0.0 
0.0 0.0 0.0 
0.0 0.0 0.0 
0.0 0.0 0.0 
0.0 0.0 0.0 
0.0 0.0 0.0 
0.0 0.0 0.0 
0.0 0.0 0.0 
0.0 0.0 0.0 
0.0 0.0 0.0 
0.0 0.0 0.0 
0.0 0.0 0.0 
0.0 0.0 0.0 
0.0 0.0 0.0 
0.0 0.0 0.0 
0.0 0.0 0.0 
0.0 0.0 0.0 
0.0 0.0 0.0 
0.0 0.0 0.0 
0.0 0.0 0.0 
0.0 0.0 0.0 
0.0 0.0 0.0 
0.0 0.0 0.0 
0.0 0.0 0.0 
0.0 0.0 0.0 
0.0 0.0 0.0 
0.0 0.0 0.0 
0.0 0.0 0.0 
0.0 0.0 0.0 
0.0 0.0 0.0 
0.0 0.0 0.0 
0.0 0.0 0.0 
0.0 0.0 0.0 
0.0 0.0 0.0 
0.0 0.0 0.0 
0.0 0.0 0.0 
0.0 0.0 0.0 
0.0 0.0 0.0 
0.0 0.0 0.0 
0.0 0.0 0.0 
0.0 0.0 0.0 
0.0 0.0 0.0 
0.0 0.0 0.0 
0.0 0.0 0.0 
0.0 0.0 0.0 
0.0 0.0 0.0 
0.0 0.0 0.0 
0.0 0.0 0.0 
0.0 0.0 0.0 
0.0 0.0 0.0 
0.0 0.0 0.0 
0.0 0.0 0.0 
0.0 0.0 0.0 
0.0 0.0 0.0 
0.0 0.0 0.0 
0.0 0.0 0.0 
0.0 0.0 0.0 
0.0 0.0 0.0 
0.0 0.0 0.0 
0.0 0.0 0.0 
0.0 0.0 0.0 
0.0 0.0 0.0 
0.0 0.0 0.0 
0.0 0.0 0.0 
0.0 0.0 0.0 
0.0 0.0 0.0 
0.0 0.0 0.0 
0.0 0.0 0.0 
0.0 0.0 0.0 
0.0 0.0 0.0 
0.0 0.0 0.0 
0.0 0.0 0.0 
0.0 0.0 0.0 
0.0 0.0 0.0 
0.0 0.0 0.0 
0.0 0.0 0.0 
0.0 0.0 0.0 
0.0 0.0 0.0 
0.0 0.0 0.0 
0.0 0.0 0.0 
0.0 0.0 0.0 
0.0 0.0 0.0 
0.0 0.0 0.0 
0.0 0.0 0.0 
0.0 0.0 0.0 
0.0 0.0 0.0 
0.0 0.0 0.0 
0.0 0.0 0.0 
0.0 0.0 0.0 
0.0 0.0 0.0 
0.0 0.0 0.0 
0.0 0.0 0.0 
0.0 0.0 0.0 
0.0 0.0 0.0 
0.0 0.0 0.0 
0.0 0.0 0.0 
0.0 0.0 0.0 
0.0 0.0 0.0 
0.0 0.0 0.0 
0.0 0.0 0.0 
0.0 0.0 0.0 
0.0 0.0 0.0 
0.0 0.0 0.0 
0.0 0.0 0.0 
0.0 0.0 0.0 
0.0 0.0 0.0 
0.0 0.0 0.0 
0.0 0.0 0.0 
0.0 0.0 0.0 
0.0 0.0 0.0 
0.0 0.0 0.0 
0.0 0.0 0.0 
0.0 0.0 0.0 
0.0 0.0 0.0 
0.0 0.0 0.0 
0.0 0.0 0.0 
0.0 0.0 0.0 
0.0 0.0 0.0 
0.0 0.0 0.0 
0.0 0.0 0.0 
0.0 0.0 0.0 
0.0 0.0 0.0 
0.0 0.0 0.0 
0.0 0.0 0.0 
0.0 0.0 0.0 
0.0 0.0 0.0 
0.0 0.0 0.0 
0.0 0.0 0.0 
0.0 0.0 0.0 
0.0 0.0 0.0 
0.0 0.0 0.0 
0.0 0.0 0.0 
0.0 0.0 0.0 
0.0 0.0 0.0 
0.0 0.0 0.0 
0.0 0.0 0.0 
0.0 0.0 0.0 
0.0 0.0 0.0 
0.0 0.0 0.0 
0.0 0.0 0.0 
0.0 0.0 0.0 
0.0 0.0 0.0 
0.0 0.0 0.0 
0.0 0.0 0.0 
0.0 0.0 0.0 
0.0 0.0 0.0 
0.0 0.0 0.0 
0.0 0.0 0.0 
0.0 0.0 0.0 
0.0 0.0 0.0 
0.0 0.0 0.0 
0.0 0.0 0.0 
0.0 0.0 0.0 
0.0 0.0 0.0 
0.0 0.0 0.0 
0.0 0.0 0.0 
0.0 0.0 0.0 
0.0 0.0 0.0 
0.0 0.0 0.0 
0.0 0.0 0.0 
0.0 0.0 0.0 
0.0 0.0 0.0 
0.0 0.0 0.0 
0.0 0.0 0.0 
0.0 0.0 0.0 
0.0 0.0 0.0 
0.0 0.0 0.0 
0.0 0.0 0.0 
0.0 0.0 0.0 
0.0 0.0 0.0 
0.0 0.0 0.0 
0.0 0.0 0.0 
0.0 0.0 0.0 
0.0 0.0 0.0 
0.0 0.0 0.0 
0.0 0.0 0.0 
0.0 0.0 0.0 
0.0 0.0 0.0 
0.0 0.0 0.0 
0.0 0.0 0.0 
0.0 0.0 0.0 
0.0 0.0 0.0 
0.0 0.0 0.0 
0.0 0.0 0.0 
0.0 0.0 0.0 
0.0 0.0 0.0 
0.0 0.0 0.0 
0.0 0.0 0.0 
0.0 0.0 0.0 
0.0 0.0 0.0 
0.0 0.0 0.0 
0.0 0.0 0.0 
0.0 0.0 0.0 
0.0 0.0 0.0 
0.0 0.0 0.0 
0.0 0.0 0.0 
0.0 0.0 0.0 
0.0 0.0 0.0 
0.0 0.0 0.0 
0.0 0.0 0.0 
0.0 0.0 0.0 
0.0 0.0 0.0 
0.0 0.0 0.0 
0.0 0.0 0.0 
0.0 0.0 0.0 
0.0 0.0 0.0 
0.0 0.0 0.0 
0.0 0.0 0.0 
0.0 0.0 0.0 
0.0 0.0 0.0 
0.0 0.0 0.0 
0.0 0.0 0.0 
0.0 0.0 0.0 
0.0 0.0 0.0 
0.0 0.0 0.0 
0.0 0.0 0.0 
0.0 0.0 0.0 
0.0 0.0 0.0 
0.0 0.0 0.0 
0.0 0.0 0.0 
0.0 0.0 0.0 
0.0 0.0 0.0 
0.0 0.0 0.0 
0.0 0.0 0.0 
0.0 0.0 0.0 
0.0 0.0 0.0 
0.0 0.0 0.0 
0.0 0.0 0.0 
0.0 0.0 0.0 
0.0 0.0 0.0 
0.0 0.0 0.0 
0.0 0.0 0.0 
0.0 0.0 0.0 
0.0 0.0 0.0 
0.0 0.0 0.0 
0.0 0.0 0.0 
0.0 0.0 0.0 
0.0 0.0 0.0 
0.0 0.0 0.0 
0.0 0.0 0.0 
0.0 0.0 0.0 
0.0 0.0 0.0 
0.0 0.0 0.0 
0.0 0.0 0.0 
0.0 0.0 0.0 
0.0 0.0 0.0 
0.0 0.0 0.0 
0.0 0.0 0.0 
0.0 0.0 0.0 
0.0 0.0 0.0 
0.0 0.0 0.0 
0.0 0.0 0.0 
0.0 0.0 0.0 
0.0 0.0 0.0 
0.0 0.0 0.0 
0.0 0.0 0.0 
0.0 0.0 0.0 
0.0 0.0 0.0 
0.0 0.0 0.0 
0.0 0.0 0.0 
0.0 0.0 0.0 
0.0 0.0 0.0 
0.0 0.0 0.0 
0.0 0.0 0.0 
0.0 0.0 0.0 
0.0 0.0 0.0 
0.0 0.0 0.0 
0.0 0.0 0.0 
0.0 0.0 0.0 
0.0 0.0 0.0 
0.0 0.0 0.0 
0.0 0.0 0.0 
0.0 0.0 0.0 
0.0 0.0 0.0 
0.0 0.0 0.0 
0.0 0.0 0.0 
0.0 0.0 0.0 
0.0 0.0 0.0 
0.0 0.0 0.0 
0.0 0.0 0.0 
0.0 0.0 0.0 
0.0 0.0 0.0 
0.0 0.0 0.0 
0.0 0.0 0.0 
0.0 0.0 0.0 
0.0 0.0 0.0 
0.0 0.0 0.0 
0.0 0.0 0.0 
0.0 0.0 0.0 
0.0 0.0 0.0 
0.0 0.0 0.0 
0.0 0.0 0.0 
0.0 0.0 0.0 
0.0 0.0 0.0 
0.0 0.0 0.0 
0.0 0.0 0.0 
0.0 0.0 0.0 
0.0 0.0 0.0 
0.0 0.0 0.0 
0.0 0.0 0.0 
0.0 0.0 0.0 
0.0 0.0 0.0 
0.0 0.0 0.0 
0.0 0.0 0.0 
0.0 0.0 0.0 
0.0 0.0 0.0 
0.0 0.0 0.0 
0.0 0.0 0.0 
0.0 0.0 0.0 
0.0 0.0 0.0 
0.0 0.0 0.0 
0.0 0.0 0.0 
0.0 0.0 0.0 
0.0 0.0 0.0 
0.0 0.0 0.0 
0.0 0.0 0.0 
0.0 0.0 0.0 
0.0 0.0 0.0 
0.0 0.0 0.0 
0.0 0.0 0.0 
0.0 0.0 0.0 
0.0 0.0 0.0 
0.0 0.0 0.0 
0.0 0.0 0.0 
0.0 0.0 0.0 
0.0 0.0 0.0 
0.0 0.0 0.0 
0.0 0.0 0.0 
0.0 0.0 0.0 
0.0 0.0 0.0 
0.0 0.0 0.0 
0.0 0.0 0.0 
0.0 0.0 0.0 
0.0 0.0 0.0 
0.0 0.0 0.0 
0.0 0.0 0.0 
0.0 0.0 0.0 
0.0 0.0 0.0 
0.0 0.0 0.0 
0.0 0.0 0.0 
0.0 0.0 0.0 
0.0 0.0 0.0 
0.0 0.0 0.0 
0.0 0.0 0.0 
0.0 0.0 0.0 
0.0 0.0 0.0 
0.0 0.0 0.0 
0.0 0.0 0.0 
0.0 0.0 0.0 
0.0 0.0 0.0 
0.0 0.0 0.0 
0.0 0.0 0.0 
0.0 0.0 0.0 
0.0 0.0 0.0 
0.0 0.0 0.0 
0.0 0.0 0.0 
0.0 0.0 0.0 
0.0 0.0 0.0 
0.0 0.0 0.0 
0.0 0.0 0.0 
0.0 0.0 0.0 
0.0 0.0 0.0 
0.0 0.0 0.0 
0.0 0.0 0.0 
0.0 0.0 0.0 
0.0 0.0 0.0 
0.0 0.0 0.0 
0.0 0.0 0.0 
0.0 0.0 0.0 
0.0 0.0 0.0 
0.0 0.0 0.0 
0.0 0.0 0.0 
0.0 0.0 0.0 
0.0 0.0 0.0 
0.0 0.0 0.0 
0.0 0.0 0.0 
0.0 0.0 0.0 
0.0 0.0 0.0 
0.0 0.0 0.0 
0.0 0.0 0.0 
0.0 0.0 0.0 
0.0 0.0 0.0 
0.0 0.0 0.0 
0.0 0.0 0.0 
0.0 0.0 0.0 
0.0 0.0 0.0 
0.0 0.0 0.0 
0.0 0.0 0.0 
0.0 0.0 0.0 
0.0 0.0 0.0 
0.0 0.0 0.0 
0.0 0.0 0.0 
0.0 0.0 0.0 
0.0 0.0 0.0 
0.0 0.0 0.0 
0.0 0.0 0.0 
0.0 0.0 0.0 
0.0 0.0 0.0 
0.0 0.0 0.0 
0.0 0.0 0.0 
0.0 0.0 0.0 
0.0 0.0 0.0 
0.0 0.0 0.0 
0.0 0.0 0.0 
0.0 0.0 0.0 
0.0 0.0 0.0 
0.0 0.0 0.0 
0.0 0.0 0.0 
0.0 0.0 0.0 
0.0 0.0 0.0 
0.0 0.0 0.0 
0.0 0.0 0.0 
0.0 0.0 0.0 
0.0 0.0 0.0 
0.0 0.0 0.0 
0.0 0.0 0.0 
0.0 0.0 0.0 
0.0 0.0 0.0 
0.0 0.0 0.0 
0.0 0.0 0.0 
0.0 0.0 0.0 
0.0 0.0 0.0 
0.0 0.0 0.0 
0.0 0.0 0.0 
0.0 0.0 0.0 
0.0 0.0 0.0 
0.0 0.0 0.0 
0.0 0.0 0.0 
0.0 0.0 0.0 
0.0 0.0 0.0 
0.0 0.0 0.0 
0.0 0.0 0.0 
0.0 0.0 0.0 
0.0 0.0 0.0 
0.0 0.0 0.0 
0.0 0.0 0.0 
0.0 0.0 0.0 
0.0 0.0 0.0 
0.0 0.0 0.0 
0.0 0.0 0.0 
0.0 0.0 0.0 
0.0 0.0 0.0 
0.0 0.0 0.0 
0.0 0.0 0.0 
0.0 0.0 0.0 
0.0 0.0 0.0 
0.0 0.0 0.0 
0.0 0.0 0.0 
0.0 0.0 0.0 
0.0 0.0 0.0 
0.0 0.0 0.0 
0.0 0.0 0.0 
0.0 0.0 0.0 
0.0 0.0 0.0 
0.0 0.0 0.0 
0.0 0.0 0.0 
0.0 0.0 0.0 
0.0 0.0 0.0 
0.0 0.0 0.0 
0.0 0.0 0.0 
0.0 0.0 0.0 
0.0 0.0 0.0 
0.0 0.0 0.0 
0.0 0.0 0.0 
0.0 0.0 0.0 
0.0 0.0 0.0 
0.0 0.0 0.0 
0.0 0.0 0.0 
0.0 0.0 0.0 
0.0 0.0 0.0 
0.0 0.0 0.0 
0.0 0.0 0.0 
0.0 0.0 0.0 
0.0 0.0 0.0 
0.0 0.0 0.0 
0.0 0.0 0.0 
0.0 0.0 0.0 
0.0 0.0 0.0 
0.0 0.0 0.0 
0.0 0.0 0.0 
0.0 0.0 0.0 
0.0 0.0 0.0 
0.0 0.0 0.0 
0.0 0.0 0.0 
0.0 0.0 0.0 
0.0 0.0 0.0 
0.0 0.0 0.0 
0.0 0.0 0.0 
0.0 0.0 0.0 
0.0 0.0 0.0 
0.0 0.0 0.0 
0.0 0.0 0.0 
0.0 0.0 0.0 
0.0 0.0 0.0 
0.0 0.0 0.0 
0.0 0.0 0.0 
0.0 0.0 0.0 
0.0 0.0 0.0 
0.0 0.0 0.0 
0.0 0.0 0.0 
0.0 0.0 0.0 
0.0 0.0 0.0 
0.0 0.0 0.0 
0.0 0.0 0.0 
0.0 0.0 0.0 
0.0 0.0 0.0 
0.0 0.0 0.0 
0.0 0.0 0.0 
0.0 0.0 0.0 
0.0 0.0 0.0 
0.0 0.0 0.0 
0.0 0.0 0.0 
0.0 0.0 0.0 
0.0 0.0 0.0 
0.0 0.0 0.0 
0.0 0.0 0.0 
0.0 0.0 0.0 
0.0 0.0 0.0 
0.0 0.0 0.0 
0.0 0.0 0.0 
0.0 0.0 0.0 
0.0 0.0 0.0 
0.0 0.0 0.0 
0.0 0.0 0.0 
0.0 0.0 0.0 
0.0 0.0 0.0 
0.0 0.0 0.0 
0.0 0.0 0.0 
0.0 0.0 0.0 
0.0 0.0 0.0 
0.0 0.0 0.0 
0.0 0.0 0.0 
0.0 0.0 0.0 
0.0 0.0 0.0 
0.0 0.0 0.0 
0.0 0.0 0.0 
0.0 0.0 0.0 
0.0 0.0 0.0 
0.0 0.0 0.0 
0.0 0.0 0.0 
0.0 0.0 0.0 
0.0 0.0 0.0 
0.0 0.0 0.0 
0.0 0.0 0.0 
0.0 0.0 0.0 
0.0 0.0 0.0 
0.0 0.0 0.0 
0.0 0.0 0.0 
0.0 0.0 0.0 
0.0 0.0 0.0 
0.0 0.0 0.0 
0.0 0.0 0.0 
0.0 0.0 0.0 
0.0 0.0 0.0 
0.0 0.0 0.0 
0.0 0.0 0.0 
0.0 0.0 0.0 
0.0 0.0 0.0 
0.0 0.0 0.0 
0.0 0.0 0.0 
0.0 0.0 0.0 
0.0 0.0 0.0 
0.0 0.0 0.0 
0.0 0.0 0.0 
0.0 0.0 0.0 
0.0 0.0 0.0 
0.0 0.0 0.0 
0.0 0.0 0.0 
0.0 0.0 0.0 
0.0 0.0 0.0 
0.0 0.0 0.0 
0.0 0.0 0.0 
0.0 0.0 0.0 
0.0 0.0 0.0 
0.0 0.0 0.0 
0.0 0.0 0.0 
0.0 0.0 0.0 
0.0 0.0 0.0 
0.0 0.0 0.0 
0.0 0.0 0.0 
0.0 0.0 0.0 
0.0 0.0 0.0 
0.0 0.0 0.0 
0.0 0.0 0.0 
0.0 0.0 0.0 
0.0 0.0 0.0 
0.0 0.0 0.0 
0.0 0.0 0.0 
0.0 0.0 0.0 
0.0 0.0 0.0 
0.0 0.0 0.0 
0.0 0.0 0.0 
0.0 0.0 0.0 
0.0 0.0 0.0 
0.0 0.0 0.0 
0.0 0.0 0.0 
0.0 0.0 0.0 
0.0 0.0 0.0 
0.0 0.0 0.0 
0.0 0.0 0.0 
0.0 0.0 0.0 
0.0 0.0 0.0 
0.0 0.0 0.0 
0.0 0.0 0.0 
0.0 0.0 0.0 
0.0 0.0 0.0 
0.0 0.0 0.0 
0.0 0.0 0.0 
0.0 0.0 0.0 
0.0 0.0 0.0 
0.0 0.0 0.0 
0.0 0.0 0.0 
0.0 0.0 0.0 
0.0 0.0 0.0 
0.0 0.0 0.0 
0.0 0.0 0.0 
0.0 0.0 0.0 
0.0 0.0 0.0 
0.0 0.0 0.0 
0.0 0.0 0.0 
0.0 0.0 0.0 
0.0 0.0 0.0 
0.0 0.0 0.0 
0.0 0.0 0.0 
0.0 0.0 0.0 
0.0 0.0 0.0 
0.0 0.0 0.0 
0.0 0.0 0.0 
0.0 0.0 0.0 
0.0 0.0 0.0 
0.0 0.0 0.0 
0.0 0.0 0.0 
0.0 0.0 0.0 
0.0 0.0 0.0 
0.0 0.0 0.0 
0.0 0.0 0.0 
0.0 0.0 0.0 
0.0 0.0 0.0 
0.0 0.0 0.0 
0.0 0.0 0.0 
0.0 0.0 0.0 
0.0 0.0 0.0 
0.0 0.0 0.0 
0.0 0.0 0.0 
0.0 0.0 0.0 
0.0 0.0 0.0 
0.0 0.0 0.0 
0.0 0.0 0.0 
0.0 0.0 0.0 
0.0 0.0 0.0 
0.0 0.0 0.0 
0.0 0.0 0.0 
0.0 0.0 0.0 
0.0 0.0 0.0 
0.0 0.0 0.0 
0.0 0.0 0.0 
0.0 0.0 0.0 
0.0 0.0 0.0 
0.0 0.0 0.0 
0.0 0.0 0.0 
0.0 0.0 0.0 
0.0 0.0 0.0 
0.0 0.0 0.0 
0.0 0.0 0.0 
0.0 0.0 0.0 
0.0 0.0 0.0 
0.0 0.0 0.0 
0.0 0.0 0.0 
0.0 0.0 0.0 
0.0 0.0 0.0 
0.0 0.0 0.0 
0.0 0.0 0.0 
0.0 0.0 0.0 
0.0 0.0 0.0 
0.0 0.0 0.0 
0.0 0.0 0.0 
0.0 0.0 0.0 
0.0 0.0 0.0 
0.0 0.0 0.0 
0.0 0.0 0.0 
0.0 0.0 0.0 
0.0 0.0 0.0 
0.0 0.0 0.0 
0.0 0.0 0.0 
0.0 0.0 0.0 
0.0 0.0 0.0 
0.0 0.0 0.0 
0.0 0.0 0.0 
0.0 0.0 0.0 
0.0 0.0 0.0 
0.0 0.0 0.0 
0.0 0.0 0.0 
0.0 0.0 0.0 
0.0 0.0 0.0 
0.0 0.0 0.0 
0.0 0.0 0.0 
0.0 0.0 0.0 
0.0 0.0 0.0 
0.0 0.0 0.0 
0.0 0.0 0.0 
0.0 0.0 0.0 
0.0 0.0 0.0 
0.0 0.0 0.0 
0.0 0.0 0.0 
0.0 0.0 0.0 
0.0 0.0 0.0 
0.0 0.0 0.0 
0.0 0.0 0.0 
0.0 0.0 0.0 
0.0 0.0 0.0 
0.0 0.0 0.0 
0.0 0.0 0.0 
0.0 0.0 0.0 
0.0 0.0 0.0 
0.0 0.0 0.0 
0.0 0.0 0.0 
0.0 0.0 0.0 
0.0 0.0 0.0 
0.0 0.0 0.0 
0.0 0.0 0.0 
0.0 0.0 0.0 
0.0 0.0 0.0 
0.0 0.0 0.0 
0.0 0.0 0.0 
0.0 0.0 0.0 
0.0 0.0 0.0 
0.0 0.0 0.0 
0.0 0.0 0.0 
0.0 0.0 0.0 
0.0 0.0 0.0 
0.0 0.0 0.0 
0.0 0.0 0.0 
0.0 0.0 0.0 
0.0 0.0 0.0 
0.0 0.0 0.0 
0.0 0.0 0.0 
0.0 0.0 0.0 
0.0 0.0 0.0 
0.0 0.0 0.0 
0.0 0.0 0.0 
0.0 0.0 0.0 
0.0 0.0 0.0 
0.0 0.0 0.0 
0.0 0.0 0.0 
0.0 0.0 0.0 
0.0 0.0 0.0 
0.0 0.0 0.0 
0.0 0.0 0.0 
0.0 0.0 0.0 
0.0 0.0 0.0 
0.0 0.0 0.0 
0.0 0.0 0.0 
0.0 0.0 0.0 
0.0 0.0 0.0 
0.0 0.0 0.0 
0.0 0.0 0.0 
0.0 0.0 0.0 
0.0 0.0 0.0 
0.0 0.0 0.0 
0.0 0.0 0.0 
0.0 0.0 0.0 
0.0 0.0 0.0 
0.0 0.0 0.0 
0.0 0.0 0.0 
0.0 0.0 0.0 
0.0 0.0 0.0 
0.0 0.0 0.0 
0.0 0.0 0.0 
0.0 0.0 0.0 
0.0 0.0 0.0 
0.0 0.0 0.0 
0.0 0.0 0.0 
0.0 0.0 0.0 
0.0 0.0 0.0 
0.0 0.0 0.0 
0.0 0.0 0.0 
0.0 0.0 0.0 
0.0 0.0 0.0 
0.0 0.0 0.0 
0.0 0.0 0.0 
0.0 0.0 0.0 
0.0 0.0 0.0 
0.0 0.0 0.0 
0.0 0.0 0.0 
0.0 0.0 0.0 
0.0 0.0 0.0 
0.0 0.0 0.0 
0.0 0.0 0.0 
0.0 0.0 0.0 
0.0 0.0 0.0 
0.0 0.0 0.0 
0.0 0.0 0.0 
0.0 0.0 0.0 
0.0 0.0 0.0 
0.0 0.0 0.0 
0.0 0.0 0.0 
0.0 0.0 0.0 
0.0 0.0 0.0 
0.0 0.0 0.0 
0.0 0.0 0.0 
0.0 0.0 0.0 
0.0 0.0 0.0 
0.0 0.0 0.0 
0.0 0.0 0.0 
0.0 0.0 0.0 
0.0 0.0 0.0 
0.0 0.0 0.0 
0.0 0.0 0.0 
0.0 0.0 0.0 
0.0 0.0 0.0 
0.0 0.0 0.0 
0.0 0.0 0.0 
0.0 0.0 0.0 
0.0 0.0 0.0 
0.0 0.0 0.0 
0.0 0.0 0.0 
0.0 0.0 0.0 
0.0 0.0 0.0 
0.0 0.0 0.0 
0.0 0.0 0.0 
0.0 0.0 0.0 
0.0 0.0 0.0 
0.0 0.0 0.0 
0.0 0.0 0.0 
0.0 0.0 0.0 
0.0 0.0 0.0 
0.0 0.0 0.0 
0.0 0.0 0.0 
0.0 0.0 0.0 
0.0 0.0 0.0 
0.0 0.0 0.0 
0.0 0.0 0.0 
0.0 0.0 0.0 
0.0 0.0 0.0 
0.0 0.0 0.0 
0.0 0.0 0.0 
0.0 0.0 0.0 
0.0 0.0 0.0 
0.0 0.0 0.0 
0.0 0.0 0.0 
0.0 0.0 0.0 
0.0 0.0 0.0 
0.0 0.0 0.0 
0.0 0.0 0.0 
0.0 0.0 0.0 
0.0 0.0 0.0 
0.0 0.0 0.0 
0.0 0.0 0.0 
0.0 0.0 0.0 
0.0 0.0 0.0 
0.0 0.0 0.0 
0.0 0.0 0.0 
0.0 0.0 0.0 
0.0 0.0 0.0 
0.0 0.0 0.0 
0.0 0.0 0.0 
0.0 0.0 0.0 
0.0 0.0 0.0 
0.0 0.0 0.0 
0.0 0.0 0.0 
0.0 0.0 0.0 
0.0 0.0 0.0 
0.0 0.0 0.0 
0.0 0.0 0.0 
0.0 0.0 0.0 
0.0 0.0 0.0 
0.0 0.0 0.0 
0.0 0.0 0.0 
0.0 0.0 0.0 
0.0 0.0 0.0 
0.0 0.0 0.0 
0.0 0.0 0.0 
0.0 0.0 0.0 
0.0 0.0 0.0 
0.0 0.0 0.0 
0.0 0.0 0.0 
0.0 0.0 0.0 
0.0 0.0 0.0 
0.0 0.0 0.0 
0.0 0.0 0.0 
0.0 0.0 0.0 
0.0 0.0 0.0 
0.0 0.0 0.0 
0.0 0.0 0.0 
0.0 0.0 0.0 
0.0 0.0 0.0 
0.0 0.0 0.0 
0.0 0.0 0.0 
0.0 0.0 0.0 
0.0 0.0 0.0 
0.0 0.0 0.0 
0.0 0.0 0.0 
0.0 0.0 0.0 
0.0 0.0 0.0 
0.0 0.0 0.0 
0.0 0.0 0.0 
0.0 0.0 0.0 
0.0 0.0 0.0 
0.0 0.0 0.0 
0.0 0.0 0.0 
0.0 0.0 0.0 
0.0 0.0 0.0 
0.0 0.0 0.0 
0.0 0.0 0.0 
0.0 0.0 0.0 
0.0 0.0 0.0 
0.0 0.0 0.0 
0.0 0.0 0.0 
0.0 0.0 0.0 
0.0 0.0 0.0 
0.0 0.0 0.0 
0.0 0.0 0.0 
0.0 0.0 0.0 
0.0 0.0 0.0 
0.0 0.0 0.0 
0.0 0.0 0.0 
0.0 0.0 0.0 
0.0 0.0 0.0 
0.0 0.0 0.0 
0.0 0.0 0.0 
0.0 0.0 0.0 
0.0 0.0 0.0 
0.0 0.0 0.0 
0.0 0.0 0.0 
0.0 0.0 0.0 
0.0 0.0 0.0 
0.0 0.0 0.0 
0.0 0.0 0.0 
0.0 0.0 0.0 
0.0 0.0 0.0 
0.0 0.0 0.0 
0.0 0.0 0.0 
0.0 0.0 0.0 
0.0 0.0 0.0 
0.0 0.0 0.0 
0.0 0.0 0.0 
0.0 0.0 0.0 
0.0 0.0 0.0 
0.0 0.0 0.0 
0.0 0.0 0.0 
0.0 0.0 0.0 
0.0 0.0 0.0 
0.0 0.0 0.0 
0.0 0.0 0.0 
0.0 0.0 0.0 
0.0 0.0 0.0 
0.0 0.0 0.0 
0.0 0.0 0.0 
0.0 0.0 0.0 
0.0 0.0 0.0 
0.0 0.0 0.0 
0.0 0.0 0.0 
0.0 0.0 0.0 

VECTORS node_force_gravity float
0.0 -1.962000000000e+01 0.0 
0.0 -1.962000000000e+01 0.0 
0.0 -1.962000000000e+01 0.0 
0.0 -1.962000000000e+01 0.0 
0.0 -1.962000000000e+01 0.0 
0.0 -1.962000000000e+01 0.0 
0.0 -1.962000000000e+01 0.0 
0.0 -1.962000000000e+01 0.0 
0.0 -1.962000000000e+01 0.0 
0.0 -1.962000000000e+01 0.0 
0.0 -1.962000000000e+01 0.0 
0.0 -1.962000000000e+01 0.0 
0.0 -1.962000000000e+01 0.0 
0.0 -1.962000000000e+01 0.0 
0.0 -1.962000000000e+01 0.0 
0.0 -1.962000000000e+01 0.0 
0.0 -1.962000000000e+01 0.0 
0.0 -1.962000000000e+01 0.0 
0.0 -1.962000000000e+01 0.0 
0.0 -1.962000000000e+01 0.0 
0.0 -1.962000000000e+01 0.0 
0.0 -1.962000000000e+01 0.0 
0.0 -1.962000000000e+01 0.0 
0.0 -1.962000000000e+01 0.0 
0.0 -1.962000000000e+01 0.0 
0.0 -1.962000000000e+01 0.0 
0.0 -1.962000000000e+01 0.0 
0.0 -1.962000000000e+01 0.0 
0.0 -1.962000000000e+01 0.0 
0.0 -1.962000000000e+01 0.0 
0.0 -1.962000000000e+01 0.0 
0.0 -1.962000000000e+01 0.0 
0.0 -1.962000000000e+01 0.0 
0.0 -1.962000000000e+01 0.0 
0.0 -1.962000000000e+01 0.0 
0.0 -1.962000000000e+01 0.0 
0.0 -1.962000000000e+01 0.0 
0.0 -1.962000000000e+01 0.0 
0.0 -1.962000000000e+01 0.0 
0.0 -1.962000000000e+01 0.0 
0.0 -1.962000000000e+01 0.0 
0.0 -1.962000000000e+01 0.0 
0.0 -1.962000000000e+01 0.0 
0.0 -1.962000000000e+01 0.0 
0.0 -1.962000000000e+01 0.0 
0.0 -1.962000000000e+01 0.0 
0.0 -1.962000000000e+01 0.0 
0.0 -1.962000000000e+01 0.0 
0.0 -1.962000000000e+01 0.0 
0.0 -1.962000000000e+01 0.0 
0.0 -1.962000000000e+01 0.0 
0.0 -1.962000000000e+01 0.0 
0.0 -1.962000000000e+01 0.0 
0.0 -1.962000000000e+01 0.0 
0.0 -1.962000000000e+01 0.0 
0.0 -1.962000000000e+01 0.0 
0.0 -1.962000000000e+01 0.0 
0.0 -1.962000000000e+01 0.0 
0.0 -1.962000000000e+01 0.0 
0.0 -1.962000000000e+01 0.0 
0.0 -1.962000000000e+01 0.0 
0.0 -1.962000000000e+01 0.0 
0.0 -1.962000000000e+01 0.0 
0.0 -1.962000000000e+01 0.0 
0.0 -1.962000000000e+01 0.0 
0.0 -1.962000000000e+01 0.0 
0.0 -1.962000000000e+01 0.0 
0.0 -1.962000000000e+01 0.0 
0.0 -1.962000000000e+01 0.0 
0.0 -1.962000000000e+01 0.0 
0.0 -1.962000000000e+01 0.0 
0.0 -1.962000000000e+01 0.0 
0.0 -1.962000000000e+01 0.0 
0.0 -1.962000000000e+01 0.0 
0.0 -1.962000000000e+01 0.0 
0.0 -1.962000000000e+01 0.0 
0.0 -1.962000000000e+01 0.0 
0.0 -1.962000000000e+01 0.0 
0.0 -1.962000000000e+01 0.0 
0.0 -1.962000000000e+01 0.0 
0.0 -1.962000000000e+01 0.0 
0.0 -1.962000000000e+01 0.0 
0.0 -1.962000000000e+01 0.0 
0.0 -1.962000000000e+01 0.0 
0.0 -1.962000000000e+01 0.0 
0.0 -1.962000000000e+01 0.0 
0.0 -1.962000000000e+01 0.0 
0.0 -1.962000000000e+01 0.0 
0.0 -1.962000000000e+01 0.0 
0.0 -1.962000000000e+01 0.0 
0.0 -1.962000000000e+01 0.0 
0.0 -1.962000000000e+01 0.0 
0.0 -1.962000000000e+01 0.0 
0.0 -1.962000000000e+01 0.0 
0.0 -1.962000000000e+01 0.0 
0.0 -1.962000000000e+01 0.0 
0.0 -1.962000000000e+01 0.0 
0.0 -1.962000000000e+01 0.0 
0.0 -1.962000000000e+01 0.0 
0.0 -1.962000000000e+01 0.0 
0.0 -1.962000000000e+01 0.0 
0.0 -1.962000000000e+01 0.0 
0.0 -1.962000000000e+01 0.0 
0.0 -1.962000000000e+01 0.0 
0.0 -1.962000000000e+01 0.0 
0.0 -1.962000000000e+01 0.0 
0.0 -1.962000000000e+01 0.0 
0.0 -1.962000000000e+01 0.0 
0.0 -1.962000000000e+01 0.0 
0.0 -1.962000000000e+01 0.0 
0.0 -1.962000000000e+01 0.0 
0.0 -1.962000000000e+01 0.0 
0.0 -1.962000000000e+01 0.0 
0.0 -1.962000000000e+01 0.0 
0.0 -1.962000000000e+01 0.0 
0.0 -1.962000000000e+01 0.0 
0.0 -1.962000000000e+01 0.0 
0.0 -1.962000000000e+01 0.0 
0.0 -1.962000000000e+01 0.0 
0.0 -1.962000000000e+01 0.0 
0.0 -1.962000000000e+01 0.0 
0.0 -1.962000000000e+01 0.0 
0.0 -1.962000000000e+01 0.0 
0.0 -1.962000000000e+01 0.0 
0.0 -1.962000000000e+01 0.0 
0.0 -1.962000000000e+01 0.0 
0.0 -1.962000000000e+01 0.0 
0.0 -1.962000000000e+01 0.0 
0.0 -1.962000000000e+01 0.0 
0.0 -1.962000000000e+01 0.0 
0.0 -1.962000000000e+01 0.0 
0.0 -1.962000000000e+01 0.0 
0.0 -1.962000000000e+01 0.0 
0.0 -1.962000000000e+01 0.0 
0.0 -1.962000000000e+01 0.0 
0.0 -1.962000000000e+01 0.0 
0.0 -1.962000000000e+01 0.0 
0.0 -1.962000000000e+01 0.0 
0.0 -1.962000000000e+01 0.0 
0.0 -1.962000000000e+01 0.0 
0.0 -1.962000000000e+01 0.0 
0.0 -1.962000000000e+01 0.0 
0.0 -1.962000000000e+01 0.0 
0.0 -1.962000000000e+01 0.0 
0.0 -1.962000000000e+01 0.0 
0.0 -1.962000000000e+01 0.0 
0.0 -1.962000000000e+01 0.0 
0.0 -1.962000000000e+01 0.0 
0.0 -1.962000000000e+01 0.0 
0.0 -1.962000000000e+01 0.0 
0.0 -1.962000000000e+01 0.0 
0.0 -1.962000000000e+01 0.0 
0.0 -1.962000000000e+01 0.0 
0.0 -1.962000000000e+01 0.0 
0.0 -1.962000000000e+01 0.0 
0.0 -1.962000000000e+01 0.0 
0.0 -1.962000000000e+01 0.0 
0.0 -1.962000000000e+01 0.0 
0.0 -1.962000000000e+01 0.0 
0.0 -1.962000000000e+01 0.0 
0.0 -1.962000000000e+01 0.0 
0.0 -1.962000000000e+01 0.0 
0.0 -1.962000000000e+01 0.0 
0.0 -1.962000000000e+01 0.0 
0.0 -1.962000000000e+01 0.0 
0.0 -1.962000000000e+01 0.0 
0.0 -1.962000000000e+01 0.0 
0.0 -1.962000000000e+01 0.0 
0.0 -1.962000000000e+01 0.0 
0.0 -1.962000000000e+01 0.0 
0.0 -1.962000000000e+01 0.0 
0.0 -1.962000000000e+01 0.0 
0.0 -1.962000000000e+01 0.0 
0.0 -1.962000000000e+01 0.0 
0.0 -1.962000000000e+01 0.0 
0.0 -1.962000000000e+01 0.0 
0.0 -1.962000000000e+01 0.0 
0.0 -1.962000000000e+01 0.0 
0.0 -1.962000000000e+01 0.0 
0.0 -1.962000000000e+01 0.0 
0.0 -1.962000000000e+01 0.0 
0.0 -1.962000000000e+01 0.0 
0.0 -1.962000000000e+01 0.0 
0.0 -1.962000000000e+01 0.0 
0.0 -1.962000000000e+01 0.0 
0.0 -1.962000000000e+01 0.0 
0.0 -1.962000000000e+01 0.0 
0.0 -1.962000000000e+01 0.0 
0.0 -1.962000000000e+01 0.0 
0.0 -1.962000000000e+01 0.0 
0.0 -1.962000000000e+01 0.0 
0.0 -1.962000000000e+01 0.0 
0.0 -1.962000000000e+01 0.0 
0.0 -1.962000000000e+01 0.0 
0.0 -1.962000000000e+01 0.0 
0.0 -1.962000000000e+01 0.0 
0.0 -1.962000000000e+01 0.0 
0.0 -1.962000000000e+01 0.0 
0.0 -1.962000000000e+01 0.0 
0.0 -1.962000000000e+01 0.0 
0.0 -1.962000000000e+01 0.0 
0.0 -1.962000000000e+01 0.0 
0.0 -1.962000000000e+01 0.0 
0.0 -1.962000000000e+01 0.0 
0.0 -1.962000000000e+01 0.0 
0.0 -1.962000000000e+01 0.0 
0.0 -1.962000000000e+01 0.0 
0.0 -1.962000000000e+01 0.0 
0.0 -1.962000000000e+01 0.0 
0.0 -1.962000000000e+01 0.0 
0.0 -1.962000000000e+01 0.0 
0.0 -1.962000000000e+01 0.0 
0.0 -1.962000000000e+01 0.0 
0.0 -1.962000000000e+01 0.0 
0.0 -1.962000000000e+01 0.0 
0.0 -1.962000000000e+01 0.0 
0.0 -1.962000000000e+01 0.0 
0.0 -1.962000000000e+01 0.0 
0.0 -1.962000000000e+01 0.0 
0.0 -1.962000000000e+01 0.0 
0.0 -1.962000000000e+01 0.0 
0.0 -1.962000000000e+01 0.0 
0.0 -1.962000000000e+01 0.0 
0.0 -1.962000000000e+01 0.0 
0.0 -1.962000000000e+01 0.0 
0.0 -1.962000000000e+01 0.0 
0.0 -1.962000000000e+01 0.0 
0.0 -1.962000000000e+01 0.0 
0.0 -1.962000000000e+01 0.0 
0.0 -1.962000000000e+01 0.0 
0.0 -1.962000000000e+01 0.0 
0.0 -1.962000000000e+01 0.0 
0.0 -1.962000000000e+01 0.0 
0.0 -1.962000000000e+01 0.0 
0.0 -1.962000000000e+01 0.0 
0.0 -1.962000000000e+01 0.0 
0.0 -1.962000000000e+01 0.0 
0.0 -1.962000000000e+01 0.0 
0.0 -1.962000000000e+01 0.0 
0.0 -1.962000000000e+01 0.0 
0.0 -1.962000000000e+01 0.0 
0.0 -1.962000000000e+01 0.0 
0.0 -1.962000000000e+01 0.0 
0.0 -1.962000000000e+01 0.0 
0.0 -1.962000000000e+01 0.0 
0.0 -1.962000000000e+01 0.0 
0.0 -1.962000000000e+01 0.0 
0.0 -1.962000000000e+01 0.0 
0.0 -1.962000000000e+01 0.0 
0.0 -1.962000000000e+01 0.0 
0.0 -1.962000000000e+01 0.0 
0.0 -1.962000000000e+01 0.0 
0.0 -1.962000000000e+01 0.0 
0.0 -1.962000000000e+01 0.0 
0.0 -1.962000000000e+01 0.0 
0.0 -1.962000000000e+01 0.0 
0.0 -1.962000000000e+01 0.0 
0.0 -1.962000000000e+01 0.0 
0.0 -1.962000000000e+01 0.0 
0.0 -1.962000000000e+01 0.0 
0.0 -1.962000000000e+01 0.0 
0.0 -1.962000000000e+01 0.0 
0.0 -1.962000000000e+01 0.0 
0.0 -1.962000000000e+01 0.0 
0.0 -1.962000000000e+01 0.0 
0.0 -1.962000000000e+01 0.0 
0.0 -1.962000000000e+01 0.0 
0.0 -1.962000000000e+01 0.0 
0.0 -1.962000000000e+01 0.0 
0.0 -1.962000000000e+01 0.0 
0.0 -1.962000000000e+01 0.0 
0.0 -1.962000000000e+01 0.0 
0.0 -1.962000000000e+01 0.0 
0.0 -1.962000000000e+01 0.0 
0.0 -1.962000000000e+01 0.0 
0.0 -1.962000000000e+01 0.0 
0.0 -1.962000000000e+01 0.0 
0.0 -1.962000000000e+01 0.0 
0.0 -1.962000000000e+01 0.0 
0.0 -1.962000000000e+01 0.0 
0.0 -1.962000000000e+01 0.0 
0.0 -1.962000000000e+01 0.0 
0.0 -1.962000000000e+01 0.0 
0.0 -1.962000000000e+01 0.0 
0.0 -1.962000000000e+01 0.0 
0.0 -1.962000000000e+01 0.0 
0.0 -1.962000000000e+01 0.0 
0.0 -1.962000000000e+01 0.0 
0.0 -1.962000000000e+01 0.0 
0.0 -1.962000000000e+01 0.0 
0.0 -1.962000000000e+01 0.0 
0.0 -1.962000000000e+01 0.0 
0.0 -1.962000000000e+01 0.0 
0.0 -1.962000000000e+01 0.0 
0.0 -1.962000000000e+01 0.0 
0.0 -1.962000000000e+01 0.0 
0.0 -1.962000000000e+01 0.0 
0.0 -1.962000000000e+01 0.0 
0.0 -1.962000000000e+01 0.0 
0.0 -1.962000000000e+01 0.0 
0.0 -1.962000000000e+01 0.0 
0.0 -1.962000000000e+01 0.0 
0.0 -1.962000000000e+01 0.0 
0.0 -1.962000000000e+01 0.0 
0.0 -1.962000000000e+01 0.0 
0.0 -1.962000000000e+01 0.0 
0.0 -1.962000000000e+01 0.0 
0.0 -1.962000000000e+01 0.0 
0.0 -1.962000000000e+01 0.0 
0.0 -1.962000000000e+01 0.0 
0.0 -1.962000000000e+01 0.0 
0.0 -1.962000000000e+01 0.0 
0.0 -1.962000000000e+01 0.0 
0.0 -1.962000000000e+01 0.0 
0.0 -1.962000000000e+01 0.0 
0.0 -1.962000000000e+01 0.0 
0.0 -1.962000000000e+01 0.0 
0.0 -1.962000000000e+01 0.0 
0.0 -1.962000000000e+01 0.0 
0.0 -1.962000000000e+01 0.0 
0.0 -1.962000000000e+01 0.0 
0.0 -1.962000000000e+01 0.0 
0.0 -1.962000000000e+01 0.0 
0.0 -1.962000000000e+01 0.0 
0.0 -1.962000000000e+01 0.0 
0.0 -1.962000000000e+01 0.0 
0.0 -1.962000000000e+01 0.0 
0.0 -1.962000000000e+01 0.0 
0.0 -1.962000000000e+01 0.0 
0.0 -1.962000000000e+01 0.0 
0.0 -1.962000000000e+01 0.0 
0.0 -1.962000000000e+01 0.0 
0.0 -1.962000000000e+01 0.0 
0.0 -1.962000000000e+01 0.0 
0.0 -1.962000000000e+01 0.0 
0.0 -1.962000000000e+01 0.0 
0.0 -1.962000000000e+01 0.0 
0.0 -1.962000000000e+01 0.0 
0.0 -1.962000000000e+01 0.0 
0.0 -1.962000000000e+01 0.0 
0.0 -1.962000000000e+01 0.0 
0.0 -1.962000000000e+01 0.0 
0.0 -1.962000000000e+01 0.0 
0.0 -1.962000000000e+01 0.0 
0.0 -1.962000000000e+01 0.0 
0.0 -1.962000000000e+01 0.0 
0.0 -1.962000000000e+01 0.0 
0.0 -1.962000000000e+01 0.0 
0.0 -1.962000000000e+01 0.0 
0.0 -1.962000000000e+01 0.0 
0.0 -1.962000000000e+01 0.0 
0.0 -1.962000000000e+01 0.0 
0.0 -1.962000000000e+01 0.0 
0.0 -1.962000000000e+01 0.0 
0.0 -1.962000000000e+01 0.0 
0.0 -1.962000000000e+01 0.0 
0.0 -1.962000000000e+01 0.0 
0.0 -1.962000000000e+01 0.0 
0.0 -1.962000000000e+01 0.0 
0.0 -1.962000000000e+01 0.0 
0.0 -1.962000000000e+01 0.0 
0.0 -1.962000000000e+01 0.0 
0.0 -1.962000000000e+01 0.0 
0.0 -1.962000000000e+01 0.0 
0.0 -1.962000000000e+01 0.0 
0.0 -1.962000000000e+01 0.0 
0.0 -1.962000000000e+01 0.0 
0.0 -1.962000000000e+01 0.0 
0.0 -1.962000000000e+01 0.0 
0.0 -1.962000000000e+01 0.0 
0.0 -1.962000000000e+01 0.0 
0.0 -1.962000000000e+01 0.0 
0.0 -1.962000000000e+01 0.0 
0.0 -1.962000000000e+01 0.0 
0.0 -1.962000000000e+01 0.0 
0.0 -1.962000000000e+01 0.0 
0.0 -1.962000000000e+01 0.0 
0.0 -1.962000000000e+01 0.0 
0.0 -1.962000000000e+01 0.0 
0.0 -1.962000000000e+01 0.0 
0.0 -1.962000000000e+01 0.0 
0.0 -1.962000000000e+01 0.0 
0.0 -1.962000000000e+01 0.0 
0.0 -1.962000000000e+01 0.0 
0.0 -1.962000000000e+01 0.0 
0.0 -1.962000000000e+01 0.0 
0.0 -1.962000000000e+01 0.0 
0.0 -1.962000000000e+01 0.0 
0.0 -1.962000000000e+01 0.0 
0.0 -1.962000000000e+01 0.0 
0.0 -1.962000000000e+01 0.0 
0.0 -1.962000000000e+01 0.0 
0.0 -1.962000000000e+01 0.0 
0.0 -1.962000000000e+01 0.0 
0.0 -1.962000000000e+01 0.0 
0.0 -1.962000000000e+01 0.0 
0.0 -1.962000000000e+01 0.0 
0.0 -1.962000000000e+01 0.0 
0.0 -1.962000000000e+01 0.0 
0.0 -1.962000000000e+01 0.0 
0.0 -1.962000000000e+01 0.0 
0.0 -1.962000000000e+01 0.0 
0.0 -1.962000000000e+01 0.0 
0.0 -1.962000000000e+01 0.0 
0.0 -1.962000000000e+01 0.0 
0.0 -1.962000000000e+01 0.0 
0.0 -1.962000000000e+01 0.0 
0.0 -1.962000000000e+01 0.0 
0.0 -1.962000000000e+01 0.0 
0.0 -1.962000000000e+01 0.0 
0.0 -1.962000000000e+01 0.0 
0.0 -1.962000000000e+01 0.0 
0.0 -1.962000000000e+01 0.0 
0.0 -1.962000000000e+01 0.0 
0.0 -1.962000000000e+01 0.0 
0.0 -1.962000000000e+01 0.0 
0.0 -1.962000000000e+01 0.0 
0.0 -1.962000000000e+01 0.0 
0.0 -1.962000000000e+01 0.0 
0.0 -1.962000000000e+01 0.0 
0.0 -1.962000000000e+01 0.0 
0.0 -1.962000000000e+01 0.0 
0.0 -1.962000000000e+01 0.0 
0.0 -1.962000000000e+01 0.0 
0.0 -1.962000000000e+01 0.0 
0.0 -1.962000000000e+01 0.0 
0.0 -1.962000000000e+01 0.0 
0.0 -1.962000000000e+01 0.0 
0.0 -1.962000000000e+01 0.0 
0.0 -1.962000000000e+01 0.0 
0.0 -1.962000000000e+01 0.0 
0.0 -1.962000000000e+01 0.0 
0.0 -1.962000000000e+01 0.0 
0.0 -1.962000000000e+01 0.0 
0.0 -1.962000000000e+01 0.0 
0.0 -1.962000000000e+01 0.0 
0.0 -1.962000000000e+01 0.0 
0.0 -1.962000000000e+01 0.0 
0.0 -1.962000000000e+01 0.0 
0.0 -1.962000000000e+01 0.0 
0.0 -1.962000000000e+01 0.0 
0.0 -1.962000000000e+01 0.0 
0.0 -1.962000000000e+01 0.0 
0.0 -1.962000000000e+01 0.0 
0.0 -1.962000000000e+01 0.0 
0.0 -1.962000000000e+01 0.0 
0.0 -1.962000000000e+01 0.0 
0.0 -1.962000000000e+01 0.0 
0.0 -1.962000000000e+01 0.0 
0.0 -1.962000000000e+01 0.0 
0.0 -1.962000000000e+01 0.0 
0.0 -1.962000000000e+01 0.0 
0.0 -1.962000000000e+01 0.0 
0.0 -1.962000000000e+01 0.0 
0.0 -1.962000000000e+01 0.0 
0.0 -1.962000000000e+01 0.0 
0.0 -1.962000000000e+01 0.0 
0.0 -1.962000000000e+01 0.0 
0.0 -1.962000000000e+01 0.0 
0.0 -1.962000000000e+01 0.0 
0.0 -1.962000000000e+01 0.0 
0.0 -1.962000000000e+01 0.0 
0.0 -1.962000000000e+01 0.0 
0.0 -1.962000000000e+01 0.0 
0.0 -1.962000000000e+01 0.0 
0.0 -1.962000000000e+01 0.0 
0.0 -1.962000000000e+01 0.0 
0.0 -1.962000000000e+01 0.0 
0.0 -1.962000000000e+01 0.0 
0.0 -1.962000000000e+01 0.0 
0.0 -1.962000000000e+01 0.0 
0.0 -1.962000000000e+01 0.0 
0.0 -1.962000000000e+01 0.0 
0.0 -1.962000000000e+01 0.0 
0.0 -1.962000000000e+01 0.0 
0.0 -1.962000000000e+01 0.0 
0.0 -1.962000000000e+01 0.0 
0.0 -1.962000000000e+01 0.0 
0.0 -1.962000000000e+01 0.0 
0.0 -1.962000000000e+01 0.0 
0.0 -1.962000000000e+01 0.0 
0.0 -1.962000000000e+01 0.0 
0.0 -1.962000000000e+01 0.0 
0.0 -1.962000000000e+01 0.0 
0.0 -1.962000000000e+01 0.0 
0.0 -1.962000000000e+01 0.0 
0.0 -1.962000000000e+01 0.0 
0.0 -1.962000000000e+01 0.0 
0.0 -1.962000000000e+01 0.0 
0.0 -1.962000000000e+01 0.0 
0.0 -1.962000000000e+01 0.0 
0.0 -1.962000000000e+01 0.0 
0.0 -1.962000000000e+01 0.0 
0.0 -1.962000000000e+01 0.0 
0.0 -1.962000000000e+01 0.0 
0.0 -1.962000000000e+01 0.0 
0.0 -1.962000000000e+01 0.0 
0.0 -1.962000000000e+01 0.0 
0.0 -1.962000000000e+01 0.0 
0.0 -1.962000000000e+01 0.0 
0.0 -1.962000000000e+01 0.0 
0.0 -1.962000000000e+01 0.0 
0.0 -1.962000000000e+01 0.0 
0.0 -1.962000000000e+01 0.0 
0.0 -1.962000000000e+01 0.0 
0.0 -1.962000000000e+01 0.0 
0.0 -1.962000000000e+01 0.0 
0.0 -1.962000000000e+01 0.0 
0.0 -1.962000000000e+01 0.0 
0.0 -1.962000000000e+01 0.0 
0.0 -1.962000000000e+01 0.0 
0.0 -1.962000000000e+01 0.0 
0.0 -1.962000000000e+01 0.0 
0.0 -1.962000000000e+01 0.0 
0.0 -1.962000000000e+01 0.0 
0.0 -1.962000000000e+01 0.0 
0.0 -1.962000000000e+01 0.0 
0.0 -1.962000000000e+01 0.0 
0.0 -1.962000000000e+01 0.0 
0.0 -1.962000000000e+01 0.0 
0.0 -1.962000000000e+01 0.0 
0.0 -1.962000000000e+01 0.0 
0.0 -1.962000000000e+01 0.0 
0.0 -1.962000000000e+01 0.0 
0.0 -1.962000000000e+01 0.0 
0.0 -1.962000000000e+01 0.0 
0.0 -1.962000000000e+01 0.0 
0.0 -1.962000000000e+01 0.0 
0.0 -1.962000000000e+01 0.0 
0.0 -1.962000000000e+01 0.0 
0.0 -1.962000000000e+01 0.0 
0.0 -1.962000000000e+01 0.0 
0.0 -1.962000000000e+01 0.0 
0.0 -1.962000000000e+01 0.0 
0.0 -1.962000000000e+01 0.0 
0.0 -1.962000000000e+01 0.0 
0.0 -1.962000000000e+01 0.0 
0.0 -1.962000000000e+01 0.0 
0.0 -1.962000000000e+01 0.0 
0.0 -1.962000000000e+01 0.0 
0.0 -1.962000000000e+01 0.0 
0.0 -1.962000000000e+01 0.0 
0.0 -1.962000000000e+01 0.0 
0.0 -1.962000000000e+01 0.0 
0.0 -1.962000000000e+01 0.0 
0.0 -1.962000000000e+01 0.0 
0.0 -1.962000000000e+01 0.0 
0.0 -1.962000000000e+01 0.0 
0.0 -1.962000000000e+01 0.0 
0.0 -1.962000000000e+01 0.0 
0.0 -1.962000000000e+01 0.0 
0.0 -1.962000000000e+01 0.0 
0.0 -1.962000000000e+01 0.0 
0.0 -1.962000000000e+01 0.0 
0.0 -1.962000000000e+01 0.0 
0.0 -1.962000000000e+01 0.0 
0.0 -1.962000000000e+01 0.0 
0.0 -1.962000000000e+01 0.0 
0.0 -1.962000000000e+01 0.0 
0.0 -1.962000000000e+01 0.0 
0.0 -1.962000000000e+01 0.0 
0.0 -1.962000000000e+01 0.0 
0.0 -1.962000000000e+01 0.0 
0.0 -1.962000000000e+01 0.0 
0.0 -1.962000000000e+01 0.0 
0.0 -1.962000000000e+01 0.0 
0.0 -1.962000000000e+01 0.0 
0.0 -1.962000000000e+01 0.0 
0.0 -1.962000000000e+01 0.0 
0.0 -1.962000000000e+01 0.0 
0.0 -1.962000000000e+01 0.0 
0.0 -1.962000000000e+01 0.0 
0.0 -1.962000000000e+01 0.0 
0.0 -1.962000000000e+01 0.0 
0.0 -1.962000000000e+01 0.0 
0.0 -1.962000000000e+01 0.0 
0.0 -1.962000000000e+01 0.0 
0.0 -1.962000000000e+01 0.0 
0.0 -1.962000000000e+01 0.0 
0.0 -1.962000000000e+01 0.0 
0.0 -1.962000000000e+01 0.0 
0.0 -1.962000000000e+01 0.0 
0.0 -1.962000000000e+01 0.0 
0.0 -1.962000000000e+01 0.0 
0.0 -1.962000000000e+01 0.0 
0.0 -1.962000000000e+01 0.0 
0.0 -1.962000000000e+01 0.0 
0.0 -1.962000000000e+01 0.0 
0.0 -1.962000000000e+01 0.0 
0.0 -1.962000000000e+01 0.0 
0.0 -1.962000000000e+01 0.0 
0.0 -1.962000000000e+01 0.0 
0.0 -1.962000000000e+01 0.0 
0.0 -1.962000000000e+01 0.0 
0.0 -1.962000000000e+01 0.0 
0.0 -1.962000000000e+01 0.0 
0.0 -1.962000000000e+01 0.0 
0.0 -1.962000000000e+01 0.0 
0.0 -1.962000000000e+01 0.0 
0.0 -1.962000000000e+01 0.0 
0.0 -1.962000000000e+01 0.0 
0.0 -1.962000000000e+01 0.0 
0.0 -1.962000000000e+01 0.0 
0.0 -1.962000000000e+01 0.0 
0.0 -1.962000000000e+01 0.0 
0.0 -1.962000000000e+01 0.0 
0.0 -1.962000000000e+01 0.0 
0.0 -1.962000000000e+01 0.0 
0.0 -1.962000000000e+01 0.0 
0.0 -1.962000000000e+01 0.0 
0.0 -1.962000000000e+01 0.0 
0.0 -1.962000000000e+01 0.0 
0.0 -1.962000000000e+01 0.0 
0.0 -1.962000000000e+01 0.0 
0.0 -1.962000000000e+01 0.0 
0.0 -1.962000000000e+01 0.0 
0.0 -1.962000000000e+01 0.0 
0.0 -1.962000000000e+01 0.0 
0.0 -1.962000000000e+01 0.0 
0.0 -1.962000000000e+01 0.0 
0.0 -1.962000000000e+01 0.0 
0.0 -1.962000000000e+01 0.0 
0.0 -1.962000000000e+01 0.0 
0.0 -1.962000000000e+01 0.0 
0.0 -1.962000000000e+01 0.0 
0.0 -1.962000000000e+01 0.0 
0.0 -1.962000000000e+01 0.0 
0.0 -1.962000000000e+01 0.0 
0.0 -1.962000000000e+01 0.0 
0.0 -1.962000000000e+01 0.0 
0.0 -1.962000000000e+01 0.0 
0.0 -1.962000000000e+01 0.0 
0.0 -1.962000000000e+01 0.0 
0.0 -1.962000000000e+01 0.0 
0.0 -1.962000000000e+01 0.0 
0.0 -1.962000000000e+01 0.0 
0.0 -1.962000000000e+01 0.0 
0.0 -1.962000000000e+01 0.0 
0.0 -1.962000000000e+01 0.0 
0.0 -1.962000000000e+01 0.0 
0.0 -1.962000000000e+01 0.0 
0.0 -1.962000000000e+01 0.0 
0.0 -1.962000000000e+01 0.0 
0.0 -1.962000000000e+01 0.0 
0.0 -1.962000000000e+01 0.0 
0.0 -1.962000000000e+01 0.0 
0.0 -1.962000000000e+01 0.0 
0.0 -1.962000000000e+01 0.0 
0.0 -1.962000000000e+01 0.0 
0.0 -1.962000000000e+01 0.0 
0.0 -1.962000000000e+01 0.0 
0.0 -1.962000000000e+01 0.0 
0.0 -1.962000000000e+01 0.0 
0.0 -1.962000000000e+01 0.0 
0.0 -1.962000000000e+01 0.0 
0.0 -1.962000000000e+01 0.0 
0.0 -1.962000000000e+01 0.0 
0.0 -1.962000000000e+01 0.0 
0.0 -1.962000000000e+01 0.0 
0.0 -1.962000000000e+01 0.0 
0.0 -1.962000000000e+01 0.0 
0.0 -1.962000000000e+01 0.0 
0.0 -1.962000000000e+01 0.0 
0.0 -1.962000000000e+01 0.0 
0.0 -1.962000000000e+01 0.0 
0.0 -1.962000000000e+01 0.0 
0.0 -1.962000000000e+01 0.0 
0.0 -1.962000000000e+01 0.0 
0.0 -1.962000000000e+01 0.0 
0.0 -1.962000000000e+01 0.0 
0.0 -1.962000000000e+01 0.0 
0.0 -1.962000000000e+01 0.0 
0.0 -1.962000000000e+01 0.0 
0.0 -1.962000000000e+01 0.0 
0.0 -1.962000000000e+01 0.0 
0.0 -1.962000000000e+01 0.0 
0.0 -1.962000000000e+01 0.0 
0.0 -1.962000000000e+01 0.0 
0.0 -1.962000000000e+01 0.0 
0.0 -1.962000000000e+01 0.0 
0.0 -1.962000000000e+01 0.0 
0.0 -1.962000000000e+01 0.0 
0.0 -1.962000000000e+01 0.0 
0.0 -1.962000000000e+01 0.0 
0.0 -1.962000000000e+01 0.0 
0.0 -1.962000000000e+01 0.0 
0.0 -1.962000000000e+01 0.0 
0.0 -1.962000000000e+01 0.0 
0.0 -1.962000000000e+01 0.0 
0.0 -1.962000000000e+01 0.0 
0.0 -1.962000000000e+01 0.0 
0.0 -1.962000000000e+01 0.0 
0.0 -1.962000000000e+01 0.0 
0.0 -1.962000000000e+01 0.0 
0.0 -1.962000000000e+01 0.0 
0.0 -1.962000000000e+01 0.0 
0.0 -1.962000000000e+01 0.0 
0.0 -1.962000000000e+01 0.0 
0.0 -1.962000000000e+01 0.0 
0.0 -1.962000000000e+01 0.0 
0.0 -1.962000000000e+01 0.0 
0.0 -1.962000000000e+01 0.0 
0.0 -1.962000000000e+01 0.0 
0.0 -1.962000000000e+01 0.0 
0.0 -1.962000000000e+01 0.0 
0.0 -1.962000000000e+01 0.0 
0.0 -1.962000000000e+01 0.0 
0.0 -1.962000000000e+01 0.0 
0.0 -1.962000000000e+01 0.0 
0.0 -1.962000000000e+01 0.0 
0.0 -1.962000000000e+01 0.0 
0.0 -1.962000000000e+01 0.0 
0.0 -1.962000000000e+01 0.0 
0.0 -1.962000000000e+01 0.0 
0.0 -1.962000000000e+01 0.0 
0.0 -1.962000000000e+01 0.0 
0.0 -1.962000000000e+01 0.0 
0.0 -1.962000000000e+01 0.0 
0.0 -1.962000000000e+01 0.0 
0.0 -1.962000000000e+01 0.0 
0.0 -1.962000000000e+01 0.0 
0.0 -1.962000000000e+01 0.0 
0.0 -1.962000000000e+01 0.0 
0.0 -1.962000000000e+01 0.0 
0.0 -1.962000000000e+01 0.0 
0.0 -1.962000000000e+01 0.0 
0.0 -1.962000000000e+01 0.0 
0.0 -1.962000000000e+01 0.0 
0.0 -1.962000000000e+01 0.0 
0.0 -1.962000000000e+01 0.0 
0.0 -1.962000000000e+01 0.0 
0.0 -1.962000000000e+01 0.0 
0.0 -1.962000000000e+01 0.0 
0.0 -1.962000000000e+01 0.0 
0.0 -1.962000000000e+01 0.0 
0.0 -1.962000000000e+01 0.0 
0.0 -1.962000000000e+01 0.0 
0.0 -1.962000000000e+01 0.0 
0.0 -1.962000000000e+01 0.0 
0.0 -1.962000000000e+01 0.0 
0.0 -1.962000000000e+01 0.0 
0.0 -1.962000000000e+01 0.0 
0.0 -1.962000000000e+01 0.0 
0.0 -1.962000000000e+01 0.0 
0.0 -1.962000000000e+01 0.0 
0.0 -1.962000000000e+01 0.0 
0.0 -1.962000000000e+01 0.0 
0.0 -1.962000000000e+01 0.0 
0.0 -1.962000000000e+01 0.0 
0.0 -1.962000000000e+01 0.0 
0.0 -1.962000000000e+01 0.0 
0.0 -1.962000000000e+01 0.0 
0.0 -1.962000000000e+01 0.0 
0.0 -1.962000000000e+01 0.0 
0.0 -1.962000000000e+01 0.0 
0.0 -1.962000000000e+01 0.0 
0.0 -1.962000000000e+01 0.0 
0.0 -1.962000000000e+01 0.0 
0.0 -1.962000000000e+01 0.0 
0.0 -1.962000000000e+01 0.0 
0.0 -1.962000000000e+01 0.0 
0.0 -1.962000000000e+01 0.0 
0.0 -1.962000000000e+01 0.0 
0.0 -1.962000000000e+01 0.0 
0.0 -1.962000000000e+01 0.0 
0.0 -1.962000000000e+01 0.0 
0.0 -1.962000000000e+01 0.0 
0.0 -1.962000000000e+01 0.0 
0.0 -1.962000000000e+01 0.0 
0.0 -1.962000000000e+01 0.0 
0.0 -1.962000000000e+01 0.0 
0.0 -1.962000000000e+01 0.0 
0.0 -1.962000000000e+01 0.0 
0.0 -1.962000000000e+01 0.0 
0.0 -1.962000000000e+01 0.0 
0.0 -1.962000000000e+01 0.0 
0.0 -1.962000000000e+01 0.0 
0.0 -1.962000000000e+01 0.0 
0.0 -1.962000000000e+01 0.0 
0.0 -1.962000000000e+01 0.0 
0.0 -1.962000000000e+01 0.0 
0.0 -1.962000000000e+01 0.0 
0.0 -1.962000000000e+01 0.0 
0.0 -1.962000000000e+01 0.0 
0.0 -1.962000000000e+01 0.0 
0.0 -1.962000000000e+01 0.0 
0.0 -1.962000000000e+01 0.0 
0.0 -1.962000000000e+01 0.0 
0.0 -1.962000000000e+01 0.0 
0.0 -1.962000000000e+01 0.0 
0.0 -1.962000000000e+01 0.0 
0.0 -1.962000000000e+01 0.0 
0.0 -1.962000000000e+01 0.0 
0.0 -1.962000000000e+01 0.0 
0.0 -1.962000000000e+01 0.0 
0.0 -1.962000000000e+01 0.0 
0.0 -1.962000000000e+01 0.0 
0.0 -1.962000000000e+01 0.0 
0.0 -1.962000000000e+01 0.0 
0.0 -1.962000000000e+01 0.0 
0.0 -1.962000000000e+01 0.0 
0.0 -1.962000000000e+01 0.0 
0.0 -1.962000000000e+01 0.0 
0.0 -1.962000000000e+01 0.0 
0.0 -1.962000000000e+01 0.0 
0.0 -1.962000000000e+01 0.0 
0.0 -1.962000000000e+01 0.0 
0.0 -1.962000000000e+01 0.0 
0.0 -1.962000000000e+01 0.0 
0.0 -1.962000000000e+01 0.0 
0.0 -1.962000000000e+01 0.0 
0.0 -1.962000000000e+01 0.0 
0.0 -1.962000000000e+01 0.0 
0.0 -1.962000000000e+01 0.0 
0.0 -1.962000000000e+01 0.0 
0.0 -1.962000000000e+01 0.0 
0.0 -1.962000000000e+01 0.0 
0.0 -1.962000000000e+01 0.0 
0.0 -1.962000000000e+01 0.0 
0.0 -1.962000000000e+01 0.0 
0.0 -1.962000000000e+01 0.0 
0.0 -1.962000000000e+01 0.0 
0.0 -1.962000000000e+01 0.0 
0.0 -1.962000000000e+01 0.0 
0.0 -1.962000000000e+01 0.0 
0.0 -1.962000000000e+01 0.0 
0.0 -1.962000000000e+01 0.0 
0.0 -1.962000000000e+01 0.0 
0.0 -1.962000000000e+01 0.0 
0.0 -1.962000000000e+01 0.0 
0.0 -1.962000000000e+01 0.0 
0.0 -1.962000000000e+01 0.0 
0.0 -1.962000000000e+01 0.0 
0.0 -1.962000000000e+01 0.0 
0.0 -1.962000000000e+01 0.0 
0.0 -1.962000000000e+01 0.0 
0.0 -1.962000000000e+01 0.0 
0.0 -1.962000000000e+01 0.0 
0.0 -1.962000000000e+01 0.0 
0.0 -1.962000000000e+01 0.0 
0.0 -1.962000000000e+01 0.0 
0.0 -1.962000000000e+01 0.0 
0.0 -1.962000000000e+01 0.0 
0.0 -1.962000000000e+01 0.0 
0.0 -1.962000000000e+01 0.0 
0.0 -1.962000000000e+01 0.0 
0.0 -1.962000000000e+01 0.0 
0.0 -1.962000000000e+01 0.0 
0.0 -1.962000000000e+01 0.0 
0.0 -1.962000000000e+01 0.0 
0.0 -1.962000000000e+01 0.0 
0.0 -1.962000000000e+01 0.0 
0.0 -1.962000000000e+01 0.0 
0.0 -1.962000000000e+01 0.0 
0.0 -1.962000000000e+01 0.0 
0.0 -1.962000000000e+01 0.0 
0.0 -1.962000000000e+01 0.0 
0.0 -1.962000000000e+01 0.0 
0.0 -1.962000000000e+01 0.0 
0.0 -1.962000000000e+01 0.0 
0.0 -1.962000000000e+01 0.0 
0.0 -1.962000000000e+01 0.0 
0.0 -1.962000000000e+01 0.0 
0.0 -1.962000000000e+01 0.0 
0.0 -1.962000000000e+01 0.0 
0.0 -1.962000000000e+01 0.0 
0.0 -1.962000000000e+01 0.0 
0.0 -1.962000000000e+01 0.0 
0.0 -1.962000000000e+01 0.0 
0.0 -1.962000000000e+01 0.0 
0.0 -1.962000000000e+01 0.0 
0.0 -1.962000000000e+01 0.0 
0.0 -1.962000000000e+01 0.0 
0.0 -1.962000000000e+01 0.0 
0.0 -1.962000000000e+01 0.0 
0.0 -1.962000000000e+01 0.0 
0.0 -1.962000000000e+01 0.0 
0.0 -1.962000000000e+01 0.0 
0.0 -1.962000000000e+01 0.0 
0.0 -1.962000000000e+01 0.0 
0.0 -1.962000000000e+01 0.0 
0.0 -1.962000000000e+01 0.0 
0.0 -1.962000000000e+01 0.0 
0.0 -1.962000000000e+01 0.0 
0.0 -1.962000000000e+01 0.0 
0.0 -1.962000000000e+01 0.0 
0.0 -1.962000000000e+01 0.0 
0.0 -1.962000000000e+01 0.0 
0.0 -1.962000000000e+01 0.0 
0.0 -1.962000000000e+01 0.0 
0.0 -1.962000000000e+01 0.0 
0.0 -1.962000000000e+01 0.0 
0.0 -1.962000000000e+01 0.0 
0.0 -1.962000000000e+01 0.0 
0.0 -1.962000000000e+01 0.0 
0.0 -1.962000000000e+01 0.0 
0.0 -1.962000000000e+01 0.0 
0.0 -1.962000000000e+01 0.0 
0.0 -1.962000000000e+01 0.0 
0.0 -1.962000000000e+01 0.0 
0.0 -1.962000000000e+01 0.0 
0.0 -1.962000000000e+01 0.0 
0.0 -1.962000000000e+01 0.0 
0.0 -1.962000000000e+01 0.0 
0.0 -1.962000000000e+01 0.0 
0.0 -1.962000000000e+01 0.0 
0.0 -1.962000000000e+01 0.0 
0.0 -1.962000000000e+01 0.0 
0.0 -1.962000000000e+01 0.0 
0.0 -1.962000000000e+01 0.0 
0.0 -1.962000000000e+01 0.0 
0.0 -1.962000000000e+01 0.0 
0.0 -1.962000000000e+01 0.0 
0.0 -1.962000000000e+01 0.0 
0.0 -1.962000000000e+01 0.0 
0.0 -1.962000000000e+01 0.0 
0.0 -1.962000000000e+01 0.0 
0.0 -1.962000000000e+01 0.0 
0.0 -1.962000000000e+01 0.0 
0.0 -1.962000000000e+01 0.0 
0.0 -1.962000000000e+01 0.0 
0.0 -1.962000000000e+01 0.0 
0.0 -1.962000000000e+01 0.0 
0.0 -1.962000000000e+01 0.0 
0.0 -1.962000000000e+01 0.0 
0.0 -1.962000000000e+01 0.0 
0.0 -1.962000000000e+01 0.0 
0.0 -1.962000000000e+01 0.0 
0.0 -1.962000000000e+01 0.0 
0.0 -1.962000000000e+01 0.0 
0.0 -1.962000000000e+01 0.0 
0.0 -1.962000000000e+01 0.0 
0.0 -1.962000000000e+01 0.0 
0.0 -1.962000000000e+01 0.0 
0.0 -1.962000000000e+01 0.0 
0.0 -1.962000000000e+01 0.0 
0.0 -1.962000000000e+01 0.0 
0.0 -1.962000000000e+01 0.0 
0.0 -1.962000000000e+01 0.0 
0.0 -1.962000000000e+01 0.0 
0.0 -1.962000000000e+01 0.0 
0.0 -1.962000000000e+01 0.0 
0.0 -1.962000000000e+01 0.0 
0.0 -1.962000000000e+01 0.0 
0.0 -1.962000000000e+01 0.0 
0.0 -1.962000000000e+01 0.0 
0.0 -1.962000000000e+01 0.0 
0.0 -1.962000000000e+01 0.0 
0.0 -1.962000000000e+01 0.0 
0.0 -1.962000000000e+01 0.0 
0.0 -1.962000000000e+01 0.0 
0.0 -1.962000000000e+01 0.0 
0.0 -1.962000000000e+01 0.0 
0.0 -1.962000000000e+01 0.0 
0.0 -1.962000000000e+01 0.0 
0.0 -1.962000000000e+01 0.0 
0.0 -1.962000000000e+01 0.0 
0.0 -1.962000000000e+01 0.0 
0.0 -1.962000000000e+01 0.0 
0.0 -1.962000000000e+01 0.0 
0.0 -1.962000000000e+01 0.0 
0.0 -1.962000000000e+01 0.0 
0.0 -1.962000000000e+01 0.0 
0.0 -1.962000000000e+01 0.0 
0.0 -1.962000000000e+01 0.0 
0.0 -1.962000000000e+01 0.0 
0.0 -1.962000000000e+01 0.0 
0.0 -1.962000000000e+01 0.0 
0.0 -1.962000000000e+01 0.0 
0.0 -1.962000000000e+01 0.0 
0.0 -1.962000000000e+01 0.0 
0.0 -1.962000000000e+01 0.0 
0.0 -1.962000000000e+01 0.0 
0.0 -1.962000000000e+01 0.0 
0.0 -1.962000000000e+01 0.0 
0.0 -1.962000000000e+01 0.0 
0.0 -1.962000000000e+01 0.0 
0.0 -1.962000000000e+01 0.0 
0.0 -1.962000000000e+01 0.0 
0.0 -1.962000000000e+01 0.0 
0.0 -1.962000000000e+01 0.0 
0.0 -1.962000000000e+01 0.0 
0.0 -1.962000000000e+01 0.0 
0.0 -1.962000000000e+01 0.0 
0.0 -1.962000000000e+01 0.0 
0.0 -1.962000000000e+01 0.0 
0.0 -1.962000000000e+01 0.0 
0.0 -1.962000000000e+01 0.0 
0.0 -1.962000000000e+01 0.0 
0.0 -1.962000000000e+01 0.0 
0.0 -1.962000000000e+01 0.0 
0.0 -1.962000000000e+01 0.0 
0.0 -1.962000000000e+01 0.0 
0.0 -1.962000000000e+01 0.0 
0.0 -1.962000000000e+01 0.0 
0.0 -1.962000000000e+01 0.0 
0.0 -1.962000000000e+01 0.0 
0.0 -1.962000000000e+01 0.0 
0.0 -1.962000000000e+01 0.0 
0.0 -1.962000000000e+01 0.0 
0.0 -1.962000000000e+01 0.0 
0.0 -1.962000000000e+01 0.0 
0.0 -1.962000000000e+01 0.0 
0.0 -1.962000000000e+01 0.0 
0.0 -1.962000000000e+01 0.0 
0.0 -1.962000000000e+01 0.0 
0.0 -1.962000000000e+01 0.0 
0.0 -1.962000000000e+01 0.0 
0.0 -1.962000000000e+01 0.0 
0.0 -1.962000000000e+01 0.0 
0.0 -1.962000000000e+01 0.0 
0.0 -1.962000000000e+01 0.0 
0.0 -1.962000000000e+01 0.0 
0.0 -1.962000000000e+01 0.0 
0.0 -1.962000000000e+01 0.0 
0.0 -1.962000000000e+01 0.0 
0.0 -1.962000000000e+01 0.0 
0.0 -1.962000000000e+01 0.0 
0.0 -1.962000000000e+01 0.0 
0.0 -1.962000000000e+01 0.0 
0.0 -1.962000000000e+01 0.0 
0.0 -1.962000000000e+01 0.0 
0.0 -1.962000000000e+01 0.0 
0.0 -1.962000000000e+01 0.0 
0.0 -1.962000000000e+01 0.0 
0.0 -1.962000000000e+01 0.0 
0.0 -1.962000000000e+01 0.0 
0.0 -1.962000000000e+01 0.0 
0.0 -1.962000000000e+01 0.0 
0.0 -1.962000000000e+01 0.0 
0.0 -1.962000000000e+01 0.0 
0.0 -1.962000000000e+01 0.0 
0.0 -1.962000000000e+01 0.0 
0.0 -1.962000000000e+01 0.0 
0.0 -1.962000000000e+01 0.0 
0.0 -1.962000000000e+01 0.0 
0.0 -1.962000000000e+01 0.0 
0.0 -1.962000000000e+01 0.0 
0.0 -1.962000000000e+01 0.0 
0.0 -1.962000000000e+01 0.0 
0.0 -1.962000000000e+01 0.0 
0.0 -1.962000000000e+01 0.0 
0.0 -1.962000000000e+01 0.0 
0.0 -1.962000000000e+01 0.0 
0.0 -1.962000000000e+01 0.0 
0.0 -1.962000000000e+01 0.0 
0.0 -1.962000000000e+01 0.0 
0.0 -1.962000000000e+01 0.0 
0.0 -1.962000000000e+01 0.0 
0.0 -1.962000000000e+01 0.0 
0.0 -1.962000000000e+01 0.0 
0.0 -1.962000000000e+01 0.0 
0.0 -1.962000000000e+01 0.0 
0.0 -1.962000000000e+01 0.0 
0.0 -1.962000000000e+01 0.0 
0.0 -1.962000000000e+01 0.0 
0.0 -1.962000000000e+01 0.0 
0.0 -1.962000000000e+01 0.0 
0.0 -1.962000000000e+01 0.0 
0.0 -1.962000000000e+01 0.0 
0.0 -1.962000000000e+01 0.0 
0.0 -1.962000000000e+01 0.0 
0.0 -1.962000000000e+01 0.0 
0.0 -1.962000000000e+01 0.0 
0.0 -1.962000000000e+01 0.0 
0.0 -1.962000000000e+01 0.0 
0.0 -1.962000000000e+01 0.0 
0.0 -1.962000000000e+01 0.0 
0.0 -1.962000000000e+01 0.0 
0.0 -1.962000000000e+01 0.0 
0.0 -1.962000000000e+01 0.0 
0.0 -1.962000000000e+01 0.0 
0.0 -1.962000000000e+01 0.0 
0.0 -1.962000000000e+01 0.0 
0.0 -1.962000000000e+01 0.0 
0.0 -1.962000000000e+01 0.0 
0.0 -1.962000000000e+01 0.0 
0.0 -1.962000000000e+01 0.0 
0.0 -1.962000000000e+01 0.0 
0.0 -1.962000000000e+01 0.0 
0.0 -1.962000000000e+01 0.0 
0.0 -1.962000000000e+01 0.0 
0.0 -1.962000000000e+01 0.0 
0.0 -1.962000000000e+01 0.0 
0.0 -1.962000000000e+01 0.0 
0.0 -1.962000000000e+01 0.0 
0.0 -1.962000000000e+01 0.0 
0.0 -1.962000000000e+01 0.0 
0.0 -1.962000000000e+01 0.0 
0.0 -1.962000000000e+01 0.0 
0.0 -1.962000000000e+01 0.0 
0.0 -1.962000000000e+01 0.0 
0.0 -1.962000000000e+01 0.0 
0.0 -1.962000000000e+01 0.0 
0.0 -1.962000000000e+01 0.0 
0.0 -1.962000000000e+01 0.0 
0.0 -1.962000000000e+01 0.0 
0.0 -1.962000000000e+01 0.0 
0.0 -1.962000000000e+01 0.0 
0.0 -1.962000000000e+01 0.0 
0.0 -1.962000000000e+01 0.0 
0.0 -1.962000000000e+01 0.0 
0.0 -1.962000000000e+01 0.0 
0.0 -1.962000000000e+01 0.0 
0.0 -1.962000000000e+01 0.0 
0.0 -1.962000000000e+01 0.0 
0.0 -1.962000000000e+01 0.0 
0.0 -1.962000000000e+01 0.0 
0.0 -1.962000000000e+01 0.0 
0.0 -1.962000000000e+01 0.0 
0.0 -1.962000000000e+01 0.0 
0.0 -1.962000000000e+01 0.0 
0.0 -1.962000000000e+01 0.0 
0.0 -1.962000000000e+01 0.0 
0.0 -1.962000000000e+01 0.0 
0.0 -1.962000000000e+01 0.0 
0.0 -1.962000000000e+01 0.0 
0.0 -1.962000000000e+01 0.0 
0.0 -1.962000000000e+01 0.0 
0.0 -1.962000000000e+01 0.0 
0.0 -1.962000000000e+01 0.0 
0.0 -1.962000000000e+01 0.0 
0.0 -1.962000000000e+01 0.0 
0.0 -1.962000000000e+01 0.0 
0.0 -1.962000000000e+01 0.0 
0.0 -1.962000000000e+01 0.0 
0.0 -1.962000000000e+01 0.0 
0.0 -1.962000000000e+01 0.0 
0.0 -1.962000000000e+01 0.0 
0.0 -1.962000000000e+01 0.0 
0.0 -1.962000000000e+01 0.0 
0.0 -1.962000000000e+01 0.0 
0.0 -1.962000000000e+01 0.0 
0.0 -1.962000000000e+01 0.0 
0.0 -1.962000000000e+01 0.0 
0.0 -1.962000000000e+01 0.0 
0.0 -1.962000000000e+01 0.0 
0.0 -1.962000000000e+01 0.0 
0.0 -1.962000000000e+01 0.0 
0.0 -1.962000000000e+01 0.0 
0.0 -1.962000000000e+01 0.0 
0.0 -1.962000000000e+01 0.0 
0.0 -1.962000000000e+01 0.0 
0.0 -1.962000000000e+01 0.0 
0.0 -1.962000000000e+01 0.0 
0.0 -1.962000000000e+01 0.0 
0.0 -1.962000000000e+01 0.0 
0.0 -1.962000000000e+01 0.0 
0.0 -1.962000000000e+01 0.0 
0.0 -1.962000000000e+01 0.0 
0.0 -1.962000000000e+01 0.0 
0.0 -1.962000000000e+01 0.0 
0.0 -1.962000000000e+01 0.0 
0.0 -1.962000000000e+01 0.0 
0.0 -1.962000000000e+01 0.0 
0.0 -1.962000000000e+01 0.0 
0.0 -1.962000000000e+01 0.0 
0.0 -1.962000000000e+01 0.0 
0.0 -1.962000000000e+01 0.0 
0.0 -1.962000000000e+01 0.0 
0.0 -1.962000000000e+01 0.0 
0.0 -1.962000000000e+01 0.0 
0.0 -1.962000000000e+01 0.0 
0.0 -1.962000000000e+01 0.0 
0.0 -1.962000000000e+01 0.0 
0.0 -1.962000000000e+01 0.0 
0.0 -1.962000000000e+01 0.0 
0.0 -1.962000000000e+01 0.0 
0.0 -1.962000000000e+01 0.0 
0.0 -1.962000000000e+01 0.0 
0.0 -1.962000000000e+01 0.0 
0.0 -1.962000000000e+01 0.0 
0.0 -1.962000000000e+01 0.0 
0.0 -1.962000000000e+01 0.0 
0.0 -1.962000000000e+01 0.0 
0.0 -1.962000000000e+01 0.0 
0.0 -1.962000000000e+01 0.0 
0.0 -1.962000000000e+01 0.0 
0.0 -1.962000000000e+01 0.0 
0.0 -1.962000000000e+01 0.0 
0.0 -1.962000000000e+01 0.0 
0.0 -1.962000000000e+01 0.0 
0.0 -1.962000000000e+01 0.0 
0.0 -1.962000000000e+01 0.0 
0.0 -1.962000000000e+01 0.0 
0.0 -1.962000000000e+01 0.0 
0.0 -1.962000000000e+01 0.0 
0.0 -1.962000000000e+01 0.0 
0.0 -1.962000000000e+01 0.0 
0.0 -1.962000000000e+01 0.0 
0.0 -1.962000000000e+01 0.0 
0.0 -1.962000000000e+01 0.0 
0.0 -1.962000000000e+01 0.0 
0.0 -1.962000000000e+01 0.0 
0.0 -1.962000000000e+01 0.0 
0.0 -1.962000000000e+01 0.0 
0.0 -1.962000000000e+01 0.0 
0.0 -1.962000000000e+01 0.0 
0.0 -1.962000000000e+01 0.0 
0.0 -1.962000000000e+01 0.0 
0.0 -1.962000000000e+01 0.0 
0.0 -1.962000000000e+01 0.0 
0.0 -1.962000000000e+01 0.0 
0.0 -1.962000000000e+01 0.0 
0.0 -1.962000000000e+01 0.0 
0.0 -1.962000000000e+01 0.0 
0.0 -1.962000000000e+01 0.0 
0.0 -1.962000000000e+01 0.0 
0.0 -1.962000000000e+01 0.0 
0.0 -1.962000000000e+01 0.0 
0.0 -1.962000000000e+01 0.0 
0.0 -1.962000000000e+01 0.0 
0.0 -1.962000000000e+01 0.0 
0.0 -1.962000000000e+01 0.0 
0.0 -1.962000000000e+01 0.0 
0.0 -1.962000000000e+01 0.0 
0.0 -1.962000000000e+01 0.0 
0.0 -1.962000000000e+01 0.0 
0.0 -1.962000000000e+01 0.0 
0.0 -1.962000000000e+01 0.0 

VECTORS node_rhside_materi_fixed float
-4.849161213657e-01 0.0 0.0 
7.178748394056e+01 0.0 0.0 
-8.389471701501e+01 -1.999817676639e+02 0.0 
7.437778791303e+01 -1.776319771638e+02 0.0 
-3.996670725022e+00 0.0 0.0 
-1.290181330721e+01 0.0 0.0 
-2.221148391079e+01 0.0 0.0 
-3.286439231851e+01 0.0 0.0 
-4.235301082005e+01 0.0 0.0 
-5.176844002400e+01 0.0 0.0 
-6.091630965129e+01 0.0 0.0 
-6.981660201999e+01 0.0 0.0 
-7.847098796095e+01 0.0 0.0 
-8.690887661663e+01 0.0 0.0 
-9.570518446913e+01 0.0 0.0 
-1.042870514790e+02 0.0 0.0 
-1.122561899952e+02 0.0 0.0 
-1.208446075422e+02 0.0 0.0 
-1.292470416591e+02 0.0 0.0 
-1.376225206669e+02 0.0 0.0 
-1.459741775418e+02 0.0 0.0 
-1.542439609292e+02 0.0 0.0 
-1.629859744942e+02 0.0 0.0 
2.591101274491e-01 -3.541961265739e+02 0.0 
3.666801395414e-01 -3.553378058732e+02 0.0 
1.997086362684e+00 -3.546027410072e+02 0.0 
8.684661905572e-01 -3.547981186256e+02 0.0 
2.243419851229e+00 -3.555360052962e+02 0.0 
2.565270527817e+00 -3.550889972805e+02 0.0 
2.791199898845e+00 -3.557735704989e+02 0.0 
3.360993257085e+00 -3.564219662241e+02 0.0 
4.631566642258e+00 -3.561328904788e+02 0.0 
3.820358377362e+00 -3.567475471890e+02 0.0 
5.323140493101e+00 -3.579902716362e+02 0.0 
5.927399281410e+00 -3.579408761277e+02 0.0 
6.363180587354e+00 -3.593163083270e+02 0.0 
6.951612124616e+00 -3.599638830468e+02 0.0 
7.788776234066e+00 -3.609570973380e+02 0.0 
8.168090760690e+00 -3.625961373350e+02 0.0 
9.554113396132e+00 -3.639182918752e+02 0.0 
1.015853406351e+01 -3.656214997094e+02 0.0 
1.087772092681e+01 -3.673639161805e+02 0.0 
1.150127963539e+01 -3.690620719127e+02 0.0 
1.169455176093e+01 -3.712758281422e+02 0.0 
1.255157285953e+01 -3.738947243295e+02 0.0 
1.279914521493e+01 -3.761814058907e+02 0.0 
1.314771286568e+01 -3.787294388222e+02 0.0 
1.329075892046e+01 -3.816435663500e+02 0.0 
1.314734670505e+01 -3.841412501882e+02 0.0 
1.288991041945e+01 -3.866814275281e+02 0.0 
1.237078333000e+01 -3.894117154221e+02 0.0 
1.180655962071e+01 -3.920921181942e+02 0.0 
1.116981828401e+01 -3.941684347156e+02 0.0 
9.869469624953e+00 -3.960405120228e+02 0.0 
8.931882616431e+00 -3.984203520233e+02 0.0 
7.942085881502e+00 -3.995345774126e+02 0.0 
6.868273852978e+00 -4.009123639865e+02 0.0 
5.598528527382e+00 -4.017717390845e+02 0.0 
4.623882907119e+00 -4.022927580007e+02 0.0 
3.559595932353e+00 -4.027745231306e+02 0.0 
2.583437779220e+00 -4.028266811235e+02 0.0 
1.839736656684e+00 -4.027297305163e+02 0.0 
1.092876437457e+00 -4.028983525872e+02 0.0 
8.170901909086e-01 -4.022533337724e+02 0.0 
2.616061503651e-01 -4.018009268705e+02 0.0 
3.851711800537e-02 -4.011520969319e+02 0.0 
-3.381191493827e-01 -4.014695057417e+02 0.0 
-5.232835061834e-01 -4.002495106914e+02 0.0 
-6.118899472574e-01 -4.006286384967e+02 0.0 
1.971662486016e-01 -3.996255167995e+02 0.0 
-4.764313502965e-01 -3.997027301907e+02 0.0 
-5.345870905504e-02 -3.993763736708e+02 0.0 
7.985392144560e+01 0.0 0.0 
8.857089174266e+01 0.0 0.0 
9.677141155219e+01 0.0 0.0 
1.047558420645e+02 0.0 0.0 
1.127562924120e+02 0.0 0.0 
1.210035133289e+02 0.0 0.0 
1.287287473576e+02 0.0 0.0 
1.360535772512e+02 0.0 0.0 
1.445459016619e+02 0.0 0.0 
0.0 0.0 0.0 
0.0 0.0 0.0 
0.0 0.0 0.0 
0.0 0.0 0.0 
0.0 0.0 0.0 
0.0 0.0 0.0 
0.0 0.0 0.0 
0.0 0.0 0.0 
0.0 0.0 0.0 
0.0 0.0 0.0 
0.0 0.0 0.0 
3.407700507150e+00 0.0 0.0 
1.229263749740e+01 0.0 0.0 
2.060476858767e+01 0.0 0.0 
2.915831825415e+01 0.0 0.0 
3.774729157799e+01 0.0 0.0 
4.633961094595e+01 0.0 0.0 
5.493033186296e+01 0.0 0.0 
6.346177324392e+01 0.0 0.0 
0.0 0.0 0.0 
0.0 0.0 0.0 
0.0 0.0 0.0 
0.0 0.0 0.0 
0.0 0.0 0.0 
0.0 0.0 0.0 
0.0 0.0 0.0 
0.0 0.0 0.0 
0.0 0.0 0.0 
0.0 0.0 0.0 
0.0 0.0 0.0 
0.0 0.0 0.0 
0.0 0.0 0.0 
0.0 0.0 0.0 
0.0 0.0 0.0 
0.0 0.0 0.0 
0.0 0.0 0.0 
0.0 0.0 0.0 
0.0 0.0 0.0 
0.0 0.0 0.0 
0.0 0.0 0.0 
0.0 0.0 0.0 
0.0 0.0 0.0 
0.0 0.0 0.0 
0.0 0.0 0.0 
0.0 0.0 0.0 
0.0 0.0 0.0 
0.0 0.0 0.0 
0.0 0.0 0.0 
0.0 0.0 0.0 
0.0 0.0 0.0 
0.0 0.0 0.0 
0.0 0.0 0.0 
0.0 0.0 0.0 
0.0 0.0 0.0 
0.0 0.0 0.0 
0.0 0.0 0.0 
0.0 0.0 0.0 
0.0 0.0 0.0 
0.0 0.0 0.0 
0.0 0.0 0.0 
0.0 0.0 0.0 
0.0 0.0 0.0 
0.0 0.0 0.0 
0.0 0.0 0.0 
0.0 0.0 0.0 
0.0 0.0 0.0 
0.0 0.0 0.0 
0.0 0.0 0.0 
0.0 0.0 0.0 
0.0 0.0 0.0 
0.0 0.0 0.0 
0.0 0.0 0.0 
0.0 0.0 0.0 
0.0 0.0 0.0 
0.0 0.0 0.0 
0.0 0.0 0.0 
0.0 0.0 0.0 
0.0 0.0 0.0 
0.0 0.0 0.0 
0.0 0.0 0.0 
0.0 0.0 0.0 
0.0 0.0 0.0 
0.0 0.0 0.0 
0.0 0.0 0.0 
0.0 0.0 0.0 
0.0 0.0 0.0 
0.0 0.0 0.0 
0.0 0.0 0.0 
0.0 0.0 0.0 
0.0 0.0 0.0 
0.0 0.0 0.0 
0.0 0.0 0.0 
0.0 0.0 0.0 
0.0 0.0 0.0 
0.0 0.0 0.0 
0.0 0.0 0.0 
0.0 0.0 0.0 
0.0 0.0 0.0 
0.0 0.0 0.0 
0.0 0.0 0.0 
0.0 0.0 0.0 
0.0 0.0 0.0 
0.0 0.0 0.0 
0.0 0.0 0.0 
0.0 0.0 0.0 
0.0 0.0 0.0 
0.0 0.0 0.0 
0.0 0.0 0.0 
0.0 0.0 0.0 
0.0 0.0 0.0 
0.0 0.0 0.0 
0.0 0.0 0.0 
0.0 0.0 0.0 
0.0 0.0 0.0 
0.0 0.0 0.0 
0.0 0.0 0.0 
0.0 0.0 0.0 
0.0 0.0 0.0 
0.0 0.0 0.0 
0.0 0.0 0.0 
0.0 0.0 0.0 
0.0 0.0 0.0 
0.0 0.0 0.0 
0.0 0.0 0.0 
0.0 0.0 0.0 
0.0 0.0 0.0 
0.0 0.0 0.0 
0.0 0.0 0.0 
0.0 0.0 0.0 
0.0 0.0 0.0 
0.0 0.0 0.0 
0.0 0.0 0.0 
0.0 0.0 0.0 
0.0 0.0 0.0 
0.0 0.0 0.0 
0.0 0.0 0.0 
0.0 0.0 0.0 
0.0 0.0 0.0 
0.0 0.0 0.0 
0.0 0.0 0.0 
0.0 0.0 0.0 
0.0 0.0 0.0 
0.0 0.0 0.0 
0.0 0.0 0.0 
0.0 0.0 0.0 
0.0 0.0 0.0 
0.0 0.0 0.0 
0.0 0.0 0.0 
0.0 0.0 0.0 
0.0 0.0 0.0 
0.0 0.0 0.0 
0.0 0.0 0.0 
0.0 0.0 0.0 
0.0 0.0 0.0 
0.0 0.0 0.0 
0.0 0.0 0.0 
0.0 0.0 0.0 
0.0 0.0 0.0 
0.0 0.0 0.0 
0.0 0.0 0.0 
0.0 0.0 0.0 
0.0 0.0 0.0 
0.0 0.0 0.0 
0.0 0.0 0.0 
0.0 0.0 0.0 
0.0 0.0 0.0 
0.0 0.0 0.0 
0.0 0.0 0.0 
0.0 0.0 0.0 
0.0 0.0 0.0 
0.0 0.0 0.0 
0.0 0.0 0.0 
0.0 0.0 0.0 
0.0 0.0 0.0 
0.0 0.0 0.0 
0.0 0.0 0.0 
0.0 0.0 0.0 
0.0 0.0 0.0 
0.0 0.0 0.0 
0.0 0.0 0.0 
0.0 0.0 0.0 
0.0 0.0 0.0 
0.0 0.0 0.0 
0.0 0.0 0.0 
0.0 0.0 0.0 
0.0 0.0 0.0 
0.0 0.0 0.0 
0.0 0.0 0.0 
0.0 0.0 0.0 
0.0 0.0 0.0 
0.0 0.0 0.0 
0.0 0.0 0.0 
0.0 0.0 0.0 
0.0 0.0 0.0 
0.0 0.0 0.0 
0.0 0.0 0.0 
0.0 0.0 0.0 
0.0 0.0 0.0 
0.0 0.0 0.0 
0.0 0.0 0.0 
0.0 0.0 0.0 
0.0 0.0 0.0 
0.0 0.0 0.0 
0.0 0.0 0.0 
0.0 0.0 0.0 
0.0 0.0 0.0 
0.0 0.0 0.0 
0.0 0.0 0.0 
0.0 0.0 0.0 
0.0 0.0 0.0 
0.0 0.0 0.0 
0.0 0.0 0.0 
0.0 0.0 0.0 
0.0 0.0 0.0 
0.0 0.0 0.0 
0.0 0.0 0.0 
0.0 0.0 0.0 
0.0 0.0 0.0 
0.0 0.0 0.0 
0.0 0.0 0.0 
0.0 0.0 0.0 
0.0 0.0 0.0 
0.0 0.0 0.0 
0.0 0.0 0.0 
0.0 0.0 0.0 
0.0 0.0 0.0 
0.0 0.0 0.0 
0.0 0.0 0.0 
0.0 0.0 0.0 
0.0 0.0 0.0 
0.0 0.0 0.0 
0.0 0.0 0.0 
0.0 0.0 0.0 
0.0 0.0 0.0 
0.0 0.0 0.0 
0.0 0.0 0.0 
0.0 0.0 0.0 
0.0 0.0 0.0 
0.0 0.0 0.0 
0.0 0.0 0.0 
0.0 0.0 0.0 
0.0 0.0 0.0 
0.0 0.0 0.0 
0.0 0.0 0.0 
0.0 0.0 0.0 
0.0 0.0 0.0 
0.0 0.0 0.0 
0.0 0.0 0.0 
0.0 0.0 0.0 
0.0 0.0 0.0 
0.0 0.0 0.0 
0.0 0.0 0.0 
0.0 0.0 0.0 
0.0 0.0 0.0 
0.0 0.0 0.0 
0.0 0.0 0.0 
0.0 0.0 0.0 
0.0 0.0 0.0 
0.0 0.0 0.0 
0.0 0.0 0.0 
0.0 0.0 0.0 
0.0 0.0 0.0 
0.0 0.0 0.0 
0.0 0.0 0.0 
0.0 0.0 0.0 
0.0 0.0 0.0 
0.0 0.0 0.0 
0.0 0.0 0.0 
0.0 0.0 0.0 
0.0 0.0 0.0 
0.0 0.0 0.0 
0.0 0.0 0.0 
0.0 0.0 0.0 
0.0 0.0 0.0 
0.0 0.0 0.0 
0.0 0.0 0.0 
0.0 0.0 0.0 
0.0 0.0 0.0 
0.0 0.0 0.0 
0.0 0.0 0.0 
0.0 0.0 0.0 
0.0 0.0 0.0 
0.0 0.0 0.0 
0.0 0.0 0.0 
0.0 0.0 0.0 
0.0 0.0 0.0 
0.0 0.0 0.0 
0.0 0.0 0.0 
0.0 0.0 0.0 
0.0 0.0 0.0 
0.0 0.0 0.0 
0.0 0.0 0.0 
0.0 0.0 0.0 
0.0 0.0 0.0 
0.0 0.0 0.0 
0.0 0.0 0.0 
0.0 0.0 0.0 
0.0 0.0 0.0 
0.0 0.0 0.0 
0.0 0.0 0.0 
0.0 0.0 0.0 
0.0 0.0 0.0 
0.0 0.0 0.0 
0.0 0.0 0.0 
0.0 0.0 0.0 
0.0 0.0 0.0 
0.0 0.0 0.0 
0.0 0.0 0.0 
0.0 0.0 0.0 
0.0 0.0 0.0 
0.0 0.0 0.0 
0.0 0.0 0.0 
0.0 0.0 0.0 
0.0 0.0 0.0 
0.0 0.0 0.0 
0.0 0.0 0.0 
0.0 0.0 0.0 
0.0 0.0 0.0 
0.0 0.0 0.0 
0.0 0.0 0.0 
0.0 0.0 0.0 
0.0 0.0 0.0 
0.0 0.0 0.0 
0.0 0.0 0.0 
0.0 0.0 0.0 
0.0 0.0 0.0 
0.0 0.0 0.0 
0.0 0.0 0.0 
0.0 0.0 0.0 
0.0 0.0 0.0 
0.0 0.0 0.0 
0.0 0.0 0.0 
0.0 0.0 0.0 
0.0 0.0 0.0 
0.0 0.0 0.0 
0.0 0.0 0.0 
0.0 0.0 0.0 
0.0 0.0 0.0 
0.0 0.0 0.0 
0.0 0.0 0.0 
0.0 0.0 0.0 
0.0 0.0 0.0 
0.0 0.0 0.0 
0.0 0.0 0.0 
0.0 0.0 0.0 
0.0 0.0 0.0 
0.0 0.0 0.0 
0.0 0.0 0.0 
0.0 0.0 0.0 
0.0 0.0 0.0 
0.0 0.0 0.0 
0.0 0.0 0.0 
0.0 0.0 0.0 
0.0 0.0 0.0 
0.0 0.0 0.0 
0.0 0.0 0.0 
0.0 0.0 0.0 
0.0 0.0 0.0 
0.0 0.0 0.0 
0.0 0.0 0.0 
0.0 0.0 0.0 
0.0 0.0 0.0 
0.0 0.0 0.0 
0.0 0.0 0.0 
0.0 0.0 0.0 
0.0 0.0 0.0 
0.0 0.0 0.0 
0.0 0.0 0.0 
0.0 0.0 0.0 
0.0 0.0 0.0 
0.0 0.0 0.0 
0.0 0.0 0.0 
0.0 0.0 0.0 
0.0 0.0 0.0 
0.0 0.0 0.0 
0.0 0.0 0.0 
0.0 0.0 0.0 
0.0 0.0 0.0 
0.0 0.0 0.0 
0.0 0.0 0.0 
0.0 0.0 0.0 
0.0 0.0 0.0 
0.0 0.0 0.0 
0.0 0.0 0.0 
0.0 0.0 0.0 
0.0 0.0 0.0 
0.0 0.0 0.0 
0.0 0.0 0.0 
0.0 0.0 0.0 
0.0 0.0 0.0 
0.0 0.0 0.0 
0.0 0.0 0.0 
0.0 0.0 0.0 
0.0 0.0 0.0 
0.0 0.0 0.0 
0.0 0.0 0.0 
0.0 0.0 0.0 
0.0 0.0 0.0 
0.0 0.0 0.0 
0.0 0.0 0.0 
0.0 0.0 0.0 
0.0 0.0 0.0 
0.0 0.0 0.0 
0.0 0.0 0.0 
0.0 0.0 0.0 
0.0 0.0 0.0 
0.0 0.0 0.0 
0.0 0.0 0.0 
0.0 0.0 0.0 
0.0 0.0 0.0 
0.0 0.0 0.0 
0.0 0.0 0.0 
0.0 0.0 0.0 
0.0 0.0 0.0 
0.0 0.0 0.0 
0.0 0.0 0.0 
0.0 0.0 0.0 
0.0 0.0 0.0 
0.0 0.0 0.0 
0.0 0.0 0.0 
0.0 0.0 0.0 
0.0 0.0 0.0 
0.0 0.0 0.0 
0.0 0.0 0.0 
0.0 0.0 0.0 
0.0 0.0 0.0 
0.0 0.0 0.0 
0.0 0.0 0.0 
0.0 0.0 0.0 
0.0 0.0 0.0 
0.0 0.0 0.0 
0.0 0.0 0.0 
0.0 0.0 0.0 
0.0 0.0 0.0 
0.0 0.0 0.0 
0.0 0.0 0.0 
0.0 0.0 0.0 
0.0 0.0 0.0 
0.0 0.0 0.0 
0.0 0.0 0.0 
0.0 0.0 0.0 
0.0 0.0 0.0 
0.0 0.0 0.0 
0.0 0.0 0.0 
0.0 0.0 0.0 
0.0 0.0 0.0 
0.0 0.0 0.0 
0.0 0.0 0.0 
0.0 0.0 0.0 
0.0 0.0 0.0 
0.0 0.0 0.0 
0.0 0.0 0.0 
0.0 0.0 0.0 
0.0 0.0 0.0 
0.0 0.0 0.0 
0.0 0.0 0.0 
0.0 0.0 0.0 
0.0 0.0 0.0 
0.0 0.0 0.0 
0.0 0.0 0.0 
0.0 0.0 0.0 
0.0 0.0 0.0 
0.0 0.0 0.0 
0.0 0.0 0.0 
0.0 0.0 0.0 
0.0 0.0 0.0 
0.0 0.0 0.0 
0.0 0.0 0.0 
0.0 0.0 0.0 
0.0 0.0 0.0 
0.0 0.0 0.0 
0.0 0.0 0.0 
0.0 0.0 0.0 
0.0 0.0 0.0 
0.0 0.0 0.0 
0.0 0.0 0.0 
0.0 0.0 0.0 
0.0 0.0 0.0 
0.0 0.0 0.0 
0.0 0.0 0.0 
0.0 0.0 0.0 
0.0 0.0 0.0 
0.0 0.0 0.0 
0.0 0.0 0.0 
0.0 0.0 0.0 
0.0 0.0 0.0 
0.0 0.0 0.0 
0.0 0.0 0.0 
0.0 0.0 0.0 
0.0 0.0 0.0 
0.0 0.0 0.0 
0.0 0.0 0.0 
0.0 0.0 0.0 
0.0 0.0 0.0 
0.0 0.0 0.0 
0.0 0.0 0.0 
0.0 0.0 0.0 
0.0 0.0 0.0 
0.0 0.0 0.0 
0.0 0.0 0.0 
0.0 0.0 0.0 
0.0 0.0 0.0 
0.0 0.0 0.0 
0.0 0.0 0.0 
0.0 0.0 0.0 
0.0 0.0 0.0 
0.0 0.0 0.0 
0.0 0.0 0.0 
0.0 0.0 0.0 
0.0 0.0 0.0 
0.0 0.0 0.0 
0.0 0.0 0.0 
0.0 0.0 0.0 
0.0 0.0 0.0 
0.0 0.0 0.0 
0.0 0.0 0.0 
0.0 0.0 0.0 
0.0 0.0 0.0 
0.0 0.0 0.0 
0.0 0.0 0.0 
0.0 0.0 0.0 
0.0 0.0 0.0 
0.0 0.0 0.0 
0.0 0.0 0.0 
0.0 0.0 0.0 
0.0 0.0 0.0 
0.0 0.0 0.0 
0.0 0.0 0.0 
0.0 0.0 0.0 
0.0 0.0 0.0 
0.0 0.0 0.0 
0.0 0.0 0.0 
0.0 0.0 0.0 
0.0 0.0 0.0 
0.0 0.0 0.0 
0.0 0.0 0.0 
0.0 0.0 0.0 
0.0 0.0 0.0 
0.0 0.0 0.0 
0.0 0.0 0.0 
0.0 0.0 0.0 
0.0 0.0 0.0 
0.0 0.0 0.0 
0.0 0.0 0.0 
0.0 0.0 0.0 
0.0 0.0 0.0 
0.0 0.0 0.0 
0.0 0.0 0.0 
0.0 0.0 0.0 
0.0 0.0 0.0 
0.0 0.0 0.0 
0.0 0.0 0.0 
0.0 0.0 0.0 
0.0 0.0 0.0 
0.0 0.0 0.0 
0.0 0.0 0.0 
0.0 0.0 0.0 
0.0 0.0 0.0 
0.0 0.0 0.0 
0.0 0.0 0.0 
0.0 0.0 0.0 
0.0 0.0 0.0 
0.0 0.0 0.0 
0.0 0.0 0.0 
0.0 0.0 0.0 
0.0 0.0 0.0 
0.0 0.0 0.0 
0.0 0.0 0.0 
0.0 0.0 0.0 
0.0 0.0 0.0 
0.0 0.0 0.0 
0.0 0.0 0.0 
0.0 0.0 0.0 
0.0 0.0 0.0 
0.0 0.0 0.0 
0.0 0.0 0.0 
0.0 0.0 0.0 
0.0 0.0 0.0 
0.0 0.0 0.0 
0.0 0.0 0.0 
0.0 0.0 0.0 
0.0 0.0 0.0 
0.0 0.0 0.0 
0.0 0.0 0.0 
0.0 0.0 0.0 
0.0 0.0 0.0 
0.0 0.0 0.0 
0.0 0.0 0.0 
0.0 0.0 0.0 
0.0 0.0 0.0 
0.0 0.0 0.0 
0.0 0.0 0.0 
0.0 0.0 0.0 
0.0 0.0 0.0 
0.0 0.0 0.0 
0.0 0.0 0.0 
0.0 0.0 0.0 
0.0 0.0 0.0 
0.0 0.0 0.0 
0.0 0.0 0.0 
0.0 0.0 0.0 
0.0 0.0 0.0 
0.0 0.0 0.0 
0.0 0.0 0.0 
0.0 0.0 0.0 
0.0 0.0 0.0 
0.0 0.0 0.0 
0.0 0.0 0.0 
0.0 0.0 0.0 
0.0 0.0 0.0 
0.0 0.0 0.0 
0.0 0.0 0.0 
0.0 0.0 0.0 
0.0 0.0 0.0 
0.0 0.0 0.0 
0.0 0.0 0.0 
0.0 0.0 0.0 
0.0 0.0 0.0 
0.0 0.0 0.0 
0.0 0.0 0.0 
0.0 0.0 0.0 
0.0 0.0 0.0 
0.0 0.0 0.0 
0.0 0.0 0.0 
0.0 0.0 0.0 
0.0 0.0 0.0 
0.0 0.0 0.0 
0.0 0.0 0.0 
0.0 0.0 0.0 
0.0 0.0 0.0 
0.0 0.0 0.0 
0.0 0.0 0.0 
0.0 0.0 0.0 
0.0 0.0 0.0 
0.0 0.0 0.0 
0.0 0.0 0.0 
0.0 0.0 0.0 
0.0 0.0 0.0 
0.0 0.0 0.0 
0.0 0.0 0.0 
0.0 0.0 0.0 
0.0 0.0 0.0 
0.0 0.0 0.0 
0.0 0.0 0.0 
0.0 0.0 0.0 
0.0 0.0 0.0 
0.0 0.0 0.0 
0.0 0.0 0.0 
0.0 0.0 0.0 
0.0 0.0 0.0 
0.0 0.0 0.0 
0.0 0.0 0.0 
0.0 0.0 0.0 
0.0 0.0 0.0 
0.0 0.0 0.0 
0.0 0.0 0.0 
0.0 0.0 0.0 
0.0 0.0 0.0 
0.0 0.0 0.0 
0.0 0.0 0.0 
0.0 0.0 0.0 
0.0 0.0 0.0 
0.0 0.0 0.0 
0.0 0.0 0.0 
0.0 0.0 0.0 
0.0 0.0 0.0 
0.0 0.0 0.0 
0.0 0.0 0.0 
0.0 0.0 0.0 
0.0 0.0 0.0 
0.0 0.0 0.0 
0.0 0.0 0.0 
0.0 0.0 0.0 
0.0 0.0 0.0 
0.0 0.0 0.0 
0.0 0.0 0.0 
0.0 0.0 0.0 
0.0 0.0 0.0 
0.0 0.0 0.0 
0.0 0.0 0.0 
0.0 0.0 0.0 
0.0 0.0 0.0 
0.0 0.0 0.0 
0.0 0.0 0.0 
0.0 0.0 0.0 
0.0 0.0 0.0 
0.0 0.0 0.0 
0.0 0.0 0.0 
0.0 0.0 0.0 
0.0 0.0 0.0 
0.0 0.0 0.0 
0.0 0.0 0.0 
0.0 0.0 0.0 
0.0 0.0 0.0 
0.0 0.0 0.0 
0.0 0.0 0.0 
0.0 0.0 0.0 
0.0 0.0 0.0 
0.0 0.0 0.0 
0.0 0.0 0.0 
0.0 0.0 0.0 
0.0 0.0 0.0 
0.0 0.0 0.0 
0.0 0.0 0.0 
0.0 0.0 0.0 
0.0 0.0 0.0 
0.0 0.0 0.0 
0.0 0.0 0.0 
0.0 0.0 0.0 
0.0 0.0 0.0 
0.0 0.0 0.0 
0.0 0.0 0.0 
0.0 0.0 0.0 
0.0 0.0 0.0 
0.0 0.0 0.0 
0.0 0.0 0.0 
0.0 0.0 0.0 
0.0 0.0 0.0 
0.0 0.0 0.0 
0.0 0.0 0.0 
0.0 0.0 0.0 
0.0 0.0 0.0 
0.0 0.0 0.0 
0.0 0.0 0.0 
0.0 0.0 0.0 
0.0 0.0 0.0 
0.0 0.0 0.0 
0.0 0.0 0.0 
0.0 0.0 0.0 
0.0 0.0 0.0 
0.0 0.0 0.0 
0.0 0.0 0.0 
0.0 0.0 0.0 
0.0 0.0 0.0 
0.0 0.0 0.0 
0.0 0.0 0.0 
0.0 0.0 0.0 
0.0 0.0 0.0 
0.0 0.0 0.0 
0.0 0.0 0.0 
0.0 0.0 0.0 
0.0 0.0 0.0 
0.0 0.0 0.0 
0.0 0.0 0.0 
0.0 0.0 0.0 
0.0 0.0 0.0 
0.0 0.0 0.0 
0.0 0.0 0.0 
0.0 0.0 0.0 
0.0 0.0 0.0 
0.0 0.0 0.0 
0.0 0.0 0.0 
0.0 0.0 0.0 
0.0 0.0 0.0 
0.0 0.0 0.0 
0.0 0.0 0.0 
0.0 0.0 0.0 
0.0 0.0 0.0 
0.0 0.0 0.0 
0.0 0.0 0.0 
0.0 0.0 0.0 
0.0 0.0 0.0 
0.0 0.0 0.0 
0.0 0.0 0.0 
0.0 0.0 0.0 
0.0 0.0 0.0 
0.0 0.0 0.0 
0.0 0.0 0.0 
0.0 0.0 0.0 
0.0 0.0 0.0 
0.0 0.0 0.0 
0.0 0.0 0.0 
0.0 0.0 0.0 
0.0 0.0 0.0 
0.0 0.0 0.0 
0.0 0.0 0.0 
0.0 0.0 0.0 
0.0 0.0 0.0 
0.0 0.0 0.0 
0.0 0.0 0.0 
0.0 0.0 0.0 
0.0 0.0 0.0 
0.0 0.0 0.0 
0.0 0.0 0.0 
0.0 0.0 0.0 
0.0 0.0 0.0 
0.0 0.0 0.0 
0.0 0.0 0.0 
0.0 0.0 0.0 
0.0 0.0 0.0 
0.0 0.0 0.0 
0.0 0.0 0.0 
0.0 0.0 0.0 
0.0 0.0 0.0 
0.0 0.0 0.0 
0.0 0.0 0.0 
0.0 0.0 0.0 
0.0 0.0 0.0 
0.0 0.0 0.0 
0.0 0.0 0.0 
0.0 0.0 0.0 
0.0 0.0 0.0 
0.0 0.0 0.0 
0.0 0.0 0.0 
0.0 0.0 0.0 
0.0 0.0 0.0 
0.0 0.0 0.0 
0.0 0.0 0.0 
0.0 0.0 0.0 
0.0 0.0 0.0 
0.0 0.0 0.0 
0.0 0.0 0.0 
0.0 0.0 0.0 
0.0 0.0 0.0 
0.0 0.0 0.0 
0.0 0.0 0.0 
0.0 0.0 0.0 
0.0 0.0 0.0 
0.0 0.0 0.0 
0.0 0.0 0.0 
0.0 0.0 0.0 
0.0 0.0 0.0 
0.0 0.0 0.0 
0.0 0.0 0.0 
0.0 0.0 0.0 
0.0 0.0 0.0 
0.0 0.0 0.0 
0.0 0.0 0.0 
0.0 0.0 0.0 
0.0 0.0 0.0 
0.0 0.0 0.0 
0.0 0.0 0.0 
0.0 0.0 0.0 
0.0 0.0 0.0 
0.0 0.0 0.0 
0.0 0.0 0.0 
0.0 0.0 0.0 
0.0 0.0 0.0 
0.0 0.0 0.0 
0.0 0.0 0.0 
0.0 0.0 0.0 
0.0 0.0 0.0 
0.0 0.0 0.0 
0.0 0.0 0.0 
0.0 0.0 0.0 
0.0 0.0 0.0 
0.0 0.0 0.0 
0.0 0.0 0.0 
0.0 0.0 0.0 
0.0 0.0 0.0 
0.0 0.0 0.0 
0.0 0.0 0.0 
0.0 0.0 0.0 
0.0 0.0 0.0 
0.0 0.0 0.0 
0.0 0.0 0.0 
0.0 0.0 0.0 
0.0 0.0 0.0 
0.0 0.0 0.0 
0.0 0.0 0.0 
0.0 0.0 0.0 
0.0 0.0 0.0 
0.0 0.0 0.0 
0.0 0.0 0.0 
0.0 0.0 0.0 
0.0 0.0 0.0 
0.0 0.0 0.0 
0.0 0.0 0.0 
0.0 0.0 0.0 
0.0 0.0 0.0 
0.0 0.0 0.0 
0.0 0.0 0.0 
0.0 0.0 0.0 
0.0 0.0 0.0 
0.0 0.0 0.0 
0.0 0.0 0.0 
0.0 0.0 0.0 
0.0 0.0 0.0 
0.0 0.0 0.0 
0.0 0.0 0.0 
0.0 0.0 0.0 
0.0 0.0 0.0 
0.0 0.0 0.0 
0.0 0.0 0.0 
0.0 0.0 0.0 
0.0 0.0 0.0 
0.0 0.0 0.0 
0.0 0.0 0.0 
0.0 0.0 0.0 
0.0 0.0 0.0 
0.0 0.0 0.0 
0.0 0.0 0.0 
0.0 0.0 0.0 
0.0 0.0 0.0 
0.0 0.0 0.0 
0.0 0.0 0.0 
0.0 0.0 0.0 
0.0 0.0 0.0 
0.0 0.0 0.0 
0.0 0.0 0.0 
0.0 0.0 0.0 
0.0 0.0 0.0 
0.0 0.0 0.0 
0.0 0.0 0.0 
0.0 0.0 0.0 
0.0 0.0 0.0 
0.0 0.0 0.0 
0.0 0.0 0.0 
0.0 0.0 0.0 
0.0 0.0 0.0 
0.0 0.0 0.0 
0.0 0.0 0.0 
0.0 0.0 0.0 
0.0 0.0 0.0 
0.0 0.0 0.0 
0.0 0.0 0.0 
0.0 0.0 0.0 
0.0 0.0 0.0 
0.0 0.0 0.0 
0.0 0.0 0.0 
0.0 0.0 0.0 
0.0 0.0 0.0 
0.0 0.0 0.0 
0.0 0.0 0.0 
0.0 0.0 0.0 
0.0 0.0 0.0 
0.0 0.0 0.0 
0.0 0.0 0.0 
0.0 0.0 0.0 
0.0 0.0 0.0 
0.0 0.0 0.0 
0.0 0.0 0.0 
0.0 0.0 0.0 
0.0 0.0 0.0 
0.0 0.0 0.0 
0.0 0.0 0.0 
0.0 0.0 0.0 
0.0 0.0 0.0 
0.0 0.0 0.0 
0.0 0.0 0.0 
0.0 0.0 0.0 
0.0 0.0 0.0 
0.0 0.0 0.0 
0.0 0.0 0.0 
0.0 0.0 0.0 
0.0 0.0 0.0 
0.0 0.0 0.0 
0.0 0.0 0.0 
0.0 0.0 0.0 
0.0 0.0 0.0 
0.0 0.0 0.0 
0.0 0.0 0.0 
0.0 0.0 0.0 
0.0 0.0 0.0 
0.0 0.0 0.0 
0.0 0.0 0.0 
0.0 0.0 0.0 
0.0 0.0 0.0 
0.0 0.0 0.0 
0.0 0.0 0.0 
0.0 0.0 0.0 
0.0 0.0 0.0 
0.0 0.0 0.0 
0.0 0.0 0.0 
0.0 0.0 0.0 
0.0 0.0 0.0 
0.0 0.0 0.0 
0.0 0.0 0.0 
0.0 0.0 0.0 
0.0 0.0 0.0 
0.0 0.0 0.0 
0.0 0.0 0.0 
0.0 0.0 0.0 
0.0 0.0 0.0 
0.0 0.0 0.0 
0.0 0.0 0.0 
0.0 0.0 0.0 
0.0 0.0 0.0 
0.0 0.0 0.0 
0.0 0.0 0.0 
0.0 0.0 0.0 
0.0 0.0 0.0 
0.0 0.0 0.0 
0.0 0.0 0.0 
0.0 0.0 0.0 
0.0 0.0 0.0 
0.0 0.0 0.0 
0.0 0.0 0.0 
0.0 0.0 0.0 
0.0 0.0 0.0 
0.0 0.0 0.0 
0.0 0.0 0.0 
0.0 0.0 0.0 
0.0 0.0 0.0 
0.0 0.0 0.0 
0.0 0.0 0.0 
0.0 0.0 0.0 
0.0 0.0 0.0 
0.0 0.0 0.0 
0.0 0.0 0.0 
0.0 0.0 0.0 
0.0 0.0 0.0 
0.0 0.0 0.0 
0.0 0.0 0.0 
0.0 0.0 0.0 
0.0 0.0 0.0 
0.0 0.0 0.0 
0.0 0.0 0.0 
0.0 0.0 0.0 
0.0 0.0 0.0 
0.0 0.0 0.0 
0.0 0.0 0.0 
0.0 0.0 0.0 
0.0 0.0 0.0 
0.0 0.0 0.0 
0.0 0.0 0.0 
0.0 0.0 0.0 
0.0 0.0 0.0 
0.0 0.0 0.0 
0.0 0.0 0.0 
0.0 0.0 0.0 
0.0 0.0 0.0 
0.0 0.0 0.0 
0.0 0.0 0.0 
0.0 0.0 0.0 
0.0 0.0 0.0 
0.0 0.0 0.0 
0.0 0.0 0.0 
0.0 0.0 0.0 
0.0 0.0 0.0 
0.0 0.0 0.0 
0.0 0.0 0.0 
0.0 0.0 0.0 
0.0 0.0 0.0 
0.0 0.0 0.0 
0.0 0.0 0.0 
0.0 0.0 0.0 
0.0 0.0 0.0 
0.0 0.0 0.0 
0.0 0.0 0.0 
0.0 0.0 0.0 
0.0 0.0 0.0 
0.0 0.0 0.0 
0.0 0.0 0.0 
0.0 0.0 0.0 
0.0 0.0 0.0 
0.0 0.0 0.0 
0.0 0.0 0.0 
0.0 0.0 0.0 
0.0 0.0 0.0 
0.0 0.0 0.0 
0.0 0.0 0.0 
0.0 0.0 0.0 
0.0 0.0 0.0 
0.0 0.0 0.0 
0.0 0.0 0.0 
0.0 0.0 0.0 
0.0 0.0 0.0 
0.0 0.0 0.0 
0.0 0.0 0.0 
0.0 0.0 0.0 
0.0 0.0 0.0 
0.0 0.0 0.0 
0.0 0.0 0.0 
0.0 0.0 0.0 
0.0 0.0 0.0 
0.0 0.0 0.0 
0.0 0.0 0.0 
0.0 0.0 0.0 
0.0 0.0 0.0 
0.0 0.0 0.0 
0.0 0.0 0.0 
0.0 0.0 0.0 
0.0 0.0 0.0 
0.0 0.0 0.0 
0.0 0.0 0.0 
0.0 0.0 0.0 
0.0 0.0 0.0 
0.0 0.0 0.0 
0.0 0.0 0.0 
0.0 0.0 0.0 
0.0 0.0 0.0 
0.0 0.0 0.0 
0.0 0.0 0.0 
0.0 0.0 0.0 
0.0 0.0 0.0 
0.0 0.0 0.0 
0.0 0.0 0.0 
0.0 0.0 0.0 
0.0 0.0 0.0 
0.0 0.0 0.0 
0.0 0.0 0.0 
0.0 0.0 0.0 
0.0 0.0 0.0 
0.0 0.0 0.0 
0.0 0.0 0.0 
0.0 0.0 0.0 
0.0 0.0 0.0 
0.0 0.0 0.0 
0.0 0.0 0.0 
0.0 0.0 0.0 
0.0 0.0 0.0 
0.0 0.0 0.0 
0.0 0.0 0.0 
0.0 0.0 0.0 
0.0 0.0 0.0 
0.0 0.0 0.0 
0.0 0.0 0.0 
0.0 0.0 0.0 
0.0 0.0 0.0 
0.0 0.0 0.0 
0.0 0.0 0.0 
0.0 0.0 0.0 
0.0 0.0 0.0 
0.0 0.0 0.0 
0.0 0.0 0.0 
0.0 0.0 0.0 
0.0 0.0 0.0 
0.0 0.0 0.0 
0.0 0.0 0.0 
0.0 0.0 0.0 
0.0 0.0 0.0 
0.0 0.0 0.0 
0.0 0.0 0.0 
0.0 0.0 0.0 
0.0 0.0 0.0 
0.0 0.0 0.0 
0.0 0.0 0.0 
0.0 0.0 0.0 
0.0 0.0 0.0 
0.0 0.0 0.0 
0.0 0.0 0.0 
0.0 0.0 0.0 
0.0 0.0 0.0 
0.0 0.0 0.0 
0.0 0.0 0.0 
0.0 0.0 0.0 
0.0 0.0 0.0 
0.0 0.0 0.0 

VECTORS node_materi_velocity float
0.0 -8.580952373318e-04 0.0 
0.0 9.872953522178e-03 0.0 
0.0 0.0 0.0 
0.0 0.0 0.0 
0.0 -8.561956242853e-04 0.0 
0.0 -8.479634934710e-04 0.0 
0.0 -8.318312036585e-04 0.0 
0.0 -8.064797952369e-04 0.0 
0.0 -7.697443105292e-04 0.0 
0.0 -7.230379810198e-04 0.0 
0.0 -6.671622986468e-04 0.0 
0.0 -6.029150046141e-04 0.0 
0.0 -5.320445091632e-04 0.0 
0.0 -4.563727320274e-04 0.0 
0.0 -3.781572895212e-04 0.0 
0.0 -3.003731988273e-04 0.0 
0.0 -2.254663152621e-04 0.0 
0.0 -1.548412363466e-04 0.0 
0.0 -9.263463834707e-05 0.0 
0.0 -4.142332668264e-05 0.0 
0.0 -3.649039006654e-06 0.0 
0.0 1.714342702937e-05 0.0 
0.0 1.767431211070e-05 0.0 
0.0 0.0 0.0 
0.0 0.0 0.0 
0.0 0.0 0.0 
0.0 0.0 0.0 
0.0 0.0 0.0 
0.0 0.0 0.0 
0.0 0.0 0.0 
0.0 0.0 0.0 
0.0 0.0 0.0 
0.0 0.0 0.0 
0.0 0.0 0.0 
0.0 0.0 0.0 
0.0 0.0 0.0 
0.0 0.0 0.0 
0.0 0.0 0.0 
0.0 0.0 0.0 
0.0 0.0 0.0 
0.0 0.0 0.0 
0.0 0.0 0.0 
0.0 0.0 0.0 
0.0 0.0 0.0 
0.0 0.0 0.0 
0.0 0.0 0.0 
0.0 0.0 0.0 
0.0 0.0 0.0 
0.0 0.0 0.0 
0.0 0.0 0.0 
0.0 0.0 0.0 
0.0 0.0 0.0 
0.0 0.0 0.0 
0.0 0.0 0.0 
0.0 0.0 0.0 
0.0 0.0 0.0 
0.0 0.0 0.0 
0.0 0.0 0.0 
0.0 0.0 0.0 
0.0 0.0 0.0 
0.0 0.0 0.0 
0.0 0.0 0.0 
0.0 0.0 0.0 
0.0 0.0 0.0 
0.0 0.0 0.0 
0.0 0.0 0.0 
0.0 0.0 0.0 
0.0 0.0 0.0 
0.0 0.0 0.0 
0.0 0.0 0.0 
0.0 0.0 0.0 
0.0 0.0 0.0 
0.0 8.864660549249e-03 0.0 
0.0 7.857984223636e-03 0.0 
0.0 6.854222228857e-03 0.0 
0.0 5.854110537355e-03 0.0 
0.0 4.859235392827e-03 0.0 
0.0 3.870492494284e-03 0.0 
0.0 2.889182744003e-03 0.0 
0.0 1.916421051325e-03 0.0 
0.0 9.533905162523e-04 0.0 
-1.972650729063e-03 4.661762116830e-03 0.0 
1.601672845795e-03 9.748916488331e-03 0.0 
-1.035472167162e-03 6.385195534655e-03 0.0 
-9.600396639447e-04 9.995915324674e-03 0.0 
1.548726664102e-04 1.192204478774e-02 0.0 
1.046421321039e-03 1.261595066047e-02 0.0 
1.605528546160e-03 1.290445998882e-02 0.0 
1.829099276521e-03 1.265648041975e-02 0.0 
1.904646239217e-03 1.212103145899e-02 0.0 
1.877025288191e-03 1.142946459910e-02 0.0 
1.768342227413e-03 1.062877199858e-02 0.0 
0.0 1.796632721612e-02 0.0 
0.0 1.694313573743e-02 0.0 
0.0 1.593121997133e-02 0.0 
0.0 1.492052538729e-02 0.0 
0.0 1.391096854061e-02 0.0 
0.0 1.290140309572e-02 0.0 
0.0 1.189187809749e-02 0.0 
0.0 1.088218252510e-02 0.0 
8.831193244270e-05 9.873846825014e-03 0.0 
1.773239291067e-04 9.876569611654e-03 0.0 
2.671255995018e-04 9.880963749466e-03 0.0 
3.582646307709e-04 9.887057061426e-03 0.0 
4.513273983335e-04 9.893912191656e-03 0.0 
5.463338114408e-04 9.900933573441e-03 0.0 
6.443464873790e-04 9.907939244142e-03 0.0 
7.457219674925e-04 9.912792982987e-03 0.0 
8.509999024517e-04 9.915310070615e-03 0.0 
9.610701575919e-04 9.913405981141e-03 0.0 
1.076160672118e-03 9.904718168612e-03 0.0 
1.197246234577e-03 9.886770145540e-03 0.0 
1.324681814187e-03 9.857321829408e-03 0.0 
1.459154127127e-03 9.812454109505e-03 0.0 
-1.834969846787e-03 3.719589334355e-03 0.0 
-1.638277849525e-03 2.893052727650e-03 0.0 
-1.422585791758e-03 2.196823770066e-03 0.0 
-1.201844679718e-03 1.618004409309e-03 0.0 
-1.006419527052e-03 1.139388178785e-03 0.0 
-8.308303797787e-04 7.434932351358e-04 0.0 
-6.734896945581e-04 4.158254825316e-04 0.0 
-5.360005065793e-04 1.453367796232e-04 0.0 
-4.175559637736e-04 -7.598245142971e-05 0.0 
-3.179091717798e-04 -2.557687851303e-04 0.0 
-2.358651653236e-04 -4.030268148869e-04 0.0 
-1.688808605539e-04 -5.190896592785e-04 0.0 
-1.178578470628e-04 -6.127778004745e-04 0.0 
-7.711264905671e-05 -6.869004287631e-04 0.0 
-4.753658188358e-05 -7.448687078861e-04 0.0 
-2.741513339011e-05 -7.881332257528e-04 0.0 
-1.473391027507e-05 -8.197126009556e-04 0.0 
-7.342802915515e-06 -8.416917954585e-04 0.0 
-2.837554890640e-06 -8.535478808707e-04 0.0 
-1.518949987015e-03 1.233206024866e-02 0.0 
-1.303232937001e-03 1.355223592596e-02 0.0 
-1.220540543932e-03 1.450145180292e-02 0.0 
-1.233843819279e-03 1.538423958733e-02 0.0 
-3.340692060948e-04 1.610253307218e-02 0.0 
4.030432807306e-04 1.656218237818e-02 0.0 
7.826595677773e-04 1.686423616097e-02 0.0 
7.768217713683e-04 1.710339308910e-02 0.0 
8.241706918877e-04 1.732145745386e-02 0.0 
8.832821929623e-04 1.750046371408e-02 0.0 
9.352656084606e-04 1.764102832012e-02 0.0 
9.721747031894e-04 1.774821465994e-02 0.0 
9.912559364346e-04 1.782789322810e-02 0.0 
9.922096552592e-04 1.788535160067e-02 0.0 
9.759144538938e-04 1.792518618508e-02 0.0 
9.437780394962e-04 1.795124464979e-02 0.0 
8.974010463479e-04 1.796671999708e-02 0.0 
8.384016798547e-04 1.797425568362e-02 0.0 
7.683514007386e-04 1.797605416266e-02 0.0 
6.887746898004e-04 1.797394849307e-02 0.0 
6.012065046547e-04 1.796946965348e-02 0.0 
5.073391957356e-04 1.796392483014e-02 0.0 
4.093385559424e-04 1.795853121759e-02 0.0 
3.104660159434e-04 1.795476615065e-02 0.0 
2.159979247431e-04 1.795563995563e-02 0.0 
1.269681669032e-04 1.796611786666e-02 0.0 
5.058552738079e-05 1.307147633330e-02 0.0 
9.035874875339e-05 1.398691372021e-02 0.0 
2.420591273100e-04 1.495319049711e-02 0.0 
4.814445767979e-04 1.551832002546e-02 0.0 
6.958611515636e-04 1.582842112759e-02 0.0 
8.341342263784e-04 1.601860428272e-02 0.0 
9.114331285889e-04 1.624537615821e-02 0.0 
9.601294191311e-04 1.644071255871e-02 0.0 
9.915360273680e-04 1.659689755254e-02 0.0 
1.009037879806e-03 1.671715716776e-02 0.0 
1.013483093744e-03 1.680701031272e-02 0.0 
1.005160033110e-03 1.687209197201e-02 0.0 
9.844538262248e-04 1.691738627075e-02 0.0 
9.519704439774e-04 1.694714636828e-02 0.0 
9.085134647381e-04 1.696491310168e-02 0.0 
8.550221298148e-04 1.697361490476e-02 0.0 
7.925166876025e-04 1.697567793902e-02 0.0 
7.220653035492e-04 1.697313114111e-02 0.0 
6.447810854743e-04 1.696769477329e-02 0.0 
5.618472937468e-04 1.696087329332e-02 0.0 
4.745639625441e-04 1.695406852004e-02 0.0 
3.843718078176e-04 1.694871039408e-02 0.0 
2.926412657027e-04 1.694624169615e-02 0.0 
1.993986538708e-04 1.694678174126e-02 0.0 
1.004493835472e-04 1.694659022242e-02 0.0 
9.709160485412e-05 1.593225907212e-02 0.0 
1.935314826655e-04 1.593519665560e-02 0.0 
2.873484672306e-04 1.593727681457e-02 0.0 
3.789762869942e-04 1.594146594706e-02 0.0 
4.684361200344e-04 1.594817493282e-02 0.0 
5.551932456442e-04 1.595645882844e-02 0.0 
6.384658747319e-04 1.596501344740e-02 0.0 
7.174093208754e-04 1.597238358466e-02 0.0 
7.911955117703e-04 1.597693044433e-02 0.0 
8.590438917009e-04 1.597675025405e-02 0.0 
9.202366696686e-04 1.596958355327e-02 0.0 
9.741335155189e-04 1.595271641954e-02 0.0 
1.020181356738e-03 1.592287559150e-02 0.0 
1.057909583759e-03 1.587614385496e-02 0.0 
1.086860074992e-03 1.580793288906e-02 0.0 
1.106428505940e-03 1.571312310110e-02 0.0 
1.115420231228e-03 1.558655865447e-02 0.0 
1.111460431008e-03 1.542462103002e-02 0.0 
1.090101767047e-03 1.522863943643e-02 0.0 
1.047780220315e-03 1.501368681079e-02 0.0 
1.015740506391e-03 1.474452134625e-02 0.0 
1.009390713798e-03 1.429891638293e-02 0.0 
1.029787361601e-03 1.356498237700e-02 0.0 
1.488730119437e-03 1.348511552778e-02 0.0 
1.410634428612e-03 1.387001536643e-02 0.0 
1.363092337908e-03 1.413836456924e-02 0.0 
1.331027911323e-03 1.434660202575e-02 0.0 
1.297083353662e-03 1.451900457649e-02 0.0 
1.258158318352e-03 1.465785011386e-02 0.0 
1.213916270160e-03 1.476504706826e-02 0.0 
1.164770898917e-03 1.484468547492e-02 0.0 
1.110980322164e-03 1.490118492824e-02 0.0 
1.052717879733e-03 1.493896664537e-02 0.0 
9.901082958026e-04 1.496198709193e-02 0.0 
9.233101416183e-04 1.497369583561e-02 0.0 
8.525365654713e-04 1.497700687584e-02 0.0 
7.780706190300e-04 1.497436858108e-02 0.0 
7.002626184183e-04 1.496783695595e-02 0.0 
6.195156466332e-04 1.495914861522e-02 0.0 
5.362553154580e-04 1.494977485255e-02 0.0 
4.508712148715e-04 1.494094456129e-02 0.0 
3.636231687912e-04 1.493359995238e-02 0.0 
2.745504483569e-04 1.492820047268e-02 0.0 
1.836828795709e-04 1.492445223430e-02 0.0 
9.189303851898e-05 1.492189642596e-02 0.0 
9.258888183706e-05 1.391192340489e-02 0.0 
1.850449806819e-04 1.391511413183e-02 0.0 
2.767892576317e-04 1.391994878883e-02 0.0 
3.675404096503e-04 1.392657319320e-02 0.0 
4.572613556645e-04 1.393496243427e-02 0.0 
5.459505921590e-04 1.394462815183e-02 0.0 
6.335485154682e-04 1.395465082178e-02 0.0 
7.199464412810e-04 1.396377531399e-02 0.0 
8.050233918906e-04 1.397043035933e-02 0.0 
8.886837150754e-04 1.397271746813e-02 0.0 
9.708909983557e-04 1.396836537906e-02 0.0 
1.051678034246e-03 1.395466754210e-02 0.0 
1.131142869462e-03 1.392842688647e-02 0.0 
1.209430199342e-03 1.388587419003e-02 0.0 
1.286810054167e-03 1.382276211441e-02 0.0 
1.363584225374e-03 1.373433338232e-02 0.0 
1.440563573190e-03 1.361584055347e-02 0.0 
1.519081340404e-03 1.346159724782e-02 0.0 
1.603908425541e-03 1.326615551277e-02 0.0 
1.700995007333e-03 1.301086050605e-02 0.0 
1.775671559471e-03 1.235178331821e-02 0.0 
1.662132344229e-03 1.252713602055e-02 0.0 
1.554121465970e-03 1.266182184293e-02 0.0 
1.451878093602e-03 1.276461272598e-02 0.0 
1.353223810266e-03 1.284007852585e-02 0.0 
1.257354446834e-03 1.289353682951e-02 0.0 
1.163503758641e-03 1.292902189831e-02 0.0 
1.071253051578e-03 1.295044108142e-02 0.0 
9.802172011893e-04 1.296100942670e-02 0.0 
8.900776301464e-04 1.296350073450e-02 0.0 
8.005666964343e-04 1.296027949215e-02 0.0 
7.115012343645e-04 1.295335124126e-02 0.0 
6.227461225386e-04 1.294437436970e-02 0.0 
5.341558360210e-04 1.293468877527e-02 0.0 
4.455983909965e-04 1.292534336825e-02 0.0 
3.569137474046e-04 1.291708609134e-02 0.0 
2.679621996865e-04 1.291037473020e-02 0.0 
1.787416466809e-04 1.290545086236e-02 0.0 
8.938252237871e-05 1.290251224554e-02 0.0 
9.099062518413e-05 1.189288161598e-02 0.0 
1.820697758737e-04 1.189610825576e-02 0.0 
2.733671171980e-04 1.190130732248e-02 0.0 
3.649707370792e-04 1.190833036164e-02 0.0 
4.570952729294e-04 1.191673959394e-02 0.0 
5.500673198675e-04 1.192595780021e-02 0.0 
6.441299351237e-04 1.193521789299e-02 0.0 
7.396785873972e-04 1.194330935369e-02 0.0 
8.370362221475e-04 1.194884304465e-02 0.0 
9.365205048916e-04 1.194999567307e-02 0.0 
1.038588878522e-03 1.194448569515e-02 0.0 
1.143745362164e-03 1.192973937369e-02 0.0 
1.252540596197e-03 1.190270132086e-02 0.0 
1.365604487255e-03 1.185990198340e-02 0.0 
1.483475003900e-03 1.179662737234e-02 0.0 
1.607440909130e-03 1.170873321862e-02 0.0 
1.736869688547e-03 1.158924429371e-02 0.0 
1.628170338098e-03 1.073099702205e-02 0.0 
1.497239998357e-03 1.080507768814e-02 0.0 
1.371118500854e-03 1.085766255389e-02 0.0 
1.251354366803e-03 1.089379192044e-02 0.0 
1.137029959674e-03 1.091656606851e-02 0.0 
1.027596165154e-03 1.092896227594e-02 0.0 
9.223966107709e-04 1.093348480547e-02 0.0 
8.208416451647e-04 1.093227307556e-02 0.0 
7.224631502678e-04 1.092746824020e-02 0.0 
6.269247116721e-04 1.092054528621e-02 0.0 
5.335912019063e-04 1.091239899980e-02 0.0 
4.421607335619e-04 1.090441993347e-02 0.0 
3.521623422187e-04 1.089695006187e-02 0.0 
2.632147452450e-04 1.089062738101e-02 0.0 
1.750817217203e-04 1.088602320249e-02 0.0 
8.750011864990e-05 1.088334099839e-02 0.0 
-1.582648052885e-03 5.445509139655e-03 0.0 
-1.062685665626e-03 8.155364701842e-03 0.0 
-3.561286324682e-04 1.116706151268e-02 0.0 
6.384650882638e-04 1.231649040032e-02 0.0 
1.396068372592e-03 1.284204562528e-02 0.0 
1.746978397670e-03 1.282731775625e-02 0.0 
1.884616720483e-03 1.241051300558e-02 0.0 
1.904247807466e-03 1.179043173362e-02 0.0 
1.832547558282e-03 1.104027489275e-02 0.0 
1.691333616055e-03 1.019686629311e-02 0.0 
-6.197338536933e-05 7.874525195054e-03 0.0 
5.107070035502e-04 2.194109583773e-04 0.0 
-1.963468731113e-04 -2.003700712573e-04 0.0 
-6.995792015381e-04 1.324192862978e-03 0.0 
3.477992149904e-04 1.022009529613e-04 0.0 
1.505611525223e-03 1.146697042617e-02 0.0 
1.183906532841e-04 -4.135398714509e-04 0.0 
5.985202003956e-04 3.579022631371e-04 0.0 
2.104855859527e-03 1.185396546643e-02 0.0 
5.818818661474e-04 4.968109171467e-04 0.0 
2.067665762892e-03 1.085534758810e-02 0.0 
1.982950617763e-04 4.732545471926e-05 0.0 
-2.157714427889e-05 -6.699573683959e-04 0.0 
5.023611309750e-04 6.400725809915e-04 0.0 
1.737507707335e-03 9.265541788094e-03 0.0 
8.005164907599e-05 -6.921212874931e-04 0.0 
1.231340977371e-04 -2.008709366345e-04 0.0 
4.245211311129e-04 7.436246722212e-04 0.0 
2.756037696514e-04 7.691239508427e-04 0.0 
7.602500240617e-05 8.128012473167e-04 0.0 
1.412842291191e-04 8.762590416454e-04 0.0 
1.904395535719e-04 7.736685500715e-04 0.0 
1.393548272557e-03 8.929560814937e-03 0.0 
9.010955198726e-04 8.995785824632e-03 0.0 
5.868521669591e-04 8.963622081295e-03 0.0 
5.350347423591e-05 5.340749027922e-03 0.0 
1.219220184998e-04 2.940159608762e-05 0.0 
-1.102529992454e-03 3.280328421252e-03 0.0 
1.294387548733e-05 -8.075951722706e-04 0.0 
8.541582056193e-05 -2.193309490289e-05 0.0 
3.010108709890e-04 9.012923864479e-03 0.0 
4.247093678286e-05 -8.187262382781e-04 0.0 
3.887699101215e-04 8.631509295531e-04 0.0 
5.550968761644e-04 3.946392520115e-04 0.0 
5.438334854195e-04 5.652101557135e-04 0.0 
5.986620025970e-04 3.049514167221e-04 0.0 
4.267592839832e-04 1.561893450165e-04 0.0 
-4.479332658976e-04 5.233619115594e-04 0.0 
1.135635744209e-03 9.036022137777e-03 0.0 
3.182408303757e-04 8.157102309166e-05 0.0 
3.970440678608e-05 3.420843161362e-03 0.0 
-8.666430820821e-05 -4.845319000018e-04 0.0 
1.051873897934e-04 -5.657826355313e-04 0.0 
3.836690247266e-05 6.603215368893e-04 0.0 
1.949578435439e-03 1.185062555580e-02 0.0 
8.422564498792e-04 1.035287574454e-02 0.0 
2.131751089854e-03 1.146241185826e-02 0.0 
1.930080573629e-03 1.011018524518e-02 0.0 
-8.630804369392e-04 5.487684401351e-03 0.0 
6.661173795951e-05 7.235812586639e-03 0.0 
5.530170105099e-05 1.746183836337e-05 0.0 
8.224267855184e-06 -8.484473260001e-04 0.0 
2.134448482904e-05 1.504867271196e-03 0.0 
1.650119189636e-03 8.799637131717e-03 0.0 
1.759152928321e-03 8.318812097094e-03 0.0 
1.603575107510e-03 7.931358688643e-03 0.0 
1.732835141265e-03 7.380342654880e-03 0.0 
1.580870253849e-03 6.909471604866e-03 0.0 
1.676820108696e-03 6.420943230570e-03 0.0 
1.847076377680e-03 6.865648389673e-03 0.0 
1.765933866807e-03 5.923622182869e-03 0.0 
1.952261060951e-03 6.349419086588e-03 0.0 
1.504098140316e-03 5.947205439507e-03 0.0 
1.842169783051e-03 5.419867860329e-03 0.0 
2.044332835178e-03 5.823950343370e-03 0.0 
1.902474980766e-03 4.914160863917e-03 0.0 
2.118407499191e-03 5.292461983730e-03 0.0 
2.242227365453e-03 6.198744158484e-03 0.0 
2.329649823849e-03 5.641182444626e-03 0.0 
2.432425581812e-03 6.535920376408e-03 0.0 
2.532129218631e-03 5.946749617401e-03 0.0 
2.393450372011e-03 5.084931782715e-03 0.0 
2.605563598965e-03 5.359538684304e-03 0.0 
2.722627809579e-03 6.203456157820e-03 0.0 
2.802922392640e-03 5.580929927750e-03 0.0 
2.897236272548e-03 6.402056716676e-03 0.0 
2.981179530213e-03 5.738734192709e-03 0.0 
3.053150636212e-03 6.534623555182e-03 0.0 
3.136628110649e-03 5.828442885812e-03 0.0 
3.028255903649e-03 5.089888247022e-03 0.0 
3.179980739372e-03 5.144636254334e-03 0.0 
3.262954830389e-03 5.842374582980e-03 0.0 
3.298811888555e-03 5.124379630076e-03 0.0 
3.354158384337e-03 5.774471865848e-03 0.0 
3.378638056361e-03 5.024917911214e-03 0.0 
3.291252515214e-03 4.446283807917e-03 0.0 
3.358669011236e-03 4.327628232332e-03 0.0 
3.413253905362e-03 4.845511588580e-03 0.0 
3.378741979802e-03 4.138440046099e-03 0.0 
3.396350136596e-03 4.589130692792e-03 0.0 
3.347284477913e-03 3.883866023978e-03 0.0 
3.323434751557e-03 4.262231631683e-03 0.0 
3.261318434962e-03 3.570702769933e-03 0.0 
3.262569835706e-03 3.254568037923e-03 0.0 
3.168049336980e-03 2.961133780651e-03 0.0 
3.120409368257e-03 3.212371655668e-03 0.0 
3.023789805213e-03 2.634680140611e-03 0.0 
3.048944570340e-03 2.433480211411e-03 0.0 
2.905183039288e-03 2.140614450731e-03 0.0 
2.908588055998e-03 1.981084851943e-03 0.0 
2.768504746289e-03 1.721039903144e-03 0.0 
2.723384963397e-03 1.834973917985e-03 0.0 
2.594367524670e-03 1.451390724408e-03 0.0 
2.617312655782e-03 1.367994505937e-03 0.0 
2.451906593268e-03 1.131394033695e-03 0.0 
2.391747636566e-03 1.180099515393e-03 0.0 
2.262916887356e-03 8.957019053436e-04 0.0 
2.299891781292e-03 8.679387098497e-04 0.0 
2.123258474098e-03 6.624061610231e-04 0.0 
2.056635365590e-03 6.667223061332e-04 0.0 
1.932084335524e-03 4.640030978652e-04 0.0 
1.976877921651e-03 4.747615905916e-04 0.0 
1.798836315540e-03 3.015808564678e-04 0.0 
1.731289335213e-03 2.757231109633e-04 0.0 
1.613578247763e-03 1.385800033465e-04 0.0 
1.659815365856e-03 1.746389592679e-04 0.0 
1.487828608195e-03 3.198399652026e-05 0.0 
1.515035724869e-03 7.667535393660e-05 0.0 
1.422303953117e-03 -1.497985701703e-05 0.0 
1.311971960910e-03 -1.011544446045e-04 0.0 
1.231661360446e-03 -1.555085442968e-04 0.0 
1.136662348928e-03 -2.232287035827e-04 0.0 
3.242413544855e-03 3.816754208690e-03 0.0 
1.049015290650e-03 -2.801273978014e-04 0.0 
1.122446979251e-03 -2.052417668209e-04 0.0 
9.664870494097e-04 -3.330567686244e-04 0.0 
1.032419115265e-03 -2.712631814368e-04 0.0 
8.753302004530e-04 -3.905882229155e-04 0.0 
8.042199897419e-04 -4.306638194189e-04 0.0 
7.137300345293e-04 -4.868484040565e-04 0.0 
3.343690183527e-03 5.056251174526e-03 0.0 
2.428733078847e-03 4.534945769810e-03 0.0 
6.526636143998e-04 -5.161059038681e-04 0.0 
5.667527821112e-04 -5.693793375872e-04 0.0 
6.051901479024e-04 -5.348236427633e-04 0.0 
4.671155537042e-04 -6.132955721989e-04 0.0 
1.420272247985e-03 6.433127979495e-03 0.0 
1.329636835838e-03 5.459490398781e-03 0.0 
1.260697222667e-03 5.941110317408e-03 0.0 
1.155914366137e-03 4.964872868470e-03 0.0 
1.101154054249e-03 5.433685811165e-03 0.0 
4.358360338928e-04 -6.391586191833e-04 0.0 
1.684146320464e-03 4.484591924024e-03 0.0 
1.199996538209e-03 4.488217504771e-03 0.0 
2.780157472322e-03 7.070808563163e-03 0.0 
3.282996176860e-03 6.564950589296e-03 0.0 
3.007741251610e-03 2.220760080191e-03 0.0 
7.219983763592e-04 -4.553370138920e-04 0.0 
5.794503077327e-04 -5.319417379385e-04 0.0 
6.300022677279e-04 -4.671085301205e-04 0.0 
1.664808951714e-03 2.070704804630e-04 0.0 
1.503151250072e-03 1.168142101158e-04 0.0 
1.626852795607e-03 2.328400591183e-04 0.0 
1.451749451786e-03 1.501226289556e-04 0.0 
1.545725576711e-03 2.498003654618e-04 0.0 
1.360886535916e-03 1.744370899359e-04 0.0 
1.278082796078e-03 8.850424434307e-05 0.0 
1.180336727673e-03 1.184344150052e-04 0.0 
1.107674002545e-03 4.432734145655e-05 0.0 
1.421714349034e-03 2.558300583475e-04 0.0 
1.617414385814e-03 3.450896063456e-04 0.0 
1.005980903033e-03 7.814723491990e-05 0.0 
9.422904786207e-04 1.426290672364e-05 0.0 
8.396544953567e-04 5.028053561826e-05 0.0 
7.837770222262e-04 -4.500127564894e-06 0.0 
8.605191684819e-04 -5.245146919863e-05 0.0 
7.094074449370e-04 -6.247695414209e-05 0.0 
7.644221660901e-04 -1.199981555207e-04 0.0 
2.847530766078e-03 1.808798499543e-03 0.0 
2.902527124583e-03 1.997029959871e-03 0.0 
2.723768779936e-03 1.624816076237e-03 0.0 
2.734035774612e-03 1.762515188261e-03 0.0 
2.537973031793e-03 1.429651516025e-03 0.0 
2.502685406505e-03 1.518341812008e-03 0.0 
2.289939709522e-03 1.223972582501e-03 0.0 
2.328672807319e-03 1.148767121399e-03 0.0 
1.945205997220e-03 4.402847968654e-03 0.0 
2.928089500872e-03 2.822564267017e-03 0.0 
2.998742873293e-03 3.450275117632e-03 0.0 
2.756045697616e-03 2.995942075667e-03 0.0 
2.795511481042e-03 3.670215883300e-03 0.0 
2.500129446696e-03 3.150669268150e-03 0.0 
2.500610888485e-03 3.870927562256e-03 0.0 
2.150073026944e-03 3.288091538549e-03 0.0 
2.171023307127e-03 2.639934619364e-03 0.0 
1.776510207770e-03 2.731368838019e-03 0.0 
1.824914738299e-03 2.155830857747e-03 0.0 
1.402953738767e-03 2.215819509210e-03 0.0 
1.478099066905e-03 1.710760206281e-03 0.0 
3.036397038860e-03 4.466307282824e-03 0.0 
2.699399888601e-03 1.864529413624e-03 0.0 
2.422494135690e-03 1.569646022693e-03 0.0 
2.618645766070e-03 1.923179439564e-03 0.0 
4.820776527907e-04 -5.728001940340e-04 0.0 
6.337013337661e-04 -1.427166135104e-05 0.0 
1.455992008769e-03 3.291937874876e-04 0.0 
1.662870876182e-03 4.319492910799e-04 0.0 
2.066113572914e-03 9.763162710748e-04 0.0 
3.479005528489e-04 -6.781300377058e-04 0.0 
2.101303933308e-03 4.053044778017e-03 0.0 
2.467590315657e-03 4.717034844747e-03 0.0 
9.867647145698e-04 4.455398538823e-03 0.0 
9.458570308061e-04 4.916603113262e-03 0.0 
1.459251409126e-03 3.905808236279e-04 0.0 
3.218810228873e-04 -6.974325590958e-04 0.0 
1.047487140907e-03 1.366676765966e-04 0.0 
1.289058897752e-03 2.817991891740e-03 0.0 
5.652662949426e-04 -6.443726032792e-05 0.0 
4.935856067384e-04 -1.701564834540e-05 0.0 
1.177854370068e-03 1.110093427813e-06 0.0 
2.296676972812e-03 1.577989307740e-03 0.0 
2.497822667963e-03 1.939250441720e-03 0.0 
1.846827388528e-03 1.672407744386e-03 0.0 
1.523625158345e-03 1.287703176612e-03 0.0 
1.145212494687e-03 1.310495376126e-03 0.0 
1.223251585307e-03 9.324085022437e-04 0.0 
1.544508424327e-03 9.327791198535e-04 0.0 
1.258231152023e-03 6.345125135345e-04 0.0 
9.379828661292e-04 6.281605065054e-04 0.0 
9.921663567038e-04 3.721151552620e-04 0.0 
1.272206455050e-03 3.861239593190e-04 0.0 
1.024612740164e-03 1.607074723485e-04 0.0 
7.507619522443e-04 1.466647307003e-04 0.0 
7.999215521865e-04 -3.329172368246e-05 0.0 
5.381307551127e-04 2.198383962551e-05 0.0 
9.033910400052e-04 2.278936326446e-03 0.0 
2.311542650433e-03 7.118274674312e-03 0.0 
1.249074555766e-03 2.991762834871e-04 0.0 
1.983884519626e-03 1.012354407050e-03 0.0 
8.245030474129e-04 3.938135148143e-03 0.0 
7.966092522437e-04 4.392556241209e-03 0.0 
8.957572961591e-04 5.380841582243e-03 0.0 
7.584565282840e-04 4.847961612962e-03 0.0 
6.553720243962e-04 3.863336163945e-03 0.0 
6.287033449184e-04 4.313446477201e-03 0.0 
7.122226753196e-04 5.304242784729e-03 0.0 
5.927594442632e-04 4.763966175916e-03 0.0 
6.594028168437e-04 5.759562466055e-03 0.0 
5.491431786861e-04 5.213992501205e-03 0.0 
4.813198531338e-04 4.222568028573e-03 0.0 
4.462190652186e-04 4.669309678239e-03 0.0 
4.993092564196e-04 5.664055840187e-03 0.0 
4.038917939250e-04 5.116273899730e-03 0.0 
4.443667433243e-04 6.113328056892e-03 0.0 
3.553753051205e-04 5.563161440375e-03 0.0 
3.161390982209e-04 4.570152325742e-03 0.0 
2.518016407278e-04 -7.295003232151e-04 0.0 
2.110597988129e-03 9.148431720457e-04 0.0 
1.835287477226e-03 7.709173944072e-04 0.0 
4.992871128470e-04 -5.353202818355e-04 0.0 
5.339533932766e-04 -4.665910294442e-04 0.0 
6.646982679443e-04 -3.971570443716e-04 0.0 
5.502631712791e-04 -3.954888099990e-04 0.0 
2.723126817733e-04 5.019339351613e-03 0.0 
2.371439468325e-04 4.027141111202e-03 0.0 
2.020800298661e-03 4.957101100897e-03 0.0 
2.393383317009e-03 5.711722031735e-03 0.0 
8.396919292757e-04 3.484948961898e-03 0.0 
4.295144778106e-04 -6.037073696887e-05 0.0 
4.814324452334e-04 -1.166712717987e-04 0.0 
3.345526717536e-03 6.444789762966e-03 0.0 
3.237308287224e-03 7.308899405286e-03 0.0 
3.268326420711e-03 7.138543792286e-03 0.0 
3.116877955285e-03 8.093490582008e-03 0.0 
3.080909709644e-03 8.195148722134e-03 0.0 
3.109943638490e-03 7.870502641332e-03 0.0 
1.817268793951e-03 4.594790087208e-04 0.0 
3.792490643885e-04 3.682248718378e-03 0.0 
6.276881067135e-04 -4.835424396262e-04 0.0 
4.783357008633e-04 -5.156616927680e-04 0.0 
3.649919997808e-04 -1.522640950195e-05 0.0 
2.325615616798e-03 1.045683891671e-03 0.0 
2.858684834825e-03 4.371376853075e-03 0.0 
2.831259626991e-03 3.802346893652e-03 0.0 
2.626378566583e-03 3.668492971113e-03 0.0 
2.562881549025e-03 3.152409118289e-03 0.0 
2.329846771672e-03 2.980642246521e-03 0.0 
2.227767248105e-03 2.516636419010e-03 0.0 
2.463083156269e-03 2.671724396999e-03 0.0 
2.124373121617e-03 1.537184866211e-03 0.0 
2.089792849958e-03 2.087245849306e-03 0.0 
3.064174947946e-04 6.019362888650e-03 0.0 
2.877489397412e-03 2.267033684046e-03 0.0 
1.264436176955e-03 1.842419533353e-04 0.0 
2.594574252157e-04 -7.030958782589e-04 0.0 
5.326686001074e-04 -4.429393759959e-05 0.0 
2.261859160959e-04 -7.438739230376e-04 0.0 
2.810356938064e-04 -7.049110037247e-04 0.0 
1.207748057595e-03 3.342802674931e-04 0.0 
1.965810769099e-03 2.307481414341e-03 0.0 
2.073889589050e-03 2.754798903290e-03 0.0 
2.914504682102e-03 9.063718119512e-03 0.0 
2.881466766022e-03 9.080207497352e-03 0.0 
1.906022359429e-03 1.227902587906e-03 0.0 
1.183713443746e-03 6.428663163367e-03 0.0 
7.755768616869e-04 6.304830393086e-03 0.0 
7.084157402317e-04 6.762877224357e-03 0.0 
1.686166822972e-04 -7.710237368909e-04 0.0 
4.578963661551e-04 1.470232211361e-04 0.0 
5.243725883673e-04 3.332539690498e-03 0.0 
2.770111447115e-03 5.373723695969e-03 0.0 
2.688057780318e-03 6.428212939934e-03 0.0 
7.147863192645e-04 2.906348107930e-03 0.0 
3.352886164612e-04 2.351298932077e-03 0.0 
2.008253858653e-04 4.463318014485e-03 0.0 
1.692535924863e-04 3.485267643307e-03 0.0 
6.806749526022e-04 -3.253375377898e-04 0.0 
5.549523115404e-04 -3.216331427506e-04 0.0 
1.426969143566e-03 4.359613998168e-04 0.0 
6.017526378830e-04 -1.986424884284e-04 0.0 
1.928801181886e-04 3.045018040084e-03 0.0 
2.113831894291e-03 8.270843424928e-04 0.0 
2.283498475091e-03 9.200822170134e-04 0.0 
4.215685950696e-04 -4.604555374405e-04 0.0 
1.891905434972e-03 6.027312969589e-03 0.0 
1.446871416029e-03 5.173850953271e-03 0.0 
1.510891761795e-03 4.053808560834e-04 0.0 
8.239580062282e-04 -1.772252990832e-04 0.0 
1.885635178287e-04 -7.477525411315e-04 0.0 
1.126837819436e-03 3.497151677609e-04 0.0 
5.287802169809e-04 2.889347866596e-03 0.0 
2.327069542398e-03 2.234013011434e-03 0.0 
2.666028858880e-03 2.774923356633e-03 0.0 
1.918810139865e-03 1.698552666422e-03 0.0 
3.634579492181e-04 -2.064388035108e-04 0.0 
9.969474513849e-04 2.530535494444e-04 0.0 
3.038609385068e-04 -5.179412221229e-05 0.0 
1.698527296774e-03 2.082954059583e-03 0.0 
1.798365693651e-03 2.482602444406e-03 0.0 
2.996929162876e-03 5.978822179274e-03 0.0 
2.903343386833e-03 7.053145240550e-03 0.0 
2.538595933429e-03 7.632291303648e-03 0.0 
2.730648245571e-03 8.223455007601e-03 0.0 
2.013207286030e-03 7.292776781781e-03 0.0 
3.151359417139e-03 6.493591087006e-03 0.0 
2.478863449491e-03 7.446288789232e-03 0.0 
2.329638046337e-03 8.048071102009e-03 0.0 
2.470355570346e-03 8.369499249736e-03 0.0 
3.007957201710e-03 8.203555403347e-03 0.0 
2.811555802583e-03 9.013556501445e-03 0.0 
3.039557880132e-03 4.180639207846e-03 0.0 
3.062385810094e-03 2.432068591671e-03 0.0 
8.031206749543e-04 -3.195069034988e-04 0.0 
9.130102829057e-04 -1.085995146195e-04 0.0 
1.801535166899e-03 3.410535912791e-04 0.0 
3.973621289552e-04 3.239962799379e-03 0.0 
2.984193697438e-04 2.704272385856e-03 0.0 
5.391767764862e-04 6.665135364973e-03 0.0 
4.737708368381e-04 7.115872640696e-03 0.0 
3.492527089037e-04 -5.992720199526e-04 0.0 
3.208776043224e-04 -5.341251360334e-04 0.0 
1.366469502776e-03 3.252027051922e-06 0.0 
1.047240719312e-03 2.280104565215e-04 0.0 
6.733156551581e-04 2.969759483795e-03 0.0 
6.592301017900e-04 2.525848851242e-03 0.0 
8.393366125730e-04 3.032550595537e-03 0.0 
1.354508895714e-03 4.609894576167e-04 0.0 
2.693508710016e-03 2.422021252295e-03 0.0 
2.671326115457e-03 1.459412840126e-03 0.0 
5.510976079461e-04 1.810200255545e-03 0.0 
3.143637666053e-03 3.880873181206e-03 0.0 
2.124707450603e-04 -6.125873516394e-04 0.0 
2.197823199822e-03 4.245605499853e-03 0.0 
2.499937768001e-04 -9.759405551653e-06 0.0 
2.887742634680e-04 1.608618095031e-05 0.0 
1.688240318678e-03 1.142937388401e-03 0.0 
1.884274567730e-03 8.760150207260e-03 0.0 
3.065869875046e-03 3.314192476084e-03 0.0 
3.156396051577e-03 3.244447458250e-03 0.0 
2.298120679916e-03 8.981911409157e-03 0.0 
2.409391679064e-03 9.299495328438e-03 0.0 
2.597160027895e-03 8.643490888248e-03 0.0 
2.504082636267e-03 9.576864078629e-03 0.0 
1.464810596701e-03 2.141344858105e-04 0.0 
1.236050923600e-03 2.339806341455e-05 0.0 
1.514202198704e-03 1.631509965866e-03 0.0 
1.659991858690e-03 1.530237422054e-03 0.0 
1.412197935367e-03 1.799659126156e-03 0.0 
1.509796817977e-03 2.163016245351e-03 0.0 
1.444712131831e-03 8.750139390807e-04 0.0 
1.669004753611e-03 9.605097771681e-04 0.0 
2.263472381253e-04 -7.032824606735e-04 0.0 
2.652478229292e-03 9.923615486724e-03 0.0 
3.990811463504e-04 2.361811180771e-03 0.0 
2.174117829397e-03 8.632157865954e-03 0.0 
8.038568156917e-04 1.906352533140e-04 0.0 
8.570916071043e-04 1.715363774401e-04 0.0 
6.254459560053e-07 1.877974645359e-03 0.0 
2.390585850178e-04 1.345349518790e-03 0.0 
1.310001180203e-04 2.529133442974e-03 0.0 
2.305569577484e-03 8.922724094074e-03 0.0 
2.479780827334e-03 9.429855838947e-03 0.0 
2.057963472733e-03 8.208473567412e-03 0.0 
3.827921204942e-05 2.248612378734e-05 0.0 
1.300818194184e-04 9.018900303271e-03 0.0 
1.875932554486e-04 1.730452045231e-05 0.0 
2.901760210631e-03 8.120916605067e-03 0.0 
1.403041937059e-04 2.055203914904e-03 0.0 
2.953836639786e-03 2.806817912779e-03 0.0 
3.361738992380e-03 6.237491859975e-03 0.0 
1.652189486121e-03 5.642831438079e-04 0.0 
1.076066104476e-04 3.046720099096e-03 0.0 
7.837525641851e-05 1.975077908985e-03 0.0 
8.173841417543e-04 7.295381239874e-03 0.0 
7.412460522497e-04 7.771643389632e-03 0.0 
8.962728191673e-04 6.847616112423e-03 0.0 
1.143355627709e-03 3.533203588516e-03 0.0 
4.177705090010e-04 3.750675085396e-03 0.0 
2.877729870794e-04 3.143523280141e-03 0.0 
4.487375307695e-04 -5.985126290833e-04 0.0 
3.695660731364e-04 -5.920325725742e-04 0.0 
6.297822460629e-04 -3.184434045265e-04 0.0 
8.208735284714e-04 -2.900684444408e-04 0.0 
8.121950772100e-04 -2.498665503137e-04 0.0 
9.437768376948e-04 -2.350027460985e-04 0.0 
2.191343484366e-03 3.728869096192e-03 0.0 
1.941928872308e-03 3.426602477397e-03 0.0 
2.654256466371e-03 4.216758348059e-03 0.0 
2.079286837956e-03 7.196569700266e-04 0.0 
2.206543725392e-03 7.789270583949e-04 0.0 
2.397500751564e-03 1.002791858320e-03 0.0 
3.012624117047e-04 2.298132036916e-03 0.0 
1.994529160467e-04 1.688372789371e-03 0.0 
1.701026275763e-03 4.297552868881e-04 0.0 
1.766075290725e-03 6.549203751186e-04 0.0 
1.399526759766e-03 6.108452689139e-05 0.0 
3.815978969223e-04 1.943348621332e-03 0.0 
2.067122381867e-04 3.081945122545e-05 0.0 
3.071466837151e-04 3.677857581770e-05 0.0 
1.649625362781e-04 -5.408627378634e-04 0.0 
2.747260438631e-04 -4.461352200761e-04 0.0 
1.255422820464e-03 6.296510837659e-03 0.0 
7.282021926139e-04 5.366329574104e-03 0.0 
6.354209809376e-04 2.121943834281e-03 0.0 
8.225051644242e-04 2.591067088990e-03 0.0 
4.465221352380e-04 1.583273803874e-03 0.0 
1.347931653038e-04 -7.454947338099e-04 0.0 
2.522664975269e-03 2.325490550475e-03 0.0 
1.028492778877e-03 3.557472366314e-04 0.0 
1.266160186067e-03 4.748030095337e-04 0.0 
7.579092926414e-04 2.429756605702e-04 0.0 
1.925101953549e-03 1.462461771554e-03 0.0 
1.454351597308e-03 1.026041082311e-03 0.0 
1.433236969868e-03 1.173769540584e-03 0.0 
-2.706357656194e-04 2.419680192772e-03 0.0 
5.922169126141e-05 2.374785664132e-03 0.0 
5.667781109712e-04 7.672104247922e-03 0.0 
-4.941827840393e-04 2.012471005111e-03 0.0 
4.921921544035e-04 8.159219306073e-03 0.0 
4.076558611513e-04 7.573198866344e-03 0.0 
4.282754953529e-04 8.642128374862e-03 0.0 
1.125719439842e-04 -7.817506257483e-04 0.0 
9.394720833959e-04 8.009827227775e-03 0.0 
1.028752713480e-03 7.428388363408e-03 0.0 
6.075326831188e-05 -4.423990282962e-04 0.0 
2.562464613035e-04 1.431305332779e-03 0.0 
8.977440668394e-05 -6.093469070674e-04 0.0 
1.356042425087e-04 -6.706228726047e-04 0.0 
6.191380476202e-04 1.380714877362e-04 0.0 
6.799087892595e-04 1.288798704498e-04 0.0 
4.538563190376e-04 1.006552881414e-04 0.0 
5.303641350887e-04 9.934142977577e-05 0.0 
7.120468023246e-04 1.071042372994e-04 0.0 
5.562608203595e-04 8.093537676212e-05 0.0 
6.700203377963e-04 8.316735368582e-03 0.0 
3.650185289197e-04 7.124167510519e-05 0.0 
4.136707131149e-04 6.220711682765e-05 0.0 
2.421839179576e-04 4.795516360846e-05 0.0 
2.290161055666e-03 1.023439212257e-02 0.0 
2.834522216000e-03 8.669880719621e-03 0.0 
2.580345504324e-03 9.805572530385e-03 0.0 
2.146532937739e-03 1.069387389727e-02 0.0 
1.017185816737e-03 1.324861256821e-03 0.0 
1.235311452379e-03 1.845213093380e-03 0.0 
1.894704129838e-04 -3.943271048534e-05 0.0 
2.167703584354e-04 -9.042356139451e-05 0.0 
3.392385111251e-04 8.104553067109e-03 0.0 
2.481825138044e-04 8.143420061150e-03 0.0 
2.668811793822e-04 7.226071837564e-03 0.0 
1.931040674485e-04 7.334465716730e-03 0.0 
2.053899228718e-04 6.436755025189e-03 0.0 
1.325708331178e-04 6.549564004302e-03 0.0 
1.545170061992e-04 5.653879055492e-03 0.0 
1.134341025409e-03 9.809436456907e-04 0.0 
1.711344921616e-03 9.589048147341e-03 0.0 
2.120887111336e-03 9.576801202288e-03 0.0 
1.184596187531e-03 6.451501920693e-04 0.0 
1.457498200200e-03 7.615172067611e-04 0.0 
2.593087163018e-03 9.785237738634e-03 0.0 
2.402440024122e-03 1.073997947316e-02 0.0 
6.622001408605e-04 1.789747359424e-04 0.0 
3.209044845613e-03 5.527439245038e-03 0.0 
1.918002095797e-04 9.033210662882e-04 0.0 
-1.218310471802e-03 4.084857490008e-03 0.0 
-4.329377102184e-04 3.694309464016e-03 0.0 
3.314263760961e-03 5.945570729184e-03 0.0 
2.711601800295e-03 8.863760846145e-03 0.0 
2.896758683915e-03 8.945541020174e-03 0.0 
2.661874776395e-03 9.954129930227e-03 0.0 
1.897142726067e-03 6.492466749889e-04 0.0 
1.991437520417e-04 -3.331182323725e-04 0.0 
1.713320156928e-03 7.298489048016e-03 0.0 
2.248886934084e-04 5.556540068655e-03 0.0 
9.644368103563e-04 7.615200573368e-03 0.0 
9.934023346148e-05 -6.686943253250e-05 0.0 
3.222576464631e-03 4.650206508146e-03 0.0 
3.062830387211e-03 7.357457167004e-03 0.0 
2.265059244046e-03 6.871815737355e-03 0.0 
3.047840996966e-03 7.533480534496e-03 0.0 
2.136026841265e-03 6.752316472732e-03 0.0 
1.885367294589e-03 7.816561902215e-03 0.0 
2.027916442709e-03 8.247012469363e-03 0.0 
3.189811854537e-03 3.882936757223e-03 0.0 
2.679788985305e-03 9.986411459736e-03 0.0 
2.379699797599e-03 1.098041717020e-02 0.0 
2.613842923428e-03 6.830195928585e-03 0.0 
1.030542905721e-03 3.530960490339e-03 0.0 
1.026337202896e-03 3.071430205324e-03 0.0 
7.907382832681e-04 2.180605967107e-03 0.0 
1.002112822011e-03 2.627202599502e-03 0.0 
1.240925393702e-03 3.546430148779e-03 0.0 
1.231348646423e-03 3.084216213564e-03 0.0 
9.550425706633e-04 2.201557257799e-03 0.0 
1.199234923103e-03 2.633388593281e-03 0.0 
8.076215082160e-04 1.609865780874e-03 0.0 
1.129739820287e-03 2.176139752911e-03 0.0 
1.452664161048e-03 3.070152012062e-03 0.0 
1.411091015291e-03 2.632420165977e-03 0.0 
1.083173972264e-03 1.859838655950e-03 0.0 
1.715908083419e-03 3.532269340721e-03 0.0 
9.239301747478e-04 5.279970290017e-04 0.0 
3.402679595254e-03 5.382312669743e-03 0.0 
6.733763214711e-05 3.009543253355e-03 0.0 
-7.317944795633e-05 4.435201732965e-03 0.0 
2.930325378978e-03 7.249267147899e-03 0.0 
3.899565561068e-04 7.692853607552e-04 0.0 
3.143595690754e-04 7.825874518928e-04 0.0 
2.801272871989e-03 4.458628820647e-03 0.0 
5.246304076349e-04 6.008507676538e-04 0.0 
2.173325443328e-03 7.689949107613e-03 0.0 
1.695299416343e-03 3.416030423598e-03 0.0 
5.715848692278e-04 5.384402260894e-04 0.0 
1.229569594452e-03 4.013601627352e-03 0.0 
1.433748498465e-03 4.501862408199e-03 0.0 
1.388129281488e-03 4.981853615306e-03 0.0 
2.381253595305e-04 7.444492361049e-04 0.0 
9.714675227126e-04 6.387454197954e-03 0.0 
5.603074398544e-04 3.650512743327e-04 0.0 
2.912613996237e-03 2.152168971552e-03 0.0 
3.071376702883e-03 2.606350607815e-03 0.0 
3.198896371420e-03 2.933865382942e-03 0.0 
1.469815633346e-03 3.551404683428e-03 0.0 
5.308629345590e-04 2.465986230819e-04 0.0 
9.588190416529e-04 4.369998727264e-04 0.0 
9.069441864119e-04 3.790558292581e-04 0.0 
1.344297041781e-03 5.975807765319e-04 0.0 
4.722315935008e-04 1.879221586683e-04 0.0 
4.169513362974e-04 6.534502327941e-04 0.0 
4.260351664391e-04 5.989142322939e-04 0.0 
1.537696846894e-03 6.430440026068e-04 0.0 
1.815057405657e-03 9.308423246476e-04 0.0 
2.023991629215e-03 9.288553409379e-04 0.0 
2.092799090897e-03 1.247862310989e-03 0.0 
1.842653817412e-03 1.267953111723e-03 0.0 
2.140764893184e-03 1.631188730080e-03 0.0 
2.360580837337e-03 1.585948949996e-03 0.0 
2.166315477952e-03 2.092252875316e-03 0.0 
1.611685009062e-03 2.612305956728e-03 0.0 
3.944667539500e-04 1.344462109510e-04 0.0 
1.732927662884e-03 3.483598290377e-04 0.0 
1.920229059051e-03 4.744600255916e-04 0.0 
1.972967359142e-03 4.787385622863e-04 0.0 
9.209746143495e-04 -3.022295184109e-04 0.0 
1.071607403694e-03 -2.074516127558e-04 0.0 
1.082611326638e-03 -1.443970629500e-04 0.0 
7.727502388078e-04 -3.890220682726e-04 0.0 
2.766441974668e-03 3.268897731778e-03 0.0 
3.634872796031e-04 1.149728556184e-04 0.0 
2.482298099730e-03 1.165461746775e-03 0.0 
1.194708025975e-03 -1.640267979033e-04 0.0 
1.262461456163e-03 8.987805540060e-03 0.0 
1.317027582399e-03 8.098679046431e-03 0.0 
1.447321145209e-03 8.037574425504e-03 0.0 
1.342503470605e-03 7.075889907536e-03 0.0 
1.168252125522e-03 8.011834841610e-03 0.0 
6.787003035742e-04 -2.537453544339e-04 0.0 
5.449497187364e-04 -2.486480060397e-04 0.0 
4.269268167518e-04 -3.099827598325e-04 0.0 
4.122523210055e-04 -2.363460526490e-04 0.0 
2.987550802905e-04 -2.915449122960e-04 0.0 
3.094395002193e-04 -3.657797834913e-04 0.0 
2.794085457641e-04 -2.183142772197e-04 0.0 
1.735399867171e-04 -2.756740661369e-04 0.0 
1.014193307833e-03 9.025923247774e-03 0.0 
-5.571913468002e-04 8.908807125782e-04 0.0 
-1.463185925407e-04 6.717487451651e-04 0.0 
-1.051807239352e-04 3.452364735151e-04 0.0 
1.778905627496e-04 4.847218216236e-04 0.0 
2.011382476676e-04 8.270876568304e-04 0.0 
5.584027885131e-04 6.310289552571e-04 0.0 
5.477776258079e-04 1.011472476738e-03 0.0 
-1.976586684741e-04 1.083893471028e-03 0.0 
-3.509003359899e-04 2.323600135703e-04 0.0 
-5.870897837450e-05 8.344523020377e-05 0.0 
-2.667934024672e-04 -7.136797975579e-06 0.0 
-2.927610103428e-05 -1.244904561112e-04 0.0 
2.290969917531e-04 -4.082764263860e-05 0.0 
4.613052347047e-04 -4.366694257026e-04 0.0 
1.076361582086e-04 2.770001271870e-05 0.0 
1.132310166479e-04 -4.919800196523e-04 0.0 
2.147824416383e-04 -5.229110194259e-04 0.0 
1.985305743708e-04 -5.912921798461e-04 0.0 
3.188534629587e-04 -5.425030377557e-04 0.0 
2.182410029360e-04 -4.551368987477e-04 0.0 
9.394028330436e-05 -6.328516303350e-04 0.0 
1.768309458294e-04 -6.483555669177e-04 0.0 
1.234011305584e-05 -8.322964634400e-04 0.0 
3.423842904073e-05 -8.368463360943e-04 0.0 
1.449928136385e-05 -8.501305057144e-04 0.0 
4.611229054379e-05 -8.332197117011e-04 0.0 
7.342628859511e-05 -8.183801211293e-04 0.0 
4.858678742772e-05 -8.172942042238e-04 0.0 
5.968915927643e-05 -7.897312965327e-04 0.0 
8.484219775345e-06 -7.730411288978e-04 0.0 
6.717706874675e-05 -7.528185619916e-04 0.0 
1.267364702577e-04 -7.661812070618e-04 0.0 
-2.900096052041e-06 -7.286185662880e-04 0.0 
4.893430009071e-05 4.357422330031e-03 0.0 
9.233583004187e-05 3.869597210454e-03 0.0 
3.183821151178e-04 8.733437998037e-05 0.0 
7.825403031739e-04 8.946387792993e-03 0.0 
-1.326115479697e-04 -3.588998657179e-04 0.0 
7.217949200016e-05 9.775181652010e-04 0.0 
1.104709394901e-04 8.088545160756e-04 0.0 
8.849106318695e-05 7.838095153141e-04 0.0 
6.279318082578e-05 9.548627248269e-06 0.0 
1.018948304711e-04 2.034630307905e-05 0.0 
3.960010820243e-05 9.506758229554e-04 0.0 
7.603171543441e-04 -4.421714996727e-04 0.0 
7.378665545603e-04 1.787801574735e-03 0.0 
2.077055357151e-04 2.604969484333e-03 0.0 
1.592583957760e-03 4.218070898754e-03 0.0 
1.020385884474e-03 -1.442653340128e-04 0.0 
3.439008636682e-04 -1.058737998414e-04 0.0 
1.017203010023e-03 -3.190452591027e-05 0.0 
4.065852713517e-04 1.747772601944e-05 0.0 
6.201573406966e-04 -1.218827344511e-04 0.0 
6.831051314091e-04 3.232299596667e-05 0.0 
8.736391514741e-04 3.314548959034e-04 0.0 
1.508177044898e-04 -7.797914351309e-04 0.0 
6.012711941479e-04 6.213129909834e-03 0.0 
3.886455285770e-04 6.566338390274e-03 0.0 
3.518076207124e-04 4.126025455182e-03 0.0 
5.139977046326e-04 -5.898868219754e-04 0.0 
4.348255073851e-04 -3.807717594727e-04 0.0 
3.586362886732e-04 -6.457600700854e-04 0.0 
1.019644847798e-03 1.076236402010e-03 0.0 
2.631922244734e-03 7.732856124739e-03 0.0 
1.823179947738e-03 3.244708561523e-04 0.0 
8.739185065428e-04 -3.684036675357e-04 0.0 
9.344943174316e-04 -3.321294529652e-04 0.0 
1.033995647240e-03 -9.545803399134e-06 0.0 
3.403741743985e-03 5.621255329065e-03 0.0 
1.356919429564e-03 -4.761585357927e-05 0.0 
1.231111714460e-03 1.876554023699e-04 0.0 
2.669889743634e-04 3.584820125627e-03 0.0 
-3.364915382781e-05 -5.946118679745e-04 0.0 
1.255500859924e-03 2.492456987103e-04 0.0 
1.340415556246e-03 4.953811902318e-05 0.0 
8.386755446596e-04 5.845017081583e-03 0.0 
2.208424203429e-03 1.266396116489e-03 0.0 
6.867358777420e-04 3.603386369619e-04 0.0 
5.081218578834e-04 3.778273041835e-03 0.0 
5.020543328296e-04 2.070659887558e-03 0.0 
1.105041003582e-03 6.921709756943e-03 0.0 
2.427867848515e-04 -6.678449417290e-04 0.0 
6.403150113581e-04 7.233268718473e-03 0.0 
9.071002294706e-04 2.614309011630e-04 0.0 
1.015834425347e-03 3.991461932043e-03 0.0 
3.897890195274e-04 -6.527379495172e-04 0.0 
2.751273185330e-03 1.597041214628e-03 0.0 
3.183842896823e-03 6.589870843791e-03 0.0 
1.843527106638e-03 9.696114659609e-03 0.0 
2.138692882377e-04 2.202913891503e-03 0.0 
3.298307721858e-03 3.692368938492e-03 0.0 
1.743102902386e-03 7.952316112773e-04 0.0 
2.530187490512e-03 1.309610280286e-03 0.0 
3.322611647966e-04 -6.542099636916e-04 0.0 
8.804345052554e-04 1.409217950180e-04 0.0 
3.147456611135e-03 2.699921705666e-03 0.0 
4.054457890266e-04 2.805787703598e-03 0.0 
2.396957816101e-03 3.476597733699e-03 0.0 
2.835491968936e-03 2.289216114496e-03 0.0 
6.710070021095e-04 3.415658274861e-03 0.0 
2.139329106626e-03 6.521337451153e-04 0.0 
2.080125740405e-03 1.268403415760e-03 0.0 
2.774756930912e-03 7.957216095168e-03 0.0 
2.848880985819e-03 4.967222809085e-03 0.0 
2.173355034935e-03 4.770400894540e-03 0.0 
3.181996510696e-03 4.491977005099e-03 0.0 
2.348642813194e-04 -1.528839246919e-04 0.0 
1.062877737152e-03 1.875164597445e-04 0.0 
1.049134091304e-03 1.764219984210e-03 0.0 
3.245591998834e-03 6.874247031460e-03 0.0 
1.038300123033e-03 5.907719247761e-03 0.0 
1.837643721414e-03 1.911741647241e-03 0.0 
2.831918477381e-04 1.837069251281e-03 0.0 
3.166805859284e-03 7.378392099769e-03 0.0 
8.734773184018e-04 9.971560832531e-05 0.0 
5.230000559348e-04 2.478200577403e-03 0.0 
1.221428672953e-03 -1.052113455380e-04 0.0 
5.502407348320e-05 -7.857699599235e-04 0.0 
9.741050413520e-04 4.380545790084e-03 0.0 
2.474147336805e-03 2.538464459840e-03 0.0 
3.305771163221e-03 3.502766587172e-03 0.0 
1.216038814402e-03 -4.934419191166e-05 0.0 
5.608163575040e-04 1.602140515249e-03 0.0 
7.104714947474e-04 7.322683901323e-05 0.0 
1.674823893621e-03 5.058017743441e-04 0.0 
-4.909896316012e-04 6.463488210388e-03 0.0 
2.012817930406e-03 9.172991305348e-03 0.0 
5.603275289757e-04 5.508447141372e-05 0.0 
2.580248518066e-03 1.273844628549e-03 0.0 
1.851820282395e-03 1.008349878824e-03 0.0 
1.874688101807e-04 -3.443688211676e-04 0.0 
1.065700545371e-03 1.017557248572e-03 0.0 
2.367126930053e-03 1.048803681969e-02 0.0 
4.244826199133e-04 4.334066434158e-05 0.0 
1.886112422068e-03 7.215212091134e-04 0.0 
3.040910916235e-03 5.017812343421e-03 0.0 
2.158103206671e-04 9.021644657777e-03 0.0 
2.692001823377e-04 4.738659354883e-05 0.0 
1.586936809334e-03 5.980789683947e-04 0.0 
3.005086362180e-03 3.875629375602e-03 0.0 
2.453740071133e-03 1.072990210374e-03 0.0 
2.011104630607e-03 1.049999103493e-02 0.0 
1.064285577549e-03 -8.548813821837e-05 0.0 
2.648443856875e-03 4.782931623522e-03 0.0 
2.043313018847e-04 7.318121273615e-04 0.0 
1.507548476615e-03 6.216353243502e-04 0.0 
1.578861326595e-03 5.480867151081e-03 0.0 
9.414467723043e-04 -1.696400945162e-04 0.0 
2.804353933722e-03 2.343485725300e-03 0.0 
9.928396773720e-05 -7.968341997389e-04 0.0 
2.211662413496e-03 9.915908137864e-03 0.0 
7.991889723252e-04 -1.825930384614e-04 0.0 
2.426883739056e-03 2.020708526951e-03 0.0 
2.281149885513e-03 8.296851394320e-04 0.0 
1.209746384934e-03 7.672804438376e-04 0.0 
6.584666080300e-04 -1.852057862678e-04 0.0 
2.611372188151e-03 1.934759189501e-03 0.0 
5.202278714789e-04 -1.797628754357e-04 0.0 
2.117200866317e-03 1.117747050965e-02 0.0 
1.638157367357e-03 4.969919780568e-03 0.0 
3.807813363821e-04 -1.685117451150e-04 0.0 
2.431132195620e-03 3.998037012990e-03 0.0 
1.547780183016e-04 -7.237797267290e-04 0.0 
2.936474338399e-03 3.326135116929e-03 0.0 
1.471305262369e-04 -7.234587715419e-07 0.0 
1.319659123737e-03 -6.215530168642e-05 0.0 
2.103959608144e-03 6.330778245588e-04 0.0 
1.461326015391e-03 4.022086687635e-03 0.0 
2.127561908831e-03 1.171015183821e-02 0.0 
2.015335160641e-03 6.028767261820e-04 0.0 
2.150369606703e-03 3.234016752018e-03 0.0 
2.830294541593e-03 2.824034531812e-03 0.0 
3.201184830795e-03 3.118149322862e-03 0.0 
1.872176895478e-03 5.605163917948e-04 0.0 
2.422919415531e-03 1.084449095682e-02 0.0 
7.887060535527e-04 -3.814913788051e-04 0.0 
6.359191952774e-04 -4.134834590102e-04 0.0 
2.510050837503e-03 1.524841844516e-03 0.0 
1.885103828570e-03 2.941288244632e-03 0.0 
9.119950599750e-05 -8.084765744263e-04 0.0 
1.709426437531e-03 3.992037668144e-03 0.0 
4.216925438777e-04 -3.342311595316e-04 0.0 
2.274690073674e-03 1.221406203283e-03 0.0 
2.321765062829e-03 1.891218257171e-03 0.0 
5.991889594549e-05 6.298459723726e-03 0.0 
2.172652012015e-03 9.173154971257e-04 0.0 
6.627830437663e-05 -7.435739215682e-04 0.0 
1.939739029702e-03 6.664496643994e-04 0.0 
3.033326789317e-03 2.729278170978e-03 0.0 
1.842389548564e-03 4.507663845882e-04 0.0 
1.620655616418e-03 2.473486965053e-04 0.0 
1.427641580948e-04 1.676270389258e-03 0.0 
1.527386752007e-03 1.008153105501e-04 0.0 
1.984552258581e-05 7.865242159953e-04 0.0 
4.457997630539e-05 2.143779488876e-05 0.0 
8.038372128254e-05 8.262593594813e-03 0.0 
1.976416913001e-03 1.210647675620e-02 0.0 
-9.645150164804e-04 2.505129725049e-03 0.0 
2.371584684702e-03 1.068072518626e-02 0.0 
1.187081271621e-03 -1.038632814195e-04 0.0 
1.962434473135e-03 3.914848830519e-03 0.0 
1.669257391527e-04 8.218010798847e-03 0.0 
9.824430420839e-04 -2.518262104073e-04 0.0 
7.798921497854e-04 1.361552520504e-03 0.0 
5.559501877965e-04 4.320760825669e-04 0.0 
1.055063696361e-04 4.792716533064e-03 0.0 
1.633529811480e-03 8.034439201623e-04 0.0 
2.678576179541e-03 2.354114128926e-03 0.0 
2.947564162623e-05 2.471782155389e-03 0.0 
5.020222051344e-04 9.111907290524e-03 0.0 
-2.665899741884e-07 -2.958653250221e-04 0.0 
1.128843729725e-04 -1.254132900058e-04 0.0 
1.644917254097e-03 1.191031519904e-02 0.0 
1.939441756231e-03 1.022287738020e-02 0.0 
1.364762716032e-03 8.738176189817e-03 0.0 
2.584543345067e-04 -6.524592573627e-04 0.0 
1.746121650689e-04 2.007502613313e-04 0.0 
1.208075956459e-03 1.101716958236e-02 0.0 
1.028790388113e-03 5.099659451170e-04 0.0 
8.373747349882e-04 8.219175353744e-03 0.0 
2.157082660455e-03 1.849626469281e-03 0.0 
4.497486114047e-04 9.300895976432e-03 0.0 
3.583499384817e-04 1.592002306849e-03 0.0 
1.132603085104e-03 8.237177797543e-04 0.0 
2.229586535108e-04 5.397800174137e-05 0.0 
1.694032037215e-03 1.337234129770e-03 0.0 
3.983809434801e-04 6.403144041009e-03 0.0 
1.227346912075e-03 7.310613596047e-03 0.0 
9.740294542217e-04 1.131081019614e-03 0.0 
1.412487887585e-04 4.009117146924e-03 0.0 
1.629823010329e-04 3.819154362325e-05 0.0 
1.059736847258e-03 8.298168918565e-03 0.0 
8.652350850579e-05 1.562545987963e-03 0.0 
7.368273890085e-04 1.384814420637e-03 0.0 
4.421398800030e-05 1.516738691095e-03 0.0 
1.679592847966e-03 3.055606394052e-03 0.0 
3.357307196781e-04 7.019547837102e-03 0.0 
1.483204395672e-03 7.279202373167e-03 0.0 
1.226428415106e-04 2.778636937322e-05 0.0 
6.638130380464e-04 1.443266861993e-03 0.0 
-1.097123628490e-04 5.298095085650e-03 0.0 
1.657301292310e-04 4.894196488853e-03 0.0 
4.302721865854e-04 -5.214573576734e-04 0.0 
-3.476272276305e-04 1.554082528168e-03 0.0 
5.513139720761e-04 1.385515690841e-04 0.0 
1.346454903045e-03 2.245879190500e-03 0.0 
2.047138524452e-04 3.752732151829e-05 0.0 
1.971427440678e-05 -8.396026774534e-04 0.0 
3.353850569957e-05 -5.400073498128e-04 0.0 
6.152050931635e-04 1.823028102971e-04 0.0 
8.261758674191e-04 1.170602260478e-03 0.0 
8.956394665304e-04 9.107928598345e-04 0.0 
1.179105644752e-04 6.295955240985e-04 0.0 
-6.728139213358e-04 4.563508125396e-03 0.0 
6.877680936208e-04 9.226217912333e-03 0.0 
6.178171652704e-05 -7.091883939212e-04 0.0 
1.297493804809e-04 3.099451876381e-05 0.0 
2.083966456330e-04 1.491342399391e-03 0.0 
3.051048142053e-04 -4.802540251394e-04 0.0 
1.515248213576e-03 8.803882728879e-03 0.0 
1.529644177723e-04 -7.027632549091e-04 0.0 
1.447301757074e-03 1.396065275458e-03 0.0 
1.608903926725e-04 -2.074704351751e-04 0.0 
1.417815855246e-04 1.409046388699e-03 0.0 
7.070422586264e-04 2.480931986124e-04 0.0 
4.397596547880e-04 1.364854758302e-03 0.0 
4.204939544799e-04 2.295863245312e-04 0.0 
-5.401362977025e-04 2.956847849114e-03 0.0 
9.755117117988e-04 7.601048024659e-04 0.0 
1.184165894850e-03 4.792514170092e-04 0.0 
3.764587247185e-04 9.147474362142e-03 0.0 
5.648674349412e-04 1.439250277051e-03 0.0 
2.733290857346e-04 -6.030395754085e-04 0.0 
1.944336619582e-04 -7.433591091622e-04 0.0 
8.366151803656e-06 6.965469171184e-04 0.0 
3.201138697568e-06 -8.547456402036e-04 0.0 
6.350631159444e-05 9.135260941574e-03 0.0 
1.731570170070e-05 1.613601690479e-05 0.0 
1.171822798020e-04 -7.975204663747e-04 0.0 
1.310862610495e-04 7.531210531425e-03 0.0 
7.457516033003e-04 1.164901461324e-03 0.0 
8.260891915043e-05 -3.357012435651e-04 0.0 
6.852804832166e-05 3.102887559167e-03 0.0 
4.103029724907e-04 3.386224409695e-04 0.0 
-9.156064234483e-04 1.840622998231e-03 0.0 
1.022876027762e-04 5.802404054499e-03 0.0 
1.015796563267e-03 6.750816182585e-04 0.0 
3.350699111630e-04 1.320732425639e-03 0.0 
2.669461204469e-04 6.474845502169e-03 0.0 
4.486657268748e-04 4.638317846716e-03 0.0 
1.055372703962e-03 1.655309034032e-03 0.0 
3.276733986206e-04 -4.211822304253e-04 0.0 
1.334856475357e-03 1.548859231434e-03 0.0 
1.311340191105e-03 6.312082048830e-04 0.0 
-1.245325245289e-03 4.820364056898e-03 0.0 
7.257139077109e-05 -2.611334189966e-04 0.0 
4.834974039555e-05 -6.574211367890e-04 0.0 
3.701692874602e-04 7.914402166870e-05 0.0 
2.184446305007e-04 -3.968329759081e-04 0.0 
-6.924865786229e-04 1.229764494513e-02 0.0 
5.680496352712e-05 1.745215206881e-02 0.0 
4.970147049310e-04 1.299205997625e-02 0.0 
4.856785952351e-05 1.643756124511e-02 0.0 
1.289602677026e-03 1.336753075688e-02 0.0 
4.677530555057e-05 1.542603370827e-02 0.0 
1.630772402873e-03 1.318560893984e-02 0.0 
4.555318340250e-05 1.441613756071e-02 0.0 
1.784402058434e-03 1.266351109440e-02 0.0 
4.494148920316e-05 1.340656975849e-02 0.0 
1.809751174364e-03 1.199107183413e-02 0.0 
4.450451681191e-05 1.239706821026e-02 0.0 
1.740862300726e-03 1.119807905056e-02 0.0 
4.398204800646e-05 1.138744793064e-02 0.0 
1.604301788350e-03 1.033440322209e-02 0.0 
4.325715830937e-05 1.037782102570e-02 0.0 

VECTORS node_materi_displacement float
0.0 7.774855638212e-02 0.0 
0.0 8.304600430305e-02 0.0 
0.0 0.0 0.0 
0.0 0.0 0.0 
0.0 7.791203829145e-02 0.0 
0.0 7.757337607527e-02 0.0 
0.0 7.675282494840e-02 0.0 
0.0 7.545847220731e-02 0.0 
0.0 7.368226714719e-02 0.0 
0.0 7.146825902247e-02 0.0 
0.0 6.883930785299e-02 0.0 
0.0 6.580913703747e-02 0.0 
0.0 6.239474607859e-02 0.0 
0.0 5.860384306364e-02 0.0 
0.0 5.443458745363e-02 0.0 
0.0 4.989073076176e-02 0.0 
0.0 4.497857244410e-02 0.0 
0.0 3.970981596087e-02 0.0 
0.0 3.405255139716e-02 0.0 
0.0 2.801149895592e-02 0.0 
0.0 2.158648581821e-02 0.0 
0.0 1.477212417217e-02 0.0 
0.0 7.571106625269e-03 0.0 
0.0 0.0 0.0 
0.0 0.0 0.0 
0.0 0.0 0.0 
0.0 0.0 0.0 
0.0 0.0 0.0 
0.0 0.0 0.0 
0.0 0.0 0.0 
0.0 0.0 0.0 
0.0 0.0 0.0 
0.0 0.0 0.0 
0.0 0.0 0.0 
0.0 0.0 0.0 
0.0 0.0 0.0 
0.0 0.0 0.0 
0.0 0.0 0.0 
0.0 0.0 0.0 
0.0 0.0 0.0 
0.0 0.0 0.0 
0.0 0.0 0.0 
0.0 0.0 0.0 
0.0 0.0 0.0 
0.0 0.0 0.0 
0.0 0.0 0.0 
0.0 0.0 0.0 
0.0 0.0 0.0 
0.0 0.0 0.0 
0.0 0.0 0.0 
0.0 0.0 0.0 
0.0 0.0 0.0 
0.0 0.0 0.0 
0.0 0.0 0.0 
0.0 0.0 0.0 
0.0 0.0 0.0 
0.0 0.0 0.0 
0.0 0.0 0.0 
0.0 0.0 0.0 
0.0 0.0 0.0 
0.0 0.0 0.0 
0.0 0.0 0.0 
0.0 0.0 0.0 
0.0 0.0 0.0 
0.0 0.0 0.0 
0.0 0.0 0.0 
0.0 0.0 0.0 
0.0 0.0 0.0 
0.0 0.0 0.0 
0.0 0.0 0.0 
0.0 0.0 0.0 
0.0 0.0 0.0 
0.0 7.655606340738e-02 0.0 
0.0 6.964638382369e-02 0.0 
0.0 6.231710483262e-02 0.0 
0.0 5.458565592329e-02 0.0 
0.0 4.644836467034e-02 0.0 
0.0 3.791964322200e-02 0.0 
0.0 2.900396588514e-02 0.0 
0.0 1.970723697159e-02 0.0 
0.0 1.003831965654e-02 0.0 
-9.559869965030e-03 4.038366796978e-02 0.0 
7.781433476289e-03 8.058768374710e-02 0.0 
-3.004349519323e-03 6.217857167511e-02 0.0 
1.809839591802e-03 7.751380246968e-02 0.0 
5.696458277287e-03 8.657677975236e-02 0.0 
7.781962827573e-03 9.131096677784e-02 0.0 
8.913461117334e-03 9.341714910396e-02 0.0 
9.407750996012e-03 9.352621331329e-02 0.0 
9.444700814166e-03 9.204892720395e-02 0.0 
9.138093450358e-03 8.927062396378e-02 0.0 
8.561270695812e-03 8.539403185210e-02 0.0 
0.0 1.192698656078e-01 0.0 
0.0 1.162776887967e-01 0.0 
0.0 1.128345626093e-01 0.0 
0.0 1.089860466543e-01 0.0 
0.0 1.046607222900e-01 0.0 
0.0 9.992811974576e-02 0.0 
0.0 9.472062344523e-02 0.0 
0.0 8.911260961218e-02 0.0 
4.349774925437e-04 8.304553060565e-02 0.0 
8.590729619333e-04 8.304216504765e-02 0.0 
1.294340972343e-03 8.303369717578e-02 0.0 
1.737834335955e-03 8.301210564347e-02 0.0 
2.189043712005e-03 8.298998463899e-02 0.0 
2.652231274877e-03 8.294111007604e-02 0.0 
3.132938103378e-03 8.288074413454e-02 0.0 
3.624001165167e-03 8.278693574962e-02 0.0 
4.144636959074e-03 8.267247184706e-02 0.0 
4.688472525394e-03 8.250335691753e-02 0.0 
5.253441574779e-03 8.228175380678e-02 0.0 
5.845061026460e-03 8.199853350840e-02 0.0 
6.461567890738e-03 8.163252864523e-02 0.0 
7.105431137856e-03 8.116433471178e-02 0.0 
-7.210835864295e-03 2.805756031448e-02 0.0 
-3.646456228037e-03 2.212270869259e-02 0.0 
2.094019447341e-04 2.043791796919e-02 0.0 
4.296217726509e-03 2.318131425209e-02 0.0 
7.045411880489e-03 3.254411489178e-02 0.0 
8.322607955473e-03 4.343645100709e-02 0.0 
8.601129384787e-03 5.079972411509e-02 0.0 
8.392121405450e-03 5.654294516841e-02 0.0 
7.664531176337e-03 6.114768397627e-02 0.0 
6.959122870431e-03 6.484137099104e-02 0.0 
6.293329017016e-03 6.784521254102e-02 0.0 
5.584581676036e-03 7.023384613178e-02 0.0 
4.933471549473e-03 7.220143642572e-02 0.0 
4.179855321308e-03 7.379796279388e-02 0.0 
3.455275141196e-03 7.507669884358e-02 0.0 
2.774344631664e-03 7.606198986475e-02 0.0 
2.108790924431e-03 7.681953755104e-02 0.0 
1.444248446574e-03 7.736753712149e-02 0.0 
7.305998724523e-04 7.766777683095e-02 0.0 
6.202003767750e-04 8.621476335100e-02 0.0 
5.537070035185e-04 9.259323376889e-02 0.0 
5.373851630585e-04 9.762448549856e-02 0.0 
6.816287719552e-04 1.016956572165e-01 0.0 
1.000200226825e-03 1.050368998677e-01 0.0 
1.329028886158e-03 1.077647408296e-01 0.0 
1.622008402716e-03 1.100075650320e-01 0.0 
1.858474069385e-03 1.118543326390e-01 0.0 
2.071922588267e-03 1.133769521657e-01 0.0 
2.250774724793e-03 1.146255775594e-01 0.0 
2.389145785583e-03 1.156440259740e-01 0.0 
2.484282721416e-03 1.164691970987e-01 0.0 
2.535623416351e-03 1.171324590642e-01 0.0 
2.543936882673e-03 1.176606519863e-01 0.0 
2.511011550361e-03 1.180767932970e-01 0.0 
2.439298860228e-03 1.184005776849e-01 0.0 
2.331679314433e-03 1.186488488432e-01 0.0 
2.191291331031e-03 1.188359833390e-01 0.0 
2.021451043301e-03 1.189742232982e-01 0.0 
1.825626828076e-03 1.190739359389e-01 0.0 
1.607472607864e-03 1.191438340849e-01 0.0 
1.370938370599e-03 1.191911738740e-01 0.0 
1.120493129534e-03 1.192219530472e-01 0.0 
8.614909347281e-04 1.192412520144e-01 0.0 
6.005490492686e-04 1.192555901696e-01 0.0 
3.397218692694e-04 1.192950090575e-01 0.0 
4.889420442984e-03 9.223426484397e-02 0.0 
4.382870323889e-03 9.674210570852e-02 0.0 
4.044723826947e-03 1.004294839769e-01 0.0 
3.833907617618e-03 1.034485168114e-01 0.0 
3.702122408319e-03 1.059142885196e-01 0.0 
3.614819415017e-03 1.079464231626e-01 0.0 
3.551847829831e-03 1.096269471869e-01 0.0 
3.498793724919e-03 1.110106580824e-01 0.0 
3.444076990684e-03 1.121432026380e-01 0.0 
3.379800343843e-03 1.130651649920e-01 0.0 
3.300365859118e-03 1.138100910925e-01 0.0 
3.202314050007e-03 1.144069423934e-01 0.0 
3.083655042944e-03 1.148803531876e-01 0.0 
2.943569166783e-03 1.152515185822e-01 0.0 
2.782111395051e-03 1.155385784772e-01 0.0 
2.600006935097e-03 1.157570869876e-01 0.0 
2.398463017358e-03 1.159203273424e-01 0.0 
2.179045880171e-03 1.160396247304e-01 0.0 
1.943602221959e-03 1.161246029371e-01 0.0 
1.694208393574e-03 1.161834039982e-01 0.0 
1.433116663041e-03 1.162228797970e-01 0.0 
1.162651251111e-03 1.162487435000e-01 0.0 
8.848797978598e-04 1.162655234644e-01 0.0 
6.001780666092e-04 1.162745221660e-01 0.0 
3.022039490892e-04 1.162530755033e-01 0.0 
3.214786790851e-04 1.128666756076e-01 0.0 
6.423399070175e-04 1.128491219438e-01 0.0 
9.578686275903e-04 1.128414736709e-01 0.0 
1.268243053600e-03 1.128271929558e-01 0.0 
1.573312583003e-03 1.128031959582e-01 0.0 
1.872407970254e-03 1.127650087998e-01 0.0 
2.164611396936e-03 1.127066935856e-01 0.0 
2.448977448066e-03 1.126208943032e-01 0.0 
2.724719534510e-03 1.124987257071e-01 0.0 
2.991332028579e-03 1.123296091783e-01 0.0 
3.248704415358e-03 1.121010300216e-01 0.0 
3.497238208886e-03 1.117982399428e-01 0.0 
3.737999690157e-03 1.114038703062e-01 0.0 
3.973038433951e-03 1.108976105298e-01 0.0 
4.205459622813e-03 1.102556730076e-01 0.0 
4.440002362031e-03 1.094503695820e-01 0.0 
4.682717386861e-03 1.084488102570e-01 0.0 
4.942917535934e-03 1.072132623550e-01 0.0 
5.230595733923e-03 1.056969749872e-01 0.0 
5.563308855745e-03 1.038491718409e-01 0.0 
5.958474050949e-03 1.015911883082e-01 0.0 
6.452459605424e-03 9.884597285210e-02 0.0 
7.029779538807e-03 9.547468756227e-02 0.0 
8.196126778710e-03 9.639596487321e-02 0.0 
7.590809278939e-03 9.885633413226e-02 0.0 
7.033164428673e-03 1.008674644687e-01 0.0 
6.542495981928e-03 1.025358411786e-01 0.0 
6.097015717902e-03 1.039001862541e-01 0.0 
5.689846536462e-03 1.050176917390e-01 0.0 
5.309855703644e-03 1.059225094964e-01 0.0 
4.950581571966e-03 1.066512673303e-01 0.0 
4.605697714147e-03 1.072316963673e-01 0.0 
4.270612301231e-03 1.076892760722e-01 0.0 
3.941589857683e-03 1.080451794381e-01 0.0 
3.616094326701e-03 1.083180725251e-01 0.0 
3.292250961433e-03 1.085236787310e-01 0.0 
2.968707584667e-03 1.086754038594e-01 0.0 
2.644572410124e-03 1.087846626073e-01 0.0 
2.319320732420e-03 1.088610960096e-01 0.0 
1.992722652156e-03 1.089127870833e-01 0.0 
1.664617810911e-03 1.089462715525e-01 0.0 
1.334809611501e-03 1.089666841304e-01 0.0 
1.003005996998e-03 1.089777023043e-01 0.0 
6.691342350548e-04 1.089805010424e-01 0.0 
3.345313176480e-04 1.089565726014e-01 0.0 
3.650284751334e-04 1.046914902908e-01 0.0 
7.305934002581e-04 1.046722140572e-01 0.0 
1.096674050425e-03 1.046672005293e-01 0.0 
1.463562534669e-03 1.046559346363e-01 0.0 
1.831951783680e-03 1.046344747163e-01 0.0 
2.202708191572e-03 1.045986708960e-01 0.0 
2.576810837955e-03 1.045429944913e-01 0.0 
2.955175180824e-03 1.044604711831e-01 0.0 
3.338898726541e-03 1.043421484769e-01 0.0 
3.729481512857e-03 1.041773663882e-01 0.0 
4.128862621363e-03 1.039534554486e-01 0.0 
4.539294255756e-03 1.036556557219e-01 0.0 
4.963410979403e-03 1.032666261809e-01 0.0 
5.404284062613e-03 1.027651319702e-01 0.0 
5.867105811837e-03 1.021278227668e-01 0.0 
6.355876321120e-03 1.013259924835e-01 0.0 
6.878955700527e-03 1.003307352840e-01 0.0 
7.437674492787e-03 9.909753422874e-02 0.0 
8.048564674428e-03 9.759905949832e-02 0.0 
8.690252574205e-03 9.575755428626e-02 0.0 
8.753791398061e-03 9.364305641174e-02 0.0 
8.114718215445e-03 9.497028506489e-02 0.0 
7.490794218428e-03 9.604218181647e-02 0.0 
6.907693949699e-03 9.692722112951e-02 0.0 
6.354510402898e-03 9.763581329288e-02 0.0 
5.831309855343e-03 9.820425438107e-02 0.0 
5.331700340328e-03 9.865046283932e-02 0.0 
4.853552047131e-03 9.899867331474e-02 0.0 
4.394100976412e-03 9.926642098649e-02 0.0 
3.951025861501e-03 9.946859454145e-02 0.0 
3.521919544083e-03 9.961791936576e-02 0.0 
3.104252182889e-03 9.972560165556e-02 0.0 
2.696567854489e-03 9.980142812984e-02 0.0 
2.297399266348e-03 9.985331304718e-02 0.0 
1.905195000179e-03 9.988699244744e-02 0.0 
1.518390626871e-03 9.990735448725e-02 0.0 
1.135738963420e-03 9.991806274546e-02 0.0 
7.558423581320e-04 9.992086612910e-02 0.0 
3.776405761609e-04 9.989807839775e-02 0.0 
4.065649101395e-04 9.474933665499e-02 0.0 
8.140926324326e-04 9.472969149221e-02 0.0 
1.223932207283e-03 9.472401834166e-02 0.0 
1.639203427430e-03 9.471068737977e-02 0.0 
2.060879652366e-03 9.468694324433e-02 0.0 
2.491759666782e-03 9.464791604979e-02 0.0 
2.933294886579e-03 9.458888096259e-02 0.0 
3.388693739654e-03 9.450345584891e-02 0.0 
3.858206173446e-03 9.438408159025e-02 0.0 
4.345196418827e-03 9.421775291507e-02 0.0 
4.852775788979e-03 9.399307133848e-02 0.0 
5.382611409209e-03 9.369716973785e-02 0.0 
5.937414413630e-03 9.331319943104e-02 0.0 
6.520203567336e-03 9.282339724896e-02 0.0 
7.128854346992e-03 9.219511576277e-02 0.0 
7.776417841253e-03 9.142036274011e-02 0.0 
8.436926810370e-03 9.044732688080e-02 0.0 
7.892567819534e-03 8.620815525294e-02 0.0 
7.258116590746e-03 8.688978694511e-02 0.0 
6.630248888434e-03 8.741459290379e-02 0.0 
6.034684716772e-03 8.783984555540e-02 0.0 
5.466475548553e-03 8.817392320829e-02 0.0 
4.922592675612e-03 8.843299058119e-02 0.0 
4.402185487079e-03 8.863317158224e-02 0.0 
3.903880602662e-03 8.878159821085e-02 0.0 
3.422834808899e-03 8.888666529984e-02 0.0 
2.960623163263e-03 8.896777099938e-02 0.0 
2.511552917934e-03 8.902226838225e-02 0.0 
2.076389447963e-03 8.906110946787e-02 0.0 
1.649368641507e-03 8.908321305692e-02 0.0 
1.231601140715e-03 8.909810910378e-02 0.0 
8.202006716144e-04 8.910117120292e-02 0.0 
4.075533033690e-04 8.907740745770e-02 0.0 
-5.930505074044e-03 5.275588734019e-02 0.0 
-3.766906004588e-04 7.045268392824e-02 0.0 
4.054563614884e-03 8.266805732561e-02 0.0 
6.937129465422e-03 8.933398458453e-02 0.0 
8.473780422558e-03 9.264497964520e-02 0.0 
9.237871760764e-03 9.368026888193e-02 0.0 
9.484437425220e-03 9.296110977441e-02 0.0 
9.336675165936e-03 9.080764839278e-02 0.0 
8.887042183667e-03 8.745801579237e-02 0.0 
8.199182582878e-03 8.309781578415e-02 0.0 
5.271266501996e-03 6.913830801926e-02 0.0 
1.041439922226e-03 6.174997027717e-03 0.0 
4.225290266088e-03 6.312111186742e-02 0.0 
1.034179210368e-03 2.954573664330e-02 0.0 
1.045685475810e-04 6.176401125261e-03 0.0 
9.627920781452e-03 8.637619725972e-02 0.0 
-3.123500353220e-04 5.642455152391e-02 0.0 
1.850007304617e-03 6.545479611630e-03 0.0 
1.058613948389e-02 8.962004940644e-02 0.0 
2.207123393716e-03 6.927817353939e-03 0.0 
9.998864574916e-03 8.600193286171e-02 0.0 
-2.092260557005e-04 5.865383950219e-03 0.0 
3.182334628560e-03 7.330939149870e-02 0.0 
2.152398164769e-03 7.623579209597e-03 0.0 
8.409333030200e-03 7.748361423709e-02 0.0 
-2.412151703971e-04 7.004213031938e-02 0.0 
-2.695860916244e-04 4.342164510547e-02 0.0 
1.944074689314e-03 8.329685835702e-03 0.0 
1.359479071686e-03 8.273706675512e-03 0.0 
4.220089622413e-04 8.584988480402e-03 0.0 
7.558028205493e-04 9.269181421992e-03 0.0 
9.860697975828e-04 8.223057619527e-03 0.0 
6.828678683674e-03 7.572972821511e-02 0.0 
4.454212651581e-03 7.674916970495e-02 0.0 
2.911130785032e-03 7.691429386071e-02 0.0 
2.887459859344e-04 5.044337160001e-02 0.0 
-2.326408385078e-04 6.497117025357e-03 0.0 
-1.316317318179e-03 2.812156895175e-02 0.0 
1.789456512153e-03 7.657810140401e-02 0.0 
-1.738528503210e-04 2.532043623358e-02 0.0 
1.489208190821e-03 7.746488804418e-02 0.0 
3.702914027752e-05 7.609942718748e-02 0.0 
1.852304791615e-03 9.390762400680e-03 0.0 
1.934674239039e-03 6.199046817203e-03 0.0 
2.203552931035e-03 7.181971967940e-03 0.0 
1.585205671929e-03 6.703771076303e-03 0.0 
5.786087981780e-04 5.824069338867e-03 0.0 
3.028862666062e-03 4.716850586117e-02 0.0 
5.592194846838e-03 7.671658779521e-02 0.0 
-1.348641897071e-04 7.153517082742e-03 0.0 
2.135154042506e-04 3.389187124445e-02 0.0 
3.894442897731e-03 6.916223757367e-02 0.0 
-3.111931634317e-04 6.407579728352e-02 0.0 
2.094139308205e-04 6.999580831217e-03 0.0 
1.041465976908e-02 8.880993600932e-02 0.0 
8.184334241215e-03 8.033996349182e-02 0.0 
1.044557541183e-02 8.853062025840e-02 0.0 
9.302012550400e-03 8.226156271581e-02 0.0 
4.349265106872e-04 5.260206933339e-02 0.0 
3.477356307771e-04 6.515819100909e-02 0.0 
-1.172986316925e-04 5.192480169469e-03 0.0 
8.227632824980e-04 7.767628498111e-02 0.0 
1.162215985381e-04 1.565048251409e-02 0.0 
8.002208476087e-03 7.462363366722e-02 0.0 
8.470825302551e-03 7.144877381876e-02 0.0 
7.783021495091e-03 6.894545157317e-02 0.0 
8.322875780888e-03 6.511899663750e-02 0.0 
7.643209249159e-03 6.180978310072e-02 0.0 
8.022979403905e-03 5.826435989431e-02 0.0 
8.764661102213e-03 6.152129986842e-02 0.0 
8.340866201552e-03 5.462969013098e-02 0.0 
9.134045804074e-03 5.789343848026e-02 0.0 
7.264997515497e-03 5.469452888992e-02 0.0 
8.574645483013e-03 5.091737995201e-02 0.0 
9.414282329226e-03 5.417837429279e-02 0.0 
8.712829334517e-03 4.715638161086e-02 0.0 
9.586704451052e-03 5.039247239747e-02 0.0 
1.022122995790e-02 5.716174608233e-02 0.0 
1.042366177058e-02 5.336479987141e-02 0.0 
1.098310264006e-02 5.982588421134e-02 0.0 
1.120724367786e-02 5.599409665898e-02 0.0 
1.049668363591e-02 4.954402234751e-02 0.0 
1.128773754638e-02 5.214834180880e-02 0.0 
1.192783100549e-02 5.826652901481e-02 0.0 
1.200129755534e-02 5.437911281401e-02 0.0 
1.257339528735e-02 6.014471306312e-02 0.0 
1.262320163553e-02 5.618922929606e-02 0.0 
1.313792825767e-02 6.160790686915e-02 0.0 
1.314479267864e-02 5.757758392605e-02 0.0 
1.248121648254e-02 5.227560225616e-02 0.0 
1.294043107293e-02 5.363034142499e-02 0.0 
1.354779731427e-02 5.850947453483e-02 0.0 
1.325855250447e-02 5.453340549213e-02 0.0 
1.381413393019e-02 5.896069815173e-02 0.0 
1.341370999932e-02 5.496645036705e-02 0.0 
1.274205720696e-02 5.071881931695e-02 0.0 
1.277307907384e-02 5.120318555625e-02 0.0 
1.338146524653e-02 5.492724303807e-02 0.0 
1.259416914310e-02 5.126273458933e-02 0.0 
1.313243554586e-02 5.441929581373e-02 0.0 
1.217920221669e-02 5.091907483119e-02 0.0 
1.263600655140e-02 5.345859158495e-02 0.0 
1.149612664814e-02 5.021076314774e-02 0.0 
1.102999619036e-02 4.781739600938e-02 0.0 
1.018818974706e-02 4.744082560362e-02 0.0 
1.052154462078e-02 4.921361833401e-02 0.0 
9.071220649152e-03 4.689697717944e-02 0.0 
8.796436177648e-03 4.514573930816e-02 0.0 
7.594341113390e-03 4.510193328383e-02 0.0 
7.391391485228e-03 4.326326954462e-02 0.0 
6.161947852029e-03 4.372700641010e-02 0.0 
6.179732226046e-03 4.509965323916e-02 0.0 
4.771247527862e-03 4.429240209637e-02 0.0 
4.828833470293e-03 4.265760573883e-02 0.0 
3.508813494007e-03 4.375403416004e-02 0.0 
3.269587681645e-03 4.509011998205e-02 0.0 
2.147989057508e-03 4.507076311852e-02 0.0 
2.420825765226e-03 4.334060804466e-02 0.0 
1.213384249123e-03 4.510602669167e-02 0.0 
8.179556720137e-04 4.669181161374e-02 0.0 
8.102318001783e-05 4.711790193374e-02 0.0 
4.684124604260e-04 4.505819411157e-02 0.0 
-4.819946798912e-04 4.740362464245e-02 0.0 
-9.157335749102e-04 4.940785036113e-02 0.0 
-1.277471735805e-03 4.992417897488e-02 0.0 
-8.893071375794e-04 4.746020622531e-02 0.0 
-1.514051359325e-03 5.018376703660e-02 0.0 
-1.171975494934e-03 4.728564992648e-02 0.0 
-1.891198445281e-03 5.266565090575e-02 0.0 
-1.962941447405e-03 5.301742180066e-02 0.0 
-2.284487451007e-03 5.555017075060e-02 0.0 
-2.220324949256e-03 5.591562912153e-02 0.0 
1.201820293618e-02 4.710801890160e-02 0.0 
-2.441354469276e-03 5.845803311977e-02 0.0 
-2.558111083857e-03 5.768595714628e-02 0.0 
-2.285313243472e-03 5.881038862201e-02 0.0 
-2.105437428156e-03 5.594024953688e-02 0.0 
-2.383268637188e-03 6.134624259020e-02 0.0 
-2.177477560674e-03 6.164011823980e-02 0.0 
-2.143268752528e-03 6.413776802541e-02 0.0 
1.354129474661e-02 5.728729082968e-02 0.0 
1.042506445316e-02 4.571690113383e-02 0.0 
-1.929631891791e-03 6.434327890397e-02 0.0 
-1.771024248946e-03 6.676140588652e-02 0.0 
-1.938467705680e-03 6.631453065771e-02 0.0 
-1.426980860385e-03 6.883747816387e-02 0.0 
6.933059084189e-03 5.834694151253e-02 0.0 
6.487744258752e-03 5.090128029896e-02 0.0 
6.211881747537e-03 5.464831184003e-02 0.0 
5.701220923090e-03 4.693287786686e-02 0.0 
5.479965042186e-03 5.070266454513e-02 0.0 
-1.326179505418e-03 6.915965099422e-02 0.0 
7.804576470163e-03 4.346425716533e-02 0.0 
5.854955114328e-03 4.304200626843e-02 0.0 
1.234330477553e-02 6.410843855446e-02 0.0 
1.395484614025e-02 6.312746942500e-02 0.0 
8.412696398901e-03 4.279756717876e-02 0.0 
-1.950425306312e-03 6.158580422233e-02 0.0 
-1.697127811531e-03 6.421527664077e-02 0.0 
-1.699913563230e-03 6.120984446247e-02 0.0 
-5.629295554584e-04 4.452772606798e-02 0.0 
-8.820737407501e-04 4.395828275603e-02 0.0 
-3.116315050168e-04 4.112605192730e-02 0.0 
-6.528343361630e-04 4.018596820495e-02 0.0 
-1.380518608950e-04 3.725048719203e-02 0.0 
-4.851148182158e-04 3.595636835239e-02 0.0 
-8.824833124847e-04 3.903806510143e-02 0.0 
-7.194692645487e-04 3.446492024318e-02 0.0 
-1.013664887196e-03 3.767220628968e-02 0.0 
-3.680397148186e-05 3.289693956578e-02 0.0 
4.230492085905e-04 3.436016019551e-02 0.0 
-8.542080537133e-04 3.277383060690e-02 0.0 
-1.059257542854e-03 3.608445037583e-02 0.0 
-9.026689676914e-04 3.087767846190e-02 0.0 
-1.032358994592e-03 3.428007056177e-02 0.0 
-1.196463943495e-03 3.936715776750e-02 0.0 
-1.098107567929e-03 3.763528015233e-02 0.0 
-1.257123230694e-03 4.260004649838e-02 0.0 
7.071620066775e-03 4.081010162002e-02 0.0 
7.917020966878e-03 3.986553639495e-02 0.0 
6.633596952878e-03 3.776445254060e-02 0.0 
7.300598259975e-03 3.636604188401e-02 0.0 
6.074846406852e-03 3.414243059439e-02 0.0 
6.560401011389e-03 3.231439744392e-02 0.0 
5.394320496534e-03 2.995694603331e-02 0.0 
4.905256381981e-03 3.206696503509e-02 0.0 
8.748302551176e-03 4.331518132034e-02 0.0 
9.233854605095e-03 4.802884952447e-02 0.0 
1.074074145832e-02 5.041138124700e-02 0.0 
9.282546935301e-03 4.851475428401e-02 0.0 
1.083369953992e-02 5.101388227724e-02 0.0 
9.205968440039e-03 4.831160195240e-02 0.0 
1.078849624686e-02 5.101362506551e-02 0.0 
8.999349283189e-03 4.738300099671e-02 0.0 
7.198368234744e-03 4.563900183771e-02 0.0 
6.770036019483e-03 4.378224162340e-02 0.0 
4.851409272466e-03 4.333062451789e-02 0.0 
4.179687112065e-03 4.069193957479e-02 0.0 
2.313701206345e-03 4.177361770925e-02 0.0 
1.214529667855e-02 4.845010621214e-02 0.0 
7.757041498211e-03 3.481792578684e-02 0.0 
6.837921471173e-03 3.031654136731e-02 0.0 
7.988579057483e-03 3.305806205334e-02 0.0 
-1.499512879134e-03 6.816947127913e-02 0.0 
-9.467175960334e-04 3.226507754809e-02 0.0 
4.332593559524e-04 2.985414772397e-02 0.0 
9.924222171580e-04 3.154786708108e-02 0.0 
4.292813243816e-03 2.769991439359e-02 0.0 
-8.855979365942e-04 7.108142592511e-02 0.0 
1.057669706982e-02 5.042215306034e-02 0.0 
1.204572505631e-02 5.480594159550e-02 0.0 
4.921552610330e-03 4.271587702712e-02 0.0 
4.756622290638e-03 4.654668746048e-02 0.0 
8.911139633788e-04 2.682465292959e-02 0.0 
-8.679160808084e-04 7.129487762979e-02 0.0 
-5.962691399602e-04 2.944611021479e-02 0.0 
6.163357787830e-03 4.099014332353e-02 0.0 
-9.543696735650e-04 3.569018042422e-02 0.0 
-8.163096659358e-04 3.005536854553e-02 0.0 
-1.204591766706e-03 4.212164788780e-02 0.0 
6.894848762879e-03 2.809736148012e-02 0.0 
8.010241385954e-03 3.111725957847e-02 0.0 
3.117806554109e-03 4.392629054278e-02 0.0 
8.083913241533e-04 4.367358808439e-02 0.0 
-1.739905845699e-04 4.135431817017e-02 0.0 
-1.253113877793e-03 4.465873874753e-02 0.0 
-3.086256755214e-04 4.597545772834e-02 0.0 
-1.940267689187e-03 4.768654520055e-02 0.0 
-2.724780798469e-03 4.668461836290e-02 0.0 
-3.016851565711e-03 5.030166237070e-02 0.0 
-2.343912159334e-03 5.051596590002e-02 0.0 
-3.056273192808e-03 5.342048137401e-02 0.0 
-3.338164249112e-03 5.362592618767e-02 0.0 
-3.167820469025e-03 5.675653254093e-02 0.0 
-7.977698945822e-04 2.647867611271e-02 0.0 
3.351524231572e-03 3.713660374754e-02 0.0 
1.063147770823e-02 6.359895413852e-02 0.0 
3.791037537073e-04 2.484198679967e-02 0.0 
4.606850048608e-03 2.528323208216e-02 0.0 
4.160453524858e-03 3.829957009223e-02 0.0 
4.050291298208e-03 4.219724824479e-02 0.0 
4.534931109831e-03 5.034025588413e-02 0.0 
3.879147789107e-03 4.603640352565e-02 0.0 
3.370331544693e-03 3.765973868611e-02 0.0 
3.249179804263e-03 4.157068926947e-02 0.0 
3.657070939617e-03 4.981536021143e-02 0.0 
3.073423209859e-03 4.541334879688e-02 0.0 
3.392773080266e-03 5.351424589924e-02 0.0 
2.852057264088e-03 4.917735223046e-02 0.0 
2.520919092411e-03 4.085343984534e-02 0.0 
2.339674130127e-03 4.469749658089e-02 0.0 
2.593215735611e-03 5.286473142651e-02 0.0 
2.116234428908e-03 4.846330473043e-02 0.0 
2.302874814888e-03 5.646474269367e-02 0.0 
1.857128652234e-03 5.214478345130e-02 0.0 
1.672290480599e-03 4.392585214241e-02 0.0 
-4.046313271420e-04 7.293873381792e-02 0.0 
3.823303285445e-03 3.008678585386e-02 0.0 
3.283145496218e-03 2.549432043902e-02 0.0 
-1.451671465369e-03 6.374393281683e-02 0.0 
-1.434760505561e-03 6.050156545534e-02 0.0 
-1.633042503219e-03 5.784082938068e-02 0.0 
-1.364952805310e-03 5.692986990514e-02 0.0 
1.438505526171e-03 4.773121302839e-02 0.0 
1.264024779009e-03 3.926428847151e-02 0.0 
1.168011757008e-02 5.482200711277e-02 0.0 
1.278834358667e-02 5.966904192609e-02 0.0 
4.198678632761e-03 3.434445525134e-02 0.0 
-7.778257245792e-04 3.354642201636e-02 0.0 
-8.987900653005e-04 3.902952063801e-02 0.0 
1.417623243621e-02 6.311190699607e-02 0.0 
1.413788101412e-02 6.748313966946e-02 0.0 
1.431642862287e-02 6.702647214199e-02 0.0 
1.406092851437e-02 7.169394284730e-02 0.0 
1.381915227223e-02 7.193247405718e-02 0.0 
1.418629644240e-02 7.080228113830e-02 0.0 
1.012235713439e-03 3.574721560069e-02 0.0 
2.007352052038e-03 3.615055425383e-02 0.0 
-2.095295822837e-03 6.549191649164e-02 0.0 
-1.543061592311e-03 6.713665236200e-02 0.0 
-6.552190155211e-04 2.766582942975e-02 0.0 
4.249967032851e-03 3.410724433305e-02 0.0 
1.161771102661e-02 4.666536959530e-02 0.0 
1.116100341223e-02 4.291991144699e-02 0.0 
1.055014184553e-02 4.070250763790e-02 0.0 
9.981908529157e-03 3.702308845137e-02 0.0 
9.271911094869e-03 3.437262927439e-02 0.0 
8.595774721917e-03 3.074267110429e-02 0.0 
9.265808239411e-03 3.345315371346e-02 0.0 
6.720041201976e-03 2.558771590212e-02 0.0 
7.789777559029e-03 2.719501390249e-02 0.0 
1.594719065087e-03 5.580847583098e-02 0.0 
8.946053912143e-03 3.754989549280e-02 0.0 
-2.548344547491e-03 5.294573449340e-02 0.0 
-2.725164800321e-04 7.250530492913e-02 0.0 
-2.804905446623e-03 5.739806187202e-02 0.0 
-4.572019024943e-04 7.311520975381e-02 0.0 
-7.949693152497e-04 7.119863430026e-02 0.0 
7.236859088170e-04 2.160228020526e-02 0.0 
7.767301545679e-03 2.766032101287e-02 0.0 
8.425237736977e-03 3.135536601610e-02 0.0 
1.349831038943e-02 7.638266304287e-02 0.0 
1.324686174413e-02 7.635305084538e-02 0.0 
5.641578161800e-03 2.262052515980e-02 0.0 
5.880184618046e-03 5.838601651951e-02 0.0 
3.954123601985e-03 5.770075998850e-02 0.0 
3.614376636854e-03 6.124039091082e-02 0.0 
4.313318392567e-05 7.460986308154e-02 0.0 
-2.872237740742e-03 5.368308541297e-02 0.0 
2.727922712381e-03 3.296013645417e-02 0.0 
1.309281881570e-02 5.867089904321e-02 0.0 
1.351997260678e-02 6.372006763905e-02 0.0 
5.086090208363e-03 3.757829806014e-02 0.0 
2.407032607404e-03 3.314001492340e-02 0.0 
1.066612853268e-03 4.306336080170e-02 0.0 
9.099132099293e-04 3.446676253406e-02 0.0 
-1.519784385539e-03 5.412520281817e-02 0.0 
-1.260565014280e-03 5.296514541999e-02 0.0 
1.304395741375e-03 2.376511229803e-02 0.0 
-2.666889353329e-03 6.025292120364e-02 0.0 
1.041217227365e-03 3.043315359123e-02 0.0 
3.210896584919e-03 3.240845316378e-02 0.0 
3.459612449566e-03 3.612892132620e-02 0.0 
-1.135503705668e-03 5.959966439248e-02 0.0 
1.208002778345e-02 6.043681372115e-02 0.0 
1.078172953012e-02 5.455061134309e-02 0.0 
-1.636807046543e-03 5.033824370155e-02 0.0 
-2.947116605747e-03 5.919983661595e-02 0.0 
-4.453851421571e-04 7.295051738589e-02 0.0 
9.994555531665e-04 1.831243302943e-02 0.0 
2.734868971344e-03 2.891765092932e-02 0.0 
8.424646725114e-03 3.000947985686e-02 0.0 
9.769461430972e-03 3.582077027392e-02 0.0 
6.881500650963e-03 2.376659754901e-02 0.0 
-1.695088742790e-03 6.112574978805e-02 0.0 
2.789082571407e-04 1.931288470518e-02 0.0 
-5.808705192677e-04 3.122234962746e-02 0.0 
6.871746706045e-03 2.455982722956e-02 0.0 
7.455348006334e-03 2.799188070021e-02 0.0 
1.377947289208e-02 6.188141310988e-02 0.0 
1.396074546592e-02 6.695504386408e-02 0.0 
1.335819302501e-02 6.939580586458e-02 0.0 
1.361572216020e-02 7.238201753103e-02 0.0 
9.479800675453e-03 6.455710171541e-02 0.0 
1.417669037056e-02 6.438379818398e-02 0.0 
1.131583260901e-02 6.597134927856e-02 0.0 
1.082564466563e-02 6.970435115965e-02 0.0 
1.142056259974e-02 7.180129650515e-02 0.0 
1.347838850249e-02 7.167412742457e-02 0.0 
1.289674382692e-02 7.587669273710e-02 0.0 
1.208179083613e-02 5.352224078027e-02 0.0 
9.210019128694e-03 4.223099676710e-02 0.0 
-1.749207408299e-03 5.501523154539e-02 0.0 
-1.374745586667e-03 4.402581891398e-02 0.0 
1.548310207146e-04 4.187270909004e-02 0.0 
2.098952955100e-03 3.215653508227e-02 0.0 
1.594914845875e-03 2.722863225452e-02 0.0 
2.771746639902e-03 6.064710415217e-02 0.0 
2.426962021324e-03 6.407468701511e-02 0.0 
-7.591302086009e-04 6.968627648719e-02 0.0 
-6.109372779010e-04 6.843412738164e-02 0.0 
-1.347401940703e-03 4.685604722277e-02 0.0 
-3.252591516767e-06 2.272448759867e-02 0.0 
3.410580419782e-03 2.968049384284e-02 0.0 
3.306866626841e-03 2.560028689745e-02 0.0 
4.152550706689e-03 3.032509837843e-02 0.0 
1.633463887338e-03 2.065204127453e-02 0.0 
7.654997743201e-03 4.682671573474e-02 0.0 
5.778122958540e-03 3.908843701769e-02 0.0 
8.399381272678e-04 3.483862725150e-02 0.0 
1.191345150067e-02 4.613577213005e-02 0.0 
3.377292469631e-04 7.081969438508e-02 0.0 
9.567735504527e-03 4.281054957052e-02 0.0 
-4.780728888997e-04 2.511115836524e-02 0.0 
-5.253803784043e-04 2.138090578396e-02 0.0 
5.287335126906e-03 1.969684045999e-02 0.0 
9.039174864789e-03 7.422700634064e-02 0.0 
1.112107115864e-02 4.263465627000e-02 0.0 
1.112300317505e-02 4.374817523534e-02 0.0 
1.080508672241e-02 7.545614521569e-02 0.0 
1.130110347369e-02 7.729751010125e-02 0.0 
1.195867327059e-02 7.354523384503e-02 0.0 
1.173527357541e-02 7.882851158057e-02 0.0 
-1.974103136400e-03 5.212958935800e-02 0.0 
-2.624393602296e-03 5.491548242872e-02 0.0 
5.957824945257e-03 2.033459333220e-02 0.0 
6.148511326023e-03 2.073365337801e-02 0.0 
5.826833672229e-03 2.100475039358e-02 0.0 
6.379463263456e-03 2.425621159901e-02 0.0 
4.229073468727e-03 1.664702318034e-02 0.0 
4.566304318418e-03 1.973523812279e-02 0.0 
-6.648800470442e-04 7.081792017209e-02 0.0 
1.247752305018e-02 8.057211511044e-02 0.0 
2.091582349320e-03 2.397659532697e-02 0.0 
1.025939504400e-02 7.333528021637e-02 0.0 
-3.202707796887e-05 1.704794279963e-02 0.0 
-2.616703730369e-04 2.046681055522e-02 0.0 
3.481680409479e-04 3.057366780882e-02 0.0 
-1.168566324864e-03 3.496816652689e-02 0.0 
7.175935212474e-04 2.562252350070e-02 0.0 
1.261741126434e-02 7.528126154406e-02 0.0 
1.279890736642e-02 7.785607863826e-02 0.0 
1.228713005460e-02 7.167081506585e-02 0.0 
-8.569681761965e-05 1.124603707733e-02 0.0 
6.428909752904e-04 7.757324328898e-02 0.0 
-3.663303679806e-04 1.860855621527e-02 0.0 
1.303068105786e-02 7.089809852756e-02 0.0 
7.642654529429e-04 2.106462193695e-02 0.0 
1.019765906320e-02 3.937021714601e-02 0.0 
1.424734648457e-02 6.260429656916e-02 0.0 
2.024271029724e-03 2.583378651187e-02 0.0 
5.846222161296e-04 3.048784200980e-02 0.0 
4.324276366906e-04 2.029539407262e-02 0.0 
4.135210819251e-03 6.508545703557e-02 0.0 
3.746528159540e-03 6.857960768471e-02 0.0 
4.528337331895e-03 6.171878605600e-02 0.0 
7.831278645140e-03 4.339512888304e-02 0.0 
6.196031777095e-03 4.095804308711e-02 0.0 
1.539330044684e-03 3.130954291150e-02 0.0 
-1.370036801922e-03 6.665203206633e-02 0.0 
-1.119029847798e-03 6.586918650326e-02 0.0 
-2.447891559883e-03 6.249405296438e-02 0.0 
-2.739104681873e-03 6.111395677937e-02 0.0 
-1.590990769117e-03 5.121755454910e-02 0.0 
-1.760483530915e-03 5.209808697565e-02 0.0 
9.337038498796e-03 3.895661777955e-02 0.0 
8.407173823490e-03 3.576220304959e-02 0.0 
1.096239401930e-02 4.449583023766e-02 0.0 
2.490841961453e-03 3.471933870868e-02 0.0 
2.575407823139e-03 3.818534315921e-02 0.0 
3.603893500404e-03 3.925858780908e-02 0.0 
1.607004285733e-03 2.338213325795e-02 0.0 
1.078212694452e-03 1.746448287480e-02 0.0 
-9.702878221806e-04 4.969853451402e-02 0.0 
-3.393790919515e-04 4.824635235713e-02 0.0 
-2.179198611045e-03 5.360559195262e-02 0.0 
1.981744652572e-03 1.996721105031e-02 0.0 
-3.846540402136e-04 1.488706370477e-02 0.0 
-5.248001351141e-04 1.780412653213e-02 0.0 
7.402074009016e-04 6.939903551366e-02 0.0 
-4.547432033993e-04 6.673071602353e-02 0.0 
1.050241179993e-02 6.110406184446e-02 0.0 
8.758279753059e-03 5.427386632184e-02 0.0 
3.152629832991e-03 2.182120566066e-02 0.0 
4.019635836214e-03 2.632404555689e-02 0.0 
2.247819238421e-03 1.651835131195e-02 0.0 
-3.474070325648e-04 7.262949068981e-02 0.0 
8.864616090889e-03 3.239593778959e-02 0.0 
1.240991904769e-03 1.522962503430e-02 0.0 
1.919387532449e-03 1.776873307666e-02 0.0 
6.603351384711e-04 1.192239757094e-02 0.0 
6.378394183863e-03 2.300927575307e-02 0.0 
4.767459490935e-03 1.680141475492e-02 0.0 
5.102825975180e-03 1.707902957004e-02 0.0 
1.171766032126e-03 2.886986177379e-02 0.0 
3.280250900701e-04 2.415812355467e-02 0.0 
2.874762428319e-03 6.804411062272e-02 0.0 
2.480644668578e-04 2.668925854540e-02 0.0 
2.482640544427e-03 7.153812929274e-02 0.0 
2.082589870394e-03 6.745714638146e-02 0.0 
2.140651088982e-03 7.489402745580e-02 0.0 
-1.798467243701e-04 7.441594834274e-02 0.0 
4.701061368618e-03 7.005758784206e-02 0.0 
5.149407566949e-03 6.585073443511e-02 0.0 
1.597944331948e-03 6.760690991628e-02 0.0 
1.353223736589e-03 1.491231035317e-02 0.0 
1.625078913831e-03 7.139140767520e-02 0.0 
1.070652268110e-03 7.260970998107e-02 0.0 
-2.121892019703e-04 1.441570171574e-02 0.0 
-4.074850090393e-04 1.802022184833e-02 0.0 
-3.059636592418e-04 1.175487791110e-02 0.0 
-4.693346534078e-04 1.574909083223e-02 0.0 
-5.952751797766e-04 2.171280279445e-02 0.0 
-6.118152452107e-04 1.924250754957e-02 0.0 
3.361381452485e-03 7.246042431152e-02 0.0 
-4.202242495918e-04 1.207390037438e-02 0.0 
-5.612092137871e-04 1.646451431263e-02 0.0 
-3.523585448257e-04 9.398932273985e-03 0.0 
1.092180657080e-02 8.247915245096e-02 0.0 
1.367748959117e-02 7.456363783277e-02 0.0 
1.281810097013e-02 7.976355122105e-02 0.0 
1.153428211097e-02 8.349728943688e-02 0.0 
4.290569558485e-03 1.548503799826e-02 0.0 
5.327266172707e-03 2.062815256310e-02 0.0 
-3.760635981990e-04 2.860518264411e-02 0.0 
-4.360738285810e-04 3.454731702492e-02 0.0 
1.716003335251e-03 7.127893414758e-02 0.0 
1.251756551831e-03 7.159756333046e-02 0.0 
1.374679185177e-03 6.502563766482e-02 0.0 
9.917740719793e-04 6.586088643274e-02 0.0 
1.065708369765e-03 5.912169398518e-02 0.0 
6.860002517464e-04 6.001067583985e-02 0.0 
8.159284738858e-04 5.297887076198e-02 0.0 
4.197587656293e-03 1.366963793965e-02 0.0 
1.100071819068e-02 7.777052001160e-02 0.0 
1.011409444833e-02 7.902088203495e-02 0.0 
3.194818829497e-03 1.363887068893e-02 0.0 
3.652871560859e-03 1.740450468854e-02 0.0 
1.215668041440e-02 7.990839227868e-02 0.0 
1.155655504665e-02 8.469525581748e-02 0.0 
1.377460434164e-04 1.255982857231e-02 0.0 
1.376578816792e-02 5.979497281616e-02 0.0 
1.004518578395e-03 9.575190056974e-03 0.0 
-1.828275440296e-03 3.572351751568e-02 0.0 
2.656838416377e-03 3.589101791321e-02 0.0 
1.412697522744e-02 6.159879150575e-02 0.0 
1.245070204517e-02 7.492466755936e-02 0.0 
1.363584419010e-02 7.588140665984e-02 0.0 
1.282054187058e-02 8.058892395240e-02 0.0 
2.307640375321e-03 3.064134621827e-02 0.0 
-1.371456496936e-04 6.454408795997e-02 0.0 
1.163895082675e-02 6.693650095423e-02 0.0 
1.183373958752e-03 5.216135862214e-02 0.0 
9.263501810764e-03 6.804019998510e-02 0.0 
-2.027386836549e-04 3.143990750191e-02 0.0 
1.296810225863e-02 5.564921223325e-02 0.0 
1.342948948073e-02 6.677452007265e-02 0.0 
1.288862295380e-02 6.537921147188e-02 0.0 
1.417420469020e-02 6.928505765316e-02 0.0 
9.904760291370e-03 6.091118848201e-02 0.0 
8.991808284655e-03 6.808257304032e-02 0.0 
9.620741536255e-03 7.090616454141e-02 0.0 
1.185789863653e-02 5.212609373873e-02 0.0 
1.270509858191e-02 8.082260025279e-02 0.0 
1.175399096408e-02 8.536319538356e-02 0.0 
1.169754629170e-02 6.215933949391e-02 0.0 
5.030869411963e-03 3.484458247056e-02 0.0 
4.946413615674e-03 3.082614814720e-02 0.0 
3.814864800949e-03 2.253200819022e-02 0.0 
4.763939664290e-03 2.685456616658e-02 0.0 
5.898773531232e-03 3.516950506030e-02 0.0 
5.767648222940e-03 3.120397140851e-02 0.0 
4.475048286523e-03 2.297925825452e-02 0.0 
5.525026460770e-03 2.725130007103e-02 0.0 
3.726568216854e-03 1.732124194635e-02 0.0 
5.113939232035e-03 2.312910830373e-02 0.0 
6.592473481458e-03 3.151637510841e-02 0.0 
6.290429995790e-03 2.775768525454e-02 0.0 
4.818031524281e-03 2.024633563170e-02 0.0 
7.679600672246e-03 3.592488624320e-02 0.0 
2.678144839688e-03 1.036175176309e-02 0.0 
1.384346585034e-02 5.837699471281e-02 0.0 
3.454293141815e-03 3.389281219306e-02 0.0 
5.077577102990e-03 4.448058791399e-02 0.0 
1.292012652338e-02 6.565079018249e-02 0.0 
1.829466733545e-03 8.477598808543e-03 0.0 
1.520892273677e-03 8.470704758408e-03 0.0 
1.215305770357e-02 5.439781471091e-02 0.0 
2.185529116296e-03 7.382921229657e-03 0.0 
1.016436122198e-02 6.729823361710e-02 0.0 
8.635259213167e-03 4.570916210101e-02 0.0 
2.245406091228e-03 7.141350572724e-03 0.0 
5.924854489361e-03 3.910859657115e-02 0.0 
6.825134097364e-03 4.330485344765e-02 0.0 
6.695812102988e-03 4.713720455555e-02 0.0 
1.190216443315e-03 7.984278276205e-03 0.0 
4.896190726398e-03 5.818875222923e-02 0.0 
1.841583632533e-03 6.157737919552e-03 0.0 
8.544881313219e-03 3.879462379217e-02 0.0 
9.771614710910e-03 4.152654478705e-02 0.0 
1.045826069226e-02 4.493462407910e-02 0.0 
6.789076109463e-03 3.555037716212e-02 0.0 
1.246236853943e-03 6.134312706609e-03 0.0 
2.109721332586e-03 1.157776136163e-02 0.0 
1.708779013032e-03 1.150045210055e-02 0.0 
2.754917461382e-03 1.701778053771e-02 0.0 
8.105682833766e-04 6.029466451142e-03 0.0 
1.869020765429e-03 7.446143325958e-03 0.0 
1.867905763813e-03 6.976854089181e-03 0.0 
-1.103251431633e-03 4.824145676337e-02 0.0 
5.277081461348e-04 4.668441689567e-02 0.0 
1.224132443723e-03 4.673413900357e-02 0.0 
2.375162470436e-03 4.582052704117e-02 0.0 
1.672338180513e-03 4.515214902866e-02 0.0 
3.769609375836e-03 4.516226702964e-02 0.0 
4.266914657770e-03 4.558148276832e-02 0.0 
5.401136683530e-03 4.499679370255e-02 0.0 
6.957069632256e-03 2.822077393979e-02 0.0 
4.077477736325e-04 5.802677238223e-03 0.0 
3.330225123226e-04 3.837513011210e-02 0.0 
9.344449932200e-04 3.938685004174e-02 0.0 
7.528226407034e-04 4.248667545907e-02 0.0 
-1.946124521823e-03 5.562457699835e-02 0.0 
-1.884671529213e-03 5.271228493733e-02 0.0 
-1.653906908459e-03 4.911947124445e-02 0.0 
-1.878466770704e-03 5.847831714666e-02 0.0 
1.053899260865e-02 3.929965613899e-02 0.0 
2.302794831922e-04 5.870729833091e-03 0.0 
4.566599173982e-03 3.754914206047e-02 0.0 
-1.956135670046e-03 5.302992748603e-02 0.0 
6.207590464957e-03 7.625868558242e-02 0.0 
6.479426018997e-03 7.028590438146e-02 0.0 
7.082769955078e-03 6.976034376989e-02 0.0 
6.604847227191e-03 6.309651292545e-02 0.0 
5.788170961172e-03 6.983370180914e-02 0.0 
-1.381796697039e-03 5.005911424271e-02 0.0 
-1.142414273682e-03 4.864975096454e-02 0.0 
-9.799684779287e-04 5.155854359585e-02 0.0 
-8.820437645361e-04 4.700677609004e-02 0.0 
-6.891311274830e-04 4.990719436821e-02 0.0 
-7.632431716730e-04 5.421039503766e-02 0.0 
-6.055185569584e-04 4.515173690865e-02 0.0 
-4.036045246272e-04 4.858384868031e-02 0.0 
5.008909863616e-03 7.680362476699e-02 0.0 
1.669227729680e-03 3.839592607084e-02 0.0 
-9.105896224841e-04 4.307339945960e-02 0.0 
9.441106056381e-06 5.031341042898e-02 0.0 
-2.300519165653e-03 4.705138368211e-02 0.0 
-2.336309002948e-03 4.096946984648e-02 0.0 
-3.075136382295e-03 4.525867914239e-02 0.0 
-2.142161247812e-03 4.035066315549e-02 0.0 
-1.269183887840e-03 3.551277966614e-02 0.0 
3.772161717825e-03 5.370031126096e-02 0.0 
7.330473039852e-04 5.609636253282e-02 0.0 
4.125903400142e-03 5.896622026750e-02 0.0 
1.377742305766e-03 6.072729275593e-02 0.0 
-1.374248151940e-03 5.796894040661e-02 0.0 
-1.606485835296e-03 6.562335042386e-02 0.0 
-2.190160475540e-04 7.437476396887e-03 0.0 
-3.154299206197e-04 6.046546885205e-02 0.0 
-6.125399924761e-04 6.212121781242e-02 0.0 
-6.005010181397e-04 6.539776842851e-02 0.0 
-9.303506843917e-04 6.329501768581e-02 0.0 
-5.918812779413e-04 5.872961914268e-02 0.0 
-2.890127189822e-04 6.726118795118e-02 0.0 
-5.422153161119e-04 6.807736928445e-02 0.0 
1.303708252541e-03 7.722745243677e-02 0.0 
6.789467221224e-04 7.729000837110e-02 0.0 
3.445842835795e-04 7.769136389938e-02 0.0 
2.627519338039e-04 7.692769805886e-02 0.0 
4.409388641370e-04 7.650859250784e-02 0.0 
1.002507398127e-03 7.673138834779e-02 0.0 
1.309895072879e-03 7.597240088442e-02 0.0 
2.272229383073e-03 7.571135352003e-02 0.0 
1.567291345188e-03 7.500753246275e-02 0.0 
6.725618797304e-04 7.498013455924e-02 0.0 
2.733532452934e-03 7.465788372657e-02 0.0 
2.602599495680e-04 4.217962401973e-02 0.0 
4.965240114559e-04 3.791995227089e-02 0.0 
-2.828392635946e-05 6.324722031207e-03 0.0 
3.878255797985e-03 7.657641937169e-02 0.0 
4.070108767278e-03 6.648694801739e-02 0.0 
3.983804838913e-04 1.031349272119e-02 0.0 
5.932430597309e-04 8.554143165153e-03 0.0 
4.876682319769e-04 8.292455742086e-03 0.0 
-1.324285253714e-04 1.845870599546e-02 0.0 
-2.138785800363e-04 1.508918598892e-02 0.0 
2.134741052162e-04 1.003108764454e-02 0.0 
-2.341255740480e-03 6.358243990116e-02 0.0 
3.506327863121e-03 1.880013448762e-02 0.0 
1.122122031395e-03 2.631937839721e-02 0.0 
1.006833479886e-02 4.931720963397e-02 0.0 
-2.877755767188e-03 5.794972042836e-02 0.0 
-6.723180598370e-04 3.689836044538e-02 0.0 
-1.235730865013e-03 4.085279541821e-02 0.0 
-6.760831822205e-04 2.406288626888e-02 0.0 
-1.094376071224e-03 4.092133507512e-02 0.0 
-8.788193037883e-04 2.877256566520e-02 0.0 
1.335450092318e-03 1.184719787476e-02 0.0 
-1.407295408723e-04 7.456767560415e-02 0.0 
3.095309039864e-03 5.712412386255e-02 0.0 
2.006707360943e-03 6.000436581814e-02 0.0 
1.862786280792e-03 4.007793123035e-02 0.0 
-1.583284034845e-03 6.686587744214e-02 0.0 
-1.073799293242e-03 5.552854401701e-02 0.0 
-8.577124542407e-04 7.053800457038e-02 0.0 
4.070233584900e-03 1.355762865736e-02 0.0 
1.193772657852e-02 6.802091911833e-02 0.0 
-1.192104924312e-04 4.488913315719e-02 0.0 
-2.096820888686e-03 5.880804806653e-02 0.0 
-2.569060906537e-03 6.066318705620e-02 0.0 
-2.991169224957e-03 5.595830707164e-02 0.0 
1.392291837063e-02 5.892041632088e-02 0.0 
-1.642771823779e-03 5.013089748170e-02 0.0 
-3.727754512978e-04 3.126374051928e-02 0.0 
1.427186594077e-03 3.532522426506e-02 0.0 
3.324239523242e-03 7.155993838310e-02 0.0 
3.142590118639e-06 2.805760035546e-02 0.0 
-1.090928774606e-03 4.315857136358e-02 0.0 
4.265923526872e-03 5.407185773967e-02 0.0 
5.695246012362e-03 2.772718262279e-02 0.0 
-3.342509886946e-03 4.992154734798e-02 0.0 
2.654031381009e-03 3.695087638886e-02 0.0 
2.554587871259e-03 2.123846107127e-02 0.0 
5.522361777814e-03 6.210163518567e-02 0.0 
3.569608789244e-06 7.189712494428e-02 0.0 
3.262593907423e-03 6.479352789219e-02 0.0 
5.106888108816e-04 1.584038026306e-02 0.0 
5.016496945552e-03 3.879877846028e-02 0.0 
-1.188810384807e-03 6.916402369028e-02 0.0 
6.034112255923e-03 4.171142032264e-02 0.0 
1.360346731840e-02 6.260303805358e-02 0.0 
8.896647379665e-03 7.997543787337e-02 0.0 
1.156481514570e-03 2.247753272481e-02 0.0 
1.192670891897e-02 4.772192624936e-02 0.0 
3.580988928533e-03 2.275641830240e-02 0.0 
5.400493519752e-03 3.586567684823e-02 0.0 
-1.019182570280e-03 6.880912173617e-02 0.0 
-4.989289098388e-04 2.397112765462e-02 0.0 
9.749613407024e-03 4.511207015647e-02 0.0 
2.134575685976e-03 2.814951443104e-02 0.0 
9.807100807980e-03 3.810157335231e-02 0.0 
7.688162434082e-03 4.630303931283e-02 0.0 
3.427747878738e-03 3.370023254776e-02 0.0 
1.502200917999e-03 4.295584399860e-02 0.0 
5.779308942143e-03 2.529047954026e-02 0.0 
1.251366586463e-02 6.964996980462e-02 0.0 
1.189884263515e-02 5.049866616291e-02 0.0 
9.651974144818e-03 4.664431615632e-02 0.0 
1.252530909755e-02 4.979960790430e-02 0.0 
-4.905980451060e-04 4.016286496914e-02 0.0 
-3.046897818831e-04 2.610213356125e-02 0.0 
1.512252192836e-03 3.862488030144e-02 0.0 
1.434525836508e-02 6.604587592160e-02 0.0 
5.205182447243e-03 5.445368308805e-02 0.0 
7.041349630837e-03 2.427627147940e-02 0.0 
1.509140020170e-03 1.891269674490e-02 0.0 
1.383799062831e-02 6.738218031228e-02 0.0 
-7.197344600181e-04 2.745324308948e-02 0.0 
2.683693099929e-03 2.510151033274e-02 0.0 
-1.684782427071e-03 4.977751707920e-02 0.0 
-9.977283516704e-05 7.448806623823e-02 0.0 
8.923128911269e-03 4.798228227729e-02 0.0 
7.490585380907e-03 4.662521945898e-02 0.0 
1.160478188318e-02 4.794035879362e-02 0.0 
-1.429612842234e-03 4.614747791814e-02 0.0 
2.745824826756e-03 1.682216012837e-02 0.0 
-7.585632574936e-04 2.527045039141e-02 0.0 
1.533887915771e-03 2.870954585675e-02 0.0 
3.177786897445e-03 6.142055519383e-02 0.0 
9.619081410497e-03 7.670624054363e-02 0.0 
-7.278953930029e-04 2.289760385497e-02 0.0 
4.764873884618e-03 4.040579978650e-02 0.0 
4.703430826756e-03 2.264425837980e-02 0.0 
-4.614682526592e-04 5.270464562767e-02 0.0 
4.102214549736e-03 1.342540050014e-02 0.0 
1.131369644691e-02 8.364013479308e-02 0.0 
-6.442554689577e-04 2.034590739127e-02 0.0 
2.857873082213e-03 2.807881518463e-02 0.0 
1.312601819965e-02 5.734908064711e-02 0.0 
1.066306926529e-03 7.755558498109e-02 0.0 
-4.384669490002e-04 1.272282339681e-02 0.0 
2.396007864412e-03 2.292539882928e-02 0.0 
1.162159114807e-02 4.474077409415e-02 0.0 
3.621507377976e-03 4.179829528610e-02 0.0 
9.698466218960e-03 8.427908945694e-02 0.0 
-1.434906467866e-03 4.519021070195e-02 0.0 
1.121272834342e-02 4.832915595795e-02 0.0 
1.045999096820e-03 7.816352312078e-03 0.0 
2.687792993429e-03 2.035267423728e-02 0.0 
7.534677097492e-03 5.115433604460e-02 0.0 
-1.564952125330e-03 4.823709838379e-02 0.0 
9.145494242095e-03 3.618902303415e-02 0.0 
5.952521122764e-04 7.586301846957e-02 0.0 
1.053923996304e-02 8.086012406609e-02 0.0 
-1.422362525526e-03 4.708096983394e-02 0.0 
5.807079212071e-03 4.579091103352e-02 0.0 
2.563687003356e-03 4.103950013394e-02 0.0 
3.756521252173e-03 1.369245616542e-02 0.0 
-1.237188014509e-03 4.566601262165e-02 0.0 
6.064930846109e-03 4.580242234994e-02 0.0 
-1.019872694076e-03 4.401889314172e-02 0.0 
1.029167841636e-02 8.739757778560e-02 0.0 
7.709006011798e-03 4.723043008990e-02 0.0 
-7.724526303071e-04 4.216436587383e-02 0.0 
1.019822601515e-02 4.190781266587e-02 0.0 
6.687815684765e-04 7.378888140690e-02 0.0 
1.092818752772e-02 4.119465900431e-02 0.0 
-2.956091011684e-04 2.197811083043e-02 0.0 
-2.278112229006e-03 5.477189423986e-02 0.0 
1.673464652030e-03 4.028592086818e-02 0.0 
6.856917476611e-03 3.942063195265e-02 0.0 
1.054712924503e-02 8.934396280179e-02 0.0 
1.730365754124e-03 3.702845441899e-02 0.0 
8.956857111289e-03 3.516117855766e-02 0.0 
1.008986553351e-02 3.780364029801e-02 0.0 
1.091056956616e-02 4.449929741415e-02 0.0 
1.679692023661e-03 3.316721416385e-02 0.0 
1.174931097150e-02 8.498271666168e-02 0.0 
-2.525595570807e-03 6.269542676307e-02 0.0 
-2.255032393242e-03 6.424219125978e-02 0.0 
4.590942595901e-03 4.527661779046e-02 0.0 
7.993848928958e-03 3.182932938876e-02 0.0 
8.181848101993e-05 7.583526904619e-02 0.0 
7.787981315112e-03 3.958945118755e-02 0.0 
-1.668445357508e-03 6.366518936333e-02 0.0 
2.910630300913e-03 4.577596576656e-02 0.0 
7.772397759944e-03 2.869514774717e-02 0.0 
3.107200034729e-04 5.807212635213e-02 0.0 
1.762036712423e-03 4.619448958007e-02 0.0 
-1.803673189989e-04 7.246998149247e-02 0.0 
3.130474979074e-04 4.771391751369e-02 0.0 
1.008818833128e-02 4.056525967491e-02 0.0 
-3.874503422070e-04 4.862858752833e-02 0.0 
-1.416953061094e-03 5.094868270899e-02 0.0 
7.744186689960e-04 1.734679348791e-02 0.0 
-1.712171154650e-03 5.194312883271e-02 0.0 
1.026241558212e-04 8.326838466022e-03 0.0 
-9.922312455001e-05 6.818388368545e-03 0.0 
4.056425647666e-04 7.247672456925e-02 0.0 
1.025397199756e-02 9.031396099507e-02 0.0 
-3.559773603778e-04 2.402086204470e-02 0.0 
1.196094678538e-02 8.375477538337e-02 0.0 
-2.622309331551e-03 5.647512544581e-02 0.0 
8.661014592642e-03 3.959258244605e-02 0.0 
8.432043222233e-04 7.214361446716e-02 0.0 
-2.735073574951e-03 5.954235178877e-02 0.0 
3.521306729734e-03 1.498038598123e-02 0.0 
2.020525649902e-03 6.366926520365e-03 0.0 
5.629044108317e-04 4.590679451167e-02 0.0 
3.751251900284e-03 2.031231044280e-02 0.0 
9.088833336481e-03 3.436510949005e-02 0.0 
1.613984141099e-04 2.507174932254e-02 0.0 
2.480641176637e-03 7.794348454649e-02 0.0 
1.827332141180e-03 6.451279946128e-02 0.0 
-2.351468820258e-04 3.735008171971e-02 0.0 
9.676191366413e-03 8.865936757953e-02 0.0 
1.129836735482e-02 8.098603216707e-02 0.0 
1.026189540603e-02 7.355121755061e-02 0.0 
-7.935539714869e-04 6.843738447252e-02 0.0 
-1.657167921548e-03 5.293762099926e-02 0.0 
9.097904111639e-03 8.379859462784e-02 0.0 
2.520624915450e-03 1.204945861472e-02 0.0 
4.193586027400e-03 7.159842964843e-02 0.0 
7.505533085981e-03 2.670899231384e-02 0.0 
7.010960972135e-03 7.543878776553e-02 0.0 
1.844110112849e-03 1.654270007905e-02 0.0 
3.865499342786e-03 1.294609257667e-02 0.0 
-1.632103136186e-04 5.697681567614e-03 0.0 
5.826959110501e-03 2.016495480942e-02 0.0 
7.549114491129e-03 6.115405208350e-02 0.0 
6.083410906152e-03 6.483662868250e-02 0.0 
3.997486761669e-03 1.372702916096e-02 0.0 
7.609158772853e-04 3.914763680034e-02 0.0 
-2.183972923445e-04 5.563621590947e-03 0.0 
5.263159096807e-03 7.189104036617e-02 0.0 
4.766540691634e-04 1.622311314317e-02 0.0 
-5.798999478816e-04 3.817964106269e-02 0.0 
2.387751293421e-04 1.575512659479e-02 0.0 
7.381762369323e-03 3.199924570921e-02 0.0 
1.728194419434e-03 6.344908934372e-02 0.0 
7.230177249283e-03 6.446980123265e-02 0.0 
-2.506807467327e-04 1.180530107062e-02 0.0 
3.111157486190e-03 1.545757232097e-02 0.0 
5.457253035226e-03 5.220924015760e-02 0.0 
8.810151979825e-04 4.672352372829e-02 0.0 
-1.228331466726e-03 6.270490019846e-02 0.0 
-3.936412461265e-04 2.945233517018e-02 0.0 
-5.839866033864e-05 1.158386898878e-02 0.0 
5.904413655334e-03 2.434035578481e-02 0.0 
-3.672027089914e-04 1.194045484831e-02 0.0 
1.276301721099e-04 7.717446712459e-02 0.0 
2.248051005828e-03 7.002547577350e-02 0.0 
3.251429003722e-04 1.054394765058e-02 0.0 
3.569280559493e-03 1.342860321883e-02 0.0 
-2.091769039082e-03 4.323779918680e-02 0.0 
6.236080166369e-04 6.694690961651e-03 0.0 
1.919316873240e-03 4.337366653314e-02 0.0 
3.392295467295e-03 7.849853699113e-02 0.0 
1.865167612337e-03 7.395968892871e-02 0.0 
-2.136261970932e-04 5.690806345662e-03 0.0 
1.122670841536e-03 1.549219927835e-02 0.0 
-8.403446296085e-04 6.019758746669e-02 0.0 
7.393771644432e-03 7.479479870712e-02 0.0 
-4.533693922935e-04 7.060689171644e-02 0.0 
5.503332084015e-03 1.838906810255e-02 0.0 
-1.978544106632e-04 6.190134046128e-02 0.0 
7.712759092256e-04 1.466185104366e-02 0.0 
8.679253836499e-04 1.017883710743e-02 0.0 
2.180054162755e-03 1.436540922839e-02 0.0 
1.201542895606e-03 4.623339388665e-03 0.0 
1.146246793904e-03 2.947922572637e-02 0.0 
3.472200689270e-03 1.131696964550e-02 0.0 
2.085522131615e-03 1.569134592077e-02 0.0 
1.861003438492e-03 7.828281577411e-02 0.0 
2.725172627269e-03 1.525409388126e-02 0.0 
-8.271266074085e-04 6.613607232957e-02 0.0 
1.019216729544e-04 7.388840110414e-02 0.0 
4.514543349848e-05 7.382055213690e-03 0.0 
4.278344408738e-04 7.782388164037e-02 0.0 
3.117865382197e-04 7.833217642788e-02 0.0 
-3.687899717652e-05 5.574217384310e-03 0.0 
1.888496897529e-04 7.558252674313e-02 0.0 
6.714463842021e-04 6.729231154270e-02 0.0 
3.297983868355e-03 1.310867013220e-02 0.0 
-2.064130293813e-04 5.206089090336e-02 0.0 
3.785723821283e-04 3.098102489284e-02 0.0 
-2.889377829474e-03 4.999902097394e-02 0.0 
8.415766069322e-04 2.372338569150e-02 0.0 
5.393721526298e-04 5.416908932354e-02 0.0 
3.299854102501e-03 1.143437558622e-02 0.0 
1.710616396338e-03 1.383499983260e-02 0.0 
1.387179696073e-03 5.936781738825e-02 0.0 
7.365849868005e-03 4.810737179752e-02 0.0 
4.620772468398e-03 1.839864137375e-02 0.0 
-8.566253705579e-04 5.722770032463e-02 0.0 
5.393204220594e-03 1.873138077302e-02 0.0 
3.007178688322e-03 1.596152805797e-02 0.0 
-2.187659126572e-03 4.468054792833e-02 0.0 
-1.659040632749e-04 4.746348379667e-02 0.0 
2.159140779141e-03 7.273545582627e-02 0.0 
-3.303226220280e-04 1.057853433885e-02 0.0 
-5.644927185347e-04 5.566795665240e-02 0.0 
2.979343559866e-03 8.710061164031e-02 0.0 
1.517499293541e-04 1.178244057597e-01 0.0 
6.129155749440e-03 9.242176315088e-02 0.0 
1.625192509025e-04 1.146146721440e-01 0.0 
7.822669929569e-03 9.500312581530e-02 0.0 
1.533825443361e-04 1.109685589871e-01 0.0 
8.669267492951e-03 9.553401197062e-02 0.0 
1.816013157648e-04 1.068816667827e-01 0.0 
8.973925235305e-03 9.443043164622e-02 0.0 
1.745654935927e-04 1.023523764918e-01 0.0 
8.865364739182e-03 9.203188276457e-02 0.0 
2.020428222170e-04 9.738140626974e-02 0.0 
8.446350866069e-03 8.846566387734e-02 0.0 
1.912414111310e-04 9.197143786002e-02 0.0 
7.792147675536e-03 8.401174483958e-02 0.0 
2.127804270854e-04 8.612731288954e-02 0.0 

TENSORS node_materi_stress float
-1.364504349420e+00 -1.472671455105e-01 0.0 
-1.472671455105e-01 -8.511280032755e+00 0.0 
0.0 0.0 -1.707965188722e+00 
-7.189198766902e+01 4.488185300409e-01 0.0 
4.488185300409e-01 -1.570212508561e+02 0.0 
0.0 0.0 -6.827397155755e+01 
-1.670418753039e+02 -4.450430742490e-01 0.0 
-4.450430742490e-01 -3.906588737584e+02 0.0 
0.0 0.0 -1.669102247187e+02 
-1.480675745554e+02 5.532029221887e-01 0.0 
5.532029221887e-01 -3.457838099327e+02 0.0 
0.0 0.0 -1.477554153464e+02 
-4.884424722515e+00 -3.149147453806e-01 0.0 
-3.149147453806e-01 -2.079877265366e+01 0.0 
0.0 0.0 -6.731359421511e+00 
-1.297255115233e+01 -5.967675910340e-01 0.0 
-5.967675910340e-01 -4.023697806672e+01 0.0 
0.0 0.0 -1.556285876572e+01 
-2.254606713624e+01 -5.587402486798e-01 0.0 
-5.587402486798e-01 -5.848838724501e+01 0.0 
0.0 0.0 -2.391033631438e+01 
-3.275641507951e+01 -5.595018447149e-01 0.0 
-5.595018447149e-01 -7.920487494742e+01 0.0 
0.0 0.0 -3.318838700808e+01 
-4.242473649521e+01 -5.066965923365e-01 0.0 
-5.066965923365e-01 -9.933679246153e+01 0.0 
0.0 0.0 -4.212845868702e+01 
-5.190213474921e+01 -5.156962078895e-01 0.0 
-5.156962078895e-01 -1.193131976313e+02 0.0 
0.0 0.0 -5.096459971414e+01 
-6.100456943989e+01 -5.679608629302e-01 0.0 
-5.679608629302e-01 -1.393664551780e+02 0.0 
0.0 0.0 -5.971130738538e+01 
-6.981981966708e+01 -5.516298934198e-01 0.0 
-5.516298934198e-01 -1.594960406864e+02 0.0 
0.0 0.0 -6.839475810606e+01 
-7.848720383417e+01 -5.527531979017e-01 0.0 
-5.527531979017e-01 -1.796585151147e+02 0.0 
0.0 0.0 -7.704371568467e+01 
-8.699866189317e+01 -6.136772811782e-01 0.0 
-6.136772811782e-01 -2.000428201625e+02 0.0 
0.0 0.0 -8.571244461669e+01 
-9.556112752684e+01 -7.439600375591e-01 0.0 
-7.439600375591e-01 -2.209394367388e+02 0.0 
0.0 0.0 -9.455016927969e+01 
-1.042075371121e+02 -7.082680390574e-01 0.0 
-7.082680390574e-01 -2.411065769878e+02 0.0 
0.0 0.0 -1.031942342300e+02 
-1.120454995333e+02 -8.782455451099e-01 0.0 
-8.782455451099e-01 -2.593868217473e+02 0.0 
0.0 0.0 -1.110296963842e+02 
-1.203776380087e+02 -4.391325932472e-01 0.0 
-4.391325932472e-01 -2.795374266259e+02 0.0 
0.0 0.0 -1.195745193904e+02 
-1.290157830942e+02 -3.909081725893e-01 0.0 
-3.909081725893e-01 -3.001063322051e+02 0.0 
0.0 0.0 -1.283366345898e+02 
-1.374064331539e+02 -3.666493740170e-01 0.0 
-3.666493740170e-01 -3.199903341352e+02 0.0 
0.0 0.0 -1.368190301867e+02 
-1.458060466282e+02 -3.198123060340e-01 0.0 
-3.198123060340e-01 -3.399872863563e+02 0.0 
0.0 0.0 -1.453379998954e+02 
-1.542243720110e+02 -3.609689747967e-01 0.0 
-3.609689747967e-01 -3.601079470426e+02 0.0 
0.0 0.0 -1.538996957161e+02 
-1.623796892187e+02 -4.410663065941e-01 0.0 
-4.410663065941e-01 -3.793454277653e+02 0.0 
0.0 0.0 -1.621175350952e+02 
-1.485055721949e+02 4.508210871948e-01 0.0 
4.508210871948e-01 -3.469161073710e+02 0.0 
0.0 0.0 -1.482265038698e+02 
-1.479543491851e+02 7.869426703850e-01 0.0 
7.869426703850e-01 -3.459082225009e+02 0.0 
0.0 0.0 -1.477587715058e+02 
-1.481078754802e+02 1.405729934615e+00 0.0 
1.405729934615e+00 -3.462284440819e+02 0.0 
0.0 0.0 -1.479008958686e+02 
-1.480893168637e+02 1.418266782838e+00 0.0 
1.418266782838e+00 -3.463091857692e+02 0.0 
0.0 0.0 -1.479195507899e+02 
-1.479425593177e+02 1.958661020739e+00 0.0 
1.958661020739e+00 -3.458066589725e+02 0.0 
0.0 0.0 -1.477247654871e+02 
-1.483179708388e+02 2.362724316996e+00 0.0 
2.362724316996e+00 -3.466120348976e+02 0.0 
0.0 0.0 -1.480790017209e+02 
-1.486996832004e+02 2.824928900904e+00 0.0 
2.824928900904e+00 -3.471011303484e+02 0.0 
0.0 0.0 -1.483402440647e+02 
-1.485247463772e+02 3.383041206697e+00 0.0 
3.383041206697e+00 -3.470681752079e+02 0.0 
0.0 0.0 -1.482778764755e+02 
-1.490863102153e+02 4.023677341677e+00 0.0 
4.023677341677e+00 -3.481830750921e+02 0.0 
0.0 0.0 -1.487808155922e+02 
-1.491817396436e+02 4.280968711353e+00 0.0 
4.280968711353e+00 -3.485802731269e+02 0.0 
0.0 0.0 -1.489286038312e+02 
-1.492470329526e+02 4.970256043405e+00 0.0 
4.970256043405e+00 -3.484801121964e+02 0.0 
0.0 0.0 -1.489181435447e+02 
-1.497387410360e+02 5.586641335118e+00 0.0 
5.586641335118e+00 -3.496943498491e+02 0.0 
0.0 0.0 -1.494299272655e+02 
-1.504672312493e+02 6.220519420930e+00 0.0 
6.220519420930e+00 -3.509465251098e+02 0.0 
0.0 0.0 -1.500241269077e+02 
-1.505046065827e+02 6.884318071560e+00 0.0 
6.884318071560e+00 -3.514459561276e+02 0.0 
0.0 0.0 -1.501851688131e+02 
-1.510197861923e+02 7.584121956418e+00 0.0 
7.584121956418e+00 -3.522307102155e+02 0.0 
0.0 0.0 -1.505751489223e+02 
-1.510691246177e+02 8.161429818182e+00 0.0 
8.161429818182e+00 -3.527215907273e+02 0.0 
0.0 0.0 -1.507372146035e+02 
-1.516434360046e+02 8.901228764967e+00 0.0 
8.901228764967e+00 -3.539789299682e+02 0.0 
0.0 0.0 -1.512867097918e+02 
-1.528463299308e+02 9.609669230503e+00 0.0 
9.609669230503e+00 -3.563799944698e+02 0.0 
0.0 0.0 -1.523678973202e+02 
-1.536461103086e+02 1.030326774891e+01 0.0 
1.030326774891e+01 -3.585900171493e+02 0.0 
0.0 0.0 -1.532708382374e+02 
-1.545576743185e+02 1.093820567494e+01 0.0 
1.093820567494e+01 -3.609440959444e+02 0.0 
0.0 0.0 -1.542505310789e+02 
-1.553470003537e+02 1.138887880029e+01 0.0 
1.138887880029e+01 -3.630343798565e+02 0.0 
0.0 0.0 -1.551144140631e+02 
-1.563533488370e+02 1.193125794772e+01 0.0 
1.193125794772e+01 -3.652601215365e+02 0.0 
0.0 0.0 -1.560840411120e+02 
-1.572470440287e+02 1.226790614010e+01 0.0 
1.226790614010e+01 -3.677477258057e+02 0.0 
0.0 0.0 -1.570984309503e+02 
-1.582509645893e+02 1.250581294149e+01 0.0 
1.250581294149e+01 -3.703420105208e+02 0.0 
0.0 0.0 -1.581778925330e+02 
-1.594001356133e+02 1.258003055415e+01 0.0 
1.258003055415e+01 -3.732866937003e+02 0.0 
0.0 0.0 -1.594060487941e+02 
-1.606434731298e+02 1.253248763444e+01 0.0 
1.253248763444e+01 -3.763050746782e+02 0.0 
0.0 0.0 -1.606845643424e+02 
-1.616278693433e+02 1.227765460473e+01 0.0 
1.227765460473e+01 -3.791699389718e+02 0.0 
0.0 0.0 -1.618393424945e+02 
-1.627909578734e+02 1.184207631358e+01 0.0 
1.184207631358e+01 -3.819437683208e+02 0.0 
0.0 0.0 -1.630204178583e+02 
-1.635751998096e+02 1.124751990415e+01 0.0 
1.124751990415e+01 -3.842702575420e+02 0.0 
0.0 0.0 -1.639536372055e+02 
-1.648932322651e+02 1.066126859742e+01 0.0 
1.066126859742e+01 -3.872364900720e+02 0.0 
0.0 0.0 -1.652389167011e+02 
-1.655020891441e+02 9.507605672389e+00 0.0 
9.507605672389e+00 -3.891947295808e+02 0.0 
0.0 0.0 -1.660090456175e+02 
-1.657846708702e+02 8.657226314151e+00 0.0 
8.657226314151e+00 -3.901013024520e+02 0.0 
0.0 0.0 -1.663657919966e+02 
-1.664799194621e+02 7.594750633115e+00 0.0 
7.594750633115e+00 -3.917120219644e+02 0.0 
0.0 0.0 -1.670575824280e+02 
-1.670941970483e+02 6.573399261675e+00 0.0 
6.573399261675e+00 -3.931583944780e+02 0.0 
0.0 0.0 -1.676757774579e+02 
-1.675743376058e+02 5.496511171483e+00 0.0 
5.496511171483e+00 -3.942043994064e+02 0.0 
0.0 0.0 -1.681336211036e+02 
-1.678795697748e+02 4.498182194948e+00 0.0 
4.498182194948e+00 -3.948448249443e+02 0.0 
0.0 0.0 -1.684173184157e+02 
-1.681429420066e+02 3.531091151506e+00 0.0 
3.531091151506e+00 -3.952425603236e+02 0.0 
0.0 0.0 -1.686156506990e+02 
-1.680778414707e+02 2.644521937856e+00 0.0 
2.644521937856e+00 -3.950463407018e+02 0.0 
0.0 0.0 -1.685372546517e+02 
-1.680222594601e+02 1.924246282205e+00 0.0 
1.924246282205e+00 -3.946528476858e+02 0.0 
0.0 0.0 -1.684025321438e+02 
-1.677160470683e+02 1.230789310993e+00 0.0 
1.230789310993e+00 -3.939467581645e+02 0.0 
0.0 0.0 -1.680988415698e+02 
-1.677847807727e+02 7.948002467840e-01 0.0 
7.948002467840e-01 -3.938648808633e+02 0.0 
0.0 0.0 -1.680948984908e+02 
-1.681887005204e+02 2.863343953225e-01 0.0 
2.863343953225e-01 -3.942904220086e+02 0.0 
0.0 0.0 -1.683437367587e+02 
-1.682752761616e+02 8.988521931942e-02 0.0 
8.988521931942e-02 -3.941486940745e+02 0.0 
0.0 0.0 -1.683271910708e+02 
-1.667935950129e+02 -1.235674442197e-01 0.0 
-1.235674442197e-01 -3.910559873285e+02 0.0 
0.0 0.0 -1.669548747024e+02 
-1.677685165863e+02 -2.983798567491e-01 0.0 
-2.983798567491e-01 -3.926904454671e+02 0.0 
0.0 0.0 -1.677376886160e+02 
-1.671111160714e+02 -3.193583967372e-01 0.0 
-3.193583967372e-01 -3.914272014126e+02 0.0 
0.0 0.0 -1.671614952452e+02 
-1.672416143990e+02 -1.282317016948e-01 0.0 
-1.282317016948e-01 -3.915900592879e+02 0.0 
0.0 0.0 -1.672495021061e+02 
-1.675096418708e+02 -2.891138260338e-01 0.0 
-2.891138260338e-01 -3.920351782808e+02 0.0 
0.0 0.0 -1.674634460455e+02 
-1.673873840465e+02 -1.300022650358e-01 0.0 
-1.300022650358e-01 -3.917890083115e+02 0.0 
0.0 0.0 -1.673529177074e+02 
-8.062196414150e+01 3.264894151775e-01 0.0 
3.264894151775e-01 -1.768515498222e+02 0.0 
0.0 0.0 -7.684205418910e+01 
-8.878630710259e+01 3.836265902787e-01 0.0 
3.836265902787e-01 -1.965937046848e+02 0.0 
0.0 0.0 -8.521400353622e+01 
-9.698640419898e+01 3.864015899475e-01 0.0 
3.864015899475e-01 -2.161804019569e+02 0.0 
0.0 0.0 -9.355004184678e+01 
-1.048773438132e+02 4.275737839649e-01 0.0 
4.275737839649e-01 -2.354032934910e+02 0.0 
0.0 0.0 -1.016841911913e+02 
-1.128283280550e+02 3.976517282847e-01 0.0 
3.976517282847e-01 -2.550857429236e+02 0.0 
0.0 0.0 -1.099742212936e+02 
-1.209147803895e+02 4.481605019376e-01 0.0 
4.481605019376e-01 -2.748961258518e+02 0.0 
0.0 0.0 -1.183432718724e+02 
-1.285656057301e+02 4.173435441270e-01 0.0 
4.173435441270e-01 -2.944924206384e+02 0.0 
0.0 0.0 -1.265174079106e+02 
-1.360784575124e+02 4.907583807709e-01 0.0 
4.907583807709e-01 -3.139647761402e+02 0.0 
0.0 0.0 -1.346129700958e+02 
-1.438554335961e+02 5.384640926606e-01 0.0 
5.384640926606e-01 -3.340374762387e+02 0.0 
0.0 0.0 -1.429678729505e+02 
-5.520953738655e+01 2.680815811171e+01 0.0 
2.680815811171e+01 -6.963636108994e+01 0.0 
0.0 0.0 -3.787715369885e+01 
-7.664670819273e+01 1.981393715710e+00 0.0 
1.981393715710e+00 -1.593637788493e+02 0.0 
0.0 0.0 -7.040314611261e+01 
-3.561029737921e+01 2.638194305594e+01 0.0 
2.638194305594e+01 -2.776046860335e+01 0.0 
0.0 0.0 -1.869155798384e+01 
-2.809743475235e+01 1.584312403451e+01 0.0 
1.584312403451e+01 -2.026368758290e+01 0.0 
0.0 0.0 -1.274102196785e+01 
-2.202550809550e+01 8.221146323760e+00 0.0 
8.221146323760e+00 -2.331977003806e+01 0.0 
0.0 0.0 -1.250627236275e+01 
-2.750655382335e+01 6.501162725600e+00 0.0 
6.501162725600e+00 -4.184356123189e+01 0.0 
0.0 0.0 -2.040503451657e+01 
-3.549454337742e+01 5.216497952784e+00 0.0 
5.216497952784e+00 -6.138263407840e+01 0.0 
0.0 0.0 -2.866315323675e+01 
-4.395969729545e+01 4.168551252466e+00 0.0 
4.168551252466e+00 -8.114759284778e+01 0.0 
0.0 0.0 -3.713218704297e+01 
-5.209557419603e+01 3.227402886440e+00 0.0 
3.227402886440e+00 -1.004781456284e+02 0.0 
0.0 0.0 -4.537211594734e+01 
-6.027716204452e+01 2.560687186748e+00 0.0 
2.560687186748e+00 -1.197554173020e+02 0.0 
0.0 0.0 -5.360977380396e+01 
-6.838024572803e+01 2.172589127071e+00 0.0 
2.172589127071e+00 -1.390187039176e+02 0.0 
0.0 0.0 -6.181968489370e+01 
-7.665837093508e+00 8.626357257020e-01 0.0 
8.626357257020e-01 -7.379760411085e+00 0.0 
0.0 0.0 -4.113679251378e+00 
-1.224724928370e+01 6.572040831167e-01 0.0 
6.572040831167e-01 -1.969917885612e+01 0.0 
0.0 0.0 -9.183928441945e+00 
-2.060366736137e+01 7.715112177879e-01 0.0 
7.715112177879e-01 -3.925297540576e+01 0.0 
0.0 0.0 -1.755699283014e+01 
-2.916035925484e+01 6.244773972893e-01 0.0 
6.244773972893e-01 -5.875996260648e+01 0.0 
0.0 0.0 -2.597609655839e+01 
-3.774747914758e+01 7.805038134433e-01 0.0 
7.805038134433e-01 -7.827142633647e+01 0.0 
0.0 0.0 -3.440567164521e+01 
-4.634437093398e+01 6.369487186829e-01 0.0 
6.369487186829e-01 -9.779191530459e+01 0.0 
0.0 0.0 -4.284088587157e+01 
-5.491283076708e+01 7.759008116947e-01 0.0 
7.759008116947e-01 -1.173074661435e+02 0.0 
0.0 0.0 -5.126608907317e+01 
-6.342671418206e+01 5.556536938832e-01 0.0 
5.556536938832e-01 -1.367340478048e+02 0.0 
0.0 0.0 -5.964822859606e+01 
-7.100455013447e+01 -2.260649273315e-01 0.0 
-2.260649273315e-01 -1.544174093533e+02 0.0 
0.0 0.0 -6.722658784633e+01 
-7.166496539280e+01 -2.478996889775e-02 0.0 
-2.478996889775e-02 -1.556208106657e+02 0.0 
0.0 0.0 -6.778573281754e+01 
-7.169894561224e+01 -2.430421803946e-02 0.0 
-2.430421803946e-02 -1.556756375664e+02 0.0 
0.0 0.0 -6.781237495359e+01 
-7.175348019315e+01 2.878290046525e-02 0.0 
2.878290046525e-02 -1.554667097560e+02 0.0 
0.0 0.0 -6.776605698473e+01 
-7.313789337600e+01 2.771921171105e-02 0.0 
2.771921171105e-02 -1.581428294900e+02 0.0 
0.0 0.0 -6.898421685980e+01 
-7.225794364654e+01 2.938215113078e-02 0.0 
2.938215113078e-02 -1.558389721144e+02 0.0 
0.0 0.0 -6.802907472827e+01 
-7.253409051066e+01 1.185774403615e-01 0.0 
1.185774403615e-01 -1.557135078225e+02 0.0 
0.0 0.0 -6.807427949993e+01 
-7.281678237918e+01 1.105745898438e-01 0.0 
1.105745898438e-01 -1.559686861697e+02 0.0 
0.0 0.0 -6.823564056467e+01 
-7.321926676215e+01 2.475238669756e-01 0.0 
2.475238669756e-01 -1.564929275372e+02 0.0 
0.0 0.0 -6.851365828981e+01 
-7.351533384461e+01 3.317827280993e-01 0.0 
3.317827280993e-01 -1.565403608559e+02 0.0 
0.0 0.0 -6.861670841016e+01 
-7.398591773619e+01 5.300580303889e-01 0.0 
5.300580303889e-01 -1.566577178693e+02 0.0 
0.0 0.0 -6.879309068165e+01 
-7.435781432735e+01 7.687048681191e-01 0.0 
7.687048681191e-01 -1.568103789243e+02 0.0 
0.0 0.0 -6.895045797551e+01 
-7.495477825052e+01 1.015698560267e+00 0.0 
1.015698560267e+00 -1.571977944990e+02 0.0 
0.0 0.0 -6.924577182485e+01 
-7.560172037442e+01 1.369977749100e+00 0.0 
1.369977749100e+00 -1.578976847728e+02 0.0 
0.0 0.0 -6.964982154417e+01 
-7.699758005845e+01 1.288622208587e+01 0.0 
1.288622208587e+01 -9.698555645472e+01 0.0 
0.0 0.0 -5.255607397052e+01 
-9.128934432596e+01 2.099183988963e+00 0.0 
2.099183988963e+00 -1.047598785300e+02 0.0 
0.0 0.0 -5.918184164531e+01 
-9.507913737724e+01 -2.656615495483e+00 0.0 
-2.656615495483e+00 -1.042621163347e+02 0.0 
0.0 0.0 -6.013654646240e+01 
-8.416862851670e+01 -1.022785351706e+01 0.0 
-1.022785351706e+01 -9.595835572694e+01 0.0 
0.0 0.0 -5.437171283790e+01 
-5.279236899795e+01 -1.924566144952e+01 0.0 
-1.924566144952e+01 -5.785466551859e+01 0.0 
0.0 0.0 -3.347132287949e+01 
-2.452106643268e+01 -1.229471712384e+01 0.0 
-1.229471712384e+01 -1.945836757249e+01 0.0 
0.0 0.0 -1.304488288695e+01 
-1.064835376482e+01 -2.761013709257e+00 0.0 
-2.761013709257e+00 -1.011712490054e+01 0.0 
0.0 0.0 -5.950118207710e+00 
-5.847367097190e+00 -5.444406651109e-01 0.0 
-5.444406651109e-01 -8.480977697043e+00 0.0 
0.0 0.0 -3.469611912559e+00 
-3.707519790827e+00 -2.091494972612e-01 0.0 
-2.091494972612e-01 -8.056983032872e+00 0.0 
0.0 0.0 -2.139713953155e+00 
-2.413589687703e+00 -9.703672829699e-02 0.0 
-9.703672829699e-02 -8.220976041679e+00 0.0 
0.0 0.0 -2.287721030574e+00 
-1.962732219592e+00 1.321755239458e-01 0.0 
1.321755239458e-01 -8.285055927569e+00 0.0 
0.0 0.0 -2.427875140585e+00 
-1.943067012698e+00 4.513288016629e-03 0.0 
4.513288016629e-03 -8.725942469207e+00 0.0 
0.0 0.0 -2.280361731512e+00 
-1.861492010015e+00 -1.468463186800e-02 0.0 
-1.468463186800e-02 -8.475611480137e+00 0.0 
0.0 0.0 -2.142986063495e+00 
-1.543257399259e+00 -1.001939060970e-01 0.0 
-1.001939060970e-01 -7.755481043504e+00 0.0 
0.0 0.0 -1.898309911210e+00 
-1.305119848596e+00 -1.214611979997e-01 0.0 
-1.214611979997e-01 -7.946400055387e+00 0.0 
0.0 0.0 -1.879064812110e+00 
-1.119493168567e+00 -1.273648833287e-01 0.0 
-1.273648833287e-01 -8.215592281210e+00 0.0 
0.0 0.0 -1.833854861178e+00 
-9.294434467551e-01 -7.273245235335e-02 0.0 
-7.273245235335e-02 -8.260335392049e+00 0.0 
0.0 0.0 -1.781555046749e+00 
-7.848120220872e-01 -9.867639153114e-02 0.0 
-9.867639153114e-02 -7.871879058011e+00 0.0 
0.0 0.0 -1.642301956551e+00 
-8.154205371868e-01 1.240574001658e-02 0.0 
1.240574001658e-02 -7.266974000059e+00 0.0 
0.0 0.0 -1.467136438713e+00 
-1.286341525067e+01 4.779491627206e+00 0.0 
4.779491627206e+00 -5.527983866538e+00 0.0 
0.0 0.0 -4.104053255742e+00 
-7.330662651678e+00 2.794082987923e+00 0.0 
2.794082987923e+00 -1.017495278763e+01 0.0 
0.0 0.0 -4.391360214760e+00 
-3.916211124005e+00 9.367753932247e-01 0.0 
9.367753932247e-01 -1.024914442650e+01 0.0 
0.0 0.0 -3.692053516975e+00 
-2.196672243572e+00 1.913987440649e-01 0.0 
1.913987440649e-01 -9.695854447560e+00 0.0 
0.0 0.0 -2.775059499961e+00 
-1.347859218902e+00 -9.768258237695e-02 0.0 
-9.768258237695e-02 -9.530146497805e+00 0.0 
0.0 0.0 -2.382426193869e+00 
-8.683587409833e-01 -1.405025841432e-01 0.0 
-1.405025841432e-01 -9.521965958548e+00 0.0 
0.0 0.0 -2.408270488098e+00 
-7.711535912626e-01 -2.122022172925e-01 0.0 
-2.122022172925e-01 -9.621605696271e+00 0.0 
0.0 0.0 -2.626798664354e+00 
-9.880992405179e-01 -3.027432257700e-01 0.0 
-3.027432257700e-01 -9.658619108626e+00 0.0 
0.0 0.0 -2.794015504743e+00 
-1.383849057608e+00 -3.725817455196e-01 0.0 
-3.725817455196e-01 -9.651153553331e+00 0.0 
0.0 0.0 -2.910500783282e+00 
-1.885772539476e+00 -4.008527177882e-01 0.0 
-4.008527177882e-01 -9.648389470060e+00 0.0 
0.0 0.0 -3.060248602861e+00 
-2.445962356318e+00 -4.070698766211e-01 0.0 
-4.070698766211e-01 -9.653907805980e+00 0.0 
0.0 0.0 -3.229961048689e+00 
-3.026314377857e+00 -3.973707866219e-01 0.0 
-3.973707866219e-01 -9.660805175708e+00 0.0 
0.0 0.0 -3.406135866070e+00 
-3.603300949776e+00 -3.786255051467e-01 0.0 
-3.786255051467e-01 -9.669257520914e+00 0.0 
0.0 0.0 -3.581767541207e+00 
-4.159686270605e+00 -3.536637893492e-01 0.0 
-3.536637893492e-01 -9.677569737981e+00 0.0 
0.0 0.0 -3.751176802576e+00 
-4.684507104077e+00 -3.253400518293e-01 0.0 
-3.253400518293e-01 -9.685900475590e+00 0.0 
0.0 0.0 -3.911122273900e+00 
-5.171182140435e+00 -2.954800551492e-01 0.0 
-2.954800551492e-01 -9.693859815015e+00 0.0 
0.0 0.0 -4.059512586635e+00 
-5.616293270423e+00 -2.653456346964e-01 0.0 
-2.653456346964e-01 -9.701188665295e+00 0.0 
0.0 0.0 -4.195244580715e+00 
-6.017947715880e+00 -2.353756262137e-01 0.0 
-2.353756262137e-01 -9.707610896620e+00 0.0 
0.0 0.0 -4.317667583750e+00 
-6.374993195364e+00 -2.056136078391e-01 0.0 
-2.056136078391e-01 -9.713056727074e+00 0.0 
0.0 0.0 -4.426414976731e+00 
-6.686405692668e+00 -1.757869657299e-01 0.0 
-1.757869657299e-01 -9.717405911109e+00 0.0 
0.0 0.0 -4.521143481133e+00 
-6.950664575768e+00 -1.451732809747e-01 0.0 
-1.451732809747e-01 -9.720391661682e+00 0.0 
0.0 0.0 -4.601316871235e+00 
-7.164805913300e+00 -1.123490238954e-01 0.0 
-1.123490238954e-01 -9.721519277711e+00 0.0 
0.0 0.0 -4.665897557303e+00 
-7.323255115233e+00 -7.485716815265e-02 0.0 
-7.485716815265e-02 -9.720010699303e+00 0.0 
0.0 0.0 -4.712979744361e+00 
-7.417956507543e+00 -2.993376759498e-02 0.0 
-2.993376759498e-02 -9.716049190657e+00 0.0 
0.0 0.0 -4.740201709460e+00 
-7.498003020327e+00 -2.748904801929e-02 0.0 
-2.748904801929e-02 -9.767545678404e+00 0.0 
0.0 0.0 -4.779664609619e+00 
-7.746193876823e+00 -1.983261051512e-01 0.0 
-1.983261051512e-01 -9.509705971237e+00 0.0 
0.0 0.0 -4.776769954418e+00 
-1.484536977091e+01 3.771102219452e+00 0.0 
3.771102219452e+00 -1.868300992996e+01 0.0 
0.0 0.0 -9.427107846705e+00 
-1.351176932089e+01 2.702237098258e+00 0.0 
2.702237098258e+00 -2.201967909100e+01 0.0 
0.0 0.0 -1.012028646131e+01 
-1.034195584155e+01 1.208007697517e+00 0.0 
1.208007697517e+00 -2.034428675989e+01 0.0 
0.0 0.0 -8.577333570633e+00 
-8.900769106511e+00 5.970042008241e-01 0.0 
5.970042008241e-01 -1.994443304285e+01 0.0 
0.0 0.0 -8.112471788771e+00 
-8.167955420916e+00 2.021812561446e-01 0.0 
2.021812561446e-01 -1.988526841975e+01 0.0 
0.0 0.0 -7.957065073976e+00 
-7.836745567604e+00 -5.465879742266e-02 0.0 
-5.465879742266e-02 -1.981287988048e+01 0.0 
0.0 0.0 -7.894887634424e+00 
-7.786794319814e+00 -2.422456223579e-01 0.0 
-2.422456223579e-01 -1.975005408810e+01 0.0 
0.0 0.0 -7.861054522376e+00 
-7.890105917310e+00 -3.632897922068e-01 0.0 
-3.632897922068e-01 -1.968610313364e+01 0.0 
0.0 0.0 -7.872862715285e+00 
-8.115622706027e+00 -4.355586542520e-01 0.0 
-4.355586542520e-01 -1.964816999542e+01 0.0 
0.0 0.0 -7.929137810434e+00 
-8.412772368516e+00 -4.712844010975e-01 0.0 
-4.712844010975e-01 -1.961800658024e+01 0.0 
0.0 0.0 -8.009233684628e+00 
-8.755704591742e+00 -4.820061804927e-01 0.0 
-4.820061804927e-01 -1.959859978384e+01 0.0 
0.0 0.0 -8.106291312675e+00 
-9.117913704492e+00 -4.746122070024e-01 0.0 
-4.746122070024e-01 -1.958457995998e+01 0.0 
0.0 0.0 -8.210748099340e+00 
-9.483012195354e+00 -4.549398284608e-01 0.0 
-4.549398284608e-01 -1.957599933436e+01 0.0 
0.0 0.0 -8.317703458916e+00 
-9.838510953368e+00 -4.274194905768e-01 0.0 
-4.274194905768e-01 -1.957105992428e+01 0.0 
0.0 0.0 -8.422871263295e+00 
-1.017685184505e+01 -3.952674678654e-01 0.0 
-3.952674678654e-01 -1.956868461310e+01 0.0 
0.0 0.0 -8.523660937446e+00 
-1.049240267851e+01 -3.602279642910e-01 0.0 
-3.602279642910e-01 -1.956770337157e+01 0.0 
0.0 0.0 -8.618031815023e+00 
-1.078122637268e+01 -3.232066530349e-01 0.0 
-3.232066530349e-01 -1.956752519656e+01 0.0 
0.0 0.0 -8.704625470772e+00 
-1.104067821828e+01 -2.845516096661e-01 0.0 
-2.845516096661e-01 -1.956765377633e+01 0.0 
0.0 0.0 -8.782499598384e+00 
-1.126890610325e+01 -2.440768399767e-01 0.0 
-2.440768399767e-01 -1.956756980658e+01 0.0 
0.0 0.0 -8.850942772950e+00 
-1.146456493729e+01 -2.009372066018e-01 0.0 
-2.009372066018e-01 -1.956676676375e+01 0.0 
0.0 0.0 -8.909399510311e+00 
-1.162654051199e+01 -1.536257264618e-01 0.0 
-1.536257264618e-01 -1.956498425899e+01 0.0 
0.0 0.0 -8.957457431292e+00 
-1.175470609383e+01 -1.003124497000e-01 0.0 
-1.003124497000e-01 -1.956239270157e+01 0.0 
0.0 0.0 -8.995129638619e+00 
-1.185287803512e+01 -3.899396490295e-02 0.0 
-3.899396490295e-02 -1.955820323964e+01 0.0 
0.0 0.0 -9.023324382428e+00 
-1.195387767678e+01 3.787119522446e-02 0.0 
3.787119522446e-02 -1.955657832856e+01 0.0 
0.0 0.0 -9.053136801603e+00 
-1.218539882196e+01 -4.078429111298e-01 0.0 
-4.078429111298e-01 -1.965531733617e+01 0.0 
0.0 0.0 -9.152214847442e+00 
-2.060952811254e+01 -3.862241857755e-01 0.0 
-3.862241857755e-01 -3.919317676582e+01 0.0 
0.0 0.0 -1.754081146351e+01 
-2.054678938964e+01 -2.083178079616e-01 0.0 
-2.083178079616e-01 -3.912104859749e+01 0.0 
0.0 0.0 -1.750035139614e+01 
-2.047394129456e+01 -1.954687192110e-01 0.0 
-1.954687192110e-01 -3.912011189015e+01 0.0 
0.0 0.0 -1.747821595541e+01 
-2.039206999076e+01 -2.626214918611e-01 0.0 
-2.626214918611e-01 -3.913141424853e+01 0.0 
0.0 0.0 -1.745704527179e+01 
-2.029648955301e+01 -3.362720596446e-01 0.0 
-3.362720596446e-01 -3.914214886563e+01 0.0 
0.0 0.0 -1.743159152559e+01 
-2.018541555156e+01 -4.088145522530e-01 0.0 
-4.088145522530e-01 -3.915034493996e+01 0.0 
0.0 0.0 -1.740072814746e+01 
-2.005897409954e+01 -4.788186253129e-01 0.0 
-4.788186253129e-01 -3.915609955851e+01 0.0 
0.0 0.0 -1.736452209742e+01 
-1.991867676139e+01 -5.460422375741e-01 0.0 
-5.460422375741e-01 -3.916058898983e+01 0.0 
0.0 0.0 -1.732377972537e+01 
-1.976649298525e+01 -6.097162615517e-01 0.0 
-6.097162615517e-01 -3.916523256603e+01 0.0 
0.0 0.0 -1.727951766538e+01 
-1.960590883928e+01 -6.682971671718e-01 0.0 
-6.682971671718e-01 -3.917117118088e+01 0.0 
0.0 0.0 -1.723312400605e+01 
-1.944225287163e+01 -7.192789038293e-01 0.0 
-7.192789038293e-01 -3.917960427967e+01 0.0 
0.0 0.0 -1.718655714539e+01 
-1.928331567071e+01 -7.593073515076e-01 0.0 
-7.593073515076e-01 -3.919189439158e+01 0.0 
0.0 0.0 -1.714256301869e+01 
-1.913866867808e+01 -7.839115297096e-01 0.0 
-7.839115297096e-01 -3.921190287786e+01 0.0 
0.0 0.0 -1.710517146678e+01 
-1.901888742199e+01 -7.842079183966e-01 0.0 
-7.842079183966e-01 -3.924220779510e+01 0.0 
0.0 0.0 -1.707832856513e+01 
-1.894183347042e+01 -7.502109143611e-01 0.0 
-7.502109143611e-01 -3.928782397937e+01 0.0 
0.0 0.0 -1.706889723494e+01 
-1.892957913574e+01 -6.656195488726e-01 0.0 
-6.656195488726e-01 -3.934665337436e+01 0.0 
0.0 0.0 -1.708286975303e+01 
-1.901885854693e+01 -5.206448358522e-01 0.0 
-5.206448358522e-01 -3.943637077679e+01 0.0 
0.0 0.0 -1.713656879712e+01 
-1.923331105436e+01 -2.824689862845e-01 0.0 
-2.824689862845e-01 -3.954420317402e+01 0.0 
0.0 0.0 -1.723325426852e+01 
-1.964740144762e+01 5.485223564995e-02 0.0 
5.485223564995e-02 -3.972616679560e+01 0.0 
0.0 0.0 -1.741207047296e+01 
-2.026485729441e+01 5.757568906200e-01 0.0 
5.757568906200e-01 -3.987233016340e+01 0.0 
0.0 0.0 -1.764115623734e+01 
-2.129454863031e+01 1.317666036617e+00 0.0 
1.317666036617e+00 -4.021864345803e+01 0.0 
0.0 0.0 -1.805395762650e+01 
-2.354376403250e+01 2.804413397511e+00 0.0 
2.804413397511e+00 -4.180007286533e+01 0.0 
0.0 0.0 -1.920315106935e+01 
-2.380870497683e+01 3.946220398904e+00 0.0 
3.946220398904e+00 -3.855852764680e+01 0.0 
0.0 0.0 -1.831016978709e+01 
-3.308415155168e+01 3.254972324131e+00 0.0 
3.254972324131e+00 -5.837420431704e+01 0.0 
0.0 0.0 -2.703750676062e+01 
-3.327409333090e+01 2.380324451384e+00 0.0 
2.380324451384e+00 -6.169284552761e+01 0.0 
0.0 0.0 -2.809008165755e+01 
-3.145621121890e+01 1.183165893719e+00 0.0 
1.183165893719e+00 -6.014759058216e+01 0.0 
0.0 0.0 -2.708114054032e+01 
-3.055526542491e+01 5.428023851524e-01 0.0 
5.428023851524e-01 -5.967618002356e+01 0.0 
0.0 0.0 -2.666943363454e+01 
-2.998471767686e+01 5.408135335874e-02 0.0 
5.408135335874e-02 -5.945045668941e+01 0.0 
0.0 0.0 -2.643055230988e+01 
-2.952686957621e+01 -2.755867999478e-01 0.0 
-2.755867999478e-01 -5.921602670134e+01 0.0 
0.0 0.0 -2.622286888326e+01 
-2.923748044033e+01 -5.056301012491e-01 0.0 
-5.056301012491e-01 -5.907377059393e+01 0.0 
0.0 0.0 -2.609337531028e+01 
-2.903589833278e+01 -6.459835581567e-01 0.0 
-6.459835581567e-01 -5.894975437508e+01 0.0 
0.0 0.0 -2.599569581236e+01 
-2.891556842676e+01 -7.219388794817e-01 0.0 
-7.219388794817e-01 -5.886821800117e+01 0.0 
0.0 0.0 -2.593513592838e+01 
-2.884394014376e+01 -7.510912233153e-01 0.0 
-7.510912233153e-01 -5.881049870142e+01 0.0 
0.0 0.0 -2.589633165355e+01 
-2.881552673469e+01 -7.503885511592e-01 0.0 
-7.503885511592e-01 -5.877360929649e+01 0.0 
0.0 0.0 -2.587674080936e+01 
-2.881869650415e+01 -7.268275851817e-01 0.0 
-7.268275851817e-01 -5.874637708997e+01 0.0 
0.0 0.0 -2.586952207823e+01 
-2.884261266692e+01 -6.851710723333e-01 0.0 
-6.851710723333e-01 -5.872733519397e+01 0.0 
0.0 0.0 -2.587098435827e+01 
-2.887830789281e+01 -6.308473621304e-01 0.0 
-6.308473621304e-01 -5.871440850245e+01 0.0 
0.0 0.0 -2.587781491858e+01 
-2.892030381505e+01 -5.679708555986e-01 0.0 
-5.679708555986e-01 -5.870477650450e+01 0.0 
0.0 0.0 -2.588752409586e+01 
-2.896613227963e+01 -4.994728743152e-01 0.0 
-4.994728743152e-01 -5.869591730534e+01 0.0 
0.0 0.0 -2.589861487549e+01 
-2.901325025587e+01 -4.259958760375e-01 0.0 
-4.259958760375e-01 -5.868595975362e+01 0.0 
0.0 0.0 -2.590976300285e+01 
-2.905864452154e+01 -3.489935017566e-01 0.0 
-3.489935017566e-01 -5.867570503479e+01 0.0 
0.0 0.0 -2.592030486690e+01 
-2.910142223637e+01 -2.713464374332e-01 0.0 
-2.713464374332e-01 -5.866816573324e+01 0.0 
0.0 0.0 -2.593087639088e+01 
-2.913931239876e+01 -1.960857999056e-01 0.0 
-1.960857999056e-01 -5.867206105742e+01 0.0 
0.0 0.0 -2.594341203685e+01 
-2.916478321671e+01 -1.097602212156e-01 0.0 
-1.097602212156e-01 -5.870543619971e+01 0.0 
0.0 0.0 -2.596106582492e+01 
-2.916192036556e+01 -5.022037112831e-01 0.0 
-5.022037112831e-01 -5.874712658897e+01 0.0 
0.0 0.0 -2.597271408636e+01 
-3.775308531093e+01 -3.907375487269e-01 0.0 
-3.907375487269e-01 -7.825477424467e+01 0.0 
0.0 0.0 -3.440235786668e+01 
-3.776907371867e+01 -2.550826159003e-01 0.0 
-2.550826159003e-01 -7.821953142508e+01 0.0 
0.0 0.0 -3.439658154312e+01 
-3.777813208891e+01 -2.684602491524e-01 0.0 
-2.684602491524e-01 -7.820836290505e+01 0.0 
0.0 0.0 -3.439594849819e+01 
-3.778367769966e+01 -3.468695209546e-01 0.0 
-3.468695209546e-01 -7.821284592299e+01 0.0 
0.0 0.0 -3.439895708680e+01 
-3.779380744745e+01 -4.262955823821e-01 0.0 
-4.262955823821e-01 -7.822474713454e+01 0.0 
0.0 0.0 -3.440556637460e+01 
-3.781000759067e+01 -5.021959377984e-01 0.0 
-5.021959377984e-01 -7.824018396364e+01 0.0 
0.0 0.0 -3.441505746629e+01 
-3.783550028895e+01 -5.697893294716e-01 0.0 
-5.697893294716e-01 -7.825629743501e+01 0.0 
0.0 0.0 -3.442753931719e+01 
-3.787677111407e+01 -6.289782256393e-01 0.0 
-6.289782256393e-01 -7.827124581296e+01 0.0 
0.0 0.0 -3.444440507811e+01 
-3.793761562186e+01 -6.789704795092e-01 0.0 
-6.789704795092e-01 -7.829258754888e+01 0.0 
0.0 0.0 -3.446906095122e+01 
-3.801609669029e+01 -7.132671400484e-01 0.0 
-7.132671400484e-01 -7.832494653372e+01 0.0 
0.0 0.0 -3.450231296720e+01 
-3.812372777554e+01 -7.221997314632e-01 0.0 
-7.221997314632e-01 -7.837105293146e+01 0.0 
0.0 0.0 -3.454843421210e+01 
-3.827299804962e+01 -6.982808779328e-01 0.0 
-6.982808779328e-01 -7.843119823813e+01 0.0 
0.0 0.0 -3.461125888632e+01 
-3.847397243463e+01 -6.373475227370e-01 0.0 
-6.373475227370e-01 -7.850683966812e+01 0.0 
0.0 0.0 -3.469424363082e+01 
-3.873863832873e+01 -5.329436472652e-01 0.0 
-5.329436472652e-01 -7.863349909812e+01 0.0 
0.0 0.0 -3.481164122805e+01 
-3.905952549899e+01 -3.449570283519e-01 0.0 
-3.449570283519e-01 -7.880176946429e+01 0.0 
0.0 0.0 -3.495838848898e+01 
-3.949019356862e+01 -6.440494268140e-02 0.0 
-6.440494268140e-02 -7.906032493951e+01 0.0 
0.0 0.0 -3.516515555244e+01 
-4.000715406456e+01 3.746492217682e-01 0.0 
3.746492217682e-01 -7.931221888571e+01 0.0 
0.0 0.0 -3.539581188508e+01 
-4.078796393269e+01 9.059824464488e-01 0.0 
9.059824464488e-01 -7.977608934211e+01 0.0 
0.0 0.0 -3.576921598244e+01 
-4.229480534790e+01 1.892915317476e+00 0.0 
1.892915317476e+00 -8.136131271802e+01 0.0 
0.0 0.0 -3.669683541977e+01 
-4.193943868458e+01 2.633344669720e+00 0.0 
2.633344669720e+00 -7.811595931051e+01 0.0 
0.0 0.0 -3.561661939852e+01 
-5.049968284743e+01 2.080057327701e+00 0.0 
2.080057327701e+00 -9.758601292849e+01 0.0 
0.0 0.0 -4.402570873278e+01 
-5.101525933037e+01 1.574829497742e+00 0.0 
1.574829497742e+00 -1.008408412701e+02 0.0 
0.0 0.0 -4.515683018015e+01 
-4.969160155856e+01 7.647637769793e-01 0.0 
7.647637769793e-01 -9.936160017424e+01 0.0 
0.0 0.0 -4.431596051984e+01 
-4.900735960077e+01 3.255786904995e-01 0.0 
3.255786904995e-01 -9.885296382119e+01 0.0 
0.0 0.0 -4.395809702659e+01 
-4.856376700830e+01 -7.356775090316e-03 0.0 
-7.356775090316e-03 -9.857728197658e+01 0.0 
0.0 0.0 -4.374231469546e+01 
-4.812230014676e+01 -2.076387869357e-01 0.0 
-2.076387869357e-01 -9.832324851346e+01 0.0 
0.0 0.0 -4.353366459807e+01 
-4.777300512204e+01 -3.543843937286e-01 0.0 
-3.543843937286e-01 -9.819421258386e+01 0.0 
0.0 0.0 -4.339016531177e+01 
-4.748287646094e+01 -4.554599558695e-01 0.0 
-4.554599558695e-01 -9.808312635251e+01 0.0 
0.0 0.0 -4.326980084404e+01 
-4.724425915902e+01 -5.125899386829e-01 0.0 
-5.125899386829e-01 -9.799152877445e+01 0.0 
0.0 0.0 -4.317073638004e+01 
-4.705746922631e+01 -5.289024038233e-01 0.0 
-5.289024038233e-01 -9.791919552786e+01 0.0 
0.0 0.0 -4.309299942625e+01 
-4.689984674238e+01 -5.112808679642e-01 0.0 
-5.112808679642e-01 -9.787635133067e+01 0.0 
0.0 0.0 -4.303285942192e+01 
-4.675998076480e+01 -4.840947932789e-01 0.0 
-4.840947932789e-01 -9.785020864469e+01 0.0 
0.0 0.0 -4.298305682285e+01 
-4.665900903313e+01 -4.473324807259e-01 0.0 
-4.473324807259e-01 -9.782170063720e+01 0.0 
0.0 0.0 -4.294421290110e+01 
-4.657479243580e+01 -3.934463600551e-01 0.0 
-3.934463600551e-01 -9.779311152133e+01 0.0 
0.0 0.0 -4.291037118714e+01 
-4.650761699147e+01 -3.295811821164e-01 0.0 
-3.295811821164e-01 -9.777484032394e+01 0.0 
0.0 0.0 -4.288473719462e+01 
-4.645177495700e+01 -2.613708553812e-01 0.0 
-2.613708553812e-01 -9.776104957518e+01 0.0 
0.0 0.0 -4.286384735965e+01 
-4.641143474842e+01 -1.807980640697e-01 0.0 
-1.807980640697e-01 -9.776217578693e+01 0.0 
0.0 0.0 -4.285208316061e+01 
-4.636741452837e+01 -8.075359106235e-02 0.0 
-8.075359106235e-02 -9.778126104123e+01 0.0 
0.0 0.0 -4.284460267088e+01 
-4.635063069957e+01 -4.827546357778e-01 0.0 
-4.827546357778e-01 -9.779407321153e+01 0.0 
0.0 0.0 -4.284341117333e+01 
-5.489376898962e+01 -3.539718080016e-01 0.0 
-3.539718080016e-01 -1.173469970714e+02 0.0 
0.0 0.0 -5.127222981831e+01 
-5.496693115354e+01 -1.645959434179e-01 0.0 
-1.645959434179e-01 -1.172981745914e+02 0.0 
0.0 0.0 -5.127953172347e+01 
-5.503327512412e+01 -1.809734409714e-01 0.0 
-1.809734409714e-01 -1.172900533094e+02 0.0 
0.0 0.0 -5.129699853007e+01 
-5.510940966457e+01 -2.339758727308e-01 0.0 
-2.339758727308e-01 -1.173159175953e+02 0.0 
0.0 0.0 -5.132759817796e+01 
-5.522650268406e+01 -2.863810943267e-01 0.0 
-2.863810943267e-01 -1.173337450891e+02 0.0 
0.0 0.0 -5.136807433194e+01 
-5.534477681859e+01 -3.306997195621e-01 0.0 
-3.306997195621e-01 -1.173681830637e+02 0.0 
0.0 0.0 -5.141388796470e+01 
-5.549909113121e+01 -3.595969769260e-01 0.0 
-3.595969769260e-01 -1.174227413137e+02 0.0 
0.0 0.0 -5.147654973348e+01 
-5.567178144147e+01 -3.494888840145e-01 0.0 
-3.494888840145e-01 -1.174588770558e+02 0.0 
0.0 0.0 -5.153919754919e+01 
-5.589482443597e+01 -3.528377240977e-01 0.0 
-3.528377240977e-01 -1.174904617261e+02 0.0 
0.0 0.0 -5.161558584862e+01 
-5.613239223751e+01 -3.277504985683e-01 0.0 
-3.277504985683e-01 -1.175986733158e+02 0.0 
0.0 0.0 -5.171931966598e+01 
-5.642349957876e+01 -2.382468219989e-01 0.0 
-2.382468219989e-01 -1.177270441536e+02 0.0 
0.0 0.0 -5.184516311971e+01 
-5.677948315266e+01 -1.079746191468e-01 0.0 
-1.079746191468e-01 -1.178669134296e+02 0.0 
0.0 0.0 -5.199391897468e+01 
-5.717290740539e+01 7.914421444819e-02 0.0 
7.914421444819e-02 -1.180585517772e+02 0.0 
0.0 0.0 -5.216943775476e+01 
-5.762324689014e+01 3.322138414541e-01 0.0 
3.322138414541e-01 -1.182369181994e+02 0.0 
0.0 0.0 -5.235804952686e+01 
-5.823521403123e+01 6.068468603661e-01 0.0 
6.068468603661e-01 -1.187208583667e+02 0.0 
0.0 0.0 -5.268682171937e+01 
-5.945374807896e+01 1.283612547074e+00 0.0 
1.283612547074e+00 -1.202847968694e+02 0.0 
0.0 0.0 -5.352156348452e+01 
-5.888648348550e+01 1.700461636345e+00 0.0 
1.700461636345e+00 -1.170550846380e+02 0.0 
0.0 0.0 -5.238247043705e+01 
-6.705263920867e+01 1.446197961926e+00 0.0 
1.446197961926e+00 -1.363528057308e+02 0.0 
0.0 0.0 -6.062163348184e+01 
-6.756378628336e+01 1.178571613928e+00 0.0 
1.178571613928e+00 -1.394867237854e+02 0.0 
0.0 0.0 -6.171515302062e+01 
-6.649933627369e+01 6.911908415013e-01 0.0 
6.911908415013e-01 -1.381035033034e+02 0.0 
0.0 0.0 -6.098085187312e+01 
-6.605346676873e+01 4.199310873924e-01 0.0 
4.199310873924e-01 -1.377768486284e+02 0.0 
0.0 0.0 -6.074909461913e+01 
-6.561491392960e+01 2.432040189115e-01 0.0 
2.432040189115e-01 -1.375802038632e+02 0.0 
0.0 0.0 -6.055853533783e+01 
-6.522754767543e+01 6.990399833735e-02 0.0 
6.990399833735e-02 -1.374285400664e+02 0.0 
0.0 0.0 -6.039682632254e+01 
-6.487704402858e+01 -4.872340321360e-02 0.0 
-4.872340321360e-02 -1.372236600822e+02 0.0 
0.0 0.0 -6.023021123323e+01 
-6.458130878175e+01 -7.293217098596e-02 0.0 
-7.293217098596e-02 -1.371141762633e+02 0.0 
0.0 0.0 -6.010864551352e+01 
-6.442002887069e+01 -1.336929631605e-01 0.0 
-1.336929631605e-01 -1.371207590071e+02 0.0 
0.0 0.0 -6.006223636335e+01 
-6.415078769977e+01 -1.394594194805e-01 0.0 
-1.394594194805e-01 -1.370198661982e+02 0.0 
0.0 0.0 -5.995119616938e+01 
-6.396743242447e+01 -1.495238852095e-01 0.0 
-1.495238852095e-01 -1.369591365446e+02 0.0 
0.0 0.0 -5.987797069071e+01 
-6.381891360733e+01 -1.017801757974e-01 0.0 
-1.017801757974e-01 -1.369224381220e+02 0.0 
0.0 0.0 -5.982240551881e+01 
-6.366693815068e+01 -1.035250763203e-01 0.0 
-1.035250763203e-01 -1.369166353167e+02 0.0 
0.0 0.0 -5.977507204022e+01 
-6.355777099611e+01 -4.967391960998e-02 0.0 
-4.967391960998e-02 -1.368338023052e+02 0.0 
0.0 0.0 -5.971747199039e+01 
-6.350388115719e+01 7.780326574462e-02 0.0 
7.780326574462e-02 -1.369494708703e+02 0.0 
0.0 0.0 -5.973600560824e+01 
-6.340319713547e+01 -4.776910030217e-01 0.0 
-4.776910030217e-01 -1.370135403060e+02 0.0 
0.0 0.0 -5.972502123244e+01 
-4.018673351189e+01 3.220003425001e+01 0.0 
3.220003425001e+01 -3.861058973972e+01 0.0 
0.0 0.0 -2.414498723511e+01 
-3.368717530737e+01 2.310889508457e+01 0.0 
2.310889508457e+01 -2.601651988922e+01 0.0 
0.0 0.0 -1.692025345989e+01 
-2.327697249693e+01 1.014146204194e+01 0.0 
1.014146204194e+01 -1.673063785112e+01 0.0 
0.0 0.0 -1.022540042823e+01 
-2.609990890219e+01 7.540686047551e+00 0.0 
7.540686047551e+00 -3.504401614126e+01 0.0 
0.0 0.0 -1.787141214376e+01 
-3.303580354360e+01 6.259809454914e+00 0.0 
6.259809454914e+00 -5.402927558902e+01 0.0 
0.0 0.0 -2.571952373979e+01 
-4.113680826799e+01 4.749976851839e+00 0.0 
4.749976851839e+00 -7.343171789012e+01 0.0 
0.0 0.0 -3.397055784744e+01 
-4.917663255670e+01 3.699466507692e+00 0.0 
3.699466507692e+00 -9.276805699450e+01 0.0 
0.0 0.0 -4.218340686536e+01 
-5.735111527292e+01 2.843918619417e+00 0.0 
2.843918619417e+00 -1.120689464484e+02 0.0 
0.0 0.0 -5.042601851639e+01 
-6.547027151810e+01 2.324167081554e+00 0.0 
2.324167081554e+00 -1.313055029542e+02 0.0 
0.0 0.0 -5.863273234169e+01 
-7.353014224645e+01 2.001444322323e+00 0.0 
2.001444322323e+00 -1.506932716119e+02 0.0 
0.0 0.0 -6.686702415751e+01 
-3.460586655291e+01 2.368838728331e+01 0.0 
2.368838728331e+01 -3.774964527862e+01 0.0 
0.0 0.0 -2.021074601188e+01 
-1.617880115731e+02 6.950497302195e+00 0.0 
6.950497302195e+00 -3.844908766892e+02 0.0 
0.0 0.0 -1.634836664787e+02 
-8.049922661478e+00 -1.199372955940e+00 0.0 
-1.199372955940e+00 -1.724775506333e+01 0.0 
0.0 0.0 -7.285257742876e+00 
-5.346595806005e+01 -1.897626908546e+01 0.0 
-1.897626908546e+01 -8.730887489044e+01 0.0 
0.0 0.0 -4.292703462872e+01 
-1.634402186867e+02 2.098936972913e+00 0.0 
2.098936972913e+00 -3.868362591213e+02 0.0 
0.0 0.0 -1.646829433424e+02 
-3.555475148407e+01 1.067107624015e+01 0.0 
1.067107624015e+01 -5.593427006749e+01 0.0 
0.0 0.0 -2.703398633063e+01 
-9.161688854842e+01 -4.984661978663e-01 0.0 
-4.984661978663e-01 -2.113158282039e+02 0.0 
0.0 0.0 -9.047981502569e+01 
-1.589818718832e+02 1.057791594017e+01 0.0 
1.057791594017e+01 -3.764619015125e+02 0.0 
0.0 0.0 -1.602331320187e+02 
-4.867994171144e+01 6.451451268116e+00 0.0 
6.451451268116e+00 -9.063804778507e+01 0.0 
0.0 0.0 -4.139539684895e+01 
-1.563272299853e+02 1.230944623466e+01 0.0 
1.230944623466e+01 -3.665772944594e+02 0.0 
0.0 0.0 -1.564713573334e+02 
-6.468193680602e+01 3.765933532169e+00 0.0 
3.765933532169e+00 -1.293121107938e+02 0.0 
0.0 0.0 -5.779821427993e+01 
-1.645519944974e+02 6.536057510021e-02 0.0 
6.536057510021e-02 -3.865121963155e+02 0.0 
0.0 0.0 -1.649192572439e+02 
-4.101502540834e+00 -1.204579711884e-01 0.0 
-1.204579711884e-01 -1.612982075557e+01 0.0 
0.0 0.0 -5.495886915154e+00 
-1.529830468086e+02 1.145428887813e+01 0.0 
1.145428887813e+01 -3.559103608975e+02 0.0 
0.0 0.0 -1.522680223118e+02 
-8.062908263244e+01 2.642128154968e+00 0.0 
2.642128154968e+00 -1.679752134468e+02 0.0 
0.0 0.0 -7.418128882378e+01 
-5.695646268900e+01 -4.999947310699e-01 0.0 
-4.999947310699e-01 -1.303101819098e+02 0.0 
0.0 0.0 -5.577999337965e+01 
-1.147679018404e+02 -4.642043147595e-01 0.0 
-4.642043147595e-01 -2.664509159162e+02 0.0 
0.0 0.0 -1.139656453270e+02 
-1.505939538706e+02 9.782536590191e+00 0.0 
9.782536590191e+00 -3.487619640370e+02 0.0 
0.0 0.0 -1.494067753723e+02 
-1.482710194490e+02 6.945391366696e+00 0.0 
6.945391366696e+00 -3.437085128046e+02 0.0 
0.0 0.0 -1.471938596761e+02 
-1.454134549657e+02 2.186463654601e+00 0.0 
2.186463654601e+00 -3.383851056349e+02 0.0 
0.0 0.0 -1.447395681802e+02 
-1.454667551482e+02 3.460400378823e+00 0.0 
3.460400378823e+00 -3.376295472714e+02 0.0 
0.0 0.0 -1.445288907259e+02 
-1.470980643641e+02 5.250459959362e+00 0.0 
5.250459959362e+00 -3.414835151733e+02 0.0 
0.0 0.0 -1.461744738612e+02 
-8.316641427485e+01 1.713236664985e+00 0.0 
1.713236664985e+00 -1.757233740532e+02 0.0 
0.0 0.0 -7.726693649843e+01 
-8.122096862798e+01 6.380915626342e-01 0.0 
6.380915626342e-01 -1.745081816999e+02 0.0 
0.0 0.0 -7.631874509835e+01 
-8.085656202661e+01 3.912321602112e-01 0.0 
3.912321602112e-01 -1.754732778916e+02 0.0 
0.0 0.0 -7.649895197547e+01 
-1.089800156150e+02 3.008516646526e-01 0.0 
3.008516646526e-01 -2.453688438909e+02 0.0 
0.0 0.0 -1.059046578518e+02 
-1.638864789190e+02 -2.795210600368e-01 0.0 
-2.795210600368e-01 -3.839310778440e+02 0.0 
0.0 0.0 -1.639452670289e+02 
-6.249215632746e+01 1.004574761130e+01 0.0 
1.004574761130e+01 -1.073077477234e+02 0.0 
0.0 0.0 -5.175949985238e+01 
-3.727451476400e+00 -1.279499483882e-01 0.0 
-1.279499483882e-01 -1.716443716512e+01 0.0 
0.0 0.0 -5.525136045791e+00 
-1.412772694857e+02 -1.779186488358e-01 0.0 
-1.779186488358e-01 -3.293395320408e+02 0.0 
0.0 0.0 -1.407850404579e+02 
-7.909048061636e+01 3.170201286184e-02 0.0 
3.170201286184e-02 -1.730003098964e+02 0.0 
0.0 0.0 -7.522723715384e+01 
-2.758688196440e+01 -2.587939991409e-01 0.0 
-2.587939991409e-01 -6.876551151701e+01 0.0 
0.0 0.0 -2.850571804442e+01 
-1.480543964895e+02 8.231829008222e+00 0.0 
8.231829008222e+00 -3.426059218671e+02 0.0 
0.0 0.0 -1.467980955070e+02 
-1.583498181530e+02 1.180544733573e+01 0.0 
1.180544733573e+01 -3.730269611228e+02 0.0 
0.0 0.0 -1.590130337828e+02 
-1.545953346661e+02 1.215050193524e+01 0.0 
1.215050193524e+01 -3.609754277834e+02 0.0 
0.0 0.0 -1.542712287348e+02 
-1.597290831466e+02 8.996600058551e+00 0.0 
8.996600058551e+00 -3.797482889482e+02 0.0 
0.0 0.0 -1.614432116284e+02 
-1.629577351328e+02 4.898195161987e+00 0.0 
4.898195161987e+00 -3.868626588841e+02 0.0 
0.0 0.0 -1.645461182051e+02 
-2.551646160413e+01 -1.129974263699e+01 0.0 
-1.129974263699e+01 -2.437843058885e+01 0.0 
0.0 0.0 -1.460143132343e+01 
-8.183987279924e+01 1.037230617495e+00 0.0 
1.037230617495e+00 -1.743153226392e+02 0.0 
0.0 0.0 -7.644655863155e+01 
-1.622451226084e+02 8.289302186871e-01 0.0 
8.289302186871e-01 -3.832837358453e+02 0.0 
0.0 0.0 -1.632586575361e+02 
-1.244414966698e+02 3.615632848590e-01 0.0 
3.615632848590e-01 -2.842267165696e+02 0.0 
0.0 0.0 -1.222004639718e+02 
-5.528633156331e+00 -1.945962475800e-01 0.0 
-1.945962475800e-01 -1.720890619770e+01 0.0 
0.0 0.0 -6.533987216018e+00 
-7.420499412585e+01 -5.331948110224e-01 0.0 
-5.331948110224e-01 -1.697458096839e+02 0.0 
0.0 0.0 -7.278524114292e+01 
-1.462708618240e+02 1.361206564138e+00 0.0 
1.361206564138e+00 -3.409300559474e+02 0.0 
0.0 0.0 -1.457602753314e+02 
-4.238984451186e+01 8.751393862748e+00 0.0 
8.751393862748e+00 -7.475902116413e+01 0.0 
0.0 0.0 -3.474465970280e+01 
-3.263112625107e+01 1.564304591443e+01 0.0 
1.564304591443e+01 -4.101059050579e+01 0.0 
0.0 0.0 -2.061222024523e+01 
-5.661281892656e+01 4.902833820172e+00 0.0 
4.902833820172e+00 -1.099205017605e+02 0.0 
0.0 0.0 -4.955999620612e+01 
-7.262828390932e+01 3.146358714970e+00 0.0 
3.146358714970e+00 -1.483710508403e+02 0.0 
0.0 0.0 -6.589980042489e+01 
-3.831407964374e+01 3.130406767739e+01 0.0 
3.130406767739e+01 -4.480269704718e+01 0.0 
0.0 0.0 -2.514973041697e+01 
-9.367496994741e+01 1.225928449630e-01 0.0 
1.225928449630e-01 -2.079497362757e+02 0.0 
0.0 0.0 -9.008741186694e+01 
-1.651317654993e+02 -2.205572901745e-01 0.0 
-2.205572901745e-01 -3.864658214600e+02 0.0 
0.0 0.0 -1.650792760878e+02 
-3.323877049262e+00 -1.394295796593e-01 0.0 
-1.394295796593e-01 -1.637372918931e+01 0.0 
0.0 0.0 -5.104348963257e+00 
-1.395256056111e+02 3.326560892227e-01 0.0 
3.326560892227e-01 -3.228590369539e+02 0.0 
0.0 0.0 -1.383153927695e+02 
-8.446148474771e+01 2.572726872335e+00 0.0 
2.572726872335e+00 -1.770153218358e+02 0.0 
0.0 0.0 -7.804304197504e+01 
-8.827951183223e+01 3.309888532639e+00 0.0 
3.309888532639e+00 -1.858109376172e+02 0.0 
0.0 0.0 -8.182713483484e+01 
-9.179702869509e+01 2.996752627788e+00 0.0 
2.996752627788e+00 -1.946693727458e+02 0.0 
0.0 0.0 -8.553992043227e+01 
-9.617683281897e+01 4.014821245549e+00 0.0 
4.014821245549e+00 -2.050737329170e+02 0.0 
0.0 0.0 -8.997516972080e+01 
-1.000576693563e+02 3.800939700548e+00 0.0 
3.800939700548e+00 -2.148274520479e+02 0.0 
0.0 0.0 -9.406553642125e+01 
-1.039705202501e+02 4.636251537251e+00 0.0 
4.636251537251e+00 -2.242943193269e+02 0.0 
0.0 0.0 -9.807945187307e+01 
-1.002240128763e+02 4.879475008756e+00 0.0 
4.879475008756e+00 -2.146838068553e+02 0.0 
0.0 0.0 -9.407234591947e+01 
-1.079476385089e+02 5.498530214871e+00 0.0 
5.498530214871e+00 -2.340294206910e+02 0.0 
0.0 0.0 -1.021931177600e+02 
-1.041147546992e+02 5.784230861061e+00 0.0 
5.784230861061e+00 -2.244244326421e+02 0.0 
0.0 0.0 -9.816175620238e+01 
-1.079815836996e+02 4.468103159030e+00 0.0 
4.468103159030e+00 -2.343082451672e+02 0.0 
0.0 0.0 -1.022869486600e+02 
-1.117951024761e+02 6.378944038306e+00 0.0 
6.378944038306e+00 -2.439305893796e+02 0.0 
0.0 0.0 -1.063177075567e+02 
-1.079339651514e+02 6.711472868344e+00 0.0 
6.711472868344e+00 -2.344174766549e+02 0.0 
0.0 0.0 -1.023054325419e+02 
-1.155511766189e+02 7.242085114225e+00 0.0 
7.242085114225e+00 -2.540178960403e+02 0.0 
0.0 0.0 -1.104707217978e+02 
-1.116592356951e+02 7.626128887094e+00 0.0 
7.626128887094e+00 -2.446718235664e+02 0.0 
0.0 0.0 -1.064993177784e+02 
-1.040577174047e+02 7.148977270220e+00 0.0 
7.148977270220e+00 -2.251352144275e+02 0.0 
0.0 0.0 -9.835787954967e+01 
-1.077180699349e+02 8.096876900254e+00 0.0 
8.096876900254e+00 -2.355574092227e+02 0.0 
0.0 0.0 -1.025826437473e+02 
-1.001297102376e+02 7.693263947057e+00 0.0 
7.693263947057e+00 -2.159824589990e+02 0.0 
0.0 0.0 -9.443365077098e+01 
-1.037166155906e+02 8.686801685585e+00 0.0 
8.686801685585e+00 -2.266343297341e+02 0.0 
0.0 0.0 -9.870528359738e+01 
-1.112759174802e+02 8.965104675551e+00 0.0 
8.965104675551e+00 -2.462320133085e+02 0.0 
0.0 0.0 -1.068523792366e+02 
-1.071790680327e+02 9.572589567715e+00 0.0 
9.572589567715e+00 -2.375412759534e+02 0.0 
0.0 0.0 -1.030161031958e+02 
-9.959995023429e+01 9.400569708937e+00 0.0 
9.400569708937e+00 -2.178755480408e+02 0.0 
0.0 0.0 -9.484264948253e+01 
-1.029419658724e+02 1.028125471052e+01 0.0 
1.028125471052e+01 -2.290407856948e+02 0.0 
0.0 0.0 -9.919482547016e+01 
-9.539476315955e+01 1.023711256738e+01 0.0 
1.023711256738e+01 -2.093573383288e+02 0.0 
0.0 0.0 -9.102563044650e+01 
-9.860091320571e+01 1.109248332749e+01 0.0 
1.109248332749e+01 -2.208361115792e+02 0.0 
0.0 0.0 -9.543110743547e+01 
-9.106765522395e+01 1.120991736796e+01 0.0 
1.120991736796e+01 -2.010774650286e+02 0.0 
0.0 0.0 -8.724353607578e+01 
-9.411845167573e+01 1.200205625471e+01 0.0 
1.200205625471e+01 -2.129340041645e+02 0.0 
0.0 0.0 -9.171573675205e+01 
-1.016880870390e+02 1.168934905428e+01 0.0 
1.168934905428e+01 -2.325081948787e+02 0.0 
0.0 0.0 -9.985888457532e+01 
-9.701875578098e+01 1.246915783938e+01 0.0 
1.246915783938e+01 -2.248994923558e+02 0.0 
0.0 0.0 -9.617547444103e+01 
-8.947404909112e+01 1.298307800016e+01 0.0 
1.298307800016e+01 -2.053936374110e+02 0.0 
0.0 0.0 -8.806030595063e+01 
-9.217979659057e+01 1.326070736966e+01 0.0 
1.326070736966e+01 -2.176689223989e+02 0.0 
0.0 0.0 -9.255461569684e+01 
-8.465794155864e+01 1.399612192688e+01 0.0 
1.399612192688e+01 -1.982987719157e+02 0.0 
0.0 0.0 -8.448701404230e+01 
-8.715286490446e+01 1.399870077669e+01 0.0 
1.399870077669e+01 -2.108418389278e+02 0.0 
0.0 0.0 -8.899841114968e+01 
-9.486247741703e+01 1.313465917953e+01 0.0 
1.313465917953e+01 -2.298441401656e+02 0.0 
0.0 0.0 -9.701198527479e+01 
-8.969615688321e+01 1.354000458677e+01 0.0 
1.354000458677e+01 -2.231884974239e+02 0.0 
0.0 0.0 -9.346539629213e+01 
-8.191335733930e+01 1.460332685347e+01 0.0 
1.460332685347e+01 -2.044298098151e+02 0.0 
0.0 0.0 -8.550295014631e+01 
-8.436464839148e+01 1.370924868420e+01 0.0 
1.370924868420e+01 -2.169088080920e+02 0.0 
0.0 0.0 -8.998203694505e+01 
-7.650008563596e+01 1.495829014013e+01 0.0 
1.495829014013e+01 -1.985145977171e+02 0.0 
0.0 0.0 -8.210440500593e+01 
-7.892047981511e+01 1.351827161417e+01 0.0 
1.351827161417e+01 -2.110183611726e+02 0.0 
0.0 0.0 -8.658165229631e+01 
-7.093255873478e+01 1.488689964970e+01 0.0 
1.488689964970e+01 -1.931142729657e+02 0.0 
0.0 0.0 -7.881404951013e+01 
-7.338230505782e+01 1.282663199639e+01 0.0 
1.282663199639e+01 -2.053680785773e+02 0.0 
0.0 0.0 -8.322511509053e+01 
-8.165195377358e+01 1.172270266141e+01 0.0 
1.172270266141e+01 -2.227022133547e+02 0.0 
0.0 0.0 -9.090625013850e+01 
-7.627129047679e+01 1.051512938692e+01 0.0 
1.051512938692e+01 -2.166206839509e+02 0.0 
0.0 0.0 -8.746759232832e+01 
-6.788147827071e+01 1.149639861743e+01 0.0 
1.149639861743e+01 -1.998800381435e+02 0.0 
0.0 0.0 -7.992845492428e+01 
-7.101639403278e+01 8.678777285348e+00 0.0 
8.678777285348e+00 -2.103743847804e+02 0.0 
0.0 0.0 -8.401723364396e+01 
-7.961630742241e+01 8.149871678697e+00 0.0 
8.149871678697e+00 -2.269114713867e+02 0.0 
0.0 0.0 -9.155833364275e+01 
-7.465311700267e+01 6.006546275747e+00 0.0 
6.006546275747e+00 -2.197839970066e+02 0.0 
0.0 0.0 -8.793113420277e+01 
-8.337887227263e+01 5.920597420073e+00 0.0 
5.920597420073e+00 -2.363241186069e+02 0.0 
0.0 0.0 -9.551089726387e+01 
-7.871307213327e+01 3.648942967665e+00 0.0 
3.648942967665e+00 -2.283139736996e+02 0.0 
0.0 0.0 -9.170811374985e+01 
-7.010732425820e+01 3.341488060616e+00 0.0 
3.341488060616e+00 -2.121430505597e+02 0.0 
0.0 0.0 -8.427511244538e+01 
-7.448186513867e+01 1.020693203523e+00 0.0 
1.020693203523e+00 -2.196518689224e+02 0.0 
0.0 0.0 -8.784012021832e+01 
-8.308643495265e+01 1.701754484793e+00 0.0 
1.701754484793e+00 -2.361683640577e+02 0.0 
0.0 0.0 -9.537643970312e+01 
-7.909067916733e+01 -7.428369144589e-01 0.0 
-7.428369144589e-01 -2.266040502447e+02 0.0 
0.0 0.0 -9.130841882359e+01 
-7.076554892961e+01 -1.821287485692e+00 0.0 
-1.821287485692e+00 -2.101226589561e+02 0.0 
0.0 0.0 -8.386646236572e+01 
-7.557223442955e+01 -3.228327562868e+00 0.0 
-3.228327562868e+00 -2.162619973005e+02 0.0 
0.0 0.0 -8.715026951902e+01 
-8.384193952851e+01 -1.979152913889e+00 0.0 
-1.979152913889e+00 -2.333083313690e+02 0.0 
0.0 0.0 -9.474508126925e+01 
-8.041390451925e+01 -4.066856449013e+00 0.0 
-4.066856449013e+00 -2.223566423874e+02 0.0 
0.0 0.0 -9.043116407198e+01 
-7.248629020877e+01 -5.553788757613e+00 0.0 
-5.553788757613e+00 -2.050442373743e+02 0.0 
0.0 0.0 -8.285915827491e+01 
-7.730635730720e+01 -5.907577647957e+00 0.0 
-5.907577647957e+00 -2.106960810285e+02 0.0 
0.0 0.0 -8.600073150071e+01 
-8.525480043168e+01 -4.451820417680e+00 0.0 
-4.451820417680e+00 -2.286475130483e+02 0.0 
0.0 0.0 -9.377069404400e+01 
-8.202064356460e+01 -5.864522898080e+00 0.0 
-5.864522898080e+00 -2.166406584857e+02 0.0 
0.0 0.0 -8.919839061510e+01 
-7.439909713322e+01 -7.346365491420e+00 0.0 
-7.346365491420e+00 -1.983225504513e+02 0.0 
0.0 0.0 -8.141649427535e+01 
-7.891012540162e+01 -6.897872137680e+00 0.0 
-6.897872137680e+00 -2.041462751169e+02 0.0 
0.0 0.0 -8.451692015554e+01 
-8.664787491272e+01 -5.569636029883e+00 0.0 
-5.569636029883e+00 -2.229779688185e+02 0.0 
0.0 0.0 -9.248775311938e+01 
-8.329588284551e+01 -6.280925019728e+00 0.0 
-6.280925019728e+00 -2.103982219286e+02 0.0 
0.0 0.0 -8.770823143225e+01 
-9.116521136295e+01 -5.110657478562e+00 0.0 
-5.110657478562e+00 -2.296105141016e+02 0.0 
0.0 0.0 -9.583271763936e+01 
-7.572378387052e+01 -7.470517255976e+00 0.0 
-7.470517255976e+00 -1.911199024508e+02 0.0 
0.0 0.0 -7.965310589639e+01 
-7.985119903744e+01 -6.594203747056e+00 0.0 
-6.594203747056e+00 -1.975281538958e+02 0.0 
0.0 0.0 -8.281380587999e+01 
-7.234634766419e+01 -7.563270207002e+00 0.0 
-7.563270207002e+00 -1.777854489958e+02 0.0 
0.0 0.0 -7.463953899798e+01 
-7.623732952879e+01 -6.515297499454e+00 0.0 
-6.515297499454e+00 -1.845448584315e+02 0.0 
0.0 0.0 -7.783465638810e+01 
-9.762022570494e+01 1.264088658176e+01 0.0 
1.264088658176e+01 -2.417988435265e+02 0.0 
0.0 0.0 -1.014257207694e+02 
-6.869614493681e+01 -7.188994161225e+00 0.0 
-7.188994161225e+00 -1.644596603263e+02 0.0 
0.0 0.0 -6.954674157892e+01 
-6.513988864463e+01 -8.391666477639e+00 0.0 
-8.391666477639e+00 -1.579859318299e+02 0.0 
0.0 0.0 -6.653774614236e+01 
-7.236149782257e+01 -6.084488001678e+00 0.0 
-6.084488001678e+00 -1.716162074294e+02 0.0 
0.0 0.0 -7.279331157560e+01 
-8.015035130612e+01 -5.535282319738e+00 0.0 
-5.535282319738e+00 -1.917953246853e+02 0.0 
0.0 0.0 -8.118370279742e+01 
-6.465476764091e+01 -6.440221512851e+00 0.0 
-6.440221512851e+00 -1.512808766790e+02 0.0 
0.0 0.0 -6.438069329596e+01 
-6.815819529952e+01 -5.393244637299e+00 0.0 
-5.393244637299e+00 -1.588342510339e+02 0.0 
0.0 0.0 -6.769773390002e+01 
-6.018187506654e+01 -5.468865502526e+00 0.0 
-5.468865502526e+00 -1.383806692218e+02 0.0 
0.0 0.0 -5.916876328649e+01 
-6.867509436841e+01 1.645225443172e+01 0.0 
1.645225443172e+01 -1.796038098234e+02 0.0 
0.0 0.0 -7.408367125755e+01 
-1.147544439268e+02 9.732829556107e+00 0.0 
9.732829556107e+00 -2.571354157353e+02 0.0 
0.0 0.0 -1.111669578986e+02 
-6.359992305646e+01 -4.542779332986e+00 0.0 
-4.542779332986e+00 -1.462930202309e+02 0.0 
0.0 0.0 -6.256788298620e+01 
-5.527906703804e+01 -4.364462511051e+00 0.0 
-4.364462511051e+00 -1.258246100558e+02 0.0 
0.0 0.0 -5.393110312816e+01 
-5.206648545908e+01 -5.227087313539e+00 0.0 
-5.227087313539e+00 -1.177827677223e+02 0.0 
0.0 0.0 -5.055477595441e+01 
-4.675024081807e+01 -3.921648649655e+00 0.0 
-3.921648649655e+00 -1.053325138087e+02 0.0 
0.0 0.0 -4.522482638802e+01 
-1.041067729156e+02 3.770170882477e+00 0.0 
3.770170882477e+00 -2.249041591476e+02 0.0 
0.0 0.0 -9.830327961897e+01 
-1.117582428054e+02 4.275182057501e+00 0.0 
4.275182057501e+00 -2.444019940779e+02 0.0 
0.0 0.0 -1.064480710650e+02 
-1.076052499679e+02 3.574512035514e+00 0.0 
3.574512035514e+00 -2.344272845573e+02 0.0 
0.0 0.0 -1.022097603576e+02 
-1.154869539979e+02 4.162557317479e+00 0.0 
4.162557317479e+00 -2.545025394060e+02 0.0 
0.0 0.0 -1.105968480212e+02 
-1.115374630242e+02 3.493977797995e+00 0.0 
3.493977797995e+00 -2.449735553107e+02 0.0 
0.0 0.0 -1.065533055005e+02 
-5.003300563376e+01 -3.262044029815e+00 0.0 
-3.262044029815e+00 -1.136012085596e+02 0.0 
0.0 0.0 -4.869026425799e+01 
-1.194568725129e+02 6.932167504382e+00 0.0 
6.932167504382e+00 -2.637130534620e+02 0.0 
0.0 0.0 -1.145509777925e+02 
-1.194122828803e+02 4.874102140832e+00 0.0 
4.874102140832e+00 -2.641207610049e+02 0.0 
0.0 0.0 -1.146599131656e+02 
-9.202548093119e+01 9.170097014943e+00 0.0 
9.170097014943e+00 -1.981648635055e+02 0.0 
0.0 0.0 -8.665710333101e+01 
-8.205650130199e+01 1.349952611623e+01 0.0 
1.349952611623e+01 -1.856724147610e+02 0.0 
0.0 0.0 -7.991867481890e+01 
-8.836754386953e+01 7.767590459960e+00 0.0 
7.767590459960e+00 -2.438811812569e+02 0.0 
0.0 0.0 -9.927461753793e+01 
-7.175630755828e+01 -4.445340526553e+00 0.0 
-4.445340526553e+00 -1.666405027753e+02 0.0 
0.0 0.0 -7.111904310007e+01 
-6.715409424962e+01 -3.723338643791e+00 0.0 
-3.723338643791e+00 -1.544041909515e+02 0.0 
0.0 0.0 -6.606748556034e+01 
-7.539142427217e+01 -3.581112018935e+00 0.0 
-3.581112018935e+00 -1.746914595403e+02 0.0 
0.0 0.0 -7.462486514375e+01 
-9.471361727258e+01 -4.314604312599e+00 0.0 
-4.314604312599e+00 -2.418702697164e+02 0.0 
0.0 0.0 -1.005751660967e+02 
-9.929615069214e+01 -3.990562040477e+00 0.0 
-3.990562040477e+00 -2.487725496470e+02 0.0 
0.0 0.0 -1.040206101017e+02 
-1.030486946312e+02 -3.157572839632e+00 0.0 
-3.157572839632e+00 -2.607702945080e+02 0.0 
0.0 0.0 -1.087456967418e+02 
-1.076571728940e+02 -2.944895874969e+00 0.0 
-2.944895874969e+00 -2.678804129144e+02 0.0 
0.0 0.0 -1.122612757425e+02 
-1.116148921349e+02 -2.107674650215e+00 0.0 
-2.107674650215e+00 -2.796677204293e+02 0.0 
0.0 0.0 -1.169847837693e+02 
-1.162247811177e+02 -1.995110610757e+00 0.0 
-1.995110610757e+00 -2.869532626033e+02 0.0 
0.0 0.0 -1.205534131163e+02 
-1.121655308551e+02 -2.647770331913e+00 0.0 
-2.647770331913e+00 -2.751188855934e+02 0.0 
0.0 0.0 -1.157853249346e+02 
-1.207343822579e+02 -1.803539011724e+00 0.0 
-1.803539011724e+00 -2.943287388713e+02 0.0 
0.0 0.0 -1.241189363388e+02 
-1.165752287571e+02 -2.306818528696e+00 0.0 
-2.306818528696e+00 -2.824919386871e+02 0.0 
0.0 0.0 -1.193201502332e+02 
-1.203856395439e+02 -1.177723303149e+00 0.0 
-1.177723303149e+00 -2.985632622825e+02 0.0 
0.0 0.0 -1.252846705479e+02 
-1.156785397635e+02 -1.101939290965e+00 0.0 
-1.101939290965e+00 -2.911306722643e+02 0.0 
0.0 0.0 -1.216427636083e+02 
-1.251413629775e+02 -1.572834388724e+00 0.0 
-1.572834388724e+00 -3.017989931791e+02 0.0 
0.0 0.0 -1.276821068470e+02 
-1.208875576529e+02 -1.955829483688e+00 0.0 
-1.955829483688e+00 -2.899945735374e+02 0.0 
0.0 0.0 -1.228646393571e+02 
-1.294512452310e+02 -1.333371779557e+00 0.0 
-1.333371779557e+00 -3.093797500228e+02 0.0 
0.0 0.0 -1.312492985761e+02 
-1.251044294076e+02 -1.609586613127e+00 0.0 
-1.609586613127e+00 -2.976239586221e+02 0.0 
0.0 0.0 -1.264185164089e+02 
-1.166381845618e+02 -2.191986853310e+00 0.0 
-2.191986853310e+00 -2.780765976067e+02 0.0 
0.0 0.0 -1.180144346505e+02 
-1.207493874212e+02 -1.762893333541e+00 0.0 
-1.762893333541e+00 -2.857813155244e+02 0.0 
0.0 0.0 -1.215592108837e+02 
-1.123880573602e+02 -2.271374780860e+00 0.0 
-2.271374780860e+00 -2.661846521599e+02 0.0 
0.0 0.0 -1.131718128560e+02 
-9.224237125099e+01 5.903038965485e+00 0.0 
5.903038965485e+00 -2.533129546351e+02 0.0 
0.0 0.0 -1.032665977658e+02 
-9.725129786076e+01 7.506646973342e+00 0.0 
7.506646973342e+00 -2.612270289500e+02 0.0 
0.0 0.0 -1.071434980432e+02 
-1.012313971441e+02 5.941046710536e+00 0.0 
5.941046710536e+00 -2.706756165234e+02 0.0 
0.0 0.0 -1.111721041002e+02 
-1.062609681757e+02 7.350835631870e+00 0.0 
7.350835631870e+00 -2.788869283247e+02 0.0 
0.0 0.0 -1.151443689501e+02 
-1.103574530233e+02 6.037509338507e+00 0.0 
6.037509338507e+00 -2.883538278103e+02 0.0 
0.0 0.0 -1.192133842501e+02 
-1.154006289431e+02 7.295153670408e+00 0.0 
7.295153670408e+00 -2.967938883798e+02 0.0 
0.0 0.0 -1.232583551969e+02 
-1.196150073447e+02 6.191413362861e+00 0.0 
6.191413362861e+00 -3.062487994043e+02 0.0 
0.0 0.0 -1.273591420247e+02 
-1.146779652410e+02 4.864063984237e+00 0.0 
4.864063984237e+00 -2.973660638267e+02 0.0 
0.0 0.0 -1.232132087203e+02 
-1.191840970163e+02 8.079566236417e+00 0.0 
8.079566236417e+00 -2.642580117143e+02 0.0 
0.0 0.0 -1.146326326192e+02 
-6.257848886285e+01 9.373138429515e+00 0.0 
9.373138429515e+00 -1.943248147589e+02 0.0 
0.0 0.0 -7.667099108653e+01 
-5.969813411261e+01 1.272427523330e+01 0.0 
1.272427523330e+01 -1.835058660373e+02 0.0 
0.0 0.0 -7.256120004497e+01 
-5.435818400716e+01 1.027427052923e+01 0.0 
1.027427052923e+01 -1.788562791787e+02 0.0 
0.0 0.0 -6.956433895577e+01 
-5.183202198975e+01 1.425864126749e+01 0.0 
1.425864126749e+01 -1.675868882650e+02 0.0 
0.0 0.0 -6.542567307643e+01 
-4.647128944706e+01 1.146018075321e+01 0.0 
1.146018075321e+01 -1.640700409544e+02 0.0 
0.0 0.0 -6.276239912044e+01 
-4.445732405818e+01 1.616051408324e+01 0.0 
1.616051408324e+01 -1.521316046198e+02 0.0 
0.0 0.0 -5.857667860340e+01 
-3.926403382547e+01 1.299029960963e+01 0.0 
1.299029960963e+01 -1.500151424525e+02 0.0 
0.0 0.0 -5.632879587353e+01 
-4.170445432145e+01 7.261484486067e+00 0.0 
7.261484486067e+00 -1.600658566461e+02 0.0 
0.0 0.0 -6.010705768226e+01 
-3.521825077587e+01 7.980614940505e+00 0.0 
7.980614940505e+00 -1.474493987422e+02 0.0 
0.0 0.0 -5.450360901791e+01 
-3.822177457398e+01 1.654835312533e+00 0.0 
1.654835312533e+00 -1.545752015668e+02 0.0 
0.0 0.0 -5.731446652306e+01 
-3.241211171547e+01 1.287551320452e+00 0.0 
1.287551320452e+00 -1.429899357711e+02 0.0 
0.0 0.0 -5.278183160936e+01 
-3.613437284096e+01 -4.826845365194e+00 0.0 
-4.826845365194e+00 -1.465458176822e+02 0.0 
0.0 0.0 -5.451967102908e+01 
-1.046928075189e+02 1.200737960048e+01 0.0 
1.200737960048e+01 -2.442479208224e+02 0.0 
0.0 0.0 -1.042822185024e+02 
-1.114116140637e+02 8.476366154827e+00 0.0 
8.476366154827e+00 -2.868580217563e+02 0.0 
0.0 0.0 -1.190808907460e+02 
-1.205532879413e+02 8.323220918725e+00 0.0 
8.323220918725e+00 -3.050301744271e+02 0.0 
0.0 0.0 -1.272750387105e+02 
-1.165799776054e+02 9.339461929178e+00 0.0 
9.339461929178e+00 -2.946114397384e+02 0.0 
0.0 0.0 -1.229574252031e+02 
-4.362437561039e+01 -4.602013109236e+00 0.0 
-4.602013109236e+00 -9.713504541297e+01 0.0 
0.0 0.0 -4.182782630701e+01 
-1.292345637429e+02 -1.284408402353e+00 0.0 
-1.284408402353e+00 -3.053906780035e+02 0.0 
0.0 0.0 -1.299875725239e+02 
-1.246781447442e+02 -2.209846627068e-01 0.0 
-2.209846627068e-01 -3.098945849744e+02 0.0 
0.0 0.0 -1.299718189156e+02 
-1.198821273861e+02 2.630742682783e-02 0.0 
2.630742682783e-02 -3.022025104304e+02 0.0 
0.0 0.0 -1.262253913449e+02 
-1.240493547602e+02 5.189037189159e+00 0.0 
5.189037189159e+00 -3.153556357268e+02 0.0 
0.0 0.0 -1.314214971461e+02 
-4.116743253467e+01 -2.756795228397e+00 0.0 
-2.756795228397e+00 -9.346932978897e+01 0.0 
0.0 0.0 -3.999102869709e+01 
-3.822992649211e+01 1.847993227951e+01 0.0 
1.847993227951e+01 -1.371914000386e+02 0.0 
0.0 0.0 -5.219185890867e+01 
-4.332127061459e+01 2.021470845553e+01 0.0 
2.021470845553e+01 -1.377203428514e+02 0.0 
0.0 0.0 -5.391248403980e+01 
-1.192322971360e+02 4.057019918133e+00 0.0 
4.057019918133e+00 -2.647135123695e+02 0.0 
0.0 0.0 -1.147837428516e+02 
-1.153287057298e+02 3.409750000562e+00 0.0 
3.409750000562e+00 -2.552397317936e+02 0.0 
0.0 0.0 -1.107705312570e+02 
-1.291502142963e+02 8.259330546409e-01 0.0 
8.259330546409e-01 -3.209390311064e+02 0.0 
0.0 0.0 -1.346267736208e+02 
-4.457329668664e+01 -2.306781670643e+00 0.0 
-2.306781670643e+00 -1.018409050746e+02 0.0 
0.0 0.0 -4.352426052838e+01 
-1.294593101113e+02 -1.055776760986e+00 0.0 
-1.055776760986e+00 -3.134866370435e+02 0.0 
0.0 0.0 -1.324837841464e+02 
-3.019530826251e+01 9.138700042692e+00 0.0 
9.138700042692e+00 -1.363391634605e+02 0.0 
0.0 0.0 -5.063336494944e+01 
-1.247950155116e+02 -1.376208740498e+00 0.0 
-1.376208740498e+00 -2.936389368853e+02 0.0 
0.0 0.0 -1.251301857191e+02 
-1.332547164112e+02 -9.910177999690e-01 0.0 
-9.910177999690e-01 -3.132777688092e+02 0.0 
0.0 0.0 -1.335597455661e+02 
-1.081697378858e+02 -3.113176448911e+00 0.0 
-3.113176448911e+00 -2.631441422058e+02 0.0 
0.0 0.0 -1.109941640275e+02 
-1.257487210848e+02 9.153059864198e+00 0.0 
9.153059864198e+00 -3.131231940617e+02 0.0 
0.0 0.0 -1.312615745440e+02 
-1.217289801634e+02 9.977390021968e+00 0.0 
9.977390021968e+00 -3.022692701593e+02 0.0 
0.0 0.0 -1.267994750968e+02 
-4.247117197816e+01 -3.297190871817e+00 0.0 
-3.297190871817e+00 -1.595349521057e+02 0.0 
0.0 0.0 -6.017667555520e+01 
-4.088048159583e+01 -8.949390837954e+00 0.0 
-8.949390837954e+00 -1.488149419471e+02 0.0 
0.0 0.0 -5.643952839731e+01 
-3.594866473815e+01 -1.149337889716e+01 0.0 
-1.149337889716e+01 -1.351648338396e+02 0.0 
0.0 0.0 -5.126739387385e+01 
-4.115176136893e+01 -1.388128031249e+01 0.0 
-1.388128031249e+01 -1.355153131636e+02 0.0 
0.0 0.0 -5.242477500628e+01 
-4.611971859839e+01 -1.098454848912e+01 0.0 
-1.098454848912e+01 -1.509633620798e+02 0.0 
0.0 0.0 -5.871806042223e+01 
-4.560889958980e+01 -1.427893563439e+01 0.0 
-1.427893563439e+01 -1.363076531407e+02 0.0 
0.0 0.0 -5.407658606646e+01 
-4.223333756204e+01 -1.719001935810e+01 0.0 
-1.719001935810e+01 -1.189130589949e+02 0.0 
0.0 0.0 -4.735632894586e+01 
-4.539879953766e+01 -1.587697870025e+01 0.0 
-1.587697870025e+01 -1.196974745121e+02 0.0 
0.0 0.0 -4.878388110461e+01 
-4.996350217072e+01 -1.358614914006e+01 0.0 
-1.358614914006e+01 -1.386371067871e+02 0.0 
0.0 0.0 -5.618018268736e+01 
-4.858809051667e+01 -1.403379559500e+01 0.0 
-1.403379559500e+01 -1.225804407976e+02 0.0 
0.0 0.0 -5.089817919302e+01 
-4.485345333148e+01 -1.508867629863e+01 0.0 
-1.508867629863e+01 -1.018832022479e+02 0.0 
0.0 0.0 -4.289734084608e+01 
-4.649245739132e+01 -1.276350590083e+01 0.0 
-1.276350590083e+01 -1.060831235518e+02 0.0 
0.0 0.0 -4.519857683708e+01 
-1.377406114914e+02 -8.751119977763e-01 0.0 
-8.751119977763e-01 -3.248750383794e+02 0.0 
0.0 0.0 -1.383846949613e+02 
-2.776148346092e+01 9.825840762455e-01 0.0 
9.825840762455e-01 -1.329057482579e+02 0.0 
0.0 0.0 -4.940959460847e+01 
-9.638716192068e+01 6.643582458948e+00 0.0 
6.643582458948e+00 -2.056239008202e+02 0.0 
0.0 0.0 -9.020331882227e+01 
-1.338566682919e+02 5.237380813355e-01 0.0 
5.237380813355e-01 -3.286568431994e+02 0.0 
0.0 0.0 -1.383540534474e+02 
-1.289574949331e+02 6.399275732115e+00 0.0 
6.399275732115e+00 -3.241489872294e+02 0.0 
0.0 0.0 -1.355319446487e+02 
-1.229932524323e+02 3.937823668416e+00 0.0 
3.937823668416e+00 -2.750401770233e+02 0.0 
0.0 0.0 -1.190100288367e+02 
-1.191327606011e+02 3.313724064286e+00 0.0 
3.313724064286e+00 -2.656481150991e+02 0.0 
0.0 0.0 -1.150342627101e+02 
-1.113345573876e+02 2.775177355917e+00 0.0 
2.775177355917e+00 -2.458047131200e+02 0.0 
0.0 0.0 -1.067417811523e+02 
-1.152220810304e+02 2.720655841873e+00 0.0 
2.720655841873e+00 -2.563725983750e+02 0.0 
0.0 0.0 -1.110784038216e+02 
-1.229476389377e+02 3.217444119263e+00 0.0 
3.217444119263e+00 -2.762143742746e+02 0.0 
0.0 0.0 -1.193486039637e+02 
-1.191104912678e+02 2.649701407856e+00 0.0 
2.649701407856e+00 -2.669739970534e+02 0.0 
0.0 0.0 -1.154253464964e+02 
-1.112769483527e+02 2.200911363865e+00 0.0 
2.200911363865e+00 -2.471507737521e+02 0.0 
0.0 0.0 -1.071283166314e+02 
-1.152572792062e+02 2.144696669012e+00 0.0 
2.144696669012e+00 -2.577625559746e+02 0.0 
0.0 0.0 -1.115059505542e+02 
-1.073457050486e+02 1.741159782455e+00 0.0 
1.741159782455e+00 -2.379514720072e+02 0.0 
0.0 0.0 -1.031891531167e+02 
-1.113909897967e+02 1.696083807027e+00 0.0 
1.696083807027e+00 -2.486100571207e+02 0.0 
0.0 0.0 -1.076003140752e+02 
-1.192485807870e+02 2.066755201527e+00 0.0 
2.066755201527e+00 -2.684243638845e+02 0.0 
0.0 0.0 -1.159018834015e+02 
-1.154509080998e+02 1.649142256383e+00 0.0 
1.649142256383e+00 -2.593396071983e+02 0.0 
0.0 0.0 -1.120371545894e+02 
-1.075000314491e+02 1.301656327459e+00 0.0 
1.301656327459e+00 -2.395553520851e+02 0.0 
0.0 0.0 -1.037166150603e+02 
-1.116339524791e+02 1.286179633535e+00 0.0 
1.286179633535e+00 -2.502860915137e+02 0.0 
0.0 0.0 -1.081760131978e+02 
-1.035969944883e+02 9.850901128813e-01 0.0 
9.850901128813e-01 -2.305037878719e+02 0.0 
0.0 0.0 -9.983023470805e+01 
-1.078188265521e+02 9.907377553191e-01 0.0 
9.907377553191e-01 -2.411749654792e+02 0.0 
0.0 0.0 -1.042981376094e+02 
-1.157919968747e+02 1.198888068081e+00 0.0 
1.198888068081e+00 -2.610673215348e+02 0.0 
0.0 0.0 -1.126577955229e+02 
-3.566184698000e+01 -1.854448026497e+00 0.0 
-1.854448026497e+00 -8.244961103486e+01 0.0 
0.0 0.0 -3.503343740446e+01 
-1.191833400723e+02 3.853147146551e+00 0.0 
3.853147146551e+00 -3.060325020301e+02 0.0 
0.0 0.0 -1.271647526307e+02 
-1.287096390884e+02 4.305847745715e+00 0.0 
4.305847745715e+00 -3.242846300199e+02 0.0 
0.0 0.0 -1.354982807325e+02 
-7.093131015888e+01 -2.882019817270e+00 0.0 
-2.882019817270e+00 -1.632684593137e+02 0.0 
0.0 0.0 -6.985993084177e+01 
-7.898004383495e+01 -2.763737508664e+00 0.0 
-2.763737508664e+00 -1.826375668850e+02 0.0 
0.0 0.0 -7.808528321597e+01 
-8.355316022597e+01 -3.408301413902e+00 0.0 
-3.408301413902e+00 -1.948171208330e+02 0.0 
0.0 0.0 -8.311108431770e+01 
-8.745962305645e+01 -2.647586186874e+00 0.0 
-2.647586186874e+00 -2.030876554083e+02 0.0 
0.0 0.0 -8.676418353943e+01 
-1.119932648324e+02 9.086134751610e-01 0.0 
9.086134751610e-01 -2.518605466477e+02 0.0 
0.0 0.0 -1.087561434440e+02 
-1.198805228764e+02 1.061089258154e+00 0.0 
1.061089258154e+00 -2.718703249004e+02 0.0 
0.0 0.0 -1.171252543331e+02 
-3.827065382904e+01 2.292948809697e+01 0.0 
2.292948809697e+01 -1.213462243970e+02 0.0 
0.0 0.0 -4.733609813149e+01 
-4.284859395868e+01 2.298842789335e+01 0.0 
2.298842789335e+01 -1.210680822644e+02 0.0 
0.0 0.0 -4.870707441664e+01 
-1.267984048107e+02 4.603245904341e+00 0.0 
4.603245904341e+00 -2.845295329214e+02 0.0 
0.0 0.0 -1.229983813196e+02 
-1.287694287680e+02 -1.010657305407e+00 0.0 
-1.010657305407e+00 -3.017112527018e+02 0.0 
0.0 0.0 -1.287442044409e+02 
-1.203611150177e+02 -1.352406496364e+00 0.0 
-1.352406496364e+00 -2.819806805863e+02 0.0 
0.0 0.0 -1.203025386812e+02 
-7.731092594701e+01 1.475833208000e+01 0.0 
1.475833208000e+01 -1.786802017543e+02 0.0 
0.0 0.0 -7.639733831040e+01 
-7.472379582287e+01 1.394240468697e+01 0.0 
1.394240468697e+01 -1.656210113328e+02 0.0 
0.0 0.0 -7.170344214670e+01 
-7.009715089201e+01 1.549097623449e+01 0.0 
1.549097623449e+01 -1.586188792790e+02 0.0 
0.0 0.0 -6.821480905131e+01 
-6.731207415589e+01 1.423655746849e+01 0.0 
1.423655746849e+01 -1.448064361173e+02 0.0 
0.0 0.0 -6.323555308195e+01 
-7.176118034078e+01 1.260801586376e+01 0.0 
1.260801586376e+01 -1.528079169643e+02 0.0 
0.0 0.0 -6.697072919151e+01 
-6.282664628189e+01 1.615434093388e+01 0.0 
1.615434093388e+01 -1.375262831225e+02 0.0 
0.0 0.0 -5.970587882132e+01 
-1.108160242424e+02 -9.071402358719e-01 0.0 
-9.071402358719e-01 -2.835245794187e+02 0.0 
0.0 0.0 -1.179021810983e+02 
-1.232522437651e+02 1.978144250129e+00 0.0 
1.978144250129e+00 -2.791804616281e+02 0.0 
0.0 0.0 -1.203298116180e+02 
-4.907152093885e+01 -6.200442866894e+00 0.0 
-6.200442866894e+00 -1.099914618659e+02 0.0 
0.0 0.0 -4.731889484142e+01 
-4.085762433972e+01 -5.359194705655e+00 0.0 
-5.359194705655e+00 -8.919739570161e+01 0.0 
0.0 0.0 -3.861650601240e+01 
-1.371603690922e+02 -7.267623770067e-01 0.0 
-7.267623770067e-01 -3.213793036098e+02 0.0 
0.0 0.0 -1.371619018106e+02 
-1.098874921302e+02 3.367249118886e+00 0.0 
3.367249118886e+00 -2.880813675998e+02 0.0 
0.0 0.0 -1.189906579190e+02 
-1.093613271311e+02 1.141507315457e+01 0.0 
1.141507315457e+01 -2.519543712946e+02 0.0 
0.0 0.0 -1.079947095277e+02 
-1.125050145887e+02 1.162997365877e+01 0.0 
1.162997365877e+01 -2.635289746329e+02 0.0 
0.0 0.0 -1.124101967665e+02 
-1.171595586943e+02 1.121347886220e+01 0.0 
1.121347886220e+01 -2.713865836294e+02 0.0 
0.0 0.0 -1.161638426971e+02 
-1.204627429194e+02 1.136152535833e+01 0.0 
1.136152535833e+01 -2.828147004306e+02 0.0 
0.0 0.0 -1.205832330050e+02 
-1.250581678609e+02 1.111725196571e+01 0.0 
1.111725196571e+01 -2.908027543040e+02 0.0 
0.0 0.0 -1.243582766495e+02 
-1.284970026648e+02 1.124501501994e+01 0.0 
1.124501501994e+01 -3.020220153470e+02 0.0 
0.0 0.0 -1.287557054035e+02 
-1.238389815247e+02 1.132425361205e+01 0.0 
1.132425361205e+01 -2.942071745043e+02 0.0 
0.0 0.0 -1.250138468087e+02 
-1.309023617669e+02 9.812047765280e+00 0.0 
9.812047765280e+00 -3.210967847749e+02 0.0 
0.0 0.0 -1.351997439625e+02 
-1.320644924194e+02 1.124125084771e+01 0.0 
1.124125084771e+01 -3.132507989216e+02 0.0 
0.0 0.0 -1.331945874023e+02 
-1.039639657893e+02 6.551943958657e-01 0.0 
6.551943958657e-01 -2.317857854321e+02 0.0 
0.0 0.0 -1.003249253664e+02 
-1.075609747903e+02 9.667183449335e+00 0.0 
9.667183449335e+00 -2.762326418479e+02 0.0 
0.0 0.0 -1.147380849915e+02 
-5.418660492484e+01 -1.236652436659e+01 0.0 
-1.236652436659e+01 -1.424223633089e+02 0.0 
0.0 0.0 -5.858269047011e+01 
-3.194171863804e+01 -1.999099469784e+00 0.0 
-1.999099469784e+00 -7.369106808263e+01 0.0 
0.0 0.0 -3.128983601620e+01 
-4.143670529831e+01 -1.211502205259e+01 0.0 
-1.211502205259e+01 -8.368429753147e+01 0.0 
0.0 0.0 -3.626364245273e+01 
-3.885458873507e+01 -1.557354680099e+00 0.0 
-1.557354680099e+00 -9.012574082426e+01 0.0 
0.0 0.0 -3.829409886780e+01 
-4.813739416411e+01 -1.904693716546e+00 0.0 
-1.904693716546e+00 -1.102534075707e+02 0.0 
0.0 0.0 -4.711724052045e+01 
-1.385826647727e+02 1.495436515110e+00 0.0 
1.495436515110e+00 -3.396506326030e+02 0.0 
0.0 0.0 -1.430699892127e+02 
-1.329945857164e+02 1.115842577968e+01 0.0 
1.115842577968e+01 -3.101136605029e+02 0.0 
0.0 0.0 -1.325324738658e+02 
-1.293870030455e+02 1.087165728931e+01 0.0 
1.087165728931e+01 -2.988466796355e+02 0.0 
0.0 0.0 -1.280701048043e+02 
-6.423455829977e+01 1.240260501463e+01 0.0 
1.240260501463e+01 -1.319689652255e+02 0.0 
0.0 0.0 -5.846105705758e+01 
-6.845757609342e+01 1.088776484854e+01 0.0 
1.088776484854e+01 -1.405970425558e+02 0.0 
0.0 0.0 -6.231638559477e+01 
-1.350965496577e+02 9.142631148005e+00 0.0 
9.142631148005e+00 -3.316553505668e+02 0.0 
0.0 0.0 -1.396255700673e+02 
-1.037371729930e+02 2.890935561073e+00 0.0 
2.890935561073e+00 -2.252204441532e+02 0.0 
0.0 0.0 -9.828728514388e+01 
-1.033331983267e+02 1.751003253406e+00 0.0 
1.751003253406e+00 -2.274068755151e+02 0.0 
0.0 0.0 -9.882202215255e+01 
-9.925804510787e+01 1.322353622816e+00 0.0 
1.322353622816e+00 -2.181384708950e+02 0.0 
0.0 0.0 -9.481895480085e+01 
-2.860996283457e+01 -1.032490946814e+00 0.0 
-1.032490946814e+00 -6.868146084158e+01 0.0 
0.0 0.0 -2.878742710285e+01 
-4.086972638618e+01 -1.492560187402e+01 0.0 
-1.492560187402e+01 -7.984806127949e+01 0.0 
0.0 0.0 -3.428426063485e+01 
-1.267928129177e+02 3.089122748733e+00 0.0 
3.089122748733e+00 -2.868462233034e+02 0.0 
0.0 0.0 -1.236917108663e+02 
-4.880272700564e+01 2.060537831141e+01 0.0 
2.060537831141e+01 -1.391091986052e+02 0.0 
0.0 0.0 -5.597357768324e+01 
-4.786683492646e+01 2.193063125136e+01 0.0 
2.193063125136e+01 -1.224763571525e+02 0.0 
0.0 0.0 -5.070295762368e+01 
-2.691746069047e+01 1.135474643987e+01 0.0 
1.135474643987e+01 -1.263401652286e+02 0.0 
0.0 0.0 -4.732727302481e+01 
-2.615903278361e+01 1.019353054160e+00 0.0 
1.019353054160e+00 -1.255131347335e+02 0.0 
0.0 0.0 -4.736645067019e+01 
-1.161583004977e+02 6.965791908127e-01 0.0 
6.965791908127e-01 -2.623895165983e+02 0.0 
0.0 0.0 -1.131643451288e+02 
-1.239774665146e+02 8.743548497333e-01 0.0 
8.743548497333e-01 -2.822660340562e+02 0.0 
0.0 0.0 -1.214730501712e+02 
-9.185168206082e+01 -3.051495191700e+00 0.0 
-3.051495191700e+00 -2.149399138566e+02 0.0 
0.0 0.0 -9.163747877524e+01 
-9.569783013987e+01 -2.315314076196e+00 0.0 
-2.315314076196e+00 -2.230830638338e+02 0.0 
0.0 0.0 -9.523426819211e+01 
-1.338441856760e+02 1.928348287715e+00 0.0 
1.928348287715e+00 -3.317183930945e+02 0.0 
0.0 0.0 -1.392687736311e+02 
-4.272804294096e+01 -1.018095504476e+01 0.0 
-1.018095504476e+01 -9.024021741172e+01 0.0 
0.0 0.0 -3.930278602534e+01 
-1.277461623146e+02 1.269734744574e+00 0.0 
1.269734744574e+00 -2.917966465969e+02 0.0 
0.0 0.0 -1.254628426735e+02 
-1.144942348492e+02 2.414386340981e+00 0.0 
2.414386340981e+00 -2.963345150161e+02 0.0 
0.0 0.0 -1.228486249596e+02 
-1.053279341369e+02 1.745092027290e+00 0.0 
1.745092027290e+00 -2.783748627591e+02 0.0 
0.0 0.0 -1.147108390688e+02 
-8.289819613661e+01 -2.193578043890e+00 0.0 
-2.193578043890e+00 -1.909350561881e+02 0.0 
0.0 0.0 -8.174997569742e+01 
-3.897550255078e+01 2.536313350811e+01 0.0 
2.536313350811e+01 -1.026648249146e+02 0.0 
0.0 0.0 -4.155806149309e+01 
-3.579190058718e+01 2.578641230443e+01 0.0 
2.578641230443e+01 -1.046817506598e+02 0.0 
0.0 0.0 -4.147732946039e+01 
-5.603207784048e+01 -1.136914382982e+01 0.0 
-1.136914382982e+01 -1.572132584088e+02 0.0 
0.0 0.0 -6.357360087479e+01 
-4.892049850671e+01 -1.081338026475e+01 0.0 
-1.081338026475e+01 -1.118140872488e+02 0.0 
0.0 0.0 -4.782037572665e+01 
-4.257255658884e+01 -1.225038151700e+00 0.0 
-1.225038151700e+00 -9.862371625482e+01 0.0 
0.0 0.0 -4.195888185310e+01 
-1.434676370365e+02 2.493061086708e+00 0.0 
2.493061086708e+00 -3.503382788884e+02 0.0 
0.0 0.0 -1.477417747775e+02 
-1.305094312816e+02 3.663400912443e+00 0.0 
3.663400912443e+00 -2.960053758822e+02 0.0 
0.0 0.0 -1.275544421492e+02 
-1.273905850516e+02 1.117160722586e+01 0.0 
1.117160722586e+01 -3.055106111255e+02 0.0 
0.0 0.0 -1.294703588531e+02 
-1.189494585853e+02 1.138645536568e+01 0.0 
1.138645536568e+01 -2.864770530797e+02 0.0 
0.0 0.0 -1.212279534995e+02 
-1.360296998751e+02 1.109759483950e+01 0.0 
1.109759483950e+01 -3.245445305266e+02 0.0 
0.0 0.0 -1.377722691205e+02 
-3.588145672129e+01 -8.433691130739e+00 0.0 
-8.433691130739e+00 -6.844210761132e+01 0.0 
0.0 0.0 -3.029804589415e+01 
-1.433217195958e+02 1.141486244643e+00 0.0 
1.141486244643e+00 -3.476884243846e+02 0.0 
0.0 0.0 -1.469030431941e+02 
-1.326267065175e+02 -6.851788525655e-01 0.0 
-6.851788525655e-01 -3.099918057920e+02 0.0 
0.0 0.0 -1.323855536929e+02 
-1.368414192922e+02 1.099990074689e+01 0.0 
1.099990074689e+01 -3.174808791227e+02 0.0 
0.0 0.0 -1.358966895245e+02 
-1.335344862960e+02 1.064131114006e+01 0.0 
1.064131114006e+01 -3.071119568297e+02 0.0 
0.0 0.0 -1.317939329377e+02 
-5.419891927624e+01 1.998664220479e+01 0.0 
1.998664220479e+01 -1.416463996277e+02 0.0 
0.0 0.0 -5.835359567118e+01 
-5.298397385244e+01 2.019035436488e+01 0.0 
2.019035436488e+01 -1.258200873376e+02 0.0 
0.0 0.0 -5.324121835702e+01 
-4.684202905066e+01 2.147762711695e+01 0.0 
2.147762711695e+01 -1.051783145269e+02 0.0 
0.0 0.0 -4.520610307327e+01 
-5.127489161804e+01 1.890780735286e+01 0.0 
1.890780735286e+01 -1.098388364434e+02 0.0 
0.0 0.0 -4.793411841844e+01 
-9.632012641725e+01 5.181043711207e+00 0.0 
5.181043711207e+00 -2.050382006733e+02 0.0 
0.0 0.0 -9.000749812718e+01 
-5.957374199530e+01 1.873471704529e+01 0.0 
1.873471704529e+01 -1.458145807667e+02 0.0 
0.0 0.0 -6.121649682860e+01 
-9.244517887154e+01 7.242902936617e+00 0.0 
7.242902936617e+00 -1.963730489559e+02 0.0 
0.0 0.0 -8.624546834824e+01 
-8.860689093903e+01 6.088784649444e+00 0.0 
6.088784649444e+00 -1.861310968354e+02 0.0 
0.0 0.0 -8.202139633233e+01 
-8.469883549825e+01 6.699695329139e+00 0.0 
6.699695329139e+00 -1.768842438990e+02 0.0 
0.0 0.0 -7.807492381919e+01 
-7.603282745556e+01 1.119337972679e+01 0.0 
1.119337972679e+01 -1.609376385663e+02 0.0 
0.0 0.0 -7.069113980656e+01 
-7.259232725442e+01 9.552161239543e+00 0.0 
9.552161239543e+00 -1.494046120905e+02 0.0 
0.0 0.0 -6.619908180346e+01 
-5.742274343116e+01 1.588243841861e+01 0.0 
1.588243841861e+01 -1.710630414214e+02 0.0 
0.0 0.0 -6.814573545577e+01 
-9.353581968233e+01 9.178025228887e+00 0.0 
9.178025228887e+00 -2.511163583813e+02 0.0 
0.0 0.0 -1.029956534191e+02 
-8.792811240038e+01 -3.819622025946e+00 0.0 
-3.819622025946e+00 -2.070447498760e+02 0.0 
0.0 0.0 -8.809185868291e+01 
-1.083231838067e+02 -2.808199172347e+00 0.0 
-2.808199172347e+00 -2.585457483276e+02 0.0 
0.0 0.0 -1.096606796403e+02 
-9.833054766052e+01 -3.242133311724e+00 0.0 
-3.242133311724e+00 -2.537448448718e+02 0.0 
0.0 0.0 -1.052226177597e+02 
-1.269080212452e+02 2.427280452646e+00 0.0 
2.427280452646e+00 -2.881750499853e+02 0.0 
0.0 0.0 -1.241249213691e+02 
-1.308868833321e+02 2.297121627436e+00 0.0 
2.297121627436e+00 -2.990635291572e+02 0.0 
0.0 0.0 -1.285851237468e+02 
-9.941339508044e+01 9.582918800569e-01 0.0 
9.582918800569e-01 -2.197927750301e+02 0.0 
0.0 0.0 -9.536185103316e+01 
-9.553519241689e+01 7.045662530917e-01 0.0 
7.045662530917e-01 -2.106781713841e+02 0.0 
0.0 0.0 -9.146400914030e+01 
-3.470140948980e+01 -3.600502266602e+00 0.0 
-3.600502266602e+00 -7.654732345580e+01 0.0 
0.0 0.0 -3.297461988368e+01 
-3.193845897022e+01 -4.056618119579e+00 0.0 
-4.056618119579e+00 -6.844546537655e+01 0.0 
0.0 0.0 -2.971308233813e+01 
-9.558991787039e+01 -4.560096888314e+00 0.0 
-4.560096888314e+00 -2.365424749788e+02 0.0 
0.0 0.0 -9.923971785477e+01 
-1.384258760735e+02 2.952635602578e-01 0.0 
2.952635602578e-01 -3.362670081210e+02 0.0 
0.0 0.0 -1.420078652583e+02 
-1.303814043586e+02 4.416743164776e+00 0.0 
4.416743164776e+00 -2.946704811914e+02 0.0 
0.0 0.0 -1.271155656650e+02 
-1.340902481952e+02 5.129194670134e+00 0.0 
5.129194670134e+00 -3.042080356328e+02 0.0 
0.0 0.0 -1.310894851484e+02 
-1.305300229929e+02 5.319566977392e+00 0.0 
5.319566977392e+00 -2.940081082264e+02 0.0 
0.0 0.0 -1.269614393658e+02 
-1.386324034955e+02 3.047660681962e+00 0.0 
3.047660681962e+00 -3.419722027227e+02 0.0 
0.0 0.0 -1.437813818654e+02 
-5.768677727600e+01 6.402086532603e+00 0.0 
6.402086532603e+00 -1.883994838977e+02 0.0 
0.0 0.0 -7.342587835210e+01 
-9.640212330479e+01 4.251254044992e+00 0.0 
4.251254044992e+00 -2.621188018117e+02 0.0 
0.0 0.0 -1.071562775350e+02 
-2.797534631262e+01 -9.228768458786e+00 0.0 
-9.228768458786e+00 -1.259226706588e+02 0.0 
0.0 0.0 -4.742345581447e+01 
-1.027237916754e+02 1.240101689010e+01 0.0 
1.240101689010e+01 -2.487197516880e+02 0.0 
0.0 0.0 -1.050330630090e+02 
-2.512939656410e+01 -2.377911691567e+00 0.0 
-2.377911691567e+00 -5.636928241528e+01 0.0 
0.0 0.0 -2.404960369382e+01 
-1.187864407614e+02 9.235860625468e+00 0.0 
9.235860625468e+00 -2.657489996546e+02 0.0 
0.0 0.0 -1.149606321248e+02 
-1.410708547281e+02 -5.012364783721e-01 0.0 
-5.012364783721e-01 -3.297129001558e+02 0.0 
0.0 0.0 -1.408351264652e+02 
-1.455688607947e+02 -5.161855736585e-01 0.0 
-5.161855736585e-01 -3.408740888434e+02 0.0 
0.0 0.0 -1.455328848914e+02 
-1.400599802747e+02 9.877494465853e+00 0.0 
9.877494465853e+00 -3.396167619776e+02 0.0 
0.0 0.0 -1.435030226757e+02 
-8.458415796116e+01 3.521063974083e+00 0.0 
3.521063974083e+00 -1.766827865702e+02 0.0 
0.0 0.0 -7.798008335941e+01 
-1.057046354067e+02 1.191186683625e+01 0.0 
1.191186683625e+01 -2.603675428672e+02 0.0 
0.0 0.0 -1.094216534822e+02 
-1.005637230705e+02 1.182988485446e+01 0.0 
1.182988485446e+01 -2.534481664871e+02 0.0 
0.0 0.0 -1.058035668673e+02 
-8.076840106979e+01 5.432375022522e+00 0.0 
5.432375022522e+00 -1.668706929107e+02 0.0 
0.0 0.0 -7.389172819413e+01 
-7.686351768516e+01 6.042844311059e+00 0.0 
6.042844311059e+00 -1.575637871967e+02 0.0 
0.0 0.0 -6.992819146456e+01 
-8.073968940940e+01 7.440059752035e+00 0.0 
7.440059752035e+00 -1.677108912600e+02 0.0 
0.0 0.0 -7.413517420082e+01 
-7.292312933107e+01 6.817898666811e+00 0.0 
6.817898666811e+00 -1.482748744434e+02 0.0 
0.0 0.0 -6.595940113235e+01 
-6.047650271437e+01 -1.062120819583e+01 0.0 
-1.062120819583e+01 -1.615504390198e+02 0.0 
0.0 0.0 -6.620808252026e+01 
-5.805566596351e+01 -1.098324274934e+01 0.0 
-1.098324274934e+01 -1.471149484918e+02 0.0 
0.0 0.0 -6.115118433660e+01 
-1.415737406901e+02 1.140655753495e+01 0.0 
1.140655753495e+01 -3.307354153879e+02 0.0 
0.0 0.0 -1.412927468234e+02 
-1.403407127329e+02 1.127119274555e+01 0.0 
1.127119274555e+01 -3.320286916308e+02 0.0 
0.0 0.0 -1.413108213091e+02 
-1.409748983949e+02 1.102749791839e+01 0.0 
1.102749791839e+01 -3.260495154402e+02 0.0 
0.0 0.0 -1.397073241505e+02 
-1.378748965367e+02 1.048904266738e+01 0.0 
1.048904266738e+01 -3.161175513029e+02 0.0 
0.0 0.0 -1.357977343519e+02 
-1.446009328470e+02 9.318158163976e+00 0.0 
9.318158163976e+00 -3.500590597171e+02 0.0 
0.0 0.0 -1.479979977692e+02 
-1.393796732682e+02 8.441909355770e+00 0.0 
8.441909355770e+00 -3.416177701811e+02 0.0 
0.0 0.0 -1.438992330348e+02 
-5.145928493916e+01 -1.418342517165e+00 0.0 
-1.418342517165e+00 -1.181488682705e+02 0.0 
0.0 0.0 -5.048244596290e+01 
-6.480651792274e+01 8.906451660559e+00 0.0 
8.906451660559e+00 -1.293390617753e+02 0.0 
0.0 0.0 -5.784367390940e+01 
-1.343970718614e+02 3.502897717905e+00 0.0 
3.502897717905e+00 -3.066403568991e+02 0.0 
0.0 0.0 -1.319112286281e+02 
-8.462607201516e+01 4.928019275360e+00 0.0 
4.928019275360e+00 -1.762013098481e+02 0.0 
0.0 0.0 -7.784821455899e+01 
-1.476422699028e+02 8.355296867601e-01 0.0 
8.355296867601e-01 -3.548919074465e+02 0.0 
0.0 0.0 -1.503602532048e+02 
-1.429498936909e+02 1.421082870806e-01 0.0 
1.421082870806e-01 -3.439492377061e+02 0.0 
0.0 0.0 -1.456697394191e+02 
-3.094656612806e+01 -1.007854631853e+01 0.0 
-1.007854631853e+01 -1.204900978392e+02 0.0 
0.0 0.0 -4.728563969324e+01 
-3.202585382776e+01 -2.001962723539e+01 0.0 
-2.001962723539e+01 -1.106430868572e+02 0.0 
0.0 0.0 -4.358074704859e+01 
-1.318130915561e+02 1.071744995438e+00 0.0 
1.071744995438e+00 -3.024791375333e+02 0.0 
0.0 0.0 -1.298876687268e+02 
-4.490288591498e+01 1.921216039947e+01 0.0 
1.921216039947e+01 -8.786075074000e+01 0.0 
0.0 0.0 -3.942909099649e+01 
-4.835375146714e+01 1.635367859000e+01 0.0 
1.635367859000e+01 -9.366604069545e+01 0.0 
0.0 0.0 -4.220593764878e+01 
-4.159854591487e+01 2.218974421053e+01 0.0 
2.218974421053e+01 -8.361572716817e+01 0.0 
0.0 0.0 -3.686350771218e+01 
-1.581166868117e+02 -1.251499002804e-01 0.0 
-1.251499002804e-01 -3.693646255483e+02 0.0 
0.0 0.0 -1.578443937080e+02 
-7.879074447129e+01 5.609532234266e-02 0.0 
5.609532234266e-02 -1.724728177498e+02 0.0 
0.0 0.0 -7.497906866633e+01 
-1.495438699891e+02 -3.672972329434e-01 0.0 
-3.672972329434e-01 -3.493683303740e+02 0.0 
0.0 0.0 -1.492736601089e+02 
-8.027606744014e+01 9.921295655088e+00 0.0 
9.921295655088e+00 -1.695543306925e+02 0.0 
0.0 0.0 -7.454911943980e+01 
-1.356448539421e+02 1.443239770789e+00 0.0 
1.443239770789e+00 -3.120978662168e+02 0.0 
0.0 0.0 -1.339228160477e+02 
-1.089756267009e+02 1.118453333774e+01 0.0 
1.118453333774e+01 -2.718912469587e+02 0.0 
0.0 0.0 -1.138600620979e+02 
-7.218652932348e+01 1.602923781255e+01 0.0 
1.602923781255e+01 -1.719357594334e+02 0.0 
0.0 0.0 -7.283668662706e+01 
-1.289878655543e+02 2.464551424428e+00 0.0 
2.464551424428e+00 -3.235058478982e+02 0.0 
0.0 0.0 -1.353481140358e+02 
-1.276499366667e+02 7.760046228201e-01 0.0 
7.760046228201e-01 -2.918134914474e+02 0.0 
0.0 0.0 -1.254390284342e+02 
-1.359189688830e+02 7.933622063839e-01 0.0 
7.933622063839e-01 -3.136240960558e+02 0.0 
0.0 0.0 -1.344629194816e+02 
-9.525925858518e+01 1.271771098494e+00 0.0 
1.271771098494e+00 -2.076245989488e+02 0.0 
0.0 0.0 -9.046515726020e+01 
-9.079350260361e+01 1.008715354660e+00 0.0 
1.008715354660e+00 -1.978249218857e+02 0.0 
0.0 0.0 -8.618552734680e+01 
-9.908252839807e+01 1.722512261687e+00 0.0 
1.722512261687e+00 -2.163505856408e+02 0.0 
0.0 0.0 -9.422993421166e+01 
-2.986134976926e+01 1.778373888094e+01 0.0 
1.778373888094e+01 -1.248450897958e+02 0.0 
0.0 0.0 -4.695236848637e+01 
-2.891490595255e+01 2.264595162713e+01 0.0 
2.264595162713e+01 -1.107281232119e+02 0.0 
0.0 0.0 -4.289581997543e+01 
-1.272028364262e+02 1.832614983327e+00 0.0 
1.832614983327e+00 -2.898875145547e+02 0.0 
0.0 0.0 -1.247271052943e+02 
-6.223876213739e+01 -2.897044290977e+00 0.0 
-2.897044290977e+00 -1.424373501509e+02 0.0 
0.0 0.0 -6.100283368648e+01 
-6.659735367498e+01 -2.294141560963e+00 0.0 
-2.294141560963e+00 -1.528815240276e+02 0.0 
0.0 0.0 -6.544366331078e+01 
-4.446619910122e+01 -8.619089885869e+00 0.0 
-8.619089885869e+00 -9.648654341095e+01 0.0 
0.0 0.0 -4.187774415174e+01 
-5.138478193837e+01 -9.113856772065e+00 0.0 
-9.113856772065e+00 -1.175559875376e+02 0.0 
0.0 0.0 -5.028223084280e+01 
-9.607399439869e+01 -3.327656829361e+00 0.0 
-3.327656829361e+00 -2.269717157909e+02 0.0 
0.0 0.0 -9.651371305688e+01 
-9.207721926049e+01 -4.069165200257e+00 0.0 
-4.069165200257e+00 -2.193022553032e+02 0.0 
0.0 0.0 -9.301384236909e+01 
-1.223525142629e+02 9.909469166705e+00 0.0 
9.909469166705e+00 -2.767079583978e+02 0.0 
0.0 0.0 -1.193181417982e+02 
-1.263373655307e+02 9.529805491016e+00 0.0 
9.529805491016e+00 -2.853453440357e+02 0.0 
0.0 0.0 -1.231048128699e+02 
-1.138555005592e+02 1.085822489644e+01 0.0 
1.085822489644e+01 -2.599475946916e+02 0.0 
0.0 0.0 -1.117409285752e+02 
-1.100538098414e+02 9.297049923094e-01 0.0 
9.297049923094e-01 -2.862427717460e+02 0.0 
0.0 0.0 -1.184889744762e+02 
-1.010607671351e+02 6.864957027401e-02 0.0 
6.864957027401e-02 -2.682416791999e+02 0.0 
0.0 0.0 -1.103907339005e+02 
-9.639253447387e+01 1.020428611908e+00 0.0 
1.020428611908e+00 -2.607818513800e+02 0.0 
0.0 0.0 -1.067523157562e+02 
-1.341867671879e+02 2.772411369022e+00 0.0 
2.772411369022e+00 -3.075818847358e+02 0.0 
0.0 0.0 -1.321305955771e+02 
-1.390174975760e+02 2.556087012534e+00 0.0 
2.556087012534e+00 -3.206931735396e+02 0.0 
0.0 0.0 -1.375132013347e+02 
-6.266636175116e+01 -9.328992258267e+00 0.0 
-9.328992258267e+00 -1.752871689962e+02 0.0 
0.0 0.0 -7.098605922419e+01 
-5.784969985715e+01 -9.270135614158e+00 0.0 
-9.270135614158e+00 -1.709376182516e+02 0.0 
0.0 0.0 -6.823619543263e+01 
-6.459461970728e+01 -9.658091238365e+00 0.0 
-9.658091238365e+00 -1.664002071263e+02 0.0 
0.0 0.0 -6.889844805007e+01 
-1.379687790123e+02 4.079810441459e+00 0.0 
4.079810441459e+00 -3.158451578154e+02 0.0 
0.0 0.0 -1.357441810483e+02 
-1.538907458942e+02 -4.495540837024e-01 0.0 
-4.495540837024e-01 -3.601810048005e+02 0.0 
0.0 0.0 -1.538215252084e+02 
-1.499461937018e+02 -4.156972395229e-01 0.0 
-4.156972395229e-01 -3.519476612989e+02 0.0 
0.0 0.0 -1.501681565002e+02 
-2.202557334099e+01 -2.407345947840e+00 0.0 
-2.407345947840e+00 -4.833624163194e+01 0.0 
0.0 0.0 -2.070644952597e+01 
-2.935073474959e+01 -4.384617773795e+00 0.0 
-4.384617773795e+00 -6.028841906688e+01 0.0 
0.0 0.0 -2.639620915560e+01 
-3.657584214916e+01 2.698377841557e+01 0.0 
2.698377841557e+01 -8.309570039619e+01 0.0 
0.0 0.0 -3.451140712973e+01 
-3.428975079977e+01 2.849657068030e+01 0.0 
2.849657068030e+01 -8.679370255395e+01 0.0 
0.0 0.0 -3.581976457885e+01 
-1.375142029459e+02 5.840256533319e+00 0.0 
5.840256533319e+00 -3.133235678547e+02 0.0 
0.0 0.0 -1.348513312402e+02 
-1.343005004011e+02 6.079002161792e+00 0.0 
6.079002161792e+00 -3.038388576225e+02 0.0 
0.0 0.0 -1.310418074071e+02 
-1.417435442278e+02 5.655358853484e+00 0.0 
5.655358853484e+00 -3.252527606131e+02 0.0 
0.0 0.0 -1.396988914523e+02 
-4.544216321439e+01 -8.823521275009e-01 0.0 
-8.823521275009e-01 -1.052997984559e+02 0.0 
0.0 0.0 -4.482258850108e+01 
-1.225614258901e+02 1.095641935451e+01 0.0 
1.095641935451e+01 -2.979463567994e+02 0.0 
0.0 0.0 -1.257523348069e+02 
-1.480934745038e+02 3.566450965342e+00 0.0 
3.566450965342e+00 -3.597398529316e+02 0.0 
0.0 0.0 -1.519499982306e+02 
-1.431312002235e+02 4.163406292115e+00 0.0 
4.163406292115e+00 -3.512621030104e+02 0.0 
0.0 0.0 -1.479179909702e+02 
-1.541488016452e+02 3.033969018328e+00 0.0 
3.033969018328e+00 -3.704904680376e+02 0.0 
0.0 0.0 -1.569917809048e+02 
-1.357410776028e+02 1.040288995610e+01 0.0 
1.040288995610e+01 -3.286806423059e+02 0.0 
0.0 0.0 -1.389265159726e+02 
-1.445279925321e+02 1.050838900387e+01 0.0 
1.050838900387e+01 -3.468987510282e+02 0.0 
0.0 0.0 -1.470280230681e+02 
-1.446074432594e+02 1.118984321779e+01 0.0 
1.118984321779e+01 -3.431924397822e+02 0.0 
0.0 0.0 -1.459399649125e+02 
-3.619137792860e+01 1.161261097709e+00 0.0 
1.161261097709e+00 -1.224183872707e+02 0.0 
0.0 0.0 -4.942018916957e+01 
-1.332426574368e+02 6.047878358292e-01 0.0 
6.047878358292e-01 -3.066402625444e+02 0.0 
0.0 0.0 -1.315648759944e+02 
-9.083115342508e+01 6.748400373634e-01 0.0 
6.748400373634e-01 -1.990881560054e+02 0.0 
0.0 0.0 -8.657579282915e+01 
-4.570828031193e+01 -6.790318238540e+00 0.0 
-6.790318238540e+00 -1.173653716055e+02 0.0 
0.0 0.0 -5.036439410911e+01 
-8.696035937189e+01 4.456391064820e-01 0.0 
4.456391064820e-01 -1.901587397959e+02 0.0 
0.0 0.0 -8.273572975032e+01 
-9.147380334431e+01 4.894109939295e-01 0.0 
4.894109939295e-01 -2.014514664641e+02 0.0 
0.0 0.0 -8.747758094252e+01 
-8.247095011938e+01 2.800652342185e-01 0.0 
2.800652342185e-01 -1.800374666665e+02 0.0 
0.0 0.0 -7.835252503576e+01 
-3.622648899815e+01 -7.249756730521e-01 0.0 
-7.249756730521e-01 -8.579211034956e+01 0.0 
0.0 0.0 -3.620557980431e+01 
-8.965598664869e+01 1.257702937937e+00 0.0 
1.257702937937e+00 -1.936029669349e+02 0.0 
0.0 0.0 -8.457768607507e+01 
-9.505985180162e+01 1.815580916290e+00 0.0 
1.815580916290e+00 -2.057877461005e+02 0.0 
0.0 0.0 -8.985427937063e+01 
-1.739592695924e+01 -2.119606981861e+00 0.0 
-2.119606981861e+00 -3.681864716126e+01 0.0 
0.0 0.0 -1.590037799715e+01 
-1.414965420523e+02 3.781777959774e+00 0.0 
3.781777959774e+00 -3.260976810827e+02 0.0 
0.0 0.0 -1.398782669405e+02 
-1.529599315221e+01 -1.117974381709e+00 0.0 
-1.117974381709e+00 -3.765527641970e+01 0.0 
0.0 0.0 -1.548538087157e+01 
-1.858908241169e+01 -1.230255359896e+00 0.0 
-1.230255359896e+00 -4.545422732225e+01 0.0 
0.0 0.0 -1.881299292018e+01 
-1.522141427339e+02 5.156694645681e-01 0.0 
5.156694645681e-01 -3.628290961360e+02 0.0 
0.0 0.0 -1.541129716610e+02 
-1.472768943616e+02 2.371905435143e-02 0.0 
2.371905435143e-02 -3.514877900262e+02 0.0 
0.0 0.0 -1.492294053163e+02 
-1.560700469357e+02 3.538057619294e-01 0.0 
3.538057619294e-01 -3.699025983919e+02 0.0 
0.0 0.0 -1.573917935983e+02 
-1.511077586684e+02 -1.298767502425e-01 0.0 
-1.298767502425e-01 -3.584699761623e+02 0.0 
0.0 0.0 -1.524733204492e+02 
-1.425748111249e+02 -4.233857341068e-01 0.0 
-4.233857341068e-01 -3.400050173250e+02 0.0 
0.0 0.0 -1.443739485350e+02 
-1.469000945973e+02 -4.383328096442e-01 0.0 
-4.383328096442e-01 -3.480243607493e+02 0.0 
0.0 0.0 -1.480773366040e+02 
-8.635527969840e+01 6.880030439701e-01 0.0 
6.880030439701e-01 -1.880022766078e+02 0.0 
0.0 0.0 -8.190726689185e+01 
-1.566390963335e+02 -1.888880044137e-01 0.0 
-1.888880044137e-01 -3.692570604748e+02 0.0 
0.0 0.0 -1.573688470425e+02 
-1.512202629542e+02 -4.038811044198e-01 0.0 
-4.038811044198e-01 -3.563406076317e+02 0.0 
0.0 0.0 -1.518682611758e+02 
-1.607113435415e+02 -2.812367572129e-01 0.0 
-2.812367572129e-01 -3.777006957510e+02 0.0 
0.0 0.0 -1.611236117877e+02 
-6.897088562587e+01 5.245012646019e+00 0.0 
5.245012646019e+00 -1.386230699320e+02 0.0 
0.0 0.0 -6.187818666737e+01 
-5.542481303768e+01 1.655784810258e+01 0.0 
1.655784810258e+01 -1.156467661117e+02 0.0 
0.0 0.0 -5.092147374482e+01 
-5.221452260849e+01 1.387848677723e+01 0.0 
1.387848677723e+01 -1.011607848303e+02 0.0 
0.0 0.0 -4.561259223162e+01 
-4.401422021263e+01 1.217790823385e+01 0.0 
1.217790823385e+01 -7.846404510856e+01 0.0 
0.0 0.0 -3.634347959636e+01 
-1.461425599298e+02 1.101526869376e+01 0.0 
1.101526869376e+01 -3.378812375903e+02 0.0 
0.0 0.0 -1.448071392560e+02 
-1.411143838218e+02 1.021668622578e+01 0.0 
1.021668622578e+01 -3.237722362055e+02 0.0 
0.0 0.0 -1.390659860082e+02 
-1.367340533712e+02 -4.194902958335e-01 0.0 
-4.194902958335e-01 -3.190127049607e+02 0.0 
0.0 0.0 -1.363240274996e+02 
-1.282740310180e+02 -5.691722698669e-01 0.0 
-5.691722698669e-01 -2.990656587595e+02 0.0 
0.0 0.0 -1.278019069332e+02 
-8.692015718535e+01 2.574388685866e-01 0.0 
2.574388685866e-01 -1.911851462199e+02 0.0 
0.0 0.0 -8.303159102158e+01 
-8.635009450320e+01 2.300216517634e-01 0.0 
2.300216517634e-01 -1.901098380911e+02 0.0 
0.0 0.0 -8.253797977828e+01 
-9.385603975240e+01 2.193943382120e-01 0.0 
2.193943382120e-01 -2.079694882405e+02 0.0 
0.0 0.0 -9.014765839788e+01 
-9.273143727940e+01 2.668047707803e-01 0.0 
2.668047707803e-01 -2.055372063982e+02 0.0 
0.0 0.0 -8.908059310327e+01 
-1.001820853020e+02 2.578669103411e-01 0.0 
2.578669103411e-01 -2.235117616875e+02 0.0 
0.0 0.0 -9.670815409685e+01 
-9.906262509969e+01 2.951842513927e-01 0.0 
2.951842513927e-01 -2.207542098958e+02 0.0 
0.0 0.0 -9.554505049865e+01 
-1.066144673671e+02 5.087939965400e-01 0.0 
5.087939965400e-01 -2.391024746218e+02 0.0 
0.0 0.0 -1.033150825967e+02 
-1.489963030815e+02 1.159936697608e+01 0.0 
1.159936697608e+01 -3.511514893951e+02 0.0 
0.0 0.0 -1.496443377430e+02 
-3.885469692995e+01 1.838040974188e+01 0.0 
1.838040974188e+01 -6.505676151115e+01 0.0 
0.0 0.0 -3.043874788584e+01 
-7.674119609634e+01 4.217062342339e+00 0.0 
4.217062342339e+00 -1.573397614582e+02 0.0 
0.0 0.0 -6.982428726637e+01 
-1.489625460226e+02 8.705985072435e+00 0.0 
8.705985072435e+00 -3.597875817032e+02 0.0 
0.0 0.0 -1.522250383177e+02 
-1.430564169034e+02 7.703557548706e+00 0.0 
7.703557548706e+00 -3.498850844061e+02 0.0 
0.0 0.0 -1.474824503928e+02 
-6.879466045876e+01 7.771440954064e+00 0.0 
7.771440954064e+00 -1.385785495323e+02 0.0 
0.0 0.0 -6.181196299733e+01 
-6.081771286364e+01 6.813594404253e+00 0.0 
6.813594404253e+00 -1.192075820746e+02 0.0 
0.0 0.0 -5.360758848147e+01 
-1.539695042049e+02 1.545923057193e+00 0.0 
1.545923057193e+00 -3.686061523280e+02 0.0 
0.0 0.0 -1.563726969599e+02 
-6.113481899157e+01 1.815378808501e+01 0.0 
1.815378808501e+01 -1.605319293066e+02 0.0 
0.0 0.0 -6.610002448944e+01 
-1.458155114972e+02 4.493088451790e+00 0.0 
4.493088451790e+00 -3.379750282099e+02 0.0 
0.0 0.0 -1.447371619121e+02 
-5.152792522510e+01 2.342969410213e+01 0.0 
2.342969410213e+01 -8.722288907888e+01 0.0 
0.0 0.0 -4.242522815062e+01 
-3.621864239853e+01 2.291637927892e+01 0.0 
2.291637927892e+01 -1.035999764712e+02 0.0 
0.0 0.0 -4.332154615532e+01 
-6.664575957996e+01 1.725066713512e+01 0.0 
1.725066713512e+01 -1.654823946527e+02 0.0 
0.0 0.0 -6.923844626980e+01 
-7.672610664044e+01 8.390420616033e+00 0.0 
8.390420616033e+00 -1.585614874860e+02 0.0 
0.0 0.0 -7.018627823793e+01 
-5.981347148784e+01 1.429067390806e+01 0.0 
1.429067390806e+01 -1.230709620893e+02 0.0 
0.0 0.0 -5.446533007315e+01 
-5.687132540891e+01 1.200567711553e+01 0.0 
1.200567711553e+01 -1.112437678565e+02 0.0 
0.0 0.0 -5.003452797963e+01 
-1.193488198705e+02 1.722108462952e+00 0.0 
1.722108462952e+00 -3.046901940639e+02 0.0 
0.0 0.0 -1.268117041803e+02 
-2.767809724498e+01 -5.026520267166e+00 0.0 
-5.026520267166e+00 -5.314490058089e+01 0.0 
0.0 0.0 -2.352832253712e+01 
-3.906449497627e+01 2.497248069283e+01 0.0 
2.497248069283e+01 -8.221735697585e+01 0.0 
0.0 0.0 -3.505025878994e+01 
-1.077084310212e+02 4.752302968652e-01 0.0 
4.752302968652e-01 -2.413837734009e+02 0.0 
0.0 0.0 -1.043276613266e+02 
-3.597511381421e+01 2.498837430755e+01 0.0 
2.498837430755e+01 -6.067190514829e+01 0.0 
0.0 0.0 -2.711696253174e+01 
-1.328169224590e+02 -2.574438193349e-01 0.0 
-2.574438193349e-01 -3.093120973867e+02 0.0 
0.0 0.0 -1.322387059537e+02 
-6.308404429631e+01 1.654667172332e+01 0.0 
1.654667172332e+01 -1.749895871752e+02 0.0 
0.0 0.0 -7.102208944146e+01 
-8.355764016976e+01 1.126844715502e+01 0.0 
1.126844715502e+01 -1.811051773088e+02 0.0 
0.0 0.0 -7.899884524355e+01 
-4.259926235761e+01 2.381108706329e+01 0.0 
2.381108706329e+01 -1.027859727954e+02 0.0 
0.0 0.0 -4.303317056359e+01 
-5.806834226735e+01 1.820187781696e+01 0.0 
1.820187781696e+01 -1.311881554598e+02 0.0 
0.0 0.0 -5.637694931816e+01 
-1.002451559567e+02 6.160875394728e+00 0.0 
6.160875394728e+00 -2.149443690910e+02 0.0 
0.0 0.0 -9.415685751431e+01 
-9.231757762481e+01 4.252690451920e+00 0.0 
4.252690451920e+00 -1.954490818338e+02 0.0 
0.0 0.0 -8.592999783758e+01 
-8.851468683982e+01 4.517003840215e+00 0.0 
4.517003840215e+00 -1.858928480850e+02 0.0 
0.0 0.0 -8.192226047745e+01 
-6.527578531144e+01 1.421368098537e+01 0.0 
1.421368098537e+01 -1.881326735711e+02 0.0 
0.0 0.0 -7.562253766475e+01 
-6.070102707571e+01 1.025259862644e+01 0.0 
1.025259862644e+01 -1.200059734911e+02 0.0 
0.0 0.0 -5.381210017005e+01 
-5.168874380005e+01 9.028081469658e+00 0.0 
9.028081469658e+00 -9.739062771708e+01 0.0 
0.0 0.0 -4.432381145514e+01 
-9.610503206556e+01 8.362329473806e+00 0.0 
8.362329473806e+00 -2.069608397588e+02 0.0 
0.0 0.0 -9.051976154731e+01 
-1.269278223591e+02 5.459553267177e+00 0.0 
5.459553267177e+00 -2.839363331221e+02 0.0 
0.0 0.0 -1.228592466443e+02 
-1.306273440990e+02 6.220640781710e+00 0.0 
6.220640781710e+00 -2.936627523050e+02 0.0 
0.0 0.0 -1.268870289212e+02 
-1.376596046037e+02 6.833009354053e+00 0.0 
6.833009354053e+00 -3.129024183839e+02 0.0 
0.0 0.0 -1.347686068963e+02 
-1.343259808052e+02 7.030840859276e+00 0.0 
7.030840859276e+00 -3.035121450735e+02 0.0 
0.0 0.0 -1.309514377636e+02 
-1.270703656055e+02 6.444254175804e+00 0.0 
6.444254175804e+00 -2.838103750885e+02 0.0 
0.0 0.0 -1.228642222082e+02 
-1.308214355798e+02 7.287359690982e+00 0.0 
7.287359690982e+00 -2.937584569566e+02 0.0 
0.0 0.0 -1.269739677609e+02 
-1.379026683997e+02 7.792213329345e+00 0.0 
7.792213329345e+00 -3.134272389948e+02 0.0 
0.0 0.0 -1.349989722184e+02 
-1.347904076852e+02 8.089504250656e+00 0.0 
8.089504250656e+00 -3.044706032364e+02 0.0 
0.0 0.0 -1.313783032765e+02 
-1.430208633726e+02 8.832335117560e+00 0.0 
8.832335117560e+00 -3.275016168804e+02 0.0 
0.0 0.0 -1.407567440759e+02 
-1.383218392728e+02 8.964052636172e+00 0.0 
8.964052636172e+00 -3.146547409437e+02 0.0 
0.0 0.0 -1.354929740650e+02 
-1.307646914032e+02 8.292099050442e+00 0.0 
8.292099050442e+00 -2.942074726193e+02 0.0 
0.0 0.0 -1.270916492067e+02 
-1.341255267620e+02 9.039404274510e+00 0.0 
9.039404274510e+00 -3.040860028860e+02 0.0 
0.0 0.0 -1.310634588944e+02 
-1.411582500096e+02 9.655658003102e+00 0.0 
9.655658003102e+00 -3.229810839910e+02 0.0 
0.0 0.0 -1.388418002002e+02 
-1.267434320132e+02 8.553512474909e+00 0.0 
8.553512474909e+00 -2.841690766329e+02 0.0 
0.0 0.0 -1.228737525938e+02 
-1.540711932820e+02 9.616321923963e+00 0.0 
9.616321923963e+00 -3.680305244626e+02 0.0 
0.0 0.0 -1.562305153234e+02 
-7.419495799238e+01 1.583701825551e+01 0.0 
1.583701825551e+01 -1.851875473910e+02 0.0 
0.0 0.0 -7.741475161502e+01 
-2.940258784285e+01 1.261399159314e+01 0.0 
1.261399159314e+01 -1.196155928751e+02 0.0 
0.0 0.0 -4.663914718881e+01 
-3.274385952855e+01 3.017423935496e+01 0.0 
3.017423935496e+01 -9.216482062821e+01 0.0 
0.0 0.0 -3.822866312472e+01 
-8.784849389363e+01 1.012975260262e+01 0.0 
1.012975260262e+01 -1.895406762806e+02 0.0 
0.0 0.0 -8.281675105226e+01 
-1.495617396629e+02 9.075075565008e+00 0.0 
9.075075565008e+00 -3.465788882738e+02 0.0 
0.0 0.0 -1.484421883810e+02 
-1.486176989922e+02 7.621414274840e+00 0.0 
7.621414274840e+00 -3.442076666924e+02 0.0 
0.0 0.0 -1.474476097054e+02 
-5.002746741160e+01 1.788707768799e+01 0.0 
1.788707768799e+01 -1.543008735013e+02 0.0 
0.0 0.0 -6.089850227386e+01 
-1.537391518909e+02 1.188088645917e+01 0.0 
1.188088645917e+01 -3.580956842196e+02 0.0 
0.0 0.0 -1.531504508332e+02 
-9.248723626491e+01 5.577723753828e+00 0.0 
5.577723753828e+00 -1.955430794702e+02 0.0 
0.0 0.0 -8.600909472052e+01 
-3.379629095842e+01 1.495033344428e+01 0.0 
1.495033344428e+01 -1.369775667829e+02 0.0 
0.0 0.0 -5.126487501272e+01 
-1.555041666229e+02 1.235789670891e+01 0.0 
1.235789670891e+01 -3.637252062423e+02 0.0 
0.0 0.0 -1.553688118596e+02 
-1.232841332403e+02 5.627523217726e+00 0.0 
5.627523217726e+00 -2.738820343828e+02 0.0 
0.0 0.0 -1.187498502869e+02 
-1.195098062866e+02 5.845687027615e+00 0.0 
5.845687027615e+00 -2.637460140716e+02 0.0 
0.0 0.0 -1.145767461074e+02 
-1.156702339466e+02 5.032476331863e+00 0.0 
5.032476331863e+00 -2.539748912496e+02 0.0 
0.0 0.0 -1.104935375589e+02 
-1.481390373134e+02 6.439741136288e+00 0.0 
6.439741136288e+00 -3.432675987569e+02 0.0 
0.0 0.0 -1.470219908211e+02 
-1.032179455466e+02 2.243189497984e+00 0.0 
2.243189497984e+00 -2.258313006132e+02 0.0 
0.0 0.0 -9.831477384794e+01 
-1.589978232031e+02 1.142281649998e+01 0.0 
1.142281649998e+01 -3.752636971907e+02 0.0 
0.0 0.0 -1.598784561181e+02 
-1.024044376326e+02 8.758935994997e+00 0.0 
8.758935994997e+00 -2.688625528709e+02 0.0 
0.0 0.0 -1.109800971511e+02 
-9.873523468529e+01 1.017254705920e+01 0.0 
1.017254705920e+01 -2.580997167771e+02 0.0 
0.0 0.0 -1.066504854387e+02 
-9.009209371751e+01 1.084869837809e+01 0.0 
1.084869837809e+01 -2.402471458027e+02 0.0 
0.0 0.0 -9.870177185607e+01 
-1.270782129136e+02 7.500351470335e+00 0.0 
7.500351470335e+00 -2.838467025643e+02 0.0 
0.0 0.0 -1.228774746434e+02 
-1.611130227828e+02 7.926983764378e+00 0.0 
7.926983764378e+00 -3.829632948817e+02 0.0 
0.0 0.0 -1.628228952993e+02 
-1.528474924781e+02 6.981284247150e+00 0.0 
6.981284247150e+00 -3.687349679889e+02 0.0 
0.0 0.0 -1.560747381401e+02 
-1.533672661022e+02 6.052014545784e+00 0.0 
6.052014545784e+00 -3.698764482177e+02 0.0 
0.0 0.0 -1.565731142960e+02 
-1.439477366778e+02 6.054537446267e+00 0.0 
6.054537446267e+00 -3.528951225261e+02 0.0 
0.0 0.0 -1.486528577612e+02 
-1.622760156884e+02 5.844722716755e+00 0.0 
5.844722716755e+00 -3.856297655340e+02 0.0 
0.0 0.0 -1.639717343667e+02 
-1.517104859675e+02 1.042182377787e+01 0.0 
1.042182377787e+01 -3.520950388807e+02 0.0 
0.0 0.0 -1.507416574544e+02 
-1.525888006873e+02 1.102115663267e+01 0.0 
1.102115663267e+01 -3.546853520984e+02 0.0 
0.0 0.0 -1.517822458357e+02 
-5.123543178955e+01 -1.161093387505e+01 0.0 
-1.161093387505e+01 -1.536590419377e+02 0.0 
0.0 0.0 -6.106834211817e+01 
-5.279952495348e+01 -8.475251963961e+00 0.0 
-8.475251963961e+00 -1.670879224302e+02 0.0 
0.0 0.0 -6.556623421512e+01 
-6.002853941547e+01 -6.383259850712e+00 0.0 
-6.383259850712e+00 -1.833218082632e+02 0.0 
0.0 0.0 -7.260510430359e+01 
-5.500300792587e+01 -4.657688394409e+00 0.0 
-4.657688394409e+00 -1.786502959781e+02 0.0 
0.0 0.0 -6.969599117120e+01 
-4.757724109650e+01 -6.609288758108e+00 0.0 
-6.609288758108e+00 -1.634509070272e+02 0.0 
0.0 0.0 -6.290844443711e+01 
-5.002942120553e+01 -1.870790713665e+00 0.0 
-1.870790713665e+00 -1.735788136188e+02 0.0 
0.0 0.0 -6.668247044729e+01 
-5.795134612637e+01 -6.902838062170e-01 0.0 
-6.902838062170e-01 -1.883457031725e+02 0.0 
0.0 0.0 -7.348911478966e+01 
-4.539814440458e+01 2.123608565579e+00 0.0 
2.123608565579e+00 -1.676008367882e+02 0.0 
0.0 0.0 -6.349969435783e+01 
-1.339298784747e+02 9.882240810091e+00 0.0 
9.882240810091e+00 -3.049276683362e+02 0.0 
0.0 0.0 -1.312572640433e+02 
-1.633307380764e+02 3.826284864320e+00 0.0 
3.826284864320e+00 -3.873968651905e+02 0.0 
0.0 0.0 -1.648182809801e+02 
-1.068866594381e+02 -2.110874623105e+00 0.0 
-2.110874623105e+00 -2.724018544362e+02 0.0 
0.0 0.0 -1.133865541623e+02 
-1.020189318902e+02 -1.958964928778e+00 0.0 
-1.958964928778e+00 -2.650368732024e+02 0.0 
0.0 0.0 -1.097167415278e+02 
-9.350438460909e+01 -3.141157115116e+00 0.0 
-3.141157115116e+00 -2.467698535287e+02 0.0 
0.0 0.0 -1.016822714414e+02 
-8.405212505875e+01 -4.629775073079e+00 0.0 
-4.629775073079e+00 -1.993466308011e+02 0.0 
0.0 0.0 -8.461962675796e+01 
-8.805045074300e+01 -4.863679516383e+00 0.0 
-4.863679516383e+00 -2.117926194883e+02 0.0 
0.0 0.0 -8.955292106939e+01 
-9.606691747320e+01 -4.130347603448e+00 0.0 
-4.130347603448e+00 -2.315619454015e+02 0.0 
0.0 0.0 -9.788865886242e+01 
-7.982574968313e+01 -4.187674171363e+00 0.0 
-4.187674171363e+00 -1.869551948492e+02 0.0 
0.0 0.0 -7.963428335971e+01 
-1.156692742516e+02 1.160685940252e+01 0.0 
1.160685940252e+01 -2.750484846786e+02 0.0 
0.0 0.0 -1.168153276790e+02 
-1.635267783771e+02 3.020627537022e+00 0.0 
3.020627537022e+00 -3.873975396611e+02 0.0 
0.0 0.0 -1.648772954114e+02 
-1.007838326820e+02 2.859803226125e+00 0.0 
2.859803226125e+00 -2.704251481517e+02 0.0 
0.0 0.0 -1.109626942501e+02 
-8.396677446478e+01 -5.713897871918e+00 0.0 
-5.713897871918e+00 -2.044752659275e+02 0.0 
0.0 0.0 -8.613261211768e+01 
-8.248829061140e+01 1.418242562968e+00 0.0 
1.418242562968e+00 -1.750420160639e+02 0.0 
0.0 0.0 -7.685909200260e+01 
-9.018797091685e+01 2.022857143325e+00 0.0 
2.022857143325e+00 -1.925850517642e+02 0.0 
0.0 0.0 -8.443190680430e+01 
-9.093505553498e+01 2.600402042119e+00 0.0 
2.600402042119e+00 -1.934061052485e+02 0.0 
0.0 0.0 -8.490234823505e+01 
-9.859504399798e+01 2.954774841126e+00 0.0 
2.954774841126e+00 -2.119443338547e+02 0.0 
0.0 0.0 -9.276181335582e+01 
-9.043959445766e+01 1.863543040281e+00 0.0 
1.863543040281e+00 -1.939123510141e+02 0.0 
0.0 0.0 -8.490558364154e+01 
-1.000054027125e+02 -2.637230757968e+00 0.0 
-2.637230757968e+00 -2.348354250584e+02 0.0 
0.0 0.0 -1.000522483313e+02 
-1.038898392124e+02 -2.010769937689e+00 0.0 
-2.010769937689e+00 -2.428520335161e+02 0.0 
0.0 0.0 -1.036225618186e+02 
-9.955708003660e+01 -1.723782032865e+00 0.0 
-1.723782032865e+00 -2.313688399386e+02 0.0 
0.0 0.0 -9.887777599257e+01 
-1.077504165708e+02 -1.439686822371e+00 0.0 
-1.439686822371e+00 -2.509909073420e+02 0.0 
0.0 0.0 -1.072223971738e+02 
-1.031951643032e+02 -1.099755311738e+00 0.0 
-1.099755311738e+00 -2.392286692917e+02 0.0 
0.0 0.0 -1.023271500785e+02 
-9.561817952332e+01 -1.291290316164e+00 0.0 
-1.291290316164e+00 -2.209704796209e+02 0.0 
0.0 0.0 -9.457659774327e+01 
-1.114515122147e+02 -8.895635644382e-01 0.0 
-8.895635644382e-01 -2.588730008836e+02 0.0 
0.0 0.0 -1.106973539295e+02 
-1.062134306769e+02 -6.804234342878e-01 0.0 
-6.804234342878e-01 -2.459700689559e+02 0.0 
0.0 0.0 -1.052550498898e+02 
-8.151191301261e+01 9.205069320023e-01 0.0 
9.205069320023e-01 -1.742143241728e+02 0.0 
0.0 0.0 -7.631787115564e+01 
-3.811719452138e+01 -2.097969826779e+01 0.0 
-2.097969826779e+01 -4.797988234509e+01 0.0 
0.0 0.0 -2.617784098774e+01 
-3.711505671061e+01 -2.254012493082e+01 0.0 
-2.254012493082e+01 -5.735093975658e+01 0.0 
0.0 0.0 -2.802604160555e+01 
-3.138837185061e+01 -1.432322072595e+01 0.0 
-1.432322072595e+01 -4.289965036695e+01 0.0 
0.0 0.0 -2.129537375672e+01 
-3.861291231369e+01 -2.048663438930e+01 0.0 
-2.048663438930e+01 -7.037771789542e+01 0.0 
0.0 0.0 -3.156674652685e+01 
-3.675361132612e+01 -2.367524608843e+01 0.0 
-2.367524608843e+01 -8.807899485902e+01 0.0 
0.0 0.0 -3.719658666713e+01 
-3.995190759298e+01 -2.024647899188e+01 0.0 
-2.024647899188e+01 -9.856085026645e+01 0.0 
0.0 0.0 -4.046979020189e+01 
-3.560019758404e+01 -2.043364997220e+01 0.0 
-2.043364997220e+01 -1.098069225237e+02 0.0 
0.0 0.0 -4.342653351506e+01 
-3.784956357989e+01 -2.595518481671e+01 0.0 
-2.595518481671e+01 -8.446980942516e+01 0.0 
0.0 0.0 -3.727919733398e+01 
-1.658843325443e+01 -5.051817035605e+00 0.0 
-5.051817035605e+00 -1.964440417215e+01 0.0 
0.0 0.0 -1.057337612456e+01 
-2.556560943655e+01 -8.523676150443e+00 0.0 
-8.523676150443e+00 -3.777349520641e+01 0.0 
0.0 0.0 -1.795681954357e+01 
-1.115589038876e+01 -2.393726217765e+00 0.0 
-2.393726217765e+00 -1.767943172510e+01 0.0 
0.0 0.0 -8.133415074523e+00 
-2.067516918972e+01 -4.879634501535e+00 0.0 
-4.879634501535e+00 -3.495578709779e+01 0.0 
0.0 0.0 -1.599179005435e+01 
-3.355927815979e+01 -9.959710271889e+00 0.0 
-9.959710271889e+00 -5.815966510510e+01 0.0 
0.0 0.0 -2.587681627523e+01 
-3.859098716742e+01 -6.193734696105e+00 0.0 
-6.193734696105e+00 -8.181904718668e+01 0.0 
0.0 0.0 -3.570907926437e+01 
-1.626785609850e+02 -3.945404708712e-01 0.0 
-3.945404708712e-01 -3.809911883401e+02 0.0 
0.0 0.0 -1.627009247975e+02 
-8.266024616978e+01 -5.795929962926e-01 0.0 
-5.795929962926e-01 -1.897632338848e+02 0.0 
0.0 0.0 -8.132704401637e+01 
-7.846653319027e+01 -1.201594421654e+00 0.0 
-1.201594421654e+00 -1.801894506084e+02 0.0 
0.0 0.0 -7.719679513959e+01 
-7.032151026300e+01 -1.183217929472e+00 0.0 
-1.183217929472e+00 -1.607436530845e+02 0.0 
0.0 0.0 -6.891954900424e+01 
-7.473377676144e+01 -1.731272576632e+00 0.0 
-1.731272576632e+00 -1.715501343924e+02 0.0 
0.0 0.0 -7.348517334615e+01 
-8.590028145414e+01 -1.145921625358e+00 0.0 
-1.145921625358e+00 -1.978807769750e+02 0.0 
0.0 0.0 -8.473431752874e+01 
-6.562984259376e+01 -5.897953910514e-01 0.0 
-5.897953910514e-01 -1.499229657428e+02 0.0 
0.0 0.0 -6.426584250097e+01 
-6.251250013518e+01 -1.137911882031e+00 0.0 
-1.137911882031e+00 -1.428425067344e+02 0.0 
0.0 0.0 -6.120650206088e+01 
-3.574143593651e+00 -5.850470352639e-02 0.0 
-5.850470352639e-02 -1.713216260120e+01 0.0 
0.0 0.0 -5.450985148092e+00 
-1.016612471290e+01 -1.025409155432e-01 0.0 
-1.025409155432e-01 -3.366689666163e+01 0.0 
0.0 0.0 -1.266758255723e+01 
-9.458210154533e+00 -1.111732959898e-01 0.0 
-1.111732959898e-01 -3.203030851748e+01 0.0 
0.0 0.0 -1.187066352624e+01 
-1.838544945626e+01 -2.931154873492e-01 0.0 
-2.931154873492e-01 -5.039881232514e+01 0.0 
0.0 0.0 -2.023527853442e+01 
-1.856299114445e+01 -3.761329781952e-01 0.0 
-3.761329781952e-01 -5.006884827030e+01 0.0 
0.0 0.0 -2.018955182442e+01 
-1.057057587918e+01 -2.379752431362e-01 0.0 
-2.379752431362e-01 -3.397480160984e+01 0.0 
0.0 0.0 -1.290822925737e+01 
-1.084372646730e+01 -3.379309411492e-01 0.0 
-3.379309411492e-01 -3.398486710499e+01 0.0 
0.0 0.0 -1.302596602134e+01 
-3.818144640827e+00 -1.236305753143e-01 0.0 
-1.236305753143e-01 -1.699559730029e+01 0.0 
0.0 0.0 -5.566281648153e+00 
-1.115604580256e+01 -3.667081038350e-01 0.0 
-3.667081038350e-01 -3.382303948534e+01 0.0 
0.0 0.0 -1.315296698605e+01 
-1.984180347534e+01 -8.524381172549e-01 0.0 
-8.524381172549e-01 -5.092521434452e+01 0.0 
0.0 0.0 -2.083010534596e+01 
-3.843543903344e+00 -1.195875698949e-01 0.0 
-1.195875698949e-01 -1.642905423526e+01 0.0 
0.0 0.0 -5.494667299675e+00 
-1.169741308707e+02 3.209144444267e-01 0.0 
3.209144444267e-01 -2.651822023610e+02 0.0 
0.0 0.0 -1.142468999695e+02 
-1.211901004911e+02 5.383435700094e-01 0.0 
5.383435700094e-01 -2.759533054445e+02 0.0 
0.0 0.0 -1.187430217807e+02 
-1.632809736038e+02 1.532639754594e+00 0.0 
1.532639754594e+00 -3.860902004619e+02 0.0 
0.0 0.0 -1.644113522197e+02 
-8.160940878193e+01 6.613333807854e-01 0.0 
6.613333807854e-01 -1.759940079400e+02 0.0 
0.0 0.0 -7.688102501657e+01 
-6.686317740108e+00 -6.956083794899e-01 0.0 
-6.956083794899e-01 -1.742495523295e+01 0.0 
0.0 0.0 -7.083490061498e+00 
-1.441262284495e+02 1.653329921774e+00 0.0 
1.653329921774e+00 -3.350205420736e+02 0.0 
0.0 0.0 -1.433440311569e+02 
-1.459046619413e+02 3.032832755158e+00 0.0 
3.032832755158e+00 -3.389525920566e+02 0.0 
0.0 0.0 -1.450571761994e+02 
-1.458774291741e+02 2.506039246292e+00 0.0 
2.506039246292e+00 -3.390320887298e+02 0.0 
0.0 0.0 -1.450728553712e+02 
-1.497976132355e+02 -1.705926705846e-01 0.0 
-1.705926705846e-01 -3.495569727004e+02 0.0 
0.0 0.0 -1.494063757808e+02 
-1.539893700541e+02 -2.386911502012e-01 0.0 
-2.386911502012e-01 -3.595287320348e+02 0.0 
0.0 0.0 -1.536554306267e+02 
-1.441095456345e+02 9.084149293363e-01 0.0 
9.084149293363e-01 -3.353549071510e+02 0.0 
0.0 0.0 -1.434393358357e+02 
-5.690914024096e+01 -6.506326933206e+00 0.0 
-6.506326933206e+00 -1.306685744210e+02 0.0 
0.0 0.0 -5.587331439858e+01 
-1.414398903646e+02 7.605837769554e+00 0.0 
7.605837769554e+00 -3.227122874517e+02 0.0 
0.0 0.0 -1.388456533449e+02 
-1.311956275020e+02 1.641398296235e+00 0.0 
1.641398296235e+00 -3.006724605070e+02 0.0 
0.0 0.0 -1.291604264027e+02 
-3.402464198802e+01 2.136425027020e+01 0.0 
2.136425027020e+01 -1.229157641744e+02 0.0 
0.0 0.0 -4.695273699613e+01 
-5.515287689443e+01 -1.043989050756e+01 0.0 
-1.043989050756e+01 -1.324143996294e+02 0.0 
0.0 0.0 -5.587018295715e+01 
-1.242962526468e+02 -9.250709171807e-01 0.0 
-9.250709171807e-01 -2.902592827038e+02 0.0 
0.0 0.0 -1.239666606052e+02 
-1.124580813892e+02 -2.647411498396e+00 0.0 
-2.647411498396e+00 -2.705536312816e+02 0.0 
0.0 0.0 -1.145035138013e+02 
-1.416294407899e+02 -6.834508703881e-01 0.0 
-6.834508703881e-01 -3.327163055926e+02 0.0 
0.0 0.0 -1.419037239147e+02 
-1.163972503024e+02 -1.784729639240e+00 0.0 
-1.784729639240e+00 -2.740137786955e+02 0.0 
0.0 0.0 -1.167233086994e+02 
-1.336588031707e+02 -1.095897501805e+00 0.0 
-1.095897501805e+00 -3.170796507537e+02 0.0 
0.0 0.0 -1.348215361773e+02 
-1.531660855510e+02 4.754338925746e+00 0.0 
4.754338925746e+00 -3.696143007383e+02 0.0 
0.0 0.0 -1.564341158868e+02 
-3.340275012649e+01 -9.474831767614e-01 0.0 
-9.474831767614e-01 -7.927376014559e+01 0.0 
0.0 0.0 -3.340295308162e+01 
-1.033653304196e+02 1.308216414628e+00 0.0 
1.308216414628e+00 -2.287656684918e+02 0.0 
0.0 0.0 -9.923929967343e+01 
-9.974669299039e+01 6.893805135718e-01 0.0 
6.893805135718e-01 -2.213884864084e+02 0.0 
0.0 0.0 -9.594055381963e+01 
-1.195218407556e+02 1.563610345372e+00 0.0 
1.563610345372e+00 -2.701104915865e+02 0.0 
0.0 0.0 -1.164896997026e+02 
-5.863261659602e+01 -3.592048328984e+00 0.0 
-3.592048328984e+00 -1.339936443352e+02 0.0 
0.0 0.0 -5.738787827938e+01 
-9.159838925523e+01 -1.908955500599e+00 0.0 
-1.908955500599e+00 -2.121619621866e+02 0.0 
0.0 0.0 -9.072810543255e+01 
-3.776028120939e+01 -3.161331308252e+00 0.0 
-3.161331308252e+00 -8.497981238963e+01 0.0 
0.0 0.0 -3.642202807971e+01 
-1.486986328221e+02 1.170487194459e+01 0.0 
1.170487194459e+01 -3.468012229430e+02 0.0 
0.0 0.0 -1.482499567295e+02 
-8.846104117868e+01 7.964451279197e+00 0.0 
7.964451279197e+00 -1.873075415544e+02 0.0 
0.0 0.0 -8.233057481994e+01 
-9.002591094722e+01 -4.497016992899e+00 0.0 
-4.497016992899e+00 -2.351477537133e+02 0.0 
0.0 0.0 -9.715209939815e+01 
-7.609003961754e+01 -5.089169400558e+00 0.0 
-5.089169400558e+00 -1.791615996094e+02 0.0 
0.0 0.0 -7.617549176807e+01 
-6.128321571353e+01 -7.618839933856e+00 0.0 
-7.618839933856e+00 -1.441498251041e+02 0.0 
0.0 0.0 -6.122991224528e+01 
-5.191708688314e+01 -1.215429720944e+01 0.0 
-1.215429720944e+01 -1.270987112285e+02 0.0 
0.0 0.0 -5.330473943348e+01 
-7.958794816575e+01 1.497312772548e+01 0.0 
1.497312772548e+01 -1.915896200623e+02 0.0 
0.0 0.0 -8.095327046841e+01 
-8.760929676402e+01 -5.577260843643e+00 0.0 
-5.577260843643e+00 -2.171085097484e+02 0.0 
0.0 0.0 -9.101534195374e+01 
-1.249731878845e+02 -1.152660795526e+00 0.0 
-1.152660795526e+00 -3.059958527754e+02 0.0 
0.0 0.0 -1.288907121980e+02 
-1.235737556603e+02 1.441819921147e+00 0.0 
1.441819921147e+00 -2.809145421960e+02 0.0 
0.0 0.0 -1.209464893569e+02 
-5.698688960567e+00 -2.903331274629e-01 0.0 
-2.903331274629e-01 -1.907033712787e+01 0.0 
0.0 0.0 -6.898505635674e+00 
-1.293380409825e+02 -3.735306797071e-01 0.0 
-3.735306797071e-01 -3.174467703267e+02 0.0 
0.0 0.0 -1.336354433928e+02 
-1.037790837879e+02 -3.573058764721e+00 0.0 
-3.573058764721e+00 -2.558671663486e+02 0.0 
0.0 0.0 -1.074938750409e+02 
-1.072938750139e+02 2.215102311868e+00 0.0 
2.215102311868e+00 -2.365558100319e+02 0.0 
0.0 0.0 -1.027549055137e+02 
-1.246714173003e+02 7.336687006161e+00 0.0 
7.336687006161e+00 -3.148546317053e+02 0.0 
0.0 0.0 -1.314578147017e+02 
-4.343343362548e+01 -1.766300761127e+01 0.0 
-1.766300761127e+01 -1.001997037382e+02 0.0 
0.0 0.0 -4.145485986126e+01 
-1.230235437055e+02 2.536825833139e+00 0.0 
2.536825833139e+00 -2.775983573212e+02 0.0 
0.0 0.0 -1.197865703080e+02 
-1.372369685170e+02 4.835776456703e+00 0.0 
4.835776456703e+00 -3.135514896994e+02 0.0 
0.0 0.0 -1.348365374649e+02 
-9.925986495897e+01 2.382081931273e+00 0.0 
2.382081931273e+00 -2.152814904642e+02 0.0 
0.0 0.0 -9.396240662694e+01 
-2.828078187353e+01 -2.218239031337e+00 0.0 
-2.218239031337e+00 -6.480917880444e+01 0.0 
0.0 0.0 -2.752698820339e+01 
-9.500229613531e+01 9.459083885370e-01 0.0 
9.459083885370e-01 -2.086957841916e+02 0.0 
0.0 0.0 -9.070942409808e+01 
-1.482107105546e+02 2.008939767075e+00 0.0 
2.008939767075e+00 -3.582805097136e+02 0.0 
0.0 0.0 -1.515473660805e+02 
-1.230988083631e+02 4.737489240923e+00 0.0 
4.737489240923e+00 -2.742647233524e+02 0.0 
0.0 0.0 -1.188090595146e+02 
-5.351059458635e+01 -2.656343621396e+00 0.0 
-2.656343621396e+00 -1.219920617777e+02 0.0 
0.0 0.0 -5.225079690923e+01 
-8.748925191391e+01 3.953606093107e+00 0.0 
3.953606093107e+00 -2.450078249753e+02 0.0 
0.0 0.0 -9.934912306676e+01 
-8.663059748568e+01 1.230750950569e+01 0.0 
1.230750950569e+01 -1.931524217282e+02 0.0 
0.0 0.0 -8.353490576417e+01 
-7.673186805136e+01 2.915598868442e+00 0.0 
2.915598868442e+00 -1.580353785352e+02 0.0 
0.0 0.0 -7.003017397596e+01 
-1.344841489692e+02 2.012415757035e+00 0.0 
2.012415757035e+00 -3.092028959808e+02 0.0 
0.0 0.0 -1.327061134850e+02 
-9.237243507432e+01 1.267777107948e+01 0.0 
1.267777107948e+01 -2.351496908243e+02 0.0 
0.0 0.0 -9.785663776959e+01 
-1.335924884415e+02 5.548935688044e+00 0.0 
5.548935688044e+00 -3.335286573412e+02 0.0 
0.0 0.0 -1.397363437348e+02 
-1.054616148888e+02 4.550324746862e+00 0.0 
4.550324746862e+00 -2.795918911285e+02 0.0 
0.0 0.0 -1.151160518052e+02 
-5.715689585457e+01 -2.128799877150e+00 0.0 
-2.128799877150e+00 -1.306144046315e+02 0.0 
0.0 0.0 -5.593139014583e+01 
-1.383253159127e+02 -4.252609249673e-01 0.0 
-4.252609249673e-01 -3.325869718995e+02 0.0 
0.0 0.0 -1.408736863436e+02 
-8.481970695339e+01 9.750812922304e+00 0.0 
9.750812922304e+00 -2.336975122004e+02 0.0 
0.0 0.0 -9.515516574615e+01 
-1.306464099438e+02 2.924180340199e+00 0.0 
2.924180340199e+00 -2.974494883778e+02 0.0 
0.0 0.0 -1.280287694965e+02 
-1.216183793219e+02 1.081726182193e+01 0.0 
1.081726182193e+01 -2.794677332646e+02 0.0 
0.0 0.0 -1.199258337759e+02 
-6.608754610512e+01 6.167320037555e+00 0.0 
6.167320037555e+00 -2.037833444147e+02 0.0 
0.0 0.0 -8.056126715593e+01 
-1.266959372020e+02 3.804007543848e+00 0.0 
3.804007543848e+00 -2.853886412252e+02 0.0 
0.0 0.0 -1.232253735282e+02 
-8.864957860011e+01 -2.749989403654e+00 0.0 
-2.749989403654e+00 -2.399479122862e+02 0.0 
0.0 0.0 -9.817924726588e+01 
-1.298591851823e+02 8.302058176580e+00 0.0 
8.302058176580e+00 -3.233285406451e+02 0.0 
0.0 0.0 -1.355563177482e+02 
-8.441716363564e+01 8.838932712789e+00 0.0 
8.838932712789e+00 -1.783950807907e+02 0.0 
0.0 0.0 -7.844367332790e+01 
-1.061812994944e+02 1.095908442914e+01 0.0 
1.095908442914e+01 -2.404218064514e+02 0.0 
0.0 0.0 -1.035809317837e+02 
-1.152470195800e+02 8.472341232121e+00 0.0 
8.472341232121e+00 -2.550834027083e+02 0.0 
0.0 0.0 -1.106991266865e+02 
-9.986028151963e+01 1.259821254312e+01 0.0 
1.259821254312e+01 -2.368673564005e+02 0.0 
0.0 0.0 -1.006182913761e+02 
-1.198548919575e+02 -7.847013627597e-01 0.0 
-7.847013627597e-01 -2.789906087186e+02 0.0 
0.0 0.0 -1.192536502028e+02 
-1.338842026810e+02 -4.310521067669e-01 0.0 
-4.310521067669e-01 -3.250140237192e+02 0.0 
0.0 0.0 -1.372694679201e+02 
-3.138221181194e+01 -6.655447955770e+00 0.0 
-6.655447955770e+00 -1.353357699667e+02 0.0 
0.0 0.0 -5.076450037111e+01 
-6.505979491014e+01 1.714820946059e+01 0.0 
1.714820946059e+01 -1.519178282350e+02 0.0 
0.0 0.0 -6.469328694354e+01 
-1.074523316447e+02 2.842408580396e+00 0.0 
2.842408580396e+00 -2.353726480544e+02 0.0 
0.0 0.0 -1.024474939097e+02 
-1.363464481823e+02 1.130934957160e+01 0.0 
1.130934957160e+01 -3.207083172526e+02 0.0 
0.0 0.0 -1.367164296305e+02 
-1.380938048732e+02 3.219698823077e+00 0.0 
3.219698823077e+00 -3.171135243047e+02 0.0 
0.0 0.0 -1.361621987534e+02 
-7.919860719722e+01 1.254143970914e+01 0.0 
1.254143970914e+01 -1.731486536649e+02 0.0 
0.0 0.0 -7.530417825865e+01 
-1.338337984029e+02 -9.315071226480e-01 0.0 
-9.315071226480e-01 -3.210090296096e+02 0.0 
0.0 0.0 -1.360528484037e+02 
-1.338807703100e+02 4.225452538538e+00 0.0 
4.225452538538e+00 -3.047470794958e+02 0.0 
0.0 0.0 -1.311883549417e+02 
-9.187042674202e+01 -4.850918939790e+00 0.0 
-4.850918939790e+00 -2.242018278887e+02 0.0 
0.0 0.0 -9.442167638921e+01 
-3.849622505299e+01 -3.483465694608e-01 0.0 
-3.483465694608e-01 -9.083259178293e+01 0.0 
0.0 0.0 -3.839864505078e+01 
-3.247203528585e+01 2.509875020726e+01 0.0 
2.509875020726e+01 -1.083223609834e+02 0.0 
0.0 0.0 -4.223052047221e+01 
-4.950281944593e+01 6.749206616259e+00 0.0 
6.749206616259e+00 -1.737675438645e+02 0.0 
0.0 0.0 -6.658110899313e+01 
-8.703764466733e+01 1.240871040151e+01 0.0 
1.240871040151e+01 -2.288206301362e+02 0.0 
0.0 0.0 -9.435748244105e+01 
-9.993768112752e+01 -3.969250838574e+00 0.0 
-3.969250838574e+00 -2.437411128971e+02 0.0 
0.0 0.0 -1.027036382074e+02 
-1.420075005681e+02 6.704634490415e+00 0.0 
6.704634490415e+00 -3.254579031202e+02 0.0 
0.0 0.0 -1.398396211065e+02 
-1.381073505291e+02 -8.071055355579e-01 0.0 
-8.071055355579e-01 -3.286341847129e+02 0.0 
0.0 0.0 -1.396224605726e+02 
-1.243186883782e+02 1.232153257916e+00 0.0 
1.232153257916e+00 -3.129956317038e+02 0.0 
0.0 0.0 -1.307942960246e+02 
-3.576432880303e+01 2.718609541663e+01 0.0 
2.718609541663e+01 -4.018334547679e+01 0.0 
0.0 0.0 -2.208173595964e+01 
-8.069461129396e+01 3.826629931545e+00 0.0 
3.826629931545e+00 -1.669208779774e+02 0.0 
0.0 0.0 -7.388464678142e+01 
-1.422801625699e+02 -6.743580964982e-01 0.0 
-6.743580964982e-01 -3.364346013070e+02 0.0 
0.0 0.0 -1.432144291631e+02 
-9.185516785003e+01 2.312514498175e+00 0.0 
2.312514498175e+00 -2.531121744156e+02 0.0 
0.0 0.0 -1.030902026797e+02 
-1.339840982126e+02 7.458005553134e+00 0.0 
7.458005553134e+00 -3.327581413077e+02 0.0 
0.0 0.0 -1.396226718561e+02 
-9.838497748104e+01 -8.115967693667e-01 0.0 
-8.115967693667e-01 -2.270640684964e+02 0.0 
0.0 0.0 -9.723471379323e+01 
-1.490976764114e+02 1.183624566790e+01 0.0 
1.183624566790e+01 -3.491960849794e+02 0.0 
0.0 0.0 -1.490881284173e+02 
-6.493869255189e+01 5.962289396235e+00 0.0 
5.962289396235e+00 -1.289249565989e+02 0.0 
0.0 0.0 -5.775909474523e+01 
-1.463923734653e+02 -5.603585793966e-01 0.0 
-5.603585793966e-01 -3.446461042622e+02 0.0 
0.0 0.0 -1.469115433183e+02 
-1.239783359573e+02 3.040262037270e+00 0.0 
3.040262037270e+00 -3.147864251712e+02 0.0 
0.0 0.0 -1.312294283385e+02 
-5.563166519850e+01 1.844946213261e+01 0.0 
1.844946213261e+01 -1.569875410350e+02 0.0 
0.0 0.0 -6.338576187003e+01 
-7.913170869131e+01 6.166759470298e-02 0.0 
6.166759470298e-02 -1.731015370942e+02 0.0 
0.0 0.0 -7.526997373567e+01 
-1.561630107556e+02 -3.962727993291e-01 0.0 
-3.962727993291e-01 -3.667269027977e+02 0.0 
0.0 0.0 -1.564669740660e+02 
-1.336867411465e+02 3.645560053891e+00 0.0 
3.645560053891e+00 -3.333692856821e+02 0.0 
0.0 0.0 -1.397168080486e+02 
-1.076870366024e+02 1.204236419568e+01 0.0 
1.204236419568e+01 -2.559612969189e+02 0.0 
0.0 0.0 -1.086945000564e+02 
-8.765430385263e+01 1.979726449169e-01 0.0 
1.979726449169e-01 -2.435333926698e+02 0.0 
0.0 0.0 -9.895630895672e+01 
-6.871924729821e+01 3.445034704882e+00 0.0 
3.445034704882e+00 -1.387515190418e+02 0.0 
0.0 0.0 -6.184122990200e+01 
-1.041931030939e+02 -3.378952222491e+00 0.0 
-3.378952222491e+00 -2.511061535880e+02 0.0 
0.0 0.0 -1.061897770046e+02 
-1.105306565509e+02 1.030975296622e+01 0.0 
1.030975296622e+01 -2.486346415474e+02 0.0 
0.0 0.0 -1.073495894295e+02 
-1.477643005979e+02 5.768058045171e+00 0.0 
5.768058045171e+00 -3.426854359488e+02 0.0 
0.0 0.0 -1.467349209640e+02 
-1.382197737264e+02 4.827355755495e+00 0.0 
4.827355755495e+00 -3.422011679034e+02 0.0 
0.0 0.0 -1.437262824889e+02 
-1.118050333153e+02 5.253865656248e+00 0.0 
5.253865656248e+00 -2.438009387945e+02 0.0 
0.0 0.0 -1.062817916329e+02 
-1.001642648247e+02 -3.444902719920e+00 0.0 
-3.444902719920e+00 -2.390173075850e+02 0.0 
0.0 0.0 -1.013544717229e+02 
-1.126419506619e+02 1.030661122715e+01 0.0 
1.030661122715e+01 -2.833957911295e+02 0.0 
0.0 0.0 -1.184113225374e+02 
-1.903236843174e+01 -5.249408173815e-01 0.0 
-5.249408173815e-01 -5.024155780353e+01 0.0 
0.0 0.0 -2.038217787058e+01 
-7.290028524176e+01 4.665908238710e+00 0.0 
4.665908238710e+00 -1.479969266223e+02 0.0 
0.0 0.0 -6.586916355922e+01 
-1.041894871980e+02 -2.800338092728e+00 0.0 
-2.800338092728e+00 -2.466502260133e+02 0.0 
0.0 0.0 -1.048519139634e+02 
-5.343464065755e+01 2.597505676611e+00 0.0 
2.597505676611e+00 -1.816737720594e+02 0.0 
0.0 0.0 -7.013252381509e+01 
-9.234235754072e+01 -8.854299197610e-01 0.0 
-8.854299197610e-01 -2.506358580514e+02 0.0 
0.0 0.0 -1.024934646776e+02 
-1.491567192956e+02 1.008650914903e+01 0.0 
1.008650914903e+01 -3.576727792892e+02 0.0 
0.0 0.0 -1.516488495755e+02 
-1.081662846813e+02 -2.210844380995e+00 0.0 
-2.210844380995e+00 -2.544835652972e+02 0.0 
0.0 0.0 -1.083949549935e+02 
-6.168274187295e+01 3.000281201991e+00 0.0 
3.000281201991e+00 -1.965783569258e+02 0.0 
0.0 0.0 -7.707832963962e+01 
-1.120825450720e+02 -1.676841079070e+00 0.0 
-1.676841079070e+00 -2.624483997100e+02 0.0 
0.0 0.0 -1.119592834346e+02 
-6.073021207268e+01 4.293136126146e+00 0.0 
4.293136126146e+00 -1.195737935413e+02 0.0 
0.0 0.0 -5.369120168419e+01 
-1.156777457658e+02 6.103823605124e+00 0.0 
6.103823605124e+00 -2.537260537658e+02 0.0 
0.0 0.0 -1.104211398595e+02 
-1.159675197461e+02 -1.172659880405e+00 0.0 
-1.172659880405e+00 -2.704908159802e+02 0.0 
0.0 0.0 -1.155375007179e+02 
-1.181816095871e+02 1.035703354944e+01 0.0 
1.035703354944e+01 -2.682037023815e+02 0.0 
0.0 0.0 -1.155155935906e+02 
-2.130051197248e+01 -1.111688328115e+00 0.0 
-1.111688328115e+00 -5.256924000225e+01 0.0 
0.0 0.0 -2.176092559242e+01 
-1.107376715054e+02 1.182407999619e+01 0.0 
1.182407999619e+01 -2.675443358783e+02 0.0 
0.0 0.0 -1.130846022151e+02 
-1.453064125470e+02 -3.371369407231e-01 0.0 
-3.371369407231e-01 -3.390994047033e+02 0.0 
0.0 0.0 -1.449217451751e+02 
-6.849050613055e+01 -8.617085805036e+00 0.0 
-8.617085805036e+00 -1.717477482172e+02 0.0 
0.0 0.0 -7.167147630432e+01 
-9.712346707826e+01 -1.588346471750e+00 0.0 
-1.588346471750e+00 -2.577219916377e+02 0.0 
0.0 0.0 -1.060536376148e+02 
-1.233207707970e+02 6.688613425900e+00 0.0 
6.688613425900e+00 -2.737555233978e+02 0.0 
0.0 0.0 -1.187228882584e+02 
-5.264469840961e+01 5.626471502189e+00 0.0 
5.626471502189e+00 -1.001658690789e+02 0.0 
0.0 0.0 -4.544317024657e+01 
-1.058883751896e+02 -5.483503643536e-01 0.0 
-5.483503643536e-01 -2.758099960175e+02 0.0 
0.0 0.0 -1.141095113621e+02 
-1.258868087654e+02 1.046050326186e+01 0.0 
1.046050326186e+01 -2.877683224855e+02 0.0 
0.0 0.0 -1.236965393753e+02 
-1.139966430806e+02 1.135004975194e+01 0.0 
1.135004975194e+01 -2.790343544044e+02 0.0 
0.0 0.0 -1.175092992455e+02 
-9.535504576353e+01 1.151231109747e+01 0.0 
1.151231109747e+01 -2.467862161286e+02 0.0 
0.0 0.0 -1.022423785676e+02 
-1.149610751001e+02 3.875568194119e-01 0.0 
3.875568194119e-01 -2.942698589524e+02 0.0 
0.0 0.0 -1.223692802157e+02 
-5.695429821582e+01 7.793885736407e+00 0.0 
7.793885736407e+00 -1.099388253854e+02 0.0 
0.0 0.0 -4.966793708038e+01 
-5.393374608995e+01 -7.715609540864e+00 0.0 
-7.715609540864e+00 -1.235879530820e+02 0.0 
0.0 0.0 -5.285650975159e+01 
-4.651547192579e+01 -7.274721008283e+00 0.0 
-7.274721008283e+00 -1.029115459862e+02 0.0 
0.0 0.0 -4.442810537361e+01 
-6.610176838667e+01 2.457189786719e-01 0.0 
2.457189786719e-01 -2.037033472735e+02 0.0 
0.0 0.0 -8.054153469804e+01 
-1.300275137134e+02 1.013916973852e+01 0.0 
1.013916973852e+01 -2.963332912366e+02 0.0 
0.0 0.0 -1.275082414850e+02 
-2.681643275384e+01 -4.286093823413e-01 0.0 
-4.286093823413e-01 -6.670955935795e+01 0.0 
0.0 0.0 -2.765779763354e+01 
-1.231800860856e+02 7.778198640060e+00 0.0 
7.778198640060e+00 -2.739424634519e+02 0.0 
0.0 0.0 -1.187367648613e+02 
-3.670484814412e+01 -7.095135241600e+00 0.0 
-7.095135241600e+00 -7.475833049721e+01 0.0 
0.0 0.0 -3.291886992847e+01 
-6.274218527695e+01 -3.090414868292e+00 0.0 
-3.090414868292e+00 -1.941840237957e+02 0.0 
0.0 0.0 -7.667786272180e+01 
-1.267545275350e+02 1.044010891014e+01 0.0 
1.044010891014e+01 -3.098753773024e+02 0.0 
0.0 0.0 -1.305889714512e+02 
-1.015491417539e+02 3.200586090831e-01 0.0 
3.200586090831e-01 -2.269761856660e+02 0.0 
0.0 0.0 -9.815759822595e+01 
-6.762289071730e+01 -4.668378192126e+00 0.0 
-4.668378192126e+00 -1.996385587570e+02 0.0 
0.0 0.0 -7.977843484229e+01 
-4.788206664409e+01 -4.454196005210e-01 0.0 
-4.454196005210e-01 -1.106396507188e+02 0.0 
0.0 0.0 -4.715651520887e+01 
-6.495818626761e+01 -7.261558971110e+00 0.0 
-7.261558971110e+00 -1.880090340699e+02 0.0 
0.0 0.0 -7.549016610124e+01 
-1.038718939691e+02 1.080687892141e+01 0.0 
1.080687892141e+01 -2.649346907058e+02 0.0 
0.0 0.0 -1.102419754025e+02 
-6.976031557042e+01 -7.518958425877e+00 0.0 
-7.518958425877e+00 -1.929979271386e+02 0.0 
0.0 0.0 -7.842747281269e+01 
-6.721738475361e+01 -8.933188603179e+00 0.0 
-8.933188603179e+00 -1.800723162021e+02 0.0 
0.0 0.0 -7.378691028672e+01 
-1.386336894721e+02 1.880654176145e+00 0.0 
1.880654176145e+00 -3.202930266714e+02 0.0 
0.0 0.0 -1.372780148430e+02 
-7.155088068839e+01 -8.276730833629e+00 0.0 
-8.276730833629e+00 -1.853341918092e+02 0.0 
0.0 0.0 -7.666552174927e+01 
-1.456067571334e+02 5.965547588660e-01 0.0 
5.965547588660e-01 -3.387096358870e+02 0.0 
0.0 0.0 -1.448949179061e+02 
-1.632448111111e+02 -1.629819434565e-01 0.0 
-1.629819434565e-01 -3.817104565377e+02 0.0 
0.0 0.0 -1.630865802946e+02 
-8.533744332739e+01 1.998977105124e-01 0.0 
1.998977105124e-01 -1.880284650569e+02 0.0 
0.0 0.0 -8.160977251527e+01 
-4.383983048442e+01 6.606012241677e+00 0.0 
6.606012241677e+00 -7.977851186750e+01 0.0 
0.0 0.0 -3.668550270558e+01 
-6.526594378657e+01 1.200320167891e+00 0.0 
1.200320167891e+00 -1.118582598062e+02 0.0 
0.0 0.0 -5.401700964103e+01 
-4.999050863678e+01 1.137171467724e+01 0.0 
1.137171467724e+01 -9.242214816096e+01 0.0 
0.0 0.0 -4.232379703932e+01 
-6.165832122538e+01 -9.652209661608e+00 0.0 
-9.652209661608e+00 -1.522858360429e+02 0.0 
0.0 0.0 -6.378324718048e+01 
-1.227388631220e+02 8.842103115433e+00 0.0 
8.842103115433e+00 -2.746535210739e+02 0.0 
0.0 0.0 -1.188177152588e+02 
-8.575805507169e+01 9.390018131203e-02 0.0 
9.390018131203e-02 -1.887992548957e+02 0.0 
0.0 0.0 -8.196719299023e+01 
-5.821212007139e+01 -8.978154135270e+00 0.0 
-8.978154135270e+00 -1.379824366399e+02 0.0 
0.0 0.0 -5.845836701339e+01 
-1.454774789015e+02 9.606711245972e+00 0.0 
9.606711245972e+00 -3.343903407920e+02 0.0 
0.0 0.0 -1.435603459081e+02 
-1.574340806939e+02 1.225707571851e+01 0.0 
1.225707571851e+01 -3.699911041413e+02 0.0 
0.0 0.0 -1.578275554506e+02 
-1.131573764331e+02 4.208109753102e-01 0.0 
4.208109753102e-01 -2.555636168440e+02 0.0 
0.0 0.0 -1.102162979831e+02 
-1.381034352051e+02 6.640157273842e+00 0.0 
6.640157273842e+00 -3.413801185926e+02 0.0 
0.0 0.0 -1.434450661393e+02 
-1.177422142377e+02 1.071211855355e+01 0.0 
1.071211855355e+01 -2.908073081506e+02 0.0 
0.0 0.0 -1.221648567165e+02 
-1.314465700117e+02 3.481658378845e-01 0.0 
3.481658378845e-01 -3.023488079693e+02 0.0 
0.0 0.0 -1.297386133943e+02 
-7.911423809500e+01 4.503259517618e-01 0.0 
4.503259517618e-01 -1.718185670777e+02 0.0 
0.0 0.0 -7.487984155182e+01 
-1.804764768831e+01 -2.985285108153e+00 0.0 
-2.985285108153e+00 -3.410569015636e+01 0.0 
0.0 0.0 -1.520661747953e+01 
-1.242287541602e+02 -3.596775145674e-01 0.0 
-3.596775145674e-01 -2.889634009834e+02 0.0 
0.0 0.0 -1.235576465431e+02 
-3.651727921333e+01 8.862726741166e+00 0.0 
8.862726741166e+00 -6.049076454454e+01 0.0 
0.0 0.0 -2.870241312736e+01 
-4.127509594879e+01 1.543385668472e+01 0.0 
1.543385668472e+01 -7.114106776023e+01 0.0 
0.0 0.0 -3.332484911270e+01 
-3.721109577722e+01 2.170447705360e+01 0.0 
2.170447705360e+01 -6.102116360833e+01 0.0 
0.0 0.0 -2.792782074763e+01 
-5.992742299273e+01 -1.593547671399e+00 0.0 
-1.593547671399e+00 -1.373832880471e+02 0.0 
0.0 0.0 -5.879321331196e+01 
-3.600988089753e+01 -1.459749297623e+01 0.0 
-1.459749297623e+01 -5.977496219761e+01 0.0 
0.0 0.0 -2.697995205940e+01 
-3.348426873195e+01 1.283925592995e+01 0.0 
1.283925592995e+01 -4.774240574157e+01 0.0 
0.0 0.0 -2.368605929532e+01 
-1.518310659699e+02 7.938718724428e+00 0.0 
7.938718724428e+00 -3.661761169365e+02 0.0 
0.0 0.0 -1.550021548719e+02 
-8.782722775503e+01 1.132023530964e+00 0.0 
1.132023530964e+00 -1.898692280474e+02 0.0 
0.0 0.0 -8.290893674072e+01 
-1.313547213550e+02 1.083751007706e+01 0.0 
1.083751007706e+01 -3.169168735240e+02 0.0 
0.0 0.0 -1.340814784637e+02 
-3.201239160553e+01 1.894567298180e+01 0.0 
1.894567298180e+01 -3.659037945941e+01 0.0 
0.0 0.0 -1.860503877251e+01 
-1.408300488594e+02 4.726022985037e+00 0.0 
4.726022985037e+00 -3.238377355900e+02 0.0 
0.0 0.0 -1.390003353348e+02 
-1.501547612299e+02 1.112156101267e+01 0.0 
1.112156101267e+01 -3.568551816995e+02 0.0 
0.0 0.0 -1.517029828788e+02 
-1.641836762320e+02 4.891003491124e-01 0.0 
4.891003491124e-01 -3.866284304901e+02 0.0 
0.0 0.0 -1.648436320166e+02 
-1.403271828090e+02 1.083517694504e+01 0.0 
1.083517694504e+01 -3.361166362587e+02 0.0 
0.0 0.0 -1.425331457203e+02 
-3.556974144835e+01 2.806203694853e+01 0.0 
2.806203694853e+01 -6.278972739767e+01 0.0 
0.0 0.0 -2.822279845073e+01 
-9.653454061199e+01 2.553053693807e+00 0.0 
2.553053693807e+00 -2.076132543970e+02 0.0 
0.0 0.0 -9.084433850269e+01 
-1.478985965890e+02 1.153549772968e+01 0.0 
1.153549772968e+01 -3.438672457690e+02 0.0 
0.0 0.0 -1.471297527074e+02 
-1.195830759849e+02 6.376884234525e-01 0.0 
6.376884234525e-01 -2.712071198154e+02 0.0 
0.0 0.0 -1.168370587401e+02 
-1.648917450805e+02 -3.016555261235e-01 0.0 
-3.016555261235e-01 -3.868462019100e+02 0.0 
0.0 0.0 -1.651213840972e+02 
-8.771361619043e+01 1.324810567375e+00 0.0 
1.324810567375e+00 -1.879530022597e+02 0.0 
0.0 0.0 -8.229998553503e+01 
-1.394123814593e+02 1.166424903835e+00 0.0 
1.166424903835e+00 -3.226803714940e+02 0.0 
0.0 0.0 -1.382278258860e+02 
-3.250755620038e+01 -1.514021462387e+01 0.0 
-1.514021462387e+01 -1.240225094850e+02 0.0 
0.0 0.0 -4.752902761545e+01 
-1.393954726031e+02 5.500732848798e-01 0.0 
5.500732848798e-01 -3.227924372086e+02 0.0 
0.0 0.0 -1.382563729435e+02 
-1.302766585747e+02 9.273734247498e+00 0.0 
9.273734247498e+00 -2.944749717295e+02 0.0 
0.0 0.0 -1.270254890913e+02 
-9.614949932700e+01 3.800462968943e-01 0.0 
3.800462968943e-01 -2.128888254681e+02 0.0 
0.0 0.0 -9.231149743854e+01 
-9.712259354144e+01 3.131579236472e+00 0.0 
3.131579236472e+00 -2.077248586562e+02 0.0 
0.0 0.0 -9.105423565930e+01 
-1.578452538829e+02 -3.141284670801e-01 0.0 
-3.141284670801e-01 -3.690072516106e+02 0.0 
0.0 0.0 -1.576557516481e+02 
-1.439720286536e+02 8.429546437182e+00 0.0 
8.429546437182e+00 -3.306045666206e+02 0.0 
0.0 0.0 -1.419729785823e+02 
-3.484415373157e+01 3.124410145319e+01 0.0 
3.124410145319e+01 -7.050380442856e+01 0.0 
0.0 0.0 -3.145869044414e+01 
-1.129723957461e+02 3.989252564577e-01 0.0 
3.989252564577e-01 -2.545172930428e+02 0.0 
0.0 0.0 -1.098469066367e+02 
-7.481181838008e+01 -2.330225533255e+00 0.0 
-2.330225533255e+00 -1.722005456656e+02 0.0 
0.0 0.0 -7.370370921370e+01 
-3.869250345018e+01 -1.816068051020e+01 0.0 
-1.816068051020e+01 -1.077403243843e+02 0.0 
0.0 0.0 -4.521603331230e+01 
-1.557738802235e+02 9.544321904368e-01 0.0 
9.544321904368e-01 -3.710881392984e+02 0.0 
0.0 0.0 -1.576586058566e+02 
-1.372560065127e+02 9.693559448215e+00 0.0 
9.693559448215e+00 -3.132350120976e+02 0.0 
0.0 0.0 -1.347473055831e+02 
-1.571094032034e+02 -5.116111303081e-01 0.0 
-5.116111303081e-01 -3.684042666449e+02 0.0 
0.0 0.0 -1.572541009545e+02 
-1.795039443278e+01 -1.740712201193e-01 0.0 
-1.740712201193e-01 -4.970181490921e+01 0.0 
0.0 0.0 -1.989566280260e+01 
-1.280833747052e+01 -1.078895372462e+00 0.0 
-1.078895372462e+00 -3.135925083187e+01 0.0 
0.0 0.0 -1.290363611283e+01 
-1.565669292713e+02 2.333929946545e+00 0.0 
2.333929946545e+00 -3.744616454066e+02 0.0 
0.0 0.0 -1.589085724034e+02 
-1.474006223744e+02 1.067992515592e+01 0.0 
1.067992515592e+01 -3.404616531043e+02 0.0 
0.0 0.0 -1.459586826436e+02 
-3.790870387429e+01 -1.708836201362e+01 0.0 
-1.708836201362e+01 -1.204703435316e+02 0.0 
0.0 0.0 -4.684049568880e+01 
-1.476758842126e+02 4.081826658240e+00 0.0 
4.081826658240e+00 -3.434110455352e+02 0.0 
0.0 0.0 -1.469260789244e+02 
-3.738047912896e+01 3.212959874077e+01 0.0 
3.212959874077e+01 -7.696358725640e+01 0.0 
0.0 0.0 -3.523947189718e+01 
-7.879195474475e+01 3.214935132274e-01 0.0 
3.214935132274e-01 -1.698767364837e+02 0.0 
0.0 0.0 -7.420060736854e+01 
-1.101022234246e+01 -4.091487340150e-01 0.0 
-4.091487340150e-01 -3.220185109966e+01 0.0 
0.0 0.0 -1.264051182707e+01 
-1.646026967828e+02 -7.520334897961e-02 0.0 
-7.520334897961e-02 -3.857274085673e+02 0.0 
0.0 0.0 -1.646990316050e+02 
-1.404523774589e+02 2.899459409418e+00 0.0 
2.899459409418e+00 -3.244263347679e+02 0.0 
0.0 0.0 -1.390636136680e+02 
-8.227881624397e+01 -1.695950637835e+00 0.0 
-1.695950637835e+00 -1.891975424613e+02 0.0 
0.0 0.0 -8.104290761157e+01 
-8.406925809790e+01 2.086215826548e+00 0.0 
2.086215826548e+00 -1.768624334497e+02 0.0 
0.0 0.0 -7.787950746429e+01 
-5.411161627621e+01 -1.018464516756e+00 0.0 
-1.018464516756e+00 -1.242356118776e+02 0.0 
0.0 0.0 -5.310416844613e+01 
-1.432651233250e+02 1.135022630408e+01 0.0 
1.135022630408e+01 -3.370044716385e+02 0.0 
0.0 0.0 -1.436808784890e+02 
-2.783780715158e+01 -6.208873442947e+00 0.0 
-6.208873442947e+00 -4.912633988147e+01 0.0 
0.0 0.0 -2.205756731606e+01 
-1.407923897873e+02 2.278601327778e+00 0.0 
2.278601327778e+00 -3.258932033093e+02 0.0 
0.0 0.0 -1.396056779290e+02 
-1.562434741760e+02 4.086056450143e+00 0.0 
4.086056450143e+00 -3.750458466426e+02 0.0 
0.0 0.0 -1.589867962456e+02 
-1.435435805376e+02 6.295606576456e+00 0.0 
6.295606576456e+00 -3.301954083398e+02 0.0 
0.0 0.0 -1.417216966632e+02 
-1.621948637991e+02 1.005236180421e+01 0.0 
1.005236180421e+01 -3.835256284323e+02 0.0 
0.0 0.0 -1.633161476694e+02 
-4.342955410266e+01 1.056776709135e+01 0.0 
1.056776709135e+01 -1.169231234313e+02 0.0 
0.0 0.0 -4.957338220877e+01 
-1.519743859777e+02 1.168217790390e+01 0.0 
1.168217790390e+01 -3.592083688358e+02 0.0 
0.0 0.0 -1.529548264441e+02 
-1.463524154635e+02 5.088910823093e+00 0.0 
5.088910823093e+00 -3.574223774099e+02 0.0 
0.0 0.0 -1.507324378620e+02 
-7.868725254547e+01 -4.824525929278e-02 0.0 
-4.824525929278e-02 -1.715618131841e+02 0.0 
0.0 0.0 -7.467471971888e+01 
-1.435032596012e+02 7.214339810771e+00 0.0 
7.214339810771e+00 -3.294039089660e+02 0.0 
0.0 0.0 -1.414721505702e+02 
-6.705824709413e+01 -1.700972480442e+00 0.0 
-1.700972480442e+00 -1.534542986875e+02 0.0 
0.0 0.0 -6.575376373450e+01 
-2.769849525597e+01 -1.202146025248e+00 0.0 
-1.202146025248e+00 -6.589717860415e+01 0.0 
0.0 0.0 -2.767870215803e+01 
-1.463714683665e+02 3.838432584986e-01 0.0 
3.838432584986e-01 -3.407468859619e+02 0.0 
0.0 0.0 -1.457355062985e+02 
-2.836255795488e+00 -3.005146319452e-02 0.0 
-3.005146319452e-02 -1.414020265527e+01 0.0 
0.0 0.0 -4.034866785713e+00 
-7.780729035357e+01 1.067937568779e-01 0.0 
1.067937568779e-01 -1.703898818502e+02 0.0 
0.0 0.0 -7.405915166114e+01 
-1.650130361151e+02 -2.552192700725e-01 0.0 
-2.552192700725e-01 -3.858382855980e+02 0.0 
0.0 0.0 -1.648553965140e+02 
-2.541653555697e+01 -6.942812422130e-01 0.0 
-6.942812422130e-01 -6.290063140706e+01 0.0 
0.0 0.0 -2.609515008921e+01 
-9.147681182531e+01 2.566261827168e-01 0.0 
2.566261827168e-01 -2.024116230976e+02 0.0 
0.0 0.0 -8.776653047686e+01 
-1.471985569162e+02 1.028123387003e+01 0.0 
1.028123387003e+01 -3.393168092218e+02 0.0 
0.0 0.0 -1.455546098414e+02 
-1.004463077718e+02 -4.006098397864e-01 0.0 
-4.006098397864e-01 -2.321058635420e+02 0.0 
0.0 0.0 -9.936565139412e+01 
-1.271060011069e+02 7.023951277193e-01 0.0 
7.023951277193e-01 -2.910377952863e+02 0.0 
0.0 0.0 -1.250431389180e+02 
-4.087739658790e+01 -1.811991134693e+01 0.0 
-1.811991134693e+01 -8.040567907039e+01 0.0 
0.0 0.0 -3.457242534202e+01 
-6.700294447064e+01 -7.069719176407e+00 0.0 
-7.069719176407e+00 -1.085912443066e+02 0.0 
0.0 0.0 -5.342377955088e+01 
-1.058281308058e+02 4.285489911799e-01 0.0 
4.285489911799e-01 -2.373198214457e+02 0.0 
0.0 0.0 -1.025443856755e+02 
-1.522471924432e+02 1.060844507475e+01 0.0 
1.060844507475e+01 -3.627705541396e+02 0.0 
0.0 0.0 -1.541053239748e+02 
-1.430693393080e+02 5.296008422132e+00 0.0 
5.296008422132e+00 -3.297104571030e+02 0.0 
0.0 0.0 -1.414339389233e+02 
-1.004958901796e+02 3.345812932425e-01 0.0 
3.345812932425e-01 -2.236795226525e+02 0.0 
0.0 0.0 -9.685262384964e+01 
-3.191307009857e+01 2.858369449470e+01 0.0 
2.858369449470e+01 -9.263384034721e+01 0.0 
0.0 0.0 -3.755333982929e+01 
-1.430418146726e+02 1.008795778926e+01 0.0 
1.008795778926e+01 -3.285602663036e+02 0.0 
0.0 0.0 -1.410806242929e+02 
-8.887367233912e+01 -1.500156437786e+00 0.0 
-1.500156437786e+00 -2.045515696208e+02 0.0 
0.0 0.0 -8.762757258798e+01 
-1.432423933138e+02 1.142611556290e+01 0.0 
1.142611556290e+01 -3.331450615924e+02 0.0 
0.0 0.0 -1.425162364719e+02 
-1.457379615733e+02 7.082009594388e+00 0.0 
7.082009594388e+00 -3.557154459809e+02 0.0 
0.0 0.0 -1.500360222663e+02 
-4.388229808814e+01 3.174884563808e+01 0.0 
3.174884563808e+01 -5.931049997972e+01 0.0 
0.0 0.0 -3.169600531986e+01 
-1.077235461051e+02 -3.573247549794e-01 0.0 
-3.573247549794e-01 -2.495599959058e+02 0.0 
0.0 0.0 -1.067850626033e+02 
-1.040774586063e+01 -3.953683285083e-01 0.0 
-3.953683285083e-01 -3.013682469225e+01 0.0 
0.0 0.0 -1.178765224127e+01 
-1.583541388854e+02 2.114829843942e-01 0.0 
2.114829843942e-01 -3.740719463295e+02 0.0 
0.0 0.0 -1.593278255645e+02 
-9.237833150609e+01 -9.669298643703e-01 0.0 
-9.669298643703e-01 -2.130075726866e+02 0.0 
0.0 0.0 -9.121577125782e+01 
-1.232783341644e+01 4.731522291180e+00 0.0 
4.731522291180e+00 -7.976743906460e+00 0.0 
0.0 0.0 -4.886746928253e+00 
-8.516247032323e+00 7.981132614882e-02 0.0 
7.981132614882e-02 -1.044243969275e+01 0.0 
0.0 0.0 -5.287606017523e+00 
-2.149284541485e+01 5.408894125023e+00 0.0 
5.408894125023e+00 -2.979878103759e+01 0.0 
0.0 0.0 -1.498748793573e+01 
-1.614013397180e+01 -3.796209444180e-02 0.0 
-3.796209444180e-02 -2.892924924066e+01 0.0 
0.0 0.0 -1.312081496374e+01 
-3.007164869525e+01 4.769456724972e+00 0.0 
4.769456724972e+00 -4.968160438412e+01 0.0 
0.0 0.0 -2.352597592381e+01 
-2.510777873147e+01 -3.852431465455e-02 0.0 
-3.852431465455e-02 -4.953736768221e+01 0.0 
0.0 0.0 -2.199354392410e+01 
-3.883821447563e+01 3.811326266546e+00 0.0 
3.811326266546e+00 -6.961369701600e+01 0.0 
0.0 0.0 -3.213557344749e+01 
-3.321807726796e+01 -3.300093033408e-02 0.0 
-3.300093033408e-02 -6.797155501896e+01 0.0 
0.0 0.0 -2.995688968607e+01 
-4.710273630791e+01 3.058491003672e+00 0.0 
3.058491003672e+00 -8.909635132138e+01 0.0 
0.0 0.0 -4.045972628879e+01 
-4.228068125402e+01 -2.975099212864e-02 0.0 
-2.975099212864e-02 -8.856415779745e+01 0.0 
0.0 0.0 -3.885345171544e+01 
-5.550014627242e+01 2.473064664288e+00 0.0 
2.473064664288e+00 -1.085964809207e+02 0.0 
0.0 0.0 -4.882898815793e+01 
-5.039297883562e+01 -1.732385067182e-02 0.0 
-1.732385067182e-02 -1.070204405649e+02 0.0 
0.0 0.0 -4.682402582016e+01 
-6.372261659123e+01 2.072642624371e+00 0.0 
2.072642624371e+00 -1.278861660042e+02 0.0 
0.0 0.0 -5.708263477862e+01 
-5.942544364253e+01 -5.872349430442e-02 0.0 
-5.872349430442e-02 -1.276469824449e+02 0.0 
0.0 0.0 -5.572172782623e+01 
-7.183163981414e+01 1.851269964299e+00 0.0 
1.851269964299e+00 -1.472926323734e+02 0.0 
0.0 0.0 -6.533728165626e+01 
-6.729036498295e+01 -1.565015228594e-01 0.0 
-1.565015228594e-01 -1.460583811346e+02 0.0 
0.0 0.0 -6.360462383527e+01 

TENSORS node_materi_strain_total float
6.575162936499e-04 1.200478352604e-06 0.0 
1.200478352604e-06 -1.735788384097e-04 0.0 
0.0 0.0 0.0 
-4.335799886186e-04 -1.703252631471e-05 0.0 
-1.703252631471e-05 6.289589518011e-03 0.0 
0.0 0.0 0.0 
-2.518882350455e-05 -1.740429770928e-06 0.0 
-1.740429770928e-06 7.592814589220e-03 0.0 
0.0 0.0 0.0 
-3.083490451194e-05 3.978627885155e-06 0.0 
3.978627885155e-06 1.006119730528e-02 0.0 
0.0 0.0 0.0 
4.898403344251e-04 -5.064355714844e-06 0.0 
-5.064355714844e-06 9.626441282051e-05 0.0 
0.0 0.0 0.0 
2.914446576401e-04 7.111261105635e-06 0.0 
7.111261105635e-06 5.962505329744e-04 0.0 
0.0 0.0 0.0 
1.105311814119e-04 -3.713154855818e-06 0.0 
-3.713154855818e-06 1.051348262322e-03 0.0 
0.0 0.0 0.0 
-3.609345454203e-05 -1.029796388024e-05 0.0 
-1.029796388024e-05 1.545361660717e-03 0.0 
0.0 0.0 0.0 
-1.648847280880e-04 -2.049548998492e-05 0.0 
-2.049548998492e-05 2.001667158447e-03 0.0 
0.0 0.0 0.0 
-2.520242432262e-04 -2.438969357429e-05 0.0 
-2.438969357429e-05 2.426363921326e-03 0.0 
0.0 0.0 0.0 
-3.121931272739e-04 -2.662716630377e-05 0.0 
-2.662716630377e-05 2.832738304483e-03 0.0 
0.0 0.0 0.0 
-3.483209925951e-04 -3.020753700665e-05 0.0 
-3.020753700665e-05 3.222538456968e-03 0.0 
0.0 0.0 0.0 
-3.618145194978e-04 -3.087809146469e-05 0.0 
-3.087809146469e-05 3.601197175762e-03 0.0 
0.0 0.0 0.0 
-3.626905847673e-04 -2.709149858278e-05 0.0 
-2.709149858278e-05 3.977221761093e-03 0.0 
0.0 0.0 0.0 
-3.545286508476e-04 -1.597418404641e-05 0.0 
-1.597418404641e-05 4.359816777815e-03 0.0 
0.0 0.0 0.0 
-3.317881942739e-04 -5.968491653194e-06 0.0 
-5.968491653194e-06 4.730689422384e-03 0.0 
0.0 0.0 0.0 
-3.029120401440e-04 -2.123926365957e-06 0.0 
-2.123926365957e-06 5.072291737176e-03 0.0 
0.0 0.0 0.0 
-2.751122296574e-04 -1.662980657301e-05 0.0 
-1.662980657301e-05 5.446631174596e-03 0.0 
0.0 0.0 0.0 
-2.423203150161e-04 -1.301440945404e-05 0.0 
-1.301440945404e-05 5.837727452895e-03 0.0 
0.0 0.0 0.0 
-2.082791842467e-04 -9.085006769450e-06 0.0 
-9.085006769450e-06 6.221479131292e-03 0.0 
0.0 0.0 0.0 
-1.707549195472e-04 -6.818175089899e-06 0.0 
-6.818175089899e-06 6.610726491210e-03 0.0 
0.0 0.0 0.0 
-1.260099203576e-04 -3.093105591968e-06 0.0 
-3.093105591968e-06 7.003156125463e-03 0.0 
0.0 0.0 0.0 
-7.376932350922e-05 8.569949392497e-07 0.0 
8.569949392497e-07 7.374267467076e-03 0.0 
0.0 0.0 0.0 
-2.119646413079e-05 4.785139209851e-05 0.0 
4.785139209851e-05 1.007670368797e-02 0.0 
0.0 0.0 0.0 
-2.553613999442e-05 8.851745027005e-05 0.0 
8.851745027005e-05 1.005398387451e-02 0.0 
0.0 0.0 0.0 
-2.522218668070e-05 1.221904501365e-04 0.0 
1.221904501365e-04 1.005476728487e-02 0.0 
0.0 0.0 0.0 
-2.519212186177e-05 1.811377651468e-04 0.0 
1.811377651468e-04 1.004543739616e-02 0.0 
0.0 0.0 0.0 
-3.102036261434e-05 2.193234587483e-04 0.0 
2.193234587483e-04 1.002351012578e-02 0.0 
0.0 0.0 0.0 
-2.753171482032e-05 2.711040769059e-04 0.0 
2.711040769059e-04 1.002183668433e-02 0.0 
0.0 0.0 0.0 
-2.901842595708e-05 3.246758724702e-04 0.0 
3.246758724702e-04 1.000531444771e-02 0.0 
0.0 0.0 0.0 
-3.242207939661e-05 3.801562002559e-04 0.0 
3.801562002559e-04 9.976338146943e-03 0.0 
0.0 0.0 0.0 
-3.247018389629e-05 4.320721496313e-04 0.0 
4.320721496313e-04 9.962258838558e-03 0.0 
0.0 0.0 0.0 
-3.067827159013e-05 5.031793509671e-04 0.0 
5.031793509671e-04 9.927705154612e-03 0.0 
0.0 0.0 0.0 
-3.992976321443e-05 5.593901229400e-04 0.0 
5.593901229400e-04 9.879722635437e-03 0.0 
0.0 0.0 0.0 
-3.685040261303e-05 6.289767126277e-04 0.0 
6.289767126277e-04 9.844356015526e-03 0.0 
0.0 0.0 0.0 
-3.821405488228e-05 7.015894875137e-04 0.0 
7.015894875137e-04 9.793366154806e-03 0.0 
0.0 0.0 0.0 
-3.874657990014e-05 7.725703561580e-04 0.0 
7.725703561580e-04 9.725781804866e-03 0.0 
0.0 0.0 0.0 
-4.231414483598e-05 8.440588475801e-04 0.0 
8.440588475801e-04 9.649704405428e-03 0.0 
0.0 0.0 0.0 
-4.247358072262e-05 9.180659244473e-04 0.0 
9.180659244473e-04 9.555205248856e-03 0.0 
0.0 0.0 0.0 
-4.604760182466e-05 9.897215908883e-04 0.0 
9.897215908883e-04 9.459160489197e-03 0.0 
0.0 0.0 0.0 
-4.287797091566e-05 1.066842075832e-03 0.0 
1.066842075832e-03 9.358505579566e-03 0.0 
0.0 0.0 0.0 
-3.844385725364e-05 1.135437026973e-03 0.0 
1.135437026973e-03 9.245939160157e-03 0.0 
0.0 0.0 0.0 
-3.110295022598e-05 1.199540555252e-03 0.0 
1.199540555252e-03 9.121207553897e-03 0.0 
0.0 0.0 0.0 
-2.351016379680e-05 1.255839925960e-03 0.0 
1.255839925960e-03 8.973831990260e-03 0.0 
0.0 0.0 0.0 
-2.131180299207e-05 1.297032006174e-03 0.0 
1.297032006174e-03 8.815952568847e-03 0.0 
0.0 0.0 0.0 
-1.149058044340e-05 1.327662982407e-03 0.0 
1.327662982407e-03 8.649366117518e-03 0.0 
0.0 0.0 0.0 
-2.831714450517e-06 1.340540318514e-03 0.0 
1.340540318514e-03 8.474992076282e-03 0.0 
0.0 0.0 0.0 
5.627267018730e-06 1.337324115896e-03 0.0 
1.337324115896e-03 8.301886869961e-03 0.0 
0.0 0.0 0.0 
1.835733740552e-05 1.316921997855e-03 0.0 
1.316921997855e-03 8.129583842408e-03 0.0 
0.0 0.0 0.0 
2.491028565562e-05 1.274456708584e-03 0.0 
1.274456708584e-03 7.957504881783e-03 0.0 
0.0 0.0 0.0 
4.112531777922e-05 1.212354932521e-03 0.0 
1.212354932521e-03 7.792283818861e-03 0.0 
0.0 0.0 0.0 
4.572877634904e-05 1.130575564333e-03 0.0 
1.130575564333e-03 7.633940951779e-03 0.0 
0.0 0.0 0.0 
4.773548785149e-05 1.032755365110e-03 0.0 
1.032755365110e-03 7.515396632391e-03 0.0 
0.0 0.0 0.0 
5.755824076351e-05 9.324476226371e-04 0.0 
9.324476226371e-04 7.381234221411e-03 0.0 
0.0 0.0 0.0 
7.121164933332e-05 8.111867013688e-04 0.0 
8.111867013688e-04 7.250452304860e-03 0.0 
0.0 0.0 0.0 
7.221542943155e-05 6.732853508621e-04 0.0 
6.732853508621e-04 7.164993162312e-03 0.0 
0.0 0.0 0.0 
7.071260628740e-05 5.441296537287e-04 0.0 
5.441296537287e-04 7.123818449446e-03 0.0 
0.0 0.0 0.0 
7.046679582475e-05 4.196758083065e-04 0.0 
4.196758083065e-04 7.092838411899e-03 0.0 
0.0 0.0 0.0 
5.573121326126e-05 2.977457154817e-04 0.0 
2.977457154817e-04 7.085920745667e-03 0.0 
0.0 0.0 0.0 
6.021245052638e-05 1.928895342288e-04 0.0 
1.928895342288e-04 7.101180466758e-03 0.0 
0.0 0.0 0.0 
4.464183874542e-05 9.599586761574e-05 0.0 
9.599586761574e-05 7.119249828654e-03 0.0 
0.0 0.0 0.0 
4.594824159998e-05 1.598740968754e-05 0.0 
1.598740968754e-05 7.150955474541e-03 0.0 
0.0 0.0 0.0 
3.005635723900e-05 -4.863350065906e-05 0.0 
-4.863350065906e-05 7.191363205639e-03 0.0 
0.0 0.0 0.0 
2.084511573797e-05 -9.799305774799e-05 0.0 
-9.799305774799e-05 7.255013926035e-03 0.0 
0.0 0.0 0.0 
1.441318939532e-05 -1.264545368016e-04 0.0 
-1.264545368016e-04 7.335937816571e-03 0.0 
0.0 0.0 0.0 
9.202474209250e-06 -1.463886678206e-04 0.0 
-1.463886678206e-04 7.393880203514e-03 0.0 
0.0 0.0 0.0 
-2.676228593651e-06 -1.503909848384e-04 0.0 
-1.503909848384e-04 7.395344432946e-03 0.0 
0.0 0.0 0.0 
-4.084493666031e-06 -1.411130332704e-04 0.0 
-1.411130332704e-04 7.490945677762e-03 0.0 
0.0 0.0 0.0 
-1.388263176931e-05 -1.255126561660e-04 0.0 
-1.255126561660e-04 7.512660093727e-03 0.0 
0.0 0.0 0.0 
-1.452045843475e-05 -1.088943515173e-04 0.0 
-1.088943515173e-04 7.554441533503e-03 0.0 
0.0 0.0 0.0 
-1.653582607638e-05 -6.988236736635e-05 0.0 
-6.988236736635e-05 7.593201074405e-03 0.0 
0.0 0.0 0.0 
-1.961678728476e-05 -4.191012754257e-05 0.0 
-4.191012754257e-05 7.605900499619e-03 0.0 
0.0 0.0 0.0 
-4.248667012013e-04 -1.044725044007e-05 0.0 
-1.044725044007e-05 6.715710077356e-03 0.0 
0.0 0.0 0.0 
-4.192093600764e-04 -1.027246220170e-05 0.0 
-1.027246220170e-05 7.136844668307e-03 0.0 
0.0 0.0 0.0 
-3.996611782705e-04 -8.496945622356e-06 0.0 
-8.496945622356e-06 7.545195886489e-03 0.0 
0.0 0.0 0.0 
-3.713753296551e-04 -7.382079783772e-06 0.0 
-7.382079783772e-06 7.938903112956e-03 0.0 
0.0 0.0 0.0 
-3.337862710496e-04 -4.089029171933e-06 0.0 
-4.089029171933e-06 8.333816761315e-03 0.0 
0.0 0.0 0.0 
-2.834114394706e-04 -3.135342076042e-06 0.0 
-3.135342076042e-06 8.721503295789e-03 0.0 
0.0 0.0 0.0 
-2.282231452625e-04 -6.462751818727e-07 0.0 
-6.462751818727e-07 9.099816718443e-03 0.0 
0.0 0.0 0.0 
-1.606670911403e-04 3.766318597859e-07 0.0 
3.766318597859e-07 9.469387869262e-03 0.0 
0.0 0.0 0.0 
-9.123669601126e-05 9.340139106480e-09 0.0 
9.340139106480e-09 9.840760162812e-03 0.0 
0.0 0.0 0.0 
-1.502139919600e-03 2.323373703015e-03 0.0 
2.323373703015e-03 -2.385531705443e-03 0.0 
0.0 0.0 0.0 
-6.935569239170e-04 2.426637440989e-04 0.0 
2.426637440989e-04 6.222301182822e-03 0.0 
0.0 0.0 0.0 
-1.341915911068e-03 2.487680647830e-03 0.0 
2.487680647830e-03 6.471065393164e-04 0.0 
0.0 0.0 0.0 
-1.210147663947e-03 1.733902528327e-03 0.0 
1.733902528327e-03 2.358363692668e-03 0.0 
0.0 0.0 0.0 
-9.146725541969e-04 1.048752039458e-03 0.0 
1.048752039458e-03 3.125979782761e-03 0.0 
0.0 0.0 0.0 
-8.400185864148e-04 8.522903709713e-04 0.0 
8.522903709713e-04 3.553453238511e-03 0.0 
0.0 0.0 0.0 
-7.799009629468e-04 6.802814949705e-04 0.0 
6.802814949705e-04 3.971555969739e-03 0.0 
0.0 0.0 0.0 
-7.492890991155e-04 5.335171989066e-04 0.0 
5.335171989066e-04 4.398939571486e-03 0.0 
0.0 0.0 0.0 
-7.334454166984e-04 4.165162293272e-04 0.0 
4.165162293272e-04 4.844519023648e-03 0.0 
0.0 0.0 0.0 
-7.229919795995e-04 3.296635376018e-04 0.0 
3.296635376018e-04 5.296920802555e-03 0.0 
0.0 0.0 0.0 
-7.089172056154e-04 2.741077544161e-04 0.0 
2.741077544161e-04 5.750306593411e-03 0.0 
0.0 0.0 0.0 
-3.245863527981e-04 -2.467427513980e-05 0.0 
-2.467427513980e-05 2.953878214492e-03 0.0 
0.0 0.0 0.0 
-3.142804188791e-04 -2.424727480337e-05 0.0 
-2.424727480337e-05 3.213692557462e-03 0.0 
0.0 0.0 0.0 
-3.219878136430e-04 -3.565569776375e-05 0.0 
-3.565569776375e-05 3.645946976293e-03 0.0 
0.0 0.0 0.0 
-3.421966464050e-04 -2.930402727427e-05 0.0 
-2.930402727427e-05 4.086906182019e-03 0.0 
0.0 0.0 0.0 
-3.648534537940e-04 -3.583657959460e-05 0.0 
-3.583657959460e-05 4.529101790000e-03 0.0 
0.0 0.0 0.0 
-3.867943035742e-04 -2.865107577434e-05 0.0 
-2.865107577434e-05 4.970509822219e-03 0.0 
0.0 0.0 0.0 
-4.054124614724e-04 -3.344707964718e-05 0.0 
-3.344707964718e-05 5.408830069274e-03 0.0 
0.0 0.0 0.0 
-4.180841638380e-04 -2.280334260548e-05 0.0 
-2.280334260548e-05 5.840717270787e-03 0.0 
0.0 0.0 0.0 
-4.273008187829e-04 7.921918516157e-06 0.0 
7.921918516157e-06 6.230021525214e-03 0.0 
0.0 0.0 0.0 
-4.290380500825e-04 2.657906844136e-07 0.0 
2.657906844136e-07 6.256547324909e-03 0.0 
0.0 0.0 0.0 
-4.377885612272e-04 7.475270586019e-07 0.0 
7.475270586019e-07 6.260136355462e-03 0.0 
0.0 0.0 0.0 
-4.469598146908e-04 3.238602827040e-07 0.0 
3.238602827040e-07 6.256410424068e-03 0.0 
0.0 0.0 0.0 
-4.564024589314e-04 8.028191229517e-06 0.0 
8.028191229517e-06 6.314701099003e-03 0.0 
0.0 0.0 0.0 
-4.711936610850e-04 9.463680129186e-06 0.0 
9.463680129186e-06 6.266884236471e-03 0.0 
0.0 0.0 0.0 
-4.864413611677e-04 1.366160302348e-05 0.0 
1.366160302348e-05 6.263016020002e-03 0.0 
0.0 0.0 0.0 
-5.038220856406e-04 2.495044281747e-05 0.0 
2.495044281747e-05 6.267232330596e-03 0.0 
0.0 0.0 0.0 
-5.294073291201e-04 3.642758409197e-05 0.0 
3.642758409197e-05 6.277328194450e-03 0.0 
0.0 0.0 0.0 
-5.536489036018e-04 5.408271712971e-05 0.0 
5.408271712971e-05 6.272532435927e-03 0.0 
0.0 0.0 0.0 
-5.763638277773e-04 7.534937254765e-05 0.0 
7.534937254765e-05 6.264365845448e-03 0.0 
0.0 0.0 0.0 
-6.032367292153e-04 1.026565704483e-04 0.0 
1.026565704483e-04 6.254130402235e-03 0.0 
0.0 0.0 0.0 
-6.289731069979e-04 1.406360948169e-04 0.0 
1.406360948169e-04 6.240722553544e-03 0.0 
0.0 0.0 0.0 
-6.567216475757e-04 1.870835865512e-04 0.0 
1.870835865512e-04 6.228837871038e-03 0.0 
0.0 0.0 0.0 
-2.118263860954e-03 1.116805914108e-03 0.0 
1.116805914108e-03 -3.537573200938e-03 0.0 
0.0 0.0 0.0 
-2.782650232324e-03 1.819292790435e-04 0.0 
1.819292790435e-04 -3.631965046617e-03 0.0 
0.0 0.0 0.0 
-3.028357879285e-03 -2.302400096085e-04 0.0 
-2.302400096085e-04 -3.534601753280e-03 0.0 
0.0 0.0 0.0 
-2.582399358830e-03 -8.864139714789e-04 0.0 
-8.864139714789e-04 -3.315040494220e-03 0.0 
0.0 0.0 0.0 
-1.662877379559e-03 -1.682318647231e-03 0.0 
-1.682318647231e-03 -1.767091205213e-03 0.0 
0.0 0.0 0.0 
-9.326394991339e-04 -1.136230479845e-03 0.0 
-1.136230479845e-03 -1.269524961524e-04 0.0 
0.0 0.0 0.0 
-2.663411629771e-04 -3.150008540114e-04 0.0 
-3.150008540114e-04 1.006131560798e-04 0.0 
0.0 0.0 0.0 
2.016240729157e-04 -7.229078460607e-05 0.0 
-7.229078460607e-05 1.339527526634e-05 0.0 
0.0 0.0 0.0 
4.565430483309e-04 -3.290129923716e-05 0.0 
-3.290129923716e-05 -5.915241420673e-05 0.0 
0.0 0.0 0.0 
4.926389556822e-04 -3.113924524570e-05 0.0 
-3.113924524570e-05 -8.145276785062e-05 0.0 
0.0 0.0 0.0 
5.161914890629e-04 -1.692694186526e-05 0.0 
-1.692694186526e-05 -8.547421968245e-05 0.0 
0.0 0.0 0.0 
5.623410110557e-04 -1.518624590187e-05 0.0 
-1.518624590187e-05 -1.022882719483e-04 0.0 
0.0 0.0 0.0 
6.017942682548e-04 4.561697172690e-06 0.0 
4.561697172690e-06 -1.289588069847e-04 0.0 
0.0 0.0 0.0 
6.409217610028e-04 -7.260539571487e-06 0.0 
-7.260539571487e-06 -1.504147268617e-04 0.0 
0.0 0.0 0.0 
6.213537330563e-04 -9.421615400625e-06 0.0 
-9.421615400625e-06 -1.454437331034e-04 0.0 
0.0 0.0 0.0 
6.096412444412e-04 -4.184878328626e-06 0.0 
-4.184878328626e-06 -1.392065648476e-04 0.0 
0.0 0.0 0.0 
6.071675211037e-04 -1.915416093535e-07 0.0 
-1.915416093535e-07 -1.388428085515e-04 0.0 
0.0 0.0 0.0 
6.280140368274e-04 7.577839983975e-06 0.0 
7.577839983975e-06 -1.574359572791e-04 0.0 
0.0 0.0 0.0 
6.549101749812e-04 2.206357414467e-05 0.0 
2.206357414467e-05 -1.748898963408e-04 0.0 
0.0 0.0 0.0 
-7.578258884591e-04 6.990997232135e-04 0.0 
6.990997232135e-04 2.921896910102e-03 0.0 
0.0 0.0 0.0 
-3.631781131319e-04 4.731519108553e-04 0.0 
4.731519108553e-04 2.863713800426e-03 0.0 
0.0 0.0 0.0 
-1.295202353123e-04 2.487199992727e-04 0.0 
2.487199992727e-04 2.847646245862e-03 0.0 
0.0 0.0 0.0 
3.934608111774e-05 1.092336733253e-04 0.0 
1.092336733253e-04 2.811507074806e-03 0.0 
0.0 0.0 0.0 
1.441500845697e-04 5.098157168036e-05 0.0 
5.098157168036e-05 2.792403709553e-03 0.0 
0.0 0.0 0.0 
1.624796476269e-04 1.801081211259e-05 0.0 
1.801081211259e-05 2.788149308977e-03 0.0 
0.0 0.0 0.0 
1.468101221756e-04 -3.685466795632e-06 0.0 
-3.685466795632e-06 2.795234252084e-03 0.0 
0.0 0.0 0.0 
1.285692877999e-04 -2.520279794386e-05 0.0 
-2.520279794386e-05 2.802875778295e-03 0.0 
0.0 0.0 0.0 
1.127354246426e-04 -4.064207498397e-05 0.0 
-4.064207498397e-05 2.812300134159e-03 0.0 
0.0 0.0 0.0 
8.714452864641e-05 -5.045706868522e-05 0.0 
-5.045706868522e-05 2.824576516544e-03 0.0 
0.0 0.0 0.0 
5.599034112432e-05 -5.610123704214e-05 0.0 
-5.610123704214e-05 2.838731024559e-03 0.0 
0.0 0.0 0.0 
2.182853570835e-05 -5.902260221607e-05 0.0 
-5.902260221607e-05 2.853797760261e-03 0.0 
0.0 0.0 0.0 
-1.344007744956e-05 -5.988722931008e-05 0.0 
-5.988722931008e-05 2.869170744996e-03 0.0 
0.0 0.0 0.0 
-4.853250675074e-05 -5.922314472973e-05 0.0 
-5.922314472973e-05 2.884342907386e-03 0.0 
0.0 0.0 0.0 
-8.249022683027e-05 -5.736772418497e-05 0.0 
-5.736772418497e-05 2.898978688006e-03 0.0 
0.0 0.0 0.0 
-1.146519487732e-04 -5.459626667957e-05 0.0 
-5.459626667957e-05 2.912808794124e-03 0.0 
0.0 0.0 0.0 
-1.445608882780e-04 -5.112320836519e-05 0.0 
-5.112320836519e-05 2.925624675561e-03 0.0 
0.0 0.0 0.0 
-1.719080101312e-04 -4.713584826029e-05 0.0 
-4.713584826029e-05 2.937264840006e-03 0.0 
0.0 0.0 0.0 
-1.964613123161e-04 -4.278546980726e-05 0.0 
-4.278546980726e-05 2.947611000337e-03 0.0 
0.0 0.0 0.0 
-2.180128786549e-04 -3.818331743243e-05 0.0 
-3.818331743243e-05 2.956559339636e-03 0.0 
0.0 0.0 0.0 
-2.363241203085e-04 -3.337579728171e-05 0.0 
-3.337579728171e-05 2.963994198730e-03 0.0 
0.0 0.0 0.0 
-2.510635515190e-04 -2.828241465096e-05 0.0 
-2.828241465096e-05 2.969770078769e-03 0.0 
0.0 0.0 0.0 
-2.617386970566e-04 -2.254384220105e-05 0.0 
-2.254384220105e-05 2.973728589675e-03 0.0 
0.0 0.0 0.0 
-2.677206775323e-04 -1.491780408905e-05 0.0 
-1.491780408905e-05 2.975988480355e-03 0.0 
0.0 0.0 0.0 
-2.706843945312e-04 6.723940062916e-07 0.0 
6.723940062916e-07 2.980186919916e-03 0.0 
0.0 0.0 0.0 
-3.106979390478e-04 2.198103701215e-05 0.0 
2.198103701215e-05 2.995886843775e-03 0.0 
0.0 0.0 0.0 
-5.983546564720e-04 5.689566136106e-04 0.0 
5.689566136106e-04 3.117731763992e-03 0.0 
0.0 0.0 0.0 
-4.355541219655e-04 4.069733691684e-04 0.0 
4.069733691684e-04 3.147248864635e-03 0.0 
0.0 0.0 0.0 
-2.297003067212e-04 2.196704500673e-04 0.0 
2.196704500673e-04 3.103263038972e-03 0.0 
0.0 0.0 0.0 
-1.439658470253e-04 1.226588051326e-04 0.0 
1.226588051326e-04 3.091342634151e-03 0.0 
0.0 0.0 0.0 
-9.149229634455e-05 6.256022785760e-05 0.0 
6.256022785760e-05 3.083229366079e-03 0.0 
0.0 0.0 0.0 
-6.711495547594e-05 1.913957446136e-05 0.0 
1.913957446136e-05 3.078957624929e-03 0.0 
0.0 0.0 0.0 
-5.180518106139e-05 -1.204928954487e-05 0.0 
-1.204928954487e-05 3.080119797965e-03 0.0 
0.0 0.0 0.0 
-5.018599971031e-05 -3.388266980706e-05 0.0 
-3.388266980706e-05 3.084778957985e-03 0.0 
0.0 0.0 0.0 
-5.783285554924e-05 -4.838046732712e-05 0.0 
-4.838046732712e-05 3.092118738329e-03 0.0 
0.0 0.0 0.0 
-7.207729952857e-05 -5.765254335718e-05 0.0 
-5.765254335718e-05 3.101158335544e-03 0.0 
0.0 0.0 0.0 
-9.050222140391e-05 -6.304511820666e-05 0.0 
-6.304511820666e-05 3.111341333054e-03 0.0 
0.0 0.0 0.0 
-1.114408955347e-04 -6.553558239444e-05 0.0 
-6.553558239444e-05 3.122063971109e-03 0.0 
0.0 0.0 0.0 
-1.335539063663e-04 -6.580077305272e-05 0.0 
-6.580077305272e-05 3.132926605499e-03 0.0 
0.0 0.0 0.0 
-1.558598367558e-04 -6.435134996984e-05 0.0 
-6.435134996984e-05 3.143583202043e-03 0.0 
0.0 0.0 0.0 
-1.775982374387e-04 -6.158100007799e-05 0.0 
-6.158100007799e-05 3.153750101195e-03 0.0 
0.0 0.0 0.0 
-1.982237112114e-04 -5.781169908005e-05 0.0 
-5.781169908005e-05 3.163200325889e-03 0.0 
0.0 0.0 0.0 
-2.173354601140e-04 -5.329080850144e-05 0.0 
-5.329080850144e-05 3.171770973476e-03 0.0 
0.0 0.0 0.0 
-2.346249225658e-04 -4.819513643570e-05 0.0 
-4.819513643570e-05 3.179340143329e-03 0.0 
0.0 0.0 0.0 
-2.498409758078e-04 -4.262716992359e-05 0.0 
-4.262716992359e-05 3.185811538754e-03 0.0 
0.0 0.0 0.0 
-2.627699639778e-04 -3.659097343233e-05 0.0 
-3.659097343233e-05 3.191114093125e-03 0.0 
0.0 0.0 0.0 
-2.732457389201e-04 -2.993570881805e-05 0.0 
-2.993570881805e-05 3.195228009204e-03 0.0 
0.0 0.0 0.0 
-2.812249726794e-04 -2.228220942232e-05 0.0 
-2.228220942232e-05 3.198280757599e-03 0.0 
0.0 0.0 0.0 
-2.872457911608e-04 -1.307019288319e-05 0.0 
-1.307019288319e-05 3.201068477923e-03 0.0 
0.0 0.0 0.0 
-2.949816897910e-04 -2.620087464361e-06 0.0 
-2.620087464361e-06 3.207018478592e-03 0.0 
0.0 0.0 0.0 
-3.101604356658e-04 1.924669007012e-05 0.0 
1.924669007012e-05 3.212660604481e-03 0.0 
0.0 0.0 0.0 
-3.223030166914e-04 1.676327489764e-06 0.0 
1.676327489764e-06 3.647439675035e-03 0.0 
0.0 0.0 0.0 
-3.173925249294e-04 -1.677138388038e-05 0.0 
-1.677138388038e-05 3.645963420196e-03 0.0 
0.0 0.0 0.0 
-3.123668789424e-04 -2.895416879019e-05 0.0 
-2.895416879019e-05 3.642941669429e-03 0.0 
0.0 0.0 0.0 
-3.072989727721e-04 -3.892241471992e-05 0.0 
-3.892241471992e-05 3.640159526598e-03 0.0 
0.0 0.0 0.0 
-3.016561782457e-04 -4.848802193299e-05 0.0 
-4.848802193299e-05 3.637426568813e-03 0.0 
0.0 0.0 0.0 
-2.951228911159e-04 -5.756554610115e-05 0.0 
-5.756554610115e-05 3.634385630177e-03 0.0 
0.0 0.0 0.0 
-2.876131081525e-04 -6.608950855510e-05 0.0 
-6.608950855510e-05 3.630824599512e-03 0.0 
0.0 0.0 0.0 
-2.792123145938e-04 -7.393129527418e-05 0.0 
-7.393129527418e-05 3.626672983705e-03 0.0 
0.0 0.0 0.0 
-2.701563583118e-04 -8.088996834629e-05 0.0 
-8.088996834629e-05 3.621965527816e-03 0.0 
0.0 0.0 0.0 
-2.607807969716e-04 -8.667990346376e-05 0.0 
-8.667990346376e-05 3.616786155149e-03 0.0 
0.0 0.0 0.0 
-2.515274560018e-04 -9.091049134971e-05 0.0 
-9.091049134971e-05 3.611260733475e-03 0.0 
0.0 0.0 0.0 
-2.429595435077e-04 -9.304446134028e-05 0.0 
-9.304446134028e-05 3.605550649317e-03 0.0 
0.0 0.0 0.0 
-2.358529766362e-04 -9.235488993105e-05 0.0 
-9.235488993105e-05 3.599925807105e-03 0.0 
0.0 0.0 0.0 
-2.312403670779e-04 -8.800721224904e-05 0.0 
-8.800721224904e-05 3.594663954093e-03 0.0 
0.0 0.0 0.0 
-2.303629801786e-04 -7.883941115309e-05 0.0 
-7.883941115309e-05 3.590099903935e-03 0.0 
0.0 0.0 0.0 
-2.347479291489e-04 -6.349129185129e-05 0.0 
-6.349129185129e-05 3.586386713754e-03 0.0 
0.0 0.0 0.0 
-2.463062241095e-04 -3.967791595417e-05 0.0 
-3.967791595417e-05 3.584106959068e-03 0.0 
0.0 0.0 0.0 
-2.675384835089e-04 -5.236747693489e-06 0.0 
-5.236747693489e-06 3.582911547211e-03 0.0 
0.0 0.0 0.0 
-3.010935252965e-04 4.444617540533e-05 0.0 
4.444617540533e-05 3.584080423510e-03 0.0 
0.0 0.0 0.0 
-3.524680681335e-04 1.135738718797e-04 0.0 
1.135738718797e-04 3.587405282122e-03 0.0 
0.0 0.0 0.0 
-4.219066220223e-04 2.183063956331e-04 0.0 
2.183063956331e-04 3.595291283121e-03 0.0 
0.0 0.0 0.0 
-5.416680809702e-04 3.898305375384e-04 0.0 
3.898305375384e-04 3.613366459185e-03 0.0 
0.0 0.0 0.0 
-6.353518924589e-04 5.467368348753e-04 0.0 
5.467368348753e-04 3.549739101035e-03 0.0 
0.0 0.0 0.0 
-6.591189445702e-04 4.540474579822e-04 0.0 
4.540474579822e-04 3.977517798761e-03 0.0 
0.0 0.0 0.0 
-5.992069974684e-04 3.267224382125e-04 0.0 
3.267224382125e-04 4.049770323931e-03 0.0 
0.0 0.0 0.0 
-5.196032196180e-04 1.895280483474e-04 0.0 
1.895280483474e-04 4.047314805091e-03 0.0 
0.0 0.0 0.0 
-4.687454017562e-04 1.014832556656e-04 0.0 
1.014832556656e-04 4.053152749630e-03 0.0 
0.0 0.0 0.0 
-4.270188938607e-04 3.948449691960e-05 0.0 
3.948449691960e-05 4.058408259473e-03 0.0 
0.0 0.0 0.0 
-3.958498870443e-04 -6.116135899829e-06 0.0 
-6.116135899829e-06 4.060476015156e-03 0.0 
0.0 0.0 0.0 
-3.724498996879e-04 -3.817323380466e-05 0.0 
-3.817323380466e-05 4.062968747905e-03 0.0 
0.0 0.0 0.0 
-3.558091379528e-04 -6.030006990235e-05 0.0 
-6.030006990235e-05 4.064948045969e-03 0.0 
0.0 0.0 0.0 
-3.443452041572e-04 -7.461267668389e-05 0.0 
-7.461267668389e-05 4.067275272393e-03 0.0 
0.0 0.0 0.0 
-3.371016370947e-04 -8.287839310187e-05 0.0 
-8.287839310187e-05 4.069763604855e-03 0.0 
0.0 0.0 0.0 
-3.328485107883e-04 -8.632557169098e-05 0.0 
-8.632557169098e-05 4.072340807660e-03 0.0 
0.0 0.0 0.0 
-3.307151323809e-04 -8.614599764335e-05 0.0 
-8.614599764335e-05 4.074751374846e-03 0.0 
0.0 0.0 0.0 
-3.301235847579e-04 -8.325711819617e-05 0.0 
-8.325711819617e-05 4.077000846671e-03 0.0 
0.0 0.0 0.0 
-3.306014080298e-04 -7.828091429715e-05 0.0 
-7.828091429715e-05 4.079055006198e-03 0.0 
0.0 0.0 0.0 
-3.317276227292e-04 -7.169062517729e-05 0.0 
-7.169062517729e-05 4.080852511526e-03 0.0 
0.0 0.0 0.0 
-3.331627815599e-04 -6.385843221720e-05 0.0 
-6.385843221720e-05 4.082356275073e-03 0.0 
0.0 0.0 0.0 
-3.347259242981e-04 -5.514707579209e-05 0.0 
-5.514707579209e-05 4.083617986636e-03 0.0 
0.0 0.0 0.0 
-3.364209065525e-04 -4.583907233706e-05 0.0 
-4.583907233706e-05 4.084829428769e-03 0.0 
0.0 0.0 0.0 
-3.383152512653e-04 -3.622709043200e-05 0.0 
-3.622709043200e-05 4.086175323177e-03 0.0 
0.0 0.0 0.0 
-3.404242826540e-04 -2.680481368456e-05 0.0 
-2.680481368456e-05 4.087604333507e-03 0.0 
0.0 0.0 0.0 
-3.421809162520e-04 -1.870681250512e-05 0.0 
-1.870681250512e-05 4.088154365971e-03 0.0 
0.0 0.0 0.0 
-3.422683064605e-04 8.055069222474e-06 0.0 
8.055069222474e-06 4.087354097993e-03 0.0 
0.0 0.0 0.0 
-3.651274784077e-04 -4.736504979885e-07 0.0 
-4.736504979885e-07 4.529443806506e-03 0.0 
0.0 0.0 0.0 
-3.657033048202e-04 -2.187016392892e-05 0.0 
-2.187016392892e-05 4.529850586724e-03 0.0 
0.0 0.0 0.0 
-3.662630902610e-04 -3.416029028730e-05 0.0 
-3.416029028730e-05 4.529815653333e-03 0.0 
0.0 0.0 0.0 
-3.674025285333e-04 -4.347375561130e-05 0.0 
-4.347375561130e-05 4.529784865147e-03 0.0 
0.0 0.0 0.0 
-3.693246932634e-04 -5.246822914362e-05 0.0 
-5.246822914362e-05 4.529946670184e-03 0.0 
0.0 0.0 0.0 
-3.721629340162e-04 -6.093685058050e-05 0.0 
-6.093685058050e-05 4.530279581308e-03 0.0 
0.0 0.0 0.0 
-3.759252073345e-04 -6.857175036268e-05 0.0 
-6.857175036268e-05 4.530590101222e-03 0.0 
0.0 0.0 0.0 
-3.806484560545e-04 -7.482771109602e-05 0.0 
-7.482771109602e-05 4.530649431778e-03 0.0 
0.0 0.0 0.0 
-3.865758228627e-04 -7.908770598288e-05 0.0 
-7.908770598288e-05 4.530502261539e-03 0.0 
0.0 0.0 0.0 
-3.942339482403e-04 -8.077862513052e-05 0.0 
-8.077862513052e-05 4.530228989963e-03 0.0 
0.0 0.0 0.0 
-4.039310196980e-04 -7.928274716798e-05 0.0 
-7.928274716798e-05 4.529717532733e-03 0.0 
0.0 0.0 0.0 
-4.159732125490e-04 -7.365208888874e-05 0.0 
-7.365208888874e-05 4.528700683773e-03 0.0 
0.0 0.0 0.0 
-4.308218974177e-04 -6.243188337914e-05 0.0 
-6.243188337914e-05 4.526833447143e-03 0.0 
0.0 0.0 0.0 
-4.494255924318e-04 -4.370712837245e-05 0.0 
-4.370712837245e-05 4.524647149368e-03 0.0 
0.0 0.0 0.0 
-4.729683764261e-04 -1.640393650429e-05 0.0 
-1.640393650429e-05 4.521469994581e-03 0.0 
0.0 0.0 0.0 
-5.016977347596e-04 2.263313381166e-05 0.0 
2.263313381166e-05 4.517412202901e-03 0.0 
0.0 0.0 0.0 
-5.366226294978e-04 7.492502618394e-05 0.0 
7.492502618394e-05 4.508924124623e-03 0.0 
0.0 0.0 0.0 
-5.750095746184e-04 1.487639524683e-04 0.0 
1.487639524683e-04 4.497440001354e-03 0.0 
0.0 0.0 0.0 
-6.318945467320e-04 2.575010726831e-04 0.0 
2.575010726831e-04 4.493936868258e-03 0.0 
0.0 0.0 0.0 
-6.707360048229e-04 3.573611721472e-04 0.0 
3.573611721472e-04 4.407510772181e-03 0.0 
0.0 0.0 0.0 
-6.760399472939e-04 2.855816063544e-04 0.0 
2.855816063544e-04 4.846169238078e-03 0.0 
0.0 0.0 0.0 
-6.521983575151e-04 2.091317610779e-04 0.0 
2.091317610779e-04 4.940403610054e-03 0.0 
0.0 0.0 0.0 
-6.099225933829e-04 1.253703932859e-04 0.0 
1.253703932859e-04 4.946981769882e-03 0.0 
0.0 0.0 0.0 
-5.778620999151e-04 6.718804738077e-05 0.0 
6.718804738077e-05 4.959132899147e-03 0.0 
0.0 0.0 0.0 
-5.465733169841e-04 2.503461573497e-05 0.0 
2.503461573497e-05 4.968422353844e-03 0.0 
0.0 0.0 0.0 
-5.202890266877e-04 -6.961918595769e-06 0.0 
-6.961918595769e-06 4.973498067013e-03 0.0 
0.0 0.0 0.0 
-4.974294617574e-04 -2.885615273752e-05 0.0 
-2.885615273752e-05 4.977830622436e-03 0.0 
0.0 0.0 0.0 
-4.772580001843e-04 -4.312675496833e-05 0.0 
-4.312675496833e-05 4.979654252641e-03 0.0 
0.0 0.0 0.0 
-4.597160406751e-04 -5.177110207944e-05 0.0 
-5.177110207944e-05 4.980028294685e-03 0.0 
0.0 0.0 0.0 
-4.444438582165e-04 -5.620852613104e-05 0.0 
-5.620852613104e-05 4.979484531049e-03 0.0 
0.0 0.0 0.0 
-4.317012713244e-04 -5.732832563613e-05 0.0 
-5.732832563613e-05 4.978818751360e-03 0.0 
0.0 0.0 0.0 
-4.211320504675e-04 -5.531146734843e-05 0.0 
-5.531146734843e-05 4.977927305989e-03 0.0 
0.0 0.0 0.0 
-4.117867953182e-04 -5.112794123091e-05 0.0 
-5.112794123091e-05 4.976399022357e-03 0.0 
0.0 0.0 0.0 
-4.041608923715e-04 -4.563872618459e-05 0.0 
-4.563872618459e-05 4.974759609695e-03 0.0 
0.0 0.0 0.0 
-3.980053189838e-04 -3.923145554754e-05 0.0 
-3.923145554754e-05 4.973337445598e-03 0.0 
0.0 0.0 0.0 
-3.934218436415e-04 -3.211423910048e-05 0.0 
-3.211423910048e-05 4.972245032309e-03 0.0 
0.0 0.0 0.0 
-3.900203003202e-04 -2.469422997040e-05 0.0 
-2.469422997040e-05 4.971472911424e-03 0.0 
0.0 0.0 0.0 
-3.880277103853e-04 -1.737574140493e-05 0.0 
-1.737574140493e-05 4.971196719878e-03 0.0 
0.0 0.0 0.0 
-3.873506281356e-04 8.924834385712e-06 0.0 
8.924834385712e-06 4.971040397640e-03 0.0 
0.0 0.0 0.0 
-4.066239494348e-04 3.222969711040e-06 0.0 
3.222969711040e-06 5.410176896890e-03 0.0 
0.0 0.0 0.0 
-4.080398813573e-04 -1.519864058063e-05 0.0 
-1.519864058063e-05 5.409938956337e-03 0.0 
0.0 0.0 0.0 
-4.121853260965e-04 -2.330505470307e-05 0.0 
-2.330505470307e-05 5.410814920947e-03 0.0 
0.0 0.0 0.0 
-4.184296925355e-04 -2.867171629466e-05 0.0 
-2.867171629466e-05 5.412585944795e-03 0.0 
0.0 0.0 0.0 
-4.259539177160e-04 -3.273311782913e-05 0.0 
-3.273311782913e-05 5.414322434281e-03 0.0 
0.0 0.0 0.0 
-4.361520971903e-04 -3.601281726374e-05 0.0 
-3.601281726374e-05 5.416754832599e-03 0.0 
0.0 0.0 0.0 
-4.480373295986e-04 -3.758483185318e-05 0.0 
-3.758483185318e-05 5.419113853719e-03 0.0 
0.0 0.0 0.0 
-4.623037155787e-04 -3.804086362606e-05 0.0 
-3.804086362606e-05 5.420888477533e-03 0.0 
0.0 0.0 0.0 
-4.777532390486e-04 -3.455015585011e-05 0.0 
-3.455015585011e-05 5.421027262300e-03 0.0 
0.0 0.0 0.0 
-4.966253916180e-04 -2.711611655057e-05 0.0 
-2.711611655057e-05 5.421889925753e-03 0.0 
0.0 0.0 0.0 
-5.177376700502e-04 -1.596648549638e-05 0.0 
-1.596648549638e-05 5.421502862907e-03 0.0 
0.0 0.0 0.0 
-5.408522305032e-04 1.073661157554e-06 0.0 
1.073661157554e-06 5.418690966687e-03 0.0 
0.0 0.0 0.0 
-5.668693170785e-04 2.521090997639e-05 0.0 
2.521090997639e-05 5.413659663047e-03 0.0 
0.0 0.0 0.0 
-5.943983015448e-04 5.863183806512e-05 0.0 
5.863183806512e-05 5.402628069702e-03 0.0 
0.0 0.0 0.0 
-6.222455519593e-04 1.067848682595e-04 0.0 
1.067848682595e-04 5.390780268658e-03 0.0 
0.0 0.0 0.0 
-6.592853487235e-04 1.722131786859e-04 0.0 
1.722131786859e-04 5.389175329406e-03 0.0 
0.0 0.0 0.0 
-6.783047666443e-04 2.303995301837e-04 0.0 
2.303995301837e-04 5.294493143550e-03 0.0 
0.0 0.0 0.0 
-6.693982458030e-04 1.997323892113e-04 0.0 
1.997323892113e-04 5.738179214465e-03 0.0 
0.0 0.0 0.0 
-6.553526248171e-04 1.545270070849e-04 0.0 
1.545270070849e-04 5.831683920251e-03 0.0 
0.0 0.0 0.0 
-6.246105891880e-04 1.038526819864e-04 0.0 
1.038526819864e-04 5.834615562383e-03 0.0 
0.0 0.0 0.0 
-5.948980443467e-04 6.895765652611e-05 0.0 
6.895765652611e-05 5.844474490212e-03 0.0 
0.0 0.0 0.0 
-5.688397786544e-04 4.146676432018e-05 0.0 
4.146676432018e-05 5.852177624055e-03 0.0 
0.0 0.0 0.0 
-5.442718284168e-04 2.221452008589e-05 0.0 
2.221452008589e-05 5.856337839198e-03 0.0 
0.0 0.0 0.0 
-5.216650138801e-04 8.126901035902e-06 0.0 
8.126901035902e-06 5.856597041951e-03 0.0 
0.0 0.0 0.0 
-5.013673617727e-04 -3.203957548230e-06 0.0 
-3.203957548230e-06 5.856839897636e-03 0.0 
0.0 0.0 0.0 
-4.816906518635e-04 -8.250351196134e-06 0.0 
-8.250351196134e-06 5.856534082036e-03 0.0 
0.0 0.0 0.0 
-4.666725059502e-04 -1.273897804937e-05 0.0 
-1.273897804937e-05 5.853800938404e-03 0.0 
0.0 0.0 0.0 
-4.526874883311e-04 -1.359753103282e-05 0.0 
-1.359753103282e-05 5.851472130324e-03 0.0 
0.0 0.0 0.0 
-4.415846243853e-04 -1.493065095430e-05 0.0 
-1.493065095430e-05 5.848789607117e-03 0.0 
0.0 0.0 0.0 
-4.332567482611e-04 -1.276551347933e-05 0.0 
-1.276551347933e-05 5.847752134444e-03 0.0 
0.0 0.0 0.0 
-4.256160215409e-04 -1.103404060070e-05 0.0 
-1.103404060070e-05 5.844653697211e-03 0.0 
0.0 0.0 0.0 
-4.216101932516e-04 -1.142049038711e-05 0.0 
-1.142049038711e-05 5.846636093712e-03 0.0 
0.0 0.0 0.0 
-4.231193012990e-04 1.425457042057e-05 0.0 
1.425457042057e-05 5.849234084508e-03 0.0 
0.0 0.0 0.0 
-1.372733761316e-03 2.900110105695e-03 0.0 
2.900110105695e-03 -5.387699559875e-04 0.0 
0.0 0.0 0.0 
-1.312854253901e-03 2.304343622109e-03 0.0 
2.304343622109e-03 1.422041147679e-03 0.0 
0.0 0.0 0.0 
-1.083754944915e-03 1.239999178339e-03 0.0 
1.239999178339e-03 2.957843965064e-03 0.0 
0.0 0.0 0.0 
-9.269452598200e-04 1.006234707578e-03 0.0 
1.006234707578e-03 3.392251085582e-03 0.0 
0.0 0.0 0.0 
-8.192668480489e-04 8.112498479778e-04 0.0 
8.112498479778e-04 3.789719763775e-03 0.0 
0.0 0.0 0.0 
-7.682965929418e-04 6.294711739495e-04 0.0 
6.294711739495e-04 4.223362074622e-03 0.0 
0.0 0.0 0.0 
-7.476983422935e-04 4.888370570589e-04 0.0 
4.888370570589e-04 4.663003802837e-03 0.0 
0.0 0.0 0.0 
-7.309483120160e-04 3.846071319827e-04 0.0 
3.846071319827e-04 5.111154866777e-03 0.0 
0.0 0.0 0.0 
-7.180142064793e-04 3.115611830328e-04 0.0 
3.115611830328e-04 5.563480936376e-03 0.0 
0.0 0.0 0.0 
-6.964552660068e-04 2.676483163486e-04 0.0 
2.676483163486e-04 6.014967670901e-03 0.0 
0.0 0.0 0.0 
-1.052769220507e-03 2.469453182922e-03 0.0 
2.469453182922e-03 1.496899776502e-03 0.0 
0.0 0.0 0.0 
2.120738893631e-04 5.907593779514e-04 0.0 
5.907593779514e-04 6.890188370092e-03 0.0 
0.0 0.0 0.0 
7.032563280681e-05 -1.621221438768e-04 0.0 
-1.621221438768e-04 1.955395657356e-04 0.0 
0.0 0.0 0.0 
-8.922350684655e-04 -1.662649559694e-03 0.0 
-1.662649559694e-03 -3.119457425979e-03 0.0 
0.0 0.0 0.0 
1.321622126121e-04 5.276315860227e-05 0.0 
5.276315860227e-05 6.911981111562e-03 0.0 
0.0 0.0 0.0 
-9.818886848206e-04 1.328866839151e-03 0.0 
1.328866839151e-03 3.507599090762e-03 0.0 
0.0 0.0 0.0 
-3.546852480938e-04 -7.677964205539e-05 0.0 
-7.677964205539e-05 4.175262913661e-03 0.0 
0.0 0.0 0.0 
1.645135084331e-04 1.064016507435e-03 0.0 
1.064016507435e-03 7.292283022072e-03 0.0 
0.0 0.0 0.0 
-8.163370622473e-04 7.803318155759e-04 0.0 
7.803318155759e-04 4.443865525275e-03 0.0 
0.0 0.0 0.0 
3.937681325783e-05 1.305703978614e-03 0.0 
1.305703978614e-03 8.016386481321e-03 0.0 
0.0 0.0 0.0 
-7.622732232787e-04 4.712644829763e-04 0.0 
4.712644829763e-04 5.398796798303e-03 0.0 
0.0 0.0 0.0 
3.190320704098e-05 -1.397286480015e-04 0.0 
-1.397286480015e-04 7.191413632307e-03 0.0 
0.0 0.0 0.0 
4.337606173918e-04 -2.379402072489e-05 0.0 
-2.379402072489e-05 5.914023833311e-05 0.0 
0.0 0.0 0.0 
-6.662568599414e-05 1.253327537356e-03 0.0 
1.253327537356e-03 8.742022373701e-03 0.0 
0.0 0.0 0.0 
-7.131430472390e-04 3.324042117156e-04 0.0 
3.324042117156e-04 6.337974386165e-03 0.0 
0.0 0.0 0.0 
-2.884781544301e-04 -6.145421760441e-05 0.0 
-6.145421760441e-05 2.648025271616e-03 0.0 
0.0 0.0 0.0 
-2.883503558720e-04 -6.268986610339e-05 0.0 
-6.268986610339e-05 5.189826122212e-03 0.0 
0.0 0.0 0.0 
-1.163722760320e-04 1.077283593757e-03 0.0 
1.077283593757e-03 9.154090113642e-03 0.0 
0.0 0.0 0.0 
-1.172594355316e-04 7.906430300097e-04 0.0 
7.906430300097e-04 9.556843030757e-03 0.0 
0.0 0.0 0.0 
-8.339591878085e-05 2.396093778741e-04 0.0 
2.396093778741e-04 9.878963673961e-03 0.0 
0.0 0.0 0.0 
-1.049154365713e-04 4.009386950987e-04 0.0 
4.009386950987e-04 9.792580663565e-03 0.0 
0.0 0.0 0.0 
-1.084137093474e-04 5.812994120789e-04 0.0 
5.812994120789e-04 9.730741949256e-03 0.0 
0.0 0.0 0.0 
-6.498593526972e-04 2.171094807348e-04 0.0 
2.171094807348e-04 6.601997536667e-03 0.0 
0.0 0.0 0.0 
-5.469323580169e-04 8.708302230451e-05 0.0 
8.708302230451e-05 6.657815846430e-03 0.0 
0.0 0.0 0.0 
-4.848247732942e-04 4.051285308716e-05 0.0 
4.051285308716e-05 6.690427597507e-03 0.0 
0.0 0.0 0.0 
-3.528051144872e-04 1.338616379350e-05 0.0 
1.338616379350e-05 8.140201618169e-03 0.0 
0.0 0.0 0.0 
-2.459202955533e-05 -1.390155529567e-04 0.0 
-1.390155529567e-04 7.330137201248e-03 0.0 
0.0 0.0 0.0 
-9.301635611734e-04 8.706314596461e-04 0.0 
8.706314596461e-04 -4.103923329972e-03 0.0 
0.0 0.0 0.0 
4.863535501645e-04 -8.454534195445e-06 0.0 
-8.454534195445e-06 5.151069633730e-05 0.0 
0.0 0.0 0.0 
-1.863886102986e-04 -3.896407447716e-05 0.0 
-3.896407447716e-05 6.395339872296e-03 0.0 
0.0 0.0 0.0 
-4.438495564173e-04 1.683659806596e-05 0.0 
1.683659806596e-05 6.636866586542e-03 0.0 
0.0 0.0 0.0 
3.132847330892e-05 -3.219231897544e-05 0.0 
-3.219231897544e-05 1.301222048019e-03 0.0 
0.0 0.0 0.0 
-1.399059862413e-04 9.218100976678e-04 0.0 
9.218100976678e-04 9.335487242847e-03 0.0 
0.0 0.0 0.0 
9.599654312746e-05 1.228957712878e-03 0.0 
1.228957712878e-03 7.675612843846e-03 0.0 
0.0 0.0 0.0 
-2.148274396232e-05 1.311949621714e-03 0.0 
1.311949621714e-03 8.396128530011e-03 0.0 
0.0 0.0 0.0 
2.131233986428e-04 8.614282873645e-04 0.0 
8.614282873645e-04 7.026319139564e-03 0.0 
0.0 0.0 0.0 
1.813604485906e-04 3.446576087163e-04 0.0 
3.446576087163e-04 6.852933796746e-03 0.0 
0.0 0.0 0.0 
-8.363585202901e-04 -1.137768188741e-03 0.0 
-1.137768188741e-03 1.510773838028e-04 0.0 
0.0 0.0 0.0 
-5.968278329663e-04 1.376896928624e-04 0.0 
1.376896928624e-04 6.626907450020e-03 0.0 
0.0 0.0 0.0 
8.944876560608e-05 -7.908220817809e-05 0.0 
-7.908220817809e-05 6.956343501737e-03 0.0 
0.0 0.0 0.0 
-2.623126268155e-04 2.293771678095e-05 0.0 
2.293771678095e-05 8.903480559499e-03 0.0 
0.0 0.0 0.0 
2.813699641183e-04 -4.467834991559e-05 0.0 
-4.467834991559e-05 1.342004572046e-04 0.0 
0.0 0.0 0.0 
-3.567597193305e-04 -7.706976086649e-05 0.0 
-7.706976086649e-05 3.411009158529e-03 0.0 
0.0 0.0 0.0 
-6.803436749716e-05 1.498278377180e-04 0.0 
1.498278377180e-04 9.950906722072e-03 0.0 
0.0 0.0 0.0 
-8.758055024112e-04 1.064558073444e-03 0.0 
1.064558073444e-03 3.992660169352e-03 0.0 
0.0 0.0 0.0 
-1.056842916290e-03 1.825204171179e-03 0.0 
1.825204171179e-03 2.824730021514e-03 0.0 
0.0 0.0 0.0 
-7.866111658853e-04 6.055593091820e-04 0.0 
6.055593091820e-04 4.925650596412e-03 0.0 
0.0 0.0 0.0 
-7.406377046169e-04 3.843830043235e-04 0.0 
3.843830043235e-04 5.867320864185e-03 0.0 
0.0 0.0 0.0 
-1.017478158830e-03 2.901745162883e-03 0.0 
2.901745162883e-03 -3.551708878158e-04 0.0 
0.0 0.0 0.0 
-4.072004521076e-04 9.238828666954e-06 0.0 
9.238828666954e-06 7.374064273532e-03 0.0 
0.0 0.0 0.0 
-4.153057816567e-05 -9.078951090846e-05 0.0 
-9.078951090846e-05 7.470186920229e-03 0.0 
0.0 0.0 0.0 
5.169683582434e-04 5.185929243721e-06 0.0 
5.185929243721e-06 1.775462340131e-05 0.0 
0.0 0.0 0.0 
-1.265481947599e-04 3.809952993196e-05 0.0 
3.809952993196e-05 9.633408281308e-03 0.0 
0.0 0.0 0.0 
-6.983826728956e-04 3.180558617988e-04 0.0 
3.180558617988e-04 6.550426728580e-03 0.0 
0.0 0.0 0.0 
-7.024840321824e-04 3.977754979018e-04 0.0 
3.977754979018e-04 6.668538794712e-03 0.0 
0.0 0.0 0.0 
-6.776275559734e-04 3.689628993230e-04 0.0 
3.689628993230e-04 6.894106465478e-03 0.0 
0.0 0.0 0.0 
-6.793966116003e-04 4.653650505462e-04 0.0 
4.653650505462e-04 7.013362134170e-03 0.0 
0.0 0.0 0.0 
-6.540771367339e-04 4.429125462991e-04 0.0 
4.429125462991e-04 7.258931714604e-03 0.0 
0.0 0.0 0.0 
-6.429042056844e-04 5.313290237078e-04 0.0 
5.313290237078e-04 7.353763643832e-03 0.0 
0.0 0.0 0.0 
-6.661931232906e-04 5.619620435801e-04 0.0 
5.619620435801e-04 7.100027229149e-03 0.0 
0.0 0.0 0.0 
-6.191663622733e-04 6.252112574846e-04 0.0 
6.252112574846e-04 7.431650089356e-03 0.0 
0.0 0.0 0.0 
-6.378545166302e-04 6.623476443361e-04 0.0 
6.623476443361e-04 7.162877200311e-03 0.0 
0.0 0.0 0.0 
-6.127025141789e-04 5.084477441728e-04 0.0 
5.084477441728e-04 7.604216301469e-03 0.0 
0.0 0.0 0.0 
-5.823136978733e-04 7.199791081283e-04 0.0 
7.199791081283e-04 7.489002370221e-03 0.0 
0.0 0.0 0.0 
-5.943083240640e-04 7.627222866094e-04 0.0 
7.627222866094e-04 7.203929824040e-03 0.0 
0.0 0.0 0.0 
-5.317177461677e-04 8.139384740975e-04 0.0 
8.139384740975e-04 7.525437336117e-03 0.0 
0.0 0.0 0.0 
-5.353759174402e-04 8.604982130630e-04 0.0 
8.604982130630e-04 7.223504838526e-03 0.0 
0.0 0.0 0.0 
-5.969373003141e-04 8.167343322588e-04 0.0 
8.167343322588e-04 6.908308601376e-03 0.0 
0.0 0.0 0.0 
-5.267242679644e-04 9.183680175499e-04 0.0 
9.183680175499e-04 6.908093092390e-03 0.0 
0.0 0.0 0.0 
-5.895948575952e-04 8.831471730265e-04 0.0 
8.831471730265e-04 6.600155803885e-03 0.0 
0.0 0.0 0.0 
-5.053455968724e-04 9.885913167741e-04 0.0 
9.885913167741e-04 6.576980650764e-03 0.0 
0.0 0.0 0.0 
-4.401237978888e-04 1.009942765017e-03 0.0 
1.009942765017e-03 6.887035403625e-03 0.0 
0.0 0.0 0.0 
-4.024172483535e-04 1.079875771501e-03 0.0 
1.079875771501e-03 6.530837140696e-03 0.0 
0.0 0.0 0.0 
-4.695854048459e-04 1.072222744557e-03 0.0 
1.072222744557e-03 6.226851443896e-03 0.0 
0.0 0.0 0.0 
-3.472481531507e-04 1.162761965083e-03 0.0 
1.162761965083e-03 6.152970170101e-03 0.0 
0.0 0.0 0.0 
-4.183997829824e-04 1.170601085227e-03 0.0 
1.170601085227e-03 5.855999705447e-03 0.0 
0.0 0.0 0.0 
-2.737153615291e-04 1.257090374552e-03 0.0 
1.257090374552e-03 5.751198170217e-03 0.0 
0.0 0.0 0.0 
-3.501162395134e-04 1.283388641485e-03 0.0 
1.283388641485e-03 5.459115288885e-03 0.0 
0.0 0.0 0.0 
-1.793921075366e-04 1.361978442148e-03 0.0 
1.361978442148e-03 5.320422418361e-03 0.0 
0.0 0.0 0.0 
-1.138926264923e-04 1.312952079460e-03 0.0 
1.312952079460e-03 5.632165736391e-03 0.0 
0.0 0.0 0.0 
5.255404838496e-06 1.402932108664e-03 0.0 
1.402932108664e-03 5.170448600321e-03 0.0 
0.0 0.0 0.0 
-6.026624411287e-05 1.475641164171e-03 0.0 
1.475641164171e-03 4.855660095789e-03 0.0 
0.0 0.0 0.0 
1.506445476817e-04 1.493759834962e-03 0.0 
1.493759834962e-03 4.673577683406e-03 0.0 
0.0 0.0 0.0 
8.719101764574e-05 1.592746403077e-03 0.0 
1.592746403077e-03 4.349876952048e-03 0.0 
0.0 0.0 0.0 
3.251446358679e-04 1.578388281560e-03 0.0 
1.578388281560e-03 4.134885919925e-03 0.0 
0.0 0.0 0.0 
3.583129376349e-04 1.464481481379e-03 0.0 
1.464481481379e-03 4.502168749810e-03 0.0 
0.0 0.0 0.0 
5.498474423559e-04 1.508210106096e-03 0.0 
1.508210106096e-03 3.945159350132e-03 0.0 
0.0 0.0 0.0 
5.307054856923e-04 1.645746461086e-03 0.0 
1.645746461086e-03 3.547334065502e-03 0.0 
0.0 0.0 0.0 
7.670801942640e-04 1.523607178969e-03 0.0 
1.523607178969e-03 3.349718059312e-03 0.0 
0.0 0.0 0.0 
7.668654210001e-04 1.682897321304e-03 0.0 
1.682897321304e-03 2.910617706361e-03 0.0 
0.0 0.0 0.0 
1.007707724835e-03 1.497427430841e-03 0.0 
1.497427430841e-03 2.718718162622e-03 0.0 
0.0 0.0 0.0 
1.035860981274e-03 1.672757900983e-03 0.0 
1.672757900983e-03 2.223789416442e-03 0.0 
0.0 0.0 0.0 
1.266083055020e-03 1.411209169462e-03 0.0 
1.411209169462e-03 2.054366301708e-03 0.0 
0.0 0.0 0.0 
1.190925926012e-03 1.266768841029e-03 0.0 
1.266768841029e-03 2.606518298441e-03 0.0 
0.0 0.0 0.0 
1.419966099769e-03 1.115685517295e-03 0.0 
1.115685517295e-03 1.987991922752e-03 0.0 
0.0 0.0 0.0 
1.528628095656e-03 1.246111464316e-03 0.0 
1.246111464316e-03 1.371992477225e-03 0.0 
0.0 0.0 0.0 
1.633547493074e-03 8.872510987226e-04 0.0 
8.872510987226e-04 1.379068596000e-03 0.0 
0.0 0.0 0.0 
1.497728151939e-03 8.143828494300e-04 0.0 
8.143828494300e-04 2.025465285810e-03 0.0 
0.0 0.0 0.0 
1.651961652894e-03 5.472993249040e-04 0.0 
5.472993249040e-04 1.502688602258e-03 0.0 
0.0 0.0 0.0 
1.504739064607e-03 5.315761391331e-04 0.0 
5.315761391331e-04 2.157021357334e-03 0.0 
0.0 0.0 0.0 
1.598369107564e-03 2.490116050443e-04 0.0 
2.490116050443e-04 1.722706126629e-03 0.0 
0.0 0.0 0.0 
1.750778882543e-03 2.145455711754e-04 0.0 
2.145455711754e-04 1.046687444932e-03 0.0 
0.0 0.0 0.0 
1.629321816226e-03 -7.827639253714e-05 0.0 
-7.827639253714e-05 1.366190956754e-03 0.0 
0.0 0.0 0.0 
1.491086233787e-03 4.801680013721e-06 0.0 
4.801680013721e-06 2.013198036765e-03 0.0 
0.0 0.0 0.0 
1.465610860567e-03 -2.984928348323e-04 0.0 
-2.984928348323e-04 1.739711543633e-03 0.0 
0.0 0.0 0.0 
1.581707683460e-03 -4.333343819425e-04 0.0 
-4.333343819425e-04 1.107674524415e-03 0.0 
0.0 0.0 0.0 
1.368792760325e-03 -6.052723116334e-04 0.0 
-6.052723116334e-04 1.560407418232e-03 0.0 
0.0 0.0 0.0 
1.280673224800e-03 -4.483855989381e-04 0.0 
-4.483855989381e-04 2.143576691628e-03 0.0 
0.0 0.0 0.0 
1.152575039112e-03 -7.026419949388e-04 0.0 
-7.026419949388e-04 2.017232498030e-03 0.0 
0.0 0.0 0.0 
1.200680523801e-03 -8.908887575301e-04 0.0 
-8.908887575301e-04 1.477263404218e-03 0.0 
0.0 0.0 0.0 
9.694929626107e-04 -9.240408776921e-04 0.0 
-9.240408776921e-04 1.969584093892e-03 0.0 
0.0 0.0 0.0 
9.463093810508e-04 -7.406059800543e-04 0.0 
-7.406059800543e-04 2.464821571186e-03 0.0 
0.0 0.0 0.0 
7.620554605144e-04 -9.063469995272e-04 0.0 
-9.063469995272e-04 2.429768820235e-03 0.0 
0.0 0.0 0.0 
7.431323206747e-04 -1.092254667755e-03 0.0 
-1.092254667755e-03 1.986949914574e-03 0.0 
0.0 0.0 0.0 
5.506689602795e-04 -1.020063886102e-03 0.0 
-1.020063886102e-03 2.440562727677e-03 0.0 
0.0 0.0 0.0 
5.806822117620e-04 -8.552213465580e-04 0.0 
-8.552213465580e-04 2.857259989512e-03 0.0 
0.0 0.0 0.0 
3.892811209650e-04 -9.274157912004e-04 0.0 
-9.274157912004e-04 2.851519818643e-03 0.0 
0.0 0.0 0.0 
4.234164779482e-04 -7.836186530967e-04 0.0 
-7.836186530967e-04 3.252150724268e-03 0.0 
0.0 0.0 0.0 
3.288275568068e-04 -1.073208870397e-03 0.0 
-1.073208870397e-03 2.476005176469e-03 0.0 
0.0 0.0 0.0 
1.983493853629e-04 -9.481267230707e-04 0.0 
-9.481267230707e-04 2.857968713306e-03 0.0 
0.0 0.0 0.0 
1.164533831608e-04 -1.063420020415e-03 0.0 
-1.063420020415e-03 2.516726184736e-03 0.0 
0.0 0.0 0.0 
2.256287867131e-05 -9.183440761073e-04 0.0 
-9.183440761073e-04 2.860968113908e-03 0.0 
0.0 0.0 0.0 
5.495413219157e-04 1.391480095657e-03 0.0 
1.391480095657e-03 4.357998574511e-03 0.0 
0.0 0.0 0.0 
-6.560479759867e-05 -9.943419328504e-04 0.0 
-9.943419328504e-04 2.541663479447e-03 0.0 
0.0 0.0 0.0 
9.031313998838e-06 -1.160318487746e-03 0.0 
-1.160318487746e-03 2.208559299049e-03 0.0 
0.0 0.0 0.0 
-1.233997675623e-04 -8.447377579684e-04 0.0 
-8.447377579684e-04 2.843933031411e-03 0.0 
0.0 0.0 0.0 
-5.385070931922e-05 -7.833387849699e-04 0.0 
-7.833387849699e-04 3.175056863544e-03 0.0 
0.0 0.0 0.0 
-2.030335471122e-04 -8.795853806655e-04 0.0 
-8.795853806655e-04 2.531487613305e-03 0.0 
0.0 0.0 0.0 
-2.305295270846e-04 -7.390054683953e-04 0.0 
-7.390054683953e-04 2.795024560243e-03 0.0 
0.0 0.0 0.0 
-2.881848757180e-04 -7.369118889755e-04 0.0 
-7.369118889755e-04 2.476877833449e-03 0.0 
0.0 0.0 0.0 
7.416867991606e-04 1.874782378693e-03 0.0 
1.874782378693e-03 2.479524222799e-03 0.0 
0.0 0.0 0.0 
-3.397661659497e-04 1.086886842165e-03 0.0 
1.086886842165e-03 6.848637318450e-03 0.0 
0.0 0.0 0.0 
-2.944669732879e-04 -6.135124129785e-04 0.0 
-6.135124129785e-04 2.707441499395e-03 0.0 
0.0 0.0 0.0 
-3.200090707516e-04 -5.831805839534e-04 0.0 
-5.831805839534e-04 2.371653730545e-03 0.0 
0.0 0.0 0.0 
-3.342879036989e-04 -6.957410004493e-04 0.0 
-6.957410004493e-04 2.161587119688e-03 0.0 
0.0 0.0 0.0 
-3.190810455440e-04 -5.175467095835e-04 0.0 
-5.175467095835e-04 2.026239050140e-03 0.0 
0.0 0.0 0.0 
-6.226309707768e-04 4.250701864664e-04 0.0 
4.250701864664e-04 7.497046714538e-03 0.0 
0.0 0.0 0.0 
-5.756335102213e-04 4.907634610386e-04 0.0 
4.907634610386e-04 7.850725510751e-03 0.0 
0.0 0.0 0.0 
-5.864099871498e-04 4.074323420192e-04 0.0 
4.074323420192e-04 7.726655044524e-03 0.0 
0.0 0.0 0.0 
-5.353430333096e-04 4.743884555397e-04 0.0 
4.743884555397e-04 8.091968798401e-03 0.0 
0.0 0.0 0.0 
-5.465075035954e-04 3.960529142621e-04 0.0 
3.960529142621e-04 7.967463894118e-03 0.0 
0.0 0.0 0.0 
-3.031521151690e-04 -4.359754039579e-04 0.0 
-4.359754039579e-04 2.216408645250e-03 0.0 
0.0 0.0 0.0 
-5.156658873513e-04 7.778088873150e-04 0.0 
7.778088873150e-04 7.817399970017e-03 0.0 
0.0 0.0 0.0 
-5.160675567685e-04 5.562766920190e-04 0.0 
5.562766920190e-04 8.200696376869e-03 0.0 
0.0 0.0 0.0 
-5.410532956909e-04 1.058194090433e-03 0.0 
1.058194090433e-03 5.938481406822e-03 0.0 
0.0 0.0 0.0 
-1.462686350305e-04 1.548957939177e-03 0.0 
1.548957939177e-03 4.568721285129e-03 0.0 
0.0 0.0 0.0 
1.365731516075e-03 7.607432213437e-04 0.0 
7.607432213437e-04 2.644684738327e-03 0.0 
0.0 0.0 0.0 
-2.561088608638e-04 -6.134257540511e-04 0.0 
-6.134257540511e-04 3.042677565138e-03 0.0 
0.0 0.0 0.0 
-3.048526568896e-04 -5.037376292086e-04 0.0 
-5.037376292086e-04 2.929565540452e-03 0.0 
0.0 0.0 0.0 
-2.805653437736e-04 -5.010211970862e-04 0.0 
-5.010211970862e-04 3.276830252826e-03 0.0 
0.0 0.0 0.0 
5.867912013060e-04 -6.999033043976e-04 0.0 
-6.999033043976e-04 3.294815971480e-03 0.0 
0.0 0.0 0.0 
4.351991561210e-04 -6.459378755438e-04 0.0 
-6.459378755438e-04 3.672755903403e-03 0.0 
0.0 0.0 0.0 
5.720671492567e-04 -5.566237556980e-04 0.0 
-5.566237556980e-04 3.747766548216e-03 0.0 
0.0 0.0 0.0 
4.275739327224e-04 -5.176418598950e-04 0.0 
-5.176418598950e-04 4.109143291226e-03 0.0 
0.0 0.0 0.0 
5.395886099087e-04 -4.274029151724e-04 0.0 
-4.274029151724e-04 4.212234719050e-03 0.0 
0.0 0.0 0.0 
4.033937585088e-04 -4.014309350531e-04 0.0 
-4.014309350531e-04 4.558104673994e-03 0.0 
0.0 0.0 0.0 
2.994094154038e-04 -4.685195425828e-04 0.0 
-4.685195425828e-04 4.451266063466e-03 0.0 
0.0 0.0 0.0 
2.818894690129e-04 -3.666579625245e-04 0.0 
-3.666579625245e-04 4.888326918878e-03 0.0 
0.0 0.0 0.0 
1.875249240975e-04 -4.142205093632e-04 0.0 
-4.142205093632e-04 4.774240169794e-03 0.0 
0.0 0.0 0.0 
4.919377968541e-04 -3.135261174734e-04 0.0 
-3.135261174734e-04 4.685605690084e-03 0.0 
0.0 0.0 0.0 
6.309613976651e-04 -3.156665934813e-04 0.0 
-3.156665934813e-04 4.342745033567e-03 0.0 
0.0 0.0 0.0 
1.760595189568e-04 -3.270983481190e-04 0.0 
-3.270983481190e-04 5.201726003458e-03 0.0 
0.0 0.0 0.0 
9.172339023182e-05 -3.580332349259e-04 0.0 
-3.580332349259e-04 5.078649324443e-03 0.0 
0.0 0.0 0.0 
8.650369004074e-05 -2.851158100274e-04 0.0 
-2.851158100274e-04 5.498502315288e-03 0.0 
0.0 0.0 0.0 
1.199778063415e-05 -3.025912365651e-04 0.0 
-3.025912365651e-04 5.365086640400e-03 0.0 
0.0 0.0 0.0 
4.040259812284e-06 -3.708410538096e-04 0.0 
-3.708410538096e-04 4.959780667378e-03 0.0 
0.0 0.0 0.0 
-6.382246188411e-05 -3.045311033661e-04 0.0 
-3.045311033661e-04 5.232276760991e-03 0.0 
0.0 0.0 0.0 
-8.135256279089e-05 -3.655455384585e-04 0.0 
-3.655455384585e-04 4.841115816372e-03 0.0 
0.0 0.0 0.0 
1.363545100553e-03 5.248606978116e-04 0.0 
5.248606978116e-04 2.781430946847e-03 0.0 
0.0 0.0 0.0 
1.236433269243e-03 7.235991037988e-04 0.0 
7.235991037988e-04 3.242214014910e-03 0.0 
0.0 0.0 0.0 
1.226463155599e-03 5.260186564497e-04 0.0 
5.260186564497e-04 3.381682038187e-03 0.0 
0.0 0.0 0.0 
1.108094709367e-03 6.996583682513e-04 0.0 
6.996583682513e-04 3.820662790774e-03 0.0 
0.0 0.0 0.0 
1.090177852164e-03 5.336810829068e-04 0.0 
5.336810829068e-04 3.963497602688e-03 0.0 
0.0 0.0 0.0 
9.774789012810e-04 6.873363531023e-04 0.0 
6.873363531023e-04 4.385198942942e-03 0.0 
0.0 0.0 0.0 
9.505948566742e-04 5.476733320078e-04 0.0 
5.476733320078e-04 4.530848205603e-03 0.0 
0.0 0.0 0.0 
1.036599338421e-03 3.874202177009e-04 0.0 
3.874202177009e-04 4.153605057929e-03 0.0 
0.0 0.0 0.0 
-4.686659936346e-04 9.045958222973e-04 0.0 
9.045958222973e-04 7.540612883207e-03 0.0 
0.0 0.0 0.0 
1.774150672898e-03 9.836205225117e-04 0.0 
9.836205225117e-04 6.993624281241e-04 0.0 
0.0 0.0 0.0 
1.632287771913e-03 1.410330686930e-03 0.0 
1.410330686930e-03 7.329708872636e-04 0.0 
0.0 0.0 0.0 
1.917731421590e-03 1.110410472395e-03 0.0 
1.110410472395e-03 -2.052913343461e-05 0.0 
0.0 0.0 0.0 
1.724200329040e-03 1.617968676830e-03 0.0 
1.617968676830e-03 7.113657498146e-05 0.0 
0.0 0.0 0.0 
2.058602707066e-03 1.278500784248e-03 0.0 
1.278500784248e-03 -7.864875370618e-04 0.0 
0.0 0.0 0.0 
1.790454116707e-03 1.878692536304e-03 0.0 
1.878692536304e-03 -6.078327855901e-04 0.0 
0.0 0.0 0.0 
2.184348198231e-03 1.500023646299e-03 0.0 
1.500023646299e-03 -1.602128505839e-03 0.0 
0.0 0.0 0.0 
2.334460047139e-03 7.603703299273e-04 0.0 
7.603703299273e-04 -1.591551492026e-03 0.0 
0.0 0.0 0.0 
2.511031378276e-03 8.853609443176e-04 0.0 
8.853609443176e-04 -2.546226326552e-03 0.0 
0.0 0.0 0.0 
2.477471233005e-03 5.551462001489e-05 0.0 
5.551462001489e-05 -2.238822895255e-03 0.0 
0.0 0.0 0.0 
2.650797836334e-03 3.108129084011e-05 0.0 
3.108129084011e-05 -3.235695194150e-03 0.0 
0.0 0.0 0.0 
2.406833751830e-03 -7.759467342166e-04 0.0 
-7.759467342166e-04 -2.617810271516e-03 0.0 
0.0 0.0 0.0 
5.275304791132e-05 1.336664698435e-03 0.0 
1.336664698435e-03 5.508319738211e-03 0.0 
0.0 0.0 0.0 
9.686716463416e-04 8.390319536066e-04 0.0 
8.390319536066e-04 4.284739108745e-03 0.0 
0.0 0.0 0.0 
8.469633115846e-04 8.155147713498e-04 0.0 
8.155147713498e-04 4.830680474812e-03 0.0 
0.0 0.0 0.0 
8.196305212372e-04 9.474257984198e-04 0.0 
9.474257984198e-04 4.758889932653e-03 0.0 
0.0 0.0 0.0 
-3.485709177898e-04 -6.081976223907e-04 0.0 
-6.081976223907e-04 1.835925844722e-03 0.0 
0.0 0.0 0.0 
-5.185450012007e-05 -2.494857735036e-04 0.0 
-2.494857735036e-04 5.634078912859e-03 0.0 
0.0 0.0 0.0 
5.590230578861e-04 -2.094387046182e-04 0.0 
-2.094387046182e-04 4.839887512767e-03 0.0 
0.0 0.0 0.0 
6.955948453686e-04 -1.884354142213e-04 0.0 
-1.884354142213e-04 4.505130197019e-03 0.0 
0.0 0.0 0.0 
8.927948332953e-04 4.245626372510e-04 0.0 
4.245626372510e-04 4.720984471392e-03 0.0 
0.0 0.0 0.0 
-2.568485929781e-04 -3.624338170919e-04 0.0 
-3.624338170919e-04 1.839987107467e-03 0.0 
0.0 0.0 0.0 
1.799872557222e-03 2.187866020849e-03 0.0 
2.187866020849e-03 -1.285158451531e-03 0.0 
0.0 0.0 0.0 
1.349191414717e-03 2.390860230848e-03 0.0 
2.390860230848e-03 -1.776817590677e-04 0.0 
0.0 0.0 0.0 
-4.893588580472e-04 4.589382759684e-04 0.0 
4.589382759684e-04 8.326952349547e-03 0.0 
0.0 0.0 0.0 
-5.015632005089e-04 3.855254780812e-04 0.0 
3.855254780812e-04 8.197281056214e-03 0.0 
0.0 0.0 0.0 
5.999640865649e-04 -9.318862862744e-05 0.0 
-9.318862862744e-05 5.024866162593e-03 0.0 
0.0 0.0 0.0 
-2.473710922214e-04 -3.050545246656e-04 0.0 
-3.050545246656e-04 2.022585147991e-03 0.0 
0.0 0.0 0.0 
2.513272809946e-04 -2.786102835360e-04 0.0 
-2.786102835360e-04 5.335806020541e-03 0.0 
0.0 0.0 0.0 
2.571712663150e-03 9.983883366401e-04 0.0 
9.983883366401e-04 -3.406686506560e-03 0.0 
0.0 0.0 0.0 
-1.168389859103e-04 -2.421887293742e-04 0.0 
-2.421887293742e-04 5.487310082039e-03 0.0 
0.0 0.0 0.0 
-1.003727451520e-04 -1.992229300992e-04 0.0 
-1.992229300992e-04 5.884989085214e-03 0.0 
0.0 0.0 0.0 
1.868154284922e-04 -5.113211784304e-04 0.0 
-5.113211784304e-04 4.358645804467e-03 0.0 
0.0 0.0 0.0 
7.077968619210e-04 9.199517380650e-04 0.0 
9.199517380650e-04 5.288083867758e-03 0.0 
0.0 0.0 0.0 
6.685645902702e-04 1.028070078853e-03 0.0 
1.028070078853e-03 5.234283166055e-03 0.0 
0.0 0.0 0.0 
2.237054336584e-03 -5.918028125439e-04 0.0 
-5.918028125439e-04 -1.669850779624e-03 0.0 
0.0 0.0 0.0 
1.980067821762e-03 -1.323027532193e-03 0.0 
-1.323027532193e-03 -1.766818903602e-03 0.0 
0.0 0.0 0.0 
2.005673062395e-03 -1.573685116224e-03 0.0 
-1.573685116224e-03 -2.519789247090e-03 0.0 
0.0 0.0 0.0 
1.470499786003e-03 -1.930547263468e-03 0.0 
-1.930547263468e-03 -1.486150309837e-03 0.0 
0.0 0.0 0.0 
1.546325336083e-03 -1.583346413572e-03 0.0 
-1.583346413572e-03 -8.880684984717e-04 0.0 
0.0 0.0 0.0 
1.042365247988e-03 -1.982892169268e-03 0.0 
-1.982892169268e-03 -5.904035689814e-04 0.0 
0.0 0.0 0.0 
8.340153036020e-04 -2.246840859618e-03 0.0 
-2.246840859618e-03 -9.780914635908e-04 0.0 
0.0 0.0 0.0 
4.605038248796e-04 -2.155301469766e-03 0.0 
-2.155301469766e-03 -1.083639650769e-04 0.0 
0.0 0.0 0.0 
6.914974898758e-04 -1.897737856707e-03 0.0 
-1.897737856707e-03 2.053551584336e-04 0.0 
0.0 0.0 0.0 
1.997078224861e-04 -1.932428193626e-03 0.0 
-1.932428193626e-03 5.940191309165e-04 0.0 
0.0 0.0 0.0 
-1.010589261901e-04 -2.006898950212e-03 0.0 
-2.006898950212e-03 4.352497767574e-04 0.0 
0.0 0.0 0.0 
-2.217778577692e-04 -1.735834942022e-03 0.0 
-1.735834942022e-03 9.715131548075e-04 0.0 
0.0 0.0 0.0 
-4.419333645770e-05 -2.030386187276e-04 0.0 
-2.030386187276e-04 6.042031322751e-03 0.0 
0.0 0.0 0.0 
2.589250666840e-03 4.323067536433e-05 0.0 
4.323067536433e-05 -3.923541905863e-03 0.0 
0.0 0.0 0.0 
-6.534425275072e-04 7.687785101053e-04 0.0 
7.687785101053e-04 6.598198372074e-03 0.0 
0.0 0.0 0.0 
4.744226740099e-04 -1.206871562593e-04 0.0 
-1.206871562593e-04 5.340931880059e-03 0.0 
0.0 0.0 0.0 
8.035415440792e-04 5.699988250997e-04 0.0 
5.699988250997e-04 5.086101033820e-03 0.0 
0.0 0.0 0.0 
-4.387467360617e-04 4.446203682795e-04 0.0 
4.446203682795e-04 8.557679249750e-03 0.0 
0.0 0.0 0.0 
-4.532578624715e-04 3.749470385572e-04 0.0 
3.749470385572e-04 8.423498340381e-03 0.0 
0.0 0.0 0.0 
-5.069808431428e-04 3.187525790028e-04 0.0 
3.187525790028e-04 8.053483676540e-03 0.0 
0.0 0.0 0.0 
-4.622303872970e-04 3.109642807136e-04 0.0 
3.109642807136e-04 8.278437622585e-03 0.0 
0.0 0.0 0.0 
-4.017988800866e-04 3.627529959747e-04 0.0 
3.627529959747e-04 8.646514314732e-03 0.0 
0.0 0.0 0.0 
-4.145941087467e-04 3.013599720071e-04 0.0 
3.013599720071e-04 8.499447218583e-03 0.0 
0.0 0.0 0.0 
-4.666275502240e-04 2.526811283655e-04 0.0 
2.526811283655e-04 8.123633387705e-03 0.0 
0.0 0.0 0.0 
-4.226077858713e-04 2.455891171259e-04 0.0 
2.455891171259e-04 8.343116493113e-03 0.0 
0.0 0.0 0.0 
-4.664292406685e-04 2.006063098559e-04 0.0 
2.006063098559e-04 7.959886768807e-03 0.0 
0.0 0.0 0.0 
-4.269923166870e-04 1.960717584908e-04 0.0 
1.960717584908e-04 8.179224157469e-03 0.0 
0.0 0.0 0.0 
-3.768017561090e-04 2.362006054363e-04 0.0 
2.362006054363e-04 8.560264671185e-03 0.0 
0.0 0.0 0.0 
-3.858359639286e-04 1.882715498436e-04 0.0 
1.882715498436e-04 8.396551713323e-03 0.0 
0.0 0.0 0.0 
-4.293514161674e-04 1.528285140833e-04 0.0 
1.528285140833e-04 8.009511857052e-03 0.0 
0.0 0.0 0.0 
-3.926192506977e-04 1.459454125721e-04 0.0 
1.459454125721e-04 8.227097607191e-03 0.0 
0.0 0.0 0.0 
-4.300226821593e-04 1.151131708447e-04 0.0 
1.151131708447e-04 7.833966526931e-03 0.0 
0.0 0.0 0.0 
-3.970627651018e-04 1.090090403288e-04 0.0 
1.090090403288e-04 8.050658048696e-03 0.0 
0.0 0.0 0.0 
-3.543211604392e-04 1.368922737069e-04 0.0 
1.368922737069e-04 8.442820722331e-03 0.0 
0.0 0.0 0.0 
-1.582082800868e-04 -2.410875495749e-04 0.0 
-2.410875495749e-04 1.622880577125e-03 0.0 
0.0 0.0 0.0 
9.539724037718e-04 2.648526350285e-04 0.0 
2.648526350285e-04 4.382510628782e-03 0.0 
0.0 0.0 0.0 
8.071510477795e-04 3.209963999833e-04 0.0 
3.209963999833e-04 4.949253866282e-03 0.0 
0.0 0.0 0.0 
-3.185439568403e-04 -4.085735429030e-04 0.0 
-4.085735429030e-04 3.150262099562e-03 0.0 
0.0 0.0 0.0 
-3.016424187262e-04 -4.004150130376e-04 0.0 
-4.004150130376e-04 3.496625651201e-03 0.0 
0.0 0.0 0.0 
-2.492391198015e-04 -4.767462354237e-04 0.0 
-4.767462354237e-04 3.628248065962e-03 0.0 
0.0 0.0 0.0 
-2.793424091740e-04 -3.756843902992e-04 0.0 
-3.756843902992e-04 3.861296083468e-03 0.0 
0.0 0.0 0.0 
-3.642082176748e-04 1.005362375652e-04 0.0 
1.005362375652e-04 8.265312145373e-03 0.0 
0.0 0.0 0.0 
-3.164868289932e-04 1.246814622630e-04 0.0 
1.246814622630e-04 8.657129488984e-03 0.0 
0.0 0.0 0.0 
1.229056490020e-03 2.712139156765e-03 0.0 
2.712139156765e-03 -6.565124291842e-04 0.0 
0.0 0.0 0.0 
7.797236644474e-04 2.725687896547e-03 0.0 
2.725687896547e-03 4.720922547358e-04 0.0 
0.0 0.0 0.0 
-4.173781601973e-04 5.196280398479e-04 0.0 
5.196280398479e-04 8.679127918605e-03 0.0 
0.0 0.0 0.0 
-1.559911666557e-04 -1.843905402477e-04 0.0 
-1.843905402477e-04 5.725920035440e-03 0.0 
0.0 0.0 0.0 
-1.784033945666e-04 -2.214185265703e-04 0.0 
-2.214185265703e-04 5.338226727752e-03 0.0 
0.0 0.0 0.0 
-2.242294014354e-06 1.694858876174e-03 0.0 
1.694858876174e-03 4.057965667531e-03 0.0 
0.0 0.0 0.0 
-2.538101214587e-04 1.614427920294e-03 0.0 
1.614427920294e-03 4.313259901308e-03 0.0 
0.0 0.0 0.0 
-1.203891594450e-04 1.792143982773e-03 0.0 
1.792143982773e-03 3.801966247163e-03 0.0 
0.0 0.0 0.0 
-3.843168489964e-04 1.663062488334e-03 0.0 
1.663062488334e-03 4.088591840652e-03 0.0 
0.0 0.0 0.0 
-4.695406667497e-04 1.476271634561e-03 0.0 
1.476271634561e-03 4.537565849628e-03 0.0 
0.0 0.0 0.0 
-2.731378754465e-04 1.878411108744e-03 0.0 
1.878411108744e-03 3.584896940389e-03 0.0 
0.0 0.0 0.0 
7.794119888743e-04 -3.010961032720e-04 0.0 
-3.010961032720e-04 3.987586496754e-03 0.0 
0.0 0.0 0.0 
-3.297758586629e-04 2.234894307511e-04 0.0 
2.234894307511e-04 8.775202665209e-03 0.0 
0.0 0.0 0.0 
-3.594946545599e-04 -8.230474022490e-04 0.0 
-8.230474022490e-04 1.946058448596e-03 0.0 
0.0 0.0 0.0 
-3.946549402900e-04 -7.085591683466e-04 0.0 
-7.085591683466e-04 1.647070373084e-03 0.0 
0.0 0.0 0.0 
-1.344407018636e-04 -1.525793705100e-04 0.0 
-1.525793705100e-04 6.120068559323e-03 0.0 
0.0 0.0 0.0 
1.091243022647e-03 2.073753090004e-04 0.0 
2.073753090004e-04 3.811963387331e-03 0.0 
0.0 0.0 0.0 
-6.348471607942e-05 1.268522301352e-03 0.0 
1.268522301352e-03 5.965609525325e-03 0.0 
0.0 0.0 0.0 
8.444475424418e-05 1.280672771421e-03 0.0 
1.280672771421e-03 5.866345442896e-03 0.0 
0.0 0.0 0.0 
-2.656840533801e-05 1.233149596033e-03 0.0 
1.233149596033e-03 6.318084790082e-03 0.0 
0.0 0.0 0.0 
1.020971444873e-04 1.238669729979e-03 0.0 
1.238669729979e-03 6.241255012722e-03 0.0 
0.0 0.0 0.0 
-1.653845432474e-06 1.210489257944e-03 0.0 
1.210489257944e-03 6.687213312231e-03 0.0 
0.0 0.0 0.0 
1.058558710550e-04 1.213444428654e-03 0.0 
1.213444428654e-03 6.630759992096e-03 0.0 
0.0 0.0 0.0 
2.199991142684e-04 1.221902251192e-03 0.0 
1.221902251192e-03 6.178514285048e-03 0.0 
0.0 0.0 0.0 
5.702001197599e-04 1.004832199341e-03 0.0 
1.004832199341e-03 5.746905837857e-03 0.0 
0.0 0.0 0.0 
1.998776221187e-04 1.198794421570e-03 0.0 
1.198794421570e-03 6.593680374750e-03 0.0 
0.0 0.0 0.0 
-3.999643115861e-04 8.108617166924e-05 0.0 
8.108617166924e-05 7.863501859849e-03 0.0 
0.0 0.0 0.0 
9.231383638298e-04 9.952683752561e-04 0.0 
9.952683752561e-04 4.226812012133e-03 0.0 
0.0 0.0 0.0 
4.325839394496e-04 -1.725236148290e-03 0.0 
-1.725236148290e-03 8.619103921836e-04 0.0 
0.0 0.0 0.0 
-1.679862185253e-04 -2.702235086378e-04 0.0 
-2.702235086378e-04 1.444531576643e-03 0.0 
0.0 0.0 0.0 
-4.680065785545e-04 -1.599922009274e-03 0.0 
-1.599922009274e-03 8.637598228119e-04 0.0 
0.0 0.0 0.0 
-1.672855305520e-04 -1.976519859958e-04 0.0 
-1.976519859958e-04 1.790567241724e-03 0.0 
0.0 0.0 0.0 
-2.519602123263e-04 -2.476102989182e-04 0.0 
-2.476102989182e-04 2.206911454505e-03 0.0 
0.0 0.0 0.0 
4.918178351744e-04 -1.475192800603e-05 0.0 
-1.475192800603e-05 5.545420133158e-03 0.0 
0.0 0.0 0.0 
1.139935870820e-05 1.204918833018e-03 0.0 
1.204918833018e-03 7.071053960864e-03 0.0 
0.0 0.0 0.0 
-8.371128423582e-05 1.184677753453e-03 0.0 
1.184677753453e-03 7.108861581946e-03 0.0 
0.0 0.0 0.0 
-5.929713664922e-04 1.472048381864e-03 0.0 
1.472048381864e-03 4.329742489636e-03 0.0 
0.0 0.0 0.0 
-6.366822859256e-04 1.286225644454e-03 0.0 
1.286225644454e-03 4.719736554296e-03 0.0 
0.0 0.0 0.0 
5.878389022751e-04 9.105164632805e-04 0.0 
9.105164632805e-04 5.812152037233e-03 0.0 
0.0 0.0 0.0 
-5.858693037623e-04 3.351040484843e-04 0.0 
3.351040484843e-04 7.597691941972e-03 0.0 
0.0 0.0 0.0 
-5.042074102123e-04 2.030838840453e-04 0.0 
2.030838840453e-04 7.739348081496e-03 0.0 
0.0 0.0 0.0 
-4.955226199877e-04 1.559380665709e-04 0.0 
1.559380665709e-04 7.566331133825e-03 0.0 
0.0 0.0 0.0 
-2.917592894913e-05 -1.419314775637e-04 0.0 
-1.419314775637e-04 1.308993282801e-03 0.0 
0.0 0.0 0.0 
-3.829246753726e-04 -1.882042970190e-03 0.0 
-1.882042970190e-03 4.092610213352e-04 0.0 
0.0 0.0 0.0 
-3.482931870349e-04 3.483650195359e-04 0.0 
3.483650195359e-04 8.866169365317e-03 0.0 
0.0 0.0 0.0 
9.334465452630e-04 2.419388545460e-03 0.0 
2.419388545460e-03 8.354014786423e-04 0.0 
0.0 0.0 0.0 
4.023131353646e-04 2.583014974021e-03 0.0 
2.583014974021e-03 1.454433055476e-03 0.0 
0.0 0.0 0.0 
2.306436379784e-03 1.106349592040e-03 0.0 
1.106349592040e-03 -3.890072684414e-03 0.0 
0.0 0.0 0.0 
2.106514077305e-03 7.853542612047e-05 0.0 
7.853542612047e-05 -4.326154808056e-03 0.0 
0.0 0.0 0.0 
-3.291446321907e-04 9.184838379768e-05 0.0 
9.184838379768e-05 8.475004521120e-03 0.0 
0.0 0.0 0.0 
-2.766848299541e-04 1.086892311888e-04 0.0 
1.086892311888e-04 8.860531432449e-03 0.0 
0.0 0.0 0.0 
-2.162611862869e-04 -4.399525664515e-04 0.0 
-4.399525664515e-04 3.985912800237e-03 0.0 
0.0 0.0 0.0 
-2.539311635210e-04 -3.437095780395e-04 0.0 
-3.437095780395e-04 4.224078085057e-03 0.0 
0.0 0.0 0.0 
6.122469258140e-04 3.139662335666e-05 0.0 
3.139662335666e-05 5.246057692428e-03 0.0 
0.0 0.0 0.0 
-4.810530360287e-04 -1.376468719454e-03 0.0 
-1.376468719454e-03 1.218846820883e-03 0.0 
0.0 0.0 0.0 
-2.560672144242e-04 1.461416457304e-04 0.0 
1.461416457304e-04 9.037025617425e-03 0.0 
0.0 0.0 0.0 
9.827172102849e-04 9.325964647096e-05 0.0 
9.325964647096e-05 4.085045339746e-03 0.0 
0.0 0.0 0.0 
1.108481005731e-03 1.106836401261e-05 0.0 
1.106836401261e-05 3.516777851545e-03 0.0 
0.0 0.0 0.0 
-3.240680931038e-04 -2.954758478232e-04 0.0 
-2.954758478232e-04 3.714319083022e-03 0.0 
0.0 0.0 0.0 
5.247557134304e-04 2.959531367589e-03 0.0 
2.959531367589e-03 2.341878698412e-04 0.0 
0.0 0.0 0.0 
9.619105988040e-04 2.911466940960e-03 0.0 
2.911466940960e-03 -9.467982040440e-04 0.0 
0.0 0.0 0.0 
8.442534762048e-04 -1.614150919117e-03 0.0 
-1.614150919117e-03 5.969640715916e-04 0.0 
0.0 0.0 0.0 
-2.718088824218e-04 -1.470882602333e-03 0.0 
-1.470882602333e-03 1.380859855103e-03 0.0 
0.0 0.0 0.0 
-1.836496658068e-04 -1.587701406575e-04 0.0 
-1.587701406575e-04 1.975523586759e-03 0.0 
0.0 0.0 0.0 
4.819825660914e-04 1.011250523743e-04 0.0 
1.011250523743e-04 5.780240939725e-03 0.0 
0.0 0.0 0.0 
-3.264005252216e-04 4.121452132300e-04 0.0 
4.121452132300e-04 9.003510846741e-03 0.0 
0.0 0.0 0.0 
3.180296296725e-04 1.183425619051e-03 0.0 
1.183425619051e-03 6.139837401984e-03 0.0 
0.0 0.0 0.0 
3.518788023800e-04 1.225651605525e-03 0.0 
1.225651605525e-03 5.705823584090e-03 0.0 
0.0 0.0 0.0 
2.738626354677e-04 1.165306477983e-03 0.0 
1.165306477983e-03 6.579203359353e-03 0.0 
0.0 0.0 0.0 
-5.875321043420e-04 -1.128827031671e-03 0.0 
-1.128827031671e-03 1.045394003252e-03 0.0 
0.0 0.0 0.0 
3.739612629588e-04 -5.242869620608e-05 0.0 
-5.242869620608e-05 5.855124441043e-03 0.0 
0.0 0.0 0.0 
-1.816584296064e-04 -1.314659364239e-04 0.0 
-1.314659364239e-04 5.949604440253e-03 0.0 
0.0 0.0 0.0 
-6.321994995978e-05 1.199039216713e-03 0.0 
1.199039216713e-03 7.474064067596e-03 0.0 
0.0 0.0 0.0 
-1.433930348104e-04 1.163224371882e-03 0.0 
1.163224371882e-03 7.506048286300e-03 0.0 
0.0 0.0 0.0 
5.759273356104e-04 2.333843551922e-03 0.0 
2.333843551922e-03 1.731066253115e-03 0.0 
0.0 0.0 0.0 
1.051273960501e-04 2.360811905474e-03 0.0 
2.360811905474e-03 2.289987689734e-03 0.0 
0.0 0.0 0.0 
-1.375695843250e-04 2.529632697098e-03 0.0 
2.529632697098e-03 2.142894019283e-03 0.0 
0.0 0.0 0.0 
-3.274171016726e-04 2.226956902424e-03 0.0 
2.226956902424e-03 2.844953335272e-03 0.0 
0.0 0.0 0.0 
-6.841627717456e-04 6.011207576722e-04 0.0 
6.011207576722e-04 6.838610700565e-03 0.0 
0.0 0.0 0.0 
2.832199099808e-04 2.175937376365e-03 0.0 
2.175937376365e-03 2.518729674366e-03 0.0 
0.0 0.0 0.0 
-6.491222094843e-04 8.407795166761e-04 0.0 
8.407795166761e-04 6.301268650482e-03 0.0 
0.0 0.0 0.0 
-7.017440346992e-04 7.136959481396e-04 0.0 
7.136959481396e-04 6.292485463708e-03 0.0 
0.0 0.0 0.0 
-7.021369985700e-04 7.887204554421e-04 0.0 
7.887204554421e-04 6.008655553870e-03 0.0 
0.0 0.0 0.0 
-5.355105158981e-04 1.306484367787e-03 0.0 
1.306484367787e-03 4.943507138726e-03 0.0 
0.0 0.0 0.0 
-6.664641035218e-04 1.125288793691e-03 0.0 
1.125288793691e-03 5.071314998939e-03 0.0 
0.0 0.0 0.0 
1.374656745083e-03 1.810862809668e-03 0.0 
1.810862809668e-03 9.223972213006e-04 0.0 
0.0 0.0 0.0 
1.198596538828e-03 9.367411134176e-04 0.0 
9.367411134176e-04 3.163738787517e-03 0.0 
0.0 0.0 0.0 
-1.713722867362e-04 -5.445887875255e-04 0.0 
-5.445887875255e-04 3.734074625680e-03 0.0 
0.0 0.0 0.0 
-1.183556095482e-05 -4.450426507871e-04 0.0 
-4.450426507871e-04 4.566599370878e-03 0.0 
0.0 0.0 0.0 
7.320195736653e-04 -5.789213578222e-04 0.0 
-5.789213578222e-04 3.366836795207e-03 0.0 
0.0 0.0 0.0 
-3.134337790995e-04 2.751485855398e-04 0.0 
2.751485855398e-04 8.930708050472e-03 0.0 
0.0 0.0 0.0 
-2.616946234038e-04 2.570243813186e-04 0.0 
2.570243813186e-04 9.145678223450e-03 0.0 
0.0 0.0 0.0 
-4.604550219660e-04 1.177029335121e-04 0.0 
1.177029335121e-04 7.613368698673e-03 0.0 
0.0 0.0 0.0 
-4.532217601125e-04 8.340217741882e-05 0.0 
8.340217741882e-05 7.429743936182e-03 0.0 
0.0 0.0 0.0 
-3.075541742843e-04 -4.750272497127e-04 0.0 
-4.750272497127e-04 1.480793693378e-03 0.0 
0.0 0.0 0.0 
-3.641791470424e-04 -5.338109343793e-04 0.0 
-5.338109343793e-04 1.314037154425e-03 0.0 
0.0 0.0 0.0 
2.880351276249e-04 -7.012998821129e-04 0.0 
-7.012998821129e-04 3.617606116441e-03 0.0 
0.0 0.0 0.0 
3.556078828033e-04 -1.376436152559e-04 0.0 
-1.376436152559e-04 5.651328410476e-03 0.0 
0.0 0.0 0.0 
-3.606918907716e-04 5.008359237131e-04 0.0 
5.008359237131e-04 8.906232360492e-03 0.0 
0.0 0.0 0.0 
-3.305814451691e-04 5.781019123526e-04 0.0 
5.781019123526e-04 9.020352749346e-03 0.0 
0.0 0.0 0.0 
-3.888816990219e-04 5.990998596539e-04 0.0 
5.990998596539e-04 8.786300731558e-03 0.0 
0.0 0.0 0.0 
5.970135930868e-04 1.627126240249e-04 0.0 
1.627126240249e-04 5.492590638279e-03 0.0 
0.0 0.0 0.0 
1.972382136073e-03 6.147299934127e-04 0.0 
6.147299934127e-04 7.598564960287e-05 0.0 
0.0 0.0 0.0 
1.312927158763e-03 3.178293812577e-04 0.0 
3.178293812577e-04 2.981040149496e-03 0.0 
0.0 0.0 0.0 
2.198651787531e-03 -9.499369157435e-04 0.0 
-9.499369157435e-04 -3.940678443103e-03 0.0 
0.0 0.0 0.0 
3.724374851791e-04 1.366824946198e-03 0.0 
1.366824946198e-03 4.887747364121e-03 0.0 
0.0 0.0 0.0 
-1.888364468738e-04 -3.174844703132e-04 0.0 
-3.174844703132e-04 1.081922671494e-03 0.0 
0.0 0.0 0.0 
-3.763039551621e-04 1.031778042243e-03 0.0 
1.031778042243e-03 7.205808844906e-03 0.0 
0.0 0.0 0.0 
-1.531903245586e-04 -1.092083723473e-04 0.0 
-1.092083723473e-04 6.341407615608e-03 0.0 
0.0 0.0 0.0 
-1.117546554701e-04 -1.284672898494e-04 0.0 
-1.284672898494e-04 6.516201100395e-03 0.0 
0.0 0.0 0.0 
4.596542715511e-04 9.985635117743e-04 0.0 
9.985635117743e-04 6.248237034728e-03 0.0 
0.0 0.0 0.0 
-7.215962595051e-04 4.296034435564e-04 0.0 
4.296034435564e-04 6.434095106953e-03 0.0 
0.0 0.0 0.0 
5.326130423471e-04 1.295923988948e-03 0.0 
1.295923988948e-03 4.784347933292e-03 0.0 
0.0 0.0 0.0 
7.121843913771e-04 1.281266295887e-03 0.0 
1.281266295887e-03 4.256863289404e-03 0.0 
0.0 0.0 0.0 
-7.388462334520e-04 6.496773952931e-04 0.0 
6.496773952931e-04 5.988466217712e-03 0.0 
0.0 0.0 0.0 
-7.435725619530e-04 7.239491733248e-04 0.0 
7.239491733248e-04 5.721284467024e-03 0.0 
0.0 0.0 0.0 
-6.960437610232e-04 8.789216445336e-04 0.0 
8.789216445336e-04 5.714334775781e-03 0.0 
0.0 0.0 0.0 
-7.457905429029e-04 8.170508235022e-04 0.0 
8.170508235022e-04 5.439187109455e-03 0.0 
0.0 0.0 0.0 
5.912682562977e-04 -1.504840989739e-03 0.0 
-1.504840989739e-03 1.193904116767e-03 0.0 
0.0 0.0 0.0 
2.470587710985e-04 -1.530468315607e-03 0.0 
-1.530468315607e-03 1.394583335647e-03 0.0 
0.0 0.0 0.0 
1.366783602141e-05 1.227707108328e-03 0.0 
1.227707108328e-03 7.497373926685e-03 0.0 
0.0 0.0 0.0 
1.682717110016e-04 1.207757357228e-03 0.0 
1.207757357228e-03 7.011788736455e-03 0.0 
0.0 0.0 0.0 
-1.044202614155e-04 1.196267466390e-03 0.0 
1.196267466390e-03 7.862049605688e-03 0.0 
0.0 0.0 0.0 
-1.751194310933e-04 1.148343573880e-03 0.0 
1.148343573880e-03 7.891533104219e-03 0.0 
0.0 0.0 0.0 
4.582397704433e-04 9.167773193495e-04 0.0 
9.167773193495e-04 6.329032357643e-03 0.0 
0.0 0.0 0.0 
5.805085839696e-04 8.136516228996e-04 0.0 
8.136516228996e-04 5.906308307339e-03 0.0 
0.0 0.0 0.0 
-2.647803350783e-04 -1.909319351362e-04 0.0 
-1.909319351362e-04 2.382888317034e-03 0.0 
0.0 0.0 0.0 
-7.435407798830e-04 1.064290210299e-03 0.0 
1.064290210299e-03 4.838632015815e-03 0.0 
0.0 0.0 0.0 
-2.664156369779e-04 3.924769777747e-04 0.0 
3.924769777747e-04 9.222010151874e-03 0.0 
0.0 0.0 0.0 
-7.301146828630e-04 5.875343047501e-04 0.0 
5.875343047501e-04 6.250992819052e-03 0.0 
0.0 0.0 0.0 
2.634571429911e-04 -8.327718853032e-05 0.0 
-8.327718853032e-05 6.142845560798e-03 0.0 
0.0 0.0 0.0 
2.496372610151e-04 -1.478958435265e-04 0.0 
-1.478958435265e-04 5.958991145341e-03 0.0 
0.0 0.0 0.0 
1.524833941612e-03 -9.016366615693e-04 0.0 
-9.016366615693e-04 -4.371902846900e-03 0.0 
0.0 0.0 0.0 
1.398447173747e-03 -1.961035095965e-03 0.0 
-1.961035095965e-03 -3.369414108073e-03 0.0 
0.0 0.0 0.0 
-2.138483026988e-04 1.239437410955e-04 0.0 
1.239437410955e-04 9.243352290305e-03 0.0 
0.0 0.0 0.0 
-5.932625661080e-04 2.267394169098e-03 0.0 
2.267394169098e-03 2.784083683472e-03 0.0 
0.0 0.0 0.0 
-6.659351060323e-04 1.938711316121e-03 0.0 
1.938711316121e-03 3.316458239857e-03 0.0 
0.0 0.0 0.0 
-4.286187217832e-04 2.596450214343e-03 0.0 
2.596450214343e-03 2.098380543891e-03 0.0 
0.0 0.0 0.0 
-9.581565026564e-05 -3.011243300522e-05 0.0 
-3.011243300522e-05 7.177387147730e-03 0.0 
0.0 0.0 0.0 
-4.289952121847e-04 5.147954500601e-06 0.0 
5.147954500601e-06 6.622026765362e-03 0.0 
0.0 0.0 0.0 
-1.194343605684e-04 -9.364080104582e-05 0.0 
-9.364080104582e-05 6.734278637677e-03 0.0 
0.0 0.0 0.0 
-5.822740997048e-04 1.157384183057e-03 0.0 
1.157384183057e-03 5.317244817470e-03 0.0 
0.0 0.0 0.0 
-1.850976268922e-04 1.675706224669e-04 0.0 
1.675706224669e-04 9.416098216530e-03 0.0 
0.0 0.0 0.0 
6.632610479967e-04 1.195549672169e-03 0.0 
1.195549672169e-03 4.725727473010e-03 0.0 
0.0 0.0 0.0 
1.808134153245e-04 1.846853940118e-03 0.0 
1.846853940118e-03 3.479295387331e-03 0.0 
0.0 0.0 0.0 
7.320146239851e-04 9.115362350560e-05 0.0 
9.115362350560e-05 4.947356300758e-03 0.0 
0.0 0.0 0.0 
-2.430172596579e-04 7.876650420211e-05 0.0 
7.876650420211e-05 9.045315041361e-03 0.0 
0.0 0.0 0.0 
-1.722500259110e-04 9.884212310899e-05 0.0 
9.884212310899e-05 9.456869775168e-03 0.0 
0.0 0.0 0.0 
-5.250836258094e-04 1.561666985535e-04 0.0 
1.561666985535e-04 7.343332753365e-03 0.0 
0.0 0.0 0.0 
-5.146765095215e-04 1.089292496847e-04 0.0 
1.089292496847e-04 7.152858259573e-03 0.0 
0.0 0.0 0.0 
-5.393800827443e-04 2.038966603110e-04 0.0 
2.038966603110e-04 7.504902348703e-03 0.0 
0.0 0.0 0.0 
2.153616935038e-03 1.925725278392e-03 0.0 
1.925725278392e-03 -3.037220442844e-03 0.0 
0.0 0.0 0.0 
1.620860203419e-03 2.182166644432e-03 0.0 
2.182166644432e-03 -3.250397129234e-03 0.0 
0.0 0.0 0.0 
-2.825573689214e-04 2.073982709084e-04 0.0 
2.073982709084e-04 8.987294559597e-03 0.0 
0.0 0.0 0.0 
-3.206278388209e-04 -3.911899394991e-04 0.0 
-3.911899394991e-04 2.785416496554e-03 0.0 
0.0 0.0 0.0 
-3.334982662194e-04 -2.992935277266e-04 0.0 
-2.992935277266e-04 3.026170252109e-03 0.0 
0.0 0.0 0.0 
-4.461386424904e-04 -1.162646396923e-03 0.0 
-1.162646396923e-03 1.498915283108e-03 0.0 
0.0 0.0 0.0 
-2.825224091411e-04 -1.234374288921e-03 0.0 
-1.234374288921e-03 1.707359469577e-03 0.0 
0.0 0.0 0.0 
-1.344631538325e-04 -4.899695823617e-04 0.0 
-4.899695823617e-04 4.093627772859e-03 0.0 
0.0 0.0 0.0 
-7.173979276648e-05 -5.936979083910e-04 0.0 
-5.936979083910e-04 3.819712099404e-03 0.0 
0.0 0.0 0.0 
-2.818718825624e-04 1.097708461774e-03 0.0 
1.097708461774e-03 7.179809944121e-03 0.0 
0.0 0.0 0.0 
-3.146512196282e-04 1.057541005336e-03 0.0 
1.057541005336e-03 7.538790269279e-03 0.0 
0.0 0.0 0.0 
-1.575250591597e-04 1.204649572233e-03 0.0 
1.204649572233e-03 6.395662975211e-03 0.0 
0.0 0.0 0.0 
9.759641873346e-04 -8.637212640024e-05 0.0 
-8.637212640024e-05 3.831042275983e-03 0.0 
0.0 0.0 0.0 
1.084134098777e-03 -1.927717236440e-04 0.0 
-1.927717236440e-04 3.274765776691e-03 0.0 
0.0 0.0 0.0 
1.229817441553e-03 -7.959956806854e-05 0.0 
-7.959956806854e-05 2.939784399711e-03 0.0 
0.0 0.0 0.0 
-2.381309695663e-04 3.101541262474e-04 0.0 
3.101541262474e-04 9.284709157876e-03 0.0 
0.0 0.0 0.0 
-1.750417285376e-04 2.908917175815e-04 0.0 
2.908917175815e-04 9.535215574759e-03 0.0 
0.0 0.0 0.0 
9.319117389148e-04 -1.357285315332e-03 0.0 
-1.357285315332e-03 1.027700842051e-03 0.0 
0.0 0.0 0.0 
1.217875434589e-03 -1.359424322806e-03 0.0 
-1.359424322806e-03 4.150809485731e-04 0.0 
0.0 0.0 0.0 
3.925979489022e-04 -1.364864077554e-03 0.0 
-1.364864077554e-03 1.698878769193e-03 0.0 
0.0 0.0 0.0 
-2.374500611760e-04 4.594942164347e-04 0.0 
4.594942164347e-04 9.352745043624e-03 0.0 
0.0 0.0 0.0 
-8.476002169083e-05 -1.131844856338e-04 0.0 
-1.131844856338e-04 6.909833438558e-03 0.0 
0.0 0.0 0.0 
-7.224343383809e-05 -1.428762115753e-04 0.0 
-1.428762115753e-04 6.688093479750e-03 0.0 
0.0 0.0 0.0 
-2.093592978570e-04 -3.333662009837e-04 0.0 
-3.333662009837e-04 9.161844907084e-04 0.0 
0.0 0.0 0.0 
-4.219512205983e-04 -5.955977939970e-04 0.0 
-5.955977939970e-04 1.140061691138e-03 0.0 
0.0 0.0 0.0 
1.827479974448e-04 3.012511112539e-03 0.0 
3.012511112539e-03 1.790454148887e-04 0.0 
0.0 0.0 0.0 
5.626949624852e-04 2.986420574152e-03 0.0 
2.986420574152e-03 -9.917387386520e-04 0.0 
0.0 0.0 0.0 
-2.921156583248e-04 6.581951365782e-04 0.0 
6.581951365782e-04 9.110855167351e-03 0.0 
0.0 0.0 0.0 
-3.536012210596e-04 6.843378653962e-04 0.0 
6.843378653962e-04 8.882036871035e-03 0.0 
0.0 0.0 0.0 
-2.220527593058e-04 6.381044087125e-04 0.0 
6.381044087125e-04 9.370539296127e-03 0.0 
0.0 0.0 0.0 
-1.958440955119e-04 -1.063005487173e-04 0.0 
-1.063005487173e-04 2.122913291592e-03 0.0 
0.0 0.0 0.0 
4.536304858262e-04 1.165378643996e-03 0.0 
1.165378643996e-03 5.679852008145e-03 0.0 
0.0 0.0 0.0 
4.468041202389e-04 2.242270818983e-04 0.0 
2.242270818983e-04 6.022206076030e-03 0.0 
0.0 0.0 0.0 
5.602944614984e-04 2.998565851526e-04 0.0 
2.998565851526e-04 5.763833241294e-03 0.0 
0.0 0.0 0.0 
3.218693629860e-04 1.568582944910e-04 0.0 
1.568582944910e-04 6.373798892809e-03 0.0 
0.0 0.0 0.0 
4.384734883394e-04 1.070859348810e-03 0.0 
1.070859348810e-03 6.187506414460e-03 0.0 
0.0 0.0 0.0 
3.323202138030e-04 1.069765346513e-03 0.0 
1.069765346513e-03 6.660620889572e-03 0.0 
0.0 0.0 0.0 
2.058781412209e-04 1.174929753601e-03 0.0 
1.174929753601e-03 7.028907189166e-03 0.0 
0.0 0.0 0.0 
1.156493844652e-03 9.921102851033e-05 0.0 
9.921102851033e-05 -4.703178569850e-03 0.0 
0.0 0.0 0.0 
-1.889961412375e-04 5.908487158330e-05 0.0 
5.908487158330e-05 9.330436180055e-03 0.0 
0.0 0.0 0.0 
-4.783635211425e-04 7.927254939004e-05 0.0 
7.927254939004e-05 7.187594354116e-03 0.0 
0.0 0.0 0.0 
4.035298624220e-04 -5.884942473401e-04 0.0 
-5.884942473401e-04 -4.556759320307e-03 0.0 
0.0 0.0 0.0 
-4.643564246720e-04 5.325440924970e-05 0.0 
5.325440924970e-05 7.001286213254e-03 0.0 
0.0 0.0 0.0 
-4.476585642894e-04 5.686915438975e-05 0.0 
5.686915438975e-05 7.239281134965e-03 0.0 
0.0 0.0 0.0 
-4.567244678270e-04 3.132849824201e-05 0.0 
3.132849824201e-05 6.787152544939e-03 0.0 
0.0 0.0 0.0 
-9.060502826056e-05 -8.776921608664e-05 0.0 
-8.776921608664e-05 1.693111547733e-03 0.0 
0.0 0.0 0.0 
-5.569710656930e-04 1.439835325659e-04 0.0 
1.439835325659e-04 7.047519819923e-03 0.0 
0.0 0.0 0.0 
-5.738949935203e-04 2.049421415231e-04 0.0 
2.049421415231e-04 7.275353956224e-03 0.0 
0.0 0.0 0.0 
-1.717894740574e-04 -2.877134865845e-04 0.0 
-2.877134865845e-04 6.489379831197e-04 0.0 
0.0 0.0 0.0 
-1.693608481712e-04 4.321787842293e-04 0.0 
4.321787842293e-04 9.563220271738e-03 0.0 
0.0 0.0 0.0 
-3.716914756554e-06 -1.646856343686e-04 0.0 
-1.646856343686e-04 6.512830911810e-04 0.0 
0.0 0.0 0.0 
2.404011385848e-06 -1.775632056350e-04 0.0 
-1.775632056350e-04 8.143206154787e-04 0.0 
0.0 0.0 0.0 
1.847331859974e-04 -1.030490804889e-04 0.0 
-1.030490804889e-04 6.437221033404e-03 0.0 
0.0 0.0 0.0 
1.637786323829e-04 -1.553308848818e-04 0.0 
-1.553308848818e-04 6.249353535528e-03 0.0 
0.0 0.0 0.0 
1.070764461015e-04 -1.262407035673e-04 0.0 
-1.262407035673e-04 6.699700240643e-03 0.0 
0.0 0.0 0.0 
8.923574774925e-05 -1.539850703865e-04 0.0 
-1.539850703865e-04 6.509682505778e-03 0.0 
0.0 0.0 0.0 
1.249259713612e-04 -1.955421092200e-04 0.0 
-1.955421092200e-04 6.077852220290e-03 0.0 
0.0 0.0 0.0 
5.612097187002e-05 -1.787542206157e-04 0.0 
-1.787542206157e-04 6.361075694533e-03 0.0 
0.0 0.0 0.0 
-5.032668182423e-04 7.384062977005e-05 0.0 
7.384062977005e-05 6.953379421177e-03 0.0 
0.0 0.0 0.0 
3.768843372726e-05 -1.505678197590e-04 0.0 
-1.505678197590e-04 6.836223030746e-03 0.0 
0.0 0.0 0.0 
4.750240742720e-06 -1.623529831064e-04 0.0 
-1.623529831064e-04 6.634800383365e-03 0.0 
0.0 0.0 0.0 
-1.659942294045e-06 -1.531544120836e-04 0.0 
-1.531544120836e-04 7.104518616178e-03 0.0 
0.0 0.0 0.0 
-7.707429011658e-04 6.401928649529e-04 0.0 
6.401928649529e-04 5.438225899728e-03 0.0 
0.0 0.0 0.0 
-4.586957520004e-04 1.946309380717e-03 0.0 
1.946309380717e-03 3.414695086662e-03 0.0 
0.0 0.0 0.0 
-7.116878277401e-04 1.647164328038e-03 0.0 
1.647164328038e-03 3.773708128983e-03 0.0 
0.0 0.0 0.0 
-8.580324739002e-04 1.490387048416e-03 0.0 
1.490387048416e-03 3.669483732913e-03 0.0 
0.0 0.0 0.0 
-1.139682475761e-04 1.203904428802e-03 0.0 
1.203904428802e-03 8.296767559674e-03 0.0 
0.0 0.0 0.0 
-1.912753419668e-04 1.134228161914e-03 0.0 
1.134228161914e-03 8.226220457826e-03 0.0 
0.0 0.0 0.0 
-1.916849723552e-04 -8.264021559518e-05 0.0 
-8.264021559518e-05 6.168905767035e-03 0.0 
0.0 0.0 0.0 
-2.229130321180e-04 -9.733748813938e-05 0.0 
-9.733748813938e-05 5.780909789662e-03 0.0 
0.0 0.0 0.0 
-4.447492124175e-04 3.537806191183e-05 0.0 
3.537806191183e-05 7.023703754689e-03 0.0 
0.0 0.0 0.0 
-4.329777292239e-04 2.231864876806e-05 0.0 
2.231864876806e-05 7.000423301118e-03 0.0 
0.0 0.0 0.0 
-4.240100034027e-04 4.567514465771e-05 0.0 
4.567514465771e-05 7.375655713453e-03 0.0 
0.0 0.0 0.0 
-4.173777189389e-04 2.696787630486e-05 0.0 
2.696787630486e-05 7.325553855415e-03 0.0 
0.0 0.0 0.0 
-4.010387846268e-04 4.882781545625e-05 0.0 
4.882781545625e-05 7.697019988393e-03 0.0 
0.0 0.0 0.0 
-3.953982545456e-04 2.557290044639e-05 0.0 
2.557290044639e-05 7.639269901928e-03 0.0 
0.0 0.0 0.0 
-3.710701718330e-04 4.073323846553e-05 0.0 
4.073323846553e-05 8.013085481060e-03 0.0 
0.0 0.0 0.0 
1.108888522512e-04 1.239125175496e-03 0.0 
1.239125175496e-03 7.487246899337e-03 0.0 
0.0 0.0 0.0 
-8.471532986025e-04 2.168123366156e-03 0.0 
2.168123366156e-03 2.772750891313e-03 0.0 
0.0 0.0 0.0 
-7.505139613263e-04 5.131049549689e-04 0.0 
5.131049549689e-04 5.938327684993e-03 0.0 
0.0 0.0 0.0 
4.251645313179e-04 8.274340998529e-04 0.0 
8.274340998529e-04 6.433189422163e-03 0.0 
0.0 0.0 0.0 
5.465253712971e-04 7.154607482973e-04 0.0 
7.154607482973e-04 6.002078967508e-03 0.0 
0.0 0.0 0.0 
-7.456030397603e-04 9.297735448693e-04 0.0 
9.297735448693e-04 5.143084215048e-03 0.0 
0.0 0.0 0.0 
-7.878473911082e-04 8.343547587871e-04 0.0 
8.343547587871e-04 4.896741691383e-03 0.0 
0.0 0.0 0.0 
2.440212295292e-04 -2.430177883069e-06 0.0 
-2.430177883069e-06 6.436545887059e-03 0.0 
0.0 0.0 0.0 
6.827576426111e-04 2.096262634035e-03 0.0 
2.096262634035e-03 2.076653334077e-03 0.0 
0.0 0.0 0.0 
-1.198180319650e-04 5.082290113215e-04 0.0 
5.082290113215e-04 9.726509995389e-03 0.0 
0.0 0.0 0.0 
-7.864085863655e-04 2.032752638236e-03 0.0 
2.032752638236e-03 -3.174046293449e-03 0.0 
0.0 0.0 0.0 
6.970493621106e-04 2.030046229555e-03 0.0 
2.030046229555e-03 -3.689585772750e-03 0.0 
0.0 0.0 0.0 
4.061496021606e-04 1.987796390779e-03 0.0 
1.987796390779e-03 2.814286663120e-03 0.0 
0.0 0.0 0.0 
-6.849981007540e-04 9.901429178457e-04 0.0 
9.901429178457e-04 5.401696376569e-03 0.0 
0.0 0.0 0.0 
-5.407774419185e-04 1.685628762962e-03 0.0 
1.685628762962e-03 3.899744218971e-03 0.0 
0.0 0.0 0.0 
-7.214041781479e-04 1.427926617287e-03 0.0 
1.427926617287e-03 4.151502255931e-03 0.0 
0.0 0.0 0.0 
8.606547642560e-04 9.523446486085e-06 0.0 
9.523446486085e-06 4.387960329815e-03 0.0 
0.0 0.0 0.0 
-4.593618941306e-04 -6.777044738505e-04 0.0 
-6.777044738505e-04 9.667625962084e-04 0.0 
0.0 0.0 0.0 
-1.726043994586e-04 2.873847975975e-03 0.0 
2.873847975975e-03 1.223249133542e-03 0.0 
0.0 0.0 0.0 
-3.755326948511e-04 7.259900069846e-05 0.0 
7.259900069846e-05 8.057332120741e-03 0.0 
0.0 0.0 0.0 
-5.177112227924e-04 2.762370565544e-03 0.0 
2.762370565544e-03 1.271986647290e-03 0.0 
0.0 0.0 0.0 
-2.213072255702e-04 -4.490916279487e-05 0.0 
-4.490916279487e-05 6.006296503879e-03 0.0 
0.0 0.0 0.0 
1.040979684072e-03 1.886641762273e-03 0.0 
1.886641762273e-03 1.731066877778e-03 0.0 
0.0 0.0 0.0 
-4.385954977509e-04 1.302266599671e-03 0.0 
1.302266599671e-03 5.189897223418e-03 0.0 
0.0 0.0 0.0 
1.488040119297e-04 2.806339969203e-03 0.0 
2.806339969203e-03 1.274683652599e-03 0.0 
0.0 0.0 0.0 
-1.159741273580e-04 2.119161701117e-03 0.0 
2.119161701117e-03 2.997142151813e-03 0.0 
0.0 0.0 0.0 
-6.495014466971e-04 7.096716808495e-04 0.0 
7.096716808495e-04 6.885080265855e-03 0.0 
0.0 0.0 0.0 
-7.016097764382e-04 4.963997221524e-04 0.0 
4.963997221524e-04 6.767677888454e-03 0.0 
0.0 0.0 0.0 
-7.179172757864e-04 5.371827398113e-04 0.0 
5.371827398113e-04 6.512721643784e-03 0.0 
0.0 0.0 0.0 
1.329330788962e-03 1.590326084965e-03 0.0 
1.590326084965e-03 1.491284424242e-03 0.0 
0.0 0.0 0.0 
-7.342676084430e-04 1.227334107871e-03 0.0 
1.227334107871e-03 4.521418824444e-03 0.0 
0.0 0.0 0.0 
-8.095240325782e-04 1.095555644451e-03 0.0 
1.095555644451e-03 4.301918718462e-03 0.0 
0.0 0.0 0.0 
-5.711660865341e-04 9.630656491157e-04 0.0 
9.630656491157e-04 6.277693005450e-03 0.0 
0.0 0.0 0.0 
-4.417709802149e-04 6.200474057114e-04 0.0 
6.200474057114e-04 8.544785774404e-03 0.0 
0.0 0.0 0.0 
-4.059625695637e-04 7.052334930758e-04 0.0 
7.052334930758e-04 8.631291244375e-03 0.0 
0.0 0.0 0.0 
-3.115397797045e-04 7.663865538819e-04 0.0 
7.663865538819e-04 8.948353263899e-03 0.0 
0.0 0.0 0.0 
-3.642608492255e-04 7.904538896500e-04 0.0 
7.904538896500e-04 8.701108329389e-03 0.0 
0.0 0.0 0.0 
-4.516387657642e-04 7.269914308118e-04 0.0 
7.269914308118e-04 8.372987867776e-03 0.0 
0.0 0.0 0.0 
-4.062993763112e-04 8.126826129462e-04 0.0 
8.126826129462e-04 8.434673330020e-03 0.0 
0.0 0.0 0.0 
-3.098090388447e-04 8.760030902931e-04 0.0 
8.760030902931e-04 8.761057983831e-03 0.0 
0.0 0.0 0.0 
-3.494211123307e-04 9.017615770150e-04 0.0 
9.017615770150e-04 8.489231332266e-03 0.0 
0.0 0.0 0.0 
-2.376855836668e-04 9.740082598666e-04 0.0 
9.740082598666e-04 8.872610649801e-03 0.0 
0.0 0.0 0.0 
-2.895230980488e-04 9.854291149657e-04 0.0 
9.854291149657e-04 8.515655034056e-03 0.0 
0.0 0.0 0.0 
-3.776329226010e-04 9.259551206478e-04 0.0 
9.259551206478e-04 8.181345951013e-03 0.0 
0.0 0.0 0.0 
-3.171403568963e-04 1.003131512281e-03 0.0 
1.003131512281e-03 8.196329717369e-03 0.0 
0.0 0.0 0.0 
-2.391055503457e-04 1.062466268741e-03 0.0 
1.062466268741e-03 8.500350092846e-03 0.0 
0.0 0.0 0.0 
-3.955979876210e-04 9.528157491140e-04 0.0 
9.528157491140e-04 7.865606545470e-03 0.0 
0.0 0.0 0.0 
2.905905168917e-04 9.394579569254e-04 0.0 
9.394579569254e-04 6.845065325886e-03 0.0 
0.0 0.0 0.0 
4.858745715305e-04 1.806145637751e-03 0.0 
1.806145637751e-03 3.166636965164e-03 0.0 
0.0 0.0 0.0 
1.613070358613e-03 1.120656127087e-03 0.0 
1.120656127087e-03 -4.256445680707e-03 0.0 
0.0 0.0 0.0 
7.667573791617e-04 2.810496250443e-03 0.0 
2.810496250443e-03 -2.583350118140e-03 0.0 
0.0 0.0 0.0 
-4.974229393810e-04 1.170818266036e-03 0.0 
1.170818266036e-03 5.577728304822e-03 0.0 
0.0 0.0 0.0 
-1.235163515866e-04 1.010282817331e-03 0.0 
1.010282817331e-03 9.259864843832e-03 0.0 
0.0 0.0 0.0 
-1.290270460946e-04 8.537286164872e-04 0.0 
8.537286164872e-04 9.476601339770e-03 0.0 
0.0 0.0 0.0 
1.389508147441e-03 2.077692313549e-03 0.0 
2.077692313549e-03 3.598326967336e-04 0.0 
0.0 0.0 0.0 
-4.842733830555e-05 1.288141538482e-03 0.0 
1.288141538482e-03 8.570729532143e-03 0.0 
0.0 0.0 0.0 
-6.961563407944e-04 6.510570441357e-04 0.0 
6.510570441357e-04 6.568633096646e-03 0.0 
0.0 0.0 0.0 
2.245314348354e-03 1.747027247888e-03 0.0 
1.747027247888e-03 -2.426215070302e-03 0.0 
0.0 0.0 0.0 
5.963582416391e-06 1.315391287736e-03 0.0 
1.315391287736e-03 8.210495081839e-03 0.0 
0.0 0.0 0.0 
-4.883466833731e-04 6.410834679892e-04 0.0 
6.410834679892e-04 8.294879089602e-03 0.0 
0.0 0.0 0.0 
-5.279934951154e-04 6.617585031444e-04 0.0 
6.617585031444e-04 8.033636355727e-03 0.0 
0.0 0.0 0.0 
-5.568709270291e-04 5.753105925744e-04 0.0 
5.753105925744e-04 7.950282541705e-03 0.0 
0.0 0.0 0.0 
-1.154288108912e-04 7.170321760931e-04 0.0 
7.170321760931e-04 9.631235894368e-03 0.0 
0.0 0.0 0.0 
-5.477898981557e-04 2.613149932508e-04 0.0 
2.613149932508e-04 7.670999879285e-03 0.0 
0.0 0.0 0.0 
1.211214520139e-04 1.159895953798e-03 0.0 
1.159895953798e-03 7.511248720635e-03 0.0 
0.0 0.0 0.0 
1.085078983227e-03 8.792384900992e-04 0.0 
8.792384900992e-04 3.730128525414e-03 0.0 
0.0 0.0 0.0 
1.018569530049e-03 1.062933839636e-03 0.0 
1.062933839636e-03 3.691338873911e-03 0.0 
0.0 0.0 0.0 
1.108085033194e-03 1.152496937746e-03 0.0 
1.152496937746e-03 3.151765137322e-03 0.0 
0.0 0.0 0.0 
-4.380024626345e-04 8.373304986687e-04 0.0 
8.373304986687e-04 8.148705061164e-03 0.0 
0.0 0.0 0.0 
2.074847429314e-04 7.227019814917e-04 0.0 
7.227019814917e-04 6.954018454223e-03 0.0 
0.0 0.0 0.0 
3.889317152158e-04 6.145409363941e-04 0.0 
6.145409363941e-04 6.439201432333e-03 0.0 
0.0 0.0 0.0 
3.870870209630e-04 4.953437369273e-04 0.0 
4.953437369273e-04 6.387851625501e-03 0.0 
0.0 0.0 0.0 
5.547202022356e-04 5.143884778386e-04 0.0 
5.143884778386e-04 5.900395499339e-03 0.0 
0.0 0.0 0.0 
2.053150293467e-04 4.667679503872e-04 0.0 
4.667679503872e-04 6.852569357801e-03 0.0 
0.0 0.0 0.0 
-9.632375069450e-05 1.147222102197e-03 0.0 
1.147222102197e-03 9.049920538762e-03 0.0 
0.0 0.0 0.0 
-8.003049263150e-05 1.206778569771e-03 0.0 
1.206778569771e-03 8.918521006170e-03 0.0 
0.0 0.0 0.0 
1.162866029852e-03 -1.655093279499e-03 0.0 
-1.655093279499e-03 -1.015684710013e-04 0.0 
0.0 0.0 0.0 
1.546284374752e-03 -1.264896507156e-03 0.0 
-1.264896507156e-03 -2.569020429126e-04 0.0 
0.0 0.0 0.0 
1.509449894868e-03 -1.002801822470e-03 0.0 
-1.002801822470e-03 3.617677560012e-04 0.0 
0.0 0.0 0.0 
1.802931120120e-03 -7.851813769824e-04 0.0 
-7.851813769824e-04 -2.379644655905e-04 0.0 
0.0 0.0 0.0 
1.900028499964e-03 -1.026784631496e-03 0.0 
-1.026784631496e-03 -9.756753186922e-04 0.0 
0.0 0.0 0.0 
2.074877067842e-03 -4.240362926346e-04 0.0 
-4.240362926346e-04 -8.127667969574e-04 0.0 
0.0 0.0 0.0 
1.920452871424e-03 -2.859805343818e-04 0.0 
-2.859805343818e-04 -3.407327181557e-05 0.0 
0.0 0.0 0.0 
2.275326948844e-03 9.514233168054e-05 0.0 
9.514233168054e-05 -1.295778637634e-03 0.0 
0.0 0.0 0.0 
-2.530817131367e-04 1.089163775668e-03 0.0 
1.089163775668e-03 7.884823532510e-03 0.0 
0.0 0.0 0.0 
1.697448566435e-04 2.363631537901e-04 0.0 
2.363631537901e-04 6.865432062914e-03 0.0 
0.0 0.0 0.0 
6.893472794909e-04 -4.390307529014e-04 0.0 
-4.390307529014e-04 3.851037612563e-03 0.0 
0.0 0.0 0.0 
8.495614697501e-04 -4.302339365173e-04 0.0 
-4.302339365173e-04 3.474609440807e-03 0.0 
0.0 0.0 0.0 
9.056813436880e-04 -5.761765317367e-04 0.0 
-5.761765317367e-04 2.967257992008e-03 0.0 
0.0 0.0 0.0 
-1.176201727652e-04 -6.589365950153e-04 0.0 
-6.589365950153e-04 3.465058474157e-03 0.0 
0.0 0.0 0.0 
2.732479652323e-06 -7.052210744698e-04 0.0 
-7.052210744698e-04 3.524974653765e-03 0.0 
0.0 0.0 0.0 
4.488389972749e-05 -6.183533756506e-04 0.0 
-6.183533756506e-04 3.891628636675e-03 0.0 
0.0 0.0 0.0 
-2.135839352149e-04 -5.879999310803e-04 0.0 
-5.879999310803e-04 3.384375302801e-03 0.0 
0.0 0.0 0.0 
2.260649299076e-04 1.265127094383e-03 0.0 
1.265127094383e-03 5.775671315627e-03 0.0 
0.0 0.0 0.0 
1.514089441188e-04 1.354935670256e-04 0.0 
1.354935670256e-04 6.883911925567e-03 0.0 
0.0 0.0 0.0 
1.224422210581e-03 1.459325989244e-04 0.0 
1.459325989244e-04 3.230186330470e-03 0.0 
0.0 0.0 0.0 
9.148705269794e-05 -8.239686303514e-04 0.0 
-8.239686303514e-04 3.205566701044e-03 0.0 
0.0 0.0 0.0 
-6.270203776690e-04 1.714286937794e-04 0.0 
1.714286937794e-04 6.621157848501e-03 0.0 
0.0 0.0 0.0 
-6.321945034491e-04 2.508588822065e-04 0.0 
2.508588822065e-04 6.954567558038e-03 0.0 
0.0 0.0 0.0 
-6.619963994208e-04 2.974653930073e-04 0.0 
2.974653930073e-04 6.932874769047e-03 0.0 
0.0 0.0 0.0 
-6.250715965348e-04 3.343569056828e-04 0.0 
3.343569056828e-04 7.307838958777e-03 0.0 
0.0 0.0 0.0 
-6.060887563852e-04 2.048693300321e-04 0.0 
2.048693300321e-04 7.014714241256e-03 0.0 
0.0 0.0 0.0 
-1.865023045819e-04 -3.935374491344e-04 0.0 
-3.935374491344e-04 4.349788778658e-03 0.0 
0.0 0.0 0.0 
-2.272784873655e-04 -3.039358457839e-04 0.0 
-3.039358457839e-04 4.588274964455e-03 0.0 
0.0 0.0 0.0 
-2.818118893672e-04 -2.520414921555e-04 0.0 
-2.520414921555e-04 4.445660654043e-03 0.0 
0.0 0.0 0.0 
-2.564438160695e-04 -2.213325248557e-04 0.0 
-2.213325248557e-04 4.810024964596e-03 0.0 
0.0 0.0 0.0 
-2.991200519682e-04 -1.715442971393e-04 0.0 
-1.715442971393e-04 4.642254232298e-03 0.0 
0.0 0.0 0.0 
-3.185021818922e-04 -1.949873983190e-04 0.0 
-1.949873983190e-04 4.304198588974e-03 0.0 
0.0 0.0 0.0 
-2.760768273091e-04 -1.442945910369e-04 0.0 
-1.442945910369e-04 5.011354851813e-03 0.0 
0.0 0.0 0.0 
-3.115877098697e-04 -9.629828091955e-05 0.0 
-9.629828091955e-05 4.801305757451e-03 0.0 
0.0 0.0 0.0 
-5.741575829755e-04 1.058310362529e-04 0.0 
1.058310362529e-04 6.640866097777e-03 0.0 
0.0 0.0 0.0 
-9.705957075741e-04 -1.891650203081e-03 0.0 
-1.891650203081e-03 -1.047616544526e-03 0.0 
0.0 0.0 0.0 
-5.621457444893e-04 -2.234034616055e-03 0.0 
-2.234034616055e-03 -6.738412701041e-04 0.0 
0.0 0.0 0.0 
-7.110806819756e-04 -1.552203987333e-03 0.0 
-1.552203987333e-03 2.212853384715e-04 0.0 
0.0 0.0 0.0 
-2.962456922690e-04 -2.247622292067e-03 0.0 
-2.247622292067e-03 -4.256290399981e-04 0.0 
0.0 0.0 0.0 
4.471823637232e-04 -2.448667802546e-03 0.0 
-2.448667802546e-03 -1.746650485319e-03 0.0 
0.0 0.0 0.0 
4.886804765219e-04 -2.365507019409e-03 0.0 
-2.365507019409e-03 -1.143877592354e-03 0.0 
0.0 0.0 0.0 
1.245651389712e-03 -2.264288699702e-03 0.0 
-2.264288699702e-03 -2.401840683383e-03 0.0 
0.0 0.0 0.0 
1.556231256234e-04 -2.402935716396e-03 0.0 
-2.402935716396e-03 -2.458496930354e-03 0.0 
0.0 0.0 0.0 
-4.370036777542e-04 -5.560096247383e-04 0.0 
-5.560096247383e-04 2.554339365232e-04 0.0 
0.0 0.0 0.0 
-5.909070066997e-04 -9.906652114999e-04 0.0 
-9.906652114999e-04 5.153286932746e-04 0.0 
0.0 0.0 0.0 
-1.017235162547e-04 -2.867118313814e-04 0.0 
-2.867118313814e-04 2.353414090814e-04 0.0 
0.0 0.0 0.0 
-4.145063682707e-04 -6.115269582087e-04 0.0 
-6.115269582087e-04 5.982084742661e-04 0.0 
0.0 0.0 0.0 
-6.030370144994e-04 -1.254943404742e-03 0.0 
-1.254943404742e-03 7.624127770070e-04 0.0 
0.0 0.0 0.0 
-4.643237695319e-04 -8.291263527912e-04 0.0 
-8.291263527912e-04 1.466829388166e-03 0.0 
0.0 0.0 0.0 
-4.611125722354e-05 -1.112099987264e-04 0.0 
-1.112099987264e-04 7.327070502389e-03 0.0 
0.0 0.0 0.0 
-3.621543220504e-04 -7.699873370288e-05 0.0 
-7.699873370288e-05 3.781912453252e-03 0.0 
0.0 0.0 0.0 
-3.583995728597e-04 -1.518165574542e-04 0.0 
-1.518165574542e-04 3.588471987491e-03 0.0 
0.0 0.0 0.0 
-3.467303041207e-04 -1.474869209903e-04 0.0 
-1.474869209903e-04 3.229309887111e-03 0.0 
0.0 0.0 0.0 
-3.449800818654e-04 -2.398594090277e-04 0.0 
-2.398594090277e-04 3.395297713226e-03 0.0 
0.0 0.0 0.0 
-3.544382394161e-04 -1.452261711289e-04 0.0 
-1.452261711289e-04 3.918402705392e-03 0.0 
0.0 0.0 0.0 
-3.345621568318e-04 -6.943596010301e-05 0.0 
-6.943596010301e-05 3.035110398149e-03 0.0 
0.0 0.0 0.0 
-3.198575925748e-04 -1.361698428055e-04 0.0 
-1.361698428055e-04 2.884764319295e-03 0.0 
0.0 0.0 0.0 
4.978057461840e-04 -7.410056404524e-06 0.0 
-7.410056404524e-06 4.589019307037e-05 0.0 
0.0 0.0 0.0 
3.331088611442e-04 -2.102796607055e-05 0.0 
-2.102796607055e-05 4.341908001370e-04 0.0 
0.0 0.0 0.0 
3.672633925979e-04 2.818829311657e-06 0.0 
2.818829311657e-06 3.862967794364e-04 0.0 
0.0 0.0 0.0 
1.740211290250e-04 -3.225509508610e-05 0.0 
-3.225509508610e-05 8.568935193026e-04 0.0 
0.0 0.0 0.0 
1.704877611467e-04 -5.298938521244e-05 0.0 
-5.298938521244e-05 8.471804894155e-04 0.0 
0.0 0.0 0.0 
3.203505712009e-04 -2.900218554341e-05 0.0 
-2.900218554341e-05 4.419185099320e-04 0.0 
0.0 0.0 0.0 
2.894648540193e-04 -3.627048614733e-05 0.0 
-3.627048614733e-05 4.548113275601e-04 0.0 
0.0 0.0 0.0 
4.720093578812e-04 -1.304963069775e-05 0.0 
-1.304963069775e-05 5.651043468241e-05 0.0 
0.0 0.0 0.0 
2.487372356350e-04 -5.238780779060e-05 0.0 
-5.238780779060e-05 4.739065756035e-04 0.0 
0.0 0.0 0.0 
8.926129933777e-05 -1.031250257535e-04 0.0 
-1.031250257535e-04 8.937306918801e-04 0.0 
0.0 0.0 0.0 
4.578158077433e-04 -2.013199187334e-05 0.0 
-2.013199187334e-05 5.309913388019e-05 0.0 
0.0 0.0 0.0 
-3.103385552695e-04 1.938651206835e-05 0.0 
1.938651206835e-05 8.532428086546e-03 0.0 
0.0 0.0 0.0 
-2.840942093824e-04 4.793825114054e-05 0.0 
4.793825114054e-05 8.742818869941e-03 0.0 
0.0 0.0 0.0 
1.112069757083e-04 -2.004941396580e-05 0.0 
-2.004941396580e-05 6.948830757575e-03 0.0 
0.0 0.0 0.0 
-5.223024767464e-04 6.548883945375e-05 0.0 
6.548883945375e-05 6.694716704089e-03 0.0 
0.0 0.0 0.0 
1.630607124891e-04 -9.793298494553e-05 0.0 
-9.793298494553e-05 1.726912325286e-04 0.0 
0.0 0.0 0.0 
-9.400479262626e-05 1.888847300466e-04 0.0 
1.888847300466e-04 9.833439383760e-03 0.0 
0.0 0.0 0.0 
-9.216758842706e-05 3.390172383479e-04 0.0 
3.390172383479e-04 9.847272375909e-03 0.0 
0.0 0.0 0.0 
-8.229290645754e-05 2.923273083862e-04 0.0 
2.923273083862e-04 9.871650311738e-03 0.0 
0.0 0.0 0.0 
-1.461488902793e-04 -3.237630241143e-05 0.0 
-3.237630241143e-05 6.791576323146e-03 0.0 
0.0 0.0 0.0 
-1.145340717542e-04 -6.096188698096e-05 0.0 
-6.096188698096e-05 6.968166817290e-03 0.0 
0.0 0.0 0.0 
-8.531893222228e-05 1.079159713717e-04 0.0 
1.079159713717e-04 9.857904222454e-03 0.0 
0.0 0.0 0.0 
-2.866761868635e-04 -8.761818266336e-04 0.0 
-8.761818266336e-04 2.235917646467e-03 0.0 
0.0 0.0 0.0 
-2.688263274922e-04 8.566451491685e-04 0.0 
8.566451491685e-04 9.012676375772e-03 0.0 
0.0 0.0 0.0 
-2.346727032390e-04 1.895330419775e-04 0.0 
1.895330419775e-04 9.197637168987e-03 0.0 
0.0 0.0 0.0 
1.715582157649e-03 2.464303095226e-03 0.0 
2.464303095226e-03 -1.871331024420e-03 0.0 
0.0 0.0 0.0 
-5.776037046229e-05 -1.433906752774e-03 0.0 
-1.433906752774e-03 1.582145706013e-03 0.0 
0.0 0.0 0.0 
-2.079417997311e-04 -1.565412142466e-04 0.0 
-1.565412142466e-04 5.564103580382e-03 0.0 
0.0 0.0 0.0 
8.751211766537e-05 -4.403252184007e-04 0.0 
-4.403252184007e-04 4.669377836181e-03 0.0 
0.0 0.0 0.0 
-8.620096643756e-05 -1.646083474620e-04 0.0 
-1.646083474620e-04 6.286142369317e-03 0.0 
0.0 0.0 0.0 
-1.365481375982e-04 -2.910676830026e-04 0.0 
-2.910676830026e-04 5.097956921688e-03 0.0 
0.0 0.0 0.0 
1.307683931745e-05 -2.433023382585e-04 0.0 
-2.433023382585e-04 5.778949701435e-03 0.0 
0.0 0.0 0.0 
3.811703985561e-04 3.639469814308e-04 0.0 
3.639469814308e-04 6.330204792706e-03 0.0 
0.0 0.0 0.0 
-6.721173363959e-05 -1.259056943468e-04 0.0 
-1.259056943468e-04 1.544321099996e-03 0.0 
0.0 0.0 0.0 
-4.636311922017e-04 1.560913510275e-04 0.0 
1.560913510275e-04 7.787782238787e-03 0.0 
0.0 0.0 0.0 
-4.284767874291e-04 8.449657561852e-05 0.0 
8.449657561852e-05 7.651855148139e-03 0.0 
0.0 0.0 0.0 
-3.433385413917e-04 1.774602323537e-04 0.0 
1.774602323537e-04 8.612010003093e-03 0.0 
0.0 0.0 0.0 
-3.166427382342e-04 -4.835872042489e-04 0.0 
-4.835872042489e-04 2.578182181168e-03 0.0 
0.0 0.0 0.0 
-3.029344723992e-04 -2.819024639571e-04 0.0 
-2.819024639571e-04 4.095213034841e-03 0.0 
0.0 0.0 0.0 
-2.754581744915e-04 -4.172163162390e-04 0.0 
-4.172163162390e-04 1.661775927010e-03 0.0 
0.0 0.0 0.0 
-1.314415548426e-05 1.260560461384e-03 0.0 
1.260560461384e-03 7.970312793574e-03 0.0 
0.0 0.0 0.0 
-6.364818290384e-04 9.270877865928e-04 0.0 
9.270877865928e-04 5.992146031121e-03 0.0 
0.0 0.0 0.0 
7.571255724340e-04 -7.350038734878e-04 0.0 
-7.350038734878e-04 2.892011138769e-03 0.0 
0.0 0.0 0.0 
-1.717779826579e-04 -7.100619457792e-04 0.0 
-7.100619457792e-04 3.123633380238e-03 0.0 
0.0 0.0 0.0 
-1.703277674306e-04 -1.039100204678e-03 0.0 
-1.039100204678e-03 2.248690259059e-03 0.0 
0.0 0.0 0.0 
4.127648231026e-05 -1.674238284808e-03 0.0 
-1.674238284808e-03 1.146690200479e-03 0.0 
0.0 0.0 0.0 
2.684712281370e-04 1.707427975194e-03 0.0 
1.707427975194e-03 3.791608754860e-03 0.0 
0.0 0.0 0.0 
2.543700337327e-04 -8.251216049784e-04 0.0 
-8.251216049784e-04 3.226841742401e-03 0.0 
0.0 0.0 0.0 
3.648422506753e-04 -2.993686454623e-04 0.0 
-2.993686454623e-04 5.016947823839e-03 0.0 
0.0 0.0 0.0 
-3.004613257775e-04 1.636701021920e-04 0.0 
1.636701021920e-04 8.825619415424e-03 0.0 
0.0 0.0 0.0 
3.233505364463e-04 -4.090711341405e-05 0.0 
-4.090711341405e-05 1.493245069336e-04 0.0 
0.0 0.0 0.0 
4.307734534819e-04 -2.161234330231e-04 0.0 
-2.161234330231e-04 5.165766789683e-03 0.0 
0.0 0.0 0.0 
3.022567922204e-04 -5.811372912492e-04 0.0 
-5.811372912492e-04 4.026730162555e-03 0.0 
0.0 0.0 0.0 
-5.085267902010e-04 2.584568311271e-04 0.0 
2.584568311271e-04 7.900861181799e-03 0.0 
0.0 0.0 0.0 
8.409875478203e-04 6.863030437733e-04 0.0 
6.863030437733e-04 4.939378755119e-03 0.0 
0.0 0.0 0.0 
1.235482027568e-04 -2.249762403144e-03 0.0 
-2.249762403144e-03 -2.466316868726e-04 0.0 
0.0 0.0 0.0 
-3.648364467827e-04 2.895466359044e-04 0.0 
2.895466359044e-04 8.716845536659e-03 0.0 
0.0 0.0 0.0 
-2.707441720080e-04 5.514276401563e-04 0.0 
5.514276401563e-04 9.231986522892e-03 0.0 
0.0 0.0 0.0 
-5.822115942281e-04 2.631869233576e-04 0.0 
2.631869233576e-04 7.440623035555e-03 0.0 
0.0 0.0 0.0 
-1.643096255875e-04 -2.934126694211e-04 0.0 
-2.934126694211e-04 1.254800917930e-03 0.0 
0.0 0.0 0.0 
-4.899374507497e-04 1.146983746463e-04 0.0 
1.146983746463e-04 7.382454492742e-03 0.0 
0.0 0.0 0.0 
3.619490457980e-04 4.462464699067e-05 0.0 
4.462464699067e-05 6.069806820433e-03 0.0 
0.0 0.0 0.0 
-4.695423346101e-04 5.375759039232e-04 0.0 
5.375759039232e-04 8.443317901092e-03 0.0 
0.0 0.0 0.0 
-2.993931775458e-04 -3.591378086362e-04 0.0 
-3.591378086362e-04 2.409328871614e-03 0.0 
0.0 0.0 0.0 
1.452896640425e-03 2.834009303857e-04 0.0 
2.834009303857e-04 2.366012386054e-03 0.0 
0.0 0.0 0.0 
-2.609657538705e-04 1.410794208777e-03 0.0 
1.410794208777e-03 5.032620105152e-03 0.0 
0.0 0.0 0.0 
-7.242573286789e-04 3.525591839373e-04 0.0 
3.525591839373e-04 6.101433103537e-03 0.0 
0.0 0.0 0.0 
-2.112008545441e-04 2.350571482088e-04 0.0 
2.350571482088e-04 9.344522447898e-03 0.0 
0.0 0.0 0.0 
7.473090618418e-04 1.390403520260e-03 0.0 
1.390403520260e-03 3.798649452485e-03 0.0 
0.0 0.0 0.0 
7.386501647656e-04 4.668603340537e-04 0.0 
4.668603340537e-04 5.287167752372e-03 0.0 
0.0 0.0 0.0 
1.175283444984e-03 3.523148522782e-04 0.0 
3.523148522782e-04 3.575090410236e-03 0.0 
0.0 0.0 0.0 
-3.047932076481e-04 -2.857296857405e-04 0.0 
-2.857296857405e-04 2.604179223225e-03 0.0 
0.0 0.0 0.0 
2.096966770604e-04 -2.076245557237e-04 0.0 
-2.076245557237e-04 5.792076793800e-03 0.0 
0.0 0.0 0.0 
1.310384168686e-03 1.014118927862e-03 0.0 
1.014118927862e-03 2.583637867630e-03 0.0 
0.0 0.0 0.0 
-2.941268009226e-04 3.316202411785e-04 0.0 
3.316202411785e-04 9.081263003712e-03 0.0 
0.0 0.0 0.0 
-1.155217388738e-04 1.188644075119e-03 0.0 
1.188644075119e-03 6.744851739717e-03 0.0 
0.0 0.0 0.0 
1.806942507404e-03 5.742471450517e-04 0.0 
5.742471450517e-04 8.128487310899e-04 0.0 
0.0 0.0 0.0 
-3.838137180610e-04 4.295756083862e-04 0.0 
4.295756083862e-04 8.781891310785e-03 0.0 
0.0 0.0 0.0 
1.090162900693e-03 -5.371826592125e-04 0.0 
-5.371826592125e-04 2.556138899842e-03 0.0 
0.0 0.0 0.0 
7.168140497917e-04 8.076657199041e-04 0.0 
8.076657199041e-04 5.371339087521e-03 0.0 
0.0 0.0 0.0 
-6.142252594199e-04 1.031314230296e-03 0.0 
1.031314230296e-03 5.666130557263e-03 0.0 
0.0 0.0 0.0 
-2.096811103354e-04 1.229211542771e-03 0.0 
1.229211542771e-03 6.063557798675e-03 0.0 
0.0 0.0 0.0 
-4.620500985989e-04 9.518986864972e-04 0.0 
9.518986864972e-04 7.221548834921e-03 0.0 
0.0 0.0 0.0 
1.927159473012e-04 1.404011774530e-03 0.0 
1.404011774530e-03 5.022103951376e-03 0.0 
0.0 0.0 0.0 
-2.522419808502e-04 -1.145160759105e-04 0.0 
-1.145160759105e-04 5.395905480394e-03 0.0 
0.0 0.0 0.0 
3.128509469488e-04 -2.136127925786e-04 0.0 
-2.136127925786e-04 5.484693489748e-03 0.0 
0.0 0.0 0.0 
2.452977739317e-03 -8.830072312405e-04 0.0 
-8.830072312405e-04 -3.457674027911e-03 0.0 
0.0 0.0 0.0 
5.409595264168e-05 1.986940602549e-03 0.0 
1.986940602549e-03 3.211299577233e-03 0.0 
0.0 0.0 0.0 
-5.476905749265e-04 3.255188315170e-04 0.0 
3.255188315170e-04 7.825843649177e-03 0.0 
0.0 0.0 0.0 
9.704195234154e-05 1.208494556247e-03 0.0 
1.208494556247e-03 7.022329062101e-03 0.0 
0.0 0.0 0.0 
-2.107387804846e-04 3.709145459052e-04 0.0 
3.709145459052e-04 9.433075433929e-03 0.0 
0.0 0.0 0.0 
-3.580570247620e-04 1.452213902443e-03 0.0 
1.452213902443e-03 4.771556972933e-03 0.0 
0.0 0.0 0.0 
1.542421989490e-04 -2.535386368414e-04 0.0 
-2.535386368414e-04 5.638016962934e-03 0.0 
0.0 0.0 0.0 
-3.010293518024e-04 4.808755690692e-04 0.0 
4.808755690692e-04 9.124222944767e-03 0.0 
0.0 0.0 0.0 
1.407431330458e-04 -7.205402136872e-04 0.0 
-7.205402136872e-04 3.572163217387e-03 0.0 
0.0 0.0 0.0 
-1.184539760913e-04 -4.302306122235e-05 0.0 
-4.302306122235e-05 1.812264470779e-03 0.0 
0.0 0.0 0.0 
1.405589715643e-03 2.674015089715e-03 0.0 
2.674015089715e-03 -2.146072535963e-03 0.0 
0.0 0.0 0.0 
2.148530122222e-03 6.738955426749e-04 0.0 
6.738955426749e-04 -7.199580070727e-04 0.0 
0.0 0.0 0.0 
9.630241639372e-04 1.353948149346e-03 0.0 
1.353948149346e-03 3.213672502644e-03 0.0 
0.0 0.0 0.0 
1.719782999355e-04 -6.148605051092e-04 0.0 
-6.148605051092e-04 3.957228144011e-03 0.0 
0.0 0.0 0.0 
-2.391611814160e-04 7.580211341995e-04 0.0 
7.580211341995e-04 9.228498351440e-03 0.0 
0.0 0.0 0.0 
7.392723040641e-05 -2.249513090108e-04 0.0 
-2.249513090108e-04 5.925077474878e-03 0.0 
0.0 0.0 0.0 
7.300493193785e-04 -5.099693499589e-05 0.0 
-5.099693499589e-05 4.706117375843e-03 0.0 
0.0 0.0 0.0 
-9.828165630262e-04 2.678047418165e-03 0.0 
2.678047418165e-03 6.025011473322e-04 0.0 
0.0 0.0 0.0 
-7.358130352089e-04 4.672541029525e-04 0.0 
4.672541029525e-04 6.186813651828e-03 0.0 
0.0 0.0 0.0 
9.697628902627e-06 -1.959417919793e-04 0.0 
-1.959417919793e-04 6.198782075404e-03 0.0 
0.0 0.0 0.0 
1.356845239142e-03 7.905850773052e-05 0.0 
7.905850773052e-05 2.632796499005e-03 0.0 
0.0 0.0 0.0 
6.963062905377e-04 6.981757816144e-04 0.0 
6.981757816144e-04 5.481310304528e-03 0.0 
0.0 0.0 0.0 
-3.301697539051e-04 -1.185819206175e-04 0.0 
-1.185819206175e-04 4.453169153669e-03 0.0 
0.0 0.0 0.0 
3.911367539944e-05 1.256680333029e-03 0.0 
1.256680333029e-03 7.758614494389e-03 0.0 
0.0 0.0 0.0 
-7.784057573923e-04 7.313619388058e-04 0.0 
7.313619388058e-04 5.172655290781e-03 0.0 
0.0 0.0 0.0 
-3.947770847299e-05 -1.684508893840e-04 0.0 
-1.684508893840e-04 6.463307310303e-03 0.0 
0.0 0.0 0.0 
8.502027217049e-04 1.693930355677e-04 0.0 
1.693930355677e-04 4.653715523062e-03 0.0 
0.0 0.0 0.0 
1.013501469433e-03 2.137220305655e-03 0.0 
2.137220305655e-03 1.261269497925e-03 0.0 
0.0 0.0 0.0 
-4.338204350667e-04 1.020764814349e-05 0.0 
1.020764814349e-05 6.636426271149e-03 0.0 
0.0 0.0 0.0 
-3.178726629828e-05 -1.462481838884e-04 0.0 
-1.462481838884e-04 6.938357467077e-03 0.0 
0.0 0.0 0.0 
7.031149031748e-04 2.354428687535e-04 0.0 
2.354428687535e-04 5.217990366641e-03 0.0 
0.0 0.0 0.0 
2.172119118176e-04 1.326882157502e-03 0.0 
1.326882157502e-03 5.390284420950e-03 0.0 
0.0 0.0 0.0 
1.348352691298e-03 -1.815493671470e-04 0.0 
-1.815493671470e-04 2.349551017902e-03 0.0 
0.0 0.0 0.0 
-7.508718988520e-04 4.218093410000e-04 0.0 
4.218093410000e-04 5.633215664087e-03 0.0 
0.0 0.0 0.0 
7.253525500595e-05 -5.286277180080e-04 0.0 
-5.286277180080e-04 4.273267349965e-03 0.0 
0.0 0.0 0.0 
-2.847285581592e-04 1.153181576417e-03 0.0 
1.153181576417e-03 6.467626323021e-03 0.0 
0.0 0.0 0.0 
-1.072442802161e-04 6.525857016621e-04 0.0 
6.525857016621e-04 9.690646567424e-03 0.0 
0.0 0.0 0.0 
6.450584162765e-04 3.704318266726e-04 0.0 
3.704318266726e-04 5.503610194322e-03 0.0 
0.0 0.0 0.0 
-5.919543618885e-04 5.963280480781e-04 0.0 
5.963280480781e-04 7.692304166316e-03 0.0 
0.0 0.0 0.0 
-3.648251148528e-05 -5.207691873152e-04 0.0 
-5.207691873152e-04 4.186823525067e-03 0.0 
0.0 0.0 0.0 
7.589650846019e-04 1.075961268651e-03 0.0 
1.075961268651e-03 4.719339585859e-03 0.0 
0.0 0.0 0.0 
1.463287564600e-04 -7.020121819465e-05 0.0 
-7.020121819465e-05 8.568444723382e-04 0.0 
0.0 0.0 0.0 
-7.608202173892e-04 5.695475890579e-04 0.0 
5.695475890579e-04 5.693455949088e-03 0.0 
0.0 0.0 0.0 
-1.046302701625e-04 -4.286859984782e-04 0.0 
-4.286859984782e-04 4.462223139584e-03 0.0 
0.0 0.0 0.0 
2.086345438594e-03 1.383061242568e-04 0.0 
1.383061242568e-04 -4.460089272059e-04 0.0 
0.0 0.0 0.0 
1.185486820119e-03 -3.122136902320e-04 0.0 
-3.122136902320e-04 2.714116015338e-03 0.0 
0.0 0.0 0.0 
3.362059270687e-04 1.018558282786e-03 0.0 
1.018558282786e-03 6.742427768167e-03 0.0 
0.0 0.0 0.0 
-1.595928858289e-04 -3.425047670157e-04 0.0 
-3.425047670157e-04 4.719512297875e-03 0.0 
0.0 0.0 0.0 
1.912538849314e-03 1.781465549989e-04 0.0 
1.781465549989e-04 3.280338365646e-04 0.0 
0.0 0.0 0.0 
-2.018181024143e-04 -2.623418621145e-04 0.0 
-2.623418621145e-04 4.959196575601e-03 0.0 
0.0 0.0 0.0 
-7.714028949914e-04 5.316678021393e-04 0.0 
5.316678021393e-04 5.164179289219e-03 0.0 
0.0 0.0 0.0 
-5.599794049533e-04 6.872026809199e-04 0.0 
6.872026809199e-04 7.765377308122e-03 0.0 
0.0 0.0 0.0 
-2.322329914229e-04 -1.873484706805e-04 0.0 
-1.873484706805e-04 5.183878477656e-03 0.0 
0.0 0.0 0.0 
-2.298114648764e-04 1.146856711908e-03 0.0 
1.146856711908e-03 6.798909135239e-03 0.0 
0.0 0.0 0.0 
1.602488720349e-05 -1.589365604689e-04 0.0 
-1.589365604689e-04 9.593335230143e-04 0.0 
0.0 0.0 0.0 
3.696426432023e-04 1.286652489500e-03 0.0 
1.286652489500e-03 5.289117151205e-03 0.0 
0.0 0.0 0.0 
-1.562197237598e-04 -6.866541598417e-05 0.0 
-6.866541598417e-05 6.564632698112e-03 0.0 
0.0 0.0 0.0 
2.371797985117e-04 -1.214455825212e-03 0.0 
-1.214455825212e-03 2.133512288897e-03 0.0 
0.0 0.0 0.0 
1.016342326033e-03 -3.915906249802e-04 0.0 
-3.915906249802e-04 3.091890750735e-03 0.0 
0.0 0.0 0.0 
-4.884517167492e-04 7.501520786438e-04 0.0 
7.501520786438e-04 8.101078721967e-03 0.0 
0.0 0.0 0.0 
-7.989584707144e-04 6.861023580198e-04 0.0 
6.861023580198e-04 4.689145960064e-03 0.0 
0.0 0.0 0.0 
9.318851243488e-04 -2.631518249624e-04 0.0 
-2.631518249624e-04 3.627217778266e-03 0.0 
0.0 0.0 0.0 
-1.825880721658e-04 1.148821380536e-03 0.0 
1.148821380536e-03 7.146569307296e-03 0.0 
0.0 0.0 0.0 
5.008582197831e-04 1.220857974506e-03 0.0 
1.220857974506e-03 5.224080699070e-03 0.0 
0.0 0.0 0.0 
9.059843130432e-04 1.237910910590e-03 0.0 
1.237910910590e-03 3.712193744106e-03 0.0 
0.0 0.0 0.0 
8.373654740798e-04 -1.493546771730e-04 0.0 
-1.493546771730e-04 4.165380889953e-03 0.0 
0.0 0.0 0.0 
-7.972932901022e-04 9.556535124698e-04 0.0 
9.556535124698e-04 4.626334866415e-03 0.0 
0.0 0.0 0.0 
-2.869395256501e-04 -1.037812147813e-03 0.0 
-1.037812147813e-03 1.982075451717e-03 0.0 
0.0 0.0 0.0 
-3.948865541494e-04 -9.747623473612e-04 0.0 
-9.747623473612e-04 1.728795683655e-03 0.0 
0.0 0.0 0.0 
1.772112697036e-03 -1.734294922440e-04 0.0 
-1.734294922440e-04 6.860986000886e-04 0.0 
0.0 0.0 0.0 
-2.292442633596e-04 1.115257060581e-03 0.0 
1.115257060581e-03 7.529576305023e-03 0.0 
0.0 0.0 0.0 
3.409034782414e-05 -7.078521178225e-05 0.0 
-7.078521178225e-05 1.255107294450e-03 0.0 
0.0 0.0 0.0 
-4.604130037162e-04 8.678453320157e-04 0.0 
8.678453320157e-04 7.850462033853e-03 0.0 
0.0 0.0 0.0 
-5.288852489125e-04 -9.652775658353e-04 0.0 
-9.652775658353e-04 1.269918104534e-03 0.0 
0.0 0.0 0.0 
1.695426266719e-03 -5.916807429988e-04 0.0 
-5.916807429988e-04 4.514535775448e-04 0.0 
0.0 0.0 0.0 
5.261325846787e-04 1.090421246509e-03 0.0 
1.090421246509e-03 5.702755017891e-03 0.0 
0.0 0.0 0.0 
-3.853962276350e-04 7.409175554487e-06 0.0 
7.409175554487e-06 7.766541750080e-03 0.0 
0.0 0.0 0.0 
1.447445639636e-03 -7.870466535866e-04 0.0 
-7.870466535866e-04 9.661293953107e-04 0.0 
0.0 0.0 0.0 
-2.178232130567e-04 -5.212976726206e-05 0.0 
-5.212976726206e-05 2.241021607700e-03 0.0 
0.0 0.0 0.0 
1.226672902748e-03 -1.107091004145e-03 0.0 
-1.107091004145e-03 9.413343195573e-04 0.0 
0.0 0.0 0.0 
8.377775747437e-04 1.145626244579e-03 0.0 
1.145626244579e-03 4.212659256287e-03 0.0 
0.0 0.0 0.0 
9.693557282248e-04 -1.128552662908e-03 0.0 
-1.128552662908e-03 1.487365904965e-03 0.0 
0.0 0.0 0.0 
6.903803170416e-04 -1.292498849438e-03 0.0 
-1.292498849438e-03 1.571423382978e-03 0.0 
0.0 0.0 0.0 
-1.610595696771e-04 2.118896536533e-04 0.0 
2.118896536533e-04 9.556073722167e-03 0.0 
0.0 0.0 0.0 
4.906453781150e-04 -1.191690407834e-03 0.0 
-1.191690407834e-03 2.051233951506e-03 0.0 
0.0 0.0 0.0 
-6.927940654546e-05 6.051408564248e-05 0.0 
6.051408564248e-05 9.922774347475e-03 0.0 
0.0 0.0 0.0 
-5.819781369110e-05 -5.856432947409e-05 0.0 
-5.856432947409e-05 7.401395599480e-03 0.0 
0.0 0.0 0.0 
-4.234191893502e-04 1.748466412053e-06 0.0 
1.748466412053e-06 6.954676877667e-03 0.0 
0.0 0.0 0.0 
-8.198583785440e-04 8.385052337857e-04 0.0 
8.385052337857e-04 4.213034683067e-03 0.0 
0.0 0.0 0.0 
-9.749076259471e-04 1.040277478839e-04 0.0 
1.040277478839e-04 -4.250459592890e-03 0.0 
0.0 0.0 0.0 
-8.288456899697e-04 1.353228158005e-03 0.0 
1.353228158005e-03 3.998687966131e-03 0.0 
0.0 0.0 0.0 
1.099329140679e-04 -1.339770936129e-03 0.0 
-1.339770936129e-03 1.833225889640e-03 0.0 
0.0 0.0 0.0 
-3.951572106059e-04 9.876927612174e-04 0.0 
9.876927612174e-04 7.541840127709e-03 0.0 
0.0 0.0 0.0 
-4.256947608270e-04 1.659014757849e-05 0.0 
1.659014757849e-05 6.971781850087e-03 0.0 
0.0 0.0 0.0 
-1.267012094014e-04 -1.223722058630e-03 0.0 
-1.223722058630e-03 1.939690136311e-03 0.0 
0.0 0.0 0.0 
-1.919748316891e-04 1.062486003741e-03 0.0 
1.062486003741e-03 8.813973415713e-03 0.0 
0.0 0.0 0.0 
6.368288422017e-05 1.274638697400e-03 0.0 
1.274638697400e-03 7.850368518199e-03 0.0 
0.0 0.0 0.0 
-3.343446480981e-04 4.115876023003e-05 0.0 
4.115876023003e-05 8.343536908929e-03 0.0 
0.0 0.0 0.0 
6.421268684728e-04 6.012691724905e-04 0.0 
6.012691724905e-04 5.623862544290e-03 0.0 
0.0 0.0 0.0 
6.017711183412e-04 1.132318527850e-03 0.0 
1.132318527850e-03 5.209875923378e-03 0.0 
0.0 0.0 0.0 
-2.041633863373e-04 2.802458753690e-05 0.0 
2.802458753690e-05 9.252443880530e-03 0.0 
0.0 0.0 0.0 
-4.693946363918e-04 2.012160375274e-05 0.0 
2.012160375274e-05 6.611710475245e-03 0.0 
0.0 0.0 0.0 
-2.712467935420e-04 -3.950193347547e-04 0.0 
-3.950193347547e-04 5.934969060350e-04 0.0 
0.0 0.0 0.0 
-2.540043778142e-04 -5.203501981177e-05 0.0 
-5.203501981177e-05 5.616740864413e-03 0.0 
0.0 0.0 0.0 
-9.044524492956e-04 1.105166190690e-03 0.0 
1.105166190690e-03 3.735449943691e-03 0.0 
0.0 0.0 0.0 
-8.861608674449e-04 1.843291500007e-03 0.0 
1.843291500007e-03 3.254637789009e-03 0.0 
0.0 0.0 0.0 
-7.305696052009e-04 2.483910747975e-03 0.0 
2.483910747975e-03 2.131333498946e-03 0.0 
0.0 0.0 0.0 
-3.146615558637e-04 -2.101296112353e-04 0.0 
-2.101296112353e-04 2.761210150813e-03 0.0 
0.0 0.0 0.0 
-5.857676308673e-04 -1.719361863460e-03 0.0 
-1.719361863460e-03 3.786516228276e-04 0.0 
0.0 0.0 0.0 
-1.030880751811e-03 1.561186661449e-03 0.0 
1.561186661449e-03 3.221127987337e-03 0.0 
0.0 0.0 0.0 
3.829253993055e-04 7.237829726788e-04 0.0 
7.237829726788e-04 6.480889753923e-03 0.0 
0.0 0.0 0.0 
-5.352011891316e-04 1.063146250590e-04 0.0 
1.063146250590e-04 6.980642817276e-03 0.0 
0.0 0.0 0.0 
3.926936779026e-04 1.131347617676e-03 0.0 
1.131347617676e-03 6.143879269751e-03 0.0 
0.0 0.0 0.0 
-1.026051344881e-03 2.108950597792e-03 0.0 
2.108950597792e-03 2.289026589924e-03 0.0 
0.0 0.0 0.0 
-2.080378789821e-04 5.266617387257e-04 0.0 
5.266617387257e-04 9.448260052422e-03 0.0 
0.0 0.0 0.0 
2.121428491280e-04 1.150648057440e-03 0.0 
1.150648057440e-03 7.143173464511e-03 0.0 
0.0 0.0 0.0 
4.847805995282e-05 -1.235241505640e-04 0.0 
-1.235241505640e-04 7.122956353257e-03 0.0 
0.0 0.0 0.0 
3.173533252816e-04 1.123871246529e-03 0.0 
1.123871246529e-03 6.614172753738e-03 0.0 
0.0 0.0 0.0 
-3.035262047155e-04 2.953435283324e-03 0.0 
2.953435283324e-03 2.730511971463e-04 0.0 
0.0 0.0 0.0 
-6.094106575042e-04 2.733462000131e-04 0.0 
2.733462000131e-04 7.263418751446e-03 0.0 
0.0 0.0 0.0 
-6.253030586264e-05 1.243091195379e-03 0.0 
1.243091195379e-03 8.159967347778e-03 0.0 
0.0 0.0 0.0 
-3.037286450114e-04 7.144550870028e-05 0.0 
7.144550870028e-05 8.649088092241e-03 0.0 
0.0 0.0 0.0 
1.129016613766e-05 -1.412936313884e-04 0.0 
-1.412936313884e-04 7.254954331668e-03 0.0 
0.0 0.0 0.0 
-5.817355356336e-04 1.587746004422e-04 0.0 
1.587746004422e-04 6.916886568022e-03 0.0 
0.0 0.0 0.0 
-1.369883707107e-04 1.407388328724e-04 0.0 
1.407388328724e-04 9.618881831620e-03 0.0 
0.0 0.0 0.0 
1.929694106422e-03 -1.706474152404e-03 0.0 
-1.706474152404e-03 -3.139784742494e-03 0.0 
0.0 0.0 0.0 
-1.297529215047e-04 7.423524353902e-05 0.0 
7.423524353902e-05 9.630979571413e-03 0.0 
0.0 0.0 0.0 
-3.268872874777e-04 1.026825843279e-03 0.0 
1.026825843279e-03 7.875639271103e-03 0.0 
0.0 0.0 0.0 
-4.271361216775e-04 6.296869450034e-05 0.0 
6.296869450034e-05 7.476866446394e-03 0.0 
0.0 0.0 0.0 
-6.502973908409e-04 3.753086208832e-04 0.0 
3.753086208832e-04 7.179733950538e-03 0.0 
0.0 0.0 0.0 
-7.967659637396e-05 -8.564316536692e-05 0.0 
-8.564316536692e-05 7.125788583404e-03 0.0 
0.0 0.0 0.0 
-2.226726125684e-04 9.241835131975e-04 0.0 
9.241835131975e-04 9.055318485329e-03 0.0 
0.0 0.0 0.0 
2.545797971151e-05 3.044772161659e-03 0.0 
3.044772161659e-03 -1.055992992452e-03 0.0 
0.0 0.0 0.0 
-3.426121524286e-04 6.884938640511e-05 0.0 
6.884938640511e-05 8.320879664063e-03 0.0 
0.0 0.0 0.0 
-3.303473011760e-04 -3.328441613134e-04 0.0 
-3.328441613134e-04 3.360755501753e-03 0.0 
0.0 0.0 0.0 
6.323133472969e-04 -1.614009244320e-03 0.0 
-1.614009244320e-03 -4.007249003659e-03 0.0 
0.0 0.0 0.0 
1.770019004284e-04 -4.856107418085e-05 0.0 
-4.856107418085e-05 6.583785203296e-03 0.0 
0.0 0.0 0.0 
-2.567670621458e-04 1.068386976354e-03 0.0 
1.068386976354e-03 8.198900931099e-03 0.0 
0.0 0.0 0.0 
-5.695749757464e-05 -1.242623382461e-04 0.0 
-1.242623382461e-04 7.037547082161e-03 0.0 
0.0 0.0 0.0 
1.934477600382e-04 -3.585531088182e-06 0.0 
-3.585531088182e-06 8.354037923409e-04 0.0 
0.0 0.0 0.0 
2.567634720367e-05 -1.409153157819e-04 0.0 
-1.409153157819e-04 4.907899245163e-04 0.0 
0.0 0.0 0.0 
2.473638467022e-04 7.796419902400e-05 0.0 
7.796419902400e-05 6.536415972718e-03 0.0 
0.0 0.0 0.0 
-1.390806198647e-04 1.174178188860e-03 0.0 
1.174178188860e-03 8.573744703663e-03 0.0 
0.0 0.0 0.0 
1.355224512382e-03 -2.150917310763e-03 0.0 
-2.150917310763e-03 -1.946568762487e-03 0.0 
0.0 0.0 0.0 
-8.461833352218e-05 4.616478195667e-04 0.0 
4.616478195667e-04 9.857769747841e-03 0.0 
0.0 0.0 0.0 
-8.867321953709e-05 2.866063599959e-03 0.0 
2.866063599959e-03 -2.220511584589e-03 0.0 
0.0 0.0 0.0 
-5.005247967637e-04 4.490956111868e-05 0.0 
4.490956111868e-05 6.569322810836e-03 0.0 
0.0 0.0 0.0 
2.163048232020e-04 -7.500083484686e-05 0.0 
-7.500083484686e-05 4.584995649506e-04 0.0 
0.0 0.0 0.0 
-7.546850428652e-06 -1.557454873541e-04 0.0 
-1.557454873541e-04 7.322650036290e-03 0.0 
0.0 0.0 0.0 
-1.661902111151e-04 3.456203003445e-04 0.0 
3.456203003445e-04 9.581981396246e-03 0.0 
0.0 0.0 0.0 
-3.490627091389e-04 -2.088422952740e-04 0.0 
-2.088422952740e-04 3.735709099252e-03 0.0 
0.0 0.0 0.0 
-6.711043021012e-04 2.714448258704e-04 0.0 
2.714448258704e-04 6.585179590351e-03 0.0 
0.0 0.0 0.0 
-2.722794350109e-04 -1.218458378139e-04 0.0 
-1.218458378139e-04 2.517672264515e-03 0.0 
0.0 0.0 0.0 
8.771468768609e-05 1.233029231323e-03 0.0 
1.233029231323e-03 7.347890352532e-03 0.0 
0.0 0.0 0.0 
-5.419807112642e-04 -8.081085346893e-04 0.0 
-8.081085346893e-04 8.600926999917e-04 0.0 
0.0 0.0 0.0 
-1.463925790158e-04 2.517729259293e-04 0.0 
2.517729259293e-04 9.644928496792e-03 0.0 
0.0 0.0 0.0 
3.074838556146e-04 2.644962467432e-04 0.0 
2.644962467432e-04 6.490462280542e-03 0.0 
0.0 0.0 0.0 
-2.054933708576e-04 7.141129234065e-04 0.0 
7.141129234065e-04 9.381450796071e-03 0.0 
0.0 0.0 0.0 
1.395326345707e-04 9.813695430829e-04 0.0 
9.813695430829e-04 7.311582160033e-03 0.0 
0.0 0.0 0.0 
5.489347288861e-04 9.215137847275e-04 0.0 
9.215137847275e-04 -4.507939553657e-03 0.0 
0.0 0.0 0.0 
1.362436892615e-04 1.212756136516e-03 0.0 
1.212756136516e-03 7.444704022568e-03 0.0 
0.0 0.0 0.0 
5.086877949047e-04 4.158150362878e-04 0.0 
4.158150362878e-04 5.976055567323e-03 0.0 
0.0 0.0 0.0 
-4.520753439922e-04 2.460157635897e-05 0.0 
2.460157635897e-05 6.606167551846e-03 0.0 
0.0 0.0 0.0 
-2.182448749285e-04 8.316744236105e-04 0.0 
8.316744236105e-04 9.203394529154e-03 0.0 
0.0 0.0 0.0 
-3.378901081884e-04 -2.097983942006e-04 0.0 
-2.097983942006e-04 3.071680570553e-03 0.0 
0.0 0.0 0.0 
-5.282282311918e-05 -1.849603857182e-04 0.0 
-1.849603857182e-04 1.260102563924e-03 0.0 
0.0 0.0 0.0 
-5.525631537220e-05 2.711568382329e-05 0.0 
2.711568382329e-05 9.963751861012e-03 0.0 
0.0 0.0 0.0 
5.728171787947e-04 9.878157929564e-06 0.0 
9.878157929564e-06 -5.205722492914e-05 0.0 
0.0 0.0 0.0 
-4.293122154159e-04 -9.749531266592e-07 0.0 
-9.749531266592e-07 6.577507513591e-03 0.0 
0.0 0.0 0.0 
-4.825510038482e-05 -2.085354427385e-05 0.0 
-2.085354427385e-05 7.496847751340e-03 0.0 
0.0 0.0 0.0 
4.928137098654e-05 -9.111883666569e-05 0.0 
-9.111883666569e-05 1.163606745186e-03 0.0 
0.0 0.0 0.0 
-4.147850610565e-04 1.393258587097e-05 0.0 
1.393258587097e-05 7.258621429263e-03 0.0 
0.0 0.0 0.0 
-1.585439890967e-04 1.125861911009e-03 0.0 
1.125861911009e-03 8.735257843522e-03 0.0 
0.0 0.0 0.0 
-3.371252068268e-04 -5.148924395362e-05 0.0 
-5.148924395362e-05 4.561508268902e-03 0.0 
0.0 0.0 0.0 
-2.390451681483e-04 4.331004296803e-05 0.0 
4.331004296803e-05 9.035488400955e-03 0.0 
0.0 0.0 0.0 
-2.279648074592e-04 -2.161572962510e-03 0.0 
-2.161572962510e-03 -1.053071553691e-04 0.0 
0.0 0.0 0.0 
-1.176860959712e-03 -6.127089952886e-04 0.0 
-6.127089952886e-04 -4.135060416821e-03 0.0 
0.0 0.0 0.0 
-3.700714109973e-04 2.437623824342e-05 0.0 
2.437623824342e-05 7.978133274455e-03 0.0 
0.0 0.0 0.0 
2.376217514037e-04 1.097578276109e-03 0.0 
1.097578276109e-03 7.061843504982e-03 0.0 
0.0 0.0 0.0 
-1.893609993586e-04 5.889600068239e-04 0.0 
5.889600068239e-04 9.503622277626e-03 0.0 
0.0 0.0 0.0 
-4.079681031799e-04 6.360920751144e-05 0.0 
6.360920751144e-05 7.699271689660e-03 0.0 
0.0 0.0 0.0 
9.307485936850e-04 2.850017345344e-03 0.0 
2.850017345344e-03 -1.980449972130e-03 0.0 
0.0 0.0 0.0 
-1.994097534621e-04 1.115505678135e-03 0.0 
1.115505678135e-03 8.458628079685e-03 0.0 
0.0 0.0 0.0 
-3.339832372084e-04 -2.134011557793e-04 0.0 
-2.134011557793e-04 4.001968854191e-03 0.0 
0.0 0.0 0.0 
-5.465126289630e-05 1.226345607265e-03 0.0 
1.226345607265e-03 7.809276919809e-03 0.0 
0.0 0.0 0.0 
5.056511880643e-04 6.324743170348e-04 0.0 
6.324743170348e-04 6.082140488319e-03 0.0 
0.0 0.0 0.0 
-1.049079520283e-03 2.808769203249e-03 0.0 
2.808769203249e-03 -1.649275366988e-03 0.0 
0.0 0.0 0.0 
-3.172928618980e-04 -3.972064162737e-05 0.0 
-3.972064162737e-05 4.882542623301e-03 0.0 
0.0 0.0 0.0 
1.899586488579e-04 -8.986531191533e-05 0.0 
-8.986531191533e-05 4.271974047505e-04 0.0 
0.0 0.0 0.0 
6.196408962187e-05 -1.419669689931e-04 0.0 
-1.419669689931e-04 6.867865378010e-03 0.0 
0.0 0.0 0.0 
-3.424651018977e-04 -1.471942287134e-04 0.0 
-1.471942287134e-04 4.184416865369e-03 0.0 
0.0 0.0 0.0 
-7.070524712711e-04 6.798988000369e-04 0.0 
6.798988000369e-04 3.060539677242e-03 0.0 
0.0 0.0 0.0 
-3.239320454905e-04 7.428925430709e-06 0.0 
7.428925430709e-06 3.017418564877e-03 0.0 
0.0 0.0 0.0 
-7.761779350883e-04 7.229547826580e-04 0.0 
7.229547826580e-04 3.392460199742e-03 0.0 
0.0 0.0 0.0 
-3.149160319821e-04 -5.429594551433e-06 0.0 
-5.429594551433e-06 3.414390540673e-03 0.0 
0.0 0.0 0.0 
-7.350820040639e-04 6.080929262352e-04 0.0 
6.080929262352e-04 3.792470330257e-03 0.0 
0.0 0.0 0.0 
-3.315677561795e-04 -5.987277363097e-06 0.0 
-5.987277363097e-06 3.879753810875e-03 0.0 
0.0 0.0 0.0 
-7.171727243746e-04 4.874542807204e-04 0.0 
4.874542807204e-04 4.203953753410e-03 0.0 
0.0 0.0 0.0 
-3.536561961109e-04 -6.283755337141e-06 0.0 
-6.283755337141e-06 4.294744083779e-03 0.0 
0.0 0.0 0.0 
-7.110865029498e-04 3.780399891210e-04 0.0 
3.780399891210e-04 4.637772681179e-03 0.0 
0.0 0.0 0.0 
-3.759933177223e-04 -5.980431949094e-06 0.0 
-5.980431949094e-06 4.763534820481e-03 0.0 
0.0 0.0 0.0 
-7.062543651482e-04 3.007294022257e-04 0.0 
3.007294022257e-04 5.079248734516e-03 0.0 
0.0 0.0 0.0 
-3.971138086665e-04 -4.709979595997e-06 0.0 
-4.709979595997e-06 5.177577244915e-03 0.0 
0.0 0.0 0.0 
-7.003883621702e-04 2.439061134409e-04 0.0 
2.439061134409e-04 5.528463929620e-03 0.0 
0.0 0.0 0.0 
-4.130442289137e-04 -1.988452500742e-06 0.0 
-1.988452500742e-06 5.640614297506e-03 0.0 
0.0 0.0 0.0 
-6.844443241757e-04 2.129645272207e-04 0.0 
2.129645272207e-04 5.972085758687e-03 0.0 
0.0 0.0 0.0 
-4.275768688422e-04 4.964735551971e-06 0.0 
4.964735551971e-06 6.048269305495e-03 0.0 
0.0 0.0 0.0 

TENSORS node_materi_strain_plasti float
5.167194390135e-04 2.792726192703e-05 0.0 
2.792726192703e-05 -5.091425601016e-05 0.0 
0.0 0.0 -1.110302485635e-04 
-8.159302679306e-04 -1.118602645032e-04 0.0 
-1.118602645032e-04 4.584923598267e-03 0.0 
0.0 0.0 -6.959116756397e-04 
-1.346400199288e-03 7.365993999463e-05 0.0 
7.365993999463e-05 8.674335535019e-03 0.0 
0.0 0.0 -1.332621093165e-03 
-1.336402199564e-03 -8.793125074240e-05 0.0 
-8.793125074240e-05 8.913629531779e-03 0.0 
0.0 0.0 -1.332621093165e-03 
1.928535311059e-04 4.445651110295e-05 0.0 
4.445651110295e-05 2.423589004168e-04 0.0 
0.0 0.0 -1.369191294062e-04 
-9.495668909469e-05 1.176622379905e-04 0.0 
1.176622379905e-04 8.146285890130e-04 0.0 
0.0 0.0 -1.619080202416e-04 
-2.343145573296e-04 8.942200005953e-05 0.0 
8.942200005953e-05 1.222252270070e-03 0.0 
0.0 0.0 -2.266090766362e-04 
-3.672954214302e-04 7.638439199011e-05 0.0 
7.638439199011e-05 1.767422352355e-03 0.0 
0.0 0.0 -2.937643997455e-04 
-5.002542736311e-04 4.683642936848e-05 0.0 
4.683642936848e-05 2.251732040701e-03 0.0 
0.0 0.0 -3.610469555860e-04 
-5.984940266315e-04 4.060795555227e-05 0.0 
4.060795555227e-05 2.708456263927e-03 0.0 
0.0 0.0 -4.277228197774e-04 
-6.941224007828e-04 4.519221696703e-05 0.0 
4.519221696703e-05 3.166683324582e-03 0.0 
0.0 0.0 -4.940119848999e-04 
-7.849981096782e-04 3.520077417946e-05 0.0 
3.520077417946e-05 3.622095280725e-03 0.0 
0.0 0.0 -5.601824523721e-04 
-8.634318271181e-04 3.405437137357e-05 0.0 
3.405437137357e-05 4.067071864957e-03 0.0 
0.0 0.0 -6.267196139102e-04 
-9.449136089268e-04 5.218773157199e-05 0.0 
5.218773157199e-05 4.520788341368e-03 0.0 
0.0 0.0 -6.936951881209e-04 
-1.027632022584e-03 9.700470508409e-05 0.0 
9.700470508409e-05 5.010143413423e-03 0.0 
0.0 0.0 -7.607197531558e-04 
-1.071044468659e-03 1.108294767969e-04 0.0 
1.108294767969e-04 5.450697122990e-03 0.0 
0.0 0.0 -8.270758575053e-04 
-1.105211944346e-03 1.479813750871e-04 0.0 
1.479813750871e-04 5.811869455564e-03 0.0 
0.0 0.0 -8.903361771248e-04 
-1.161317049125e-03 4.285670301683e-05 0.0 
4.285670301683e-05 6.275431738875e-03 0.0 
0.0 0.0 -9.558084330571e-04 
-1.207984253662e-03 4.172859767407e-05 0.0 
4.172859767407e-05 6.727772586467e-03 0.0 
0.0 0.0 -1.024523475697e-03 
-1.248615658251e-03 4.538254462405e-05 0.0 
4.538254462405e-05 7.165565903975e-03 0.0 
0.0 0.0 -1.091244731156e-03 
-1.288520992697e-03 4.179778286610e-05 0.0 
4.179778286610e-05 7.610376257827e-03 0.0 
0.0 0.0 -1.158330123333e-03 
-1.323945144233e-03 5.638174444750e-05 0.0 
5.638174444750e-05 8.056170868355e-03 0.0 
0.0 0.0 -1.226073836101e-03 
-1.340882067222e-03 7.816548302147e-05 0.0 
7.816548302147e-05 8.489692749980e-03 0.0 
0.0 0.0 -1.289832767750e-03 
-1.333912568024e-03 1.756046241659e-05 0.0 
1.756046241659e-05 8.926507635803e-03 0.0 
0.0 0.0 -1.336902025401e-03 
-1.341531841891e-03 4.063150434003e-05 0.0 
4.063150434003e-05 8.912362216672e-03 0.0 
0.0 0.0 -1.332945767435e-03 
-1.342187123766e-03 7.210449397357e-07 0.0 
7.210449397357e-07 8.901177082135e-03 0.0 
0.0 0.0 -1.334903170087e-03 
-1.344938961940e-03 1.164426212685e-04 0.0 
1.164426212685e-04 8.903433830404e-03 0.0 
0.0 0.0 -1.334459899807e-03 
-1.344212628933e-03 9.914567390186e-05 0.0 
9.914567390186e-05 8.888325984844e-03 0.0 
0.0 0.0 -1.332067731643e-03 
-1.341871993109e-03 1.326692721992e-04 0.0 
1.326692721992e-04 8.883986467254e-03 0.0 
0.0 0.0 -1.335050935171e-03 
-1.332922157688e-03 1.596974021170e-04 0.0 
1.596974021170e-04 8.887152863323e-03 0.0 
0.0 0.0 -1.335055123498e-03 
-1.344556942280e-03 1.739185913509e-04 0.0 
1.739185913509e-04 8.882073809328e-03 0.0 
0.0 0.0 -1.333530254363e-03 
-1.342253888820e-03 1.667068933720e-04 0.0 
1.667068933720e-04 8.882815983630e-03 0.0 
0.0 0.0 -1.336259905589e-03 
-1.344452318304e-03 2.643241252995e-04 0.0 
2.643241252995e-04 8.877541720491e-03 0.0 
0.0 0.0 -1.335712483792e-03 
-1.344739962132e-03 2.572691983564e-04 0.0 
2.572691983564e-04 8.855364652133e-03 0.0 
0.0 0.0 -1.333313947604e-03 
-1.345949101879e-03 2.896022605016e-04 0.0 
2.896022605016e-04 8.845196808155e-03 0.0 
0.0 0.0 -1.335862559377e-03 
-1.335909137164e-03 3.249556087329e-04 0.0 
3.249556087329e-04 8.847942912603e-03 0.0 
0.0 0.0 -1.336097458551e-03 
-1.346297016590e-03 3.518589132456e-04 0.0 
3.518589132456e-04 8.821759431274e-03 0.0 
0.0 0.0 -1.335235043394e-03 
-1.338076461259e-03 3.735365560477e-04 0.0 
3.735365560477e-04 8.793020733369e-03 0.0 
0.0 0.0 -1.334297546486e-03 
-1.346016481544e-03 4.214840137430e-04 0.0 
4.214840137430e-04 8.754866417549e-03 0.0 
0.0 0.0 -1.332308435384e-03 
-1.347150914510e-03 4.365635291823e-04 0.0 
4.365635291823e-04 8.724212055446e-03 0.0 
0.0 0.0 -1.332019584455e-03 
-1.334805935481e-03 4.680081517091e-04 0.0 
4.680081517091e-04 8.718730927757e-03 0.0 
0.0 0.0 -1.333392124151e-03 
-1.340647727227e-03 4.849743108024e-04 0.0 
4.849743108024e-04 8.700750373122e-03 0.0 
0.0 0.0 -1.334727449481e-03 
-1.341060759155e-03 5.031254601797e-04 0.0 
5.031254601797e-04 8.669240053120e-03 0.0 
0.0 0.0 -1.336576889699e-03 
-1.339241076831e-03 5.376075265351e-04 0.0 
5.376075265351e-04 8.637791543921e-03 0.0 
0.0 0.0 -1.335888391555e-03 
-1.332755026613e-03 5.259793014087e-04 0.0 
5.259793014087e-04 8.604247702023e-03 0.0 
0.0 0.0 -1.334783226448e-03 
-1.333664649469e-03 5.288889005307e-04 0.0 
5.288889005307e-04 8.561550836847e-03 0.0 
0.0 0.0 -1.335053869153e-03 
-1.331458992258e-03 5.134063938371e-04 0.0 
5.134063938371e-04 8.519772984337e-03 0.0 
0.0 0.0 -1.334960189349e-03 
-1.329775199773e-03 4.941096024064e-04 0.0 
4.941096024064e-04 8.496416219376e-03 0.0 
0.0 0.0 -1.334889991128e-03 
-1.320977987653e-03 4.615461390730e-04 0.0 
4.615461390730e-04 8.462524191980e-03 0.0 
0.0 0.0 -1.335774086633e-03 
-1.330023044346e-03 4.207866190154e-04 0.0 
4.207866190154e-04 8.427010713301e-03 0.0 
0.0 0.0 -1.336605656894e-03 
-1.315269658186e-03 3.720833040210e-04 0.0 
3.720833040210e-04 8.401189310414e-03 0.0 
0.0 0.0 -1.336508443943e-03 
-1.322412415585e-03 3.115810119469e-04 0.0 
3.115810119469e-04 8.379908734224e-03 0.0 
0.0 0.0 -1.335343284290e-03 
-1.320222320207e-03 2.175575066663e-04 0.0 
2.175575066663e-04 8.369874127435e-03 0.0 
0.0 0.0 -1.337998490269e-03 
-1.323625080933e-03 2.169102620600e-04 0.0 
2.169102620600e-04 8.349200848827e-03 0.0 
0.0 0.0 -1.337247094005e-03 
-1.312935671626e-03 1.217875082846e-04 0.0 
1.217875082846e-04 8.314561017664e-03 0.0 
0.0 0.0 -1.333783489999e-03 
-1.312397425891e-03 3.014725865093e-05 0.0 
3.014725865093e-05 8.298029012834e-03 0.0 
0.0 0.0 -1.334548731617e-03 
-1.314310776006e-03 -5.112989789944e-05 0.0 
-5.112989789944e-05 8.327635469408e-03 0.0 
0.0 0.0 -1.334619746794e-03 
-1.313246555764e-03 -1.133769864441e-04 0.0 
-1.133769864441e-04 8.338916253329e-03 0.0 
0.0 0.0 -1.335242115105e-03 
-1.326565106495e-03 -1.841934828275e-04 0.0 
-1.841934828275e-04 8.356624519228e-03 0.0 
0.0 0.0 -1.335691437541e-03 
-1.316402114403e-03 -2.262767311367e-04 0.0 
-2.262767311367e-04 8.389795272091e-03 0.0 
0.0 0.0 -1.335646478247e-03 
-1.330105212687e-03 -2.663920673302e-04 0.0 
-2.663920673302e-04 8.407666559300e-03 0.0 
0.0 0.0 -1.334931242407e-03 
-1.321109516020e-03 -3.015612028738e-04 0.0 
-3.015612028738e-04 8.428571737695e-03 0.0 
0.0 0.0 -1.334100791702e-03 
-1.335356464641e-03 -3.106038152236e-04 0.0 
-3.106038152236e-04 8.460193799364e-03 0.0 
0.0 0.0 -1.332237298415e-03 
-1.339781698762e-03 -3.337514916052e-04 0.0 
-3.337514916052e-04 8.495913159923e-03 0.0 
0.0 0.0 -1.333749945600e-03 
-1.335675790289e-03 -3.025403687924e-04 0.0 
-3.025403687924e-04 8.551515458499e-03 0.0 
0.0 0.0 -1.336652505695e-03 
-1.332391445612e-03 -3.083574403233e-04 0.0 
-3.083574403233e-04 8.592419009515e-03 0.0 
0.0 0.0 -1.337094627689e-03 
-1.345644529791e-03 -2.793636126787e-04 0.0 
-2.793636126787e-04 8.558237333725e-03 0.0 
0.0 0.0 -1.328990728106e-03 
-1.337312800610e-03 -2.305068913709e-04 0.0 
-2.305068913709e-04 8.630917037025e-03 0.0 
0.0 0.0 -1.335900064369e-03 
-1.350772327614e-03 -1.956698568975e-04 0.0 
-1.956698568975e-04 8.640358950647e-03 0.0 
0.0 0.0 -1.332523500780e-03 
-1.350423109387e-03 -1.955618747409e-04 0.0 
-1.955618747409e-04 8.650889793805e-03 0.0 
0.0 0.0 -1.335219049675e-03 
-1.349098610006e-03 -8.965167155351e-05 0.0 
-8.965167155351e-05 8.690821291703e-03 0.0 
0.0 0.0 -1.336566422126e-03 
-1.352485386629e-03 -6.128652914560e-05 0.0 
-6.128652914560e-05 8.701715469751e-03 0.0 
0.0 0.0 -1.335855682064e-03 
-8.621699259071e-04 -7.748599951090e-05 0.0 
-7.748599951090e-05 5.021330477437e-03 0.0 
0.0 0.0 -7.648954205800e-04 
-9.395078499560e-04 -8.704020005170e-05 0.0 
-8.704020005170e-05 5.517844915676e-03 0.0 
0.0 0.0 -8.298981322982e-04 
-9.977708429922e-04 -8.397016683561e-05 0.0 
-8.397016683561e-05 5.976838802593e-03 0.0 
0.0 0.0 -8.959277352460e-04 
-1.055682188809e-03 -8.887694878813e-05 0.0 
-8.887694878813e-05 6.419904102828e-03 0.0 
0.0 0.0 -9.610467530554e-04 
-1.113418161777e-03 -7.710435791321e-05 0.0 
-7.710435791321e-05 6.878985961880e-03 0.0 
0.0 0.0 -1.026987810050e-03 
-1.153337564853e-03 -8.395183782127e-05 0.0 
-8.395183782127e-05 7.337021217867e-03 0.0 
0.0 0.0 -1.092790196867e-03 
-1.209003093049e-03 -7.363209801243e-05 0.0 
-7.363209801243e-05 7.788251864833e-03 0.0 
0.0 0.0 -1.158290425478e-03 
-1.258139886954e-03 -8.431152228072e-05 0.0 
-8.431152228072e-05 8.217133852926e-03 0.0 
0.0 0.0 -1.224481705251e-03 
-1.303096836171e-03 -9.331509578295e-05 0.0 
-9.331509578295e-05 8.703843568816e-03 0.0 
0.0 0.0 -1.288782062784e-03 
0.0 0.0 0.0 
0.0 0.0 0.0 
0.0 0.0 0.0 
-8.469977810266e-04 1.418859108081e-04 0.0 
1.418859108081e-04 4.555195363259e-03 0.0 
0.0 0.0 -6.945495707198e-04 
1.853815197246e-05 4.024911659637e-04 0.0 
4.024911659637e-04 2.284141119962e-04 0.0 
0.0 0.0 -1.058366845580e-04 
-1.478590263656e-04 7.216635573387e-04 0.0 
7.216635573387e-04 7.815942286199e-04 0.0 
0.0 0.0 -2.686004704079e-04 
-3.613436439526e-04 6.725053827967e-04 0.0 
6.725053827967e-04 1.210751235982e-03 0.0 
0.0 0.0 -2.716715199271e-04 
-5.153511105879e-04 5.777125361718e-04 0.0 
5.777125361718e-04 1.686960123191e-03 0.0 
0.0 0.0 -2.907975307606e-04 
-5.454556268170e-04 4.563700114584e-04 0.0 
4.563700114584e-04 2.147392311147e-03 0.0 
0.0 0.0 -3.576084760620e-04 
-5.822307317594e-04 3.444855140525e-04 0.0 
3.444855140525e-04 2.615046111209e-03 0.0 
0.0 0.0 -4.246591878591e-04 
-6.421093914524e-04 2.736159583380e-04 0.0 
2.736159583380e-04 3.087949941038e-03 0.0 
0.0 0.0 -4.913636896408e-04 
-7.032270316906e-04 2.154746295006e-04 0.0 
2.154746295006e-04 3.563154777891e-03 0.0 
0.0 0.0 -5.580753662734e-04 
-7.652026803153e-04 1.716333934732e-04 0.0 
1.716333934732e-04 4.039411117358e-03 0.0 
0.0 0.0 -6.248674136757e-04 
-1.989548953691e-04 -1.988720760679e-04 0.0 
-1.988720760679e-04 1.032494137222e-03 0.0 
0.0 0.0 -1.822222222222e-04 
-2.754592792606e-04 -1.624099240136e-04 0.0 
-1.624099240136e-04 1.298347593357e-03 0.0 
0.0 0.0 -2.266666666667e-04 
-3.512760209361e-04 -2.050400066107e-04 0.0 
-2.050400066107e-04 1.766265466180e-03 0.0 
0.0 0.0 -2.933333333333e-04 
-4.262272127133e-04 -1.668508034120e-04 0.0 
-1.668508034120e-04 2.234841239519e-03 0.0 
0.0 0.0 -3.600000000000e-04 
-5.018968035888e-04 -2.069604868527e-04 0.0 
-2.069604868527e-04 2.704133863242e-03 0.0 
0.0 0.0 -4.266666666667e-04 
-5.764922648323e-04 -1.677065961204e-04 0.0 
-1.677065961204e-04 3.172932373080e-03 0.0 
0.0 0.0 -4.933333333333e-04 
-6.493615146667e-04 -2.013836333214e-04 0.0 
-2.013836333214e-04 3.639082748701e-03 0.0 
0.0 0.0 -5.600000000000e-04 
-7.172820797178e-04 -1.419199921507e-04 0.0 
-1.419199921507e-04 4.094821602212e-03 0.0 
0.0 0.0 -6.266666666667e-04 
-7.873736608755e-04 5.502842443645e-05 0.0 
5.502842443645e-05 4.508278690252e-03 0.0 
0.0 0.0 -6.874962403976e-04 
-7.839311141629e-04 4.828509311105e-06 0.0 
4.828509311105e-06 4.540282316640e-03 0.0 
0.0 0.0 -6.910932206029e-04 
-7.921436345257e-04 5.707785244044e-06 0.0 
5.707785244044e-06 4.544942356556e-03 0.0 
0.0 0.0 -6.911911970487e-04 
-7.917187874242e-04 -4.341315515235e-06 0.0 
-4.341315515235e-06 4.539101219755e-03 0.0 
0.0 0.0 -6.903356507966e-04 
-7.944928086677e-04 1.125171909579e-05 0.0 
1.125171909579e-05 4.615388457654e-03 0.0 
0.0 0.0 -6.980756478071e-04 
-7.958365436316e-04 1.383445406237e-05 0.0 
1.383445406237e-05 4.547714033445e-03 0.0 
0.0 0.0 -6.911448554634e-04 
-7.903078046097e-04 6.769783050965e-06 0.0 
6.769783050965e-06 4.539714906749e-03 0.0 
0.0 0.0 -6.903833977050e-04 
-7.973486280958e-04 3.073462339535e-05 0.0 
3.073462339535e-05 4.549605953727e-03 0.0 
0.0 0.0 -6.905588330458e-04 
-8.138323735647e-04 2.995103124151e-05 0.0 
2.995103124151e-05 4.557442627231e-03 0.0 
0.0 0.0 -6.922444453805e-04 
-8.207112189752e-04 5.065642805556e-05 0.0 
5.065642805556e-05 4.556711038870e-03 0.0 
0.0 0.0 -6.916098530255e-04 
-8.174854078797e-04 5.882201982790e-05 0.0 
5.882201982790e-05 4.549634587438e-03 0.0 
0.0 0.0 -6.911665914957e-04 
-8.257607627906e-04 7.207096375596e-05 0.0 
7.207096375596e-05 4.539061374169e-03 0.0 
0.0 0.0 -6.911615840689e-04 
-8.256917502379e-04 1.052177725209e-04 0.0 
1.052177725209e-04 4.528909050130e-03 0.0 
0.0 0.0 -6.914992001314e-04 
-8.331385651634e-04 1.367043632585e-04 0.0 
1.367043632585e-04 4.532178590594e-03 0.0 
0.0 0.0 -6.922481495424e-04 
0.0 0.0 0.0 
0.0 0.0 0.0 
0.0 0.0 0.0 
0.0 0.0 0.0 
0.0 0.0 0.0 
0.0 0.0 0.0 
0.0 0.0 0.0 
0.0 0.0 0.0 
0.0 0.0 0.0 
0.0 0.0 0.0 
0.0 0.0 0.0 
0.0 0.0 0.0 
4.834769447441e-06 -2.872264321309e-05 0.0 
-2.872264321309e-05 1.098176460521e-05 0.0 
0.0 0.0 -6.778514593994e-06 
2.621325204595e-05 -1.413766582246e-04 0.0 
-1.413766582246e-04 5.747299694100e-05 0.0 
0.0 0.0 -3.574982278410e-05 
9.658306216209e-05 -1.514259984182e-04 0.0 
-1.514259984182e-04 8.442241842910e-05 0.0 
0.0 0.0 -4.425618980996e-05 
3.269147103475e-04 -5.021185392625e-05 0.0 
-5.021185392625e-05 3.514559889707e-05 0.0 
0.0 0.0 -8.078147856959e-05 
4.744476216527e-04 -2.955001894905e-05 0.0 
-2.955001894905e-05 6.422490925947e-06 0.0 
0.0 0.0 -1.179719326098e-04 
4.179559190719e-04 -4.545879091992e-05 0.0 
-4.545879091992e-05 1.677504639263e-05 0.0 
0.0 0.0 -8.559165356152e-05 
4.071360169644e-04 -5.676430788113e-05 0.0 
-5.676430788113e-05 2.001137970326e-05 0.0 
0.0 0.0 -6.874308561246e-05 
4.446412730432e-04 -3.115479505997e-05 0.0 
-3.115479505997e-05 1.541228328890e-05 0.0 
0.0 0.0 -8.846752904866e-05 
4.870475968622e-04 1.166873053583e-05 0.0 
1.166873053583e-05 -1.464623307350e-05 0.0 
0.0 0.0 -9.035052009108e-05 
5.260775556971e-04 2.845864580513e-06 0.0 
2.845864580513e-06 -4.734498310635e-05 0.0 
0.0 0.0 -8.407298760335e-05 
4.865685389177e-04 2.210043518698e-06 0.0 
2.210043518698e-06 -3.334183635663e-05 0.0 
0.0 0.0 -8.504329730078e-05 
4.576294102847e-04 1.370682311972e-05 0.0 
1.370682311972e-05 -9.748142346333e-06 0.0 
0.0 0.0 -9.010048746351e-05 
4.426858646735e-04 1.222387518921e-05 0.0 
1.222387518921e-05 -8.681697480963e-07 0.0 
0.0 0.0 -9.063198443064e-05 
4.647766352677e-04 3.225958783335e-05 0.0 
3.225958783335e-05 -3.503045802417e-05 0.0 
0.0 0.0 -8.892160723951e-05 
5.112449432108e-04 4.197682001980e-05 0.0 
4.197682001980e-05 -6.289759249197e-05 0.0 
0.0 0.0 -8.718318697143e-05 
-2.398821825987e-04 5.697542310446e-04 0.0 
5.697542310446e-04 8.934078400710e-04 0.0 
0.0 0.0 -2.412010003664e-04 
-3.260259560384e-04 4.619961038039e-04 0.0 
4.619961038039e-04 1.064349560686e-03 0.0 
0.0 0.0 -2.175873874393e-04 
-3.102264155444e-04 3.350655970531e-04 0.0 
3.350655970531e-04 1.097275766661e-03 0.0 
0.0 0.0 -2.001331728414e-04 
-2.265903445575e-04 1.852915643460e-04 0.0 
1.852915643460e-04 1.076981254958e-03 0.0 
0.0 0.0 -2.158095301215e-04 
-1.672070509666e-04 1.188947909727e-04 0.0 
1.188947909727e-04 1.071659619669e-03 0.0 
0.0 0.0 -2.216946643725e-04 
-1.811974615368e-04 6.037540547666e-05 0.0 
6.037540547666e-05 1.075932973484e-03 0.0 
0.0 0.0 -2.102180910804e-04 
-2.097106885823e-04 2.941078407277e-05 0.0 
2.941078407277e-05 1.087234105241e-03 0.0 
0.0 0.0 -1.956982377567e-04 
-2.175730847293e-04 2.069896579093e-06 0.0 
2.069896579093e-06 1.089659942484e-03 0.0 
0.0 0.0 -1.896296296296e-04 
-2.092040212121e-04 -1.670331407788e-05 0.0 
-1.670331407788e-05 1.088341892748e-03 0.0 
0.0 0.0 -1.896296296296e-04 
-2.042730264766e-04 -3.143299962049e-05 0.0 
-3.143299962049e-05 1.087400576886e-03 0.0 
0.0 0.0 -1.896296296296e-04 
-2.015858418442e-04 -4.164369546997e-05 0.0 
-4.164369546997e-05 1.087324928709e-03 0.0 
0.0 0.0 -1.896296296296e-04 
-2.007189562331e-04 -4.916760141767e-05 0.0 
-4.916760141767e-05 1.087720952282e-03 0.0 
0.0 0.0 -1.896296296296e-04 
-2.012034783365e-04 -5.414603772806e-05 0.0 
-5.414603772806e-05 1.088605061756e-03 0.0 
0.0 0.0 -1.896296296296e-04 
-2.027579824845e-04 -5.714456597226e-05 0.0 
-5.714456597226e-05 1.089815480306e-03 0.0 
0.0 0.0 -1.896296296296e-04 
-2.050931711779e-04 -5.834317271954e-05 0.0 
-5.834317271954e-05 1.091311317337e-03 0.0 
0.0 0.0 -1.896296296296e-04 
-2.079368837401e-04 -5.797599046662e-05 0.0 
-5.797599046662e-05 1.092970739102e-03 0.0 
0.0 0.0 -1.896296296296e-04 
-2.110329647996e-04 -5.625317338299e-05 0.0 
-5.625317338299e-05 1.094658348076e-03 0.0 
0.0 0.0 -1.896296296296e-04 
-2.141800283095e-04 -5.347325464354e-05 0.0 
-5.347325464354e-05 1.096245112306e-03 0.0 
0.0 0.0 -1.896296296296e-04 
-2.172141629976e-04 -4.993124758907e-05 0.0 
-4.993124758907e-05 1.097638470552e-03 0.0 
0.0 0.0 -1.896296296296e-04 
-2.199864499515e-04 -4.589689413833e-05 0.0 
-4.589689413833e-05 1.098753935419e-03 0.0 
0.0 0.0 -1.896296296296e-04 
-2.223436155453e-04 -4.158822586114e-05 0.0 
-4.158822586114e-05 1.099499199087e-03 0.0 
0.0 0.0 -1.896296296296e-04 
-2.241211236289e-04 -3.709099849338e-05 0.0 
-3.709099849338e-05 1.099775813057e-03 0.0 
0.0 0.0 -1.896296296296e-04 
-2.251444612106e-04 -3.211244192231e-05 0.0 
-3.211244192231e-05 1.099523124289e-03 0.0 
0.0 0.0 -1.896296296296e-04 
-2.252782246614e-04 -2.464708846164e-05 0.0 
-2.464708846164e-05 1.099080447244e-03 0.0 
0.0 0.0 -1.896296296296e-04 
-2.247246952328e-04 6.109556335927e-06 0.0 
6.109556335927e-06 1.104321797730e-03 0.0 
0.0 0.0 -1.896296296296e-04 
-2.411256435505e-04 7.833859891717e-05 0.0 
7.833859891717e-05 1.123852409677e-03 0.0 
0.0 0.0 -1.877777777778e-04 
-3.628381239421e-04 4.842555091829e-04 0.0 
4.842555091829e-04 1.190202187004e-03 0.0 
0.0 0.0 -2.340661675681e-04 
-3.802118468551e-04 3.455589746389e-04 0.0 
3.455589746389e-04 1.305583861753e-03 0.0 
0.0 0.0 -2.385862393868e-04 
-3.186689905618e-04 2.299528992316e-04 0.0 
2.299528992316e-04 1.281163034721e-03 0.0 
0.0 0.0 -2.419026139866e-04 
-3.117193365569e-04 1.418368821224e-04 0.0 
1.418368821224e-04 1.280706685768e-03 0.0 
0.0 0.0 -2.360725904025e-04 
-3.038086048248e-04 9.007570465013e-05 0.0 
9.007570465013e-05 1.286413517498e-03 0.0 
0.0 0.0 -2.305934718817e-04 
-2.988206012670e-04 4.775334047599e-05 0.0 
4.775334047599e-05 1.285183619587e-03 0.0 
0.0 0.0 -2.266666666667e-04 
-2.849077319500e-04 1.789066211896e-05 0.0 
1.789066211896e-05 1.283833093661e-03 0.0 
0.0 0.0 -2.266666666667e-04 
-2.753582555348e-04 -4.795108964955e-06 0.0 
-4.795108964955e-06 1.281926460909e-03 0.0 
0.0 0.0 -2.266666666667e-04 
-2.683374979312e-04 -2.126410125056e-05 0.0 
-2.126410125056e-05 1.281101527694e-03 0.0 
0.0 0.0 -2.266666666667e-04 
-2.637706135916e-04 -3.361579052413e-05 0.0 
-3.361579052413e-05 1.280585319830e-03 0.0 
0.0 0.0 -2.266666666667e-04 
-2.608864038848e-04 -4.254249846124e-05 0.0 
-4.254249846124e-05 1.280674733889e-03 0.0 
0.0 0.0 -2.266666666667e-04 
-2.594865430883e-04 -4.880504890846e-05 0.0 
-4.880504890846e-05 1.281129399031e-03 0.0 
0.0 0.0 -2.266666666667e-04 
-2.592271492083e-04 -5.274530917222e-05 0.0 
-5.274530917222e-05 1.281978914705e-03 0.0 
0.0 0.0 -2.266666666667e-04 
-2.598377302827e-04 -5.461665490637e-05 0.0 
-5.461665490637e-05 1.283092885995e-03 0.0 
0.0 0.0 -2.266666666667e-04 
-2.609883587795e-04 -5.464897239266e-05 0.0 
-5.464897239266e-05 1.284318819752e-03 0.0 
0.0 0.0 -2.266666666667e-04 
-2.624449030428e-04 -5.318388434965e-05 0.0 
-5.318388434965e-05 1.285505194123e-03 0.0 
0.0 0.0 -2.266666666667e-04 
-2.640300486149e-04 -5.055913047683e-05 0.0 
-5.055913047683e-05 1.286555616377e-03 0.0 
0.0 0.0 -2.266666666667e-04 
-2.655827755082e-04 -4.706799386262e-05 0.0 
-4.706799386262e-05 1.287386838751e-03 0.0 
0.0 0.0 -2.266666666667e-04 
-2.669508205149e-04 -4.294768758454e-05 0.0 
-4.294768758454e-05 1.287919215002e-03 0.0 
0.0 0.0 -2.266666666667e-04 
-2.679889603064e-04 -3.835283105368e-05 0.0 
-3.835283105368e-05 1.288085921756e-03 0.0 
0.0 0.0 -2.266666666667e-04 
-2.685918719264e-04 -3.324295838272e-05 0.0 
-3.324295838272e-05 1.287880334271e-03 0.0 
0.0 0.0 -2.266666666667e-04 
-2.687283465611e-04 -2.717692756331e-05 0.0 
-2.717692756331e-05 1.287443556388e-03 0.0 
0.0 0.0 -2.266666666667e-04 
-2.686844745940e-04 -1.938143184987e-05 0.0 
-1.938143184987e-05 1.287424645548e-03 0.0 
0.0 0.0 -2.266666666667e-04 
-2.702508139422e-04 -1.180451543429e-05 0.0 
-1.180451543429e-05 1.290650077595e-03 0.0 
0.0 0.0 -2.266666666667e-04 
-2.739511578738e-04 1.091861514027e-04 0.0 
1.091861514027e-04 1.296262820171e-03 0.0 
0.0 0.0 -2.266666666667e-04 
-3.496809071087e-04 7.029818051395e-05 0.0 
7.029818051395e-05 1.763978001235e-03 0.0 
0.0 0.0 -2.933333333333e-04 
-3.467012321594e-04 2.565652285915e-06 0.0 
2.565652285915e-06 1.759757177646e-03 0.0 
0.0 0.0 -2.933333333333e-04 
-3.460706828833e-04 -2.402709291714e-05 0.0 
-2.402709291714e-05 1.758572650440e-03 0.0 
0.0 0.0 -2.933333333333e-04 
-3.462634971279e-04 -3.232377085059e-05 0.0 
-3.232377085059e-05 1.758604837916e-03 0.0 
0.0 0.0 -2.933333333333e-04 
-3.466983492028e-04 -3.868888686092e-05 0.0 
-3.868888686092e-05 1.759008204949e-03 0.0 
0.0 0.0 -2.933333333333e-04 
-3.471166494268e-04 -4.426990314512e-05 0.0 
-4.426990314512e-05 1.759352418861e-03 0.0 
0.0 0.0 -2.933333333333e-04 
-3.474272679685e-04 -4.918378872263e-05 0.0 
-4.918378872263e-05 1.759427979474e-03 0.0 
0.0 0.0 -2.933333333333e-04 
-3.476545714717e-04 -5.321526936886e-05 0.0 
-5.321526936886e-05 1.759196453292e-03 0.0 
0.0 0.0 -2.933333333333e-04 
-3.479518305898e-04 -5.609578469028e-05 0.0 
-5.609578469028e-05 1.758727485872e-03 0.0 
0.0 0.0 -2.933333333333e-04 
-3.484727780912e-04 -5.752163128441e-05 0.0 
-5.752163128441e-05 1.758083576967e-03 0.0 
0.0 0.0 -2.933333333333e-04 
-3.493671597279e-04 -5.714597270233e-05 0.0 
-5.714597270233e-05 1.757324818446e-03 0.0 
0.0 0.0 -2.933333333333e-04 
-3.507609803320e-04 -5.447564841924e-05 0.0 
-5.447564841924e-05 1.756492701634e-03 0.0 
0.0 0.0 -2.933333333333e-04 
-3.529498849902e-04 -4.883178137910e-05 0.0 
-4.883178137910e-05 1.755842529399e-03 0.0 
0.0 0.0 -2.933333333333e-04 
-3.563919328167e-04 -4.008505197600e-05 0.0 
-4.008505197600e-05 1.755533487358e-03 0.0 
0.0 0.0 -2.933333333333e-04 
-3.613751731038e-04 -2.764226381693e-05 0.0 
-2.764226381693e-05 1.755740221786e-03 0.0 
0.0 0.0 -2.933333333333e-04 
-3.680331159808e-04 -1.160852856466e-05 0.0 
-1.160852856466e-05 1.755914627603e-03 0.0 
0.0 0.0 -2.933333333333e-04 
-3.765077791255e-04 1.088927297272e-05 0.0 
1.088927297272e-05 1.756756463973e-03 0.0 
0.0 0.0 -2.933333333333e-04 
-3.875335620688e-04 3.848779556901e-05 0.0 
3.848779556901e-05 1.756527119021e-03 0.0 
0.0 0.0 -2.933333333333e-04 
-4.006981741599e-04 7.938462996467e-05 0.0 
7.938462996467e-05 1.757968771471e-03 0.0 
0.0 0.0 -2.933333333333e-04 
-4.184139765209e-04 1.273498827186e-04 0.0 
1.273498827186e-04 1.754107022380e-03 0.0 
0.0 0.0 -2.933333333333e-04 
-4.343887350254e-04 2.082173449192e-04 0.0 
2.082173449192e-04 1.756230721853e-03 0.0 
0.0 0.0 -2.933333333333e-04 
-4.614874550674e-04 2.935627528416e-04 0.0 
2.935627528416e-04 1.774351382184e-03 0.0 
0.0 0.0 -2.960058309038e-04 
-4.441523120693e-04 4.094621339406e-04 0.0 
4.094621339406e-04 1.656501544115e-03 0.0 
0.0 0.0 -2.853401360544e-04 
-4.870440913019e-04 3.438997131150e-04 0.0 
3.438997131150e-04 2.112483852915e-03 0.0 
0.0 0.0 -3.519676952907e-04 
-5.125649626942e-04 2.408553048519e-04 0.0 
2.408553048519e-04 2.231730849181e-03 0.0 
0.0 0.0 -3.626389769158e-04 
-5.004304274742e-04 1.739740084501e-04 0.0 
1.739740084501e-04 2.219740475384e-03 0.0 
0.0 0.0 -3.600000000000e-04 
-4.919733132572e-04 1.088807645715e-04 0.0 
1.088807645715e-04 2.220404103345e-03 0.0 
0.0 0.0 -3.600000000000e-04 
-4.789912287228e-04 6.959489259035e-05 0.0 
6.959489259035e-05 2.226799972365e-03 0.0 
0.0 0.0 -3.600000000000e-04 
-4.695031603226e-04 3.553610685796e-05 0.0 
3.553610685796e-05 2.226549692723e-03 0.0 
0.0 0.0 -3.600000000000e-04 
-4.599607884164e-04 1.129608327385e-05 0.0 
1.129608327385e-05 2.227936339154e-03 0.0 
0.0 0.0 -3.600000000000e-04 
-4.523249195166e-04 -8.629656390873e-06 0.0 
-8.629656390873e-06 2.227633121405e-03 0.0 
0.0 0.0 -3.600000000000e-04 
-4.460410542978e-04 -2.408928092428e-05 0.0 
-2.408928092428e-05 2.228142385368e-03 0.0 
0.0 0.0 -3.600000000000e-04 
-4.416422346106e-04 -3.556764082908e-05 0.0 
-3.556764082908e-05 2.228991415671e-03 0.0 
0.0 0.0 -3.600000000000e-04 
-4.381537305926e-04 -4.258379451435e-05 0.0 
-4.258379451435e-05 2.230069409879e-03 0.0 
0.0 0.0 -3.600000000000e-04 
-4.351200154686e-04 -4.630854718854e-05 0.0 
-4.630854718854e-05 2.230745475863e-03 0.0 
0.0 0.0 -3.600000000000e-04 
-4.325824646744e-04 -4.775125052124e-05 0.0 
-4.775125052124e-05 2.231217919098e-03 0.0 
0.0 0.0 -3.600000000000e-04 
-4.305586835962e-04 -4.721495249169e-05 0.0 
-4.721495249169e-05 2.231559783467e-03 0.0 
0.0 0.0 -3.600000000000e-04 
-4.288867137335e-04 -4.493296871748e-05 0.0 
-4.493296871748e-05 2.231681053608e-03 0.0 
0.0 0.0 -3.600000000000e-04 
-4.273112732016e-04 -4.114156621977e-05 0.0 
-4.114156621977e-05 2.231455818993e-03 0.0 
0.0 0.0 -3.600000000000e-04 
-4.257570290361e-04 -3.645486640434e-05 0.0 
-3.645486640434e-05 2.230888371703e-03 0.0 
0.0 0.0 -3.600000000000e-04 
-4.244314698173e-04 -3.118593770298e-05 0.0 
-3.118593770298e-05 2.230297443320e-03 0.0 
0.0 0.0 -3.600000000000e-04 
-4.235346113232e-04 -2.542079837558e-05 0.0 
-2.542079837558e-05 2.230073732848e-03 0.0 
0.0 0.0 -3.600000000000e-04 
-4.234462512888e-04 -1.962142205216e-05 0.0 
-1.962142205216e-05 2.230753915289e-03 0.0 
0.0 0.0 -3.600000000000e-04 
-4.245254089640e-04 -1.838851999952e-05 0.0 
-1.838851999952e-05 2.232666465119e-03 0.0 
0.0 0.0 -3.600000000000e-04 
-4.258704289300e-04 1.031587817340e-04 0.0 
1.031587817340e-04 2.234469848219e-03 0.0 
0.0 0.0 -3.600000000000e-04 
-5.013977665724e-04 6.678054078335e-05 0.0 
6.678054078335e-05 2.703319892598e-03 0.0 
0.0 0.0 -4.266666666667e-04 
-5.000873162729e-04 4.739922315480e-07 0.0 
4.739922315480e-07 2.701172909826e-03 0.0 
0.0 0.0 -4.266666666667e-04 
-4.998071790653e-04 -2.178747072151e-05 0.0 
-2.178747072151e-05 2.700224901928e-03 0.0 
0.0 0.0 -4.266666666667e-04 
-5.007267420848e-04 -2.682346092380e-05 0.0 
-2.682346092380e-05 2.700321897617e-03 0.0 
0.0 0.0 -4.266666666667e-04 
-5.023438002827e-04 -3.104522400768e-05 0.0 
-3.104522400768e-05 2.700942336046e-03 0.0 
0.0 0.0 -4.266666666667e-04 
-5.046005899036e-04 -3.482640527593e-05 0.0 
-3.482640527593e-05 2.701790544412e-03 0.0 
0.0 0.0 -4.266666666667e-04 
-5.072352564482e-04 -3.838001695029e-05 0.0 
-3.838001695029e-05 2.702415804766e-03 0.0 
0.0 0.0 -4.266666666667e-04 
-5.098433996047e-04 -4.063252974789e-05 0.0 
-4.063252974789e-05 2.702308962132e-03 0.0 
0.0 0.0 -4.266666666667e-04 
-5.126344180745e-04 -4.048719551750e-05 0.0 
-4.048719551750e-05 2.701874566670e-03 0.0 
0.0 0.0 -4.266666666667e-04 
-5.163726922397e-04 -3.792427931932e-05 0.0 
-3.792427931932e-05 2.701523899062e-03 0.0 
0.0 0.0 -4.266666666667e-04 
-5.207389108666e-04 -3.338420754901e-05 0.0 
-3.338420754901e-05 2.701011155077e-03 0.0 
0.0 0.0 -4.266666666667e-04 
-5.252891517300e-04 -2.626882560247e-05 0.0 
-2.626882560247e-05 2.699762094262e-03 0.0 
0.0 0.0 -4.266666666667e-04 
-5.299120677543e-04 -1.439019615054e-05 0.0 
-1.439019615054e-05 2.697258437041e-03 0.0 
0.0 0.0 -4.266666666667e-04 
-5.357525103733e-04 4.962642114391e-06 0.0 
4.962642114391e-06 2.695874831440e-03 0.0 
0.0 0.0 -4.266666666667e-04 
-5.442031688919e-04 2.698467857241e-05 0.0 
2.698467857241e-05 2.694563012441e-03 0.0 
0.0 0.0 -4.266666666667e-04 
-5.535277733574e-04 5.642979102142e-05 0.0 
5.642979102142e-05 2.694993549781e-03 0.0 
0.0 0.0 -4.266666666667e-04 
-5.636396406095e-04 8.491085392806e-05 0.0 
8.491085392806e-05 2.688346064678e-03 0.0 
0.0 0.0 -4.266666666667e-04 
-5.667180855967e-04 1.404909475521e-04 0.0 
1.404909475521e-04 2.684702359192e-03 0.0 
0.0 0.0 -4.266666666667e-04 
-5.760763171982e-04 1.868968236703e-04 0.0 
1.868968236703e-04 2.700776601453e-03 0.0 
0.0 0.0 -4.293391642371e-04 
-5.414318027528e-04 2.582759348764e-04 0.0 
2.582759348764e-04 2.576024993124e-03 0.0 
0.0 0.0 -4.186734693878e-04 
-6.002569752709e-04 2.106199425740e-04 0.0 
2.106199425740e-04 3.040601950913e-03 0.0 
0.0 0.0 -4.852947845805e-04 
-6.404347893740e-04 1.452930758805e-04 0.0 
1.452930758805e-04 3.169480489552e-03 0.0 
0.0 0.0 -4.959669582118e-04 
-6.373670366941e-04 1.181817318953e-04 0.0 
1.181817318953e-04 3.157603873263e-03 0.0 
0.0 0.0 -4.933333333333e-04 
-6.335926768194e-04 7.794245507497e-05 0.0 
7.794245507497e-05 3.156688021345e-03 0.0 
0.0 0.0 -4.933333333333e-04 
-6.220474498716e-04 5.134440581893e-05 0.0 
5.134440581893e-05 3.160786184874e-03 0.0 
0.0 0.0 -4.933333333333e-04 
-6.159406124673e-04 2.206688587732e-05 0.0 
2.206688587732e-05 3.161928673014e-03 0.0 
0.0 0.0 -4.933333333333e-04 
-6.109166782003e-04 3.714322771242e-06 0.0 
3.714322771242e-06 3.167514719351e-03 0.0 
0.0 0.0 -4.933333333333e-04 
-6.054581133856e-04 -7.307117585949e-06 0.0 
-7.307117585949e-06 3.170142463375e-03 0.0 
0.0 0.0 -4.933333333333e-04 
-6.000107331639e-04 -1.469328145384e-05 0.0 
-1.469328145384e-05 3.171163635534e-03 0.0 
0.0 0.0 -4.933333333333e-04 
-5.941898088781e-04 -2.074063559937e-05 0.0 
-2.074063559937e-05 3.171088193189e-03 0.0 
0.0 0.0 -4.933333333333e-04 
-5.898957035509e-04 -2.603463415847e-05 0.0 
-2.603463415847e-05 3.171921383452e-03 0.0 
0.0 0.0 -4.933333333333e-04 
-5.871319754984e-04 -2.671317052851e-05 0.0 
-2.671317052851e-05 3.173080463882e-03 0.0 
0.0 0.0 -4.933333333333e-04 
-5.831711305422e-04 -2.471825246934e-05 0.0 
-2.471825246934e-05 3.172447959486e-03 0.0 
0.0 0.0 -4.933333333333e-04 
-5.799110508209e-04 -2.308008329295e-05 0.0 
-2.308008329295e-05 3.171263771991e-03 0.0 
0.0 0.0 -4.933333333333e-04 
-5.773557365906e-04 -2.133550619489e-05 0.0 
-2.133550619489e-05 3.170479716806e-03 0.0 
0.0 0.0 -4.933333333333e-04 
-5.758014518713e-04 -1.892419660156e-05 0.0 
-1.892419660156e-05 3.170002557654e-03 0.0 
0.0 0.0 -4.933333333333e-04 
-5.748764960425e-04 -1.805012883539e-05 0.0 
-1.805012883539e-05 3.170347605706e-03 0.0 
0.0 0.0 -4.933333333333e-04 
-5.760506827362e-04 -2.075419369238e-05 0.0 
-2.075419369238e-05 3.172373778641e-03 0.0 
0.0 0.0 -4.933333333333e-04 
-5.767249358615e-04 1.015271389729e-04 0.0 
1.015271389729e-04 3.173431107618e-03 0.0 
0.0 0.0 -4.933333333333e-04 
-6.527572212549e-04 6.780105280902e-05 0.0 
6.780105280902e-05 3.643323392159e-03 0.0 
0.0 0.0 -5.600000000000e-04 
-6.484652640847e-04 -1.867317635502e-06 0.0 
-1.867317635502e-06 3.638221338221e-03 0.0 
0.0 0.0 -5.600000000000e-04 
-6.483746879456e-04 -1.524137963776e-05 0.0 
-1.524137963776e-05 3.636879668493e-03 0.0 
0.0 0.0 -5.600000000000e-04 
-6.506726970290e-04 -1.678761464932e-05 0.0 
-1.678761464932e-05 3.638240294297e-03 0.0 
0.0 0.0 -5.600000000000e-04 
-6.515567938656e-04 -1.582684597498e-05 0.0 
-1.582684597498e-05 3.638013899900e-03 0.0 
0.0 0.0 -5.600000000000e-04 
-6.554750631859e-04 -1.470434980338e-05 0.0 
-1.470434980338e-05 3.639460407849e-03 0.0 
0.0 0.0 -5.600000000000e-04 
-6.594170751284e-04 -1.283952103919e-05 0.0 
-1.283952103919e-05 3.641117124007e-03 0.0 
0.0 0.0 -5.600000000000e-04 
-6.641464449147e-04 -1.550365402295e-05 0.0 
-1.550365402295e-05 3.640594034775e-03 0.0 
0.0 0.0 -5.600000000000e-04 
-6.668858948113e-04 -7.941772856611e-06 0.0 
-7.941772856611e-06 3.636849838348e-03 0.0 
0.0 0.0 -5.600000000000e-04 
-6.741591020856e-04 2.577853317367e-06 0.0 
2.577853317367e-06 3.638100575400e-03 0.0 
0.0 0.0 -5.600000000000e-04 
-6.809485102659e-04 9.363144820372e-06 0.0 
9.363144820372e-06 3.637932552511e-03 0.0 
0.0 0.0 -5.600000000000e-04 
-6.861033350786e-04 2.086292296722e-05 0.0 
2.086292296722e-05 3.634350486115e-03 0.0 
0.0 0.0 -5.600000000000e-04 
-6.932352806905e-04 3.670348944842e-05 0.0 
3.670348944842e-05 3.630716211654e-03 0.0 
0.0 0.0 -5.600000000000e-04 
-6.980811967268e-04 5.967994361152e-05 0.0 
5.967994361152e-05 3.618796687988e-03 0.0 
0.0 0.0 -5.600000000000e-04 
-7.013848849314e-04 1.083829473888e-04 0.0 
1.083829473888e-04 3.620396778090e-03 0.0 
0.0 0.0 -5.600000000000e-04 
-7.078351814424e-04 1.219335158790e-04 0.0 
1.219335158790e-04 3.644573923445e-03 0.0 
0.0 0.0 -5.626724975705e-04 
-6.666304385001e-04 1.660523767343e-04 0.0 
1.660523767343e-04 3.518024469538e-03 0.0 
0.0 0.0 -5.520068027211e-04 
-7.306639245541e-04 1.487904650220e-04 0.0 
1.487904650220e-04 3.987541024977e-03 0.0 
0.0 0.0 -6.186195084094e-04 
-7.777639873500e-04 1.047682677556e-04 0.0 
1.047682677556e-04 4.108452618951e-03 0.0 
0.0 0.0 -6.292929119699e-04 
-7.730086078056e-04 8.789895144587e-05 0.0 
8.789895144587e-05 4.091912019672e-03 0.0 
0.0 0.0 -6.266666666667e-04 
-7.618524580481e-04 6.512725790421e-05 0.0 
6.512725790421e-05 4.093546504346e-03 0.0 
0.0 0.0 -6.266666666667e-04 
-7.572869673676e-04 4.077816536235e-05 0.0 
4.077816536235e-05 4.100722229585e-03 0.0 
0.0 0.0 -6.266666666667e-04 
-7.522759778333e-04 3.231234712664e-05 0.0 
3.231234712664e-05 4.105753030330e-03 0.0 
0.0 0.0 -6.266666666667e-04 
-7.456061716167e-04 2.469919196216e-05 0.0 
2.469919196216e-05 4.102695942195e-03 0.0 
0.0 0.0 -6.266666666667e-04 
-7.404032118594e-04 6.233661207773e-06 0.0 
6.233661207773e-06 4.103985895951e-03 0.0 
0.0 0.0 -6.266666666667e-04 
-7.306819678944e-04 6.672744555550e-06 0.0 
6.672744555550e-06 4.108272711165e-03 0.0 
0.0 0.0 -6.266666666667e-04 
-7.293745733164e-04 -1.304990055444e-06 0.0 
-1.304990055444e-06 4.106419007565e-03 0.0 
0.0 0.0 -6.266666666667e-04 
-7.249341380716e-04 -1.277588629320e-06 0.0 
-1.277588629320e-06 4.105173170991e-03 0.0 
0.0 0.0 -6.266666666667e-04 
-7.218872567136e-04 -1.221940477039e-05 0.0 
-1.221940477039e-05 4.104125766063e-03 0.0 
0.0 0.0 -6.266666666667e-04 
-7.226283520212e-04 -7.586680396462e-06 0.0 
-7.586680396462e-06 4.106687618408e-03 0.0 
0.0 0.0 -6.266666666667e-04 
-7.194567743785e-04 -1.345793513568e-05 0.0 
-1.345793513568e-05 4.101402324494e-03 0.0 
0.0 0.0 -6.266666666667e-04 
-7.217276456755e-04 -3.632688016994e-05 0.0 
-3.632688016994e-05 4.111803083088e-03 0.0 
0.0 0.0 -6.266666666667e-04 
-7.310107230365e-04 1.113089146982e-04 0.0 
1.113089146982e-04 4.120905737550e-03 0.0 
0.0 0.0 -6.266666666667e-04 
5.827456930196e-07 2.188809413882e-04 0.0 
2.188809413882e-04 3.900965170132e-05 0.0 
0.0 0.0 -1.696817031186e-05 
-4.487896732987e-05 6.031454295583e-04 0.0 
6.031454295583e-04 4.769141611533e-04 0.0 
0.0 0.0 -1.851579402100e-04 
-2.432952018552e-04 7.221449360745e-04 0.0 
7.221449360745e-04 9.921251538898e-04 0.0 
0.0 0.0 -2.906765028942e-04 
-4.843559632477e-04 7.054171669141e-04 0.0 
7.054171669141e-04 1.501747503856e-03 0.0 
0.0 0.0 -2.705470891579e-04 
-5.162796584260e-04 5.374660571038e-04 0.0 
5.374660571038e-04 1.954632750136e-03 0.0 
0.0 0.0 -3.310903933743e-04 
-5.449792335688e-04 4.356130269135e-04 0.0 
4.356130269135e-04 2.421388465933e-03 0.0 
0.0 0.0 -3.977576770754e-04 
-6.066455436428e-04 3.364332527846e-04 0.0 
3.364332527846e-04 2.883298822982e-03 0.0 
0.0 0.0 -4.650267612653e-04 
-6.625430485052e-04 2.762683699332e-04 0.0 
2.762683699332e-04 3.355431578782e-03 0.0 
0.0 0.0 -5.317697887215e-04 
-7.239877336263e-04 2.202667385963e-04 0.0 
2.202667385963e-04 3.828610808697e-03 0.0 
0.0 0.0 -5.985602557689e-04 
-7.842817421153e-04 1.883796168278e-04 0.0 
1.883796168278e-04 4.312421836845e-03 0.0 
0.0 0.0 -6.652967104836e-04 
-6.528049956140e-05 8.329192367362e-04 0.0 
8.329192367362e-04 6.721534156509e-04 0.0 
0.0 0.0 -2.600883926098e-04 
-1.238271811776e-03 -2.323410981101e-05 0.0 
-2.323410981101e-05 8.143368057859e-03 0.0 
0.0 0.0 -1.303388942653e-03 
5.998510431380e-05 -1.163529753908e-04 0.0 
-1.163529753908e-04 2.499013313257e-04 0.0 
0.0 0.0 -7.661148810519e-05 
1.270751205327e-05 -3.607914457565e-05 0.0 
-3.607914457565e-05 6.964316184805e-06 0.0 
0.0 0.0 -8.430783530605e-06 
-1.278901467981e-03 -2.582894247670e-04 0.0 
-2.582894247670e-04 8.264882866352e-03 0.0 
0.0 0.0 -1.303360877099e-03 
-5.655990039998e-04 8.080804633426e-04 0.0 
8.080804633426e-04 1.859508276799e-03 0.0 
0.0 0.0 -3.221766324775e-04 
-9.861956324832e-04 -6.715847648061e-05 0.0 
-6.715847648061e-05 4.773589466734e-03 0.0 
0.0 0.0 -7.300567563597e-04 
-1.244927303710e-03 2.945275852412e-04 0.0 
2.945275852412e-04 8.164800639293e-03 0.0 
0.0 0.0 -1.300998267065e-03 
-6.348034790759e-04 4.424120780115e-04 0.0 
4.424120780115e-04 2.761117670990e-03 0.0 
0.0 0.0 -4.497936382440e-04 
-1.277128875373e-03 4.777706098865e-04 0.0 
4.777706098865e-04 8.316029240451e-03 0.0 
0.0 0.0 -1.304014651794e-03 
-7.514819667783e-04 2.897671537100e-04 0.0 
2.897671537100e-04 3.742162088854e-03 0.0 
0.0 0.0 -5.857980290939e-04 
-1.307584739855e-03 -2.907864623538e-04 0.0 
-2.907864623538e-04 8.435582561033e-03 0.0 
0.0 0.0 -1.307658508868e-03 
2.194594038095e-04 -2.670865977714e-05 0.0 
-2.670865977714e-05 1.694259524564e-04 0.0 
0.0 0.0 -9.345456780789e-05 
-1.309138496400e-03 5.212450025025e-04 0.0 
5.212450025025e-04 8.474949316046e-03 0.0 
0.0 0.0 -1.304481600125e-03 
-8.746417822978e-04 2.068395432367e-04 0.0 
2.068395432367e-04 4.729142408164e-03 0.0 
0.0 0.0 -7.203075318094e-04 
-6.505648739721e-04 -3.624268182337e-05 0.0 
-3.624268182337e-05 2.957311441966e-03 0.0 
0.0 0.0 -4.640473930190e-04 
-1.131372666701e-03 -4.491765098181e-05 0.0 
-4.491765098181e-05 5.976165985442e-03 0.0 
0.0 0.0 -9.125512086551e-04 
-1.314763544022e-03 4.589275118802e-04 0.0 
4.589275118802e-04 8.560285468091e-03 0.0 
0.0 0.0 -1.301280071178e-03 
-1.328200349095e-03 3.774182231255e-04 0.0 
3.774182231255e-04 8.674652987533e-03 0.0 
0.0 0.0 -1.304294760550e-03 
-1.328231009146e-03 1.002317222840e-04 0.0 
1.002317222840e-04 8.762903021805e-03 0.0 
0.0 0.0 -1.303238611779e-03 
-1.321361255880e-03 2.020746578681e-04 0.0 
2.020746578681e-04 8.706453928135e-03 0.0 
0.0 0.0 -1.297727402575e-03 
-1.333675382953e-03 2.525190978684e-04 0.0 
2.525190978684e-04 8.729905622316e-03 0.0 
0.0 0.0 -1.305306183856e-03 
-8.907724214169e-04 1.372579395388e-04 0.0 
1.372579395388e-04 4.950739460616e-03 0.0 
0.0 0.0 -7.522011426764e-04 
-8.750579348879e-04 6.356350708577e-05 0.0 
6.356350708577e-05 4.972444393085e-03 0.0 
0.0 0.0 -7.529849494387e-04 
-8.651922808025e-04 1.321213173771e-05 0.0 
1.321213173771e-05 5.002490543075e-03 0.0 
0.0 0.0 -7.580270452736e-04 
-1.081282276580e-03 -2.537529428612e-05 0.0 
-2.537529428612e-05 6.643650052824e-03 0.0 
0.0 0.0 -9.950081682429e-04 
-1.332561184719e-03 -2.295807888403e-04 0.0 
-2.295807888403e-04 8.502002206283e-03 0.0 
0.0 0.0 -1.302874185639e-03 
0.0 0.0 0.0 
0.0 0.0 0.0 
0.0 0.0 0.0 
2.233748649996e-04 5.268922663070e-06 0.0 
5.268922663070e-06 2.031789523429e-04 0.0 
0.0 0.0 -1.071793558177e-04 
-1.266615157062e-03 -4.708891648946e-05 0.0 
-4.708891648946e-05 7.362986267811e-03 0.0 
0.0 0.0 -1.122886395833e-03 
-8.590690058330e-04 2.817818056919e-05 0.0 
2.817818056919e-05 4.956725197885e-03 0.0 
0.0 0.0 -7.500338828344e-04 
-3.077541790528e-04 -1.952701143312e-05 0.0 
-1.952701143312e-05 1.504768126338e-03 0.0 
0.0 0.0 -2.594501920933e-04 
-1.324226706230e-03 4.167698339106e-04 0.0 
4.167698339106e-04 8.547363588762e-03 0.0 
0.0 0.0 -1.293200138473e-03 
-1.268789998251e-03 4.116378875631e-04 0.0 
4.116378875631e-04 8.267843264786e-03 0.0 
0.0 0.0 -1.307307853467e-03 
-1.298127013523e-03 5.178122413189e-04 0.0 
5.178122413189e-04 8.390890810401e-03 0.0 
0.0 0.0 -1.304733450272e-03 
-1.233362636415e-03 1.634458979136e-04 0.0 
1.634458979136e-04 8.121763907804e-03 0.0 
0.0 0.0 -1.297928233296e-03 
-1.261877986510e-03 -1.597052773119e-04 0.0 
-1.597052773119e-04 8.188934025231e-03 0.0 
0.0 0.0 -1.305578568836e-03 
2.734204477331e-05 -3.169143204034e-04 0.0 
-3.169143204034e-04 1.647533136443e-04 0.0 
0.0 0.0 -8.226872593096e-05 
-8.795053511419e-04 9.559274535899e-05 0.0 
9.559274535899e-05 4.954160552764e-03 0.0 
0.0 0.0 -7.500980793755e-04 
-1.291571793349e-03 -3.018456542619e-04 0.0 
-3.018456542619e-04 8.267318175430e-03 0.0 
0.0 0.0 -1.293180865222e-03 
-1.191688283040e-03 -1.679553581366e-05 0.0 
-1.679553581366e-05 7.562043590583e-03 0.0 
0.0 0.0 -1.123598490052e-03 
1.170418686809e-04 -5.562668358397e-05 0.0 
-5.562668358397e-05 2.275676700802e-04 0.0 
0.0 0.0 -7.719741026454e-05 
-8.274582342161e-04 -6.171908782243e-05 0.0 
-6.171908782243e-05 3.848512271059e-03 0.0 
0.0 0.0 -5.937437734062e-04 
-1.335764842081e-03 6.371320431880e-05 0.0 
6.371320431880e-05 8.844549453637e-03 0.0 
0.0 0.0 -1.311981303940e-03 
-6.029700723185e-04 6.122078773443e-04 0.0 
6.122078773443e-04 2.350776615634e-03 0.0 
0.0 0.0 -3.897472533596e-04 
-3.421036135192e-04 9.389470505226e-04 0.0 
9.389470505226e-04 1.298921873387e-03 0.0 
0.0 0.0 -3.268992177355e-04 
-6.932234286341e-04 3.612940895342e-04 0.0 
3.612940895342e-04 3.253564498504e-03 0.0 
0.0 0.0 -5.178568985205e-04 
-8.102727904185e-04 2.233971647189e-04 0.0 
2.233971647189e-04 4.222711404521e-03 0.0 
0.0 0.0 -6.527703211191e-04 
4.927168984220e-05 3.774519283508e-04 0.0 
3.774519283508e-04 1.237692846693e-04 0.0 
0.0 0.0 -7.416041764780e-05 
-9.647575502476e-04 -2.771769126341e-06 0.0 
-2.771769126341e-06 5.776762544034e-03 0.0 
0.0 0.0 -8.684787984471e-04 
-1.350888138525e-03 -1.433490915200e-04 0.0 
-1.433490915200e-04 8.608994521473e-03 0.0 
0.0 0.0 -1.313906642692e-03 
2.535763956766e-04 3.453965229505e-05 0.0 
3.453965229505e-05 1.648612099088e-04 0.0 
0.0 0.0 -1.090843966873e-04 
-1.275593957644e-03 1.853867106533e-05 0.0 
1.853867106533e-05 8.418825182379e-03 0.0 
0.0 0.0 -1.253930875827e-03 
-8.953448143456e-04 1.901723990594e-04 0.0 
1.901723990594e-04 4.929510438704e-03 0.0 
0.0 0.0 -7.532271817479e-04 
-9.242130448013e-04 2.218369834796e-04 0.0 
2.218369834796e-04 5.094044769017e-03 0.0 
0.0 0.0 -7.809350190597e-04 
-9.469027331401e-04 2.184886764960e-04 0.0 
2.184886764960e-04 5.336848493436e-03 0.0 
0.0 0.0 -8.115578932774e-04 
-9.847582339447e-04 2.348277518639e-04 0.0 
2.348277518639e-04 5.535490339246e-03 0.0 
0.0 0.0 -8.428390908522e-04 
-1.013224796440e-03 2.269955445031e-04 0.0 
2.269955445031e-04 5.773109205172e-03 0.0 
0.0 0.0 -8.784658474099e-04 
-1.038385862696e-03 2.590411142921e-04 0.0 
2.590411142921e-04 5.954479327597e-03 0.0 
0.0 0.0 -9.060409163497e-04 
-1.004174411440e-03 2.781484189758e-04 0.0 
2.781484189758e-04 5.703926568537e-03 0.0 
0.0 0.0 -8.711257577415e-04 
-1.054585459025e-03 2.973439443916e-04 0.0 
2.973439443916e-04 6.126110480118e-03 0.0 
0.0 0.0 -9.341442283280e-04 
-1.020905393351e-03 3.220952727550e-04 0.0 
3.220952727550e-04 5.866625374892e-03 0.0 
0.0 0.0 -8.989774131092e-04 
-1.060675836449e-03 2.424242741137e-04 0.0 
2.424242741137e-04 6.211611638975e-03 0.0 
0.0 0.0 -9.415083590319e-04 
-1.069903741450e-03 3.342745829502e-04 0.0 
3.342745829502e-04 6.289952349254e-03 0.0 
0.0 0.0 -9.622976032585e-04 
-1.033366094007e-03 3.621226093725e-04 0.0 
3.621226093725e-04 6.024211968433e-03 0.0 
0.0 0.0 -9.268639294333e-04 
-1.081748877589e-03 3.725821950626e-04 0.0 
3.725821950626e-04 6.448138080981e-03 0.0 
0.0 0.0 -9.903372159162e-04 
-1.042953915019e-03 3.991340856965e-04 0.0 
3.991340856965e-04 6.178329635147e-03 0.0 
0.0 0.0 -9.547708836903e-04 
-9.946320659626e-04 3.943126043460e-04 0.0 
3.943126043460e-04 5.758814307551e-03 0.0 
0.0 0.0 -8.916807130883e-04 
-1.001107217771e-03 4.332773723891e-04 0.0 
4.332773723891e-04 5.906894361937e-03 0.0 
0.0 0.0 -9.194532194038e-04 
-9.524385169357e-04 4.327952618966e-04 0.0 
4.327952618966e-04 5.490022466699e-03 0.0 
0.0 0.0 -8.565021464485e-04 
-9.551941416785e-04 4.714703413802e-04 0.0 
4.714703413802e-04 5.632535536945e-03 0.0 
0.0 0.0 -8.841639842141e-04 
-1.003948910985e-03 4.659340529388e-04 0.0 
4.659340529388e-04 6.052492370979e-03 0.0 
0.0 0.0 -9.471984275390e-04 
-9.534464918986e-04 5.005026845975e-04 0.0 
5.005026845975e-04 5.770878701320e-03 0.0 
0.0 0.0 -9.118195294070e-04 
-9.061256584098e-04 5.150134062317e-04 0.0 
5.150134062317e-04 5.352614190247e-03 0.0 
0.0 0.0 -8.488396520500e-04 
-8.989049191365e-04 5.434397803423e-04 0.0 
5.434397803423e-04 5.483228311018e-03 0.0 
0.0 0.0 -8.764089341820e-04 
-8.533039374695e-04 5.667693254413e-04 0.0 
5.667693254413e-04 5.068208533921e-03 0.0 
0.0 0.0 -8.135623229517e-04 
-8.400733524865e-04 5.914836390070e-04 0.0 
5.914836390070e-04 5.191255654721e-03 0.0 
0.0 0.0 -8.410744910442e-04 
-7.968543408339e-04 6.237249391908e-04 0.0 
6.237249391908e-04 4.777124479860e-03 0.0 
0.0 0.0 -7.781617608290e-04 
-7.768533972698e-04 6.436004668132e-04 0.0 
6.436004668132e-04 4.892920097115e-03 0.0 
0.0 0.0 -8.056965831182e-04 
-8.240566969273e-04 5.997503228454e-04 0.0 
5.997503228454e-04 5.313376653990e-03 0.0 
0.0 0.0 -8.686949506212e-04 
-7.549029941076e-04 6.445435251704e-04 0.0 
6.445435251704e-04 5.007797875212e-03 0.0 
0.0 0.0 -8.332427817419e-04 
-7.080731455591e-04 7.008821416478e-04 0.0 
7.008821416478e-04 4.586577191639e-03 0.0 
0.0 0.0 -7.703313069557e-04 
-6.796342790660e-04 6.889970591832e-04 0.0 
6.889970591832e-04 4.694361205396e-03 0.0 
0.0 0.0 -7.977945042040e-04 
-6.329025767040e-04 7.594983388287e-04 0.0 
7.594983388287e-04 4.271526927018e-03 0.0 
0.0 0.0 -7.349073124327e-04 
-5.970419350956e-04 7.303350951608e-04 0.0 
7.303350951608e-04 4.369967111415e-03 0.0 
0.0 0.0 -7.622392297106e-04 
-6.532929672579e-04 6.522887049741e-04 0.0 
6.522887049741e-04 4.806542372592e-03 0.0 
0.0 0.0 -8.253152238873e-04 
-5.665194748989e-04 6.694860838181e-04 0.0 
6.694860838181e-04 4.478701756150e-03 0.0 
0.0 0.0 -7.896995018144e-04 
-5.068058502527e-04 7.602496009026e-04 0.0 
7.602496009026e-04 4.031209139410e-03 0.0 
0.0 0.0 -7.264132926704e-04 
-4.737449794266e-04 6.709445860115e-04 0.0 
6.709445860115e-04 4.140917238724e-03 0.0 
0.0 0.0 -7.539848323805e-04 
-4.092281239023e-04 7.730243516518e-04 0.0 
7.730243516518e-04 3.680765614921e-03 0.0 
0.0 0.0 -6.903858661722e-04 
-3.744957372966e-04 6.516877818939e-04 0.0 
6.516877818939e-04 3.794607072583e-03 0.0 
0.0 0.0 -7.182351804274e-04 
-3.014418119782e-04 7.651198626849e-04 0.0 
7.651198626849e-04 3.317111817818e-03 0.0 
0.0 0.0 -6.542402593883e-04 
-2.691367924077e-04 5.991354595496e-04 0.0 
5.991354595496e-04 3.436288112929e-03 0.0 
0.0 0.0 -6.821763112594e-04 
-3.572033048063e-04 5.016025540799e-04 0.0 
5.016025540799e-04 3.930238801817e-03 0.0 
0.0 0.0 -7.460902125261e-04 
-2.604633093040e-04 4.087486075233e-04 0.0 
4.087486075233e-04 3.586761049540e-03 0.0 
0.0 0.0 -7.100832486075e-04 
-1.613056217724e-04 4.995138349428e-04 0.0 
4.995138349428e-04 3.072389318551e-03 0.0 
0.0 0.0 -6.458624074531e-04 
-1.669705829229e-04 2.701808013183e-04 0.0 
2.701808013183e-04 3.243787358763e-03 0.0 
0.0 0.0 -6.737786430284e-04 
-2.753947664968e-04 2.161212745525e-04 0.0 
2.161212745525e-04 3.768674846201e-03 0.0 
0.0 0.0 -7.381473126730e-04 
-2.005498486414e-04 5.346396201185e-05 0.0 
5.346396201185e-05 3.452103226554e-03 0.0 
0.0 0.0 -7.017500108595e-04 
-3.129525029214e-04 3.691539212023e-05 0.0 
3.691539212023e-05 3.980008917697e-03 0.0 
0.0 0.0 -7.662494016216e-04 
-2.576506604218e-04 -1.344602376400e-04 0.0 
-1.344602376400e-04 3.691587731914e-03 0.0 
0.0 0.0 -7.297828278826e-04 
-1.426325829897e-04 -1.501001214894e-04 0.0 
-1.501001214894e-04 3.157731231159e-03 0.0 
0.0 0.0 -6.655364893108e-04 
-2.218003623758e-04 -3.334729403515e-04 0.0 
-3.334729403515e-04 3.428848173996e-03 0.0 
0.0 0.0 -6.934067383651e-04 
-3.318343911700e-04 -2.853674173367e-04 0.0 
-2.853674173367e-04 3.952815162001e-03 0.0 
0.0 0.0 -7.577868799165e-04 
-3.144801710965e-04 -4.682272711583e-04 0.0 
-4.682272711583e-04 3.714915939774e-03 0.0 
0.0 0.0 -7.212202614536e-04 
-2.108184981842e-04 -5.509789330318e-04 0.0 
-5.509789330318e-04 3.196953321697e-03 0.0 
0.0 0.0 -6.571136838490e-04 
-3.194748950850e-04 -6.509678457029e-04 0.0 
-6.509678457029e-04 3.509025892108e-03 0.0 
0.0 0.0 -6.848379476561e-04 
-4.134303053585e-04 -5.537180261355e-04 0.0 
-5.537180261355e-04 4.010754256809e-03 0.0 
0.0 0.0 -7.491645792950e-04 
-4.282972412297e-04 -7.003622053819e-04 0.0 
-7.003622053819e-04 3.819503617895e-03 0.0 
0.0 0.0 -7.127097857715e-04 
-3.469063150971e-04 -8.191207970740e-04 0.0 
-8.191207970740e-04 3.332834435183e-03 0.0 
0.0 0.0 -6.486049398320e-04 
-4.603200915782e-04 -8.241016297384e-04 0.0 
-8.241016297384e-04 3.654972315785e-03 0.0 
0.0 0.0 -6.763006240845e-04 
-5.326763552168e-04 -7.095630877107e-04 0.0 
-7.095630877107e-04 4.127629826769e-03 0.0 
0.0 0.0 -7.409416231994e-04 
-5.642434690968e-04 -7.961766967206e-04 0.0 
-7.961766967206e-04 3.962246775740e-03 0.0 
0.0 0.0 -7.042275185679e-04 
-5.048810542407e-04 -9.111393169982e-04 0.0 
-9.111393169982e-04 3.507729400124e-03 0.0 
0.0 0.0 -6.398389559308e-04 
-6.027165900428e-04 -8.444966016725e-04 0.0 
-8.444966016725e-04 3.810620087909e-03 0.0 
0.0 0.0 -6.674633383154e-04 
-6.579291994771e-04 -7.450391146030e-04 0.0 
-7.450391146030e-04 4.258237816838e-03 0.0 
0.0 0.0 -7.324886333286e-04 
-6.885251553241e-04 -7.661379123145e-04 0.0 
-7.661379123145e-04 4.095680745521e-03 0.0 
0.0 0.0 -6.954027321055e-04 
-7.420005201256e-04 -6.813900099092e-04 0.0 
-6.813900099092e-04 4.540296059999e-03 0.0 
0.0 0.0 -7.608997874520e-04 
-6.419229239274e-04 -8.515280830913e-04 0.0 
-8.515280830913e-04 3.660198205629e-03 0.0 
0.0 0.0 -6.302092384919e-04 
-7.165087956100e-04 -7.532581299851e-04 0.0 
-7.532581299851e-04 3.933160643348e-03 0.0 
0.0 0.0 -6.580989212857e-04 
-6.748415764425e-04 -8.158732049488e-04 0.0 
-8.158732049488e-04 3.506981101763e-03 0.0 
0.0 0.0 -5.925517106747e-04 
-7.365832294088e-04 -7.073699189760e-04 0.0 
-7.073699189760e-04 3.765896700508e-03 0.0 
0.0 0.0 -6.207111136070e-04 
-6.332000182986e-04 5.918731838089e-04 0.0 
5.918731838089e-04 4.929291128701e-03 0.0 
0.0 0.0 -8.529317679587e-04 
-6.943116331248e-04 -7.425915444218e-04 0.0 
-7.425915444218e-04 3.344277999279e-03 0.0 
0.0 0.0 -5.549884598765e-04 
-6.397413698948e-04 -8.660814527003e-04 0.0 
-8.660814527003e-04 3.093984914707e-03 0.0 
0.0 0.0 -5.276250340903e-04 
-7.441497249529e-04 -6.348309289793e-04 0.0 
-6.348309289793e-04 3.588685288948e-03 0.0 
0.0 0.0 -5.833260987948e-04 
-7.927694967591e-04 -6.072286345187e-04 0.0 
-6.072286345187e-04 4.017000879105e-03 0.0 
0.0 0.0 -6.493616581942e-04 
-6.966675025981e-04 -6.428656991036e-04 0.0 
-6.428656991036e-04 3.166084591150e-03 0.0 
0.0 0.0 -5.173870653820e-04 
-7.365323002863e-04 -5.431818663254e-04 0.0 
-5.431818663254e-04 3.397457388952e-03 0.0 
0.0 0.0 -5.459094278256e-04 
-6.801980278813e-04 -5.258870908465e-04 0.0 
-5.258870908465e-04 2.971149924429e-03 0.0 
0.0 0.0 -4.798161731008e-04 
-3.522724475006e-04 8.978406558880e-04 0.0 
8.978406558880e-04 3.218246737404e-03 0.0 
0.0 0.0 -6.252159162693e-04 
-1.003922379852e-03 4.867498946042e-04 0.0 
4.867498946042e-04 6.194900288835e-03 0.0 
0.0 0.0 -9.750716696758e-04 
-7.134730581966e-04 -4.396097415729e-04 0.0 
-4.396097415729e-04 3.191992919970e-03 0.0 
0.0 0.0 -5.084495576641e-04 
-6.454975030147e-04 -4.098543326581e-04 0.0 
-4.098543326581e-04 2.756723401947e-03 0.0 
0.0 0.0 -4.423119711188e-04 
-6.169555617155e-04 -4.854535332185e-04 0.0 
-4.854535332185e-04 2.543124995000e-03 0.0 
0.0 0.0 -4.136824817550e-04 
-5.630688119643e-04 -3.553409865602e-04 0.0 
-3.553409865602e-04 2.315573721592e-03 0.0 
0.0 0.0 -3.761903503575e-04 
-1.032297422083e-03 1.966440866369e-04 0.0 
1.966440866369e-04 6.038887422175e-03 0.0 
0.0 0.0 -9.126358703463e-04 
-1.092679819842e-03 2.404953654437e-04 0.0 
2.404953654437e-04 6.471742125457e-03 0.0 
0.0 0.0 -9.772611937912e-04 
-1.065662184042e-03 1.952825978825e-04 0.0 
1.952825978825e-04 6.276115658093e-03 0.0 
0.0 0.0 -9.468612964576e-04 
-1.124488971150e-03 2.272669760496e-04 0.0 
2.272669760496e-04 6.729090336894e-03 0.0 
0.0 0.0 -1.012955122490e-03 
-1.098065280761e-03 1.864830102051e-04 0.0 
1.864830102051e-04 6.541298868571e-03 0.0 
0.0 0.0 -9.835180958883e-04 
-5.915603593799e-04 -3.065298427479e-04 0.0 
-3.065298427479e-04 2.521782196510e-03 0.0 
0.0 0.0 -4.047791634435e-04 
-1.117175513921e-03 3.540420738705e-04 0.0 
3.540420738705e-04 6.717826161917e-03 0.0 
0.0 0.0 -1.026687169009e-03 
-1.146459728684e-03 2.677090129604e-04 0.0 
2.677090129604e-04 6.908937528882e-03 0.0 
0.0 0.0 -1.042264213861e-03 
-8.619810308033e-04 5.269046982762e-04 0.0 
5.269046982762e-04 4.942534175484e-03 0.0 
0.0 0.0 -7.861871271282e-04 
-6.685992335526e-04 7.579980182072e-04 0.0 
7.579980182072e-04 4.174187567995e-03 0.0 
0.0 0.0 -7.076088937226e-04 
-3.823000922578e-04 1.751040962943e-04 0.0 
1.751040962943e-04 4.285393794973e-03 0.0 
0.0 0.0 -8.027518904046e-04 
-7.754697783619e-04 -4.563258168331e-04 0.0 
-4.563258168331e-04 3.623603682734e-03 0.0 
0.0 0.0 -5.745905038755e-04 
-7.478137892348e-04 -3.620965601600e-04 0.0 
-3.620965601600e-04 3.412205611854e-03 0.0 
0.0 0.0 -5.371338854166e-04 
-8.174754817651e-04 -3.813163108904e-04 0.0 
-3.813163108904e-04 3.849101426160e-03 0.0 
0.0 0.0 -6.033452624549e-04 
-7.192525572030e-04 -6.519418612780e-04 0.0 
-6.519418612780e-04 4.714458239345e-03 0.0 
0.0 0.0 -7.980428604176e-04 
-8.008672232585e-04 -6.001783307384e-04 0.0 
-6.001783307384e-04 4.992005436326e-03 0.0 
0.0 0.0 -8.266132305475e-04 
-7.854918836627e-04 -5.659348858598e-04 0.0 
-5.659348858598e-04 5.176434454621e-03 0.0 
0.0 0.0 -8.638188500004e-04 
-8.639017049063e-04 -5.248351014622e-04 0.0 
-5.248351014622e-04 5.448454375514e-03 0.0 
0.0 0.0 -8.924533907576e-04 
-8.555184497349e-04 -4.894755576408e-04 0.0 
-4.894755576408e-04 5.642058910946e-03 0.0 
0.0 0.0 -9.297164513315e-04 
-9.301291339826e-04 -4.570426975750e-04 0.0 
-4.570426975750e-04 5.908844626244e-03 0.0 
0.0 0.0 -9.583747859490e-04 
-9.353789003032e-04 -4.780922276340e-04 0.0 
-4.780922276340e-04 5.711821717037e-03 0.0 
0.0 0.0 -9.210728288235e-04 
-9.984662583326e-04 -4.207024963502e-04 0.0 
-4.207024963502e-04 6.168121907027e-03 0.0 
0.0 0.0 -9.870277070005e-04 
-1.000069004232e-03 -4.285924737525e-04 0.0 
-4.285924737525e-04 5.966651563586e-03 0.0 
0.0 0.0 -9.497007337289e-04 
-9.283284515458e-04 -4.229135290675e-04 0.0 
-4.229135290675e-04 6.110180447664e-03 0.0 
0.0 0.0 -9.956835613869e-04 
-8.527578693464e-04 -4.403303765288e-04 0.0 
-4.403303765288e-04 5.842885643991e-03 0.0 
0.0 0.0 -9.668198671257e-04 
-1.059819806392e-03 -3.815720688592e-04 0.0 
-3.815720688592e-04 6.418981492352e-03 0.0 
0.0 0.0 -1.015681523326e-03 
-1.057949721367e-03 -3.770560260125e-04 0.0 
-3.770560260125e-04 6.213345858748e-03 0.0 
0.0 0.0 -9.783260305704e-04 
-1.113690001508e-03 -3.391138449317e-04 0.0 
-3.391138449317e-04 6.662067817752e-03 0.0 
0.0 0.0 -1.044362401637e-03 
-1.108897527401e-03 -3.261874601882e-04 0.0 
-3.261874601882e-04 6.451449547970e-03 0.0 
0.0 0.0 -1.007007767922e-03 
-1.056102434059e-03 -3.617377197121e-04 0.0 
-3.617377197121e-04 6.006353850389e-03 0.0 
0.0 0.0 -9.408676861799e-04 
-1.103510128039e-03 -3.034940289184e-04 0.0 
-3.034940289184e-04 6.238484304806e-03 0.0 
0.0 0.0 -9.695029660748e-04 
-1.052845247082e-03 -3.373861149014e-04 0.0 
-3.373861149014e-04 5.798954310895e-03 0.0 
0.0 0.0 -9.035672079865e-04 
-4.228503435162e-04 2.652797493901e-05 0.0 
2.652797493901e-05 4.498640496550e-03 0.0 
0.0 0.0 -8.309624794500e-04 
-4.884683166150e-04 1.460460655517e-04 0.0 
1.460460655517e-04 4.796700712876e-03 0.0 
0.0 0.0 -8.675775700443e-04 
-5.309148746778e-04 2.225588307319e-05 0.0 
2.225588307319e-05 5.010085131158e-03 0.0 
0.0 0.0 -8.958500940740e-04 
-5.943549435448e-04 1.251718936452e-04 0.0 
1.251718936452e-04 5.302582402065e-03 0.0 
0.0 0.0 -9.325549191312e-04 
-6.382538609797e-04 2.086054713912e-05 0.0 
2.086054713912e-05 5.516155282354e-03 0.0 
0.0 0.0 -9.609176734917e-04 
-7.011603817707e-04 1.101794033340e-04 0.0 
1.101794033340e-04 5.804703043974e-03 0.0 
0.0 0.0 -9.976363410588e-04 
-7.465959866999e-04 2.216834778625e-05 0.0 
2.216834778625e-05 6.016830116331e-03 0.0 
0.0 0.0 -1.026032504441e-03 
-6.923978724816e-04 -6.826398853254e-05 0.0 
-6.826398853254e-05 5.743653636097e-03 0.0 
0.0 0.0 -9.892761093610e-04 
-1.092308246197e-03 4.087334969491e-04 0.0 
4.087334969491e-04 6.601377400440e-03 0.0 
0.0 0.0 -1.018102500310e-03 
-5.675897396992e-05 3.425637172408e-04 0.0 
3.425637172408e-04 2.708861454988e-03 0.0 
0.0 0.0 -6.095594541484e-04 
-6.420114659775e-05 6.151203334216e-04 0.0 
6.151203334216e-04 2.551183745386e-03 0.0 
0.0 0.0 -5.816898710390e-04 
5.441246620249e-05 4.399473863901e-04 0.0 
4.399473863901e-04 2.161774981432e-03 0.0 
0.0 0.0 -5.454521931755e-04 
2.844502818309e-05 7.644395339616e-04 0.0 
7.644395339616e-04 2.024830997844e-03 0.0 
0.0 0.0 -5.176388733440e-04 
1.652901373793e-04 5.705702379394e-04 0.0 
5.705702379394e-04 1.600345183292e-03 0.0 
0.0 0.0 -4.814163979944e-04 
1.130601457631e-04 9.562292981796e-04 0.0 
9.562292981796e-04 1.494895390825e-03 0.0 
0.0 0.0 -4.537165770244e-04 
2.845119300012e-04 7.483953602617e-04 0.0 
7.483953602617e-04 1.019187802654e-03 0.0 
0.0 0.0 -4.208902240644e-04 
2.929325993539e-04 2.620833489363e-04 0.0 
2.620833489363e-04 1.186149753907e-03 0.0 
0.0 0.0 -4.466351565148e-04 
4.659960569609e-04 3.874152989476e-04 0.0 
3.874152989476e-04 5.352766773023e-04 0.0 
0.0 0.0 -3.736376070058e-04 
4.059265982279e-04 -1.758088808093e-04 0.0 
-1.758088808093e-04 8.092916298160e-04 0.0 
0.0 0.0 -4.168446658567e-04 
5.790431118009e-04 -1.610129805314e-04 0.0 
-1.610129805314e-04 1.533127793959e-04 0.0 
0.0 0.0 -3.063790003961e-04 
4.494391646470e-04 -7.152402717994e-04 0.0 
-7.152402717994e-04 5.082279969168e-04 0.0 
0.0 0.0 -3.640020775467e-04 
-8.080190775198e-04 5.920502661192e-04 0.0 
5.920502661192e-04 5.436356176569e-03 0.0 
0.0 0.0 -8.963565068603e-04 
-6.651558879210e-04 2.088271070434e-04 0.0 
2.088271070434e-04 5.603894024499e-03 0.0 
0.0 0.0 -9.691568884624e-04 
-7.699005087498e-04 1.883379167874e-04 0.0 
1.883379167874e-04 6.102423018858e-03 0.0 
0.0 0.0 -1.034312087004e-03 
-7.384024095732e-04 2.760115291154e-04 0.0 
2.760115291154e-04 5.907746579569e-03 0.0 
0.0 0.0 -1.005320805676e-03 
-5.404221803057e-04 -4.187129725138e-04 0.0 
-4.187129725138e-04 2.110154003912e-03 0.0 
0.0 0.0 -3.475522021424e-04 
-1.152888887005e-03 -2.763407572661e-04 0.0 
-2.763407572661e-04 6.681517292358e-03 0.0 
0.0 0.0 -1.035773625862e-03 
-9.326850124499e-04 -3.805734010338e-04 0.0 
-3.805734010338e-04 6.318938914437e-03 0.0 
0.0 0.0 -1.032922975483e-03 
-8.578946226242e-04 -3.814307824260e-04 0.0 
-3.814307824260e-04 6.050788235921e-03 0.0 
0.0 0.0 -1.003739924893e-03 
-8.007230077279e-04 -5.030783828559e-05 0.0 
-5.030783828559e-05 6.244226135644e-03 0.0 
0.0 0.0 -1.054598834243e-03 
-4.941523760955e-04 -2.470231279283e-04 0.0 
-2.470231279283e-04 2.071816915527e-03 0.0 
0.0 0.0 -3.392587823741e-04 
1.975953042673e-04 1.172543779916e-03 0.0 
1.172543779916e-03 9.666654142640e-04 0.0 
0.0 0.0 -3.922431101850e-04 
5.175793587872e-06 1.277837662737e-03 0.0 
1.277837662737e-03 1.466786264722e-03 0.0 
0.0 0.0 -4.261104576107e-04 
-1.152692083578e-03 2.146597661269e-04 0.0 
2.146597661269e-04 6.983288018661e-03 0.0 
0.0 0.0 -1.048874596840e-03 
-1.125979627456e-03 1.800276227316e-04 0.0 
1.800276227316e-04 6.792196765101e-03 0.0 
0.0 0.0 -1.019458214591e-03 
-9.448287362971e-04 -3.295389867260e-04 0.0 
-3.295389867260e-04 6.536387605041e-03 0.0 
0.0 0.0 -1.070157681403e-03 
-5.240293716215e-04 -2.102668930863e-04 0.0 
-2.102668930863e-04 2.277314558376e-03 0.0 
0.0 0.0 -3.675747464493e-04 
-1.063791247498e-03 -3.742192618344e-04 0.0 
-3.742192618344e-04 6.627422368744e-03 0.0 
0.0 0.0 -1.052997445444e-03 
5.558984473440e-04 4.127353325470e-04 0.0 
4.127353325470e-04 1.463881506698e-05 0.0 
0.0 0.0 -2.445159696047e-04 
-1.144117684349e-03 -2.458346103954e-04 0.0 
-2.458346103954e-04 6.462839923362e-03 0.0 
0.0 0.0 -9.982306137915e-04 
-1.191309827109e-03 -2.266694415371e-04 0.0 
-2.266694415371e-04 6.904200660223e-03 0.0 
0.0 0.0 -1.064501221861e-03 
-9.418341400068e-04 -4.830251057162e-04 0.0 
-4.830251057162e-04 5.517520339527e-03 0.0 
0.0 0.0 -8.838659695519e-04 
-8.408929706273e-04 2.533730996691e-04 0.0 
2.533730996691e-04 6.403362100756e-03 0.0 
0.0 0.0 -1.070909199420e-03 
-8.123210735737e-04 3.267258872306e-04 0.0 
3.267258872306e-04 6.208133296915e-03 0.0 
0.0 0.0 -1.041442769611e-03 
2.640974401389e-04 -6.120925406395e-04 0.0 
-6.120925406395e-04 1.170954425306e-03 0.0 
0.0 0.0 -4.384799197683e-04 
2.270076462303e-04 -1.094827319140e-03 0.0 
-1.094827319140e-03 9.810701092341e-04 0.0 
0.0 0.0 -4.046094527367e-04 
3.640551099348e-04 -1.155184556941e-03 0.0 
-1.155184556941e-03 4.131638396833e-04 0.0 
0.0 0.0 -3.139947606995e-04 
1.171979887630e-04 -1.455005939438e-03 0.0 
-1.455005939438e-03 9.453620887615e-04 0.0 
0.0 0.0 -3.763072820036e-04 
2.556371078841e-05 -1.262704422364e-03 0.0 
-1.262704422364e-03 1.454464914390e-03 0.0 
0.0 0.0 -4.289053338950e-04 
-8.947678599683e-05 -1.490768828574e-03 0.0 
-1.490768828574e-03 1.396555812330e-03 0.0 
0.0 0.0 -3.979758726750e-04 
2.329510608106e-05 -1.514078363831e-03 0.0 
-1.514078363831e-03 9.452166061342e-04 0.0 
0.0 0.0 -3.667276109228e-04 
-2.100553572376e-04 -1.558593298157e-03 0.0 
-1.558593298157e-03 1.402552177449e-03 0.0 
0.0 0.0 -3.771854463149e-04 
-2.665534885264e-04 -1.440543195804e-03 0.0 
-1.440543195804e-03 1.828480576306e-03 0.0 
0.0 0.0 -4.192720002935e-04 
-3.858828221178e-04 -1.432331817451e-03 0.0 
-1.432331817451e-03 1.803183213938e-03 0.0 
0.0 0.0 -3.853829593207e-04 
-2.961455271275e-04 -1.398427341996e-03 0.0 
-1.398427341996e-03 1.416563920223e-03 0.0 
0.0 0.0 -3.646163496721e-04 
-4.654616132702e-04 -1.259328861233e-03 0.0 
-1.259328861233e-03 1.764244007017e-03 0.0 
0.0 0.0 -3.558200702016e-04 
-1.201889062818e-03 -2.543911578407e-04 0.0 
-2.543911578407e-04 7.124942193322e-03 0.0 
0.0 0.0 -1.101875158976e-03 
5.412904168970e-04 -8.385322248721e-05 0.0 
-8.385322248721e-05 -1.404456435363e-04 0.0 
0.0 0.0 -1.717906171546e-04 
-9.463800631761e-04 3.860027273263e-04 0.0 
3.860027273263e-04 5.343793686453e-03 0.0 
0.0 0.0 -8.288706041983e-04 
-1.014362980206e-03 -3.321555799501e-04 0.0 
-3.321555799501e-04 6.794335154877e-03 0.0 
0.0 0.0 -1.099012274073e-03 
-8.569045148225e-04 3.078985663283e-05 0.0 
3.078985663283e-05 6.510332221214e-03 0.0 
0.0 0.0 -1.090660416876e-03 
-1.178566600954e-03 2.066846340334e-04 0.0 
2.066846340334e-04 7.236502688045e-03 0.0 
0.0 0.0 -1.085032576515e-03 
-1.153658343620e-03 1.755152393049e-04 0.0 
1.755152393049e-04 7.044914703598e-03 0.0 
0.0 0.0 -1.055603631703e-03 
-1.098678134952e-03 1.564744163133e-04 0.0 
1.564744163133e-04 6.595940529562e-03 0.0 
0.0 0.0 -9.897378988699e-04 
-1.129113373444e-03 1.503482155027e-04 0.0 
1.503482155027e-04 6.853244331223e-03 0.0 
0.0 0.0 -1.026001677571e-03 
-1.181824965340e-03 1.678156779438e-04 0.0 
1.678156779438e-04 7.301020112961e-03 0.0 
0.0 0.0 -1.091942449670e-03 
-1.157557793781e-03 1.434383666525e-04 0.0 
1.434383666525e-04 7.107529686986e-03 0.0 
0.0 0.0 -1.062342898562e-03 
-1.103342207633e-03 1.238709536611e-04 0.0 
1.238709536611e-04 6.657901312686e-03 0.0 
0.0 0.0 -9.962627399151e-04 
-1.130139591936e-03 1.194308116232e-04 0.0 
1.194308116232e-04 6.908298246914e-03 0.0 
0.0 0.0 -1.032646955902e-03 
-1.072650473166e-03 9.941159075289e-05 0.0 
9.941159075289e-05 6.455574140328e-03 0.0 
0.0 0.0 -9.664557332607e-04 
-1.101356119743e-03 9.815565709695e-05 0.0 
9.815565709695e-05 6.706288769856e-03 0.0 
0.0 0.0 -1.002889032254e-03 
-1.155889062888e-03 1.141636426079e-04 0.0 
1.141636426079e-04 7.157664523701e-03 0.0 
0.0 0.0 -1.069134413525e-03 
-1.129364737971e-03 9.069177524751e-05 0.0 
9.069177524751e-05 6.958007176896e-03 0.0 
0.0 0.0 -1.039387411609e-03 
-1.074512864600e-03 8.003659807365e-05 0.0 
8.003659807365e-05 6.506063569350e-03 0.0 
0.0 0.0 -9.730575354659e-04 
-1.102505706781e-03 6.895302199807e-05 0.0 
6.895302199807e-05 6.755927681467e-03 0.0 
0.0 0.0 -1.009574527126e-03 
-1.046730538131e-03 5.947738879001e-05 0.0 
5.947738879001e-05 6.301429284161e-03 0.0 
0.0 0.0 -9.431603702596e-04 
-1.071542509842e-03 4.629020306893e-05 0.0 
4.629020306893e-05 6.545497453892e-03 0.0 
0.0 0.0 -9.796061197752e-04 
-1.128792209327e-03 6.597728227981e-05 0.0 
6.597728227981e-05 7.006220652052e-03 0.0 
0.0 0.0 -1.046101832713e-03 
-4.073418969283e-04 -1.607374412238e-04 0.0 
-1.607374412238e-04 1.828608037656e-03 0.0 
0.0 0.0 -3.035957800550e-04 
-7.554826328512e-04 -1.381735686785e-04 0.0 
-1.381735686785e-04 5.982792301535e-03 0.0 
0.0 0.0 -1.017732614895e-03 
-8.650297313857e-04 -1.043541426240e-04 0.0 
-1.043541426240e-04 6.483758424389e-03 0.0 
0.0 0.0 -1.083831836677e-03 
-7.928232165852e-04 -3.175969841458e-04 0.0 
-3.175969841458e-04 3.652484692606e-03 0.0 
0.0 0.0 -5.671321338944e-04 
-8.566347672055e-04 -3.217821912401e-04 0.0 
-3.217821912401e-04 4.048954472777e-03 0.0 
0.0 0.0 -6.325382687906e-04 
-8.804918361104e-04 -3.627202257711e-04 0.0 
-3.627202257711e-04 4.282181100263e-03 0.0 
0.0 0.0 -6.695659616924e-04 
-9.177573047803e-04 -2.924538415403e-04 0.0 
-2.924538415403e-04 4.507721826303e-03 0.0 
0.0 0.0 -6.986863204145e-04 
-1.099135465243e-03 4.357947276918e-05 0.0 
4.357947276918e-05 6.797671672464e-03 0.0 
0.0 0.0 -1.015477767897e-03 
-1.160436245727e-03 6.544078644588e-05 0.0 
6.544078644588e-05 7.256684604588e-03 0.0 
0.0 0.0 -1.082739357160e-03 
7.036319334209e-05 1.449833710054e-03 0.0 
1.449833710054e-03 1.011168072104e-03 0.0 
0.0 0.0 -3.730214571323e-04 
-1.313033917885e-04 1.466714958247e-03 0.0 
1.466714958247e-03 1.502828426790e-03 0.0 
0.0 0.0 -4.032920832132e-04 
-1.202425520628e-03 2.413601229435e-04 0.0 
2.413601229435e-04 7.423802842249e-03 0.0 
0.0 0.0 -1.114382729655e-03 
-1.180850422310e-03 -1.936004808914e-04 0.0 
-1.936004808914e-04 6.684429122052e-03 0.0 
0.0 0.0 -1.027045364000e-03 
-1.134320678585e-03 -2.084199271041e-04 0.0 
-2.084199271041e-04 6.243084428302e-03 0.0 
0.0 0.0 -9.609938998495e-04 
-5.952582294012e-04 8.316068584819e-04 0.0 
8.316068584819e-04 3.858437738170e-03 0.0 
0.0 0.0 -6.721935305596e-04 
-6.370100935664e-04 8.121723615139e-04 0.0 
8.121723615139e-04 3.769953827514e-03 0.0 
0.0 0.0 -6.449639573754e-04 
-5.665659749616e-04 8.991854182347e-04 0.0 
8.991854182347e-04 3.453268816289e-03 0.0 
0.0 0.0 -6.093131083769e-04 
-6.122481697245e-04 8.584550154617e-04 0.0 
8.584550154617e-04 3.367517643807e-03 0.0 
0.0 0.0 -5.812298138028e-04 
-6.717347223774e-04 7.671538527367e-04 0.0 
7.671538527367e-04 3.680324616707e-03 0.0 
0.0 0.0 -6.173664885638e-04 
-5.474862438506e-04 9.567364556164e-04 0.0 
9.567364556164e-04 3.048590303343e-03 0.0 
0.0 0.0 -5.448148816535e-04 
-7.720267330795e-04 -4.449545656596e-04 0.0 
-4.449545656596e-04 5.565922562376e-03 0.0 
0.0 0.0 -9.373051277721e-04 
-1.182206612194e-03 1.041005248131e-04 0.0 
1.041005248131e-04 7.409010778114e-03 0.0 
0.0 0.0 -1.105708206284e-03 
-5.928875136439e-04 -5.713513742364e-04 0.0 
-5.713513742364e-04 2.330327898660e-03 0.0 
0.0 0.0 -3.852871208612e-04 
-5.197872744909e-04 -4.881912543796e-04 0.0 
-4.881912543796e-04 1.906337896852e-03 0.0 
0.0 0.0 -3.193625892355e-04 
-1.227873719132e-03 -1.791865956722e-04 0.0 
-1.791865956722e-04 7.126040838435e-03 0.0 
0.0 0.0 -1.093300181677e-03 
-6.499802166189e-04 -1.689058959396e-04 0.0 
-1.689058959396e-04 5.481207367019e-03 0.0 
0.0 0.0 -9.522822042369e-04 
-8.770180670307e-04 5.584319225786e-04 0.0 
5.584319225786e-04 5.741150606381e-03 0.0 
0.0 0.0 -9.319735432435e-04 
-8.671724403427e-04 5.454834419887e-04 0.0 
5.454834419887e-04 5.872286509418e-03 0.0 
0.0 0.0 -9.598347391831e-04 
-9.359860302395e-04 5.226295226197e-04 0.0 
5.226295226197e-04 6.177406845640e-03 0.0 
0.0 0.0 -9.957130113267e-04 
-9.320971335610e-04 5.080083978468e-04 0.0 
5.080083978468e-04 6.315456934145e-03 0.0 
0.0 0.0 -1.023751803962e-03 
-1.000869956237e-03 4.939881751637e-04 0.0 
4.939881751637e-04 6.620841154437e-03 0.0 
0.0 0.0 -1.059873349132e-03 
-1.004419613008e-03 4.777529205192e-04 0.0 
4.777529205192e-04 6.763876066662e-03 0.0 
0.0 0.0 -1.087854580038e-03 
-9.336137141730e-04 4.809338762962e-04 0.0 
4.809338762962e-04 6.463526298401e-03 0.0 
0.0 0.0 -1.051791170495e-03 
-9.097029887622e-04 3.089094526998e-04 0.0 
3.089094526998e-04 6.700162919637e-03 0.0 
0.0 0.0 -1.107463318235e-03 
-1.013980886497e-03 4.491053628713e-04 0.0 
4.491053628713e-04 6.922381498406e-03 0.0 
0.0 0.0 -1.115916943430e-03 
-1.033295848304e-03 4.860531472176e-05 0.0 
4.860531472176e-05 6.321432505072e-03 0.0 
0.0 0.0 -9.487150400336e-04 
-6.387227248277e-04 3.148916192941e-04 0.0 
3.148916192941e-04 5.411845409225e-03 0.0 
0.0 0.0 -9.398448712237e-04 
-3.958753706079e-04 -1.306941406373e-03 0.0 
-1.306941406373e-03 2.210168825673e-03 0.0 
0.0 0.0 -4.474652294669e-04 
-3.867396229061e-04 -1.939364425131e-04 0.0 
-1.939364425131e-04 1.612473113241e-03 0.0 
0.0 0.0 -2.752498982733e-04 
-3.548792531294e-04 -1.099906862766e-03 0.0 
-1.099906862766e-03 1.383653509656e-03 0.0 
0.0 0.0 -3.352047878591e-04 
-4.486846026636e-04 -1.253624941077e-04 0.0 
-1.253624941077e-04 2.009661496099e-03 0.0 
0.0 0.0 -3.299748606085e-04 
-5.597023421830e-04 -1.650736869684e-04 0.0 
-1.650736869684e-04 2.479203026553e-03 0.0 
0.0 0.0 -3.961554456411e-04 
-1.033444219732e-03 -2.887128519644e-04 0.0 
-2.887128519644e-04 7.020027445513e-03 0.0 
0.0 0.0 -1.136360603439e-03 
-1.072616243485e-03 4.757105308921e-04 0.0 
4.757105308921e-04 7.071175993343e-03 0.0 
0.0 0.0 -1.124065295910e-03 
-1.065195527322e-03 4.849349100928e-04 0.0 
4.849349100928e-04 6.917548798149e-03 0.0 
0.0 0.0 -1.095615423988e-03 
-6.465811726499e-04 7.943118945265e-04 0.0 
7.943118945265e-04 3.291375737462e-03 0.0 
0.0 0.0 -5.539799138139e-04 
-6.949762395585e-04 6.852387151617e-04 0.0 
6.852387151617e-04 3.583300335040e-03 0.0 
0.0 0.0 -5.905304635153e-04 
-9.409548518096e-04 2.363101942403e-04 0.0 
2.363101942403e-04 6.893498553700e-03 0.0 
0.0 0.0 -1.136278651916e-03 
-1.031330535355e-03 1.691125997159e-04 0.0 
1.691125997159e-04 6.096244556870e-03 0.0 
0.0 0.0 -9.177848451843e-04 
-1.043451867895e-03 1.026605375003e-04 0.0 
1.026605375003e-04 6.207052540714e-03 0.0 
0.0 0.0 -9.302130594432e-04 
-1.010991519056e-03 8.266817185374e-05 0.0 
8.266817185374e-05 5.998028369178e-03 0.0 
0.0 0.0 -9.001900590098e-04 
-3.040782914078e-04 -1.048978576797e-04 0.0 
-1.048978576797e-04 1.479833111238e-03 0.0 
0.0 0.0 -2.595221258752e-04 
-1.668157979825e-04 -1.176981615551e-03 0.0 
-1.176981615551e-03 1.066881825257e-03 0.0 
0.0 0.0 -3.546314877250e-04 
-1.207894844135e-03 1.612820959581e-04 0.0 
1.612820959581e-04 7.555800088084e-03 0.0 
0.0 0.0 -1.128363834889e-03 
-1.496144498695e-04 1.267178183608e-03 0.0 
1.267178183608e-03 1.924933515505e-03 0.0 
0.0 0.0 -4.615872697407e-04 
-2.777481430259e-04 1.364720531140e-03 0.0 
1.364720531140e-03 1.941765323137e-03 0.0 
0.0 0.0 -4.342639779644e-04 
4.034334735409e-04 2.445431345025e-04 0.0 
2.445431345025e-04 -9.041096436294e-05 0.0 
0.0 0.0 -1.341525039334e-04 
2.051377463425e-04 -1.961701048020e-05 0.0 
-1.961701048020e-05 -5.720414671563e-05 0.0 
0.0 0.0 -6.340011412580e-05 
-1.121483383227e-03 6.295637452115e-05 0.0 
6.295637452115e-05 7.029111019756e-03 0.0 
0.0 0.0 -1.051814883004e-03 
-1.177494848702e-03 6.582362175726e-05 0.0 
6.582362175726e-05 7.492557943411e-03 0.0 
0.0 0.0 -1.117859435171e-03 
-9.333898311745e-04 -3.509792996749e-04 0.0 
-3.509792996749e-04 4.719089492349e-03 0.0 
0.0 0.0 -7.356929296387e-04 
-9.785857666390e-04 -2.860980495383e-04 0.0 
-2.860980495383e-04 4.943354100410e-03 0.0 
0.0 0.0 -7.648299719236e-04 
-9.654424262213e-04 -2.714537898239e-04 0.0 
-2.714537898239e-04 6.765873836397e-03 0.0 
0.0 0.0 -1.107558395918e-03 
-5.027897087658e-04 -9.882385644824e-04 0.0 
-9.882385644824e-04 1.682465534830e-03 0.0 
0.0 0.0 -3.185922720913e-04 
-1.207361177183e-03 7.219593573452e-05 0.0 
7.219593573452e-05 7.710745314262e-03 0.0 
0.0 0.0 -1.149181664990e-03 
-7.221207359935e-04 -2.319743394949e-04 0.0 
-2.319743394949e-04 5.736084564024e-03 0.0 
0.0 0.0 -9.807908033776e-04 
-6.199444920269e-04 -2.803458900383e-04 0.0 
-2.803458900383e-04 5.234294253432e-03 0.0 
0.0 0.0 -9.152404036620e-04 
-8.850179884087e-04 -2.107315013722e-04 0.0 
-2.107315013722e-04 4.277220058387e-03 0.0 
0.0 0.0 -6.604623333687e-04 
-7.131176054971e-05 1.522786260440e-03 0.0 
1.522786260440e-03 1.128166094303e-03 0.0 
0.0 0.0 -3.722456989795e-04 
1.506124378874e-04 1.353289082485e-03 0.0 
1.353289082485e-03 6.471948717885e-04 0.0 
0.0 0.0 -3.185609919049e-04 
-2.939037762269e-04 -1.257650241065e-03 0.0 
-1.257650241065e-03 2.275247472139e-03 0.0 
0.0 0.0 -4.845585894574e-04 
-5.488065046231e-04 -1.067445958774e-03 0.0 
-1.067445958774e-03 2.060865836395e-03 0.0 
0.0 0.0 -3.723415964733e-04 
-4.888098213751e-04 -1.052003350203e-04 0.0 
-1.052003350203e-04 2.216308377581e-03 0.0 
0.0 0.0 -3.583452993329e-04 
-1.062272686561e-03 -2.298804836140e-04 0.0 
-2.298804836140e-04 7.251651551201e-03 0.0 
0.0 0.0 -1.173829981771e-03 
-1.227876715994e-03 1.893009349700e-04 0.0 
1.893009349700e-04 7.743204952100e-03 0.0 
0.0 0.0 -1.157575248917e-03 
-9.423902529627e-04 4.304393189543e-04 0.0 
4.304393189543e-04 6.620906454591e-03 0.0 
0.0 0.0 -1.080172819833e-03 
-8.612685947681e-04 4.776509476654e-04 0.0 
4.776509476654e-04 6.154589150170e-03 0.0 
0.0 0.0 -1.015677837919e-03 
-1.022115058251e-03 4.070298504517e-04 0.0 
4.070298504517e-04 7.083428986968e-03 0.0 
0.0 0.0 -1.144955025780e-03 
-3.834899570330e-04 -7.958142673473e-04 0.0 
-7.958142673473e-04 1.299084562353e-03 0.0 
0.0 0.0 -2.798534577099e-04 
-1.102214544351e-03 -3.027150081502e-04 0.0 
-3.027150081502e-04 7.282068807861e-03 0.0 
0.0 0.0 -1.165794428787e-03 
-1.216895343866e-03 -1.441675384032e-04 0.0 
-1.441675384032e-04 6.902897395280e-03 0.0 
0.0 0.0 -1.056136825731e-03 
-1.138941837453e-03 4.914289706325e-04 0.0 
4.914289706325e-04 7.351648623001e-03 0.0 
0.0 0.0 -1.157598467365e-03 
-1.123764904198e-03 4.819548128218e-04 0.0 
4.819548128218e-04 7.209866110785e-03 0.0 
0.0 0.0 -1.131219827106e-03 
-2.809946016527e-04 1.203335788346e-03 0.0 
1.203335788346e-03 2.340542833527e-03 0.0 
0.0 0.0 -4.968499830348e-04 
-3.877477755505e-04 1.221962387701e-03 0.0 
1.221962387701e-03 2.338693931197e-03 0.0 
0.0 0.0 -4.705806478706e-04 
-4.036150361409e-04 1.336476693924e-03 0.0 
1.336476693924e-03 1.977592500610e-03 0.0 
0.0 0.0 -4.078257031896e-04 
-4.816859073884e-04 1.176560530353e-03 0.0 
1.176560530353e-03 2.343460801890e-03 0.0 
0.0 0.0 -4.438024830152e-04 
-9.732353814622e-04 3.041939387352e-04 0.0 
3.041939387352e-04 5.448266059909e-03 0.0 
0.0 0.0 -8.361670615232e-04 
-3.925437291381e-04 1.104523798212e-03 0.0 
1.104523798212e-03 2.729748532404e-03 0.0 
0.0 0.0 -5.333915535664e-04 
-9.057439282626e-04 4.261225243385e-04 0.0 
4.261225243385e-04 5.077306138642e-03 0.0 
0.0 0.0 -7.939299641313e-04 
-8.975208378586e-04 3.720025570421e-04 0.0 
3.720025570421e-04 4.930717473606e-03 0.0 
0.0 0.0 -7.665196690739e-04 
-8.600171473097e-04 4.161603871668e-04 0.0 
4.161603871668e-04 4.671461707836e-03 0.0 
0.0 0.0 -7.319524942586e-04 
-7.253516315596e-04 6.727829162625e-04 0.0 
6.727829162625e-04 3.972513731187e-03 0.0 
0.0 0.0 -6.527873785750e-04 
-7.385699352999e-04 5.948696391935e-04 0.0 
5.948696391935e-04 3.862508165088e-03 0.0 
0.0 0.0 -6.261871041946e-04 
-1.081656769382e-04 8.687696267767e-04 0.0 
8.687696267767e-04 2.439613486548e-03 0.0 
0.0 0.0 -5.534964465553e-04 
-4.602867709727e-04 2.826245204948e-04 0.0 
2.826245204948e-04 4.601098480980e-03 0.0 
0.0 0.0 -8.390310526140e-04 
-8.925257354332e-04 -4.271097572203e-04 0.0 
-4.271097572203e-04 4.492522403458e-03 0.0 
0.0 0.0 -7.069621042110e-04 
-1.002856146604e-03 -4.033307783673e-04 0.0 
-4.033307783673e-04 5.565178736137e-03 0.0 
0.0 0.0 -8.751042800696e-04 
-7.003078251289e-04 -5.958729416123e-04 0.0 
-5.958729416123e-04 4.895224615458e-03 0.0 
0.0 0.0 -8.350146568664e-04 
-1.207341521713e-03 1.295685592876e-04 0.0 
1.295685592876e-04 7.603516284320e-03 0.0 
0.0 0.0 -1.135109731873e-03 
-1.234147304705e-03 1.158810138817e-04 0.0 
1.158810138817e-04 7.860000857238e-03 0.0 
0.0 0.0 -1.171938512032e-03 
-1.015895156183e-03 6.930194114772e-05 0.0 
6.930194114772e-05 6.052013455342e-03 0.0 
0.0 0.0 -9.065739516476e-04 
-9.767996699331e-04 4.467953763507e-05 0.0 
4.467953763507e-05 5.838511550894e-03 0.0 
0.0 0.0 -8.764137937918e-04 
-4.392150575772e-04 -3.259674398810e-04 0.0 
-3.259674398810e-04 1.665337581441e-03 0.0 
0.0 0.0 -2.813159824896e-04 
-4.247097810398e-04 -3.644747280315e-04 0.0 
-3.644747280315e-04 1.471773465299e-03 0.0 
0.0 0.0 -2.533966087790e-04 
-8.177306416292e-04 -6.121829702514e-04 0.0 
-6.121829702514e-04 4.811548278672e-03 0.0 
0.0 0.0 -7.894497706086e-04 
-1.082360538362e-03 -3.264662476232e-04 0.0 
-3.264662476232e-04 7.048376439915e-03 0.0 
0.0 0.0 -1.127529358476e-03 
-1.227748397910e-03 2.361030321983e-04 0.0 
2.361030321983e-04 7.672982991330e-03 0.0 
0.0 0.0 -1.150095860580e-03 
-1.249888144017e-03 2.671434152154e-04 0.0 
2.671434152154e-04 7.859407510661e-03 0.0 
0.0 0.0 -1.179372829571e-03 
-1.222973776595e-03 2.761414432265e-04 0.0 
2.761414432265e-04 7.603174812567e-03 0.0 
0.0 0.0 -1.143369325255e-03 
-9.935045909858e-04 -2.028359368237e-04 0.0 
-2.028359368237e-04 6.995967624477e-03 0.0 
0.0 0.0 -1.144273392007e-03 
3.495269992969e-05 1.197649878409e-04 0.0 
1.197649878409e-04 2.359795329880e-03 0.0 
0.0 0.0 -5.733740095480e-04 
-4.781962153862e-04 -1.012252719499e-04 0.0 
-1.012252719499e-04 4.730438814657e-03 0.0 
0.0 0.0 -8.590966742019e-04 
3.810975112987e-04 -3.002206319640e-04 0.0 
-3.002206319640e-04 -7.297745490904e-05 0.0 
0.0 0.0 -1.320514527384e-04 
-7.161621287090e-04 5.841402981115e-04 0.0 
5.841402981115e-04 5.248781673340e-03 0.0 
0.0 0.0 -8.884627649733e-04 
-3.115080858313e-04 -2.227975807547e-04 0.0 
-2.227975807547e-04 1.202076532669e-03 0.0 
0.0 0.0 -2.162536877156e-04 
-1.055053453560e-03 4.626735760724e-04 0.0 
4.626735760724e-04 6.476326574185e-03 0.0 
0.0 0.0 -1.010319580236e-03 
-1.255576380871e-03 -1.315357551102e-04 0.0 
-1.315357551102e-04 7.338059588025e-03 0.0 
0.0 0.0 -1.122815839103e-03 
-1.267850494462e-03 -1.674624135979e-04 0.0 
-1.674624135979e-04 7.563446267715e-03 0.0 
0.0 0.0 -1.159213750608e-03 
-1.010702044889e-03 2.850279828007e-04 0.0 
2.850279828007e-04 7.183997457293e-03 0.0 
0.0 0.0 -1.171959308352e-03 
-8.963384137737e-04 2.488891316052e-04 0.0 
2.488891316052e-04 4.875662042004e-03 0.0 
0.0 0.0 -7.470952864203e-04 
-7.058007902936e-04 5.271243929450e-04 0.0 
5.271243929450e-04 5.385179954600e-03 0.0 
0.0 0.0 -9.162722660995e-04 
-6.228080214073e-04 5.120192170004e-04 0.0 
5.120192170004e-04 5.067178617559e-03 0.0 
0.0 0.0 -8.808726170640e-04 
-8.477370711112e-04 3.577431200157e-04 0.0 
3.577431200157e-04 4.525141676784e-03 0.0 
0.0 0.0 -7.048691535495e-04 
-8.132640120407e-04 4.004719993994e-04 0.0 
4.004719993994e-04 4.272493314920e-03 0.0 
0.0 0.0 -6.707530558731e-04 
-8.209482996094e-04 4.682329320479e-04 0.0 
4.682329320479e-04 4.408754927634e-03 0.0 
0.0 0.0 -6.972958566626e-04 
-7.782280701881e-04 4.523325447572e-04 0.0 
4.523325447572e-04 4.016412533301e-03 0.0 
0.0 0.0 -6.359606378414e-04 
-4.177281549139e-04 -1.168672558867e-03 0.0 
-1.168672558867e-03 2.631942087578e-03 0.0 
0.0 0.0 -5.122594947013e-04 
-4.962383683680e-04 -1.157174554661e-03 0.0 
-1.157174554661e-03 2.541178569243e-03 0.0 
0.0 0.0 -4.750188804659e-04 
-1.154021499096e-03 4.782775772644e-04 0.0 
4.782775772644e-04 7.573815285751e-03 0.0 
0.0 0.0 -1.192042136895e-03 
-1.094464537807e-03 4.618413052259e-04 0.0 
4.618413052259e-04 7.386095086857e-03 0.0 
0.0 0.0 -1.178660172201e-03 
-1.187593002781e-03 4.811019602591e-04 0.0 
4.811019602591e-04 7.655964388501e-03 0.0 
0.0 0.0 -1.193029175878e-03 
-1.163263876641e-03 4.785864187479e-04 0.0 
4.785864187479e-04 7.511604884733e-03 0.0 
0.0 0.0 -1.168165168231e-03 
-1.037083014282e-03 2.184072236099e-04 0.0 
2.184072236099e-04 7.374910845913e-03 0.0 
0.0 0.0 -1.200910491468e-03 
-9.753553652922e-04 1.640389574658e-04 0.0 
1.640389574658e-04 7.090218753853e-03 0.0 
0.0 0.0 -1.164168769488e-03 
-6.028560444752e-04 -1.360178339637e-04 0.0 
-1.360178339637e-04 2.675687027615e-03 0.0 
0.0 0.0 -4.227350873389e-04 
-7.047203305141e-04 5.847954661015e-04 0.0 
5.847954661015e-04 3.476801185836e-03 0.0 
0.0 0.0 -5.646260317871e-04 
-1.245127779796e-03 1.777850177793e-04 0.0 
1.777850177793e-04 7.993741479566e-03 0.0 
0.0 0.0 -1.194151889699e-03 
-8.817872830960e-04 3.208786017712e-04 0.0 
3.208786017712e-04 4.774377627364e-03 0.0 
0.0 0.0 -7.390869131010e-04 
-1.164936831278e-03 -3.113795227657e-04 0.0 
-3.113795227657e-04 7.515893028419e-03 0.0 
0.0 0.0 -1.192835421428e-03 
-1.142129895980e-03 -3.204237901470e-04 0.0 
-3.204237901470e-04 7.305220282504e-03 0.0 
0.0 0.0 -1.156047193884e-03 
8.143997684988e-05 -5.632529459351e-05 0.0 
-5.632529459351e-05 -1.764449114255e-05 0.0 
0.0 0.0 -2.734092244600e-05 
2.721987346519e-04 -4.520014711284e-04 0.0 
-4.520014711284e-04 1.905810524669e-05 0.0 
0.0 0.0 -1.248243599565e-04 
-1.231567197499e-03 6.211834964842e-05 0.0 
6.211834964842e-05 7.963702026826e-03 0.0 
0.0 0.0 -1.184588873336e-03 
-5.000595373901e-04 1.204680535621e-03 0.0 
1.204680535621e-03 1.991465428866e-03 0.0 
0.0 0.0 -3.811925308841e-04 
-5.489936022904e-04 1.042785009975e-03 0.0 
1.042785009975e-03 2.300834123338e-03 0.0 
0.0 0.0 -4.158690271831e-04 
-3.842703009259e-04 1.346678098862e-03 0.0 
1.346678098862e-03 1.633275420512e-03 0.0 
0.0 0.0 -3.660215567096e-04 
-1.330527207980e-03 -3.853221662851e-05 0.0 
-3.853221662851e-05 8.239463133450e-03 0.0 
0.0 0.0 -1.258310293365e-03 
-8.465756460554e-04 5.727197951410e-07 0.0 
5.727197951410e-07 4.947192301730e-03 0.0 
0.0 0.0 -7.479256703001e-04 
-1.285435156603e-03 -1.236167483815e-04 0.0 
-1.236167483815e-04 7.770617594905e-03 0.0 
0.0 0.0 -1.189418985649e-03 
-7.744068399611e-04 5.950771192320e-04 0.0 
5.950771192320e-04 4.259141188703e-03 0.0 
0.0 0.0 -6.884682336192e-04 
-1.252365039908e-03 8.497968466371e-05 0.0 
8.497968466371e-05 8.173452803744e-03 0.0 
0.0 0.0 -1.216510697198e-03 
-7.049683277386e-04 4.524468991294e-04 0.0 
4.524468991294e-04 5.539667182357e-03 0.0 
0.0 0.0 -9.449116413281e-04 
-5.109301527551e-04 9.153066593930e-04 0.0 
9.153066593930e-04 3.518995939107e-03 0.0 
0.0 0.0 -6.353966017694e-04 
-8.973844045661e-04 -2.448816665564e-04 0.0 
-2.448816665564e-04 6.506541659943e-03 0.0 
0.0 0.0 -1.078177493492e-03 
-1.200545941931e-03 2.302554044874e-05 0.0 
2.302554044874e-05 7.723131628604e-03 0.0 
0.0 0.0 -1.149140729088e-03 
-1.267685038875e-03 6.016813044477e-05 0.0 
6.016813044477e-05 8.228074956414e-03 0.0 
0.0 0.0 -1.221625961084e-03 
-9.734656256453e-04 9.189307336811e-05 0.0 
9.189307336811e-05 5.749626761027e-03 0.0 
0.0 0.0 -8.638707813346e-04 
-9.480895872449e-04 4.301450456172e-05 0.0 
4.301450456172e-05 5.516146053233e-03 0.0 
0.0 0.0 -8.327709333130e-04 
-1.011335939965e-03 1.092245285963e-04 0.0 
1.092245285963e-04 5.940162525294e-03 0.0 
0.0 0.0 -8.925140200429e-04 
4.463857562194e-04 7.689358174209e-04 0.0 
7.689358174209e-04 8.096987600889e-05 0.0 
0.0 0.0 -2.260095566693e-04 
2.840813490605e-04 4.390350068277e-04 0.0 
4.390350068277e-04 7.817808705327e-06 0.0 
0.0 0.0 -1.250996390425e-04 
-1.210084270230e-03 9.714327804011e-05 0.0 
9.714327804011e-05 7.658599637129e-03 0.0 
0.0 0.0 -1.142090266074e-03 
-7.141279186037e-04 -2.802255352289e-04 0.0 
-2.802255352289e-04 3.181146952729e-03 0.0 
0.0 0.0 -5.006138788623e-04 
-7.694336124780e-04 -2.009358515531e-04 0.0 
-2.009358515531e-04 3.447879024720e-03 0.0 
0.0 0.0 -5.359218444892e-04 
-5.552155606093e-04 -8.313172136283e-04 0.0 
-8.313172136283e-04 1.917610481523e-03 0.0 
0.0 0.0 -3.334096804080e-04 
-5.855222745600e-04 -8.890134040167e-04 0.0 
-8.890134040167e-04 2.304658271308e-03 0.0 
0.0 0.0 -3.985542937016e-04 
-9.453814008689e-04 -4.031453143009e-04 0.0 
-4.031453143009e-04 4.927324523234e-03 0.0 
0.0 0.0 -7.728092966600e-04 
-8.970888917955e-04 -4.820738487373e-04 0.0 
-4.820738487373e-04 4.692923205728e-03 0.0 
0.0 0.0 -7.441750962829e-04 
-1.057585005233e-03 4.777756013197e-04 0.0 
4.777756013197e-04 6.625238408207e-03 0.0 
0.0 0.0 -1.038692069610e-03 
-1.108626014693e-03 4.632490588969e-04 0.0 
4.632490588969e-04 6.908491944325e-03 0.0 
0.0 0.0 -1.074129358999e-03 
-9.418242035971e-04 5.272068290834e-04 0.0 
5.272068290834e-04 6.041038675917e-03 0.0 
0.0 0.0 -9.675620497173e-04 
-6.990392591995e-04 -3.338931181341e-04 0.0 
-3.338931181341e-04 5.500989544803e-03 0.0 
0.0 0.0 -9.439558448496e-04 
-6.028432506679e-04 -3.974427061355e-04 0.0 
-3.974427061355e-04 5.004524485729e-03 0.0 
0.0 0.0 -8.783802297791e-04 
-5.183067816985e-04 -3.360734288677e-04 0.0 
-3.360734288677e-04 4.731806317453e-03 0.0 
0.0 0.0 -8.502765121185e-04 
-1.259796436841e-03 1.397569485309e-04 0.0 
1.397569485309e-04 8.039016122005e-03 0.0 
0.0 0.0 -1.199867006878e-03 
-1.287397602500e-03 1.387283529904e-04 0.0 
1.387283529904e-04 8.359284824254e-03 0.0 
0.0 0.0 -1.242728214876e-03 
-3.379919536494e-04 -1.097545305898e-03 0.0 
-1.097545305898e-03 2.729711593676e-03 0.0 
0.0 0.0 -5.488632449009e-04 
-2.035001513821e-04 -1.112025139158e-03 0.0 
-1.112025139158e-03 2.365560687545e-03 0.0 
0.0 0.0 -5.212126360957e-04 
-5.194133645792e-04 -1.055659007126e-03 0.0 
-1.055659007126e-03 2.949517889644e-03 0.0 
0.0 0.0 -5.390128571062e-04 
-1.267707936259e-03 2.118212896833e-04 0.0 
2.118212896833e-04 8.185373915988e-03 0.0 
0.0 0.0 -1.223056365294e-03 
-1.302765377273e-03 -1.484462634259e-04 0.0 
-1.484462634259e-04 8.004925592989e-03 0.0 
0.0 0.0 -1.224004481682e-03 
-1.287300987604e-03 -2.136982349667e-04 0.0 
-2.136982349667e-04 7.780826338296e-03 0.0 
0.0 0.0 -1.195820777905e-03 
-2.832529258607e-04 -2.494591043419e-04 0.0 
-2.494591043419e-04 1.024201089409e-03 0.0 
0.0 0.0 -1.882176919714e-04 
-3.969707252897e-04 -4.311951738694e-04 0.0 
-4.311951738694e-04 1.271754487823e-03 0.0 
0.0 0.0 -2.310783895037e-04 
2.054226679739e-05 1.347833966380e-03 0.0 
1.347833966380e-03 8.186709947017e-04 0.0 
0.0 0.0 -3.411234323309e-04 
1.823631015032e-04 1.033435563719e-03 0.0 
1.033435563719e-03 3.956751210192e-04 0.0 
0.0 0.0 -2.477306667953e-04 
-1.268592166038e-03 3.040791407146e-04 0.0 
3.040791407146e-04 8.023493563003e-03 0.0 
0.0 0.0 -1.207258722210e-03 
-1.243812686443e-03 3.149820227485e-04 0.0 
3.149820227485e-04 7.787606541598e-03 0.0 
0.0 0.0 -1.172631524865e-03 
-1.292321070540e-03 2.959466161544e-04 0.0 
2.959466161544e-04 8.333939565192e-03 0.0 
0.0 0.0 -1.247471551777e-03 
-5.223015362984e-04 -5.966006200107e-05 0.0 
-5.966006200107e-05 2.388783331191e-03 0.0 
0.0 0.0 -3.801539159394e-04 
-8.682373190693e-04 4.316445998786e-04 0.0 
4.316445998786e-04 6.315487464641e-03 0.0 
0.0 0.0 -1.045322365442e-03 
-1.095327153402e-03 -1.697306701960e-04 0.0 
-1.697306701960e-04 7.466737774382e-03 0.0 
0.0 0.0 -1.207899217314e-03 
-1.032573115176e-03 -1.219439203281e-04 0.0 
-1.219439203281e-04 7.241482983967e-03 0.0 
0.0 0.0 -1.178012378629e-03 
-1.169146255923e-03 -2.121713741949e-04 0.0 
-2.121713741949e-04 7.798947947966e-03 0.0 
0.0 0.0 -1.244624083072e-03 
-9.796999613362e-04 3.385511052295e-04 0.0 
3.385511052295e-04 6.990100956638e-03 0.0 
0.0 0.0 -1.142102124289e-03 
-1.089777783011e-03 3.180765990224e-04 0.0 
3.180765990224e-04 7.453415741070e-03 0.0 
0.0 0.0 -1.205428683694e-03 
-1.118930099946e-03 4.102866827850e-04 0.0 
4.102866827850e-04 7.540265907261e-03 0.0 
0.0 0.0 -1.209323031234e-03 
7.629343076430e-06 -2.863199915616e-06 0.0 
-2.863199915616e-06 -2.105112574008e-06 0.0 
0.0 0.0 -2.367527358181e-06 
-1.243581183883e-03 1.333985162286e-05 0.0 
1.333985162286e-05 8.050404267198e-03 0.0 
0.0 0.0 -1.199992767657e-03 
-9.467227888159e-04 4.157282563709e-05 0.0 
4.157282563709e-05 5.565131892238e-03 0.0 
0.0 0.0 -8.371571859873e-04 
0.0 0.0 0.0 
0.0 0.0 0.0 
0.0 0.0 0.0 
-9.052370495583e-04 2.926470670919e-05 0.0 
2.926470670919e-05 5.359734394624e-03 0.0 
0.0 0.0 -8.070151920887e-04 
-9.464808288455e-04 2.890706983172e-05 0.0 
2.890706983172e-05 5.631422995547e-03 0.0 
0.0 0.0 -8.451615393777e-04 
-8.746039380960e-04 1.411235588614e-05 0.0 
1.411235588614e-05 5.099179134377e-03 0.0 
0.0 0.0 -7.748096441827e-04 
-4.043228169997e-04 -4.987598217760e-05 0.0 
-4.987598217760e-05 1.919858664121e-03 0.0 
0.0 0.0 -3.155299188714e-04 
-9.342623020306e-04 6.996522255594e-05 0.0 
6.996522255594e-05 5.399295489727e-03 0.0 
0.0 0.0 -8.174106193842e-04 
-9.784066260017e-04 9.518359088927e-05 0.0 
9.518359088927e-05 5.690330335138e-03 0.0 
0.0 0.0 -8.556612431672e-04 
-1.892819975809e-04 -2.080284296464e-04 0.0 
-2.080284296464e-04 7.178215811464e-04 0.0 
0.0 0.0 -1.471067669042e-04 
-1.288411893385e-03 2.088493887645e-04 0.0 
2.088493887645e-04 8.418681062039e-03 0.0 
0.0 0.0 -1.259301554906e-03 
-1.756794603790e-04 -1.355890425743e-04 0.0 
-1.355890425743e-04 7.416554994657e-04 0.0 
0.0 0.0 -1.555489432776e-04 
-1.976593762146e-04 -1.418821488879e-04 0.0 
-1.418821488879e-04 9.406849208869e-04 0.0 
0.0 0.0 -1.806578101979e-04 
-1.201046689643e-03 -2.954808681697e-04 0.0 
-2.954808681697e-04 7.775612660441e-03 0.0 
0.0 0.0 -1.221214701962e-03 
-1.189783866574e-03 -3.147730725178e-04 0.0 
-3.147730725178e-04 7.544251850061e-03 0.0 
0.0 0.0 -1.184344882880e-03 
-1.255201532556e-03 -3.138077392023e-04 0.0 
-3.138077392023e-04 7.995797572139e-03 0.0 
0.0 0.0 -1.247726601234e-03 
-1.240131757912e-03 -2.854581707310e-04 0.0 
-2.854581707310e-04 7.755129215709e-03 0.0 
0.0 0.0 -1.211018817991e-03 
-1.178065560448e-03 -3.176973578615e-04 0.0 
-3.176973578615e-04 7.320283461016e-03 0.0 
0.0 0.0 -1.147066289601e-03 
-1.222397278732e-03 -2.815307542264e-04 0.0 
-2.815307542264e-04 7.565615913449e-03 0.0 
0.0 0.0 -1.176490610025e-03 
-9.163713044728e-04 2.842739858528e-05 0.0 
2.842739858528e-05 5.314561917383e-03 0.0 
0.0 0.0 -7.985989294648e-04 
-1.274574997316e-03 -2.683950520862e-04 0.0 
-2.683950520862e-04 8.060277687178e-03 0.0 
0.0 0.0 -1.249018369598e-03 
-1.258852476870e-03 -2.546999081133e-04 0.0 
-2.546999081133e-04 7.798203538470e-03 0.0 
0.0 0.0 -1.207442871744e-03 
-1.315317272271e-03 -2.575611195837e-04 0.0 
-2.575611195837e-04 8.330215412111e-03 0.0 
0.0 0.0 -1.277927415301e-03 
-7.668426714387e-04 3.712502045957e-04 0.0 
3.712502045957e-04 3.884910929190e-03 0.0 
0.0 0.0 -6.108003466767e-04 
-5.473421814769e-04 1.022591756988e-03 0.0 
1.022591756988e-03 2.665785403795e-03 0.0 
0.0 0.0 -4.789358348571e-04 
-5.922456647504e-04 8.887242813561e-04 0.0 
8.887242813561e-04 2.596399578783e-03 0.0 
0.0 0.0 -4.527251363391e-04 
-5.808013297698e-04 8.699366696317e-04 0.0 
8.699366696317e-04 2.240670147384e-03 0.0 
0.0 0.0 -3.875663759467e-04 
-1.238412356123e-03 4.984956173527e-04 0.0 
4.984956173527e-04 8.013994811476e-03 0.0 
0.0 0.0 -1.240180566941e-03 
-1.214337546906e-03 4.975640446935e-04 0.0 
4.975640446935e-04 7.772501925276e-03 0.0 
0.0 0.0 -1.200590015451e-03 
-1.243705293709e-03 -9.256877991256e-05 0.0 
-9.256877991256e-05 7.122808590461e-03 0.0 
0.0 0.0 -1.087555896896e-03 
-1.202734584511e-03 -9.601844950182e-05 0.0 
-9.601844950182e-05 6.680089324953e-03 0.0 
0.0 0.0 -1.020738973070e-03 
-9.185583597048e-04 2.613338660199e-05 0.0 
2.613338660199e-05 5.392223531156e-03 0.0 
0.0 0.0 -8.108182148135e-04 
-9.103297472006e-04 4.766877897124e-06 0.0 
4.766877897124e-06 5.361690236980e-03 0.0 
0.0 0.0 -8.077352941366e-04 
-9.704696328324e-04 5.332193735867e-05 0.0 
5.332193735867e-05 5.783610110985e-03 0.0 
0.0 0.0 -8.678526801547e-04 
-9.618865758326e-04 7.689592341134e-06 0.0 
7.689592341134e-06 5.712312077429e-03 0.0 
0.0 0.0 -8.609153521579e-04 
-1.020016484653e-03 5.295869978670e-05 0.0 
5.295869978670e-05 6.152608316973e-03 0.0 
0.0 0.0 -9.200517378055e-04 
-1.001436562516e-03 -1.946934861064e-08 0.0 
-1.946934861064e-08 6.084870222159e-03 0.0 
0.0 0.0 -9.108947733944e-04 
-1.057814937538e-03 -6.724482469216e-06 0.0 
-6.724482469216e-06 6.510312548520e-03 0.0 
0.0 0.0 -9.726914458129e-04 
-1.190361938599e-03 4.676934084708e-04 0.0 
4.676934084708e-04 7.866637693242e-03 0.0 
0.0 0.0 -1.245087786853e-03 
-4.581667400111e-04 1.150309043721e-03 0.0 
1.150309043721e-03 1.644170079222e-03 0.0 
0.0 0.0 -3.403956918982e-04 
-8.293555136529e-04 2.952524372658e-04 0.0 
2.952524372658e-04 4.373371002006e-03 0.0 
0.0 0.0 -6.783069842581e-04 
-1.085846180975e-03 1.458307871503e-04 0.0 
1.458307871503e-04 7.572950528203e-03 0.0 
0.0 0.0 -1.228261380050e-03 
-1.024461005777e-03 9.563818815218e-05 0.0 
9.563818815218e-05 7.266751936821e-03 0.0 
0.0 0.0 -1.187396807988e-03 
-7.405303751490e-04 5.124973243675e-04 0.0 
5.124973243675e-04 3.741532766096e-03 0.0 
0.0 0.0 -6.000944487132e-04 
-7.031319460548e-04 4.876864875037e-04 0.0 
4.876864875037e-04 3.366473116495e-03 0.0 
0.0 0.0 -5.401620014017e-04 
-1.203049851257e-03 -2.728203523462e-04 0.0 
-2.728203523462e-04 7.833657430654e-03 0.0 
0.0 0.0 -1.238794375355e-03 
-3.075916606640e-04 1.045868666668e-03 0.0 
1.045868666668e-03 2.766977509803e-03 0.0 
0.0 0.0 -5.600314934590e-04 
-1.321820784768e-03 2.376560243328e-04 0.0 
2.376560243328e-04 8.684022372100e-03 0.0 
0.0 0.0 -1.295459716840e-03 
1.477011241759e-06 4.358298770144e-06 0.0 
4.358298770144e-06 8.908916257870e-07 0.0 
0.0 0.0 -1.014815514662e-06 
5.703109316316e-05 8.792005076422e-05 0.0 
8.792005076422e-05 -2.011421539857e-08 0.0 
0.0 0.0 -2.443327669190e-05 
-4.154706477079e-04 9.854771448034e-04 0.0 
9.854771448034e-04 3.145205208474e-03 0.0 
0.0 0.0 -5.969207367497e-04 
-7.802351733359e-04 5.259462622456e-04 0.0 
5.259462622456e-04 4.139237033551e-03 0.0 
0.0 0.0 -6.620222007989e-04 
-5.930037626935e-04 8.942073818617e-04 0.0 
8.942073818617e-04 2.971985586365e-03 0.0 
0.0 0.0 -5.157319100482e-04 
-6.206001126179e-04 7.748692012147e-04 0.0 
7.748692012147e-04 2.918912415158e-03 0.0 
0.0 0.0 -4.917183783407e-04 
-7.966812031951e-04 -2.794519072728e-04 0.0 
-2.794519072728e-04 6.003025537970e-03 0.0 
0.0 0.0 -1.010552660601e-03 
-3.204615651146e-04 -4.841454347256e-04 0.0 
-4.841454347256e-04 1.065843889916e-03 0.0 
0.0 0.0 -2.207468123314e-04 
-1.976838392314e-04 1.419132631860e-03 0.0 
1.419132631860e-03 1.245736136353e-03 0.0 
0.0 0.0 -3.729799092550e-04 
-1.062224956052e-03 6.282474994029e-05 0.0 
6.282474994029e-05 6.566502947635e-03 0.0 
0.0 0.0 -9.796923013958e-04 
-9.725104983260e-05 1.193422917781e-03 0.0 
1.193422917781e-03 9.454912755048e-04 0.0 
0.0 0.0 -3.472462715210e-04 
-1.226995326804e-03 -4.519473023836e-05 0.0 
-4.519473023836e-05 6.918120984331e-03 0.0 
0.0 0.0 -1.055800198362e-03 
-2.361841982036e-04 9.051937591691e-04 0.0 
9.051937591691e-04 2.839450438954e-03 0.0 
0.0 0.0 -5.891999696964e-04 
-7.588500349801e-04 6.513356924725e-04 0.0 
6.513356924725e-04 4.370877970735e-03 0.0 
0.0 0.0 -7.153500975001e-04 
-2.731612567135e-04 1.485424847436e-03 0.0 
1.485424847436e-03 1.576968026293e-03 0.0 
0.0 0.0 -3.843598907912e-04 
-4.773970402082e-04 1.083331247294e-03 0.0 
1.083331247294e-03 2.715302459171e-03 0.0 
0.0 0.0 -5.080103017801e-04 
-9.857070044825e-04 3.514582932795e-04 0.0 
3.514582932795e-04 5.605984683384e-03 0.0 
0.0 0.0 -8.638580894607e-04 
-9.566672598969e-04 2.556664326387e-04 0.0 
2.556664326387e-04 5.284930257865e-03 0.0 
0.0 0.0 -8.086477316853e-04 
-9.204142732436e-04 2.914181473186e-04 0.0 
2.914181473186e-04 5.036403952363e-03 0.0 
0.0 0.0 -7.738406155293e-04 
-1.852699916538e-04 7.169474657993e-04 0.0 
7.169474657993e-04 2.938478129515e-03 0.0 
0.0 0.0 -6.178822433291e-04 
-6.660603751627e-04 6.775511204911e-04 0.0 
6.775511204911e-04 3.201224465995e-03 0.0 
0.0 0.0 -5.288330985435e-04 
-6.329538447596e-04 6.262438341605e-04 0.0 
6.262438341605e-04 2.783574178796e-03 0.0 
0.0 0.0 -4.617239487405e-04 
-9.084122990405e-04 4.766608561051e-04 0.0 
4.766608561051e-04 5.217677913222e-03 0.0 
0.0 0.0 -8.213029907542e-04 
-1.196636206004e-03 2.937722451120e-04 0.0 
2.937722451120e-04 7.346814907567e-03 0.0 
0.0 0.0 -1.107475121065e-03 
-1.218143538823e-03 3.322225839887e-04 0.0 
3.322225839887e-04 7.523071285648e-03 0.0 
0.0 0.0 -1.136341617999e-03 
-1.260255205402e-03 3.483848197279e-04 0.0 
3.483848197279e-04 7.943523748013e-03 0.0 
0.0 0.0 -1.199268560344e-03 
-1.236398534658e-03 3.622286970254e-04 0.0 
3.622286970254e-04 7.698663143048e-03 0.0 
0.0 0.0 -1.164598082371e-03 
-1.187519623503e-03 3.369788044843e-04 0.0 
3.369788044843e-04 7.262535120341e-03 0.0 
0.0 0.0 -1.100413285504e-03 
-1.201927894883e-03 3.622228794556e-04 0.0 
3.622228794556e-04 7.428935513365e-03 0.0 
0.0 0.0 -1.129075729544e-03 
-1.251749756802e-03 4.013558701664e-04 0.0 
4.013558701664e-04 7.861186353057e-03 0.0 
0.0 0.0 -1.193594387005e-03 
-1.212961772203e-03 4.013424172495e-04 0.0 
4.013424172495e-04 7.607641408015e-03 0.0 
0.0 0.0 -1.159256375294e-03 
-1.275748773412e-03 4.170784326894e-04 0.0 
4.170784326894e-04 8.123816889762e-03 0.0 
0.0 0.0 -1.234286862126e-03 
-1.231663961214e-03 4.170891063283e-04 0.0 
4.170891063283e-04 7.767346293695e-03 0.0 
0.0 0.0 -1.187309181180e-03 
-1.180167111311e-03 4.146130725523e-04 0.0 
4.146130725523e-04 7.319280806481e-03 0.0 
0.0 0.0 -1.120864512401e-03 
-1.199520853126e-03 4.394329503130e-04 0.0 
4.394329503130e-04 7.469647570104e-03 0.0 
0.0 0.0 -1.147759711419e-03 
-1.246114513889e-03 4.512851502766e-04 0.0 
4.512851502766e-04 7.897003429628e-03 0.0 
0.0 0.0 -1.207767947030e-03 
-1.142819753357e-03 4.230226692438e-04 0.0 
4.230226692438e-04 7.034885546341e-03 0.0 
0.0 0.0 -1.082593982084e-03 
-1.161095070267e-03 2.120867803638e-04 0.0 
2.120867803638e-04 7.844111974654e-03 0.0 
0.0 0.0 -1.264544343569e-03 
-4.552882566461e-04 8.672081112126e-04 0.0 
8.672081112126e-04 3.584015933420e-03 0.0 
0.0 0.0 -6.621140475474e-04 
8.972285469528e-05 5.488704469766e-05 0.0 
5.488704469766e-05 -2.086067995893e-05 0.0 
0.0 0.0 -2.951236060129e-05 
1.917573457574e-04 3.907910126935e-04 0.0 
3.907910126935e-04 4.076022718459e-05 0.0 
0.0 0.0 -9.965038840371e-05 
-8.122559684108e-04 5.858127476170e-04 0.0 
5.858127476170e-04 4.660958103986e-03 0.0 
0.0 0.0 -7.509174086159e-04 
-1.326294875917e-03 4.475525367279e-04 0.0 
4.475525367279e-04 8.581090605175e-03 0.0 
0.0 0.0 -1.299806302097e-03 
-1.329372981724e-03 3.864120920022e-04 0.0 
3.864120920022e-04 8.651254845127e-03 0.0 
0.0 0.0 -1.301753673823e-03 
-4.221749795590e-05 1.054957827846e-03 0.0 
1.054957827846e-03 1.947401467081e-03 0.0 
0.0 0.0 -4.895692906686e-04 
-1.300820539860e-03 5.169294240401e-04 0.0 
5.169294240401e-04 8.431520987084e-03 0.0 
0.0 0.0 -1.303413959896e-03 
-9.359328158381e-04 3.353086376080e-04 0.0 
3.353086376080e-04 5.191229383814e-03 0.0 
0.0 0.0 -8.012154088905e-04 
4.071496828873e-04 9.026633654341e-04 0.0 
9.026633654341e-04 4.347728874957e-04 0.0 
0.0 0.0 -3.242207140944e-04 
-1.286592464162e-03 4.887471459282e-04 0.0 
4.887471459282e-04 8.354700830031e-03 0.0 
0.0 0.0 -1.304286792737e-03 
-1.166816141077e-03 3.067295782393e-04 0.0 
3.067295782393e-04 7.086165986606e-03 0.0 
0.0 0.0 -1.071440646998e-03 
-1.135318690764e-03 3.102645881689e-04 0.0 
3.102645881689e-04 6.820307156207e-03 0.0 
0.0 0.0 -1.034857077839e-03 
-1.114281868751e-03 2.783252876259e-04 0.0 
2.783252876259e-04 6.647188393663e-03 0.0 
0.0 0.0 -1.006057961993e-03 
-1.324485485700e-03 3.178425552296e-04 0.0 
3.178425552296e-04 8.703712057522e-03 0.0 
0.0 0.0 -1.305867370806e-03 
-1.046143216171e-03 1.338104735178e-04 0.0 
1.338104735178e-04 6.142970752386e-03 0.0 
0.0 0.0 -9.232948652302e-04 
-1.261216399776e-03 3.398370476000e-04 0.0 
3.398370476000e-04 8.240407625413e-03 0.0 
0.0 0.0 -1.306016332489e-03 
-5.621352130883e-04 2.402614077322e-04 0.0 
2.402614077322e-04 5.104076155106e-03 0.0 
0.0 0.0 -9.039903713831e-04 
-5.421821752565e-04 3.626261890118e-04 0.0 
3.626261890118e-04 4.916919296443e-03 0.0 
0.0 0.0 -8.747633066757e-04 
-4.482553543368e-04 4.245528232913e-04 0.0 
4.245528232913e-04 4.423341595392e-03 0.0 
0.0 0.0 -8.101682821885e-04 
-1.166183845535e-03 3.746000758126e-04 0.0 
3.746000758126e-04 7.154603019155e-03 0.0 
0.0 0.0 -1.092245366321e-03 
-1.243382207926e-03 7.139344382452e-05 0.0 
7.139344382452e-05 8.142027759390e-03 0.0 
0.0 0.0 -1.302677999426e-03 
-1.139163622892e-03 1.899260328228e-05 0.0 
1.899260328228e-05 7.738811355617e-03 0.0 
0.0 0.0 -1.248400714067e-03 
-1.139179700515e-03 -5.832838074802e-05 0.0 
-5.832838074802e-05 7.742835606473e-03 0.0 
0.0 0.0 -1.248426544684e-03 
-1.042171814045e-03 -2.067620167567e-05 0.0 
-2.067620167567e-05 7.300450465494e-03 0.0 
0.0 0.0 -1.189114855724e-03 
-1.245046049368e-03 -7.954937012982e-05 0.0 
-7.954937012982e-05 8.162015620032e-03 0.0 
0.0 0.0 -1.303398793257e-03 
-1.319024606982e-03 4.879947495646e-04 0.0 
4.879947495646e-04 8.553889678550e-03 0.0 
0.0 0.0 -1.306665994082e-03 
-1.318629781647e-03 5.032233232110e-04 0.0 
5.032233232110e-04 8.531113616169e-03 0.0 
0.0 0.0 -1.308500709484e-03 
-1.457969009565e-04 -1.297624687323e-03 0.0 
-1.297624687323e-03 1.878942347425e-03 0.0 
0.0 0.0 -4.564773689951e-04 
-5.360535394487e-05 -1.060749340558e-03 0.0 
-1.060749340558e-03 1.980128638088e-03 0.0 
0.0 0.0 -4.934415926888e-04 
-1.381226460422e-04 -8.991719374826e-04 0.0 
-8.991719374826e-04 2.497431923997e-03 0.0 
0.0 0.0 -5.576035839405e-04 
-3.423707423497e-07 -7.630300989339e-04 0.0 
-7.630300989339e-04 2.133066083266e-03 0.0 
0.0 0.0 -5.298816096007e-04 
1.060874476646e-04 -9.079592115861e-04 0.0 
-9.079592115861e-04 1.571356760192e-03 0.0 
0.0 0.0 -4.652367627802e-04 
1.299766153745e-04 -5.238021949006e-04 0.0 
-5.238021949006e-04 1.775343023360e-03 0.0 
0.0 0.0 -5.016361848483e-04 
8.113068861589e-06 -4.523118756860e-04 0.0 
-4.523118756860e-04 2.346566463626e-03 0.0 
0.0 0.0 -5.657331850765e-04 
2.333464364560e-04 -1.778074880060e-04 0.0 
-1.778074880060e-04 1.448473809503e-03 0.0 
0.0 0.0 -4.731795164401e-04 
-1.159968055748e-03 4.654058109210e-04 0.0 
4.654058109210e-04 7.343744264572e-03 0.0 
0.0 0.0 -1.138512926666e-03 
-1.264954689887e-03 -1.904964022353e-04 0.0 
-1.904964022353e-04 8.221334432808e-03 0.0 
0.0 0.0 -1.305779161548e-03 
-7.747711705181e-04 -5.121765711313e-04 0.0 
-5.121765711313e-04 5.367910934867e-03 0.0 
0.0 0.0 -9.007942405787e-04 
-6.889420890608e-04 -5.209139520464e-04 0.0 
-5.209139520464e-04 5.083313389568e-03 0.0 
0.0 0.0 -8.713600568839e-04 
-6.090575816933e-04 -6.078858301865e-04 0.0 
-6.078858301865e-04 4.604339507385e-03 0.0 
0.0 0.0 -8.059887332522e-04 
-8.449920134059e-04 -5.153788440303e-04 0.0 
-5.153788440303e-04 4.260095117302e-03 0.0 
0.0 0.0 -6.781883600425e-04 
-8.428803748540e-04 -5.674043660998e-04 0.0 
-5.674043660998e-04 4.450165882994e-03 0.0 
0.0 0.0 -7.153987595530e-04 
-8.942422948913e-04 -5.207798333702e-04 0.0 
-5.207798333702e-04 4.885926297656e-03 0.0 
0.0 0.0 -7.812419408864e-04 
-8.377845004557e-04 -4.501363391243e-04 0.0 
-4.501363391243e-04 4.061067246097e-03 0.0 
0.0 0.0 -6.407943132712e-04 
-8.608991234260e-04 5.183985589951e-04 0.0 
5.183985589951e-04 6.008926334250e-03 0.0 
0.0 0.0 -9.876394229526e-04 
-1.270638922106e-03 -2.525883056993e-04 0.0 
-2.525883056993e-04 8.245623635122e-03 0.0 
0.0 0.0 -1.305003056577e-03 
-5.449120924268e-04 -2.038340280130e-04 0.0 
-2.038340280130e-04 4.976604129178e-03 0.0 
0.0 0.0 -8.871663004355e-04 
-7.828155216857e-04 -6.575282962370e-04 0.0 
-6.575282962370e-04 4.196243675374e-03 0.0 
0.0 0.0 -6.865966444657e-04 
-8.908351355140e-04 9.702867664421e-05 0.0 
9.702867664421e-05 4.953510345307e-03 0.0 
0.0 0.0 -7.516786372745e-04 
-9.428178873818e-04 1.510891929034e-04 0.0 
1.510891929034e-04 5.341754956276e-03 0.0 
0.0 0.0 -8.094822736869e-04 
-9.489012184647e-04 1.441944320473e-04 0.0 
1.441944320473e-04 5.346848053026e-03 0.0 
0.0 0.0 -8.097394517040e-04 
-9.928370876702e-04 1.565528389037e-04 0.0 
1.565528389037e-04 5.757287346966e-03 0.0 
0.0 0.0 -8.733121467894e-04 
-9.420662265250e-04 8.672453308222e-05 0.0 
8.672453308222e-05 5.390349708032e-03 0.0 
0.0 0.0 -8.155917408702e-04 
-9.920889169566e-04 -3.299549002211e-04 0.0 
-3.299549002211e-04 5.156290872581e-03 0.0 
0.0 0.0 -8.015266587451e-04 
-1.034393455446e-03 -2.593382357018e-04 0.0 
-2.593382357018e-04 5.377589720533e-03 0.0 
0.0 0.0 -8.302790088839e-04 
-1.016724768056e-03 -2.052940986145e-04 0.0 
-2.052940986145e-04 5.161883654298e-03 0.0 
0.0 0.0 -7.937858958383e-04 
-1.069749204098e-03 -1.931193338339e-04 0.0 
-1.931193338339e-04 5.589690211797e-03 0.0 
0.0 0.0 -8.590670690980e-04 
-1.045250008444e-03 -1.524643402440e-04 0.0 
-1.524643402440e-04 5.354709247412e-03 0.0 
0.0 0.0 -8.213578559547e-04 
-9.891061891856e-04 -1.661511418362e-04 0.0 
-1.661511418362e-04 4.952759689804e-03 0.0 
0.0 0.0 -7.608744282309e-04 
-1.097326614700e-03 -1.343981642378e-04 0.0 
-1.343981642378e-04 5.787368511626e-03 0.0 
0.0 0.0 -8.866101721103e-04 
-1.072266853954e-03 -7.465649989587e-05 0.0 
-7.465649989587e-05 5.530930704335e-03 0.0 
0.0 0.0 -8.437388122980e-04 
-8.749604405334e-04 5.210753762548e-05 0.0 
5.210753762548e-05 4.958547900325e-03 0.0 
0.0 0.0 -7.509531518293e-04 
2.931250951271e-05 -1.468193730782e-04 0.0 
-1.468193730782e-04 5.197092075325e-05 0.0 
0.0 0.0 -3.483575582827e-05 
8.911840808784e-05 -5.611142441010e-04 0.0 
-5.611142441010e-04 2.292660682549e-04 0.0 
0.0 0.0 -1.364504898612e-04 
-1.613477578931e-05 -6.217163821683e-04 0.0 
-6.217163821683e-04 4.356228314527e-04 0.0 
0.0 0.0 -1.797805952843e-04 
7.026081585524e-05 -9.442279566568e-04 0.0 
-9.442279566568e-04 4.994486354165e-04 0.0 
0.0 0.0 -2.441611934022e-04 
2.189035585349e-04 -7.936262830972e-04 0.0 
-7.936262830972e-04 2.241675290565e-04 0.0 
0.0 0.0 -1.898876089678e-04 
1.395294056137e-04 -1.221624346892e-03 0.0 
-1.221624346892e-03 5.704290544817e-04 0.0 
0.0 0.0 -3.042679114694e-04 
3.315217795862e-04 -9.867447375553e-04 0.0 
-9.867447375553e-04 2.187882668786e-04 0.0 
0.0 0.0 -2.358471627707e-04 
1.282773509924e-04 -3.069727312294e-04 0.0 
-3.069727312294e-04 5.087018620754e-05 0.0 
0.0 0.0 -7.677751594282e-05 
7.207324065744e-06 -2.363709633052e-04 0.0 
-2.363709633052e-04 2.192194981731e-04 0.0 
0.0 0.0 -7.709394943614e-05 
-1.151589919320e-04 -5.038932235898e-04 0.0 
-5.038932235898e-04 5.668379900610e-04 0.0 
0.0 0.0 -1.836804426236e-04 
6.886756343239e-05 -1.585111183501e-04 0.0 
-1.585111183501e-04 2.318919381609e-04 0.0 
0.0 0.0 -9.135678087991e-05 
-1.673787199121e-04 -3.772506028182e-04 0.0 
-3.772506028182e-04 6.235391984471e-04 0.0 
0.0 0.0 -1.587652100407e-04 
-2.237013217840e-04 -7.835370290226e-04 0.0 
-7.835370290226e-04 9.699234306887e-04 0.0 
0.0 0.0 -2.864776706126e-04 
-5.080022175142e-04 -5.846720249242e-04 0.0 
-5.846720249242e-04 1.713553650264e-03 0.0 
0.0 0.0 -2.934437995798e-04 
-1.342924257900e-03 -1.540329825018e-04 0.0 
-1.540329825018e-04 8.463979425849e-03 0.0 
0.0 0.0 -1.294874803588e-03 
-9.061604714287e-04 -5.353468138170e-05 0.0 
-5.353468138170e-05 4.292677537748e-03 0.0 
0.0 0.0 -6.595503360071e-04 
-8.748353904416e-04 -9.535674848835e-05 0.0 
-9.535674848835e-05 4.090451847143e-03 0.0 
0.0 0.0 -6.264797819744e-04 
-7.893986596546e-04 -8.988273420556e-05 0.0 
-8.988273420556e-05 3.635662269298e-03 0.0 
0.0 0.0 -5.641716646261e-04 
-8.342340843015e-04 -1.796315714393e-04 0.0 
-1.796315714393e-04 3.876399492582e-03 0.0 
0.0 0.0 -5.974662984275e-04 
-9.399601535283e-04 -9.182592719562e-05 0.0 
-9.182592719562e-05 4.459086163681e-03 0.0 
0.0 0.0 -6.865721209800e-04 
-7.450408717977e-04 -3.664071909045e-05 0.0 
-3.664071909045e-05 3.403705623677e-03 0.0 
0.0 0.0 -5.286920563404e-04 
-7.105002771536e-04 -7.510162605901e-05 0.0 
-7.510162605901e-05 3.252942810076e-03 0.0 
0.0 0.0 -5.038291843518e-04 
2.269617952537e-04 -4.679297531140e-06 0.0 
-4.679297531140e-06 2.031304943507e-04 0.0 
0.0 0.0 -1.081843495454e-04 
-2.992668304113e-05 -2.428217344695e-05 0.0 
-2.428217344695e-05 6.247499294921e-04 0.0 
0.0 0.0 -1.462425310096e-04 
1.120520427135e-05 2.490769659488e-05 0.0 
2.490769659488e-05 5.748679317617e-04 0.0 
0.0 0.0 -1.469788961115e-04 
-1.839676854865e-04 -1.370350569834e-05 0.0 
-1.370350569834e-05 1.050348992839e-03 0.0 
0.0 0.0 -1.976702944042e-04 
-1.665493073749e-04 -4.078238753771e-05 0.0 
-4.078238753771e-05 1.038427513794e-03 0.0 
0.0 0.0 -1.960684762570e-04 
-2.740272711721e-05 -1.675532894322e-05 0.0 
-1.675532894322e-05 6.301608269895e-04 0.0 
0.0 0.0 -1.451566722079e-04 
-4.295295916181e-05 -1.396627582879e-05 0.0 
-1.396627582879e-05 6.314478061460e-04 0.0 
0.0 0.0 -1.432903851643e-04 
2.178107760258e-04 -4.669961674357e-06 0.0 
-4.669961674357e-06 1.968060237393e-04 0.0 
0.0 0.0 -1.026933745538e-04 
-6.199861096773e-05 -4.121287758313e-05 0.0 
-4.121287758313e-05 6.332661626784e-04 0.0 
0.0 0.0 -1.376693440338e-04 
-1.958490001476e-04 -5.849411118292e-05 0.0 
-5.849411118292e-05 1.056235548644e-03 0.0 
0.0 0.0 -1.994574706984e-04 
2.194500295117e-04 -1.953547163157e-05 0.0 
-1.953547163157e-05 1.758186835889e-04 0.0 
0.0 0.0 -9.526841721624e-05 
-1.134405852345e-03 -1.685214623059e-05 0.0 
-1.685214623059e-05 7.114171974622e-03 0.0 
0.0 0.0 -1.060427308513e-03 
-1.169096287658e-03 2.563616812788e-06 0.0 
2.563616812788e-06 7.355225522955e-03 0.0 
0.0 0.0 -1.097082233180e-03 
-1.287656187300e-03 -3.057563853945e-04 0.0 
-3.057563853945e-04 8.295106043806e-03 0.0 
0.0 0.0 -1.300897016293e-03 
-8.709102074234e-04 1.634655957137e-05 0.0 
1.634655957137e-05 5.013561359335e-03 0.0 
0.0 0.0 -7.584009903415e-04 
6.085248323127e-05 -7.529385077948e-05 0.0 
-7.529385077948e-05 2.498450074273e-04 0.0 
0.0 0.0 -6.778662807071e-05 
-1.318321890589e-03 9.119227365237e-05 0.0 
9.119227365237e-05 8.702564910127e-03 0.0 
0.0 0.0 -1.292107529982e-03 
-1.321891599576e-03 1.523434658018e-04 0.0 
1.523434658018e-04 8.753789560532e-03 0.0 
0.0 0.0 -1.303172775453e-03 
-1.317386328466e-03 1.502744807486e-04 0.0 
1.502744807486e-04 8.760593080467e-03 0.0 
0.0 0.0 -1.304823151597e-03 
-1.303300137320e-03 -3.518320858820e-05 0.0 
-3.518320858820e-05 7.809809152570e-03 0.0 
0.0 0.0 -1.191058493115e-03 
-1.309915312802e-03 -8.055064126037e-05 0.0 
-8.055064126037e-05 8.016669059363e-03 0.0 
0.0 0.0 -1.224322658093e-03 
-1.321803447330e-03 5.837335499168e-05 0.0 
5.837335499168e-05 8.713282635678e-03 0.0 
0.0 0.0 -1.294569364341e-03 
-6.481855202900e-04 -6.246003181782e-04 0.0 
-6.246003181782e-04 2.746907491681e-03 0.0 
0.0 0.0 -4.512809064328e-04 
-1.269733092336e-03 3.949450849478e-04 0.0 
3.949450849478e-04 8.134082373248e-03 0.0 
0.0 0.0 -1.225740639889e-03 
-1.236917440076e-03 9.455704594097e-05 0.0 
9.455704594097e-05 7.907876475173e-03 0.0 
0.0 0.0 -1.178628832109e-03 
2.863499120991e-04 1.225469476951e-03 0.0 
1.225469476951e-03 5.011020420815e-04 0.0 
0.0 0.0 -3.087973448475e-04 
-5.572892816396e-04 -1.058232484237e-03 0.0 
-1.058232484237e-03 2.439571083886e-03 0.0 
0.0 0.0 -4.373623857420e-04 
-1.169344627949e-03 -1.527368028486e-04 0.0 
-1.527368028486e-04 6.463252890075e-03 0.0 
0.0 0.0 -9.899674718230e-04 
-1.002156622739e-03 -4.217657770794e-04 0.0 
-4.217657770794e-04 5.766816978775e-03 0.0 
0.0 0.0 -9.123979313600e-04 
-1.240362622181e-03 -2.107518773901e-04 0.0 
-2.107518773901e-04 7.344433125846e-03 0.0 
0.0 0.0 -1.130390451587e-03 
-1.097029052933e-03 -2.727822285369e-04 0.0 
-2.727822285369e-04 6.025349028311e-03 0.0 
0.0 0.0 -9.322225209316e-04 
-1.160816713283e-03 -2.966491095374e-04 0.0 
-2.966491095374e-04 6.897592609693e-03 0.0 
0.0 0.0 -1.073123358692e-03 
-1.146188823319e-03 -9.619145093431e-05 0.0 
-9.619145093431e-05 7.734668514319e-03 0.0 
0.0 0.0 -1.244129926109e-03 
-3.611510593238e-04 -8.758097138839e-05 0.0 
-8.758097138839e-05 1.751553404855e-03 0.0 
0.0 0.0 -2.939217362394e-04 
-1.042524547902e-03 8.542519018607e-05 0.0 
8.542519018607e-05 6.249309917826e-03 0.0 
0.0 0.0 -9.364826870394e-04 
-1.011646579925e-03 4.950052888461e-05 0.0 
4.950052888461e-05 6.088183350352e-03 0.0 
0.0 0.0 -9.130351872960e-04 
-1.156492778501e-03 8.389467150956e-05 0.0 
8.389467150956e-05 7.209321502601e-03 0.0 
0.0 0.0 -1.075939795031e-03 
-6.797233321873e-04 -3.445526981405e-04 0.0 
-3.445526981405e-04 2.970604433142e-03 0.0 
0.0 0.0 -4.709579147287e-04 
-9.579355913964e-04 -2.329193078104e-04 0.0 
-2.329193078104e-04 4.740187249377e-03 0.0 
0.0 0.0 -7.304257169629e-04 
-4.699094320929e-04 -2.864685390476e-04 0.0 
-2.864685390476e-04 1.870719163436e-03 0.0 
0.0 0.0 -3.104331955072e-04 
-1.225720132749e-03 4.922764523725e-04 0.0 
4.922764523725e-04 8.004298524687e-03 0.0 
0.0 0.0 -1.251461238623e-03 
-8.642142966185e-04 4.736706847914e-04 0.0 
4.736706847914e-04 4.810262753378e-03 0.0 
0.0 0.0 -7.590395520047e-04 
-6.299061308779e-04 -6.905248015396e-04 0.0 
-6.905248015396e-04 4.426299320179e-03 0.0 
0.0 0.0 -7.694287042311e-04 
-7.912081179997e-04 -5.380011954616e-04 0.0 
-5.380011954616e-04 3.827422774339e-03 0.0 
0.0 0.0 -6.120242822960e-04 
-6.551443874445e-04 -7.576014874881e-04 0.0 
-7.576014874881e-04 2.929641818478e-03 0.0 
0.0 0.0 -4.894362539292e-04 
-4.890802463817e-04 -1.241731719978e-03 0.0 
-1.241731719978e-03 2.147525315431e-03 0.0 
0.0 0.0 -4.100935076628e-04 
-5.488809187293e-04 8.195138113053e-04 0.0 
8.195138113053e-04 3.940420057434e-03 0.0 
0.0 0.0 -6.990242139688e-04 
-7.645737241242e-04 -6.835179970588e-04 0.0 
-6.835179970588e-04 4.369038504805e-03 0.0 
0.0 0.0 -7.237531747479e-04 
-9.990166317683e-04 -3.989427530334e-04 0.0 
-3.989427530334e-04 6.371965153356e-03 0.0 
0.0 0.0 -1.024340108609e-03 
-1.185317591363e-03 7.742475138516e-05 0.0 
7.742475138516e-05 7.460446495103e-03 0.0 
0.0 0.0 -1.112552678551e-03 
1.197712392318e-04 -3.148981806786e-05 0.0 
-3.148981806786e-05 2.711258731277e-04 0.0 
0.0 0.0 -9.959518537181e-05 
-1.003340353985e-03 -3.675015482303e-04 0.0 
-3.675015482303e-04 6.579336743889e-03 0.0 
0.0 0.0 -1.061672265243e-03 
-8.749171253014e-04 -5.429443966133e-04 0.0 
-5.429443966133e-04 5.259260617559e-03 0.0 
0.0 0.0 -8.552253422611e-04 
-1.075058534600e-03 1.329625948637e-04 0.0 
1.329625948637e-04 6.404878824914e-03 0.0 
0.0 0.0 -9.599091010803e-04 
-8.098069298724e-04 1.009136731454e-04 0.0 
1.009136731454e-04 6.303475721426e-03 0.0 
0.0 0.0 -1.062640036239e-03 
-7.822393088760e-05 -1.437936820334e-03 0.0 
-1.437936820334e-03 1.036179245632e-03 0.0 
0.0 0.0 -3.732485265440e-04 
-1.183046367818e-03 1.393767940647e-04 0.0 
1.393767940647e-04 7.358067127657e-03 0.0 
0.0 0.0 -1.098747615487e-03 
-1.275160361241e-03 2.646540278175e-04 0.0 
2.646540278175e-04 8.092932724066e-03 0.0 
0.0 0.0 -1.212453547082e-03 
-1.010608018996e-03 1.134796452945e-04 0.0 
1.134796452945e-04 5.876477578498e-03 0.0 
0.0 0.0 -8.875094802107e-04 
-3.432304284614e-04 -2.023305734104e-04 0.0 
-2.023305734104e-04 1.413096543350e-03 0.0 
0.0 0.0 -2.442495876194e-04 
-9.871354508553e-04 6.543929527951e-05 0.0 
6.543929527951e-05 5.785148960874e-03 0.0 
0.0 0.0 -8.692469099983e-04 
-1.129933755956e-03 -2.589669323117e-04 0.0 
-2.589669323117e-04 7.495462082173e-03 0.0 
0.0 0.0 -1.202705989510e-03 
-1.175984421816e-03 2.539870060864e-04 0.0 
2.539870060864e-04 7.167724276723e-03 0.0 
0.0 0.0 -1.078220320736e-03 
-6.238127593336e-04 -2.578427228971e-04 0.0 
-2.578427228971e-04 2.729809833616e-03 0.0 
0.0 0.0 -4.336020471383e-04 
-3.693103125981e-04 -1.184898620339e-04 0.0 
-1.184898620339e-04 4.215512874596e-03 0.0 
0.0 0.0 -7.943514531093e-04 
-7.354883692347e-04 6.882867699015e-04 0.0 
6.882867699015e-04 4.480048918178e-03 0.0 
0.0 0.0 -7.428158978947e-04 
-8.300346150545e-04 1.997478973446e-04 0.0 
1.997478973446e-04 4.462946677923e-03 0.0 
0.0 0.0 -6.865907729104e-04 
-1.263662037140e-03 1.212955651983e-04 0.0 
1.212955651983e-04 8.095770653682e-03 0.0 
0.0 0.0 -1.206557591227e-03 
-5.452830500886e-04 5.833267200760e-04 0.0 
5.833267200760e-04 4.601923753795e-03 0.0 
0.0 0.0 -8.172945450071e-04 
-9.138715469007e-04 -2.809485115349e-05 0.0 
-2.809485115349e-05 6.748408724194e-03 0.0 
0.0 0.0 -1.120054252910e-03 
-5.855153319979e-04 -8.409325156636e-05 0.0 
-8.409325156636e-05 5.239197065772e-03 0.0 
0.0 0.0 -9.240809108919e-04 
-6.615538158736e-04 -2.024673927750e-04 0.0 
-2.024673927750e-04 2.941778370234e-03 0.0 
0.0 0.0 -4.629711029823e-04 
-1.130081472427e-03 -3.415372177863e-04 0.0 
-3.415372177863e-04 7.089023572073e-03 0.0 
0.0 0.0 -1.118919378802e-03 
-3.597542210602e-04 3.380969491909e-04 0.0 
3.380969491909e-04 4.095727105777e-03 0.0 
0.0 0.0 -7.743986277066e-04 
-1.231879397795e-03 1.563825567224e-04 0.0 
1.563825567224e-04 7.806451874477e-03 0.0 
0.0 0.0 -1.164614768972e-03 
-1.000367767849e-03 5.022961011040e-04 0.0 
5.022961011040e-04 6.477016694026e-03 0.0 
0.0 0.0 -1.031533309622e-03 
-8.496720980242e-05 7.949215026050e-05 0.0 
7.949215026050e-05 2.913474260951e-03 0.0 
0.0 0.0 -6.375205594687e-04 
-1.204201749293e-03 1.997899091721e-04 0.0 
1.997899091721e-04 7.486324816343e-03 0.0 
0.0 0.0 -1.121170216299e-03 
-5.130508831761e-04 -5.977004884583e-04 0.0 
-5.977004884583e-04 4.307094875234e-03 0.0 
0.0 0.0 -7.773091661689e-04 
-8.763670238880e-04 1.763080225343e-04 0.0 
1.763080225343e-04 6.599584220336e-03 0.0 
0.0 0.0 -1.099429584637e-03 
-8.205770634544e-04 5.305467903750e-04 0.0 
5.305467903750e-04 4.538492374159e-03 0.0 
0.0 0.0 -7.240542973723e-04 
-8.884268788469e-04 5.588484511591e-04 0.0 
5.588484511591e-04 5.612213355160e-03 0.0 
0.0 0.0 -9.041109700986e-04 
-1.050324174142e-03 4.352582260935e-04 0.0 
4.352582260935e-04 6.327572321714e-03 0.0 
0.0 0.0 -9.824247929831e-04 
-7.337998657639e-04 6.243333749199e-04 0.0 
6.243333749199e-04 5.125520163039e-03 0.0 
0.0 0.0 -8.608216255090e-04 
-1.153567602020e-03 -9.301724894271e-05 0.0 
-9.301724894271e-05 6.238376526397e-03 0.0 
0.0 0.0 -9.534332399069e-04 
-1.070854558502e-03 -3.525098866510e-04 0.0 
-3.525098866510e-04 6.838133072795e-03 0.0 
0.0 0.0 -1.090315851396e-03 
5.426530316348e-04 -6.124034834809e-04 0.0 
-6.124034834809e-04 -4.758177895348e-06 0.0 
0.0 0.0 -2.305263658883e-04 
-4.860442792995e-04 1.001524898596e-03 0.0 
1.001524898596e-03 3.110766909182e-03 0.0 
0.0 0.0 -5.719042557127e-04 
-1.067589445178e-03 1.583535090986e-04 0.0 
1.583535090986e-04 6.341569706464e-03 0.0 
0.0 0.0 -9.536514739466e-04 
-1.085608803619e-03 4.567018534179e-04 0.0 
4.567018534179e-04 7.206759563006e-03 0.0 
0.0 0.0 -1.150585697120e-03 
-1.272662540904e-03 1.837479624771e-04 0.0 
1.837479624771e-04 8.251575577157e-03 0.0 
0.0 0.0 -1.229329624135e-03 
-7.006581247961e-04 7.305782553014e-04 0.0 
7.305782553014e-04 4.076422328874e-03 0.0 
0.0 0.0 -6.801182747099e-04 
-1.119652443645e-03 -3.456160390905e-04 0.0 
-3.456160390905e-04 6.872141672148e-03 0.0 
0.0 0.0 -1.081576975854e-03 
-1.253042370701e-03 2.293393647918e-04 0.0 
2.293393647918e-04 7.917666161319e-03 0.0 
0.0 0.0 -1.185355684152e-03 
-8.328019205503e-04 -6.002544778108e-04 0.0 
-6.002544778108e-04 4.632328502255e-03 0.0 
0.0 0.0 -7.524367508395e-04 
-4.433075112401e-04 -2.566605040482e-05 0.0 
-2.566605040482e-05 2.036859959460e-03 0.0 
0.0 0.0 -3.333104686742e-04 
3.205177984844e-04 9.975801435051e-04 0.0 
9.975801435051e-04 2.379341149770e-04 0.0 
0.0 0.0 -2.393365343406e-04 
1.591584715393e-04 1.779286051982e-04 0.0 
1.779286051982e-04 1.786654556165e-03 0.0 
0.0 0.0 -5.092532232582e-04 
-4.531066397313e-04 5.570531624296e-04 0.0 
5.570531624296e-04 4.269383883647e-03 0.0 
0.0 0.0 -7.817448632792e-04 
-8.859078879477e-04 -5.417175315324e-04 0.0 
-5.417175315324e-04 5.072763910333e-03 0.0 
0.0 0.0 -8.181699076276e-04 
-1.293553667002e-03 3.539056233938e-04 0.0 
3.539056233938e-04 8.270227580961e-03 0.0 
0.0 0.0 -1.242275372262e-03 
-1.167568761218e-03 -3.100043251916e-04 0.0 
-3.100043251916e-04 7.110149870389e-03 0.0 
0.0 0.0 -1.110186454522e-03 
-8.720271584818e-04 -3.155671013640e-04 0.0 
-3.155671013640e-04 6.271566388977e-03 0.0 
0.0 0.0 -1.040857148505e-03 
3.090009603171e-05 6.438382974465e-04 0.0 
6.438382974465e-04 3.706853633849e-04 0.0 
0.0 0.0 -1.721080540357e-04 
-8.582532174726e-04 2.712256844373e-04 0.0 
2.712256844373e-04 4.619700861909e-03 0.0 
0.0 0.0 -7.126371066839e-04 
-1.210346144101e-03 -2.749948472322e-04 0.0 
-2.749948472322e-04 7.344160972203e-03 0.0 
0.0 0.0 -1.139074001596e-03 
-4.392212359222e-04 -2.427188308892e-04 0.0 
-2.427188308892e-04 4.468278991880e-03 0.0 
0.0 0.0 -8.223634564932e-04 
-9.190954487653e-04 1.036306006856e-04 0.0 
1.036306006856e-04 6.792229327511e-03 0.0 
0.0 0.0 -1.126725356868e-03 
-1.012271879397e-03 -9.648706787801e-05 0.0 
-9.648706787801e-05 5.106630196528e-03 0.0 
0.0 0.0 -7.817916451012e-04 
-1.209813015887e-03 4.617447502893e-04 0.0 
4.617447502893e-04 7.951412152162e-03 0.0 
0.0 0.0 -1.249754184115e-03 
-7.319316117329e-04 4.292603822642e-04 0.0 
4.292603822642e-04 3.626422685243e-03 0.0 
0.0 0.0 -5.757576642514e-04 
-1.253262516526e-03 -2.397729583392e-04 0.0 
-2.397729583392e-04 7.583908034255e-03 0.0 
0.0 0.0 -1.168790087466e-03 
-8.256776309677e-04 -1.881926819914e-04 0.0 
-1.881926819914e-04 6.244322400387e-03 0.0 
0.0 0.0 -1.047452346298e-03 
-1.833871752581e-04 1.076533841658e-03 0.0 
1.076533841658e-03 2.371953294675e-03 0.0 
0.0 0.0 -5.248669331578e-04 
-8.489436119586e-04 9.726246538456e-06 0.0 
9.726246538456e-06 4.964532206226e-03 0.0 
0.0 0.0 -7.498068730476e-04 
-1.301937909208e-03 -2.238090825597e-04 0.0 
-2.238090825597e-04 8.094251106337e-03 0.0 
0.0 0.0 -1.243807156011e-03 
-9.340333835081e-04 -1.610113385009e-04 0.0 
-1.610113385009e-04 6.744276922541e-03 0.0 
0.0 0.0 -1.114542488500e-03 
-7.941362751269e-04 5.664211877541e-04 0.0 
5.664211877541e-04 5.563587855978e-03 0.0 
0.0 0.0 -9.240346875991e-04 
-4.168495056098e-04 -3.974139927462e-04 0.0 
-3.974139927462e-04 4.226500375937e-03 0.0 
0.0 0.0 -7.856950878877e-04 
-7.739148085239e-04 2.464793331539e-04 0.0 
2.464793331539e-04 3.977512213385e-03 0.0 
0.0 0.0 -6.191377506773e-04 
-9.472802509339e-04 -4.715703841177e-04 0.0 
-4.715703841177e-04 5.324567248990e-03 0.0 
0.0 0.0 -8.467704336814e-04 
-9.485585464614e-04 5.193393053567e-04 0.0 
5.193393053567e-04 5.905682896343e-03 0.0 
0.0 0.0 -9.395224721591e-04 
-1.324920476103e-03 3.053746754946e-04 0.0 
3.053746754946e-04 8.723243834592e-03 0.0 
0.0 0.0 -1.306889097489e-03 
-9.807951782906e-04 -9.587801094059e-05 0.0 
-9.587801094059e-05 6.970713904845e-03 0.0 
0.0 0.0 -1.148622835147e-03 
-1.082939420670e-03 2.819860490732e-04 0.0 
2.819860490732e-04 6.381972856138e-03 0.0 
0.0 0.0 -9.696660045843e-04 
-9.493777168521e-04 -4.444219031776e-04 0.0 
-4.444219031776e-04 5.127854127799e-03 0.0 
0.0 0.0 -8.097439408559e-04 
-7.160311725792e-04 3.654432579295e-04 0.0 
3.654432579295e-04 5.714883805619e-03 0.0 
0.0 0.0 -9.749840279683e-04 
-1.676636515260e-04 -4.941269470984e-05 0.0 
-4.941269470984e-05 1.033199140519e-03 0.0 
0.0 0.0 -1.970089232863e-04 
-7.962185908535e-04 3.303377500728e-04 0.0 
3.303377500728e-04 4.131190544581e-03 0.0 
0.0 0.0 -6.447622526173e-04 
-1.000272012546e-03 -3.719800608836e-04 0.0 
-3.719800608836e-04 5.362836932527e-03 0.0 
0.0 0.0 -8.382314227178e-04 
1.017392588855e-04 -1.736220687656e-04 0.0 
-1.736220687656e-04 2.043177635858e-03 0.0 
0.0 0.0 -5.374563060555e-04 
-5.079147546005e-04 -4.709528610388e-04 0.0 
-4.709528610388e-04 4.508844721117e-03 0.0 
0.0 0.0 -8.136389561866e-04 
-1.114056657132e-03 2.887883130746e-04 0.0 
2.887883130746e-04 7.664610237433e-03 0.0 
0.0 0.0 -1.234277959947e-03 
-1.046296347188e-03 -3.017965079923e-04 0.0 
-3.017965079923e-04 5.590796710732e-03 0.0 
0.0 0.0 -8.668853676281e-04 
-2.327182499333e-05 -1.637556316808e-04 0.0 
-1.637556316808e-04 2.609999917965e-03 0.0 
0.0 0.0 -6.015264011954e-04 
-1.086733608739e-03 -2.340312705235e-04 0.0 
-2.340312705235e-04 5.809878777498e-03 0.0 
0.0 0.0 -8.955981815692e-04 
-7.133441625448e-04 3.191920090799e-04 0.0 
3.191920090799e-04 3.492826899708e-03 0.0 
0.0 0.0 -5.519888345566e-04 
-1.102733663682e-03 3.164092702850e-04 0.0 
3.164092702850e-04 6.555228391521e-03 0.0 
0.0 0.0 -9.983267706061e-04 
-1.119318067822e-03 -1.714358954242e-04 0.0 
-1.714358954242e-04 6.018884976543e-03 0.0 
0.0 0.0 -9.243533921793e-04 
-1.001908002250e-03 4.984942752457e-04 0.0 
4.984942752457e-04 6.334427631463e-03 0.0 
0.0 0.0 -1.003151257071e-03 
-2.279098310875e-04 -1.251804773978e-04 0.0 
-1.251804773978e-04 1.119603241316e-03 0.0 
0.0 0.0 -2.040322045631e-04 
-7.855046317287e-04 5.237977796601e-04 0.0 
5.237977796601e-04 5.697841480735e-03 0.0 
0.0 0.0 -9.517466134248e-04 
-1.278300960589e-03 -7.889376224299e-05 0.0 
-7.889376224299e-05 7.564162797006e-03 0.0 
0.0 0.0 -1.155419075730e-03 
-6.039386638838e-04 -9.352834442183e-04 0.0 
-9.352834442183e-04 3.237374525321e-03 0.0 
0.0 0.0 -5.654343806685e-04 
-5.996382576729e-04 -5.078678615237e-04 0.0 
-5.078678615237e-04 4.794693511813e-03 0.0 
0.0 0.0 -8.420324705410e-04 
-1.153622144798e-03 3.409444967982e-04 0.0 
3.409444967982e-04 6.992756961225e-03 0.0 
0.0 0.0 -1.063653581392e-03 
-6.588103306477e-04 3.969496556601e-04 0.0 
3.969496556601e-04 3.002666315313e-03 0.0 
0.0 0.0 -4.839843007303e-04 
-6.880791710433e-04 -4.312562534369e-04 0.0 
-4.312562534369e-04 5.283404868934e-03 0.0 
0.0 0.0 -9.074658271045e-04 
-1.060052777402e-03 4.844888623504e-04 0.0 
4.844888623504e-04 6.770757776904e-03 0.0 
0.0 0.0 -1.067288052377e-03 
-7.837482685475e-04 4.743739920089e-04 0.0 
4.743739920089e-04 5.847117456295e-03 0.0 
0.0 0.0 -9.801762873724e-04 
-5.364910550697e-04 4.803545642860e-04 0.0 
4.803545642860e-04 4.747968314780e-03 0.0 
0.0 0.0 -8.455731917576e-04 
-7.785051872343e-04 -3.658858697108e-04 0.0 
-3.658858697108e-04 5.776530662371e-03 0.0 
0.0 0.0 -9.738262179588e-04 
-6.715128569437e-04 5.603668306290e-04 0.0 
5.603668306290e-04 3.116619739403e-03 0.0 
0.0 0.0 -5.057041985798e-04 
-6.174255134183e-04 -7.382519752092e-04 0.0 
-7.382519752092e-04 2.524949954393e-03 0.0 
0.0 0.0 -4.238464704258e-04 
-5.725994882734e-04 -6.885730532868e-04 0.0 
-6.885730532868e-04 2.123374709043e-03 0.0 
0.0 0.0 -3.586180353125e-04 
-1.087968519769e-04 -3.894502741245e-04 0.0 
-3.894502741245e-04 2.894305128247e-03 0.0 
0.0 0.0 -6.294631353604e-04 
-1.113989301634e-03 4.730580331504e-04 0.0 
4.730580331504e-04 7.064599777148e-03 0.0 
0.0 0.0 -1.103081964739e-03 
-2.909493422495e-04 -6.727813062534e-05 0.0 
-6.727813062534e-05 1.456560370235e-03 0.0 
0.0 0.0 -2.521214004998e-04 
-1.130223577437e-03 3.874695664211e-04 0.0 
3.874695664211e-04 6.879711460710e-03 0.0 
0.0 0.0 -1.054898413167e-03 
-4.747914815808e-04 -7.007316897934e-04 0.0 
-7.007316897934e-04 1.510403036883e-03 0.0 
0.0 0.0 -2.740243446916e-04 
-1.059034309075e-04 -6.476895754937e-04 0.0 
-6.476895754937e-04 2.671993736935e-03 0.0 
0.0 0.0 -5.935709857392e-04 
-8.832674525435e-04 3.712236152595e-04 0.0 
3.712236152595e-04 6.508434955568e-03 0.0 
0.0 0.0 -1.077081564483e-03 
-1.023005590377e-03 -4.065847446542e-05 0.0 
-4.065847446542e-05 6.235882102629e-03 0.0 
0.0 0.0 -9.315431351609e-04 
-2.271455064543e-04 -7.649077538712e-04 0.0 
-7.649077538712e-04 3.005124294304e-03 0.0 
0.0 0.0 -6.211106552582e-04 
-5.539372237771e-04 -2.705347043382e-05 0.0 
-2.705347043382e-05 2.503628127068e-03 0.0 
0.0 0.0 -3.989951351066e-04 
-2.711318037513e-04 -9.555117866304e-04 0.0 
-9.555117866304e-04 2.849172517321e-03 0.0 
0.0 0.0 -5.850331209179e-04 
-6.241921201683e-04 4.180601427792e-04 0.0 
4.180601427792e-04 5.227484326245e-03 0.0 
0.0 0.0 -9.098959706900e-04 
-3.942802621189e-04 -9.538191986641e-04 0.0 
-9.538191986641e-04 3.188718869022e-03 0.0 
0.0 0.0 -6.124823626799e-04 
-4.550624226044e-04 -1.036578340992e-03 0.0 
-1.036578340992e-03 3.064317854104e-03 0.0 
0.0 0.0 -5.760838601101e-04 
-1.286542940212e-03 9.779925010804e-05 0.0 
9.779925010804e-05 8.362389009926e-03 0.0 
0.0 0.0 -1.242975171717e-03 
-5.556616817437e-04 -9.487474711726e-04 0.0 
-9.487474711726e-04 3.373317672553e-03 0.0 
0.0 0.0 -6.030381679152e-04 
-1.312957018488e-03 1.762534641485e-05 0.0 
1.762534641485e-05 8.791531742823e-03 0.0 
0.0 0.0 -1.305370344976e-03 
-1.342889913941e-03 -8.887845541572e-05 0.0 
-8.887845541572e-05 8.517788746463e-03 0.0 
0.0 0.0 -1.298405437673e-03 
-9.001399359898e-04 -3.115200366471e-05 0.0 
-3.115200366471e-05 5.327299192951e-03 0.0 
0.0 0.0 -7.997855503562e-04 
-6.119585369169e-04 5.319683456807e-04 0.0 
5.319683456807e-04 2.524442221547e-03 0.0 
0.0 0.0 -4.121418992062e-04 
0.0 0.0 0.0 
0.0 0.0 0.0 
0.0 0.0 0.0 
-6.013216908629e-04 7.353591052882e-04 0.0 
7.353591052882e-04 2.570270979253e-03 0.0 
0.0 0.0 -4.369243393394e-04 
-5.755877201232e-04 -1.006492197580e-03 0.0 
-1.006492197580e-03 2.831071537896e-03 0.0 
0.0 0.0 -5.013603847490e-04 
-1.101076468124e-03 4.427543157598e-04 0.0 
4.427543157598e-04 6.753747619027e-03 0.0 
0.0 0.0 -1.045752072333e-03 
-9.001350944238e-04 1.690426372956e-05 0.0 
1.690426372956e-05 5.335483219367e-03 0.0 
0.0 0.0 -8.029817139903e-04 
-6.111138971153e-04 -8.912307338130e-04 0.0 
-8.912307338130e-04 2.695444832232e-03 0.0 
0.0 0.0 -4.630712860745e-04 
-1.275916597091e-03 4.598087248478e-04 0.0 
4.598087248478e-04 8.197933557976e-03 0.0 
0.0 0.0 -1.250093291501e-03 
-1.277155987315e-03 4.247176035906e-04 0.0 
4.247176035906e-04 8.290214574666e-03 0.0 
0.0 0.0 -1.306737725957e-03 
-1.108220863065e-03 9.376951406301e-06 0.0 
9.376951406301e-06 6.884195681395e-03 0.0 
0.0 0.0 -1.028769680629e-03 
-9.736500693663e-04 5.157775084853e-05 0.0 
5.157775084853e-05 6.985202160712e-03 0.0 
0.0 0.0 -1.152835590205e-03 
-7.921204258207e-04 4.078698397503e-04 0.0 
4.078698397503e-04 6.023879636983e-03 0.0 
0.0 0.0 -1.010595862668e-03 
-1.241857793517e-03 -4.299570159508e-06 0.0 
-4.299570159508e-06 7.958618347353e-03 0.0 
0.0 0.0 -1.185717314024e-03 
-8.475222208266e-04 -3.781329079989e-05 0.0 
-3.781329079989e-05 4.928212699674e-03 0.0 
0.0 0.0 -7.451086181774e-04 
-1.664286133127e-04 -2.725892507630e-04 0.0 
-2.725892507630e-04 6.325537652716e-04 0.0 
0.0 0.0 -1.414044378648e-04 
-1.183800202695e-03 -4.172593709851e-05 0.0 
-4.172593709851e-05 6.467154125527e-03 0.0 
0.0 0.0 -9.879584850274e-04 
-5.708971627680e-04 6.741264129118e-04 0.0 
6.741264129118e-04 2.024843560255e-03 0.0 
0.0 0.0 -3.437331075899e-04 
-5.495900722021e-04 1.011381174664e-03 0.0 
1.011381174664e-03 1.944401710747e-03 0.0 
0.0 0.0 -3.524505972177e-04 
-2.853835512823e-04 1.205712139992e-03 0.0 
1.205712139992e-03 1.304597058130e-03 0.0 
0.0 0.0 -3.593644486456e-04 
-7.020460695734e-04 -1.440442927613e-04 0.0 
-1.440442927613e-04 3.119459023260e-03 0.0 
0.0 0.0 -4.856826860430e-04 
-8.782495870591e-05 -9.084916110393e-04 0.0 
-9.084916110393e-04 7.572036747300e-04 0.0 
0.0 0.0 -2.846511604759e-04 
-4.893890858810e-04 8.969022950391e-04 0.0 
8.969022950391e-04 1.589417859757e-03 0.0 
0.0 0.0 -3.076864852448e-04 
-1.137014357475e-03 7.152136645661e-05 0.0 
7.152136645661e-05 7.697731072351e-03 0.0 
0.0 0.0 -1.245112051941e-03 
-9.139609418570e-04 1.641183808410e-05 0.0 
1.641183808410e-05 5.327038428336e-03 0.0 
0.0 0.0 -8.050116406322e-04 
-9.540345071131e-04 3.841934886618e-04 0.0 
3.841934886618e-04 6.790550876670e-03 0.0 
0.0 0.0 -1.110409235593e-03 
-1.902162665021e-04 9.339845454039e-04 0.0 
9.339845454039e-04 9.942126500714e-04 0.0 
0.0 0.0 -3.261355004832e-04 
-1.296828862309e-03 2.341461600450e-04 0.0 
2.341461600450e-04 8.351041898143e-03 0.0 
0.0 0.0 -1.247366155457e-03 
-1.168645139073e-03 3.735588726833e-04 0.0 
3.735588726833e-04 7.817174461527e-03 0.0 
0.0 0.0 -1.246608778627e-03 
-1.314967464086e-03 -3.318256949741e-04 0.0 
-3.318256949741e-04 8.403481236488e-03 0.0 
0.0 0.0 -1.306249356034e-03 
-1.050201848033e-03 3.696451559178e-04 0.0 
3.696451559178e-04 7.268871172990e-03 0.0 
0.0 0.0 -1.176371721005e-03 
6.114555871551e-05 1.042784162236e-03 0.0 
1.042784162236e-03 5.736687994652e-04 0.0 
0.0 0.0 -2.720632963632e-04 
-9.766098877979e-04 1.041630930997e-04 0.0 
1.041630930997e-04 5.685157012225e-03 0.0 
0.0 0.0 -8.603500797662e-04 
-1.246724541881e-03 4.866961176123e-04 0.0 
4.866961176123e-04 8.045633532487e-03 0.0 
0.0 0.0 -1.250827372426e-03 
-1.145993633532e-03 3.235835733547e-05 0.0 
3.235835733547e-05 7.250949289083e-03 0.0 
0.0 0.0 -1.080253149739e-03 
-1.318596932855e-03 -2.303003049155e-04 0.0 
-2.303003049155e-04 8.477981163117e-03 0.0 
0.0 0.0 -1.309985050881e-03 
-9.104561560587e-04 8.791536920609e-05 0.0 
8.791536920609e-05 5.249520802984e-03 0.0 
0.0 0.0 -7.979019438933e-04 
-1.287101829326e-03 7.929734908006e-05 0.0 
7.929734908006e-05 8.412586601378e-03 0.0 
0.0 0.0 -1.252774941638e-03 
4.187865149814e-04 -7.886444366699e-04 0.0 
-7.886444366699e-04 6.898920111237e-05 0.0 
0.0 0.0 -2.090467354688e-04 
-1.285197150188e-03 5.312445103222e-05 0.0 
5.312445103222e-05 8.412445019205e-03 0.0 
0.0 0.0 -1.254166199180e-03 
-1.155435508235e-03 4.462044169920e-04 0.0 
4.462044169920e-04 7.190167035892e-03 0.0 
0.0 0.0 -1.110316242656e-03 
-9.785241987209e-04 6.006269753900e-05 0.0 
6.006269753900e-05 5.897359505691e-03 0.0 
0.0 0.0 -8.840149073763e-04 
-9.814056690218e-04 2.078101741112e-04 0.0 
2.078101741112e-04 5.639397818750e-03 0.0 
0.0 0.0 -8.570326279659e-04 
-1.319590243869e-03 -1.168373964399e-04 0.0 
-1.168373964399e-04 8.200864803592e-03 0.0 
0.0 0.0 -1.256337174517e-03 
-1.298927049123e-03 3.872456439500e-04 0.0 
3.872456439500e-04 8.256979916972e-03 0.0 
0.0 0.0 -1.249505442739e-03 
1.588810044440e-04 6.739000714330e-04 0.0 
6.739000714330e-04 2.144145137498e-04 0.0 
0.0 0.0 -1.599837935116e-04 
-1.096094038579e-03 6.855172835755e-05 0.0 
6.855172835755e-05 6.864639960432e-03 0.0 
0.0 0.0 -1.024357608964e-03 
-8.327401503038e-04 -2.617825635292e-04 0.0 
-2.617825635292e-04 3.865808984588e-03 0.0 
0.0 0.0 -5.984289768806e-04 
4.595402762325e-05 -8.016720020432e-05 0.0 
-8.016720020432e-05 3.015012832340e-06 0.0 
0.0 0.0 -2.098673162382e-05 
-1.235862100260e-03 -2.625570613708e-04 0.0 
-2.625570613708e-04 7.934382526740e-03 0.0 
0.0 0.0 -1.249521112489e-03 
-1.211535382329e-03 4.565569816846e-04 0.0 
4.565569816846e-04 7.603855218494e-03 0.0 
0.0 0.0 -1.172189067419e-03 
-1.321360973485e-03 -1.598454139055e-04 0.0 
-1.598454139055e-04 8.157812717265e-03 0.0 
0.0 0.0 -1.251863004148e-03 
-1.704574328015e-04 2.300128264432e-05 0.0 
2.300128264432e-05 1.030856563870e-03 0.0 
0.0 0.0 -1.953152674555e-04 
-1.117901966883e-04 -9.482210033707e-05 0.0 
-9.482210033707e-05 5.817955991869e-04 0.0 
0.0 0.0 -1.292073282250e-04 
-1.214101423412e-03 -2.486194593532e-04 0.0 
-2.486194593532e-04 7.945028851660e-03 0.0 
0.0 0.0 -1.258522865334e-03 
-1.271219324857e-03 4.971693506933e-04 0.0 
4.971693506933e-04 8.177840067003e-03 0.0 
0.0 0.0 -1.257106814994e-03 
2.594232538172e-04 -1.339851872499e-03 0.0 
-1.339851872499e-03 5.141638941498e-04 0.0 
0.0 0.0 -3.217126346404e-04 
-1.334345376368e-03 2.157790183719e-04 0.0 
2.157790183719e-04 8.827191171129e-03 0.0 
0.0 0.0 -1.314710167832e-03 
5.758992691219e-05 1.629967515180e-04 0.0 
1.629967515180e-04 3.408863824387e-05 0.0 
0.0 0.0 -3.929081363831e-05 
-8.415723991859e-04 3.409357994461e-05 0.0 
3.409357994461e-05 4.862419417103e-03 0.0 
0.0 0.0 -7.389643750272e-04 
-5.632071603276e-05 -7.908255579780e-05 0.0 
-7.908255579780e-05 5.951715054384e-04 0.0 
0.0 0.0 -1.313337839019e-04 
-1.324427323831e-03 -2.984557275517e-04 0.0 
-2.984557275517e-04 8.505668996389e-03 0.0 
0.0 0.0 -1.308531455474e-03 
-1.300676432775e-03 1.886676363898e-04 0.0 
1.886676363898e-04 8.425576722081e-03 0.0 
0.0 0.0 -1.254845750201e-03 
-8.984019564796e-04 -1.237198133233e-04 0.0 
-1.237198133233e-04 4.265458849472e-03 0.0 
0.0 0.0 -6.564513288157e-04 
-8.888014077326e-04 1.812789084724e-04 0.0 
1.812789084724e-04 4.952376261473e-03 0.0 
0.0 0.0 -7.541421605440e-04 
-6.276097559503e-04 -6.715782605664e-05 0.0 
-6.715782605664e-05 2.832069501594e-03 0.0 
0.0 0.0 -4.426424662127e-04 
-1.151816338705e-03 4.986859032723e-04 0.0 
4.986859032723e-04 7.600283655027e-03 0.0 
0.0 0.0 -1.203498912175e-03 
-2.674740073154e-04 -5.400123392678e-04 0.0 
-5.400123392678e-04 9.299090651865e-04 0.0 
0.0 0.0 -2.264474151299e-04 
-1.303841109802e-03 1.085882883771e-04 0.0 
1.085882883771e-04 8.492357544012e-03 0.0 
0.0 0.0 -1.260296891839e-03 
-1.191687690371e-03 -1.792572912051e-04 0.0 
-1.792572912051e-04 7.902409115589e-03 0.0 
0.0 0.0 -1.261416966621e-03 
-1.308215205254e-03 3.369873735607e-04 0.0 
3.369873735607e-04 8.413847692259e-03 0.0 
0.0 0.0 -1.260618436842e-03 
-1.275370929010e-03 2.203297067690e-04 0.0 
2.203297067690e-04 8.294911698725e-03 0.0 
0.0 0.0 -1.317725628150e-03 
1.222313271004e-05 1.128127362180e-05 0.0 
1.128127362180e-05 -2.314647535048e-06 0.0 
0.0 0.0 -4.246493646427e-06 
-1.211818034300e-03 4.006014363556e-04 0.0 
4.006014363556e-04 7.983414665776e-03 0.0 
0.0 0.0 -1.263090216482e-03 
-1.073154055867e-03 -5.044780342709e-05 0.0 
-5.044780342709e-05 7.404491594172e-03 0.0 
0.0 0.0 -1.202239909569e-03 
-8.482969471247e-04 5.756566432870e-05 0.0 
5.756566432870e-05 4.934073378721e-03 0.0 
0.0 0.0 -7.439744481034e-04 
-1.294789794099e-03 4.128632800208e-04 0.0 
4.128632800208e-04 8.301439097425e-03 0.0 
0.0 0.0 -1.252574368527e-03 
-7.632240259174e-04 -1.247615584578e-04 0.0 
-1.247615584578e-04 3.481612275262e-03 0.0 
0.0 0.0 -5.383891422301e-04 
-3.003096040968e-04 -1.615487937268e-04 0.0 
-1.615487937268e-04 1.430206630076e-03 0.0 
0.0 0.0 -2.492021827984e-04 
-1.313629829914e-03 -1.230146382652e-05 0.0 
-1.230146382652e-05 8.822541585775e-03 0.0 
0.0 0.0 -1.313490227100e-03 
3.512651625883e-04 2.496523614618e-05 0.0 
2.496523614618e-05 9.331964126241e-05 0.0 
0.0 0.0 -1.176723970536e-04 
-8.447146323437e-04 -2.046082411215e-05 0.0 
-2.046082411215e-05 4.909462012842e-03 0.0 
0.0 0.0 -7.402411036050e-04 
-1.348085845692e-03 2.530918264864e-06 0.0 
2.530918264864e-06 8.606464988216e-03 0.0 
0.0 0.0 -1.313492844077e-03 
-2.497229854947e-04 -6.189559134780e-05 0.0 
-6.189559134780e-05 1.337406434444e-03 0.0 
0.0 0.0 -2.401910970207e-04 
-9.421911629794e-04 -1.661669992897e-05 0.0 
-1.661669992897e-05 5.655702660019e-03 0.0 
0.0 0.0 -8.489638187885e-04 
-1.276280445523e-03 4.696432845470e-04 0.0 
4.696432845470e-04 8.231682282445e-03 0.0 
0.0 0.0 -1.260211869575e-03 
-1.042131282941e-03 -3.353944901092e-05 0.0 
-3.353944901092e-05 5.231045184564e-03 0.0 
0.0 0.0 -7.986629621775e-04 
-1.208709146256e-03 -3.512840286861e-05 0.0 
-3.512840286861e-05 7.690123470060e-03 0.0 
0.0 0.0 -1.148445367820e-03 
-1.362273016930e-05 -1.182361291552e-03 0.0 
-1.182361291552e-03 7.884965128820e-04 0.0 
0.0 0.0 -3.320887640197e-04 
0.0 0.0 0.0 
0.0 0.0 0.0 
0.0 0.0 0.0 
-1.052359765526e-03 -2.552934865100e-05 0.0 
-2.552934865100e-05 6.469023319650e-03 0.0 
0.0 0.0 -9.668795991591e-04 
-1.182130655930e-03 3.563594059290e-04 0.0 
3.563594059290e-04 7.870829341615e-03 0.0 
0.0 0.0 -1.258714341260e-03 
-1.311624000118e-03 2.599452204782e-04 0.0 
2.599452204782e-04 8.471619375797e-03 0.0 
0.0 0.0 -1.263997700767e-03 
-1.012178473530e-03 6.922432419418e-05 0.0 
6.922432419418e-05 6.158161253950e-03 0.0 
0.0 0.0 -9.199601189493e-04 
2.647470927745e-04 7.455276449397e-04 0.0 
7.455276449397e-04 1.486685304712e-04 0.0 
0.0 0.0 -1.771781242482e-04 
-1.250478637346e-03 4.824320061321e-04 0.0 
4.824320061321e-04 7.958988352162e-03 0.0 
0.0 0.0 -1.221038716794e-03 
-9.320485300336e-04 -1.667751956757e-04 0.0 
-1.667751956757e-04 4.597200132756e-03 0.0 
0.0 0.0 -7.060606045914e-04 
-1.200656783891e-03 4.721645169611e-04 0.0 
4.721645169611e-04 7.751960834764e-03 0.0 
0.0 0.0 -1.208939113964e-03 
-1.070653970758e-03 3.740030437558e-05 0.0 
3.740030437558e-05 7.401065294209e-03 0.0 
0.0 0.0 -1.203806565432e-03 
6.445312220166e-07 1.144051625641e-04 0.0 
1.144051625641e-04 1.433855285291e-05 0.0 
0.0 0.0 -6.421321746397e-06 
-1.092227246100e-03 -1.750499239164e-05 0.0 
-1.750499239164e-05 5.615262148534e-03 0.0 
0.0 0.0 -8.562696210230e-04 
-5.708960077967e-05 -1.112001135559e-04 0.0 
-1.112001135559e-04 5.586929987395e-04 0.0 
0.0 0.0 -1.274563633148e-04 
-1.286136249812e-03 -3.205909886145e-04 0.0 
-3.205909886145e-04 8.133690929480e-03 0.0 
0.0 0.0 -1.263714160583e-03 
-9.761535132734e-04 -1.267872809360e-04 0.0 
-1.267872809360e-04 4.804162128704e-03 0.0 
0.0 0.0 -7.344436328926e-04 
-3.018204683661e-04 5.396670696026e-04 0.0 
5.396670696026e-04 1.017078616493e-03 0.0 
0.0 0.0 -2.396621594044e-04 
-2.374498242078e-04 1.023887662289e-06 0.0 
1.023887662289e-06 1.104170816730e-03 0.0 
0.0 0.0 -1.933333333333e-04 
-4.649642435577e-04 5.083679169788e-04 0.0 
5.083679169788e-04 1.486596875336e-03 0.0 
0.0 0.0 -2.525839566596e-04 
-3.132417179502e-04 -4.279092732955e-06 0.0 
-4.279092732955e-06 1.491121511340e-03 0.0 
0.0 0.0 -2.600000000000e-04 
-4.871441053693e-04 3.894800201419e-04 0.0 
3.894800201419e-04 1.935005749198e-03 0.0 
0.0 0.0 -3.193537414966e-04 
-3.883340728744e-04 -5.297006852740e-06 0.0 
-5.297006852740e-06 2.040218536578e-03 0.0 
0.0 0.0 -3.266666666667e-04 
-5.221802544742e-04 3.142786752395e-04 0.0 
3.142786752395e-04 2.396081260473e-03 0.0 
0.0 0.0 -3.859030858720e-04 
-4.643532723477e-04 -6.847349416375e-06 0.0 
-6.847349416375e-06 2.429348412629e-03 0.0 
0.0 0.0 -3.933333333333e-04 
-5.880460427890e-04 2.259415376055e-04 0.0 
2.259415376055e-04 2.861994469718e-03 0.0 
0.0 0.0 -4.526870748299e-04 
-5.389667577120e-04 -6.804025262557e-06 0.0 
-6.804025262557e-06 2.978462680921e-03 0.0 
0.0 0.0 -4.600000000000e-04 
-6.473050156334e-04 1.727942626416e-04 0.0 
1.727942626416e-04 3.336717154907e-03 0.0 
0.0 0.0 -5.192176870747e-04 
-6.144712139930e-04 -6.417158408879e-06 0.0 
-6.417158408879e-06 3.367933189460e-03 0.0 
0.0 0.0 -5.266666666667e-04 
-7.109436799071e-04 1.285541719908e-04 0.0 
1.285541719908e-04 3.807150921548e-03 0.0 
0.0 0.0 -5.860204081633e-04 
-6.853888581673e-04 6.201834011282e-06 0.0 
6.201834011282e-06 3.914136364457e-03 0.0 
0.0 0.0 -5.933333333333e-04 
-7.741251423872e-04 1.050422606297e-04 0.0 
1.050422606297e-04 4.286196800977e-03 0.0 
0.0 0.0 -6.525251918948e-04 
-7.681459693767e-04 3.705640173290e-05 0.0 
3.705640173290e-05 4.300928271438e-03 0.0 
0.0 0.0 -6.600000000000e-04 

SCALARS node_materi_plasti_kappa_shear float
LOOKUP_TABLE default
4.018595016637e-04
3.089753889168e-03
5.782851735544e-03
5.918183804685e-03
3.534406101045e-04
5.777185496190e-04
8.655346567894e-04
1.225178696612e-03
1.561289241519e-03
1.871659154863e-03
2.181083715770e-03
2.488964856422e-03
2.787137593187e-03
3.091771098928e-03
3.420472284368e-03
3.710467865470e-03
3.939561491463e-03
4.240577622205e-03
4.533842638206e-03
4.816933074020e-03
5.104668969230e-03
5.391975952764e-03
5.664103688175e-03
5.924781152092e-03
5.917884078783e-03
5.912198488963e-03
5.915363934694e-03
5.905144694759e-03
5.903457440159e-03
5.903348825920e-03
5.903761712110e-03
5.904265203747e-03
5.905318048855e-03
5.891395232290e-03
5.888128140164e-03
5.888680312796e-03
5.877931512601e-03
5.860031142375e-03
5.843163873242e-03
5.826784160533e-03
5.822850206754e-03
5.815960623432e-03
5.800025919692e-03
5.784362356774e-03
5.761776212317e-03
5.737855144386e-03
5.711749137531e-03
5.696108572039e-03
5.671644922162e-03
5.650827538949e-03
5.628366488181e-03
5.614080868870e-03
5.604140386820e-03
5.593036124330e-03
5.565915778014e-03
5.555192109801e-03
5.573004876633e-03
5.580306717995e-03
5.596307166112e-03
5.614091302200e-03
5.629810666475e-03
5.640837494200e-03
5.663093814390e-03
5.686920133380e-03
5.716693701825e-03
5.739758391817e-03
5.726679333637e-03
5.759394314008e-03
5.766547388258e-03
5.773558049937e-03
5.793695355299e-03
5.800384027879e-03
3.373278433029e-03
3.702017582457e-03
4.003145076898e-03
4.293988028575e-03
4.595203178701e-03
4.888984289506e-03
5.184208240141e-03
5.464856448975e-03
5.776378587400e-03
0.0
3.081614032412e-03
4.378618974845e-04
9.253997503990e-04
1.116670859615e-03
1.349014216904e-03
1.575876928334e-03
1.839092757794e-03
2.132793436960e-03
2.435412037652e-03
2.742854806992e-03
7.511965577192e-04
9.327039136355e-04
1.234373397688e-03
1.540487309266e-03
1.848687914648e-03
2.157438038011e-03
2.464376355407e-03
2.763613688910e-03
3.033283060944e-03
3.047551184854e-03
3.052691208087e-03
3.048980415926e-03
3.100970999415e-03
3.055386088564e-03
3.048944342912e-03
3.057111577284e-03
3.066860764030e-03
3.068512091509e-03
3.063486917503e-03
3.060147944086e-03
3.055345893607e-03
3.060924048496e-03
0.0
0.0
0.0
0.0
3.010556392937e-05
1.524327839584e-04
1.995857095858e-04
2.767971837970e-04
3.769179784358e-04
3.253807271213e-04
3.117581124918e-04
3.606568275965e-04
3.857262083461e-04
3.906419353076e-04
3.716692121618e-04
3.690405021818e-04
3.649158742688e-04
3.750961897123e-04
3.938961504005e-04
8.714522513313e-04
9.043948068158e-04
8.541737917953e-04
8.304479534876e-04
8.466079771241e-04
8.084424851907e-04
7.688612956540e-04
7.470591589673e-04
7.439321154400e-04
7.423580234248e-04
7.419947705877e-04
7.424044316133e-04
7.433835494980e-04
7.447464168633e-04
7.463753612911e-04
7.481309330231e-04
7.498788149609e-04
7.515163817547e-04
7.529729397765e-04
7.541820105282e-04
7.550634807556e-04
7.555191088653e-04
7.554519067233e-04
7.549665308603e-04
7.582249676681e-04
7.933143580189e-04
9.909652232208e-04
1.000323894640e-03
9.614737308725e-04
9.351513070501e-04
9.145446388171e-04
8.961955305782e-04
8.899178029781e-04
8.856946120988e-04
8.832943610386e-04
8.819803486326e-04
8.815291054231e-04
8.816763298801e-04
8.822954651675e-04
8.832145972014e-04
8.842483524863e-04
8.852607652099e-04
8.861709768136e-04
8.869093519269e-04
8.874063066099e-04
8.875951146691e-04
8.874459252017e-04
8.870250409582e-04
8.867868378058e-04
8.903609641353e-04
9.175642756490e-04
1.218617488871e-03
1.201441144692e-03
1.200450054902e-03
1.200725682078e-03
1.201284400767e-03
1.201809552986e-03
1.202146721212e-03
1.202263596627e-03
1.202225086140e-03
1.202090321804e-03
1.201916536589e-03
1.201744135093e-03
1.201800021073e-03
1.202351193508e-03
1.203648568617e-03
1.205522949758e-03
1.208629005642e-03
1.212461690665e-03
1.219453852663e-03
1.226928831710e-03
1.244550525754e-03
1.281903527467e-03
1.240390523468e-03
1.503710853602e-03
1.563264015597e-03
1.541819981905e-03
1.533515452539e-03
1.530749929635e-03
1.526512742426e-03
1.523991147098e-03
1.521462715804e-03
1.520000732908e-03
1.519373259278e-03
1.519112239051e-03
1.518688350821e-03
1.518233377000e-03
1.517797439737e-03
1.517289149115e-03
1.516573233522e-03
1.515655005308e-03
1.514795103623e-03
1.514285677842e-03
1.514558152049e-03
1.516766357273e-03
1.531646280250e-03
1.838274221278e-03
1.827642067065e-03
1.826933390294e-03
1.827334425569e-03
1.828247054489e-03
1.829485851769e-03
1.830712470314e-03
1.831486639508e-03
1.832077787242e-03
1.832953756020e-03
1.833892061319e-03
1.834434545344e-03
1.834261549352e-03
1.835206308822e-03
1.837211607732e-03
1.841012575748e-03
1.841393986030e-03
1.843823439171e-03
1.861376219882e-03
1.784560400915e-03
2.080506824934e-03
2.164948252942e-03
2.154100839180e-03
2.150515564044e-03
2.148527180390e-03
2.146829621685e-03
2.148399684790e-03
2.148269732465e-03
2.147251103362e-03
2.145502430008e-03
2.144742881416e-03
2.144585681651e-03
2.143007155335e-03
2.141326361852e-03
2.140089070988e-03
2.139324946174e-03
2.139237355337e-03
2.141352669433e-03
2.151708895370e-03
2.461087216651e-03
2.449937346399e-03
2.449035342414e-03
2.450513446923e-03
2.450644149295e-03
2.452642955489e-03
2.454778138053e-03
2.455902509536e-03
2.454538383279e-03
2.457438007012e-03
2.459393424546e-03
2.458960398410e-03
2.459214310986e-03
2.454295807747e-03
2.458028484257e-03
2.475695803071e-03
2.389521690566e-03
2.696529334491e-03
2.782001887569e-03
2.769038020761e-03
2.765913210012e-03
2.768177298345e-03
2.769449690573e-03
2.765618434112e-03
2.764713207464e-03
2.764281696244e-03
2.762786239059e-03
2.760748228383e-03
2.759266427299e-03
2.760944420823e-03
2.756978941966e-03
2.764313748951e-03
2.781014989081e-03
2.228103941907e-04
6.987967846243e-04
1.029085750695e-03
1.303606500789e-03
1.480294313688e-03
1.730609436774e-03
2.006286172887e-03
2.301780023271e-03
2.604607703320e-03
2.917242865590e-03
9.738600395069e-04
5.435588587201e-03
2.909988311951e-04
3.769847250242e-05
5.523350165745e-03
1.570944169196e-03
3.259014405966e-03
5.458606763578e-03
1.964336709912e-03
5.566973844380e-03
2.569306611317e-03
5.632953359091e-03
2.974125210141e-04
5.671758588449e-03
3.203440197606e-03
2.038890301765e-03
4.045860618713e-03
5.716180375961e-03
5.780776132195e-03
5.820339983969e-03
5.787783236705e-03
5.807930197893e-03
3.336276229903e-03
3.342041558882e-03
3.361792062102e-03
4.441169448529e-03
5.674307051814e-03
0.0
3.209899088955e-04
4.945795996265e-03
3.327462179655e-03
1.042267579418e-03
5.707024864184e-03
5.532622783008e-03
5.619797893241e-03
5.423578043402e-03
5.471772884167e-03
3.436383270429e-04
3.333005330644e-03
5.529223749367e-03
5.037839075619e-03
2.638587871684e-04
2.642361659730e-03
5.873210275008e-03
1.763677943653e-03
1.340334044123e-03
2.263467496582e-03
2.874799860949e-03
3.959543905537e-04
3.869122312403e-03
5.743109238437e-03
3.285007242827e-04
5.592525333234e-03
3.331816214928e-03
3.445762685372e-03
3.598635432457e-03
3.735913935781e-03
3.890935618439e-03
4.012600674008e-03
3.849474617287e-03
4.126514031565e-03
3.959165169884e-03
4.176038116471e-03
4.235988580970e-03
4.064707878218e-03
4.341402437136e-03
4.167240197337e-03
3.894151677151e-03
3.992834958239e-03
3.721936449487e-03
3.816849981585e-03
4.088667098279e-03
3.907021233887e-03
3.638494610824e-03
3.722863223661e-03
3.459179651477e-03
3.537390187834e-03
3.278134638251e-03
3.349761859775e-03
3.611638012721e-03
3.416809574398e-03
3.159803868816e-03
3.218051688491e-03
2.967054440755e-03
3.013255720382e-03
3.274741419647e-03
3.060407839341e-03
2.799033525006e-03
2.837141687482e-03
2.575225456547e-03
2.604333461748e-03
2.339006943104e-03
2.356936139518e-03
2.652093179226e-03
2.407825459181e-03
2.096105658174e-03
2.161022888783e-03
2.499076110119e-03
2.280206439540e-03
2.629068977315e-03
2.442266900798e-03
2.092139772061e-03
2.292183785287e-03
2.630236405014e-03
2.506325631077e-03
2.190661895186e-03
2.422274426006e-03
2.721982461051e-03
2.641933182030e-03
2.372758104436e-03
2.584384885052e-03
2.850333968712e-03
2.779077813445e-03
2.534557373612e-03
2.709557774217e-03
2.962454448322e-03
2.875190167875e-03
3.136631662821e-03
2.629761375739e-03
2.778979644167e-03
2.533618166994e-03
2.669371918058e-03
3.335780224915e-03
2.417052975494e-03
2.301133563289e-03
2.544153619348e-03
2.809569658580e-03
2.280488059570e-03
2.403129281843e-03
2.126768242516e-03
2.337020972949e-03
4.180692697777e-03
2.249003779132e-03
1.959755581014e-03
1.842529391951e-03
1.658290441270e-03
4.057689887828e-03
4.345234894460e-03
4.214494829484e-03
4.512207963410e-03
4.386116896851e-03
1.781237856866e-03
4.515858041588e-03
4.632785065629e-03
3.375865563346e-03
2.914340702826e-03
2.837997481989e-03
2.532048550751e-03
2.378710134929e-03
2.668313152737e-03
3.233044162886e-03
3.411145406702e-03
3.516648249659e-03
3.695606962541e-03
3.809881520442e-03
3.987932871345e-03
3.868387923180e-03
4.160380401702e-03
4.035401995459e-03
4.109927676280e-03
3.929071965477e-03
4.326541573449e-03
4.196853341751e-03
4.486612097014e-03
4.352559495553e-03
4.065464170358e-03
4.216259007439e-03
3.932665926102e-03
2.974206145827e-03
3.176937453123e-03
3.316135238148e-03
3.514584502752e-03
3.655690360847e-03
3.851432524779e-03
3.992906615051e-03
3.810423676568e-03
4.443438443786e-03
1.828572061533e-03
1.806415762240e-03
1.513365747016e-03
1.563989916259e-03
1.243214007741e-03
1.411260727777e-03
1.087408529277e-03
9.280634857496e-04
7.696745497682e-04
7.727047061155e-04
6.380213861807e-04
9.424950275726e-04
3.683920707972e-03
3.721810168106e-03
4.055539867157e-03
3.931687734683e-03
1.545289606018e-03
4.502587431745e-03
4.237803823005e-03
4.054767645798e-03
4.147689587509e-03
1.469037962723e-03
1.381279309045e-03
1.636872751770e-03
4.676612476866e-03
4.548915297300e-03
4.373011447568e-03
1.596671411329e-03
4.457517107573e-03
6.726180917699e-04
4.361759767158e-03
4.647438517847e-03
3.749070434487e-03
4.262666346844e-03
4.139562493484e-03
1.058263721451e-03
1.328795762681e-03
1.257951778391e-03
1.615059101371e-03
1.617776829753e-03
1.784704992927e-03
1.664404533731e-03
1.851897133188e-03
1.923512677117e-03
1.920863832566e-03
1.732826179111e-03
1.789080397445e-03
4.789640175199e-03
4.933105548269e-04
3.623293427982e-03
4.549397453839e-03
4.326717748868e-03
4.840106465985e-03
4.712783082347e-03
4.418649943636e-03
4.585859736983e-03
4.878747721020e-03
4.750919794657e-03
4.456475978691e-03
4.618929314417e-03
4.321775629010e-03
4.485087669046e-03
4.780485262660e-03
4.648645754832e-03
4.352908180169e-03
4.515438133183e-03
4.218119818909e-03
4.376442562231e-03
4.677698654010e-03
1.280455175298e-03
3.975684030661e-03
4.313430537097e-03
2.531248625096e-03
2.795187276442e-03
2.950421176089e-03
3.091354176801e-03
4.540325048563e-03
4.842133621751e-03
1.627886023255e-03
1.806948227217e-03
4.964897247722e-03
4.505647349825e-03
4.219641279942e-03
2.730984817609e-03
2.680252985846e-03
2.508656173216e-03
2.453261305901e-03
2.619408054872e-03
2.295804407583e-03
3.740263927180e-03
4.943332949813e-03
1.736869985241e-03
1.441819622179e-03
4.792252417499e-03
3.639826983595e-03
3.882064491805e-03
3.960472891563e-03
4.161603615821e-03
4.245857029619e-03
4.449138486875e-03
4.538270851724e-03
4.336412104350e-03
4.467009293726e-03
4.637465802825e-03
4.227760771006e-03
3.603493058884e-03
2.015316274690e-03
1.151528373984e-03
1.494680084950e-03
1.401763515938e-03
1.725734234278e-03
4.692766413527e-03
4.744201478353e-03
4.646812231519e-03
2.391216520205e-03
2.541437442855e-03
4.590954612420e-03
4.090617543142e-03
4.159541705089e-03
4.020881279016e-03
1.028169191453e-03
1.414727337198e-03
5.043491496533e-03
1.828932906125e-03
1.917980713017e-03
4.157180774186e-04
1.730461438410e-04
4.691724722002e-03
4.992960999119e-03
3.232526540781e-03
3.376337074583e-03
4.517813292037e-03
1.573664134280e-03
5.136914764881e-03
3.818178697522e-03
3.485662865048e-03
2.929371560799e-03
1.726704283358e-03
1.445214139705e-03
2.001081890038e-03
1.816948000307e-03
1.537558582793e-03
4.841861112859e-03
5.166500773962e-03
4.432736485775e-03
4.128543821065e-03
4.737743923515e-03
1.242267063270e-03
4.872712079514e-03
4.648563616368e-03
4.934717953700e-03
4.841015803805e-03
1.998284811115e-03
2.023831337705e-03
1.929656289699e-03
2.012827717834e-03
3.685637869250e-03
2.160195855781e-03
3.453630867072e-03
3.353268669804e-03
3.189580292168e-03
2.780580474833e-03
2.697012491619e-03
1.850761695031e-03
3.058179809856e-03
3.092459470665e-03
3.782098167745e-03
3.330348654579e-03
5.071602464651e-03
5.237586080772e-03
4.054791370477e-03
3.911736450825e-03
1.227723328770e-03
1.121568548935e-03
3.305144710569e-03
4.722576138818e-03
5.125546474561e-03
5.249094215458e-03
5.084093944170e-03
4.665047890294e-03
1.576387794071e-03
3.131769936580e-03
4.332121020711e-04
3.548502236301e-03
8.886689387002e-04
4.364114879908e-03
4.929747689709e-03
5.074378233997e-03
4.790835636384e-03
3.303647652991e-03
3.622953727387e-03
3.407028331038e-03
3.087385769992e-03
2.928470296600e-03
3.025957624230e-03
2.770242371404e-03
2.146257545189e-03
2.105072283453e-03
5.074226657025e-03
4.945890381019e-03
5.132442016699e-03
5.036778597884e-03
4.913108523956e-03
4.718978319234e-03
1.854189815065e-03
2.451969709865e-03
5.326205974980e-03
3.245806195750e-03
5.032929921038e-03
4.895632072523e-03
8.703516401928e-05
5.025155932237e-04
5.299729360747e-03
1.862195518962e-03
1.925793576571e-03
1.786850721610e-03
5.508894573325e-03
3.317615670200e-03
5.206554443836e-03
2.947814730022e-03
5.436495255461e-03
3.710224019945e-03
2.542778381884e-03
4.340023150483e-03
5.139724345049e-03
5.473155703650e-03
3.856151046115e-03
3.706636097451e-03
3.986363479487e-03
8.597848081306e-04
4.948557720352e-04
5.105588847389e-03
2.215579397184e-03
2.383580716268e-03
1.610091948116e-03
1.853488942060e-03
3.371371645262e-03
3.226095624709e-03
4.460118615317e-03
4.646317835839e-03
4.077799721507e-03
3.673670130341e-03
3.349970931866e-03
3.156166832522e-03
5.356340387661e-03
5.560199060828e-03
2.148566688317e-03
1.947252295954e-03
2.277219304698e-03
5.452662980312e-03
5.357012637058e-03
5.217066698957e-03
7.819578528788e-04
1.028971749725e-03
1.479365826605e-03
1.088843442230e-03
5.358763484459e-03
5.206986646545e-03
5.554350471510e-03
1.646365469631e-03
4.227084436487e-03
4.981659535795e-03
4.824566320775e-03
5.205837116450e-03
4.665431215243e-03
4.979351549170e-03
5.045785100976e-03
6.553725280376e-06
5.354913579491e-03
3.735880701652e-03
0.0
3.596581939605e-03
3.776236102998e-03
3.431628553560e-03
1.322961065373e-03
3.627378963851e-03
3.821605526455e-03
5.613183195734e-04
5.602994573649e-03
5.605292770001e-04
6.792338181858e-04
5.201033617940e-03
5.054577875215e-03
5.350694268135e-03
5.195925285154e-03
4.911596497334e-03
5.072562886383e-03
3.571136890228e-03
5.391533904623e-03
5.225263310295e-03
5.570873285067e-03
2.672019548462e-03
2.112700823482e-03
2.016942320669e-03
1.807045388934e-03
5.367508392991e-03
5.211741918196e-03
4.791087967570e-03
4.504528282397e-03
3.617380192862e-03
3.592243224651e-03
3.871542763848e-03
3.825760515629e-03
4.113486033420e-03
4.067343757730e-03
4.345783660312e-03
5.267440361509e-03
1.658829135304e-03
2.980180790998e-03
5.045745089381e-03
4.837810433997e-03
2.604840179930e-03
2.359528337880e-03
5.236949940379e-03
2.139698474170e-03
5.776025953178e-03
4.548865527315e-06
9.778909536358e-05
2.339238525722e-03
2.860933532174e-03
2.233233218599e-03
2.157897013088e-03
4.004695448910e-03
9.235095768594e-04
1.682665914814e-03
4.384602592843e-03
1.382892764948e-03
4.658101181556e-03
2.105930324669e-03
3.025966663440e-03
1.860371278765e-03
2.156903041045e-03
3.791766830717e-03
3.575521711054e-03
3.414449332742e-03
2.082739350568e-03
2.302944948856e-03
2.030320299130e-03
3.548903922870e-03
4.919586046203e-03
5.037796762254e-03
5.310613898604e-03
5.154282845662e-03
4.869442501819e-03
4.979196796726e-03
5.263482143390e-03
5.097588445123e-03
5.433286767238e-03
5.203085790594e-03
4.911819673152e-03
5.013424306316e-03
5.289013913456e-03
4.727439554445e-03
5.236156713520e-03
2.555895745055e-03
9.111497954271e-05
4.210174297476e-04
3.201712461661e-03
5.730004135783e-03
5.767445976811e-03
1.691075707631e-03
5.643473628579e-03
3.519780408461e-03
1.047073323882e-03
5.592957634279e-03
4.751520745493e-03
4.579435651060e-03
4.463201836768e-03
5.793236110746e-03
4.123046406902e-03
5.509305537426e-03
3.389446893060e-03
3.279327038173e-03
2.961278145953e-03
4.801619878836e-03
5.436694213567e-03
5.157649565966e-03
5.160321964187e-03
4.861485784401e-03
5.448713258893e-03
5.717599457513e-03
5.706213826985e-03
1.828494135708e-03
1.709398695910e-03
1.898258451700e-03
1.622333472901e-03
1.412743391040e-03
1.316736111381e-03
1.628168335130e-03
1.039665837842e-03
4.929832743955e-03
5.492129088288e-03
3.625564248661e-03
3.432597322909e-03
3.134856267973e-03
2.952066020253e-03
3.078747520708e-03
3.351373813983e-03
2.815770384213e-03
4.041389319165e-03
5.510043080626e-03
3.303884447530e-03
2.928688293770e-03
3.336341398281e-03
3.593836274312e-03
3.598511107039e-03
3.869249033601e-03
3.623805167776e-03
3.516608453604e-03
3.658527646077e-03
3.515347475486e-03
3.794985028764e-03
3.639781273069e-03
3.373627075467e-03
3.921733030934e-03
3.752559113767e-03
3.333440693931e-03
1.541531548535e-04
5.940250931269e-04
7.027142990941e-04
1.021409890230e-03
8.359819815989e-04
1.303920167999e-03
1.039423496534e-03
3.284076278483e-04
3.019271284436e-04
6.566057884129e-04
3.288717913001e-04
5.940028616348e-04
1.062033452019e-03
1.367334253023e-03
5.652286702243e-03
2.938936405259e-03
2.805289880450e-03
2.499233211098e-03
2.662705054473e-03
3.052456379495e-03
2.341669267002e-03
2.236323217213e-03
3.229285700949e-04
4.419598349488e-04
4.410447408450e-04
7.207625795544e-04
7.074768685298e-04
4.420400412776e-04
4.449633113940e-04
3.145644272533e-04
4.504548672274e-04
7.268015370500e-04
3.062409538729e-04
4.745527215494e-03
4.902505264739e-03
5.544916367284e-03
3.368924595429e-03
2.544811655954e-04
5.780998861492e-03
5.813842834379e-03
5.817013326087e-03
5.233971751005e-03
5.365637462079e-03
5.788240472877e-03
2.014050555547e-03
5.434538857935e-03
5.267458791713e-03
1.311421764019e-03
2.008026884127e-03
4.362324178154e-03
3.910057017267e-03
4.933262515921e-03
4.079022426720e-03
4.641099795521e-03
5.158355521769e-03
1.213464950072e-03
4.185417172818e-03
4.076798602367e-03
4.811798339392e-03
2.086149546152e-03
3.238993663622e-03
1.348867022610e-03
5.359250132040e-03
3.285416912686e-03
3.046769336548e-03
2.677719312106e-03
2.168475210699e-03
1.957305737071e-03
2.768223087164e-03
3.036664388310e-03
4.286179880856e-03
4.975421168353e-03
3.166773246265e-04
4.414552831620e-03
3.582806630633e-03
4.292263749295e-03
4.187531334710e-03
1.624964030413e-03
4.913094015127e-03
5.399859365631e-03
3.948537402346e-03
1.019982226970e-03
3.882948642930e-03
5.011342776406e-03
4.799927772923e-03
1.909455734444e-03
2.789026983488e-03
3.096861197051e-03
3.026441214717e-03
5.391810110936e-03
3.115333052867e-03
4.488935570888e-03
3.471918703045e-03
2.042934957486e-03
4.758450757247e-03
2.730164700611e-03
5.205251802628e-03
4.359423513210e-03
1.928746000249e-03
5.001431347950e-03
2.931441338209e-03
4.390043822392e-03
3.117148399214e-03
3.803735016467e-03
4.266483966727e-03
3.482072113493e-03
4.216350577802e-03
4.589726999369e-03
7.822158450211e-04
2.336975079915e-03
4.252864040516e-03
4.830810690924e-03
5.492998307562e-03
2.853919931406e-03
4.620197000946e-03
5.283300374483e-03
3.195345026289e-03
1.407849422888e-03
1.052568637253e-03
1.231938885888e-03
2.888387059379e-03
3.468984859371e-03
5.520066455693e-03
4.776767016044e-03
4.191097730844e-03
7.054263323161e-04
3.137270481220e-03
4.930209733183e-03
2.967745864271e-03
4.518076980286e-03
3.471719766141e-03
5.320909655121e-03
2.513659337608e-03
5.087932046227e-03
4.157539429139e-03
1.929448282595e-03
3.328255837959e-03
5.415880323612e-03
4.493880815661e-03
3.756679585458e-03
2.829619919497e-03
2.715238429679e-03
3.628276273171e-03
3.993174405771e-03
5.804322562982e-03
4.644362204700e-03
4.291233033703e-03
3.502523749532e-03
3.813462889229e-03
7.047390220056e-04
2.825859966298e-03
3.651715310585e-03
1.384942781952e-03
3.032571676708e-03
5.114951343620e-03
3.797843583975e-03
1.739058177563e-03
3.939088055833e-03
2.408697712716e-03
4.407302233334e-03
4.073717321279e-03
4.269608694399e-03
7.894202949830e-04
3.833002126981e-03
5.075427847675e-03
2.404246341971e-03
3.233663163957e-03
4.694223929722e-03
2.107126776239e-03
3.545482769992e-03
4.553232214609e-03
3.920507140127e-03
3.187539066147e-03
3.865534957540e-03
2.217505343363e-03
1.917452006600e-03
1.657786857477e-03
1.956380160446e-03
4.746672213180e-03
1.005389459169e-03
4.623386601130e-03
1.307883538802e-03
1.891532021104e-03
4.345633367675e-03
4.169109331877e-03
2.143128441899e-03
1.729669733719e-03
2.136474112095e-03
3.495395175694e-03
2.347008504077e-03
2.321698774103e-03
5.562109209316e-03
2.479278600157e-03
5.832033053261e-03
5.683459550606e-03
3.569571471478e-03
1.841669118824e-03
0.0
1.939425135395e-03
2.198379986357e-03
4.544915456455e-03
3.572687871249e-03
2.077081277084e-03
5.482725273702e-03
5.548817509372e-03
4.594253848124e-03
4.650854355195e-03
4.026711817750e-03
5.298348689818e-03
3.310673635212e-03
5.319704039765e-04
4.366888493405e-03
1.596020396402e-03
1.727925572495e-03
1.537504339033e-03
2.155926239816e-03
1.066640011348e-03
1.470469770676e-03
5.133441966827e-03
3.576035110635e-03
4.538549050418e-03
1.190734353883e-03
5.563426082931e-03
5.226029974003e-03
5.618784336637e-03
4.858869215134e-03
1.131768423013e-03
3.817527287724e-03
5.388671225133e-03
4.831755994392e-03
5.661150035348e-03
3.527768805689e-03
5.594510040717e-03
8.645247776374e-04
5.592056671628e-03
4.830647828208e-03
3.948871847594e-03
3.795468355754e-03
5.483498521481e-03
5.518494078473e-03
7.078378622743e-04
4.578727725803e-03
2.665021533502e-03
8.704557035287e-05
5.306855478618e-03
5.101857700586e-03
5.457161495010e-03
7.154962728763e-04
4.367291898862e-04
5.308036467256e-03
5.475077044311e-03
1.415797628064e-03
5.866481278788e-03
1.720779943565e-04
3.266292359391e-03
4.330017662913e-04
5.682371966829e-03
5.607182569852e-03
2.919687531898e-03
3.339776257796e-03
1.951427265437e-03
5.094079203513e-03
8.720869757284e-04
5.646101319162e-03
5.274827266557e-03
5.610655463052e-03
5.543108792546e-03
1.443335536964e-05
5.340000167234e-03
4.934198621273e-03
3.315096198721e-03
5.545224744199e-03
2.394333441960e-03
1.003430899199e-03
5.853061777029e-03
3.539454610573e-04
3.294611847679e-03
5.738597030996e-03
9.205396441291e-04
3.785517905279e-03
5.505285211453e-03
3.560630679607e-03
5.121626185149e-03
1.319457347623e-03
0.0
4.321439572445e-03
5.262500811899e-03
5.642111831980e-03
4.116674015646e-03
7.838175614556e-04
5.331973850864e-03
3.136604846599e-03
5.194131730829e-03
4.931303994474e-03
1.162794407339e-04
3.813324024854e-03
4.130724803800e-04
5.442551602023e-03
3.274124271133e-03
9.236830151635e-04
8.036923176890e-04
1.189722026919e-03
1.058092070359e-03
1.410613407395e-03
1.408302020406e-03
1.679286936992e-03
1.670388510905e-03
1.968639986938e-03
2.024811344556e-03
2.272195221506e-03
2.288799502470e-03
2.577527492663e-03
2.642045162662e-03
2.890176481776e-03
2.907269203429e-03

SCALARS node_materi_plasti_phimob float
LOOKUP_TABLE default
1.937690856647e+01
1.537777285122e+01
2.054301012359e+01
2.013120146056e+01
-2.869439532846e+01
-3.834400745222e+00
4.002200781236e+00
8.502204521352e+00
1.127050058522e+01
1.324968839936e+01
1.470858900612e+01
1.583122985052e+01
1.671399717971e+01
1.744430638559e+01
1.806505052635e+01
1.853482001871e+01
1.889458938798e+01
1.925523972512e+01
1.956611069381e+01
1.982595986638e+01
2.005820537654e+01
2.026737956093e+01
2.044155390293e+01
2.014520764468e+01
2.014161653662e+01
2.014499208455e+01
2.014903719732e+01
2.014193992436e+01
2.015015566177e+01
2.014892053990e+01
2.016005758686e+01
2.017087010344e+01
2.018175703197e+01
2.018072146372e+01
2.019999724112e+01
2.021004859738e+01
2.023206535303e+01
2.023974818325e+01
2.026147757672e+01
2.028188446552e+01
2.030730351617e+01
2.034713409348e+01
2.038446450618e+01
2.041716584647e+01
2.044345382721e+01
2.049637294087e+01
2.054070408049e+01
2.058344411391e+01
2.061299325982e+01
2.066575199362e+01
2.067905904261e+01
2.071483172331e+01
2.071598829999e+01
2.074185620472e+01
2.074924945867e+01
2.074282195844e+01
2.073977318965e+01
2.072965300834e+01
2.071983919035e+01
2.070100652070e+01
2.069131946623e+01
2.066800564358e+01
2.066114336224e+01
2.064390546166e+01
2.061306883135e+01
2.058973865944e+01
2.059083088057e+01
2.056539065213e+01
2.056850594291e+01
2.056052244621e+01
2.055930844141e+01
2.055811569620e+01
1.628804000587e+01
1.705423688359e+01
1.766885446406e+01
1.818152498781e+01
1.863616237762e+01
1.902145642298e+01
1.937222396234e+01
1.968249188805e+01
1.996279361421e+01
1.543975394663e+01
1.512352454700e+01
2.416075410846e+01
1.834052611328e+00
-1.594452900325e+01
-5.937687814305e+00
2.082903649960e+00
6.975981514737e+00
1.009583079836e+01
1.225365427719e+01
1.383599320255e+01
-5.921289239981e+01
-3.341552614052e+01
-8.932074386326e+00
1.566929214988e+00
7.057607226612e+00
1.034641501073e+01
1.255861755527e+01
1.411741990936e+01
1.521038512168e+01
1.525737139236e+01
1.525955147980e+01
1.523502338482e+01
1.534628431259e+01
1.521742573107e+01
1.517758861980e+01
1.517223753269e+01
1.517920332078e+01
1.515432226853e+01
1.511851656486e+01
1.509551966899e+01
1.507307711617e+01
1.507677520072e+01
8.847120143836e+00
6.633696285186e+00
6.974254466915e+00
8.601224555290e+00
8.627903991614e+00
-1.115209295136e+01
-4.369197973210e+01
-6.989576047335e+00
4.126865925570e+01
4.133463759438e+01
4.136368451283e+01
-7.711059433047e+00
-7.730159379338e+00
4.118318266508e+01
4.139554083975e+01
4.143066270747e+01
8.999999999681e+01
8.999999999681e+01
8.999999999681e+01
1.515436656492e+01
-7.221930352673e+00
-4.105192717991e+00
4.036626989918e+01
3.990259611699e+01
3.974423402047e+01
4.002660645920e+01
4.102621825520e+01
-6.606642533363e+00
-5.491745593870e+01
-5.505228136698e+01
-5.518838635952e+01
-5.531742724105e+01
-5.541026404885e+01
-5.545261490872e+01
-5.547879448462e+01
-5.550378977692e+01
-5.552806544359e+01
-5.555162956108e+01
-5.557470970153e+01
-5.559796099123e+01
-5.562252848022e+01
-5.564977343279e+01
-5.567648769974e+01
-5.551239853493e+01
-5.509950134496e+01
-3.048547213673e+01
-1.004917300675e+01
-1.069041672424e+01
-1.122730255192e+01
-1.140842142472e+01
-1.132756287420e+01
-1.110266861767e+01
-3.532824720028e+01
-3.544964829717e+01
-3.557346124088e+01
-3.569008765649e+01
-3.580257989866e+01
-3.589146714300e+01
-3.596634977350e+01
-3.603448080350e+01
-3.609643897757e+01
-3.615228104561e+01
-3.620214948083e+01
-3.624629598203e+01
-3.628487468681e+01
-3.631720250589e+01
-3.634028618033e+01
-3.633198221608e+01
-3.579103313133e+01
-3.365316010138e+01
-9.650595371299e+00
-9.724480499207e+00
-9.682326187953e+00
-9.647151153663e+00
-9.610331582761e+00
-9.571751075757e+00
-9.531140563116e+00
-9.487892893156e+00
-9.441443256368e+00
-9.391902708380e+00
-9.339878264574e+00
-9.286460862413e+00
-9.231725783846e+00
-9.177044525264e+00
-9.124300502096e+00
-9.080035941543e+00
-9.041047080894e+00
-9.015731230505e+00
-8.978758477194e+00
-9.010616400583e+00
-8.952339673132e+00
-7.856744037700e+00
-9.255305896579e+00
8.612095461993e-01
1.900278757655e+00
1.493126548293e+00
1.458286344238e+00
1.474111500514e+00
1.470865558152e+00
1.473559210765e+00
1.465072421832e+00
1.456022724738e+00
1.445374607014e+00
1.433703114931e+00
1.419001142659e+00
1.402983492900e+00
1.386873808376e+00
1.370837479265e+00
1.354481629160e+00
1.337524379595e+00
1.320914064391e+00
1.306388036406e+00
1.302216945357e+00
1.380601411666e+00
1.623266789303e+00
6.939150789614e+00
6.924327582963e+00
6.923413422262e+00
6.924833541740e+00
6.927619801117e+00
6.930380690769e+00
6.931690060198e+00
6.929930022314e+00
6.926384076798e+00
6.922432857777e+00
6.916707175560e+00
6.906990096934e+00
6.892121767916e+00
6.879263063140e+00
6.867591602949e+00
6.861017322520e+00
6.842092582167e+00
6.840082428793e+00
7.059367386868e+00
6.361751525550e+00
9.718082296399e+00
1.021629074671e+01
1.010237427528e+01
1.010171459726e+01
1.011370239221e+01
1.013026571024e+01
1.015776344666e+01
1.018016407181e+01
1.019844196635e+01
1.021254671678e+01
1.022761877950e+01
1.024313268620e+01
1.025246318247e+01
1.025908203942e+01
1.026510639717e+01
1.027047159849e+01
1.027744518530e+01
1.030384122422e+01
1.036332438145e+01
1.252932011910e+01
1.251246588978e+01
1.250352417955e+01
1.249743940270e+01
1.248498392239e+01
1.247467536809e+01
1.246256649262e+01
1.244523722366e+01
1.242081979141e+01
1.240546604097e+01
1.238620045497e+01
1.236036342976e+01
1.233715911893e+01
1.230607430132e+01
1.229957414765e+01
1.238478154879e+01
1.201160811556e+01
1.366132736795e+01
1.395247685155e+01
1.390514808931e+01
1.391723336656e+01
1.394387226346e+01
1.397029746849e+01
1.398657325935e+01
1.400787396287e+01
1.402779041094e+01
1.404675398122e+01
1.406091494840e+01
1.407380592526e+01
1.409055593703e+01
1.409407239138e+01
1.412000416601e+01
1.416019583707e+01
3.019473170837e+01
1.789603693666e+01
-1.209569087979e+01
-9.136415812846e+00
-3.337711798057e-01
5.321188241404e+00
8.979714759329e+00
1.144989474016e+01
1.322654435210e+01
1.458233154510e+01
1.626488616658e+01
2.092889441856e+01
-1.385174608274e+01
1.282692598205e+01
2.079937575924e+01
1.887139621643e+00
1.779336863112e+01
2.083926068580e+01
8.807692228218e+00
2.055403332257e+01
1.308735784216e+01
2.059862912141e+01
-1.421997388569e+01
2.026835383215e+01
1.554449479763e+01
1.409903205331e+01
1.903888048698e+01
2.014717936425e+01
2.007905801769e+01
2.002836761047e+01
2.000398505344e+01
2.005560827804e+01
1.595766350677e+01
1.603514282806e+01
1.614471168245e+01
1.841588599990e+01
2.051441119512e+01
1.172067256518e+01
1.188646848241e+01
1.994109293690e+01
1.610875707613e+01
6.536508462411e+00
2.006331928815e+01
2.070936405124e+01
2.039457526413e+01
2.093509051409e+01
2.089637147057e+01
-1.223231554652e+01
1.596222419339e+01
2.071779150975e+01
1.920187360514e+01
-1.336027967818e+01
1.630981293291e+01
2.006631787596e+01
6.147229854502e+00
2.154140163285e+00
1.127065306321e+01
1.444438782289e+01
2.781015014467e+01
1.741370903890e+01
2.051471014208e+01
3.546084837877e+01
1.981046553250e+01
1.596069510337e+01
1.632423052707e+01
1.667251687850e+01
1.704325274504e+01
1.736205480080e+01
1.764461231449e+01
1.735172042440e+01
1.791467208154e+01
1.765425704467e+01
1.791711155260e+01
1.818191203372e+01
1.795179301338e+01
1.844395725410e+01
1.824552095084e+01
1.771916499706e+01
1.804960752878e+01
1.748172961556e+01
1.785663656975e+01
1.837144039349e+01
1.821929675262e+01
1.767105170672e+01
1.808017126622e+01
1.749776840320e+01
1.795984372449e+01
1.734312162834e+01
1.786505276989e+01
1.839069227682e+01
1.847503903946e+01
1.791027532641e+01
1.879878564853e+01
1.823158323810e+01
1.930188644942e+01
1.966319324358e+01
2.020528582135e+01
1.996341115850e+01
2.087259134117e+01
2.078929283631e+01
2.165490073290e+01
2.177496484986e+01
2.252850093741e+01
2.225381312673e+01
2.298105477781e+01
2.344585874465e+01
2.368332069714e+01
2.318276909187e+01
2.367099198992e+01
2.318638517834e+01
2.347737622343e+01
2.401208928440e+01
2.359859686117e+01
2.316411339477e+01
2.310781340518e+01
2.348741730291e+01
2.283002591433e+01
2.259574004577e+01
2.220658282670e+01
2.229814006642e+01
2.160426825702e+01
2.164900071828e+01
2.102149793462e+01
2.077831569582e+01
2.022113503598e+01
2.055137838108e+01
1.979906463809e+01
2.017972079059e+01
1.925841066131e+01
1.893481192400e+01
1.816196602948e+01
1.798188939543e+01
2.039150403010e+01
1.697663317330e+01
1.709976673106e+01
1.697824260604e+01
1.790370830849e+01
1.578482568201e+01
1.603575947902e+01
1.477581014883e+01
2.068110547385e+01
1.868173306041e+01
1.523142713502e+01
1.378694183110e+01
1.311016816988e+01
1.179469711762e+01
1.766199663205e+01
1.818828543986e+01
1.794269075045e+01
1.844258275696e+01
1.822766977507e+01
1.268056183554e+01
1.864516189638e+01
1.864830241611e+01
1.701157763297e+01
1.719592168394e+01
2.278493029886e+01
1.632297277572e+01
1.565343272585e+01
1.662924626431e+01
2.077075633548e+01
2.044389576222e+01
2.090692836835e+01
2.062042165985e+01
2.098110789022e+01
2.073166241998e+01
2.038741719598e+01
2.052642158866e+01
2.020385118059e+01
2.100863595094e+01
2.126186750126e+01
2.036269270217e+01
2.006484052712e+01
2.023747956802e+01
1.996588564301e+01
1.972949615335e+01
1.966529377654e+01
1.936765235845e+01
2.279596637439e+01
2.246351255985e+01
2.247500118095e+01
2.219670247461e+01
2.220158262949e+01
2.196597868337e+01
2.195888451185e+01
2.212464717098e+01
1.870142469812e+01
2.432634080530e+01
2.404659830762e+01
2.516012058575e+01
2.482657038643e+01
2.623494702633e+01
2.581423203899e+01
2.748220580394e+01
2.738340537764e+01
2.852354002936e+01
2.785100559505e+01
2.883639794659e+01
2.753434242171e+01
1.893981122246e+01
2.188473795054e+01
2.170267474529e+01
2.156404704812e+01
1.076004009611e+01
1.990288948255e+01
2.121591065659e+01
2.145978246332e+01
2.188369790639e+01
1.030657379745e+01
2.679715158920e+01
2.469596603121e+01
1.868193637142e+01
1.848450451226e+01
2.135166674127e+01
1.143353416734e+01
2.061614989958e+01
2.947435074546e+01
1.963412246878e+01
1.987549527998e+01
1.998369812996e+01
2.143187381277e+01
2.125357492117e+01
2.665347719179e+01
2.581007133081e+01
2.605020746166e+01
2.372360294583e+01
2.389676995153e+01
2.171800686065e+01
2.032278546080e+01
1.848253877581e+01
2.002590178471e+01
1.712328880442e+01
1.396421143552e+01
1.347699920512e+01
2.009737606870e+01
2.967558605100e+01
1.710032702253e+01
2.114439175939e+01
2.173192674069e+01
1.890783360916e+01
1.872743234191e+01
1.828057895699e+01
1.854329380082e+01
1.895850768586e+01
1.878682145098e+01
1.835104189211e+01
1.860575661390e+01
1.814443934393e+01
1.841549417383e+01
1.884200873269e+01
1.866679578444e+01
1.821797422014e+01
1.848200625688e+01
1.800617330801e+01
1.828037153968e+01
1.872488411491e+01
8.626274467832e+00
2.198983988558e+01
2.175950919630e+01
1.608187177211e+01
1.691270407220e+01
1.740033729682e+01
1.761777105280e+01
1.853477437643e+01
1.895413178730e+01
2.521003269200e+01
2.270377240961e+01
1.908422090269e+01
1.965655935593e+01
1.937642544327e+01
1.749159239637e+01
1.629957125420e+01
1.655976184032e+01
1.515671193092e+01
1.536619498962e+01
1.532384352630e+01
2.154793462048e+01
1.906358323687e+01
1.236482065271e+01
9.558313517363e+00
1.990179358088e+01
2.223303644705e+01
1.883835356079e+01
1.933199310978e+01
1.922123115774e+01
1.965916628828e+01
1.955021511102e+01
1.993177978707e+01
2.010362774609e+01
2.117158004267e+01
2.029140156769e+01
1.805037332344e+01
2.170304190314e+01
1.875143064634e+01
6.767916838118e+00
9.729300264800e+00
9.921217055664e+00
1.237641135321e+01
2.122616371231e+01
1.983800649733e+01
1.956327859217e+01
1.396467792466e+01
1.436211623969e+01
2.129054108979e+01
1.770138375353e+01
1.785218793948e+01
1.761301550359e+01
5.860703621312e+00
1.006326849585e+01
1.917361265340e+01
2.242316646151e+01
2.008793476674e+01
2.999794707219e+01
2.921942441325e+01
1.876202193232e+01
1.914814614848e+01
1.802562364583e+01
1.818459563844e+01
2.141753994115e+01
1.019596293822e+01
1.931384762904e+01
2.203366507817e+01
2.225942675717e+01
1.716718067610e+01
2.233917576419e+01
2.483082874437e+01
2.078860352340e+01
1.341335526071e+01
1.110146530757e+01
2.125220512057e+01
1.932573456125e+01
2.047281636959e+01
2.034267389627e+01
2.055802832843e+01
5.668010738383e+00
2.105446319087e+01
1.973156024335e+01
1.983572003277e+01
1.963386381670e+01
2.035054611455e+01
1.784028510691e+01
1.674570266838e+01
1.462037165534e+01
1.704392705666e+01
1.863822574488e+01
1.680681273854e+01
1.636293108756e+01
1.599701309799e+01
1.561347525747e+01
1.477548075449e+01
2.335023606617e+01
2.232685443757e+01
1.792998872425e+01
1.942651446210e+01
2.124919512871e+01
1.921924172533e+01
1.941898501124e+01
1.769999428266e+01
1.743945633660e+01
7.210929131622e+00
5.171865123225e+00
1.989557729943e+01
2.096439032632e+01
1.928381389990e+01
1.944471225883e+01
1.925385751862e+01
2.142125935344e+01
2.506892778609e+01
2.268916926926e+01
2.879801476726e+01
1.994524223892e+01
1.454906776594e+00
1.881052680202e+01
1.996506832750e+01
2.010759866462e+01
2.108387812121e+01
1.593005179511e+01
2.053299624900e+01
2.097211568166e+01
1.547853057712e+01
1.501105231331e+01
1.561021384287e+01
1.450269095473e+01
1.975316618315e+01
1.791975319309e+01
2.010773181761e+01
2.043111835475e+01
1.990204291933e+01
1.971730750978e+01
2.113288545985e+01
2.133839372342e+01
1.314565802492e+01
1.331928955715e+01
1.951203694092e+01
1.590867820710e+01
2.089638861842e+01
2.080811614053e+01
2.589799097919e+01
2.581155973238e+01
1.949534186667e+01
1.232237759053e+01
1.119963924209e+01
1.490100165273e+01
2.035517040017e+01
1.609522830059e+01
2.016845346838e+01
1.590098255610e+01
1.963905457320e+01
2.099303260772e+01
1.820679430878e+01
2.161948670247e+01
1.931854408218e+01
1.967879107425e+01
1.726668134225e+01
1.697086080693e+01
1.751725394279e+01
2.920514845453e+01
2.919305489560e+01
1.927001211307e+01
1.493501199039e+01
1.553417318784e+01
1.083650590273e+01
1.355168242631e+01
1.851632100056e+01
1.854086213424e+01
1.907752225227e+01
1.919125527818e+01
1.889080405305e+01
2.199257546323e+01
2.218179746330e+01
2.250598361939e+01
1.955693078187e+01
1.976446351807e+01
2.124356184037e+01
2.232453178007e+01
1.900577589022e+01
1.965410932398e+01
2.029029718307e+01
2.026699176901e+01
-2.258748512167e+00
2.576152488180e+00
2.135228313525e+01
2.471139169422e+01
1.959691245703e+01
1.942442174978e+01
1.978938466721e+01
1.190809123862e+01
2.070790076347e+01
2.122169540106e+01
2.139949399066e+01
2.105127664800e+01
2.094957751217e+01
2.091706438708e+01
2.061720743377e+01
2.231357485549e+01
1.957117683841e+01
1.705343374668e+01
1.747377996375e+01
1.674972722306e+01
1.716386105021e+01
1.637163435004e+01
9.411204606780e+00
1.676406571468e+01
1.716387710001e+01
-1.083083184830e+01
1.982409219191e+01
-8.581276507967e+00
-3.058040894116e+00
2.076212454422e+01
2.068150034559e+01
2.068288065338e+01
2.059899538316e+01
2.054295257643e+01
2.046192025995e+01
1.664197187470e+01
2.054102470137e+01
2.040995489227e+01
2.053863108532e+01
1.379821212373e+01
1.364374759781e+01
1.135031107537e+01
7.708432754239e+00
2.002368314867e+01
1.980781066674e+01
1.982832370922e+01
1.956947347793e+01
1.682357595207e+01
1.679779442177e+01
1.739991167001e+01
1.733198653441e+01
1.785988132031e+01
1.778235553618e+01
1.825531889727e+01
2.052732370036e+01
8.665190874015e+00
1.495645217939e+01
2.115264609808e+01
2.135256578585e+01
1.391781392585e+01
1.228675780226e+01
2.092707457192e+01
2.054383836439e+01
2.000131017741e+01
1.553030172426e+01
2.370477378853e+01
1.921171200341e+01
1.520093512511e+01
1.357637383421e+01
1.208033068869e+01
2.181043067540e+01
-9.423550631047e-02
1.809807969589e+01
1.829692127709e+01
1.644128709846e+01
1.969536944419e+01
2.193762086759e+01
1.657856500890e+01
1.954075001349e+01
1.622348560551e+01
1.738344597329e+01
1.670159275711e+01
1.632492424776e+01
2.288403333229e+01
1.267321686247e+01
1.002354432413e+01
1.724420803167e+01
1.905709310389e+01
1.924055021401e+01
1.958023126131e+01
1.941786787232e+01
1.905076749065e+01
1.924175588173e+01
1.959293724154e+01
1.943632429075e+01
1.981968353381e+01
1.962444388029e+01
1.927224305429e+01
1.946922844540e+01
1.977274892702e+01
1.910633091151e+01
2.096763454754e+01
1.964121013168e+01
2.733165694711e+01
2.795508124985e+01
1.678707338868e+01
2.012325891241e+01
2.008269279739e+01
2.395933404615e+01
2.031634878001e+01
1.671283727781e+01
2.843000938756e+01
2.046721946667e+01
1.884987951506e+01
1.863239950824e+01
1.841104323759e+01
2.006766402638e+01
1.777191098381e+01
2.076564722527e+01
2.208813999450e+01
2.185602315457e+01
2.203586718909e+01
1.906141338816e+01
2.093661288471e+01
2.117253393360e+01
2.116120786200e+01
2.141326921942e+01
2.092249125965e+01
2.020288986435e+01
2.024577897603e+01
2.217111206201e+01
2.363601406724e+01
2.335820015430e+01
2.447359056361e+01
2.512893115318e+01
2.562053585353e+01
2.478755087122e+01
2.667984057221e+01
1.952132802027e+01
2.086830925345e+01
2.127557823079e+01
2.161176511893e+01
2.164808604261e+01
1.789382960975e+01
1.860458587342e+01
1.913262946862e+01
1.720983988804e+01
1.987650126807e+01
2.083209252832e+01
2.249978394428e+01
1.872683230323e+01
1.596236098833e+01
1.665143245966e+01
1.665281509236e+01
1.728296468470e+01
1.672291751531e+01
1.855806457763e+01
1.865255649915e+01
1.835599769234e+01
1.878462263316e+01
1.850919827480e+01
1.806580742957e+01
1.891013415802e+01
1.863957745532e+01
1.598436404617e+01
9.569417007270e+00
1.213430428751e+01
4.125511897876e-01
1.189601957217e+01
1.980784797343e+01
1.802574950563e+01
2.318513720727e+01
2.067835719473e+01
-2.934920660056e+01
-7.095975037907e+00
-1.203505035937e+01
-1.159935391987e+01
3.156966322344e+00
8.237449798733e+00
2.048016558615e+01
1.710017538359e+01
1.676161276419e+01
1.590112584046e+01
1.641091084617e+01
1.739589688004e+01
1.533622725117e+01
1.493422604546e+01
3.624011711402e+01
-9.802795351241e+00
-1.158212946579e+01
1.054134826719e+00
7.717188667377e-01
-9.765726443637e+00
-1.005704932526e+01
-1.268542389887e+01
-1.072289286779e+01
3.978611473254e-01
-1.362422074144e+01
1.883825686572e+01
1.905081638830e+01
2.076671291932e+01
1.611989636167e+01
-1.341578497990e+01
1.998148587413e+01
2.002395383301e+01
2.002634036829e+01
2.016129646103e+01
2.026119239070e+01
1.999298850854e+01
1.429866979289e+01
1.973050922230e+01
1.946229179893e+01
2.740998026023e+01
1.579543693213e+01
1.945859283031e+01
1.983388213310e+01
2.008643071324e+01
1.934649727647e+01
2.014933391776e+01
2.115933189315e+01
8.257898405624e+00
1.792583646472e+01
1.776917180018e+01
1.889925292624e+01
1.439164582442e+01
1.785350517303e+01
8.928994269766e+00
2.022720135607e+01
1.650787536665e+01
2.117062174596e+01
1.706040491890e+01
1.561552324106e+01
1.625799886853e+01
1.883287907872e+01
1.949256759739e+01
2.079392637423e+01
1.911659235560e+01
-3.426477543571e+01
2.100000506509e+01
2.018428054293e+01
1.807463877246e+01
2.175572755198e+01
1.527926294824e+01
1.901129770539e+01
1.961525693943e+01
1.744120915509e+01
4.440556024338e+00
1.735555850848e+01
2.107592507536e+01
1.887192516949e+01
1.344633835587e+01
2.304442822664e+01
1.721832371193e+01
1.500357204290e+01
1.959884368418e+01
2.093152753785e+01
2.165662451509e+01
2.238853802756e+01
1.412332255874e+01
2.066658154772e+01
2.261859608681e+01
1.937184163064e+01
1.925244009191e+01
2.428218849931e+01
1.912210567232e+01
2.210048912530e+01
2.152755288367e+01
1.620531145798e+01
1.846649661556e+01
1.853225143983e+01
1.924166179439e+01
1.926510933845e+01
2.081868368274e+01
2.818266176482e+01
1.736290942752e+01
1.800172972099e+01
2.016731761387e+01
1.969011081466e+01
1.640934234572e+01
2.047186174601e+01
1.947269976001e+01
1.927723169620e+01
1.015042163473e+01
2.733496134156e+01
2.609159264584e+01
2.155922247681e+01
1.968401100379e+01
1.978819501230e+01
2.036259129120e+01
2.157631043566e+01
2.187373291806e+01
1.545842601635e+01
2.029167372795e+01
2.280470795002e+01
2.155187750563e+01
1.820276169107e+01
2.035843992914e+01
1.308370353036e+01
2.026877126518e+01
2.181953843168e+01
2.215506521519e+01
1.611481565501e+01
2.042293504851e+01
2.160181054854e+01
1.959328661850e+01
2.278462353617e+01
1.379202926997e+01
1.953051519591e+01
1.856508812826e+01
2.006346154381e+01
2.153250371981e+01
1.816230847866e+01
1.903869200188e+01
2.133184620848e+01
5.107896624232e-01
1.440674687631e+01
1.899321402834e+01
2.554818091886e+01
2.238102153005e+01
2.098346748663e+01
1.899147243879e+01
2.468511630651e+01
1.904726353210e+01
1.222753767214e+01
1.840832935395e+01
1.914407620957e+01
1.897587745084e+01
4.853437403190e-01
2.016737306738e+01
2.005519146490e+01
1.849091088866e+01
2.198396173557e+01
1.885124502550e+01
1.011429173595e+01
2.185728971043e+01
1.932900481459e+01
2.063708412374e+01
2.147887494692e+01
2.172286345117e+01
1.142394734740e+01
1.385907076397e+01
1.159931510577e+01
2.412921461714e+01
1.941982581246e+01
5.984808823587e+00
1.887945359783e+01
6.812317198384e+00
2.393670135925e+01
2.097646380235e+01
1.795861929558e+01
2.308733857543e+01
1.245752087915e+01
2.235241602387e+01
2.140431101995e+01
2.149037580386e+01
2.038549259829e+01
1.977066412958e+01
1.973118857151e+01
2.002644223429e+01
2.046742132124e+01
1.673304985958e+01
6.959450888054e+00
1.119635521503e+01
9.713256572572e+00
1.739637266575e+01
1.895082870010e+01
1.675510752040e+01
1.560015801115e+01
1.993126654776e+01
2.063661449416e+01
1.863549460054e+01
2.151180022384e+01
2.099686091275e+01
1.951100641151e+01
1.601340481620e+01
-1.284765169254e+01
1.940958921449e+01
2.698510410192e+00
7.436373021062e+00
1.195910010531e+01
1.461400307651e+01
5.687002125370e+00
6.364973779057e-01
2.115858324004e+01
1.665691904281e+01
2.074415617528e+01
7.035391489936e+00
1.978532424784e+01
2.077648427557e+01
2.066426209890e+01
2.076820941208e+01
2.072957683376e+01
1.717160704985e+01
2.014324351611e+01
1.894297169700e+01
2.057155648835e+01
1.652460440042e+01
1.981117715777e+01
2.653935808044e+01
1.981653219323e+01
1.932225716575e+01
1.753013330748e+01
1.713622587991e+01
2.035748372603e+01
1.987390373546e+01
2.586529705919e+01
1.860007142468e+01
1.646993219886e+01
2.076391521541e+01
2.082283389546e+01
1.963995094173e+01
2.039925987492e+01
1.056431707863e+00
-1.438617696212e+01
2.095778902951e+01
2.004086138460e+01
2.303418026200e+01
2.008337932619e+01
2.632953643208e+01
1.587794254382e+01
-1.278454061301e+01
2.053896415902e+01
1.982037944262e+01
1.710155660964e+01
1.597140295303e+01
1.366037404354e+01
2.033940263909e+01
-1.419056759717e+00
1.985169208461e+01
2.106649173193e+01
1.986840559864e+01
2.084812923621e+01
1.898111139613e+01
2.067456837162e+01
2.134810903535e+01
1.603138327817e+01
1.984927538016e+01
1.555210323404e+01
5.086104883940e+00
2.005402627803e+01
1.667424882040e+01
1.601682259986e+01
2.050206490748e+01
4.796442742792e+00
1.723049611775e+01
2.001063353881e+01
1.832694367882e+01
1.932206089325e+01
1.174100729049e+01
1.126140925937e+01
1.821846718324e+01
2.088128610998e+01
1.987187461746e+01
1.784877290635e+01
2.730953731868e+01
1.986892686053e+01
1.759303673163e+01
2.003713973678e+01
2.134525468171e+01
2.465084298860e+01
1.871604252467e+01
-1.449465969967e+01
2.063608615568e+01
1.784365262326e+01
2.048694886107e+00
-5.191758438268e+01
-1.443093958165e+01
-1.793703947929e+01
-2.240978836606e+00
-2.034759393045e+00
4.449281861312e+00
4.722108215156e+00
8.473015511835e+00
9.055428653581e+00
1.112755541369e+01
1.154258691482e+01
1.299527946521e+01
1.347827686400e+01
1.440891513647e+01
1.476542709062e+01

SCALARS node_materi_stress_average_a_sig float
LOOKUP_TABLE default
-3.861249856966e+00
-9.906240336091e+01
-2.415369912603e+02
-2.138689332782e+02
-1.080485226590e+01
-2.292412932826e+01
-3.498159689854e+01
-4.838322567833e+01
-6.129666254792e+01
-7.405997736487e+01
-8.669411066777e+01
-9.923687281986e+01
-1.117298115445e+02
-1.242513088908e+02
-1.370169111818e+02
-1.495027827767e+02
-1.608206725549e+02
-1.731631946750e+02
-1.858195832964e+02
-1.980719324919e+02
-2.103771109600e+02
-2.227440049232e+02
-2.346142173597e+02
-2.145493944786e+02
-2.138737810640e+02
-2.140790718102e+02
-2.141060178076e+02
-2.138246612591e+02
-2.143363358191e+02
-2.147136858712e+02
-2.146235993535e+02
-2.153500669665e+02
-2.155635388672e+02
-2.155484295646e+02
-2.162876727169e+02
-2.171459610889e+02
-2.173785771745e+02
-2.179418817767e+02
-2.181759766495e+02
-2.189696919216e+02
-2.205314072402e+02
-2.218356552318e+02
-2.232507671139e+02
-2.244985980911e+02
-2.258991704951e+02
-2.273644002616e+02
-2.289236225477e+02
-2.306976260359e+02
-2.325443707168e+02
-2.342123836032e+02
-2.359183813508e+02
-2.372663648523e+02
-2.391228796794e+02
-2.402352881141e+02
-2.407505884396e+02
-2.417498412848e+02
-2.426427896614e+02
-2.433041193719e+02
-2.437139043782e+02
-2.440003843431e+02
-2.438871456081e+02
-2.436925464299e+02
-2.432538822675e+02
-2.432481867090e+02
-2.436076197626e+02
-2.435837204356e+02
-2.416014856813e+02
-2.427322168898e+02
-2.418999375764e+02
-2.420270585977e+02
-2.423360887324e+02
-2.421764366885e+02
-1.114385227176e+02
-1.235313384412e+02
-1.355722826676e+02
-1.473216094985e+02
-1.592960974240e+02
-1.713847260379e+02
-1.831918114264e+02
-1.948854012494e+02
-2.069535942618e+02
-5.424101739178e+01
-1.021378777182e+02
-2.735410798880e+01
-2.036738143437e+01
-1.928385016544e+01
-2.991838319060e+01
-4.184677689752e+01
-5.407982572873e+01
-6.598194525727e+01
-7.788078438349e+01
-8.973954484645e+01
-6.386425585323e+00
-1.371011886059e+01
-2.580454519909e+01
-3.796547280657e+01
-5.014152570975e+01
-6.232572403671e+01
-7.449546199458e+01
-8.660299686098e+01
-9.754951577804e+01
-9.835716962534e+01
-9.839565271073e+01
-9.832874897795e+01
-1.000883132419e+02
-9.870866349639e+01
-9.877395927768e+01
-9.900703637119e+01
-9.940861752973e+01
-9.955746770357e+01
-9.981224209571e+01
-1.000395504091e+02
-1.004661148581e+02
-1.010497422305e+02
-7.551307016123e+01
-8.507702150042e+01
-8.649260005811e+01
-7.816623236051e+01
-4.803945246534e+01
-1.900810563071e+01
-8.905198957688e+00
-5.932652235597e+00
-4.634738925618e+00
-4.307428919985e+00
-4.225221095915e+00
-4.316457071139e+00
-4.160029851216e+00
-3.732349451324e+00
-3.710194905364e+00
-3.722980103652e+00
-3.657111295185e+00
-3.432997678883e+00
-3.183176991986e+00
-7.498484124316e+00
-7.298991884690e+00
-5.952469689159e+00
-4.889195397031e+00
-4.420143970192e+00
-4.266198395877e+00
-4.339852650629e+00
-4.480244617962e+00
-4.648501131407e+00
-4.864803537466e+00
-5.109943736995e+00
-5.364418473212e+00
-5.618108670633e+00
-5.862810937054e+00
-6.093843284522e+00
-6.308184847362e+00
-6.504242172144e+00
-6.681075398750e+00
-6.838154966390e+00
-6.974985028303e+00
-7.090791036228e+00
-7.184074249438e+00
-7.252081852966e+00
-7.291402469220e+00
-7.348404436117e+00
-7.344223267492e+00
-1.431849584919e+01
-1.521724495773e+01
-1.308785872402e+01
-1.231922464604e+01
-1.200342963822e+01
-1.184817102750e+01
-1.179930097676e+01
-1.181635725541e+01
-1.189764350396e+01
-1.201333754446e+01
-1.215353189609e+01
-1.230441392127e+01
-1.245890499621e+01
-1.261081404698e+01
-1.275639913187e+01
-1.289271262170e+01
-1.301779234667e+01
-1.313027719767e+01
-1.322913956093e+01
-1.331357707045e+01
-1.338299406742e+01
-1.343740947800e+01
-1.347813521906e+01
-1.352119760232e+01
-1.366431033519e+01
-2.578117211395e+01
-2.572272979442e+01
-2.569075638004e+01
-2.566017650369e+01
-2.562340998141e+01
-2.557882954633e+01
-2.552653191849e+01
-2.546768182553e+01
-2.540374773889e+01
-2.533673467540e+01
-2.526947143223e+01
-2.520592436033e+01
-2.515191434091e+01
-2.511314126074e+01
-2.509951822824e+01
-2.511970075438e+01
-2.519726604028e+01
-2.533692283230e+01
-2.559521290539e+01
-2.592611456505e+01
-2.652238323828e+01
-2.818232932239e+01
-2.689246747024e+01
-3.949862087645e+01
-4.101900683868e+01
-3.956164744713e+01
-3.896695969434e+01
-3.862190889205e+01
-3.832192172027e+01
-3.813487544818e+01
-3.799378284007e+01
-3.790630745210e+01
-3.785025683291e+01
-3.782195894685e+01
-3.781153189078e+01
-3.781364407305e+01
-3.782351043795e+01
-3.783753480514e+01
-3.785355482015e+01
-3.786965767078e+01
-3.788488480774e+01
-3.790015478683e+01
-3.791826183101e+01
-3.794376174711e+01
-3.796058701363e+01
-5.013673914076e+01
-5.012839556229e+01
-5.012748116405e+01
-5.013182690315e+01
-5.014137365220e+01
-5.015508300687e+01
-5.017311234705e+01
-5.019747400171e+01
-5.023308804065e+01
-5.028111873041e+01
-5.034773830637e+01
-5.043848505802e+01
-5.055835191119e+01
-5.072792621830e+01
-5.093989448409e+01
-5.123855802019e+01
-5.157172827845e+01
-5.211108975241e+01
-5.345098449523e+01
-5.189067246454e+01
-6.403713483624e+01
-6.567097692688e+01
-6.445638741754e+01
-6.393947348285e+01
-6.362778789345e+01
-6.332640441943e+01
-6.311912767256e+01
-6.294526788583e+01
-6.280217477117e+01
-6.268988806014e+01
-6.260301916499e+01
-6.253108207744e+01
-6.247497419047e+01
-6.242609171475e+01
-6.238906483668e+01
-6.235889063061e+01
-6.234189789865e+01
-6.233109274682e+01
-6.232937169481e+01
-7.450433195978e+01
-7.451487915613e+01
-7.454010898787e+01
-7.458430847927e+01
-7.464277403503e+01
-7.470894928234e+01
-7.479946072614e+01
-7.488995201550e+01
-7.500029067023e+01
-7.515012840641e+01
-7.533190228403e+01
-7.554677185232e+01
-7.580029897910e+01
-7.607273820546e+01
-7.654763137242e+01
-7.775336947763e+01
-7.610801285352e+01
-8.800902614044e+01
-8.958855436312e+01
-8.852789715006e+01
-8.819313667207e+01
-8.791788437687e+01
-8.768430468811e+01
-8.744363844800e+01
-8.726804351952e+01
-8.720100808039e+01
-8.704061668910e+01
-8.693484655325e+01
-8.685458574939e+01
-8.678621516921e+01
-8.670301509723e+01
-8.672978587857e+01
-8.671391955797e+01
-3.431410349557e+01
-2.554131621883e+01
-1.674433692542e+01
-2.633844572907e+01
-3.759486762414e+01
-4.951302800185e+01
-6.137603213885e+01
-7.328202674590e+01
-8.513616893800e+01
-9.703014600529e+01
-3.085541928113e+01
-2.365875182470e+02
-1.086097848923e+01
-6.123395585974e+01
-2.383198070501e+02
-3.950766929407e+01
-1.311375105927e+02
-2.318923018048e+02
-6.023779544849e+01
-2.264586272593e+02
-8.393075395990e+01
-2.386611493523e+02
-8.575736737185e+00
-2.203871433393e+02
-1.075951949677e+02
-8.101554599282e+01
-1.650614876945e+02
-2.162542310933e+02
-2.130577973099e+02
-2.095127095936e+02
-2.092083977152e+02
-2.115853511329e+02
-1.120522416088e+02
-1.106826318087e+02
-1.109429306312e+02
-1.534178391192e+02
-2.372542745973e+02
-7.385313463440e+01
-8.805674895771e+00
-2.038006139948e+02
-1.091060092222e+02
-4.161937050861e+01
-2.124861379545e+02
-2.301299376862e+02
-2.232806637281e+02
-2.336401945744e+02
-2.381221707407e+02
-2.149877450547e+01
-1.108672513567e+02
-2.362625053299e+02
-1.769562257371e+02
-9.757175523351e+00
-1.055786816509e+02
-2.109870643676e+02
-5.063117512626e+01
-3.141797900070e+01
-7.203110563106e+01
-9.563304505817e+01
-3.608883570263e+01
-1.305707060300e+02
-2.388922876824e+02
-8.267318400609e+00
-2.002333451115e+02
-1.131732828528e+02
-1.186391947614e+02
-1.240021072911e+02
-1.304085784856e+02
-1.363168859418e+02
-1.421147638167e+02
-1.363267218837e+02
-1.480567256533e+02
-1.422336478479e+02
-1.481922591756e+02
-1.540144664708e+02
-1.482189581160e+02
-1.600132648190e+02
-1.542767923466e+02
-1.425169371273e+02
-1.486193743016e+02
-1.368486066692e+02
-1.430187429740e+02
-1.547867700084e+02
-1.492454823939e+02
-1.374393825859e+02
-1.437258590124e+02
-1.319259106449e+02
-1.382893774068e+02
-1.264628854428e+02
-1.329227308641e+02
-1.446850554977e+02
-1.393645741926e+02
-1.276426641509e+02
-1.341344448954e+02
-1.224812425055e+02
-1.289977049940e+02
-1.405728676191e+02
-1.354500168664e+02
-1.239487057669e+02
-1.304184978095e+02
-1.190396961197e+02
-1.255068310947e+02
-1.142869604035e+02
-1.206584995752e+02
-1.317534724223e+02
-1.267865222520e+02
-1.158966571128e+02
-1.218026708191e+02
-1.326953708173e+02
-1.274560827373e+02
-1.384046293811e+02
-1.329117198609e+02
-1.221751624211e+02
-1.273246180931e+02
-1.382104129045e+02
-1.323343827452e+02
-1.215848900838e+02
-1.263281670830e+02
-1.372984507222e+02
-1.310672369929e+02
-1.201298952860e+02
-1.246677232788e+02
-1.358910025080e+02
-1.292865642218e+02
-1.180460472866e+02
-1.225244402247e+02
-1.340378656169e+02
-1.271341120688e+02
-1.388694810346e+02
-1.154989307392e+02
-1.200643862711e+02
-1.082571118860e+02
-1.128722814495e+02
-1.469482633336e+02
-1.009008489473e+02
-9.655452220564e+01
-1.055903389425e+02
-1.177097929296e+02
-9.343877920528e+01
-9.823006007780e+01
-8.591043585827e+01
-1.074541918165e+02
-1.610189391869e+02
-9.082027542451e+01
-7.834492674068e+01
-7.346800971193e+01
-6.576919367159e+01
-1.424380705607e+02
-1.542027693161e+02
-1.480807649609e+02
-1.601954471417e+02
-1.543547746118e+02
-7.077482615044e+01
-1.659069679225e+02
-1.660643190169e+02
-1.256158159226e+02
-1.158825302940e+02
-1.438411142214e+02
-1.031719511446e+02
-9.587525692049e+01
-1.082359163187e+02
-1.457196843619e+02
-1.506964368136e+02
-1.575215619603e+02
-1.625996205170e+02
-1.694224654445e+02
-1.745771522791e+02
-1.676899137944e+02
-1.797273524893e+02
-1.727957725591e+02
-1.814111907915e+02
-1.761506585454e+02
-1.848741543345e+02
-1.779155901825e+02
-1.900267646100e+02
-1.830489681462e+02
-1.709097389397e+02
-1.760299712764e+02
-1.639148407920e+02
-1.496073078840e+02
-1.552072749513e+02
-1.610263725892e+02
-1.667640884835e+02
-1.726415550279e+02
-1.784842908399e+02
-1.844076495912e+02
-1.784190792627e+02
-1.660249137833e+02
-1.111914315694e+02
-1.052550667316e+02
-1.009262673805e+02
-9.494819444374e+01
-9.110124317396e+01
-8.505520242713e+01
-8.186932405051e+01
-8.729245621661e+01
-7.905708617864e+01
-8.337048088794e+01
-7.606129303199e+01
-7.906662051741e+01
-1.510743156146e+02
-1.724501755220e+02
-1.842861670263e+02
-1.780496141823e+02
-6.086241577679e+01
-1.882042714234e+02
-1.881815162114e+02
-1.827700097205e+02
-1.902754958777e+02
-5.820926367358e+01
-7.587106181312e+01
-7.831803250193e+01
-1.662431841190e+02
-1.604463229268e+02
-1.949053396745e+02
-6.331282076322e+01
-1.918099104337e+02
-7.238927889082e+01
-1.811880460386e+02
-1.933640769288e+02
-1.607693480397e+02
-1.900444965635e+02
-1.835992418065e+02
-8.739426654636e+01
-8.204498398009e+01
-7.412696415052e+01
-7.636394984626e+01
-8.526704703348e+01
-7.866437959898e+01
-6.950090850094e+01
-7.129338505146e+01
-8.159359721507e+01
-7.402223683578e+01
-6.321133214184e+01
-6.592471926008e+01
-2.003334482774e+02
-7.002560877576e+01
-1.307381271877e+02
-2.002891883129e+02
-1.962128089371e+02
-1.723478194308e+02
-1.666050461368e+02
-1.546270172199e+02
-1.608910277423e+02
-1.728368723920e+02
-1.671699449392e+02
-1.551853462454e+02
-1.615085952450e+02
-1.494954433909e+02
-1.558671203309e+02
-1.678582760243e+02
-1.622758899625e+02
-1.502573328648e+02
-1.566986857302e+02
-1.446436723561e+02
-1.510973098802e+02
-1.631723713108e+02
-5.104829847311e+01
-1.841268649110e+02
-1.961641832803e+02
-1.013532334381e+02
-1.132342979786e+02
-1.204937884589e+02
-1.257704873347e+02
-1.575366516414e+02
-1.696253673700e+02
-6.898432545250e+01
-7.087458354656e+01
-1.781087730172e+02
-1.864082953036e+02
-1.742147780951e+02
-1.107961553372e+02
-1.040160831008e+02
-9.897694640745e+01
-9.178468778504e+01
-9.717994216552e+01
-8.668626940857e+01
-1.707475949198e+02
-1.742541723370e+02
-6.879395921539e+01
-5.622384201791e+01
-1.985671915042e+02
-1.723198392164e+02
-1.564368026511e+02
-1.628147286627e+02
-1.682366616736e+02
-1.746202254517e+02
-1.800730662715e+02
-1.864249078051e+02
-1.810200009459e+02
-1.957329635014e+02
-1.928366262477e+02
-1.453582255293e+02
-1.661772338765e+02
-8.506388623461e+01
-4.564087424562e+01
-5.379488176084e+01
-5.575814280904e+01
-6.850268075176e+01
-2.071010955295e+02
-1.918802400284e+02
-1.854345958284e+02
-8.488819352762e+01
-9.045700141467e+01
-2.021258234306e+02
-1.424149674300e+02
-1.431873653315e+02
-1.374051569346e+02
-4.202628359300e+01
-5.166734943351e+01
-1.791102490292e+02
-8.129516776468e+01
-7.368204990088e+01
-6.686163298130e+01
-6.634620606243e+01
-1.639040540749e+02
-1.759055169140e+02
-1.328096915642e+02
-1.380050540553e+02
-2.016104508005e+02
-5.742368212601e+01
-1.816685505283e+02
-1.778924582750e+02
-1.661378786549e+02
-1.185277426740e+02
-6.106612965282e+01
-6.065032690247e+01
-9.227297904137e+01
-6.951832049404e+01
-6.105171823226e+01
-2.138492302341e+02
-1.846897497710e+02
-1.874571850101e+02
-1.755514883882e+02
-1.994488331741e+02
-4.487387007558e+01
-2.126377290582e+02
-1.916680220008e+02
-1.967396626465e+02
-1.908134586878e+02
-8.473297152504e+01
-7.734842651569e+01
-6.574214888361e+01
-6.968261549330e+01
-1.304552750726e+02
-8.886827319687e+01
-1.250212320586e+02
-1.189197947022e+02
-1.132193344055e+02
-1.025538686095e+02
-9.606534038278e+01
-9.887717343611e+01
-1.492159438276e+02
-1.276882403198e+02
-1.588432039248e+02
-1.524326700973e+02
-1.797359975332e+02
-1.861785120787e+02
-1.381893403812e+02
-1.325591243138e+02
-4.807445094309e+01
-4.336566889497e+01
-1.437907035680e+02
-2.055669164843e+02
-1.840558170717e+02
-1.897959229921e+02
-1.838331901950e+02
-2.081286626945e+02
-1.065040465086e+02
-1.552257342172e+02
-6.710715759529e+01
-1.521588687908e+02
-3.518276089107e+01
-1.664986908469e+02
-2.038729604497e+02
-2.106586115099e+02
-2.077265883093e+02
-1.130823426303e+02
-1.584979439187e+02
-1.532718188083e+02
-1.071769407249e+02
-1.014518321155e+02
-1.075285849567e+02
-9.571913496895e+01
-9.607834141815e+01
-8.877393293064e+01
-2.045339676338e+02
-2.045600752243e+02
-2.022439126619e+02
-1.965967273971e+02
-2.142193301111e+02
-2.082988921613e+02
-7.336353305753e+01
-8.399641786913e+01
-1.909828857962e+02
-1.128918654741e+02
-2.176314768514e+02
-2.108562902721e+02
-6.624076788684e+01
-6.208322924450e+01
-1.880599659387e+02
-5.739757588382e+01
-6.140857660379e+01
-5.402592693174e+01
-2.284419020227e+02
-1.087475436291e+02
-2.160619534907e+02
-1.081265058575e+02
-1.938885120689e+02
-1.649089785858e+02
-1.056529917946e+02
-1.959472758294e+02
-1.816341521828e+02
-1.946686614735e+02
-1.311163382647e+02
-1.249346506120e+02
-1.365543494168e+02
-6.721960268382e+01
-6.084628304662e+01
-1.806058187584e+02
-8.855964865824e+01
-9.497418033779e+01
-6.094349555464e+01
-7.307433343961e+01
-1.398531410822e+02
-1.347977723109e+02
-1.727928714863e+02
-1.782625074788e+02
-1.618480079420e+02
-1.715951853545e+02
-1.598977267452e+02
-1.546422338700e+02
-1.912997491669e+02
-1.990746241501e+02
-1.029798633238e+02
-9.900783784713e+01
-9.996442496121e+01
-1.965193726253e+02
-2.226310919677e+02
-2.173540038336e+02
-3.035608816630e+01
-3.867845432402e+01
-5.139431655836e+01
-5.230107264419e+01
-1.952297006803e+02
-1.897270551435e+02
-2.022317320977e+02
-6.518818339046e+01
-1.820867058321e+02
-2.199277752220e+02
-2.141037647347e+02
-2.272103501958e+02
-2.011160786271e+02
-2.128182555428e+02
-2.112466159847e+02
-6.934331812296e+01
-1.904825986585e+02
-1.254983674199e+02
-7.114601534217e+01
-1.199516096394e+02
-1.268009502503e+02
-1.136203139405e+02
-5.274139305067e+01
-1.226122132196e+02
-1.302339590909e+02
-2.337165070589e+01
-2.024908300252e+02
-2.281221681449e+01
-2.761876755138e+01
-2.230520701770e+02
-2.159980299014e+02
-2.277881463086e+02
-2.206836850933e+02
-2.089845923283e+02
-2.143339306502e+02
-1.187549410660e+02
-2.277550012836e+02
-2.198097105873e+02
-2.331785503601e+02
-8.982404740842e+01
-7.399768429808e+01
-6.632929989012e+01
-5.294058163918e+01
-2.096103122587e+02
-2.013175353451e+02
-1.973569286105e+02
-1.850471989036e+02
-1.203789648090e+02
-1.196659707908e+02
-1.306577287969e+02
-1.291164122603e+02
-1.401340003621e+02
-1.384539618314e+02
-1.496773415285e+02
-2.165973767399e+02
-4.478340210898e+01
-1.013017482736e+02
-2.203250553479e+02
-2.134746505674e+02
-8.972839099614e+01
-7.787762780656e+01
-2.263161178309e+02
-9.592225759586e+01
-2.095092338731e+02
-6.039201415153e+01
-6.104672167501e+01
-1.004555335008e+02
-1.018246241215e+02
-7.911658788343e+01
-7.271654041502e+01
-1.836169060382e+02
-3.478377345433e+01
-5.211070358069e+01
-1.511399552495e+02
-4.125466049808e+01
-1.914559085998e+02
-1.030319069710e+02
-1.145538875740e+02
-6.280613523888e+01
-8.187781568178e+01
-1.364487941873e+02
-1.245655524321e+02
-1.187765984674e+02
-1.096769988491e+02
-7.817303357896e+01
-6.446772765742e+01
-1.311952111239e+02
-1.779078007085e+02
-1.837257084417e+02
-1.951102099613e+02
-1.895965212141e+02
-1.779149876341e+02
-1.838512867658e+02
-1.954429598710e+02
-1.902131047327e+02
-2.037597414430e+02
-1.961565180939e+02
-1.840212710764e+02
-1.897583295141e+02
-2.009937114003e+02
-1.779287537466e+02
-2.261107443560e+02
-1.122657523328e+02
-6.521910930224e+01
-5.437911442716e+01
-1.200686404088e+02
-2.148609387726e+02
-2.134243251300e+02
-8.840894772890e+01
-2.216617623146e+02
-1.246798034852e+02
-7.401291091800e+01
-2.248660615750e+02
-1.719720059700e+02
-1.659441888219e+02
-1.600462209184e+02
-2.128095422971e+02
-1.424546733359e+02
-2.313799921706e+02
-1.607490292182e+02
-1.544951456337e+02
-1.430136704588e+02
-1.779341300404e+02
-2.356330709879e+02
-2.258857328690e+02
-2.266056095386e+02
-2.151652389884e+02
-2.372925051964e+02
-2.181823941009e+02
-2.196854662071e+02
-8.865427194846e+01
-9.515122719961e+01
-1.053184839941e+02
-1.011164316917e+02
-9.131219752027e+01
-9.676356842386e+01
-1.065953880295e+02
-9.216622518353e+01
-1.900382702847e+02
-2.385152947490e+02
-1.642250226789e+02
-1.589241822068e+02
-1.473188365264e+02
-1.226727942059e+02
-1.297986637669e+02
-1.418391739124e+02
-1.154717426307e+02
-1.691776955364e+02
-2.386005378165e+02
-1.607238916946e+02
-1.248582175033e+02
-1.114631328926e+02
-1.224016431618e+02
-1.230811696729e+02
-1.344337304028e+02
-1.230858430378e+02
-1.449643587007e+02
-1.501214781824e+02
-1.432678986559e+02
-1.553212403622e+02
-1.482503278911e+02
-1.370550856292e+02
-1.603406223426e+02
-1.524795165075e+02
-1.106813694470e+02
-3.742497261807e+01
-4.083067935758e+01
-3.186113199143e+01
-4.685245891198e+01
-5.400973095076e+01
-5.966084935377e+01
-6.294455120760e+01
-5.319952344634e+01
-1.560207118372e+01
-2.709864139551e+01
-1.232291239613e+01
-2.387424878062e+01
-3.919858651338e+01
-5.203970453949e+01
-2.354568913742e+02
-1.179168413570e+02
-1.119509263127e+02
-9.999490411723e+01
-1.065896948333e+02
-1.228384586526e+02
-9.327288361252e+01
-8.885383631016e+01
-8.719097114313e+00
-1.883353464392e+01
-1.778639406609e+01
-2.967318010527e+01
-2.960713041306e+01
-1.915120224880e+01
-1.928485319788e+01
-8.793341196423e+00
-1.937735075798e+01
-3.053237438861e+01
-8.589088479426e+00
-1.654677444004e+02
-1.719621425721e+02
-2.379275087618e+02
-1.114948139128e+02
-1.039825434485e+01
-2.074969338933e+02
-2.099714767324e+02
-2.099941244251e+02
-2.162536539056e+02
-2.223911775719e+02
-2.076345962071e+02
-8.115034302016e+01
-2.009992770537e+02
-1.870095048039e+02
-6.796438105285e+01
-8.114581982699e+01
-1.795073986519e+02
-1.658384088240e+02
-2.054164900991e+02
-1.690447792324e+02
-1.951866633672e+02
-2.264048340587e+02
-4.869315445123e+01
-1.437900995283e+02
-1.390252444061e+02
-1.687073440149e+02
-8.333804640355e+01
-1.314961522915e+02
-5.305404055958e+01
-2.145832708316e+02
-1.193663858510e+02
-1.407752546862e+02
-1.104757103317e+02
-8.888765102096e+01
-7.744017918169e+01
-1.173769462322e+02
-1.319110494887e+02
-1.866199176193e+02
-1.751449290711e+02
-1.055584390804e+01
-1.934734182340e+02
-1.557133750591e+02
-1.488681968532e+02
-1.903279545691e+02
-6.169599907497e+01
-1.734694904449e+02
-1.952083318938e+02
-1.361679206834e+02
-4.020564962712e+01
-1.314691681417e+02
-2.193461954495e+02
-1.720575304100e+02
-7.591781775777e+01
-1.439487333186e+02
-1.211059749927e+02
-1.015991401875e+02
-1.921310528116e+02
-1.417929212227e+02
-2.022858298392e+02
-1.667231859408e+02
-8.123423021065e+01
-2.039286580519e+02
-1.378907949667e+02
-1.853748892727e+02
-1.736706487875e+02
-1.168107192252e+02
-1.784366506518e+02
-1.422589127174e+02
-1.962480145252e+02
-1.137519725847e+02
-1.500613459098e+02
-1.603431829916e+02
-1.457819764321e+02
-1.726997169596e+02
-1.987225647734e+02
-7.249416071659e+01
-9.389030336289e+01
-1.484241578696e+02
-1.979237316884e+02
-1.971231759771e+02
-1.092171463736e+02
-1.969652254721e+02
-1.899387349158e+02
-1.368313103400e+02
-5.590915396223e+01
-6.100830558047e+01
-9.661715743452e+01
-1.367385857482e+02
-1.487941440773e+02
-2.024350082649e+02
-2.021213319382e+02
-1.893695387022e+02
-3.267647007982e+01
-1.071667120176e+02
-2.073097310133e+02
-1.493525149818e+02
-2.021216371255e+02
-1.408945865902e+02
-2.157939632694e+02
-8.387424796533e+01
-2.126500070153e+02
-1.899980631557e+02
-9.200165603449e+01
-1.091677398404e+02
-2.264522958731e+02
-2.022576116257e+02
-1.574476111925e+02
-1.433813351597e+02
-8.977066541399e+01
-1.538296778955e+02
-1.555049625093e+02
-2.123948858369e+02
-2.080490747062e+02
-1.539625879142e+02
-1.468453480442e+02
-1.714830214429e+02
-2.988536803529e+01
-9.558879180777e+01
-1.518972090583e+02
-1.017469788440e+02
-1.484905600899e+02
-2.194927827201e+02
-1.570149349907e+02
-1.117798094795e+02
-1.621634094055e+02
-7.799840243271e+01
-1.599416464637e+02
-1.673319454814e+02
-1.673003018531e+02
-3.187689252238e+01
-1.637888698663e+02
-2.097758541418e+02
-1.039699102174e+02
-1.536330321102e+02
-1.719330608177e+02
-6.608457924504e+01
-1.652692941897e+02
-1.791172235421e+02
-1.701800989102e+02
-1.481278801532e+02
-1.772000714227e+02
-7.218702022721e+01
-7.679273630785e+01
-6.461837442855e+01
-1.167822167861e+02
-1.846230154784e+02
-4.039459658177e+01
-1.719531047996e+02
-4.812734952327e+01
-1.112013572648e+02
-1.890729587629e+02
-1.422276418819e+02
-1.156799614389e+02
-6.855941085725e+01
-1.094857954796e+02
-1.596828533591e+02
-1.137285718406e+02
-1.070255370808e+02
-1.987349103288e+02
-1.111835314156e+02
-2.097371036422e+02
-2.360139493145e+02
-1.183252269665e+02
-5.343461501917e+01
-7.704707107795e+01
-6.157881794568e+01
-9.257580148291e+01
-1.720700331516e+02
-1.188415009859e+02
-8.488430790822e+01
-2.078093885339e+02
-2.284175800952e+02
-1.596457637534e+02
-2.076428733123e+02
-1.769047930350e+02
-1.878446637918e+02
-1.086042155749e+02
-2.245331844140e+01
-1.789166005622e+02
-4.190348562841e+01
-4.858033760724e+01
-4.205336004440e+01
-8.536797478395e+01
-4.092159838485e+01
-3.497091125628e+01
-2.243364459261e+02
-1.202017975144e+02
-1.941176911142e+02
-2.906926994582e+01
-2.012227065947e+02
-2.195709752694e+02
-2.385519129129e+02
-2.063256549293e+02
-4.219408909892e+01
-1.316640445039e+02
-2.129651983552e+02
-1.692090848468e+02
-2.389531103626e+02
-1.193222013284e+02
-2.001068596131e+02
-6.801969776694e+01
-2.001480942518e+02
-1.839257064651e+02
-1.337832740779e+02
-1.319672292857e+02
-2.281694190472e+02
-2.055165246189e+02
-4.560221620142e+01
-1.591121984752e+02
-1.069053577531e+02
-6.388295371560e+01
-2.281735417928e+02
-1.950794413978e+02
-2.275892569343e+02
-2.918262404819e+01
-1.902374147174e+01
-2.299790490271e+02
-2.112736527074e+02
-6.840651436489e+01
-2.126710028907e+02
-4.986117942751e+01
-1.076230995323e+02
-1.861752842306e+01
-2.383430456517e+02
-2.013141086316e+02
-1.175064221056e+02
-1.129370663373e+02
-7.715046553330e+01
-2.079834911508e+02
-3.300723811637e+01
-2.020970903418e+02
-2.300920390214e+02
-2.051535618469e+02
-2.363455466336e+02
-6.997535324756e+01
-2.213791937525e+02
-2.181690769118e+02
-1.083079284828e+02
-2.047931063791e+02
-9.542210317206e+01
-4.042479200605e+01
-2.109512868756e+02
-7.003775078825e+00
-1.074187746217e+02
-2.385689060757e+02
-3.813743901775e+01
-1.272183217999e+02
-2.106899919931e+02
-1.439726075693e+02
-1.810623117704e+02
-5.195183366677e+01
-7.633932277605e+01
-1.485641126423e+02
-2.230410235192e+02
-2.047379117781e+02
-1.403426788939e+02
-5.403341675836e+01
-2.042275684230e+02
-1.270176048493e+02
-2.063012304594e+02
-2.171631432735e+02
-4.496293446257e+01
-1.546895348714e+02
-1.744407426472e+01
-2.305846369265e+02
-1.322005584835e+02
-8.397108083717e+00
-8.082097580866e+00
-2.209303812939e+01
-1.939673272540e+01
-3.442640966773e+01
-3.221289677926e+01
-4.686249497971e+01
-4.371550732433e+01
-5.888627130603e+01
-5.656609692230e+01
-7.097520511700e+01
-6.807914840690e+01
-8.289713912467e+01
-8.093138463788e+01
-9.482051794792e+01
-9.231778998428e+01

SCALARS node_materi_stress_size_dev_sd_sig float
LOOKUP_TABLE default
5.704080018020e+00
7.103372368743e+01
1.826373689919e+02
1.615641136292e+02
1.231753195898e+01
2.129951189682e+01
2.881681427770e+01
3.775818427840e+01
4.659543538706e+01
5.543241188914e+01
6.452166486358e+01
7.381310831596e+01
8.320526458289e+01
9.283377697974e+01
1.027915532287e+02
1.121980362993e+02
1.207269116991e+02
1.302840128694e+02
1.399740251044e+02
1.493204151264e+02
1.587403869313e+02
1.682367147695e+02
1.772600020861e+02
1.621168265228e+02
1.617123936846e+02
1.618615410197e+02
1.619276190161e+02
1.616680797303e+02
1.620385273186e+02
1.621902531833e+02
1.622814497034e+02
1.627861747622e+02
1.630241172795e+02
1.629592260211e+02
1.635801976431e+02
1.641078130160e+02
1.644868743696e+02
1.648192064901e+02
1.651879425286e+02
1.658305427561e+02
1.669343101723e+02
1.681220340181e+02
1.693473207992e+02
1.704338124108e+02
1.715137257145e+02
1.728069189046e+02
1.741020794528e+02
1.755391058456e+02
1.769599879692e+02
1.783831361236e+02
1.796263241521e+02
1.807437459894e+02
1.820270513423e+02
1.829324750742e+02
1.833262601206e+02
1.839796477137e+02
1.845779217934e+02
1.849781647678e+02
1.852064917858e+02
1.853006816749e+02
1.851695058990e+02
1.849080760380e+02
1.845687330498e+02
1.844705785169e+02
1.845484660786e+02
1.844037267427e+02
1.830437533415e+02
1.836610574218e+02
1.831333098978e+02
1.831766078981e+02
1.833436509893e+02
1.832373236452e+02
8.016017229759e+01
8.952004835107e+01
9.875579096205e+01
1.079029116056e+02
1.173365820786e+02
1.267896796306e+02
1.363238215606e+02
1.458471864686e+02
1.556484608231e+02
4.408044187858e+01
7.028192168856e+01
3.918396870663e+01
2.489849380529e+01
1.431486612052e+01
1.797389297777e+01
2.549965139168e+01
3.401554221865e+01
4.275998671965e+01
5.162914480990e+01
6.061034601785e+01
3.045860235192e+00
7.704483185044e+00
1.664698124296e+01
2.558253149235e+01
3.455053074846e+01
4.351694722411e+01
5.250861791648e+01
6.146087683898e+01
6.970060752792e+01
7.018698119713e+01
7.020718549213e+01
7.003621400130e+01
7.116261895268e+01
7.003393203985e+01
6.980788896011e+01
6.983883021141e+01
6.999372532752e+01
6.987698901034e+01
6.972199669638e+01
6.964332000394e+01
6.961382676326e+01
6.977821354016e+01
3.636488073199e+01
3.324727511094e+01
3.313972095172e+01
3.358549609500e+01
3.274064739335e+01
1.919571922129e+01
5.337251054322e+00
3.627758966752e+00
4.345587036429e+00
4.795886813018e+00
4.986632931869e+00
5.405762371476e+00
5.289273855807e+00
4.935736063928e+00
5.206953347729e+00
5.528376453161e+00
5.670814336372e+00
5.471985051267e+00
5.022825063411e+00
9.480221442930e+00
5.686851111777e+00
5.428843365656e+00
5.907325089216e+00
6.302573834154e+00
6.531445862595e+00
6.607355123906e+00
6.483619147245e+00
6.243617856805e+00
5.944333804240e+00
5.622290719453e+00
5.298711853995e+00
4.990456582403e+00
4.707671739661e+00
4.457024415714e+00
4.241074628475e+00
4.059705238200e+00
3.911029955714e+00
3.792179142512e+00
3.699633871704e+00
3.629609766283e+00
3.578471321589e+00
3.543160331260e+00
3.522122233239e+00
3.531934268682e+00
3.394315647339e+00
8.467271094078e+00
9.474434752007e+00
9.135597015719e+00
9.393574346555e+00
9.658626494338e+00
9.755129219402e+00
9.743810123774e+00
9.652121937279e+00
9.513296081431e+00
9.341955171364e+00
9.155276210989e+00
8.964553225809e+00
8.779092233705e+00
8.604355101726e+00
8.443331276668e+00
8.297554682298e+00
8.167837005068e+00
8.054275287087e+00
7.956504716864e+00
7.873929051761e+00
7.806068669079e+00
7.752476089262e+00
7.710840985105e+00
7.671293765294e+00
7.666226028540e+00
1.657798698129e+01
1.655293342478e+01
1.658568615764e+01
1.663299415960e+01
1.668725350917e+01
1.674785197466e+01
1.681476260400e+01
1.688806174431e+01
1.696772606837e+01
1.705273427564e+01
1.714107638504e+01
1.722949630254e+01
1.731535464597e+01
1.739421254773e+01
1.745971385890e+01
1.749858673770e+01
1.750547928471e+01
1.746224249895e+01
1.737901483368e+01
1.720029912199e+01
1.703245486140e+01
1.741592197554e+01
1.582427551437e+01
2.395625433181e+01
2.580465629893e+01
2.545666841760e+01
2.552345633288e+01
2.563326940392e+01
2.569932958071e+01
2.575092264405e+01
2.577178922119e+01
2.577957372089e+01
2.577731721373e+01
2.576629340580e+01
2.574503810145e+01
2.571824101004e+01
2.568933336514e+01
2.565943729718e+01
2.562830249476e+01
2.559602332676e+01
2.556473135773e+01
2.553700954032e+01
2.551987582922e+01
2.552893821311e+01
2.556775853994e+01
3.452325138256e+01
3.448890918993e+01
3.447705909383e+01
3.447875066663e+01
3.448358078643e+01
3.448806443281e+01
3.448846685168e+01
3.448023768892e+01
3.446651572982e+01
3.445105593223e+01
3.442954764155e+01
3.439574604503e+01
3.434577922385e+01
3.429810793036e+01
3.425016451360e+01
3.421165510003e+01
3.413524851417e+01
3.409199066243e+01
3.451542441738e+01
3.264209759484e+01
4.144756059487e+01
4.333012588062e+01
4.293226411387e+01
4.291138823957e+01
4.293977194219e+01
4.298584256059e+01
4.307259211263e+01
4.314271128541e+01
4.320021115178e+01
4.324435388448e+01
4.329331997926e+01
4.334469200466e+01
4.337495445066e+01
4.339657505631e+01
4.341669652075e+01
4.343434733681e+01
4.345450490187e+01
4.348896172742e+01
4.351130863333e+01
5.253617130957e+01
5.246397043092e+01
5.242501305114e+01
5.240463877315e+01
5.235824937146e+01
5.232265291843e+01
5.228255073819e+01
5.222024012209e+01
5.212990394100e+01
5.208426723032e+01
5.202514955938e+01
5.194194551585e+01
5.187648577344e+01
5.177652938881e+01
5.180733989995e+01
5.229028784917e+01
5.041753924981e+01
5.941837621512e+01
6.127497274711e+01
6.085058268252e+01
6.084601550828e+01
6.092963764672e+01
6.101976022228e+01
6.105634370240e+01
6.113074857079e+01
6.121685408667e+01
6.128413542348e+01
6.133556021691e+01
6.138559699695e+01
6.145879336632e+01
6.145748630035e+01
6.156407792513e+01
6.166278162286e+01
4.722333019046e+01
3.476989539777e+01
1.705492752624e+01
1.616348990440e+01
2.258913569931e+01
3.047880774716e+01
3.911538756646e+01
4.792485721191e+01
5.684708067694e+01
6.595306440865e+01
3.601644985310e+01
1.814143368260e+02
8.022201674413e+00
4.237433343476e+01
1.819211039402e+02
2.586107644899e+01
9.820380505686e+01
1.776938974099e+02
3.867864730117e+01
1.724903378929e+02
5.604693257233e+01
1.810800213087e+02
9.305775205350e+00
1.667707133864e+02
7.418469284284e+01
6.038322386859e+01
1.241792132836e+02
1.628789417804e+02
1.603167840495e+02
1.578668109530e+02
1.573606558719e+02
1.592666339849e+02
7.812996825090e+01
7.825203797863e+01
7.909519001940e+01
1.126383187637e+02
1.796421022703e+02
4.402551252450e+01
1.031755481194e+01
1.537537458764e+02
7.830189539872e+01
3.325545874004e+01
1.597906518289e+02
1.758075540517e+02
1.695142884515e+02
1.794009743724e+02
1.823042658081e+02
1.809353307335e+01
7.781505148608e+01
1.800687402369e+02
1.313895348761e+02
9.158249770368e+00
7.859839007692e+01
1.591590641684e+02
3.249042391390e+01
2.645116471882e+01
4.718427939134e+01
6.491826609007e+01
4.648049505848e+01
9.480367517744e+01
1.807402016045e+02
1.000973352025e+01
1.501883619906e+02
7.840628140128e+01
8.252752187048e+01
8.676595164470e+01
9.172674539775e+01
9.639870641877e+01
1.009483086323e+02
9.631349440115e+01
1.056597433351e+02
1.010822506996e+02
1.057359299895e+02
1.105610533600e+02
1.060716966171e+02
1.156421512287e+02
1.112947463445e+02
1.017699830200e+02
1.071524055075e+02
9.761068099277e+01
1.032028453826e+02
1.127558372427e+02
1.090236434018e+02
9.946367400496e+01
1.055290670842e+02
9.598218895974e+01
1.023330601069e+02
9.278814400871e+01
9.946703479498e+01
1.088315692691e+02
1.062339338156e+02
9.698422927405e+01
1.040133470389e+02
9.494337320150e+01
1.021827953053e+02
1.109116264809e+02
1.091825466230e+02
1.007410991694e+02
1.077614271676e+02
9.968748698568e+01
1.065981556180e+02
9.896926957109e+01
1.055511941831e+02
1.128059162091e+02
1.113062414775e+02
1.044830685786e+02
1.095562688152e+02
1.162719107164e+02
1.137847779655e+02
1.205240205029e+02
1.173177317336e+02
1.107430609120e+02
1.134803374473e+02
1.203119043829e+02
1.157838309532e+02
1.088616365758e+02
1.105441557585e+02
1.178733180797e+02
1.121779153539e+02
1.045521667567e+02
1.058721517884e+02
1.139366183608e+02
1.074274264842e+02
9.899007800639e+01
1.005189795537e+02
1.092913844547e+02
1.024109488012e+02
1.114182797849e+02
9.325842635298e+01
9.535359724573e+01
8.583891872322e+01
8.827010460192e+01
1.175660400280e+02
7.850674357835e+01
7.617443316477e+01
8.132194159153e+01
9.107585646949e+01
7.142515540672e+01
7.461623234890e+01
6.473035038789e+01
9.145671528969e+01
1.185472756602e+02
6.824693667864e+01
5.848492165451e+01
5.478580274720e+01
4.878326097402e+01
1.012237733659e+02
1.107000611863e+02
1.059419279429e+02
1.157037242793e+02
1.111507165872e+02
5.266243333805e+01
1.202380528243e+02
1.203387093803e+02
8.987567833037e+01
8.759395825426e+01
1.232565437200e+02
7.798788833497e+01
7.188025486004e+01
8.155029963369e+01
1.179907330856e+02
1.202971125668e+02
1.265962859173e+02
1.290504226134e+02
1.351085742022e+02
1.376950061461e+02
1.316512392754e+02
1.404010318698e+02
1.344034352803e+02
1.435328746271e+02
1.408929375648e+02
1.432316383136e+02
1.373031417295e+02
1.461946474702e+02
1.403466694093e+02
1.312922695352e+02
1.344417339935e+02
1.252968351514e+02
1.275254887279e+02
1.304680407866e+02
1.347383981738e+02
1.378579841529e+02
1.421130251091e+02
1.453721148300e+02
1.495812544789e+02
1.459668494311e+02
1.208947020713e+02
1.031588573914e+02
9.793531018474e+01
9.714095404242e+01
9.172557515011e+01
9.155348047600e+01
8.585376004538e+01
8.630688077027e+01
9.065725527623e+01
8.561311568677e+01
8.827746469616e+01
8.324628009370e+01
8.393908232817e+01
1.153707921554e+02
1.407367734061e+02
1.484244453061e+02
1.434391013030e+02
4.491688251760e+01
1.435359319185e+02
1.491147739935e+02
1.463431010390e+02
1.534554936540e+02
4.336819337429e+01
8.012964116131e+01
7.852583962669e+01
1.207784002108e+02
1.162425344453e+02
1.544121036246e+02
4.730552444317e+01
1.490457706493e+02
8.068624642543e+01
1.377376068793e+02
1.468705246281e+02
1.254761736249e+02
1.513449749849e+02
1.460678439172e+02
8.935828519623e+01
8.347793775487e+01
7.726551334444e+01
7.548010319222e+01
8.242990012961e+01
7.367324711006e+01
6.531812134532e+01
6.343752918168e+01
7.259086327964e+01
6.271691837499e+01
5.196652575623e+01
5.239940249751e+01
1.525373743103e+02
7.853100797137e+01
9.229958273099e+01
1.572515312210e+02
1.570191444646e+02
1.259266707551e+02
1.214275695263e+02
1.117855462926e+02
1.170405248730e+02
1.267183580343e+02
1.223196844695e+02
1.127153644318e+02
1.179553861217e+02
1.084038986136e+02
1.136433741948e+02
1.232252011038e+02
1.189256658687e+02
1.094154929303e+02
1.146612008051e+02
1.051996872584e+02
1.103591265153e+02
1.199288046856e+02
3.855047405889e+01
1.495092689474e+02
1.571063231906e+02
7.594358956561e+01
8.509346267865e+01
9.115518282249e+01
9.476907703294e+01
1.155525265326e+02
1.252481320572e+02
7.214753412684e+01
6.966475077795e+01
1.305284146952e+02
1.412239397258e+02
1.319995997414e+02
8.572280729005e+01
7.801341768428e+01
7.627222646406e+01
6.804870934449e+01
7.050606860025e+01
6.636155173319e+01
1.382198428783e+02
1.285549909212e+02
5.122770900174e+01
4.111977754393e+01
1.504170159524e+02
1.420042524978e+02
1.180972078054e+02
1.244409742883e+02
1.273257222276e+02
1.334812436256e+02
1.365248227395e+02
1.424674387263e+02
1.395498906526e+02
1.541944157094e+02
1.483331704969e+02
1.058870366623e+02
1.355763753857e+02
7.246045109091e+01
3.447354542685e+01
4.058316856698e+01
4.215098423107e+01
5.120996834506e+01
1.623841444497e+02
1.456634486792e+02
1.397522955272e+02
6.040872847608e+01
6.345848678955e+01
1.591988662702e+02
1.015710889902e+02
1.032264318059e+02
9.894519682192e+01
3.267867092039e+01
4.072419603140e+01
1.320395925657e+02
7.673699905175e+01
6.735913895226e+01
7.597818404404e+01
7.401380695895e+01
1.206421643630e+02
1.302824027010e+02
1.006812112960e+02
1.042508053936e+02
1.594185218331e+02
4.276163427599e+01
1.349004356645e+02
1.452216844947e+02
1.376438194981e+02
8.873844347206e+01
6.233449333449e+01
6.522414880207e+01
8.131919806646e+01
5.401723196002e+01
4.605075773968e+01
1.672287518272e+02
1.364476453358e+02
1.454533927825e+02
1.368160073029e+02
1.540169852335e+02
3.148069664447e+01
1.654299077654e+02
1.449197872392e+02
1.486946667648e+02
1.432340768590e+02
7.527462951628e+01
6.587553992477e+01
5.706778251360e+01
5.603011567062e+01
9.174709942330e+01
7.461669709932e+01
8.809517667281e+01
8.289674099909e+01
7.868634563382e+01
7.333380669543e+01
6.686210602313e+01
9.153247666488e+01
1.256533256651e+02
9.734154223498e+01
1.221784042018e+02
1.242618537937e+02
1.328691023086e+02
1.383030845836e+02
9.999362465166e+01
9.572438752279e+01
3.526293859001e+01
3.128710180010e+01
1.138094290338e+02
1.600948488090e+02
1.356383204299e+02
1.403293156960e+02
1.351692710087e+02
1.640212555472e+02
1.013218982896e+02
1.312751464984e+02
7.448725851790e+01
1.195668974495e+02
2.617622863957e+01
1.222859613630e+02
1.541235410240e+02
1.594824107795e+02
1.621529646035e+02
7.819288578719e+01
1.259238501620e+02
1.238812789902e+02
7.367280221845e+01
6.942556131704e+01
7.460149982922e+01
6.527153182849e+01
8.168193788812e+01
7.315439497832e+01
1.554042042907e+02
1.569296733573e+02
1.524327908026e+02
1.471395200284e+02
1.669073826328e+02
1.637486785658e+02
5.489161933661e+01
5.715613173875e+01
1.417483905588e+02
7.799787845980e+01
1.681241465319e+02
1.630163738861e+02
6.892837989317e+01
6.637332585461e+01
1.401491032572e+02
4.631633581483e+01
4.598477355234e+01
4.805532443648e+01
1.725945810436e+02
7.809376781936e+01
1.632672395119e+02
7.663765182726e+01
1.447958069194e+02
1.320224414479e+02
8.428637025487e+01
1.563302861577e+02
1.349550985518e+02
1.456980165002e+02
9.378164765329e+01
8.934281840666e+01
9.782058528456e+01
7.589215601700e+01
6.968291179379e+01
1.338787329334e+02
6.611928287578e+01
7.100057993812e+01
4.524256675752e+01
5.598802467429e+01
1.068022114243e+02
1.036584116749e+02
1.280566936876e+02
1.318596219900e+02
1.211335262584e+02
1.405468188969e+02
1.328576366481e+02
1.302081897999e+02
1.424773281232e+02
1.489993488195e+02
8.972841554668e+01
8.936806161788e+01
8.256142349649e+01
1.462659517501e+02
1.684647570680e+02
1.648440147137e+02
2.230223196940e+01
2.726353280608e+01
5.445958269198e+01
5.839427908018e+01
1.448827278592e+02
1.400409699769e+02
1.508884245245e+02
4.914429287011e+01
1.427598167672e+02
1.713300940956e+02
1.681212039707e+02
1.755455480912e+02
1.569413604106e+02
1.648949558345e+02
1.623756866525e+02
6.569354782363e+01
1.422710207002e+02
9.018398051289e+01
5.750999810030e+01
8.604000594702e+01
9.147411272847e+01
8.139714276304e+01
4.049168147912e+01
8.703785883928e+01
9.264288292970e+01
1.677308473032e+01
1.514856215579e+02
1.824807647277e+01
2.191363872835e+01
1.711980142542e+02
1.659461356065e+02
1.740571748034e+02
1.687559158230e+02
1.604727534759e+02
1.637399580762e+02
8.487419704946e+01
1.733048953678e+02
1.672171192265e+02
1.770034432811e+02
6.043335505712e+01
5.621773495838e+01
4.718968157875e+01
3.609977575989e+01
1.578724465862e+02
1.506771049824e+02
1.489987512830e+02
1.396462428660e+02
8.676385198891e+01
8.631847768336e+01
9.472399134477e+01
9.363233077399e+01
1.021466774552e+02
1.008283550407e+02
1.095501819063e+02
1.656095240366e+02
3.643633730069e+01
6.906429921450e+01
1.712647210206e+02
1.674520653026e+02
6.103012866150e+01
5.177925032201e+01
1.742909874310e+02
8.326500582081e+01
1.574679255546e+02
4.710811450805e+01
6.157690914638e+01
8.331429080444e+01
7.064552703934e+01
5.762576288029e+01
5.038019796551e+01
1.483977434001e+02
2.376633356435e+01
5.113631290944e+01
1.105535461273e+02
4.305363176143e+01
1.443448009970e+02
9.135618523758e+01
8.311412849928e+01
5.942735892675e+01
6.566057820887e+01
9.662701164479e+01
8.713944830327e+01
8.257979858386e+01
9.844046139957e+01
5.346917342439e+01
4.261466469157e+01
9.362745567143e+01
1.301190402155e+02
1.349578383881e+02
1.446031310696e+02
1.398917912376e+02
1.300486534767e+02
1.350295960738e+02
1.449347718233e+02
1.404238773599e+02
1.520745245283e+02
1.456964410903e+02
1.354834379121e+02
1.406212471038e+02
1.500350793654e+02
1.307070069705e+02
1.743534186898e+02
9.210422423378e+01
7.003742709794e+01
6.306861633343e+01
8.635640477601e+01
1.618325307896e+02
1.605405871140e+02
8.492116119616e+01
1.679398903779e+02
8.726746809931e+01
8.090996531263e+01
1.709626785858e+02
1.251083479737e+02
1.201178887105e+02
1.153167090846e+02
1.600391238764e+02
1.022231740302e+02
1.769608151151e+02
1.331277953041e+02
1.278246758936e+02
1.202246849986e+02
1.301827299349e+02
1.807938834255e+02
1.752470832232e+02
1.756934612191e+02
1.689339076638e+02
1.818671864436e+02
1.646711656118e+02
1.660744135573e+02
8.158676863127e+01
8.937273860326e+01
9.637092352145e+01
9.575270318614e+01
8.950351058868e+01
9.485006368918e+01
1.007290184105e+02
9.331893389850e+01
1.414151670711e+02
1.824252458662e+02
1.326023238584e+02
1.301044119517e+02
1.220202025353e+02
9.413472521275e+01
1.006625681556e+02
1.100501817310e+02
8.774917362133e+01
1.307020699147e+02
1.822909267256e+02
1.346094724111e+02
9.785680499493e+01
7.799537383964e+01
8.610061732446e+01
8.631405335071e+01
9.511211883773e+01
8.687260541373e+01
1.101323019001e+02
1.136070242055e+02
1.079297797567e+02
1.171892169466e+02
1.114378012787e+02
1.027938097886e+02
1.206847606595e+02
1.145081232691e+02
7.790916637802e+01
3.344665512774e+01
3.829879981226e+01
2.537748886474e+01
4.116291193181e+01
5.349957741093e+01
5.558587078426e+01
6.449664051312e+01
5.304952473267e+01
9.676923625018e+00
1.857906638879e+01
7.685439343737e+00
1.558170154419e+01
2.769811401064e+01
3.756449478298e+01
1.782432578374e+02
8.800236785998e+01
8.359687836715e+01
7.442713556660e+01
7.960252619280e+01
9.192567822690e+01
6.939361406778e+01
6.614837340144e+01
1.038930310660e+01
1.825356453066e+01
1.752907108169e+01
2.542067098951e+01
2.509240220388e+01
1.823332726400e+01
1.807609174246e+01
1.012294761058e+01
1.775611672029e+01
2.501486665930e+01
9.674156355345e+00
1.221408390176e+02
1.273766723464e+02
1.814762013733e+02
7.907131322689e+01
8.666510429108e+00
1.562023651580e+02
1.580283121168e+02
1.580793423658e+02
1.632629686723e+02
1.679590217012e+02
1.564307890647e+02
6.134561035238e+01
1.494662099586e+02
1.392349117400e+02
7.433647798989e+01
6.450535484784e+01
1.356493109434e+02
1.283122215289e+02
1.559129127521e+02
1.285852244592e+02
1.492981196053e+02
1.755390968086e+02
3.747740140020e+01
1.041307154793e+02
1.009145643025e+02
1.242311724184e+02
6.225403369951e+01
9.883383149626e+01
3.936706558048e+01
1.627774216543e+02
8.408125376515e+01
1.158666926408e+02
8.443003032223e+01
6.853434679847e+01
6.320895014688e+01
9.333060910436e+01
1.046705455274e+02
1.462403897485e+02
1.295701568432e+02
1.047059018693e+01
1.518670501713e+02
1.227949762790e+02
1.074885609543e+02
1.529412355291e+02
5.338280586488e+01
1.276022779750e+02
1.451113537998e+02
9.702481922806e+01
3.030058981633e+01
9.464105451819e+01
1.701991593195e+02
1.253935963873e+02
5.656111571549e+01
1.241813201889e+02
8.996542093998e+01
6.940483616807e+01
1.434168924289e+02
1.158003438870e+02
1.609890508997e+02
1.385533539934e+02
6.055920201515e+01
1.575850607538e+02
1.183721173258e+02
1.373375452268e+02
1.304798577852e+02
1.073646695703e+02
1.311222932392e+02
1.198968020049e+02
1.561354129531e+02
8.026326628052e+01
1.117636043759e+02
1.166939014891e+02
1.129713984778e+02
1.301846487288e+02
1.546945394195e+02
7.874025850605e+01
7.509314085606e+01
1.066243062889e+02
1.512281484937e+02
1.470344313751e+02
8.033066130158e+01
1.519358269792e+02
1.407507279780e+02
1.072414484777e+02
4.277519392612e+01
6.830401378030e+01
9.573510722964e+01
1.142514619083e+02
1.164376463856e+02
1.509774919841e+02
1.549538753749e+02
1.514896678218e+02
4.069771503171e+01
7.354124370671e+01
1.581492780169e+02
1.273691832397e+02
1.603932192690e+02
1.055450062764e+02
1.642387974375e+02
5.604659333624e+01
1.616639022936e+02
1.529803206254e+02
8.393793056479e+01
7.835023772243e+01
1.718016539003e+02
1.607176644941e+02
1.218522218723e+02
1.229211047024e+02
6.038274689881e+01
1.192430168787e+02
1.150102051258e+02
1.597827023527e+02
1.644899501803e+02
1.103487799721e+02
1.129953458958e+02
1.378977785328e+02
2.496044493405e+01
6.471613884923e+01
1.161167710738e+02
9.866783737873e+01
1.253139389844e+02
1.698444814177e+02
1.194152530105e+02
1.045117501023e+02
1.228464493149e+02
5.152092378795e+01
1.152458322785e+02
1.263545470668e+02
1.244601722072e+02
2.539365193448e+01
1.281802124684e+02
1.583893064631e+02
8.393045101192e+01
1.276584776080e+02
1.251070189471e+02
4.279657512215e+01
1.355111252152e+02
1.338985991317e+02
1.343044677001e+02
1.220204293400e+02
1.434773288030e+02
4.781038619484e+01
5.834663614683e+01
4.803719561943e+01
1.069453064375e+02
1.375774598444e+02
3.224030487298e+01
1.254337124436e+02
3.422955484913e+01
1.022026775476e+02
1.487117336181e+02
1.038240322327e+02
1.033974624051e+02
5.154396075091e+01
9.700397040870e+01
1.298876057599e+02
9.785742339236e+01
9.047060826643e+01
1.489045201471e+02
9.163825062920e+01
1.579615023452e+02
1.784412339408e+02
8.540983423149e+01
3.396869662191e+01
4.340367597026e+01
4.141240817573e+01
7.440779729699e+01
1.262897908255e+02
8.572242384764e+01
6.625980481664e+01
1.556294371681e+02
1.742559705943e+02
1.174948124270e+02
1.641064473155e+02
1.403565220272e+02
1.402444278663e+02
7.748194627049e+01
1.501753077416e+01
1.347810496805e+02
2.656806961010e+01
3.565797097789e+01
3.905028302123e+01
6.375038215544e+01
3.162463281016e+01
2.494718514850e+01
1.740942641815e+02
8.541067886047e+01
1.511888873306e+02
2.987651647925e+01
1.503263533635e+02
1.688757138743e+02
1.813578749209e+02
1.597053020619e+02
4.730977802216e+01
9.317536740699e+01
1.611503955996e+02
1.249399147774e+02
1.811318805466e+02
8.416319979196e+01
1.501326793283e+02
7.263433678324e+01
1.502122039790e+02
1.360477835946e+02
9.692361111079e+01
9.298845988883e+01
1.724910372474e+02
1.536705566614e+02
5.374246064724e+01
1.168691607226e+02
8.004165291784e+01
5.971685103117e+01
1.750441979822e+02
1.453691346566e+02
1.724640090000e+02
2.516959329192e+01
1.518485291749e+01
1.769928447399e+02
1.589448658107e+02
6.848267040918e+01
1.602280931913e+02
5.629142875832e+01
7.631526663803e+01
1.668725445206e+01
1.805082867886e+02
1.508400092764e+02
8.784043111791e+01
7.846999388359e+01
5.768967433519e+01
1.588312368820e+02
2.198963318725e+01
1.516552160966e+02
1.776360440295e+02
1.534083570615e+02
1.808195047882e+02
5.956818280194e+01
1.696135296759e+02
1.707296367777e+02
7.752184053389e+01
1.529638332476e+02
7.112131204989e+01
3.124346690942e+01
1.589680571952e+02
8.781402972457e+00
7.716921406904e+01
1.803678128609e+02
3.034827602506e+01
9.213068787270e+01
1.582088682291e+02
1.079449447548e+02
1.347034701849e+02
4.348529272095e+01
4.186213542149e+01
1.087295846001e+02
1.717944036670e+02
1.532469846525e+02
1.020999749046e+02
6.232937152827e+01
1.529489671818e+02
9.498710891880e+01
1.561903074149e+02
1.700136972745e+02
4.897969190207e+01
1.161951044706e+02
1.558600568342e+01
1.757369495085e+02
9.898083651155e+01
8.527868989875e+00
3.685325416365e+00
1.298998921970e+01
1.186862808197e+01
2.039607314340e+01
2.133209168281e+01
2.877396228086e+01
2.979687273844e+01
3.754659674721e+01
3.926434223379e+01
4.644916428316e+01
4.775987505688e+01
5.537738873834e+01
5.727465643739e+01
6.448198921652e+01
6.587046405741e+01

SCALARS node_materi_strain_total_average_a_ept float
LOOKUP_TABLE default
1.613124850801e-04
1.952003176464e-03
2.522541921905e-03
3.343454133590e-03
1.953682490819e-04
2.958983968715e-04
3.872931479114e-04
5.030894020583e-04
6.122608101198e-04
7.247798926999e-04
8.401817257365e-04
9.580724881244e-04
1.079794218755e-03
1.204843725442e-03
1.335096042322e-03
1.466300409370e-03
1.589793232344e-03
1.723839648313e-03
1.865135712626e-03
2.004399982348e-03
2.146657190554e-03
2.292382068368e-03
2.433499381189e-03
3.351835741280e-03
3.342815911507e-03
3.343181699395e-03
3.340081758098e-03
3.330829921055e-03
3.331434989837e-03
3.325432007250e-03
3.314638689182e-03
3.309929551554e-03
3.299008961007e-03
3.279930957408e-03
3.269168537638e-03
3.251717366641e-03
3.229011741655e-03
3.202463420197e-03
3.170910556045e-03
3.137704295791e-03
3.105209202883e-03
3.069165100968e-03
3.030034867890e-03
2.983440608821e-03
2.931546921952e-03
2.879291845691e-03
2.824053453944e-03
2.769171378993e-03
2.715980393271e-03
2.660805055813e-03
2.611136378880e-03
2.559889909376e-03
2.521044040081e-03
2.479597487391e-03
2.440554651398e-03
2.412402863914e-03
2.398177018578e-03
2.387768402574e-03
2.380550652976e-03
2.387130972428e-03
2.387963889133e-03
2.398967905380e-03
2.407139854293e-03
2.425286347258e-03
2.450117001989e-03
2.467694225908e-03
2.464222734784e-03
2.495620394699e-03
2.499592487319e-03
2.513307025023e-03
2.525555082776e-03
2.528761237445e-03
2.096947792052e-03
2.239211769410e-03
2.381844902739e-03
2.522509261100e-03
2.666676830088e-03
2.812697285439e-03
2.957197857727e-03
3.102906926041e-03
3.249841155600e-03
-1.295890541681e-03
1.842914752968e-03
-2.316031239173e-04
3.827386762403e-04
7.371024095215e-04
9.044782173655e-04
1.063885002264e-03
1.216550157457e-03
1.370357868983e-03
1.524642940985e-03
1.680463129265e-03
8.764306205646e-04
9.664707128609e-04
1.107986387550e-03
1.248236511871e-03
1.388082778735e-03
1.527905172881e-03
1.667805869267e-03
1.807544368983e-03
1.934240235477e-03
1.942503091609e-03
1.940782598078e-03
1.936483536459e-03
1.952766213357e-03
1.931896858462e-03
1.925524886278e-03
1.921136748319e-03
1.915973621777e-03
1.906294510775e-03
1.896000672557e-03
1.883631224340e-03
1.870583148849e-03
1.857372074488e-03
-1.885279020631e-03
-2.138205092980e-03
-2.187653210855e-03
-1.965813284350e-03
-1.143322861591e-03
-3.531973317621e-04
-5.524266896575e-05
7.167311606067e-05
1.324635447080e-04
1.370620626105e-04
1.435724231268e-04
1.533509130358e-04
1.576118204234e-04
1.635023447137e-04
1.586366666510e-04
1.568115598645e-04
1.561082375174e-04
1.568593598494e-04
1.600067595468e-04
7.213570072143e-04
8.335118957648e-04
9.060420035166e-04
9.502843853080e-04
9.788512647075e-04
9.835429855346e-04
9.806814580864e-04
9.771483553650e-04
9.750118529338e-04
9.705736817301e-04
9.649071218944e-04
9.585420986565e-04
9.519102225155e-04
9.452701335451e-04
9.388294870585e-04
9.327189484503e-04
9.270212624277e-04
9.217856099582e-04
9.170498960069e-04
9.128488203271e-04
9.092233594737e-04
9.062355090835e-04
9.039966308729e-04
9.027559342744e-04
9.031675084617e-04
8.950629682423e-04
8.397923691734e-04
9.038982475564e-04
9.578542440836e-04
9.824589290418e-04
9.972456899116e-04
1.003947556485e-03
1.009438205634e-03
1.011530986092e-03
1.011428627593e-03
1.009693678672e-03
1.006946370550e-03
1.003541025192e-03
9.997908997109e-04
9.959077884290e-04
9.920506212522e-04
9.883255382259e-04
9.848118377873e-04
9.815717402543e-04
9.786568543155e-04
9.761147097158e-04
9.739940900948e-04
9.723519283065e-04
9.712742289208e-04
9.706789296002e-04
9.675000562716e-04
1.108378886115e-03
1.109523631755e-03
1.110191596829e-03
1.110953517942e-03
1.111923463522e-03
1.113087579687e-03
1.114403830453e-03
1.115820223037e-03
1.117269723168e-03
1.118668452726e-03
1.119911092491e-03
1.120863701936e-03
1.121357610156e-03
1.121141195672e-03
1.119912307919e-03
1.117212928202e-03
1.112600244986e-03
1.105124354567e-03
1.094328966071e-03
1.078312404663e-03
1.057794887033e-03
1.023899459405e-03
9.714624028588e-04
1.106132951397e-03
1.150187775488e-03
1.175903861824e-03
1.194802449291e-03
1.210463121871e-03
1.221542042704e-03
1.230172949406e-03
1.236379636005e-03
1.240976689412e-03
1.244220655920e-03
1.246497432291e-03
1.248012080822e-03
1.248959087304e-03
1.249484532723e-03
1.249708296266e-03
1.249731164504e-03
1.249630687446e-03
1.249469507406e-03
1.249286690637e-03
1.249060016951e-03
1.248657816573e-03
1.248361930511e-03
1.388105442699e-03
1.388049093968e-03
1.387850854357e-03
1.387460778871e-03
1.386873992307e-03
1.386038882431e-03
1.384888297962e-03
1.383333658575e-03
1.381308812892e-03
1.378665013908e-03
1.375262171012e-03
1.370909157075e-03
1.365337183242e-03
1.358407185645e-03
1.349500539385e-03
1.338571489381e-03
1.324100498375e-03
1.307476808912e-03
1.287347440509e-03
1.245591589120e-03
1.390043096928e-03
1.429401750846e-03
1.445686392166e-03
1.460423599744e-03
1.473949678953e-03
1.484403013442e-03
1.493467053560e-03
1.500798750819e-03
1.506770751337e-03
1.511680224278e-03
1.515705826678e-03
1.518931751840e-03
1.521537409013e-03
1.523532905775e-03
1.525110708872e-03
1.526274396222e-03
1.527150870368e-03
1.527723003164e-03
1.527896589835e-03
1.667850982485e-03
1.667299691660e-03
1.666209864950e-03
1.664718750753e-03
1.662789505522e-03
1.660200911803e-03
1.657025508040e-03
1.652861587318e-03
1.647758007751e-03
1.641754844711e-03
1.634588397619e-03
1.625946245395e-03
1.615596781989e-03
1.602743256052e-03
1.589511572233e-03
1.576629993561e-03
1.538729458969e-03
1.689593656221e-03
1.725443765145e-03
1.736668324398e-03
1.749858815289e-03
1.761112615134e-03
1.770688670260e-03
1.778310676024e-03
1.785157511954e-03
1.791614476724e-03
1.795709477485e-03
1.799594880664e-03
1.802401660911e-03
1.804831795394e-03
1.806345891890e-03
1.808341966820e-03
1.808704927736e-03
-6.371679057678e-04
3.639563125939e-05
6.246963400497e-04
8.217686085872e-04
9.901509719087e-04
1.151688493893e-03
1.305101820181e-03
1.460068851587e-03
1.615155576632e-03
1.772837468298e-03
1.480435186649e-04
2.367420753152e-03
8.862173284747e-05
-1.337230831481e-03
2.348047774725e-03
8.419034686472e-04
1.273525888523e-03
2.485598843502e-03
1.209176154343e-03
2.685254431526e-03
1.545507858342e-03
2.407772279783e-03
1.643002852416e-04
2.891798895902e-03
1.874943779642e-03
7.865157057286e-04
1.633825255447e-03
3.012572612537e-03
3.146527865075e-03
3.265189251727e-03
3.229221742331e-03
3.207442746636e-03
1.984046061323e-03
2.036961162804e-03
2.068534274737e-03
2.595798834561e-03
2.435181723897e-03
-1.678028963715e-03
1.792880821673e-04
2.069650420666e-03
2.064339010041e-03
4.441835071095e-04
3.065193752202e-03
2.590536462325e-03
2.791548595350e-03
2.413147512736e-03
2.344764748446e-03
-2.284270454958e-04
2.010026539018e-03
2.348597422448e-03
2.880389310895e-03
1.385234737743e-04
1.018083146399e-03
3.294290784858e-03
1.038951555647e-03
5.892957017414e-04
1.379679810175e-03
1.708894386523e-03
-4.575496822154e-04
2.322287940475e-03
2.476218780688e-03
1.782409938816e-04
3.168953362183e-03
1.950681351895e-03
1.988684920843e-03
2.072159636502e-03
2.111321840856e-03
2.201618192623e-03
2.236953146049e-03
2.144611368619e-03
2.270827909028e-03
2.175007561227e-03
2.330504595763e-03
2.302229557449e-03
2.203207166659e-03
2.331239863317e-03
2.229376307028e-03
2.103790433687e-03
2.127122941475e-03
2.003520315430e-03
2.023878351297e-03
2.148970535245e-03
2.042806630781e-03
1.919088679683e-03
1.935240672317e-03
1.812533307488e-03
1.825827602896e-03
1.702999683124e-03
1.713676770275e-03
1.839424369966e-03
1.725234668386e-03
1.598464617225e-03
1.608074077029e-03
1.479022656565e-03
1.486676851931e-03
1.620160562482e-03
1.498335597496e-03
1.359346517065e-03
1.372266084525e-03
1.225827709120e-03
1.242141962486e-03
1.086550132572e-03
1.106816452243e-03
1.265814741484e-03
1.135986007507e-03
9.668735242938e-04
1.004205363025e-03
1.174397812583e-03
1.051550085051e-03
1.220586807314e-03
1.107025078064e-03
9.324887758252e-04
9.985042576601e-04
1.168094756851e-03
1.068440801400e-03
8.964607359585e-04
9.764000595188e-04
1.141416638810e-03
1.056602512380e-03
8.926479760065e-04
9.796923521675e-04
1.137043650746e-03
1.063941426916e-03
9.100274117495e-04
9.970772293189e-04
1.145980733758e-03
1.080266979869e-03
1.225189067406e-03
9.349442444252e-04
1.018772699556e-03
8.777265226322e-04
9.611769975266e-04
1.635846632142e-03
8.253528939494e-04
7.391968710160e-04
9.068444212829e-04
1.040402051408e-03
7.761513553977e-04
8.548316777196e-04
7.295643192437e-04
1.073737007320e-03
2.169623717500e-03
8.043248420358e-04
6.838815532645e-04
6.090997386631e-04
5.690526681987e-04
2.291471914587e-03
2.425030666843e-03
2.380081685791e-03
2.518875255030e-03
2.473652130174e-03
6.377521766937e-04
2.433911360888e-03
2.561542940033e-03
1.799142703710e-03
1.474150883366e-03
1.336805418134e-03
9.288562347581e-04
8.749042945208e-04
9.987549696841e-04
1.293869057595e-03
1.369318353175e-03
1.439944565824e-03
1.512239074650e-03
1.583941109653e-03
1.653832810834e-03
1.583558492957e-03
1.723405462630e-03
1.653921697964e-03
1.725847828979e-03
1.657902143744e-03
1.792595174138e-03
1.723457571558e-03
1.861668668443e-03
1.792361473678e-03
1.654606975730e-03
1.722818099702e-03
1.586587751194e-03
1.381658682467e-03
1.492882428051e-03
1.536048397929e-03
1.642919166714e-03
1.684558484951e-03
1.787559281408e-03
1.827147687426e-03
1.730068132116e-03
2.357315629857e-03
8.245043670074e-04
7.884195530589e-04
6.324007627185e-04
5.984456346738e-04
4.240383900014e-04
3.942071103722e-04
1.940732307972e-04
2.476361850379e-04
-1.173164942539e-05
7.954944591675e-05
-1.949657859386e-04
-7.032550656202e-05
1.853690928707e-03
1.751136918362e-03
1.892547928799e-03
1.859506817963e-03
4.957849756440e-04
1.860741470913e-03
1.799636856884e-03
1.733575014129e-03
1.871259768229e-03
5.277128381631e-04
1.715713685636e-04
3.905032185497e-04
2.612531163833e-03
2.565239285235e-03
1.874943416386e-03
5.917380185898e-04
1.862377767178e-03
-2.783246144702e-04
1.790157032043e-03
1.928205446688e-03
1.515153744320e-03
1.998626909893e-03
1.967615918775e-03
1.890678523200e-04
7.108297272023e-05
-1.713720615651e-04
-5.216841277886e-06
2.194189458705e-04
1.506538930023e-04
-4.802538666294e-05
1.173799532676e-04
2.989508827698e-04
2.645756511342e-04
1.113969501891e-04
2.499117656794e-04
1.999279328764e-03
-4.447637463412e-04
1.981585281522e-03
1.938451518023e-03
1.963214192633e-03
2.706310837896e-03
2.656746825970e-03
2.515500944466e-03
2.605402411763e-03
2.748238478215e-03
2.694951036612e-03
2.552335279160e-03
2.640169569081e-03
2.497819176046e-03
2.584077280261e-03
2.727820971692e-03
2.670238583132e-03
2.526720146962e-03
2.611492785498e-03
2.467981281591e-03
2.551198427865e-03
2.696166520631e-03
4.882240990128e-04
1.778827677518e-03
1.918801638020e-03
9.439060475739e-04
1.064994410825e-03
1.126336315387e-03
1.193984558098e-03
2.633701309233e-03
2.780214219997e-03
1.908480202786e-04
4.172719730611e-04
2.753916586136e-03
1.856642956261e-03
1.719941111062e-03
1.351907791172e-03
1.353149926616e-03
1.227192362573e-03
1.234758330552e-03
1.356008394293e-03
1.103919688314e-03
1.588999495209e-03
2.815142268849e-03
5.288545980121e-04
4.174718109315e-04
1.995209285820e-03
1.634402136660e-03
1.967374936415e-03
1.983596732380e-03
2.097172128248e-03
2.114450719070e-03
2.228519822266e-03
2.245538621050e-03
2.132837799772e-03
2.105701985872e-03
2.264519332289e-03
2.487845849421e-03
1.716650125321e-03
4.314981105444e-04
4.255151193725e-04
1.319177480858e-04
5.410939037241e-04
6.516504140596e-04
2.012412656111e-03
2.360817773191e-03
2.341716765903e-03
1.245590374381e-03
1.361018089457e-03
2.133330313169e-03
2.337274212737e-03
2.411713557095e-03
2.356936171279e-03
4.266057846172e-04
8.778781987517e-06
2.839292059427e-03
5.896160079684e-04
6.189153969468e-04
-5.278787682101e-04
-7.398802435837e-04
2.715286629643e-03
2.861282200832e-03
1.256550537983e-03
1.323382307179e-03
1.952768206081e-03
2.459312616182e-04
2.926986134334e-03
1.689254183344e-03
1.541752952425e-03
1.130083663306e-03
2.529811944238e-04
5.037464919989e-06
4.804058492655e-04
3.696836575606e-04
5.972913069842e-04
2.087407835272e-03
2.892370107173e-03
2.152622343886e-03
2.019234128823e-03
2.284355331607e-03
1.526206329701e-04
2.076361901334e-03
1.922648670216e-03
2.470281372545e-03
2.454218417163e-03
7.689978629084e-04
7.983716952615e-04
6.684414783194e-04
8.391787445331e-04
2.051482642940e-03
9.339831947822e-04
1.884048813666e-03
1.863580476336e-03
1.768839518433e-03
1.469332207609e-03
1.468283631806e-03
7.656846554613e-04
1.454111775448e-03
1.187567446314e-03
1.518254603308e-03
1.366285456291e-03
2.872424757124e-03
2.961327866682e-03
2.384304558903e-03
2.325507392023e-03
3.910798396979e-04
3.166193357942e-04
1.301880414689e-03
2.002312097760e-03
2.848513489907e-03
2.896590434726e-03
2.799139677512e-03
2.029868077122e-03
6.827892618920e-04
1.431322436086e-03
-5.806755518574e-04
1.753394949767e-03
2.976954082066e-04
2.276501629915e-03
2.062739097016e-03
2.134815481642e-03
2.235963768760e-03
1.904166282482e-03
1.772320325213e-03
1.656349226927e-03
1.749873328087e-03
1.659237301690e-03
1.672763671586e-03
1.564465522184e-03
5.950574576882e-04
5.472140355818e-04
2.503680587569e-03
2.393353482486e-03
2.585876448091e-03
2.572137891042e-03
2.262424042696e-03
2.162272297103e-03
7.060359939851e-04
1.365030411977e-03
2.985198171632e-03
1.840292712063e-03
2.135434234596e-03
2.069542802119e-03
-9.490229684295e-04
-6.569889781087e-04
3.009834662535e-03
7.302737057882e-04
8.835077112749e-04
5.565872740361e-04
2.360523832488e-03
2.064343851059e-03
2.204948092370e-03
1.578323572588e-03
3.077000196546e-03
1.796329507002e-03
1.220036267552e-03
1.893123641581e-03
2.934099260568e-03
3.094873249752e-03
2.272749709185e-03
2.212727250017e-03
2.321840755320e-03
-2.945345026023e-04
-5.431789752716e-04
2.901579063559e-03
8.215962192445e-04
8.975573286298e-04
3.509255468724e-04
4.749456868121e-04
1.319721539675e-03
1.249324102212e-03
2.299312687186e-03
2.408046349883e-03
2.079379305351e-03
1.602335487773e-03
1.452966625156e-03
1.389867280421e-03
3.015526062770e-03
3.120057948741e-03
6.532041936553e-04
5.443187943873e-04
6.971589060316e-04
3.038431660816e-03
2.275024472289e-03
2.205283348637e-03
2.356083976171e-04
2.393701568464e-04
1.205978041112e-04
-1.430145920556e-04
2.939579836342e-03
2.842811883325e-03
3.049495512274e-03
6.423563986935e-04
2.044494164657e-03
2.156336732090e-03
2.108042567598e-03
2.231889418598e-03
2.208659967600e-03
2.330980367792e-03
2.411595110129e-03
-1.182228241732e-03
3.047146679606e-03
2.236410277658e-03
-1.384409819295e-03
2.178976596194e-03
2.263874190225e-03
2.110142692371e-03
5.341688398240e-04
2.163516251410e-03
2.233819654235e-03
1.590495030208e-04
3.131286474522e-03
2.158553921415e-04
2.722415422882e-04
2.207318073134e-03
2.137710722637e-03
2.268925562248e-03
2.199639417842e-03
2.067592730550e-03
2.139065555468e-03
2.150037534312e-03
2.291303821491e-03
2.213183541369e-03
2.367619557961e-03
1.555827666187e-03
9.853331115539e-04
1.020673433748e-03
9.371504196709e-04
2.727599770699e-03
2.678315038620e-03
1.992406931560e-03
1.852665585848e-03
2.192984847424e-03
2.189148523965e-03
2.317215236683e-03
2.302725378825e-03
2.431993734589e-03
2.414623882461e-03
2.547338436409e-03
2.532711917196e-03
6.418658642368e-04
1.729271241222e-03
2.286117984494e-03
2.182868112935e-03
1.465827058429e-03
1.369631433425e-03
2.226855705529e-03
9.198036588960e-04
3.202230654475e-03
-1.320151626605e-03
-9.975121368797e-04
1.073478755093e-03
1.572232758605e-03
1.119655592351e-03
1.143366025928e-03
1.749538364690e-03
1.691335673593e-04
3.502149113613e-04
2.560599808630e-03
2.514251414991e-04
1.928329759436e-03
9.240155206168e-04
1.583767241889e-03
4.744958881761e-04
9.603893414850e-04
2.078526273053e-03
2.022022704005e-03
1.931601455999e-03
9.402050710682e-04
1.262383738667e-03
1.164131561961e-03
1.902175639639e-03
2.701004931396e-03
2.741776224937e-03
2.878937828065e-03
2.778949160055e-03
2.640449700670e-03
2.676124651236e-03
2.817082981662e-03
2.713270073312e-03
2.878308355378e-03
2.742043978669e-03
2.601237676137e-03
2.626396453491e-03
2.753748180833e-03
2.490002852616e-03
2.378551947593e-03
1.217503845565e-03
-8.811251073647e-04
-6.055309129928e-04
1.693435121814e-03
3.045449497415e-03
3.115858097892e-03
5.831136147250e-04
2.840767397946e-03
1.957492251950e-03
-6.030024064921e-05
2.738819554752e-03
2.602177468743e-03
2.501880953537e-03
2.464470538225e-03
3.171935694492e-03
2.374403327043e-03
2.544123390883e-03
1.605069169547e-03
1.569969467987e-03
1.419950056838e-03
2.570234199510e-03
2.387167732385e-03
2.276044382516e-03
2.258312882155e-03
2.151705233858e-03
2.352628129049e-03
2.984532262689e-03
2.946163504513e-03
3.537658529503e-04
4.297941106132e-04
6.237392169565e-04
5.216555515098e-04
3.081177270905e-04
4.207034236281e-04
6.287931998693e-04
3.265161037368e-04
2.543913939791e-03
2.345058973186e-03
1.513461630685e-03
1.441390303519e-03
1.290979778565e-03
1.115812767131e-03
1.175902377806e-03
1.312170845467e-03
1.056930455862e-03
2.000578748512e-03
2.345106956562e-03
1.484869513684e-03
1.099017917914e-03
1.998045823611e-03
2.107457684863e-03
2.090292789875e-03
2.227589120748e-03
2.136208494957e-03
1.387762158025e-03
1.453665492363e-03
1.387949588225e-03
1.517860382842e-03
1.447711393443e-03
1.328565469027e-03
1.578426008168e-03
1.496572682527e-03
2.022236171600e-03
-6.727374173667e-04
-4.119956715311e-04
-1.632651145014e-04
-2.406249107557e-04
-4.331560405318e-04
-2.183990386106e-04
-3.853964312235e-04
-7.676246015768e-04
-6.052324707702e-05
-2.519277114169e-05
4.453929760890e-05
6.123403533180e-05
5.312525416921e-05
3.341685395446e-04
2.426986415055e-03
1.139919377067e-03
1.076690804877e-03
9.608598609968e-04
1.016772543787e-03
1.187988155325e-03
9.001827471057e-04
8.549689089067e-04
1.812319797515e-04
2.557665537604e-04
2.511867240114e-04
3.436382161092e-04
3.392227501874e-04
2.540896937110e-04
2.480920605265e-04
1.761732641879e-04
2.408812704128e-04
3.276639970726e-04
1.703049805412e-04
2.740696510426e-03
2.819574886853e-03
2.353345911094e-03
2.057471409114e-03
1.119173150059e-04
3.246478197045e-03
3.251701595827e-03
3.263119135094e-03
2.215142477622e-03
2.284544248512e-03
3.257528430077e-03
6.497471532010e-04
2.914616682760e-03
2.987654821916e-03
-5.191628892369e-05
5.081284451837e-04
1.785387260217e-03
1.585629984615e-03
2.066647134293e-03
1.653802928030e-03
1.930675513584e-03
2.237125063754e-03
4.923697887856e-04
2.441383682195e-03
2.407792786903e-03
2.756223820567e-03
7.538464809780e-04
1.264092854147e-03
4.621059175062e-04
2.652389546030e-03
1.785221400694e-03
1.216378903734e-03
9.839517991934e-04
6.927874972094e-04
3.959888942630e-04
1.353359994332e-03
1.160403925378e-03
1.793930024838e-03
2.841719363216e-03
1.575583477933e-04
1.865513414388e-03
1.442995651592e-03
2.464111463866e-03
1.926788767646e-03
-4.102782803858e-05
2.784003029959e-03
2.987080783628e-03
2.286137147109e-03
3.634970974476e-04
2.297505680664e-03
2.143918622077e-03
2.657925188827e-03
7.033118980227e-04
1.272969675493e-03
1.590551450427e-03
1.792391924953e-03
3.044440531118e-03
1.515319504776e-03
2.008605972379e-03
1.583457951740e-03
7.664620051922e-04
2.000591156954e-03
1.298007345439e-03
2.929045400930e-03
2.209776666948e-03
8.732637461645e-04
2.799359197575e-03
1.215433933512e-03
2.029384379104e-03
1.683968432615e-03
1.951292229446e-03
2.253166245441e-03
1.738273299559e-03
1.714554499848e-03
1.932514812232e-03
-3.348987628646e-04
1.088465176625e-03
2.426051024750e-03
2.373123671481e-03
3.074112217815e-03
1.471166649390e-03
1.930753053961e-03
2.941064530988e-03
1.237635450144e-03
5.646034982293e-04
-2.468276067733e-04
4.761907050497e-04
1.392232222194e-03
1.376402147982e-03
2.996445723341e-03
1.999668235095e-03
1.812055565074e-03
-1.267718052313e-04
1.817000205540e-03
2.069493234769e-03
1.329880579382e-03
2.059205531689e-03
1.374333133255e-03
2.599242723263e-03
1.464749844463e-03
2.141276533943e-03
1.834639414922e-03
7.582569891194e-04
2.067535278694e-03
2.302190066926e-03
1.973701756605e-03
1.869165444256e-03
1.232634569734e-03
1.627447921745e-03
1.448600868324e-03
2.060965921621e-03
3.194467429069e-03
2.049556203533e-03
2.366783268143e-03
1.383447004527e-03
1.826101556820e-03
3.343910762661e-04
1.644211910566e-03
1.452530956474e-03
5.467788371294e-04
1.299867611819e-03
2.359544565078e-03
1.519973137349e-03
7.468575619595e-04
1.585792824395e-03
1.464258798076e-03
2.401799301056e-03
1.650548495411e-03
2.189699223454e-03
3.251194700726e-04
1.886253264802e-03
2.136137658117e-03
7.902306958030e-04
1.369411025590e-03
2.537542335072e-03
1.296729163117e-03
1.519700967538e-03
2.321327078377e-03
1.908312972951e-03
1.539392685716e-03
1.667582121344e-03
1.276347192104e-03
5.650453086891e-04
4.446363765020e-04
8.194037657082e-04
2.433444013888e-03
4.297325474247e-04
2.463349676712e-03
2.470109518738e-04
7.156266147545e-04
2.076295867523e-03
2.460381840815e-03
8.045250116489e-04
6.743994648811e-04
7.226690741018e-04
1.683478943677e-03
8.189072110634e-04
7.539345666732e-04
3.131671384163e-03
8.472931098738e-04
3.284498313643e-03
2.447732595263e-03
2.177085896106e-03
1.131058768174e-03
-1.741789072946e-03
1.056614092054e-03
6.477196012360e-04
2.382227639034e-03
2.182029029753e-03
6.043296423033e-04
2.873999528008e-03
2.638017134140e-03
2.669730753610e-03
2.088663137588e-03
1.937215680573e-03
3.016093498064e-03
2.047438612951e-03
1.074167041643e-04
1.787578828866e-03
9.436658314651e-04
7.894923071880e-04
4.669212979151e-04
8.155161983164e-04
-6.903866934658e-05
7.300824118420e-04
2.287938384409e-03
2.148480542715e-03
2.178857649218e-03
4.209917483475e-04
3.080074057813e-03
2.451772104546e-03
2.390478137736e-03
2.310508693006e-03
-1.015833585642e-05
2.218002697981e-03
2.699145680638e-03
2.781786482410e-03
2.422081499269e-03
2.111717010796e-03
3.160631153636e-03
-4.033635453573e-04
3.167075549969e-03
2.516250661209e-03
2.349910108239e-03
2.176478853232e-03
2.348703995677e-03
2.944215290920e-03
-3.435116709136e-04
2.659422503878e-03
1.010136066859e-03
-1.124978552121e-03
2.253595701241e-03
2.647377956318e-03
2.326863194862e-03
3.429505174597e-04
1.721554239067e-04
2.261259939807e-03
2.811554694599e-03
-1.971147500350e-04
3.257717138106e-03
-7.697282680422e-04
2.022932671357e-03
2.249347960509e-04
2.438367728620e-03
3.138597061710e-03
1.128882130038e-03
1.971358429417e-03
7.484642765014e-04
2.478535013406e-03
1.060373295758e-04
3.166178639259e-03
2.265982045386e-03
3.058652475071e-03
2.483704931534e-03
-1.319668274924e-03
2.526982570610e-03
2.161581120743e-03
2.051364069284e-03
2.995049884742e-03
9.112634874550e-04
4.024265802682e-04
3.302831848547e-03
1.735866512885e-04
2.049398432725e-03
2.482864216985e-03
4.042960387241e-04
2.281278789402e-03
2.858904618142e-03
1.408127687358e-03
2.932147744269e-03
-1.110906542761e-04
-1.770640458844e-03
2.536020621153e-03
2.433155085462e-03
3.104753759422e-03
2.430434528827e-03
-3.499004594818e-04
2.753072775408e-03
1.222661872327e-03
2.584875218971e-03
2.195930558794e-03
-8.994516290901e-04
1.521749920467e-03
2.057186845361e-04
2.309943155877e-03
1.280650587824e-03
7.844957353235e-04
8.978288397955e-04
8.720940882181e-04
1.033158169564e-03
1.019129442064e-03
1.182728684899e-03
1.162260343012e-03
1.313695962556e-03
1.308895392743e-03
1.462513834253e-03
1.457664789789e-03
1.593487812083e-03
1.609358522483e-03
1.742523356197e-03
1.762547144837e-03
1.873564145551e-03

SCALARS node_materi_strain_total_size_dev_sd_ept float
LOOKUP_TABLE default
6.199959825089e-04
5.321330559430e-03
6.209816476998e-03
8.227552311341e-03
3.670904896004e-04
4.217679964090e-04
8.170617715529e-04
1.276855769695e-03
1.705904047172e-03
2.091896300873e-03
2.450627035187e-03
2.784636050475e-03
3.098962906156e-03
3.405342873717e-03
3.713052507415e-03
4.004930260460e-03
4.270548047779e-03
4.563678515478e-03
4.868462387605e-03
5.166961390089e-03
5.468687564479e-03
5.770186020408e-03
6.051405319693e-03
8.236539170498e-03
8.220441585875e-03
8.221815535405e-03
8.216363578293e-03
8.202721449290e-03
8.203022984805e-03
8.194052355600e-03
8.176608255695e-03
8.170319899214e-03
8.149617741791e-03
8.121730548495e-03
8.101946552540e-03
8.073099719223e-03
8.031594638707e-03
7.985996519048e-03
7.926248808408e-03
7.867742398776e-03
7.805946236791e-03
7.733561929469e-03
7.650611467084e-03
7.548624216200e-03
7.436676399600e-03
7.312050304806e-03
7.175915389034e-03
7.035147366685e-03
6.886899814107e-03
6.732854790869e-03
6.573194642100e-03
6.416886998007e-03
6.288850717834e-03
6.146514265980e-03
6.001771108067e-03
5.898296845541e-03
5.838851316499e-03
5.793208441078e-03
5.778375166950e-03
5.780105489255e-03
5.796294231864e-03
5.820107009426e-03
5.859895198758e-03
5.916825607195e-03
5.986564366820e-03
6.036875355334e-03
6.043110149655e-03
6.121253641475e-03
6.142301967265e-03
6.176032470796e-03
6.207371235235e-03
6.218498207607e-03
5.664796705903e-03
6.005688246095e-03
6.330110504324e-03
6.638904453717e-03
6.944814797951e-03
7.239555468720e-03
7.524871656008e-03
7.798142512252e-03
8.072452050459e-03
3.702069650263e-03
5.396926925736e-03
3.799430901564e-03
3.549606449744e-03
3.343378123665e-03
3.511583169974e-03
3.729814239804e-03
4.005171888181e-03
4.326735053258e-03
4.671598783572e-03
5.024638360942e-03
2.554912630246e-03
2.761443640525e-03
3.117089453104e-03
3.485302708339e-03
3.855921185130e-03
4.225368249322e-03
4.591003174012e-03
4.948551571183e-03
5.269916872431e-03
5.292306060292e-03
5.299156145266e-03
5.300239543566e-03
5.352008447853e-03
5.319714673444e-03
5.323479114303e-03
5.334883654929e-03
5.354895943032e-03
5.362384158503e-03
5.366691169842e-03
5.371677448863e-03
5.374433759170e-03
5.380540122844e-03
2.972060880820e-03
2.699026839716e-03
2.722664542406e-03
2.763417047369e-03
2.761630509523e-03
1.758899574391e-03
5.199581145676e-04
1.894003921827e-04
4.018156070125e-04
4.414849626137e-04
4.609700817685e-04
5.065590191042e-04
5.516374493759e-04
5.944002645297e-04
5.761207327785e-04
5.632995163430e-04
5.610886312194e-04
5.877822573854e-04
6.194036861709e-04
2.920307292205e-03
2.587716037930e-03
2.405587573254e-03
2.284920763983e-03
2.224645268363e-03
2.213313030406e-03
2.224793593712e-03
2.238181477716e-03
2.252354443020e-03
2.272636944882e-03
2.296668496767e-03
2.322756253225e-03
2.349701075649e-03
2.376593633170e-03
2.402761279295e-03
2.427687734195e-03
2.450979292968e-03
2.472337871021e-03
2.491531118429e-03
2.508348015964e-03
2.522553713084e-03
2.533846606218e-03
2.541840985259e-03
2.546315386503e-03
2.551009678203e-03
2.582522869337e-03
2.934271499624e-03
2.824011566854e-03
2.650860176338e-03
2.590663847360e-03
2.557147792018e-03
2.541945127548e-03
2.536378450542e-03
2.539899824275e-03
2.549560876739e-03
2.563314615197e-03
2.579682526440e-03
2.597500446639e-03
2.615908965424e-03
2.634234776971e-03
2.651937399052e-03
2.668604732433e-03
2.683930431924e-03
2.697674720908e-03
2.709638741491e-03
2.719657189503e-03
2.727626091558e-03
2.733619480827e-03
2.738534338196e-03
2.746878718828e-03
2.758615494942e-03
3.118042618724e-03
3.114678437118e-03
3.110096078371e-03
3.105731924909e-03
3.101201267852e-03
3.096060744516e-03
3.090090051552e-03
3.083258634916e-03
3.075683698572e-03
3.067558997982e-03
3.059149721063e-03
3.050792200919e-03
3.042995666292e-03
3.036395700027e-03
3.031782478360e-03
3.029990818186e-03
3.032490759866e-03
3.040557074809e-03
3.057380097441e-03
3.087269913669e-03
3.137299779084e-03
3.241704314923e-03
3.281911705909e-03
3.605109359264e-03
3.606159737037e-03
3.546031122650e-03
3.519333528861e-03
3.501496519924e-03
3.488229139648e-03
3.479852282704e-03
3.474445443945e-03
3.471651830627e-03
3.470748600427e-03
3.471078283099e-03
3.472061501440e-03
3.473483061014e-03
3.475141442463e-03
3.476832905206e-03
3.478405100585e-03
3.479846137416e-03
3.481334626232e-03
3.483067481249e-03
3.485022539060e-03
3.486166198054e-03
3.485472472366e-03
3.855991384887e-03
3.856708569693e-03
3.857113217617e-03
3.857793830497e-03
3.859023838006e-03
3.860835865841e-03
3.863058866131e-03
3.865493482161e-03
3.868250150829e-03
3.871600937375e-03
3.875568937069e-03
3.880056327723e-03
3.884995131755e-03
3.891326967696e-03
3.899291353293e-03
3.909529031601e-03
3.920441523324e-03
3.933621383187e-03
3.969330245922e-03
3.934076357815e-03
4.278883098223e-03
4.334841937002e-03
4.313472179000e-03
4.305512851365e-03
4.297398465668e-03
4.289070261904e-03
4.282121858377e-03
4.274489541126e-03
4.266884912520e-03
4.259528616346e-03
4.253173257853e-03
4.247560498007e-03
4.241947131470e-03
4.237013977189e-03
4.232928510263e-03
4.229837285214e-03
4.227565376322e-03
4.226364092378e-03
4.225877244045e-03
4.592406468034e-03
4.592900311132e-03
4.595556023026e-03
4.599885715394e-03
4.604764951370e-03
4.611426483392e-03
4.618783069659e-03
4.626747944875e-03
4.633880965912e-03
4.643158494358e-03
4.652485116142e-03
4.660861685832e-03
4.669032454801e-03
4.673565764041e-03
4.678767608385e-03
4.698925010059e-03
4.636254721958e-03
4.989028020965e-03
5.055127401004e-03
5.040475900263e-03
5.033416180525e-03
5.026972020293e-03
5.018754484817e-03
5.008475697271e-03
4.999360091173e-03
4.990140897320e-03
4.981101849471e-03
4.972866038434e-03
4.965664855357e-03
4.961047159974e-03
4.955069413719e-03
4.954883209084e-03
4.957694540531e-03
4.216396503511e-03
3.789698200287e-03
3.439160518941e-03
3.516489809117e-03
3.661724982359e-03
3.903892368502e-03
4.203654163930e-03
4.534162728094e-03
4.882194451422e-03
5.232523214952e-03
3.934422367714e-03
5.603893407963e-03
2.686766846407e-04
3.269762418985e-03
5.590933068967e-03
3.830499519870e-03
3.564380406756e-03
6.077344304233e-03
4.152813693634e-03
6.785422199449e-03
4.796505409310e-03
5.862115145733e-03
3.343566967226e-04
7.381161929743e-03
5.509376998807e-03
2.290630886972e-03
4.360865309677e-03
7.674972766118e-03
7.930656875346e-03
8.107485486257e-03
8.058754729627e-03
8.031926512954e-03
5.682749808442e-03
5.673903543280e-03
5.671301168472e-03
6.795086271968e-03
5.998319491303e-03
3.282688778528e-03
3.780257090067e-04
5.299791562236e-03
5.609017811811e-03
1.050873930750e-03
7.790001620221e-03
6.466241914520e-03
7.110529427545e-03
5.781769354439e-03
5.544312923413e-03
1.776180201341e-03
5.673570538356e-03
5.644775852852e-03
7.379152967538e-03
2.088177936976e-04
2.943579554562e-03
8.155551158741e-03
3.966948107111e-03
3.836267574721e-03
4.461350237572e-03
5.148644369925e-03
4.168165424835e-03
6.193847188530e-03
6.117754860500e-03
4.151093134363e-04
7.917996998816e-03
5.672977572391e-03
5.780548505319e-03
5.947992403044e-03
6.058788467538e-03
6.242666224231e-03
6.328025638146e-03
6.139033217192e-03
6.397233002675e-03
6.196701001408e-03
6.513278217219e-03
6.446720311182e-03
6.233051612900e-03
6.475792201708e-03
6.247896263506e-03
6.011436537527e-03
6.009328767379e-03
5.781634338757e-03
5.760071483363e-03
5.984205152016e-03
5.711992644562e-03
5.499528025496e-03
5.426618154020e-03
5.229968810405e-03
5.129406749843e-03
4.951572494323e-03
4.820682791147e-03
5.003149278204e-03
4.662692287496e-03
4.502314213740e-03
4.309286753052e-03
4.176145342856e-03
3.943982194883e-03
4.100312535282e-03
3.698781051629e-03
3.569134524335e-03
3.286706277219e-03
3.196264081278e-03
2.874496679913e-03
2.841251794549e-03
2.476142537676e-03
2.571922999485e-03
2.141618857002e-03
2.126057746029e-03
1.766196873395e-03
1.880028570374e-03
1.506270459100e-03
1.735693149545e-03
1.403566952889e-03
1.282277253967e-03
1.241929724545e-03
1.477502799029e-03
1.388564062715e-03
1.301296994447e-03
1.476855729367e-03
1.651862101457e-03
1.742366525874e-03
1.679537202642e-03
1.909840276062e-03
2.046762435343e-03
2.175205905670e-03
2.098048249473e-03
2.314768755475e-03
2.454407882872e-03
2.549897041726e-03
2.735071750695e-03
2.433088887497e-03
2.625170998398e-03
2.509578612721e-03
2.664728063952e-03
3.890835172747e-03
2.529459782724e-03
2.435417353494e-03
2.657676792995e-03
2.839685898825e-03
2.487922881015e-03
2.601029167110e-03
2.388987296096e-03
3.204531811630e-03
5.938023152188e-03
2.495782418043e-03
2.237021339479e-03
2.153905959659e-03
1.942087479386e-03
6.418895347842e-03
6.693625424778e-03
6.586555289650e-03
6.868947689413e-03
6.762839832054e-03
2.040670006824e-03
6.694464384174e-03
6.960756252305e-03
5.299726988163e-03
4.378788372218e-03
2.157752131020e-03
2.736373350061e-03
2.624198929705e-03
2.885453764907e-03
2.675364284776e-03
2.981259373582e-03
2.961815976063e-03
3.277679543414e-03
3.297395242243e-03
3.613287898320e-03
3.580427933574e-03
3.915826693773e-03
3.868503729842e-03
3.668494043231e-03
3.348271039462e-03
4.202706824527e-03
4.140839254634e-03
4.472824829645e-03
4.396560310249e-03
4.081827291076e-03
4.319949673560e-03
4.019761882457e-03
2.102291300707e-03
2.530181108509e-03
2.532793416559e-03
2.950734068871e-03
2.992360293265e-03
3.397674608108e-03
3.466511529757e-03
3.106083513130e-03
6.484309272012e-03
1.879445324287e-03
2.305397755262e-03
2.223588521067e-03
2.671920831983e-03
2.754289489787e-03
3.188723913041e-03
3.424228587947e-03
2.992506457855e-03
3.788913062788e-03
3.337270002520e-03
4.169454362237e-03
3.719560318730e-03
4.858930342884e-03
3.392023246711e-03
3.825929481456e-03
3.839370007086e-03
1.869365095851e-03
4.634969678772e-03
3.756150770070e-03
3.440235326663e-03
3.597282932826e-03
1.696702030475e-03
3.791619537166e-03
3.581457144356e-03
7.037250809789e-03
6.928411389029e-03
3.883344776633e-03
1.813201041320e-03
4.275966069574e-03
4.469942252893e-03
4.541755987306e-03
4.854752520872e-03
3.559286352819e-03
4.263085879510e-03
4.282991692313e-03
2.895865140258e-03
3.244682257441e-03
3.903450630220e-03
3.438743402863e-03
2.837133308872e-03
3.038212403361e-03
3.426647460915e-03
3.077843597801e-03
2.730392384665e-03
2.766098075589e-03
2.866655582019e-03
2.613790628221e-03
4.959757193070e-03
4.637746598856e-03
5.776262546436e-03
4.184134096470e-03
3.949844321242e-03
7.200652215587e-03
7.089924290981e-03
6.807025805154e-03
6.969592440601e-03
7.247647025597e-03
7.127821805625e-03
6.840731690542e-03
6.999666572541e-03
6.703770393086e-03
6.864878174775e-03
7.156023371633e-03
7.023625854642e-03
6.725354402043e-03
6.886377954705e-03
6.581007393827e-03
6.743046755228e-03
7.045303577735e-03
1.435245389488e-03
3.280864653746e-03
3.782497170684e-03
2.772473687586e-03
3.038980778728e-03
3.142447712676e-03
3.315587394877e-03
6.903557039501e-03
7.203358418738e-03
4.067396850089e-03
3.894514271401e-03
7.299953620779e-03
4.747328094612e-03
4.444316867566e-03
4.090136865624e-03
4.288162940226e-03
4.046603232341e-03
4.221605376568e-03
4.433108599987e-03
4.040672088203e-03
3.019087388099e-03
7.310112926774e-03
2.105263020905e-03
1.830261562487e-03
5.057399936635e-03
2.791786919778e-03
5.215278760965e-03
5.088950508376e-03
5.455806479405e-03
5.349727827707e-03
5.722804497008e-03
5.638771781620e-03
5.249908319518e-03
4.697817346759e-03
5.568361038907e-03
6.590876419220e-03
3.443628833653e-03
2.514821279008e-03
1.310626943234e-03
2.456095516020e-03
1.560096238398e-03
1.944895639989e-03
4.341035634450e-03
6.015248222352e-03
6.074449036274e-03
4.333318797744e-03
4.520278705189e-03
4.704407684660e-03
6.473345572133e-03
6.541034560570e-03
6.393598244210e-03
1.099375391524e-03
2.719938634021e-03
7.401908236132e-03
3.497593292627e-03
3.804207575573e-03
4.697272093657e-03
4.639297822185e-03
7.059218485764e-03
7.351761078824e-03
3.403619912640e-03
3.590204320046e-03
4.056849529663e-03
2.307571301433e-03
7.488282426417e-03
3.018275033634e-03
2.542773115244e-03
3.200707902097e-03
4.201888372441e-03
4.333001524084e-03
2.363837362045e-03
2.428507205607e-03
1.707795608533e-03
4.537855292476e-03
7.510796077195e-03
5.167048450868e-03
4.842805569043e-03
5.515610403116e-03
1.979056431158e-03
4.636161186448e-03
4.937167774966e-03
6.358785289377e-03
6.402963392051e-03
3.528152629748e-03
3.806542920184e-03
4.008561001538e-03
4.000871484193e-03
5.944041069835e-03
3.643713188116e-03
5.558079420348e-03
5.539652086427e-03
5.334296403235e-03
4.654248139158e-03
4.714593247341e-03
2.745929179115e-03
2.618686968534e-03
3.214791804638e-03
3.786133211504e-03
2.634679239425e-03
7.433352443472e-03
7.585225712266e-03
6.414700697733e-03
6.260707857455e-03
1.509904296753e-03
1.458932798411e-03
3.011478616114e-03
4.480412937275e-03
7.457255489626e-03
7.548095323790e-03
7.386650255848e-03
4.268118404464e-03
1.803676110277e-03
2.160175312370e-03
4.599589576577e-03
4.306044971123e-03
1.068616385958e-03
6.216674241095e-03
5.243671711018e-03
5.369735761745e-03
5.123222066237e-03
5.604449263794e-03
4.136319833432e-03
3.698770069810e-03
5.297698824983e-03
5.106368146604e-03
5.127249794821e-03
4.912580475840e-03
2.289501663220e-03
2.406706804823e-03
6.357679029351e-03
5.909858682312e-03
6.680162294526e-03
6.715405236162e-03
5.156734231174e-03
4.745446396688e-03
2.079835303720e-03
4.543205465575e-03
7.660959503699e-03
5.489839705699e-03
4.913002475005e-03
4.771437766963e-03
4.512495607463e-03
4.439033641750e-03
7.637977656014e-03
4.096991092124e-03
4.076494858211e-03
4.140127312766e-03
5.899971367155e-03
5.590239866938e-03
5.549497478643e-03
4.880358180617e-03
7.768496376598e-03
3.993832033401e-03
3.807159486191e-03
3.778497899377e-03
7.487481185134e-03
7.794028114551e-03
6.225178800196e-03
6.063292727963e-03
6.365909546499e-03
4.584687328196e-03
4.672348620059e-03
7.461892994878e-03
2.478375549711e-03
2.651651041383e-03
2.186283097970e-03
2.316362412071e-03
3.468575246249e-03
3.258507234294e-03
6.178878039386e-03
6.463210378795e-03
5.555198046330e-03
2.818133115671e-03
2.374957572198e-03
2.090995520619e-03
7.692511252077e-03
7.868667411708e-03
2.080636491193e-03
2.112518141259e-03
2.303896373867e-03
7.762492600970e-03
5.679031151255e-03
5.494253069157e-03
9.689981596718e-04
1.419634720844e-03
4.262894439983e-03
4.367634086935e-03
7.618140604585e-03
7.463746459927e-03
7.795665459913e-03
1.824787696653e-03
4.758449858085e-03
4.755816565646e-03
4.514864456431e-03
5.082728610830e-03
5.112380811461e-03
5.519302014496e-03
5.895885769682e-03
4.391362144292e-03
7.697040485439e-03
6.074398714426e-03
3.983688136400e-03
5.915698654678e-03
6.102350259955e-03
5.737411725760e-03
1.426265685796e-03
5.998066954043e-03
6.194697932244e-03
7.350510164771e-04
7.902060307868e-03
5.819325954943e-04
7.098132543231e-04
5.184247291646e-03
5.041832704385e-03
5.430032457471e-03
5.283569952497e-03
4.920116710474e-03
5.177213086794e-03
5.894546933018e-03
5.570501545974e-03
5.420218769641e-03
5.805534683144e-03
4.870958856757e-03
4.066219462417e-03
4.128964819293e-03
4.001135460502e-03
7.030555520066e-03
6.982844834698e-03
5.118275506346e-03
4.815646173707e-03
5.924961762494e-03
5.900616795986e-03
6.202886002878e-03
6.158876965056e-03
6.454915688402e-03
6.405065720149e-03
6.699533645248e-03
6.316497122912e-03
4.070793376645e-03
5.232821725701e-03
5.220821686502e-03
4.801319660570e-03
4.721255122293e-03
4.512583255802e-03
5.158684146995e-03
3.321018641535e-03
8.023285051256e-03
3.705236019810e-03
4.399545997747e-03
3.539882200162e-03
4.918593762093e-03
4.173996637720e-03
4.232196381339e-03
3.288229067866e-03
1.406553050595e-03
4.204305370336e-03
6.738111960984e-03
4.117974431505e-03
4.997323409889e-03
2.938988170999e-03
4.795230939599e-03
4.089328801890e-03
3.900123157752e-03
5.989376911033e-03
5.875441958018e-03
5.684613132108e-03
2.529301675666e-03
4.383404729269e-03
4.182907036869e-03
5.543990851904e-03
7.217420604468e-03
7.287433849424e-03
7.515313088370e-03
7.343291600289e-03
7.102958019325e-03
7.151557171641e-03
7.387760952297e-03
7.192356229904e-03
7.471487227742e-03
7.210126893594e-03
6.963655765618e-03
6.971303286397e-03
7.198708577185e-03
6.726041717188e-03
5.633116061970e-03
3.512981789881e-03
4.571861957728e-03
4.686084719586e-03
5.049450060336e-03
7.744508249929e-03
7.883819567581e-03
3.110266660268e-03
7.250413018503e-03
5.743169613487e-03
4.125682506319e-03
6.954809549689e-03
7.039282270490e-03
6.849504649455e-03
6.779249012747e-03
7.976137586356e-03
6.509032992195e-03
6.301313633881e-03
2.984733613541e-03
3.086861006467e-03
2.787328436497e-03
6.940977851724e-03
5.687733251543e-03
5.179649601731e-03
5.113245971545e-03
4.664982992832e-03
5.552569527974e-03
7.603964666232e-03
7.511285686498e-03
2.542791821843e-03
2.258927055558e-03
1.803714515213e-03
1.929723751483e-03
2.527016894658e-03
2.189599085650e-03
1.633011722768e-03
2.560160313426e-03
6.722540706728e-03
5.547684295688e-03
2.969762287867e-03
2.632878636788e-03
2.299771969760e-03
3.025515693728e-03
3.044977520031e-03
3.278129469913e-03
2.973179469845e-03
4.960204798351e-03
5.563209969756e-03
2.315468356116e-03
2.831670039318e-03
5.684637197142e-03
5.963841587987e-03
5.964225957657e-03
6.255585820397e-03
5.997277895020e-03
3.672538298582e-03
3.866425554166e-03
3.767114843095e-03
4.048256333108e-03
3.925716140837e-03
3.661741482919e-03
4.213935421146e-03
4.055734361744e-03
5.673168644943e-03
2.799734011542e-03
3.200417148861e-03
2.300719644165e-03
3.193561097340e-03
3.831427349225e-03
3.549002261477e-03
4.138707703697e-03
3.981065591172e-03
9.292593424828e-04
1.604888110766e-03
4.734863820653e-04
1.125322410691e-03
2.021441541009e-03
1.845827780770e-03
6.003501856922e-03
3.247710979811e-03
3.094170118974e-03
2.796857882891e-03
2.942897156396e-03
3.359723193533e-03
2.627257645585e-03
2.503665913015e-03
3.892187009533e-04
3.226730929952e-04
3.079597083776e-04
6.421596128501e-04
6.381068762389e-04
3.254443025641e-04
3.295835709366e-04
3.649873858564e-04
3.433296670762e-04
7.112668881007e-04
3.552661915250e-04
7.096840047366e-03
7.257560184837e-03
5.628917206273e-03
5.692191441215e-03
1.949777952383e-04
8.072041863491e-03
8.092369472569e-03
8.104524849781e-03
5.606103487510e-03
5.737462181163e-03
8.085441996251e-03
2.313090152861e-03
7.568574082988e-03
7.612174611320e-03
4.310753475869e-03
2.417460422910e-03
4.635587960764e-03
3.828296357303e-03
5.173404795394e-03
4.239346481141e-03
4.725706179481e-03
5.046534726750e-03
1.301485896214e-03
6.559891176675e-03
6.430891119748e-03
7.180339314290e-03
2.347369932616e-03
3.496810670018e-03
1.595271045802e-03
6.752671563031e-03
5.335621834105e-03
2.361926339861e-03
2.809000831923e-03
2.409401243338e-03
2.540143346223e-03
3.845028544555e-03
2.792713959658e-03
3.978387073265e-03
7.335482537712e-03
2.360641073284e-04
4.064936662782e-03
3.276377072544e-03
6.678343421722e-03
3.861243505985e-03
3.192789257147e-03
7.282318150091e-03
7.690453018284e-03
6.337279151557e-03
1.173590459357e-03
6.239502177201e-03
4.815431807544e-03
7.134028592572e-03
2.160675574869e-03
1.734416342529e-03
4.667599714751e-03
5.325657153210e-03
7.724594155264e-03
3.459201178078e-03
4.102702791310e-03
2.624651762215e-03
2.296854200101e-03
4.655238690130e-03
2.322648594569e-03
7.552342113822e-03
5.803686844084e-03
1.515755633603e-03
7.357225198410e-03
1.966619613412e-03
4.279550318768e-03
5.109038774403e-03
5.330102933863e-03
6.240689521094e-03
4.487358183712e-03
4.515147664771e-03
4.366595784282e-03
4.381271672656e-03
3.828441973019e-03
6.640673767209e-03
5.945443036601e-03
7.807174930368e-03
4.541015006029e-03
4.555893715274e-03
7.606245060212e-03
3.036987085562e-03
1.531569291105e-03
4.549643016324e-03
2.315711307609e-03
3.017702105124e-03
3.280531874861e-03
7.709442979504e-03
4.818422496026e-03
3.582607713098e-03
3.952796314657e-03
5.417588719890e-03
5.064915881609e-03
1.865314943164e-03
4.333996041025e-03
3.781729265547e-03
6.564139811711e-03
4.689944832393e-03
5.298816443009e-03
3.512776037584e-03
3.166788003656e-03
5.604146306843e-03
5.681932287617e-03
4.018229068911e-03
4.705554303073e-03
1.687068867525e-03
4.970614987397e-03
3.539722631629e-03
5.641646436298e-03
8.009869035149e-03
4.286982984986e-03
6.590005957543e-03
3.511615931962e-03
3.893538075082e-03
6.557429383200e-04
5.052995006851e-03
3.736360217231e-03
1.921748456512e-03
1.974282679192e-03
5.562907236458e-03
3.950054459761e-03
1.468160340227e-03
4.150637430737e-03
4.625688054553e-03
6.652310656691e-03
4.338639893473e-03
5.875729002118e-03
8.086972588277e-04
4.555051157055e-03
5.425770420745e-03
2.384227587441e-03
2.296424808762e-03
6.904647312820e-03
4.303879389184e-03
2.689822181800e-03
6.130309468732e-03
4.426950562899e-03
3.249130236212e-03
3.123091759855e-03
4.356375981715e-03
2.281937092332e-03
2.109949916992e-03
1.287246162872e-03
6.439698718233e-03
1.016104019213e-03
6.718911402176e-03
1.890208963557e-03
1.497360479843e-03
4.716275404589e-03
6.504411917456e-03
1.524994516358e-03
1.926295903775e-03
1.809802730255e-03
3.545558375975e-03
1.920245564508e-03
2.140525867597e-03
7.874781434679e-03
2.266016069009e-03
8.130792506221e-03
6.067678204483e-03
5.858985526512e-03
3.998765965216e-03
3.152301960581e-03
4.121849524779e-03
2.388336803125e-03
6.477773548187e-03
5.873989836605e-03
2.382813342506e-03
7.429745275864e-03
6.633577149551e-03
6.953229155662e-03
4.435725979015e-03
4.337143337925e-03
7.639405162609e-03
5.599985881197e-03
8.386172578355e-04
4.693761523582e-03
3.813514065599e-03
4.037759405822e-03
4.094129106934e-03
2.411721851619e-03
2.526779014929e-03
3.835873725084e-03
5.243310146697e-03
5.932159314025e-03
5.120458348949e-03
3.828324330961e-03
7.836266607672e-03
5.973638278204e-03
5.798811652680e-03
5.509883505622e-03
4.196657656209e-03
6.206404892828e-03
6.915444047932e-03
7.189866253097e-03
5.922413463757e-03
5.903736831426e-03
7.912806106213e-03
4.349479186067e-03
7.917860976977e-03
6.726569681644e-03
6.287103839306e-03
6.167819616619e-03
5.852234566472e-03
7.599433877428e-03
4.393522907361e-03
6.938754771890e-03
2.926474454474e-03
4.227432577795e-03
5.305298566319e-03
6.967422560307e-03
5.772202211008e-03
6.184675188804e-04
4.385610645222e-04
5.240056290498e-03
7.250607636511e-03
3.842146705618e-03
8.109923503135e-03
4.426028799647e-03
5.579766233810e-03
3.412812485802e-04
5.986055653154e-03
7.907497638379e-03
3.215816049960e-03
5.683623284206e-03
2.182179236229e-03
6.213734885866e-03
1.518502422075e-03
7.943474943675e-03
5.191968757192e-03
7.810742359696e-03
6.074413950202e-03
4.134809620692e-03
6.263131204383e-03
4.722341461666e-03
5.587731980023e-03
7.695615306276e-03
2.673241207680e-03
1.083156476831e-03
8.158111317548e-03
4.905381274489e-04
5.554080856681e-03
6.141016230409e-03
9.394938717067e-04
6.103058347190e-03
7.371905386514e-03
3.870121784273e-03
7.477196906140e-03
3.061181062028e-03
3.135131271826e-03
6.670423526542e-03
5.880027459140e-03
7.882255644369e-03
6.460052537730e-03
4.546029232159e-03
7.165098042319e-03
3.425445001324e-03
6.629547509051e-03
4.856112695348e-03
4.143911950205e-03
4.122606484492e-03
3.282878736276e-04
5.586072993552e-03
3.570680795990e-03
2.990827710428e-03
2.606063557729e-03
3.297714562114e-03
2.924901096178e-03
3.542154191083e-03
3.311488649939e-03
3.822334354052e-03
3.659588388775e-03
4.142557962936e-03
4.051649830118e-03
4.483757282004e-03
4.398572455939e-03
4.837699153694e-03
4.783093157725e-03
5.187028321534e-03
5.121884911366e-03


CELL_DATA 2299

SCALARS element_number int
LOOKUP_TABLE default
407
408
409
410
411
412
413
414
415
416
417
418
419
420
421
422
423
424
425
426
427
428
429
430
431
432
433
434
435
436
437
438
439
440
441
442
443
444
445
446
447
448
449
450
451
452
453
454
455
456
457
458
459
460
461
462
463
464
465
466
467
468
469
470
471
472
473
474
475
476
477
478
479
480
481
482
483
484
485
486
487
488
489
490
491
492
493
494
495
496
497
498
499
500
501
502
503
504
505
506
507
508
509
510
511
512
513
514
515
516
517
518
519
520
521
522
523
524
525
526
527
528
529
530
531
532
533
534
535
536
537
538
539
540
541
542
543
544
545
546
547
548
549
550
551
552
553
554
555
556
557
558
559
560
561
562
563
564
565
566
567
568
569
570
571
572
573
574
575
576
577
578
579
580
581
582
583
584
585
586
587
588
589
590
591
592
593
594
595
596
597
598
599
600
601
602
603
604
605
606
607
608
609
610
611
612
613
614
615
616
617
618
619
620
621
622
623
624
625
626
627
628
629
630
631
632
633
634
635
636
637
638
639
640
641
642
643
644
645
646
647
648
649
650
651
652
653
654
655
656
657
658
659
660
661
662
663
664
665
666
667
668
669
670
671
672
673
674
675
676
677
678
679
680
681
682
683
684
685
686
687
688
689
690
691
692
693
694
695
696
697
698
699
700
701
702
703
704
705
706
707
708
709
710
711
712
713
714
715
716
717
718
719
720
721
722
723
724
725
726
727
728
729
730
731
732
733
734
735
736
737
738
739
740
741
742
743
744
745
746
747
748
749
750
751
752
753
754
755
756
757
758
759
760
761
762
763
764
765
766
767
768
769
770
771
772
773
774
775
776
777
778
779
780
781
782
783
784
785
786
787
788
789
790
791
792
793
794
795
796
797
798
799
800
801
802
803
804
805
806
807
808
809
810
811
812
813
814
815
816
817
818
819
820
821
822
823
824
825
826
827
828
829
830
831
832
833
834
835
836
837
838
839
840
841
842
843
844
845
846
847
848
849
850
851
852
853
854
855
856
857
858
859
860
861
862
863
864
865
866
867
868
869
870
871
872
873
874
875
876
877
878
879
880
881
882
883
884
885
886
887
888
889
890
891
892
893
894
895
896
897
898
899
900
901
902
903
904
905
906
907
908
909
910
911
912
913
914
915
916
917
918
919
920
921
922
923
924
925
926
927
928
929
930
931
932
933
934
935
936
937
938
939
940
941
942
943
944
945
946
947
948
949
950
951
952
953
954
955
956
957
958
959
960
961
962
963
964
965
966
967
968
969
970
971
972
973
974
975
976
977
978
979
980
981
982
983
984
985
986
987
988
989
990
991
992
993
994
995
996
997
998
999
1000
1001
1002
1003
1004
1005
1006
1007
1008
1009
1010
1011
1012
1013
1014
1015
1016
1017
1018
1019
1020
1021
1022
1023
1024
1025
1026
1027
1028
1029
1030
1031
1032
1033
1034
1035
1036
1037
1038
1039
1040
1041
1042
1043
1044
1045
1046
1047
1048
1049
1050
1051
1052
1053
1054
1055
1056
1057
1058
1059
1060
1061
1062
1063
1064
1065
1066
1067
1068
1069
1070
1071
1072
1073
1074
1075
1076
1077
1078
1079
1080
1081
1082
1083
1084
1085
1086
1087
1088
1089
1090
1091
1092
1093
1094
1095
1096
1097
1098
1099
1100
1101
1102
1103
1104
1105
1106
1107
1108
1109
1110
1111
1112
1113
1114
1115
1116
1117
1118
1119
1120
1121
1122
1123
1124
1125
1126
1127
1128
1129
1130
1131
1132
1133
1134
1135
1136
1137
1138
1139
1140
1141
1142
1143
1144
1145
1146
1147
1148
1149
1150
1151
1152
1153
1154
1155
1156
1157
1158
1159
1160
1161
1162
1163
1164
1165
1166
1167
1168
1169
1170
1171
1172
1173
1174
1175
1176
1177
1178
1179
1180
1181
1182
1183
1184
1185
1186
1187
1188
1189
1190
1191
1192
1193
1194
1195
1196
1197
1198
1199
1200
1201
1202
1203
1204
1205
1206
1207
1208
1209
1210
1211
1212
1213
1214
1215
1216
1217
1218
1219
1220
1221
1222
1223
1224
1225
1226
1227
1228
1229
1230
1231
1232
1233
1234
1235
1236
1237
1238
1239
1240
1241
1242
1243
1244
1245
1246
1247
1248
1249
1250
1251
1252
1253
1254
1255
1256
1257
1258
1259
1260
1261
1262
1263
1264
1265
1266
1267
1268
1269
1270
1271
1272
1273
1274
1275
1276
1277
1278
1279
1280
1281
1282
1283
1284
1285
1286
1287
1288
1289
1290
1291
1292
1293
1294
1295
1296
1297
1298
1299
1300
1301
1302
1303
1304
1305
1306
1307
1308
1309
1310
1311
1312
1313
1314
1315
1316
1317
1318
1319
1320
1321
1322
1323
1324
1325
1326
1327
1328
1329
1330
1331
1332
1333
1334
1335
1336
1337
1338
1339
1340
1341
1342
1343
1344
1345
1346
1347
1348
1349
1350
1351
1352
1353
1354
1355
1356
1357
1358
1359
1360
1361
1362
1363
1364
1365
1366
1367
1368
1369
1370
1371
1372
1373
1374
1375
1376
1377
1378
1379
1380
1381
1382
1383
1384
1385
1386
1387
1388
1389
1390
1391
1392
1393
1394
1395
1396
1397
1398
1399
1400
1401
1402
1403
1404
1405
1406
1407
1408
1409
1410
1411
1412
1413
1414
1415
1416
1417
1418
1419
1420
1421
1422
1423
1424
1425
1426
1427
1428
1429
1430
1431
1432
1433
1434
1435
1436
1437
1438
1439
1440
1441
1442
1443
1444
1445
1446
1447
1448
1449
1450
1451
1452
1453
1454
1455
1456
1457
1458
1459
1460
1461
1462
1463
1464
1465
1466
1467
1468
1469
1470
1471
1472
1473
1474
1475
1476
1477
1478
1479
1480
1481
1482
1483
1484
1485
1486
1487
1488
1489
1490
1491
1492
1493
1494
1495
1496
1497
1498
1499
1500
1501
1502
1503
1504
1505
1506
1507
1508
1509
1510
1511
1512
1513
1514
1515
1516
1517
1518
1519
1520
1521
1522
1523
1524
1525
1526
1527
1528
1529
1530
1531
1532
1533
1534
1535
1536
1537
1538
1539
1540
1541
1542
1543
1544
1545
1546
1547
1548
1549
1550
1551
1552
1553
1554
1555
1556
1557
1558
1559
1560
1561
1562
1563
1564
1565
1566
1567
1568
1569
1570
1571
1572
1573
1574
1575
1576
1577
1578
1579
1580
1581
1582
1583
1584
1585
1586
1587
1588
1589
1590
1591
1592
1593
1594
1595
1596
1597
1598
1599
1600
1601
1602
1603
1604
1605
1606
1607
1608
1609
1610
1611
1612
1613
1614
1615
1616
1617
1618
1619
1620
1621
1622
1623
1624
1625
1626
1627
1628
1629
1630
1631
1632
1633
1634
1635
1636
1637
1638
1639
1640
1641
1642
1643
1644
1645
1646
1647
1648
1649
1650
1651
1652
1653
1654
1655
1656
1657
1658
1659
1660
1661
1662
1663
1664
1665
1666
1667
1668
1669
1670
1671
1672
1673
1674
1675
1676
1677
1678
1679
1680
1681
1682
1683
1684
1685
1686
1687
1688
1689
1690
1691
1692
1693
1694
1695
1696
1697
1698
1699
1700
1701
1702
1703
1704
1705
1706
1707
1708
1709
1710
1711
1712
1713
1714
1715
1716
1717
1718
1719
1720
1721
1722
1723
1724
1725
1726
1727
1728
1729
1730
1731
1732
1733
1734
1735
1736
1737
1738
1739
1740
1741
1742
1743
1744
1745
1746
1747
1748
1749
1750
1751
1752
1753
1754
1755
1756
1757
1758
1759
1760
1761
1762
1763
1764
1765
1766
1767
1768
1769
1770
1771
1772
1773
1774
1775
1776
1777
1778
1779
1780
1781
1782
1783
1784
1785
1786
1787
1788
1789
1790
1791
1792
1793
1794
1795
1796
1797
1798
1799
1800
1801
1802
1803
1804
1805
1806
1807
1808
1809
1810
1811
1812
1813
1814
1815
1816
1817
1818
1819
1820
1821
1822
1823
1824
1825
1826
1827
1828
1829
1830
1831
1832
1833
1834
1835
1836
1837
1838
1839
1840
1841
1842
1843
1844
1845
1846
1847
1848
1849
1850
1851
1852
1853
1854
1855
1856
1857
1858
1859
1860
1861
1862
1863
1864
1865
1866
1867
1868
1869
1870
1871
1872
1873
1874
1875
1876
1877
1878
1879
1880
1881
1882
1883
1884
1885
1886
1887
1888
1889
1890
1891
1892
1893
1894
1895
1896
1897
1898
1899
1900
1901
1902
1903
1904
1905
1906
1907
1908
1909
1910
1911
1912
1913
1914
1915
1916
1917
1918
1919
1920
1921
1922
1923
1924
1925
1926
1927
1928
1929
1930
1931
1932
1933
1934
1935
1936
1937
1938
1939
1940
1941
1942
1943
1944
1945
1946
1947
1948
1949
1950
1951
1952
1953
1954
1955
1956
1957
1958
1959
1960
1961
1962
1963
1964
1965
1966
1967
1968
1969
1970
1971
1972
1973
1974
1975
1976
1977
1978
1979
1980
1981
1982
1983
1984
1985
1986
1987
1988
1989
1990
1991
1992
1993
1994
1995
1996
1997
1998
1999
2000
2001
2002
2003
2004
2005
2006
2007
2008
2009
2010
2011
2012
2013
2014
2015
2016
2017
2018
2019
2020
2021
2022
2023
2024
2025
2026
2027
2028
2029
2030
2031
2032
2033
2034
2035
2036
2037
2038
2039
2040
2041
2042
2043
2044
2045
2046
2047
2048
2049
2050
2051
2052
2053
2054
2055
2056
2057
2058
2059
2060
2061
2062
2063
2064
2065
2066
2067
2068
2069
2070
2071
2072
2073
2074
2075
2076
2077
2078
2079
2080
2081
2082
2083
2084
2085
2086
2087
2088
2089
2090
2091
2092
2093
2094
2095
2096
2097
2098
2099
2100
2101
2102
2103
2104
2105
2106
2107
2108
2109
2110
2111
2112
2113
2114
2115
2116
2117
2118
2119
2120
2121
2122
2123
2124
2125
2126
2127
2128
2129
2130
2131
2132
2133
2134
2135
2136
2137
2138
2139
2140
2141
2142
2143
2144
2145
2146
2147
2148
2149
2150
2151
2152
2153
2154
2155
2156
2157
2158
2159
2160
2161
2162
2163
2164
2165
2166
2167
2168
2169
2170
2171
2172
2173
2174
2175
2176
2177
2178
2179
2180
2181
2182
2183
2184
2185
2186
2187
2188
2189
2190
2191
2192
2193
2194
2195
2196
2197
2198
2199
2200
2201
2202
2203
2204
2205
2206
2207
2208
2209
2210
2211
2212
2213
2214
2215
2216
2217
2218
2219
2220
2221
2222
2223
2224
2225
2226
2227
2228
2229
2230
2231
2232
2233
2234
2235
2236
2237
2238
2239
2240
2241
2242
2243
2244
2245
2246
2247
2248
2249
2250
2251
2252
2253
2254
2255
2256
2257
2258
2259
2260
2261
2262
2263
2264
2265
2266
2267
2268
2269
2270
2271
2272
2273
2274
2275
2276
2277
2278
2279
2280
2281
2282
2283
2284
2285
2286
2287
2288
2289
2290
2291
2292
2293
2294
2295
2296
2297
2298
2299
2300
2301
2302
2303
2304
2305
2306
2307
2308
2309
2310
2311
2312
2313
2314
2315
2316
2317
2318
2319
2320
2321
2322
2323
2324
2325
2451
2452
2453
2454
2455
2456
2457
2458
2459
2460
2461
2462
2463
2464
2465
2466
2467
2468
2469
2470
2471
2472
2473
2474
2475
2476
2477
2478
2479
2480
2481
2482
2483
2484
2485
2486
2487
2488
2489
2490
2491
2492
2493
2494
2495
2496
2497
2498
2499
2500
2501
2502
2503
2504
2505
2506
2507
2508
2509
2510
2511
2512
2513
2514
2515
2516
2517
2518
2519
2520
2521
2522
2523
2524
2525
2526
2527
2528
2529
2530
2531
2532
2533
2534
2535
2536
2537
2538
2539
2540
2541
2542
2543
2544
2545
2546
2547
2548
2549
2550
2551
2552
2553
2554
2555
2556
2557
2558
2559
2560
2561
2562
2563
2564
2565
2566
2567
2568
2569
2570
2571
2572
2573
2574
2575
2576
2577
2578
2579
2580
2581
2582
2583
2584
2585
2586
2587
2588
2589
2590
2591
2592
2593
2594
2595
2596
2597
2598
2599
2600
2601
2602
2603
2604
2605
2606
2607
2608
2609
2610
2611
2612
2613
2614
2615
2616
2617
2618
2619
2620
2621
2622
2623
2624
2625
2626
2627
2628
2629
2630
2631
2632
2633
2634
2635
2636
2637
2638
2639
2640
2641
2642
2643
2644
2645
2646
2647
2648
2649
2650
2651
2652
2653
2654
2655
2656
2657
2658
2659
2660
2661
2662
2663
2664
2665
2666
2667
2668
2669
2670
2671
2672
2673
2674
2675
2676
2677
2678
2679
2680
2681
2682
2683
2684
2685
2686
2687
2688
2689
2690
2691
2692
2693
2694
2695
2696
2697
2698
2699
2700
2701
2702
2703
2704
2705
2706
2707
2708
2709
2710
2711
2712
2713
2714
2715
2716
2717
2718
2719
2720
2721
2722
2723
2724
2725
2726
2727
2728
2729
2730
2731
2732
2733
2734
2735
2736
2737
2738
2739
2740
2741
2742
2743
2744
2745
2746
2747
2748
2749
2750
2751
2752
2753
2754
2755
2756
2757
2758
2759
2760
2761
2762
2763
2764
2765
2766
2767
2768
2769
2770
2771
2772
2773
2774
2775
2776
2777
2778
2779
2780
2781
2782
2783
2784
2785
2786
2787
2788
2789
2790
2791
2792
2793
2794
2795
2796
2797
2798
2799
2800
2801
2802
2803
2804
2805
2806
2807
2808
2809
2810
2811
2812
2813
2814
2815
2816
2817
2818
2819
2820
2821
2822
2823
2824
2825
2826
2827
2828
2829
2830

SCALARS element_group int
LOOKUP_TABLE default
0
0
0
0
0
0
0
0
0
0
0
0
0
0
0
0
0
0
0
0
0
0
0
0
0
0
0
0
0
0
0
0
0
0
0
0
0
0
0
0
0
0
0
0
0
0
0
0
0
0
0
0
0
0
0
0
0
0
0
0
0
0
0
0
0
0
0
0
0
0
0
0
0
0
0
0
0
0
0
0
0
0
0
0
0
0
0
0
0
0
0
0
0
0
0
0
0
0
0
0
0
0
0
0
0
0
0
0
0
0
0
0
0
0
0
0
0
0
0
0
0
0
0
0
0
0
0
0
0
0
0
0
0
0
0
0
0
0
0
0
0
0
0
0
0
0
0
0
0
0
0
0
0
0
0
0
0
0
0
0
0
0
0
0
0
0
0
0
0
0
0
0
0
0
0
0
0
0
0
0
0
0
0
0
0
0
0
0
0
0
0
0
0
0
0
0
0
0
0
0
0
0
0
0
0
0
0
0
0
0
0
0
0
0
0
0
0
0
0
0
0
0
0
0
0
0
0
0
0
0
0
0
0
0
0
0
0
0
0
0
0
0
0
0
0
0
0
0
0
0
0
0
0
0
0
0
0
0
0
0
0
0
0
0
0
0
0
0
0
0
0
0
0
0
0
0
0
0
0
0
0
0
0
0
0
0
0
0
0
0
0
0
0
0
0
0
0
0
0
0
0
0
0
0
0
0
0
0
0
0
0
0
0
0
0
0
0
0
0
0
0
0
0
0
0
0
0
0
0
0
0
0
0
0
0
0
0
0
0
0
0
0
0
0
0
0
0
0
0
0
0
0
0
0
0
0
0
0
0
0
0
0
0
0
0
0
0
0
0
0
0
0
0
0
0
0
0
0
0
0
0
0
0
0
0
0
0
0
0
0
0
0
0
0
0
0
0
0
0
0
0
0
0
0
0
0
0
0
0
0
0
0
0
0
0
0
0
0
0
0
0
0
0
0
0
0
0
0
0
0
0
0
0
0
0
0
0
0
0
0
0
0
0
0
0
0
0
0
0
0
0
0
0
0
0
0
0
0
0
0
0
0
0
0
0
0
0
0
0
0
0
0
0
0
0
0
0
0
0
0
0
0
0
0
0
0
0
0
0
0
0
0
0
0
0
0
0
0
0
0
0
0
0
0
0
0
0
0
0
0
0
0
0
0
0
0
0
0
0
0
0
0
0
0
0
0
0
0
0
0
0
0
0
0
0
0
0
0
0
0
0
0
0
0
0
0
0
0
0
0
0
0
0
0
0
0
0
0
0
0
0
0
0
0
0
0
0
0
0
0
0
0
0
0
0
0
0
0
0
0
0
0
0
0
0
0
0
0
0
0
0
0
0
0
0
0
0
0
0
0
0
0
0
0
0
0
0
0
0
0
0
0
0
0
0
0
0
0
0
0
0
0
0
0
0
0
0
0
0
0
0
0
0
0
0
0
0
0
0
0
0
0
0
0
0
0
0
0
0
0
0
0
0
0
0
0
0
0
0
0
0
0
0
0
0
0
0
0
0
0
0
0
0
0
0
0
0
0
0
0
0
0
0
0
0
0
0
0
0
0
0
0
0
0
0
0
0
0
0
0
0
0
0
0
0
0
0
0
0
0
0
0
0
0
0
0
0
0
0
0
0
0
0
0
0
0
0
0
0
0
0
0
0
0
0
0
0
0
0
0
0
0
0
0
0
0
0
0
0
0
0
0
0
0
0
0
0
0
0
0
0
0
0
0
0
0
0
0
0
0
0
0
0
0
0
0
0
0
0
0
0
0
0
0
0
0
0
0
0
0
0
0
0
0
0
0
0
0
0
0
0
0
0
0
0
0
0
0
0
0
0
0
0
0
0
0
0
0
0
0
0
0
0
0
0
0
0
0
0
0
0
0
0
0
0
0
0
0
0
0
0
0
0
0
0
0
0
0
0
0
0
0
0
0
0
0
0
0
0
0
0
0
0
0
0
0
0
0
0
0
0
0
0
0
0
0
0
0
0
0
0
0
0
0
0
0
0
0
0
0
0
0
0
0
0
0
0
0
0
0
0
0
0
0
0
0
0
0
0
0
0
0
0
0
0
0
0
0
0
0
0
0
0
0
0
0
0
0
0
0
0
0
0
0
0
0
0
0
0
0
0
0
0
0
0
0
0
0
0
0
0
0
0
0
0
0
0
0
0
0
0
0
0
0
0
0
0
0
0
0
0
0
0
0
0
0
0
0
0
0
0
0
0
0
0
0
0
0
0
0
0
0
0
0
0
0
0
0
0
0
0
0
0
0
0
0
0
0
0
0
0
0
0
0
0
0
0
0
0
0
0
0
0
0
0
0
0
0
0
0
0
0
0
0
0
0
0
0
0
0
0
0
0
0
0
0
0
0
0
0
0
0
0
0
0
0
0
0
0
0
0
0
0
0
0
0
0
0
0
0
0
0
0
0
0
0
0
0
0
0
0
0
0
0
0
0
0
0
0
0
0
0
0
0
0
0
0
0
0
0
0
0
0
0
0
0
0
0
0
0
0
0
0
0
0
0
0
0
0
0
0
0
0
0
0
0
0
0
0
0
0
0
0
0
0
0
0
0
0
0
0
0
0
0
0
0
0
0
0
0
0
0
0
0
0
0
0
0
0
0
0
0
0
0
0
0
0
0
0
0
0
0
0
0
0
0
0
0
0
0
0
0
0
0
0
0
0
0
0
0
0
0
0
0
0
0
0
0
0
0
0
0
0
0
0
0
0
0
0
0
0
0
0
0
0
0
0
0
0
0
0
0
0
0
0
0
0
0
0
0
0
0
0
0
0
0
0
0
0
0
0
0
0
0
0
0
0
0
0
0
0
0
0
0
0
0
0
0
0
0
0
0
0
0
0
0
0
0
0
0
0
0
0
0
0
0
0
0
0
0
0
0
0
0
0
0
0
0
0
0
0
0
0
0
0
0
0
0
0
0
0
0
0
0
0
0
0
0
0
0
0
0
0
0
0
0
0
0
0
0
0
0
0
0
0
0
0
0
0
0
0
0
0
0
0
0
0
0
0
0
0
0
0
0
0
0
0
0
0
0
0
0
0
0
0
0
0
0
0
0
0
0
0
0
0
0
0
0
0
0
0
0
0
0
0
0
0
0
0
0
0
0
0
0
0
0
0
0
0
0
0
0
0
0
0
0
0
0
0
0
0
0
0
0
0
0
0
0
0
0
0
0
0
0
0
0
0
0
0
0
0
0
0
0
0
0
0
0
0
0
0
0
0
0
0
0
0
0
0
0
0
0
0
0
0
0
0
0
0
0
0
0
0
0
0
0
0
0
0
0
0
0
0
0
0
0
0
0
0
0
0
0
0
0
0
0
0
0
0
0
0
0
0
0
0
0
0
0
0
0
0
0
0
0
0
0
0
0
0
0
0
0
0
0
0
0
0
0
0
0
0
0
0
0
0
0
0
0
0
0
0
0
0
0
0
0
0
0
0
0
0
0
0
0
0
0
0
0
0
0
0
0
0
0
0
0
0
0
0
0
0
0
0
0
0
0
0
0
0
0
0
0
0
0
0
0
0
0
0
0
0
0
0
0
0
0
0
0
0
0
0
0
0
0
0
0
0
0
0
0
0
0
0
0
0
0
0
0
0
0
0
0
0
0
0
0
0
0
0
0
0
0
0
0
0
0
0
0
0
0
0
0
0
0
0
0
0
0
0
0
0
0
0
0
0
0
0
0
0
0
0
0
0
0
0
0
0
0
0
0
0
0
0
0
0
0
0
0
0
0
0
0
0
0
0
0
0
0
0
0
0
0
0
0
0
0
0
0
0
0
0
0
0
0
0
0
0
0
0
0
0
0
0
0
0
0
0
0
0
0
0
0
0
0
0
0
0
0
0
0
0
0
0
0
0
0
0
0
0
0
0
0
0
0
0
0
0
0
0
0
0
0
0
0
0
0
0
0
0
0
0
0
0
0
0
0
0
0
0
0
0
0
0
0
0
0
0
0
0
0
0
0
0
0
0
0
0
0
0
0
0
0
0
0
0
0
0
0
0
0
0
0
0
0
0
0
0
0
0
0
0
0
0
0
0
0
0
0
0
0
0
0
0
0
0
0
0
0
0
0
0
0
0
0
0
0
0
0
0
0
0
0
0
0
0
0
0
0
0
0
0
0
0
0
0
0
0
0
0
0
0
0
0
0
0
0
0
0
0
0
0
0
0
0
0
0
0
0
0
0
0
0
0
0
0
0
0
0
0
0
0
0
0
0
0
0
0
0
0
0
0
0
0
0
0
0
0
0
0
0
0
0
0
0
0
0
0
0
0
0
0
0
0
0
0
0
0
0
0
0
0
0
0
0
0
0
0
0
0
0
0
0
0
0
0
0
0
0
0
0
0
0
0
0
0
0
0
0
0
0
0
0
0
0
0
0
0
0
0
0
0
0
0
0
0
0
0
0
0
0
0
0
0
0
0
0
0
0
0
0
0
0
0
0
0
0
0
0
0
0
0
0
0
0
0
0
0
0
0
0
0
0
0
0
0
0
0
0
0
0
0
0
0
0
0
0
0
0
0
0
0
0
0
0
0
0
0
0
0
0
0
0
0
0
0
0
0
0
0
0
0
0
0
0
0
0
0
0
0
0
0
0
0
0
0
0
0
0
0
0
0
0
0
0
0
0
0
0
0
0
0
0
0
0
0
0
0
0
0
0
0
0
0
0
0
0
0
0
0
0
0
0
0
0
0
0
0
0
0
0
0
0
0
0
0
0
0
0
0
0
0
0
0
0
0
0
0
0
0
0
0
0
0
0
0
0
0
0
0
0
0
0
0
0
0
0
0
0
0
0
0
0
0
0
0
0
0
0
0
0
0
0
0
0
0
0
0
0
0
0
0
0
0
0
0
0
0
0
0
0
0
0
0
0
0
0
0
0
0
0
0
0
0
0
0
0
0
0
0
0
0
0
0
0
0
0
0
0
0
0
0
0
0
0
0
0
0
0
0
0
0
0
0
0
0
0
0
0
0
0
0
0
0
0
0
0
0
0
0
0
0
0
0
0
0
0
0
0
0
0
0
0
0
0
0
0
0
0
0
0
0
0
0
0
0
0
0
0
0
0
0
0
0
0
0
0
0
0
0
0
0
0
0
0
0
0
0
0
0
0
0
0
0
0
0
0
0
0
0
0
0
0
0
0
0
0
0
0
0
0
0
0
0
0
0
0
0
0
0


VECTORS element_materi_velocity float
2.101898382013e-03 1.164583982740e-02 0.0 
2.233620972580e-03 1.117058930408e-02 0.0 
5.406997318119e-04 1.040925271283e-03 0.0 
6.816629104224e-05 1.496099906634e-03 0.0 
7.312688977399e-04 8.344922183735e-03 0.0 
-2.944888305788e-05 3.960062094126e-03 0.0 
5.486074774446e-04 8.264981878430e-03 0.0 
2.155898685960e-03 1.107507487978e-02 0.0 
6.078835385755e-04 8.317487232600e-03 0.0 
9.966906473729e-05 1.531756022689e-03 0.0 
1.920275434061e-04 -2.316197599970e-04 0.0 
1.913676209092e-03 1.148493821737e-02 0.0 
8.970588276234e-05 2.319015578034e-05 0.0 
1.100681947528e-03 7.453977653987e-03 0.0 
7.417483962231e-05 2.222866754179e-05 0.0 
5.483017306029e-05 1.057847782603e-03 0.0 
9.515869703671e-04 8.677178766727e-03 0.0 
1.739014364326e-05 3.484842600922e-03 0.0 
8.208079558819e-05 -8.029844794842e-04 0.0 
7.002231808343e-05 -7.954156079833e-04 0.0 
1.184159479336e-04 1.569664156454e-03 0.0 
2.218445727963e-03 1.146953608715e-02 0.0 
2.317640449495e-03 1.109820742273e-02 0.0 
1.056097372139e-03 3.873350473562e-04 0.0 
1.262304712339e-03 6.481887796103e-03 0.0 
2.124689749402e-04 -1.906897128487e-04 0.0 
1.525358395499e-03 9.455084442238e-03 0.0 
9.273078123091e-04 8.317706038030e-04 0.0 
1.341157647085e-03 6.483376068146e-03 0.0 
8.697247296592e-04 3.117651103824e-04 0.0 
3.293248194977e-04 1.061303217453e-03 0.0 
-5.284086262200e-05 -4.286102646720e-04 0.0 
6.204637007897e-04 1.274139334541e-03 0.0 
6.158535134114e-05 -4.340861803935e-05 0.0 
4.637450656778e-04 1.067659329897e-04 0.0 
1.350554063302e-04 2.871556907723e-05 0.0 
1.239777661462e-04 2.631656079076e-05 0.0 
9.023961216254e-04 4.926995459311e-04 0.0 
4.605416996069e-04 9.215982619014e-03 0.0 
4.186872061350e-04 9.227838309553e-03 0.0 
2.258162950679e-03 1.063329981730e-02 0.0 
4.427938236562e-04 1.228366896280e-04 0.0 
1.551043079304e-03 1.090233912958e-02 0.0 
1.589013416335e-03 9.117478782976e-03 0.0 
3.668060590556e-05 2.117145030239e-03 0.0 
1.619620878102e-03 1.027636503663e-02 0.0 
8.084605473709e-05 1.085443548883e-03 0.0 
4.159338803025e-05 1.798797208808e-03 0.0 
-3.003895359383e-04 8.821743095905e-04 0.0 
1.085580562087e-03 7.912797374528e-03 0.0 
2.300439348010e-03 1.089680938370e-02 0.0 
1.007963942571e-04 -7.710051064939e-04 0.0 
9.258931167418e-04 1.202034218866e-03 0.0 
2.205359628741e-03 1.104263972920e-02 0.0 
3.835932320770e-04 1.051283972662e-03 0.0 
2.125886634681e-04 -6.861683243151e-04 0.0 
8.536518105454e-05 -7.582795384339e-04 0.0 
1.247421556691e-04 -4.274507930691e-05 0.0 
1.315457067640e-04 -7.780130478972e-04 0.0 
6.568996765953e-05 1.066795230018e-03 0.0 
-6.542709508723e-04 1.572966129792e-03 0.0 
1.419957364062e-03 1.111573816703e-03 0.0 
2.976047107100e-03 8.700916573898e-03 0.0 
7.267481604489e-04 1.102359919070e-03 0.0 
1.456637459686e-04 2.876861110579e-05 0.0 
2.220584340936e-03 1.130418105654e-02 0.0 
-5.858054783727e-04 1.802392177170e-03 0.0 
6.706782630381e-04 1.238347657866e-03 0.0 
3.750745136929e-04 -9.718679458298e-05 0.0 
6.813924517822e-04 8.552615351555e-04 0.0 
3.198488271232e-04 -1.424231565494e-04 0.0 
6.393340319322e-05 3.011070220961e-04 0.0 
1.215781109284e-03 1.131522056573e-03 0.0 
4.833093787950e-06 -8.514298744903e-04 0.0 
1.960832327028e-04 -6.678593597298e-04 0.0 
2.269075127202e-04 1.381544541902e-03 0.0 
4.800144538402e-04 1.274659414731e-03 0.0 
9.263160459310e-04 8.551424246539e-03 0.0 
1.632622715044e-04 -7.601880177050e-04 0.0 
8.855892591053e-04 9.463982636930e-03 0.0 
4.065539860052e-04 2.063388029931e-05 0.0 
8.926474460856e-04 8.408262802050e-03 0.0 
2.302491690886e-03 1.122629119781e-02 0.0 
2.153657523376e-03 1.164695313094e-02 0.0 
6.838604671347e-04 7.773882492229e-03 0.0 
6.257044867085e-04 7.740702778326e-03 0.0 
1.881730042425e-04 -1.229069253641e-04 0.0 
3.311341115383e-05 -6.697579918740e-05 0.0 
1.625999560666e-03 3.531486340309e-03 0.0 
7.870536968039e-04 8.312402178790e-03 0.0 
-2.404162321066e-05 -3.657214063454e-04 0.0 
1.522048155432e-03 8.257605281009e-03 0.0 
1.130303294788e-04 4.223810296814e-03 0.0 
1.374950958752e-04 4.565343389614e-03 0.0 
1.274132543839e-04 5.589965387866e-04 0.0 
6.476953772749e-04 3.541782567517e-04 0.0 
1.004467412829e-03 8.444639798038e-03 0.0 
5.106320760181e-04 1.349535616689e-04 0.0 
8.636715567428e-05 6.694612104889e-03 0.0 
2.824379380804e-03 9.321129689971e-03 0.0 
7.134429115303e-04 8.829780357969e-03 0.0 
9.519356692338e-05 2.431607348510e-05 0.0 
2.499387970111e-03 2.061527609272e-03 0.0 
1.426995573209e-03 1.062330997278e-03 0.0 
2.893944209790e-03 7.603360260882e-03 0.0 
-4.761300444909e-05 8.609099576746e-04 0.0 
1.039395125113e-04 9.723823851925e-06 0.0 
1.137304097493e-04 3.641811485491e-03 0.0 
-4.848097389375e-04 1.099655682195e-03 0.0 
1.736238604395e-04 3.592756946675e-05 0.0 
1.790180172723e-03 3.975718325840e-03 0.0 
5.900140020473e-06 -8.536905900678e-04 0.0 
3.359560782865e-03 5.855125086301e-03 0.0 
1.913539868258e-03 9.209752057406e-03 0.0 
3.728972408935e-04 -5.519976560011e-04 0.0 
2.712992988211e-03 9.568414493595e-03 0.0 
3.041193425897e-03 8.303178081171e-03 0.0 
3.316852676414e-04 7.873477099147e-05 0.0 
1.100896107089e-04 7.105529040788e-03 0.0 
2.947074846135e-03 8.495308127042e-03 0.0 
2.985207799275e-04 -3.711615373267e-04 0.0 
1.589647503574e-03 8.511626183080e-03 0.0 
8.949016293704e-05 3.339734956239e-03 0.0 
2.997435617152e-03 8.024621298483e-03 0.0 
-6.744035032335e-05 6.054909112349e-03 0.0 
2.114551385146e-03 9.997566791695e-03 0.0 
3.205828739432e-04 -5.791917285795e-04 0.0 
2.096810935665e-03 1.042374892030e-02 0.0 
1.718137516326e-04 9.790532995077e-04 0.0 
3.389569244150e-04 5.689189566921e-03 0.0 
2.983513878219e-04 -1.799033156755e-04 0.0 
5.406311754042e-05 1.480830807678e-03 0.0 
2.808305937837e-03 8.666077984219e-03 0.0 
2.189829744018e-03 1.033521594951e-02 0.0 
4.962309500240e-04 1.193980266373e-04 0.0 
6.158467294196e-05 2.142340725172e-05 0.0 
2.651785011410e-04 -1.163937619759e-04 0.0 
2.796039647279e-03 8.313964515460e-03 0.0 
6.198061017393e-04 2.085050233779e-04 0.0 
2.602923866527e-03 9.408620887803e-03 0.0 
1.328049729079e-04 1.093678940254e-03 0.0 
7.819076050436e-04 1.045178699430e-03 0.0 
1.166880013726e-03 7.414719398200e-03 0.0 
2.678729566588e-04 5.531747436306e-03 0.0 
2.705414921966e-03 9.220851695408e-03 0.0 
2.158342561625e-03 1.075573674011e-02 0.0 
2.868947506840e-03 7.775799949378e-03 0.0 
3.148264137646e-03 6.967106217654e-03 0.0 
5.270221754990e-04 8.744916225964e-03 0.0 
3.353544513247e-03 5.461378191151e-03 0.0 
2.542488601081e-06 -4.889794260369e-04 0.0 
1.261319071616e-04 8.003938308362e-03 0.0 
5.992757777472e-05 -8.201408414685e-04 0.0 
2.021261871791e-03 9.619992584271e-03 0.0 
5.052877753982e-04 1.641315757132e-04 0.0 
2.871003819512e-03 8.142272087239e-03 0.0 
1.429983216231e-04 -9.423542797761e-05 0.0 
1.863862073064e-03 1.079457390122e-02 0.0 
2.507668739213e-03 2.190274312191e-03 0.0 
2.961439653062e-04 8.420298997579e-03 0.0 
3.288999596700e-03 5.509753716249e-03 0.0 
1.406722532609e-04 -2.069642138659e-05 0.0 
3.280980817125e-04 -2.912627318049e-04 0.0 
1.455395373855e-04 1.230912158661e-05 0.0 
2.125119905145e-03 8.189706480976e-03 0.0 
1.986120177609e-04 3.810517038491e-05 0.0 
1.257970932846e-04 8.499834898977e-03 0.0 
3.034181266979e-03 7.026738954017e-03 0.0 
1.928808536891e-03 9.659763736711e-03 0.0 
1.230818250751e-04 -2.458928072560e-04 0.0 
1.765687239020e-03 1.135705317416e-02 0.0 
3.258437164590e-03 5.077965642570e-03 0.0 
2.326755870157e-04 5.013065811584e-03 0.0 
3.389027022775e-04 8.754983764576e-03 0.0 
3.237071725645e-03 6.437802949217e-03 0.0 
2.020690771857e-03 1.006232582747e-02 0.0 
1.668861885203e-03 2.572203482237e-03 0.0 
3.902314148712e-04 -5.081386442899e-04 0.0 
7.573910264510e-04 6.366102151348e-04 0.0 
8.386152261977e-04 1.018931014696e-03 0.0 
2.537934988473e-03 1.014680921562e-02 0.0 
3.485089574112e-04 -4.944042001119e-04 0.0 
1.531649473594e-03 6.714825707198e-04 0.0 
2.488098909779e-03 9.950046212317e-03 0.0 
2.366154375588e-03 1.039339053797e-02 0.0 
1.975002980282e-03 8.726717993990e-03 0.0 
3.307198250725e-03 6.352436540206e-03 0.0 
9.698955083370e-05 1.155529933925e-03 0.0 
1.538429323067e-03 4.019361098362e-03 0.0 
9.844650920821e-05 -4.369308808722e-06 0.0 
1.306121362509e-03 9.560033360566e-03 0.0 
3.101015086999e-03 4.616219353138e-03 0.0 
1.543968743975e-03 3.537864787878e-03 0.0 
-1.675310349217e-03 4.155402980397e-03 0.0 
2.387123540662e-03 1.009976434030e-02 0.0 
1.708412905841e-03 6.279611071053e-04 0.0 
9.457893452512e-05 -7.285955608806e-04 0.0 
5.638346332077e-04 1.363400927113e-03 0.0 
1.407288085881e-03 5.462849817865e-03 0.0 
1.423116609621e-03 7.893383948869e-06 0.0 
1.769445569542e-03 6.968391906384e-04 0.0 
1.511366882797e-03 7.749378495771e-03 0.0 
1.251187942142e-03 6.938388888983e-03 0.0 
8.311481100483e-04 2.822720319380e-04 0.0 
9.018811376894e-04 -3.218156807259e-04 0.0 
3.015435467467e-03 7.047115956695e-03 0.0 
2.271502046699e-03 7.618764961311e-03 0.0 
1.305920885178e-03 4.976520506286e-03 0.0 
2.071483057356e-03 7.743246119586e-03 0.0 
2.071617400838e-03 8.684053880222e-03 0.0 
2.905056706817e-03 2.446599193441e-03 0.0 
1.812905903313e-03 2.993398892919e-03 0.0 
-9.179260581580e-04 3.686498458425e-03 0.0 
2.471053086232e-03 1.053842409556e-02 0.0 
2.752056147934e-03 9.668086503158e-03 0.0 
2.964971992273e-03 7.575880306656e-03 0.0 
1.387496765054e-03 3.552569194876e-03 0.0 
8.450770593540e-04 3.888141487999e-03 0.0 
1.741385368603e-03 5.731105310469e-04 0.0 
3.813242437322e-04 8.631385268038e-03 0.0 
3.157510742160e-03 5.065152698868e-03 0.0 
1.736623888427e-03 4.994224857396e-04 0.0 
3.482499775056e-05 -6.204599706103e-04 0.0 
1.272565138050e-03 4.494557582476e-03 0.0 
-2.292185903716e-06 -6.406634577198e-04 0.0 
1.162305191020e-04 -7.475931652608e-04 0.0 
1.253892442652e-03 1.031969782475e-02 0.0 
7.484995924339e-04 -3.616810940854e-04 0.0 
1.153369679461e-03 4.010926540821e-03 0.0 
6.955249899373e-04 -3.406651026592e-04 0.0 
2.012114291236e-03 7.459592784261e-03 0.0 
7.277071774614e-04 5.398426995748e-04 0.0 
3.859079408152e-04 -4.056786017701e-04 0.0 
1.695312952076e-03 7.292614433449e-04 0.0 
2.225693773021e-03 8.123392691858e-03 0.0 
1.730207496135e-04 3.201559515415e-05 0.0 
-1.385270103681e-03 3.694925081871e-03 0.0 
2.497237652597e-03 6.977439993646e-03 0.0 
3.296567133238e-03 4.656229771452e-03 0.0 
2.454218039064e-03 1.033775134383e-02 0.0 
1.811814878085e-03 6.450170093034e-04 0.0 
2.137111602587e-04 4.211209197370e-05 0.0 
1.594543234404e-03 4.492199464076e-03 0.0 
2.589824692044e-03 4.348863742550e-03 0.0 
1.643257587725e-03 6.635438957173e-04 0.0 
1.569609173430e-04 -1.597227171108e-04 0.0 
2.828413260737e-03 7.425763935410e-03 0.0 
1.466913035516e-03 4.988194391528e-03 0.0 
1.180450588924e-03 9.191973742682e-04 0.0 
3.245274356908e-03 4.265124965684e-03 0.0 
2.287206216736e-03 7.570860202805e-03 0.0 
2.033831729415e-03 6.798170780367e-03 0.0 
1.032369246850e-04 5.109721967956e-04 0.0 
3.099941306748e-03 6.827317188659e-03 0.0 
3.202974272754e-03 2.962785042177e-03 0.0 
2.847674014372e-04 7.824681655274e-03 0.0 
2.872018409924e-04 1.023152799429e-04 0.0 
1.975497007776e-03 7.785450384453e-03 0.0 
2.679658211587e-03 4.849795787121e-03 0.0 
1.477079667271e-03 3.722434970289e-03 0.0 
5.078878666114e-04 1.247212138722e-03 0.0 
1.082124623092e-03 4.003546642384e-03 0.0 
2.206964978342e-03 7.186846751552e-03 0.0 
3.134458878097e-03 7.426076735763e-03 0.0 
9.619046478805e-04 3.518324339306e-03 0.0 
1.621129463781e-03 4.009344758532e-03 0.0 
2.675307546828e-03 7.211286872162e-03 0.0 
2.420986305763e-04 5.225289114923e-05 0.0 
3.136246264216e-03 2.688618560093e-03 0.0 
2.508377318244e-03 6.937468364742e-03 0.0 
3.389386777206e-03 5.747019952928e-03 0.0 
3.110886294799e-03 2.657428194143e-03 0.0 
1.982225458865e-03 3.585722246722e-03 0.0 
1.385965666722e-03 8.355271428957e-03 0.0 
3.190513219252e-03 3.555337060941e-03 0.0 
1.943415366375e-03 1.523849862063e-03 0.0 
1.511077293738e-03 4.497956292134e-03 0.0 
-1.525259229588e-03 3.297656827752e-03 0.0 
1.915216986099e-03 7.324995691223e-03 0.0 
2.699131747172e-03 3.999924088735e-03 0.0 
2.448833447124e-03 6.337250236341e-03 0.0 
1.873960883686e-03 3.145163600055e-03 0.0 
2.044206912465e-03 6.308561967564e-03 0.0 
8.654347679313e-05 -3.571275285636e-04 0.0 
2.737911326873e-03 9.663411481271e-03 0.0 
3.015458836405e-03 2.396862723679e-03 0.0 
2.107519856874e-03 7.245014120709e-03 0.0 
1.368950732738e-03 7.737381126490e-03 0.0 
3.999648201376e-04 3.222188815560e-03 0.0 
2.051302586555e-03 1.798616449927e-03 0.0 
1.636929133361e-03 1.162811802730e-03 0.0 
2.573787853100e-03 1.030698618672e-02 0.0 
1.550255730806e-03 4.984216446616e-03 0.0 
2.825253477809e-03 9.376779025533e-03 0.0 
3.102988032029e-03 3.515194510174e-03 0.0 
3.150648733100e-03 4.237927491072e-03 0.0 
7.586374853248e-04 3.396742260614e-03 0.0 
3.406558414867e-03 5.283026529130e-03 0.0 
1.311059929249e-03 7.070066819681e-03 0.0 
1.966544462423e-04 5.172371342452e-04 0.0 
2.595754887428e-04 5.441454301028e-04 0.0 
3.124540547894e-03 6.317645761595e-03 0.0 
2.356501712484e-03 4.213669061674e-03 0.0 
2.102029683548e-03 5.565378700741e-03 0.0 
2.526132574624e-03 6.437621974131e-03 0.0 
2.196564849209e-03 4.575726907887e-03 0.0 
1.737702121428e-03 1.409354677574e-03 0.0 
2.728945549322e-03 7.586960261023e-03 0.0 
1.727735003899e-04 1.329523234946e-03 0.0 
2.960580556119e-03 4.552360123971e-03 0.0 
2.930505787608e-03 2.626527269686e-03 0.0 
1.620216137455e-03 6.540770951755e-03 0.0 
2.996636258280e-04 1.147038345616e-04 0.0 
2.293924643776e-03 5.128619325793e-03 0.0 
2.869239707949e-03 6.907377475913e-03 0.0 
1.049066948242e-03 3.085847862729e-03 0.0 
2.446033735680e-03 1.173585306244e-03 0.0 
3.258188347019e-03 3.905290386280e-03 0.0 
1.734073215799e-03 1.043858185408e-03 0.0 
2.373348048753e-03 7.537544855184e-03 0.0 
2.809955009122e-04 4.174548216960e-04 0.0 
2.944604078156e-03 3.767043402926e-03 0.0 
2.959175643638e-03 2.193755841031e-03 0.0 
1.531399890488e-03 5.832558253506e-03 0.0 
9.019667878438e-04 5.871104287260e-03 0.0 
1.814714505055e-03 5.718549470426e-04 0.0 
2.524937918828e-03 8.259490135108e-03 0.0 
9.021386288465e-04 6.360029130653e-03 0.0 
3.561546310181e-04 3.886869744558e-04 0.0 
1.584660841102e-03 5.020154393229e-04 0.0 
2.804908224701e-04 4.656916350051e-04 0.0 
1.109018190120e-03 6.419364056023e-03 0.0 
1.874516184591e-03 3.949988713298e-03 0.0 
2.024959323945e-03 8.906748602942e-03 0.0 
2.366038098867e-03 8.466493920301e-03 0.0 
2.407610560579e-03 7.033494613318e-03 0.0 
2.328731865899e-03 6.617646403068e-03 0.0 
3.211214977656e-03 6.844404510952e-03 0.0 
3.844889117918e-04 3.450837144121e-04 0.0 
1.415326704754e-03 6.929406753399e-03 0.0 
1.932519435009e-03 8.274574859612e-03 0.0 
3.076037535987e-03 3.837950360901e-03 0.0 
5.756688920150e-04 -3.895320964131e-04 0.0 
2.197708540217e-03 9.063623492466e-03 0.0 
2.724195855278e-03 7.636297183933e-03 0.0 
2.550012351535e-04 8.725996194469e-03 0.0 
1.632420892293e-03 8.355551490359e-04 0.0 
2.878780744388e-03 4.103161303931e-03 0.0 
1.301414495540e-03 4.020631394777e-03 0.0 
2.709999033527e-03 7.037883161377e-03 0.0 
2.426285688725e-03 7.954619713659e-03 0.0 
2.849725631811e-03 1.970571373228e-03 0.0 
1.865894157926e-03 3.814210032392e-04 0.0 
3.718014386729e-04 2.532301754481e-04 0.0 
2.401211790332e-03 9.703583843213e-03 0.0 
2.054084507792e-03 2.296006117476e-03 0.0 
1.415524211837e-03 3.324817858501e-05 0.0 
2.402219756466e-03 9.976434088868e-03 0.0 
2.505332883463e-03 8.858678313541e-03 0.0 
1.373904905833e-03 3.084981762924e-03 0.0 
2.800007184816e-03 6.558773812553e-03 0.0 
2.549335138811e-03 1.014961089951e-02 0.0 
2.392622643109e-03 8.883635329110e-03 0.0 
3.765083123853e-04 1.838500132680e-04 0.0 
9.373495260803e-04 4.866891846362e-04 0.0 
1.300133067624e-03 3.089669830091e-03 0.0 
1.350482458135e-03 4.499105883619e-03 0.0 
1.924341742844e-03 4.259903363434e-04 0.0 
3.037430782344e-03 8.450785807885e-03 0.0 
2.250662616246e-03 3.737354626274e-03 0.0 
2.598750605408e-03 3.563937571235e-03 0.0 
2.960237429246e-03 6.728649139919e-03 0.0 
2.561270568567e-03 1.311494955729e-03 0.0 
1.008333711103e-03 -2.603147708679e-04 0.0 
1.089791806203e-03 3.081687651201e-03 0.0 
1.946019201593e-03 1.973497159150e-03 0.0 
3.288610393873e-03 6.772879919183e-03 0.0 
2.574876205884e-03 7.336446947519e-03 0.0 
3.207504221073e-03 7.513644593193e-03 0.0 
2.714925624066e-04 5.043033443255e-04 0.0 
2.343764930656e-04 5.485794604820e-04 0.0 
5.968165009094e-04 1.364739788760e-03 0.0 
1.898243861697e-03 4.314173930523e-04 0.0 
8.982876557320e-04 3.502987163159e-03 0.0 
2.300709661215e-03 8.254496321711e-03 0.0 
2.850100017317e-03 3.372144358866e-03 0.0 
1.375904647268e-03 3.255741967951e-03 0.0 
2.781833599299e-03 9.339126495174e-03 0.0 
1.249247054695e-03 8.366106476034e-03 0.0 
1.038269549776e-03 6.405627734219e-03 0.0 
7.509383104623e-04 2.994776279433e-04 0.0 
1.526554419920e-03 3.078280506254e-03 0.0 
1.937514908220e-03 6.835948086014e-03 0.0 
2.334767590372e-03 6.125282326506e-03 0.0 
1.586956173955e-03 2.988463717785e-03 0.0 
4.703730411479e-05 -2.729095618202e-05 0.0 
3.380906638459e-03 5.009231512354e-03 0.0 
3.300036463862e-03 6.060599012708e-03 0.0 
3.404094545738e-03 4.938984983705e-03 0.0 
-5.152735783013e-05 6.913719148817e-03 0.0 
2.360559202117e-04 7.567985871815e-03 0.0 
5.042600082151e-04 -3.631146632536e-04 0.0 
2.617184181480e-03 5.837886222546e-03 0.0 
1.574105311669e-04 6.264071955610e-05 0.0 
2.731845017361e-03 2.018247512411e-03 0.0 
1.842931596880e-03 8.298508068856e-03 0.0 
3.609916724448e-05 -8.305162091442e-04 0.0 
3.137826381106e-03 7.108573370188e-03 0.0 
3.354491690560e-03 4.635871166334e-03 0.0 
2.140862347299e-03 6.258336991529e-03 0.0 
3.094654324714e-04 4.129956044285e-04 0.0 
2.267292185217e-03 8.554046792373e-03 0.0 
2.622866650546e-03 6.326800567935e-03 0.0 
1.099578181645e-03 -2.142471973653e-04 0.0 
1.095483234357e-03 3.538664107671e-03 0.0 
1.818230629611e-03 3.879578153028e-04 0.0 
3.423305128700e-04 4.136411162151e-04 0.0 
1.415070437043e-04 2.478748907404e-04 0.0 
9.186792321715e-05 2.563746502809e-04 0.0 
1.295899700405e-04 2.877169765177e-04 0.0 
2.134989233274e-03 5.771718828528e-03 0.0 
1.165610730350e-03 3.543820660485e-03 0.0 
1.260546301479e-03 2.626560119418e-03 0.0 
3.145031984051e-03 7.865846236476e-03 0.0 
2.958960385923e-03 8.779691446333e-03 0.0 
8.558811199000e-04 -3.532184180731e-04 0.0 
1.158128954045e-03 3.085949653948e-03 0.0 
3.718061182158e-04 3.678834606010e-04 0.0 
8.974615609061e-04 3.051526058289e-03 0.0 
2.953826698844e-03 2.341851087804e-03 0.0 
9.597950910138e-04 3.064485928218e-03 0.0 
2.720194383561e-03 3.407884581240e-03 0.0 
3.327560426244e-03 6.261404072704e-03 0.0 
2.685707064964e-03 9.574136575601e-03 0.0 
1.786525716554e-03 5.386088341252e-03 0.0 
2.468632338778e-04 1.089663974403e-03 0.0 
3.165049338162e-03 7.700845671875e-03 0.0 
1.199849197291e-03 1.241767872149e-03 0.0 
9.424374120525e-04 -3.139654557945e-04 0.0 
1.356044817989e-03 5.545601584868e-04 0.0 
5.908766763194e-04 2.251887998627e-04 0.0 
2.862776776676e-03 6.486726786586e-03 0.0 
1.389837787658e-04 2.178167442647e-04 0.0 
4.226656380460e-04 1.028329552832e-03 0.0 
2.807595491589e-03 6.062147600749e-03 0.0 
-1.182594939587e-04 -1.606067462768e-05 0.0 
1.674537103250e-04 2.133575269972e-04 0.0 
6.667963265874e-04 3.010031513952e-04 0.0 
1.446812141082e-03 7.367785453316e-04 0.0 
2.782016553150e-03 1.926404524479e-03 0.0 
3.862758800833e-04 2.409845124900e-04 0.0 
-2.935654131174e-04 -9.449644022087e-05 0.0 
3.283720475157e-03 6.964077653513e-03 0.0 
2.620106875725e-03 5.836581486508e-03 0.0 
2.977188812991e-03 6.225138154856e-03 0.0 
2.705542735110e-03 6.701486883189e-03 0.0 
2.183449332009e-03 6.203616912893e-03 0.0 
1.812778284732e-04 1.884033852378e-04 0.0 
3.015747247474e-03 3.161737013439e-03 0.0 
3.724708559576e-04 2.755730097787e-03 0.0 
3.111609593854e-04 6.590371716438e-05 0.0 
-1.641387922043e-04 -1.106657751147e-04 0.0 
2.503544781075e-03 9.173283431772e-03 0.0 
4.357728873295e-04 8.231963629417e-04 0.0 
2.102607623713e-03 9.127316791197e-03 0.0 
3.471899793697e-04 1.553365271531e-04 0.0 
1.939606220491e-04 1.656036390489e-04 0.0 
2.229932285717e-03 6.689778435176e-03 0.0 
7.757007262548e-05 6.611860745397e-04 0.0 
4.399682766296e-05 2.593507459401e-03 0.0 
3.124771996434e-04 6.476128112370e-04 0.0 
9.334679498372e-04 1.666582107342e-04 0.0 
1.324345770373e-03 8.672015133809e-03 0.0 
1.792451788058e-03 7.838572218063e-03 0.0 
1.850322920548e-04 1.315464173372e-04 0.0 
1.188783108631e-03 8.678554173149e-03 0.0 
1.712430430606e-04 5.045243956492e-04 0.0 
2.597468893320e-03 3.031010415689e-03 0.0 
9.654976851200e-04 6.887819557928e-03 0.0 
2.631549515886e-03 9.301769696318e-03 0.0 
2.829834427417e-03 2.094577356407e-03 0.0 
1.236681542274e-03 4.043940092452e-03 0.0 
1.995067334652e-04 1.193007543790e-04 0.0 
1.299855187023e-04 2.564284535851e-04 0.0 
1.047865230251e-04 2.608624839643e-04 0.0 
1.720438541797e-03 3.074178264784e-04 0.0 
7.082502942983e-04 -4.371558707617e-04 0.0 
3.367808948619e-03 5.946838985960e-03 0.0 
1.635168678401e-03 2.770000845393e-04 0.0 
1.995540008657e-04 1.016504722407e-04 0.0 
2.543695026594e-03 5.267493524151e-03 0.0 
2.025405933831e-03 1.382334717597e-03 0.0 
1.977282708590e-03 1.035853325525e-03 0.0 
8.368417418379e-04 6.332487862364e-03 0.0 
2.737420126444e-04 9.687851865585e-05 0.0 
-2.453625124211e-05 5.005690134346e-04 0.0 
1.702356678501e-04 7.313698612575e-05 0.0 
1.706276514425e-03 7.429355674576e-04 0.0 
1.420117221464e-04 1.996380774313e-04 0.0 
1.331164998876e-03 2.626237310317e-03 0.0 
-4.067832909400e-04 2.073917673932e-05 0.0 
3.370335817967e-03 6.101178984002e-03 0.0 
7.794195478795e-04 3.014449469559e-03 0.0 
1.748768025450e-04 2.002835892179e-04 0.0 
2.230094896164e-03 5.710796195613e-03 0.0 
2.485393852516e-03 2.560220255022e-03 0.0 
1.143498809702e-03 5.612230455011e-03 0.0 
1.070020089949e-03 4.712121595055e-04 0.0 
1.659331109428e-03 4.966855060301e-04 0.0 
1.868374775199e-03 8.382060135680e-04 0.0 
-3.838144017461e-04 6.953304564342e-04 0.0 
1.905282897426e-04 1.794800753631e-04 0.0 
1.796395769137e-03 3.895715366790e-03 0.0 
1.477889175133e-03 4.870780004138e-04 0.0 
9.548325386811e-04 7.428610567868e-03 0.0 
1.096810818438e-03 -4.347102466580e-05 0.0 
1.916836771322e-03 1.148885915786e-03 0.0 
2.431401541431e-03 6.041284146145e-03 0.0 
1.867691466181e-04 1.216837581109e-04 0.0 
6.891502581600e-04 -4.177625475883e-04 0.0 
1.699184685316e-03 4.121726353821e-04 0.0 
3.193187893470e-03 5.605151241042e-03 0.0 
2.295847650682e-03 9.006003779095e-04 0.0 
2.198048273806e-03 1.488333330355e-03 0.0 
1.823475171962e-03 4.274329544500e-04 0.0 
3.194475279287e-03 6.086896104194e-03 0.0 
2.559197616352e-03 3.787283017624e-03 0.0 
2.580179930120e-03 1.785784958627e-03 0.0 
3.305308367760e-03 5.580408692968e-03 0.0 
1.214447445271e-03 -1.628033153635e-04 0.0 
2.818366130103e-03 5.926919605059e-03 0.0 
7.895557072366e-04 -4.042542499001e-04 0.0 
2.631851329939e-03 2.905181828470e-03 0.0 
2.990884728762e-03 2.216619543911e-03 0.0 
3.276461990170e-04 1.357777056819e-04 0.0 
7.657542526449e-04 2.581853839603e-03 0.0 
9.594465126473e-04 -1.103454788317e-04 0.0 
1.769543115197e-04 8.219954102730e-05 0.0 
7.921567438716e-04 3.451555534539e-04 0.0 
3.396115340587e-03 4.524360775824e-03 0.0 
-2.331441941245e-04 5.134490434132e-04 0.0 
2.526513445177e-04 8.313968885649e-05 0.0 
9.397294360583e-04 2.626412923978e-03 0.0 
1.440265021247e-03 4.781829393364e-04 0.0 
1.422530946611e-04 5.206311500550e-05 0.0 
1.632022541803e-03 3.144166002817e-04 0.0 
2.900326590105e-03 8.765773134048e-03 0.0 
1.821759604511e-03 7.354184315589e-03 0.0 
3.072527890946e-03 2.450916792509e-03 0.0 
1.763174688784e-03 2.908649759648e-04 0.0 
2.363804063873e-03 1.043742618486e-03 0.0 
1.490362916133e-03 5.469975401964e-03 0.0 
2.694506253034e-03 8.488155943187e-03 0.0 
2.471048468948e-03 1.813473063008e-03 0.0 
2.217917232341e-04 6.999097526494e-03 0.0 
1.121263163389e-03 -2.195062276409e-04 0.0 
2.645373689906e-03 1.715128804631e-03 0.0 
1.558909544753e-03 3.497568762607e-04 0.0 
9.302441538036e-04 -6.431850324280e-05 0.0 
-5.201301790424e-04 2.645074252417e-04 0.0 
3.017210655616e-03 6.508519502277e-03 0.0 
1.604887966472e-03 5.677817446029e-04 0.0 
9.787862852460e-04 -2.482279590884e-04 0.0 
3.383520324320e-03 4.732685910709e-03 0.0 
1.722536947550e-03 3.843094813680e-04 0.0 
8.297446075362e-04 6.815942581794e-03 0.0 
1.349178131267e-03 3.252489229126e-04 0.0 
1.314889179833e-04 4.481540365035e-05 0.0 
2.710371267061e-03 5.714641589958e-03 0.0 
8.530308632864e-04 -2.681253999703e-04 0.0 
2.893779398467e-03 5.907240279045e-03 0.0 
8.892907089995e-04 -2.855797226694e-04 0.0 
-3.845647483455e-04 1.235199984060e-04 0.0 
1.752243875880e-03 6.888978091708e-03 0.0 
2.440554929893e-04 -5.522354123426e-04 0.0 
-3.386329646255e-05 -6.951587878157e-04 0.0 
7.161646318336e-04 -3.473338285534e-04 0.0 
1.578759090255e-03 3.687442283044e-04 0.0 
2.225248760891e-04 3.078269216681e-03 0.0 
2.486682456453e-03 1.147366077881e-03 0.0 
2.387765775462e-03 1.029445274036e-03 0.0 
1.793645067795e-03 8.781501364149e-03 0.0 
1.198447811650e-03 9.303532607792e-03 0.0 
2.963262655511e-04 1.019845055780e-03 0.0 
3.056986092358e-03 6.033933544568e-03 0.0 
-4.251644233078e-05 -7.201292343124e-04 0.0 
3.523029609634e-04 -4.723099272707e-04 0.0 
-1.715966794332e-04 2.203472390964e-04 0.0 
8.640075413694e-04 -3.077953445511e-04 0.0 
1.731088780066e-03 2.528968978130e-03 0.0 
2.541558323860e-04 3.111104296700e-03 0.0 
9.969331277714e-04 1.550353104530e-04 0.0 
7.831257964421e-04 -4.398693755482e-04 0.0 
8.459838724926e-04 -9.368304644628e-05 0.0 
1.302771952905e-03 4.155553417315e-04 0.0 
9.690787523406e-04 2.667758775372e-03 0.0 
1.728334686008e-04 -5.599952782678e-04 0.0 
1.169409594032e-04 -6.577761615819e-04 0.0 
2.370954981978e-04 7.239126952658e-05 0.0 
1.211624265344e-04 3.832428520614e-05 0.0 
1.820848204074e-04 -4.900093126086e-04 0.0 
7.653302349222e-04 -2.982369972007e-04 0.0 
1.697732304740e-03 2.603213769534e-04 0.0 
1.216387286886e-03 4.305132345940e-04 0.0 
4.201728466301e-04 -4.954854181680e-04 0.0 
1.364656203429e-03 3.869408303126e-04 0.0 
8.453423276029e-05 -7.695770218620e-04 0.0 
7.468563939022e-04 -3.685620053810e-04 0.0 
1.032665189342e-03 -1.956171406014e-04 0.0 
4.040660739716e-05 -8.048735576757e-04 0.0 
1.444002826932e-04 -5.268912248698e-04 0.0 
7.113292317669e-04 2.560114427020e-03 0.0 
-2.215583183278e-05 -7.686810208456e-04 0.0 
1.326897180969e-03 9.258229394801e-03 0.0 
1.392461404624e-03 9.533112251283e-03 0.0 
2.394825304876e-03 1.168020431119e-03 0.0 
5.799731079345e-05 -6.640450721583e-04 0.0 
1.413379511817e-03 2.679190984097e-04 0.0 
1.956761611982e-03 6.732539251653e-03 0.0 
6.407732422242e-04 1.117751791750e-04 0.0 
7.116877341483e-04 7.266289279376e-04 0.0 
4.622679466575e-04 3.746934623262e-03 0.0 
2.681650429635e-03 8.774397188723e-03 0.0 
1.782076880722e-04 -4.072174935816e-04 0.0 
2.492302425768e-03 8.770828488807e-03 0.0 
8.448785751661e-04 9.285827896080e-03 0.0 
7.930873910394e-04 9.591496948865e-03 0.0 
-1.398415272009e-05 -7.488428010240e-04 0.0 
4.511681593284e-05 -7.718636624740e-04 0.0 
5.125900272654e-05 -8.294820563082e-04 0.0 
5.716519691355e-04 -5.303887588078e-04 0.0 
2.462359199030e-05 -8.190619466448e-04 0.0 
1.499542242893e-04 -4.535522632836e-04 0.0 
-7.543966917966e-04 1.118153918114e-03 0.0 
6.930791122586e-04 -4.879478488308e-04 0.0 
1.949318741598e-04 5.882391383112e-03 0.0 
1.136347550301e-03 9.609170150643e-03 0.0 
1.452264426473e-03 2.206845098486e-03 0.0 
1.528284770519e-03 2.835733433850e-04 0.0 
1.770216078127e-04 6.773594915407e-03 0.0 
3.131342776812e-05 -6.343096445320e-04 0.0 
5.208383502119e-05 -8.241735538158e-04 0.0 
3.682364649669e-05 2.696181720252e-04 0.0 
8.391838953639e-05 5.617045192403e-04 0.0 
8.843763481059e-04 7.384274860024e-03 0.0 
9.587863284325e-04 9.311705017849e-03 0.0 
1.564339345015e-04 -6.241664590329e-04 0.0 
5.483868853104e-05 5.322035875436e-04 0.0 
6.643984696533e-04 -4.868458606874e-04 0.0 
1.261463168309e-03 9.577299171669e-03 0.0 
1.075329908053e-03 9.322221184721e-03 0.0 
2.210223401583e-03 9.491540249770e-03 0.0 
7.937511984350e-05 2.481497453683e-04 0.0 
6.632066755900e-05 5.308880104633e-04 0.0 
2.703908484637e-05 -7.901225325670e-04 0.0 
-1.995679375811e-06 -7.895898423071e-04 0.0 
2.535220614879e-04 -5.070410313243e-04 0.0 
1.125215801095e-03 -1.523533404146e-04 0.0 
6.765574111543e-05 1.746035137155e-05 0.0 
-9.692811361025e-04 1.360528483690e-03 0.0 
6.032484563955e-05 3.882620900615e-03 0.0 
-6.119849974921e-04 7.192452864244e-04 0.0 
2.240981995393e-03 9.309501503923e-04 0.0 
-6.507511134114e-04 5.608935430756e-04 0.0 
-7.981470845435e-04 9.245873754997e-04 0.0 
2.189776346146e-03 8.062220818116e-04 0.0 
2.675443951233e-04 2.789473599782e-05 0.0 
1.641592540629e-04 6.213399361661e-03 0.0 
2.667946401180e-03 8.111187702718e-03 0.0 
3.172177650810e-05 -8.288123345860e-04 0.0 
6.979956505746e-04 -1.014526147046e-04 0.0 
1.320003606748e-05 3.168919409851e-04 0.0 
2.598900355836e-05 5.369991199482e-04 0.0 
1.017141379181e-03 9.614682465843e-03 0.0 
2.254962137415e-03 1.036431395038e-03 0.0 
2.949702106232e-05 2.612698384380e-04 0.0 
2.505254458849e-03 2.444808972847e-03 0.0 
3.161666698279e-05 -8.400655178366e-04 0.0 
1.826760331725e-05 -8.391967085115e-04 0.0 
1.898732608659e-05 -8.451413892696e-04 0.0 
3.506246326446e-05 -5.669140497695e-04 0.0 
5.431261975319e-05 1.505395036069e-05 0.0 
7.114828276348e-06 1.458226279591e-03 0.0 
4.407192665168e-06 -8.408118616329e-04 0.0 
7.720722331068e-05 -4.539642077102e-04 0.0 
1.843390035033e-05 5.820612787792e-06 0.0 
7.651939223613e-05 1.903386960210e-05 0.0 
2.220604433694e-04 6.317844431390e-05 0.0 
3.414592477554e-05 4.852468916926e-03 0.0 
1.323480226203e-05 3.393506133216e-03 0.0 
3.587871940286e-05 9.233337572899e-06 0.0 
4.064067283327e-05 9.800532029205e-06 0.0 
2.954623562560e-05 3.882919328559e-03 0.0 
-6.520299836571e-07 -8.478956674431e-04 0.0 
5.925108219263e-04 9.590831632959e-03 0.0 
9.043885266387e-04 9.608167292130e-03 0.0 
3.516692756030e-06 -8.198680788887e-04 0.0 
6.609835392542e-05 1.577515157309e-05 0.0 
2.122076484978e-04 5.630180102401e-05 0.0 
1.060802767919e-04 2.719034103055e-05 0.0 
-3.245533378251e-06 -8.312336199514e-04 0.0 
-9.735056059284e-06 -8.051469996597e-04 0.0 
1.159330716635e-04 3.406698432044e-05 0.0 
1.061273717059e-04 2.911145999346e-05 0.0 
1.783449141197e-05 5.351364986035e-03 0.0 
3.088003670872e-04 9.593648225123e-03 0.0 
1.631143336357e-05 4.362383405714e-03 0.0 
2.220391265317e-05 7.316006346377e-03 0.0 
1.319058936559e-04 9.589772246646e-03 0.0 
-7.218254679946e-05 -6.565451992112e-04 0.0 
-1.638034446952e-04 -4.688827913891e-04 0.0 
-2.287952950244e-04 -3.392318219117e-04 0.0 
-3.106040028882e-04 -1.773737692725e-04 0.0 
3.946355109471e-05 -4.160232976665e-04 0.0 
3.774367221596e-05 -4.934657536143e-04 0.0 
-1.517136738338e-04 -4.154861935355e-04 0.0 
4.104469924569e-05 -1.937261627478e-04 0.0 
-2.156225309536e-04 -2.716795740352e-04 0.0 
6.347985119064e-05 2.578895166905e-04 0.0 
2.534166746872e-05 2.709337491056e-04 0.0 
4.709474303971e-05 2.920863472151e-04 0.0 
1.415697892762e-05 -8.190124123912e-04 0.0 
2.668388302533e-05 -6.941071890532e-04 0.0 
2.405983066672e-05 3.258393884003e-04 0.0 
2.847194018731e-05 -2.233515353073e-05 0.0 
1.278896749089e-05 2.201071789631e-04 0.0 
2.093106027526e-05 7.681005090329e-06 0.0 
1.275973734981e-05 1.910128764247e-05 0.0 
7.280613548042e-05 -5.299357214489e-04 0.0 
4.940149813544e-05 5.967731375059e-04 0.0 
3.684879815761e-05 5.459465673634e-04 0.0 
4.940300046257e-05 -5.344502220426e-06 0.0 
3.369079762507e-05 1.639272602166e-05 0.0 
4.182825955707e-04 -9.430526953630e-05 0.0 
-4.907744321485e-04 3.905158025538e-04 0.0 
6.095513096496e-04 -4.436188679788e-04 0.0 
2.425373082335e-05 -7.514927523925e-04 0.0 
5.995572525909e-04 9.579368127911e-05 0.0 
8.322818427039e-04 -3.369194967275e-04 0.0 
4.794338777343e-04 7.481972433179e-06 0.0 
5.293671534558e-04 -5.240014421427e-04 0.0 
1.173879924458e-04 -7.011969977516e-04 0.0 
3.341687395116e-04 2.344749426248e-05 0.0 
6.318787972752e-04 -3.726611307201e-04 0.0 
1.325527491562e-04 -5.966421485708e-04 0.0 
4.217209592903e-04 -4.921443942640e-06 0.0 
8.173451937584e-05 2.465527890737e-03 0.0 
6.637589103258e-05 -6.005164234935e-04 0.0 
1.526038098026e-03 3.839079673984e-04 0.0 
1.187870389564e-03 4.464722640915e-05 0.0 
4.920710726622e-04 -8.049308969848e-05 0.0 
3.590920933285e-04 -7.267955300751e-05 0.0 
2.894292690594e-03 3.089593820105e-03 0.0 
2.604281488153e-03 9.028038604341e-03 0.0 
3.398544568570e-03 5.163894942953e-03 0.0 
7.781162598363e-04 -7.830885962047e-05 0.0 
3.012533466830e-04 -2.966544701101e-06 0.0 
2.367005699753e-04 -6.055013136405e-05 0.0 
7.582045935875e-04 -2.619123826835e-04 0.0 
1.547281433049e-04 2.543118465987e-03 0.0 
1.997592191692e-04 3.519142264864e-03 0.0 
3.917232892097e-04 8.106626769438e-03 0.0 
8.621955564430e-04 -1.422956334663e-05 0.0 
6.316103601921e-04 -8.293231630703e-05 0.0 
1.056606616288e-04 2.516977150351e-03 0.0 
1.359534403181e-04 3.020373728459e-03 0.0 
1.265450907464e-03 4.638415226469e-05 0.0 
2.276932523678e-04 2.140338420936e-05 0.0 
4.193103488258e-04 3.714926515443e-03 0.0 
1.685270016269e-04 -6.557523480412e-05 0.0 
4.449833541314e-04 7.146138956498e-05 0.0 
1.802966158699e-04 2.568397146440e-03 0.0 
3.584687324221e-04 5.083195888616e-03 0.0 
1.498373581206e-03 3.100378173936e-04 0.0 
2.763675442632e-04 -7.154058286194e-04 0.0 
7.418773987659e-04 -1.363865037313e-04 0.0 
1.668139494844e-04 -4.764656620786e-04 0.0 
-3.013381086075e-04 3.669861328816e-04 0.0 
1.643779428984e-04 3.019806375455e-03 0.0 
2.421204319056e-04 7.877098616988e-06 0.0 
-2.254675722772e-04 1.028894819328e-04 0.0 
1.128542046730e-03 2.639720688214e-03 0.0 
4.578729507976e-04 7.616096937704e-03 0.0 
5.551392318724e-04 -3.101156690314e-06 0.0 
3.062822383626e-04 -2.559331242197e-05 0.0 
1.366796093356e-03 9.953902537213e-05 0.0 
2.477750427636e-04 -3.366207941643e-05 0.0 
4.427078369692e-04 8.124848849093e-03 0.0 
2.541526476932e-03 1.650839082775e-03 0.0 
3.402910533308e-04 6.046798518043e-05 0.0 
1.453095423722e-04 -7.583326335632e-04 0.0 
5.547097477952e-04 1.096255294556e-04 0.0 
2.751985756089e-04 4.538877596186e-03 0.0 
2.319821499201e-04 -7.186486685099e-04 0.0 
8.884058063912e-04 -2.038530258456e-04 0.0 
3.450404657539e-04 -3.224358185399e-04 0.0 
4.942842587434e-04 6.147506420684e-03 0.0 
7.262939935003e-04 -4.673689123930e-04 0.0 
2.024076417281e-04 3.991908922998e-03 0.0 
3.113684938961e-04 5.533954560212e-03 0.0 
7.238567777955e-04 -2.763164808458e-04 0.0 
2.881773868701e-04 -8.269716114939e-05 0.0 
3.661224720327e-04 -4.246375622771e-05 0.0 
2.367606714904e-04 4.503266159100e-03 0.0 
2.863865395974e-04 -7.035754130599e-04 0.0 
5.952968118072e-04 -3.474864968464e-04 0.0 
1.912571797948e-03 1.380861342055e-03 0.0 
3.116452310989e-04 4.093665968850e-03 0.0 
5.829716108334e-04 -4.197456279383e-04 0.0 
1.100910460879e-03 4.510969658031e-06 0.0 
7.187128146613e-04 1.461625785420e-04 0.0 
3.146090283716e-04 5.050884372576e-03 0.0 
2.175943226593e-05 2.216317923403e-03 0.0 
1.459497980843e-04 -6.308523771039e-04 0.0 
1.489507614763e-03 2.588393412989e-03 0.0 
3.534505115335e-04 6.112499155930e-06 0.0 
4.012112807899e-04 5.597587798999e-03 0.0 
2.505678709239e-04 -2.618444185509e-04 0.0 
5.265752414318e-04 7.151037417863e-03 0.0 
1.253851673532e-03 3.733189450236e-04 0.0 
5.928674446170e-04 -2.746755010747e-04 0.0 
4.293640281099e-04 -3.087093160541e-05 0.0 
2.319283759103e-04 -7.321791559646e-04 0.0 
4.838811614560e-04 8.383949388103e-05 0.0 
6.381091892389e-04 -3.002386783247e-04 0.0 
1.832346404193e-04 -7.321765785383e-04 0.0 
5.133469967349e-04 -3.659645707408e-04 0.0 
6.438169839399e-04 -4.847957606503e-04 0.0 
6.285576548476e-04 -5.303504614690e-04 0.0 
3.301386490201e-04 -2.487350807215e-04 0.0 
-5.769471505649e-05 -6.257823456150e-04 0.0 
-9.639810752997e-05 -5.327444757516e-04 0.0 
5.556186936242e-04 -1.009970888592e-04 0.0 
2.666228599037e-04 -7.236022684495e-04 0.0 
7.845678785484e-04 -3.980951696854e-05 0.0 
9.400042190419e-04 -2.336436279509e-05 0.0 
1.045189504534e-03 -2.758495512146e-04 0.0 
1.187085124056e-03 2.436911283343e-04 0.0 
3.583435210291e-04 3.208827967871e-03 0.0 
2.644189293065e-04 4.274731555026e-03 0.0 
5.544142579505e-04 -4.896732804667e-04 0.0 
1.169946498009e-03 3.888172873364e-04 0.0 
2.155347463736e-04 -7.481326610479e-04 0.0 
4.857714522162e-04 6.631445354187e-03 0.0 
5.109137007376e-04 7.649065398230e-03 0.0 
3.828220046964e-04 -5.496862829180e-04 0.0 
9.027297140362e-04 1.967273624252e-04 0.0 
5.410741586944e-04 4.733508901898e-03 0.0 
3.071944054880e-04 -7.016876400056e-04 0.0 
3.680234432288e-04 2.781294179964e-03 0.0 
3.323479701346e-04 2.747455740717e-03 0.0 
3.685392032097e-04 -6.715737386616e-04 0.0 
2.770542134746e-03 9.140331423393e-03 0.0 
5.181277847991e-04 -5.736398029987e-04 0.0 
4.961221264972e-04 -4.727454854740e-05 0.0 
4.613762854979e-04 -2.649922728404e-04 0.0 
8.798602168628e-04 2.614367753807e-03 0.0 
3.218138070706e-04 3.176681461459e-03 0.0 
6.361250245486e-04 -4.706195860702e-05 0.0 
7.089619336431e-04 -2.708291435268e-05 0.0 
4.365553541859e-04 -5.625779689182e-04 0.0 
5.641844118157e-04 -3.190819000812e-05 0.0 
4.922273656795e-04 4.701956736006e-03 0.0 
3.793114060160e-04 -2.792912415925e-04 0.0 
4.491892645563e-04 5.631219265603e-03 0.0 
4.355959942470e-04 4.191375475063e-03 0.0 
3.192691927940e-03 2.971874508080e-03 0.0 
3.021898607184e-04 3.618122953650e-03 0.0 
4.688857579113e-04 -4.122387023040e-04 0.0 
5.089429490096e-04 -2.934213028742e-04 0.0 
5.091583171164e-04 -5.552582162858e-04 0.0 
1.134374543449e-03 -2.136259029730e-04 0.0 
4.498067051877e-04 5.149879806052e-03 0.0 
1.613220014146e-03 1.527949312225e-04 0.0 
4.899014565694e-04 -6.072778429898e-04 0.0 
2.327702952203e-04 -5.625250751787e-04 0.0 
4.982238334415e-04 5.182452673210e-03 0.0 
5.463528279060e-04 -5.724995175165e-04 0.0 
5.843010519724e-04 1.225355487758e-04 0.0 
3.572795042861e-04 4.604150560218e-03 0.0 
6.183124067626e-04 1.334505808038e-05 0.0 
6.299609278210e-04 2.621296487679e-04 0.0 
5.019283865418e-04 -4.408451256279e-04 0.0 
4.169507134820e-04 -6.435280763627e-04 0.0 
2.942003527621e-04 -5.819948358751e-04 0.0 
8.552406654012e-04 2.001443825900e-05 0.0 
3.501461094974e-04 6.049620906433e-03 0.0 
1.557358960074e-04 -5.875989988568e-04 0.0 
6.513707661639e-04 -5.011282185662e-04 0.0 
1.506510554342e-04 -7.697648673369e-04 0.0 
5.465857423512e-04 6.180773704998e-03 0.0 
5.695798961025e-04 -5.114568499648e-04 0.0 
1.022389163729e-03 8.895240756640e-06 0.0 
4.391969055843e-04 -5.752884944977e-04 0.0 
2.323376797949e-04 3.552326425638e-03 0.0 
6.443821436801e-04 -5.241112151706e-04 0.0 
1.077934923871e-03 1.110831088406e-04 0.0 
6.851642967247e-04 -2.314370640127e-04 0.0 
1.018648461399e-03 4.557916103336e-05 0.0 
3.903972747854e-04 -3.521781009322e-04 0.0 
7.688455496640e-04 2.603446800668e-05 0.0 
2.309409823193e-03 1.745948735676e-03 0.0 
1.885223794715e-04 -7.571392997667e-04 0.0 
4.233574088555e-04 7.085136632438e-03 0.0 
2.158872402446e-03 8.222745098442e-04 0.0 
3.229036774456e-03 7.084080698117e-03 0.0 
3.961291923406e-04 6.080942629181e-03 0.0 
8.859584018848e-04 -7.335427538826e-05 0.0 
7.157341179501e-04 5.789545214623e-03 0.0 
1.818734342943e-04 -7.648963650198e-04 0.0 
7.574633656131e-04 1.256353009224e-04 0.0 
2.183348499739e-03 9.292038020698e-04 0.0 
2.445938958191e-03 1.690271589999e-03 0.0 
2.663782324984e-04 2.230259070714e-03 0.0 
1.598270999131e-03 1.855749165657e-04 0.0 
3.219980889126e-04 -6.756619953500e-04 0.0 
1.363572927927e-03 1.376879877449e-04 0.0 
7.600288234721e-04 1.667477061634e-04 0.0 
1.321765899085e-03 1.405915008534e-04 0.0 
7.001944958005e-04 4.517069016911e-06 0.0 
4.006394932853e-04 4.637203011050e-03 0.0 
1.174201321259e-03 4.642505427052e-04 0.0 
1.188697842099e-03 8.375533360161e-05 0.0 
7.556819780786e-04 7.276633951288e-03 0.0 
2.798813655761e-04 -6.874678093633e-04 0.0 
7.235378795570e-04 -4.778727091145e-04 0.0 
3.247249152772e-03 5.370463489130e-03 0.0 
9.293086256700e-04 4.756355908727e-05 0.0 
2.990111225792e-03 8.492970540944e-03 0.0 
3.343869443084e-03 5.307923135713e-03 0.0 
6.004351465977e-04 5.245840381059e-03 0.0 
4.355943695798e-04 6.598513029287e-03 0.0 
7.671255812243e-04 6.787696285772e-03 0.0 
4.722348785591e-04 -3.374625540186e-04 0.0 
1.097754242154e-03 2.600800964843e-04 0.0 
1.541442608035e-03 2.109210178453e-04 0.0 
5.820899662718e-04 7.190169443789e-03 0.0 
1.045532083869e-03 2.139798042355e-03 0.0 
2.306290920797e-03 1.684808205224e-03 0.0 
1.097997211084e-03 8.030299712722e-05 0.0 
3.924252501065e-04 4.159194617266e-03 0.0 
1.050721562996e-03 -2.788042900028e-04 0.0 
8.820124132015e-04 -3.847696036529e-04 0.0 
3.966555501225e-04 -6.059440946906e-04 0.0 
1.442775487220e-03 2.266891712484e-04 0.0 
8.000456242146e-04 -4.181348336155e-04 0.0 
6.032723965592e-04 5.728894959032e-03 0.0 
7.144651395874e-04 6.275756694499e-03 0.0 
2.988424625983e-03 2.211775047848e-03 0.0 
8.567138907429e-04 -3.882963918511e-04 0.0 
2.683895541785e-03 3.272275742372e-03 0.0 
7.977600749081e-04 -4.360334821303e-04 0.0 
9.636108468376e-04 -3.345907964471e-04 0.0 
4.359431650560e-04 -6.106186121061e-04 0.0 
1.305358007496e-03 3.413457915360e-04 0.0 
1.507903603025e-03 5.186138094990e-05 0.0 
3.396098907268e-04 3.650599151234e-03 0.0 
1.690743309720e-03 2.049332730274e-04 0.0 
1.452787188138e-03 1.914533614511e-04 0.0 
1.560998642218e-03 1.335200148385e-04 0.0 
3.383554965467e-03 4.437193289004e-03 0.0 
3.912174650754e-04 -6.457285599967e-04 0.0 
9.493483287964e-04 2.238997530933e-04 0.0 
8.210014693124e-04 2.075545129002e-04 0.0 
2.713106622593e-03 4.085542724083e-03 0.0 
1.139113000008e-03 -2.196215485603e-04 0.0 
1.527251165822e-03 1.665922993966e-04 0.0 
5.499078764179e-04 5.697059417075e-03 0.0 
9.576082237392e-04 -3.242412058656e-04 0.0 
3.325197376876e-03 6.606941805076e-03 0.0 
5.778047003812e-04 -5.584573544769e-04 0.0 
1.107681521453e-03 1.118012074282e-04 0.0 
1.226765223428e-03 -1.599638974947e-04 0.0 
5.055288402122e-04 -5.994749262486e-04 0.0 
3.309019120737e-04 -6.850271707792e-04 0.0 
1.461552159239e-03 6.558053036812e-05 0.0 
1.273102019889e-03 1.271252497614e-04 0.0 
1.856927526491e-03 2.440118469093e-03 0.0 
-1.067959538148e-04 -5.754931092425e-04 0.0 
2.147603575681e-03 7.416101241666e-04 0.0 
1.820736662092e-03 3.471023550988e-04 0.0 
1.321979091491e-03 -9.054761530611e-05 0.0 
6.563632504078e-04 6.245189866749e-03 0.0 
1.554226566307e-03 9.443276990824e-05 0.0 
5.820372089217e-04 -5.459781545940e-04 0.0 
1.407368174074e-03 -2.805010170043e-05 0.0 
2.734240064723e-04 4.060704520857e-03 0.0 
5.140618477116e-04 -5.734470629991e-04 0.0 
1.969539241401e-04 -6.503517219911e-04 0.0 
3.168919274761e-04 -6.376256772557e-04 0.0 
1.178160915932e-03 6.603140445024e-05 0.0 
1.035318862444e-03 -2.724995391959e-04 0.0 
2.010740243758e-03 5.337236164933e-04 0.0 
1.587074073938e-03 1.150676530449e-04 0.0 
6.447809300590e-04 -9.207604990348e-05 0.0 
2.869601662468e-04 -6.722336300244e-04 0.0 
1.035087079925e-03 6.912517439435e-03 0.0 
4.465409193509e-04 -6.272611302253e-04 0.0 
1.388105991221e-03 3.396502982008e-04 0.0 
2.123182376607e-03 2.680974188050e-03 0.0 
1.855090435146e-03 6.379563219710e-03 0.0 
5.695082765815e-04 3.361741240346e-03 0.0 
1.573453482331e-03 2.148425938638e-03 0.0 
3.121483506152e-03 2.698178565909e-03 0.0 
2.451061051452e-03 3.375244317111e-03 0.0 
8.584320815315e-04 9.136015978878e-05 0.0 
1.287866472150e-03 -1.042656986957e-04 0.0 
3.355689788689e-03 4.245076116151e-03 0.0 
1.430461722660e-03 1.050963599570e-03 0.0 
5.804423061689e-04 8.313133807895e-05 0.0 
8.815418485648e-04 -3.773747518597e-04 0.0 
1.714567966172e-03 2.386279902592e-04 0.0 
1.902599524238e-03 4.134485149749e-04 0.0 
4.508414183098e-04 -6.137124668586e-04 0.0 
1.715934755103e-03 2.353934319610e-04 0.0 
2.037326058404e-03 5.977105216738e-04 0.0 
2.338238420639e-03 9.650115496294e-04 0.0 
9.529466028449e-04 -3.342816912274e-04 0.0 
2.385528516211e-03 1.267463739975e-03 0.0 
6.547949788089e-04 5.275923808900e-03 0.0 
2.479340584835e-03 1.254294757832e-03 0.0 
1.151256688249e-03 2.955033668082e-04 0.0 
1.096328517306e-03 3.063155289765e-04 0.0 
9.710799636515e-04 3.161460216542e-04 0.0 
1.866298061643e-03 3.669377677372e-04 0.0 
1.254098029031e-03 1.777696865184e-03 0.0 
2.510381063202e-03 5.463740028140e-03 0.0 
9.528433131967e-04 3.928998175563e-05 0.0 
1.946254559727e-03 5.864412430096e-03 0.0 
7.240792287413e-04 2.993519098979e-03 0.0 
2.029724795806e-03 5.352112993311e-04 0.0 
3.224889341238e-03 5.988867020409e-03 0.0 
2.021738438378e-03 5.343524397006e-03 0.0 
3.243264634691e-03 6.332398672022e-03 0.0 
6.944507015127e-04 2.302635647276e-05 0.0 
2.765481892685e-04 1.425991673467e-03 0.0 
4.992930624028e-04 -1.497917431796e-04 0.0 
1.437033047114e-03 7.890590586662e-04 0.0 
2.364492703441e-04 2.650468885326e-03 0.0 
2.168461456120e-03 1.013308854840e-03 0.0 
5.935876606641e-04 6.703844664427e-03 0.0 
6.028159858940e-04 3.836440777215e-03 0.0 
2.228689047582e-03 8.086822587388e-04 0.0 
2.919266380757e-03 2.008862846535e-03 0.0 
4.364864200845e-04 2.398169222900e-03 0.0 
1.152978527680e-03 1.475858313239e-04 0.0 
6.997941828407e-04 4.821883624964e-03 0.0 
2.030087152771e-03 7.319959958361e-04 0.0 
9.225136830373e-04 2.264957861036e-04 0.0 
7.368126016413e-04 4.367951339372e-03 0.0 
8.856434207987e-04 8.774112922236e-04 0.0 
8.554159405720e-04 2.311530621832e-04 0.0 
1.385573332890e-03 -3.892876722118e-05 0.0 
6.500006485792e-04 6.736425284221e-03 0.0 
6.966589346132e-04 7.255929777487e-03 0.0 
1.760610543045e-03 2.668968906293e-04 0.0 
1.337904199803e-03 2.059741835511e-04 0.0 
1.377735739242e-03 2.780898481818e-04 0.0 
2.681700796051e-04 -6.265681044403e-04 0.0 
2.383604454042e-03 3.436562789652e-03 0.0 
2.660061642247e-03 1.513475044496e-03 0.0 
2.368857039063e-03 1.069065151477e-03 0.0 
3.378846061561e-03 5.473548368709e-03 0.0 
3.456418348587e-04 1.912155044961e-03 0.0 
1.062834679699e-03 2.637658690288e-03 0.0 
2.666872150203e-04 2.683569852500e-03 0.0 
2.907091071641e-03 8.446009503286e-03 0.0 
8.836532304195e-04 3.959494216288e-03 0.0 
1.257444992683e-03 1.601756357703e-04 0.0 
3.299666828232e-04 2.313662997265e-03 0.0 
8.794078597363e-04 4.896666978905e-03 0.0 
1.453261254209e-03 2.034783229253e-05 0.0 
2.799024249658e-03 1.898876090620e-03 0.0 
6.808439658662e-04 4.341581418036e-03 0.0 
4.840779838995e-04 2.861232912622e-03 0.0 
5.274003850935e-04 4.254935748775e-03 0.0 
6.445618215004e-04 4.793885145949e-03 0.0 
9.890700211895e-04 1.956877645687e-04 0.0 
1.673246414957e-03 1.021142101385e-03 0.0 
1.183938711668e-03 2.588108129063e-04 0.0 
1.356749268037e-03 9.605499744063e-05 0.0 
2.303738382742e-03 9.816598529625e-03 0.0 
2.113312600687e-03 1.070881086875e-03 0.0 
1.228515913395e-03 4.970860257341e-03 0.0 
3.825020254358e-04 -6.631097092654e-04 0.0 
2.554528924573e-03 1.316926421347e-03 0.0 
2.477163113587e-03 1.116542232414e-03 0.0 
2.786777226377e-03 1.794787074790e-03 0.0 
1.716613731244e-03 1.846332936138e-03 0.0 
2.695419078119e-03 1.669134848512e-03 0.0 
2.591564737636e-03 1.570169505431e-03 0.0 
2.566479280992e-03 8.248615420908e-03 0.0 
1.412808219069e-03 1.077050913642e-05 0.0 
9.685083139681e-04 5.892005009319e-03 0.0 
6.482135327921e-04 8.835525120737e-03 0.0 
-6.948995716466e-04 8.675268407190e-03 0.0 
1.431772086035e-03 1.054916526982e-04 0.0 
2.003999679423e-03 8.873589458426e-04 0.0 
8.435725532798e-04 2.198536713781e-03 0.0 
2.921286691229e-03 2.003547810559e-03 0.0 
1.403345436365e-03 5.653478539698e-05 0.0 
7.754916938887e-04 5.818030086466e-03 0.0 
2.136668279404e-04 1.114732734832e-02 0.0 
2.228242029918e-03 1.116351991658e-03 0.0 
2.747541887157e-03 1.631009138635e-03 0.0 
2.527047088190e-03 7.849548054569e-03 0.0 
1.302775641139e-03 2.309103864759e-04 0.0 
1.341997053886e-03 8.332333785439e-04 0.0 
1.320189141487e-03 2.925385898950e-04 0.0 
1.080562035501e-03 3.151421121390e-04 0.0 
2.443532715940e-03 1.390655303511e-03 0.0 
5.765282156883e-04 4.285228564984e-03 0.0 
2.293315182875e-03 2.330994419246e-03 0.0 
1.037265246150e-03 2.829215727001e-04 0.0 
1.063499311509e-03 1.213313716232e-02 0.0 
8.309631230342e-04 5.357940092263e-03 0.0 
1.689231289845e-03 1.210480080755e-03 0.0 
5.537325970564e-04 3.808086403178e-03 0.0 
2.665259195447e-03 1.605660926841e-03 0.0 
2.860758613858e-03 1.947579735273e-03 0.0 
8.509436072798e-04 -2.006998944304e-04 0.0 
6.511553252436e-04 2.512194455484e-03 0.0 
4.369765919551e-04 3.274674514937e-03 0.0 
3.343619593768e-04 -6.706196389778e-04 0.0 
1.650391784731e-03 1.253237705663e-02 0.0 
2.417910651133e-03 2.780256644766e-03 0.0 
2.372471913427e-04 2.198519688910e-03 0.0 
1.062793458285e-03 5.449293917673e-04 0.0 
3.114954917890e-03 5.354322462389e-03 0.0 
8.169410255623e-04 4.873786478805e-03 0.0 
1.173359604664e-03 -9.965086679987e-05 0.0 
1.616183871259e-03 1.556957042426e-03 0.0 
3.119111141876e-03 5.999950837106e-03 0.0 
6.317980653804e-04 2.180088629328e-04 0.0 
1.139821867820e-03 7.316938407612e-04 0.0 
8.722950335250e-04 4.535380995764e-04 0.0 
2.824608890199e-03 1.810214845217e-03 0.0 
1.474855538051e-04 4.920871211554e-04 0.0 
1.893644511239e-03 1.244592121414e-02 0.0 
8.058116338731e-04 1.471126809693e-04 0.0 
3.024096224781e-03 2.889872021099e-03 0.0 
1.028437069362e-03 5.419336057396e-03 0.0 
1.198467892175e-03 2.437582575798e-03 0.0 
9.306157805160e-04 2.847072431647e-04 0.0 
8.098880622300e-04 2.930395076414e-04 0.0 
3.835215895675e-04 -6.149183884497e-04 0.0 
2.377867915208e-03 1.451461317063e-03 0.0 
2.079821834125e-03 5.964338322433e-04 0.0 
1.906211933241e-03 1.302674947506e-03 0.0 
3.207954019345e-03 7.294431155026e-03 0.0 
1.123915109898e-03 4.481517435095e-03 0.0 
1.432771024324e-03 8.268913027727e-04 0.0 
7.697849160877e-04 5.332407159758e-03 0.0 
8.983406490782e-04 2.205520477345e-03 0.0 
7.640397672554e-04 3.915449888071e-03 0.0 
7.791702106156e-04 3.464281197945e-03 0.0 
1.904896063243e-03 4.409405592556e-03 0.0 
8.219862086606e-04 1.159138802143e-04 0.0 
8.556564434876e-04 4.415764834205e-03 0.0 
3.255745790116e-03 3.230400002679e-03 0.0 
1.973671349851e-03 1.199798544094e-02 0.0 
1.184412831370e-03 6.827203867173e-04 0.0 
2.032535513947e-03 2.886464998644e-03 0.0 
3.902625716978e-04 -6.351535140974e-04 0.0 
2.109024151286e-03 1.447692253952e-03 0.0 
3.249833675535e-05 -8.036586644795e-04 0.0 
3.342853194270e-03 4.599609983821e-03 0.0 
2.160749477525e-03 1.167574368680e-03 0.0 
6.115333632592e-04 2.522089407532e-03 0.0 
5.803910726552e-04 2.077022163133e-03 0.0 
2.333683106485e-03 1.336236836999e-03 0.0 
6.183864144955e-04 3.389447435134e-03 0.0 
3.183259046733e-03 3.248069402084e-03 0.0 
2.266898058941e-03 3.070679627837e-03 0.0 
1.949646286183e-03 1.135841464027e-02 0.0 
1.208001602614e-03 2.222799524946e-03 0.0 
1.843656786442e-03 1.059307737883e-02 0.0 
1.767734316702e-03 1.017391765043e-02 0.0 
3.068047477695e-03 2.451387332423e-03 0.0 
1.676838056395e-03 9.737108189846e-03 0.0 
3.154893157159e-03 3.458464714341e-03 0.0 
3.374125531437e-03 4.203812254290e-03 0.0 
2.712363529134e-03 1.562025207903e-03 0.0 
1.382312239979e-03 1.436319586340e-03 0.0 
2.954238555209e-03 2.185059838028e-03 0.0 
4.429665079148e-04 2.833379524956e-03 0.0 
9.872996673276e-04 2.148270543985e-03 0.0 
9.756484541139e-04 1.048435066139e-04 0.0 
1.679658269979e-03 1.081951305129e-03 0.0 
2.187493120672e-03 7.274928719960e-04 0.0 
7.229419015602e-04 3.441184302266e-03 0.0 
2.809455329206e-03 1.766388656572e-03 0.0 
6.595930391438e-04 8.708881769159e-05 0.0 
7.076627595831e-04 3.890516893338e-03 0.0 
9.474303563976e-04 3.977269810922e-03 0.0 
2.465611109875e-03 1.296009639237e-03 0.0 
3.080261237511e-03 2.676431377558e-03 0.0 
1.912742551641e-03 2.381744792404e-03 0.0 
2.418409804830e-03 5.557621281581e-03 0.0 
1.297363079446e-03 1.176869018327e-03 0.0 
1.924149417732e-03 2.509044771710e-03 0.0 
3.291885803975e-03 6.750094227907e-03 0.0 
3.048687848170e-03 5.552355108514e-03 0.0 
5.100863541501e-04 6.607565500116e-05 0.0 
9.190415975963e-04 4.436712266743e-03 0.0 
2.992639138281e-03 2.402924934251e-03 0.0 
2.787274095672e-03 4.518452670073e-03 0.0 
1.931033664975e-03 9.279674298006e-04 0.0 
4.793134117591e-04 3.305533478644e-03 0.0 
1.636363641930e-03 2.121738543381e-03 0.0 
1.107722540342e-03 5.923356074098e-03 0.0 
1.531211730389e-03 5.411171899398e-04 0.0 
2.835797335802e-03 1.795641522038e-03 0.0 
1.881501317509e-03 8.474884255864e-04 0.0 
3.322900820044e-03 4.865193783069e-03 0.0 
4.777927232793e-04 2.436965688444e-03 0.0 
1.313060190027e-03 1.762512209443e-03 0.0 
2.641760795302e-03 1.464613065550e-03 0.0 
1.668126228278e-03 2.367673068325e-03 0.0 
2.111890844074e-03 2.006603842387e-03 0.0 
3.225767908707e-03 4.047970399271e-03 0.0 
3.104082836817e-03 2.936061858977e-03 0.0 
2.597309767414e-03 1.454692624183e-03 0.0 
1.520348148771e-03 4.441146659296e-04 0.0 
1.568655847990e-03 2.027470191079e-03 0.0 
2.756710022288e-03 1.621750851432e-03 0.0 
1.929659199665e-03 5.385993022539e-03 0.0 
4.661602873346e-04 5.354408419432e-05 0.0 
1.988696159059e-03 4.869823605434e-03 0.0 
2.260214418110e-03 2.425202221771e-03 0.0 
1.853454903603e-03 5.897636376596e-03 0.0 
1.663508501270e-03 6.903585830105e-03 0.0 
2.475915683274e-03 4.993138745610e-03 0.0 
1.885050951148e-03 1.152271926945e-03 0.0 
9.337996548548e-04 1.257683599800e-04 0.0 
1.011258599875e-03 4.935229154417e-03 0.0 
5.359355232859e-04 2.059927514225e-03 0.0 
1.763276784394e-03 6.403404601038e-03 0.0 
2.792547969501e-03 2.746842531660e-03 0.0 
1.889531616171e-03 1.772011979261e-03 0.0 
3.625729277050e-04 2.334889378550e-03 0.0 
3.345239570965e-03 4.052812405641e-03 0.0 
3.297445023768e-03 4.196888749646e-03 0.0 
2.929123758340e-03 2.582153507375e-03 0.0 
1.052837835351e-03 4.470577779779e-03 0.0 
3.085224256879e-03 7.925698741750e-03 0.0 
3.058700855470e-03 3.121819282371e-03 0.0 
3.161674618717e-03 7.627480075730e-03 0.0 
2.266432282969e-03 1.472012915398e-03 0.0 
1.409189951322e-03 1.228316869443e-03 0.0 
2.821353323874e-03 2.088268161071e-03 0.0 
5.965924214708e-04 2.146811838023e-03 0.0 
6.729141676220e-04 2.105050479507e-03 0.0 
2.990849266517e-03 7.893976391806e-03 0.0 
2.344927245979e-03 9.235380198851e-04 0.0 
1.670679656141e-03 1.467519876353e-03 0.0 
1.081277711652e-03 4.951319072819e-03 0.0 
1.113825530840e-03 1.706131795703e-04 0.0 
3.310679221477e-03 3.905600141865e-03 0.0 
2.956705567877e-04 2.013157944327e-03 0.0 
3.336098286553e-04 4.250194456937e-05 0.0 
3.081544560627e-03 4.900277261393e-03 0.0 
2.640274122585e-03 2.068638535528e-03 0.0 
1.726180088192e-03 2.007315146597e-03 0.0 
-2.547310345676e-04 2.103375281081e-03 0.0 
1.183163437179e-03 2.081391869416e-04 0.0 
2.870765078446e-03 4.950054953346e-03 0.0 
1.181854906887e-03 5.934486430647e-03 0.0 
1.152726254006e-03 -4.457407890074e-05 0.0 
2.921488271146e-03 2.354836901946e-03 0.0 
6.090199480275e-04 6.974889572969e-05 0.0 
3.150640361985e-03 3.670606621993e-03 0.0 
2.819030059941e-03 2.511267211270e-03 0.0 
2.974445925778e-03 4.642524127640e-03 0.0 
2.635938796400e-04 1.677841473232e-03 0.0 
2.506368962427e-03 3.267181445308e-03 0.0 
2.237014693175e-03 1.368148518314e-03 0.0 
1.026224378845e-03 1.446892203560e-03 0.0 
2.174474929625e-03 2.601586693291e-03 0.0 
2.270495373961e-03 2.423550651506e-03 0.0 
9.063709055971e-04 7.604779295449e-05 0.0 
3.128398184640e-04 1.876728588277e-03 0.0 
9.107322533592e-04 5.510599119921e-04 0.0 
2.094275024216e-03 1.358098437135e-03 0.0 
3.230645869216e-03 3.262134862835e-03 0.0 
2.772107676133e-03 3.947405572613e-03 0.0 
3.794048583267e-04 3.253232205957e-05 0.0 
2.652211302301e-04 -3.338978389850e-04 0.0 
2.373498522934e-03 2.883229261273e-03 0.0 
9.599714833326e-04 5.401721314422e-03 0.0 
7.653318718246e-04 9.334889487932e-05 0.0 
1.121873105463e-03 2.215908716588e-04 0.0 
2.613155970526e-04 9.305177423907e-03 0.0 
1.744053563974e-04 9.305704857568e-03 0.0 
1.809597028094e-03 4.939540216090e-03 0.0 
2.673506580866e-03 3.541082994351e-03 0.0 
9.981662901591e-04 -7.533072624938e-05 0.0 
2.340002216893e-03 4.621827684126e-03 0.0 
3.232372439430e-03 3.584523535144e-03 0.0 
1.345337137749e-03 5.661558392971e-04 0.0 
3.290390916194e-03 3.569712277278e-03 0.0 
1.315902851522e-04 5.018268924777e-04 0.0 
1.698521059032e-03 7.876837813539e-03 0.0 
3.299796759316e-03 3.945583793172e-03 0.0 
1.244769580239e-03 4.346735131138e-07 0.0 
2.273741926922e-03 3.026231808688e-03 0.0 
1.314939201764e-03 -4.985839068845e-05 0.0 
2.908780500225e-03 4.213343676517e-03 0.0 
2.877660969557e-03 5.428962309848e-03 0.0 
1.172588547684e-03 5.446556332348e-03 0.0 
2.272633254345e-03 4.169806788618e-03 0.0 
2.110365185499e-03 3.800359024480e-03 0.0 
7.024602837880e-05 -8.200254690855e-04 0.0 
1.257685376164e-03 -1.056179990069e-04 0.0 
3.079197816068e-03 7.646468223373e-03 0.0 
2.207137452658e-03 5.234681774299e-03 0.0 
2.078989510448e-03 4.821903615641e-03 0.0 
1.659441078735e-03 9.101256209176e-04 0.0 
1.834135782773e-05 -7.873313552298e-04 0.0 
1.224148550965e-03 1.595158522206e-03 0.0 
3.220263046208e-03 4.920330963170e-03 0.0 
1.162581367541e-03 -1.588965853990e-04 0.0 
1.847316635893e-03 1.014502396779e-02 0.0 
1.757456143343e-03 9.719507580272e-03 0.0 
1.248749474881e-03 5.455157861553e-03 0.0 
1.686751890817e-03 4.783007650974e-03 0.0 
1.120978572863e-03 -9.307646436000e-05 0.0 
1.943999295808e-03 8.024272585221e-04 0.0 
1.310062298992e-03 1.896933233234e-03 0.0 
7.397224269153e-04 6.842694639359e-04 0.0 
6.224409044008e-04 2.954539445353e-03 0.0 
8.991395624030e-04 -2.181697969761e-04 0.0 
8.078677695020e-04 7.440766098560e-05 0.0 
9.523653242377e-05 -7.842489011111e-04 0.0 
1.965695680809e-03 7.326174088650e-04 0.0 
3.132791429643e-03 4.700973514086e-03 0.0 
7.376568125334e-05 -8.108361750307e-04 0.0 
5.742624250084e-04 2.927735572953e-03 0.0 
1.118492956692e-03 2.086325273288e-03 0.0 
2.298818410265e-03 5.165505040627e-03 0.0 
2.952772139893e-03 5.265281749605e-03 0.0 
2.401846148564e-03 1.024107651306e-03 0.0 
1.917611004548e-03 5.122719201648e-04 0.0 
5.661233479741e-04 2.506206649585e-03 0.0 
1.784105521870e-03 4.839815638652e-04 0.0 
3.205628897321e-03 4.273044664741e-03 0.0 
3.257353638155e-03 4.687546814364e-03 0.0 
-8.630491547962e-04 7.001349482295e-03 0.0 
8.345409130851e-04 1.951118855400e-03 0.0 
2.051734606492e-03 2.171874638519e-03 0.0 
1.587262834287e-03 6.425873424981e-03 0.0 
1.862476143354e-03 1.843074972867e-03 0.0 
2.935983842075e-03 5.456786072888e-03 0.0 
1.311200018505e-03 3.550911016659e-03 0.0 
1.772552229739e-03 1.950244342483e-03 0.0 
1.821769793901e-03 9.240602218321e-03 0.0 
2.010407246206e-03 2.245286493531e-03 0.0 
7.444103738377e-04 5.194345686606e-05 0.0 
2.867595987946e-03 3.648958000344e-03 0.0 
1.267978996710e-03 -5.043450346591e-05 0.0 
1.307641291141e-03 1.148651387817e-06 0.0 
7.246866017321e-04 2.124604523782e-03 0.0 
1.999052008779e-03 5.287588041456e-04 0.0 
2.911940574764e-03 4.809495969727e-03 0.0 
3.157152635032e-03 2.886121771206e-03 0.0 
1.598982059643e-03 4.427772963506e-04 0.0 
3.327606954960e-03 3.777858523921e-03 0.0 
2.355782184604e-03 2.217141954036e-03 0.0 
2.577957577751e-03 1.299573071817e-03 0.0 
2.641233914812e-03 2.652142595934e-03 0.0 
2.254876202256e-03 4.700312725703e-03 0.0 
2.531513261959e-03 2.327064746362e-03 0.0 
2.560913511562e-03 4.892472025879e-03 0.0 
1.866983592137e-03 1.079087690584e-03 0.0 
2.046790075410e-03 1.181049803691e-03 0.0 
3.343932540312e-03 3.841690885750e-03 0.0 
1.336868768830e-03 5.944576231895e-03 0.0 
6.513013850440e-04 5.354476879787e-05 0.0 
5.938544718325e-04 3.646376900197e-05 0.0 
1.049726216665e-03 4.973575439153e-03 0.0 
2.502769710447e-03 4.438638135440e-03 0.0 
3.691178384553e-04 5.097812490602e-05 0.0 
2.492612556315e-03 1.050269530557e-02 0.0 
8.845486758451e-04 -1.536108825324e-04 0.0 
-5.385495608654e-04 7.497792702428e-03 0.0 
5.076469680005e-04 4.013632512694e-05 0.0 
2.381766696876e-03 2.776356115784e-03 0.0 
2.199212923961e-04 -3.038625998668e-04 0.0 
2.660250927075e-03 2.212283431982e-03 0.0 
1.418002408046e-03 5.946607939261e-03 0.0 
1.501746880717e-03 6.429935007956e-03 0.0 
3.074493303912e-03 4.277971221175e-03 0.0 
1.985265227230e-03 1.092826774071e-02 0.0 
1.924577587506e-03 1.055015039095e-02 0.0 
4.563995487925e-04 2.760074332884e-05 0.0 
1.901593616690e-03 5.409573755659e-04 0.0 
2.377463569403e-03 9.684890693753e-04 0.0 
2.036847434829e-03 8.211495745506e-04 0.0 
2.649611453059e-03 1.412960116371e-03 0.0 
2.576774160373e-03 2.895025267885e-03 0.0 
1.906892492360e-03 1.098991017559e-02 0.0 
1.639093500875e-03 7.407057649463e-03 0.0 
2.200866164252e-04 9.593059339632e-03 0.0 
2.014709668483e-03 1.095700134121e-03 0.0 
3.305208492280e-03 3.547066883024e-03 0.0 
1.192796230504e-03 7.234304706400e-04 0.0 
1.955315720069e-04 -1.663852493618e-05 0.0 
2.667615939618e-03 1.443432894434e-03 0.0 
3.083516044701e-04 5.251629132831e-05 0.0 
2.466278921515e-03 1.847138888816e-03 0.0 
1.450779433640e-03 9.787529715166e-04 0.0 
3.110240179643e-03 4.082826520636e-03 0.0 
2.789648390649e-03 3.123318735113e-03 0.0 
1.402535297038e-03 5.112904785150e-04 0.0 
1.324541479100e-03 -7.754790100007e-05 0.0 
2.717193769688e-03 4.655637593555e-03 0.0 
2.550433748327e-03 1.238276448286e-03 0.0 
2.766749078444e-03 5.110361453453e-03 0.0 
3.082294974908e-03 5.508024589244e-03 0.0 
2.672996125247e-03 2.641482812973e-03 0.0 
2.507653106727e-03 1.190792916668e-03 0.0 
1.086447652547e-03 -3.876085690027e-05 0.0 
2.685643282827e-03 5.241133411859e-03 0.0 
-5.485355737080e-04 5.116429204133e-03 0.0 
2.994064296537e-03 2.534220820946e-03 0.0 
4.336147894890e-04 7.297623269810e-03 0.0 
2.190074094562e-04 -6.982401822390e-04 0.0 
9.729142109196e-04 -1.212425824514e-04 0.0 
2.007541629801e-03 2.823806033238e-03 0.0 
1.586593191869e-03 5.949671940386e-03 0.0 
2.051199398463e-03 1.158697127563e-02 0.0 
6.811043396156e-05 2.439373757872e-04 0.0 
-1.160400218995e-03 5.772796358554e-03 0.0 
2.029704812225e-03 1.127441661045e-02 0.0 
2.295064787490e-03 8.704680187157e-04 0.0 
7.633614510365e-04 -2.287349810697e-04 0.0 
2.306391590825e-03 9.399104958486e-03 0.0 
2.157111238301e-03 1.022525680449e-03 0.0 
2.013174609279e-03 5.701381921108e-04 0.0 
2.957581009344e-03 4.048094517359e-03 0.0 
2.766829699068e-03 2.177899616303e-03 0.0 
1.479046255434e-03 2.644635250177e-03 0.0 
1.337853471714e-03 4.590822547370e-03 0.0 
9.892783122125e-04 -1.830133011882e-04 0.0 
7.121186279765e-04 -2.071813930544e-04 0.0 
8.278391751095e-04 -3.852641104810e-04 0.0 
1.715593275097e-03 8.794663672302e-03 0.0 
1.673871767366e-03 5.941810854840e-03 0.0 
7.074153547800e-05 -9.497245362847e-05 0.0 
6.918663814712e-05 -8.012865668318e-04 0.0 
-5.764445220463e-04 2.312426974311e-03 0.0 
5.251867102818e-04 -4.552715258269e-04 0.0 
6.273722101135e-04 -2.291997155805e-04 0.0 
2.614935996350e-03 1.764858317334e-03 0.0 
2.130493597929e-03 1.132707951736e-03 0.0 
2.244654703397e-03 1.914716710782e-03 0.0 
8.255404737737e-04 -1.370635695339e-04 0.0 
1.721491156957e-03 4.958126521641e-03 0.0 
5.745480660818e-04 -2.045388892477e-04 0.0 
2.723416373495e-03 2.019649740661e-03 0.0 
2.577944172955e-03 4.332575661524e-03 0.0 
1.009320548045e-03 7.912128169916e-03 0.0 
2.314653617469e-03 1.789217855034e-03 0.0 
4.924766370736e-04 -2.215856447081e-04 0.0 
7.406925821484e-04 -1.625989934166e-04 0.0 
2.020505681626e-03 1.207353257480e-02 0.0 
2.498721999580e-03 1.385444028106e-03 0.0 
4.377538429555e-04 -1.948735577332e-04 0.0 
3.780745672713e-05 5.831106429668e-03 0.0 
4.217687796833e-05 6.796164846407e-03 0.0 
2.047976573056e-03 1.186102556735e-02 0.0 
6.810153716056e-04 -1.423622254132e-04 0.0 
1.802280198730e-03 5.837084421354e-04 0.0 
1.347506561105e-03 7.883955270400e-03 0.0 
1.447566278481e-03 9.284105904398e-04 0.0 
5.510758092745e-04 -2.837723508288e-04 0.0 
1.827718284677e-03 5.156571119586e-04 0.0 
3.101962774332e-03 2.817926033885e-03 0.0 
1.975364971000e-03 1.169631123409e-02 0.0 
3.574807343839e-04 -2.077240249945e-04 0.0 
4.877665115087e-05 -7.195777300270e-04 0.0 
1.670949075156e-03 8.349935972485e-03 0.0 
5.996172734019e-04 -1.622837987182e-04 0.0 
2.240123591144e-03 7.832525314657e-04 0.0 
1.029447892164e-03 -1.331750985615e-04 0.0 
-3.929770265035e-04 4.231006440792e-03 0.0 
4.590269891133e-05 2.998504291973e-03 0.0 
2.164068088320e-03 8.265799028675e-04 0.0 
1.573643251883e-03 7.320854359905e-04 0.0 
2.810932579624e-03 2.975031001791e-03 0.0 
5.406058858030e-04 -1.394389605618e-04 0.0 
4.608138843648e-04 -1.549819641164e-04 0.0 
2.494001287664e-03 1.681849994671e-03 0.0 
2.511484445479e-04 -1.515789604415e-04 0.0 
-2.852352440470e-04 4.765601648004e-03 0.0 
4.020382150946e-04 -1.303522722517e-04 0.0 
1.453548490672e-03 5.648391007595e-04 0.0 
1.494997657628e-03 1.741892364024e-04 0.0 
2.494115492697e-03 3.897131031583e-03 0.0 
2.494136066145e-03 1.060377319558e-02 0.0 
2.350402919611e-03 4.087283959664e-03 0.0 
5.417348163381e-04 1.544928330669e-04 0.0 
-1.341792885921e-03 2.531668740922e-03 0.0 
6.615174195270e-06 2.621747386651e-04 0.0 
1.485999210180e-05 7.145931629587e-06 0.0 
2.679457376085e-05 8.328412789232e-03 0.0 
1.835254406434e-03 3.968308644722e-04 0.0 
2.902667558416e-03 3.490220741436e-03 0.0 
2.713457622368e-03 2.215332185431e-03 0.0 
1.777230152206e-04 -6.874158470209e-04 0.0 
-7.965140785673e-04 6.112122715465e-03 0.0 
1.881129940158e-04 2.161384588365e-03 0.0 
1.748753672405e-03 5.437803274589e-03 0.0 
1.663099914255e-03 9.271365136047e-03 0.0 
3.792773513147e-04 3.096289999046e-04 0.0 
4.043412595328e-05 -7.663627306736e-04 0.0 
3.703490213203e-04 2.755717781928e-04 0.0 
1.660984186920e-03 5.458136371506e-03 0.0 
1.521089650962e-03 7.480515229316e-05 0.0 
3.028399455544e-03 3.694212557912e-03 0.0 
1.731444833398e-03 3.246127306856e-04 0.0 
1.711357036794e-03 8.845232634857e-03 0.0 
1.515856376064e-03 1.364161779822e-04 0.0 
1.765349246254e-03 4.463596818695e-03 0.0 
1.949058528285e-04 2.273885376372e-06 0.0 
2.056342135769e-03 7.501624892194e-04 0.0 
2.257615095563e-03 3.653640953733e-03 0.0 
-1.100902410562e-03 2.180858831115e-03 0.0 
2.392162849248e-03 1.308782521064e-03 0.0 
1.378666635853e-03 4.023459748204e-03 0.0 
1.224589154478e-03 -1.409685376014e-04 0.0 
1.274219651663e-03 -6.460230371188e-06 0.0 
3.048660626500e-03 3.507066924740e-03 0.0 
7.973417070575e-04 7.233274405323e-04 0.0 
1.843841298200e-03 1.228718743361e-02 0.0 
1.942750390066e-03 1.226258665963e-02 0.0 
1.097323764319e-03 -1.869770862159e-04 0.0 
2.197217739683e-03 7.472300074619e-04 0.0 
3.268421238624e-03 3.437761616175e-03 0.0 
2.326153206141e-03 3.569550499569e-03 0.0 
9.057511594295e-04 1.715852684763e-03 0.0 
1.947092635278e-03 1.225904842118e-02 0.0 
6.931471465425e-05 4.830295963672e-03 0.0 
1.134471068775e-03 1.418533800864e-03 0.0 
2.577254879074e-03 2.125829656249e-03 0.0 
4.507373454639e-04 8.263540581618e-03 0.0 
2.585062210043e-03 1.025150596776e-02 0.0 
2.072085357971e-03 5.879833773201e-04 0.0 
2.034062181755e-03 3.862352269256e-03 0.0 
2.174812866761e-03 7.049655697020e-04 0.0 
6.135137590760e-04 4.256512907399e-03 0.0 
2.100388574663e-03 7.004869182012e-04 0.0 
1.985452085110e-03 9.578216540540e-03 0.0 
3.235284121812e-03 3.184927097659e-03 0.0 
2.108612831392e-03 6.716272030452e-04 0.0 
2.944212918346e-03 3.154787374942e-03 0.0 
2.660841028833e-04 6.016916153158e-03 0.0 
1.013128112922e-03 -2.630658100645e-04 0.0 
8.727468581000e-04 6.771618484012e-03 0.0 
1.988932964691e-03 6.276833626678e-04 0.0 
2.188585173768e-03 1.011553570547e-02 0.0 
-5.917623599341e-04 2.627219255645e-03 0.0 
1.694004215176e-05 1.964356825970e-03 0.0 
2.306001613744e-05 2.927269353584e-03 0.0 
-7.529652137326e-05 -2.069086174636e-04 0.0 
1.949535486500e-03 6.431400122701e-04 0.0 
6.841044518479e-04 -4.261724258139e-04 0.0 
7.255704382034e-04 -4.357351060347e-04 0.0 
1.944613042974e-03 2.885969147019e-03 0.0 
2.950000352142e-03 2.981681640225e-03 0.0 
2.207072337285e-03 3.155137796335e-03 0.0 
2.279696574085e-03 1.106273738601e-03 0.0 
4.998944716362e-04 9.635584351874e-03 0.0 
3.959789725232e-04 1.024856573854e-04 0.0 
5.806476676181e-04 -4.708958638015e-04 0.0 
1.786839077831e-03 8.703433128297e-04 0.0 
3.218629534743e-03 3.351655239868e-03 0.0 
1.181963848238e-04 -7.900062117685e-04 0.0 
2.026998501763e-03 4.362699231238e-03 0.0 
2.609267775190e-03 1.603735495636e-03 0.0 
1.150000594825e-04 8.112261629882e-05 0.0 
2.242690000636e-03 1.351739154756e-03 0.0 
3.762812432417e-05 -1.242963882332e-04 0.0 
1.852369138506e-03 4.436348833572e-03 0.0 
4.623010436596e-04 -2.464374838236e-04 0.0 
1.478725720161e-04 -3.185813769565e-04 0.0 
2.006125395081e-03 3.365586606074e-03 0.0 
2.123746712665e-03 1.630288298312e-03 0.0 
1.302089051708e-03 -3.497801873818e-05 0.0 
9.976479040832e-05 -7.128194879902e-04 0.0 
3.130302557229e-03 3.030624984030e-03 0.0 
1.997296531516e-05 6.335597496646e-03 0.0 
8.244066796109e-05 3.435695188234e-04 0.0 
8.458359291462e-04 9.241758591125e-04 0.0 
4.808465014249e-04 1.025234384100e-03 0.0 
9.269390676384e-05 7.676538904292e-03 0.0 
3.105826816612e-04 1.479557331490e-03 0.0 
5.404548723986e-04 9.195424751730e-04 0.0 
2.275772178646e-03 9.977056392875e-04 0.0 
1.946254647952e-03 5.946461183736e-04 0.0 
8.394907881082e-04 3.978548136418e-04 0.0 
-1.235107619486e-03 2.892836957984e-03 0.0 
2.209276812554e-05 -7.454520710391e-04 0.0 
1.095734322129e-04 -2.908362428995e-04 0.0 
1.209729124870e-03 -1.237534499756e-04 0.0 
1.909935316547e-03 7.500751268186e-04 0.0 
1.398983366786e-03 1.199774542856e-02 0.0 
1.663521354043e-03 1.220099546004e-02 0.0 
8.647436533795e-04 7.841461273798e-03 0.0 
2.381773916171e-03 1.444065665932e-03 0.0 
2.723542458095e-04 -6.699838939093e-04 0.0 
2.335605726041e-03 2.136376677063e-03 0.0 
1.404179050957e-04 3.376781882021e-05 0.0 
1.803998279622e-04 4.518300827768e-05 0.0 
1.943703083226e-03 5.271639295289e-04 0.0 
1.121208238996e-03 8.448675299318e-03 0.0 
-7.914347413226e-04 2.119407909464e-03 0.0 
7.350683575829e-04 1.109736337155e-02 0.0 
6.672732936171e-04 8.510980972764e-04 0.0 
1.117384189982e-03 1.160021013628e-02 0.0 
3.047853160226e-03 2.926847847336e-03 0.0 
1.595497496294e-03 2.970794897346e-04 0.0 
2.045460890311e-03 8.375401674877e-04 0.0 
-1.020757703623e-04 1.327775172662e-03 0.0 
5.240846040310e-05 2.649818459563e-03 0.0 
1.721357146915e-03 3.759567893272e-04 0.0 
1.635912958386e-04 2.112147929498e-03 0.0 
1.393696638975e-04 3.513701629776e-03 0.0 
1.981521026275e-05 5.790666796502e-04 0.0 
3.329389245213e-05 1.296654441738e-05 0.0 
4.899848641402e-05 7.785463468363e-03 0.0 
1.626443901213e-03 2.079623726729e-04 0.0 
1.776307952277e-03 1.261275150042e-02 0.0 
1.624084778327e-03 1.717061416199e-04 0.0 
5.432743367763e-05 1.273051454108e-05 0.0 
-1.907548126364e-04 9.057112165387e-03 0.0 
3.119588096053e-04 1.027361107788e-02 0.0 
1.647616098025e-03 8.577703352490e-04 0.0 
8.403368526783e-04 8.720449657123e-03 0.0 
9.863296098152e-05 2.022252446641e-03 0.0 
2.075605639880e-03 3.301391364281e-03 0.0 
1.691161862691e-03 1.275245661212e-03 0.0 
1.602197315559e-03 3.073431966917e-03 0.0 
3.139501367285e-04 7.450057580592e-03 0.0 
1.063303399393e-03 -1.666516086132e-04 0.0 
1.147839359898e-03 -7.491018400592e-05 0.0 
8.709914888273e-05 5.311956538495e-03 0.0 
1.925405550406e-03 1.549774123535e-03 0.0 
1.455983537753e-03 9.181965884440e-03 0.0 
1.709392930794e-04 8.752851919965e-03 0.0 
2.027374401352e-04 7.898632192242e-03 0.0 
3.608750306515e-04 7.565766590185e-03 0.0 
5.089945273241e-04 1.513454731657e-03 0.0 
9.412341516764e-04 -2.287199962870e-04 0.0 
1.432418549194e-04 1.293742897795e-03 0.0 
3.435979143499e-04 6.535083038675e-03 0.0 
6.476481098744e-04 3.718285388900e-04 0.0 
9.976019807789e-04 1.799176976455e-03 0.0 
2.111204235964e-03 4.310285074971e-03 0.0 
4.611347757487e-04 2.046954257270e-03 0.0 
4.619313916439e-04 -4.828346415194e-04 0.0 
4.330417908563e-04 -5.496034040277e-04 0.0 
6.724569762095e-04 1.693871861135e-04 0.0 
-4.149550325476e-04 1.320722954058e-03 0.0 
1.180119624843e-04 -7.306106367624e-04 0.0 
1.853167292655e-04 1.440253608556e-04 0.0 
2.072840372988e-05 -8.300533731300e-04 0.0 
2.103061912081e-04 8.461025172591e-03 0.0 
1.145135707681e-03 4.852960075998e-04 0.0 
8.641810342987e-05 -5.077563719908e-04 0.0 
1.243482539870e-05 -7.025881095351e-04 0.0 
8.639826453143e-05 5.019515219146e-04 0.0 
7.386767880957e-04 9.361799562771e-03 0.0 
2.109575741634e-04 1.401556897439e-03 0.0 
1.099649873624e-03 5.260580075755e-04 0.0 
6.396555826530e-04 9.365926412590e-03 0.0 
-8.690604355455e-04 2.914101998471e-03 0.0 
3.455320626285e-05 1.084646243348e-03 0.0 
2.028897018252e-04 -7.234115713833e-04 0.0 
2.363706577948e-04 1.825949075226e-03 0.0 
4.324979349364e-05 1.033150625460e-05 0.0 
8.088257056419e-04 1.751563300222e-03 0.0 
9.770579916663e-04 1.486509926991e-03 0.0 
1.237542206665e-03 7.807042494696e-03 0.0 
2.795802396008e-04 -5.152226941070e-04 0.0 
2.333837566184e-03 2.022111758975e-03 0.0 
3.396713849585e-04 1.958295292228e-04 0.0 
8.225883325624e-05 4.339912024516e-03 0.0 
3.397186523590e-04 1.781792470845e-04 0.0 
-3.598106555224e-05 1.592468897439e-03 0.0 
2.567282493034e-04 5.246279411230e-05 0.0 
1.088034515508e-03 1.051232246068e-03 0.0 
9.393602479821e-05 -8.081257206434e-04 0.0 
6.691468980279e-04 2.452458131774e-04 0.0 
3.748023831855e-04 1.230859266094e-03 0.0 
1.886524117861e-04 9.880739743886e-04 0.0 
4.741632849636e-04 8.637751657153e-03 0.0 
1.555883252344e-03 7.373344222225e-03 0.0 
1.712015448564e-03 8.081712935082e-03 0.0 
6.475316964610e-04 1.059968071541e-03 0.0 
2.162302019783e-04 -6.142291073908e-04 0.0 
3.557185188799e-04 5.100914168823e-03 0.0 
2.134649892278e-03 1.734435499335e-03 0.0 
3.953502512743e-04 9.642814538408e-03 0.0 
5.072342569879e-04 1.690024132153e-03 0.0 
2.788717267885e-06 5.499791444569e-04 0.0 
2.788717267885e-06 2.321823057061e-04 0.0 
1.211946023094e-07 -8.554629194687e-04 0.0 
1.067046232523e-06 -8.563455006069e-04 0.0 
2.116877053148e-05 9.290958337667e-03 0.0 
5.060608134572e-05 9.627353762922e-03 0.0 
5.771900566901e-06 5.378672301598e-06 0.0 
5.771900566901e-06 1.127010967183e-05 0.0 
8.641562638867e-06 -8.511078239727e-04 0.0 
-9.390101015680e-04 1.594273423506e-03 0.0 
2.603535728327e-04 4.056416362827e-05 0.0 
1.413878213724e-03 1.302415447734e-03 0.0 
2.049506616611e-04 -7.479610564227e-04 0.0 
4.218506504895e-04 8.324237551655e-05 0.0 
6.523516283605e-05 -2.291568902977e-04 0.0 
6.699985747819e-05 -3.757994681790e-04 0.0 
2.324082455757e-04 6.156046865338e-03 0.0 
5.518138795819e-04 4.433300110628e-04 0.0 
2.677178565468e-03 2.501213070404e-03 0.0 
1.586493835058e-04 -7.444400143177e-04 0.0 
3.946891670251e-04 -4.208031757795e-04 0.0 
8.696059084500e-04 1.462097545926e-03 0.0 
9.825213875411e-06 2.425795316905e-03 0.0 
1.294894608717e-04 -3.645366453945e-04 0.0 
1.522537205386e-04 7.138413417485e-03 0.0 
1.289567840620e-03 1.418868533103e-03 0.0 
1.545910920025e-03 2.637930513760e-03 0.0 
1.861318731136e-03 3.465685900656e-03 0.0 
5.450693945114e-04 9.325487648420e-03 0.0 
2.812255584350e-03 2.501472589002e-03 0.0 
6.388073585711e-04 1.740665586469e-03 0.0 
1.713682737338e-04 -7.171801497975e-04 0.0 
-1.097416703517e-04 -2.850450873324e-04 0.0 
1.515861990278e-03 1.754441085628e-03 0.0 
1.823078204500e-03 9.413827353452e-04 0.0 
3.821987745844e-04 4.847910726167e-04 0.0 
1.207703262038e-04 5.416333214352e-03 0.0 
1.447573430512e-04 3.154297677487e-05 0.0 
1.599715892397e-03 1.646438962855e-03 0.0 
1.342401500383e-03 1.348377496632e-03 0.0 
7.867282356986e-05 -1.603751543290e-04 0.0 
-7.746873677854e-04 4.114225026473e-03 0.0 
1.362468982576e-03 1.245610382826e-02 0.0 
2.241597387016e-03 9.525152437742e-03 0.0 
1.295625988360e-03 7.495060850005e-03 0.0 
2.820902453640e-03 2.661655524506e-03 0.0 
1.850345966030e-04 1.766777689858e-03 0.0 
7.194384417562e-04 3.538386616404e-04 0.0 
3.574154253055e-06 2.098106550167e-04 0.0 
4.378256722134e-05 -2.092754054362e-04 0.0 
6.671379037111e-04 1.175190159014e-02 0.0 
1.971480695016e-04 4.971351523998e-03 0.0 
3.200938574799e-04 -6.329005978761e-04 0.0 
4.278821264102e-04 1.658222039023e-03 0.0 
1.197331634298e-04 -7.952628253106e-04 0.0 
1.223628258615e-03 6.388777813158e-04 0.0 
7.986683096641e-04 7.762066661083e-03 0.0 
7.493358003744e-04 5.278027686995e-04 0.0 
2.134320780906e-03 1.927397382379e-03 0.0 
1.424343003829e-03 7.464222235402e-03 0.0 
5.788672218027e-04 1.800837754952e-04 0.0 
3.286411160952e-04 1.211939452291e-03 0.0 
2.846799847172e-05 1.269376726095e-03 0.0 
-2.888065616694e-04 1.015462427126e-02 0.0 
4.209826304463e-04 2.004517168528e-03 0.0 
6.808311157587e-04 7.657139809939e-04 0.0 
1.265876259806e-03 6.342304522537e-04 0.0 
1.923308279178e-03 1.628471088491e-03 0.0 
7.431955117027e-05 1.799266724712e-05 0.0 
1.785978468173e-03 3.500908188431e-03 0.0 
-1.478762148718e-03 4.522327887912e-03 0.0 
7.940019855192e-04 6.021994817590e-03 0.0 
1.280239963534e-03 2.246046004142e-03 0.0 
1.172033786468e-03 6.886995505452e-03 0.0 
1.373769758101e-04 2.181239763486e-05 0.0 
1.682026382316e-03 1.403185445592e-03 0.0 
2.638076675824e-04 6.014915937644e-05 0.0 
1.704425890367e-04 3.985900934905e-03 0.0 
7.248747345058e-04 4.660117185761e-04 0.0 
7.281684878316e-04 2.075694824675e-04 0.0 
7.600715384252e-04 2.289031240101e-04 0.0 
2.362047886902e-04 -6.346181332296e-04 0.0 
1.204257876031e-04 2.850566611417e-05 0.0 
1.069855299767e-03 8.786704768039e-03 0.0 
1.192759400773e-04 2.048961115280e-03 0.0 
1.202370944638e-04 -1.242628446417e-04 0.0 
7.845211667689e-05 2.841464440798e-03 0.0 
1.817119429462e-04 5.368205204334e-03 0.0 
1.140451859021e-05 -8.458988922130e-04 0.0 
7.790196960861e-04 1.653078220131e-03 0.0 
1.744402243112e-03 3.031504942726e-03 0.0 
1.533839380807e-04 1.058818652371e-03 0.0 
6.060364522674e-05 1.955534088070e-03 0.0 
9.413543828657e-04 6.000881084110e-04 0.0 
3.773440364688e-04 7.053028364574e-03 0.0 
-2.892498544548e-05 -5.397170392630e-04 0.0 
-3.019121252579e-04 3.220233522161e-03 0.0 
2.988791951857e-05 -5.813220416182e-04 0.0 
2.411640313108e-04 -2.490091570195e-04 0.0 
-1.600208009079e-03 4.975878437794e-03 0.0 
3.514489359652e-04 -4.539639310017e-04 0.0 
1.723161117153e-04 2.530344701699e-05 0.0 
7.855740544234e-04 1.810875231509e-03 0.0 
1.494782299169e-03 6.873933985842e-03 0.0 
4.878375642364e-04 -5.077895563177e-04 0.0 
6.581029451293e-04 1.557527700447e-04 0.0 
1.107988410797e-03 4.285031074821e-04 0.0 
8.877372243559e-04 6.594872780772e-04 0.0 
1.109510259125e-03 1.252058884353e-03 0.0 
1.397817121496e-03 2.234466080203e-03 0.0 
1.199225182467e-04 -2.788179975233e-04 0.0 
-2.803948552379e-04 1.814842726213e-03 0.0 
2.395242581157e-04 3.504178285381e-05 0.0 
2.677528210481e-05 -8.409842982897e-04 0.0 
6.571424802259e-06 -8.397991248610e-04 0.0 
-4.879274771298e-04 5.749755899130e-03 0.0 
9.609181622055e-05 -5.634056649145e-04 0.0 
4.421638625857e-04 1.331588729589e-04 0.0 
5.848573882777e-04 8.031963579211e-04 0.0 
1.661383439524e-04 1.762743556487e-03 0.0 
6.955195919199e-04 5.289400456814e-04 0.0 
1.319291519177e-03 5.252299169644e-04 0.0 
3.030314449732e-04 6.504585409307e-03 0.0 
3.930352149173e-05 2.098651746995e-04 0.0 
1.018957972656e-03 8.237872895278e-04 0.0 
6.926121828308e-04 9.682316713154e-03 0.0 
2.542685667697e-04 3.413648413081e-04 0.0 
4.201956307392e-05 -7.302085074003e-04 0.0 
8.389046632691e-05 2.013203828381e-05 0.0 
1.452039210447e-03 8.590339323107e-03 0.0 
9.663084537811e-05 -8.042449290810e-04 0.0 
2.460427529265e-04 -4.861006477710e-04 0.0 
6.659875457195e-04 9.781393180321e-04 0.0 
2.642836350253e-04 1.875514562529e-03 0.0 
3.178295946566e-04 9.594759817499e-04 0.0 
1.366156708926e-04 -6.810800364400e-04 0.0 
-2.478114770583e-04 2.795357098413e-03 0.0 
3.489947533362e-04 7.792577051715e-05 0.0 
9.403891463155e-06 4.943570443713e-04 0.0 
2.063189266870e-05 1.252460393119e-05 0.0 
4.796334429233e-05 8.754171695212e-03 0.0 
9.882497442454e-04 3.965873807236e-04 0.0 
1.283609766121e-04 -7.884594676682e-04 0.0 
3.984913941581e-04 1.661131540015e-03 0.0 
2.951810421457e-05 -6.788556330354e-04 0.0 
5.094227655199e-04 1.795762515267e-04 0.0 
4.253932606478e-04 1.245373074798e-03 0.0 
-6.918680001248e-04 3.310495244794e-03 0.0 
1.648312445726e-03 1.612681448251e-03 0.0 
1.692681012849e-04 4.455543883421e-03 0.0 
1.020992170392e-04 1.001885717110e-03 0.0 
1.401646514933e-04 7.652877484374e-05 0.0 
7.190332431918e-05 5.813870935382e-03 0.0 
5.295793686789e-04 8.057553088042e-04 0.0 
5.453323310766e-04 1.696313035944e-03 0.0 
1.419178350221e-04 5.113597359136e-03 0.0 
8.757667248938e-04 1.330270918611e-03 0.0 
2.635710410214e-04 -5.789449310034e-04 0.0 
3.452447421595e-04 9.349151762682e-03 0.0 
1.181029902359e-03 9.716059962470e-04 0.0 
9.903545544233e-06 1.051601568189e-03 0.0 
2.862617220704e-06 -8.522469490248e-04 0.0 
9.396668781852e-05 9.342669356620e-03 0.0 
1.853163791671e-05 1.876548426761e-05 0.0 
2.352309093006e-04 -7.253184368787e-04 0.0 
1.204818758180e-03 5.552629513804e-04 0.0 
6.978240909232e-04 1.802552606298e-03 0.0 
1.201902486752e-04 1.299372675091e-03 0.0 
1.455388888630e-04 -7.827785461322e-04 0.0 
8.859130535650e-05 4.790538221777e-03 0.0 
2.753630638348e-05 -3.380772439712e-04 0.0 
6.685609504987e-05 3.464442643661e-03 0.0 
-1.180012298308e-03 1.885150392535e-03 0.0 
2.432802555399e-04 9.420710343572e-04 0.0 
1.297918140311e-04 6.001949038098e-03 0.0 
5.183117387959e-04 2.819947663559e-04 0.0 
2.464057409003e-04 6.712557454974e-03 0.0 
8.886009750014e-04 7.243748435745e-04 0.0 
5.172676997384e-05 -2.990692871296e-04 0.0 
-1.230351245038e-03 5.251185865968e-03 0.0 
3.004498311259e-04 -6.158438017818e-04 0.0 
3.573128020750e-04 -3.892445911298e-04 0.0 
2.419046359036e-05 -2.623243110287e-04 0.0 
1.226631515170e-03 8.228010481357e-04 0.0 
1.850254289069e-04 -4.218365820356e-04 0.0 
2.384509803002e-04 -3.689938601890e-04 0.0 
9.124279652940e-05 -6.457969721537e-04 0.0 
4.514632471955e-04 9.304691319529e-05 0.0 
1.481860569166e-03 1.810490805724e-03 0.0 
7.169909869469e-04 4.795064403634e-03 0.0 
1.651871973950e-05 9.959794681033e-04 0.0 
3.339163001850e-05 2.001997852696e-05 0.0 
9.132395076513e-05 8.805584946553e-03 0.0 
9.825911061316e-05 6.216809260842e-03 0.0 
2.547863440191e-04 -4.243840350271e-04 0.0 
2.851858431135e-04 -3.945983299416e-04 0.0 
1.747680313218e-04 -3.849138895089e-04 0.0 
1.467456067595e-03 7.320564439355e-04 0.0 
3.476038345715e-04 2.287986411456e-04 0.0 
1.240361288315e-03 1.493199792401e-03 0.0 
1.637053558836e-04 7.694562349000e-03 0.0 
2.946198010722e-04 1.228801094186e-03 0.0 
1.429722348122e-03 6.774109671924e-04 0.0 
2.898526731690e-04 6.906821725612e-03 0.0 
1.161667193090e-03 1.920342293494e-03 0.0 
1.200917081893e-03 8.416134934412e-04 0.0 
9.029023627421e-04 6.212835574485e-04 0.0 
-9.270732011881e-04 4.957185527882e-03 0.0 
1.212379686462e-03 1.915467105971e-03 0.0 
1.038953341253e-03 1.557041462630e-03 0.0 
8.191189981044e-05 -6.790774677716e-04 0.0 
2.836730719206e-04 -4.521910514375e-04 0.0 
-1.045483212809e-03 4.489576557434e-03 0.0 
9.614327598421e-04 1.560016383769e-03 0.0 
1.422720681071e-04 1.728649661011e-02 0.0 
1.807882485057e-04 1.762284652118e-02 0.0 
2.360126147722e-04 1.728288779768e-02 0.0 
2.730350687964e-04 1.761888260081e-02 0.0 
3.291596964879e-04 1.728323941363e-02 0.0 
3.680587932344e-04 1.762066925411e-02 0.0 
4.227581087680e-04 1.728710337724e-02 0.0 
4.637472380740e-04 1.762550818926e-02 0.0 
5.145834840088e-04 1.729295554783e-02 0.0 
5.567976647123e-04 1.763142259231e-02 0.0 
6.026116279586e-04 1.729934590670e-02 0.0 
6.449207599765e-04 1.763703763995e-02 0.0 
6.852070262746e-04 1.730492480249e-02 0.0 
7.263971313627e-04 1.764104459895e-02 0.0 
7.609777972968e-04 1.730828774760e-02 0.0 
7.997565893986e-04 1.764199592843e-02 0.0 
8.286468324240e-04 1.730784950913e-02 0.0 
8.636082853391e-04 1.763819686182e-02 0.0 
8.869788803003e-04 1.730174933450e-02 0.0 
9.165641835274e-04 1.762762591618e-02 0.0 
-6.136156164046e-04 1.259064188628e-02 0.0 
9.347539827372e-04 1.728776803992e-02 0.0 
9.572209791225e-04 1.760785906772e-02 0.0 
9.707795746987e-04 1.726323960804e-02 0.0 
-1.171556500880e-03 1.272731370658e-02 0.0 
9.841926451259e-04 1.757597468550e-02 0.0 
9.939411715314e-04 1.722494328114e-02 0.0 
-3.659249144034e-04 1.284858568234e-02 0.0 
9.962085416013e-04 1.752844560026e-02 0.0 
1.003299687763e-03 1.716899850428e-02 0.0 
9.923045777893e-04 1.746103940025e-02 0.0 
9.982318922466e-04 1.709079404681e-02 0.0 
9.721593971521e-04 1.736880004927e-02 0.0 
9.786131718783e-04 1.698502768014e-02 0.0 
9.366946095969e-04 1.724612986225e-02 0.0 
9.449825464871e-04 1.684602460844e-02 0.0 
8.891941013270e-04 1.708754457555e-02 0.0 
-2.979141815603e-04 1.179558374852e-02 0.0 
8.985777465359e-04 1.666918205693e-02 0.0 
8.374751972816e-04 1.689007556706e-02 0.0 
8.407963754452e-04 1.645579117668e-02 0.0 
7.978718551747e-04 1.666207784426e-02 0.0 
6.271880000238e-04 1.641827988891e-02 0.0 
7.708849819064e-04 1.623708719042e-02 0.0 
1.834728838112e-04 1.606101182527e-02 0.0 
5.267830030307e-04 1.596964117708e-02 0.0 
-4.419512993546e-04 1.547998771887e-02 0.0 
1.298114993377e-04 1.552468119825e-02 0.0 
-7.880085381527e-04 1.462420170349e-02 0.0 
-8.243959845176e-04 1.370838802073e-02 0.0 
-3.004753144052e-04 1.477478126822e-02 0.0 
-3.598654225994e-04 1.385328061881e-02 0.0 
-8.558550660354e-04 1.193225556882e-02 0.0 
1.893498784237e-05 1.745387167412e-02 0.0 
9.474083799253e-05 1.745495338597e-02 0.0 
6.125771014345e-05 1.779486571720e-02 0.0 
5.241811569145e-05 1.711395934289e-02 0.0 
-9.450394278094e-04 1.116501236200e-02 0.0 
1.323132140907e-04 1.660854367860e-02 0.0 
1.633405804635e-04 1.627141248966e-02 0.0 
2.285238007463e-04 1.660940669767e-02 0.0 
2.578404051996e-04 1.627290505544e-02 0.0 
3.214538469170e-04 1.661074296827e-02 0.0 
3.502321873474e-04 1.627581771857e-02 0.0 
4.126373524520e-04 1.661474828706e-02 0.0 
4.406587898576e-04 1.628123646664e-02 0.0 
5.016157921084e-04 1.662103891539e-02 0.0 
5.284922198084e-04 1.628850235153e-02 0.0 
5.872738749551e-04 1.662834229835e-02 0.0 
6.128134019501e-04 1.629638901638e-02 0.0 
6.684374212518e-04 1.663527978727e-02 0.0 
6.926468330521e-04 1.630350939106e-02 0.0 
7.439971040090e-04 1.664039755493e-02 0.0 
7.670405067494e-04 1.630833065600e-02 0.0 
8.129114430626e-04 1.664207442937e-02 0.0 
8.350871777620e-04 1.630909853438e-02 0.0 
8.741931620846e-04 1.663842608683e-02 0.0 
5.445982582412e-04 1.319830811897e-02 0.0 
8.959313420359e-04 1.630374896966e-02 0.0 
9.269068594614e-04 1.662721434108e-02 0.0 
9.487802097216e-04 1.628981544703e-02 0.0 
7.221891437978e-04 1.338928225256e-02 0.0 
9.701859285737e-04 1.660574968619e-02 0.0 
9.929228994940e-04 1.626432609393e-02 0.0 
1.003265072024e-03 1.657078461142e-02 0.0 
1.027750324536e-03 1.622370380615e-02 0.0 
1.025517570204e-03 1.651841537990e-02 0.0 
2.126529936884e-04 1.335015000992e-02 0.0 
1.052750917498e-03 1.616369568558e-02 0.0 
1.036460349514e-03 1.644403345651e-02 0.0 
1.067442153579e-03 1.607940438597e-02 0.0 
1.035667471038e-03 1.634239260713e-02 0.0 
1.071128254845e-03 1.596552643604e-02 0.0 
1.022361892576e-03 1.620805625524e-02 0.0 
1.062336693789e-03 1.581729741440e-02 0.0 
9.943409929093e-04 1.603690324898e-02 0.0 
1.037665108881e-03 1.563287887489e-02 0.0 
9.452230406713e-04 1.583087329245e-02 0.0 
9.906720712466e-04 1.542031017665e-02 0.0 
7.273003714113e-04 1.264150034568e-02 0.0 
9.197939594230e-04 1.519554309488e-02 0.0 
8.592585327522e-04 1.562023740703e-02 0.0 
8.355252656621e-04 1.485391925155e-02 0.0 
7.310154115840e-04 1.536375416643e-02 0.0 
7.604124009029e-04 1.427236308568e-02 0.0 
5.776314726353e-04 1.492347563517e-02 0.0 
4.540684125547e-04 1.416836219810e-02 0.0 
3.953551068585e-04 1.279334223662e-02 0.0 
1.618928650784e-05 1.643730565129e-02 0.0 
8.203628264162e-05 1.643880351322e-02 0.0 
4.855315479254e-05 1.610034676285e-02 0.0 
4.967241435692e-05 1.677576240165e-02 0.0 
2.813077606849e-04 1.243667050712e-02 0.0 
1.242225076480e-04 1.525953591079e-02 0.0 
1.581019890302e-04 1.559730265400e-02 0.0 
2.172549368644e-04 1.526261645419e-02 0.0 
2.518101327510e-04 1.560022464761e-02 0.0 
3.085073614596e-04 1.526635907988e-02 0.0 
3.433159743386e-04 1.560411423800e-02 0.0 
3.978235568856e-04 1.527200348691e-02 0.0 
4.327612073000e-04 1.561019514706e-02 0.0 
4.851875501213e-04 1.527963144889e-02 0.0 
5.199615603788e-04 1.561813620460e-02 0.0 
5.703214025785e-04 1.528846076540e-02 0.0 
6.043915890031e-04 1.562687363035e-02 0.0 
6.527480465945e-04 1.529733300619e-02 0.0 
6.853792713418e-04 1.563507799600e-02 0.0 
7.319141861079e-04 1.530486304056e-02 0.0 
7.622251505586e-04 1.564122753669e-02 0.0 
8.072675654239e-04 1.530943530042e-02 0.0 
8.342586563142e-04 1.564356252474e-02 0.0 
1.301507312328e-03 1.352363570955e-02 0.0 
8.782968662635e-04 1.530915098850e-02 0.0 
9.008635676626e-04 1.564000988098e-02 0.0 
9.445517023631e-04 1.530175549360e-02 0.0 
1.109593584142e-03 1.374380983894e-02 0.0 
9.614928269967e-04 1.562809568825e-02 0.0 
1.367883126465e-03 1.356283063318e-02 0.0 
1.005653230352e-03 1.528455671895e-02 0.0 
1.015677583997e-03 1.560485288547e-02 0.0 
1.061293186212e-03 1.525434238837e-02 0.0 
1.063023754220e-03 1.556673479157e-02 0.0 
1.111220268280e-03 1.520733808604e-02 0.0 
1.103180185889e-03 1.550958740631e-02 0.0 
1.155182414690e-03 1.513922181075e-02 0.0 
1.135734950364e-03 1.542870101947e-02 0.0 
1.430399865260e-03 1.303801212366e-02 0.0 
1.192834364817e-03 1.504534009441e-02 0.0 
1.160002351840e-03 1.531917728981e-02 0.0 
1.223553967747e-03 1.492113778161e-02 0.0 
1.174654671966e-03 1.517672808700e-02 0.0 
1.177530036459e-03 1.499995416407e-02 0.0 
1.246523898665e-03 1.476340921075e-02 0.0 
1.166991441756e-03 1.479356360549e-02 0.0 
1.261407338759e-03 1.457120201047e-02 0.0 
1.158051718439e-03 1.454274117449e-02 0.0 
1.171287113209e-03 1.417618441899e-02 0.0 
1.273835662278e-03 1.434068891549e-02 0.0 
1.305035018147e-03 1.403321741348e-02 0.0 
1.238486137073e-03 1.325818625305e-02 0.0 
1.559176851686e-05 1.542592635563e-02 0.0 
7.858664964122e-05 1.542672973545e-02 0.0 
4.795563680156e-05 1.576317091724e-02 0.0 
4.622278135652e-05 1.508948517384e-02 0.0 
1.157425685077e-03 1.300765955425e-02 0.0 
1.227215999756e-04 1.458609068838e-02 0.0 
1.537722473633e-04 1.425049659034e-02 0.0 
2.144261028699e-04 1.458925561294e-02 0.0 
2.454615622235e-04 1.425442113111e-02 0.0 
3.049876249266e-04 1.459391640463e-02 0.0 
3.359842786911e-04 1.426004064481e-02 0.0 
3.940115977710e-04 1.460037256896e-02 0.0 
4.252243267288e-04 1.426749339626e-02 0.0 
4.814626286647e-04 1.460856061604e-02 0.0 
5.131557544271e-04 1.427645514622e-02 0.0 
5.672405180834e-04 1.461785053987e-02 0.0 
5.996715847535e-04 1.428614252961e-02 0.0 
6.511089268399e-04 1.462721213098e-02 0.0 
6.845858583892e-04 1.429542103057e-02 0.0 
7.327598929098e-04 1.463532695034e-02 0.0 
7.676801507339e-04 1.430285808480e-02 0.0 
8.118768587973e-04 1.464060193875e-02 0.0 
1.623502036002e-03 1.323736824201e-02 0.0 
8.487478908124e-04 1.430671823443e-02 0.0 
8.881768073883e-04 1.464114005986e-02 0.0 
1.646909570822e-03 1.317911876408e-02 0.0 
9.276282850165e-04 1.430492622760e-02 0.0 
9.614364785922e-04 1.463468276887e-02 0.0 
1.004225776135e-03 1.429500667103e-02 0.0 
1.031501403261e-03 1.461854042647e-02 0.0 
1.078512927814e-03 1.427402035798e-02 0.0 
1.510045650307e-03 1.351357994468e-02 0.0 
1.098280357120e-03 1.458952615336e-02 0.0 
1.150517796989e-03 1.423849533491e-02 0.0 
1.161727140141e-03 1.454391486440e-02 0.0 
1.220337050809e-03 1.418444059312e-02 0.0 
1.221832407748e-03 1.447749821920e-02 0.0 
1.288103516567e-03 1.410738085500e-02 0.0 
1.278552937962e-03 1.438574352148e-02 0.0 
1.354102038972e-03 1.400267468322e-02 0.0 
1.331935081735e-03 1.426423174794e-02 0.0 
1.418909422419e-03 1.386548079260e-02 0.0 
1.735616692355e-03 1.288980237195e-02 0.0 
1.484672559090e-03 1.369145159545e-02 0.0 
1.382397535130e-03 1.410906795002e-02 0.0 
1.555998590261e-03 1.347179352935e-02 0.0 
1.432676224924e-03 1.391704070258e-02 0.0 
1.491573924618e-03 1.367308014724e-02 0.0 
1.622160306660e-03 1.316601407462e-02 0.0 
1.518439446750e-05 1.441587716287e-02 0.0 
7.667836791951e-05 1.441665246385e-02 0.0 
4.604735507985e-05 1.407967650207e-02 0.0 
4.581540730716e-05 1.475285312465e-02 0.0 
1.613745687756e-03 1.307229775762e-02 0.0 
1.202376836322e-04 1.323996217093e-02 0.0 
1.521251697333e-04 1.357749613303e-02 0.0 
2.105829423497e-04 1.324364657480e-02 0.0 
2.432654793334e-04 1.358181255029e-02 0.0 
3.005550682409e-04 1.324913653679e-02 0.0 
3.337478048955e-04 1.358786935779e-02 0.0 
3.900175160171e-04 1.325633421760e-02 0.0 
4.234667187704e-04 1.359562633191e-02 0.0 
4.790051942273e-04 1.326499819260e-02 0.0 
5.124559279481e-04 1.360475978713e-02 0.0 
5.676175169062e-04 1.327456376560e-02 0.0 
6.007484100553e-04 1.361455111444e-02 0.0 
6.559319574571e-04 1.328412547758e-02 0.0 
6.883320637046e-04 1.362392579234e-02 0.0 
7.440047906933e-04 1.329246868247e-02 0.0 
7.751788432020e-04 1.363149505516e-02 0.0 
1.764318907731e-03 1.268356602205e-02 0.0 
8.318892394904e-04 1.329807019533e-02 0.0 
8.612615790375e-04 1.363554952066e-02 0.0 
1.696435163770e-03 1.298017570441e-02 0.0 
9.196595154704e-04 1.329907587645e-02 0.0 
9.465973048735e-04 1.363403075797e-02 0.0 
1.761408741410e-03 1.257965676332e-02 0.0 
1.007453750374e-03 1.329327196240e-02 0.0 
1.031274028060e-03 1.362449133420e-02 0.0 
1.095478281488e-03 1.327804350728e-02 0.0 
1.115441554116e-03 1.360403877563e-02 0.0 
1.184000358312e-03 1.325032853810e-02 0.0 
1.199309171879e-03 1.356927930200e-02 0.0 
1.857888339378e-03 1.239835185299e-02 0.0 
1.273336152147e-03 1.320649651513e-02 0.0 
1.283154687925e-03 1.351623827677e-02 0.0 
1.363970652678e-03 1.314248445541e-02 0.0 
1.367424124381e-03 1.344056940757e-02 0.0 
1.452756421512e-03 1.333733192624e-02 0.0 
1.456527928316e-03 1.305358931708e-02 0.0 
1.540592419274e-03 1.320152460728e-02 0.0 
1.552272461130e-03 1.293493280565e-02 0.0 
1.632887108472e-03 1.302651202627e-02 0.0 
1.652295081368e-03 1.278017219553e-02 0.0 
1.790004595417e-03 1.269496153535e-02 0.0 
1.498049640105e-05 1.340631379827e-02 0.0 
7.563763113964e-05 1.340700180297e-02 0.0 
4.584345701341e-05 1.374315390133e-02 0.0 
4.477467052729e-05 1.307016169992e-02 0.0 
1.804903668112e-03 1.269261797713e-02 0.0 
1.197049314146e-04 1.256694824129e-02 0.0 
1.506006825796e-04 1.223148024470e-02 0.0 
2.095912074137e-04 1.257064461611e-02 0.0 
2.411330309194e-04 1.223593010282e-02 0.0 
2.994143547630e-04 1.257625604801e-02 0.0 
3.317505338939e-04 1.224224125849e-02 0.0 
3.891609584934e-04 1.258358660708e-02 0.0 
4.225548003350e-04 1.225013777461e-02 0.0 
4.789498333156e-04 1.259225724582e-02 0.0 
5.137728096060e-04 1.225912872314e-02 0.0 
5.689897594757e-04 1.260167364840e-02 0.0 
6.056477925099e-04 1.226851668763e-02 0.0 
6.594590973423e-04 1.261098116798e-02 0.0 
6.984365856285e-04 1.227729282931e-02 0.0 
7.505821727320e-04 1.261898002903e-02 0.0 
1.782969602261e-03 1.198255748459e-02 0.0 
7.924271686597e-04 1.228414396350e-02 0.0 
1.758675773656e-03 1.184861497112e-02 0.0 
8.425601829094e-04 1.262420775710e-02 0.0 
8.878781190618e-04 1.228744648407e-02 0.0 
9.356051120757e-04 1.262483527809e-02 0.0 
9.851088615343e-04 1.228516359831e-02 0.0 
1.030019710430e-03 1.261864540109e-02 0.0 
1.084529097421e-03 1.227488871676e-02 0.0 
1.749185026021e-03 1.228999705763e-02 0.0 
1.126167390794e-03 1.260306745114e-02 0.0 
1.186596572334e-03 1.225382086429e-02 0.0 
1.224466267224e-03 1.257508668289e-02 0.0 
1.291833176762e-03 1.221871337792e-02 0.0 
1.325394248118e-03 1.253117244626e-02 0.0 
1.400767767140e-03 1.216553596053e-02 0.0 
1.429525635923e-03 1.246710620806e-02 0.0 
1.514264668877e-03 1.208999110565e-02 0.0 
1.632810687883e-03 1.198659978508e-02 0.0 
1.537813489568e-03 1.237838926251e-02 0.0 
1.863674756674e-03 1.173698938895e-02 0.0 
1.651041166249e-03 1.225940071906e-02 0.0 
1.829890180434e-03 1.204442896199e-02 0.0 
1.483483893730e-05 1.239678313449e-02 0.0 
7.495922145825e-05 1.239748735726e-02 0.0 
4.516504733201e-05 1.206060930791e-02 0.0 
4.462901306354e-05 1.273366118384e-02 0.0 
1.861521868718e-03 1.208774883694e-02 0.0 
1.178574885181e-04 1.122074860562e-02 0.0 
1.493807075927e-04 1.155833769141e-02 0.0 
2.067887476130e-04 1.122425294642e-02 0.0 
2.395505461055e-04 1.156268098642e-02 0.0 
2.962480682205e-04 1.122962825512e-02 0.0 
3.301667321653e-04 1.156886258200e-02 0.0 
3.864312709532e-04 1.123656678566e-02 0.0 
4.214089145235e-04 1.157649662968e-02 0.0 
4.776157361325e-04 1.124451950907e-02 0.0 
5.135845982344e-04 1.158503213132e-02 0.0 
5.701944111486e-04 1.125296736207e-02 0.0 
6.070406555544e-04 1.159390699314e-02 0.0 
6.645059323545e-04 1.126107713980e-02 0.0 
1.705548479090e-03 1.117852808925e-02 0.0 
7.020905575962e-04 1.160199849563e-02 0.0 
7.609944609432e-04 1.126768355648e-02 0.0 
1.695057632801e-03 1.149868552096e-02 0.0 
7.991854849031e-04 1.160814182463e-02 0.0 
8.600914926943e-04 1.127153364189e-02 0.0 
1.667984491547e-03 1.102283407975e-02 0.0 
8.986511126033e-04 1.161077450773e-02 0.0 
9.621710936056e-04 1.127081425149e-02 0.0 
1.000901849523e-03 1.160781454805e-02 0.0 
1.067738334450e-03 1.126333801320e-02 0.0 
1.106454733453e-03 1.159693037912e-02 0.0 
1.780584028807e-03 1.095570864729e-02 0.0 
1.177376562880e-03 1.124669912088e-02 0.0 
1.215880108388e-03 1.157541087166e-02 0.0 
1.329754528102e-03 1.154008861938e-02 0.0 
1.291671154618e-03 1.121805193173e-02 0.0 
1.448773163170e-03 1.148720234796e-02 0.0 
1.411320995489e-03 1.117421407514e-02 0.0 
1.573028750376e-03 1.141211920434e-02 0.0 
1.536295113451e-03 1.111090069418e-02 0.0 
1.770093182518e-03 1.127586607900e-02 0.0 
1.466068266882e-05 1.138716951774e-02 0.0 
7.415759728016e-05 1.138789018167e-02 0.0 
4.499089106353e-05 1.172406921470e-02 0.0 
4.382738888545e-05 1.105099048471e-02 0.0 
1.815480845007e-03 1.135299459519e-02 0.0 
1.169645909376e-04 1.054773700863e-02 0.0 
1.469058610899e-04 1.021214654639e-02 0.0 
2.052067986907e-04 1.055107339838e-02 0.0 
2.358880912845e-04 1.021605358071e-02 0.0 
2.941675623218e-04 1.055618039745e-02 0.0 
3.258508574971e-04 1.022165695759e-02 0.0 
3.841959021838e-04 1.056280901892e-02 0.0 
4.172509208887e-04 1.022846306218e-02 0.0 
4.756931112672e-04 1.057024370831e-02 0.0 
5.104174705602e-04 1.023574825496e-02 0.0 
5.689499083397e-04 1.057795928648e-02 0.0 
6.058683368306e-04 1.024313936793e-02 0.0 
1.567738210834e-03 1.029613246618e-02 0.0 
6.645781164396e-04 1.058531759018e-02 0.0 
1.519355657093e-03 1.012214942866e-02 0.0 
7.041772017131e-04 1.024940015577e-02 0.0 
7.630089209750e-04 1.059084476625e-02 0.0 
8.058545050363e-04 1.025345870972e-02 0.0 
8.647460527957e-04 1.059368931722e-02 0.0 
9.114888902715e-04 1.025406695241e-02 0.0 
9.703543111724e-04 1.059195102085e-02 0.0 
1.021608998288e-03 1.024902880856e-02 0.0 
1.576570708268e-03 1.062349264409e-02 0.0 
1.080262265649e-03 1.058341550435e-02 0.0 
1.136812288789e-03 1.023601812755e-02 0.0 
1.195210187018e-03 1.056570937816e-02 0.0 
1.257760805189e-03 1.021262796513e-02 0.0 
1.384984814056e-03 1.017581283094e-02 0.0 
1.315718227281e-03 1.053625876791e-02 0.0 
1.442504208779e-03 1.049173145051e-02 0.0 
1.632436083400e-03 1.009339533451e-02 0.0 
1.641268580834e-03 1.042075551242e-02 0.0 
1.441905276979e-05 1.037765235766e-02 0.0 
7.302306980066e-05 1.037833628303e-02 0.0 
4.385636358402e-05 1.004154045763e-02 0.0 
4.358575898642e-05 1.071444818306e-02 0.0 
1.695948727189e-03 1.051887843792e-02 0.0 

VECTORS element_materi_displacement float
0.0 0.0 0.0 
0.0 0.0 0.0 
0.0 0.0 0.0 
0.0 0.0 0.0 
0.0 0.0 0.0 
0.0 0.0 0.0 
0.0 0.0 0.0 
0.0 0.0 0.0 
0.0 0.0 0.0 
0.0 0.0 0.0 
0.0 0.0 0.0 
0.0 0.0 0.0 
0.0 0.0 0.0 
0.0 0.0 0.0 
0.0 0.0 0.0 
0.0 0.0 0.0 
0.0 0.0 0.0 
0.0 0.0 0.0 
0.0 0.0 0.0 
0.0 0.0 0.0 
0.0 0.0 0.0 
0.0 0.0 0.0 
0.0 0.0 0.0 
0.0 0.0 0.0 
0.0 0.0 0.0 
0.0 0.0 0.0 
0.0 0.0 0.0 
0.0 0.0 0.0 
0.0 0.0 0.0 
0.0 0.0 0.0 
0.0 0.0 0.0 
0.0 0.0 0.0 
0.0 0.0 0.0 
0.0 0.0 0.0 
0.0 0.0 0.0 
0.0 0.0 0.0 
0.0 0.0 0.0 
0.0 0.0 0.0 
0.0 0.0 0.0 
0.0 0.0 0.0 
0.0 0.0 0.0 
0.0 0.0 0.0 
0.0 0.0 0.0 
0.0 0.0 0.0 
0.0 0.0 0.0 
0.0 0.0 0.0 
0.0 0.0 0.0 
0.0 0.0 0.0 
0.0 0.0 0.0 
0.0 0.0 0.0 
0.0 0.0 0.0 
0.0 0.0 0.0 
0.0 0.0 0.0 
0.0 0.0 0.0 
0.0 0.0 0.0 
0.0 0.0 0.0 
0.0 0.0 0.0 
0.0 0.0 0.0 
0.0 0.0 0.0 
0.0 0.0 0.0 
0.0 0.0 0.0 
0.0 0.0 0.0 
0.0 0.0 0.0 
0.0 0.0 0.0 
0.0 0.0 0.0 
0.0 0.0 0.0 
0.0 0.0 0.0 
0.0 0.0 0.0 
0.0 0.0 0.0 
0.0 0.0 0.0 
0.0 0.0 0.0 
0.0 0.0 0.0 
0.0 0.0 0.0 
0.0 0.0 0.0 
0.0 0.0 0.0 
0.0 0.0 0.0 
0.0 0.0 0.0 
0.0 0.0 0.0 
0.0 0.0 0.0 
0.0 0.0 0.0 
0.0 0.0 0.0 
0.0 0.0 0.0 
0.0 0.0 0.0 
0.0 0.0 0.0 
0.0 0.0 0.0 
0.0 0.0 0.0 
0.0 0.0 0.0 
0.0 0.0 0.0 
0.0 0.0 0.0 
0.0 0.0 0.0 
0.0 0.0 0.0 
0.0 0.0 0.0 
0.0 0.0 0.0 
0.0 0.0 0.0 
0.0 0.0 0.0 
0.0 0.0 0.0 
0.0 0.0 0.0 
0.0 0.0 0.0 
0.0 0.0 0.0 
0.0 0.0 0.0 
0.0 0.0 0.0 
0.0 0.0 0.0 
0.0 0.0 0.0 
0.0 0.0 0.0 
0.0 0.0 0.0 
0.0 0.0 0.0 
0.0 0.0 0.0 
0.0 0.0 0.0 
0.0 0.0 0.0 
0.0 0.0 0.0 
0.0 0.0 0.0 
0.0 0.0 0.0 
0.0 0.0 0.0 
0.0 0.0 0.0 
0.0 0.0 0.0 
0.0 0.0 0.0 
0.0 0.0 0.0 
0.0 0.0 0.0 
0.0 0.0 0.0 
0.0 0.0 0.0 
0.0 0.0 0.0 
0.0 0.0 0.0 
0.0 0.0 0.0 
0.0 0.0 0.0 
0.0 0.0 0.0 
0.0 0.0 0.0 
0.0 0.0 0.0 
0.0 0.0 0.0 
0.0 0.0 0.0 
0.0 0.0 0.0 
0.0 0.0 0.0 
0.0 0.0 0.0 
0.0 0.0 0.0 
0.0 0.0 0.0 
0.0 0.0 0.0 
0.0 0.0 0.0 
0.0 0.0 0.0 
0.0 0.0 0.0 
0.0 0.0 0.0 
0.0 0.0 0.0 
0.0 0.0 0.0 
0.0 0.0 0.0 
0.0 0.0 0.0 
0.0 0.0 0.0 
0.0 0.0 0.0 
0.0 0.0 0.0 
0.0 0.0 0.0 
0.0 0.0 0.0 
0.0 0.0 0.0 
0.0 0.0 0.0 
0.0 0.0 0.0 
0.0 0.0 0.0 
0.0 0.0 0.0 
0.0 0.0 0.0 
0.0 0.0 0.0 
0.0 0.0 0.0 
0.0 0.0 0.0 
0.0 0.0 0.0 
0.0 0.0 0.0 
0.0 0.0 0.0 
0.0 0.0 0.0 
0.0 0.0 0.0 
0.0 0.0 0.0 
0.0 0.0 0.0 
0.0 0.0 0.0 
0.0 0.0 0.0 
0.0 0.0 0.0 
0.0 0.0 0.0 
0.0 0.0 0.0 
0.0 0.0 0.0 
0.0 0.0 0.0 
0.0 0.0 0.0 
0.0 0.0 0.0 
0.0 0.0 0.0 
0.0 0.0 0.0 
0.0 0.0 0.0 
0.0 0.0 0.0 
0.0 0.0 0.0 
0.0 0.0 0.0 
0.0 0.0 0.0 
0.0 0.0 0.0 
0.0 0.0 0.0 
0.0 0.0 0.0 
0.0 0.0 0.0 
0.0 0.0 0.0 
0.0 0.0 0.0 
0.0 0.0 0.0 
0.0 0.0 0.0 
0.0 0.0 0.0 
0.0 0.0 0.0 
0.0 0.0 0.0 
0.0 0.0 0.0 
0.0 0.0 0.0 
0.0 0.0 0.0 
0.0 0.0 0.0 
0.0 0.0 0.0 
0.0 0.0 0.0 
0.0 0.0 0.0 
0.0 0.0 0.0 
0.0 0.0 0.0 
0.0 0.0 0.0 
0.0 0.0 0.0 
0.0 0.0 0.0 
0.0 0.0 0.0 
0.0 0.0 0.0 
0.0 0.0 0.0 
0.0 0.0 0.0 
0.0 0.0 0.0 
0.0 0.0 0.0 
0.0 0.0 0.0 
0.0 0.0 0.0 
0.0 0.0 0.0 
0.0 0.0 0.0 
0.0 0.0 0.0 
0.0 0.0 0.0 
0.0 0.0 0.0 
0.0 0.0 0.0 
0.0 0.0 0.0 
0.0 0.0 0.0 
0.0 0.0 0.0 
0.0 0.0 0.0 
0.0 0.0 0.0 
0.0 0.0 0.0 
0.0 0.0 0.0 
0.0 0.0 0.0 
0.0 0.0 0.0 
0.0 0.0 0.0 
0.0 0.0 0.0 
0.0 0.0 0.0 
0.0 0.0 0.0 
0.0 0.0 0.0 
0.0 0.0 0.0 
0.0 0.0 0.0 
0.0 0.0 0.0 
0.0 0.0 0.0 
0.0 0.0 0.0 
0.0 0.0 0.0 
0.0 0.0 0.0 
0.0 0.0 0.0 
0.0 0.0 0.0 
0.0 0.0 0.0 
0.0 0.0 0.0 
0.0 0.0 0.0 
0.0 0.0 0.0 
0.0 0.0 0.0 
0.0 0.0 0.0 
0.0 0.0 0.0 
0.0 0.0 0.0 
0.0 0.0 0.0 
0.0 0.0 0.0 
0.0 0.0 0.0 
0.0 0.0 0.0 
0.0 0.0 0.0 
0.0 0.0 0.0 
0.0 0.0 0.0 
0.0 0.0 0.0 
0.0 0.0 0.0 
0.0 0.0 0.0 
0.0 0.0 0.0 
0.0 0.0 0.0 
0.0 0.0 0.0 
0.0 0.0 0.0 
0.0 0.0 0.0 
0.0 0.0 0.0 
0.0 0.0 0.0 
0.0 0.0 0.0 
0.0 0.0 0.0 
0.0 0.0 0.0 
0.0 0.0 0.0 
0.0 0.0 0.0 
0.0 0.0 0.0 
0.0 0.0 0.0 
0.0 0.0 0.0 
0.0 0.0 0.0 
0.0 0.0 0.0 
0.0 0.0 0.0 
0.0 0.0 0.0 
0.0 0.0 0.0 
0.0 0.0 0.0 
0.0 0.0 0.0 
0.0 0.0 0.0 
0.0 0.0 0.0 
0.0 0.0 0.0 
0.0 0.0 0.0 
0.0 0.0 0.0 
0.0 0.0 0.0 
0.0 0.0 0.0 
0.0 0.0 0.0 
0.0 0.0 0.0 
0.0 0.0 0.0 
0.0 0.0 0.0 
0.0 0.0 0.0 
0.0 0.0 0.0 
0.0 0.0 0.0 
0.0 0.0 0.0 
0.0 0.0 0.0 
0.0 0.0 0.0 
0.0 0.0 0.0 
0.0 0.0 0.0 
0.0 0.0 0.0 
0.0 0.0 0.0 
0.0 0.0 0.0 
0.0 0.0 0.0 
0.0 0.0 0.0 
0.0 0.0 0.0 
0.0 0.0 0.0 
0.0 0.0 0.0 
0.0 0.0 0.0 
0.0 0.0 0.0 
0.0 0.0 0.0 
0.0 0.0 0.0 
0.0 0.0 0.0 
0.0 0.0 0.0 
0.0 0.0 0.0 
0.0 0.0 0.0 
0.0 0.0 0.0 
0.0 0.0 0.0 
0.0 0.0 0.0 
0.0 0.0 0.0 
0.0 0.0 0.0 
0.0 0.0 0.0 
0.0 0.0 0.0 
0.0 0.0 0.0 
0.0 0.0 0.0 
0.0 0.0 0.0 
0.0 0.0 0.0 
0.0 0.0 0.0 
0.0 0.0 0.0 
0.0 0.0 0.0 
0.0 0.0 0.0 
0.0 0.0 0.0 
0.0 0.0 0.0 
0.0 0.0 0.0 
0.0 0.0 0.0 
0.0 0.0 0.0 
0.0 0.0 0.0 
0.0 0.0 0.0 
0.0 0.0 0.0 
0.0 0.0 0.0 
0.0 0.0 0.0 
0.0 0.0 0.0 
0.0 0.0 0.0 
0.0 0.0 0.0 
0.0 0.0 0.0 
0.0 0.0 0.0 
0.0 0.0 0.0 
0.0 0.0 0.0 
0.0 0.0 0.0 
0.0 0.0 0.0 
0.0 0.0 0.0 
0.0 0.0 0.0 
0.0 0.0 0.0 
0.0 0.0 0.0 
0.0 0.0 0.0 
0.0 0.0 0.0 
0.0 0.0 0.0 
0.0 0.0 0.0 
0.0 0.0 0.0 
0.0 0.0 0.0 
0.0 0.0 0.0 
0.0 0.0 0.0 
0.0 0.0 0.0 
0.0 0.0 0.0 
0.0 0.0 0.0 
0.0 0.0 0.0 
0.0 0.0 0.0 
0.0 0.0 0.0 
0.0 0.0 0.0 
0.0 0.0 0.0 
0.0 0.0 0.0 
0.0 0.0 0.0 
0.0 0.0 0.0 
0.0 0.0 0.0 
0.0 0.0 0.0 
0.0 0.0 0.0 
0.0 0.0 0.0 
0.0 0.0 0.0 
0.0 0.0 0.0 
0.0 0.0 0.0 
0.0 0.0 0.0 
0.0 0.0 0.0 
0.0 0.0 0.0 
0.0 0.0 0.0 
0.0 0.0 0.0 
0.0 0.0 0.0 
0.0 0.0 0.0 
0.0 0.0 0.0 
0.0 0.0 0.0 
0.0 0.0 0.0 
0.0 0.0 0.0 
0.0 0.0 0.0 
0.0 0.0 0.0 
0.0 0.0 0.0 
0.0 0.0 0.0 
0.0 0.0 0.0 
0.0 0.0 0.0 
0.0 0.0 0.0 
0.0 0.0 0.0 
0.0 0.0 0.0 
0.0 0.0 0.0 
0.0 0.0 0.0 
0.0 0.0 0.0 
0.0 0.0 0.0 
0.0 0.0 0.0 
0.0 0.0 0.0 
0.0 0.0 0.0 
0.0 0.0 0.0 
0.0 0.0 0.0 
0.0 0.0 0.0 
0.0 0.0 0.0 
0.0 0.0 0.0 
0.0 0.0 0.0 
0.0 0.0 0.0 
0.0 0.0 0.0 
0.0 0.0 0.0 
0.0 0.0 0.0 
0.0 0.0 0.0 
0.0 0.0 0.0 
0.0 0.0 0.0 
0.0 0.0 0.0 
0.0 0.0 0.0 
0.0 0.0 0.0 
0.0 0.0 0.0 
0.0 0.0 0.0 
0.0 0.0 0.0 
0.0 0.0 0.0 
0.0 0.0 0.0 
0.0 0.0 0.0 
0.0 0.0 0.0 
0.0 0.0 0.0 
0.0 0.0 0.0 
0.0 0.0 0.0 
0.0 0.0 0.0 
0.0 0.0 0.0 
0.0 0.0 0.0 
0.0 0.0 0.0 
0.0 0.0 0.0 
0.0 0.0 0.0 
0.0 0.0 0.0 
0.0 0.0 0.0 
0.0 0.0 0.0 
0.0 0.0 0.0 
0.0 0.0 0.0 
0.0 0.0 0.0 
0.0 0.0 0.0 
0.0 0.0 0.0 
0.0 0.0 0.0 
0.0 0.0 0.0 
0.0 0.0 0.0 
0.0 0.0 0.0 
0.0 0.0 0.0 
0.0 0.0 0.0 
0.0 0.0 0.0 
0.0 0.0 0.0 
0.0 0.0 0.0 
0.0 0.0 0.0 
0.0 0.0 0.0 
0.0 0.0 0.0 
0.0 0.0 0.0 
0.0 0.0 0.0 
0.0 0.0 0.0 
0.0 0.0 0.0 
0.0 0.0 0.0 
0.0 0.0 0.0 
0.0 0.0 0.0 
0.0 0.0 0.0 
0.0 0.0 0.0 
0.0 0.0 0.0 
0.0 0.0 0.0 
0.0 0.0 0.0 
0.0 0.0 0.0 
0.0 0.0 0.0 
0.0 0.0 0.0 
0.0 0.0 0.0 
0.0 0.0 0.0 
0.0 0.0 0.0 
0.0 0.0 0.0 
0.0 0.0 0.0 
0.0 0.0 0.0 
0.0 0.0 0.0 
0.0 0.0 0.0 
0.0 0.0 0.0 
0.0 0.0 0.0 
0.0 0.0 0.0 
0.0 0.0 0.0 
0.0 0.0 0.0 
0.0 0.0 0.0 
0.0 0.0 0.0 
0.0 0.0 0.0 
0.0 0.0 0.0 
0.0 0.0 0.0 
0.0 0.0 0.0 
0.0 0.0 0.0 
0.0 0.0 0.0 
0.0 0.0 0.0 
0.0 0.0 0.0 
0.0 0.0 0.0 
0.0 0.0 0.0 
0.0 0.0 0.0 
0.0 0.0 0.0 
0.0 0.0 0.0 
0.0 0.0 0.0 
0.0 0.0 0.0 
0.0 0.0 0.0 
0.0 0.0 0.0 
0.0 0.0 0.0 
0.0 0.0 0.0 
0.0 0.0 0.0 
0.0 0.0 0.0 
0.0 0.0 0.0 
0.0 0.0 0.0 
0.0 0.0 0.0 
0.0 0.0 0.0 
0.0 0.0 0.0 
0.0 0.0 0.0 
0.0 0.0 0.0 
0.0 0.0 0.0 
0.0 0.0 0.0 
0.0 0.0 0.0 
0.0 0.0 0.0 
0.0 0.0 0.0 
0.0 0.0 0.0 
0.0 0.0 0.0 
0.0 0.0 0.0 
0.0 0.0 0.0 
0.0 0.0 0.0 
0.0 0.0 0.0 
0.0 0.0 0.0 
0.0 0.0 0.0 
0.0 0.0 0.0 
0.0 0.0 0.0 
0.0 0.0 0.0 
0.0 0.0 0.0 
0.0 0.0 0.0 
0.0 0.0 0.0 
0.0 0.0 0.0 
0.0 0.0 0.0 
0.0 0.0 0.0 
0.0 0.0 0.0 
0.0 0.0 0.0 
0.0 0.0 0.0 
0.0 0.0 0.0 
0.0 0.0 0.0 
0.0 0.0 0.0 
0.0 0.0 0.0 
0.0 0.0 0.0 
0.0 0.0 0.0 
0.0 0.0 0.0 
0.0 0.0 0.0 
0.0 0.0 0.0 
0.0 0.0 0.0 
0.0 0.0 0.0 
0.0 0.0 0.0 
0.0 0.0 0.0 
0.0 0.0 0.0 
0.0 0.0 0.0 
0.0 0.0 0.0 
0.0 0.0 0.0 
0.0 0.0 0.0 
0.0 0.0 0.0 
0.0 0.0 0.0 
0.0 0.0 0.0 
0.0 0.0 0.0 
0.0 0.0 0.0 
0.0 0.0 0.0 
0.0 0.0 0.0 
0.0 0.0 0.0 
0.0 0.0 0.0 
0.0 0.0 0.0 
0.0 0.0 0.0 
0.0 0.0 0.0 
0.0 0.0 0.0 
0.0 0.0 0.0 
0.0 0.0 0.0 
0.0 0.0 0.0 
0.0 0.0 0.0 
0.0 0.0 0.0 
0.0 0.0 0.0 
0.0 0.0 0.0 
0.0 0.0 0.0 
0.0 0.0 0.0 
0.0 0.0 0.0 
0.0 0.0 0.0 
0.0 0.0 0.0 
0.0 0.0 0.0 
0.0 0.0 0.0 
0.0 0.0 0.0 
0.0 0.0 0.0 
0.0 0.0 0.0 
0.0 0.0 0.0 
0.0 0.0 0.0 
0.0 0.0 0.0 
0.0 0.0 0.0 
0.0 0.0 0.0 
0.0 0.0 0.0 
0.0 0.0 0.0 
0.0 0.0 0.0 
0.0 0.0 0.0 
0.0 0.0 0.0 
0.0 0.0 0.0 
0.0 0.0 0.0 
0.0 0.0 0.0 
0.0 0.0 0.0 
0.0 0.0 0.0 
0.0 0.0 0.0 
0.0 0.0 0.0 
0.0 0.0 0.0 
0.0 0.0 0.0 
0.0 0.0 0.0 
0.0 0.0 0.0 
0.0 0.0 0.0 
0.0 0.0 0.0 
0.0 0.0 0.0 
0.0 0.0 0.0 
0.0 0.0 0.0 
0.0 0.0 0.0 
0.0 0.0 0.0 
0.0 0.0 0.0 
0.0 0.0 0.0 
0.0 0.0 0.0 
0.0 0.0 0.0 
0.0 0.0 0.0 
0.0 0.0 0.0 
0.0 0.0 0.0 
0.0 0.0 0.0 
0.0 0.0 0.0 
0.0 0.0 0.0 
0.0 0.0 0.0 
0.0 0.0 0.0 
0.0 0.0 0.0 
0.0 0.0 0.0 
0.0 0.0 0.0 
0.0 0.0 0.0 
0.0 0.0 0.0 
0.0 0.0 0.0 
0.0 0.0 0.0 
0.0 0.0 0.0 
0.0 0.0 0.0 
0.0 0.0 0.0 
0.0 0.0 0.0 
0.0 0.0 0.0 
0.0 0.0 0.0 
0.0 0.0 0.0 
0.0 0.0 0.0 
0.0 0.0 0.0 
0.0 0.0 0.0 
0.0 0.0 0.0 
0.0 0.0 0.0 
0.0 0.0 0.0 
0.0 0.0 0.0 
0.0 0.0 0.0 
0.0 0.0 0.0 
0.0 0.0 0.0 
0.0 0.0 0.0 
0.0 0.0 0.0 
0.0 0.0 0.0 
0.0 0.0 0.0 
0.0 0.0 0.0 
0.0 0.0 0.0 
0.0 0.0 0.0 
0.0 0.0 0.0 
0.0 0.0 0.0 
0.0 0.0 0.0 
0.0 0.0 0.0 
0.0 0.0 0.0 
0.0 0.0 0.0 
0.0 0.0 0.0 
0.0 0.0 0.0 
0.0 0.0 0.0 
0.0 0.0 0.0 
0.0 0.0 0.0 
0.0 0.0 0.0 
0.0 0.0 0.0 
0.0 0.0 0.0 
0.0 0.0 0.0 
0.0 0.0 0.0 
0.0 0.0 0.0 
0.0 0.0 0.0 
0.0 0.0 0.0 
0.0 0.0 0.0 
0.0 0.0 0.0 
0.0 0.0 0.0 
0.0 0.0 0.0 
0.0 0.0 0.0 
0.0 0.0 0.0 
0.0 0.0 0.0 
0.0 0.0 0.0 
0.0 0.0 0.0 
0.0 0.0 0.0 
0.0 0.0 0.0 
0.0 0.0 0.0 
0.0 0.0 0.0 
0.0 0.0 0.0 
0.0 0.0 0.0 
0.0 0.0 0.0 
0.0 0.0 0.0 
0.0 0.0 0.0 
0.0 0.0 0.0 
0.0 0.0 0.0 
0.0 0.0 0.0 
0.0 0.0 0.0 
0.0 0.0 0.0 
0.0 0.0 0.0 
0.0 0.0 0.0 
0.0 0.0 0.0 
0.0 0.0 0.0 
0.0 0.0 0.0 
0.0 0.0 0.0 
0.0 0.0 0.0 
0.0 0.0 0.0 
0.0 0.0 0.0 
0.0 0.0 0.0 
0.0 0.0 0.0 
0.0 0.0 0.0 
0.0 0.0 0.0 
0.0 0.0 0.0 
0.0 0.0 0.0 
0.0 0.0 0.0 
0.0 0.0 0.0 
0.0 0.0 0.0 
0.0 0.0 0.0 
0.0 0.0 0.0 
0.0 0.0 0.0 
0.0 0.0 0.0 
0.0 0.0 0.0 
0.0 0.0 0.0 
0.0 0.0 0.0 
0.0 0.0 0.0 
0.0 0.0 0.0 
0.0 0.0 0.0 
0.0 0.0 0.0 
0.0 0.0 0.0 
0.0 0.0 0.0 
0.0 0.0 0.0 
0.0 0.0 0.0 
0.0 0.0 0.0 
0.0 0.0 0.0 
0.0 0.0 0.0 
0.0 0.0 0.0 
0.0 0.0 0.0 
0.0 0.0 0.0 
0.0 0.0 0.0 
0.0 0.0 0.0 
0.0 0.0 0.0 
0.0 0.0 0.0 
0.0 0.0 0.0 
0.0 0.0 0.0 
0.0 0.0 0.0 
0.0 0.0 0.0 
0.0 0.0 0.0 
0.0 0.0 0.0 
0.0 0.0 0.0 
0.0 0.0 0.0 
0.0 0.0 0.0 
0.0 0.0 0.0 
0.0 0.0 0.0 
0.0 0.0 0.0 
0.0 0.0 0.0 
0.0 0.0 0.0 
0.0 0.0 0.0 
0.0 0.0 0.0 
0.0 0.0 0.0 
0.0 0.0 0.0 
0.0 0.0 0.0 
0.0 0.0 0.0 
0.0 0.0 0.0 
0.0 0.0 0.0 
0.0 0.0 0.0 
0.0 0.0 0.0 
0.0 0.0 0.0 
0.0 0.0 0.0 
0.0 0.0 0.0 
0.0 0.0 0.0 
0.0 0.0 0.0 
0.0 0.0 0.0 
0.0 0.0 0.0 
0.0 0.0 0.0 
0.0 0.0 0.0 
0.0 0.0 0.0 
0.0 0.0 0.0 
0.0 0.0 0.0 
0.0 0.0 0.0 
0.0 0.0 0.0 
0.0 0.0 0.0 
0.0 0.0 0.0 
0.0 0.0 0.0 
0.0 0.0 0.0 
0.0 0.0 0.0 
0.0 0.0 0.0 
0.0 0.0 0.0 
0.0 0.0 0.0 
0.0 0.0 0.0 
0.0 0.0 0.0 
0.0 0.0 0.0 
0.0 0.0 0.0 
0.0 0.0 0.0 
0.0 0.0 0.0 
0.0 0.0 0.0 
0.0 0.0 0.0 
0.0 0.0 0.0 
0.0 0.0 0.0 
0.0 0.0 0.0 
0.0 0.0 0.0 
0.0 0.0 0.0 
0.0 0.0 0.0 
0.0 0.0 0.0 
0.0 0.0 0.0 
0.0 0.0 0.0 
0.0 0.0 0.0 
0.0 0.0 0.0 
0.0 0.0 0.0 
0.0 0.0 0.0 
0.0 0.0 0.0 
0.0 0.0 0.0 
0.0 0.0 0.0 
0.0 0.0 0.0 
0.0 0.0 0.0 
0.0 0.0 0.0 
0.0 0.0 0.0 
0.0 0.0 0.0 
0.0 0.0 0.0 
0.0 0.0 0.0 
0.0 0.0 0.0 
0.0 0.0 0.0 
0.0 0.0 0.0 
0.0 0.0 0.0 
0.0 0.0 0.0 
0.0 0.0 0.0 
0.0 0.0 0.0 
0.0 0.0 0.0 
0.0 0.0 0.0 
0.0 0.0 0.0 
0.0 0.0 0.0 
0.0 0.0 0.0 
0.0 0.0 0.0 
0.0 0.0 0.0 
0.0 0.0 0.0 
0.0 0.0 0.0 
0.0 0.0 0.0 
0.0 0.0 0.0 
0.0 0.0 0.0 
0.0 0.0 0.0 
0.0 0.0 0.0 
0.0 0.0 0.0 
0.0 0.0 0.0 
0.0 0.0 0.0 
0.0 0.0 0.0 
0.0 0.0 0.0 
0.0 0.0 0.0 
0.0 0.0 0.0 
0.0 0.0 0.0 
0.0 0.0 0.0 
0.0 0.0 0.0 
0.0 0.0 0.0 
0.0 0.0 0.0 
0.0 0.0 0.0 
0.0 0.0 0.0 
0.0 0.0 0.0 
0.0 0.0 0.0 
0.0 0.0 0.0 
0.0 0.0 0.0 
0.0 0.0 0.0 
0.0 0.0 0.0 
0.0 0.0 0.0 
0.0 0.0 0.0 
0.0 0.0 0.0 
0.0 0.0 0.0 
0.0 0.0 0.0 
0.0 0.0 0.0 
0.0 0.0 0.0 
0.0 0.0 0.0 
0.0 0.0 0.0 
0.0 0.0 0.0 
0.0 0.0 0.0 
0.0 0.0 0.0 
0.0 0.0 0.0 
0.0 0.0 0.0 
0.0 0.0 0.0 
0.0 0.0 0.0 
0.0 0.0 0.0 
0.0 0.0 0.0 
0.0 0.0 0.0 
0.0 0.0 0.0 
0.0 0.0 0.0 
0.0 0.0 0.0 
0.0 0.0 0.0 
0.0 0.0 0.0 
0.0 0.0 0.0 
0.0 0.0 0.0 
0.0 0.0 0.0 
0.0 0.0 0.0 
0.0 0.0 0.0 
0.0 0.0 0.0 
0.0 0.0 0.0 
0.0 0.0 0.0 
0.0 0.0 0.0 
0.0 0.0 0.0 
0.0 0.0 0.0 
0.0 0.0 0.0 
0.0 0.0 0.0 
0.0 0.0 0.0 
0.0 0.0 0.0 
0.0 0.0 0.0 
0.0 0.0 0.0 
0.0 0.0 0.0 
0.0 0.0 0.0 
0.0 0.0 0.0 
0.0 0.0 0.0 
0.0 0.0 0.0 
0.0 0.0 0.0 
0.0 0.0 0.0 
0.0 0.0 0.0 
0.0 0.0 0.0 
0.0 0.0 0.0 
0.0 0.0 0.0 
0.0 0.0 0.0 
0.0 0.0 0.0 
0.0 0.0 0.0 
0.0 0.0 0.0 
0.0 0.0 0.0 
0.0 0.0 0.0 
0.0 0.0 0.0 
0.0 0.0 0.0 
0.0 0.0 0.0 
0.0 0.0 0.0 
0.0 0.0 0.0 
0.0 0.0 0.0 
0.0 0.0 0.0 
0.0 0.0 0.0 
0.0 0.0 0.0 
0.0 0.0 0.0 
0.0 0.0 0.0 
0.0 0.0 0.0 
0.0 0.0 0.0 
0.0 0.0 0.0 
0.0 0.0 0.0 
0.0 0.0 0.0 
0.0 0.0 0.0 
0.0 0.0 0.0 
0.0 0.0 0.0 
0.0 0.0 0.0 
0.0 0.0 0.0 
0.0 0.0 0.0 
0.0 0.0 0.0 
0.0 0.0 0.0 
0.0 0.0 0.0 
0.0 0.0 0.0 
0.0 0.0 0.0 
0.0 0.0 0.0 
0.0 0.0 0.0 
0.0 0.0 0.0 
0.0 0.0 0.0 
0.0 0.0 0.0 
0.0 0.0 0.0 
0.0 0.0 0.0 
0.0 0.0 0.0 
0.0 0.0 0.0 
0.0 0.0 0.0 
0.0 0.0 0.0 
0.0 0.0 0.0 
0.0 0.0 0.0 
0.0 0.0 0.0 
0.0 0.0 0.0 
0.0 0.0 0.0 
0.0 0.0 0.0 
0.0 0.0 0.0 
0.0 0.0 0.0 
0.0 0.0 0.0 
0.0 0.0 0.0 
0.0 0.0 0.0 
0.0 0.0 0.0 
0.0 0.0 0.0 
0.0 0.0 0.0 
0.0 0.0 0.0 
0.0 0.0 0.0 
0.0 0.0 0.0 
0.0 0.0 0.0 
0.0 0.0 0.0 
0.0 0.0 0.0 
0.0 0.0 0.0 
0.0 0.0 0.0 
0.0 0.0 0.0 
0.0 0.0 0.0 
0.0 0.0 0.0 
0.0 0.0 0.0 
0.0 0.0 0.0 
0.0 0.0 0.0 
0.0 0.0 0.0 
0.0 0.0 0.0 
0.0 0.0 0.0 
0.0 0.0 0.0 
0.0 0.0 0.0 
0.0 0.0 0.0 
0.0 0.0 0.0 
0.0 0.0 0.0 
0.0 0.0 0.0 
0.0 0.0 0.0 
0.0 0.0 0.0 
0.0 0.0 0.0 
0.0 0.0 0.0 
0.0 0.0 0.0 
0.0 0.0 0.0 
0.0 0.0 0.0 
0.0 0.0 0.0 
0.0 0.0 0.0 
0.0 0.0 0.0 
0.0 0.0 0.0 
0.0 0.0 0.0 
0.0 0.0 0.0 
0.0 0.0 0.0 
0.0 0.0 0.0 
0.0 0.0 0.0 
0.0 0.0 0.0 
0.0 0.0 0.0 
0.0 0.0 0.0 
0.0 0.0 0.0 
0.0 0.0 0.0 
0.0 0.0 0.0 
0.0 0.0 0.0 
0.0 0.0 0.0 
0.0 0.0 0.0 
0.0 0.0 0.0 
0.0 0.0 0.0 
0.0 0.0 0.0 
0.0 0.0 0.0 
0.0 0.0 0.0 
0.0 0.0 0.0 
0.0 0.0 0.0 
0.0 0.0 0.0 
0.0 0.0 0.0 
0.0 0.0 0.0 
0.0 0.0 0.0 
0.0 0.0 0.0 
0.0 0.0 0.0 
0.0 0.0 0.0 
0.0 0.0 0.0 
0.0 0.0 0.0 
0.0 0.0 0.0 
0.0 0.0 0.0 
0.0 0.0 0.0 
0.0 0.0 0.0 
0.0 0.0 0.0 
0.0 0.0 0.0 
0.0 0.0 0.0 
0.0 0.0 0.0 
0.0 0.0 0.0 
0.0 0.0 0.0 
0.0 0.0 0.0 
0.0 0.0 0.0 
0.0 0.0 0.0 
0.0 0.0 0.0 
0.0 0.0 0.0 
0.0 0.0 0.0 
0.0 0.0 0.0 
0.0 0.0 0.0 
0.0 0.0 0.0 
0.0 0.0 0.0 
0.0 0.0 0.0 
0.0 0.0 0.0 
0.0 0.0 0.0 
0.0 0.0 0.0 
0.0 0.0 0.0 
0.0 0.0 0.0 
0.0 0.0 0.0 
0.0 0.0 0.0 
0.0 0.0 0.0 
0.0 0.0 0.0 
0.0 0.0 0.0 
0.0 0.0 0.0 
0.0 0.0 0.0 
0.0 0.0 0.0 
0.0 0.0 0.0 
0.0 0.0 0.0 
0.0 0.0 0.0 
0.0 0.0 0.0 
0.0 0.0 0.0 
0.0 0.0 0.0 
0.0 0.0 0.0 
0.0 0.0 0.0 
0.0 0.0 0.0 
0.0 0.0 0.0 
0.0 0.0 0.0 
0.0 0.0 0.0 
0.0 0.0 0.0 
0.0 0.0 0.0 
0.0 0.0 0.0 
0.0 0.0 0.0 
0.0 0.0 0.0 
0.0 0.0 0.0 
0.0 0.0 0.0 
0.0 0.0 0.0 
0.0 0.0 0.0 
0.0 0.0 0.0 
0.0 0.0 0.0 
0.0 0.0 0.0 
0.0 0.0 0.0 
0.0 0.0 0.0 
0.0 0.0 0.0 
0.0 0.0 0.0 
0.0 0.0 0.0 
0.0 0.0 0.0 
0.0 0.0 0.0 
0.0 0.0 0.0 
0.0 0.0 0.0 
0.0 0.0 0.0 
0.0 0.0 0.0 
0.0 0.0 0.0 
0.0 0.0 0.0 
0.0 0.0 0.0 
0.0 0.0 0.0 
0.0 0.0 0.0 
0.0 0.0 0.0 
0.0 0.0 0.0 
0.0 0.0 0.0 
0.0 0.0 0.0 
0.0 0.0 0.0 
0.0 0.0 0.0 
0.0 0.0 0.0 
0.0 0.0 0.0 
0.0 0.0 0.0 
0.0 0.0 0.0 
0.0 0.0 0.0 
0.0 0.0 0.0 
0.0 0.0 0.0 
0.0 0.0 0.0 
0.0 0.0 0.0 
0.0 0.0 0.0 
0.0 0.0 0.0 
0.0 0.0 0.0 
0.0 0.0 0.0 
0.0 0.0 0.0 
0.0 0.0 0.0 
0.0 0.0 0.0 
0.0 0.0 0.0 
0.0 0.0 0.0 
0.0 0.0 0.0 
0.0 0.0 0.0 
0.0 0.0 0.0 
0.0 0.0 0.0 
0.0 0.0 0.0 
0.0 0.0 0.0 
0.0 0.0 0.0 
0.0 0.0 0.0 
0.0 0.0 0.0 
0.0 0.0 0.0 
0.0 0.0 0.0 
0.0 0.0 0.0 
0.0 0.0 0.0 
0.0 0.0 0.0 
0.0 0.0 0.0 
0.0 0.0 0.0 
0.0 0.0 0.0 
0.0 0.0 0.0 
0.0 0.0 0.0 
0.0 0.0 0.0 
0.0 0.0 0.0 
0.0 0.0 0.0 
0.0 0.0 0.0 
0.0 0.0 0.0 
0.0 0.0 0.0 
0.0 0.0 0.0 
0.0 0.0 0.0 
0.0 0.0 0.0 
0.0 0.0 0.0 
0.0 0.0 0.0 
0.0 0.0 0.0 
0.0 0.0 0.0 
0.0 0.0 0.0 
0.0 0.0 0.0 
0.0 0.0 0.0 
0.0 0.0 0.0 
0.0 0.0 0.0 
0.0 0.0 0.0 
0.0 0.0 0.0 
0.0 0.0 0.0 
0.0 0.0 0.0 
0.0 0.0 0.0 
0.0 0.0 0.0 
0.0 0.0 0.0 
0.0 0.0 0.0 
0.0 0.0 0.0 
0.0 0.0 0.0 
0.0 0.0 0.0 
0.0 0.0 0.0 
0.0 0.0 0.0 
0.0 0.0 0.0 
0.0 0.0 0.0 
0.0 0.0 0.0 
0.0 0.0 0.0 
0.0 0.0 0.0 
0.0 0.0 0.0 
0.0 0.0 0.0 
0.0 0.0 0.0 
0.0 0.0 0.0 
0.0 0.0 0.0 
0.0 0.0 0.0 
0.0 0.0 0.0 
0.0 0.0 0.0 
0.0 0.0 0.0 
0.0 0.0 0.0 
0.0 0.0 0.0 
0.0 0.0 0.0 
0.0 0.0 0.0 
0.0 0.0 0.0 
0.0 0.0 0.0 
0.0 0.0 0.0 
0.0 0.0 0.0 
0.0 0.0 0.0 
0.0 0.0 0.0 
0.0 0.0 0.0 
0.0 0.0 0.0 
0.0 0.0 0.0 
0.0 0.0 0.0 
0.0 0.0 0.0 
0.0 0.0 0.0 
0.0 0.0 0.0 
0.0 0.0 0.0 
0.0 0.0 0.0 
0.0 0.0 0.0 
0.0 0.0 0.0 
0.0 0.0 0.0 
0.0 0.0 0.0 
0.0 0.0 0.0 
0.0 0.0 0.0 
0.0 0.0 0.0 
0.0 0.0 0.0 
0.0 0.0 0.0 
0.0 0.0 0.0 
0.0 0.0 0.0 
0.0 0.0 0.0 
0.0 0.0 0.0 
0.0 0.0 0.0 
0.0 0.0 0.0 
0.0 0.0 0.0 
0.0 0.0 0.0 
0.0 0.0 0.0 
0.0 0.0 0.0 
0.0 0.0 0.0 
0.0 0.0 0.0 
0.0 0.0 0.0 
0.0 0.0 0.0 
0.0 0.0 0.0 
0.0 0.0 0.0 
0.0 0.0 0.0 
0.0 0.0 0.0 
0.0 0.0 0.0 
0.0 0.0 0.0 
0.0 0.0 0.0 
0.0 0.0 0.0 
0.0 0.0 0.0 
0.0 0.0 0.0 
0.0 0.0 0.0 
0.0 0.0 0.0 
0.0 0.0 0.0 
0.0 0.0 0.0 
0.0 0.0 0.0 
0.0 0.0 0.0 
0.0 0.0 0.0 
0.0 0.0 0.0 
0.0 0.0 0.0 
0.0 0.0 0.0 
0.0 0.0 0.0 
0.0 0.0 0.0 
0.0 0.0 0.0 
0.0 0.0 0.0 
0.0 0.0 0.0 
0.0 0.0 0.0 
0.0 0.0 0.0 
0.0 0.0 0.0 
0.0 0.0 0.0 
0.0 0.0 0.0 
0.0 0.0 0.0 
0.0 0.0 0.0 
0.0 0.0 0.0 
0.0 0.0 0.0 
0.0 0.0 0.0 
0.0 0.0 0.0 
0.0 0.0 0.0 
0.0 0.0 0.0 
0.0 0.0 0.0 
0.0 0.0 0.0 
0.0 0.0 0.0 
0.0 0.0 0.0 
0.0 0.0 0.0 
0.0 0.0 0.0 
0.0 0.0 0.0 
0.0 0.0 0.0 
0.0 0.0 0.0 
0.0 0.0 0.0 
0.0 0.0 0.0 
0.0 0.0 0.0 
0.0 0.0 0.0 
0.0 0.0 0.0 
0.0 0.0 0.0 
0.0 0.0 0.0 
0.0 0.0 0.0 
0.0 0.0 0.0 
0.0 0.0 0.0 
0.0 0.0 0.0 
0.0 0.0 0.0 
0.0 0.0 0.0 
0.0 0.0 0.0 
0.0 0.0 0.0 
0.0 0.0 0.0 
0.0 0.0 0.0 
0.0 0.0 0.0 
0.0 0.0 0.0 
0.0 0.0 0.0 
0.0 0.0 0.0 
0.0 0.0 0.0 
0.0 0.0 0.0 
0.0 0.0 0.0 
0.0 0.0 0.0 
0.0 0.0 0.0 
0.0 0.0 0.0 
0.0 0.0 0.0 
0.0 0.0 0.0 
0.0 0.0 0.0 
0.0 0.0 0.0 
0.0 0.0 0.0 
0.0 0.0 0.0 
0.0 0.0 0.0 
0.0 0.0 0.0 
0.0 0.0 0.0 
0.0 0.0 0.0 
0.0 0.0 0.0 
0.0 0.0 0.0 
0.0 0.0 0.0 
0.0 0.0 0.0 
0.0 0.0 0.0 
0.0 0.0 0.0 
0.0 0.0 0.0 
0.0 0.0 0.0 
0.0 0.0 0.0 
0.0 0.0 0.0 
0.0 0.0 0.0 
0.0 0.0 0.0 
0.0 0.0 0.0 
0.0 0.0 0.0 
0.0 0.0 0.0 
0.0 0.0 0.0 
0.0 0.0 0.0 
0.0 0.0 0.0 
0.0 0.0 0.0 
0.0 0.0 0.0 
0.0 0.0 0.0 
0.0 0.0 0.0 
0.0 0.0 0.0 
0.0 0.0 0.0 
0.0 0.0 0.0 
0.0 0.0 0.0 
0.0 0.0 0.0 
0.0 0.0 0.0 
0.0 0.0 0.0 
0.0 0.0 0.0 
0.0 0.0 0.0 
0.0 0.0 0.0 
0.0 0.0 0.0 
0.0 0.0 0.0 
0.0 0.0 0.0 
0.0 0.0 0.0 
0.0 0.0 0.0 
0.0 0.0 0.0 
0.0 0.0 0.0 
0.0 0.0 0.0 
0.0 0.0 0.0 
0.0 0.0 0.0 
0.0 0.0 0.0 
0.0 0.0 0.0 
0.0 0.0 0.0 
0.0 0.0 0.0 
0.0 0.0 0.0 
0.0 0.0 0.0 
0.0 0.0 0.0 
0.0 0.0 0.0 
0.0 0.0 0.0 
0.0 0.0 0.0 
0.0 0.0 0.0 
0.0 0.0 0.0 
0.0 0.0 0.0 
0.0 0.0 0.0 
0.0 0.0 0.0 
0.0 0.0 0.0 
0.0 0.0 0.0 
0.0 0.0 0.0 
0.0 0.0 0.0 
0.0 0.0 0.0 
0.0 0.0 0.0 
0.0 0.0 0.0 
0.0 0.0 0.0 
0.0 0.0 0.0 
0.0 0.0 0.0 
0.0 0.0 0.0 
0.0 0.0 0.0 
0.0 0.0 0.0 
0.0 0.0 0.0 
0.0 0.0 0.0 
0.0 0.0 0.0 
0.0 0.0 0.0 
0.0 0.0 0.0 
0.0 0.0 0.0 
0.0 0.0 0.0 
0.0 0.0 0.0 
0.0 0.0 0.0 
0.0 0.0 0.0 
0.0 0.0 0.0 
0.0 0.0 0.0 
0.0 0.0 0.0 
0.0 0.0 0.0 
0.0 0.0 0.0 
0.0 0.0 0.0 
0.0 0.0 0.0 
0.0 0.0 0.0 
0.0 0.0 0.0 
0.0 0.0 0.0 
0.0 0.0 0.0 
0.0 0.0 0.0 
0.0 0.0 0.0 
0.0 0.0 0.0 
0.0 0.0 0.0 
0.0 0.0 0.0 
0.0 0.0 0.0 
0.0 0.0 0.0 
0.0 0.0 0.0 
0.0 0.0 0.0 
0.0 0.0 0.0 
0.0 0.0 0.0 
0.0 0.0 0.0 
0.0 0.0 0.0 
0.0 0.0 0.0 
0.0 0.0 0.0 
0.0 0.0 0.0 
0.0 0.0 0.0 
0.0 0.0 0.0 
0.0 0.0 0.0 
0.0 0.0 0.0 
0.0 0.0 0.0 
0.0 0.0 0.0 
0.0 0.0 0.0 
0.0 0.0 0.0 
0.0 0.0 0.0 
0.0 0.0 0.0 
0.0 0.0 0.0 
0.0 0.0 0.0 
0.0 0.0 0.0 
0.0 0.0 0.0 
0.0 0.0 0.0 
0.0 0.0 0.0 
0.0 0.0 0.0 
0.0 0.0 0.0 
0.0 0.0 0.0 
0.0 0.0 0.0 
0.0 0.0 0.0 
0.0 0.0 0.0 
0.0 0.0 0.0 
0.0 0.0 0.0 
0.0 0.0 0.0 
0.0 0.0 0.0 
0.0 0.0 0.0 
0.0 0.0 0.0 
0.0 0.0 0.0 
0.0 0.0 0.0 
0.0 0.0 0.0 
0.0 0.0 0.0 
0.0 0.0 0.0 
0.0 0.0 0.0 
0.0 0.0 0.0 
0.0 0.0 0.0 
0.0 0.0 0.0 
0.0 0.0 0.0 
0.0 0.0 0.0 
0.0 0.0 0.0 
0.0 0.0 0.0 
0.0 0.0 0.0 
0.0 0.0 0.0 
0.0 0.0 0.0 
0.0 0.0 0.0 
0.0 0.0 0.0 
0.0 0.0 0.0 
0.0 0.0 0.0 
0.0 0.0 0.0 
0.0 0.0 0.0 
0.0 0.0 0.0 
0.0 0.0 0.0 
0.0 0.0 0.0 
0.0 0.0 0.0 
0.0 0.0 0.0 
0.0 0.0 0.0 
0.0 0.0 0.0 
0.0 0.0 0.0 
0.0 0.0 0.0 
0.0 0.0 0.0 
0.0 0.0 0.0 
0.0 0.0 0.0 
0.0 0.0 0.0 
0.0 0.0 0.0 
0.0 0.0 0.0 
0.0 0.0 0.0 
0.0 0.0 0.0 
0.0 0.0 0.0 
0.0 0.0 0.0 
0.0 0.0 0.0 
0.0 0.0 0.0 
0.0 0.0 0.0 
0.0 0.0 0.0 
0.0 0.0 0.0 
0.0 0.0 0.0 
0.0 0.0 0.0 
0.0 0.0 0.0 
0.0 0.0 0.0 
0.0 0.0 0.0 
0.0 0.0 0.0 
0.0 0.0 0.0 
0.0 0.0 0.0 
0.0 0.0 0.0 
0.0 0.0 0.0 
0.0 0.0 0.0 
0.0 0.0 0.0 
0.0 0.0 0.0 
0.0 0.0 0.0 
0.0 0.0 0.0 
0.0 0.0 0.0 
0.0 0.0 0.0 
0.0 0.0 0.0 
0.0 0.0 0.0 
0.0 0.0 0.0 
0.0 0.0 0.0 
0.0 0.0 0.0 
0.0 0.0 0.0 
0.0 0.0 0.0 
0.0 0.0 0.0 
0.0 0.0 0.0 
0.0 0.0 0.0 
0.0 0.0 0.0 
0.0 0.0 0.0 
0.0 0.0 0.0 
0.0 0.0 0.0 
0.0 0.0 0.0 
0.0 0.0 0.0 
0.0 0.0 0.0 
0.0 0.0 0.0 
0.0 0.0 0.0 
0.0 0.0 0.0 
0.0 0.0 0.0 
0.0 0.0 0.0 
0.0 0.0 0.0 
0.0 0.0 0.0 
0.0 0.0 0.0 
0.0 0.0 0.0 
0.0 0.0 0.0 
0.0 0.0 0.0 
0.0 0.0 0.0 
0.0 0.0 0.0 
0.0 0.0 0.0 
0.0 0.0 0.0 
0.0 0.0 0.0 
0.0 0.0 0.0 
0.0 0.0 0.0 
0.0 0.0 0.0 
0.0 0.0 0.0 
0.0 0.0 0.0 
0.0 0.0 0.0 
0.0 0.0 0.0 
0.0 0.0 0.0 
0.0 0.0 0.0 
0.0 0.0 0.0 
0.0 0.0 0.0 
0.0 0.0 0.0 
0.0 0.0 0.0 
0.0 0.0 0.0 
0.0 0.0 0.0 
0.0 0.0 0.0 
0.0 0.0 0.0 
0.0 0.0 0.0 
0.0 0.0 0.0 
0.0 0.0 0.0 
0.0 0.0 0.0 
0.0 0.0 0.0 
0.0 0.0 0.0 
0.0 0.0 0.0 
0.0 0.0 0.0 
0.0 0.0 0.0 
0.0 0.0 0.0 
0.0 0.0 0.0 
0.0 0.0 0.0 
0.0 0.0 0.0 
0.0 0.0 0.0 
0.0 0.0 0.0 
0.0 0.0 0.0 
0.0 0.0 0.0 
0.0 0.0 0.0 
0.0 0.0 0.0 
0.0 0.0 0.0 
0.0 0.0 0.0 
0.0 0.0 0.0 
0.0 0.0 0.0 
0.0 0.0 0.0 
0.0 0.0 0.0 
0.0 0.0 0.0 
0.0 0.0 0.0 
0.0 0.0 0.0 
0.0 0.0 0.0 
0.0 0.0 0.0 
0.0 0.0 0.0 
0.0 0.0 0.0 
0.0 0.0 0.0 
0.0 0.0 0.0 
0.0 0.0 0.0 
0.0 0.0 0.0 
0.0 0.0 0.0 
0.0 0.0 0.0 
0.0 0.0 0.0 
0.0 0.0 0.0 
0.0 0.0 0.0 
0.0 0.0 0.0 
0.0 0.0 0.0 
0.0 0.0 0.0 
0.0 0.0 0.0 
0.0 0.0 0.0 
0.0 0.0 0.0 
0.0 0.0 0.0 
0.0 0.0 0.0 
0.0 0.0 0.0 
0.0 0.0 0.0 
0.0 0.0 0.0 
0.0 0.0 0.0 
0.0 0.0 0.0 
0.0 0.0 0.0 
0.0 0.0 0.0 
0.0 0.0 0.0 
0.0 0.0 0.0 
0.0 0.0 0.0 
0.0 0.0 0.0 
0.0 0.0 0.0 
0.0 0.0 0.0 
0.0 0.0 0.0 
0.0 0.0 0.0 
0.0 0.0 0.0 
0.0 0.0 0.0 
0.0 0.0 0.0 
0.0 0.0 0.0 
0.0 0.0 0.0 
0.0 0.0 0.0 
0.0 0.0 0.0 
0.0 0.0 0.0 
0.0 0.0 0.0 
0.0 0.0 0.0 
0.0 0.0 0.0 
0.0 0.0 0.0 
0.0 0.0 0.0 
0.0 0.0 0.0 
0.0 0.0 0.0 
0.0 0.0 0.0 
0.0 0.0 0.0 
0.0 0.0 0.0 
0.0 0.0 0.0 
0.0 0.0 0.0 
0.0 0.0 0.0 
0.0 0.0 0.0 
0.0 0.0 0.0 
0.0 0.0 0.0 
0.0 0.0 0.0 
0.0 0.0 0.0 
0.0 0.0 0.0 
0.0 0.0 0.0 
0.0 0.0 0.0 
0.0 0.0 0.0 
0.0 0.0 0.0 
0.0 0.0 0.0 
0.0 0.0 0.0 
0.0 0.0 0.0 
0.0 0.0 0.0 
0.0 0.0 0.0 
0.0 0.0 0.0 
0.0 0.0 0.0 
0.0 0.0 0.0 
0.0 0.0 0.0 
0.0 0.0 0.0 
0.0 0.0 0.0 
0.0 0.0 0.0 
0.0 0.0 0.0 
0.0 0.0 0.0 
0.0 0.0 0.0 
0.0 0.0 0.0 
0.0 0.0 0.0 
0.0 0.0 0.0 
0.0 0.0 0.0 
0.0 0.0 0.0 
0.0 0.0 0.0 
0.0 0.0 0.0 
0.0 0.0 0.0 
0.0 0.0 0.0 
0.0 0.0 0.0 
0.0 0.0 0.0 
0.0 0.0 0.0 
0.0 0.0 0.0 
0.0 0.0 0.0 
0.0 0.0 0.0 
0.0 0.0 0.0 
0.0 0.0 0.0 
0.0 0.0 0.0 
0.0 0.0 0.0 
0.0 0.0 0.0 
0.0 0.0 0.0 
0.0 0.0 0.0 
0.0 0.0 0.0 
0.0 0.0 0.0 
0.0 0.0 0.0 
0.0 0.0 0.0 
0.0 0.0 0.0 
0.0 0.0 0.0 
0.0 0.0 0.0 
0.0 0.0 0.0 
0.0 0.0 0.0 
0.0 0.0 0.0 
0.0 0.0 0.0 
0.0 0.0 0.0 
0.0 0.0 0.0 
0.0 0.0 0.0 
0.0 0.0 0.0 
0.0 0.0 0.0 
0.0 0.0 0.0 
0.0 0.0 0.0 
0.0 0.0 0.0 
0.0 0.0 0.0 
0.0 0.0 0.0 
0.0 0.0 0.0 
0.0 0.0 0.0 
0.0 0.0 0.0 
0.0 0.0 0.0 
0.0 0.0 0.0 
0.0 0.0 0.0 
0.0 0.0 0.0 
0.0 0.0 0.0 
0.0 0.0 0.0 
0.0 0.0 0.0 
0.0 0.0 0.0 
0.0 0.0 0.0 
0.0 0.0 0.0 
0.0 0.0 0.0 
0.0 0.0 0.0 
0.0 0.0 0.0 
0.0 0.0 0.0 
0.0 0.0 0.0 
0.0 0.0 0.0 
0.0 0.0 0.0 
0.0 0.0 0.0 
0.0 0.0 0.0 
0.0 0.0 0.0 
0.0 0.0 0.0 
0.0 0.0 0.0 
0.0 0.0 0.0 
0.0 0.0 0.0 
0.0 0.0 0.0 
0.0 0.0 0.0 
0.0 0.0 0.0 
0.0 0.0 0.0 
0.0 0.0 0.0 
0.0 0.0 0.0 
0.0 0.0 0.0 
0.0 0.0 0.0 
0.0 0.0 0.0 
0.0 0.0 0.0 
0.0 0.0 0.0 
0.0 0.0 0.0 
0.0 0.0 0.0 
0.0 0.0 0.0 
0.0 0.0 0.0 
0.0 0.0 0.0 
0.0 0.0 0.0 
0.0 0.0 0.0 
0.0 0.0 0.0 
0.0 0.0 0.0 
0.0 0.0 0.0 
0.0 0.0 0.0 
0.0 0.0 0.0 
0.0 0.0 0.0 
0.0 0.0 0.0 
0.0 0.0 0.0 
0.0 0.0 0.0 
0.0 0.0 0.0 
0.0 0.0 0.0 
0.0 0.0 0.0 
0.0 0.0 0.0 
0.0 0.0 0.0 
0.0 0.0 0.0 
0.0 0.0 0.0 
0.0 0.0 0.0 
0.0 0.0 0.0 
0.0 0.0 0.0 
0.0 0.0 0.0 
0.0 0.0 0.0 
0.0 0.0 0.0 
0.0 0.0 0.0 
0.0 0.0 0.0 
0.0 0.0 0.0 
0.0 0.0 0.0 
0.0 0.0 0.0 
0.0 0.0 0.0 
0.0 0.0 0.0 
0.0 0.0 0.0 
0.0 0.0 0.0 
0.0 0.0 0.0 
0.0 0.0 0.0 
0.0 0.0 0.0 
0.0 0.0 0.0 
0.0 0.0 0.0 
0.0 0.0 0.0 
0.0 0.0 0.0 
0.0 0.0 0.0 
0.0 0.0 0.0 
0.0 0.0 0.0 
0.0 0.0 0.0 
0.0 0.0 0.0 
0.0 0.0 0.0 
0.0 0.0 0.0 
0.0 0.0 0.0 
0.0 0.0 0.0 
0.0 0.0 0.0 
0.0 0.0 0.0 
0.0 0.0 0.0 
0.0 0.0 0.0 
0.0 0.0 0.0 
0.0 0.0 0.0 
0.0 0.0 0.0 
0.0 0.0 0.0 
0.0 0.0 0.0 
0.0 0.0 0.0 
0.0 0.0 0.0 
0.0 0.0 0.0 
0.0 0.0 0.0 
0.0 0.0 0.0 
0.0 0.0 0.0 
0.0 0.0 0.0 
0.0 0.0 0.0 
0.0 0.0 0.0 
0.0 0.0 0.0 
0.0 0.0 0.0 
0.0 0.0 0.0 
0.0 0.0 0.0 
0.0 0.0 0.0 
0.0 0.0 0.0 
0.0 0.0 0.0 
0.0 0.0 0.0 
0.0 0.0 0.0 
0.0 0.0 0.0 
0.0 0.0 0.0 
0.0 0.0 0.0 
0.0 0.0 0.0 
0.0 0.0 0.0 
0.0 0.0 0.0 
0.0 0.0 0.0 
0.0 0.0 0.0 
0.0 0.0 0.0 
0.0 0.0 0.0 
0.0 0.0 0.0 
0.0 0.0 0.0 
0.0 0.0 0.0 
0.0 0.0 0.0 
0.0 0.0 0.0 
0.0 0.0 0.0 
0.0 0.0 0.0 
0.0 0.0 0.0 
0.0 0.0 0.0 
0.0 0.0 0.0 
0.0 0.0 0.0 
0.0 0.0 0.0 
0.0 0.0 0.0 
0.0 0.0 0.0 
0.0 0.0 0.0 
0.0 0.0 0.0 
0.0 0.0 0.0 
0.0 0.0 0.0 
0.0 0.0 0.0 
0.0 0.0 0.0 
0.0 0.0 0.0 
0.0 0.0 0.0 
0.0 0.0 0.0 
0.0 0.0 0.0 
0.0 0.0 0.0 
0.0 0.0 0.0 
0.0 0.0 0.0 
0.0 0.0 0.0 
0.0 0.0 0.0 
0.0 0.0 0.0 
0.0 0.0 0.0 
0.0 0.0 0.0 
0.0 0.0 0.0 
0.0 0.0 0.0 
0.0 0.0 0.0 
0.0 0.0 0.0 
0.0 0.0 0.0 
0.0 0.0 0.0 
0.0 0.0 0.0 
0.0 0.0 0.0 
0.0 0.0 0.0 
0.0 0.0 0.0 
0.0 0.0 0.0 
0.0 0.0 0.0 
0.0 0.0 0.0 
0.0 0.0 0.0 
0.0 0.0 0.0 
0.0 0.0 0.0 
0.0 0.0 0.0 
0.0 0.0 0.0 
0.0 0.0 0.0 
0.0 0.0 0.0 
0.0 0.0 0.0 
0.0 0.0 0.0 
0.0 0.0 0.0 
0.0 0.0 0.0 
0.0 0.0 0.0 
0.0 0.0 0.0 
0.0 0.0 0.0 
0.0 0.0 0.0 
0.0 0.0 0.0 
0.0 0.0 0.0 
0.0 0.0 0.0 
0.0 0.0 0.0 
0.0 0.0 0.0 
0.0 0.0 0.0 
0.0 0.0 0.0 
0.0 0.0 0.0 
0.0 0.0 0.0 
0.0 0.0 0.0 
0.0 0.0 0.0 
0.0 0.0 0.0 
0.0 0.0 0.0 
0.0 0.0 0.0 
0.0 0.0 0.0 
0.0 0.0 0.0 
0.0 0.0 0.0 
0.0 0.0 0.0 
0.0 0.0 0.0 
0.0 0.0 0.0 
0.0 0.0 0.0 
0.0 0.0 0.0 
0.0 0.0 0.0 
0.0 0.0 0.0 
0.0 0.0 0.0 
0.0 0.0 0.0 
0.0 0.0 0.0 
0.0 0.0 0.0 
0.0 0.0 0.0 
0.0 0.0 0.0 
0.0 0.0 0.0 
0.0 0.0 0.0 
0.0 0.0 0.0 
0.0 0.0 0.0 
0.0 0.0 0.0 
0.0 0.0 0.0 
0.0 0.0 0.0 
0.0 0.0 0.0 
0.0 0.0 0.0 
0.0 0.0 0.0 
0.0 0.0 0.0 
0.0 0.0 0.0 
0.0 0.0 0.0 
0.0 0.0 0.0 
0.0 0.0 0.0 
0.0 0.0 0.0 
0.0 0.0 0.0 
0.0 0.0 0.0 
0.0 0.0 0.0 
0.0 0.0 0.0 
0.0 0.0 0.0 
0.0 0.0 0.0 
0.0 0.0 0.0 
0.0 0.0 0.0 
0.0 0.0 0.0 
0.0 0.0 0.0 
0.0 0.0 0.0 
0.0 0.0 0.0 
0.0 0.0 0.0 
0.0 0.0 0.0 
0.0 0.0 0.0 
0.0 0.0 0.0 
0.0 0.0 0.0 
0.0 0.0 0.0 
0.0 0.0 0.0 
0.0 0.0 0.0 
0.0 0.0 0.0 
0.0 0.0 0.0 
0.0 0.0 0.0 
0.0 0.0 0.0 
0.0 0.0 0.0 
0.0 0.0 0.0 
0.0 0.0 0.0 
0.0 0.0 0.0 
0.0 0.0 0.0 
0.0 0.0 0.0 
0.0 0.0 0.0 
0.0 0.0 0.0 
0.0 0.0 0.0 
0.0 0.0 0.0 
0.0 0.0 0.0 
0.0 0.0 0.0 
0.0 0.0 0.0 
0.0 0.0 0.0 
0.0 0.0 0.0 
0.0 0.0 0.0 
0.0 0.0 0.0 
0.0 0.0 0.0 
0.0 0.0 0.0 
0.0 0.0 0.0 
0.0 0.0 0.0 
0.0 0.0 0.0 
0.0 0.0 0.0 
0.0 0.0 0.0 
0.0 0.0 0.0 
0.0 0.0 0.0 
0.0 0.0 0.0 
0.0 0.0 0.0 
0.0 0.0 0.0 
0.0 0.0 0.0 
0.0 0.0 0.0 
0.0 0.0 0.0 
0.0 0.0 0.0 
0.0 0.0 0.0 
0.0 0.0 0.0 
0.0 0.0 0.0 
0.0 0.0 0.0 
0.0 0.0 0.0 
0.0 0.0 0.0 
0.0 0.0 0.0 
0.0 0.0 0.0 
0.0 0.0 0.0 
0.0 0.0 0.0 
0.0 0.0 0.0 
0.0 0.0 0.0 
0.0 0.0 0.0 
0.0 0.0 0.0 
0.0 0.0 0.0 
0.0 0.0 0.0 
0.0 0.0 0.0 
0.0 0.0 0.0 
0.0 0.0 0.0 
0.0 0.0 0.0 
0.0 0.0 0.0 
0.0 0.0 0.0 
0.0 0.0 0.0 
0.0 0.0 0.0 
0.0 0.0 0.0 
0.0 0.0 0.0 
0.0 0.0 0.0 
0.0 0.0 0.0 
0.0 0.0 0.0 
0.0 0.0 0.0 
0.0 0.0 0.0 
0.0 0.0 0.0 
0.0 0.0 0.0 
0.0 0.0 0.0 
0.0 0.0 0.0 
0.0 0.0 0.0 
0.0 0.0 0.0 
0.0 0.0 0.0 
0.0 0.0 0.0 
0.0 0.0 0.0 
0.0 0.0 0.0 
0.0 0.0 0.0 
0.0 0.0 0.0 
0.0 0.0 0.0 
0.0 0.0 0.0 
0.0 0.0 0.0 
0.0 0.0 0.0 
0.0 0.0 0.0 
0.0 0.0 0.0 
0.0 0.0 0.0 
0.0 0.0 0.0 
0.0 0.0 0.0 
0.0 0.0 0.0 
0.0 0.0 0.0 
0.0 0.0 0.0 
0.0 0.0 0.0 
0.0 0.0 0.0 
0.0 0.0 0.0 
0.0 0.0 0.0 
0.0 0.0 0.0 
0.0 0.0 0.0 
0.0 0.0 0.0 
0.0 0.0 0.0 
0.0 0.0 0.0 
0.0 0.0 0.0 
0.0 0.0 0.0 
0.0 0.0 0.0 
0.0 0.0 0.0 
0.0 0.0 0.0 
0.0 0.0 0.0 
0.0 0.0 0.0 
0.0 0.0 0.0 
0.0 0.0 0.0 
0.0 0.0 0.0 
0.0 0.0 0.0 
0.0 0.0 0.0 
0.0 0.0 0.0 
0.0 0.0 0.0 
0.0 0.0 0.0 
0.0 0.0 0.0 
0.0 0.0 0.0 
0.0 0.0 0.0 
0.0 0.0 0.0 
0.0 0.0 0.0 
0.0 0.0 0.0 
0.0 0.0 0.0 
0.0 0.0 0.0 
0.0 0.0 0.0 
0.0 0.0 0.0 
0.0 0.0 0.0 
0.0 0.0 0.0 
0.0 0.0 0.0 
0.0 0.0 0.0 
0.0 0.0 0.0 
0.0 0.0 0.0 
0.0 0.0 0.0 
0.0 0.0 0.0 
0.0 0.0 0.0 
0.0 0.0 0.0 
0.0 0.0 0.0 
0.0 0.0 0.0 
0.0 0.0 0.0 
0.0 0.0 0.0 
0.0 0.0 0.0 
0.0 0.0 0.0 
0.0 0.0 0.0 
0.0 0.0 0.0 
0.0 0.0 0.0 
0.0 0.0 0.0 
0.0 0.0 0.0 
0.0 0.0 0.0 
0.0 0.0 0.0 
0.0 0.0 0.0 
0.0 0.0 0.0 
0.0 0.0 0.0 
0.0 0.0 0.0 
0.0 0.0 0.0 
0.0 0.0 0.0 
0.0 0.0 0.0 
0.0 0.0 0.0 
0.0 0.0 0.0 
0.0 0.0 0.0 
0.0 0.0 0.0 
0.0 0.0 0.0 
0.0 0.0 0.0 
0.0 0.0 0.0 
0.0 0.0 0.0 
0.0 0.0 0.0 
0.0 0.0 0.0 
0.0 0.0 0.0 
0.0 0.0 0.0 
0.0 0.0 0.0 
0.0 0.0 0.0 
0.0 0.0 0.0 
0.0 0.0 0.0 
0.0 0.0 0.0 
0.0 0.0 0.0 
0.0 0.0 0.0 
0.0 0.0 0.0 
0.0 0.0 0.0 
0.0 0.0 0.0 
0.0 0.0 0.0 
0.0 0.0 0.0 
0.0 0.0 0.0 
0.0 0.0 0.0 
0.0 0.0 0.0 
0.0 0.0 0.0 
0.0 0.0 0.0 
0.0 0.0 0.0 
0.0 0.0 0.0 
0.0 0.0 0.0 
0.0 0.0 0.0 
0.0 0.0 0.0 
0.0 0.0 0.0 
0.0 0.0 0.0 
0.0 0.0 0.0 
0.0 0.0 0.0 
0.0 0.0 0.0 
0.0 0.0 0.0 
0.0 0.0 0.0 
0.0 0.0 0.0 
0.0 0.0 0.0 
0.0 0.0 0.0 
0.0 0.0 0.0 
0.0 0.0 0.0 
0.0 0.0 0.0 
0.0 0.0 0.0 
0.0 0.0 0.0 
0.0 0.0 0.0 
0.0 0.0 0.0 
0.0 0.0 0.0 
0.0 0.0 0.0 
0.0 0.0 0.0 
0.0 0.0 0.0 
0.0 0.0 0.0 
0.0 0.0 0.0 
0.0 0.0 0.0 
0.0 0.0 0.0 
0.0 0.0 0.0 
0.0 0.0 0.0 
0.0 0.0 0.0 
0.0 0.0 0.0 
0.0 0.0 0.0 
0.0 0.0 0.0 
0.0 0.0 0.0 
0.0 0.0 0.0 
0.0 0.0 0.0 
0.0 0.0 0.0 
0.0 0.0 0.0 
0.0 0.0 0.0 
0.0 0.0 0.0 
0.0 0.0 0.0 
0.0 0.0 0.0 
0.0 0.0 0.0 
0.0 0.0 0.0 
0.0 0.0 0.0 
0.0 0.0 0.0 
0.0 0.0 0.0 
0.0 0.0 0.0 
0.0 0.0 0.0 
0.0 0.0 0.0 
0.0 0.0 0.0 
0.0 0.0 0.0 
0.0 0.0 0.0 
0.0 0.0 0.0 
0.0 0.0 0.0 
0.0 0.0 0.0 
0.0 0.0 0.0 
0.0 0.0 0.0 
0.0 0.0 0.0 
0.0 0.0 0.0 
0.0 0.0 0.0 
0.0 0.0 0.0 
0.0 0.0 0.0 
0.0 0.0 0.0 
0.0 0.0 0.0 
0.0 0.0 0.0 
0.0 0.0 0.0 
0.0 0.0 0.0 
0.0 0.0 0.0 
0.0 0.0 0.0 
0.0 0.0 0.0 
0.0 0.0 0.0 
0.0 0.0 0.0 
0.0 0.0 0.0 
0.0 0.0 0.0 
0.0 0.0 0.0 
0.0 0.0 0.0 
0.0 0.0 0.0 
0.0 0.0 0.0 
0.0 0.0 0.0 
0.0 0.0 0.0 
0.0 0.0 0.0 
0.0 0.0 0.0 
0.0 0.0 0.0 
0.0 0.0 0.0 
0.0 0.0 0.0 
0.0 0.0 0.0 
0.0 0.0 0.0 
0.0 0.0 0.0 
0.0 0.0 0.0 
0.0 0.0 0.0 
0.0 0.0 0.0 
0.0 0.0 0.0 
0.0 0.0 0.0 
0.0 0.0 0.0 
0.0 0.0 0.0 
0.0 0.0 0.0 
0.0 0.0 0.0 
0.0 0.0 0.0 
0.0 0.0 0.0 
0.0 0.0 0.0 
0.0 0.0 0.0 
0.0 0.0 0.0 
0.0 0.0 0.0 
0.0 0.0 0.0 
0.0 0.0 0.0 
0.0 0.0 0.0 
0.0 0.0 0.0 
0.0 0.0 0.0 
0.0 0.0 0.0 
0.0 0.0 0.0 
0.0 0.0 0.0 
0.0 0.0 0.0 
0.0 0.0 0.0 
0.0 0.0 0.0 
0.0 0.0 0.0 
0.0 0.0 0.0 
0.0 0.0 0.0 
0.0 0.0 0.0 
0.0 0.0 0.0 
0.0 0.0 0.0 
0.0 0.0 0.0 
0.0 0.0 0.0 
0.0 0.0 0.0 
0.0 0.0 0.0 
0.0 0.0 0.0 
0.0 0.0 0.0 
0.0 0.0 0.0 
0.0 0.0 0.0 
0.0 0.0 0.0 

TENSORS element_materi_stress float
-4.605013647990e+01 7.181330321535e+00 0.0 
7.181330321535e+00 -8.750768651483e+01 0.0 
0.0 0.0 -3.966734689842e+01 
-4.816162132725e+01 1.090086057789e+01 0.0 
1.090086057789e+01 -8.441405405636e+01 0.0 
0.0 0.0 -3.937270261508e+01 
-1.462121510569e+02 9.039249564517e+00 0.0 
9.039249564517e+00 -3.377451809300e+02 0.0 
0.0 0.0 -1.447871995961e+02 
-1.400554132376e+02 1.643840066036e+00 0.0 
1.643840066036e+00 -3.241551158197e+02 0.0 
0.0 0.0 -1.388631587172e+02 
-8.611238169720e+01 -2.365883601870e-01 0.0 
-2.365883601870e-01 -1.873685904668e+02 0.0 
0.0 0.0 -8.164429164921e+01 
-3.312220746246e+01 3.070865269649e+01 0.0 
3.070865269649e+01 -1.058438808440e+02 0.0 
0.0 0.0 -4.237258431286e+01 
-8.587063837402e+01 -6.232602822399e-01 0.0 
-6.232602822399e-01 -1.874932807551e+02 0.0 
0.0 0.0 -8.160917573874e+01 
-4.751268808810e+01 1.141216317089e+01 0.0 
1.141216317089e+01 -8.580977281815e+01 0.0 
0.0 0.0 -3.959673827187e+01 
-8.636091768535e+01 1.710716107356e+00 0.0 
1.710716107356e+00 -1.880584010505e+02 0.0 
0.0 0.0 -8.192579562076e+01 
-1.394551204875e+02 5.984277265074e-01 0.0 
5.984277265074e-01 -3.225952512963e+02 0.0 
0.0 0.0 -1.382151115351e+02 
-1.101523892644e+02 -1.294207733744e+00 0.0 
-1.294207733744e+00 -2.554971363645e+02 0.0 
0.0 0.0 -1.092948576887e+02 
-3.935037358290e+01 9.309020718756e+00 0.0 
9.309020718756e+00 -6.688705509000e+01 0.0 
0.0 0.0 -3.147122860187e+01 
-1.583628593005e+02 -1.136117507977e+00 0.0 
-1.136117507977e+00 -3.698971885292e+02 0.0 
0.0 0.0 -1.580780143489e+02 
-9.470491748771e+01 1.144930851887e+00 0.0 
1.144930851887e+00 -2.050384531880e+02 0.0 
0.0 0.0 -8.952301120271e+01 
-1.617469992830e+02 4.987340251214e-01 0.0 
4.987340251214e-01 -3.783109482411e+02 0.0 
0.0 0.0 -1.616173842572e+02 
-1.426846956049e+02 3.963237106542e-01 0.0 
3.963237106542e-01 -3.322311878388e+02 0.0 
0.0 0.0 -1.420747650331e+02 
-8.504893333020e+01 9.673143996233e-01 0.0 
9.673143996233e-01 -1.834454344688e+02 0.0 
0.0 0.0 -8.014831033971e+01 
-2.611357074504e+01 1.673551356257e+01 0.0 
1.673551356257e+01 -1.099883084197e+02 0.0 
0.0 0.0 -4.316992053568e+01 
-3.083822346153e+01 1.241994124388e-01 0.0 
1.241994124388e-01 -7.671492010262e+01 0.0 
0.0 0.0 -3.186594306924e+01 
-3.363745811225e+01 -1.039415158461e+00 0.0 
-1.039415158461e+00 -7.972688831507e+01 0.0 
0.0 0.0 -3.360930392820e+01 
-1.402774762258e+02 2.539267818216e+00 0.0 
2.539267818216e+00 -3.234109256483e+02 0.0 
0.0 0.0 -1.387065205623e+02 
-5.154683883262e+01 5.720490280145e+00 0.0 
5.720490280145e+00 -9.785119205311e+01 0.0 
0.0 0.0 -4.441940926572e+01 
-5.809119133241e+01 7.617023779382e+00 0.0 
7.617023779382e+00 -1.115922734514e+02 0.0 
0.0 0.0 -5.050503943515e+01 
-1.483136002574e+02 4.940524474027e+00 0.0 
4.940524474027e+00 -3.602814904492e+02 0.0 
0.0 0.0 -1.521785272120e+02 
-1.028270165997e+02 2.147436647313e+00 0.0 
2.147436647313e+00 -2.234137417256e+02 0.0 
0.0 0.0 -9.747222749761e+01 
-1.160665664221e+02 -6.813662711764e-02 0.0 
-6.813662711764e-02 -2.695729092069e+02 0.0 
0.0 0.0 -1.152918426887e+02 
-8.015761499447e+01 2.120839028460e+00 0.0 
2.120839028460e+00 -1.679211769176e+02 0.0 
0.0 0.0 -7.402363757363e+01 
-1.523009758822e+02 1.227636968327e+01 0.0 
1.227636968327e+01 -3.580822705950e+02 0.0 
0.0 0.0 -1.527149739432e+02 
-1.039294669787e+02 4.434138326859e+00 0.0 
4.434138326859e+00 -2.241656954927e+02 0.0 
0.0 0.0 -9.802854874143e+01 
-1.522181468010e+02 3.388677174797e+00 0.0 
3.388677174797e+00 -3.680075475105e+02 0.0 
0.0 0.0 -1.556677082935e+02 
-3.511207474725e+01 -2.129899367930e+01 0.0 
-2.129899367930e+01 -9.943221421229e+01 0.0 
0.0 0.0 -3.945020002224e+01 
-8.669560079847e+00 -9.808028435155e-01 0.0 
-9.808028435155e-01 -2.620873100558e+01 0.0 
0.0 0.0 -1.006348732563e+01 
-1.469836344197e+02 8.816676102463e+00 0.0 
8.816676102463e+00 -3.382566208887e+02 0.0 
0.0 0.0 -1.451720765925e+02 
-1.370212126100e+02 6.270215231074e-01 0.0 
6.270215231074e-01 -3.191040979077e+02 0.0 
0.0 0.0 -1.364375931553e+02 
-1.574341177110e+02 1.506863455527e+00 0.0 
1.506863455527e+00 -3.728735710396e+02 0.0 
0.0 0.0 -1.586923066252e+02 
-1.654838900514e+02 -1.739123657845e+00 0.0 
-1.739123657845e+00 -3.886307211934e+02 0.0 
0.0 0.0 -1.658343833735e+02 
-1.654369792104e+02 1.388160140280e+00 0.0 
1.388160140280e+00 -3.883350362777e+02 0.0 
0.0 0.0 -1.657316046464e+02 
-1.540731135747e+02 8.199936207646e+00 0.0 
8.199936207646e+00 -3.693904149579e+02 0.0 
0.0 0.0 -1.566390585598e+02 
-7.785257278704e+01 1.439395006292e+00 0.0 
1.439395006292e+00 -1.686002599444e+02 0.0 
0.0 0.0 -7.353584981943e+01 
-7.775886514695e+01 -1.294932811669e+00 0.0 
-1.294932811669e+00 -1.692025339103e+02 0.0 
0.0 0.0 -7.368841971719e+01 
-6.586938155097e+01 6.082471485621e+00 0.0 
6.082471485621e+00 -1.299667354666e+02 0.0 
0.0 0.0 -5.835083510528e+01 
-1.600436272745e+02 1.786056343119e+00 0.0 
1.786056343119e+00 -3.785565026937e+02 0.0 
0.0 0.0 -1.611800389905e+02 
-3.518322002755e+01 1.166472233471e+01 0.0 
1.166472233471e+01 -5.862530776591e+01 0.0 
0.0 0.0 -2.774255833804e+01 
-8.078003333562e+01 1.822976198432e+00 0.0 
1.822976198432e+00 -1.686305879868e+02 0.0 
0.0 0.0 -7.442318639671e+01 
-1.357643435926e+02 7.343004973079e-01 0.0 
7.343004973079e-01 -3.128706608806e+02 0.0 
0.0 0.0 -1.341905013420e+02 
-3.946213782739e+01 1.733877865361e+01 0.0 
1.733877865361e+01 -5.971285508988e+01 0.0 
0.0 0.0 -2.935249787518e+01 
-3.170297762630e+01 -2.484810662555e+01 0.0 
-2.484810662555e+01 -9.754338398863e+01 0.0 
0.0 0.0 -3.985582421907e+01 
-1.360216459250e+02 2.630200794467e-01 0.0 
2.630200794467e-01 -3.144599774242e+02 0.0 
0.0 0.0 -1.347444870048e+02 
-3.125283375951e+01 -2.350204807410e+01 0.0 
-2.350204807410e+01 -5.678812444994e+01 0.0 
0.0 0.0 -2.786222275582e+01 
-9.173789630957e+01 2.387176825146e+00 0.0 
2.387176825146e+00 -1.964016253496e+02 0.0 
0.0 0.0 -8.604185649774e+01 
-6.206437345146e+01 6.795053979394e+00 0.0 
6.795053979394e+00 -1.210853490568e+02 0.0 
0.0 0.0 -5.454491675248e+01 
-4.094057553692e+01 -1.487658338340e-01 0.0 
-1.487658338340e-01 -9.652282836837e+01 0.0 
0.0 0.0 -4.083902117159e+01 
-3.763293082220e+01 -1.647796603955e+01 0.0 
-1.647796603955e+01 -1.302840265295e+02 0.0 
0.0 0.0 -5.052368385108e+01 
-5.979324317372e+01 4.123795792881e+00 0.0 
4.123795792881e+00 -1.175320049307e+02 0.0 
0.0 0.0 -5.279757443133e+01 
-1.449062841939e+02 6.914354157806e+00 0.0 
6.914354157806e+00 -3.347926950899e+02 0.0 
0.0 0.0 -1.435096937851e+02 
-5.574273619903e+01 -6.100395314703e-01 0.0 
-6.100395314703e-01 -1.281716201426e+02 0.0 
0.0 0.0 -5.477430690249e+01 
-4.325283822184e+01 -1.257769647610e+00 0.0 
-1.257769647610e+00 -9.996586630717e+01 0.0 
0.0 0.0 -4.256561135870e+01 
-1.368717197495e+02 -1.042680142199e+00 0.0 
-1.042680142199e+00 -3.191057201700e+02 0.0 
0.0 0.0 -1.363932319759e+02 
-2.299734133302e+01 -1.051474810376e+00 0.0 
-1.051474810376e+00 -5.896744482043e+01 0.0 
0.0 0.0 -2.418943584604e+01 
-1.430583144570e+02 2.144532373335e+00 0.0 
2.144532373335e+00 -3.324268509496e+02 0.0 
0.0 0.0 -1.422455496220e+02 
-5.094835108634e+01 -2.226541797596e+01 0.0 
-2.226541797596e+01 -9.817099443578e+01 0.0 
0.0 0.0 -4.576570393982e+01 
-1.447368595832e+02 1.006511193043e+01 0.0 
1.006511193043e+01 -3.458110271284e+02 0.0 
0.0 0.0 -1.467643660135e+02 
-6.337966614327e+01 1.244749695475e+01 0.0 
1.244749695475e+01 -1.334533992442e+02 0.0 
0.0 0.0 -5.864991961623e+01 
-3.187780350837e+01 -1.658869953602e+01 0.0 
-1.658869953602e+01 -1.135388176873e+02 0.0 
0.0 0.0 -4.335911087251e+01 
-1.581819602638e+02 4.138758284414e-01 0.0 
4.138758284414e-01 -3.700412132791e+02 0.0 
0.0 0.0 -1.580669520629e+02 
-5.536819365807e+01 4.829839351772e+00 0.0 
4.829839351772e+00 -1.071171580691e+02 0.0 
0.0 0.0 -4.834560551815e+01 
-4.338331331831e+01 -8.724896802110e+00 0.0 
-8.724896802110e+00 -1.208302395823e+02 0.0 
0.0 0.0 -5.049895275284e+01 
-1.480503698700e+02 9.937299503002e+00 0.0 
9.937299503002e+00 -3.395181408078e+02 0.0 
0.0 0.0 -1.458705532034e+02 
-3.634846587459e+01 -9.076601650207e+00 0.0 
-9.076601650207e+00 -7.115383060935e+01 0.0 
0.0 0.0 -3.087910555359e+01 
-1.495516886965e+02 1.104672801688e+01 0.0 
1.104672801688e+01 -3.476959438677e+02 0.0 
0.0 0.0 -1.487742897693e+02 
-1.205316423380e+02 -2.078684310888e-01 0.0 
-2.078684310888e-01 -2.806680658482e+02 0.0 
0.0 0.0 -1.199599124559e+02 
-1.484657654037e+02 4.600327942679e+00 0.0 
4.600327942679e+00 -3.477534526086e+02 0.0 
0.0 0.0 -1.484657654037e+02 
-1.461968308390e+02 1.128129073684e+01 0.0 
1.128129073684e+01 -3.432318043262e+02 0.0 
0.0 0.0 -1.464285905496e+02 
-7.860468788675e+00 -1.139601374609e+00 0.0 
-1.139601374609e+00 -2.989838755177e+01 0.0 
0.0 0.0 -1.092765690213e+01 
-5.841978532935e+01 -1.932959458748e+00 0.0 
-1.932959458748e+00 -1.336267922930e+02 0.0 
0.0 0.0 -5.721397328670e+01 
-1.420426281876e+02 4.148585461044e+00 0.0 
4.148585461044e+00 -3.271511613567e+02 0.0 
0.0 0.0 -1.403581368633e+02 
-1.463986275240e+02 7.483984834918e+00 0.0 
7.483984834918e+00 -3.361106193801e+02 0.0 
0.0 0.0 -1.443527740712e+02 
-3.633446975964e+01 2.383704666812e+01 0.0 
2.383704666812e+01 -4.890248236418e+01 0.0 
0.0 0.0 -2.353829047446e+01 
-2.483138329164e+01 -9.120613561874e-01 0.0 
-9.120613561874e-01 -5.910522387151e+01 0.0 
0.0 0.0 -2.478098214895e+01 
-3.257085851561e+01 1.785027459743e+01 0.0 
1.785027459743e+01 -4.786196910525e+01 0.0 
0.0 0.0 -2.217113283135e+01 
-3.946512930901e+01 -1.321718754272e+01 0.0 
-1.321718754272e+01 -7.101776702471e+01 0.0 
0.0 0.0 -3.124560636243e+01 
-8.502093531319e+01 7.263474975838e-01 0.0 
7.263474975838e-01 -1.830126739476e+02 0.0 
0.0 0.0 -8.001008277824e+01 
-5.451518855193e+01 8.677430820455e+00 0.0 
8.677430820455e+00 -1.030377992271e+02 0.0 
0.0 0.0 -4.686589633370e+01 
-4.677505692393e+01 6.587608400606e+00 0.0 
6.587608400606e+00 -8.645510445140e+01 0.0 
0.0 0.0 -3.956904841260e+01 
-9.085661557192e+01 1.818627158563e+00 0.0 
1.818627158563e+00 -1.984060795292e+02 0.0 
0.0 0.0 -8.637880853034e+01 
-9.029180533756e+01 -1.781446789140e-01 0.0 
-1.781446789140e-01 -1.981350194661e+02 0.0 
0.0 0.0 -8.612804744109e+01 
-1.241049729288e+02 2.562351882517e-01 0.0 
2.562351882517e-01 -2.888743463468e+02 0.0 
0.0 0.0 -1.234937957827e+02 
-1.334096657961e+02 -8.895520805707e-01 0.0 
-8.895520805707e-01 -3.105322901685e+02 0.0 
0.0 0.0 -1.327825867894e+02 
-1.277442958527e+02 9.156139022030e+00 0.0 
9.156139022030e+00 -2.847946227506e+02 0.0 
0.0 0.0 -1.233616755810e+02 
-8.646943979691e+01 1.984870581559e+00 0.0 
1.984870581559e+00 -1.868081161321e+02 0.0 
0.0 0.0 -8.158326677870e+01 
-1.538968802421e+01 -1.621576750561e+00 0.0 
-1.621576750561e+00 -2.614473775871e+01 0.0 
0.0 0.0 -1.241399207788e+01 
-8.800885266786e+01 2.358260076655e+00 0.0 
2.358260076655e+00 -1.861078106822e+02 0.0 
0.0 0.0 -8.183499900502e+01 
-1.171307547116e+02 8.593120658517e-01 0.0 
8.593120658517e-01 -2.661728782921e+02 0.0 
0.0 0.0 -1.145910899011e+02 
-1.162263892047e+02 1.034353313400e-01 0.0 
1.034353313400e-01 -2.626962412169e+02 0.0 
0.0 0.0 -1.132767891265e+02 
-1.503918842428e+02 5.115307657039e+00 0.0 
5.115307657039e+00 -3.489588358207e+02 0.0 
0.0 0.0 -1.494052160190e+02 
-1.589961776393e+02 1.032886393914e+01 0.0 
1.032886393914e+01 -3.769104825161e+02 0.0 
0.0 0.0 -1.603719980466e+02 
-8.547822261252e+01 1.502739401311e+00 0.0 
1.502739401311e+00 -1.827861298278e+02 0.0 
0.0 0.0 -8.007930573210e+01 
-1.581249685455e+02 1.425877712279e+00 0.0 
1.425877712279e+00 -3.776986522342e+02 0.0 
0.0 0.0 -1.603470862339e+02 
-9.774728951383e+01 7.441660844060e-01 0.0 
7.441660844060e-01 -2.175219538828e+02 0.0 
0.0 0.0 -9.418077301898e+01 
-6.110198592687e+01 1.394586969096e+01 0.0 
1.394586969096e+01 -1.220925160624e+02 0.0 
0.0 0.0 -5.455835059677e+01 
-8.259052662360e+01 1.273365364243e+00 0.0 
1.273365364243e+00 -1.781391310598e+02 0.0 
0.0 0.0 -7.781889730501e+01 
-1.614785199805e+02 -1.059615415871e+00 0.0 
-1.059615415871e+00 -3.780568543647e+02 0.0 
0.0 0.0 -1.614606123036e+02 
-1.220525901123e+02 1.133823232595e+01 0.0 
1.133823232595e+01 -3.006113603399e+02 0.0 
0.0 0.0 -1.263991851357e+02 
-1.451801625769e+02 1.176924717221e+01 0.0 
1.176924717221e+01 -3.463869632666e+02 0.0 
0.0 0.0 -1.470701377530e+02 
-5.380089406195e+01 2.041499121551e+01 0.0 
2.041499121551e+01 -1.204849562598e+02 0.0 
0.0 0.0 -5.188575509654e+01 
-4.384116371717e+01 -2.785934405202e+01 0.0 
-2.785934405202e+01 -7.781403431058e+01 0.0 
0.0 0.0 -3.555042096074e+01 
-1.496836756731e+02 5.940019600899e-01 0.0 
5.940019600899e-01 -3.492740436704e+02 0.0 
0.0 0.0 -1.492873158030e+02 
-1.236704781162e+02 3.559608516068e-01 0.0 
3.559608516068e-01 -2.817182758672e+02 0.0 
0.0 0.0 -1.212166261950e+02 
-4.785634186699e+01 -3.309295770780e+01 0.0 
-3.309295770780e+01 -7.563930846834e+01 0.0 
0.0 0.0 -3.744712195483e+01 
-1.610206321560e+02 8.657635478404e-02 0.0 
8.657635478404e-02 -3.767432427527e+02 0.0 
0.0 0.0 -1.609291624726e+02 
-1.223182829437e+02 7.273977326240e+00 0.0 
7.273977326240e+00 -2.734464087638e+02 0.0 
0.0 0.0 -1.183294075123e+02 
-5.323733352506e+00 7.706402100799e-01 0.0 
7.706402100799e-01 -2.180536785274e+01 0.0 
0.0 0.0 -7.108445381131e+00 
-7.160235411356e+01 1.547687364501e+01 0.0 
1.547687364501e+01 -1.755064573269e+02 0.0 
0.0 0.0 -7.373264343213e+01 
-8.133600825703e+01 4.187344973845e+00 0.0 
4.187344973845e+00 -1.677095483409e+02 0.0 
0.0 0.0 -7.431366697937e+01 
-7.097455402978e+01 -1.758638276605e+00 0.0 
-1.758638276605e+00 -1.630609200777e+02 0.0 
0.0 0.0 -6.981064223225e+01 
-5.568593350835e+01 1.218039523281e+01 0.0 
1.218039523281e+01 -1.109781908095e+02 0.0 
0.0 0.0 -4.959923729536e+01 
-6.332927289444e+01 1.617413159239e+01 0.0 
1.617413159239e+01 -1.338310123461e+02 0.0 
0.0 0.0 -5.874808557216e+01 
-1.604689427352e+02 5.098574094846e-02 0.0 
5.098574094846e-02 -3.789222772719e+02 0.0 
0.0 0.0 -1.614173660021e+02 
-9.520805790671e+01 -5.762469810923e-01 0.0 
-5.762469810923e-01 -2.109452073762e+02 0.0 
0.0 0.0 -9.144597958487e+01 
-5.941498321638e+01 1.454222704246e+01 0.0 
1.454222704246e+01 -1.263847602035e+02 0.0 
0.0 0.0 -5.533992302598e+01 
-2.961091126751e+01 -4.155700326879e+00 0.0 
-4.155700326879e+00 -6.310943174235e+01 0.0 
0.0 0.0 -2.741610290296e+01 
-8.793591878974e+01 2.203486165439e+00 0.0 
2.203486165439e+00 -1.856234390596e+02 0.0 
0.0 0.0 -8.166780735482e+01 
-1.242268785716e+02 8.807587696344e-01 0.0 
8.807587696344e-01 -2.833050167166e+02 0.0 
0.0 0.0 -1.218595685865e+02 
-5.860792386560e+01 1.831974109043e+01 0.0 
1.831974109043e+01 -1.262985638960e+02 0.0 
0.0 0.0 -5.507194632847e+01 
-3.631215863917e+01 2.890961690026e+01 0.0 
2.890961690026e+01 -5.197845644313e+01 0.0 
0.0 0.0 -2.533115956412e+01 
-7.363317223080e+01 4.963814372270e+00 0.0 
4.963814372270e+00 -1.489115236723e+02 0.0 
0.0 0.0 -6.636340877093e+01 
-7.034792981146e+01 -2.277445039894e+00 0.0 
-2.277445039894e+00 -1.617158951280e+02 0.0 
0.0 0.0 -6.921914748184e+01 
-6.801843841512e+01 3.031164593429e+00 0.0 
3.031164593429e+00 -1.375159890471e+02 0.0 
0.0 0.0 -6.126032823865e+01 
-1.443457808042e+02 3.193428727629e+00 0.0 
3.193428727629e+00 -3.352001425260e+02 0.0 
0.0 0.0 -1.434637769991e+02 
-3.603431706291e+01 3.157254327060e+01 0.0 
3.157254327060e+01 -7.801795391513e+01 0.0 
0.0 0.0 -3.368409324975e+01 
-1.151877697034e+02 -1.649317704229e+00 0.0 
-1.649317704229e+00 -2.681097020842e+02 0.0 
0.0 0.0 -1.145892415363e+02 
-1.397418122119e+02 -7.424219572554e-02 0.0 
-7.424219572554e-02 -3.240938074454e+02 0.0 
0.0 0.0 -1.387506858972e+02 
-7.617740812266e+01 8.309548129084e+00 0.0 
8.309548129084e+00 -1.590999764476e+02 0.0 
0.0 0.0 -7.018321537107e+01 
-6.986798711458e+01 5.458880545822e+00 0.0 
5.458880545822e+00 -1.397361310959e+02 0.0 
0.0 0.0 -6.248123546316e+01 
-1.567305567425e+02 -1.898247768376e-01 0.0 
-1.898247768376e-01 -3.726208154599e+02 0.0 
0.0 0.0 -1.584054116607e+02 
-1.586644726913e+02 8.837658395899e-01 0.0 
8.837658395899e-01 -3.705770235799e+02 0.0 
0.0 0.0 -1.583724488814e+02 
-1.237925006635e+02 -1.470481980093e+00 0.0 
-1.470481980093e+00 -2.888072812591e+02 0.0 
0.0 0.0 -1.233799345768e+02 
-8.097676101458e+01 1.001054482454e+01 0.0 
1.001054482454e+01 -1.688779459465e+02 0.0 
0.0 0.0 -7.455641208831e+01 
-1.578883197374e+02 3.404172084232e+00 0.0 
3.404172084232e+00 -3.792858569523e+02 0.0 
0.0 0.0 -1.607522530069e+02 
-7.234194795591e+01 6.658189946726e+00 0.0 
6.658189946726e+00 -1.482112069248e+02 0.0 
0.0 0.0 -6.576594646420e+01 
-1.424666314974e+02 2.656012599865e+00 0.0 
2.656012599865e+00 -3.301023389319e+02 0.0 
0.0 0.0 -1.413706911288e+02 
-1.500278068250e+02 1.114307692029e+01 0.0 
1.114307692029e+01 -3.476218338456e+02 0.0 
0.0 0.0 -1.488948922012e+02 
-9.514163186307e+01 3.214656009929e+00 0.0 
3.214656009929e+00 -2.046315401301e+02 0.0 
0.0 0.0 -8.953195159795e+01 
-1.079617902974e+02 -2.604239946201e-02 0.0 
-2.604239946201e-02 -2.419037848765e+02 0.0 
0.0 0.0 -1.045596725522e+02 
-7.326383423800e+01 9.621966577195e+00 0.0 
9.621966577195e+00 -1.487839373993e+02 0.0 
0.0 0.0 -6.621433149118e+01 
-6.392144533388e+01 3.384400340759e+00 0.0 
3.384400340759e+00 -1.279916330071e+02 0.0 
0.0 0.0 -5.717392350231e+01 
-8.386363569091e+01 8.684571945847e+00 0.0 
8.684571945847e+00 -1.791504496818e+02 0.0 
0.0 0.0 -7.850422561181e+01 
-6.045659690943e+01 1.918458262827e+01 0.0 
1.918458262827e+01 -1.416775060614e+02 0.0 
0.0 0.0 -6.024023089125e+01 
-8.312096955437e+01 1.158456564060e+00 0.0 
1.158456564060e+00 -1.808052894499e+02 0.0 
0.0 0.0 -7.877787770129e+01 
-6.884089776506e+01 1.755861012092e+01 0.0 
1.755861012092e+01 -1.746966303217e+02 0.0 
0.0 0.0 -7.266125842603e+01 
-1.133004729147e+01 -9.605658374782e-02 0.0 
-9.605658374782e-02 -2.523307691163e+01 0.0 
0.0 0.0 -1.094437913437e+01 
-8.859864919420e+01 1.793800764361e-01 0.0 
1.793800764361e-01 -1.956187919924e+02 0.0 
0.0 0.0 -8.486523235597e+01 
-2.362407039032e+01 -3.897511238728e-01 0.0 
-3.897511238728e-01 -5.991247345500e+01 0.0 
0.0 0.0 -2.466096315360e+01 
-7.748928600239e+01 4.570714489991e+00 0.0 
4.570714489991e+00 -1.584563212528e+02 0.0 
0.0 0.0 -7.038368217655e+01 
-1.602181460407e+02 3.255823965373e+00 0.0 
3.255823965373e+00 -3.798847716783e+02 0.0 
0.0 0.0 -1.616308753157e+02 
-5.533726084942e+01 1.690667384306e+01 0.0 
1.690667384306e+01 -1.207711315969e+02 0.0 
0.0 0.0 -5.243251773391e+01 
-1.284380436920e+02 -1.229523172640e+00 0.0 
-1.229523172640e+00 -2.991046005633e+02 0.0 
0.0 0.0 -1.278627932766e+02 
-4.196147427655e+01 1.463951507462e+01 0.0 
1.463951507462e+01 -6.747497075374e+01 0.0 
0.0 0.0 -3.243093350909e+01 
-1.225745309147e+02 9.769973578784e+00 0.0 
9.769973578784e+00 -3.006314484441e+02 0.0 
0.0 0.0 -1.265617938076e+02 
-8.293673019182e+01 1.399635560810e-01 0.0 
1.399635560810e-01 -1.822216294975e+02 0.0 
0.0 0.0 -7.914750790679e+01 
-6.645331599558e+01 1.657671875433e+01 0.0 
1.657671875433e+01 -1.705214117286e+02 0.0 
0.0 0.0 -7.069241831726e+01 
-1.410758193697e+02 5.880883059632e-01 0.0 
5.880883059632e-01 -3.290515745379e+02 0.0 
0.0 0.0 -1.406382181723e+02 
-3.542760724542e+01 -7.786165437268e+00 0.0 
-7.786165437268e+00 -6.391525953478e+01 0.0 
0.0 0.0 -2.883903020396e+01 
-1.494841282808e+02 -1.185754535140e+00 0.0 
-1.185754535140e+00 -3.489199790951e+02 0.0 
0.0 0.0 -1.491212322128e+02 
-8.801840339854e+01 4.125276919565e+00 0.0 
4.125276919565e+00 -1.854951787065e+02 0.0 
0.0 0.0 -8.165407463151e+01 
-1.600028621921e+02 -4.423673581677e-01 0.0 
-4.423673581677e-01 -3.755525530331e+02 0.0 
0.0 0.0 -1.602666245675e+02 
-8.237693104110e+01 -3.114193109618e-02 0.0 
-3.114193109618e-02 -1.811085566409e+02 0.0 
0.0 0.0 -7.864564630461e+01 
-5.756163155568e+01 1.817499912335e+01 0.0 
1.817499912335e+01 -1.359777145908e+02 0.0 
0.0 0.0 -5.766180384394e+01 
-7.611157487546e+01 2.447789548026e+00 0.0 
2.447789548026e+00 -1.567168169804e+02 0.0 
0.0 0.0 -6.944851755674e+01 
-1.105601756966e+02 7.194263316516e-02 0.0 
7.194263316516e-02 -2.569463947805e+02 0.0 
0.0 0.0 -1.098519711431e+02 
-3.892271814839e+01 9.613363696388e+00 0.0 
9.613363696388e+00 -6.824529420240e+01 0.0 
0.0 0.0 -3.175040370524e+01 
-6.302170257724e+01 1.797406365059e+01 0.0 
1.797406365059e+01 -1.693347454877e+02 0.0 
0.0 0.0 -6.930693441949e+01 
-1.122525730428e+02 1.660665703832e+00 0.0 
1.660665703832e+00 -2.525959641689e+02 0.0 
0.0 0.0 -1.090545611635e+02 
-8.246719933840e+01 -4.386132653451e-01 0.0 
-4.386132653451e-01 -1.809874021295e+02 0.0 
0.0 0.0 -7.863638044036e+01 
-6.435831960946e+01 1.688979640831e+01 0.0 
1.688979640831e+01 -1.556458992902e+02 0.0 
0.0 0.0 -6.560126566990e+01 
-7.186375552822e+01 2.726159799949e+00 0.0 
2.726159799949e+00 -1.469318082207e+02 0.0 
0.0 0.0 -6.523866912468e+01 
-1.336765699769e+02 9.265912334443e+00 0.0 
9.265912334443e+00 -3.060377451762e+02 0.0 
0.0 0.0 -1.315142945459e+02 
-7.866973521789e+01 -1.936202995023e+00 0.0 
-1.936202995023e+00 -1.810064425223e+02 0.0 
0.0 0.0 -7.750285332205e+01 
-1.533706784148e+02 1.138408807689e+01 0.0 
1.138408807689e+01 -3.601078107888e+02 0.0 
0.0 0.0 -1.536435467611e+02 
-1.507625719665e+02 1.198350173808e+01 0.0 
1.198350173808e+01 -3.495388579869e+02 0.0 
0.0 0.0 -1.496904289860e+02 
-5.396390836919e+01 1.342656837597e+01 0.0 
1.342656837597e+01 -1.015897696202e+02 0.0 
0.0 0.0 -4.626610339682e+01 
-7.914006571911e+01 -2.095802553431e+00 0.0 
-2.095802553431e+00 -1.813705521382e+02 0.0 
0.0 0.0 -7.775318535719e+01 
-1.387953311218e+02 6.317476753065e+00 0.0 
6.317476753065e+00 -3.430223978320e+02 0.0 
0.0 0.0 -1.441453186861e+02 
-6.957082371840e+01 7.831396311729e+00 0.0 
7.831396311729e+00 -1.388231381753e+02 0.0 
0.0 0.0 -6.211818856811e+01 
-4.720256346955e+01 1.091611486055e+01 0.0 
1.091611486055e+01 -8.850530201401e+01 0.0 
0.0 0.0 -4.031235964507e+01 
-8.404152440974e+01 3.110587027711e+00 0.0 
3.110587027711e+00 -1.760646281021e+02 0.0 
0.0 0.0 -7.763184575354e+01 
-6.739119158300e+01 1.791902015800e+01 0.0 
1.791902015800e+01 -1.617506636890e+02 0.0 
0.0 0.0 -6.834255658159e+01 
-1.413690816024e+02 1.386741709324e+00 0.0 
1.386741709324e+00 -3.288979507942e+02 0.0 
0.0 0.0 -1.406801097190e+02 
-1.225511717775e+02 6.159329523834e+00 0.0 
6.159329523834e+00 -2.730668525455e+02 0.0 
0.0 0.0 -1.182854072969e+02 
-1.453892527102e+02 -1.141307093275e+00 0.0 
-1.141307093275e+00 -3.391115665839e+02 0.0 
0.0 0.0 -1.449502457882e+02 
-3.824517356699e+01 2.056492336237e+01 0.0 
2.056492336237e+01 -5.353117671640e+01 0.0 
0.0 0.0 -2.641891301931e+01 
-5.722261319313e+01 1.773121088664e+01 0.0 
1.773121088664e+01 -1.651610362527e+02 0.0 
0.0 0.0 -6.631509483376e+01 
-1.263579791727e+02 6.997010690843e+00 0.0 
6.997010690843e+00 -2.834229039838e+02 0.0 
0.0 0.0 -1.225342649470e+02 
-7.313501111457e+01 2.492301308847e+01 0.0 
2.492301308847e+01 -7.940769934612e+01 0.0 
0.0 0.0 -4.603077149072e+01 
-6.835893127381e+01 5.139485403786e+00 0.0 
5.139485403786e+00 -1.382304788298e+02 0.0 
0.0 0.0 -6.157682303109e+01 
-1.294518396032e+02 3.993416115617e+00 0.0 
3.993416115617e+00 -3.245900769612e+02 0.0 
0.0 0.0 -1.358125749693e+02 
-1.450982477406e+01 -3.382988310722e-01 0.0 
-3.382988310722e-01 -4.217677683057e+01 0.0 
0.0 0.0 -1.660598048139e+01 
-1.445574793055e+02 6.887312910644e+00 0.0 
6.887312910644e+00 -3.320396336026e+02 0.0 
0.0 0.0 -1.425791338724e+02 
-1.111704768623e+02 3.741066414582e+00 0.0 
3.741066414582e+00 -2.436082643000e+02 0.0 
0.0 0.0 -1.060336223487e+02 
-7.052818112515e+01 -8.797249370445e+00 0.0 
-8.797249370445e+00 -1.805979679093e+02 0.0 
0.0 0.0 -7.493784471034e+01 
-1.283294360411e+02 2.720856923544e+00 0.0 
2.720856923544e+00 -3.239864352578e+02 0.0 
0.0 0.0 -1.352947613897e+02 
-9.464854620887e+01 3.149573379791e+00 0.0 
3.149573379791e+00 -2.014421974914e+02 0.0 
0.0 0.0 -8.842722311009e+01 
-1.008023964317e+02 3.456237895237e+00 0.0 
3.456237895237e+00 -2.164962148290e+02 0.0 
0.0 0.0 -9.478958337820e+01 
-1.530489853917e+02 4.258359291866e+00 0.0 
4.258359291866e+00 -3.680249401416e+02 0.0 
0.0 0.0 -1.559221776600e+02 
-5.707367277465e+01 -8.923903952944e+00 0.0 
-8.923903952944e+00 -1.333053465480e+02 0.0 
0.0 0.0 -5.671370579678e+01 
-8.735678909179e+01 9.942799181374e+00 0.0 
9.942799181374e+00 -1.908153491471e+02 0.0 
0.0 0.0 -8.305164147165e+01 
-9.200470521181e+01 5.216655676413e+00 0.0 
5.216655676413e+00 -1.954030698243e+02 0.0 
0.0 0.0 -8.582233251084e+01 
-1.162989214760e+02 5.550690044151e+00 0.0 
5.550690044151e+00 -2.547355667547e+02 0.0 
0.0 0.0 -1.109103464692e+02 
-9.306584897009e+01 5.949220442993e+00 0.0 
5.949220442993e+00 -1.959067220828e+02 0.0 
0.0 0.0 -8.629177131586e+01 
-8.516974926956e+01 5.245609154884e+00 0.0 
5.245609154884e+00 -1.765308266306e+02 0.0 
0.0 0.0 -7.811017277005e+01 
-1.076114698328e+02 1.106025564956e+01 0.0 
1.106025564956e+01 -2.739171263568e+02 0.0 
0.0 0.0 -1.140585788569e+02 
-1.304198524532e+02 1.071484822570e+01 0.0 
1.071484822570e+01 -2.952239828154e+02 0.0 
0.0 0.0 -1.272931505806e+02 
-5.034440633835e+01 2.341090691133e+01 0.0 
2.341090691133e+01 -9.497008041237e+01 0.0 
0.0 0.0 -4.471815313038e+01 
-5.311176192981e+01 1.020286640093e+01 0.0 
1.020286640093e+01 -1.017918422961e+02 0.0 
0.0 0.0 -4.607108126776e+01 
-5.986233133625e+01 1.044896737153e+01 0.0 
1.044896737153e+01 -1.207516032471e+02 0.0 
0.0 0.0 -5.378418037500e+01 
-8.419076081207e+01 1.141823352513e+01 0.0 
1.141823352513e+01 -1.798216042044e+02 0.0 
0.0 0.0 -7.880370950493e+01 
-1.278656820963e+02 8.032224121054e+00 0.0 
8.032224121054e+00 -2.844304795334e+02 0.0 
0.0 0.0 -1.232888484889e+02 
-3.112205194568e+01 2.362517022562e+01 0.0 
2.362517022562e+01 -1.231385456997e+02 0.0 
0.0 0.0 -4.688684703582e+01 
-1.248110466228e+02 2.682125958014e+00 0.0 
2.682125958014e+00 -3.144958610247e+02 0.0 
0.0 0.0 -1.313920722942e+02 
-8.238979855811e+01 1.152777208482e+00 0.0 
1.152777208482e+00 -1.797320637714e+02 0.0 
0.0 0.0 -7.823655869885e+01 
-6.125332811117e+01 1.719750321590e+01 0.0 
1.719750321590e+01 -1.667645492219e+02 0.0 
0.0 0.0 -6.800536319992e+01 
-1.204266089066e+02 1.363978932424e+00 0.0 
1.363978932424e+00 -3.041380286981e+02 0.0 
0.0 0.0 -1.269693912814e+02 
-9.404513914452e+00 6.711498123052e-01 0.0 
6.711498123052e-01 -2.848042851433e+01 0.0 
0.0 0.0 -1.096548272864e+01 
-1.188362579037e+02 4.343363635602e+00 0.0 
4.343363635602e+00 -2.633943393819e+02 0.0 
0.0 0.0 -1.142691791857e+02 
-6.710358671366e+00 -7.349346783551e-01 0.0 
-7.349346783551e-01 -2.377711270964e+01 0.0 
0.0 0.0 -8.507482866347e+00 
-1.686742858562e+01 -5.583048817262e-01 0.0 
-5.583048817262e-01 -4.300937004936e+01 0.0 
0.0 0.0 -1.756303959049e+01 
-3.315475660937e+01 1.426685470050e+01 0.0 
1.426685470050e+01 -5.204982321014e+01 0.0 
0.0 0.0 -2.460145220651e+01 
-4.999296215477e+01 -8.711923823125e+00 0.0 
-8.711923823125e+00 -1.126251172443e+02 0.0 
0.0 0.0 -4.838542381973e+01 
-1.238701846683e+02 6.101980541752e+00 0.0 
6.101980541752e+00 -2.744662167071e+02 0.0 
0.0 0.0 -1.191009204126e+02 
-4.805439925653e+01 -7.684976346166e+00 0.0 
-7.684976346166e+00 -1.074991187462e+02 0.0 
0.0 0.0 -4.626605540082e+01 
-4.220387136874e+01 2.338109296343e+01 0.0 
2.338109296343e+01 -9.271859098569e+01 0.0 
0.0 0.0 -3.938990951404e+01 
-4.499582193296e+01 -2.012966227068e+01 0.0 
-2.012966227068e+01 -1.110094027179e+02 0.0 
0.0 0.0 -4.507460099449e+01 
-3.603871368604e+01 -6.881208868848e+00 0.0 
-6.881208868848e+00 -7.138889998416e+01 0.0 
0.0 0.0 -3.174469784988e+01 
-1.331546420006e+02 4.013622961258e+00 0.0 
4.013622961258e+00 -3.332301764973e+02 0.0 
0.0 0.0 -1.395154455494e+02 
-8.912448408257e+01 6.444550605847e+00 0.0 
6.444550605847e+00 -1.860975560970e+02 0.0 
0.0 0.0 -8.216661205386e+01 
-1.580664684542e+02 -1.358202885245e+00 0.0 
-1.358202885245e+00 -3.701313582811e+02 0.0 
0.0 0.0 -1.580593480206e+02 
-5.504080472267e+01 9.922619709199e+00 0.0 
9.922619709199e+00 -1.096468082751e+02 0.0 
0.0 0.0 -4.994798342418e+01 
-4.688854477448e+01 2.183816029884e+01 0.0 
2.183816029884e+01 -1.131844205890e+02 0.0 
0.0 0.0 -4.762188960905e+01 
-6.864470742147e+01 1.529948629229e+01 0.0 
1.529948629229e+01 -1.847727168447e+02 0.0 
0.0 0.0 -7.562522727984e+01 
-6.397540214300e+01 5.801533404000e+00 0.0 
5.801533404000e+00 -1.279120331339e+02 0.0 
0.0 0.0 -5.716623058308e+01 
-1.234488389733e+02 1.510925827776e+00 0.0 
1.510925827776e+00 -3.137985276808e+02 0.0 
0.0 0.0 -1.307742099962e+02 
-1.607206088716e+02 -1.126176296867e+00 0.0 
-1.126176296867e+00 -3.775847615989e+02 0.0 
0.0 0.0 -1.610916111412e+02 
-1.202369576838e+02 7.437671465128e+00 0.0 
7.437671465128e+00 -2.642961093371e+02 0.0 
0.0 0.0 -1.149599201063e+02 
-4.398215515111e+01 1.869368953334e+01 0.0 
1.869368953334e+01 -1.449430444749e+02 0.0 
0.0 0.0 -5.627755988780e+01 
-1.339128315112e+02 5.086113568666e+00 0.0 
5.086113568666e+00 -3.335656491125e+02 0.0 
0.0 0.0 -1.398435441871e+02 
-1.194458996890e+02 -1.568638622281e+00 0.0 
-1.568638622281e+00 -2.779113475663e+02 0.0 
0.0 0.0 -1.188071741766e+02 
-8.849912324076e+01 1.033168476371e+01 0.0 
1.033168476371e+01 -1.886646948951e+02 0.0 
0.0 0.0 -8.274914544077e+01 
-1.149417342077e+02 4.465727946340e+00 0.0 
4.465727946340e+00 -2.530277072789e+02 0.0 
0.0 0.0 -1.099908324460e+02 
-1.489096548374e+02 1.188782902124e+01 0.0 
1.188782902124e+01 -3.518560312130e+02 0.0 
0.0 0.0 -1.498297058151e+02 
-6.527893098586e+01 1.603067781900e+01 0.0 
1.603067781900e+01 -1.834989865158e+02 0.0 
0.0 0.0 -7.423337525050e+01 
-4.258503433328e+01 2.394699141764e+01 0.0 
2.394699141764e+01 -9.405474379626e+01 0.0 
0.0 0.0 -4.059193343886e+01 
-1.008509622740e+02 6.578316328170e+00 0.0 
6.578316328170e+00 -2.151753287786e+02 0.0 
0.0 0.0 -9.440788731578e+01 
-1.500214509006e+02 4.096346734680e+00 0.0 
4.096346734680e+00 -3.488520273103e+02 0.0 
0.0 0.0 -1.492620434633e+02 
-8.715175231862e+01 1.257751916341e+01 0.0 
1.257751916341e+01 -1.912032774956e+02 0.0 
0.0 0.0 -8.310650894427e+01 
-8.486263445723e+01 1.149579420175e+01 0.0 
1.149579420175e+01 -2.311177383414e+02 0.0 
0.0 0.0 -9.439411183957e+01 
-9.033704083900e+01 5.165364695699e-01 0.0 
5.165364695699e-01 -1.994411450787e+02 0.0 
0.0 0.0 -8.653345577530e+01 
-3.786366944806e+01 -1.318880680728e+01 0.0 
-1.318880680728e+01 -6.886869222955e+01 0.0 
0.0 0.0 -2.949174712944e+01 
-9.166194748962e+01 3.736946059556e+00 0.0 
3.736946059556e+00 -1.948120533412e+02 0.0 
0.0 0.0 -8.554220024925e+01 
-4.901741912341e+01 1.931359385425e+01 0.0 
1.931359385425e+01 -1.472114850604e+02 0.0 
0.0 0.0 -5.846867125514e+01 
-3.403615060638e+01 1.971828698268e+01 0.0 
1.971828698268e+01 -1.340990624403e+02 0.0 
0.0 0.0 -5.125871470380e+01 
-3.533618254786e+01 -2.163164849776e+01 0.0 
-2.163164849776e+01 -1.233886179586e+02 0.0 
0.0 0.0 -4.825953538597e+01 
-1.225553496553e+02 4.236966285809e+00 0.0 
4.236966285809e+00 -2.735634210383e+02 0.0 
0.0 0.0 -1.184356312081e+02 
-9.697738235266e+01 6.988553811520e+00 0.0 
6.988553811520e+00 -2.057196372011e+02 0.0 
0.0 0.0 -9.040910586612e+01 
-6.264574636201e+01 1.621027900112e+01 0.0 
1.621027900112e+01 -1.419190603541e+02 0.0 
0.0 0.0 -6.096944201484e+01 
-1.275071038977e+02 5.939195305788e+00 0.0 
5.939195305788e+00 -2.845996705630e+02 0.0 
0.0 0.0 -1.232320323382e+02 
-1.239981120159e+02 8.283580568744e+00 0.0 
8.283580568744e+00 -2.742950567709e+02 0.0 
0.0 0.0 -1.190879506360e+02 
-9.265423460956e+01 9.419748009674e+00 0.0 
9.419748009674e+00 -1.975591608571e+02 0.0 
0.0 0.0 -8.666401863998e+01 
-1.614122618014e+02 -2.721445072901e-01 0.0 
-2.721445072901e-01 -3.785041228828e+02 0.0 
0.0 0.0 -1.615749154053e+02 
-8.988919298836e+01 9.262741128124e+00 0.0 
9.262741128124e+00 -2.427372741947e+02 0.0 
0.0 0.0 -9.938794015493e+01 
-9.673009905352e+01 8.672213814982e+00 0.0 
8.672213814982e+00 -2.065550938582e+02 0.0 
0.0 0.0 -9.058555787353e+01 
-7.466333423632e+01 1.660454801952e+01 0.0 
1.660454801952e+01 -1.815197629217e+02 0.0 
0.0 0.0 -7.645492914740e+01 
-9.362145780535e+01 1.082685412548e+01 0.0 
1.082685412548e+01 -2.488915366403e+02 0.0 
0.0 0.0 -1.023538983337e+02 
-3.795808800862e+01 1.564082330276e+01 0.0 
1.564082330276e+01 -1.449347544771e+02 0.0 
0.0 0.0 -5.446785274572e+01 
-8.649009685505e+01 1.755628874769e+00 0.0 
1.755628874769e+00 -1.841345741586e+02 0.0 
0.0 0.0 -8.078740130410e+01 
-6.781685056691e+01 1.354532918064e+01 0.0 
1.354532918064e+01 -1.961888716384e+02 0.0 
0.0 0.0 -7.880171666159e+01 
-4.786201973318e+01 -3.982245618048e+00 0.0 
-3.982245618048e+00 -1.671786525756e+02 0.0 
0.0 0.0 -6.411220169264e+01 
-1.188258446563e+02 5.338064688190e+00 0.0 
5.338064688190e+00 -2.631312465107e+02 0.0 
0.0 0.0 -1.141871273501e+02 
-1.028169243381e+02 3.813033459926e+00 0.0 
3.813033459926e+00 -1.019021617429e+02 0.0 
0.0 0.0 -6.168946699666e+01 
-9.693204664899e+01 5.670440393390e+00 0.0 
5.670440393390e+00 -2.054948612438e+02 0.0 
0.0 0.0 -9.032807236784e+01 
-5.015578542365e+01 1.587910596713e+01 0.0 
1.587910596713e+01 -1.610473616120e+02 0.0 
0.0 0.0 -6.296094411070e+01 
-4.255565723950e+01 2.402957418124e+01 0.0 
2.402957418124e+01 -1.117804434147e+02 0.0 
0.0 0.0 -4.590083019627e+01 
-3.452393327551e+01 1.208693677358e+01 0.0 
1.208693677358e+01 -1.421879585508e+02 0.0 
0.0 0.0 -5.228382548871e+01 
-1.035692767540e+02 5.346927464031e+00 0.0 
5.346927464031e+00 -2.242016011836e+02 0.0 
0.0 0.0 -9.793126338129e+01 
-1.904987625090e+01 -2.447844954882e+00 0.0 
-2.447844954882e+00 -4.250655467701e+01 0.0 
0.0 0.0 -1.806692927837e+01 
-6.410089744968e+01 8.939859476461e+00 0.0 
8.939859476461e+00 -1.296580333674e+02 0.0 
0.0 0.0 -5.772767924512e+01 
-9.852514328332e+01 8.662139201216e+00 0.0 
8.662139201216e+00 -2.602287759813e+02 0.0 
0.0 0.0 -1.072261757794e+02 
-9.573259357378e+01 4.742085066628e+00 0.0 
4.742085066628e+00 -2.046363129093e+02 0.0 
0.0 0.0 -8.971067194493e+01 
-9.406754782663e+01 2.711031740622e+00 0.0 
2.711031740622e+00 -2.016924706396e+02 0.0 
0.0 0.0 -8.832800553988e+01 
-2.855319960872e+01 2.011471495986e+01 0.0 
2.011471495986e+01 -1.261258553803e+02 0.0 
0.0 0.0 -4.775135204798e+01 
-4.482248643019e+01 -1.156602142762e+00 0.0 
-1.156602142762e+00 -1.665143452456e+02 0.0 
0.0 0.0 -6.300104950272e+01 
-4.672630968795e+01 -9.055069513726e+00 0.0 
-9.055069513726e+00 -1.571756154640e+02 0.0 
0.0 0.0 -6.077057754560e+01 
-5.750203138299e+01 1.182939562098e+01 0.0 
1.182939562098e+01 -1.102586851040e+02 0.0 
0.0 0.0 -4.992821494609e+01 
-1.163237542138e+02 6.620240732966e+00 0.0 
6.620240732966e+00 -2.541890370376e+02 0.0 
0.0 0.0 -1.107538373754e+02 
-6.512740727174e+01 1.240341607466e+01 0.0 
1.240341607466e+01 -1.308355809426e+02 0.0 
0.0 0.0 -5.838889646431e+01 
-6.516577829496e+01 1.234956657577e+01 0.0 
1.234956657577e+01 -1.924230788496e+02 0.0 
0.0 0.0 -7.687665714338e+01 
-6.308298348902e+01 1.504708847551e+01 0.0 
1.504708847551e+01 -1.804054887285e+02 0.0 
0.0 0.0 -7.264654166526e+01 
-2.563582496539e+01 1.535055894360e+01 0.0 
1.535055894360e+01 -1.147431290127e+02 0.0 
0.0 0.0 -4.319273806294e+01 
-7.929132864560e+01 1.433420703817e+01 0.0 
1.433420703817e+01 -1.952431737908e+02 0.0 
0.0 0.0 -8.196035073093e+01 
-3.674031277382e+01 2.651403554961e+01 0.0 
2.651403554961e+01 -7.129385729333e+01 0.0 
0.0 0.0 -3.073966562029e+01 
-1.525997651430e+02 7.794336077837e+00 0.0 
7.794336077837e+00 -3.529530793007e+02 0.0 
0.0 0.0 -1.512658533331e+02 
-1.528809539901e+02 9.275065154887e+00 0.0 
9.275065154887e+00 -3.544882971829e+02 0.0 
0.0 0.0 -1.518107753519e+02 
-9.067262072588e+01 1.094148766052e+01 0.0 
1.094148766052e+01 -2.029302019944e+02 0.0 
0.0 0.0 -8.768084681609e+01 
-4.349754541055e+01 1.822149357014e+01 0.0 
1.822149357014e+01 -1.460472797739e+02 0.0 
0.0 0.0 -5.646344755535e+01 
-3.746241543140e+01 2.450858738580e+01 0.0 
2.450858738580e+01 -1.109051312212e+02 0.0 
0.0 0.0 -4.411026399578e+01 
-9.961262526926e+01 7.349500001927e+00 0.0 
7.349500001927e+00 -2.164024173818e+02 0.0 
0.0 0.0 -9.440451279533e+01 
-3.746344801735e+01 2.111739875306e+01 0.0 
2.111739875306e+01 -1.282832498030e+02 0.0 
0.0 0.0 -4.932400934610e+01 
-4.157812950910e+01 -6.438904979071e+00 0.0 
-6.438904979071e+00 -1.555763066735e+02 0.0 
0.0 0.0 -5.874633085479e+01 
-8.791175518961e+01 7.745086769235e+00 0.0 
7.745086769235e+00 -1.877574875471e+02 0.0 
0.0 0.0 -8.230077282100e+01 
-1.431947211272e+02 3.053533463988e+00 0.0 
3.053533463988e+00 -3.309661779853e+02 0.0 
0.0 0.0 -1.418482697337e+02 
-5.576812196771e+01 1.701318679720e+01 0.0 
1.701318679720e+01 -1.636746748866e+02 0.0 
0.0 0.0 -6.543283905630e+01 
-1.087688242954e+02 9.989776151277e+00 0.0 
9.989776151277e+00 -2.742256167694e+02 0.0 
0.0 0.0 -1.144983323194e+02 
-3.999728224667e+01 2.615615892043e+01 0.0 
2.615615892043e+01 -9.339284396273e+01 0.0 
0.0 0.0 -3.818008733180e+01 
-1.656155698061e+02 5.601557289942e+00 0.0 
5.601557289942e+00 -3.933624978598e+02 0.0 
0.0 0.0 -1.672934202998e+02 
-4.296336668184e+01 2.183758842974e+01 0.0 
2.183758842974e+01 -1.307776285626e+02 0.0 
0.0 0.0 -5.172229857334e+01 
-9.152619932510e+01 8.925491344983e+00 0.0 
8.925491344983e+00 -1.990995513626e+02 0.0 
0.0 0.0 -8.678772520632e+01 
-3.015553549305e+01 1.544696046776e+01 0.0 
1.544696046776e+01 -1.359120985713e+02 0.0 
0.0 0.0 -5.090546623041e+01 
-1.049237210351e+02 2.871084097901e+00 0.0 
2.871084097901e+00 -2.790663089429e+02 0.0 
0.0 0.0 -1.147970089934e+02 
-7.080188639593e+01 1.337657486884e+01 0.0 
1.337657486884e+01 -1.974141426151e+02 0.0 
0.0 0.0 -8.006480870332e+01 
-4.658756565505e+01 -9.016295003424e+00 0.0 
-9.016295003424e+00 -1.581571085945e+02 0.0 
0.0 0.0 -6.102340227486e+01 
-9.304043849336e+01 7.567793377456e+00 0.0 
7.567793377456e+00 -1.962749641664e+02 0.0 
0.0 0.0 -8.639462079793e+01 
-1.556240961322e+02 1.131867537780e+01 0.0 
1.131867537780e+01 -3.613847919119e+02 0.0 
0.0 0.0 -1.547026664132e+02 
-5.745442687735e+01 1.393481226724e+01 0.0 
1.393481226724e+01 -1.764854693051e+02 0.0 
0.0 0.0 -6.978196885472e+01 
-9.744894641487e+01 9.225955471980e+00 0.0 
9.225955471980e+00 -2.598855324531e+02 0.0 
0.0 0.0 -1.068003436604e+02 
-3.505925586260e+01 2.599079115886e+01 0.0 
2.599079115886e+01 -9.193218127951e+01 0.0 
0.0 0.0 -3.707961859999e+01 
-1.067513852034e+02 1.549025942878e+00 0.0 
1.549025942878e+00 -2.354387315029e+02 0.0 
0.0 0.0 -1.022570350119e+02 
-1.188005340817e+02 2.766878933690e-01 0.0 
2.766878933690e-01 -3.032499269525e+02 0.0 
0.0 0.0 -1.262151383102e+02 
-4.753004534471e+01 2.123450849477e+01 0.0 
2.123450849477e+01 -9.888334074323e+01 0.0 
0.0 0.0 -4.352401582638e+01 
-1.037775833520e+02 2.845271558639e+00 0.0 
2.845271558639e+00 -2.270318841258e+02 0.0 
0.0 0.0 -9.884284024335e+01 
-1.577671135197e+02 1.265171465205e+01 0.0 
1.265171465205e+01 -3.679704674288e+02 0.0 
0.0 0.0 -1.573212742846e+02 
-1.284369970827e+02 1.055319721010e+00 0.0 
1.055319721010e+00 -3.220845906226e+02 0.0 
0.0 0.0 -1.347564763116e+02 
-1.549428084416e+02 1.065516929180e+01 0.0 
1.065516929180e+01 -3.591138323180e+02 0.0 
0.0 0.0 -1.538169922279e+02 
-1.040675935406e+02 3.535035565049e+00 0.0 
3.535035565049e+00 -2.257693100267e+02 0.0 
0.0 0.0 -9.855107107018e+01 
-1.234434883523e+02 9.322607735591e+00 0.0 
9.322607735591e+00 -2.745130281323e+02 0.0 
0.0 0.0 -1.189869549454e+02 
-4.201253626168e+01 2.159042389478e+01 0.0 
2.159042389478e+01 -7.646446003918e+01 0.0 
0.0 0.0 -3.514309889026e+01 
-8.531024827634e+01 6.993379655676e+00 0.0 
6.993379655676e+00 -1.769094044823e+02 0.0 
0.0 0.0 -7.826589582759e+01 
-9.586543943062e+01 6.287984959487e+00 0.0 
6.287984959487e+00 -2.057012196566e+02 0.0 
0.0 0.0 -9.006999772616e+01 
-1.007322005121e+02 8.044370709567e+00 0.0 
8.044370709567e+00 -2.157681964695e+02 0.0 
0.0 0.0 -9.455011909448e+01 
-8.257984195537e+01 1.378560703727e+01 0.0 
1.378560703727e+01 -1.832484275932e+02 0.0 
0.0 0.0 -7.934848086456e+01 
-1.593555893434e+02 1.307244543771e+01 0.0 
1.307244543771e+01 -3.732221736087e+02 0.0 
0.0 0.0 -1.593733288856e+02 
-1.001458566033e+02 2.706398885489e+00 0.0 
2.706398885489e+00 -2.158069734887e+02 0.0 
0.0 0.0 -9.438584902759e+01 
-8.913064750135e+01 4.934383436582e+00 0.0 
4.934383436582e+00 -1.865476796469e+02 0.0 
0.0 0.0 -8.230349814447e+01 
-5.950828213596e+01 1.493284899246e+01 0.0 
1.493284899246e+01 -1.788654730789e+02 0.0 
0.0 0.0 -7.111212656446e+01 
-4.333260847533e+01 -8.194494216896e+00 0.0 
-8.194494216896e+00 -9.221638665125e+01 0.0 
0.0 0.0 -4.026469853797e+01 
-8.131548630806e+01 5.793097409688e+00 0.0 
5.793097409688e+00 -1.670319952106e+02 0.0 
0.0 0.0 -7.410424445559e+01 
-5.104849900858e+01 1.931091912539e+01 0.0 
1.931091912539e+01 -1.156084302959e+02 0.0 
0.0 0.0 -4.959707879133e+01 
-8.292002509664e+01 3.087097018397e-01 0.0 
3.087097018397e-01 -1.818896400035e+02 0.0 
0.0 0.0 -7.904289953005e+01 
-5.217653258729e+01 -1.034405482729e+01 0.0 
-1.034405482729e+01 -1.602449780818e+02 0.0 
0.0 0.0 -6.332645320072e+01 
-5.150003292378e+01 1.663548309261e+01 0.0 
1.663548309261e+01 -1.617861062765e+02 0.0 
0.0 0.0 -6.358584176010e+01 
-1.226541461259e+02 5.108689440674e+00 0.0 
5.108689440674e+00 -2.732523586560e+02 0.0 
0.0 0.0 -1.183719514346e+02 
-4.819800705059e+01 2.244124428041e+01 0.0 
2.244124428041e+01 -1.149800654781e+02 0.0 
0.0 0.0 -4.855342175861e+01 
-8.805268548749e+01 5.748481413909e+00 0.0 
5.748481413909e+00 -1.860964105562e+02 0.0 
0.0 0.0 -8.184472881309e+01 
-1.020565887310e+02 7.148177313530e+00 0.0 
7.148177313530e+00 -2.701721164203e+02 0.0 
0.0 0.0 -1.112686115454e+02 
-9.280006237707e+01 -4.356568511926e+00 0.0 
-4.356568511926e+00 -2.438155762397e+02 0.0 
0.0 0.0 -1.005846915850e+02 
-1.620016693087e+02 1.223872577846e+01 0.0 
1.223872577846e+01 -3.816318282356e+02 0.0 
0.0 0.0 -1.626900492633e+02 
-7.360992247068e+01 7.009408136827e+00 0.0 
7.009408136827e+00 -1.486480053100e+02 0.0 
0.0 0.0 -6.627737833420e+01 
-4.120410481019e+01 3.685195626636e+00 0.0 
3.685195626636e+00 -1.616060151558e+02 0.0 
0.0 0.0 -6.044303598980e+01 
-6.967608221136e+01 -8.355630918613e+00 0.0 
-8.355630918613e+00 -1.767392718620e+02 0.0 
0.0 0.0 -7.352460622201e+01 
-4.895393246026e+01 1.565734499625e+01 0.0 
1.565734499625e+01 -9.022310518389e+01 0.0 
0.0 0.0 -4.135311129324e+01 
-4.822473799259e+01 1.709180199676e+01 0.0 
1.709180199676e+01 -9.852736014450e+01 0.0 
0.0 0.0 -4.362562944112e+01 
-1.315039882112e+02 8.796199040280e+00 0.0 
8.796199040280e+00 -2.945293416894e+02 0.0 
0.0 0.0 -1.274099989702e+02 
-9.598312319296e+01 1.053840336212e+01 0.0 
1.053840336212e+01 -2.082886626173e+02 0.0 
0.0 0.0 -9.088153574309e+01 
-6.544804103255e+01 8.983699587545e+00 0.0 
8.983699587545e+00 -1.289189294409e+02 0.0 
0.0 0.0 -5.791009114204e+01 
-8.019142007298e+01 5.099765944964e+00 0.0 
5.099765944964e+00 -1.666251018489e+02 0.0 
0.0 0.0 -7.364495657656e+01 
-1.637775629041e+02 8.888118190128e+00 0.0 
8.888118190128e+00 -3.892921913741e+02 0.0 
0.0 0.0 -1.655209262835e+02 
-1.537552156078e+02 9.393948124080e+00 0.0 
9.393948124080e+00 -3.698832560319e+02 0.0 
0.0 0.0 -1.566915414919e+02 
-1.301923442081e+02 6.733764877258e+00 0.0 
6.733764877258e+00 -2.933355808630e+02 0.0 
0.0 0.0 -1.266583775213e+02 
-1.202498926282e+02 6.341208624137e+00 0.0 
6.341208624137e+00 -2.644896567145e+02 0.0 
0.0 0.0 -1.150218648028e+02 
-9.074928637660e+01 -3.426523136475e+00 0.0 
-3.426523136475e+00 -2.384293387579e+02 0.0 
0.0 0.0 -9.835358754034e+01 
-6.809827765396e+01 1.423455019087e+01 0.0 
1.423455019087e+01 -1.426932409668e+02 0.0 
0.0 0.0 -6.283745558624e+01 
-3.857303348587e+01 1.626678578202e+01 0.0 
1.626678578202e+01 -1.435187596316e+02 0.0 
0.0 0.0 -5.422753793523e+01 
-4.603220496304e+01 1.440412486329e+01 0.0 
1.440412486329e+01 -1.589766391628e+02 0.0 
0.0 0.0 -6.110265323775e+01 
-9.165445520118e+01 1.147573485467e+01 0.0 
1.147573485467e+01 -1.996924083923e+02 0.0 
0.0 0.0 -8.700405907806e+01 
-1.011500424458e+02 4.578261859987e+00 0.0 
4.578261859987e+00 -2.710325285758e+02 0.0 
0.0 0.0 -1.112547713065e+02 
-8.489797839688e+01 -4.239080944737e+00 0.0 
-4.239080944737e+00 -2.023515855864e+02 0.0 
0.0 0.0 -8.577486919498e+01 
-1.301244928504e+02 5.757962025865e+00 0.0 
5.757962025865e+00 -2.933483822321e+02 0.0 
0.0 0.0 -1.266418625247e+02 
-4.219250820980e+01 1.482614975049e-02 0.0 
1.482614975049e-02 -1.612071336532e+02 0.0 
0.0 0.0 -6.061989255890e+01 
-7.781514280455e+01 1.507050602227e+01 0.0 
1.507050602227e+01 -1.756704905198e+02 0.0 
0.0 0.0 -7.564568999730e+01 
-9.187303082232e+01 6.934137430602e+00 0.0 
6.934137430602e+00 -1.965450824569e+02 0.0 
0.0 0.0 -8.612543398378e+01 
-7.063713297086e+01 1.565635678665e+01 0.0 
1.565635678665e+01 -1.553750138788e+02 0.0 
0.0 0.0 -6.740364405489e+01 
-1.545086333998e+02 1.001281897258e+01 0.0 
1.001281897258e+01 -3.570691518268e+02 0.0 
0.0 0.0 -1.530733355680e+02 
-1.522383196514e+02 8.243007619426e+00 0.0 
8.243007619426e+00 -3.532369790448e+02 0.0 
0.0 0.0 -1.512425896089e+02 
-1.457541624899e+02 9.053196180635e+00 0.0 
9.053196180635e+00 -3.330061097324e+02 0.0 
0.0 0.0 -1.432280816667e+02 
-9.896549749066e+01 -2.108869241174e+00 0.0 
-2.108869241174e+00 -2.565485979965e+02 0.0 
0.0 0.0 -1.062542286461e+02 
-1.262308817111e+02 4.108263785992e+00 0.0 
4.108263785992e+00 -2.837219864610e+02 0.0 
0.0 0.0 -1.225858604516e+02 
-4.480204379231e+01 2.009393908464e+01 0.0 
2.009393908464e+01 -9.435888625896e+01 0.0 
0.0 0.0 -4.134827901538e+01 
-5.407258568216e+01 1.292975492216e+01 0.0 
1.292975492216e+01 -1.748314444322e+02 0.0 
0.0 0.0 -6.827120903430e+01 
-2.946349118601e+01 1.292950541872e+01 0.0 
1.292950541872e+01 -1.286051903692e+02 0.0 
0.0 0.0 -4.735807226698e+01 
-6.925509481610e+01 1.085199960890e+01 0.0 
1.085199960890e+01 -1.397528905124e+02 0.0 
0.0 0.0 -6.230239559854e+01 
-8.659805125464e+01 1.663199385865e+00 0.0 
1.663199385865e+00 -1.840046647851e+02 0.0 
0.0 0.0 -8.078081481191e+01 
-1.027869211304e+02 1.543853597437e+00 0.0 
1.543853597437e+00 -2.249540264142e+02 0.0 
0.0 0.0 -9.792228426339e+01 
-1.563080484466e+02 5.736340751273e+00 0.0 
5.736340751273e+00 -3.769726768088e+02 0.0 
0.0 0.0 -1.595842175766e+02 
-1.297779555784e+02 7.667416472009e+00 0.0 
7.667416472009e+00 -2.934348027336e+02 0.0 
0.0 0.0 -1.265638274936e+02 
-9.967735954702e+01 4.409253976502e+00 0.0 
4.409253976502e+00 -2.142039256843e+02 0.0 
0.0 0.0 -9.376438556940e+01 
-1.035325026773e+02 6.761019110523e+00 0.0 
6.761019110523e+00 -2.253487420533e+02 0.0 
0.0 0.0 -9.826437341918e+01 
-3.344663124691e+01 1.116968115541e+01 0.0 
1.116968115541e+01 -1.434102091914e+02 0.0 
0.0 0.0 -5.418576524848e+01 
-2.763677618315e+01 -8.428423685514e+00 0.0 
-8.428423685514e+00 -4.709791708820e+01 0.0 
0.0 0.0 -2.073472905364e+01 
-7.406653576079e+01 1.500061678685e+01 0.0 
1.500061678685e+01 -1.896633228196e+02 0.0 
0.0 0.0 -7.871895757413e+01 
-8.511929883156e+01 1.445695410636e+01 0.0 
1.445695410636e+01 -1.955068399017e+02 0.0 
0.0 0.0 -8.378784161998e+01 
-7.670529743293e+01 1.604725392259e+01 0.0 
1.604725392259e+01 -1.944959371654e+02 0.0 
0.0 0.0 -8.096037037950e+01 
-3.427158806195e+01 2.674715476320e+01 0.0 
2.674715476320e+01 -5.141518106851e+01 0.0 
0.0 0.0 -2.481381710781e+01 
-8.968755200014e+01 -7.169401201935e-02 0.0 
-7.169401201935e-02 -1.985099420286e+02 0.0 
0.0 0.0 -8.605924820862e+01 
-3.975185627258e+01 -6.505614207524e+00 0.0 
-6.505614207524e+00 -8.542044829827e+01 0.0 
0.0 0.0 -3.715169137126e+01 
-4.800734835991e+01 2.139836091906e+01 0.0 
2.139836091906e+01 -1.310302919163e+02 0.0 
0.0 0.0 -5.331129208285e+01 
-1.684187836750e+02 5.945583731782e+00 0.0 
5.945583731782e+00 -3.943104952417e+02 0.0 
0.0 0.0 -1.684187836750e+02 
-1.116604457999e+02 9.993515928251e+00 0.0 
9.993515928251e+00 -2.854459569648e+02 0.0 
0.0 0.0 -1.187319208294e+02 
-8.758327432015e+01 2.825209214139e+00 0.0 
2.825209214139e+00 -1.855203654133e+02 0.0 
0.0 0.0 -8.153109192002e+01 
-2.199075890742e+01 -8.500717313986e-01 0.0 
-8.500717313986e-01 -5.884986898180e+01 0.0 
0.0 0.0 -2.385218836677e+01 
-8.315456855197e+01 1.111876703488e+01 0.0 
1.111876703488e+01 -1.829687275934e+02 0.0 
0.0 0.0 -7.943698884360e+01 
-7.102340669034e+01 1.630403098536e+01 0.0 
1.630403098536e+01 -1.886340317382e+02 0.0 
0.0 0.0 -7.749723152855e+01 
-1.046379152623e+02 7.553233478776e+00 0.0 
7.553233478776e+00 -2.250570168700e+02 0.0 
0.0 0.0 -9.850847963971e+01 
-1.561728570994e+02 1.165469779496e+01 0.0 
1.165469779496e+01 -3.634108036591e+02 0.0 
0.0 0.0 -1.554750982276e+02 
-8.410878408262e+01 4.561847167365e+00 0.0 
4.561847167365e+00 -1.760051758862e+02 0.0 
0.0 0.0 -7.763418799064e+01 
-1.001817526095e+02 9.738209745721e+00 0.0 
9.738209745721e+00 -2.170836602450e+02 0.0 
0.0 0.0 -9.477962385635e+01 
-8.318356149605e+01 -6.187070879624e+00 0.0 
-6.187070879624e+00 -2.012072297386e+02 0.0 
0.0 0.0 -8.491723737039e+01 
-1.264016132985e+02 4.997415829035e+00 0.0 
4.997415829035e+00 -2.833954435631e+02 0.0 
0.0 0.0 -1.225391170585e+02 
-1.013917283170e+02 -3.187380324837e+00 0.0 
-3.187380324837e+00 -2.625150484403e+02 0.0 
0.0 0.0 -1.087720330272e+02 
-1.572927332798e+02 1.237879695306e+01 0.0 
1.237879695306e+01 -3.656566337369e+02 0.0 
0.0 0.0 -1.564848101050e+02 
-1.525210042564e+02 9.799126783061e+00 0.0 
9.799126783061e+00 -3.572156765983e+02 0.0 
0.0 0.0 -1.525210042564e+02 
-1.500305411198e+02 7.128307160443e+00 0.0 
7.128307160443e+00 -3.514045959463e+02 0.0 
0.0 0.0 -1.500305411198e+02 
-1.505400018876e+02 8.411559204146e+00 0.0 
8.411559204146e+00 -3.525933377377e+02 0.0 
0.0 0.0 -1.505400018876e+02 
-1.074200124783e+02 6.284947926405e+00 0.0 
6.284947926405e+00 -2.344810550686e+02 0.0 
0.0 0.0 -1.021703202640e+02 
-1.276927048173e+02 6.872481235153e+00 0.0 
6.872481235153e+00 -2.842941912740e+02 0.0 
0.0 0.0 -1.231960688274e+02 
-1.339595691682e+02 7.560030742874e+00 0.0 
7.560030742874e+00 -3.040136002852e+02 0.0 
0.0 0.0 -1.309919508360e+02 
-7.130725630440e+01 1.259429043879e+01 0.0 
1.259429043879e+01 -1.551260982607e+02 0.0 
0.0 0.0 -6.753000636954e+01 
-6.783768146650e+01 1.093532980499e+01 0.0 
1.093532980499e+01 -1.419874508900e+02 0.0 
0.0 0.0 -6.254753970694e+01 
-8.068229562375e+01 -3.836418152515e+00 0.0 
-3.836418152515e+00 -1.897399687426e+02 0.0 
0.0 0.0 -8.072667930991e+01 
-1.315058812714e+02 7.762001595935e+00 0.0 
7.762001595935e+00 -2.943588659092e+02 0.0 
0.0 0.0 -1.273594241542e+02 
-1.585076035762e+02 1.296965826943e+01 0.0 
1.296965826943e+01 -3.704536877820e+02 0.0 
0.0 0.0 -1.582883874075e+02 
-1.299978483075e+02 4.826151387723e+00 0.0 
4.826151387723e+00 -2.933552122770e+02 0.0 
0.0 0.0 -1.266059181753e+02 
-1.025664293002e+02 1.033725219614e+01 0.0 
1.033725219614e+01 -2.670514028730e+02 0.0 
0.0 0.0 -1.104853496520e+02 
-1.312348343270e+02 6.655610252958e+00 0.0 
6.655610252958e+00 -2.942380345839e+02 0.0 
0.0 0.0 -1.272418606733e+02 
-1.161068701250e+02 1.241428312722e+01 0.0 
1.241428312722e+01 -2.732091388970e+02 0.0 
0.0 0.0 -1.163948027066e+02 
-8.174141554372e+01 1.323597298837e+01 0.0 
1.323597298837e+01 -1.885737866260e+02 0.0 
0.0 0.0 -8.069456065092e+01 
-6.816791366471e+01 7.731859897191e+00 0.0 
7.731859897191e+00 -1.388220521197e+02 0.0 
0.0 0.0 -6.169698973534e+01 
-3.997159533439e+01 2.585256006499e+01 0.0 
2.585256006499e+01 -1.147811550372e+02 0.0 
0.0 0.0 -4.528393840768e+01 
-1.430293744881e+02 4.329780786794e+00 0.0 
4.329780786794e+00 -3.319325065621e+02 0.0 
0.0 0.0 -1.420885643150e+02 
-6.712083896840e+01 1.431251884750e+01 0.0 
1.431251884750e+01 -1.483598520071e+02 0.0 
0.0 0.0 -6.424420729264e+01 
-1.456704836739e+02 1.127901641598e+01 0.0 
1.127901641598e+01 -3.397476088418e+02 0.0 
0.0 0.0 -1.452254277547e+02 
-7.938421548883e+01 -5.922343191344e+00 0.0 
-5.922343191344e+00 -1.887417850323e+02 0.0 
0.0 0.0 -8.003780015633e+01 
-5.123381444190e+01 -1.314458359854e+01 0.0 
-1.314458359854e+01 -1.462942124768e+02 0.0 
0.0 0.0 -5.885840807561e+01 
-1.593831834341e+02 4.870474719017e+00 0.0 
4.870474719017e+00 -3.789250236778e+02 0.0 
0.0 0.0 -1.610924621336e+02 
-5.285323216375e+01 2.006366241956e+01 0.0 
2.006366241956e+01 -1.326428532683e+02 0.0 
0.0 0.0 -5.524882562962e+01 
-1.534745182279e+02 1.045550717187e+01 0.0 
1.045550717187e+01 -3.594405425318e+02 0.0 
0.0 0.0 -1.534745182279e+02 
-1.451341451270e+02 7.463080328081e+00 0.0 
7.463080328081e+00 -3.358181719394e+02 0.0 
0.0 0.0 -1.438856951199e+02 
-9.912210347884e+01 9.078331256679e+00 0.0 
9.078331256679e+00 -2.189136548286e+02 0.0 
0.0 0.0 -9.501072749224e+01 
-1.981676437898e+01 -4.734119462108e+00 0.0 
-4.734119462108e+00 -2.513983470821e+01 0.0 
0.0 0.0 -1.342539732845e+01 
-1.552937353662e+02 1.147150413076e+01 0.0 
1.147150413076e+01 -3.636853825210e+02 0.0 
0.0 0.0 -1.552937353662e+02 
-1.584903635940e+02 7.118803357586e+00 0.0 
7.118803357586e+00 -3.768607188989e+02 0.0 
0.0 0.0 -1.602053247479e+02 
-4.498149368364e+01 -1.266477729338e+01 0.0 
-1.266477729338e+01 -1.437472312334e+02 0.0 
0.0 0.0 -5.621861747510e+01 
-1.065135890024e+02 8.972541284974e+00 0.0 
8.972541284974e+00 -2.778248618346e+02 0.0 
0.0 0.0 -1.149015352511e+02 
-1.622741126046e+02 1.158039057858e+01 0.0 
1.158039057858e+01 -3.837573033696e+02 0.0 
0.0 0.0 -1.634094247922e+02 
-5.952763787316e+00 -4.086126158505e-01 0.0 
-4.086126158505e-01 -9.552787462668e+00 0.0 
0.0 0.0 -5.221578517783e+00 
-7.445076035767e+01 1.384842942004e+01 0.0 
1.384842942004e+01 -1.687812224346e+02 0.0 
0.0 0.0 -7.256959483768e+01 
-1.032267431497e+02 8.325546425288e+00 0.0 
8.325546425288e+00 -2.273850801061e+02 0.0 
0.0 0.0 -9.878354697673e+01 
-9.494321884330e+01 9.943313671497e+00 0.0 
9.943313671497e+00 -2.107520342450e+02 0.0 
0.0 0.0 -9.130857592649e+01 
-9.557845002916e+01 8.060167839929e+00 0.0 
8.060167839929e+00 -2.076196237538e+02 0.0 
0.0 0.0 -9.055942213490e+01 
-4.309908673617e+01 2.405196985161e+01 0.0 
2.405196985161e+01 -1.128556290377e+02 0.0 
0.0 0.0 -4.597884403052e+01 
-1.575004407016e+02 1.220853100891e+01 0.0 
1.220853100891e+01 -3.688343616370e+02 0.0 
0.0 0.0 -1.575004407016e+02 
-6.243413071925e+01 1.176921658060e+01 0.0 
1.176921658060e+01 -1.911354807636e+02 0.0 
0.0 0.0 -7.567088344484e+01 
-2.441570102578e+01 5.097696748709e+00 0.0 
5.097696748709e+00 -1.204786167836e+02 0.0 
0.0 0.0 -4.553795029990e+01 
-1.602205898173e+02 -2.397442936986e-01 0.0 
-2.397442936986e-01 -3.783524649763e+02 0.0 
0.0 0.0 -1.611719164381e+02 
-1.109517746301e+01 -2.648153624504e+00 0.0 
-2.648153624504e+00 -2.634435128489e+01 0.0 
0.0 0.0 -1.083185862437e+01 
-7.623314619970e+01 5.770884270704e+00 0.0 
5.770884270704e+00 -1.573377734447e+02 0.0 
0.0 0.0 -6.967127589331e+01 
-3.473286632209e+01 -2.155231746853e+01 0.0 
-2.155231746853e+01 -9.852399135450e+01 0.0 
0.0 0.0 -4.075196117079e+01 
-8.001952494959e+01 3.397734394811e+00 0.0 
3.397734394811e+00 -1.660471265580e+02 0.0 
0.0 0.0 -7.341999545227e+01 
-1.644644614164e+02 7.823353967802e+00 0.0 
7.823353967802e+00 -3.908603729632e+02 0.0 
0.0 0.0 -1.661974503139e+02 
-1.600999680066e+02 1.232839667862e+01 0.0 
1.232839667862e+01 -3.748999253486e+02 0.0 
0.0 0.0 -1.600999680066e+02 
-9.970280552354e+01 5.756136219245e+00 0.0 
5.756136219245e+00 -2.148763176033e+02 0.0 
0.0 0.0 -9.397373693805e+01 
-3.259254072972e+01 -2.237556968800e+01 0.0 
-2.237556968800e+01 -6.713783625491e+01 0.0 
0.0 0.0 -3.002232510227e+01 
-2.659588227194e+01 9.511326614065e+00 0.0 
9.511326614065e+00 -1.250720367985e+02 0.0 
0.0 0.0 -4.784309168786e+01 
-4.254004481420e+01 -2.411714501718e+01 0.0 
-2.411714501718e+01 -8.802250903320e+01 0.0 
0.0 0.0 -3.754878852765e+01 
-1.390073055146e+02 5.968704876174e-01 0.0 
5.968704876174e-01 -3.349720379736e+02 0.0 
0.0 0.0 -1.417938030464e+02 
-8.665515807782e+01 1.745561881615e+00 0.0 
1.745561881615e+00 -1.841767038747e+02 0.0 
0.0 0.0 -8.084955858575e+01 
-9.280217289638e+01 4.813447779076e+00 0.0 
4.813447779076e+00 -1.957340300484e+02 0.0 
0.0 0.0 -8.616086088343e+01 
-1.626350043223e+02 1.185331780043e+01 0.0 
1.185331780043e+01 -3.808150100854e+02 0.0 
0.0 0.0 -1.626350043223e+02 
-8.593556588478e+01 1.693070928382e+00 0.0 
1.693070928382e+00 -1.838914647573e+02 0.0 
0.0 0.0 -8.054810919262e+01 
-1.516264526711e+02 6.962125254313e+00 0.0 
6.962125254313e+00 -3.519340118693e+02 0.0 
0.0 0.0 -1.506681393621e+02 
-1.200607402476e+02 1.055721157359e+01 0.0 
1.055721157359e+01 -2.845404123668e+02 0.0 
0.0 0.0 -1.209803457843e+02 
-9.857408991021e+01 1.050570869073e+00 0.0 
1.050570869073e+00 -2.155046555515e+02 0.0 
0.0 0.0 -9.382362363851e+01 
-5.151181060591e+01 1.463657426284e+01 0.0 
1.463657426284e+01 -1.039824474836e+02 0.0 
0.0 0.0 -4.624827742686e+01 
-1.073159290639e+02 8.207550502146e+00 0.0 
8.207550502146e+00 -2.780126276634e+02 0.0 
0.0 0.0 -1.151985670182e+02 
-2.875504441908e+01 1.963195124727e+01 0.0 
1.963195124727e+01 -1.125725126818e+02 0.0 
0.0 0.0 -4.211237261825e+01 
-1.647152868349e+02 1.072798377201e+01 0.0 
1.072798377201e+01 -3.856690026149e+02 0.0 
0.0 0.0 -1.647152868349e+02 
-1.515093521361e+02 9.017061935868e+00 0.0 
9.017061935868e+00 -3.548551549842e+02 0.0 
0.0 0.0 -1.515093521361e+02 
-1.504290523141e+02 7.829722630973e+00 0.0 
7.829722630973e+00 -3.523344553995e+02 0.0 
0.0 0.0 -1.504290523141e+02 
-1.037726032758e+02 -2.133497926132e+00 0.0 
-2.133497926132e+00 -2.637485828023e+02 0.0 
0.0 0.0 -1.098563558234e+02 
-7.620998739866e+01 -3.244959809797e+00 0.0 
-3.244959809797e+00 -1.771809880009e+02 0.0 
0.0 0.0 -7.561729261988e+01 
-8.006174358051e+01 1.553852953504e+01 0.0 
1.553852953504e+01 -1.883674283698e+02 0.0 
0.0 0.0 -8.012875158509e+01 
-1.061738172663e+02 -3.226371619297e+00 0.0 
-3.226371619297e+00 -2.696386326149e+02 0.0 
0.0 0.0 -1.123437349644e+02 
-1.664080409301e+02 9.088411181444e+00 0.0 
9.088411181444e+00 -3.896187621702e+02 0.0 
0.0 0.0 -1.664080409301e+02 
-4.300368930329e+01 2.210448659266e+01 0.0 
2.210448659266e+01 -1.290593694336e+02 0.0 
0.0 0.0 -5.121891762107e+01 
-4.929825788783e+01 -4.634373948568e+00 0.0 
-4.634373948568e+00 -1.706318959323e+02 0.0 
0.0 0.0 -6.557904614604e+01 
-5.415416248099e+01 -6.869514657397e+00 0.0 
-6.869514657397e+00 -1.745350064244e+02 0.0 
0.0 0.0 -6.820675067162e+01 
-1.027930325128e+02 1.112902545824e+00 0.0 
1.112902545824e+00 -2.263311068332e+02 0.0 
0.0 0.0 -9.833724180380e+01 
-1.659970792705e+02 4.595672770417e+00 0.0 
4.595672770417e+00 -3.940373380406e+02 0.0 
0.0 0.0 -1.676103251934e+02 
-4.272754678051e+01 -2.197505498059e+01 0.0 
-2.197505498059e+01 -6.220811158007e+01 0.0 
0.0 0.0 -3.000931490445e+01 
-1.678068881936e+02 6.965748360660e+00 0.0 
6.965748360660e+00 -3.928827391183e+02 0.0 
0.0 0.0 -1.678068881936e+02 
-5.179028112640e+01 -1.021236755025e+01 0.0 
-1.021236755025e+01 -1.613407430683e+02 0.0 
0.0 0.0 -6.353930725841e+01 
-1.545744085955e+02 1.104043447516e+01 0.0 
1.104043447516e+01 -3.620069533895e+02 0.0 
0.0 0.0 -1.545744085955e+02 
-1.352443604358e+02 9.575798334616e+00 0.0 
9.575798334616e+00 -3.050495642732e+02 0.0 
0.0 0.0 -1.316881774127e+02 
-2.905293166795e+00 -1.625771003216e-01 0.0 
-1.625771003216e-01 -7.032215881425e+00 0.0 
0.0 0.0 -3.203321580836e-01 
-7.692923533740e+01 1.441358072938e+01 0.0 
1.441358072938e+01 -1.820049352373e+02 0.0 
0.0 0.0 -7.728025117240e+01 
-1.311652180430e+02 5.789364661438e+00 0.0 
5.789364661438e+00 -2.948920665388e+02 0.0 
0.0 0.0 -1.274171853745e+02 
-1.564735778649e+02 1.194347275935e+01 0.0 
1.194347275935e+01 -3.664383483514e+02 0.0 
0.0 0.0 -1.564735778649e+02 
-1.083208679750e+02 8.494156176807e+00 0.0 
8.494156176807e+00 -2.352799585002e+02 0.0 
0.0 0.0 -1.026802479426e+02 
-1.234157720069e+02 1.038132960706e+01 0.0 
1.038132960706e+01 -2.959130460431e+02 0.0 
0.0 0.0 -1.253986454150e+02 
-3.720438449914e+01 2.835654634634e+01 0.0 
2.835654634634e+01 -9.677717699357e+01 0.0 
0.0 0.0 -3.958413531573e+01 
-1.501131873254e+02 6.137359524047e+00 0.0 
6.137359524047e+00 -3.623051079259e+02 0.0 
0.0 0.0 -1.533254885754e+02 
-5.686971158365e+01 -1.050936758608e+01 0.0 
-1.050936758608e+01 -1.653197619648e+02 0.0 
0.0 0.0 -6.625684206453e+01 
-5.867744376525e+01 -7.880436259592e+00 0.0 
-7.880436259592e+00 -1.762638354893e+02 0.0 
0.0 0.0 -7.008238377637e+01 
-4.426933682861e+01 -2.437957428896e+01 0.0 
-2.437957428896e+01 -4.873200528091e+01 0.0 
0.0 0.0 -2.700780227255e+01 
-1.587448494901e+02 1.233924954612e+01 0.0 
1.233924954612e+01 -3.717379821435e+02 0.0 
0.0 0.0 -1.587448494901e+02 
-3.334945142710e+01 1.815676703252e+01 0.0 
1.815676703252e+01 -1.286282256684e+02 0.0 
0.0 0.0 -4.803501962264e+01 
-1.343961766756e+02 3.340445786282e+00 0.0 
3.340445786282e+00 -3.333718723760e+02 0.0 
0.0 0.0 -1.399304147155e+02 
-9.515088860968e+01 2.526121869198e+00 0.0 
2.526121869198e+00 -2.059160844232e+02 0.0 
0.0 0.0 -8.992009190986e+01 
-5.647073571376e+01 -1.072122417534e+01 0.0 
-1.072122417534e+01 -1.380360764604e+02 0.0 
0.0 0.0 -5.795204365226e+01 
-5.341116410592e+01 -6.528843485808e+00 0.0 
-6.528843485808e+00 -1.719858629232e+02 0.0 
0.0 0.0 -6.721910810872e+01 
-1.043053944829e+02 9.044495085855e+00 0.0 
9.044495085855e+00 -2.261190845744e+02 0.0 
0.0 0.0 -9.872734371718e+01 
-1.637361999892e+02 1.143418536186e+01 0.0 
1.143418536186e+01 -3.833844666415e+02 0.0 
0.0 0.0 -1.637361999892e+02 
-7.910056063080e+01 -4.571375871809e+00 0.0 
-4.571375871809e+00 -1.844626835585e+02 0.0 
0.0 0.0 -7.866897325679e+01 
-1.162567206494e+02 1.135867621002e-01 0.0 
1.135867621002e-01 -2.934015033990e+02 0.0 
0.0 0.0 -1.224974672145e+02 
-9.375232231730e+01 1.161632390369e+01 0.0 
1.161632390369e+01 -2.151290047801e+02 0.0 
0.0 0.0 -9.226439812921e+01 
-1.015314771324e+02 1.597708371051e+00 0.0 
1.597708371051e+00 -2.699397817085e+02 0.0 
0.0 0.0 -1.110413776523e+02 
-5.529032900004e+01 -2.263073146225e+00 0.0 
-2.263073146225e+00 -1.814965967640e+02 0.0 
0.0 0.0 -7.063607772920e+01 
-1.074669204612e+02 -9.350123194236e-01 0.0 
-9.350123194236e-01 -2.748570224773e+02 0.0 
0.0 0.0 -1.142971828815e+02 
-8.996539036964e+01 1.338380141162e+01 0.0 
1.338380141162e+01 -2.030963929241e+02 0.0 
0.0 0.0 -8.751853498811e+01 
-1.176214067742e+02 1.184522921030e+01 0.0 
1.184522921030e+01 -2.698324628625e+02 0.0 
0.0 0.0 -1.158361608910e+02 
-1.162674184189e+02 7.902304236347e+00 0.0 
7.902304236347e+00 -2.960130487032e+02 0.0 
0.0 0.0 -1.232841401366e+02 
-8.914421494128e+01 1.257018675915e+01 0.0 
1.257018675915e+01 -2.080669742974e+02 0.0 
0.0 0.0 -8.876335677161e+01 
-7.900675280807e+01 -7.064136828328e+00 0.0 
-7.064136828328e+00 -1.938623734076e+02 0.0 
0.0 0.0 -8.146073786469e+01 
-4.869821997053e+01 2.181278540908e+01 0.0 
2.181278540908e+01 -1.312400682484e+02 0.0 
0.0 0.0 -5.358148646569e+01 
-7.532668447701e+01 -5.427053660752e+00 0.0 
-5.427053660752e+00 -1.763375839457e+02 0.0 
0.0 0.0 -7.509928052682e+01 
-1.193439762405e+02 1.231298314276e+01 0.0 
1.231298314276e+01 -2.846798773187e+02 0.0 
0.0 0.0 -1.208071560678e+02 
-9.322595127356e+01 7.482101282792e+00 0.0 
7.482101282792e+00 -2.527444030714e+02 0.0 
0.0 0.0 -1.033911063035e+02 
-1.650569192762e+02 6.808865692582e+00 0.0 
6.808865692582e+00 -3.922819490740e+02 0.0 
0.0 0.0 -1.668016605051e+02 
-1.348815361304e+02 6.478025203475e+00 0.0 
6.478025203475e+00 -3.042654249734e+02 0.0 
0.0 0.0 -1.313440883312e+02 
-5.094463431238e+01 -1.187097259699e+01 0.0 
-1.187097259699e+01 -1.215766948509e+02 0.0 
0.0 0.0 -5.135639874898e+01 
-1.671684087764e+02 7.995149570883e+00 0.0 
7.995149570883e+00 -3.913929538116e+02 0.0 
0.0 0.0 -1.671684087764e+02 
-1.560358474663e+02 6.880698318608e+00 0.0 
6.880698318608e+00 -3.761335295390e+02 0.0 
0.0 0.0 -1.592508131016e+02 
-8.174187988996e+01 1.370379322380e+01 0.0 
1.370379322380e+01 -2.082198847896e+02 0.0 
0.0 0.0 -8.658852940386e+01 
-2.800691844813e+01 -1.514915850123e+01 0.0 
-1.514915850123e+01 -3.142552666307e+01 0.0 
0.0 0.0 -1.770416363746e+01 
-1.664884722008e+02 3.543389963748e+00 0.0 
3.543389963748e+00 -3.945335220600e+02 0.0 
0.0 0.0 -1.679065982782e+02 
-1.348498022576e+02 7.365685096437e+00 0.0 
7.365685096437e+00 -3.038527805623e+02 0.0 
0.0 0.0 -1.312107748460e+02 
-5.015174319957e+01 -1.271626359509e+01 0.0 
-1.271626359509e+01 -1.468170219659e+02 0.0 
0.0 0.0 -5.869062954964e+01 
-1.686886593361e+02 4.942392492726e+00 0.0 
4.942392492726e+00 -3.949402051177e+02 0.0 
0.0 0.0 -1.686886593361e+02 
-1.123061332434e+02 -1.028776027226e+00 0.0 
-1.028776027226e+00 -2.823894277451e+02 0.0 
0.0 0.0 -1.180086682966e+02 
-7.199187626375e+01 9.542616002877e+00 0.0 
9.542616002877e+00 -1.502675492089e+02 0.0 
0.0 0.0 -6.627782764179e+01 
-9.579537689240e+01 3.535715828775e+00 0.0 
3.535715828775e+00 -2.045855013092e+02 0.0 
0.0 0.0 -8.971426346048e+01 
-8.850422632853e+01 9.608360163728e+00 0.0 
9.608360163728e+00 -2.422106279471e+02 0.0 
0.0 0.0 -9.881445628269e+01 
-9.547351940238e+01 -3.348409885694e+00 0.0 
-3.348409885694e+00 -2.451587924723e+02 0.0 
0.0 0.0 -1.017896935624e+02 
-1.057657137880e+02 3.353009873074e+00 0.0 
3.353009873074e+00 -2.795349555569e+02 0.0 
0.0 0.0 -1.151902008035e+02 
-1.125241206019e+02 5.752801326366e+00 0.0 
5.752801326366e+00 -2.445938130677e+02 0.0 
0.0 0.0 -1.067353801009e+02 
-8.017268414353e+01 7.244246287560e+00 0.0 
7.244246287560e+00 -1.679972142220e+02 0.0 
0.0 0.0 -7.405096950966e+01 
-1.214639510568e+02 8.645138840034e+00 0.0 
8.645138840034e+00 -3.039717810421e+02 0.0 
0.0 0.0 -1.272307196297e+02 
-9.680873099254e+01 4.228980769623e-01 0.0 
4.228980769623e-01 -2.151904485799e+02 0.0 
0.0 0.0 -9.319975387174e+01 
-8.104501686970e+01 -5.193982639065e+00 0.0 
-5.193982639065e+00 -1.951286577308e+02 0.0 
0.0 0.0 -8.245210238015e+01 
-1.110204874185e+02 6.939807795188e+00 0.0 
6.939807795188e+00 -2.878846581188e+02 0.0 
0.0 0.0 -1.192715436612e+02 
-6.160521500318e+01 -1.014065781924e+01 0.0 
-1.014065781924e+01 -1.674007044150e+02 0.0 
0.0 0.0 -6.830177582546e+01 
-1.116829005737e+02 -3.352422378481e+00 0.0 
-3.352422378481e+00 -2.677495518864e+02 0.0 
0.0 0.0 -1.134297357380e+02 
-4.220704195622e+00 -8.931233140911e-01 0.0 
-8.931233140911e-01 -8.779319884122e+00 0.0 
0.0 0.0 -3.500007223923e+00 
-5.444157927409e+01 2.073631002507e+01 0.0 
2.073631002507e+01 -1.352265041327e+02 0.0 
0.0 0.0 -5.650042502205e+01 
-5.707872569848e+01 -1.058355638573e+01 0.0 
-1.058355638573e+01 -1.635100647999e+02 0.0 
0.0 0.0 -6.577663714951e+01 
-8.729648575013e+01 -5.341340842140e+00 0.0 
-5.341340842140e+00 -2.088251890696e+02 0.0 
0.0 0.0 -8.843650244592e+01 
-8.691101876935e+01 1.327325588425e+01 0.0 
1.327325588425e+01 -2.141545215283e+02 0.0 
0.0 0.0 -8.991966208930e+01 
-1.102087540649e+02 -2.154209521716e+00 0.0 
-2.154209521716e+00 -2.812624125373e+02 0.0 
0.0 0.0 -1.170413499806e+02 
-9.993693737533e+01 2.355359196262e+00 0.0 
2.355359196262e+00 -2.180058035599e+02 0.0 
0.0 0.0 -9.498282228057e+01 
-5.546531862659e+01 -1.220225409110e+01 0.0 
-1.220225409110e+01 -1.491824248496e+02 0.0 
0.0 0.0 -6.099432304287e+01 
-1.689529707176e+02 3.956481321700e+00 0.0 
3.956481321700e+00 -3.955569316744e+02 0.0 
0.0 0.0 -1.689529707176e+02 
-1.035075289456e+02 1.066275962388e+01 0.0 
1.066275962388e+01 -2.279626066940e+02 0.0 
0.0 0.0 -9.904104069187e+01 
-9.133572493611e+01 -4.571363952369e+00 0.0 
-4.571363952369e+00 -2.165162432371e+02 0.0 
0.0 0.0 -9.195559045198e+01 
-9.913947891595e+01 1.146140091433e+01 0.0 
1.146140091433e+01 -2.193977185268e+02 0.0 
0.0 0.0 -9.516115923281e+01 
-8.874533407363e+01 -3.389314568163e+00 0.0 
-3.389314568163e+00 -2.098556150922e+02 0.0 
0.0 0.0 -8.918028474976e+01 
-1.041610392915e+01 -5.776215809199e-01 0.0 
-5.776215809199e-01 -9.631397325582e+00 0.0 
0.0 0.0 -6.588496355670e+00 
-1.007914764096e+02 5.315862332328e+00 0.0 
5.315862332328e+00 -2.152039588458e+02 0.0 
0.0 0.0 -9.439863057663e+01 
-7.432490579067e+01 -2.283480201492e+00 0.0 
-2.283480201492e+00 -1.702773842240e+02 0.0 
0.0 0.0 -7.298068700440e+01 
-5.398658080062e-01 -3.607527375831e-02 0.0 
-3.607527375831e-02 -9.092012287060e+00 0.0 
0.0 0.0 -2.489027099565e+00 
-8.718121830279e+01 -4.309843388537e+00 0.0 
-4.309843388537e+00 -2.043736843644e+02 0.0 
0.0 0.0 -8.706647080016e+01 
-1.192516671298e+02 -1.229907202642e+00 0.0 
-1.229907202642e+00 -3.000596368472e+02 0.0 
0.0 0.0 -1.253933911931e+02 
-1.271489215911e+02 7.156505709519e-01 0.0 
7.156505709519e-01 -2.905562618218e+02 0.0 
0.0 0.0 -1.249115550238e+02 
-9.681195714805e+01 2.705690830981e+00 0.0 
2.705690830981e+00 -2.620524551327e+02 0.0 
0.0 0.0 -1.072593236842e+02 
-1.001850507312e+02 1.179287871299e+00 0.0 
1.179287871299e+00 -2.692678060556e+02 0.0 
0.0 0.0 -1.104358570361e+02 
-8.524287246563e+01 3.921938064830e+00 0.0 
3.921938064830e+00 -1.774822851500e+02 0.0 
0.0 0.0 -7.841754728469e+01 
-7.811344810259e+01 9.909102691319e-01 0.0 
9.909102691319e-01 -1.657318946443e+02 0.0 
0.0 0.0 -7.275360282408e+01 
-1.445237516524e+02 5.876565526374e+00 0.0 
5.876565526374e+00 -3.340353805547e+02 0.0 
0.0 0.0 -1.431677396621e+02 
-9.462709516296e+01 1.237864967628e+01 0.0 
1.237864967628e+01 -2.110715188974e+02 0.0 
0.0 0.0 -9.130958421810e+01 
-1.922445054089e+00 -1.078460826040e-01 0.0 
-1.078460826040e-01 -7.031186751318e+00 0.0 
0.0 0.0 -1.562056641462e+00 
-3.282323705779e+01 -3.952105606165e+00 0.0 
-3.952105606165e+00 -7.087333918198e+01 0.0 
0.0 0.0 -3.070897287193e+01 
-2.400577492816e+01 -8.558828597964e+00 0.0 
-8.558828597964e+00 -2.771013254570e+01 0.0 
0.0 0.0 -1.543636660090e+01 
-5.549653919945e+01 -8.103159133605e+00 0.0 
-8.103159133605e+00 -1.283316164094e+02 0.0 
0.0 0.0 -5.474844668266e+01 
-1.341214456105e+02 1.127473519998e+01 0.0 
1.127473519998e+01 -3.063541270004e+02 0.0 
0.0 0.0 -1.317426717832e+02 
-1.277671071591e+02 2.392500798285e+00 0.0 
2.392500798285e+00 -2.911065598848e+02 0.0 
0.0 0.0 -1.252621001132e+02 
-1.331768816895e+02 -1.443338365250e+00 0.0 
-1.443338365250e+00 -3.226025435766e+02 0.0 
0.0 0.0 -1.363338275798e+02 
-6.107970712965e+01 -5.349402097619e+00 0.0 
-5.349402097619e+00 -1.413264691175e+02 0.0 
0.0 0.0 -6.032185287415e+01 
-1.131617799031e+02 -1.639819820423e+00 0.0 
-1.639819820423e+00 -2.687705024505e+02 0.0 
0.0 0.0 -1.141796847061e+02 
-1.381599075164e+02 1.653228296153e+00 0.0 
1.653228296153e+00 -3.407078601219e+02 0.0 
0.0 0.0 -1.432603302915e+02 
-2.679311027588e+01 5.029774827417e+00 0.0 
5.029774827417e+00 -1.290534695279e+02 0.0 
0.0 0.0 -4.791965067035e+01 
-7.438029416885e+01 9.179343645688e-02 0.0 
9.179343645688e-02 -1.703621496176e+02 0.0 
0.0 0.0 -7.302273313595e+01 
-6.145415887270e+01 -1.593383699477e+00 0.0 
-1.593383699477e+00 -1.398854666789e+02 0.0 
0.0 0.0 -6.000188766547e+01 
-1.664684090502e+02 2.559779742431e+00 0.0 
2.559779742431e+00 -3.943537529279e+02 0.0 
0.0 0.0 -1.678466485935e+02 
-1.689873831013e+02 3.093402169070e+00 0.0 
3.093402169070e+00 -3.956372272363e+02 0.0 
0.0 0.0 -1.689873831013e+02 
-8.242721852575e+01 -1.604442938142e-01 0.0 
-1.604442938142e-01 -1.895085941635e+02 0.0 
0.0 0.0 -8.118074380676e+01 
-9.267142712113e+01 -2.600972713301e+00 0.0 
-2.600972713301e+00 -2.175130117145e+02 0.0 
0.0 0.0 -9.265533165068e+01 
-9.757987510021e+01 -4.318073980579e+00 0.0 
-4.318073980579e+00 -2.506824712796e+02 0.0 
0.0 0.0 -1.040787039139e+02 
-1.430614817948e+02 2.814465025238e+00 0.0 
2.814465025238e+00 -3.510061682815e+02 0.0 
0.0 0.0 -1.478202950229e+02 
-3.761856376611e+01 -6.129103046663e+00 0.0 
-6.129103046663e+00 -7.870008777089e+01 0.0 
0.0 0.0 -3.449559546110e+01 
-1.332302843146e+02 5.718954352509e-01 0.0 
5.718954352509e-01 -3.299590345102e+02 0.0 
0.0 0.0 -1.385567956475e+02 
-1.447701394363e+01 -6.812937034683e-01 0.0 
-6.812937034683e-01 -4.262733090357e+01 0.0 
0.0 0.0 -1.673130345416e+01 
-8.432852894930e+01 -2.996084793731e+00 0.0 
-2.996084793731e+00 -1.974443035640e+02 0.0 
0.0 0.0 -8.413184975399e+01 
-9.290446007129e+01 -3.583906943696e+00 0.0 
-3.583906943696e+00 -2.222798549617e+02 0.0 
0.0 0.0 -9.415529450990e+01 
-6.895789785994e+00 -1.906441103333e-01 0.0 
-1.906441103333e-01 -2.568084714300e+01 0.0 
0.0 0.0 -9.518812558963e+00 
-7.865459305125e+01 -1.651782703817e+00 0.0 
-1.651782703817e+00 -1.797205362732e+02 0.0 
0.0 0.0 -7.711253879734e+01 
-1.333975498675e+02 4.776401519938e+00 0.0 
4.776401519938e+00 -3.032142885452e+02 0.0 
0.0 0.0 -1.305835515238e+02 
-1.591613390935e+00 -1.200424061675e-01 0.0 
-1.200424061675e-01 -7.546994465506e+00 0.0 
0.0 0.0 -1.562219004260e+00 
-7.893889399065e+01 1.208799827036e+00 0.0 
1.208799827036e+00 -1.662354696808e+02 0.0 
0.0 0.0 -7.315230910144e+01 
-7.938120792590e+01 1.557695916189e+00 0.0 
1.557695916189e+00 -1.669019105532e+02 0.0 
0.0 0.0 -7.348493554373e+01 
-1.102817759587e+02 5.000087590735e+00 0.0 
5.000087590735e+00 -2.886808868103e+02 0.0 
0.0 0.0 -1.192887988307e+02 
-6.111254406548e+01 5.790223395472e-01 0.0 
5.790223395472e-01 -1.396247123860e+02 0.0 
0.0 0.0 -5.982117693545e+01 
-5.502175293138e+01 -1.206276350167e+01 0.0 
-1.206276350167e+01 -1.510495724578e+02 0.0 
0.0 0.0 -6.142139761676e+01 
-3.826337969346e+01 2.561873366696e+01 0.0 
2.561873366696e+01 -9.212200894921e+01 0.0 
0.0 0.0 -3.871561659280e+01 
-1.464931707568e+02 -8.972954799341e-01 0.0 
-8.972954799341e-01 -3.490145183620e+02 0.0 
0.0 0.0 -1.482523067357e+02 
-1.515924601891e+02 1.164965201084e+01 0.0 
1.164965201084e+01 -3.542030360757e+02 0.0 
0.0 0.0 -1.513386488794e+02 
-1.235804453628e+02 3.090787744884e+00 0.0 
3.090787744884e+00 -2.786533618503e+02 0.0 
0.0 0.0 -1.202701421639e+02 
-5.170791245103e+01 1.848794944168e+01 0.0 
1.848794944168e+01 -1.047577996201e+02 0.0 
0.0 0.0 -4.653971362133e+01 
-2.680449443646e+01 -5.117533648473e+00 0.0 
-5.117533648473e+00 -4.924883105889e+01 0.0 
0.0 0.0 -2.193893175918e+01 
-8.139045523654e+01 7.686271180448e+00 0.0 
7.686271180448e+00 -1.676137204930e+02 0.0 
0.0 0.0 -7.430125271887e+01 
-7.761914870597e+01 4.177415141332e-01 0.0 
4.177415141332e-01 -1.660579665551e+02 0.0 
0.0 0.0 -7.270313457831e+01 
-7.702074792143e+01 5.137011088356e-01 0.0 
5.137011088356e-01 -1.658108844154e+02 0.0 
0.0 0.0 -7.244948970104e+01 
-4.013011007649e-01 -1.364951052276e-01 0.0 
-1.364951052276e-01 -9.261018949336e+00 0.0 
0.0 0.0 -2.512918790607e+00 
-7.157635823231e+00 -1.952272731259e-01 0.0 
-1.952272731259e-01 -2.555307905620e+01 0.0 
0.0 0.0 -9.699944503238e+00 
-1.499353380172e+01 -3.087031296842e-02 0.0 
-3.087031296842e-02 -4.210783037348e+01 0.0 
0.0 0.0 -1.673040925256e+01 
-4.834154022842e+01 -6.262848495362e+00 0.0 
-6.262848495362e+00 -1.072757644119e+02 0.0 
0.0 0.0 -4.628519139209e+01 
-6.675105208287e+00 -1.211310700011e-01 0.0 
-1.211310700011e-01 -2.556343996964e+01 0.0 
0.0 0.0 -8.678607861336e+00 
-8.661328113121e+01 -1.575559041398e+00 0.0 
-1.575559041398e+00 -1.998656730401e+02 0.0 
0.0 0.0 -8.554368625138e+01 
-4.255862836139e+01 -1.235535286741e+01 0.0 
-1.235535286741e+01 -6.039971073969e+01 0.0 
0.0 0.0 -3.145583709548e+01 
-5.614549334349e+01 -6.643193295068e+00 0.0 
-6.643193295068e+00 -1.277615748499e+02 0.0 
0.0 0.0 -5.477212045803e+01 
-1.037913668031e+02 1.891880058484e-01 0.0 
1.891880058484e-01 -2.322287891648e+02 0.0 
0.0 0.0 -1.004060467904e+02 
-7.816559412816e+01 8.600352072517e-01 0.0 
8.600352072517e-01 -1.659982282304e+02 0.0 
0.0 0.0 -7.284914670758e+01 
-1.381642382550e+02 1.103612143883e+01 0.0 
1.103612143883e+01 -3.147327176363e+02 0.0 
0.0 0.0 -1.354690867674e+02 
-1.149896415608e+02 -2.248594697469e+00 0.0 
-2.248594697469e+00 -2.885929461649e+02 0.0 
0.0 0.0 -1.206747763177e+02 
-9.633630581990e+01 -3.750185472597e-02 0.0 
-3.750185472597e-02 -2.145482580790e+02 0.0 
0.0 0.0 -9.286536916967e+01 
-6.538970603707e+01 -1.137117114626e+00 0.0 
-1.137117114626e+00 -1.493334608711e+02 0.0 
0.0 0.0 -6.401695007245e+01 
-1.374489417853e+01 -2.612391249689e-01 0.0 
-2.612391249689e-01 -4.240546089691e+01 0.0 
0.0 0.0 -1.644510652263e+01 
-1.480599734412e+02 3.146666823256e+00 0.0 
3.146666823256e+00 -3.468066046961e+02 0.0 
0.0 0.0 -1.480599734412e+02 
-1.493880238735e+02 3.401809730629e+00 0.0 
3.401809730629e+00 -3.474366900213e+02 0.0 
0.0 0.0 -1.486474141685e+02 
-9.426263862839e+01 4.448475311238e-01 0.0 
4.448475311238e-01 -2.053139793511e+02 0.0 
0.0 0.0 -8.947298539386e+01 
-7.748453935345e+01 5.719346634961e-01 0.0 
5.719346634961e-01 -1.656552276555e+02 0.0 
0.0 0.0 -7.254193010268e+01 
-6.630378211764e+01 -2.938928626683e-01 0.0 
-2.938928626683e-01 -1.514758627290e+02 0.0 
0.0 0.0 -6.493389345400e+01 
-1.491524471490e+02 2.498172431512e+00 0.0 
2.498172431512e+00 -3.469660188356e+02 0.0 
0.0 0.0 -1.484355397954e+02 
-5.293783565904e+01 -5.168512331524e+00 0.0 
-5.168512331524e+00 -1.204982525459e+02 0.0 
0.0 0.0 -5.163082646149e+01 
-7.868862635791e+01 1.207913085781e+00 0.0 
1.207913085781e+00 -1.662118986414e+02 0.0 
0.0 0.0 -7.307015749979e+01 
-7.821756268858e+01 7.085537956755e-01 0.0 
7.085537956755e-01 -1.656997570460e+02 0.0 
0.0 0.0 -7.277519592037e+01 
-7.612595155901e+01 3.850853587325e+00 0.0 
3.850853587325e+00 -1.566597938349e+02 0.0 
0.0 0.0 -6.943572361817e+01 
-1.498568259573e+02 6.562521799925e+00 0.0 
6.562521799925e+00 -3.509992605671e+02 0.0 
0.0 0.0 -1.498568259573e+02 
-1.499574860540e+02 2.823822384147e+00 0.0 
2.823822384147e+00 -3.476397427683e+02 0.0 
0.0 0.0 -1.488791686467e+02 
-6.685316119026e+00 -1.442401921693e-01 0.0 
-1.442401921693e-01 -2.537871550170e+01 0.0 
0.0 0.0 -8.650985664449e+00 
-4.680326995290e-01 -1.240202091857e-01 0.0 
-1.240202091857e-01 -9.298215217950e+00 0.0 
0.0 0.0 -2.422964369106e+00 
-2.889707750001e+01 -4.616390550352e+00 0.0 
-4.616390550352e+00 -5.859712397510e+01 0.0 
0.0 0.0 -2.583569064711e+01 
-9.112891585659e+01 -5.428249496331e+00 0.0 
-5.428249496331e+00 -2.211340403968e+02 0.0 
0.0 0.0 -9.327888687602e+01 
-1.540127729946e+02 -1.100411528052e+00 0.0 
-1.100411528052e+00 -3.595775053574e+02 0.0 
0.0 0.0 -1.536770835056e+02 
-7.893901681611e+01 -2.231714734360e+01 0.0 
-2.231714734360e+01 -7.753266309805e+01 0.0 
0.0 0.0 -4.721754580865e+01 
-1.207277835931e+02 1.116324009560e+00 0.0 
1.116324009560e+00 -2.746421732744e+02 0.0 
0.0 0.0 -1.182109870602e+02 
-2.588656449543e+01 -9.483772530945e+00 0.0 
-9.483772530945e+00 -1.068852241364e+01 0.0 
0.0 0.0 -1.155347611346e+01 
-1.092973016782e+02 1.758165194451e+00 0.0 
1.758165194451e+00 -2.870376503669e+02 0.0 
0.0 0.0 -1.185004856135e+02 
-1.079717298626e+01 -4.335894703035e+00 0.0 
-4.335894703035e+00 -1.205495758577e+01 0.0 
0.0 0.0 -5.840586813042e+00 
-3.687946181636e+01 -2.306448413755e+01 0.0 
-2.306448413755e+01 -3.563162271804e+01 0.0 
0.0 0.0 -2.174058573434e+01 
-1.046894767354e+02 1.695982240004e-01 0.0 
1.695982240004e-01 -2.767825876874e+02 0.0 
0.0 0.0 -1.140416193268e+02 
-1.495420563642e+02 -1.251380033371e+00 0.0 
-1.251380033371e+00 -3.503494114900e+02 0.0 
0.0 0.0 -1.495674403563e+02 
-1.034623084580e+02 7.404467913959e-01 0.0 
7.404467913959e-01 -2.309981881795e+02 0.0 
0.0 0.0 -9.993814899126e+01 
-8.507902253444e+01 9.017461685837e+00 0.0 
9.017461685837e+00 -1.779226924516e+02 0.0 
0.0 0.0 -7.850051449582e+01 
-6.571022398815e+00 -5.920533255382e-02 0.0 
-5.920533255382e-02 -2.567181459872e+01 0.0 
0.0 0.0 -9.387681375048e+00 
-1.171324031477e+02 -1.137162948105e+00 0.0 
-1.137162948105e+00 -2.763829785852e+02 0.0 
0.0 0.0 -1.176546145199e+02 
-1.473281310641e+02 1.066072854128e+00 0.0 
1.066072854128e+00 -3.450989724829e+02 0.0 
0.0 0.0 -1.473281310641e+02 
-1.487510044675e+02 1.725301749014e+00 0.0 
1.725301749014e+00 -3.463492143086e+02 0.0 
0.0 0.0 -1.481300656328e+02 
-7.771748302179e+01 6.306257749375e-01 0.0 
6.306257749375e-01 -1.657940527130e+02 0.0 
0.0 0.0 -7.265346072045e+01 
-1.141414405941e+02 3.258657728640e+00 0.0 
3.258657728640e+00 -2.968446553241e+02 0.0 
0.0 0.0 -1.228958287754e+02 
-1.480815901061e+02 2.504297495309e+00 0.0 
2.504297495309e+00 -3.468570435809e+02 0.0 
0.0 0.0 -1.480815901061e+02 
-1.228262275542e+02 1.209361118587e+01 0.0 
1.209361118587e+01 -2.960189756730e+02 0.0 
0.0 0.0 -1.252535609681e+02 
-1.307914330039e+01 -3.192124060173e-01 0.0 
-3.192124060173e-01 -4.134702047928e+01 0.0 
0.0 0.0 -1.592784913390e+01 
-6.494031311256e+00 -1.107146646746e-01 0.0 
-1.107146646746e-01 -2.533536681831e+01 0.0 
0.0 0.0 -8.540046032333e+00 
-6.114123286662e+00 1.659963479238e-01 0.0 
1.659963479238e-01 -2.513388680308e+01 0.0 
0.0 0.0 -8.974403026923e+00 
-7.419334996180e+01 -1.094934154386e+00 0.0 
-1.094934154386e+00 -1.695257723145e+02 0.0 
0.0 0.0 -7.271573668290e+01 
-1.671670779010e+02 1.409411895902e-01 0.0 
1.409411895902e-01 -3.914687255062e+02 0.0 
0.0 0.0 -1.671907410222e+02 
-1.403333978867e+02 9.991287955528e-01 0.0 
9.991287955528e-01 -3.247740302283e+02 0.0 
0.0 0.0 -1.391322284345e+02 
-2.152057185202e-01 2.018816849831e-02 0.0 
2.018816849831e-02 -9.242915204532e+00 0.0 
0.0 0.0 -2.271291689753e+00 
-8.699812276976e+01 4.735535005920e-01 0.0 
4.735535005920e-01 -2.000348268023e+02 0.0 
0.0 0.0 -8.570988487163e+01 
-1.676257079944e+02 -2.696168467211e-01 0.0 
-2.696168467211e-01 -3.924599853202e+02 0.0 
0.0 0.0 -1.676257079944e+02 
-1.669310048294e+02 -5.314931151054e-01 0.0 
-5.314931151054e-01 -3.913428030067e+02 0.0 
0.0 0.0 -1.670821423508e+02 
-1.666888412157e+02 1.844295114507e+00 0.0 
1.844295114507e+00 -3.940766896733e+02 0.0 
0.0 0.0 -1.678296592667e+02 
-1.128327509774e+02 -7.153369370435e-01 0.0 
-7.153369370435e-01 -2.550962047813e+02 0.0 
0.0 0.0 -1.099786867276e+02 
-1.248790009321e+02 9.103300691700e-01 0.0 
9.103300691700e-01 -2.848934597122e+02 0.0 
0.0 0.0 -1.225317381933e+02 
-1.669320573017e+02 -2.560194479534e-01 0.0 
-2.560194479534e-01 -3.908414670373e+02 0.0 
0.0 0.0 -1.669320573017e+02 
-1.674702860831e+02 -1.705626271528e-01 0.0 
-1.705626271528e-01 -3.920973341939e+02 0.0 
0.0 0.0 -1.674702860831e+02 
-1.208591420344e+02 -5.152670522401e-01 0.0 
-5.152670522401e-01 -2.747806598440e+02 0.0 
0.0 0.0 -1.182919405635e+02 
-9.913650530398e-01 -2.856840946716e-01 0.0 
-2.856840946716e-01 -6.657120951802e+00 0.0 
0.0 0.0 -1.190394860543e+00 
-7.623063938466e+01 1.977740648398e-01 0.0 
1.977740648398e-01 -1.648591785737e+02 0.0 
0.0 0.0 -7.192694538751e+01 
-7.738507040371e+01 3.829148714610e-01 0.0 
3.829148714610e-01 -1.659650501947e+02 0.0 
0.0 0.0 -7.260503617951e+01 
-3.416316303253e-01 -4.963207400699e-02 0.0 
-4.963207400699e-02 -9.263837998275e+00 0.0 
0.0 0.0 -2.363064610723e+00 
-1.684174265895e+02 1.528768352787e-01 0.0 
1.528768352787e-01 -3.943073287089e+02 0.0 
0.0 0.0 -1.684174265895e+02 
-1.663698819282e+02 1.057979474025e+00 0.0 
1.057979474025e+00 -3.933576695144e+02 0.0 
0.0 0.0 -1.675182654328e+02 
-1.681780543726e+02 9.863286289104e-01 0.0 
9.863286289104e-01 -3.937487935360e+02 0.0 
0.0 0.0 -1.681780543726e+02 
-1.147865294702e+00 -3.053324842009e-02 0.0 
-3.053324842009e-02 -7.715601017698e+00 0.0 
0.0 0.0 -1.465219319356e+00 
-1.298833415239e+00 -1.380320346330e-01 0.0 
-1.380320346330e-01 -7.801567160175e+00 0.0 
0.0 0.0 -1.516381210169e+00 
-1.687777322605e+02 2.280383902066e+00 0.0 
2.280383902066e+00 -3.951480419412e+02 0.0 
0.0 0.0 -1.687777322605e+02 
-1.686002049041e+02 1.648059830043e+00 0.0 
1.648059830043e+00 -3.947338114430e+02 0.0 
0.0 0.0 -1.686002049041e+02 
-1.086460349855e+02 9.588736330147e-01 0.0 
9.588736330147e-01 -2.451467659903e+02 0.0 
0.0 0.0 -1.057378402927e+02 
-7.548792792871e+01 -6.784748642618e-02 0.0 
-6.784748642618e-02 -1.643829616135e+02 0.0 
0.0 0.0 -7.156126686265e+01 
-1.170061982021e+02 9.494184888829e-01 0.0 
9.494184888829e-01 -2.650142579991e+02 0.0 
0.0 0.0 -1.142061368603e+02 
-9.245711725174e+01 9.162327303577e-01 0.0 
9.162327303577e-01 -2.056919170856e+02 0.0 
0.0 0.0 -8.904471030121e+01 
-7.554482077640e+01 -3.208260092328e-02 0.0 
-3.208260092328e-02 -1.644447289194e+02 0.0 
0.0 0.0 -7.159686490874e+01 
-2.167461335680e+00 -1.566603619288e-01 0.0 
-1.566603619288e-01 -7.143244092135e+00 0.0 
0.0 0.0 -1.643845992602e+00 
-2.037147231131e+00 3.485367159223e-01 0.0 
3.485367159223e-01 -7.831810999738e+00 0.0 
0.0 0.0 -1.646158056860e+00 
-1.874673061836e+00 1.664180300305e-01 0.0 
1.664180300305e-01 -7.641649417408e+00 0.0 
0.0 0.0 -1.653014774548e+00 
-2.264502418372e+00 -5.625877561147e-02 0.0 
-5.625877561147e-02 -7.585945754524e+00 0.0 
0.0 0.0 -8.772311835982e-01 
-9.121246447261e+01 -1.202104340112e+00 0.0 
-1.202104340112e+00 -2.102919687615e+02 0.0 
0.0 0.0 -9.005132997024e+01 
-8.278539843714e+01 -1.112481004015e+00 0.0 
-1.112481004015e+00 -1.898016649236e+02 0.0 
0.0 0.0 -8.137611900821e+01 
-1.976376365809e+00 -1.184281741154e-01 0.0 
-1.184281741154e-01 -9.381707365562e+00 0.0 
0.0 0.0 -3.984452590347e+00 
-1.163955145193e+02 -1.063776958493e+00 0.0 
-1.063776958493e+00 -2.699825681721e+02 0.0 
0.0 0.0 -1.155134248074e+02 
-3.101593582900e+00 -4.012694393100e-01 0.0 
-4.012694393100e-01 -9.435332953106e+00 0.0 
0.0 0.0 -4.332917133575e+00 
-1.488834492114e+02 5.195132530497e+00 0.0 
5.195132530497e+00 -3.487280481599e+02 0.0 
0.0 0.0 -1.488834492114e+02 
-1.477198752613e+02 2.085703024167e+00 0.0 
2.085703024167e+00 -3.460130422764e+02 0.0 
0.0 0.0 -1.477198752613e+02 
-1.481262418169e+02 3.600647066206e+00 0.0 
3.600647066206e+00 -3.469612309062e+02 0.0 
0.0 0.0 -1.481262418169e+02 
-2.777341346568e+01 -1.243956456986e+00 0.0 
-1.243956456986e+00 -6.877417128756e+01 0.0 
0.0 0.0 -2.856427542597e+01 
-5.651145821713e+01 -1.145787813712e+00 0.0 
-1.145787813712e+00 -1.291411922770e+02 0.0 
0.0 0.0 -5.529579514824e+01 
-1.474076560005e+02 1.714925360827e+00 0.0 
1.714925360827e+00 -3.452845306677e+02 0.0 
0.0 0.0 -1.474076560005e+02 
-1.417884210555e+02 -8.374175645878e-01 0.0 
-8.374175645878e-01 -3.303346143295e+02 0.0 
0.0 0.0 -1.412369106155e+02 
-1.482444909089e+02 1.425815200703e+00 0.0 
1.425815200703e+00 -3.472371454541e+02 0.0 
0.0 0.0 -1.482444909089e+02 
-1.501125274102e+02 -8.608024314903e-01 0.0 
-8.608024314903e-01 -3.502976260237e+02 0.0 
0.0 0.0 -1.497230460302e+02 
-1.584903294171e+02 -9.682844841433e-01 0.0 
-9.682844841433e-01 -3.702747392527e+02 0.0 
0.0 0.0 -1.582295206010e+02 
-7.848286310356e+01 5.491555646953e-01 0.0 
5.491555646953e-01 -1.796481081061e+02 0.0 
0.0 0.0 -7.703929136289e+01 
-1.487001466915e+02 2.075354677224e+00 0.0 
2.075354677224e+00 -3.461224039734e+02 0.0 
0.0 0.0 -1.480467651995e+02 
-1.486158036816e+02 1.114059786983e+00 0.0 
1.114059786983e+00 -3.464058811859e+02 0.0 
0.0 0.0 -1.481065054603e+02 
-1.455171914190e+02 7.387830779760e-01 0.0 
7.387830779760e-01 -3.393296187157e+02 0.0 
0.0 0.0 -1.450540430404e+02 
-1.540702592056e+02 7.461799912434e-01 0.0 
7.461799912434e-01 -3.597514758515e+02 0.0 
0.0 0.0 -1.537465205172e+02 
-1.249874754621e+02 -3.097772435658e-01 0.0 
-3.097772435658e-01 -2.921401771246e+02 0.0 
0.0 0.0 -1.247382957760e+02 
-1.692718411256e+01 -3.054023110644e+00 0.0 
-3.054023110644e+00 -9.517097231722e+00 0.0 
0.0 0.0 -8.509760586164e+00 
-7.960031075189e+01 -2.438674330795e+00 0.0 
-2.438674330795e+00 -1.851058309652e+02 0.0 
0.0 0.0 -7.901184251514e+01 
-6.604968711473e+00 -2.175826600978e-02 0.0 
-2.175826600978e-02 -2.493556061106e+01 0.0 
0.0 0.0 -8.548657557255e+00 
-1.472718106922e+02 4.384108529428e-01 0.0 
4.384108529428e-01 -3.495398722690e+02 0.0 
0.0 0.0 -1.486435048884e+02 
-8.330644101929e+01 -5.050152739574e+00 0.0 
-5.050152739574e+00 -1.965656412836e+02 0.0 
0.0 0.0 -8.356162469087e+01 
-1.370478562516e+02 -1.625884272181e+00 0.0 
-1.625884272181e+00 -3.226544350067e+02 0.0 
0.0 0.0 -1.375106873775e+02 
-4.440486006625e+01 -4.491269240362e+00 0.0 
-4.491269240362e+00 -9.946523830279e+01 0.0 
0.0 0.0 -4.276102951071e+01 
-1.705515962425e+01 -1.538916372421e+00 0.0 
-1.538916372421e+00 -4.144874226005e+01 0.0 
0.0 0.0 -1.715117056529e+01 
-1.461289194667e+02 2.218885519740e-01 0.0 
2.218885519740e-01 -3.425927834265e+02 0.0 
0.0 0.0 -1.462165108680e+02 
-8.831365184702e+01 -2.204386295163e+00 0.0 
-2.204386295163e+00 -2.053373261147e+02 0.0 
0.0 0.0 -8.769529338851e+01 
-6.964246146726e+01 -1.670562597836e+00 0.0 
-1.670562597836e+00 -1.595894029182e+02 0.0 
0.0 0.0 -6.836955931563e+01 
-1.378443296481e+02 -1.976017297800e-02 0.0 
-1.976017297800e-02 -3.233568923235e+02 0.0 
0.0 0.0 -1.379603665915e+02 
-1.317082305182e+02 -5.089093594745e-02 0.0 
-5.089093594745e-02 -3.026696635697e+02 0.0 
0.0 0.0 -1.299133682264e+02 
-6.987640300239e+01 5.771615887523e-01 0.0 
5.771615887523e-01 -1.596288888737e+02 0.0 
0.0 0.0 -6.845158756282e+01 
-1.252772844295e+02 1.018920114738e+00 0.0 
1.018920114738e+00 -3.120758873614e+02 0.0 
0.0 0.0 -1.308059515373e+02 
-1.114088357036e+02 -3.485171106821e+00 0.0 
-3.485171106821e+00 -2.722429012028e+02 0.0 
0.0 0.0 -1.146955210719e+02 
-1.240858684159e+02 -2.083228354758e+00 0.0 
-2.083228354758e+00 -2.913665871979e+02 0.0 
0.0 0.0 -1.242357366842e+02 
-1.281258821823e+02 -1.649884015206e+00 0.0 
-1.649884015206e+00 -2.998364038954e+02 0.0 
0.0 0.0 -1.279886858233e+02 
-5.955360096595e+01 1.042945206154e+01 0.0 
1.042945206154e+01 -1.872942497945e+02 0.0 
0.0 0.0 -7.365435522814e+01 
-7.742400436795e+01 8.498027931092e+00 0.0 
8.498027931092e+00 -1.583986439760e+02 0.0 
0.0 0.0 -7.034679450318e+01 
-8.223463980482e+01 1.544627997943e+01 0.0 
1.544627997943e+01 -2.009589250512e+02 0.0 
0.0 0.0 -8.455806945680e+01 
-1.158888663204e+02 -2.892259122444e+00 0.0 
-2.892259122444e+00 -2.754687028776e+02 0.0 
0.0 0.0 -1.170072707594e+02 
-1.417052719896e+02 2.599344447742e-01 0.0 
2.599344447742e-01 -3.315512041939e+02 0.0 
0.0 0.0 -1.415769428551e+02 
-1.321641960299e+02 -1.371605330037e+00 0.0 
-1.371605330037e+00 -3.086175845185e+02 0.0 
0.0 0.0 -1.318345341645e+02 
-4.784242295221e+01 -1.036735686259e+01 0.0 
-1.036735686259e+01 -1.067493753577e+02 0.0 
0.0 0.0 -4.597753949297e+01 
-1.315876922585e+02 4.267875602852e-01 0.0 
4.267875602852e-01 -3.016300258553e+02 0.0 
0.0 0.0 -1.295653154342e+02 
-1.235068409677e+02 2.903300318222e-01 0.0 
2.903300318222e-01 -2.815389632651e+02 0.0 
0.0 0.0 -1.211137412698e+02 
-8.693801511104e+01 -5.883274506085e-01 0.0 
-5.883274506085e-01 -1.911744958889e+02 0.0 
0.0 0.0 -8.303375329998e+01 
-1.201485132836e+02 -2.729407366926e+00 0.0 
-2.729407366926e+00 -2.873648457879e+02 0.0 
0.0 0.0 -1.218540077214e+02 
-1.200278767476e+02 -2.463063699723e+00 0.0 
-2.463063699723e+00 -2.833625040199e+02 0.0 
0.0 0.0 -1.206171142303e+02 
-1.321493176493e+02 1.686482274114e+00 0.0 
1.686482274114e+00 -3.035570672729e+02 0.0 
0.0 0.0 -1.303119154767e+02 
-1.277276926064e+02 2.299361627445e-01 0.0 
2.299361627445e-01 -2.922934766433e+02 0.0 
0.0 0.0 -1.256063507749e+02 
-1.089516657249e+02 -2.358507813113e+00 0.0 
-2.358507813113e+00 -2.661006026812e+02 0.0 
0.0 0.0 -1.121156805218e+02 
-1.500070469592e+02 3.755382495274e-01 0.0 
3.755382495274e-01 -3.507570634270e+02 0.0 
0.0 0.0 -1.498292331159e+02 
-1.226905962228e+02 1.401017475646e+00 0.0 
1.401017475646e+00 -2.779897606932e+02 0.0 
0.0 0.0 -1.198041070748e+02 
-1.325146837625e+02 3.525886157797e-01 0.0 
3.525886157797e-01 -3.087654757922e+02 0.0 
0.0 0.0 -1.319840478664e+02 
-1.517458175904e+02 6.015612989314e-01 0.0 
6.015612989314e-01 -3.582345498851e+02 0.0 
0.0 0.0 -1.525941102427e+02 
-1.319121418272e+02 2.253034825457e+00 0.0 
2.253034825457e+00 -3.022005906356e+02 0.0 
0.0 0.0 -1.298338197388e+02 
-1.121537315288e+02 1.946177762562e+00 0.0 
1.946177762562e+00 -2.513971795147e+02 0.0 
0.0 0.0 -1.086652733131e+02 
-1.210583219328e+02 -6.373505883462e-02 0.0 
-6.373505883462e-02 -3.010781068924e+02 0.0 
0.0 0.0 -1.262409286476e+02 
-4.387237066412e+01 -2.844671174172e+00 0.0 
-2.844671174172e+00 -1.000580643817e+02 0.0 
0.0 0.0 -4.277913051374e+01 
-4.561665573682e+01 -1.211661279906e+01 0.0 
-1.211661279906e+01 -1.007559202496e+02 0.0 
0.0 0.0 -4.351177279594e+01 
-2.192997454974e+01 -1.584767642055e+00 0.0 
-1.584767642055e+00 -4.851288845878e+01 0.0 
0.0 0.0 -2.073285890256e+01 
-2.721159275382e+01 -1.139603268712e+01 0.0 
-1.139603268712e+01 -3.385247435800e+01 0.0 
0.0 0.0 -1.699279851790e+01 
-1.281931018531e+02 1.871838429009e+00 0.0 
1.871838429009e+00 -2.927204323687e+02 0.0 
0.0 0.0 -1.258740602665e+02 
-1.449826325212e+02 -1.238772499561e+00 0.0 
-1.238772499561e+00 -3.390946678351e+02 0.0 
0.0 0.0 -1.448231901069e+02 
-1.674923960729e+01 -5.831272922887e+00 0.0 
-5.831272922887e+00 -2.837600368780e+01 0.0 
0.0 0.0 -1.241282746278e+01 
-1.352226887247e+02 8.507667093243e+00 0.0 
8.507667093243e+00 -3.040608111731e+02 0.0 
0.0 0.0 -1.313850499694e+02 
-9.115932925361e+01 -3.307372755248e-01 0.0 
-3.307372755248e-01 -2.002740752289e+02 0.0 
0.0 0.0 -8.703002134474e+01 
-1.340004879891e+02 -2.376907519741e-01 0.0 
-2.376907519741e-01 -3.155574460108e+02 0.0 
0.0 0.0 -1.344673802000e+02 
-1.364710948387e+02 -1.432100710647e+00 0.0 
-1.432100710647e+00 -3.193946875225e+02 0.0 
0.0 0.0 -1.363597347084e+02 
-5.942041620448e+01 -1.104315875478e+01 0.0 
-1.104315875478e+01 -1.559261333206e+02 0.0 
0.0 0.0 -6.420396485752e+01 
-1.370605297711e+02 2.813701771786e-01 0.0 
2.813701771786e-01 -3.199975770509e+02 0.0 
0.0 0.0 -1.367174320466e+02 
-8.739609368227e+01 1.493121510604e+00 0.0 
1.493121510604e+00 -1.913047463793e+02 0.0 
0.0 0.0 -8.321025201848e+01 
-1.156918146786e+02 8.842477182053e+00 0.0 
8.842477182053e+00 -2.959669772533e+02 0.0 
0.0 0.0 -1.230976375796e+02 
-1.556041483102e+02 -1.155940818777e+00 0.0 
-1.155940818777e+00 -3.661609803767e+02 0.0 
0.0 0.0 -1.561295386061e+02 
-4.160542571098e+01 -1.691670412233e+00 0.0 
-1.691670412233e+00 -9.637976912592e+01 0.0 
0.0 0.0 -4.099555845107e+01 
-1.519032039333e+02 8.009093724326e-01 0.0 
8.009093724326e-01 -3.610740926686e+02 0.0 
0.0 0.0 -1.534931889806e+02 
-1.163294919643e+02 1.773024262595e+00 0.0 
1.773024262595e+00 -2.622594877205e+02 0.0 
0.0 0.0 -1.131766939055e+02 
-4.746295801263e+01 -2.501231610839e+00 0.0 
-2.501231610839e+00 -1.084955732766e+02 0.0 
0.0 0.0 -4.638755938676e+01 
-5.289428337182e+01 -9.625258145548e+00 0.0 
-9.625258145548e+00 -1.228488459255e+02 0.0 
0.0 0.0 -5.232293878920e+01 
-9.886648903821e+01 -2.261379675305e+00 0.0 
-2.261379675305e+00 -2.292817111551e+02 0.0 
0.0 0.0 -9.804446005799e+01 
-1.030591419177e+02 2.868558259450e-01 0.0 
2.868558259450e-01 -2.293706315962e+02 0.0 
0.0 0.0 -9.932893205418e+01 
-6.739598205194e+01 -5.663201474900e+00 0.0 
-5.663201474900e+00 -1.560439449101e+02 0.0 
0.0 0.0 -6.663197808861e+01 
-1.204480654579e+02 1.709544051175e+00 0.0 
1.709544051175e+00 -2.730242078291e+02 0.0 
0.0 0.0 -1.176416819861e+02 
-1.082114740632e+02 1.718841269879e+00 0.0 
1.718841269879e+00 -2.419200190008e+02 0.0 
0.0 0.0 -1.046394479192e+02 
-9.536093021758e+01 -3.824799667557e+00 0.0 
-3.824799667557e+00 -2.244533626087e+02 0.0 
0.0 0.0 -9.554428784788e+01 
-1.286297890311e+02 4.775305953762e-02 0.0 
4.775305953762e-02 -3.002246640770e+02 0.0 
0.0 0.0 -1.282563359324e+02 
-1.333087472521e+02 1.339370378103e-02 0.0 
1.339370378103e-02 -3.118799176875e+02 0.0 
0.0 0.0 -1.331565994819e+02 
-1.155704085149e+02 5.828348671248e-02 0.0 
5.828348671248e-02 -2.615883573618e+02 0.0 
0.0 0.0 -1.127476297630e+02 
-3.616989326628e+01 -1.304209149849e+00 0.0 
-1.304209149849e+00 -8.369560615007e+01 0.0 
0.0 0.0 -3.555964982491e+01 
-9.113156958837e+01 -3.510226516806e+00 0.0 
-3.510226516806e+00 -2.126033602753e+02 0.0 
0.0 0.0 -9.072047895909e+01 
-1.355769231215e+02 9.140981552942e+00 0.0 
9.140981552942e+00 -3.304307016586e+02 0.0 
0.0 0.0 -1.394022874340e+02 
-1.200667523859e+02 2.155792974714e+00 0.0 
2.155792974714e+00 -2.712827770310e+02 0.0 
0.0 0.0 -1.170048588251e+02 
-8.279469087400e+01 -3.929443803375e+00 0.0 
-3.929443803375e+00 -1.921788964313e+02 0.0 
0.0 0.0 -8.209207619159e+01 
-1.132383146619e+02 -1.919267529037e+00 0.0 
-1.919267529037e+00 -2.733770998803e+02 0.0 
0.0 0.0 -1.155846243627e+02 
-1.479635503070e+02 1.102638472127e+00 0.0 
1.102638472127e+00 -3.537526646771e+02 0.0 
0.0 0.0 -1.501148644952e+02 
-1.116338511120e+02 2.669085274095e-01 0.0 
2.669085274095e-01 -2.508956667574e+02 0.0 
0.0 0.0 -1.083588553608e+02 
-2.905323139873e+01 -7.420325369893e+00 0.0 
-7.420325369893e+00 -1.225434813249e+02 0.0 
0.0 0.0 -4.759036870606e+01 
-1.905312302827e+01 -5.176112395867e-01 0.0 
-5.176112395867e-01 -4.668246926800e+01 0.0 
0.0 0.0 -1.932067768888e+01 
-3.181011439596e+01 5.555399228278e+00 0.0 
5.555399228278e+00 -1.412359660508e+02 0.0 
0.0 0.0 -5.121416389945e+01 
-1.410472374673e+02 -1.464322155294e+00 0.0 
-1.464322155294e+00 -3.308994026880e+02 0.0 
0.0 0.0 -1.411839920466e+02 
-1.072847638618e+02 3.068870476158e-01 0.0 
3.068870476158e-01 -2.401174587452e+02 0.0 
0.0 0.0 -1.038206667821e+02 
-1.079335859186e+02 1.303419501628e-02 0.0 
1.303419501628e-02 -2.498034846076e+02 0.0 
0.0 0.0 -1.069211211579e+02 
-9.507493466641e+01 2.799681073376e-02 0.0 
2.799681073376e-02 -2.097338143827e+02 0.0 
0.0 0.0 -9.104262471474e+01 
-1.391200986653e+02 2.800635623626e+00 0.0 
2.800635623626e+00 -3.413532390784e+02 0.0 
0.0 0.0 -1.437420013231e+02 
-9.931579552666e+01 -3.161490848914e+00 0.0 
-3.161490848914e+00 -2.325193501698e+02 0.0 
0.0 0.0 -9.915054370894e+01 
-1.325855333577e+02 -1.717719371675e+00 0.0 
-1.717719371675e+00 -3.111937172432e+02 0.0 
0.0 0.0 -1.327337751803e+02 
-4.330068161190e+01 -6.342745810902e-01 0.0 
-6.342745810902e-01 -1.003286524066e+02 0.0 
0.0 0.0 -4.268880020555e+01 
-1.512367146885e+02 -1.197563414175e+00 0.0 
-1.197563414175e+00 -3.581233284729e+02 0.0 
0.0 0.0 -1.524080129484e+02 
-9.645129528805e+01 -1.858742568839e+00 0.0 
-1.858742568839e+00 -2.253587380622e+02 0.0 
0.0 0.0 -9.614301000509e+01 
-4.693794664783e+01 -2.189011996330e-01 0.0 
-2.189011996330e-01 -1.087814417966e+02 0.0 
0.0 0.0 -4.631581653334e+01 
-9.194833926891e+01 -1.410840914186e+00 0.0 
-1.410840914186e+00 -2.134404206713e+02 0.0 
0.0 0.0 -9.121662798206e+01 
-7.100576042592e+01 -4.770780525648e+00 0.0 
-4.770780525648e+00 -1.640618317132e+02 0.0 
0.0 0.0 -7.012027764174e+01 
-5.610191837049e+01 -4.175888519213e+00 0.0 
-4.175888519213e+00 -1.282951183944e+02 0.0 
0.0 0.0 -5.491911102946e+01 
-1.070366917317e+02 -1.989578914578e+00 0.0 
-1.989578914578e+00 -2.488704144036e+02 0.0 
0.0 0.0 -1.063721318406e+02 
-1.474522118393e+00 2.859460327730e-01 0.0 
2.859460327730e-01 -9.680369065944e+00 0.0 
0.0 0.0 -3.014948256925e+00 
-1.849561230990e+00 -1.616572854242e-01 0.0 
-1.616572854242e-01 -9.742795125551e+00 0.0 
0.0 0.0 -3.424763196718e+00 
-1.210597502840e+02 -6.985831722320e-01 0.0 
-6.985831722320e-01 -2.841878691435e+02 0.0 
0.0 0.0 -1.211742858283e+02 
-3.969177460986e+01 -9.820962067701e-01 0.0 
-9.820962067701e-01 -9.210498239833e+01 0.0 
0.0 0.0 -3.913902710246e+01 
-1.215167918348e+02 -1.053678708182e+00 0.0 
-1.053678708182e+00 -2.883133016156e+02 0.0 
0.0 0.0 -1.225490280351e+02 
-1.174302554552e+02 -1.484333723407e+00 0.0 
-1.484333723407e+00 -2.807926810219e+02 0.0 
0.0 0.0 -1.190668809431e+02 
-7.542553523861e+01 -6.864209686735e+00 0.0 
-6.864209686735e+00 -1.811190099236e+02 0.0 
0.0 0.0 -7.656336354867e+01 
-4.883724656034e+01 -1.396310790195e+01 0.0 
-1.396310790195e+01 -1.313582820540e+02 0.0 
0.0 0.0 -5.365865858430e+01 
-1.275361643246e+02 2.996861539893e+00 0.0 
2.996861539893e+00 -2.894452143679e+02 0.0 
0.0 0.0 -1.246944136078e+02 
-2.797493155331e+01 2.654534703973e+01 0.0 
2.654534703973e+01 -9.757359244076e+01 0.0 
0.0 0.0 -3.898805482470e+01 
-7.468544238954e+01 -3.936391968546e+00 0.0 
-3.936391968546e+00 -1.724694170495e+02 0.0 
0.0 0.0 -7.374645783172e+01 
-1.437960414342e+02 3.843276141484e+00 0.0 
3.843276141484e+00 -3.511848245745e+02 0.0 
0.0 0.0 -1.480942598026e+02 
-3.447077132314e+01 -2.399216297680e+00 0.0 
-2.399216297680e+00 -7.944487528127e+01 0.0 
0.0 0.0 -3.377469398132e+01 
-9.991756535562e+01 1.664242094702e+00 0.0 
1.664242094702e+00 -2.209457840253e+02 0.0 
0.0 0.0 -9.585900481428e+01 
-9.172476993621e+01 1.497896179782e+00 0.0 
1.497896179782e+00 -2.008643468573e+02 0.0 
0.0 0.0 -8.737673503807e+01 
-3.543182643341e+01 -3.367634868370e+00 0.0 
-3.367634868370e+00 -7.844320325485e+01 0.0 
0.0 0.0 -3.376250890648e+01 
-1.435332540087e+02 1.222402488009e+00 0.0 
1.222402488009e+00 -3.460152392298e+02 0.0 
0.0 0.0 -1.464645479716e+02 
-1.158011352173e+02 2.745988757809e+00 0.0 
2.745988757809e+00 -2.588396342286e+02 0.0 
0.0 0.0 -1.119922308338e+02 
-4.052268128489e+01 -3.200864889700e+00 0.0 
-3.200864889700e+00 -9.181428770945e+01 0.0 
0.0 0.0 -3.930109069830e+01 
-1.311261075847e+02 3.383289028653e+00 0.0 
3.383289028653e+00 -2.982797113430e+02 0.0 
0.0 0.0 -1.284217456783e+02 
-1.301210192504e+02 1.849232529841e+00 0.0 
1.849232529841e+00 -2.975110523234e+02 0.0 
0.0 0.0 -1.278896214721e+02 
-4.521423357537e+01 -1.808764036055e+00 0.0 
-1.808764036055e+00 -1.034694460522e+02 0.0 
0.0 0.0 -4.420510388826e+01 
-5.596898723772e+01 1.645392293498e+01 0.0 
1.645392293498e+01 -1.116858938702e+02 0.0 
0.0 0.0 -4.989646433239e+01 
-4.752050442370e+01 -3.691730753500e+00 0.0 
-3.691730753500e+00 -1.075026112327e+02 0.0 
0.0 0.0 -4.610693469693e+01 
-1.295230659379e+02 -3.167285510178e-01 0.0 
-3.167285510178e-01 -3.038507130621e+02 0.0 
0.0 0.0 -1.296121337000e+02 
-1.032185091730e+02 -2.554304531255e+00 0.0 
-2.554304531255e+00 -2.407314422666e+02 0.0 
0.0 0.0 -1.027849854319e+02 
-1.334606170430e+02 5.674690250810e+00 0.0 
5.674690250810e+00 -3.028476816148e+02 0.0 
0.0 0.0 -1.304924895974e+02 
-1.266979906614e+02 1.279091780433e+00 0.0 
1.279091780433e+00 -2.887998546903e+02 0.0 
0.0 0.0 -1.242493536055e+02 
-1.255465064014e+02 -6.673249852663e-01 0.0 
-6.673249852663e-01 -2.960125386791e+02 0.0 
0.0 0.0 -1.260677135242e+02 
-1.243838800754e+02 -2.363870537529e+00 0.0 
-2.363870537529e+00 -2.951478673691e+02 0.0 
0.0 0.0 -1.254595242334e+02 
-4.015013080844e+01 -5.476809055959e+00 0.0 
-5.476809055959e+00 -8.685464520241e+01 0.0 
0.0 0.0 -3.770143280326e+01 
-1.285270252827e+02 -2.028323679988e+00 0.0 
-2.028323679988e+00 -3.030534092091e+02 0.0 
0.0 0.0 -1.290741303475e+02 
-1.149029355532e+02 1.025176559015e+00 0.0 
1.025176559015e+00 -2.581697202883e+02 0.0 
0.0 0.0 -1.115217967525e+02 
-1.040278084993e+02 -6.275524918844e-01 0.0 
-6.275524918844e-01 -2.415018048968e+02 0.0 
0.0 0.0 -1.032588840188e+02 
-1.080204262258e+02 1.978866911132e+00 0.0 
1.978866911132e+00 -2.407090469253e+02 0.0 
0.0 0.0 -1.042188419453e+02 
-1.198106301894e+02 2.671613952617e+00 0.0 
2.671613952617e+00 -2.695717754033e+02 0.0 
0.0 0.0 -1.164147216778e+02 
-8.145588513221e+01 1.005699068051e+01 0.0 
1.005699068051e+01 -2.255895153334e+02 0.0 
0.0 0.0 -9.171362013969e+01 
-1.230314224722e+02 8.516214663100e-01 0.0 
8.516214663100e-01 -2.797307212122e+02 0.0 
0.0 0.0 -1.204286431053e+02 
-8.701947648327e+01 -3.205219293446e+00 0.0 
-3.205219293446e+00 -2.017769286740e+02 0.0 
0.0 0.0 -8.623892154720e+01 
-1.002060586019e+02 -1.186547627447e+00 0.0 
-1.186547627447e+00 -2.333411598768e+02 0.0 
0.0 0.0 -9.966416554362e+01 
-6.650590264443e+01 -4.231133821760e+00 0.0 
-4.231133821760e+00 -1.523822037876e+02 0.0 
0.0 0.0 -6.526643192960e+01 
-6.976923301584e+01 -7.084523693519e+00 0.0 
-7.084523693519e+00 -1.684819455731e+02 0.0 
0.0 0.0 -7.107535357669e+01 
-1.110900047752e+02 6.311792008793e-01 0.0 
6.311792008793e-01 -2.491195772348e+02 0.0 
0.0 0.0 -1.076628746030e+02 
-9.200387764318e+01 -4.344292137446e+00 0.0 
-4.344292137446e+00 -2.331498864946e+02 0.0 
0.0 0.0 -9.714612924134e+01 
-5.078979692354e+01 -2.940739826748e+00 0.0 
-2.940739826748e+00 -1.156754602243e+02 0.0 
0.0 0.0 -4.953957714436e+01 
-2.563067522424e+01 -1.903923342029e+00 0.0 
-1.903923342029e+00 -5.771162532556e+01 0.0 
0.0 0.0 -2.460269016494e+01 
-1.119403735046e+02 2.326996872656e+00 0.0 
2.326996872656e+00 -2.497648042366e+02 0.0 
0.0 0.0 -1.081115533224e+02 
-5.135162072936e+01 -5.420350486566e+00 0.0 
-5.420350486566e+00 -1.153632848989e+02 0.0 
0.0 0.0 -4.961447168847e+01 
-1.516882931407e+02 -5.346853018311e-01 0.0 
-5.346853018311e-01 -3.607910469433e+02 0.0 
0.0 0.0 -1.533438020252e+02 
-1.152680992933e+02 5.768382145042e-01 0.0 
5.768382145042e-01 -2.598914905945e+02 0.0 
0.0 0.0 -1.121478769663e+02 
-1.329779415561e+02 -1.888674884318e+00 0.0 
-1.888674884318e+00 -3.147652097890e+02 0.0 
0.0 0.0 -1.339229454035e+02 
-1.588735894920e+02 6.105514115934e+00 0.0 
6.105514115934e+00 -3.779259505419e+02 0.0 
0.0 0.0 -1.606398620102e+02 
-8.355001027713e+01 -1.625400298266e+00 0.0 
-1.625400298266e+00 -1.931890002834e+02 0.0 
0.0 0.0 -8.262170316816e+01 
-4.605420960208e+01 -4.254555504252e+00 0.0 
-4.254555504252e+00 -1.032846950770e+02 0.0 
0.0 0.0 -4.440167140373e+01 
-3.122937383978e+01 -4.370551303897e+00 0.0 
-4.370551303897e+00 -6.634741275093e+01 0.0 
0.0 0.0 -2.887303597721e+01 
-1.258520562846e+02 -8.347553006828e-01 0.0 
-8.347553006828e-01 -3.001754777570e+02 0.0 
0.0 0.0 -1.274082602125e+02 
-1.035430742229e+02 -5.734146457048e-03 0.0 
-5.734146457048e-03 -2.312033288090e+02 0.0 
0.0 0.0 -1.000239209096e+02 
-2.149344692360e+01 -2.960070081134e+00 0.0 
-2.960070081134e+00 -4.684106798178e+01 0.0 
0.0 0.0 -2.010035447161e+01 
-6.799469105576e+01 -3.392225498757e+00 0.0 
-3.392225498757e+00 -1.567971669879e+02 0.0 
0.0 0.0 -6.703755741309e+01 
-3.794032281911e+01 -4.465446540650e-02 0.0 
-4.465446540650e-02 -8.922902308034e+01 0.0 
0.0 0.0 -3.775080376983e+01 
-1.039340231328e+02 1.955522004021e+00 0.0 
1.955522004021e+00 -2.300195162639e+02 0.0 
0.0 0.0 -9.978606181900e+01 
-7.174648403620e+01 -2.524489607014e+00 0.0 
-2.524489607014e+00 -1.648680059545e+02 0.0 
0.0 0.0 -7.058434699720e+01 
-1.158317428418e+02 -3.103734724180e+00 0.0 
-3.103734724180e+00 -2.797483577281e+02 0.0 
0.0 0.0 -1.182740301710e+02 
-6.641994528997e+01 -1.758565441845e+00 0.0 
-1.758565441845e+00 -1.527145245977e+02 0.0 
0.0 0.0 -6.534034096631e+01 
-1.241282753899e+02 2.060767049920e+00 0.0 
2.060767049920e+00 -2.821336056351e+02 0.0 
0.0 0.0 -1.214785643075e+02 
-5.944730931324e+01 -5.697607603829e+00 0.0 
-5.697607603829e+00 -1.357650808415e+02 0.0 
0.0 0.0 -5.816371704643e+01 
-1.258743920887e+02 -6.866748169414e-01 0.0 
-6.866748169414e-01 -3.044324822954e+02 0.0 
0.0 0.0 -1.286920623152e+02 
-4.598437870442e+01 -9.395462571429e+00 0.0 
-9.395462571429e+00 -1.015221836009e+02 0.0 
0.0 0.0 -4.385196869160e+01 
-1.216393251647e+02 -1.156774694597e+00 0.0 
-1.156774694597e+00 -2.926666196205e+02 0.0 
0.0 0.0 -1.238917834356e+02 
-9.588969234194e+01 -9.488718903097e-01 0.0 
-9.488718903097e-01 -2.221215674889e+02 0.0 
0.0 0.0 -9.500337794924e+01 
-1.287537938147e+02 -2.155242190405e+00 0.0 
-2.155242190405e+00 -3.069346622391e+02 0.0 
0.0 0.0 -1.303065368161e+02 
-5.291149077488e+01 -2.340981511198e-01 0.0 
-2.340981511198e-01 -1.808913781670e+02 0.0 
0.0 0.0 -6.974086068256e+01 
-3.818800473061e+01 -2.259496641000e+00 0.0 
-2.259496641000e+00 -8.852783784286e+01 0.0 
0.0 0.0 -3.761475277204e+01 
-9.612055024447e+01 1.405656981869e+00 0.0 
1.405656981869e+00 -2.118873419193e+02 0.0 
0.0 0.0 -9.200236764912e+01 
-1.104985847563e+02 2.412782629862e+00 0.0 
2.412782629862e+00 -2.876863951790e+02 0.0 
0.0 0.0 -1.190554939806e+02 
-7.882389768411e+01 1.241024181671e+01 0.0 
1.241024181671e+01 -1.755674411567e+02 0.0 
0.0 0.0 -7.591740165224e+01 
-1.040860645239e+02 1.711346070905e+00 0.0 
1.711346070905e+00 -2.315161400480e+02 0.0 
0.0 0.0 -1.002806613716e+02 
-5.024061596259e+01 -1.150461861292e+01 0.0 
-1.150461861292e+01 -1.174315035080e+02 0.0 
0.0 0.0 -4.990163584119e+01 
-1.068238661795e+02 1.107337740428e+00 0.0 
1.107337740428e+00 -2.369068739637e+02 0.0 
0.0 0.0 -1.027192220430e+02 
-3.360392947080e+01 -2.243731798831e-01 0.0 
-2.243731798831e-01 -8.029003263485e+01 0.0 
0.0 0.0 -3.376818863169e+01 
-1.433082288021e+02 5.575603019227e-01 0.0 
5.575603019227e-01 -3.425272106572e+02 0.0 
0.0 0.0 -1.453506318378e+02 
-1.149149997273e+02 3.962490228517e+00 0.0 
3.962490228517e+00 -2.973237485980e+02 0.0 
0.0 0.0 -1.232716244976e+02 
-1.208583008521e+02 9.775840045591e+00 0.0 
9.775840045591e+00 -3.039393201023e+02 0.0 
0.0 0.0 -1.270392862863e+02 
-1.351591674425e+02 3.309471451188e+00 0.0 
3.309471451188e+00 -3.096563097957e+02 0.0 
0.0 0.0 -1.330446431715e+02 
-1.000821191341e+02 -3.125235394305e+00 0.0 
-3.125235394305e+00 -2.520003083041e+02 0.0 
0.0 0.0 -1.052247282315e+02 
-3.722918402845e+01 -3.619419503941e+00 0.0 
-3.619419503941e+00 -8.341426032077e+01 0.0 
0.0 0.0 -3.579303330477e+01 
-1.129243310252e+02 -1.775560421293e+00 0.0 
-1.775560421293e+00 -2.780148308472e+02 0.0 
0.0 0.0 -1.168817485617e+02 
-1.471114579283e+02 -3.545323670701e-01 0.0 
-3.545323670701e-01 -3.530684477588e+02 0.0 
0.0 0.0 -1.496539717061e+02 
-5.932994324260e+01 -1.094438917427e+01 0.0 
-1.094438917427e+01 -1.531108468740e+02 0.0 
0.0 0.0 -6.333223703498e+01 
-1.299715411525e+02 -5.205655750398e-01 0.0 
-5.205655750398e-01 -3.078075969637e+02 0.0 
0.0 0.0 -1.309337414349e+02 
-1.159866891897e+02 2.277128664516e+00 0.0 
2.277128664516e+00 -2.604817960676e+02 0.0 
0.0 0.0 -1.125405455772e+02 
-4.413344186818e+01 -1.509198430545e+01 0.0 
-1.509198430545e+01 -1.277758863058e+02 0.0 
0.0 0.0 -5.117279845220e+01 
-1.173342103555e+02 -1.479147848615e+00 0.0 
-1.479147848615e+00 -2.852847280813e+02 0.0 
0.0 0.0 -1.203856815310e+02 
-9.567628609239e+01 1.984381740848e+00 0.0 
1.984381740848e+00 -2.086121188717e+02 0.0 
0.0 0.0 -9.088652148921e+01 
-5.249539777087e+01 -9.281683572864e-01 0.0 
-9.281683572864e-01 -1.204739838654e+02 0.0 
0.0 0.0 -5.149081449089e+01 
-6.445696331858e+01 -4.317049720875e+00 0.0 
-4.317049720875e+00 -1.489509993776e+02 0.0 
0.0 0.0 -6.362238880885e+01 
-9.260365709434e+01 1.383332709375e+01 0.0 
1.383332709375e+01 -2.150951097938e+02 0.0 
0.0 0.0 -9.190963006644e+01 
-1.244234528877e+02 -2.425971092334e+00 0.0 
-2.425971092334e+00 -2.992194593088e+02 0.0 
0.0 0.0 -1.266928736590e+02 
-7.243249929272e+01 1.265336812333e+01 0.0 
1.265336812333e+01 -1.510807504138e+02 0.0 
0.0 0.0 -6.665397491195e+01 
-8.753356906493e+01 1.467346712105e+01 0.0 
1.467346712105e+01 -2.078341072962e+02 0.0 
0.0 0.0 -8.821030290834e+01 
-1.108622023144e+02 1.070332703734e+00 0.0 
1.070332703734e+00 -2.475046742563e+02 0.0 
0.0 0.0 -1.071100629712e+02 
-9.921400504502e+01 -3.765727301198e-02 0.0 
-3.765727301198e-02 -2.203636658911e+02 0.0 
0.0 0.0 -9.547330128084e+01 
-9.880111041129e+01 6.594349765572e-01 0.0 
6.594349765572e-01 -2.172030791304e+02 0.0 
0.0 0.0 -9.440125686252e+01 
-9.513392256533e+01 -2.764035980987e+00 0.0 
-2.764035980987e+00 -2.212353539476e+02 0.0 
0.0 0.0 -9.451078295387e+01 
-1.390728997596e+02 1.462301581223e+00 0.0 
1.462301581223e+00 -3.384322944493e+02 0.0 
0.0 0.0 -1.428515582627e+02 
-1.084055274760e+02 -2.006046035796e+00 0.0 
-2.006046035796e+00 -2.708459978314e+02 0.0 
0.0 0.0 -1.133754575922e+02 
-9.566385455092e+01 1.613836087462e+00 0.0 
1.613836087462e+00 -2.102440735208e+02 0.0 
0.0 0.0 -9.137237842151e+01 
-1.396281500434e+02 9.650812760765e+00 0.0 
9.650812760765e+00 -3.158251515332e+02 0.0 
0.0 0.0 -1.362359904730e+02 
-1.260562132244e+02 1.054315046419e+01 0.0 
1.054315046419e+01 -3.117840351747e+02 0.0 
0.0 0.0 -1.309520745197e+02 
-1.199989438151e+02 -2.696815268926e+00 0.0 
-2.696815268926e+00 -2.916319256093e+02 0.0 
0.0 0.0 -1.230892608273e+02 
-1.189748153869e+02 9.627582886130e-01 0.0 
9.627582886130e-01 -2.689299699592e+02 0.0 
0.0 0.0 -1.159714356038e+02 
-7.329755302856e+01 -5.865629947419e+00 0.0 
-5.865629947419e+00 -1.750464922860e+02 0.0 
0.0 0.0 -7.410321359436e+01 
-6.905512573381e+01 -5.204970027648e+00 0.0 
-5.204970027648e+00 -1.618992093303e+02 0.0 
0.0 0.0 -6.888630051922e+01 
-3.835829835677e+01 -2.819864069956e+00 0.0 
-2.819864069956e+00 -8.668066533328e+01 0.0 
0.0 0.0 -3.711168910701e+01 
-1.169408066373e+02 -1.001945572584e+00 0.0 
-1.001945572584e+00 -2.896905315816e+02 0.0 
0.0 0.0 -1.215894014657e+02 
-7.260473994036e+01 -4.173822189463e+00 0.0 
-4.173822189463e+00 -1.694215010940e+02 0.0 
0.0 0.0 -7.220787231031e+01 
-1.078830730523e+02 2.377490798822e+00 0.0 
2.377490798822e+00 -2.390329734605e+02 0.0 
0.0 0.0 -1.036748139538e+02 
-1.038299523410e+02 2.418210320328e+00 0.0 
2.418210320328e+00 -2.283836576901e+02 0.0 
0.0 0.0 -9.926408300933e+01 
-8.351628545379e+01 7.920035037785e+00 0.0 
7.920035037785e+00 -2.352427254160e+02 0.0 
0.0 0.0 -9.522770326094e+01 
-6.042499960673e+01 -7.688763180446e+00 0.0 
-7.688763180446e+00 -1.405669653190e+02 0.0 
0.0 0.0 -5.989758947773e+01 
-5.177709606851e+01 1.176856649249e+01 0.0 
1.176856649249e+01 -1.723943088016e+02 0.0 
0.0 0.0 -6.685142146103e+01 
-6.385985892380e+01 -6.630051778554e+00 0.0 
-6.630051778554e+00 -1.481847727497e+02 0.0 
0.0 0.0 -6.321338950205e+01 
-6.784847075915e+01 -7.396739138990e+00 0.0 
-7.396739138990e+00 -1.609037741952e+02 0.0 
0.0 0.0 -6.822567348630e+01 
-4.297091977876e+01 -4.869557040277e+00 0.0 
-4.869557040277e+00 -9.503134799477e+01 0.0 
0.0 0.0 -4.100068033206e+01 
-1.344618349240e+02 1.781659269215e+00 0.0 
1.781659269215e+00 -3.307330179377e+02 0.0 
0.0 0.0 -1.391584558585e+02 
-7.800221013831e+01 -7.596726779279e+00 0.0 
-7.596726779279e+00 -1.999737857709e+02 0.0 
0.0 0.0 -8.299279877277e+01 
-1.238032658055e+02 2.557522463572e+00 0.0 
2.557522463572e+00 -2.803461946544e+02 0.0 
0.0 0.0 -1.208448381380e+02 
-8.118662391528e+01 -6.810621101957e+00 0.0 
-6.810621101957e+00 -2.127822535801e+02 0.0 
0.0 0.0 -8.779066324860e+01 
-1.108734266256e+02 -3.134313948919e+00 0.0 
-3.134313948919e+00 -2.768487866377e+02 0.0 
0.0 0.0 -1.159166639790e+02 
-9.391657260533e+01 -5.231381735560e+00 0.0 
-5.231381735560e+00 -2.385151089821e+02 0.0 
0.0 0.0 -9.932950447622e+01 
-8.459597949314e+01 1.481517107259e+01 0.0 
1.481517107259e+01 -2.135064165652e+02 0.0 
0.0 0.0 -8.903071881749e+01 
-4.181439345096e+01 -2.352958286586e+00 0.0 
-2.352958286586e+00 -9.513768342434e+01 0.0 
0.0 0.0 -4.068562306259e+01 
-1.424282104681e+02 -4.578433799318e-02 0.0 
-4.578433799318e-02 -3.452134386636e+02 0.0 
0.0 0.0 -1.458924947395e+02 
-1.486251389365e+02 2.088554374463e+00 0.0 
2.088554374463e+00 -3.580509674419e+02 0.0 
0.0 0.0 -1.516028319135e+02 
-1.134798941784e+02 1.030339660305e+01 0.0 
1.030339660305e+01 -2.615564983049e+02 0.0 
0.0 0.0 -1.121109177450e+02 
-7.145240236565e+01 -7.894101268825e+00 0.0 
-7.894101268825e+00 -1.738163444825e+02 0.0 
0.0 0.0 -7.318062405443e+01 
-1.022782255345e+02 -4.136212081683e+00 0.0 
-4.136212081683e+00 -2.577057742158e+02 0.0 
0.0 0.0 -1.075951999251e+02 
-1.069562191386e+02 6.305171501232e-01 0.0 
6.305171501232e-01 -2.383485362540e+02 0.0 
0.0 0.0 -1.031914266178e+02 
-7.696580034666e+01 -4.805006576920e+00 0.0 
-4.805006576920e+00 -1.822236801000e+02 0.0 
0.0 0.0 -7.735684413400e+01 
-7.286725805820e+01 1.644297378489e+01 0.0 
1.644297378489e+01 -1.686833473385e+02 0.0 
0.0 0.0 -7.206518161900e+01 
-5.941590127905e+01 -3.304600334297e+00 0.0 
-3.304600334297e+00 -1.362808728200e+02 0.0 
0.0 0.0 -5.830903222971e+01 
-5.330702185926e+01 -1.251445467656e+01 0.0 
-1.251445467656e+01 -1.335721684460e+02 0.0 
0.0 0.0 -5.566375709158e+01 
-7.719671686219e+01 -6.209724626349e+00 0.0 
-6.209724626349e+00 -1.882962727588e+02 0.0 
0.0 0.0 -7.924789688631e+01 
-5.456785561254e+01 -4.647588295650e+00 0.0 
-4.647588295650e+00 -1.235678431560e+02 0.0 
0.0 0.0 -5.304070963055e+01 
-4.878379917165e+01 -1.335125437452e+00 0.0 
-1.335125437452e+00 -1.119308569524e+02 0.0 
0.0 0.0 -4.781439683723e+01 
-9.641985545994e+01 -3.853300322608e+00 0.0 
-3.853300322608e+00 -2.398784484773e+02 0.0 
0.0 0.0 -1.004894911812e+02 
-1.154833902599e+02 -2.945625596485e+00 0.0 
-2.945625596485e+00 -2.841784487402e+02 0.0 
0.0 0.0 -1.194985517000e+02 
-1.331355897981e+02 1.005930945030e+01 0.0 
1.005930945030e+01 -3.082342184521e+02 0.0 
0.0 0.0 -1.320109424751e+02 
-1.942492575972e+00 -1.733395664482e-01 0.0 
-1.733395664482e-01 -8.603221282331e+00 0.0 
0.0 0.0 -1.770163940957e+00 
-7.480862255120e+01 -4.865074026901e+00 0.0 
-4.865074026901e+00 -2.130060491790e+02 0.0 
0.0 0.0 -8.594440151907e+01 
-7.644000234850e+01 -7.022594450960e+00 0.0 
-7.022594450960e+00 -2.066184782243e+02 0.0 
0.0 0.0 -8.451754417184e+01 
-7.477948709607e+01 -7.967280698119e+00 0.0 
-7.967280698119e+00 -1.869073759580e+02 0.0 
0.0 0.0 -7.810605891622e+01 
-1.028702713103e+02 6.522613925282e-01 0.0 
6.522613925282e-01 -2.276852674356e+02 0.0 
0.0 0.0 -9.876666162376e+01 
-8.581333404548e+01 -6.400324843833e+00 0.0 
-6.400324843833e+00 -2.192655879656e+02 0.0 
0.0 0.0 -9.112367660333e+01 
-6.288869132018e+01 -4.881991365257e+00 0.0 
-4.881991365257e+00 -1.439200564482e+02 0.0 
0.0 0.0 -6.164262433052e+01 
-8.082087562291e+01 -6.148036467115e+00 0.0 
-6.148036467115e+00 -2.014862353956e+02 0.0 
0.0 0.0 -8.429213330556e+01 
-1.193000549638e+02 4.745866666988e-01 0.0 
4.745866666988e-01 -2.706773275908e+02 0.0 
0.0 0.0 -1.165932147664e+02 
-6.278303601525e+01 -2.539411044312e+00 0.0 
-2.539411044312e+00 -1.443958808177e+02 0.0 
0.0 0.0 -6.175367504987e+01 
-2.446744740096e+01 -2.894713330817e+00 0.0 
-2.894713330817e+00 -5.465229198553e+01 0.0 
0.0 0.0 -2.333592181595e+01 
-3.413651453261e+01 -3.947553449491e+00 0.0 
-3.947553449491e+00 -7.497718701345e+01 0.0 
0.0 0.0 -3.233411046382e+01 
-5.315834632884e+01 -1.251217685396e+01 0.0 
-1.251217685396e+01 -1.362608851718e+02 0.0 
0.0 0.0 -5.642576945019e+01 
-6.414876675930e+01 -8.521568064751e+00 0.0 
-8.521568064751e+00 -1.537053360588e+02 0.0 
0.0 0.0 -6.495623084543e+01 
-7.964515687883e+01 -5.457234955005e+00 0.0 
-5.457234955005e+00 -2.189566078737e+02 0.0 
0.0 0.0 -8.918052942575e+01 
-8.421203763036e+01 -5.646359895944e+00 0.0 
-5.646359895944e+00 -2.143356650187e+02 0.0 
0.0 0.0 -8.916431079473e+01 
-4.371189074538e+01 -1.108754950142e+01 0.0 
-1.108754950142e+01 -9.503071029355e+01 0.0 
0.0 0.0 -4.084711124067e+01 
-3.205237710879e+01 -1.358635499261e+00 0.0 
-1.358635499261e+00 -7.463773025119e+01 0.0 
0.0 0.0 -3.160703220799e+01 
-9.944642245378e+01 3.021361976546e+00 0.0 
3.021361976546e+00 -2.158589931272e+02 0.0 
0.0 0.0 -9.419162467430e+01 
-5.421701727502e+01 -2.251448236470e+00 0.0 
-2.251448236470e+00 -1.239420138941e+02 0.0 
0.0 0.0 -5.304770935075e+01 
-1.284949385343e+02 -4.316835340396e-01 0.0 
-4.316835340396e-01 -3.188608639041e+02 0.0 
0.0 0.0 -1.338067407315e+02 
-1.290423170011e+02 1.018601705688e+01 0.0 
1.018601705688e+01 -3.003078591505e+02 0.0 
0.0 0.0 -1.284050528455e+02 
-1.047210266772e+02 6.213265186937e+00 0.0 
6.213265186937e+00 -2.247854354189e+02 0.0 
0.0 0.0 -9.845193862881e+01 
-1.262239684943e+02 2.558138769213e+00 0.0 
2.558138769213e+00 -2.857687710093e+02 0.0 
0.0 0.0 -1.231978218511e+02 
-1.371463838153e+02 9.888761760732e+00 0.0 
9.888761760732e+00 -3.163426666213e+02 0.0 
0.0 0.0 -1.356467151310e+02 
-7.967539123964e+01 1.013922856323e+01 0.0 
1.013922856323e+01 -2.248522529441e+02 0.0 
0.0 0.0 -9.095829325513e+01 
-1.212180351057e+02 1.018245921239e+01 0.0 
1.018245921239e+01 -2.809437073889e+02 0.0 
0.0 0.0 -1.202485227484e+02 
-4.811520860418e+01 -1.398495316837e+01 0.0 
-1.398495316837e+01 -1.131776655971e+02 0.0 
0.0 0.0 -4.767358105271e+01 
-8.486349990453e+01 -5.264421735586e+00 0.0 
-5.264421735586e+00 -2.080017285678e+02 0.0 
0.0 0.0 -8.745956854170e+01 
-7.640792600652e+01 1.380929012489e+01 0.0 
1.380929012489e+01 -2.027378196995e+02 0.0 
0.0 0.0 -8.334372371179e+01 
-3.973837478790e+01 -1.152528275332e+01 0.0 
-1.152528275332e+01 -1.419236734226e+02 0.0 
0.0 0.0 -5.405743177577e+01 
-4.355020761799e+01 -1.397984585130e+01 0.0 
-1.397984585130e+01 -9.109892762950e+01 0.0 
0.0 0.0 -3.863733710330e+01 
-7.157650182865e+01 -6.370372632355e+00 0.0 
-6.370372632355e+00 -1.685050787415e+02 0.0 
0.0 0.0 -7.162447417106e+01 
-7.977493420338e+01 -6.155165802888e+00 0.0 
-6.155165802888e+00 -2.082417646982e+02 0.0 
0.0 0.0 -8.600500967046e+01 
-8.281544314342e+01 -4.868388351386e+00 0.0 
-4.868388351386e+00 -2.204336903680e+02 0.0 
0.0 0.0 -9.057474005343e+01 
-5.792319807409e+01 -3.927250697919e+00 0.0 
-3.927250697919e+00 -1.318551988755e+02 0.0 
0.0 0.0 -5.653351908488e+01 
-8.922573975023e+01 -5.520232742012e+00 0.0 
-5.520232742012e+00 -2.317150507660e+02 0.0 
0.0 0.0 -9.588223715486e+01 
-7.799907207058e+01 -4.705043711727e+00 0.0 
-4.705043711727e+00 -2.143935122443e+02 0.0 
0.0 0.0 -8.731777529447e+01 
-7.840726610380e+01 -2.564151022473e+00 0.0 
-2.564151022473e+00 -2.243032320679e+02 0.0 
0.0 0.0 -9.041314945150e+01 
-6.566044369236e+01 -6.371402853848e+00 0.0 
-6.371402853848e+00 -1.548040693620e+02 0.0 
0.0 0.0 -6.573935391632e+01 
-1.150338348935e+02 6.477771202085e+00 0.0 
6.477771202085e+00 -2.974612603975e+02 0.0 
0.0 0.0 -1.233485285873e+02 
-1.118048650943e+02 2.821325738888e+00 0.0 
2.821325738888e+00 -2.481953852369e+02 0.0 
0.0 0.0 -1.076000750994e+02 
-7.385497148359e+01 -1.042593079637e+00 0.0 
-1.042593079637e+00 -2.180033916563e+02 0.0 
0.0 0.0 -8.715750894196e+01 
-1.379251136259e+02 2.280768175755e-01 0.0 
2.280768175755e-01 -3.376780733513e+02 0.0 
0.0 0.0 -1.422809560932e+02 
-4.995944832772e+01 -1.439870134825e+01 0.0 
-1.439870134825e+01 -1.303948130707e+02 0.0 
0.0 0.0 -5.370627841952e+01 
-1.481225913435e+02 2.153403684637e+00 0.0 
2.153403684637e+00 -3.599341466325e+02 0.0 
0.0 0.0 -1.520170213928e+02 
-8.446122128528e+01 -5.634382223184e+00 0.0 
-5.634382223184e+00 -2.251483949577e+02 0.0 
0.0 0.0 -9.248288487290e+01 
-1.416551651852e+02 9.685115459683e+00 0.0 
9.685115459683e+00 -3.263496131049e+02 0.0 
0.0 0.0 -1.400014334870e+02 
-1.077556788816e+02 9.963144794537e+00 0.0 
9.963144794537e+00 -2.367414245842e+02 0.0 
0.0 0.0 -1.029491310398e+02 
-4.738116712203e+01 -1.380233634089e+01 0.0 
-1.380233634089e+01 -1.157149389336e+02 0.0 
0.0 0.0 -4.852883181668e+01 
-1.085235455362e+02 7.130012232284e+00 0.0 
7.130012232284e+00 -2.345385405635e+02 0.0 
0.0 0.0 -1.025186258299e+02 
-1.299213235509e+02 3.958669226293e+00 0.0 
3.958669226293e+00 -2.940321015093e+02 0.0 
0.0 0.0 -1.267860275181e+02 
-8.795786198540e+01 -4.125861036067e+00 0.0 
-4.125861036067e+00 -2.370926091699e+02 0.0 
0.0 0.0 -9.711514134659e+01 
-6.122847841312e+01 1.908298372418e+01 0.0 
1.908298372418e+01 -1.547733055598e+02 0.0 
0.0 0.0 -6.440053519186e+01 
-1.122543892985e+02 8.034656309573e+00 0.0 
8.034656309573e+00 -2.445407829816e+02 0.0 
0.0 0.0 -1.066385516840e+02 
-8.625941099260e+01 1.203787472642e+01 0.0 
1.203787472642e+01 -1.954675027688e+02 0.0 
0.0 0.0 -8.411807412841e+01 
-4.388920617692e+01 -1.408496498232e+01 0.0 
-1.408496498232e+01 -9.438800272916e+01 0.0 
0.0 0.0 -4.072852827530e+01 
-1.414033990084e+02 3.351845345632e+00 0.0 
3.351845345632e+00 -3.260210954787e+02 0.0 
0.0 0.0 -1.398273483461e+02 
-4.165533206598e+01 -1.124398278757e+01 0.0 
-1.124398278757e+01 -7.941654690253e+01 0.0 
0.0 0.0 -3.524416618107e+01 
-1.442138774003e+02 9.217969140434e+00 0.0 
9.217969140434e+00 -3.510667872830e+02 0.0 
0.0 0.0 -1.481841994050e+02 
-1.305951092297e+02 1.133739528322e+00 0.0 
1.133739528322e+00 -2.994234069018e+02 0.0 
0.0 0.0 -1.286055548394e+02 
-1.195836567737e+02 5.425728482183e+00 0.0 
5.425728482183e+00 -3.065941824199e+02 0.0 
0.0 0.0 -1.274533517581e+02 
-9.883085085917e+01 2.012984574783e-01 0.0 
2.012984574783e-01 -2.184428303918e+02 0.0 
0.0 0.0 -9.478210437528e+01 
-1.235111415354e+02 3.761215719373e+00 0.0 
3.761215719373e+00 -2.772782046476e+02 0.0 
0.0 0.0 -1.198368038549e+02 
-8.100526596149e+01 -2.606378567120e+00 0.0 
-2.606378567120e+00 -2.253927949431e+02 0.0 
0.0 0.0 -9.151941827139e+01 
-9.244515989086e+01 7.749576296698e+00 0.0 
7.749576296698e+00 -2.524670718857e+02 0.0 
0.0 0.0 -1.030736695330e+02 
-1.338650067161e+02 2.974965255451e+00 0.0 
2.974965255451e+00 -3.055869961088e+02 0.0 
0.0 0.0 -1.314356008475e+02 
-1.242550470641e+02 -2.140705601342e+00 0.0 
-2.140705601342e+00 -3.034222136106e+02 0.0 
0.0 0.0 -1.279031782024e+02 
-1.157668682269e+02 3.307051482503e+00 0.0 
3.307051482503e+00 -2.574292565003e+02 0.0 
0.0 0.0 -1.115588374182e+02 
-1.138995452092e+02 8.816188843297e-01 0.0 
8.816188843297e-01 -2.950050951202e+02 0.0 
0.0 0.0 -1.222713920988e+02 
-4.392845062650e+01 -1.553922013399e+01 0.0 
-1.553922013399e+01 -1.112647766845e+02 0.0 
0.0 0.0 -4.615796819331e+01 
-1.197109517850e+02 3.867038346252e+00 0.0 
3.867038346252e+00 -2.666824847491e+02 0.0 
0.0 0.0 -1.155180309602e+02 
-1.524556442244e+02 1.233396406502e+01 0.0 
1.233396406502e+01 -3.557507527058e+02 0.0 
0.0 0.0 -1.520619190791e+02 
-1.479748228211e+02 6.532016051072e-01 0.0 
6.532016051072e-01 -3.573212759426e+02 0.0 
0.0 0.0 -1.511888296291e+02 
-8.243986193089e+01 -6.911622126837e+00 0.0 
-6.911622126837e+00 -2.066149372872e+02 0.0 
0.0 0.0 -8.631643976544e+01 
-9.971754502471e+01 2.032208684797e+00 0.0 
2.032208684797e+00 -2.190648871450e+02 0.0 
0.0 0.0 -9.523472965090e+01 
-9.465310546757e+01 1.876246218356e-01 0.0 
1.876246218356e-01 -2.078818150971e+02 0.0 
0.0 0.0 -9.036047616940e+01 
-8.744563649176e+01 -4.695985458106e+00 0.0 
-4.695985458106e+00 -2.266193690862e+02 0.0 
0.0 0.0 -9.381950167339e+01 
-1.196664221946e+02 -2.240953187230e+00 0.0 
-2.240953187230e+00 -2.959643429217e+02 0.0 
0.0 0.0 -1.242892295349e+02 
-1.240001924832e+02 -1.394893995920e+00 0.0 
-1.394893995920e+00 -3.075371386151e+02 0.0 
0.0 0.0 -1.290611993295e+02 
-2.890231296775e+01 -1.620600851941e+00 0.0 
-1.620600851941e+00 -6.598082717990e+01 0.0 
0.0 0.0 -2.806494204430e+01 
-4.450321991485e+01 1.349788478355e+01 0.0 
1.349788478355e+01 -1.582565430637e+02 0.0 
0.0 0.0 -6.042792889357e+01 
-7.819842878004e+01 1.575204266787e+00 0.0 
1.575204266787e+00 -2.277871407889e+02 0.0 
0.0 0.0 -9.139567087067e+01 
-7.602504410739e+01 -1.490551767155e+00 0.0 
-1.490551767155e+00 -2.188132529338e+02 0.0 
0.0 0.0 -8.805148911236e+01 
-8.434740738986e+01 1.350162105133e+01 0.0 
1.350162105133e+01 -2.014434950030e+02 0.0 
0.0 0.0 -8.533727071786e+01 
-1.385694524361e+02 4.485964049188e+00 0.0 
4.485964049188e+00 -3.166228574062e+02 0.0 
0.0 0.0 -1.361576929527e+02 
-1.337605144979e+02 6.724300434588e+00 0.0 
6.724300434588e+00 -3.031426300327e+02 0.0 
0.0 0.0 -1.306709433592e+02 
-1.313221232291e+02 2.781213863041e+00 0.0 
2.781213863041e+00 -2.999183499846e+02 0.0 
0.0 0.0 -1.289721419641e+02 
-7.669783642131e+01 1.125497722201e+01 0.0 
1.125497722201e+01 -1.597012668549e+02 0.0 
0.0 0.0 -7.051973098286e+01 
-1.224309139509e+02 3.414591998680e+00 0.0 
3.414591998680e+00 -2.741626678662e+02 0.0 
0.0 0.0 -1.185780745451e+02 
-1.214603099639e+02 -8.722649380333e-01 0.0 
-8.722649380333e-01 -2.970226348912e+02 0.0 
0.0 0.0 -1.251448834565e+02 
-1.339370678352e+02 2.202889785476e+00 0.0 
2.202889785476e+00 -3.070836902803e+02 0.0 
0.0 0.0 -1.319062274347e+02 
-1.158794280424e+02 3.961106313357e+00 0.0 
3.961106313357e+00 -2.561220140348e+02 0.0 
0.0 0.0 -1.112004326231e+02 
-8.848697770512e+01 -4.982480005362e+00 0.0 
-4.982480005362e+00 -2.207131201337e+02 0.0 
0.0 0.0 -9.236002935165e+01 
-7.423352838787e+01 3.825959298690e+00 0.0 
3.825959298690e+00 -2.202979804761e+02 0.0 
0.0 0.0 -8.795945265920e+01 
-1.185533990430e+02 2.082781423671e+00 0.0 
2.082781423671e+00 -2.658920842797e+02 0.0 
0.0 0.0 -1.149336449968e+02 
-1.311325961319e+02 4.197434529597e+00 0.0 
4.197434529597e+00 -2.971813408254e+02 0.0 
0.0 0.0 -1.280941810872e+02 
-1.187057421764e+02 1.465946719194e+00 0.0 
1.465946719194e+00 -2.673219308435e+02 0.0 
0.0 0.0 -1.154083019060e+02 
-1.147148638144e+02 1.544691345791e+00 0.0 
1.544691345791e+00 -2.566879335077e+02 0.0 
0.0 0.0 -1.110208391966e+02 
-1.377788751572e+02 -8.279163195912e-01 0.0 
-8.279163195912e-01 -3.341198297489e+02 0.0 
0.0 0.0 -1.411696114718e+02 
-1.398759027819e+02 9.885480139823e+00 0.0 
9.885480139823e+00 -3.411295691179e+02 0.0 
0.0 0.0 -1.439016415699e+02 
-1.331987589519e+02 -6.733173464182e-01 0.0 
-6.733173464182e-01 -3.264809333277e+02 0.0 
0.0 0.0 -1.375039076839e+02 
-1.068907520619e+02 -3.842609205150e+00 0.0 
-3.842609205150e+00 -2.648918020080e+02 0.0 
0.0 0.0 -1.111347662210e+02 
-7.219764601132e+01 4.395429963300e+00 0.0 
4.395429963300e+00 -1.471654358826e+02 0.0 
0.0 0.0 -6.540892456817e+01 
-1.243802837252e+02 6.733432324947e+00 0.0 
6.733432324947e+00 -3.154151888377e+02 0.0 
0.0 0.0 -1.315386417689e+02 
-1.149605029464e+02 3.634921124320e+00 0.0 
3.634921124320e+00 -2.537738687882e+02 0.0 
0.0 0.0 -1.102203115204e+02 
-4.935492081398e+01 -3.669168279711e+00 0.0 
-3.669168279711e+00 -1.116677929537e+02 0.0 
0.0 0.0 -4.790681413031e+01 
-7.946166488383e+01 1.155451603580e+00 0.0 
1.155451603580e+00 -2.282249571088e+02 0.0 
0.0 0.0 -9.190598659780e+01 
-9.125588204984e+01 5.363644752987e-01 0.0 
5.363644752987e-01 -2.518650167235e+02 0.0 
0.0 0.0 -1.025362696320e+02 
-1.014883515416e+02 7.666955625591e+00 0.0 
7.666955625591e+00 -2.700380917059e+02 0.0 
0.0 0.0 -1.110579329743e+02 
-3.756402354257e+01 -2.140826747971e+00 0.0 
-2.140826747971e+00 -1.530162080791e+02 0.0 
0.0 0.0 -5.662309946669e+01 
-7.469051928800e+01 3.149132444783e+00 0.0 
3.149132444783e+00 -2.203277685948e+02 0.0 
0.0 0.0 -8.810548636484e+01 
-1.106539040969e+02 7.668752331398e+00 0.0 
7.668752331398e+00 -2.878839718072e+02 0.0 
0.0 0.0 -1.191613627712e+02 
-8.413882397422e+01 6.423467156566e+00 0.0 
6.423467156566e+00 -1.769953029728e+02 0.0 
0.0 0.0 -7.794023808410e+01 
-9.035065071866e+01 -5.852165826566e+00 0.0 
-5.852165826566e+00 -2.261409325562e+02 0.0 
0.0 0.0 -9.454747498245e+01 
-1.079712712296e+02 3.449053043328e+00 0.0 
3.449053043328e+00 -2.361995129577e+02 0.0 
0.0 0.0 -1.028512352562e+02 
-8.191943127477e+01 -2.599573272403e-01 0.0 
-2.599573272403e-01 -1.779064380743e+02 0.0 
0.0 0.0 -7.754776080471e+01 
-3.245527971244e+01 2.061677408822e+01 0.0 
2.061677408822e+01 -2.553025327668e+01 0.0 
0.0 0.0 -1.610447180067e+01 
-1.045707746407e+02 -2.774633556970e+00 0.0 
-2.774633556970e+00 -2.589752859461e+02 0.0 
0.0 0.0 -1.086638181760e+02 
-1.235464983021e+02 3.638562925741e+00 0.0 
3.638562925741e+00 -3.148793010133e+02 0.0 
0.0 0.0 -1.311277397946e+02 
-1.373647259177e+02 6.330612787193e+00 0.0 
6.330612787193e+00 -3.127705314680e+02 0.0 
0.0 0.0 -1.346405772157e+02 
-8.798272869607e+01 5.903707182275e+00 0.0 
5.903707182275e+00 -2.449445947793e+02 0.0 
0.0 0.0 -9.947819704260e+01 
-9.850935677819e+01 -4.822609151733e+00 0.0 
-4.822609151733e+00 -2.455603719566e+02 0.0 
0.0 0.0 -1.028209186204e+02 
-1.078142911404e+02 2.852774741035e+00 0.0 
2.852774741035e+00 -2.376107319134e+02 0.0 
0.0 0.0 -1.032275069161e+02 
-2.348997550913e+01 9.664647176641e+00 0.0 
9.664647176641e+00 -2.658693846945e+01 0.0 
0.0 0.0 -1.343678874491e+01 
-1.191526687217e+02 4.622663049515e+00 0.0 
4.622663049515e+00 -3.062382315192e+02 0.0 
0.0 0.0 -1.272172700723e+02 
-9.668461835734e+01 6.050390267337e+00 0.0 
6.050390267337e+00 -2.620483232569e+02 0.0 
0.0 0.0 -1.072198824843e+02 
-8.910937994193e+01 8.246806623268e+00 0.0 
8.246806623268e+00 -1.870655230411e+02 0.0 
0.0 0.0 -8.245247089492e+01 
-1.256584524550e+02 -1.162173068593e-01 0.0 
-1.162173068593e-01 -3.085165075194e+02 0.0 
0.0 0.0 -1.298524879923e+02 
-4.650803518850e+01 -1.330181154357e+01 0.0 
-1.330181154357e+01 -1.445315656827e+02 0.0 
0.0 0.0 -5.691188026135e+01 
-1.299864639555e+02 7.753917004574e-01 0.0 
7.753917004574e-01 -3.197558762261e+02 0.0 
0.0 0.0 -1.345227020545e+02 
-1.428545251430e+02 1.127784517509e+00 0.0 
1.127784517509e+00 -3.487459342816e+02 0.0 
0.0 0.0 -1.470801378274e+02 
-1.149629278060e+02 5.727914331820e+00 0.0 
5.727914331820e+00 -2.972701528680e+02 0.0 
0.0 0.0 -1.232699242022e+02 
-1.196548666204e+02 3.219894748653e+00 0.0 
3.219894748653e+00 -2.680257777746e+02 0.0 
0.0 0.0 -1.159041933185e+02 
-1.278065691318e+02 1.212360034339e+01 0.0 
1.212360034339e+01 -3.038966684033e+02 0.0 
0.0 0.0 -1.291109712605e+02 
-1.439041319635e+02 2.462567427482e+00 0.0 
2.462567427482e+00 -3.494344964590e+02 0.0 
0.0 0.0 -1.476015885268e+02 
-2.775807075735e+01 6.495403561478e+00 0.0 
6.495403561478e+00 -4.371315956212e+01 0.0 
0.0 0.0 -2.104136909584e+01 
-1.118900222145e+02 3.358351948289e+00 0.0 
3.358351948289e+00 -2.468479444252e+02 0.0 
0.0 0.0 -1.072213899919e+02 
-1.403342849851e+02 1.113420400342e+01 0.0 
1.113420400342e+01 -3.383402901263e+02 0.0 
0.0 0.0 -1.432023725334e+02 
-1.224618083670e+02 1.982573727143e+00 0.0 
1.982573727143e+00 -2.765307256104e+02 0.0 
0.0 0.0 -1.192977601932e+02 
-1.058328882639e+02 5.708779440536e+00 0.0 
5.708779440536e+00 -2.795178700612e+02 0.0 
0.0 0.0 -1.152052274975e+02 
-7.886420231817e+01 5.755582078361e+00 0.0 
5.755582078361e+00 -2.280040779121e+02 0.0 
0.0 0.0 -9.166048406907e+01 
-9.942881640581e+01 -3.994999503569e+00 0.0 
-3.994999503569e+00 -2.363190719367e+02 0.0 
0.0 0.0 -1.003243665028e+02 
-2.595139277402e+01 7.088772691905e+00 0.0 
7.088772691905e+00 -1.317278220958e+02 0.0 
0.0 0.0 -4.865648083730e+01 
-1.263937947259e+02 1.842494396958e+00 0.0 
1.842494396958e+00 -2.871711993338e+02 0.0 
0.0 0.0 -1.236694982179e+02 
-5.290915775352e+01 -3.184691138436e+00 0.0 
-3.184691138436e+00 -1.202333145415e+02 0.0 
0.0 0.0 -5.154274168852e+01 
-3.547398070347e+01 5.145336799787e+00 0.0 
5.145336799787e+00 -6.249875784109e+01 0.0 
0.0 0.0 -2.899182156337e+01 
-1.242761196363e+02 1.217310330451e+01 0.0 
1.217310330451e+01 -2.925384099110e+02 0.0 
0.0 0.0 -1.246443588642e+02 
-1.344848350848e+02 1.566858600217e+00 0.0 
1.566858600217e+00 -3.090503937810e+02 0.0 
0.0 0.0 -1.326605686597e+02 
-4.706513926044e+01 -1.646826733424e+01 0.0 
-1.646826733424e+01 -1.291223395165e+02 0.0 
0.0 0.0 -5.186596511697e+01 
-9.748607441769e+01 1.297630364107e+01 0.0 
1.297630364107e+01 -2.227614049842e+02 0.0 
0.0 0.0 -9.567424382058e+01 
-1.146743092523e+02 2.136424715980e+00 0.0 
2.136424715980e+00 -2.553093589052e+02 0.0 
0.0 0.0 -1.105951004473e+02 
-9.687001335607e+01 -3.567430118790e+00 0.0 
-3.567430118790e+00 -2.345890232535e+02 0.0 
0.0 0.0 -9.903771098286e+01 
-4.080786444416e+01 -6.079391892800e+00 0.0 
-6.079391892800e+00 -1.537170664074e+02 0.0 
0.0 0.0 -5.795747925546e+01 
-5.939584621003e+01 1.833963036256e+01 0.0 
1.833963036256e+01 -1.515865549653e+02 0.0 
0.0 0.0 -6.289472035260e+01 
-4.247246749361e+01 -1.590405144305e+01 0.0 
-1.590405144305e+01 -9.028135916837e+01 0.0 
0.0 0.0 -3.837486576265e+01 
-3.973147309615e+01 -1.500218973117e+01 0.0 
-1.500218973117e+01 -1.263746836289e+02 0.0 
0.0 0.0 -4.943184701751e+01 
-4.014113767340e+01 -1.672467686681e+01 0.0 
-1.672467686681e+01 -1.085385498161e+02 0.0 
0.0 0.0 -4.398851175640e+01 
-9.684278931267e+01 5.767115849461e+00 0.0 
5.767115849461e+00 -2.620549581635e+02 0.0 
0.0 0.0 -1.072693242428e+02 
-1.520214550222e+02 6.349813007705e+00 0.0 
6.349813007705e+00 -3.516190183027e+02 0.0 
0.0 0.0 -1.506921419975e+02 
-4.333374324522e+01 3.905215506875e+00 0.0 
3.905215506875e+00 -8.125748917482e+01 0.0 
0.0 0.0 -3.697736972601e+01 
-1.423049192297e+02 -8.868130386089e-01 0.0 
-8.868130386089e-01 -3.417672068487e+02 0.0 
0.0 0.0 -1.448216378235e+02 
-6.767092264990e+01 9.389362168528e+00 0.0 
9.389362168528e+00 -2.028835577769e+02 0.0 
0.0 0.0 -8.076634412803e+01 
-1.120617195178e+02 4.071926656870e+00 0.0 
4.071926656870e+00 -2.457352717072e+02 0.0 
0.0 0.0 -1.069390973675e+02 
-2.950296697725e+01 4.700879158573e+00 0.0 
4.700879158573e+00 -1.398180470524e+02 0.0 
0.0 0.0 -5.221707138098e+01 
-1.487526581169e+02 3.380038256837e+00 0.0 
3.380038256837e+00 -3.601036686413e+02 0.0 
0.0 0.0 -1.522568980275e+02 
-4.716517946969e+01 -1.703902221273e+01 0.0 
-1.703902221273e+01 -1.110884816790e+02 0.0 
0.0 0.0 -4.581176468924e+01 
-6.192501637080e+01 -3.355526801640e+00 0.0 
-3.355526801640e+00 -1.409530993776e+02 0.0 
0.0 0.0 -6.046343472453e+01 
-1.201319877041e+02 6.841800833033e+00 0.0 
6.841800833033e+00 -3.058242757318e+02 0.0 
0.0 0.0 -1.273868790308e+02 
-8.589983292052e+01 -3.198532803964e+00 0.0 
-3.198532803964e+00 -2.318244371628e+02 0.0 
0.0 0.0 -9.491728102499e+01 
-1.354541121422e+02 1.050676335162e+01 0.0 
1.050676335162e+01 -3.306328896376e+02 0.0 
0.0 0.0 -1.394261005340e+02 
-6.584111238450e+01 1.736714802936e+01 0.0 
1.736714802936e+01 -1.483644499282e+02 0.0 
0.0 0.0 -6.386166869382e+01 
-1.199524806323e+02 5.376691213361e+00 0.0 
5.376691213361e+00 -2.647911533589e+02 0.0 
0.0 0.0 -1.150230901973e+02 
-1.442791753000e+02 7.901525300885e+00 0.0 
7.901525300885e+00 -3.508060975195e+02 0.0 
0.0 0.0 -1.481255818458e+02 
-1.107369356604e+02 1.572287134542e+00 0.0 
1.572287134542e+00 -2.460744613908e+02 0.0 
0.0 0.0 -1.066434191154e+02 
-1.383504680364e+02 8.244483215640e+00 0.0 
8.244483215640e+00 -3.135996802369e+02 0.0 
0.0 0.0 -1.351850444820e+02 
-1.235608014469e+02 4.464244227988e+00 0.0 
4.464244227988e+00 -2.759317664495e+02 0.0 
0.0 0.0 -1.194477703689e+02 
-1.273757297583e+02 5.103257278426e+00 0.0 
5.103257278426e+00 -2.853544191629e+02 0.0 
0.0 0.0 -1.234190446764e+02 
-3.853799260313e+01 2.147632523654e+01 0.0 
2.147632523654e+01 -1.317361308775e+02 0.0 
0.0 0.0 -5.063328624700e+01 
-1.376049872362e+02 -1.380604456821e+00 0.0 
-1.380604456821e+00 -3.301393903124e+02 0.0 
0.0 0.0 -1.399233132646e+02 
-1.185989033051e+02 2.764772139440e+00 0.0 
2.764772139440e+00 -2.647162061643e+02 0.0 
0.0 0.0 -1.145945328408e+02 
-8.685279734141e+01 1.100265989409e+01 0.0 
1.100265989409e+01 -2.318645943539e+02 0.0 
0.0 0.0 -9.521521750859e+01 
-5.133301086278e+01 2.794928593291e+00 0.0 
2.794928593291e+00 -1.002946095907e+02 0.0 
0.0 0.0 -4.508828613603e+01 
-1.496166609707e+02 1.014436837087e+01 0.0 
1.014436837087e+01 -3.595530555556e+02 0.0 
0.0 0.0 -1.523509149579e+02 
-3.896748006630e+01 9.623799860627e+00 0.0 
9.623799860627e+00 -1.549934870474e+02 0.0 
0.0 0.0 -5.778829013412e+01 
-5.787547442983e+01 -1.570377938386e+00 0.0 
-1.570377938386e+00 -1.323231934491e+02 0.0 
0.0 0.0 -5.665960036368e+01 
-1.305509435201e+02 8.477610317813e+00 0.0 
8.477610317813e+00 -3.223735709077e+02 0.0 
0.0 0.0 -1.354773543283e+02 
-3.299758297325e+01 7.236969643481e-01 0.0 
7.236969643481e-01 -7.982464451467e+01 0.0 
0.0 0.0 -3.344666824638e+01 
-9.000282247240e+01 1.444321040714e+01 0.0 
1.444321040714e+01 -2.201217661738e+02 0.0 
0.0 0.0 -9.263737659385e+01 
-1.242176769671e+02 5.836529719847e+00 0.0 
5.836529719847e+00 -3.151746683033e+02 0.0 
0.0 0.0 -1.314177035811e+02 
-1.344776366821e+02 5.476847244325e+00 0.0 
5.476847244325e+00 -3.046324594398e+02 0.0 
0.0 0.0 -1.313330288366e+02 
-1.382640884843e+02 6.213945987827e+00 0.0 
6.213945987827e+00 -3.145887415084e+02 0.0 
0.0 0.0 -1.354558489978e+02 
-1.199426519545e+02 7.750169548954e+00 0.0 
7.750169548954e+00 -3.059332944998e+02 0.0 
0.0 0.0 -1.273627839363e+02 
-1.273142029940e+02 4.346731814371e+00 0.0 
4.346731814371e+00 -2.865378406697e+02 0.0 
0.0 0.0 -1.237556130991e+02 
-7.321306138825e+01 1.107017000657e+01 0.0 
1.107017000657e+01 -2.088199139900e+02 0.0 
0.0 0.0 -8.420989261349e+01 
-1.255309231275e+02 1.181242336396e+01 0.0 
1.181242336396e+01 -2.893916557328e+02 0.0 
0.0 0.0 -1.240767736581e+02 
-5.953756791164e+01 2.019251508468e+00 0.0 
2.019251508468e+00 -1.195070499052e+02 0.0 
0.0 0.0 -5.331338534505e+01 
-1.370475021321e+02 8.369059014349e+00 0.0 
8.369059014349e+00 -3.132821592455e+02 0.0 
0.0 0.0 -1.346988984133e+02 
-6.760238707217e+01 1.584104537082e+00 0.0 
1.584104537082e+00 -1.387022414322e+02 0.0 
0.0 0.0 -6.149138855130e+01 
-7.217543706654e+01 1.577068067988e+00 0.0 
1.577068067988e+00 -1.483380719309e+02 0.0 
0.0 0.0 -6.575405269923e+01 
-8.453091157435e+01 7.941762796484e+00 0.0 
7.941762796484e+00 -2.356776644419e+02 0.0 
0.0 0.0 -9.566257280487e+01 
-7.573349693896e+01 1.252007623089e+00 0.0 
1.252007623089e+00 -1.581339142090e+02 0.0 
0.0 0.0 -6.976022334440e+01 
-1.008053459602e+02 1.297196139574e+01 0.0 
1.297196139574e+01 -2.509138974226e+02 0.0 
0.0 0.0 -1.051157730148e+02 
-7.905546803523e+01 1.488475579727e+01 0.0 
1.488475579727e+01 -2.073365900905e+02 0.0 
0.0 0.0 -8.551761743771e+01 
-8.336156927230e+01 3.666474396857e+00 0.0 
3.666474396857e+00 -2.367976205107e+02 0.0 
0.0 0.0 -9.564775693490e+01 
-3.542827767889e+01 -8.421252907254e+00 0.0 
-8.421252907254e+00 -1.412362501654e+02 0.0 
0.0 0.0 -5.223982306465e+01 
-7.925923360015e+01 6.132617049234e+00 0.0 
6.132617049234e+00 -2.282534732382e+02 0.0 
0.0 0.0 -9.185381205150e+01 
-1.300827579971e+02 2.416116085070e+00 0.0 
2.416116085070e+00 -2.964311492129e+02 0.0 
0.0 0.0 -1.275541721630e+02 
-1.382357057554e+02 7.288550989519e+00 0.0 
7.288550989519e+00 -3.150591338743e+02 0.0 
0.0 0.0 -1.355884518889e+02 
-1.287421911460e+02 -1.988919989843e+00 0.0 
-1.988919989843e+00 -3.109495760060e+02 0.0 
0.0 0.0 -1.315075301456e+02 
-1.398197327194e+02 8.539253184968e+00 0.0 
8.539253184968e+00 -3.408187808646e+02 0.0 
0.0 0.0 -1.437915540752e+02 
-8.312547673289e+01 -3.568874629362e+00 0.0 
-3.568874629362e+00 -2.305664529212e+02 0.0 
0.0 0.0 -9.370757889624e+01 
-1.262074079768e+02 3.285461030655e+00 0.0 
3.285461030655e+00 -2.845435816285e+02 0.0 
0.0 0.0 -1.228252968816e+02 
-8.293018475324e+01 3.921305320512e+00 0.0 
3.921305320512e+00 -2.366692539147e+02 0.0 
0.0 0.0 -9.547983160039e+01 
-1.419824999350e+02 -1.343847857864e+00 0.0 
-1.343847857864e+00 -3.378460889859e+02 0.0 
0.0 0.0 -1.435485766763e+02 
-1.223721697747e+02 2.688758642696e+00 0.0 
2.688758642696e+00 -2.751268602920e+02 0.0 
0.0 0.0 -1.188497090200e+02 
-1.236663618497e+02 5.245328475215e+00 0.0 
5.245328475215e+00 -2.750139559902e+02 0.0 
0.0 0.0 -1.192040953520e+02 
-1.098744145042e+02 4.399475852261e+00 0.0 
4.399475852261e+00 -2.883771664893e+02 0.0 
0.0 0.0 -1.190754742981e+02 
-7.601269069970e+01 8.572918001195e+00 0.0 
8.572918001195e+00 -2.190404629137e+02 0.0 
0.0 0.0 -8.811594608402e+01 
-1.332647621634e+02 1.179716767845e+01 0.0 
1.179716767845e+01 -3.084564710032e+02 0.0 
0.0 0.0 -1.321163699500e+02 
-1.072174991504e+02 7.699914060180e+00 0.0 
7.699914060180e+00 -2.360743115128e+02 0.0 
0.0 0.0 -1.025875431990e+02 
-4.100393346696e+01 -1.217644298155e+01 0.0 
-1.217644298155e+01 -1.432607395498e+02 0.0 
0.0 0.0 -5.486552788760e+01 
-3.762410890375e+01 5.508903227172e+00 0.0 
5.508903227172e+00 -1.532788310123e+02 0.0 
0.0 0.0 -5.672666832677e+01 
-6.966580261242e+01 1.531843053851e+01 0.0 
1.531843053851e+01 -1.621493900871e+02 0.0 
0.0 0.0 -6.914455780984e+01 
-9.820720706090e+01 1.071577123508e+01 0.0 
1.071577123508e+01 -2.226155014065e+02 0.0 
0.0 0.0 -9.584681254022e+01 
-1.462395341914e+02 -1.305324469757e+00 0.0 
-1.305324469757e+00 -3.458214030373e+02 0.0 
0.0 0.0 -1.472182811686e+02 
-1.197857581560e+02 4.594615335308e+00 0.0 
4.594615335308e+00 -2.655324208685e+02 0.0 
0.0 0.0 -1.151954537073e+02 
-7.470333196682e+01 8.192668624260e+00 0.0 
8.192668624260e+00 -2.184022493666e+02 0.0 
0.0 0.0 -8.753167440001e+01 
-1.098117811160e+02 1.196525650091e+01 0.0 
1.196525650091e+01 -2.502335216397e+02 0.0 
0.0 0.0 -1.076135908267e+02 
-1.286035177649e+02 4.883018505443e+00 0.0 
4.883018505443e+00 -3.243500026267e+02 0.0 
0.0 0.0 -1.354860561175e+02 
-1.273446049808e+02 3.619257662003e+00 0.0 
3.619257662003e+00 -2.878871485147e+02 0.0 
0.0 0.0 -1.241695260486e+02 
-1.373222487453e+02 1.155614606105e+01 0.0 
1.155614606105e+01 -3.166742608280e+02 0.0 
0.0 0.0 -1.357989528720e+02 
-1.069855560663e+02 2.257480448024e+00 0.0 
2.257480448024e+00 -2.346670503268e+02 0.0 
0.0 0.0 -1.020957819179e+02 
-1.333822943683e+02 2.205075137872e+00 0.0 
2.205075137872e+00 -3.326941587240e+02 0.0 
0.0 0.0 -1.394229359277e+02 
-8.772059881436e+01 5.890337852272e+00 0.0 
5.890337852272e+00 -2.448305863813e+02 0.0 
0.0 0.0 -9.936535555870e+01 
-1.290295032734e+02 5.830817847126e+00 0.0 
5.830817847126e+00 -3.246569079439e+02 0.0 
0.0 0.0 -1.357059233652e+02 
-9.188773192540e+01 1.265437021694e+01 0.0 
1.265437021694e+01 -2.205382185144e+02 0.0 
0.0 0.0 -9.332778513195e+01 
-1.346657809457e+02 4.697083380687e+00 0.0 
4.697083380687e+00 -3.061807737630e+02 0.0 
0.0 0.0 -1.318539664126e+02 
-1.424855763772e+02 1.178360981060e+01 0.0 
1.178360981060e+01 -3.268884382782e+02 0.0 
0.0 0.0 -1.404122043966e+02 
-1.007529868135e+02 4.210676207351e+00 0.0 
4.210676207351e+00 -2.707819107145e+02 0.0 
0.0 0.0 -1.110604692584e+02 
-3.493723676681e+01 3.938969397969e+00 0.0 
3.938969397969e+00 -1.495899406002e+02 0.0 
0.0 0.0 -5.482294100991e+01 
-1.316978009813e+02 1.027306343165e+01 0.0 
1.027306343165e+01 -3.148158542695e+02 0.0 
0.0 0.0 -1.335540965753e+02 
-9.791602996143e+01 1.359288746985e+01 0.0 
1.359288746985e+01 -2.391007369760e+02 0.0 
0.0 0.0 -1.007050300812e+02 
-7.098812600498e+01 1.085474719250e+01 0.0 
1.085474719250e+01 -2.078293258428e+02 0.0 
0.0 0.0 -8.324523555432e+01 
-1.057867485754e+02 6.242362872940e+00 0.0 
6.242362872940e+00 -2.796125452383e+02 0.0 
0.0 0.0 -1.152197881441e+02 
-1.297216498011e+02 2.148564863967e+00 0.0 
2.148564863967e+00 -3.228337618581e+02 0.0 
0.0 0.0 -1.353666234978e+02 
-3.580866521074e+01 -1.078055778357e+00 0.0 
-1.078055778357e+00 -1.487530809000e+02 0.0 
0.0 0.0 -5.465116178630e+01 
-9.177833243466e+01 4.057106344870e+00 0.0 
4.057106344870e+00 -2.535321933439e+02 0.0 
0.0 0.0 -1.031931577336e+02 
-1.111986515790e+02 5.919059798994e+00 0.0 
5.919059798994e+00 -2.436858632618e+02 0.0 
0.0 0.0 -1.060653544522e+02 
-1.470289615832e+02 3.078516042607e-01 0.0 
3.078516042607e-01 -3.464797637711e+02 0.0 
0.0 0.0 -1.476526176063e+02 
-1.149514718357e+02 6.813123793386e+00 0.0 
6.813123793386e+00 -2.539282831087e+02 0.0 
0.0 0.0 -1.102639264833e+02 
-1.281307118852e+02 1.039729370098e+01 0.0 
1.039729370098e+01 -3.036746329829e+02 0.0 
0.0 0.0 -1.291416034604e+02 
-1.073463574066e+02 5.027609978442e+00 0.0 
5.027609978442e+00 -2.336417642237e+02 0.0 
0.0 0.0 -1.018964364891e+02 
-9.917872271304e+01 3.209867791301e+00 0.0 
3.209867791301e+00 -2.140473307400e+02 0.0 
0.0 0.0 -9.356781603590e+01 
-1.107994245642e+02 8.543021181415e+00 0.0 
8.543021181415e+00 -2.470245427007e+02 0.0 
0.0 0.0 -1.069471901795e+02 
-1.346690151670e+02 7.713596730490e+00 0.0 
7.713596730490e+00 -3.324800544455e+02 0.0 
0.0 0.0 -1.397447208838e+02 
-1.345495730039e+02 4.759521336232e-03 0.0 
4.759521336232e-03 -3.235134420283e+02 0.0 
0.0 0.0 -1.370189045097e+02 
-1.148054969745e+02 2.868977386728e+00 0.0 
2.868977386728e+00 -2.544217610927e+02 0.0 
0.0 0.0 -1.103681774202e+02 
-1.373156725433e+02 4.559939380981e+00 0.0 
4.559939380981e+00 -3.138885562550e+02 0.0 
0.0 0.0 -1.349612686395e+02 
-1.034267910827e+02 4.132312334601e+00 0.0 
4.132312334601e+00 -2.238291586295e+02 0.0 
0.0 0.0 -9.777678491365e+01 
-5.748450498258e+01 9.122514311743e+00 0.0 
9.122514311743e+00 -1.861178001278e+02 0.0 
0.0 0.0 -7.268069153311e+01 
-1.362556502269e+02 1.209181871943e+01 0.0 
1.209181871943e+01 -3.229768273079e+02 0.0 
0.0 0.0 -1.373697432604e+02 
-1.349941265389e+02 4.081035083037e+00 0.0 
4.081035083037e+00 -3.078440315820e+02 0.0 
0.0 0.0 -1.324514474363e+02 
-8.945146713934e+01 1.257233039773e+01 0.0 
1.257233039773e+01 -2.263743785806e+02 0.0 
0.0 0.0 -9.434775371597e+01 
-9.459161983626e+01 1.232367735109e+01 0.0 
1.232367735109e+01 -2.327411383665e+02 0.0 
0.0 0.0 -9.779982746084e+01 
-6.602595112178e+01 8.590200724118e+00 0.0 
8.590200724118e+00 -2.020076571610e+02 0.0 
0.0 0.0 -8.001008248485e+01 
-1.186806724323e+02 3.518490379372e+00 0.0 
3.518490379372e+00 -2.638981527030e+02 0.0 
0.0 0.0 -1.143736475406e+02 
-7.558278251146e+01 1.115595298723e+01 0.0 
1.115595298723e+01 -1.627541595081e+02 0.0 
0.0 0.0 -7.110108260586e+01 
-1.054317404822e+02 1.084410304225e+01 0.0 
1.084410304225e+01 -2.627898909935e+02 0.0 
0.0 0.0 -1.100664894427e+02 
-7.530858481560e+01 1.407460363732e+01 0.0 
1.407460363732e+01 -1.632058017462e+02 0.0 
0.0 0.0 -7.115431596855e+01 
-1.253533262397e+02 7.743536354238e+00 0.0 
7.743536354238e+00 -3.141732187164e+02 0.0 
0.0 0.0 -1.314579634868e+02 
-1.446543415995e+02 1.203874052786e+01 0.0 
1.203874052786e+01 -3.413228376540e+02 0.0 
0.0 0.0 -1.453931537760e+02 
-7.016106398947e+01 5.659683602448e+00 0.0 
5.659683602448e+00 -2.116631454248e+02 0.0 
0.0 0.0 -8.414726282428e+01 
-2.678685693642e+01 -5.165428344487e+00 0.0 
-5.165428344487e+00 -1.281197120340e+02 0.0 
0.0 0.0 -4.766581316605e+01 
-1.373717302440e+02 5.449788866119e+00 0.0 
5.449788866119e+00 -3.134343955357e+02 0.0 
0.0 0.0 -1.348418377339e+02 
-7.975000257931e+01 9.849898283914e+00 0.0 
9.849898283914e+00 -1.706747410200e+02 0.0 
0.0 0.0 -7.472742307979e+01 
-8.699629567950e+01 -1.518279134609e+00 0.0 
-1.518279134609e+00 -2.415439595624e+02 0.0 
0.0 0.0 -9.816207657258e+01 
-1.404087934122e+02 1.028935513039e+01 0.0 
1.028935513039e+01 -3.339447235331e+02 0.0 
0.0 0.0 -1.419060550836e+02 
-1.160245794525e+02 4.700115933497e+00 0.0 
4.700115933497e+00 -2.552521156964e+02 0.0 
0.0 0.0 -1.109830085447e+02 
-1.301577756753e+02 -7.978131387477e-02 0.0 
-7.978131387477e-02 -3.159995647444e+02 0.0 
0.0 0.0 -1.334472021259e+02 
-7.343849490854e+01 1.450133780781e+01 0.0 
1.450133780781e+01 -2.016279403807e+02 0.0 
0.0 0.0 -8.211993058678e+01 
-2.415113229480e+01 -2.995924015336e+00 0.0 
-2.995924015336e+00 -1.251371393641e+02 0.0 
0.0 0.0 -4.690499932399e+01 
-1.511830790518e+02 4.625688452084e-01 0.0 
4.625688452084e-01 -3.555756175281e+02 0.0 
0.0 0.0 -1.516276089739e+02 
-1.013140061837e+02 1.119482458594e+01 0.0 
1.119482458594e+01 -2.345397065717e+02 0.0 
0.0 0.0 -1.003561138266e+02 
-1.167359806118e+02 1.075102525958e+01 0.0 
1.075102525958e+01 -2.926959597938e+02 0.0 
0.0 0.0 -1.224295821217e+02 
-1.370303838701e+02 1.039031053994e+01 0.0 
1.039031053994e+01 -3.198810974080e+02 0.0 
0.0 0.0 -1.366734443834e+02 
-3.660449424687e+01 -7.167670440288e-01 0.0 
-7.167670440288e-01 -1.244297214108e+02 0.0 
0.0 0.0 -5.016373892199e+01 
-1.286411199540e+02 -1.466042425820e+00 0.0 
-1.466042425820e+00 -3.150498529652e+02 0.0 
0.0 0.0 -1.327072918758e+02 
-4.974128987996e+01 1.978740688341e+01 0.0 
1.978740688341e+01 -1.471425686971e+02 0.0 
0.0 0.0 -5.866515757311e+01 
-1.083287720415e+02 4.116769224026e+00 0.0 
4.116769224026e+00 -2.355397281126e+02 0.0 
0.0 0.0 -1.027605500462e+02 
-1.049892200813e+02 -2.731333005740e+00 0.0 
-2.731333005740e+00 -2.540445491403e+02 0.0 
0.0 0.0 -1.073101307665e+02 
-7.069734175353e+01 6.472767001488e+00 0.0 
6.472767001488e+00 -2.120830556216e+02 0.0 
0.0 0.0 -8.443411921255e+01 
-1.429241904864e+02 1.767667320568e-01 0.0 
1.767667320568e-01 -3.385809218453e+02 0.0 
0.0 0.0 -1.440515336995e+02 
-1.024438161015e+02 1.152554294126e+01 0.0 
1.152554294126e+01 -2.512930394256e+02 0.0 
0.0 0.0 -1.057210566581e+02 
-6.230182273762e+01 6.938084730558e+00 0.0 
6.938084730558e+00 -1.965101429298e+02 0.0 
0.0 0.0 -7.724358970023e+01 
-1.051460132526e+02 1.260484392687e+01 0.0 
1.260484392687e+01 -2.422664610456e+02 0.0 
0.0 0.0 -1.038237422895e+02 
-3.049124704086e+01 -1.779314563958e+01 0.0 
-1.779314563958e+01 -1.224235379810e+02 0.0 
0.0 0.0 -4.698278213972e+01 
-1.209160502872e+02 1.210068247146e+01 0.0 
1.210068247146e+01 -2.811904798429e+02 0.0 
0.0 0.0 -1.202319590390e+02 
-1.250168797544e+02 8.833366861086e+00 0.0 
8.833366861086e+00 -3.142642060554e+02 0.0 
0.0 0.0 -1.313843257430e+02 
-1.446348521274e+02 1.106715286758e+01 0.0 
1.106715286758e+01 -3.326179370063e+02 0.0 
0.0 0.0 -1.427758367401e+02 
-1.289938228531e+02 1.204037774325e+01 0.0 
1.204037774325e+01 -3.006540686489e+02 0.0 
0.0 0.0 -1.284943674506e+02 
-4.504052631580e+01 5.489294453051e+00 0.0 
5.489294453051e+00 -1.665594041329e+02 0.0 
0.0 0.0 -6.307997913463e+01 
-1.301698727629e+02 -4.818504697034e-01 0.0 
-4.818504697034e-01 -3.118938962348e+02 0.0 
0.0 0.0 -1.322191306993e+02 
-1.377384913482e+02 2.861871305086e+00 0.0 
2.861871305086e+00 -3.161757662592e+02 0.0 
0.0 0.0 -1.357742772822e+02 
-1.542639819139e+02 1.095722054779e+01 0.0 
1.095722054779e+01 -3.671013404194e+02 0.0 
0.0 0.0 -1.560095967000e+02 
-1.302095916155e+02 9.733083163318e+00 0.0 
9.733083163318e+00 -3.224972384272e+02 0.0 
0.0 0.0 -1.354120490128e+02 
-7.628258839595e+01 1.239672187751e+01 0.0 
1.239672187751e+01 -2.135926326816e+02 0.0 
0.0 0.0 -8.656256632325e+01 
-1.129531473913e+02 1.230678594908e+01 0.0 
1.230678594908e+01 -2.617153468711e+02 0.0 
0.0 0.0 -1.120005482787e+02 
-1.453382601216e+02 -1.281044842776e+00 0.0 
-1.281044842776e+00 -3.418866303437e+02 0.0 
0.0 0.0 -1.457674671396e+02 
-9.938282737200e+01 -2.553560919764e-01 0.0 
-2.553560919764e-01 -2.300241133123e+02 0.0 
0.0 0.0 -9.842208220530e+01 
-1.246478587911e+02 1.038155194633e+01 0.0 
1.038155194633e+01 -2.923287550598e+02 0.0 
0.0 0.0 -1.246929841553e+02 
-1.108409283833e+02 2.197102171668e+00 0.0 
2.197102171668e+00 -2.449107168940e+02 0.0 
0.0 0.0 -1.063254935832e+02 
-1.387881693269e+02 8.546223511287e-02 0.0 
8.546223511287e-02 -3.309630233634e+02 0.0 
0.0 0.0 -1.405253578071e+02 
-1.345432580951e+02 6.338952963174e-01 0.0 
6.338952963174e-01 -3.273403133067e+02 0.0 
0.0 0.0 -1.381650714206e+02 
-7.552596036371e+01 8.736384933301e-02 0.0 
8.736384933301e-02 -1.646506638278e+02 0.0 
0.0 0.0 -7.165298725745e+01 
-7.546038881775e+01 -1.092211746266e-01 0.0 
-1.092211746266e-01 -1.645873519320e+02 0.0 
0.0 0.0 -7.161432222493e+01 
-1.162407004712e+02 7.727186550895e+00 0.0 
7.727186550895e+00 -2.542566584476e+02 0.0 
0.0 0.0 -1.107492076756e+02 
-1.167688184293e+02 1.054231972689e+01 0.0 
1.054231972689e+01 -2.730810065063e+02 0.0 
0.0 0.0 -1.165549474807e+02 
-1.091490084453e+02 -2.183477103607e+00 0.0 
-2.183477103607e+00 -2.613905330214e+02 0.0 
0.0 0.0 -1.107618624400e+02 
-1.152955490995e+02 1.017900878359e+01 0.0 
1.017900878359e+01 -2.562831225183e+02 0.0 
0.0 0.0 -1.110736014854e+02 
-9.734050878155e+01 1.161886792477e+01 0.0 
1.161886792477e+01 -2.445114856390e+02 0.0 
0.0 0.0 -1.021555983262e+02 
-1.425210795013e+02 4.634829874847e+00 0.0 
4.634829874847e+00 -3.502848972641e+02 0.0 
0.0 0.0 -1.474417930296e+02 
-7.874094869132e+01 1.206965823699e+01 0.0 
1.206965823699e+01 -2.145649701579e+02 0.0 
0.0 0.0 -8.759177565477e+01 
-1.508093611284e+02 5.815568019695e+00 0.0 
5.815568019695e+00 -3.501337049277e+02 0.0 
0.0 0.0 -1.498829198168e+02 
-9.186860857590e+01 2.780459599495e+00 0.0 
2.780459599495e+00 -1.952084676767e+02 0.0 
0.0 0.0 -8.572312287578e+01 
-9.262403358875e+01 1.381238240784e+01 0.0 
1.381238240784e+01 -2.322327633291e+02 0.0 
0.0 0.0 -9.705703907535e+01 
-1.030141247856e+02 -4.343545707092e+00 0.0 
-4.343545707092e+00 -2.528361361783e+02 0.0 
0.0 0.0 -1.063550782892e+02 
-4.105844820167e+01 1.082556715526e+01 0.0 
1.082556715526e+01 -1.561993519444e+02 0.0 
0.0 0.0 -5.877734004384e+01 
-9.270427750168e+01 -4.281528210370e+00 0.0 
-4.281528210370e+00 -2.274865510023e+02 0.0 
0.0 0.0 -9.565724855119e+01 
-1.089757093021e+02 1.082474323584e+01 0.0 
1.082474323584e+01 -2.538239140783e+02 0.0 
0.0 0.0 -1.084398870141e+02 
-1.025146754781e+02 9.896826242713e+00 0.0 
9.896826242713e+00 -2.304442869633e+02 0.0 
0.0 0.0 -9.948768873240e+01 
-1.110186540927e+02 2.948597138825e+00 0.0 
2.948597138825e+00 -2.442254049289e+02 0.0 
0.0 0.0 -1.061732177065e+02 
-1.183586892869e+02 8.760551260700e+00 0.0 
8.760551260700e+00 -2.666101127785e+02 0.0 
0.0 0.0 -1.150906406196e+02 
-1.228050466733e+02 1.040126662039e+01 0.0 
1.040126662039e+01 -2.757336119047e+02 0.0 
0.0 0.0 -1.191615975734e+02 
-2.216782818989e+01 6.453572081283e-02 0.0 
6.453572081283e-02 -5.888463570776e+01 0.0 
0.0 0.0 -2.391573916930e+01 
-8.681051282325e+01 -6.171347157136e+00 0.0 
-6.171347157136e+00 -2.136937889435e+02 0.0 
0.0 0.0 -8.975129053002e+01 
-7.974196766478e+01 1.270346574140e+01 0.0 
1.270346574140e+01 -1.711473643922e+02 0.0 
0.0 0.0 -7.486679961708e+01 
-1.110891898254e+02 7.209690934302e+00 0.0 
7.209690934302e+00 -2.448648992135e+02 0.0 
0.0 0.0 -1.063862267117e+02 
-1.159194827577e+02 8.920198182091e+00 0.0 
8.920198182091e+00 -2.549359625256e+02 0.0 
0.0 0.0 -1.108566335850e+02 
-1.387334167653e+02 6.996903880375e+00 0.0 
6.996903880375e+00 -3.415434992130e+02 0.0 
0.0 0.0 -1.436830747935e+02 
-3.749824879959e+01 -1.158246041507e+00 0.0 
-1.158246041507e+00 -8.901580904002e+01 0.0 
0.0 0.0 -3.755421735188e+01 
-3.529373196595e+01 -8.346545938122e+00 0.0 
-8.346545938122e+00 -1.412779644987e+02 0.0 
0.0 0.0 -5.298816223910e+01 
-9.668633035499e+01 1.193505010922e+01 0.0 
1.193505010922e+01 -2.273427819400e+02 0.0 
0.0 0.0 -9.680873368851e+01 
-8.889130288707e+01 -4.402427991770e+00 0.0 
-4.402427991770e+00 -2.149578171767e+02 0.0 
0.0 0.0 -9.075473601912e+01 
-7.327686073516e+01 3.765207270800e+00 0.0 
3.765207270800e+00 -1.494468474731e+02 0.0 
0.0 0.0 -6.641711246248e+01 
-7.732070656091e+01 3.369262222605e+00 0.0 
3.369262222605e+00 -1.592287737177e+02 0.0 
0.0 0.0 -7.056484408357e+01 
-1.122848344314e+02 4.796528115502e+00 0.0 
4.796528115502e+00 -2.450745409609e+02 0.0 
0.0 0.0 -1.068078126177e+02 
-3.322510490616e+01 2.278446871169e+01 0.0 
2.278446871169e+01 -1.115940508803e+02 0.0 
0.0 0.0 -4.294279221906e+01 
-9.919736177827e+01 -4.622218381211e+00 0.0 
-4.622218381211e+00 -2.407884229300e+02 0.0 
0.0 0.0 -1.015957354125e+02 
-1.242849234021e+02 4.545112247957e+00 0.0 
4.545112247957e+00 -3.153893102949e+02 0.0 
0.0 0.0 -1.315022701091e+02 
-3.190367420347e+01 -2.894998926661e+00 0.0 
-2.894998926661e+00 -1.412743360425e+02 0.0 
0.0 0.0 -5.265830036227e+01 
-1.523688529144e+02 1.178241092434e+01 0.0 
1.178241092434e+01 -3.569836051383e+02 0.0 
0.0 0.0 -1.524057374158e+02 
-1.308660086122e+02 4.832797822044e+00 0.0 
4.832797822044e+00 -2.954152653943e+02 0.0 
0.0 0.0 -1.274843822019e+02 
-9.687851449571e+01 -2.842996354518e+00 0.0 
-2.842996354518e+00 -2.297061996540e+02 0.0 
0.0 0.0 -9.757541424492e+01 
-1.331479969414e+02 -1.827889575970e+00 0.0 
-1.827889575970e+00 -3.185948497124e+02 0.0 
0.0 0.0 -1.351228539961e+02 
-1.585650340077e+01 -3.677430673227e-01 0.0 
-3.677430673227e-01 -4.242890787616e+01 0.0 
0.0 0.0 -1.708562338308e+01 
-1.197264560895e+02 3.182929842460e+00 0.0 
3.182929842460e+00 -3.057903863020e+02 0.0 
0.0 0.0 -1.272550527174e+02 
-1.002701443178e+02 1.325911770258e+01 0.0 
1.325911770258e+01 -2.345289460648e+02 0.0 
0.0 0.0 -1.000397271148e+02 
-1.554654397230e+01 -3.471945204839e-01 0.0 
-3.471945204839e-01 -4.228692490142e+01 0.0 
0.0 0.0 -1.695004066212e+01 
-1.298550324076e+02 3.206051725336e+00 0.0 
3.206051725336e+00 -2.947765329173e+02 0.0 
0.0 0.0 -1.269894695975e+02 
-3.051001273862e+01 -2.496885157091e+00 0.0 
-2.496885157091e+00 -1.372682439808e+02 0.0 
0.0 0.0 -5.112735121725e+01 
-1.118429654987e+02 9.371986033854e+00 0.0 
9.371986033854e+00 -2.456574594817e+02 0.0 
0.0 0.0 -1.068501274941e+02 
-1.021738037731e+02 1.215893822503e+01 0.0 
1.215893822503e+01 -2.307356094363e+02 0.0 
0.0 0.0 -9.947282396282e+01 
-8.431458977038e+01 -3.066317702413e-01 0.0 
-3.066317702413e-01 -2.355167214214e+02 0.0 
0.0 0.0 -9.554939335755e+01 
-1.052879358858e+02 -1.904191248970e+00 0.0 
-1.904191248970e+00 -2.737312803513e+02 0.0 
0.0 0.0 -1.133057648711e+02 
-1.334403195710e+02 3.843426386915e+00 0.0 
3.843426386915e+00 -3.040450600137e+02 0.0 
0.0 0.0 -1.308456138754e+02 
-1.143651894270e+02 -9.749762243682e-01 0.0 
-9.749762243682e-01 -2.923683852095e+02 0.0 
0.0 0.0 -1.216200723910e+02 
-9.955338414422e+01 1.189596671430e+01 0.0 
1.189596671430e+01 -2.394266384113e+02 0.0 
0.0 0.0 -1.012940067667e+02 
-9.522327616249e+01 1.389784291783e+01 0.0 
1.389784291783e+01 -2.271363425516e+02 0.0 
0.0 0.0 -9.630788561422e+01 
-3.189259365579e+01 2.387973205530e+01 0.0 
2.387973205530e+01 -2.625064129481e+01 0.0 
0.0 0.0 -1.691145007378e+01 
-2.702456106334e+01 -3.261608718843e+00 0.0 
-3.261608718843e+00 -1.314471948563e+02 0.0 
0.0 0.0 -4.887120037892e+01 
-1.324163713780e+02 1.206582194862e+01 0.0 
1.206582194862e+01 -3.116533760198e+02 0.0 
0.0 0.0 -1.328209242194e+02 
-1.046040986035e+02 5.232211908698e+00 0.0 
5.232211908698e+00 -2.249696122915e+02 0.0 
0.0 0.0 -9.847211326851e+01 
-1.360798509129e+02 1.049590694216e+01 0.0 
1.049590694216e+01 -3.224874345459e+02 0.0 
0.0 0.0 -1.371701856377e+02 
-5.434839539676e+01 1.921563621000e+01 0.0 
1.921563621000e+01 -1.489714082752e+02 0.0 
0.0 0.0 -6.059594110158e+01 
-1.263815026806e+02 5.964200023813e+00 0.0 
5.964200023813e+00 -2.832223742281e+02 0.0 
0.0 0.0 -1.224811630726e+02 
-1.371190969655e+02 1.212474018362e+01 0.0 
1.212474018362e+01 -3.200996173476e+02 0.0 
0.0 0.0 -1.367656142939e+02 
-8.017062081306e+01 2.146921127390e+00 0.0 
2.146921127390e+00 -1.667722127681e+02 0.0 
0.0 0.0 -7.368285007436e+01 
-1.325171314450e+02 1.041194147595e+01 0.0 
1.041194147595e+01 -3.112828494594e+02 0.0 
0.0 0.0 -1.327399942713e+02 
-1.343602986947e+02 -2.745220482448e-01 0.0 
-2.745220482448e-01 -3.194601548845e+02 0.0 
0.0 0.0 -1.357461360738e+02 
-1.121155820741e+02 1.090567237443e+01 0.0 
1.090567237443e+01 -2.654668427742e+02 0.0 
0.0 0.0 -1.128747274545e+02 
-9.481753802747e+01 -5.254530664341e+00 0.0 
-5.254530664341e+00 -2.333497465594e+02 0.0 
0.0 0.0 -9.805018537608e+01 
-1.007378287364e+02 -3.296447154268e+00 0.0 
-3.296447154268e+00 -2.468387993212e+02 0.0 
0.0 0.0 -1.038729884173e+02 
-1.388564363547e+02 7.389747009666e+00 0.0 
7.389747009666e+00 -3.148923967500e+02 0.0 
0.0 0.0 -1.357246499314e+02 
-9.649428329496e+01 -2.949624972484e+00 0.0 
-2.949624972484e+00 -2.553259409083e+02 0.0 
0.0 0.0 -1.051460672610e+02 
-1.058014175460e+02 1.048541271167e+01 0.0 
1.048541271167e+01 -2.421304858279e+02 0.0 
0.0 0.0 -1.039795710122e+02 
-9.516164065357e+01 1.013026729129e+01 0.0 
1.013026729129e+01 -2.494215480734e+02 0.0 
0.0 0.0 -1.029749566181e+02 
-1.237152937743e+02 -1.337578212855e-01 0.0 
-1.337578212855e-01 -3.111716210670e+02 0.0 
0.0 0.0 -1.300660744524e+02 
-8.717992316552e+01 1.374924497337e+01 0.0 
1.374924497337e+01 -2.256565610798e+02 0.0 
0.0 0.0 -9.345094527359e+01 
-4.913729725443e+01 3.663288582067e+00 0.0 
3.663288582067e+00 -1.749581095135e+02 0.0 
0.0 0.0 -6.682862203037e+01 
-9.586651094357e+01 2.471484823511e+00 0.0 
2.471484823511e+00 -2.615968346465e+02 0.0 
0.0 0.0 -1.068390036770e+02 
-5.413660644045e+01 7.566540756450e+00 0.0 
7.566540756450e+00 -1.816645197463e+02 0.0 
0.0 0.0 -7.034033785602e+01 
-1.147443876867e+02 8.033553199729e+00 0.0 
8.033553199729e+00 -2.556112190533e+02 0.0 
0.0 0.0 -1.107066820220e+02 
-5.324571913059e+01 5.511174681335e+00 0.0 
5.511174681335e+00 -1.808298270406e+02 0.0 
0.0 0.0 -6.982266385135e+01 
-1.110916610554e+02 1.076901502111e+01 0.0 
1.076901502111e+01 -2.475813626709e+02 0.0 
0.0 0.0 -1.072019071179e+02 
-1.345066521944e+02 8.935980942612e+00 0.0 
8.935980942612e+00 -3.326806135077e+02 0.0 
0.0 0.0 -1.397561797106e+02 
-1.293996461229e+02 6.852785007734e+00 0.0 
6.852785007734e+00 -3.238759127181e+02 0.0 
0.0 0.0 -1.355826676523e+02 
-8.416317262566e+01 1.253019664042e+01 0.0 
1.253019664042e+01 -2.203590174467e+02 0.0 
0.0 0.0 -9.095665702170e+01 
-1.072427556636e+02 3.003602760561e+00 0.0 
3.003602760561e+00 -2.341445961230e+02 0.0 
0.0 0.0 -1.020162055360e+02 
-1.374409477903e+02 -1.658602698439e+00 0.0 
-1.658602698439e+00 -3.263600694856e+02 0.0 
0.0 0.0 -1.387403051828e+02 
-1.384482960156e+02 -7.777761438224e-02 0.0 
-7.777761438224e-02 -3.271502111600e+02 0.0 
0.0 0.0 -1.392795521527e+02 
-3.304695495453e+01 2.531640513418e+01 0.0 
2.531640513418e+01 -9.414133727028e+01 0.0 
0.0 0.0 -3.723925565388e+01 
-1.142649089829e+02 9.251272640882e+00 0.0 
9.251272640882e+00 -2.581240386173e+02 0.0 
0.0 0.0 -1.113166842801e+02 
-1.508348528992e+02 -1.430882619270e+00 0.0 
-1.430882619270e+00 -3.548116856205e+02 0.0 
0.0 0.0 -1.512939615559e+02 
-5.995907556435e+01 6.854416323427e+00 0.0 
6.854416323427e+00 -1.186197492953e+02 0.0 
0.0 0.0 -5.317364745790e+01 
-1.049686999095e+02 -2.249900608055e+00 0.0 
-2.249900608055e+00 -2.492982918302e+02 0.0 
0.0 0.0 -1.058800975219e+02 
-3.671365255388e+01 2.483017911019e+01 0.0 
2.483017911019e+01 -2.626866509616e+01 0.0 
0.0 0.0 -1.774483850522e+01 
-1.415990453525e+02 -1.489062132729e+00 0.0 
-1.489062132729e+00 -3.342152385428e+02 0.0 
0.0 0.0 -1.423442851686e+02 
-4.633205763098e+01 8.436146593657e+00 0.0 
8.436146593657e+00 -1.677580505838e+02 0.0 
0.0 0.0 -6.382703246443e+01 
-1.019235832596e+02 -1.477698891700e+00 0.0 
-1.477698891700e+00 -2.358904873749e+02 0.0 
0.0 0.0 -1.009442211904e+02 
-1.174730412078e+02 9.431086407319e+00 0.0 
9.431086407319e+00 -2.927841904529e+02 0.0 
0.0 0.0 -1.226771694982e+02 
-1.085919654528e+02 4.924283885892e+00 0.0 
4.924283885892e+00 -2.350751275402e+02 0.0 
0.0 0.0 -1.027001278979e+02 
-1.036728120402e+02 3.207347192371e+00 0.0 
3.207347192371e+00 -2.241963428105e+02 0.0 
0.0 0.0 -9.796074645522e+01 
-1.043410118463e+02 1.137471061252e+01 0.0 
1.137471061252e+01 -2.464508985038e+02 0.0 
0.0 0.0 -1.048375731050e+02 
-6.533221935298e+01 4.273400009475e+00 0.0 
4.273400009475e+00 -1.302492516991e+02 0.0 
0.0 0.0 -5.827444131562e+01 
-6.942583924252e+01 3.784176643971e+00 0.0 
3.784176643971e+00 -1.399722696827e+02 0.0 
0.0 0.0 -6.241943267757e+01 
-1.423700417838e+02 6.841766892624e-02 0.0 
6.841766892624e-02 -3.349076897672e+02 0.0 
0.0 0.0 -1.427833194653e+02 
-1.113106249659e+02 4.119611371460e-01 0.0 
4.119611371460e-01 -2.855268725378e+02 0.0 
0.0 0.0 -1.186512492511e+02 
-9.282668621127e+01 7.097935347536e-01 0.0 
7.097935347536e-01 -2.525704677413e+02 0.0 
0.0 0.0 -1.032191461858e+02 
-1.186285216346e+02 2.288331266269e+00 0.0 
2.288331266269e+00 -3.051638145305e+02 0.0 
0.0 0.0 -1.267377008495e+02 
-8.696457737492e+01 2.046807877234e+00 0.0 
2.046807877234e+00 -2.444962753682e+02 0.0 
0.0 0.0 -9.903825582295e+01 
-4.912470990333e+01 9.828794630995e+00 0.0 
9.828794630995e+00 -1.708353521700e+02 0.0 
0.0 0.0 -6.558801862199e+01 
-6.404205901963e+01 1.891492810195e+00 0.0 
1.891492810195e+00 -1.289282719288e+02 0.0 
0.0 0.0 -5.749109928452e+01 
-9.662463942649e+01 4.433574142319e+00 0.0 
4.433574142319e+00 -2.056631088822e+02 0.0 
0.0 0.0 -9.028632449260e+01 
-7.556089201777e+01 6.800679685976e-03 0.0 
6.800679685976e-03 -1.648191856957e+02 0.0 
0.0 0.0 -7.171402331404e+01 
-1.293196612987e+02 7.905470066312e+00 0.0 
7.905470066312e+00 -3.240554329234e+02 0.0 
0.0 0.0 -1.356125282666e+02 
-8.171686862336e+01 1.331439107762e+01 0.0 
1.331439107762e+01 -2.194838292603e+02 0.0 
0.0 0.0 -8.996020936510e+01 
-1.491962240064e+02 8.804138863816e+00 0.0 
8.804138863816e+00 -3.589965955698e+02 0.0 
0.0 0.0 -1.520578458729e+02 
-1.407173715446e+02 -1.324703401686e+00 0.0 
-1.324703401686e+00 -3.285382976948e+02 0.0 
0.0 0.0 -1.403767007718e+02 
-9.218024883396e+01 4.139604766899e+00 0.0 
4.139604766899e+00 -2.537210203328e+02 0.0 
0.0 0.0 -1.033703807500e+02 
-1.558682631509e+02 5.594483780941e-01 0.0 
5.594483780941e-01 -3.665352630997e+02 0.0 
0.0 0.0 -1.563210578752e+02 
-5.800326176311e+01 1.904154171637e+00 0.0 
1.904154171637e+00 -1.892453624567e+02 0.0 
0.0 0.0 -7.377458726594e+01 
-1.443569273759e+02 9.309581578680e+00 0.0 
9.309581578680e+00 -3.484276499031e+02 0.0 
0.0 0.0 -1.474353731837e+02 
-1.030875422920e+02 1.322658720225e+01 0.0 
1.322658720225e+01 -2.463185309317e+02 0.0 
0.0 0.0 -1.044218219671e+02 
-1.152574973307e+02 1.075117951439e+01 0.0 
1.075117951439e+01 -2.769194940477e+02 0.0 
0.0 0.0 -1.172530974135e+02 
-1.389985191835e+02 4.429473704746e+00 0.0 
4.429473704746e+00 -3.428683322582e+02 0.0 
0.0 0.0 -1.441600554325e+02 
-7.342997949758e+01 -7.302607016560e+00 0.0 
-7.302607016560e+00 -1.821499719854e+02 0.0 
0.0 0.0 -7.627398544489e+01 
-1.101114822365e+02 9.831913029019e+00 0.0 
9.831913029019e+00 -2.500131266495e+02 0.0 
0.0 0.0 -1.076373826658e+02 
-8.805183074983e+01 1.975134215126e+00 0.0 
1.975134215126e+00 -2.449414442901e+02 0.0 
0.0 0.0 -9.949798251199e+01 
-1.066746368165e+02 1.141615986547e+01 0.0 
1.141615986547e+01 -2.389738081918e+02 0.0 
0.0 0.0 -1.032945335025e+02 
-5.545624264227e+01 1.975182880249e+01 0.0 
1.975182880249e+01 -1.502110088762e+02 0.0 
0.0 0.0 -6.130017545554e+01 
-1.185606223937e+02 1.035232752530e+01 0.0 
1.035232752530e+01 -2.883730332973e+02 0.0 
0.0 0.0 -1.216800967073e+02 
-8.248053865497e+01 -2.085454508262e-01 0.0 
-2.085454508262e-01 -2.347627462797e+02 0.0 
0.0 0.0 -9.477298548040e+01 
-1.074162663573e+02 -3.841233531665e+00 0.0 
-3.841233531665e+00 -2.602635641517e+02 0.0 
0.0 0.0 -1.099039491527e+02 
-1.066933715996e+02 9.172050360063e+00 0.0 
9.172050360063e+00 -2.385526389642e+02 0.0 
0.0 0.0 -1.031738031691e+02 
-3.853786052320e+01 3.432097426737e+01 0.0 
3.432097426737e+01 -5.731816086292e+01 0.0 
0.0 0.0 -2.848387683287e+01 
-1.037178058518e+02 9.435579154647e+00 0.0 
9.435579154647e+00 -2.673661654054e+02 0.0 
0.0 0.0 -1.109251913771e+02 
-3.634656741335e+01 2.625776823897e+01 0.0 
2.625776823897e+01 -5.014863011125e+01 0.0 
0.0 0.0 -2.402278487208e+01 
-2.764760398853e+01 -2.899658094750e+00 0.0 
-2.899658094750e+00 -6.362399918682e+01 0.0 
0.0 0.0 -2.698148095261e+01 
-1.034088043603e+02 -4.001239172719e+00 0.0 
-4.001239172719e+00 -2.481999512217e+02 0.0 
0.0 0.0 -1.050826266746e+02 
-1.298644874475e+02 1.152251670990e+01 0.0 
1.152251670990e+01 -2.976764798013e+02 0.0 
0.0 0.0 -1.278622901747e+02 
-1.073260286367e+02 3.950908226269e+00 0.0 
3.950908226269e+00 -2.334063109930e+02 0.0 
0.0 0.0 -1.018197018889e+02 
-5.749668387910e+01 5.220444907123e+00 0.0 
5.220444907123e+00 -1.114635749257e+02 0.0 
0.0 0.0 -5.028807764144e+01 
-1.495234127684e+02 5.749223455161e+00 0.0 
5.749223455161e+00 -3.502212964595e+02 0.0 
0.0 0.0 -1.495234127684e+02 
-3.459017137143e+01 2.731385509893e+01 0.0 
2.731385509893e+01 -2.767091021151e+01 0.0 
0.0 0.0 -1.899910470892e+01 
-6.141396270793e+01 4.428504195062e+00 0.0 
4.428504195062e+00 -1.208726100081e+02 0.0 
0.0 0.0 -5.428597181481e+01 
-9.574415357041e+01 -6.062734119382e-01 0.0 
-6.062734119382e-01 -2.589955809187e+02 0.0 
0.0 0.0 -1.060219203467e+02 
-1.007685532158e+02 -2.130808784852e+00 0.0 
-2.130808784852e+00 -2.373224055944e+02 0.0 
0.0 0.0 -1.010272876431e+02 
-7.755851611973e+01 6.295306370113e+00 0.0 
6.295306370113e+00 -1.579926862011e+02 0.0 
0.0 0.0 -7.026536069626e+01 
-6.201044053075e+01 -5.149275730205e+00 0.0 
-5.149275730205e+00 -1.909453938442e+02 0.0 
0.0 0.0 -7.548675031248e+01 
-1.025072258912e+02 -6.687114657789e-01 0.0 
-6.687114657789e-01 -2.672433490409e+02 0.0 
0.0 0.0 -1.105251724796e+02 
-1.081099602107e+02 1.278603753915e+01 0.0 
1.278603753915e+01 -2.538775986703e+02 0.0 
0.0 0.0 -1.081962676643e+02 
-1.124937688931e+02 8.968947265268e+00 0.0 
8.968947265268e+00 -2.856025718240e+02 0.0 
0.0 0.0 -1.190289022151e+02 
-1.331985225473e+02 8.439911042436e+00 0.0 
8.439911042436e+00 -3.036359783488e+02 0.0 
0.0 0.0 -1.306503502688e+02 
-3.624410796627e+01 2.641770241049e+01 0.0 
2.641770241049e+01 -1.188646024982e+02 0.0 
0.0 0.0 -4.673423656602e+01 
-9.530279623604e+01 -4.686068540657e+00 0.0 
-4.686068540657e+00 -2.286304298043e+02 0.0 
0.0 0.0 -9.677996781209e+01 
-1.035034259281e+02 -3.357272016300e+00 0.0 
-3.357272016300e+00 -2.442219724631e+02 0.0 
0.0 0.0 -1.039176195173e+02 
-5.785383394885e+01 -6.465112993435e+00 0.0 
-6.465112993435e+00 -1.339622008007e+02 0.0 
0.0 0.0 -5.714481042488e+01 
-8.389547013823e+01 1.843744432385e+00 0.0 
1.843744432385e+00 -1.763319901188e+02 0.0 
0.0 0.0 -7.766823807710e+01 
-1.084960040548e+02 5.976346630311e+00 0.0 
5.976346630311e+00 -2.343095444613e+02 0.0 
0.0 0.0 -1.024416645548e+02 
-1.286462091441e+02 6.374823405134e-01 0.0 
6.374823405134e-01 -2.992603997185e+02 0.0 
0.0 0.0 -1.279719826588e+02 
-1.399009973114e+01 -4.484373004760e-01 0.0 
-4.484373004760e-01 -4.224032214934e+01 0.0 
0.0 0.0 -1.646912656414e+01 
-4.557293123747e+01 -6.873240270376e+00 0.0 
-6.873240270376e+00 -1.189976739666e+02 0.0 
0.0 0.0 -5.074957287003e+01 
-4.198094374665e+01 -5.499882230534e+00 0.0 
-5.499882230534e+00 -9.231512123354e+01 0.0 
0.0 0.0 -3.988881949406e+01 
-1.046324160987e+02 -1.490270661346e+00 0.0 
-1.490270661346e+00 -2.451367214524e+02 0.0 
0.0 0.0 -1.045307412653e+02 
-6.624708448905e+01 2.576753680460e+00 0.0 
2.576753680460e+00 -2.044707606016e+02 0.0 
0.0 0.0 -8.081535352720e+01 
-6.056346215075e+01 -4.505630412454e+00 0.0 
-4.505630412454e+00 -1.871765203330e+02 0.0 
0.0 0.0 -7.392199474512e+01 
-4.999194340708e+01 1.045648724733e+00 0.0 
1.045648724733e+00 -1.747600130281e+02 0.0 
0.0 0.0 -6.702558693056e+01 
-1.075679096482e+02 -3.422335950798e+00 0.0 
-3.422335950798e+00 -2.558656595552e+02 0.0 
0.0 0.0 -1.086300707610e+02 
-1.149842662082e+02 5.585317585526e+00 0.0 
5.585317585526e+00 -2.531293082972e+02 0.0 
0.0 0.0 -1.100340723516e+02 
-1.075048765887e+02 -2.773903468813e+00 0.0 
-2.773903468813e+00 -2.522648200351e+02 0.0 
0.0 0.0 -1.075309089871e+02 
-6.570521827879e+01 3.763845502202e+00 0.0 
3.763845502202e+00 -2.045193939598e+02 0.0 
0.0 0.0 -8.066738367156e+01 
-1.143478786146e+02 1.141810688076e+01 0.0 
1.141810688076e+01 -2.585628741906e+02 0.0 
0.0 0.0 -1.114732258416e+02 
-9.074489603877e+01 7.633231058897e-01 0.0 
7.633231058897e-01 -1.960066649635e+02 0.0 
0.0 0.0 -8.562546830068e+01 
-1.265921047671e+02 9.155706834730e+00 0.0 
9.155706834730e+00 -3.117682941526e+02 0.0 
0.0 0.0 -1.311081196759e+02 
-1.084613792858e+02 -8.981024883556e-01 0.0 
-8.981024883556e-01 -2.531187072958e+02 0.0 
0.0 0.0 -1.080740259745e+02 
-1.088995180809e+02 -1.646711692796e+00 0.0 
-1.646711692796e+00 -2.568739547003e+02 0.0 
0.0 0.0 -1.093320418344e+02 
-4.970133811725e+01 6.524548225246e+00 0.0 
6.524548225246e+00 -9.212194008400e+01 0.0 
0.0 0.0 -4.214698346038e+01 
-7.107907528049e+01 2.134101505112e-01 0.0 
2.134101505112e-01 -2.119887010844e+02 0.0 
0.0 0.0 -8.452033290947e+01 
-1.114260404869e+02 -2.219407906173e+00 0.0 
-2.219407906173e+00 -2.603387165541e+02 0.0 
0.0 0.0 -1.111294271123e+02 
-1.050630865698e+02 -5.602551974508e-01 0.0 
-5.602551974508e-01 -2.357890605945e+02 0.0 
0.0 0.0 -1.018556441493e+02 
-9.757918546088e+01 -6.411308768463e-01 0.0 
-6.411308768463e-01 -2.175752348968e+02 0.0 
0.0 0.0 -9.414632610731e+01 
-5.362140853424e+01 5.652940296571e+00 0.0 
5.652940296571e+00 -1.020303139900e+02 0.0 
0.0 0.0 -4.629551675727e+01 
-1.116778670609e+02 -2.889959150592e+00 0.0 
-2.889959150592e+00 -2.637461147906e+02 0.0 
0.0 0.0 -1.122271945555e+02 
-6.356694185706e+01 -8.348751273511e+00 0.0 
-8.348751273511e+00 -1.805175469710e+02 0.0 
0.0 0.0 -7.282534664843e+01 
-3.812828308786e+01 2.384859979103e+01 0.0 
2.384859979103e+01 -7.173367153527e+01 0.0 
0.0 0.0 -3.073076274616e+01 
-1.448179013039e+02 1.063418312349e+01 0.0 
1.063418312349e+01 -3.490502596753e+02 0.0 
0.0 0.0 -1.477604482938e+02 
-4.183152894629e+01 -9.566635110613e+00 0.0 
-9.566635110613e+00 -8.551174781137e+01 0.0 
0.0 0.0 -3.775451141579e+01 
-6.408457974364e+01 -8.580617473647e+00 0.0 
-8.580617473647e+00 -1.833545345624e+02 0.0 
0.0 0.0 -7.383173429181e+01 
-9.881893121749e+01 1.164319038641e+01 0.0 
1.164319038641e+01 -2.556388716891e+02 0.0 
0.0 0.0 -1.059373408720e+02 
-5.588655579051e+01 2.519200035429e+00 0.0 
2.519200035429e+00 -1.096162029093e+02 0.0 
0.0 0.0 -4.925082760995e+01 
-1.123320702481e+02 -3.491746019775e-01 0.0 
-3.491746019775e-01 -2.613843586350e+02 0.0 
0.0 0.0 -1.117149286649e+02 
-5.206963201857e+01 7.509632258449e-01 0.0 
7.509632258449e-01 -1.197433464245e+02 0.0 
0.0 0.0 -5.114389353292e+01 
-8.828467259711e+01 3.674532105911e+00 0.0 
3.674532105911e+00 -1.845884872963e+02 0.0 
0.0 0.0 -8.146194796802e+01 
-1.127796043302e+02 -1.106949296121e+00 0.0 
-1.106949296121e+00 -2.646578083416e+02 0.0 
0.0 0.0 -1.128312238015e+02 
-8.920274292299e+01 -1.310602359528e+00 0.0 
-1.310602359528e+00 -2.425268272978e+02 0.0 
0.0 0.0 -9.911887106623e+01 
-1.009979575410e+02 -2.894212140003e+00 0.0 
-2.894212140003e+00 -2.419499010631e+02 0.0 
0.0 0.0 -1.024843575812e+02 
-3.392764521464e+01 2.818381853159e+01 0.0 
2.818381853159e+01 -8.314826220944e+01 0.0 
0.0 0.0 -3.631716228513e+01 
-1.278620733771e+02 1.080628218929e+00 0.0 
1.080628218929e+00 -2.935201104942e+02 0.0 
0.0 0.0 -1.260146551614e+02 
-7.311809524926e+01 -4.091987989069e+00 0.0 
-4.091987989069e+00 -2.086274045621e+02 0.0 
0.0 0.0 -8.412364994340e+01 
-1.382368450876e+02 5.240075429215e+00 0.0 
5.240075429215e+00 -3.428637191142e+02 0.0 
0.0 0.0 -1.439301692605e+02 
-1.142926559858e+02 1.242730121870e+01 0.0 
1.242730121870e+01 -2.769578920983e+02 0.0 
0.0 0.0 -1.169751644252e+02 
-1.157060002440e+02 -2.412659568668e+00 0.0 
-2.412659568668e+00 -2.717453972925e+02 0.0 
0.0 0.0 -1.158354192609e+02 
-1.166173694966e+02 -6.500237462916e-01 0.0 
-6.500237462916e-01 -2.725649487409e+02 0.0 
0.0 0.0 -1.163546954713e+02 
-6.118887634199e+01 4.827291421201e-01 0.0 
4.827291421201e-01 -1.959600109952e+02 0.0 
0.0 0.0 -7.674466620116e+01 
-3.529052776634e+01 -9.389331923057e+00 0.0 
-9.389331923057e+00 -5.922029345703e+01 0.0 
0.0 0.0 -2.681502471332e+01 
-3.205052058878e+01 3.233607486906e+01 0.0 
3.233607486906e+01 -8.600634357921e+01 0.0 
0.0 0.0 -3.681843876172e+01 
-1.197102262037e+02 -1.960166892668e+00 0.0 
-1.960166892668e+00 -2.798791040186e+02 0.0 
0.0 0.0 -1.194767990667e+02 
-1.380455261716e+02 3.438424872903e+00 0.0 
3.438424872903e+00 -3.425110617787e+02 0.0 
0.0 0.0 -1.437669763851e+02 
-6.578428660652e+01 -9.350931182119e+00 0.0 
-9.350931182119e+00 -1.718515839949e+02 0.0 
0.0 0.0 -7.089076118043e+01 
-1.177605604357e+02 9.785447154590e+00 0.0 
9.785447154590e+00 -2.694870845022e+02 0.0 
0.0 0.0 -1.157742934814e+02 
-5.570541000455e+01 7.817078145204e+00 0.0 
7.817078145204e+00 -1.082692223698e+02 0.0 
0.0 0.0 -4.879238971232e+01 
-1.187164305718e+02 1.089410844895e+01 0.0 
1.089410844895e+01 -2.671893151262e+02 0.0 
0.0 0.0 -1.153717237094e+02 
-1.580582612043e+02 1.568233555699e+00 0.0 
1.568233555699e+00 -3.782545800117e+02 0.0 
0.0 0.0 -1.604938523648e+02 
-1.081034918110e+02 -1.386675146690e+00 0.0 
-1.386675146690e+00 -1.030163401100e+02 0.0 
0.0 0.0 -6.361282058675e+01 
-1.478989538080e+02 7.230169912956e-01 0.0 
7.230169912956e-01 -3.464308922187e+02 0.0 
0.0 0.0 -1.478989538080e+02 
-1.672626952804e+02 -1.844952283881e-01 0.0 
-1.844952283881e-01 -3.916129556543e+02 0.0 
0.0 0.0 -1.672626952804e+02 
-8.438365136640e+01 7.978382318104e-01 0.0 
7.978382318104e-01 -1.858773736185e+02 0.0 
0.0 0.0 -8.067830749548e+01 
-7.527838646015e+01 -6.476860635558e+00 0.0 
-6.476860635558e+00 -2.027077685982e+02 0.0 
0.0 0.0 -8.299584651749e+01 
-1.111309794915e+02 1.269982668275e+01 0.0 
1.269982668275e+01 -2.654751426670e+02 0.0 
0.0 0.0 -1.125818366476e+02 
-6.163387874953e+01 5.579338664514e+00 0.0 
5.579338664514e+00 -1.959166713909e+02 0.0 
0.0 0.0 -7.686516504214e+01 
-2.247843524255e+01 -5.882729617617e-01 0.0 
-5.882729617617e-01 -5.498303720974e+01 0.0 
0.0 0.0 -2.283844173569e+01 
-4.034812711043e+01 2.795224201360e+01 0.0 
2.795224201360e+01 -2.935985430373e+01 0.0 
0.0 0.0 -2.016411916883e+01 
-1.350912342231e+02 2.439793622350e+00 0.0 
2.439793622350e+00 -3.106351308204e+02 0.0 
0.0 0.0 -1.333179095131e+02 
-1.124770936557e+02 6.884478083695e+00 0.0 
6.884478083695e+00 -2.443314014841e+02 0.0 
0.0 0.0 -1.066425485419e+02 
-8.141132887782e+01 3.318895459511e+00 0.0 
3.318895459511e+00 -1.699021047173e+02 0.0 
0.0 0.0 -7.499403007854e+01 
-1.604673153503e+02 1.301296660715e+01 0.0 
1.301296660715e+01 -3.761679812767e+02 0.0 
0.0 0.0 -1.605905889881e+02 
-4.265064667411e+01 7.904203002988e-01 0.0 
7.904203002988e-01 -9.993951415227e+01 0.0 
0.0 0.0 -4.237704824792e+01 
-1.608854676750e+02 1.272354639617e+01 0.0 
1.272354639617e+01 -3.788474894208e+02 0.0 
0.0 0.0 -1.615198871287e+02 
-1.112185581767e+02 4.757169075237e+00 0.0 
4.757169075237e+00 -2.432792199285e+02 0.0 
0.0 0.0 -1.059493334316e+02 
-7.678196974308e+01 -7.011203204339e+00 0.0 
-7.011203204339e+00 -1.956040776854e+02 0.0 
0.0 0.0 -8.131581422855e+01 
-1.073371436996e+02 1.126135076296e+01 0.0 
1.126135076296e+01 -2.581787679661e+02 0.0 
0.0 0.0 -1.092547734997e+02 
-6.883222532430e+01 -8.524495573116e+00 0.0 
-8.524495573116e+00 -1.883281177034e+02 0.0 
0.0 0.0 -7.674810290832e+01 
-3.893394904613e+01 1.980975463713e+01 0.0 
1.980975463713e+01 -7.205451280006e+01 0.0 
0.0 0.0 -3.216231447997e+01 
-6.625001658773e+01 -9.597225022384e+00 0.0 
-9.597225022384e+00 -1.750246599148e+02 0.0 
0.0 0.0 -7.198240295076e+01 
-1.187300269208e+02 6.399919332167e+00 0.0 
6.399919332167e+00 -2.632343353737e+02 0.0 
0.0 0.0 -1.141893086884e+02 
-1.454882277036e+02 4.468531197088e-01 0.0 
4.468531197088e-01 -3.397009666374e+02 0.0 
0.0 0.0 -1.451567583023e+02 
-6.679956950851e+01 -6.338060599236e+00 0.0 
-6.338060599236e+00 -1.958079893000e+02 0.0 
0.0 0.0 -7.838226764257e+01 
-1.219044671646e+02 9.367763657542e+00 0.0 
9.367763657542e+00 -2.777208064248e+02 0.0 
0.0 0.0 -1.194875820768e+02 
-6.774868321608e+01 -2.834563631484e+00 0.0 
-2.834563631484e+00 -1.124709597353e+02 0.0 
0.0 0.0 -5.456714840866e+01 
-6.547559614394e+01 -1.985412798459e+00 0.0 
-1.985412798459e+00 -2.018163794981e+02 0.0 
0.0 0.0 -7.978759269261e+01 
-1.240634658875e+02 7.200190733382e+00 0.0 
7.200190733382e+00 -2.743860782318e+02 0.0 
0.0 0.0 -1.191348632358e+02 
-6.745026714783e+01 -8.921383938639e+00 0.0 
-8.921383938639e+00 -1.670607832168e+02 0.0 
0.0 0.0 -6.995331510937e+01 
-6.295830315931e+01 -9.652866867615e+00 0.0 
-9.652866867615e+00 -1.577048078661e+02 0.0 
0.0 0.0 -6.579893330762e+01 
-1.060048338535e+02 1.290376624997e+01 0.0 
1.290376624997e+01 -2.580007964172e+02 0.0 
0.0 0.0 -1.088016890812e+02 
-3.707067644650e+01 -1.708496096147e+01 0.0 
-1.708496096147e+01 -1.078470288692e+02 0.0 
0.0 0.0 -4.256635619003e+01 
-4.107778585400e+01 7.566100912573e+00 0.0 
7.566100912573e+00 -7.111383486350e+01 0.0 
0.0 0.0 -3.325748621525e+01 
-4.620748459766e+01 7.293414375372e+00 0.0 
7.293414375372e+00 -8.310476172000e+01 0.0 
0.0 0.0 -3.839367389530e+01 
-6.055357411842e+01 -9.703325709935e+00 0.0 
-9.703325709935e+00 -1.473287850646e+02 0.0 
0.0 0.0 -6.196470775491e+01 
-9.763202595111e+01 -1.706483468126e-01 0.0 
-1.706483468126e-01 -2.599082237231e+02 0.0 
0.0 0.0 -1.068620749023e+02 
-9.214826718891e+01 1.148189619577e+01 0.0 
1.148189619577e+01 -2.381095954637e+02 0.0 
0.0 0.0 -9.867735879579e+01 
-1.220954117529e+02 1.142550251395e+01 0.0 
1.142550251395e+01 -2.781380954282e+02 0.0 
0.0 0.0 -1.196700521543e+02 
-1.409874122891e+02 8.416250271724e+00 0.0 
8.416250271724e+00 -3.238420227130e+02 0.0 
0.0 0.0 -1.390488305006e+02 
-4.753921998307e+01 3.413987080020e+00 0.0 
3.413987080020e+00 -9.028233682606e+01 0.0 
0.0 0.0 -4.094646704274e+01 
-1.131292680477e+02 1.208742455439e+00 0.0 
1.208742455439e+00 -2.554336956336e+02 0.0 
0.0 0.0 -1.101688891044e+02 
-1.438802583308e+02 1.039769604321e+01 0.0 
1.039769604321e+01 -3.344560390425e+02 0.0 
0.0 0.0 -1.431008892120e+02 
-5.731813161522e+01 3.694866051015e+00 0.0 
3.694866051015e+00 -1.893579421506e+02 0.0 
0.0 0.0 -7.360282212974e+01 
-3.223620989126e+01 2.248746857624e+01 0.0 
2.248746857624e+01 -4.894035934064e+01 0.0 
0.0 0.0 -2.237411294609e+01 
-6.190808500904e+01 1.007687506983e+01 0.0 
1.007687506983e+01 -1.202627159159e+02 0.0 
0.0 0.0 -5.425124027747e+01 
-9.405931612985e+01 -1.879495792571e+00 0.0 
-1.879495792571e+00 -2.494070581002e+02 0.0 
0.0 0.0 -1.026399122690e+02 
-1.221689167106e+02 8.331090326503e+00 0.0 
8.331090326503e+00 -2.750879903840e+02 0.0 
0.0 0.0 -1.187770721284e+02 
-9.165224090903e+01 -2.416569800432e+00 0.0 
-2.416569800432e+00 -2.482700890650e+02 0.0 
0.0 0.0 -1.015766989922e+02 
-2.988255538726e+01 2.544170396204e+01 0.0 
2.544170396204e+01 -9.768355068586e+01 0.0 
0.0 0.0 -3.790924300804e+01 
-1.063717591281e+02 8.665410377633e-01 0.0 
8.665410377633e-01 -2.776466121729e+02 0.0 
0.0 0.0 -1.148055113903e+02 
-4.131962826815e+01 1.671172320287e+01 0.0 
1.671172320287e+01 -7.652774121123e+01 0.0 
0.0 0.0 -3.495421084381e+01 
-9.016483905912e+01 1.237387362779e+01 0.0 
1.237387362779e+01 -2.374501832127e+02 0.0 
0.0 0.0 -9.788450668154e+01 
-1.003957102934e+02 -1.445028452420e+00 0.0 
-1.445028452420e+00 -2.661772889886e+02 0.0 
0.0 0.0 -1.095718997846e+02 
-1.104029186715e+02 1.090105554840e+01 0.0 
1.090105554840e+01 -2.697339220738e+02 0.0 
0.0 0.0 -1.136410522236e+02 
-1.037774353629e+02 1.242865252333e+00 0.0 
1.242865252333e+00 -2.310595032881e+02 0.0 
0.0 0.0 -1.000510815953e+02 
-6.253757749930e+01 -7.742288557714e+00 0.0 
-7.742288557714e+00 -1.485550325358e+02 0.0 
0.0 0.0 -6.292778301054e+01 
-3.606483995936e+01 2.698532702130e+01 0.0 
2.698532702130e+01 -7.301243024508e+01 0.0 
0.0 0.0 -3.129615853138e+01 
-1.094569949729e+02 -5.506731938622e-01 0.0 
-5.506731938622e-01 -2.845345730134e+02 0.0 
0.0 0.0 -1.177974703959e+02 
-4.419579146266e+01 1.369783511948e+01 0.0 
1.369783511948e+01 -8.210281569771e+01 0.0 
0.0 0.0 -3.748958214811e+01 
-4.260741137079e+01 9.357405849395e+00 0.0 
9.357405849395e+00 -1.206205751153e+02 0.0 
0.0 0.0 -5.037618427186e+01 
-1.353100728899e+02 -4.272897741572e-01 0.0 
-4.272897741572e-01 -3.123051261985e+02 0.0 
0.0 0.0 -1.338845597265e+02 
-1.282259144977e+02 -5.587355577061e-01 0.0 
-5.587355577061e-01 -2.937686302095e+02 0.0 
0.0 0.0 -1.261983634121e+02 
-1.677948339123e+01 -2.463952180896e+00 0.0 
-2.463952180896e+00 -2.483054002746e+01 0.0 
0.0 0.0 -1.239488453092e+01 
-1.154064982465e+02 1.798362371763e+00 0.0 
1.798362371763e+00 -2.958013673031e+02 0.0 
0.0 0.0 -1.229623596649e+02 
-5.017249670398e+01 -6.366579640930e+00 0.0 
-6.366579640930e+00 -1.134074535970e+02 0.0 
0.0 0.0 -4.867398509029e+01 
-5.301297175797e+01 -7.722977701142e+00 0.0 
-7.722977701142e+00 -1.198959838927e+02 0.0 
0.0 0.0 -5.147268669519e+01 
-1.296167623592e+02 9.546397658378e+00 0.0 
9.546397658378e+00 -2.973899882750e+02 0.0 
0.0 0.0 -1.277020251903e+02 
-1.091391573713e+02 1.232477183990e+01 0.0 
1.232477183990e+01 -2.694737108704e+02 0.0 
0.0 0.0 -1.131838604725e+02 
-1.254839387352e+02 9.852509476378e+00 0.0 
9.852509476378e+00 -2.890133936731e+02 0.0 
0.0 0.0 -1.239491997225e+02 
-6.808949395809e+01 -2.870755414917e+00 0.0 
-2.870755414917e+00 -2.026849784470e+02 0.0 
0.0 0.0 -8.083234172152e+01 
-7.601900432799e+01 5.572356675333e-02 0.0 
5.572356675333e-02 -1.647806879367e+02 0.0 
0.0 0.0 -7.183990767940e+01 
-1.598583177545e+02 1.433570053590e+00 0.0 
1.433570053590e+00 -3.781178772131e+02 0.0 
0.0 0.0 -1.609928584903e+02 
-4.555942121746e+01 -7.190469792043e+00 0.0 
-7.190469792043e+00 -9.940607844515e+01 0.0 
0.0 0.0 -4.308964989878e+01 
-1.337350914005e+02 7.008602632157e+00 0.0 
7.008602632157e+00 -3.330487400334e+02 0.0 
0.0 0.0 -1.396351494302e+02 
-9.549041058188e+01 1.283190457743e+01 0.0 
1.283190457743e+01 -2.440133608538e+02 0.0 
0.0 0.0 -1.014511314307e+02 
-3.239692834808e+01 -1.549547580816e+00 0.0 
-1.549547580816e+00 -7.617923310502e+01 0.0 
0.0 0.0 -3.217284843593e+01 
-1.185400366003e+02 7.588925480858e+00 0.0 
7.588925480858e+00 -2.642629346869e+02 0.0 
0.0 0.0 -1.144408913862e+02 
-6.960653111604e+01 1.073553835112e+00 0.0 
1.073553835112e+00 -2.115792543012e+02 0.0 
0.0 0.0 -8.395573562519e+01 
-3.137102961177e+01 -1.035350815374e+01 0.0 
-1.035350815374e+01 -4.650500450609e+01 0.0 
0.0 0.0 -2.221327465621e+01 
-5.730067192969e+01 -3.144694716003e+00 0.0 
-3.144694716003e+00 -1.860758934919e+02 0.0 
0.0 0.0 -7.261296962647e+01 
-1.249914743425e+02 -9.206547777107e-01 0.0 
-9.206547777107e-01 -2.905263067284e+02 0.0 
0.0 0.0 -1.242553343213e+02 
-1.199318196079e+02 8.558564900335e+00 0.0 
8.558564900335e+00 -2.644614530686e+02 0.0 
0.0 0.0 -1.149179818030e+02 
-3.756847144690e+01 -7.675487498466e+00 0.0 
-7.675487498466e+00 -7.920419561233e+01 0.0 
0.0 0.0 -3.460718582697e+01 
-1.028400131182e+02 -8.297188261515e-02 0.0 
-8.297188261515e-02 -2.367063325305e+02 0.0 
0.0 0.0 -1.014639036946e+02 
-1.259746667481e+02 8.984795457650e+00 0.0 
8.984795457650e+00 -2.863227328419e+02 0.0 
0.0 0.0 -1.232892198770e+02 
-1.311838738262e+02 1.104807407038e+01 0.0 
1.104807407038e+01 -3.195912171179e+02 0.0 
0.0 0.0 -1.348325272832e+02 
-6.347861347427e+01 -9.948734684681e+00 0.0 
-9.948734684681e+00 -1.611547857993e+02 0.0 
0.0 0.0 -6.699001978208e+01 
-5.234652218841e+01 -1.523699907797e+00 0.0 
-1.523699907797e+00 -1.199339025183e+02 0.0 
0.0 0.0 -5.128412741203e+01 
-1.003461858802e+02 1.061273450611e+01 0.0 
1.061273450611e+01 -2.560837374787e+02 0.0 
0.0 0.0 -1.065289770077e+02 
-1.009229098843e+02 8.841029163309e-01 0.0 
8.841029163309e-01 -2.252740538884e+02 0.0 
0.0 0.0 -9.745908913180e+01 
-3.256432628310e+01 -1.562434550832e+01 0.0 
-1.562434550832e+01 -5.038957835243e+01 0.0 
0.0 0.0 -2.411127672017e+01 
-1.516171639919e+02 1.214235103460e+01 0.0 
1.214235103460e+01 -3.531171598309e+02 0.0 
0.0 0.0 -1.510202971469e+02 
-1.452757129750e+02 8.289581659734e+00 0.0 
8.289581659734e+00 -3.370589238300e+02 0.0 
0.0 0.0 -1.443003910415e+02 
-8.954001686165e+01 8.557273042848e-01 0.0 
8.557273042848e-01 -1.977522810627e+02 0.0 
0.0 0.0 -8.578768937731e+01 
-1.425172059073e+02 5.309037825642e+00 0.0 
5.309037825642e+00 -3.268922162198e+02 0.0 
0.0 0.0 -1.404228266381e+02 
-1.473287561989e+02 9.251555426189e+00 0.0 
9.251555426189e+00 -3.419098017412e+02 0.0 
0.0 0.0 -1.463715673820e+02 
-7.006911260416e+01 -3.751822004492e+00 0.0 
-3.751822004492e+00 -2.074292501171e+02 0.0 
0.0 0.0 -8.284950881637e+01 
-7.053229893133e+01 -6.407222435641e+00 0.0 
-6.407222435641e+00 -1.973640400977e+02 0.0 
0.0 0.0 -7.996890170870e+01 
-1.554165984448e+02 8.073274179604e+00 0.0 
8.073274179604e+00 -3.746765509419e+02 0.0 
0.0 0.0 -1.586279448160e+02 
-6.294761682876e+01 3.871193653654e+00 0.0 
3.871193653654e+00 -1.093611337370e+02 0.0 
0.0 0.0 -5.224323735251e+01 
-4.712531401192e+01 -1.152264035802e+00 0.0 
-1.152264035802e+00 -1.090550541923e+02 0.0 
0.0 0.0 -4.645411046127e+01 
-1.038708368040e+02 -1.312638925849e+00 0.0 
-1.312638925849e+00 -2.409765780772e+02 0.0 
0.0 0.0 -1.030542244644e+02 
-6.637991332710e+01 -8.376908901277e+00 0.0 
-8.376908901277e+00 -1.627837085304e+02 0.0 
0.0 0.0 -6.834908655725e+01 
-5.911509511204e+01 -8.086334629786e+00 0.0 
-8.086334629786e+00 -1.786737572164e+02 0.0 
0.0 0.0 -7.093665569853e+01 
-3.479931735271e+01 9.624494583386e+00 0.0 
9.624494583386e+00 -5.182711561841e+01 0.0 
0.0 0.0 -2.558792989133e+01 
-3.910232554741e+01 9.744944537809e+00 0.0 
9.744944537809e+00 -6.508198696498e+01 0.0 
0.0 0.0 -3.085529375372e+01 
-9.188539200807e+01 1.873226760830e+00 0.0 
1.873226760830e+00 -1.987398015622e+02 0.0 
0.0 0.0 -8.678755807107e+01 
-6.301344694850e+01 -8.867201377120e-01 0.0 
-8.867201377120e-01 -1.964049771603e+02 0.0 
0.0 0.0 -7.742552723263e+01 
-5.604792458554e+01 -2.554876270128e+00 0.0 
-2.554876270128e+00 -1.280219261228e+02 0.0 
0.0 0.0 -5.482095521250e+01 
-1.269532350394e+02 1.010616160698e+01 0.0 
1.010616160698e+01 -3.071490210381e+02 0.0 
0.0 0.0 -1.298306768233e+02 
-1.676483740407e+02 2.646631938931e-01 0.0 
2.646631938931e-01 -3.940632351451e+02 0.0 
0.0 0.0 -1.681134827557e+02 
-1.666759870148e+02 9.566089546459e-01 0.0 
9.566089546459e-01 -3.933451468821e+02 0.0 
0.0 0.0 -1.676063401691e+02 
-7.166008294171e+01 -6.915343783105e+00 0.0 
-6.915343783105e+00 -2.010664288626e+02 0.0 
0.0 0.0 -8.141795354128e+01 
-8.548232892215e+01 8.289399475581e-01 0.0 
8.289399475581e-01 -1.826652478316e+02 0.0 
0.0 0.0 -8.004427302612e+01 
-6.637045046909e+01 -2.270234412855e-01 0.0 
-2.270234412855e-01 -1.097328680036e+02 0.0 
0.0 0.0 -5.381327949893e+01 
-3.424682672853e+01 1.459302838916e+01 0.0 
1.459302838916e+01 -3.651025535406e+01 0.0 
0.0 0.0 -2.001588043587e+01 
-4.094206079460e+01 -2.109659067939e+01 0.0 
-2.109659067939e+01 -1.141509714059e+02 0.0 
0.0 0.0 -4.531186012377e+01 
-3.470370834189e+01 1.198895819029e+01 0.0 
1.198895819029e+01 -4.571977250239e+01 0.0 
0.0 0.0 -2.365072344425e+01 
-1.039681467372e+02 1.209973768046e+01 0.0 
1.209973768046e+01 -2.623766265352e+02 0.0 
0.0 0.0 -1.095034319817e+02 
-6.169740229805e+01 -1.018534874293e+01 0.0 
-1.018534874293e+01 -1.699637930566e+02 0.0 
0.0 0.0 -6.909835860640e+01 
-6.565063245306e+01 -5.808367414838e+00 0.0 
-5.808367414838e+00 -1.923363362717e+02 0.0 
0.0 0.0 -7.699609061742e+01 
-3.613228590928e+01 -2.721971932213e+01 0.0 
-2.721971932213e+01 -9.996678765669e+01 0.0 
0.0 0.0 -4.095151745317e+01 
-1.289251139527e+02 3.596555220165e-01 0.0 
3.596555220165e-01 -2.968131480391e+02 0.0 
0.0 0.0 -1.273214785975e+02 
-6.817432002135e+01 -8.209210654198e+00 0.0 
-8.209210654198e+00 -1.851666730071e+02 0.0 
0.0 0.0 -7.560229790854e+01 
-1.346592509818e+02 9.136704320420e-01 0.0 
9.136704320420e-01 -3.101128129778e+02 0.0 
0.0 0.0 -1.330316191879e+02 
-1.236460851565e+02 1.274952131013e+00 0.0 
1.274952131013e+00 -2.813555047639e+02 0.0 
0.0 0.0 -1.211004769761e+02 
-1.486359626832e+02 5.717381657316e-01 0.0 
5.717381657316e-01 -3.461948028013e+02 0.0 
0.0 0.0 -1.480492296453e+02 
-1.676405223377e+02 -4.132294029922e-01 0.0 
-4.132294029922e-01 -3.920325938680e+02 0.0 
0.0 0.0 -1.675019348617e+02 
-8.951815268963e+01 -5.631911913322e-01 0.0 
-5.631911913322e-01 -1.982118233502e+02 0.0 
0.0 0.0 -8.591899281195e+01 
-7.256605768371e+01 -7.731920444323e+00 0.0 
-7.731920444323e+00 -1.900990695358e+02 0.0 
0.0 0.0 -7.839953816584e+01 
-3.908868856662e+01 4.401607198298e+00 0.0 
4.401607198298e+00 -7.071117178779e+01 0.0 
0.0 0.0 -3.253995810633e+01 
-7.350297677929e+01 -8.167156041673e+00 0.0 
-8.167156041673e+00 -1.939401039479e+02 0.0 
0.0 0.0 -7.983292421814e+01 
-1.683194972034e+02 7.326051915705e-02 0.0 
7.326051915705e-02 -3.940788268079e+02 0.0 
0.0 0.0 -1.683194972034e+02 
-3.561190168457e+01 2.119097892306e+01 0.0 
2.119097892306e+01 -2.419478277846e+01 0.0 
0.0 0.0 -1.620445083940e+01 
-3.407916657679e+01 1.691854726047e+01 0.0 
1.691854726047e+01 -2.952338017945e+01 0.0 
0.0 0.0 -1.702915423342e+01 
-1.384564744524e+02 8.028292277787e+00 0.0 
8.028292277787e+00 -3.415434988322e+02 0.0 
0.0 0.0 -1.435999919854e+02 
-8.476718466134e+01 7.622964295075e-01 0.0 
7.622964295075e-01 -1.829127373774e+02 0.0 
0.0 0.0 -7.990397661163e+01 
-1.352433030974e+02 2.871752842492e-01 0.0 
2.871752842492e-01 -3.120362321720e+02 0.0 
0.0 0.0 -1.337838605808e+02 
-1.263557851327e+02 1.104832955500e+01 0.0 
1.104832955500e+01 -2.866711713109e+02 0.0 
0.0 0.0 -1.235080869331e+02 
-1.400614701920e+02 9.645943512186e+00 0.0 
9.645943512186e+00 -3.376878956235e+02 0.0 
0.0 0.0 -1.429248097447e+02 
-1.312035025691e+02 9.940802624842e+00 0.0 
9.940802624842e+00 -2.948043078309e+02 0.0 
0.0 0.0 -1.274023431200e+02 
-9.146749231173e+01 -3.683870210273e-01 0.0 
-3.683870210273e-01 -2.018286009903e+02 0.0 
0.0 0.0 -8.758882799060e+01 
-5.958327214107e+01 -9.205781136068e+00 0.0 
-9.205781136068e+00 -1.430919877389e+02 0.0 
0.0 0.0 -6.040257796399e+01 
-5.699625113208e+01 -1.102564067007e+01 0.0 
-1.102564067007e+01 -1.416509412580e+02 0.0 
0.0 0.0 -5.919415771702e+01 
-1.090249925942e+02 -4.641156137278e-01 0.0 
-4.641156137278e-01 -2.449396993431e+02 0.0 
0.0 0.0 -1.057894075812e+02 
-1.358125554681e+02 1.165130448006e+01 0.0 
1.165130448006e+01 -3.265542548104e+02 0.0 
0.0 0.0 -1.383100430836e+02 
-7.969066068877e+01 1.463102057905e+00 0.0 
1.463102057905e+00 -1.671188122709e+02 0.0 
0.0 0.0 -7.364284188790e+01 
-8.262246666020e+01 5.259421738598e-02 0.0 
5.259421738598e-02 -1.812984638134e+02 0.0 
0.0 0.0 -7.877627914207e+01 
-8.951869969981e+01 4.628559005094e-01 0.0 
4.628559005094e-01 -1.972327546449e+02 0.0 
0.0 0.0 -8.562543630342e+01 
-9.190482394732e+01 1.388122582954e+00 0.0 
1.388122582954e+00 -2.029106861833e+02 0.0 
0.0 0.0 -8.804465303920e+01 
-2.663712942360e+01 -1.321032467598e+01 0.0 
-1.321032467598e+01 -1.161767143124e+02 0.0 
0.0 0.0 -4.408984755403e+01 
-5.402808469546e+01 -1.019046632136e+01 0.0 
-1.019046632136e+01 -1.272818515427e+02 0.0 
0.0 0.0 -5.399298087144e+01 
-1.430111777978e+02 2.167307625229e+00 0.0 
2.167307625229e+00 -3.309647042198e+02 0.0 
0.0 0.0 -1.417927646053e+02 
-1.001924560790e+02 1.494041833842e+00 0.0 
1.494041833842e+00 -2.222029885979e+02 0.0 
0.0 0.0 -9.631863340306e+01 
-1.582810015868e+02 9.263403614514e+00 0.0 
9.263403614514e+00 -3.762312577570e+02 0.0 
0.0 0.0 -1.599536778032e+02 
-1.430640415685e+02 1.021236469270e+01 0.0 
1.021236469270e+01 -3.259159476124e+02 0.0 
0.0 0.0 -1.402939967543e+02 
-1.193460551114e+02 9.709693561890e+00 0.0 
9.709693561890e+00 -2.651679412888e+02 0.0 
0.0 0.0 -1.149541989201e+02 
-1.376656512638e+02 5.113389124090e+00 0.0 
5.113389124090e+00 -3.142978369701e+02 0.0 
0.0 0.0 -1.351890464702e+02 
-7.818471605960e+01 -3.114748330193e+00 0.0 
-3.114748330193e+00 -1.797587612351e+02 0.0 
0.0 0.0 -7.698304318842e+01 
-7.116499393560e+01 -3.303771743644e+00 0.0 
-3.303771743644e+00 -1.640531091476e+02 0.0 
0.0 0.0 -7.016543092498e+01 
-1.517986775011e+02 5.389806576594e-01 0.0 
5.389806576594e-01 -3.631353206476e+02 0.0 
0.0 0.0 -1.540801994446e+02 
-3.631177860010e+01 -1.920893311868e+01 0.0 
-1.920893311868e+01 -9.906721767677e+01 0.0 
0.0 0.0 -4.200807666028e+01 
-4.984744674971e+01 -2.801675380611e-01 0.0 
-2.801675380611e-01 -1.152002207182e+02 0.0 
0.0 0.0 -4.911430024037e+01 
-1.613631360325e+02 1.225609961757e+01 0.0 
1.225609961757e+01 -3.778473174091e+02 0.0 
0.0 0.0 -1.613631360325e+02 
-2.224666644036e+01 8.637400999458e-01 0.0 
8.637400999458e-01 -5.755561396232e+01 0.0 
0.0 0.0 -2.354068412080e+01 
-8.270051919178e+01 2.375829459974e-02 0.0 
2.375829459974e-02 -1.813639172931e+02 0.0 
0.0 0.0 -7.881933094547e+01 
-1.480346243046e+02 6.168606996645e+00 0.0 
6.168606996645e+00 -3.619489159992e+02 0.0 
0.0 0.0 -1.525950620911e+02 
-1.859784808204e+01 -2.988666449791e+00 0.0 
-2.988666449791e+00 -3.987571025823e+01 0.0 
0.0 0.0 -1.714206750208e+01 
-6.273279768355e+00 -9.985024161807e-03 0.0 
-9.985024161807e-03 -2.361842735152e+01 0.0 
0.0 0.0 -8.086467379385e+00 
-1.500746862024e+02 4.324153502124e+00 0.0 
4.324153502124e+00 -3.484526549081e+02 0.0 
0.0 0.0 -1.491582023331e+02 
-7.668643206706e+01 -8.605297259312e-02 0.0 
-8.605297259312e-02 -1.648606295732e+02 0.0 
0.0 0.0 -7.206411849209e+01 
-1.419287894978e+02 2.439026635067e+00 0.0 
2.439026635067e+00 -3.274409532450e+02 0.0 
0.0 0.0 -1.404109228228e+02 
-1.496592189424e+02 6.926617722945e+00 0.0 
6.926617722945e+00 -3.616055681205e+02 0.0 
0.0 0.0 -1.529794361189e+02 
-7.640504953830e+01 4.351993152096e-01 0.0 
4.351993152096e-01 -1.644944593846e+02 0.0 
0.0 0.0 -7.186985267688e+01 
-6.351102157279e+01 6.495144162024e+00 0.0 
6.495144162024e+00 -1.088082679758e+02 0.0 
0.0 0.0 -5.275682449846e+01 
-1.415698001724e+02 1.029870155516e+00 0.0 
1.029870155516e+00 -3.293612493606e+02 0.0 
0.0 0.0 -1.408793148599e+02 
-2.652398129501e+01 -3.146162706243e-01 0.0 
-3.146162706243e-01 -6.332974593308e+01 0.0 
0.0 0.0 -2.655611816843e+01 
-1.368555151834e+02 2.304800750222e+00 0.0 
2.304800750222e+00 -3.159750015670e+02 0.0 
0.0 0.0 -1.354491550251e+02 
-1.679340135865e+02 -2.165667784707e-01 0.0 
-2.165667784707e-01 -3.931793650351e+02 0.0 
0.0 0.0 -1.679340135865e+02 
-1.410486201737e+02 8.677506630931e+00 0.0 
8.677506630931e+00 -3.222650674159e+02 0.0 
0.0 0.0 -1.385941062769e+02 
-3.080013978360e+01 -9.986469635411e+00 0.0 
-9.986469635411e+00 -1.285151550173e+02 0.0 
0.0 0.0 -4.891589570501e+01 
-9.347676948168e+01 2.112827333196e+00 0.0 
2.112827333196e+00 -2.007534610574e+02 0.0 
0.0 0.0 -8.786906916172e+01 
-7.904938689208e+01 -9.059592142122e-01 0.0 
-9.059592142122e-01 -1.823908053101e+02 0.0 
0.0 0.0 -7.803205766067e+01 
-1.266467075662e+02 1.153183453340e+01 0.0 
1.153183453340e+01 -3.071704492613e+02 0.0 
0.0 0.0 -1.297451470483e+02 
-1.635989132669e+02 1.123513563168e+01 0.0 
1.123513563168e+01 -3.865209753163e+02 0.0 
0.0 0.0 -1.646359665749e+02 
-1.172896423697e+02 -1.183942980379e-01 0.0 
-1.183942980379e-01 -2.661262226335e+02 0.0 
0.0 0.0 -1.146247595009e+02 
-1.637327298087e+02 9.413719447146e+00 0.0 
9.413719447146e+00 -3.884459342873e+02 0.0 
0.0 0.0 -1.652535992288e+02 
-2.876907949914e+01 -1.413545220744e+01 0.0 
-1.413545220744e+01 -1.155703518905e+02 0.0 
0.0 0.0 -4.547552256590e+01 
-1.611541716543e+02 3.862117118377e-01 0.0 
3.862117118377e-01 -3.789574119594e+02 0.0 
0.0 0.0 -1.616334750841e+02 
-3.553297471131e+01 -1.355159588108e+01 0.0 
-1.355159588108e+01 -1.264148672767e+02 0.0 
0.0 0.0 -4.807127049566e+01 
-2.299164024131e+01 -9.297838119728e-01 0.0 
-9.297838119728e-01 -5.756097575099e+01 0.0 
0.0 0.0 -2.376578479769e+01 
-1.576224784584e+02 5.176904619366e+00 0.0 
5.176904619366e+00 -3.788281178717e+02 0.0 
0.0 0.0 -1.605351788990e+02 
-1.460845161723e+02 6.481429709945e+00 0.0 
6.481429709945e+00 -3.353717905116e+02 0.0 
0.0 0.0 -1.440368920052e+02 
-1.448795005295e+02 4.648972870066e+00 0.0 
4.648972870066e+00 -3.354150634695e+02 0.0 
0.0 0.0 -1.436883691997e+02 
-8.249035543086e+01 -5.216420577895e-01 0.0 
-5.216420577895e-01 -1.802107001045e+02 0.0 
0.0 0.0 -7.841031666062e+01 
-9.520796259965e+01 2.377382924911e+00 0.0 
2.377382924911e+00 -2.040520981323e+02 0.0 
0.0 0.0 -8.937801821960e+01 
-3.905384068709e+01 2.431626326554e+01 0.0 
2.431626326554e+01 -7.204316912884e+01 0.0 
0.0 0.0 -3.254551093455e+01 
-1.498927969868e+02 1.064097350735e+01 0.0 
1.064097350735e+01 -3.445433868634e+02 0.0 
0.0 0.0 -1.479308551550e+02 
-6.664775816447e+01 -2.081785595526e+00 0.0 
-2.081785595526e+00 -1.517281776715e+02 0.0 
0.0 0.0 -6.511278075078e+01 
-2.928237368641e+01 2.767454956983e+01 0.0 
2.767454956983e+01 -7.612641747749e+01 0.0 
0.0 0.0 -3.172115792326e+01 
-1.314773580236e+02 9.796832117591e+00 0.0 
9.796832117591e+00 -3.194794944989e+02 0.0 
0.0 0.0 -1.348870557568e+02 
-7.561535890503e+01 1.789068503799e-01 0.0 
1.789068503799e-01 -1.640175038027e+02 0.0 
0.0 0.0 -7.148985881230e+01 
-1.400042912714e+02 5.324716157618e+00 0.0 
5.324716157618e+00 -3.216133668400e+02 0.0 
0.0 0.0 -1.380852974334e+02 
-1.480181681946e+02 7.942466353809e-01 0.0 
7.942466353809e-01 -3.446279977275e+02 0.0 
0.0 0.0 -1.473938497766e+02 
-1.481169809162e+02 3.121592089966e-01 0.0 
3.121592089966e-01 -3.469396221378e+02 0.0 
0.0 0.0 -1.481169809162e+02 
-1.259936672476e+00 2.812487805916e-01 0.0 
2.812487805916e-01 -6.329997509022e+00 0.0 
0.0 0.0 -1.257954396176e+00 
-1.469072026364e+00 -5.757830716125e-01 0.0 
-5.757830716125e-01 -1.069256255649e+01 0.0 
0.0 0.0 -2.157975981269e+00 
-7.622628893017e+01 6.806860540453e-01 0.0 
6.806860540453e-01 -1.663862439908e+02 0.0 
0.0 0.0 -7.238375987629e+01 
-7.481435117750e+01 -1.040846526486e-01 0.0 
-1.040846526486e-01 -1.638743282100e+02 0.0 
0.0 0.0 -7.120660381625e+01 
-1.673803134523e+02 -1.316505851744e-01 0.0 
-1.316505851744e-01 -3.918873980554e+02 0.0 
0.0 0.0 -1.673803134523e+02 
-1.667034371554e+02 -7.584355633235e-01 0.0 
-7.584355633235e-01 -3.894303494615e+02 0.0 
0.0 0.0 -1.664401359851e+02 
-5.933577040050e+00 -6.680157691613e-01 0.0 
-6.680157691613e-01 -2.305928181877e+01 0.0 
0.0 0.0 -7.696898110566e+00 
-6.418163162940e+01 -4.617805499323e+00 0.0 
-4.617805499323e+00 -1.130433549240e+02 0.0 
0.0 0.0 -5.366792231323e+01 
-1.535107769679e+02 -8.830768990844e-01 0.0 
-8.830768990844e-01 -3.602851959512e+02 0.0 
0.0 0.0 -1.537387918757e+02 
-1.445892764590e+02 1.064773172239e+01 0.0 
1.064773172239e+01 -3.416834594539e+02 0.0 
0.0 0.0 -1.454818207739e+02 
-3.108868925466e+01 -7.422433147037e-01 0.0 
-7.422433147037e-01 -7.419284801619e+01 0.0 
0.0 0.0 -3.118446118126e+01 
-1.550999704725e+02 5.554039922749e-01 0.0 
5.554039922749e-01 -3.664665647703e+02 0.0 
0.0 0.0 -1.560699605729e+02 
-1.110088421265e+02 6.353148691634e-03 0.0 
6.353148691634e-03 -2.571426503460e+02 0.0 
0.0 0.0 -1.100454477417e+02 
-9.602618266956e+01 5.427477137021e-01 0.0 
5.427477137021e-01 -2.219409668169e+02 0.0 
0.0 0.0 -9.499014484593e+01 
-1.037690284539e+02 1.058341330341e-01 0.0 
1.058341330341e-01 -2.320662291882e+02 0.0 
0.0 0.0 -1.003505772926e+02 
-4.126708321651e+01 -1.850814599324e+01 0.0 
-1.850814599324e+01 -8.969850157524e+01 0.0 
0.0 0.0 -3.719734535230e+01 
-1.178072318723e+02 1.188460769670e+01 0.0 
1.188460769670e+01 -2.883352130829e+02 0.0 
0.0 0.0 -1.214427334866e+02 
-2.402115029735e+01 -1.543750884448e+00 0.0 
-1.543750884448e+00 -5.941300854610e+01 0.0 
0.0 0.0 -2.463024765304e+01 
-8.788568106301e+01 -1.020269575323e+00 0.0 
-1.020269575323e+00 -2.024433310476e+02 0.0 
0.0 0.0 -8.669870363318e+01 
-1.435414964959e+02 9.181824074859e+00 0.0 
9.181824074859e+00 -3.306127450143e+02 0.0 
0.0 0.0 -1.418462724531e+02 
-1.325919017604e+02 9.004361209172e-01 0.0 
9.004361209172e-01 -3.048151719937e+02 0.0 
0.0 0.0 -1.308221221262e+02 
-9.605034465641e+01 -1.003304652312e+00 0.0 
-1.003304652312e+00 -2.207268195875e+02 0.0 
0.0 0.0 -9.463314927317e+01 
-9.530627052095e+01 9.483159839182e-01 0.0 
9.483159839182e-01 -2.115687900669e+02 0.0 
0.0 0.0 -9.166251817636e+01 
-1.453720761657e+02 1.152577413636e+01 0.0 
1.152577413636e+01 -3.392685171088e+02 0.0 
0.0 0.0 -1.449921779823e+02 
-1.346291489498e+02 1.055472783312e+01 0.0 
1.055472783312e+01 -3.046845083431e+02 0.0 
0.0 0.0 -1.313940971878e+02 
-1.269616151743e+02 1.014016991901e+01 0.0 
1.014016991901e+01 -2.848679423653e+02 0.0 
0.0 0.0 -1.231488672619e+02 
-7.608828837477e+01 1.196966794932e-01 0.0 
1.196966794932e-01 -1.646958979532e+02 0.0 
0.0 0.0 -7.183525589838e+01 
-1.127686191304e+02 1.163857662991e+01 0.0 
1.163857662991e+01 -2.811492815802e+02 0.0 
0.0 0.0 -1.177753702132e+02 
-1.396115528209e+02 6.428671069151e+00 0.0 
6.428671069151e+00 -3.206294614742e+02 0.0 
0.0 0.0 -1.376723042885e+02 
-5.006874641905e+01 -1.696838133635e+00 0.0 
-1.696838133635e+00 -1.149486644191e+02 0.0 
0.0 0.0 -4.910522325144e+01 
-9.106015326045e+00 -1.217991099468e+00 0.0 
-1.217991099468e+00 -2.573757289732e+01 0.0 
0.0 0.0 -1.005307646701e+01 
-1.403409986149e+02 1.176755583869e+01 0.0 
1.176755583869e+01 -3.258008398872e+02 0.0 
0.0 0.0 -1.394425515506e+02 
-1.334887384421e+02 6.028601143983e+00 0.0 
6.028601143983e+00 -3.328498906521e+02 0.0 
0.0 0.0 -1.395015887283e+02 
-3.811479962402e+01 -1.923653055269e+01 0.0 
-1.923653055269e+01 -8.067354690928e+01 0.0 
0.0 0.0 -3.483761905422e+01 
-1.095535574407e+02 9.825491860959e-01 0.0 
9.825491860959e-01 -2.461546991967e+02 0.0 
0.0 0.0 -1.063124769912e+02 
-1.599928381642e+02 -1.112694499549e-01 0.0 
-1.112694499549e-01 -3.750558969057e+02 0.0 
0.0 0.0 -1.601146205210e+02 
-1.398898746055e+02 1.069408344814e+01 0.0 
1.069408344814e+01 -3.289697588525e+02 0.0 
0.0 0.0 -1.402578900374e+02 
-1.455932709347e+02 1.206442218195e+01 0.0 
1.206442218195e+01 -3.413804682695e+02 0.0 
0.0 0.0 -1.456921217613e+02 
-1.197459251644e+02 6.670339564622e-01 0.0 
6.670339564622e-01 -2.781034049773e+02 0.0 
0.0 0.0 -1.189547990425e+02 
-3.570764650528e+01 2.749864461225e+01 0.0 
2.749864461225e+01 -9.890936435558e+01 0.0 
0.0 0.0 -4.173727910932e+01 
-3.041166143527e+01 6.021810169489e+00 0.0 
6.021810169489e+00 -5.041237084693e+01 0.0 
0.0 0.0 -2.384720968466e+01 
-4.552832383042e+01 1.855056572299e+01 0.0 
1.855056572299e+01 -8.240271604290e+01 0.0 
0.0 0.0 -3.797931196199e+01 
-9.384020200529e+01 2.148893643882e+00 0.0 
2.148893643882e+00 -2.007484360696e+02 0.0 
0.0 0.0 -8.797659142245e+01 
-1.137772721889e+02 1.021023468265e+01 0.0 
1.021023468265e+01 -2.813323550038e+02 0.0 
0.0 0.0 -1.181328881578e+02 
-1.379504348988e+02 2.834624597031e+00 0.0 
2.834624597031e+00 -3.181372884965e+02 0.0 
0.0 0.0 -1.364263170186e+02 
-1.573607415613e+02 7.663203320269e+00 0.0 
7.663203320269e+00 -3.746969813001e+02 0.0 
0.0 0.0 -1.592173168584e+02 
-3.381407190996e+01 -1.323590408044e+01 0.0 
-1.323590408044e+01 -5.181207870245e+01 0.0 
0.0 0.0 -2.351832215945e+01 
-2.178346479639e+01 -4.939045915483e+00 0.0 
-4.939045915483e+00 -4.306792865720e+01 0.0 
0.0 0.0 -1.880564433071e+01 
-2.415496285700e+01 7.183193311448e+00 0.0 
7.183193311448e+00 -3.383642052704e+01 0.0 
0.0 0.0 -1.675324347208e+01 
-1.118540072496e+02 -4.814882577466e-01 0.0 
-4.814882577466e-01 -2.518287514775e+02 0.0 
0.0 0.0 -1.087048276181e+02 
-6.168840421683e+01 -1.179158757023e+00 0.0 
-1.179158757023e+00 -1.416809104328e+02 0.0 
0.0 0.0 -6.061079439488e+01 
-1.406626410867e+02 5.718900467030e+00 0.0 
5.718900467030e+00 -3.223122241945e+02 0.0 
0.0 0.0 -1.384924595844e+02 
-2.887990589189e+01 1.086910893627e-01 0.0 
1.086910893627e-01 -7.100511802630e+01 0.0 
0.0 0.0 -2.956550717546e+01 
-1.478372332823e+02 7.378163290695e+00 0.0 
7.378163290695e+00 -3.580258788713e+02 0.0 
0.0 0.0 -1.513589336461e+02 
-9.099318699565e+01 3.133763853417e-01 0.0 
3.133763853417e-01 -1.978728112176e+02 0.0 
0.0 0.0 -8.625979946398e+01 
-1.554765109367e+02 1.106138162638e+01 0.0 
1.106138162638e+01 -3.663138689774e+02 0.0 
0.0 0.0 -1.561371139742e+02 
-1.316439055958e+02 1.205187718019e+01 0.0 
1.205187718019e+01 -3.152701013262e+02 0.0 
0.0 0.0 -1.336742020766e+02 
-9.455282154053e+01 3.079286748480e+00 0.0 
3.079286748480e+00 -2.012868047380e+02 0.0 
0.0 0.0 -8.835188788357e+01 
-1.583938187543e+02 3.116496201857e+00 0.0 
3.116496201857e+00 -3.793479765840e+02 0.0 
0.0 0.0 -1.609225386015e+02 
-1.453498483839e+02 5.412014744612e+00 0.0 
5.412014744612e+00 -3.349592644277e+02 0.0 
0.0 0.0 -1.436927338435e+02 
-1.430283681225e+02 2.639096395851e-01 0.0 
2.639096395851e-01 -3.308144617581e+02 0.0 
0.0 0.0 -1.417528489642e+02 
-2.124174320534e+01 1.138972186550e+01 0.0 
1.138972186550e+01 -2.011930298849e+01 0.0 
0.0 0.0 -1.031309131032e+01 
-1.367918290600e+02 3.659966792156e+00 0.0 
3.659966792156e+00 -3.137670079160e+02 0.0 
0.0 0.0 -1.347676510928e+02 
-1.505872260182e+02 1.128110463563e+01 0.0 
1.128110463563e+01 -3.512738539457e+02 0.0 
0.0 0.0 -1.501583239892e+02 
-1.469573879810e+02 8.197105708978e+00 0.0 
8.197105708978e+00 -3.581684663532e+02 0.0 
0.0 0.0 -1.511377563003e+02 
-1.355945664365e+02 9.887050544118e+00 0.0 
9.887050544118e+00 -3.258779202089e+02 0.0 
0.0 0.0 -1.380417459936e+02 
-1.685003009308e+02 4.414631567958e-01 0.0 
4.414631567958e-01 -3.945007021719e+02 0.0 
0.0 0.0 -1.685003009308e+02 
-1.259730667831e+02 7.960131668742e+00 0.0 
7.960131668742e+00 -2.840212895861e+02 0.0 
0.0 0.0 -1.225983069108e+02 
-4.938225933458e+01 1.901990037498e+01 0.0 
1.901990037498e+01 -7.199224835971e+01 0.0 
0.0 0.0 -3.696409520881e+01 
-3.438897755338e+01 2.789981149685e+01 0.0 
2.789981149685e+01 -7.216571260290e+01 0.0 
0.0 0.0 -3.018877737922e+01 
-1.382813173091e+02 1.024343815881e+01 0.0 
1.024343815881e+01 -3.143092048842e+02 0.0 
0.0 0.0 -1.353771566580e+02 
-9.941170327822e+01 1.832653586790e+00 0.0 
1.832653586790e+00 -2.154366198989e+02 0.0 
0.0 0.0 -9.405449695313e+01 
-1.537283113845e+02 5.123688702819e-01 0.0 
5.123688702819e-01 -3.589266519771e+02 0.0 
0.0 0.0 -1.533964890085e+02 
-1.405774825976e+02 1.199240403123e+01 0.0 
1.199240403123e+01 -3.343817565141e+02 0.0 
0.0 0.0 -1.420877717335e+02 
-1.615244100435e+02 4.429939188956e-01 0.0 
4.429939188956e-01 -3.797860994732e+02 0.0 
0.0 0.0 -1.619931528550e+02 
-1.203430130460e+02 -1.304717073648e-01 0.0 
-1.304717073648e-01 -2.726636194670e+02 0.0 
0.0 0.0 -1.175019897539e+02 
-1.562374012012e+02 1.065262547422e+01 0.0 
1.065262547422e+01 -3.691450835817e+02 0.0 
0.0 0.0 -1.572147454349e+02 
-1.531610331513e+02 2.760557152024e+00 0.0 
2.760557152024e+00 -3.672257673242e+02 0.0 
0.0 0.0 -1.557160401427e+02 
-1.526170921316e+02 1.669489643493e+00 0.0 
1.669489643493e+00 -3.668519156331e+02 0.0 
0.0 0.0 -1.554407023294e+02 
-6.400505555525e+01 -8.583671449394e-01 0.0 
-8.583671449394e-01 -1.468062698599e+02 0.0 
0.0 0.0 -6.284339762456e+01 
-1.680889046919e+02 4.351830352250e-02 0.0 
4.351830352250e-02 -3.940599267066e+02 0.0 
0.0 0.0 -1.682446494196e+02 
-8.512473706914e+01 1.141873556970e+00 0.0 
1.141873556970e+00 -1.819053433259e+02 0.0 
0.0 0.0 -7.970902411851e+01 
-1.359774418717e+02 1.928250262227e+00 0.0 
1.928250262227e+00 -3.126375908876e+02 0.0 
0.0 0.0 -1.341845098278e+02 
-2.693934892560e+01 -6.064112140703e+00 0.0 
-6.064112140703e+00 -4.325415082079e+01 0.0 
0.0 0.0 -1.975822645799e+01 
-1.304208740487e+02 1.054833106575e+00 0.0 
1.054833106575e+00 -2.977954352981e+02 0.0 
0.0 0.0 -1.280648928041e+02 
-1.105528159384e+02 6.355896402169e-01 0.0 
6.355896402169e-01 -2.480033916420e+02 0.0 
0.0 0.0 -1.071668622741e+02 
-1.343906316565e+01 6.453029905064e-01 0.0 
6.453029905064e-01 -4.167717016323e+01 0.0 
0.0 0.0 -1.613486999866e+01 
-3.276115111668e+01 -1.294617935849e+01 0.0 
-1.294617935849e+01 -1.322317254048e+02 0.0 
0.0 0.0 -5.002609232408e+01 
-1.296940954246e+02 8.606662396838e+00 0.0 
8.606662396838e+00 -2.948358039028e+02 0.0 
0.0 0.0 -1.269589697982e+02 
-1.423611356548e+02 3.115151529060e+00 0.0 
3.115151529060e+00 -3.307639979367e+02 0.0 
0.0 0.0 -1.415375400775e+02 
-1.366157365837e+02 1.267808745577e+00 0.0 
1.267808745577e+00 -3.152326900549e+02 0.0 
0.0 0.0 -1.351545279916e+02 
-1.535024057740e+02 9.628651962400e+00 0.0 
9.628651962400e+00 -3.668083475286e+02 0.0 
0.0 0.0 -1.556932259908e+02 
-9.532400782713e+01 -4.313703857168e-01 0.0 
-4.313703857168e-01 -2.111574531848e+02 0.0 
0.0 0.0 -9.154443830359e+01 
-7.309106738737e+00 -1.591693145994e-01 0.0 
-1.591693145994e-01 -2.485531577816e+01 0.0 
0.0 0.0 -9.140682992181e+00 
-3.402285635985e+01 2.111553086654e+01 0.0 
2.111553086654e+01 -1.131819048602e+02 0.0 
0.0 0.0 -4.573439000182e+01 
-1.120026747406e+01 -1.760326892492e+00 0.0 
-1.760326892492e+00 -2.835311741914e+01 0.0 
0.0 0.0 -1.146601546796e+01 
-2.899833592848e+01 -5.430577487867e+00 0.0 
-5.430577487867e+00 -5.774251955189e+01 0.0 
0.0 0.0 -2.540376288596e+01 
-4.311134171049e+01 3.648156087168e+01 0.0 
3.648156087168e+01 -5.750913556399e+01 0.0 
0.0 0.0 -3.063659439703e+01 
-8.583768813628e+01 -2.357403261547e+00 0.0 
-2.357403261547e+00 -1.970003774162e+02 0.0 
0.0 0.0 -8.445141966573e+01 
-1.535728730852e+02 -1.114016602478e+00 0.0 
-1.114016602478e+00 -3.588106532724e+02 0.0 
0.0 0.0 -1.533150579073e+02 
-1.407980132099e+02 7.310771612149e+00 0.0 
7.310771612149e+00 -3.224361112362e+02 0.0 
0.0 0.0 -1.385702373338e+02 
-1.010577807549e+02 4.345254243689e+00 0.0 
4.345254243689e+00 -2.160362194307e+02 0.0 
0.0 0.0 -9.472820005567e+01 
-7.506509265752e+01 -1.537766320811e+00 0.0 
-1.537766320811e+00 -1.731234953452e+02 0.0 
0.0 0.0 -7.405657640080e+01 
-1.523568805739e+02 1.563557305493e+00 0.0 
1.563557305493e+00 -3.638680309374e+02 0.0 
0.0 0.0 -1.544674734534e+02 
-1.474788418816e+02 3.883883173547e+00 0.0 
3.883883173547e+00 -3.603127403590e+02 0.0 
0.0 0.0 -1.519374746722e+02 
-1.540868608337e+02 1.149168821934e+01 0.0 
1.149168821934e+01 -3.653715243627e+02 0.0 
0.0 0.0 -1.554375155589e+02 
-1.454839686877e+02 1.129847400473e+01 0.0 
1.129847400473e+01 -3.387202630950e+02 0.0 
0.0 0.0 -1.448612695348e+02 
-1.369953657885e+02 9.115172631619e+00 0.0 
9.115172631619e+00 -3.140512521435e+02 0.0 
0.0 0.0 -1.349139853796e+02 
-2.617735834110e+01 -5.221299747625e+00 0.0 
-5.221299747625e+00 -4.234680692045e+01 0.0 
0.0 0.0 -1.950517819230e+01 
-3.661021228793e+01 -1.740966363490e+01 0.0 
-1.740966363490e+01 -1.128363550640e+02 0.0 
0.0 0.0 -4.659642650177e+01 
-1.539740702386e+02 2.368609409115e-01 0.0 
2.368609409115e-01 -3.609963290536e+02 0.0 
0.0 0.0 -1.540911197877e+02 
-1.445736214779e+01 -2.333230706510e-01 0.0 
-2.333230706510e-01 -4.129104495352e+01 0.0 
0.0 0.0 -1.632452213040e+01 
-1.761812150268e+01 -1.296004388999e+00 0.0 
-1.296004388999e+00 -4.913537648516e+01 0.0 
0.0 0.0 -1.962604939635e+01 
-3.504785279694e+01 3.079764765725e+01 0.0 
3.079764765725e+01 -5.582727465440e+01 0.0 
0.0 0.0 -2.752503133806e+01 
-1.560441776627e+01 -3.902576216798e-01 0.0 
-3.902576216798e-01 -3.847903379220e+01 0.0 
0.0 0.0 -1.582503546754e+01 
-1.606044411150e+02 2.554873179653e+00 0.0 
2.554873179653e+00 -3.806279874801e+02 0.0 
0.0 0.0 -1.619697285785e+02 
-1.495594595845e+02 1.103092945284e+01 0.0 
1.103092945284e+01 -3.473915677546e+02 0.0 
0.0 0.0 -1.486853082017e+02 
-1.374611571495e+02 1.318264331248e+00 0.0 
1.318264331248e+00 -3.180528059003e+02 0.0 
0.0 0.0 -1.362541889149e+02 
-1.550133958417e+02 1.146402419359e+01 0.0 
1.146402419359e+01 -3.651820456552e+02 0.0 
0.0 0.0 -1.556586324491e+02 
-1.428892320520e+02 5.473666502229e+00 0.0 
5.473666502229e+00 -3.505928249357e+02 0.0 
0.0 0.0 -1.476446170963e+02 
-1.000975647104e+02 -4.928054349410e-01 0.0 
-4.928054349410e-01 -2.224250880203e+02 0.0 
0.0 0.0 -9.635679581920e+01 
-1.490580026266e+02 4.146231456702e+00 0.0 
4.146231456702e+00 -3.491353394620e+02 0.0 
0.0 0.0 -1.490580026266e+02 
-4.439577696276e+01 -1.773035898424e+01 0.0 
-1.773035898424e+01 -1.305863494208e+02 0.0 
0.0 0.0 -5.121069259976e+01 
-7.635833422001e+01 2.449131865181e-01 0.0 
2.449131865181e-01 -1.639830243266e+02 0.0 
0.0 0.0 -7.170240756399e+01 
-4.313821565059e+01 -1.959116058899e+01 0.0 
-1.959116058899e+01 -7.383472524264e+01 0.0 
0.0 0.0 -3.287115485232e+01 
-7.319402977375e+00 -4.053656676078e-01 0.0 
-4.053656676078e-01 -2.463611946127e+01 0.0 
0.0 0.0 -9.768876329775e+00 
-1.679012500893e+02 -5.080101646239e-01 0.0 
-5.080101646239e-01 -3.927946371721e+02 0.0 
0.0 0.0 -1.678087661784e+02 
-8.784246811093e+01 2.548631432399e+00 0.0 
2.548631432399e+00 -1.857727737813e+02 0.0 
0.0 0.0 -8.168457256766e+01 
-2.193350648291e+01 -7.522458195900e-01 0.0 
-7.522458195900e-01 -5.716726199123e+01 0.0 
0.0 0.0 -2.333023054224e+01 
-8.196280071305e+01 -2.299693553046e+00 0.0 
-2.299693553046e+00 -1.888772340617e+02 0.0 
0.0 0.0 -8.085201043243e+01 
-1.506020428946e+02 1.087314080308e+01 0.0 
1.087314080308e+01 -3.477401179578e+02 0.0 
0.0 0.0 -1.491026482557e+02 
-1.379217258312e+02 3.584784668753e+00 0.0 
3.584784668753e+00 -3.169855431052e+02 0.0 
0.0 0.0 -1.360721806809e+02 
-1.447212224049e+02 6.405991519469e+00 0.0 
6.405991519469e+00 -3.356461307362e+02 0.0 
0.0 0.0 -1.437102059423e+02 
-5.824446077169e+01 -6.708253082507e-02 0.0 
-6.708253082507e-02 -1.335324711742e+02 0.0 
0.0 0.0 -5.713307958376e+01 
-3.671431704578e+01 3.109166807095e+00 0.0 
3.109166807095e+00 -1.228468350080e+02 0.0 
0.0 0.0 -4.979817855961e+01 
-1.602840426267e+02 7.778871294956e-01 0.0 
7.778871294956e-01 -3.791531219966e+02 0.0 
0.0 0.0 -1.614311493870e+02 
-1.495007818604e+02 3.172870612922e-01 0.0 
3.172870612922e-01 -3.473778077566e+02 0.0 
0.0 0.0 -1.486635768851e+02 
-1.675191434067e+02 -7.386098154474e-02 0.0 
-7.386098154474e-02 -3.918666712250e+02 0.0 
0.0 0.0 -1.674157443895e+02 
-8.125595212793e+01 -4.990560403233e-01 0.0 
-4.990560403233e-01 -1.782910318572e+02 0.0 
0.0 0.0 -7.746409519554e+01 
-1.508382995781e+02 5.283567568197e+00 0.0 
5.283567568197e+00 -3.639725084914e+02 0.0 
0.0 0.0 -1.540432424209e+02 
-2.387021567030e+01 -1.825493860399e-01 0.0 
-1.825493860399e-01 -5.835848508263e+01 0.0 
0.0 0.0 -2.426861022588e+01 
-1.398598899552e+02 4.302156136877e+00 0.0 
4.302156136877e+00 -3.221328013232e+02 0.0 
0.0 0.0 -1.381978073835e+02 
-7.443527543202e+00 -7.103852169915e-02 0.0 
-7.103852169915e-02 -2.346775902711e+01 0.0 
0.0 0.0 -9.233549896099e+00 
-1.604394404915e+02 4.202169080453e+00 0.0 
4.202169080453e+00 -3.810827707371e+02 0.0 
0.0 0.0 -1.620566633686e+02 
-1.457418511614e+02 6.467234030311e+00 0.0 
6.467234030311e+00 -3.355205638856e+02 0.0 
0.0 0.0 -1.439787245141e+02 
-4.029216416408e+01 1.276158777168e+01 0.0 
1.276158777168e+01 -1.191580341970e+02 0.0 
0.0 0.0 -4.920133371208e+01 
-1.400563637868e+02 1.206360343108e+01 0.0 
1.206360343108e+01 -3.297568672902e+02 0.0 
0.0 0.0 -1.405439693231e+02 
-1.164817356748e+02 1.362941868268e+00 0.0 
1.362941868268e+00 -2.626361992856e+02 0.0 
0.0 0.0 -1.133353804881e+02 
-1.425952424406e+02 2.386622941688e+00 0.0 
2.386622941688e+00 -3.316626840425e+02 0.0 
0.0 0.0 -1.418773779449e+02 
-1.663654966935e+02 1.002068638858e+01 0.0 
1.002068638858e+01 -3.895194922849e+02 0.0 
0.0 0.0 -1.663654966935e+02 
-1.051839605156e+02 1.377201647684e+00 0.0 
1.377201647684e+00 -2.358076370026e+02 0.0 
0.0 0.0 -1.018974792555e+02 
-1.489999398174e+02 1.020906189220e+01 0.0 
1.020906189220e+01 -3.461778779178e+02 0.0 
0.0 0.0 -1.481533453205e+02 
-1.411660216780e+02 6.798661464936e+00 0.0 
6.798661464936e+00 -3.228251897256e+02 0.0 
0.0 0.0 -1.387973634211e+02 
-1.097470306629e+02 3.741477002103e-01 0.0 
3.741477002103e-01 -2.474218815922e+02 0.0 
0.0 0.0 -1.067506736765e+02 
-1.449572492360e+02 1.011597191142e+01 0.0 
1.011597191142e+01 -3.341529869869e+02 0.0 
0.0 0.0 -1.433330708669e+02 
-7.062985986909e+01 -8.613797557638e-01 0.0 
-8.613797557638e-01 -1.610289413465e+02 0.0 
0.0 0.0 -6.909764036467e+01 
-7.520504077887e+01 1.606357216885e-01 0.0 
1.606357216885e-01 -1.638695623069e+02 0.0 
0.0 0.0 -7.132238092572e+01 
-1.483575275268e+02 1.086561866561e+01 0.0 
1.086561866561e+01 -3.518382626509e+02 0.0 
0.0 0.0 -1.496587370533e+02 
-1.432147347070e+02 -1.779831529520e-01 0.0 
-1.779831529520e-01 -3.327104007603e+02 0.0 
0.0 0.0 -1.423775406402e+02 
-1.949598860442e-01 4.165253412981e-02 0.0 
4.165253412981e-02 -8.813803539352e+00 0.0 
0.0 0.0 -1.953060059422e+00 
-7.505110952146e+01 -2.033041004913e-01 0.0 
-2.033041004913e-01 -1.640584083172e+02 0.0 
0.0 0.0 -7.133285535160e+01 
-1.619453010836e+02 4.035211276845e-01 0.0 
4.035211276845e-01 -3.783311945817e+02 0.0 
0.0 0.0 -1.616829486996e+02 
-3.202727214117e+01 -2.498058300276e+00 0.0 
-2.498058300276e+00 -7.344506665386e+01 0.0 
0.0 0.0 -3.124170163851e+01 
-1.473697390955e+02 6.750952380109e+00 0.0 
6.750952380109e+00 -3.608283325070e+02 0.0 
0.0 0.0 -1.520594214808e+02 
-1.418144932286e+02 7.808649911061e+00 0.0 
7.808649911061e+00 -3.224216584340e+02 0.0 
0.0 0.0 -1.388708454988e+02 
-1.429439366496e+02 2.686187143693e+00 0.0 
2.686187143693e+00 -3.306485338873e+02 0.0 
0.0 0.0 -1.416777411611e+02 
-2.940740949845e+01 -1.715518282825e+00 0.0 
-1.715518282825e+00 -7.041131618416e+01 0.0 
0.0 0.0 -2.954561770478e+01 
-3.664399282358e+01 3.309730363794e+01 0.0 
3.309730363794e+01 -8.825202406762e+01 0.0 
0.0 0.0 -3.664707543917e+01 
-9.944473543834e+01 -1.572523486267e+00 0.0 
-1.572523486267e+00 -2.305853746380e+02 0.0 
0.0 0.0 -9.860903302290e+01 
-1.240950655846e+02 1.361000214417e-01 0.0 
1.361000214417e-01 -2.837552658832e+02 0.0 
0.0 0.0 -1.219550994404e+02 
-1.093852371046e+02 -3.748607708274e+00 0.0 
-3.748607708274e+00 -9.729904915875e+01 0.0 
0.0 0.0 -6.222967039180e+01 
-1.443579746322e+02 5.405163517482e+00 0.0 
5.405163517482e+00 -3.351439510208e+02 0.0 
0.0 0.0 -1.434505776959e+02 
-1.025797248998e+02 1.308426554727e-01 0.0 
1.308426554727e-01 -2.298078979553e+02 0.0 
0.0 0.0 -9.931628685653e+01 
-4.455891196673e+01 -1.767248688114e+01 0.0 
-1.767248688114e+01 -9.058192747228e+01 0.0 
0.0 0.0 -3.828207061247e+01 
-9.692477128452e+01 1.263363095320e-01 0.0 
1.263363095320e-01 -2.160386569336e+02 0.0 
0.0 0.0 -9.348902846543e+01 
-1.535044908491e+02 1.270172941972e+01 0.0 
1.270172941972e+01 -3.617939802972e+02 0.0 
0.0 0.0 -1.541895413439e+02 
-1.044457339441e+02 1.025032194623e+00 0.0 
1.025032194623e+00 -2.416991096017e+02 0.0 
0.0 0.0 -1.034434530637e+02 
-4.285868745375e+01 3.280468677942e+01 0.0 
3.280468677942e+01 -3.065172344366e+01 0.0 
0.0 0.0 -2.279926259939e+01 
-6.366063207040e+01 -2.425884866087e+00 0.0 
-2.425884866087e+00 -1.459922094318e+02 0.0 
0.0 0.0 -6.249585245066e+01 
-9.171322380890e+01 -2.104495349340e+00 0.0 
-2.104495349340e+00 -2.119541712902e+02 0.0 
0.0 0.0 -9.070021852973e+01 
-1.087321419540e+02 -1.577312825528e+00 0.0 
-1.577312825528e+00 -2.510352467238e+02 0.0 
0.0 0.0 -1.075302166033e+02 
-1.488028753996e+02 1.118527881798e+01 0.0 
1.118527881798e+01 -3.556524826392e+02 0.0 
0.0 0.0 -1.509366074117e+02 
-8.937725978329e+01 -8.652439068907e-02 0.0 
-8.652439068907e-02 -2.064384106693e+02 0.0 
0.0 0.0 -8.834470113578e+01 
-9.507253212383e+01 -1.412176922749e+00 0.0 
-1.412176922749e+00 -2.191245264236e+02 0.0 
0.0 0.0 -9.385911756424e+01 
-1.502018980660e+01 -1.750730267664e+00 0.0 
-1.750730267664e+00 -3.709554154276e+01 0.0 
0.0 0.0 -1.523471940481e+01 
-1.546416814672e+02 -4.791258249964e-01 0.0 
-4.791258249964e-01 -3.666014804311e+02 0.0 
0.0 0.0 -1.559729485695e+02 
-1.399545325616e+02 1.042891491288e+01 0.0 
1.042891491288e+01 -3.258383871579e+02 0.0 
0.0 0.0 -1.393378759158e+02 
-3.578149704228e+01 3.015956826397e+01 0.0 
3.015956826397e+01 -1.035336170643e+02 0.0 
0.0 0.0 -4.250116795126e+01 
-1.430066761542e+02 6.735065397756e-01 0.0 
6.735065397756e-01 -3.320786014269e+02 0.0 
0.0 0.0 -1.421255832743e+02 
-1.615169854777e+02 -7.156703480046e-01 0.0 
-7.156703480046e-01 -3.776758146667e+02 0.0 
0.0 0.0 -1.613578400433e+02 
-8.168875001081e+01 6.597275238073e-01 0.0 
6.597275238073e-01 -1.793393968760e+02 0.0 
0.0 0.0 -7.790844406605e+01 
-1.027984185787e+02 1.162670803742e-01 0.0 
1.162670803742e-01 -2.298891737309e+02 0.0 
0.0 0.0 -9.940627769286e+01 
-8.961698881220e+01 -1.932413866263e+00 0.0 
-1.932413866263e+00 -2.062460065354e+02 0.0 
0.0 0.0 -8.835889860428e+01 
-9.278431245502e+01 -7.654619673033e-01 0.0 
-7.654619673033e-01 -2.133167880553e+02 0.0 
0.0 0.0 -9.143033015311e+01 
-9.504056435613e+01 -6.380721748471e-01 0.0 
-6.380721748471e-01 -2.199121317496e+02 0.0 
0.0 0.0 -9.408580883171e+01 
-1.421401115390e+02 6.402910993968e+00 0.0 
6.402910993968e+00 -3.489623758837e+02 0.0 
0.0 0.0 -1.469307462268e+02 
-3.730797248167e+01 -1.559123271860e+01 0.0 
-1.559123271860e+01 -6.723969415251e+01 0.0 
0.0 0.0 -2.967393683882e+01 
-1.450603905391e+02 1.210985892184e+01 0.0 
1.210985892184e+01 -3.360973007131e+02 0.0 
0.0 0.0 -1.439473073757e+02 
-8.873106464305e+01 -1.240454699628e-01 0.0 
-1.240454699628e-01 -1.961730449897e+02 0.0 
0.0 0.0 -8.507123288982e+01 
-1.451163424819e+02 5.641807244661e+00 0.0 
5.641807244661e+00 -3.340040445487e+02 0.0 
0.0 0.0 -1.433361161092e+02 
-1.425633503086e+02 7.132461165939e+00 0.0 
7.132461165939e+00 -3.490124870402e+02 0.0 
0.0 0.0 -1.470727512046e+02 
-9.791065108648e+01 6.906762062546e-01 0.0 
6.906762062546e-01 -2.168081358322e+02 0.0 
0.0 0.0 -9.401563607561e+01 
-1.398173264858e+02 9.260831046661e+00 0.0 
9.260831046661e+00 -3.210927065986e+02 0.0 
0.0 0.0 -1.378730099253e+02 
-1.484322346629e+02 1.000607893874e+01 0.0 
1.000607893874e+01 -3.548972246101e+02 0.0 
0.0 0.0 -1.505988377819e+02 
-1.542610451784e+02 1.156959018039e+01 0.0 
1.156959018039e+01 -3.673496323383e+02 0.0 
0.0 0.0 -1.560832032550e+02 
-3.850177860669e+01 3.463500024779e+01 0.0 
3.463500024779e+01 -6.798825880687e+01 0.0 
0.0 0.0 -3.292698785374e+01 
-1.406143579960e+02 1.054727597665e+01 0.0 
1.054727597665e+01 -3.216364222675e+02 0.0 
0.0 0.0 -1.382752340790e+02 
-1.446223235787e+02 9.849278980323e+00 0.0 
9.849278980323e+00 -3.332454750744e+02 0.0 
0.0 0.0 -1.429603395959e+02 
-1.346013936752e+01 -9.128798712825e-02 0.0 
-9.128798712825e-02 -3.786328166743e+01 0.0 
0.0 0.0 -1.499702631048e+01 
-8.540413975933e+01 -8.208946069402e-01 0.0 
-8.208946069402e-01 -1.963487433801e+02 0.0 
0.0 0.0 -8.412586494182e+01 
-4.555742333517e+01 3.580307991653e+01 0.0 
3.580307991653e+01 -6.841113372437e+01 0.0 
0.0 0.0 -3.515308654031e+01 
-1.451978160665e+02 1.066643103124e+01 0.0 
1.066643103124e+01 -3.326737405908e+02 0.0 
0.0 0.0 -1.429614669972e+02 
-8.600176035603e+00 4.478248481015e-01 0.0 
4.478248481015e-01 -1.149639905896e+01 0.0 
0.0 0.0 -5.628972528370e+00 
-7.394807606840e+00 -1.534100497191e-01 0.0 
-1.534100497191e-01 -9.750842891851e+00 0.0 
0.0 0.0 -4.743695149607e+00 
-7.759928373885e+00 9.520579971914e-02 0.0 
9.520579971914e-02 -9.879544272388e+00 0.0 
0.0 0.0 -4.891841793882e+00 
-7.339273080256e+00 -2.426289405792e-02 0.0 
-2.426289405792e-02 -9.672249870972e+00 0.0 
0.0 0.0 -4.703456885369e+00 
-7.602561328889e+00 7.374717344864e-04 0.0 
7.374717344864e-04 -9.780244472948e+00 0.0 
0.0 0.0 -4.814841740551e+00 
-7.312035113483e+00 -6.627588046152e-02 0.0 
-6.627588046152e-02 -9.695653228052e+00 0.0 
0.0 0.0 -4.702306502460e+00 
-7.467786318763e+00 -5.165265259997e-02 0.0 
-5.165265259997e-02 -9.758427434323e+00 0.0 
0.0 0.0 -4.767864125926e+00 
-7.189943913453e+00 -1.066429713965e-01 0.0 
-1.066429713965e-01 -9.705951435536e+00 0.0 
0.0 0.0 -4.668768604697e+00 
-7.312578650143e+00 -8.675311276378e-02 0.0 
-8.675311276378e-02 -9.752093940192e+00 0.0 
0.0 0.0 -4.719401777101e+00 
-6.991895176304e+00 -1.436509875259e-01 0.0 
-1.436509875259e-01 -9.706512457404e+00 0.0 
0.0 0.0 -4.609522290113e+00 
-7.129958780491e+00 -1.127330383521e-01 0.0 
-1.127330383521e-01 -9.753922230316e+00 0.0 
0.0 0.0 -4.665164303242e+00 
-6.730139770508e+00 -1.791358170461e-01 0.0 
-1.791358170461e-01 -9.700740297324e+00 0.0 
0.0 0.0 -4.529264020350e+00 
-6.918215137504e+00 -1.338493678808e-01 0.0 
-1.338493678808e-01 -9.760985874052e+00 0.0 
0.0 0.0 -4.603760303467e+00 
-6.410862169992e+00 -2.143757122630e-01 0.0 
-2.143757122630e-01 -9.690491561949e+00 0.0 
0.0 0.0 -4.430406119582e+00 
-6.677379293966e+00 -1.523745987623e-01 0.0 
-1.523745987623e-01 -9.771978430765e+00 0.0 
0.0 0.0 -4.534807317419e+00 
-6.036738122133e+00 -2.500905124920e-01 0.0 
-2.500905124920e-01 -9.676700188508e+00 0.0 
0.0 0.0 -4.314031493192e+00 
-6.408481942403e+00 -1.694567397807e-01 0.0 
-1.694567397807e-01 -9.786417877126e+00 0.0 
0.0 0.0 -4.458469945859e+00 
-5.608623083104e+00 -2.865796263683e-01 0.0 
-2.865796263683e-01 -9.659714624226e+00 0.0 
0.0 0.0 -4.180501312199e+00 
-6.113645366943e+00 -1.856058793962e-01 0.0 
-1.856058793962e-01 -9.804287213884e+00 0.0 
0.0 0.0 -4.375379774248e+00 
-5.126611361221e+00 -3.238513983247e-01 0.0 
-3.238513983247e-01 -9.639564157774e+00 0.0 
0.0 0.0 -4.029852655698e+00 
-1.091440055239e+01 5.217226811282e+00 0.0 
5.217226811282e+00 -1.321653420733e+01 0.0 
0.0 0.0 -6.132072072035e+00 
-5.796204371927e+00 -2.009441657098e-01 0.0 
-2.009441657098e-01 -9.825857423753e+00 0.0 
0.0 0.0 -4.286618538704e+00 
-4.590730688158e+00 -3.616446014132e-01 0.0 
-3.616446014132e-01 -9.616157863518e+00 0.0 
0.0 0.0 -3.862066565503e+00 
-5.461120110160e+00 -2.152227053041e-01 0.0 
-2.152227053041e-01 -9.851662902023e+00 0.0 
0.0 0.0 -4.193834903655e+00 
-6.267978301158e-01 1.008027665665e+00 0.0 
1.008027665665e+00 -5.746647237146e+00 0.0 
0.0 0.0 -1.183621281282e+00 
-4.001670513914e+00 -3.991528487705e-01 0.0 
-3.991528487705e-01 -9.589880661229e+00 0.0 
0.0 0.0 -3.677465352543e+00 
-5.114929792955e+00 -2.271979485029e-01 0.0 
-2.271979485029e-01 -9.882424133089e+00 0.0 
0.0 0.0 -4.099206177813e+00 
-1.664236892696e+01 3.425686062514e+00 0.0 
3.425686062514e+00 -1.123792715289e+01 0.0 
0.0 0.0 -7.158411750602e+00 
-3.362458504945e+00 -4.346405707741e-01 0.0 
-4.346405707741e-01 -9.560404419625e+00 0.0 
0.0 0.0 -3.476858877371e+00 
-4.767945844332e+00 -2.355288720805e-01 0.0 
-2.355288720805e-01 -9.918851439092e+00 0.0 
0.0 0.0 -4.006039185027e+00 
-2.679498500053e+00 -4.657070725855e-01 0.0 
-4.657070725855e-01 -9.528516704025e+00 0.0 
0.0 0.0 -3.262404561223e+00 
-4.434489542412e+00 -2.372174566579e-01 0.0 
-2.372174566579e-01 -9.961757181653e+00 0.0 
0.0 0.0 -3.918874017220e+00 
-1.964955091105e+00 -4.891878306224e-01 0.0 
-4.891878306224e-01 -9.492141641447e+00 0.0 
0.0 0.0 -3.037129019766e+00 
-4.137271040781e+00 -2.314165741228e-01 0.0 
-2.314165741228e-01 -1.001195018200e+01 0.0 
0.0 0.0 -3.844766366835e+00 
-1.235660937067e+00 -5.006052251181e-01 0.0 
-5.006052251181e-01 -9.457631594489e+00 0.0 
0.0 0.0 -2.807987759467e+00 
-3.898695656170e+00 -2.092139342382e-01 0.0 
-2.092139342382e-01 -1.007019016735e+01 0.0 
0.0 0.0 -3.790665747056e+00 
-5.229610251897e-01 -4.927389940082e-01 0.0 
-4.927389940082e-01 -9.417346648343e+00 0.0 
0.0 0.0 -2.582092302060e+00 
-2.288750176840e+01 9.545408733092e+00 0.0 
9.545408733092e+00 -1.331690110686e+01 0.0 
0.0 0.0 -9.444829794768e+00 
-3.761946930793e+00 -1.718903009140e-01 0.0 
-1.718903009140e-01 -1.013701395173e+01 0.0 
0.0 0.0 -3.769688264758e+00 
1.333607831581e-01 -4.531159416366e-01 0.0 
-4.531159416366e-01 -9.399100059915e+00 0.0 
0.0 0.0 -2.379721783027e+00 
-3.746637657119e+00 -8.893723913533e-02 0.0 
-8.893723913533e-02 -1.021017431766e+01 0.0 
0.0 0.0 -3.787043592434e+00 
6.489791524068e-01 -3.661764965381e-01 0.0 
-3.661764965381e-01 -9.366582948300e+00 0.0 
0.0 0.0 -2.215281138768e+00 
9.925114574718e-01 -2.762199112825e-01 0.0 
-2.762199112825e-01 -9.188556598467e+00 0.0 
0.0 0.0 -1.785726176581e+00 
-3.954951383666e+00 5.789755943227e-03 0.0 
5.789755943227e-03 -1.030967754205e+01 0.0 
0.0 0.0 -3.879388677714e+00 
9.936916767645e-01 -2.499782451549e-01 0.0 
-2.499782451549e-01 -8.905821359783e+00 0.0 
0.0 0.0 -1.400570608971e+00 
-4.591279357186e+00 1.046904040079e-01 0.0 
1.046904040079e-01 -1.047151991739e+01 0.0 
0.0 0.0 -4.038514678742e+00 
9.977311901207e-01 -1.507731542346e-01 0.0 
-1.507731542346e-01 -9.019589673457e+00 0.0 
0.0 0.0 -1.329839014167e+00 
-6.035000523591e+00 1.077036522586e-01 0.0 
1.077036522586e-01 -1.066502846017e+01 0.0 
0.0 0.0 -4.416868958471e+00 
7.537578074818e-01 2.277704782093e-01 0.0 
2.277704782093e-01 -9.303327926246e+00 0.0 
0.0 0.0 -2.164871035629e+00 
-1.139083297247e+00 1.525391412233e+00 0.0 
1.525391412233e+00 -1.049870255316e+01 0.0 
0.0 0.0 -3.091335755123e+00 
-8.341505728319e+00 4.971989082201e-01 0.0 
4.971989082201e-01 -1.076464574298e+01 0.0 
0.0 0.0 -4.830468450088e+00 
-1.136330788225e+01 1.057164289232e+00 0.0 
1.057164289232e+00 -1.094540280009e+01 0.0 
0.0 0.0 -5.819953760173e+00 
-1.488263351485e+01 3.155425954679e+00 0.0 
3.155425954679e+00 3.731069254885e-01 0.0 
0.0 0.0 -2.786464564927e+00 
-8.706175927920e+00 1.497017343735e+00 0.0 
1.497017343735e+00 -9.460244050403e+00 0.0 
0.0 0.0 -5.049925993497e+00 
-8.364293605753e+00 -1.315973326656e+00 0.0 
-1.315973326656e+00 -1.149230516237e+01 0.0 
0.0 0.0 -5.556979630435e+00 
-6.625498259095e+00 2.282541076685e-01 0.0 
2.282541076685e-01 -5.299276771767e+00 0.0 
0.0 0.0 -3.177432509259e+00 
-1.036902033652e+01 -9.005282015313e-02 0.0 
-9.005282015313e-02 -1.551793278648e+01 0.0 
0.0 0.0 -7.366085936900e+00 
-2.308081440704e+01 1.017502126127e+01 0.0 
1.017502126127e+01 -1.121041128796e+01 0.0 
0.0 0.0 -8.342073921018e+00 
-1.551908189858e+01 2.062846927519e-01 0.0 
2.062846927519e-01 -2.764051273923e+01 0.0 
0.0 0.0 -1.254787839134e+01 
-1.639714404133e+01 -3.266486971481e-01 0.0 
-3.266486971481e-01 -2.934416069855e+01 0.0 
0.0 0.0 -1.332239142196e+01 
-1.605212810446e+01 -4.202942235859e-02 0.0 
-4.202942235859e-02 -2.922801031039e+01 0.0 
0.0 0.0 -1.318404152445e+01 
-1.639104669762e+01 -1.577122271628e-01 0.0 
-1.577122271628e-01 -2.947946434580e+01 0.0 
0.0 0.0 -1.336115331303e+01 
-1.597233062563e+01 -1.059025172920e-01 0.0 
-1.059025172920e-01 -2.930970616534e+01 0.0 
0.0 0.0 -1.318461103729e+01 
-1.632219535413e+01 -2.103668360311e-01 0.0 
-2.103668360311e-01 -2.951030063335e+01 0.0 
0.0 0.0 -1.334974879625e+01 
-1.585132782208e+01 -1.684142835496e-01 0.0 
-1.684142835496e-01 -2.932002427539e+01 0.0 
0.0 0.0 -1.315140562924e+01 
-1.623864930417e+01 -2.802846383265e-01 0.0 
-2.802846383265e-01 -2.953309823088e+01 0.0 
0.0 0.0 -1.333152426051e+01 
-1.569895706332e+01 -2.280067001343e-01 0.0 
-2.280067001343e-01 -2.932031023760e+01 0.0 
0.0 0.0 -1.310578019027e+01 
-1.614115999063e+01 -3.513313641598e-01 0.0 
-3.513313641598e-01 -2.955378339449e+01 0.0 
0.0 0.0 -1.330848301554e+01 
-1.551283996285e+01 -2.831480366747e-01 0.0 
-2.831480366747e-01 -2.931397832248e+01 0.0 
0.0 0.0 -1.304804548560e+01 
-1.602912619103e+01 -4.212461824470e-01 0.0 
-4.212461824470e-01 -2.957327574879e+01 0.0 
0.0 0.0 -1.328072058194e+01 
-1.529315677713e+01 -3.343485974599e-01 0.0 
-3.343485974599e-01 -2.930251636652e+01 0.0 
0.0 0.0 -1.297870194310e+01 
-1.590325749558e+01 -4.899898217008e-01 0.0 
-4.899898217008e-01 -2.959239399703e+01 0.0 
0.0 0.0 -1.324869544778e+01 
-1.504119843550e+01 -3.823715599296e-01 0.0 
-3.823715599296e-01 -2.928755642769e+01 0.0 
0.0 0.0 -1.289862645896e+01 
-1.576463817209e+01 -5.575183613701e-01 0.0 
-5.575183613701e-01 -2.961171961372e+01 0.0 
0.0 0.0 -1.321290733574e+01 
-1.475892227001e+01 -4.274281458748e-01 0.0 
-4.274281458748e-01 -2.927077864153e+01 0.0 
0.0 0.0 -1.280891027346e+01 
-1.561577104884e+01 -6.231766419111e-01 0.0 
-6.231766419111e-01 -2.963163834223e+01 0.0 
0.0 0.0 -1.317422281732e+01 
-1.444897235975e+01 -4.691207524147e-01 0.0 
-4.691207524147e-01 -2.925338353042e+01 0.0 
0.0 0.0 -1.271070676705e+01 
-2.111505949969e+01 5.945288814940e+00 0.0 
5.945288814940e+00 -3.371988701864e+01 0.0 
0.0 0.0 -1.605048395550e+01 
-1.546060913053e+01 -6.857933039337e-01 0.0 
-6.857933039337e-01 -2.965247501030e+01 0.0 
0.0 0.0 -1.313392524225e+01 
-1.411506847995e+01 -5.062893074130e-01 0.0 
-5.062893074130e-01 -2.923654034247e+01 0.0 
0.0 0.0 -1.260548264673e+01 
-1.530549970967e+01 -7.434705901292e-01 0.0 
-7.434705901292e-01 -2.967472619480e+01 0.0 
0.0 0.0 -1.309406777134e+01 
-2.232160036639e+01 3.941435600489e+00 0.0 
3.941435600489e+00 -3.109817251310e+01 0.0 
0.0 0.0 -1.562593186385e+01 
-1.376244236034e+01 -5.369455734915e-01 0.0 
-5.369455734915e-01 -2.922141481912e+01 0.0 
0.0 0.0 -1.249515715384e+01 
-1.515937831767e+01 -7.936764990315e-01 0.0 
-7.936764990315e-01 -2.969978402800e+01 0.0 
0.0 0.0 -1.305774870370e+01 
-1.339853207709e+01 -5.574433956644e-01 0.0 
-5.574433956644e-01 -2.921082946273e+01 0.0 
0.0 0.0 -1.238280846194e+01 
-1.502910713259e+01 -8.306098756480e-01 0.0 
-8.306098756480e-01 -2.972747179457e+01 0.0 
0.0 0.0 -1.302697367815e+01 
-1.303450887504e+01 -5.622525793446e-01 0.0 
-5.622525793446e-01 -2.920749851075e+01 0.0 
0.0 0.0 -1.227260221574e+01 
-1.671613102891e+01 4.032560245238e+00 0.0 
4.032560245238e+00 -2.701390632450e+01 0.0 
0.0 0.0 -1.271901120602e+01 
-1.493185788430e+01 -8.475334255340e-01 0.0 
-8.475334255340e-01 -2.975986384144e+01 0.0 
0.0 0.0 -1.300751651772e+01 
-1.268592690431e+01 -5.437976767541e-01 0.0 
-5.437976767541e-01 -2.921511102608e+01 0.0 
0.0 0.0 -1.217031137912e+01 
-1.487907547136e+01 -8.325602542004e-01 0.0 
-8.325602542004e-01 -2.979395732081e+01 0.0 
0.0 0.0 -1.300190983765e+01 
-1.237491616112e+01 -4.935266142274e-01 0.0 
-4.935266142274e-01 -2.923312212946e+01 0.0 
0.0 0.0 -1.208241148718e+01 
-1.491775475882e+01 -7.805411159698e-01 0.0 
-7.805411159698e-01 -2.984087100446e+01 0.0 
0.0 0.0 -1.302758772898e+01 
-1.212943768220e+01 -3.980484618360e-01 0.0 
-3.980484618360e-01 -2.927525489476e+01 0.0 
0.0 0.0 -1.202140777309e+01 
-1.503993520520e+01 -6.636364508603e-01 0.0 
-6.636364508603e-01 -2.988647101640e+01 0.0 
0.0 0.0 -1.307792186648e+01 
-1.198765900430e+01 -2.442106113840e-01 0.0 
-2.442106113840e-01 -2.933034212326e+01 0.0 
0.0 0.0 -1.199540033827e+01 
-1.536499853469e+01 -4.890189531104e-01 0.0 
-4.890189531104e-01 -2.997227694968e+01 0.0 
0.0 0.0 -1.320118264531e+01 
-1.199288457514e+01 -6.300687966831e-03 0.0 
-6.300687966831e-03 -2.945141712638e+01 0.0 
0.0 0.0 -1.203329051046e+01 
-1.579186217453e+01 -1.745347832950e-01 0.0 
-1.745347832950e-01 -3.003069724398e+01 0.0 
0.0 0.0 -1.334676782555e+01 
-2.677138396678e+01 6.990749914597e+00 0.0 
6.990749914597e+00 -3.459262350688e+01 0.0 
0.0 0.0 -1.800920224210e+01 
-1.668798767398e+01 2.062251637392e-01 0.0 
2.062251637392e-01 -3.009044963401e+01 0.0 
0.0 0.0 -1.363353119240e+01 
-1.218311676757e+01 3.022066664562e-01 0.0 
3.022066664562e-01 -2.950873010449e+01 0.0 
0.0 0.0 -1.210755406162e+01 
-1.756353786209e+01 1.020748890665e+00 0.0 
1.020748890665e+00 -3.000973814425e+01 0.0 
0.0 0.0 -1.387198280190e+01 
-1.258290880056e+01 8.703954580038e-01 0.0 
8.703954580038e-01 -2.974267672211e+01 0.0 
0.0 0.0 -1.229767565680e+01 
-1.956884166697e+01 1.851210382218e+00 0.0 
1.851210382218e+00 -3.045223171790e+01 0.0 
0.0 0.0 -1.460632201546e+01 
-1.362557977240e+01 1.728465045164e+00 0.0 
1.728465045164e+00 -2.987181365339e+01 0.0 
0.0 0.0 -1.264921802774e+01 
-1.547853854814e+01 3.214241351476e+00 0.0 
3.214241351476e+00 -3.129241131146e+01 0.0 
0.0 0.0 -1.363128495788e+01 
-2.136880716400e+01 4.666977525317e+00 0.0 
4.666977525317e+00 -2.386870730033e+01 0.0 
0.0 0.0 -1.317125433930e+01 
-1.595063987422e+01 1.430354957829e+00 0.0 
1.430354957829e+00 -2.991427759538e+01 0.0 
0.0 0.0 -1.335947524088e+01 
-1.629666005920e+01 -1.486637711879e+00 0.0 
-1.486637711879e+00 -2.788049327778e+01 0.0 
0.0 0.0 -1.285314600109e+01 
-1.835007495764e+01 1.129375252273e-01 0.0 
1.129375252273e-01 -3.401796509726e+01 0.0 
0.0 0.0 -1.531041201647e+01 
-1.396316099613e+01 -2.085031489447e-01 0.0 
-2.085031489447e-01 -2.390426099223e+01 0.0 
0.0 0.0 -1.096022659651e+01 
-2.184252032610e+01 7.918833782179e+00 0.0 
7.918833782179e+00 -2.853341344880e+01 0.0 
0.0 0.0 -1.460268026901e+01 
-2.573728372794e+01 1.894483049311e-01 0.0 
1.894483049311e-01 -5.075257973896e+01 0.0 
0.0 0.0 -2.254695904007e+01 
-2.478826704765e+01 -3.862982593951e-01 0.0 
-3.862982593951e-01 -4.892344771329e+01 0.0 
0.0 0.0 -2.171351442828e+01 
-2.499190886316e+01 -1.172264691413e-01 0.0 
-1.172264691413e-01 -4.897695610383e+01 0.0 
0.0 0.0 -2.179065949010e+01 
-2.466024158360e+01 -2.199917725640e-01 0.0 
-2.199917725640e-01 -4.877425241308e+01 0.0 
0.0 0.0 -2.163034819901e+01 
-2.492369251499e+01 -1.978344681269e-01 0.0 
-1.978344681269e-01 -4.888210732978e+01 0.0 
0.0 0.0 -2.174173995343e+01 
-2.457414099137e+01 -2.810044940893e-01 0.0 
-2.810044940893e-01 -4.876484045358e+01 0.0 
0.0 0.0 -2.160169443349e+01 
-2.488461541419e+01 -2.723707037626e-01 0.0 
-2.723707037626e-01 -4.889382624010e+01 0.0 
0.0 0.0 -2.173353249629e+01 
-2.448149105860e+01 -3.632879954075e-01 0.0 
-3.632879954075e-01 -4.876639565786e+01 0.0 
0.0 0.0 -2.157436601494e+01 
-2.484350464237e+01 -3.465804880218e-01 0.0 
-3.465804880218e-01 -4.891281998565e+01 0.0 
0.0 0.0 -2.172689738841e+01 
-2.437517525897e+01 -4.481411718174e-01 0.0 
-4.481411718174e-01 -4.876648568728e+01 0.0 
0.0 0.0 -2.154249828387e+01 
-2.480089026432e+01 -4.176382348812e-01 0.0 
-4.176382348812e-01 -4.893152802003e+01 0.0 
0.0 0.0 -2.171972548530e+01 
-2.425330164157e+01 -5.313823235381e-01 0.0 
-5.313823235381e-01 -4.876301846672e+01 0.0 
0.0 0.0 -2.150489603249e+01 
-2.475876524741e+01 -4.844372239687e-01 0.0 
-4.844372239687e-01 -4.894937936081e+01 0.0 
0.0 0.0 -2.171244338247e+01 
-2.411623724451e+01 -6.115076027630e-01 0.0 
-6.115076027630e-01 -4.875601341122e+01 0.0 
0.0 0.0 -2.146167519672e+01 
-2.472068773163e+01 -5.471073722451e-01 0.0 
-5.471073722451e-01 -4.896752313608e+01 0.0 
0.0 0.0 -2.170646326031e+01 
-2.396604148903e+01 -6.877587074358e-01 0.0 
-6.877587074358e-01 -4.874832735325e+01 0.0 
0.0 0.0 -2.141431065268e+01 
-2.468784382569e+01 -6.043976680936e-01 0.0 
-6.043976680936e-01 -4.898736297014e+01 0.0 
0.0 0.0 -2.170256203875e+01 
-2.380574110586e+01 -7.580180446250e-01 0.0 
-7.580180446250e-01 -4.874156847528e+01 0.0 
0.0 0.0 -2.136419287434e+01 
-2.990762779419e+01 5.169058669297e+00 0.0 
5.169058669297e+00 -5.341178552542e+01 0.0 
0.0 0.0 -2.459582399588e+01 
-2.466425345696e+01 -6.543784801922e-01 0.0 
-6.543784801922e-01 -4.900999417582e+01 0.0 
0.0 0.0 -2.170227428983e+01 
-2.364010593378e+01 -8.192957799541e-01 0.0 
-8.192957799541e-01 -4.873796755122e+01 0.0 
0.0 0.0 -2.131342204550e+01 
-2.465626492504e+01 -6.935437295327e-01 0.0 
-6.935437295327e-01 -4.903676192181e+01 0.0 
0.0 0.0 -2.170790805406e+01 
-2.652089679661e+01 3.750959443014e+00 0.0 
3.750959443014e+00 -4.667369368707e+01 0.0 
0.0 0.0 -2.155837714510e+01 
-2.347596905079e+01 -8.672807120134e-01 0.0 
-8.672807120134e-01 -4.873915465742e+01 0.0 
0.0 0.0 -2.126453711246e+01 
-3.094818191109e+01 3.481105872249e+00 0.0 
3.481105872249e+00 -5.091917187352e+01 0.0 
0.0 0.0 -2.416020613538e+01 
-2.467408566465e+01 -7.176197789208e-01 0.0 
-7.176197789208e-01 -4.906917454731e+01 0.0 
0.0 0.0 -2.172297806359e+01 
-2.332251892116e+01 -8.968509554595e-01 0.0 
-8.968509554595e-01 -4.874711210281e+01 0.0 
0.0 0.0 -2.122088930719e+01 
-2.473000063865e+01 -7.241249076901e-01 0.0 
-7.241249076901e-01 -4.911088977072e+01 0.0 
0.0 0.0 -2.175226712281e+01 
-2.319247498135e+01 -9.007635447642e-01 0.0 
-9.007635447642e-01 -4.877533010833e+01 0.0 
0.0 0.0 -2.119034152690e+01 
-2.482505089990e+01 -6.986749788114e-01 0.0 
-6.986749788114e-01 -4.916346263373e+01 0.0 
0.0 0.0 -2.179655406009e+01 
-2.310032475874e+01 -8.654131062774e-01 0.0 
-8.654131062774e-01 -4.881961988180e+01 0.0 
0.0 0.0 -2.117598339216e+01 
-2.498361119258e+01 -6.362871438330e-01 0.0 
-6.362871438330e-01 -4.923179982571e+01 0.0 
0.0 0.0 -2.186462330549e+01 
-2.307020461119e+01 -7.756738795678e-01 0.0 
-7.756738795678e-01 -4.890659198041e+01 0.0 
0.0 0.0 -2.119303897748e+01 
-3.426450109259e+01 5.727289606172e+00 0.0 
5.727289606172e+00 -5.434788122985e+01 0.0 
0.0 0.0 -2.618371469673e+01 
-2.520955725322e+01 -5.003231078173e-01 0.0 
-5.003231078173e-01 -4.931201260679e+01 0.0 
0.0 0.0 -2.195647095800e+01 
-2.312596655872e+01 -6.110923214528e-01 0.0 
-6.110923214528e-01 -4.899336520424e+01 0.0 
0.0 0.0 -2.123579952889e+01 
-2.558470967949e+01 -3.173551517379e-01 0.0 
-3.173551517379e-01 -4.942649640991e+01 0.0 
0.0 0.0 -2.210336182682e+01 
-2.331534739716e+01 -3.531955132567e-01 0.0 
-3.531955132567e-01 -4.919576613097e+01 0.0 
0.0 0.0 -2.135333405844e+01 
-2.366284728079e+01 3.291686752912e-02 0.0 
3.291686752912e-02 -4.933392402392e+01 0.0 
0.0 0.0 -2.149903139141e+01 
-2.602907890404e+01 2.233074337513e-02 0.0 
2.233074337513e-02 -4.954643879992e+01 0.0 
0.0 0.0 -2.227265531119e+01 
-2.426797598208e+01 5.814869684773e-01 0.0 
5.814869684773e-01 -4.980829612826e+01 0.0 
0.0 0.0 -2.182288163310e+01 
-2.680384013846e+01 3.845640022656e-01 0.0 
3.845640022656e-01 -4.976038930136e+01 0.0 
0.0 0.0 -2.256926883195e+01 
-2.518991454715e+01 1.384386330718e+00 0.0 
1.384386330718e+00 -4.992827900474e+01 0.0 
0.0 0.0 -2.213545806557e+01 
-2.667168242416e+01 2.629345479970e+00 0.0 
2.629345479970e+00 -5.126207545574e+01 0.0 
0.0 0.0 -2.298012736397e+01 
-2.746828662114e+01 1.154770997624e+00 0.0 
1.154770997624e+00 -4.986752886490e+01 0.0 
0.0 0.0 -2.280074464581e+01 
-2.907126047394e+01 1.794894896605e+00 0.0 
1.794894896605e+00 -5.027864178733e+01 0.0 
0.0 0.0 -2.340497067838e+01 
-2.959356909761e+01 4.430519181406e+00 0.0 
4.430519181406e+00 -4.429305709415e+01 0.0 
0.0 0.0 -2.176598785753e+01 
-2.528842686542e+01 1.442970693369e+00 0.0 
1.442970693369e+00 -4.861897065516e+01 0.0 
0.0 0.0 -2.177221925617e+01 
-2.496218541975e+01 -1.498661035419e+00 0.0 
-1.498661035419e+00 -5.052556658621e+01 0.0 
0.0 0.0 -2.224632560179e+01 
-2.282552774820e+01 9.978169472607e-02 0.0 
9.978169472607e-02 -4.446068827524e+01 0.0 
0.0 0.0 -1.978586480703e+01 
-2.735497489250e+01 -1.981886112946e-01 0.0 
-1.981886112946e-01 -5.454424521223e+01 0.0 
0.0 0.0 -2.416976603142e+01 
-2.936878338526e+01 6.488956434824e+00 0.0 
6.488956434824e+00 -4.754159955715e+01 0.0 
0.0 0.0 -2.267311488272e+01 
-3.258560846877e+01 1.845342826732e-01 0.0 
1.845342826732e-01 -6.673200413424e+01 0.0 
0.0 0.0 -2.939528378090e+01 
-3.357805180908e+01 -3.781002547187e-01 0.0 
-3.781002547187e-01 -6.846744218959e+01 0.0 
0.0 0.0 -3.021364819960e+01 
-3.330757938366e+01 -1.509189316431e-01 0.0 
-1.509189316431e-01 -6.838018731834e+01 0.0 
0.0 0.0 -3.010633001060e+01 
-3.364751631981e+01 -2.545079615863e-01 0.0 
-2.545079615863e-01 -6.858052168753e+01 0.0 
0.0 0.0 -3.026841140220e+01 
-3.330493572734e+01 -2.360351963718e-01 0.0 
-2.360351963718e-01 -6.843834149195e+01 0.0 
0.0 0.0 -3.012298316579e+01 
-3.366300601704e+01 -3.309285179564e-01 0.0 
-3.309285179564e-01 -6.859782218604e+01 0.0 
0.0 0.0 -3.027824846092e+01 
-3.325814275327e+01 -3.099052442919e-01 0.0 
-3.099052442919e-01 -6.843205669797e+01 0.0 
0.0 0.0 -3.010705983537e+01 
-3.367517677798e+01 -4.177083215848e-01 0.0 
-4.177083215848e-01 -6.861697068050e+01 0.0 
0.0 0.0 -3.028764423754e+01 
-3.320893648281e+01 -3.841082574707e-01 0.0 
-3.841082574707e-01 -6.843216094668e+01 0.0 
0.0 0.0 -3.009232922885e+01 
-3.369143273705e+01 -5.036356960707e-01 0.0 
-5.036356960707e-01 -6.863766812952e+01 0.0 
0.0 0.0 -3.029873025997e+01 
-3.315956214970e+01 -4.558714079633e-01 0.0 
-4.558714079633e-01 -6.843509575258e+01 0.0 
0.0 0.0 -3.007839737068e+01 
-3.371275201787e+01 -5.856346864911e-01 0.0 
-5.856346864911e-01 -6.865733628237e+01 0.0 
0.0 0.0 -3.031102649007e+01 
-3.311152235688e+01 -5.218733690486e-01 0.0 
-5.218733690486e-01 -6.843914594957e+01 0.0 
0.0 0.0 -3.006520049193e+01 
-3.374824393435e+01 -6.613029364971e-01 0.0 
-6.613029364971e-01 -6.867582386426e+01 0.0 
0.0 0.0 -3.032722033958e+01 
-3.306636637549e+01 -5.815966290690e-01 0.0 
-5.815966290690e-01 -6.844077330507e+01 0.0 
0.0 0.0 -3.005214190417e+01 
-3.380169795584e+01 -7.319259787928e-01 0.0 
-7.319259787928e-01 -6.869658025521e+01 0.0 
0.0 0.0 -3.034948346331e+01 
-3.302720997919e+01 -6.322978171462e-01 0.0 
-6.322978171462e-01 -6.844588399496e+01 0.0 
0.0 0.0 -3.004192819224e+01 
-3.883836713760e+01 4.285965024963e+00 0.0 
4.285965024963e+00 -7.311064915026e+01 0.0 
0.0 0.0 -3.318470488636e+01 
-3.387116327225e+01 -7.922478228314e-01 0.0 
-7.922478228314e-01 -6.872038192764e+01 0.0 
0.0 0.0 -3.037746355997e+01 
-3.299946436159e+01 -6.696866011113e-01 0.0 
-6.696866011113e-01 -6.845881961997e+01 0.0 
0.0 0.0 -3.003748519447e+01 
-3.973085447109e+01 2.660060222947e+00 0.0 
2.660060222947e+00 -7.099766230317e+01 0.0 
0.0 0.0 -3.281855503228e+01 
-3.396081096962e+01 -8.367434917549e-01 0.0 
-8.367434917549e-01 -6.874959029258e+01 0.0 
0.0 0.0 -3.041312037866e+01 
-3.299127937788e+01 -6.873174285450e-01 0.0 
-6.873174285450e-01 -6.848512897842e+01 0.0 
0.0 0.0 -3.004292250689e+01 
-3.408313729973e+01 -8.573573288006e-01 0.0 
-8.573573288006e-01 -6.878613813413e+01 0.0 
0.0 0.0 -3.046078263016e+01 
-3.301242409004e+01 -6.792123291429e-01 0.0 
-6.792123291429e-01 -6.852529753987e+01 0.0 
0.0 0.0 -3.006131648897e+01 
-3.425112433694e+01 -8.476698731629e-01 0.0 
-8.476698731629e-01 -6.883149314140e+01 0.0 
0.0 0.0 -3.052478524350e+01 
-3.602459528648e+01 3.084702621843e+00 0.0 
3.084702621843e+00 -6.650308968326e+01 0.0 
0.0 0.0 -3.035830549092e+01 
-3.307348721110e+01 -6.410694955158e-01 0.0 
-6.410694955158e-01 -6.857902510644e+01 0.0 
0.0 0.0 -3.009575369526e+01 
-3.448408370795e+01 -8.094968671120e-01 0.0 
-8.094968671120e-01 -6.890285923680e+01 0.0 
0.0 0.0 -3.061608288342e+01 
-3.318831312160e+01 -5.575034829965e-01 0.0 
-5.575034829965e-01 -6.867774115102e+01 0.0 
0.0 0.0 -3.015981628178e+01 
-3.474032163143e+01 -7.077889446582e-01 0.0 
-7.077889446582e-01 -6.898773613296e+01 0.0 
0.0 0.0 -3.071841732932e+01 
-3.337776839240e+01 -4.102336923637e-01 0.0 
-4.102336923637e-01 -6.881816662529e+01 0.0 
0.0 0.0 -3.025878050531e+01 
-3.511596140013e+01 -5.423827313555e-01 0.0 
-5.423827313555e-01 -6.912618732699e+01 0.0 
0.0 0.0 -3.087264461814e+01 
-3.366777979248e+01 -1.688800525572e-01 0.0 
-1.688800525572e-01 -6.904786519839e+01 0.0 
0.0 0.0 -3.041469349726e+01 
-3.548497020102e+01 -2.298339660129e-01 0.0 
-2.298339660129e-01 -6.924836769559e+01 0.0 
0.0 0.0 -3.102000136898e+01 
-3.408823397230e+01 1.739637998914e-01 0.0 
1.739637998914e-01 -6.926805309312e+01 0.0 
0.0 0.0 -3.060688611963e+01 
-3.620667119602e+01 1.208330165044e-01 0.0 
1.208330165044e-01 -6.952411288378e+01 0.0 
0.0 0.0 -3.131923522394e+01 
-4.240174398403e+01 4.359838956374e+00 0.0 
4.359838956374e+00 -7.423463755575e+01 0.0 
0.0 0.0 -3.459091446193e+01 
-3.667391527905e+01 8.115280722301e-01 0.0 
8.115280722301e-01 -6.967518547070e+01 0.0 
0.0 0.0 -3.150473022492e+01 
-3.468426491212e+01 6.779112253761e-01 0.0 
6.779112253761e-01 -6.974187281877e+01 0.0 
0.0 0.0 -3.092784131926e+01 
-3.812414375785e+01 1.353118928827e+00 0.0 
1.353118928827e+00 -7.028599157223e+01 0.0 
0.0 0.0 -3.212304059902e+01 
-3.547764603502e+01 1.327563400138e+00 0.0 
1.327563400138e+00 -6.999926972667e+01 0.0 
0.0 0.0 -3.124307472851e+01 
-3.659537477886e+01 2.297491064984e+00 0.0 
2.297491064984e+00 -7.116406789957e+01 0.0 
0.0 0.0 -3.192783280353e+01 
-3.808815149442e+01 3.514798463004e+00 0.0 
3.514798463004e+00 -6.460641167474e+01 0.0 
0.0 0.0 -3.040836895075e+01 
-3.303374485877e+01 1.449464926696e+00 0.0 
1.449464926696e+00 -6.891065315594e+01 0.0 
0.0 0.0 -3.018331940441e+01 
-3.336717928173e+01 -1.494017788977e+00 0.0 
-1.494017788977e+00 -6.696238245959e+01 0.0 
0.0 0.0 -2.969886852240e+01 
-3.550709452867e+01 1.088865605576e-01 0.0 
1.088865605576e-01 -7.304720305771e+01 0.0 
0.0 0.0 -3.216628927591e+01 
-3.096429040265e+01 -1.963374196128e-01 0.0 
-1.963374196128e-01 -6.296598140259e+01 0.0 
0.0 0.0 -2.777908154157e+01 
-3.770103772000e+01 5.024986611112e+00 0.0 
5.024986611112e+00 -6.667583542765e+01 0.0 
0.0 0.0 -3.091306194430e+01 
-4.292847223066e+01 2.082621005774e-01 0.0 
2.082621005774e-01 -8.978833112036e+01 0.0 
0.0 0.0 -3.941504100531e+01 
-4.194120613112e+01 -3.723279620460e-01 0.0 
-3.723279620460e-01 -8.798146894102e+01 0.0 
0.0 0.0 -3.857680252164e+01 
-4.224172375235e+01 -1.305162671004e-01 0.0 
-1.305162671004e-01 -8.807506666867e+01 0.0 
0.0 0.0 -3.869503712631e+01 
-4.189836491600e+01 -2.441243183074e-01 0.0 
-2.441243183074e-01 -8.783250174531e+01 0.0 
0.0 0.0 -3.851925999839e+01 
-4.225308682270e+01 -2.265725134480e-01 0.0 
-2.265725134480e-01 -8.797912246852e+01 0.0 
0.0 0.0 -3.866966278736e+01 
-4.190188273057e+01 -3.185929872448e-01 0.0 
-3.185929872448e-01 -8.782186785095e+01 0.0 
0.0 0.0 -3.851712517446e+01 
-4.229686797616e+01 -3.043546571759e-01 0.0 
-3.043546571759e-01 -8.798382339033e+01 0.0 
0.0 0.0 -3.868420740995e+01 
-4.190698994297e+01 -3.997273974739e-01 0.0 
-3.997273974739e-01 -8.782453473215e+01 0.0 
0.0 0.0 -3.851945740253e+01 
-4.236267544573e+01 -3.747940282596e-01 0.0 
-3.747940282596e-01 -8.800501221291e+01 0.0 
0.0 0.0 -3.871030629759e+01 
-4.191763329818e+01 -4.777997934329e-01 0.0 
-4.777997934329e-01 -8.783213610549e+01 0.0 
0.0 0.0 -3.852493082110e+01 
-4.244131918385e+01 -4.407133043050e-01 0.0 
-4.407133043050e-01 -8.803081157073e+01 0.0 
0.0 0.0 -3.874163922637e+01 
-4.193734615736e+01 -5.495207385275e-01 0.0 
-5.495207385275e-01 -8.784805594117e+01 0.0 
0.0 0.0 -3.853562062956e+01 
-4.253401253592e+01 -4.920618294143e-01 0.0 
-4.920618294143e-01 -8.805954351546e+01 0.0 
0.0 0.0 -3.877806681542e+01 
-4.196912473133e+01 -6.083424168508e-01 0.0 
-6.083424168508e-01 -8.785787905722e+01 0.0 
0.0 0.0 -3.854810113657e+01 
-4.265635309827e+01 -5.342643160337e-01 0.0 
-5.342643160337e-01 -8.808650532978e+01 0.0 
0.0 0.0 -3.882285752842e+01 
-4.201884058913e+01 -6.564370765921e-01 0.0 
-6.564370765921e-01 -8.786991306622e+01 0.0 
0.0 0.0 -3.856662609660e+01 
-4.720830118267e+01 3.438198578175e+00 0.0 
3.438198578175e+00 -9.252853058455e+01 0.0 
0.0 0.0 -4.152104953017e+01 
-4.281465682620e+01 -5.693599369535e-01 0.0 
-5.693599369535e-01 -8.812013983696e+01 0.0 
0.0 0.0 -3.888043899895e+01 
-4.209212510854e+01 -6.915542447393e-01 0.0 
-6.915542447393e-01 -8.790262621232e+01 0.0 
0.0 0.0 -3.859842539626e+01 
-4.480910221876e+01 2.491066111080e+00 0.0 
2.491066111080e+00 -8.588422798103e+01 0.0 
0.0 0.0 -3.880799905994e+01 
-4.298027891720e+01 -5.881947786967e-01 0.0 
-5.881947786967e-01 -8.816084225713e+01 0.0 
0.0 0.0 -3.894233635230e+01 
-4.219273751254e+01 -7.011759011566e-01 0.0 
-7.011759011566e-01 -8.795741889271e+01 0.0 
0.0 0.0 -3.864504692157e+01 
-4.813789304992e+01 2.102365943993e+00 0.0 
2.102365943993e+00 -9.057711674328e+01 0.0 
0.0 0.0 -4.121450293796e+01 
-4.318335116365e+01 -5.755761309790e-01 0.0 
-5.755761309790e-01 -8.821677275327e+01 0.0 
0.0 0.0 -3.902003717508e+01 
-4.233105032981e+01 -6.750281075431e-01 0.0 
-6.750281075431e-01 -8.803126853764e+01 0.0 
0.0 0.0 -3.870869566023e+01 
-4.344047728563e+01 -5.247500745402e-01 0.0 
-5.247500745402e-01 -8.828798082416e+01 0.0 
0.0 0.0 -3.911853743293e+01 
-4.251977495558e+01 -6.056675544069e-01 0.0 
-6.056675544069e-01 -8.812501125157e+01 0.0 
0.0 0.0 -3.879343586215e+01 
-4.374731028700e+01 -4.311763436325e-01 0.0 
-4.311763436325e-01 -8.837052576605e+01 0.0 
0.0 0.0 -3.923535081591e+01 
-4.276805410923e+01 -4.890050025916e-01 0.0 
-4.890050025916e-01 -8.823212350645e+01 0.0 
0.0 0.0 -3.890005328470e+01 
-5.018899907921e+01 3.336611385788e+00 0.0 
3.336611385788e+00 -9.363727545327e+01 0.0 
0.0 0.0 -4.274788235974e+01 
-4.415071277033e+01 -3.253846627552e-01 0.0 
-3.253846627552e-01 -8.850607809425e+01 0.0 
0.0 0.0 -3.939703725937e+01 
-4.310034463184e+01 -3.084829234775e-01 0.0 
-3.084829234775e-01 -8.849445646725e+01 0.0 
0.0 0.0 -3.907844032973e+01 
-4.451138352945e+01 -8.199427738294e-02 0.0 
-8.199427738294e-02 -8.866858821957e+01 0.0 
0.0 0.0 -3.955399152471e+01 
-4.351137340871e+01 -1.885960087364e-02 0.0 
-1.885960087364e-02 -8.871548201366e+01 0.0 
0.0 0.0 -3.926805662671e+01 
-4.407082728440e+01 4.059733549000e-01 0.0 
4.059733549000e-01 -8.928203422347e+01 0.0 
0.0 0.0 -3.960585845236e+01 
-4.509024932496e+01 1.675533398108e-01 0.0 
1.675533398108e-01 -8.894201317898e+01 0.0 
0.0 0.0 -3.980967875118e+01 
-4.472447645316e+01 9.867629067450e-01 0.0 
9.867629067450e-01 -8.939899181710e+01 0.0 
0.0 0.0 -3.983704048108e+01 
-4.546774528047e+01 7.901962185813e-01 0.0 
7.901962185813e-01 -8.915175360122e+01 0.0 
0.0 0.0 -3.998584966451e+01 
-4.563263591202e+01 1.726566187889e+00 0.0 
1.726566187889e+00 -9.057886694764e+01 0.0 
0.0 0.0 -4.046345085790e+01 
-4.680581984377e+01 1.112293269949e+00 0.0 
1.112293269949e+00 -8.973750611468e+01 0.0 
0.0 0.0 -4.056299778753e+01 
-4.620454275100e+01 2.968087939644e+00 0.0 
2.968087939644e+00 -8.433537126667e+01 0.0 
0.0 0.0 -3.876197420530e+01 
-4.246675842653e+01 1.455932060422e+00 0.0 
1.455932060422e+00 -8.763845616325e+01 0.0 
0.0 0.0 -3.863156437693e+01 
-4.213475126107e+01 -1.490869033980e+00 0.0 
-1.490869033980e+00 -8.956996908585e+01 0.0 
0.0 0.0 -3.911141610408e+01 
-3.998231877636e+01 1.077317060976e-01 0.0 
1.077317060976e-01 -8.348939296897e+01 0.0 
0.0 0.0 -3.664151352360e+01 
-4.453889655213e+01 -1.917987010550e-01 0.0 
-1.917987010550e-01 -9.355881297171e+01 0.0 
0.0 0.0 -4.102931285715e+01 
-4.617261412989e+01 4.030243750834e+00 0.0 
4.030243750834e+00 -8.602843484037e+01 0.0 
0.0 0.0 -3.926031469108e+01 
-4.979714197263e+01 2.311906589256e-01 0.0 
2.311906589256e-01 -1.058152271850e+02 0.0 
0.0 0.0 -4.628371074728e+01 
-5.073199312859e+01 -3.203186422919e-01 0.0 
-3.203186422919e-01 -1.075338778578e+02 0.0 
0.0 0.0 -4.707976129592e+01 
-5.056394995486e+01 -1.008114344389e-01 0.0 
-1.008114344389e-01 -1.074935944745e+02 0.0 
0.0 0.0 -4.701726332881e+01 
-5.087259820410e+01 -1.873939999982e-01 0.0 
-1.873939999982e-01 -1.076467848544e+02 0.0 
0.0 0.0 -4.715581491754e+01 
-5.063888484055e+01 -1.953698511251e-01 0.0 
-1.953698511251e-01 -1.075459845102e+02 0.0 
0.0 0.0 -4.705546080522e+01 
-5.092910248418e+01 -2.688326263588e-01 0.0 
-2.688326263588e-01 -1.076657763801e+02 0.0 
0.0 0.0 -4.717846365929e+01 
-5.069082488786e+01 -2.545024969343e-01 0.0 
-2.545024969343e-01 -1.075697228510e+02 0.0 
0.0 0.0 -4.707816432165e+01 
-5.103750814234e+01 -3.331811076028e-01 0.0 
-3.331811076028e-01 -1.076885629590e+02 0.0 
0.0 0.0 -4.721782133040e+01 
-5.075083555375e+01 -3.109274052520e-01 0.0 
-3.109274052520e-01 -1.075773857983e+02 0.0 
0.0 0.0 -4.709846640561e+01 
-5.114841712774e+01 -3.978480769483e-01 0.0 
-3.978480769483e-01 -1.077138839525e+02 0.0 
0.0 0.0 -4.725869032408e+01 
-5.082787400554e+01 -3.585955521329e-01 0.0 
-3.585955521329e-01 -1.075994394880e+02 0.0 
0.0 0.0 -4.712819404806e+01 
-5.128810119186e+01 -4.539231306302e-01 0.0 
-4.539231306302e-01 -1.077529030863e+02 0.0 
0.0 0.0 -4.731230128345e+01 
-5.092540112424e+01 -3.891803293455e-01 0.0 
-3.891803293455e-01 -1.076394502215e+02 0.0 
0.0 0.0 -4.716945540373e+01 
-5.142196790710e+01 -4.794622069415e-01 0.0 
-4.794622069415e-01 -1.077791335292e+02 0.0 
0.0 0.0 -4.736033043089e+01 
-5.105302519191e+01 -4.012576610875e-01 0.0 
-4.012576610875e-01 -1.076787402149e+02 0.0 
0.0 0.0 -4.721952962206e+01 
-5.566072855139e+01 2.949986653654e+00 0.0 
2.949986653654e+00 -1.118666279039e+02 0.0 
0.0 0.0 -4.985820693657e+01 
-5.165443019949e+01 -4.929224485758e-01 0.0 
-4.929224485758e-01 -1.078127283453e+02 0.0 
0.0 0.0 -4.744014756343e+01 
-5.648390371222e+01 1.643072201570e+00 0.0 
1.643072201570e+00 -1.102304049276e+02 0.0 
0.0 0.0 -4.961429259194e+01 
-5.120177454929e+01 -4.134437685427e-01 0.0 
-4.134437685427e-01 -1.076900811909e+02 0.0 
0.0 0.0 -4.726755672205e+01 
-5.186943347833e+01 -5.174830873444e-01 0.0 
-5.174830873444e-01 -1.078660171035e+02 0.0 
0.0 0.0 -4.752063517455e+01 
-5.138654647831e+01 -3.933786066629e-01 0.0 
-3.933786066629e-01 -1.077754665664e+02 0.0 
0.0 0.0 -4.734860391341e+01 
-5.210530201851e+01 -4.895621786102e-01 0.0 
-4.895621786102e-01 -1.079425947901e+02 0.0 
0.0 0.0 -4.761436904257e+01 
-5.161733886390e+01 -3.276520359922e-01 0.0 
-3.276520359922e-01 -1.078960773872e+02 0.0 
0.0 0.0 -4.745402487532e+01 
-5.242570162956e+01 -4.098561449590e-01 0.0 
-4.098561449590e-01 -1.080413326378e+02 0.0 
0.0 0.0 -4.774011028022e+01 
-5.348882683890e+01 2.025786787237e+00 0.0 
2.025786787237e+00 -1.053311891033e+02 0.0 
0.0 0.0 -4.724600478267e+01 
-5.189933949313e+01 -2.198972412032e-01 0.0 
-2.198972412032e-01 -1.080253259750e+02 0.0 
0.0 0.0 -4.757739964044e+01 
-5.278601275396e+01 -2.875677599072e-01 0.0 
-2.875677599072e-01 -1.081576926904e+02 0.0 
0.0 0.0 -4.788311163330e+01 
-5.224511595697e+01 -5.724738868124e-02 0.0 
-5.724738868124e-02 -1.081987389960e+02 0.0 
0.0 0.0 -4.773315648589e+01 
-5.316432854764e+01 -8.785203712958e-02 0.0 
-8.785203712958e-02 -1.082749582659e+02 0.0 
0.0 0.0 -4.803178604407e+01 
-5.265827920941e+01 1.448327131760e-01 0.0 
1.448327131760e-01 -1.083570664521e+02 0.0 
0.0 0.0 -4.790460369845e+01 
-5.380113053585e+01 6.188562803459e-02 0.0 
6.188562803459e-02 -1.085870561053e+02 0.0 
0.0 0.0 -4.831645599235e+01 
-5.316075137292e+01 4.650028718632e-01 0.0 
4.650028718632e-01 -1.088504465210e+02 0.0 
0.0 0.0 -4.820335936818e+01 
-5.401794445054e+01 5.303810321968e-01 0.0 
5.303810321968e-01 -1.087874253644e+02 0.0 
0.0 0.0 -4.844161094449e+01 
-5.529301731075e+01 8.177625247445e-01 0.0 
8.177625247445e-01 -1.094705569892e+02 0.0 
0.0 0.0 -4.902907228998e+01 
-5.375245551804e+01 8.913887773828e-01 0.0 
8.913887773828e-01 -1.091538276295e+02 0.0 
0.0 0.0 -4.847188494426e+01 
-5.833568378745e+01 2.583224200408e+00 0.0 
2.583224200408e+00 -1.131264172057e+02 0.0 
0.0 0.0 -5.103863029794e+01 
-5.447531463271e+01 1.515708446457e+00 0.0 
1.515708446457e+00 -1.101694154231e+02 0.0 
0.0 0.0 -4.899341901674e+01 
-5.451534591194e+01 2.333261015853e+00 0.0 
2.333261015853e+00 -1.040616894698e+02 0.0 
0.0 0.0 -4.717311061452e+01 
-5.020622192263e+01 1.463567882910e+00 0.0 
1.463567882910e+00 -1.079492551192e+02 0.0 
0.0 0.0 -4.704664311255e+01 
-5.053891534631e+01 -1.473406471589e+00 0.0 
-1.473406471589e+00 -1.060109619421e+02 0.0 
0.0 0.0 -4.656496318653e+01 
-5.266117123894e+01 1.204495535379e-01 0.0 
1.204495535379e-01 -1.121004082342e+02 0.0 
0.0 0.0 -4.902847384193e+01 
-4.816560683462e+01 -1.799063675459e-01 0.0 
-1.799063675459e-01 -1.020211369642e+02 0.0 
0.0 0.0 -4.465602313965e+01 
-5.441757552805e+01 3.180070761283e+00 0.0 
3.180070761283e+00 -1.052297091922e+02 0.0 
0.0 0.0 -4.749418541609e+01 
-5.990583345441e+01 2.936859590868e-01 0.0 
2.936859590868e-01 -1.289007677910e+02 0.0 
0.0 0.0 -5.624198037363e+01 
-5.910458091328e+01 -2.649312413554e-01 0.0 
-2.649312413554e-01 -1.270699160221e+02 0.0 
0.0 0.0 -5.545234908062e+01 
-5.940891807768e+01 -1.882592582519e-03 0.0 
-1.882592582519e-03 -1.271552097948e+02 0.0 
0.0 0.0 -5.556923836175e+01 
-5.911954664275e+01 -1.122377498404e-01 0.0 
-1.122377498404e-01 -1.268896645446e+02 0.0 
0.0 0.0 -5.540276335620e+01 
-5.944104320891e+01 -1.348953387219e-01 0.0 
-1.348953387219e-01 -1.270311298005e+02 0.0 
0.0 0.0 -5.554165190282e+01 
-5.919847536421e+01 -1.871110797840e-01 0.0 
-1.871110797840e-01 -1.269609797669e+02 0.0 
0.0 0.0 -5.544783653932e+01 
-5.951620670947e+01 -1.449778661649e-01 0.0 
-1.449778661649e-01 -1.270792920560e+02 0.0 
0.0 0.0 -5.557864962964e+01 
-5.928434039937e+01 -2.152500595401e-01 0.0 
-2.152500595401e-01 -1.269311715588e+02 0.0 
0.0 0.0 -5.546465358744e+01 
-5.973018251644e+01 -1.953127064900e-01 0.0 
-1.953127064900e-01 -1.271058467604e+02 0.0 
0.0 0.0 -5.565080878304e+01 
-5.940773236475e+01 -2.657672101269e-01 0.0 
-2.657672101269e-01 -1.269856195056e+02 0.0 
0.0 0.0 -5.551800556109e+01 
-5.985296129438e+01 -2.200098838758e-01 0.0 
-2.200098838758e-01 -1.271415772143e+02 0.0 
0.0 0.0 -5.569836155261e+01 
-5.954357492731e+01 -2.880544636586e-01 0.0 
-2.880544636586e-01 -1.270156751357e+02 0.0 
0.0 0.0 -5.556777501890e+01 
-6.009592514292e+01 -2.482211516783e-01 0.0 
-2.482211516783e-01 -1.272090656781e+02 0.0 
0.0 0.0 -5.579149724629e+01 
-6.392201937670e+01 2.501752126282e+00 0.0 
2.501752126282e+00 -1.311223015041e+02 0.0 
0.0 0.0 -5.811329626424e+01 
-5.971957649384e+01 -2.987405793020e-01 0.0 
-2.987405793020e-01 -1.271402202316e+02 0.0 
0.0 0.0 -5.565793901763e+01 
-6.026948811305e+01 -1.696987109826e-01 0.0 
-1.696987109826e-01 -1.272615803996e+02 0.0 
0.0 0.0 -5.585932055379e+01 
-6.176507519029e+01 1.667972796592e+00 0.0 
1.667972796592e+00 -1.245720253748e+02 0.0 
0.0 0.0 -5.550113016952e+01 
-5.991220074341e+01 -2.548516971975e-01 0.0 
-2.548516971975e-01 -1.270808596144e+02 0.0 
0.0 0.0 -5.569791810736e+01 
-6.057025885855e+01 -1.988731685335e-01 0.0 
-1.988731685335e-01 -1.272804312793e+02 0.0 
0.0 0.0 -5.595520704135e+01 
-6.457117251418e+01 1.394959833022e+00 0.0 
1.394959833022e+00 -1.294812644624e+02 0.0 
0.0 0.0 -5.781573109297e+01 
-6.016084878675e+01 -2.394521743925e-01 0.0 
-2.394521743925e-01 -1.272126528232e+02 0.0 
0.0 0.0 -5.581205048297e+01 
-6.082318493869e+01 -1.661828675310e-01 0.0 
-1.661828675310e-01 -1.273839971741e+02 0.0 
0.0 0.0 -5.606215463384e+01 
-6.044903772446e+01 -1.604440768689e-01 0.0 
-1.604440768689e-01 -1.274113114373e+02 0.0 
0.0 0.0 -5.595810474852e+01 
-6.115795797535e+01 -2.749403085985e-02 0.0 
-2.749403085985e-02 -1.275230482252e+02 0.0 
0.0 0.0 -5.620430186018e+01 
-6.078565926080e+01 -1.447246470331e-02 0.0 
-1.447246470331e-02 -1.275479004441e+02 0.0 
0.0 0.0 -5.610006791146e+01 
-6.644975370725e+01 2.126974649371e+00 0.0 
2.126974649371e+00 -1.323421295682e+02 0.0 
0.0 0.0 -5.923756498263e+01 
-6.159319691885e+01 1.150544312545e-01 0.0 
1.150544312545e-01 -1.276692585601e+02 0.0 
0.0 0.0 -5.637873664368e+01 
-6.118698885964e+01 1.688914646373e-01 0.0 
1.688914646373e-01 -1.277599702703e+02 0.0 
0.0 0.0 -5.628408773899e+01 
-6.166374500131e+01 4.416999198746e-01 0.0 
4.416999198746e-01 -1.281069299911e+02 0.0 
0.0 0.0 -5.653120249774e+01 
-6.199125331284e+01 2.969410878954e-01 0.0 
2.969410878954e-01 -1.278530204492e+02 0.0 
0.0 0.0 -5.655328212860e+01 
-6.216967769921e+01 7.562198948923e-01 0.0 
7.562198948923e-01 -1.281136661531e+02 0.0 
0.0 0.0 -5.668500315570e+01 
-6.228232034744e+01 6.764969298768e-01 0.0 
6.764969298768e-01 -1.279818322287e+02 0.0 
0.0 0.0 -5.667924577285e+01 
-6.285455219220e+01 1.181070739300e+00 0.0 
1.181070739300e+00 -1.294061767616e+02 0.0 
0.0 0.0 -5.727821868615e+01 
-6.340722793666e+01 6.465209959097e-01 0.0 
6.465209959097e-01 -1.285803792945e+02 0.0 
0.0 0.0 -5.719628216934e+01 
-6.275361809067e+01 1.993870925240e+00 0.0 
1.993870925240e+00 -1.235082075696e+02 0.0 
0.0 0.0 -5.547854769807e+01 
-5.963709699493e+01 1.425355071541e+00 0.0 
1.425355071541e+00 -1.266132490830e+02 0.0 
0.0 0.0 -5.547510382339e+01 
-5.926368295095e+01 -1.512675019116e+00 0.0 
-1.512675019116e+00 -1.287778654016e+02 0.0 
0.0 0.0 -5.601246450577e+01 
-5.714683291182e+01 9.423073878946e-02 0.0 
9.423073878946e-02 -1.225669521375e+02 0.0 
0.0 0.0 -5.351413551481e+01 
-6.165416171243e+01 -2.418047684326e-01 0.0 
-2.418047684326e-01 -1.326298631574e+02 0.0 
0.0 0.0 -5.788520746095e+01 
-6.254797197635e+01 2.564382923466e+00 0.0 
2.564382923466e+00 -1.243798975439e+02 0.0 
0.0 0.0 -5.567836085606e+01 
-6.696135533168e+01 4.393266205357e-01 0.0 
4.393266205357e-01 -1.453636521713e+02 0.0 
0.0 0.0 -6.329750225091e+01 
-6.791435222335e+01 -1.723919393188e-02 0.0 
-1.723919393188e-02 -1.466403022956e+02 0.0 
0.0 0.0 -6.396639635569e+01 
-6.772824694276e+01 1.786004271497e-02 0.0 
1.786004271497e-02 -1.465669771467e+02 0.0 
0.0 0.0 -6.388856722683e+01 
-6.778109157878e+01 -1.485756630575e-02 0.0 
-1.485756630575e-02 -1.466663180047e+02 0.0 
0.0 0.0 -6.393422287504e+01 
-6.786777952579e+01 -5.203031292433e-02 0.0 
-5.203031292433e-02 -1.466935145399e+02 0.0 
0.0 0.0 -6.396838821971e+01 
-6.797002225868e+01 -1.052544715995e-01 0.0 
-1.052544715995e-01 -1.468411817167e+02 0.0 
0.0 0.0 -6.404336119263e+01 
-6.800810183705e+01 3.118611272490e-03 0.0 
3.118611272490e-03 -1.468937140203e+02 0.0 
0.0 0.0 -6.407054475722e+01 
-6.823442945059e+01 3.138177476199e-03 0.0 
3.138177476199e-03 -1.467953350756e+02 0.0 
0.0 0.0 -6.410892935787e+01 
-6.814022073103e+01 -6.139721133820e-02 0.0 
-6.139721133820e-02 -1.467292692611e+02 0.0 
0.0 0.0 -6.406084699763e+01 
-6.834480228335e+01 -1.267990959167e-01 0.0 
-1.267990959167e-01 -1.468742164992e+02 0.0 
0.0 0.0 -6.416570563475e+01 
-6.832869535690e+01 -2.785720350947e-02 0.0 
-2.785720350947e-02 -1.469182900269e+02 0.0 
0.0 0.0 -6.417409561513e+01 
-6.853623215159e+01 -4.224510487548e-02 0.0 
-4.224510487548e-02 -1.469055616966e+02 0.0 
0.0 0.0 -6.423253815444e+01 
-7.203788388594e+01 2.366482895458e+00 0.0 
2.366482895458e+00 -1.504425950972e+02 0.0 
0.0 0.0 -6.634414369495e+01 
-6.854733732552e+01 -1.036870928545e-02 0.0 
-1.036870928545e-02 -1.469290274375e+02 0.0 
0.0 0.0 -6.424290942889e+01 
-7.193671693040e+01 1.146536641654e+00 0.0 
1.146536641654e+00 -1.487390814348e+02 0.0 
0.0 0.0 -6.580273950956e+01 
-6.912695044390e+01 -1.138081102376e-01 0.0 
-1.138081102376e-01 -1.471097955157e+02 0.0 
0.0 0.0 -6.447102378788e+01 
-6.876089570488e+01 3.867948252297e-02 0.0 
3.867948252297e-02 -1.470748647805e+02 0.0 
0.0 0.0 -6.435072814562e+01 
-6.894733391778e+01 6.601484401695e-02 0.0 
6.601484401695e-02 -1.469729184069e+02 0.0 
0.0 0.0 -6.437607569739e+01 
-6.902767535280e+01 8.113622425792e-02 0.0 
8.113622425792e-02 -1.470144030992e+02 0.0 
0.0 0.0 -6.441262353560e+01 
-6.931562427121e+01 2.363463914873e-02 0.0 
2.363463914873e-02 -1.471363425522e+02 0.0 
0.0 0.0 -6.453559004701e+01 
-6.936467196348e+01 2.073969277688e-01 0.0 
2.073969277688e-01 -1.473141335653e+02 0.0 
0.0 0.0 -6.460364165863e+01 
-6.982461405402e+01 1.741894917835e-01 0.0 
1.741894917835e-01 -1.473773584549e+02 0.0 
0.0 0.0 -6.476059175268e+01 
-7.000155208257e+01 1.486326346432e+00 0.0 
1.486326346432e+00 -1.439671356349e+02 0.0 
0.0 0.0 -6.379060631525e+01 
-6.974581939657e+01 3.919585457315e-01 0.0 
3.919585457315e-01 -1.475613915414e+02 0.0 
0.0 0.0 -6.479216328140e+01 
-7.024443312799e+01 4.149853669537e-01 0.0 
4.149853669537e-01 -1.475155192300e+02 0.0 
0.0 0.0 -6.492798570741e+01 
-7.016241689803e+01 5.791922650926e-01 0.0 
5.791922650926e-01 -1.476641051782e+02 0.0 
0.0 0.0 -6.494795662286e+01 
-7.077236734944e+01 5.591930145043e-01 0.0 
5.591930145043e-01 -1.477406276216e+02 0.0 
0.0 0.0 -6.515389849132e+01 
-7.133299660568e+01 7.602752571192e-01 0.0 
7.602752571192e-01 -1.481227508060e+02 0.0 
0.0 0.0 -6.543672422351e+01 
-7.061457727355e+01 8.003142609701e-01 0.0 
8.003142609701e-01 -1.479741096908e+02 0.0 
0.0 0.0 -6.517660608931e+01 
-7.111112510129e+01 1.171417593272e+00 0.0 
1.171417593272e+00 -1.485823766544e+02 0.0 
0.0 0.0 -6.550805052671e+01 
-7.446988238590e+01 1.842018163364e+00 0.0 
1.842018163364e+00 -1.517769915825e+02 0.0 
0.0 0.0 -6.747406219052e+01 
-7.081724090215e+01 1.710252451942e+00 0.0 
1.710252451942e+00 -1.429838071788e+02 0.0 
0.0 0.0 -6.374031442430e+01 
-6.715798222377e+01 1.299371243159e+00 0.0 
1.299371243159e+00 -1.466551562904e+02 0.0 
0.0 0.0 -6.374394155427e+01 
-6.737653356622e+01 -1.584372039469e+00 0.0 
-1.584372039469e+00 -1.453711706263e+02 0.0 
0.0 0.0 -6.342431125775e+01 
-6.936932834466e+01 -8.069852439199e-02 0.0 
-8.069852439199e-02 -1.511692749334e+02 0.0 
0.0 0.0 -6.576158098341e+01 
-6.525761579713e+01 -2.603067707349e-01 0.0 
-2.603067707349e-01 -1.410379226884e+02 0.0 
0.0 0.0 -6.148866154565e+01 
-7.066408962423e+01 2.258057404953e+00 0.0 
2.258057404953e+00 -1.436980710525e+02 0.0 
0.0 0.0 -6.390864820302e+01 

TENSORS element_materi_strain_total float
-7.777193104378e-04 1.034636498410e-03 0.0 
1.034636498410e-03 4.123556833827e-03 0.0 
0.0 0.0 0.0 
-9.164560161653e-04 1.149111659424e-03 0.0 
1.149111659424e-03 4.217137257144e-03 0.0 
0.0 0.0 0.0 
-1.273547069980e-04 9.834886838252e-04 0.0 
9.834886838252e-04 9.051999872605e-03 0.0 
0.0 0.0 0.0 
-1.436152746100e-04 8.160283752253e-05 0.0 
8.160283752253e-05 9.653248823799e-03 0.0 
0.0 0.0 0.0 
-5.028527404140e-04 1.181608140562e-04 0.0 
1.181608140562e-04 6.938801027190e-03 0.0 
0.0 0.0 0.0 
1.159924062874e-03 2.856412805409e-03 0.0 
2.856412805409e-03 -3.409870633189e-03 0.0 
0.0 0.0 0.0 
-4.626256362709e-04 9.599477395565e-05 0.0 
9.599477395565e-05 6.947741438243e-03 0.0 
0.0 0.0 0.0 
-8.925821843869e-04 1.395714051618e-03 0.0 
1.395714051618e-03 3.853630363872e-03 0.0 
0.0 0.0 0.0 
-5.044837722378e-04 2.367640511980e-05 0.0 
2.367640511980e-05 6.955575643955e-03 0.0 
0.0 0.0 0.0 
-1.358394783652e-04 2.056945933132e-04 0.0 
2.056945933132e-04 9.613608364797e-03 0.0 
0.0 0.0 0.0 
-2.862418046740e-04 -8.402712391556e-05 0.0 
-8.402712391556e-05 4.993093773929e-03 0.0 
0.0 0.0 0.0 
-8.881072320175e-04 1.145667279546e-03 0.0 
1.145667279546e-03 3.901126243756e-03 0.0 
0.0 0.0 0.0 
-9.180449820811e-05 -3.173224412517e-05 0.0 
-3.173224412517e-05 7.175739945683e-03 0.0 
0.0 0.0 0.0 
-5.689470965944e-04 2.519094389353e-04 0.0 
2.519094389353e-04 7.241765616138e-03 0.0 
0.0 0.0 0.0 
-5.245706917156e-05 -1.072089134326e-04 0.0 
-1.072089134326e-04 7.309871530613e-03 0.0 
0.0 0.0 0.0 
-8.822139242426e-05 1.703076442751e-04 0.0 
1.703076442751e-04 9.794114984653e-03 0.0 
0.0 0.0 0.0 
-5.647426292087e-04 1.214316203316e-04 0.0 
1.214316203316e-04 6.834840160682e-03 0.0 
0.0 0.0 0.0 
1.478216981855e-03 1.450411175423e-03 0.0 
1.450411175423e-03 -3.763484401859e-03 0.0 
0.0 0.0 0.0 
1.476079239326e-05 -6.140276829626e-05 0.0 
-6.140276829626e-05 1.470377555818e-03 0.0 
0.0 0.0 0.0 
-9.909395926988e-05 -6.530901676106e-05 0.0 
-6.530901676106e-05 1.573788270739e-03 0.0 
0.0 0.0 0.0 
-1.627305078381e-04 1.519168256431e-04 0.0 
1.519168256431e-04 9.622848572173e-03 0.0 
0.0 0.0 0.0 
-7.798126260411e-04 7.713809691814e-04 0.0 
7.713809691814e-04 4.643223516287e-03 0.0 
0.0 0.0 0.0 
-8.368062863263e-04 8.598520557917e-04 0.0 
8.598520557917e-04 4.721742288015e-03 0.0 
0.0 0.0 0.0 
4.587176777207e-04 2.816126494508e-04 0.0 
2.816126494508e-04 6.021097246315e-03 0.0 
0.0 0.0 0.0 
-5.732709851999e-04 3.854695892968e-04 0.0 
3.854695892968e-04 7.531206825624e-03 0.0 
0.0 0.0 0.0 
-2.817569620759e-04 -1.264521672350e-04 0.0 
-1.264521672350e-04 5.206829963503e-03 0.0 
0.0 0.0 0.0 
-6.760023384329e-04 2.498317079880e-04 0.0 
2.498317079880e-04 6.402333422302e-03 0.0 
0.0 0.0 0.0 
7.398795128721e-05 1.308812718581e-03 0.0 
1.308812718581e-03 7.810689151212e-03 0.0 
0.0 0.0 0.0 
-6.433453686683e-04 3.583392909696e-04 0.0 
3.583392909696e-04 7.533669411974e-03 0.0 
0.0 0.0 0.0 
3.815867839991e-04 2.848409524201e-04 0.0 
2.848409524201e-04 6.281919269923e-03 0.0 
0.0 0.0 0.0 
9.879561168877e-04 -2.389872739748e-03 0.0 
-2.389872739748e-03 -2.219843184059e-03 0.0 
0.0 0.0 0.0 
1.742500941067e-04 -1.217342522355e-04 0.0 
-1.217342522355e-04 3.083597466302e-04 0.0 
0.0 0.0 0.0 
-2.243576218486e-04 1.013951008486e-03 0.0 
1.013951008486e-03 9.108603423837e-03 0.0 
0.0 0.0 0.0 
-2.065157662451e-04 -5.393646162476e-05 0.0 
-5.393646162476e-05 6.198371814942e-03 0.0 
0.0 0.0 0.0 
1.413923446152e-04 -1.280114649300e-04 0.0 
-1.280114649300e-04 6.683990966115e-03 0.0 
0.0 0.0 0.0 
-1.707431549491e-05 -9.881044925593e-05 0.0 
-9.881044925593e-05 7.345958529996e-03 0.0 
0.0 0.0 0.0 
6.369401120310e-06 -2.167883296565e-04 0.0 
-2.167883296565e-04 7.338660791312e-03 0.0 
0.0 0.0 0.0 
3.343335310122e-04 8.804513691840e-04 0.0 
8.804513691840e-04 6.701465502302e-03 0.0 
0.0 0.0 0.0 
-4.705496782224e-04 -2.689785814303e-05 0.0 
-2.689785814303e-05 6.541402539526e-03 0.0 
0.0 0.0 0.0 
-4.471234146757e-04 7.151000439935e-05 0.0 
7.151000439935e-05 6.557370541496e-03 0.0 
0.0 0.0 0.0 
-8.167952589520e-04 6.519158546358e-04 0.0 
6.519158546358e-04 5.289190637552e-03 0.0 
0.0 0.0 0.0 
1.386676275807e-04 2.446136466169e-05 0.0 
2.446136466169e-05 6.690438246966e-03 0.0 
0.0 0.0 0.0 
-8.520520290640e-04 1.562027907955e-03 0.0 
1.562027907955e-03 3.241800385306e-03 0.0 
0.0 0.0 0.0 
-6.832641236236e-04 2.599154133578e-04 0.0 
2.599154133578e-04 6.420230834311e-03 0.0 
0.0 0.0 0.0 
-1.950086877550e-04 2.424107240532e-05 0.0 
2.424107240532e-05 9.450164843140e-03 0.0 
0.0 0.0 0.0 
-1.133914749457e-03 1.945114430720e-03 0.0 
1.945114430720e-03 3.277280830103e-03 0.0 
0.0 0.0 0.0 
1.003959457082e-03 -2.293671760462e-03 0.0 
-2.293671760462e-03 -2.898253676018e-03 0.0 
0.0 0.0 0.0 
-1.288964802514e-04 6.876756540420e-05 0.0 
6.876756540420e-05 9.477763024306e-03 0.0 
0.0 0.0 0.0 
-2.912649165085e-04 -2.038887334960e-03 0.0 
-2.038887334960e-03 -1.236084729294e-03 0.0 
0.0 0.0 0.0 
-6.084784217953e-04 1.704922702736e-04 0.0 
1.704922702736e-04 7.083672705718e-03 0.0 
0.0 0.0 0.0 
-8.260184481402e-04 7.530954839632e-04 0.0 
7.530954839632e-04 5.003938533189e-03 0.0 
0.0 0.0 0.0 
-1.051607247231e-04 -6.290271822078e-05 0.0 
-6.290271822078e-05 1.925612821702e-03 0.0 
0.0 0.0 0.0 
1.754770687777e-03 -2.003130867433e-03 0.0 
-2.003130867433e-03 -2.772265710076e-03 0.0 
0.0 0.0 0.0 
-7.554792964406e-04 5.987265435234e-04 0.0 
5.987265435234e-04 5.103370605688e-03 0.0 
0.0 0.0 0.0 
-1.328958679662e-04 7.705850609274e-04 0.0 
7.705850609274e-04 9.387012095670e-03 0.0 
0.0 0.0 0.0 
-2.753993169710e-04 -1.767271870057e-04 0.0 
-1.767271870057e-04 2.581508943823e-03 0.0 
0.0 0.0 0.0 
-1.972485125191e-04 -7.038396372419e-05 0.0 
-7.038396372419e-05 2.017665200681e-03 0.0 
0.0 0.0 0.0 
-2.025395714832e-04 -3.016295840462e-05 0.0 
-3.016295840462e-05 6.199025498337e-03 0.0 
0.0 0.0 0.0 
1.023426539413e-04 -1.221651706246e-04 0.0 
-1.221651706246e-04 1.047480100797e-03 0.0 
0.0 0.0 0.0 
-1.007075194341e-04 1.199242354989e-04 0.0 
1.199242354989e-04 9.794832913049e-03 0.0 
0.0 0.0 0.0 
-4.491627526980e-04 -1.929669557917e-03 0.0 
-1.929669557917e-03 -3.649211597552e-03 0.0 
0.0 0.0 0.0 
2.822938469214e-04 1.174432153888e-03 0.0 
1.174432153888e-03 6.856514001785e-03 0.0 
0.0 0.0 0.0 
-4.720318136767e-04 1.605174993160e-03 0.0 
1.605174993160e-03 4.000244598219e-03 0.0 
0.0 0.0 0.0 
1.656047440054e-03 -2.012770398648e-03 0.0 
-2.012770398648e-03 -2.328331885381e-03 0.0 
0.0 0.0 0.0 
-7.185602272763e-05 -1.351938052000e-04 0.0 
-1.351938052000e-04 7.110738016539e-03 0.0 
0.0 0.0 0.0 
-7.772975819605e-04 6.705120275265e-04 0.0 
6.705120275265e-04 4.875044980116e-03 0.0 
0.0 0.0 0.0 
6.166887509924e-04 -7.561577228496e-04 0.0 
-7.561577228496e-04 -5.025142893576e-03 0.0 
0.0 0.0 0.0 
-2.298358661507e-04 1.054036522292e-03 0.0 
1.054036522292e-03 9.007829946804e-03 0.0 
0.0 0.0 0.0 
-4.743800528412e-04 -1.318927503094e-03 0.0 
-1.318927503094e-03 8.327483875219e-04 0.0 
0.0 0.0 0.0 
-6.044922734161e-05 1.199161989001e-03 0.0 
1.199161989001e-03 8.490398929839e-03 0.0 
0.0 0.0 0.0 
-2.398258213080e-04 -1.739340139210e-04 0.0 
-1.739340139210e-04 5.376268273067e-03 0.0 
0.0 0.0 0.0 
0.0 5.191136833136e-04 0.0 
5.191136833136e-04 9.896506218621e-03 0.0 
0.0 0.0 0.0 
6.036936391585e-05 1.200772387252e-03 0.0 
1.200772387252e-03 7.492565970356e-03 0.0 
0.0 0.0 0.0 
3.740791245004e-04 -4.193934394804e-06 0.0 
-4.193934394804e-06 3.386622161785e-04 0.0 
0.0 0.0 0.0 
-3.203514655941e-04 -1.558025158694e-04 0.0 
-1.558025158694e-04 2.710097841286e-03 0.0 
0.0 0.0 0.0 
-1.790633904306e-04 3.670895173876e-04 0.0 
3.670895173876e-04 9.611325741272e-03 0.0 
0.0 0.0 0.0 
-2.364573242584e-04 8.358284512458e-04 0.0 
8.358284512458e-04 9.346182940367e-03 0.0 
0.0 0.0 0.0 
-9.902850052176e-04 2.592380522534e-03 0.0 
2.592380522534e-03 2.236161642649e-03 0.0 
0.0 0.0 0.0 
-4.468306624128e-05 -1.231927267167e-04 0.0 
-1.231927267167e-04 1.126650362869e-03 0.0 
0.0 0.0 0.0 
-7.630146291463e-04 2.127720103981e-03 0.0 
2.127720103981e-03 2.216368309020e-03 0.0 
0.0 0.0 0.0 
-6.442826724465e-04 -1.582803564658e-03 0.0 
-1.582803564658e-03 8.743925293950e-04 0.0 
0.0 0.0 0.0 
-5.403340502840e-04 1.087223115320e-04 0.0 
1.087223115320e-04 6.841444998349e-03 0.0 
0.0 0.0 0.0 
-8.613804097969e-04 9.876486295209e-04 0.0 
9.876486295209e-04 4.452980822013e-03 0.0 
0.0 0.0 0.0 
-8.063286714016e-04 8.344547719549e-04 0.0 
8.344547719549e-04 4.363088066922e-03 0.0 
0.0 0.0 0.0 
-5.269148041224e-04 6.166856812508e-05 0.0 
6.166856812508e-05 7.169677208964e-03 0.0 
0.0 0.0 0.0 
-4.765908613695e-04 1.189839670852e-04 0.0 
1.189839670852e-04 7.169093012290e-03 0.0 
0.0 0.0 0.0 
-2.496683358046e-04 -1.124623087575e-04 0.0 
-1.124623087575e-04 5.586504972840e-03 0.0 
0.0 0.0 0.0 
-2.267713773559e-04 1.174311923293e-05 0.0 
1.174311923293e-05 6.041052441225e-03 0.0 
0.0 0.0 0.0 
-4.533938316226e-04 8.970310762495e-04 0.0 
8.970310762495e-04 8.019622865083e-03 0.0 
0.0 0.0 0.0 
-5.418852043323e-04 5.306096584971e-05 0.0 
5.306096584971e-05 6.924799387451e-03 0.0 
0.0 0.0 0.0 
-2.543065901472e-04 -1.797750418417e-04 0.0 
-1.797750418417e-04 4.975012537543e-04 0.0 
0.0 0.0 0.0 
-6.719970220095e-04 2.959862622490e-04 0.0 
2.959862622490e-04 6.789527966513e-03 0.0 
0.0 0.0 0.0 
-3.027331587867e-04 3.138336869756e-05 0.0 
3.138336869756e-05 8.554467512369e-03 0.0 
0.0 0.0 0.0 
-3.347525099990e-04 8.087506601012e-05 0.0 
8.087506601012e-05 8.484289228732e-03 0.0 
0.0 0.0 0.0 
-1.197892896433e-04 5.677290427923e-04 0.0 
5.677290427923e-04 9.880233510747e-03 0.0 
0.0 0.0 0.0 
1.765701828007e-04 9.254048877501e-04 0.0 
9.254048877501e-04 7.111536617275e-03 0.0 
0.0 0.0 0.0 
-5.802903981880e-04 1.124134893769e-04 0.0 
1.124134893769e-04 6.829852683333e-03 0.0 
0.0 0.0 0.0 
2.010008943036e-04 -3.232971194802e-05 0.0 
-3.232971194802e-05 6.737146136545e-03 0.0 
0.0 0.0 0.0 
-3.931147803292e-04 -8.829942246972e-06 0.0 
-8.829942246972e-06 7.571961816632e-03 0.0 
0.0 0.0 0.0 
-6.763665622709e-04 1.553395884599e-03 0.0 
1.553395884599e-03 4.228191136596e-03 0.0 
0.0 0.0 0.0 
-5.222569197106e-04 3.993235276930e-05 0.0 
3.993235276930e-05 6.743058366986e-03 0.0 
0.0 0.0 0.0 
-6.202696812341e-05 -6.217587777129e-05 0.0 
-6.217587777129e-05 7.307065328350e-03 0.0 
0.0 0.0 0.0 
5.942340293370e-04 1.055041942370e-03 0.0 
1.055041942370e-03 5.464806555252e-03 0.0 
0.0 0.0 0.0 
2.688276694509e-04 1.092402414074e-03 0.0 
1.092402414074e-03 6.869645576260e-03 0.0 
0.0 0.0 0.0 
-1.450611981597e-04 2.257190552853e-03 0.0 
2.257190552853e-03 2.920184193953e-03 0.0 
0.0 0.0 0.0 
-3.166436224510e-04 -2.844443289071e-03 0.0 
-2.844443289071e-03 -1.437138633164e-03 0.0 
0.0 0.0 0.0 
-1.419074506290e-04 -8.589360825350e-05 0.0 
-8.589360825350e-05 6.766800152661e-03 0.0 
0.0 0.0 0.0 
-2.929628618381e-04 8.554716643581e-05 0.0 
8.554716643581e-05 8.853519727283e-03 0.0 
0.0 0.0 0.0 
-7.753026188840e-04 -2.976293768403e-03 0.0 
-2.976293768403e-03 -2.214714510493e-03 0.0 
0.0 0.0 0.0 
-6.461624646237e-06 -1.483342120002e-04 0.0 
-1.483342120002e-04 7.144987969033e-03 0.0 
0.0 0.0 0.0 
-4.116654926970e-04 9.249268946429e-04 0.0 
9.249268946429e-04 7.701891064323e-03 0.0 
0.0 0.0 0.0 
5.110091639275e-04 1.929371376040e-05 0.0 
1.929371376040e-05 1.136129316157e-04 0.0 
0.0 0.0 0.0 
3.510090677159e-04 1.906784715670e-03 0.0 
1.906784715670e-03 2.982135926733e-03 0.0 
0.0 0.0 0.0 
-7.591591664462e-04 4.114342372237e-04 0.0 
4.114342372237e-04 6.266440218487e-03 0.0 
0.0 0.0 0.0 
-3.364543152814e-04 -2.872367678828e-04 0.0 
-2.872367678828e-04 3.235295106872e-03 0.0 
0.0 0.0 0.0 
-6.218057152181e-04 1.552138182273e-03 0.0 
1.552138182273e-03 3.849873786872e-03 0.0 
0.0 0.0 0.0 
-4.399292366630e-04 1.747760895901e-03 0.0 
1.747760895901e-03 3.989515503654e-03 0.0 
0.0 0.0 0.0 
6.417043431739e-05 -9.081813281011e-05 0.0 
-9.081813281011e-05 6.919383261835e-03 0.0 
0.0 0.0 0.0 
-4.016704597992e-04 4.797226338623e-05 0.0 
4.797226338623e-05 7.436470203166e-03 0.0 
0.0 0.0 0.0 
-3.950943611096e-04 1.855602151205e-03 0.0 
1.855602151205e-03 3.504502520675e-03 0.0 
0.0 0.0 0.0 
-3.691105980294e-04 -7.241030662435e-04 0.0 
-7.241030662435e-04 1.127994721161e-03 0.0 
0.0 0.0 0.0 
-6.733993700244e-04 3.461458039220e-04 0.0 
3.461458039220e-04 6.708215205820e-03 0.0 
0.0 0.0 0.0 
-2.392986508140e-04 4.482415997888e-05 0.0 
4.482415997888e-05 8.884061040220e-03 0.0 
0.0 0.0 0.0 
-3.226633440586e-04 1.981956855035e-03 0.0 
1.981956855035e-03 3.498390732462e-03 0.0 
0.0 0.0 0.0 
-6.655673467139e-04 2.957451549552e-03 0.0 
2.957451549552e-03 4.026308604983e-04 0.0 
0.0 0.0 0.0 
-7.903892449933e-04 5.053535008592e-04 0.0 
5.053535008592e-04 5.775246611343e-03 0.0 
0.0 0.0 0.0 
-3.443363383089e-04 -2.596368287880e-04 0.0 
-2.596368287880e-04 3.198545659219e-03 0.0 
0.0 0.0 0.0 
-7.312724427087e-04 4.785344552516e-04 0.0 
4.785344552516e-04 5.569432598958e-03 0.0 
0.0 0.0 0.0 
-9.956345152351e-05 4.640566071881e-04 0.0 
4.640566071881e-04 9.720265151745e-03 0.0 
0.0 0.0 0.0 
2.134266599683e-04 3.205380758731e-03 0.0 
3.205380758731e-03 -9.414292376235e-04 0.0 
0.0 0.0 0.0 
-2.491004073814e-04 -1.275946003638e-04 0.0 
-1.275946003638e-04 5.205445538637e-03 0.0 
0.0 0.0 0.0 
-1.320403018661e-04 1.320268386314e-04 0.0 
1.320268386314e-04 9.654746580947e-03 0.0 
0.0 0.0 0.0 
-6.202574394888e-04 1.089300667572e-03 0.0 
1.089300667572e-03 5.202977691814e-03 0.0 
0.0 0.0 0.0 
-8.042394585053e-04 5.649433141505e-04 0.0 
5.649433141505e-04 5.536132283969e-03 0.0 
0.0 0.0 0.0 
1.683146255307e-04 -4.536194648990e-05 0.0 
-4.536194648990e-05 6.685649205173e-03 0.0 
0.0 0.0 0.0 
-9.234400124281e-05 -9.137414630723e-05 0.0 
-9.137414630723e-05 7.187126662548e-03 0.0 
0.0 0.0 0.0 
-2.260007744301e-04 -9.992282948700e-05 0.0 
-9.992282948700e-05 5.586840204380e-03 0.0 
0.0 0.0 0.0 
-6.623552699132e-04 1.060148982304e-03 0.0 
1.060148982304e-03 5.532298100082e-03 0.0 
0.0 0.0 0.0 
3.227693389818e-04 2.276686993742e-04 0.0 
2.276686993742e-04 6.635076835966e-03 0.0 
0.0 0.0 0.0 
-6.973257918654e-04 9.081202103923e-04 0.0 
9.081202103923e-04 5.279607615517e-03 0.0 
0.0 0.0 0.0 
-8.878418784430e-05 2.982600858867e-04 0.0 
2.982600858867e-04 9.705512945317e-03 0.0 
0.0 0.0 0.0 
-1.124048076053e-04 1.261646853134e-03 0.0 
1.261646853134e-03 8.568915287435e-03 0.0 
0.0 0.0 0.0 
-6.234916207737e-04 2.109100610497e-04 0.0 
2.109100610497e-04 7.234151071323e-03 0.0 
0.0 0.0 0.0 
-3.727469969181e-04 1.166611757384e-04 0.0 
1.166611757384e-04 8.068494349794e-03 0.0 
0.0 0.0 0.0 
-7.422079214364e-04 1.021331602812e-03 0.0 
1.021331602812e-03 5.274869655026e-03 0.0 
0.0 0.0 0.0 
-7.437610936559e-04 5.285300741889e-04 0.0 
5.285300741889e-04 5.324829387961e-03 0.0 
0.0 0.0 0.0 
-5.434051516323e-04 1.123612529288e-03 0.0 
1.123612529288e-03 5.456636939237e-03 0.0 
0.0 0.0 0.0 
6.864882808766e-05 2.120714116490e-03 0.0 
2.120714116490e-03 3.101591474311e-03 0.0 
0.0 0.0 0.0 
-4.838702879604e-04 1.547070892095e-05 0.0 
1.547070892095e-05 6.801281968802e-03 0.0 
0.0 0.0 0.0 
5.601940622617e-04 1.873313885094e-03 0.0 
1.873313885094e-03 2.985453269179e-03 0.0 
0.0 0.0 0.0 
-2.509126763761e-05 -6.680806796137e-05 0.0 
-6.680806796137e-05 4.071024186016e-04 0.0 
0.0 0.0 0.0 
-4.267027050284e-04 1.266080828505e-05 0.0 
1.266080828505e-05 7.114982150546e-03 0.0 
0.0 0.0 0.0 
1.574142507832e-05 -5.009494842119e-05 0.0 
-5.009494842119e-05 1.134254634120e-03 0.0 
0.0 0.0 0.0 
-7.748609077303e-04 4.552920157408e-04 0.0 
4.552920157408e-04 6.019293484405e-03 0.0 
0.0 0.0 0.0 
1.805120909841e-04 1.805091387100e-04 0.0 
1.805091387100e-04 6.626421396138e-03 0.0 
0.0 0.0 0.0 
-2.781973024579e-04 2.126943630871e-03 0.0 
2.126943630871e-03 2.929990127268e-03 0.0 
0.0 0.0 0.0 
-2.347807304842e-04 -3.900057905488e-05 0.0 
-3.900057905488e-05 5.814393889377e-03 0.0 
0.0 0.0 0.0 
-1.057345745720e-03 1.613786823704e-03 0.0 
1.613786823704e-03 3.607542221187e-03 0.0 
0.0 0.0 0.0 
5.417255178803e-04 1.164446828761e-03 0.0 
1.164446828761e-03 5.455022560054e-03 0.0 
0.0 0.0 0.0 
-4.408132389299e-04 2.100493705679e-05 0.0 
2.100493705679e-05 6.836340485653e-03 0.0 
0.0 0.0 0.0 
5.930045100959e-04 2.036141093953e-03 0.0 
2.036141093953e-03 2.263537654639e-03 0.0 
0.0 0.0 0.0 
-1.832181982540e-04 -9.565953421200e-05 0.0 
-9.565953421200e-05 6.366604066170e-03 0.0 
0.0 0.0 0.0 
-6.893671780972e-04 -9.202307853056e-04 0.0 
-9.202307853056e-04 1.167911038794e-03 0.0 
0.0 0.0 0.0 
-1.317839663952e-04 -4.076711950811e-05 0.0 
-4.076711950811e-05 6.762003183091e-03 0.0 
0.0 0.0 0.0 
-6.887790154081e-04 6.008642401915e-04 0.0 
6.008642401915e-04 6.413070767502e-03 0.0 
0.0 0.0 0.0 
-5.135646321031e-05 -1.448231881645e-04 0.0 
-1.448231881645e-04 7.158601373944e-03 0.0 
0.0 0.0 0.0 
-4.259947593072e-04 1.168835568250e-05 0.0 
1.168835568250e-05 6.809773653081e-03 0.0 
0.0 0.0 0.0 
8.836609230323e-05 2.226024281692e-03 0.0 
2.226024281692e-03 2.410905374243e-03 0.0 
0.0 0.0 0.0 
-7.074938437533e-04 4.010531144732e-04 0.0 
4.010531144732e-04 6.037748167190e-03 0.0 
0.0 0.0 0.0 
-3.180513613955e-04 -8.458275895356e-05 0.0 
-8.458275895356e-05 4.996725817370e-03 0.0 
0.0 0.0 0.0 
-8.359094591900e-04 1.336564886981e-03 0.0 
1.336564886981e-03 3.525734736851e-03 0.0 
0.0 0.0 0.0 
8.518578389489e-04 1.926452302308e-03 0.0 
1.926452302308e-03 2.277217465942e-03 0.0 
0.0 0.0 0.0 
-3.685222828299e-04 4.916339769435e-05 0.0 
4.916339769435e-05 8.281989298476e-03 0.0 
0.0 0.0 0.0 
-4.486043090119e-04 4.565534076090e-05 0.0 
4.565534076090e-05 6.809108147763e-03 0.0 
0.0 0.0 0.0 
2.379644801425e-04 2.064993487342e-03 0.0 
2.064993487342e-03 2.659048874637e-03 0.0 
0.0 0.0 0.0 
-7.260558140688e-04 4.325083450821e-04 0.0 
4.325083450821e-04 5.801404102284e-03 0.0 
0.0 0.0 0.0 
-1.918860514941e-04 1.141311273595e-03 0.0 
1.141311273595e-03 7.713536520444e-03 0.0 
0.0 0.0 0.0 
-3.370642581858e-04 -3.068785227209e-04 0.0 
-3.068785227209e-04 3.512754641541e-03 0.0 
0.0 0.0 0.0 
7.114328065372e-05 1.229454707063e-03 0.0 
1.229454707063e-03 7.709051981290e-03 0.0 
0.0 0.0 0.0 
-9.901731482820e-05 1.281541304818e-03 0.0 
1.281541304818e-03 8.412596047240e-03 0.0 
0.0 0.0 0.0 
-8.283946532973e-04 1.506712012038e-03 0.0 
1.506712012038e-03 4.087096053052e-03 0.0 
0.0 0.0 0.0 
-3.418389670266e-04 -2.381374441094e-04 0.0 
-2.381374441094e-04 3.601261871215e-03 0.0 
0.0 0.0 0.0 
6.436174845317e-04 4.261408258994e-04 0.0 
4.261408258994e-04 5.571678045424e-03 0.0 
0.0 0.0 0.0 
-8.004331368235e-04 8.373725026019e-04 0.0 
8.373725026019e-04 5.307908709117e-03 0.0 
0.0 0.0 0.0 
-7.652366004700e-04 1.418571874513e-03 0.0 
1.418571874513e-03 3.774596145459e-03 0.0 
0.0 0.0 0.0 
-6.995478707301e-04 4.855807622730e-04 0.0 
4.855807622730e-04 6.350866597019e-03 0.0 
0.0 0.0 0.0 
2.180074398828e-04 1.957859049434e-03 0.0 
1.957859049434e-03 3.341040495751e-03 0.0 
0.0 0.0 0.0 
-9.011858931807e-05 2.339005247087e-04 0.0 
2.339005247087e-04 9.715230658434e-03 0.0 
0.0 0.0 0.0 
-4.487203548694e-04 8.100221220096e-04 0.0 
8.100221220096e-04 7.983721032541e-03 0.0 
0.0 0.0 0.0 
-1.649732518434e-04 -1.325510035879e-05 0.0 
-1.325510035879e-05 6.590220026723e-03 0.0 
0.0 0.0 0.0 
-1.118503712010e-03 2.268602811354e-03 0.0 
2.268602811354e-03 2.827523744357e-03 0.0 
0.0 0.0 0.0 
1.187070255668e-03 1.909702910399e-03 0.0 
1.909702910399e-03 1.502162762473e-03 0.0 
0.0 0.0 0.0 
-3.922126578089e-04 8.991664037139e-04 0.0 
8.991664037139e-04 8.018070349462e-03 0.0 
0.0 0.0 0.0 
-2.349034100734e-03 2.159994467668e-03 0.0 
2.159994467668e-03 -2.660436508630e-03 0.0 
0.0 0.0 0.0 
-7.364937097158e-04 7.238250031506e-04 0.0 
7.238250031506e-04 5.310069089117e-03 0.0 
0.0 0.0 0.0 
7.468050591020e-04 1.304855471671e-04 0.0 
1.304855471671e-04 4.941507457275e-03 0.0 
0.0 0.0 0.0 
2.257406851016e-04 -1.021613120366e-04 0.0 
-1.021613120366e-04 6.773829364184e-04 0.0 
0.0 0.0 0.0 
-1.882656812551e-04 9.107538374536e-04 0.0 
9.107538374536e-04 9.171256486675e-03 0.0 
0.0 0.0 0.0 
-5.527888703735e-04 5.475849271061e-04 0.0 
5.475849271061e-04 7.778175715172e-03 0.0 
0.0 0.0 0.0 
3.888956647637e-04 -1.126785020435e-03 0.0 
-1.126785020435e-03 2.297666316044e-03 0.0 
0.0 0.0 0.0 
8.139018025570e-04 2.772368390102e-04 0.0 
2.772368390102e-04 4.931451638275e-03 0.0 
0.0 0.0 0.0 
-6.776336805512e-04 3.654089490882e-04 0.0 
3.654089490882e-04 7.044774919339e-03 0.0 
0.0 0.0 0.0 
-6.349037084801e-04 3.038622225347e-04 0.0 
3.038622225347e-04 7.423644266752e-03 0.0 
0.0 0.0 0.0 
3.371344258536e-04 2.067964313221e-04 0.0 
2.067964313221e-04 6.262285738200e-03 0.0 
0.0 0.0 0.0 
-2.106365114752e-04 -1.079133387926e-03 0.0 
-1.079133387926e-03 2.121581241427e-03 0.0 
0.0 0.0 0.0 
-4.131135961072e-04 1.261164961393e-03 0.0 
1.261164961393e-03 5.329229437476e-03 0.0 
0.0 0.0 0.0 
-6.583890828331e-04 7.197045479392e-04 0.0 
7.197045479392e-04 6.451358303591e-03 0.0 
0.0 0.0 0.0 
-5.839957974252e-04 5.162046869977e-04 0.0 
5.162046869977e-04 8.029888876456e-03 0.0 
0.0 0.0 0.0 
-7.340274689120e-04 5.833891918333e-04 0.0 
5.833891918333e-04 6.676859576483e-03 0.0 
0.0 0.0 0.0 
-7.623582514447e-04 5.223197844895e-04 0.0 
5.223197844895e-04 6.351075717699e-03 0.0 
0.0 0.0 0.0 
8.477532846707e-04 1.041611386905e-03 0.0 
1.041611386905e-03 4.468472099367e-03 0.0 
0.0 0.0 0.0 
-2.994198349175e-04 1.060262776758e-03 0.0 
1.060262776758e-03 7.714458095500e-03 0.0 
0.0 0.0 0.0 
-4.876086113574e-04 2.028945265649e-03 0.0 
2.028945265649e-03 -3.381200873297e-03 0.0 
0.0 0.0 0.0 
-7.415589955292e-04 1.296031192434e-03 0.0 
1.296031192434e-03 4.060980011126e-03 0.0 
0.0 0.0 0.0 
-6.432271012551e-04 1.359739027047e-03 0.0 
1.359739027047e-03 4.259528216529e-03 0.0 
0.0 0.0 0.0 
-5.347665921187e-04 1.210074901276e-03 0.0 
1.210074901276e-03 5.444837459732e-03 0.0 
0.0 0.0 0.0 
-4.841335198903e-04 7.754544745218e-04 0.0 
7.754544745218e-04 8.273283275496e-03 0.0 
0.0 0.0 0.0 
2.015013179059e-03 2.371957907523e-03 0.0 
2.371957907523e-03 -3.429380352125e-03 0.0 
0.0 0.0 0.0 
7.574791336873e-04 -1.665750365411e-05 0.0 
-1.665750365411e-05 4.668605197949e-03 0.0 
0.0 0.0 0.0 
-4.610470422861e-04 -9.428081574293e-06 0.0 
-9.428081574293e-06 6.781114147262e-03 0.0 
0.0 0.0 0.0 
8.873435427761e-04 2.105282439438e-03 0.0 
2.105282439438e-03 1.476108227978e-03 0.0 
0.0 0.0 0.0 
7.338373208399e-04 -1.642244292448e-04 0.0 
-1.642244292448e-04 4.441372569746e-03 0.0 
0.0 0.0 0.0 
1.901341117232e-04 -5.472770746186e-05 0.0 
-5.472770746186e-05 4.096908068718e-04 0.0 
0.0 0.0 0.0 
-4.912548931114e-04 6.163177238569e-04 0.0 
6.163177238569e-04 8.124186751532e-03 0.0 
0.0 0.0 0.0 
3.586275115426e-04 -9.110635620106e-05 0.0 
-9.110635620106e-05 2.183009891297e-04 0.0 
0.0 0.0 0.0 
5.817895461435e-05 -7.561514770088e-05 0.0 
-7.561514770088e-05 7.445128869339e-04 0.0 
0.0 0.0 0.0 
-8.079570814183e-04 1.832214437967e-03 0.0 
1.832214437967e-03 2.805247115847e-03 0.0 
0.0 0.0 0.0 
-3.548270896917e-04 -1.060916557282e-03 0.0 
-1.060916557282e-03 1.871541623357e-03 0.0 
0.0 0.0 0.0 
-5.166604659773e-04 5.787723573251e-04 0.0 
5.787723573251e-04 8.376931810414e-03 0.0 
0.0 0.0 0.0 
-3.537381200136e-04 -1.161607839087e-03 0.0 
-1.161607839087e-03 1.605397357629e-03 0.0 
0.0 0.0 0.0 
-9.791244155077e-05 2.807579898458e-03 0.0 
2.807579898458e-03 1.260068401556e-03 0.0 
0.0 0.0 0.0 
5.004482409448e-04 -2.500044440106e-03 0.0 
-2.500044440106e-03 -1.105259871097e-03 0.0 
0.0 0.0 0.0 
-6.059397553652e-04 -7.990788576330e-04 0.0 
-7.990788576330e-04 1.346250207093e-03 0.0 
0.0 0.0 0.0 
7.528628080389e-04 4.061758530521e-04 0.0 
4.061758530521e-04 5.221219334024e-03 0.0 
0.0 0.0 0.0 
-7.451068631665e-04 6.398095045565e-04 0.0 
6.398095045565e-04 6.411579651859e-03 0.0 
0.0 0.0 0.0 
-6.785382593211e-05 -8.214505803505e-05 0.0 
-8.214505803505e-05 7.113658728913e-03 0.0 
0.0 0.0 0.0 
-4.413778458692e-04 8.599603747973e-04 0.0 
8.599603747973e-04 -4.704425232206e-03 0.0 
0.0 0.0 0.0 
1.348771260514e-04 2.694820413920e-03 0.0 
2.694820413920e-03 1.359930383709e-03 0.0 
0.0 0.0 0.0 
9.213548988967e-04 1.866639516216e-03 0.0 
1.866639516216e-03 1.961928161107e-03 0.0 
0.0 0.0 0.0 
-7.352146942816e-04 8.232362449598e-04 0.0 
8.232362449598e-04 5.021454170023e-03 0.0 
0.0 0.0 0.0 
8.440627382529e-04 1.250457497404e-04 0.0 
1.250457497404e-04 4.658782182940e-03 0.0 
0.0 0.0 0.0 
-2.538854761924e-05 -1.245810460387e-04 0.0 
-1.245810460387e-04 7.158988914859e-03 0.0 
0.0 0.0 0.0 
-5.597339146503e-04 7.163987369325e-04 0.0 
7.163987369325e-04 7.936538080730e-03 0.0 
0.0 0.0 0.0 
1.574782521609e-03 2.065819346330e-03 0.0 
2.065819346330e-03 1.009960379088e-04 0.0 
0.0 0.0 0.0 
7.024638363631e-04 2.846342783044e-04 0.0 
2.846342783044e-04 5.222056174149e-03 0.0 
0.0 0.0 0.0 
-2.670995841012e-04 -4.673053569884e-05 0.0 
-4.673053569884e-05 5.413543929940e-03 0.0 
0.0 0.0 0.0 
-5.808291982283e-04 1.083974334407e-03 0.0 
1.083974334407e-03 5.798906846928e-03 0.0 
0.0 0.0 0.0 
-5.281584287489e-04 6.330156164107e-04 0.0 
6.330156164107e-04 7.862123576963e-03 0.0 
0.0 0.0 0.0 
1.466011790641e-04 1.148123635675e-03 0.0 
1.148123635675e-03 7.245617074833e-03 0.0 
0.0 0.0 0.0 
1.171180209706e-03 1.681776195109e-03 0.0 
1.681776195109e-03 1.987748303555e-03 0.0 
0.0 0.0 0.0 
-1.902855799374e-04 2.713078145041e-03 0.0 
2.713078145041e-03 2.116915937709e-03 0.0 
0.0 0.0 0.0 
-6.913630241021e-04 6.432720089221e-04 0.0 
6.432720089221e-04 7.001692172727e-03 0.0 
0.0 0.0 0.0 
-9.203481477038e-05 5.263439713331e-04 0.0 
5.263439713331e-04 9.922417750600e-03 0.0 
0.0 0.0 0.0 
-3.703013806290e-04 1.327631294128e-03 0.0 
1.327631294128e-03 5.320683333469e-03 0.0 
0.0 0.0 0.0 
1.225351972674e-03 1.107350092902e-03 0.0 
1.107350092902e-03 2.887882082651e-03 0.0 
0.0 0.0 0.0 
-4.420334496428e-04 2.866653773898e-05 0.0 
2.866653773898e-05 7.195878514825e-03 0.0 
0.0 0.0 0.0 
-5.185770363643e-04 -1.710671089624e-03 0.0 
-1.710671089624e-03 4.255542084068e-04 0.0 
0.0 0.0 0.0 
-6.751511866498e-04 5.552292677957e-04 0.0 
5.552292677957e-04 6.680937501933e-03 0.0 
0.0 0.0 0.0 
1.200432405174e-03 2.387377761985e-03 0.0 
2.387377761985e-03 5.462089048969e-05 0.0 
0.0 0.0 0.0 
2.114104599519e-03 2.218975582374e-03 0.0 
2.218975582374e-03 -2.901934530264e-03 0.0 
0.0 0.0 0.0 
1.698450245772e-03 -2.181509807716e-03 0.0 
-2.181509807716e-03 -3.531227260562e-03 0.0 
0.0 0.0 0.0 
-4.486025627133e-04 5.985282678022e-04 0.0 
5.985282678022e-04 8.374105166882e-03 0.0 
0.0 0.0 0.0 
-7.003813104832e-04 6.979413475959e-04 0.0 
6.979413475959e-04 6.726769302558e-03 0.0 
0.0 0.0 0.0 
-1.069378398626e-04 2.002140769759e-03 0.0 
2.002140769759e-03 3.121791008642e-03 0.0 
0.0 0.0 0.0 
-4.670708589077e-04 5.560757586414e-04 0.0 
5.560757586414e-04 8.620784448710e-03 0.0 
0.0 0.0 0.0 
-5.105251686195e-04 8.051203641419e-04 0.0 
8.051203641419e-04 7.985358666375e-03 0.0 
0.0 0.0 0.0 
-6.138413524761e-04 9.774102996435e-04 0.0 
9.774102996435e-04 6.130693347447e-03 0.0 
0.0 0.0 0.0 
2.450231716744e-05 -1.250636738533e-04 0.0 
-1.250636738533e-04 7.044281035043e-03 0.0 
0.0 0.0 0.0 
1.203959570008e-03 1.080872108407e-03 0.0 
1.080872108407e-03 2.856581526666e-03 0.0 
0.0 0.0 0.0 
-6.353592964223e-04 8.866380741150e-04 0.0 
8.866380741150e-04 6.449130318331e-03 0.0 
0.0 0.0 0.0 
3.245721878817e-04 1.784345464502e-03 0.0 
1.784345464502e-03 3.634272018819e-03 0.0 
0.0 0.0 0.0 
1.123146074470e-03 1.014949567521e-03 0.0 
1.014949567521e-03 3.428565009270e-03 0.0 
0.0 0.0 0.0 
2.079977367826e-03 1.974952020843e-03 0.0 
1.974952020843e-03 -2.109856343928e-03 0.0 
0.0 0.0 0.0 
-6.510125723970e-04 2.405474064225e-04 0.0 
2.405474064225e-04 6.789986630356e-03 0.0 
0.0 0.0 0.0 
1.411096600536e-03 1.375264469388e-03 0.0 
1.375264469388e-03 1.786885239950e-03 0.0 
0.0 0.0 0.0 
2.038079719917e-03 -8.165161872834e-04 0.0 
-8.165161872834e-04 -1.206464415806e-03 0.0 
0.0 0.0 0.0 
-4.940252906522e-04 7.221713491323e-04 0.0 
7.221713491323e-04 7.934854707867e-03 0.0 
0.0 0.0 0.0 
-3.564379636258e-03 3.304628998602e-04 0.0 
3.304628998602e-04 -3.247857861977e-03 0.0 
0.0 0.0 0.0 
-7.185065474324e-04 5.377126062788e-04 0.0 
5.377126062788e-04 6.935474460614e-03 0.0 
0.0 0.0 0.0 
1.616174283219e-03 1.956264937357e-03 0.0 
1.956264937357e-03 -3.126671360465e-04 0.0 
0.0 0.0 0.0 
4.588567587591e-04 2.727491074204e-03 0.0 
2.727491074204e-03 1.353827516771e-03 0.0 
0.0 0.0 0.0 
2.404197967245e-03 1.284781676722e-03 0.0 
1.284781676722e-03 -1.995070880493e-03 0.0 
0.0 0.0 0.0 
-6.005190989055e-04 7.266876137845e-04 0.0 
7.266876137845e-04 7.047597747786e-03 0.0 
0.0 0.0 0.0 
-1.736176545939e-04 -4.289146719440e-04 0.0 
-4.289146719440e-04 7.313713115364e-04 0.0 
0.0 0.0 0.0 
-6.730672046670e-04 1.180774454267e-03 0.0 
1.180774454267e-03 4.639426167369e-03 0.0 
0.0 0.0 0.0 
1.101804886905e-03 9.998673947020e-04 0.0 
9.998673947020e-04 3.431669896739e-03 0.0 
0.0 0.0 0.0 
-6.502543039634e-04 6.646334326981e-04 0.0 
6.646334326981e-04 6.732160977881e-03 0.0 
0.0 0.0 0.0 
-6.539768318258e-04 3.052146250913e-04 0.0 
3.052146250913e-04 7.104450550874e-03 0.0 
0.0 0.0 0.0 
2.064778852659e-03 1.871665912124e-03 0.0 
1.871665912124e-03 -4.253983158802e-03 0.0 
0.0 0.0 0.0 
2.269394358513e-03 -1.961668255510e-04 0.0 
-1.961668255510e-04 -1.303425983478e-03 0.0 
0.0 0.0 0.0 
1.746931917554e-03 -1.471047710248e-03 0.0 
-1.471047710248e-03 -1.347827256295e-03 0.0 
0.0 0.0 0.0 
-8.170720413170e-04 1.299543405329e-03 0.0 
1.299543405329e-03 4.423344331410e-03 0.0 
0.0 0.0 0.0 
-5.977114991597e-04 6.238324347378e-04 0.0 
6.238324347378e-04 7.864455188763e-03 0.0 
0.0 0.0 0.0 
-7.058285053686e-04 1.353404114906e-03 0.0 
1.353404114906e-03 4.613772872583e-03 0.0 
0.0 0.0 0.0 
1.484285320014e-03 1.484905581705e-03 0.0 
1.484905581705e-03 1.020360041608e-03 0.0 
0.0 0.0 0.0 
1.227071358438e-03 1.829997210166e-03 0.0 
1.829997210166e-03 1.181236345614e-03 0.0 
0.0 0.0 0.0 
2.087906322107e-03 1.571622681808e-03 0.0 
1.571622681808e-03 -3.155869676433e-03 0.0 
0.0 0.0 0.0 
4.169132333609e-04 1.750454744881e-03 0.0 
1.750454744881e-03 3.351780052603e-03 0.0 
0.0 0.0 0.0 
-3.192139201987e-04 2.968913372445e-03 0.0 
2.968913372445e-03 1.251574175629e-03 0.0 
0.0 0.0 0.0 
-1.269424345079e-04 8.729969703394e-04 0.0 
8.729969703394e-04 9.645011474289e-03 0.0 
0.0 0.0 0.0 
-1.381428054740e-04 1.016162037427e-03 0.0 
1.016162037427e-03 9.460215577477e-03 0.0 
0.0 0.0 0.0 
-2.544788632374e-04 1.365726161774e-03 0.0 
1.365726161774e-03 5.179645767780e-03 0.0 
0.0 0.0 0.0 
1.631781510657e-03 2.273716769347e-03 0.0 
2.273716769347e-03 -1.004014179162e-03 0.0 
0.0 0.0 0.0 
8.642659168208e-04 2.825993305903e-03 0.0 
2.825993305903e-03 3.321411603110e-04 0.0 
0.0 0.0 0.0 
-5.328617375263e-04 9.571082102135e-04 0.0 
9.571082102135e-04 6.431342842275e-03 0.0 
0.0 0.0 0.0 
1.520965681111e-03 2.399754595122e-03 0.0 
2.399754595122e-03 -4.117243833474e-04 0.0 
0.0 0.0 0.0 
2.142143327388e-03 -8.668108172016e-04 0.0 
-8.668108172016e-04 -1.444006364784e-03 0.0 
0.0 0.0 0.0 
-5.756429276109e-04 1.010789547073e-03 0.0 
1.010789547073e-03 5.811879134197e-03 0.0 
0.0 0.0 0.0 
-1.778354556520e-04 3.253516318210e-04 0.0 
3.253516318210e-04 9.704999844451e-03 0.0 
0.0 0.0 0.0 
1.234898512246e-03 2.088064334941e-03 0.0 
2.088064334941e-03 6.110659929688e-04 0.0 
0.0 0.0 0.0 
7.535861856303e-04 1.171271673863e-03 0.0 
1.171271673863e-03 4.453227128598e-03 0.0 
0.0 0.0 0.0 
2.560224344734e-04 3.009807846476e-03 0.0 
3.009807846476e-03 2.026496668841e-04 0.0 
0.0 0.0 0.0 
2.114003874742e-04 4.296513893973e-04 0.0 
4.296513893973e-04 7.092997426146e-03 0.0 
0.0 0.0 0.0 
1.101400048624e-03 2.726202834466e-03 0.0 
2.726202834466e-03 -4.617120056597e-04 0.0 
0.0 0.0 0.0 
-4.673013468222e-04 1.142552862975e-03 0.0 
1.142552862975e-03 5.722935524811e-03 0.0 
0.0 0.0 0.0 
2.499717461138e-03 1.595608461548e-03 0.0 
1.595608461548e-03 -3.895184148678e-03 0.0 
0.0 0.0 0.0 
1.187570993184e-03 2.714993665958e-04 0.0 
2.714993665958e-04 3.500649147683e-03 0.0 
0.0 0.0 0.0 
1.192477974863e-03 1.612489470121e-03 0.0 
1.612489470121e-03 1.750471979898e-03 0.0 
0.0 0.0 0.0 
1.765010363241e-03 -1.208635134154e-03 0.0 
-1.208635134154e-03 -6.169288157277e-04 0.0 
0.0 0.0 0.0 
-7.026274195772e-04 7.655234175187e-04 0.0 
7.655234175187e-04 6.445664343383e-03 0.0 
0.0 0.0 0.0 
-9.330885067793e-05 1.233562741981e-03 0.0 
1.233562741981e-03 9.122232085193e-03 0.0 
0.0 0.0 0.0 
1.559167190849e-03 1.694876978222e-03 0.0 
1.694876978222e-03 3.662076880255e-04 0.0 
0.0 0.0 0.0 
1.184166417047e-03 8.112056689514e-04 0.0 
8.112056689514e-04 3.457819255712e-03 0.0 
0.0 0.0 0.0 
4.705952180271e-04 3.020324375338e-03 0.0 
3.020324375338e-03 2.002123783933e-04 0.0 
0.0 0.0 0.0 
-5.003183085301e-04 3.085259758749e-04 0.0 
3.085259758749e-04 7.863286643172e-03 0.0 
0.0 0.0 0.0 
8.419842618235e-04 -2.968936799626e-05 0.0 
-2.968936799626e-05 4.423949417562e-03 0.0 
0.0 0.0 0.0 
-4.099230297760e-04 2.381166195327e-03 0.0 
2.381166195327e-03 2.810145381230e-03 0.0 
0.0 0.0 0.0 
-5.578133213264e-04 2.153668355170e-04 0.0 
2.153668355170e-04 7.712822418465e-03 0.0 
0.0 0.0 0.0 
-3.447174133020e-05 1.376357950956e-03 0.0 
1.376357950956e-03 8.649379021670e-03 0.0 
0.0 0.0 0.0 
7.135877600466e-04 5.223635413667e-05 0.0 
5.223635413667e-05 4.966717072911e-03 0.0 
0.0 0.0 0.0 
-1.153315717609e-04 1.167726324132e-03 0.0 
1.167726324132e-03 9.247996470300e-03 0.0 
0.0 0.0 0.0 
-5.960505524754e-04 2.813780086158e-04 0.0 
2.813780086158e-04 7.637764945088e-03 0.0 
0.0 0.0 0.0 
-4.550028362910e-04 9.296146974148e-04 0.0 
9.296146974148e-04 7.701386209430e-03 0.0 
0.0 0.0 0.0 
-7.593629930994e-04 2.422227414444e-03 0.0 
2.422227414444e-03 2.810004020757e-03 0.0 
0.0 0.0 0.0 
-7.513703517413e-04 7.109309922724e-04 0.0 
7.109309922724e-04 6.139400045610e-03 0.0 
0.0 0.0 0.0 
-6.059096736069e-04 8.413054507523e-04 0.0 
8.413054507523e-04 6.455446828534e-03 0.0 
0.0 0.0 0.0 
-6.460786934770e-04 8.102497197112e-04 0.0 
8.102497197112e-04 6.752826879922e-03 0.0 
0.0 0.0 0.0 
-2.712741394458e-04 1.468582647400e-03 0.0 
1.468582647400e-03 4.898488392792e-03 0.0 
0.0 0.0 0.0 
1.688180105619e-05 1.385044180957e-03 0.0 
1.385044180957e-03 8.304958086962e-03 0.0 
0.0 0.0 0.0 
-6.124901647638e-04 4.053582637621e-04 0.0 
4.053582637621e-04 7.332330327686e-03 0.0 
0.0 0.0 0.0 
-7.476398615736e-04 4.757131922846e-04 0.0 
4.757131922846e-04 6.603519702066e-03 0.0 
0.0 0.0 0.0 
1.489873270216e-03 1.557523583301e-03 0.0 
1.557523583301e-03 1.221004634830e-03 0.0 
0.0 0.0 0.0 
-5.168383524183e-04 -9.764957677569e-04 0.0 
-9.764957677569e-04 1.626021084423e-03 0.0 
0.0 0.0 0.0 
-7.777702987116e-04 5.766604847079e-04 0.0 
5.766604847079e-04 6.089546804176e-03 0.0 
0.0 0.0 0.0 
-1.099215013548e-04 2.388077121920e-03 0.0 
2.388077121920e-03 2.221985362602e-03 0.0 
0.0 0.0 0.0 
-4.390123517134e-04 1.124698429866e-05 0.0 
1.124698429866e-05 6.824313980811e-03 0.0 
0.0 0.0 0.0 
1.349418100691e-03 -1.624130858694e-03 0.0 
-1.624130858694e-03 -5.529667187116e-04 0.0 
0.0 0.0 0.0 
1.549859883083e-03 1.785011840979e-03 0.0 
1.785011840979e-03 6.527059038928e-04 0.0 
0.0 0.0 0.0 
-4.581827903279e-04 7.021853074677e-04 0.0 
7.021853074677e-04 8.204972317856e-03 0.0 
0.0 0.0 0.0 
1.136481965613e-04 2.516672482461e-03 0.0 
2.516672482461e-03 2.204291825323e-03 0.0 
0.0 0.0 0.0 
-6.577549935789e-04 7.885001155102e-04 0.0 
7.885001155102e-04 6.161684190900e-03 0.0 
0.0 0.0 0.0 
1.149973503961e-03 8.050304812850e-04 0.0 
8.050304812850e-04 3.513806746712e-03 0.0 
0.0 0.0 0.0 
8.423027014810e-04 -5.932245054518e-04 0.0 
-5.932245054518e-04 3.116486586844e-03 0.0 
0.0 0.0 0.0 
1.233759533377e-04 1.255071878615e-03 0.0 
1.255071878615e-03 7.790281916211e-03 0.0 
0.0 0.0 0.0 
-7.926616961282e-04 7.322399934256e-04 0.0 
7.322399934256e-04 5.574000361765e-03 0.0 
0.0 0.0 0.0 
2.414944094174e-03 4.327738858123e-04 0.0 
4.327738858123e-04 -1.845156799529e-03 0.0 
0.0 0.0 0.0 
3.321977831219e-04 -1.313388737333e-03 0.0 
-1.313388737333e-03 1.876976643644e-03 0.0 
0.0 0.0 0.0 
-8.353795377498e-04 1.759080923924e-03 0.0 
1.759080923924e-03 3.726069642121e-03 0.0 
0.0 0.0 0.0 
-4.844905336160e-04 2.141493241862e-03 0.0 
2.141493241862e-03 2.836740953407e-03 0.0 
0.0 0.0 0.0 
-4.273802302734e-04 8.619939103485e-04 0.0 
8.619939103485e-04 8.317380627159e-03 0.0 
0.0 0.0 0.0 
-5.026068335208e-04 1.092000419279e-03 0.0 
1.092000419279e-03 6.079755010748e-03 0.0 
0.0 0.0 0.0 
-8.123977155423e-04 9.549369658320e-04 0.0 
9.549369658320e-04 5.010648963549e-03 0.0 
0.0 0.0 0.0 
-7.002072848704e-04 7.240144698172e-04 0.0 
7.240144698172e-04 5.871833647322e-03 0.0 
0.0 0.0 0.0 
2.136349480000e-04 8.383622178612e-04 0.0 
8.383622178612e-04 7.246219272951e-03 0.0 
0.0 0.0 0.0 
3.687302985822e-04 8.126807527408e-04 0.0 
8.126807527408e-04 6.724675841658e-03 0.0 
0.0 0.0 0.0 
-3.650428443454e-04 8.722257172766e-04 0.0 
8.722257172766e-04 8.314416415951e-03 0.0 
0.0 0.0 0.0 
-5.619163211963e-04 6.011729275250e-04 0.0 
6.011729275250e-04 8.127356885718e-03 0.0 
0.0 0.0 0.0 
8.307258502505e-04 -7.340280214203e-04 0.0 
-7.340280214203e-04 2.724321580732e-03 0.0 
0.0 0.0 0.0 
-5.216394741984e-04 1.548964052801e-03 0.0 
1.548964052801e-03 4.429670790428e-03 0.0 
0.0 0.0 0.0 
1.997925526202e-03 1.782276773153e-03 0.0 
1.782276773153e-03 -9.285067457203e-04 0.0 
0.0 0.0 0.0 
1.918766912755e-03 1.521242597056e-03 0.0 
1.521242597056e-03 -2.478743421745e-04 0.0 
0.0 0.0 0.0 
-4.451217513770e-04 1.203530006874e-03 0.0 
1.203530006874e-03 5.713823620750e-03 0.0 
0.0 0.0 0.0 
1.230688354014e-03 2.308175132681e-04 0.0 
2.308175132681e-04 3.289954994091e-03 0.0 
0.0 0.0 0.0 
-7.267274585865e-05 -7.460983910156e-04 0.0 
-7.460983910156e-04 3.350218417309e-03 0.0 
0.0 0.0 0.0 
-3.767529903889e-04 7.688977463424e-04 0.0 
7.688977463424e-04 8.541173534399e-03 0.0 
0.0 0.0 0.0 
2.333619596280e-03 -2.930599771844e-04 0.0 
-2.930599771844e-04 -1.731780418336e-03 0.0 
0.0 0.0 0.0 
-1.451255732569e-04 1.616754090751e-03 0.0 
1.616754090751e-03 4.436978498659e-03 0.0 
0.0 0.0 0.0 
-5.949071466119e-04 9.172555341638e-04 0.0 
9.172555341638e-04 6.142080232697e-03 0.0 
0.0 0.0 0.0 
-2.747563838109e-04 1.691474142905e-03 0.0 
1.691474142905e-03 4.197894505762e-03 0.0 
0.0 0.0 0.0 
-1.286339127470e-04 1.099272828090e-03 0.0 
1.099272828090e-03 9.359818689236e-03 0.0 
0.0 0.0 0.0 
-1.274207421679e-04 9.538116487957e-04 0.0 
9.538116487957e-04 9.547918290702e-03 0.0 
0.0 0.0 0.0 
-2.524577046724e-04 8.750969614795e-04 0.0 
8.750969614795e-04 9.176884782767e-03 0.0 
0.0 0.0 0.0 
7.949575013491e-04 -5.726787734531e-04 0.0 
-5.726787734531e-04 3.227045858095e-03 0.0 
0.0 0.0 0.0 
-3.986611213188e-04 5.821459936115e-04 0.0 
5.821459936115e-04 8.617171780781e-03 0.0 
0.0 0.0 0.0 
-3.638127174944e-04 2.483981823916e-03 0.0 
2.483981823916e-03 2.144095225127e-03 0.0 
0.0 0.0 0.0 
1.806147722207e-03 1.317383643351e-03 0.0 
1.317383643351e-03 4.227024190606e-04 0.0 
0.0 0.0 0.0 
2.377249168810e-03 1.476647647464e-03 0.0 
1.476647647464e-03 -2.777510559010e-03 0.0 
0.0 0.0 0.0 
-7.301331454266e-04 1.168810032835e-03 0.0 
1.168810032835e-03 4.949981921531e-03 0.0 
0.0 0.0 0.0 
-6.248207322912e-04 1.898605167416e-04 0.0 
1.898605167416e-04 6.818496510682e-03 0.0 
0.0 0.0 0.0 
-5.360808082705e-04 3.119946524919e-04 0.0 
3.119946524919e-04 7.634741446122e-03 0.0 
0.0 0.0 0.0 
3.804976897381e-04 4.534277157987e-04 0.0 
4.534277157987e-04 6.595034468729e-03 0.0 
0.0 0.0 0.0 
-3.239418078306e-04 9.810389364446e-04 0.0 
9.810389364446e-04 8.030229453806e-03 0.0 
0.0 0.0 0.0 
-6.356740994136e-04 6.224880385051e-04 0.0 
6.224880385051e-04 7.004539513754e-03 0.0 
0.0 0.0 0.0 
-5.465386148520e-04 8.863053350584e-04 0.0 
8.863053350584e-04 6.758132533571e-03 0.0 
0.0 0.0 0.0 
2.525618362399e-03 1.441888457803e-03 0.0 
1.441888457803e-03 -3.188096520937e-03 0.0 
0.0 0.0 0.0 
-5.722851936130e-04 -1.068064083397e-03 0.0 
-1.068064083397e-03 5.968550839011e-04 0.0 
0.0 0.0 0.0 
6.472776467046e-04 1.829569506524e-03 0.0 
1.829569506524e-03 2.687121471203e-03 0.0 
0.0 0.0 0.0 
-4.473328132071e-05 1.532785900586e-03 0.0 
1.532785900586e-03 4.708668388607e-03 0.0 
0.0 0.0 0.0 
6.152812312583e-04 1.692405509832e-03 0.0 
1.692405509832e-03 3.359059052447e-03 0.0 
0.0 0.0 0.0 
-5.386884414296e-04 2.748248886594e-03 0.0 
2.748248886594e-03 3.984057593178e-04 0.0 
0.0 0.0 0.0 
-4.210711538369e-04 4.115361405006e-05 0.0 
4.115361405006e-05 7.181947053443e-03 0.0 
0.0 0.0 0.0 
-4.331113338478e-04 -1.004420159432e-03 0.0 
-1.004420159432e-03 1.401289581424e-03 0.0 
0.0 0.0 0.0 
6.893499502283e-04 2.648907310944e-03 0.0 
2.648907310944e-03 6.344851665310e-04 0.0 
0.0 0.0 0.0 
0.0 4.778864426056e-04 0.0 
4.778864426056e-04 7.109580604716e-03 0.0 
0.0 0.0 0.0 
9.088655678204e-04 8.983257516686e-04 0.0 
8.983257516686e-04 4.501980003448e-03 0.0 
0.0 0.0 0.0 
-6.857931429493e-04 4.530742058498e-04 0.0 
4.530742058498e-04 6.606055848555e-03 0.0 
0.0 0.0 0.0 
1.793267394101e-04 -1.766150206491e-05 0.0 
-1.766150206491e-05 1.031113034439e-03 0.0 
0.0 0.0 0.0 
-3.411322768631e-04 1.399906419291e-03 0.0 
1.399906419291e-03 4.908240320963e-03 0.0 
0.0 0.0 0.0 
8.764318380559e-04 1.716577968064e-03 0.0 
1.716577968064e-03 2.701887314728e-03 0.0 
0.0 0.0 0.0 
-6.472219576625e-04 7.475491049820e-04 0.0 
7.475491049820e-04 7.045136819724e-03 0.0 
0.0 0.0 0.0 
-7.053049139039e-05 1.299654865431e-03 0.0 
1.299654865431e-03 8.971210193220e-03 0.0 
0.0 0.0 0.0 
-6.952154972982e-04 6.577071110405e-04 0.0 
6.577071110405e-04 6.145226246907e-03 0.0 
0.0 0.0 0.0 
-5.439288706807e-04 9.975446973371e-04 0.0 
9.975446973371e-04 6.426192715149e-03 0.0 
0.0 0.0 0.0 
2.897541550895e-05 -7.466782186119e-04 0.0 
-7.466782186119e-04 3.349736066786e-03 0.0 
0.0 0.0 0.0 
-4.166837098283e-04 6.844245466720e-04 0.0 
6.844245466720e-04 8.466411544219e-03 0.0 
0.0 0.0 0.0 
7.968673581602e-04 -4.481807957237e-04 0.0 
-4.481807957237e-04 3.596950019076e-03 0.0 
0.0 0.0 0.0 
-6.393540897620e-05 1.342308476200e-03 0.0 
1.342308476200e-03 8.816382951677e-03 0.0 
0.0 0.0 0.0 
0.0 1.085671712343e-03 0.0 
1.085671712343e-03 9.303453549633e-03 0.0 
0.0 0.0 0.0 
0.0 7.962144960303e-04 0.0 
7.962144960303e-04 9.691425676415e-03 0.0 
0.0 0.0 0.0 
0.0 9.374210481756e-04 0.0 
9.374210481756e-04 9.505021390286e-03 0.0 
0.0 0.0 0.0 
-5.495773644695e-04 8.287551770084e-04 0.0 
8.287551770084e-04 7.069610175901e-03 0.0 
0.0 0.0 0.0 
-4.853819197974e-04 6.636279450885e-04 0.0 
6.636279450885e-04 8.469415227875e-03 0.0 
0.0 0.0 0.0 
-2.997579576279e-04 9.652505483474e-04 0.0 
9.652505483474e-04 8.349938977726e-03 0.0 
0.0 0.0 0.0 
-3.520630315035e-04 1.593720663721e-03 0.0 
1.593720663721e-03 4.210097577549e-03 0.0 
0.0 0.0 0.0 
-5.387347421836e-04 1.411612218672e-03 0.0 
1.411612218672e-03 4.447047323463e-03 0.0 
0.0 0.0 0.0 
-1.772459144562e-04 -6.785903927631e-04 0.0 
-6.785903927631e-04 3.294630697084e-03 0.0 
0.0 0.0 0.0 
-4.454176736379e-04 7.503717967055e-04 0.0 
7.503717967055e-04 8.544290891358e-03 0.0 
0.0 0.0 0.0 
-8.495143351550e-06 1.389430329921e-03 0.0 
1.389430329921e-03 8.474867435071e-03 0.0 
0.0 0.0 0.0 
-3.670265462650e-04 6.623712497380e-04 0.0 
6.623712497380e-04 8.713564636200e-03 0.0 
0.0 0.0 0.0 
1.017897117309e-03 9.460593810405e-04 0.0 
9.460593810405e-04 3.967391416873e-03 0.0 
0.0 0.0 0.0 
-4.345817375980e-04 6.401122540896e-04 0.0 
6.401122540896e-04 8.716917040000e-03 0.0 
0.0 0.0 0.0 
1.314612839374e-04 1.245668649053e-03 0.0 
1.245668649053e-03 6.054046087715e-03 0.0 
0.0 0.0 0.0 
-2.152191051719e-05 1.629802921690e-03 0.0 
1.629802921690e-03 4.206547587677e-03 0.0 
0.0 0.0 0.0 
-6.860389786127e-04 1.033643742618e-03 0.0 
1.033643742618e-03 4.964016177054e-03 0.0 
0.0 0.0 0.0 
9.703625030051e-04 3.005992394229e-03 0.0 
3.005992394229e-03 -8.872356623880e-04 0.0 
0.0 0.0 0.0 
-1.103316656479e-04 5.472779879592e-04 0.0 
5.472779879592e-04 9.591989108820e-03 0.0 
0.0 0.0 0.0 
-2.454811541258e-04 1.791280181513e-03 0.0 
1.791280181513e-03 3.704128068298e-03 0.0 
0.0 0.0 0.0 
1.536888882647e-05 1.203384106726e-03 0.0 
1.203384106726e-03 7.693824328339e-03 0.0 
0.0 0.0 0.0 
-1.084712928842e-04 -6.963116832837e-04 0.0 
-6.963116832837e-04 3.296901063826e-03 0.0 
0.0 0.0 0.0 
8.913527831103e-04 -1.974654814334e-03 0.0 
-1.974654814334e-03 -3.384980214056e-04 0.0 
0.0 0.0 0.0 
2.136399350470e-04 3.911936608737e-04 0.0 
3.911936608737e-04 6.589745855358e-03 0.0 
0.0 0.0 0.0 
3.518106482316e-04 2.470527019693e-03 0.0 
2.470527019693e-03 1.585623247623e-03 0.0 
0.0 0.0 0.0 
0.0 1.152913044445e-03 0.0 
1.152913044445e-03 9.186367460539e-03 0.0 
0.0 0.0 0.0 
-1.504459076674e-04 8.261844912447e-04 0.0 
8.261844912447e-04 9.320807172009e-03 0.0 
0.0 0.0 0.0 
-3.951173157363e-04 1.147491912526e-03 0.0 
1.147491912526e-03 6.008386705089e-03 0.0 
0.0 0.0 0.0 
-5.360323475224e-04 -4.957979961569e-04 0.0 
-4.957979961569e-04 6.201702031305e-04 0.0 
0.0 0.0 0.0 
0.0 1.255719033119e-03 0.0 
1.255719033119e-03 8.895262661600e-03 0.0 
0.0 0.0 0.0 
2.150915706336e-04 6.194601512310e-04 0.0 
6.194601512310e-04 6.670176798983e-03 0.0 
0.0 0.0 0.0 
1.350867166578e-03 -1.664865296069e-03 0.0 
-1.664865296069e-03 -3.877885707284e-04 0.0 
0.0 0.0 0.0 
1.061027325139e-03 7.748846389452e-04 0.0 
7.748846389452e-04 4.016295885438e-03 0.0 
0.0 0.0 0.0 
1.371863290471e-04 1.170187845328e-03 0.0 
1.170187845328e-03 7.630218387078e-03 0.0 
0.0 0.0 0.0 
-6.336939002616e-05 -3.541309337371e-05 0.0 
-3.541309337371e-05 1.185532818595e-04 0.0 
0.0 0.0 0.0 
-1.228528403225e-04 1.714809419198e-03 0.0 
1.714809419198e-03 3.938108779607e-03 0.0 
0.0 0.0 0.0 
-4.396661895532e-04 1.060061722948e-03 0.0 
1.060061722948e-03 6.382360985655e-03 0.0 
0.0 0.0 0.0 
-3.338899156874e-04 1.250180347230e-03 0.0 
1.250180347230e-03 5.608490328799e-03 0.0 
0.0 0.0 0.0 
-5.060981154870e-04 1.042437079221e-03 0.0 
1.042437079221e-03 6.086718576802e-03 0.0 
0.0 0.0 0.0 
4.986829911262e-04 2.933242775928e-03 0.0 
2.933242775928e-03 3.180686050970e-04 0.0 
0.0 0.0 0.0 
0.0 1.313562487064e-03 0.0 
1.313562487064e-03 8.562507237620e-03 0.0 
0.0 0.0 0.0 
1.682366133485e-03 1.157999228389e-03 0.0 
1.157999228389e-03 1.070539615102e-03 0.0 
0.0 0.0 0.0 
2.058653961295e-03 4.493074083882e-04 0.0 
4.493074083882e-04 -4.015991291136e-03 0.0 
0.0 0.0 0.0 
5.233755101042e-05 -1.455826590502e-04 0.0 
-1.455826590502e-04 7.009107651164e-03 0.0 
0.0 0.0 0.0 
-6.938302665827e-05 -3.756764983037e-04 0.0 
-3.756764983037e-04 3.129369621233e-04 0.0 
0.0 0.0 0.0 
-6.990668821014e-04 8.056948575079e-04 0.0 
8.056948575079e-04 5.587998658215e-03 0.0 
0.0 0.0 0.0 
9.044814725230e-04 -2.208317413278e-03 0.0 
-2.208317413278e-03 -1.975789906235e-03 0.0 
0.0 0.0 0.0 
-7.114581711489e-04 5.278447035149e-04 0.0 
5.278447035149e-04 6.095457726166e-03 0.0 
0.0 0.0 0.0 
2.166462882947e-04 6.873170714585e-04 0.0 
6.873170714585e-04 7.164449285348e-03 0.0 
0.0 0.0 0.0 
0.0 1.308300028175e-03 0.0 
1.308300028175e-03 8.213100966767e-03 0.0 
0.0 0.0 0.0 
-6.072689850657e-04 7.779465771148e-04 0.0 
7.779465771148e-04 6.757124574455e-03 0.0 
0.0 0.0 0.0 
8.313037987451e-05 -2.247349253870e-03 0.0 
-2.247349253870e-03 -9.050392598331e-04 0.0 
0.0 0.0 0.0 
1.845489977250e-03 8.248752841537e-04 0.0 
8.248752841537e-04 -4.650317005487e-03 0.0 
0.0 0.0 0.0 
2.021037842259e-05 -2.708352358845e-03 0.0 
-2.708352358845e-03 -1.043838252602e-03 0.0 
0.0 0.0 0.0 
2.464558595487e-04 -2.170211740005e-04 0.0 
-2.170211740005e-04 5.727598074345e-03 0.0 
0.0 0.0 0.0 
-6.428304897719e-04 2.303498519897e-04 0.0 
2.303498519897e-04 6.776302829341e-03 0.0 
0.0 0.0 0.0 
-7.273642096539e-04 4.351048600606e-04 0.0 
4.351048600606e-04 6.842658945464e-03 0.0 
0.0 0.0 0.0 
0.0 1.228556286600e-03 0.0 
1.228556286600e-03 7.873033903613e-03 0.0 
0.0 0.0 0.0 
-6.207372157941e-04 1.787888827377e-04 0.0 
1.787888827377e-04 6.803703118035e-03 0.0 
0.0 0.0 0.0 
-1.162397397004e-04 7.939096770290e-04 0.0 
7.939096770290e-04 9.724239371998e-03 0.0 
0.0 0.0 0.0 
1.911395197673e-04 1.260633462148e-03 0.0 
1.260633462148e-03 5.971139840942e-03 0.0 
0.0 0.0 0.0 
-5.323781892165e-04 2.485426492365e-04 0.0 
2.485426492365e-04 7.474450770623e-03 0.0 
0.0 0.0 0.0 
-5.798734971326e-04 1.846782504843e-03 0.0 
1.846782504843e-03 3.378475378582e-03 0.0 
0.0 0.0 0.0 
9.956046489987e-04 9.383833756712e-04 0.0 
9.383833756712e-04 3.993787951012e-03 0.0 
0.0 0.0 0.0 
1.827710879592e-03 2.319539389634e-03 0.0 
2.319539389634e-03 -2.063443390557e-03 0.0 
0.0 0.0 0.0 
0.0 1.068102215323e-03 0.0 
1.068102215323e-03 7.558068831500e-03 0.0 
0.0 0.0 0.0 
0.0 1.015581687062e-03 0.0 
1.015581687062e-03 9.412244499829e-03 0.0 
0.0 0.0 0.0 
0.0 8.629650763705e-04 0.0 
8.629650763705e-04 9.612676065581e-03 0.0 
0.0 0.0 0.0 
6.324454713629e-04 -5.649378355717e-04 0.0 
-5.649378355717e-04 3.615175786194e-03 0.0 
0.0 0.0 0.0 
-2.534965180743e-04 -5.891194919022e-04 0.0 
-5.891194919022e-04 3.213914574514e-03 0.0 
0.0 0.0 0.0 
1.203688880032e-04 1.659862807524e-03 0.0 
1.659862807524e-03 4.201107058010e-03 0.0 
0.0 0.0 0.0 
6.355938920122e-04 -4.422610777598e-04 0.0 
-4.422610777598e-04 3.969373807372e-03 0.0 
0.0 0.0 0.0 
0.0 8.645840852003e-04 0.0 
8.645840852003e-04 7.312582696406e-03 0.0 
0.0 0.0 0.0 
1.065786321126e-03 2.492290077840e-03 0.0 
2.492290077840e-03 6.557430853646e-04 0.0 
0.0 0.0 0.0 
2.009821582577e-03 -6.503777659825e-04 0.0 
-6.503777659825e-04 -6.560593048461e-04 0.0 
0.0 0.0 0.0 
1.701882509747e-03 -9.432437152802e-04 0.0 
-9.432437152802e-04 1.806241770064e-05 0.0 
0.0 0.0 0.0 
-4.990630658226e-04 2.484220498331e-04 0.0 
2.484220498331e-04 7.708879362752e-03 0.0 
0.0 0.0 0.0 
1.671936397838e-04 2.924358585107e-04 0.0 
2.924358585107e-04 7.085892735517e-03 0.0 
0.0 0.0 0.0 
-8.147900513658e-04 -2.357743610062e-03 0.0 
-2.357743610062e-03 -3.448668675916e-04 0.0 
0.0 0.0 0.0 
0.0 6.019251800831e-04 0.0 
6.019251800831e-04 7.137975256364e-03 0.0 
0.0 0.0 0.0 
1.397234944871e-03 -1.356273260161e-03 0.0 
-1.356273260161e-03 1.246793710550e-04 0.0 
0.0 0.0 0.0 
0.0 1.212145879329e-03 0.0 
1.212145879329e-03 9.055023115959e-03 0.0 
0.0 0.0 0.0 
-3.691110504427e-04 9.512498487830e-04 0.0 
9.512498487830e-04 8.352833432841e-03 0.0 
0.0 0.0 0.0 
7.275902291126e-04 -3.124982114052e-05 0.0 
-3.124982114052e-05 -1.453274279209e-04 0.0 
0.0 0.0 0.0 
1.418150580179e-04 1.768560057129e-03 0.0 
1.768560057129e-03 3.637711561977e-03 0.0 
0.0 0.0 0.0 
-4.107555113969e-04 5.348974361812e-04 0.0 
5.348974361812e-04 8.855823347705e-03 0.0 
0.0 0.0 0.0 
0.0 1.293068509201e-03 0.0 
1.293068509201e-03 8.736212093264e-03 0.0 
0.0 0.0 0.0 
-5.849381863580e-04 8.496000796780e-04 0.0 
8.496000796780e-04 7.067020624685e-03 0.0 
0.0 0.0 0.0 
3.067953070266e-04 1.229234309876e-03 0.0 
1.229234309876e-03 5.911826591867e-03 0.0 
0.0 0.0 0.0 
6.868571402856e-04 3.061022474890e-03 0.0 
3.061022474890e-03 -1.013063411335e-03 0.0 
0.0 0.0 0.0 
4.141481112743e-04 5.291894469666e-04 0.0 
5.291894469666e-04 6.160467316739e-03 0.0 
0.0 0.0 0.0 
1.072188292695e-03 -1.389859773646e-03 0.0 
-1.389859773646e-03 7.939215696156e-04 0.0 
0.0 0.0 0.0 
1.365976240858e-03 -1.309775900541e-03 0.0 
-1.309775900541e-03 6.850724290297e-05 0.0 
0.0 0.0 0.0 
-1.275367732251e-03 -2.399989990527e-03 0.0 
-2.399989990527e-03 -5.001530096163e-04 0.0 
0.0 0.0 0.0 
0.0 1.318628138557e-03 0.0 
1.318628138557e-03 8.387601556155e-03 0.0 
0.0 0.0 0.0 
1.970738624327e-03 2.084918102120e-03 0.0 
2.084918102120e-03 -1.584821587180e-03 0.0 
0.0 0.0 0.0 
6.363138108381e-04 6.872023774154e-05 0.0 
6.872023774154e-05 5.233457937180e-03 0.0 
0.0 0.0 0.0 
-5.793178943592e-04 1.538343659828e-04 0.0 
1.538343659828e-04 7.294059415563e-03 0.0 
0.0 0.0 0.0 
4.836082691195e-05 -1.607953331963e-03 0.0 
-1.607953331963e-03 1.270335224957e-03 0.0 
0.0 0.0 0.0 
1.698184089105e-03 -1.147320174106e-03 0.0 
-1.147320174106e-03 -5.827657546947e-04 0.0 
0.0 0.0 0.0 
-5.708211296864e-04 9.172762483089e-04 0.0 
9.172762483089e-04 6.754055420678e-03 0.0 
0.0 0.0 0.0 
0.0 1.153436632348e-03 0.0 
1.153436632348e-03 7.713535636759e-03 0.0 
0.0 0.0 0.0 
-2.508557464714e-04 -5.039624630966e-04 0.0 
-5.039624630966e-04 3.457644758535e-03 0.0 
0.0 0.0 0.0 
6.775407753645e-04 -3.036142257119e-04 0.0 
-3.036142257119e-04 4.251688904676e-03 0.0 
0.0 0.0 0.0 
-7.502598320441e-05 1.430407198560e-03 0.0 
1.430407198560e-03 5.014114460875e-03 0.0 
0.0 0.0 0.0 
1.121704186879e-03 -1.306975719654e-04 0.0 
-1.306975719654e-04 3.239836505815e-03 0.0 
0.0 0.0 0.0 
1.905541541920e-03 -6.048314978715e-04 0.0 
-6.048314978715e-04 -3.989448103798e-04 0.0 
0.0 0.0 0.0 
7.433355634112e-04 -4.294036417707e-04 0.0 
-4.294036417707e-04 3.736545876561e-03 0.0 
0.0 0.0 0.0 
-1.775639230861e-04 1.409010456928e-03 0.0 
1.409010456928e-03 5.173524108084e-03 0.0 
0.0 0.0 0.0 
-1.159376978803e-04 1.192132660197e-03 0.0 
1.192132660197e-03 6.570691969445e-03 0.0 
0.0 0.0 0.0 
8.852348565840e-04 8.954620360891e-04 0.0 
8.954620360891e-04 4.544387267319e-03 0.0 
0.0 0.0 0.0 
5.705075708917e-05 1.540246336338e-03 0.0 
1.540246336338e-03 4.511376257800e-03 0.0 
0.0 0.0 0.0 
1.248863632537e-04 -8.709539154487e-04 0.0 
-8.709539154487e-04 3.031658033484e-03 0.0 
0.0 0.0 0.0 
6.653361323559e-04 2.439671542906e-03 0.0 
2.439671542906e-03 1.588440192897e-03 0.0 
0.0 0.0 0.0 
-2.168182932556e-04 -6.191098585607e-04 0.0 
-6.191098585607e-04 3.218208491360e-03 0.0 
0.0 0.0 0.0 
2.625668615359e-04 1.220250506750e-03 0.0 
1.220250506750e-03 5.977683319088e-03 0.0 
0.0 0.0 0.0 
1.271418202205e-03 8.504862067714e-04 0.0 
8.504862067714e-04 2.924144541325e-03 0.0 
0.0 0.0 0.0 
2.121378188622e-04 5.525773384975e-04 0.0 
5.525773384975e-04 7.123899487257e-03 0.0 
0.0 0.0 0.0 
-3.799310797635e-04 6.161654833712e-04 0.0 
6.161654833712e-04 8.957824921638e-03 0.0 
0.0 0.0 0.0 
-9.779558719269e-05 -1.502131924238e-03 0.0 
-1.502131924238e-03 1.489453202564e-03 0.0 
0.0 0.0 0.0 
0.0 7.306138010447e-04 0.0 
7.306138010447e-04 7.192554945223e-03 0.0 
0.0 0.0 0.0 
4.143533134293e-04 5.874053712882e-04 0.0 
5.874053712882e-04 6.640471088002e-03 0.0 
0.0 0.0 0.0 
6.723032287395e-04 1.652381474577e-03 0.0 
1.652381474577e-03 3.120952887446e-03 0.0 
0.0 0.0 0.0 
-7.579385242336e-04 -1.515794217838e-03 0.0 
-1.515794217838e-03 3.802348788742e-04 0.0 
0.0 0.0 0.0 
1.806373515791e-04 1.899820756798e-04 0.0 
1.899820756798e-04 7.101183704397e-03 0.0 
0.0 0.0 0.0 
-3.963282598322e-04 7.260725363017e-04 0.0 
7.260725363017e-04 8.799091588087e-03 0.0 
0.0 0.0 0.0 
9.792180567771e-04 -1.664799799800e-03 0.0 
-1.664799799800e-03 3.774532005716e-04 0.0 
0.0 0.0 0.0 
0.0 3.514895929165e-04 0.0 
3.514895929165e-04 7.075937204834e-03 0.0 
0.0 0.0 0.0 
5.927162109687e-04 -4.302195236778e-04 0.0 
-4.302195236778e-04 4.102657204871e-03 0.0 
0.0 0.0 0.0 
-5.881839663872e-04 1.237006461320e-03 0.0 
1.237006461320e-03 4.843155945983e-03 0.0 
0.0 0.0 0.0 
-6.552037103704e-04 5.215642006450e-04 0.0 
5.215642006450e-04 6.937420872094e-03 0.0 
0.0 0.0 0.0 
1.307084082330e-03 8.630657341525e-04 0.0 
8.630657341525e-04 2.883652495389e-03 0.0 
0.0 0.0 0.0 
6.559262177566e-04 -7.162087899481e-04 0.0 
-7.162087899481e-04 3.135261085886e-03 0.0 
0.0 0.0 0.0 
1.129312825470e-03 8.236804751920e-05 0.0 
8.236804751920e-05 3.531813130507e-03 0.0 
0.0 0.0 0.0 
-6.231112513193e-04 5.375676735502e-04 0.0 
5.375676735502e-04 7.779963444392e-03 0.0 
0.0 0.0 0.0 
-6.390801410373e-04 9.669036700587e-04 0.0 
9.669036700587e-04 5.544886973979e-03 0.0 
0.0 0.0 0.0 
7.400914097837e-04 9.920268060322e-04 0.0 
9.920268060322e-04 5.014409502599e-03 0.0 
0.0 0.0 0.0 
-4.243939214141e-04 3.424948347837e-05 0.0 
3.424948347837e-05 7.525374631655e-03 0.0 
0.0 0.0 0.0 
-1.526699853205e-07 -8.760181939666e-04 0.0 
-8.760181939666e-04 3.033123321972e-03 0.0 
0.0 0.0 0.0 
1.026625688177e-03 7.735589186693e-04 0.0 
7.735589186693e-04 4.086988601240e-03 0.0 
0.0 0.0 0.0 
7.299763132029e-04 -1.573745942797e-03 0.0 
-1.573745942797e-03 8.186878547829e-04 0.0 
0.0 0.0 0.0 
4.330522895679e-05 -3.923072105711e-04 0.0 
-3.923072105711e-04 4.759496520384e-03 0.0 
0.0 0.0 0.0 
2.090079793364e-04 -1.355619956646e-04 0.0 
-1.355619956646e-04 -4.844851090346e-05 0.0 
0.0 0.0 0.0 
3.319221387188e-04 2.306379974224e-03 0.0 
2.306379974224e-03 2.396936134661e-03 0.0 
0.0 0.0 0.0 
1.009105127086e-03 -1.645835647936e-03 0.0 
-1.645835647936e-03 1.677099132116e-04 0.0 
0.0 0.0 0.0 
-5.002747872718e-05 -6.298023479589e-04 0.0 
-6.298023479589e-04 3.643347190209e-03 0.0 
0.0 0.0 0.0 
4.567555640338e-04 1.606299737351e-03 0.0 
1.606299737351e-03 3.740075181753e-03 0.0 
0.0 0.0 0.0 
7.351251810301e-04 -3.191816429049e-04 0.0 
-3.191816429049e-04 4.085522981304e-03 0.0 
0.0 0.0 0.0 
-5.461121867010e-04 1.600132790820e-04 0.0 
1.600132790820e-04 7.548465851779e-03 0.0 
0.0 0.0 0.0 
5.938178111711e-04 -1.841775496130e-03 0.0 
-1.841775496130e-03 4.072848360162e-04 0.0 
0.0 0.0 0.0 
0.0 2.493116950179e-04 0.0 
2.493116950179e-04 7.095932296650e-03 0.0 
0.0 0.0 0.0 
-4.300951040979e-04 1.093800636032e-03 0.0 
1.093800636032e-03 6.377694669933e-03 0.0 
0.0 0.0 0.0 
-1.164469533432e-04 -5.208366345156e-04 0.0 
-5.208366345156e-04 3.915127785277e-03 0.0 
0.0 0.0 0.0 
-3.663615347509e-04 1.187850962478e-03 0.0 
1.187850962478e-03 6.002607042488e-03 0.0 
0.0 0.0 0.0 
-1.342235334707e-04 -6.261750999364e-04 0.0 
-6.261750999364e-04 3.643273629220e-03 0.0 
0.0 0.0 0.0 
-3.317259897020e-04 -5.006053701306e-05 0.0 
-5.006053701306e-05 2.339617646234e-04 0.0 
0.0 0.0 0.0 
-6.964169096084e-04 5.018863313840e-04 0.0 
5.018863313840e-04 7.186367102862e-03 0.0 
0.0 0.0 0.0 
-3.610074425821e-04 -1.672865372864e-04 0.0 
-1.672865372864e-04 3.409941951588e-03 0.0 
0.0 0.0 0.0 
4.445688747321e-04 6.009199789004e-06 0.0 
6.009199789004e-06 -9.123225046814e-05 0.0 
0.0 0.0 0.0 
-2.089542217119e-04 -4.667815684563e-04 0.0 
-4.667815684563e-04 3.809321509169e-03 0.0 
0.0 0.0 0.0 
6.574766192728e-04 -2.073852526522e-04 0.0 
-2.073852526522e-04 4.580724160171e-03 0.0 
0.0 0.0 0.0 
-2.526544129554e-04 2.012850909792e-04 0.0 
2.012850909792e-04 9.011552715273e-03 0.0 
0.0 0.0 0.0 
1.256370553831e-03 3.153369122008e-06 0.0 
3.153369122008e-06 2.945092322199e-03 0.0 
0.0 0.0 0.0 
1.217997208663e-03 6.433228957291e-05 0.0 
6.433228957291e-05 3.205598415776e-03 0.0 
0.0 0.0 0.0 
-7.449587457758e-04 3.756090439920e-04 0.0 
3.756090439920e-04 6.506287115783e-03 0.0 
0.0 0.0 0.0 
-6.177401154990e-04 1.201155847463e-04 0.0 
1.201155847463e-04 6.458620643629e-03 0.0 
0.0 0.0 0.0 
-1.177296336226e-04 6.487315030060e-04 0.0 
6.487315030060e-04 9.523226801675e-03 0.0 
0.0 0.0 0.0 
-2.837919300427e-04 1.292099077510e-03 0.0 
1.292099077510e-03 5.602819245034e-03 0.0 
0.0 0.0 0.0 
7.245801801117e-04 -1.790383236480e-05 0.0 
-1.790383236480e-05 -1.810124904907e-04 0.0 
0.0 0.0 0.0 
-3.561705542487e-04 -6.559933249218e-04 0.0 
-6.559933249218e-04 1.319254984230e-03 0.0 
0.0 0.0 0.0 
-6.977610405896e-04 -8.742227655019e-04 0.0 
-8.742227655019e-04 5.653847470708e-04 0.0 
0.0 0.0 0.0 
-2.396191888291e-04 -1.205934275401e-03 0.0 
-1.205934275401e-03 1.826545111173e-03 0.0 
0.0 0.0 0.0 
-2.155612611230e-04 1.115523978861e-03 0.0 
1.115523978861e-03 7.714678959969e-03 0.0 
0.0 0.0 0.0 
-2.872412268436e-04 1.526092458872e-04 0.0 
1.526092458872e-04 9.017502881498e-03 0.0 
0.0 0.0 0.0 
2.735216038570e-04 -2.044393816930e-04 0.0 
-2.044393816930e-04 5.556802075723e-03 0.0 
0.0 0.0 0.0 
-2.514968974399e-04 -8.559126628522e-04 0.0 
-8.559126628522e-04 2.382400561198e-03 0.0 
0.0 0.0 0.0 
-4.713299023329e-05 -4.221225105431e-04 0.0 
-4.221225105431e-04 4.764882761509e-03 0.0 
0.0 0.0 0.0 
5.819161011331e-04 1.208299363740e-04 0.0 
1.208299363740e-04 5.502086760850e-03 0.0 
0.0 0.0 0.0 
2.599894473238e-03 4.657221692038e-04 0.0 
4.657221692038e-04 -3.709420564862e-03 0.0 
0.0 0.0 0.0 
-3.541311553312e-04 -1.418968643135e-04 0.0 
-1.418968643135e-04 3.409484751075e-03 0.0 
0.0 0.0 0.0 
-3.235148342886e-04 -8.185092088132e-05 0.0 
-8.185092088132e-05 2.837951343830e-03 0.0 
0.0 0.0 0.0 
1.339255162363e-04 8.824009176415e-05 0.0 
8.824009176415e-05 7.119430382202e-03 0.0 
0.0 0.0 0.0 
0.0 1.393748319888e-04 0.0 
1.393748319888e-04 7.106425399225e-03 0.0 
0.0 0.0 0.0 
-3.600834820376e-04 -1.406880039773e-04 0.0 
-1.406880039773e-04 3.760921302322e-03 0.0 
0.0 0.0 0.0 
-1.855218728599e-04 -5.165220420856e-04 0.0 
-5.165220420856e-04 3.914871535096e-03 0.0 
0.0 0.0 0.0 
6.696181918822e-04 -5.782974467846e-04 0.0 
-5.782974467846e-04 3.510101435145e-03 0.0 
0.0 0.0 0.0 
5.643241161921e-04 2.431412834545e-04 0.0 
2.431412834545e-04 5.758323518190e-03 0.0 
0.0 0.0 0.0 
-5.011974839314e-04 -6.853010718930e-04 0.0 
-6.853010718930e-04 1.504557434916e-03 0.0 
0.0 0.0 0.0 
5.893314499403e-04 4.493998045833e-07 0.0 
4.493998045833e-07 5.273545063595e-03 0.0 
0.0 0.0 0.0 
2.679870276219e-04 -6.723765757560e-05 0.0 
-6.723765757560e-05 6.529744855528e-04 0.0 
0.0 0.0 0.0 
-2.200070678375e-04 -5.605757250246e-04 0.0 
-5.605757250246e-04 3.559873448022e-03 0.0 
0.0 0.0 0.0 
-2.723145725669e-05 -6.694276780732e-04 0.0 
-6.694276780732e-04 3.709773201783e-03 0.0 
0.0 0.0 0.0 
3.049689778445e-04 -1.368260666503e-05 0.0 
-1.368260666503e-05 2.618212764911e-04 0.0 
0.0 0.0 0.0 
-3.610229414737e-04 -9.058913752193e-05 0.0 
-9.058913752193e-05 3.598306778511e-03 0.0 
0.0 0.0 0.0 
-3.098450764792e-04 6.429432363800e-04 0.0 
6.429432363800e-04 8.952635254317e-03 0.0 
0.0 0.0 0.0 
6.809305095321e-04 -6.066729794347e-06 0.0 
-6.066729794347e-06 -1.637675264526e-04 0.0 
0.0 0.0 0.0 
-6.394868483796e-04 1.600350443365e-04 0.0 
1.600350443365e-04 6.445053782565e-03 0.0 
0.0 0.0 0.0 
-6.438632471176e-04 1.949348139545e-04 0.0 
1.949348139545e-04 6.409871864581e-03 0.0 
0.0 0.0 0.0 
1.094699892111e-03 2.803625409098e-04 0.0 
2.803625409098e-04 3.873710128858e-03 0.0 
0.0 0.0 0.0 
-3.115931835096e-04 -5.077923898484e-05 0.0 
-5.077923898484e-05 2.839092928434e-03 0.0 
0.0 0.0 0.0 
6.812152562974e-04 -1.568888854392e-03 0.0 
-1.568888854392e-03 1.016727055352e-03 0.0 
0.0 0.0 0.0 
8.860521712961e-05 2.961827507664e-03 0.0 
2.961827507664e-03 1.239291070750e-03 0.0 
0.0 0.0 0.0 
1.333979607376e-04 -1.420913620473e-04 0.0 
-1.420913620473e-04 6.290427587821e-03 0.0 
0.0 0.0 0.0 
-1.205723037612e-05 1.245392279896e-03 0.0 
1.245392279896e-03 8.137857502070e-03 0.0 
0.0 0.0 0.0 
-3.720219066112e-04 2.341226633797e-04 0.0 
2.341226633797e-04 8.751395522522e-03 0.0 
0.0 0.0 0.0 
-5.369090446710e-04 2.066870671713e-03 0.0 
2.066870671713e-03 3.350673993172e-03 0.0 
0.0 0.0 0.0 
-5.182982741445e-04 -5.276789412980e-04 0.0 
-5.276789412980e-04 9.604468232400e-04 0.0 
0.0 0.0 0.0 
-7.530286817951e-04 7.942621350208e-04 0.0 
7.942621350208e-04 5.862967316163e-03 0.0 
0.0 0.0 0.0 
-5.340962218252e-04 5.346673456263e-05 0.0 
5.346673456263e-05 6.489437155393e-03 0.0 
0.0 0.0 0.0 
-5.206357939070e-04 4.386802959551e-05 0.0 
4.386802959551e-05 6.473460163385e-03 0.0 
0.0 0.0 0.0 
4.585505095251e-04 -4.294284042729e-06 0.0 
-4.294284042729e-06 -9.155118236692e-05 0.0 
0.0 0.0 0.0 
2.681143106766e-04 -2.014586195146e-05 0.0 
-2.014586195146e-05 2.767790647433e-04 0.0 
0.0 0.0 0.0 
1.641126221641e-04 -3.759357587368e-05 0.0 
-3.759357587368e-05 6.831634309521e-04 0.0 
0.0 0.0 0.0 
-4.004055028310e-04 -7.016932964578e-04 0.0 
-7.016932964578e-04 2.014998435260e-03 0.0 
0.0 0.0 0.0 
4.913023376232e-04 -1.393883655067e-05 0.0 
-1.393883655067e-05 1.999850961198e-04 0.0 
0.0 0.0 0.0 
-3.629911002646e-04 -8.783282781303e-05 0.0 
-8.783282781303e-05 3.971539411939e-03 0.0 
0.0 0.0 0.0 
-9.622419097122e-04 -1.070797248509e-03 0.0 
-1.070797248509e-03 -2.015911732700e-03 0.0 
0.0 0.0 0.0 
-3.344769977298e-04 -7.573854484976e-04 0.0 
-7.573854484976e-04 2.330671700778e-03 0.0 
0.0 0.0 0.0 
-3.722114415643e-04 5.847713174930e-05 0.0 
5.847713174930e-05 7.875917522361e-03 0.0 
0.0 0.0 0.0 
-5.916194516806e-04 1.161396340398e-04 0.0 
1.161396340398e-04 6.444681177076e-03 0.0 
0.0 0.0 0.0 
-2.402921495287e-04 1.092822529614e-03 0.0 
1.092822529614e-03 8.061120975542e-03 0.0 
0.0 0.0 0.0 
5.844108023896e-04 -3.216522988922e-04 0.0 
-3.216522988922e-04 4.438653862912e-03 0.0 
0.0 0.0 0.0 
-3.975747464473e-04 4.405284938937e-05 0.0 
4.405284938937e-05 7.515113204956e-03 0.0 
0.0 0.0 0.0 
-3.373613469121e-04 -1.520672830810e-05 0.0 
-1.520672830810e-05 3.030170815522e-03 0.0 
0.0 0.0 0.0 
3.281979532332e-04 -4.167136058782e-05 0.0 
-4.167136058782e-05 6.242852755478e-04 0.0 
0.0 0.0 0.0 
0.0 3.464693026195e-04 0.0 
3.464693026195e-04 9.991682054510e-03 0.0 
0.0 0.0 0.0 
-9.726623818984e-05 3.879075653320e-04 0.0 
3.879075653320e-04 9.976697567021e-03 0.0 
0.0 0.0 0.0 
-5.215958390404e-04 1.972007822145e-04 0.0 
1.972007822145e-04 7.290736273035e-03 0.0 
0.0 0.0 0.0 
-5.681070868502e-04 6.852737302474e-05 0.0 
6.852737302474e-05 6.478761161612e-03 0.0 
0.0 0.0 0.0 
-3.306400044203e-04 -1.195265433265e-04 0.0 
-1.195265433265e-04 3.057872391860e-03 0.0 
0.0 0.0 0.0 
-8.259514446096e-05 2.723202241758e-04 0.0 
2.723202241758e-04 1.002186398640e-02 0.0 
0.0 0.0 0.0 
-3.054658417113e-04 -8.193367446703e-04 0.0 
-8.193367446703e-04 2.091149140554e-03 0.0 
0.0 0.0 0.0 
-6.165068642784e-04 1.494222821244e-04 0.0 
1.494222821244e-04 6.424770206752e-03 0.0 
0.0 0.0 0.0 
-5.846417923998e-04 9.484938223493e-05 0.0 
9.484938223493e-05 6.467521997144e-03 0.0 
0.0 0.0 0.0 
-7.225493313049e-04 5.809706799087e-04 0.0 
5.809706799087e-04 5.849017381582e-03 0.0 
0.0 0.0 0.0 
0.0 7.275868954146e-04 0.0 
7.275868954146e-04 9.761680366187e-03 0.0 
0.0 0.0 0.0 
-8.705527787123e-05 3.329491045341e-04 0.0 
3.329491045341e-04 1.000501592024e-02 0.0 
0.0 0.0 0.0 
4.824503835072e-04 -1.579134989886e-05 0.0 
-1.579134989886e-05 1.998062489119e-04 0.0 
0.0 0.0 0.0 
4.824395165584e-04 -4.130831600456e-06 0.0 
-4.130831600456e-06 -9.537651077896e-05 0.0 
0.0 0.0 0.0 
-4.683773875302e-04 -4.929350860542e-04 0.0 
-4.929350860542e-04 1.148343938630e-03 0.0 
0.0 0.0 0.0 
8.214805990603e-05 -6.559281907378e-04 0.0 
-6.559281907378e-04 3.707159682780e-03 0.0 
0.0 0.0 0.0 
-1.236525308932e-04 -4.194198472408e-06 0.0 
-4.194198472408e-06 6.991182240097e-03 0.0 
0.0 0.0 0.0 
-2.749194153980e-03 -1.934152769778e-03 0.0 
-1.934152769778e-03 -2.388073908598e-03 0.0 
0.0 0.0 0.0 
-2.901379346413e-04 -2.488272647693e-06 0.0 
-2.488272647693e-06 8.718321739579e-03 0.0 
0.0 0.0 0.0 
-1.242200993104e-03 -8.219269526819e-04 0.0 
-8.219269526819e-04 5.784526892876e-04 0.0 
0.0 0.0 0.0 
1.088269530383e-03 1.379072844581e-04 0.0 
1.379072844581e-04 3.782129154072e-03 0.0 
0.0 0.0 0.0 
-2.785214293133e-04 -5.447585634470e-04 0.0 
-5.447585634470e-04 -6.202220340434e-05 0.0 
0.0 0.0 0.0 
-1.277196074984e-03 -2.042005923407e-03 0.0 
-2.042005923407e-03 -8.972879743404e-04 0.0 
0.0 0.0 0.0 
1.088889673715e-03 -5.446573729855e-05 0.0 
-5.446573729855e-05 3.533289388974e-03 0.0 
0.0 0.0 0.0 
-9.073653621916e-05 -9.772117524944e-05 0.0 
-9.772117524944e-05 6.713251076749e-03 0.0 
0.0 0.0 0.0 
-3.983449217403e-04 2.777387418688e-05 0.0 
2.777387418688e-05 7.847316750973e-03 0.0 
0.0 0.0 0.0 
-6.840388680971e-04 9.424563186443e-04 0.0 
9.424563186443e-04 5.852175349158e-03 0.0 
0.0 0.0 0.0 
3.284474837626e-04 -1.461718119838e-05 0.0 
-1.461718119838e-05 2.516155286902e-04 0.0 
0.0 0.0 0.0 
-1.083611142393e-04 -3.478819601011e-04 0.0 
-3.478819601011e-04 5.038325318331e-03 0.0 
0.0 0.0 0.0 
0.0 1.068333927956e-04 0.0 
1.068333927956e-04 1.004014164070e-02 0.0 
0.0 0.0 0.0 
-7.566656004210e-05 1.090669686703e-04 0.0 
1.090669686703e-04 1.005191944274e-02 0.0 
0.0 0.0 0.0 
-5.649690493850e-04 8.893557274218e-05 0.0 
8.893557274218e-05 6.454139669996e-03 0.0 
0.0 0.0 0.0 
1.049263493708e-03 3.173716840608e-04 0.0 
3.173716840608e-04 4.079403933720e-03 0.0 
0.0 0.0 0.0 
0.0 2.946092102569e-04 0.0 
2.946092102569e-04 1.001924536836e-02 0.0 
0.0 0.0 0.0 
3.694888500336e-04 1.169734604078e-03 0.0 
1.169734604078e-03 5.920137023080e-03 0.0 
0.0 0.0 0.0 
3.336287336160e-04 -1.558057072120e-05 0.0 
-1.558057072120e-05 5.998600668791e-04 0.0 
0.0 0.0 0.0 
5.052847411371e-04 -1.472766320322e-05 0.0 
-1.472766320322e-05 1.929655822328e-04 0.0 
0.0 0.0 0.0 
3.389816329524e-04 -1.977444839001e-06 0.0 
-1.977444839001e-06 2.532549165197e-04 0.0 
0.0 0.0 0.0 
-3.593322083619e-04 -1.487410330964e-05 0.0 
-1.487410330964e-05 3.414390958880e-03 0.0 
0.0 0.0 0.0 
-4.356137530426e-05 -1.301814280177e-04 0.0 
-1.301814280177e-04 7.549871139748e-03 0.0 
0.0 0.0 0.0 
-1.264606652943e-04 -2.774045230104e-05 0.0 
-2.774045230104e-05 9.668917315046e-03 0.0 
0.0 0.0 0.0 
5.058510585032e-04 -2.959106237890e-06 0.0 
-2.959106237890e-06 -1.111722802771e-04 0.0 
0.0 0.0 0.0 
-3.627170583953e-04 -6.512226182052e-05 0.0 
-6.512226182052e-05 3.971506658334e-03 0.0 
0.0 0.0 0.0 
0.0 -8.573510606617e-05 0.0 
-8.573510606617e-05 7.590503514878e-03 0.0 
0.0 0.0 0.0 
-4.164789530792e-05 -1.314561972938e-04 0.0 
-1.314561972938e-04 7.512805808260e-03 0.0 
0.0 0.0 0.0 
1.378447247999e-04 3.620410961710e-06 0.0 
3.620410961710e-06 7.151477337502e-03 0.0 
0.0 0.0 0.0 
-3.337666269205e-04 4.900145383385e-05 0.0 
4.900145383385e-05 8.335437582654e-03 0.0 
0.0 0.0 0.0 
-2.584890337172e-04 -2.787880225956e-05 0.0 
-2.787880225956e-05 8.915677336864e-03 0.0 
0.0 0.0 0.0 
0.0 -1.107665204681e-04 0.0 
-1.107665204681e-04 7.522949945882e-03 0.0 
0.0 0.0 0.0 
0.0 -1.343152507360e-04 0.0 
-1.343152507360e-04 7.502224527039e-03 0.0 
0.0 0.0 0.0 
-2.829327595342e-04 4.830630886381e-05 0.0 
4.830630886381e-05 8.720111102168e-03 0.0 
0.0 0.0 0.0 
7.136485741215e-04 2.308367056022e-05 0.0 
2.308367056022e-05 -2.017790986255e-04 0.0 
0.0 0.0 0.0 
-4.807068285012e-04 2.535368843904e-05 0.0 
2.535368843904e-05 6.461106127437e-03 0.0 
0.0 0.0 0.0 
-5.438355663206e-04 7.004483418448e-05 0.0 
7.004483418448e-05 6.473523398667e-03 0.0 
0.0 0.0 0.0 
4.914063782204e-04 -8.265068665841e-07 0.0 
-8.265068665841e-07 -9.869627540904e-05 0.0 
0.0 0.0 0.0 
0.0 -1.314418310578e-04 0.0 
-1.314418310578e-04 7.369606081731e-03 0.0 
0.0 0.0 0.0 
9.016907171699e-05 -6.188079914590e-05 0.0 
-6.188079914590e-05 7.192014786628e-03 0.0 
0.0 0.0 0.0 
0.0 -6.798884183798e-05 0.0 
-6.798884183798e-05 7.212579448703e-03 0.0 
0.0 0.0 0.0 
6.645424778575e-04 2.608955629597e-06 0.0 
2.608955629597e-06 -1.593564929345e-04 0.0 
0.0 0.0 0.0 
6.655537072331e-04 -2.357073591073e-06 0.0 
-2.357073591073e-06 -1.584756573111e-04 0.0 
0.0 0.0 0.0 
0.0 6.037267909423e-05 0.0 
6.037267909423e-05 7.131893704535e-03 0.0 
0.0 0.0 0.0 
0.0 -1.603086099332e-05 0.0 
-1.603086099332e-05 7.169495381586e-03 0.0 
0.0 0.0 0.0 
-3.587796610678e-04 -3.143500851727e-05 0.0 
-3.143500851727e-05 8.137291252955e-03 0.0 
0.0 0.0 0.0 
-4.434933636116e-04 1.307735044146e-05 0.0 
1.307735044146e-05 6.450350458013e-03 0.0 
0.0 0.0 0.0 
-3.088125251605e-04 -2.983353283237e-05 0.0 
-2.983353283237e-05 8.528721448335e-03 0.0 
0.0 0.0 0.0 
-4.139007422850e-04 -3.214303377966e-05 0.0 
-3.214303377966e-05 7.329278991068e-03 0.0 
0.0 0.0 0.0 
-4.240954693896e-04 4.974957827251e-06 0.0 
4.974957827251e-06 6.446556120447e-03 0.0 
0.0 0.0 0.0 
7.536162281647e-04 -9.886986138667e-06 0.0 
-9.886986138667e-06 -1.789994396263e-04 0.0 
0.0 0.0 0.0 
7.087473409801e-04 -1.391698270614e-05 0.0 
-1.391698270614e-05 -1.416912676357e-04 0.0 
0.0 0.0 0.0 
6.657938534154e-04 -2.660006779965e-05 0.0 
-2.660006779965e-05 -1.470597857036e-04 0.0 
0.0 0.0 0.0 
7.054083059062e-04 -3.204098319724e-05 0.0 
-3.204098319724e-05 -1.506830965587e-04 0.0 
0.0 0.0 0.0 
-3.610517847306e-04 -4.198193779913e-06 0.0 
-4.198193779913e-06 4.169255610001e-03 0.0 
0.0 0.0 0.0 
-3.643029111760e-04 -1.195404014791e-05 0.0 
-1.195404014791e-05 3.790903014945e-03 0.0 
0.0 0.0 0.0 
1.740332727933e-04 -1.026377509000e-05 0.0 
-1.026377509000e-05 3.232839429201e-05 0.0 
0.0 0.0 0.0 
-2.937095794266e-04 6.285820630256e-06 0.0 
6.285820630256e-06 5.268756483219e-03 0.0 
0.0 0.0 0.0 
1.067147077252e-04 -3.477668474020e-05 0.0 
-3.477668474020e-05 5.338457871051e-05 0.0 
0.0 0.0 0.0 
0.0 5.913276427140e-04 0.0 
5.913276427140e-04 9.862428176942e-03 0.0 
0.0 0.0 0.0 
0.0 2.463827962851e-04 0.0 
2.463827962851e-04 1.002440069824e-02 0.0 
0.0 0.0 0.0 
0.0 4.060917328161e-04 0.0 
4.060917328161e-04 9.960634819298e-03 0.0 
0.0 0.0 0.0 
3.926451226732e-05 -5.966140339014e-06 0.0 
-5.966140339014e-06 1.294352741094e-03 0.0 
0.0 0.0 0.0 
-2.876248514000e-04 -1.389553161837e-05 0.0 
-1.389553161837e-05 2.628951169494e-03 0.0 
0.0 0.0 0.0 
0.0 1.935729552947e-04 0.0 
1.935729552947e-04 1.002264591855e-02 0.0 
0.0 0.0 0.0 
-1.915504091392e-04 1.493832208348e-05 0.0 
1.493832208348e-05 6.425013137707e-03 0.0 
0.0 0.0 0.0 
0.0 1.506709889435e-04 0.0 
1.506709889435e-04 1.007224077116e-02 0.0 
0.0 0.0 0.0 
-1.511798846757e-04 2.031586699311e-05 0.0 
2.031586699311e-05 6.814361646024e-03 0.0 
0.0 0.0 0.0 
-1.012041175896e-04 2.592687626173e-05 0.0 
2.592687626173e-05 7.201017546891e-03 0.0 
0.0 0.0 0.0 
-3.618084389555e-04 -6.580613093653e-05 0.0 
-6.580613093653e-05 3.598297553462e-03 0.0 
0.0 0.0 0.0 
-9.306108784302e-05 2.180146246652e-04 0.0 
2.180146246652e-04 1.002348376056e-02 0.0 
0.0 0.0 0.0 
-7.557636558531e-05 1.991693512023e-04 0.0 
1.991693512023e-04 1.004142549876e-02 0.0 
0.0 0.0 0.0 
-1.695344648267e-04 -5.570871434629e-05 0.0 
-5.570871434629e-05 6.592804689898e-03 0.0 
0.0 0.0 0.0 
-1.256457588075e-04 -5.552206003074e-05 0.0 
-5.552206003074e-05 6.994089183474e-03 0.0 
0.0 0.0 0.0 
-1.905331354082e-04 -2.136915613983e-04 0.0 
-2.136915613983e-04 5.533614547985e-03 0.0 
0.0 0.0 0.0 
-7.295100389544e-04 -2.646820029225e-04 0.0 
-2.646820029225e-04 4.123101825473e-04 0.0 
0.0 0.0 0.0 
-2.831583419767e-04 -4.795432182265e-04 0.0 
-4.795432182265e-04 3.454358576152e-03 0.0 
0.0 0.0 0.0 
4.595709174877e-04 -2.786872689865e-05 0.0 
-2.786872689865e-05 2.131725140377e-04 0.0 
0.0 0.0 0.0 
8.395664274374e-05 -1.999837686636e-04 0.0 
-1.999837686636e-04 6.296411705952e-03 0.0 
0.0 0.0 0.0 
-1.630800711941e-04 -5.766416551343e-04 0.0 
-5.766416551343e-04 3.561979847294e-03 0.0 
0.0 0.0 0.0 
-7.071609733578e-05 -1.600502968774e-04 0.0 
-1.600502968774e-04 6.083268570749e-03 0.0 
0.0 0.0 0.0 
-3.279563572347e-04 -7.230979705769e-04 0.0 
-7.230979705769e-04 1.798859557722e-03 0.0 
0.0 0.0 0.0 
1.391905138703e-06 -1.272623480153e-04 0.0 
-1.272623480153e-04 7.329413361548e-04 0.0 
0.0 0.0 0.0 
-9.519652043344e-05 -1.732778266282e-04 0.0 
-1.732778266282e-04 6.490337903384e-03 0.0 
0.0 0.0 0.0 
-2.536258618013e-04 -4.531207455101e-04 0.0 
-4.531207455101e-04 3.807415968852e-03 0.0 
0.0 0.0 0.0 
-3.559941493493e-04 -8.871054971511e-05 0.0 
-8.871054971511e-05 3.222521312743e-03 0.0 
0.0 0.0 0.0 
-1.152144869017e-04 -2.002718305411e-04 0.0 
-2.002718305411e-04 6.089933842595e-03 0.0 
0.0 0.0 0.0 
-1.925349022738e-04 1.134093968285e-04 0.0 
1.134093968285e-04 9.252164194347e-03 0.0 
0.0 0.0 0.0 
-3.482694225112e-04 -6.054177940223e-05 0.0 
-6.054177940223e-05 3.223053596504e-03 0.0 
0.0 0.0 0.0 
5.994513382446e-04 -1.953291130455e-04 0.0 
-1.953291130455e-04 4.770871313796e-03 0.0 
0.0 0.0 0.0 
2.485717485978e-04 -4.366484740375e-04 0.0 
-4.366484740375e-04 4.560500191154e-03 0.0 
0.0 0.0 0.0 
-1.432151632509e-04 -1.891551249718e-04 0.0 
-1.891551249718e-04 5.529550774539e-03 0.0 
0.0 0.0 0.0 
-1.773511745327e-04 -1.320579753237e-04 0.0 
-1.320579753237e-04 5.755916371746e-03 0.0 
0.0 0.0 0.0 
1.771886994708e-03 1.249295106611e-03 0.0 
1.249295106611e-03 2.970109249560e-04 0.0 
0.0 0.0 0.0 
-7.487620407827e-04 8.950523739348e-04 0.0 
8.950523739348e-04 5.575538222997e-03 0.0 
0.0 0.0 0.0 
3.880049140088e-04 1.632137376208e-03 0.0 
1.632137376208e-03 3.963191244941e-03 0.0 
0.0 0.0 0.0 
-3.405493439890e-05 -3.205115946144e-04 0.0 
-3.205115946144e-04 5.033666197404e-03 0.0 
0.0 0.0 0.0 
-1.399303731291e-04 -1.601813611384e-04 0.0 
-1.601813611384e-04 6.324439271365e-03 0.0 
0.0 0.0 0.0 
-1.978634800898e-04 -7.789784814134e-05 0.0 
-7.789784814134e-05 5.970091060092e-03 0.0 
0.0 0.0 0.0 
-3.774237850155e-04 -1.272444851568e-03 0.0 
-1.272444851568e-03 1.624606781444e-03 0.0 
0.0 0.0 0.0 
-2.071794875859e-04 1.827166910457e-04 0.0 
1.827166910457e-04 9.222360278437e-03 0.0 
0.0 0.0 0.0 
-2.751578841630e-04 1.609916203131e-04 0.0 
1.609916203131e-04 8.845596764455e-03 0.0 
0.0 0.0 0.0 
-4.433888359252e-04 7.734310911924e-05 0.0 
7.734310911924e-05 7.025259559454e-03 0.0 
0.0 0.0 0.0 
5.114105391790e-05 -3.162710030014e-04 0.0 
-3.162710030014e-04 5.158726747341e-03 0.0 
0.0 0.0 0.0 
-9.588624178902e-05 -2.526198921615e-04 0.0 
-2.526198921615e-04 5.290035624002e-03 0.0 
0.0 0.0 0.0 
-2.214332194436e-04 6.421761409980e-05 0.0 
6.421761409980e-05 9.266603511509e-03 0.0 
0.0 0.0 0.0 
-2.420956279274e-04 1.396985632148e-04 0.0 
1.396985632148e-04 9.054401166990e-03 0.0 
0.0 0.0 0.0 
2.373086896195e-04 -5.536208962745e-04 0.0 
-5.536208962745e-04 4.242093585004e-03 0.0 
0.0 0.0 0.0 
-1.090624042813e-04 -1.425069346703e-04 0.0 
-1.425069346703e-04 6.717314619860e-03 0.0 
0.0 0.0 0.0 
-3.246437249653e-04 2.783526947228e-04 0.0 
2.783526947228e-04 8.746021384450e-03 0.0 
0.0 0.0 0.0 
-2.163854009032e-04 -1.002566419078e-04 0.0 
-1.002566419078e-04 5.970070025641e-03 0.0 
0.0 0.0 0.0 
3.203185637957e-05 -1.969386051638e-04 0.0 
-1.969386051638e-04 6.589152234571e-03 0.0 
0.0 0.0 0.0 
-2.385448552367e-04 1.319648431344e-04 0.0 
1.319648431344e-04 9.230980332330e-03 0.0 
0.0 0.0 0.0 
-3.953074629486e-04 9.781249519111e-05 0.0 
9.781249519111e-05 8.251803128262e-03 0.0 
0.0 0.0 0.0 
5.384987969648e-04 -3.119466170491e-04 0.0 
-3.119466170491e-04 4.597223087470e-03 0.0 
0.0 0.0 0.0 
-2.547503337319e-04 -2.467045535016e-04 0.0 
-2.467045535016e-04 2.008462155859e-03 0.0 
0.0 0.0 0.0 
-3.966993461222e-04 -1.524711641716e-03 0.0 
-1.524711641716e-03 1.327164092845e-03 0.0 
0.0 0.0 0.0 
-2.138107542721e-04 -3.737974878312e-04 0.0 
-3.737974878312e-04 9.380794724714e-04 0.0 
0.0 0.0 0.0 
-7.346124038841e-04 -1.279457405028e-03 0.0 
-1.279457405028e-03 9.764176512861e-05 0.0 
0.0 0.0 0.0 
-2.588349218053e-04 9.012589158820e-05 0.0 
9.012589158820e-05 9.059262881470e-03 0.0 
0.0 0.0 0.0 
-1.276054269211e-04 -7.923084423948e-05 0.0 
-7.923084423948e-05 6.533993123706e-03 0.0 
0.0 0.0 0.0 
-3.374205727318e-04 -7.320730423003e-04 0.0 
-7.320730423003e-04 2.717536706724e-04 0.0 
0.0 0.0 0.0 
-3.965573654328e-04 8.338431576459e-04 0.0 
8.338431576459e-04 8.604380414815e-03 0.0 
0.0 0.0 0.0 
-4.411712453323e-04 9.444100791902e-05 0.0 
9.444100791902e-05 7.216613341675e-03 0.0 
0.0 0.0 0.0 
-7.587974553347e-05 -2.461224139411e-04 0.0 
-2.461224139411e-04 5.842444142186e-03 0.0 
0.0 0.0 0.0 
-1.532636181005e-04 -1.021819616161e-04 0.0 
-1.021819616161e-04 6.141325126441e-03 0.0 
0.0 0.0 0.0 
4.548339979282e-04 -1.429573673160e-03 0.0 
-1.429573673160e-03 1.539813084219e-03 0.0 
0.0 0.0 0.0 
-1.829070537633e-04 -1.372389335174e-04 0.0 
-1.372389335174e-04 6.146519412108e-03 0.0 
0.0 0.0 0.0 
-4.655669321412e-04 7.799620450565e-06 0.0 
7.799620450565e-06 7.023718248132e-03 0.0 
0.0 0.0 0.0 
9.346717913306e-04 7.535770005965e-04 0.0 
7.535770005965e-04 4.564994944011e-03 0.0 
0.0 0.0 0.0 
1.285516029870e-05 -1.194474582163e-04 0.0 
-1.194474582163e-04 6.852007487934e-03 0.0 
0.0 0.0 0.0 
-1.877551295073e-04 -1.256336032421e-04 0.0 
-1.256336032421e-04 1.938359497643e-03 0.0 
0.0 0.0 0.0 
1.207769223877e-04 -1.698913076326e-04 0.0 
-1.698913076326e-04 6.480836087596e-03 0.0 
0.0 0.0 0.0 
-3.570051166847e-04 8.877869680532e-05 0.0 
8.877869680532e-05 8.468220966663e-03 0.0 
0.0 0.0 0.0 
-2.599258677862e-04 -1.935735750346e-04 0.0 
-1.935735750346e-04 2.193543925471e-03 0.0 
0.0 0.0 0.0 
-2.070002944129e-04 -1.430212726336e-03 0.0 
-1.430212726336e-03 1.480036954305e-03 0.0 
0.0 0.0 0.0 
-2.997175297450e-04 -1.834322525448e-04 0.0 
-1.834322525448e-04 4.467387234826e-03 0.0 
0.0 0.0 0.0 
-4.284576145069e-04 1.584880043893e-04 0.0 
1.584880043893e-04 7.811156254673e-03 0.0 
0.0 0.0 0.0 
-2.733804484216e-04 -6.401382769414e-04 0.0 
-6.401382769414e-04 2.881610353586e-03 0.0 
0.0 0.0 0.0 
-3.187910686728e-04 7.331445996268e-05 0.0 
7.331445996268e-05 8.682379851085e-03 0.0 
0.0 0.0 0.0 
-3.973723716839e-04 6.109893423308e-05 0.0 
6.109893423308e-05 8.066480949287e-03 0.0 
0.0 0.0 0.0 
-1.719440281954e-04 -4.201454177550e-04 0.0 
-4.201454177550e-04 4.170002765814e-03 0.0 
0.0 0.0 0.0 
-2.127794709961e-04 -1.544847214878e-04 0.0 
-1.544847214878e-04 5.757558585642e-03 0.0 
0.0 0.0 0.0 
-1.657857801561e-04 -1.849341784573e-04 0.0 
-1.849341784573e-04 5.926216085489e-03 0.0 
0.0 0.0 0.0 
-3.292512413885e-04 1.400515843788e-04 0.0 
1.400515843788e-04 8.460792859167e-03 0.0 
0.0 0.0 0.0 
-1.643724656962e-04 -2.882256649024e-04 0.0 
-2.882256649024e-04 1.639693606931e-03 0.0 
0.0 0.0 0.0 
-2.475467819389e-04 -3.673664562628e-04 0.0 
-3.673664562628e-04 4.044190057130e-03 0.0 
0.0 0.0 0.0 
5.056104526708e-04 1.049082455202e-03 0.0 
1.049082455202e-03 5.994178158050e-03 0.0 
0.0 0.0 0.0 
-3.470709241248e-04 1.261898791335e-04 0.0 
1.261898791335e-04 8.639177720720e-03 0.0 
0.0 0.0 0.0 
-2.788334790103e-04 -3.964936922280e-04 0.0 
-3.964936922280e-04 3.680874135042e-03 0.0 
0.0 0.0 0.0 
1.320404896796e-04 -4.861820527273e-04 0.0 
-4.861820527273e-04 4.569193843792e-03 0.0 
0.0 0.0 0.0 
1.937603908844e-04 -1.642168002439e-04 0.0 
-1.642168002439e-04 6.204444246351e-03 0.0 
0.0 0.0 0.0 
-3.603512965438e-04 1.474636365413e-04 0.0 
1.474636365413e-04 8.245894448852e-03 0.0 
0.0 0.0 0.0 
1.662467961373e-03 -6.522447760723e-04 0.0 
-6.522447760723e-04 -4.492358300185e-03 0.0 
0.0 0.0 0.0 
-1.398731397717e-05 -2.066493984077e-04 0.0 
-2.066493984077e-04 8.549850973472e-04 0.0 
0.0 0.0 0.0 
2.657946457511e-03 4.672458589867e-04 0.0 
4.672458589867e-04 -3.028132024584e-03 0.0 
0.0 0.0 0.0 
-1.079966718363e-04 -1.178855971703e-04 0.0 
-1.178855971703e-04 6.317870607308e-03 0.0 
0.0 0.0 0.0 
-3.962543615041e-04 1.544132876957e-04 0.0 
1.544132876957e-04 8.030033806836e-03 0.0 
0.0 0.0 0.0 
-3.019382331899e-04 -1.612455623668e-04 0.0 
-1.612455623668e-04 4.831962657199e-03 0.0 
0.0 0.0 0.0 
-4.518718687914e-04 1.213795114693e-04 0.0 
1.213795114693e-04 7.411839214633e-03 0.0 
0.0 0.0 0.0 
5.198114997147e-04 1.341077906075e-05 0.0 
1.341077906075e-05 5.517973796653e-03 0.0 
0.0 0.0 0.0 
-2.170461559370e-04 -3.256143231629e-04 0.0 
-3.256143231629e-04 4.407477229382e-03 0.0 
0.0 0.0 0.0 
-1.244532810577e-04 -1.500212941368e-04 0.0 
-1.500212941368e-04 5.920626422738e-03 0.0 
0.0 0.0 0.0 
-1.809565075729e-04 -2.017982681815e-04 0.0 
-2.017982681815e-04 2.000710507733e-03 0.0 
0.0 0.0 0.0 
6.072307352722e-05 -1.287194045850e-04 0.0 
-1.287194045850e-04 6.591973716646e-03 0.0 
0.0 0.0 0.0 
-2.299743512136e-04 -4.157791686393e-04 0.0 
-4.157791686393e-04 4.169674965361e-03 0.0 
0.0 0.0 0.0 
-2.045961606280e-04 -1.564619164451e-04 0.0 
-1.564619164451e-04 2.187439145721e-03 0.0 
0.0 0.0 0.0 
-2.862896661918e-04 -3.555569782738e-04 0.0 
-3.555569782738e-04 4.042518943412e-03 0.0 
0.0 0.0 0.0 
-2.912196240019e-04 -5.245283887190e-04 0.0 
-5.245283887190e-04 3.108473003302e-03 0.0 
0.0 0.0 0.0 
-2.962484346405e-04 -6.887432278200e-04 0.0 
-6.887432278200e-04 2.319716676082e-03 0.0 
0.0 0.0 0.0 
-2.737540796058e-04 -1.579958630596e-04 0.0 
-1.579958630596e-04 4.831070531242e-03 0.0 
0.0 0.0 0.0 
4.006564500367e-04 3.824773819257e-05 0.0 
3.824773819257e-05 -6.072158662362e-05 0.0 
0.0 0.0 0.0 
3.271655656241e-04 -1.696609446365e-05 0.0 
-1.696609446365e-05 -1.801815350500e-05 0.0 
0.0 0.0 0.0 
-1.557942460406e-04 -2.788819373916e-04 0.0 
-2.788819373916e-04 5.294422276247e-03 0.0 
0.0 0.0 0.0 
-1.601828456260e-04 -2.405864937950e-04 0.0 
-2.405864937950e-04 1.821480486307e-03 0.0 
0.0 0.0 0.0 
-3.144601017402e-05 -3.547108906618e-04 0.0 
-3.547108906618e-04 5.165118635857e-03 0.0 
0.0 0.0 0.0 
4.242921080522e-05 -4.191231134657e-04 0.0 
-4.191231134657e-04 4.876793141771e-03 0.0 
0.0 0.0 0.0 
-4.296263824299e-05 -8.262100000339e-04 0.0 
-8.262100000339e-04 3.011272503829e-03 0.0 
0.0 0.0 0.0 
4.934247538178e-04 -1.810810552954e-03 0.0 
-1.810810552954e-03 7.184381737959e-04 0.0 
0.0 0.0 0.0 
-3.193352575314e-04 2.183850624834e-04 0.0 
2.183850624834e-04 8.964740533020e-03 0.0 
0.0 0.0 0.0 
1.266066572444e-03 2.452044150933e-03 0.0 
2.452044150933e-03 -2.684515755298e-03 0.0 
0.0 0.0 0.0 
-3.094718789850e-04 -4.205278746208e-04 0.0 
-4.205278746208e-04 3.323615676230e-03 0.0 
0.0 0.0 0.0 
4.983663750779e-04 1.483906673812e-04 0.0 
1.483906673812e-04 5.749773698789e-03 0.0 
0.0 0.0 0.0 
-1.609056030890e-04 -1.870091476286e-04 0.0 
-1.870091476286e-04 1.578289280556e-03 0.0 
0.0 0.0 0.0 
-4.630856511156e-04 7.543858103871e-05 0.0 
7.543858103871e-05 7.638544255421e-03 0.0 
0.0 0.0 0.0 
-4.802335426157e-04 3.817614905181e-05 0.0 
3.817614905181e-05 7.224312048910e-03 0.0 
0.0 0.0 0.0 
-2.955584923161e-04 -5.689031459090e-04 0.0 
-5.689031459090e-04 1.483458011173e-03 0.0 
0.0 0.0 0.0 
2.853718847848e-04 -1.444825552897e-04 0.0 
-1.444825552897e-04 5.898985480817e-03 0.0 
0.0 0.0 0.0 
-4.287125290945e-04 1.941488828550e-04 0.0 
1.941488828550e-04 8.374643271186e-03 0.0 
0.0 0.0 0.0 
-2.645545771635e-04 -3.013404185678e-04 0.0 
-3.013404185678e-04 1.834747149988e-03 0.0 
0.0 0.0 0.0 
-3.025663000580e-04 2.735920329086e-04 0.0 
2.735920329086e-04 9.115158202729e-03 0.0 
0.0 0.0 0.0 
-2.546944095290e-04 3.147741341770e-04 0.0 
3.147741341770e-04 9.108439556805e-03 0.0 
0.0 0.0 0.0 
-2.406349434636e-04 -3.724823428581e-04 0.0 
-3.724823428581e-04 2.027684386157e-03 0.0 
0.0 0.0 0.0 
-6.394369625728e-04 1.799700470637e-03 0.0 
1.799700470637e-03 3.826137767813e-03 0.0 
0.0 0.0 0.0 
-3.033780564459e-04 -6.170134447024e-04 0.0 
-6.170134447024e-04 2.001194597631e-03 0.0 
0.0 0.0 0.0 
-1.346084655287e-04 -2.364831071981e-04 0.0 
-2.364831071981e-04 5.689596010144e-03 0.0 
0.0 0.0 0.0 
-2.512758778223e-04 -2.377839325792e-04 0.0 
-2.377839325792e-04 4.628170844477e-03 0.0 
0.0 0.0 0.0 
-3.260467999372e-04 7.482659299608e-04 0.0 
7.482659299608e-04 8.794738531668e-03 0.0 
0.0 0.0 0.0 
-2.779831600808e-04 2.628665666912e-04 0.0 
2.628665666912e-04 8.959376248595e-03 0.0 
0.0 0.0 0.0 
-9.016540429785e-05 -2.936036766211e-04 0.0 
-2.936036766211e-04 5.436190284428e-03 0.0 
0.0 0.0 0.0 
-2.302106640562e-05 -2.578586060368e-04 0.0 
-2.578586060368e-04 5.430324505922e-03 0.0 
0.0 0.0 0.0 
-4.237952679000e-04 -5.945354110963e-04 0.0 
-5.945354110963e-04 1.677853559189e-03 0.0 
0.0 0.0 0.0 
-8.136439455442e-05 -2.023886379007e-04 0.0 
-2.023886379007e-04 5.684065522875e-03 0.0 
0.0 0.0 0.0 
-3.818046219951e-04 2.384368072721e-04 0.0 
2.384368072721e-04 8.369311903764e-03 0.0 
0.0 0.0 0.0 
-2.863998822351e-04 -2.359876514717e-04 0.0 
-2.359876514717e-04 4.628103302685e-03 0.0 
0.0 0.0 0.0 
-4.327201287709e-04 1.062661656737e-04 0.0 
1.062661656737e-04 8.035759755127e-03 0.0 
0.0 0.0 0.0 
-3.822439444979e-04 1.834177932809e-04 0.0 
1.834177932809e-04 8.590538884940e-03 0.0 
0.0 0.0 0.0 
1.300689384181e-03 1.183367128176e-03 0.0 
1.183367128176e-03 2.263188749359e-03 0.0 
0.0 0.0 0.0 
-2.970857276909e-04 2.169839850340e-04 0.0 
2.169839850340e-04 8.799696682524e-03 0.0 
0.0 0.0 0.0 
-3.068205542660e-04 -3.018666957694e-04 0.0 
-3.018666957694e-04 3.915158281372e-03 0.0 
0.0 0.0 0.0 
-2.643398869012e-04 -3.223235994702e-04 0.0 
-3.223235994702e-04 4.407252118174e-03 0.0 
0.0 0.0 0.0 
-3.320392429879e-04 -4.190801826214e-04 0.0 
-4.190801826214e-04 2.972986975847e-03 0.0 
0.0 0.0 0.0 
-1.605871196686e-06 -1.112896659210e-03 0.0 
-1.112896659210e-03 2.361697169604e-03 0.0 
0.0 0.0 0.0 
-3.900080193298e-04 1.935074642453e-04 0.0 
1.935074642453e-04 8.202342277855e-03 0.0 
0.0 0.0 0.0 
4.939385264313e-04 -8.235653556684e-04 0.0 
-8.235653556684e-04 3.079943861368e-03 0.0 
0.0 0.0 0.0 
-2.886474032363e-04 -5.210830206789e-04 0.0 
-5.210830206789e-04 2.200610282344e-03 0.0 
0.0 0.0 0.0 
-1.872626398951e-04 -3.598282296946e-04 0.0 
-3.598282296946e-04 1.130549640389e-03 0.0 
0.0 0.0 0.0 
-4.314593596864e-04 1.475913531944e-04 0.0 
1.475913531944e-04 8.207842223045e-03 0.0 
0.0 0.0 0.0 
-3.657525888351e-04 -5.902738405476e-04 0.0 
-5.902738405476e-04 2.211792167825e-03 0.0 
0.0 0.0 0.0 
1.623221327638e-04 -9.862960174466e-05 0.0 
-9.862960174466e-05 6.473591570238e-03 0.0 
0.0 0.0 0.0 
-3.515082240818e-04 1.859222597737e-04 0.0 
1.859222597737e-04 8.418442309543e-03 0.0 
0.0 0.0 0.0 
-1.878802766575e-05 -2.029771373492e-04 0.0 
-2.029771373492e-04 5.835567666363e-03 0.0 
0.0 0.0 0.0 
2.142143449588e-04 4.958711551502e-04 0.0 
4.958711551502e-04 6.604158304599e-03 0.0 
0.0 0.0 0.0 
-3.029381118356e-04 -3.797017737512e-04 0.0 
-3.797017737512e-04 3.677619115001e-03 0.0 
0.0 0.0 0.0 
-3.367457428545e-04 -4.317718794446e-04 0.0 
-4.317718794446e-04 2.037407584097e-03 0.0 
0.0 0.0 0.0 
-3.765083243326e-04 -4.399047478029e-04 0.0 
-4.399047478029e-04 1.298058917212e-03 0.0 
0.0 0.0 0.0 
4.749317461883e-05 -3.443921783249e-04 0.0 
-3.443921783249e-04 5.291955809616e-03 0.0 
0.0 0.0 0.0 
-4.013716674637e-04 1.231234835033e-04 0.0 
1.231234835033e-04 7.853997701641e-03 0.0 
0.0 0.0 0.0 
-2.044180194658e-04 -2.829896048027e-04 0.0 
-2.829896048027e-04 8.764615761456e-04 0.0 
0.0 0.0 0.0 
-2.793601746448e-04 -5.958049778389e-04 0.0 
-5.958049778389e-04 2.874836807175e-03 0.0 
0.0 0.0 0.0 
-9.535832449603e-05 -1.191402109274e-04 0.0 
-1.191402109274e-04 1.761270162737e-03 0.0 
0.0 0.0 0.0 
-4.673875217797e-04 1.124570125939e-04 0.0 
1.124570125939e-04 7.816614916167e-03 0.0 
0.0 0.0 0.0 
-2.951899531326e-04 -4.884457459523e-04 0.0 
-4.884457459523e-04 3.102974928222e-03 0.0 
0.0 0.0 0.0 
1.417342605750e-04 -3.767347857486e-04 0.0 
-3.767347857486e-04 4.869455504903e-03 0.0 
0.0 0.0 0.0 
-3.166121814631e-04 -3.785020503379e-04 0.0 
-3.785020503379e-04 2.968711251060e-03 0.0 
0.0 0.0 0.0 
-3.040317247992e-04 1.097657373214e-04 0.0 
1.097657373214e-04 8.852400732587e-03 0.0 
0.0 0.0 0.0 
-3.267332683232e-04 -6.322161133988e-04 0.0 
-6.322161133988e-04 2.549519948974e-03 0.0 
0.0 0.0 0.0 
2.181446918581e-04 -3.543006004663e-04 0.0 
-3.543006004663e-04 5.116016377227e-03 0.0 
0.0 0.0 0.0 
-3.848841375675e-04 -1.395484338227e-03 0.0 
-1.395484338227e-03 1.306849676546e-03 0.0 
0.0 0.0 0.0 
1.327999610070e-04 -3.965525529364e-04 0.0 
-3.965525529364e-04 4.991106459438e-03 0.0 
0.0 0.0 0.0 
-3.107480205564e-04 -2.571045744392e-04 0.0 
-2.571045744392e-04 4.269695227209e-03 0.0 
0.0 0.0 0.0 
4.972789411117e-05 -2.483505721932e-04 0.0 
-2.483505721932e-04 5.568512788288e-03 0.0 
0.0 0.0 0.0 
2.085811121342e-03 -9.794014278300e-05 0.0 
-9.794014278300e-05 -4.704694821300e-04 0.0 
0.0 0.0 0.0 
-1.733060048502e-04 -1.560132701144e-04 0.0 
-1.560132701144e-04 1.771818281252e-03 0.0 
0.0 0.0 0.0 
-4.550693462286e-04 4.504723357145e-05 0.0 
4.504723357145e-05 7.454587924218e-03 0.0 
0.0 0.0 0.0 
1.004712609273e-03 -3.303412821065e-05 0.0 
-3.303412821065e-05 3.808000514123e-03 0.0 
0.0 0.0 0.0 
-2.439129656803e-04 1.551913801495e-03 0.0 
1.551913801495e-03 4.446506135216e-03 0.0 
0.0 0.0 0.0 
-4.317194304666e-04 7.014240480822e-05 0.0 
7.014240480822e-05 7.855738257295e-03 0.0 
0.0 0.0 0.0 
-1.670501442200e-04 -1.700310131911e-03 0.0 
-1.700310131911e-03 1.057048422918e-03 0.0 
0.0 0.0 0.0 
-4.616092488056e-04 2.473093902124e-04 0.0 
2.473093902124e-04 7.931331672682e-03 0.0 
0.0 0.0 0.0 
-7.361188844224e-05 -1.538001827536e-04 0.0 
-1.538001827536e-04 1.562642738639e-03 0.0 
0.0 0.0 0.0 
1.574407296407e-04 -2.159357223207e-04 0.0 
-2.159357223207e-04 6.029655291976e-03 0.0 
0.0 0.0 0.0 
9.983414010257e-04 1.547429304584e-04 0.0 
1.547429304584e-04 4.104074829148e-03 0.0 
0.0 0.0 0.0 
7.937967369460e-04 8.711082252570e-04 0.0 
8.711082252570e-04 5.030937982041e-03 0.0 
0.0 0.0 0.0 
-2.450542802841e-04 2.521597195705e-04 0.0 
2.521597195705e-04 9.337273103823e-03 0.0 
0.0 0.0 0.0 
4.983311912317e-04 -6.745251395589e-04 0.0 
-6.745251395589e-04 3.525550643121e-03 0.0 
0.0 0.0 0.0 
-2.862648348506e-04 -3.477516536982e-04 0.0 
-3.477516536982e-04 1.654124556036e-03 0.0 
0.0 0.0 0.0 
3.508188112911e-04 -4.964284833545e-04 0.0 
-4.964284833545e-04 4.337512056829e-03 0.0 
0.0 0.0 0.0 
2.372666016179e-04 -8.334982530836e-05 0.0 
-8.334982530836e-05 6.191659637712e-03 0.0 
0.0 0.0 0.0 
3.757343344224e-04 -1.661594130342e-03 0.0 
-1.661594130342e-03 1.031881136032e-03 0.0 
0.0 0.0 0.0 
-2.190836226335e-05 -2.939641691728e-04 0.0 
-2.939641691728e-04 5.575881355378e-03 0.0 
0.0 0.0 0.0 
-3.899173075508e-04 1.377508028528e-04 0.0 
1.377508028528e-04 8.424204365522e-03 0.0 
0.0 0.0 0.0 
8.083682786335e-04 -1.972246907056e-03 0.0 
-1.972246907056e-03 2.129265799566e-05 0.0 
0.0 0.0 0.0 
2.338204663848e-04 -4.482481914825e-04 0.0 
-4.482481914825e-04 4.673252060315e-03 0.0 
0.0 0.0 0.0 
-5.273041264956e-04 1.135430329644e-04 0.0 
1.135430329644e-04 7.369325329342e-03 0.0 
0.0 0.0 0.0 
-2.586034764130e-04 -2.462868984180e-04 0.0 
-2.462868984180e-04 2.407831293257e-03 0.0 
0.0 0.0 0.0 
-2.644506175266e-04 -7.178522656992e-04 0.0 
-7.178522656992e-04 2.635515101556e-03 0.0 
0.0 0.0 0.0 
2.971890580672e-05 1.447488819476e-03 0.0 
1.447488819476e-03 5.011138651550e-03 0.0 
0.0 0.0 0.0 
1.347426804670e-04 -2.951257760782e-04 0.0 
-2.951257760782e-04 5.283858283587e-03 0.0 
0.0 0.0 0.0 
-5.841461515205e-04 1.365746584724e-03 0.0 
1.365746584724e-03 4.825035094846e-03 0.0 
0.0 0.0 0.0 
1.928285650705e-04 1.544573051405e-03 0.0 
1.544573051405e-03 4.509971827385e-03 0.0 
0.0 0.0 0.0 
-4.225956984748e-04 2.440561080189e-04 0.0 
2.440561080189e-04 8.151452464156e-03 0.0 
0.0 0.0 0.0 
-4.278989065915e-04 1.259305814626e-04 0.0 
1.259305814626e-04 7.632566832234e-03 0.0 
0.0 0.0 0.0 
-4.921815051904e-04 1.967585093386e-04 0.0 
1.967585093386e-04 7.543387569326e-03 0.0 
0.0 0.0 0.0 
-2.783901389434e-04 -2.756169424280e-04 0.0 
-2.756169424280e-04 4.273355196885e-03 0.0 
0.0 0.0 0.0 
3.924578955294e-04 -1.293228303240e-04 0.0 
-1.293228303240e-04 5.598574568490e-03 0.0 
0.0 0.0 0.0 
4.838891086347e-04 -5.372826239538e-04 0.0 
-5.372826239538e-04 3.984418620697e-03 0.0 
0.0 0.0 0.0 
-4.943754455700e-04 7.742448965852e-05 0.0 
7.742448965852e-05 7.417004766667e-03 0.0 
0.0 0.0 0.0 
-3.390369611556e-04 9.207408507497e-04 0.0 
9.207408507497e-04 8.675558763539e-03 0.0 
0.0 0.0 0.0 
6.454459717626e-04 9.603219190548e-04 0.0 
9.603219190548e-04 5.498250240498e-03 0.0 
0.0 0.0 0.0 
2.361826183408e-04 -3.409569992471e-04 0.0 
-3.409569992471e-04 4.981932959162e-03 0.0 
0.0 0.0 0.0 
-3.395825305117e-04 2.289250782160e-04 0.0 
2.289250782160e-04 8.585070624813e-03 0.0 
0.0 0.0 0.0 
-7.022965024728e-05 -9.527016051792e-04 0.0 
-9.527016051792e-04 2.700713998836e-03 0.0 
0.0 0.0 0.0 
-1.893309870128e-04 -8.490371349861e-04 0.0 
-8.490371349861e-04 2.686608672595e-03 0.0 
0.0 0.0 0.0 
-2.644468342753e-04 -5.007384824633e-04 0.0 
-5.007384824633e-04 1.662484611180e-03 0.0 
0.0 0.0 0.0 
4.536436324127e-04 -4.144361129926e-04 0.0 
-4.144361129926e-04 4.453464535147e-03 0.0 
0.0 0.0 0.0 
-2.223781067846e-04 -7.118535303443e-04 0.0 
-7.118535303443e-04 2.959022160892e-03 0.0 
0.0 0.0 0.0 
-4.713058379404e-04 1.535363152012e-04 0.0 
1.535363152012e-04 7.988739367214e-03 0.0 
0.0 0.0 0.0 
-5.095538803670e-04 1.572460463092e-04 0.0 
1.572460463092e-04 7.768162625410e-03 0.0 
0.0 0.0 0.0 
1.468400021654e-03 6.546880725935e-04 0.0 
6.546880725935e-04 2.348654685192e-03 0.0 
0.0 0.0 0.0 
-2.365567428103e-04 -9.136039469505e-04 0.0 
-9.136039469505e-04 2.390620102940e-03 0.0 
0.0 0.0 0.0 
1.895085982127e-03 1.433032064013e-03 0.0 
1.433032064013e-03 -4.542550828691e-04 0.0 
0.0 0.0 0.0 
-2.557030386479e-04 -7.693616155854e-04 0.0 
-7.693616155854e-04 2.643443012107e-03 0.0 
0.0 0.0 0.0 
-1.321210413038e-04 -8.859715978878e-04 0.0 
-8.859715978878e-04 2.691965144939e-03 0.0 
0.0 0.0 0.0 
-3.714434880516e-04 -5.121071290473e-04 0.0 
-5.121071290473e-04 1.860164307349e-03 0.0 
0.0 0.0 0.0 
5.096978012071e-04 -1.035734146054e-04 0.0 
-1.035734146054e-04 5.289067539144e-03 0.0 
0.0 0.0 0.0 
4.606513346628e-04 -9.746966781434e-04 0.0 
-9.746966781434e-04 2.655935124477e-03 0.0 
0.0 0.0 0.0 
-3.348665343903e-04 1.689893891119e-04 0.0 
1.689893891119e-04 8.805468315439e-03 0.0 
0.0 0.0 0.0 
6.758334311490e-04 -8.917974447943e-04 0.0 
-8.917974447943e-04 2.636819844875e-03 0.0 
0.0 0.0 0.0 
4.872780130343e-04 -4.185658537582e-04 0.0 
-4.185658537582e-04 4.324840283303e-03 0.0 
0.0 0.0 0.0 
5.184088465642e-04 -6.781250125062e-04 0.0 
-6.781250125062e-04 3.453713270483e-03 0.0 
0.0 0.0 0.0 
6.349747427523e-04 1.540799923665e-03 0.0 
1.540799923665e-03 3.748945973823e-03 0.0 
0.0 0.0 0.0 
-2.485189938405e-04 -4.330309430804e-04 0.0 
-4.330309430804e-04 1.846265361596e-03 0.0 
0.0 0.0 0.0 
3.424637430951e-04 -6.822414773504e-05 0.0 
-6.822414773504e-05 5.884409707680e-03 0.0 
0.0 0.0 0.0 
2.995061819895e-04 -7.662977771342e-05 0.0 
-7.662977771342e-05 6.138300520037e-03 0.0 
0.0 0.0 0.0 
-7.228878003696e-05 1.253283398283e-03 0.0 
1.253283398283e-03 6.141193482151e-03 0.0 
0.0 0.0 0.0 
3.657937507984e-05 -9.676028404698e-04 0.0 
-9.676028404698e-04 2.702377710733e-03 0.0 
0.0 0.0 0.0 
5.125250404168e-04 -5.424384105593e-04 0.0 
-5.424384105593e-04 3.881978996769e-03 0.0 
0.0 0.0 0.0 
-4.260758529310e-04 1.986610844032e-04 0.0 
1.986610844032e-04 7.983355715446e-03 0.0 
0.0 0.0 0.0 
-1.278203244531e-04 -8.087162229079e-04 0.0 
-8.087162229079e-04 3.009089807541e-03 0.0 
0.0 0.0 0.0 
1.386261398939e-05 1.779363960752e-03 0.0 
1.779363960752e-03 3.927340519254e-03 0.0 
0.0 0.0 0.0 
-2.967773201966e-04 -5.749170083629e-04 0.0 
-5.749170083629e-04 2.540495840647e-03 0.0 
0.0 0.0 0.0 
1.793717397778e-04 -1.860738214505e-03 0.0 
-1.860738214505e-03 7.280072138149e-04 0.0 
0.0 0.0 0.0 
8.725649216990e-05 -1.016577901546e-03 0.0 
-1.016577901546e-03 2.686663114597e-03 0.0 
0.0 0.0 0.0 
-3.458954092777e-04 -4.918502929124e-04 0.0 
-4.918502929124e-04 2.407787467397e-03 0.0 
0.0 0.0 0.0 
-2.447535630029e-04 -3.071615565160e-04 0.0 
-3.071615565160e-04 2.217207548044e-03 0.0 
0.0 0.0 0.0 
3.502767067369e-04 -7.492679518881e-04 0.0 
-7.492679518881e-04 3.465606313168e-03 0.0 
0.0 0.0 0.0 
3.539536121764e-04 -3.830379075926e-04 0.0 
-3.830379075926e-04 4.662549495269e-03 0.0 
0.0 0.0 0.0 
-7.531020279927e-05 1.199170480195e-03 0.0 
1.199170480195e-03 7.294893753006e-03 0.0 
0.0 0.0 0.0 
6.511101265629e-04 -1.467566053583e-05 0.0 
-1.467566053583e-05 -1.471553947042e-04 0.0 
0.0 0.0 0.0 
1.296731422460e-03 -6.838523569927e-04 0.0 
-6.838523569927e-04 1.719591203711e-03 0.0 
0.0 0.0 0.0 
8.764782908477e-04 -9.345662913177e-04 0.0 
-9.345662913177e-04 2.190422420080e-03 0.0 
0.0 0.0 0.0 
2.416735861632e-04 -9.994970820383e-04 0.0 
-9.994970820383e-04 2.683393113845e-03 0.0 
0.0 0.0 0.0 
-4.599046444692e-04 1.989975897272e-04 0.0 
1.989975897272e-04 7.763212094821e-03 0.0 
0.0 0.0 0.0 
5.020340024722e-04 -8.232713136738e-04 0.0 
-8.232713136738e-04 3.043334058779e-03 0.0 
0.0 0.0 0.0 
-3.261000106148e-04 -5.201458356300e-04 0.0 
-5.201458356300e-04 2.762670944434e-03 0.0 
0.0 0.0 0.0 
2.716123801063e-04 -1.027025262463e-03 0.0 
-1.027025262463e-03 2.665065599533e-03 0.0 
0.0 0.0 0.0 
-3.146839382513e-04 1.751866747964e-04 0.0 
1.751866747964e-04 8.633385759945e-03 0.0 
0.0 0.0 0.0 
-3.052069359557e-04 -4.744206444900e-04 0.0 
-4.744206444900e-04 2.755450583733e-03 0.0 
0.0 0.0 0.0 
-1.881634670328e-04 -2.665081017525e-04 0.0 
-2.665081017525e-04 1.049022629548e-03 0.0 
0.0 0.0 0.0 
-3.223372103422e-04 -3.970549715861e-04 0.0 
-3.970549715861e-04 1.480448893194e-03 0.0 
0.0 0.0 0.0 
2.719397412114e-04 -1.607609641419e-03 0.0 
-1.607609641419e-03 1.269123938091e-03 0.0 
0.0 0.0 0.0 
-7.325902246536e-05 -1.043253568624e-03 0.0 
-1.043253568624e-03 2.399338666516e-03 0.0 
0.0 0.0 0.0 
1.075845552330e-03 -7.459897434886e-04 0.0 
-7.459897434886e-04 2.197584012261e-03 0.0 
0.0 0.0 0.0 
4.678637628253e-04 -9.817384005655e-04 0.0 
-9.817384005655e-04 2.652961429425e-03 0.0 
0.0 0.0 0.0 
-3.487449508012e-04 -1.627906918491e-03 0.0 
-1.627906918491e-03 9.252660668633e-04 0.0 
0.0 0.0 0.0 
-1.597376855885e-04 -3.126147175585e-04 0.0 
-3.126147175585e-04 1.467167832706e-03 0.0 
0.0 0.0 0.0 
-6.005679233959e-04 2.101515555655e-04 0.0 
2.101515555655e-04 7.474185542478e-03 0.0 
0.0 0.0 0.0 
-2.876389018412e-04 -4.366131050980e-04 0.0 
-4.366131050980e-04 2.399032989916e-03 0.0 
0.0 0.0 0.0 
5.678964901237e-04 -1.130319807015e-04 0.0 
-1.130319807015e-04 5.079653062131e-03 0.0 
0.0 0.0 0.0 
-6.047983252766e-06 1.218377601061e-03 0.0 
1.218377601061e-03 6.877290226263e-03 0.0 
0.0 0.0 0.0 
-6.750959877144e-04 5.985687281393e-04 0.0 
5.985687281393e-04 7.267702425889e-03 0.0 
0.0 0.0 0.0 
-3.386201617881e-04 4.068979987775e-04 0.0 
4.068979987775e-04 8.826083522607e-03 0.0 
0.0 0.0 0.0 
-1.133803838322e-04 1.181737186619e-03 0.0 
1.181737186619e-03 7.685059747049e-03 0.0 
0.0 0.0 0.0 
1.430881815404e-03 9.364450660449e-04 0.0 
9.364450660449e-04 2.299438438663e-03 0.0 
0.0 0.0 0.0 
-3.413892743787e-05 1.228922557463e-03 0.0 
1.228922557463e-03 6.500702668192e-03 0.0 
0.0 0.0 0.0 
-5.673103894277e-05 -2.011116808201e-03 0.0 
-2.011116808201e-03 5.024799443358e-04 0.0 
0.0 0.0 0.0 
1.536014474754e-04 -9.037798008962e-04 0.0 
-9.037798008962e-04 3.043477726048e-03 0.0 
0.0 0.0 0.0 
9.164327365556e-04 1.662290503532e-03 0.0 
1.662290503532e-03 2.458531765184e-03 0.0 
0.0 0.0 0.0 
1.788740966342e-03 -1.539885366689e-03 0.0 
-1.539885366689e-03 -1.241500386506e-03 0.0 
0.0 0.0 0.0 
-2.861506577901e-04 -1.918739490506e-03 0.0 
-1.918739490506e-03 4.214667414204e-04 0.0 
0.0 0.0 0.0 
-1.779339641139e-04 -7.457899868152e-04 0.0 
-7.457899868152e-04 2.963948060725e-03 0.0 
0.0 0.0 0.0 
6.415755291771e-04 -1.060197349118e-03 0.0 
-1.060197349118e-03 2.213827420732e-03 0.0 
0.0 0.0 0.0 
8.491710807672e-04 -9.136570697466e-04 0.0 
-9.136570697466e-04 2.225871189448e-03 0.0 
0.0 0.0 0.0 
-3.382378515194e-04 -4.035763390003e-04 0.0 
-4.035763390003e-04 2.603655260882e-03 0.0 
0.0 0.0 0.0 
6.845242339701e-04 -7.286980819197e-04 0.0 
-7.286980819197e-04 3.064325532878e-03 0.0 
0.0 0.0 0.0 
1.063484700342e-03 -9.032448182628e-04 0.0 
-9.032448182628e-04 1.759279673550e-03 0.0 
0.0 0.0 0.0 
1.421942055666e-03 -3.999972875183e-04 0.0 
-3.999972875183e-04 1.824556798927e-03 0.0 
0.0 0.0 0.0 
-1.529925754588e-04 -1.003625325731e-03 0.0 
-1.003625325731e-03 2.393888186054e-03 0.0 
0.0 0.0 0.0 
1.023854020721e-03 4.589215358281e-04 0.0 
4.589215358281e-04 4.255195456144e-03 0.0 
0.0 0.0 0.0 
-4.736061339542e-04 2.024924096664e-04 0.0 
2.024924096664e-04 8.156422388558e-03 0.0 
0.0 0.0 0.0 
1.605395209885e-03 -2.125521578850e-04 0.0 
-2.125521578850e-04 1.388561404932e-03 0.0 
0.0 0.0 0.0 
4.646986699879e-04 -3.595336874673e-05 0.0 
-3.595336874673e-05 5.584019073344e-03 0.0 
0.0 0.0 0.0 
3.828032557454e-04 -2.122139569970e-03 0.0 
-2.122139569970e-03 4.616010362812e-05 0.0 
0.0 0.0 0.0 
4.406953425899e-04 1.805805073608e-04 0.0 
1.805805073608e-04 6.059836984764e-03 0.0 
0.0 0.0 0.0 
8.693751174218e-04 -7.556063594601e-04 0.0 
-7.556063594601e-04 2.645496836527e-03 0.0 
0.0 0.0 0.0 
-1.218274697070e-04 1.196331013090e-03 0.0 
1.196331013090e-03 8.086339274074e-03 0.0 
0.0 0.0 0.0 
-4.763021795844e-04 1.012388831626e-03 0.0 
1.012388831626e-03 6.732277013676e-03 0.0 
0.0 0.0 0.0 
1.283231737315e-05 -1.766686464809e-03 0.0 
-1.766686464809e-03 1.066173200529e-03 0.0 
0.0 0.0 0.0 
-6.387229005632e-04 6.971540778816e-04 0.0 
6.971540778816e-04 7.327240249551e-03 0.0 
0.0 0.0 0.0 
-3.442351500281e-04 5.640595548424e-04 0.0 
5.640595548424e-04 8.851874263192e-03 0.0 
0.0 0.0 0.0 
1.028544008401e-03 -5.779232765570e-04 0.0 
-5.779232765570e-04 2.699169750412e-03 0.0 
0.0 0.0 0.0 
4.767180528649e-04 2.087686113183e-03 0.0 
2.087686113183e-03 2.654503757779e-03 0.0 
0.0 0.0 0.0 
-5.870168181484e-04 7.935703409465e-04 0.0 
7.935703409465e-04 7.366361627652e-03 0.0 
0.0 0.0 0.0 
-1.510439399619e-04 1.493908273140e-03 0.0 
1.493908273140e-03 4.715138707821e-03 0.0 
0.0 0.0 0.0 
-3.742739839020e-04 -1.784277687003e-03 0.0 
-1.784277687003e-03 9.509472013551e-04 0.0 
0.0 0.0 0.0 
-1.611730347497e-04 5.053719973675e-04 0.0 
5.053719973675e-04 9.534110389859e-03 0.0 
0.0 0.0 0.0 
-6.802071535461e-04 -1.366876891891e-03 0.0 
-1.366876891891e-03 1.177738010316e-03 0.0 
0.0 0.0 0.0 
5.230413765898e-04 7.743315778798e-04 0.0 
7.743315778798e-04 6.181713457142e-03 0.0 
0.0 0.0 0.0 
-2.315542695260e-04 2.448244043120e-04 0.0 
2.448244043120e-04 9.169007421884e-03 0.0 
0.0 0.0 0.0 
9.553235902433e-04 3.277853716132e-04 0.0 
3.277853716132e-04 4.445094911250e-03 0.0 
0.0 0.0 0.0 
-4.575520300322e-04 1.610300019230e-04 0.0 
1.610300019230e-04 7.585052784480e-03 0.0 
0.0 0.0 0.0 
-4.125040074131e-04 3.053147277484e-04 0.0 
3.053147277484e-04 8.687849637070e-03 0.0 
0.0 0.0 0.0 
1.231111152837e-03 -6.481043388566e-04 0.0 
-6.481043388566e-04 1.866127868118e-03 0.0 
0.0 0.0 0.0 
1.329834040709e-03 6.280540142781e-04 0.0 
6.280540142781e-04 2.955281589742e-03 0.0 
0.0 0.0 0.0 
-2.554990957002e-04 4.544646829842e-04 0.0 
4.544646829842e-04 9.177189013535e-03 0.0 
0.0 0.0 0.0 
3.208732998512e-04 -2.860251987582e-04 0.0 
-2.860251987582e-04 5.104761920547e-03 0.0 
0.0 0.0 0.0 
-4.716330095311e-04 2.577684738374e-04 0.0 
2.577684738374e-04 8.316422693272e-03 0.0 
0.0 0.0 0.0 
9.692947425044e-04 3.804748757270e-05 0.0 
3.804748757270e-05 4.093620727374e-03 0.0 
0.0 0.0 0.0 
1.865459071451e-04 -2.023077551313e-03 0.0 
-2.023077551313e-03 5.028561493954e-04 0.0 
0.0 0.0 0.0 
-4.652477583160e-04 3.189906714952e-04 0.0 
3.189906714952e-04 8.467449330537e-03 0.0 
0.0 0.0 0.0 
2.027623283651e-05 1.317704924695e-03 0.0 
1.317704924695e-03 8.031139671521e-03 0.0 
0.0 0.0 0.0 
3.391085294193e-04 2.469164121722e-05 0.0 
2.469164121722e-05 6.115322786397e-03 0.0 
0.0 0.0 0.0 
3.110660430090e-04 -8.709263760320e-04 0.0 
-8.709263760320e-04 3.037554692328e-03 0.0 
0.0 0.0 0.0 
-4.995612660579e-04 1.118661023163e-04 0.0 
1.118661023163e-04 7.589718554593e-03 0.0 
0.0 0.0 0.0 
-4.846302973460e-04 1.572171187696e-04 0.0 
1.572171187696e-04 7.364180629457e-03 0.0 
0.0 0.0 0.0 
6.598993137239e-04 -8.822574827266e-04 0.0 
-8.822574827266e-04 2.666175209745e-03 0.0 
0.0 0.0 0.0 
4.463063566724e-04 -3.087383750205e-04 0.0 
-3.087383750205e-04 4.778812972667e-03 0.0 
0.0 0.0 0.0 
5.190550293659e-04 -2.174809186340e-04 0.0 
-2.174809186340e-04 4.915679213979e-03 0.0 
0.0 0.0 0.0 
-1.626789165394e-04 -3.490267394186e-04 0.0 
-3.490267394186e-04 1.282458168320e-03 0.0 
0.0 0.0 0.0 
2.003293945798e-03 1.672834794583e-03 0.0 
1.672834794583e-03 -1.254930348346e-03 0.0 
0.0 0.0 0.0 
1.607126431736e-03 1.150392831698e-04 0.0 
1.150392831698e-04 1.658742950008e-03 0.0 
0.0 0.0 0.0 
1.441693615228e-03 -5.153393452123e-04 0.0 
-5.153393452123e-04 1.440503598611e-03 0.0 
0.0 0.0 0.0 
2.191530875495e-04 1.649207400920e-03 0.0 
1.649207400920e-03 3.961590592810e-03 0.0 
0.0 0.0 0.0 
-2.480359516170e-04 3.933683522420e-04 0.0 
3.933683522420e-04 9.397636119728e-03 0.0 
0.0 0.0 0.0 
-3.305142747356e-04 8.555081258539e-04 0.0 
8.555081258539e-04 8.601649204532e-03 0.0 
0.0 0.0 0.0 
-2.666132949964e-04 1.981160344143e-04 0.0 
1.981160344143e-04 9.172715807644e-03 0.0 
0.0 0.0 0.0 
-6.319631697792e-04 1.201640254987e-03 0.0 
1.201640254987e-03 5.192888602228e-03 0.0 
0.0 0.0 0.0 
-4.236103450096e-04 5.032971011696e-04 0.0 
5.032971011696e-04 8.503676819476e-03 0.0 
0.0 0.0 0.0 
3.283621254659e-04 -3.873788776004e-04 0.0 
-3.873788776004e-04 4.791448700748e-03 0.0 
0.0 0.0 0.0 
-2.344596517699e-04 3.730301260705e-04 0.0 
3.730301260705e-04 9.259668110978e-03 0.0 
0.0 0.0 0.0 
-5.151260732191e-04 3.302503184115e-04 0.0 
3.302503184115e-04 8.243501648689e-03 0.0 
0.0 0.0 0.0 
3.224592027145e-04 -8.868367163242e-04 0.0 
-8.868367163242e-04 3.054268007318e-03 0.0 
0.0 0.0 0.0 
1.691912757594e-03 3.987726180294e-04 0.0 
3.987726180294e-04 1.348621938614e-03 0.0 
0.0 0.0 0.0 
-4.064053438073e-04 3.555552504963e-04 0.0 
3.555552504963e-04 8.462987768461e-03 0.0 
0.0 0.0 0.0 
-3.381130016895e-04 3.502858754429e-04 0.0 
3.502858754429e-04 9.050782305702e-03 0.0 
0.0 0.0 0.0 
-3.713838094898e-04 2.887247911074e-04 0.0 
2.887247911074e-04 8.529677060249e-03 0.0 
0.0 0.0 0.0 
-4.165448190584e-04 2.969177790897e-04 0.0 
2.969177790897e-04 8.311680899145e-03 0.0 
0.0 0.0 0.0 
3.199951713713e-04 -1.370841910152e-04 0.0 
-1.370841910152e-04 5.714093003630e-03 0.0 
0.0 0.0 0.0 
5.375333213002e-04 8.637940864213e-04 0.0 
8.637940864213e-04 6.076990396112e-03 0.0 
0.0 0.0 0.0 
4.400251138661e-04 -1.307829975517e-04 0.0 
-1.307829975517e-04 5.399102798191e-03 0.0 
0.0 0.0 0.0 
3.719831643534e-04 -4.931333027551e-04 0.0 
-4.931333027551e-04 4.231688992225e-03 0.0 
0.0 0.0 0.0 
-7.305061900376e-04 6.397029501658e-04 0.0 
6.397029501658e-04 5.595133638003e-03 0.0 
0.0 0.0 0.0 
8.791125345684e-04 4.891680678443e-04 0.0 
4.891680678443e-04 4.813105820228e-03 0.0 
0.0 0.0 0.0 
-5.159541801463e-04 5.324765460956e-04 0.0 
5.324765460956e-04 8.027202585163e-03 0.0 
0.0 0.0 0.0 
-3.193502903406e-04 -3.620517827551e-04 0.0 
-3.620517827551e-04 2.225929161590e-03 0.0 
0.0 0.0 0.0 
1.511067947102e-03 -1.867321709482e-04 0.0 
-1.867321709482e-04 1.707976483788e-03 0.0 
0.0 0.0 0.0 
1.346553604817e-03 -1.690351085084e-05 0.0 
-1.690351085084e-05 2.620339243633e-03 0.0 
0.0 0.0 0.0 
1.195289456822e-03 6.135966414319e-04 0.0 
6.135966414319e-04 3.541171542959e-03 0.0 
0.0 0.0 0.0 
2.462595071438e-03 -3.057444451193e-04 0.0 
-3.057444451193e-04 -2.228097888818e-03 0.0 
0.0 0.0 0.0 
1.653398733094e-03 6.328648859881e-05 0.0 
6.328648859881e-05 1.405421386638e-03 0.0 
0.0 0.0 0.0 
1.061196261583e-03 6.087777070191e-04 0.0 
6.087777070191e-04 4.111231749388e-03 0.0 
0.0 0.0 0.0 
-6.522859523256e-04 8.691605120351e-04 0.0 
8.691605120351e-04 5.862442134175e-03 0.0 
0.0 0.0 0.0 
3.533815827701e-04 -7.406455685195e-04 0.0 
-7.406455685195e-04 3.416038834495e-03 0.0 
0.0 0.0 0.0 
-5.595808381945e-04 2.733082908188e-04 0.0 
2.733082908188e-04 7.866512454849e-03 0.0 
0.0 0.0 0.0 
-4.865018115998e-04 8.062167146476e-05 0.0 
8.062167146476e-05 6.744071267678e-03 0.0 
0.0 0.0 0.0 
-1.268441328207e-03 2.130077953242e-03 0.0 
2.130077953242e-03 1.681580342100e-03 0.0 
0.0 0.0 0.0 
3.589494586040e-04 -6.180024849893e-04 0.0 
-6.180024849893e-04 3.894420797535e-03 0.0 
0.0 0.0 0.0 
9.057213157599e-04 3.604619920560e-04 0.0 
3.604619920560e-04 4.646787621696e-03 0.0 
0.0 0.0 0.0 
-2.874592928767e-04 8.303500890831e-04 0.0 
8.303500890831e-04 8.858636488761e-03 0.0 
0.0 0.0 0.0 
1.423314562033e-03 6.545518627789e-04 0.0 
6.545518627789e-04 2.445291205257e-03 0.0 
0.0 0.0 0.0 
3.727036931724e-04 -6.132682537613e-04 0.0 
-6.132682537613e-04 3.815265399342e-03 0.0 
0.0 0.0 0.0 
-5.167245743870e-04 2.087540294966e-04 0.0 
2.087540294966e-04 7.935861407027e-03 0.0 
0.0 0.0 0.0 
-8.554800650755e-04 1.283854169954e-03 0.0 
1.283854169954e-03 2.884631789992e-03 0.0 
0.0 0.0 0.0 
9.776144428999e-04 4.817085273222e-04 0.0 
4.817085273222e-04 4.421781239466e-03 0.0 
0.0 0.0 0.0 
1.301214621780e-03 4.143538186096e-04 0.0 
4.143538186096e-04 3.093594541592e-03 0.0 
0.0 0.0 0.0 
-6.981747271089e-04 8.454545079967e-04 0.0 
8.454545079967e-04 6.153605989049e-03 0.0 
0.0 0.0 0.0 
4.097121633193e-04 -3.069023822517e-04 0.0 
-3.069023822517e-04 4.929800468329e-03 0.0 
0.0 0.0 0.0 
1.276983502092e-03 -1.991514115580e-03 0.0 
-1.991514115580e-03 -1.181399242862e-03 0.0 
0.0 0.0 0.0 
4.717600733450e-04 -2.114583456266e-04 0.0 
-2.114583456266e-04 5.095174239056e-03 0.0 
0.0 0.0 0.0 
4.618350324648e-04 6.628873038509e-05 0.0 
6.628873038509e-05 5.797795335902e-03 0.0 
0.0 0.0 0.0 
1.019964157473e-03 6.192010956647e-04 0.0 
6.192010956647e-04 4.231179385836e-03 0.0 
0.0 0.0 0.0 
-4.228037251562e-04 2.471947320182e-04 0.0 
2.471947320182e-04 8.534822875386e-03 0.0 
0.0 0.0 0.0 
2.372590696511e-04 1.181057321251e-03 0.0 
1.181057321251e-03 6.390683556705e-03 0.0 
0.0 0.0 0.0 
4.055325577315e-04 -2.913369393451e-05 0.0 
-2.913369393451e-05 5.810119990310e-03 0.0 
0.0 0.0 0.0 
-8.362846954347e-04 9.977297144078e-04 0.0 
9.977297144078e-04 3.455365407768e-03 0.0 
0.0 0.0 0.0 
-5.175939555321e-04 2.668274081506e-04 0.0 
2.668274081506e-04 8.094235993831e-03 0.0 
0.0 0.0 0.0 
4.002811476971e-04 1.030876957008e-03 0.0 
1.030876957008e-03 6.433123531250e-03 0.0 
0.0 0.0 0.0 
-3.576737475141e-04 3.454088688522e-04 0.0 
3.454088688522e-04 8.682919438167e-03 0.0 
0.0 0.0 0.0 
1.154456020523e-03 6.221018221573e-04 0.0 
6.221018221573e-04 3.654482218908e-03 0.0 
0.0 0.0 0.0 
1.590009406529e-03 3.860956323748e-04 0.0 
3.860956323748e-04 1.846489007941e-03 0.0 
0.0 0.0 0.0 
-7.957940004177e-05 -4.570964955161e-04 0.0 
-4.570964955161e-04 4.277991511068e-03 0.0 
0.0 0.0 0.0 
2.527667208266e-03 6.841709191693e-04 0.0 
6.841709191693e-04 -4.309987266575e-03 0.0 
0.0 0.0 0.0 
-3.073410759019e-04 3.316649255670e-04 0.0 
3.316649255670e-04 8.898493103306e-03 0.0 
0.0 0.0 0.0 
-3.127715254509e-04 -2.901369418576e-04 0.0 
-2.901369418576e-04 2.413713296666e-03 0.0 
0.0 0.0 0.0 
-7.785164872822e-04 7.845143568531e-04 0.0 
7.845143568531e-04 3.879908333760e-03 0.0 
0.0 0.0 0.0 
1.334437234106e-04 1.208614489959e-03 0.0 
1.208614489959e-03 6.436167980431e-03 0.0 
0.0 0.0 0.0 
-2.064873380011e-04 2.958447705749e-04 0.0 
2.958447705749e-04 9.331524090813e-03 0.0 
0.0 0.0 0.0 
7.305867311664e-04 -2.313749598360e-03 0.0 
-2.313749598360e-03 -8.064611221466e-04 0.0 
0.0 0.0 0.0 
-1.045230223600e-04 1.348761563519e-03 0.0 
1.348761563519e-03 5.474429735332e-03 0.0 
0.0 0.0 0.0 
-4.528547409881e-04 3.637991924121e-04 0.0 
3.637991924121e-04 8.239448683865e-03 0.0 
0.0 0.0 0.0 
9.533584568877e-05 -6.838213015485e-04 0.0 
-6.838213015485e-04 3.766096231541e-03 0.0 
0.0 0.0 0.0 
2.176493945965e-03 -1.072518622924e-03 0.0 
-1.072518622924e-03 -2.105329606520e-03 0.0 
0.0 0.0 0.0 
4.956998677679e-04 2.249826285257e-03 0.0 
2.249826285257e-03 1.889392430562e-03 0.0 
0.0 0.0 0.0 
-2.260427502817e-04 -2.009198740590e-03 0.0 
-2.009198740590e-03 4.361403567330e-04 0.0 
0.0 0.0 0.0 
1.196033026349e-03 -1.980322284209e-03 0.0 
-1.980322284209e-03 -8.495671147418e-04 0.0 
0.0 0.0 0.0 
5.044198099560e-04 -2.205611768240e-03 0.0 
-2.205611768240e-03 -2.116398466385e-04 0.0 
0.0 0.0 0.0 
1.287917994711e-03 6.332216100753e-04 0.0 
6.332216100753e-04 3.061060413012e-03 0.0 
0.0 0.0 0.0 
-1.146421646468e-04 7.197348727137e-04 0.0 
7.197348727137e-04 9.792721296840e-03 0.0 
0.0 0.0 0.0 
-7.408903327385e-04 6.185484728302e-04 0.0 
6.185484728302e-04 4.340397510176e-03 0.0 
0.0 0.0 0.0 
2.149736578834e-04 -1.412205153015e-04 0.0 
-1.412205153015e-04 6.017166429188e-03 0.0 
0.0 0.0 0.0 
1.644407214217e-03 1.107729375592e-03 0.0 
1.107729375592e-03 1.004676066225e-03 0.0 
0.0 0.0 0.0 
-5.619129826890e-04 3.413451707116e-04 0.0 
3.413451707116e-04 8.017359689523e-03 0.0 
0.0 0.0 0.0 
2.769850055802e-03 5.432174248342e-04 0.0 
5.432174248342e-04 -3.841775221290e-03 0.0 
0.0 0.0 0.0 
3.892710455682e-04 7.724969368404e-05 0.0 
7.724969368404e-05 6.053979061391e-03 0.0 
0.0 0.0 0.0 
1.502989666311e-04 -2.294983423660e-03 0.0 
-2.294983423660e-03 -2.023917326953e-04 0.0 
0.0 0.0 0.0 
-3.380638878795e-04 -3.162732939548e-04 0.0 
-3.162732939548e-04 2.815259935220e-03 0.0 
0.0 0.0 0.0 
8.992353468564e-04 7.556698490647e-04 0.0 
7.556698490647e-04 4.648095134701e-03 0.0 
0.0 0.0 0.0 
1.024194677135e-03 -7.164314096531e-04 0.0 
-7.164314096531e-04 2.296486057736e-03 0.0 
0.0 0.0 0.0 
5.342096575387e-04 9.523652583691e-04 0.0 
9.523652583691e-04 6.006644615448e-03 0.0 
0.0 0.0 0.0 
-1.287213168595e-04 1.891725799052e-03 0.0 
1.891725799052e-03 3.691053808607e-03 0.0 
0.0 0.0 0.0 
-5.399374412378e-04 4.953605700367e-04 0.0 
4.953605700367e-04 8.271863070766e-03 0.0 
0.0 0.0 0.0 
5.054019941544e-04 8.707392678536e-04 0.0 
8.707392678536e-04 6.167071249347e-03 0.0 
0.0 0.0 0.0 
-4.596475156076e-04 3.028446878902e-04 0.0 
3.028446878902e-04 8.090081265546e-03 0.0 
0.0 0.0 0.0 
-3.490926038817e-04 8.115230436131e-04 0.0 
8.115230436131e-04 8.861808269198e-03 0.0 
0.0 0.0 0.0 
-4.538708201793e-04 3.857268539292e-04 0.0 
3.857268539292e-04 8.608247963995e-03 0.0 
0.0 0.0 0.0 
-4.362476198903e-04 4.572661820214e-04 0.0 
4.572661820214e-04 8.738903692523e-03 0.0 
0.0 0.0 0.0 
1.597846633207e-03 2.611577864507e-03 0.0 
2.611577864507e-03 -1.672027469847e-03 0.0 
0.0 0.0 0.0 
1.739174016597e-04 -1.914648420545e-04 0.0 
-1.914648420545e-04 5.852600248018e-03 0.0 
0.0 0.0 0.0 
-4.413537092816e-04 4.306900163846e-04 0.0 
4.306900163846e-04 8.378370466011e-03 0.0 
0.0 0.0 0.0 
1.077504070113e-03 1.302162603109e-03 0.0 
1.302162603109e-03 2.861498926589e-03 0.0 
0.0 0.0 0.0 
-7.280341018222e-04 4.845780416184e-04 0.0 
4.845780416184e-04 4.796966161714e-03 0.0 
0.0 0.0 0.0 
3.903341202622e-04 8.862243417798e-04 0.0 
8.862243417798e-04 6.588358602961e-03 0.0 
0.0 0.0 0.0 
2.368143811497e-03 1.201605784726e-03 0.0 
1.201605784726e-03 -2.160009550460e-03 0.0 
0.0 0.0 0.0 
-2.936069331197e-04 -3.552871265902e-04 0.0 
-3.552871265902e-04 2.596434972585e-03 0.0 
0.0 0.0 0.0 
6.315087728634e-04 9.647391306768e-04 0.0 
9.647391306768e-04 5.540479434351e-03 0.0 
0.0 0.0 0.0 
-3.250007847433e-05 -1.125436697238e-05 0.0 
-1.125436697238e-05 1.565527180931e-03 0.0 
0.0 0.0 0.0 
4.230143515722e-04 1.502251255914e-03 0.0 
1.502251255914e-03 4.319330383577e-03 0.0 
0.0 0.0 0.0 
8.798438221163e-04 6.238072177879e-04 0.0 
6.238072177879e-04 4.795123489464e-03 0.0 
0.0 0.0 0.0 
-3.470130869017e-04 5.105290698932e-04 0.0 
5.105290698932e-04 9.077813045678e-03 0.0 
0.0 0.0 0.0 
-3.146390393206e-04 5.947882982497e-04 0.0 
5.947882982497e-04 9.193766541517e-03 0.0 
0.0 0.0 0.0 
9.231801622664e-04 6.132335475996e-04 0.0 
6.132335475996e-04 4.668703842478e-03 0.0 
0.0 0.0 0.0 
-3.969219363507e-04 3.695341486198e-04 0.0 
3.695341486198e-04 8.830743680524e-03 0.0 
0.0 0.0 0.0 
1.393765173399e-03 1.316693586595e-03 0.0 
1.316693586595e-03 1.653204332812e-03 0.0 
0.0 0.0 0.0 
-8.648376419429e-05 1.176492773542e-03 0.0 
1.176492773542e-03 6.929075106727e-03 0.0 
0.0 0.0 0.0 
-7.187227145929e-04 3.859892902967e-04 0.0 
3.859892902967e-04 5.253397689992e-03 0.0 
0.0 0.0 0.0 
-2.473946968272e-04 1.032836373031e-03 0.0 
1.032836373031e-03 8.358050394756e-03 0.0 
0.0 0.0 0.0 
-7.056385405404e-04 3.239679430697e-04 0.0 
3.239679430697e-04 5.710243962387e-03 0.0 
0.0 0.0 0.0 
-6.845861774034e-04 2.967416855955e-04 0.0 
2.967416855955e-04 5.936711753044e-03 0.0 
0.0 0.0 0.0 
1.394338187517e-03 9.136134374877e-04 0.0 
9.136134374877e-04 2.311083913054e-03 0.0 
0.0 0.0 0.0 
-6.806991221514e-04 2.893277533539e-04 0.0 
2.893277533539e-04 6.166573039232e-03 0.0 
0.0 0.0 0.0 
6.102183754719e-04 1.302561640536e-03 0.0 
1.302561640536e-03 4.573931685977e-03 0.0 
0.0 0.0 0.0 
8.734658446865e-04 1.544158965292e-03 0.0 
1.544158965292e-03 3.136153747161e-03 0.0 
0.0 0.0 0.0 
1.507089278907e-03 1.227172966328e-04 0.0 
1.227172966328e-04 2.059905745415e-03 0.0 
0.0 0.0 0.0 
2.269319409610e-03 -1.126082787331e-03 0.0 
-1.126082787331e-03 -2.291450538402e-03 0.0 
0.0 0.0 0.0 
1.563661501838e-03 6.880337211892e-04 0.0 
6.880337211892e-04 1.800810397710e-03 0.0 
0.0 0.0 0.0 
-2.850537877817e-04 3.921188118926e-04 0.0 
3.921188118926e-04 9.045616068035e-03 0.0 
0.0 0.0 0.0 
-2.687513151491e-04 9.565152777218e-04 0.0 
9.565152777218e-04 8.673712794407e-03 0.0 
0.0 0.0 0.0 
2.105085747075e-04 -2.582147666384e-04 0.0 
-2.582147666384e-04 5.413793339947e-03 0.0 
0.0 0.0 0.0 
5.144990800012e-04 9.569220174934e-04 0.0 
9.569220174934e-04 6.063254793742e-03 0.0 
0.0 0.0 0.0 
1.224082729569e-03 -5.182293023788e-04 0.0 
-5.182293023788e-04 2.264326172801e-03 0.0 
0.0 0.0 0.0 
-3.708892697776e-04 4.902686730235e-04 0.0 
4.902686730235e-04 8.734686922914e-03 0.0 
0.0 0.0 0.0 
1.540678037526e-03 4.081583114604e-04 0.0 
4.081583114604e-04 2.017055731157e-03 0.0 
0.0 0.0 0.0 
9.318084209720e-05 -1.711450454795e-04 0.0 
-1.711450454795e-04 6.135640189208e-03 0.0 
0.0 0.0 0.0 
-3.910940728447e-04 4.202251787106e-04 0.0 
4.202251787106e-04 8.603971949191e-03 0.0 
0.0 0.0 0.0 
-4.907592135404e-04 4.761019712615e-04 0.0 
4.761019712615e-04 8.507317607952e-03 0.0 
0.0 0.0 0.0 
1.118840590841e-03 4.583716464713e-04 0.0 
4.583716464713e-04 3.846444678133e-03 0.0 
0.0 0.0 0.0 
1.517354979024e-03 9.981572837416e-04 0.0 
9.981572837416e-04 1.673511040551e-03 0.0 
0.0 0.0 0.0 
-6.496866736805e-05 1.175091437409e-03 0.0 
1.175091437409e-03 7.296501115916e-03 0.0 
0.0 0.0 0.0 
-4.684934742033e-04 9.871681902114e-04 0.0 
9.871681902114e-04 6.735654927149e-03 0.0 
0.0 0.0 0.0 
1.756777363715e-03 -1.861819888765e-03 0.0 
-1.861819888765e-03 -2.170799269103e-03 0.0 
0.0 0.0 0.0 
2.492432919240e-03 4.239654873729e-04 0.0 
4.239654873729e-04 -2.036281451447e-03 0.0 
0.0 0.0 0.0 
3.561412445929e-05 1.884210393219e-03 0.0 
1.884210393219e-03 3.353271801449e-03 0.0 
0.0 0.0 0.0 
-1.809689232890e-04 1.325866194597e-03 0.0 
1.325866194597e-03 5.478001193065e-03 0.0 
0.0 0.0 0.0 
2.810356406679e-05 -1.474129919279e-04 0.0 
-1.474129919279e-04 6.408495015654e-03 0.0 
0.0 0.0 0.0 
-5.065086522318e-04 4.004733831486e-04 0.0 
4.004733831486e-04 8.382189633580e-03 0.0 
0.0 0.0 0.0 
1.611732406196e-03 6.953595155234e-04 0.0 
6.953595155234e-04 1.719293239689e-03 0.0 
0.0 0.0 0.0 
-1.573980959843e-04 1.219063813323e-03 0.0 
1.219063813323e-03 6.229206587747e-03 0.0 
0.0 0.0 0.0 
8.318023441369e-04 5.124782001349e-04 0.0 
5.124782001349e-04 4.993233852294e-03 0.0 
0.0 0.0 0.0 
-3.577944160232e-04 2.901638345019e-04 0.0 
2.901638345019e-04 8.903765220322e-03 0.0 
0.0 0.0 0.0 
-1.343609361801e-04 1.175015176268e-03 0.0 
1.175015176268e-03 7.685843829707e-03 0.0 
0.0 0.0 0.0 
-5.361071255366e-04 3.752825781149e-04 0.0 
3.752825781149e-04 7.784766724644e-03 0.0 
0.0 0.0 0.0 
6.938392419837e-04 1.870913559020e-04 0.0 
1.870913559020e-04 5.215067956291e-03 0.0 
0.0 0.0 0.0 
1.442370858065e-03 3.979292344020e-04 0.0 
3.979292344020e-04 2.483827116747e-03 0.0 
0.0 0.0 0.0 
8.071947721633e-04 3.757736645355e-04 0.0 
3.757736645355e-04 5.005903383419e-03 0.0 
0.0 0.0 0.0 
2.711113329723e-04 1.535860867563e-03 0.0 
1.535860867563e-03 4.315156289083e-03 0.0 
0.0 0.0 0.0 
-3.144631017372e-04 4.189655635504e-04 0.0 
4.189655635504e-04 9.180980269852e-03 0.0 
0.0 0.0 0.0 
-1.677692708745e-04 1.162335461501e-03 0.0 
1.162335461501e-03 8.088463148234e-03 0.0 
0.0 0.0 0.0 
1.257144777913e-03 4.381253561240e-04 0.0 
4.381253561240e-04 3.257331384932e-03 0.0 
0.0 0.0 0.0 
2.617848751765e-03 4.926784002945e-04 0.0 
4.926784002945e-04 -2.869767531393e-03 0.0 
0.0 0.0 0.0 
2.778070134690e-04 1.196581691896e-03 0.0 
1.196581691896e-03 6.351279364867e-03 0.0 
0.0 0.0 0.0 
4.367348425312e-04 1.391104995636e-03 0.0 
1.391104995636e-03 4.696035489514e-03 0.0 
0.0 0.0 0.0 
1.555848132287e-03 1.034076544225e-03 0.0 
1.034076544225e-03 1.696289567652e-03 0.0 
0.0 0.0 0.0 
1.162756061843e-03 4.347126903003e-04 0.0 
4.347126903003e-04 3.682452127718e-03 0.0 
0.0 0.0 0.0 
6.325209332110e-04 -6.726696697760e-05 0.0 
-6.726696697760e-05 4.982565523377e-03 0.0 
0.0 0.0 0.0 
2.543386965135e-03 -4.175256310866e-04 0.0 
-4.175256310866e-04 -2.721853282006e-03 0.0 
0.0 0.0 0.0 
1.396618526017e-03 4.210536467256e-04 0.0 
4.210536467256e-04 2.649530814733e-03 0.0 
0.0 0.0 0.0 
-5.427918046347e-04 7.826174050535e-04 0.0 
7.826174050535e-04 7.367632323627e-03 0.0 
0.0 0.0 0.0 
-1.375602501730e-05 -2.057406796792e-04 0.0 
-2.057406796792e-04 6.416862902788e-03 0.0 
0.0 0.0 0.0 
-4.856464308184e-04 8.762358292571e-04 0.0 
8.762358292571e-04 7.386039033578e-03 0.0 
0.0 0.0 0.0 
1.887902042188e-04 1.231623417169e-03 0.0 
1.231623417169e-03 6.383584421256e-03 0.0 
0.0 0.0 0.0 
-5.857519890823e-04 6.859153987842e-04 0.0 
6.859153987842e-04 7.328491092159e-03 0.0 
0.0 0.0 0.0 
-6.334788300975e-04 4.972523192528e-04 0.0 
4.972523192528e-04 7.186706803947e-03 0.0 
0.0 0.0 0.0 
-3.742149092639e-04 1.074181330752e-03 0.0 
1.074181330752e-03 6.691849211746e-03 0.0 
0.0 0.0 0.0 
6.407364626064e-04 8.650258818983e-04 0.0 
8.650258818983e-04 5.629670679355e-03 0.0 
0.0 0.0 0.0 
1.918708097730e-04 -2.756656989717e-04 0.0 
-2.756656989717e-04 5.568638643552e-03 0.0 
0.0 0.0 0.0 
-4.880666432389e-04 4.405896914820e-04 0.0 
4.405896914820e-04 8.148348264646e-03 0.0 
0.0 0.0 0.0 
-2.570008068883e-04 6.213938785691e-04 0.0 
6.213938785691e-04 9.190204043666e-03 0.0 
0.0 0.0 0.0 
-6.162614852042e-04 5.895523565282e-04 0.0 
5.895523565282e-04 7.268658999681e-03 0.0 
0.0 0.0 0.0 
1.919592743865e-03 8.306259074398e-04 0.0 
8.306259074398e-04 3.632818323711e-04 0.0 
0.0 0.0 0.0 
1.990486506982e-04 1.166782544924e-03 0.0 
1.166782544924e-03 6.809379091878e-03 0.0 
0.0 0.0 0.0 
-2.775455740007e-04 3.291517161304e-04 0.0 
3.291517161304e-04 9.264877316903e-03 0.0 
0.0 0.0 0.0 
6.757211931623e-04 1.507072488393e-03 0.0 
1.507072488393e-03 3.563031261464e-03 0.0 
0.0 0.0 0.0 
4.773596365637e-04 1.482637687321e-03 0.0 
1.482637687321e-03 4.144705553522e-03 0.0 
0.0 0.0 0.0 
1.761777046235e-03 7.523765795000e-04 0.0 
7.523765795000e-04 1.059575730077e-03 0.0 
0.0 0.0 0.0 
-4.722228099425e-04 5.172428621857e-04 0.0 
5.172428621857e-04 8.268665331460e-03 0.0 
0.0 0.0 0.0 
-4.365106669142e-04 1.419690883752e-03 0.0 
1.419690883752e-03 4.663570400428e-03 0.0 
0.0 0.0 0.0 
6.329031852497e-04 1.286937251286e-03 0.0 
1.286937251286e-03 4.479567151733e-03 0.0 
0.0 0.0 0.0 
-3.841499341780e-04 1.517895403694e-03 0.0 
1.517895403694e-03 4.649973911052e-03 0.0 
0.0 0.0 0.0 
7.673921608300e-04 8.712619425449e-04 0.0 
8.712619425449e-04 5.088553742664e-03 0.0 
0.0 0.0 0.0 
1.402638741210e-04 1.181192152519e-03 0.0 
1.181192152519e-03 7.224712495182e-03 0.0 
0.0 0.0 0.0 
1.744288664720e-03 3.797271685538e-04 0.0 
3.797271685538e-04 1.179851097792e-03 0.0 
0.0 0.0 0.0 
2.385801681416e-03 -5.673333154386e-04 0.0 
-5.673333154386e-04 -4.106670801447e-03 0.0 
0.0 0.0 0.0 
-2.706722986743e-04 7.310868453804e-04 0.0 
7.310868453804e-04 9.050249168544e-03 0.0 
0.0 0.0 0.0 
-5.008969752968e-04 1.259527762916e-03 0.0 
1.259527762916e-03 5.073830111727e-03 0.0 
0.0 0.0 0.0 
1.314793559020e-03 -2.688668963228e-04 0.0 
-2.688668963228e-04 2.404562774011e-03 0.0 
0.0 0.0 0.0 
2.470973921214e-04 1.197386946822e-03 0.0 
1.197386946822e-03 6.790207744117e-03 0.0 
0.0 0.0 0.0 
-5.549854843200e-04 4.159246465628e-04 0.0 
4.159246465628e-04 8.151516440170e-03 0.0 
0.0 0.0 0.0 
2.930447059211e-04 -2.930160546882e-04 0.0 
-2.930160546882e-04 5.254823766248e-03 0.0 
0.0 0.0 0.0 
1.137288229568e-03 1.496773752855e-03 0.0 
1.496773752855e-03 2.482168974180e-03 0.0 
0.0 0.0 0.0 
2.159003674232e-03 -2.675629634775e-04 0.0 
-2.675629634775e-04 -4.381604183507e-03 0.0 
0.0 0.0 0.0 
-5.367493590780e-05 -1.894301308267e-04 0.0 
-1.894301308267e-04 6.699438823254e-03 0.0 
0.0 0.0 0.0 
-1.489081579586e-05 1.368617304225e-03 0.0 
1.368617304225e-03 5.338617636490e-03 0.0 
0.0 0.0 0.0 
7.490142323616e-04 9.867377814142e-04 0.0 
9.867377814142e-04 4.978530117738e-03 0.0 
0.0 0.0 0.0 
1.111503528151e-05 1.231181568566e-03 0.0 
1.231181568566e-03 7.272654371453e-03 0.0 
0.0 0.0 0.0 
1.175134538510e-03 -6.211981048250e-05 0.0 
-6.211981048250e-05 -4.830040820958e-03 0.0 
0.0 0.0 0.0 
3.907548528221e-04 -2.141509844549e-04 0.0 
-2.141509844549e-04 5.242039114495e-03 0.0 
0.0 0.0 0.0 
1.160901279319e-03 2.183615659703e-03 0.0 
2.183615659703e-03 1.052274491188e-03 0.0 
0.0 0.0 0.0 
-6.067518870232e-04 3.518540688563e-04 0.0 
3.518540688563e-04 7.787639297545e-03 0.0 
0.0 0.0 0.0 
1.201741119374e-04 -5.834115920562e-04 0.0 
-5.834115920562e-04 4.160115638178e-03 0.0 
0.0 0.0 0.0 
1.710165180486e-03 7.358072937535e-04 0.0 
7.358072937535e-04 1.121065931803e-03 0.0 
0.0 0.0 0.0 
3.872985240561e-05 -2.283255078743e-04 0.0 
-2.283255078743e-04 6.144781305167e-03 0.0 
0.0 0.0 0.0 
4.802511893036e-04 1.378298701937e-03 0.0 
1.378298701937e-03 4.563156596027e-03 0.0 
0.0 0.0 0.0 
1.864873904877e-03 8.036969375385e-04 0.0 
8.036969375385e-04 4.010904000131e-04 0.0 
0.0 0.0 0.0 
-4.964310237132e-05 1.292843825696e-03 0.0 
1.292843825696e-03 5.797413822801e-03 0.0 
0.0 0.0 0.0 
1.839033844570e-03 -1.693982379714e-03 0.0 
-1.693982379714e-03 -4.123064279076e-03 0.0 
0.0 0.0 0.0 
1.249422703431e-05 1.210442755770e-03 0.0 
1.210442755770e-03 6.503009276457e-03 0.0 
0.0 0.0 0.0 
8.014489769608e-04 7.460095745470e-04 0.0 
7.460095745470e-04 5.107113778134e-03 0.0 
0.0 0.0 0.0 
-1.745693241529e-04 1.125153125172e-03 0.0 
1.125153125172e-03 8.392543412621e-03 0.0 
0.0 0.0 0.0 
2.217906097646e-05 1.190758337937e-03 0.0 
1.190758337937e-03 6.880971937119e-03 0.0 
0.0 0.0 0.0 
2.282684532582e-03 3.967921026499e-04 0.0 
3.967921026499e-04 -1.123633263767e-03 0.0 
0.0 0.0 0.0 
1.239785873604e-04 -3.174393933476e-04 0.0 
-3.174393933476e-04 5.423648601389e-03 0.0 
0.0 0.0 0.0 
-1.942464110782e-04 4.354724279562e-04 0.0 
4.354724279562e-04 9.395960087343e-03 0.0 
0.0 0.0 0.0 
2.454337774405e-04 9.910632724172e-04 0.0 
9.910632724172e-04 7.000915316916e-03 0.0 
0.0 0.0 0.0 
6.685461193403e-04 8.602524048245e-04 0.0 
8.602524048245e-04 5.555872304393e-03 0.0 
0.0 0.0 0.0 
1.321257114321e-03 1.225373494985e-03 0.0 
1.225373494985e-03 2.342319407476e-03 0.0 
0.0 0.0 0.0 
-1.150905220215e-05 1.245398703431e-03 0.0 
1.245398703431e-03 6.141975112086e-03 0.0 
0.0 0.0 0.0 
-6.410812490676e-05 -1.290357960152e-04 0.0 
-1.290357960152e-04 6.482462316193e-03 0.0 
0.0 0.0 0.0 
-3.221909937569e-04 -1.784987671607e-04 0.0 
-1.784987671607e-04 4.466674238043e-03 0.0 
0.0 0.0 0.0 
8.207431427931e-05 1.237941521887e-03 0.0 
1.237941521887e-03 6.432230658627e-03 0.0 
0.0 0.0 0.0 
-4.964111423927e-04 3.698042883487e-04 0.0 
3.698042883487e-04 8.013916634833e-03 0.0 
0.0 0.0 0.0 
1.076622512881e-04 -2.526319147545e-04 0.0 
-2.526319147545e-04 5.862378298766e-03 0.0 
0.0 0.0 0.0 
3.533334881729e-04 -2.159649696199e-04 0.0 
-2.159649696199e-04 5.412804904047e-03 0.0 
0.0 0.0 0.0 
-4.387814973000e-04 5.039717415343e-06 0.0 
5.039717415343e-06 6.457436874693e-03 0.0 
0.0 0.0 0.0 
-4.316341909227e-04 8.867682036200e-06 0.0 
8.867682036200e-06 6.453693249250e-03 0.0 
0.0 0.0 0.0 
-5.801705518553e-04 7.503800159816e-04 0.0 
7.503800159816e-04 7.654761773972e-03 0.0 
0.0 0.0 0.0 
6.196979849493e-05 1.268717501056e-03 0.0 
1.268717501056e-03 6.050936232160e-03 0.0 
0.0 0.0 0.0 
2.887608210544e-05 -5.008315202622e-04 0.0 
-5.008315202622e-04 4.473860819161e-03 0.0 
0.0 0.0 0.0 
-4.124304170858e-04 1.025777743967e-03 0.0 
1.025777743967e-03 7.047791830787e-03 0.0 
0.0 0.0 0.0 
6.614247215724e-04 1.384078004579e-03 0.0 
1.384078004579e-03 4.015294375379e-03 0.0 
0.0 0.0 0.0 
5.670848121111e-04 4.317300632064e-04 0.0 
4.317300632064e-04 5.747579552278e-03 0.0 
0.0 0.0 0.0 
1.140613237436e-03 1.440660242829e-03 0.0 
1.440660242829e-03 2.311147875935e-03 0.0 
0.0 0.0 0.0 
-1.105512078391e-04 6.381558007562e-04 0.0 
6.381558007562e-04 9.844943068246e-03 0.0 
0.0 0.0 0.0 
-6.599072292703e-04 4.257442937982e-04 0.0 
4.257442937982e-04 6.843032750247e-03 0.0 
0.0 0.0 0.0 
6.312591660513e-04 1.410199543933e-03 0.0 
1.410199543933e-03 4.154867746651e-03 0.0 
0.0 0.0 0.0 
2.461100972484e-04 -5.412914278578e-04 0.0 
-5.412914278578e-04 4.152504381601e-03 0.0 
0.0 0.0 0.0 
2.252550570817e-03 1.083690827767e-03 0.0 
1.083690827767e-03 -1.164397166087e-03 0.0 
0.0 0.0 0.0 
1.993032508341e-04 -7.855511353350e-04 0.0 
-7.855511353350e-04 3.423919499961e-03 0.0 
0.0 0.0 0.0 
3.029978371916e-05 1.313569608939e-03 0.0 
1.313569608939e-03 5.685322842884e-03 0.0 
0.0 0.0 0.0 
-2.643190198677e-04 1.231896535217e-03 0.0 
1.231896535217e-03 5.909284485535e-03 0.0 
0.0 0.0 0.0 
-5.312208987646e-04 4.513213298449e-04 0.0 
4.513213298449e-04 7.915152948183e-03 0.0 
0.0 0.0 0.0 
-3.111609499082e-04 1.089800418600e-03 0.0 
1.089800418600e-03 7.014812983236e-03 0.0 
0.0 0.0 0.0 
-3.525680947537e-04 1.041729418171e-03 0.0 
1.041729418171e-03 7.371445734931e-03 0.0 
0.0 0.0 0.0 
1.654599232783e-04 -6.046359232116e-05 0.0 
-6.046359232116e-05 1.036294323900e-03 0.0 
0.0 0.0 0.0 
1.864086755934e-04 -7.629900327637e-04 0.0 
-7.629900327637e-04 3.385791694255e-03 0.0 
0.0 0.0 0.0 
-4.713621654906e-04 1.355294259023e-03 0.0 
1.355294259023e-03 5.062562677142e-03 0.0 
0.0 0.0 0.0 
-4.837131925922e-04 9.251484753489e-04 0.0 
9.251484753489e-04 7.068277230819e-03 0.0 
0.0 0.0 0.0 
-5.213635122546e-04 8.896793761394e-04 0.0 
8.896793761394e-04 7.383720338518e-03 0.0 
0.0 0.0 0.0 
6.174244812591e-04 7.546957874258e-04 0.0 
7.546957874258e-04 5.735654779304e-03 0.0 
0.0 0.0 0.0 
-1.150447974191e-04 -1.367338432931e-05 0.0 
-1.367338432931e-05 1.776205060125e-03 0.0 
0.0 0.0 0.0 
2.344845328813e-03 -1.343002198419e-03 0.0 
-1.343002198419e-03 -3.076180097282e-03 0.0 
0.0 0.0 0.0 
1.146740050559e-04 1.453894156062e-03 0.0 
1.453894156062e-03 4.846260465119e-03 0.0 
0.0 0.0 0.0 
5.520308434148e-05 -7.833916204213e-04 0.0 
-7.833916204213e-04 3.389613363721e-03 0.0 
0.0 0.0 0.0 
-7.597733756016e-04 3.264735359290e-04 0.0 
3.264735359290e-04 5.931388657959e-03 0.0 
0.0 0.0 0.0 
-7.420526393127e-04 3.034433106869e-04 0.0 
3.034433106869e-04 6.164908664739e-03 0.0 
0.0 0.0 0.0 
-5.977373854466e-04 4.340047785123e-04 0.0 
4.340047785123e-04 7.917412414661e-03 0.0 
0.0 0.0 0.0 
1.319498157352e-03 2.703313946362e-03 0.0 
2.703313946362e-03 -8.385162141739e-04 0.0 
0.0 0.0 0.0 
1.177042125025e-04 -5.615723260192e-04 0.0 
-5.615723260192e-04 4.079845961063e-03 0.0 
0.0 0.0 0.0 
8.607617517948e-04 2.216957729416e-04 0.0 
2.216957729416e-04 4.668105046127e-03 0.0 
0.0 0.0 0.0 
2.644361790022e-03 -3.908067204199e-04 0.0 
-3.908067204199e-04 -3.283950216069e-03 0.0 
0.0 0.0 0.0 
1.917583433331e-05 1.236147872393e-03 0.0 
1.236147872393e-03 7.926546239255e-03 0.0 
0.0 0.0 0.0 
-3.753203551502e-04 4.389757860290e-04 0.0 
4.389757860290e-04 8.958411059864e-03 0.0 
0.0 0.0 0.0 
-9.722133576051e-05 -5.622622779406e-04 0.0 
-5.622622779406e-04 4.004313411408e-03 0.0 
0.0 0.0 0.0 
1.175155689055e-04 -2.258152052817e-04 0.0 
-2.258152052817e-04 5.707042645934e-03 0.0 
0.0 0.0 0.0 
1.080498901951e-04 -4.907219390944e-05 0.0 
-4.907219390944e-05 7.090971116199e-04 0.0 
0.0 0.0 0.0 
8.812621084244e-04 5.483624550609e-05 0.0 
5.483624550609e-05 4.370849383004e-03 0.0 
0.0 0.0 0.0 
8.157933952857e-05 1.368423610144e-03 0.0 
1.368423610144e-03 5.338130652558e-03 0.0 
0.0 0.0 0.0 
1.639681404715e-04 -3.840988137500e-05 0.0 
-3.840988137500e-05 6.854141047015e-04 0.0 
0.0 0.0 0.0 
-3.147858540636e-04 4.727230100053e-04 0.0 
4.727230100053e-04 8.955286288223e-03 0.0 
0.0 0.0 0.0 
2.671392997768e-03 -5.083215875683e-04 0.0 
-5.083215875683e-04 -3.668692889555e-03 0.0 
0.0 0.0 0.0 
-5.058410100942e-04 9.447097766937e-04 0.0 
9.447097766937e-04 7.065417817437e-03 0.0 
0.0 0.0 0.0 
-2.129608455369e-04 1.254649130282e-03 0.0 
1.254649130282e-03 5.905986726380e-03 0.0 
0.0 0.0 0.0 
1.338583193892e-03 -3.686464833648e-04 0.0 
-3.686464833648e-04 2.059626200729e-03 0.0 
0.0 0.0 0.0 
8.920705135416e-04 -2.965422007708e-04 0.0 
-2.965422007708e-04 3.716493434524e-03 0.0 
0.0 0.0 0.0 
-2.904458628818e-04 5.439162764691e-04 0.0 
5.439162764691e-04 9.075705178780e-03 0.0 
0.0 0.0 0.0 
8.043765118273e-04 -1.796797684338e-04 0.0 
-1.796797684338e-04 4.232629760211e-03 0.0 
0.0 0.0 0.0 
3.031737420747e-04 1.434538302915e-03 0.0 
1.434538302915e-03 4.690222173664e-03 0.0 
0.0 0.0 0.0 
2.384837200953e-04 1.440495778927e-03 0.0 
1.440495778927e-03 4.847562609501e-03 0.0 
0.0 0.0 0.0 
-1.153470516409e-03 2.319462778754e-03 0.0 
2.319462778754e-03 8.884492485173e-04 0.0 
0.0 0.0 0.0 
2.580897584549e-03 -3.580715580145e-04 0.0 
-3.580715580145e-04 -3.904704691451e-03 0.0 
0.0 0.0 0.0 
1.217548661570e-04 1.192617424267e-03 0.0 
1.192617424267e-03 6.827978651725e-03 0.0 
0.0 0.0 0.0 
-6.704838012466e-04 4.727363849596e-04 0.0 
4.727363849596e-04 7.434093258077e-03 0.0 
0.0 0.0 0.0 
1.746059285179e-04 1.224104129913e-03 0.0 
1.224104129913e-03 6.799177162067e-03 0.0 
0.0 0.0 0.0 
8.188731833756e-04 2.364468919380e-03 0.0 
2.364468919380e-03 1.026845045383e-03 0.0 
0.0 0.0 0.0 
-4.161305798255e-04 7.886924056735e-04 0.0 
7.886924056735e-04 8.270019777967e-03 0.0 
0.0 0.0 0.0 
1.922564932433e-05 1.194992672430e-03 0.0 
1.194992672430e-03 7.275279811016e-03 0.0 
0.0 0.0 0.0 
-6.924787695559e-04 3.762092197154e-04 0.0 
3.762092197154e-04 6.271401159805e-03 0.0 
0.0 0.0 0.0 
8.689305728771e-05 1.219111380707e-03 0.0 
1.219111380707e-03 6.823626303417e-03 0.0 
0.0 0.0 0.0 
4.556423478164e-05 -2.795717349389e-04 0.0 
-2.795717349389e-04 5.715995762915e-03 0.0 
0.0 0.0 0.0 
1.798918902449e-04 1.310631596003e-03 0.0 
1.310631596003e-03 5.578917016500e-03 0.0 
0.0 0.0 0.0 
2.260598819113e-04 -6.515590013167e-04 0.0 
-6.515590013167e-04 3.760398832061e-03 0.0 
0.0 0.0 0.0 
2.264856503245e-04 -6.675073818570e-04 0.0 
-6.675073818570e-04 3.824407819621e-03 0.0 
0.0 0.0 0.0 
-3.433488641195e-04 7.080254298372e-04 0.0 
7.080254298372e-04 9.058926928162e-03 0.0 
0.0 0.0 0.0 
9.674113076923e-04 -4.290100371922e-04 0.0 
-4.290100371922e-04 3.205359900507e-03 0.0 
0.0 0.0 0.0 
-1.203690496010e-04 1.286974458441e-03 0.0 
1.286974458441e-03 5.798545304281e-03 0.0 
0.0 0.0 0.0 
1.006549372931e-03 1.192286626156e-03 0.0 
1.192286626156e-03 3.406766941735e-03 0.0 
0.0 0.0 0.0 
7.008865066627e-04 -8.037969623923e-05 0.0 
-8.037969623923e-05 4.753494473513e-03 0.0 
0.0 0.0 0.0 
8.477096328288e-04 1.398248585523e-03 0.0 
1.398248585523e-03 3.577990621340e-03 0.0 
0.0 0.0 0.0 
2.210705028736e-03 4.089001406927e-04 0.0 
4.089001406927e-04 -9.294385755896e-04 0.0 
0.0 0.0 0.0 
1.324593328326e-03 2.234250074683e-04 0.0 
2.234250074683e-04 2.908009972561e-03 0.0 
0.0 0.0 0.0 
2.027760610260e-03 8.953155821256e-04 0.0 
8.953155821256e-04 -3.742773320955e-04 0.0 
0.0 0.0 0.0 
-4.034607971011e-04 1.015430716853e-03 0.0 
1.015430716853e-03 7.049221620954e-03 0.0 
0.0 0.0 0.0 
2.088111730853e-03 3.821610085147e-04 0.0 
3.821610085147e-04 -2.949305880900e-04 0.0 
0.0 0.0 0.0 
-3.656952854505e-04 1.092552541526e-03 0.0 
1.092552541526e-03 6.689315241265e-03 0.0 
0.0 0.0 0.0 
6.589138679078e-04 7.533231359187e-04 0.0 
7.533231359187e-04 5.646749282774e-03 0.0 
0.0 0.0 0.0 
7.638467111051e-04 7.501213796910e-04 0.0 
7.501213796910e-04 5.200074737806e-03 0.0 
0.0 0.0 0.0 
8.983065234149e-04 1.498981636367e-03 0.0 
1.498981636367e-03 2.951233864639e-03 0.0 
0.0 0.0 0.0 
-5.661333977962e-04 4.636049946350e-04 0.0 
4.636049946350e-04 7.674849369156e-03 0.0 
0.0 0.0 0.0 
4.091063296041e-05 -1.922184457360e-04 0.0 
-1.922184457360e-04 5.984626647280e-03 0.0 
0.0 0.0 0.0 
-1.704533601943e-05 -2.427319701608e-04 0.0 
-2.427319701608e-04 5.993113988386e-03 0.0 
0.0 0.0 0.0 
8.605565222557e-04 2.830654768578e-03 0.0 
2.830654768578e-03 -9.749433602614e-04 0.0 
0.0 0.0 0.0 
-2.666671257345e-04 1.145695106390e-03 0.0 
1.145695106390e-03 6.633746585825e-03 0.0 
0.0 0.0 0.0 
-2.259635281432e-05 -1.201488357455e-04 0.0 
-1.201488357455e-04 6.683286250762e-03 0.0 
0.0 0.0 0.0 
-7.393496203985e-04 9.444957746496e-04 0.0 
9.444957746496e-04 4.747621213405e-03 0.0 
0.0 0.0 0.0 
-6.857602468902e-05 -4.923946964322e-04 0.0 
-4.923946964322e-04 4.377884355089e-03 0.0 
0.0 0.0 0.0 
-1.516650917087e-03 2.463490134330e-03 0.0 
2.463490134330e-03 1.696093852421e-03 0.0 
0.0 0.0 0.0 
-1.875691498032e-05 -1.592211564975e-04 0.0 
-1.592211564975e-04 6.244812593147e-03 0.0 
0.0 0.0 0.0 
2.196004354525e-03 1.023393891236e-03 0.0 
1.023393891236e-03 -1.219830720863e-03 0.0 
0.0 0.0 0.0 
-3.107195932764e-04 -1.121056862320e-04 0.0 
-1.121056862320e-04 4.628327429795e-03 0.0 
0.0 0.0 0.0 
6.849313218347e-04 1.109424074844e-03 0.0 
1.109424074844e-03 4.964108759137e-03 0.0 
0.0 0.0 0.0 
-6.371914301402e-04 4.507048328850e-04 0.0 
4.507048328850e-04 7.676824103896e-03 0.0 
0.0 0.0 0.0 
-6.042283488101e-04 4.788540858893e-04 0.0 
4.788540858893e-04 7.433015707643e-03 0.0 
0.0 0.0 0.0 
1.546182611165e-04 1.376483271560e-03 0.0 
1.376483271560e-03 5.203558108501e-03 0.0 
0.0 0.0 0.0 
-7.854439557365e-04 4.043180393359e-04 0.0 
4.043180393359e-04 5.468236490231e-03 0.0 
0.0 0.0 0.0 
-7.700037460068e-04 3.670030716460e-04 0.0 
3.670030716460e-04 5.703846810887e-03 0.0 
0.0 0.0 0.0 
-6.397389721147e-05 -2.071287375398e-04 0.0 
-2.071287375398e-04 6.252980975674e-03 0.0 
0.0 0.0 0.0 
8.240233880712e-04 -2.781551400400e-04 0.0 
-2.781551400400e-04 3.902638023247e-03 0.0 
0.0 0.0 0.0 
1.232271842588e-03 -2.413188358287e-04 0.0 
-2.413188358287e-04 2.658150566863e-03 0.0 
0.0 0.0 0.0 
9.544228700984e-04 2.070580590411e-04 0.0 
2.070580590411e-04 4.351597430754e-03 0.0 
0.0 0.0 0.0 
1.463319797505e-03 1.713461477425e-04 0.0 
1.713461477425e-04 2.297935719200e-03 0.0 
0.0 0.0 0.0 
2.085914476375e-03 9.368105308307e-04 0.0 
9.368105308307e-04 -3.776375620308e-04 0.0 
0.0 0.0 0.0 
-7.020661895978e-04 3.431386338254e-04 0.0 
3.431386338254e-04 5.481127370818e-03 0.0 
0.0 0.0 0.0 
-7.040087806014e-04 4.106382981364e-04 0.0 
4.106382981364e-04 7.083986330405e-03 0.0 
0.0 0.0 0.0 
-4.352680104101e-04 6.357072960088e-06 0.0 
6.357072960088e-06 6.457741062129e-03 0.0 
0.0 0.0 0.0 
7.783702676170e-04 6.289766939497e-04 0.0 
6.289766939497e-04 5.217161548132e-03 0.0 
0.0 0.0 0.0 
1.080139777350e-03 1.341699484173e-03 0.0 
1.341699484173e-03 2.973072748635e-03 0.0 
0.0 0.0 0.0 
3.916596856266e-04 9.646520304917e-04 0.0 
9.646520304917e-04 6.572859899846e-03 0.0 
0.0 0.0 0.0 
-1.671961296380e-04 -5.462537738797e-05 0.0 
-5.462537738797e-05 6.361124539859e-03 0.0 
0.0 0.0 0.0 
1.367303344528e-03 1.792009453508e-04 0.0 
1.792009453508e-04 2.687819189069e-03 0.0 
0.0 0.0 0.0 
-8.136758457122e-06 -1.844293279055e-04 0.0 
-1.844293279055e-04 6.858998408477e-03 0.0 
0.0 0.0 0.0 
1.967538881122e-03 -8.340800879517e-05 0.0 
-8.340800879517e-05 -3.197537256761e-05 0.0 
0.0 0.0 0.0 
3.933148700836e-04 1.043802210517e-03 0.0 
1.043802210517e-03 6.486561906029e-03 0.0 
0.0 0.0 0.0 
2.637666159364e-04 1.350235527573e-03 0.0 
1.350235527573e-03 5.206889698909e-03 0.0 
0.0 0.0 0.0 
3.195227027419e-04 1.277478058070e-03 0.0 
1.277478058070e-03 5.488246038118e-03 0.0 
0.0 0.0 0.0 
6.073219132956e-04 2.081022632963e-04 0.0 
2.081022632963e-04 5.496833958375e-03 0.0 
0.0 0.0 0.0 
1.942281555125e-04 -1.164957890682e-03 0.0 
-1.164957890682e-03 2.304505414649e-03 0.0 
0.0 0.0 0.0 
-2.039735287421e-04 1.213423141240e-03 0.0 
1.213423141240e-03 6.230001292451e-03 0.0 
0.0 0.0 0.0 
1.382930805845e-03 -8.587091244965e-05 0.0 
-8.587091244965e-05 2.337582547369e-03 0.0 
0.0 0.0 0.0 
-2.990661222806e-04 1.169262178125e-03 0.0 
1.169262178125e-03 6.308322395656e-03 0.0 
0.0 0.0 0.0 
7.919220432127e-04 2.172187570071e-03 0.0 
2.172187570071e-03 1.899160467562e-03 0.0 
0.0 0.0 0.0 
4.439016309694e-04 1.230804760724e-03 0.0 
1.230804760724e-03 5.440110860638e-03 0.0 
0.0 0.0 0.0 
1.474983141628e-03 -1.076895640649e-04 0.0 
-1.076895640649e-04 2.017044774808e-03 0.0 
0.0 0.0 0.0 
1.366874338702e-04 -4.667726276291e-04 0.0 
-4.667726276291e-04 4.467467187075e-03 0.0 
0.0 0.0 0.0 
-3.285298221710e-04 1.146269566121e-03 0.0 
1.146269566121e-03 6.311525721904e-03 0.0 
0.0 0.0 0.0 
-6.095128934277e-04 3.257056364749e-03 0.0 
3.257056364749e-03 -7.301961181297e-04 0.0 
0.0 0.0 0.0 
9.279292402522e-04 1.106336166193e-03 0.0 
1.106336166193e-03 3.946145879329e-03 0.0 
0.0 0.0 0.0 
-8.325552121992e-04 2.794531898980e-03 0.0 
2.794531898980e-03 1.345800120924e-03 0.0 
0.0 0.0 0.0 
-1.653935907635e-04 -2.432130436414e-04 0.0 
-2.432130436414e-04 1.231835510790e-03 0.0 
0.0 0.0 0.0 
2.513495405521e-05 -4.734908964775e-04 0.0 
-4.734908964775e-04 4.373855129955e-03 0.0 
0.0 0.0 0.0 
-1.619898111265e-04 1.144947095286e-03 0.0 
1.144947095286e-03 7.328483312629e-03 0.0 
0.0 0.0 0.0 
-5.884113831840e-04 5.632385606464e-04 0.0 
5.632385606464e-04 7.523225579634e-03 0.0 
0.0 0.0 0.0 
-8.088577667205e-04 5.240539370304e-04 0.0 
5.240539370304e-04 4.998946421946e-03 0.0 
0.0 0.0 0.0 
0.0 6.574466944128e-04 0.0 
6.574466944128e-04 9.825696801390e-03 0.0 
0.0 0.0 0.0 
-1.271580188039e-03 2.456072566998e-03 0.0 
2.456072566998e-03 1.623711183909e-04 0.0 
0.0 0.0 0.0 
-7.901996744729e-04 4.652717246344e-04 0.0 
4.652717246344e-04 5.240752338709e-03 0.0 
0.0 0.0 0.0 
1.204007252539e-03 -1.561631484613e-04 0.0 
-1.561631484613e-04 2.969689343979e-03 0.0 
0.0 0.0 0.0 
-1.560653327942e-04 -4.629546263575e-04 0.0 
-4.629546263575e-04 4.279459628489e-03 0.0 
0.0 0.0 0.0 
-7.859646367853e-04 6.477806340117e-04 0.0 
6.477806340117e-04 5.835773180675e-03 0.0 
0.0 0.0 0.0 
1.619650351860e-03 -7.293195736997e-04 0.0 
-7.293195736997e-04 6.273006559434e-04 0.0 
0.0 0.0 0.0 
9.027265743460e-04 -4.055881701933e-04 0.0 
-4.055881701933e-04 3.365261556080e-03 0.0 
0.0 0.0 0.0 
1.145548212709e-04 1.300050570045e-03 0.0 
1.300050570045e-03 5.686875366031e-03 0.0 
0.0 0.0 0.0 
8.407803239276e-04 1.040894190058e-03 0.0 
1.040894190058e-03 4.483094722771e-03 0.0 
0.0 0.0 0.0 
-2.631702312336e-04 1.054500709979e-03 0.0 
1.054500709979e-03 8.043919712490e-03 0.0 
0.0 0.0 0.0 
1.463594051898e-03 2.847493686361e-03 0.0 
2.847493686361e-03 -2.167242954499e-03 0.0 
0.0 0.0 0.0 
-5.287998040560e-06 -5.536834119211e-04 0.0 
-5.536834119211e-04 4.002437378524e-03 0.0 
0.0 0.0 0.0 
-1.406966717700e-04 -3.657681982179e-04 0.0 
-3.657681982179e-04 4.535425729319e-03 0.0 
0.0 0.0 0.0 
-2.401510412998e-04 -1.012780739973e-03 0.0 
-1.012780739973e-03 2.115531814902e-03 0.0 
0.0 0.0 0.0 
-6.803000012535e-04 3.627384345421e-04 0.0 
3.627384345421e-04 6.508186842882e-03 0.0 
0.0 0.0 0.0 
-6.523728247657e-04 5.633081894758e-04 0.0 
5.633081894758e-04 7.523530118789e-03 0.0 
0.0 0.0 0.0 
-2.408505069496e-04 -5.784145501011e-05 0.0 
-5.784145501011e-05 5.814865353752e-03 0.0 
0.0 0.0 0.0 
3.052185342707e-04 -5.169324688358e-05 0.0 
-5.169324688358e-05 6.283897780412e-04 0.0 
0.0 0.0 0.0 
4.486422748222e-04 -5.956808234326e-04 0.0 
-5.956808234326e-04 -4.720229627405e-03 0.0 
0.0 0.0 0.0 
-3.726851373800e-04 -8.534689351101e-04 0.0 
-8.534689351101e-04 1.603603036909e-03 0.0 
0.0 0.0 0.0 
-2.032872875813e-04 -3.709629606740e-04 0.0 
-3.709629606740e-04 4.536692353582e-03 0.0 
0.0 0.0 0.0 
1.805956851813e-03 -3.579885897935e-06 0.0 
-3.579885897935e-06 7.123237620397e-04 0.0 
0.0 0.0 0.0 
1.627676840693e-03 -8.895846588212e-04 0.0 
-8.895846588212e-04 1.267273252854e-04 0.0 
0.0 0.0 0.0 
2.140614082782e-03 -1.783853363362e-04 0.0 
-1.783853363362e-04 -8.412367851043e-04 0.0 
0.0 0.0 0.0 
-5.262061592404e-05 -3.891090704363e-04 0.0 
-3.891090704363e-04 4.649616639171e-03 0.0 
0.0 0.0 0.0 
-5.228898383846e-04 7.468906927367e-04 0.0 
7.468906927367e-04 7.654897971755e-03 0.0 
0.0 0.0 0.0 
-1.888959458938e-04 -2.807724023122e-04 0.0 
-2.807724023122e-04 4.774403851655e-03 0.0 
0.0 0.0 0.0 
1.851888208251e-03 3.958034503548e-04 0.0 
3.958034503548e-04 6.467568816806e-04 0.0 
0.0 0.0 0.0 
-2.444394645762e-04 1.151886925101e-03 0.0 
1.151886925101e-03 6.632846701026e-03 0.0 
0.0 0.0 0.0 
-5.536804357608e-04 1.947225691450e-04 0.0 
1.947225691450e-04 7.083989686825e-03 0.0 
0.0 0.0 0.0 
5.976705765418e-04 1.064867949400e-03 0.0 
1.064867949400e-03 5.485593821107e-03 0.0 
0.0 0.0 0.0 
-2.388257700573e-04 -2.861578565050e-04 0.0 
-2.861578565050e-04 4.775653389462e-03 0.0 
0.0 0.0 0.0 
-1.302435757559e-04 -4.047929039095e-04 0.0 
-4.047929039095e-04 4.652960974367e-03 0.0 
0.0 0.0 0.0 
-8.539264797320e-04 6.824135304715e-04 0.0 
6.824135304715e-04 4.544426391108e-03 0.0 
0.0 0.0 0.0 
1.641714495752e-03 -3.019633855716e-04 0.0 
-3.019633855716e-04 1.049293912328e-03 0.0 
0.0 0.0 0.0 
-2.247378097685e-04 -2.016176162384e-04 0.0 
-2.016176162384e-04 4.997425073340e-03 0.0 
0.0 0.0 0.0 
-3.720069652361e-04 3.950094629202e-05 0.0 
3.950094629202e-05 7.947969176582e-03 0.0 
0.0 0.0 0.0 
-4.017434298651e-04 3.686437403866e-05 0.0 
3.686437403866e-05 7.574859759066e-03 0.0 
0.0 0.0 0.0 
-8.239798002277e-04 6.023898214303e-04 0.0 
6.023898214303e-04 4.775636875817e-03 0.0 
0.0 0.0 0.0 
-1.157021461939e-04 -3.088551911467e-04 0.0 
-3.088551911467e-04 4.907243007448e-03 0.0 
0.0 0.0 0.0 
1.068178180249e-03 -1.360226647450e-03 0.0 
-1.360226647450e-03 6.857765315025e-04 0.0 
0.0 0.0 0.0 
-3.512756862145e-04 2.762927045782e-03 0.0 
2.762927045782e-03 1.248747619451e-03 0.0 
0.0 0.0 0.0 
4.100104213149e-04 9.583321720574e-04 0.0 
9.583321720574e-04 6.505659203851e-03 0.0 
0.0 0.0 0.0 
-6.108361260794e-04 -1.165425425465e-03 0.0 
-1.165425425465e-03 1.429327217179e-03 0.0 
0.0 0.0 0.0 
1.110059693497e-03 -1.147684278469e-03 0.0 
-1.147684278469e-03 1.234610276841e-03 0.0 
0.0 0.0 0.0 
9.340904884267e-04 1.118103902205e-03 0.0 
1.118103902205e-03 3.967494099522e-03 0.0 
0.0 0.0 0.0 
-7.133242797065e-04 4.215086788227e-04 0.0 
4.215086788227e-04 5.027986343458e-03 0.0 
0.0 0.0 0.0 
-2.636694769278e-04 -2.084522292805e-04 0.0 
-2.084522292805e-04 4.999726646369e-03 0.0 
0.0 0.0 0.0 
-2.505142755760e-04 -4.607538080541e-05 0.0 
-4.607538080541e-05 2.436132469764e-03 0.0 
0.0 0.0 0.0 
-7.165808641918e-04 3.343821491684e-04 0.0 
3.343821491684e-04 6.705011265339e-03 0.0 
0.0 0.0 0.0 
-1.787316877784e-04 -3.238769458339e-04 0.0 
-3.238769458339e-04 4.910347870882e-03 0.0 
0.0 0.0 0.0 
1.153526657819e-03 -4.864692851873e-04 0.0 
-4.864692851873e-04 2.442260335184e-03 0.0 
0.0 0.0 0.0 
6.634735564948e-06 -5.856873456040e-04 0.0 
-5.856873456040e-04 4.084459364358e-03 0.0 
0.0 0.0 0.0 
3.367692008058e-04 2.527118361311e-03 0.0 
2.527118361311e-03 -2.414169899259e-03 0.0 
0.0 0.0 0.0 
-2.489911949136e-04 1.888463510833e-06 0.0 
1.888463510833e-06 9.085027575823e-03 0.0 
0.0 0.0 0.0 
1.297135587577e-03 -8.321825573911e-04 0.0 
-8.321825573911e-04 1.282068422077e-03 0.0 
0.0 0.0 0.0 
6.755836353733e-04 5.531149987741e-04 0.0 
5.531149987741e-04 5.578283912214e-03 0.0 
0.0 0.0 0.0 
4.089974619728e-04 1.226407393652e-03 0.0 
1.226407393652e-03 5.496937671749e-03 0.0 
0.0 0.0 0.0 
-1.648133895482e-04 -2.342901713806e-04 0.0 
-2.342901713806e-04 5.147367433218e-03 0.0 
0.0 0.0 0.0 
-2.149040114398e-04 -2.473361804172e-04 0.0 
-2.473361804172e-04 5.149981835047e-03 0.0 
0.0 0.0 0.0 
1.915895328114e-03 -1.651675052588e-05 0.0 
-1.651675052588e-05 2.803481628166e-04 0.0 
0.0 0.0 0.0 
-7.640839917196e-04 -1.125997639420e-03 0.0 
-1.125997639420e-03 9.757356817883e-04 0.0 
0.0 0.0 0.0 
5.406718309875e-04 2.877794106970e-03 0.0 
2.877794106970e-03 -2.485575417091e-03 0.0 
0.0 0.0 0.0 
-2.011604217118e-04 -1.651561838621e-04 0.0 
-1.651561838621e-04 5.374423499475e-03 0.0 
0.0 0.0 0.0 
6.543575657474e-04 3.251069288409e-04 0.0 
3.251069288409e-04 5.501025015482e-03 0.0 
0.0 0.0 0.0 
5.076713860896e-04 -1.454708959923e-03 0.0 
-1.454708959923e-03 1.385865783892e-03 0.0 
0.0 0.0 0.0 
-1.511127877382e-04 1.198107495253e-03 0.0 
1.198107495253e-03 6.570037818448e-03 0.0 
0.0 0.0 0.0 
-7.461527833994e-04 1.067463354081e-03 0.0 
1.067463354081e-03 4.472343706790e-03 0.0 
0.0 0.0 0.0 
-3.084283082551e-04 1.093313911754e-03 0.0 
1.093313911754e-03 7.014308057843e-03 0.0 
0.0 0.0 0.0 
2.474934179932e-04 4.631422051699e-05 0.0 
4.631422051699e-05 6.690445443549e-03 0.0 
0.0 0.0 0.0 
-3.855858172771e-03 -1.201785127131e-04 0.0 
-1.201785127131e-04 -3.175016816301e-03 0.0 
0.0 0.0 0.0 
0.0 6.204135634645e-05 0.0 
6.204135634645e-05 1.006796788487e-02 0.0 
0.0 0.0 0.0 
0.0 -5.526576677837e-05 0.0 
-5.526576677837e-05 7.595476620784e-03 0.0 
0.0 0.0 0.0 
-4.236263399102e-04 -2.889927724162e-05 0.0 
-2.889927724162e-05 6.909679583692e-03 0.0 
0.0 0.0 0.0 
8.455328356411e-04 -1.110482543276e-03 0.0 
-1.110482543276e-03 1.739316356867e-03 0.0 
0.0 0.0 0.0 
2.718073212182e-04 1.276100294274e-03 0.0 
1.276100294274e-03 5.583995591400e-03 0.0 
0.0 0.0 0.0 
1.908662039853e-03 3.780714406094e-04 0.0 
3.780714406094e-04 4.687523451725e-04 0.0 
0.0 0.0 0.0 
1.245311674158e-05 -1.920584425694e-04 0.0 
-1.920584425694e-04 1.017872473023e-03 0.0 
0.0 0.0 0.0 
-1.600697028757e-03 2.687506597739e-03 0.0 
2.687506597739e-03 8.904992510410e-04 0.0 
0.0 0.0 0.0 
-2.192120849409e-04 1.814828206454e-04 0.0 
1.814828206454e-04 9.381891601964e-03 0.0 
0.0 0.0 0.0 
-6.235551027198e-04 6.569170583320e-04 0.0 
6.569170583320e-04 7.600990810260e-03 0.0 
0.0 0.0 0.0 
-7.383690053845e-04 2.870975080035e-04 0.0 
2.870975080035e-04 6.410489494546e-03 0.0 
0.0 0.0 0.0 
5.507201221655e-05 1.366464364513e-03 0.0 
1.366464364513e-03 8.133972462441e-03 0.0 
0.0 0.0 0.0 
-1.616757841423e-04 -3.461491732635e-05 0.0 
-3.461491732635e-05 2.014788290498e-03 0.0 
0.0 0.0 0.0 
7.473085696685e-05 1.318812238276e-03 0.0 
1.318812238276e-03 7.957802643720e-03 0.0 
0.0 0.0 0.0 
-5.619607841532e-04 6.570058136479e-04 0.0 
6.570058136479e-04 7.600527089357e-03 0.0 
0.0 0.0 0.0 
4.159042196321e-04 -1.146291288619e-03 0.0 
-1.146291288619e-03 2.249465490263e-03 0.0 
0.0 0.0 0.0 
3.186325611189e-04 1.347791685559e-03 0.0 
1.347791685559e-03 5.081470744356e-03 0.0 
0.0 0.0 0.0 
8.588534453726e-04 -1.130073641828e-03 0.0 
-1.130073641828e-03 1.760537491613e-03 0.0 
0.0 0.0 0.0 
-5.484865982267e-04 2.419801819171e-03 0.0 
2.419801819171e-03 2.122035811214e-03 0.0 
0.0 0.0 0.0 
5.705207781630e-04 -1.245469219624e-03 0.0 
-1.245469219624e-03 1.865699460935e-03 0.0 
0.0 0.0 0.0 
-4.719554957288e-04 8.380413920880e-04 0.0 
8.380413920880e-04 7.689122294726e-03 0.0 
0.0 0.0 0.0 
-1.482393457994e-04 -1.217917561847e-04 0.0 
-1.217917561847e-04 6.541044220166e-03 0.0 
0.0 0.0 0.0 
1.357932741590e-03 -8.746381704684e-04 0.0 
-8.746381704684e-04 1.175668854742e-03 0.0 
0.0 0.0 0.0 
-2.102311236361e-04 1.149915001918e-03 0.0 
1.149915001918e-03 6.970838749929e-03 0.0 
0.0 0.0 0.0 
-1.142399683310e-03 -2.456621813953e-04 0.0 
-2.456621813953e-04 -4.583908861500e-03 0.0 
0.0 0.0 0.0 
1.738431227384e-03 -3.343241624002e-04 0.0 
-3.343241624002e-04 7.360676225403e-04 0.0 
0.0 0.0 0.0 
-5.279666406075e-04 6.881733835930e-04 0.0 
6.881733835930e-04 8.208055457197e-03 0.0 
0.0 0.0 0.0 
1.405885612358e-04 -1.118987748541e-03 0.0 
-1.118987748541e-03 2.361720584985e-03 0.0 
0.0 0.0 0.0 
2.117038689127e-04 -1.471771929198e-03 0.0 
-1.471771929198e-03 1.546845504265e-03 0.0 
0.0 0.0 0.0 
4.320659601098e-04 1.298980463565e-03 0.0 
1.298980463565e-03 5.088709482258e-03 0.0 
0.0 0.0 0.0 
9.347434156166e-04 -2.150887533816e-03 0.0 
-2.150887533816e-03 -1.151167952979e-03 0.0 
0.0 0.0 0.0 
-9.253782357670e-04 8.621190581236e-04 0.0 
8.621190581236e-04 4.139236234247e-03 0.0 
0.0 0.0 0.0 
-8.556838537737e-04 7.875445194963e-04 0.0 
7.875445194963e-04 4.319076845146e-03 0.0 
0.0 0.0 0.0 
8.326180254814e-06 -1.216225083039e-03 0.0 
-1.216225083039e-03 2.075285194815e-03 0.0 
0.0 0.0 0.0 
1.067838970467e-03 -3.466158704391e-04 0.0 
-3.466158704391e-04 3.006606264529e-03 0.0 
0.0 0.0 0.0 
8.624858409496e-04 1.365235958519e-03 0.0 
1.365235958519e-03 3.448942517645e-03 0.0 
0.0 0.0 0.0 
-1.979899793183e-04 1.142221831033e-03 0.0 
1.142221831033e-03 6.971676898361e-03 0.0 
0.0 0.0 0.0 
-1.952393858689e-04 1.011031592399e-03 0.0 
1.011031592399e-03 8.681039567998e-03 0.0 
0.0 0.0 0.0 
-7.219280499988e-04 5.300657437176e-04 0.0 
5.300657437176e-04 4.574801709041e-03 0.0 
0.0 0.0 0.0 
-3.341400132535e-04 -1.229227299222e-05 0.0 
-1.229227299222e-05 8.340135143990e-03 0.0 
0.0 0.0 0.0 
-6.174031852346e-05 1.201161254900e-03 0.0 
1.201161254900e-03 8.038116818273e-03 0.0 
0.0 0.0 0.0 
2.025291786730e-03 3.985090842480e-04 0.0 
3.985090842480e-04 -1.080027597540e-04 0.0 
0.0 0.0 0.0 
-5.830408869518e-04 2.504058519757e-03 0.0 
2.504058519757e-03 1.335179515189e-03 0.0 
0.0 0.0 0.0 
-8.202580146511e-04 1.103080291594e-03 0.0 
1.103080291594e-03 4.720097651982e-03 0.0 
0.0 0.0 0.0 
9.701466929539e-04 -5.501945763456e-04 0.0 
-5.501945763456e-04 2.831164275461e-03 0.0 
0.0 0.0 0.0 
-3.358737064986e-04 1.045838456993e-03 0.0 
1.045838456993e-03 7.370858587974e-03 0.0 
0.0 0.0 0.0 
1.140482638278e-03 -3.738481051530e-04 0.0 
-3.738481051530e-04 2.803426807458e-03 0.0 
0.0 0.0 0.0 
1.274115452935e-03 2.701051877802e-03 0.0 
2.701051877802e-03 -2.055675926932e-03 0.0 
0.0 0.0 0.0 
9.729167365977e-04 -2.244010231418e-04 0.0 
-2.244010231418e-04 3.559647456474e-03 0.0 
0.0 0.0 0.0 
-7.146946574039e-04 2.120779283282e-03 0.0 
2.120779283282e-03 2.794413825598e-03 0.0 
0.0 0.0 0.0 
1.011999138967e-03 1.217360628383e-03 0.0 
1.217360628383e-03 3.469296337018e-03 0.0 
0.0 0.0 0.0 
1.049447772463e-03 -2.442869905578e-04 0.0 
-2.442869905578e-04 3.339525700378e-03 0.0 
0.0 0.0 0.0 
4.668298520520e-04 1.293157041882e-03 0.0 
1.293157041882e-03 4.995343379349e-03 0.0 
0.0 0.0 0.0 
-3.954750941908e-04 3.896065726840e-05 0.0 
3.896065726840e-05 7.849227550835e-03 0.0 
0.0 0.0 0.0 
-1.083707110739e-04 -1.182204258865e-03 0.0 
-1.182204258865e-03 2.071181542515e-03 0.0 
0.0 0.0 0.0 
-2.989662597286e-05 2.951412033769e-03 0.0 
2.951412033769e-03 2.144568098956e-04 0.0 
0.0 0.0 0.0 
9.501257610733e-04 -1.299374250708e-04 0.0 
-1.299374250708e-04 3.879740498893e-03 0.0 
0.0 0.0 0.0 
-7.316665577666e-04 1.763323498626e-03 0.0 
1.763323498626e-03 3.297686777143e-03 0.0 
0.0 0.0 0.0 
6.732936514267e-04 8.109751736142e-04 0.0 
8.109751736142e-04 -4.867763990547e-03 0.0 
0.0 0.0 0.0 
-1.554938660359e-04 5.599127819078e-05 0.0 
5.599127819078e-05 9.442517379190e-03 0.0 
0.0 0.0 0.0 
-2.261336599795e-04 5.306090702433e-05 0.0 
5.306090702433e-05 9.087043904914e-03 0.0 
0.0 0.0 0.0 
-3.692957371474e-04 -2.803775156801e-04 0.0 
-2.803775156801e-04 5.474124607905e-04 0.0 
0.0 0.0 0.0 
8.698456008438e-04 -1.144419322523e-04 0.0 
-1.144419322523e-04 4.111955070060e-03 0.0 
0.0 0.0 0.0 
-3.244937224151e-04 -9.700365094367e-04 0.0 
-9.700365094367e-04 1.852120361017e-03 0.0 
0.0 0.0 0.0 
-3.519096001896e-04 -8.980714168581e-04 0.0 
-8.980714168581e-04 2.105132558428e-03 0.0 
0.0 0.0 0.0 
-1.597556138014e-04 1.162952314066e-03 0.0 
1.162952314066e-03 7.327330115438e-03 0.0 
0.0 0.0 0.0 
5.734096918955e-04 1.215608834480e-03 0.0 
1.215608834480e-03 5.005379304407e-03 0.0 
0.0 0.0 0.0 
-1.074672766741e-04 1.193987133226e-03 0.0 
1.193987133226e-03 6.926925977132e-03 0.0 
0.0 0.0 0.0 
1.538868824332e-03 -6.836692567565e-04 0.0 
-6.836692567565e-04 8.020239901323e-04 0.0 
0.0 0.0 0.0 
-4.631875628713e-04 2.178286694063e-05 0.0 
2.178286694063e-05 6.458894322371e-03 0.0 
0.0 0.0 0.0 
9.955953584839e-05 -3.813688733096e-05 0.0 
-3.813688733096e-05 6.752412656222e-03 0.0 
0.0 0.0 0.0 
-4.467369029777e-04 -8.260484754942e-04 0.0 
-8.260484754942e-04 1.814090638597e-03 0.0 
0.0 0.0 0.0 
7.208399443495e-04 5.274784619264e-04 0.0 
5.274784619264e-04 5.352687986858e-03 0.0 
0.0 0.0 0.0 
8.052538164862e-04 1.277586540614e-03 0.0 
1.277586540614e-03 4.031770192431e-03 0.0 
0.0 0.0 0.0 
-7.102282396032e-05 -9.222697907224e-05 0.0 
-9.222697907224e-05 1.489260977757e-03 0.0 
0.0 0.0 0.0 
-4.155923139258e-04 9.643322750714e-04 0.0 
9.643322750714e-04 7.381933690241e-03 0.0 
0.0 0.0 0.0 
1.757228079788e-03 5.326358741335e-05 0.0 
5.326358741335e-05 9.871496028306e-04 0.0 
0.0 0.0 0.0 
-6.961780541067e-04 -1.192717879452e-03 0.0 
-1.192717879452e-03 7.714339720493e-04 0.0 
0.0 0.0 0.0 
1.874480156679e-03 -4.757304498334e-04 0.0 
-4.757304498334e-04 6.519333339150e-05 0.0 
0.0 0.0 0.0 
-2.593390607427e-04 7.055107415058e-06 0.0 
7.055107415058e-06 5.657264563709e-03 0.0 
0.0 0.0 0.0 
-5.227253758205e-04 8.427858612583e-04 0.0 
8.427858612583e-04 7.688706963149e-03 0.0 
0.0 0.0 0.0 
-4.649465020560e-04 -1.178407100932e-03 0.0 
-1.178407100932e-03 1.146735861551e-03 0.0 
0.0 0.0 0.0 
-3.319159045930e-04 -9.975098397063e-05 0.0 
-9.975098397063e-05 4.625909553222e-03 0.0 
0.0 0.0 0.0 
-2.507481903830e-04 1.112587112515e-03 0.0 
1.112587112515e-03 7.353293348500e-03 0.0 
0.0 0.0 0.0 
5.067552871818e-04 1.037616483343e-03 0.0 
1.037616483343e-03 5.956288757685e-03 0.0 
0.0 0.0 0.0 
2.786598791980e-04 -1.274271946088e-03 0.0 
-1.274271946088e-03 1.978072138201e-03 0.0 
0.0 0.0 0.0 
-2.723387285799e-04 -7.246996265943e-05 0.0 
-7.246996265943e-05 2.435551022238e-03 0.0 
0.0 0.0 0.0 
8.155272204984e-04 1.256891807663e-03 0.0 
1.256891807663e-03 3.948892376285e-03 0.0 
0.0 0.0 0.0 
-3.833393626615e-04 -3.021217712607e-05 0.0 
-3.021217712607e-05 7.731448909332e-03 0.0 
0.0 0.0 0.0 
-5.556172401456e-04 -1.704890423375e-03 0.0 
-1.704890423375e-03 3.629430245233e-04 0.0 
0.0 0.0 0.0 
-4.118201135894e-05 1.310543681731e-03 0.0 
1.310543681731e-03 8.232751834466e-03 0.0 
0.0 0.0 0.0 
-1.226090624521e-04 9.332406590983e-04 0.0 
9.332406590983e-04 9.166307000010e-03 0.0 
0.0 0.0 0.0 
-4.126723023330e-04 -1.865561381271e-05 0.0 
-1.865561381271e-05 7.160239441100e-03 0.0 
0.0 0.0 0.0 
-2.213145693158e-04 4.640525932504e-04 0.0 
4.640525932504e-04 9.540288848590e-03 0.0 
0.0 0.0 0.0 
-9.707759853528e-05 1.073505491858e-03 0.0 
1.073505491858e-03 8.953442153276e-03 0.0 
0.0 0.0 0.0 
1.524142728181e-03 -5.521579838294e-04 0.0 
-5.521579838294e-04 1.229596617945e-03 0.0 
0.0 0.0 0.0 
1.082353375102e-03 -1.115109842005e-03 0.0 
-1.115109842005e-03 1.221941360084e-03 0.0 
0.0 0.0 0.0 
3.736155428462e-04 7.142710562681e-04 0.0 
7.142710562681e-04 6.725953477672e-03 0.0 
0.0 0.0 0.0 
-9.277128879415e-04 3.355034499833e-04 0.0 
3.355034499833e-04 -4.473020461574e-03 0.0 
0.0 0.0 0.0 
-2.179336027025e-04 -1.319816829910e-05 0.0 
-1.319816829910e-05 2.214008124720e-03 0.0 
0.0 0.0 0.0 
-3.206593620894e-04 -3.607757007873e-05 0.0 
-3.607757007873e-05 4.731815313189e-03 0.0 
0.0 0.0 0.0 
8.850874723842e-05 -1.288343608193e-03 0.0 
-1.288343608193e-03 1.982132635861e-03 0.0 
0.0 0.0 0.0 
1.394569821776e-03 -1.094574707102e-03 0.0 
-1.094574707102e-03 6.498910631509e-04 0.0 
0.0 0.0 0.0 
-1.075511697021e-03 1.111977285181e-03 0.0 
1.111977285181e-03 3.720078777198e-03 0.0 
0.0 0.0 0.0 
-9.518790508216e-04 1.080143610131e-03 0.0 
1.080143610131e-03 3.834025918861e-03 0.0 
0.0 0.0 0.0 
-5.588362130101e-04 1.195595893781e-04 0.0 
1.195595893781e-04 7.157715521670e-03 0.0 
0.0 0.0 0.0 
1.773450199364e-03 -4.374563564819e-04 0.0 
-4.374563564819e-04 3.514085379759e-04 0.0 
0.0 0.0 0.0 
-3.170815177981e-04 -2.261571540000e-04 0.0 
-2.261571540000e-04 2.586588048422e-03 0.0 
0.0 0.0 0.0 
4.010120249738e-04 1.186141897338e-03 0.0 
1.186141897338e-03 5.903159888170e-03 0.0 
0.0 0.0 0.0 
4.323956818597e-05 -1.433088326428e-04 0.0 
-1.433088326428e-04 7.334119226066e-03 0.0 
0.0 0.0 0.0 
6.253534721390e-05 -1.213773847018e-04 0.0 
-1.213773847018e-04 7.248374187484e-03 0.0 
0.0 0.0 0.0 
1.106445315737e-03 -9.363048000611e-04 0.0 
-9.363048000611e-04 1.705030911146e-03 0.0 
0.0 0.0 0.0 
-5.840338806027e-04 1.674158936084e-04 0.0 
1.674158936084e-04 6.806836850340e-03 0.0 
0.0 0.0 0.0 
-1.088288150747e-03 -1.967536491141e-05 0.0 
-1.967536491141e-05 -3.995051574235e-03 0.0 
0.0 0.0 0.0 
-1.358644574673e-03 1.601294217097e-03 0.0 
1.601294217097e-03 3.277101915639e-03 0.0 
0.0 0.0 0.0 
9.813216733237e-04 -2.528973139118e-03 0.0 
-2.528973139118e-03 -1.954011180676e-03 0.0 
0.0 0.0 0.0 
-1.234228482493e-03 1.351114416675e-03 0.0 
1.351114416675e-03 3.495073016263e-03 0.0 
0.0 0.0 0.0 
7.477790289838e-04 1.179542530642e-03 0.0 
1.179542530642e-03 4.491723954618e-03 0.0 
0.0 0.0 0.0 
7.981782498456e-04 -1.340534377821e-03 0.0 
-1.340534377821e-03 1.370449786325e-03 0.0 
0.0 0.0 0.0 
1.346943604277e-03 -1.050312379374e-03 0.0 
-1.050312379374e-03 6.801178310238e-04 0.0 
0.0 0.0 0.0 
8.193112892860e-04 -2.599543941864e-03 0.0 
-2.599543941864e-03 -3.228125218648e-03 0.0 
0.0 0.0 0.0 
-1.993061672487e-04 6.008673440052e-05 0.0 
6.008673440052e-05 9.153180666564e-03 0.0 
0.0 0.0 0.0 
8.128897040003e-04 -1.331660871809e-03 0.0 
-1.331660871809e-03 1.262759033241e-03 0.0 
0.0 0.0 0.0 
-1.788293699313e-04 2.250318469068e-04 0.0 
2.250318469068e-04 9.374888060975e-03 0.0 
0.0 0.0 0.0 
-2.723569056503e-04 5.865546810109e-05 0.0 
5.865546810109e-05 8.845984624658e-03 0.0 
0.0 0.0 0.0 
-7.660841998325e-05 9.667760166804e-05 0.0 
9.667760166804e-05 1.005384209797e-02 0.0 
0.0 0.0 0.0 
-4.960747822913e-05 -6.864622925451e-05 0.0 
-6.864622925451e-05 7.593623087554e-03 0.0 
0.0 0.0 0.0 
-4.201009980341e-04 3.022492441618e-05 0.0 
3.022492441618e-05 7.171575430160e-03 0.0 
0.0 0.0 0.0 
5.941683387785e-04 -1.252546025622e-03 0.0 
-1.252546025622e-03 1.783228741862e-03 0.0 
0.0 0.0 0.0 
-7.341818213401e-04 6.737713209433e-04 0.0 
6.737713209433e-04 4.120215435192e-03 0.0 
0.0 0.0 0.0 
6.421854842309e-04 -1.065662155370e-03 0.0 
-1.065662155370e-03 2.234367056291e-03 0.0 
0.0 0.0 0.0 
0.0 -1.455546766127e-04 0.0 
-1.455546766127e-04 7.415944884412e-03 0.0 
0.0 0.0 0.0 
-1.577238537170e-03 2.176311704630e-03 0.0 
2.176311704630e-03 2.524339069061e-03 0.0 
0.0 0.0 0.0 
-1.437457435417e-03 1.837539286718e-03 0.0 
1.837539286718e-03 2.937507254230e-03 0.0 
0.0 0.0 0.0 
6.280020636500e-04 6.638533837461e-04 0.0 
6.638533837461e-04 5.742927973206e-03 0.0 
0.0 0.0 0.0 
-5.304785936128e-04 1.003052601916e-04 0.0 
1.003052601916e-04 6.828888203875e-03 0.0 
0.0 0.0 0.0 
-1.660844970346e-04 1.588047518664e-04 0.0 
1.588047518664e-04 9.425582212952e-03 0.0 
0.0 0.0 0.0 
-2.580946284383e-04 1.098904907688e-03 0.0 
1.098904907688e-03 7.354160790286e-03 0.0 
0.0 0.0 0.0 
3.832679150217e-04 1.103512643520e-03 0.0 
1.103512643520e-03 6.415102948826e-03 0.0 
0.0 0.0 0.0 
-3.894099337133e-04 9.725334756141e-04 0.0 
9.725334756141e-04 8.033167816985e-03 0.0 
0.0 0.0 0.0 
-4.220767868596e-04 7.028867872879e-05 0.0 
7.028867872879e-05 7.248581649520e-03 0.0 
0.0 0.0 0.0 
-4.738104840074e-05 -1.383705862699e-03 0.0 
-1.383705862699e-03 1.707518738381e-03 0.0 
0.0 0.0 0.0 
1.197798572046e-04 -1.404307187558e-03 0.0 
-1.404307187558e-03 1.709501126318e-03 0.0 
0.0 0.0 0.0 
-3.451971829713e-04 6.076130320915e-05 0.0 
6.076130320915e-05 8.133184200014e-03 0.0 
0.0 0.0 0.0 
3.663232766595e-04 1.079596473307e-03 0.0 
1.079596473307e-03 6.381358027512e-03 0.0 
0.0 0.0 0.0 
-6.537047180174e-04 2.069363545219e-04 0.0 
2.069363545219e-04 6.428037884076e-03 0.0 
0.0 0.0 0.0 
-4.316370326466e-04 1.256045210184e-05 0.0 
1.256045210184e-05 6.810785578963e-03 0.0 
0.0 0.0 0.0 
-4.283466538133e-04 1.466583941507e-05 0.0 
1.466583941507e-05 7.149472890931e-03 0.0 
0.0 0.0 0.0 
-4.552808242672e-04 1.411591155241e-05 0.0 
1.411591155241e-05 7.269643778345e-03 0.0 
0.0 0.0 0.0 
1.992527530179e-03 -1.343592517604e-03 0.0 
-1.343592517604e-03 -3.394367325839e-03 0.0 
0.0 0.0 0.0 
-1.625259768839e-04 -1.275129483849e-03 0.0 
-1.275129483849e-03 1.836028989556e-03 0.0 
0.0 0.0 0.0 
-1.540240642161e-04 3.017516729302e-04 0.0 
3.017516729302e-04 9.723843778732e-03 0.0 
0.0 0.0 0.0 
-4.293271719820e-04 4.026770663976e-05 0.0 
4.026770663976e-05 7.668376215479e-03 0.0 
0.0 0.0 0.0 
2.052118042077e-04 9.889518399296e-04 0.0 
9.889518399296e-04 7.095256016016e-03 0.0 
0.0 0.0 0.0 
-2.865985363704e-04 1.031465476484e-03 0.0 
1.031465476484e-03 8.676509067477e-03 0.0 
0.0 0.0 0.0 
-4.423297656254e-04 9.720914988773e-04 0.0 
9.720914988773e-04 7.380722311557e-03 0.0 
0.0 0.0 0.0 
-2.869463230453e-04 4.899306691473e-04 0.0 
4.899306691473e-04 9.288689251702e-03 0.0 
0.0 0.0 0.0 
-3.202674479398e-04 -3.252201120778e-04 0.0 
-3.252201120778e-04 3.522443994337e-03 0.0 
0.0 0.0 0.0 
-3.427652318628e-04 -3.438819965639e-04 0.0 
-3.438819965639e-04 3.212441355571e-03 0.0 
0.0 0.0 0.0 
2.107914258869e-04 -2.825198091847e-05 0.0 
-2.825198091847e-05 6.359727443704e-03 0.0 
0.0 0.0 0.0 
4.936791652155e-04 -1.664774203619e-03 0.0 
-1.664774203619e-03 -3.736664814507e-03 0.0 
0.0 0.0 0.0 
-2.072283748206e-04 -7.603621075790e-05 0.0 
-7.603621075790e-05 2.327984538300e-03 0.0 
0.0 0.0 0.0 
0.0 1.276001600876e-03 0.0 
1.276001600876e-03 8.041678098016e-03 0.0 
0.0 0.0 0.0 
1.017998817576e-04 -1.365748997324e-05 0.0 
-1.365748997324e-05 1.039140918995e-03 0.0 
0.0 0.0 0.0 
-4.265895274073e-04 1.717398004879e-05 0.0 
1.717398004879e-05 6.814586881047e-03 0.0 
0.0 0.0 0.0 
5.212114788644e-04 4.868919111792e-04 0.0 
4.868919111792e-04 6.175902680949e-03 0.0 
0.0 0.0 0.0 
-1.916518717128e-04 -3.152859429795e-04 0.0 
-3.152859429795e-04 6.997048556039e-04 0.0 
0.0 0.0 0.0 
4.467928462955e-04 -5.543616714248e-05 0.0 
-5.543616714248e-05 1.906006466346e-04 0.0 
0.0 0.0 0.0 
-9.741055168888e-05 4.260443178234e-04 0.0 
4.260443178234e-04 9.961950201762e-03 0.0 
0.0 0.0 0.0 
-5.039118634230e-04 4.962771915141e-05 0.0 
4.962771915141e-05 6.464572624341e-03 0.0 
0.0 0.0 0.0 
-1.590400531615e-04 4.122153852494e-04 0.0 
4.122153852494e-04 9.617465239946e-03 0.0 
0.0 0.0 0.0 
3.853216078504e-04 6.290130352763e-04 0.0 
6.290130352763e-04 6.225519738002e-03 0.0 
0.0 0.0 0.0 
-4.988903272959e-04 1.986461786499e-05 0.0 
1.986461786499e-05 6.460293424670e-03 0.0 
0.0 0.0 0.0 
-9.320304131084e-04 5.629124940421e-04 0.0 
5.629124940421e-04 -3.938225818672e-03 0.0 
0.0 0.0 0.0 
-8.108057663025e-05 5.889651603855e-05 0.0 
5.889651603855e-05 9.757315986367e-03 0.0 
0.0 0.0 0.0 
-6.388919630362e-05 -1.907783713245e-04 0.0 
-1.907783713245e-04 1.229120314272e-03 0.0 
0.0 0.0 0.0 
-1.719335732900e-04 3.388406421205e-04 0.0 
3.388406421205e-04 9.438559865788e-03 0.0 
0.0 0.0 0.0 
0.0 -1.404104838284e-04 0.0 
-1.404104838284e-04 7.480813526063e-03 0.0 
0.0 0.0 0.0 
-2.792232284969e-04 8.782938835924e-04 0.0 
8.782938835924e-04 8.909530179418e-03 0.0 
0.0 0.0 0.0 
2.241722324513e-03 -1.228762562809e-03 0.0 
-1.228762562809e-03 -3.078856895811e-03 0.0 
0.0 0.0 0.0 
-6.121123268447e-04 2.647082468783e-04 0.0 
2.647082468783e-04 7.114373816556e-03 0.0 
0.0 0.0 0.0 
-3.560252504721e-04 -2.159564832071e-04 0.0 
-2.159564832071e-04 3.589309875075e-03 0.0 
0.0 0.0 0.0 
4.478072463256e-04 1.096083194697e-03 0.0 
1.096083194697e-03 5.909831349810e-03 0.0 
0.0 0.0 0.0 
1.432064635545e-04 1.059732205024e-03 0.0 
1.059732205024e-03 7.519998199047e-03 0.0 
0.0 0.0 0.0 
-3.122414721072e-04 6.362538818472e-05 0.0 
6.362538818472e-05 8.551841502552e-03 0.0 
0.0 0.0 0.0 
1.726747222905e-04 9.623271077283e-04 0.0 
9.623271077283e-04 7.362997101199e-03 0.0 
0.0 0.0 0.0 
1.447891732453e-03 -1.225072524645e-03 0.0 
-1.225072524645e-03 -4.191017812311e-03 0.0 
0.0 0.0 0.0 
2.141540638800e-05 -1.748698614289e-04 0.0 
-1.748698614289e-04 7.072497564492e-03 0.0 
0.0 0.0 0.0 
1.666603259942e-03 -1.879312392589e-03 0.0 
-1.879312392589e-03 -1.729182971867e-03 0.0 
0.0 0.0 0.0 
3.798489514018e-05 -6.147384373972e-05 0.0 
-6.147384373972e-05 1.066413547465e-03 0.0 
0.0 0.0 0.0 
3.285720107062e-04 3.249036951512e-04 0.0 
3.249036951512e-04 6.624944149804e-03 0.0 
0.0 0.0 0.0 
-2.223818275616e-04 6.962256852122e-04 0.0 
6.962256852122e-04 9.503229296099e-03 0.0 
0.0 0.0 0.0 
-1.340828496281e-04 4.277138032345e-04 0.0 
4.277138032345e-04 9.720024140484e-03 0.0 
0.0 0.0 0.0 
-4.526709037115e-04 6.764419520023e-05 0.0 
6.764419520023e-05 6.794050233764e-03 0.0 
0.0 0.0 0.0 
-6.398659451652e-04 4.044345388986e-04 0.0 
4.044345388986e-04 7.084196820683e-03 0.0 
0.0 0.0 0.0 
-6.118520003904e-04 2.732032185027e-03 0.0 
2.732032185027e-03 2.137163866985e-03 0.0 
0.0 0.0 0.0 
-1.876046109882e-04 1.125681942651e-03 0.0 
1.125681942651e-03 8.924498920651e-03 0.0 
0.0 0.0 0.0 
-3.404750718404e-04 -1.636177521010e-04 0.0 
-1.636177521010e-04 3.056064028329e-03 0.0 
0.0 0.0 0.0 
5.906575062300e-04 2.784485961999e-03 0.0 
2.784485961999e-03 -1.053690061155e-03 0.0 
0.0 0.0 0.0 
4.686028508056e-04 1.124471080480e-03 0.0 
1.124471080480e-03 5.944987063435e-03 0.0 
0.0 0.0 0.0 
-4.512093760503e-04 1.027535978632e-05 0.0 
1.027535978632e-05 6.439595350391e-03 0.0 
0.0 0.0 0.0 
-2.078398365825e-04 6.915057846894e-04 0.0 
6.915057846894e-04 9.251109983609e-03 0.0 
0.0 0.0 0.0 
-6.166980902389e-05 -2.287764874153e-05 0.0 
-2.287764874153e-05 1.003831965654e-02 0.0 
0.0 0.0 0.0 
0.0 3.083490451184e-05 0.0 
3.083490451184e-05 1.008407495402e-02 0.0 
0.0 0.0 0.0 
7.305998724523e-04 3.269380321533e-05 0.0 
3.269380321533e-05 -1.836757674867e-04 0.0 
0.0 0.0 0.0 
5.844327148474e-04 -3.029284651013e-05 0.0 
-3.029284651013e-05 -1.634819093327e-04 0.0 
0.0 0.0 0.0 
-4.259083317660e-04 -2.536613456059e-05 0.0 
-2.536613456059e-05 6.489940895668e-03 0.0 
0.0 0.0 0.0 
-4.349774925437e-04 4.771429089476e-06 0.0 
4.771429089476e-06 6.438734929146e-03 0.0 
0.0 0.0 0.0 
0.0 -2.518882350460e-05 0.0 
-2.518882350460e-05 7.614522553183e-03 0.0 
0.0 0.0 0.0 
-5.037764700910e-05 2.170796396275e-05 0.0 
2.170796396275e-05 7.571106625258e-03 0.0 
0.0 0.0 0.0 
5.175620643765e-04 1.728287052376e-05 0.0 
1.728287052376e-05 1.124734434683e-04 0.0 
0.0 0.0 0.0 
-9.111881407348e-04 -4.002098099413e-04 0.0 
-4.002098099413e-04 -4.712167992023e-03 0.0 
0.0 0.0 0.0 
-5.489618143295e-05 -1.119905465373e-04 0.0 
-1.119905465373e-04 6.864200529212e-03 0.0 
0.0 0.0 0.0 
1.529280805550e-04 1.270972050668e-03 0.0 
1.270972050668e-03 7.242051742274e-03 0.0 
0.0 0.0 0.0 
-3.097465099700e-05 -1.906059718539e-04 0.0 
-1.906059718539e-04 1.417825299847e-03 0.0 
0.0 0.0 0.0 
5.995367131950e-05 -1.633530760153e-04 0.0 
-1.633530760153e-04 6.694541525374e-03 0.0 
0.0 0.0 0.0 
-2.993051506280e-04 -4.009194978671e-05 0.0 
-4.009194978671e-05 5.035960410660e-03 0.0 
0.0 0.0 0.0 
-3.556180203680e-04 -6.366981271761e-05 0.0 
-6.366981271761e-05 4.366338031573e-03 0.0 
0.0 0.0 0.0 
-4.063881457681e-04 7.298775370628e-05 0.0 
7.298775370628e-05 7.870544074130e-03 0.0 
0.0 0.0 0.0 
-6.921481543021e-06 -2.269621770534e-03 0.0 
-2.269621770534e-03 -2.015751844163e-04 0.0 
0.0 0.0 0.0 
5.178476447745e-04 1.145060578380e-03 0.0 
1.145060578380e-03 5.450850367116e-03 0.0 
0.0 0.0 0.0 
4.369233589530e-05 -1.814672579941e-04 0.0 
-1.814672579941e-04 1.081669203508e-03 0.0 
0.0 0.0 0.0 
-3.167306134904e-04 -2.778735230524e-04 0.0 
-2.778735230524e-04 3.912901647371e-03 0.0 
0.0 0.0 0.0 
-1.554929922215e-04 1.079194996764e-03 0.0 
1.079194996764e-03 8.640520838076e-03 0.0 
0.0 0.0 0.0 
-2.000467420908e-04 -2.712093031039e-05 0.0 
-2.712093031039e-05 9.296728913550e-03 0.0 
0.0 0.0 0.0 
-3.349147614661e-04 -6.409727193657e-05 0.0 
-6.409727193657e-05 4.365076765920e-03 0.0 
0.0 0.0 0.0 
-4.179819513626e-04 -3.105978441396e-06 0.0 
-3.105978441396e-06 7.450325405548e-03 0.0 
0.0 0.0 0.0 
-1.690953268063e-05 1.289061468378e-03 0.0 
1.289061468378e-03 7.794962026038e-03 0.0 
0.0 0.0 0.0 
-3.192720451310e-04 1.037343192182e-03 0.0 
1.037343192182e-03 8.046720385185e-03 0.0 
0.0 0.0 0.0 
-3.819706177228e-04 1.002530224630e-03 0.0 
1.002530224630e-03 7.708798103855e-03 0.0 
0.0 0.0 0.0 
-4.766947491937e-04 2.260810584492e-05 0.0 
2.260810584492e-05 6.462923311761e-03 0.0 
0.0 0.0 0.0 
6.777251591865e-04 1.105828504824e-03 0.0 
1.105828504824e-03 4.968604687545e-03 0.0 
0.0 0.0 0.0 
-2.150882245657e-04 7.937934280583e-04 0.0 
7.937934280583e-04 9.086520860099e-03 0.0 
0.0 0.0 0.0 
-2.730756708735e-04 -1.463848799136e-04 0.0 
-1.463848799136e-04 2.340418545508e-03 0.0 
0.0 0.0 0.0 
1.118789370413e-04 -2.144480879661e-04 0.0 
-2.144480879661e-04 2.916332074885e-04 0.0 
0.0 0.0 0.0 
-6.271484256526e-05 1.188034542020e-03 0.0 
1.188034542020e-03 7.645267083133e-03 0.0 
0.0 0.0 0.0 
7.312803516870e-04 6.380843089551e-04 0.0 
6.380843089551e-04 5.345293505947e-03 0.0 
0.0 0.0 0.0 
8.647963636577e-05 -2.192352480166e-03 0.0 
-2.192352480166e-03 -5.755007984707e-04 0.0 
0.0 0.0 0.0 
-3.731187124009e-04 1.519209022184e-05 0.0 
1.519209022184e-05 8.156587887221e-03 0.0 
0.0 0.0 0.0 
-3.583271316943e-05 -1.265511042988e-04 0.0 
-1.265511042988e-04 7.172404549028e-03 0.0 
0.0 0.0 0.0 
8.408587276620e-05 1.214035411649e-03 0.0 
1.214035411649e-03 7.202708261165e-03 0.0 
0.0 0.0 0.0 
4.550378119728e-05 1.273259988528e-03 0.0 
1.273259988528e-03 7.596921605650e-03 0.0 
0.0 0.0 0.0 
-2.722880488029e-04 -6.323034776435e-05 0.0 
-6.323034776435e-05 5.413872476859e-03 0.0 
0.0 0.0 0.0 
5.225681590164e-04 2.383215866395e-03 0.0 
2.383215866395e-03 -3.783028317094e-03 0.0 
0.0 0.0 0.0 
-7.708548074279e-04 8.514778916118e-04 0.0 
8.514778916118e-04 3.696284041788e-03 0.0 
0.0 0.0 0.0 
-8.272914652580e-04 2.054717055757e-03 0.0 
2.054717055757e-03 3.309102694716e-03 0.0 
0.0 0.0 0.0 
-6.084140675641e-04 2.744726461155e-04 0.0 
2.744726461155e-04 7.123795010421e-03 0.0 
0.0 0.0 0.0 
5.941630370343e-04 1.214109237919e-03 0.0 
1.214109237919e-03 4.955862611162e-03 0.0 
0.0 0.0 0.0 
-1.811732004759e-04 2.240335001667e-04 0.0 
2.240335001667e-04 9.504795394392e-03 0.0 
0.0 0.0 0.0 
2.259201078141e-04 7.461875910868e-04 0.0 
7.461875910868e-04 6.724756945159e-03 0.0 
0.0 0.0 0.0 
-7.057648316348e-04 -1.581115502192e-03 0.0 
-1.581115502192e-03 2.663744828237e-04 0.0 
0.0 0.0 0.0 
-3.885698042784e-04 -6.638235821678e-04 0.0 
-6.638235821678e-04 6.517065596643e-04 0.0 
0.0 0.0 0.0 
-7.984875937611e-04 1.075354558279e-03 0.0 
1.075354558279e-03 3.230264660864e-03 0.0 
0.0 0.0 0.0 
-3.387367664586e-04 1.163488777932e-04 0.0 
1.163488777932e-04 8.268597657585e-03 0.0 
0.0 0.0 0.0 
-3.086319052276e-04 -2.802366996223e-04 0.0 
-2.802366996223e-04 2.805247793200e-03 0.0 
0.0 0.0 0.0 
-2.408422196575e-04 5.553876222522e-04 0.0 
5.553876222522e-04 9.378492466496e-03 0.0 
0.0 0.0 0.0 
4.161787501511e-05 -9.904913884292e-05 0.0 
-9.904913884292e-05 1.334042727640e-03 0.0 
0.0 0.0 0.0 
4.291458673067e-04 7.401772896793e-04 0.0 
7.401772896793e-04 6.235851879570e-03 0.0 
0.0 0.0 0.0 
-5.044718844187e-04 1.499249983434e-04 0.0 
1.499249983434e-04 7.150365975038e-03 0.0 
0.0 0.0 0.0 
1.207845964426e-04 1.138321039261e-03 0.0 
1.138321039261e-03 7.386312516574e-03 0.0 
0.0 0.0 0.0 
3.158155128811e-04 1.137803889869e-03 0.0 
1.137803889869e-03 6.361937987215e-03 0.0 
0.0 0.0 0.0 
-6.491000492418e-04 3.077817020093e-04 0.0 
3.077817020093e-04 7.105776318111e-03 0.0 
0.0 0.0 0.0 
2.783367168508e-04 1.212850793960e-04 0.0 
1.212850793960e-04 6.661809116821e-03 0.0 
0.0 0.0 0.0 
-1.939359515074e-04 6.586980890085e-04 0.0 
6.586980890085e-04 9.553745939826e-03 0.0 
0.0 0.0 0.0 
-1.289552885377e-04 6.849399791558e-05 0.0 
6.849399791558e-05 9.776198937993e-03 0.0 
0.0 0.0 0.0 
-8.052715753847e-04 1.415693449130e-03 0.0 
1.415693449130e-03 2.484603749394e-03 0.0 
0.0 0.0 0.0 
-2.242146139362e-04 5.207421092139e-04 0.0 
5.207421092139e-04 9.286265620179e-03 0.0 
0.0 0.0 0.0 
-3.269033735709e-05 1.236411000715e-03 0.0 
1.236411000715e-03 8.319408149170e-03 0.0 
0.0 0.0 0.0 
5.148189714332e-04 7.003681110213e-04 0.0 
7.003681110213e-04 6.248580641477e-03 0.0 
0.0 0.0 0.0 
3.566011557699e-04 1.163989170364e-03 0.0 
1.163989170364e-03 6.362001302366e-03 0.0 
0.0 0.0 0.0 
0.0 -1.046129467042e-04 0.0 
-1.046129467042e-04 7.304088141917e-03 0.0 
0.0 0.0 0.0 
-3.401740235718e-04 1.011749414318e-03 0.0 
1.011749414318e-03 7.707341863194e-03 0.0 
0.0 0.0 0.0 
-1.076240890900e-03 1.648391365831e-03 0.0 
1.648391365831e-03 -2.557596092623e-03 0.0 
0.0 0.0 0.0 
3.212373805406e-05 3.063586572319e-03 0.0 
3.063586572319e-03 2.184428698655e-04 0.0 
0.0 0.0 0.0 
-3.098144213305e-04 1.026629729833e-03 0.0 
1.026629729833e-03 8.359777493338e-03 0.0 
0.0 0.0 0.0 
-5.681315638585e-04 3.127778234872e-04 0.0 
3.127778234872e-04 7.421129592180e-03 0.0 
0.0 0.0 0.0 
-1.057119831567e-04 -1.118100052193e-04 0.0 
-1.118100052193e-04 6.926148719662e-03 0.0 
0.0 0.0 0.0 
2.468060878664e-04 1.129294624021e-03 0.0 
1.129294624021e-03 6.800414665676e-03 0.0 
0.0 0.0 0.0 
4.373238325428e-05 -1.308053956137e-04 0.0 
-1.308053956137e-04 6.995278155441e-03 0.0 
0.0 0.0 0.0 
-2.928725715055e-04 1.293493839532e-04 0.0 
1.293493839532e-04 8.675563306037e-03 0.0 
0.0 0.0 0.0 
1.260589415837e-04 1.072542974680e-03 0.0 
1.072542974680e-03 7.238742121296e-03 0.0 
0.0 0.0 0.0 
2.715805295308e-04 2.473299900253e-05 0.0 
2.473299900253e-05 6.324440632216e-03 0.0 
0.0 0.0 0.0 
3.043665800733e-04 1.039185115897e-04 0.0 
1.039185115897e-04 6.317183116385e-03 0.0 
0.0 0.0 0.0 
-3.188811260789e-04 -1.925670539778e-04 0.0 
-1.925670539778e-04 2.936127614528e-03 0.0 
0.0 0.0 0.0 
2.760742262775e-05 -1.621694957915e-04 0.0 
-1.621694957915e-04 7.396089644398e-03 0.0 
0.0 0.0 0.0 
-5.821945418214e-04 1.488287798073e-04 0.0 
1.488287798073e-04 6.780080913893e-03 0.0 
0.0 0.0 0.0 
-1.874620623963e-04 1.080989347583e-04 0.0 
1.080989347583e-04 9.431903690471e-03 0.0 
0.0 0.0 0.0 
-5.514721004047e-04 -7.854220735470e-04 0.0 
-7.854220735470e-04 8.601695759869e-04 0.0 
0.0 0.0 0.0 
-2.404386496579e-04 4.501316075594e-05 0.0 
4.501316075594e-05 9.160471024522e-03 0.0 
0.0 0.0 0.0 
-3.746481362280e-04 5.559401093926e-05 0.0 
5.559401093926e-05 8.186554392003e-03 0.0 
0.0 0.0 0.0 
3.097256982092e-04 1.704355196691e-05 0.0 
1.704355196691e-05 6.295382558670e-04 0.0 
0.0 0.0 0.0 
2.234646410239e-03 -1.469078760212e-03 0.0 
-1.469078760212e-03 -3.733659377297e-03 0.0 
0.0 0.0 0.0 
-2.673268734936e-04 1.082298042952e-03 0.0 
1.082298042952e-03 7.713887744911e-03 0.0 
0.0 0.0 0.0 
-1.020643710050e-04 3.431657398942e-04 0.0 
3.431657398942e-04 9.699725923911e-03 0.0 
0.0 0.0 0.0 
-1.777919602380e-04 4.299129970535e-05 0.0 
4.299129970535e-05 9.488873327451e-03 0.0 
0.0 0.0 0.0 
2.944972431982e-04 1.097535199347e-03 0.0 
1.097535199347e-03 7.002782282652e-03 0.0 
0.0 0.0 0.0 
-4.254742018420e-04 1.024680437258e-04 0.0 
1.024680437258e-04 7.445863957965e-03 0.0 
0.0 0.0 0.0 
3.291147788433e-04 -3.838092703683e-05 0.0 
-3.838092703683e-05 2.171216048446e-04 0.0 
0.0 0.0 0.0 
1.097347714086e-03 1.858215859154e-03 0.0 
1.858215859154e-03 -4.196536552442e-03 0.0 
0.0 0.0 0.0 
6.645210791412e-06 -1.087407863917e-04 0.0 
-1.087407863917e-04 4.260532825220e-04 0.0 
0.0 0.0 0.0 
-4.522077477921e-04 -8.625222693833e-04 0.0 
-8.625222693833e-04 9.714950395430e-04 0.0 
0.0 0.0 0.0 
-1.081144767167e-03 3.161735275546e-03 0.0 
3.161735275546e-03 -1.938562515075e-03 0.0 
0.0 0.0 0.0 
-3.428166989828e-04 -2.386528632816e-04 0.0 
-2.386528632816e-04 3.858094030313e-03 0.0 
0.0 0.0 0.0 
-9.420303685637e-05 -6.573814645303e-05 0.0 
-6.573814645303e-05 6.925167959577e-03 0.0 
0.0 0.0 0.0 
-2.347154453718e-04 9.203350533315e-04 0.0 
9.203350533315e-04 8.915267040613e-03 0.0 
0.0 0.0 0.0 
-6.723971144824e-04 3.935596506576e-04 0.0 
3.935596506576e-04 7.331591366871e-03 0.0 
0.0 0.0 0.0 
-3.151852526102e-04 -4.010034073216e-04 0.0 
-4.010034073216e-04 3.320842410442e-03 0.0 
0.0 0.0 0.0 
2.053430205726e-04 -9.872484421692e-05 0.0 
-9.872484421692e-05 6.383990574835e-03 0.0 
0.0 0.0 0.0 
5.270815051681e-04 3.923733751407e-04 0.0 
3.923733751407e-04 6.047616664829e-03 0.0 
0.0 0.0 0.0 
1.812596445283e-04 1.239408764551e-03 0.0 
1.239408764551e-03 7.462219960873e-03 0.0 
0.0 0.0 0.0 
-4.436128015284e-05 1.197276306878e-03 0.0 
1.197276306878e-03 7.931341399010e-03 0.0 
0.0 0.0 0.0 
-2.002933242550e-04 1.120944838910e-03 0.0 
1.120944838910e-03 8.059217473478e-03 0.0 
0.0 0.0 0.0 
-5.535699121264e-04 -6.027771089286e-04 0.0 
-6.027771089286e-04 8.413566429761e-04 0.0 
0.0 0.0 0.0 
8.654718985328e-04 -1.508837515025e-03 0.0 
-1.508837515025e-03 -4.213331685363e-03 0.0 
0.0 0.0 0.0 
-7.484830412841e-05 -1.558017941950e-04 0.0 
-1.558017941950e-04 6.878870229708e-03 0.0 
0.0 0.0 0.0 
1.858573306033e-04 -1.213638111447e-05 0.0 
-1.213638111447e-05 6.566756255262e-04 0.0 
0.0 0.0 0.0 
1.905291502107e-04 8.484165744803e-06 0.0 
8.484165744803e-06 8.205511268777e-04 0.0 
0.0 0.0 0.0 
-4.218251277613e-04 2.892124562020e-03 0.0 
2.892124562020e-03 -6.610720878020e-04 0.0 
0.0 0.0 0.0 
9.364885733998e-06 -1.753608545401e-04 0.0 
-1.753608545401e-04 7.039674610096e-04 0.0 
0.0 0.0 0.0 
1.350419890627e-04 9.357018461483e-05 0.0 
9.357018461483e-05 6.688201554618e-03 0.0 
0.0 0.0 0.0 
-9.243418065130e-05 1.161474007251e-03 0.0 
1.161474007251e-03 8.709964218437e-03 0.0 
0.0 0.0 0.0 
-1.621649393241e-04 2.660413591396e-04 0.0 
2.660413591396e-04 9.507200370691e-03 0.0 
0.0 0.0 0.0 
7.582820748930e-05 1.193576069966e-03 0.0 
1.193576069966e-03 7.584026122086e-03 0.0 
0.0 0.0 0.0 
5.499639908668e-04 3.488030107322e-04 0.0 
3.488030107322e-04 5.758103044573e-03 0.0 
0.0 0.0 0.0 
-4.034925672781e-04 1.064050726325e-04 0.0 
1.064050726325e-04 7.674434392061e-03 0.0 
0.0 0.0 0.0 
0.0 4.640803982545e-04 0.0 
4.640803982545e-04 9.964191494615e-03 0.0 
0.0 0.0 0.0 
1.137860597579e-03 -2.330429532976e-03 0.0 
-2.330429532976e-03 -1.744452873942e-03 0.0 
0.0 0.0 0.0 
-4.910630617889e-04 3.450144434294e-05 0.0 
3.450144434294e-05 6.434618370505e-03 0.0 
0.0 0.0 0.0 
-5.968872567655e-04 -2.275045626086e-03 0.0 
-2.275045626086e-03 -4.747208601441e-05 0.0 
0.0 0.0 0.0 
2.128315183079e-04 -2.129814058039e-05 0.0 
-2.129814058039e-05 2.786175659346e-04 0.0 
0.0 0.0 0.0 
-1.225348099809e-05 -1.486133652467e-04 0.0 
-1.486133652467e-04 7.489798980182e-03 0.0 
0.0 0.0 0.0 
-6.682582404997e-04 2.698534131837e-04 0.0 
2.698534131837e-04 6.762732229087e-03 0.0 
0.0 0.0 0.0 
1.632030325931e-04 -7.832405737727e-05 0.0 
-7.832405737727e-05 9.875122539271e-04 0.0 
0.0 0.0 0.0 
-3.581271652617e-04 -1.544823184189e-04 0.0 
-1.544823184189e-04 3.762867266379e-03 0.0 
0.0 0.0 0.0 
-1.392895608647e-04 1.203890856514e-03 0.0 
1.203890856514e-03 8.787710281597e-03 0.0 
0.0 0.0 0.0 
-2.200776024668e-04 3.085281026372e-04 0.0 
3.085281026372e-04 9.449156107134e-03 0.0 
0.0 0.0 0.0 
-1.215794998155e-04 7.160044231832e-04 0.0 
7.160044231832e-04 9.482318233412e-03 0.0 
0.0 0.0 0.0 
-2.852830532265e-04 -1.036542706771e-04 0.0 
-1.036542706771e-04 2.710472695935e-03 0.0 
0.0 0.0 0.0 
1.133934664532e-03 2.694611232815e-04 0.0 
2.694611232815e-04 -4.658361674515e-03 0.0 
0.0 0.0 0.0 
7.719062674538e-05 -1.502222109111e-04 0.0 
-1.502222109111e-04 6.936495146797e-03 0.0 
0.0 0.0 0.0 
-6.358939239237e-05 5.067791543724e-05 0.0 
5.067791543724e-05 1.007806822502e-02 0.0 
0.0 0.0 0.0 
-5.885036185427e-05 -4.527579234473e-05 0.0 
-4.527579234473e-05 7.607702324889e-03 0.0 
0.0 0.0 0.0 
-4.250654319276e-04 2.292366048201e-05 0.0 
2.292366048201e-05 6.747509752709e-03 0.0 
0.0 0.0 0.0 
3.780971875131e-04 4.192768211807e-04 0.0 
4.192768211807e-04 6.151075893986e-03 0.0 
0.0 0.0 0.0 
3.519028728816e-05 -8.154275899803e-05 0.0 
-8.154275899803e-05 1.083173484943e-03 0.0 
0.0 0.0 0.0 
-2.022167326737e-04 5.874083246072e-04 0.0 
5.874083246072e-04 9.381015151029e-03 0.0 
0.0 0.0 0.0 
1.983017935789e-04 -3.059155284872e-05 0.0 
-3.059155284872e-05 2.768930709525e-04 0.0 
0.0 0.0 0.0 
1.673567185323e-04 2.782714554482e-04 0.0 
2.782714554482e-04 6.648085408816e-03 0.0 
0.0 0.0 0.0 
-2.058990711994e-04 7.941475525492e-04 0.0 
7.941475525492e-04 9.411051332756e-03 0.0 
0.0 0.0 0.0 
7.721280274937e-04 1.106004273545e-03 0.0 
1.106004273545e-03 -4.878809732108e-03 0.0 
0.0 0.0 0.0 
9.568633999613e-05 1.206106318517e-03 0.0 
1.206106318517e-03 7.205204183216e-03 0.0 
0.0 0.0 0.0 
-3.266938622888e-04 4.286259900392e-05 0.0 
4.286259900392e-05 8.480704154368e-03 0.0 
0.0 0.0 0.0 
-8.129876435270e-05 2.540735525337e-04 0.0 
2.540735525337e-04 9.754419871378e-03 0.0 
0.0 0.0 0.0 
0.0 9.704316749825e-04 0.0 
9.704316749825e-04 7.468122866626e-03 0.0 
0.0 0.0 0.0 
-3.729402374737e-04 -2.521943906453e-05 0.0 
-2.521943906453e-05 7.947192352818e-03 0.0 
0.0 0.0 0.0 
-8.461987220465e-05 1.129943068118e-03 0.0 
1.129943068118e-03 8.864986142615e-03 0.0 
0.0 0.0 0.0 
-2.697666191289e-04 6.726811713987e-04 0.0 
6.726811713987e-04 9.259545134482e-03 0.0 
0.0 0.0 0.0 
-3.382294871684e-04 4.856637827904e-05 0.0 
4.856637827904e-05 8.184252887627e-03 0.0 
0.0 0.0 0.0 
-1.510463278289e-04 1.102739889643e-03 0.0 
1.102739889643e-03 8.567796023758e-03 0.0 
0.0 0.0 0.0 
-3.381340012010e-04 -2.038832791994e-04 0.0 
-2.038832791994e-04 3.219974887071e-03 0.0 
0.0 0.0 0.0 
-4.523925779372e-04 4.995258422595e-06 0.0 
4.995258422595e-06 6.443649572317e-03 0.0 
0.0 0.0 0.0 
1.722064672312e-04 1.219149008682e-03 0.0 
1.219149008682e-03 7.255977153402e-03 0.0 
0.0 0.0 0.0 
-8.557961371558e-05 5.064612145989e-05 0.0 
5.064612145989e-05 9.815043516849e-03 0.0 
0.0 0.0 0.0 
5.204820783697e-04 1.041324865845e-05 0.0 
1.041324865845e-05 -1.392148229103e-04 0.0 
0.0 0.0 0.0 
-4.308380319309e-04 1.049987228284e-05 0.0 
1.049987228284e-05 6.442373858047e-03 0.0 
0.0 0.0 0.0 
-6.972620592893e-05 -4.506385540672e-05 0.0 
-4.506385540672e-05 7.350678229079e-03 0.0 
0.0 0.0 0.0 
-1.682595379493e-04 -2.387576007019e-04 0.0 
-2.387576007019e-04 1.445247639123e-03 0.0 
0.0 0.0 0.0 
5.310601452611e-04 6.079065573346e-04 0.0 
6.079065573346e-04 6.212620174600e-03 0.0 
0.0 0.0 0.0 
-3.009672368958e-04 7.918119100503e-04 0.0 
7.918119100503e-04 9.092205186620e-03 0.0 
0.0 0.0 0.0 
-1.533019267104e-04 2.129645448762e-04 0.0 
2.129645448762e-04 9.734383068767e-03 0.0 
0.0 0.0 0.0 
-3.158923510382e-05 -1.352043843705e-04 0.0 
-1.352043843705e-04 1.346891711954e-03 0.0 
0.0 0.0 0.0 
5.303552286977e-04 3.339111827594e-03 0.0 
3.339111827594e-03 -1.922618885863e-03 0.0 
0.0 0.0 0.0 
-3.469161474443e-04 1.994545435828e-05 0.0 
1.994545435828e-05 4.543856691869e-03 0.0 
0.0 0.0 0.0 
-2.671911781074e-04 6.473769619398e-05 0.0 
6.473769619398e-05 8.894701697646e-03 0.0 
0.0 0.0 0.0 
-4.086815781775e-03 -3.248793347170e-04 0.0 
-3.248793347170e-04 -2.844879582040e-03 0.0 
0.0 0.0 0.0 
-1.066067236806e-04 5.927472500756e-04 0.0 
5.927472500756e-04 9.603545496565e-03 0.0 
0.0 0.0 0.0 
-3.698683318963e-04 3.879594541682e-05 0.0 
3.879594541682e-05 7.827883446171e-03 0.0 
0.0 0.0 0.0 
-1.809135691662e-04 -2.219114275734e-03 0.0 
-2.219114275734e-03 -1.950638431208e-04 0.0 
0.0 0.0 0.0 
-4.073195308264e-04 5.542580022729e-05 0.0 
5.542580022729e-05 7.547853746283e-03 0.0 
0.0 0.0 0.0 
1.053229479946e-04 1.263523203705e-03 0.0 
1.263523203705e-03 7.675679801644e-03 0.0 
0.0 0.0 0.0 
-3.327270450000e-04 -6.528527937644e-05 0.0 
-6.528527937644e-05 4.736053257636e-03 0.0 
0.0 0.0 0.0 
-1.765476328742e-03 3.082522474541e-03 0.0 
3.082522474541e-03 1.598815287216e-04 0.0 
0.0 0.0 0.0 
-3.476240035128e-04 -2.292870569366e-04 0.0 
-2.292870569366e-04 2.947690663620e-03 0.0 
0.0 0.0 0.0 
-3.186278409475e-04 -2.233960697797e-04 0.0 
-2.233960697797e-04 4.157648912794e-03 0.0 
0.0 0.0 0.0 
-3.157213903773e-04 2.743435005858e-05 0.0 
2.743435005858e-05 4.912158317647e-03 0.0 
0.0 0.0 0.0 
2.823195647481e-04 1.055964811888e-03 0.0 
1.055964811888e-03 6.885787999705e-03 0.0 
0.0 0.0 0.0 
-3.518294332722e-04 -1.354302179531e-04 0.0 
-1.354302179531e-04 4.072901310421e-03 0.0 
0.0 0.0 0.0 
-3.276026921781e-04 -1.399319060379e-04 0.0 
-1.399319060379e-04 4.322804327596e-03 0.0 
0.0 0.0 0.0 
-1.004036334495e-05 -1.596454546073e-04 0.0 
-1.596454546073e-04 6.365403231898e-04 0.0 
0.0 0.0 0.0 
7.660621577976e-05 -1.198715033752e-04 0.0 
-1.198715033752e-04 6.703904411276e-03 0.0 
0.0 0.0 0.0 
-5.308008612748e-05 1.225742095820e-03 0.0 
1.225742095820e-03 7.649224252358e-03 0.0 
0.0 0.0 0.0 
9.925482081177e-04 2.973392908393e-03 0.0 
2.973392908393e-03 -2.185749231403e-03 0.0 
0.0 0.0 0.0 
-6.544276172915e-05 2.629712644901e-05 0.0 
2.629712644901e-05 9.803252952628e-03 0.0 
0.0 0.0 0.0 
-6.232128713179e-05 -1.044721407596e-05 0.0 
-1.044721407596e-05 7.340229024289e-03 0.0 
0.0 0.0 0.0 
-4.297717889111e-04 -1.770359292703e-05 0.0 
-1.770359292703e-05 6.768978132383e-03 0.0 
0.0 0.0 0.0 
-3.892325902445e-04 3.235129143381e-05 0.0 
3.235129143381e-05 7.825818486050e-03 0.0 
0.0 0.0 0.0 
-3.470927917092e-04 -1.559412912577e-04 0.0 
-1.559412912577e-04 4.075174488011e-03 0.0 
0.0 0.0 0.0 
-3.321260141693e-04 -1.875608199514e-04 0.0 
-1.875608199514e-04 4.140981593376e-03 0.0 
0.0 0.0 0.0 
-3.536745781598e-04 -1.171069083670e-04 0.0 
-1.171069083670e-04 4.310222607440e-03 0.0 
0.0 0.0 0.0 
5.667194675436e-04 6.593383400315e-04 0.0 
6.593383400315e-04 5.867745074349e-03 0.0 
0.0 0.0 0.0 
-4.415813661870e-04 -1.851730660029e-03 0.0 
-1.851730660029e-03 4.930761351767e-04 0.0 
0.0 0.0 0.0 
-9.619057295529e-05 1.231613623231e-03 0.0 
1.231613623231e-03 8.025589838506e-03 0.0 
0.0 0.0 0.0 
-4.148978867594e-04 3.079144993768e-05 0.0 
3.079144993768e-05 7.131089945955e-03 0.0 
0.0 0.0 0.0 
-2.032033692738e-04 5.505587481759e-04 0.0 
5.505587481759e-04 9.601312334213e-03 0.0 
0.0 0.0 0.0 
5.303357482331e-04 5.657455415101e-04 0.0 
5.657455415101e-04 5.856236813168e-03 0.0 
0.0 0.0 0.0 
-4.271651778363e-04 4.426675372276e-05 0.0 
4.426675372276e-05 7.554298684993e-03 0.0 
0.0 0.0 0.0 
-2.021220848524e-04 1.090950323967e-03 0.0 
1.090950323967e-03 8.341207908995e-03 0.0 
0.0 0.0 0.0 
2.659101158164e-04 1.092033042073e-03 0.0 
1.092033042073e-03 6.873503375366e-03 0.0 
0.0 0.0 0.0 
2.193228916723e-04 1.169815352558e-03 0.0 
1.169815352558e-03 7.308401745890e-03 0.0 
0.0 0.0 0.0 
-4.357773862554e-04 3.035188411250e-03 0.0 
3.035188411250e-03 -1.952509019117e-03 0.0 
0.0 0.0 0.0 
-2.459302660721e-04 1.079953063255e-03 0.0 
1.079953063255e-03 8.342562613109e-03 0.0 
0.0 0.0 0.0 
-1.647395180849e-04 1.190164401446e-03 0.0 
1.190164401446e-03 8.415538998129e-03 0.0 
0.0 0.0 0.0 
2.127701907897e-04 -1.132554884577e-04 0.0 
-1.132554884577e-04 5.945618336090e-04 0.0 
0.0 0.0 0.0 
-3.465054639511e-04 -1.969823673532e-04 0.0 
-1.969823673532e-04 3.867012453280e-03 0.0 
0.0 0.0 0.0 
-8.867582283492e-04 3.116008489077e-03 0.0 
3.116008489077e-03 -1.957590736846e-03 0.0 
0.0 0.0 0.0 
-2.332105704722e-04 1.113720712364e-03 0.0 
1.113720712364e-03 8.626034854434e-03 0.0 
0.0 0.0 0.0 
-3.038167472723e-04 4.904052437264e-06 0.0 
4.904052437264e-06 3.041513031397e-03 0.0 
0.0 0.0 0.0 
-2.608271799992e-04 1.487902794356e-05 0.0 
1.487902794356e-05 2.982584114674e-03 0.0 
0.0 0.0 0.0 
-2.902841181349e-04 -8.093222030187e-07 0.0 
-8.093222030187e-07 2.981420893861e-03 0.0 
0.0 0.0 0.0 
-2.609418854596e-04 -1.205252372167e-05 0.0 
-1.205252372167e-05 2.976555751214e-03 0.0 
0.0 0.0 0.0 
-2.832179523313e-04 -1.130968848893e-05 0.0 
-1.130968848893e-05 2.976715606686e-03 0.0 
0.0 0.0 0.0 
-2.590021948060e-04 -2.139120005655e-05 0.0 
-2.139120005655e-05 2.974694083167e-03 0.0 
0.0 0.0 0.0 
-2.757686552988e-04 -1.850013032569e-05 0.0 
-1.850013032569e-05 2.975238072950e-03 0.0 
0.0 0.0 0.0 
-2.504452410650e-04 -2.774019622092e-05 0.0 
-2.774019622092e-05 2.971253612909e-03 0.0 
0.0 0.0 0.0 
-2.662111762274e-04 -2.376284344531e-05 0.0 
-2.376284344531e-05 2.972164253376e-03 0.0 
0.0 0.0 0.0 
-2.365342372646e-04 -3.334420428665e-05 0.0 
-3.334420428665e-05 2.965892370023e-03 0.0 
0.0 0.0 0.0 
-2.542839034486e-04 -2.806110649085e-05 0.0 
-2.806110649085e-05 2.967347858560e-03 0.0 
0.0 0.0 0.0 
-2.181542202123e-04 -3.872208106763e-05 0.0 
-3.872208106763e-05 2.958742367606e-03 0.0 
0.0 0.0 0.0 
-2.400602005272e-04 -3.182337200008e-05 0.0 
-3.182337200008e-05 2.960996677233e-03 0.0 
0.0 0.0 0.0 
-1.958242152251e-04 -4.400449922957e-05 0.0 
-4.400449922957e-05 2.949938974070e-03 0.0 
0.0 0.0 0.0 
-2.237194339928e-04 -3.518832942673e-05 0.0 
-3.518832942673e-05 2.953311883564e-03 0.0 
0.0 0.0 0.0 
-1.698402877304e-04 -4.916358076549e-05 0.0 
-4.916358076549e-05 2.939582143376e-03 0.0 
0.0 0.0 0.0 
-2.054957592617e-04 -3.814855700322e-05 0.0 
-3.814855700322e-05 2.944463118017e-03 0.0 
0.0 0.0 0.0 
-1.403879834015e-04 -5.409540701217e-05 0.0 
-5.409540701217e-05 2.927749258624e-03 0.0 
0.0 0.0 0.0 
-1.856751356376e-04 -4.062069326693e-05 0.0 
-4.062069326693e-05 2.934606661549e-03 0.0 
0.0 0.0 0.0 
-1.076195457947e-04 -5.865352481646e-05 0.0 
-5.865352481646e-05 2.914518106510e-03 0.0 
0.0 0.0 0.0 
-5.470351332436e-04 6.680381241720e-04 0.0 
6.680381241720e-04 2.913799038789e-03 0.0 
0.0 0.0 0.0 
-1.646236103912e-04 -4.247411980927e-05 0.0 
-4.247411980927e-05 2.923914086957e-03 0.0 
0.0 0.0 0.0 
-7.171269013362e-05 -6.266115541300e-05 0.0 
-6.266115541300e-05 2.899994188905e-03 0.0 
0.0 0.0 0.0 
-1.428326580454e-04 -4.353792580754e-05 0.0 
-4.353792580754e-05 2.912607748781e-03 0.0 
0.0 0.0 0.0 
-6.649337325648e-05 3.621759180516e-04 0.0 
3.621759180516e-04 2.630970283528e-03 0.0 
0.0 0.0 0.0 
-3.292533231181e-05 -6.590409133438e-05 0.0 
-6.590409133438e-05 2.884334126331e-03 0.0 
0.0 0.0 0.0 
-1.209856542624e-04 -4.363560752343e-05 0.0 
-4.363560752343e-05 2.900972138348e-03 0.0 
0.0 0.0 0.0 
-8.228621055674e-04 5.185479754379e-04 0.0 
5.185479754379e-04 3.132245930604e-03 0.0 
0.0 0.0 0.0 
8.313466322019e-06 -6.812973533138e-05 0.0 
-6.812973533138e-05 2.867722457479e-03 0.0 
0.0 0.0 0.0 
-9.997439360543e-05 -4.252627444621e-05 0.0 
-4.252627444621e-05 2.889358204359e-03 0.0 
0.0 0.0 0.0 
5.134069493473e-05 -6.900567815265e-05 0.0 
-6.900567815265e-05 2.850431573150e-03 0.0 
0.0 0.0 0.0 
-8.099202364276e-05 -3.995686339134e-05 0.0 
-3.995686339134e-05 2.878201918074e-03 0.0 
0.0 0.0 0.0 
9.513693583307e-05 -6.810526510421e-05 0.0 
-6.810526510421e-05 2.832759789559e-03 0.0 
0.0 0.0 0.0 
-6.553697325085e-05 -3.538986681026e-05 0.0 
-3.538986681026e-05 2.868104073381e-03 0.0 
0.0 0.0 0.0 
1.383710607907e-04 -6.480857921196e-05 0.0 
-6.480857921196e-05 2.815329210737e-03 0.0 
0.0 0.0 0.0 
-5.578961137709e-05 -2.839493285802e-05 0.0 
-2.839493285802e-05 2.859889773229e-03 0.0 
0.0 0.0 0.0 
1.788521365256e-04 -5.816769398568e-05 0.0 
-5.816769398568e-05 2.798510565665e-03 0.0 
0.0 0.0 0.0 
-1.197336301491e-03 1.167784912642e-03 0.0 
1.167784912642e-03 3.305600549989e-03 0.0 
0.0 0.0 0.0 
-5.409438147985e-05 -1.737681655762e-05 0.0 
-1.737681655762e-05 2.854662634584e-03 0.0 
0.0 0.0 0.0 
2.134485188821e-04 -4.638171440862e-05 0.0 
-4.638171440862e-05 2.783727202228e-03 0.0 
0.0 0.0 0.0 
-6.420632215087e-05 -1.679143477647e-06 0.0 
-1.679143477647e-06 2.853463029798e-03 0.0 
0.0 0.0 0.0 
2.364656666685e-04 -2.754753594530e-05 0.0 
-2.754753594530e-05 2.771437102860e-03 0.0 
0.0 0.0 0.0 
2.929795165585e-04 -5.975334430368e-06 0.0 
-5.975334430368e-06 2.756208237783e-03 0.0 
0.0 0.0 0.0 
-8.901481670009e-05 2.246646998877e-05 0.0 
2.246646998877e-05 2.858057415607e-03 0.0 
0.0 0.0 0.0 
3.288286593333e-04 1.662669426115e-05 0.0 
1.662669426115e-05 2.742469617036e-03 0.0 
0.0 0.0 0.0 
-1.343692330111e-04 4.338107650699e-05 0.0 
4.338107650699e-05 2.865770072112e-03 0.0 
0.0 0.0 0.0 
3.185714548697e-04 5.952710060628e-05 0.0 
5.952710060628e-05 2.744030566014e-03 0.0 
0.0 0.0 0.0 
-2.149498604938e-04 7.679092017366e-05 0.0 
7.679092017366e-05 2.890710945608e-03 0.0 
0.0 0.0 0.0 
1.442436088965e-04 1.461302652201e-04 0.0 
1.461302652201e-04 2.761382121357e-03 0.0 
0.0 0.0 0.0 
-1.632184045997e-05 3.438456257598e-04 0.0 
3.438456257598e-04 2.777839948784e-03 0.0 
0.0 0.0 0.0 
-3.447768204130e-04 1.220436541494e-04 0.0 
1.220436541494e-04 2.929108537048e-03 0.0 
0.0 0.0 0.0 
-5.164824743734e-04 2.561841068382e-04 0.0 
2.561841068382e-04 3.003716667446e-03 0.0 
0.0 0.0 0.0 
-1.017345077094e-03 5.215962452821e-04 0.0 
5.215962452821e-04 3.391788836660e-03 0.0 
0.0 0.0 0.0 
-3.094508363269e-04 -5.162127427837e-05 0.0 
-5.162127427837e-05 2.992176811049e-03 0.0 
0.0 0.0 0.0 
-3.384259596503e-04 6.586834366900e-05 0.0 
6.586834366900e-05 3.043870611093e-03 0.0 
0.0 0.0 0.0 
-3.397218692693e-04 2.272723998771e-06 0.0 
2.272723998771e-06 2.915579617935e-03 0.0 
0.0 0.0 0.0 
-3.081295167153e-04 1.319590833343e-05 0.0 
1.319590833343e-05 3.118047219431e-03 0.0 
0.0 0.0 0.0 
-1.189639215027e-03 1.213527006307e-03 0.0 
1.213527006307e-03 2.742931610118e-03 0.0 
0.0 0.0 0.0 
-3.038167472723e-04 -1.764964289848e-05 0.0 
-1.764964289848e-05 3.386820418452e-03 0.0 
0.0 0.0 0.0 
-3.208612279324e-04 -6.133680097418e-06 0.0 
-6.133680097418e-06 3.424725081255e-03 0.0 
0.0 0.0 0.0 
-2.902841181349e-04 -1.091095996807e-05 0.0 
-1.091095996807e-05 3.425047331911e-03 0.0 
0.0 0.0 0.0 
-3.155287205727e-04 -2.356848837076e-05 0.0 
-2.356848837076e-05 3.423608547042e-03 0.0 
0.0 0.0 0.0 
-2.832179523313e-04 -1.977017454668e-05 0.0 
-1.977017454668e-05 3.423062736825e-03 0.0 
0.0 0.0 0.0 
-3.103744260099e-04 -3.371806580761e-05 0.0 
-3.371806580761e-05 3.420452027573e-03 0.0 
0.0 0.0 0.0 
-2.757686552988e-04 -2.900399730845e-05 0.0 
-2.900399730845e-05 3.419522018392e-03 0.0 
0.0 0.0 0.0 
-3.050695294030e-04 -4.343265687281e-05 0.0 
-4.343265687281e-05 3.417376435163e-03 0.0 
0.0 0.0 0.0 
-2.662111762274e-04 -3.717442873510e-05 0.0 
-3.717442873510e-05 3.415813662435e-03 0.0 
0.0 0.0 0.0 
-2.990953872505e-04 -5.275070604387e-05 0.0 
-5.275070604387e-05 3.413988987836e-03 0.0 
0.0 0.0 0.0 
-2.542839034486e-04 -4.445255159218e-05 0.0 
-4.445255159218e-05 3.411477426522e-03 0.0 
0.0 0.0 0.0 
-2.922034266826e-04 -6.167944205213e-05 0.0 
-6.167944205213e-05 3.410059226523e-03 0.0 
0.0 0.0 0.0 
-2.400602005272e-04 -5.102446633866e-05 0.0 
-5.102446633866e-05 3.406245676081e-03 0.0 
0.0 0.0 0.0 
-2.843660511295e-04 -7.019183112280e-05 0.0 
-7.019183112280e-05 3.405530537591e-03 0.0 
0.0 0.0 0.0 
-2.237194339928e-04 -5.693832049639e-05 0.0 
-5.693832049639e-05 3.400017111434e-03 0.0 
0.0 0.0 0.0 
-2.757420864445e-04 -7.818166460130e-05 0.0 
-7.818166460130e-05 3.400457070589e-03 0.0 
0.0 0.0 0.0 
-2.054957592617e-04 -6.212439871554e-05 0.0 
-6.212439871554e-05 3.392794513874e-03 0.0 
0.0 0.0 0.0 
-2.666124940683e-04 -8.546846564259e-05 0.0 
-8.546846564259e-05 3.394955399923e-03 0.0 
0.0 0.0 0.0 
-1.856751356376e-04 -6.641267283982e-05 0.0 
-6.641267283982e-05 3.384633003347e-03 0.0 
0.0 0.0 0.0 
-7.184205843167e-04 6.991019015761e-04 0.0 
6.991019015761e-04 3.370038511201e-03 0.0 
0.0 0.0 0.0 
-2.573723867799e-04 -9.178485244219e-05 0.0 
-9.178485244219e-05 3.389195172491e-03 0.0 
0.0 0.0 0.0 
-1.646236103912e-04 -6.954013729329e-05 0.0 
-6.954013729329e-05 3.375633576319e-03 0.0 
0.0 0.0 0.0 
-2.485337935278e-04 -9.676250545672e-05 0.0 
-9.676250545672e-05 3.383404005861e-03 0.0 
0.0 0.0 0.0 
-7.521832887654e-04 5.558948993168e-04 0.0 
5.558948993168e-04 3.509421645592e-03 0.0 
0.0 0.0 0.0 
-1.428326580454e-04 -7.113225603923e-05 0.0 
-7.113225603923e-05 3.365945605435e-03 0.0 
0.0 0.0 0.0 
-2.407614812704e-04 -9.989232016785e-05 0.0 
-9.989232016785e-05 3.377890472317e-03 0.0 
0.0 0.0 0.0 
-1.209856542624e-04 -7.070243744388e-05 0.0 
-7.070243744388e-05 3.355809541782e-03 0.0 
0.0 0.0 0.0 
-2.350387437947e-04 -1.005924729143e-04 0.0 
-1.005924729143e-04 3.373031154629e-03 0.0 
0.0 0.0 0.0 
-9.997439360543e-05 -6.762696670746e-05 0.0 
-6.762696670746e-05 3.345490330060e-03 0.0 
0.0 0.0 0.0 
-5.164824743734e-04 6.058979915690e-04 0.0 
6.058979915690e-04 3.165213452627e-03 0.0 
0.0 0.0 0.0 
-2.324211888618e-04 -9.805583389023e-05 0.0 
-9.805583389023e-05 3.369243799667e-03 0.0 
0.0 0.0 0.0 
-8.099202364276e-05 -6.109909265207e-05 0.0 
-6.109909265207e-05 3.335322173015e-03 0.0 
0.0 0.0 0.0 
-2.345427392173e-04 -9.136579794544e-05 0.0 
-9.136579794544e-05 3.367009740617e-03 0.0 
0.0 0.0 0.0 
-6.553697325085e-05 -4.999837423976e-05 0.0 
-4.999837423976e-05 3.325552318614e-03 0.0 
0.0 0.0 0.0 
-2.427150248303e-04 -7.886596425118e-05 0.0 
-7.886596425118e-05 3.366959524816e-03 0.0 
0.0 0.0 0.0 
-5.578961137709e-05 -3.282508659155e-05 0.0 
-3.282508659155e-05 3.316877529195e-03 0.0 
0.0 0.0 0.0 
-2.602001490736e-04 -5.925331331244e-05 0.0 
-5.925331331244e-05 3.369706069104e-03 0.0 
0.0 0.0 0.0 
-5.409438147985e-05 -7.278175537070e-06 0.0 
-7.278175537070e-06 3.309027176134e-03 0.0 
0.0 0.0 0.0 
-2.876781979889e-04 -2.867367431015e-05 0.0 
-2.867367431015e-05 3.375944123031e-03 0.0 
0.0 0.0 0.0 
-6.420632215087e-05 2.909378702191e-05 0.0 
2.909378702191e-05 3.303894622014e-03 0.0 
0.0 0.0 0.0 
-3.327131218221e-04 1.364014544592e-05 0.0 
1.364014544592e-05 3.386557803863e-03 0.0 
0.0 0.0 0.0 
-9.746917431724e-04 9.239455740487e-04 0.0 
9.239455740487e-04 3.545428844101e-03 0.0 
0.0 0.0 0.0 
-3.951651952033e-04 8.060891712906e-05 0.0 
8.060891712906e-05 3.411222246317e-03 0.0 
0.0 0.0 0.0 
-8.901481670009e-05 7.886372373452e-05 0.0 
7.886372373452e-05 3.300335775435e-03 0.0 
0.0 0.0 0.0 
-4.939855544752e-04 1.678286783801e-04 0.0 
1.678286783801e-04 3.441106650970e-03 0.0 
0.0 0.0 0.0 
-1.343692330111e-04 1.560165142166e-04 0.0 
1.560165142166e-04 3.307782449222e-03 0.0 
0.0 0.0 0.0 
-5.773199333832e-04 3.207913127077e-04 0.0 
3.207913127077e-04 3.463650998032e-03 0.0 
0.0 0.0 0.0 
-2.149498604938e-04 2.753089472571e-04 0.0 
2.753089472571e-04 3.300216069957e-03 0.0 
0.0 0.0 0.0 
-3.447768204130e-04 4.635607655094e-04 0.0 
4.635607655094e-04 3.291861117172e-03 0.0 
0.0 0.0 0.0 
-8.951169384906e-04 6.628736634384e-04 0.0 
6.628736634384e-04 3.489159991041e-03 0.0 
0.0 0.0 0.0 
-3.314118057588e-04 -5.969441043446e-05 0.0 
-5.969441043446e-05 3.443126187413e-03 0.0 
0.0 0.0 0.0 
-2.986441263692e-04 4.803080171357e-05 0.0 
4.803080171357e-05 3.384292334555e-03 0.0 
0.0 0.0 0.0 
-3.214786790852e-04 -1.118544665078e-05 0.0 
-1.118544665078e-05 3.528723628771e-03 0.0 
0.0 0.0 0.0 
-3.081295167153e-04 1.130677165937e-06 0.0 
1.130677165937e-06 3.301420011955e-03 0.0 
0.0 0.0 0.0 
-8.228621055674e-04 1.026390318620e-03 0.0 
1.026390318620e-03 3.138214593452e-03 0.0 
0.0 0.0 0.0 
-3.420385377936e-04 -2.247422156467e-05 0.0 
-2.247422156467e-05 3.909571263112e-03 0.0 
0.0 0.0 0.0 
-3.208612279324e-04 -1.159557622373e-05 0.0 
-1.159557622373e-05 3.869384104213e-03 0.0 
0.0 0.0 0.0 
-3.412911344312e-04 -1.938607038221e-05 0.0 
-1.938607038221e-05 3.868745289799e-03 0.0 
0.0 0.0 0.0 
-3.155287205727e-04 -2.903352824012e-05 0.0 
-2.903352824012e-05 3.864270166955e-03 0.0 
0.0 0.0 0.0 
-3.391770281581e-04 -2.799729408418e-05 0.0 
-2.799729408418e-05 3.864505911471e-03 0.0 
0.0 0.0 0.0 
-3.103744260099e-04 -3.963746169180e-05 0.0 
-3.963746169180e-05 3.861750626710e-03 0.0 
0.0 0.0 0.0 
-3.371372705082e-04 -3.750832577410e-05 0.0 
-3.750832577410e-05 3.862323276771e-03 0.0 
0.0 0.0 0.0 
-3.050695294030e-04 -5.023398086476e-05 0.0 
-5.023398086476e-05 3.859532774978e-03 0.0 
0.0 0.0 0.0 
-3.353960599397e-04 -4.676637641639e-05 0.0 
-4.676637641639e-05 3.860644902250e-03 0.0 
0.0 0.0 0.0 
-2.990953872505e-04 -6.056998266500e-05 0.0 
-6.056998266500e-05 3.857202650215e-03 0.0 
0.0 0.0 0.0 
-3.338558153805e-04 -5.551066420240e-05 0.0 
-5.551066420240e-05 3.859113859668e-03 0.0 
0.0 0.0 0.0 
-2.922034266826e-04 -7.042993005134e-05 0.0 
-7.042993005134e-05 3.854471630300e-03 0.0 
0.0 0.0 0.0 
-3.324794927637e-04 -6.358605924025e-05 0.0 
-6.358605924025e-05 3.857487216330e-03 0.0 
0.0 0.0 0.0 
-2.843660511295e-04 -7.962532252544e-05 0.0 
-7.962532252544e-05 3.851153310246e-03 0.0 
0.0 0.0 0.0 
-3.313381784221e-04 -7.076613653923e-05 0.0 
-7.076613653923e-05 3.855655473305e-03 0.0 
0.0 0.0 0.0 
-2.757420864445e-04 -8.788449635993e-05 0.0 
-8.788449635993e-05 3.847224399067e-03 0.0 
0.0 0.0 0.0 
-3.307332295835e-04 -7.679996378401e-05 0.0 
-7.679996378401e-05 3.853666873342e-03 0.0 
0.0 0.0 0.0 
-2.666124940683e-04 -9.488082097436e-05 0.0 
-9.488082097436e-05 3.842694910103e-03 0.0 
0.0 0.0 0.0 
-7.008406288763e-04 5.774369948024e-04 0.0 
5.774369948024e-04 3.796096154604e-03 0.0 
0.0 0.0 0.0 
-3.310398844955e-04 -8.135444619065e-05 0.0 
-8.135444619065e-05 3.851620715323e-03 0.0 
0.0 0.0 0.0 
-2.573723867799e-04 -1.001781626929e-04 0.0 
-1.001781626929e-04 3.837617729706e-03 0.0 
0.0 0.0 0.0 
-3.327287650043e-04 -8.399905391811e-05 0.0 
-8.399905391811e-05 3.849664695607e-03 0.0 
0.0 0.0 0.0 
-5.773199333832e-04 5.294768115238e-04 0.0 
5.294768115238e-04 3.623240320115e-03 0.0 
0.0 0.0 0.0 
-2.485337935278e-04 -1.031982362950e-04 0.0 
-1.031982362950e-04 3.832049220866e-03 0.0 
0.0 0.0 0.0 
-7.332751017046e-04 4.753238570872e-04 0.0 
4.753238570872e-04 3.906317910526e-03 0.0 
0.0 0.0 0.0 
-3.363340534044e-04 -8.413931874799e-05 0.0 
-8.413931874799e-05 3.847968068878e-03 0.0 
0.0 0.0 0.0 
-2.407614812704e-04 -1.031421313349e-04 0.0 
-1.031421313349e-04 3.826046522545e-03 0.0 
0.0 0.0 0.0 
-3.425317554248e-04 -8.083346044296e-05 0.0 
-8.083346044296e-05 3.846783926477e-03 0.0 
0.0 0.0 0.0 
-2.350387437947e-04 -9.896651728240e-05 0.0 
-9.896651728240e-05 3.819993224882e-03 0.0 
0.0 0.0 0.0 
-3.525479435491e-04 -7.331451018245e-05 0.0 
-7.331451018245e-05 3.846492085136e-03 0.0 
0.0 0.0 0.0 
-2.324211888618e-04 -8.948697251739e-05 0.0 
-8.948697251739e-05 3.813733130185e-03 0.0 
0.0 0.0 0.0 
-3.672580012707e-04 -5.996377031911e-05 0.0 
-5.996377031911e-05 3.847324955245e-03 0.0 
0.0 0.0 0.0 
-2.345427392173e-04 -7.306499959432e-05 0.0 
-7.306499959432e-05 3.807965624882e-03 0.0 
0.0 0.0 0.0 
-8.538393639526e-04 7.406660090766e-04 0.0 
7.406660090766e-04 3.917839762939e-03 0.0 
0.0 0.0 0.0 
-3.884350735475e-04 -4.001818729565e-05 0.0 
-4.001818729565e-05 3.849573065946e-03 0.0 
0.0 0.0 0.0 
-2.427150248303e-04 -4.763442778138e-05 0.0 
-4.763442778138e-05 3.801260007650e-03 0.0 
0.0 0.0 0.0 
-4.162173854719e-04 -9.304839000199e-06 0.0 
-9.304839000199e-06 3.853287256742e-03 0.0 
0.0 0.0 0.0 
-2.602001490736e-04 -1.018386478828e-05 0.0 
-1.018386478828e-05 3.796551366899e-03 0.0 
0.0 0.0 0.0 
-2.876781979889e-04 4.278175811570e-05 0.0 
4.278175811570e-05 3.787426417021e-03 0.0 
0.0 0.0 0.0 
-4.553798254485e-04 3.118678367130e-05 0.0 
3.118678367130e-05 3.858814131074e-03 0.0 
0.0 0.0 0.0 
-3.327131218221e-04 1.166448471656e-04 0.0 
1.166448471656e-04 3.785100044549e-03 0.0 
0.0 0.0 0.0 
-5.015721900059e-04 9.319018899295e-05 0.0 
9.319018899295e-05 3.865559530580e-03 0.0 
0.0 0.0 0.0 
-3.951651952033e-04 2.226234012654e-04 0.0 
2.226234012654e-04 3.765672745250e-03 0.0 
0.0 0.0 0.0 
-4.939855544752e-04 3.826471610105e-04 0.0 
3.826471610105e-04 3.762937110092e-03 0.0 
0.0 0.0 0.0 
-5.700369580497e-04 1.690621965376e-04 0.0 
1.690621965376e-04 3.875543077316e-03 0.0 
0.0 0.0 0.0 
-6.187689997654e-04 3.001137017966e-04 0.0 
3.001137017966e-04 3.883026496875e-03 0.0 
0.0 0.0 0.0 
-8.083280900435e-04 5.847918895379e-04 0.0 
5.847918895379e-04 3.832705083369e-03 0.0 
0.0 0.0 0.0 
-3.135820906427e-04 -5.954889655360e-05 0.0 
-5.954889655360e-05 3.848515954993e-03 0.0 
0.0 0.0 0.0 
-3.492449080609e-04 4.661242305577e-05 0.0 
4.661242305577e-05 3.912578435927e-03 0.0 
0.0 0.0 0.0 
-3.214786790852e-04 -1.219403741614e-05 0.0 
-1.219403741614e-05 3.763422133995e-03 0.0 
0.0 0.0 0.0 
-3.419653469291e-04 1.181401461585e-06 0.0 
1.181401461585e-06 3.994498718586e-03 0.0 
0.0 0.0 0.0 
-7.521832887654e-04 8.259053306564e-04 0.0 
8.259053306564e-04 3.577555441931e-03 0.0 
0.0 0.0 0.0 
-3.420385377936e-04 -2.376086064157e-05 0.0 
-2.376086064157e-05 4.265614053725e-03 0.0 
0.0 0.0 0.0 
-3.655649251301e-04 -1.314440222357e-05 0.0 
-1.314440222357e-05 4.307448888111e-03 0.0 
0.0 0.0 0.0 
-3.412911344312e-04 -2.187974399493e-05 0.0 
-2.187974399493e-05 4.308162596865e-03 0.0 
0.0 0.0 0.0 
-3.660806501726e-04 -3.238985027167e-05 0.0 
-3.238985027167e-05 4.310174805833e-03 0.0 
0.0 0.0 0.0 
-3.391770281581e-04 -3.014239513427e-05 0.0 
-3.014239513427e-05 4.309767230117e-03 0.0 
0.0 0.0 0.0 
-3.668884842490e-04 -4.279184188191e-05 0.0 
-4.279184188191e-05 4.309769851248e-03 0.0 
0.0 0.0 0.0 
-3.371372705082e-04 -3.928522402572e-05 0.0 
-3.928522402572e-05 4.308935042746e-03 0.0 
0.0 0.0 0.0 
-3.683892490161e-04 -5.291587155398e-05 0.0 
-5.291587155398e-05 4.309464236224e-03 0.0 
0.0 0.0 0.0 
-3.353960599397e-04 -4.832465538738e-05 0.0 
-4.832465538738e-05 4.308076339645e-03 0.0 
0.0 0.0 0.0 
-3.707564078975e-04 -6.291109380977e-05 0.0 
-6.291109380977e-05 4.309446123834e-03 0.0 
0.0 0.0 0.0 
-3.338558153805e-04 -5.679968227159e-05 0.0 
-5.679968227159e-05 4.307224044204e-03 0.0 
0.0 0.0 0.0 
-3.741026463886e-04 -7.244251867530e-05 0.0 
-7.244251867530e-05 4.309629021971e-03 0.0 
0.0 0.0 0.0 
-3.324794927637e-04 -6.438173886233e-05 0.0 
-6.438173886233e-05 4.306211877963e-03 0.0 
0.0 0.0 0.0 
-3.783643428743e-04 -8.113848404667e-05 0.0 
-8.113848404667e-05 4.309839544505e-03 0.0 
0.0 0.0 0.0 
-3.313381784221e-04 -7.064600984980e-05 0.0 
-7.064600984980e-05 4.304767646809e-03 0.0 
0.0 0.0 0.0 
-3.837235457228e-04 -8.839604493883e-05 0.0 
-8.839604493883e-05 4.310105287832e-03 0.0 
0.0 0.0 0.0 
-3.307332295835e-04 -7.519283431110e-05 0.0 
-7.519283431110e-05 4.302910356833e-03 0.0 
0.0 0.0 0.0 
-7.041734496389e-04 4.578658400230e-04 0.0 
4.578658400230e-04 4.229354273445e-03 0.0 
0.0 0.0 0.0 
-3.905827863210e-04 -9.376958069980e-05 0.0 
-9.376958069980e-05 4.310490149606e-03 0.0 
0.0 0.0 0.0 
-3.310398844955e-04 -7.754506321711e-05 0.0 
-7.754506321711e-05 4.300622074819e-03 0.0 
0.0 0.0 0.0 
-7.174984218060e-04 3.709764416177e-04 0.0 
3.709764416177e-04 4.311465157398e-03 0.0 
0.0 0.0 0.0 
-3.993811085058e-04 -9.667658847945e-05 0.0 
-9.667658847945e-05 4.311073156146e-03 0.0 
0.0 0.0 0.0 
-3.327287650043e-04 -7.712267136184e-05 0.0 
-7.712267136184e-05 4.297909877476e-03 0.0 
0.0 0.0 0.0 
-4.104316343843e-04 -9.641777469591e-05 0.0 
-9.641777469591e-05 4.311836831067e-03 0.0 
0.0 0.0 0.0 
-3.363340534044e-04 -7.307637512701e-05 0.0 
-7.307637512701e-05 4.294616152067e-03 0.0 
0.0 0.0 0.0 
-4.241167236396e-04 -9.195503156858e-05 0.0 
-9.195503156858e-05 4.312706760268e-03 0.0 
0.0 0.0 0.0 
-6.187689997654e-04 4.431274203387e-04 0.0 
4.431274203387e-04 4.067256039881e-03 0.0 
0.0 0.0 0.0 
-3.425317554248e-04 -6.412404138975e-05 0.0 
-6.412404138975e-05 4.290460198897e-03 0.0 
0.0 0.0 0.0 
-4.408730832010e-04 -8.145668668340e-05 0.0 
-8.145668668340e-05 4.313935724380e-03 0.0 
0.0 0.0 0.0 
-3.525479435491e-04 -4.898084412235e-05 0.0 
-4.898084412235e-05 4.285986474583e-03 0.0 
0.0 0.0 0.0 
-4.628217492154e-04 -6.414745047545e-05 0.0 
-6.414745047545e-05 4.315626345069e-03 0.0 
0.0 0.0 0.0 
-3.672580012707e-04 -2.590687179735e-05 0.0 
-2.590687179735e-05 4.280525285596e-03 0.0 
0.0 0.0 0.0 
-4.887705092735e-04 -3.709160025456e-05 0.0 
-3.709160025456e-05 4.317619523157e-03 0.0 
0.0 0.0 0.0 
-3.884350735475e-04 7.006026433002e-06 0.0 
7.006026433002e-06 4.274804032602e-03 0.0 
0.0 0.0 0.0 
-5.230793793964e-04 -2.700100616691e-07 0.0 
-2.700100616691e-07 4.319144011745e-03 0.0 
0.0 0.0 0.0 
-4.162173854719e-04 5.352462230692e-05 0.0 
5.352462230692e-05 4.264787716254e-03 0.0 
0.0 0.0 0.0 
-5.587187922500e-04 5.558568650643e-05 0.0 
5.558568650643e-05 4.320095090688e-03 0.0 
0.0 0.0 0.0 
-7.891085380882e-04 5.738901227671e-04 0.0 
5.738901227671e-04 4.314913422024e-03 0.0 
0.0 0.0 0.0 
-6.108901816396e-04 1.223651216895e-04 0.0 
1.223651216895e-04 4.317846465582e-03 0.0 
0.0 0.0 0.0 
-4.553798254485e-04 1.160985928214e-04 0.0 
1.160985928214e-04 4.256913995178e-03 0.0 
0.0 0.0 0.0 
-6.416878997747e-04 2.317059027768e-04 0.0 
2.317059027768e-04 4.309255742404e-03 0.0 
0.0 0.0 0.0 
-5.015721900059e-04 2.032770887029e-04 0.0 
2.032770887029e-04 4.232355958344e-03 0.0 
0.0 0.0 0.0 
-5.700369580497e-04 3.232880659086e-04 0.0 
3.232880659086e-04 4.216074477351e-03 0.0 
0.0 0.0 0.0 
-7.566399100060e-04 4.749337397528e-04 0.0 
4.749337397528e-04 4.204291278291e-03 0.0 
0.0 0.0 0.0 
-3.712738011191e-04 -5.957747301376e-05 0.0 
-5.957747301376e-05 4.325324364277e-03 0.0 
0.0 0.0 0.0 
-3.363571612567e-04 4.604281401506e-05 0.0 
4.604281401506e-05 4.262576426390e-03 0.0 
0.0 0.0 0.0 
-3.650284751386e-04 -1.232922135854e-05 0.0 
-1.232922135854e-05 4.411789854230e-03 0.0 
0.0 0.0 0.0 
-3.419653469291e-04 7.288590086773e-07 0.0 
7.288590086773e-07 4.179285690218e-03 0.0 
0.0 0.0 0.0 
-7.332751017046e-04 6.481388679072e-04 0.0 
6.481388679072e-04 4.041277956904e-03 0.0 
0.0 0.0 0.0 
-3.878992635596e-04 -2.284080738114e-05 0.0 
-2.284080738114e-05 4.792827592214e-03 0.0 
0.0 0.0 0.0 
-3.655649251301e-04 -1.212548526582e-05 0.0 
-1.212548526582e-05 4.752311739761e-03 0.0 
0.0 0.0 0.0 
-3.896375438845e-04 -2.092778489164e-05 0.0 
-2.092778489164e-05 4.751491691346e-03 0.0 
0.0 0.0 0.0 
-3.660806501726e-04 -3.075371692588e-05 0.0 
-3.075371692588e-05 4.749513798426e-03 0.0 
0.0 0.0 0.0 
-3.924632445647e-04 -2.875841369285e-05 0.0 
-2.875841369285e-05 4.749961496004e-03 0.0 
0.0 0.0 0.0 
-3.668884842490e-04 -4.012552381720e-05 0.0 
-4.012552381720e-05 4.749706738371e-03 0.0 
0.0 0.0 0.0 
-3.967224341616e-04 -3.680809609635e-05 0.0 
-3.680809609635e-05 4.750668563414e-03 0.0 
0.0 0.0 0.0 
-3.683892490161e-04 -4.891597629263e-05 0.0 
-4.891597629263e-05 4.750164758879e-03 0.0 
0.0 0.0 0.0 
-4.022607858137e-04 -4.449142003697e-05 0.0 
-4.449142003697e-05 4.751800140704e-03 0.0 
0.0 0.0 0.0 
-3.707564078975e-04 -5.725035778102e-05 0.0 
-5.725035778102e-05 4.750728421822e-03 0.0 
0.0 0.0 0.0 
-4.094036801442e-04 -5.144316346091e-05 0.0 
-5.144316346091e-05 4.753340143741e-03 0.0 
0.0 0.0 0.0 
-3.741026463886e-04 -6.477428748438e-05 0.0 
-6.477428748438e-05 4.751309732277e-03 0.0 
0.0 0.0 0.0 
-4.181377727173e-04 -5.758019193041e-05 0.0 
-5.758019193041e-05 4.755176241461e-03 0.0 
0.0 0.0 0.0 
-3.783643428743e-04 -7.111328117700e-05 0.0 
-7.111328117700e-05 4.751374189152e-03 0.0 
0.0 0.0 0.0 
-4.283767807107e-04 -6.215449199888e-05 0.0 
-6.215449199888e-05 4.756958202332e-03 0.0 
0.0 0.0 0.0 
-3.837235457228e-04 -7.551795456492e-05 0.0 
-7.551795456492e-05 4.750851720040e-03 0.0 
0.0 0.0 0.0 
-7.079084321185e-04 3.514499190407e-04 0.0 
3.514499190407e-04 4.677591413484e-03 0.0 
0.0 0.0 0.0 
-4.401090435053e-04 -6.444584315426e-05 0.0 
-6.444584315426e-05 4.758688685993e-03 0.0 
0.0 0.0 0.0 
-3.905827863210e-04 -7.720397822839e-05 0.0 
-7.720397822839e-05 4.749967368931e-03 0.0 
0.0 0.0 0.0 
-6.416878997747e-04 3.455815427753e-04 0.0 
3.455815427753e-04 4.520099777997e-03 0.0 
0.0 0.0 0.0 
-4.544360152929e-04 -6.389793006563e-05 0.0 
-6.389793006563e-05 4.760611219814e-03 0.0 
0.0 0.0 0.0 
-3.993811085058e-04 -7.557861009273e-05 0.0 
-7.557861009273e-05 4.748609970464e-03 0.0 
0.0 0.0 0.0 
-7.086250421706e-04 2.965903485345e-04 0.0 
2.965903485345e-04 4.732630136504e-03 0.0 
0.0 0.0 0.0 
-4.712318674035e-04 -6.010706091991e-05 0.0 
-6.010706091991e-05 4.762553036140e-03 0.0 
0.0 0.0 0.0 
-4.104316343843e-04 -6.979377745806e-05 0.0 
-6.979377745806e-05 4.746322325103e-03 0.0 
0.0 0.0 0.0 
-4.904085058419e-04 -5.212069695854e-05 0.0 
-5.212069695854e-05 4.764124091823e-03 0.0 
0.0 0.0 0.0 
-4.241167236396e-04 -5.854887752436e-05 0.0 
-5.854887752436e-05 4.742597942310e-03 0.0 
0.0 0.0 0.0 
-5.124200154001e-04 -3.858808254815e-05 0.0 
-3.858808254815e-05 4.764899494225e-03 0.0 
0.0 0.0 0.0 
-4.408730832010e-04 -3.991858056060e-05 0.0 
-3.991858056060e-05 4.736400562776e-03 0.0 
0.0 0.0 0.0 
-7.587432521798e-04 4.433736557821e-04 0.0 
4.433736557821e-04 4.742448592510e-03 0.0 
0.0 0.0 0.0 
-5.366159462092e-04 -1.591243657243e-05 0.0 
-1.591243657243e-05 4.764933364274e-03 0.0 
0.0 0.0 0.0 
-4.628217492154e-04 -1.182677182048e-05 0.0 
-1.182677182048e-05 4.731000425123e-03 0.0 
0.0 0.0 0.0 
-5.673677403077e-04 1.329684978535e-05 0.0 
1.329684978535e-05 4.764544921314e-03 0.0 
0.0 0.0 0.0 
-4.887705092735e-04 2.725222553673e-05 0.0 
2.725222553673e-05 4.719503467230e-03 0.0 
0.0 0.0 0.0 
-5.230793793964e-04 8.055497263808e-05 0.0 
8.055497263808e-05 4.711537777277e-03 0.0 
0.0 0.0 0.0 
-5.980515576699e-04 5.834718857835e-05 0.0 
5.834718857835e-05 4.761864405396e-03 0.0 
0.0 0.0 0.0 
-5.587187922500e-04 1.523669380646e-04 0.0 
1.523669380646e-04 4.682189638689e-03 0.0 
0.0 0.0 0.0 
-6.399220482223e-04 1.077879476493e-04 0.0 
1.077879476493e-04 4.755790513086e-03 0.0 
0.0 0.0 0.0 
-6.108901816396e-04 2.515375852619e-04 0.0 
2.515375852619e-04 4.667778583492e-03 0.0 
0.0 0.0 0.0 
-6.554596744828e-04 1.946297904659e-04 0.0 
1.946297904659e-04 4.739816234496e-03 0.0 
0.0 0.0 0.0 
-7.360064277261e-04 3.717548388858e-04 0.0 
3.717548388858e-04 4.610950940726e-03 0.0 
0.0 0.0 0.0 
-3.580830637795e-04 -5.944151167299e-05 0.0 
-5.944151167299e-05 4.732602544266e-03 0.0 
0.0 0.0 0.0 
-3.935380641145e-04 4.636687120481e-05 0.0 
4.636687120481e-05 4.796291500392e-03 0.0 
0.0 0.0 0.0 
-3.650284751386e-04 -1.199811233313e-05 0.0 
-1.199811233313e-05 4.646690397226e-03 0.0 
0.0 0.0 0.0 
-3.873236678568e-04 1.151025004928e-06 0.0 
1.151025004928e-06 4.878554840039e-03 0.0 
0.0 0.0 0.0 
-7.174984218060e-04 5.008602409192e-04 0.0 
5.008602409192e-04 4.477218537212e-03 0.0 
0.0 0.0 0.0 
-3.878992635596e-04 -2.129944227103e-05 0.0 
-2.129944227103e-05 5.149326043566e-03 0.0 
0.0 0.0 0.0 
-4.075277222931e-04 -9.114362702541e-06 0.0 
-9.114362702541e-06 5.190192378753e-03 0.0 
0.0 0.0 0.0 
-3.896375438845e-04 -1.794656591740e-05 0.0 
-1.794656591740e-05 5.191030873628e-03 0.0 
0.0 0.0 0.0 
-4.098395748501e-04 -2.589106260003e-05 0.0 
-2.589106260003e-05 5.193618917510e-03 0.0 
0.0 0.0 0.0 
-3.924632445647e-04 -2.388783579462e-05 0.0 
-2.388783579462e-05 5.193220691632e-03 0.0 
0.0 0.0 0.0 
-4.152712201474e-04 -3.297735832958e-05 0.0 
-3.297735832958e-05 5.195334011291e-03 0.0 
0.0 0.0 0.0 
-3.967224341616e-04 -3.012820687228e-05 0.0 
-3.012820687228e-05 5.194578693140e-03 0.0 
0.0 0.0 0.0 
-4.216762249363e-04 -3.961549431555e-05 0.0 
-3.961549431555e-05 5.197081186176e-03 0.0 
0.0 0.0 0.0 
-4.022607858137e-04 -3.542953967144e-05 0.0 
-3.542953967144e-05 5.195731331279e-03 0.0 
0.0 0.0 0.0 
-4.308800144155e-04 -4.535060186795e-05 0.0 
-4.535060186795e-05 5.199542918210e-03 0.0 
0.0 0.0 0.0 
-4.094036801442e-04 -3.986727428922e-05 0.0 
-3.986727428922e-05 5.197414702415e-03 0.0 
0.0 0.0 0.0 
-4.415352197975e-04 -5.021164071246e-05 0.0 
-5.021164071246e-05 5.202216026994e-03 0.0 
0.0 0.0 0.0 
-4.181377727173e-04 -4.289108950808e-05 0.0 
-4.289108950808e-05 5.198937287255e-03 0.0 
0.0 0.0 0.0 
-4.553988530747e-04 -5.396833624015e-05 0.0 
-5.396833624015e-05 5.205060783913e-03 0.0 
0.0 0.0 0.0 
-4.283767807107e-04 -4.416141323606e-05 0.0 
-4.416141323606e-05 5.200057131817e-03 0.0 
0.0 0.0 0.0 
-7.147396249572e-04 2.782902658977e-04 0.0 
2.782902658977e-04 5.133415780176e-03 0.0 
0.0 0.0 0.0 
-4.695124337917e-04 -5.563603655226e-05 0.0 
-5.563603655226e-05 5.206978567309e-03 0.0 
0.0 0.0 0.0 
-7.011666399882e-04 2.344263350434e-04 0.0 
2.344263350434e-04 5.170144788486e-03 0.0 
0.0 0.0 0.0 
-4.401090435053e-04 -4.205421431043e-05 0.0 
-4.205421431043e-05 5.199378200668e-03 0.0 
0.0 0.0 0.0 
-4.869902453813e-04 -5.304716040527e-05 0.0 
-5.304716040527e-05 5.209259457581e-03 0.0 
0.0 0.0 0.0 
-4.544360152929e-04 -3.660203062225e-05 0.0 
-3.660203062225e-05 5.199002253310e-03 0.0 
0.0 0.0 0.0 
-5.075793701517e-04 -4.720445459289e-05 0.0 
-4.720445459289e-05 5.211562214451e-03 0.0 
0.0 0.0 0.0 
-4.712318674035e-04 -2.723652618323e-05 0.0 
-2.723652618323e-05 5.197831073931e-03 0.0 
0.0 0.0 0.0 
-5.298356202307e-04 -3.710353769507e-05 0.0 
-3.710353769507e-05 5.212733096701e-03 0.0 
0.0 0.0 0.0 
-6.554596744828e-04 2.838132693238e-04 0.0 
2.838132693238e-04 4.973850425306e-03 0.0 
0.0 0.0 0.0 
-4.904085058419e-04 -1.239893059517e-05 0.0 
-1.239893059517e-05 5.194361892147e-03 0.0 
0.0 0.0 0.0 
-5.548030044206e-04 -2.071639503144e-05 0.0 
-2.071639503144e-05 5.212473058574e-03 0.0 
0.0 0.0 0.0 
-5.124200154001e-04 9.236066232542e-06 0.0 
9.236066232542e-06 5.188527255539e-03 0.0 
0.0 0.0 0.0 
-5.827891537068e-04 2.442336937150e-06 0.0 
2.442336937150e-06 5.209426368391e-03 0.0 
0.0 0.0 0.0 
-5.366159462092e-04 4.096918493687e-05 0.0 
4.096918493687e-05 5.176801356875e-03 0.0 
0.0 0.0 0.0 
-6.086507796551e-04 4.109079222582e-05 0.0 
4.109079222582e-05 5.205091972803e-03 0.0 
0.0 0.0 0.0 
-5.673677403077e-04 8.259007585467e-05 0.0 
8.259007585467e-05 5.168162082675e-03 0.0 
0.0 0.0 0.0 
-6.475634942618e-04 8.252726439746e-05 0.0 
8.252726439746e-05 5.196957180352e-03 0.0 
0.0 0.0 0.0 
-6.605089691166e-04 1.538097896169e-04 0.0 
1.538097896169e-04 5.181314695482e-03 0.0 
0.0 0.0 0.0 
-5.980515576699e-04 1.391146801321e-04 0.0 
1.391146801321e-04 5.143765337912e-03 0.0 
0.0 0.0 0.0 
-7.376380923357e-04 3.479544536026e-04 0.0 
3.479544536026e-04 5.181852779831e-03 0.0 
0.0 0.0 0.0 
-6.399220482223e-04 2.126077811004e-04 0.0 
2.126077811004e-04 5.127617890137e-03 0.0 
0.0 0.0 0.0 
-7.171800688173e-04 2.928596200789e-04 0.0 
2.928596200789e-04 5.027875952751e-03 0.0 
0.0 0.0 0.0 
-4.144468148036e-04 -5.849710178531e-05 0.0 
-5.849710178531e-05 5.207496300531e-03 0.0 
0.0 0.0 0.0 
-3.801198418663e-04 4.798807440068e-05 0.0 
4.798807440068e-05 5.145856805594e-03 0.0 
0.0 0.0 0.0 
-4.065649101395e-04 -1.051417635539e-05 0.0 
-1.051417635539e-05 5.293570269498e-03 0.0 
0.0 0.0 0.0 
-3.873236678568e-04 2.183285356026e-06 0.0 
2.183285356026e-06 5.063385604039e-03 0.0 
0.0 0.0 0.0 
-7.086250421706e-04 3.940590244612e-04 0.0 
3.940590244612e-04 4.935064095918e-03 0.0 
0.0 0.0 0.0 
-4.251518339407e-04 -1.898835881994e-05 0.0 
-1.898835881994e-05 5.671209083800e-03 0.0 
0.0 0.0 0.0 
-4.075277222931e-04 -5.217547670640e-06 0.0 
-5.217547670640e-06 5.629675887096e-03 0.0 
0.0 0.0 0.0 
-4.238671499729e-04 -1.394325545138e-05 0.0 
-1.394325545138e-05 5.628705871052e-03 0.0 
0.0 0.0 0.0 
-4.098395748501e-04 -1.907904914182e-05 0.0 
-1.907904914182e-05 5.626409809984e-03 0.0 
0.0 0.0 0.0 
-4.304271220197e-04 -1.515017744251e-05 0.0 
-1.515017744251e-05 5.627263423954e-03 0.0 
0.0 0.0 0.0 
-4.152712201474e-04 -2.284484490985e-05 0.0 
-2.284484490985e-05 5.629042671314e-03 0.0 
0.0 0.0 0.0 
-4.399608308842e-04 -1.957595851060e-05 0.0 
-1.957595851060e-05 5.630153545770e-03 0.0 
0.0 0.0 0.0 
-4.216762249363e-04 -2.688843483010e-05 0.0 
-2.688843483010e-05 5.629325561079e-03 0.0 
0.0 0.0 0.0 
-4.483502417785e-04 -2.071278320888e-05 0.0 
-2.071278320888e-05 5.631718789427e-03 0.0 
0.0 0.0 0.0 
-4.308800144155e-04 -2.840185308087e-05 0.0 
-2.840185308087e-05 5.632534819515e-03 0.0 
0.0 0.0 0.0 
-4.626784345715e-04 -2.264678394564e-05 0.0 
-2.264678394564e-05 5.635556282603e-03 0.0 
0.0 0.0 0.0 
-4.415352197975e-04 -2.959874968630e-05 0.0 
-2.959874968630e-05 5.633264245861e-03 0.0 
0.0 0.0 0.0 
-4.762180591299e-04 -2.090486156907e-05 0.0 
-2.090486156907e-05 5.638314202492e-03 0.0 
0.0 0.0 0.0 
-7.118343568214e-04 2.237603910266e-04 0.0 
2.237603910266e-04 5.588102658911e-03 0.0 
0.0 0.0 0.0 
-4.553988530747e-04 -2.793431340303e-05 0.0 
-2.793431340303e-05 5.636890575802e-03 0.0 
0.0 0.0 0.0 
-4.956229390288e-04 -2.125364555509e-05 0.0 
-2.125364555509e-05 5.642261358504e-03 0.0 
0.0 0.0 0.0 
-6.605089691166e-04 2.301343582918e-04 0.0 
2.301343582918e-04 5.430356303757e-03 0.0 
0.0 0.0 0.0 
-4.695124337917e-04 -2.529143676979e-05 0.0 
-2.529143676979e-05 5.634082447852e-03 0.0 
0.0 0.0 0.0 
-5.134050324400e-04 -1.432567800495e-05 0.0 
-1.432567800495e-05 5.642963368998e-03 0.0 
0.0 0.0 0.0 
-6.889665998162e-04 1.992121261441e-04 0.0 
1.992121261441e-04 5.606933984542e-03 0.0 
0.0 0.0 0.0 
-4.869902453813e-04 -1.694640905796e-05 0.0 
-1.694640905796e-05 5.633501531392e-03 0.0 
0.0 0.0 0.0 
-5.361771033493e-04 -4.220562113658e-06 0.0 
-4.220562113658e-06 5.645242242214e-03 0.0 
0.0 0.0 0.0 
-5.075793701517e-04 -4.676082511391e-06 0.0 
-4.676082511391e-06 5.632771855566e-03 0.0 
0.0 0.0 0.0 
-5.603641721329e-04 7.903360905072e-06 0.0 
7.903360905072e-06 5.646436548219e-03 0.0 
0.0 0.0 0.0 
-5.298356202307e-04 1.251832709920e-05 0.0 
1.251832709920e-05 5.627682388571e-03 0.0 
0.0 0.0 0.0 
-7.226547893088e-04 2.838385326062e-04 0.0 
2.838385326062e-04 5.628142290726e-03 0.0 
0.0 0.0 0.0 
-5.854276278745e-04 2.685778156659e-05 0.0 
2.685778156659e-05 5.644729312393e-03 0.0 
0.0 0.0 0.0 
-5.548030044206e-04 3.728472160121e-05 0.0 
3.728472160121e-05 5.620166051737e-03 0.0 
0.0 0.0 0.0 
-5.827891537068e-04 6.989242827642e-05 0.0 
6.989242827642e-05 5.610487596588e-03 0.0 
0.0 0.0 0.0 
-6.136115708161e-04 5.312630184244e-05 0.0 
5.312630184244e-05 5.640877647452e-03 0.0 
0.0 0.0 0.0 
-6.086507796551e-04 1.152484198344e-04 0.0 
1.152484198344e-04 5.582511826246e-03 0.0 
0.0 0.0 0.0 
-6.468939963357e-04 8.214786618000e-05 0.0 
8.214786618000e-05 5.631449297309e-03 0.0 
0.0 0.0 0.0 
-6.475634942618e-04 1.769336411927e-04 0.0 
1.769336411927e-04 5.576797144882e-03 0.0 
0.0 0.0 0.0 
-6.536770236145e-04 1.423190160517e-04 0.0 
1.423190160517e-04 5.615161404990e-03 0.0 
0.0 0.0 0.0 
-7.065553334341e-04 2.378911718390e-04 0.0 
2.378911718390e-04 5.467254465086e-03 0.0 
0.0 0.0 0.0 
-3.940732108069e-04 -5.648258377455e-05 0.0 
-5.648258377455e-05 5.608013833051e-03 0.0 
0.0 0.0 0.0 
-4.316353912466e-04 5.122402778067e-05 0.0 
5.122402778067e-05 5.675344832799e-03 0.0 
0.0 0.0 0.0 
-4.065649101395e-04 -8.294456673490e-06 0.0 
-8.294456673490e-06 5.526239874017e-03 0.0 
0.0 0.0 0.0 
-4.199034034620e-04 5.599202664403e-06 0.0 
5.599202664403e-06 5.752858650157e-03 0.0 
0.0 0.0 0.0 
-7.011666399882e-04 3.135277452107e-04 0.0 
3.135277452107e-04 5.390270718353e-03 0.0 
0.0 0.0 0.0 
-4.251518339407e-04 -1.970179109728e-05 0.0 
-1.970179109728e-05 6.032596965541e-03 0.0 
0.0 0.0 0.0 
-4.240954693896e-04 -5.279970008845e-06 0.0 
-5.279970008845e-06 6.058808181276e-03 0.0 
0.0 0.0 0.0 
-4.238671499729e-04 -5.392019274540e-06 0.0 
-5.392019274540e-06 6.058820573510e-03 0.0 
0.0 0.0 0.0 
-4.352680104101e-04 -7.932979433672e-06 0.0 
-7.932979433672e-06 6.063664762840e-03 0.0 
0.0 0.0 0.0 
-4.304271220197e-04 -4.706762860296e-06 0.0 
-4.706762860296e-06 6.063057741927e-03 0.0 
0.0 0.0 0.0 
-4.434933636116e-04 -7.349236171309e-06 0.0 
-7.349236171309e-06 6.068567233172e-03 0.0 
0.0 0.0 0.0 
-4.399608308842e-04 -6.966100981391e-06 0.0 
-6.966100981391e-06 6.068428190529e-03 0.0 
0.0 0.0 0.0 
-4.512093760503e-04 -1.208946980145e-05 0.0 
-1.208946980145e-05 6.067871739987e-03 0.0 
0.0 0.0 0.0 
-4.483502417785e-04 -3.351158393386e-06 0.0 
-3.351158393386e-06 6.065239815910e-03 0.0 
0.0 0.0 0.0 
-4.631875628713e-04 -5.032406181810e-06 0.0 
-5.032406181810e-06 6.072533383341e-03 0.0 
0.0 0.0 0.0 
-4.626784345715e-04 -1.440201386322e-06 0.0 
-1.440201386322e-06 6.071249691149e-03 0.0 
0.0 0.0 0.0 
-4.807068285012e-04 -6.489972881341e-06 0.0 
-6.489972881341e-06 6.074598582769e-03 0.0 
0.0 0.0 0.0 
-7.016732157313e-04 1.928206119364e-04 0.0 
1.928206119364e-04 6.037663611289e-03 0.0 
0.0 0.0 0.0 
-4.762180591299e-04 4.646701172462e-06 0.0 
4.646701172462e-06 6.069822625550e-03 0.0 
0.0 0.0 0.0 
-6.760023384329e-04 1.757852024440e-04 0.0 
1.757852024440e-04 6.047698360675e-03 0.0 
0.0 0.0 0.0 
-4.910630617889e-04 4.093139202786e-06 0.0 
4.093139202786e-06 6.077656989079e-03 0.0 
0.0 0.0 0.0 
-4.956229390288e-04 1.185087297514e-05 0.0 
1.185087297514e-05 6.074258740786e-03 0.0 
0.0 0.0 0.0 
-5.206357939070e-04 5.761451637031e-06 0.0 
5.761451637031e-06 6.078827095483e-03 0.0 
0.0 0.0 0.0 
-5.134050324400e-04 2.403469042828e-05 0.0 
2.403469042828e-05 6.068646374193e-03 0.0 
0.0 0.0 0.0 
-5.438355663206e-04 2.138976414390e-05 0.0 
2.138976414390e-05 6.080074979578e-03 0.0 
0.0 0.0 0.0 
-5.361771033493e-04 3.882960081981e-05 0.0 
3.882960081981e-05 6.069153755331e-03 0.0 
0.0 0.0 0.0 
-5.649690493850e-04 3.676915786318e-05 0.0 
3.676915786318e-05 6.079541650377e-03 0.0 
0.0 0.0 0.0 
-6.536770236145e-04 2.074204150325e-04 0.0 
2.074204150325e-04 5.879689701381e-03 0.0 
0.0 0.0 0.0 
-5.603641721329e-04 5.868164555232e-05 0.0 
5.868164555232e-05 6.064880983481e-03 0.0 
0.0 0.0 0.0 
-5.916194516806e-04 5.672084285349e-05 0.0 
5.672084285349e-05 6.075429594612e-03 0.0 
0.0 0.0 0.0 
-5.854276278745e-04 8.611862794437e-05 0.0 
8.611862794437e-05 6.053906917056e-03 0.0 
0.0 0.0 0.0 
-6.165068642784e-04 8.742245098147e-05 0.0 
8.742245098147e-05 6.067373874284e-03 0.0 
0.0 0.0 0.0 
-6.438632471176e-04 1.290659222838e-04 0.0 
1.290659222838e-04 6.057472454729e-03 0.0 
0.0 0.0 0.0 
-6.136115708161e-04 1.229360552206e-04 0.0 
1.229360552206e-04 6.039793138354e-03 0.0 
0.0 0.0 0.0 
-6.468939963357e-04 1.659475181150e-04 0.0 
1.659475181150e-04 6.027613239868e-03 0.0 
0.0 0.0 0.0 
-6.988883236621e-04 2.438680116087e-04 0.0 
2.438680116087e-04 6.071119517395e-03 0.0 
0.0 0.0 0.0 
-6.835387336949e-04 2.077490703054e-04 0.0 
2.077490703054e-04 5.899870204682e-03 0.0 
0.0 0.0 0.0 
-4.384566376210e-04 -4.946065712887e-05 0.0 
-4.946065712887e-05 6.066605309131e-03 0.0 
0.0 0.0 0.0 
-4.169699417420e-04 5.826367417851e-05 0.0 
5.826367417851e-05 6.028003683943e-03 0.0 
0.0 0.0 0.0 
-4.349774925437e-04 1.925257341146e-06 0.0 
1.925257341146e-06 6.163076938097e-03 0.0 
0.0 0.0 0.0 
-4.199034034620e-04 9.130667817092e-06 0.0 
9.130667817092e-06 5.935391290808e-03 0.0 
0.0 0.0 0.0 
-6.889665998162e-04 2.647600665413e-04 0.0 
2.647600665413e-04 5.850622846310e-03 0.0 
0.0 0.0 0.0 

TENSORS element_materi_strain_plasti float
-6.466164772809e-04 8.245090744215e-04 0.0 
8.245090744215e-04 2.707374572581e-03 0.0 
0.0 0.0 -4.220722639049e-04 
-5.850828050599e-04 4.087408186800e-04 0.0 
4.087408186800e-04 2.442724633431e-03 0.0 
0.0 0.0 -4.303330772826e-04 
-1.282095494807e-03 4.001741098009e-04 0.0 
4.001741098009e-04 8.226379453025e-03 0.0 
0.0 0.0 -1.278236581085e-03 
-1.295884943363e-03 -1.217266030679e-04 0.0 
-1.217266030679e-04 8.480174258718e-03 0.0 
0.0 0.0 -1.255598393855e-03 
-9.118044046819e-04 2.773302772114e-04 0.0 
2.773302772114e-04 5.301634366726e-03 0.0 
0.0 0.0 -7.961861350945e-04 
2.510626383067e-04 3.899924767601e-04 0.0 
3.899924767601e-04 -1.017744063532e-06 0.0 
0.0 0.0 -1.071620975328e-04 
-8.944012644099e-04 3.000213301662e-04 0.0 
3.000213301662e-04 5.255597081572e-03 0.0 
0.0 0.0 -8.011023898636e-04 
-6.111001276048e-04 8.133198202813e-04 0.0 
8.133198202813e-04 2.541489709150e-03 0.0 
0.0 0.0 -4.045669272905e-04 
-9.178969371214e-04 -2.491713150355e-04 0.0 
-2.491713150355e-04 5.331335701126e-03 0.0 
0.0 0.0 -7.977904104816e-04 
-1.281432177268e-03 3.076617140319e-04 0.0 
3.076617140319e-04 8.397045163972e-03 0.0 
0.0 0.0 -1.253060141438e-03 
-1.093573439511e-03 5.627509268443e-05 0.0 
5.627509268443e-05 5.667510059544e-03 0.0 
0.0 0.0 -8.816510380685e-04 
-5.787511837025e-04 6.777709678412e-04 0.0 
6.777709678412e-04 2.088119972159e-03 0.0 
0.0 0.0 -3.735031833740e-04 
-1.326305648993e-03 1.334625464656e-04 0.0 
1.334625464656e-04 8.251440389062e-03 0.0 
0.0 0.0 -1.259187713256e-03 
-9.724653634380e-04 3.053641968768e-04 0.0 
3.053641968768e-04 5.663135226582e-03 0.0 
0.0 0.0 -8.526168115438e-04 
-1.330762641967e-03 -3.008650578863e-04 0.0 
-3.008650578863e-04 8.383102825445e-03 0.0 
0.0 0.0 -1.289538875031e-03 
-1.321345684109e-03 2.719191787034e-04 0.0 
2.719191787034e-04 8.617215783831e-03 0.0 
0.0 0.0 -1.285984941237e-03 
-9.140896497734e-04 7.519541139523e-05 0.0 
7.519541139523e-05 5.296976735505e-03 0.0 
0.0 0.0 -7.740676797406e-04 
0.0 0.0 0.0 
0.0 0.0 0.0 
0.0 0.0 0.0 
-3.519099227855e-04 -1.443334347486e-04 0.0 
-1.443334347486e-04 1.817532010240e-03 0.0 
0.0 0.0 -2.776016825098e-04 
-3.997644766498e-04 4.954726061119e-05 0.0 
4.954726061119e-05 1.673764597630e-03 0.0 
0.0 0.0 -3.031105466646e-04 
-1.276969282696e-03 -1.363061038713e-04 0.0 
-1.363061038713e-04 8.471794626493e-03 0.0 
0.0 0.0 -1.250388265701e-03 
-6.432162703731e-04 5.512102898043e-04 0.0 
5.512102898043e-04 2.885045796034e-03 0.0 
0.0 0.0 -4.811142067971e-04 
-6.884954101540e-04 3.994199898237e-04 0.0 
3.994199898237e-04 3.234457200495e-03 0.0 
0.0 0.0 -5.091556215902e-04 
-1.086615628820e-03 -2.931322765965e-04 0.0 
-2.931322765965e-04 7.458132473520e-03 0.0 
0.0 0.0 -1.210372970477e-03 
-1.022288100468e-03 3.987168263927e-04 0.0 
3.987168263927e-04 6.009421001038e-03 0.0 
0.0 0.0 -9.130988374533e-04 
-1.132573975630e-03 -2.410939857696e-04 0.0 
-2.410939857696e-04 6.073086075411e-03 0.0 
0.0 0.0 -9.179597371190e-04 
-8.591992327558e-04 1.320513177097e-04 0.0 
1.320513177097e-04 4.879471040969e-03 0.0 
0.0 0.0 -7.148082707961e-04 
-1.227939719405e-03 4.897213587292e-04 0.0 
4.897213587292e-04 8.231185118654e-03 0.0 
0.0 0.0 -1.266047838742e-03 
-1.043323281561e-03 -5.190539471628e-05 0.0 
-5.190539471628e-05 6.052750555350e-03 0.0 
0.0 0.0 -9.113908267906e-04 
-1.155289536852e-03 -1.768880545786e-05 0.0 
-1.768880545786e-05 7.700571454284e-03 0.0 
0.0 0.0 -1.237914324842e-03 
3.591818895870e-04 -1.087919908418e-03 0.0 
-1.087919908418e-03 2.306926407283e-04 0.0 
0.0 0.0 -2.528033701351e-04 
-5.253251415500e-05 -7.346267826167e-05 0.0 
-7.346267826167e-05 5.706227414438e-04 0.0 
0.0 0.0 -1.059755802940e-04 
-1.328657286874e-03 4.996781592111e-04 0.0 
4.996781592111e-04 8.531045122136e-03 0.0 
0.0 0.0 -1.261301343383e-03 
-1.246135843572e-03 -2.165566539215e-04 0.0 
-2.165566539215e-04 7.113329539199e-03 0.0 
0.0 0.0 -1.090200430068e-03 
-1.222640564805e-03 -5.172125954847e-04 0.0 
-5.172125954847e-04 8.023175699372e-03 0.0 
0.0 0.0 -1.254989870190e-03 
-1.362336754091e-03 1.038272021812e-04 0.0 
1.038272021812e-04 8.593232231463e-03 0.0 
0.0 0.0 -1.314886350686e-03 
-1.333817909252e-03 -6.741910836282e-04 0.0 
-6.741910836282e-04 8.572481383167e-03 0.0 
0.0 0.0 -1.314653105918e-03 
-1.152787385481e-03 3.395804623759e-04 0.0 
3.395804623759e-04 7.780236807800e-03 0.0 
0.0 0.0 -1.264739017786e-03 
-8.345100331917e-04 -3.032908507100e-04 0.0 
-3.032908507100e-04 4.793915913410e-03 0.0 
0.0 0.0 -7.380763454961e-04 
-8.314689275844e-04 3.674750294880e-04 0.0 
3.674750294880e-04 4.862282802739e-03 0.0 
0.0 0.0 -7.371174501546e-04 
-7.446435526587e-04 2.495366517639e-04 0.0 
2.495366517639e-04 3.730189536197e-03 0.0 
0.0 0.0 -5.794556523337e-04 
-1.240577876015e-03 -2.606603701506e-04 0.0 
-2.606603701506e-04 7.945807599574e-03 0.0 
0.0 0.0 -1.280756488215e-03 
-5.279799311040e-04 1.102170611227e-03 0.0 
1.102170611227e-03 1.773978523889e-03 0.0 
0.0 0.0 -3.207852484642e-04 
-8.673432961900e-04 2.038482856540e-04 0.0 
2.038482856540e-04 4.641456270313e-03 0.0 
0.0 0.0 -7.350059072715e-04 
-1.271467539957e-03 -7.879660805606e-05 0.0 
-7.879660805606e-05 8.302426141521e-03 0.0 
0.0 0.0 -1.212858513926e-03 
-5.775885694842e-04 8.848405614820e-04 0.0 
8.848405614820e-04 1.777381832978e-03 0.0 
0.0 0.0 -3.198426158856e-04 
2.130878448261e-04 -2.803383724960e-04 0.0 
-2.803383724960e-04 -1.640750498910e-05 0.0 
0.0 0.0 -8.429157421588e-05 
-1.252952730617e-03 9.194498370430e-05 0.0 
9.194498370430e-05 8.113365198973e-03 0.0 
0.0 0.0 -1.234743356787e-03 
1.618564024128e-06 -4.086337075163e-06 0.0 
-4.086337075163e-06 6.435399236579e-07 0.0 
0.0 0.0 -9.694731204795e-07 
-9.377652680597e-04 -7.279277581159e-05 0.0 
-7.279277581159e-05 5.473641853479e-03 0.0 
0.0 0.0 -8.229436299569e-04 
-7.184238485782e-04 3.283816114982e-04 0.0 
3.283816114982e-04 3.500159598670e-03 0.0 
0.0 0.0 -5.440916476828e-04 
-4.407403860860e-04 -1.000193585770e-04 0.0 
-1.000193585770e-04 2.276874889741e-03 0.0 
0.0 0.0 -3.443810396916e-04 
3.693556118723e-04 -1.150080954677e-03 0.0 
-1.150080954677e-03 2.564828416198e-04 0.0 
0.0 0.0 -2.682164800680e-04 
-6.981340931129e-04 4.826618162809e-04 0.0 
4.826618162809e-04 3.375109354798e-03 0.0 
0.0 0.0 -5.489460876789e-04 
-1.294047200749e-03 3.426820678350e-04 0.0 
3.426820678350e-04 8.360890520438e-03 0.0 
0.0 0.0 -1.282189168212e-03 
-6.426921289281e-04 -2.477141885566e-04 0.0 
-2.477141885566e-04 2.972149177427e-03 0.0 
0.0 0.0 -4.512233509908e-04 
-5.071100590753e-04 7.724547813732e-05 0.0 
7.724547813732e-05 2.167123717160e-03 0.0 
0.0 0.0 -3.694212080277e-04 
-1.248804674603e-03 1.204053078386e-04 0.0 
1.204053078386e-04 7.152497866114e-03 0.0 
0.0 0.0 -1.087734043503e-03 
-2.199405617637e-04 -6.207470745057e-05 0.0 
-6.207470745057e-05 1.342683867831e-03 0.0 
0.0 0.0 -2.189683579105e-04 
-1.315587936217e-03 -1.318704737137e-04 0.0 
-1.318704737137e-04 8.629398526663e-03 0.0 
0.0 0.0 -1.285320035817e-03 
0.0 0.0 0.0 
0.0 0.0 0.0 
0.0 0.0 0.0 
-1.104248090582e-03 6.042449065024e-04 0.0 
6.042449065024e-04 7.502345308807e-03 0.0 
0.0 0.0 -1.210824713543e-03 
-6.118289487359e-04 1.052783847498e-03 0.0 
1.052783847498e-03 3.133960488999e-03 0.0 
0.0 0.0 -5.497085007362e-04 
3.930006713422e-04 -1.150166211052e-03 0.0 
-1.150166211052e-03 2.323329664583e-04 0.0 
0.0 0.0 -2.680001304859e-04 
-1.319367167403e-03 -3.421260873299e-04 0.0 
-3.421260873299e-04 8.223808012733e-03 0.0 
0.0 0.0 -1.257478522087e-03 
-6.824305458781e-04 5.038519007458e-04 0.0 
5.038519007458e-04 3.122644429912e-03 0.0 
0.0 0.0 -5.137572693775e-04 
0.0 0.0 0.0 
0.0 0.0 0.0 
0.0 0.0 0.0 
-1.302579274791e-03 3.856077973971e-04 0.0 
3.856077973971e-04 8.474035595977e-03 0.0 
0.0 0.0 -1.261660853087e-03 
-3.055720632183e-04 -1.064577386819e-03 0.0 
-1.064577386819e-03 1.239084830307e-03 0.0 
0.0 0.0 -3.052032381971e-04 
-1.275451108923e-03 4.835577884085e-04 0.0 
4.835577884085e-04 8.123671911160e-03 0.0 
0.0 0.0 -1.282376455277e-03 
-1.145904955508e-03 -3.118374997867e-04 0.0 
-3.118374997867e-04 6.272168097955e-03 0.0 
0.0 0.0 -9.556290573178e-04 
-1.338499280800e-03 2.408371898962e-04 0.0 
2.408371898962e-04 8.775782511843e-03 0.0 
0.0 0.0 -1.338499280800e-03 
-1.192625588921e-03 4.461210467852e-04 0.0 
4.461210467852e-04 7.634783606740e-03 0.0 
0.0 0.0 -1.232909111256e-03 
-2.127254236185e-05 1.891430361426e-04 0.0 
1.891430361426e-04 5.160571140730e-04 0.0 
0.0 0.0 -1.295286970291e-04 
-6.935849542252e-04 2.344127444435e-05 0.0 
2.344127444435e-05 2.990888035910e-03 0.0 
0.0 0.0 -4.777371989943e-04 
-1.295701123542e-03 1.509088819434e-05 0.0 
1.509088819434e-05 8.469943460322e-03 0.0 
0.0 0.0 -1.262626981217e-03 
-1.324502073679e-03 3.744328644392e-04 0.0 
3.744328644392e-04 8.596934185840e-03 0.0 
0.0 0.0 -1.265352048664e-03 
-2.411922616665e-04 1.053006289260e-03 0.0 
1.053006289260e-03 1.157414957781e-03 0.0 
0.0 0.0 -3.599094611647e-04 
-2.769907565586e-04 -8.829481836090e-05 0.0 
-8.829481836090e-05 1.134623594574e-03 0.0 
0.0 0.0 -2.366757893512e-04 
-2.181753936334e-04 1.161392611074e-03 0.0 
1.161392611074e-03 1.149876313961e-03 0.0 
0.0 0.0 -3.564703237892e-04 
-2.758740996359e-04 -8.746279552454e-04 0.0 
-8.746279552454e-04 1.152039496951e-03 0.0 
0.0 0.0 -3.439500825601e-04 
-8.978965614641e-04 9.154439014956e-05 0.0 
9.154439014956e-05 5.029293334098e-03 0.0 
0.0 0.0 -7.918363975426e-04 
-6.733819819602e-04 4.712092501630e-04 0.0 
4.712092501630e-04 3.018715837704e-03 0.0 
0.0 0.0 -4.749402310763e-04 
-6.256408849580e-04 5.270574211380e-04 0.0 
5.270574211380e-04 2.559551606748e-03 0.0 
0.0 0.0 -4.438329512050e-04 
-9.725152992593e-04 -1.918915712341e-04 0.0 
-1.918915712341e-04 5.553894553160e-03 0.0 
0.0 0.0 -8.336771054075e-04 
-9.515395304919e-04 2.688463451821e-04 0.0 
2.688463451821e-04 5.521722972354e-03 0.0 
0.0 0.0 -8.358076868167e-04 
-1.183410575090e-03 -2.693387168119e-04 0.0 
-2.693387168119e-04 6.452199734420e-03 0.0 
0.0 0.0 -9.867109252839e-04 
-1.231001359755e-03 1.776752657648e-04 0.0 
1.776752657648e-04 6.972617785685e-03 0.0 
0.0 0.0 -1.058576829647e-03 
-1.159508113008e-03 2.069980553471e-04 0.0 
2.069980553471e-04 7.153965750682e-03 0.0 
0.0 0.0 -1.085941371602e-03 
-9.167398449037e-04 -2.379223024375e-04 0.0 
-2.379223024375e-04 5.214431434648e-03 0.0 
0.0 0.0 -7.983229688164e-04 
-9.629239381275e-05 -7.847678025284e-05 0.0 
-7.847678025284e-05 3.293444492904e-04 0.0 
0.0 0.0 -9.987945234756e-05 
-9.298280525188e-04 1.832074445445e-04 0.0 
1.832074445445e-04 5.072594773826e-03 0.0 
0.0 0.0 -7.928983479555e-04 
-1.152068192651e-03 -8.618068735251e-05 0.0 
-8.618068735251e-05 7.066072062095e-03 0.0 
0.0 0.0 -1.069439317440e-03 
-1.125567912536e-03 1.438213412546e-04 0.0 
1.438213412546e-04 7.130378012797e-03 0.0 
0.0 0.0 -1.046447409317e-03 
-1.354248964991e-03 2.488047583645e-04 0.0 
2.488047583645e-04 9.041954327214e-03 0.0 
0.0 0.0 -1.319970921405e-03 
-1.236862548615e-03 6.047335938228e-05 0.0 
6.047335938228e-05 8.106142459015e-03 0.0 
0.0 0.0 -1.294194962782e-03 
-9.013588349204e-04 -3.564785080674e-05 0.0 
-3.564785080674e-05 5.032133509131e-03 0.0 
0.0 0.0 -7.889745663688e-04 
-1.254766552398e-03 -3.118115606911e-04 0.0 
-3.118115606911e-04 8.236373731402e-03 0.0 
0.0 0.0 -1.263183913703e-03 
-9.880175404899e-04 -1.466486724576e-04 0.0 
-1.466486724576e-04 5.952185502159e-03 0.0 
0.0 0.0 -9.040008563810e-04 
-6.291314004619e-04 6.895076894316e-04 0.0 
6.895076894316e-04 3.149500208419e-03 0.0 
0.0 0.0 -5.198799001330e-04 
-8.730449846052e-04 -1.408519575968e-04 0.0 
-1.408519575968e-04 5.083535477325e-03 0.0 
0.0 0.0 -7.643292725053e-04 
-1.347992785810e-03 5.931491654167e-05 0.0 
5.931491654167e-05 8.400156878011e-03 0.0 
0.0 0.0 -1.287517816355e-03 
-8.262228282774e-04 1.447902815746e-04 0.0 
1.447902815746e-04 6.297334361413e-03 0.0 
0.0 0.0 -1.043751955586e-03 
-1.104569420112e-03 1.448019849648e-04 0.0 
1.448019849648e-04 7.556047747294e-03 0.0 
0.0 0.0 -1.209599240962e-03 
-4.538367894760e-04 9.757826283503e-04 0.0 
9.757826283503e-04 2.565554738313e-03 0.0 
0.0 0.0 -4.747543016519e-04 
2.029884590449e-04 -8.599336091252e-04 0.0 
-8.599336091252e-04 2.611091082078e-04 0.0 
0.0 0.0 -1.988989573940e-04 
-1.297459135418e-03 -2.747475562559e-04 0.0 
-2.747475562559e-04 7.787009671767e-03 0.0 
0.0 0.0 -1.189902873528e-03 
-1.189086276409e-03 1.093944519264e-04 0.0 
1.093944519264e-04 7.587261230545e-03 0.0 
0.0 0.0 -1.108790581071e-03 
7.624507231963e-05 -2.164748674539e-04 0.0 
-2.164748674539e-04 4.178589710884e-05 0.0 
0.0 0.0 -5.058470118363e-05 
-1.283662232086e-03 -3.116749921630e-04 0.0 
-3.116749921630e-04 8.203749873262e-03 0.0 
0.0 0.0 -1.285127980003e-03 
-1.117454671525e-03 5.890310527375e-04 0.0 
5.890310527375e-04 6.771147145683e-03 0.0 
0.0 0.0 -1.051491716222e-03 
2.129630744421e-04 -9.499020889305e-05 0.0 
-9.499020889305e-05 2.730652041404e-04 0.0 
0.0 0.0 -1.433710470045e-04 
-4.646091997464e-04 1.130911332871e-03 0.0 
1.130911332871e-03 3.315295093012e-03 0.0 
0.0 0.0 -6.309931931857e-04 
-8.659480951891e-04 9.706201231431e-05 0.0 
9.706201231431e-05 4.691930850523e-03 0.0 
0.0 0.0 -7.153918394734e-04 
-8.128195131981e-04 -2.696429011542e-04 0.0 
-2.696429011542e-04 3.582326768313e-03 0.0 
0.0 0.0 -5.772375537024e-04 
-5.795319369569e-04 9.930078575254e-04 0.0 
9.930078575254e-04 2.722691248666e-03 0.0 
0.0 0.0 -4.852398935310e-04 
-5.900753072712e-04 6.920056491215e-04 0.0 
6.920056491215e-04 3.182816884513e-03 0.0 
0.0 0.0 -5.471823052058e-04 
-1.301859315623e-03 -1.904737940513e-04 0.0 
-1.904737940513e-04 8.142812636608e-03 0.0 
0.0 0.0 -1.283833066805e-03 
-9.523212659311e-04 1.958273368285e-04 0.0 
1.958273368285e-04 5.865970295395e-03 0.0 
0.0 0.0 -8.766975940251e-04 
-5.541698138184e-04 1.190551615049e-03 0.0 
1.190551615049e-03 2.836925707114e-03 0.0 
0.0 0.0 -5.122473358773e-04 
-4.084206622420e-04 -7.278847424947e-04 0.0 
-7.278847424947e-04 1.354708172608e-03 0.0 
0.0 0.0 -2.295267891405e-04 
-9.046551402062e-04 3.103540058347e-04 0.0 
3.103540058347e-04 5.221480629983e-03 0.0 
0.0 0.0 -7.744920945421e-04 
-1.163420538902e-03 -6.301653344554e-05 0.0 
-6.301653344554e-05 7.412623996309e-03 0.0 
0.0 0.0 -1.129288753466e-03 
-5.271843801054e-04 7.884919210617e-04 0.0 
7.884919210617e-04 2.864417005275e-03 0.0 
0.0 0.0 -5.109724225979e-04 
5.534592465795e-05 9.039028363928e-04 0.0 
9.039028363928e-04 4.831251439840e-04 0.0 
0.0 0.0 -2.307733151323e-04 
-8.073832098114e-04 1.503125105248e-04 0.0 
1.503125105248e-04 4.217521397372e-03 0.0 
0.0 0.0 -6.470401313398e-04 
-8.043937078593e-04 -1.245165173277e-04 0.0 
-1.245165173277e-04 3.751204721582e-03 0.0 
0.0 0.0 -5.578851714504e-04 
-7.622885537649e-04 4.316670476422e-04 0.0 
4.316670476422e-04 3.890857300125e-03 0.0 
0.0 0.0 -6.167189930163e-04 
-1.313795093192e-03 3.745855682538e-04 0.0 
3.745855682538e-04 8.614675897131e-03 0.0 
0.0 0.0 -1.290671971449e-03 
1.991130479106e-04 9.381873505590e-04 0.0 
9.381873505590e-04 3.095528624407e-04 0.0 
0.0 0.0 -2.179996758648e-04 
-1.118912346163e-03 3.069253467211e-05 0.0 
3.069253467211e-05 5.953637467028e-03 0.0 
0.0 0.0 -9.216843799351e-04 
-1.302832962065e-03 2.769223245220e-04 0.0 
2.769223245220e-04 8.470819943817e-03 0.0 
0.0 0.0 -1.256690274141e-03 
-7.596340248727e-04 7.382796594352e-04 0.0 
7.382796594352e-04 4.031537584483e-03 0.0 
0.0 0.0 -6.588732905211e-04 
-7.779772953584e-04 1.836806670251e-04 0.0 
1.836806670251e-04 3.983301519145e-03 0.0 
0.0 0.0 -6.139229799761e-04 
-1.231803605678e-03 -5.782093166128e-05 0.0 
-5.782093166128e-05 8.028152931577e-03 0.0 
0.0 0.0 -1.254964138299e-03 
-1.328106245368e-03 -3.359343714767e-04 0.0 
-3.359343714767e-04 8.269862829300e-03 0.0 
0.0 0.0 -1.261070974318e-03 
-1.177616370787e-03 5.503788424212e-05 0.0 
5.503788424212e-05 6.447345049328e-03 0.0 
0.0 0.0 -9.873713238705e-04 
-7.975389004980e-04 3.851368616877e-04 0.0 
3.851368616877e-04 4.370903509068e-03 0.0 
0.0 0.0 -6.916138708610e-04 
-1.195768822005e-03 -1.347190958518e-04 0.0 
-1.347190958518e-04 8.136693957771e-03 0.0 
0.0 0.0 -1.270330610962e-03 
-7.600104695776e-04 6.621541633523e-04 0.0 
6.621541633523e-04 3.915062890853e-03 0.0 
0.0 0.0 -6.326048069937e-04 
-1.276977184880e-03 1.361446544635e-04 0.0 
1.361446544635e-04 8.444479482518e-03 0.0 
0.0 0.0 -1.283174495648e-03 
-1.281656246909e-03 5.918270400850e-04 0.0 
5.918270400850e-04 8.394460336114e-03 0.0 
0.0 0.0 -1.267437373369e-03 
-9.916900482218e-04 -1.353869196216e-04 0.0 
-1.353869196216e-04 5.594925371490e-03 0.0 
0.0 0.0 -8.543707170918e-04 
-1.059679930627e-03 2.378363673836e-04 0.0 
2.378363673836e-04 6.573353481791e-03 0.0 
0.0 0.0 -9.817831382938e-04 
-7.605699351815e-04 3.748556655775e-04 0.0 
3.748556655775e-04 3.967103975153e-03 0.0 
0.0 0.0 -6.293189184696e-04 
-7.420000060583e-04 4.704307559795e-04 0.0 
4.704307559795e-04 3.646692949105e-03 0.0 
0.0 0.0 -5.830241378053e-04 
-8.001161774359e-04 7.418992546282e-04 0.0 
7.418992546282e-04 4.429271101410e-03 0.0 
0.0 0.0 -7.211932326589e-04 
-4.509036314279e-04 9.161005774141e-04 0.0 
9.161005774141e-04 2.969896787124e-03 0.0 
0.0 0.0 -5.383041810906e-04 
-8.768683131663e-04 -1.698577199285e-04 0.0 
-1.698577199285e-04 5.218733852389e-03 0.0 
0.0 0.0 -7.693993191400e-04 
-3.984078038155e-04 7.031353492297e-04 0.0 
7.031353492297e-04 3.390130310364e-03 0.0 
0.0 0.0 -6.275039421266e-04 
-8.830553488541e-05 -1.169663280731e-04 0.0 
-1.169663280731e-04 3.137961635653e-04 0.0 
0.0 0.0 -9.663884086279e-05 
-9.202478516251e-04 -5.770930012148e-06 0.0 
-5.770930012148e-06 5.620779502953e-03 0.0 
0.0 0.0 -8.171079392438e-04 
-3.114395398576e-04 -3.263303537109e-05 0.0 
-3.263303537109e-05 1.213615237241e-03 0.0 
0.0 0.0 -2.373169254524e-04 
-8.400103073364e-04 1.183268532165e-04 0.0 
1.183268532165e-04 4.465364634510e-03 0.0 
0.0 0.0 -6.809683978454e-04 
-1.226720591274e-03 -2.033245432446e-04 0.0 
-2.033245432446e-04 7.901279716244e-03 0.0 
0.0 0.0 -1.284796145094e-03 
-5.032521871548e-04 1.323397128945e-03 0.0 
1.323397128945e-03 2.524146629484e-03 0.0 
0.0 0.0 -4.767992880414e-04 
-1.206015416419e-03 1.351161918146e-04 0.0 
1.351161918146e-04 6.706761080456e-03 0.0 
0.0 0.0 -1.021089721936e-03 
-5.854397783758e-04 6.900577011398e-04 0.0 
6.900577011398e-04 2.034319527358e-03 0.0 
0.0 0.0 -3.540742325023e-04 
-8.487428613626e-04 6.354315705334e-04 0.0 
6.354315705334e-04 6.259047629254e-03 0.0 
0.0 0.0 -1.044905595188e-03 
-9.023795236384e-04 1.774952439286e-05 0.0 
1.774952439286e-05 5.056579998417e-03 0.0 
0.0 0.0 -7.899655494116e-04 
-3.675306969511e-04 1.198984270489e-03 0.0 
1.198984270489e-03 2.958001668599e-03 0.0 
0.0 0.0 -5.931463391684e-04 
-1.266256333575e-03 -2.932543747909e-04 0.0 
-2.932543747909e-04 7.348938270472e-03 0.0 
0.0 0.0 -1.120963572432e-03 
-3.905834582402e-04 -4.908595614848e-04 0.0 
-4.908595614848e-04 1.232002034576e-03 0.0 
0.0 0.0 -2.722262904030e-04 
-1.289444217002e-03 1.239965470747e-04 0.0 
1.239965470747e-04 7.777003841897e-03 0.0 
0.0 0.0 -1.189111243166e-03 
-9.083262515729e-04 4.866804809917e-04 0.0 
4.866804809917e-04 4.963586243701e-03 0.0 
0.0 0.0 -7.711223959738e-04 
-1.340203078278e-03 -2.129693675799e-04 0.0 
-2.129693675799e-04 8.439560912258e-03 0.0 
0.0 0.0 -1.265987209193e-03 
-8.868772565119e-04 2.877464608834e-05 0.0 
2.877464608834e-05 5.056912107765e-03 0.0 
0.0 0.0 -7.842605076999e-04 
-4.245977401382e-04 1.301715382003e-03 0.0 
1.301715382003e-03 2.484999694538e-03 0.0 
0.0 0.0 -5.042822341261e-04 
-8.141088315077e-04 3.778227072886e-04 0.0 
3.778227072886e-04 4.370548075301e-03 0.0 
0.0 0.0 -6.840799553763e-04 
-1.128956121950e-03 -1.816355743224e-04 0.0 
-1.816355743224e-04 5.879621026637e-03 0.0 
0.0 0.0 -8.722824885218e-04 
-5.657686865338e-04 1.006813399921e-03 0.0 
1.006813399921e-03 2.114854539436e-03 0.0 
0.0 0.0 -3.514598124168e-04 
-2.840077947560e-04 7.374002385130e-04 0.0 
7.374002385130e-04 3.016923521918e-03 0.0 
0.0 0.0 -5.911455407098e-04 
-1.107826402130e-03 -1.895219266089e-04 0.0 
-1.895219266089e-04 6.838398808500e-03 0.0 
0.0 0.0 -1.016465148841e-03 
-8.846022414820e-04 1.673369808483e-04 0.0 
1.673369808483e-04 5.274165376609e-03 0.0 
0.0 0.0 -7.680022369673e-04 
-4.363801896578e-04 1.202422263910e-03 0.0 
1.202422263910e-03 2.876866297868e-03 0.0 
0.0 0.0 -5.666226778950e-04 
-8.017363352442e-04 3.924823248397e-04 0.0 
3.924823248397e-04 4.130177357856e-03 0.0 
0.0 0.0 -6.498546761489e-04 
-1.141214369151e-03 6.765310758862e-04 0.0 
6.765310758862e-04 7.271411604946e-03 0.0 
0.0 0.0 -1.136725521675e-03 
-8.548535662047e-04 -2.781485263044e-04 0.0 
-2.781485263044e-04 4.164865359686e-03 0.0 
0.0 0.0 -6.189190723244e-04 
-1.237707508229e-03 4.856674807990e-04 0.0 
4.856674807990e-04 7.956457412847e-03 0.0 
0.0 0.0 -1.285202198870e-03 
-1.271584492805e-03 4.859423083683e-04 0.0 
4.859423083683e-04 8.362652585957e-03 0.0 
0.0 0.0 -1.265486236287e-03 
-6.208228587870e-04 6.861521722427e-04 0.0 
6.861521722427e-04 2.794482215749e-03 0.0 
0.0 0.0 -4.595713030950e-04 
-8.601834141272e-04 -1.130024456241e-04 0.0 
-1.130024456241e-04 3.988529893684e-03 0.0 
0.0 0.0 -6.385407451345e-04 
-9.728705791535e-04 -2.427476520657e-04 0.0 
-2.427476520657e-04 7.014843591236e-03 0.0 
0.0 0.0 -1.152822474774e-03 
-7.582637832037e-04 3.173029778375e-04 0.0 
3.173029778375e-04 3.850177976745e-03 0.0 
0.0 0.0 -6.037256927378e-04 
-5.932602371824e-04 9.450171731982e-04 0.0 
9.450171731982e-04 2.345539596427e-03 0.0 
0.0 0.0 -4.251746348339e-04 
-8.883854653183e-04 4.319931064094e-04 0.0 
4.319931064094e-04 4.807571306798e-03 0.0 
0.0 0.0 -7.443430781256e-04 
-4.655628622191e-04 8.097546048135e-04 0.0 
8.097546048135e-04 3.367415080588e-03 0.0 
0.0 0.0 -6.011186688906e-04 
-1.309467600587e-03 2.274324864678e-04 0.0 
2.274324864678e-04 8.467271508597e-03 0.0 
0.0 0.0 -1.279059907835e-03 
-1.139712663312e-03 5.524271265546e-04 0.0 
5.524271265546e-04 6.895093066062e-03 0.0 
0.0 0.0 -1.060691896764e-03 
-1.282894195515e-03 1.713163621167e-04 0.0 
1.713163621167e-04 7.580646218946e-03 0.0 
0.0 0.0 -1.155968210243e-03 
-4.263760736077e-04 9.726189065638e-04 0.0 
9.726189065638e-04 1.483303861492e-03 0.0 
0.0 0.0 -3.328149423972e-04 
-1.567783780417e-04 7.459959337790e-04 0.0 
7.459959337790e-04 2.633807870816e-03 0.0 
0.0 0.0 -5.558335581882e-04 
-1.150277857659e-03 5.855176210150e-04 0.0 
5.855176210150e-04 7.056066340815e-03 0.0 
0.0 0.0 -1.089453766084e-03 
0.0 0.0 0.0 
0.0 0.0 0.0 
0.0 0.0 0.0 
-7.560981228119e-04 5.568058696449e-04 0.0 
5.568058696449e-04 3.796632807166e-03 0.0 
0.0 0.0 -6.073871274648e-04 
-8.851342185419e-04 -4.312210323728e-04 0.0 
-4.312210323728e-04 6.519433320506e-03 0.0 
0.0 0.0 -1.080675545910e-03 
-1.164869828715e-04 -1.456841600207e-04 0.0 
-1.456841600207e-04 9.923335266216e-04 0.0 
0.0 0.0 -1.605608400042e-04 
-1.274326596506e-03 6.277067703956e-04 0.0 
6.277067703956e-04 8.332587857653e-03 0.0 
0.0 0.0 -1.257517519450e-03 
-1.082557255636e-03 4.467183423513e-04 0.0 
4.467183423513e-04 6.398503814141e-03 0.0 
0.0 0.0 -9.749624431058e-04 
-5.927975267284e-04 -7.287134833264e-04 0.0 
-7.287134833264e-04 3.408230795765e-03 0.0 
0.0 0.0 -5.995223474422e-04 
-8.718953006962e-04 8.285847793953e-05 0.0 
8.285847793953e-05 6.481498684251e-03 0.0 
0.0 0.0 -1.082135573042e-03 
-9.644421873602e-04 1.848918456793e-04 0.0 
1.848918456793e-04 5.622214910538e-03 0.0 
0.0 0.0 -8.259898420369e-04 
-9.976541713563e-04 8.643209894894e-06 0.0 
8.643209894894e-06 5.944166007327e-03 0.0 
0.0 0.0 -8.838609275114e-04 
-1.149666595734e-03 -3.245227479459e-04 0.0 
-3.245227479459e-04 7.662117469895e-03 0.0 
0.0 0.0 -1.237791025003e-03 
-6.377976835771e-04 -6.114567573414e-04 0.0 
-6.114567573414e-04 2.689173763955e-03 0.0 
0.0 0.0 -4.583583101839e-04 
-7.880409547895e-04 7.989113980148e-04 0.0 
7.989113980148e-04 4.542855302031e-03 0.0 
0.0 0.0 -7.480401524272e-04 
-9.214234162491e-04 5.351887786335e-04 0.0 
5.351887786335e-04 5.111262659093e-03 0.0 
0.0 0.0 -7.988399675000e-04 
-1.125534786672e-03 7.028976634264e-05 0.0 
7.028976634264e-05 6.721724443554e-03 0.0 
0.0 0.0 -1.008548823165e-03 
-9.505406595461e-04 1.355801735478e-04 0.0 
1.355801735478e-04 5.273089753614e-03 0.0 
0.0 0.0 -8.035999206669e-04 
-8.920793708860e-04 1.354006487991e-04 0.0 
1.354006487991e-04 4.845817227354e-03 0.0 
0.0 0.0 -7.415510827328e-04 
-6.524274381720e-04 1.661117945530e-04 0.0 
1.661117945530e-04 5.489508378744e-03 0.0 
0.0 0.0 -9.414312740916e-04 
-1.133549865804e-03 2.632851943964e-04 0.0 
2.632851943964e-04 7.143578184647e-03 0.0 
0.0 0.0 -1.105110859848e-03 
0.0 0.0 0.0 
0.0 0.0 0.0 
0.0 0.0 0.0 
-5.963424256803e-04 8.235655420392e-04 0.0 
8.235655420392e-04 2.727118741511e-03 0.0 
0.0 0.0 -4.649757541953e-04 
-6.413935052421e-04 9.083237096948e-04 0.0 
9.083237096948e-04 3.060885376631e-03 0.0 
0.0 0.0 -5.249394872960e-04 
-7.860598654059e-04 4.409893248632e-04 0.0 
4.409893248632e-04 4.491993588337e-03 0.0 
0.0 0.0 -7.181710532390e-04 
-1.182550884137e-03 1.586567680609e-04 0.0 
1.586567680609e-04 7.254490089636e-03 0.0 
0.0 0.0 -1.095076276885e-03 
4.583279132942e-04 6.488863092727e-04 0.0 
6.488863092727e-04 -1.405418918228e-05 0.0 
0.0 0.0 -1.904030246194e-04 
-8.562318666799e-04 -4.982168400307e-04 0.0 
-4.982168400307e-04 6.277290697447e-03 0.0 
0.0 0.0 -1.043355442177e-03 
-8.774345447710e-04 -2.186708792855e-04 0.0 
-2.186708792855e-04 5.055368522856e-03 0.0 
0.0 0.0 -7.763349569542e-04 
-2.555112241128e-04 1.229664321452e-03 0.0 
1.229664321452e-03 2.574406854457e-03 0.0 
0.0 0.0 -5.576783925304e-04 
-8.394427967850e-04 -5.648718734432e-04 0.0 
-5.648718734432e-04 6.055308780542e-03 0.0 
0.0 0.0 -1.006238978475e-03 
-7.021339785738e-05 -2.257880490566e-04 0.0 
-2.257880490566e-04 5.234298020475e-04 0.0 
0.0 0.0 -1.250635456846e-04 
-1.135452312747e-03 4.797857508759e-04 0.0 
4.797857508759e-04 6.834881249119e-03 0.0 
0.0 0.0 -1.040010908530e-03 
8.624072222387e-05 -5.482403482058e-05 0.0 
-5.482403482058e-05 4.623552898900e-04 0.0 
0.0 0.0 -1.166360257537e-04 
-1.840491842350e-04 -5.445744923588e-05 0.0 
-5.445744923588e-05 7.493422687288e-04 0.0 
0.0 0.0 -1.819418517600e-04 
-3.913654307844e-04 1.191507394513e-03 0.0 
1.191507394513e-03 1.470311877001e-03 0.0 
0.0 0.0 -3.246947309473e-04 
-6.091026736672e-04 -6.117663185554e-04 0.0 
-6.117663185554e-04 2.275310364661e-03 0.0 
0.0 0.0 -3.935955730116e-04 
-1.177121720242e-03 9.986808741325e-05 0.0 
9.986808741325e-05 7.155425965963e-03 0.0 
0.0 0.0 -1.073797489760e-03 
-5.625078577902e-04 -9.911531115061e-04 0.0 
-9.911531115061e-04 2.166295973773e-03 0.0 
0.0 0.0 -3.637595386041e-04 
-2.431075708166e-04 1.562437016590e-03 0.0 
1.562437016590e-03 1.376800568989e-03 0.0 
0.0 0.0 -3.890718233399e-04 
1.128852675938e-04 -1.510947419960e-03 0.0 
-1.510947419960e-03 7.754974600039e-04 0.0 
0.0 0.0 -3.807354546848e-04 
-5.007957256990e-04 -4.054148446658e-04 0.0 
-4.054148446658e-04 1.463133010542e-03 0.0 
0.0 0.0 -2.670040094673e-04 
-9.159310068133e-04 1.166570594862e-04 0.0 
1.166570594862e-04 6.711157580750e-03 0.0 
0.0 0.0 -1.117524173959e-03 
-9.108885203266e-04 1.625635707661e-04 0.0 
1.625635707661e-04 5.002433540525e-03 0.0 
0.0 0.0 -7.687972329812e-04 
-1.323980336649e-03 7.113171737239e-05 0.0 
7.113171737239e-05 8.245489008711e-03 0.0 
0.0 0.0 -1.256743614961e-03 
0.0 0.0 0.0 
0.0 0.0 0.0 
0.0 0.0 0.0 
-3.330839468946e-04 1.604359709376e-03 0.0 
1.604359709376e-03 1.727019779997e-03 0.0 
0.0 0.0 -4.044045206172e-04 
-3.067142002033e-04 1.081368075103e-03 0.0 
1.081368075103e-03 3.044773964149e-03 0.0 
0.0 0.0 -6.230907113744e-04 
-7.160262700323e-04 6.408733665596e-04 0.0 
6.408733665596e-04 3.506266837881e-03 0.0 
0.0 0.0 -5.709397776106e-04 
-8.360378415299e-04 -1.180231066696e-05 0.0 
-1.180231066696e-05 6.234265106431e-03 0.0 
0.0 0.0 -1.045235091131e-03 
-1.333473067012e-03 -5.395820062031e-05 0.0 
-5.395820062031e-05 8.405361436706e-03 0.0 
0.0 0.0 -1.275930989368e-03 
-1.131889764436e-03 1.436010865761e-04 0.0 
1.436010865761e-04 6.812686989612e-03 0.0 
0.0 0.0 -1.029499106509e-03 
5.269662907404e-05 8.913991735483e-04 0.0 
8.913991735483e-04 1.741226620489e-03 0.0 
0.0 0.0 -4.564841486881e-04 
-9.276981546427e-04 -3.123244619600e-04 0.0 
-3.123244619600e-04 6.731635440410e-03 0.0 
0.0 0.0 -1.116166892424e-03 
-1.162987388940e-03 1.784362897977e-04 0.0 
1.784362897977e-04 6.231822734238e-03 0.0 
0.0 0.0 -9.512440159151e-04 
-8.362061665926e-04 3.771233097708e-04 0.0 
3.771233097708e-04 4.773003845214e-03 0.0 
0.0 0.0 -7.537083776970e-04 
-1.102280810414e-03 4.919717221224e-04 0.0 
4.919717221224e-04 6.560511914991e-03 0.0 
0.0 0.0 -1.003200534345e-03 
-1.172867451038e-03 2.356902410022e-04 0.0 
2.356902410022e-04 7.744999640819e-03 0.0 
0.0 0.0 -1.239730878702e-03 
-2.254924367538e-04 5.849015682570e-04 0.0 
5.849015682570e-04 3.115409937203e-03 0.0 
0.0 0.0 -6.206208101913e-04 
-3.928189268474e-04 1.275344444358e-03 0.0 
1.275344444358e-03 1.843263560049e-03 0.0 
0.0 0.0 -3.752687577596e-04 
-9.992253787165e-04 1.463025209614e-04 0.0 
1.463025209614e-04 5.687199852232e-03 0.0 
0.0 0.0 -8.662621843288e-04 
-1.349788229223e-03 3.426545086550e-04 0.0 
3.426545086550e-04 9.036920857709e-03 0.0 
0.0 0.0 -1.323568725688e-03 
-7.650406542385e-04 4.751592665984e-04 0.0 
4.751592665984e-04 4.601158149833e-03 0.0 
0.0 0.0 -7.453270327204e-04 
-3.775537039009e-04 2.220958575008e-04 0.0 
2.220958575008e-04 4.208109464666e-03 0.0 
0.0 0.0 -7.768443034385e-04 
-9.417507759690e-04 -3.219991258082e-05 0.0 
-3.219991258082e-05 5.716819141930e-03 0.0 
0.0 0.0 -8.293613651800e-04 
-1.509886751970e-04 -1.135282332652e-03 0.0 
-1.135282332652e-03 1.017427284165e-03 0.0 
0.0 0.0 -3.579782397794e-04 
-9.508294649731e-04 4.627212186017e-04 0.0 
4.627212186017e-04 5.212868888400e-03 0.0 
0.0 0.0 -8.060563724883e-04 
-7.773528700208e-05 1.427065922566e-03 0.0 
1.427065922566e-03 1.665502982993e-03 0.0 
0.0 0.0 -4.590591740919e-04 
3.797527258111e-04 1.020114754415e-03 0.0 
1.020114754415e-03 1.842831286956e-04 0.0 
0.0 0.0 -2.417296519314e-04 
4.052395816326e-04 -6.135338758200e-04 0.0 
-6.135338758200e-04 -1.137161459368e-06 0.0 
0.0 0.0 -1.731867515028e-04 
-1.167546277040e-03 4.626490460642e-04 0.0 
4.626490460642e-04 7.101376568989e-03 0.0 
0.0 0.0 -1.075985979751e-03 
-9.623797546726e-04 1.845333678616e-04 0.0 
1.845333678616e-04 5.429528329259e-03 0.0 
0.0 0.0 -8.312490730234e-04 
-5.046075129470e-04 1.194499845990e-03 0.0 
1.194499845990e-03 2.882799900291e-03 0.0 
0.0 0.0 -5.429493831729e-04 
-1.206327788760e-03 8.269099761283e-05 0.0 
8.269099761283e-05 7.415962584707e-03 0.0 
0.0 0.0 -1.109763131677e-03 
-1.142751356386e-03 1.744200963682e-04 0.0 
1.744200963682e-04 6.974478761757e-03 0.0 
0.0 0.0 -1.057773507355e-03 
-8.833943353455e-04 3.220642776102e-04 0.0 
3.220642776102e-04 5.046401869676e-03 0.0 
0.0 0.0 -7.887050335656e-04 
-1.278006429871e-03 -2.029556331096e-04 0.0 
-2.029556331096e-04 8.153709597249e-03 0.0 
0.0 0.0 -1.288412101370e-03 
-4.271610777015e-04 5.562024212731e-04 0.0 
5.562024212731e-04 4.316314637617e-03 0.0 
0.0 0.0 -8.078958932737e-04 
-9.266589239438e-04 2.700924202998e-04 0.0 
2.700924202998e-04 5.312918686649e-03 0.0 
0.0 0.0 -8.238265297874e-04 
-4.963470151794e-04 6.905692722870e-04 0.0 
6.905692722870e-04 3.767490595173e-03 0.0 
0.0 0.0 -6.656476441012e-04 
-4.749686160319e-04 1.532444199585e-04 0.0 
1.532444199585e-04 4.696915836540e-03 0.0 
0.0 0.0 -8.413031780454e-04 
2.625503227397e-04 1.238828002540e-03 0.0 
1.238828002540e-03 6.651443892644e-04 0.0 
0.0 0.0 -3.865807678710e-04 
-9.465847814334e-04 1.767858078852e-04 0.0 
1.767858078852e-04 5.036126749418e-03 0.0 
0.0 0.0 -7.898058234521e-04 
-1.895610884557e-04 4.026718807994e-04 0.0 
4.026718807994e-04 3.226201886936e-03 0.0 
0.0 0.0 -6.486359607860e-04 
1.616252847495e-04 -9.427764674384e-04 0.0 
-9.427764674384e-04 1.519153345857e-03 0.0 
0.0 0.0 -4.681053320140e-04 
-1.124321372716e-03 5.190781523116e-04 0.0 
5.190781523116e-04 6.737556221388e-03 0.0 
0.0 0.0 -1.032318248600e-03 
0.0 0.0 0.0 
0.0 0.0 0.0 
0.0 0.0 0.0 
-9.848011893069e-04 9.254887770331e-05 0.0 
9.254887770331e-05 5.522315715833e-03 0.0 
0.0 0.0 -8.386390795737e-04 
1.936986156422e-05 1.160151507078e-03 0.0 
1.160151507078e-03 1.716486351178e-03 0.0 
0.0 0.0 -4.870240021111e-04 
-2.325836748457e-04 1.289855956993e-03 0.0 
1.289855956993e-03 1.788704446122e-03 0.0 
0.0 0.0 -4.015254440178e-04 
4.595658441768e-04 4.744943126908e-04 0.0 
4.744943126908e-04 7.528832652437e-04 0.0 
0.0 0.0 -4.054414645912e-04 
-1.008402327414e-03 5.265744671369e-04 0.0 
5.265744671369e-04 5.786538932645e-03 0.0 
0.0 0.0 -8.965110541436e-04 
-2.494216096235e-04 -4.335362183750e-04 0.0 
-4.335362183750e-04 9.422411490062e-04 0.0 
0.0 0.0 -1.609926926485e-04 
-6.820720035477e-04 8.119732659470e-04 0.0 
8.119732659470e-04 3.361151585438e-03 0.0 
0.0 0.0 -5.613503766092e-04 
-5.249648680804e-04 4.982973278599e-04 0.0 
4.982973278599e-04 4.821038106347e-03 0.0 
0.0 0.0 -8.726802719924e-04 
-9.620382926610e-04 5.073054538474e-04 0.0 
5.073054538474e-04 5.367475776694e-03 0.0 
0.0 0.0 -8.336838631977e-04 
-9.866522304222e-04 1.405170818081e-04 0.0 
1.405170818081e-04 5.654603971252e-03 0.0 
0.0 0.0 -8.301023967811e-04 
2.987392461190e-04 2.567812312072e-04 0.0 
2.567812312072e-04 -6.027321301994e-05 0.0 
0.0 0.0 -1.021997284710e-04 
2.232246709604e-04 -1.918559463565e-04 0.0 
-1.918559463565e-04 1.424673883171e-03 0.0 
0.0 0.0 -4.706942212664e-04 
9.862482380878e-05 -1.372550038116e-03 0.0 
-1.372550038116e-03 1.318021718147e-03 0.0 
0.0 0.0 -4.311372127493e-04 
-6.563785485795e-04 5.486582363547e-04 0.0 
5.486582363547e-04 3.058796699974e-03 0.0 
0.0 0.0 -4.957039317942e-04 
-1.115649045089e-03 1.001564757614e-04 0.0 
1.001564757614e-04 6.632881085886e-03 0.0 
0.0 0.0 -1.000663671924e-03 
-6.796028561542e-04 5.568827768722e-04 0.0 
5.568827768722e-04 3.430251503350e-03 0.0 
0.0 0.0 -5.577786207633e-04 
-1.458115086374e-04 8.292196236090e-04 0.0 
8.292196236090e-04 2.768893991105e-03 0.0 
0.0 0.0 -6.151539951222e-04 
-1.886011553539e-04 1.051832417911e-03 0.0 
1.051832417911e-03 2.651380485181e-03 0.0 
0.0 0.0 -5.868308051845e-04 
4.119056616429e-04 4.824818133927e-04 0.0 
4.824818133927e-04 -5.163543584123e-05 0.0 
0.0 0.0 -1.544015253436e-04 
-5.103402652263e-04 1.016313603146e-03 0.0 
1.016313603146e-03 3.773155867782e-03 0.0 
0.0 0.0 -6.959382511914e-04 
-1.626884107157e-04 1.342060582958e-03 0.0 
1.342060582958e-03 1.124683386977e-03 0.0 
0.0 0.0 -3.635305771564e-04 
-1.332783064049e-03 3.949756871870e-04 0.0 
3.949756871870e-04 8.970989248616e-03 0.0 
0.0 0.0 -1.321446319728e-03 
-1.363423366848e-03 4.246461146743e-04 0.0 
4.246461146743e-04 8.919856195938e-03 0.0 
0.0 0.0 -1.318029376683e-03 
-7.707229978672e-04 8.349277957258e-04 0.0 
8.349277957258e-04 4.657152987880e-03 0.0 
0.0 0.0 -7.755312068111e-04 
8.477148352467e-05 1.389041319869e-03 0.0 
1.389041319869e-03 1.180405502280e-03 0.0 
0.0 0.0 -4.232985079168e-04 
-7.785189424599e-05 1.403831464932e-03 0.0 
1.403831464932e-03 1.344103223027e-03 0.0 
0.0 0.0 -3.659709354871e-04 
-9.354111606034e-04 6.403030867596e-04 0.0 
6.403030867596e-04 5.396292848320e-03 0.0 
0.0 0.0 -8.539191708180e-04 
9.999732188838e-05 1.139160073047e-03 0.0 
1.139160073047e-03 1.275333839354e-03 0.0 
0.0 0.0 -3.930530440640e-04 
2.202450365264e-04 -6.175447713642e-04 0.0 
-6.175447713642e-04 1.218766433543e-03 0.0 
0.0 0.0 -4.339875075689e-04 
-8.457389435740e-04 6.790973874792e-04 0.0 
6.790973874792e-04 4.708791579724e-03 0.0 
0.0 0.0 -7.563811545761e-04 
-1.327783261122e-03 1.214241298840e-04 0.0 
1.214241298840e-04 8.708921592335e-03 0.0 
0.0 0.0 -1.266640259566e-03 
-1.253349979010e-04 1.227176291700e-03 0.0 
1.227176291700e-03 2.155279357023e-03 0.0 
0.0 0.0 -5.226246958029e-04 
-6.857827131982e-04 6.109821481705e-04 0.0 
6.109821481705e-04 5.443563599872e-03 0.0 
0.0 0.0 -9.428115367422e-04 
1.005352414743e-05 1.485881480078e-03 0.0 
1.485881480078e-03 9.313511271754e-04 0.0 
0.0 0.0 -4.034591362812e-04 
-1.256876494634e-03 -1.116338181287e-04 0.0 
-1.116338181287e-04 8.512233064138e-03 0.0 
0.0 0.0 -1.322863172658e-03 
-5.368107279651e-05 1.667223674442e-03 0.0 
1.667223674442e-03 1.192784921883e-03 0.0 
0.0 0.0 -3.959736908235e-04 
-8.401524306230e-04 7.380205594863e-04 0.0 
7.380205594863e-04 4.834030021030e-03 0.0 
0.0 0.0 -7.835188407615e-04 
5.148731166168e-04 5.137437753511e-04 0.0 
5.137437753511e-04 -7.966675073374e-05 0.0 
0.0 0.0 -1.865170139499e-04 
-5.892765440231e-04 4.534415622219e-05 0.0 
4.534415622219e-05 5.187712345136e-03 0.0 
0.0 0.0 -9.211625808215e-04 
-2.619705547916e-04 9.063726296434e-04 0.0 
9.063726296434e-04 3.144147236726e-03 0.0 
0.0 0.0 -6.516619296807e-04 
5.136778266446e-05 -8.544458010471e-04 0.0 
-8.544458010471e-04 1.672478035934e-03 0.0 
0.0 0.0 -4.625367401933e-04 
-9.230469363571e-04 2.192959829449e-04 0.0 
2.192959829449e-04 5.165828729947e-03 0.0 
0.0 0.0 -7.963903837170e-04 
-1.338316942917e-03 5.052217518095e-04 0.0 
5.052217518095e-04 8.833234944730e-03 0.0 
0.0 0.0 -1.324865334549e-03 
-6.025361920259e-05 9.743864967892e-04 0.0 
9.743864967892e-04 2.246037318888e-03 0.0 
0.0 0.0 -5.510338386786e-04 
-4.966114613551e-04 2.324572275960e-05 0.0 
2.324572275960e-05 4.887340644677e-03 0.0 
0.0 0.0 -8.703234504572e-04 
-4.984372673971e-05 1.535578283139e-03 0.0 
1.535578283139e-03 1.001433575544e-03 0.0 
0.0 0.0 -3.453408408593e-04 
-1.068497402403e-03 3.485541216510e-04 0.0 
3.485541216510e-04 6.344714792472e-03 0.0 
0.0 0.0 -9.576894438039e-04 
-8.089599515326e-04 -1.073379708431e-04 0.0 
-1.073379708431e-04 5.996798576901e-03 0.0 
0.0 0.0 -1.008345180213e-03 
-4.736853950805e-04 1.081684251561e-03 0.0 
1.081684251561e-03 2.201297944192e-03 0.0 
0.0 0.0 -4.109515902261e-04 
-1.055848474588e-03 -6.244673246336e-05 0.0 
-6.244673246336e-05 6.209225770776e-03 0.0 
0.0 0.0 -9.257128893455e-04 
-1.318413144677e-03 5.597520288916e-04 0.0 
5.597520288916e-04 8.736177841961e-03 0.0 
0.0 0.0 -1.322580803729e-03 
-9.099621181087e-04 -7.844937670166e-05 0.0 
-7.844937670166e-05 6.486423483438e-03 0.0 
0.0 0.0 -1.075861678316e-03 
-1.339852007458e-03 4.885566376854e-04 0.0 
4.885566376854e-04 8.877779505668e-03 0.0 
0.0 0.0 -1.322091174222e-03 
-1.037601774292e-03 -4.998348071014e-05 0.0 
-4.998348071014e-05 6.134914618430e-03 0.0 
0.0 0.0 -9.196498359204e-04 
-1.117033596766e-03 2.433107206605e-04 0.0 
2.433107206605e-04 6.851288038562e-03 0.0 
0.0 0.0 -1.048263655743e-03 
-5.132028134043e-04 1.102114687126e-03 0.0 
1.102114687126e-03 1.849180492075e-03 0.0 
0.0 0.0 -3.491910591611e-04 
-8.752311967057e-04 2.096761775609e-04 0.0 
2.096761775609e-04 4.753971328354e-03 0.0 
0.0 0.0 -7.343713905235e-04 
-9.300305532746e-04 5.926935085268e-04 0.0 
5.926935085268e-04 5.253991145748e-03 0.0 
0.0 0.0 -8.263924940540e-04 
-9.692706598054e-04 2.261418497641e-04 0.0 
2.261418497641e-04 5.579447270465e-03 0.0 
0.0 0.0 -8.589723558544e-04 
-7.013973697775e-04 5.476600750058e-04 0.0 
5.476600750058e-04 4.307373761106e-03 0.0 
0.0 0.0 -7.101745248689e-04 
-1.306990612628e-03 5.041978193775e-04 0.0 
5.041978193775e-04 8.672501482610e-03 0.0 
0.0 0.0 -1.322334986692e-03 
-9.943643695485e-04 3.416073873728e-04 0.0 
3.416073873728e-04 5.867113055505e-03 0.0 
0.0 0.0 -8.810748613436e-04 
-9.323244271653e-04 9.613325556177e-05 0.0 
9.613325556177e-05 5.115490294310e-03 0.0 
0.0 0.0 -7.763708431881e-04 
-1.001832059306e-04 5.266866745758e-04 0.0 
5.266866745758e-04 2.724835239940e-03 0.0 
0.0 0.0 -5.843899590101e-04 
-5.790296725673e-04 -5.326125379184e-04 0.0 
-5.326125379184e-04 1.882091514832e-03 0.0 
0.0 0.0 -3.280768480529e-04 
-8.597084284199e-04 1.491840850699e-04 0.0 
1.491840850699e-04 4.593177939361e-03 0.0 
0.0 0.0 -7.069124235890e-04 
-4.246089693938e-04 1.428928262105e-03 0.0 
1.428928262105e-03 2.122954743528e-03 0.0 
0.0 0.0 -4.404772202000e-04 
-8.726090169173e-04 -3.101571305491e-05 0.0 
-3.101571305491e-05 5.309765821533e-03 0.0 
0.0 0.0 -7.696142143080e-04 
-7.647244692160e-05 -1.455292213990e-03 0.0 
-1.455292213990e-03 1.759408115361e-03 0.0 
0.0 0.0 -4.595640944490e-04 
-1.784270519958e-05 6.865399459054e-04 0.0 
6.865399459054e-04 2.226340647437e-03 0.0 
0.0 0.0 -5.202658224677e-04 
-1.156111700983e-03 5.188644452185e-04 0.0 
5.188644452185e-04 7.007873302369e-03 0.0 
0.0 0.0 -1.069052450572e-03 
-3.544111730508e-04 1.143529289652e-03 0.0 
1.143529289652e-03 2.186339618849e-03 0.0 
0.0 0.0 -4.372567615832e-04 
-8.838010647401e-04 5.805967859428e-04 0.0 
5.805967859428e-04 4.846530847442e-03 0.0 
0.0 0.0 -7.640689829422e-04 
-5.498264973309e-04 3.710435615581e-04 0.0 
3.710435615581e-04 5.012164832543e-03 0.0 
0.0 0.0 -9.014246907137e-04 
-6.358980608267e-04 -4.313104688366e-04 0.0 
-4.313104688366e-04 4.627036023584e-03 0.0 
0.0 0.0 -8.035328976187e-04 
-1.261046308643e-03 3.887646222973e-04 0.0 
3.887646222973e-04 8.565225437675e-03 0.0 
0.0 0.0 -1.324762665914e-03 
-7.961969453534e-04 2.495159098011e-04 0.0 
2.495159098011e-04 4.113140991581e-03 0.0 
0.0 0.0 -6.390224077203e-04 
3.053061856643e-04 2.267805296744e-04 0.0 
2.267805296744e-04 1.077273840324e-03 0.0 
0.0 0.0 -4.422638729430e-04 
-5.704666668683e-04 -1.178468115440e-03 0.0 
-1.178468115440e-03 3.201154498828e-03 0.0 
0.0 0.0 -5.691257024010e-04 
-5.951122843918e-04 8.042220484985e-04 0.0 
8.042220484985e-04 2.449547643677e-03 0.0 
0.0 0.0 -4.184705811166e-04 
-5.000320666269e-04 1.320407470952e-03 0.0 
1.320407470952e-03 2.143724443106e-03 0.0 
0.0 0.0 -4.141309408042e-04 
-1.196454144110e-03 1.993133203818e-04 0.0 
1.993133203818e-04 7.413315256709e-03 0.0 
0.0 0.0 -1.123886314723e-03 
-8.766172246535e-04 3.573442557890e-04 0.0 
3.573442557890e-04 5.175634424808e-03 0.0 
0.0 0.0 -8.161479701220e-04 
-7.263474599636e-04 3.526993364896e-04 0.0 
3.526993364896e-04 3.570072660402e-03 0.0 
0.0 0.0 -5.672387349321e-04 
-8.352265289735e-04 5.640695091739e-04 0.0 
5.640695091739e-04 4.443467777814e-03 0.0 
0.0 0.0 -7.023794137935e-04 
-1.258131779879e-03 1.361172827669e-04 0.0 
1.361172827669e-04 8.496942290822e-03 0.0 
0.0 0.0 -1.320675234999e-03 
-1.143815948478e-03 -2.922836025437e-06 0.0 
-2.922836025437e-06 7.935052382313e-03 0.0 
0.0 0.0 -1.258064670439e-03 
-1.185356167607e-03 5.772655224951e-04 0.0 
5.772655224951e-04 7.334174599953e-03 0.0 
0.0 0.0 -1.126590436115e-03 
-1.146342777142e-03 1.032030268662e-04 0.0 
1.032030268662e-04 6.902588040038e-03 0.0 
0.0 0.0 -1.037522200811e-03 
-6.004564824823e-04 -8.741253658515e-04 0.0 
-8.741253658515e-04 4.400886106663e-03 0.0 
0.0 0.0 -7.721428985420e-04 
-6.499827822082e-04 6.306060725170e-04 0.0 
6.306060725170e-04 3.517235102446e-03 0.0 
0.0 0.0 -5.842812205453e-04 
2.208852054121e-04 7.449773440899e-04 0.0 
7.449773440899e-04 1.272300042131e-03 0.0 
0.0 0.0 -4.203166018451e-04 
1.283124150736e-04 5.457702178093e-04 0.0 
5.457702178093e-04 1.800318710438e-03 0.0 
0.0 0.0 -4.843489805398e-04 
-8.229602156181e-04 4.179326389388e-04 0.0 
4.179326389388e-04 4.894594765891e-03 0.0 
0.0 0.0 -7.808727949117e-04 
-5.351512224978e-04 -3.319303625282e-04 0.0 
-3.319303625282e-04 5.022677570586e-03 0.0 
0.0 0.0 -8.900964085843e-04 
-8.296790490015e-04 -7.574227516101e-04 0.0 
-7.574227516101e-04 4.266073095582e-03 0.0 
0.0 0.0 -6.810091006415e-04 
-1.209161835961e-03 5.397487415350e-04 0.0 
5.397487415350e-04 7.456423275885e-03 0.0 
0.0 0.0 -1.134236807130e-03 
2.970140770782e-04 -5.886898203256e-04 0.0 
-5.886898203256e-04 1.178529551260e-03 0.0 
0.0 0.0 -4.395655422792e-04 
-6.321441937111e-04 6.212871376415e-04 0.0 
6.212871376415e-04 4.001931118120e-03 0.0 
0.0 0.0 -6.750378637491e-04 
-8.881105026694e-04 6.325939136900e-04 0.0 
6.325939136900e-04 4.979851951469e-03 0.0 
0.0 0.0 -7.913284153978e-04 
-6.067465934174e-04 6.691797761234e-04 0.0 
6.691797761234e-04 3.597583737962e-03 0.0 
0.0 0.0 -6.122259156574e-04 
-1.324329620218e-03 4.629903675986e-04 0.0 
4.629903675986e-04 8.904888157841e-03 0.0 
0.0 0.0 -1.320088186226e-03 
-1.359586791555e-03 4.788353102242e-04 0.0 
4.788353102242e-04 8.942288232093e-03 0.0 
0.0 0.0 -1.318462653075e-03 
-1.290025244180e-03 1.809732516489e-04 0.0 
1.809732516489e-04 8.380056929833e-03 0.0 
0.0 0.0 -1.256494544188e-03 
-6.742581298534e-04 -7.798202117693e-04 0.0 
-7.798202117693e-04 4.873866166937e-03 0.0 
0.0 0.0 -8.375255977276e-04 
-1.194824314076e-03 4.521929309845e-04 0.0 
4.521929309845e-04 7.360058874814e-03 0.0 
0.0 0.0 -1.112065035246e-03 
-4.430818055786e-04 1.485014206495e-03 0.0 
1.485014206495e-03 1.784679357047e-03 0.0 
0.0 0.0 -3.785953687517e-04 
2.729854799726e-05 3.936097668604e-04 0.0 
3.936097668604e-04 2.328364048534e-03 0.0 
0.0 0.0 -5.483018170244e-04 
5.295881833206e-04 7.121810223511e-04 0.0 
7.121810223511e-04 1.629388308909e-04 0.0 
0.0 0.0 -2.967972918049e-04 
-7.211884972610e-04 4.566068001278e-04 0.0 
4.566068001278e-04 3.698308171073e-03 0.0 
0.0 0.0 -5.936226173563e-04 
-9.121582442551e-04 9.143313993339e-05 0.0 
9.143313993339e-05 5.030258123682e-03 0.0 
0.0 0.0 -7.914980036671e-04 
-1.035929216748e-03 3.563880147614e-04 0.0 
3.563880147614e-04 6.090521981813e-03 0.0 
0.0 0.0 -9.214502702889e-04 
-1.168840555119e-03 -8.744363195648e-05 0.0 
-8.744363195648e-05 8.066384051930e-03 0.0 
0.0 0.0 -1.265403586923e-03 
-1.162609015209e-03 6.330590177409e-04 0.0 
6.330590177409e-04 7.197897661744e-03 0.0 
0.0 0.0 -1.117224974728e-03 
-9.919773035698e-04 4.807053877499e-04 0.0 
4.807053877499e-04 5.626646372679e-03 0.0 
0.0 0.0 -8.687609488834e-04 
-9.791621869581e-04 6.007006909595e-04 0.0 
6.007006909595e-04 5.670050972566e-03 0.0 
0.0 0.0 -8.891947744737e-04 
4.804557488344e-04 9.476988486698e-04 0.0 
9.476988486698e-04 9.767658471985e-05 0.0 
0.0 0.0 -2.477710000947e-04 
-2.208441256582e-04 -6.752013946383e-04 0.0 
-6.752013946383e-04 8.882775518556e-04 0.0 
0.0 0.0 -2.467363499356e-04 
-4.153429420499e-04 1.059032103328e-03 0.0 
1.059032103328e-03 3.417216683434e-03 0.0 
0.0 0.0 -6.594106982652e-04 
-6.669546155335e-04 5.596997560711e-04 0.0 
5.596997560711e-04 4.411048143991e-03 0.0 
0.0 0.0 -7.376142925499e-04 
-4.466823138591e-04 6.032870064143e-04 0.0 
6.032870064143e-04 3.840807050757e-03 0.0 
0.0 0.0 -6.931905564144e-04 
6.417191678250e-05 8.603242808997e-04 0.0 
8.603242808997e-04 4.417253736716e-04 0.0 
0.0 0.0 -2.168131244803e-04 
-9.528466809374e-04 9.473419018348e-05 0.0 
9.473419018348e-05 5.427141204722e-03 0.0 
0.0 0.0 -8.462285223656e-04 
-5.049741343807e-04 -8.812005228938e-04 0.0 
-8.812005228938e-04 1.770302560701e-03 0.0 
0.0 0.0 -2.972104253142e-04 
-2.017300964170e-04 1.588765395916e-03 0.0 
1.588765395916e-03 1.677129549565e-03 0.0 
0.0 0.0 -4.314049239902e-04 
-1.341153861134e-03 -7.479496163088e-05 0.0 
-7.479496163088e-05 8.257374884626e-03 0.0 
0.0 0.0 -1.341153861134e-03 
-6.757643640114e-04 6.444207577368e-05 0.0 
6.444207577368e-05 5.692433792017e-03 0.0 
0.0 0.0 -9.717687626070e-04 
-9.402714050330e-04 4.164454812488e-04 0.0 
4.164454812488e-04 5.059115903313e-03 0.0 
0.0 0.0 -7.790007367612e-04 
-1.996455075654e-04 1.120227626459e-04 0.0 
1.120227626459e-04 1.363834974093e-03 0.0 
0.0 0.0 -2.176483604987e-04 
-7.316139978666e-04 8.725598858698e-04 0.0 
8.725598858698e-04 4.250250205740e-03 0.0 
0.0 0.0 -7.126719623954e-04 
-3.416312472277e-04 6.071238986655e-04 0.0 
6.071238986655e-04 3.482434275960e-03 0.0 
0.0 0.0 -6.569982659716e-04 
-1.010067214733e-03 1.858710736428e-04 0.0 
1.858710736428e-04 5.842461225268e-03 0.0 
0.0 0.0 -8.940630110299e-04 
-1.333890643160e-03 5.791621130684e-04 0.0 
5.791621130684e-04 8.805315107962e-03 0.0 
0.0 0.0 -1.323832587333e-03 
-8.707338927728e-04 5.246940464045e-04 0.0 
5.246940464045e-04 4.704277736275e-03 0.0 
0.0 0.0 -7.366500567795e-04 
-9.271217876491e-04 3.071330387493e-04 0.0 
3.071330387493e-04 5.453258810761e-03 0.0 
0.0 0.0 -8.513774089097e-04 
-8.050460189817e-04 -4.209308180889e-04 0.0 
-4.209308180889e-04 4.202095383354e-03 0.0 
0.0 0.0 -6.837695253815e-04 
-1.187192617587e-03 5.026303496447e-04 0.0 
5.026303496447e-04 7.280339694805e-03 0.0 
0.0 0.0 -1.105258581891e-03 
-7.119244178252e-04 -3.438823351423e-04 0.0 
-3.438823351423e-04 5.099696206057e-03 0.0 
0.0 0.0 -8.691653677727e-04 
-1.316090240167e-03 5.389588138701e-04 0.0 
5.389588138701e-04 8.780826577697e-03 0.0 
0.0 0.0 -1.322174839672e-03 
-1.340103718614e-03 4.728281156223e-04 0.0 
4.728281156223e-04 8.628873091994e-03 0.0 
0.0 0.0 -1.340103718614e-03 
-1.341028575724e-03 3.568557509173e-04 0.0 
3.568557509173e-04 8.716110367900e-03 0.0 
0.0 0.0 -1.341028575724e-03 
-1.338044909071e-03 4.168385009661e-04 0.0 
4.168385009661e-04 8.630348436964e-03 0.0 
0.0 0.0 -1.338044909071e-03 
-1.019072052988e-03 5.681193801066e-04 0.0 
5.681193801066e-04 5.940654999783e-03 0.0 
0.0 0.0 -9.244680137507e-04 
-1.198675717763e-03 1.360258094172e-04 0.0 
1.360258094172e-04 7.335887667339e-03 0.0 
0.0 0.0 -1.103002250422e-03 
-1.198479165231e-03 6.200957679300e-04 0.0 
6.200957679300e-04 7.509008113829e-03 0.0 
0.0 0.0 -1.155914796392e-03 
-6.394343852437e-04 1.004430984718e-03 0.0 
1.004430984718e-03 3.542163334784e-03 0.0 
0.0 0.0 -6.147330147620e-04 
-6.675475430971e-04 9.277672711453e-04 0.0 
9.277672711453e-04 3.456421744926e-03 0.0 
0.0 0.0 -5.872917534094e-04 
-8.247859078912e-04 -6.922016390902e-04 0.0 
-6.922016390902e-04 4.077408079033e-03 0.0 
0.0 0.0 -6.436934073013e-04 
-1.217910302125e-03 1.553299834490e-04 0.0 
1.553299834490e-04 7.518311075799e-03 0.0 
0.0 0.0 -1.131852245309e-03 
-1.311936692750e-03 5.307865598084e-04 0.0 
5.307865598084e-04 8.695029491200e-03 0.0 
0.0 0.0 -1.322440284024e-03 
-1.214240069696e-03 4.882095922708e-04 0.0 
4.882095922708e-04 7.535305569948e-03 0.0 
0.0 0.0 -1.141180801552e-03 
-5.747438901480e-04 1.003283814169e-04 0.0 
1.003283814169e-04 5.194431951746e-03 0.0 
0.0 0.0 -9.063345769726e-04 
-1.227388762698e-03 1.265853976664e-04 0.0 
1.265853976664e-04 7.592479060989e-03 0.0 
0.0 0.0 -1.138864741757e-03 
-8.838474672112e-04 3.395282227197e-04 0.0 
3.395282227197e-04 6.126324240512e-03 0.0 
0.0 0.0 -9.903545940741e-04 
-6.357684789507e-04 9.653705253964e-04 0.0 
9.653705253964e-04 4.033111277517e-03 0.0 
0.0 0.0 -7.049739924763e-04 
-7.219643329354e-04 7.270984363887e-04 0.0 
7.270984363887e-04 3.640512255542e-03 0.0 
0.0 0.0 -5.967387615352e-04 
1.271449544166e-04 1.530874377193e-03 0.0 
1.530874377193e-03 7.660888374693e-04 0.0 
0.0 0.0 -3.828144822368e-04 
-1.311008186282e-03 3.440606395408e-04 0.0 
3.440606395408e-04 8.440809804770e-03 0.0 
0.0 0.0 -1.282213402295e-03 
-5.754210014705e-04 1.101723762793e-03 0.0 
1.101723762793e-03 3.231346314138e-03 0.0 
0.0 0.0 -5.792479259103e-04 
-1.176826657867e-03 4.517387013495e-04 0.0 
4.517387013495e-04 7.668341186852e-03 0.0 
0.0 0.0 -1.230767059693e-03 
-8.116549819174e-04 -3.660838800677e-04 0.0 
-3.660838800677e-04 4.013024169842e-03 0.0 
0.0 0.0 -6.465396845166e-04 
-1.917368362491e-04 -1.670915138255e-03 0.0 
-1.670915138255e-03 1.673857297907e-03 0.0 
0.0 0.0 -4.222915044375e-04 
-1.218810452461e-03 -6.182829621563e-05 0.0 
-6.182829621563e-05 7.834853919449e-03 0.0 
0.0 0.0 -1.284312900220e-03 
-3.227899414303e-04 1.463352553329e-03 0.0 
1.463352553329e-03 2.102017459643e-03 0.0 
0.0 0.0 -4.669824892858e-04 
-1.341987455608e-03 4.935381790995e-04 0.0 
4.935381790995e-04 8.595598521703e-03 0.0 
0.0 0.0 -1.341987455608e-03 
-1.324901016307e-03 3.587683922887e-04 0.0 
3.587683922887e-04 8.344464300183e-03 0.0 
0.0 0.0 -1.282654109251e-03 
-8.850522684098e-04 7.214064072268e-04 0.0 
7.214064072268e-04 5.245748206413e-03 0.0 
0.0 0.0 -8.462542048450e-04 
-8.057611890132e-05 -1.710152855484e-04 0.0 
-1.710152855484e-04 3.103213667799e-04 0.0 
0.0 0.0 -9.846224909082e-05 
-1.340954708391e-03 5.230440169069e-04 0.0 
5.230440169069e-04 8.529172830874e-03 0.0 
0.0 0.0 -1.340954708391e-03 
-1.218199846518e-03 4.994387147231e-06 0.0 
4.994387147231e-06 7.808383985296e-03 0.0 
0.0 0.0 -1.284661450484e-03 
-4.838292351495e-05 -1.134502527952e-03 0.0 
-1.134502527952e-03 1.589566893982e-03 0.0 
0.0 0.0 -4.253660281670e-04 
-6.012411031331e-04 -5.471211505200e-06 0.0 
-5.471211505200e-06 5.388600975266e-03 0.0 
0.0 0.0 -9.353130867196e-04 
-1.284222320321e-03 3.331079903689e-04 0.0 
3.331079903689e-04 8.551492227036e-03 0.0 
0.0 0.0 -1.323014926434e-03 
0.0 0.0 0.0 
0.0 0.0 0.0 
0.0 0.0 0.0 
-6.023691884067e-04 1.029224405588e-03 0.0 
1.029224405588e-03 3.627406800571e-03 0.0 
0.0 0.0 -6.425506931502e-04 
-9.361925531562e-04 6.770287321789e-04 0.0 
6.770287321789e-04 5.532046743254e-03 0.0 
0.0 0.0 -8.816033652580e-04 
-8.298014528126e-04 7.768529914014e-04 0.0 
7.768529914014e-04 4.954128457589e-03 0.0 
0.0 0.0 -8.109139232486e-04 
-8.897770840316e-04 6.877783995216e-04 0.0 
6.877783995216e-04 5.117343312454e-03 0.0 
0.0 0.0 -8.186613860469e-04 
-1.469792992645e-04 1.697477444243e-03 0.0 
1.697477444243e-03 1.268784698810e-03 0.0 
0.0 0.0 -3.960833248805e-04 
-1.341360672448e-03 5.109795992512e-04 0.0 
5.109795992512e-04 8.445730971081e-03 0.0 
0.0 0.0 -1.341360672448e-03 
-7.719693981543e-05 2.760009161414e-04 0.0 
2.760009161414e-04 2.850848330235e-03 0.0 
0.0 0.0 -6.123778370825e-04 
1.753729935007e-04 1.501404700023e-05 0.0 
1.501404700023e-05 -5.243892185943e-05 0.0 
0.0 0.0 -5.268603070342e-05 
-1.302465582654e-03 -2.496096405259e-04 0.0 
-2.496096405259e-04 8.365120953103e-03 0.0 
0.0 0.0 -1.272354826527e-03 
-1.485058388714e-04 -2.923397016935e-04 0.0 
-2.923397016935e-04 5.768067641683e-04 0.0 
0.0 0.0 -1.019437782286e-04 
-7.982614346128e-04 6.111031080938e-04 0.0 
6.111031080938e-04 4.181968739078e-03 0.0 
0.0 0.0 -6.678899790657e-04 
2.246133581427e-04 -6.808997986787e-04 0.0 
-6.808997986787e-04 1.445508393424e-04 0.0 
0.0 0.0 -1.582132274936e-04 
-8.489872345980e-04 4.667487785959e-04 0.0 
4.667487785959e-04 4.536973076965e-03 0.0 
0.0 0.0 -7.094882865497e-04 
-1.255369180247e-03 1.858612183136e-05 0.0 
1.858612183136e-05 8.476379217670e-03 0.0 
0.0 0.0 -1.321823097425e-03 
-1.341255375116e-03 4.796779653900e-04 0.0 
4.796779653900e-04 8.398188684786e-03 0.0 
0.0 0.0 -1.341255375116e-03 
-9.721290586981e-04 5.581628762271e-04 0.0 
5.581628762271e-04 5.522703984207e-03 0.0 
0.0 0.0 -8.613793510407e-04 
1.600321873614e-04 -6.162664284866e-04 0.0 
-6.162664284866e-04 1.802849776087e-04 0.0 
0.0 0.0 -1.458502135586e-04 
3.109225001715e-06 1.120621869491e-06 0.0 
1.120621869491e-06 -8.787071989561e-07 0.0 
0.0 0.0 -9.559362011823e-07 
1.535176122475e-04 -1.236399581379e-03 0.0 
-1.236399581379e-03 5.447751134409e-04 0.0 
0.0 0.0 -2.992683110093e-04 
-1.116873810569e-03 -5.374998991881e-04 0.0 
-5.374998991881e-04 7.110713391746e-03 0.0 
0.0 0.0 -1.121833217354e-03 
-9.101085565852e-04 1.581356444995e-04 0.0 
1.581356444995e-04 5.291968435283e-03 0.0 
0.0 0.0 -7.704300227928e-04 
-9.627171074924e-04 3.587877174801e-05 0.0 
3.587877174801e-05 5.332601127641e-03 0.0 
0.0 0.0 -8.109332722942e-04 
-1.342502730507e-03 4.025374877915e-04 0.0 
4.025374877915e-04 8.333596175980e-03 0.0 
0.0 0.0 -1.342502730507e-03 
-9.258687689408e-04 6.411213788910e-05 0.0 
6.411213788910e-05 5.298171403091e-03 0.0 
0.0 0.0 -7.720444664677e-04 
-1.356038484680e-03 3.810509766439e-04 0.0 
3.810509766439e-04 8.994012411350e-03 0.0 
0.0 0.0 -1.322852565091e-03 
-9.095582700075e-04 6.913502515422e-04 0.0 
6.913502515422e-04 6.199031272495e-03 0.0 
0.0 0.0 -1.020998643257e-03 
-1.011415993933e-03 3.149863478337e-04 0.0 
3.149863478337e-04 5.896378527379e-03 0.0 
0.0 0.0 -8.907448815977e-04 
-5.714615022677e-04 1.156558804127e-03 0.0 
1.156558804127e-03 2.460117787699e-03 0.0 
0.0 0.0 -4.477608806526e-04 
-6.254234584821e-04 4.541246643039e-04 0.0 
4.541246643039e-04 5.320880420055e-03 0.0 
0.0 0.0 -9.378661514434e-04 
3.838669366307e-04 1.236207229742e-03 0.0 
1.236207229742e-03 2.839536722242e-04 0.0 
0.0 0.0 -2.862088323664e-04 
-1.340754991027e-03 2.766872434976e-04 0.0 
2.766872434976e-04 8.283487658048e-03 0.0 
0.0 0.0 -1.340754991027e-03 
-1.339984467612e-03 4.682059719065e-04 0.0 
4.682059719065e-04 8.622431533437e-03 0.0 
0.0 0.0 -1.339984467612e-03 
-1.340417744004e-03 3.687782300389e-04 0.0 
3.687782300389e-04 8.691962583590e-03 0.0 
0.0 0.0 -1.340417744004e-03 
-7.614631425941e-04 -7.600693639472e-04 0.0 
-7.600693639472e-04 5.166067953467e-03 0.0 
0.0 0.0 -8.666500598261e-04 
-8.083534389449e-04 -6.157792834396e-04 0.0 
-6.157792834396e-04 3.875634950425e-03 0.0 
0.0 0.0 -6.062238016986e-04 
-5.875577080076e-04 6.263804956418e-04 0.0 
6.263804956418e-04 4.098789747432e-03 0.0 
0.0 0.0 -7.021192356133e-04 
-7.972896345737e-04 -3.252844081748e-04 0.0 
-3.252844081748e-04 5.374062371917e-03 0.0 
0.0 0.0 -8.981573260837e-04 
-1.339627896631e-03 1.538435656171e-04 0.0 
1.538435656171e-04 8.249387984378e-03 0.0 
0.0 0.0 -1.339627896631e-03 
-7.499431316128e-05 1.153135812952e-03 0.0 
1.153135812952e-03 1.745463721331e-03 0.0 
0.0 0.0 -4.287941800800e-04 
9.963389295363e-05 -4.974640475465e-04 0.0 
-4.974640475465e-04 1.806583108532e-03 0.0 
0.0 0.0 -4.991860405784e-04 
-4.325429609302e-05 -6.957715566116e-04 0.0 
-6.957715566116e-04 2.198402972482e-03 0.0 
0.0 0.0 -5.272458293186e-04 
-1.040852931917e-03 3.039409917234e-04 0.0 
3.039409917234e-04 6.156930146379e-03 0.0 
0.0 0.0 -9.279583942086e-04 
-1.296158163173e-03 -2.117115631842e-04 0.0 
-2.117115631842e-04 8.526713660580e-03 0.0 
0.0 0.0 -1.323537156312e-03 
5.620572206727e-05 -9.064776901539e-04 0.0 
-9.064776901539e-04 4.833799193028e-04 0.0 
0.0 0.0 -2.312509891586e-04 
-1.340775759057e-03 -3.546022348329e-06 0.0 
-3.546022348329e-06 8.220355043040e-03 0.0 
0.0 0.0 -1.340775759057e-03 
-1.115561951243e-04 -9.424028116119e-04 0.0 
-9.424028116119e-04 2.079879554815e-03 0.0 
0.0 0.0 -4.905422085546e-04 
-1.342877878941e-03 5.106164496302e-04 0.0 
5.106164496302e-04 8.578886692927e-03 0.0 
0.0 0.0 -1.342877878941e-03 
-1.213674372651e-03 2.426946528992e-04 0.0 
2.426946528992e-04 7.585431715108e-03 0.0 
0.0 0.0 -1.152765850879e-03 
7.551303923517e-04 -3.431961155864e-05 0.0 
-3.431961155864e-05 -8.356761588733e-06 0.0 
0.0 0.0 -1.964897908492e-04 
-5.576622204016e-04 1.038766121166e-03 0.0 
1.038766121166e-03 3.693734829533e-03 0.0 
0.0 0.0 -6.690559060524e-04 
-1.231945608432e-03 6.630499771306e-05 0.0 
6.630499771306e-05 7.672705385687e-03 0.0 
0.0 0.0 -1.146019594970e-03 
-1.341220131281e-03 5.159350734492e-04 0.0 
5.159350734492e-04 8.502743697499e-03 0.0 
0.0 0.0 -1.341220131281e-03 
-1.018091222593e-03 2.268797553762e-04 0.0 
2.268797553762e-04 5.997567393014e-03 0.0 
0.0 0.0 -9.220067723808e-04 
-9.140544266384e-04 6.590381545290e-04 0.0 
6.590381545290e-04 6.350398110146e-03 0.0 
0.0 0.0 -1.049000704964e-03 
1.948485511646e-04 1.206910249746e-03 0.0 
1.206910249746e-03 4.719329916516e-04 0.0 
0.0 0.0 -2.857635183498e-04 
-1.092933677572e-03 -5.430090234953e-06 0.0 
-5.430090234953e-06 7.417148133219e-03 0.0 
0.0 0.0 -1.228682347183e-03 
-2.597655749325e-04 -9.580958323714e-04 0.0 
-9.580958323714e-04 2.468405464320e-03 0.0 
0.0 0.0 -5.184025592846e-04 
-1.467448334793e-04 -1.253609516085e-03 0.0 
-1.253609516085e-03 2.277465230796e-03 0.0 
0.0 0.0 -5.242929400402e-04 
8.350711239016e-05 -5.741871043008e-04 0.0 
-5.741871043008e-04 2.364507936714e-04 0.0 
0.0 0.0 -1.371248168835e-04 
-1.341079611575e-03 4.984530224516e-04 0.0 
4.984530224516e-04 8.418558490732e-03 0.0 
0.0 0.0 -1.341079611575e-03 
3.309852724411e-04 1.022663251937e-03 0.0 
1.022663251937e-03 7.457111261596e-04 0.0 
0.0 0.0 -3.670041082731e-04 
-9.538216450079e-04 -4.415701274725e-04 0.0 
-4.415701274725e-04 6.798030040948e-03 0.0 
0.0 0.0 -1.110501492391e-03 
-9.815143922996e-04 -1.301923920288e-04 0.0 
-1.301923920288e-04 5.716261133104e-03 0.0 
0.0 0.0 -8.555322119248e-04 
-5.211778943541e-04 -1.357561140200e-03 0.0 
-1.357561140200e-03 2.381396269316e-03 0.0 
0.0 0.0 -4.411586999297e-04 
5.027865284570e-06 -1.162974144005e-03 0.0 
-1.162974144005e-03 1.893137919142e-03 0.0 
0.0 0.0 -4.964677435772e-04 
-9.740976170288e-04 2.668400150695e-04 0.0 
2.668400150695e-04 5.727433876448e-03 0.0 
0.0 0.0 -8.867075537039e-04 
-1.342259935407e-03 3.249478019742e-04 0.0 
3.249478019742e-04 8.304746317588e-03 0.0 
0.0 0.0 -1.342259935407e-03 
-8.513383339797e-04 -2.155531084130e-04 0.0 
-2.155531084130e-04 4.042684079104e-03 0.0 
0.0 0.0 -6.378868265889e-04 
-8.326579327741e-04 -6.269168235212e-04 0.0 
-6.269168235212e-04 5.839362625743e-03 0.0 
0.0 0.0 -9.693340058277e-04 
-7.491524898005e-04 8.473182538136e-04 0.0 
8.473182538136e-04 4.765927930056e-03 0.0 
0.0 0.0 -8.030799362305e-04 
-5.836032186753e-04 -5.383312615796e-04 0.0 
-5.383312615796e-04 5.022073810354e-03 0.0 
0.0 0.0 -8.811160271665e-04 
4.293152286993e-05 -8.173969837308e-04 0.0 
-8.173969837308e-04 2.098601697323e-03 0.0 
0.0 0.0 -5.326451291888e-04 
-7.517931783722e-04 -6.967384815080e-04 0.0 
-6.967384815080e-04 5.353981326588e-03 0.0 
0.0 0.0 -9.031726653527e-04 
-7.384492594485e-04 4.981620025079e-04 0.0 
4.981620025079e-04 4.715692557205e-03 0.0 
0.0 0.0 -7.729461360948e-04 
-9.594660891244e-04 3.310922572756e-04 0.0 
3.310922572756e-04 6.288208991268e-03 0.0 
0.0 0.0 -9.982497011217e-04 
-7.260155598219e-04 4.211913378779e-04 0.0 
4.211913378779e-04 5.817009197579e-03 0.0 
0.0 0.0 -1.003134534203e-03 
-6.776109950317e-04 9.016603010913e-04 0.0 
9.016603010913e-04 4.450317334473e-03 0.0 
0.0 0.0 -7.676694601592e-04 
-7.429113511031e-04 -5.174574473206e-04 0.0 
-5.174574473206e-04 3.948133648233e-03 0.0 
0.0 0.0 -6.551190094499e-04 
-2.218900255169e-04 1.098460281572e-03 0.0 
1.098460281572e-03 2.169381084645e-03 0.0 
0.0 0.0 -4.640097282922e-04 
-8.062369115313e-04 -2.975304159245e-04 0.0 
-2.975304159245e-04 3.811084005570e-03 0.0 
0.0 0.0 -6.091269606258e-04 
-8.824461864644e-04 3.062506020875e-04 0.0 
3.062506020875e-04 6.271794679198e-03 0.0 
0.0 0.0 -1.018204129641e-03 
-4.460788929649e-04 4.040748578588e-04 0.0 
4.040748578588e-04 4.503525698480e-03 0.0 
0.0 0.0 -8.365169925761e-04 
-1.261002707828e-03 -7.504870971913e-05 0.0 
-7.504870971913e-05 8.505176480558e-03 0.0 
0.0 0.0 -1.321929620191e-03 
-1.247677519614e-03 1.094732648068e-04 0.0 
1.094732648068e-04 7.850453942976e-03 0.0 
0.0 0.0 -1.174325249119e-03 
-5.404813862772e-04 -9.466285983316e-04 0.0 
-9.466285983316e-04 2.223885193950e-03 0.0 
0.0 0.0 -4.069995479128e-04 
-1.341047338368e-03 7.540167646977e-05 0.0 
7.540167646977e-05 8.197352777791e-03 0.0 
0.0 0.0 -1.341047338368e-03 
-1.130691151971e-03 -1.784363264906e-05 0.0 
-1.784363264906e-05 8.053842301100e-03 0.0 
0.0 0.0 -1.266414110344e-03 
-4.715184922734e-04 9.294387903624e-04 0.0 
9.294387903624e-04 3.876101003561e-03 0.0 
0.0 0.0 -7.237787631415e-04 
3.035840363914e-05 -4.057342954642e-04 0.0 
-4.057342954642e-04 2.137280708151e-04 0.0 
0.0 0.0 -1.046084890518e-04 
-1.265736625837e-03 -2.342234423567e-04 0.0 
-2.342234423567e-04 8.560274388960e-03 0.0 
0.0 0.0 -1.323469717371e-03 
-1.248103745975e-03 1.754263225543e-04 0.0 
1.754263225543e-04 7.767855351365e-03 0.0 
0.0 0.0 -1.167157861819e-03 
-2.143426304924e-04 -1.125447243117e-03 0.0 
-1.125447243117e-03 2.012406359622e-03 0.0 
0.0 0.0 -4.535238702637e-04 
-1.341709311524e-03 -1.537021795728e-04 0.0 
-1.537021795728e-04 8.247140811223e-03 0.0 
0.0 0.0 -1.341709311524e-03 
-8.340634901946e-04 -6.821178693031e-04 0.0 
-6.821178693031e-04 5.639816405277e-03 0.0 
0.0 0.0 -9.325599965574e-04 
-7.159156796781e-04 8.199594821406e-04 0.0 
8.199594821406e-04 3.747642167749e-03 0.0 
0.0 0.0 -6.229492605273e-04 
-9.690599654105e-04 4.302709909689e-04 0.0 
4.302709909689e-04 5.467189617691e-03 0.0 
0.0 0.0 -8.408860858065e-04 
-3.919357097026e-04 6.068237325882e-05 0.0 
6.068237325882e-05 4.381455962217e-03 0.0 
0.0 0.0 -8.054665293395e-04 
-6.923438558252e-04 -8.520265330426e-04 0.0 
-8.520265330426e-04 4.695093275442e-03 0.0 
0.0 0.0 -8.008683130455e-04 
-6.056515233478e-04 -4.164522829612e-04 0.0 
-4.164522829612e-04 5.267235237804e-03 0.0 
0.0 0.0 -9.181754741429e-04 
-1.093523269899e-03 7.798311719689e-05 0.0 
7.798311719689e-05 6.464920900132e-03 0.0 
0.0 0.0 -9.721028620036e-04 
-8.031200443167e-04 6.781379836070e-04 0.0 
6.781379836070e-04 4.309322447368e-03 0.0 
0.0 0.0 -6.945885048819e-04 
-7.991042375162e-04 4.855628797920e-04 0.0 
4.855628797920e-04 6.126908297853e-03 0.0 
0.0 0.0 -1.039409037654e-03 
-9.955657075652e-04 -4.803366383392e-06 0.0 
-4.803366383392e-06 6.069270927012e-03 0.0 
0.0 0.0 -8.839498032872e-04 
-7.742968154824e-04 -8.517460638285e-04 0.0 
-8.517460638285e-04 4.014337168077e-03 0.0 
0.0 0.0 -6.521967345917e-04 
-6.549358325978e-04 3.442178195061e-04 0.0 
3.442178195061e-04 5.516212137862e-03 0.0 
0.0 0.0 -9.664699797409e-04 
-3.659361313913e-04 -1.389777863593e-03 0.0 
-1.389777863593e-03 2.536314572587e-03 0.0 
0.0 0.0 -5.155438399970e-04 
-1.017459211522e-03 -2.035278755390e-04 0.0 
-2.035278755390e-04 5.749338419273e-03 0.0 
0.0 0.0 -9.093720595694e-04 
2.256137386907e-04 -1.163159502201e-04 0.0 
-1.163159502201e-04 1.137935582799e-04 0.0 
0.0 0.0 -4.585464485956e-05 
-3.462420398140e-04 1.018466210769e-03 0.0 
1.018466210769e-03 2.570297332312e-03 0.0 
0.0 0.0 -4.997308803768e-04 
-2.322903734365e-04 -1.457188189013e-03 0.0 
-1.457188189013e-03 2.158535862862e-03 0.0 
0.0 0.0 -4.875765080988e-04 
-8.614851687078e-04 -3.337722832802e-04 0.0 
-3.337722832802e-04 4.446512628758e-03 0.0 
0.0 0.0 -7.126562430121e-04 
-5.635163873739e-04 9.119017880977e-04 0.0 
9.119017880977e-04 4.220442908307e-03 0.0 
0.0 0.0 -7.595228636782e-04 
-7.920931595490e-04 -2.649669687123e-04 0.0 
-2.649669687123e-04 5.573841345894e-03 0.0 
0.0 0.0 -9.350600278798e-04 
-1.013052504013e-03 -8.823570252137e-05 0.0 
-8.823570252137e-05 6.008966805305e-03 0.0 
0.0 0.0 -8.962969588583e-04 
-3.359179918489e-04 -1.568493616469e-03 0.0 
-1.568493616469e-03 2.089144442065e-03 0.0 
0.0 0.0 -4.505554202764e-04 
-1.341827844788e-03 -1.871667057256e-04 0.0 
-1.871667057256e-04 8.296019085882e-03 0.0 
0.0 0.0 -1.341827844788e-03 
-9.219930325587e-04 3.393896039245e-04 0.0 
3.393896039245e-04 5.591653643792e-03 0.0 
0.0 0.0 -8.789935771182e-04 
-9.115582794458e-04 -2.493035172872e-04 0.0 
-2.493035172872e-04 4.677595953812e-03 0.0 
0.0 0.0 -7.413896480605e-04 
-8.652400327000e-04 3.890590998056e-04 0.0 
3.890590998056e-04 5.305115327796e-03 0.0 
0.0 0.0 -8.436662038215e-04 
-8.817818309206e-04 -6.648690080579e-04 0.0 
-6.648690080579e-04 4.510392914982e-03 0.0 
0.0 0.0 -7.098625721847e-04 
0.0 0.0 0.0 
0.0 0.0 0.0 
0.0 0.0 0.0 
-1.015724792628e-03 8.235652516452e-05 0.0 
8.235652516452e-05 5.775865579893e-03 0.0 
0.0 0.0 -8.733545218784e-04 
-8.401387806922e-04 6.123016035239e-05 0.0 
6.123016035239e-05 3.850164849745e-03 0.0 
0.0 0.0 -5.956302995864e-04 
2.119608216236e-04 1.827144702945e-05 0.0 
1.827144702945e-05 -6.337242555222e-05 0.0 
0.0 0.0 -6.368074117344e-05 
-9.031369501237e-04 -1.865236162329e-04 0.0 
-1.865236162329e-04 4.464828183770e-03 0.0 
0.0 0.0 -7.041275119738e-04 
-8.760607814048e-04 -2.015865901798e-04 0.0 
-2.015865901798e-04 6.047567037496e-03 0.0 
0.0 0.0 -1.001254648526e-03 
-1.205696135514e-03 2.785240829935e-04 0.0 
2.785240829935e-04 7.656838420364e-03 0.0 
0.0 0.0 -1.146946825052e-03 
-5.022948978825e-04 -4.626796724593e-04 0.0 
-4.626796724593e-04 4.761985454285e-03 0.0 
0.0 0.0 -8.532270185794e-04 
-5.545620008577e-04 -7.574531854601e-05 0.0 
-7.574531854601e-05 4.939516714005e-03 0.0 
0.0 0.0 -8.841559964380e-04 
-9.029537400273e-04 7.141549008008e-05 0.0 
7.141549008008e-05 4.945239925053e-03 0.0 
0.0 0.0 -7.495231765994e-04 
-8.844827213453e-04 6.847338950965e-05 0.0 
6.847338950965e-05 4.625730514937e-03 0.0 
0.0 0.0 -7.312625299844e-04 
-1.286320179804e-03 2.788583147739e-04 0.0 
2.788583147739e-04 8.406193484283e-03 0.0 
0.0 0.0 -1.286111585339e-03 
-8.045597696771e-04 4.385655444654e-04 0.0 
4.385655444654e-04 5.012857215938e-03 0.0 
0.0 0.0 -8.082854548548e-04 
6.621891051064e-04 -1.711434374491e-05 0.0 
-1.711434374491e-05 -4.360569155907e-05 0.0 
0.0 0.0 -9.362473743294e-05 
-4.298982998579e-04 -6.269550114416e-04 0.0 
-6.269550114416e-04 1.549337747066e-03 0.0 
0.0 0.0 -2.569639750501e-04 
-5.557804512661e-05 -2.649152406900e-04 0.0 
-2.649152406900e-04 2.900758507811e-04 0.0 
0.0 0.0 -1.004990595662e-04 
-6.031978273067e-04 -1.007320967644e-03 0.0 
-1.007320967644e-03 2.552633295107e-03 0.0 
0.0 0.0 -4.284133232656e-04 
-1.143923933864e-03 2.767605230601e-04 0.0 
2.767605230601e-04 7.311015416728e-03 0.0 
0.0 0.0 -1.134523071099e-03 
-1.214790267536e-03 -1.094816465951e-04 0.0 
-1.094816465951e-04 7.712260942966e-03 0.0 
0.0 0.0 -1.144649651339e-03 
-1.087508141976e-03 -1.587001134092e-04 0.0 
-1.587001134092e-04 6.822768700719e-03 0.0 
0.0 0.0 -1.087427768671e-03 
-6.685965332887e-04 -7.845956287838e-04 0.0 
-7.845956287838e-04 2.990542570396e-03 0.0 
0.0 0.0 -4.827803379924e-04 
-1.041668217069e-03 -5.600095855462e-04 0.0 
-5.600095855462e-04 5.820984951314e-03 0.0 
0.0 0.0 -9.063168105749e-04 
-1.002226704218e-03 -4.489969858519e-05 0.0 
-4.489969858519e-05 6.971386371707e-03 0.0 
0.0 0.0 -1.142106164842e-03 
5.911862038656e-04 5.961670165533e-05 0.0 
5.961670165533e-05 -1.764561884350e-04 0.0 
0.0 0.0 -1.777414351845e-04 
-8.306874199400e-04 -2.997045909462e-04 0.0 
-2.997045909462e-04 3.873272421704e-03 0.0 
0.0 0.0 -5.942115541274e-04 
-6.956533125248e-04 1.124846661467e-04 0.0 
1.124846661467e-04 3.135833764917e-03 0.0 
0.0 0.0 -4.980019828625e-04 
-1.307918774452e-03 -2.672149718263e-04 0.0 
-2.672149718263e-04 8.583156667317e-03 0.0 
0.0 0.0 -1.322396863610e-03 
-1.341641872583e-03 -2.574400453278e-04 0.0 
-2.574400453278e-04 8.313092341430e-03 0.0 
0.0 0.0 -1.341641872583e-03 
-9.100844780323e-04 -2.535656636935e-04 0.0 
-2.535656636935e-04 4.283598396940e-03 0.0 
0.0 0.0 -6.580288049735e-04 
-9.226849417219e-04 -5.822088138657e-04 0.0 
-5.822088138657e-04 4.742725005737e-03 0.0 
0.0 0.0 -7.385580096348e-04 
-7.259593438489e-04 -4.081287369355e-04 0.0 
-4.081287369355e-04 4.909588067259e-03 0.0 
0.0 0.0 -8.323457052078e-04 
-1.025384663725e-03 -1.558037465639e-06 0.0 
-1.558037465639e-06 7.232536331843e-03 0.0 
0.0 0.0 -1.177278300149e-03 
-5.185769804223e-04 -3.082242823645e-04 0.0 
-3.082242823645e-04 1.649765607481e-03 0.0 
0.0 0.0 -2.880367495917e-04 
-9.770068768367e-04 -9.822974250100e-05 0.0 
-9.822974250100e-05 6.742502940673e-03 0.0 
0.0 0.0 -1.104707344597e-03 
-8.864038043829e-05 -1.638440655004e-05 0.0 
-1.638440655004e-05 9.863844244366e-04 0.0 
0.0 0.0 -1.612556504808e-04 
-8.754272683905e-04 -6.018300858025e-04 0.0 
-6.018300858025e-04 4.312432546832e-03 0.0 
0.0 0.0 -6.724657308136e-04 
-8.826884309659e-04 -7.176448192389e-04 0.0 
-7.176448192389e-04 4.701849927849e-03 0.0 
0.0 0.0 -7.470513223636e-04 
-3.546308527174e-05 5.679765794383e-06 0.0 
5.679765794383e-06 2.993710717870e-04 0.0 
0.0 0.0 -1.131034227923e-04 
-8.541374211011e-04 1.051307269510e-04 0.0 
1.051307269510e-04 4.063038016891e-03 0.0 
0.0 0.0 -6.267591816330e-04 
-1.242827358992e-03 4.579768759709e-04 0.0 
4.579768759709e-04 7.784562517271e-03 0.0 
0.0 0.0 -1.176862138969e-03 
5.856171802454e-04 8.673890813667e-06 0.0 
8.673890813667e-06 6.976119991761e-06 0.0 
0.0 0.0 -9.786084279852e-05 
-8.702582028195e-04 1.105447853201e-04 0.0 
1.105447853201e-04 4.607072405037e-03 0.0 
0.0 0.0 -7.322753781719e-04 
-8.459002629386e-04 1.198690024363e-04 0.0 
1.198690024363e-04 4.870014320209e-03 0.0 
0.0 0.0 -7.130472889423e-04 
-6.411087712709e-04 -3.059567672411e-04 0.0 
-3.059567672411e-04 5.528224217795e-03 0.0 
0.0 0.0 -9.552000144736e-04 
-6.940260095912e-04 -2.019223501579e-04 0.0 
-2.019223501579e-04 3.181147651246e-03 0.0 
0.0 0.0 -4.943513106837e-04 
-3.551699552598e-04 -1.046898701828e-03 0.0 
-1.046898701828e-03 2.386678131376e-03 0.0 
0.0 0.0 -4.817493388239e-04 
-2.903941216122e-04 1.483074513055e-03 0.0 
1.483074513055e-03 1.457235103792e-03 0.0 
0.0 0.0 -3.398054741319e-04 
-1.199955943827e-03 -1.286515075727e-04 0.0 
-1.286515075727e-04 7.503949585872e-03 0.0 
0.0 0.0 -1.180895453064e-03 
-1.276254635442e-03 4.715115445783e-04 0.0 
4.715115445783e-04 8.059382999082e-03 0.0 
0.0 0.0 -1.286194385238e-03 
-1.186217889961e-03 -6.749121568718e-05 0.0 
-6.749121568718e-05 7.409362913807e-03 0.0 
0.0 0.0 -1.101088927253e-03 
-5.347000365982e-04 9.291634402025e-04 0.0 
9.291634402025e-04 2.503086312716e-03 0.0 
0.0 0.0 -4.457015571677e-04 
-3.190037393042e-04 -1.683187168607e-04 0.0 
-1.683187168607e-04 9.740026393817e-04 0.0 
0.0 0.0 -2.223875638571e-04 
-8.385442436262e-04 2.562372654306e-04 0.0 
2.562372654306e-04 4.497930936177e-03 0.0 
0.0 0.0 -6.999131133628e-04 
-8.425527780140e-04 3.452494000883e-05 0.0 
3.452494000883e-05 4.643700331840e-03 0.0 
0.0 0.0 -7.345111139194e-04 
-8.389403033821e-04 -1.305466340479e-06 0.0 
-1.305466340479e-06 4.908724598573e-03 0.0 
0.0 0.0 -7.144802219087e-04 
2.118993314013e-04 1.507058348733e-05 0.0 
1.507058348733e-05 -6.339593750257e-05 0.0 
0.0 0.0 -6.364431167088e-05 
-5.587289192583e-05 -6.452329894431e-06 0.0 
-6.452329894431e-06 2.977317204857e-04 0.0 
0.0 0.0 -1.036537836685e-04 
-1.659582098733e-04 -6.983629749951e-05 0.0 
-6.983629749951e-05 7.156238265913e-04 0.0 
0.0 0.0 -1.795416262981e-04 
-6.042827533109e-04 -3.178261870528e-04 0.0 
-3.178261870528e-04 2.298196668838e-03 0.0 
0.0 0.0 -3.820941496288e-04 
1.745656339544e-04 -6.881620967810e-06 0.0 
-6.881620967810e-06 5.205015129475e-04 0.0 
0.0 0.0 -1.430998070711e-04 
-9.621077650285e-04 9.743124488288e-05 0.0 
9.743124488288e-05 4.540703172736e-03 0.0 
0.0 0.0 -6.918148876825e-04 
0.0 0.0 0.0 
0.0 0.0 0.0 
0.0 0.0 0.0 
-6.636885702572e-04 -3.632840591834e-04 0.0 
-3.632840591834e-04 2.727769964994e-03 0.0 
0.0 0.0 -4.482372226011e-04 
-1.037073112810e-03 8.416167581821e-05 0.0 
8.416167581821e-05 6.231636848545e-03 0.0 
0.0 0.0 -9.582560723523e-04 
-8.428951159850e-04 8.320649882269e-05 0.0 
8.320649882269e-05 4.895786071823e-03 0.0 
0.0 0.0 -7.120344407548e-04 
-1.176195464104e-03 2.727173431630e-04 0.0 
2.727173431630e-04 7.571205441829e-03 0.0 
0.0 0.0 -1.169483110168e-03 
-8.724458015180e-04 -2.535481835564e-04 0.0 
-2.535481835564e-04 5.840199633402e-03 0.0 
0.0 0.0 -9.641449249716e-04 
-9.956049472303e-04 9.460602026458e-05 0.0 
9.460602026458e-05 5.823804297189e-03 0.0 
0.0 0.0 -8.988447104697e-04 
-7.453270263773e-04 1.666868432523e-04 0.0 
1.666868432523e-04 3.393805001824e-03 0.0 
0.0 0.0 -5.269378630653e-04 
-6.611997545445e-05 -3.806127284770e-05 0.0 
-3.806127284770e-05 9.766559638682e-04 0.0 
0.0 0.0 -1.602995255322e-04 
-1.340974968048e-03 1.475163558745e-04 0.0 
1.475163558745e-04 8.789407210591e-03 0.0 
0.0 0.0 -1.340974968048e-03 
-1.353375445294e-03 1.861681106883e-04 0.0 
1.861681106883e-04 9.067632799309e-03 0.0 
0.0 0.0 -1.320295381545e-03 
-9.653313430370e-04 3.172946590342e-04 0.0 
3.172946590342e-04 5.653212768820e-03 0.0 
0.0 0.0 -8.588387843224e-04 
-8.723549553050e-04 3.791940437681e-05 0.0 
3.791940437681e-05 4.638744233564e-03 0.0 
0.0 0.0 -7.326073368542e-04 
-7.433675000171e-04 -1.881116571238e-04 0.0 
-1.881116571238e-04 3.464526545461e-03 0.0 
0.0 0.0 -5.314511797787e-04 
-1.343039576571e-03 1.116238935560e-04 0.0 
1.116238935560e-04 9.058435864628e-03 0.0 
0.0 0.0 -1.322576402756e-03 
-6.088517818817e-04 -7.427980185432e-04 0.0 
-7.427980185432e-04 2.573085079122e-03 0.0 
0.0 0.0 -4.166600706249e-04 
-8.421343191380e-04 8.947296271354e-05 0.0 
8.947296271354e-05 4.867861189812e-03 0.0 
0.0 0.0 -7.125614225629e-04 
-8.442475580862e-04 6.688277321944e-05 0.0 
6.688277321944e-05 4.629764896323e-03 0.0 
0.0 0.0 -7.312775522649e-04 
-8.183075665077e-04 4.944600713478e-04 0.0 
4.944600713478e-04 4.297011605974e-03 0.0 
0.0 0.0 -6.755779900756e-04 
-1.341823989366e-03 3.176700121755e-04 0.0 
3.176700121755e-04 8.755155514573e-03 0.0 
0.0 0.0 -1.341823989366e-03 
-1.316183787817e-03 1.764356624828e-04 0.0 
1.764356624828e-04 9.061441417317e-03 0.0 
0.0 0.0 -1.322582685247e-03 
1.706419388007e-04 -6.581066488368e-06 0.0 
-6.581066488368e-06 5.083643028934e-04 0.0 
0.0 0.0 -1.414504174366e-04 
2.407344509661e-04 1.323517305793e-05 0.0 
1.323517305793e-05 -7.208659109850e-05 0.0 
0.0 0.0 -7.227765422896e-05 
-4.260081866660e-04 -1.856958100474e-04 0.0 
-1.856958100474e-04 1.223914747001e-03 0.0 
0.0 0.0 -2.229509930541e-04 
-8.539532720431e-04 -3.709598021116e-04 0.0 
-3.709598021116e-04 4.637819177533e-03 0.0 
0.0 0.0 -7.497705102653e-04 
-1.319228459702e-03 1.823496012509e-04 0.0 
1.823496012509e-04 8.037185883931e-03 0.0 
0.0 0.0 -1.224669017856e-03 
0.0 0.0 0.0 
0.0 0.0 0.0 
0.0 0.0 0.0 
-1.164534197096e-03 -1.984727069524e-04 0.0 
-1.984727069524e-04 7.327097077271e-03 0.0 
0.0 0.0 -1.092518628634e-03 
0.0 0.0 0.0 
0.0 0.0 0.0 
0.0 0.0 0.0 
-6.586480689668e-04 -2.893406478862e-05 0.0 
-2.893406478862e-05 5.445033550024e-03 0.0 
0.0 0.0 -9.493083249531e-04 
6.413544779552e-05 -3.379620450346e-04 0.0 
-3.379620450346e-04 1.394736970074e-04 0.0 
0.0 0.0 -8.691392457031e-05 
1.450430834232e-05 -8.616792963926e-05 0.0 
-8.616792963926e-05 3.294529381564e-05 0.0 
0.0 0.0 -2.033554378198e-05 
-6.338862404721e-04 -1.383285000905e-04 0.0 
-1.383285000905e-04 5.212576859225e-03 0.0 
0.0 0.0 -9.122568895951e-04 
-1.285900318348e-03 2.146352195215e-05 0.0 
2.146352195215e-05 7.759528202279e-03 0.0 
0.0 0.0 -1.192963836147e-03 
-1.029044917040e-03 -7.279636213487e-05 0.0 
-7.279636213487e-05 6.446740060124e-03 0.0 
0.0 0.0 -9.361271490834e-04 
-8.407421483093e-04 3.218859450769e-04 0.0 
3.218859450769e-04 4.639661762171e-03 0.0 
0.0 0.0 -7.268406435589e-04 
-3.072399208747e-05 -1.897210475410e-05 0.0 
-1.897210475410e-05 2.991997316549e-04 0.0 
0.0 0.0 -1.150610312432e-04 
-1.088521664505e-03 -4.986556758640e-04 0.0 
-4.986556758640e-04 6.052818965112e-03 0.0 
0.0 0.0 -9.349022313484e-04 
-1.337797817327e-03 2.888082420915e-05 0.0 
2.888082420915e-05 8.797778454419e-03 0.0 
0.0 0.0 -1.337797817327e-03 
-1.344206616167e-03 -8.091836582187e-05 0.0 
-8.091836582187e-05 9.064612422815e-03 0.0 
0.0 0.0 -1.322354755130e-03 
-8.386635614455e-04 6.856267782852e-05 0.0 
6.856267782852e-05 4.896920748213e-03 0.0 
0.0 0.0 -7.125764448434e-04 
-6.958258556128e-04 6.990936182405e-05 0.0 
6.990936182405e-05 5.692375670829e-03 0.0 
0.0 0.0 -9.863757069361e-04 
-1.341607717199e-03 1.551401879936e-04 0.0 
1.551401879936e-04 8.810609962061e-03 0.0 
0.0 0.0 -1.341607717199e-03 
-8.875903164710e-04 2.432432692731e-04 0.0 
2.432432692731e-04 6.412529175352e-03 0.0 
0.0 0.0 -1.046710270629e-03 
-7.224987108801e-05 2.416900893393e-05 0.0 
2.416900893393e-05 9.236508622773e-04 0.0 
0.0 0.0 -1.589907658001e-04 
1.844060408699e-04 -1.026478452949e-05 0.0 
-1.026478452949e-05 5.130263938471e-04 0.0 
0.0 0.0 -1.435574244405e-04 
-2.891409061342e-05 -3.272758998480e-05 0.0 
-3.272758998480e-05 3.203427987140e-04 0.0 
0.0 0.0 -1.200048127433e-04 
-8.246082063499e-04 1.600403801409e-04 0.0 
1.600403801409e-04 3.844559296729e-03 0.0 
0.0 0.0 -5.933358154923e-04 
-1.368440753648e-03 -2.847926622310e-04 0.0 
-2.847926622310e-04 8.814363085181e-03 0.0 
0.0 0.0 -1.322828574513e-03 
-1.280689091558e-03 -2.286632291646e-04 0.0 
-2.286632291646e-04 8.487923234130e-03 0.0 
0.0 0.0 -1.258329778789e-03 
2.520020944074e-04 -9.417495015486e-06 0.0 
-9.417495015486e-06 -7.547411903337e-05 0.0 
0.0 0.0 -7.565484658888e-05 
-9.449458894061e-04 -2.123271304103e-04 0.0 
-2.123271304103e-04 4.512069341782e-03 0.0 
0.0 0.0 -6.938761155152e-04 
-1.344798314369e-03 -1.247366253674e-04 0.0 
-1.247366253674e-04 8.595631148609e-03 0.0 
0.0 0.0 -1.344798314369e-03 
-1.373531731671e-03 -1.707869213026e-04 0.0 
-1.707869213026e-04 8.832402882049e-03 0.0 
0.0 0.0 -1.318785251170e-03 
-1.282177360506e-03 -3.124369979244e-04 0.0 
-3.124369979244e-04 8.610103347005e-03 0.0 
0.0 0.0 -1.321151187552e-03 
-1.113562773683e-03 2.219946434219e-04 0.0 
2.219946434219e-04 6.878878469590e-03 0.0 
0.0 0.0 -1.027148381742e-03 
-1.180769122149e-03 -2.135481498419e-04 0.0 
-2.135481498419e-04 7.573759840694e-03 0.0 
0.0 0.0 -1.125709525796e-03 
-1.338030260144e-03 -1.771563366243e-04 0.0 
-1.771563366243e-04 8.542675147626e-03 0.0 
0.0 0.0 -1.338030260144e-03 
-1.340754991027e-03 -2.390663127656e-04 0.0 
-2.390663127656e-04 8.545998822267e-03 0.0 
0.0 0.0 -1.340754991027e-03 
-1.152960594027e-03 1.859255734492e-04 0.0 
1.859255734492e-04 7.333872638941e-03 0.0 
0.0 0.0 -1.092518628634e-03 
6.040404689232e-04 9.568591753019e-05 0.0 
9.568591753019e-05 -6.408932826674e-05 0.0 
0.0 0.0 -9.235885521468e-05 
-8.216739313019e-04 1.642653897250e-05 0.0 
1.642653897250e-05 4.866544847831e-03 0.0 
0.0 0.0 -7.139539158865e-04 
-8.429301589013e-04 7.371775731573e-05 0.0 
7.371775731573e-05 4.924292125164e-03 0.0 
0.0 0.0 -7.133642253441e-04 
2.432336519054e-04 6.949879094711e-06 0.0 
6.949879094711e-06 -7.294262653964e-05 0.0 
0.0 0.0 -7.298186801390e-05 
-1.342313591240e-03 -2.893823135638e-04 0.0 
-2.893823135638e-04 8.501007321383e-03 0.0 
0.0 0.0 -1.342313591240e-03 
-1.327713446301e-03 -3.071447071229e-04 0.0 
-3.071447071229e-04 8.654446540322e-03 0.0 
0.0 0.0 -1.318355947622e-03 
-1.337959751097e-03 -3.069413126871e-04 0.0 
-3.069413126871e-04 8.377273660842e-03 0.0 
0.0 0.0 -1.337959751097e-03 
5.382873424725e-04 1.051034098534e-05 0.0 
1.051034098534e-05 3.447207322761e-05 0.0 
0.0 0.0 -9.875111991497e-05 
5.465365996427e-04 1.921140548757e-05 0.0 
1.921140548757e-05 3.586604406774e-05 0.0 
0.0 0.0 -1.001629653630e-04 
-1.340754991027e-03 -2.745211848364e-04 0.0 
-2.745211848364e-04 8.326750669152e-03 0.0 
0.0 0.0 -1.340754991027e-03 
-1.340396196526e-03 -3.177254258607e-04 0.0 
-3.177254258607e-04 8.348861196928e-03 0.0 
0.0 0.0 -1.340396196526e-03 
-1.100408733265e-03 -2.290747800904e-04 0.0 
-2.290747800904e-04 6.654648242085e-03 0.0 
0.0 0.0 -9.936726122374e-04 
-8.156679351147e-04 3.791493186346e-05 0.0 
3.791493186346e-05 4.866771241895e-03 0.0 
0.0 0.0 -7.124851972278e-04 
-1.126282978383e-03 -2.242329370711e-04 0.0 
-2.242329370711e-04 7.103431173965e-03 0.0 
0.0 0.0 -1.060142436171e-03 
-9.808195587630e-04 -2.230997408213e-04 0.0 
-2.230997408213e-04 5.708119715060e-03 0.0 
0.0 0.0 -8.626607521899e-04 
-7.941305620824e-04 1.551089981454e-05 0.0 
1.551089981454e-05 4.869359917574e-03 0.0 
0.0 0.0 -7.121912678902e-04 
7.040827403612e-04 7.380490456996e-06 0.0 
7.380490456996e-06 -3.505683220774e-05 0.0 
0.0 0.0 -9.491348420367e-05 
6.357527662839e-04 -8.824699617213e-05 0.0 
-8.824699617213e-05 3.733323429846e-05 0.0 
0.0 0.0 -1.068803031330e-04 
5.856552846093e-04 -8.204592747125e-05 0.0 
-8.204592747125e-05 2.270090481132e-05 0.0 
0.0 0.0 -9.934895370439e-05 
6.682124726064e-04 -5.433044528850e-05 0.0 
-5.433044528850e-05 2.762423436657e-05 0.0 
0.0 0.0 -1.574260069802e-04 
-9.875526380001e-04 1.999683647263e-04 0.0 
1.999683647263e-04 4.756922496595e-03 0.0 
0.0 0.0 -7.271325101417e-04 
-9.022422993743e-04 1.689219604000e-04 0.0 
1.689219604000e-04 4.293373185727e-03 0.0 
0.0 0.0 -6.600769387058e-04 
0.0 0.0 0.0 
0.0 0.0 0.0 
0.0 0.0 0.0 
-1.139432736752e-03 1.969596473993e-04 0.0 
1.969596473993e-04 6.092355855196e-03 0.0 
0.0 0.0 -9.221709323543e-04 
0.0 0.0 0.0 
0.0 0.0 0.0 
0.0 0.0 0.0 
-1.341471640605e-03 2.821656468085e-04 0.0 
2.821656468085e-04 8.748357117342e-03 0.0 
0.0 0.0 -1.341471640605e-03 
-1.340968685557e-03 1.312437350478e-04 0.0 
1.312437350478e-04 8.782913575074e-03 0.0 
0.0 0.0 -1.340968685557e-03 
-1.339320413496e-03 1.880713074898e-04 0.0 
1.880713074898e-04 8.789181418084e-03 0.0 
0.0 0.0 -1.339320413496e-03 
-2.891904725790e-04 2.036868385329e-04 0.0 
2.036868385329e-04 1.487086439737e-03 0.0 
0.0 0.0 -2.599136149544e-04 
-6.430141663801e-04 1.708121578067e-04 0.0 
1.708121578067e-04 2.925097320677e-03 0.0 
0.0 0.0 -4.607467809507e-04 
-1.337132911908e-03 8.989218137943e-05 0.0 
8.989218137943e-05 8.798780956337e-03 0.0 
0.0 0.0 -1.337132911908e-03 
-1.268709771428e-03 1.750290220288e-04 0.0 
1.750290220288e-04 7.410750387042e-03 0.0 
0.0 0.0 -1.124956933753e-03 
-1.344556937803e-03 5.420067643192e-05 0.0 
5.420067643192e-05 8.841140369170e-03 0.0 
0.0 0.0 -1.344556937803e-03 
-1.309963082983e-03 1.898374887779e-04 0.0 
1.898374887779e-04 7.848623061347e-03 0.0 
0.0 0.0 -1.192538251246e-03 
-1.338506523092e-03 2.196897297750e-04 0.0 
2.196897297750e-04 8.286254789378e-03 0.0 
0.0 0.0 -1.259905836238e-03 
-8.634449756302e-04 -2.267992264203e-04 0.0 
-2.267992264203e-04 4.063283112415e-03 0.0 
0.0 0.0 -6.267460875326e-04 
-1.354536289335e-03 7.630110527830e-05 0.0 
7.630110527830e-05 9.083283423121e-03 0.0 
0.0 0.0 -1.318101597465e-03 
-1.353127036110e-03 2.052350059942e-04 0.0 
2.052350059942e-04 9.070380165704e-03 0.0 
0.0 0.0 -1.321689849711e-03 
-1.286890123680e-03 -2.394731622084e-04 0.0 
-2.394731622084e-04 7.571755325092e-03 0.0 
0.0 0.0 -1.157495185000e-03 
-1.323365826624e-03 -2.403819852103e-04 0.0 
-2.403819852103e-04 8.033634754339e-03 0.0 
0.0 0.0 -1.225777420818e-03 
-1.161453211646e-03 -3.736884005785e-04 0.0 
-3.736884005785e-04 6.493225178424e-03 0.0 
0.0 0.0 -9.925156490314e-04 
0.0 0.0 0.0 
0.0 0.0 0.0 
0.0 0.0 0.0 
-8.671818712195e-04 -5.363828857818e-04 0.0 
-5.363828857818e-04 4.105500038503e-03 0.0 
0.0 0.0 -6.350241097613e-04 
1.538446466672e-04 -5.196602102228e-05 0.0 
-5.196602102228e-05 5.032465276658e-04 0.0 
0.0 0.0 -1.372732375194e-04 
-1.212742551210e-03 -4.759587518373e-04 0.0 
-4.759587518373e-04 7.564630454968e-03 0.0 
0.0 0.0 -1.177819030284e-03 
-8.605651419967e-04 -2.779235020759e-04 0.0 
-2.779235020759e-04 4.247159815615e-03 0.0 
0.0 0.0 -6.753691525988e-04 
-1.209845026625e-03 -3.828065324347e-05 0.0 
-3.828065324347e-05 7.089490121300e-03 0.0 
0.0 0.0 -1.099016898379e-03 
-5.359685570494e-04 -6.677092728244e-04 0.0 
-6.677092728244e-04 2.153205781578e-03 0.0 
0.0 0.0 -3.504775146279e-04 
-1.805242587165e-04 1.222080852242e-05 0.0 
1.222080852242e-05 7.550645308543e-04 0.0 
0.0 0.0 -1.735952156319e-04 
-1.264456075116e-03 -3.850163355986e-04 0.0 
-3.850163355986e-04 7.592925326403e-03 0.0 
0.0 0.0 -1.161668299909e-03 
-9.012428398998e-04 -5.241478665253e-04 0.0 
-5.241478665253e-04 4.532812848754e-03 0.0 
0.0 0.0 -7.012080445024e-04 
-8.068122859681e-04 1.121430841948e-04 0.0 
1.121430841948e-04 3.618999234990e-03 0.0 
0.0 0.0 -5.611363230934e-04 
-1.221373729773e-03 -3.971185644326e-04 0.0 
-3.971185644326e-04 7.158861497178e-03 0.0 
0.0 0.0 -1.096102707776e-03 
-1.225888037185e-03 2.356398892211e-04 0.0 
2.356398892211e-04 7.926332987898e-03 0.0 
0.0 0.0 -1.188907866872e-03 
-7.850590963076e-04 -2.211249008548e-04 0.0 
-2.211249008548e-04 3.627921543623e-03 0.0 
0.0 0.0 -5.602736785587e-04 
-9.153466014746e-04 -5.672710459790e-04 0.0 
-5.672710459790e-04 6.328544019957e-03 0.0 
0.0 0.0 -1.035646790376e-03 
-9.544485914901e-04 -2.692006228927e-04 0.0 
-2.692006228927e-04 5.706833288183e-03 0.0 
0.0 0.0 -9.181742748318e-04 
-1.151482432891e-03 -1.721733511891e-05 0.0 
-1.721733511891e-05 6.426989542900e-03 0.0 
0.0 0.0 -9.952786863929e-04 
-1.189685403522e-03 2.186394532171e-05 0.0 
2.186394532171e-05 6.656907816596e-03 0.0 
0.0 0.0 -1.024224580100e-03 
-2.906015399770e-05 6.908185225539e-04 0.0 
6.908185225539e-04 2.388123543614e-03 0.0 
0.0 0.0 -5.788817793163e-04 
-8.005376655691e-04 3.171132398136e-04 0.0 
3.171132398136e-04 4.241491794382e-03 0.0 
0.0 0.0 -6.651338130661e-04 
-5.426647513542e-04 5.869195559815e-04 0.0 
5.869195559815e-04 4.187651392435e-03 0.0 
0.0 0.0 -7.293057621918e-04 
-1.068839531754e-03 -1.396982746719e-04 0.0 
-1.396982746719e-04 5.983670003937e-03 0.0 
0.0 0.0 -9.378562126457e-04 
-1.253909417431e-03 -3.654180260376e-04 0.0 
-3.654180260376e-04 7.384129283890e-03 0.0 
0.0 0.0 -1.125100902632e-03 
-1.223048658493e-03 8.194922759041e-05 0.0 
8.194922759041e-05 6.885373196445e-03 0.0 
0.0 0.0 -1.053755873404e-03 
-5.843499511654e-04 -7.478811802874e-04 0.0 
-7.478811802874e-04 2.078474299742e-03 0.0 
0.0 0.0 -3.685493992842e-04 
-1.215420929976e-03 2.914568716421e-04 0.0 
2.914568716421e-04 7.912104441246e-03 0.0 
0.0 0.0 -1.183514100502e-03 
-1.184839979766e-03 2.716593684437e-04 0.0 
2.716593684437e-04 7.456605698874e-03 0.0 
0.0 0.0 -1.117084069417e-03 
-9.160676408920e-04 2.566629763440e-04 0.0 
2.566629763440e-04 5.389449650205e-03 0.0 
0.0 0.0 -8.110481619253e-04 
-1.072043250355e-03 -1.594447290691e-04 0.0 
-1.594447290691e-04 6.194419037886e-03 0.0 
0.0 0.0 -9.753747863247e-04 
-1.113512703567e-03 -7.830874303778e-05 0.0 
-7.830874303778e-05 6.209473753146e-03 0.0 
0.0 0.0 -9.665592132828e-04 
-1.247553885459e-03 -1.638883659802e-04 0.0 
-1.638883659802e-04 8.032779373469e-03 0.0 
0.0 0.0 -1.185362187646e-03 
-1.209218779800e-03 2.395415248872e-04 0.0 
2.395415248872e-04 7.733666527183e-03 0.0 
0.0 0.0 -1.150972777267e-03 
-9.235989750770e-04 -6.984337716094e-04 0.0 
-6.984337716094e-04 5.520417486699e-03 0.0 
0.0 0.0 -8.866930489607e-04 
-1.284523920474e-03 -3.501071659254e-04 0.0 
-3.501071659254e-04 7.805517890163e-03 0.0 
0.0 0.0 -1.190872049285e-03 
-1.177897572884e-03 3.138623603337e-04 0.0 
3.138623603337e-04 7.354283994280e-03 0.0 
0.0 0.0 -1.103416240745e-03 
-1.224145241381e-03 -2.616286438841e-04 0.0 
-2.616286438841e-04 6.885317791912e-03 0.0 
0.0 0.0 -1.053748284807e-03 
-1.251504070725e-03 -4.981478354757e-04 0.0 
-4.981478354757e-04 7.817749108824e-03 0.0 
0.0 0.0 -1.210017230578e-03 
-1.240161038229e-03 -1.265963501437e-04 0.0 
-1.265963501437e-04 7.971776447579e-03 0.0 
0.0 0.0 -1.181737430652e-03 
-1.104792332721e-03 -1.417124884619e-04 0.0 
-1.417124884619e-04 6.803117520475e-03 0.0 
0.0 0.0 -1.011817915138e-03 
-9.092260506378e-04 -6.128458239001e-04 0.0 
-6.128458239001e-04 6.116526816133e-03 0.0 
0.0 0.0 -9.985655989920e-04 
-5.244393316962e-04 -3.327701467074e-07 0.0 
-3.327701467074e-07 2.217192403788e-03 0.0 
0.0 0.0 -3.644364776638e-04 
-5.557520001356e-04 -9.492103982614e-04 0.0 
-9.492103982614e-04 1.854328414375e-03 0.0 
0.0 0.0 -3.414758422231e-04 
-2.976977379688e-04 -4.729019177062e-04 0.0 
-4.729019177062e-04 1.065430610337e-03 0.0 
0.0 0.0 -1.876370064529e-04 
-1.394869518500e-05 -5.836024776206e-04 0.0 
-5.836024776206e-04 3.988673203720e-04 0.0 
0.0 0.0 -1.649651250801e-04 
-1.208849354757e-03 -1.442002111852e-04 0.0 
-1.442002111852e-04 7.751975943977e-03 0.0 
0.0 0.0 -1.150998037120e-03 
-1.270626804187e-03 5.625887811154e-05 0.0 
5.625887811154e-05 7.521765115722e-03 0.0 
0.0 0.0 -1.156839719840e-03 
-1.128430539847e-04 -4.533921113002e-04 0.0 
-4.533921113002e-04 5.125802596057e-04 0.0 
0.0 0.0 -1.512448671109e-04 
-1.224260673069e-03 1.930240191298e-04 0.0 
1.930240191298e-04 7.672098389018e-03 0.0 
0.0 0.0 -1.160298666437e-03 
-9.269777591648e-04 2.462098102623e-04 0.0 
2.462098102623e-04 5.566246555216e-03 0.0 
0.0 0.0 -8.436798659344e-04 
-1.183821186611e-03 -4.510450975400e-04 0.0 
-4.510450975400e-04 6.938898886609e-03 0.0 
0.0 0.0 -1.067477449466e-03 
-1.234042430495e-03 4.386686661325e-05 0.0 
4.386686661325e-05 7.085000705368e-03 0.0 
0.0 0.0 -1.090430023688e-03 
-4.688031105262e-04 -9.449998288247e-04 0.0 
-9.449998288247e-04 2.708853865005e-03 0.0 
0.0 0.0 -5.090628918580e-04 
-1.241127751091e-03 -3.232486977457e-04 0.0 
-3.232486977457e-04 7.146083644213e-03 0.0 
0.0 0.0 -1.087955833448e-03 
-9.128116180444e-04 -2.432084876036e-04 0.0 
-2.432084876036e-04 5.398327604704e-03 0.0 
0.0 0.0 -8.100176300978e-04 
-7.075550094797e-04 -2.554204369628e-05 0.0 
-2.554204369628e-05 5.888227624213e-03 0.0 
0.0 0.0 -1.000388816061e-03 
-1.275643571196e-03 -3.853184117788e-05 0.0 
-3.853184117788e-05 7.999890426169e-03 0.0 
0.0 0.0 -1.242964905849e-03 
-4.891437223720e-04 4.195566496952e-05 0.0 
4.195566496952e-05 2.125578513997e-03 0.0 
0.0 0.0 -3.542437553904e-04 
-1.232067324065e-03 -4.786069064869e-04 0.0 
-4.786069064869e-04 7.807210147599e-03 0.0 
0.0 0.0 -1.215045542354e-03 
-1.132051344136e-03 -1.297668119058e-04 0.0 
-1.297668119058e-04 7.059354268222e-03 0.0 
0.0 0.0 -1.048288725887e-03 
-5.597857793191e-04 4.639966247623e-05 0.0 
4.639966247623e-05 2.420049368412e-03 0.0 
0.0 0.0 -3.930611257745e-04 
-5.609737831535e-04 -1.192047374110e-03 0.0 
-1.192047374110e-03 2.290088636828e-03 0.0 
0.0 0.0 -4.034900192350e-04 
-1.019435653485e-03 2.510797196313e-05 0.0 
2.510797196313e-05 5.114500101547e-03 0.0 
0.0 0.0 -7.909606353592e-04 
-1.046153520856e-03 2.672543322815e-04 0.0 
2.672543322815e-04 6.254372891690e-03 0.0 
0.0 0.0 -9.409807611877e-04 
-7.501439557545e-04 -2.986549649001e-04 0.0 
-2.986549649001e-04 3.375633566619e-03 0.0 
0.0 0.0 -5.429771841545e-04 
-1.160690986180e-03 -1.496920489451e-04 0.0 
-1.496920489451e-04 7.303854633305e-03 0.0 
0.0 0.0 -1.085119818393e-03 
-1.069476201499e-03 -1.757346183128e-04 0.0 
-1.757346183128e-04 6.567285104211e-03 0.0 
0.0 0.0 -9.816794289629e-04 
-9.579280571301e-04 -1.773255598002e-04 0.0 
-1.773255598002e-04 4.907486764764e-03 0.0 
0.0 0.0 -7.700930343086e-04 
-1.202171244896e-03 -3.172466399621e-04 0.0 
-3.172466399621e-04 6.703539097156e-03 0.0 
0.0 0.0 -1.021757709120e-03 
-1.211296574698e-03 -3.721899322367e-04 0.0 
-3.721899322367e-04 6.940479911899e-03 0.0 
0.0 0.0 -1.058696934625e-03 
-1.135291475184e-03 2.700006977273e-04 0.0 
2.700006977273e-04 6.997454425646e-03 0.0 
0.0 0.0 -1.050681058959e-03 
-4.173596233207e-04 -3.503884104976e-04 0.0 
-3.503884104976e-04 1.875894239502e-03 0.0 
0.0 0.0 -3.058749225436e-04 
-9.447771700352e-04 -1.262936496125e-04 0.0 
-1.262936496125e-04 4.694024374325e-03 0.0 
0.0 0.0 -7.328582426338e-04 
-9.670495794898e-04 5.137281078932e-04 0.0 
5.137281078932e-04 6.920842306521e-03 0.0 
0.0 0.0 -1.141128458404e-03 
-1.159905672637e-03 -1.212910240168e-04 0.0 
-1.212910240168e-04 7.261813298966e-03 0.0 
0.0 0.0 -1.078198857115e-03 
-8.846237530489e-04 -1.118837918711e-04 0.0 
-1.118837918711e-04 4.234828904613e-03 0.0 
0.0 0.0 -6.666835465145e-04 
-9.866099674588e-04 -6.396910670883e-04 0.0 
-6.396910670883e-04 5.776957758952e-03 0.0 
0.0 0.0 -9.153036164073e-04 
-1.180273166295e-03 -5.195576023231e-04 0.0 
-5.195576023231e-04 7.573511676705e-03 0.0 
0.0 0.0 -1.187586327529e-03 
-1.090487437882e-03 2.486631283317e-04 0.0 
2.486631283317e-04 6.750183946417e-03 0.0 
0.0 0.0 -1.013969106439e-03 
4.266683345687e-05 -1.829982136319e-05 0.0 
-1.829982136319e-05 -1.175196824510e-05 0.0 
0.0 0.0 -1.324922794790e-05 
-2.207289874608e-04 -3.235795152871e-04 0.0 
-3.235795152871e-04 1.003256593638e-03 0.0 
0.0 0.0 -1.835536028976e-04 
6.095472518787e-04 -2.844414826135e-05 0.0 
-2.844414826135e-05 2.461208838896e-04 0.0 
0.0 0.0 -3.667149153293e-04 
-1.247686431213e-03 1.804464591039e-05 0.0 
1.804464591039e-05 7.316811787833e-03 0.0 
0.0 0.0 -1.127837695838e-03 
-1.073532930030e-03 2.556328204713e-04 0.0 
2.556328204713e-04 6.504084694261e-03 0.0 
0.0 0.0 -9.775003154318e-04 
-1.065496431756e-03 -3.247503852032e-04 0.0 
-3.247503852032e-04 5.643495466523e-03 0.0 
0.0 0.0 -8.513051444990e-04 
-9.769664875946e-04 2.379062424114e-04 0.0 
2.379062424114e-04 5.801214914582e-03 0.0 
0.0 0.0 -8.745614812816e-04 
-1.019950067796e-03 -4.586219499737e-04 0.0 
-4.586219499737e-04 7.042194348422e-03 0.0 
0.0 0.0 -1.139196670502e-03 
-1.001595776578e-03 -1.032368991806e-04 0.0 
-1.032368991806e-04 5.128573561517e-03 0.0 
0.0 0.0 -7.988714448434e-04 
-1.198933731184e-03 -2.304563849883e-06 0.0 
-2.304563849883e-06 6.870961844438e-03 0.0 
0.0 0.0 -1.061632825506e-03 
-4.894390167554e-04 -2.936556089740e-04 0.0 
-2.936556089740e-04 2.281659796893e-03 0.0 
0.0 0.0 -3.615122310665e-04 
-1.252320573339e-03 -4.986115071304e-05 0.0 
-4.986115071304e-05 7.805865228042e-03 0.0 
0.0 0.0 -1.211531131004e-03 
-9.705690281363e-04 -5.093762920131e-04 0.0 
-5.093762920131e-04 4.972659776742e-03 0.0 
0.0 0.0 -7.673127347790e-04 
-5.395948498915e-04 -2.749809582872e-04 0.0 
-2.749809582872e-04 2.502960479934e-03 0.0 
0.0 0.0 -3.889166325194e-04 
-9.539878925134e-04 -4.665681980887e-04 0.0 
-4.665681980887e-04 4.746329446601e-03 0.0 
0.0 0.0 -7.311132045151e-04 
-7.861451495527e-04 -2.221214863257e-04 0.0 
-2.221214863257e-04 3.593397886981e-03 0.0 
0.0 0.0 -5.716673668464e-04 
-6.390151670991e-04 -6.536657789763e-04 0.0 
-6.536657789763e-04 2.791763486177e-03 0.0 
0.0 0.0 -4.452767020142e-04 
-1.072653987371e-03 2.886861907429e-05 0.0 
2.886861907429e-05 5.536656976787e-03 0.0 
0.0 0.0 -8.564950983273e-04 
2.053402963574e-04 2.693149737115e-05 0.0 
2.693149737115e-05 -6.111100134196e-05 0.0 
0.0 0.0 -6.181255500660e-05 
1.464512989776e-04 -5.911592787119e-06 0.0 
-5.911592787119e-06 -4.332551876097e-05 0.0 
0.0 0.0 -4.419676295000e-05 
-1.129321225881e-03 -4.366761249298e-04 0.0 
-4.366761249298e-04 6.278524906094e-03 0.0 
0.0 0.0 -9.636005660098e-04 
-4.459230001805e-04 -3.109429784165e-04 0.0 
-3.109429784165e-04 2.087500805873e-03 0.0 
0.0 0.0 -3.336449385292e-04 
-1.093345380725e-03 -5.267841385720e-04 0.0 
-5.267841385720e-04 6.263877748210e-03 0.0 
0.0 0.0 -9.724388998540e-04 
-1.043259012928e-03 -5.809617148742e-04 0.0 
-5.809617148742e-04 6.025832941714e-03 0.0 
0.0 0.0 -9.438473481109e-04 
-7.593501897991e-04 -4.626236543671e-04 0.0 
-4.626236543671e-04 3.770567817408e-03 0.0 
0.0 0.0 -6.177757646845e-04 
-3.406532554668e-04 -1.201349069570e-03 0.0 
-1.201349069570e-03 1.971960000255e-03 0.0 
0.0 0.0 -4.162223005415e-04 
-1.210770017431e-03 -8.268587528123e-05 0.0 
-8.268587528123e-05 7.661732423863e-03 0.0 
0.0 0.0 -1.137719822027e-03 
2.217423052273e-04 3.028948149786e-04 0.0 
3.028948149786e-04 -1.208394326890e-05 0.0 
0.0 0.0 -8.985358369644e-05 
-8.285748112363e-04 -1.587478080269e-04 0.0 
-1.587478080269e-04 3.819529826762e-03 0.0 
0.0 0.0 -6.004815939294e-04 
-1.049679539983e-03 -3.693865297615e-04 0.0 
-3.693865297615e-04 7.240151455212e-03 0.0 
0.0 0.0 -1.175533656463e-03 
-3.983359874590e-04 4.184586300730e-05 0.0 
4.184586300730e-05 1.714439103962e-03 0.0 
0.0 0.0 -2.977570873278e-04 
-1.020229649597e-03 -1.375914676709e-04 0.0 
-1.375914676709e-04 6.101662351483e-03 0.0 
0.0 0.0 -9.088859120638e-04 
-9.450324784717e-04 -1.832830397253e-04 0.0 
-1.832830397253e-04 5.623770961517e-03 0.0 
0.0 0.0 -8.416286270284e-04 
-4.351237697251e-04 -5.540829146340e-04 0.0 
-5.540829146340e-04 1.723099038299e-03 0.0 
0.0 0.0 -2.842394630762e-04 
-1.127395628762e-03 -5.008482085009e-04 0.0 
-5.008482085009e-04 7.317936875090e-03 0.0 
0.0 0.0 -1.158722036769e-03 
-1.133506044246e-03 -8.767361897690e-05 0.0 
-8.767361897690e-05 6.959505034578e-03 0.0 
0.0 0.0 -1.034898561726e-03 
-4.951489600236e-04 -4.786425625421e-05 0.0 
-4.786425625421e-05 2.022039619189e-03 0.0 
0.0 0.0 -3.364655670308e-04 
-1.234708714507e-03 -3.925269914934e-05 0.0 
-3.925269914934e-05 7.851562311589e-03 0.0 
0.0 0.0 -1.166520446339e-03 
-1.230308234664e-03 3.090146298482e-04 0.0 
3.090146298482e-04 7.789607374426e-03 0.0 
0.0 0.0 -1.169001632583e-03 
-5.233675107163e-04 -4.314455861334e-04 0.0 
-4.314455861334e-04 2.327927411805e-03 0.0 
0.0 0.0 -3.701904734684e-04 
-5.932851689167e-04 7.473876325445e-04 0.0 
7.473876325445e-04 2.806018980480e-03 0.0 
0.0 0.0 -4.801335248058e-04 
-5.599793527513e-04 -5.941268921314e-04 0.0 
-5.941268921314e-04 2.361270480637e-03 0.0 
0.0 0.0 -3.791106726259e-04 
-1.172251179922e-03 -4.180665988864e-04 0.0 
-4.180665988864e-04 6.718010438057e-03 0.0 
0.0 0.0 -1.029923508343e-03 
-1.041340644124e-03 -3.282174640750e-05 0.0 
-3.282174640750e-05 5.343281569417e-03 0.0 
0.0 0.0 -8.276368238623e-04 
-1.238338552957e-03 5.129188831147e-04 0.0 
5.129188831147e-04 7.705442663502e-03 0.0 
0.0 0.0 -1.169529464977e-03 
-1.205798657677e-03 3.040238914407e-04 0.0 
3.040238914407e-04 7.606656415098e-03 0.0 
0.0 0.0 -1.140030709108e-03 
-1.136504455291e-03 -4.715376891294e-04 0.0 
-4.715376891294e-04 6.495059726217e-03 0.0 
0.0 0.0 -1.001167767022e-03 
-1.120337032388e-03 -1.059796522353e-04 0.0 
-1.059796522353e-04 6.426005632212e-03 0.0 
0.0 0.0 -1.004093472296e-03 
-5.274441073591e-04 -2.397572524931e-04 0.0 
-2.397572524931e-04 1.862294635062e-03 0.0 
0.0 0.0 -3.158693332420e-04 
-1.161634108540e-03 -5.320117127017e-05 0.0 
-5.320117127017e-05 6.648981173758e-03 0.0 
0.0 0.0 -1.032853941699e-03 
-1.125917341076e-03 2.991763443149e-04 0.0 
2.991763443149e-04 6.905438798140e-03 0.0 
0.0 0.0 -1.037144748481e-03 
-1.044631038411e-03 -3.631995376833e-04 0.0 
-3.631995376833e-04 5.407625222663e-03 0.0 
0.0 0.0 -8.248712778174e-04 
-1.078523674622e-03 -1.304712665821e-04 0.0 
-1.304712665821e-04 6.557738951195e-03 0.0 
0.0 0.0 -9.752741834902e-04 
-1.159347625089e-03 -9.624416522510e-05 0.0 
-9.624416522510e-05 7.210996352120e-03 0.0 
0.0 0.0 -1.071415751597e-03 
-3.318515090644e-04 6.235225383972e-04 0.0 
6.235225383972e-04 3.802912303128e-03 0.0 
0.0 0.0 -7.435371925968e-04 
-1.181769783394e-03 2.863535825742e-04 0.0 
2.863535825742e-04 7.408927706841e-03 0.0 
0.0 0.0 -1.110258267496e-03 
-9.356896319010e-04 -4.816204734149e-05 0.0 
-4.816204734149e-05 4.523878489702e-03 0.0 
0.0 0.0 -6.965171720950e-04 
-1.013439798328e-03 -4.389789435164e-04 0.0 
-4.389789435164e-04 5.194362623047e-03 0.0 
0.0 0.0 -7.960639764766e-04 
-7.588476473929e-04 -1.047638361378e-04 0.0 
-1.047638361378e-04 3.390478407872e-03 0.0 
0.0 0.0 -5.342291996904e-04 
-6.729613587978e-04 -9.978092115441e-04 0.0 
-9.978092115441e-04 3.336051263368e-03 0.0 
0.0 0.0 -5.581583723280e-04 
-1.100329888420e-03 2.776105336716e-04 0.0 
2.776105336716e-04 6.705832396394e-03 0.0 
0.0 0.0 -1.007339817349e-03 
-7.155066052029e-04 -8.941200741794e-04 0.0 
-8.941200741794e-04 4.520636252880e-03 0.0 
0.0 0.0 -7.637833264599e-04 
-5.880444497108e-04 -5.324378047215e-04 0.0 
-5.324378047215e-04 2.570561499900e-03 0.0 
0.0 0.0 -4.077494273363e-04 
-3.167379964521e-04 -3.896430801043e-04 0.0 
-3.896430801043e-04 1.286713823890e-03 0.0 
0.0 0.0 -2.185673950299e-04 
-1.104743277708e-03 -1.081634182050e-04 0.0 
-1.081634182050e-04 6.759513962222e-03 0.0 
0.0 0.0 -1.005115000480e-03 
-6.259157449930e-04 -2.410202634238e-04 0.0 
-2.410202634238e-04 2.506664290233e-03 0.0 
0.0 0.0 -4.107160730352e-04 
-1.199872170886e-03 -1.045804178386e-04 0.0 
-1.045804178386e-04 7.736983325214e-03 0.0 
0.0 0.0 -1.218716866995e-03 
-1.124972404341e-03 2.718592290333e-04 0.0 
2.718592290333e-04 6.955187210285e-03 0.0 
0.0 0.0 -1.043883448597e-03 
-1.171061824699e-03 -7.858396141652e-05 0.0 
-7.858396141652e-05 6.870002089505e-03 0.0 
0.0 0.0 -1.070373463590e-03 
-1.223592225032e-03 -6.654680312814e-05 0.0 
-6.654680312814e-05 7.796071319491e-03 0.0 
0.0 0.0 -1.284729618418e-03 
-8.862225412837e-04 -4.776674958030e-04 0.0 
-4.776674958030e-04 4.314456893826e-03 0.0 
0.0 0.0 -6.637377122259e-04 
-5.666876201447e-04 -1.260874714856e-04 0.0 
-1.260874714856e-04 2.263003673050e-03 0.0 
0.0 0.0 -3.731618544809e-04 
-4.219134531154e-04 -1.222472695970e-04 0.0 
-1.222472695970e-04 1.397809828057e-03 0.0 
0.0 0.0 -2.496210768721e-04 
-1.097286575279e-03 -5.440934378647e-04 0.0 
-5.440934378647e-04 6.473058930747e-03 0.0 
0.0 0.0 -1.009908742814e-03 
-1.043727317765e-03 2.472408857258e-04 0.0 
2.472408857258e-04 6.306661261885e-03 0.0 
0.0 0.0 -9.473489374553e-04 
-2.695681844680e-04 -5.290039554231e-05 0.0 
-5.290039554231e-05 9.382689285882e-04 0.0 
0.0 0.0 -1.858848441742e-04 
-7.364560019706e-04 -6.036242025600e-04 0.0 
-6.036242025600e-04 3.440005901319e-03 0.0 
0.0 0.0 -5.400474096907e-04 
-4.035403746382e-04 -2.305403145177e-04 0.0 
-2.305403145177e-04 2.024884021199e-03 0.0 
0.0 0.0 -3.246070344129e-04 
-1.046680963677e-03 -1.140431221757e-04 0.0 
-1.140431221757e-04 6.307213054075e-03 0.0 
0.0 0.0 -9.387834224271e-04 
-7.632592856577e-04 -5.393132933556e-04 0.0 
-5.393132933556e-04 3.657861775186e-03 0.0 
0.0 0.0 -5.687878759048e-04 
-1.016724206552e-03 -2.154888859726e-04 0.0 
-2.154888859726e-04 5.955453979487e-03 0.0 
0.0 0.0 -9.467935652645e-04 
-7.568020148065e-04 -4.521860907560e-04 0.0 
-4.521860907560e-04 3.415229586271e-03 0.0 
0.0 0.0 -5.337555413938e-04 
-1.189199624854e-03 -1.376681473433e-04 0.0 
-1.376681473433e-04 7.515170933533e-03 0.0 
0.0 0.0 -1.114809527198e-03 
-6.923550043241e-04 -2.768469088006e-04 0.0 
-2.768469088006e-04 2.945508556802e-03 0.0 
0.0 0.0 -4.768663991247e-04 
-1.044644236131e-03 -5.895775659962e-04 0.0 
-5.895775659962e-04 6.433247658548e-03 0.0 
0.0 0.0 -1.018590841688e-03 
-5.377186267121e-04 -1.162421830740e-03 0.0 
-1.162421830740e-03 1.924594638442e-03 0.0 
0.0 0.0 -3.376433569222e-04 
-1.043635089924e-03 -5.925974921427e-04 0.0 
-5.925974921427e-04 6.227817584456e-03 0.0 
0.0 0.0 -9.812220007866e-04 
-9.943565397434e-04 -3.497380212248e-04 0.0 
-3.497380212248e-04 4.987357588882e-03 0.0 
0.0 0.0 -7.604224332210e-04 
-1.126398211161e-03 -1.231258313828e-04 0.0 
-1.231258313828e-04 6.641179692916e-03 0.0 
0.0 0.0 -1.041555045145e-03 
9.223743664251e-05 -1.553032727052e-04 0.0 
-1.553032727052e-04 2.018845935385e-03 0.0 
0.0 0.0 -5.350282927002e-04 
-4.513551852745e-04 7.961954421126e-05 0.0 
7.961954421126e-05 1.942718085049e-03 0.0 
0.0 0.0 -3.277310168339e-04 
-9.768870302484e-04 -1.535527430477e-04 0.0 
-1.535527430477e-04 5.889109902335e-03 0.0 
0.0 0.0 -8.787268422831e-04 
-6.833158998415e-04 -4.842839122641e-04 0.0 
-4.842839122641e-04 5.519329349180e-03 0.0 
0.0 0.0 -9.464297096767e-04 
-6.696248071327e-04 9.527190214272e-04 0.0 
9.527190214272e-04 3.942995259938e-03 0.0 
0.0 0.0 -6.776081642141e-04 
-1.047238839157e-03 -1.563485093405e-04 0.0 
-1.563485093405e-04 6.341652196106e-03 0.0 
0.0 0.0 -9.453210152248e-04 
-5.135632802951e-04 -1.406486370917e-03 0.0 
-1.406486370917e-03 1.993823835031e-03 0.0 
0.0 0.0 -3.758914132629e-04 
-1.070153882220e-03 3.026802387506e-04 0.0 
3.026802387506e-04 6.407668419037e-03 0.0 
0.0 0.0 -9.642804585795e-04 
-3.826150946160e-04 -2.687090143275e-04 0.0 
-2.687090143275e-04 1.814458781029e-03 0.0 
0.0 0.0 -2.947674122297e-04 
-1.169970312209e-03 -5.285152303079e-04 0.0 
-5.285152303079e-04 7.359319887074e-03 0.0 
0.0 0.0 -1.150402778756e-03 
-7.093705364921e-04 -3.773457786927e-04 0.0 
-3.773457786927e-04 5.766663180528e-03 0.0 
0.0 0.0 -9.834711240942e-04 
-7.789396793629e-04 4.773750927831e-05 0.0 
4.773750927831e-05 6.190226744614e-03 0.0 
0.0 0.0 -1.037051012011e-03 
-1.266259122541e-03 -6.932227906499e-05 0.0 
-6.932227906499e-05 8.127793637496e-03 0.0 
0.0 0.0 -1.204463612412e-03 
-7.768385389529e-04 -8.073428107716e-04 0.0 
-8.073428107716e-04 4.980090398291e-03 0.0 
0.0 0.0 -8.294769417472e-04 
-4.699473644088e-04 -6.813726004672e-05 0.0 
-6.813726004672e-05 1.813879272209e-03 0.0 
0.0 0.0 -3.081489256106e-04 
-9.161062287207e-04 -6.850931603516e-04 0.0 
-6.850931603516e-04 5.713761905663e-03 0.0 
0.0 0.0 -9.239488535170e-04 
-1.173047693050e-03 -1.052473736579e-04 0.0 
-1.052473736579e-04 7.508097487322e-03 0.0 
0.0 0.0 -1.189963100592e-03 
-4.497409859123e-04 -1.426160803811e-03 0.0 
-1.426160803811e-03 2.458822638814e-03 0.0 
0.0 0.0 -4.786098583285e-04 
-1.143974714499e-03 -4.976969720053e-04 0.0 
-4.976969720053e-04 6.710156245847e-03 0.0 
0.0 0.0 -1.038675661098e-03 
-1.132883010551e-03 -1.192006961438e-04 0.0 
-1.192006961438e-04 7.009605316192e-03 0.0 
0.0 0.0 -1.041631482750e-03 
-1.897791220570e-04 -1.328549867833e-03 0.0 
-1.328549867833e-03 1.573915984256e-03 0.0 
0.0 0.0 -3.880698300753e-04 
-9.832169528241e-04 -6.401107558717e-04 0.0 
-6.401107558717e-04 5.975097252107e-03 0.0 
0.0 0.0 -9.525765839929e-04 
-9.785039199354e-04 -1.168734358181e-04 0.0 
-1.168734358181e-04 5.790498942477e-03 0.0 
0.0 0.0 -8.663127257149e-04 
-5.996048706546e-04 -3.316912815730e-04 0.0 
-3.316912815730e-04 2.740125406625e-03 0.0 
0.0 0.0 -4.280652785065e-04 
-7.035123059792e-04 -6.874159131133e-04 0.0 
-6.874159131133e-04 3.217847307373e-03 0.0 
0.0 0.0 -5.113914792957e-04 
-7.105655773308e-04 4.972009427012e-04 0.0 
4.972009427012e-04 4.827811336805e-03 0.0 
0.0 0.0 -8.004334922225e-04 
-1.074750193164e-03 -1.697498961518e-04 0.0 
-1.697498961518e-04 6.403492678198e-03 0.0 
0.0 0.0 -1.012809740122e-03 
-7.035308576128e-04 5.382426947374e-04 0.0 
5.382426947374e-04 3.806026837703e-03 0.0 
0.0 0.0 -6.201901524263e-04 
-6.308101104936e-04 5.457451351616e-04 0.0 
5.457451351616e-04 4.514197146446e-03 0.0 
0.0 0.0 -7.649884091348e-04 
-1.098080609149e-03 3.025878807238e-04 0.0 
3.025878807238e-04 6.656267622990e-03 0.0 
0.0 0.0 -1.000670320419e-03 
-1.014704614523e-03 2.583884235807e-04 0.0 
2.583884235807e-04 6.049064620228e-03 0.0 
0.0 0.0 -9.110000341593e-04 
-1.009261189838e-03 2.792149560740e-04 0.0 
2.792149560740e-04 5.955274274962e-03 0.0 
0.0 0.0 -8.984003255416e-04 
-9.871449342436e-04 -7.213431481816e-05 0.0 
-7.213431481816e-05 4.924174820230e-03 0.0 
0.0 0.0 -7.627602282935e-04 
-1.065656897570e-03 -5.121112680600e-04 0.0 
-5.121112680600e-04 7.066736918301e-03 0.0 
0.0 0.0 -1.130631056169e-03 
-8.421677165309e-04 -7.268506017030e-04 0.0 
-7.268506017030e-04 5.443918430101e-03 0.0 
0.0 0.0 -8.953295484280e-04 
-9.945000348060e-04 -1.248826091764e-04 0.0 
-1.248826091764e-04 5.857149722276e-03 0.0 
0.0 0.0 -8.720525204519e-04 
-1.238633943108e-03 1.686741563001e-04 0.0 
1.686741563001e-04 7.876441362665e-03 0.0 
0.0 0.0 -1.193584144721e-03 
-8.522957180035e-04 9.316442431590e-05 0.0 
9.316442431590e-05 6.488948212224e-03 0.0 
0.0 0.0 -1.073433710836e-03 
-1.015779217143e-03 -2.144660185469e-04 0.0 
-2.144660185469e-04 6.157749518334e-03 0.0 
0.0 0.0 -9.841343610905e-04 
-1.152967284980e-03 2.909720530725e-04 0.0 
2.909720530725e-04 7.156656236309e-03 0.0 
0.0 0.0 -1.073677668998e-03 
-7.263162190416e-04 -8.886940194724e-04 0.0 
-8.886940194724e-04 3.588121008828e-03 0.0 
0.0 0.0 -5.862626530915e-04 
-7.235359723586e-04 -7.958794651799e-04 0.0 
-7.958794651799e-04 3.410683047674e-03 0.0 
0.0 0.0 -5.488365039436e-04 
-4.694757851361e-04 -5.127005261343e-04 0.0 
-5.127005261343e-04 1.922171349029e-03 0.0 
0.0 0.0 -3.130684191733e-04 
-9.104943950574e-04 -6.552016600707e-04 0.0 
-6.552016600707e-04 5.911258485735e-03 0.0 
0.0 0.0 -9.612598090090e-04 
-7.654832124176e-04 -7.002445478485e-04 0.0 
-7.002445478485e-04 3.645865785489e-03 0.0 
0.0 0.0 -5.775003002374e-04 
-1.075243583964e-03 -1.050257747268e-04 0.0 
-1.050257747268e-04 6.505297040680e-03 0.0 
0.0 0.0 -9.686535345556e-04 
-1.046091552134e-03 -1.046643629052e-04 0.0 
-1.046643629052e-04 6.253743570569e-03 0.0 
0.0 0.0 -9.322463471790e-04 
-3.156258732897e-04 -6.342992802895e-05 0.0 
-6.342992802895e-05 4.063447682096e-03 0.0 
0.0 0.0 -7.690363516573e-04 
-6.768678335791e-04 -4.944889426237e-04 0.0 
-4.944889426237e-04 2.924353115240e-03 0.0 
0.0 0.0 -4.860199686152e-04 
7.378566886558e-05 8.261792693270e-04 0.0 
8.261792693270e-04 1.831438910589e-03 0.0 
0.0 0.0 -5.148587792422e-04 
-7.140205863396e-04 -3.895142562213e-04 0.0 
-3.895142562213e-04 3.153467660832e-03 0.0 
0.0 0.0 -5.143448975765e-04 
-7.166082742775e-04 -4.898417450174e-04 0.0 
-4.898417450174e-04 3.345585253682e-03 0.0 
0.0 0.0 -5.517963299543e-04 
-5.453825262275e-04 -1.801577044467e-04 0.0 
-1.801577044467e-04 2.063785108327e-03 0.0 
0.0 0.0 -3.446931235564e-04 
-9.991919087570e-04 -5.159677692080e-04 0.0 
-5.159677692080e-04 6.812973713771e-03 0.0 
0.0 0.0 -1.101849228969e-03 
-6.361621297383e-04 -6.326273812119e-04 0.0 
-6.326273812119e-04 3.840813039186e-03 0.0 
0.0 0.0 -6.642957827475e-04 
-1.186458515100e-03 -1.053251154620e-04 0.0 
-1.053251154620e-04 7.463739247015e-03 0.0 
0.0 0.0 -1.107989045227e-03 
-5.978205852498e-04 -6.030872319160e-04 0.0 
-6.030872319160e-04 3.997835835114e-03 0.0 
0.0 0.0 -7.013039408444e-04 
-8.766496605348e-04 -2.938506230370e-04 0.0 
-2.938506230370e-04 5.643098139245e-03 0.0 
0.0 0.0 -9.268471029391e-04 
-7.458770769302e-04 -4.494771908485e-04 0.0 
-4.494771908485e-04 4.730820068739e-03 0.0 
0.0 0.0 -7.951651613512e-04 
-5.061128914291e-04 5.136368614140e-04 0.0 
5.136368614140e-04 4.289096613620e-03 0.0 
0.0 0.0 -7.567435594048e-04 
-4.924031779586e-04 -4.582157831525e-04 0.0 
-4.582157831525e-04 2.128157277405e-03 0.0 
0.0 0.0 -3.417109511102e-04 
-1.119466152649e-03 -1.285123435513e-04 0.0 
-1.285123435513e-04 7.241871223374e-03 0.0 
0.0 0.0 -1.161691925552e-03 
-1.157276862038e-03 -5.152756470004e-04 0.0 
-5.152756470004e-04 7.595110461611e-03 0.0 
0.0 0.0 -1.198716319349e-03 
-9.186810373389e-04 7.206447187045e-04 0.0 
7.206447187045e-04 5.929294122594e-03 0.0 
0.0 0.0 -9.650368815299e-04 
-7.024384046348e-04 -5.668947943432e-04 0.0 
-5.668947943432e-04 3.521466880882e-03 0.0 
0.0 0.0 -5.892385666867e-04 
-8.092329254756e-04 -3.679333936268e-04 0.0 
-3.679333936268e-04 5.184879506691e-03 0.0 
0.0 0.0 -8.609535187098e-04 
-1.070645862318e-03 2.880325294516e-04 0.0 
2.880325294516e-04 6.451710160525e-03 0.0 
0.0 0.0 -9.708520278613e-04 
-7.765899253724e-04 -7.845646391497e-04 0.0 
-7.845646391497e-04 3.835907640370e-03 0.0 
0.0 0.0 -6.148791393494e-04 
-5.560475869297e-04 7.086124654578e-04 0.0 
7.086124654578e-04 3.695652655845e-03 0.0 
0.0 0.0 -6.394234923164e-04 
-6.747584532598e-04 -5.770366254477e-04 0.0 
-5.770366254477e-04 3.009985049056e-03 0.0 
0.0 0.0 -4.739097840058e-04 
-4.381090568186e-04 -1.552304285074e-03 0.0 
-1.552304285074e-03 2.041510460725e-03 0.0 
0.0 0.0 -4.132304097957e-04 
-7.141863963918e-04 -9.568035345241e-04 0.0 
-9.568035345241e-04 3.752753679619e-03 0.0 
0.0 0.0 -6.236739531379e-04 
-6.528961987011e-04 -1.781186145787e-04 0.0 
-1.781186145787e-04 2.715857529516e-03 0.0 
0.0 0.0 -4.393534411964e-04 
-5.596275213697e-04 -3.829013705402e-04 0.0 
-3.829013705402e-04 2.536190508459e-03 0.0 
0.0 0.0 -3.988888273503e-04 
-7.947060353366e-04 -8.306305145241e-04 0.0 
-8.306305145241e-04 4.800715564885e-03 0.0 
0.0 0.0 -7.922809795675e-04 
-9.495117069836e-04 -2.555007117944e-04 0.0 
-2.555007117944e-04 5.904688651206e-03 0.0 
0.0 0.0 -9.554846610150e-04 
-1.106451546740e-03 6.547273223382e-04 0.0 
6.547273223382e-04 7.113693437201e-03 0.0 
0.0 0.0 -1.128610778606e-03 
5.517197538679e-04 6.942037793557e-07 0.0 
6.942037793557e-07 5.222913432921e-05 0.0 
0.0 0.0 -1.143255210630e-04 
-3.502562365249e-04 -5.244252159893e-04 0.0 
-5.244252159893e-04 3.531851922803e-03 0.0 
0.0 0.0 -6.818868151028e-04 
-4.968184483203e-04 -6.518828778024e-04 0.0 
-6.518828778024e-04 3.693766435261e-03 0.0 
0.0 0.0 -6.732431144785e-04 
-6.734388902022e-04 -6.179988430692e-04 0.0 
-6.179988430692e-04 3.684173063462e-03 0.0 
0.0 0.0 -6.268095852860e-04 
-1.038674892423e-03 2.849365380829e-04 0.0 
2.849365380829e-04 6.200994707550e-03 0.0 
0.0 0.0 -9.344164207832e-04 
-6.877399303223e-04 -5.371529877498e-04 0.0 
-5.371529877498e-04 4.282013621241e-03 0.0 
0.0 0.0 -7.295442444478e-04 
-7.236126278911e-04 -1.940798346154e-04 0.0 
-1.940798346154e-04 3.162977138653e-03 0.0 
0.0 0.0 -5.055050897130e-04 
-6.903954199582e-04 -9.883908706268e-04 0.0 
-9.883908706268e-04 3.912237901394e-03 0.0 
0.0 0.0 -6.611654675676e-04 
-1.160544064243e-03 2.681116606983e-04 0.0 
2.681116606983e-04 7.207667667947e-03 0.0 
0.0 0.0 -1.080452943103e-03 
-7.185620229440e-04 -5.086767079658e-04 0.0 
-5.086767079658e-04 3.228512561114e-03 0.0 
0.0 0.0 -5.025663706543e-04 
-3.033530584322e-04 -3.126589283008e-05 0.0 
-3.126589283008e-05 1.124202721504e-03 0.0 
0.0 0.0 -2.132551421006e-04 
-4.445863950683e-04 -1.098673452603e-04 0.0 
-1.098673452603e-04 1.624443337862e-03 0.0 
0.0 0.0 -2.784575373548e-04 
-4.556609783406e-04 -1.046441961485e-03 0.0 
-1.046441961485e-03 2.312897280805e-03 0.0 
0.0 0.0 -4.444240490352e-04 
-6.671697262521e-04 -6.094353393578e-04 0.0 
-6.094353393578e-04 3.102567689836e-03 0.0 
0.0 0.0 -5.239304829885e-04 
-4.604694554278e-04 -5.460587614430e-04 0.0 
-5.460587614430e-04 3.852686059404e-03 0.0 
0.0 0.0 -7.099160536912e-04 
-6.597409171735e-04 -9.847744191674e-04 0.0 
-9.847744191674e-04 4.070104714955e-03 0.0 
0.0 0.0 -6.984076724203e-04 
-4.347846215514e-04 -1.333971923402e-03 0.0 
-1.333971923402e-03 1.612936656771e-03 0.0 
0.0 0.0 -3.343205611582e-04 
-3.976613437580e-04 -3.897326152451e-04 0.0 
-3.897326152451e-04 1.671878635782e-03 0.0 
0.0 0.0 -2.765202162382e-04 
-1.033660003461e-03 -1.033996314703e-04 0.0 
-1.033996314703e-04 5.926247048388e-03 0.0 
0.0 0.0 -8.885078876198e-04 
-6.226964712633e-04 -4.829751825411e-04 0.0 
-4.829751825411e-04 2.780306463648e-03 0.0 
0.0 0.0 -4.363975895258e-04 
-9.598608129299e-04 -1.512388155027e-04 0.0 
-1.512388155027e-04 6.520728160314e-03 0.0 
0.0 0.0 -1.067401112627e-03 
-1.044199175907e-03 6.711789122637e-04 0.0 
6.711789122637e-04 6.814869566682e-03 0.0 
0.0 0.0 -1.093380752811e-03 
-1.033158695296e-03 1.201714905428e-04 0.0 
1.201714905428e-04 5.943900742884e-03 0.0 
0.0 0.0 -9.013836717722e-04 
-1.202438437016e-03 3.703852775580e-04 0.0 
3.703852775580e-04 7.497052002657e-03 0.0 
0.0 0.0 -1.126084317643e-03 
-1.147719962247e-03 6.494223347106e-04 0.0 
6.494223347106e-04 7.391690108111e-03 0.0 
0.0 0.0 -1.164310864388e-03 
-2.878547429469e-04 1.154238477974e-04 0.0 
1.154238477974e-04 3.877857573592e-03 0.0 
0.0 0.0 -7.408850503417e-04 
-9.791568623396e-04 6.928855181129e-04 0.0 
6.928855181129e-04 6.367692588182e-03 0.0 
0.0 0.0 -1.029042339204e-03 
-3.868820834042e-04 -1.598175067219e-03 0.0 
-1.598175067219e-03 1.640588266591e-03 0.0 
0.0 0.0 -3.684254322556e-04 
-7.608485108981e-04 -8.950598342909e-04 0.0 
-8.950598342909e-04 4.184728790858e-03 0.0 
0.0 0.0 -6.894573431515e-04 
-3.726378683448e-04 9.309707187506e-04 0.0 
9.309707187506e-04 3.521132831243e-03 0.0 
0.0 0.0 -6.879681371099e-04 
1.475700378225e-04 -1.082055056136e-03 0.0 
-1.082055056136e-03 1.153328364632e-03 0.0 
0.0 0.0 -4.001859895708e-04 
-2.322378270667e-04 -1.414305700121e-03 0.0 
-1.414305700121e-03 1.285051000812e-03 0.0 
0.0 0.0 -3.718692805502e-04 
-7.624977688682e-04 -3.873820506890e-04 0.0 
-3.873820506890e-04 3.581246965727e-03 0.0 
0.0 0.0 -5.804062017457e-04 
-5.687072458126e-04 -1.053499292402e-03 0.0 
-1.053499292402e-03 3.769545573336e-03 0.0 
0.0 0.0 -6.703429011759e-04 
-5.303660715230e-04 -9.834601585863e-04 0.0 
-9.834601585863e-04 3.928073668805e-03 0.0 
0.0 0.0 -7.070647534220e-04 
-6.858142190642e-04 -1.264292236945e-04 0.0 
-1.264292236945e-04 2.925987856864e-03 0.0 
0.0 0.0 -4.680152132766e-04 
-6.589899224581e-04 -5.005558218905e-04 0.0 
-5.005558218905e-04 4.450521373462e-03 0.0 
0.0 0.0 -7.666177146937e-04 
-4.231487579380e-04 -9.909487264928e-04 0.0 
-9.909487264928e-04 3.613001704936e-03 0.0 
0.0 0.0 -6.790125122095e-04 
-3.369199789232e-04 -3.555417311412e-04 0.0 
-3.555417311412e-04 3.718100603305e-03 0.0 
0.0 0.0 -7.183521444552e-04 
-6.803758157452e-04 -9.028741567956e-04 0.0 
-9.028741567956e-04 3.171875899076e-03 0.0 
0.0 0.0 -5.205443542100e-04 
-6.888642757158e-04 -2.049706033719e-04 0.0 
-2.049706033719e-04 5.802071078045e-03 0.0 
0.0 0.0 -9.921115096417e-04 
-1.107658319106e-03 -8.404497540785e-05 0.0 
-8.404497540785e-05 6.709473481144e-03 0.0 
0.0 0.0 -9.984673180476e-04 
-2.379293217191e-04 -2.443881819662e-04 0.0 
-2.443881819662e-04 3.409073247204e-03 0.0 
0.0 0.0 -6.904379518788e-04 
-1.046303389369e-03 -1.114400525399e-04 0.0 
-1.114400525399e-04 6.996162598283e-03 0.0 
0.0 0.0 -1.133495712197e-03 
-3.268910950442e-04 -1.748504239578e-03 0.0 
-1.748504239578e-03 1.649599373731e-03 0.0 
0.0 0.0 -3.849690761666e-04 
-1.105326955299e-03 -1.209562394880e-05 0.0 
-1.209562394880e-05 7.506917461540e-03 0.0 
0.0 0.0 -1.208505026952e-03 
-5.639712272191e-04 -5.345864669017e-04 0.0 
-5.345864669017e-04 4.155944038547e-03 0.0 
0.0 0.0 -7.381355003807e-04 
-1.181963174499e-03 7.139086798359e-04 0.0 
7.139086798359e-04 7.734753846791e-03 0.0 
0.0 0.0 -1.203459118631e-03 
-9.741416899861e-04 2.978325655321e-04 0.0 
2.978325655321e-04 5.872577927131e-03 0.0 
0.0 0.0 -9.144069900286e-04 
-4.654888822043e-04 -1.140967963864e-03 0.0 
-1.140967963864e-03 1.931638852762e-03 0.0 
0.0 0.0 -3.788569260404e-04 
-1.047582909248e-03 1.584393688340e-04 0.0 
1.584393688340e-04 6.105623494628e-03 0.0 
0.0 0.0 -9.292863832265e-04 
-1.220879085669e-03 4.419497771274e-04 0.0 
4.419497771274e-04 7.616026390278e-03 0.0 
0.0 0.0 -1.148369591821e-03 
-5.398601850951e-04 -4.406973068625e-04 0.0 
-4.406973068625e-04 4.330390544396e-03 0.0 
0.0 0.0 -7.747733155264e-04 
-3.603331338578e-04 8.676550475076e-04 0.0 
8.676550475076e-04 2.963522800416e-03 0.0 
0.0 0.0 -5.621395992319e-04 
-1.057553285601e-03 1.944669215669e-04 0.0 
1.944669215669e-04 6.263161490160e-03 0.0 
0.0 0.0 -9.572423940436e-04 
-7.057059362099e-04 9.012515937016e-04 0.0 
9.012515937016e-04 4.348665847300e-03 0.0 
0.0 0.0 -7.402445244775e-04 
-4.362988120307e-04 -1.127161443736e-03 0.0 
-1.127161443736e-03 1.552148016574e-03 0.0 
0.0 0.0 -3.359502462693e-04 
-1.283659217910e-03 4.297574681589e-04 0.0 
4.297574681589e-04 8.390487106861e-03 0.0 
0.0 0.0 -1.259077240559e-03 
-4.445080952730e-04 -7.847967672699e-04 0.0 
-7.847967672699e-04 1.460661056520e-03 0.0 
0.0 0.0 -3.199353184197e-04 
-1.015479846412e-03 -4.911816191571e-05 0.0 
-4.911816191571e-05 7.389564650234e-03 0.0 
0.0 0.0 -1.194426649262e-03 
-1.235108043989e-03 2.931339570481e-04 0.0 
2.931339570481e-04 7.856142431297e-03 0.0 
0.0 0.0 -1.175981821618e-03 
-7.472334457018e-04 -2.848888603522e-04 0.0 
-2.848888603522e-04 6.030064979728e-03 0.0 
0.0 0.0 -1.020516803968e-03 
-1.010840280569e-03 2.871682712165e-04 0.0 
2.871682712165e-04 5.990467797945e-03 0.0 
0.0 0.0 -9.041796124736e-04 
-1.188290086785e-03 -4.131460252783e-05 0.0 
-4.131460252783e-05 7.360236208895e-03 0.0 
0.0 0.0 -1.094228678348e-03 
-3.956150081579e-04 -8.444363927456e-04 0.0 
-8.444363927456e-04 3.798159061747e-03 0.0 
0.0 0.0 -7.154996274706e-04 
-4.250562518241e-04 -8.715186287138e-05 0.0 
-8.715186287138e-05 4.576837397274e-03 0.0 
0.0 0.0 -8.337527902170e-04 
-1.236732889268e-03 3.932687216903e-04 0.0 
3.932687216903e-04 7.932024372295e-03 0.0 
0.0 0.0 -1.191782302182e-03 
-1.016762164362e-03 -2.009947599505e-04 0.0 
-2.009947599505e-04 6.362580938042e-03 0.0 
0.0 0.0 -1.021464098896e-03 
-1.135162035509e-03 -5.768530929232e-05 0.0 
-5.768530929232e-05 6.910041935378e-03 0.0 
0.0 0.0 -1.028225029406e-03 
-7.343430317228e-04 -7.671896480507e-05 0.0 
-7.671896480507e-05 5.717453709460e-03 0.0 
0.0 0.0 -9.780777104595e-04 
-3.572725597686e-04 -1.352690279400e-03 0.0 
-1.352690279400e-03 1.583802329561e-03 0.0 
0.0 0.0 -3.505936111242e-04 
-1.159722748538e-03 -3.230530369319e-05 0.0 
-3.230530369319e-05 7.104974861712e-03 0.0 
0.0 0.0 -1.057861461704e-03 
-1.213686028729e-03 4.975227447854e-04 0.0 
4.975227447854e-04 8.277647080915e-03 0.0 
0.0 0.0 -1.268085107495e-03 
-1.141634375887e-03 -6.383832911746e-05 0.0 
-6.383832911746e-05 7.496062386317e-03 0.0 
0.0 0.0 -1.202195648613e-03 
-7.172722051064e-04 -5.438382500790e-04 0.0 
-5.438382500790e-04 4.116936776522e-03 0.0 
0.0 0.0 -6.923681691211e-04 
-1.013061704463e-03 -1.285173007321e-04 0.0 
-1.285173007321e-04 6.040176746182e-03 0.0 
0.0 0.0 -9.020111041354e-04 
-9.803558555424e-04 2.819126364211e-04 0.0 
2.819126364211e-04 5.747481973327e-03 0.0 
0.0 0.0 -8.677534307045e-04 
-6.277772364563e-04 -9.505441527148e-04 0.0 
-9.505441527148e-04 4.228315103377e-03 0.0 
0.0 0.0 -7.352749011056e-04 
-9.471295400473e-04 -2.290448642546e-04 0.0 
-2.290448642546e-04 6.104893151692e-03 0.0 
0.0 0.0 -9.927925938929e-04 
-9.496787292750e-04 -1.931802113086e-04 0.0 
-1.931802113086e-04 6.308676304585e-03 0.0 
0.0 0.0 -1.030113165296e-03 
-3.367468350593e-04 -4.171493311675e-04 0.0 
-4.171493311675e-04 1.462207300335e-03 0.0 
0.0 0.0 -2.466400652194e-04 
1.723252799300e-04 1.006036226683e-03 0.0 
1.006036226683e-03 1.258635118435e-03 0.0 
0.0 0.0 -4.508272210452e-04 
-2.636139264689e-04 -4.295683990350e-05 0.0 
-4.295683990350e-05 3.648292398008e-03 0.0 
0.0 0.0 -7.269793770173e-04 
-2.881552402749e-04 -7.723163841178e-04 0.0 
-7.723163841178e-04 3.494059092135e-03 0.0 
0.0 0.0 -6.875569550716e-04 
-5.987135522068e-04 9.581338196100e-04 0.0 
9.581338196100e-04 4.121697912248e-03 0.0 
0.0 0.0 -7.320784846625e-04 
-1.264443641134e-03 9.169602624825e-06 0.0 
9.169602624825e-06 8.228641212544e-03 0.0 
0.0 0.0 -1.225426844749e-03 
-1.225437596415e-03 5.454708430458e-04 0.0 
5.454708430458e-04 7.618255897701e-03 0.0 
0.0 0.0 -1.162686153705e-03 
-1.236580353686e-03 -8.584500076515e-05 0.0 
-8.584500076515e-05 7.903871079557e-03 0.0 
0.0 0.0 -1.173632101657e-03 
-7.521471418708e-04 4.524177914914e-04 0.0 
4.524177914914e-04 4.089944836528e-03 0.0 
0.0 0.0 -6.556197767577e-04 
-1.172411158405e-03 4.147315892345e-04 0.0 
4.147315892345e-04 7.176351707369e-03 0.0 
0.0 0.0 -1.082713561900e-03 
-9.808832725520e-04 -6.235651659416e-04 0.0 
-6.235651659416e-04 6.175367423925e-03 0.0 
0.0 0.0 -9.899156953211e-04 
-1.256868554146e-03 3.642260226585e-04 0.0 
3.642260226585e-04 8.010570571666e-03 0.0 
0.0 0.0 -1.198415070424e-03 
-1.131244473165e-03 -2.609112415896e-05 0.0 
-2.609112415896e-05 6.847199996424e-03 0.0 
0.0 0.0 -1.021631336281e-03 
-7.398403296460e-04 -9.100435650523e-04 0.0 
-9.100435650523e-04 4.351978419830e-03 0.0 
0.0 0.0 -7.266350563285e-04 
-1.966131980491e-04 1.343789576191e-04 0.0 
1.343789576191e-04 3.379385752975e-03 0.0 
0.0 0.0 -6.989458521267e-04 
-1.152804453403e-03 3.500950542230e-04 0.0 
3.500950542230e-04 7.051163395974e-03 0.0 
0.0 0.0 -1.060111126929e-03 
-1.235067592862e-03 -2.698356757779e-05 0.0 
-2.698356757779e-05 7.807694952398e-03 0.0 
0.0 0.0 -1.160283895044e-03 
-1.152447904070e-03 3.233521508878e-04 0.0 
3.233521508878e-04 7.106400049278e-03 0.0 
0.0 0.0 -1.066842251349e-03 
-1.126824314787e-03 3.260890582423e-04 0.0 
3.260890582423e-04 6.856832929645e-03 0.0 
0.0 0.0 -1.030428295937e-03 
-1.098624795041e-03 -1.306628866347e-04 0.0 
-1.306628866347e-04 7.036525786255e-03 0.0 
0.0 0.0 -1.124756152480e-03 
-9.788942539780e-04 1.410494860673e-05 0.0 
1.410494860673e-05 7.171321125896e-03 0.0 
0.0 0.0 -1.167530213646e-03 
-1.029227773633e-03 -1.448576550575e-04 0.0 
-1.448576550575e-04 6.777818390463e-03 0.0 
0.0 0.0 -1.096139997395e-03 
-8.853909467236e-04 -3.202143432842e-04 0.0 
-3.202143432842e-04 5.450131718365e-03 0.0 
0.0 0.0 -8.895595506238e-04 
-7.841401063913e-04 5.175313733597e-04 0.0 
5.175313733597e-04 4.039507771945e-03 0.0 
0.0 0.0 -6.419897747600e-04 
-7.984394936658e-04 -1.887921339689e-04 0.0 
-1.887921339689e-04 6.295485930606e-03 0.0 
0.0 0.0 -1.057160997780e-03 
-1.115933343197e-03 4.349000973092e-04 0.0 
4.349000973092e-04 6.664037002129e-03 0.0 
0.0 0.0 -1.010795753303e-03 
-5.956699057430e-04 -8.811439702695e-05 0.0 
-8.811439702695e-05 2.473036601140e-03 0.0 
0.0 0.0 -4.018221946533e-04 
-2.915622310354e-04 -5.737426198503e-04 0.0 
-5.737426198503e-04 3.731241780433e-03 0.0 
0.0 0.0 -7.241222962603e-04 
-4.504794563629e-04 -1.267768640868e-04 0.0 
-1.267768640868e-04 4.437238068048e-03 0.0 
0.0 0.0 -8.193994707270e-04 
-5.327307368017e-04 -1.017456922387e-04 0.0 
-1.017456922387e-04 5.084928060617e-03 0.0 
0.0 0.0 -8.986564694586e-04 
3.950181268846e-04 -2.404122539236e-04 0.0 
-2.404122539236e-04 7.824137722745e-04 0.0 
0.0 0.0 -4.157903644632e-04 
-2.054344188629e-04 -4.192766465647e-04 0.0 
-4.192766465647e-04 3.464515105753e-03 0.0 
0.0 0.0 -6.962026719631e-04 
-6.398120247413e-04 -1.116949900707e-04 0.0 
-1.116949900707e-04 5.588791715487e-03 0.0 
0.0 0.0 -9.636952012155e-04 
-8.444842612221e-04 6.249200502653e-04 0.0 
6.249200502653e-04 4.582153886631e-03 0.0 
0.0 0.0 -7.294090860402e-04 
-7.683331433156e-04 -4.669157271009e-04 0.0 
-4.669157271009e-04 4.555612432421e-03 0.0 
0.0 0.0 -7.579899565570e-04 
-1.071508205892e-03 -5.121927920590e-05 0.0 
-5.121927920590e-05 6.390736393491e-03 0.0 
0.0 0.0 -9.556638187253e-04 
-8.714266706772e-04 2.063026129845e-04 0.0 
2.063026129845e-04 5.095248433608e-03 0.0 
0.0 0.0 -7.638029664831e-04 
-6.864860403863e-05 6.865817311915e-04 0.0 
6.865817311915e-04 5.756289586921e-04 0.0 
0.0 0.0 -2.172772948515e-04 
-8.538627514522e-04 -7.550684867704e-04 0.0 
-7.550684867704e-04 5.254936553017e-03 0.0 
0.0 0.0 -8.580817703278e-04 
-8.031553766191e-04 9.023974365030e-05 0.0 
9.023974365030e-05 6.192888911591e-03 0.0 
0.0 0.0 -1.051835763028e-03 
-1.248237691654e-03 5.633939617195e-04 0.0 
5.633939617195e-04 7.887034516043e-03 0.0 
0.0 0.0 -1.196871286280e-03 
-3.729352427207e-04 2.857944806302e-04 0.0 
2.857944806302e-04 4.199383336330e-03 0.0 
0.0 0.0 -7.999758813884e-04 
-8.246860114036e-04 -3.906175878888e-04 0.0 
-3.906175878888e-04 5.000590526334e-03 0.0 
0.0 0.0 -8.237210115815e-04 
-1.081299147246e-03 -7.697289611938e-05 0.0 
-7.697289611938e-05 6.459732028031e-03 0.0 
0.0 0.0 -9.620958722924e-04 
-2.880056971411e-04 8.925028292911e-04 0.0 
8.925028292911e-04 1.145866698786e-03 0.0 
0.0 0.0 -3.038018182983e-04 
-7.446793118804e-04 1.621554593950e-04 0.0 
1.621554593950e-04 5.956534969945e-03 0.0 
0.0 0.0 -1.023361637732e-03 
-4.737891057000e-04 -2.200266757859e-04 0.0 
-2.200266757859e-04 4.791461031182e-03 0.0 
0.0 0.0 -8.619475031456e-04 
-8.828155885906e-04 2.614625346270e-04 0.0 
2.614625346270e-04 4.904715470600e-03 0.0 
0.0 0.0 -7.615729788896e-04 
-9.809961927394e-04 -5.936604313144e-04 0.0 
-5.936604313144e-04 6.379528294436e-03 0.0 
0.0 0.0 -1.027225276160e-03 
-1.932500912874e-05 -1.677380896941e-03 0.0 
-1.677380896941e-03 1.233986358287e-03 0.0 
0.0 0.0 -3.946419382404e-04 
-9.859370989770e-04 -5.573179193325e-04 0.0 
-5.573179193325e-04 6.591591148133e-03 0.0 
0.0 0.0 -1.064556537081e-03 
-1.075263487039e-03 -6.290518893134e-05 0.0 
-6.290518893134e-05 7.229861812646e-03 0.0 
0.0 0.0 -1.170878753521e-03 
-6.948674803166e-04 2.455637071472e-04 0.0 
2.455637071472e-04 5.729378568502e-03 0.0 
0.0 0.0 -9.948919501216e-04 
-1.162320360260e-03 -6.372562573002e-05 0.0 
-6.372562573002e-05 7.161310363851e-03 0.0 
0.0 0.0 -1.064574987933e-03 
-9.584753352366e-04 2.606905829813e-04 0.0 
2.606905829813e-04 6.727836890182e-03 0.0 
0.0 0.0 -1.082686220397e-03 
-1.082949588594e-03 -4.851124086325e-04 0.0 
-4.851124086325e-04 7.296469259281e-03 0.0 
0.0 0.0 -1.168035910845e-03 
-5.459113610208e-04 8.695894781593e-04 0.0 
8.695894781593e-04 1.682549247342e-03 0.0 
0.0 0.0 -2.917408095836e-04 
-1.104897704515e-03 -4.845952140229e-05 0.0 
-4.845952140229e-05 6.655011128943e-03 0.0 
0.0 0.0 -9.919185416031e-04 
-1.022193057884e-03 1.318252200891e-04 0.0 
1.318252200891e-04 7.257050403107e-03 0.0 
0.0 0.0 -1.173906618061e-03 
-1.179945511942e-03 3.471716249997e-04 0.0 
3.471716249997e-04 7.305593288174e-03 0.0 
0.0 0.0 -1.096489272820e-03 
-5.875834666640e-04 2.546818746217e-04 0.0 
2.546818746217e-04 5.224796690614e-03 0.0 
0.0 0.0 -9.297700869391e-04 
-2.515263867691e-04 -2.254429621664e-04 0.0 
-2.254429621664e-04 3.754254559254e-03 0.0 
0.0 0.0 -7.325247082200e-04 
-9.641389493889e-04 -2.217264104135e-04 0.0 
-2.217264104135e-04 5.113633075458e-03 0.0 
0.0 0.0 -8.069452076110e-04 
4.285236195004e-04 1.396212384085e-04 0.0 
1.396212384085e-04 -1.219952762883e-04 0.0 
0.0 0.0 -1.313692899480e-04 
-1.204146700831e-03 3.439641556613e-04 0.0 
3.439641556613e-04 7.554548687955e-03 0.0 
0.0 0.0 -1.132911322290e-03 
-6.253175333027e-04 -2.826075305287e-05 0.0 
-2.826075305287e-05 2.680000675139e-03 0.0 
0.0 0.0 -4.309687334850e-04 
-5.749579867921e-04 6.771703350766e-04 0.0 
6.771703350766e-04 2.115308728038e-03 0.0 
0.0 0.0 -3.582286249851e-04 
-9.529535044554e-04 3.072244071368e-04 0.0 
3.072244071368e-04 6.570888144221e-03 0.0 
0.0 0.0 -1.054483161448e-03 
-1.255167442230e-03 3.201007171124e-04 0.0 
3.201007171124e-04 8.070344212991e-03 0.0 
0.0 0.0 -1.206783194404e-03 
-8.215496895040e-05 -1.772999525451e-03 0.0 
-1.772999525451e-03 1.193950944070e-03 0.0 
0.0 0.0 -3.966701258844e-04 
-7.833558623484e-04 4.482971625863e-04 0.0 
4.482971625863e-04 5.133302818514e-03 0.0 
0.0 0.0 -8.358581584049e-04 
-1.123137751770e-03 3.572847673877e-04 0.0 
3.572847673877e-04 6.794615582447e-03 0.0 
0.0 0.0 -1.023814440555e-03 
-8.765385540671e-04 -7.492880491734e-04 0.0 
-7.492880491734e-04 4.884441485584e-03 0.0 
0.0 0.0 -7.840072721007e-04 
2.874574446344e-04 -1.091275984428e-03 0.0 
-1.091275984428e-03 9.021895657290e-04 0.0 
0.0 0.0 -4.027365510179e-04 
-3.368056399330e-04 1.320783307670e-03 0.0 
1.320783307670e-03 2.512908282168e-03 0.0 
0.0 0.0 -5.292697486782e-04 
-2.272190685037e-04 -1.261695231052e-03 0.0 
-1.261695231052e-03 1.204255834380e-03 0.0 
0.0 0.0 -3.563018015714e-04 
-5.481856080810e-06 -1.360265015014e-03 0.0 
-1.360265015014e-03 1.114057395476e-03 0.0 
0.0 0.0 -3.608158092454e-04 
-1.672715856143e-04 -1.512279546231e-03 0.0 
-1.512279546231e-03 1.180506359655e-03 0.0 
0.0 0.0 -3.382523083772e-04 
-4.805060594133e-04 2.668098062439e-04 0.0 
2.668098062439e-04 4.715407643663e-03 0.0 
0.0 0.0 -8.647910268431e-04 
-1.323581223665e-03 3.388354907586e-04 0.0 
3.388354907586e-04 9.015003947055e-03 0.0 
0.0 0.0 -1.324146187826e-03 
-6.144383844702e-04 5.601929244688e-04 0.0 
5.601929244688e-04 2.582601934857e-03 0.0 
0.0 0.0 -4.244337567297e-04 
-1.156564282164e-03 -1.287267705775e-04 0.0 
-1.287267705775e-04 7.284536477905e-03 0.0 
0.0 0.0 -1.153422328581e-03 
-1.335800596959e-04 5.879693086389e-04 0.0 
5.879693086389e-04 2.932124141139e-03 0.0 
0.0 0.0 -6.430507458085e-04 
-1.103593163525e-03 -2.311027910085e-05 0.0 
-2.311027910085e-05 6.594057391582e-03 0.0 
0.0 0.0 -9.856407671940e-04 
6.097401795475e-04 2.716157955159e-04 0.0 
2.716157955159e-04 -1.627804699296e-04 0.0 
0.0 0.0 -1.915541612648e-04 
-1.121189365028e-03 -4.313739104837e-04 0.0 
-4.313739104837e-04 7.519397857683e-03 0.0 
0.0 0.0 -1.206759618350e-03 
-1.369628119913e-04 -1.636536330447e-03 0.0 
-1.636536330447e-03 1.233538073419e-03 0.0 
0.0 0.0 -4.045577262616e-04 
-7.109907021558e-04 -5.092194229215e-05 0.0 
-5.092194229215e-05 3.143336407810e-03 0.0 
0.0 0.0 -4.995972236199e-04 
-7.610689947692e-04 3.254275537369e-04 0.0 
3.254275537369e-04 6.017676875730e-03 0.0 
0.0 0.0 -1.031547093314e-03 
-5.009347095537e-04 -8.784504666191e-04 0.0 
-8.784504666191e-04 4.097798542798e-03 0.0 
0.0 0.0 -7.436172176343e-04 
-9.490922030985e-04 8.355820245775e-05 0.0 
8.355820245775e-05 6.977686204134e-03 0.0 
0.0 0.0 -1.139062866688e-03 
-5.334594474911e-04 7.731459396832e-04 0.0 
7.731459396832e-04 3.293236008727e-03 0.0 
0.0 0.0 -5.762899171568e-04 
-1.157169932203e-03 5.876132975745e-05 0.0 
5.876132975745e-05 6.976179943537e-03 0.0 
0.0 0.0 -1.044446328659e-03 
-1.026845760321e-03 3.718808168871e-04 0.0 
3.718808168871e-04 7.294887320679e-03 0.0 
0.0 0.0 -1.198892520503e-03 
-1.098955546930e-03 3.331596057930e-04 0.0 
3.331596057930e-04 6.603659082882e-03 0.0 
0.0 0.0 -9.940794652285e-04 
-1.269540035819e-03 1.940023298487e-04 0.0 
1.940023298487e-04 7.944098741491e-03 0.0 
0.0 0.0 -1.194784139986e-03 
-1.184726223875e-03 -2.348624992814e-06 0.0 
-2.348624992814e-06 7.294407597930e-03 0.0 
0.0 0.0 -1.087318097122e-03 
-1.210012004909e-03 2.996776911562e-05 0.0 
2.996776911562e-05 7.486490191622e-03 0.0 
0.0 0.0 -1.116677092124e-03 
1.863822195981e-04 1.500592688013e-03 0.0 
1.500592688013e-03 6.610975863953e-04 0.0 
0.0 0.0 -3.632056311400e-04 
-1.142912226621e-03 -1.436249115933e-04 0.0 
-1.436249115933e-04 7.061947710655e-03 0.0 
0.0 0.0 -1.115908039155e-03 
-1.147672819159e-03 3.821528619329e-04 0.0 
3.821528619329e-04 6.988478452450e-03 0.0 
0.0 0.0 -1.053364550114e-03 
-4.264879333549e-04 6.971974912426e-04 0.0 
6.971974912426e-04 4.141626674137e-03 0.0 
0.0 0.0 -7.792489223127e-04 
-6.776919640089e-04 4.847017937331e-04 0.0 
4.847017937331e-04 3.056038122043e-03 0.0 
0.0 0.0 -4.908673385051e-04 
-1.078927379078e-03 1.409149927546e-05 0.0 
1.409149927546e-05 7.640444635147e-03 0.0 
0.0 0.0 -1.232292820449e-03 
3.227356576489e-04 7.350862602758e-04 0.0 
7.350862602758e-04 8.113095771019e-04 0.0 
0.0 0.0 -4.142712813041e-04 
-6.537509052586e-04 -4.383754105270e-04 0.0 
-4.383754105270e-04 2.983336896445e-03 0.0 
0.0 0.0 -4.655197245388e-04 
-9.005107576278e-04 4.600258062660e-04 0.0 
4.600258062660e-04 6.613923225017e-03 0.0 
0.0 0.0 -1.105063927110e-03 
-3.654007350969e-04 -1.479495410984e-04 0.0 
-1.479495410984e-04 1.815899396191e-03 0.0 
0.0 0.0 -2.939799329518e-04 
-5.977371900919e-04 5.010127079244e-04 0.0 
5.010127079244e-04 4.620714897895e-03 0.0 
0.0 0.0 -7.924235178053e-04 
-8.040024099011e-04 2.359492841355e-04 0.0 
2.359492841355e-04 6.229578808837e-03 0.0 
0.0 0.0 -1.059843925468e-03 
-1.255635553756e-03 7.173795077007e-05 0.0 
7.173795077007e-05 7.907591642771e-03 0.0 
0.0 0.0 -1.181155146799e-03 
-1.282202030770e-03 1.124926252761e-04 0.0 
1.124926252761e-04 8.112071435222e-03 0.0 
0.0 0.0 -1.210943746944e-03 
-7.487229487199e-04 -1.168956266195e-04 0.0 
-1.168956266195e-04 6.087931342050e-03 0.0 
0.0 0.0 -1.028825005900e-03 
-1.212248021085e-03 -1.436521725135e-05 0.0 
-1.436521725135e-05 7.552882477900e-03 0.0 
0.0 0.0 -1.123737208958e-03 
-2.386760142168e-04 7.145577053840e-04 0.0 
7.145577053840e-04 3.288051445445e-03 0.0 
0.0 0.0 -6.793824814287e-04 
-1.022910334669e-03 3.054988306638e-04 0.0 
3.054988306638e-04 6.728691543712e-03 0.0 
0.0 0.0 -1.062452857821e-03 
-7.369445152822e-04 4.219749857923e-04 0.0 
4.219749857923e-04 3.529735228100e-03 0.0 
0.0 0.0 -5.576509564599e-04 
-1.225600923705e-03 6.150358502408e-04 0.0 
6.150358502408e-04 7.637406645108e-03 0.0 
0.0 0.0 -1.181751882508e-03 
-8.003950005641e-04 3.733577663785e-04 0.0 
3.733577663785e-04 4.007249233080e-03 0.0 
0.0 0.0 -6.243763318321e-04 
-7.858165178840e-04 3.201249060732e-04 0.0 
3.201249060732e-04 4.232155620723e-03 0.0 
0.0 0.0 -6.577503189808e-04 
-3.421685830446e-04 4.506546569180e-04 0.0 
4.506546569180e-04 3.987712693438e-03 0.0 
0.0 0.0 -7.717627972493e-04 
-8.541855867529e-04 3.616408520390e-04 0.0 
3.616408520390e-04 4.495910448337e-03 0.0 
0.0 0.0 -6.911701761307e-04 
-6.466553023066e-04 3.566499724765e-04 0.0 
3.566499724765e-04 5.190189138744e-03 0.0 
0.0 0.0 -8.833033330409e-04 
-4.075558796588e-04 5.082935923898e-04 0.0 
5.082935923898e-04 3.946901844573e-03 0.0 
0.0 0.0 -7.209687761305e-04 
-3.183347553168e-04 -3.900876355230e-04 0.0 
-3.900876355230e-04 3.990865140146e-03 0.0 
0.0 0.0 -7.606211034647e-04 
4.197691498195e-04 -7.924817374046e-04 0.0 
-7.924817374046e-04 5.841418248199e-04 0.0 
0.0 0.0 -3.925496596906e-04 
-2.632176995851e-04 3.130804871778e-04 0.0 
3.130804871778e-04 3.673894068274e-03 0.0 
0.0 0.0 -7.353490689725e-04 
-1.228427596361e-03 3.654441690398e-04 0.0 
3.654441690398e-04 7.753036613507e-03 0.0 
0.0 0.0 -1.162517914204e-03 
-1.234586540092e-03 6.496817172604e-04 0.0 
6.496817172604e-04 7.840810725913e-03 0.0 
0.0 0.0 -1.195263893373e-03 
-1.079254607357e-03 -1.716834017040e-04 0.0 
-1.716834017040e-04 6.610697418479e-03 0.0 
0.0 0.0 -1.050100468764e-03 
-9.999924356562e-04 4.337068162590e-04 0.0 
4.337068162590e-04 7.101876474641e-03 0.0 
0.0 0.0 -1.170266998156e-03 
-4.393592797757e-04 -4.178536690016e-04 0.0 
-4.178536690016e-04 4.023524415681e-03 0.0 
0.0 0.0 -7.463264885205e-04 
-1.196792592392e-03 4.110574340668e-04 0.0 
4.110574340668e-04 7.430663622206e-03 0.0 
0.0 0.0 -1.119019617531e-03 
-3.103812770642e-04 1.366237006987e-04 0.0 
1.366237006987e-04 3.912213435347e-03 0.0 
0.0 0.0 -7.634232545038e-04 
-1.186941185396e-03 -1.093564622626e-04 0.0 
-1.093564622626e-04 7.299889317220e-03 0.0 
0.0 0.0 -1.144395376583e-03 
-1.175446045210e-03 3.743988593539e-04 0.0 
3.743988593539e-04 7.239811730626e-03 0.0 
0.0 0.0 -1.089631904438e-03 
-1.184480952279e-03 4.301367348574e-05 0.0 
4.301367348574e-05 7.231184503722e-03 0.0 
0.0 0.0 -1.080451501872e-03 
-6.366755747078e-04 1.541674785508e-04 0.0 
1.541674785508e-04 5.452650900242e-03 0.0 
0.0 0.0 -9.580909834143e-04 
-2.389238927474e-04 5.103421139426e-04 0.0 
5.103421139426e-04 3.464348160629e-03 0.0 
0.0 0.0 -7.073300717972e-04 
-1.091479932409e-03 3.053404772209e-04 0.0 
3.053404772209e-04 7.161436277653e-03 0.0 
0.0 0.0 -1.126038590206e-03 
-9.842000416471e-04 6.396846099915e-04 0.0 
6.396846099915e-04 5.813603015757e-03 0.0 
0.0 0.0 -9.169694165663e-04 
1.883793847700e-04 -1.613056327393e-03 0.0 
-1.613056327393e-03 7.099727485344e-04 0.0 
0.0 0.0 -3.670597958229e-04 
4.158840995285e-04 -1.069455846307e-04 0.0 
-1.069455846307e-04 9.093131002263e-04 0.0 
0.0 0.0 -4.209936697170e-04 
-5.253520320544e-04 1.113226159763e-03 0.0 
1.113226159763e-03 3.274387380493e-03 0.0 
0.0 0.0 -6.061407060701e-04 
-8.148800044768e-04 7.943320417803e-04 0.0 
7.943320417803e-04 5.072587073095e-03 0.0 
0.0 0.0 -8.384786063130e-04 
-1.230266496445e-03 -6.856974243120e-05 0.0 
-6.856974243120e-05 7.537797729461e-03 0.0 
0.0 0.0 -1.173545322487e-03 
-1.159784806983e-03 4.546774843700e-06 0.0 
4.546774843700e-06 7.042624556690e-03 0.0 
0.0 0.0 -1.051102540299e-03 
-2.045778073669e-04 -2.934353049160e-05 0.0 
-2.934353049160e-05 3.544788899175e-03 0.0 
0.0 0.0 -7.045205360201e-04 
-9.013823451461e-04 3.641498331546e-04 0.0 
3.641498331546e-04 5.853350218943e-03 0.0 
0.0 0.0 -9.344940742331e-04 
-8.532834150584e-04 1.785665259931e-04 0.0 
1.785665259931e-04 6.467721788847e-03 0.0 
0.0 0.0 -1.088599101970e-03 
-1.213199839846e-03 -4.701032574329e-05 0.0 
-4.701032574329e-05 7.611187462875e-03 0.0 
0.0 0.0 -1.130578931274e-03 
-1.163123546776e-03 3.469650352866e-04 0.0 
3.469650352866e-04 7.457428311297e-03 0.0 
0.0 0.0 -1.160781586281e-03 
-1.064121038643e-03 3.592685452389e-04 0.0 
3.592685452389e-04 6.295822569873e-03 0.0 
0.0 0.0 -9.517943393003e-04 
-9.431187375283e-04 -8.030312093776e-06 0.0 
-8.030312093776e-06 6.723807310886e-03 0.0 
0.0 0.0 -1.113435711030e-03 
-3.640285380992e-04 -2.251334255899e-04 0.0 
-2.251334255899e-04 4.276860424883e-03 0.0 
0.0 0.0 -7.971871449874e-04 
-8.575470034421e-04 -2.591277644309e-04 0.0 
-2.591277644309e-04 6.522660233149e-03 0.0 
0.0 0.0 -1.086118700983e-03 
-6.488096190532e-04 8.782975641900e-04 0.0 
8.782975641900e-04 4.555098411154e-03 0.0 
0.0 0.0 -7.951163407912e-04 
-1.259477151619e-03 2.377000778179e-05 0.0 
2.377000778179e-05 7.994105241717e-03 0.0 
0.0 0.0 -1.188704642750e-03 
-1.188566355983e-03 2.821785558319e-04 0.0 
2.821785558319e-04 7.789552889991e-03 0.0 
0.0 0.0 -1.200489323427e-03 
-5.291595357548e-04 1.464001696405e-04 0.0 
1.464001696405e-04 4.944674619640e-03 0.0 
0.0 0.0 -8.929891684399e-04 
5.077877396978e-04 3.026021049410e-04 0.0 
3.026021049410e-04 3.943566526323e-04 0.0 
0.0 0.0 -3.866333109986e-04 
-9.967575789130e-04 6.124990556396e-04 0.0 
6.124990556396e-04 6.815699392306e-03 0.0 
0.0 0.0 -1.113685640909e-03 
-6.605390437865e-04 4.261094964972e-04 0.0 
4.261094964972e-04 5.059149157301e-03 0.0 
0.0 0.0 -8.555605426019e-04 
-1.830081198130e-04 1.866635750844e-04 0.0 
1.866635750844e-04 3.368216116446e-03 0.0 
0.0 0.0 -6.765734244908e-04 
-5.817203437329e-04 -2.125841840423e-04 0.0 
-2.125841840423e-04 5.299242741235e-03 0.0 
0.0 0.0 -9.269463096178e-04 
-9.296871453603e-04 -5.069518437094e-04 0.0 
-5.069518437094e-04 6.554705833196e-03 0.0 
0.0 0.0 -1.072977024862e-03 
5.145493605139e-04 -6.481882605914e-04 0.0 
-6.481882605914e-04 5.138628621790e-04 0.0 
0.0 0.0 -3.958212347391e-04 
-4.207868633399e-04 1.388755270071e-04 0.0 
1.388755270071e-04 4.431893145968e-03 0.0 
0.0 0.0 -8.281205301186e-04 
-1.057518774056e-03 5.392644449481e-04 0.0 
5.392644449481e-04 6.206831668111e-03 0.0 
0.0 0.0 -9.596127204057e-04 
-1.238644968873e-03 -4.648423040969e-04 0.0 
-4.648423040969e-04 7.603472997752e-03 0.0 
0.0 0.0 -1.170838755190e-03 
-1.067041670428e-03 5.715302009941e-04 0.0 
5.715302009941e-04 6.356528225694e-03 0.0 
0.0 0.0 -9.876491701490e-04 
-9.841945622355e-04 6.610492595006e-04 0.0 
6.610492595006e-04 6.661208694162e-03 0.0 
0.0 0.0 -1.085374163265e-03 
-1.045085745863e-03 5.003784013052e-04 0.0 
5.003784013052e-04 6.049842854282e-03 0.0 
0.0 0.0 -9.316602363005e-04 
-1.022837492668e-03 4.381275546802e-04 0.0 
4.381275546802e-04 5.716010034056e-03 0.0 
0.0 0.0 -8.756372412555e-04 
-9.850681647526e-04 6.675723233926e-04 0.0 
6.675723233926e-04 5.952563133260e-03 0.0 
0.0 0.0 -9.447135688329e-04 
-9.326630633240e-04 3.930283305116e-04 0.0 
3.930283305116e-04 6.810995827980e-03 0.0 
0.0 0.0 -1.133505030480e-03 
-1.106660061021e-03 -5.521563816417e-04 0.0 
-5.521563816417e-04 6.894855264338e-03 0.0 
0.0 0.0 -1.084522140297e-03 
-1.120799229937e-03 3.838899692646e-04 0.0 
3.838899692646e-04 6.737454909863e-03 0.0 
0.0 0.0 -1.017300281410e-03 
-1.265839226480e-03 4.523982644349e-04 0.0 
4.523982644349e-04 8.063487692737e-03 0.0 
0.0 0.0 -1.212886757924e-03 
-1.030324522425e-03 4.628372417255e-04 0.0 
4.628372417255e-04 5.887641382241e-03 0.0 
0.0 0.0 -9.037302385344e-04 
2.653135269754e-05 8.001600084414e-05 0.0 
8.001600084414e-05 2.476344782206e-03 0.0 
0.0 0.0 -5.760585567884e-04 
-1.044239643313e-03 2.376498451470e-04 0.0 
2.376498451470e-04 7.187723140536e-03 0.0 
0.0 0.0 -1.146733564437e-03 
-1.253924981079e-03 -4.907598213233e-05 0.0 
-4.907598213233e-05 8.057805599269e-03 0.0 
0.0 0.0 -1.196744929305e-03 
-5.355464959753e-04 8.349410411799e-04 0.0 
8.349410411799e-04 4.335085481445e-03 0.0 
0.0 0.0 -7.869228524964e-04 
-6.233378135021e-04 8.291713004523e-04 0.0 
8.291713004523e-04 4.669146782253e-03 0.0 
0.0 0.0 -8.226527892688e-04 
-9.042297380502e-05 1.578503348626e-05 0.0 
1.578503348626e-05 3.015977975308e-03 0.0 
0.0 0.0 -6.402419685743e-04 
-1.145557266538e-03 4.246140586136e-04 0.0 
4.246140586136e-04 6.921583184568e-03 0.0 
0.0 0.0 -1.046609947212e-03 
-6.981713726155e-04 9.056832497172e-04 0.0 
9.056832497172e-04 3.852457966674e-03 0.0 
0.0 0.0 -6.500746975200e-04 
-6.825381544126e-04 6.942299752500e-04 0.0 
6.942299752500e-04 5.269578602974e-03 0.0 
0.0 0.0 -9.137630964162e-04 
-6.717413934869e-04 5.961928435860e-04 0.0 
5.961928435860e-04 3.907642713709e-03 0.0 
0.0 0.0 -6.476280927198e-04 
-8.299310340804e-04 4.003109170218e-04 0.0 
4.003109170218e-04 6.314977660297e-03 0.0 
0.0 0.0 -1.068254633495e-03 
-1.134995185088e-03 2.756692802088e-04 0.0 
2.756692802088e-04 7.594750376581e-03 0.0 
0.0 0.0 -1.211228670573e-03 
-1.360533559688e-04 -2.215574873168e-04 0.0 
-2.215574873168e-04 3.223027219763e-03 0.0 
0.0 0.0 -6.682047883386e-04 
4.373904628404e-04 -2.393257178328e-04 0.0 
-2.393257178328e-04 -1.132865459339e-04 0.0 
0.0 0.0 -1.389016786742e-04 
-1.258599255868e-03 5.175436206336e-04 0.0 
5.175436206336e-04 7.974357198458e-03 0.0 
0.0 0.0 -1.207184308065e-03 
-7.509449296831e-04 8.117398232865e-04 0.0 
8.117398232865e-04 4.141196512392e-03 0.0 
0.0 0.0 -6.853381776776e-04 
-4.357225566231e-04 -2.745654093134e-04 0.0 
-2.745654093134e-04 4.218247831069e-03 0.0 
0.0 0.0 -7.828151049093e-04 
-1.060590658414e-03 6.112856710438e-04 0.0 
6.112856710438e-04 7.289270463529e-03 0.0 
0.0 0.0 -1.177925372349e-03 
-1.133119087327e-03 1.716253131945e-05 0.0 
1.716253131945e-05 6.790529249754e-03 0.0 
0.0 0.0 -1.015069748350e-03 
-1.047918274143e-03 -5.722033483047e-04 0.0 
-5.722033483047e-04 6.640384232333e-03 0.0 
0.0 0.0 -1.055879354346e-03 
-3.002045645479e-04 4.799822856897e-04 0.0 
4.799822856897e-04 3.594772661625e-03 0.0 
0.0 0.0 -6.851017020021e-04 
1.437633437549e-04 -1.583243096343e-05 0.0 
-1.583243096343e-05 -4.287346076812e-05 0.0 
0.0 0.0 -4.323852128003e-05 
-1.294332022630e-03 -4.590388614896e-04 0.0 
-4.590388614896e-04 7.891763322768e-03 0.0 
0.0 0.0 -1.202131160132e-03 
-7.979241755136e-04 7.967983468878e-04 0.0 
7.967983468878e-04 5.189819245057e-03 0.0 
0.0 0.0 -8.660506973337e-04 
-7.515738742408e-04 1.099645178349e-04 0.0 
1.099645178349e-04 5.981619188890e-03 0.0 
0.0 0.0 -1.007142642412e-03 
-1.115772722662e-03 6.613759768766e-04 0.0 
6.613759768766e-04 7.287802445254e-03 0.0 
0.0 0.0 -1.157822513452e-03 
0.0 0.0 0.0 
0.0 0.0 0.0 
0.0 0.0 0.0 
-1.020410346766e-03 -1.741879484343e-04 0.0 
-1.741879484343e-04 6.569036879710e-03 0.0 
0.0 0.0 -1.058763633038e-03 
-1.044584882710e-04 9.374141262810e-04 0.0 
9.374141262810e-04 2.179572843365e-03 0.0 
0.0 0.0 -4.919579008500e-04 
-1.074016419554e-03 -9.865194451983e-06 0.0 
-9.865194451983e-06 6.344021920267e-03 0.0 
0.0 0.0 -9.498437721210e-04 
-9.305727240655e-04 -6.933921297842e-04 0.0 
-6.933921297842e-04 5.329347824549e-03 0.0 
0.0 0.0 -8.496012432876e-04 
-1.513106441093e-04 3.496683072490e-04 0.0 
3.496683072490e-04 3.137268859880e-03 0.0 
0.0 0.0 -6.709551114794e-04 
-1.200608795278e-03 -4.872905826385e-04 0.0 
-4.872905826385e-04 7.367763642178e-03 0.0 
0.0 0.0 -1.141635569211e-03 
-6.896908437113e-04 7.588366273899e-04 0.0 
7.588366273899e-04 5.123258515759e-03 0.0 
0.0 0.0 -8.859145181037e-04 
-3.682506920307e-05 4.047925217802e-04 0.0 
4.047925217802e-04 2.589749957424e-03 0.0 
0.0 0.0 -6.067458373204e-04 
-8.340011645670e-04 4.008480374015e-04 0.0 
4.008480374015e-04 5.557081142302e-03 0.0 
0.0 0.0 -8.989548790023e-04 
3.022096838876e-04 -3.038195152345e-04 0.0 
-3.038195152345e-04 -5.124151784209e-05 0.0 
0.0 0.0 -1.075577854481e-04 
-9.546355211556e-04 3.234338831530e-04 0.0 
3.234338831530e-04 6.429567223705e-03 0.0 
0.0 0.0 -1.026417656363e-03 
-8.158927749848e-04 -3.909777349409e-05 0.0 
-3.909777349409e-05 6.386420010715e-03 0.0 
0.0 0.0 -1.065496432940e-03 
-1.247055565640e-03 3.319997532961e-04 0.0 
3.319997532961e-04 7.921779384989e-03 0.0 
0.0 0.0 -1.233600908384e-03 
-1.025284337354e-03 2.945178670449e-04 0.0 
2.945178670449e-04 6.877652576001e-03 0.0 
0.0 0.0 -1.090749533212e-03 
2.434503745851e-04 -1.578934998957e-04 0.0 
-1.578934998957e-04 1.529841444305e-03 0.0 
0.0 0.0 -4.758149136988e-04 
-1.100855494631e-03 -5.513580386133e-04 0.0 
-5.513580386133e-04 6.680884096093e-03 0.0 
0.0 0.0 -1.047231727503e-03 
-1.252169978070e-03 3.748871630309e-04 0.0 
3.748871630309e-04 8.183246127380e-03 0.0 
0.0 0.0 -1.228155452712e-03 
-1.172998084832e-03 8.287498321717e-05 0.0 
8.287498321717e-05 7.902166307926e-03 0.0 
0.0 0.0 -1.267145247477e-03 
-8.845763971731e-04 3.343706134048e-05 0.0 
3.343706134048e-05 6.685188464531e-03 0.0 
0.0 0.0 -1.102242875413e-03 
-2.824655770355e-04 3.019818645340e-04 0.0 
3.019818645340e-04 3.719180698001e-03 0.0 
0.0 0.0 -7.127912709901e-04 
-8.914221389397e-04 3.576211756874e-04 0.0 
3.576211756874e-04 5.989320852496e-03 0.0 
0.0 0.0 -9.624716764950e-04 
-1.265622827008e-03 -3.602381928261e-05 0.0 
-3.602381928261e-05 7.525688479598e-03 0.0 
0.0 0.0 -1.164316760544e-03 
-1.026823558190e-03 -3.127358117122e-04 0.0 
-3.127358117122e-04 5.188290229651e-03 0.0 
0.0 0.0 -7.878971455476e-04 
-9.790335059978e-04 6.764140397440e-04 0.0 
6.764140397440e-04 6.506573428341e-03 0.0 
0.0 0.0 -1.057196955382e-03 
-1.092783271967e-03 3.587775336083e-04 0.0 
3.587775336083e-04 6.543365283594e-03 0.0 
0.0 0.0 -9.877098122506e-04 
-1.155871143424e-03 -5.200772835953e-04 0.0 
-5.200772835953e-04 7.131963810306e-03 0.0 
0.0 0.0 -1.112977059762e-03 
-1.053791982519e-03 -5.418051239347e-04 0.0 
-5.418051239347e-04 6.849369446006e-03 0.0 
0.0 0.0 -1.093234982489e-03 
-8.344751970142e-04 -5.063632387036e-06 0.0 
-5.063632387036e-06 4.624983012521e-03 0.0 
0.0 0.0 -7.313513689239e-04 
-8.293658591313e-04 3.666703434100e-05 0.0 
3.666703434100e-05 4.623218336322e-03 0.0 
0.0 0.0 -7.310574395863e-04 
-1.097030069405e-03 1.613810298079e-04 0.0 
1.613810298079e-04 6.539696336596e-03 0.0 
0.0 0.0 -9.927888931629e-04 
-9.125545325387e-04 7.100995827850e-04 0.0 
7.100995827850e-04 6.060357295598e-03 0.0 
0.0 0.0 -9.930598132463e-04 
-9.889474269995e-04 -6.231936758992e-04 0.0 
-6.231936758992e-04 5.582412655685e-03 0.0 
0.0 0.0 -8.780428295617e-04 
-1.024071250989e-03 2.871939654452e-04 0.0 
2.871939654452e-04 6.293682207182e-03 0.0 
0.0 0.0 -9.775429604618e-04 
-6.061110354643e-04 7.542189021973e-04 0.0 
7.542189021973e-04 4.796279324774e-03 0.0 
0.0 0.0 -8.502279965035e-04 
-1.039665177067e-03 6.008961477257e-05 0.0 
6.008961477257e-05 7.149947818513e-03 0.0 
0.0 0.0 -1.180288150054e-03 
-3.419429553987e-04 7.892463912468e-04 0.0 
7.892463912468e-04 3.645374748844e-03 0.0 
0.0 0.0 -7.154845226688e-04 
-1.354053466570e-03 2.682798114320e-04 0.0 
2.682798114320e-04 9.013564030942e-03 0.0 
0.0 0.0 -1.323793839065e-03 
-9.392924140876e-04 3.695422570173e-04 0.0 
3.695422570173e-04 5.310514062737e-03 0.0 
0.0 0.0 -8.119939454945e-04 
-5.728660710208e-04 4.262528038404e-04 0.0 
4.262528038404e-04 4.737723853376e-03 0.0 
0.0 0.0 -8.199314282332e-04 
-8.958346709753e-04 -3.297015998196e-04 0.0 
-3.297015998196e-04 5.260659561238e-03 0.0 
0.0 0.0 -8.523954645778e-04 
2.690092700999e-04 2.909500152897e-04 0.0 
2.909500152897e-04 1.354854423747e-03 0.0 
0.0 0.0 -4.479040077299e-04 
-8.117880315537e-04 -8.289707142058e-04 0.0 
-8.289707142058e-04 4.623452632362e-03 0.0 
0.0 0.0 -7.551671247638e-04 
-8.525904846397e-04 7.508503903319e-04 0.0 
7.508503903319e-04 5.621343722007e-03 0.0 
0.0 0.0 -9.293281999836e-04 
-8.758111121474e-04 7.483431883641e-04 0.0 
7.483431883641e-04 5.371889788881e-03 0.0 
0.0 0.0 -8.738309435711e-04 
-1.092742745582e-03 3.915524889603e-04 0.0 
3.915524889603e-04 6.485907170089e-03 0.0 
0.0 0.0 -9.814596669550e-04 
-1.035952161766e-03 6.611052853446e-04 0.0 
6.611052853446e-04 6.380857888035e-03 0.0 
0.0 0.0 -1.008022096355e-03 
-1.077652724168e-03 2.805726221407e-04 0.0 
2.805726221407e-04 6.715783923999e-03 0.0 
0.0 0.0 -1.040850218070e-03 
-2.023974518503e-04 -1.321133762499e-04 0.0 
-1.321133762499e-04 1.384394093772e-03 0.0 
0.0 0.0 -2.163717569139e-04 
-7.893601242255e-04 -4.562798916239e-04 0.0 
-4.562798916239e-04 4.381521976835e-03 0.0 
0.0 0.0 -7.209013985657e-04 
-7.313998078972e-04 5.086544562021e-04 0.0 
5.086544562021e-04 4.197814066076e-03 0.0 
0.0 0.0 -6.825522065409e-04 
-1.028318523239e-03 6.006171887521e-04 0.0 
6.006171887521e-04 6.085692307244e-03 0.0 
0.0 0.0 -9.521954671713e-04 
-1.067646735267e-03 2.331910673829e-04 0.0 
2.331910673829e-04 6.426373394987e-03 0.0 
0.0 0.0 -9.850634846466e-04 
-9.716546386639e-04 2.965949022534e-04 0.0 
2.965949022534e-04 6.988702290933e-03 0.0 
0.0 0.0 -1.160108757481e-03 
-4.472950566148e-04 1.734158785359e-04 0.0 
1.734158785359e-04 1.999281221139e-03 0.0 
0.0 0.0 -3.273996513303e-04 
5.013762340144e-04 -1.239269767564e-03 0.0 
-1.239269767564e-03 2.218446430556e-04 0.0 
0.0 0.0 -3.099518044586e-04 
-7.265319955109e-04 8.390462931927e-04 0.0 
8.390462931927e-04 4.877510016991e-03 0.0 
0.0 0.0 -8.305977116616e-04 
-8.244303094237e-04 -8.036957222691e-04 0.0 
-8.036957222691e-04 4.446645084886e-03 0.0 
0.0 0.0 -7.181358556540e-04 
-8.207218427826e-04 3.111449193766e-07 0.0 
3.111449193766e-07 4.297525914166e-03 0.0 
0.0 0.0 -6.554599841463e-04 
-8.454650530547e-04 2.288116945552e-05 0.0 
2.288116945552e-05 4.550895634799e-03 0.0 
0.0 0.0 -6.889204951115e-04 
-1.102411452052e-03 3.661135033764e-05 0.0 
3.661135033764e-05 6.536305471285e-03 0.0 
0.0 0.0 -9.793492904611e-04 
1.401876311920e-04 1.457319982698e-03 0.0 
1.457319982698e-03 8.276000244946e-04 0.0 
0.0 0.0 -3.371109590424e-04 
-9.056307504124e-04 -3.219601326285e-04 0.0 
-3.219601326285e-04 5.073216074597e-03 0.0 
0.0 0.0 -8.154759146177e-04 
-8.139515461008e-04 -3.444279104294e-04 0.0 
-3.444279104294e-04 6.262709696181e-03 0.0 
0.0 0.0 -1.049209916622e-03 
5.784646720155e-04 -2.798136268851e-04 0.0 
-2.798136268851e-04 4.491531344292e-05 0.0 
0.0 0.0 -2.671628509107e-04 
-1.269607203850e-03 4.300111845681e-04 0.0 
4.300111845681e-04 8.005085435650e-03 0.0 
0.0 0.0 -1.285586381397e-03 
-1.234701409080e-03 4.026661623699e-05 0.0 
4.026661623699e-05 7.724712803764e-03 0.0 
0.0 0.0 -1.152455342817e-03 
-9.332307083252e-04 -6.317385210980e-04 0.0 
-6.317385210980e-04 4.943755293323e-03 0.0 
0.0 0.0 -7.756113943005e-04 
-1.132361128818e-03 -1.347962173953e-04 0.0 
-1.347962173953e-04 6.852501733015e-03 0.0 
0.0 0.0 -1.078722419643e-03 
-1.782286125890e-04 -3.440225614963e-05 0.0 
-3.440225614963e-05 7.356149739106e-04 0.0 
0.0 0.0 -1.797547709840e-04 
-7.836878423569e-04 -4.420353483476e-04 0.0 
-4.420353483476e-04 6.015976224596e-03 0.0 
0.0 0.0 -1.012471576362e-03 
-7.618878641414e-04 4.386001518409e-04 0.0 
4.386001518409e-04 5.252415903850e-03 0.0 
0.0 0.0 -8.634366945984e-04 
-1.365202202974e-04 -1.663937919944e-05 0.0 
-1.663937919944e-05 7.240163383166e-04 0.0 
0.0 0.0 -1.788519809851e-04 
-1.221296204116e-03 3.897303876191e-04 0.0 
3.897303876191e-04 7.675470665632e-03 0.0 
0.0 0.0 -1.154859126927e-03 
6.541694671517e-04 -5.838497479074e-04 0.0 
-5.838497479074e-04 -1.165985658389e-04 0.0 
0.0 0.0 -2.303875291341e-04 
-1.022773715161e-03 2.649419741860e-04 0.0 
2.649419741860e-04 6.147018606592e-03 0.0 
0.0 0.0 -9.496453321265e-04 
-8.501477431051e-04 4.017489682252e-04 0.0 
4.017489682252e-04 5.430956065029e-03 0.0 
0.0 0.0 -8.712718144564e-04 
-3.870813166907e-04 -6.841434598879e-04 0.0 
-6.841434598879e-04 4.009053170529e-03 0.0 
0.0 0.0 -7.519815330289e-04 
-7.080628147866e-04 -2.630245850535e-04 0.0 
-2.630245850535e-04 5.293137348391e-03 0.0 
0.0 0.0 -9.052548162676e-04 
-1.248469741651e-03 4.216386458729e-04 0.0 
4.216386458729e-04 7.872413297340e-03 0.0 
0.0 0.0 -1.182898372388e-03 
-7.959805508824e-04 -1.903636579771e-04 0.0 
-1.903636579771e-04 5.775075989453e-03 0.0 
0.0 0.0 -9.716005391689e-04 
-7.058567601375e-04 8.071090420181e-04 0.0 
8.071090420181e-04 4.993912000440e-03 0.0 
0.0 0.0 -8.581765416018e-04 
-6.834773769761e-04 4.720321187624e-04 0.0 
4.720321187624e-04 4.941232986507e-03 0.0 
0.0 0.0 -8.279616112547e-04 
1.200725464498e-05 4.997720012563e-04 0.0 
4.997720012563e-04 2.980647594779e-04 0.0 
0.0 0.0 -1.328880060527e-04 
5.267325684764e-04 -1.507976047628e-04 0.0 
-1.507976047628e-04 -1.515568147922e-04 0.0 
0.0 0.0 -1.607896087218e-04 
-1.031637425544e-03 2.938257107745e-04 0.0 
2.938257107745e-04 7.016823171402e-03 0.0 
0.0 0.0 -1.118331045454e-03 
-1.047581819557e-03 3.855603907834e-05 0.0 
3.855603907834e-05 6.024362043911e-03 0.0 
0.0 0.0 -9.085367473448e-04 
-1.068580773740e-03 6.289177231850e-04 0.0 
6.289177231850e-04 7.124997701846e-03 0.0 
0.0 0.0 -1.148691026115e-03 
-2.168784888490e-04 1.398227562360e-03 0.0 
1.398227562360e-03 2.112550911132e-03 0.0 
0.0 0.0 -4.942977111402e-04 
-1.176051745943e-03 5.435901405529e-04 0.0 
5.435901405529e-04 7.176283028080e-03 0.0 
0.0 0.0 -1.097950598811e-03 
-1.105546950119e-03 2.883637130323e-04 0.0 
2.883637130323e-04 7.335184708628e-03 0.0 
0.0 0.0 -1.155407764312e-03 
-8.481473499091e-04 3.802854440166e-04 0.0 
3.802854440166e-04 4.634623972028e-03 0.0 
0.0 0.0 -7.179420443741e-04 
-1.053414342459e-03 6.334862389143e-04 0.0 
6.334862389143e-04 6.950110385841e-03 0.0 
0.0 0.0 -1.120992621467e-03 
-1.150488405997e-03 -5.115596481821e-04 0.0 
-5.115596481821e-04 6.921289775542e-03 0.0 
0.0 0.0 -1.075946734593e-03 
-8.430169137080e-04 7.309466471044e-04 0.0 
7.309466471044e-04 5.750606817071e-03 0.0 
0.0 0.0 -9.571162043194e-04 
-8.407412319889e-04 -3.923326874810e-04 0.0 
-3.923326874810e-04 4.820090656330e-03 0.0 
0.0 0.0 -7.866383436874e-04 
-8.661293961769e-04 -7.636305903076e-04 0.0 
-7.636305903076e-04 5.068827859701e-03 0.0 
0.0 0.0 -8.209012074946e-04 
-1.276631957823e-03 1.351613779989e-04 0.0 
1.351613779989e-04 8.067600813718e-03 0.0 
0.0 0.0 -1.204704583718e-03 
-6.220699559740e-04 -3.467517458205e-04 0.0 
-3.467517458205e-04 4.812375804049e-03 0.0 
0.0 0.0 -8.396599866114e-04 
-8.640312315529e-04 7.564773801915e-04 0.0 
7.564773801915e-04 5.496513579944e-03 0.0 
0.0 0.0 -9.015555482168e-04 
-5.139647083066e-04 6.286602551559e-04 0.0 
6.286602551559e-04 4.638431100819e-03 0.0 
0.0 0.0 -8.433600309793e-04 
-8.878790724241e-04 -1.375747034556e-04 0.0 
-1.375747034556e-04 6.258870962336e-03 0.0 
0.0 0.0 -1.038364586984e-03 
-4.800211114771e-04 4.132947089942e-04 0.0 
4.132947089942e-04 4.403087062058e-03 0.0 
0.0 0.0 -7.842421616061e-04 
1.708764263770e-04 1.828302604937e-04 0.0 
1.828302604937e-04 1.696323968062e-03 0.0 
0.0 0.0 -5.065804551108e-04 
-4.825363659521e-04 1.845931219475e-05 0.0 
1.845931219475e-05 4.680497453253e-03 0.0 
0.0 0.0 -8.561803240471e-04 
8.082119994225e-05 4.790974331332e-04 0.0 
4.790974331332e-04 2.023860804843e-03 0.0 
0.0 0.0 -5.426160209679e-04 
-1.033438603377e-03 6.383788790857e-04 0.0 
6.383788790857e-04 6.235509335954e-03 0.0 
0.0 0.0 -9.799122972177e-04 
1.114946380246e-04 -1.909482610686e-04 0.0 
-1.909482610686e-04 2.113077183239e-03 0.0 
0.0 0.0 -5.399485503622e-04 
-9.706412986079e-04 3.184758127264e-04 0.0 
3.184758127264e-04 6.013389094156e-03 0.0 
0.0 0.0 -9.420580210740e-04 
-9.265946290547e-04 -4.225709154864e-05 0.0 
-4.225709154864e-05 6.885841307398e-03 0.0 
0.0 0.0 -1.130549445556e-03 
-8.685442447111e-04 3.124266913747e-04 0.0 
3.124266913747e-04 6.514082051094e-03 0.0 
0.0 0.0 -1.096529089934e-03 
-4.417150057457e-04 8.260625217284e-04 0.0 
8.260625217284e-04 3.995231427087e-03 0.0 
0.0 0.0 -7.512528815036e-04 
-1.059191105034e-03 4.065855107728e-04 0.0 
4.065855107728e-04 6.228287830528e-03 0.0 
0.0 0.0 -9.460253849645e-04 
-1.179141908394e-03 -9.694575707592e-05 0.0 
-9.694575707592e-05 7.087490944073e-03 0.0 
0.0 0.0 -1.107441567342e-03 
-1.193835214950e-03 -4.719824871619e-04 0.0 
-4.719824871619e-04 7.155436910273e-03 0.0 
0.0 0.0 -1.104747680386e-03 
1.944125303692e-04 1.273132647232e-03 0.0 
1.273132647232e-03 5.121470870520e-04 0.0 
0.0 0.0 -3.028112646091e-04 
-9.836336619932e-04 6.878362883605e-04 0.0 
6.878362883605e-04 6.089006481299e-03 0.0 
0.0 0.0 -9.724793438395e-04 
-1.268204156625e-03 7.721982515826e-06 0.0 
7.721982515826e-06 7.786698253164e-03 0.0 
0.0 0.0 -1.205818386895e-03 
-6.870681417228e-04 7.008927199053e-04 0.0 
7.008927199053e-04 3.265237971609e-03 0.0 
0.0 0.0 -5.357889572170e-04 
-9.885170178391e-04 -5.948066208015e-04 0.0 
-5.948066208015e-04 5.380783060798e-03 0.0 
0.0 0.0 -8.409532000723e-04 
-7.799555259594e-05 6.230825562270e-04 0.0 
6.230825562270e-04 5.570487652900e-04 0.0 
0.0 0.0 -2.053085197260e-04 
-1.219579480668e-03 -6.033820998881e-05 0.0 
-6.033820998881e-05 7.313003609483e-03 0.0 
0.0 0.0 -1.136235114959e-03 
2.012100085966e-04 5.845223729044e-04 0.0 
5.845223729044e-04 1.434306137738e-03 0.0 
0.0 0.0 -4.785631936959e-04 
-1.042459381450e-03 3.192310209748e-05 0.0 
3.192310209748e-05 5.237687487302e-03 0.0 
0.0 0.0 -8.166178341775e-04 
-7.748148319910e-04 5.841265057534e-04 0.0 
5.841265057534e-04 5.931280080680e-03 0.0 
0.0 0.0 -1.008721701990e-03 
-1.070450976463e-03 4.786712554870e-05 0.0 
4.786712554870e-05 6.281594191104e-03 0.0 
0.0 0.0 -9.438854677472e-04 
-1.019990029507e-03 4.017679917675e-04 0.0 
4.017679917675e-04 5.968797618871e-03 0.0 
0.0 0.0 -9.108073647307e-04 
-7.821076712380e-04 7.813500369489e-04 0.0 
7.813500369489e-04 5.311710917371e-03 0.0 
0.0 0.0 -8.936906232635e-04 
-7.622603984917e-04 6.791341036292e-05 0.0 
6.791341036292e-05 3.813852506224e-03 0.0 
0.0 0.0 -5.884905393267e-04 
-7.846644250761e-04 7.808219167045e-05 0.0 
7.808219167045e-05 4.065403212213e-03 0.0 
0.0 0.0 -6.218825813656e-04 
-1.233191643352e-03 -4.261165376934e-04 0.0 
-4.261165376934e-04 7.382821542764e-03 0.0 
0.0 0.0 -1.133400347077e-03 
-7.515727621129e-04 -6.277168771854e-04 0.0 
-6.277168771854e-04 5.560136738189e-03 0.0 
0.0 0.0 -9.394087121358e-04 
-4.848945124793e-04 -6.056685510147e-04 0.0 
-6.056685510147e-04 4.517787566476e-03 0.0 
0.0 0.0 -8.164864906097e-04 
-7.633590365807e-04 1.747203192895e-05 0.0 
1.747203192895e-05 5.952051370355e-03 0.0 
0.0 0.0 -1.014986374720e-03 
-3.745762426959e-04 -1.208773656876e-05 0.0 
-1.208773656876e-05 4.169816033916e-03 0.0 
0.0 0.0 -7.915105747055e-04 
1.470981817100e-04 1.699633256222e-04 0.0 
1.699633256222e-04 1.922517798804e-03 0.0 
0.0 0.0 -5.119962057136e-04 
-7.251559287553e-04 3.584185138835e-04 0.0 
3.584185138835e-04 3.747261506519e-03 0.0 
0.0 0.0 -5.908395828668e-04 
-9.989176313813e-04 5.279041160422e-05 0.0 
5.279041160422e-05 5.610761613461e-03 0.0 
0.0 0.0 -8.442294783838e-04 
-8.140722277822e-04 1.153536144127e-05 0.0 
1.153536144127e-05 4.902728731460e-03 0.0 
0.0 0.0 -7.121995050294e-04 
-8.606102061483e-04 -1.123280902614e-04 0.0 
-1.123280902614e-04 6.585165240131e-03 0.0 
0.0 0.0 -1.093598669875e-03 
-3.829181500835e-04 3.755711815579e-04 0.0 
3.755711815579e-04 4.064228922124e-03 0.0 
0.0 0.0 -7.486350631497e-04 
-1.089919498544e-03 4.032533245885e-04 0.0 
4.032533245885e-04 7.584210826506e-03 0.0 
0.0 0.0 -1.233571955743e-03 
-1.258849103109e-03 1.203645015164e-04 0.0 
1.203645015164e-04 7.318640773608e-03 0.0 
0.0 0.0 -1.121177773779e-03 
-4.277541990728e-04 -3.591296022275e-04 0.0 
-3.591296022275e-04 4.511429067315e-03 0.0 
0.0 0.0 -8.252461108756e-04 
-1.288851597356e-03 -4.658297080141e-04 0.0 
-4.658297080141e-04 8.043612715449e-03 0.0 
0.0 0.0 -1.241472629463e-03 
3.242839641495e-05 -4.968694073408e-04 0.0 
-4.968694073408e-04 2.366486634827e-03 0.0 
0.0 0.0 -5.682622744621e-04 
-1.077966235092e-03 4.739436140623e-04 0.0 
4.739436140623e-04 7.389804662751e-03 0.0 
0.0 0.0 -1.204482468497e-03 
-7.429375265798e-04 4.078626067565e-04 0.0 
4.078626067565e-04 5.376339153074e-03 0.0 
0.0 0.0 -8.910665706739e-04 
-8.382327257171e-04 6.914183336446e-04 0.0 
6.914183336446e-04 5.885419181804e-03 0.0 
0.0 0.0 -9.848034212814e-04 
-9.867962554531e-04 -3.515709155634e-04 0.0 
-3.515709155634e-04 7.009894236266e-03 0.0 
0.0 0.0 -1.146785027167e-03 
-6.480751664788e-04 -1.064130565160e-03 0.0 
-1.064130565160e-03 3.485571623010e-03 0.0 
0.0 0.0 -5.958228065582e-04 
-9.264979844569e-04 7.226480241173e-04 0.0 
7.226480241173e-04 5.798649245259e-03 0.0 
0.0 0.0 -9.369464185080e-04 
-3.976862535672e-04 -5.140984221878e-04 0.0 
-5.140984221878e-04 4.248707874465e-03 0.0 
0.0 0.0 -7.886172400246e-04 
-9.126908566727e-04 3.597233129020e-04 0.0 
3.597233129020e-04 5.721921232905e-03 0.0 
0.0 0.0 -9.065670216064e-04 
-2.413614743732e-04 9.207248143764e-04 0.0 
9.207248143764e-04 2.576101931259e-03 0.0 
0.0 0.0 -5.268093404353e-04 
-8.396821970539e-04 6.672060837292e-04 0.0 
6.672060837292e-04 6.048287273264e-03 0.0 
0.0 0.0 -1.013229387512e-03 
-3.452329379355e-04 -1.792312499866e-04 0.0 
-1.792312499866e-04 3.927967745038e-03 0.0 
0.0 0.0 -7.548706880268e-04 
-9.599399109740e-04 -2.677314431030e-04 0.0 
-2.677314431030e-04 5.510906117541e-03 0.0 
0.0 0.0 -8.810281692460e-04 
-9.326422123301e-04 7.027170698306e-04 0.0 
7.027170698306e-04 5.663041666324e-03 0.0 
0.0 0.0 -9.091416541300e-04 
1.310354464969e-04 5.651438564875e-04 0.0 
5.651438564875e-04 1.741573510573e-04 0.0 
0.0 0.0 -1.307969132375e-04 
-6.049604556670e-04 5.771719455814e-04 0.0 
5.771719455814e-04 5.135535656328e-03 0.0 
0.0 0.0 -9.082496170556e-04 
-8.264119998562e-05 1.037717303205e-03 0.0 
1.037717303205e-03 8.249845298322e-04 0.0 
0.0 0.0 -3.181471413628e-04 
-3.486990110529e-04 1.618131580725e-05 0.0 
1.618131580725e-05 1.379681923450e-03 0.0 
0.0 0.0 -2.410360834028e-04 
-9.637368636999e-04 -2.534336696837e-04 0.0 
-2.534336696837e-04 5.310722216845e-03 0.0 
0.0 0.0 -8.438072171805e-04 
-1.086820871417e-03 2.926579608564e-04 0.0 
2.926579608564e-04 7.015412211803e-03 0.0 
0.0 0.0 -1.098354823938e-03 
-1.049951667635e-03 4.416530287396e-04 0.0 
4.416530287396e-04 6.131491265693e-03 0.0 
0.0 0.0 -9.387552692590e-04 
-7.056421761476e-04 1.432307568262e-04 0.0 
1.432307568262e-04 3.346065552913e-03 0.0 
0.0 0.0 -5.215302833573e-04 
-1.342322198460e-03 3.183613232645e-04 0.0 
3.183613232645e-04 8.773669276182e-03 0.0 
0.0 0.0 -1.342322198460e-03 
3.836307119602e-05 1.777435835148e-04 0.0 
1.777435835148e-04 5.796280456300e-05 0.0 
0.0 0.0 -4.128251818244e-05 
-7.274210317143e-04 1.629360554579e-04 0.0 
1.629360554579e-04 3.588533030425e-03 0.0 
0.0 0.0 -5.549805679787e-04 
-5.340066039334e-04 -2.072389055199e-04 0.0 
-2.072389055199e-04 4.712236291548e-03 0.0 
0.0 0.0 -8.472740691906e-04 
-9.827474692013e-04 -5.565690633406e-04 0.0 
-5.565690633406e-04 5.178751046310e-03 0.0 
0.0 0.0 -8.042584860449e-04 
-8.272148132873e-04 2.043748305373e-04 0.0 
2.043748305373e-04 4.358943672927e-03 0.0 
0.0 0.0 -6.733236465360e-04 
-1.391682779442e-04 -5.660980208305e-04 0.0 
-5.660980208305e-04 2.708178146588e-03 0.0 
0.0 0.0 -5.908717820549e-04 
-6.655440375533e-04 -6.952663529849e-04 0.0 
-6.952663529849e-04 5.066823485387e-03 0.0 
0.0 0.0 -8.733819075714e-04 
-8.196031050189e-04 3.838546333042e-04 0.0 
3.838546333042e-04 5.685766128825e-03 0.0 
0.0 0.0 -9.266779469803e-04 
-6.990167424859e-04 5.271708541357e-04 0.0 
5.271708541357e-04 5.638282256463e-03 0.0 
0.0 0.0 -9.734188451722e-04 
-1.186630910785e-03 6.460835059358e-04 0.0 
6.460835059358e-04 7.362442267771e-03 0.0 
0.0 0.0 -1.144302277022e-03 
2.969246869216e-04 1.115918954902e-03 0.0 
1.115918954902e-03 3.039667145196e-04 0.0 
0.0 0.0 -2.575248863319e-04 
-9.117889324076e-04 -2.951149434616e-04 0.0 
-2.951149434616e-04 4.877432515646e-03 0.0 
0.0 0.0 -7.784793977761e-04 
-1.012208946591e-03 -1.496092469439e-04 0.0 
-1.496092469439e-04 5.343186025449e-03 0.0 
0.0 0.0 -8.356154970834e-04 
-6.331046465697e-04 -9.049418944168e-04 0.0 
-9.049418944168e-04 2.758073297942e-03 0.0 
0.0 0.0 -4.544023106810e-04 
-8.924169308788e-04 4.058945008041e-04 0.0 
4.058945008041e-04 4.880366770900e-03 0.0 
0.0 0.0 -7.518103749233e-04 
-1.063894881261e-03 9.071629636426e-05 0.0 
9.071629636426e-05 6.191505659791e-03 0.0 
0.0 0.0 -9.362314798257e-04 
-1.205869425098e-03 -2.261798490425e-04 0.0 
-2.261798490425e-04 6.678201842620e-03 0.0 
0.0 0.0 -1.023451880212e-03 
-7.015472354662e-05 -2.565736168466e-05 0.0 
-2.565736168466e-05 9.612203433626e-04 0.0 
0.0 0.0 -1.605242656235e-04 
0.0 0.0 0.0 
0.0 0.0 0.0 
0.0 0.0 0.0 
-5.147384921578e-04 -7.536249502610e-04 0.0 
-7.536249502610e-04 1.966691460963e-03 0.0 
0.0 0.0 -3.233707900025e-04 
-1.027484224102e-03 -4.836123400480e-04 0.0 
-4.836123400480e-04 5.407088060702e-03 0.0 
0.0 0.0 -8.330087554115e-04 
-8.882847245792e-05 -4.537970764089e-04 0.0 
-4.537970764089e-04 2.924964268328e-03 0.0 
0.0 0.0 -6.322020076307e-04 
-9.059460685547e-05 -9.981933794838e-04 0.0 
-9.981933794838e-04 2.441338825064e-03 0.0 
0.0 0.0 -5.605319560360e-04 
1.602068840710e-04 -5.380164516261e-04 0.0 
-5.380164516261e-04 1.784200169895e-03 0.0 
0.0 0.0 -5.041580933422e-04 
-1.016808142495e-03 -1.850132427343e-04 0.0 
-1.850132427343e-04 5.546831112907e-03 0.0 
0.0 0.0 -8.721335634590e-04 
-1.089492890547e-03 5.256596706488e-04 0.0 
5.256596706488e-04 6.464473810732e-03 0.0 
0.0 0.0 -9.956198530692e-04 
-1.055480845035e-03 -8.073487003007e-05 0.0 
-8.073487003007e-05 5.564073531230e-03 0.0 
0.0 0.0 -8.643287579461e-04 
-7.969352206199e-05 1.392070136612e-04 0.0 
1.392070136612e-04 2.839214225501e-03 0.0 
0.0 0.0 -6.348607296063e-04 
-9.652452647080e-04 3.246353242036e-04 0.0 
3.246353242036e-04 6.148089658116e-03 0.0 
0.0 0.0 -9.699423737970e-04 
-9.336187348190e-04 2.571357999357e-04 0.0 
2.571357999357e-04 5.466318221896e-03 0.0 
0.0 0.0 -8.236220363599e-04 
-8.699149514131e-04 5.427467141130e-04 0.0 
5.427467141130e-04 6.422709640429e-03 0.0 
0.0 0.0 -1.076197569190e-03 
-1.067019444508e-03 -4.166446150284e-04 0.0 
-4.166446150284e-04 5.628158977285e-03 0.0 
0.0 0.0 -8.617642947636e-04 
-1.037211549759e-03 -5.241557810677e-04 0.0 
-5.241557810677e-04 5.613837274242e-03 0.0 
0.0 0.0 -8.694825820363e-04 
-6.540642588821e-04 2.339053685670e-04 0.0 
2.339053685670e-04 2.854376740045e-03 0.0 
0.0 0.0 -4.548485160793e-04 
-1.830897456311e-04 -6.409178638984e-04 0.0 
-6.409178638984e-04 3.204685697947e-03 0.0 
0.0 0.0 -6.598952468721e-04 
-1.092100602406e-03 -1.853786207342e-05 0.0 
-1.853786207342e-05 5.772593500168e-03 0.0 
0.0 0.0 -8.930692851043e-04 
-1.055598751707e-03 1.761127934755e-04 0.0 
1.761127934755e-04 6.440216787672e-03 0.0 
0.0 0.0 -9.615701295830e-04 
-1.001453888758e-03 1.848581000640e-04 0.0 
1.848581000640e-04 6.057549413992e-03 0.0 
0.0 0.0 -8.972249362023e-04 
-6.770179440789e-04 2.249366581215e-04 0.0 
2.249366581215e-04 3.121369932688e-03 0.0 
0.0 0.0 -4.879487645214e-04 
-1.064022376908e-03 -1.167841295241e-04 0.0 
-1.167841295241e-04 5.775583557860e-03 0.0 
0.0 0.0 -9.007118478549e-04 
-2.859853618183e-04 -1.273336407491e-03 0.0 
-1.273336407491e-03 2.641008784054e-03 0.0 
0.0 0.0 -5.517684601482e-04 
-1.131468898778e-04 1.392096794452e-03 0.0 
1.392096794452e-03 1.091258670637e-03 0.0 
0.0 0.0 -4.029896332773e-04 
-1.047918758114e-03 7.340593604256e-05 0.0 
7.340593604256e-05 7.456724692606e-03 0.0 
0.0 0.0 -1.202908440308e-03 
-5.627131210403e-04 -6.726340984242e-04 0.0 
-6.726340984242e-04 1.683903901649e-03 0.0 
0.0 0.0 -3.052185142707e-04 
-3.169146226738e-04 -8.080615281722e-04 0.0 
-8.080615281722e-04 2.922160059009e-03 0.0 
0.0 0.0 -5.822209219963e-04 
-5.594905133051e-04 2.180548040984e-04 0.0 
2.180548040984e-04 5.015163126877e-03 0.0 
0.0 0.0 -8.766521650092e-04 
-6.622241155769e-04 4.063560181712e-04 0.0 
4.063560181712e-04 3.270370974807e-03 0.0 
0.0 0.0 -5.239962781855e-04 
-1.100749507766e-03 -3.563808608849e-04 0.0 
-3.563808608849e-04 5.849825024464e-03 0.0 
0.0 0.0 -8.905656347129e-04 
-5.985345031535e-04 -2.223177207573e-04 0.0 
-2.223177207573e-04 2.732572505037e-03 0.0 
0.0 0.0 -4.282508963332e-04 
-9.076266712889e-04 3.184539997901e-05 0.0 
3.184539997901e-05 5.036430824459e-03 0.0 
0.0 0.0 -7.823486082854e-04 
-1.081370140730e-03 -4.558826803401e-04 0.0 
-4.558826803401e-04 5.841011814907e-03 0.0 
0.0 0.0 -8.981647654366e-04 
-4.858836919803e-04 -7.457674947231e-04 0.0 
-7.457674947231e-04 4.297440458521e-03 0.0 
0.0 0.0 -7.800125773855e-04 
-9.348538294518e-04 -6.697112536075e-04 0.0 
-6.697112536075e-04 5.140798604724e-03 0.0 
0.0 0.0 -8.126672281948e-04 
8.703935028516e-05 1.690415104804e-04 0.0 
1.690415104804e-04 1.245018223100e-05 0.0 
0.0 0.0 -4.263837107835e-05 
-1.241448931941e-03 -1.835319642593e-04 0.0 
-1.835319642593e-04 7.812891284508e-03 0.0 
0.0 0.0 -1.152567315725e-03 
-3.081364130084e-04 -9.550871966768e-04 0.0 
-9.550871966768e-04 3.298658843063e-03 0.0 
0.0 0.0 -6.514572604261e-04 
-9.718772757445e-04 1.979502564842e-04 0.0 
1.979502564842e-04 7.009305473662e-03 0.0 
0.0 0.0 -1.154039482800e-03 
-8.056057162638e-04 2.987492427290e-04 0.0 
2.987492427290e-04 5.959106481257e-03 0.0 
0.0 0.0 -9.821191134873e-04 
-1.105426206004e-03 -5.038601752530e-05 0.0 
-5.038601752530e-05 5.994681172748e-03 0.0 
0.0 0.0 -9.293965016571e-04 
-1.119004413752e-03 -3.820015781438e-04 0.0 
-3.820015781438e-04 6.058753668650e-03 0.0 
0.0 0.0 -9.268654845074e-04 
-3.123142997184e-05 -1.167065523526e-04 0.0 
-1.167065523526e-04 2.573595127563e-03 0.0 
0.0 0.0 -5.989583036242e-04 
-3.157644098559e-04 -6.245110788433e-04 0.0 
-6.245110788433e-04 1.110181514534e-03 0.0 
0.0 0.0 -2.862240160649e-04 
8.762727446402e-05 1.506685699699e-04 0.0 
1.506685699699e-04 5.297682451372e-06 0.0 
0.0 0.0 -3.982498153517e-05 
-1.139236581336e-03 9.449893671701e-06 0.0 
9.449893671701e-06 6.206332100994e-03 0.0 
0.0 0.0 -9.583065114985e-04 
-9.895576341864e-04 5.422021304530e-05 0.0 
5.422021304530e-05 6.999392542925e-03 0.0 
0.0 0.0 -1.148056181429e-03 
-4.775145294270e-04 -1.288589848279e-03 0.0 
-1.288589848279e-03 2.885723426917e-03 0.0 
0.0 0.0 -5.426247857783e-04 
-9.796725008080e-04 7.000708170444e-04 0.0 
7.000708170444e-04 6.228639819323e-03 0.0 
0.0 0.0 -1.000702849114e-03 
-6.472337897981e-04 7.799664963271e-04 0.0 
7.799664963271e-04 2.970737159620e-03 0.0 
0.0 0.0 -5.002094317253e-04 
-1.024167741003e-03 2.983156923563e-04 0.0 
2.983156923563e-04 6.439902929080e-03 0.0 
0.0 0.0 -1.005614027492e-03 
-1.230125729383e-03 -1.791987086205e-04 0.0 
-1.791987086205e-04 8.178224384408e-03 0.0 
0.0 0.0 -1.266534580134e-03 
0.0 0.0 0.0 
0.0 0.0 0.0 
0.0 0.0 0.0 
-1.341620833825e-03 -1.240232465015e-06 0.0 
-1.240232465015e-06 8.838044206909e-03 0.0 
0.0 0.0 -1.341620833825e-03 
-1.340051318819e-03 -7.855236063614e-05 0.0 
-7.855236063614e-05 8.625114056382e-03 0.0 
0.0 0.0 -1.340051318819e-03 
-8.980163173550e-04 -1.960905146637e-04 0.0 
-1.960905146637e-04 5.236321733421e-03 0.0 
0.0 0.0 -7.955197795907e-04 
-4.661383092836e-04 -1.098309243055e-03 0.0 
-1.098309243055e-03 3.461471777819e-03 0.0 
0.0 0.0 -6.428246066218e-04 
-8.082931774475e-04 3.508972968720e-04 0.0 
3.508972968720e-04 5.820381814417e-03 0.0 
0.0 0.0 -9.543595451430e-04 
-1.549769366622e-05 -2.109424872969e-04 0.0 
-2.109424872969e-04 2.675607327827e-03 0.0 
0.0 0.0 -6.041149214933e-04 
-2.283359273976e-04 -2.821495717667e-04 0.0 
-2.821495717667e-04 1.216165341166e-03 0.0 
0.0 0.0 -2.095884814006e-04 
5.244130076391e-06 5.299579131201e-04 0.0 
5.299579131201e-04 3.292147719476e-04 0.0 
0.0 0.0 -1.433395294388e-04 
-1.275023357737e-03 -5.993191991654e-05 0.0 
-5.993191991654e-05 8.163058981243e-03 0.0 
0.0 0.0 -1.209499414335e-03 
-1.082712059579e-03 1.205245821570e-04 0.0 
1.205245821570e-04 6.373245931173e-03 0.0 
0.0 0.0 -9.648175333861e-04 
-9.046820331639e-04 -1.080196974861e-06 0.0 
-1.080196974861e-06 4.867817697865e-03 0.0 
0.0 0.0 -7.224789237173e-04 
-1.279272833011e-03 4.773478504551e-04 0.0 
4.773478504551e-04 8.632757308161e-03 0.0 
0.0 0.0 -1.323661129950e-03 
-4.995343539176e-04 -2.062360200378e-04 0.0 
-2.062360200378e-04 2.288215934898e-03 0.0 
0.0 0.0 -3.615704333793e-04 
-1.305160647697e-03 4.322097678811e-04 0.0 
4.322097678811e-04 8.590809380930e-03 0.0 
0.0 0.0 -1.324908485340e-03 
-1.072336849723e-03 4.894356542548e-04 0.0 
4.894356542548e-04 6.310526310337e-03 0.0 
0.0 0.0 -9.670422101491e-04 
-6.106684104583e-04 -1.077307355153e-03 0.0 
-1.077307355153e-03 3.630162810958e-03 0.0 
0.0 0.0 -6.336394413500e-04 
-7.688592567693e-04 7.436159055388e-04 0.0 
7.436159055388e-04 5.436722305107e-03 0.0 
0.0 0.0 -9.212972352143e-04 
-4.366727405360e-04 -7.825680509829e-04 0.0 
-7.825680509829e-04 3.244703639757e-03 0.0 
0.0 0.0 -6.094834619596e-04 
-3.265911223950e-04 1.405912834574e-03 0.0 
1.405912834574e-03 1.452640584362e-03 0.0 
0.0 0.0 -3.649795199019e-04 
-4.990879049153e-04 -8.274194353689e-04 0.0 
-8.274194353689e-04 3.123468955199e-03 0.0 
0.0 0.0 -5.728018649490e-04 
-1.102176339442e-03 5.667634332671e-04 0.0 
5.667634332671e-04 6.620528006741e-03 0.0 
0.0 0.0 -1.023749757194e-03 
-1.274902778913e-03 -3.210380531188e-04 0.0 
-3.210380531188e-04 7.572738005346e-03 0.0 
0.0 0.0 -1.155390781228e-03 
-2.640863970045e-04 -6.506791704026e-04 0.0 
-6.506791704026e-04 3.044637194059e-03 0.0 
0.0 0.0 -6.181853003094e-04 
-1.037039327620e-03 6.760843031957e-04 0.0 
6.760843031957e-04 6.523249431128e-03 0.0 
0.0 0.0 -1.036271578259e-03 
0.0 0.0 0.0 
0.0 0.0 0.0 
0.0 0.0 0.0 
-1.285700230911e-04 -3.245101064007e-04 0.0 
-3.245101064007e-04 2.885767451406e-03 0.0 
0.0 0.0 -6.266282162577e-04 
-1.167206438241e-03 1.283137067331e-04 0.0 
1.283137067331e-04 7.080432372571e-03 0.0 
0.0 0.0 -1.066385360782e-03 
-6.379492421497e-04 -6.916022810517e-04 0.0 
-6.916022810517e-04 3.261870100237e-03 0.0 
0.0 0.0 -5.616069800515e-04 
-5.397721604140e-04 -1.270380268010e-03 0.0 
-1.270380268010e-03 2.784654802048e-03 0.0 
0.0 0.0 -5.052880831394e-04 
-7.290893412698e-04 3.613081104682e-04 0.0 
3.613081104682e-04 5.503308908361e-03 0.0 
0.0 0.0 -9.187611816440e-04 
1.265644672670e-04 -1.340381834312e-03 0.0 
-1.340381834312e-03 6.478378418571e-04 0.0 
0.0 0.0 -3.318867039103e-04 
-6.343393029067e-04 4.127806247347e-04 0.0 
4.127806247347e-04 2.352701282119e-03 0.0 
0.0 0.0 -3.867203691650e-04 
-5.980790938116e-04 3.108972139281e-04 0.0 
3.108972139281e-04 2.666414110552e-03 0.0 
0.0 0.0 -4.195921675762e-04 
-6.113097074720e-04 -7.505403763561e-04 0.0 
-7.505403763561e-04 2.857444945758e-03 0.0 
0.0 0.0 -4.973376392308e-04 
-5.765164058635e-04 -6.636526940974e-04 0.0 
-6.636526940974e-04 4.795423287764e-03 0.0 
0.0 0.0 -8.444178005646e-04 
-5.181015510014e-04 7.402765764373e-04 0.0 
7.402765764373e-04 4.473477357902e-03 0.0 
0.0 0.0 -8.147327860212e-04 
-1.021689517365e-03 3.040232263138e-04 0.0 
3.040232263138e-04 6.577677469830e-03 0.0 
0.0 0.0 -1.033897369924e-03 
-1.251489828841e-03 5.632464710330e-04 0.0 
5.632464710330e-04 7.903464121438e-03 0.0 
0.0 0.0 -1.224260864640e-03 
-6.076375545199e-04 4.683737268985e-04 0.0 
4.683737268985e-04 2.798103792701e-03 0.0 
0.0 0.0 -4.570814260163e-04 
-1.106194698900e-03 -2.340999049272e-04 0.0 
-2.340999049272e-04 6.875726326228e-03 0.0 
0.0 0.0 -1.028620860735e-03 
-1.222609548103e-03 6.000551956434e-04 0.0 
6.000551956434e-04 7.771092725331e-03 0.0 
0.0 0.0 -1.228414553209e-03 
4.319177178305e-05 1.565747196534e-04 0.0 
1.565747196534e-04 2.280131923741e-03 0.0 
0.0 0.0 -5.707601703556e-04 
-5.280303941059e-05 1.110289152965e-03 0.0 
1.110289152965e-03 8.099165551708e-04 0.0 
0.0 0.0 -3.244772210401e-04 
-6.896815476543e-04 4.595022377507e-04 0.0 
4.595022377507e-04 3.325524470954e-03 0.0 
0.0 0.0 -5.330167430730e-04 
-5.818026759286e-04 -7.746098819789e-04 0.0 
-7.746098819789e-04 4.581482398683e-03 0.0 
0.0 0.0 -8.082977034869e-04 
-1.084938189841e-03 6.476212573913e-04 0.0 
6.476212573913e-04 6.662130643566e-03 0.0 
0.0 0.0 -1.043024347135e-03 
-5.304647567233e-04 -3.288241115645e-04 0.0 
-3.288241115645e-04 4.511932891327e-03 0.0 
0.0 0.0 -8.108276944599e-04 
3.467916788336e-04 9.922084021829e-04 0.0 
9.922084021829e-04 1.937891863132e-04 0.0 
0.0 0.0 -2.316775136343e-04 
-6.676153210682e-04 -5.990024928293e-04 0.0 
-5.990024928293e-04 5.284713461811e-03 0.0 
0.0 0.0 -9.096068616062e-04 
-5.138764303910e-04 1.344859878066e-03 0.0 
1.344859878066e-03 1.832201827426e-03 0.0 
0.0 0.0 -3.508512830963e-04 
-4.693960867252e-04 2.899164946168e-04 0.0 
2.899164946168e-04 4.538651858574e-03 0.0 
0.0 0.0 -8.123573650817e-04 
-6.214317139949e-04 -2.381023826960e-04 0.0 
-2.381023826960e-04 5.000123203670e-03 0.0 
0.0 0.0 -8.756097305517e-04 
-7.629475729046e-04 6.967977887081e-04 0.0 
6.967977887081e-04 5.582110193462e-03 0.0 
0.0 0.0 -9.491391837787e-04 
-1.021932421091e-03 -1.375086625343e-04 0.0 
-1.375086625343e-04 6.258245616270e-03 0.0 
0.0 0.0 -9.494079867578e-04 
-6.355506189440e-04 -1.022411834394e-03 0.0 
-1.022411834394e-03 2.931807144820e-03 0.0 
0.0 0.0 -4.933620968966e-04 
6.896550266056e-05 1.225367383845e-03 0.0 
1.225367383845e-03 6.646895526308e-04 0.0 
0.0 0.0 -3.144235951249e-04 
-7.142483767440e-04 -1.644248298722e-04 0.0 
-1.644248298722e-04 5.495494976155e-03 0.0 
0.0 0.0 -9.415329344942e-04 
-5.361770105980e-04 1.152355576541e-03 0.0 
1.152355576541e-03 2.110820043480e-03 0.0 
0.0 0.0 -3.857152600925e-04 
0.0 0.0 0.0 
0.0 0.0 0.0 
0.0 0.0 0.0 
-1.255338616422e-03 1.860461172355e-04 0.0 
1.860461172355e-04 8.124850663151e-03 0.0 
0.0 0.0 -1.223389224544e-03 
-1.207848204117e-03 2.029693107177e-04 0.0 
2.029693107177e-04 7.752368092309e-03 0.0 
0.0 0.0 -1.157435638217e-03 
-8.808053059829e-05 -1.336699866714e-04 0.0 
-1.336699866714e-04 3.185750404010e-04 0.0 
0.0 0.0 -9.878336134402e-05 
-7.608266853487e-04 -5.406000089435e-04 0.0 
-5.406000089435e-04 5.776368912984e-03 0.0 
0.0 0.0 -9.758309632659e-04 
-5.833464932257e-04 -8.365325477788e-04 0.0 
-8.365325477788e-04 2.366888082298e-03 0.0 
0.0 0.0 -3.887237773309e-04 
-6.380037561636e-04 -4.574933655184e-04 0.0 
-4.574933655184e-04 2.507620922393e-03 0.0 
0.0 0.0 -4.195855280820e-04 
-1.094549564148e-03 6.711957006790e-04 0.0 
6.711957006790e-04 6.969957179569e-03 0.0 
0.0 0.0 -1.100737838324e-03 
-7.238835271569e-04 2.949238833770e-04 0.0 
2.949238833770e-04 5.642634368299e-03 0.0 
0.0 0.0 -9.467522836136e-04 
-1.039311302789e-03 6.802059572137e-04 0.0 
6.802059572137e-04 6.671189751840e-03 0.0 
0.0 0.0 -1.064854740548e-03 
-1.894001647684e-04 -8.697409082608e-04 0.0 
-8.697409082608e-04 2.974808611893e-03 0.0 
0.0 0.0 -6.238888496032e-04 
-8.115909482746e-04 3.390698231069e-05 0.0 
3.390698231069e-05 4.912143948729e-03 0.0 
0.0 0.0 -7.105917616147e-04 
-1.280305692054e-03 -3.247592506175e-04 0.0 
-3.247592506175e-04 7.975043847607e-03 0.0 
0.0 0.0 -1.281538364137e-03 
-5.868717402319e-04 -4.057488537009e-04 0.0 
-4.057488537009e-04 2.082970857728e-03 0.0 
0.0 0.0 -3.541816848729e-04 
-9.117200011925e-04 -1.598675323878e-04 0.0 
-1.598675323878e-04 6.764763677517e-03 0.0 
0.0 0.0 -1.121221582973e-03 
-5.590520355925e-04 3.309762878068e-04 0.0 
3.309762878068e-04 4.865889443216e-03 0.0 
0.0 0.0 -8.477100451819e-04 
-3.408380194667e-04 8.413428919704e-05 0.0 
8.413428919704e-05 1.600517951916e-03 0.0 
0.0 0.0 -2.892354545592e-04 
-1.075499676593e-03 6.132508001275e-04 0.0 
6.132508001275e-04 6.500844839128e-03 0.0 
0.0 0.0 -1.015166614560e-03 
-1.491725305372e-04 -7.955548992598e-05 0.0 
-7.955548992598e-05 3.115280814632e-03 0.0 
0.0 0.0 -6.628028861993e-04 
-1.315718485168e-04 -5.908276789213e-04 0.0 
-5.908276789213e-04 6.660589264853e-04 0.0 
0.0 0.0 -2.290658905579e-04 
-1.579860261374e-05 -4.063804822263e-04 0.0 
-4.063804822263e-04 2.360331977056e-03 0.0 
0.0 0.0 -5.632129589051e-04 
-1.187081976134e-03 1.736903763000e-04 0.0 
1.736903763000e-04 6.532498131095e-03 0.0 
0.0 0.0 -9.915417172310e-04 
-1.109173126604e-03 2.020871397918e-04 0.0 
2.020871397918e-04 6.702082758585e-03 0.0 
0.0 0.0 -1.020980360542e-03 
-4.812617878824e-04 -1.026396368797e-03 0.0 
-1.026396368797e-03 1.558368541222e-03 0.0 
0.0 0.0 -2.729600395538e-04 
-1.020281891755e-03 -1.851201749546e-04 0.0 
-1.851201749546e-04 5.386783464776e-03 0.0 
0.0 0.0 -8.076288038732e-04 
-1.089791995769e-03 6.678096790371e-04 0.0 
6.678096790371e-04 6.824575659747e-03 0.0 
0.0 0.0 -1.071782534217e-03 
-9.193547229402e-04 1.602334611530e-04 0.0 
1.602334611530e-04 6.776867929495e-03 0.0 
0.0 0.0 -1.109893377180e-03 
-5.608358153244e-04 -8.240965468318e-04 0.0 
-8.240965468318e-04 2.993251789866e-03 0.0 
0.0 0.0 -5.351738145117e-04 
-6.136579298705e-04 1.191680586993e-04 0.0 
1.191680586993e-04 2.664357051373e-03 0.0 
0.0 0.0 -4.333934152438e-04 
-5.989414354874e-04 6.742429676008e-04 0.0 
6.742429676008e-04 4.956197001293e-03 0.0 
0.0 0.0 -8.786267582723e-04 
-1.011039081455e-03 -2.136688597495e-04 0.0 
-2.136688597495e-04 6.164847278727e-03 0.0 
0.0 0.0 -9.278975173457e-04 
-2.430528072630e-05 -7.015609586409e-04 0.0 
-7.015609586409e-04 4.939718425864e-04 0.0 
0.0 0.0 -2.012856693686e-04 
-1.258632814515e-03 5.164131841311e-04 0.0 
5.164131841311e-04 8.325970250847e-03 0.0 
0.0 0.0 -1.269179263065e-03 
-1.319279019144e-03 4.296204971761e-04 0.0 
4.296204971761e-04 8.281943168671e-03 0.0 
0.0 0.0 -1.281197857596e-03 
-9.262453737932e-04 -1.856372937015e-04 0.0 
-1.856372937015e-04 5.467657039050e-03 0.0 
0.0 0.0 -8.387747867703e-04 
-1.294839307706e-03 7.871963389554e-06 0.0 
7.871963389554e-06 8.477109428305e-03 0.0 
0.0 0.0 -1.255037608383e-03 
-1.299621148244e-03 5.434080431767e-04 0.0 
5.434080431767e-04 8.249757004039e-03 0.0 
0.0 0.0 -1.285499913836e-03 
-2.377664936208e-04 -4.540001535470e-04 0.0 
-4.540001535470e-04 3.213325829595e-03 0.0 
0.0 0.0 -6.542748834104e-04 
-3.508305791302e-04 -1.119634461832e-03 0.0 
-1.119634461832e-03 3.128022697751e-03 0.0 
0.0 0.0 -6.153450468602e-04 
-1.170236808513e-03 2.917458807147e-05 0.0 
2.917458807147e-05 8.079333353292e-03 0.0 
0.0 0.0 -1.265535665854e-03 
0.0 0.0 0.0 
0.0 0.0 0.0 
0.0 0.0 0.0 
-5.539334103609e-04 1.733294296074e-04 0.0 
1.733294296074e-04 2.467698966066e-03 0.0 
0.0 0.0 -3.941707820484e-04 
-1.082833857300e-03 1.553689403231e-04 0.0 
1.553689403231e-04 5.370486721227e-03 0.0 
0.0 0.0 -8.329475646481e-04 
-6.135075657535e-04 -1.124689673499e-03 0.0 
-1.124689673499e-03 3.074168344220e-03 0.0 
0.0 0.0 -5.313546330462e-04 
-1.846585695015e-04 -7.875180783751e-04 0.0 
-7.875180783751e-04 2.568069228426e-03 0.0 
0.0 0.0 -5.546931404481e-04 
-5.968432958156e-04 5.557088425757e-04 0.0 
5.557088425757e-04 1.865682370622e-03 0.0 
0.0 0.0 -3.196518454468e-04 
-5.899426228830e-04 4.711635003752e-04 0.0 
4.711635003752e-04 2.207717411959e-03 0.0 
0.0 0.0 -3.528063275151e-04 
-9.460265979009e-04 -8.557345978762e-05 0.0 
-8.557345978762e-05 5.600872725538e-03 0.0 
0.0 0.0 -8.290026594306e-04 
-7.188891017228e-05 -7.212145557604e-04 0.0 
-7.212145557604e-04 2.661537409605e-03 0.0 
0.0 0.0 -5.962921515785e-04 
-6.690915239770e-04 -9.469087844435e-06 0.0 
-9.469087844435e-06 2.860475934858e-03 0.0 
0.0 0.0 -4.583473518421e-04 
-9.261983765854e-04 6.205491161324e-04 0.0 
6.205491161324e-04 6.527766796007e-03 0.0 
0.0 0.0 -1.077832113627e-03 
-1.322048612324e-03 -3.324926188937e-04 0.0 
-3.324926188937e-04 8.713395146875e-03 0.0 
0.0 0.0 -1.324978758543e-03 
-1.338720177887e-03 -4.085669882089e-04 0.0 
-4.085669882089e-04 8.670321911685e-03 0.0 
0.0 0.0 -1.320624918399e-03 
-3.849795069765e-04 -6.739500110508e-04 0.0 
-6.739500110508e-04 3.380834248484e-03 0.0 
0.0 0.0 -6.457427040837e-04 
-9.004898588243e-04 1.911488629734e-04 0.0 
1.911488629734e-04 5.018763151201e-03 0.0 
0.0 0.0 -7.877541558771e-04 
0.0 0.0 0.0 
0.0 0.0 0.0 
0.0 0.0 0.0 
-4.359472798887e-04 6.731301800727e-04 0.0 
6.731301800727e-04 1.407239997486e-03 0.0 
0.0 0.0 -3.106513839132e-04 
2.755733972267e-04 -1.401203893809e-03 0.0 
-1.401203893809e-03 4.875020493235e-04 0.0 
0.0 0.0 -3.270323342358e-04 
-5.716509711487e-04 6.241427470327e-04 0.0 
6.241427470327e-04 1.685665452150e-03 0.0 
0.0 0.0 -2.953478464511e-04 
-6.435501651802e-04 2.617971966709e-04 0.0 
2.617971966709e-04 5.324938194352e-03 0.0 
0.0 0.0 -9.116044729693e-04 
-3.892042169670e-04 -9.156083068677e-04 0.0 
-9.156083068677e-04 2.815259890772e-03 0.0 
0.0 0.0 -5.459662534218e-04 
-2.243152923797e-04 -1.093841073510e-03 0.0 
-1.093841073510e-03 2.791137140625e-03 0.0 
0.0 0.0 -5.879858557453e-04 
2.757241657395e-04 -4.810032012259e-04 0.0 
-4.810032012259e-04 1.809007699405e-05 0.0 
0.0 0.0 -1.259203897429e-04 
-1.236651515782e-03 5.783317831820e-05 0.0 
5.783317831820e-05 7.720546241133e-03 0.0 
0.0 0.0 -1.176327079312e-03 
-4.101458141136e-04 -1.240391896891e-03 0.0 
-1.240391896891e-03 2.995120791313e-03 0.0 
0.0 0.0 -5.792774345575e-04 
-1.250725797448e-03 2.916941522596e-04 0.0 
2.916941522596e-04 8.087181627586e-03 0.0 
0.0 0.0 -1.212957849656e-03 
-1.169197980018e-03 -1.036807665068e-04 0.0 
-1.036807665068e-04 7.436974066249e-03 0.0 
0.0 0.0 -1.117460450001e-03 
-1.345176874521e-03 9.425392127595e-05 0.0 
9.425392127595e-05 9.101263988686e-03 0.0 
0.0 0.0 -1.319418651152e-03 
-1.362446196828e-03 -6.566602865703e-05 0.0 
-6.566602865703e-05 8.851718670119e-03 0.0 
0.0 0.0 -1.324849633189e-03 
-9.396876737499e-04 1.580696553299e-04 0.0 
1.580696553299e-04 5.609093298548e-03 0.0 
0.0 0.0 -8.315138651140e-04 
-5.177493296675e-04 -1.164892507562e-03 0.0 
-1.164892507562e-03 3.321630420665e-03 0.0 
0.0 0.0 -6.063493599946e-04 
-5.551169256275e-04 5.845973941815e-04 0.0 
5.845973941815e-04 2.336169535734e-03 0.0 
0.0 0.0 -3.884917441798e-04 
-5.432002518243e-04 -7.156839301842e-04 0.0 
-7.156839301842e-04 3.555258553905e-03 0.0 
0.0 0.0 -6.367902913543e-04 
-1.343328350294e-03 -3.038078432126e-04 0.0 
-3.038078432126e-04 8.521823212692e-03 0.0 
0.0 0.0 -1.343328350294e-03 
-1.737665181201e-04 6.795203959292e-04 0.0 
6.795203959292e-04 8.236163112489e-04 0.0 
0.0 0.0 -2.785070541980e-04 
-2.927518060600e-04 7.425303816206e-04 0.0 
7.425303816206e-04 1.136932491594e-03 0.0 
0.0 0.0 -3.329621070679e-04 
-9.737974110450e-04 -6.386389399084e-05 0.0 
-6.386389399084e-05 7.060307194164e-03 0.0 
0.0 0.0 -1.156027955174e-03 
-8.805235058694e-04 6.847913926848e-05 0.0 
6.847913926848e-05 5.301659598337e-03 0.0 
0.0 0.0 -7.715229432315e-04 
-1.258879221168e-03 2.678324544629e-04 0.0 
2.678324544629e-04 8.150871359494e-03 0.0 
0.0 0.0 -1.219279742240e-03 
-1.080906081071e-03 2.827660258438e-04 0.0 
2.827660258438e-04 6.867060617251e-03 0.0 
0.0 0.0 -1.069611963270e-03 
-1.039924564934e-03 5.350617449269e-04 0.0 
5.350617449269e-04 7.190727662860e-03 0.0 
0.0 0.0 -1.175036385391e-03 
-1.173553033698e-03 2.219944962555e-04 0.0 
2.219944962555e-04 7.297927893888e-03 0.0 
0.0 0.0 -1.113576918908e-03 
-9.402009665324e-04 2.044311077690e-04 0.0 
2.044311077690e-04 5.536177417769e-03 0.0 
0.0 0.0 -8.542750875040e-04 
-5.858259911149e-04 -1.171742995146e-03 0.0 
-1.171742995146e-03 2.676462786012e-03 0.0 
0.0 0.0 -4.674384380614e-04 
-5.422750806607e-04 -8.975033256362e-04 0.0 
-8.975033256362e-04 2.600446559473e-03 0.0 
0.0 0.0 -4.715697005044e-04 
-1.061085808578e-03 2.019693127978e-04 0.0 
2.019693127978e-04 6.591258911724e-03 0.0 
0.0 0.0 -9.963059934037e-04 
-9.926320276344e-04 1.396335034036e-04 0.0 
1.396335034036e-04 7.047433757094e-03 0.0 
0.0 0.0 -1.142506377625e-03 
-8.640826483478e-04 1.602683523403e-04 0.0 
1.602683523403e-04 4.592644147598e-03 0.0 
0.0 0.0 -7.345222264051e-04 
-8.659076808803e-04 1.600457319012e-05 0.0 
1.600457319012e-05 5.296211653200e-03 0.0 
0.0 0.0 -7.676068998053e-04 
-9.151607957151e-04 -5.089667725815e-05 0.0 
-5.089667725815e-05 5.629549572959e-03 0.0 
0.0 0.0 -8.242303029217e-04 
-9.674728246486e-04 -2.123760912739e-04 0.0 
-2.123760912739e-04 5.717004610309e-03 0.0 
0.0 0.0 -8.467401457521e-04 
3.499479768906e-04 -3.973954247046e-04 0.0 
-3.973954247046e-04 -4.658979670494e-05 0.0 
0.0 0.0 -1.300106486510e-04 
-5.930015542773e-04 -7.839114719970e-04 0.0 
-7.839114719970e-04 2.465147057737e-03 0.0 
0.0 0.0 -4.335179088089e-04 
-1.317738620986e-03 2.278366908206e-04 0.0 
2.278366908206e-04 8.695066743648e-03 0.0 
0.0 0.0 -1.269310366786e-03 
-1.008653577782e-03 -1.784318379198e-04 0.0 
-1.784318379198e-04 6.114212471042e-03 0.0 
0.0 0.0 -9.150577043801e-04 
-1.235075525051e-03 3.722470533434e-04 0.0 
3.722470533434e-04 8.051470811527e-03 0.0 
0.0 0.0 -1.295322057178e-03 
-1.262105533747e-03 2.927877395666e-04 0.0 
2.927877395666e-04 8.092325804024e-03 0.0 
0.0 0.0 -1.215577547940e-03 
-1.074267791218e-03 2.611694470269e-04 0.0 
2.611694470269e-04 6.569995446378e-03 0.0 
0.0 0.0 -1.012565562176e-03 
-1.287214307820e-03 9.354055678567e-05 0.0 
9.354055678567e-05 8.149418825250e-03 0.0 
0.0 0.0 -1.214907066889e-03 
-8.465721316982e-04 -1.105505135888e-04 0.0 
-1.105505135888e-04 3.950044235392e-03 0.0 
0.0 0.0 -6.304496659280e-04 
-8.228220456719e-04 -1.151102242294e-04 0.0 
-1.151102242294e-04 3.762441621980e-03 0.0 
0.0 0.0 -5.666856080635e-04 
-1.213791714024e-03 -1.499272758312e-04 0.0 
-1.499272758312e-04 7.648587280659e-03 0.0 
0.0 0.0 -1.226851238141e-03 
0.0 0.0 0.0 
0.0 0.0 0.0 
0.0 0.0 0.0 
-5.508530862849e-04 -1.035100482519e-04 0.0 
-1.035100482519e-04 2.701800587875e-03 0.0 
0.0 0.0 -4.071640756073e-04 
-1.342405754833e-03 4.276126013738e-04 0.0 
4.276126013738e-04 8.356626582993e-03 0.0 
0.0 0.0 -1.342405754833e-03 
-2.369285988354e-04 -1.770299306038e-04 0.0 
-1.770299306038e-04 1.161644229230e-03 0.0 
0.0 0.0 -2.265802816212e-04 
-8.772316900263e-04 3.022985570029e-05 0.0 
3.022985570029e-05 5.030285682320e-03 0.0 
0.0 0.0 -7.870118106326e-04 
-1.087488399424e-03 -9.544139039346e-05 0.0 
-9.544139039346e-05 7.678102904648e-03 0.0 
0.0 0.0 -1.213461936786e-03 
-2.217204533164e-04 -1.125363679953e-04 0.0 
-1.125363679953e-04 8.293133150009e-04 0.0 
0.0 0.0 -1.562362318669e-04 
1.575931452750e-04 -1.091415967636e-04 0.0 
-1.091415967636e-04 4.514811203493e-04 0.0 
0.0 0.0 -1.320567747312e-04 
-1.342371808075e-03 1.025686952786e-04 0.0 
1.025686952786e-04 9.039344740884e-03 0.0 
0.0 0.0 -1.324389858384e-03 
-8.327656305072e-04 1.141712868856e-04 0.0 
1.141712868856e-04 4.641243707897e-03 0.0 
0.0 0.0 -7.294542769151e-04 
-1.288909957265e-03 4.016661537540e-04 0.0 
4.016661537540e-04 8.513544320093e-03 0.0 
0.0 0.0 -1.261418349269e-03 
-1.134288891980e-03 5.741233190870e-05 0.0 
5.741233190870e-05 7.407101021319e-03 0.0 
0.0 0.0 -1.231858344535e-03 
-8.347679035328e-04 -3.570531223968e-05 0.0 
-3.570531223968e-05 4.629434413509e-03 0.0 
0.0 0.0 -7.289279708929e-04 
0.0 0.0 0.0 
0.0 0.0 0.0 
0.0 0.0 0.0 
-1.305379233758e-03 -6.071779487898e-05 0.0 
-6.071779487898e-05 8.461113597457e-03 0.0 
0.0 0.0 -1.284140717546e-03 
-3.100289480378e-04 -3.270232557407e-04 0.0 
-3.270232557407e-04 1.355870936008e-03 0.0 
0.0 0.0 -2.433545560381e-04 
-1.282233343865e-03 2.781824875359e-04 0.0 
2.781824875359e-04 8.180219452641e-03 0.0 
0.0 0.0 -1.232184317627e-03 
-1.343095105526e-03 -2.432827260553e-04 0.0 
-2.432827260553e-04 8.545412507579e-03 0.0 
0.0 0.0 -1.343095105526e-03 
-1.292199045367e-03 2.524866178233e-04 0.0 
2.524866178233e-04 8.014541847179e-03 0.0 
0.0 0.0 -1.225700354592e-03 
4.686342162084e-04 -7.265370554805e-04 0.0 
-7.265370554805e-04 5.162950173446e-06 0.0 
0.0 0.0 -2.030559284494e-04 
-9.540260339352e-04 1.631930893359e-04 0.0 
1.631930893359e-04 5.653552826698e-03 0.0 
0.0 0.0 -8.279144014868e-04 
-8.950557039055e-04 -2.748800359507e-04 0.0 
-2.748800359507e-04 4.199615522516e-03 0.0 
0.0 0.0 -6.271989868224e-04 
-8.983235361331e-04 1.933150702716e-04 0.0 
1.933150702716e-04 6.546966492063e-03 0.0 
0.0 0.0 -1.077599360682e-03 
-1.273669225217e-03 1.720409005563e-04 0.0 
1.720409005563e-04 8.518730660981e-03 0.0 
0.0 0.0 -1.326997735404e-03 
-1.142899871982e-03 1.477724546960e-04 0.0 
1.477724546960e-04 7.166026161736e-03 0.0 
0.0 0.0 -1.061614915164e-03 
-1.285004601792e-03 2.929428446180e-04 0.0 
2.929428446180e-04 8.490810498827e-03 0.0 
0.0 0.0 -1.325870641008e-03 
0.0 0.0 0.0 
0.0 0.0 0.0 
0.0 0.0 0.0 
-1.297780734717e-03 -4.166830862430e-04 0.0 
-4.166830862430e-04 8.366714279713e-03 0.0 
0.0 0.0 -1.277656510522e-03 
2.368160629241e-04 -1.409681499125e-03 0.0 
-1.409681499125e-03 7.013780298968e-04 0.0 
0.0 0.0 -3.431348957073e-04 
-2.589194545670e-04 3.821483992917e-05 0.0 
3.821483992917e-05 1.124631262589e-03 0.0 
0.0 0.0 -2.298118214877e-04 
-1.194197405020e-03 -2.475227437211e-04 0.0 
-2.475227437211e-04 8.105636908586e-03 0.0 
0.0 0.0 -1.270335377537e-03 
-1.315524425911e-03 2.690035540339e-04 0.0 
2.690035540339e-04 8.643806800304e-03 0.0 
0.0 0.0 -1.270603359501e-03 
-1.320702306464e-03 4.960564232440e-05 0.0 
4.960564232440e-05 8.625092567998e-03 0.0 
0.0 0.0 -1.289850838753e-03 
-8.753308640926e-04 2.257063470840e-04 0.0 
2.257063470840e-04 5.095730312348e-03 0.0 
0.0 0.0 -7.762633204683e-04 
-9.835570351374e-04 3.967893708127e-04 0.0 
3.967893708127e-04 5.483942639045e-03 0.0 
0.0 0.0 -8.489529362435e-04 
-3.868195665134e-04 1.249245404028e-03 0.0 
1.249245404028e-03 1.493087960549e-03 0.0 
0.0 0.0 -3.390228113434e-04 
-1.290611125717e-03 4.069284773612e-04 0.0 
4.069284773612e-04 8.488337706707e-03 0.0 
0.0 0.0 -1.273041473476e-03 
-7.431920671866e-04 3.360733235591e-05 0.0 
3.360733235591e-05 3.408921231342e-03 0.0 
0.0 0.0 -5.357483711987e-04 
2.011032744506e-04 7.720499985605e-04 0.0 
7.720499985605e-04 2.146802318038e-04 0.0 
0.0 0.0 -1.781929312519e-04 
-9.370458151346e-04 5.508245939114e-04 0.0 
5.508245939114e-04 6.747683680752e-03 0.0 
0.0 0.0 -1.110141529071e-03 
-8.032989009541e-04 -1.045980115988e-05 0.0 
-1.045980115988e-05 4.870464455063e-03 0.0 
0.0 0.0 -7.096328662732e-04 
-1.279256756890e-03 4.600607687250e-04 0.0 
4.600607687250e-04 8.175326591168e-03 0.0 
0.0 0.0 -1.237729719596e-03 
-1.329072194852e-03 -1.834247142824e-04 0.0 
-1.834247142824e-04 8.977472730193e-03 0.0 
0.0 0.0 -1.321509982054e-03 
-1.343732204276e-03 7.562212797617e-06 0.0 
7.562212797617e-06 8.849786333364e-03 0.0 
0.0 0.0 -1.343732204276e-03 
6.465688167897e-04 1.663781779480e-05 0.0 
1.663781779480e-05 -3.978289505741e-05 0.0 
0.0 0.0 -8.420285294201e-05 
3.868700612373e-04 3.921670605925e-05 0.0 
3.921670605925e-05 -6.204561696291e-05 0.0 
0.0 0.0 -1.378576441850e-04 
-8.247124983758e-04 -1.687178518224e-04 0.0 
-1.687178518224e-04 4.737962601015e-03 0.0 
0.0 0.0 -7.318233512793e-04 
-8.319071836255e-04 2.758419797137e-05 0.0 
2.758419797137e-05 4.882188569804e-03 0.0 
0.0 0.0 -7.096011290571e-04 
-1.343732204276e-03 -2.755821224564e-05 0.0 
-2.755821224564e-05 8.606219025581e-03 0.0 
0.0 0.0 -1.343732204276e-03 
-1.349068194300e-03 1.748780922349e-04 0.0 
1.748780922349e-04 8.742452044457e-03 0.0 
0.0 0.0 -1.321509982054e-03 
2.267983165528e-04 1.503551410355e-04 0.0 
1.503551410355e-04 3.801820683437e-04 0.0 
0.0 0.0 -1.379425883790e-04 
0.0 0.0 0.0 
0.0 0.0 0.0 
0.0 0.0 0.0 
-1.304839210467e-03 -7.091443056662e-05 0.0 
-7.091443056662e-05 7.889011230752e-03 0.0 
0.0 0.0 -1.230181737024e-03 
-1.133789878205e-03 6.963372694564e-04 0.0 
6.963372694564e-04 7.661762773916e-03 0.0 
0.0 0.0 -1.209364118140e-03 
-3.105423637276e-04 -2.525564358258e-04 0.0 
-2.525564358258e-04 1.694140784916e-03 0.0 
0.0 0.0 -2.712674790923e-04 
-1.264304018708e-03 -4.229761773583e-04 0.0 
-4.229761773583e-04 7.912894217144e-03 0.0 
0.0 0.0 -1.240191881334e-03 
-1.104648569634e-03 -8.128511201330e-05 0.0 
-8.128511201330e-05 5.687324916732e-03 0.0 
0.0 0.0 -8.888375990210e-04 
-1.026907705388e-03 -2.214158958103e-04 0.0 
-2.214158958103e-04 5.060294452777e-03 0.0 
0.0 0.0 -7.610796297342e-04 
-1.050200639505e-03 1.276309243533e-04 0.0 
1.276309243533e-04 6.471471583772e-03 0.0 
0.0 0.0 -9.400782610458e-04 
-2.965318753647e-05 -1.331164902240e-03 0.0 
-1.331164902240e-03 9.056852696167e-04 0.0 
0.0 0.0 -3.754423208915e-04 
-8.088866268099e-04 2.301224893319e-04 0.0 
2.301224893319e-04 6.098327421906e-03 0.0 
0.0 0.0 -1.011657465016e-03 
-2.272445053013e-04 -9.535102935050e-05 0.0 
-9.535102935050e-05 1.388764162386e-03 0.0 
0.0 0.0 -2.181484037039e-04 
-9.136007493904e-04 -3.789003197154e-04 0.0 
-3.789003197154e-04 4.494388172482e-03 0.0 
0.0 0.0 -6.997415131527e-04 
-1.249092671204e-03 5.668738205519e-04 0.0 
5.668738205519e-04 7.979681115669e-03 0.0 
0.0 0.0 -1.240519096027e-03 
-1.238391952882e-03 -2.103174549131e-04 0.0 
-2.103174549131e-04 8.038627661496e-03 0.0 
0.0 0.0 -1.191726112421e-03 
-9.811853638777e-04 4.571159586099e-05 0.0 
4.571159586099e-05 4.872542694396e-03 0.0 
0.0 0.0 -7.690942022927e-04 
-9.767560317632e-04 -1.705867274286e-04 0.0 
-1.705867274286e-04 5.944945665690e-03 0.0 
0.0 0.0 -8.745659502648e-04 
-1.201104368766e-03 5.803220864547e-04 0.0 
5.803220864547e-04 7.939240582663e-03 0.0 
0.0 0.0 -1.217119345309e-03 
-1.179845702415e-03 2.452002266232e-04 0.0 
2.452002266232e-04 7.438662012216e-03 0.0 
0.0 0.0 -1.140944809983e-03 
-1.127959464392e-03 2.474309966313e-04 0.0 
2.474309966313e-04 7.001139959042e-03 0.0 
0.0 0.0 -1.076426999079e-03 
-8.393109454079e-04 2.446878724435e-05 0.0 
2.446878724435e-05 4.620539471492e-03 0.0 
0.0 0.0 -7.312123441678e-04 
-7.325714353874e-04 1.943037271299e-04 0.0 
1.943037271299e-04 5.805049329063e-03 0.0 
0.0 0.0 -9.763781674015e-04 
-1.278424948200e-03 4.732838707970e-04 0.0 
4.732838707970e-04 8.049805466019e-03 0.0 
0.0 0.0 -1.231404929774e-03 
-6.063671140810e-04 1.348850002822e-06 0.0 
1.348850002822e-06 2.558361798436e-03 0.0 
0.0 0.0 -4.167967844001e-04 
-7.171547725390e-05 -2.177777186911e-04 0.0 
-2.177777186911e-04 5.764019490181e-04 0.0 
0.0 0.0 -1.015157820784e-04 
-1.170824655935e-03 3.363594053323e-04 0.0 
3.363594053323e-04 7.539332247117e-03 0.0 
0.0 0.0 -1.185975225609e-03 
-9.133715629689e-04 2.312110862865e-04 0.0 
2.312110862865e-04 6.719277881344e-03 0.0 
0.0 0.0 -1.123538223191e-03 
1.132049243546e-04 -1.050372997865e-03 0.0 
-1.050372997865e-03 4.871548077874e-04 0.0 
0.0 0.0 -2.572970280609e-04 
-1.081558890546e-03 -1.399243451463e-04 0.0 
-1.399243451463e-04 6.772240372319e-03 0.0 
0.0 0.0 -9.893338170986e-04 
-1.329126769976e-03 -2.338155039388e-04 0.0 
-2.338155039388e-04 8.188960966632e-03 0.0 
0.0 0.0 -1.282739585886e-03 
-1.129882241773e-03 5.744296922873e-04 0.0 
5.744296922873e-04 7.355375345581e-03 0.0 
0.0 0.0 -1.182073443778e-03 
-1.178192896547e-03 4.553534655183e-04 0.0 
4.553534655183e-04 7.891430484162e-03 0.0 
0.0 0.0 -1.215129606110e-03 
-1.157436434489e-03 -2.420799146488e-04 0.0 
-2.420799146488e-04 6.201441230335e-03 0.0 
0.0 0.0 -9.537126495859e-04 
0.0 0.0 0.0 
0.0 0.0 0.0 
0.0 0.0 0.0 
-5.231800249051e-04 6.591753538455e-04 0.0 
6.591753538455e-04 1.847843507099e-03 0.0 
0.0 0.0 -3.212443691966e-04 
-5.564787132596e-04 8.940027195274e-04 0.0 
8.940027195274e-04 2.137708509351e-03 0.0 
0.0 0.0 -3.834349432650e-04 
-9.473774776597e-04 1.764703939582e-04 0.0 
1.764703939582e-04 5.384019631323e-03 0.0 
0.0 0.0 -8.471429939415e-04 
-7.614839710960e-04 6.584444641784e-04 0.0 
6.584444641784e-04 5.752238999582e-03 0.0 
0.0 0.0 -9.781602908260e-04 
-1.285624241878e-03 -4.326792981855e-05 0.0 
-4.326792981855e-05 8.288168648148e-03 0.0 
0.0 0.0 -1.236541257690e-03 
-1.217308294029e-03 1.640866066604e-04 0.0 
1.640866066604e-04 7.793774931469e-03 0.0 
0.0 0.0 -1.282325209426e-03 
-8.954075940437e-05 -8.680076304404e-04 0.0 
-8.680076304404e-04 7.337139848585e-04 0.0 
0.0 0.0 -2.760742394804e-04 
-3.009716750380e-04 -4.715458723185e-04 0.0 
-4.715458723185e-04 9.308600569539e-04 0.0 
0.0 0.0 -1.704796444516e-04 
-4.318023328758e-04 9.056222759074e-04 0.0 
9.056222759074e-04 1.421929475039e-03 0.0 
0.0 0.0 -2.747970858071e-04 
-1.085049996288e-03 3.161557202625e-04 0.0 
3.161557202625e-04 6.749947888276e-03 0.0 
0.0 0.0 -1.019242131223e-03 
-7.105673598930e-04 -3.560858813606e-04 0.0 
-3.560858813606e-04 3.243394900527e-03 0.0 
0.0 0.0 -4.953283059016e-04 
-1.294058250345e-03 1.194991635526e-04 0.0 
1.194991635526e-04 8.278027413572e-03 0.0 
0.0 0.0 -1.241298427557e-03 
-2.801916649698e-04 -2.169380665087e-04 0.0 
-2.169380665087e-04 1.598671665654e-03 0.0 
0.0 0.0 -2.623907620756e-04 
-1.097220766083e-03 2.014729423047e-04 0.0 
2.014729423047e-04 7.397517373048e-03 0.0 
0.0 0.0 -1.221152601860e-03 
-9.286181991470e-04 2.455314232276e-04 0.0 
2.455314232276e-04 5.488935049062e-03 0.0 
0.0 0.0 -8.343732341398e-04 
-1.223283272536e-03 3.593359299497e-04 0.0 
3.593359299497e-04 7.932879470025e-03 0.0 
0.0 0.0 -1.286815605725e-03 
-9.712654839318e-04 1.866157351704e-04 0.0 
1.866157351704e-04 6.891208363551e-03 0.0 
0.0 0.0 -1.111121968474e-03 
-9.581999826764e-04 8.182036761545e-05 0.0 
8.182036761545e-05 5.388937206970e-03 0.0 
0.0 0.0 -8.465141837044e-04 
-1.209961591988e-03 -2.976225161964e-04 0.0 
-2.976225161964e-04 8.170684166123e-03 0.0 
0.0 0.0 -1.269142588751e-03 
-1.323046623582e-03 3.793136222843e-04 0.0 
3.793136222843e-04 8.658663539059e-03 0.0 
0.0 0.0 -1.272727265576e-03 
-1.289749640490e-03 9.124365830308e-05 0.0 
9.124365830308e-05 8.709454540694e-03 0.0 
0.0 0.0 -1.271339345674e-03 
-1.626085801218e-04 8.571684415748e-04 0.0 
8.571684415748e-04 8.875192706734e-04 0.0 
0.0 0.0 -3.044868356389e-04 
-1.267095409920e-03 4.070899744542e-04 0.0 
4.070899744542e-04 8.089876134210e-03 0.0 
0.0 0.0 -1.218309553141e-03 
-1.282164121305e-03 5.174305312528e-04 0.0 
5.174305312528e-04 8.083053308233e-03 0.0 
0.0 0.0 -1.286645293131e-03 
-1.059215435768e-03 -2.009543418022e-05 0.0 
-2.009543418022e-05 7.573607372665e-03 0.0 
0.0 0.0 -1.211735819529e-03 
-9.987418032593e-04 6.142229130813e-04 0.0 
6.142229130813e-04 6.982246170553e-03 0.0 
0.0 0.0 -1.143254064081e-03 
-1.342665167303e-03 -2.857461739196e-04 0.0 
-2.857461739196e-04 8.440143907241e-03 0.0 
0.0 0.0 -1.342665167303e-03 
-1.126760089934e-03 6.437426727216e-04 0.0 
6.437426727216e-04 6.937086787485e-03 0.0 
0.0 0.0 -1.079065255302e-03 
0.0 0.0 0.0 
0.0 0.0 0.0 
0.0 0.0 0.0 
6.191816026709e-05 1.291205818517e-03 0.0 
1.291205818517e-03 7.179353342320e-04 0.0 
0.0 0.0 -3.342229262139e-04 
-1.235056862706e-03 2.777301788060e-04 0.0 
2.777301788060e-04 7.736779237008e-03 0.0 
0.0 0.0 -1.176936364471e-03 
-9.923017078165e-04 3.078956919309e-04 0.0 
3.078956919309e-04 5.849121224287e-03 0.0 
0.0 0.0 -8.884613587993e-04 
-1.298948170332e-03 -3.124306146209e-04 0.0 
-3.124306146209e-04 7.977511740223e-03 0.0 
0.0 0.0 -1.221994126432e-03 
-1.061095181676e-03 1.799058826279e-04 0.0 
1.799058826279e-04 7.334426391334e-03 0.0 
0.0 0.0 -1.177009544428e-03 
-1.289141827740e-03 -3.383964038360e-04 0.0 
-3.383964038360e-04 8.125835853115e-03 0.0 
0.0 0.0 -1.292249833993e-03 
-1.132172011691e-03 2.813138638496e-04 0.0 
2.813138638496e-04 7.272270790879e-03 0.0 
0.0 0.0 -1.085521458831e-03 
-1.247617681667e-03 2.986308671608e-04 0.0 
2.986308671608e-04 7.907076372021e-03 0.0 
0.0 0.0 -1.288973456333e-03 
-1.183175849056e-03 -4.290305750124e-04 0.0 
-4.290305750124e-04 7.735436170610e-03 0.0 
0.0 0.0 -1.233322439334e-03 
-1.175389870133e-03 -8.154118169286e-05 0.0 
-8.154118169286e-05 7.695545006504e-03 0.0 
0.0 0.0 -1.235043566395e-03 
-7.287005066558e-04 -2.363504694994e-04 0.0 
-2.363504694994e-04 3.412626924282e-03 0.0 
0.0 0.0 -5.104964012366e-04 
-1.311532395302e-03 -3.318821641935e-04 0.0 
-3.318821641935e-04 8.754426494470e-03 0.0 
0.0 0.0 -1.325641941534e-03 
-8.790480836699e-04 9.973280973964e-05 0.0 
9.973280973964e-05 5.256747279211e-03 0.0 
0.0 0.0 -7.662153309038e-04 
-1.249481013832e-03 -1.180321759362e-04 0.0 
-1.180321759362e-04 8.200814515591e-03 0.0 
0.0 0.0 -1.217406395242e-03 
-1.652940304057e-04 -5.197313760388e-04 0.0 
-5.197313760388e-04 7.163944105236e-04 0.0 
0.0 0.0 -2.361858771934e-04 
-1.199456095747e-03 -9.281141696113e-05 0.0 
-9.281141696113e-05 7.932283218576e-03 0.0 
0.0 0.0 -1.163202487293e-03 
-1.073812189916e-03 1.019150907596e-06 0.0 
1.019150907596e-06 6.842466406292e-03 0.0 
0.0 0.0 -9.926133712568e-04 
-8.677292434787e-05 -7.776541442063e-05 0.0 
-7.776541442063e-05 9.098025117225e-04 0.0 
0.0 0.0 -1.628620303624e-04 
5.265410319422e-04 -6.941530982861e-04 0.0 
-6.941530982861e-04 -3.231659341296e-05 0.0 
0.0 0.0 -2.118104736554e-04 
-1.137863848184e-03 6.727746037847e-04 0.0 
6.727746037847e-04 7.103743294949e-03 0.0 
0.0 0.0 -1.107581195644e-03 
-1.316054950297e-03 1.463718814179e-04 0.0 
1.463718814179e-04 8.450854861123e-03 0.0 
0.0 0.0 -1.285368862661e-03 
-1.275071184009e-03 -1.337709164893e-04 0.0 
-1.337709164893e-04 8.307471815085e-03 0.0 
0.0 0.0 -1.223917301752e-03 
-1.160153297854e-03 5.261040585439e-04 0.0 
5.261040585439e-04 7.939180437512e-03 0.0 
0.0 0.0 -1.264779455601e-03 
-9.786681000752e-04 2.797069543092e-04 0.0 
2.797069543092e-04 5.828399650514e-03 0.0 
0.0 0.0 -8.807565902733e-04 
6.088519586403e-05 -4.917250620978e-05 0.0 
-4.917250620978e-05 4.869793999348e-04 0.0 
0.0 0.0 -1.094929743475e-04 
6.111566355022e-05 5.640636810902e-05 0.0 
5.640636810902e-05 -1.157323767526e-05 0.0 
0.0 0.0 -2.123246823213e-05 
-1.420251948107e-04 8.764175524857e-05 0.0 
8.764175524857e-05 4.773240057954e-04 0.0 
0.0 0.0 -1.256389127973e-04 
-3.632499277279e-04 -7.837444408696e-04 0.0 
-7.837444408696e-04 1.194209396961e-03 0.0 
0.0 0.0 -2.225718436208e-04 
0.0 0.0 0.0 
0.0 0.0 0.0 
0.0 0.0 0.0 
-8.980038842560e-04 -6.868916122841e-05 0.0 
-6.868916122841e-05 4.504377363934e-03 0.0 
0.0 0.0 -6.753304527203e-04 
-1.294165048711e-03 6.161991819009e-05 0.0 
6.161991819009e-05 7.969168976077e-03 0.0 
0.0 0.0 -1.222305993939e-03 
-1.264474650052e-03 5.734696938905e-04 0.0 
5.734696938905e-04 8.077312517039e-03 0.0 
0.0 0.0 -1.222833113937e-03 
-1.006464770387e-03 3.394189907578e-05 0.0 
3.394189907578e-05 5.834781281692e-03 0.0 
0.0 0.0 -8.826313165011e-04 
-8.266334947460e-04 -5.354606523691e-04 0.0 
-5.354606523691e-04 3.869366937566e-03 0.0 
0.0 0.0 -5.988529843847e-04 
-1.198642937147e-03 -4.684662880526e-04 0.0 
-4.684662880526e-04 7.783754842457e-03 0.0 
0.0 0.0 -1.221067908166e-03 
-1.068035990990e-03 1.115403335333e-04 0.0 
1.115403335333e-04 7.531635864011e-03 0.0 
0.0 0.0 -1.208702654310e-03 
-1.208049507468e-03 4.869249044164e-04 0.0 
4.869249044164e-04 8.191633662499e-03 0.0 
0.0 0.0 -1.272252409145e-03 
-1.227816291176e-03 4.361504529360e-04 0.0 
4.361504529360e-04 7.755209047765e-03 0.0 
0.0 0.0 -1.237422270938e-03 
-1.191139084829e-03 6.619264216726e-04 0.0 
6.619264216726e-04 7.533865048847e-03 0.0 
0.0 0.0 -1.171232062679e-03 
-1.920899935495e-04 -3.005289282689e-04 0.0 
-3.005289282689e-04 6.978999469600e-04 0.0 
0.0 0.0 -2.167756943188e-04 
0.0 0.0 0.0 
0.0 0.0 0.0 
0.0 0.0 0.0 
-1.308655472056e-03 -3.526594848147e-04 0.0 
-3.526594848147e-04 8.026041467974e-03 0.0 
0.0 0.0 -1.223662873675e-03 
-1.521155326843e-04 1.616990335056e-05 0.0 
1.616990335056e-05 7.009749630609e-04 0.0 
0.0 0.0 -1.761523314621e-04 
-1.768246005743e-04 2.416090922495e-04 0.0 
2.416090922495e-04 1.018026141244e-03 0.0 
0.0 0.0 -1.933333333332e-04 
1.266269026244e-04 4.459901967828e-04 0.0 
4.459901967828e-04 1.149333659383e-04 0.0 
0.0 0.0 -1.035258293840e-04 
-1.677849962930e-04 -2.830770546558e-04 0.0 
-2.830770546558e-04 8.015651116380e-04 0.0 
0.0 0.0 -1.580296812506e-04 
-1.271854076500e-03 -2.557043152436e-04 0.0 
-2.557043152436e-04 7.945254530657e-03 0.0 
0.0 0.0 -1.288571152055e-03 
-1.306788030849e-03 4.109202426763e-04 0.0 
4.109202426763e-04 8.216249132470e-03 0.0 
0.0 0.0 -1.290113636706e-03 
-1.294468783320e-03 3.035835675296e-04 0.0 
3.035835675296e-04 8.293038568859e-03 0.0 
0.0 0.0 -1.236907757659e-03 
-1.272697522653e-03 4.000546130429e-04 0.0 
4.000546130429e-04 7.992915461605e-03 0.0 
0.0 0.0 -1.292605224168e-03 
-1.039048517881e-03 -2.511628389219e-04 0.0 
-2.511628389219e-04 7.217306455236e-03 0.0 
0.0 0.0 -1.176879138244e-03 
-9.963056410622e-04 2.982297539881e-04 0.0 
2.982297539881e-04 6.108837095234e-03 0.0 
0.0 0.0 -9.170130443517e-04 
-1.345069444888e-03 2.094806773474e-04 0.0 
2.094806773474e-04 8.819921791921e-03 0.0 
0.0 0.0 -1.345069444888e-03 
1.552293122710e-04 -1.587596842018e-03 0.0 
-1.587596842018e-03 7.594496357434e-04 0.0 
0.0 0.0 -3.920052634348e-04 
-7.958568066072e-04 2.655126968941e-05 0.0 
2.655126968941e-05 4.862635053177e-03 0.0 
0.0 0.0 -7.083073883397e-04 
-3.709027017311e-05 -1.154290083415e-03 0.0 
-1.154290083415e-03 8.071251517729e-04 0.0 
0.0 0.0 -3.300149492571e-04 
-8.078687300304e-05 2.766710122456e-05 0.0 
2.766710122456e-05 2.705585081320e-04 0.0 
0.0 0.0 -8.133070076957e-05 
-1.328088305276e-03 -2.091716352919e-04 0.0 
-2.091716352919e-04 8.801339781229e-03 0.0 
0.0 0.0 -1.323850096553e-03 
-9.077000763770e-04 9.794404475147e-05 0.0 
9.794404475147e-05 5.306610706151e-03 0.0 
0.0 0.0 -7.731261162940e-04 
-1.693805322071e-04 -2.625883935893e-05 0.0 
-2.625883935893e-05 1.305243597625e-03 0.0 
0.0 0.0 -2.115341463249e-04 
-9.189085389785e-04 8.964891235688e-05 0.0 
8.964891235688e-05 4.273021875062e-03 0.0 
0.0 0.0 -6.570498647039e-04 
-1.286146232063e-03 5.231039738263e-04 0.0 
5.231039738263e-04 8.474365430469e-03 0.0 
0.0 0.0 -1.276804206569e-03 
-1.288400651325e-03 -4.306470642737e-06 0.0 
-4.306470642737e-06 8.274343384212e-03 0.0 
0.0 0.0 -1.228616961883e-03 
-1.323624610775e-03 3.216369829918e-04 0.0 
3.216369829918e-04 8.408100187569e-03 0.0 
0.0 0.0 -1.289666537713e-03 
-6.585033223124e-04 -1.956809026779e-04 0.0 
-1.956809026779e-04 3.104860358543e-03 0.0 
0.0 0.0 -4.695399720401e-04 
0.0 0.0 0.0 
0.0 0.0 0.0 
0.0 0.0 0.0 
-1.295369683638e-03 -4.352781909349e-04 0.0 
-4.352781909349e-04 8.328377963407e-03 0.0 
0.0 0.0 -1.273144391159e-03 
-1.316384665971e-03 4.635940691717e-05 0.0 
4.635940691717e-05 9.091692367136e-03 0.0 
0.0 0.0 -1.325353038101e-03 
-1.373672636792e-03 -7.774901455504e-05 0.0 
-7.774901455504e-05 8.873813327292e-03 0.0 
0.0 0.0 -1.323783523096e-03 
-8.637809619907e-04 1.323503679534e-04 0.0 
1.323503679534e-04 5.089707097874e-03 0.0 
0.0 0.0 -7.673431308700e-04 
-1.131532193974e-03 -7.726473612600e-05 0.0 
-7.726473612600e-05 7.445464928452e-03 0.0 
0.0 0.0 -1.231867668451e-03 
-2.317572587520e-04 -1.314436244158e-04 0.0 
-1.314436244158e-04 1.130415722071e-03 0.0 
0.0 0.0 -2.324200178898e-04 
-1.299745087394e-03 4.291095854891e-04 0.0 
4.291095854891e-04 8.286657472724e-03 0.0 
0.0 0.0 -1.241575510934e-03 
-4.846130298420e-05 -4.886976193625e-05 0.0 
-4.886976193625e-05 2.622595636012e-04 0.0 
0.0 0.0 -9.162782597871e-05 
-1.263516092246e-03 -1.718330630488e-04 0.0 
-1.718330630488e-04 7.907025787409e-03 0.0 
0.0 0.0 -1.290713494763e-03 
-1.321680158597e-03 4.673078731777e-04 0.0 
4.673078731777e-04 8.597815189326e-03 0.0 
0.0 0.0 -1.268585396830e-03 
0.0 0.0 0.0 
0.0 0.0 0.0 
0.0 0.0 0.0 
-1.124591088079e-03 3.211880423142e-04 0.0 
3.211880423142e-04 7.458066064736e-03 0.0 
0.0 0.0 -1.178018281593e-03 
-1.107869427890e-03 -1.505180591586e-04 0.0 
-1.505180591586e-04 7.012739571933e-03 0.0 
0.0 0.0 -1.053859681778e-03 
-1.308771083341e-03 9.446579517484e-05 0.0 
9.446579517484e-05 8.493525012630e-03 0.0 
0.0 0.0 -1.289687241943e-03 
-1.346242744377e-03 2.039443759450e-04 0.0 
2.039443759450e-04 8.307404063276e-03 0.0 
0.0 0.0 -1.346242744377e-03 
-1.050842893348e-03 -2.891538303944e-04 0.0 
-2.891538303944e-04 6.421171579649e-03 0.0 
0.0 0.0 -9.627310317561e-04 
-1.303758961951e-03 4.903154082554e-04 0.0 
4.903154082554e-04 8.278630388455e-03 0.0 
0.0 0.0 -1.292510612804e-03 
-1.300990074097e-03 1.669276888751e-04 0.0 
1.669276888751e-04 8.244189692926e-03 0.0 
0.0 0.0 -1.236507170568e-03 
-1.088170666265e-03 3.228048852164e-05 0.0 
3.228048852164e-05 6.587667922864e-03 0.0 
0.0 0.0 -1.009625451247e-03 
-1.257890102395e-03 4.520446479729e-04 0.0 
4.520446479729e-04 7.985706155656e-03 0.0 
0.0 0.0 -1.247605899893e-03 
-7.721939041237e-04 -2.584607340664e-04 0.0 
-2.584607340664e-04 3.598089332548e-03 0.0 
0.0 0.0 -5.668522599723e-04 
-8.446801208318e-04 -1.785300824749e-05 0.0 
-1.785300824749e-05 4.608085736335e-03 0.0 
0.0 0.0 -7.287847301676e-04 
-1.179784032877e-03 5.549241153248e-04 0.0 
5.549241153248e-04 7.775803262496e-03 0.0 
0.0 0.0 -1.239219007812e-03 
-1.299529222104e-03 1.321426560981e-04 0.0 
1.321426560981e-04 8.646134742124e-03 0.0 
0.0 0.0 -1.286506427510e-03 
2.831255439194e-04 1.360672473440e-05 0.0 
1.360672473440e-05 -8.482055415176e-05 0.0 
0.0 0.0 -8.498785275758e-05 
-8.370484008237e-04 5.623912198418e-05 0.0 
5.623912198418e-05 4.626828224470e-03 0.0 
0.0 0.0 -7.284590636140e-04 
-1.335071484274e-03 -1.600713729454e-04 0.0 
-1.600713729454e-04 8.440371416104e-03 0.0 
0.0 0.0 -1.288082484959e-03 
-3.767414468585e-04 -4.451842935601e-05 0.0 
-4.451842935601e-05 1.577633672495e-03 0.0 
0.0 0.0 -2.765646858065e-04 
-1.088631360797e-03 4.564803545026e-05 0.0 
4.564803545026e-05 7.667059339477e-03 0.0 
0.0 0.0 -1.213252366005e-03 
-1.271794335805e-03 2.301245021833e-04 0.0 
2.301245021833e-04 8.183403677429e-03 0.0 
0.0 0.0 -1.225943235494e-03 
-1.312602819485e-03 -3.967668182090e-05 0.0 
-3.967668182090e-05 8.691988746778e-03 0.0 
0.0 0.0 -1.269037835114e-03 
-3.083660169777e-04 2.694773361529e-05 0.0 
2.694773361529e-05 1.528069924280e-03 0.0 
0.0 0.0 -2.647987373252e-04 
3.113151605038e-04 9.413576912784e-04 0.0 
9.413576912784e-04 1.991549585730e-04 0.0 
0.0 0.0 -2.187729081758e-04 
-1.068435724364e-03 3.124616463362e-04 0.0 
3.124616463362e-04 5.213213290896e-03 0.0 
0.0 0.0 -7.939471195916e-04 
-1.202568648909e-03 1.058847220047e-04 0.0 
1.058847220047e-04 7.572272609772e-03 0.0 
0.0 0.0 -1.120841203304e-03 
0.0 0.0 0.0 
0.0 0.0 0.0 
0.0 0.0 0.0 
-1.320199164535e-03 2.485994904543e-04 0.0 
2.485994904543e-04 8.472368730029e-03 0.0 
0.0 0.0 -1.292233508669e-03 
-1.037229848653e-03 5.491249721839e-05 0.0 
5.491249721839e-05 6.181123680978e-03 0.0 
0.0 0.0 -9.501928138396e-04 
-2.112219927373e-05 -1.374997492072e-03 0.0 
-1.374997492072e-03 9.175924767207e-04 0.0 
0.0 0.0 -3.842015474773e-04 
-1.012609583766e-03 8.895330680236e-05 0.0 
8.895330680236e-05 5.872726185200e-03 0.0 
0.0 0.0 -9.030544305944e-04 
-1.225691657466e-03 3.254133079920e-04 0.0 
3.254133079920e-04 8.211721301461e-03 0.0 
0.0 0.0 -1.271643562581e-03 
-1.073143154962e-03 -3.082428058209e-04 0.0 
-3.082428058209e-04 5.482950483311e-03 0.0 
0.0 0.0 -8.272804529250e-04 
-3.661483411696e-05 4.788992406499e-04 0.0 
4.788992406499e-04 5.906615054096e-05 0.0 
0.0 0.0 -9.621992753142e-06 
-7.676399437614e-04 -3.808740375144e-05 0.0 
-3.808740375144e-05 3.237219166554e-03 0.0 
0.0 0.0 -5.209635072927e-04 
-9.628338005869e-04 -8.201294567373e-05 0.0 
-8.201294567373e-05 4.764994978367e-03 0.0 
0.0 0.0 -7.319997505002e-04 
-1.071554526652e-03 3.282695898754e-04 0.0 
3.282695898754e-04 5.655927594763e-03 0.0 
0.0 0.0 -8.599999999992e-04 
-1.135384068353e-03 1.731479619930e-04 0.0 
1.731479619930e-04 7.715574497297e-03 0.0 
0.0 0.0 -1.232780192057e-03 
-9.798919804233e-04 -2.558628748534e-04 0.0 
-2.558628748534e-04 4.608642650891e-03 0.0 
0.0 0.0 -7.175509632692e-04 
-9.821029958470e-04 -3.508647879924e-05 0.0 
-3.508647879924e-05 4.890525845077e-03 0.0 
0.0 0.0 -7.596628988333e-04 
-1.837560013843e-04 -1.583099615282e-05 0.0 
-1.583099615282e-05 7.060885550868e-04 0.0 
0.0 0.0 -1.551230728613e-04 
-1.279400136320e-03 -1.566945304177e-04 0.0 
-1.566945304177e-04 7.936225660633e-03 0.0 
0.0 0.0 -1.240629869904e-03 
-1.185998620198e-03 6.438056067403e-04 0.0 
6.438056067403e-04 7.550199019485e-03 0.0 
0.0 0.0 -1.186362110037e-03 
2.427830448571e-04 7.191273176983e-04 0.0 
7.191273176983e-04 1.478022189351e-04 0.0 
0.0 0.0 -1.673936844824e-04 
-1.279430862365e-03 -6.414688066309e-05 0.0 
-6.414688066309e-05 8.547621756056e-03 0.0 
0.0 0.0 -1.290349483557e-03 
-1.338884708819e-03 1.031550988355e-04 0.0 
1.031550988355e-04 8.369469127644e-03 0.0 
0.0 0.0 -1.290356026000e-03 
-8.661241169029e-04 -1.497599566473e-04 0.0 
-1.497599566473e-04 5.210623571048e-03 0.0 
0.0 0.0 -7.639788432047e-04 
-1.031081386504e-03 4.454962226943e-05 0.0 
4.454962226943e-05 6.379322053578e-03 0.0 
0.0 0.0 -9.358343396975e-04 
-9.489099175762e-04 2.306915430345e-05 0.0 
2.306915430345e-05 4.686801294291e-03 0.0 
0.0 0.0 -7.108516105536e-04 
-9.490845872611e-04 -2.424415655702e-04 0.0 
-2.424415655702e-04 4.770889395299e-03 0.0 
0.0 0.0 -7.343037059241e-04 
-1.020778085259e-03 -1.236146397605e-04 0.0 
-1.236146397605e-04 5.063951457963e-03 0.0 
0.0 0.0 -7.498489858827e-04 
-1.029397936689e-03 2.088387744417e-04 0.0 
2.088387744417e-04 7.190812739883e-03 0.0 
0.0 0.0 -1.180929064624e-03 
-9.345291821784e-05 -1.000980982166e-03 0.0 
-1.000980982166e-03 8.249248585122e-04 0.0 
0.0 0.0 -3.134879744119e-04 
-1.217539983379e-03 3.641850333419e-04 0.0 
3.641850333419e-04 7.975823276789e-03 0.0 
0.0 0.0 -1.217816617926e-03 
-9.353852917844e-04 8.308411466891e-05 0.0 
8.308411466891e-05 5.379160797006e-03 0.0 
0.0 0.0 -8.376728236383e-04 
-1.321070874734e-03 1.232042406106e-04 0.0 
1.232042406106e-04 8.662379723599e-03 0.0 
0.0 0.0 -1.272153791098e-03 
-1.041736228558e-03 -1.048021857426e-04 0.0 
-1.048021857426e-04 7.166745997700e-03 0.0 
0.0 0.0 -1.181257232468e-03 
-9.798440822242e-04 -3.118370163861e-05 0.0 
-3.118370163861e-05 6.079525789277e-03 0.0 
0.0 0.0 -8.902468719969e-04 
-1.234647512165e-03 5.766899331800e-04 0.0 
5.766899331800e-04 7.752454878246e-03 0.0 
0.0 0.0 -1.201032862555e-03 
-1.158629351689e-03 4.496790680983e-04 0.0 
4.496790680983e-04 7.611289473110e-03 0.0 
0.0 0.0 -1.236767197193e-03 
-1.208868880085e-03 3.342350738492e-04 0.0 
3.342350738492e-04 8.181025928136e-03 0.0 
0.0 0.0 -1.270271405117e-03 
3.097542277649e-05 6.697677954973e-05 0.0 
6.697677954973e-05 7.281263968875e-06 0.0 
0.0 0.0 -1.639572289087e-05 
-1.241892221072e-03 3.317116238901e-04 0.0 
3.317116238901e-04 7.798927866879e-03 0.0 
0.0 0.0 -1.198686027802e-03 
-1.247779771289e-03 6.731204463031e-04 0.0 
6.731204463031e-04 8.074479962319e-03 0.0 
0.0 0.0 -1.227078865044e-03 
-6.925802389634e-05 -2.106877258132e-04 0.0 
-2.106877258132e-04 8.393317830722e-04 0.0 
0.0 0.0 -1.488313462956e-04 
-9.198582411310e-04 -2.516763361700e-04 0.0 
-2.516763361700e-04 4.361749592167e-03 0.0 
0.0 0.0 -6.841365946973e-04 
8.862067450552e-06 2.614979262087e-05 0.0 
2.614979262087e-05 5.345349754715e-06 0.0 
0.0 0.0 -6.088893087972e-06 
-1.270183579808e-03 3.785933793144e-04 0.0 
3.785933793144e-04 8.183372897712e-03 0.0 
0.0 0.0 -1.230789928679e-03 
-2.507568877565e-04 -6.781486879639e-05 0.0 
-6.781486879639e-05 1.034467775160e-03 0.0 
0.0 0.0 -2.044444444444e-04 
-2.132863225946e-04 5.634913117177e-05 0.0 
5.634913117177e-05 1.212092474557e-03 0.0 
0.0 0.0 -1.822222222222e-04 
-2.461610589791e-04 -1.812098302402e-05 0.0 
-1.812098302402e-05 8.981328864429e-04 0.0 
0.0 0.0 -2.044444444444e-04 
-2.147267041248e-04 -1.989947913997e-05 0.0 
-1.989947913997e-05 1.202740032189e-03 0.0 
0.0 0.0 -1.822222222222e-04 
-2.460600324532e-04 -2.274720541184e-05 0.0 
-2.274720541184e-05 8.914949546044e-04 0.0 
0.0 0.0 -2.044444444444e-04 
-2.150479374063e-04 -3.129458083310e-05 0.0 
-3.129458083310e-05 1.203006354940e-03 0.0 
0.0 0.0 -1.822222222222e-04 
-2.462198430306e-04 -2.804713420072e-05 0.0 
-2.804713420072e-05 8.921980041224e-04 0.0 
0.0 0.0 -2.044444444444e-04 
-2.141656031950e-04 -3.699561073311e-05 0.0 
-3.699561073311e-05 1.203365013804e-03 0.0 
0.0 0.0 -1.822222222222e-04 
-2.459136250081e-04 -3.248848067824e-05 0.0 
-3.248848067824e-05 8.927753519548e-04 0.0 
0.0 0.0 -2.044444444444e-04 
-2.122841426835e-04 -4.178890406880e-05 0.0 
-4.178890406880e-05 1.203187073411e-03 0.0 
0.0 0.0 -1.822222222222e-04 
-2.451128265315e-04 -3.658181966735e-05 0.0 
-3.658181966735e-05 8.928179900179e-04 0.0 
0.0 0.0 -2.044444444444e-04 
-2.096338774208e-04 -4.639395384728e-05 0.0 
-4.639395384728e-05 1.202492533832e-03 0.0 
0.0 0.0 -1.822222222222e-04 
-2.439185593551e-04 -4.044618690082e-05 0.0 
-4.044618690082e-05 8.924006711282e-04 0.0 
0.0 0.0 -2.044444444444e-04 
-2.064069130785e-04 -5.085054166689e-05 0.0 
-5.085054166689e-05 1.201368601297e-03 0.0 
0.0 0.0 -1.822222222222e-04 
-2.424743071365e-04 -4.396506173464e-05 0.0 
-4.396506173464e-05 8.916444911649e-04 0.0 
0.0 0.0 -2.044444444444e-04 
-2.027612687777e-04 -5.497813936568e-05 0.0 
-5.497813936568e-05 1.199902319193e-03 0.0 
0.0 0.0 -1.822222222222e-04 
-2.409391640056e-04 -4.692461244445e-05 0.0 
-4.692461244445e-05 8.906630498378e-04 0.0 
0.0 0.0 -2.044444444444e-04 
-1.988396521453e-04 -5.851701212049e-05 0.0 
-5.851701212049e-05 1.198169967889e-03 0.0 
0.0 0.0 -1.822222222222e-04 
-2.394698953818e-04 -4.906970077185e-05 0.0 
-4.906970077185e-05 8.895564174281e-04 0.0 
0.0 0.0 -2.044444444444e-04 
-1.947893468717e-04 -6.117280725664e-05 0.0 
-6.117280725664e-05 1.196248658912e-03 0.0 
0.0 0.0 -1.822222222222e-04 
-3.712898523905e-04 4.317569343883e-04 0.0 
4.317569343883e-04 1.145241708059e-03 0.0 
0.0 0.0 -2.387231874441e-04 
-2.382372826229e-04 -5.011791756217e-05 0.0 
-5.011791756217e-05 8.884259014391e-04 0.0 
0.0 0.0 -2.044444444444e-04 
-1.907840217257e-04 -6.263724658105e-05 0.0 
-6.263724658105e-05 1.194237656955e-03 0.0 
0.0 0.0 -1.822222222222e-04 
-2.374457179260e-04 -4.977058269570e-05 0.0 
-4.977058269570e-05 8.873972864172e-04 0.0 
0.0 0.0 -2.044444444444e-04 
-3.059992964472e-04 5.496270407213e-04 0.0 
5.496270407213e-04 9.802526694908e-04 0.0 
0.0 0.0 -1.912478907564e-04 
-1.870497738819e-04 -6.262168888187e-05 0.0 
-6.262168888187e-05 1.192299008639e-03 0.0 
0.0 0.0 -1.822222222222e-04 
-2.374007187279e-04 -4.789023730634e-05 0.0 
-4.789023730634e-05 8.866288055825e-04 0.0 
0.0 0.0 -2.044444444444e-04 
-2.590753996177e-04 4.433103667067e-04 0.0 
4.433103667067e-04 9.165365716902e-04 0.0 
0.0 0.0 -2.581562493347e-04 
-1.838234548438e-04 -6.092177172858e-05 0.0 
-6.092177172858e-05 1.190518626697e-03 0.0 
0.0 0.0 -1.822222222222e-04 
-2.383869275768e-04 -4.422754439846e-05 0.0 
-4.422754439846e-05 8.862463774891e-04 0.0 
0.0 0.0 -2.044444444444e-04 
-1.814000525890e-04 -5.728879705715e-05 0.0 
-5.728879705715e-05 1.189050181082e-03 0.0 
0.0 0.0 -1.822222222222e-04 
-2.407497892372e-04 -3.879603429531e-05 0.0 
-3.879603429531e-05 8.863629034362e-04 0.0 
0.0 0.0 -2.044444444444e-04 
-1.800070268731e-04 -5.141797290055e-05 0.0 
-5.141797290055e-05 1.187749772327e-03 0.0 
0.0 0.0 -1.822222222222e-04 
-2.446310126199e-04 -3.066752743924e-05 0.0 
-3.066752743924e-05 8.870377818067e-04 0.0 
0.0 0.0 -2.044444444444e-04 
-1.801194860395e-04 -4.284558607012e-05 0.0 
-4.284558607012e-05 1.187187231994e-03 0.0 
0.0 0.0 -1.822222222222e-04 
-2.508714636983e-04 -2.052611711476e-05 0.0 
-2.052611711476e-05 8.885596674327e-04 0.0 
0.0 0.0 -2.044444444444e-04 
-1.818281296921e-04 -3.092729567660e-05 0.0 
-3.092729567660e-05 1.186454831232e-03 0.0 
0.0 0.0 -1.822222222222e-04 
-3.027578764596e-04 6.810323115478e-04 0.0 
6.810323115478e-04 1.082461611564e-03 0.0 
0.0 0.0 -2.704531460172e-04 
-2.592097415346e-04 -4.959314290161e-06 0.0 
-4.959314290161e-06 8.909419718993e-04 0.0 
0.0 0.0 -2.044444444444e-04 
-1.865741924096e-04 -1.422333226689e-05 0.0 
-1.422333226689e-05 1.187628875113e-03 0.0 
0.0 0.0 -1.822222222222e-04 
-2.721526143227e-04 1.205750116150e-05 0.0 
1.205750116150e-05 8.945788037620e-04 0.0 
0.0 0.0 -2.044444444444e-04 
-1.939924474556e-04 8.375520842673e-06 0.0 
8.375520842673e-06 1.186772148575e-03 0.0 
0.0 0.0 -1.822222222222e-04 
-1.482291249962e-04 3.592744909491e-05 0.0 
3.592744909491e-05 1.175136605521e-03 0.0 
0.0 0.0 -2.004280466034e-04 
-2.869104932953e-04 4.392938228072e-05 0.0 
4.392938228072e-05 8.997935616271e-04 0.0 
0.0 0.0 -2.044444444444e-04 
-9.910084738168e-05 7.658295101581e-05 0.0 
7.658295101581e-05 1.150275684600e-03 0.0 
0.0 0.0 -2.204267752845e-04 
-2.962624122326e-04 6.861581631927e-05 0.0 
6.861581631927e-05 9.023866303304e-04 0.0 
0.0 0.0 -2.097994513533e-04 
-1.104880871131e-04 1.451882146132e-04 0.0 
1.451882146132e-04 1.160916609986e-03 0.0 
0.0 0.0 -2.273367909445e-04 
-2.920322184050e-04 1.349132072892e-04 0.0 
1.349132072892e-04 9.037865644230e-04 0.0 
0.0 0.0 -2.173204268883e-04 
-2.909264463953e-04 2.527803142173e-04 0.0 
2.527803142173e-04 1.175603940766e-03 0.0 
0.0 0.0 -1.822222222222e-04 
-3.677392756981e-04 4.232900733992e-04 0.0 
4.232900733992e-04 1.215367293503e-03 0.0 
0.0 0.0 -1.822222222222e-04 
-2.783565001642e-04 1.579061642074e-04 0.0 
1.579061642074e-04 8.944232141228e-04 0.0 
0.0 0.0 -2.378695771978e-04 
-2.720135245397e-04 3.291264035430e-04 0.0 
3.291264035430e-04 9.008560657141e-04 0.0 
0.0 0.0 -2.359550740796e-04 
-2.272348481669e-04 4.962519917532e-04 0.0 
4.962519917532e-04 8.603584768570e-04 0.0 
0.0 0.0 -2.582244133998e-04 
-1.859091753436e-04 -3.627255548042e-04 0.0 
-3.627255548042e-04 1.014404375981e-03 0.0 
0.0 0.0 -1.933333333333e-04 
-2.884587484561e-04 3.598387306250e-04 0.0 
3.598387306250e-04 1.198265490527e-03 0.0 
0.0 0.0 -1.933333333333e-04 
-2.120006153946e-04 -3.501859733167e-05 0.0 
-3.501859733167e-05 1.050583898463e-03 0.0 
0.0 0.0 -1.711111111111e-04 
-2.634307576369e-04 4.200097216007e-05 0.0 
4.200097216007e-05 1.153429501950e-03 0.0 
0.0 0.0 -2.155555555556e-04 
-1.864124031819e-04 6.633836606594e-04 0.0 
6.633836606594e-04 8.396123738653e-04 0.0 
0.0 0.0 -2.741306969431e-04 
-2.952013322010e-04 -7.105529920730e-05 0.0 
-7.105529920730e-05 1.557070950825e-03 0.0 
0.0 0.0 -2.488888888889e-04 
-3.254937786982e-04 4.435174731084e-05 0.0 
4.435174731084e-05 1.364389529670e-03 0.0 
0.0 0.0 -2.711111111111e-04 
-2.906055034236e-04 -1.453682006066e-05 0.0 
-1.453682006066e-05 1.677746848914e-03 0.0 
0.0 0.0 -2.488888888889e-04 
-3.240490716854e-04 -1.980019069996e-05 0.0 
-1.980019069996e-05 1.371639947660e-03 0.0 
0.0 0.0 -2.711111111111e-04 
-2.905044768976e-04 -2.118391276276e-05 0.0 
-2.118391276276e-05 1.682793203478e-03 0.0 
0.0 0.0 -2.488888888889e-04 
-3.238735021039e-04 -3.097254670317e-05 0.0 
-3.097254670317e-05 1.372144297900e-03 0.0 
0.0 0.0 -2.711111111111e-04 
-2.906642874751e-04 -2.881618546829e-05 0.0 
-2.881618546829e-05 1.683024523281e-03 0.0 
0.0 0.0 -2.488888888889e-04 
-3.242298033971e-04 -3.828264310236e-05 0.0 
-3.828264310236e-05 1.372623957039e-03 0.0 
0.0 0.0 -2.711111111111e-04 
-2.903580694526e-04 -3.482769611358e-05 0.0 
-3.482769611358e-05 1.683295155425e-03 0.0 
0.0 0.0 -2.488888888889e-04 
-3.247078271869e-04 -4.460397563338e-05 0.0 
-4.460397563338e-05 1.373026131789e-03 0.0 
0.0 0.0 -2.711111111111e-04 
-2.895572709759e-04 -3.982611016076e-05 0.0 
-3.982611016076e-05 1.683413827941e-03 0.0 
0.0 0.0 -2.488888888889e-04 
-3.251193850062e-04 -5.034287914678e-05 0.0 
-5.034287914678e-05 1.373191785427e-03 0.0 
0.0 0.0 -2.711111111111e-04 
-2.883630037996e-04 -4.409517578428e-05 0.0 
-4.409517578428e-05 1.683198481667e-03 0.0 
0.0 0.0 -2.488888888889e-04 
-3.254151180985e-04 -5.545209315080e-05 0.0 
-5.545209315080e-05 1.373095522970e-03 0.0 
0.0 0.0 -2.711111111111e-04 
-2.869187515810e-04 -4.759890393832e-05 0.0 
-4.759890393832e-05 1.682613264279e-03 0.0 
0.0 0.0 -2.488888888889e-04 
-3.257031917389e-04 -5.972681323178e-05 0.0 
-5.972681323178e-05 1.372798579125e-03 0.0 
0.0 0.0 -2.711111111111e-04 
-2.853836084500e-04 -5.016125214612e-05 0.0 
-5.016125214612e-05 1.681711994663e-03 0.0 
0.0 0.0 -2.488888888889e-04 
-3.261227584480e-04 -6.291964668725e-05 0.0 
-6.291964668725e-05 1.372375856526e-03 0.0 
0.0 0.0 -2.711111111111e-04 
-2.839143398263e-04 -5.151108192776e-05 0.0 
-5.151108192776e-05 1.680553878395e-03 0.0 
0.0 0.0 -2.488888888889e-04 
-5.376302160352e-04 3.676870752292e-04 0.0 
3.676870752292e-04 1.634100272328e-03 0.0 
0.0 0.0 -2.581395122151e-04 
-3.268375609068e-04 -6.469886553588e-05 0.0 
-6.469886553588e-05 1.371913930166e-03 0.0 
0.0 0.0 -2.711111111111e-04 
-2.826817270674e-04 -5.132346130166e-05 0.0 
-5.132346130166e-05 1.679214132172e-03 0.0 
0.0 0.0 -2.488888888889e-04 
-3.279874699837e-04 -6.465677529104e-05 0.0 
-6.465677529104e-05 1.371505513672e-03 0.0 
0.0 0.0 -2.711111111111e-04 
-4.430031296563e-04 4.286076278821e-04 0.0 
4.286076278821e-04 1.401460279639e-03 0.0 
0.0 0.0 -2.711111111111e-04 
-2.818901623705e-04 -4.919394600659e-05 0.0 
-4.919394600659e-05 1.677776825315e-03 0.0 
0.0 0.0 -2.488888888889e-04 
-3.297313591709e-04 -6.221404717026e-05 0.0 
-6.221404717026e-05 1.371311311535e-03 0.0 
0.0 0.0 -2.711111111111e-04 
-2.818451631723e-04 -4.478135297260e-05 0.0 
-4.478135297260e-05 1.676460250739e-03 0.0 
0.0 0.0 -2.488888888889e-04 
-3.326316221874e-04 -5.721256738290e-05 0.0 
-5.721256738290e-05 1.371518769163e-03 0.0 
0.0 0.0 -2.711111111111e-04 
-2.828313720213e-04 -3.779681966187e-05 0.0 
-3.779681966187e-05 1.675403564516e-03 0.0 
0.0 0.0 -2.488888888889e-04 
-4.059827130491e-04 5.128188739634e-04 0.0 
5.128188739634e-04 1.447928969661e-03 0.0 
0.0 0.0 -2.359172899929e-04 
-3.367560482028e-04 -4.920587402124e-05 0.0 
-4.920587402124e-05 1.372225012167e-03 0.0 
0.0 0.0 -2.711111111111e-04 
-2.851942336816e-04 -2.793992133343e-05 0.0 
-2.793992133343e-05 1.674760364641e-03 0.0 
0.0 0.0 -2.488888888889e-04 
-3.429661620733e-04 -3.842115182948e-05 0.0 
-3.842115182948e-05 1.373431633602e-03 0.0 
0.0 0.0 -2.711111111111e-04 
-2.890754570644e-04 -1.445213534676e-05 0.0 
-1.445213534676e-05 1.674169463168e-03 0.0 
0.0 0.0 -2.488888888889e-04 
-3.500116600226e-04 -2.243813506759e-05 0.0 
-2.243813506759e-05 1.375221853135e-03 0.0 
0.0 0.0 -2.711111111111e-04 
-2.953159081427e-04 3.344893535129e-06 0.0 
3.344893535129e-06 1.674433168629e-03 0.0 
0.0 0.0 -2.488888888889e-04 
-3.612701041623e-04 -3.476308475759e-06 0.0 
-3.476308475759e-06 1.377558106542e-03 0.0 
0.0 0.0 -2.711111111111e-04 
-3.036541859790e-04 2.777348823242e-05 0.0 
2.777348823242e-05 1.673611019722e-03 0.0 
0.0 0.0 -2.488888888889e-04 
-3.712585986873e-04 2.741593658551e-05 0.0 
2.741593658551e-05 1.380550073854e-03 0.0 
0.0 0.0 -2.711111111111e-04 
-3.165970587671e-04 5.927969329141e-05 0.0 
5.927969329141e-05 1.675687817617e-03 0.0 
0.0 0.0 -2.488888888889e-04 
-3.919160560217e-04 5.753298666299e-05 0.0 
5.753298666299e-05 1.383609464570e-03 0.0 
0.0 0.0 -2.711111111111e-04 
-4.845532836930e-04 6.361611629006e-04 0.0 
6.361611629006e-04 1.559816627148e-03 0.0 
0.0 0.0 -2.692506233262e-04 
-4.015567445774e-04 1.254721392100e-04 0.0 
1.254721392100e-04 1.388599622368e-03 0.0 
0.0 0.0 -2.711111111111e-04 
-3.313549377398e-04 1.053449586166e-04 0.0 
1.053449586166e-04 1.670659921373e-03 0.0 
0.0 0.0 -2.488888888889e-04 
-4.451618937031e-04 1.587275490449e-04 0.0 
1.587275490449e-04 1.390823225084e-03 0.0 
0.0 0.0 -2.711111111111e-04 
-3.585379161073e-04 1.611644823792e-04 0.0 
1.611644823792e-04 1.681904763770e-03 0.0 
0.0 0.0 -2.488888888889e-04 
-4.183460080304e-04 3.207061591643e-04 0.0 
3.207061591643e-04 1.388074283355e-03 0.0 
0.0 0.0 -2.711111111111e-04 
-3.792207315119e-04 2.510172866857e-04 0.0 
2.510172866857e-04 1.655063246402e-03 0.0 
0.0 0.0 -2.488888888889e-04 
-4.335703981462e-04 3.699863634296e-04 0.0 
3.699863634296e-04 1.684714290038e-03 0.0 
0.0 0.0 -2.488888888889e-04 
-4.316907614535e-04 5.168045558219e-04 0.0 
5.168045558219e-04 1.304541632207e-03 0.0 
0.0 0.0 -2.470284011040e-04 
-3.668442042028e-04 -3.673170135593e-04 0.0 
-3.673170135593e-04 1.584542391469e-03 0.0 
0.0 0.0 -2.600000000000e-04 
-2.602062413331e-04 3.537454734861e-04 0.0 
3.537454734861e-04 1.393329098535e-03 0.0 
0.0 0.0 -2.600000000000e-04 
-3.402634464058e-04 -4.194673100762e-05 0.0 
-4.194673100762e-05 1.545600451328e-03 0.0 
0.0 0.0 -2.822222222222e-04 
-2.856529798592e-04 3.840190014896e-05 0.0 
3.840190014896e-05 1.441014104028e-03 0.0 
0.0 0.0 -2.377777777778e-04 
-4.405270692946e-04 6.801827816630e-04 0.0 
6.801827816630e-04 1.355982589248e-03 0.0 
0.0 0.0 -2.451177686753e-04 
-4.033215092896e-04 -7.778614931741e-05 0.0 
-7.778614931741e-05 1.971836168127e-03 0.0 
0.0 0.0 -3.377777777778e-04 
-3.699382231426e-04 4.376721251435e-05 0.0 
4.376721251435e-05 2.156467211136e-03 0.0 
0.0 0.0 -3.155555555556e-04 
-4.016272998768e-04 -1.845288611326e-05 0.0 
-1.845288611326e-05 1.842668774100e-03 0.0 
0.0 0.0 -3.377777777778e-04 
-3.684935161298e-04 -1.993514923582e-05 0.0 
-1.993514923582e-05 2.145630754397e-03 0.0 
0.0 0.0 -3.155555555556e-04 
-4.011855839344e-04 -2.170328035969e-05 0.0 
-2.170328035969e-05 1.834448861866e-03 0.0 
0.0 0.0 -3.377777777778e-04 
-3.683179465484e-04 -3.056747774146e-05 0.0 
-3.056747774146e-05 2.144778837340e-03 0.0 
0.0 0.0 -3.155555555556e-04 
-4.018211954014e-04 -2.780572956267e-05 0.0 
-2.780572956267e-05 1.833993179013e-03 0.0 
0.0 0.0 -3.377777777778e-04 
-3.686742478415e-04 -3.749804252556e-05 0.0 
-3.749804252556e-05 2.145064232920e-03 0.0 
0.0 0.0 -3.155555555556e-04 
-4.030678757072e-04 -3.345880157567e-05 0.0 
-3.345880157567e-05 1.834535971790e-03 0.0 
0.0 0.0 -3.377777777778e-04 
-3.691522716313e-04 -4.346216221499e-05 0.0 
-4.346216221499e-05 2.145503780732e-03 0.0 
0.0 0.0 -3.155555555556e-04 
-4.045993123101e-04 -3.863070102539e-05 0.0 
-3.863070102539e-05 1.835247857122e-03 0.0 
0.0 0.0 -3.377777777778e-04 
-3.695638294507e-04 -4.875359068941e-05 0.0 
-4.875359068941e-05 2.145731130156e-03 0.0 
0.0 0.0 -3.155555555556e-04 
-4.062427089130e-04 -4.320299965925e-05 0.0 
-4.320299965925e-05 1.835799445565e-03 0.0 
0.0 0.0 -3.377777777778e-04 
-3.698595625429e-04 -5.325599390528e-05 0.0 
-5.325599390528e-05 2.145551511058e-03 0.0 
0.0 0.0 -3.155555555556e-04 
-4.078831686855e-04 -4.670032855598e-05 0.0 
-4.670032855598e-05 1.836058440315e-03 0.0 
0.0 0.0 -3.377777777778e-04 
-3.701476361833e-04 -5.655748343099e-05 0.0 
-5.655748343099e-05 2.145061402005e-03 0.0 
0.0 0.0 -3.155555555556e-04 
-4.097865858263e-04 -4.883766509846e-05 0.0 
-4.883766509846e-05 1.836127398507e-03 0.0 
0.0 0.0 -3.377777777778e-04 
-3.705672028925e-04 -5.837184754707e-05 0.0 
-5.837184754707e-05 2.144289684407e-03 0.0 
0.0 0.0 -3.155555555556e-04 
-5.653935967421e-04 2.589038202600e-04 0.0 
2.589038202600e-04 2.091415995100e-03 0.0 
0.0 0.0 -3.249092970522e-04 
-4.121128011224e-04 -4.928328914799e-05 0.0 
-4.928328914799e-05 1.836067549886e-03 0.0 
0.0 0.0 -3.377777777778e-04 
-3.712820053512e-04 -5.834505686051e-05 0.0 
-5.834505686051e-05 2.143300562424e-03 0.0 
0.0 0.0 -3.155555555556e-04 
-4.149822806298e-04 -4.778386138389e-05 0.0 
-4.778386138389e-05 1.835943141923e-03 0.0 
0.0 0.0 -3.377777777778e-04 
-4.499219717492e-04 4.087873195919e-04 0.0 
4.087873195919e-04 1.908948706133e-03 0.0 
0.0 0.0 -3.026870748299e-04 
-3.724319144282e-04 -5.606781584101e-05 0.0 
-5.606781584101e-05 2.142071630317e-03 0.0 
0.0 0.0 -3.155555555556e-04 
-4.827616455878e-04 3.472560296512e-04 0.0 
3.472560296512e-04 1.843206052276e-03 0.0 
0.0 0.0 -3.377777777778e-04 
-4.183491724233e-04 -4.389120914971e-05 0.0 
-4.389120914971e-05 1.835749541912e-03 0.0 
0.0 0.0 -3.377777777778e-04 
-3.741758036154e-04 -5.083009705686e-05 0.0 
-5.083009705686e-05 2.140541387055e-03 0.0 
0.0 0.0 -3.155555555556e-04 
-4.222392951633e-04 -3.615193688630e-05 0.0 
-3.615193688630e-05 1.835642333740e-03 0.0 
0.0 0.0 -3.377777777778e-04 
-3.770760666319e-04 -4.180068680568e-05 0.0 
-4.180068680568e-05 2.139581124162e-03 0.0 
0.0 0.0 -3.155555555556e-04 
-4.278559952098e-04 -2.552535737092e-05 0.0 
-2.552535737092e-05 1.836068605962e-03 0.0 
0.0 0.0 -3.377777777778e-04 
-3.812004926473e-04 -2.896900661336e-05 0.0 
-2.896900661336e-05 2.138403848176e-03 0.0 
0.0 0.0 -3.155555555556e-04 
-4.347234955002e-04 -9.637769040496e-06 0.0 
-9.637769040496e-06 1.836924698108e-03 0.0 
0.0 0.0 -3.377777777778e-04 
-3.874106065177e-04 -1.167986006356e-05 0.0 
-1.167986006356e-05 2.138695774024e-03 0.0 
0.0 0.0 -3.155555555556e-04 
-4.895249511417e-04 4.886018197501e-04 0.0 
4.886018197501e-04 2.001115148190e-03 0.0 
0.0 0.0 -3.360204081633e-04 
-4.442787057398e-04 6.686297430374e-06 0.0 
6.686297430374e-06 1.838164453285e-03 0.0 
0.0 0.0 -3.377777777778e-04 
-3.944561044670e-04 1.065381348907e-05 0.0 
1.065381348907e-05 2.135804588402e-03 0.0 
0.0 0.0 -3.155555555556e-04 
-4.522783493514e-04 3.639854830083e-05 0.0 
3.639854830083e-05 1.839070031720e-03 0.0 
0.0 0.0 -3.377777777778e-04 
-4.057145486068e-04 4.085282605461e-05 0.0 
4.085282605461e-05 2.138451035408e-03 0.0 
0.0 0.0 -3.155555555556e-04 
-4.157030431317e-04 7.985792585969e-05 0.0 
7.985792585969e-05 2.128672667394e-03 0.0 
0.0 0.0 -3.155555555556e-04 
-4.676008918457e-04 5.850290515757e-05 0.0 
5.850290515757e-05 1.840319811209e-03 0.0 
0.0 0.0 -3.377777777778e-04 
-4.363605004662e-04 1.324986197952e-04 0.0 
1.324986197952e-04 2.139391523019e-03 0.0 
0.0 0.0 -3.155555555556e-04 
-4.723537878857e-04 1.197226175932e-04 0.0 
1.197226175932e-04 1.839901082374e-03 0.0 
0.0 0.0 -3.377777777778e-04 
-4.460011890219e-04 2.052865052064e-04 0.0 
2.052865052064e-04 2.103272782201e-03 0.0 
0.0 0.0 -3.155555555556e-04 
-4.896063381476e-04 3.095411054930e-04 0.0 
3.095411054930e-04 2.142928166934e-03 0.0 
0.0 0.0 -3.155555555556e-04 
-5.032944312987e-04 1.379640868204e-04 0.0 
1.379640868204e-04 1.839108820748e-03 0.0 
0.0 0.0 -3.377777777778e-04 
-4.654683285949e-04 2.891122881816e-04 0.0 
2.891122881816e-04 1.829855770762e-03 0.0 
0.0 0.0 -3.377777777778e-04 
-4.437359018442e-04 4.016271209655e-04 0.0 
4.016271209655e-04 1.738543147369e-03 0.0 
0.0 0.0 -3.137981859410e-04 
-3.355107645077e-04 -3.692127132912e-04 0.0 
-3.692127132912e-04 1.948567742905e-03 0.0 
0.0 0.0 -3.266666666667e-04 
-4.405370571709e-04 3.529927589174e-04 0.0 
3.529927589174e-04 2.136779321243e-03 0.0 
0.0 0.0 -3.266666666667e-04 
-3.624856686281e-04 -4.168356858480e-05 0.0 
-4.168356858480e-05 1.986351279017e-03 0.0 
0.0 0.0 -3.044444444444e-04 
-4.148028011910e-04 3.671549554757e-05 0.0 
3.671549554757e-05 2.089175803146e-03 0.0 
0.0 0.0 -3.488888888889e-04 
-4.763364629896e-04 5.270582126101e-04 0.0 
5.270582126101e-04 1.817268558159e-03 0.0 
0.0 0.0 -3.044444444444e-04 
-4.477659537340e-04 -7.950766361317e-05 0.0 
-7.950766361317e-05 2.497018706570e-03 0.0 
0.0 0.0 -3.822222222222e-04 
-4.784277234196e-04 3.924857303742e-05 0.0 
3.924857303742e-05 2.307222145021e-03 0.0 
0.0 0.0 -4.044444444444e-04 
-4.460717443213e-04 -1.760020650506e-05 0.0 
-1.760020650506e-05 2.620785785757e-03 0.0 
0.0 0.0 -3.822222222222e-04 
-4.776693350914e-04 -2.066498720173e-05 0.0 
-2.066498720173e-05 2.315002141673e-03 0.0 
0.0 0.0 -4.044444444444e-04 
-4.456300283789e-04 -1.937202289743e-05 0.0 
-1.937202289743e-05 2.625987173940e-03 0.0 
0.0 0.0 -3.822222222222e-04 
-4.779872738303e-04 -2.822274065139e-05 0.0 
-2.822274065139e-05 2.315244018536e-03 0.0 
0.0 0.0 -4.044444444444e-04 
-4.462656398459e-04 -2.485353904084e-05 0.0 
-2.485353904084e-05 2.625990326394e-03 0.0 
0.0 0.0 -3.822222222222e-04 
-4.792475399562e-04 -3.342896736660e-05 0.0 
-3.342896736660e-05 2.315783639058e-03 0.0 
0.0 0.0 -4.044444444444e-04 
-4.475123201517e-04 -3.007054614652e-05 0.0 
-3.007054614652e-05 2.626417310746e-03 0.0 
0.0 0.0 -3.822222222222e-04 
-4.811666376616e-04 -3.852533363394e-05 0.0 
-3.852533363394e-05 2.316598516972e-03 0.0 
0.0 0.0 -4.044444444444e-04 
-4.490437567545e-04 -3.458165382954e-05 0.0 
-3.458165382954e-05 2.627026792857e-03 0.0 
0.0 0.0 -3.822222222222e-04 
-4.837308784237e-04 -4.337502502547e-05 0.0 
-4.337502502547e-05 2.317420315081e-03 0.0 
0.0 0.0 -4.044444444444e-04 
-4.506871533574e-04 -3.830542708958e-05 0.0 
-3.830542708958e-05 2.627509373180e-03 0.0 
0.0 0.0 -3.822222222222e-04 
-4.863200757723e-04 -4.765112576718e-05 0.0 
-4.765112576718e-05 2.317829627755e-03 0.0 
0.0 0.0 -4.044444444444e-04 
-4.523276131299e-04 -4.048193732763e-05 0.0 
-4.048193732763e-05 2.627337923777e-03 0.0 
0.0 0.0 -3.822222222222e-04 
-4.889760674818e-04 -4.992492022024e-05 0.0 
-4.992492022024e-05 2.317964787574e-03 0.0 
0.0 0.0 -4.044444444444e-04 
-4.542310302707e-04 -4.078738031685e-05 0.0 
-4.078738031685e-05 2.626808748623e-03 0.0 
0.0 0.0 -3.822222222222e-04 
-6.056480292920e-04 1.728310757190e-04 0.0 
1.728310757190e-04 2.555848462997e-03 0.0 
0.0 0.0 -3.914586414276e-04 
-4.922399223678e-04 -5.021620544214e-05 0.0 
-5.021620544214e-05 2.317987519249e-03 0.0 
0.0 0.0 -4.044444444444e-04 
-4.565572455669e-04 -3.901111557492e-05 0.0 
-3.901111557492e-05 2.626026613918e-03 0.0 
0.0 0.0 -3.822222222222e-04 
-5.228769148866e-04 2.808757779245e-04 0.0 
2.808757779245e-04 2.304765565320e-03 0.0 
0.0 0.0 -4.044444444444e-04 
-4.963590350670e-04 -4.831763838805e-05 0.0 
-4.831763838805e-05 2.318011659797e-03 0.0 
0.0 0.0 -4.044444444444e-04 
-4.594267250742e-04 -3.511032177588e-05 0.0 
-3.511032177588e-05 2.625123327231e-03 0.0 
0.0 0.0 -3.822222222222e-04 
-5.009386741324e-04 -4.422694573305e-05 0.0 
-4.422694573305e-05 2.317812085855e-03 0.0 
0.0 0.0 -4.044444444444e-04 
-4.627936168678e-04 -2.842261320259e-05 0.0 
-2.842261320259e-05 2.623716732034e-03 0.0 
0.0 0.0 -3.822222222222e-04 
-5.056117799861e-04 -3.698061845559e-05 0.0 
-3.698061845559e-05 2.317065889197e-03 0.0 
0.0 0.0 -4.044444444444e-04 
-4.969269700224e-04 3.515730528913e-04 0.0 
3.515730528913e-04 2.377160801008e-03 0.0 
0.0 0.0 -3.692364192054e-04 
-4.666837396077e-04 -1.712937022343e-05 0.0 
-1.712937022343e-05 2.621232610088e-03 0.0 
0.0 0.0 -3.822222222222e-04 
-5.100907895199e-04 -2.260058306738e-05 0.0 
-2.260058306738e-05 2.316567452783e-03 0.0 
0.0 0.0 -4.044444444444e-04 
-4.723004396542e-04 -1.327751191981e-06 0.0 
-1.327751191981e-06 2.619762185472e-03 0.0 
0.0 0.0 -3.822222222222e-04 
-5.187011541432e-04 -5.611483876821e-06 0.0 
-5.611483876821e-06 2.316745085829e-03 0.0 
0.0 0.0 -4.044444444444e-04 
-4.791679399447e-04 1.929342974835e-05 0.0 
1.929342974835e-05 2.617894304883e-03 0.0 
0.0 0.0 -3.822222222222e-04 
-5.254608326116e-04 1.982980625916e-05 0.0 
1.982980625916e-05 2.317371002369e-03 0.0 
0.0 0.0 -4.044444444444e-04 
-4.887231501843e-04 4.328459530924e-05 0.0 
4.328459530924e-05 2.618567802256e-03 0.0 
0.0 0.0 -3.822222222222e-04 
-5.405598583973e-04 3.929786731890e-05 0.0 
3.929786731890e-05 2.316713537828e-03 0.0 
0.0 0.0 -4.044444444444e-04 
-4.967227937958e-04 7.689551929933e-05 0.0 
7.689551929933e-05 2.610977742846e-03 0.0 
0.0 0.0 -3.822222222222e-04 
-5.395854524473e-04 9.022698348543e-05 0.0 
9.022698348543e-05 2.315628932318e-03 0.0 
0.0 0.0 -4.044444444444e-04 
-5.147397320452e-04 3.920748264294e-04 0.0 
3.920748264294e-04 2.461392887946e-03 0.0 
0.0 0.0 -4.025697525387e-04 
-5.673385880599e-04 1.040653775258e-04 0.0 
1.040653775258e-04 2.310397031327e-03 0.0 
0.0 0.0 -4.044444444444e-04 
-5.120453362902e-04 1.146925732443e-04 0.0 
1.146925732443e-04 2.616352280690e-03 0.0 
0.0 0.0 -3.822222222222e-04 
-5.260367371211e-04 2.288711912235e-04 0.0 
2.288711912235e-04 2.301155937859e-03 0.0 
0.0 0.0 -4.044444444444e-04 
-5.167982323301e-04 1.764431880484e-04 0.0 
1.764431880484e-04 2.586781747074e-03 0.0 
0.0 0.0 -3.822222222222e-04 
-5.477388757432e-04 2.483443472200e-04 0.0 
2.483443472200e-04 2.612103741230e-03 0.0 
0.0 0.0 -3.822222222222e-04 
-4.714062865373e-04 3.406357459183e-04 0.0 
3.406357459183e-04 2.189922889939e-03 0.0 
0.0 0.0 -3.803475303165e-04 
-5.175702617414e-04 -3.703955333214e-04 0.0 
-3.703955333214e-04 2.521693289409e-03 0.0 
0.0 0.0 -3.933333333333e-04 
-4.117702287809e-04 3.510487114528e-04 0.0 
3.510487114528e-04 2.332080967614e-03 0.0 
0.0 0.0 -3.933333333333e-04 
-4.910475754552e-04 -4.353211321374e-05 0.0 
-4.353211321374e-05 2.483691270875e-03 0.0 
0.0 0.0 -4.155555555556e-04 
-4.370250234133e-04 3.548953741690e-05 0.0 
3.548953741690e-05 2.379928122617e-03 0.0 
0.0 0.0 -3.711111111111e-04 
-5.160949789211e-04 4.252800565549e-04 0.0 
4.252800565549e-04 2.291829436572e-03 0.0 
0.0 0.0 -3.711111111111e-04 
-5.545130018070e-04 -8.178037886237e-05 0.0 
-8.178037886237e-05 2.909623846630e-03 0.0 
0.0 0.0 -4.711111111111e-04 
-5.228721678640e-04 4.028587622300e-05 0.0 
4.028587622300e-05 3.096271718330e-03 0.0 
0.0 0.0 -4.488888888889e-04 
-5.533691474050e-04 -1.923275015253e-05 0.0 
-1.923275015253e-05 2.782205362795e-03 0.0 
0.0 0.0 -4.711111111111e-04 
-5.221137795359e-04 -1.919255201181e-05 0.0 
-1.919255201181e-05 3.085550305381e-03 0.0 
0.0 0.0 -4.488888888889e-04 
-5.530109392803e-04 -1.824425838804e-05 0.0 
-1.824425838804e-05 2.774559112815e-03 0.0 
0.0 0.0 -4.711111111111e-04 
-5.224317182748e-04 -2.502826317864e-05 0.0 
-2.502826317864e-05 3.085006659223e-03 0.0 
0.0 0.0 -4.488888888889e-04 
-5.547362962008e-04 -2.086138494889e-05 0.0 
-2.086138494889e-05 2.774413059491e-03 0.0 
0.0 0.0 -4.711111111111e-04 
-5.236919844007e-04 -2.854587035644e-05 0.0 
-2.854587035644e-05 3.085493683001e-03 0.0 
0.0 0.0 -4.488888888889e-04 
-5.568332374198e-04 -2.401854184227e-05 0.0 
-2.401854184227e-05 2.775119097809e-03 0.0 
0.0 0.0 -4.711111111111e-04 
-5.256110821061e-04 -3.168208470033e-05 0.0 
-3.168208470033e-05 3.086241768691e-03 0.0 
0.0 0.0 -4.488888888889e-04 
-5.598758616072e-04 -2.649602084230e-05 0.0 
-2.649602084230e-05 2.776179524696e-03 0.0 
0.0 0.0 -4.711111111111e-04 
-5.281753228681e-04 -3.429831362401e-05 0.0 
-3.429831362401e-05 3.087276348172e-03 0.0 
0.0 0.0 -4.488888888889e-04 
-5.637335880510e-04 -2.986966676234e-05 0.0 
-2.986966676234e-05 2.777348666577e-03 0.0 
0.0 0.0 -4.711111111111e-04 
-5.307645202168e-04 -3.678054343318e-05 0.0 
-3.678054343318e-05 3.087110497831e-03 0.0 
0.0 0.0 -4.488888888889e-04 
-5.672516091013e-04 -3.170316921858e-05 0.0 
-3.170316921858e-05 2.777585456228e-03 0.0 
0.0 0.0 -4.711111111111e-04 
-5.334205119262e-04 -3.725348252055e-05 0.0 
-3.725348252055e-05 3.086025479628e-03 0.0 
0.0 0.0 -4.488888888889e-04 
-6.732559192872e-04 1.069454178643e-04 0.0 
1.069454178643e-04 3.029509612801e-03 0.0 
0.0 0.0 -4.582426303855e-04 
-5.702546095882e-04 -3.020263056991e-05 0.0 
-3.020263056991e-05 2.777240536398e-03 0.0 
0.0 0.0 -4.711111111111e-04 
-5.366843668123e-04 -3.453855403530e-05 0.0 
-3.453855403530e-05 3.085220328545e-03 0.0 
0.0 0.0 -4.488888888889e-04 
-5.576127008399e-04 2.593782929634e-04 0.0 
2.593782929634e-04 2.842420570206e-03 0.0 
0.0 0.0 -4.360204081633e-04 
-5.755921041128e-04 -2.584209849049e-05 0.0 
-2.584209849049e-05 2.777326176010e-03 0.0 
0.0 0.0 -4.711111111111e-04 
-5.408034795114e-04 -2.962006398500e-05 0.0 
-2.962006398500e-05 3.084571096852e-03 0.0 
0.0 0.0 -4.488888888889e-04 
-5.797090102450e-04 2.287706001101e-04 0.0 
2.287706001101e-04 2.761834444076e-03 0.0 
0.0 0.0 -4.711111111111e-04 
-5.815224328378e-04 -2.044759247011e-05 0.0 
-2.044759247011e-05 2.777381230694e-03 0.0 
0.0 0.0 -4.711111111111e-04 
-5.453831185768e-04 -2.258268294197e-05 0.0 
-2.258268294197e-05 3.083167530034e-03 0.0 
0.0 0.0 -4.488888888889e-04 
-5.869514963865e-04 -1.328471433010e-05 0.0 
-1.328471433010e-05 2.776586963506e-03 0.0 
0.0 0.0 -4.711111111111e-04 
-5.500562244305e-04 -1.211537895153e-05 0.0 
-1.211537895153e-05 3.080223364949e-03 0.0 
0.0 0.0 -4.488888888889e-04 
-5.924946390174e-04 -2.438932199996e-06 0.0 
-2.438932199996e-06 2.774392434348e-03 0.0 
0.0 0.0 -4.711111111111e-04 
-5.545352339644e-04 4.923705994678e-06 0.0 
4.923705994678e-06 3.074068870883e-03 0.0 
0.0 0.0 -4.488888888889e-04 
-5.832002113226e-04 3.084013380276e-04 0.0 
3.084013380276e-04 2.928576946329e-03 0.0 
0.0 0.0 -4.693537414966e-04 
-5.957418463706e-04 2.457513506605e-05 0.0 
2.457513506605e-05 2.772161347741e-03 0.0 
0.0 0.0 -4.711111111111e-04 
-5.631455985877e-04 2.981682976181e-05 0.0 
2.981682976181e-05 3.075944045931e-03 0.0 
0.0 0.0 -4.488888888889e-04 
-6.088382110079e-04 4.080604098374e-05 0.0 
4.080604098374e-05 2.772254412647e-03 0.0 
0.0 0.0 -4.711111111111e-04 
-5.699052770561e-04 5.777344855823e-05 0.0 
5.777344855823e-05 3.067169222988e-03 0.0 
0.0 0.0 -4.488888888889e-04 
-5.850043028418e-04 9.074123042683e-05 0.0 
9.074123042683e-05 3.079028566329e-03 0.0 
0.0 0.0 -4.488888888889e-04 
-6.115132190535e-04 8.765179825616e-05 0.0 
8.765179825616e-05 2.771111166917e-03 0.0 
0.0 0.0 -4.711111111111e-04 
-5.840298968917e-04 1.336949722933e-04 0.0 
1.336949722933e-04 3.039780976699e-03 0.0 
0.0 0.0 -4.488888888889e-04 
-6.359355392830e-04 7.860855074454e-05 0.0 
7.860855074454e-05 2.767946632045e-03 0.0 
0.0 0.0 -4.711111111111e-04 
-6.117830325044e-04 2.038036979565e-04 0.0 
2.038036979565e-04 3.073336866825e-03 0.0 
0.0 0.0 -4.488888888889e-04 
-5.855262073870e-04 1.964620808073e-04 0.0 
1.964620808073e-04 2.752718067293e-03 0.0 
0.0 0.0 -4.711111111111e-04 
-5.381153397062e-04 2.290411015667e-04 0.0 
2.290411015667e-04 2.647470749537e-03 0.0 
0.0 0.0 -4.471315192744e-04 
-4.856995794812e-04 -3.712445804859e-04 0.0 
-3.712445804859e-04 2.886533165746e-03 0.0 
0.0 0.0 -4.600000000000e-04 
-5.915156838414e-04 3.511510416328e-04 0.0 
3.511510416328e-04 3.076032758812e-03 0.0 
0.0 0.0 -4.600000000000e-04 
-5.132697976774e-04 -4.266972038985e-05 0.0 
-4.266972038985e-05 2.924617726937e-03 0.0 
0.0 0.0 -4.377777777778e-04 
-5.653819698478e-04 3.554715819272e-05 0.0 
3.554715819272e-05 3.026667072190e-03 0.0 
0.0 0.0 -4.822222222222e-04 
-5.562102482200e-04 3.031448983604e-04 0.0 
3.031448983604e-04 2.748233394595e-03 0.0 
0.0 0.0 -4.377777777778e-04 
-5.989574462514e-04 -8.267193208917e-05 0.0 
-8.267193208917e-05 3.437613023720e-03 0.0 
0.0 0.0 -5.155555555556e-04 
-6.287787412402e-04 3.729317259218e-05 0.0 
3.729317259218e-05 3.247326925229e-03 0.0 
0.0 0.0 -5.377777777778e-04 
-5.978135918495e-04 -1.841914986540e-05 0.0 
-1.841914986540e-05 3.561201795145e-03 0.0 
0.0 0.0 -5.155555555556e-04 
-6.254961344599e-04 -1.930049853369e-05 0.0 
-1.930049853369e-05 3.253947423147e-03 0.0 
0.0 0.0 -5.377777777778e-04 
-5.974553837247e-04 -1.391156406088e-05 0.0 
-1.391156406088e-05 3.564621634950e-03 0.0 
0.0 0.0 -5.155555555556e-04 
-6.279936331018e-04 -1.935706142364e-05 0.0 
-1.935706142364e-05 3.255345558208e-03 0.0 
0.0 0.0 -5.377777777778e-04 
-5.991807406452e-04 -1.614264760927e-05 0.0 
-1.614264760927e-05 3.566069321236e-03 0.0 
0.0 0.0 -5.155555555556e-04 
-6.284144790130e-04 -2.147959664663e-05 0.0 
-2.147959664663e-05 3.255656571766e-03 0.0 
0.0 0.0 -5.377777777778e-04 
-6.012776818642e-04 -1.696499576587e-05 0.0 
-1.696499576587e-05 3.566126567533e-03 0.0 
0.0 0.0 -5.155555555556e-04 
-6.315481358764e-04 -2.174087039821e-05 0.0 
-2.174087039821e-05 3.256770810453e-03 0.0 
0.0 0.0 -5.377777777778e-04 
-6.043203060517e-04 -1.757798620874e-05 0.0 
-1.757798620874e-05 3.567144862765e-03 0.0 
0.0 0.0 -5.155555555556e-04 
-6.347436721796e-04 -2.174327211569e-05 0.0 
-2.174327211569e-05 3.258179294352e-03 0.0 
0.0 0.0 -5.377777777778e-04 
-6.081780324954e-04 -1.832425526294e-05 0.0 
-1.832425526294e-05 3.568559060354e-03 0.0 
0.0 0.0 -5.155555555556e-04 
-6.411680495803e-04 -2.482988994377e-05 0.0 
-2.482988994377e-05 3.259134830210e-03 0.0 
0.0 0.0 -5.377777777778e-04 
-6.116960535458e-04 -1.877149855027e-05 0.0 
-1.877149855027e-05 3.568744272090e-03 0.0 
0.0 0.0 -5.155555555556e-04 
-7.366276609701e-04 4.524951182865e-05 0.0 
4.524951182865e-05 3.507320200516e-03 0.0 
0.0 0.0 -5.247732426303e-04 
-6.420523831112e-04 -2.583218201805e-05 0.0 
-2.583218201805e-05 3.257046679515e-03 0.0 
0.0 0.0 -5.377777777778e-04 
-6.435781206746e-04 1.840534884814e-04 0.0 
1.840534884814e-04 3.241318968686e-03 0.0 
0.0 0.0 -5.377777777778e-04 
-6.146990540326e-04 -1.244484207344e-05 0.0 
-1.244484207344e-05 3.564885876854e-03 0.0 
0.0 0.0 -5.155555555556e-04 
-6.478721701654e-04 -1.639725233752e-05 0.0 
-1.639725233752e-05 3.256970335869e-03 0.0 
0.0 0.0 -5.377777777778e-04 
-6.200365485572e-04 -5.018436089581e-06 0.0 
-5.018436089581e-06 3.564885905457e-03 0.0 
0.0 0.0 -5.155555555556e-04 
-6.561429566816e-04 -9.551464893356e-06 0.0 
-9.551464893356e-06 3.257786223678e-03 0.0 
0.0 0.0 -5.377777777778e-04 
-6.259668772823e-04 2.319967205521e-06 0.0 
2.319967205521e-06 3.565031180513e-03 0.0 
0.0 0.0 -5.155555555556e-04 
-6.615288143992e-04 -3.165343597243e-06 0.0 
-3.165343597243e-06 3.256616812139e-03 0.0 
0.0 0.0 -5.377777777778e-04 
-6.169661166839e-04 2.164901621932e-04 0.0 
2.164901621932e-04 3.318852114050e-03 0.0 
0.0 0.0 -5.025510204081e-04 
-6.313959408309e-04 1.331766061821e-05 0.0 
1.331766061821e-05 3.562071063365e-03 0.0 
0.0 0.0 -5.155555555556e-04 
-6.676626850749e-04 8.412288321031e-06 0.0 
8.412288321031e-06 3.254047861299e-03 0.0 
0.0 0.0 -5.377777777778e-04 
-6.369390834618e-04 2.839501316983e-05 0.0 
2.839501316983e-05 3.557766628637e-03 0.0 
0.0 0.0 -5.155555555556e-04 
-6.757465811746e-04 2.011236031009e-05 0.0 
2.011236031009e-05 3.248279072062e-03 0.0 
0.0 0.0 -5.377777777778e-04 
-6.401862908150e-04 5.683403292324e-05 0.0 
5.683403292324e-05 3.544903684413e-03 0.0 
0.0 0.0 -5.155555555556e-04 
-6.710900969960e-04 7.145474225899e-05 0.0 
7.145474225899e-05 3.246321760371e-03 0.0 
0.0 0.0 -5.377777777778e-04 
-6.532826554523e-04 8.457965391973e-05 0.0 
8.457965391973e-05 3.553131858142e-03 0.0 
0.0 0.0 -5.155555555556e-04 
-7.020590348485e-04 7.312181654746e-05 0.0 
7.312181654746e-05 3.244705541191e-03 0.0 
0.0 0.0 -5.377777777778e-04 
-6.554115117610e-04 1.658740749447e-04 0.0 
1.658740749447e-04 3.237354480524e-03 0.0 
0.0 0.0 -5.377777777778e-04 
-6.559576634980e-04 1.237219721845e-04 0.0 
1.237219721845e-04 3.531755926188e-03 0.0 
0.0 0.0 -5.155555555556e-04 
-6.411111436525e-04 2.481500458011e-04 0.0 
2.481500458011e-04 3.407080026122e-03 0.0 
0.0 0.0 -5.358843537414e-04 
-6.803799837275e-04 1.624927648151e-04 0.0 
1.624927648151e-04 3.558426467577e-03 0.0 
0.0 0.0 -5.155555555556e-04 
-5.945151412269e-04 1.812873307433e-04 0.0 
1.812873307433e-04 3.113616278940e-03 0.0 
0.0 0.0 -5.136621315192e-04 
-6.672833179301e-04 -3.706793032750e-04 0.0 
-3.706793032750e-04 3.459056007774e-03 0.0 
0.0 0.0 -5.266666666667e-04 
-5.623773213514e-04 3.513666038768e-04 0.0 
3.513666038768e-04 3.271176697744e-03 0.0 
0.0 0.0 -5.266666666667e-04 
-6.406200246206e-04 -4.190627532401e-05 0.0 
-4.190627532401e-05 3.422026805713e-03 0.0 
0.0 0.0 -5.488888888889e-04 
-5.876041920701e-04 3.555034108668e-05 0.0 
3.555034108668e-05 3.319473246611e-03 0.0 
0.0 0.0 -5.044444444444e-04 
-6.130423435783e-04 2.369057836334e-04 0.0 
2.369057836334e-04 3.223253934296e-03 0.0 
0.0 0.0 -5.044444444444e-04 
-7.120623447180e-04 -8.888228388160e-05 0.0 
-8.888228388160e-05 3.852748437753e-03 0.0 
0.0 0.0 -6.044444444444e-04 
-6.732231856846e-04 3.548631982699e-05 0.0 
3.548631982699e-05 4.032087244247e-03 0.0 
0.0 0.0 -5.822222222222e-04 
-6.955393523700e-04 -2.756019485512e-05 0.0 
-2.756019485512e-05 3.717267839696e-03 0.0 
0.0 0.0 -6.044444444444e-04 
-6.699405789043e-04 -1.870355497797e-05 0.0 
-1.870355497797e-05 4.017496801865e-03 0.0 
0.0 0.0 -5.822222222222e-04 
-6.969243199369e-04 -6.918496173234e-06 0.0 
-6.918496173234e-06 3.707462619531e-03 0.0 
0.0 0.0 -6.044444444444e-04 
-6.724380775462e-04 -1.325710265715e-05 0.0 
-1.325710265715e-05 4.022403973257e-03 0.0 
0.0 0.0 -5.822222222222e-04 
-7.031503284102e-04 -1.402242021930e-05 0.0 
-1.402242021930e-05 3.711320333832e-03 0.0 
0.0 0.0 -6.044444444444e-04 
-6.728589234574e-04 -1.646685933992e-05 0.0 
-1.646685933992e-05 4.018646007482e-03 0.0 
0.0 0.0 -5.822222222222e-04 
-6.992489626615e-04 -7.571363959488e-06 0.0 
-7.571363959488e-06 3.708933191906e-03 0.0 
0.0 0.0 -6.044444444444e-04 
-6.759925803209e-04 -1.073738973976e-05 0.0 
-1.073738973976e-05 4.021950250257e-03 0.0 
0.0 0.0 -5.822222222222e-04 
-7.070575680629e-04 -7.158521352799e-06 0.0 
-7.158521352799e-06 3.711746084396e-03 0.0 
0.0 0.0 -6.044444444444e-04 
-6.791881166240e-04 -9.268059005098e-06 0.0 
-9.268059005098e-06 4.020971144871e-03 0.0 
0.0 0.0 -5.822222222222e-04 
-7.076120858666e-04 1.215276486099e-06 0.0 
1.215276486099e-06 3.712281244356e-03 0.0 
0.0 0.0 -6.044444444444e-04 
-7.999876507941e-04 1.388374683100e-05 0.0 
1.388374683100e-05 3.980152954303e-03 0.0 
0.0 0.0 -5.915759637188e-04 
-6.856124940247e-04 -4.086926393719e-06 0.0 
-4.086926393719e-06 4.027577169899e-03 0.0 
0.0 0.0 -5.822222222222e-04 
-7.178528616705e-04 -1.309284787321e-05 0.0 
-1.309284787321e-05 3.714901656250e-03 0.0 
0.0 0.0 -6.044444444444e-04 
-6.869874754798e-04 1.711534318409e-04 0.0 
1.711534318409e-04 3.792214840593e-03 0.0 
0.0 0.0 -5.693537414966e-04 
-6.864968275557e-04 -6.408579358671e-06 0.0 
-6.408579358671e-06 4.016159600688e-03 0.0 
0.0 0.0 -5.822222222222e-04 
-7.178783193932e-04 5.819993202574e-06 0.0 
5.819993202574e-06 3.708927247396e-03 0.0 
0.0 0.0 -6.044444444444e-04 
-7.079394544223e-04 1.566312145644e-04 0.0 
1.566312145644e-04 3.702391321003e-03 0.0 
0.0 0.0 -6.044444444444e-04 
-6.923166146099e-04 7.612225445440e-06 0.0 
7.612225445440e-06 4.017109289765e-03 0.0 
0.0 0.0 -5.822222222222e-04 
-7.279989213735e-04 2.036390614473e-05 0.0 
2.036390614473e-05 3.710913040149e-03 0.0 
0.0 0.0 -6.044444444444e-04 
-7.005874011261e-04 1.845814163449e-05 0.0 
1.845814163449e-05 4.020938657480e-03 0.0 
0.0 0.0 -5.822222222222e-04 
-7.354917532623e-04 2.057235382585e-05 0.0 
2.057235382585e-05 3.711839010969e-03 0.0 
0.0 0.0 -6.044444444444e-04 
-7.059732588437e-04 2.754521474697e-05 0.0 
2.754521474697e-05 4.015383430286e-03 0.0 
0.0 0.0 -5.822222222222e-04 
-7.002855080047e-04 1.990014593216e-04 0.0 
1.990014593216e-04 3.872918840521e-03 0.0 
0.0 0.0 -6.026870748299e-04 
-7.379521818036e-04 3.377279504907e-05 0.0 
3.377279504907e-05 3.707685656258e-03 0.0 
0.0 0.0 -6.044444444444e-04 
-7.121071295194e-04 4.529492266530e-05 0.0 
4.529492266530e-05 4.010298093341e-03 0.0 
0.0 0.0 -5.822222222222e-04 
-7.201910256190e-04 6.322353710792e-05 0.0 
6.322353710792e-05 4.009272868238e-03 0.0 
0.0 0.0 -5.822222222222e-04 
-7.467651792935e-04 5.478281511635e-05 0.0 
5.478281511635e-05 3.704632746345e-03 0.0 
0.0 0.0 -6.044444444444e-04 
-7.155345414404e-04 9.941872455418e-05 0.0 
9.941872455418e-05 3.968551508246e-03 0.0 
0.0 0.0 -5.822222222222e-04 
-7.657386443158e-04 4.703626451468e-05 0.0 
4.703626451468e-05 3.695451234596e-03 0.0 
0.0 0.0 -6.044444444444e-04 
-7.465034792929e-04 1.491483542401e-04 0.0 
1.491483542401e-04 4.023442400313e-03 0.0 
0.0 0.0 -5.822222222222e-04 
-7.198395015582e-04 1.725743928124e-04 0.0 
1.725743928124e-04 3.686227600280e-03 0.0 
0.0 0.0 -6.044444444444e-04 
-6.565140853496e-04 1.301780499699e-04 0.0 
1.301780499699e-04 3.583317050774e-03 0.0 
0.0 0.0 -5.804648526077e-04 
-6.267004692735e-04 -3.600267132829e-04 0.0 
-3.600267132829e-04 3.813319755553e-03 0.0 
0.0 0.0 -5.933333333333e-04 
-7.431964593305e-04 3.646450588748e-04 0.0 
3.646450588748e-04 4.021679577105e-03 0.0 
0.0 0.0 -5.933333333333e-04 
-6.628422468428e-04 -3.292224140382e-05 0.0 
-3.292224140382e-05 3.861928425764e-03 0.0 
0.0 0.0 -5.711111111111e-04 
-7.088162572225e-04 5.311123185713e-05 0.0 
5.311123185713e-05 3.959617699405e-03 0.0 
0.0 0.0 -6.155555555556e-04 
-6.769114540080e-04 1.825624503540e-04 0.0 
1.825624503540e-04 3.695515009073e-03 0.0 
0.0 0.0 -5.711111111111e-04 
-7.565067891625e-04 -1.155535297541e-04 0.0 
-1.155535297541e-04 4.407218847534e-03 0.0 
0.0 0.0 -6.488888888889e-04 
-7.530504053033e-04 -7.571813069496e-06 0.0 
-7.571813069496e-06 4.174991140514e-03 0.0 
0.0 0.0 -6.711111111111e-04 
-7.399837968145e-04 -1.387977928634e-05 0.0 
-1.387977928634e-05 4.486504988785e-03 0.0 
0.0 0.0 -6.488888888889e-04 
-7.729838338639e-04 -1.329064737435e-05 0.0 
-1.329064737435e-05 4.184890785187e-03 0.0 
0.0 0.0 -6.711111111111e-04 
-7.413687643813e-04 -3.949381470416e-07 0.0 
-3.949381470416e-07 4.494790911899e-03 0.0 
0.0 0.0 -6.488888888889e-04 
-7.742938489980e-04 3.545636067961e-06 0.0 
3.545636067961e-06 4.195489456373e-03 0.0 
0.0 0.0 -6.711111111111e-04 
-7.475947728547e-04 -1.447276125001e-05 0.0 
-1.447276125001e-05 4.508658415556e-03 0.0 
0.0 0.0 -6.488888888889e-04 
-7.647771457920e-04 -2.472289036545e-05 0.0 
-2.472289036545e-05 4.185138013304e-03 0.0 
0.0 0.0 -6.711111111111e-04 
-7.436934071060e-04 3.939866511849e-06 0.0 
3.939866511849e-06 4.492058634297e-03 0.0 
0.0 0.0 -6.488888888889e-04 
-7.721102977711e-04 1.191369759528e-05 0.0 
1.191369759528e-05 4.191715436034e-03 0.0 
0.0 0.0 -6.711111111111e-04 
-7.515020125074e-04 1.948179168996e-06 0.0 
1.948179168996e-06 4.504635429055e-03 0.0 
0.0 0.0 -6.488888888889e-04 
-7.788311265265e-04 -5.657460917598e-06 0.0 
-5.657460917598e-06 4.190705067530e-03 0.0 
0.0 0.0 -6.711111111111e-04 
-8.662964799625e-04 -2.454914467333e-05 0.0 
-2.454914467333e-05 4.459732268515e-03 0.0 
0.0 0.0 -6.580807474504e-04 
-7.520565303110e-04 1.109064528774e-05 0.0 
1.109064528774e-05 4.498175075181e-03 0.0 
0.0 0.0 -6.488888888889e-04 
-8.155020730708e-04 1.528373870012e-04 0.0 
1.528373870012e-04 4.186625771973e-03 0.0 
0.0 0.0 -6.711111111111e-04 
-7.586605293786e-04 2.791301751342e-05 0.0 
2.791301751342e-05 4.190794983268e-03 0.0 
0.0 0.0 -6.711111111111e-04 
-7.622973061150e-04 1.699730231297e-05 0.0 
1.699730231297e-05 4.505906138033e-03 0.0 
0.0 0.0 -6.488888888889e-04 
-7.955711925846e-04 8.033031112466e-08 0.0 
8.033031112466e-08 4.188331241414e-03 0.0 
0.0 0.0 -6.711111111111e-04 
-7.623227638377e-04 3.400576865185e-05 0.0 
3.400576865185e-05 4.489689491926e-03 0.0 
0.0 0.0 -6.488888888889e-04 
-8.006770446683e-04 3.868285750203e-05 0.0 
3.868285750203e-05 4.189917974469e-03 0.0 
0.0 0.0 -6.711111111111e-04 
-7.724433658179e-04 4.171040082635e-05 0.0 
4.171040082635e-05 4.499618609463e-03 0.0 
0.0 0.0 -6.488888888889e-04 
-7.971982277132e-04 4.334547048389e-05 0.0 
4.334547048389e-05 4.190772542348e-03 0.0 
0.0 0.0 -6.711111111111e-04 
-7.512535823419e-04 1.572109300169e-04 0.0 
1.572109300169e-04 4.272969555894e-03 0.0 
0.0 0.0 -6.358585252281e-04 
-7.799361977067e-04 4.942380984451e-05 0.0 
4.942380984451e-05 4.500436321571e-03 0.0 
0.0 0.0 -6.488888888889e-04 
-8.019717863413e-04 4.151088876834e-05 0.0 
4.151088876834e-05 4.184126944351e-03 0.0 
0.0 0.0 -6.711111111111e-04 
-7.823966262481e-04 7.184392993936e-05 0.0 
7.184392993936e-05 4.484862014071e-03 0.0 
0.0 0.0 -6.488888888889e-04 
-8.006840076862e-04 7.791811278218e-05 0.0 
7.791811278218e-05 4.176001510022e-03 0.0 
0.0 0.0 -6.711111111111e-04 
-8.039640851074e-04 1.263508000003e-04 0.0 
1.263508000003e-04 4.174705869658e-03 0.0 
0.0 0.0 -6.711111111111e-04 
-7.912096237380e-04 1.071509718730e-04 0.0 
1.071509718730e-04 4.477799006040e-03 0.0 
0.0 0.0 -6.488888888889e-04 
-8.101830887602e-04 1.288493200629e-04 0.0 
1.288493200629e-04 4.489610393156e-03 0.0 
0.0 0.0 -6.488888888889e-04 
-7.617757652904e-04 1.684528749010e-04 0.0 
1.684528749010e-04 4.355354044839e-03 0.0 
0.0 0.0 -6.691918585615e-04 
-7.171747419539e-04 1.190543822742e-04 0.0 
1.190543822742e-04 4.056731334660e-03 0.0 
0.0 0.0 -6.469696363393e-04 
-8.025731129306e-04 -3.241456630719e-04 0.0 
-3.241456630719e-04 4.358910586267e-03 0.0 
0.0 0.0 -6.600000000000e-04 
-7.344440083408e-04 3.911518351984e-04 0.0 
3.911518351984e-04 4.236731495882e-03 0.0 
0.0 0.0 -6.600000000000e-04 
-8.045282767906e-04 1.783825891024e-05 0.0 
1.783825891024e-05 4.360632635982e-03 0.0 
0.0 0.0 -6.822222222222e-04 
-7.310384794447e-04 6.338117589491e-05 0.0 
6.338117589491e-05 4.247438367621e-03 0.0 
0.0 0.0 -6.377777777778e-04 
-7.412727877556e-04 1.381235162240e-04 0.0 
1.381235162240e-04 4.183483937710e-03 0.0 
0.0 0.0 -6.377777777778e-04 

SCALARS element_materi_plasti_kappa_shear float
LOOKUP_TABLE default
2.048251484052e-03
1.753493670412e-03
5.503175940454e-03
5.633931869583e-03
3.565227349428e-03
4.312193749307e-04
3.536826958687e-03
1.942063469917e-03
3.582504689508e-03
5.588174946624e-03
3.844209359202e-03
1.631469581520e-03
5.512057153719e-03
3.809200862045e-03
5.604521952288e-03
5.734301458091e-03
3.547028291065e-03
0.0
1.240065727301e-03
1.171297693899e-03
5.622446392520e-03
2.066758337528e-03
2.250687853245e-03
4.978061567755e-03
4.048291547957e-03
4.106723662793e-03
3.275000549148e-03
5.494131578830e-03
4.059702375831e-03
5.136982028010e-03
1.134770329222e-03
3.832632936293e-04
5.695120532744e-03
4.786861567557e-03
5.372391993923e-03
5.735141668292e-03
5.753517229623e-03
5.201200685639e-03
3.236338684528e-03
3.281036968799e-03
2.549446708275e-03
5.321786045187e-03
1.684174276636e-03
3.149604634892e-03
5.511212370387e-03
1.565690788834e-03
3.220151479937e-04
5.403179619290e-03
4.290285994561e-06
3.669652725762e-03
2.409350294786e-03
1.545192749097e-03
1.201581906209e-03
2.359715905779e-03
5.581390730100e-03
2.049040073899e-03
1.507776831990e-03
4.806180650684e-03
9.040347839122e-04
5.734539432202e-03
0.0
5.036447355686e-03
2.389363153128e-03
1.200719454992e-03
5.502622384469e-03
2.208078500699e-03
0.0
5.645939813077e-03
1.388688876148e-03
5.450080675048e-03
4.240450452081e-03
5.844447616816e-03
5.127619557211e-03
3.940968838013e-04
2.067872878458e-03
5.628694369718e-03
5.723406412389e-03
1.349407449673e-03
8.084468878613e-04
1.429030436914e-03
1.215963319167e-03
3.393097464491e-03
2.129508046084e-03
1.864830702236e-03
3.733526205207e-03
3.714125906962e-03
4.361075697200e-03
4.690746124938e-03
4.783172209268e-03
3.514212606547e-03
2.589608648574e-04
3.431550400288e-03
4.721859888672e-03
4.746077057757e-03
5.997543046696e-03
5.411150761547e-03
3.393913313148e-03
5.491004293201e-03
3.985594967259e-03
2.258571385844e-03
3.410992711845e-03
5.611034212900e-03
4.179507938013e-03
5.032886742806e-03
2.003062331599e-03
8.956760759698e-04
5.221382607798e-03
5.045193140480e-03
2.261908350144e-04
5.486842463624e-03
4.573653062054e-03
3.479980613031e-04
2.502076270832e-03
3.167763418157e-03
2.487000496226e-03
2.126059688753e-03
2.273861626040e-03
5.451016480833e-03
3.919789090778e-03
2.281181173819e-03
1.213076248653e-03
3.513689619667e-03
4.941959880695e-03
2.106608397091e-03
9.726897685994e-04
2.859921274722e-03
2.565005698292e-03
2.680460766149e-03
5.737782286007e-03
9.785758943600e-04
4.027728111069e-03
5.636355074510e-03
2.835365156538e-03
2.709046400113e-03
5.353249069116e-03
5.532349028915e-03
4.348743351020e-03
2.978900291729e-03
5.411429688504e-03
2.744221608962e-03
5.616125922486e-03
5.613692443858e-03
3.766204035722e-03
4.391065799997e-03
2.718404295077e-03
2.533253388883e-03
3.087137023846e-03
2.200470782986e-03
3.492820352654e-03
2.363376362537e-03
2.621382727248e-04
3.747049311015e-03
8.605114628174e-04
3.020514546332e-03
5.290806449770e-03
2.186313469297e-03
4.518027699077e-03
1.606142966517e-03
4.209701847448e-03
3.408465456370e-03
2.321856290079e-03
4.941287181334e-03
1.029170670083e-03
5.207270841350e-03
3.386399557435e-03
5.629077659096e-03
3.402534046100e-03
2.143777464895e-03
2.980585492464e-03
3.978529564445e-03
1.797981043136e-03
2.131947395522e-03
4.565545625096e-03
3.526561441315e-03
2.292273163024e-03
2.831954602171e-03
4.902639283245e-03
2.846109516762e-03
5.344131269156e-03
5.581762834167e-03
2.045482988632e-03
2.739998364567e-03
4.670836610536e-03
2.636378907130e-03
1.901753547338e-03
3.276383508295e-03
2.394214224877e-03
5.640432630144e-03
4.649191975422e-03
5.084010659974e-03
1.450852845402e-03
1.891185196908e-03
4.756649167095e-03
0.0
2.645910748192e-03
4.353987082835e-03
6.693198157630e-04
5.577145383260e-03
4.311674069402e-03
2.424063329831e-03
4.308254875087e-03
3.768016172911e-03
3.975429040763e-03
5.123403257528e-03
1.968551576487e-03
3.168679698929e-03
3.489417411141e-03
4.497775965736e-03
3.554143506731e-03
3.272990497602e-03
3.636148199777e-03
4.777873359821e-03
0.0
2.054332000673e-03
2.292338041600e-03
3.059823040950e-03
4.848669964181e-03
7.411939793981e-04
4.203239612195e-03
3.403528574950e-03
2.120618832016e-03
4.069098148087e-03
4.246264766717e-04
4.599464078276e-03
3.476148306084e-04
5.410341703710e-04
1.592193211171e-03
1.719248331945e-03
4.782293510667e-03
1.815734887217e-03
1.844404593867e-03
1.618505664870e-03
1.146822852731e-03
4.464359441945e-03
3.377702223347e-03
5.506088258921e-03
0.0
2.009805297429e-03
2.302243100894e-03
2.481153461484e-03
4.143768537590e-03
5.606441244158e-03
4.559795208237e-03
1.455328493326e-03
4.488396010045e-03
4.213382192652e-03
3.236971907541e-03
4.423237357451e-03
5.173514376653e-03
2.134179776736e-03
1.811135889082e-03
3.825403090103e-03
5.999008670889e-03
3.128792099484e-03
2.778892560238e-03
3.812433277429e-03
1.356034459876e-03
3.547869395678e-03
1.821956586395e-03
1.071898620409e-03
6.878759182499e-04
4.770342255613e-03
3.657761913000e-03
2.301185800403e-03
4.951131887675e-03
4.665409177490e-03
3.411799966359e-03
5.452188912108e-03
2.908585602061e-03
3.583300261965e-03
2.605219249823e-03
3.100950466365e-03
1.347698524684e-03
3.414342947476e-03
2.155049212513e-03
1.385737165103e-03
4.542488046730e-03
0.0
3.716563633638e-03
1.636449720064e-03
1.774524551335e-03
8.033729531876e-04
3.926631031118e-03
7.929613934373e-04
2.439400741018e-03
3.230296274809e-03
3.653257839111e-03
3.792551444783e-03
3.394897168044e-04
9.779464977479e-04
1.639638944485e-03
2.170597973029e-03
4.441924025952e-03
2.403845489855e-03
2.012179680430e-03
2.055407645936e-03
5.690441180566e-04
2.724975474439e-03
1.566269675286e-03
5.958720739140e-03
5.939193914372e-03
3.244445123059e-03
1.612814842720e-03
1.675996184199e-03
3.688319290740e-03
1.425607672630e-03
1.036406456605e-03
3.253099720127e-03
5.778400585500e-03
1.895871873376e-03
3.666527252036e-03
1.635469508028e-03
5.660443835014e-03
1.865154342382e-03
3.342266076335e-03
6.537557986607e-04
3.435463054255e-03
2.276354288028e-03
1.404210939028e-03
3.486331641573e-03
5.890375541845e-03
1.783256592408e-03
3.221814678744e-03
1.690872941280e-03
4.262668196764e-03
3.989554513863e-03
1.870987437432e-03
4.157903845114e-03
5.833143474624e-03
4.319705339619e-03
5.914245466119e-03
4.107732014025e-03
4.587246752330e-03
1.718940221779e-03
3.216971996294e-03
3.590070658515e-03
3.756282744682e-03
2.945710028404e-03
5.788099092437e-03
3.944002213719e-03
3.448909530710e-03
1.863265499764e-03
1.455277505311e-03
3.108638757878e-03
2.053960887931e-03
3.540174196265e-03
1.877423184664e-03
1.615583361797e-03
4.717172209803e-03
1.879339039984e-03
3.325468032698e-03
3.338062058546e-03
3.118061036030e-03
5.704944762880e-03
2.801276760200e-03
7.929235320681e-04
2.475643465383e-03
1.888885188254e-03
2.000012791094e-03
4.954048188006e-03
3.495259464146e-03
2.461309541375e-03
3.062435080318e-03
5.651875251926e-03
5.274977967438e-03
4.935750800823e-03
4.617112825186e-03
3.065607714073e-03
2.469090313365e-03
1.133689513580e-03
1.302424423879e-03
3.315397022365e-03
3.332601828915e-03
2.997347446124e-03
5.010744987465e-03
1.001431061527e-03
2.758819764694e-03
3.419306053386e-03
2.519448693487e-03
5.922741708313e-03
5.955236189705e-03
5.576307705796e-03
3.343577244616e-03
4.936203495640e-03
1.952709186338e-03
1.572206337786e-03
8.348386301078e-04
2.556685105344e-03
3.397790353165e-03
4.097341444589e-03
5.360765443340e-03
4.855340331115e-03
3.816589750238e-03
3.860243568889e-03
1.042497557085e-03
9.358115372942e-04
2.519797185523e-03
3.004979550758e-03
2.619929927174e-03
9.216036177595e-04
3.654326841485e-03
1.535889856870e-03
1.965274985910e-03
5.542217875605e-03
3.765591558978e-03
3.443419406157e-03
9.148022967595e-04
3.000502477848e-03
2.382905503139e-03
3.927650911988e-03
5.879566310260e-03
3.223720713770e-03
3.674901719203e-03
2.887355925381e-03
4.891146742092e-03
3.418978839809e-03
5.856068981647e-03
5.774980459743e-03
5.817447372982e-03
5.770330115021e-03
4.031402203216e-03
4.901935106937e-03
5.053219238746e-03
2.608302338338e-03
2.534090737438e-03
2.864377718296e-03
5.021604322951e-03
5.804877108405e-03
5.054229152364e-03
3.432032663523e-03
5.068372728808e-03
4.092526629085e-03
2.882253780088e-03
2.587573265554e-03
1.635529725768e-03
5.632439227330e-03
2.459501711046e-03
5.142282866550e-03
2.763464966763e-03
2.028101785968e-03
5.246511047736e-03
2.055425638514e-03
5.758655944435e-03
5.581996474530e-03
3.601464432629e-03
2.874317802878e-04
5.722474487266e-03
5.230794359339e-03
1.560316552400e-03
3.558601806016e-03
5.699626342238e-03
0.0
2.660857434825e-03
3.779907730678e-03
3.423227498078e-03
3.515796245568e-03
1.920364726314e-03
5.673636790495e-03
1.884624729070e-03
1.324523675438e-04
5.578498981548e-03
5.002872014388e-04
2.903489307071e-03
7.102088304151e-04
3.105385424469e-03
5.637939698663e-03
5.643493109987e-03
3.759896198982e-03
6.466604743843e-04
2.581016059880e-06
1.306561031608e-03
4.781936084338e-03
3.544667014514e-03
3.591768567502e-03
5.600982036969e-03
3.550458207037e-03
5.978204257671e-03
4.194064998041e-03
3.966369650588e-03
2.069110227023e-03
3.555873876722e-03
1.287977702152e-03
5.563443599679e-03
5.770828452205e-03
5.803925315002e-03
3.535689664887e-03
2.718540240995e-03
2.810036151372e-03
3.607200195359e-03
5.538358032675e-03
1.640374573165e-03
1.295740147429e-03
1.612091026105e-03
4.134625190794e-03
5.683102620147e-03
9.751937677048e-04
5.520122581297e-03
1.677390207142e-03
5.751046272795e-03
5.068488904679e-03
5.986160827208e-04
2.695519082935e-03
5.116907936890e-03
5.706785168037e-03
4.029434435152e-03
4.284615340903e-03
1.266337359964e-03
4.952953356985e-03
1.912176692629e-03
1.970550124934e-03
6.041211163241e-04
5.656733513692e-03
1.182133657821e-03
4.542952953280e-03
3.833323984522e-03
2.139158319596e-03
1.714726693588e-03
3.853402172132e-03
5.579172664692e-03
2.774393020232e-03
3.942313972036e-03
3.310099650091e-03
3.368941039505e-03
1.606723124076e-03
3.637032700867e-03
3.197994162511e-03
4.208731222359e-03
3.883013032915e-03
3.120071939876e-03
2.732828783826e-03
1.823514764933e-03
2.627670573605e-03
4.181475254094e-03
3.004073412555e-03
5.656674172997e-03
5.232907453581e-03
1.823811427345e-03
5.507514049442e-03
5.342333532244e-03
2.747952667688e-03
4.382088383837e-04
5.694608369003e-03
5.185125812822e-03
1.765229900576e-03
5.538258443366e-03
3.827720443377e-03
2.679180912128e-03
3.704599732640e-03
2.883358424601e-03
3.255701293151e-03
3.509234741566e-03
4.329946724555e-03
2.998532943868e-03
4.098742247154e-03
4.047052255275e-03
2.859932710936e-03
3.672333583241e-03
2.211642543694e-03
3.881327088903e-03
2.317754686702e-04
2.007422663305e-03
2.062503183499e-03
3.040900024033e-03
2.964066277893e-03
3.726763647670e-03
4.021852142269e-03
2.125448120930e-03
5.567560434823e-03
3.763638072718e-03
3.188675817690e-03
3.577463415310e-03
3.136039882304e-03
0.0
3.881554513065e-03
2.640906468370e-03
1.601175916693e-04
3.049084665278e-03
4.039018151325e-03
5.107511769800e-03
3.179382722343e-03
3.272183804054e-03
3.333812579699e-03
3.138774507407e-03
5.602858950169e-03
3.388266387592e-03
4.889835681516e-04
1.262830355438e-03
3.403732711760e-04
2.039797041705e-03
4.886593675055e-03
5.135074580473e-03
4.569733804699e-03
2.205347307067e-03
3.963428270317e-03
4.644691033612e-03
4.480010223362e-04
2.667099209261e-03
2.160248377513e-03
5.721042981994e-03
5.580105102775e-03
2.939481999310e-03
3.271315706566e-03
3.310083848978e-03
4.812160421875e-03
1.230172725071e-03
4.495251994924e-03
6.428633528680e-04
2.999374668151e-03
3.265631012540e-03
2.192679874259e-04
2.777613716051e-03
5.213183738870e-03
4.661553375830e-04
3.125223871850e-03
3.264611202798e-03
3.668691180678e-03
2.191299816666e-03
1.929490898901e-03
1.801992614561e-03
5.021357309615e-03
5.413378247578e-03
4.938730896674e-03
1.962629389648e-03
7.396549693111e-04
3.052559415623e-03
3.136955965337e-03
3.283077438816e-03
1.598687307509e-04
2.193472717883e-04
5.176799582362e-04
1.646399827615e-03
4.476010659486e-04
3.103497725519e-03
0.0
1.933359932912e-03
4.174873570305e-03
3.277162825819e-03
5.055738530347e-03
3.910516641519e-03
3.910699350519e-03
2.335203039295e-03
6.321407009922e-04
5.850638891353e-03
6.009929428425e-03
3.804106063636e-03
3.142498704503e-03
2.378074668671e-03
6.000434500276e-03
1.932646254916e-03
3.261134435714e-03
3.129035808385e-03
2.954670140417e-03
5.838142907149e-03
5.995969196951e-03
4.354125543212e-04
1.813212541407e-04
9.186762200650e-04
3.162862848184e-03
5.377931686408e-03
0.0
4.886021985717e-03
0.0
3.610910406558e-03
3.669816600871e-04
9.031669178809e-05
3.461382625694e-03
5.195804270535e-03
4.290192669085e-03
3.148248508174e-03
2.197475915269e-04
4.109795966881e-03
5.851848957563e-03
6.003781657386e-03
3.276367122740e-03
3.775548124396e-03
5.863438389457e-03
4.268339267121e-03
6.020741917649e-04
4.453789533022e-04
2.347376138707e-04
2.636386499780e-03
5.872831094669e-03
5.638106297545e-03
1.897411018069e-04
3.087998710897e-03
5.740465009782e-03
5.879140074132e-03
5.731117611362e-03
4.595061384764e-03
5.043133831470e-03
5.707378045359e-03
5.713124045283e-03
4.886059613206e-03
4.831364360602e-04
3.253485872106e-03
3.293767224568e-03
1.826916767147e-04
5.690406926254e-03
5.768685902519e-03
5.617484584069e-03
4.524110312699e-04
4.596449148217e-04
5.588283914655e-03
5.603110956582e-03
4.452788727497e-03
3.251601896083e-03
4.737759423841e-03
3.834702661819e-03
3.246459497800e-03
5.228246461019e-04
4.912700086981e-04
4.440043287774e-04
5.321378525866e-04
3.250169139528e-03
2.937145446359e-03
0.0
4.118703550062e-03
0.0
5.832195033359e-03
5.846499430745e-03
5.850716816551e-03
1.037380994288e-03
2.016748291347e-03
5.852662976723e-03
4.973191529565e-03
5.880964851940e-03
5.257570989653e-03
5.538666694917e-03
2.787880833422e-03
6.016271676808e-03
6.012463975420e-03
5.083244388473e-03
5.379690173722e-03
4.387421699504e-03
0.0
2.857162677749e-03
4.252814149356e-04
5.079913712272e-03
2.910266083999e-03
4.760106554014e-03
1.643649883448e-03
5.383120855226e-04
5.098955867833e-03
3.125495581336e-03
2.489884669676e-03
4.818967528395e-03
5.278656552725e-03
2.495305030192e-03
4.255398696545e-03
3.844899893988e-03
4.331079183945e-03
4.483284984887e-03
1.722961733981e-03
2.890176896868e-03
2.847631786202e-03
4.036906121347e-03
4.963877593991e-03
4.634026856991e-03
1.657361628813e-03
5.268660436221e-03
4.977116357189e-03
3.619668627054e-03
4.170717328187e-03
4.186883659402e-03
5.342654512253e-03
5.152017188016e-03
3.775019514809e-03
5.233037882857e-03
4.914729909785e-03
4.640974992130e-03
5.247897151359e-03
5.303240859678e-03
4.541244193091e-03
4.128098936937e-03
1.538774070067e-03
1.637170348017e-03
8.927698521496e-04
6.525183474627e-04
5.158931490191e-03
5.044076979222e-03
5.868956833529e-04
5.121589647054e-03
3.733179451095e-03
4.678226682694e-03
4.762287906690e-03
2.074136809097e-03
4.809627862755e-03
3.622602601676e-03
3.895447150765e-03
5.345962366384e-03
1.472811966339e-03
5.235843009349e-03
4.707105507548e-03
1.674998648871e-03
1.997272543898e-03
3.477442011437e-03
4.193455430159e-03
2.343630985594e-03
4.867641149368e-03
4.387482060233e-03
3.338211884839e-03
4.524321097962e-03
4.677832988922e-03
4.679006337696e-03
1.339663578638e-03
3.198638979897e-03
4.633717260275e-03
4.840387351562e-03
2.897016443790e-03
3.936845676204e-03
5.082736818756e-03
4.511744960805e-03
3.674133562232e-05
7.677090780190e-04
5.119753373391e-04
4.910516809545e-03
4.354991661180e-03
3.826914815962e-03
3.891439679492e-03
4.711856603341e-03
3.483739004670e-03
4.620031677450e-03
1.591598461033e-03
5.218249190632e-03
3.412412426767e-03
1.736686848489e-03
3.262202328444e-03
2.478917580480e-03
2.035103586398e-03
3.755154455874e-03
1.564516804578e-04
1.127981756129e-04
4.252374733298e-03
1.464746990371e-03
4.246030270520e-03
4.094375942875e-03
2.616673579752e-03
1.812766898726e-03
5.102254688752e-03
3.465488540583e-04
2.625027282395e-03
4.837002714089e-03
1.192572476611e-03
4.082383260840e-03
3.767466409166e-03
1.326156531730e-03
4.910591653427e-03
4.645125771511e-03
1.410538395916e-03
5.226535373693e-03
5.199234746316e-03
1.660825990561e-03
2.070362284012e-03
1.741360747490e-03
4.534233564243e-03
3.626195608604e-03
5.169455195403e-03
5.078103462266e-03
4.392922361779e-03
4.325015664707e-03
1.344427675979e-03
4.473065100284e-03
4.621187335039e-03
3.681381110047e-03
4.381240135388e-03
4.808400950473e-03
2.590644772933e-03
4.947620929573e-03
3.085734269788e-03
3.550246213813e-03
2.335827574008e-03
2.490782004144e-03
4.488879741826e-03
3.165999505287e-03
1.852051741298e-03
9.795830009428e-04
4.513242120104e-03
1.766306002376e-03
5.166203144739e-03
4.649805208552e-03
4.614388070238e-03
5.225667178668e-03
2.979037457551e-03
1.585841628710e-03
1.011992460365e-03
4.379665078225e-03
4.223445145250e-03
6.765581779647e-04
2.432707948999e-03
1.398956561073e-03
4.216513153533e-03
2.555838114567e-03
4.011146820245e-03
2.390150431536e-03
5.006027676207e-03
2.059652164516e-03
4.350001019912e-03
1.794811250637e-03
4.222069039724e-03
3.406036415107e-03
4.462021920913e-03
1.339917336666e-03
1.350299010952e-03
3.939048831294e-03
3.691324572909e-03
2.830557802011e-03
4.239747352825e-03
1.991260803131e-03
4.297758287115e-03
1.272590086592e-03
4.947061823839e-03
3.839114394118e-03
4.100469873386e-03
5.406352818554e-03
3.435279919526e-03
1.276251192001e-03
3.890812531652e-03
5.018055530162e-03
2.209550982896e-03
4.531906710769e-03
4.676467859059e-03
1.712191406574e-03
4.059355262125e-03
3.877866350654e-03
1.909658390552e-03
2.315039142321e-03
3.261954618660e-03
4.303145841247e-03
2.635421671348e-03
3.059028444222e-03
4.459399445595e-03
4.056901073063e-03
3.999117941319e-03
3.350783493908e-03
4.741842824469e-03
3.716486713275e-03
3.922920566098e-03
5.252343855285e-03
4.304735037625e-03
4.138095280470e-03
4.783696522489e-03
2.607621039471e-03
2.469838949813e-03
1.432823964346e-03
4.007204605408e-03
2.590823974833e-03
4.347452842024e-03
4.183394403681e-03
2.669547662572e-03
2.085784252471e-03
1.474019061621e-03
2.212107321881e-03
2.350809507915e-03
1.463075537230e-03
4.569504511566e-03
2.669001313969e-03
4.972812165115e-03
2.750604982809e-03
3.790160523716e-03
3.207941504412e-03
2.889645016640e-03
1.541106990513e-03
4.841361927258e-03
5.091339779464e-03
4.032052527629e-03
2.472525954974e-03
3.495149155929e-03
4.324118500003e-03
2.732643322525e-03
2.578422691737e-03
2.150698556139e-03
2.106845042594e-03
2.726649439388e-03
1.894721435353e-03
1.784390543315e-03
3.334917325845e-03
3.967235808941e-03
4.797201624805e-03
4.779022984785e-04
2.400918837851e-03
2.556449603619e-03
2.577694805079e-03
4.159825931864e-03
2.931072335017e-03
2.192293877224e-03
2.827325159198e-03
4.815904702500e-03
2.276675714295e-03
8.000720813987e-04
1.154840506689e-03
1.907795704095e-03
2.221538328191e-03
2.622719745119e-03
2.913483858148e-03
1.764083930753e-03
1.225103944880e-03
3.978408581491e-03
1.973233867528e-03
4.352924711069e-03
4.600918209764e-03
3.992519858041e-03
5.014455028265e-03
4.977573847804e-03
2.548565445421e-03
4.312209701199e-03
1.977881610171e-03
2.972886214248e-03
2.522487306746e-03
1.343329153242e-03
1.686644144900e-03
2.487335316614e-03
2.744769011227e-03
2.804656212940e-03
2.029273826370e-03
3.023258905964e-03
2.603498899914e-03
2.484258941744e-03
2.359041018273e-03
3.843548607210e-03
4.482822863784e-03
2.260889845850e-03
4.670023540639e-03
2.097337949930e-03
5.002347225511e-03
2.827679967364e-03
5.203491602561e-03
3.947077556836e-03
1.774963125665e-03
4.099246498151e-03
5.100371074435e-03
2.915547663855e-03
2.161634842982e-03
4.202460859535e-03
3.063723291001e-03
1.589122566935e-03
5.594818322494e-03
1.323577671794e-03
4.905374215111e-03
5.240056690777e-03
4.004250475148e-03
4.022036132739e-03
4.908739948371e-03
2.656489500895e-03
3.014023661640e-03
5.295279977407e-03
4.266560699203e-03
4.614700973159e-03
3.798037729663e-03
1.755388368310e-03
4.742604083367e-03
5.518069405150e-03
5.004957839638e-03
2.836493463261e-03
4.042556476747e-03
3.862526569830e-03
2.990307102709e-03
4.091149418794e-03
4.218450148723e-03
1.096098833511e-03
1.326857373094e-03
2.403878583947e-03
2.433427464003e-03
2.925956778214e-03
5.469614393342e-03
5.117047102826e-03
5.259865256129e-03
2.804866215072e-03
4.812380906171e-03
4.181034339560e-03
5.346185944049e-03
4.575117160927e-03
3.073764877658e-03
2.227900412936e-03
4.723026116701e-03
5.199457669429e-03
4.754736712479e-03
4.593382364392e-03
4.706207203460e-03
4.760938801400e-03
4.529156841862e-03
3.673004527565e-03
2.793183285108e-03
4.176641122849e-03
4.482872570103e-03
1.720752477746e-03
2.523073950019e-03
2.936964334964e-03
3.355527503238e-03
6.764221038374e-04
2.312131514981e-03
3.694823953479e-03
3.162738673778e-03
3.106094428709e-03
4.275586722866e-03
3.420444478414e-03
8.056313501550e-04
3.608028323111e-03
4.113825723424e-03
5.289575565493e-03
2.786040332148e-03
3.385556211389e-03
4.320502265356e-03
1.220460717409e-03
3.955179298540e-03
3.165570628649e-03
3.317308554295e-03
4.304146306300e-03
1.881742204703e-03
4.432932293431e-03
4.823215265074e-03
3.806542070162e-03
4.778108728742e-03
4.481570645652e-03
4.886746565618e-03
1.498086320626e-03
4.448193879400e-03
4.826216477314e-03
4.887560636574e-03
3.468158111994e-03
2.473653699252e-03
3.471604947544e-03
3.515654411097e-04
5.048129172683e-03
1.854985291829e-03
1.640845901064e-03
4.384273219759e-03
5.379705512614e-03
1.962931709496e-03
3.460402464098e-03
4.556944250926e-03
3.383719843055e-03
1.271639043889e-03
2.155596217494e-03
1.530379692595e-03
1.562946298421e-03
1.725992673059e-03
3.128123404018e-03
5.978757202265e-03
1.878932715142e-03
4.874265144994e-03
2.021312508689e-03
4.410645559788e-03
5.446402050903e-04
5.032053835528e-03
1.857540691758e-03
2.167450437020e-03
4.007316872521e-03
2.865792508923e-03
4.633094935503e-03
2.352487737097e-03
4.663962013380e-03
4.869204411424e-03
4.429689118342e-03
5.301599282418e-03
4.867555126114e-03
4.994292368551e-03
1.585731642834e-03
4.731482311295e-03
4.686031286375e-03
2.832067385881e-03
2.158927091379e-03
5.079003029780e-03
9.596911832810e-04
2.094098399874e-03
4.422688948064e-03
1.248071604352e-03
3.111224166074e-03
4.143397073039e-03
5.269510986050e-03
5.404504160547e-03
4.032131518505e-03
5.035214563043e-03
2.288963266599e-03
4.497236254835e-03
2.449891336582e-03
5.141368132138e-03
2.751749660152e-03
2.878729614698e-03
2.670941398414e-03
3.064327322831e-03
3.458691017845e-03
2.658280149013e-03
2.653753714281e-03
9.811593336372e-04
2.441082358799e-03
5.179437752949e-03
5.268578940823e-03
4.434728242993e-03
4.747389467128e-03
2.702179599475e-03
4.975773677779e-03
2.582283479392e-03
4.888861475009e-03
4.848446586374e-03
4.829227704648e-03
3.615324373437e-03
2.341624150185e-03
4.784583869030e-03
3.957491419921e-03
1.700601644229e-03
7.020950745825e-04
2.481218771102e-03
3.497363371298e-03
5.046415826891e-03
4.704605430921e-03
2.322695645322e-03
3.926363227239e-03
4.300034730448e-03
5.071297943610e-03
4.988482903574e-03
4.232489050894e-03
4.476485377380e-03
2.821806331728e-03
4.336206174646e-03
3.171626869689e-03
5.322298740709e-03
5.194634648291e-03
3.273686732189e-03
5.984151931342e-04
4.585743008913e-03
3.386888275758e-03
2.214504551746e-03
3.505745048799e-03
4.392421827443e-03
8.649412715447e-04
2.929672516780e-03
4.200855765301e-03
5.106738436651e-03
4.301405107969e-03
4.492473167653e-03
4.094600791655e-03
3.873742424529e-03
4.049253002460e-03
4.546913092459e-03
4.646225374320e-03
4.523702894857e-03
5.390087395958e-03
3.985020216099e-03
1.618655921058e-03
4.788488793259e-03
5.359924628782e-03
3.005660619524e-03
3.223226449347e-03
1.971525089256e-03
4.648699280585e-03
2.766011387022e-03
3.573201295524e-03
2.703531881720e-03
4.214659544868e-03
5.069771484117e-03
2.121431133426e-03
4.058193802695e-04
5.341003982022e-03
2.920796651996e-03
2.806031036896e-03
4.893352200413e-03
4.541058644014e-03
4.477853504311e-03
2.415871683082e-03
1.091173224408e-04
5.297107160487e-03
3.566992170965e-03
3.964772993216e-03
4.908749566295e-03
0.0
4.396335016970e-03
1.721264210827e-03
4.247426129010e-03
3.657351708374e-03
2.094475387503e-03
4.954039962137e-03
3.497476297263e-03
1.752352387144e-03
3.730384878291e-03
3.763523260525e-04
4.296335070821e-03
4.232332728486e-03
5.300157964833e-03
4.591233936654e-03
1.028298279476e-03
4.511210016349e-03
5.453521427974e-03
5.267588892161e-03
4.434702429965e-03
2.462650568201e-03
4.009248660887e-03
5.046804183108e-03
3.535212461732e-03
4.396897747975e-03
4.393389450935e-03
4.800902351973e-03
4.606296382435e-03
3.122680214006e-03
3.120274423476e-03
4.382256899136e-03
4.111044512030e-03
3.813633009546e-03
4.221320453715e-03
3.279774802709e-03
4.769766446077e-03
2.542727818687e-03
5.983048558159e-03
3.591210545370e-03
3.168624506568e-03
3.557292247720e-03
9.531416278352e-04
3.230009085735e-03
3.834311612934e-03
3.683361306900e-03
4.361379102542e-03
4.324884584528e-03
4.497716242812e-03
9.296305416927e-04
3.000738260246e-03
2.877206011431e-03
4.129391706327e-03
4.309346871824e-03
4.660717579237e-03
1.390083491195e-03
1.337430359801e-03
3.372007376568e-03
3.118387867984e-03
2.908488767762e-03
3.071482520293e-03
4.375276169837e-03
1.579296571718e-03
3.441254145347e-03
4.169540997438e-03
5.233780527266e-04
5.376588438414e-03
5.149299469470e-03
3.407577951504e-03
4.596633708749e-03
5.291684185247e-04
4.017860612446e-03
3.529401166009e-03
5.097626183355e-04
5.132298664917e-03
7.847782572497e-04
4.127046447011e-03
3.654659147826e-03
2.736631618381e-03
3.532903553380e-03
5.264031271081e-03
3.850209962935e-03
3.431861875086e-03
3.323620881928e-03
5.457679815637e-04
4.250590229058e-04
4.681238603658e-03
4.043631383605e-03
4.795280597812e-03
2.001212315519e-03
4.830518942522e-03
4.896214853729e-03
3.151597474926e-03
4.683508434643e-03
4.666996016599e-03
3.909137558089e-03
3.276352252530e-03
3.497938959203e-03
5.375951367089e-03
3.220959364287e-03
3.760026043850e-03
3.137860209432e-03
4.172566943858e-03
2.940253828480e-03
1.143043258969e-03
3.094440534048e-03
1.421741084883e-03
4.229813709731e-03
1.395709131982e-03
4.036588971796e-03
4.570721815773e-03
4.340933322801e-03
2.781057843546e-03
4.194893651729e-03
4.753168581798e-03
4.818117472809e-03
1.337755850323e-03
4.137746118188e-03
5.209940225679e-03
2.346590375691e-03
3.683805328026e-03
7.449910221542e-04
4.902778118811e-03
1.132231217255e-03
3.562582783365e-03
3.984078078079e-03
4.208916939956e-03
4.023939684233e-03
3.635866043279e-03
2.594201963328e-03
2.755506096816e-03
4.964224152630e-03
3.752359726194e-03
3.049378824758e-03
3.951824469440e-03
2.751998479851e-03
1.270610342763e-03
2.569385874887e-03
3.772607831583e-03
3.271605333460e-03
4.369076492911e-03
2.705575969413e-03
5.066065955323e-03
4.914430261524e-03
2.994647378897e-03
5.394625854804e-03
1.628019428153e-03
4.948546199405e-03
3.599675338089e-03
3.985333370223e-03
4.676994841526e-03
2.599416272208e-03
3.952410327413e-03
2.849041735521e-03
3.845590045576e-03
1.946537266926e-03
4.082691990806e-03
2.599671966463e-03
3.723013565829e-03
3.865662068831e-03
5.887470109934e-04
3.453775351858e-03
1.200495782290e-03
9.684342886303e-04
3.597379235346e-03
4.690298881192e-03
4.138119897075e-03
2.292437587727e-03
5.849140828973e-03
1.853697180041e-04
2.448985812848e-03
3.130150269505e-03
3.550843563428e-03
2.957877931277e-03
1.876075245636e-03
3.442132234492e-03
3.806568376354e-03
3.777536702449e-03
4.965844843458e-03
1.161492389179e-03
3.317749060185e-03
3.622478808600e-03
2.112089838123e-03
3.317999481308e-03
4.153535609678e-03
4.505816054949e-03
6.237202834362e-04
0.0
1.573012222717e-03
3.691965033318e-03
1.969230988537e-03
1.898292932230e-03
1.294352397267e-03
3.753016074333e-03
4.366198405172e-03
3.768697917664e-03
1.871438903480e-03
4.121048902823e-03
3.672677354322e-03
4.305538666813e-03
3.830322098392e-03
3.828543141580e-03
1.984443132618e-03
2.202423137923e-03
3.907189118964e-03
4.304428646692e-03
4.049985857339e-03
2.152295599124e-03
3.904305982153e-03
2.181745308855e-03
1.601820863611e-03
4.956049478681e-03
1.401476559850e-03
2.111889315513e-03
3.321047263052e-03
2.268346872781e-03
3.969667780703e-03
1.889119106673e-03
3.396365532197e-03
3.971070620537e-03
2.946304068913e-03
3.537025974587e-03
1.811375157662e-04
5.205294236013e-03
2.387586220924e-03
4.665614783562e-03
3.968807703245e-03
4.049703598051e-03
4.107544981389e-03
1.695791505847e-03
1.026663475019e-03
1.642477002779e-04
4.189723483468e-03
4.659166707092e-03
2.346343365980e-03
4.226192121581e-03
2.191228217425e-03
4.314363055978e-03
5.445403603490e-03
0.0
5.877232482387e-03
5.753927133567e-03
3.517916756623e-03
2.567108847699e-03
3.885798105456e-03
1.761253100682e-03
8.753437067106e-04
5.824479928858e-04
5.430593790634e-03
4.272773126407e-03
3.281421806576e-03
5.755399577457e-03
1.584674166795e-03
5.735458500835e-03
4.260634587508e-03
2.681067374150e-03
3.703032091483e-03
2.313425682848e-03
1.747876205062e-03
2.269306335304e-03
4.472296584069e-03
5.084185534072e-03
2.122483088170e-03
4.416764738030e-03
0.0
1.927997949303e-03
4.734679441239e-03
2.334640526172e-03
2.293466231138e-03
3.672079540127e-03
1.427206149762e-03
1.708336649171e-03
1.861547325864e-03
2.108699433633e-03
3.250126257064e-03
3.062054677212e-03
4.401537229797e-03
5.307742241174e-03
1.980497234217e-03
4.592105580898e-03
5.228738582180e-03
1.508615138678e-03
1.258398003978e-03
2.320259230208e-03
3.145384584978e-03
4.507488684930e-03
3.013439603112e-03
1.036494360999e-03
3.559288459622e-03
1.877421539577e-03
3.009312651742e-03
3.329936939808e-03
3.782961951353e-03
4.184693822016e-03
2.263846250652e-03
1.320964814853e-03
3.656275706453e-03
1.881021925859e-03
0.0
5.409655559408e-03
5.162683398980e-03
2.729094268368e-04
3.875711687704e-03
1.849949503547e-03
1.815075747793e-03
4.705943890402e-03
3.753312262213e-03
4.510634549489e-03
2.148267383418e-03
3.276008673573e-03
5.353793394855e-03
1.533498694127e-03
4.496561684191e-03
3.235629882711e-03
1.109441694527e-03
4.399839461737e-03
2.050705679004e-03
7.682699673756e-04
1.606426913977e-03
4.404965734730e-03
4.489139406804e-03
1.520865044627e-03
3.643992042794e-03
4.612769071813e-03
4.502280914076e-03
2.204419621287e-03
1.846579794431e-03
3.359329712729e-03
4.124746711535e-03
7.891390788467e-04
5.560751100390e-03
5.548964266607e-03
3.671227968295e-03
5.630388145665e-03
5.535998868057e-03
2.170965590618e-03
2.370185578734e-03
5.368043001176e-03
0.0
1.709110066567e-03
3.659126116834e-03
2.387294836944e-03
1.879148258664e-03
1.458848135816e-03
1.621284849436e-03
3.747506275773e-03
1.892131702059e-03
1.979788942566e-03
4.392042265884e-03
5.804343183406e-03
5.787944820255e-03
2.351876001022e-03
3.390799711467e-03
0.0
1.230366790518e-03
1.463542949792e-03
1.380432272447e-03
3.535543274713e-03
2.106380670562e-03
2.153393122630e-03
5.222734221172e-04
5.154439084150e-03
2.367565598648e-03
5.388275058918e-03
4.954992804617e-03
6.024570796398e-03
5.886693922548e-03
3.753433328928e-03
2.527170991278e-03
1.725379432797e-03
2.498420104998e-03
5.703744763384e-03
9.120404607056e-04
1.119100263323e-03
4.692417281221e-03
3.538901703328e-03
5.427938698995e-03
4.594213998741e-03
4.821231617115e-03
4.878843592402e-03
3.720203756123e-03
2.190074141244e-03
2.006325653896e-03
4.404135688044e-03
4.687878422867e-03
3.117837671459e-03
3.529702774384e-03
3.752961490192e-03
3.830800216791e-03
4.743220089301e-04
1.891519218784e-03
5.771465514508e-03
4.089532321688e-03
5.391930956668e-03
5.395352371543e-03
4.403465603732e-03
5.428295798469e-03
2.711349306453e-03
2.579117857356e-03
5.122665484976e-03
0.0
1.840758435860e-03
5.616042079043e-03
8.237432765106e-04
3.385098086166e-03
5.098464473505e-03
5.994795909040e-04
3.983112400915e-04
5.989580935828e-03
3.133104392698e-03
5.665785838847e-03
4.960111850706e-03
3.124857482388e-03
0.0
5.632893496604e-03
9.982363891210e-04
5.455855807356e-03
5.714313673249e-03
5.360106047106e-03
8.140468256158e-04
3.782530279231e-03
2.880362090628e-03
4.355508239889e-03
5.671711904199e-03
4.776155304540e-03
5.663484683731e-03
0.0
5.589551347142e-03
1.512890600852e-03
7.914478455334e-04
5.397054391262e-03
5.743402050252e-03
5.733536642357e-03
3.426595864351e-03
3.717007925183e-03
1.646038233533e-03
5.655472529231e-03
2.339881504149e-03
8.036133470503e-04
4.521262599813e-03
3.249064134649e-03
5.466053350077e-03
5.951132079152e-03
5.885235530218e-03
4.854921181183e-04
3.182268852090e-04
3.189601210708e-03
3.264417416490e-03
5.744673122169e-03
5.821030348919e-03
4.049503436329e-04
0.0
5.287127657436e-03
5.147388720085e-03
1.173728759617e-03
5.308389383186e-03
3.861412420017e-03
3.447396140137e-03
4.313090326591e-03
1.487039342624e-03
4.054223007771e-03
9.352616087626e-04
3.085786119638e-03
5.355845819130e-03
5.346807489972e-03
3.320434685778e-03
3.970741636665e-03
5.313594699531e-03
4.970757498224e-03
4.685070856500e-03
3.121604600955e-03
3.851714109814e-03
5.392942080287e-03
1.774965986013e-03
4.406585063081e-04
5.044417363226e-03
4.474595389771e-03
1.114377206921e-03
4.510176921097e-03
5.486912845254e-03
4.947561165270e-03
5.266766084571e-03
4.198063581823e-03
0.0
1.470518372103e-03
1.753101937548e-03
3.631135606701e-03
3.881045925371e-03
5.513487264780e-03
5.223998920856e-03
1.020852490991e-03
8.247746946980e-04
1.369961284446e-03
4.515742145024e-03
2.251628283076e-03
5.512574297706e-03
1.101239483144e-03
4.944710226892e-03
3.686457503037e-03
5.316904859013e-03
4.584108386174e-03
3.633631005452e-03
5.441228742427e-03
5.760973095862e-03
5.768457653903e-03
1.076429508706e-03
5.403578302253e-03
5.433000637951e-03
5.028809833893e-03
4.690494387880e-03
5.655330995816e-03
4.686381379503e-03
0.0
1.396280660218e-03
5.170660034106e-03
3.932337476204e-03
5.342833454285e-03
4.884276764452e-03
5.447158665414e-03
4.847067005331e-03
5.305854444718e-03
5.181492536697e-03
5.139590615884e-03
2.342515450525e-03
5.825123485814e-03
3.511800923746e-03
5.448173838807e-03
7.428025292534e-04
5.262596336557e-03
4.547206860874e-03
6.035790654862e-04
8.086025518277e-04
4.796988799160e-03
5.631992981559e-03
5.519397513834e-03
5.310091205385e-03
3.912116890080e-03
3.336829723450e-04
7.216677684812e-05
3.636648382109e-04
1.164636641950e-03
0.0
3.057585890836e-03
5.327921971227e-03
5.411971840112e-03
3.914684461503e-03
2.701530490713e-03
5.213565150943e-03
5.007366373899e-03
5.467264405238e-03
5.207424473042e-03
5.074998992932e-03
6.015575377216e-04
0.0
5.376601054342e-03
4.998770260557e-04
7.354796995695e-04
4.650576109338e-04
6.246802752465e-04
5.332466837785e-03
5.508668632613e-03
5.527152150685e-03
5.370182133116e-03
4.813648012505e-03
4.090345476850e-03
5.872497858860e-03
1.688844706779e-03
3.242062731608e-03
1.296527781915e-03
2.048831776387e-04
5.850745223492e-03
3.550974671321e-03
8.641995463890e-04
2.926275799080e-03
5.656777809006e-03
5.503877635999e-03
5.618051296971e-03
2.129346423962e-03
0.0
5.566911874099e-03
6.011875443670e-03
5.902551827901e-03
3.412317331757e-03
4.981747800379e-03
7.975484814360e-04
5.534656444521e-03
1.991551371557e-04
5.305266967479e-03
5.730842396305e-03
0.0
4.981060490428e-03
4.675346069498e-03
5.654646432844e-03
5.577265656584e-03
4.298496663279e-03
5.550848395389e-03
5.494928221657e-03
4.409266495861e-03
5.352947711999e-03
2.479552746464e-03
3.115289873894e-03
5.217348424536e-03
5.739897385503e-03
2.130598970231e-04
3.124201721815e-03
5.632614020689e-03
1.101480850632e-03
5.091661295346e-03
5.450633370530e-03
5.763755232995e-03
1.048262864143e-03
9.819337037051e-04
3.563851573438e-03
5.043841388328e-03
0.0
5.651156742465e-03
4.142985444651e-03
1.530326117569e-03
3.945008028744e-03
5.471691496627e-03
3.728983518662e-03
4.830614645680e-04
2.244711810372e-03
3.243419354848e-03
3.838568504311e-03
5.141366330764e-03
3.163902532595e-03
3.328394715870e-03
5.059368158880e-04
5.311799105867e-03
5.084872395273e-03
7.504975414656e-04
5.677168446605e-03
5.592115835300e-03
3.482521557627e-03
4.251403145156e-03
3.187364706085e-03
3.251257493807e-03
3.439701907309e-03
4.794833467625e-03
1.169016289084e-03
5.320349723071e-03
3.618781519640e-03
5.751198579347e-03
4.781103524799e-03
4.050232424031e-03
5.211038119851e-03
5.105861927613e-03
5.449330151016e-03
7.104254593752e-05
5.217846714948e-03
5.418217703554e-03
5.880291415762e-04
2.994215514378e-03
2.729319316380e-05
5.459819003965e-03
7.321707340775e-04
8.160713321414e-04
6.492041153339e-04
8.093994555289e-04
6.454908964317e-04
8.100092406204e-04
6.461533472615e-04
8.101931322880e-04
6.466009290983e-04
8.097632652097e-04
6.466006866449e-04
8.088264904123e-04
6.462280519908e-04
8.074914891814e-04
6.455850362013e-04
8.058422939469e-04
6.447644756657e-04
8.039423756516e-04
6.438441965014e-04
8.018498727297e-04
9.443944293245e-04
6.429033510968e-04
7.996395752428e-04
6.420464545931e-04
8.993112986242e-04
7.974400540373e-04
6.414476041782e-04
8.104640710795e-04
7.953515923743e-04
6.412611384576e-04
7.935379176620e-04
6.416895100564e-04
7.919858671216e-04
6.428148585451e-04
7.911835860965e-04
6.451930832692e-04
7.906974009089e-04
1.043478559365e-03
6.488280680812e-04
7.922708773299e-04
6.550535599372e-04
7.938530396349e-04
8.486541096679e-04
6.640767376592e-04
9.046810303943e-04
6.719923155100e-04
9.518110221019e-04
6.833318788760e-04
8.553368924240e-04
9.634094282349e-04
6.841959459369e-04
7.437750547271e-04
8.075477733406e-04
7.840978980929e-04
9.067201485113e-04
7.182952173455e-04
8.056560068066e-04
9.074976820290e-04
1.058681690343e-03
9.613642980480e-04
1.124673614868e-03
9.642913636796e-04
1.127661580992e-03
9.648233326171e-04
1.128011847827e-03
9.654698872071e-04
1.128246407529e-03
9.661174501393e-04
1.128241949394e-03
9.666192092129e-04
1.127921452004e-03
9.669326403947e-04
1.127297441789e-03
9.671031816598e-04
1.126433431619e-03
9.671889276695e-04
1.125391184152e-03
1.237353525443e-03
9.672563440909e-04
1.124245166346e-03
9.673661569137e-04
1.105389387161e-03
1.123086879016e-03
9.676222955820e-04
1.122129503599e-03
9.683134754468e-04
1.121554665225e-03
1.145945620184e-03
9.695365254224e-04
1.121594875715e-03
9.716448673927e-04
1.122152112965e-03
9.743449953803e-04
1.124077529975e-03
9.789309549986e-04
1.126440635360e-03
9.841542575440e-04
1.132759419617e-03
9.937341327789e-04
1.290961962115e-03
1.005880637927e-03
1.137696293842e-03
1.025859589004e-03
1.158967738296e-03
1.053157411498e-03
1.166075290220e-03
1.230270836602e-03
1.084626999933e-03
1.156949487112e-03
1.018044811625e-03
1.073261720169e-03
9.841122625308e-04
1.197570165166e-03
1.355008650809e-03
1.443841627123e-03
1.277845312024e-03
1.436630652411e-03
1.273019814809e-03
1.436273584903e-03
1.273066868925e-03
1.436708570989e-03
1.273891527970e-03
1.437272560770e-03
1.274910118152e-03
1.437696030249e-03
1.275870775207e-03
1.437840220204e-03
1.276638694493e-03
1.437769401218e-03
1.277333767015e-03
1.437521807662e-03
1.492050320424e-03
1.278020419144e-03
1.437163248107e-03
1.278761654515e-03
1.383228364698e-03
1.436706649559e-03
1.348539767128e-03
1.279533274446e-03
1.436149555039e-03
1.280413992586e-03
1.436171304189e-03
1.282119732342e-03
1.436411458420e-03
1.284501989481e-03
1.438201695272e-03
1.478819618675e-03
1.288143499654e-03
1.438650527887e-03
1.291639997313e-03
1.444130028297e-03
1.443167385266e-03
1.297946882526e-03
1.459520057261e-03
1.303387863510e-03
1.450252832353e-03
1.504413949298e-03
1.314489036099e-03
1.321928407648e-03
1.288355325782e-03
1.366973093525e-03
1.498427822904e-03
1.340309289946e-03
1.427497875249e-03
1.381941815066e-03
1.683449326718e-03
1.587854795547e-03
1.752598431419e-03
1.591766725301e-03
1.755487976330e-03
1.592117775931e-03
1.755748046157e-03
1.592908272950e-03
1.756447334746e-03
1.594070061262e-03
1.757338428947e-03
1.595439880482e-03
1.758184168094e-03
1.596577541790e-03
1.758623494902e-03
1.597525668631e-03
1.758893612162e-03
1.775142239222e-03
1.598533292336e-03
1.759097363679e-03
1.623922942480e-03
1.599734639697e-03
1.759352779785e-03
1.600889530669e-03
1.759429545330e-03
1.601695349041e-03
1.661375170989e-03
1.759017839227e-03
1.602504728646e-03
1.759776800456e-03
1.605089372780e-03
1.760876941343e-03
1.607636798844e-03
1.764585957995e-03
1.612270932848e-03
1.763785538860e-03
1.613389646122e-03
1.731789320293e-03
1.619837371080e-03
1.773607484692e-03
1.614639726010e-03
1.763145728161e-03
1.795737480388e-03
1.548841017464e-03
1.759407810678e-03
1.617423548206e-03
1.696652227122e-03
1.608070457612e-03
1.637166809082e-03
1.978075538529e-03
2.068879625806e-03
1.902590828716e-03
2.062161995598e-03
1.898060516849e-03
2.062005351751e-03
1.898519902904e-03
2.062707203719e-03
1.899593226571e-03
2.063756227685e-03
1.901151117505e-03
2.065159394734e-03
1.903035017397e-03
2.065878819387e-03
1.904260045321e-03
2.066054267018e-03
2.081255348113e-03
1.904941591621e-03
2.066518291686e-03
1.946229207625e-03
1.906538266237e-03
2.067300682488e-03
1.912400718489e-03
1.908299225307e-03
2.067775509969e-03
1.909424505434e-03
2.067392831623e-03
1.909798919589e-03
2.065159627985e-03
2.019164063614e-03
1.909657238486e-03
2.069050084578e-03
1.913990891757e-03
2.066625557090e-03
2.079233419176e-03
1.915722788534e-03
2.058653760931e-03
1.921030618245e-03
2.092125439694e-03
1.905326932506e-03
1.827911328399e-03
1.974792546786e-03
2.109959634287e-03
1.963899074007e-03
2.050594123143e-03
1.898921720586e-03
2.308296873625e-03
2.212383277902e-03
2.377889872021e-03
2.214994051217e-03
2.379726867620e-03
2.216547427580e-03
2.381089610341e-03
2.216872246426e-03
2.381752235969e-03
2.218454871060e-03
2.383250492322e-03
2.220224400099e-03
2.385222509952e-03
2.222734674364e-03
2.386383023483e-03
2.391862537500e-03
2.221806440899e-03
2.220677278307e-03
2.385011920154e-03
2.223422370937e-03
2.386582139412e-03
2.226346237541e-03
2.388440069183e-03
2.227280475162e-03
2.250484607725e-03
2.388398609737e-03
2.227668810492e-03
2.387714431866e-03
2.226868736979e-03
2.381778775207e-03
2.225381309291e-03
2.391304783019e-03
2.233950156438e-03
2.220516966315e-03
2.381499207426e-03
2.320752866227e-03
2.406602035383e-03
2.125680874572e-03
2.371949036351e-03
2.230910756870e-03
2.319921770893e-03
2.232416445766e-03
2.197022376616e-03
2.606499819159e-03
2.690961257714e-03
2.522000530317e-03
2.681395089224e-03
2.516611695707e-03
2.684936923134e-03
2.520724084807e-03
2.682910389250e-03
2.518155025397e-03
2.685720127669e-03
2.522107693972e-03
2.686100147812e-03
2.522572435250e-03
2.701698277203e-03
2.691814660839e-03
2.527183984821e-03
2.558519512118e-03
2.685492272813e-03
2.523715955889e-03
2.521830125806e-03
2.687781338981e-03
2.527976907291e-03
2.692519047907e-03
2.530769531241e-03
2.691005186238e-03
2.620190236794e-03
2.529256469091e-03
2.690152839742e-03
2.692355677766e-03
2.530525369073e-03
2.668560171641e-03
2.530830175599e-03
2.711856376190e-03
2.517118108963e-03
2.429701944538e-03
2.579121291386e-03
2.733210654048e-03
2.586513323000e-03
2.669335382215e-03
2.501112406734e-03
2.952964194819e-03
2.821859864007e-03
2.991596827692e-03
2.833511162691e-03
2.996758346163e-03
2.839990296122e-03
3.006645179008e-03
2.831291115803e-03
2.995872769527e-03
2.837184649027e-03
3.005449104704e-03
2.838583631022e-03
3.016774272030e-03
3.001904421592e-03
2.851312415787e-03
2.832771918756e-03
3.009442756207e-03
2.842210225621e-03
3.000234049433e-03
2.844919680408e-03
3.009082672670e-03
2.844437144164e-03
2.872310885887e-03
3.011912840164e-03
2.842005763748e-03
3.004113999591e-03
2.837696132236e-03
2.839675268707e-03
3.003734450339e-03
3.017107183080e-03
2.932857225621e-03
2.738763543566e-03
2.957508157439e-03
2.875589959643e-03
2.947488772035e-03
2.848489924599e-03
2.817296966531e-03

SCALARS element_materi_plasti_phimob float
LOOKUP_TABLE default
8.688205887292e+00
8.335382628773e+00
2.000148296080e+01
1.983143142578e+01
1.662785760436e+01
2.984952411074e+01
1.665923839750e+01
8.820011290081e+00
1.666233574627e+01
1.980826372580e+01
1.884279277470e+01
4.743899619633e+00
2.036065338205e+01
1.714981747165e+01
2.044300448612e+01
1.996631958401e+01
1.642369953116e+01
2.795799792496e+01
8.674093329205e+00
8.348396791158e+00
1.979521816390e+01
9.897714646112e+00
1.158334464455e+01
2.123807834743e+01
1.766684353217e+01
1.909967357675e+01
1.559397881080e+01
2.054911537639e+01
1.764487481633e+01
2.117579888707e+01
2.146181688678e+01
-1.814192686287e+01
1.997656934138e+01
1.981811139258e+01
2.069371940871e+01
2.061483458125e+01
2.059926682079e+01
2.104088444791e+01
1.587279853415e+01
1.593380513549e+01
1.315065769101e+01
2.071128631526e+01
3.620414520918e+00
1.559447271930e+01
1.966316369872e+01
6.076832213834e+00
2.537357323282e+01
1.970651478377e+01
1.629101507821e+01
1.680957117469e+01
1.244582765678e+01
1.101128857678e+01
2.507551188615e+01
1.207441563095e+01
1.995679905579e+01
1.401134489033e+01
1.133240859001e+01
1.982673836351e+01
4.278632470531e+00
1.995517344882e+01
1.388470446134e+01
2.077922432331e+01
1.426805689489e+01
2.475912578429e+01
2.037311074197e+01
1.100804554058e+01
1.804367092619e+01
1.997208844791e+01
7.009940500760e+00
2.016716398806e+01
1.929704225595e+01
2.020019727558e+01
2.034926684212e+01
-1.111860152270e+01
1.437819097424e+01
1.983532170989e+01
1.992642143693e+01
1.367657683430e+01
2.998658805889e+00
6.443883479271e+00
7.981993617916e+00
1.639173145976e+01
1.073484343587e+01
8.261897606720e+00
1.702105075511e+01
1.704521328147e+01
1.941685282636e+01
1.970973662445e+01
1.908270126294e+01
1.656012525694e+01
-2.116285805954e+01
1.637296878128e+01
1.887817939922e+01
1.877630812380e+01
2.012498026087e+01
2.086338569859e+01
1.633565938432e+01
2.094883171341e+01
1.769932717140e+01
1.331332529285e+01
1.622742540615e+01
2.044865350871e+01
2.107709366329e+01
2.079684555074e+01
1.647351150071e+01
1.753481084334e+01
2.016002833813e+01
1.914730626147e+01
2.073537890631e+01
2.043228881730e+01
1.891071902320e+01
-2.371840159880e+01
1.889779229602e+01
1.548919186192e+01
1.606608972955e+01
1.225422783060e+01
1.464754029452e+01
2.066854815324e+01
1.749157991054e+01
1.408773595966e+01
3.950979534480e+00
1.634097445430e+01
1.918037513694e+01
1.504545533563e+01
2.120504502595e+01
1.445656945835e+01
1.601224027851e+01
1.374065928747e+01
1.998280049730e+01
2.527758240316e+01
1.909316296024e+01
1.984496620527e+01
1.532283941824e+01
1.386288040558e+01
2.078455448364e+01
2.036594666623e+01
1.943431331568e+01
1.579792363757e+01
2.111549470889e+01
1.457440349830e+01
1.990899795518e+01
2.014173014046e+01
1.709925185632e+01
1.831334898286e+01
1.467000888069e+01
1.302359841393e+01
1.632431675883e+01
1.763520232689e+01
1.639208362904e+01
2.001132412105e+01
-2.196620949213e+01
1.701303781314e+01
4.383269273228e+00
1.501538963098e+01
2.079119476661e+01
1.468141619366e+01
1.956480777508e+01
6.407332848708e+00
2.091878075123e+01
1.651818387543e+01
1.999474393022e+01
1.994424758437e+01
4.328657090342e+00
2.015936992980e+01
1.634443011148e+01
2.048785406084e+01
1.648193279462e+01
1.737656785426e+01
1.494827008016e+01
1.888293104361e+01
5.295404949295e+00
2.126426262975e+01
1.856044519358e+01
1.646442083707e+01
1.823524908596e+01
1.438417649443e+01
1.957357287875e+01
1.682222386576e+01
2.050766951755e+01
2.017277371103e+01
1.120648357125e+01
1.680797280205e+01
2.151549076516e+01
1.389276948995e+01
9.318284332426e+00
1.593748797613e+01
1.843893932317e+01
1.992407049278e+01
1.886874790235e+01
2.005362898803e+01
8.927301489492e+00
2.273531785501e+01
1.908667799569e+01
1.008861521232e+01
1.384444425526e+01
2.163684649278e+01
-2.325426563011e+00
1.988266682789e+01
1.818983636550e+01
1.933843336679e+01
2.178633895926e+01
1.692360921292e+01
1.741284099294e+01
2.104830459167e+01
1.501354242162e+01
1.692641290780e+01
1.674832016918e+01
1.841615726959e+01
1.670700097785e+01
1.590607390314e+01
2.150451709241e+01
1.936374353307e+01
1.417927705961e+01
1.088612104033e+01
1.293938082522e+01
1.644344840447e+01
1.904766274603e+01
3.015863456496e+01
2.162129544754e+01
1.637378848250e+01
2.135610872777e+01
2.153218391186e+01
-1.506372451850e+01
1.865288623093e+01
-2.092947762313e+01
-3.614247256107e+00
3.514511898157e+00
1.289052536847e+01
1.884733053777e+01
1.227398790695e+01
1.733390876991e+01
1.823979458323e+01
6.105462010490e+00
2.168890737299e+01
1.633461460528e+01
2.038212830934e+01
1.145550178918e+01
1.855975387703e+01
2.132207304742e+01
1.309410645821e+01
2.182024355167e+01
2.052984830218e+01
1.863218570184e+01
2.522748871652e+01
2.159028675198e+01
1.924961109573e+01
1.668610119642e+01
1.841416959462e+01
2.060779167271e+01
2.238746587871e+01
1.778682904929e+01
1.736537928699e+01
2.013641954706e+01
1.706018135023e+01
2.238042644562e+01
1.713196660757e+01
8.091089277831e+00
1.671515711992e+01
2.341835580213e+01
2.891430327415e+01
2.669445914570e+01
1.887624665309e+01
1.707470130678e+01
1.612876042191e+01
1.905734341159e+01
1.885401006293e+01
1.693507614613e+01
2.048954994343e+01
2.229868479849e+01
1.718412489582e+01
1.903137729477e+01
2.212155768771e+01
2.765293323768e+01
1.635149173636e+01
2.310632315667e+01
2.547698117008e+01
1.864873681794e+01
4.997243430006e+00
1.704101525613e+01
2.464873718330e+01
2.141146566197e+01
2.836211724568e+01
1.768386377987e+01
-4.902196439283e+00
1.347813240806e+01
2.207524075825e+01
1.706795649628e+01
1.698503600680e+01
3.107832833548e+01
2.668531062026e+01
2.452271247909e+01
1.188244557190e+01
1.839865892442e+01
1.376788543627e+01
2.334859450638e+01
2.256049706686e+01
2.897473306010e+01
1.939009516906e+01
1.884776865954e+01
2.015358663814e+01
2.019721022800e+01
1.749749276277e+01
2.555577361672e+01
2.425357514415e+01
1.754919561459e+01
2.622709631359e+01
2.646674185184e+01
1.659569016359e+01
1.990074402053e+01
2.293556985081e+01
2.123125079461e+01
2.046811794448e+01
2.096582117625e+01
2.400102572539e+01
1.712051029078e+01
3.051884017556e+01
2.242895755724e+01
2.226983948190e+01
2.476810264100e+01
1.676782355100e+01
2.028812495663e+01
2.391243399039e+01
2.232372747554e+01
2.289916072534e+01
1.805680030642e+01
2.177888535109e+01
1.490008566069e+01
1.780996314051e+01
2.044098531175e+01
2.158844462201e+01
2.024752154289e+01
1.772018843208e+01
1.891096657383e+01
1.266205729856e+01
1.596486977236e+01
1.715058834838e+01
1.743693759951e+01
1.694054321437e+01
2.059928631993e+01
1.741556248932e+01
1.633939539803e+01
2.363147990324e+01
1.022981000962e+01
1.546522133557e+01
1.617201401789e+01
1.649383420443e+01
2.281813744788e+01
2.432611773069e+01
1.886205890379e+01
1.859316830395e+01
1.641437178621e+01
2.225209919845e+01
2.149698436622e+01
2.078815409600e+01
1.449994008633e+01
2.762766473116e+01
1.894072412091e+01
1.036796459884e+01
1.240223058027e+01
1.925065293800e+01
1.740061907056e+01
1.323289808895e+01
1.552088549730e+01
2.100048329933e+01
2.115354116374e+01
1.926072868395e+01
1.862870144497e+01
2.136077927649e+01
1.488966425340e+01
2.718321123059e+01
2.590855604528e+01
1.722165077378e+01
2.249734219007e+01
1.810044726422e+01
1.925784768886e+01
2.698049307611e+01
1.689973036507e+01
1.687087398495e+01
1.593291683980e+01
2.020158831782e+01
2.018326786675e+01
1.986822262959e+01
2.139803444578e+01
1.908599307978e+01
1.446236510142e+01
2.487312111273e+01
2.880888269235e+01
1.421014244704e+01
1.633116231476e+01
1.775767501957e+01
2.121714730444e+01
1.929723363932e+01
1.736705320277e+01
1.777190435091e+01
2.909380910513e+01
-3.982575404947e-01
2.024984699973e+01
1.774704474021e+01
2.026682490947e+01
1.892910005871e+01
1.712223483804e+01
9.112478709759e+00
2.145371587248e+01
2.061455176276e+01
2.173655770224e+01
1.636961990411e+01
4.975540418438e+00
1.676203160916e+01
2.124438211492e+01
1.768518380945e+01
2.032471968770e+01
1.594758664133e+01
1.759450861815e+01
1.849611190742e+01
1.906717020596e+01
2.149380355821e+01
2.034348913989e+01
2.037944275664e+01
2.027205674274e+01
2.030756369454e+01
1.799306501401e+01
1.904112976695e+01
1.946537578375e+01
1.564904210860e+01
1.460975484530e+01
1.736153408284e+01
1.923343159942e+01
2.052140744536e+01
1.925960946470e+01
2.191401971314e+01
1.923485835022e+01
1.963112445245e+01
1.753832701341e+01
1.404269713901e+01
2.426165804837e+01
1.994652464125e+01
1.555305119432e+01
2.015045236799e+01
1.767630906845e+01
2.094506986853e+01
2.086469842272e+01
1.919201736880e+01
2.041443798091e+01
1.998248061787e+01
1.777016972811e+01
-1.949713391200e+01
2.047594727070e+01
2.087984211634e+01
2.321411647276e+01
2.207595600437e+01
2.088561216093e+01
-5.619402222651e+01
1.661896108679e+01
1.793581905259e+01
1.762150684220e+01
1.733146893036e+01
2.135679604074e+01
2.053720843984e+01
2.407671980139e+01
2.906013108374e+01
2.066481124080e+01
-1.904273807661e+01
1.506417064234e+01
2.162064334952e+01
1.545414264577e+01
2.099073725327e+01
2.058754966554e+01
1.742359116036e+01
1.613502455286e+01
2.925661489743e+01
1.672121897522e+01
2.074836810275e+01
1.633993050069e+01
1.669848724938e+01
2.062001806033e+01
1.638193585414e+01
2.016545756225e+01
1.988495419189e+01
1.751188359995e+01
1.206754938633e+01
2.188779681726e+01
2.785549696003e+01
2.062987803748e+01
2.034087947403e+01
2.029360116887e+01
2.105477239573e+01
1.676354096547e+01
1.827866642969e+01
2.115265754580e+01
2.062634336532e+01
2.374605601291e+01
2.547753268727e+01
2.421569364281e+01
1.783579086680e+01
2.094626266647e+01
1.017986900262e+01
2.061680691069e+01
2.316978230581e+01
2.045083058101e+01
1.945081670603e+01
8.999999999681e+01
1.809953296941e+01
1.925852093623e+01
2.051092507103e+01
1.800430804811e+01
2.031878886855e+01
2.418210403606e+01
2.111092551957e+01
2.182921574633e+01
2.278285227613e+01
1.219117743830e+01
2.056349635626e+01
2.774801077037e+01
2.146458341983e+01
1.717845883830e+01
1.660603016910e+01
2.406151608981e+01
1.779762688415e+01
2.062900497151e+01
1.707366499890e+01
2.135956051694e+01
1.802105604567e+01
2.225264091959e+01
2.472452308996e+01
2.139464316828e+01
1.764221608011e+01
1.911073846238e+01
2.171937592914e+01
1.824670392237e+01
1.865847422894e+01
2.131748751624e+01
1.683301907871e+01
2.012177376802e+01
2.251957873962e+01
2.098796089550e+01
1.941390149121e+01
1.531992191686e+01
2.062092171136e+01
2.121325133937e+01
2.044879555863e+01
4.739288097067e-01
2.089901128518e+01
1.940687895130e+01
2.145115917255e+01
2.060858608600e+01
2.110288400539e+01
1.494786055369e+01
1.704588161508e+01
2.262233716579e+01
2.095448793405e+01
2.228963835757e+01
1.816450851992e+01
1.570001755960e+01
2.142405976354e+01
1.762979240614e+01
1.815420618388e+01
2.202555451702e+01
2.033784192512e+01
1.971017048398e+01
-5.780854553846e+01
1.923443159586e+01
2.142840710455e+01
1.841277083945e+01
1.975268788280e+01
2.145470871135e+01
1.756469204099e+01
1.957849242054e+01
2.060466881857e+01
1.799372484054e+01
1.837456039015e+01
1.785215371376e+01
1.810335764976e+01
-5.316018260035e+01
1.735345788301e+01
1.636801626148e+01
-5.645045199837e+01
1.776119786604e+01
2.138430764556e+01
1.930220116955e+01
2.255035502206e+01
2.249988385971e+01
1.595470342238e+01
1.558917672281e+01
1.994557857988e+01
1.773148513329e+01
8.999999999681e+01
6.043237863410e+00
-1.175031482367e+01
1.434714855149e+01
1.958265243887e+01
1.929073528906e+01
2.073828649485e+01
1.503044939285e+01
1.947911714245e+01
2.138887258005e+01
2.945297269629e+01
1.635988032900e+01
1.475142244593e+01
2.088326998852e+01
2.059933945836e+01
1.711390582915e+01
1.811353623720e+01
2.109708807226e+01
2.137644492245e+01
7.743807299211e+00
2.137183600139e+01
-1.808128188662e+00
1.751872144854e+01
1.872088493488e+01
-1.753800779104e+01
1.672144974662e+01
1.944777672819e+01
8.999999999681e+01
1.555479243648e+01
1.557374341462e+01
2.222539604759e+01
1.475495771060e+01
2.010650477131e+01
2.079574668204e+01
2.061356029121e+01
2.034084142378e+01
1.902844257445e+01
1.309297197883e+01
-1.245269430603e+00
1.556415905870e+01
1.566554955821e+01
1.570244627478e+01
-5.581337747435e+01
-1.803396701091e+01
-2.859171982399e+00
1.209527066309e+01
-1.753933033453e+01
1.747857098801e+01
3.098343544375e+00
1.406216335044e+01
1.809358807445e+01
1.560763158037e+01
1.966047773209e+01
2.116025158621e+01
1.762715262148e+01
1.532713285270e+01
-1.353482624831e+00
2.017664780369e+01
2.012146512863e+01
1.720273517020e+01
1.564276547893e+01
1.544309640402e+01
2.011622281291e+01
1.343405551346e+01
1.557716810110e+01
1.557498712515e+01
1.496321351124e+01
2.025868175411e+01
2.009757236207e+01
-1.789583910234e+01
-5.570801187122e+01
2.347851650662e+00
1.908617066857e+01
2.026366522277e+01
9.242619060809e+00
1.902702939993e+01
-8.442162293233e+00
2.223988303003e+01
-3.855686593050e+01
1.354274936966e+01
2.223044418910e+01
2.020706083547e+01
1.804996930213e+01
1.612781943186e+01
-1.723281592136e+01
1.944118825465e+01
2.014843813970e+01
2.011559838510e+01
1.563251794541e+01
2.216213725968e+01
2.017254145394e+01
2.051360797212e+01
-1.800563290006e+00
-1.778715105042e+01
-1.778358723843e+01
1.630915211888e+01
2.056295661420e+01
1.983714080085e+01
8.999999999681e+01
1.745428631750e+01
2.056561537358e+01
2.058976737630e+01
2.082691773735e+01
1.864136881512e+01
1.920693057323e+01
2.055299535086e+01
2.056275510158e+01
1.902413127171e+01
8.999999999681e+01
1.569410254732e+01
1.568016534967e+01
8.999999999681e+01
2.057983520048e+01
2.082120888162e+01
2.057647096352e+01
8.999999999681e+01
8.999999999681e+01
2.059134895180e+01
2.058575024159e+01
1.843381089375e+01
1.572468823356e+01
1.883330742399e+01
1.737620693388e+01
1.572462349310e+01
8.999999999681e+01
8.999999999681e+01
8.999999999681e+01
8.999999999681e+01
1.777343472820e+01
1.710519811107e+01
-5.590894645512e+01
1.909748552929e+01
-5.599608721047e+01
2.021698685470e+01
2.016170271846e+01
2.018205982827e+01
6.710403041156e+00
1.404367645506e+01
2.015261363010e+01
1.995003158209e+01
2.017093972885e+01
2.017078483668e+01
2.036548217640e+01
1.672764130919e+01
2.011150342453e+01
2.012355823302e+01
2.005379971083e+01
2.026587166970e+01
1.949493192286e+01
-3.471052772733e+01
1.705268192258e+01
-1.866134793121e+01
2.052301364836e+01
1.770855875377e+01
2.002946371583e+01
1.117588792307e+01
-5.187959532247e+00
2.014311966443e+01
1.769988825941e+01
1.588334951381e+01
1.994336742815e+01
1.951121852579e+01
1.585740457997e+01
2.129854134581e+01
2.025834124211e+01
1.955593618522e+01
1.961194566605e+01
2.443724053160e+01
1.514041775622e+01
1.947022302716e+01
1.962259442701e+01
1.999529862148e+01
1.971015189534e+01
1.242648911662e+01
1.947835475127e+01
1.914977295645e+01
1.683806503443e+01
1.995955014451e+01
1.957355591810e+01
1.952132949888e+01
1.933746814826e+01
2.012623565958e+01
2.019026724485e+01
1.904999212799e+01
1.969479256579e+01
2.047463793981e+01
1.948432828871e+01
1.850884939820e+01
2.110949254214e+01
1.129471336742e+01
1.218945171544e+01
-1.745346699362e+00
-4.349443576038e+00
1.932902403937e+01
2.007430190050e+01
-1.431622533753e+01
1.940378043083e+01
1.711983016464e+01
1.994565115028e+01
1.985949609891e+01
1.915536121507e+01
1.984743939507e+01
1.681050539374e+01
2.186318673321e+01
2.046925509804e+01
1.089589027981e+01
2.067425574825e+01
1.875157363171e+01
1.225353784844e+01
1.432677635192e+01
1.830065206220e+01
1.798804488010e+01
1.584924123148e+01
1.897475262099e+01
1.829926578776e+01
1.838119964560e+01
1.959592248936e+01
1.976440591540e+01
1.876769368665e+01
8.939158602431e+00
1.793621714583e+01
2.109455106354e+01
1.892291025296e+01
1.729586928548e+01
1.996166335451e+01
2.074916473197e+01
1.851631897601e+01
2.658001166571e+01
-2.033349123649e+00
2.893950278180e+01
2.003554372101e+01
1.826757991116e+01
1.871667155913e+01
1.742463985638e+01
2.127736307403e+01
1.844928254153e+01
1.981264970034e+01
1.138674150843e+01
2.055142016924e+01
1.826170272091e+01
1.234518165855e+01
1.790999113386e+01
1.619310253562e+01
1.404232214377e+01
1.873603308424e+01
-5.471120952062e+01
-5.465390968175e+01
1.943539034151e+01
1.029897751750e+01
1.976313547642e+01
1.984240924572e+01
1.770084334601e+01
1.903096840210e+01
1.923907764033e+01
2.925947898065e+01
1.653587443731e+01
2.127175868309e+01
8.167048519848e+00
1.773988457247e+01
1.711586223355e+01
7.776895672175e+00
2.087820148016e+01
1.862848207892e+01
1.016881378607e+01
1.938151857367e+01
1.940539195012e+01
1.169415545072e+01
1.288735673276e+01
1.211656967841e+01
1.969948674574e+01
1.859600154165e+01
1.943541632078e+01
1.925846262586e+01
1.971801268258e+01
1.987327590047e+01
9.275888678504e+00
1.982235293954e+01
1.865100067381e+01
1.857239943897e+01
1.825010191102e+01
1.886437938931e+01
2.256585358503e+01
1.910270959401e+01
1.758217287939e+01
1.841965453776e+01
1.555539558970e+01
1.736075474673e+01
1.846519624816e+01
2.039127979928e+01
1.294157863067e+01
2.256067002467e+00
1.844348416002e+01
1.291062767012e+01
2.068699797298e+01
1.870805917145e+01
2.006960789654e+01
2.088476799622e+01
1.728248761280e+01
1.162086947615e+01
4.863331251426e+00
2.006326966899e+01
1.805489301453e+01
-2.462225800110e+00
1.581145717664e+01
9.944649445595e+00
1.796371439963e+01
1.615661272595e+01
2.008673016174e+01
1.556205779538e+01
1.913940456889e+01
1.460094242172e+01
2.046593255074e+01
1.171925675479e+01
2.017412318788e+01
1.811655282270e+01
2.014764634180e+01
2.557188484410e+01
9.782791104616e+00
1.748041476971e+01
2.204407018701e+01
1.664240751564e+01
1.803532215046e+01
1.449823570864e+01
1.813013161159e+01
8.597030316167e+00
2.062620855990e+01
2.205220643019e+01
2.157766377704e+01
1.958408237776e+01
2.061574688647e+01
8.787956235721e+00
2.051912965792e+01
2.083713106743e+01
1.863241082960e+01
1.998843632587e+01
1.869225090128e+01
2.073552028098e+01
2.032450541549e+01
1.730907750384e+01
1.338468769581e+01
1.543404744416e+01
1.839715391518e+01
2.026296075390e+01
1.515892174776e+01
1.885137774068e+01
1.840004693657e+01
1.775610642285e+01
1.759779043178e+01
1.813072575075e+01
2.103304534928e+01
2.076174825373e+01
1.741331296490e+01
1.960454907663e+01
2.128906799864e+01
2.041774372180e+01
1.888446333407e+01
1.728214568236e+01
1.624909685605e+01
9.346575616845e+00
2.084947166121e+01
1.648747566638e+01
1.817264747173e+01
1.788098204489e+01
2.307870812016e+01
1.518630807671e+01
2.529045625620e+01
1.548493614006e+01
1.663327813479e+01
1.055004801673e+01
2.121462397382e+01
1.992012982420e+01
1.908512430367e+01
2.077040596342e+01
2.085963428898e+01
2.058694025386e+01
2.045184040387e+01
1.062848923362e+01
2.100292580249e+01
2.098557270688e+01
1.898452274002e+01
1.780841607225e+01
2.075955705609e+01
1.819730372194e+01
1.729433208099e+01
1.751433651383e+01
1.459888423387e+01
1.725302101866e+01
1.828725085915e+01
1.362729588648e+01
1.260524357102e+01
2.008508054916e+01
2.061551344285e+01
1.969383635141e+01
-5.847926861420e+01
2.265352657583e+01
2.133669291565e+01
1.892576979614e+01
1.790683801415e+01
2.031773531378e+01
1.509399030225e+01
1.922623770576e+01
1.894159325914e+01
1.511003802496e+01
1.169753627896e+00
7.067019869254e+00
1.790718643580e+01
1.665031891209e+01
2.201394472382e+01
2.006628883428e+01
1.129299202549e+01
7.193876646422e+00
1.747535395029e+01
1.366017025790e+01
2.128794584518e+01
1.963339601354e+01
1.764292786559e+01
1.916525286155e+01
1.976186667322e+01
2.299631028733e+01
1.933322995391e+01
1.503728693979e+01
1.897306258802e+01
2.129147155823e+01
2.529836873752e+01
1.161269327702e+01
1.670975953602e+01
2.051979377711e+01
2.126961111947e+01
1.425949624107e+01
2.097899506695e+01
2.186139475119e+01
2.301985906931e+01
1.612488549157e+01
2.208460892469e+01
1.837598998465e+01
2.356129376497e+01
2.117271307187e+01
1.841420056356e+01
2.121978697463e+01
2.144891852332e+01
1.986489568711e+01
1.814929135032e+01
1.596359796209e+01
1.792826839283e+01
1.928661238587e+01
2.195681962010e+01
1.969222326403e+01
1.820914996528e+01
1.740747725495e+01
1.188043087927e+01
1.982770309560e+01
8.597751288351e+00
2.127594163668e+01
1.945118035336e+01
2.197918974988e+01
1.767036902249e+01
1.897648454441e+01
2.239704719334e+01
2.269829940176e+01
1.950361102806e+01
2.069732844532e+01
1.856594010297e+01
2.201872828505e+01
1.704065794034e+01
1.874531954573e+01
2.034113357022e+01
2.103246751982e+01
1.953807636599e+01
1.764414615840e+01
1.733925886849e+01
2.078356530874e+01
2.090871951314e+01
2.113180742096e+01
4.935863701532e+00
2.636162544155e+01
2.352103547516e+01
2.300037040216e+01
1.872737958225e+01
1.965400140159e+01
1.943686620898e+01
1.943186051243e+01
1.545933608826e+01
1.890607778731e+01
2.063750595576e+01
1.955379059829e+01
1.849916629026e+01
1.972591978453e+01
2.379090694186e+01
1.877580860338e+01
1.934162778102e+01
1.882975555166e+01
1.859346686848e+01
2.089701669167e+01
2.124051173001e+01
2.107465317633e+01
2.048077775794e+01
1.440775189026e+01
2.184739751284e+01
1.844399427601e+01
1.253930131133e+01
2.319926515256e+01
2.279851935220e+01
2.238821678598e+01
2.784079769923e+01
2.363820073750e+01
2.212513282155e+01
1.606469860851e+01
1.997136904296e+01
1.801978988616e+01
1.626794845485e+01
1.246773962586e+01
2.034168294444e+01
2.191572807074e+01
1.959096836117e+01
2.294269412722e+01
2.027436688329e+01
1.810374064085e+01
-9.754093063559e+00
2.202155091053e+01
2.264484878479e+01
1.645309386487e+01
2.089207298199e+01
2.275918193095e+01
2.108336913987e+01
2.122039145786e+01
2.206582091180e+01
1.880679826309e+01
2.027701588699e+01
2.110005469490e+01
-4.221618827214e+00
1.830455553609e+01
2.096127995710e+01
1.900243032354e+01
2.231325552026e+01
2.343797340452e+01
1.889741128358e+01
3.090267708198e+01
1.921102748542e+01
1.333354412816e+01
2.783423748384e+00
1.988960312650e+01
1.959503496094e+01
1.998898325921e+01
1.820856712582e+01
1.853115687266e+01
1.930713001998e+01
2.647053873324e+01
1.965568034230e+01
1.222169913774e+01
2.266516935150e+01
1.872337017180e+01
2.259915375774e+01
2.013257447998e+01
7.223137999015e+00
2.073881476920e+01
2.377095992199e+01
1.824040595602e+01
3.003209702163e+01
2.113505795376e+01
1.599250043896e+01
1.484280966550e+01
2.182307018331e+01
2.184393104647e+01
2.117139999945e+01
1.648051795173e+01
1.865319952926e+01
2.121600977162e+01
1.833698214411e+01
1.958121442422e+01
1.891878234311e+01
1.909082768585e+01
2.641588436627e+01
2.058665339639e+01
1.872112698110e+01
2.189177434061e+01
1.022751485209e+01
2.105390002383e+01
2.802336381503e+01
1.428027462574e+01
2.131315531641e+01
8.769117199677e+00
1.980191145234e+01
2.184082187793e+01
1.944419374700e+01
1.960669022225e+01
2.189310693332e+01
1.913913854151e+01
2.290485593292e+01
1.943698977758e+01
1.234221769750e+01
1.964295896636e+01
1.390735862306e+01
1.448843535151e+01
2.284796423861e+01
1.511515326121e+01
2.069043270114e+01
2.123443587689e+01
2.318235236796e+01
2.708207607738e+01
2.336557481521e+01
1.936654837570e+01
1.963285883132e+01
2.052389080757e+01
2.119251790851e+01
2.246965266957e+01
1.911791035647e+01
2.329378841357e+01
2.046637243064e+01
1.894904201861e+01
1.887729354112e+01
2.227500013351e+01
2.325390121625e+01
1.971487070318e+01
1.811337789868e+01
2.501999010577e+01
2.802463661825e+01
1.725878745547e+01
1.808949947168e+01
2.039514363745e+01
1.869227650112e+01
2.355415587366e+01
1.872791438473e+01
2.178922622113e+01
1.918933203416e+01
1.978202405903e+01
1.800031418173e+01
2.158550668101e+01
2.299957218938e+01
2.174909497324e+01
1.920773901129e+01
1.948780153292e+01
1.986037964867e+01
2.255885477182e+01
2.869781061027e+01
2.047113385955e+01
2.006002658287e+01
2.346769914852e+01
2.234567746512e+01
2.141413994957e+01
2.793463083526e+01
2.289122998547e+01
1.821122711883e+01
2.031257714496e+01
1.847993076808e+01
2.012963063461e+01
1.793804974000e+01
1.738503582035e+01
1.844302517918e+01
2.140380843191e+01
2.056115796323e+01
1.848204649469e+01
1.962447953344e+01
1.765998672384e+01
2.493965437803e+01
2.041182878193e+01
1.952883271657e+01
2.060202805920e+01
2.003580815789e+01
2.415706418693e+01
1.868147480211e+01
1.583541737335e+01
2.080736798060e+01
1.605436960930e+01
2.156544286852e+01
2.047989140213e+01
2.398119706880e+01
2.924647548734e+01
1.960942895530e+01
1.605803102921e+01
2.272273877929e+01
2.055345664248e+01
1.845244910220e+01
2.071030313577e+01
2.213455701800e+01
3.027063626332e+01
2.035489535783e+01
1.851995829178e+01
2.139148715606e+01
1.994041424553e+01
2.187432166760e+01
2.091762821341e+01
2.319973499344e+01
1.796314718162e+01
1.967950516205e+01
2.389614383549e+01
2.036093373424e+01
2.025773808899e+01
2.457640601189e+01
1.867237917342e+01
2.814322548127e+01
1.943576344883e+01
2.166730898050e+01
1.993241600100e+01
1.973845715094e+01
2.674465487465e+01
2.033150519110e+01
1.967760034256e+01
2.089345939341e+01
2.142185315244e+01
2.269770849680e+01
1.907303415260e+01
2.022210495356e+01
1.829810192513e+01
1.972345432134e+01
1.827200485037e+01
2.044190713205e+01
2.090049945797e+01
1.574522192456e+01
1.574602196793e+01
1.842082243017e+01
1.939009818868e+01
1.955679945986e+01
1.861731664009e+01
2.071757967775e+01
2.142883389645e+01
2.205772153817e+01
2.014411531062e+01
1.671656006208e+01
2.058743897200e+01
2.003092326871e+01
2.730998385311e+01
1.947896851772e+01
1.899580673775e+01
1.818713176406e+01
1.822765573418e+01
1.887495572346e+01
1.901825881907e+01
4.829254891230e+00
1.926800928510e+01
1.622128475253e+01
1.829496492221e+01
1.849170698738e+01
2.141559463094e+01
1.002709332322e+01
2.715914054755e+01
1.879924152092e+01
1.881112962599e+01
1.452172790806e+01
1.508389484766e+01
1.819672309800e+01
2.610095655425e+01
1.952282876850e+01
2.182669904961e+01
2.871887063759e+01
2.043715168448e+01
1.929078515179e+01
1.866668888159e+01
2.038605598569e+01
-3.311981917576e+00
2.184402378336e+01
1.890425733742e+01
-3.176350049027e+00
1.931697562243e+01
2.869547579298e+01
1.831546306864e+01
1.827728542196e+01
2.272069811167e+01
2.177919865064e+01
1.947255407244e+01
2.166118802786e+01
1.958317647635e+01
1.929049778076e+01
2.001888335208e+01
2.972381822578e+01
2.011021303803e+01
1.764996978571e+01
2.034858720505e+01
2.140364857185e+01
1.906806562117e+01
2.000158041977e+01
1.548991220807e+01
1.999932045103e+01
2.023343946665e+01
1.959540523647e+01
1.971198205986e+01
1.985169674361e+01
1.959331591649e+01
2.187845364740e+01
1.857646417624e+01
2.175604256355e+01
2.152291333187e+01
2.121662409648e+01
2.625393742153e+01
2.273252667901e+01
2.545131904775e+01
1.859016822406e+01
2.556058396923e+01
1.848808857564e+01
2.147849613939e+01
2.162840772926e+01
2.128182405197e+01
1.795690014041e+01
2.028683899794e+01
2.017003447775e+01
2.411586346591e+01
1.875818250478e+01
2.035355096294e+01
1.235632442448e+01
1.912270404428e+01
2.120148783203e+01
2.022451437537e+01
2.657012837364e+01
1.843133157915e+01
2.119909581001e+01
1.792610148964e+01
1.765551728681e+01
1.923997590364e+01
1.317864438366e+01
1.388940420063e+01
2.014498479644e+01
2.163830864781e+01
2.247317080002e+01
2.200307875339e+01
2.308941319907e+01
2.596893218822e+01
1.310272179530e+01
1.706009384036e+01
1.575700197462e+01
2.168164960758e+01
2.192939435414e+01
2.105074163979e+01
1.994657245123e+01
2.281021320438e+01
2.045456457041e+01
2.489607360211e+01
2.103988811334e+01
1.963282174722e+01
2.012200417914e+01
2.144038983423e+01
1.853696483036e+01
1.865816791299e+01
2.284722024340e+01
1.837201603339e+01
2.130001129227e+01
2.057091677275e+01
2.314539393044e+01
1.984552009282e+01
1.830583151745e+01
2.773636254585e+01
2.164022213311e+01
1.724918606864e+01
4.396213665064e+00
1.938658538207e+01
1.950172493205e+01
1.791673586802e+01
1.147389014657e+01
2.023888955804e+01
2.709323349914e+01
1.237614686479e+01
2.246133176278e+01
1.866452956520e+01
1.500940670495e+01
2.375238201407e+01
2.172645724329e+01
1.930648989073e+01
2.153513796071e+01
1.950234703977e+01
2.742522963631e+01
1.896691010961e+01
1.887519637862e+01
1.460699705690e+01
1.596128922768e+01
1.790248780602e+01
1.955802994372e+01
-1.754371941033e+00
1.619154498635e+01
1.018990289991e+01
1.871647661388e+01
2.419575842366e+01
2.366930488948e+01
2.578698270954e+01
1.930371025995e+01
1.842581432573e+01
1.889098631089e+01
2.441633954970e+01
1.880824222529e+01
1.685817756521e+01
2.114064513550e+01
1.884293744919e+01
1.909573263842e+01
9.074441476874e+00
2.362165305195e+01
1.898789329183e+01
1.819589214029e+01
1.771548452891e+01
1.039422455228e+01
1.926357142824e+01
2.170349335090e+01
1.554598913156e+01
2.104363168535e+01
9.257012918628e+00
2.199748385782e+01
2.162905607168e+01
1.126651728558e+01
1.897247099305e+01
1.333520563811e+01
1.624472329683e+01
1.910687126266e+01
2.224444445146e+01
1.919185231016e+01
2.388374244154e+01
1.937925823593e+01
2.255078616161e+01
2.158645388543e+01
2.040895181704e+01
1.925840645369e+01
1.919648642433e+01
2.471692295394e+01
3.667556292874e+00
2.948668948331e+01
1.931740133198e+01
2.157149457197e+01
1.952670105608e+01
1.905523859288e+01
1.137591409805e+01
1.890882973930e+01
2.100162665050e+01
4.986896583758e+00
2.016099836355e+01
2.055898922284e+01
1.667010837664e+01
2.110538395332e+01
1.990374578043e+01
2.466598034302e+01
1.880608635863e+00
2.537014547417e+01
1.962151706796e+01
1.816729019479e+01
1.566201581876e+01
2.064342737153e+01
1.141422532752e+01
2.076923517812e+01
1.817729015898e+01
1.960292844464e+01
1.988128115250e+01
2.113513624712e+01
1.156390270937e+01
1.993215821503e+01
1.866939095524e+01
2.006730149782e+01
2.285204100541e+01
1.914518165335e+01
9.821024484115e+00
2.406789253350e+01
1.884207136370e+01
1.805263987228e+01
1.799230026380e+01
2.025640938558e+01
2.038189548224e+01
5.286591810580e+00
7.654118204718e+00
1.683450669659e+01
2.209380132222e+01
2.126900071905e+01
1.917958998943e+01
1.980318968301e+01
8.727979555312e+00
1.863850313468e+01
2.002642286433e+01
2.521962296662e+01
1.338490562338e+01
1.259554283534e+01
2.179744489969e+01
1.900325851801e+01
2.229064206450e+01
2.707268729229e+01
2.193559534980e+01
9.246539634674e+00
2.176671729858e+01
2.211697123634e+01
2.043184608958e+01
1.803118044016e+01
1.611108748748e+01
1.994329627334e+01
2.194720713469e+01
9.006131640686e+00
1.849362326911e+01
1.966767871620e+01
1.936708516667e+01
-2.259273769146e+01
2.177940763371e+01
1.282416581837e+01
1.347204536698e+01
1.948107844561e+01
2.075418324815e+01
1.939885377529e+01
2.331472798119e+01
1.570793301966e+01
2.070628262668e+01
1.118749863130e+01
2.161057387258e+01
2.119649370264e+01
7.592909218142e+00
1.874200254926e+01
2.405013298489e+01
-3.490981463532e-01
2.469297298232e+01
1.943056551326e+01
1.867322228698e+01
8.119312926605e+00
1.840608537823e+01
1.925030748662e+01
2.102066074251e+01
1.848741047042e+01
1.333306401718e+01
2.125593932602e+01
1.791487192940e+01
4.186088193498e+00
2.026425350577e+01
2.002182315241e+01
1.708326034841e+01
1.980622031703e+01
2.008095215945e+01
2.335856608372e+01
2.183250982583e+01
2.122243484248e+01
9.916948841793e+00
1.237018310491e+01
1.855765239712e+01
1.758929267118e+01
2.303343989671e+01
4.035791822166e-01
4.373093996770e+00
1.695799805383e+01
2.412292775492e+01
1.397545632701e+01
2.067367676332e+01
2.067788192296e+01
2.077375605084e+01
2.203858207868e+01
1.632305906585e+01
9.258001079520e+00
-4.038350244548e-04
2.138964087008e+01
-1.822749440641e-01
2.116488070185e+01
2.076017730170e+01
2.269552820657e+01
2.458106746038e+01
1.944619650444e+01
2.083315886036e+01
1.962378862494e+01
1.913444339834e+01
2.011541310661e+01
2.055332072781e+01
1.711639534025e+01
2.012562390944e+01
4.906440930958e+00
2.044726337225e+01
2.057805987851e+01
1.435689779084e+01
3.793641011375e+00
2.148522557449e+01
1.640694559065e+01
1.966150087764e+01
1.926760009183e+01
2.091424840645e+01
1.929197089089e+01
1.719983398373e+01
1.624949564730e+01
1.722523024519e+01
1.839606454005e+01
2.078986237239e+01
1.556248376140e+01
1.647440367755e+01
1.704813682417e+01
1.723877284375e+01
2.790838628154e+01
1.504516726242e+01
1.990828499856e+01
1.779271634850e+01
2.090343608171e+01
1.977977306596e+01
1.875920288742e+01
1.962276361175e+01
1.678005731471e+01
1.615203622394e+01
2.085332105296e+01
1.955429764731e+01
1.296003859716e+01
2.060800274240e+01
3.894739184017e+00
1.647241018099e+01
2.143173922659e+01
-6.652015954330e+00
-2.092590678465e+01
2.012189620881e+01
1.564892484060e+01
1.984605627322e+01
2.114379883757e+01
1.564390762396e+01
9.706447260550e+00
1.992875271329e+01
4.403984262795e+00
1.971773794397e+01
2.057116224174e+01
1.974704639564e+01
2.730311852070e+01
1.696562486975e+01
1.688915320155e+01
2.078473999056e+01
2.087459915188e+01
1.886520114887e+01
2.095573753824e+01
2.651838963815e+01
2.056401713924e+01
2.466140763241e+01
3.323393953092e+00
2.113963719701e+01
1.991190254075e+01
1.996712610451e+01
1.640084351991e+01
1.704868850178e+01
1.559694698784e+01
2.004645335657e+01
1.544173275014e+01
2.553769295762e+01
2.091686253103e+01
1.567870855407e+01
1.975761857496e+01
2.009687344336e+01
2.016552947776e+01
8.999999999681e+01
-5.124618286387e+01
1.583292753303e+01
1.574571348798e+01
2.056111024141e+01
2.052491000576e+01
-2.166417142895e+01
1.044621227219e+01
2.034754326806e+01
2.048002205031e+01
7.297336764864e+00
2.057348137905e+01
1.886200125599e+01
1.809488472137e+01
1.808620654015e+01
1.407898407903e+01
2.078568233088e+01
3.844232969878e+00
1.754141582003e+01
1.990514257368e+01
1.954265614710e+01
1.802286089872e+01
1.752387868471e+01
2.016926828913e+01
1.948286767265e+01
1.914514759320e+01
1.569336537822e+01
2.112958843705e+01
1.975068208547e+01
1.290373972940e+01
-1.928489128822e+01
1.993760714444e+01
2.162189135210e+01
1.374806920007e+01
1.842201383763e+01
2.045154720166e+01
2.023128052279e+01
2.032351973364e+01
1.923766813282e+01
2.484272117865e+01
-1.323425696958e+00
1.026098726755e+01
1.693534932961e+01
2.087092448406e+01
1.973636236954e+01
2.090525808550e+01
3.735179532601e+00
-4.160796552536e+00
-9.210095586386e+00
1.854764709357e+01
1.492316291024e+01
1.974864340462e+01
7.105932276625e+00
2.117559954471e+01
1.696779485285e+01
2.063902750164e+01
2.058267486703e+01
1.692024562575e+01
2.103793475925e+01
1.993077981455e+01
1.990012735171e+01
-9.443555799549e+00
1.964531856871e+01
2.026275545828e+01
2.135086696623e+01
2.071712052734e+01
2.058148937061e+01
1.914439407887e+01
7.735550373834e+00
2.177325117274e+01
1.963004343001e+01
1.744496820061e+01
2.025749080522e+01
2.061195529224e+01
2.056837552146e+01
1.896341572745e+01
2.072361834165e+01
2.095641604461e+01
2.101116278119e+01
1.521504764549e+01
2.061132089934e+01
1.629655481202e+01
1.964437388460e+01
-3.904459746122e+00
1.939766760559e+01
1.844603261487e+01
-1.786060831501e+00
2.749554686430e+01
1.936681571914e+01
1.993829572799e+01
1.970229991214e+01
2.096422163351e+01
1.749557809501e+01
-1.949068557399e+01
2.515153679429e+01
-1.652515251780e+01
2.284846331368e+00
2.849509625375e+01
1.735393443797e+01
2.026198943210e+01
1.975585715828e+01
1.737302356980e+01
1.652925386035e+01
2.082117960061e+01
2.137054730759e+01
2.080277276026e+01
2.009725897955e+01
1.968049058590e+01
-4.982430124167e+00
2.200136115908e+01
2.032722653470e+01
-3.203520350176e+00
1.401460118536e+00
2.451773576543e+01
-7.296821272328e+00
2.078180491202e+01
2.015707276607e+01
1.975710684083e+01
2.063697671108e+01
2.140000896030e+01
1.781083536681e+01
2.020865427325e+01
2.193749991684e+01
1.560150639352e+01
1.040584750876e+01
-1.989424025685e+01
2.056225461307e+01
1.636353919108e+01
3.866669012361e+00
1.711727121731e+01
2.011407667512e+01
1.969906324741e+01
1.999178924132e+01
1.437586605296e+01
2.148533264675e+01
2.071552157426e+01
2.010909509274e+01
2.055424762433e+01
1.636108410793e+01
2.110941578582e+01
3.162140399283e+00
1.977890726730e+01
-2.230279738417e+01
2.085322327500e+01
1.993465886587e+01
2.006861700994e+01
2.031292404657e+01
1.875817727170e+01
1.995442262708e+01
2.064348771061e+01
1.818967647549e+01
2.013984918964e+01
1.974605877029e+01
1.847219201949e+01
1.995747478223e+01
1.591067978429e+01
1.570619338172e+01
2.067092526976e+01
1.995436659842e+01
8.999999999681e+01
1.573885763431e+01
2.043426952664e+01
6.886311616274e+00
2.146495094628e+01
1.970412593265e+01
1.990228358706e+01
6.524078072600e+00
2.729597123299e+01
1.832683212950e+01
1.920680698337e+01
6.114842332871e+00
1.998883151979e+01
1.804811753505e+01
1.241922927869e+01
1.767257897752e+01
2.065437544426e+01
1.855334654796e+01
3.499586537224e+01
1.518081571175e+01
1.784017263142e+01
1.872428137867e+01
2.090886245439e+01
1.767682664013e+01
1.800547424124e+01
-8.106385815411e+00
2.065824106286e+01
1.994556769304e+01
2.738185612986e+01
1.994426677785e+01
2.043578713927e+01
1.640553023605e+01
1.803646352798e+01
1.764935521628e+01
1.783389089473e+01
1.805271612393e+01
2.141216636204e+01
8.052906385881e+00
2.003599657772e+01
1.704072383194e+01
1.991221108102e+01
2.135449029642e+01
1.764306320708e+01
1.977777087049e+01
2.088126184043e+01
2.092846627992e+01
2.714755821119e+01
1.976618605158e+01
1.994239794275e+01
-6.070913157146e+00
1.733945138934e+01
2.488014473197e+01
1.990080465562e+01
-5.029937910420e+01
-5.553751126848e+01
-5.519379755297e+01
-5.580588678332e+01
-5.549755318765e+01
-5.572602312824e+01
-5.554868706661e+01
-5.567461010353e+01
-5.554791853112e+01
-5.564505680600e+01
-5.551996761225e+01
-5.562885855544e+01
-5.547406962399e+01
-5.562120092516e+01
-5.541406957501e+01
-5.561961818309e+01
-5.534131434219e+01
-5.562326380548e+01
-5.525587088418e+01
-5.563223464108e+01
-3.467995419718e+01
-5.515709034379e+01
-5.564705846900e+01
-5.504374642469e+01
8.999999999681e+01
-5.566703983247e+01
-5.491447145080e+01
-3.322445174437e+01
-5.564928086327e+01
-5.476826656532e+01
-5.553473429455e+01
-5.460461549210e+01
-5.542580929190e+01
-5.442311153975e+01
-5.530792326930e+01
-5.422531804192e+01
-5.521912650487e+01
-1.263323712499e+01
-5.400835824576e+01
8.940755715054e+01
-5.378162509022e+01
8.745272270529e+01
8.614189203162e+01
-5.351479535930e+01
8.614314597368e+01
-5.305233594389e+01
8.614266153938e+01
-5.257801916208e+01
8.707867830363e+01
-5.098331546595e+01
-5.212253014547e+01
-4.841094099165e+01
-3.449202913021e+01
-5.292667543537e+01
-4.906200564289e+01
-6.549910936425e+01
-4.018254708821e+01
-1.004487117184e+01
-1.922081165495e+01
-1.721046582451e+01
-1.728423338286e+01
-1.704951363426e+01
-1.716090875544e+01
-1.699215821349e+01
-1.711638673058e+01
-1.693958655843e+01
-1.707602604507e+01
-1.688511975878e+01
-1.703515936766e+01
-1.682764988357e+01
-1.699207084930e+01
-1.676641523640e+01
-1.694507067511e+01
-1.670104378731e+01
-1.689256971097e+01
-1.663183445233e+01
-1.683378067025e+01
-1.046588536797e+01
-1.655961833642e+01
-1.676828994529e+01
-1.648575603606e+01
-1.448425215640e+01
-1.669615742217e+01
-1.641130214829e+01
-1.661608557957e+01
-1.633933770146e+01
-1.652803723154e+01
-1.816283491043e+01
-1.627291317572e+01
-1.643195917972e+01
-1.622064478403e+01
-1.633462715777e+01
-1.618096988638e+01
-1.622593988791e+01
-1.617197430629e+01
-1.611876621494e+01
-1.616756957835e+01
-1.594724972729e+01
-1.622315450356e+01
-9.073215811437e+00
-1.636970094509e+01
-1.595127527011e+01
-1.656440998853e+01
-1.570431306157e+01
-1.620028366915e+01
-1.560788312916e+01
-1.377644577898e+01
-2.002182223674e+01
-1.619490456914e+01
-1.879623964869e+01
-1.239903622998e+01
-2.435797746937e+01
-1.210946747123e+01
-1.394648178940e+00
-2.239876122803e+00
-2.259288877119e+00
-2.303505153697e+00
-2.299603921512e+00
-2.288267449324e+00
-2.282375497622e+00
-2.264132472533e+00
-2.259947747416e+00
-2.237176914329e+00
-2.237071583597e+00
-2.208328946598e+00
-2.214631826358e+00
-2.177746636474e+00
-2.192813117090e+00
-2.144267906553e+00
-2.171155397028e+00
-2.107788284017e+00
-7.060034489038e-02
-2.150080043705e+00
-2.068314463545e+00
-2.130485635849e+00
-3.456591896878e+00
-2.026805170273e+00
-1.994444708683e+00
-2.114114006595e+00
-1.984630391077e+00
-2.101803970361e+00
-1.937194912312e+00
-2.093581245221e+00
-1.891202885330e+00
-2.092173101911e+00
-1.836909885867e+00
-2.214572489555e-01
-2.101589720518e+00
-1.805474214693e+00
-2.124641461645e+00
-1.737282728452e+00
-1.740363415800e+00
-2.158431139201e+00
-1.591481026235e+00
-2.202732611936e+00
-1.681626836430e+00
-1.102994526603e+00
-2.246459822076e+00
-2.290992680572e+00
-5.215265855700e+00
-2.469231939104e+00
-1.278560503439e+00
-4.665124807082e+00
2.738796774463e-01
-2.398996022375e+00
4.431404351453e+00
4.862997287842e+00
4.883020009563e+00
4.888099855331e+00
4.904579759576e+00
4.891874706996e+00
4.912120620325e+00
4.897257739449e+00
4.922561744143e+00
4.902609525510e+00
4.934171253261e+00
4.906771367313e+00
4.945979510942e+00
4.907844935302e+00
4.956392009266e+00
4.906295279760e+00
4.966791981900e+00
5.695829438036e+00
4.902614996119e+00
4.977517704133e+00
4.688523302106e+00
4.896626945971e+00
4.988742348949e+00
4.886316696265e+00
4.998564457091e+00
4.869489926117e+00
3.848237055809e+00
5.004741626909e+00
4.848543144905e+00
5.015431704507e+00
4.826464529328e+00
5.025495529618e+00
4.799406825718e+00
5.047125617550e+00
4.767518976627e+00
5.042254151592e+00
4.725249911603e+00
5.435980176484e+00
4.699483030161e+00
5.097520269187e+00
4.656749970277e+00
5.054241933018e+00
5.288440846710e+00
2.817080774920e+00
5.153959352366e+00
4.398415620054e+00
6.026948118958e+00
3.309109769245e+00
3.890371362326e+00
9.247989506557e+00
8.989752069333e+00
8.961249064444e+00
8.960847211262e+00
8.936969297725e+00
8.958109702680e+00
8.931229361126e+00
8.958409119867e+00
8.925826954793e+00
8.959053722937e+00
8.919460723648e+00
8.960217551947e+00
8.911433627054e+00
8.957893368631e+00
8.898085590876e+00
8.953068950047e+00
9.280405177297e+00
8.880391922866e+00
8.949141330094e+00
8.069065929079e+00
8.863051704320e+00
8.945644466025e+00
8.636756668635e+00
8.842891736010e+00
8.940020860137e+00
8.817190804001e+00
8.930357837995e+00
8.785837030024e+00
8.913761041544e+00
9.060840491166e+00
8.751487854128e+00
8.919890104429e+00
8.730410163265e+00
8.903882465337e+00
8.946781378518e+00
8.701388671369e+00
8.875518226267e+00
8.695232848391e+00
9.018868999610e+00
8.623854135930e+00
7.481750449797e+00
8.839184923246e+00
9.345362850835e+00
8.210336511880e+00
9.826830328364e+00
7.985978655331e+00
1.142428408475e+01
1.159169222910e+01
1.160808039115e+01
1.159087984178e+01
1.160664530543e+01
1.158635633451e+01
1.160351958944e+01
1.157514959378e+01
1.159650376401e+01
1.156408459973e+01
1.158956247140e+01
1.155133050623e+01
1.158277421453e+01
1.153707534442e+01
1.157153397171e+01
1.168462369454e+01
1.151013701120e+01
1.126851914172e+01
1.155249523033e+01
1.148917243876e+01
1.154102767432e+01
1.146903918950e+01
1.152899702790e+01
1.144066640155e+01
1.083600233435e+01
1.151121760127e+01
1.140975538742e+01
1.149222201924e+01
1.137665237997e+01
1.146163393652e+01
1.134165798399e+01
1.147713431092e+01
1.134755778252e+01
1.129064371738e+01
1.144991419018e+01
1.152147495319e+01
1.153028484581e+01
1.046812067269e+01
1.174887292321e+01
1.136470765007e+01
1.208599521789e+01
1.097077186812e+01
1.072489096719e+01
1.358875213755e+01
1.344565961321e+01
1.341901767725e+01
1.341946558622e+01
1.339850558116e+01
1.341929242821e+01
1.339564080899e+01
1.340467766128e+01
1.337274320891e+01
1.339674470664e+01
1.336236442614e+01
1.338396549838e+01
1.334139965560e+01
1.341365324896e+01
1.337885373657e+01
1.332686293728e+01
1.278506139272e+01
1.334696034076e+01
1.329231402051e+01
1.310597545293e+01
1.333383970686e+01
1.327498299611e+01
1.332473424027e+01
1.325233133826e+01
1.330143453234e+01
1.326464189784e+01
1.321854946836e+01
1.328055718761e+01
1.326905489690e+01
1.319471284244e+01
1.320961722972e+01
1.317782938079e+01
1.330066505686e+01
1.312081252189e+01
1.251776132131e+01
1.332581802277e+01
1.365968596298e+01
1.307378405722e+01
1.385381941302e+01
1.267737827444e+01
1.472965953029e+01
1.476217554529e+01
1.477476049247e+01
1.477964488075e+01
1.477304013045e+01
1.477771173487e+01
1.477914493852e+01
1.474369346616e+01
1.474693546773e+01
1.474011601087e+01
1.474658587009e+01
1.472245156026e+01
1.473467290115e+01
1.472375687686e+01
1.455374191354e+01
1.467980671685e+01
1.471606254250e+01
1.468467842792e+01
1.468036550822e+01
1.466201480589e+01
1.467592251852e+01
1.463254751277e+01
1.424464177004e+01
1.466126620502e+01
1.460214902047e+01
1.462750301634e+01
1.456948957283e+01
1.455068106021e+01
1.461258811177e+01
1.462602224372e+01
1.461063640421e+01
1.404570947049e+01
1.485174184484e+01
1.469095762178e+01
1.508070853904e+01
1.443830035680e+01
1.415015993551e+01


