# vtk DataFile Version 2.0
Calculation C:\Users\NickSteudtner\Documents\GitHub\TOCHNOG\standsicherheit_phiC at time 4.000000000000e+00 
ASCII
DATASET UNSTRUCTURED_GRID
Field FieldData 1
Time 1 1 double
4.000000000000e+00

POINTS 1191 float
0.0 0.0 0.0 
5.000000000000e+01 -1.000000000000e+01 0.0 
0.0 -2.000000000000e+01 0.0 
5.000000000000e+01 -2.000000000000e+01 0.0 
0.0 -9.999999999991e-01 0.0 
0.0 -1.999999999998e+00 0.0 
0.0 -2.999999999997e+00 0.0 
0.0 -3.999999999994e+00 0.0 
0.0 -4.999999999991e+00 0.0 
0.0 -5.999999999988e+00 0.0 
0.0 -6.999999999985e+00 0.0 
0.0 -7.999999999982e+00 0.0 
0.0 -8.999999999983e+00 0.0 
0.0 -9.999999999985e+00 0.0 
0.0 -1.099999999999e+01 0.0 
0.0 -1.199999999999e+01 0.0 
0.0 -1.299999999999e+01 0.0 
0.0 -1.399999999999e+01 0.0 
0.0 -1.499999999999e+01 0.0 
0.0 -1.599999999999e+01 0.0 
0.0 -1.700000000000e+01 0.0 
0.0 -1.800000000000e+01 0.0 
0.0 -1.900000000000e+01 0.0 
4.900000000001e+01 -2.000000000000e+01 0.0 
4.800000000001e+01 -2.000000000000e+01 0.0 
4.700000000002e+01 -2.000000000000e+01 0.0 
4.600000000003e+01 -2.000000000000e+01 0.0 
4.500000000004e+01 -2.000000000000e+01 0.0 
4.400000000004e+01 -2.000000000000e+01 0.0 
4.300000000005e+01 -2.000000000000e+01 0.0 
4.200000000006e+01 -2.000000000000e+01 0.0 
4.100000000006e+01 -2.000000000000e+01 0.0 
4.000000000007e+01 -2.000000000000e+01 0.0 
3.900000000008e+01 -2.000000000000e+01 0.0 
3.800000000009e+01 -2.000000000000e+01 0.0 
3.700000000009e+01 -2.000000000000e+01 0.0 
3.600000000010e+01 -2.000000000000e+01 0.0 
3.500000000011e+01 -2.000000000000e+01 0.0 
3.400000000011e+01 -2.000000000000e+01 0.0 
3.300000000012e+01 -2.000000000000e+01 0.0 
3.200000000013e+01 -2.000000000000e+01 0.0 
3.100000000013e+01 -2.000000000000e+01 0.0 
3.000000000013e+01 -2.000000000000e+01 0.0 
2.900000000013e+01 -2.000000000000e+01 0.0 
2.800000000013e+01 -2.000000000000e+01 0.0 
2.700000000013e+01 -2.000000000000e+01 0.0 
2.600000000013e+01 -2.000000000000e+01 0.0 
2.500000000013e+01 -2.000000000000e+01 0.0 
2.400000000013e+01 -2.000000000000e+01 0.0 
2.300000000013e+01 -2.000000000000e+01 0.0 
2.200000000013e+01 -2.000000000000e+01 0.0 
2.100000000013e+01 -2.000000000000e+01 0.0 
2.000000000013e+01 -2.000000000000e+01 0.0 
1.900000000013e+01 -2.000000000000e+01 0.0 
1.800000000013e+01 -2.000000000000e+01 0.0 
1.700000000012e+01 -2.000000000000e+01 0.0 
1.600000000011e+01 -2.000000000000e+01 0.0 
1.500000000011e+01 -2.000000000000e+01 0.0 
1.400000000010e+01 -2.000000000000e+01 0.0 
1.300000000009e+01 -2.000000000000e+01 0.0 
1.200000000009e+01 -2.000000000000e+01 0.0 
1.100000000008e+01 -2.000000000000e+01 0.0 
1.000000000007e+01 -2.000000000000e+01 0.0 
9.000000000064e+00 -2.000000000000e+01 0.0 
8.000000000057e+00 -2.000000000000e+01 0.0 
7.000000000050e+00 -2.000000000000e+01 0.0 
6.000000000043e+00 -2.000000000000e+01 0.0 
5.000000000036e+00 -2.000000000000e+01 0.0 
4.000000000028e+00 -2.000000000000e+01 0.0 
3.000000000021e+00 -2.000000000000e+01 0.0 
2.000000000014e+00 -2.000000000000e+01 0.0 
1.000000000007e+00 -2.000000000000e+01 0.0 
5.000000000000e+01 -1.100000000000e+01 0.0 
5.000000000000e+01 -1.200000000000e+01 0.0 
5.000000000000e+01 -1.300000000000e+01 0.0 
5.000000000000e+01 -1.400000000000e+01 0.0 
5.000000000000e+01 -1.500000000000e+01 0.0 
5.000000000000e+01 -1.600000000000e+01 0.0 
5.000000000000e+01 -1.700000000000e+01 0.0 
5.000000000000e+01 -1.800000000000e+01 0.0 
5.000000000000e+01 -1.900000000000e+01 0.0 
2.000000000000e+01 0.0 0.0 
3.500000000000e+01 -1.000000000000e+01 0.0 
2.150000000000e+01 -1.000000000000e+00 0.0 
2.300000000000e+01 -2.000000000000e+00 0.0 
2.450000000000e+01 -3.000000000000e+00 0.0 
2.600000000000e+01 -4.000000000000e+00 0.0 
2.750000000000e+01 -5.000000000000e+00 0.0 
2.900000000000e+01 -6.000000000000e+00 0.0 
3.050000000000e+01 -7.000000000000e+00 0.0 
3.200000000000e+01 -8.000000000000e+00 0.0 
3.350000000000e+01 -9.000000000000e+00 0.0 
5.000000000000e+01 -3.000000000000e+00 0.0 
5.000000000000e+01 -4.000000000000e+00 0.0 
5.000000000000e+01 -5.000000000000e+00 0.0 
5.000000000000e+01 -6.000000000000e+00 0.0 
5.000000000000e+01 -7.000000000000e+00 0.0 
5.000000000000e+01 -8.000000000000e+00 0.0 
5.000000000000e+01 -9.000000000000e+00 0.0 
4.900000000000e+01 -1.000000000000e+01 0.0 
4.800000000000e+01 -1.000000000000e+01 0.0 
4.700000000000e+01 -1.000000000000e+01 0.0 
4.600000000000e+01 -1.000000000000e+01 0.0 
4.500000000000e+01 -1.000000000000e+01 0.0 
4.400000000000e+01 -1.000000000000e+01 0.0 
4.300000000000e+01 -1.000000000000e+01 0.0 
4.200000000000e+01 -1.000000000000e+01 0.0 
4.100000000000e+01 -1.000000000000e+01 0.0 
4.000000000000e+01 -1.000000000000e+01 0.0 
3.900000000000e+01 -1.000000000000e+01 0.0 
3.800000000000e+01 -1.000000000000e+01 0.0 
3.700000000000e+01 -1.000000000000e+01 0.0 
3.600000000000e+01 -1.000000000000e+01 0.0 
1.900000000000e+01 0.0 0.0 
1.800000000000e+01 0.0 0.0 
1.700000000000e+01 0.0 0.0 
1.600000000000e+01 0.0 0.0 
1.500000000000e+01 0.0 0.0 
1.400000000000e+01 0.0 0.0 
1.300000000000e+01 0.0 0.0 
1.200000000000e+01 0.0 0.0 
1.100000000000e+01 0.0 0.0 
1.000000000000e+01 0.0 0.0 
9.000000000000e+00 0.0 0.0 
8.000000000000e+00 0.0 0.0 
7.000000000000e+00 0.0 0.0 
6.000000000000e+00 0.0 0.0 
5.000000000000e+00 0.0 0.0 
4.000000000000e+00 0.0 0.0 
3.000000000000e+00 0.0 0.0 
2.000000000000e+00 0.0 0.0 
1.000000000000e+00 0.0 0.0 
2.548076923077e+01 -3.000000000000e+00 0.0 
2.646153846153e+01 -3.000000000000e+00 0.0 
2.744230769230e+01 -3.000000000000e+00 0.0 
2.842307692306e+01 -3.000000000000e+00 0.0 
2.940384615383e+01 -3.000000000000e+00 0.0 
3.038461538459e+01 -3.000000000000e+00 0.0 
3.136538461536e+01 -3.000000000000e+00 0.0 
3.234615384612e+01 -3.000000000000e+00 0.0 
3.332692307687e+01 -3.000000000000e+00 0.0 
3.430769230762e+01 -3.000000000000e+00 0.0 
3.528846153837e+01 -3.000000000000e+00 0.0 
3.626923076912e+01 -3.000000000000e+00 0.0 
3.724999999988e+01 -3.000000000000e+00 0.0 
3.823076923065e+01 -3.000000000000e+00 0.0 
3.921153846143e+01 -3.000000000000e+00 0.0 
4.019230769221e+01 -3.000000000000e+00 0.0 
4.117307692299e+01 -3.000000000000e+00 0.0 
4.215384615377e+01 -3.000000000000e+00 0.0 
4.313461538455e+01 -3.000000000000e+00 0.0 
4.411538461533e+01 -3.000000000000e+00 0.0 
4.509615384611e+01 -3.000000000000e+00 0.0 
4.607692307688e+01 -3.000000000000e+00 0.0 
4.705769230766e+01 -3.000000000000e+00 0.0 
4.803846153844e+01 -3.000000000000e+00 0.0 
4.901923076922e+01 -3.000000000000e+00 0.0 
4.900000000000e+01 -4.000000000000e+00 0.0 
4.800000000000e+01 -4.000000000000e+00 0.0 
4.700000000000e+01 -4.000000000000e+00 0.0 
4.600000000000e+01 -4.000000000000e+00 0.0 
4.500000000000e+01 -4.000000000000e+00 0.0 
4.400000000000e+01 -4.000000000000e+00 0.0 
4.300000000000e+01 -4.000000000000e+00 0.0 
4.200000000000e+01 -4.000000000000e+00 0.0 
4.100000000000e+01 -4.000000000000e+00 0.0 
4.000000000000e+01 -4.000000000000e+00 0.0 
3.900000000000e+01 -4.000000000000e+00 0.0 
3.800000000000e+01 -4.000000000000e+00 0.0 
3.700000000000e+01 -4.000000000000e+00 0.0 
3.600000000000e+01 -4.000000000000e+00 0.0 
3.500000000000e+01 -4.000000000000e+00 0.0 
3.400000000000e+01 -4.000000000000e+00 0.0 
3.300000000000e+01 -4.000000000000e+00 0.0 
3.200000000000e+01 -4.000000000000e+00 0.0 
3.100000000000e+01 -4.000000000000e+00 0.0 
3.000000000000e+01 -4.000000000000e+00 0.0 
2.900000000000e+01 -4.000000000000e+00 0.0 
2.800000000000e+01 -4.000000000000e+00 0.0 
2.700000000000e+01 -4.000000000000e+00 0.0 
2.847826086957e+01 -5.000000000000e+00 0.0 
2.945652173913e+01 -5.000000000000e+00 0.0 
3.043478260870e+01 -5.000000000000e+00 0.0 
3.141304347826e+01 -5.000000000000e+00 0.0 
3.239130434783e+01 -5.000000000000e+00 0.0 
3.336956521739e+01 -5.000000000000e+00 0.0 
3.434782608696e+01 -5.000000000000e+00 0.0 
3.532608695652e+01 -5.000000000000e+00 0.0 
3.630434782609e+01 -5.000000000000e+00 0.0 
3.728260869565e+01 -5.000000000000e+00 0.0 
3.826086956522e+01 -5.000000000000e+00 0.0 
3.923913043478e+01 -5.000000000000e+00 0.0 
4.021739130435e+01 -5.000000000000e+00 0.0 
4.119565217391e+01 -5.000000000000e+00 0.0 
4.217391304348e+01 -5.000000000000e+00 0.0 
4.315217391304e+01 -5.000000000000e+00 0.0 
4.413043478261e+01 -5.000000000000e+00 0.0 
4.510869565217e+01 -5.000000000000e+00 0.0 
4.608695652174e+01 -5.000000000000e+00 0.0 
4.706521739130e+01 -5.000000000000e+00 0.0 
4.804347826087e+01 -5.000000000000e+00 0.0 
4.902173913043e+01 -5.000000000000e+00 0.0 
4.900000000001e+01 -6.000000000000e+00 0.0 
4.800000000003e+01 -6.000000000000e+00 0.0 
4.700000000004e+01 -6.000000000000e+00 0.0 
4.600000000006e+01 -6.000000000000e+00 0.0 
4.500000000007e+01 -6.000000000000e+00 0.0 
4.400000000009e+01 -6.000000000000e+00 0.0 
4.300000000010e+01 -6.000000000000e+00 0.0 
4.200000000012e+01 -6.000000000000e+00 0.0 
4.100000000013e+01 -6.000000000000e+00 0.0 
4.000000000014e+01 -6.000000000000e+00 0.0 
3.900000000014e+01 -6.000000000000e+00 0.0 
3.800000000012e+01 -6.000000000000e+00 0.0 
3.700000000010e+01 -6.000000000000e+00 0.0 
3.600000000008e+01 -6.000000000000e+00 0.0 
3.500000000006e+01 -6.000000000000e+00 0.0 
3.400000000005e+01 -6.000000000000e+00 0.0 
3.300000000003e+01 -6.000000000000e+00 0.0 
3.200000000001e+01 -6.000000000000e+00 0.0 
3.100000000000e+01 -6.000000000000e+00 0.0 
3.000000000000e+01 -6.000000000000e+00 0.0 
3.147499999998e+01 -7.000000000000e+00 0.0 
3.244999999998e+01 -7.000000000000e+00 0.0 
3.342499999998e+01 -7.000000000000e+00 0.0 
3.439999999998e+01 -7.000000000000e+00 0.0 
3.537499999998e+01 -7.000000000000e+00 0.0 
3.634999999998e+01 -7.000000000000e+00 0.0 
3.732499999998e+01 -7.000000000000e+00 0.0 
3.829999999998e+01 -7.000000000000e+00 0.0 
3.927499999999e+01 -7.000000000000e+00 0.0 
4.024999999999e+01 -7.000000000000e+00 0.0 
4.122499999999e+01 -7.000000000000e+00 0.0 
4.219999999999e+01 -7.000000000000e+00 0.0 
4.317499999999e+01 -7.000000000000e+00 0.0 
4.414999999999e+01 -7.000000000000e+00 0.0 
4.512499999999e+01 -7.000000000000e+00 0.0 
4.609999999999e+01 -7.000000000000e+00 0.0 
4.707500000000e+01 -7.000000000000e+00 0.0 
4.805000000000e+01 -7.000000000000e+00 0.0 
4.902500000000e+01 -7.000000000000e+00 0.0 
4.900000000000e+01 -8.000000000000e+00 0.0 
4.800000000000e+01 -8.000000000000e+00 0.0 
4.700000000000e+01 -8.000000000000e+00 0.0 
4.600000000000e+01 -8.000000000000e+00 0.0 
4.500000000000e+01 -8.000000000000e+00 0.0 
4.400000000000e+01 -8.000000000000e+00 0.0 
4.300000000000e+01 -8.000000000000e+00 0.0 
4.200000000000e+01 -8.000000000000e+00 0.0 
4.100000000000e+01 -8.000000000000e+00 0.0 
4.000000000000e+01 -8.000000000000e+00 0.0 
3.900000000000e+01 -8.000000000000e+00 0.0 
3.800000000000e+01 -8.000000000000e+00 0.0 
3.700000000000e+01 -8.000000000000e+00 0.0 
3.600000000000e+01 -8.000000000000e+00 0.0 
3.500000000000e+01 -8.000000000000e+00 0.0 
3.400000000000e+01 -8.000000000000e+00 0.0 
3.300000000000e+01 -8.000000000000e+00 0.0 
3.447058823527e+01 -9.000000000000e+00 0.0 
3.544117647055e+01 -9.000000000000e+00 0.0 
3.641176470582e+01 -9.000000000000e+00 0.0 
3.738235294109e+01 -9.000000000000e+00 0.0 
3.835294117637e+01 -9.000000000000e+00 0.0 
3.932352941164e+01 -9.000000000000e+00 0.0 
4.029411764691e+01 -9.000000000000e+00 0.0 
4.126470588219e+01 -9.000000000000e+00 0.0 
4.223529411748e+01 -9.000000000000e+00 0.0 
4.320588235279e+01 -9.000000000000e+00 0.0 
4.417647058811e+01 -9.000000000000e+00 0.0 
4.514705882342e+01 -9.000000000000e+00 0.0 
4.611764705874e+01 -9.000000000000e+00 0.0 
4.708823529405e+01 -9.000000000000e+00 0.0 
4.805882352937e+01 -9.000000000000e+00 0.0 
4.902941176468e+01 -9.000000000000e+00 0.0 
2.075000000000e+01 -5.000000000006e-01 0.0 
2.225000000000e+01 -1.500000000000e+00 0.0 
2.375000000000e+01 -2.500000000000e+00 0.0 
2.525000000000e+01 -3.500000000000e+00 0.0 
2.675000000000e+01 -4.500000000000e+00 0.0 
2.825000000000e+01 -5.500000000000e+00 0.0 
2.975000000000e+01 -6.500000000000e+00 0.0 
3.125000000000e+01 -7.500000000000e+00 0.0 
3.275000000000e+01 -8.500000000000e+00 0.0 
3.425000000000e+01 -9.500000000000e+00 0.0 
2.226951693683e+01 -2.403913980114e+00 0.0 
1.650149491944e+01 -1.913490915758e+01 0.0 
1.050042386896e+01 -8.504605092970e-01 0.0 
1.553146524712e+01 -8.281255032105e-01 0.0 
1.150000000008e+01 -1.913397459621e+01 0.0 
2.530060260647e+01 -4.428336431260e+00 0.0 
8.651114563942e-01 -1.052096295641e+01 0.0 
2.050000000013e+01 -1.913397459622e+01 0.0 
2.819198729811e+01 -6.399519052838e+00 0.0 
2.445670302931e+01 -1.915649188023e+01 0.0 
3.117591465718e+01 -8.394293040695e+00 0.0 
7.465053044742e+00 -1.920411160581e+01 0.0 
6.398295709691e+00 -8.230098819370e-01 0.0 
2.849659607461e+01 -1.914296187762e+01 0.0 
3.418732642882e+01 -1.040265792588e+01 0.0 
8.386450935063e-01 -6.533605142809e+00 0.0 
9.178661865596e-01 -1.329769195597e+01 0.0 
3.149448624493e+01 -1.910466733764e+01 0.0 
3.552916747426e+01 -1.914628590759e+01 0.0 
4.449210346537e+01 -1.914359085008e+01 0.0 
4.140975975145e+01 -1.906941860733e+01 0.0 
3.847475958753e+01 -1.916622382724e+01 0.0 
3.653774794640e+01 -1.088712800241e+01 0.0 
4.047886341787e+01 -1.090139014048e+01 0.0 
4.348006339825e+01 -1.092792621489e+01 0.0 
4.919519968029e+01 -1.451526755068e+01 0.0 
4.500000000032e+00 -1.913397459621e+01 0.0 
1.856136921614e+01 -8.212235170404e-01 0.0 
3.499895312306e+00 -8.661165539723e-01 0.0 
9.076088696565e-01 -1.642306201891e+01 0.0 
4.655174095477e+01 -1.086183387525e+01 0.0 
9.430688970604e-01 -3.496112672958e+00 0.0 
3.353992337063e+01 -1.901202090820e+01 0.0 
2.249746016977e+01 -1.921262287282e+01 0.0 
2.650122741777e+01 -1.916123026018e+01 0.0 
1.863571384842e+01 -1.908325534840e+01 0.0 
1.450089971693e+01 -1.917691901860e+01 0.0 
1.350044695317e+01 -8.659695299584e-01 0.0 
3.849987469880e+01 -1.084154983397e+01 0.0 
9.454419857884e+00 -1.900818879936e+01 0.0 
4.917398660523e+01 -1.645692866081e+01 0.0 
8.500000000000e+00 -8.660254037844e-01 0.0 
8.660319230785e-01 -8.500111697188e+00 0.0 
4.649022621545e+01 -1.930506220113e+01 0.0 
2.667688107845e+01 -5.420288124331e+00 0.0 
2.379251615665e+01 -3.412225477429e+00 0.0 
2.966631491830e+01 -7.389030232731e+00 0.0 
3.267915035995e+01 -9.396934932445e+00 0.0 
2.074836922338e+01 -1.320054020319e+00 0.0 
4.915985743621e+01 -1.261973384855e+01 0.0 
2.527129768623e+00 -1.931592414663e+01 0.0 
1.538676247410e+00 -8.436956619311e-01 0.0 
4.908096641539e+01 -1.842484004551e+01 0.0 
3.478612492673e+01 -1.090889364140e+01 0.0 
3.409757055860e+01 -1.131991530427e+01 0.0 
3.501895309466e+01 -1.177687842717e+01 0.0 
3.407758073088e+01 -1.224293381580e+01 0.0 
3.484541875390e+01 -1.277051428430e+01 0.0 
3.400322025842e+01 -1.319022775640e+01 0.0 
3.321672625034e+01 -1.266779191233e+01 0.0 
3.315244139236e+01 -1.360984106532e+01 0.0 
3.236335186892e+01 -1.308463225210e+01 0.0 
3.478337442841e+01 -1.372341158982e+01 0.0 
3.230105923633e+01 -1.403023731610e+01 0.0 
3.150954055289e+01 -1.350301767700e+01 0.0 
3.144604792090e+01 -1.444931742516e+01 0.0 
3.065653897123e+01 -1.392357262981e+01 0.0 
3.071897610812e+01 -1.297447031198e+01 0.0 
2.986790411740e+01 -1.339226181535e+01 0.0 
2.993181466745e+01 -1.244703272398e+01 0.0 
2.908023061869e+01 -1.286254537734e+01 0.0 
2.901619051372e+01 -1.380881655279e+01 0.0 
2.822986160390e+01 -1.327695262116e+01 0.0 
2.829453476870e+01 -1.233265343811e+01 0.0 
2.744542905518e+01 -1.274510491105e+01 0.0 
2.751120089246e+01 -1.180368086886e+01 0.0 
2.666218649885e+01 -1.221619339205e+01 0.0 
2.672371209234e+01 -1.127125228527e+01 0.0 
2.587763216302e+01 -1.168539979114e+01 0.0 
2.581165585299e+01 -1.262994410089e+01 0.0 
2.502890882577e+01 -1.209827323619e+01 0.0 
2.509631327757e+01 -1.115492410304e+01 0.0 
2.424662989877e+01 -1.156630981079e+01 0.0 
2.431704046904e+01 -1.062389179334e+01 0.0 
2.346445438728e+01 -1.103427680694e+01 0.0 
2.339382552877e+01 -1.197964871788e+01 0.0 
2.260936050780e+01 -1.144513277642e+01 0.0 
2.268075012022e+01 -1.049911928216e+01 0.0 
2.182525737661e+01 -1.090920811464e+01 0.0 
2.189682319817e+01 -9.961716944568e+00 0.0 
2.104174127792e+01 -1.037266986667e+01 0.0 
2.111304367575e+01 -9.424179358711e+00 0.0 
2.025306185381e+01 -9.832727364719e+00 0.0 
2.018141124247e+01 -1.079140628871e+01 0.0 
1.938594498257e+01 -1.025147354112e+01 0.0 
1.946106490453e+01 -9.288010758448e+00 0.0 
1.858929958352e+01 -9.706319802516e+00 0.0 
1.851540991219e+01 -1.067205988724e+01 0.0 
1.771485303178e+01 -1.012504443115e+01 0.0 
1.764134552256e+01 -1.109360378538e+01 0.0 
1.683745148095e+01 -1.054496365337e+01 0.0 
1.691852964353e+01 -9.582555261178e+00 0.0 
1.603603813062e+01 -1.000160132379e+01 0.0 
1.595824239350e+01 -1.096750698862e+01 0.0 
1.515080624291e+01 -1.041639501931e+01 0.0 
1.523171602559e+01 -9.451711491453e+00 0.0 
1.434621060709e+01 -9.871956467464e+00 0.0 
1.426777178765e+01 -1.083749501371e+01 0.0 
1.345775282374e+01 -1.028803175500e+01 0.0 
1.354103873368e+01 -9.324918457162e+00 0.0 
1.265072018622e+01 -9.742612837270e+00 0.0 
1.257285762070e+01 -1.071557782384e+01 0.0 
1.175874815690e+01 -1.015972324288e+01 0.0 
1.184203019714e+01 -9.193604071377e+00 0.0 
1.094927709905e+01 -9.612103238656e+00 0.0 
1.086938022910e+01 -1.058685085646e+01 0.0 
1.005424098961e+01 -1.002939116380e+01 0.0 
9.977974613295e+00 -1.101324897989e+01 0.0 
1.012915646404e+01 -9.051815821181e+00 0.0 
9.237127782494e+00 -9.471239055559e+00 0.0 
9.308426593771e+00 -8.483376461131e+00 0.0 
8.418806073345e+00 -8.910712374517e+00 0.0 
2.253688464062e+01 -1.239459402279e+01 0.0 
8.495126726666e+00 -7.921646665254e+00 0.0 
9.389727383206e+00 -7.512103628377e+00 0.0 
7.601560812974e+00 -8.349460349344e+00 0.0 
7.525680547759e+00 -9.339736686940e+00 0.0 
7.677888324502e+00 -7.359727833346e+00 0.0 
6.782001206724e+00 -7.788454494773e+00 0.0 
6.858778622885e+00 -6.797338062822e+00 0.0 
2.196596590865e+01 -8.979025665442e+00 0.0 
2.816540108272e+01 -1.422634142353e+01 0.0 
5.961601194403e+00 -7.226824010712e+00 0.0 
6.038171749656e+00 -6.234825887079e+00 0.0 
6.936257279557e+00 -5.805287640737e+00 0.0 
6.115068918323e+00 -5.242109758768e+00 0.0 
3.564391741903e+01 -1.329240553876e+01 0.0 
3.558115605778e+01 -1.425902892003e+01 0.0 
3.645445282201e+01 -1.381970786460e+01 0.0 
3.639744204358e+01 -1.479198128612e+01 0.0 
3.727266909778e+01 -1.435399586226e+01 0.0 
5.216667013081e+00 -5.671788584287e+00 0.0 
3.220697293295e+01 -1.499594545107e+01 0.0 
3.551112158269e+01 -1.523479869250e+01 0.0 
2.836056961467e+01 -1.139032434851e+01 0.0 
2.516730388602e+01 -1.021382726837e+01 0.0 
1.844436907403e+01 -1.164097215196e+01 0.0 
5.885434318740e+00 -8.218694781467e+00 0.0 
5.064071066867e+00 -7.656614643901e+00 0.0 
4.988089103470e+00 -8.649722082718e+00 0.0 
1.079421050408e+01 -1.157014985435e+01 0.0 
9.902420005256e+00 -1.199903342656e+01 0.0 
1.071994252214e+01 -1.255727909771e+01 0.0 
9.826974788171e+00 -1.298659581767e+01 0.0 
1.064607883789e+01 -1.354595476388e+01 0.0 
9.751541265343e+00 -1.397556905071e+01 0.0 
8.932296185869e+00 -1.341553353988e+01 0.0 
8.856399248106e+00 -1.440570715508e+01 0.0 
8.036186803543e+00 -1.384470558472e+01 0.0 
1.057112875118e+01 -1.453516759081e+01 0.0 
1.146582585687e+01 -1.410539926903e+01 0.0 
7.959894480382e+00 -1.483563350928e+01 0.0 
7.138792279156e+00 -1.427465094140e+01 0.0 
7.062506792418e+00 -1.526615385482e+01 0.0 
6.240693558277e+00 -1.470508863040e+01 0.0 
6.316957575451e+00 -1.371212581281e+01 0.0 
5.418183007107e+00 -1.414253605022e+01 0.0 
5.494748364428e+00 -1.314886770603e+01 0.0 
1.756825565873e+01 -1.206433872514e+01 0.0 
1.837565773345e+01 -1.261356468266e+01 0.0 
1.749574831391e+01 -1.303769280014e+01 0.0 
1.830539187332e+01 -1.358828364284e+01 0.0 
1.742278925170e+01 -1.401367746928e+01 0.0 
1.823303007798e+01 -1.456432294258e+01 0.0 
1.734941694138e+01 -1.499213734361e+01 0.0 
1.653760041637e+01 -1.443920312098e+01 0.0 
3.056237977307e+01 -1.487132260174e+01 0.0 
1.866469084762e+01 -8.742953000418e+00 0.0 
1.953669694916e+01 -8.326038909849e+00 0.0 
1.874194303780e+01 -7.780688158966e+00 0.0 
1.961032016741e+01 -7.366854697285e+00 0.0 
1.881715755159e+01 -6.821102209649e+00 0.0 
1.968369797150e+01 -6.407747217358e+00 0.0 
1.889237123259e+01 -5.858375520026e+00 0.0 
1.802038875366e+01 -6.276202618170e+00 0.0 
1.809793837984e+01 -5.307629520489e+00 0.0 
1.721985207997e+01 -5.728242054488e+00 0.0 
1.729850893523e+01 -4.756990819347e+00 0.0 
1.641745664240e+01 -5.174636548624e+00 0.0 
2.495978509456e+01 -1.304406404294e+01 0.0 
1.911567814831e+01 -1.413854250293e+01 0.0 
1.904387332608e+01 -1.511463127723e+01 0.0 
1.992115934240e+01 -1.468788025898e+01 0.0 
7.013706899628e+00 -4.812582868662e+00 0.0 
5.342091874585e+00 -1.513658157269e+01 0.0 
1.139098043784e+01 -1.509488509480e+01 0.0 
1.228151810610e+01 -1.465617481983e+01 0.0 
1.646373110164e+01 -1.541993323337e+01 0.0 
5.293328636712e+00 -4.678385108584e+00 0.0 
1.975965862987e+01 -5.448124345648e+00 0.0 
2.054318374236e+01 -5.992561293251e+00 0.0 
3.721453439063e+01 -1.533216152738e+01 0.0 
3.809302733893e+01 -1.489235527381e+01 0.0 
1.220852788900e+01 -1.565304565230e+01 0.0 
4.394120899730e+00 -5.108397613210e+00 0.0 
8.779354620288e+00 -1.539524721159e+01 0.0 
1.817791047702e+01 -4.338570146253e+00 0.0 
4.518860013839e+00 -1.457343189307e+01 0.0 
4.442712140414e+00 -1.556841391069e+01 0.0 
8.115343466391e+00 -1.285760324283e+01 0.0 
1.985334703171e+01 -1.566478400426e+01 0.0 
2.071953850276e+01 -1.522074243119e+01 0.0 
1.634012953883e+01 -6.154777738301e+00 0.0 
1.553479994708e+01 -5.593730508879e+00 0.0 
1.561265946942e+01 -4.617761762647e+00 0.0 
1.470674212978e+01 -5.064576488228e+00 0.0 
1.464498299883e+01 -6.026514471420e+00 0.0 
1.383271561817e+01 -5.467796261169e+00 0.0 
1.389241253067e+01 -4.504338666645e+00 0.0 
1.301868735463e+01 -4.907185188626e+00 0.0 
1.294514184846e+01 -5.888160903592e+00 0.0 
1.212955968622e+01 -5.328262335277e+00 0.0 
1.220721122383e+01 -4.341264976687e+00 0.0 
1.131324345897e+01 -4.766773516508e+00 0.0 
5.266597955397e+00 -1.613148974258e+01 0.0 
1.737805990867e+01 -3.786677807525e+00 0.0 
3.078438094513e+01 -1.203225297748e+01 0.0 
1.131569882285e+01 -1.608511932110e+01 0.0 
1.728478341782e+01 -1.596017432313e+01 0.0 
3.803465906019e+01 -1.587509751228e+01 0.0 
3.891681276677e+01 -1.543395196905e+01 0.0 
3.897340985302e+01 -1.444710288980e+01 0.0 
3.980095968193e+01 -1.499059496613e+01 0.0 
3.974334598189e+01 -1.597921884150e+01 0.0 
4.062964983717e+01 -1.553518690417e+01 0.0 
4.068729602479e+01 -1.454434445295e+01 0.0 
4.151772679790e+01 -1.508974196007e+01 0.0 
4.157505195739e+01 -1.409694289912e+01 0.0 
4.240699932656e+01 -1.464347955968e+01 0.0 
4.234898051011e+01 -1.563721375790e+01 0.0 
4.323934606035e+01 -1.519082036405e+01 0.0 
4.329740528208e+01 -1.419587509788e+01 0.0 
4.413056841369e+01 -1.474359631875e+01 0.0 
4.418850110108e+01 -1.374786684042e+01 0.0 
4.502219770667e+01 -1.429605103525e+01 0.0 
4.496411937907e+01 -1.529215882720e+01 0.0 
4.490027319897e+00 -4.154167794594e+00 0.0 
1.565080385988e+01 -1.486411982419e+01 0.0 
1.557610691279e+01 -1.584855627870e+01 0.0 
4.195350646612e+00 -8.089117689096e+00 0.0 
4.124027797830e+00 -9.082831955007e+00 0.0 
4.917944318925e+00 -9.643530901533e+00 0.0 
4.020105689502e+00 -1.007439673661e+01 0.0 
4.587185899277e+01 -1.484039992728e+01 0.0 
4.580078661551e+01 -1.584043391042e+01 0.0 
2.061956522375e+01 -5.046701343981e+00 0.0 
2.139572955529e+01 -5.579553449826e+00 0.0 
3.715344357292e+01 -1.631485124583e+01 0.0 
3.618886196443e+00 -1.500471207167e+01 0.0 
3.695606940204e+00 -1.400939692294e+01 0.0 
2.438890661143e+01 -9.686110599723e+00 0.0 
2.523267572778e+01 -9.276766000622e+00 0.0 
2.446094171539e+01 -8.751904591412e+00 0.0 
2.529089822738e+01 -8.321495612547e+00 0.0 
2.606882688827e+01 -8.864724051119e+00 0.0 
2.452116646430e+01 -7.792756462004e+00 0.0 
1.235543269617e+01 -1.365845617339e+01 0.0 
4.318116874181e+01 -1.618567469992e+01 0.0 
7.835066111909e+00 -5.376366223896e+00 0.0 
7.905687335704e+00 -4.382539065697e+00 0.0 
3.542640009567e+00 -1.600035116542e+01 0.0 
1.572431503071e+01 -1.388358386695e+01 0.0 
2.574684696680e+01 -1.357896141127e+01 0.0 
2.488842657651e+01 -1.399674354505e+01 0.0 
2.568301775611e+01 -1.453552048595e+01 0.0 
2.481535572009e+01 -1.495542756508e+01 0.0 
2.561729699688e+01 -1.549784648532e+01 0.0 
2.474623061296e+01 -1.592058894178e+01 0.0 
2.394234041695e+01 -1.537572575827e+01 0.0 
2.065825452567e+01 -1.621899055217e+01 0.0 
2.387180528935e+01 -1.634552264687e+01 0.0 
4.585364400844e+01 -1.383912334080e+01 0.0 
1.998744432052e+01 -1.370317155541e+01 0.0 
1.205356951443e+01 -6.313580285498e+00 0.0 
5.396543905849e+00 -3.731818611283e+00 0.0 
1.139652573295e+01 -3.745819399350e+00 0.0 
3.574124306703e+00 -4.551456826011e+00 0.0 
3.494140761930e+00 -5.539787055649e+00 0.0 
1.213651452413e+01 -1.664505033022e+01 0.0 
2.555045568519e+01 -1.646529356744e+01 0.0 
2.641671114986e+01 -1.603899382371e+01 0.0 
2.612920721894e+01 -7.906435260873e+00 0.0 
2.690339829698e+01 -8.456969591431e+00 0.0 
1.978024383368e+01 -1.664410216353e+01 0.0 
3.732829979082e+01 -1.336926601859e+01 0.0 
4.074336584605e+01 -1.355133328401e+01 0.0 
4.163204691081e+01 -1.310280943992e+01 0.0 
3.773826114429e+00 -3.493444309145e+00 0.0 
1.228783001032e+01 -3.374822835872e+00 0.0 
4.057110462520e+01 -1.652588478000e+01 0.0 
2.132535497898e+01 -6.523623360525e+00 0.0 
2.216932532211e+01 -6.110044769206e+00 0.0 
1.825781152128e+01 -3.370146817147e+00 0.0 
1.745679445888e+01 -2.812942552063e+00 0.0 
4.666517057280e+01 -1.539981381543e+01 0.0 
4.660575894464e+01 -1.639014410186e+01 0.0 
4.838230979954e+00 -1.063643436446e+01 0.0 
3.938942630206e+00 -1.106778981745e+01 0.0 
1.302967218620e+01 -1.621373452436e+01 0.0 
1.049548003190e+01 -4.204825123240e+00 0.0 
4.573571907195e+01 -1.683820511148e+01 0.0 
1.483686335807e+01 -1.430849689310e+01 0.0 
1.490982658890e+01 -1.332679386284e+01 0.0 
3.190805600162e+00 -9.510968358545e+00 0.0 
2.146625721848e+01 -4.642437303115e+00 0.0 
2.069866208266e+01 -4.111852942193e+00 0.0 
1.286859345584e+01 -6.873252723348e+00 0.0 
1.041794493184e+01 -5.194814260291e+00 0.0 
2.671081808965e+00 -4.976806516331e+00 0.0 
1.295786792925e+01 -1.720506531799e+01 0.0 
3.968438206511e+01 -1.696869067241e+01 0.0 
2.308550456051e+01 -1.579963151273e+01 0.0 
2.315593682844e+01 -1.482967445235e+01 0.0 
2.299471449450e+01 -1.677069968132e+01 0.0 
1.057344714696e+01 -3.214252277840e+00 0.0 
1.124057603753e+01 -1.707713739755e+01 0.0 
2.718402535754e+00 -1.543629882103e+01 0.0 
2.638549692805e+01 -1.696744916809e+01 0.0 
2.723416349007e+01 -1.658104204545e+01 0.0 
2.210193351704e+01 -7.046769643417e+00 0.0 
2.295180925161e+01 -6.657397605239e+00 0.0 
2.301355235833e+01 -5.709111896800e+00 0.0 
2.379052718281e+01 -6.254965406962e+00 0.0 
3.243528601237e+01 -1.214181853533e+01 0.0 
2.287977995457e+01 -7.583722368300e+00 0.0 
2.999876029544e+01 -1.150837653096e+01 0.0 
3.084435366963e+01 -1.109693775882e+01 0.0 
3.006650579669e+01 -1.057778994262e+01 0.0 
2.683802665066e+01 -9.386863216633e+00 0.0 
2.768641973621e+01 -8.988883915666e+00 0.0 
2.040296980397e+01 -7.903629133404e+00 0.0 
1.925235024054e+01 -1.218872783130e+01 0.0 
5.735667000424e+00 -1.020577277283e+01 0.0 
6.396559909872e+00 -1.272326295703e+01 0.0 
1.161199420714e+01 -1.212812778229e+01 0.0 
4.229046132615e+01 -1.663084237572e+01 0.0 
4.312275399692e+01 -1.718087491556e+01 0.0 
4.335502068163e+01 -1.320039231514e+01 0.0 
4.424630298089e+01 -1.275160688731e+01 0.0 
7.090116643816e+00 -3.818998061530e+00 0.0 
7.989472176569e+00 -3.389238711200e+00 0.0 
9.085824861778e+00 -1.144036167408e+01 0.0 
1.041972423731e+01 -1.651614080893e+01 0.0 
3.797525112640e+01 -1.686052038746e+01 0.0 
3.709114253394e+01 -1.730125999865e+01 0.0 
3.626966748340e+01 -1.675477052919e+01 0.0 
1.385164591440e+01 -1.677597757552e+01 0.0 
1.787152588784e+01 -8.198993896093e+00 0.0 
1.668849729812e+01 -1.248560611628e+01 0.0 
1.659546177905e+01 -3.232482605530e+00 0.0 
2.332214717345e+01 -1.292598167641e+01 0.0 
7.168238450786e+00 -2.824711686516e+00 0.0 
2.894878403906e+01 -1.475427524446e+01 0.0 
2.646763248247e+00 -1.643270107952e+01 0.0 
3.467431944285e+00 -1.699648837348e+01 0.0 
2.059475877282e+01 -1.719473628526e+01 0.0 
3.333868355437e+01 -1.080596971682e+01 0.0 
2.246451062637e+01 -1.334557761546e+01 0.0 
2.167821896388e+01 -1.280847834858e+01 0.0 
3.089653185767e+01 -1.017198487212e+01 0.0 
3.012604365669e+01 -9.657298805968e+00 0.0 
2.929627299435e+01 -1.006100135274e+01 0.0 
2.936201435219e+01 -9.136748899251e+00 0.0 
1.198219052702e+01 -7.291887238230e+00 0.0 
1.116702076035e+01 -6.731976101053e+00 0.0 
2.551388807505e+01 -1.746927036981e+01 0.0 
2.378639090370e+01 -1.728678807149e+01 0.0 
2.718543627188e+01 -1.748668016909e+01 0.0 
2.804681050301e+01 -1.712626668293e+01 0.0 
1.970737034667e+01 -1.762317646822e+01 0.0 
1.889535776135e+01 -1.707158098231e+01 0.0 
2.593777711283e+00 -5.971157087874e+00 0.0 
2.773468281110e+01 -8.067164273938e+00 0.0 
4.051205884347e+01 -1.751819982458e+01 0.0 
3.166903145421e+01 -1.068032992414e+01 0.0 
1.033042452886e+01 -1.748285844336e+01 0.0 
9.519274604626e+00 -1.694349240233e+01 0.0 
1.668308673328e+01 -2.255861778986e+00 0.0 
1.570531902832e+01 -2.676795860126e+00 0.0 
4.655826903379e+01 -1.736656245706e+01 0.0 
2.384148070773e+01 -5.328744256413e+00 0.0 
2.460255123641e+01 -5.852182672816e+00 0.0 
2.306638135119e+01 -4.798935440613e+00 0.0 
8.467720450578e-01 -1.849576263072e+01 0.0 
4.849657322345e+01 -1.084860705506e+01 0.0 
2.565860899507e+00 -1.742859793981e+01 0.0 
2.764418872564e+01 -9.927142821799e+00 0.0 
4.565165880064e+01 -1.785336695404e+01 0.0 
2.162231831329e+01 -1.376528337468e+01 0.0 
2.360646352969e+01 -9.136041963102e+00 0.0 
1.392738739903e+01 -1.578285505772e+01 0.0 
4.756405947478e+01 -1.683706841809e+01 0.0 
4.740895034054e+01 -1.793766756892e+01 0.0 
4.080779328826e+01 -1.257387192544e+01 0.0 
4.168907939671e+01 -1.210739129181e+01 0.0 
3.991197722154e+01 -1.300815793917e+01 0.0 
1.905536506762e+01 -3.940076697685e+00 0.0 
1.923879596617e+01 -2.875000734166e+00 0.0 
4.401386745746e+01 -1.673483229438e+01 0.0 
4.247233362525e+00 -7.094581653070e+00 0.0 
3.286051630211e+00 -7.635300020553e+00 0.0 
9.609533347623e+00 -4.594311677967e+00 0.0 
9.523554636369e+00 -5.595597029530e+00 0.0 
5.660336628893e+00 -1.119290329628e+01 0.0 
6.558070063295e+00 -1.076385809362e+01 0.0 
2.809866407414e+01 -1.518037766799e+01 0.0 
2.888868674504e+01 -1.570360690070e+01 0.0 
2.654431550819e+01 -1.411217777162e+01 0.0 
1.402158265969e+01 -1.375404617952e+01 0.0 
1.409592494026e+01 -1.277071998942e+01 0.0 
1.499355196178e+01 -1.235270737023e+01 0.0 
4.221535326155e+01 -1.759335617494e+01 0.0 
4.305583287033e+01 -1.822663146802e+01 0.0 
1.280748808359e+01 -7.834332838285e+00 0.0 
1.368988389326e+01 -7.420529606172e+00 0.0 
1.110091796060e+01 -7.683966794328e+00 0.0 
3.963446145980e+01 -1.794331310122e+01 0.0 
3.423932362213e+00 -1.796415590455e+01 0.0 
4.280814572302e+00 -1.752272834860e+01 0.0 
8.050136380041e+00 -2.421582378631e+00 0.0 
8.888674091650e+00 -2.984264211327e+00 0.0 
2.152839430898e+01 -3.732609965436e+00 0.0 
2.077799585292e+01 -3.183896021866e+00 0.0 
3.618719395821e+01 -1.770276572576e+01 0.0 
3.538165138340e+01 -1.718709995539e+01 0.0 
3.702925326420e+01 -1.828844288807e+01 0.0 
1.756739438711e+00 -5.353284859169e+00 0.0 
2.233710191104e+01 -1.527265621324e+01 0.0 
1.389483555057e+01 -1.771797164730e+01 0.0 
1.475634224300e+01 -1.728357428390e+01 0.0 
1.298797563052e+01 -1.825968924755e+01 0.0 
2.145331271866e+01 -1.673705379077e+01 0.0 
2.133282821169e+01 -1.769400773673e+01 0.0 
2.292139194136e+01 -1.774915400288e+01 0.0 
1.750750053243e+01 -1.861475593469e+00 0.0 
4.830478841772e+01 -1.752611802221e+01 0.0 
4.341203507805e+01 -1.220326745522e+01 0.0 
1.685254151866e+01 -1.443085301632e+00 0.0 
4.431538535165e+01 -1.171841387375e+01 0.0 
4.511308610496e+01 -1.229557320599e+01 0.0 
4.510133242889e+01 -1.123680627466e+01 0.0 
1.846818030617e+00 -4.410877617069e+00 0.0 
3.995468694584e+01 -1.186571542989e+01 0.0 
3.901387459804e+01 -1.242507616755e+01 0.0 
8.966735877533e+00 -1.837818700423e+00 0.0 
4.049310011091e+01 -1.848269508791e+01 0.0 
7.278862053803e+00 -1.918523922691e+00 0.0 
6.429715522129e+00 -2.316676521184e+00 0.0 
9.443505505022e+00 -1.792198868094e+01 0.0 
8.620386951051e+00 -1.737590365556e+01 0.0 
8.571868171503e+00 -1.834436667826e+01 0.0 
7.758629848526e+00 -1.775677907213e+01 0.0 
7.806648388584e+00 -1.680761266021e+01 0.0 
6.908555145436e+00 -1.723746463044e+01 0.0 
4.251709122090e+01 -1.156937480156e+01 0.0 
6.931136405615e+00 -1.832465719263e+01 0.0 
6.015545461353e+00 -1.768865355295e+01 0.0 
5.960535926343e+00 -1.872011001764e+01 0.0 
3.023253444786e+01 -8.761960642196e+00 0.0 
2.454622702599e+01 -6.749421992767e+00 0.0 
2.537499741604e+01 -6.347634963783e+00 0.0 
2.544077378460e+01 -5.431358513649e+00 0.0 
2.801367161747e+01 -1.820907270221e+01 0.0 
2.884507806914e+01 -1.762032095326e+01 0.0 
1.821474531936e+00 -1.588901260460e+01 0.0 
1.821006262604e+00 -1.489370287756e+01 0.0 
4.599962488908e+01 -1.176478780598e+01 0.0 
4.705457470007e+01 -1.172182804229e+01 0.0 
4.667668314802e+01 -1.263464558483e+01 0.0 
4.759648056504e+01 -1.252380987933e+01 0.0 
4.728041618103e+01 -1.341928568376e+01 0.0 
4.825209352360e+01 -1.330491640804e+01 0.0 
4.778118233428e+01 -1.420151961695e+01 0.0 
2.388192727579e+01 -1.826934810142e+01 0.0 
2.381714684947e+01 -4.385917965223e+00 0.0 
3.172733219247e+01 -9.758744265248e+00 0.0 
1.882012070658e+01 -1.805540597212e+01 0.0 
1.805667505243e+01 -1.742221226236e+01 0.0 
2.852599958080e+01 -8.597196079481e+00 0.0 
2.856486123437e+01 -7.661382718527e+00 0.0 
1.111792842875e+01 -1.818223852980e+01 0.0 
2.203322722466e+01 -7.986646678802e+00 0.0 
3.955703676900e+01 -1.903246763601e+01 0.0 
1.944842206513e+01 -8.038750575182e-01 0.0 
1.909882767783e+01 -1.746322740933e+00 0.0 
2.281147422941e+01 -8.525912918334e+00 0.0 
2.850633001468e+01 -9.533271335986e+00 0.0 
2.532883344309e+01 -7.308951659710e+00 0.0 
2.620475466461e+01 -6.979208585400e+00 0.0 
1.396278270396e+01 -1.475095389807e+01 0.0 
9.791001166724e+00 -2.554159793552e+00 0.0 
2.229293380421e+01 -4.269762271052e+00 0.0 
4.677238984118e+01 -1.430071795514e+01 0.0 
2.228658385918e+01 -3.344747535984e+00 0.0 
8.940223674553e-01 -1.543595733415e+01 0.0 
2.118566862474e+01 -8.435876987696e+00 0.0 
2.678325936437e+01 -1.032621195706e+01 0.0 
2.223400220487e+01 -5.179046761770e+00 0.0 
2.375370625384e+01 -7.251580562134e+00 0.0 
3.156971327386e+01 -1.255534750737e+01 0.0 
3.328226391312e+01 -1.172914813316e+01 0.0 
3.250948774219e+01 -1.120157009348e+01 0.0 
2.032993445717e+01 -8.867880112202e+00 0.0 
2.697226974856e+01 -7.536633082045e+00 0.0 
2.707377810386e+01 -6.590835263295e+00 0.0 
2.914099246827e+01 -1.191678458549e+01 0.0 
3.544824072239e+01 -1.621126558525e+01 0.0 
3.456511855436e+01 -1.665054783843e+01 0.0 
3.448395810225e+01 -1.759117813016e+01 0.0 
3.368378673938e+01 -1.708037781328e+01 0.0 
3.375560452567e+01 -1.610973066913e+01 0.0 
3.288001547988e+01 -1.654324255651e+01 0.0 
3.282475929147e+01 -1.749725654692e+01 0.0 
3.199880906313e+01 -1.697294088625e+01 0.0 
3.197001272932e+01 -1.811667776864e+01 0.0 
3.111884713021e+01 -1.742166785755e+01 0.0 
3.120418962865e+01 -1.642155709385e+01 0.0 
3.034666704371e+01 -1.683123833816e+01 0.0 
3.026224379976e+01 -1.772592851714e+01 0.0 
3.046632362943e+01 -1.582232843075e+01 0.0 
1.961344017324e+01 -1.857459447985e+01 0.0 
2.274975894774e+01 -9.532738811922e+00 0.0 
1.833923246887e+01 -2.396746883672e+00 0.0 
1.988859500848e+01 -2.249244376594e+00 0.0 
2.758045562861e+01 -1.086434261689e+01 0.0 
3.247300178163e+01 -1.909930104252e+01 0.0 
3.461947482503e+01 -1.911879848019e+01 0.0 
2.047161538662e+01 -6.941478180358e+00 0.0 
2.750230940214e+01 -1.915490590764e+01 0.0 
3.165081350803e+01 -1.161860780120e+01 0.0 
1.897456727641e+01 -4.889634688522e+00 0.0 
2.549338539756e+01 -1.914858252089e+01 0.0 
3.462873135081e+01 -1.567482276144e+01 0.0 
3.384432415243e+01 -1.512280684518e+01 0.0 
3.471433767690e+01 -1.469086942990e+01 0.0 
3.651470373046e+01 -1.918207952149e+01 0.0 
3.901742690249e+01 -1.345028556517e+01 0.0 
2.153224102692e+01 -1.920169709333e+01 0.0 
1.918382939341e+01 -1.316226275662e+01 0.0 
2.005389162382e+01 -1.271962165174e+01 0.0 
2.011472087878e+01 -1.175029352900e+01 0.0 
3.210679478412e+01 -1.598038618242e+01 0.0 
1.752175226543e+01 -1.914713022656e+01 0.0 
1.696897240059e+01 -1.832772588765e+01 0.0 
1.599682523337e+01 -1.832599992024e+01 0.0 
1.644507199462e+01 -1.743697981535e+01 0.0 
1.549987712903e+01 -1.915192375101e+01 0.0 
3.050250861901e+01 -1.918943550234e+01 0.0 
2.949944061527e+01 -1.922950455235e+01 0.0 
1.375892575273e+01 -6.447160534926e+00 0.0 
1.457223670180e+01 -7.006709243857e+00 0.0 
1.450818793236e+01 -7.965943451779e+00 0.0 
1.538804712402e+01 -7.553409623699e+00 0.0 
1.545817644768e+01 -6.580929593419e+00 0.0 
1.626506893751e+01 -7.129032608911e+00 0.0 
1.619833811522e+01 -8.086588580887e+00 0.0 
1.714448609609e+01 -6.697429609777e+00 0.0 
2.887616543568e+01 -1.668015232137e+01 0.0 
1.349814589130e+01 -1.918225301544e+01 0.0 
1.153887772210e+01 -1.311384581217e+01 0.0 
1.242708159886e+01 -1.267046795531e+01 0.0 
1.249799674267e+01 -1.169005616014e+01 0.0 
6.631723893693e+00 -9.774184881867e+00 0.0 
7.451471631867e+00 -1.033148796006e+01 0.0 
7.377795355458e+00 -1.132196345268e+01 0.0 
5.810931797536e+00 -9.211654212252e+00 0.0 
2.402683899133e+01 -1.441378562320e+01 0.0 
1.249768692036e+01 -1.917388426624e+01 0.0 
1.580373499437e+01 -1.290751860664e+01 0.0 
8.344650507834e+00 -9.898403995170e+00 0.0 
3.750622115305e+01 -1.086526401533e+01 0.0 
3.699391251667e+01 -1.171695900794e+01 0.0 
3.606517829518e+01 -1.173717504500e+01 0.0 
3.650257641795e+01 -1.270047380221e+01 0.0 
3.808951488918e+01 -1.183518714175e+01 0.0 
4.760380962420e+00 -1.162484888315e+01 0.0 
3.861210370848e+00 -1.205657631736e+01 0.0 
3.038284309476e+00 -1.149851280664e+01 0.0 
2.961598794889e+00 -1.248856794980e+01 0.0 
2.138953225512e+00 -1.193212674534e+01 0.0 
2.227383593457e+00 -1.096258903918e+01 0.0 
2.043265419276e+00 -1.292158472959e+01 0.0 
1.252449446028e+00 -1.225502002753e+01 0.0 
3.949985210740e+01 -1.086594001795e+01 0.0 
1.453499444792e+01 -8.768805922472e-01 0.0 
1.403518950933e+01 -1.749965556633e+00 0.0 
1.300715031023e+01 -1.714737233040e+00 0.0 
1.350929389899e+01 -2.527443911291e+00 0.0 
1.449600910711e+01 -2.595486162864e+00 0.0 
1.395693872901e+01 -3.484211041558e+00 0.0 
1.495105865208e+01 -3.364609636216e+00 0.0 
1.508822528740e+01 -1.766586020494e+00 0.0 
1.250223858430e+01 -8.634590186802e-01 0.0 
1.200279523409e+01 -1.709044504992e+00 0.0 
1.150086239419e+01 -8.592789190668e-01 0.0 
1.101482754194e+01 -1.677730591922e+00 0.0 
1.148018564526e+01 -2.659323866909e+00 0.0 
8.800552119754e+00 -3.989875954728e+00 0.0 
3.452790439430e+00 -1.901136170646e+01 0.0 
8.658451825200e-01 -9.503462241795e+00 0.0 
1.694787786797e+00 -9.000589234502e+00 0.0 
1.703436717094e+00 -8.038819004041e+00 0.0 
2.594197971110e+00 -8.563955242845e+00 0.0 
1.630513735412e+00 -9.907244747511e+00 0.0 
8.566859292791e-01 -7.512203837972e+00 0.0 
1.685461277022e+00 -7.164280248030e+00 0.0 
2.506394468801e+00 -8.623386730818e-01 0.0 
2.007475081581e+00 -1.727729545205e+00 0.0 
9.211534699767e-01 -1.628791366312e+00 0.0 
1.500000000020e+00 -2.598063549486e+00 0.0 
2.482078929963e+00 -2.553580088725e+00 0.0 
2.999795253092e+00 -1.732169015019e+00 0.0 
3.999712607169e+00 -1.728832897453e+00 0.0 
4.499752199340e+00 -8.656478679175e-01 0.0 
4.964377774841e+00 -1.730129617941e+00 0.0 
4.425017908337e+00 -2.597541756243e+00 0.0 
5.446573195014e+00 -8.410144840023e-01 0.0 
4.915722346614e+01 -1.550640962770e+01 0.0 
4.826794919243e+01 -1.600000000000e+01 0.0 
1.053139533193e+01 -1.911782884365e+01 0.0 
4.156049861949e+01 -1.095160998589e+01 0.0 
9.494526624416e+00 -8.650570090219e-01 0.0 
4.555762166964e+01 -1.897098103585e+01 0.0 
4.250656411371e+01 -1.914387356218e+01 0.0 
4.350906466345e+01 -1.917234727395e+01 0.0 
8.759665722424e-01 -1.746422130609e+01 0.0 
1.698936011838e+00 -1.795012186674e+01 0.0 
4.742476811029e+01 -1.900090177972e+01 0.0 
7.749196752349e+00 -6.368049313489e+00 0.0 
3.361572113416e+01 -1.798765193915e+01 0.0 
4.484660149212e+01 -1.728661231383e+01 0.0 
1.984038172228e+01 -4.502575320116e+00 0.0 
1.035080352627e+01 -6.166639575753e+00 0.0 
2.753558010652e+00 -1.444909521181e+01 0.0 
7.217069543032e+00 -1.328635391078e+01 0.0 
4.364336727739e+00 -1.655585677381e+01 0.0 
4.595208426108e+00 -1.357919665443e+01 0.0 
6.164967006980e+00 -1.569873454630e+01 0.0 
1.487855768353e+01 -1.826523774028e+01 0.0 
2.791876456372e+00 -4.019632415181e+00 0.0 
4.246464893515e+01 -1.364898659620e+01 0.0 
4.503855590351e+01 -1.329552780944e+01 0.0 
4.407239109604e+01 -1.573900004093e+01 0.0 
5.141054449252e+00 -6.664290382472e+00 0.0 
3.141083947149e+00 -1.055790764912e+01 0.0 
6.196463198741e+00 -4.256497932609e+00 0.0 
2.599618716181e+01 -1.836893455464e+01 0.0 
2.923057372337e+01 -1.098461757645e+01 0.0 
1.168343877486e+01 -1.114079645041e+01 0.0 
6.706222096238e+00 -8.780364234441e+00 0.0 
8.567858614669e+00 -6.943121440850e+00 0.0 
1.123755132901e+01 -5.753525820030e+00 0.0 
2.353456234423e+01 -1.008536320953e+01 0.0 
9.162073319168e+00 -1.045593739109e+01 0.0 
9.676343469685e+00 -1.496493008366e+01 0.0 
4.490637882905e+01 -1.628778970202e+01 0.0 
7.398129387772e+00 -9.639977982323e-01 0.0 
1.049641705805e+01 -1.552503975272e+01 0.0 
9.010356286268e+00 -1.242805042052e+01 0.0 
3.985573925497e+01 -1.399863651620e+01 0.0 
1.816196318262e+01 -1.554066497931e+01 0.0 
1.306332244168e+01 -3.963646550326e+00 0.0 
4.145850903932e+01 -1.608094559275e+01 0.0 
3.794664933633e+01 -1.779020121986e+01 0.0 
3.819614412903e+01 -1.290749321016e+01 0.0 
6.270014188119e+00 -3.255093186826e+00 0.0 
4.251165370388e+01 -1.263870364997e+01 0.0 
1.207347709171e+01 -1.763942826023e+01 0.0 
3.633240829927e+01 -1.577330481104e+01 0.0 
4.319052668832e+00 -6.101812561904e+00 0.0 
1.676492415806e+01 -1.151547901392e+01 0.0 
2.594059220037e+01 -1.074225223009e+01 0.0 
3.340750911501e+01 -9.898764354137e+00 0.0 
4.397619591281e+01 -1.769773736461e+01 0.0 
2.175611595028e+01 -1.185718747128e+01 0.0 
1.641818733106e+01 -1.640685203215e+01 0.0 
1.661211421753e+01 -1.346121366338e+01 0.0 
3.428853504935e+00 -6.551993389271e+00 0.0 
8.700728832502e+00 -1.638460872825e+01 0.0 
1.931369795309e+01 -1.121629383702e+01 0.0 
4.139798872363e+01 -1.706922153459e+01 0.0 
2.647837478700e+01 -1.507353829290e+01 0.0 
1.779469616424e+01 -9.161615782908e+00 0.0 
3.885879219319e+01 -1.642026488918e+01 0.0 
1.338194936770e+01 -1.125916521471e+01 0.0 
1.897071181111e+01 -1.609204322578e+01 0.0 
2.844308548793e+01 -1.046221003096e+01 0.0 
2.659854702194e+01 -1.316109415760e+01 0.0 
2.979604503271e+01 -1.433296157755e+01 0.0 
2.417694041347e+01 -1.251231397779e+01 0.0 
1.807401327411e+00 -1.388891148480e+01 0.0 
9.599810618782e+00 -1.595439365034e+01 0.0 
1.652144692160e+01 -4.205392788472e+00 0.0 
2.367839450246e+01 -8.188385218643e+00 0.0 
3.814894930468e+01 -1.390748338767e+01 0.0 
2.466448215774e+01 -1.685878545680e+01 0.0 
4.134044524611e+01 -1.806610045954e+01 0.0 
2.600511411958e+01 -9.801774120648e+00 0.0 
7.882158050716e+00 -1.582364037353e+01 0.0 
3.881607873422e+01 -1.737970515013e+01 0.0 
8.270182347708e+00 -1.088622154920e+01 0.0 
8.672520392520e-01 -4.532984309881e+00 0.0 
1.993447205337e+01 -3.579061902667e+00 0.0 
1.794616079549e+01 -7.238038888498e+00 0.0 
2.097277068165e+01 -1.132450168636e+01 0.0 
8.194803300681e+00 -1.187214224265e+01 0.0 
3.522279404911e+01 -1.823342818178e+01 0.0 
6.984481050295e+00 -1.625271465557e+01 0.0 
1.309433007797e+01 -1.521718594215e+01 0.0 
2.150246167611e+01 -1.885399038185e+00 0.0 
3.250689370209e+01 -1.028789870535e+01 0.0 
6.085886272238e+00 -1.668342132851e+01 0.0 
1.588455661727e+01 -1.193498985921e+01 0.0 
1.809323400821e+01 -1.651110084195e+01 0.0 
1.348885082381e+00 -1.136065576512e+01 0.0 
2.497670221995e+01 -1.834631276173e+01 0.0 
2.937062818424e+01 -8.233711194470e+00 0.0 
5.185823744469e+00 -1.711566910207e+01 0.0 
1.477497877209e+01 -1.530177014512e+01 0.0 
2.125346158933e+01 -7.473003997367e+00 0.0 
4.751561118290e+01 -1.084897772632e+01 0.0 
5.056026576843e+00 -1.825750475525e+01 0.0 
1.473948554523e+01 -1.634577436309e+01 0.0 
2.410566630936e+01 -1.345970002612e+01 0.0 
1.507337507513e+01 -1.138527895328e+01 0.0 
3.189857338687e+01 -8.887781229006e+00 0.0 
7.298712468334e+00 -1.230231046246e+01 0.0 
2.738235495295e+01 -1.368931690364e+01 0.0 
3.750141041969e+01 -1.920449893070e+01 0.0 
1.557271965640e+01 -1.683317951731e+01 0.0 
3.393731848929e+01 -1.413034777044e+01 0.0 
6.482156824153e+00 -1.174575135362e+01 0.0 
2.077971718439e+01 -1.421279621836e+01 0.0 
3.455084320178e+00 -2.562590040585e+00 0.0 
3.099056096250e+01 -9.270280416035e+00 0.0 
5.580176125418e+00 -1.217387969259e+01 0.0 
1.707247630389e+01 -7.660651981710e+00 0.0 
1.418658814174e+01 -1.180390575393e+01 0.0 
2.049103025389e+01 -1.811296706038e+01 0.0 
4.680386172316e+00 -1.260396879301e+01 0.0 
1.699679896554e+01 -8.624561788199e+00 0.0 
3.779470168555e+00 -1.303424899720e+01 0.0 
3.036589870126e+01 -7.879832518349e+00 0.0 
3.306993001774e+01 -1.457671062095e+01 0.0 
2.840150110165e+00 -1.346530088269e+01 0.0 
2.732011135052e+01 -1.464591214560e+01 0.0 
5.423639259568e+00 -2.659711955016e+00 0.0 
2.324455961696e+01 -1.387269388211e+01 0.0 
1.752768355571e+00 -1.693128613594e+01 0.0 
1.020244783051e+01 -8.076834012808e+00 0.0 
1.330873875224e+01 -1.222417528206e+01 0.0 
3.297727364880e+01 -1.555480372087e+01 0.0 
2.890929955439e+01 -6.868664170731e+00 0.0 
1.323294664622e+01 -1.320754260334e+01 0.0 
2.726532861246e+01 -1.560593120806e+01 0.0 
2.240020643398e+01 -1.429299177247e+01 0.0 
2.090445823633e+01 -1.228128621332e+01 0.0 
1.315809881502e+01 -1.420739326938e+01 0.0 
2.781328038068e+01 -7.181956082300e+00 0.0 
8.614200829057e+00 -5.936933226306e+00 0.0 
8.714765730069e+00 -4.979270529687e+00 0.0 
1.611881701099e+01 -9.041973294003e+00 0.0 
2.806830314340e+01 -1.614622947108e+01 0.0 
2.084435391396e+00 -3.385085422913e+00 0.0 
3.133211811152e+01 -1.542347619750e+01 0.0 
9.693114650768e+00 -3.590281506442e+00 0.0 
1.531883592202e+01 -8.504584946143e+00 0.0 
2.151589117094e+01 -1.578915763018e+01 0.0 
4.918943882696e+01 -1.355538828056e+01 0.0 
1.443236615188e+01 -8.918701794549e+00 0.0 
8.276250966452e-01 -5.537685192197e+00 0.0 
1.362790867918e+01 -8.374718262212e+00 0.0 
2.083767477370e+01 -1.324843956035e+01 0.0 
1.273834678703e+01 -8.790890389337e+00 0.0 
1.192275845670e+01 -8.242261327467e+00 0.0 
4.477236023583e+01 -1.824312396664e+01 0.0 
1.102989384254e+01 -8.649855800911e+00 0.0 
4.849096516045e+01 -1.917293752213e+01 0.0 
1.588996752238e+00 -1.910230934687e+01 0.0 
4.904245197583e+01 -1.159839008158e+01 0.0 
2.753852929608e+01 -5.782128488093e+00 0.0 
1.756133602833e+01 -8.306130313187e-01 0.0 
2.615423700951e+01 -6.153865090092e+00 0.0 
1.028818761294e+01 -7.122020845892e+00 0.0 
2.970818901196e+01 -1.527821347593e+01 0.0 
4.801461623449e+01 -1.164472570985e+01 0.0 
9.455722100419e+00 -6.546069291118e+00 0.0 
3.089099236677e+01 -1.835339328261e+01 0.0 
2.350000000013e+01 -1.920825896750e+01 0.0 
4.830620531887e+01 -1.506626155470e+01 0.0 
1.725381944701e+01 -1.688794487850e+01 0.0 
2.156246225273e+01 -1.475893794002e+01 0.0 
4.919319648787e+01 -1.742767505896e+01 0.0 
4.437935623576e+01 -1.077662927266e+01 0.0 
1.001520521978e+01 -1.652692675208e+00 0.0 
9.067160240050e-01 -1.441937727541e+01 0.0 
2.603365149390e+01 -4.755996613848e+00 0.0 
2.458344439002e+01 -4.873645517696e+00 0.0 
2.304312390142e+01 -3.836552768096e+00 0.0 
2.546923202198e+00 -6.902480355749e+00 0.0 
1.251534969393e+01 -2.490989965776e+00 0.0 
2.454061833377e+01 -3.933354231935e+00 0.0 
1.788186558740e+01 -1.827424884923e+01 0.0 
4.090785243552e+01 -1.166553231904e+01 0.0 
2.230128851568e+01 -1.623015738726e+01 0.0 
2.302362347568e+01 -2.916239960270e+00 0.0 
3.878119254461e+01 -1.830091164002e+01 0.0 
2.210081359958e+01 -1.829238229150e+01 0.0 
8.443704882233e+00 -1.921993252862e+01 0.0 
2.218405824691e+01 -1.724557581508e+01 0.0 
2.151157503963e+01 -2.790636689331e+00 0.0 
3.741658958955e+01 -1.250400191722e+01 0.0 
2.697247663737e+01 -1.838290202309e+01 0.0 
4.743362342862e+01 -1.585850773010e+01 0.0 
6.671345075358e+00 -1.924977576322e+01 0.0 
3.900825404537e+01 -1.157220003875e+01 0.0 
4.649692961375e+01 -1.836335837481e+01 0.0 
1.578831424832e+01 -3.678284023361e+00 0.0 
4.814208768888e+01 -1.841249298770e+01 0.0 
2.964123298315e+01 -1.625739458193e+01 0.0 
4.580760351902e+01 -1.284294554687e+01 0.0 
3.561520879615e+01 -1.245548941949e+01 0.0 
2.555418095658e+00 -1.841101588290e+01 0.0 
3.288468366144e+01 -1.834258164109e+01 0.0 
2.065894391445e+01 -2.240688571739e+00 0.0 
4.739171429915e+01 -1.496536413446e+01 0.0 
3.478086729185e+00 -8.576434653209e+00 0.0 
1.606010630246e+01 -1.588421807951e+00 0.0 
1.018329200594e+01 -1.834320874317e+01 0.0 
2.957213339430e+01 -1.720496954591e+01 0.0 
4.142712790164e+00 -1.837794506222e+01 0.0 
6.698721532573e-01 -2.499999999997e+00 0.0 
8.037039123140e+00 -1.571229354954e+00 0.0 
1.203541361428e+01 -1.847784298001e+01 0.0 
2.899968332038e+01 -1.848264722179e+01 0.0 
1.469229460948e+01 -4.219485753730e+00 0.0 
4.049590781957e+01 -1.932812501995e+01 0.0 
1.996211678340e+01 -1.506329754720e+00 0.0 
4.250588298353e+01 -1.067383247529e+01 0.0 
5.831497011152e+00 -1.635396227234e+00 0.0 
5.317606125670e+00 -1.923927974868e+01 0.0 
4.208546426993e+01 -1.842830665025e+01 0.0 
2.327553405011e+00 -9.459409929662e+00 0.0 
3.568351902251e+01 -1.096637218582e+01 0.0 
1.682104374890e+00 -6.231413350963e+00 0.0 
2.451812238018e+01 -1.766524914339e+01 0.0 
1.058003429638e+01 -2.391839617098e+00 0.0 
4.399988753123e+01 -1.851998776342e+01 0.0 
1.400000000010e+01 -1.852293523028e+01 0.0 
3.604719565984e+01 -1.850662876800e+01 0.0 
1.951297136734e+01 -1.938092349694e+01 0.0 
1.821365318472e+01 -1.531276353287e+00 0.0 
2.298031859732e+01 -1.854635324722e+01 0.0 
1.552168066204e+01 -1.764280741977e+01 0.0 
4.572957713638e+01 -1.073347898229e+01 0.0 
3.429637429624e+01 -1.838861552790e+01 0.0 
2.427434426052e+00 -7.705577451869e+00 0.0 
4.662792031485e+00 -3.359424455416e+00 0.0 
4.926794919243e+01 -1.926794919243e+01 0.0 
7.320508075690e-01 -7.320508075688e-01 0.0 
4.926794919243e+01 -1.073205080757e+01 0.0 
7.320508075705e-01 -1.926794919243e+01 0.0 
2.917460242467e+00 -3.202866455310e+00 0.0 
4.838200575963e+01 -1.232674147454e+01 0.0 
2.998445708009e+01 -1.854403752148e+01 0.0 
5.949940090766e-01 -1.152762038165e+01 0.0 
4.844763495759e+01 -1.678092548787e+01 0.0 
1.301685480160e+01 -3.170056592566e+00 0.0 
1.650046335855e+01 -6.731535384067e-01 0.0 
4.854881540991e+01 -1.405224059779e+01 0.0 
2.119545114693e+01 -1.846813384545e+01 0.0 
3.797852849897e+01 -1.857978513215e+01 0.0 
4.649823708745e+01 -1.338351810816e+01 0.0 
2.012685900976e+01 -2.889659035009e+00 0.0 
2.953271913273e+01 -1.791558075192e+01 0.0 
2.408509097292e+00 -1.021949208421e+01 0.0 
2.642589566221e+01 -1.773216561448e+01 0.0 
1.730010270775e+01 -1.763165076721e+01 0.0 
2.017406551304e+01 -8.513536440582e-01 0.0 
5.254761581934e-01 -1.249999999999e+01 0.0 
6.640448215642e+00 -1.545337834885e+00 0.0 
7.843361506349e+00 -1.852719839527e+01 0.0 
1.588442191088e+00 -1.066158564320e+01 0.0 
2.580823483239e+01 -3.416278049680e+00 0.0 
4.950961538461e+01 -3.500000000000e+00 0.0 
2.731250000000e+01 -4.420918367347e+00 0.0 
4.951086956522e+01 -4.500000000000e+00 0.0 
2.880770112393e+01 -5.415638864241e+00 0.0 
4.951086956522e+01 -5.500000000000e+00 0.0 
3.031250000000e+01 -6.420918367347e+00 0.0 
4.951250000000e+01 -6.500000000000e+00 0.0 
3.180701530612e+01 -7.414795918363e+00 0.0 
4.951250000000e+01 -7.500000000000e+00 0.0 
3.331250000000e+01 -8.420918367347e+00 0.0 
4.951470588234e+01 -8.500000000000e+00 0.0 
3.480610198624e+01 -9.413633635267e+00 0.0 
4.951470588234e+01 -9.500000000000e+00 0.0 

CELLS 2241 8964 
3 328 798 1074 
3 798 328 1076 
3 808 301 819 
3 921 686 1110 
3 688 748 914 
3 778 691 817 
3 308 730 732 
3 328 755 1076 
3 730 308 748 
3 681 916 1110 
3 300 875 876 
3 755 328 1090 
3 920 1072 1116 
3 737 868 958 
3 1072 334 1116 
3 327 921 1110 
3 736 307 877 
3 691 778 816 
3 315 735 1057 
3 735 315 995 
3 916 681 1069 
3 1046 292 1052 
3 773 1046 1052 
3 723 722 932 
3 422 578 867 
3 875 300 984 
3 112 82 1137 
3 767 293 1009 
3 420 422 867 
3 932 722 1142 
3 672 882 884 
3 325 738 915 
3 808 819 1117 
3 19 313 788 
3 323 742 744 
3 751 66 1108 
3 66 751 1134 
3 770 319 814 
3 734 103 1087 
3 103 734 1148 
3 1010 752 1036 
3 288 774 913 
3 1091 289 1095 
3 82 337 1137 
3 729 336 1086 
3 768 1091 1095 
3 882 672 885 
3 336 729 1112 
3 878 879 885 
3 868 737 1109 
3 330 773 1010 
3 720 735 995 
3 498 1111 1129 
3 330 1010 1036 
3 820 302 1000 
3 1093 665 1138 
3 720 995 1064 
3 313 758 788 
3 581 909 1027 
3 916 327 1110 
3 287 1121 1162 
3 1101 727 1103 
3 547 575 781 
3 1111 884 1129 
3 892 711 1116 
3 773 330 1046 
3 1121 731 1162 
3 301 808 1081 
3 608 569 890 
3 297 756 822 
3 984 927 1038 
3 33 32 776 
3 767 1009 1139 
3 4 5 902 
3 899 1093 1138 
3 739 304 990 
3 820 1000 1149 
3 787 1092 1099 
3 909 581 1151 
3 1092 329 1099 
3 569 582 890 
3 307 736 1097 
3 292 798 1052 
3 798 292 1074 
3 748 688 960 
3 730 748 960 
3 759 984 1089 
3 18 19 788 
3 813 810 1058 
3 688 914 1097 
3 915 738 1088 
3 339 866 1137 
3 912 1083 1107 
3 1107 1083 1119 
3 305 33 776 
3 814 319 1144 
3 736 877 1109 
3 913 774 1122 
3 333 765 1062 
3 781 575 782 
3 914 748 1132 
3 334 892 1116 
3 495 1061 1085 
3 726 1101 1103 
3 616 614 792 
3 879 882 885 
3 919 920 1042 
3 685 912 1107 
3 287 878 885 
3 1015 310 1134 
3 460 813 1058 
3 4 902 1153 
3 683 779 815 
3 650 966 1004 
3 694 896 1120 
3 754 781 782 
3 549 547 781 
3 323 744 1102 
3 765 333 1157 
3 753 549 781 
3 784 714 1059 
3 337 339 1137 
3 912 685 1160 
3 549 753 792 
3 1104 1003 1118 
3 769 1019 1028 
3 896 694 1150 
3 1019 294 1028 
3 304 739 1130 
3 716 1104 1118 
3 875 984 1038 
3 686 921 1112 
3 623 680 780 
3 294 752 1028 
3 742 323 1122 
3 920 677 1072 
3 759 927 984 
3 780 680 980 
3 724 852 1142 
3 656 772 780 
3 706 917 918 
3 756 297 1128 
3 958 868 1105 
3 565 537 786 
3 772 623 780 
3 752 294 1036 
3 680 818 980 
3 792 618 987 
3 308 732 1087 
3 779 414 815 
3 738 325 1126 
3 1073 1079 1157 
3 903 315 1057 
3 331 769 1004 
3 852 724 861 
3 753 616 792 
3 788 759 1089 
3 755 289 1091 
3 1061 721 1085 
3 314 760 761 
3 775 414 779 
3 758 313 1042 
3 608 784 1059 
3 920 679 1042 
3 795 668 823 
3 310 1015 1124 
3 1073 678 1079 
3 614 618 792 
3 966 331 1004 
3 300 876 1173 
3 289 755 1090 
3 414 775 789 
3 537 588 786 
3 760 314 1148 
3 618 779 987 
3 769 331 1019 
3 662 851 1056 
3 896 597 1120 
3 293 767 1082 
3 822 756 1106 
3 754 782 1076 
3 597 896 1136 
3 839 969 1023 
3 772 656 1010 
3 755 754 1076 
3 795 650 1004 
3 779 683 987 
3 303 916 1069 
3 426 835 1045 
3 313 919 1042 
3 768 329 1092 
3 624 789 1013 
3 810 835 1058 
3 81 113 777 
3 656 752 1010 
3 1012 684 1016 
3 908 1040 1133 
3 923 316 1149 
3 421 346 828 
3 1043 402 1070 
3 532 1012 1016 
3 866 339 1115 
3 867 578 1105 
3 722 724 1142 
3 1053 944 1080 
3 790 361 818 
3 620 510 823 
3 427 421 828 
3 617 795 823 
3 668 795 1004 
3 566 1026 1066 
3 851 700 1056 
3 777 311 778 
3 782 798 1076 
3 782 575 797 
3 680 790 818 
3 835 805 1045 
3 691 690 996 
3 684 783 1002 
3 734 760 1148 
3 789 775 1013 
3 480 1002 1051 
3 740 950 1174 
3 826 427 828 
3 950 296 1174 
3 908 909 1040 
3 329 768 1095 
3 1053 696 1054 
3 800 427 826 
3 696 695 1054 
3 676 785 791 
3 502 883 955 
3 714 891 1059 
3 969 532 1023 
3 668 620 823 
3 711 892 1124 
3 113 311 777 
3 585 615 791 
3 375 414 789 
3 773 772 1010 
3 783 684 1012 
3 751 1015 1134 
3 1037 426 1045 
3 484 466 821 
3 532 1016 1023 
3 984 300 1089 
3 818 428 980 
3 827 828 1024 
3 727 1101 1146 
3 375 789 796 
3 615 676 791 
3 345 617 793 
3 776 32 1130 
3 361 790 965 
3 834 377 973 
3 761 760 762 
3 890 582 1094 
3 617 794 795 
3 584 484 821 
3 690 824 925 
3 672 884 1111 
3 427 800 962 
3 510 793 823 
3 549 792 987 
3 800 639 962 
3 835 426 1058 
3 428 799 941 
3 295 749 1108 
3 625 834 973 
3 353 619 799 
3 683 815 946 
3 625 833 834 
3 467 483 824 
3 865 306 866 
3 379 376 796 
3 496 847 848 
3 827 1037 1045 
3 113 114 311 
3 617 343 794 
3 466 464 821 
3 540 585 791 
3 469 467 824 
3 348 345 793 
3 738 784 1088 
3 576 666 797 
3 625 832 833 
3 793 617 823 
3 865 866 867 
3 586 691 816 
3 496 848 850 
3 497 500 847 
3 782 797 798 
3 827 1024 1037 
3 575 576 797 
3 462 379 796 
3 789 624 796 
3 586 690 691 
3 815 371 946 
3 715 785 787 
3 37 302 820 
3 39 316 819 
3 362 361 965 
3 483 466 484 
3 539 540 598 
3 354 353 799 
3 483 484 539 
3 496 497 847 
3 428 941 980 
3 917 706 1135 
3 821 624 1013 
3 1026 682 1066 
3 715 598 785 
3 320 57 840 
3 539 484 540 
3 359 428 818 
3 586 490 690 
3 862 555 970 
3 376 375 796 
3 500 844 847 
3 619 510 620 
3 42 841 842 
3 464 462 624 
3 625 453 832 
3 599 598 715 
3 830 515 953 
3 1002 783 1051 
3 615 616 674 
3 689 830 953 
3 318 45 822 
3 592 684 1002 
3 41 301 841 
3 958 578 988 
3 813 460 1078 
3 676 674 768 
3 621 620 653 
3 353 510 619 
3 353 351 510 
3 429 965 991 
3 293 47 825 
3 420 867 1115 
3 794 650 795 
3 624 462 796 
3 695 891 1054 
3 653 668 769 
3 615 614 616 
3 314 761 1014 
3 500 843 844 
3 464 624 821 
3 804 826 827 
3 585 614 615 
3 619 620 621 
3 453 455 832 
3 628 855 942 
3 50 317 831 
3 656 654 752 
3 468 470 850 
3 709 1043 1070 
3 675 754 755 
3 674 616 675 
3 810 807 835 
3 359 357 428 
3 666 772 773 
3 621 653 654 
3 54 319 836 
3 319 770 1096 
3 807 805 835 
3 827 826 828 
3 855 395 942 
3 547 548 575 
3 467 466 483 
3 465 464 466 
3 361 359 818 
3 642 862 970 
3 410 856 857 
3 803 801 804 
3 470 496 850 
3 544 429 545 
3 799 619 941 
3 546 545 547 
3 301 40 819 
3 316 38 820 
3 316 923 1117 
3 628 854 855 
3 639 541 962 
3 615 674 676 
3 463 462 464 
3 690 490 824 
3 576 623 666 
3 864 865 868 
3 830 958 988 
3 840 838 932 
3 811 810 813 
3 345 343 617 
3 352 351 353 
3 490 469 824 
3 887 889 890 
3 414 373 815 
3 367 365 429 
3 373 371 815 
3 284 1003 1104 
3 761 762 763 
3 891 695 1059 
3 540 584 585 
3 57 56 840 
3 474 476 566 
3 338 650 794 
3 315 903 1125 
3 965 790 991 
3 375 373 414 
3 351 348 793 
3 297 43 842 
3 653 620 668 
3 357 354 799 
3 410 857 863 
3 801 800 826 
3 628 853 854 
3 44 297 822 
3 41 40 301 
3 37 36 302 
3 39 38 316 
3 350 348 351 
3 804 801 826 
3 809 807 810 
3 547 545 548 
3 575 548 576 
3 859 856 943 
3 803 804 805 
3 46 318 825 
3 718 639 800 
3 832 566 833 
3 718 800 801 
3 559 557 860 
3 367 429 544 
3 666 623 772 
3 539 598 599 
3 305 776 1100 
3 546 547 549 
3 940 659 1009 
3 856 410 943 
3 501 504 843 
3 320 840 932 
3 585 613 614 
3 42 41 841 
3 316 820 1149 
3 358 357 359 
3 887 888 889 
3 44 43 297 
3 285 836 837 
3 500 501 843 
3 455 474 832 
3 291 51 831 
3 121 286 888 
3 544 545 546 
3 356 354 357 
3 360 359 361 
3 428 357 799 
3 598 540 791 
3 46 45 318 
3 461 379 462 
3 587 586 816 
3 749 295 1175 
3 888 286 889 
3 655 654 656 
3 882 883 884 
3 769 668 1004 
3 285 55 836 
3 48 47 293 
3 510 351 793 
3 879 881 882 
3 728 587 816 
3 882 881 883 
3 972 670 985 
3 864 306 865 
3 340 338 794 
3 50 49 317 
3 322 864 868 
3 302 36 829 
3 562 559 860 
3 689 737 830 
3 675 753 754 
3 474 566 832 
3 690 925 996 
3 52 51 291 
3 40 39 819 
3 38 37 820 
3 628 436 853 
3 431 433 859 
3 367 544 946 
3 436 438 853 
3 54 53 319 
3 540 484 584 
3 847 846 848 
3 844 845 846 
3 579 689 953 
3 58 320 852 
3 879 880 881 
3 56 55 285 
3 843 708 844 
3 43 42 842 
3 809 810 811 
3 120 121 888 
3 544 683 946 
3 638 541 639 
3 45 44 822 
3 350 351 352 
3 605 562 606 
3 599 715 716 
3 838 837 839 
3 600 707 708 
3 844 708 845 
3 878 321 879 
3 47 46 825 
3 824 483 925 
3 592 640 684 
3 689 736 737 
3 926 658 945 
3 844 846 847 
3 352 353 354 
3 51 50 831 
3 433 535 859 
3 444 480 550 
3 364 362 365 
3 703 596 704 
3 848 846 849 
3 853 550 854 
3 365 362 965 
3 701 558 975 
3 474 475 476 
3 366 365 367 
3 403 405 863 
3 585 584 613 
3 431 859 943 
3 606 562 860 
3 430 453 625 
3 56 285 840 
3 717 639 718 
3 601 926 945 
3 55 54 836 
3 285 837 838 
3 372 371 373 
3 879 321 880 
3 59 852 861 
3 802 801 803 
3 504 600 843 
3 58 57 320 
3 438 444 853 
3 576 622 623 
3 343 340 794 
3 430 625 973 
3 434 628 942 
3 596 555 862 
3 828 346 1024 
3 655 780 980 
3 476 494 495 
3 763 762 764 
3 405 410 863 
3 455 457 474 
3 600 657 707 
3 627 449 928 
3 119 120 886 
3 614 613 618 
3 600 708 843 
3 856 698 857 
3 370 368 371 
3 444 550 853 
3 579 687 689 
3 504 567 600 
3 59 58 852 
3 356 357 358 
3 626 697 698 
3 358 359 360 
3 626 698 856 
3 886 120 888 
3 342 340 343 
3 895 894 896 
3 296 126 910 
3 535 590 626 
3 444 479 480 
3 924 594 949 
3 704 862 1006 
3 704 596 862 
3 338 298 650 
3 322 110 864 
3 719 829 1022 
3 360 361 362 
3 126 127 910 
3 714 634 891 
3 880 886 887 
3 696 1053 1080 
3 612 662 1056 
3 692 924 949 
3 489 972 985 
3 413 411 922 
3 451 449 627 
3 592 603 640 
3 509 490 586 
3 326 894 895 
3 299 898 899 
3 288 60 861 
3 60 59 861 
3 894 893 897 
3 626 590 697 
3 434 436 628 
3 640 722 723 
3 634 553 891 
3 487 572 592 
3 908 906 909 
3 535 626 859 
3 857 698 858 
3 312 905 906 
3 326 893 894 
3 638 639 717 
3 127 128 907 
3 111 306 864 
3 111 112 306 
3 555 459 970 
3 299 10 898 
3 600 567 657 
3 785 598 791 
3 745 743 746 
3 825 318 940 
3 629 523 956 
3 675 616 753 
3 738 714 784 
3 621 654 655 
3 107 307 914 
3 106 107 914 
3 127 907 910 
3 907 906 908 
3 901 903 904 
3 477 418 552 
3 312 900 905 
3 893 290 897 
3 287 117 878 
3 418 413 922 
3 766 764 786 
3 109 110 322 
3 662 757 851 
3 438 443 444 
3 763 764 765 
3 10 11 898 
3 901 904 905 
3 30 29 917 
3 304 30 917 
3 689 687 736 
3 307 108 877 
3 898 895 899 
3 28 303 918 
3 552 418 922 
3 110 111 864 
3 109 322 877 
3 653 769 1028 
3 36 35 829 
3 917 29 918 
3 312 906 907 
3 128 312 907 
3 713 634 714 
3 857 858 994 
3 919 677 920 
3 116 117 287 
3 324 911 912 
3 118 321 878 
3 595 555 596 
3 118 119 321 
3 117 118 878 
3 702 596 703 
3 648 711 712 
3 765 764 766 
3 941 655 980 
3 900 901 905 
3 450 451 930 
3 25 24 921 
3 327 25 921 
3 108 109 877 
3 531 459 555 
3 29 28 918 
3 605 606 721 
3 901 902 903 
3 900 335 901 
3 901 335 902 
3 11 12 326 
3 334 69 892 
3 80 79 336 
3 130 335 900 
3 13 290 893 
3 70 69 334 
3 68 310 892 
3 61 288 913 
3 76 309 911 
3 78 77 324 
3 69 68 892 
3 68 67 310 
3 324 77 911 
3 130 131 335 
3 104 105 308 
3 107 108 307 
3 312 129 900 
3 65 64 295 
3 323 62 913 
3 63 62 323 
3 129 130 900 
3 128 129 312 
3 61 60 288 
3 62 61 913 
3 76 75 309 
3 101 102 314 
3 77 76 911 
3 74 73 333 
3 99 100 678 
3 125 126 296 
3 123 124 325 
3 122 123 915 
3 121 122 286 
3 13 14 290 
3 12 13 893 
3 123 325 915 
3 16 17 300 
3 286 122 915 
3 34 33 305 
3 28 27 303 
3 31 30 304 
3 6 7 315 
3 9 10 299 
3 27 26 916 
3 19 20 313 
3 26 25 327 
3 20 21 919 
3 21 22 677 
3 326 12 893 
3 303 27 916 
3 26 327 916 
3 313 20 919 
3 21 677 919 
3 542 543 927 
3 321 119 886 
3 433 534 535 
3 907 908 910 
3 745 746 747 
3 626 856 859 
3 508 492 929 
3 477 552 553 
3 1040 741 1133 
3 648 712 929 
3 535 536 590 
3 326 895 898 
3 492 554 929 
3 685 686 729 
3 11 326 898 
3 480 479 487 
3 442 440 493 
3 542 491 543 
3 610 542 927 
3 461 462 463 
3 655 656 780 
3 371 368 946 
3 450 449 451 
3 554 647 648 
3 758 610 759 
3 601 695 696 
3 673 594 681 
3 589 538 594 
3 734 733 760 
3 448 446 449 
3 491 450 930 
3 685 673 686 
3 589 673 685 
3 493 440 952 
3 648 679 711 
3 551 523 629 
3 758 759 788 
3 749 747 750 
3 681 594 924 
3 528 526 529 
3 444 443 479 
3 488 570 571 
3 507 593 601 
3 713 714 738 
3 880 321 886 
3 589 594 673 
3 648 647 679 
3 887 886 888 
3 806 805 807 
3 732 632 733 
3 478 492 508 
3 554 610 647 
3 657 658 709 
3 647 610 758 
3 732 733 734 
3 474 457 475 
3 749 750 751 
3 720 602 735 
3 744 743 745 
3 537 529 538 
3 571 602 665 
3 601 696 926 
3 873 871 874 
3 525 527 631 
3 412 416 431 
3 588 538 589 
3 528 537 565 
3 697 590 869 
3 759 610 927 
3 554 542 610 
3 537 538 588 
3 530 482 568 
3 590 536 591 
3 563 649 725 
3 529 936 949 
3 535 534 536 
3 442 493 928 
3 742 670 743 
3 528 529 537 
3 671 587 728 
3 645 740 741 
3 471 469 490 
3 554 648 929 
3 527 526 528 
3 875 873 876 
3 631 632 730 
3 592 572 603 
3 869 591 870 
3 492 542 554 
3 571 570 602 
3 745 747 749 
3 590 591 869 
3 665 602 720 
3 591 536 938 
3 431 432 433 
3 417 413 418 
3 872 873 875 
3 125 296 950 
3 325 124 950 
3 543 491 930 
3 488 530 570 
3 448 449 450 
3 449 446 928 
3 405 409 410 
3 504 505 567 
3 551 629 630 
3 817 691 1167 
3 433 533 534 
3 640 603 722 
3 570 530 581 
3 631 527 632 
3 730 632 732 
3 633 553 634 
3 669 636 670 
3 522 520 523 
3 488 482 530 
3 705 629 974 
3 630 629 705 
3 425 482 488 
3 754 753 781 
3 419 418 477 
3 492 491 542 
3 870 871 872 
3 718 801 802 
3 551 630 692 
3 478 450 491 
3 448 450 478 
3 477 553 633 
3 478 491 492 
3 522 523 524 
3 872 871 873 
3 525 526 527 
3 524 523 551 
3 377 378 973 
3 936 692 949 
3 536 597 938 
3 870 591 871 
3 533 432 693 
3 407 404 408 
3 525 524 526 
3 399 401 434 
3 417 419 425 
3 645 634 713 
3 522 524 525 
3 417 418 419 
3 742 743 744 
3 529 526 936 
3 478 508 931 
3 285 838 840 
3 536 534 597 
3 425 419 482 
3 633 634 645 
3 447 446 448 
3 528 565 935 
3 645 713 740 
3 431 416 432 
3 735 602 933 
3 525 631 934 
3 433 432 533 
3 446 442 928 
3 533 693 694 
3 594 538 949 
3 416 413 417 
3 441 445 489 
3 601 593 695 
3 445 442 446 
3 874 871 938 
3 447 448 931 
3 848 849 1030 
3 602 570 933 
3 733 632 935 
3 595 596 702 
3 545 429 991 
3 527 528 935 
3 507 601 945 
3 519 521 579 
3 570 581 933 
3 746 743 972 
3 531 555 595 
3 476 475 494 
3 630 705 706 
3 434 435 436 
3 568 482 939 
3 439 437 440 
3 669 670 742 
3 657 567 658 
3 448 478 931 
3 526 524 936 
3 501 503 504 
3 441 440 442 
3 687 580 688 
3 571 665 971 
3 412 413 416 
3 364 365 366 
3 445 446 447 
3 576 548 622 
3 366 367 368 
3 521 520 522 
3 632 527 935 
3 579 580 687 
3 871 591 938 
3 609 511 636 
3 436 437 438 
3 631 730 960 
3 808 807 809 
3 495 494 563 
3 441 442 445 
3 524 551 936 
3 405 407 409 
3 409 411 412 
3 477 633 939 
3 438 439 443 
3 412 431 943 
3 521 522 934 
3 579 521 580 
3 381 383 430 
3 922 411 944 
3 463 464 465 
3 412 411 413 
3 409 407 411 
3 419 477 939 
3 487 511 572 
3 400 398 402 
3 551 692 936 
3 396 398 399 
3 438 437 439 
3 434 401 435 
3 370 371 372 
3 482 419 939 
3 609 636 669 
3 609 669 774 
3 556 558 701 
3 405 404 407 
3 436 435 437 
3 522 525 934 
3 410 409 943 
3 544 546 683 
3 416 417 937 
3 567 505 945 
3 403 404 405 
3 417 425 937 
3 488 571 963 
3 435 401 635 
3 439 440 441 
3 574 611 612 
3 124 125 950 
3 392 390 393 
3 396 394 397 
3 403 402 404 
3 580 521 934 
3 399 400 401 
3 432 416 937 
3 400 402 403 
3 538 529 949 
3 693 432 937 
3 645 741 959 
3 939 633 959 
3 658 567 945 
3 407 408 944 
3 392 394 395 
3 399 398 400 
3 507 569 593 
3 568 939 959 
3 830 737 958 
3 937 425 963 
3 487 479 511 
3 560 573 574 
3 344 343 345 
3 583 517 604 
3 612 661 662 
3 378 381 973 
3 558 560 975 
3 505 506 507 
3 403 863 947 
3 374 373 375 
3 497 499 500 
3 569 506 582 
3 409 412 943 
3 396 397 398 
3 395 394 396 
3 693 937 963 
3 399 434 942 
3 392 393 394 
3 388 390 391 
3 411 407 944 
3 458 456 459 
3 519 520 521 
3 388 386 389 
3 572 511 609 
3 504 503 505 
3 722 603 724 
3 395 396 942 
3 662 756 757 
3 355 354 356 
3 505 507 945 
3 347 345 348 
3 637 541 638 
3 395 855 978 
3 618 775 779 
3 349 348 350 
3 429 365 965 
3 507 506 569 
3 739 710 776 
3 593 569 608 
3 770 664 771 
3 924 692 967 
3 481 459 531 
3 934 631 960 
3 518 517 583 
3 391 390 392 
3 430 452 453 
3 667 604 710 
3 441 489 948 
3 516 518 519 
3 595 702 783 
3 505 503 506 
3 516 514 517 
3 825 940 1009 
3 609 774 961 
3 400 403 947 
3 580 934 960 
3 688 580 960 
3 396 399 942 
3 443 439 948 
3 479 443 951 
3 633 645 959 
3 465 466 467 
3 384 386 387 
3 388 389 390 
3 368 367 946 
3 667 710 739 
3 803 805 806 
3 692 630 967 
3 623 622 680 
3 513 485 541 
3 439 441 948 
3 705 974 990 
3 486 514 515 
3 401 400 947 
3 384 382 385 
3 516 517 518 
3 583 604 667 
3 523 520 956 
3 519 518 520 
3 670 636 985 
3 663 577 664 
3 636 511 951 
3 440 437 952 
3 752 654 1028 
3 458 481 512 
3 423 421 427 
3 425 488 963 
3 387 386 388 
3 704 1006 1018 
3 453 454 455 
3 470 472 496 
3 384 385 386 
3 455 456 457 
3 621 655 941 
3 635 401 947 
3 515 830 988 
3 748 308 1132 
3 84 275 284 
3 437 435 952 
3 481 531 532 
3 802 803 923 
3 430 383 452 
3 435 635 952 
3 519 579 953 
3 85 276 329 
3 458 459 481 
3 454 452 642 
3 619 621 941 
3 443 948 951 
3 500 499 501 
3 511 479 951 
3 603 572 961 
3 457 456 458 
3 520 518 956 
3 564 562 605 
3 572 609 961 
3 86 277 289 
3 515 516 953 
3 725 649 726 
3 518 583 956 
3 455 454 456 
3 383 382 384 
3 1025 697 1029 
3 509 586 587 
3 629 956 974 
3 963 571 971 
3 87 278 328 
3 561 559 562 
3 630 706 967 
3 501 502 503 
3 363 362 364 
3 515 514 516 
3 994 858 999 
3 496 472 497 
3 618 613 775 
3 582 506 955 
3 501 499 502 
3 503 502 955 
3 453 452 454 
3 829 35 1022 
3 88 279 292 
3 743 670 972 
3 380 379 461 
3 424 486 988 
3 471 490 509 
3 724 603 961 
3 506 503 955 
3 694 693 971 
3 475 457 954 
3 392 395 978 
3 563 577 649 
3 546 549 987 
3 423 427 962 
3 663 664 770 
3 516 519 953 
3 803 806 923 
3 514 513 977 
3 513 541 637 
3 483 539 925 
3 746 972 992 
3 486 513 514 
3 377 834 998 
3 89 280 330 
3 663 770 814 
3 468 467 469 
3 693 963 971 
3 563 494 577 
3 315 7 995 
3 369 368 370 
3 458 512 954 
3 637 638 957 
3 638 717 719 
3 457 458 954 
3 604 517 977 
3 378 376 379 
3 560 574 975 
3 90 281 294 
3 809 811 812 
3 91 282 331 
3 283 91 966 
3 381 430 973 
3 82 283 298 
3 651 406 652 
3 372 373 374 
3 384 387 964 
3 497 472 498 
3 381 382 383 
3 583 667 974 
3 806 807 808 
3 489 445 992 
3 649 577 663 
3 391 392 978 
3 513 637 977 
3 383 384 964 
3 747 746 1001 
3 517 514 977 
3 541 485 962 
3 459 456 970 
3 378 380 381 
3 574 573 611 
3 352 354 355 
3 497 498 499 
3 468 469 470 
3 683 546 987 
3 360 362 363 
3 750 747 1005 
3 486 485 513 
3 381 380 382 
3 556 701 981 
3 512 481 969 
3 956 583 974 
3 612 611 661 
3 578 424 988 
3 684 640 1016 
3 452 383 964 
3 481 532 969 
3 366 368 369 
3 710 604 993 
3 662 661 756 
3 454 642 970 
3 470 469 471 
3 564 605 607 
3 369 406 644 
3 378 379 380 
3 456 454 970 
3 487 592 1002 
3 470 471 472 
3 642 452 964 
3 347 348 349 
3 750 1005 1011 
3 349 350 460 
3 561 562 564 
3 344 345 347 
3 341 340 342 
3 355 356 415 
3 664 577 979 
3 972 489 992 
3 424 485 486 
3 638 719 957 
3 342 343 344 
3 461 463 641 
3 564 607 660 
3 974 667 990 
3 370 372 968 
3 369 370 406 
3 380 461 976 
3 485 423 962 
3 622 548 991 
3 651 652 682 
3 548 545 991 
3 494 475 979 
3 660 727 767 
3 385 382 976 
3 509 587 643 
3 717 718 1000 
3 680 622 790 
3 1018 391 1031 
3 660 607 727 
3 424 423 485 
3 948 489 985 
3 374 375 376 
3 643 587 671 
3 1011 712 1015 
3 363 364 473 
3 476 495 1026 
3 611 573 659 
3 671 728 731 
3 951 948 985 
3 584 821 1013 
3 422 424 578 
3 493 999 1020 
3 382 380 976 
3 747 1001 1005 
3 644 406 651 
3 461 641 976 
3 363 473 556 
3 643 671 672 
3 558 559 560 
3 475 954 979 
3 757 756 1128 
3 560 561 573 
3 468 850 997 
3 445 447 992 
3 667 739 990 
3 814 291 1032 
3 577 494 979 
3 377 376 378 
3 556 557 558 
3 929 712 1011 
3 873 874 1008 
3 560 559 561 
3 486 515 988 
3 746 992 1001 
3 636 951 985 
3 101 314 1014 
3 678 100 1014 
3 347 349 426 
3 558 557 559 
3 627 928 1020 
3 355 415 646 
3 652 406 968 
3 839 1023 1147 
3 374 376 377 
3 34 305 1022 
3 339 338 340 
3 406 370 968 
3 493 952 999 
3 465 467 468 
3 635 947 994 
3 556 473 557 
3 358 360 981 
3 422 423 424 
3 646 415 699 
3 646 699 700 
3 904 903 1057 
3 947 863 994 
3 790 622 991 
3 350 352 982 
3 460 350 982 
3 771 664 1007 
3 7 8 995 
3 498 472 986 
3 364 366 983 
3 863 857 994 
3 91 331 966 
3 298 283 966 
3 422 421 423 
3 539 599 925 
3 999 858 1020 
3 532 531 1012 
3 472 471 986 
3 293 825 1009 
3 977 637 993 
3 698 697 1025 
3 992 447 1001 
3 909 906 1027 
3 595 783 1012 
3 473 364 983 
3 905 904 1027 
3 604 977 993 
3 471 509 986 
3 352 355 982 
3 360 363 981 
3 388 391 1018 
3 854 550 1047 
3 637 957 993 
3 550 480 1051 
3 369 644 983 
3 366 369 983 
3 275 83 1003 
3 509 643 986 
3 561 564 989 
3 341 342 346 
3 564 660 989 
3 613 584 1013 
3 805 804 1045 
3 659 573 989 
3 650 298 966 
3 573 561 989 
3 447 931 1001 
3 860 557 1017 
3 635 994 999 
3 952 635 999 
3 718 802 1000 
3 855 854 1044 
3 363 556 981 
3 834 833 1050 
3 480 487 1002 
3 968 372 998 
3 997 850 1030 
3 862 642 1006 
3 641 463 997 
3 355 646 982 
3 641 997 1030 
3 415 356 1021 
3 664 979 1007 
3 979 954 1007 
3 372 374 998 
3 420 421 422 
3 1001 931 1005 
3 931 508 1005 
3 599 716 996 
3 415 1021 1039 
3 750 1011 1015 
3 666 773 1052 
3 627 1025 1029 
3 284 275 1003 
3 1005 508 1011 
3 465 468 997 
3 876 873 1008 
3 1026 495 1085 
3 420 346 421 
3 341 346 420 
3 473 983 1017 
3 90 294 1019 
3 331 282 1019 
3 508 929 1011 
3 1047 550 1051 
3 704 1018 1031 
3 531 595 1012 
3 964 387 1006 
3 463 465 997 
3 282 90 1019 
3 339 340 341 
3 100 101 1014 
3 954 512 1007 
3 374 377 998 
3 663 814 1032 
3 647 758 1042 
3 642 964 1006 
3 751 750 1015 
3 1030 849 1034 
3 726 649 1032 
3 983 644 1017 
3 606 860 1041 
3 640 723 1016 
3 404 402 1043 
3 981 701 1021 
3 1006 387 1018 
3 358 981 1021 
3 775 613 1013 
3 721 606 1049 
3 387 388 1018 
3 928 493 1020 
3 356 358 1021 
3 1118 332 1131 
3 833 566 1066 
3 787 284 1104 
3 568 959 1040 
3 627 1020 1025 
3 574 612 1048 
3 346 342 1024 
3 89 330 1036 
3 35 34 1022 
3 83 274 332 
3 294 281 1036 
3 703 704 1031 
3 697 869 1029 
3 654 653 1028 
3 1060 845 1063 
3 1044 854 1047 
3 557 473 1017 
3 566 476 1026 
3 811 1113 1123 
3 925 599 996 
3 858 698 1025 
3 1029 869 1033 
3 922 944 1053 
3 337 298 338 
3 342 344 1024 
3 18 788 1089 
3 906 905 1027 
3 731 728 1075 
3 891 553 1054 
3 869 870 1033 
3 385 1034 1055 
3 846 845 1060 
3 850 848 1030 
3 451 627 1029 
3 347 426 1037 
3 1033 870 1035 
3 385 976 1034 
3 1021 701 1039 
3 737 736 1109 
3 495 563 1061 
3 870 872 1035 
3 451 1029 1033 
3 88 292 1046 
3 389 386 1055 
3 1035 872 1038 
3 309 75 1062 
3 74 333 1062 
3 330 280 1046 
3 930 451 1033 
3 708 707 1065 
3 787 785 1092 
3 649 663 1032 
3 695 593 1059 
3 1065 707 1067 
3 1050 833 1066 
3 281 89 1036 
3 872 875 1038 
3 9 299 1064 
3 337 338 339 
3 930 1033 1035 
3 391 978 1031 
3 1020 858 1025 
3 778 817 1131 
3 1086 324 1160 
3 393 390 1063 
3 969 839 1084 
3 606 1041 1049 
3 543 930 1035 
3 543 1035 1038 
3 1034 849 1055 
3 608 890 1140 
3 817 1118 1131 
3 927 543 1038 
3 1016 723 1023 
3 657 709 1068 
3 701 975 1039 
3 798 797 1052 
3 699 415 1039 
3 774 288 1127 
3 114 115 1075 
3 24 23 1071 
3 71 70 1072 
3 73 72 1073 
3 397 394 1067 
3 860 1017 1041 
3 976 641 1034 
3 959 741 1040 
3 83 332 1003 
3 924 967 1069 
3 344 347 1037 
3 82 298 337 
3 48 293 1082 
3 995 8 1064 
3 317 49 1082 
3 1024 344 1037 
3 402 398 1070 
3 1017 644 1041 
3 397 1067 1068 
3 676 768 1092 
3 1068 709 1070 
3 426 349 1058 
3 679 647 1042 
3 393 1063 1065 
3 699 1039 1048 
3 1075 115 1162 
3 389 1055 1060 
3 804 827 1045 
3 408 404 1043 
3 709 658 1077 
3 644 651 1041 
3 883 502 1129 
3 87 328 1074 
3 292 279 1074 
3 408 1077 1080 
3 703 1031 1044 
3 968 998 1050 
3 1039 975 1048 
3 808 809 1081 
3 280 88 1046 
3 911 309 1083 
3 756 661 1106 
3 641 1030 1034 
3 284 787 1099 
3 797 666 1052 
3 978 855 1044 
3 646 700 1078 
3 1031 978 1044 
3 691 996 1167 
3 702 703 1047 
3 768 674 1091 
3 998 834 1050 
3 703 1044 1047 
3 1041 651 1049 
3 565 786 1166 
3 944 408 1080 
3 715 787 1104 
3 702 1047 1051 
3 675 755 1091 
3 1075 728 1145 
3 336 79 1086 
3 78 324 1086 
3 889 286 1088 
3 783 702 1051 
3 552 1053 1054 
3 552 922 1053 
3 1048 612 1056 
3 651 682 1049 
3 975 574 1048 
3 389 1060 1063 
3 103 104 1087 
3 323 913 1122 
3 553 552 1054 
3 512 969 1084 
3 652 968 1050 
3 735 933 1057 
3 460 982 1078 
3 386 385 1055 
3 887 890 1094 
3 849 846 1060 
3 17 18 1089 
3 349 460 1058 
3 593 608 1059 
3 876 1008 1159 
3 700 699 1056 
3 563 725 1061 
3 1043 709 1077 
3 1064 299 1138 
3 652 1050 1066 
3 75 74 1062 
3 881 880 1094 
3 940 318 1106 
3 819 316 1117 
3 333 1073 1157 
3 776 710 1100 
3 841 301 1081 
3 390 389 1063 
3 393 1065 1067 
3 837 836 1096 
3 311 114 1075 
3 8 9 1064 
3 876 1159 1173 
3 408 1043 1077 
3 845 708 1065 
3 86 289 1090 
3 328 278 1090 
3 736 687 1097 
3 1055 849 1060 
3 971 665 1093 
3 605 721 1098 
3 295 64 1102 
3 63 323 1102 
3 394 393 1067 
3 322 868 1109 
3 731 1075 1162 
3 85 329 1095 
3 884 883 1129 
3 289 277 1095 
3 682 652 1066 
3 707 657 1068 
3 1063 845 1065 
3 885 672 1121 
3 729 1086 1160 
3 1067 707 1068 
3 681 924 1069 
3 589 685 1107 
3 921 24 1071 
3 70 334 1072 
3 333 73 1073 
3 397 1068 1070 
3 279 87 1074 
3 398 397 1070 
3 66 65 1108 
3 84 284 1099 
3 329 276 1099 
3 771 1007 1084 
3 914 307 1097 
3 686 673 1110 
3 699 1048 1056 
3 725 726 1103 
3 811 813 1113 
3 762 760 1114 
3 1077 926 1080 
3 658 926 1077 
3 1083 309 1163 
3 1098 725 1103 
3 306 112 1137 
3 678 1014 1079 
3 761 763 1079 
3 760 733 1114 
3 643 672 1111 
3 926 696 1080 
3 706 918 1141 
3 935 565 1114 
3 291 814 1144 
3 809 812 1081 
3 982 646 1078 
3 993 957 1100 
3 597 534 1120 
3 533 694 1120 
3 774 669 1122 
3 287 885 1121 
3 720 1064 1138 
3 49 48 1082 
3 6 315 1125 
3 1014 761 1079 
3 838 839 1147 
3 713 738 1126 
3 296 910 1133 
3 31 304 1130 
3 106 914 1132 
3 990 304 1135 
3 837 1096 1171 
3 308 105 1132 
3 311 1075 1145 
3 921 1071 1112 
3 568 1040 1151 
3 706 705 1135 
3 67 66 1134 
3 806 808 1117 
3 498 986 1111 
3 868 865 1105 
3 896 894 1136 
3 721 1061 1098 
3 52 291 1144 
3 912 911 1083 
3 319 53 1144 
3 672 671 1121 
3 749 751 1108 
3 499 498 1129 
3 904 1057 1156 
3 320 932 1142 
3 829 719 1143 
3 739 776 1130 
3 732 734 1087 
3 339 341 1115 
3 785 676 1092 
3 841 1081 1158 
3 899 895 1150 
3 716 1118 1167 
3 1061 725 1098 
3 102 103 1148 
3 719 717 1143 
3 3 80 1152 
3 23 3 1152 
3 131 0 1153 
3 0 4 1153 
3 72 1 1154 
3 1 99 1154 
3 2 71 1155 
3 22 2 1155 
3 902 335 1153 
3 116 287 1162 
3 1015 712 1124 
3 660 767 1139 
3 581 530 1151 
3 745 749 1175 
3 16 300 1173 
3 290 14 1159 
3 786 764 1166 
3 955 883 1161 
3 721 1049 1085 
3 1040 909 1151 
3 938 597 1169 
3 1081 812 1158 
3 79 78 1086 
3 1008 290 1159 
3 763 765 1157 
3 659 940 1170 
3 1113 851 1123 
3 1078 700 1113 
3 104 308 1087 
3 682 1026 1085 
3 1000 802 1149 
3 665 720 1138 
3 286 915 1088 
3 611 659 1170 
3 1007 512 1084 
3 883 881 1161 
3 766 1083 1163 
3 892 310 1124 
3 659 989 1139 
3 1009 659 1139 
3 300 17 1089 
3 777 778 1131 
3 278 86 1090 
3 674 675 1091 
3 865 867 1105 
3 1049 682 1085 
3 967 706 1141 
3 836 319 1096 
3 880 887 1094 
3 889 1088 1140 
3 277 85 1095 
3 786 588 1119 
3 694 971 1093 
3 957 719 1165 
3 1057 933 1156 
3 770 771 1096 
3 687 688 1097 
3 831 317 1101 
3 607 605 1098 
3 867 866 1115 
3 861 724 1127 
3 719 1022 1165 
3 1071 336 1112 
3 276 84 1099 
3 710 993 1100 
3 318 822 1106 
3 1096 771 1171 
3 607 1098 1103 
3 64 63 1102 
3 813 1078 1113 
3 81 777 1172 
3 716 715 1104 
3 812 811 1123 
3 578 958 1105 
3 679 920 1116 
3 727 607 1103 
3 295 1102 1175 
3 588 589 1107 
3 291 831 1164 
3 961 774 1127 
3 724 961 1127 
3 1093 899 1150 
3 65 295 1108 
3 877 322 1109 
3 673 681 1110 
3 890 889 1140 
3 685 729 1160 
3 766 786 1119 
3 902 5 1125 
3 986 643 1111 
3 700 851 1113 
3 304 917 1135 
3 729 686 1112 
3 1032 291 1164 
3 733 935 1114 
3 325 950 1126 
3 816 778 1145 
3 950 740 1126 
3 784 608 1140 
3 274 81 1172 
3 597 1136 1169 
3 711 679 1116 
3 923 806 1117 
3 341 420 1115 
3 534 533 1120 
3 669 742 1122 
3 723 932 1147 
3 1101 317 1146 
3 940 1106 1170 
3 851 757 1123 
3 1088 784 1140 
3 671 731 1121 
3 712 711 1124 
3 903 902 1125 
3 5 6 1125 
3 1003 332 1118 
3 740 713 1126 
3 288 861 1127 
3 297 842 1128 
3 1069 967 1141 
3 317 1082 1146 
3 1023 723 1147 
3 1114 565 1166 
3 32 31 1130 
3 502 499 1129 
3 105 106 1132 
3 881 1094 1161 
3 910 908 1133 
3 310 67 1134 
3 866 306 1137 
3 1027 904 1156 
3 894 897 1136 
3 1128 842 1158 
3 705 990 1135 
3 302 829 1143 
3 299 899 1138 
3 728 816 1145 
3 1102 744 1175 
3 1071 23 1152 
3 71 1072 1155 
3 1073 72 1154 
3 932 838 1147 
3 581 1027 1156 
3 1100 957 1165 
3 296 1133 1174 
3 852 320 1142 
3 1000 302 1143 
3 778 311 1145 
3 989 660 1139 
3 588 1107 1119 
3 918 303 1141 
3 53 52 1144 
3 309 1062 1163 
3 842 841 1158 
3 717 1000 1143 
3 1083 766 1119 
3 1128 1158 1168 
3 895 896 1150 
3 314 102 1148 
3 767 727 1146 
3 80 336 1152 
3 335 131 1153 
3 99 678 1154 
3 677 22 1155 
3 530 568 1151 
3 839 837 1171 
3 802 923 1149 
3 303 1069 1141 
3 933 581 1156 
3 1118 817 1167 
3 14 15 1159 
3 324 912 1160 
3 115 116 1162 
3 1022 305 1165 
3 765 766 1163 
3 582 955 1161 
3 764 762 1166 
3 1082 767 1146 
3 1159 15 1173 
3 332 274 1172 
3 694 1093 1150 
3 874 938 1169 
3 15 16 1173 
3 726 1032 1164 
3 897 290 1176 
3 1008 874 1176 
3 741 740 1174 
3 744 745 1175 
3 661 611 1170 
3 996 716 1167 
3 336 1071 1152 
3 1072 677 1155 
3 678 1073 1154 
3 1062 765 1163 
3 1169 897 1176 
3 874 1169 1176 
3 290 1008 1176 
3 771 1084 1171 
3 1094 582 1161 
3 1106 661 1170 
3 1079 763 1157 
3 305 1100 1165 
3 1084 839 1171 
3 762 1114 1166 
3 812 1123 1168 
3 1101 726 1164 
3 831 1101 1164 
3 1131 332 1172 
3 1123 757 1168 
3 757 1128 1168 
3 1133 741 1174 
3 1136 897 1169 
3 777 1131 1172 
3 1158 812 1168 
3 155 156 157 
3 155 157 158 
3 154 155 158 
3 159 154 158 
3 153 154 159 
3 160 153 159 
3 152 153 160 
3 161 152 160 
3 151 152 161 
3 162 151 161 
3 150 151 162 
3 163 150 162 
3 149 150 163 
3 164 149 163 
3 148 149 164 
3 165 148 164 
3 147 148 165 
3 147 165 166 
3 146 147 166 
3 133 86 1177 
3 167 146 166 
3 145 146 167 
3 145 167 168 
3 86 133 179 
3 144 145 168 
3 144 168 169 
3 143 144 169 
3 143 169 170 
3 142 143 170 
3 132 133 1177 
3 142 170 171 
3 141 142 171 
3 141 171 172 
3 140 141 172 
3 140 172 173 
3 139 140 173 
3 139 173 174 
3 138 139 174 
3 138 174 175 
3 137 138 175 
3 137 175 176 
3 86 277 1177 
3 136 176 177 
3 136 137 176 
3 135 177 178 
3 135 136 177 
3 134 178 179 
3 134 135 178 
3 133 134 179 
3 277 132 1177 
3 92 93 1178 
3 157 156 1178 
3 93 157 1178 
3 156 92 1178 
3 132 277 85 
3 157 200 201 
3 157 158 200 
3 158 199 200 
3 158 159 199 
3 159 198 199 
3 159 160 198 
3 160 197 198 
3 160 161 197 
3 161 196 197 
3 161 162 196 
3 162 195 196 
3 162 163 195 
3 163 194 195 
3 163 164 194 
3 194 164 193 
3 164 165 193 
3 165 192 193 
3 165 166 192 
3 87 178 1179 
3 166 191 192 
3 166 167 191 
3 167 190 191 
3 178 179 1179 
3 190 167 168 
3 178 87 180 
3 189 190 168 
3 169 189 168 
3 188 189 169 
3 170 188 169 
3 188 170 187 
3 170 171 187 
3 187 171 186 
3 171 172 186 
3 278 87 1179 
3 186 172 185 
3 172 173 185 
3 185 173 184 
3 173 174 184 
3 174 175 183 
3 174 183 184 
3 175 176 182 
3 183 175 182 
3 176 177 181 
3 177 178 180 
3 182 176 181 
3 181 177 180 
3 179 278 1179 
3 94 93 1180 
3 157 201 1180 
3 93 157 1180 
3 201 94 1180 
3 278 179 86 
3 200 201 202 
3 200 202 203 
3 199 200 203 
3 199 203 204 
3 198 199 204 
3 205 198 204 
3 205 197 198 
3 205 206 197 
3 206 196 197 
3 206 207 196 
3 207 195 196 
3 207 208 195 
3 208 194 195 
3 208 209 194 
3 194 209 193 
3 209 210 193 
3 210 192 193 
3 181 88 1181 
3 210 211 192 
3 211 191 192 
3 221 88 181 
3 211 212 191 
3 212 190 191 
3 212 213 190 
3 190 213 189 
3 213 214 189 
3 180 181 1181 
3 189 214 188 
3 214 215 188 
3 188 215 187 
3 215 216 187 
3 187 216 186 
3 216 217 186 
3 186 217 185 
3 217 218 185 
3 185 218 184 
3 218 219 184 
3 88 279 1181 
3 219 220 183 
3 219 183 184 
3 220 221 182 
3 183 220 182 
3 182 221 181 
3 279 180 1181 
3 94 95 1182 
3 202 201 1182 
3 95 202 1182 
3 201 94 1182 
3 279 87 180 
3 239 240 202 
3 203 239 202 
3 238 239 203 
3 204 238 203 
3 237 238 204 
3 205 237 204 
3 236 237 205 
3 206 236 205 
3 235 236 206 
3 235 206 207 
3 234 235 207 
3 208 234 207 
3 233 234 208 
3 209 233 208 
3 232 233 209 
3 210 232 209 
3 89 220 1183 
3 231 232 210 
3 231 210 211 
3 220 221 1183 
3 231 211 230 
3 230 211 212 
3 220 89 222 
3 229 230 212 
3 229 212 213 
3 228 229 213 
3 228 213 214 
3 227 228 214 
3 215 227 214 
3 280 89 1183 
3 226 227 215 
3 226 215 216 
3 225 226 216 
3 225 216 217 
3 224 217 218 
3 224 225 217 
3 218 219 223 
3 224 218 223 
3 219 220 222 
3 219 222 223 
3 221 280 1183 
3 96 95 1184 
3 202 240 1184 
3 95 202 1184 
3 240 96 1184 
3 221 88 280 
3 239 240 241 
3 242 239 241 
3 238 239 242 
3 243 238 242 
3 237 238 243 
3 244 237 243 
3 236 237 244 
3 245 236 244 
3 235 236 245 
3 246 235 245 
3 234 235 246 
3 247 234 246 
3 233 234 247 
3 233 247 248 
3 232 233 248 
3 223 90 1185 
3 249 232 248 
3 90 223 257 
3 232 249 231 
3 249 250 231 
3 231 250 230 
3 250 251 230 
3 251 229 230 
3 229 251 252 
3 222 223 1185 
3 229 252 228 
3 252 253 228 
3 253 227 228 
3 253 254 227 
3 254 226 227 
3 255 226 254 
3 226 255 225 
3 225 255 256 
3 224 256 257 
3 224 225 256 
3 90 281 1185 
3 223 224 257 
3 281 222 1185 
3 96 97 1186 
3 241 240 1186 
3 97 241 1186 
3 240 96 1186 
3 89 222 281 
3 272 273 241 
3 242 272 241 
3 271 272 242 
3 243 271 242 
3 270 271 243 
3 244 270 243 
3 269 270 244 
3 245 269 244 
3 268 269 245 
3 246 268 245 
3 267 268 246 
3 247 267 246 
3 266 267 247 
3 91 256 1187 
3 266 247 248 
3 265 266 248 
3 256 257 1187 
3 249 265 248 
3 265 249 264 
3 256 91 258 
3 249 250 264 
3 250 263 264 
3 250 251 263 
3 251 262 263 
3 251 252 262 
3 282 91 1187 
3 252 261 262 
3 252 253 261 
3 253 254 260 
3 253 260 261 
3 254 255 259 
3 254 259 260 
3 255 256 258 
3 255 258 259 
3 257 282 1187 
3 98 97 1188 
3 241 273 1188 
3 97 241 1188 
3 273 98 1188 
3 90 282 257 
3 272 273 99 
3 272 99 100 
3 271 272 100 
3 271 100 101 
3 270 271 101 
3 270 101 102 
3 269 270 102 
3 269 102 103 
3 268 269 103 
3 268 103 104 
3 267 268 104 
3 267 104 105 
3 259 82 1189 
3 266 267 105 
3 112 82 259 
3 266 105 106 
3 265 266 106 
3 107 265 106 
3 264 265 107 
3 108 264 107 
3 263 264 108 
3 263 108 109 
3 258 259 1189 
3 263 109 262 
3 109 110 262 
3 110 261 262 
3 110 111 261 
3 111 112 260 
3 261 111 260 
3 260 112 259 
3 82 283 1189 
3 283 258 1189 
3 98 1 1190 
3 99 273 1190 
3 1 99 1190 
3 273 98 1190 
3 283 91 258 

CELL_TYPES 2241
5
5
5
5
5
5
5
5
5
5
5
5
5
5
5
5
5
5
5
5
5
5
5
5
5
5
5
5
5
5
5
5
5
5
5
5
5
5
5
5
5
5
5
5
5
5
5
5
5
5
5
5
5
5
5
5
5
5
5
5
5
5
5
5
5
5
5
5
5
5
5
5
5
5
5
5
5
5
5
5
5
5
5
5
5
5
5
5
5
5
5
5
5
5
5
5
5
5
5
5
5
5
5
5
5
5
5
5
5
5
5
5
5
5
5
5
5
5
5
5
5
5
5
5
5
5
5
5
5
5
5
5
5
5
5
5
5
5
5
5
5
5
5
5
5
5
5
5
5
5
5
5
5
5
5
5
5
5
5
5
5
5
5
5
5
5
5
5
5
5
5
5
5
5
5
5
5
5
5
5
5
5
5
5
5
5
5
5
5
5
5
5
5
5
5
5
5
5
5
5
5
5
5
5
5
5
5
5
5
5
5
5
5
5
5
5
5
5
5
5
5
5
5
5
5
5
5
5
5
5
5
5
5
5
5
5
5
5
5
5
5
5
5
5
5
5
5
5
5
5
5
5
5
5
5
5
5
5
5
5
5
5
5
5
5
5
5
5
5
5
5
5
5
5
5
5
5
5
5
5
5
5
5
5
5
5
5
5
5
5
5
5
5
5
5
5
5
5
5
5
5
5
5
5
5
5
5
5
5
5
5
5
5
5
5
5
5
5
5
5
5
5
5
5
5
5
5
5
5
5
5
5
5
5
5
5
5
5
5
5
5
5
5
5
5
5
5
5
5
5
5
5
5
5
5
5
5
5
5
5
5
5
5
5
5
5
5
5
5
5
5
5
5
5
5
5
5
5
5
5
5
5
5
5
5
5
5
5
5
5
5
5
5
5
5
5
5
5
5
5
5
5
5
5
5
5
5
5
5
5
5
5
5
5
5
5
5
5
5
5
5
5
5
5
5
5
5
5
5
5
5
5
5
5
5
5
5
5
5
5
5
5
5
5
5
5
5
5
5
5
5
5
5
5
5
5
5
5
5
5
5
5
5
5
5
5
5
5
5
5
5
5
5
5
5
5
5
5
5
5
5
5
5
5
5
5
5
5
5
5
5
5
5
5
5
5
5
5
5
5
5
5
5
5
5
5
5
5
5
5
5
5
5
5
5
5
5
5
5
5
5
5
5
5
5
5
5
5
5
5
5
5
5
5
5
5
5
5
5
5
5
5
5
5
5
5
5
5
5
5
5
5
5
5
5
5
5
5
5
5
5
5
5
5
5
5
5
5
5
5
5
5
5
5
5
5
5
5
5
5
5
5
5
5
5
5
5
5
5
5
5
5
5
5
5
5
5
5
5
5
5
5
5
5
5
5
5
5
5
5
5
5
5
5
5
5
5
5
5
5
5
5
5
5
5
5
5
5
5
5
5
5
5
5
5
5
5
5
5
5
5
5
5
5
5
5
5
5
5
5
5
5
5
5
5
5
5
5
5
5
5
5
5
5
5
5
5
5
5
5
5
5
5
5
5
5
5
5
5
5
5
5
5
5
5
5
5
5
5
5
5
5
5
5
5
5
5
5
5
5
5
5
5
5
5
5
5
5
5
5
5
5
5
5
5
5
5
5
5
5
5
5
5
5
5
5
5
5
5
5
5
5
5
5
5
5
5
5
5
5
5
5
5
5
5
5
5
5
5
5
5
5
5
5
5
5
5
5
5
5
5
5
5
5
5
5
5
5
5
5
5
5
5
5
5
5
5
5
5
5
5
5
5
5
5
5
5
5
5
5
5
5
5
5
5
5
5
5
5
5
5
5
5
5
5
5
5
5
5
5
5
5
5
5
5
5
5
5
5
5
5
5
5
5
5
5
5
5
5
5
5
5
5
5
5
5
5
5
5
5
5
5
5
5
5
5
5
5
5
5
5
5
5
5
5
5
5
5
5
5
5
5
5
5
5
5
5
5
5
5
5
5
5
5
5
5
5
5
5
5
5
5
5
5
5
5
5
5
5
5
5
5
5
5
5
5
5
5
5
5
5
5
5
5
5
5
5
5
5
5
5
5
5
5
5
5
5
5
5
5
5
5
5
5
5
5
5
5
5
5
5
5
5
5
5
5
5
5
5
5
5
5
5
5
5
5
5
5
5
5
5
5
5
5
5
5
5
5
5
5
5
5
5
5
5
5
5
5
5
5
5
5
5
5
5
5
5
5
5
5
5
5
5
5
5
5
5
5
5
5
5
5
5
5
5
5
5
5
5
5
5
5
5
5
5
5
5
5
5
5
5
5
5
5
5
5
5
5
5
5
5
5
5
5
5
5
5
5
5
5
5
5
5
5
5
5
5
5
5
5
5
5
5
5
5
5
5
5
5
5
5
5
5
5
5
5
5
5
5
5
5
5
5
5
5
5
5
5
5
5
5
5
5
5
5
5
5
5
5
5
5
5
5
5
5
5
5
5
5
5
5
5
5
5
5
5
5
5
5
5
5
5
5
5
5
5
5
5
5
5
5
5
5
5
5
5
5
5
5
5
5
5
5
5
5
5
5
5
5
5
5
5
5
5
5
5
5
5
5
5
5
5
5
5
5
5
5
5
5
5
5
5
5
5
5
5
5
5
5
5
5
5
5
5
5
5
5
5
5
5
5
5
5
5
5
5
5
5
5
5
5
5
5
5
5
5
5
5
5
5
5
5
5
5
5
5
5
5
5
5
5
5
5
5
5
5
5
5
5
5
5
5
5
5
5
5
5
5
5
5
5
5
5
5
5
5
5
5
5
5
5
5
5
5
5
5
5
5
5
5
5
5
5
5
5
5
5
5
5
5
5
5
5
5
5
5
5
5
5
5
5
5
5
5
5
5
5
5
5
5
5
5
5
5
5
5
5
5
5
5
5
5
5
5
5
5
5
5
5
5
5
5
5
5
5
5
5
5
5
5
5
5
5
5
5
5
5
5
5
5
5
5
5
5
5
5
5
5
5
5
5
5
5
5
5
5
5
5
5
5
5
5
5
5
5
5
5
5
5
5
5
5
5
5
5
5
5
5
5
5
5
5
5
5
5
5
5
5
5
5
5
5
5
5
5
5
5
5
5
5
5
5
5
5
5
5
5
5
5
5
5
5
5
5
5
5
5
5
5
5
5
5
5
5
5
5
5
5
5
5
5
5
5
5
5
5
5
5
5
5
5
5
5
5
5
5
5
5
5
5
5
5
5
5
5
5
5
5
5
5
5
5
5
5
5
5
5
5
5
5
5
5
5
5
5
5
5
5
5
5
5
5
5
5
5
5
5
5
5
5
5
5
5
5
5
5
5
5
5
5
5
5
5
5
5
5
5
5
5
5
5
5
5
5
5
5
5
5
5
5
5
5
5
5
5
5
5
5
5
5
5
5
5
5
5
5
5
5
5
5
5
5
5
5
5
5
5
5
5
5
5
5
5
5
5
5
5
5
5
5
5
5
5
5
5
5
5
5
5
5
5
5
5
5
5
5
5
5
5
5
5
5
5
5
5
5
5
5
5
5
5
5
5
5
5
5
5
5
5
5
5
5
5
5
5
5
5
5
5
5
5
5
5
5
5
5
5
5
5
5
5
5
5
5
5
5
5
5
5
5
5
5
5
5
5
5
5
5
5
5
5
5
5
5
5
5
5
5
5
5
5
5
5
5
5
5
5
5
5
5
5
5
5
5
5
5
5
5
5
5
5
5
5
5
5
5
5
5
5
5
5
5
5
5
5
5
5
5
5
5
5
5
5
5
5
5
5
5
5
5
5
5
5
5
5
5
5
5
5
5
5
5
5
5
5
5
5
5
5
5
5
5
5
5
5
5
5
5
5
5
5
5
5
5
5
5
5
5
5
5
5
5
5
5
5
5
5
5
5
5
5
5
5
5
5
5
5
5
5
5
5
5
5
5
5
5
5
5
5
5
5
5
5
5
5
5
5
5
5
5
5
5
5
5
5
5
5
5
5
5
5
5
5
5
5
5
5
5
5
5
5
5
5
5
5
5
5
5
5
5
5
5
5
5
5
5
5
5
5
5
5
5
5
5
5
5
5
5
5
5
5
5
5
5
5
5
5
5
5
5
5
5
5
5
5
5
5
5
5
5
5
5
5
5
5
5
5
5
5
5
5
5
5
5
5
5
5
5
5
5
5
5
5
5
5
5
5
5
5
5
5
5
5
5
5
5
5
5
5
5
5
5
5
5
5
5
5
5
5
5
5
5
5
5
5
5
5
5
5
5
5
5
5
5
5
5
5
5
5
5
5
5
5
5
5
5
5
5
5
5
5
5
5
5
5
5
5
5
5
5
5
5
5
5
5
5
5
5
5
5
5
5
5
5
5
5
5
5
5
5
5
5
5
5
5
5
5
5
5
5
5
5
5
5
5
5
5
5
5
5
5
5
5
5
5
5
5
5
5
5
5
5
5
5
5
5
5
5
5
5
5
5
5
5
5
5
5
5
5
5
5
5
5
5
5
5
5
5
5
5
5
5
5
5
5
5
5
5
5
5
5
5
5
5
5
5
5
5
5
5
5
5
5
5
5
5
5
5
5
5
5
5
5
5
5
5
5
5
5
5
5
5
5
5
5
5
5
5
5
5
5
5
5
5
5
5
5
5
5
5
5
5
5
5
5
5
5
5
5
5
5
5
5
5
5
5
5
5
5
5
5
5
5
5
5
5
5
5
5
5
5
5
5
5
5
5
5
5
5
5
5
5
5
5
5
5
5
5
5
5
5
5
5
5
5
5
5
5
5
5
5
5
5
5
5
5
5
5
5
5
5
5
5
5
5
5
5
5
5
5
5
5
5
5
5
5
5
5
5
5
5
5
5
5
5
5
5
5
5
5
5
5
5
5
5
5
5
5
5
5
5
5
5
5
5
5
5
5
5
5
5
5
5
5
5
5
5
5
5
5
5
5
5
5
5
5
5
5
5
5
5
5
5
5
5
5
5
5
5
5
5
5
5
5
5
5
5
5
5
5
5
5
5
5
5
5
5
5
5
5
5
5
5
5
5
5
5
5
5
5
5
5
5
5
5
5
5
5
5
5
5

POINT_DATA 1191

VECTORS coord float
0.0 0.0 0.0 
5.000000000000e+01 -1.000000000000e+01 0.0 
0.0 -2.000000000000e+01 0.0 
5.000000000000e+01 -2.000000000000e+01 0.0 
0.0 -9.999999999991e-01 0.0 
0.0 -1.999999999998e+00 0.0 
0.0 -2.999999999997e+00 0.0 
0.0 -3.999999999994e+00 0.0 
0.0 -4.999999999991e+00 0.0 
0.0 -5.999999999988e+00 0.0 
0.0 -6.999999999985e+00 0.0 
0.0 -7.999999999982e+00 0.0 
0.0 -8.999999999983e+00 0.0 
0.0 -9.999999999985e+00 0.0 
0.0 -1.099999999999e+01 0.0 
0.0 -1.199999999999e+01 0.0 
0.0 -1.299999999999e+01 0.0 
0.0 -1.399999999999e+01 0.0 
0.0 -1.499999999999e+01 0.0 
0.0 -1.599999999999e+01 0.0 
0.0 -1.700000000000e+01 0.0 
0.0 -1.800000000000e+01 0.0 
0.0 -1.900000000000e+01 0.0 
4.900000000001e+01 -2.000000000000e+01 0.0 
4.800000000001e+01 -2.000000000000e+01 0.0 
4.700000000002e+01 -2.000000000000e+01 0.0 
4.600000000003e+01 -2.000000000000e+01 0.0 
4.500000000004e+01 -2.000000000000e+01 0.0 
4.400000000004e+01 -2.000000000000e+01 0.0 
4.300000000005e+01 -2.000000000000e+01 0.0 
4.200000000006e+01 -2.000000000000e+01 0.0 
4.100000000006e+01 -2.000000000000e+01 0.0 
4.000000000007e+01 -2.000000000000e+01 0.0 
3.900000000008e+01 -2.000000000000e+01 0.0 
3.800000000009e+01 -2.000000000000e+01 0.0 
3.700000000009e+01 -2.000000000000e+01 0.0 
3.600000000010e+01 -2.000000000000e+01 0.0 
3.500000000011e+01 -2.000000000000e+01 0.0 
3.400000000011e+01 -2.000000000000e+01 0.0 
3.300000000012e+01 -2.000000000000e+01 0.0 
3.200000000013e+01 -2.000000000000e+01 0.0 
3.100000000013e+01 -2.000000000000e+01 0.0 
3.000000000013e+01 -2.000000000000e+01 0.0 
2.900000000013e+01 -2.000000000000e+01 0.0 
2.800000000013e+01 -2.000000000000e+01 0.0 
2.700000000013e+01 -2.000000000000e+01 0.0 
2.600000000013e+01 -2.000000000000e+01 0.0 
2.500000000013e+01 -2.000000000000e+01 0.0 
2.400000000013e+01 -2.000000000000e+01 0.0 
2.300000000013e+01 -2.000000000000e+01 0.0 
2.200000000013e+01 -2.000000000000e+01 0.0 
2.100000000013e+01 -2.000000000000e+01 0.0 
2.000000000013e+01 -2.000000000000e+01 0.0 
1.900000000013e+01 -2.000000000000e+01 0.0 
1.800000000013e+01 -2.000000000000e+01 0.0 
1.700000000012e+01 -2.000000000000e+01 0.0 
1.600000000011e+01 -2.000000000000e+01 0.0 
1.500000000011e+01 -2.000000000000e+01 0.0 
1.400000000010e+01 -2.000000000000e+01 0.0 
1.300000000009e+01 -2.000000000000e+01 0.0 
1.200000000009e+01 -2.000000000000e+01 0.0 
1.100000000008e+01 -2.000000000000e+01 0.0 
1.000000000007e+01 -2.000000000000e+01 0.0 
9.000000000064e+00 -2.000000000000e+01 0.0 
8.000000000057e+00 -2.000000000000e+01 0.0 
7.000000000050e+00 -2.000000000000e+01 0.0 
6.000000000043e+00 -2.000000000000e+01 0.0 
5.000000000036e+00 -2.000000000000e+01 0.0 
4.000000000028e+00 -2.000000000000e+01 0.0 
3.000000000021e+00 -2.000000000000e+01 0.0 
2.000000000014e+00 -2.000000000000e+01 0.0 
1.000000000007e+00 -2.000000000000e+01 0.0 
5.000000000000e+01 -1.100000000000e+01 0.0 
5.000000000000e+01 -1.200000000000e+01 0.0 
5.000000000000e+01 -1.300000000000e+01 0.0 
5.000000000000e+01 -1.400000000000e+01 0.0 
5.000000000000e+01 -1.500000000000e+01 0.0 
5.000000000000e+01 -1.600000000000e+01 0.0 
5.000000000000e+01 -1.700000000000e+01 0.0 
5.000000000000e+01 -1.800000000000e+01 0.0 
5.000000000000e+01 -1.900000000000e+01 0.0 
2.000000000000e+01 0.0 0.0 
3.500000000000e+01 -1.000000000000e+01 0.0 
2.150000000000e+01 -1.000000000000e+00 0.0 
2.300000000000e+01 -2.000000000000e+00 0.0 
2.450000000000e+01 -3.000000000000e+00 0.0 
2.600000000000e+01 -4.000000000000e+00 0.0 
2.750000000000e+01 -5.000000000000e+00 0.0 
2.900000000000e+01 -6.000000000000e+00 0.0 
3.050000000000e+01 -7.000000000000e+00 0.0 
3.200000000000e+01 -8.000000000000e+00 0.0 
3.350000000000e+01 -9.000000000000e+00 0.0 
5.000000000000e+01 -3.000000000000e+00 0.0 
5.000000000000e+01 -4.000000000000e+00 0.0 
5.000000000000e+01 -5.000000000000e+00 0.0 
5.000000000000e+01 -6.000000000000e+00 0.0 
5.000000000000e+01 -7.000000000000e+00 0.0 
5.000000000000e+01 -8.000000000000e+00 0.0 
5.000000000000e+01 -9.000000000000e+00 0.0 
4.900000000000e+01 -1.000000000000e+01 0.0 
4.800000000000e+01 -1.000000000000e+01 0.0 
4.700000000000e+01 -1.000000000000e+01 0.0 
4.600000000000e+01 -1.000000000000e+01 0.0 
4.500000000000e+01 -1.000000000000e+01 0.0 
4.400000000000e+01 -1.000000000000e+01 0.0 
4.300000000000e+01 -1.000000000000e+01 0.0 
4.200000000000e+01 -1.000000000000e+01 0.0 
4.100000000000e+01 -1.000000000000e+01 0.0 
4.000000000000e+01 -1.000000000000e+01 0.0 
3.900000000000e+01 -1.000000000000e+01 0.0 
3.800000000000e+01 -1.000000000000e+01 0.0 
3.700000000000e+01 -1.000000000000e+01 0.0 
3.600000000000e+01 -1.000000000000e+01 0.0 
1.900000000000e+01 0.0 0.0 
1.800000000000e+01 0.0 0.0 
1.700000000000e+01 0.0 0.0 
1.600000000000e+01 0.0 0.0 
1.500000000000e+01 0.0 0.0 
1.400000000000e+01 0.0 0.0 
1.300000000000e+01 0.0 0.0 
1.200000000000e+01 0.0 0.0 
1.100000000000e+01 0.0 0.0 
1.000000000000e+01 0.0 0.0 
9.000000000000e+00 0.0 0.0 
8.000000000000e+00 0.0 0.0 
7.000000000000e+00 0.0 0.0 
6.000000000000e+00 0.0 0.0 
5.000000000000e+00 0.0 0.0 
4.000000000000e+00 0.0 0.0 
3.000000000000e+00 0.0 0.0 
2.000000000000e+00 0.0 0.0 
1.000000000000e+00 0.0 0.0 
2.548076923077e+01 -3.000000000000e+00 0.0 
2.646153846153e+01 -3.000000000000e+00 0.0 
2.744230769230e+01 -3.000000000000e+00 0.0 
2.842307692306e+01 -3.000000000000e+00 0.0 
2.940384615383e+01 -3.000000000000e+00 0.0 
3.038461538459e+01 -3.000000000000e+00 0.0 
3.136538461536e+01 -3.000000000000e+00 0.0 
3.234615384612e+01 -3.000000000000e+00 0.0 
3.332692307687e+01 -3.000000000000e+00 0.0 
3.430769230762e+01 -3.000000000000e+00 0.0 
3.528846153837e+01 -3.000000000000e+00 0.0 
3.626923076912e+01 -3.000000000000e+00 0.0 
3.724999999988e+01 -3.000000000000e+00 0.0 
3.823076923065e+01 -3.000000000000e+00 0.0 
3.921153846143e+01 -3.000000000000e+00 0.0 
4.019230769221e+01 -3.000000000000e+00 0.0 
4.117307692299e+01 -3.000000000000e+00 0.0 
4.215384615377e+01 -3.000000000000e+00 0.0 
4.313461538455e+01 -3.000000000000e+00 0.0 
4.411538461533e+01 -3.000000000000e+00 0.0 
4.509615384611e+01 -3.000000000000e+00 0.0 
4.607692307688e+01 -3.000000000000e+00 0.0 
4.705769230766e+01 -3.000000000000e+00 0.0 
4.803846153844e+01 -3.000000000000e+00 0.0 
4.901923076922e+01 -3.000000000000e+00 0.0 
4.900000000000e+01 -4.000000000000e+00 0.0 
4.800000000000e+01 -4.000000000000e+00 0.0 
4.700000000000e+01 -4.000000000000e+00 0.0 
4.600000000000e+01 -4.000000000000e+00 0.0 
4.500000000000e+01 -4.000000000000e+00 0.0 
4.400000000000e+01 -4.000000000000e+00 0.0 
4.300000000000e+01 -4.000000000000e+00 0.0 
4.200000000000e+01 -4.000000000000e+00 0.0 
4.100000000000e+01 -4.000000000000e+00 0.0 
4.000000000000e+01 -4.000000000000e+00 0.0 
3.900000000000e+01 -4.000000000000e+00 0.0 
3.800000000000e+01 -4.000000000000e+00 0.0 
3.700000000000e+01 -4.000000000000e+00 0.0 
3.600000000000e+01 -4.000000000000e+00 0.0 
3.500000000000e+01 -4.000000000000e+00 0.0 
3.400000000000e+01 -4.000000000000e+00 0.0 
3.300000000000e+01 -4.000000000000e+00 0.0 
3.200000000000e+01 -4.000000000000e+00 0.0 
3.100000000000e+01 -4.000000000000e+00 0.0 
3.000000000000e+01 -4.000000000000e+00 0.0 
2.900000000000e+01 -4.000000000000e+00 0.0 
2.800000000000e+01 -4.000000000000e+00 0.0 
2.700000000000e+01 -4.000000000000e+00 0.0 
2.847826086957e+01 -5.000000000000e+00 0.0 
2.945652173913e+01 -5.000000000000e+00 0.0 
3.043478260870e+01 -5.000000000000e+00 0.0 
3.141304347826e+01 -5.000000000000e+00 0.0 
3.239130434783e+01 -5.000000000000e+00 0.0 
3.336956521739e+01 -5.000000000000e+00 0.0 
3.434782608696e+01 -5.000000000000e+00 0.0 
3.532608695652e+01 -5.000000000000e+00 0.0 
3.630434782609e+01 -5.000000000000e+00 0.0 
3.728260869565e+01 -5.000000000000e+00 0.0 
3.826086956522e+01 -5.000000000000e+00 0.0 
3.923913043478e+01 -5.000000000000e+00 0.0 
4.021739130435e+01 -5.000000000000e+00 0.0 
4.119565217391e+01 -5.000000000000e+00 0.0 
4.217391304348e+01 -5.000000000000e+00 0.0 
4.315217391304e+01 -5.000000000000e+00 0.0 
4.413043478261e+01 -5.000000000000e+00 0.0 
4.510869565217e+01 -5.000000000000e+00 0.0 
4.608695652174e+01 -5.000000000000e+00 0.0 
4.706521739130e+01 -5.000000000000e+00 0.0 
4.804347826087e+01 -5.000000000000e+00 0.0 
4.902173913043e+01 -5.000000000000e+00 0.0 
4.900000000001e+01 -6.000000000000e+00 0.0 
4.800000000003e+01 -6.000000000000e+00 0.0 
4.700000000004e+01 -6.000000000000e+00 0.0 
4.600000000006e+01 -6.000000000000e+00 0.0 
4.500000000007e+01 -6.000000000000e+00 0.0 
4.400000000009e+01 -6.000000000000e+00 0.0 
4.300000000010e+01 -6.000000000000e+00 0.0 
4.200000000012e+01 -6.000000000000e+00 0.0 
4.100000000013e+01 -6.000000000000e+00 0.0 
4.000000000014e+01 -6.000000000000e+00 0.0 
3.900000000014e+01 -6.000000000000e+00 0.0 
3.800000000012e+01 -6.000000000000e+00 0.0 
3.700000000010e+01 -6.000000000000e+00 0.0 
3.600000000008e+01 -6.000000000000e+00 0.0 
3.500000000006e+01 -6.000000000000e+00 0.0 
3.400000000005e+01 -6.000000000000e+00 0.0 
3.300000000003e+01 -6.000000000000e+00 0.0 
3.200000000001e+01 -6.000000000000e+00 0.0 
3.100000000000e+01 -6.000000000000e+00 0.0 
3.000000000000e+01 -6.000000000000e+00 0.0 
3.147499999998e+01 -7.000000000000e+00 0.0 
3.244999999998e+01 -7.000000000000e+00 0.0 
3.342499999998e+01 -7.000000000000e+00 0.0 
3.439999999998e+01 -7.000000000000e+00 0.0 
3.537499999998e+01 -7.000000000000e+00 0.0 
3.634999999998e+01 -7.000000000000e+00 0.0 
3.732499999998e+01 -7.000000000000e+00 0.0 
3.829999999998e+01 -7.000000000000e+00 0.0 
3.927499999999e+01 -7.000000000000e+00 0.0 
4.024999999999e+01 -7.000000000000e+00 0.0 
4.122499999999e+01 -7.000000000000e+00 0.0 
4.219999999999e+01 -7.000000000000e+00 0.0 
4.317499999999e+01 -7.000000000000e+00 0.0 
4.414999999999e+01 -7.000000000000e+00 0.0 
4.512499999999e+01 -7.000000000000e+00 0.0 
4.609999999999e+01 -7.000000000000e+00 0.0 
4.707500000000e+01 -7.000000000000e+00 0.0 
4.805000000000e+01 -7.000000000000e+00 0.0 
4.902500000000e+01 -7.000000000000e+00 0.0 
4.900000000000e+01 -8.000000000000e+00 0.0 
4.800000000000e+01 -8.000000000000e+00 0.0 
4.700000000000e+01 -8.000000000000e+00 0.0 
4.600000000000e+01 -8.000000000000e+00 0.0 
4.500000000000e+01 -8.000000000000e+00 0.0 
4.400000000000e+01 -8.000000000000e+00 0.0 
4.300000000000e+01 -8.000000000000e+00 0.0 
4.200000000000e+01 -8.000000000000e+00 0.0 
4.100000000000e+01 -8.000000000000e+00 0.0 
4.000000000000e+01 -8.000000000000e+00 0.0 
3.900000000000e+01 -8.000000000000e+00 0.0 
3.800000000000e+01 -8.000000000000e+00 0.0 
3.700000000000e+01 -8.000000000000e+00 0.0 
3.600000000000e+01 -8.000000000000e+00 0.0 
3.500000000000e+01 -8.000000000000e+00 0.0 
3.400000000000e+01 -8.000000000000e+00 0.0 
3.300000000000e+01 -8.000000000000e+00 0.0 
3.447058823527e+01 -9.000000000000e+00 0.0 
3.544117647055e+01 -9.000000000000e+00 0.0 
3.641176470582e+01 -9.000000000000e+00 0.0 
3.738235294109e+01 -9.000000000000e+00 0.0 
3.835294117637e+01 -9.000000000000e+00 0.0 
3.932352941164e+01 -9.000000000000e+00 0.0 
4.029411764691e+01 -9.000000000000e+00 0.0 
4.126470588219e+01 -9.000000000000e+00 0.0 
4.223529411748e+01 -9.000000000000e+00 0.0 
4.320588235279e+01 -9.000000000000e+00 0.0 
4.417647058811e+01 -9.000000000000e+00 0.0 
4.514705882342e+01 -9.000000000000e+00 0.0 
4.611764705874e+01 -9.000000000000e+00 0.0 
4.708823529405e+01 -9.000000000000e+00 0.0 
4.805882352937e+01 -9.000000000000e+00 0.0 
4.902941176468e+01 -9.000000000000e+00 0.0 
2.075000000000e+01 -5.000000000006e-01 0.0 
2.225000000000e+01 -1.500000000000e+00 0.0 
2.375000000000e+01 -2.500000000000e+00 0.0 
2.525000000000e+01 -3.500000000000e+00 0.0 
2.675000000000e+01 -4.500000000000e+00 0.0 
2.825000000000e+01 -5.500000000000e+00 0.0 
2.975000000000e+01 -6.500000000000e+00 0.0 
3.125000000000e+01 -7.500000000000e+00 0.0 
3.275000000000e+01 -8.500000000000e+00 0.0 
3.425000000000e+01 -9.500000000000e+00 0.0 
2.226951693683e+01 -2.403913980114e+00 0.0 
1.650149491944e+01 -1.913490915758e+01 0.0 
1.050042386896e+01 -8.504605092970e-01 0.0 
1.553146524712e+01 -8.281255032105e-01 0.0 
1.150000000008e+01 -1.913397459621e+01 0.0 
2.530060260647e+01 -4.428336431260e+00 0.0 
8.651114563942e-01 -1.052096295641e+01 0.0 
2.050000000013e+01 -1.913397459622e+01 0.0 
2.819198729811e+01 -6.399519052838e+00 0.0 
2.445670302931e+01 -1.915649188023e+01 0.0 
3.117591465718e+01 -8.394293040695e+00 0.0 
7.465053044742e+00 -1.920411160581e+01 0.0 
6.398295709691e+00 -8.230098819370e-01 0.0 
2.849659607461e+01 -1.914296187762e+01 0.0 
3.418732642882e+01 -1.040265792588e+01 0.0 
8.386450935063e-01 -6.533605142809e+00 0.0 
9.178661865596e-01 -1.329769195597e+01 0.0 
3.149448624493e+01 -1.910466733764e+01 0.0 
3.552916747426e+01 -1.914628590759e+01 0.0 
4.449210346537e+01 -1.914359085008e+01 0.0 
4.140975975145e+01 -1.906941860733e+01 0.0 
3.847475958753e+01 -1.916622382724e+01 0.0 
3.653774794640e+01 -1.088712800241e+01 0.0 
4.047886341787e+01 -1.090139014048e+01 0.0 
4.348006339825e+01 -1.092792621489e+01 0.0 
4.919519968029e+01 -1.451526755068e+01 0.0 
4.500000000032e+00 -1.913397459621e+01 0.0 
1.856136921614e+01 -8.212235170404e-01 0.0 
3.499895312306e+00 -8.661165539723e-01 0.0 
9.076088696565e-01 -1.642306201891e+01 0.0 
4.655174095477e+01 -1.086183387525e+01 0.0 
9.430688970604e-01 -3.496112672958e+00 0.0 
3.353992337063e+01 -1.901202090820e+01 0.0 
2.249746016977e+01 -1.921262287282e+01 0.0 
2.650122741777e+01 -1.916123026018e+01 0.0 
1.863571384842e+01 -1.908325534840e+01 0.0 
1.450089971693e+01 -1.917691901860e+01 0.0 
1.350044695317e+01 -8.659695299584e-01 0.0 
3.849987469880e+01 -1.084154983397e+01 0.0 
9.454419857884e+00 -1.900818879936e+01 0.0 
4.917398660523e+01 -1.645692866081e+01 0.0 
8.500000000000e+00 -8.660254037844e-01 0.0 
8.660319230785e-01 -8.500111697188e+00 0.0 
4.649022621545e+01 -1.930506220113e+01 0.0 
2.667688107845e+01 -5.420288124331e+00 0.0 
2.379251615665e+01 -3.412225477429e+00 0.0 
2.966631491830e+01 -7.389030232731e+00 0.0 
3.267915035995e+01 -9.396934932445e+00 0.0 
2.074836922338e+01 -1.320054020319e+00 0.0 
4.915985743621e+01 -1.261973384855e+01 0.0 
2.527129768623e+00 -1.931592414663e+01 0.0 
1.538676247410e+00 -8.436956619311e-01 0.0 
4.908096641539e+01 -1.842484004551e+01 0.0 
3.478612492673e+01 -1.090889364140e+01 0.0 
3.409757055860e+01 -1.131991530427e+01 0.0 
3.501895309466e+01 -1.177687842717e+01 0.0 
3.407758073088e+01 -1.224293381580e+01 0.0 
3.484541875390e+01 -1.277051428430e+01 0.0 
3.400322025842e+01 -1.319022775640e+01 0.0 
3.321672625034e+01 -1.266779191233e+01 0.0 
3.315244139236e+01 -1.360984106532e+01 0.0 
3.236335186892e+01 -1.308463225210e+01 0.0 
3.478337442841e+01 -1.372341158982e+01 0.0 
3.230105923633e+01 -1.403023731610e+01 0.0 
3.150954055289e+01 -1.350301767700e+01 0.0 
3.144604792090e+01 -1.444931742516e+01 0.0 
3.065653897123e+01 -1.392357262981e+01 0.0 
3.071897610812e+01 -1.297447031198e+01 0.0 
2.986790411740e+01 -1.339226181535e+01 0.0 
2.993181466745e+01 -1.244703272398e+01 0.0 
2.908023061869e+01 -1.286254537734e+01 0.0 
2.901619051372e+01 -1.380881655279e+01 0.0 
2.822986160390e+01 -1.327695262116e+01 0.0 
2.829453476870e+01 -1.233265343811e+01 0.0 
2.744542905518e+01 -1.274510491105e+01 0.0 
2.751120089246e+01 -1.180368086886e+01 0.0 
2.666218649885e+01 -1.221619339205e+01 0.0 
2.672371209234e+01 -1.127125228527e+01 0.0 
2.587763216302e+01 -1.168539979114e+01 0.0 
2.581165585299e+01 -1.262994410089e+01 0.0 
2.502890882577e+01 -1.209827323619e+01 0.0 
2.509631327757e+01 -1.115492410304e+01 0.0 
2.424662989877e+01 -1.156630981079e+01 0.0 
2.431704046904e+01 -1.062389179334e+01 0.0 
2.346445438728e+01 -1.103427680694e+01 0.0 
2.339382552877e+01 -1.197964871788e+01 0.0 
2.260936050780e+01 -1.144513277642e+01 0.0 
2.268075012022e+01 -1.049911928216e+01 0.0 
2.182525737661e+01 -1.090920811464e+01 0.0 
2.189682319817e+01 -9.961716944568e+00 0.0 
2.104174127792e+01 -1.037266986667e+01 0.0 
2.111304367575e+01 -9.424179358711e+00 0.0 
2.025306185381e+01 -9.832727364719e+00 0.0 
2.018141124247e+01 -1.079140628871e+01 0.0 
1.938594498257e+01 -1.025147354112e+01 0.0 
1.946106490453e+01 -9.288010758448e+00 0.0 
1.858929958352e+01 -9.706319802516e+00 0.0 
1.851540991219e+01 -1.067205988724e+01 0.0 
1.771485303178e+01 -1.012504443115e+01 0.0 
1.764134552256e+01 -1.109360378538e+01 0.0 
1.683745148095e+01 -1.054496365337e+01 0.0 
1.691852964353e+01 -9.582555261178e+00 0.0 
1.603603813062e+01 -1.000160132379e+01 0.0 
1.595824239350e+01 -1.096750698862e+01 0.0 
1.515080624291e+01 -1.041639501931e+01 0.0 
1.523171602559e+01 -9.451711491453e+00 0.0 
1.434621060709e+01 -9.871956467464e+00 0.0 
1.426777178765e+01 -1.083749501371e+01 0.0 
1.345775282374e+01 -1.028803175500e+01 0.0 
1.354103873368e+01 -9.324918457162e+00 0.0 
1.265072018622e+01 -9.742612837270e+00 0.0 
1.257285762070e+01 -1.071557782384e+01 0.0 
1.175874815690e+01 -1.015972324288e+01 0.0 
1.184203019714e+01 -9.193604071377e+00 0.0 
1.094927709905e+01 -9.612103238656e+00 0.0 
1.086938022910e+01 -1.058685085646e+01 0.0 
1.005424098961e+01 -1.002939116380e+01 0.0 
9.977974613295e+00 -1.101324897989e+01 0.0 
1.012915646404e+01 -9.051815821181e+00 0.0 
9.237127782494e+00 -9.471239055559e+00 0.0 
9.308426593771e+00 -8.483376461131e+00 0.0 
8.418806073345e+00 -8.910712374517e+00 0.0 
2.253688464062e+01 -1.239459402279e+01 0.0 
8.495126726666e+00 -7.921646665254e+00 0.0 
9.389727383206e+00 -7.512103628377e+00 0.0 
7.601560812974e+00 -8.349460349344e+00 0.0 
7.525680547759e+00 -9.339736686940e+00 0.0 
7.677888324502e+00 -7.359727833346e+00 0.0 
6.782001206724e+00 -7.788454494773e+00 0.0 
6.858778622885e+00 -6.797338062822e+00 0.0 
2.196596590865e+01 -8.979025665442e+00 0.0 
2.816540108272e+01 -1.422634142353e+01 0.0 
5.961601194403e+00 -7.226824010712e+00 0.0 
6.038171749656e+00 -6.234825887079e+00 0.0 
6.936257279557e+00 -5.805287640737e+00 0.0 
6.115068918323e+00 -5.242109758768e+00 0.0 
3.564391741903e+01 -1.329240553876e+01 0.0 
3.558115605778e+01 -1.425902892003e+01 0.0 
3.645445282201e+01 -1.381970786460e+01 0.0 
3.639744204358e+01 -1.479198128612e+01 0.0 
3.727266909778e+01 -1.435399586226e+01 0.0 
5.216667013081e+00 -5.671788584287e+00 0.0 
3.220697293295e+01 -1.499594545107e+01 0.0 
3.551112158269e+01 -1.523479869250e+01 0.0 
2.836056961467e+01 -1.139032434851e+01 0.0 
2.516730388602e+01 -1.021382726837e+01 0.0 
1.844436907403e+01 -1.164097215196e+01 0.0 
5.885434318740e+00 -8.218694781467e+00 0.0 
5.064071066867e+00 -7.656614643901e+00 0.0 
4.988089103470e+00 -8.649722082718e+00 0.0 
1.079421050408e+01 -1.157014985435e+01 0.0 
9.902420005256e+00 -1.199903342656e+01 0.0 
1.071994252214e+01 -1.255727909771e+01 0.0 
9.826974788171e+00 -1.298659581767e+01 0.0 
1.064607883789e+01 -1.354595476388e+01 0.0 
9.751541265343e+00 -1.397556905071e+01 0.0 
8.932296185869e+00 -1.341553353988e+01 0.0 
8.856399248106e+00 -1.440570715508e+01 0.0 
8.036186803543e+00 -1.384470558472e+01 0.0 
1.057112875118e+01 -1.453516759081e+01 0.0 
1.146582585687e+01 -1.410539926903e+01 0.0 
7.959894480382e+00 -1.483563350928e+01 0.0 
7.138792279156e+00 -1.427465094140e+01 0.0 
7.062506792418e+00 -1.526615385482e+01 0.0 
6.240693558277e+00 -1.470508863040e+01 0.0 
6.316957575451e+00 -1.371212581281e+01 0.0 
5.418183007107e+00 -1.414253605022e+01 0.0 
5.494748364428e+00 -1.314886770603e+01 0.0 
1.756825565873e+01 -1.206433872514e+01 0.0 
1.837565773345e+01 -1.261356468266e+01 0.0 
1.749574831391e+01 -1.303769280014e+01 0.0 
1.830539187332e+01 -1.358828364284e+01 0.0 
1.742278925170e+01 -1.401367746928e+01 0.0 
1.823303007798e+01 -1.456432294258e+01 0.0 
1.734941694138e+01 -1.499213734361e+01 0.0 
1.653760041637e+01 -1.443920312098e+01 0.0 
3.056237977307e+01 -1.487132260174e+01 0.0 
1.866469084762e+01 -8.742953000418e+00 0.0 
1.953669694916e+01 -8.326038909849e+00 0.0 
1.874194303780e+01 -7.780688158966e+00 0.0 
1.961032016741e+01 -7.366854697285e+00 0.0 
1.881715755159e+01 -6.821102209649e+00 0.0 
1.968369797150e+01 -6.407747217358e+00 0.0 
1.889237123259e+01 -5.858375520026e+00 0.0 
1.802038875366e+01 -6.276202618170e+00 0.0 
1.809793837984e+01 -5.307629520489e+00 0.0 
1.721985207997e+01 -5.728242054488e+00 0.0 
1.729850893523e+01 -4.756990819347e+00 0.0 
1.641745664240e+01 -5.174636548624e+00 0.0 
2.495978509456e+01 -1.304406404294e+01 0.0 
1.911567814831e+01 -1.413854250293e+01 0.0 
1.904387332608e+01 -1.511463127723e+01 0.0 
1.992115934240e+01 -1.468788025898e+01 0.0 
7.013706899628e+00 -4.812582868662e+00 0.0 
5.342091874585e+00 -1.513658157269e+01 0.0 
1.139098043784e+01 -1.509488509480e+01 0.0 
1.228151810610e+01 -1.465617481983e+01 0.0 
1.646373110164e+01 -1.541993323337e+01 0.0 
5.293328636712e+00 -4.678385108584e+00 0.0 
1.975965862987e+01 -5.448124345648e+00 0.0 
2.054318374236e+01 -5.992561293251e+00 0.0 
3.721453439063e+01 -1.533216152738e+01 0.0 
3.809302733893e+01 -1.489235527381e+01 0.0 
1.220852788900e+01 -1.565304565230e+01 0.0 
4.394120899730e+00 -5.108397613210e+00 0.0 
8.779354620288e+00 -1.539524721159e+01 0.0 
1.817791047702e+01 -4.338570146253e+00 0.0 
4.518860013839e+00 -1.457343189307e+01 0.0 
4.442712140414e+00 -1.556841391069e+01 0.0 
8.115343466391e+00 -1.285760324283e+01 0.0 
1.985334703171e+01 -1.566478400426e+01 0.0 
2.071953850276e+01 -1.522074243119e+01 0.0 
1.634012953883e+01 -6.154777738301e+00 0.0 
1.553479994708e+01 -5.593730508879e+00 0.0 
1.561265946942e+01 -4.617761762647e+00 0.0 
1.470674212978e+01 -5.064576488228e+00 0.0 
1.464498299883e+01 -6.026514471420e+00 0.0 
1.383271561817e+01 -5.467796261169e+00 0.0 
1.389241253067e+01 -4.504338666645e+00 0.0 
1.301868735463e+01 -4.907185188626e+00 0.0 
1.294514184846e+01 -5.888160903592e+00 0.0 
1.212955968622e+01 -5.328262335277e+00 0.0 
1.220721122383e+01 -4.341264976687e+00 0.0 
1.131324345897e+01 -4.766773516508e+00 0.0 
5.266597955397e+00 -1.613148974258e+01 0.0 
1.737805990867e+01 -3.786677807525e+00 0.0 
3.078438094513e+01 -1.203225297748e+01 0.0 
1.131569882285e+01 -1.608511932110e+01 0.0 
1.728478341782e+01 -1.596017432313e+01 0.0 
3.803465906019e+01 -1.587509751228e+01 0.0 
3.891681276677e+01 -1.543395196905e+01 0.0 
3.897340985302e+01 -1.444710288980e+01 0.0 
3.980095968193e+01 -1.499059496613e+01 0.0 
3.974334598189e+01 -1.597921884150e+01 0.0 
4.062964983717e+01 -1.553518690417e+01 0.0 
4.068729602479e+01 -1.454434445295e+01 0.0 
4.151772679790e+01 -1.508974196007e+01 0.0 
4.157505195739e+01 -1.409694289912e+01 0.0 
4.240699932656e+01 -1.464347955968e+01 0.0 
4.234898051011e+01 -1.563721375790e+01 0.0 
4.323934606035e+01 -1.519082036405e+01 0.0 
4.329740528208e+01 -1.419587509788e+01 0.0 
4.413056841369e+01 -1.474359631875e+01 0.0 
4.418850110108e+01 -1.374786684042e+01 0.0 
4.502219770667e+01 -1.429605103525e+01 0.0 
4.496411937907e+01 -1.529215882720e+01 0.0 
4.490027319897e+00 -4.154167794594e+00 0.0 
1.565080385988e+01 -1.486411982419e+01 0.0 
1.557610691279e+01 -1.584855627870e+01 0.0 
4.195350646612e+00 -8.089117689096e+00 0.0 
4.124027797830e+00 -9.082831955007e+00 0.0 
4.917944318925e+00 -9.643530901533e+00 0.0 
4.020105689502e+00 -1.007439673661e+01 0.0 
4.587185899277e+01 -1.484039992728e+01 0.0 
4.580078661551e+01 -1.584043391042e+01 0.0 
2.061956522375e+01 -5.046701343981e+00 0.0 
2.139572955529e+01 -5.579553449826e+00 0.0 
3.715344357292e+01 -1.631485124583e+01 0.0 
3.618886196443e+00 -1.500471207167e+01 0.0 
3.695606940204e+00 -1.400939692294e+01 0.0 
2.438890661143e+01 -9.686110599723e+00 0.0 
2.523267572778e+01 -9.276766000622e+00 0.0 
2.446094171539e+01 -8.751904591412e+00 0.0 
2.529089822738e+01 -8.321495612547e+00 0.0 
2.606882688827e+01 -8.864724051119e+00 0.0 
2.452116646430e+01 -7.792756462004e+00 0.0 
1.235543269617e+01 -1.365845617339e+01 0.0 
4.318116874181e+01 -1.618567469992e+01 0.0 
7.835066111909e+00 -5.376366223896e+00 0.0 
7.905687335704e+00 -4.382539065697e+00 0.0 
3.542640009567e+00 -1.600035116542e+01 0.0 
1.572431503071e+01 -1.388358386695e+01 0.0 
2.574684696680e+01 -1.357896141127e+01 0.0 
2.488842657651e+01 -1.399674354505e+01 0.0 
2.568301775611e+01 -1.453552048595e+01 0.0 
2.481535572009e+01 -1.495542756508e+01 0.0 
2.561729699688e+01 -1.549784648532e+01 0.0 
2.474623061296e+01 -1.592058894178e+01 0.0 
2.394234041695e+01 -1.537572575827e+01 0.0 
2.065825452567e+01 -1.621899055217e+01 0.0 
2.387180528935e+01 -1.634552264687e+01 0.0 
4.585364400844e+01 -1.383912334080e+01 0.0 
1.998744432052e+01 -1.370317155541e+01 0.0 
1.205356951443e+01 -6.313580285498e+00 0.0 
5.396543905849e+00 -3.731818611283e+00 0.0 
1.139652573295e+01 -3.745819399350e+00 0.0 
3.574124306703e+00 -4.551456826011e+00 0.0 
3.494140761930e+00 -5.539787055649e+00 0.0 
1.213651452413e+01 -1.664505033022e+01 0.0 
2.555045568519e+01 -1.646529356744e+01 0.0 
2.641671114986e+01 -1.603899382371e+01 0.0 
2.612920721894e+01 -7.906435260873e+00 0.0 
2.690339829698e+01 -8.456969591431e+00 0.0 
1.978024383368e+01 -1.664410216353e+01 0.0 
3.732829979082e+01 -1.336926601859e+01 0.0 
4.074336584605e+01 -1.355133328401e+01 0.0 
4.163204691081e+01 -1.310280943992e+01 0.0 
3.773826114429e+00 -3.493444309145e+00 0.0 
1.228783001032e+01 -3.374822835872e+00 0.0 
4.057110462520e+01 -1.652588478000e+01 0.0 
2.132535497898e+01 -6.523623360525e+00 0.0 
2.216932532211e+01 -6.110044769206e+00 0.0 
1.825781152128e+01 -3.370146817147e+00 0.0 
1.745679445888e+01 -2.812942552063e+00 0.0 
4.666517057280e+01 -1.539981381543e+01 0.0 
4.660575894464e+01 -1.639014410186e+01 0.0 
4.838230979954e+00 -1.063643436446e+01 0.0 
3.938942630206e+00 -1.106778981745e+01 0.0 
1.302967218620e+01 -1.621373452436e+01 0.0 
1.049548003190e+01 -4.204825123240e+00 0.0 
4.573571907195e+01 -1.683820511148e+01 0.0 
1.483686335807e+01 -1.430849689310e+01 0.0 
1.490982658890e+01 -1.332679386284e+01 0.0 
3.190805600162e+00 -9.510968358545e+00 0.0 
2.146625721848e+01 -4.642437303115e+00 0.0 
2.069866208266e+01 -4.111852942193e+00 0.0 
1.286859345584e+01 -6.873252723348e+00 0.0 
1.041794493184e+01 -5.194814260291e+00 0.0 
2.671081808965e+00 -4.976806516331e+00 0.0 
1.295786792925e+01 -1.720506531799e+01 0.0 
3.968438206511e+01 -1.696869067241e+01 0.0 
2.308550456051e+01 -1.579963151273e+01 0.0 
2.315593682844e+01 -1.482967445235e+01 0.0 
2.299471449450e+01 -1.677069968132e+01 0.0 
1.057344714696e+01 -3.214252277840e+00 0.0 
1.124057603753e+01 -1.707713739755e+01 0.0 
2.718402535754e+00 -1.543629882103e+01 0.0 
2.638549692805e+01 -1.696744916809e+01 0.0 
2.723416349007e+01 -1.658104204545e+01 0.0 
2.210193351704e+01 -7.046769643417e+00 0.0 
2.295180925161e+01 -6.657397605239e+00 0.0 
2.301355235833e+01 -5.709111896800e+00 0.0 
2.379052718281e+01 -6.254965406962e+00 0.0 
3.243528601237e+01 -1.214181853533e+01 0.0 
2.287977995457e+01 -7.583722368300e+00 0.0 
2.999876029544e+01 -1.150837653096e+01 0.0 
3.084435366963e+01 -1.109693775882e+01 0.0 
3.006650579669e+01 -1.057778994262e+01 0.0 
2.683802665066e+01 -9.386863216633e+00 0.0 
2.768641973621e+01 -8.988883915666e+00 0.0 
2.040296980397e+01 -7.903629133404e+00 0.0 
1.925235024054e+01 -1.218872783130e+01 0.0 
5.735667000424e+00 -1.020577277283e+01 0.0 
6.396559909872e+00 -1.272326295703e+01 0.0 
1.161199420714e+01 -1.212812778229e+01 0.0 
4.229046132615e+01 -1.663084237572e+01 0.0 
4.312275399692e+01 -1.718087491556e+01 0.0 
4.335502068163e+01 -1.320039231514e+01 0.0 
4.424630298089e+01 -1.275160688731e+01 0.0 
7.090116643816e+00 -3.818998061530e+00 0.0 
7.989472176569e+00 -3.389238711200e+00 0.0 
9.085824861778e+00 -1.144036167408e+01 0.0 
1.041972423731e+01 -1.651614080893e+01 0.0 
3.797525112640e+01 -1.686052038746e+01 0.0 
3.709114253394e+01 -1.730125999865e+01 0.0 
3.626966748340e+01 -1.675477052919e+01 0.0 
1.385164591440e+01 -1.677597757552e+01 0.0 
1.787152588784e+01 -8.198993896093e+00 0.0 
1.668849729812e+01 -1.248560611628e+01 0.0 
1.659546177905e+01 -3.232482605530e+00 0.0 
2.332214717345e+01 -1.292598167641e+01 0.0 
7.168238450786e+00 -2.824711686516e+00 0.0 
2.894878403906e+01 -1.475427524446e+01 0.0 
2.646763248247e+00 -1.643270107952e+01 0.0 
3.467431944285e+00 -1.699648837348e+01 0.0 
2.059475877282e+01 -1.719473628526e+01 0.0 
3.333868355437e+01 -1.080596971682e+01 0.0 
2.246451062637e+01 -1.334557761546e+01 0.0 
2.167821896388e+01 -1.280847834858e+01 0.0 
3.089653185767e+01 -1.017198487212e+01 0.0 
3.012604365669e+01 -9.657298805968e+00 0.0 
2.929627299435e+01 -1.006100135274e+01 0.0 
2.936201435219e+01 -9.136748899251e+00 0.0 
1.198219052702e+01 -7.291887238230e+00 0.0 
1.116702076035e+01 -6.731976101053e+00 0.0 
2.551388807505e+01 -1.746927036981e+01 0.0 
2.378639090370e+01 -1.728678807149e+01 0.0 
2.718543627188e+01 -1.748668016909e+01 0.0 
2.804681050301e+01 -1.712626668293e+01 0.0 
1.970737034667e+01 -1.762317646822e+01 0.0 
1.889535776135e+01 -1.707158098231e+01 0.0 
2.593777711283e+00 -5.971157087874e+00 0.0 
2.773468281110e+01 -8.067164273938e+00 0.0 
4.051205884347e+01 -1.751819982458e+01 0.0 
3.166903145421e+01 -1.068032992414e+01 0.0 
1.033042452886e+01 -1.748285844336e+01 0.0 
9.519274604626e+00 -1.694349240233e+01 0.0 
1.668308673328e+01 -2.255861778986e+00 0.0 
1.570531902832e+01 -2.676795860126e+00 0.0 
4.655826903379e+01 -1.736656245706e+01 0.0 
2.384148070773e+01 -5.328744256413e+00 0.0 
2.460255123641e+01 -5.852182672816e+00 0.0 
2.306638135119e+01 -4.798935440613e+00 0.0 
8.467720450578e-01 -1.849576263072e+01 0.0 
4.849657322345e+01 -1.084860705506e+01 0.0 
2.565860899507e+00 -1.742859793981e+01 0.0 
2.764418872564e+01 -9.927142821799e+00 0.0 
4.565165880064e+01 -1.785336695404e+01 0.0 
2.162231831329e+01 -1.376528337468e+01 0.0 
2.360646352969e+01 -9.136041963102e+00 0.0 
1.392738739903e+01 -1.578285505772e+01 0.0 
4.756405947478e+01 -1.683706841809e+01 0.0 
4.740895034054e+01 -1.793766756892e+01 0.0 
4.080779328826e+01 -1.257387192544e+01 0.0 
4.168907939671e+01 -1.210739129181e+01 0.0 
3.991197722154e+01 -1.300815793917e+01 0.0 
1.905536506762e+01 -3.940076697685e+00 0.0 
1.923879596617e+01 -2.875000734166e+00 0.0 
4.401386745746e+01 -1.673483229438e+01 0.0 
4.247233362525e+00 -7.094581653070e+00 0.0 
3.286051630211e+00 -7.635300020553e+00 0.0 
9.609533347623e+00 -4.594311677967e+00 0.0 
9.523554636369e+00 -5.595597029530e+00 0.0 
5.660336628893e+00 -1.119290329628e+01 0.0 
6.558070063295e+00 -1.076385809362e+01 0.0 
2.809866407414e+01 -1.518037766799e+01 0.0 
2.888868674504e+01 -1.570360690070e+01 0.0 
2.654431550819e+01 -1.411217777162e+01 0.0 
1.402158265969e+01 -1.375404617952e+01 0.0 
1.409592494026e+01 -1.277071998942e+01 0.0 
1.499355196178e+01 -1.235270737023e+01 0.0 
4.221535326155e+01 -1.759335617494e+01 0.0 
4.305583287033e+01 -1.822663146802e+01 0.0 
1.280748808359e+01 -7.834332838285e+00 0.0 
1.368988389326e+01 -7.420529606172e+00 0.0 
1.110091796060e+01 -7.683966794328e+00 0.0 
3.963446145980e+01 -1.794331310122e+01 0.0 
3.423932362213e+00 -1.796415590455e+01 0.0 
4.280814572302e+00 -1.752272834860e+01 0.0 
8.050136380041e+00 -2.421582378631e+00 0.0 
8.888674091650e+00 -2.984264211327e+00 0.0 
2.152839430898e+01 -3.732609965436e+00 0.0 
2.077799585292e+01 -3.183896021866e+00 0.0 
3.618719395821e+01 -1.770276572576e+01 0.0 
3.538165138340e+01 -1.718709995539e+01 0.0 
3.702925326420e+01 -1.828844288807e+01 0.0 
1.756739438711e+00 -5.353284859169e+00 0.0 
2.233710191104e+01 -1.527265621324e+01 0.0 
1.389483555057e+01 -1.771797164730e+01 0.0 
1.475634224300e+01 -1.728357428390e+01 0.0 
1.298797563052e+01 -1.825968924755e+01 0.0 
2.145331271866e+01 -1.673705379077e+01 0.0 
2.133282821169e+01 -1.769400773673e+01 0.0 
2.292139194136e+01 -1.774915400288e+01 0.0 
1.750750053243e+01 -1.861475593469e+00 0.0 
4.830478841772e+01 -1.752611802221e+01 0.0 
4.341203507805e+01 -1.220326745522e+01 0.0 
1.685254151866e+01 -1.443085301632e+00 0.0 
4.431538535165e+01 -1.171841387375e+01 0.0 
4.511308610496e+01 -1.229557320599e+01 0.0 
4.510133242889e+01 -1.123680627466e+01 0.0 
1.846818030617e+00 -4.410877617069e+00 0.0 
3.995468694584e+01 -1.186571542989e+01 0.0 
3.901387459804e+01 -1.242507616755e+01 0.0 
8.966735877533e+00 -1.837818700423e+00 0.0 
4.049310011091e+01 -1.848269508791e+01 0.0 
7.278862053803e+00 -1.918523922691e+00 0.0 
6.429715522129e+00 -2.316676521184e+00 0.0 
9.443505505022e+00 -1.792198868094e+01 0.0 
8.620386951051e+00 -1.737590365556e+01 0.0 
8.571868171503e+00 -1.834436667826e+01 0.0 
7.758629848526e+00 -1.775677907213e+01 0.0 
7.806648388584e+00 -1.680761266021e+01 0.0 
6.908555145436e+00 -1.723746463044e+01 0.0 
4.251709122090e+01 -1.156937480156e+01 0.0 
6.931136405615e+00 -1.832465719263e+01 0.0 
6.015545461353e+00 -1.768865355295e+01 0.0 
5.960535926343e+00 -1.872011001764e+01 0.0 
3.023253444786e+01 -8.761960642196e+00 0.0 
2.454622702599e+01 -6.749421992767e+00 0.0 
2.537499741604e+01 -6.347634963783e+00 0.0 
2.544077378460e+01 -5.431358513649e+00 0.0 
2.801367161747e+01 -1.820907270221e+01 0.0 
2.884507806914e+01 -1.762032095326e+01 0.0 
1.821474531936e+00 -1.588901260460e+01 0.0 
1.821006262604e+00 -1.489370287756e+01 0.0 
4.599962488908e+01 -1.176478780598e+01 0.0 
4.705457470007e+01 -1.172182804229e+01 0.0 
4.667668314802e+01 -1.263464558483e+01 0.0 
4.759648056504e+01 -1.252380987933e+01 0.0 
4.728041618103e+01 -1.341928568376e+01 0.0 
4.825209352360e+01 -1.330491640804e+01 0.0 
4.778118233428e+01 -1.420151961695e+01 0.0 
2.388192727579e+01 -1.826934810142e+01 0.0 
2.381714684947e+01 -4.385917965223e+00 0.0 
3.172733219247e+01 -9.758744265248e+00 0.0 
1.882012070658e+01 -1.805540597212e+01 0.0 
1.805667505243e+01 -1.742221226236e+01 0.0 
2.852599958080e+01 -8.597196079481e+00 0.0 
2.856486123437e+01 -7.661382718527e+00 0.0 
1.111792842875e+01 -1.818223852980e+01 0.0 
2.203322722466e+01 -7.986646678802e+00 0.0 
3.955703676900e+01 -1.903246763601e+01 0.0 
1.944842206513e+01 -8.038750575182e-01 0.0 
1.909882767783e+01 -1.746322740933e+00 0.0 
2.281147422941e+01 -8.525912918334e+00 0.0 
2.850633001468e+01 -9.533271335986e+00 0.0 
2.532883344309e+01 -7.308951659710e+00 0.0 
2.620475466461e+01 -6.979208585400e+00 0.0 
1.396278270396e+01 -1.475095389807e+01 0.0 
9.791001166724e+00 -2.554159793552e+00 0.0 
2.229293380421e+01 -4.269762271052e+00 0.0 
4.677238984118e+01 -1.430071795514e+01 0.0 
2.228658385918e+01 -3.344747535984e+00 0.0 
8.940223674553e-01 -1.543595733415e+01 0.0 
2.118566862474e+01 -8.435876987696e+00 0.0 
2.678325936437e+01 -1.032621195706e+01 0.0 
2.223400220487e+01 -5.179046761770e+00 0.0 
2.375370625384e+01 -7.251580562134e+00 0.0 
3.156971327386e+01 -1.255534750737e+01 0.0 
3.328226391312e+01 -1.172914813316e+01 0.0 
3.250948774219e+01 -1.120157009348e+01 0.0 
2.032993445717e+01 -8.867880112202e+00 0.0 
2.697226974856e+01 -7.536633082045e+00 0.0 
2.707377810386e+01 -6.590835263295e+00 0.0 
2.914099246827e+01 -1.191678458549e+01 0.0 
3.544824072239e+01 -1.621126558525e+01 0.0 
3.456511855436e+01 -1.665054783843e+01 0.0 
3.448395810225e+01 -1.759117813016e+01 0.0 
3.368378673938e+01 -1.708037781328e+01 0.0 
3.375560452567e+01 -1.610973066913e+01 0.0 
3.288001547988e+01 -1.654324255651e+01 0.0 
3.282475929147e+01 -1.749725654692e+01 0.0 
3.199880906313e+01 -1.697294088625e+01 0.0 
3.197001272932e+01 -1.811667776864e+01 0.0 
3.111884713021e+01 -1.742166785755e+01 0.0 
3.120418962865e+01 -1.642155709385e+01 0.0 
3.034666704371e+01 -1.683123833816e+01 0.0 
3.026224379976e+01 -1.772592851714e+01 0.0 
3.046632362943e+01 -1.582232843075e+01 0.0 
1.961344017324e+01 -1.857459447985e+01 0.0 
2.274975894774e+01 -9.532738811922e+00 0.0 
1.833923246887e+01 -2.396746883672e+00 0.0 
1.988859500848e+01 -2.249244376594e+00 0.0 
2.758045562861e+01 -1.086434261689e+01 0.0 
3.247300178163e+01 -1.909930104252e+01 0.0 
3.461947482503e+01 -1.911879848019e+01 0.0 
2.047161538662e+01 -6.941478180358e+00 0.0 
2.750230940214e+01 -1.915490590764e+01 0.0 
3.165081350803e+01 -1.161860780120e+01 0.0 
1.897456727641e+01 -4.889634688522e+00 0.0 
2.549338539756e+01 -1.914858252089e+01 0.0 
3.462873135081e+01 -1.567482276144e+01 0.0 
3.384432415243e+01 -1.512280684518e+01 0.0 
3.471433767690e+01 -1.469086942990e+01 0.0 
3.651470373046e+01 -1.918207952149e+01 0.0 
3.901742690249e+01 -1.345028556517e+01 0.0 
2.153224102692e+01 -1.920169709333e+01 0.0 
1.918382939341e+01 -1.316226275662e+01 0.0 
2.005389162382e+01 -1.271962165174e+01 0.0 
2.011472087878e+01 -1.175029352900e+01 0.0 
3.210679478412e+01 -1.598038618242e+01 0.0 
1.752175226543e+01 -1.914713022656e+01 0.0 
1.696897240059e+01 -1.832772588765e+01 0.0 
1.599682523337e+01 -1.832599992024e+01 0.0 
1.644507199462e+01 -1.743697981535e+01 0.0 
1.549987712903e+01 -1.915192375101e+01 0.0 
3.050250861901e+01 -1.918943550234e+01 0.0 
2.949944061527e+01 -1.922950455235e+01 0.0 
1.375892575273e+01 -6.447160534926e+00 0.0 
1.457223670180e+01 -7.006709243857e+00 0.0 
1.450818793236e+01 -7.965943451779e+00 0.0 
1.538804712402e+01 -7.553409623699e+00 0.0 
1.545817644768e+01 -6.580929593419e+00 0.0 
1.626506893751e+01 -7.129032608911e+00 0.0 
1.619833811522e+01 -8.086588580887e+00 0.0 
1.714448609609e+01 -6.697429609777e+00 0.0 
2.887616543568e+01 -1.668015232137e+01 0.0 
1.349814589130e+01 -1.918225301544e+01 0.0 
1.153887772210e+01 -1.311384581217e+01 0.0 
1.242708159886e+01 -1.267046795531e+01 0.0 
1.249799674267e+01 -1.169005616014e+01 0.0 
6.631723893693e+00 -9.774184881867e+00 0.0 
7.451471631867e+00 -1.033148796006e+01 0.0 
7.377795355458e+00 -1.132196345268e+01 0.0 
5.810931797536e+00 -9.211654212252e+00 0.0 
2.402683899133e+01 -1.441378562320e+01 0.0 
1.249768692036e+01 -1.917388426624e+01 0.0 
1.580373499437e+01 -1.290751860664e+01 0.0 
8.344650507834e+00 -9.898403995170e+00 0.0 
3.750622115305e+01 -1.086526401533e+01 0.0 
3.699391251667e+01 -1.171695900794e+01 0.0 
3.606517829518e+01 -1.173717504500e+01 0.0 
3.650257641795e+01 -1.270047380221e+01 0.0 
3.808951488918e+01 -1.183518714175e+01 0.0 
4.760380962420e+00 -1.162484888315e+01 0.0 
3.861210370848e+00 -1.205657631736e+01 0.0 
3.038284309476e+00 -1.149851280664e+01 0.0 
2.961598794889e+00 -1.248856794980e+01 0.0 
2.138953225512e+00 -1.193212674534e+01 0.0 
2.227383593457e+00 -1.096258903918e+01 0.0 
2.043265419276e+00 -1.292158472959e+01 0.0 
1.252449446028e+00 -1.225502002753e+01 0.0 
3.949985210740e+01 -1.086594001795e+01 0.0 
1.453499444792e+01 -8.768805922472e-01 0.0 
1.403518950933e+01 -1.749965556633e+00 0.0 
1.300715031023e+01 -1.714737233040e+00 0.0 
1.350929389899e+01 -2.527443911291e+00 0.0 
1.449600910711e+01 -2.595486162864e+00 0.0 
1.395693872901e+01 -3.484211041558e+00 0.0 
1.495105865208e+01 -3.364609636216e+00 0.0 
1.508822528740e+01 -1.766586020494e+00 0.0 
1.250223858430e+01 -8.634590186802e-01 0.0 
1.200279523409e+01 -1.709044504992e+00 0.0 
1.150086239419e+01 -8.592789190668e-01 0.0 
1.101482754194e+01 -1.677730591922e+00 0.0 
1.148018564526e+01 -2.659323866909e+00 0.0 
8.800552119754e+00 -3.989875954728e+00 0.0 
3.452790439430e+00 -1.901136170646e+01 0.0 
8.658451825200e-01 -9.503462241795e+00 0.0 
1.694787786797e+00 -9.000589234502e+00 0.0 
1.703436717094e+00 -8.038819004041e+00 0.0 
2.594197971110e+00 -8.563955242845e+00 0.0 
1.630513735412e+00 -9.907244747511e+00 0.0 
8.566859292791e-01 -7.512203837972e+00 0.0 
1.685461277022e+00 -7.164280248030e+00 0.0 
2.506394468801e+00 -8.623386730818e-01 0.0 
2.007475081581e+00 -1.727729545205e+00 0.0 
9.211534699767e-01 -1.628791366312e+00 0.0 
1.500000000020e+00 -2.598063549486e+00 0.0 
2.482078929963e+00 -2.553580088725e+00 0.0 
2.999795253092e+00 -1.732169015019e+00 0.0 
3.999712607169e+00 -1.728832897453e+00 0.0 
4.499752199340e+00 -8.656478679175e-01 0.0 
4.964377774841e+00 -1.730129617941e+00 0.0 
4.425017908337e+00 -2.597541756243e+00 0.0 
5.446573195014e+00 -8.410144840023e-01 0.0 
4.915722346614e+01 -1.550640962770e+01 0.0 
4.826794919243e+01 -1.600000000000e+01 0.0 
1.053139533193e+01 -1.911782884365e+01 0.0 
4.156049861949e+01 -1.095160998589e+01 0.0 
9.494526624416e+00 -8.650570090219e-01 0.0 
4.555762166964e+01 -1.897098103585e+01 0.0 
4.250656411371e+01 -1.914387356218e+01 0.0 
4.350906466345e+01 -1.917234727395e+01 0.0 
8.759665722424e-01 -1.746422130609e+01 0.0 
1.698936011838e+00 -1.795012186674e+01 0.0 
4.742476811029e+01 -1.900090177972e+01 0.0 
7.749196752349e+00 -6.368049313489e+00 0.0 
3.361572113416e+01 -1.798765193915e+01 0.0 
4.484660149212e+01 -1.728661231383e+01 0.0 
1.984038172228e+01 -4.502575320116e+00 0.0 
1.035080352627e+01 -6.166639575753e+00 0.0 
2.753558010652e+00 -1.444909521181e+01 0.0 
7.217069543032e+00 -1.328635391078e+01 0.0 
4.364336727739e+00 -1.655585677381e+01 0.0 
4.595208426108e+00 -1.357919665443e+01 0.0 
6.164967006980e+00 -1.569873454630e+01 0.0 
1.487855768353e+01 -1.826523774028e+01 0.0 
2.791876456372e+00 -4.019632415181e+00 0.0 
4.246464893515e+01 -1.364898659620e+01 0.0 
4.503855590351e+01 -1.329552780944e+01 0.0 
4.407239109604e+01 -1.573900004093e+01 0.0 
5.141054449252e+00 -6.664290382472e+00 0.0 
3.141083947149e+00 -1.055790764912e+01 0.0 
6.196463198741e+00 -4.256497932609e+00 0.0 
2.599618716181e+01 -1.836893455464e+01 0.0 
2.923057372337e+01 -1.098461757645e+01 0.0 
1.168343877486e+01 -1.114079645041e+01 0.0 
6.706222096238e+00 -8.780364234441e+00 0.0 
8.567858614669e+00 -6.943121440850e+00 0.0 
1.123755132901e+01 -5.753525820030e+00 0.0 
2.353456234423e+01 -1.008536320953e+01 0.0 
9.162073319168e+00 -1.045593739109e+01 0.0 
9.676343469685e+00 -1.496493008366e+01 0.0 
4.490637882905e+01 -1.628778970202e+01 0.0 
7.398129387772e+00 -9.639977982323e-01 0.0 
1.049641705805e+01 -1.552503975272e+01 0.0 
9.010356286268e+00 -1.242805042052e+01 0.0 
3.985573925497e+01 -1.399863651620e+01 0.0 
1.816196318262e+01 -1.554066497931e+01 0.0 
1.306332244168e+01 -3.963646550326e+00 0.0 
4.145850903932e+01 -1.608094559275e+01 0.0 
3.794664933633e+01 -1.779020121986e+01 0.0 
3.819614412903e+01 -1.290749321016e+01 0.0 
6.270014188119e+00 -3.255093186826e+00 0.0 
4.251165370388e+01 -1.263870364997e+01 0.0 
1.207347709171e+01 -1.763942826023e+01 0.0 
3.633240829927e+01 -1.577330481104e+01 0.0 
4.319052668832e+00 -6.101812561904e+00 0.0 
1.676492415806e+01 -1.151547901392e+01 0.0 
2.594059220037e+01 -1.074225223009e+01 0.0 
3.340750911501e+01 -9.898764354137e+00 0.0 
4.397619591281e+01 -1.769773736461e+01 0.0 
2.175611595028e+01 -1.185718747128e+01 0.0 
1.641818733106e+01 -1.640685203215e+01 0.0 
1.661211421753e+01 -1.346121366338e+01 0.0 
3.428853504935e+00 -6.551993389271e+00 0.0 
8.700728832502e+00 -1.638460872825e+01 0.0 
1.931369795309e+01 -1.121629383702e+01 0.0 
4.139798872363e+01 -1.706922153459e+01 0.0 
2.647837478700e+01 -1.507353829290e+01 0.0 
1.779469616424e+01 -9.161615782908e+00 0.0 
3.885879219319e+01 -1.642026488918e+01 0.0 
1.338194936770e+01 -1.125916521471e+01 0.0 
1.897071181111e+01 -1.609204322578e+01 0.0 
2.844308548793e+01 -1.046221003096e+01 0.0 
2.659854702194e+01 -1.316109415760e+01 0.0 
2.979604503271e+01 -1.433296157755e+01 0.0 
2.417694041347e+01 -1.251231397779e+01 0.0 
1.807401327411e+00 -1.388891148480e+01 0.0 
9.599810618782e+00 -1.595439365034e+01 0.0 
1.652144692160e+01 -4.205392788472e+00 0.0 
2.367839450246e+01 -8.188385218643e+00 0.0 
3.814894930468e+01 -1.390748338767e+01 0.0 
2.466448215774e+01 -1.685878545680e+01 0.0 
4.134044524611e+01 -1.806610045954e+01 0.0 
2.600511411958e+01 -9.801774120648e+00 0.0 
7.882158050716e+00 -1.582364037353e+01 0.0 
3.881607873422e+01 -1.737970515013e+01 0.0 
8.270182347708e+00 -1.088622154920e+01 0.0 
8.672520392520e-01 -4.532984309881e+00 0.0 
1.993447205337e+01 -3.579061902667e+00 0.0 
1.794616079549e+01 -7.238038888498e+00 0.0 
2.097277068165e+01 -1.132450168636e+01 0.0 
8.194803300681e+00 -1.187214224265e+01 0.0 
3.522279404911e+01 -1.823342818178e+01 0.0 
6.984481050295e+00 -1.625271465557e+01 0.0 
1.309433007797e+01 -1.521718594215e+01 0.0 
2.150246167611e+01 -1.885399038185e+00 0.0 
3.250689370209e+01 -1.028789870535e+01 0.0 
6.085886272238e+00 -1.668342132851e+01 0.0 
1.588455661727e+01 -1.193498985921e+01 0.0 
1.809323400821e+01 -1.651110084195e+01 0.0 
1.348885082381e+00 -1.136065576512e+01 0.0 
2.497670221995e+01 -1.834631276173e+01 0.0 
2.937062818424e+01 -8.233711194470e+00 0.0 
5.185823744469e+00 -1.711566910207e+01 0.0 
1.477497877209e+01 -1.530177014512e+01 0.0 
2.125346158933e+01 -7.473003997367e+00 0.0 
4.751561118290e+01 -1.084897772632e+01 0.0 
5.056026576843e+00 -1.825750475525e+01 0.0 
1.473948554523e+01 -1.634577436309e+01 0.0 
2.410566630936e+01 -1.345970002612e+01 0.0 
1.507337507513e+01 -1.138527895328e+01 0.0 
3.189857338687e+01 -8.887781229006e+00 0.0 
7.298712468334e+00 -1.230231046246e+01 0.0 
2.738235495295e+01 -1.368931690364e+01 0.0 
3.750141041969e+01 -1.920449893070e+01 0.0 
1.557271965640e+01 -1.683317951731e+01 0.0 
3.393731848929e+01 -1.413034777044e+01 0.0 
6.482156824153e+00 -1.174575135362e+01 0.0 
2.077971718439e+01 -1.421279621836e+01 0.0 
3.455084320178e+00 -2.562590040585e+00 0.0 
3.099056096250e+01 -9.270280416035e+00 0.0 
5.580176125418e+00 -1.217387969259e+01 0.0 
1.707247630389e+01 -7.660651981710e+00 0.0 
1.418658814174e+01 -1.180390575393e+01 0.0 
2.049103025389e+01 -1.811296706038e+01 0.0 
4.680386172316e+00 -1.260396879301e+01 0.0 
1.699679896554e+01 -8.624561788199e+00 0.0 
3.779470168555e+00 -1.303424899720e+01 0.0 
3.036589870126e+01 -7.879832518349e+00 0.0 
3.306993001774e+01 -1.457671062095e+01 0.0 
2.840150110165e+00 -1.346530088269e+01 0.0 
2.732011135052e+01 -1.464591214560e+01 0.0 
5.423639259568e+00 -2.659711955016e+00 0.0 
2.324455961696e+01 -1.387269388211e+01 0.0 
1.752768355571e+00 -1.693128613594e+01 0.0 
1.020244783051e+01 -8.076834012808e+00 0.0 
1.330873875224e+01 -1.222417528206e+01 0.0 
3.297727364880e+01 -1.555480372087e+01 0.0 
2.890929955439e+01 -6.868664170731e+00 0.0 
1.323294664622e+01 -1.320754260334e+01 0.0 
2.726532861246e+01 -1.560593120806e+01 0.0 
2.240020643398e+01 -1.429299177247e+01 0.0 
2.090445823633e+01 -1.228128621332e+01 0.0 
1.315809881502e+01 -1.420739326938e+01 0.0 
2.781328038068e+01 -7.181956082300e+00 0.0 
8.614200829057e+00 -5.936933226306e+00 0.0 
8.714765730069e+00 -4.979270529687e+00 0.0 
1.611881701099e+01 -9.041973294003e+00 0.0 
2.806830314340e+01 -1.614622947108e+01 0.0 
2.084435391396e+00 -3.385085422913e+00 0.0 
3.133211811152e+01 -1.542347619750e+01 0.0 
9.693114650768e+00 -3.590281506442e+00 0.0 
1.531883592202e+01 -8.504584946143e+00 0.0 
2.151589117094e+01 -1.578915763018e+01 0.0 
4.918943882696e+01 -1.355538828056e+01 0.0 
1.443236615188e+01 -8.918701794549e+00 0.0 
8.276250966452e-01 -5.537685192197e+00 0.0 
1.362790867918e+01 -8.374718262212e+00 0.0 
2.083767477370e+01 -1.324843956035e+01 0.0 
1.273834678703e+01 -8.790890389337e+00 0.0 
1.192275845670e+01 -8.242261327467e+00 0.0 
4.477236023583e+01 -1.824312396664e+01 0.0 
1.102989384254e+01 -8.649855800911e+00 0.0 
4.849096516045e+01 -1.917293752213e+01 0.0 
1.588996752238e+00 -1.910230934687e+01 0.0 
4.904245197583e+01 -1.159839008158e+01 0.0 
2.753852929608e+01 -5.782128488093e+00 0.0 
1.756133602833e+01 -8.306130313187e-01 0.0 
2.615423700951e+01 -6.153865090092e+00 0.0 
1.028818761294e+01 -7.122020845892e+00 0.0 
2.970818901196e+01 -1.527821347593e+01 0.0 
4.801461623449e+01 -1.164472570985e+01 0.0 
9.455722100419e+00 -6.546069291118e+00 0.0 
3.089099236677e+01 -1.835339328261e+01 0.0 
2.350000000013e+01 -1.920825896750e+01 0.0 
4.830620531887e+01 -1.506626155470e+01 0.0 
1.725381944701e+01 -1.688794487850e+01 0.0 
2.156246225273e+01 -1.475893794002e+01 0.0 
4.919319648787e+01 -1.742767505896e+01 0.0 
4.437935623576e+01 -1.077662927266e+01 0.0 
1.001520521978e+01 -1.652692675208e+00 0.0 
9.067160240050e-01 -1.441937727541e+01 0.0 
2.603365149390e+01 -4.755996613848e+00 0.0 
2.458344439002e+01 -4.873645517696e+00 0.0 
2.304312390142e+01 -3.836552768096e+00 0.0 
2.546923202198e+00 -6.902480355749e+00 0.0 
1.251534969393e+01 -2.490989965776e+00 0.0 
2.454061833377e+01 -3.933354231935e+00 0.0 
1.788186558740e+01 -1.827424884923e+01 0.0 
4.090785243552e+01 -1.166553231904e+01 0.0 
2.230128851568e+01 -1.623015738726e+01 0.0 
2.302362347568e+01 -2.916239960270e+00 0.0 
3.878119254461e+01 -1.830091164002e+01 0.0 
2.210081359958e+01 -1.829238229150e+01 0.0 
8.443704882233e+00 -1.921993252862e+01 0.0 
2.218405824691e+01 -1.724557581508e+01 0.0 
2.151157503963e+01 -2.790636689331e+00 0.0 
3.741658958955e+01 -1.250400191722e+01 0.0 
2.697247663737e+01 -1.838290202309e+01 0.0 
4.743362342862e+01 -1.585850773010e+01 0.0 
6.671345075358e+00 -1.924977576322e+01 0.0 
3.900825404537e+01 -1.157220003875e+01 0.0 
4.649692961375e+01 -1.836335837481e+01 0.0 
1.578831424832e+01 -3.678284023361e+00 0.0 
4.814208768888e+01 -1.841249298770e+01 0.0 
2.964123298315e+01 -1.625739458193e+01 0.0 
4.580760351902e+01 -1.284294554687e+01 0.0 
3.561520879615e+01 -1.245548941949e+01 0.0 
2.555418095658e+00 -1.841101588290e+01 0.0 
3.288468366144e+01 -1.834258164109e+01 0.0 
2.065894391445e+01 -2.240688571739e+00 0.0 
4.739171429915e+01 -1.496536413446e+01 0.0 
3.478086729185e+00 -8.576434653209e+00 0.0 
1.606010630246e+01 -1.588421807951e+00 0.0 
1.018329200594e+01 -1.834320874317e+01 0.0 
2.957213339430e+01 -1.720496954591e+01 0.0 
4.142712790164e+00 -1.837794506222e+01 0.0 
6.698721532573e-01 -2.499999999997e+00 0.0 
8.037039123140e+00 -1.571229354954e+00 0.0 
1.203541361428e+01 -1.847784298001e+01 0.0 
2.899968332038e+01 -1.848264722179e+01 0.0 
1.469229460948e+01 -4.219485753730e+00 0.0 
4.049590781957e+01 -1.932812501995e+01 0.0 
1.996211678340e+01 -1.506329754720e+00 0.0 
4.250588298353e+01 -1.067383247529e+01 0.0 
5.831497011152e+00 -1.635396227234e+00 0.0 
5.317606125670e+00 -1.923927974868e+01 0.0 
4.208546426993e+01 -1.842830665025e+01 0.0 
2.327553405011e+00 -9.459409929662e+00 0.0 
3.568351902251e+01 -1.096637218582e+01 0.0 
1.682104374890e+00 -6.231413350963e+00 0.0 
2.451812238018e+01 -1.766524914339e+01 0.0 
1.058003429638e+01 -2.391839617098e+00 0.0 
4.399988753123e+01 -1.851998776342e+01 0.0 
1.400000000010e+01 -1.852293523028e+01 0.0 
3.604719565984e+01 -1.850662876800e+01 0.0 
1.951297136734e+01 -1.938092349694e+01 0.0 
1.821365318472e+01 -1.531276353287e+00 0.0 
2.298031859732e+01 -1.854635324722e+01 0.0 
1.552168066204e+01 -1.764280741977e+01 0.0 
4.572957713638e+01 -1.073347898229e+01 0.0 
3.429637429624e+01 -1.838861552790e+01 0.0 
2.427434426052e+00 -7.705577451869e+00 0.0 
4.662792031485e+00 -3.359424455416e+00 0.0 
4.926794919243e+01 -1.926794919243e+01 0.0 
7.320508075690e-01 -7.320508075688e-01 0.0 
4.926794919243e+01 -1.073205080757e+01 0.0 
7.320508075705e-01 -1.926794919243e+01 0.0 
2.917460242467e+00 -3.202866455310e+00 0.0 
4.838200575963e+01 -1.232674147454e+01 0.0 
2.998445708009e+01 -1.854403752148e+01 0.0 
5.949940090766e-01 -1.152762038165e+01 0.0 
4.844763495759e+01 -1.678092548787e+01 0.0 
1.301685480160e+01 -3.170056592566e+00 0.0 
1.650046335855e+01 -6.731535384067e-01 0.0 
4.854881540991e+01 -1.405224059779e+01 0.0 
2.119545114693e+01 -1.846813384545e+01 0.0 
3.797852849897e+01 -1.857978513215e+01 0.0 
4.649823708745e+01 -1.338351810816e+01 0.0 
2.012685900976e+01 -2.889659035009e+00 0.0 
2.953271913273e+01 -1.791558075192e+01 0.0 
2.408509097292e+00 -1.021949208421e+01 0.0 
2.642589566221e+01 -1.773216561448e+01 0.0 
1.730010270775e+01 -1.763165076721e+01 0.0 
2.017406551304e+01 -8.513536440582e-01 0.0 
5.254761581934e-01 -1.249999999999e+01 0.0 
6.640448215642e+00 -1.545337834885e+00 0.0 
7.843361506349e+00 -1.852719839527e+01 0.0 
1.588442191088e+00 -1.066158564320e+01 0.0 
2.580823483239e+01 -3.416278049680e+00 0.0 
4.950961538461e+01 -3.500000000000e+00 0.0 
2.731250000000e+01 -4.420918367347e+00 0.0 
4.951086956522e+01 -4.500000000000e+00 0.0 
2.880770112393e+01 -5.415638864241e+00 0.0 
4.951086956522e+01 -5.500000000000e+00 0.0 
3.031250000000e+01 -6.420918367347e+00 0.0 
4.951250000000e+01 -6.500000000000e+00 0.0 
3.180701530612e+01 -7.414795918363e+00 0.0 
4.951250000000e+01 -7.500000000000e+00 0.0 
3.331250000000e+01 -8.420918367347e+00 0.0 
4.951470588234e+01 -8.500000000000e+00 0.0 
3.480610198624e+01 -9.413633635267e+00 0.0 
4.951470588234e+01 -9.500000000000e+00 0.0 

SCALARS node_number int
LOOKUP_TABLE default
1
2
3
4
5
6
7
8
9
10
11
12
13
14
15
16
17
18
19
20
21
22
23
24
25
26
27
28
29
30
31
32
33
34
35
36
37
38
39
40
41
42
43
44
45
46
47
48
49
50
51
52
53
54
55
56
57
58
59
60
61
62
63
64
65
66
67
68
69
70
71
72
73
74
75
76
77
78
79
80
81
82
84
85
86
87
88
89
90
91
92
93
96
97
98
99
100
101
102
104
105
106
107
108
109
110
111
112
113
114
115
116
117
118
119
120
121
122
123
124
125
126
127
128
129
130
131
132
133
134
135
136
220
221
222
223
224
225
226
227
228
229
230
231
232
233
234
235
236
237
238
239
240
241
242
243
244
245
246
247
248
249
250
251
252
253
254
255
256
257
258
259
260
261
262
263
264
265
266
267
268
269
270
271
272
273
274
275
276
277
278
279
280
281
282
283
284
285
286
287
288
289
290
291
292
293
294
295
296
297
298
299
300
301
302
303
304
305
306
307
308
309
310
311
312
313
314
315
316
317
318
319
320
321
322
323
324
325
326
327
328
329
330
331
332
333
334
335
336
337
338
339
340
341
342
343
344
345
346
347
348
349
350
351
352
353
354
355
356
357
358
359
360
361
362
363
364
365
366
367
368
369
370
371
372
373
374
375
376
377
378
379
380
381
382
383
384
385
386
387
388
389
390
391
392
393
394
395
396
397
398
399
400
401
402
403
404
405
406
407
408
409
410
411
412
413
414
415
416
417
418
419
420
421
422
423
424
425
426
427
428
429
430
431
432
433
434
435
436
437
438
439
440
441
442
443
444
445
446
447
448
449
450
451
452
453
454
455
456
457
458
459
460
461
462
463
464
465
466
467
468
469
470
471
472
473
474
475
476
477
478
479
480
481
482
483
484
485
486
487
488
489
490
491
492
493
494
495
496
497
498
499
500
501
502
503
504
505
506
507
508
509
510
511
512
513
514
515
516
517
518
519
520
521
522
523
524
525
526
527
528
529
530
531
532
533
534
535
536
537
538
539
540
541
542
543
544
545
546
547
548
549
550
551
552
553
554
555
556
557
558
559
560
561
562
563
564
565
566
567
568
569
570
571
572
573
574
575
576
577
578
579
580
581
582
583
584
585
586
587
588
589
590
591
592
593
594
595
596
597
598
599
600
601
602
603
604
605
606
607
608
609
610
611
612
613
614
615
616
617
618
619
620
621
622
623
624
625
626
627
628
629
630
631
632
633
634
635
636
637
638
639
640
641
642
643
644
645
646
647
648
649
650
651
652
653
654
655
656
657
658
659
660
661
662
663
664
665
666
667
668
669
670
671
672
673
674
675
676
677
678
679
680
681
682
683
684
685
686
687
688
689
690
691
692
693
694
695
696
697
698
699
700
701
702
703
704
705
706
707
708
709
710
711
712
713
714
715
716
717
718
719
720
721
722
723
724
725
726
727
728
729
730
731
732
733
734
735
736
737
738
739
740
741
742
743
744
745
746
747
748
749
750
751
752
753
754
755
756
757
758
759
760
761
762
763
764
765
766
767
768
769
770
771
772
773
774
775
776
777
778
779
780
781
782
783
784
785
786
787
788
789
790
791
792
793
794
795
796
797
798
799
800
801
802
803
804
805
806
807
808
809
810
811
812
813
814
815
816
817
818
819
820
821
822
823
824
825
826
827
828
829
830
831
832
833
834
835
836
837
838
839
840
841
842
843
844
845
846
847
848
849
850
851
852
853
854
855
856
857
858
859
860
861
862
863
864
865
866
867
868
869
870
871
872
873
874
875
876
877
878
879
880
881
882
883
884
885
886
887
888
889
890
891
892
893
894
895
896
897
898
899
900
901
902
903
904
905
906
907
908
909
910
911
912
913
914
915
916
917
918
919
920
921
922
923
924
925
926
927
928
929
930
931
932
933
934
935
936
937
938
939
940
941
942
943
944
945
946
947
948
949
950
951
952
953
954
955
956
957
958
959
960
961
962
963
964
965
966
967
968
969
970
971
972
973
974
975
976
977
978
979
980
981
982
983
984
985
986
987
988
989
990
991
992
993
994
995
996
997
998
999
1000
1001
1002
1003
1004
1005
1006
1007
1008
1009
1010
1011
1012
1013
1014
1015
1016
1017
1018
1019
1020
1021
1022
1023
1024
1025
1026
1027
1028
1029
1030
1031
1032
1033
1034
1035
1036
1037
1038
1039
1040
1041
1042
1043
1044
1045
1046
1047
1048
1049
1050
1051
1052
1053
1054
1055
1056
1057
1058
1059
1060
1061
1062
1063
1064
1065
1066
1067
1068
1069
1070
1071
1072
1073
1074
1075
1076
1077
1078
1079
1080
1081
1082
1083
1084
1085
1086
1087
1088
1089
1090
1091
1092
1093
1094
1095
1096
1097
1098
1099
1100
1101
1102
1103
1104
1105
1106
1107
1108
1109
1110
1111
1112
1113
1114
1115
1116
1117
1118
1119
1120
1121
1122
1123
1124
1125
1126
1127
1128
1129
1130
1131
1132
1133
1134
1135
1136
1137
1138
1139
1140
1141
1142
1143
1144
1145
1146
1147
1148
1149
1150
1151
1152
1153
1154
1155
1156
1157
1158
1159
1160
1161
1162
1163
1164
1165
1166
1167
1168
1169
1170
1171
1172
1173
1174
1175
1176
1177
1178
1179
1180
1181
1182
1183
1184
1185
1186
1187
1188
1189
1190
1191
1192
1193
1194
1195
1196
1197
1198
1199
1200
1201
1202
1203
1204
1205
1206
1207
1208
1209
1210
1211
1212
1213
1214
1215
1216
1217
1218
1219
1220
1221
1222
1223
1224
1225
1226
1227
1228
1229
1230
1231
1232
1233
1234
1235
1236
1237
1238
1239
1240
1241
1242
1243
1244
1245
1246
1247
1248
1249
1250
1251
1252
1253
1254
1255
1256
1257
1258
1259
1260
1261
1262
1263
1264
1271
1272
1273
1274
1275
1276
1277
1278
1279
1280
1281
1282
1283
1284

VECTORS node_mesh_deformation float
0.0 7.979138394689e-02 0.0 
0.000000000000e+00 9.222575543217e-02 0.0 
0.0 0.000000000000e+00 0.0 
0.000000000000e+00 0.000000000000e+00 0.0 
0.0 7.968089783872e-02 0.0 
0.0 7.918873951137e-02 0.0 
0.0 7.831447057396e-02 0.0 
0.0 7.705390712798e-02 0.0 
0.0 7.539122161365e-02 0.0 
0.0 7.333444550054e-02 0.0 
0.0 7.088273262963e-02 0.0 
0.0 6.802967822118e-02 0.0 
0.0 6.477251051601e-02 0.0 
0.0 6.110318843499e-02 0.0 
0.0 5.700785506402e-02 0.0 
0.0 5.247981135178e-02 0.0 
0.0 4.751848901771e-02 0.0 
0.0 4.213864981059e-02 0.0 
0.0 3.629471799835e-02 0.0 
0.0 2.998887277671e-02 0.0 
0.0 2.321693685845e-02 0.0 
0.0 1.596218352072e-02 0.0 
0.0 8.214511824111e-03 0.0 
0.000000000000e+00 0.000000000000e+00 0.0 
0.000000000000e+00 0.000000000000e+00 0.0 
0.000000000000e+00 0.000000000000e+00 0.0 
0.000000000000e+00 0.000000000000e+00 0.0 
0.000000000000e+00 0.000000000000e+00 0.0 
0.000000000000e+00 0.000000000000e+00 0.0 
0.000000000000e+00 0.000000000000e+00 0.0 
0.000000000000e+00 0.000000000000e+00 0.0 
0.000000000000e+00 0.000000000000e+00 0.0 
0.000000000000e+00 0.000000000000e+00 0.0 
0.000000000000e+00 0.000000000000e+00 0.0 
0.000000000000e+00 0.000000000000e+00 0.0 
0.000000000000e+00 0.000000000000e+00 0.0 
0.000000000000e+00 0.000000000000e+00 0.0 
0.000000000000e+00 0.000000000000e+00 0.0 
0.000000000000e+00 0.000000000000e+00 0.0 
0.000000000000e+00 0.000000000000e+00 0.0 
0.000000000000e+00 0.000000000000e+00 0.0 
0.000000000000e+00 0.000000000000e+00 0.0 
0.000000000000e+00 0.000000000000e+00 0.0 
0.000000000000e+00 0.000000000000e+00 0.0 
0.000000000000e+00 0.000000000000e+00 0.0 
0.000000000000e+00 0.000000000000e+00 0.0 
0.000000000000e+00 0.000000000000e+00 0.0 
0.000000000000e+00 0.000000000000e+00 0.0 
0.000000000000e+00 0.000000000000e+00 0.0 
0.000000000000e+00 0.000000000000e+00 0.0 
0.000000000000e+00 0.000000000000e+00 0.0 
0.000000000000e+00 0.000000000000e+00 0.0 
0.000000000000e+00 0.000000000000e+00 0.0 
0.000000000000e+00 0.000000000000e+00 0.0 
0.000000000000e+00 0.000000000000e+00 0.0 
0.000000000000e+00 0.000000000000e+00 0.0 
0.000000000000e+00 0.000000000000e+00 0.0 
0.000000000000e+00 0.000000000000e+00 0.0 
0.000000000000e+00 0.000000000000e+00 0.0 
0.000000000000e+00 0.000000000000e+00 0.0 
0.000000000000e+00 0.000000000000e+00 0.0 
0.000000000000e+00 0.000000000000e+00 0.0 
0.000000000000e+00 0.000000000000e+00 0.0 
0.000000000000e+00 0.000000000000e+00 0.0 
0.000000000000e+00 0.000000000000e+00 0.0 
0.000000000000e+00 0.000000000000e+00 0.0 
0.000000000000e+00 0.000000000000e+00 0.0 
0.000000000000e+00 0.000000000000e+00 0.0 
0.000000000000e+00 0.000000000000e+00 0.0 
0.000000000000e+00 0.000000000000e+00 0.0 
0.000000000000e+00 0.000000000000e+00 0.0 
0.000000000000e+00 0.000000000000e+00 0.0 
0.000000000000e+00 8.485797393709e-02 0.0 
0.000000000000e+00 7.706944249692e-02 0.0 
0.000000000000e+00 6.885736577006e-02 0.0 
0.000000000000e+00 6.023677730821e-02 0.0 
0.000000000000e+00 5.119987907054e-02 0.0 
0.000000000000e+00 4.175882521407e-02 0.0 
0.000000000000e+00 3.191463354031e-02 0.0 
0.000000000000e+00 2.167025854224e-02 0.0 
0.000000000000e+00 1.103131198187e-02 0.0 
-6.900636214599e-03 9.795039957380e-02 0.0 
4.866485499107e-03 9.152218278197e-02 0.0 
-4.400349948394e-03 1.044257439037e-01 0.0 
-1.631078863920e-03 1.108761443973e-01 0.0 
1.274301488742e-03 1.156804741115e-01 0.0 
3.615393481180e-03 1.167041702908e-01 0.0 
4.947283037147e-03 1.153950866427e-01 0.0 
5.605109582230e-03 1.125895770536e-01 0.0 
5.811653129911e-03 1.086177262686e-01 0.0 
5.702203632211e-03 1.036905769177e-01 0.0 
5.362943032900e-03 9.795337617287e-02 0.0 
0.000000000000e+00 1.318123289244e-01 0.0 
0.000000000000e+00 1.274116115420e-01 0.0 
0.000000000000e+00 1.226354199231e-01 0.0 
0.000000000000e+00 1.173999195924e-01 0.0 
0.000000000000e+00 1.117647886253e-01 0.0 
0.000000000000e+00 1.056662182852e-01 0.0 
0.000000000000e+00 9.917223331078e-02 0.0 
2.722222050622e-04 9.222878945878e-02 0.0 
5.341315969503e-04 9.223717656050e-02 0.0 
8.050991227293e-04 9.224841876606e-02 0.0 
1.080979656251e-03 9.225490916765e-02 0.0 
1.359994172965e-03 9.227164299500e-02 0.0 
1.647097217429e-03 9.227436183318e-02 0.0 
1.945107051938e-03 9.227946743447e-02 0.0 
2.246609696357e-03 9.226998502458e-02 0.0 
2.570581765241e-03 9.226046592284e-02 0.0 
2.909740770065e-03 9.222132305866e-02 0.0 
3.262168112897e-03 9.215993891800e-02 0.0 
3.633131013594e-03 9.207319588038e-02 0.0 
4.021751192433e-03 9.194395318626e-02 0.0 
4.431224974148e-03 9.175997263758e-02 0.0 
-6.255801081100e-03 9.448671520693e-02 0.0 
-5.464679837043e-03 9.170105525259e-02 0.0 
-4.669476138723e-03 8.942129742439e-02 0.0 
-3.938089948310e-03 8.756623724964e-02 0.0 
-3.289541440889e-03 8.606217073749e-02 0.0 
-2.708416217654e-03 8.481615916159e-02 0.0 
-2.195137710723e-03 8.378419858980e-02 0.0 
-1.754637212736e-03 8.293489710150e-02 0.0 
-1.378367334260e-03 8.223975107690e-02 0.0 
-1.060462847104e-03 8.168065196488e-02 0.0 
-8.064473721596e-04 8.121818079203e-02 0.0 
-5.858264640324e-04 8.086340895435e-02 0.0 
-3.959234740636e-04 8.056110620191e-02 0.0 
-2.705283892155e-04 8.031781845628e-02 0.0 
-1.856908745310e-04 8.014002471217e-02 0.0 
-1.164795627928e-04 8.000674865530e-02 0.0 
-6.192018915208e-05 7.990667869562e-02 0.0 
-2.132506047681e-05 7.984037123685e-02 0.0 
-1.437983447394e-05 7.979442987933e-02 0.0 
1.061566301910e-03 1.194708631917e-01 0.0 
1.320564666205e-03 1.221421795552e-01 0.0 
1.538021858522e-03 1.242406226880e-01 0.0 
1.777675499309e-03 1.259084531794e-01 0.0 
2.004800324237e-03 1.272422941079e-01 0.0 
2.203683331896e-03 1.283088307509e-01 0.0 
2.365706438596e-03 1.291606432528e-01 0.0 
2.487642179716e-03 1.298367033828e-01 0.0 
2.568885959839e-03 1.303699694536e-01 0.0 
2.610495608678e-03 1.307860471582e-01 0.0 
2.614385608929e-03 1.311065610431e-01 0.0 
2.583116616151e-03 1.313492200098e-01 0.0 
2.519584263581e-03 1.315289976529e-01 0.0 
2.426881910644e-03 1.316583665243e-01 0.0 
2.308112792775e-03 1.317477775809e-01 0.0 
2.166295592168e-03 1.318059573206e-01 0.0 
2.004325326354e-03 1.318402314158e-01 0.0 
1.824996978016e-03 1.318567508485e-01 0.0 
1.631071253257e-03 1.318606789498e-01 0.0 
1.425391008105e-03 1.318563589977e-01 0.0 
1.211085038825e-03 1.318474491638e-01 0.0 
9.918931183250e-04 1.318369248974e-01 0.0 
7.725888464591e-04 1.318263950495e-01 0.0 
5.579760943135e-04 1.318118713629e-01 0.0 
3.048341163279e-04 1.317864353916e-01 0.0 
2.644515650161e-04 1.274503510362e-01 0.0 
5.205963291033e-04 1.274526222201e-01 0.0 
7.651910254793e-04 1.274663235203e-01 0.0 
1.002865685912e-03 1.274793212251e-01 0.0 
1.235143640280e-03 1.274924450891e-01 0.0 
1.461566109299e-03 1.275042189240e-01 0.0 
1.680786312619e-03 1.275117356318e-01 0.0 
1.891111211066e-03 1.275111662934e-01 0.0 
2.090755384664e-03 1.274978248562e-01 0.0 
2.277928571452e-03 1.274660831857e-01 0.0 
2.450879225357e-03 1.274091938693e-01 0.0 
2.607928527254e-03 1.273190673781e-01 0.0 
2.747547581201e-03 1.271859497747e-01 0.0 
2.868581894745e-03 1.269981498394e-01 0.0 
2.970263697023e-03 1.267415960407e-01 0.0 
3.052667219350e-03 1.263995528883e-01 0.0 
3.116425919352e-03 1.259514378892e-01 0.0 
3.164529601392e-03 1.253733013326e-01 0.0 
3.200275380831e-03 1.246333534017e-01 0.0 
3.233540841567e-03 1.236970491423e-01 0.0 
3.271810657001e-03 1.225064799410e-01 0.0 
3.344671770847e-03 1.210222709801e-01 0.0 
3.433221564190e-03 1.191254732100e-01 0.0 
4.659154582026e-03 1.170364120940e-01 0.0 
4.430595495339e-03 1.183647705024e-01 0.0 
4.207413585242e-03 1.194005697920e-01 0.0 
4.014236783849e-03 1.202345124547e-01 0.0 
3.832235579651e-03 1.208854715504e-01 0.0 
3.658572631529e-03 1.213971909025e-01 0.0 
3.485788125047e-03 1.217904051965e-01 0.0 
3.311203393224e-03 1.220898367055e-01 0.0 
3.131931694902e-03 1.223122305423e-01 0.0 
2.946501496908e-03 1.224732588500e-01 0.0 
2.753934824064e-03 1.225853225972e-01 0.0 
2.554109986526e-03 1.226592777480e-01 0.0 
2.347233549415e-03 1.227039259400e-01 0.0 
2.133716170427e-03 1.227265901459e-01 0.0 
1.914133673559e-03 1.227333928487e-01 0.0 
1.689158384437e-03 1.227294067913e-01 0.0 
1.459495560582e-03 1.227187972141e-01 0.0 
1.225633791250e-03 1.227047119590e-01 0.0 
9.876749178233e-04 1.226892006578e-01 0.0 
7.452732831936e-04 1.226728544971e-01 0.0 
4.983735864315e-04 1.226539637418e-01 0.0 
2.490764830654e-04 1.226160822117e-01 0.0 
2.556575712873e-04 1.174334354620e-01 0.0 
5.130995654881e-04 1.174310169607e-01 0.0 
7.698168921593e-04 1.174481908198e-01 0.0 
1.024877977471e-03 1.174661717584e-01 0.0 
1.278206043573e-03 1.174834344497e-01 0.0 
1.530054003155e-03 1.174988273612e-01 0.0 
1.780716235373e-03 1.175101344528e-01 0.0 
2.030245266290e-03 1.175141205632e-01 0.0 
2.278678282373e-03 1.175061659141e-01 0.0 
2.526264796266e-03 1.174806364234e-01 0.0 
2.773484334853e-03 1.174306617098e-01 0.0 
3.020928963664e-03 1.173481105262e-01 0.0 
3.269392406814e-03 1.172231317765e-01 0.0 
3.519971385252e-03 1.170428807689e-01 0.0 
3.775808042739e-03 1.167934110864e-01 0.0 
4.038776585190e-03 1.164564332743e-01 0.0 
4.315286639695e-03 1.160147478749e-01 0.0 
4.604469592671e-03 1.154358305848e-01 0.0 
4.922204492260e-03 1.147067503558e-01 0.0 
5.244385551212e-03 1.137619715750e-01 0.0 
5.418956861472e-03 1.094143516761e-01 0.0 
5.055490981562e-03 1.100638082859e-01 0.0 
4.691966077509e-03 1.105541939335e-01 0.0 
4.354628900252e-03 1.109459230601e-01 0.0 
4.032419878669e-03 1.112378643786e-01 0.0 
3.725965889927e-03 1.114569999777e-01 0.0 
3.429626577471e-03 1.116123713723e-01 0.0 
3.142285894953e-03 1.117203255404e-01 0.0 
2.862327667650e-03 1.117912419801e-01 0.0 
2.588617847167e-03 1.118335263649e-01 0.0 
2.319917464789e-03 1.118541216730e-01 0.0 
2.054747661390e-03 1.118591123463e-01 0.0 
1.792639262433e-03 1.118538543162e-01 0.0 
1.533074567000e-03 1.118424152445e-01 0.0 
1.275314449742e-03 1.118271872463e-01 0.0 
1.018658003801e-03 1.118102362097e-01 0.0 
7.628633908965e-04 1.117928836015e-01 0.0 
5.077487600502e-04 1.117753664949e-01 0.0 
2.536449735331e-04 1.117413722978e-01 0.0 
2.640016021047e-04 1.056973890460e-01 0.0 
5.292056879753e-04 1.056915664645e-01 0.0 
7.952778070575e-04 1.057067058645e-01 0.0 
1.064172777198e-03 1.057227951469e-01 0.0 
1.335638446818e-03 1.057388563741e-01 0.0 
1.611237228786e-03 1.057523596174e-01 0.0 
1.891586513246e-03 1.057612673793e-01 0.0 
2.178823964755e-03 1.057629243854e-01 0.0 
2.472273378757e-03 1.057537601089e-01 0.0 
2.774507204641e-03 1.057254529796e-01 0.0 
3.087772620631e-03 1.056722001800e-01 0.0 
3.412872248141e-03 1.055872580457e-01 0.0 
3.751884552806e-03 1.054605501673e-01 0.0 
4.107467429641e-03 1.052816591790e-01 0.0 
4.477456563102e-03 1.050259425518e-01 0.0 
4.875873098790e-03 1.046945203226e-01 0.0 
5.276685312815e-03 1.042449350825e-01 0.0 
4.943645601379e-03 9.831430790764e-02 0.0 
4.546801484054e-03 9.861665815411e-02 0.0 
4.150662211515e-03 9.881927332551e-02 0.0 
3.778784416632e-03 9.897407495281e-02 0.0 
3.425720969041e-03 9.908293511465e-02 0.0 
3.087992655310e-03 9.915607164255e-02 0.0 
2.765118123278e-03 9.920429365924e-02 0.0 
2.456101356799e-03 9.922945337672e-02 0.0 
2.156535484680e-03 9.923505723892e-02 0.0 
1.868451346233e-03 9.923682625950e-02 0.0 
1.587184917270e-03 9.922914697177e-02 0.0 
1.314112525407e-03 9.921912766110e-02 0.0 
1.044589721474e-03 9.920435200688e-02 0.0 
7.807385574026e-04 9.919215882104e-02 0.0 
5.206016302424e-04 9.917629929834e-02 0.0 
2.579393397752e-04 9.914223786571e-02 0.0 
-5.649195042910e-03 1.010780339495e-01 0.0 
-3.048508601999e-03 1.077491802363e-01 0.0 
-1.208812228484e-04 1.136082743250e-01 0.0 
2.653499639464e-03 1.165602387149e-01 0.0 
4.420232774784e-03 1.162625576737e-01 0.0 
5.357049595688e-03 1.141460086874e-01 0.0 
5.769486025930e-03 1.107330631542e-01 0.0 
5.802118070388e-03 1.062647553877e-01 0.0 
5.567020849718e-03 1.009165810466e-01 0.0 
5.139365373864e-03 9.481895142888e-02 0.0 
1.986476195768e-04 1.060071518875e-01 0.0 
1.523443732967e-03 7.757761225438e-03 0.0 
-6.838085693701e-04 8.174927827986e-02 0.0 
-2.292055081879e-03 8.655190273630e-02 0.0 
1.048936933412e-03 7.411924422250e-03 0.0 
4.855398719560e-03 1.126177721465e-01 0.0 
3.569856334463e-04 5.903763664006e-02 0.0 
1.768289708064e-03 8.181576940615e-03 0.0 
6.376163067518e-03 1.092256358301e-01 0.0 
1.718101251203e-03 8.400386069670e-03 0.0 
6.276362729576e-03 1.005958870617e-01 0.0 
6.046830242150e-04 6.684505230709e-03 0.0 
-9.792490964866e-05 8.027711647345e-02 0.0 
1.495947775638e-03 8.924433325543e-03 0.0 
5.285326337315e-03 8.833488781832e-02 0.0 
2.456294122253e-04 7.208284387460e-02 0.0 
3.757930698487e-04 4.598999903806e-02 0.0 
1.278121969658e-03 9.545449122186e-03 0.0 
8.439622485739e-04 9.290700511439e-03 0.0 
2.445063482597e-04 9.456156739166e-03 0.0 
4.427223993204e-04 1.024930070243e-02 0.0 
5.938847930054e-04 9.146840884622e-03 0.0 
4.246965799801e-03 8.532847374118e-02 0.0 
2.739207363149e-03 8.559296371197e-02 0.0 
1.785556480712e-03 8.545911701207e-02 0.0 
1.724325910786e-04 5.563448879785e-02 0.0 
3.639351458888e-04 7.191054078092e-03 0.0 
-3.655840109101e-03 9.288075402727e-02 0.0 
1.639939028397e-05 7.983852790821e-02 0.0 
2.615854696831e-04 2.718698187765e-02 0.0 
9.127188860845e-04 8.593307754264e-02 0.0 
1.279805789896e-04 7.775949242568e-02 0.0 
1.180953433952e-03 1.063948039056e-02 0.0 
1.638822844132e-03 7.645812185473e-03 0.0 
1.608191288231e-03 8.553625573683e-03 0.0 
1.777421333145e-03 8.438192520842e-03 0.0 
1.275758387331e-03 7.227210944912e-03 0.0 
-1.486940037589e-03 8.401492074519e-02 0.0 
3.454517304462e-03 8.591846762074e-02 0.0 
9.638152341811e-04 8.363402080715e-03 0.0 
1.231020463450e-04 3.731095400866e-02 0.0 
-3.332858606058e-04 8.085355515140e-02 0.0 
3.217818080921e-04 6.645797134644e-02 0.0 
1.177333420799e-04 7.698975524740e-03 0.0 
5.924547251627e-03 1.115909422566e-01 0.0 
2.940847655829e-03 1.107214001524e-01 0.0 
6.473266894869e-03 1.054611379997e-01 0.0 
5.858941251674e-03 9.485353569783e-02 0.0 
-2.899372826842e-03 1.004064768985e-01 0.0 
2.107681647274e-04 7.203703277139e-02 0.0 
1.697355868693e-04 5.677907364031e-03 0.0 
2.532038798408e-06 7.973467605246e-02 0.0 
6.530466887256e-05 1.720774670902e-02 0.0 
5.017010126906e-03 8.474146118482e-02 0.0 
5.337638770733e-03 8.140019423422e-02 0.0 
4.879664810986e-03 7.811190853467e-02 0.0 
5.263307411425e-03 7.411166051115e-02 0.0 
4.805728084960e-03 7.000610563708e-02 0.0 
5.090430086497e-03 6.626134980212e-02 0.0 
5.596132874949e-03 7.035683204361e-02 0.0 
5.346944799747e-03 6.242359989065e-02 0.0 
5.896732932406e-03 6.657259766568e-02 0.0 
4.580698695122e-03 6.190012526969e-02 0.0 
5.560728131016e-03 5.849454089292e-02 0.0 
6.154173449971e-03 6.268655132109e-02 0.0 
5.723675592304e-03 5.449928381704e-02 0.0 
6.354988568791e-03 5.870451508083e-02 0.0 
6.732159121889e-03 6.667879651224e-02 0.0 
6.970052169724e-03 6.273490886443e-02 0.0 
7.284350077182e-03 7.043448234845e-02 0.0 
7.556044309876e-03 6.651030294688e-02 0.0 
7.138008909191e-03 5.873543257490e-02 0.0 
7.751225217770e-03 6.253379896188e-02 0.0 
8.103526403080e-03 7.002738572880e-02 0.0 
8.318871173355e-03 6.606092253847e-02 0.0 
8.601674041920e-03 7.325665298860e-02 0.0 
8.828951029546e-03 6.927382969833e-02 0.0 
9.043342809175e-03 7.619921806954e-02 0.0 
9.272256902857e-03 7.218817266325e-02 0.0 
8.953102554500e-03 6.525840243914e-02 0.0 
9.389968663768e-03 6.817602130213e-02 0.0 
9.632343320156e-03 7.477147120260e-02 0.0 
9.733954733473e-03 7.076568312883e-02 0.0 
9.893887598206e-03 7.701137038329e-02 0.0 
9.969099222989e-03 7.301386919570e-02 0.0 
9.714549547823e-03 6.678742241819e-02 0.0 
9.919980245982e-03 6.908381025251e-02 0.0 
1.007912117794e-02 7.493065680132e-02 0.0 
9.994311482959e-03 7.106415987209e-02 0.0 
1.004753306124e-02 7.651728980479e-02 0.0 
9.926092451025e-03 7.273456025987e-02 0.0 
9.862535707391e-03 7.777646767588e-02 0.0 
9.706159503764e-03 7.411916332089e-02 0.0 
9.699032297981e-03 6.904850979062e-02 0.0 
9.454124377999e-03 7.056962761900e-02 0.0 
9.331091340833e-03 7.525260895723e-02 0.0 
9.065341002291e-03 7.187583115646e-02 0.0 
9.120361558356e-03 6.716693831632e-02 0.0 
8.727770049418e-03 6.866268674535e-02 0.0 
8.718124701616e-03 6.390031495376e-02 0.0 
8.330947187847e-03 6.558769780213e-02 0.0 
8.218647602764e-03 6.995921218443e-02 0.0 
7.837978673514e-03 6.708327847687e-02 0.0 
7.886599528286e-03 6.262307090971e-02 0.0 
7.414063016681e-03 6.434297195878e-02 0.0 
7.253486713291e-03 6.846147867593e-02 0.0 
6.864863021942e-03 6.589977829056e-02 0.0 
6.959288884493e-03 6.167333505400e-02 0.0 
6.442732910628e-03 6.343778622320e-02 0.0 
6.256578498958e-03 6.735225606719e-02 0.0 
5.876517168769e-03 6.507325412981e-02 0.0 
5.999831047257e-03 6.099246921274e-02 0.0 
5.470550919927e-03 6.284797555715e-02 0.0 
5.275621288618e-03 6.662218462461e-02 0.0 
4.914783504283e-03 6.456745848800e-02 0.0 
5.047471241168e-03 6.061593024523e-02 0.0 
4.530375327207e-03 6.253869846497e-02 0.0 
4.607180165923e-03 5.839996823924e-02 0.0 
4.336635972342e-03 6.623263456858e-02 0.0 
3.998176153216e-03 6.435956134621e-02 0.0 
3.757152190714e-03 6.783153297619e-02 0.0 
3.465011456051e-03 6.608982347957e-02 0.0 
9.578727176944e-03 6.286066254435e-02 0.0 
3.199327972558e-03 6.931949794351e-02 0.0 
3.426257651853e-03 7.084903560654e-02 0.0 
2.945393278232e-03 6.772652879157e-02 0.0 
3.145620753831e-03 6.432640838196e-02 0.0 
2.667057398650e-03 7.071835755788e-02 0.0 
2.448598430417e-03 6.926672390728e-02 0.0 
2.171210692719e-03 7.202917632191e-02 0.0 
9.895545012469e-03 8.177570527245e-02 0.0 
7.223020952548e-03 5.468207681860e-02 0.0 
1.983942338743e-03 7.071330611940e-02 0.0 
1.721244416570e-03 7.325027630972e-02 0.0 
1.838034895220e-03 7.439954248576e-02 0.0 
1.414623581759e-03 7.539673525808e-02 0.0 
4.335350051967e-03 6.579648945565e-02 0.0 
4.062602850951e-03 5.735761580577e-02 0.0 
3.860365420266e-03 6.138539526413e-02 0.0 
3.543172963376e-03 5.268178077980e-02 0.0 
3.381946289608e-03 5.675881252100e-02 0.0 
1.320615297304e-03 7.437958240027e-02 0.0 
5.081722633932e-03 4.989244425774e-02 0.0 
3.668821364293e-03 4.847079406288e-02 0.0 
8.281435743847e-03 7.719460526264e-02 0.0 
9.689911586829e-03 8.104625691273e-02 0.0 
8.982475284082e-03 6.201808061542e-02 0.0 
2.196808387361e-03 6.778052777110e-02 0.0 
1.758947179698e-03 6.935998293277e-02 0.0 
1.916331741027e-03 6.625331727838e-02 0.0 
5.055251907864e-03 5.620560850821e-02 0.0 
4.565789272704e-03 5.382362307717e-02 0.0 
4.933956156977e-03 5.134168219213e-02 0.0 
4.405494410641e-03 4.880148971022e-02 0.0 
4.683460273263e-03 4.602634233529e-02 0.0 
4.126822850765e-03 4.332746139906e-02 0.0 
3.880924034075e-03 4.625100779488e-02 0.0 
3.582434896897e-03 4.060753215339e-02 0.0 
3.365752645022e-03 4.367597451200e-02 0.0 
4.304724727568e-03 4.025761746835e-02 0.0 
4.892226862381e-03 4.310171194985e-02 0.0 
3.056183613945e-03 3.785990908482e-02 0.0 
2.865357188185e-03 4.106259716887e-02 0.0 
2.553474904285e-03 3.506914516019e-02 0.0 
2.385179307010e-03 3.840334695027e-02 0.0 
2.618685295516e-03 4.413029097422e-02 0.0 
2.160079485563e-03 4.160163197523e-02 0.0 
2.327727280114e-03 4.706408402585e-02 0.0 
8.520854026141e-03 5.869408112816e-02 0.0 
8.658017147024e-03 5.642288806705e-02 0.0 
8.140427730332e-03 5.304166344363e-02 0.0 
8.148279614673e-03 5.038548460890e-02 0.0 
7.578174721331e-03 4.694073368303e-02 0.0 
7.453989312118e-03 4.391046205844e-02 0.0 
6.833111027156e-03 4.039059800748e-02 0.0 
6.965720238767e-03 4.356956614937e-02 0.0 
5.831812919862e-03 5.040154453677e-02 0.0 
8.805875100229e-03 7.614728535734e-02 0.0 
8.994011436659e-03 7.950665738366e-02 0.0 
8.325888900284e-03 7.998580820919e-02 0.0 
8.422399661292e-03 8.331859474448e-02 0.0 
7.603758068843e-03 8.337646393017e-02 0.0 
7.587560397234e-03 8.669845788088e-02 0.0 
6.608457633508e-03 8.634069496579e-02 0.0 
6.667925906640e-03 8.328503225943e-02 0.0 
5.530388015892e-03 8.587287047187e-02 0.0 
5.653490578631e-03 8.311377130386e-02 0.0 
4.409827223160e-03 8.535292433803e-02 0.0 
4.604980775991e-03 8.291758122398e-02 0.0 
8.968244363722e-03 6.124171254014e-02 0.0 
8.024806794310e-03 4.749068216119e-02 0.0 
7.198139696335e-03 4.063800943449e-02 0.0 
7.767917594393e-03 4.434117007461e-02 0.0 
1.458373521691e-03 7.638147459028e-02 0.0 
1.929685231079e-03 3.568779731620e-02 0.0 
4.401306255749e-03 3.702711013814e-02 0.0 
5.020159185770e-03 4.006803701841e-02 0.0 
6.176578356460e-03 3.692881495202e-02 0.0 
1.050238880318e-03 7.630423261434e-02 0.0 
6.452046266343e-03 8.965372405696e-02 0.0 
7.456975169450e-03 9.029920508410e-02 0.0 
3.034346163325e-03 4.778715279234e-02 0.0 
2.914148115359e-03 5.195070142806e-02 0.0 
4.403473293758e-03 3.363373999366e-02 0.0 
9.726948634956e-04 7.541281086166e-02 0.0 
3.178665708502e-03 3.451420178527e-02 0.0 
4.100167264138e-03 8.803955685475e-02 0.0 
1.721692523775e-03 3.901714042935e-02 0.0 
1.503240906484e-03 3.291381786191e-02 0.0 
3.580587197975e-03 4.902400752077e-02 0.0 
6.809871805217e-03 3.710905262779e-02 0.0 
7.396317150253e-03 4.104162077281e-02 0.0 
5.697624173319e-03 8.056109089283e-02 0.0 
4.717290011650e-03 8.067226188838e-02 0.0 
3.572528641612e-03 8.272231665672e-02 0.0 
3.789349062037e-03 8.067269893065e-02 0.0 
4.761280848479e-03 7.853983186719e-02 0.0 
3.879232308716e-03 7.887958087402e-02 0.0 
2.894072086768e-03 8.075948591389e-02 0.0 
3.049547801455e-03 7.920043370328e-02 0.0 
3.908688581291e-03 7.713523173816e-02 0.0 
3.140657822273e-03 7.767474031913e-02 0.0 
2.292265355868e-03 7.951541660820e-02 0.0 
2.440380592290e-03 7.818273105940e-02 0.0 
1.639238094660e-03 2.931091935779e-02 0.0 
2.897982904909e-03 8.718297583154e-02 0.0 
6.949045001473e-03 7.427214802515e-02 0.0 
3.774551094581e-03 3.048829794721e-02 0.0 
5.916704770385e-03 3.348732498891e-02 0.0 
2.544053864469e-03 4.272139095656e-02 0.0 
2.462639553684e-03 4.697389863626e-02 0.0 
2.764396700947e-03 5.607592671051e-02 0.0 
2.347760474841e-03 5.116273894248e-02 0.0 
2.033182741066e-03 4.182765873458e-02 0.0 
1.951824870012e-03 4.610652696623e-02 0.0 
2.205568771956e-03 5.529038413339e-02 0.0 
1.840378146248e-03 5.031356744492e-02 0.0 
2.041271765229e-03 5.933757380097e-02 0.0 
1.704331731531e-03 5.444027732113e-02 0.0 
1.498678544337e-03 4.519077337040e-02 0.0 
1.388543921557e-03 4.941078157588e-02 0.0 
1.548244379251e-03 5.849095567896e-02 0.0 
1.254860230141e-03 5.355168882250e-02 0.0 
1.374791567841e-03 6.245562286460e-02 0.0 
1.101094782314e-03 5.760823112066e-02 0.0 
9.853946665217e-04 4.848272800519e-02 0.0 
7.587775435622e-04 7.705747224858e-02 0.0 
6.324380425259e-03 4.026324646598e-02 0.0 
5.496600876944e-03 3.350819033510e-02 0.0 
1.510987769075e-03 6.795717847812e-02 0.0 
1.629732712296e-03 6.467293876973e-02 0.0 
2.025473952446e-03 6.273463606676e-02 0.0 
1.672765043652e-03 6.098976920651e-02 0.0 
8.486655256590e-04 5.267640311897e-02 0.0 
7.392414952605e-04 4.329435671985e-02 0.0 
6.180235355732e-03 9.326036447959e-02 0.0 
7.191431482408e-03 9.419717196167e-02 0.0 
2.584787315200e-03 3.840184913257e-02 0.0 
1.307223239362e-03 3.637088283145e-02 0.0 
1.467437979622e-03 4.220964951501e-02 0.0 
9.866341772327e-03 8.291612192347e-02 0.0 
9.556363578969e-03 8.698543625992e-02 0.0 
9.640752690689e-03 8.849723958539e-02 0.0 
9.208984212187e-03 9.272577614034e-02 0.0 
9.115243789761e-03 9.105521778688e-02 0.0 
9.185044000162e-03 9.389255390864e-02 0.0 
5.491063125209e-03 4.604220476389e-02 0.0 
1.184895820572e-03 3.993387632743e-02 0.0 
1.906228190333e-03 7.552211794532e-02 0.0 
1.443433239925e-03 7.734278697407e-02 0.0 
1.112083725695e-03 3.007236809639e-02 0.0 
6.974580919799e-03 4.654591807644e-02 0.0 
8.453017606445e-03 5.797793100610e-02 0.0 
8.364136920932e-03 5.392571663627e-02 0.0 
7.767158357773e-03 5.031060662037e-02 0.0 
7.572298114454e-03 4.622474645305e-02 0.0 
6.890524835242e-03 4.225766223367e-02 0.0 
6.582752039023e-03 3.812930122299e-02 0.0 
7.274243253903e-03 4.216104784807e-02 0.0 
6.287901232170e-03 3.327876671290e-02 0.0 
6.173417559705e-03 3.400515959499e-02 0.0 
9.467292184340e-04 6.165798244108e-02 0.0 
8.538831259926e-03 5.120998550350e-02 0.0 
3.875350101092e-03 7.544963672743e-02 0.0 
7.802952775453e-04 7.778366900565e-02 0.0 
1.605067278271e-03 7.984678698173e-02 0.0 
6.811306312726e-04 7.633447619318e-02 0.0 
8.500123438138e-04 7.447295255769e-02 0.0 
3.643459086167e-03 2.676596782817e-02 0.0 
5.813868779221e-03 3.381562077463e-02 0.0 
6.141760126642e-03 3.801943834630e-02 0.0 
8.638735380138e-03 9.686651252134e-02 0.0 
8.557707770315e-03 9.503653661050e-02 0.0 
5.648149628705e-03 2.944090372849e-02 0.0 
3.631842031020e-03 6.541059197419e-02 0.0 
2.394736601950e-03 6.409900232230e-02 0.0 
2.186624372229e-03 6.797223507133e-02 0.0 
5.000979002339e-04 7.791751493041e-02 0.0 
1.371448055927e-03 8.095630713138e-02 0.0 
1.632339141537e-03 3.653592114692e-02 0.0 
8.275881415400e-03 9.076631436316e-02 0.0 
7.997946549612e-03 9.485232083640e-02 0.0 
2.366923046285e-03 8.978995904344e-02 0.0 
1.118557266697e-03 8.861953612907e-02 0.0 
6.239672990986e-04 4.748153500850e-02 0.0 
5.287052649194e-04 3.797248734248e-02 0.0 
2.071759328649e-03 5.880802989309e-02 0.0 
1.689335290150e-03 5.688173573811e-02 0.0 
4.298445517273e-03 3.003974132915e-02 0.0 
1.821687306673e-03 7.864939869345e-02 0.0 
6.054798061115e-04 3.353268126485e-02 0.0 
6.349678981614e-03 4.338111453501e-02 0.0 
6.866572455239e-03 4.932408608158e-02 0.0 
1.283913693284e-03 6.306861714308e-02 0.0 
5.744453041661e-03 9.721187602811e-02 0.0 
4.541503553384e-03 9.579837479664e-02 0.0 
4.631362455509e-03 7.465932704776e-02 0.0 
2.512765304504e-03 7.688086807841e-02 0.0 
5.678893671126e-04 7.551659569518e-02 0.0 
3.393209360761e-03 2.284939079406e-02 0.0 
1.644030743563e-03 3.210298517430e-02 0.0 
6.873404745846e-03 3.812011662782e-02 0.0 
7.874327937802e-03 4.592753657068e-02 0.0 
5.671163052362e-03 2.991960260356e-02 0.0 
1.077359666779e-03 8.004258811958e-02 0.0 
3.011645952530e-03 2.347158845403e-02 0.0 
9.253384499130e-04 3.365731559229e-02 0.0 
5.029202016196e-03 2.963444501313e-02 0.0 
5.333934649485e-03 3.351752172250e-02 0.0 
8.890899484324e-03 9.095412759480e-02 0.0 
8.598689786897e-03 9.508514886560e-02 0.0 
7.556586145427e-03 9.917723456683e-02 0.0 
8.111169674116e-03 9.942638400213e-02 0.0 
6.086081028684e-03 7.429682636584e-02 0.0 
9.313793669673e-03 9.072244759905e-02 0.0 
7.433380605406e-03 7.776446831793e-02 0.0 
7.014003672605e-03 8.148453849708e-02 0.0 
7.420747869574e-03 8.471885833321e-02 0.0 
8.919227913712e-03 8.909163262288e-02 0.0 
8.373992693759e-03 9.293115079016e-02 0.0 
9.085192768747e-03 8.309465109577e-02 0.0 
9.116118801433e-03 5.991172845435e-02 0.0 
2.446379280351e-03 6.068137181988e-02 0.0 
2.778793692265e-03 4.939004154247e-02 0.0 
5.460697947042e-03 5.388182875800e-02 0.0 
1.241697496468e-03 3.554920787193e-02 0.0 
9.365356852626e-04 3.006122267947e-02 0.0 
1.666585563633e-03 6.717295996545e-02 0.0 
1.461242527121e-03 7.095695693021e-02 0.0 
1.045506324293e-03 7.798041861542e-02 0.0 
9.545329340863e-04 7.878322013969e-02 0.0 
4.155736790198e-03 5.618044122703e-02 0.0 
3.168860098533e-03 2.733182699147e-02 0.0 
2.080513578420e-03 3.309282474601e-02 0.0 
2.031452558377e-03 2.861330752689e-02 0.0 
2.576197929663e-03 3.400366010030e-02 0.0 
4.073221866676e-03 2.623652145991e-02 0.0 
8.150964872382e-03 7.685469394513e-02 0.0 
8.007830925258e-03 5.548693673172e-02 0.0 
1.758344415592e-03 8.641158055173e-02 0.0 
9.281480439647e-03 6.021394094813e-02 0.0 
6.235710464821e-04 7.919660130260e-02 0.0 
6.552201027937e-03 5.064622188593e-02 0.0 
7.632839365859e-04 2.716079681596e-02 0.0 
8.827068093185e-04 2.330468448837e-02 0.0 
4.996942198897e-03 2.528009517794e-02 0.0 
5.717763410878e-03 8.502676212922e-02 0.0 
9.058558014917e-03 5.627130202448e-02 0.0 
9.336776544156e-03 5.902358761044e-02 0.0 
6.933181902120e-03 8.829091518494e-02 0.0 
7.255336662194e-03 9.128059619597e-02 0.0 
7.782353114017e-03 8.768972071783e-02 0.0 
7.524266106575e-03 9.406044287953e-02 0.0 
4.481889094862e-03 7.284740642682e-02 0.0 
3.781668809468e-03 7.383512547640e-02 0.0 
4.477919271746e-03 2.470099986256e-02 0.0 
4.909029290612e-03 2.573366642371e-02 0.0 
4.180797299277e-03 2.505432082341e-02 0.0 
4.485538291185e-03 2.872912935150e-02 0.0 
4.280952964830e-03 2.136110559870e-02 0.0 
4.950851153829e-03 2.563035230486e-02 0.0 
6.845437956016e-04 7.347829197271e-02 0.0 
7.922273309180e-03 9.877965986516e-02 0.0 
1.246807118953e-03 2.656699383558e-02 0.0 
6.570115573258e-03 8.511613763858e-02 0.0 
2.435187367213e-03 2.034449127666e-02 0.0 
2.598634481769e-03 2.416400656553e-02 0.0 
4.521992316597e-06 8.759539044522e-02 0.0 
7.336115118388e-04 8.553860819487e-02 0.0 
4.163538713229e-04 2.821055784732e-02 0.0 
6.935978078470e-03 1.036035569388e-01 0.0 
7.431210616211e-03 1.038137441639e-01 0.0 
6.188738739493e-03 1.027678355083e-01 0.0 
1.155177178320e-04 1.219651297531e-02 0.0 
3.935256363903e-04 8.601592875665e-02 0.0 
5.744229463529e-04 2.019922744080e-02 0.0 
8.628981400442e-03 8.669228165476e-02 0.0 
4.407392753478e-04 2.319666880457e-02 0.0 
8.737253518227e-03 5.241761857503e-02 0.0 
9.914988974757e-03 8.451448962924e-02 0.0 
4.967668423172e-03 3.331292336779e-02 0.0 
3.384647094151e-04 3.356543501592e-02 0.0 
2.489597415121e-04 2.232928906405e-02 0.0 
2.517159346979e-03 7.237632452518e-02 0.0 
2.283419037163e-03 7.620881270400e-02 0.0 
2.759586598152e-03 6.870811340868e-02 0.0 
3.697160079476e-03 9.100146484772e-02 0.0 
1.508626086547e-03 9.316122088456e-02 0.0 
9.021529087079e-04 3.454556942528e-02 0.0 
1.364990044160e-03 7.084126015717e-02 0.0 
1.122477351981e-03 6.925246605940e-02 0.0 
1.909698080429e-03 7.759594347761e-02 0.0 
2.501504846579e-03 7.565826953543e-02 0.0 
2.473109293223e-03 5.653518270670e-02 0.0 
2.874253370994e-03 5.853272080032e-02 0.0 
6.515857836806e-03 4.646709805672e-02 0.0 
5.787616620086e-03 4.220703237604e-02 0.0 
7.861020098350e-03 5.443472412046e-02 0.0 
6.261533835525e-03 4.629810826817e-02 0.0 
6.652839996629e-03 5.191448751072e-02 0.0 
7.219443162761e-03 5.478759074546e-02 0.0 
9.469262644402e-04 2.583902332350e-02 0.0 
6.297689427583e-04 1.927317656648e-02 0.0 
5.199826196851e-03 7.185769095884e-02 0.0 
5.406590321295e-03 7.385863311739e-02 0.0 
4.276628792468e-03 7.116454712992e-02 0.0 
1.185107829833e-03 2.215904861507e-02 0.0 
6.362474632193e-04 1.627823328078e-02 0.0 
9.406151624285e-04 1.957571156470e-02 0.0 
4.681859342188e-04 7.981922255556e-02 0.0 
8.019091011526e-04 7.955553308522e-02 0.0 
3.912230263786e-03 9.975057058598e-02 0.0 
2.490895219811e-03 9.794472276956e-02 0.0 
1.952876333490e-03 2.446238073441e-02 0.0 
2.515439334459e-03 2.961296439418e-02 0.0 
1.376638565411e-03 1.845789840784e-02 0.0 
4.076351490703e-04 7.475074878999e-02 0.0 
7.455050630885e-03 4.182848288706e-02 0.0 
3.090102566672e-03 1.911747864745e-02 0.0 
3.801591776538e-03 2.265923700536e-02 0.0 
2.279524132225e-03 1.470080104727e-02 0.0 
5.692696142571e-03 2.947688985370e-02 0.0 
4.301541263342e-03 2.128146994292e-02 0.0 
4.233680263546e-03 2.129648642201e-02 0.0 
-8.531962140204e-04 8.961741101917e-02 0.0 
1.900494458837e-04 2.658006442734e-02 0.0 
1.741584556932e-03 7.546035071072e-02 0.0 
-1.604800479228e-03 8.852463998568e-02 0.0 
1.509959885361e-03 7.933513509090e-02 0.0 
1.259574553792e-03 7.470707899546e-02 0.0 
1.307666820949e-03 8.308125580364e-02 0.0 
3.346896025009e-04 7.646064288772e-02 0.0 
2.879681321303e-03 7.809391301038e-02 0.0 
3.157502003305e-03 7.350139646945e-02 0.0 
1.276837429049e-04 8.058943044191e-02 0.0 
8.026797692295e-04 1.651910495988e-02 0.0 
2.363583921703e-04 7.998733830656e-02 0.0 
3.917677924274e-04 7.949659859757e-02 0.0 
1.880564627809e-03 1.692371363593e-02 0.0 
2.065786316896e-03 2.092904470167e-02 0.0 
1.372960920303e-03 1.360731526523e-02 0.0 
1.612882165588e-03 1.804179745985e-02 0.0 
2.165718565237e-03 2.492414692725e-02 0.0 
1.693835210748e-03 2.178436819316e-02 0.0 
2.051666789320e-03 8.050323325755e-02 0.0 
1.112327790385e-03 1.367266681469e-02 0.0 
1.260854680812e-03 1.843278084045e-02 0.0 
7.346167157483e-04 1.052601642138e-02 0.0 
6.918991767940e-03 9.740616209736e-02 0.0 
8.405672804880e-03 9.932108164960e-02 0.0 
7.693818675595e-03 1.036064296754e-01 0.0 
6.525563085322e-03 1.083698501384e-01 0.0 
3.019774239736e-03 1.826434523703e-02 0.0 
3.684066579918e-03 2.420242297460e-02 0.0 
5.781212068408e-04 3.073483426693e-02 0.0 
6.612016200662e-04 3.696735357761e-02 0.0 
1.041591779945e-03 7.896723756066e-02 0.0 
7.584914293091e-04 7.929621657251e-02 0.0 
8.273003356081e-04 7.192673158472e-02 0.0 
5.963635231439e-04 7.284229420497e-02 0.0 
6.337396306435e-04 6.531445308018e-02 0.0 
4.075132730677e-04 6.629093127976e-02 0.0 
4.834216420448e-04 5.846507353917e-02 0.0 
3.345238379893e-03 1.679357052228e-02 0.0 
5.310196489663e-03 1.072814887203e-01 0.0 
6.422707671515e-03 9.178696826591e-02 0.0 
3.509813329998e-03 1.744950736891e-02 0.0 
4.326006182858e-03 2.250870180936e-02 0.0 
7.768319585679e-03 9.659008776150e-02 0.0 
7.228257800541e-03 1.024570466415e-01 0.0 
2.001916167989e-03 1.509807251266e-02 0.0 
9.505008767167e-03 8.667556388838e-02 0.0 
5.979804497045e-04 1.062610440542e-02 0.0 
-4.049950566113e-03 9.567089806590e-02 0.0 
-1.295023577800e-03 9.392951242978e-02 0.0 
9.787622035073e-03 8.596804361074e-02 0.0 
8.102377557844e-03 9.043541722198e-02 0.0 
8.582452716716e-03 9.844113844995e-02 0.0 
7.924397870131e-03 1.022516310856e-01 0.0 
5.707875051424e-03 4.015355638505e-02 0.0 
5.536702076832e-04 8.035780786855e-02 0.0 
5.166231356732e-03 1.014161123352e-01 0.0 
7.000618348982e-04 5.757410585610e-02 0.0 
3.005904299464e-03 1.039002374555e-01 0.0 
3.034632601042e-04 3.360931789068e-02 0.0 
9.575191537884e-03 8.261533498220e-02 0.0 
9.075361033460e-03 8.281666371295e-02 0.0 
6.774228614798e-03 9.835640773163e-02 0.0 
9.006969077454e-03 9.466808094641e-02 0.0 
6.436158673825e-03 7.055321077968e-02 0.0 
5.713527582863e-03 7.792262233798e-02 0.0 
6.138875543989e-03 8.166569239627e-02 0.0 
9.509513298379e-03 7.882067439865e-02 0.0 
7.983537351258e-03 1.006569636986e-01 0.0 
7.135622126082e-03 1.062252825977e-01 0.0 
7.806721955198e-03 7.396014413600e-02 0.0 
3.151654899511e-03 3.921660251696e-02 0.0 
3.128127218837e-03 3.482210212013e-02 0.0 
2.411255451058e-03 2.544298592094e-02 0.0 
3.044676614387e-03 3.045927797386e-02 0.0 
3.769000258018e-03 3.991660046109e-02 0.0 
3.727445874233e-03 3.557961171287e-02 0.0 
2.892423684635e-03 2.617959144522e-02 0.0 
3.615200363935e-03 3.122943305393e-02 0.0 
2.437114369133e-03 1.981847376343e-02 0.0 
3.390533048538e-03 2.664805341328e-02 0.0 
4.365303527859e-03 3.635943101075e-02 0.0 
4.225354821259e-03 3.221451221200e-02 0.0 
3.241788918558e-03 2.346489385368e-02 0.0 
5.141306604873e-03 4.174840340481e-02 0.0 
2.738160675950e-03 1.311193370737e-02 0.0 
1.004673931029e-02 8.053559351448e-02 0.0 
3.062953971451e-04 9.116474136279e-02 0.0 
-2.653900087779e-05 9.604392834448e-02 0.0 
8.705288932731e-03 8.013487146072e-02 0.0 
1.185450330041e-03 9.657274329285e-03 0.0 
9.541136297742e-04 9.549934959420e-03 0.0 
8.408205365587e-03 8.692728515029e-02 0.0 
1.554686170149e-03 8.714421647770e-03 0.0 
6.558094456931e-03 7.801268870360e-02 0.0 
5.303691256017e-03 8.890249249131e-02 0.0 
1.688098619820e-03 8.581520999670e-03 0.0 
3.747122646878e-03 4.420464105513e-02 0.0 
4.354612647916e-03 4.918060690713e-02 0.0 
4.229779395544e-03 5.330993064809e-02 0.0 
7.294575552663e-04 8.934906709683e-03 0.0 
2.993596971152e-03 6.487411542243e-02 0.0 
1.650113151577e-03 7.648696769280e-03 0.0 
8.663771707901e-03 5.392044505804e-02 0.0 
9.118325067007e-03 5.765069093010e-02 0.0 
9.502365075260e-03 6.358009884101e-02 0.0 
4.433788900542e-03 4.077416782726e-02 0.0 
1.580814996689e-03 7.734806698423e-03 0.0 
2.858469648608e-03 1.474912704523e-02 0.0 
2.704510091302e-03 1.458992207224e-02 0.0 
4.012826890207e-03 2.192327870592e-02 0.0 
1.411745171715e-03 7.532024790425e-03 0.0 
1.249667953843e-03 8.587364306361e-03 0.0 
1.272010078250e-03 8.102978851440e-03 0.0 
4.725131159557e-03 7.656246494022e-02 0.0 
5.567222281551e-03 7.594636386549e-02 0.0 
6.180896923279e-03 7.300609897701e-02 0.0 
6.398393993623e-03 7.531816476148e-02 0.0 
5.666057078688e-03 7.818462707332e-02 0.0 
6.554702149625e-03 7.779389337742e-02 0.0 
7.186597643219e-03 7.466049941973e-02 0.0 
6.643865533011e-03 8.045670167389e-02 0.0 
4.803005801897e-03 3.320476921914e-02 0.0 
1.186357055724e-03 7.123915992004e-03 0.0 
5.246437232504e-03 4.873215349455e-02 0.0 
5.808897753042e-03 5.150310769092e-02 0.0 
5.977171452711e-03 5.647863586248e-02 0.0 
2.805249630609e-03 6.251680532531e-02 0.0 
3.263658681896e-03 6.050643024374e-02 0.0 
3.295484223299e-03 5.626948048536e-02 0.0 
2.352895359804e-03 6.443957003431e-02 0.0 
8.169584781960e-03 4.990444057366e-02 0.0 
1.090401475549e-03 7.130927441139e-03 0.0 
7.453188360815e-03 5.236402978328e-02 0.0 
3.639415118942e-03 6.245376543625e-02 0.0 
3.847682152021e-03 8.564174046817e-02 0.0 
4.013207176271e-03 7.897969988907e-02 0.0 
4.411923357871e-03 7.866211130962e-02 0.0 
4.102276843049e-03 7.094501691320e-02 0.0 
3.567127904375e-03 7.818862961930e-02 0.0 
2.067039526082e-03 5.447987877475e-02 0.0 
1.660603295823e-03 5.237427362546e-02 0.0 
1.300804116830e-03 5.490463841602e-02 0.0 
1.257458218944e-03 5.021103104050e-02 0.0 
9.103400238129e-04 5.285342183959e-02 0.0 
9.423025703827e-04 5.721553476698e-02 0.0 
8.530373876710e-04 4.798279140542e-02 0.0 
5.257663070557e-04 5.129233036761e-02 0.0 
3.088863996105e-03 8.581385699895e-02 0.0 
-1.836992628929e-03 8.517297928429e-02 0.0 
-5.230790757071e-04 8.412360448087e-02 0.0 
-3.966751719400e-04 8.311397308164e-02 0.0 
5.080987373187e-04 8.294631236154e-02 0.0 
5.873863698653e-04 8.396565269048e-02 0.0 
1.713612183869e-03 8.234756128984e-02 0.0 
1.698463749490e-03 8.369703431148e-02 0.0 
-6.763069038467e-04 8.542456225984e-02 0.0 
-1.176559119347e-03 8.310390709175e-02 0.0 
-2.507645310796e-04 8.230193708630e-02 0.0 
-9.076531067631e-04 8.235385883746e-02 0.0 
-1.593980155956e-04 8.166353682286e-02 0.0 
6.559472449776e-04 8.118486909509e-02 0.0 
1.387800710104e-03 7.823770702128e-02 0.0 
3.258909754846e-04 8.172584316618e-03 0.0 
3.457331864820e-04 6.298527230717e-02 0.0 
6.592646218015e-04 6.479454901458e-02 0.0 
6.012291111488e-04 6.794024872401e-02 0.0 
9.706127824027e-04 6.632448708242e-02 0.0 
6.577508302121e-04 6.147763591824e-02 0.0 
2.861287386158e-04 6.947919372495e-02 0.0 
5.426366150498e-04 7.047065873001e-02 0.0 
1.776247855156e-05 7.976426387047e-02 0.0 
8.065547030833e-05 7.940727399524e-02 0.0 
2.560255102924e-05 7.942534284327e-02 0.0 
1.258480357764e-04 7.875764225961e-02 0.0 
2.014640707850e-04 7.882214550926e-02 0.0 
1.255410722760e-04 7.945488076669e-02 0.0 
1.582823876478e-04 7.954699704580e-02 0.0 
-2.192544065416e-06 7.995170611075e-02 0.0 
1.810064372405e-04 7.967091541738e-02 0.0 
3.641534607723e-04 7.894970716255e-02 0.0 
-3.641081236605e-05 8.009663725864e-02 0.0 
1.512165520694e-04 4.647332976567e-02 0.0 
2.887732177399e-04 4.176793000563e-02 0.0 
9.568878140396e-04 7.495083192719e-03 0.0 
2.381432506020e-03 8.525363816630e-02 0.0 
-4.779696911221e-04 8.125684259027e-02 0.0 
2.279238991463e-04 1.135319310121e-02 0.0 
3.433769882335e-04 9.443501091020e-03 0.0 
2.836722824213e-04 9.142712505962e-03 0.0 
1.905411111940e-04 1.991369465507e-02 0.0 
3.097573883406e-04 1.635274433531e-02 0.0 
1.184599407509e-04 1.103063924690e-02 0.0 
2.314235011849e-03 7.331487493113e-02 0.0 
2.239672144889e-03 2.131132012859e-02 0.0 
6.526446429831e-04 2.900984527515e-02 0.0 
4.998466120217e-03 9.216318771777e-02 0.0 
3.117982258928e-03 7.477445912289e-02 0.0 
1.046581835356e-03 3.963872215666e-02 0.0 
3.093746834040e-03 4.658808811569e-02 0.0 
1.239374329081e-03 2.640096343608e-02 0.0 
1.889550567184e-03 4.466456611197e-02 0.0 
2.079368704919e-03 3.221781866394e-02 0.0 
2.614033175082e-03 1.492024961513e-02 0.0 
4.535262117198e-04 7.711040156991e-02 0.0 
1.860557489564e-03 6.329709624309e-02 0.0 
1.199613310014e-03 6.636724102390e-02 0.0 
1.098054529074e-03 4.424936574180e-02 0.0 
1.561434439854e-03 7.206717780624e-02 0.0 
1.322454077704e-03 5.897489369509e-02 0.0 
1.080412436075e-03 7.714576813484e-02 0.0 
3.017248469856e-03 1.629524871206e-02 0.0 
7.871838537866e-03 8.101886580952e-02 0.0 
5.534673263206e-03 5.859592857696e-02 0.0 
2.661729671798e-03 6.610008180751e-02 0.0 
2.849703175269e-03 7.211583607299e-02 0.0 
3.163672467027e-03 7.619204614188e-02 0.0 
1.004005545170e-02 7.892649159342e-02 0.0 
4.130854453305e-03 6.048100215306e-02 0.0 
3.731484488714e-03 3.740004161077e-02 0.0 
8.354497095979e-04 3.895989489018e-02 0.0 
-1.486511583915e-04 8.049411556839e-02 0.0 
3.799777380340e-03 3.402958748014e-02 0.0 
4.072994859834e-03 5.143466728975e-02 0.0 
2.590710099888e-03 6.013945346622e-02 0.0 
6.574003420312e-03 3.700762501435e-02 0.0 
2.102452748570e-03 8.079992240005e-02 0.0 
1.582092304680e-03 4.091083742863e-02 0.0 
1.553451528345e-03 2.367187280558e-02 0.0 
3.397828342301e-03 6.942397639199e-02 0.0 
7.184479585334e-04 7.853646214311e-02 0.0 
1.975229972210e-03 7.187847957554e-02 0.0 
2.736755475762e-03 1.941230792229e-02 0.0 
3.116071722694e-03 4.352598422007e-02 0.0 
1.182019758732e-03 7.332199110136e-02 0.0 
8.260900843606e-03 6.075570483460e-02 0.0 
9.411483710696e-03 7.879339099382e-02 0.0 
5.602758601036e-03 9.168045488605e-02 0.0 
6.742126446611e-04 2.478833906055e-02 0.0 
9.756188451711e-03 6.524482307364e-02 0.0 
5.207591954523e-03 2.981308920802e-02 0.0 
7.575423142370e-03 4.975315827021e-02 0.0 
1.007333518002e-03 7.217013308425e-02 0.0 
2.672812970363e-03 2.796191315226e-02 0.0 
9.379274447102e-03 6.546445923524e-02 0.0 
1.267041350388e-03 3.115030636498e-02 0.0 
7.098867742741e-03 4.641225723637e-02 0.0 
8.544342448118e-03 7.297872361164e-02 0.0 
2.078508595680e-03 3.749576814420e-02 0.0 
6.477520001232e-03 5.907083681719e-02 0.0 
6.177391104213e-03 3.335405688133e-02 0.0 
8.275485617872e-03 8.397163287352e-02 0.0 
8.437005968940e-03 6.203406970487e-02 0.0 
6.498402888816e-03 5.474856290235e-02 0.0 
9.392428448148e-03 6.417270431939e-02 0.0 
7.145522722249e-04 4.279842984300e-02 0.0 
3.220947484509e-03 3.101389543457e-02 0.0 
3.310801237006e-03 8.488019546687e-02 0.0 
9.575926007251e-03 8.976951455560e-02 0.0 
3.194506905068e-03 6.081929494802e-02 0.0 
5.431053186140e-03 2.991590134177e-02 0.0 
8.938797071210e-04 2.092103962581e-02 0.0 
9.362804891776e-03 8.508148034732e-02 0.0 
2.654204759503e-03 3.160715443944e-02 0.0 
1.621486434587e-03 2.791764426337e-02 0.0 
3.718001815326e-03 5.839836823121e-02 0.0 
1.611375784866e-04 7.622722884497e-02 0.0 
3.222356984818e-03 9.427130784299e-02 0.0 
7.532254861150e-03 8.028647817143e-02 0.0 
9.798503830375e-03 6.729374196909e-02 0.0 
3.698878052344e-03 5.392588227328e-02 0.0 
1.717550915913e-03 1.892489038309e-02 0.0 
2.161489000271e-03 2.865044902988e-02 0.0 
5.046211926100e-03 3.679780096446e-02 0.0 
-1.289244790847e-03 1.031887737513e-01 0.0 
6.101990083671e-03 8.845868559159e-02 0.0 
1.706277328866e-03 2.563111079505e-02 0.0 
7.759132330776e-03 5.772682633606e-02 0.0 
5.508393034074e-03 2.972397546786e-02 0.0 
5.721005320625e-04 5.544426065415e-02 0.0 
3.141994435538e-03 1.630307676028e-02 0.0 
7.137966227969e-03 9.992455091362e-02 0.0 
1.293064574107e-03 2.254384213160e-02 0.0 
5.661476751488e-03 3.691704576868e-02 0.0 
9.054240992125e-03 8.691412836838e-02 0.0 
6.530534574480e-04 8.601269873705e-02 0.0 
8.200435304211e-04 1.411530368620e-02 0.0 
4.761872504867e-03 2.963406215186e-02 0.0 
8.872603983392e-03 5.723632500898e-02 0.0 
7.402164304905e-03 5.977893374014e-02 0.0 
6.105188496527e-03 9.786187406311e-02 0.0 
3.238098192724e-03 5.165232732639e-02 0.0 
7.858925025715e-03 5.853404031164e-02 0.0 
6.364312672105e-04 8.717981779746e-03 0.0 
4.512722650734e-03 2.632379920662e-02 0.0 
4.795225857940e-03 5.813197018863e-02 0.0 
2.866027957531e-03 5.416248417184e-02 0.0 
8.306406683488e-03 4.844665725078e-02 0.0 
2.836207105621e-04 7.888238815516e-02 0.0 
6.691004279414e-03 9.464698393208e-02 0.0 
2.433635758726e-03 5.199592043346e-02 0.0 
7.389752331619e-03 7.738961111530e-02 0.0 
6.888412143843e-03 5.701287352354e-02 0.0 
3.585538576669e-03 1.736797674079e-02 0.0 
2.006159215421e-03 4.977373426359e-02 0.0 
7.910474982452e-03 7.388055373173e-02 0.0 
1.586394495495e-03 4.749702600224e-02 0.0 
6.430240202665e-03 1.031736661420e-01 0.0 
4.959823357090e-03 5.392842663488e-02 0.0 
1.162181823176e-03 4.515596497951e-02 0.0 
7.213647427982e-03 5.058574203398e-02 0.0 
4.500572377193e-04 7.903294275888e-02 0.0 
8.671591896139e-03 5.328832742378e-02 0.0 
4.495274244931e-04 2.371306620895e-02 0.0 
4.028685904636e-03 6.950792654473e-02 0.0 
6.359409458057e-03 5.430554858877e-02 0.0 
4.423622973206e-03 4.497920956177e-02 0.0 
6.458545770737e-03 1.076098190178e-01 0.0 
6.083016636806e-03 4.900867998381e-02 0.0 
6.379895767001e-03 4.228327232867e-02 0.0 
8.363786654037e-03 4.935578370638e-02 0.0 
9.485795545629e-03 6.143762774497e-02 0.0 
5.644989437773e-03 4.316584177063e-02 0.0 
7.272513190482e-03 1.041776363108e-01 0.0 
2.401786292594e-03 7.457700288724e-02 0.0 
1.930177433000e-03 7.656544842415e-02 0.0 
7.608558965480e-03 7.109371035001e-02 0.0 
5.604237898719e-03 3.783563126026e-02 0.0 
2.593398617776e-04 7.792609524359e-02 0.0 
5.138996517619e-03 4.571359759239e-02 0.0 
1.260207263289e-03 7.914972280538e-02 0.0 
6.923265239026e-03 7.209891643937e-02 0.0 
6.866364392739e-03 3.719930139020e-02 0.0 
1.836927099816e-04 6.412149562807e-02 0.0 
6.610954817690e-03 6.966385226916e-02 0.0 
1.991486823112e-04 7.434178351396e-02 0.0 
5.918350667963e-03 7.081116234876e-02 0.0 
8.986446072516e-03 5.512664733089e-02 0.0 
5.617245052557e-03 6.866420800496e-02 0.0 
4.948957773854e-03 6.993858717788e-02 0.0 
4.457084985603e-04 1.911201934071e-02 0.0 
4.660078890851e-03 6.806208090485e-02 0.0 
5.466884407923e-05 9.153822871788e-03 0.0 
1.368861798650e-04 7.433863795200e-03 0.0 
2.464042945718e-04 8.025563640402e-02 0.0 
5.988686673415e-03 1.114431452328e-01 0.0 
-3.180388909659e-03 9.032486282474e-02 0.0 
7.103603812471e-03 1.065476914053e-01 0.0 
3.626986360320e-03 7.233436613713e-02 0.0 
5.864531582034e-03 4.639791794387e-02 0.0 
5.121116402833e-04 7.989275932480e-02 0.0 
2.998611994279e-03 7.345867305432e-02 0.0 
2.343154013229e-03 1.725819780811e-02 0.0 
1.636609868527e-03 7.787726748546e-03 0.0 
3.305950028860e-04 5.060820653773e-02 0.0 
4.866984382659e-03 2.647897677719e-02 0.0 
7.922754192027e-03 4.515320590925e-02 0.0 
9.278920797584e-05 2.758124262035e-02 0.0 
1.523940953000e-03 8.657042670603e-02 0.0 
-6.555366876171e-05 8.113758709110e-02 0.0 
3.447599987088e-04 3.975186003356e-02 0.0 
5.151499630998e-03 1.132450740852e-01 0.0 
5.987128976891e-03 1.081997896874e-01 0.0 
4.206877934681e-03 1.058900462472e-01 0.0 
7.870807783776e-04 7.121430493685e-02 0.0 
4.899840454016e-04 8.208017244954e-02 0.0 
4.081192469688e-03 1.120492070585e-01 0.0 
3.055623605125e-03 1.537934594118e-02 0.0 
2.566616604554e-03 7.970338442177e-02 0.0 
6.375410633552e-03 3.410990313128e-02 0.0 
1.664144762284e-03 1.085331574789e-01 0.0 
1.108379306899e-03 1.839374531961e-02 0.0 
3.345622408371e-03 1.617006901932e-02 0.0 
6.819795680784e-04 6.568901365785e-03 0.0 
5.006332911783e-03 2.548007863757e-02 0.0 
1.489361993865e-03 1.016762373486e-01 0.0 
3.760668824469e-03 7.268568525941e-02 0.0 
2.886282708513e-03 1.634214928270e-02 0.0 
4.451467913498e-04 4.313456547639e-02 0.0 
4.902397088022e-04 6.283928130959e-03 0.0 
3.237258944040e-03 8.033286490473e-02 0.0 
2.734405367875e-04 1.785294311355e-02 0.0 
2.319847933494e-03 8.447085091501e-02 0.0 
1.339489189931e-04 1.732663499335e-02 0.0 
5.017716353265e-03 3.742331217703e-02 0.0 
1.037329246223e-03 7.018896116411e-02 0.0 
4.516557793600e-03 7.277905935910e-02 0.0 
3.756646997810e-04 1.287022491123e-02 0.0 
2.005387420958e-03 1.758613276007e-02 0.0 
-5.296123807952e-05 9.895794169771e-02 0.0 
5.181904854865e-04 5.152550885741e-02 0.0 
1.308387862481e-03 6.633158921251e-02 0.0 
-1.142555483796e-03 8.700393810353e-02 0.0 
1.673898945365e-03 1.372527497780e-02 0.0 
4.023387169124e-03 2.840924829696e-02 0.0 
6.266565115665e-04 1.314753241297e-02 0.0 
5.092895432313e-05 7.880426253460e-02 0.0 
4.246276747999e-05 8.041390642503e-02 0.0 
1.853401413372e-03 1.281878804821e-02 0.0 
2.458688395382e-03 1.568894373198e-02 0.0 
2.782217610857e-03 8.214403703574e-02 0.0 
3.674210123208e-04 7.413807303742e-03 0.0 
-2.111511176686e-03 9.705250734723e-02 0.0 
2.087977705585e-03 8.733896401172e-02 0.0 
1.676216332811e-04 7.985997650112e-02 0.0 
3.947352462745e-04 6.344585587303e-03 0.0 
6.607282407813e-04 1.711708870759e-02 0.0 
9.242884422052e-04 6.318123602652e-02 0.0 
4.614261565003e-03 8.456144495313e-02 0.0 
4.659416398012e-04 7.283817888908e-02 0.0 
4.278198084837e-03 2.255810569285e-02 0.0 
4.346577538215e-04 8.088471141562e-02 0.0 
4.467546802616e-04 1.616205829761e-02 0.0 
2.121505997845e-03 1.266906979497e-02 0.0 
1.348763367730e-03 1.610523446629e-02 0.0 
1.243423618408e-03 5.793532898888e-03 0.0 
-1.728822741025e-03 9.155551173942e-02 0.0 
2.878507388679e-03 1.399714648983e-02 0.0 
3.546574279902e-03 2.004111633367e-02 0.0 
1.144592755125e-03 8.688911476594e-02 0.0 
1.724774709764e-03 1.722983540190e-02 0.0 
8.356850076603e-04 6.896835309868e-02 0.0 
5.808356200703e-04 7.816107479108e-02 0.0 
2.487152811881e-05 8.112569882943e-03 0.0 
-6.052359033726e-06 7.971707049038e-02 0.0 
1.906588583225e-04 8.687111656171e-02 0.0 
5.544577575012e-05 6.064077439895e-03 0.0 
3.355024477290e-04 7.818332873422e-02 0.0 
4.047145027357e-04 7.443622812755e-02 0.0 
2.229189924609e-03 1.519645448714e-02 0.0 
2.453829019546e-04 5.468472080500e-02 0.0 
2.216361886553e-04 3.410241184553e-02 0.0 
1.232090225015e-03 8.180125752353e-02 0.0 
-3.001369057788e-03 8.820887699660e-02 0.0 
3.198670659472e-04 5.978013202373e-02 0.0 
3.007712909309e-03 1.436302560983e-02 0.0 
1.036366911130e-03 1.541351439274e-02 0.0 
8.279581103068e-04 6.560773977916e-02 0.0 
1.643131834946e-03 9.603638404119e-02 0.0 
3.151582623762e-03 2.144000931070e-02 0.0 
9.920175858142e-04 6.029551925746e-02 0.0 
3.949507536522e-03 2.249645951252e-02 0.0 
3.899574360858e-03 2.057232843280e-02 0.0 
-4.187661645279e-03 9.836302218209e-02 0.0 
2.246606184224e-04 5.006098015019e-02 0.0 
1.233776827014e-04 8.005506271661e-02 0.0 
1.124907844278e-03 1.211936131186e-02 0.0 
6.570236379648e-04 5.845235036926e-02 0.0 
2.278402198765e-03 1.186940249467e-01 0.0 
1.501558398331e-04 1.296635617184e-01 0.0 
4.119497780721e-03 1.178029179692e-01 0.0 
1.186524229766e-04 1.250817373560e-01 0.0 
5.063993178823e-03 1.153910811944e-01 0.0 
1.323988354187e-04 1.200761215063e-01 0.0 
5.481310205866e-03 1.117410647111e-01 0.0 
1.175059358687e-04 1.146401811154e-01 0.0 
5.520109451098e-03 1.071642787402e-01 0.0 
1.356625617106e-04 1.087726726047e-01 0.0 
5.295270203064e-03 1.016892628121e-01 0.0 
1.196759696072e-04 1.024743506143e-01 0.0 
4.884286537838e-03 9.558780447163e-02 0.0 
1.356059972721e-04 9.574796806595e-02 0.0 

VECTORS node_bounda_dof_materi_velocity_x float
1.000000000000e+00 0.0 0.0 
1.000000000000e+00 0.0 0.0 
1.000000000000e+00 0.0 0.0 
1.000000000000e+00 0.0 0.0 
1.000000000000e+00 0.0 0.0 
1.000000000000e+00 0.0 0.0 
1.000000000000e+00 0.0 0.0 
1.000000000000e+00 0.0 0.0 
1.000000000000e+00 0.0 0.0 
1.000000000000e+00 0.0 0.0 
1.000000000000e+00 0.0 0.0 
1.000000000000e+00 0.0 0.0 
1.000000000000e+00 0.0 0.0 
1.000000000000e+00 0.0 0.0 
1.000000000000e+00 0.0 0.0 
1.000000000000e+00 0.0 0.0 
1.000000000000e+00 0.0 0.0 
1.000000000000e+00 0.0 0.0 
1.000000000000e+00 0.0 0.0 
1.000000000000e+00 0.0 0.0 
1.000000000000e+00 0.0 0.0 
1.000000000000e+00 0.0 0.0 
1.000000000000e+00 0.0 0.0 
1.000000000000e+00 0.0 0.0 
1.000000000000e+00 0.0 0.0 
1.000000000000e+00 0.0 0.0 
1.000000000000e+00 0.0 0.0 
1.000000000000e+00 0.0 0.0 
1.000000000000e+00 0.0 0.0 
1.000000000000e+00 0.0 0.0 
1.000000000000e+00 0.0 0.0 
1.000000000000e+00 0.0 0.0 
1.000000000000e+00 0.0 0.0 
1.000000000000e+00 0.0 0.0 
1.000000000000e+00 0.0 0.0 
1.000000000000e+00 0.0 0.0 
1.000000000000e+00 0.0 0.0 
1.000000000000e+00 0.0 0.0 
1.000000000000e+00 0.0 0.0 
1.000000000000e+00 0.0 0.0 
1.000000000000e+00 0.0 0.0 
1.000000000000e+00 0.0 0.0 
1.000000000000e+00 0.0 0.0 
1.000000000000e+00 0.0 0.0 
1.000000000000e+00 0.0 0.0 
1.000000000000e+00 0.0 0.0 
1.000000000000e+00 0.0 0.0 
1.000000000000e+00 0.0 0.0 
1.000000000000e+00 0.0 0.0 
1.000000000000e+00 0.0 0.0 
1.000000000000e+00 0.0 0.0 
1.000000000000e+00 0.0 0.0 
1.000000000000e+00 0.0 0.0 
1.000000000000e+00 0.0 0.0 
1.000000000000e+00 0.0 0.0 
1.000000000000e+00 0.0 0.0 
1.000000000000e+00 0.0 0.0 
1.000000000000e+00 0.0 0.0 
1.000000000000e+00 0.0 0.0 
1.000000000000e+00 0.0 0.0 
1.000000000000e+00 0.0 0.0 
1.000000000000e+00 0.0 0.0 
1.000000000000e+00 0.0 0.0 
1.000000000000e+00 0.0 0.0 
1.000000000000e+00 0.0 0.0 
1.000000000000e+00 0.0 0.0 
1.000000000000e+00 0.0 0.0 
1.000000000000e+00 0.0 0.0 
1.000000000000e+00 0.0 0.0 
1.000000000000e+00 0.0 0.0 
1.000000000000e+00 0.0 0.0 
1.000000000000e+00 0.0 0.0 
1.000000000000e+00 0.0 0.0 
1.000000000000e+00 0.0 0.0 
1.000000000000e+00 0.0 0.0 
1.000000000000e+00 0.0 0.0 
1.000000000000e+00 0.0 0.0 
1.000000000000e+00 0.0 0.0 
1.000000000000e+00 0.0 0.0 
1.000000000000e+00 0.0 0.0 
1.000000000000e+00 0.0 0.0 
0.0 0.0 0.0 
0.0 0.0 0.0 
0.0 0.0 0.0 
0.0 0.0 0.0 
0.0 0.0 0.0 
0.0 0.0 0.0 
0.0 0.0 0.0 
0.0 0.0 0.0 
0.0 0.0 0.0 
0.0 0.0 0.0 
0.0 0.0 0.0 
1.000000000000e+00 0.0 0.0 
1.000000000000e+00 0.0 0.0 
1.000000000000e+00 0.0 0.0 
1.000000000000e+00 0.0 0.0 
1.000000000000e+00 0.0 0.0 
1.000000000000e+00 0.0 0.0 
1.000000000000e+00 0.0 0.0 
0.0 0.0 0.0 
0.0 0.0 0.0 
0.0 0.0 0.0 
0.0 0.0 0.0 
0.0 0.0 0.0 
0.0 0.0 0.0 
0.0 0.0 0.0 
0.0 0.0 0.0 
0.0 0.0 0.0 
0.0 0.0 0.0 
0.0 0.0 0.0 
0.0 0.0 0.0 
0.0 0.0 0.0 
0.0 0.0 0.0 
0.0 0.0 0.0 
0.0 0.0 0.0 
0.0 0.0 0.0 
0.0 0.0 0.0 
0.0 0.0 0.0 
0.0 0.0 0.0 
0.0 0.0 0.0 
0.0 0.0 0.0 
0.0 0.0 0.0 
0.0 0.0 0.0 
0.0 0.0 0.0 
0.0 0.0 0.0 
0.0 0.0 0.0 
0.0 0.0 0.0 
0.0 0.0 0.0 
0.0 0.0 0.0 
0.0 0.0 0.0 
0.0 0.0 0.0 
0.0 0.0 0.0 
0.0 0.0 0.0 
0.0 0.0 0.0 
0.0 0.0 0.0 
0.0 0.0 0.0 
0.0 0.0 0.0 
0.0 0.0 0.0 
0.0 0.0 0.0 
0.0 0.0 0.0 
0.0 0.0 0.0 
0.0 0.0 0.0 
0.0 0.0 0.0 
0.0 0.0 0.0 
0.0 0.0 0.0 
0.0 0.0 0.0 
0.0 0.0 0.0 
0.0 0.0 0.0 
0.0 0.0 0.0 
0.0 0.0 0.0 
0.0 0.0 0.0 
0.0 0.0 0.0 
0.0 0.0 0.0 
0.0 0.0 0.0 
0.0 0.0 0.0 
0.0 0.0 0.0 
0.0 0.0 0.0 
0.0 0.0 0.0 
0.0 0.0 0.0 
0.0 0.0 0.0 
0.0 0.0 0.0 
0.0 0.0 0.0 
0.0 0.0 0.0 
0.0 0.0 0.0 
0.0 0.0 0.0 
0.0 0.0 0.0 
0.0 0.0 0.0 
0.0 0.0 0.0 
0.0 0.0 0.0 
0.0 0.0 0.0 
0.0 0.0 0.0 
0.0 0.0 0.0 
0.0 0.0 0.0 
0.0 0.0 0.0 
0.0 0.0 0.0 
0.0 0.0 0.0 
0.0 0.0 0.0 
0.0 0.0 0.0 
0.0 0.0 0.0 
0.0 0.0 0.0 
0.0 0.0 0.0 
0.0 0.0 0.0 
0.0 0.0 0.0 
0.0 0.0 0.0 
0.0 0.0 0.0 
0.0 0.0 0.0 
0.0 0.0 0.0 
0.0 0.0 0.0 
0.0 0.0 0.0 
0.0 0.0 0.0 
0.0 0.0 0.0 
0.0 0.0 0.0 
0.0 0.0 0.0 
0.0 0.0 0.0 
0.0 0.0 0.0 
0.0 0.0 0.0 
0.0 0.0 0.0 
0.0 0.0 0.0 
0.0 0.0 0.0 
0.0 0.0 0.0 
0.0 0.0 0.0 
0.0 0.0 0.0 
0.0 0.0 0.0 
0.0 0.0 0.0 
0.0 0.0 0.0 
0.0 0.0 0.0 
0.0 0.0 0.0 
0.0 0.0 0.0 
0.0 0.0 0.0 
0.0 0.0 0.0 
0.0 0.0 0.0 
0.0 0.0 0.0 
0.0 0.0 0.0 
0.0 0.0 0.0 
0.0 0.0 0.0 
0.0 0.0 0.0 
0.0 0.0 0.0 
0.0 0.0 0.0 
0.0 0.0 0.0 
0.0 0.0 0.0 
0.0 0.0 0.0 
0.0 0.0 0.0 
0.0 0.0 0.0 
0.0 0.0 0.0 
0.0 0.0 0.0 
0.0 0.0 0.0 
0.0 0.0 0.0 
0.0 0.0 0.0 
0.0 0.0 0.0 
0.0 0.0 0.0 
0.0 0.0 0.0 
0.0 0.0 0.0 
0.0 0.0 0.0 
0.0 0.0 0.0 
0.0 0.0 0.0 
0.0 0.0 0.0 
0.0 0.0 0.0 
0.0 0.0 0.0 
0.0 0.0 0.0 
0.0 0.0 0.0 
0.0 0.0 0.0 
0.0 0.0 0.0 
0.0 0.0 0.0 
0.0 0.0 0.0 
0.0 0.0 0.0 
0.0 0.0 0.0 
0.0 0.0 0.0 
0.0 0.0 0.0 
0.0 0.0 0.0 
0.0 0.0 0.0 
0.0 0.0 0.0 
0.0 0.0 0.0 
0.0 0.0 0.0 
0.0 0.0 0.0 
0.0 0.0 0.0 
0.0 0.0 0.0 
0.0 0.0 0.0 
0.0 0.0 0.0 
0.0 0.0 0.0 
0.0 0.0 0.0 
0.0 0.0 0.0 
0.0 0.0 0.0 
0.0 0.0 0.0 
0.0 0.0 0.0 
0.0 0.0 0.0 
0.0 0.0 0.0 
0.0 0.0 0.0 
0.0 0.0 0.0 
0.0 0.0 0.0 
0.0 0.0 0.0 
0.0 0.0 0.0 
0.0 0.0 0.0 
0.0 0.0 0.0 
0.0 0.0 0.0 
0.0 0.0 0.0 
0.0 0.0 0.0 
0.0 0.0 0.0 
0.0 0.0 0.0 
0.0 0.0 0.0 
0.0 0.0 0.0 
0.0 0.0 0.0 
0.0 0.0 0.0 
0.0 0.0 0.0 
0.0 0.0 0.0 
0.0 0.0 0.0 
0.0 0.0 0.0 
0.0 0.0 0.0 
0.0 0.0 0.0 
0.0 0.0 0.0 
0.0 0.0 0.0 
0.0 0.0 0.0 
0.0 0.0 0.0 
0.0 0.0 0.0 
0.0 0.0 0.0 
0.0 0.0 0.0 
0.0 0.0 0.0 
0.0 0.0 0.0 
0.0 0.0 0.0 
0.0 0.0 0.0 
0.0 0.0 0.0 
0.0 0.0 0.0 
0.0 0.0 0.0 
0.0 0.0 0.0 
0.0 0.0 0.0 
0.0 0.0 0.0 
0.0 0.0 0.0 
0.0 0.0 0.0 
0.0 0.0 0.0 
0.0 0.0 0.0 
0.0 0.0 0.0 
0.0 0.0 0.0 
0.0 0.0 0.0 
0.0 0.0 0.0 
0.0 0.0 0.0 
0.0 0.0 0.0 
0.0 0.0 0.0 
0.0 0.0 0.0 
0.0 0.0 0.0 
0.0 0.0 0.0 
0.0 0.0 0.0 
0.0 0.0 0.0 
0.0 0.0 0.0 
0.0 0.0 0.0 
0.0 0.0 0.0 
0.0 0.0 0.0 
0.0 0.0 0.0 
0.0 0.0 0.0 
0.0 0.0 0.0 
0.0 0.0 0.0 
0.0 0.0 0.0 
0.0 0.0 0.0 
0.0 0.0 0.0 
0.0 0.0 0.0 
0.0 0.0 0.0 
0.0 0.0 0.0 
0.0 0.0 0.0 
0.0 0.0 0.0 
0.0 0.0 0.0 
0.0 0.0 0.0 
0.0 0.0 0.0 
0.0 0.0 0.0 
0.0 0.0 0.0 
0.0 0.0 0.0 
0.0 0.0 0.0 
0.0 0.0 0.0 
0.0 0.0 0.0 
0.0 0.0 0.0 
0.0 0.0 0.0 
0.0 0.0 0.0 
0.0 0.0 0.0 
0.0 0.0 0.0 
0.0 0.0 0.0 
0.0 0.0 0.0 
0.0 0.0 0.0 
0.0 0.0 0.0 
0.0 0.0 0.0 
0.0 0.0 0.0 
0.0 0.0 0.0 
0.0 0.0 0.0 
0.0 0.0 0.0 
0.0 0.0 0.0 
0.0 0.0 0.0 
0.0 0.0 0.0 
0.0 0.0 0.0 
0.0 0.0 0.0 
0.0 0.0 0.0 
0.0 0.0 0.0 
0.0 0.0 0.0 
0.0 0.0 0.0 
0.0 0.0 0.0 
0.0 0.0 0.0 
0.0 0.0 0.0 
0.0 0.0 0.0 
0.0 0.0 0.0 
0.0 0.0 0.0 
0.0 0.0 0.0 
0.0 0.0 0.0 
0.0 0.0 0.0 
0.0 0.0 0.0 
0.0 0.0 0.0 
0.0 0.0 0.0 
0.0 0.0 0.0 
0.0 0.0 0.0 
0.0 0.0 0.0 
0.0 0.0 0.0 
0.0 0.0 0.0 
0.0 0.0 0.0 
0.0 0.0 0.0 
0.0 0.0 0.0 
0.0 0.0 0.0 
0.0 0.0 0.0 
0.0 0.0 0.0 
0.0 0.0 0.0 
0.0 0.0 0.0 
0.0 0.0 0.0 
0.0 0.0 0.0 
0.0 0.0 0.0 
0.0 0.0 0.0 
0.0 0.0 0.0 
0.0 0.0 0.0 
0.0 0.0 0.0 
0.0 0.0 0.0 
0.0 0.0 0.0 
0.0 0.0 0.0 
0.0 0.0 0.0 
0.0 0.0 0.0 
0.0 0.0 0.0 
0.0 0.0 0.0 
0.0 0.0 0.0 
0.0 0.0 0.0 
0.0 0.0 0.0 
0.0 0.0 0.0 
0.0 0.0 0.0 
0.0 0.0 0.0 
0.0 0.0 0.0 
0.0 0.0 0.0 
0.0 0.0 0.0 
0.0 0.0 0.0 
0.0 0.0 0.0 
0.0 0.0 0.0 
0.0 0.0 0.0 
0.0 0.0 0.0 
0.0 0.0 0.0 
0.0 0.0 0.0 
0.0 0.0 0.0 
0.0 0.0 0.0 
0.0 0.0 0.0 
0.0 0.0 0.0 
0.0 0.0 0.0 
0.0 0.0 0.0 
0.0 0.0 0.0 
0.0 0.0 0.0 
0.0 0.0 0.0 
0.0 0.0 0.0 
0.0 0.0 0.0 
0.0 0.0 0.0 
0.0 0.0 0.0 
0.0 0.0 0.0 
0.0 0.0 0.0 
0.0 0.0 0.0 
0.0 0.0 0.0 
0.0 0.0 0.0 
0.0 0.0 0.0 
0.0 0.0 0.0 
0.0 0.0 0.0 
0.0 0.0 0.0 
0.0 0.0 0.0 
0.0 0.0 0.0 
0.0 0.0 0.0 
0.0 0.0 0.0 
0.0 0.0 0.0 
0.0 0.0 0.0 
0.0 0.0 0.0 
0.0 0.0 0.0 
0.0 0.0 0.0 
0.0 0.0 0.0 
0.0 0.0 0.0 
0.0 0.0 0.0 
0.0 0.0 0.0 
0.0 0.0 0.0 
0.0 0.0 0.0 
0.0 0.0 0.0 
0.0 0.0 0.0 
0.0 0.0 0.0 
0.0 0.0 0.0 
0.0 0.0 0.0 
0.0 0.0 0.0 
0.0 0.0 0.0 
0.0 0.0 0.0 
0.0 0.0 0.0 
0.0 0.0 0.0 
0.0 0.0 0.0 
0.0 0.0 0.0 
0.0 0.0 0.0 
0.0 0.0 0.0 
0.0 0.0 0.0 
0.0 0.0 0.0 
0.0 0.0 0.0 
0.0 0.0 0.0 
0.0 0.0 0.0 
0.0 0.0 0.0 
0.0 0.0 0.0 
0.0 0.0 0.0 
0.0 0.0 0.0 
0.0 0.0 0.0 
0.0 0.0 0.0 
0.0 0.0 0.0 
0.0 0.0 0.0 
0.0 0.0 0.0 
0.0 0.0 0.0 
0.0 0.0 0.0 
0.0 0.0 0.0 
0.0 0.0 0.0 
0.0 0.0 0.0 
0.0 0.0 0.0 
0.0 0.0 0.0 
0.0 0.0 0.0 
0.0 0.0 0.0 
0.0 0.0 0.0 
0.0 0.0 0.0 
0.0 0.0 0.0 
0.0 0.0 0.0 
0.0 0.0 0.0 
0.0 0.0 0.0 
0.0 0.0 0.0 
0.0 0.0 0.0 
0.0 0.0 0.0 
0.0 0.0 0.0 
0.0 0.0 0.0 
0.0 0.0 0.0 
0.0 0.0 0.0 
0.0 0.0 0.0 
0.0 0.0 0.0 
0.0 0.0 0.0 
0.0 0.0 0.0 
0.0 0.0 0.0 
0.0 0.0 0.0 
0.0 0.0 0.0 
0.0 0.0 0.0 
0.0 0.0 0.0 
0.0 0.0 0.0 
0.0 0.0 0.0 
0.0 0.0 0.0 
0.0 0.0 0.0 
0.0 0.0 0.0 
0.0 0.0 0.0 
0.0 0.0 0.0 
0.0 0.0 0.0 
0.0 0.0 0.0 
0.0 0.0 0.0 
0.0 0.0 0.0 
0.0 0.0 0.0 
0.0 0.0 0.0 
0.0 0.0 0.0 
0.0 0.0 0.0 
0.0 0.0 0.0 
0.0 0.0 0.0 
0.0 0.0 0.0 
0.0 0.0 0.0 
0.0 0.0 0.0 
0.0 0.0 0.0 
0.0 0.0 0.0 
0.0 0.0 0.0 
0.0 0.0 0.0 
0.0 0.0 0.0 
0.0 0.0 0.0 
0.0 0.0 0.0 
0.0 0.0 0.0 
0.0 0.0 0.0 
0.0 0.0 0.0 
0.0 0.0 0.0 
0.0 0.0 0.0 
0.0 0.0 0.0 
0.0 0.0 0.0 
0.0 0.0 0.0 
0.0 0.0 0.0 
0.0 0.0 0.0 
0.0 0.0 0.0 
0.0 0.0 0.0 
0.0 0.0 0.0 
0.0 0.0 0.0 
0.0 0.0 0.0 
0.0 0.0 0.0 
0.0 0.0 0.0 
0.0 0.0 0.0 
0.0 0.0 0.0 
0.0 0.0 0.0 
0.0 0.0 0.0 
0.0 0.0 0.0 
0.0 0.0 0.0 
0.0 0.0 0.0 
0.0 0.0 0.0 
0.0 0.0 0.0 
0.0 0.0 0.0 
0.0 0.0 0.0 
0.0 0.0 0.0 
0.0 0.0 0.0 
0.0 0.0 0.0 
0.0 0.0 0.0 
0.0 0.0 0.0 
0.0 0.0 0.0 
0.0 0.0 0.0 
0.0 0.0 0.0 
0.0 0.0 0.0 
0.0 0.0 0.0 
0.0 0.0 0.0 
0.0 0.0 0.0 
0.0 0.0 0.0 
0.0 0.0 0.0 
0.0 0.0 0.0 
0.0 0.0 0.0 
0.0 0.0 0.0 
0.0 0.0 0.0 
0.0 0.0 0.0 
0.0 0.0 0.0 
0.0 0.0 0.0 
0.0 0.0 0.0 
0.0 0.0 0.0 
0.0 0.0 0.0 
0.0 0.0 0.0 
0.0 0.0 0.0 
0.0 0.0 0.0 
0.0 0.0 0.0 
0.0 0.0 0.0 
0.0 0.0 0.0 
0.0 0.0 0.0 
0.0 0.0 0.0 
0.0 0.0 0.0 
0.0 0.0 0.0 
0.0 0.0 0.0 
0.0 0.0 0.0 
0.0 0.0 0.0 
0.0 0.0 0.0 
0.0 0.0 0.0 
0.0 0.0 0.0 
0.0 0.0 0.0 
0.0 0.0 0.0 
0.0 0.0 0.0 
0.0 0.0 0.0 
0.0 0.0 0.0 
0.0 0.0 0.0 
0.0 0.0 0.0 
0.0 0.0 0.0 
0.0 0.0 0.0 
0.0 0.0 0.0 
0.0 0.0 0.0 
0.0 0.0 0.0 
0.0 0.0 0.0 
0.0 0.0 0.0 
0.0 0.0 0.0 
0.0 0.0 0.0 
0.0 0.0 0.0 
0.0 0.0 0.0 
0.0 0.0 0.0 
0.0 0.0 0.0 
0.0 0.0 0.0 
0.0 0.0 0.0 
0.0 0.0 0.0 
0.0 0.0 0.0 
0.0 0.0 0.0 
0.0 0.0 0.0 
0.0 0.0 0.0 
0.0 0.0 0.0 
0.0 0.0 0.0 
0.0 0.0 0.0 
0.0 0.0 0.0 
0.0 0.0 0.0 
0.0 0.0 0.0 
0.0 0.0 0.0 
0.0 0.0 0.0 
0.0 0.0 0.0 
0.0 0.0 0.0 
0.0 0.0 0.0 
0.0 0.0 0.0 
0.0 0.0 0.0 
0.0 0.0 0.0 
0.0 0.0 0.0 
0.0 0.0 0.0 
0.0 0.0 0.0 
0.0 0.0 0.0 
0.0 0.0 0.0 
0.0 0.0 0.0 
0.0 0.0 0.0 
0.0 0.0 0.0 
0.0 0.0 0.0 
0.0 0.0 0.0 
0.0 0.0 0.0 
0.0 0.0 0.0 
0.0 0.0 0.0 
0.0 0.0 0.0 
0.0 0.0 0.0 
0.0 0.0 0.0 
0.0 0.0 0.0 
0.0 0.0 0.0 
0.0 0.0 0.0 
0.0 0.0 0.0 
0.0 0.0 0.0 
0.0 0.0 0.0 
0.0 0.0 0.0 
0.0 0.0 0.0 
0.0 0.0 0.0 
0.0 0.0 0.0 
0.0 0.0 0.0 
0.0 0.0 0.0 
0.0 0.0 0.0 
0.0 0.0 0.0 
0.0 0.0 0.0 
0.0 0.0 0.0 
0.0 0.0 0.0 
0.0 0.0 0.0 
0.0 0.0 0.0 
0.0 0.0 0.0 
0.0 0.0 0.0 
0.0 0.0 0.0 
0.0 0.0 0.0 
0.0 0.0 0.0 
0.0 0.0 0.0 
0.0 0.0 0.0 
0.0 0.0 0.0 
0.0 0.0 0.0 
0.0 0.0 0.0 
0.0 0.0 0.0 
0.0 0.0 0.0 
0.0 0.0 0.0 
0.0 0.0 0.0 
0.0 0.0 0.0 
0.0 0.0 0.0 
0.0 0.0 0.0 
0.0 0.0 0.0 
0.0 0.0 0.0 
0.0 0.0 0.0 
0.0 0.0 0.0 
0.0 0.0 0.0 
0.0 0.0 0.0 
0.0 0.0 0.0 
0.0 0.0 0.0 
0.0 0.0 0.0 
0.0 0.0 0.0 
0.0 0.0 0.0 
0.0 0.0 0.0 
0.0 0.0 0.0 
0.0 0.0 0.0 
0.0 0.0 0.0 
0.0 0.0 0.0 
0.0 0.0 0.0 
0.0 0.0 0.0 
0.0 0.0 0.0 
0.0 0.0 0.0 
0.0 0.0 0.0 
0.0 0.0 0.0 
0.0 0.0 0.0 
0.0 0.0 0.0 
0.0 0.0 0.0 
0.0 0.0 0.0 
0.0 0.0 0.0 
0.0 0.0 0.0 
0.0 0.0 0.0 
0.0 0.0 0.0 
0.0 0.0 0.0 
0.0 0.0 0.0 
0.0 0.0 0.0 
0.0 0.0 0.0 
0.0 0.0 0.0 
0.0 0.0 0.0 
0.0 0.0 0.0 
0.0 0.0 0.0 
0.0 0.0 0.0 
0.0 0.0 0.0 
0.0 0.0 0.0 
0.0 0.0 0.0 
0.0 0.0 0.0 
0.0 0.0 0.0 
0.0 0.0 0.0 
0.0 0.0 0.0 
0.0 0.0 0.0 
0.0 0.0 0.0 
0.0 0.0 0.0 
0.0 0.0 0.0 
0.0 0.0 0.0 
0.0 0.0 0.0 
0.0 0.0 0.0 
0.0 0.0 0.0 
0.0 0.0 0.0 
0.0 0.0 0.0 
0.0 0.0 0.0 
0.0 0.0 0.0 
0.0 0.0 0.0 
0.0 0.0 0.0 
0.0 0.0 0.0 
0.0 0.0 0.0 
0.0 0.0 0.0 
0.0 0.0 0.0 
0.0 0.0 0.0 
0.0 0.0 0.0 
0.0 0.0 0.0 
0.0 0.0 0.0 
0.0 0.0 0.0 
0.0 0.0 0.0 
0.0 0.0 0.0 
0.0 0.0 0.0 
0.0 0.0 0.0 
0.0 0.0 0.0 
0.0 0.0 0.0 
0.0 0.0 0.0 
0.0 0.0 0.0 
0.0 0.0 0.0 
0.0 0.0 0.0 
0.0 0.0 0.0 
0.0 0.0 0.0 
0.0 0.0 0.0 
0.0 0.0 0.0 
0.0 0.0 0.0 
0.0 0.0 0.0 
0.0 0.0 0.0 
0.0 0.0 0.0 
0.0 0.0 0.0 
0.0 0.0 0.0 
0.0 0.0 0.0 
0.0 0.0 0.0 
0.0 0.0 0.0 
0.0 0.0 0.0 
0.0 0.0 0.0 
0.0 0.0 0.0 
0.0 0.0 0.0 
0.0 0.0 0.0 
0.0 0.0 0.0 
0.0 0.0 0.0 
0.0 0.0 0.0 
0.0 0.0 0.0 
0.0 0.0 0.0 
0.0 0.0 0.0 
0.0 0.0 0.0 
0.0 0.0 0.0 
0.0 0.0 0.0 
0.0 0.0 0.0 
0.0 0.0 0.0 
0.0 0.0 0.0 
0.0 0.0 0.0 
0.0 0.0 0.0 
0.0 0.0 0.0 
0.0 0.0 0.0 
0.0 0.0 0.0 
0.0 0.0 0.0 
0.0 0.0 0.0 
0.0 0.0 0.0 
0.0 0.0 0.0 
0.0 0.0 0.0 
0.0 0.0 0.0 
0.0 0.0 0.0 
0.0 0.0 0.0 
0.0 0.0 0.0 
0.0 0.0 0.0 
0.0 0.0 0.0 
0.0 0.0 0.0 
0.0 0.0 0.0 
0.0 0.0 0.0 
0.0 0.0 0.0 
0.0 0.0 0.0 
0.0 0.0 0.0 
0.0 0.0 0.0 
0.0 0.0 0.0 
0.0 0.0 0.0 
0.0 0.0 0.0 
0.0 0.0 0.0 
0.0 0.0 0.0 
0.0 0.0 0.0 
0.0 0.0 0.0 
0.0 0.0 0.0 
0.0 0.0 0.0 
0.0 0.0 0.0 
0.0 0.0 0.0 
0.0 0.0 0.0 
0.0 0.0 0.0 
0.0 0.0 0.0 
0.0 0.0 0.0 
0.0 0.0 0.0 
0.0 0.0 0.0 
0.0 0.0 0.0 
0.0 0.0 0.0 
0.0 0.0 0.0 
0.0 0.0 0.0 
0.0 0.0 0.0 
0.0 0.0 0.0 
0.0 0.0 0.0 
0.0 0.0 0.0 
0.0 0.0 0.0 
0.0 0.0 0.0 
0.0 0.0 0.0 
0.0 0.0 0.0 
0.0 0.0 0.0 
0.0 0.0 0.0 
0.0 0.0 0.0 
0.0 0.0 0.0 
0.0 0.0 0.0 
0.0 0.0 0.0 
0.0 0.0 0.0 
0.0 0.0 0.0 
0.0 0.0 0.0 
0.0 0.0 0.0 
0.0 0.0 0.0 
0.0 0.0 0.0 
0.0 0.0 0.0 
0.0 0.0 0.0 
0.0 0.0 0.0 
0.0 0.0 0.0 
0.0 0.0 0.0 
0.0 0.0 0.0 
0.0 0.0 0.0 
0.0 0.0 0.0 
0.0 0.0 0.0 
0.0 0.0 0.0 
0.0 0.0 0.0 
0.0 0.0 0.0 
0.0 0.0 0.0 
0.0 0.0 0.0 
0.0 0.0 0.0 
0.0 0.0 0.0 
0.0 0.0 0.0 
0.0 0.0 0.0 
0.0 0.0 0.0 
0.0 0.0 0.0 
0.0 0.0 0.0 
0.0 0.0 0.0 
0.0 0.0 0.0 
0.0 0.0 0.0 
0.0 0.0 0.0 
0.0 0.0 0.0 
0.0 0.0 0.0 
0.0 0.0 0.0 
0.0 0.0 0.0 
0.0 0.0 0.0 
0.0 0.0 0.0 
0.0 0.0 0.0 
0.0 0.0 0.0 
0.0 0.0 0.0 
0.0 0.0 0.0 
0.0 0.0 0.0 
0.0 0.0 0.0 
0.0 0.0 0.0 
0.0 0.0 0.0 
0.0 0.0 0.0 
0.0 0.0 0.0 
0.0 0.0 0.0 
0.0 0.0 0.0 
0.0 0.0 0.0 
0.0 0.0 0.0 
0.0 0.0 0.0 
0.0 0.0 0.0 
0.0 0.0 0.0 
0.0 0.0 0.0 
0.0 0.0 0.0 
0.0 0.0 0.0 
0.0 0.0 0.0 
0.0 0.0 0.0 
0.0 0.0 0.0 
0.0 0.0 0.0 
0.0 0.0 0.0 
0.0 0.0 0.0 
0.0 0.0 0.0 
0.0 0.0 0.0 
0.0 0.0 0.0 
0.0 0.0 0.0 
0.0 0.0 0.0 
0.0 0.0 0.0 
0.0 0.0 0.0 
0.0 0.0 0.0 
0.0 0.0 0.0 
0.0 0.0 0.0 
0.0 0.0 0.0 
0.0 0.0 0.0 
0.0 0.0 0.0 
0.0 0.0 0.0 
0.0 0.0 0.0 
0.0 0.0 0.0 
0.0 0.0 0.0 
0.0 0.0 0.0 
0.0 0.0 0.0 
0.0 0.0 0.0 
0.0 0.0 0.0 
0.0 0.0 0.0 
0.0 0.0 0.0 
0.0 0.0 0.0 
0.0 0.0 0.0 
0.0 0.0 0.0 
0.0 0.0 0.0 
0.0 0.0 0.0 
0.0 0.0 0.0 
0.0 0.0 0.0 
0.0 0.0 0.0 
0.0 0.0 0.0 
0.0 0.0 0.0 
0.0 0.0 0.0 
0.0 0.0 0.0 
0.0 0.0 0.0 
0.0 0.0 0.0 
0.0 0.0 0.0 
0.0 0.0 0.0 
0.0 0.0 0.0 
0.0 0.0 0.0 
0.0 0.0 0.0 
0.0 0.0 0.0 
0.0 0.0 0.0 
0.0 0.0 0.0 
0.0 0.0 0.0 
0.0 0.0 0.0 
0.0 0.0 0.0 
0.0 0.0 0.0 
0.0 0.0 0.0 
0.0 0.0 0.0 
0.0 0.0 0.0 
0.0 0.0 0.0 
0.0 0.0 0.0 
0.0 0.0 0.0 
0.0 0.0 0.0 
0.0 0.0 0.0 
0.0 0.0 0.0 
0.0 0.0 0.0 
0.0 0.0 0.0 
0.0 0.0 0.0 
0.0 0.0 0.0 
0.0 0.0 0.0 
0.0 0.0 0.0 
0.0 0.0 0.0 
0.0 0.0 0.0 
0.0 0.0 0.0 
0.0 0.0 0.0 
0.0 0.0 0.0 
0.0 0.0 0.0 
0.0 0.0 0.0 
0.0 0.0 0.0 
0.0 0.0 0.0 
0.0 0.0 0.0 
0.0 0.0 0.0 
0.0 0.0 0.0 
0.0 0.0 0.0 
0.0 0.0 0.0 
0.0 0.0 0.0 
0.0 0.0 0.0 
0.0 0.0 0.0 
0.0 0.0 0.0 
0.0 0.0 0.0 
0.0 0.0 0.0 
0.0 0.0 0.0 
0.0 0.0 0.0 
0.0 0.0 0.0 
0.0 0.0 0.0 
0.0 0.0 0.0 
0.0 0.0 0.0 
0.0 0.0 0.0 
0.0 0.0 0.0 
0.0 0.0 0.0 
0.0 0.0 0.0 
0.0 0.0 0.0 
0.0 0.0 0.0 
0.0 0.0 0.0 
0.0 0.0 0.0 
0.0 0.0 0.0 
0.0 0.0 0.0 
0.0 0.0 0.0 
0.0 0.0 0.0 
0.0 0.0 0.0 
0.0 0.0 0.0 
0.0 0.0 0.0 
0.0 0.0 0.0 
0.0 0.0 0.0 
0.0 0.0 0.0 
0.0 0.0 0.0 
0.0 0.0 0.0 
0.0 0.0 0.0 
0.0 0.0 0.0 
0.0 0.0 0.0 
0.0 0.0 0.0 
0.0 0.0 0.0 
0.0 0.0 0.0 
0.0 0.0 0.0 
0.0 0.0 0.0 
0.0 0.0 0.0 
0.0 0.0 0.0 
0.0 0.0 0.0 
0.0 0.0 0.0 
0.0 0.0 0.0 
0.0 0.0 0.0 
0.0 0.0 0.0 
0.0 0.0 0.0 
0.0 0.0 0.0 
0.0 0.0 0.0 
0.0 0.0 0.0 
0.0 0.0 0.0 
0.0 0.0 0.0 
0.0 0.0 0.0 
0.0 0.0 0.0 
0.0 0.0 0.0 
0.0 0.0 0.0 
0.0 0.0 0.0 
0.0 0.0 0.0 
0.0 0.0 0.0 
0.0 0.0 0.0 
0.0 0.0 0.0 
0.0 0.0 0.0 
0.0 0.0 0.0 
0.0 0.0 0.0 
0.0 0.0 0.0 
0.0 0.0 0.0 
0.0 0.0 0.0 
0.0 0.0 0.0 
0.0 0.0 0.0 
0.0 0.0 0.0 
0.0 0.0 0.0 
0.0 0.0 0.0 
0.0 0.0 0.0 
0.0 0.0 0.0 
0.0 0.0 0.0 
0.0 0.0 0.0 
0.0 0.0 0.0 
0.0 0.0 0.0 
0.0 0.0 0.0 
0.0 0.0 0.0 
0.0 0.0 0.0 
0.0 0.0 0.0 
0.0 0.0 0.0 
0.0 0.0 0.0 
0.0 0.0 0.0 
0.0 0.0 0.0 
0.0 0.0 0.0 
0.0 0.0 0.0 
0.0 0.0 0.0 
0.0 0.0 0.0 
0.0 0.0 0.0 
0.0 0.0 0.0 
0.0 0.0 0.0 
0.0 0.0 0.0 
0.0 0.0 0.0 
0.0 0.0 0.0 
0.0 0.0 0.0 
0.0 0.0 0.0 
0.0 0.0 0.0 
0.0 0.0 0.0 
0.0 0.0 0.0 
0.0 0.0 0.0 
0.0 0.0 0.0 
0.0 0.0 0.0 
0.0 0.0 0.0 
0.0 0.0 0.0 
0.0 0.0 0.0 
0.0 0.0 0.0 
0.0 0.0 0.0 
0.0 0.0 0.0 
0.0 0.0 0.0 
0.0 0.0 0.0 
0.0 0.0 0.0 
0.0 0.0 0.0 
0.0 0.0 0.0 
0.0 0.0 0.0 
0.0 0.0 0.0 
0.0 0.0 0.0 
0.0 0.0 0.0 
0.0 0.0 0.0 
0.0 0.0 0.0 
0.0 0.0 0.0 
0.0 0.0 0.0 
0.0 0.0 0.0 
0.0 0.0 0.0 
0.0 0.0 0.0 
0.0 0.0 0.0 
0.0 0.0 0.0 
0.0 0.0 0.0 
0.0 0.0 0.0 
0.0 0.0 0.0 
0.0 0.0 0.0 
0.0 0.0 0.0 
0.0 0.0 0.0 
0.0 0.0 0.0 
0.0 0.0 0.0 
0.0 0.0 0.0 
0.0 0.0 0.0 
0.0 0.0 0.0 
0.0 0.0 0.0 
0.0 0.0 0.0 
0.0 0.0 0.0 
0.0 0.0 0.0 
0.0 0.0 0.0 
0.0 0.0 0.0 
0.0 0.0 0.0 
0.0 0.0 0.0 
0.0 0.0 0.0 
0.0 0.0 0.0 
0.0 0.0 0.0 
0.0 0.0 0.0 
0.0 0.0 0.0 
0.0 0.0 0.0 
0.0 0.0 0.0 
0.0 0.0 0.0 
0.0 0.0 0.0 
0.0 0.0 0.0 
0.0 0.0 0.0 
0.0 0.0 0.0 
0.0 0.0 0.0 
0.0 0.0 0.0 
0.0 0.0 0.0 
0.0 0.0 0.0 
0.0 0.0 0.0 
0.0 0.0 0.0 
0.0 0.0 0.0 
0.0 0.0 0.0 
0.0 0.0 0.0 
0.0 0.0 0.0 
0.0 0.0 0.0 
0.0 0.0 0.0 
0.0 0.0 0.0 
0.0 0.0 0.0 
0.0 0.0 0.0 

VECTORS node_bounda_dof_materi_velocity_y float
0.0 0.0 0.0 
0.0 0.0 0.0 
0.0 1.000000000000e+00 0.0 
0.0 1.000000000000e+00 0.0 
0.0 0.0 0.0 
0.0 0.0 0.0 
0.0 0.0 0.0 
0.0 0.0 0.0 
0.0 0.0 0.0 
0.0 0.0 0.0 
0.0 0.0 0.0 
0.0 0.0 0.0 
0.0 0.0 0.0 
0.0 0.0 0.0 
0.0 0.0 0.0 
0.0 0.0 0.0 
0.0 0.0 0.0 
0.0 0.0 0.0 
0.0 0.0 0.0 
0.0 0.0 0.0 
0.0 0.0 0.0 
0.0 0.0 0.0 
0.0 0.0 0.0 
0.0 1.000000000000e+00 0.0 
0.0 1.000000000000e+00 0.0 
0.0 1.000000000000e+00 0.0 
0.0 1.000000000000e+00 0.0 
0.0 1.000000000000e+00 0.0 
0.0 1.000000000000e+00 0.0 
0.0 1.000000000000e+00 0.0 
0.0 1.000000000000e+00 0.0 
0.0 1.000000000000e+00 0.0 
0.0 1.000000000000e+00 0.0 
0.0 1.000000000000e+00 0.0 
0.0 1.000000000000e+00 0.0 
0.0 1.000000000000e+00 0.0 
0.0 1.000000000000e+00 0.0 
0.0 1.000000000000e+00 0.0 
0.0 1.000000000000e+00 0.0 
0.0 1.000000000000e+00 0.0 
0.0 1.000000000000e+00 0.0 
0.0 1.000000000000e+00 0.0 
0.0 1.000000000000e+00 0.0 
0.0 1.000000000000e+00 0.0 
0.0 1.000000000000e+00 0.0 
0.0 1.000000000000e+00 0.0 
0.0 1.000000000000e+00 0.0 
0.0 1.000000000000e+00 0.0 
0.0 1.000000000000e+00 0.0 
0.0 1.000000000000e+00 0.0 
0.0 1.000000000000e+00 0.0 
0.0 1.000000000000e+00 0.0 
0.0 1.000000000000e+00 0.0 
0.0 1.000000000000e+00 0.0 
0.0 1.000000000000e+00 0.0 
0.0 1.000000000000e+00 0.0 
0.0 1.000000000000e+00 0.0 
0.0 1.000000000000e+00 0.0 
0.0 1.000000000000e+00 0.0 
0.0 1.000000000000e+00 0.0 
0.0 1.000000000000e+00 0.0 
0.0 1.000000000000e+00 0.0 
0.0 1.000000000000e+00 0.0 
0.0 1.000000000000e+00 0.0 
0.0 1.000000000000e+00 0.0 
0.0 1.000000000000e+00 0.0 
0.0 1.000000000000e+00 0.0 
0.0 1.000000000000e+00 0.0 
0.0 1.000000000000e+00 0.0 
0.0 1.000000000000e+00 0.0 
0.0 1.000000000000e+00 0.0 
0.0 1.000000000000e+00 0.0 
0.0 0.0 0.0 
0.0 0.0 0.0 
0.0 0.0 0.0 
0.0 0.0 0.0 
0.0 0.0 0.0 
0.0 0.0 0.0 
0.0 0.0 0.0 
0.0 0.0 0.0 
0.0 0.0 0.0 
0.0 0.0 0.0 
0.0 0.0 0.0 
0.0 0.0 0.0 
0.0 0.0 0.0 
0.0 0.0 0.0 
0.0 0.0 0.0 
0.0 0.0 0.0 
0.0 0.0 0.0 
0.0 0.0 0.0 
0.0 0.0 0.0 
0.0 0.0 0.0 
0.0 0.0 0.0 
0.0 0.0 0.0 
0.0 0.0 0.0 
0.0 0.0 0.0 
0.0 0.0 0.0 
0.0 0.0 0.0 
0.0 0.0 0.0 
0.0 0.0 0.0 
0.0 0.0 0.0 
0.0 0.0 0.0 
0.0 0.0 0.0 
0.0 0.0 0.0 
0.0 0.0 0.0 
0.0 0.0 0.0 
0.0 0.0 0.0 
0.0 0.0 0.0 
0.0 0.0 0.0 
0.0 0.0 0.0 
0.0 0.0 0.0 
0.0 0.0 0.0 
0.0 0.0 0.0 
0.0 0.0 0.0 
0.0 0.0 0.0 
0.0 0.0 0.0 
0.0 0.0 0.0 
0.0 0.0 0.0 
0.0 0.0 0.0 
0.0 0.0 0.0 
0.0 0.0 0.0 
0.0 0.0 0.0 
0.0 0.0 0.0 
0.0 0.0 0.0 
0.0 0.0 0.0 
0.0 0.0 0.0 
0.0 0.0 0.0 
0.0 0.0 0.0 
0.0 0.0 0.0 
0.0 0.0 0.0 
0.0 0.0 0.0 
0.0 0.0 0.0 
0.0 0.0 0.0 
0.0 0.0 0.0 
0.0 0.0 0.0 
0.0 0.0 0.0 
0.0 0.0 0.0 
0.0 0.0 0.0 
0.0 0.0 0.0 
0.0 0.0 0.0 
0.0 0.0 0.0 
0.0 0.0 0.0 
0.0 0.0 0.0 
0.0 0.0 0.0 
0.0 0.0 0.0 
0.0 0.0 0.0 
0.0 0.0 0.0 
0.0 0.0 0.0 
0.0 0.0 0.0 
0.0 0.0 0.0 
0.0 0.0 0.0 
0.0 0.0 0.0 
0.0 0.0 0.0 
0.0 0.0 0.0 
0.0 0.0 0.0 
0.0 0.0 0.0 
0.0 0.0 0.0 
0.0 0.0 0.0 
0.0 0.0 0.0 
0.0 0.0 0.0 
0.0 0.0 0.0 
0.0 0.0 0.0 
0.0 0.0 0.0 
0.0 0.0 0.0 
0.0 0.0 0.0 
0.0 0.0 0.0 
0.0 0.0 0.0 
0.0 0.0 0.0 
0.0 0.0 0.0 
0.0 0.0 0.0 
0.0 0.0 0.0 
0.0 0.0 0.0 
0.0 0.0 0.0 
0.0 0.0 0.0 
0.0 0.0 0.0 
0.0 0.0 0.0 
0.0 0.0 0.0 
0.0 0.0 0.0 
0.0 0.0 0.0 
0.0 0.0 0.0 
0.0 0.0 0.0 
0.0 0.0 0.0 
0.0 0.0 0.0 
0.0 0.0 0.0 
0.0 0.0 0.0 
0.0 0.0 0.0 
0.0 0.0 0.0 
0.0 0.0 0.0 
0.0 0.0 0.0 
0.0 0.0 0.0 
0.0 0.0 0.0 
0.0 0.0 0.0 
0.0 0.0 0.0 
0.0 0.0 0.0 
0.0 0.0 0.0 
0.0 0.0 0.0 
0.0 0.0 0.0 
0.0 0.0 0.0 
0.0 0.0 0.0 
0.0 0.0 0.0 
0.0 0.0 0.0 
0.0 0.0 0.0 
0.0 0.0 0.0 
0.0 0.0 0.0 
0.0 0.0 0.0 
0.0 0.0 0.0 
0.0 0.0 0.0 
0.0 0.0 0.0 
0.0 0.0 0.0 
0.0 0.0 0.0 
0.0 0.0 0.0 
0.0 0.0 0.0 
0.0 0.0 0.0 
0.0 0.0 0.0 
0.0 0.0 0.0 
0.0 0.0 0.0 
0.0 0.0 0.0 
0.0 0.0 0.0 
0.0 0.0 0.0 
0.0 0.0 0.0 
0.0 0.0 0.0 
0.0 0.0 0.0 
0.0 0.0 0.0 
0.0 0.0 0.0 
0.0 0.0 0.0 
0.0 0.0 0.0 
0.0 0.0 0.0 
0.0 0.0 0.0 
0.0 0.0 0.0 
0.0 0.0 0.0 
0.0 0.0 0.0 
0.0 0.0 0.0 
0.0 0.0 0.0 
0.0 0.0 0.0 
0.0 0.0 0.0 
0.0 0.0 0.0 
0.0 0.0 0.0 
0.0 0.0 0.0 
0.0 0.0 0.0 
0.0 0.0 0.0 
0.0 0.0 0.0 
0.0 0.0 0.0 
0.0 0.0 0.0 
0.0 0.0 0.0 
0.0 0.0 0.0 
0.0 0.0 0.0 
0.0 0.0 0.0 
0.0 0.0 0.0 
0.0 0.0 0.0 
0.0 0.0 0.0 
0.0 0.0 0.0 
0.0 0.0 0.0 
0.0 0.0 0.0 
0.0 0.0 0.0 
0.0 0.0 0.0 
0.0 0.0 0.0 
0.0 0.0 0.0 
0.0 0.0 0.0 
0.0 0.0 0.0 
0.0 0.0 0.0 
0.0 0.0 0.0 
0.0 0.0 0.0 
0.0 0.0 0.0 
0.0 0.0 0.0 
0.0 0.0 0.0 
0.0 0.0 0.0 
0.0 0.0 0.0 
0.0 0.0 0.0 
0.0 0.0 0.0 
0.0 0.0 0.0 
0.0 0.0 0.0 
0.0 0.0 0.0 
0.0 0.0 0.0 
0.0 0.0 0.0 
0.0 0.0 0.0 
0.0 0.0 0.0 
0.0 0.0 0.0 
0.0 0.0 0.0 
0.0 0.0 0.0 
0.0 0.0 0.0 
0.0 0.0 0.0 
0.0 0.0 0.0 
0.0 0.0 0.0 
0.0 0.0 0.0 
0.0 0.0 0.0 
0.0 0.0 0.0 
0.0 0.0 0.0 
0.0 0.0 0.0 
0.0 0.0 0.0 
0.0 0.0 0.0 
0.0 0.0 0.0 
0.0 0.0 0.0 
0.0 0.0 0.0 
0.0 0.0 0.0 
0.0 0.0 0.0 
0.0 0.0 0.0 
0.0 0.0 0.0 
0.0 0.0 0.0 
0.0 0.0 0.0 
0.0 0.0 0.0 
0.0 0.0 0.0 
0.0 0.0 0.0 
0.0 0.0 0.0 
0.0 0.0 0.0 
0.0 0.0 0.0 
0.0 0.0 0.0 
0.0 0.0 0.0 
0.0 0.0 0.0 
0.0 0.0 0.0 
0.0 0.0 0.0 
0.0 0.0 0.0 
0.0 0.0 0.0 
0.0 0.0 0.0 
0.0 0.0 0.0 
0.0 0.0 0.0 
0.0 0.0 0.0 
0.0 0.0 0.0 
0.0 0.0 0.0 
0.0 0.0 0.0 
0.0 0.0 0.0 
0.0 0.0 0.0 
0.0 0.0 0.0 
0.0 0.0 0.0 
0.0 0.0 0.0 
0.0 0.0 0.0 
0.0 0.0 0.0 
0.0 0.0 0.0 
0.0 0.0 0.0 
0.0 0.0 0.0 
0.0 0.0 0.0 
0.0 0.0 0.0 
0.0 0.0 0.0 
0.0 0.0 0.0 
0.0 0.0 0.0 
0.0 0.0 0.0 
0.0 0.0 0.0 
0.0 0.0 0.0 
0.0 0.0 0.0 
0.0 0.0 0.0 
0.0 0.0 0.0 
0.0 0.0 0.0 
0.0 0.0 0.0 
0.0 0.0 0.0 
0.0 0.0 0.0 
0.0 0.0 0.0 
0.0 0.0 0.0 
0.0 0.0 0.0 
0.0 0.0 0.0 
0.0 0.0 0.0 
0.0 0.0 0.0 
0.0 0.0 0.0 
0.0 0.0 0.0 
0.0 0.0 0.0 
0.0 0.0 0.0 
0.0 0.0 0.0 
0.0 0.0 0.0 
0.0 0.0 0.0 
0.0 0.0 0.0 
0.0 0.0 0.0 
0.0 0.0 0.0 
0.0 0.0 0.0 
0.0 0.0 0.0 
0.0 0.0 0.0 
0.0 0.0 0.0 
0.0 0.0 0.0 
0.0 0.0 0.0 
0.0 0.0 0.0 
0.0 0.0 0.0 
0.0 0.0 0.0 
0.0 0.0 0.0 
0.0 0.0 0.0 
0.0 0.0 0.0 
0.0 0.0 0.0 
0.0 0.0 0.0 
0.0 0.0 0.0 
0.0 0.0 0.0 
0.0 0.0 0.0 
0.0 0.0 0.0 
0.0 0.0 0.0 
0.0 0.0 0.0 
0.0 0.0 0.0 
0.0 0.0 0.0 
0.0 0.0 0.0 
0.0 0.0 0.0 
0.0 0.0 0.0 
0.0 0.0 0.0 
0.0 0.0 0.0 
0.0 0.0 0.0 
0.0 0.0 0.0 
0.0 0.0 0.0 
0.0 0.0 0.0 
0.0 0.0 0.0 
0.0 0.0 0.0 
0.0 0.0 0.0 
0.0 0.0 0.0 
0.0 0.0 0.0 
0.0 0.0 0.0 
0.0 0.0 0.0 
0.0 0.0 0.0 
0.0 0.0 0.0 
0.0 0.0 0.0 
0.0 0.0 0.0 
0.0 0.0 0.0 
0.0 0.0 0.0 
0.0 0.0 0.0 
0.0 0.0 0.0 
0.0 0.0 0.0 
0.0 0.0 0.0 
0.0 0.0 0.0 
0.0 0.0 0.0 
0.0 0.0 0.0 
0.0 0.0 0.0 
0.0 0.0 0.0 
0.0 0.0 0.0 
0.0 0.0 0.0 
0.0 0.0 0.0 
0.0 0.0 0.0 
0.0 0.0 0.0 
0.0 0.0 0.0 
0.0 0.0 0.0 
0.0 0.0 0.0 
0.0 0.0 0.0 
0.0 0.0 0.0 
0.0 0.0 0.0 
0.0 0.0 0.0 
0.0 0.0 0.0 
0.0 0.0 0.0 
0.0 0.0 0.0 
0.0 0.0 0.0 
0.0 0.0 0.0 
0.0 0.0 0.0 
0.0 0.0 0.0 
0.0 0.0 0.0 
0.0 0.0 0.0 
0.0 0.0 0.0 
0.0 0.0 0.0 
0.0 0.0 0.0 
0.0 0.0 0.0 
0.0 0.0 0.0 
0.0 0.0 0.0 
0.0 0.0 0.0 
0.0 0.0 0.0 
0.0 0.0 0.0 
0.0 0.0 0.0 
0.0 0.0 0.0 
0.0 0.0 0.0 
0.0 0.0 0.0 
0.0 0.0 0.0 
0.0 0.0 0.0 
0.0 0.0 0.0 
0.0 0.0 0.0 
0.0 0.0 0.0 
0.0 0.0 0.0 
0.0 0.0 0.0 
0.0 0.0 0.0 
0.0 0.0 0.0 
0.0 0.0 0.0 
0.0 0.0 0.0 
0.0 0.0 0.0 
0.0 0.0 0.0 
0.0 0.0 0.0 
0.0 0.0 0.0 
0.0 0.0 0.0 
0.0 0.0 0.0 
0.0 0.0 0.0 
0.0 0.0 0.0 
0.0 0.0 0.0 
0.0 0.0 0.0 
0.0 0.0 0.0 
0.0 0.0 0.0 
0.0 0.0 0.0 
0.0 0.0 0.0 
0.0 0.0 0.0 
0.0 0.0 0.0 
0.0 0.0 0.0 
0.0 0.0 0.0 
0.0 0.0 0.0 
0.0 0.0 0.0 
0.0 0.0 0.0 
0.0 0.0 0.0 
0.0 0.0 0.0 
0.0 0.0 0.0 
0.0 0.0 0.0 
0.0 0.0 0.0 
0.0 0.0 0.0 
0.0 0.0 0.0 
0.0 0.0 0.0 
0.0 0.0 0.0 
0.0 0.0 0.0 
0.0 0.0 0.0 
0.0 0.0 0.0 
0.0 0.0 0.0 
0.0 0.0 0.0 
0.0 0.0 0.0 
0.0 0.0 0.0 
0.0 0.0 0.0 
0.0 0.0 0.0 
0.0 0.0 0.0 
0.0 0.0 0.0 
0.0 0.0 0.0 
0.0 0.0 0.0 
0.0 0.0 0.0 
0.0 0.0 0.0 
0.0 0.0 0.0 
0.0 0.0 0.0 
0.0 0.0 0.0 
0.0 0.0 0.0 
0.0 0.0 0.0 
0.0 0.0 0.0 
0.0 0.0 0.0 
0.0 0.0 0.0 
0.0 0.0 0.0 
0.0 0.0 0.0 
0.0 0.0 0.0 
0.0 0.0 0.0 
0.0 0.0 0.0 
0.0 0.0 0.0 
0.0 0.0 0.0 
0.0 0.0 0.0 
0.0 0.0 0.0 
0.0 0.0 0.0 
0.0 0.0 0.0 
0.0 0.0 0.0 
0.0 0.0 0.0 
0.0 0.0 0.0 
0.0 0.0 0.0 
0.0 0.0 0.0 
0.0 0.0 0.0 
0.0 0.0 0.0 
0.0 0.0 0.0 
0.0 0.0 0.0 
0.0 0.0 0.0 
0.0 0.0 0.0 
0.0 0.0 0.0 
0.0 0.0 0.0 
0.0 0.0 0.0 
0.0 0.0 0.0 
0.0 0.0 0.0 
0.0 0.0 0.0 
0.0 0.0 0.0 
0.0 0.0 0.0 
0.0 0.0 0.0 
0.0 0.0 0.0 
0.0 0.0 0.0 
0.0 0.0 0.0 
0.0 0.0 0.0 
0.0 0.0 0.0 
0.0 0.0 0.0 
0.0 0.0 0.0 
0.0 0.0 0.0 
0.0 0.0 0.0 
0.0 0.0 0.0 
0.0 0.0 0.0 
0.0 0.0 0.0 
0.0 0.0 0.0 
0.0 0.0 0.0 
0.0 0.0 0.0 
0.0 0.0 0.0 
0.0 0.0 0.0 
0.0 0.0 0.0 
0.0 0.0 0.0 
0.0 0.0 0.0 
0.0 0.0 0.0 
0.0 0.0 0.0 
0.0 0.0 0.0 
0.0 0.0 0.0 
0.0 0.0 0.0 
0.0 0.0 0.0 
0.0 0.0 0.0 
0.0 0.0 0.0 
0.0 0.0 0.0 
0.0 0.0 0.0 
0.0 0.0 0.0 
0.0 0.0 0.0 
0.0 0.0 0.0 
0.0 0.0 0.0 
0.0 0.0 0.0 
0.0 0.0 0.0 
0.0 0.0 0.0 
0.0 0.0 0.0 
0.0 0.0 0.0 
0.0 0.0 0.0 
0.0 0.0 0.0 
0.0 0.0 0.0 
0.0 0.0 0.0 
0.0 0.0 0.0 
0.0 0.0 0.0 
0.0 0.0 0.0 
0.0 0.0 0.0 
0.0 0.0 0.0 
0.0 0.0 0.0 
0.0 0.0 0.0 
0.0 0.0 0.0 
0.0 0.0 0.0 
0.0 0.0 0.0 
0.0 0.0 0.0 
0.0 0.0 0.0 
0.0 0.0 0.0 
0.0 0.0 0.0 
0.0 0.0 0.0 
0.0 0.0 0.0 
0.0 0.0 0.0 
0.0 0.0 0.0 
0.0 0.0 0.0 
0.0 0.0 0.0 
0.0 0.0 0.0 
0.0 0.0 0.0 
0.0 0.0 0.0 
0.0 0.0 0.0 
0.0 0.0 0.0 
0.0 0.0 0.0 
0.0 0.0 0.0 
0.0 0.0 0.0 
0.0 0.0 0.0 
0.0 0.0 0.0 
0.0 0.0 0.0 
0.0 0.0 0.0 
0.0 0.0 0.0 
0.0 0.0 0.0 
0.0 0.0 0.0 
0.0 0.0 0.0 
0.0 0.0 0.0 
0.0 0.0 0.0 
0.0 0.0 0.0 
0.0 0.0 0.0 
0.0 0.0 0.0 
0.0 0.0 0.0 
0.0 0.0 0.0 
0.0 0.0 0.0 
0.0 0.0 0.0 
0.0 0.0 0.0 
0.0 0.0 0.0 
0.0 0.0 0.0 
0.0 0.0 0.0 
0.0 0.0 0.0 
0.0 0.0 0.0 
0.0 0.0 0.0 
0.0 0.0 0.0 
0.0 0.0 0.0 
0.0 0.0 0.0 
0.0 0.0 0.0 
0.0 0.0 0.0 
0.0 0.0 0.0 
0.0 0.0 0.0 
0.0 0.0 0.0 
0.0 0.0 0.0 
0.0 0.0 0.0 
0.0 0.0 0.0 
0.0 0.0 0.0 
0.0 0.0 0.0 
0.0 0.0 0.0 
0.0 0.0 0.0 
0.0 0.0 0.0 
0.0 0.0 0.0 
0.0 0.0 0.0 
0.0 0.0 0.0 
0.0 0.0 0.0 
0.0 0.0 0.0 
0.0 0.0 0.0 
0.0 0.0 0.0 
0.0 0.0 0.0 
0.0 0.0 0.0 
0.0 0.0 0.0 
0.0 0.0 0.0 
0.0 0.0 0.0 
0.0 0.0 0.0 
0.0 0.0 0.0 
0.0 0.0 0.0 
0.0 0.0 0.0 
0.0 0.0 0.0 
0.0 0.0 0.0 
0.0 0.0 0.0 
0.0 0.0 0.0 
0.0 0.0 0.0 
0.0 0.0 0.0 
0.0 0.0 0.0 
0.0 0.0 0.0 
0.0 0.0 0.0 
0.0 0.0 0.0 
0.0 0.0 0.0 
0.0 0.0 0.0 
0.0 0.0 0.0 
0.0 0.0 0.0 
0.0 0.0 0.0 
0.0 0.0 0.0 
0.0 0.0 0.0 
0.0 0.0 0.0 
0.0 0.0 0.0 
0.0 0.0 0.0 
0.0 0.0 0.0 
0.0 0.0 0.0 
0.0 0.0 0.0 
0.0 0.0 0.0 
0.0 0.0 0.0 
0.0 0.0 0.0 
0.0 0.0 0.0 
0.0 0.0 0.0 
0.0 0.0 0.0 
0.0 0.0 0.0 
0.0 0.0 0.0 
0.0 0.0 0.0 
0.0 0.0 0.0 
0.0 0.0 0.0 
0.0 0.0 0.0 
0.0 0.0 0.0 
0.0 0.0 0.0 
0.0 0.0 0.0 
0.0 0.0 0.0 
0.0 0.0 0.0 
0.0 0.0 0.0 
0.0 0.0 0.0 
0.0 0.0 0.0 
0.0 0.0 0.0 
0.0 0.0 0.0 
0.0 0.0 0.0 
0.0 0.0 0.0 
0.0 0.0 0.0 
0.0 0.0 0.0 
0.0 0.0 0.0 
0.0 0.0 0.0 
0.0 0.0 0.0 
0.0 0.0 0.0 
0.0 0.0 0.0 
0.0 0.0 0.0 
0.0 0.0 0.0 
0.0 0.0 0.0 
0.0 0.0 0.0 
0.0 0.0 0.0 
0.0 0.0 0.0 
0.0 0.0 0.0 
0.0 0.0 0.0 
0.0 0.0 0.0 
0.0 0.0 0.0 
0.0 0.0 0.0 
0.0 0.0 0.0 
0.0 0.0 0.0 
0.0 0.0 0.0 
0.0 0.0 0.0 
0.0 0.0 0.0 
0.0 0.0 0.0 
0.0 0.0 0.0 
0.0 0.0 0.0 
0.0 0.0 0.0 
0.0 0.0 0.0 
0.0 0.0 0.0 
0.0 0.0 0.0 
0.0 0.0 0.0 
0.0 0.0 0.0 
0.0 0.0 0.0 
0.0 0.0 0.0 
0.0 0.0 0.0 
0.0 0.0 0.0 
0.0 0.0 0.0 
0.0 0.0 0.0 
0.0 0.0 0.0 
0.0 0.0 0.0 
0.0 0.0 0.0 
0.0 0.0 0.0 
0.0 0.0 0.0 
0.0 0.0 0.0 
0.0 0.0 0.0 
0.0 0.0 0.0 
0.0 0.0 0.0 
0.0 0.0 0.0 
0.0 0.0 0.0 
0.0 0.0 0.0 
0.0 0.0 0.0 
0.0 0.0 0.0 
0.0 0.0 0.0 
0.0 0.0 0.0 
0.0 0.0 0.0 
0.0 0.0 0.0 
0.0 0.0 0.0 
0.0 0.0 0.0 
0.0 0.0 0.0 
0.0 0.0 0.0 
0.0 0.0 0.0 
0.0 0.0 0.0 
0.0 0.0 0.0 
0.0 0.0 0.0 
0.0 0.0 0.0 
0.0 0.0 0.0 
0.0 0.0 0.0 
0.0 0.0 0.0 
0.0 0.0 0.0 
0.0 0.0 0.0 
0.0 0.0 0.0 
0.0 0.0 0.0 
0.0 0.0 0.0 
0.0 0.0 0.0 
0.0 0.0 0.0 
0.0 0.0 0.0 
0.0 0.0 0.0 
0.0 0.0 0.0 
0.0 0.0 0.0 
0.0 0.0 0.0 
0.0 0.0 0.0 
0.0 0.0 0.0 
0.0 0.0 0.0 
0.0 0.0 0.0 
0.0 0.0 0.0 
0.0 0.0 0.0 
0.0 0.0 0.0 
0.0 0.0 0.0 
0.0 0.0 0.0 
0.0 0.0 0.0 
0.0 0.0 0.0 
0.0 0.0 0.0 
0.0 0.0 0.0 
0.0 0.0 0.0 
0.0 0.0 0.0 
0.0 0.0 0.0 
0.0 0.0 0.0 
0.0 0.0 0.0 
0.0 0.0 0.0 
0.0 0.0 0.0 
0.0 0.0 0.0 
0.0 0.0 0.0 
0.0 0.0 0.0 
0.0 0.0 0.0 
0.0 0.0 0.0 
0.0 0.0 0.0 
0.0 0.0 0.0 
0.0 0.0 0.0 
0.0 0.0 0.0 
0.0 0.0 0.0 
0.0 0.0 0.0 
0.0 0.0 0.0 
0.0 0.0 0.0 
0.0 0.0 0.0 
0.0 0.0 0.0 
0.0 0.0 0.0 
0.0 0.0 0.0 
0.0 0.0 0.0 
0.0 0.0 0.0 
0.0 0.0 0.0 
0.0 0.0 0.0 
0.0 0.0 0.0 
0.0 0.0 0.0 
0.0 0.0 0.0 
0.0 0.0 0.0 
0.0 0.0 0.0 
0.0 0.0 0.0 
0.0 0.0 0.0 
0.0 0.0 0.0 
0.0 0.0 0.0 
0.0 0.0 0.0 
0.0 0.0 0.0 
0.0 0.0 0.0 
0.0 0.0 0.0 
0.0 0.0 0.0 
0.0 0.0 0.0 
0.0 0.0 0.0 
0.0 0.0 0.0 
0.0 0.0 0.0 
0.0 0.0 0.0 
0.0 0.0 0.0 
0.0 0.0 0.0 
0.0 0.0 0.0 
0.0 0.0 0.0 
0.0 0.0 0.0 
0.0 0.0 0.0 
0.0 0.0 0.0 
0.0 0.0 0.0 
0.0 0.0 0.0 
0.0 0.0 0.0 
0.0 0.0 0.0 
0.0 0.0 0.0 
0.0 0.0 0.0 
0.0 0.0 0.0 
0.0 0.0 0.0 
0.0 0.0 0.0 
0.0 0.0 0.0 
0.0 0.0 0.0 
0.0 0.0 0.0 
0.0 0.0 0.0 
0.0 0.0 0.0 
0.0 0.0 0.0 
0.0 0.0 0.0 
0.0 0.0 0.0 
0.0 0.0 0.0 
0.0 0.0 0.0 
0.0 0.0 0.0 
0.0 0.0 0.0 
0.0 0.0 0.0 
0.0 0.0 0.0 
0.0 0.0 0.0 
0.0 0.0 0.0 
0.0 0.0 0.0 
0.0 0.0 0.0 
0.0 0.0 0.0 
0.0 0.0 0.0 
0.0 0.0 0.0 
0.0 0.0 0.0 
0.0 0.0 0.0 
0.0 0.0 0.0 
0.0 0.0 0.0 
0.0 0.0 0.0 
0.0 0.0 0.0 
0.0 0.0 0.0 
0.0 0.0 0.0 
0.0 0.0 0.0 
0.0 0.0 0.0 
0.0 0.0 0.0 
0.0 0.0 0.0 
0.0 0.0 0.0 
0.0 0.0 0.0 
0.0 0.0 0.0 
0.0 0.0 0.0 
0.0 0.0 0.0 
0.0 0.0 0.0 
0.0 0.0 0.0 
0.0 0.0 0.0 
0.0 0.0 0.0 
0.0 0.0 0.0 
0.0 0.0 0.0 
0.0 0.0 0.0 
0.0 0.0 0.0 
0.0 0.0 0.0 
0.0 0.0 0.0 
0.0 0.0 0.0 
0.0 0.0 0.0 
0.0 0.0 0.0 
0.0 0.0 0.0 
0.0 0.0 0.0 
0.0 0.0 0.0 
0.0 0.0 0.0 
0.0 0.0 0.0 
0.0 0.0 0.0 
0.0 0.0 0.0 
0.0 0.0 0.0 
0.0 0.0 0.0 
0.0 0.0 0.0 
0.0 0.0 0.0 
0.0 0.0 0.0 
0.0 0.0 0.0 
0.0 0.0 0.0 
0.0 0.0 0.0 
0.0 0.0 0.0 
0.0 0.0 0.0 
0.0 0.0 0.0 
0.0 0.0 0.0 
0.0 0.0 0.0 
0.0 0.0 0.0 
0.0 0.0 0.0 
0.0 0.0 0.0 
0.0 0.0 0.0 
0.0 0.0 0.0 
0.0 0.0 0.0 
0.0 0.0 0.0 
0.0 0.0 0.0 
0.0 0.0 0.0 
0.0 0.0 0.0 
0.0 0.0 0.0 
0.0 0.0 0.0 
0.0 0.0 0.0 
0.0 0.0 0.0 
0.0 0.0 0.0 
0.0 0.0 0.0 
0.0 0.0 0.0 
0.0 0.0 0.0 
0.0 0.0 0.0 
0.0 0.0 0.0 
0.0 0.0 0.0 
0.0 0.0 0.0 
0.0 0.0 0.0 
0.0 0.0 0.0 
0.0 0.0 0.0 
0.0 0.0 0.0 
0.0 0.0 0.0 
0.0 0.0 0.0 
0.0 0.0 0.0 
0.0 0.0 0.0 
0.0 0.0 0.0 
0.0 0.0 0.0 
0.0 0.0 0.0 
0.0 0.0 0.0 
0.0 0.0 0.0 
0.0 0.0 0.0 
0.0 0.0 0.0 
0.0 0.0 0.0 
0.0 0.0 0.0 
0.0 0.0 0.0 
0.0 0.0 0.0 
0.0 0.0 0.0 
0.0 0.0 0.0 
0.0 0.0 0.0 
0.0 0.0 0.0 
0.0 0.0 0.0 
0.0 0.0 0.0 
0.0 0.0 0.0 
0.0 0.0 0.0 
0.0 0.0 0.0 
0.0 0.0 0.0 
0.0 0.0 0.0 
0.0 0.0 0.0 
0.0 0.0 0.0 
0.0 0.0 0.0 
0.0 0.0 0.0 
0.0 0.0 0.0 
0.0 0.0 0.0 
0.0 0.0 0.0 
0.0 0.0 0.0 
0.0 0.0 0.0 
0.0 0.0 0.0 
0.0 0.0 0.0 
0.0 0.0 0.0 
0.0 0.0 0.0 
0.0 0.0 0.0 
0.0 0.0 0.0 
0.0 0.0 0.0 
0.0 0.0 0.0 
0.0 0.0 0.0 
0.0 0.0 0.0 
0.0 0.0 0.0 
0.0 0.0 0.0 
0.0 0.0 0.0 
0.0 0.0 0.0 
0.0 0.0 0.0 
0.0 0.0 0.0 
0.0 0.0 0.0 
0.0 0.0 0.0 
0.0 0.0 0.0 
0.0 0.0 0.0 
0.0 0.0 0.0 
0.0 0.0 0.0 
0.0 0.0 0.0 
0.0 0.0 0.0 
0.0 0.0 0.0 
0.0 0.0 0.0 
0.0 0.0 0.0 
0.0 0.0 0.0 
0.0 0.0 0.0 
0.0 0.0 0.0 
0.0 0.0 0.0 
0.0 0.0 0.0 
0.0 0.0 0.0 
0.0 0.0 0.0 
0.0 0.0 0.0 
0.0 0.0 0.0 
0.0 0.0 0.0 
0.0 0.0 0.0 
0.0 0.0 0.0 
0.0 0.0 0.0 
0.0 0.0 0.0 
0.0 0.0 0.0 
0.0 0.0 0.0 
0.0 0.0 0.0 
0.0 0.0 0.0 
0.0 0.0 0.0 
0.0 0.0 0.0 
0.0 0.0 0.0 
0.0 0.0 0.0 
0.0 0.0 0.0 
0.0 0.0 0.0 
0.0 0.0 0.0 
0.0 0.0 0.0 
0.0 0.0 0.0 
0.0 0.0 0.0 
0.0 0.0 0.0 
0.0 0.0 0.0 
0.0 0.0 0.0 
0.0 0.0 0.0 
0.0 0.0 0.0 
0.0 0.0 0.0 
0.0 0.0 0.0 
0.0 0.0 0.0 
0.0 0.0 0.0 
0.0 0.0 0.0 
0.0 0.0 0.0 
0.0 0.0 0.0 
0.0 0.0 0.0 
0.0 0.0 0.0 
0.0 0.0 0.0 
0.0 0.0 0.0 
0.0 0.0 0.0 
0.0 0.0 0.0 
0.0 0.0 0.0 
0.0 0.0 0.0 
0.0 0.0 0.0 
0.0 0.0 0.0 
0.0 0.0 0.0 
0.0 0.0 0.0 
0.0 0.0 0.0 
0.0 0.0 0.0 
0.0 0.0 0.0 
0.0 0.0 0.0 
0.0 0.0 0.0 
0.0 0.0 0.0 
0.0 0.0 0.0 
0.0 0.0 0.0 
0.0 0.0 0.0 
0.0 0.0 0.0 
0.0 0.0 0.0 
0.0 0.0 0.0 
0.0 0.0 0.0 
0.0 0.0 0.0 
0.0 0.0 0.0 
0.0 0.0 0.0 
0.0 0.0 0.0 
0.0 0.0 0.0 
0.0 0.0 0.0 
0.0 0.0 0.0 
0.0 0.0 0.0 
0.0 0.0 0.0 
0.0 0.0 0.0 
0.0 0.0 0.0 
0.0 0.0 0.0 
0.0 0.0 0.0 
0.0 0.0 0.0 
0.0 0.0 0.0 
0.0 0.0 0.0 
0.0 0.0 0.0 
0.0 0.0 0.0 
0.0 0.0 0.0 
0.0 0.0 0.0 
0.0 0.0 0.0 
0.0 0.0 0.0 
0.0 0.0 0.0 
0.0 0.0 0.0 
0.0 0.0 0.0 
0.0 0.0 0.0 
0.0 0.0 0.0 
0.0 0.0 0.0 
0.0 0.0 0.0 
0.0 0.0 0.0 
0.0 0.0 0.0 
0.0 0.0 0.0 
0.0 0.0 0.0 
0.0 0.0 0.0 
0.0 0.0 0.0 
0.0 0.0 0.0 
0.0 0.0 0.0 
0.0 0.0 0.0 
0.0 0.0 0.0 
0.0 0.0 0.0 
0.0 0.0 0.0 
0.0 0.0 0.0 
0.0 0.0 0.0 
0.0 0.0 0.0 
0.0 0.0 0.0 
0.0 0.0 0.0 
0.0 0.0 0.0 
0.0 0.0 0.0 
0.0 0.0 0.0 
0.0 0.0 0.0 
0.0 0.0 0.0 
0.0 0.0 0.0 
0.0 0.0 0.0 
0.0 0.0 0.0 
0.0 0.0 0.0 
0.0 0.0 0.0 
0.0 0.0 0.0 
0.0 0.0 0.0 
0.0 0.0 0.0 
0.0 0.0 0.0 
0.0 0.0 0.0 
0.0 0.0 0.0 
0.0 0.0 0.0 
0.0 0.0 0.0 
0.0 0.0 0.0 
0.0 0.0 0.0 
0.0 0.0 0.0 
0.0 0.0 0.0 
0.0 0.0 0.0 
0.0 0.0 0.0 
0.0 0.0 0.0 
0.0 0.0 0.0 
0.0 0.0 0.0 
0.0 0.0 0.0 
0.0 0.0 0.0 
0.0 0.0 0.0 
0.0 0.0 0.0 
0.0 0.0 0.0 
0.0 0.0 0.0 
0.0 0.0 0.0 
0.0 0.0 0.0 
0.0 0.0 0.0 
0.0 0.0 0.0 
0.0 0.0 0.0 
0.0 0.0 0.0 
0.0 0.0 0.0 
0.0 0.0 0.0 
0.0 0.0 0.0 
0.0 0.0 0.0 
0.0 0.0 0.0 
0.0 0.0 0.0 
0.0 0.0 0.0 
0.0 0.0 0.0 
0.0 0.0 0.0 
0.0 0.0 0.0 

SCALARS node_boundary float
LOOKUP_TABLE default
1.000000000000e+00 
1.000000000000e+00 
1.000000000000e+00 
1.000000000000e+00 
1.000000000000e+00 
1.000000000000e+00 
1.000000000000e+00 
1.000000000000e+00 
1.000000000000e+00 
1.000000000000e+00 
1.000000000000e+00 
1.000000000000e+00 
1.000000000000e+00 
1.000000000000e+00 
1.000000000000e+00 
1.000000000000e+00 
1.000000000000e+00 
1.000000000000e+00 
1.000000000000e+00 
1.000000000000e+00 
1.000000000000e+00 
1.000000000000e+00 
1.000000000000e+00 
1.000000000000e+00 
1.000000000000e+00 
1.000000000000e+00 
1.000000000000e+00 
1.000000000000e+00 
1.000000000000e+00 
1.000000000000e+00 
1.000000000000e+00 
1.000000000000e+00 
1.000000000000e+00 
1.000000000000e+00 
1.000000000000e+00 
1.000000000000e+00 
1.000000000000e+00 
1.000000000000e+00 
1.000000000000e+00 
1.000000000000e+00 
1.000000000000e+00 
1.000000000000e+00 
1.000000000000e+00 
1.000000000000e+00 
1.000000000000e+00 
1.000000000000e+00 
1.000000000000e+00 
1.000000000000e+00 
1.000000000000e+00 
1.000000000000e+00 
1.000000000000e+00 
1.000000000000e+00 
1.000000000000e+00 
1.000000000000e+00 
1.000000000000e+00 
1.000000000000e+00 
1.000000000000e+00 
1.000000000000e+00 
1.000000000000e+00 
1.000000000000e+00 
1.000000000000e+00 
1.000000000000e+00 
1.000000000000e+00 
1.000000000000e+00 
1.000000000000e+00 
1.000000000000e+00 
1.000000000000e+00 
1.000000000000e+00 
1.000000000000e+00 
1.000000000000e+00 
1.000000000000e+00 
1.000000000000e+00 
1.000000000000e+00 
1.000000000000e+00 
1.000000000000e+00 
1.000000000000e+00 
1.000000000000e+00 
1.000000000000e+00 
1.000000000000e+00 
1.000000000000e+00 
1.000000000000e+00 
1.000000000000e+00 
0.0
1.000000000000e+00 
1.000000000000e+00 
1.000000000000e+00 
0.0
0.0
0.0
0.0
0.0
0.0
1.000000000000e+00 
1.000000000000e+00 
1.000000000000e+00 
1.000000000000e+00 
1.000000000000e+00 
1.000000000000e+00 
1.000000000000e+00 
0.0
0.0
0.0
0.0
0.0
0.0
0.0
0.0
0.0
0.0
0.0
0.0
0.0
0.0
1.000000000000e+00 
1.000000000000e+00 
1.000000000000e+00 
1.000000000000e+00 
1.000000000000e+00 
1.000000000000e+00 
1.000000000000e+00 
1.000000000000e+00 
1.000000000000e+00 
1.000000000000e+00 
1.000000000000e+00 
1.000000000000e+00 
1.000000000000e+00 
1.000000000000e+00 
1.000000000000e+00 
1.000000000000e+00 
1.000000000000e+00 
1.000000000000e+00 
1.000000000000e+00 
1.000000000000e+00 
1.000000000000e+00 
1.000000000000e+00 
1.000000000000e+00 
1.000000000000e+00 
1.000000000000e+00 
1.000000000000e+00 
1.000000000000e+00 
1.000000000000e+00 
1.000000000000e+00 
1.000000000000e+00 
1.000000000000e+00 
1.000000000000e+00 
1.000000000000e+00 
1.000000000000e+00 
1.000000000000e+00 
1.000000000000e+00 
1.000000000000e+00 
1.000000000000e+00 
1.000000000000e+00 
1.000000000000e+00 
1.000000000000e+00 
1.000000000000e+00 
1.000000000000e+00 
1.000000000000e+00 
0.0
0.0
0.0
0.0
0.0
0.0
0.0
0.0
0.0
0.0
0.0
0.0
0.0
0.0
0.0
0.0
0.0
0.0
0.0
0.0
0.0
0.0
0.0
0.0
0.0
0.0
0.0
0.0
0.0
0.0
0.0
0.0
0.0
0.0
0.0
0.0
0.0
0.0
0.0
0.0
0.0
0.0
0.0
0.0
0.0
0.0
0.0
0.0
0.0
0.0
0.0
0.0
0.0
0.0
0.0
0.0
0.0
0.0
0.0
0.0
0.0
0.0
0.0
0.0
0.0
0.0
0.0
0.0
0.0
0.0
0.0
0.0
0.0
0.0
0.0
0.0
0.0
0.0
0.0
0.0
0.0
0.0
0.0
0.0
0.0
0.0
0.0
0.0
0.0
0.0
0.0
0.0
0.0
0.0
0.0
0.0
0.0
0.0
0.0
0.0
0.0
0.0
0.0
0.0
0.0
0.0
0.0
0.0
0.0
0.0
0.0
0.0
0.0
0.0
0.0
0.0
0.0
1.000000000000e+00 
1.000000000000e+00 
1.000000000000e+00 
0.0
0.0
0.0
0.0
0.0
0.0
0.0
0.0
0.0
0.0
0.0
0.0
0.0
0.0
0.0
0.0
0.0
0.0
0.0
0.0
0.0
0.0
0.0
0.0
0.0
0.0
0.0
0.0
0.0
0.0
0.0
0.0
0.0
0.0
0.0
0.0
0.0
0.0
0.0
0.0
0.0
0.0
0.0
0.0
0.0
0.0
0.0
0.0
0.0
0.0
0.0
0.0
0.0
0.0
0.0
0.0
0.0
0.0
0.0
0.0
0.0
0.0
0.0
0.0
0.0
0.0
0.0
0.0
0.0
0.0
0.0
0.0
0.0
0.0
0.0
0.0
0.0
0.0
0.0
0.0
0.0
0.0
0.0
0.0
0.0
0.0
0.0
0.0
0.0
0.0
0.0
0.0
0.0
0.0
0.0
0.0
0.0
0.0
0.0
0.0
0.0
0.0
0.0
0.0
0.0
0.0
0.0
0.0
0.0
0.0
0.0
0.0
0.0
0.0
0.0
0.0
0.0
0.0
0.0
0.0
0.0
0.0
0.0
0.0
0.0
0.0
0.0
0.0
0.0
0.0
0.0
0.0
0.0
0.0
0.0
0.0
0.0
0.0
0.0
0.0
0.0
0.0
0.0
0.0
0.0
0.0
0.0
0.0
0.0
0.0
0.0
0.0
0.0
0.0
0.0
0.0
0.0
0.0
0.0
0.0
0.0
0.0
0.0
0.0
0.0
0.0
0.0
0.0
0.0
0.0
0.0
0.0
0.0
0.0
0.0
0.0
0.0
0.0
0.0
0.0
0.0
0.0
0.0
0.0
0.0
0.0
0.0
0.0
0.0
0.0
0.0
0.0
0.0
0.0
0.0
0.0
0.0
0.0
0.0
0.0
0.0
0.0
0.0
0.0
0.0
0.0
0.0
0.0
0.0
0.0
0.0
0.0
0.0
0.0
0.0
0.0
0.0
0.0
0.0
0.0
0.0
0.0
0.0
0.0
0.0
0.0
0.0
0.0
0.0
0.0
0.0
0.0
0.0
0.0
0.0
0.0
0.0
0.0
0.0
0.0
0.0
0.0
0.0
0.0
0.0
0.0
0.0
0.0
0.0
0.0
0.0
0.0
0.0
0.0
0.0
0.0
0.0
0.0
0.0
0.0
0.0
0.0
0.0
0.0
0.0
0.0
0.0
0.0
0.0
0.0
0.0
0.0
0.0
0.0
0.0
0.0
0.0
0.0
0.0
0.0
0.0
0.0
0.0
0.0
0.0
0.0
0.0
0.0
0.0
0.0
0.0
0.0
0.0
0.0
0.0
0.0
0.0
0.0
0.0
0.0
0.0
0.0
0.0
0.0
0.0
0.0
0.0
0.0
0.0
0.0
0.0
0.0
0.0
0.0
0.0
0.0
0.0
0.0
0.0
0.0
0.0
0.0
0.0
0.0
0.0
0.0
0.0
0.0
0.0
0.0
0.0
0.0
0.0
0.0
0.0
0.0
0.0
0.0
0.0
0.0
0.0
0.0
0.0
0.0
0.0
0.0
0.0
0.0
0.0
0.0
0.0
0.0
0.0
0.0
0.0
0.0
0.0
0.0
0.0
0.0
0.0
0.0
0.0
0.0
0.0
0.0
0.0
0.0
0.0
0.0
0.0
0.0
0.0
0.0
0.0
0.0
0.0
0.0
0.0
0.0
0.0
0.0
0.0
0.0
0.0
0.0
0.0
0.0
0.0
0.0
0.0
0.0
0.0
0.0
0.0
0.0
0.0
0.0
0.0
0.0
0.0
0.0
0.0
0.0
0.0
0.0
0.0
0.0
0.0
0.0
0.0
0.0
0.0
0.0
0.0
0.0
0.0
0.0
0.0
0.0
0.0
0.0
0.0
0.0
0.0
0.0
0.0
0.0
0.0
0.0
0.0
0.0
0.0
0.0
0.0
0.0
0.0
0.0
0.0
0.0
0.0
0.0
0.0
0.0
0.0
0.0
0.0
0.0
0.0
0.0
0.0
0.0
0.0
0.0
0.0
0.0
0.0
0.0
0.0
0.0
0.0
0.0
0.0
0.0
0.0
0.0
0.0
0.0
0.0
0.0
0.0
0.0
0.0
0.0
0.0
0.0
0.0
0.0
0.0
0.0
0.0
0.0
0.0
0.0
0.0
0.0
0.0
0.0
0.0
0.0
0.0
0.0
0.0
0.0
0.0
0.0
0.0
0.0
0.0
0.0
0.0
0.0
0.0
0.0
0.0
0.0
0.0
0.0
0.0
0.0
0.0
0.0
0.0
0.0
0.0
0.0
0.0
0.0
0.0
0.0
0.0
0.0
0.0
0.0
0.0
0.0
0.0
0.0
0.0
0.0
0.0
0.0
0.0
0.0
0.0
0.0
0.0
0.0
0.0
0.0
0.0
0.0
0.0
0.0
0.0
0.0
0.0
0.0
0.0
0.0
0.0
0.0
0.0
0.0
0.0
0.0
0.0
0.0
0.0
0.0
0.0
0.0
0.0
0.0
0.0
0.0
0.0
0.0
0.0
0.0
0.0
0.0
0.0
0.0
0.0
0.0
0.0
0.0
0.0
0.0
0.0
0.0
0.0
0.0
0.0
0.0
0.0
0.0
0.0
0.0
0.0
0.0
0.0
0.0
0.0
0.0
0.0
0.0
0.0
0.0
0.0
0.0
0.0
0.0
0.0
0.0
0.0
0.0
0.0
0.0
0.0
0.0
0.0
0.0
0.0
0.0
0.0
0.0
0.0
0.0
0.0
0.0
0.0
0.0
0.0
0.0
0.0
0.0
0.0
0.0
0.0
0.0
0.0
0.0
0.0
0.0
0.0
0.0
0.0
0.0
0.0
0.0
0.0
0.0
0.0
0.0
0.0
0.0
0.0
0.0
0.0
0.0
0.0
0.0
0.0
0.0
0.0
0.0
0.0
0.0
0.0
0.0
0.0
0.0
0.0
0.0
0.0
0.0
0.0
0.0
0.0
0.0
0.0
0.0
0.0
0.0
0.0
0.0
0.0
0.0
0.0
0.0
0.0
0.0
0.0
0.0
0.0
0.0
0.0
0.0
0.0
0.0
0.0
0.0
0.0
0.0
0.0
0.0
0.0
0.0
0.0
0.0
0.0
0.0
0.0
0.0
0.0
0.0
0.0
0.0
0.0
0.0
0.0
0.0
0.0
0.0
0.0
0.0
0.0
0.0
0.0
0.0
0.0
0.0
0.0
0.0
0.0
0.0
0.0
0.0
0.0
0.0
0.0
0.0
0.0
0.0
0.0
0.0
0.0
0.0
0.0
0.0
0.0
0.0
0.0
0.0
0.0
0.0
0.0
0.0
0.0
0.0
0.0
0.0
0.0
0.0
0.0
0.0
0.0
0.0
0.0
0.0
0.0
0.0
0.0
0.0
0.0
0.0
0.0
0.0
0.0
0.0
0.0
0.0
0.0
0.0
0.0
0.0
0.0
0.0
0.0
0.0
0.0
0.0
0.0
0.0
0.0
0.0
0.0
0.0
0.0
0.0
0.0
0.0
0.0
0.0
0.0
0.0
0.0
0.0
0.0
0.0
0.0
0.0
0.0
0.0
0.0
0.0
0.0
0.0
0.0
0.0
0.0
0.0
0.0
0.0
0.0
0.0
0.0
0.0
0.0
0.0
0.0
0.0
0.0
0.0
0.0
0.0
0.0
0.0
0.0
0.0
0.0
0.0
0.0
0.0
0.0
0.0
0.0
0.0
0.0
0.0
0.0
0.0
0.0
0.0
0.0
0.0
0.0
0.0
0.0
0.0
0.0
0.0
0.0
0.0
0.0
0.0
0.0
0.0
0.0
0.0
0.0
0.0
0.0
0.0
0.0
0.0
0.0
0.0
0.0
0.0
0.0
0.0
0.0
0.0
0.0
0.0
0.0
0.0
0.0
0.0
0.0
0.0
0.0
0.0
0.0
0.0
0.0
0.0
0.0
0.0
0.0
0.0
0.0
0.0
0.0
0.0
0.0
0.0
0.0
0.0
0.0
0.0
0.0
0.0
0.0
0.0
0.0
0.0
0.0
0.0
0.0
0.0

VECTORS node_force_gravity float
0.0 -1.962000000000e+01 0.0 
0.0 -1.962000000000e+01 0.0 
0.0 -1.962000000000e+01 0.0 
0.0 -1.962000000000e+01 0.0 
0.0 -1.962000000000e+01 0.0 
0.0 -1.962000000000e+01 0.0 
0.0 -1.962000000000e+01 0.0 
0.0 -1.962000000000e+01 0.0 
0.0 -1.962000000000e+01 0.0 
0.0 -1.962000000000e+01 0.0 
0.0 -1.962000000000e+01 0.0 
0.0 -1.962000000000e+01 0.0 
0.0 -1.962000000000e+01 0.0 
0.0 -1.962000000000e+01 0.0 
0.0 -1.962000000000e+01 0.0 
0.0 -1.962000000000e+01 0.0 
0.0 -1.962000000000e+01 0.0 
0.0 -1.962000000000e+01 0.0 
0.0 -1.962000000000e+01 0.0 
0.0 -1.962000000000e+01 0.0 
0.0 -1.962000000000e+01 0.0 
0.0 -1.962000000000e+01 0.0 
0.0 -1.962000000000e+01 0.0 
0.0 -1.962000000000e+01 0.0 
0.0 -1.962000000000e+01 0.0 
0.0 -1.962000000000e+01 0.0 
0.0 -1.962000000000e+01 0.0 
0.0 -1.962000000000e+01 0.0 
0.0 -1.962000000000e+01 0.0 
0.0 -1.962000000000e+01 0.0 
0.0 -1.962000000000e+01 0.0 
0.0 -1.962000000000e+01 0.0 
0.0 -1.962000000000e+01 0.0 
0.0 -1.962000000000e+01 0.0 
0.0 -1.962000000000e+01 0.0 
0.0 -1.962000000000e+01 0.0 
0.0 -1.962000000000e+01 0.0 
0.0 -1.962000000000e+01 0.0 
0.0 -1.962000000000e+01 0.0 
0.0 -1.962000000000e+01 0.0 
0.0 -1.962000000000e+01 0.0 
0.0 -1.962000000000e+01 0.0 
0.0 -1.962000000000e+01 0.0 
0.0 -1.962000000000e+01 0.0 
0.0 -1.962000000000e+01 0.0 
0.0 -1.962000000000e+01 0.0 
0.0 -1.962000000000e+01 0.0 
0.0 -1.962000000000e+01 0.0 
0.0 -1.962000000000e+01 0.0 
0.0 -1.962000000000e+01 0.0 
0.0 -1.962000000000e+01 0.0 
0.0 -1.962000000000e+01 0.0 
0.0 -1.962000000000e+01 0.0 
0.0 -1.962000000000e+01 0.0 
0.0 -1.962000000000e+01 0.0 
0.0 -1.962000000000e+01 0.0 
0.0 -1.962000000000e+01 0.0 
0.0 -1.962000000000e+01 0.0 
0.0 -1.962000000000e+01 0.0 
0.0 -1.962000000000e+01 0.0 
0.0 -1.962000000000e+01 0.0 
0.0 -1.962000000000e+01 0.0 
0.0 -1.962000000000e+01 0.0 
0.0 -1.962000000000e+01 0.0 
0.0 -1.962000000000e+01 0.0 
0.0 -1.962000000000e+01 0.0 
0.0 -1.962000000000e+01 0.0 
0.0 -1.962000000000e+01 0.0 
0.0 -1.962000000000e+01 0.0 
0.0 -1.962000000000e+01 0.0 
0.0 -1.962000000000e+01 0.0 
0.0 -1.962000000000e+01 0.0 
0.0 -1.962000000000e+01 0.0 
0.0 -1.962000000000e+01 0.0 
0.0 -1.962000000000e+01 0.0 
0.0 -1.962000000000e+01 0.0 
0.0 -1.962000000000e+01 0.0 
0.0 -1.962000000000e+01 0.0 
0.0 -1.962000000000e+01 0.0 
0.0 -1.962000000000e+01 0.0 
0.0 -1.962000000000e+01 0.0 
0.0 -1.962000000000e+01 0.0 
0.0 -1.962000000000e+01 0.0 
0.0 -1.962000000000e+01 0.0 
0.0 -1.962000000000e+01 0.0 
0.0 -1.962000000000e+01 0.0 
0.0 -1.962000000000e+01 0.0 
0.0 -1.962000000000e+01 0.0 
0.0 -1.962000000000e+01 0.0 
0.0 -1.962000000000e+01 0.0 
0.0 -1.962000000000e+01 0.0 
0.0 -1.962000000000e+01 0.0 
0.0 -1.962000000000e+01 0.0 
0.0 -1.962000000000e+01 0.0 
0.0 -1.962000000000e+01 0.0 
0.0 -1.962000000000e+01 0.0 
0.0 -1.962000000000e+01 0.0 
0.0 -1.962000000000e+01 0.0 
0.0 -1.962000000000e+01 0.0 
0.0 -1.962000000000e+01 0.0 
0.0 -1.962000000000e+01 0.0 
0.0 -1.962000000000e+01 0.0 
0.0 -1.962000000000e+01 0.0 
0.0 -1.962000000000e+01 0.0 
0.0 -1.962000000000e+01 0.0 
0.0 -1.962000000000e+01 0.0 
0.0 -1.962000000000e+01 0.0 
0.0 -1.962000000000e+01 0.0 
0.0 -1.962000000000e+01 0.0 
0.0 -1.962000000000e+01 0.0 
0.0 -1.962000000000e+01 0.0 
0.0 -1.962000000000e+01 0.0 
0.0 -1.962000000000e+01 0.0 
0.0 -1.962000000000e+01 0.0 
0.0 -1.962000000000e+01 0.0 
0.0 -1.962000000000e+01 0.0 
0.0 -1.962000000000e+01 0.0 
0.0 -1.962000000000e+01 0.0 
0.0 -1.962000000000e+01 0.0 
0.0 -1.962000000000e+01 0.0 
0.0 -1.962000000000e+01 0.0 
0.0 -1.962000000000e+01 0.0 
0.0 -1.962000000000e+01 0.0 
0.0 -1.962000000000e+01 0.0 
0.0 -1.962000000000e+01 0.0 
0.0 -1.962000000000e+01 0.0 
0.0 -1.962000000000e+01 0.0 
0.0 -1.962000000000e+01 0.0 
0.0 -1.962000000000e+01 0.0 
0.0 -1.962000000000e+01 0.0 
0.0 -1.962000000000e+01 0.0 
0.0 -1.962000000000e+01 0.0 
0.0 -1.962000000000e+01 0.0 
0.0 -1.962000000000e+01 0.0 
0.0 -1.962000000000e+01 0.0 
0.0 -1.962000000000e+01 0.0 
0.0 -1.962000000000e+01 0.0 
0.0 -1.962000000000e+01 0.0 
0.0 -1.962000000000e+01 0.0 
0.0 -1.962000000000e+01 0.0 
0.0 -1.962000000000e+01 0.0 
0.0 -1.962000000000e+01 0.0 
0.0 -1.962000000000e+01 0.0 
0.0 -1.962000000000e+01 0.0 
0.0 -1.962000000000e+01 0.0 
0.0 -1.962000000000e+01 0.0 
0.0 -1.962000000000e+01 0.0 
0.0 -1.962000000000e+01 0.0 
0.0 -1.962000000000e+01 0.0 
0.0 -1.962000000000e+01 0.0 
0.0 -1.962000000000e+01 0.0 
0.0 -1.962000000000e+01 0.0 
0.0 -1.962000000000e+01 0.0 
0.0 -1.962000000000e+01 0.0 
0.0 -1.962000000000e+01 0.0 
0.0 -1.962000000000e+01 0.0 
0.0 -1.962000000000e+01 0.0 
0.0 -1.962000000000e+01 0.0 
0.0 -1.962000000000e+01 0.0 
0.0 -1.962000000000e+01 0.0 
0.0 -1.962000000000e+01 0.0 
0.0 -1.962000000000e+01 0.0 
0.0 -1.962000000000e+01 0.0 
0.0 -1.962000000000e+01 0.0 
0.0 -1.962000000000e+01 0.0 
0.0 -1.962000000000e+01 0.0 
0.0 -1.962000000000e+01 0.0 
0.0 -1.962000000000e+01 0.0 
0.0 -1.962000000000e+01 0.0 
0.0 -1.962000000000e+01 0.0 
0.0 -1.962000000000e+01 0.0 
0.0 -1.962000000000e+01 0.0 
0.0 -1.962000000000e+01 0.0 
0.0 -1.962000000000e+01 0.0 
0.0 -1.962000000000e+01 0.0 
0.0 -1.962000000000e+01 0.0 
0.0 -1.962000000000e+01 0.0 
0.0 -1.962000000000e+01 0.0 
0.0 -1.962000000000e+01 0.0 
0.0 -1.962000000000e+01 0.0 
0.0 -1.962000000000e+01 0.0 
0.0 -1.962000000000e+01 0.0 
0.0 -1.962000000000e+01 0.0 
0.0 -1.962000000000e+01 0.0 
0.0 -1.962000000000e+01 0.0 
0.0 -1.962000000000e+01 0.0 
0.0 -1.962000000000e+01 0.0 
0.0 -1.962000000000e+01 0.0 
0.0 -1.962000000000e+01 0.0 
0.0 -1.962000000000e+01 0.0 
0.0 -1.962000000000e+01 0.0 
0.0 -1.962000000000e+01 0.0 
0.0 -1.962000000000e+01 0.0 
0.0 -1.962000000000e+01 0.0 
0.0 -1.962000000000e+01 0.0 
0.0 -1.962000000000e+01 0.0 
0.0 -1.962000000000e+01 0.0 
0.0 -1.962000000000e+01 0.0 
0.0 -1.962000000000e+01 0.0 
0.0 -1.962000000000e+01 0.0 
0.0 -1.962000000000e+01 0.0 
0.0 -1.962000000000e+01 0.0 
0.0 -1.962000000000e+01 0.0 
0.0 -1.962000000000e+01 0.0 
0.0 -1.962000000000e+01 0.0 
0.0 -1.962000000000e+01 0.0 
0.0 -1.962000000000e+01 0.0 
0.0 -1.962000000000e+01 0.0 
0.0 -1.962000000000e+01 0.0 
0.0 -1.962000000000e+01 0.0 
0.0 -1.962000000000e+01 0.0 
0.0 -1.962000000000e+01 0.0 
0.0 -1.962000000000e+01 0.0 
0.0 -1.962000000000e+01 0.0 
0.0 -1.962000000000e+01 0.0 
0.0 -1.962000000000e+01 0.0 
0.0 -1.962000000000e+01 0.0 
0.0 -1.962000000000e+01 0.0 
0.0 -1.962000000000e+01 0.0 
0.0 -1.962000000000e+01 0.0 
0.0 -1.962000000000e+01 0.0 
0.0 -1.962000000000e+01 0.0 
0.0 -1.962000000000e+01 0.0 
0.0 -1.962000000000e+01 0.0 
0.0 -1.962000000000e+01 0.0 
0.0 -1.962000000000e+01 0.0 
0.0 -1.962000000000e+01 0.0 
0.0 -1.962000000000e+01 0.0 
0.0 -1.962000000000e+01 0.0 
0.0 -1.962000000000e+01 0.0 
0.0 -1.962000000000e+01 0.0 
0.0 -1.962000000000e+01 0.0 
0.0 -1.962000000000e+01 0.0 
0.0 -1.962000000000e+01 0.0 
0.0 -1.962000000000e+01 0.0 
0.0 -1.962000000000e+01 0.0 
0.0 -1.962000000000e+01 0.0 
0.0 -1.962000000000e+01 0.0 
0.0 -1.962000000000e+01 0.0 
0.0 -1.962000000000e+01 0.0 
0.0 -1.962000000000e+01 0.0 
0.0 -1.962000000000e+01 0.0 
0.0 -1.962000000000e+01 0.0 
0.0 -1.962000000000e+01 0.0 
0.0 -1.962000000000e+01 0.0 
0.0 -1.962000000000e+01 0.0 
0.0 -1.962000000000e+01 0.0 
0.0 -1.962000000000e+01 0.0 
0.0 -1.962000000000e+01 0.0 
0.0 -1.962000000000e+01 0.0 
0.0 -1.962000000000e+01 0.0 
0.0 -1.962000000000e+01 0.0 
0.0 -1.962000000000e+01 0.0 
0.0 -1.962000000000e+01 0.0 
0.0 -1.962000000000e+01 0.0 
0.0 -1.962000000000e+01 0.0 
0.0 -1.962000000000e+01 0.0 
0.0 -1.962000000000e+01 0.0 
0.0 -1.962000000000e+01 0.0 
0.0 -1.962000000000e+01 0.0 
0.0 -1.962000000000e+01 0.0 
0.0 -1.962000000000e+01 0.0 
0.0 -1.962000000000e+01 0.0 
0.0 -1.962000000000e+01 0.0 
0.0 -1.962000000000e+01 0.0 
0.0 -1.962000000000e+01 0.0 
0.0 -1.962000000000e+01 0.0 
0.0 -1.962000000000e+01 0.0 
0.0 -1.962000000000e+01 0.0 
0.0 -1.962000000000e+01 0.0 
0.0 -1.962000000000e+01 0.0 
0.0 -1.962000000000e+01 0.0 
0.0 -1.962000000000e+01 0.0 
0.0 -1.962000000000e+01 0.0 
0.0 -1.962000000000e+01 0.0 
0.0 -1.962000000000e+01 0.0 
0.0 -1.962000000000e+01 0.0 
0.0 -1.962000000000e+01 0.0 
0.0 -1.962000000000e+01 0.0 
0.0 -1.962000000000e+01 0.0 
0.0 -1.962000000000e+01 0.0 
0.0 -1.962000000000e+01 0.0 
0.0 -1.962000000000e+01 0.0 
0.0 -1.962000000000e+01 0.0 
0.0 -1.962000000000e+01 0.0 
0.0 -1.962000000000e+01 0.0 
0.0 -1.962000000000e+01 0.0 
0.0 -1.962000000000e+01 0.0 
0.0 -1.962000000000e+01 0.0 
0.0 -1.962000000000e+01 0.0 
0.0 -1.962000000000e+01 0.0 
0.0 -1.962000000000e+01 0.0 
0.0 -1.962000000000e+01 0.0 
0.0 -1.962000000000e+01 0.0 
0.0 -1.962000000000e+01 0.0 
0.0 -1.962000000000e+01 0.0 
0.0 -1.962000000000e+01 0.0 
0.0 -1.962000000000e+01 0.0 
0.0 -1.962000000000e+01 0.0 
0.0 -1.962000000000e+01 0.0 
0.0 -1.962000000000e+01 0.0 
0.0 -1.962000000000e+01 0.0 
0.0 -1.962000000000e+01 0.0 
0.0 -1.962000000000e+01 0.0 
0.0 -1.962000000000e+01 0.0 
0.0 -1.962000000000e+01 0.0 
0.0 -1.962000000000e+01 0.0 
0.0 -1.962000000000e+01 0.0 
0.0 -1.962000000000e+01 0.0 
0.0 -1.962000000000e+01 0.0 
0.0 -1.962000000000e+01 0.0 
0.0 -1.962000000000e+01 0.0 
0.0 -1.962000000000e+01 0.0 
0.0 -1.962000000000e+01 0.0 
0.0 -1.962000000000e+01 0.0 
0.0 -1.962000000000e+01 0.0 
0.0 -1.962000000000e+01 0.0 
0.0 -1.962000000000e+01 0.0 
0.0 -1.962000000000e+01 0.0 
0.0 -1.962000000000e+01 0.0 
0.0 -1.962000000000e+01 0.0 
0.0 -1.962000000000e+01 0.0 
0.0 -1.962000000000e+01 0.0 
0.0 -1.962000000000e+01 0.0 
0.0 -1.962000000000e+01 0.0 
0.0 -1.962000000000e+01 0.0 
0.0 -1.962000000000e+01 0.0 
0.0 -1.962000000000e+01 0.0 
0.0 -1.962000000000e+01 0.0 
0.0 -1.962000000000e+01 0.0 
0.0 -1.962000000000e+01 0.0 
0.0 -1.962000000000e+01 0.0 
0.0 -1.962000000000e+01 0.0 
0.0 -1.962000000000e+01 0.0 
0.0 -1.962000000000e+01 0.0 
0.0 -1.962000000000e+01 0.0 
0.0 -1.962000000000e+01 0.0 
0.0 -1.962000000000e+01 0.0 
0.0 -1.962000000000e+01 0.0 
0.0 -1.962000000000e+01 0.0 
0.0 -1.962000000000e+01 0.0 
0.0 -1.962000000000e+01 0.0 
0.0 -1.962000000000e+01 0.0 
0.0 -1.962000000000e+01 0.0 
0.0 -1.962000000000e+01 0.0 
0.0 -1.962000000000e+01 0.0 
0.0 -1.962000000000e+01 0.0 
0.0 -1.962000000000e+01 0.0 
0.0 -1.962000000000e+01 0.0 
0.0 -1.962000000000e+01 0.0 
0.0 -1.962000000000e+01 0.0 
0.0 -1.962000000000e+01 0.0 
0.0 -1.962000000000e+01 0.0 
0.0 -1.962000000000e+01 0.0 
0.0 -1.962000000000e+01 0.0 
0.0 -1.962000000000e+01 0.0 
0.0 -1.962000000000e+01 0.0 
0.0 -1.962000000000e+01 0.0 
0.0 -1.962000000000e+01 0.0 
0.0 -1.962000000000e+01 0.0 
0.0 -1.962000000000e+01 0.0 
0.0 -1.962000000000e+01 0.0 
0.0 -1.962000000000e+01 0.0 
0.0 -1.962000000000e+01 0.0 
0.0 -1.962000000000e+01 0.0 
0.0 -1.962000000000e+01 0.0 
0.0 -1.962000000000e+01 0.0 
0.0 -1.962000000000e+01 0.0 
0.0 -1.962000000000e+01 0.0 
0.0 -1.962000000000e+01 0.0 
0.0 -1.962000000000e+01 0.0 
0.0 -1.962000000000e+01 0.0 
0.0 -1.962000000000e+01 0.0 
0.0 -1.962000000000e+01 0.0 
0.0 -1.962000000000e+01 0.0 
0.0 -1.962000000000e+01 0.0 
0.0 -1.962000000000e+01 0.0 
0.0 -1.962000000000e+01 0.0 
0.0 -1.962000000000e+01 0.0 
0.0 -1.962000000000e+01 0.0 
0.0 -1.962000000000e+01 0.0 
0.0 -1.962000000000e+01 0.0 
0.0 -1.962000000000e+01 0.0 
0.0 -1.962000000000e+01 0.0 
0.0 -1.962000000000e+01 0.0 
0.0 -1.962000000000e+01 0.0 
0.0 -1.962000000000e+01 0.0 
0.0 -1.962000000000e+01 0.0 
0.0 -1.962000000000e+01 0.0 
0.0 -1.962000000000e+01 0.0 
0.0 -1.962000000000e+01 0.0 
0.0 -1.962000000000e+01 0.0 
0.0 -1.962000000000e+01 0.0 
0.0 -1.962000000000e+01 0.0 
0.0 -1.962000000000e+01 0.0 
0.0 -1.962000000000e+01 0.0 
0.0 -1.962000000000e+01 0.0 
0.0 -1.962000000000e+01 0.0 
0.0 -1.962000000000e+01 0.0 
0.0 -1.962000000000e+01 0.0 
0.0 -1.962000000000e+01 0.0 
0.0 -1.962000000000e+01 0.0 
0.0 -1.962000000000e+01 0.0 
0.0 -1.962000000000e+01 0.0 
0.0 -1.962000000000e+01 0.0 
0.0 -1.962000000000e+01 0.0 
0.0 -1.962000000000e+01 0.0 
0.0 -1.962000000000e+01 0.0 
0.0 -1.962000000000e+01 0.0 
0.0 -1.962000000000e+01 0.0 
0.0 -1.962000000000e+01 0.0 
0.0 -1.962000000000e+01 0.0 
0.0 -1.962000000000e+01 0.0 
0.0 -1.962000000000e+01 0.0 
0.0 -1.962000000000e+01 0.0 
0.0 -1.962000000000e+01 0.0 
0.0 -1.962000000000e+01 0.0 
0.0 -1.962000000000e+01 0.0 
0.0 -1.962000000000e+01 0.0 
0.0 -1.962000000000e+01 0.0 
0.0 -1.962000000000e+01 0.0 
0.0 -1.962000000000e+01 0.0 
0.0 -1.962000000000e+01 0.0 
0.0 -1.962000000000e+01 0.0 
0.0 -1.962000000000e+01 0.0 
0.0 -1.962000000000e+01 0.0 
0.0 -1.962000000000e+01 0.0 
0.0 -1.962000000000e+01 0.0 
0.0 -1.962000000000e+01 0.0 
0.0 -1.962000000000e+01 0.0 
0.0 -1.962000000000e+01 0.0 
0.0 -1.962000000000e+01 0.0 
0.0 -1.962000000000e+01 0.0 
0.0 -1.962000000000e+01 0.0 
0.0 -1.962000000000e+01 0.0 
0.0 -1.962000000000e+01 0.0 
0.0 -1.962000000000e+01 0.0 
0.0 -1.962000000000e+01 0.0 
0.0 -1.962000000000e+01 0.0 
0.0 -1.962000000000e+01 0.0 
0.0 -1.962000000000e+01 0.0 
0.0 -1.962000000000e+01 0.0 
0.0 -1.962000000000e+01 0.0 
0.0 -1.962000000000e+01 0.0 
0.0 -1.962000000000e+01 0.0 
0.0 -1.962000000000e+01 0.0 
0.0 -1.962000000000e+01 0.0 
0.0 -1.962000000000e+01 0.0 
0.0 -1.962000000000e+01 0.0 
0.0 -1.962000000000e+01 0.0 
0.0 -1.962000000000e+01 0.0 
0.0 -1.962000000000e+01 0.0 
0.0 -1.962000000000e+01 0.0 
0.0 -1.962000000000e+01 0.0 
0.0 -1.962000000000e+01 0.0 
0.0 -1.962000000000e+01 0.0 
0.0 -1.962000000000e+01 0.0 
0.0 -1.962000000000e+01 0.0 
0.0 -1.962000000000e+01 0.0 
0.0 -1.962000000000e+01 0.0 
0.0 -1.962000000000e+01 0.0 
0.0 -1.962000000000e+01 0.0 
0.0 -1.962000000000e+01 0.0 
0.0 -1.962000000000e+01 0.0 
0.0 -1.962000000000e+01 0.0 
0.0 -1.962000000000e+01 0.0 
0.0 -1.962000000000e+01 0.0 
0.0 -1.962000000000e+01 0.0 
0.0 -1.962000000000e+01 0.0 
0.0 -1.962000000000e+01 0.0 
0.0 -1.962000000000e+01 0.0 
0.0 -1.962000000000e+01 0.0 
0.0 -1.962000000000e+01 0.0 
0.0 -1.962000000000e+01 0.0 
0.0 -1.962000000000e+01 0.0 
0.0 -1.962000000000e+01 0.0 
0.0 -1.962000000000e+01 0.0 
0.0 -1.962000000000e+01 0.0 
0.0 -1.962000000000e+01 0.0 
0.0 -1.962000000000e+01 0.0 
0.0 -1.962000000000e+01 0.0 
0.0 -1.962000000000e+01 0.0 
0.0 -1.962000000000e+01 0.0 
0.0 -1.962000000000e+01 0.0 
0.0 -1.962000000000e+01 0.0 
0.0 -1.962000000000e+01 0.0 
0.0 -1.962000000000e+01 0.0 
0.0 -1.962000000000e+01 0.0 
0.0 -1.962000000000e+01 0.0 
0.0 -1.962000000000e+01 0.0 
0.0 -1.962000000000e+01 0.0 
0.0 -1.962000000000e+01 0.0 
0.0 -1.962000000000e+01 0.0 
0.0 -1.962000000000e+01 0.0 
0.0 -1.962000000000e+01 0.0 
0.0 -1.962000000000e+01 0.0 
0.0 -1.962000000000e+01 0.0 
0.0 -1.962000000000e+01 0.0 
0.0 -1.962000000000e+01 0.0 
0.0 -1.962000000000e+01 0.0 
0.0 -1.962000000000e+01 0.0 
0.0 -1.962000000000e+01 0.0 
0.0 -1.962000000000e+01 0.0 
0.0 -1.962000000000e+01 0.0 
0.0 -1.962000000000e+01 0.0 
0.0 -1.962000000000e+01 0.0 
0.0 -1.962000000000e+01 0.0 
0.0 -1.962000000000e+01 0.0 
0.0 -1.962000000000e+01 0.0 
0.0 -1.962000000000e+01 0.0 
0.0 -1.962000000000e+01 0.0 
0.0 -1.962000000000e+01 0.0 
0.0 -1.962000000000e+01 0.0 
0.0 -1.962000000000e+01 0.0 
0.0 -1.962000000000e+01 0.0 
0.0 -1.962000000000e+01 0.0 
0.0 -1.962000000000e+01 0.0 
0.0 -1.962000000000e+01 0.0 
0.0 -1.962000000000e+01 0.0 
0.0 -1.962000000000e+01 0.0 
0.0 -1.962000000000e+01 0.0 
0.0 -1.962000000000e+01 0.0 
0.0 -1.962000000000e+01 0.0 
0.0 -1.962000000000e+01 0.0 
0.0 -1.962000000000e+01 0.0 
0.0 -1.962000000000e+01 0.0 
0.0 -1.962000000000e+01 0.0 
0.0 -1.962000000000e+01 0.0 
0.0 -1.962000000000e+01 0.0 
0.0 -1.962000000000e+01 0.0 
0.0 -1.962000000000e+01 0.0 
0.0 -1.962000000000e+01 0.0 
0.0 -1.962000000000e+01 0.0 
0.0 -1.962000000000e+01 0.0 
0.0 -1.962000000000e+01 0.0 
0.0 -1.962000000000e+01 0.0 
0.0 -1.962000000000e+01 0.0 
0.0 -1.962000000000e+01 0.0 
0.0 -1.962000000000e+01 0.0 
0.0 -1.962000000000e+01 0.0 
0.0 -1.962000000000e+01 0.0 
0.0 -1.962000000000e+01 0.0 
0.0 -1.962000000000e+01 0.0 
0.0 -1.962000000000e+01 0.0 
0.0 -1.962000000000e+01 0.0 
0.0 -1.962000000000e+01 0.0 
0.0 -1.962000000000e+01 0.0 
0.0 -1.962000000000e+01 0.0 
0.0 -1.962000000000e+01 0.0 
0.0 -1.962000000000e+01 0.0 
0.0 -1.962000000000e+01 0.0 
0.0 -1.962000000000e+01 0.0 
0.0 -1.962000000000e+01 0.0 
0.0 -1.962000000000e+01 0.0 
0.0 -1.962000000000e+01 0.0 
0.0 -1.962000000000e+01 0.0 
0.0 -1.962000000000e+01 0.0 
0.0 -1.962000000000e+01 0.0 
0.0 -1.962000000000e+01 0.0 
0.0 -1.962000000000e+01 0.0 
0.0 -1.962000000000e+01 0.0 
0.0 -1.962000000000e+01 0.0 
0.0 -1.962000000000e+01 0.0 
0.0 -1.962000000000e+01 0.0 
0.0 -1.962000000000e+01 0.0 
0.0 -1.962000000000e+01 0.0 
0.0 -1.962000000000e+01 0.0 
0.0 -1.962000000000e+01 0.0 
0.0 -1.962000000000e+01 0.0 
0.0 -1.962000000000e+01 0.0 
0.0 -1.962000000000e+01 0.0 
0.0 -1.962000000000e+01 0.0 
0.0 -1.962000000000e+01 0.0 
0.0 -1.962000000000e+01 0.0 
0.0 -1.962000000000e+01 0.0 
0.0 -1.962000000000e+01 0.0 
0.0 -1.962000000000e+01 0.0 
0.0 -1.962000000000e+01 0.0 
0.0 -1.962000000000e+01 0.0 
0.0 -1.962000000000e+01 0.0 
0.0 -1.962000000000e+01 0.0 
0.0 -1.962000000000e+01 0.0 
0.0 -1.962000000000e+01 0.0 
0.0 -1.962000000000e+01 0.0 
0.0 -1.962000000000e+01 0.0 
0.0 -1.962000000000e+01 0.0 
0.0 -1.962000000000e+01 0.0 
0.0 -1.962000000000e+01 0.0 
0.0 -1.962000000000e+01 0.0 
0.0 -1.962000000000e+01 0.0 
0.0 -1.962000000000e+01 0.0 
0.0 -1.962000000000e+01 0.0 
0.0 -1.962000000000e+01 0.0 
0.0 -1.962000000000e+01 0.0 
0.0 -1.962000000000e+01 0.0 
0.0 -1.962000000000e+01 0.0 
0.0 -1.962000000000e+01 0.0 
0.0 -1.962000000000e+01 0.0 
0.0 -1.962000000000e+01 0.0 
0.0 -1.962000000000e+01 0.0 
0.0 -1.962000000000e+01 0.0 
0.0 -1.962000000000e+01 0.0 
0.0 -1.962000000000e+01 0.0 
0.0 -1.962000000000e+01 0.0 
0.0 -1.962000000000e+01 0.0 
0.0 -1.962000000000e+01 0.0 
0.0 -1.962000000000e+01 0.0 
0.0 -1.962000000000e+01 0.0 
0.0 -1.962000000000e+01 0.0 
0.0 -1.962000000000e+01 0.0 
0.0 -1.962000000000e+01 0.0 
0.0 -1.962000000000e+01 0.0 
0.0 -1.962000000000e+01 0.0 
0.0 -1.962000000000e+01 0.0 
0.0 -1.962000000000e+01 0.0 
0.0 -1.962000000000e+01 0.0 
0.0 -1.962000000000e+01 0.0 
0.0 -1.962000000000e+01 0.0 
0.0 -1.962000000000e+01 0.0 
0.0 -1.962000000000e+01 0.0 
0.0 -1.962000000000e+01 0.0 
0.0 -1.962000000000e+01 0.0 
0.0 -1.962000000000e+01 0.0 
0.0 -1.962000000000e+01 0.0 
0.0 -1.962000000000e+01 0.0 
0.0 -1.962000000000e+01 0.0 
0.0 -1.962000000000e+01 0.0 
0.0 -1.962000000000e+01 0.0 
0.0 -1.962000000000e+01 0.0 
0.0 -1.962000000000e+01 0.0 
0.0 -1.962000000000e+01 0.0 
0.0 -1.962000000000e+01 0.0 
0.0 -1.962000000000e+01 0.0 
0.0 -1.962000000000e+01 0.0 
0.0 -1.962000000000e+01 0.0 
0.0 -1.962000000000e+01 0.0 
0.0 -1.962000000000e+01 0.0 
0.0 -1.962000000000e+01 0.0 
0.0 -1.962000000000e+01 0.0 
0.0 -1.962000000000e+01 0.0 
0.0 -1.962000000000e+01 0.0 
0.0 -1.962000000000e+01 0.0 
0.0 -1.962000000000e+01 0.0 
0.0 -1.962000000000e+01 0.0 
0.0 -1.962000000000e+01 0.0 
0.0 -1.962000000000e+01 0.0 
0.0 -1.962000000000e+01 0.0 
0.0 -1.962000000000e+01 0.0 
0.0 -1.962000000000e+01 0.0 
0.0 -1.962000000000e+01 0.0 
0.0 -1.962000000000e+01 0.0 
0.0 -1.962000000000e+01 0.0 
0.0 -1.962000000000e+01 0.0 
0.0 -1.962000000000e+01 0.0 
0.0 -1.962000000000e+01 0.0 
0.0 -1.962000000000e+01 0.0 
0.0 -1.962000000000e+01 0.0 
0.0 -1.962000000000e+01 0.0 
0.0 -1.962000000000e+01 0.0 
0.0 -1.962000000000e+01 0.0 
0.0 -1.962000000000e+01 0.0 
0.0 -1.962000000000e+01 0.0 
0.0 -1.962000000000e+01 0.0 
0.0 -1.962000000000e+01 0.0 
0.0 -1.962000000000e+01 0.0 
0.0 -1.962000000000e+01 0.0 
0.0 -1.962000000000e+01 0.0 
0.0 -1.962000000000e+01 0.0 
0.0 -1.962000000000e+01 0.0 
0.0 -1.962000000000e+01 0.0 
0.0 -1.962000000000e+01 0.0 
0.0 -1.962000000000e+01 0.0 
0.0 -1.962000000000e+01 0.0 
0.0 -1.962000000000e+01 0.0 
0.0 -1.962000000000e+01 0.0 
0.0 -1.962000000000e+01 0.0 
0.0 -1.962000000000e+01 0.0 
0.0 -1.962000000000e+01 0.0 
0.0 -1.962000000000e+01 0.0 
0.0 -1.962000000000e+01 0.0 
0.0 -1.962000000000e+01 0.0 
0.0 -1.962000000000e+01 0.0 
0.0 -1.962000000000e+01 0.0 
0.0 -1.962000000000e+01 0.0 
0.0 -1.962000000000e+01 0.0 
0.0 -1.962000000000e+01 0.0 
0.0 -1.962000000000e+01 0.0 
0.0 -1.962000000000e+01 0.0 
0.0 -1.962000000000e+01 0.0 
0.0 -1.962000000000e+01 0.0 
0.0 -1.962000000000e+01 0.0 
0.0 -1.962000000000e+01 0.0 
0.0 -1.962000000000e+01 0.0 
0.0 -1.962000000000e+01 0.0 
0.0 -1.962000000000e+01 0.0 
0.0 -1.962000000000e+01 0.0 
0.0 -1.962000000000e+01 0.0 
0.0 -1.962000000000e+01 0.0 
0.0 -1.962000000000e+01 0.0 
0.0 -1.962000000000e+01 0.0 
0.0 -1.962000000000e+01 0.0 
0.0 -1.962000000000e+01 0.0 
0.0 -1.962000000000e+01 0.0 
0.0 -1.962000000000e+01 0.0 
0.0 -1.962000000000e+01 0.0 
0.0 -1.962000000000e+01 0.0 
0.0 -1.962000000000e+01 0.0 
0.0 -1.962000000000e+01 0.0 
0.0 -1.962000000000e+01 0.0 
0.0 -1.962000000000e+01 0.0 
0.0 -1.962000000000e+01 0.0 
0.0 -1.962000000000e+01 0.0 
0.0 -1.962000000000e+01 0.0 
0.0 -1.962000000000e+01 0.0 
0.0 -1.962000000000e+01 0.0 
0.0 -1.962000000000e+01 0.0 
0.0 -1.962000000000e+01 0.0 
0.0 -1.962000000000e+01 0.0 
0.0 -1.962000000000e+01 0.0 
0.0 -1.962000000000e+01 0.0 
0.0 -1.962000000000e+01 0.0 
0.0 -1.962000000000e+01 0.0 
0.0 -1.962000000000e+01 0.0 
0.0 -1.962000000000e+01 0.0 
0.0 -1.962000000000e+01 0.0 
0.0 -1.962000000000e+01 0.0 
0.0 -1.962000000000e+01 0.0 
0.0 -1.962000000000e+01 0.0 
0.0 -1.962000000000e+01 0.0 
0.0 -1.962000000000e+01 0.0 
0.0 -1.962000000000e+01 0.0 
0.0 -1.962000000000e+01 0.0 
0.0 -1.962000000000e+01 0.0 
0.0 -1.962000000000e+01 0.0 
0.0 -1.962000000000e+01 0.0 
0.0 -1.962000000000e+01 0.0 
0.0 -1.962000000000e+01 0.0 
0.0 -1.962000000000e+01 0.0 
0.0 -1.962000000000e+01 0.0 
0.0 -1.962000000000e+01 0.0 
0.0 -1.962000000000e+01 0.0 
0.0 -1.962000000000e+01 0.0 
0.0 -1.962000000000e+01 0.0 
0.0 -1.962000000000e+01 0.0 
0.0 -1.962000000000e+01 0.0 
0.0 -1.962000000000e+01 0.0 
0.0 -1.962000000000e+01 0.0 
0.0 -1.962000000000e+01 0.0 
0.0 -1.962000000000e+01 0.0 
0.0 -1.962000000000e+01 0.0 
0.0 -1.962000000000e+01 0.0 
0.0 -1.962000000000e+01 0.0 
0.0 -1.962000000000e+01 0.0 
0.0 -1.962000000000e+01 0.0 
0.0 -1.962000000000e+01 0.0 
0.0 -1.962000000000e+01 0.0 
0.0 -1.962000000000e+01 0.0 
0.0 -1.962000000000e+01 0.0 
0.0 -1.962000000000e+01 0.0 
0.0 -1.962000000000e+01 0.0 
0.0 -1.962000000000e+01 0.0 
0.0 -1.962000000000e+01 0.0 
0.0 -1.962000000000e+01 0.0 
0.0 -1.962000000000e+01 0.0 
0.0 -1.962000000000e+01 0.0 
0.0 -1.962000000000e+01 0.0 
0.0 -1.962000000000e+01 0.0 
0.0 -1.962000000000e+01 0.0 
0.0 -1.962000000000e+01 0.0 
0.0 -1.962000000000e+01 0.0 
0.0 -1.962000000000e+01 0.0 
0.0 -1.962000000000e+01 0.0 
0.0 -1.962000000000e+01 0.0 
0.0 -1.962000000000e+01 0.0 
0.0 -1.962000000000e+01 0.0 
0.0 -1.962000000000e+01 0.0 
0.0 -1.962000000000e+01 0.0 
0.0 -1.962000000000e+01 0.0 
0.0 -1.962000000000e+01 0.0 
0.0 -1.962000000000e+01 0.0 
0.0 -1.962000000000e+01 0.0 
0.0 -1.962000000000e+01 0.0 
0.0 -1.962000000000e+01 0.0 
0.0 -1.962000000000e+01 0.0 
0.0 -1.962000000000e+01 0.0 
0.0 -1.962000000000e+01 0.0 
0.0 -1.962000000000e+01 0.0 
0.0 -1.962000000000e+01 0.0 
0.0 -1.962000000000e+01 0.0 
0.0 -1.962000000000e+01 0.0 
0.0 -1.962000000000e+01 0.0 
0.0 -1.962000000000e+01 0.0 
0.0 -1.962000000000e+01 0.0 
0.0 -1.962000000000e+01 0.0 
0.0 -1.962000000000e+01 0.0 
0.0 -1.962000000000e+01 0.0 
0.0 -1.962000000000e+01 0.0 
0.0 -1.962000000000e+01 0.0 
0.0 -1.962000000000e+01 0.0 
0.0 -1.962000000000e+01 0.0 
0.0 -1.962000000000e+01 0.0 
0.0 -1.962000000000e+01 0.0 
0.0 -1.962000000000e+01 0.0 
0.0 -1.962000000000e+01 0.0 
0.0 -1.962000000000e+01 0.0 
0.0 -1.962000000000e+01 0.0 
0.0 -1.962000000000e+01 0.0 
0.0 -1.962000000000e+01 0.0 
0.0 -1.962000000000e+01 0.0 
0.0 -1.962000000000e+01 0.0 
0.0 -1.962000000000e+01 0.0 
0.0 -1.962000000000e+01 0.0 
0.0 -1.962000000000e+01 0.0 
0.0 -1.962000000000e+01 0.0 
0.0 -1.962000000000e+01 0.0 
0.0 -1.962000000000e+01 0.0 
0.0 -1.962000000000e+01 0.0 
0.0 -1.962000000000e+01 0.0 
0.0 -1.962000000000e+01 0.0 
0.0 -1.962000000000e+01 0.0 
0.0 -1.962000000000e+01 0.0 
0.0 -1.962000000000e+01 0.0 
0.0 -1.962000000000e+01 0.0 
0.0 -1.962000000000e+01 0.0 
0.0 -1.962000000000e+01 0.0 
0.0 -1.962000000000e+01 0.0 
0.0 -1.962000000000e+01 0.0 
0.0 -1.962000000000e+01 0.0 
0.0 -1.962000000000e+01 0.0 
0.0 -1.962000000000e+01 0.0 
0.0 -1.962000000000e+01 0.0 
0.0 -1.962000000000e+01 0.0 
0.0 -1.962000000000e+01 0.0 
0.0 -1.962000000000e+01 0.0 
0.0 -1.962000000000e+01 0.0 
0.0 -1.962000000000e+01 0.0 
0.0 -1.962000000000e+01 0.0 
0.0 -1.962000000000e+01 0.0 
0.0 -1.962000000000e+01 0.0 
0.0 -1.962000000000e+01 0.0 
0.0 -1.962000000000e+01 0.0 
0.0 -1.962000000000e+01 0.0 
0.0 -1.962000000000e+01 0.0 
0.0 -1.962000000000e+01 0.0 
0.0 -1.962000000000e+01 0.0 
0.0 -1.962000000000e+01 0.0 
0.0 -1.962000000000e+01 0.0 
0.0 -1.962000000000e+01 0.0 
0.0 -1.962000000000e+01 0.0 
0.0 -1.962000000000e+01 0.0 
0.0 -1.962000000000e+01 0.0 
0.0 -1.962000000000e+01 0.0 
0.0 -1.962000000000e+01 0.0 
0.0 -1.962000000000e+01 0.0 
0.0 -1.962000000000e+01 0.0 
0.0 -1.962000000000e+01 0.0 
0.0 -1.962000000000e+01 0.0 
0.0 -1.962000000000e+01 0.0 
0.0 -1.962000000000e+01 0.0 
0.0 -1.962000000000e+01 0.0 
0.0 -1.962000000000e+01 0.0 
0.0 -1.962000000000e+01 0.0 
0.0 -1.962000000000e+01 0.0 
0.0 -1.962000000000e+01 0.0 
0.0 -1.962000000000e+01 0.0 
0.0 -1.962000000000e+01 0.0 
0.0 -1.962000000000e+01 0.0 
0.0 -1.962000000000e+01 0.0 
0.0 -1.962000000000e+01 0.0 
0.0 -1.962000000000e+01 0.0 
0.0 -1.962000000000e+01 0.0 
0.0 -1.962000000000e+01 0.0 
0.0 -1.962000000000e+01 0.0 
0.0 -1.962000000000e+01 0.0 
0.0 -1.962000000000e+01 0.0 
0.0 -1.962000000000e+01 0.0 
0.0 -1.962000000000e+01 0.0 
0.0 -1.962000000000e+01 0.0 
0.0 -1.962000000000e+01 0.0 
0.0 -1.962000000000e+01 0.0 
0.0 -1.962000000000e+01 0.0 
0.0 -1.962000000000e+01 0.0 
0.0 -1.962000000000e+01 0.0 
0.0 -1.962000000000e+01 0.0 
0.0 -1.962000000000e+01 0.0 
0.0 -1.962000000000e+01 0.0 
0.0 -1.962000000000e+01 0.0 
0.0 -1.962000000000e+01 0.0 
0.0 -1.962000000000e+01 0.0 
0.0 -1.962000000000e+01 0.0 
0.0 -1.962000000000e+01 0.0 
0.0 -1.962000000000e+01 0.0 
0.0 -1.962000000000e+01 0.0 
0.0 -1.962000000000e+01 0.0 
0.0 -1.962000000000e+01 0.0 
0.0 -1.962000000000e+01 0.0 
0.0 -1.962000000000e+01 0.0 
0.0 -1.962000000000e+01 0.0 
0.0 -1.962000000000e+01 0.0 
0.0 -1.962000000000e+01 0.0 
0.0 -1.962000000000e+01 0.0 
0.0 -1.962000000000e+01 0.0 
0.0 -1.962000000000e+01 0.0 
0.0 -1.962000000000e+01 0.0 
0.0 -1.962000000000e+01 0.0 
0.0 -1.962000000000e+01 0.0 
0.0 -1.962000000000e+01 0.0 
0.0 -1.962000000000e+01 0.0 
0.0 -1.962000000000e+01 0.0 
0.0 -1.962000000000e+01 0.0 
0.0 -1.962000000000e+01 0.0 
0.0 -1.962000000000e+01 0.0 
0.0 -1.962000000000e+01 0.0 
0.0 -1.962000000000e+01 0.0 
0.0 -1.962000000000e+01 0.0 
0.0 -1.962000000000e+01 0.0 
0.0 -1.962000000000e+01 0.0 
0.0 -1.962000000000e+01 0.0 
0.0 -1.962000000000e+01 0.0 
0.0 -1.962000000000e+01 0.0 
0.0 -1.962000000000e+01 0.0 
0.0 -1.962000000000e+01 0.0 
0.0 -1.962000000000e+01 0.0 
0.0 -1.962000000000e+01 0.0 
0.0 -1.962000000000e+01 0.0 
0.0 -1.962000000000e+01 0.0 
0.0 -1.962000000000e+01 0.0 
0.0 -1.962000000000e+01 0.0 
0.0 -1.962000000000e+01 0.0 
0.0 -1.962000000000e+01 0.0 
0.0 -1.962000000000e+01 0.0 
0.0 -1.962000000000e+01 0.0 
0.0 -1.962000000000e+01 0.0 
0.0 -1.962000000000e+01 0.0 
0.0 -1.962000000000e+01 0.0 
0.0 -1.962000000000e+01 0.0 
0.0 -1.962000000000e+01 0.0 
0.0 -1.962000000000e+01 0.0 
0.0 -1.962000000000e+01 0.0 
0.0 -1.962000000000e+01 0.0 
0.0 -1.962000000000e+01 0.0 
0.0 -1.962000000000e+01 0.0 
0.0 -1.962000000000e+01 0.0 
0.0 -1.962000000000e+01 0.0 
0.0 -1.962000000000e+01 0.0 
0.0 -1.962000000000e+01 0.0 
0.0 -1.962000000000e+01 0.0 
0.0 -1.962000000000e+01 0.0 
0.0 -1.962000000000e+01 0.0 
0.0 -1.962000000000e+01 0.0 
0.0 -1.962000000000e+01 0.0 
0.0 -1.962000000000e+01 0.0 
0.0 -1.962000000000e+01 0.0 
0.0 -1.962000000000e+01 0.0 
0.0 -1.962000000000e+01 0.0 
0.0 -1.962000000000e+01 0.0 
0.0 -1.962000000000e+01 0.0 
0.0 -1.962000000000e+01 0.0 
0.0 -1.962000000000e+01 0.0 
0.0 -1.962000000000e+01 0.0 
0.0 -1.962000000000e+01 0.0 
0.0 -1.962000000000e+01 0.0 
0.0 -1.962000000000e+01 0.0 
0.0 -1.962000000000e+01 0.0 
0.0 -1.962000000000e+01 0.0 
0.0 -1.962000000000e+01 0.0 
0.0 -1.962000000000e+01 0.0 
0.0 -1.962000000000e+01 0.0 
0.0 -1.962000000000e+01 0.0 
0.0 -1.962000000000e+01 0.0 
0.0 -1.962000000000e+01 0.0 
0.0 -1.962000000000e+01 0.0 
0.0 -1.962000000000e+01 0.0 
0.0 -1.962000000000e+01 0.0 
0.0 -1.962000000000e+01 0.0 
0.0 -1.962000000000e+01 0.0 
0.0 -1.962000000000e+01 0.0 
0.0 -1.962000000000e+01 0.0 
0.0 -1.962000000000e+01 0.0 
0.0 -1.962000000000e+01 0.0 
0.0 -1.962000000000e+01 0.0 
0.0 -1.962000000000e+01 0.0 
0.0 -1.962000000000e+01 0.0 
0.0 -1.962000000000e+01 0.0 
0.0 -1.962000000000e+01 0.0 
0.0 -1.962000000000e+01 0.0 
0.0 -1.962000000000e+01 0.0 
0.0 -1.962000000000e+01 0.0 
0.0 -1.962000000000e+01 0.0 
0.0 -1.962000000000e+01 0.0 
0.0 -1.962000000000e+01 0.0 
0.0 -1.962000000000e+01 0.0 
0.0 -1.962000000000e+01 0.0 
0.0 -1.962000000000e+01 0.0 
0.0 -1.962000000000e+01 0.0 
0.0 -1.962000000000e+01 0.0 
0.0 -1.962000000000e+01 0.0 
0.0 -1.962000000000e+01 0.0 
0.0 -1.962000000000e+01 0.0 
0.0 -1.962000000000e+01 0.0 
0.0 -1.962000000000e+01 0.0 
0.0 -1.962000000000e+01 0.0 
0.0 -1.962000000000e+01 0.0 
0.0 -1.962000000000e+01 0.0 
0.0 -1.962000000000e+01 0.0 
0.0 -1.962000000000e+01 0.0 
0.0 -1.962000000000e+01 0.0 
0.0 -1.962000000000e+01 0.0 
0.0 -1.962000000000e+01 0.0 
0.0 -1.962000000000e+01 0.0 
0.0 -1.962000000000e+01 0.0 
0.0 -1.962000000000e+01 0.0 
0.0 -1.962000000000e+01 0.0 
0.0 -1.962000000000e+01 0.0 
0.0 -1.962000000000e+01 0.0 
0.0 -1.962000000000e+01 0.0 
0.0 -1.962000000000e+01 0.0 
0.0 -1.962000000000e+01 0.0 
0.0 -1.962000000000e+01 0.0 
0.0 -1.962000000000e+01 0.0 
0.0 -1.962000000000e+01 0.0 
0.0 -1.962000000000e+01 0.0 
0.0 -1.962000000000e+01 0.0 
0.0 -1.962000000000e+01 0.0 
0.0 -1.962000000000e+01 0.0 
0.0 -1.962000000000e+01 0.0 
0.0 -1.962000000000e+01 0.0 
0.0 -1.962000000000e+01 0.0 
0.0 -1.962000000000e+01 0.0 
0.0 -1.962000000000e+01 0.0 
0.0 -1.962000000000e+01 0.0 
0.0 -1.962000000000e+01 0.0 
0.0 -1.962000000000e+01 0.0 
0.0 -1.962000000000e+01 0.0 
0.0 -1.962000000000e+01 0.0 
0.0 -1.962000000000e+01 0.0 
0.0 -1.962000000000e+01 0.0 
0.0 -1.962000000000e+01 0.0 
0.0 -1.962000000000e+01 0.0 
0.0 -1.962000000000e+01 0.0 
0.0 -1.962000000000e+01 0.0 
0.0 -1.962000000000e+01 0.0 
0.0 -1.962000000000e+01 0.0 
0.0 -1.962000000000e+01 0.0 
0.0 -1.962000000000e+01 0.0 
0.0 -1.962000000000e+01 0.0 
0.0 -1.962000000000e+01 0.0 
0.0 -1.962000000000e+01 0.0 
0.0 -1.962000000000e+01 0.0 
0.0 -1.962000000000e+01 0.0 
0.0 -1.962000000000e+01 0.0 
0.0 -1.962000000000e+01 0.0 
0.0 -1.962000000000e+01 0.0 
0.0 -1.962000000000e+01 0.0 
0.0 -1.962000000000e+01 0.0 
0.0 -1.962000000000e+01 0.0 
0.0 -1.962000000000e+01 0.0 
0.0 -1.962000000000e+01 0.0 
0.0 -1.962000000000e+01 0.0 
0.0 -1.962000000000e+01 0.0 
0.0 -1.962000000000e+01 0.0 
0.0 -1.962000000000e+01 0.0 
0.0 -1.962000000000e+01 0.0 
0.0 -1.962000000000e+01 0.0 
0.0 -1.962000000000e+01 0.0 
0.0 -1.962000000000e+01 0.0 
0.0 -1.962000000000e+01 0.0 
0.0 -1.962000000000e+01 0.0 
0.0 -1.962000000000e+01 0.0 
0.0 -1.962000000000e+01 0.0 
0.0 -1.962000000000e+01 0.0 
0.0 -1.962000000000e+01 0.0 
0.0 -1.962000000000e+01 0.0 
0.0 -1.962000000000e+01 0.0 
0.0 -1.962000000000e+01 0.0 
0.0 -1.962000000000e+01 0.0 
0.0 -1.962000000000e+01 0.0 
0.0 -1.962000000000e+01 0.0 
0.0 -1.962000000000e+01 0.0 
0.0 -1.962000000000e+01 0.0 
0.0 -1.962000000000e+01 0.0 
0.0 -1.962000000000e+01 0.0 
0.0 -1.962000000000e+01 0.0 
0.0 -1.962000000000e+01 0.0 
0.0 -1.962000000000e+01 0.0 
0.0 -1.962000000000e+01 0.0 
0.0 -1.962000000000e+01 0.0 
0.0 -1.962000000000e+01 0.0 
0.0 -1.962000000000e+01 0.0 
0.0 -1.962000000000e+01 0.0 
0.0 -1.962000000000e+01 0.0 
0.0 -1.962000000000e+01 0.0 
0.0 -1.962000000000e+01 0.0 
0.0 -1.962000000000e+01 0.0 
0.0 -1.962000000000e+01 0.0 
0.0 -1.962000000000e+01 0.0 
0.0 -1.962000000000e+01 0.0 
0.0 -1.962000000000e+01 0.0 
0.0 -1.962000000000e+01 0.0 
0.0 -1.962000000000e+01 0.0 
0.0 -1.962000000000e+01 0.0 
0.0 -1.962000000000e+01 0.0 
0.0 -1.962000000000e+01 0.0 
0.0 -1.962000000000e+01 0.0 
0.0 -1.962000000000e+01 0.0 
0.0 -1.962000000000e+01 0.0 
0.0 -1.962000000000e+01 0.0 
0.0 -1.962000000000e+01 0.0 
0.0 -1.962000000000e+01 0.0 
0.0 -1.962000000000e+01 0.0 
0.0 -1.962000000000e+01 0.0 
0.0 -1.962000000000e+01 0.0 
0.0 -1.962000000000e+01 0.0 
0.0 -1.962000000000e+01 0.0 
0.0 -1.962000000000e+01 0.0 
0.0 -1.962000000000e+01 0.0 
0.0 -1.962000000000e+01 0.0 
0.0 -1.962000000000e+01 0.0 
0.0 -1.962000000000e+01 0.0 
0.0 -1.962000000000e+01 0.0 
0.0 -1.962000000000e+01 0.0 
0.0 -1.962000000000e+01 0.0 
0.0 -1.962000000000e+01 0.0 
0.0 -1.962000000000e+01 0.0 
0.0 -1.962000000000e+01 0.0 
0.0 -1.962000000000e+01 0.0 
0.0 -1.962000000000e+01 0.0 
0.0 -1.962000000000e+01 0.0 
0.0 -1.962000000000e+01 0.0 
0.0 -1.962000000000e+01 0.0 
0.0 -1.962000000000e+01 0.0 
0.0 -1.962000000000e+01 0.0 
0.0 -1.962000000000e+01 0.0 
0.0 -1.962000000000e+01 0.0 
0.0 -1.962000000000e+01 0.0 
0.0 -1.962000000000e+01 0.0 
0.0 -1.962000000000e+01 0.0 
0.0 -1.962000000000e+01 0.0 
0.0 -1.962000000000e+01 0.0 
0.0 -1.962000000000e+01 0.0 
0.0 -1.962000000000e+01 0.0 
0.0 -1.962000000000e+01 0.0 
0.0 -1.962000000000e+01 0.0 
0.0 -1.962000000000e+01 0.0 
0.0 -1.962000000000e+01 0.0 
0.0 -1.962000000000e+01 0.0 
0.0 -1.962000000000e+01 0.0 
0.0 -1.962000000000e+01 0.0 
0.0 -1.962000000000e+01 0.0 
0.0 -1.962000000000e+01 0.0 
0.0 -1.962000000000e+01 0.0 
0.0 -1.962000000000e+01 0.0 
0.0 -1.962000000000e+01 0.0 
0.0 -1.962000000000e+01 0.0 
0.0 -1.962000000000e+01 0.0 
0.0 -1.962000000000e+01 0.0 
0.0 -1.962000000000e+01 0.0 
0.0 -1.962000000000e+01 0.0 
0.0 -1.962000000000e+01 0.0 
0.0 -1.962000000000e+01 0.0 
0.0 -1.962000000000e+01 0.0 
0.0 -1.962000000000e+01 0.0 
0.0 -1.962000000000e+01 0.0 
0.0 -1.962000000000e+01 0.0 
0.0 -1.962000000000e+01 0.0 
0.0 -1.962000000000e+01 0.0 
0.0 -1.962000000000e+01 0.0 
0.0 -1.962000000000e+01 0.0 
0.0 -1.962000000000e+01 0.0 
0.0 -1.962000000000e+01 0.0 
0.0 -1.962000000000e+01 0.0 
0.0 -1.962000000000e+01 0.0 
0.0 -1.962000000000e+01 0.0 
0.0 -1.962000000000e+01 0.0 
0.0 -1.962000000000e+01 0.0 
0.0 -1.962000000000e+01 0.0 
0.0 -1.962000000000e+01 0.0 
0.0 -1.962000000000e+01 0.0 
0.0 -1.962000000000e+01 0.0 
0.0 -1.962000000000e+01 0.0 
0.0 -1.962000000000e+01 0.0 
0.0 -1.962000000000e+01 0.0 
0.0 -1.962000000000e+01 0.0 
0.0 -1.962000000000e+01 0.0 
0.0 -1.962000000000e+01 0.0 
0.0 -1.962000000000e+01 0.0 
0.0 -1.962000000000e+01 0.0 
0.0 -1.962000000000e+01 0.0 
0.0 -1.962000000000e+01 0.0 
0.0 -1.962000000000e+01 0.0 
0.0 -1.962000000000e+01 0.0 

VECTORS node_rhside_materi_fixed float
-1.674515347100e+00 0.0 0.0 
6.239015964016e+01 0.0 0.0 
-8.176618766149e+01 -1.954166278447e+02 0.0 
7.008152959426e+01 -1.676602534180e+02 0.0 
-7.615563441761e+00 0.0 0.0 
-1.572994120478e+01 0.0 0.0 
-2.241305292170e+01 0.0 0.0 
-3.084254606589e+01 0.0 0.0 
-3.822859576001e+01 0.0 0.0 
-4.592053994736e+01 0.0 0.0 
-5.365257404034e+01 0.0 0.0 
-6.141913023992e+01 0.0 0.0 
-6.926223371303e+01 0.0 0.0 
-7.713488113316e+01 0.0 0.0 
-8.557836792488e+01 0.0 0.0 
-9.405160097923e+01 0.0 0.0 
-1.021600286373e+02 0.0 0.0 
-1.110352305401e+02 0.0 0.0 
-1.198914007733e+02 0.0 0.0 
-1.289232253153e+02 0.0 0.0 
-1.381364241845e+02 0.0 0.0 
-1.474979952778e+02 0.0 0.0 
-1.574106624181e+02 0.0 0.0 
1.682259948479e-01 -3.342687251501e+02 0.0 
1.990397566590e-01 -3.353644442084e+02 0.0 
1.664882691221e+00 -3.346118093703e+02 0.0 
5.249278567966e-01 -3.347613810186e+02 0.0 
1.733244826210e+00 -3.354094532845e+02 0.0 
1.974201018842e+00 -3.348999716702e+02 0.0 
2.101675106513e+00 -3.354647991104e+02 0.0 
2.565864198937e+00 -3.359909441982e+02 0.0 
3.687935172051e+00 -3.355722423645e+02 0.0 
2.845010680923e+00 -3.360311256064e+02 0.0 
4.174318689946e+00 -3.370585521557e+02 0.0 
4.691319742438e+00 -3.368220904417e+02 0.0 
5.029317547160e+00 -3.379423689586e+02 0.0 
5.526179550889e+00 -3.383410875002e+02 0.0 
6.274369477122e+00 -3.390427817643e+02 0.0 
6.573447784840e+00 -3.403638631416e+02 0.0 
7.881807360360e+00 -3.413472532038e+02 0.0 
8.464009655442e+00 -3.426925616320e+02 0.0 
9.177216080750e+00 -3.440520538615e+02 0.0 
9.829538310023e+00 -3.453584540135e+02 0.0 
1.006392355661e+01 -3.471769593910e+02 0.0 
1.103944596613e+01 -3.494030820390e+02 0.0 
1.143570165433e+01 -3.512896739295e+02 0.0 
1.200273223062e+01 -3.534786816069e+02 0.0 
1.241852302695e+01 -3.560969496796e+02 0.0 
1.264123951551e+01 -3.583222247417e+02 0.0 
1.276104699396e+01 -3.606277066262e+02 0.0 
1.271034328126e+01 -3.633060024306e+02 0.0 
1.262138538592e+01 -3.660251334300e+02 0.0 
1.275235499591e+01 -3.682537747528e+02 0.0 
1.164571391030e+01 -3.703235618489e+02 0.0 
1.155276604887e+01 -3.733460509205e+02 0.0 
1.112090877522e+01 -3.750106119252e+02 0.0 
1.059222486019e+01 -3.772196940165e+02 0.0 
9.796877331375e+00 -3.790135945099e+02 0.0 
9.232626616910e+00 -3.805901152509e+02 0.0 
8.438025031813e+00 -3.823025117486e+02 0.0 
7.661536138072e+00 -3.835726944910e+02 0.0 
6.994575886963e+00 -3.847970307685e+02 0.0 
6.270236945347e+00 -3.862173440849e+02 0.0 
5.746548191928e+00 -3.868905686213e+02 0.0 
4.925898140492e+00 -3.876238233041e+02 0.0 
4.246024464268e+00 -3.880971678554e+02 0.0 
3.667415223204e+00 -3.894379437545e+02 0.0 
2.811271485433e+00 -3.891178989687e+02 0.0 
2.229248945701e+00 -3.901524217144e+02 0.0 
2.041572052007e+00 -3.898818461838e+02 0.0 
1.101080901805e+00 -3.903016064560e+02 0.0 
5.541012598122e-01 -3.902854810323e+02 0.0 
7.041459352053e+01 0.0 0.0 
7.911552329578e+01 0.0 0.0 
8.732573674627e+01 0.0 0.0 
9.535240620077e+01 0.0 0.0 
1.034228372380e+02 0.0 0.0 
1.117638788234e+02 0.0 0.0 
1.196193367873e+02 0.0 0.0 
1.271119922362e+02 0.0 0.0 
1.357704702122e+02 0.0 0.0 
0.0 0.0 0.0 
0.0 0.0 0.0 
0.0 0.0 0.0 
0.0 0.0 0.0 
0.0 0.0 0.0 
0.0 0.0 0.0 
0.0 0.0 0.0 
0.0 0.0 0.0 
0.0 0.0 0.0 
0.0 0.0 0.0 
0.0 0.0 0.0 
3.202879424239e+00 0.0 0.0 
1.228619168497e+01 0.0 0.0 
2.042843457114e+01 0.0 0.0 
2.880191888144e+01 0.0 0.0 
3.724496511256e+01 0.0 0.0 
4.570764884328e+01 0.0 0.0 
5.414231439577e+01 0.0 0.0 
0.0 0.0 0.0 
0.0 0.0 0.0 
0.0 0.0 0.0 
0.0 0.0 0.0 
0.0 0.0 0.0 
0.0 0.0 0.0 
0.0 0.0 0.0 
0.0 0.0 0.0 
0.0 0.0 0.0 
0.0 0.0 0.0 
0.0 0.0 0.0 
0.0 0.0 0.0 
0.0 0.0 0.0 
0.0 0.0 0.0 
0.0 0.0 0.0 
0.0 0.0 0.0 
0.0 0.0 0.0 
0.0 0.0 0.0 
0.0 0.0 0.0 
0.0 0.0 0.0 
0.0 0.0 0.0 
0.0 0.0 0.0 
0.0 0.0 0.0 
0.0 0.0 0.0 
0.0 0.0 0.0 
0.0 0.0 0.0 
0.0 0.0 0.0 
0.0 0.0 0.0 
0.0 0.0 0.0 
0.0 0.0 0.0 
0.0 0.0 0.0 
0.0 0.0 0.0 
0.0 0.0 0.0 
0.0 0.0 0.0 
0.0 0.0 0.0 
0.0 0.0 0.0 
0.0 0.0 0.0 
0.0 0.0 0.0 
0.0 0.0 0.0 
0.0 0.0 0.0 
0.0 0.0 0.0 
0.0 0.0 0.0 
0.0 0.0 0.0 
0.0 0.0 0.0 
0.0 0.0 0.0 
0.0 0.0 0.0 
0.0 0.0 0.0 
0.0 0.0 0.0 
0.0 0.0 0.0 
0.0 0.0 0.0 
0.0 0.0 0.0 
0.0 0.0 0.0 
0.0 0.0 0.0 
0.0 0.0 0.0 
0.0 0.0 0.0 
0.0 0.0 0.0 
0.0 0.0 0.0 
0.0 0.0 0.0 
0.0 0.0 0.0 
0.0 0.0 0.0 
0.0 0.0 0.0 
0.0 0.0 0.0 
0.0 0.0 0.0 
0.0 0.0 0.0 
0.0 0.0 0.0 
0.0 0.0 0.0 
0.0 0.0 0.0 
0.0 0.0 0.0 
0.0 0.0 0.0 
0.0 0.0 0.0 
0.0 0.0 0.0 
0.0 0.0 0.0 
0.0 0.0 0.0 
0.0 0.0 0.0 
0.0 0.0 0.0 
0.0 0.0 0.0 
0.0 0.0 0.0 
0.0 0.0 0.0 
0.0 0.0 0.0 
0.0 0.0 0.0 
0.0 0.0 0.0 
0.0 0.0 0.0 
0.0 0.0 0.0 
0.0 0.0 0.0 
0.0 0.0 0.0 
0.0 0.0 0.0 
0.0 0.0 0.0 
0.0 0.0 0.0 
0.0 0.0 0.0 
0.0 0.0 0.0 
0.0 0.0 0.0 
0.0 0.0 0.0 
0.0 0.0 0.0 
0.0 0.0 0.0 
0.0 0.0 0.0 
0.0 0.0 0.0 
0.0 0.0 0.0 
0.0 0.0 0.0 
0.0 0.0 0.0 
0.0 0.0 0.0 
0.0 0.0 0.0 
0.0 0.0 0.0 
0.0 0.0 0.0 
0.0 0.0 0.0 
0.0 0.0 0.0 
0.0 0.0 0.0 
0.0 0.0 0.0 
0.0 0.0 0.0 
0.0 0.0 0.0 
0.0 0.0 0.0 
0.0 0.0 0.0 
0.0 0.0 0.0 
0.0 0.0 0.0 
0.0 0.0 0.0 
0.0 0.0 0.0 
0.0 0.0 0.0 
0.0 0.0 0.0 
0.0 0.0 0.0 
0.0 0.0 0.0 
0.0 0.0 0.0 
0.0 0.0 0.0 
0.0 0.0 0.0 
0.0 0.0 0.0 
0.0 0.0 0.0 
0.0 0.0 0.0 
0.0 0.0 0.0 
0.0 0.0 0.0 
0.0 0.0 0.0 
0.0 0.0 0.0 
0.0 0.0 0.0 
0.0 0.0 0.0 
0.0 0.0 0.0 
0.0 0.0 0.0 
0.0 0.0 0.0 
0.0 0.0 0.0 
0.0 0.0 0.0 
0.0 0.0 0.0 
0.0 0.0 0.0 
0.0 0.0 0.0 
0.0 0.0 0.0 
0.0 0.0 0.0 
0.0 0.0 0.0 
0.0 0.0 0.0 
0.0 0.0 0.0 
0.0 0.0 0.0 
0.0 0.0 0.0 
0.0 0.0 0.0 
0.0 0.0 0.0 
0.0 0.0 0.0 
0.0 0.0 0.0 
0.0 0.0 0.0 
0.0 0.0 0.0 
0.0 0.0 0.0 
0.0 0.0 0.0 
0.0 0.0 0.0 
0.0 0.0 0.0 
0.0 0.0 0.0 
0.0 0.0 0.0 
0.0 0.0 0.0 
0.0 0.0 0.0 
0.0 0.0 0.0 
0.0 0.0 0.0 
0.0 0.0 0.0 
0.0 0.0 0.0 
0.0 0.0 0.0 
0.0 0.0 0.0 
0.0 0.0 0.0 
0.0 0.0 0.0 
0.0 0.0 0.0 
0.0 0.0 0.0 
0.0 0.0 0.0 
0.0 0.0 0.0 
0.0 0.0 0.0 
0.0 0.0 0.0 
0.0 0.0 0.0 
0.0 0.0 0.0 
0.0 0.0 0.0 
0.0 0.0 0.0 
0.0 0.0 0.0 
0.0 0.0 0.0 
0.0 0.0 0.0 
0.0 0.0 0.0 
0.0 0.0 0.0 
0.0 0.0 0.0 
0.0 0.0 0.0 
0.0 0.0 0.0 
0.0 0.0 0.0 
0.0 0.0 0.0 
0.0 0.0 0.0 
0.0 0.0 0.0 
0.0 0.0 0.0 
0.0 0.0 0.0 
0.0 0.0 0.0 
0.0 0.0 0.0 
0.0 0.0 0.0 
0.0 0.0 0.0 
0.0 0.0 0.0 
0.0 0.0 0.0 
0.0 0.0 0.0 
0.0 0.0 0.0 
0.0 0.0 0.0 
0.0 0.0 0.0 
0.0 0.0 0.0 
0.0 0.0 0.0 
0.0 0.0 0.0 
0.0 0.0 0.0 
0.0 0.0 0.0 
0.0 0.0 0.0 
0.0 0.0 0.0 
0.0 0.0 0.0 
0.0 0.0 0.0 
0.0 0.0 0.0 
0.0 0.0 0.0 
0.0 0.0 0.0 
0.0 0.0 0.0 
0.0 0.0 0.0 
0.0 0.0 0.0 
0.0 0.0 0.0 
0.0 0.0 0.0 
0.0 0.0 0.0 
0.0 0.0 0.0 
0.0 0.0 0.0 
0.0 0.0 0.0 
0.0 0.0 0.0 
0.0 0.0 0.0 
0.0 0.0 0.0 
0.0 0.0 0.0 
0.0 0.0 0.0 
0.0 0.0 0.0 
0.0 0.0 0.0 
0.0 0.0 0.0 
0.0 0.0 0.0 
0.0 0.0 0.0 
0.0 0.0 0.0 
0.0 0.0 0.0 
0.0 0.0 0.0 
0.0 0.0 0.0 
0.0 0.0 0.0 
0.0 0.0 0.0 
0.0 0.0 0.0 
0.0 0.0 0.0 
0.0 0.0 0.0 
0.0 0.0 0.0 
0.0 0.0 0.0 
0.0 0.0 0.0 
0.0 0.0 0.0 
0.0 0.0 0.0 
0.0 0.0 0.0 
0.0 0.0 0.0 
0.0 0.0 0.0 
0.0 0.0 0.0 
0.0 0.0 0.0 
0.0 0.0 0.0 
0.0 0.0 0.0 
0.0 0.0 0.0 
0.0 0.0 0.0 
0.0 0.0 0.0 
0.0 0.0 0.0 
0.0 0.0 0.0 
0.0 0.0 0.0 
0.0 0.0 0.0 
0.0 0.0 0.0 
0.0 0.0 0.0 
0.0 0.0 0.0 
0.0 0.0 0.0 
0.0 0.0 0.0 
0.0 0.0 0.0 
0.0 0.0 0.0 
0.0 0.0 0.0 
0.0 0.0 0.0 
0.0 0.0 0.0 
0.0 0.0 0.0 
0.0 0.0 0.0 
0.0 0.0 0.0 
0.0 0.0 0.0 
0.0 0.0 0.0 
0.0 0.0 0.0 
0.0 0.0 0.0 
0.0 0.0 0.0 
0.0 0.0 0.0 
0.0 0.0 0.0 
0.0 0.0 0.0 
0.0 0.0 0.0 
0.0 0.0 0.0 
0.0 0.0 0.0 
0.0 0.0 0.0 
0.0 0.0 0.0 
0.0 0.0 0.0 
0.0 0.0 0.0 
0.0 0.0 0.0 
0.0 0.0 0.0 
0.0 0.0 0.0 
0.0 0.0 0.0 
0.0 0.0 0.0 
0.0 0.0 0.0 
0.0 0.0 0.0 
0.0 0.0 0.0 
0.0 0.0 0.0 
0.0 0.0 0.0 
0.0 0.0 0.0 
0.0 0.0 0.0 
0.0 0.0 0.0 
0.0 0.0 0.0 
0.0 0.0 0.0 
0.0 0.0 0.0 
0.0 0.0 0.0 
0.0 0.0 0.0 
0.0 0.0 0.0 
0.0 0.0 0.0 
0.0 0.0 0.0 
0.0 0.0 0.0 
0.0 0.0 0.0 
0.0 0.0 0.0 
0.0 0.0 0.0 
0.0 0.0 0.0 
0.0 0.0 0.0 
0.0 0.0 0.0 
0.0 0.0 0.0 
0.0 0.0 0.0 
0.0 0.0 0.0 
0.0 0.0 0.0 
0.0 0.0 0.0 
0.0 0.0 0.0 
0.0 0.0 0.0 
0.0 0.0 0.0 
0.0 0.0 0.0 
0.0 0.0 0.0 
0.0 0.0 0.0 
0.0 0.0 0.0 
0.0 0.0 0.0 
0.0 0.0 0.0 
0.0 0.0 0.0 
0.0 0.0 0.0 
0.0 0.0 0.0 
0.0 0.0 0.0 
0.0 0.0 0.0 
0.0 0.0 0.0 
0.0 0.0 0.0 
0.0 0.0 0.0 
0.0 0.0 0.0 
0.0 0.0 0.0 
0.0 0.0 0.0 
0.0 0.0 0.0 
0.0 0.0 0.0 
0.0 0.0 0.0 
0.0 0.0 0.0 
0.0 0.0 0.0 
0.0 0.0 0.0 
0.0 0.0 0.0 
0.0 0.0 0.0 
0.0 0.0 0.0 
0.0 0.0 0.0 
0.0 0.0 0.0 
0.0 0.0 0.0 
0.0 0.0 0.0 
0.0 0.0 0.0 
0.0 0.0 0.0 
0.0 0.0 0.0 
0.0 0.0 0.0 
0.0 0.0 0.0 
0.0 0.0 0.0 
0.0 0.0 0.0 
0.0 0.0 0.0 
0.0 0.0 0.0 
0.0 0.0 0.0 
0.0 0.0 0.0 
0.0 0.0 0.0 
0.0 0.0 0.0 
0.0 0.0 0.0 
0.0 0.0 0.0 
0.0 0.0 0.0 
0.0 0.0 0.0 
0.0 0.0 0.0 
0.0 0.0 0.0 
0.0 0.0 0.0 
0.0 0.0 0.0 
0.0 0.0 0.0 
0.0 0.0 0.0 
0.0 0.0 0.0 
0.0 0.0 0.0 
0.0 0.0 0.0 
0.0 0.0 0.0 
0.0 0.0 0.0 
0.0 0.0 0.0 
0.0 0.0 0.0 
0.0 0.0 0.0 
0.0 0.0 0.0 
0.0 0.0 0.0 
0.0 0.0 0.0 
0.0 0.0 0.0 
0.0 0.0 0.0 
0.0 0.0 0.0 
0.0 0.0 0.0 
0.0 0.0 0.0 
0.0 0.0 0.0 
0.0 0.0 0.0 
0.0 0.0 0.0 
0.0 0.0 0.0 
0.0 0.0 0.0 
0.0 0.0 0.0 
0.0 0.0 0.0 
0.0 0.0 0.0 
0.0 0.0 0.0 
0.0 0.0 0.0 
0.0 0.0 0.0 
0.0 0.0 0.0 
0.0 0.0 0.0 
0.0 0.0 0.0 
0.0 0.0 0.0 
0.0 0.0 0.0 
0.0 0.0 0.0 
0.0 0.0 0.0 
0.0 0.0 0.0 
0.0 0.0 0.0 
0.0 0.0 0.0 
0.0 0.0 0.0 
0.0 0.0 0.0 
0.0 0.0 0.0 
0.0 0.0 0.0 
0.0 0.0 0.0 
0.0 0.0 0.0 
0.0 0.0 0.0 
0.0 0.0 0.0 
0.0 0.0 0.0 
0.0 0.0 0.0 
0.0 0.0 0.0 
0.0 0.0 0.0 
0.0 0.0 0.0 
0.0 0.0 0.0 
0.0 0.0 0.0 
0.0 0.0 0.0 
0.0 0.0 0.0 
0.0 0.0 0.0 
0.0 0.0 0.0 
0.0 0.0 0.0 
0.0 0.0 0.0 
0.0 0.0 0.0 
0.0 0.0 0.0 
0.0 0.0 0.0 
0.0 0.0 0.0 
0.0 0.0 0.0 
0.0 0.0 0.0 
0.0 0.0 0.0 
0.0 0.0 0.0 
0.0 0.0 0.0 
0.0 0.0 0.0 
0.0 0.0 0.0 
0.0 0.0 0.0 
0.0 0.0 0.0 
0.0 0.0 0.0 
0.0 0.0 0.0 
0.0 0.0 0.0 
0.0 0.0 0.0 
0.0 0.0 0.0 
0.0 0.0 0.0 
0.0 0.0 0.0 
0.0 0.0 0.0 
0.0 0.0 0.0 
0.0 0.0 0.0 
0.0 0.0 0.0 
0.0 0.0 0.0 
0.0 0.0 0.0 
0.0 0.0 0.0 
0.0 0.0 0.0 
0.0 0.0 0.0 
0.0 0.0 0.0 
0.0 0.0 0.0 
0.0 0.0 0.0 
0.0 0.0 0.0 
0.0 0.0 0.0 
0.0 0.0 0.0 
0.0 0.0 0.0 
0.0 0.0 0.0 
0.0 0.0 0.0 
0.0 0.0 0.0 
0.0 0.0 0.0 
0.0 0.0 0.0 
0.0 0.0 0.0 
0.0 0.0 0.0 
0.0 0.0 0.0 
0.0 0.0 0.0 
0.0 0.0 0.0 
0.0 0.0 0.0 
0.0 0.0 0.0 
0.0 0.0 0.0 
0.0 0.0 0.0 
0.0 0.0 0.0 
0.0 0.0 0.0 
0.0 0.0 0.0 
0.0 0.0 0.0 
0.0 0.0 0.0 
0.0 0.0 0.0 
0.0 0.0 0.0 
0.0 0.0 0.0 
0.0 0.0 0.0 
0.0 0.0 0.0 
0.0 0.0 0.0 
0.0 0.0 0.0 
0.0 0.0 0.0 
0.0 0.0 0.0 
0.0 0.0 0.0 
0.0 0.0 0.0 
0.0 0.0 0.0 
0.0 0.0 0.0 
0.0 0.0 0.0 
0.0 0.0 0.0 
0.0 0.0 0.0 
0.0 0.0 0.0 
0.0 0.0 0.0 
0.0 0.0 0.0 
0.0 0.0 0.0 
0.0 0.0 0.0 
0.0 0.0 0.0 
0.0 0.0 0.0 
0.0 0.0 0.0 
0.0 0.0 0.0 
0.0 0.0 0.0 
0.0 0.0 0.0 
0.0 0.0 0.0 
0.0 0.0 0.0 
0.0 0.0 0.0 
0.0 0.0 0.0 
0.0 0.0 0.0 
0.0 0.0 0.0 
0.0 0.0 0.0 
0.0 0.0 0.0 
0.0 0.0 0.0 
0.0 0.0 0.0 
0.0 0.0 0.0 
0.0 0.0 0.0 
0.0 0.0 0.0 
0.0 0.0 0.0 
0.0 0.0 0.0 
0.0 0.0 0.0 
0.0 0.0 0.0 
0.0 0.0 0.0 
0.0 0.0 0.0 
0.0 0.0 0.0 
0.0 0.0 0.0 
0.0 0.0 0.0 
0.0 0.0 0.0 
0.0 0.0 0.0 
0.0 0.0 0.0 
0.0 0.0 0.0 
0.0 0.0 0.0 
0.0 0.0 0.0 
0.0 0.0 0.0 
0.0 0.0 0.0 
0.0 0.0 0.0 
0.0 0.0 0.0 
0.0 0.0 0.0 
0.0 0.0 0.0 
0.0 0.0 0.0 
0.0 0.0 0.0 
0.0 0.0 0.0 
0.0 0.0 0.0 
0.0 0.0 0.0 
0.0 0.0 0.0 
0.0 0.0 0.0 
0.0 0.0 0.0 
0.0 0.0 0.0 
0.0 0.0 0.0 
0.0 0.0 0.0 
0.0 0.0 0.0 
0.0 0.0 0.0 
0.0 0.0 0.0 
0.0 0.0 0.0 
0.0 0.0 0.0 
0.0 0.0 0.0 
0.0 0.0 0.0 
0.0 0.0 0.0 
0.0 0.0 0.0 
0.0 0.0 0.0 
0.0 0.0 0.0 
0.0 0.0 0.0 
0.0 0.0 0.0 
0.0 0.0 0.0 
0.0 0.0 0.0 
0.0 0.0 0.0 
0.0 0.0 0.0 
0.0 0.0 0.0 
0.0 0.0 0.0 
0.0 0.0 0.0 
0.0 0.0 0.0 
0.0 0.0 0.0 
0.0 0.0 0.0 
0.0 0.0 0.0 
0.0 0.0 0.0 
0.0 0.0 0.0 
0.0 0.0 0.0 
0.0 0.0 0.0 
0.0 0.0 0.0 
0.0 0.0 0.0 
0.0 0.0 0.0 
0.0 0.0 0.0 
0.0 0.0 0.0 
0.0 0.0 0.0 
0.0 0.0 0.0 
0.0 0.0 0.0 
0.0 0.0 0.0 
0.0 0.0 0.0 
0.0 0.0 0.0 
0.0 0.0 0.0 
0.0 0.0 0.0 
0.0 0.0 0.0 
0.0 0.0 0.0 
0.0 0.0 0.0 
0.0 0.0 0.0 
0.0 0.0 0.0 
0.0 0.0 0.0 
0.0 0.0 0.0 
0.0 0.0 0.0 
0.0 0.0 0.0 
0.0 0.0 0.0 
0.0 0.0 0.0 
0.0 0.0 0.0 
0.0 0.0 0.0 
0.0 0.0 0.0 
0.0 0.0 0.0 
0.0 0.0 0.0 
0.0 0.0 0.0 
0.0 0.0 0.0 
0.0 0.0 0.0 
0.0 0.0 0.0 
0.0 0.0 0.0 
0.0 0.0 0.0 
0.0 0.0 0.0 
0.0 0.0 0.0 
0.0 0.0 0.0 
0.0 0.0 0.0 
0.0 0.0 0.0 
0.0 0.0 0.0 
0.0 0.0 0.0 
0.0 0.0 0.0 
0.0 0.0 0.0 
0.0 0.0 0.0 
0.0 0.0 0.0 
0.0 0.0 0.0 
0.0 0.0 0.0 
0.0 0.0 0.0 
0.0 0.0 0.0 
0.0 0.0 0.0 
0.0 0.0 0.0 
0.0 0.0 0.0 
0.0 0.0 0.0 
0.0 0.0 0.0 
0.0 0.0 0.0 
0.0 0.0 0.0 
0.0 0.0 0.0 
0.0 0.0 0.0 
0.0 0.0 0.0 
0.0 0.0 0.0 
0.0 0.0 0.0 
0.0 0.0 0.0 
0.0 0.0 0.0 
0.0 0.0 0.0 
0.0 0.0 0.0 
0.0 0.0 0.0 
0.0 0.0 0.0 
0.0 0.0 0.0 
0.0 0.0 0.0 
0.0 0.0 0.0 
0.0 0.0 0.0 
0.0 0.0 0.0 
0.0 0.0 0.0 
0.0 0.0 0.0 
0.0 0.0 0.0 
0.0 0.0 0.0 
0.0 0.0 0.0 
0.0 0.0 0.0 
0.0 0.0 0.0 
0.0 0.0 0.0 
0.0 0.0 0.0 
0.0 0.0 0.0 
0.0 0.0 0.0 
0.0 0.0 0.0 
0.0 0.0 0.0 
0.0 0.0 0.0 
0.0 0.0 0.0 
0.0 0.0 0.0 
0.0 0.0 0.0 
0.0 0.0 0.0 
0.0 0.0 0.0 
0.0 0.0 0.0 
0.0 0.0 0.0 
0.0 0.0 0.0 
0.0 0.0 0.0 
0.0 0.0 0.0 
0.0 0.0 0.0 
0.0 0.0 0.0 
0.0 0.0 0.0 
0.0 0.0 0.0 
0.0 0.0 0.0 
0.0 0.0 0.0 
0.0 0.0 0.0 
0.0 0.0 0.0 
0.0 0.0 0.0 
0.0 0.0 0.0 
0.0 0.0 0.0 
0.0 0.0 0.0 
0.0 0.0 0.0 
0.0 0.0 0.0 
0.0 0.0 0.0 
0.0 0.0 0.0 
0.0 0.0 0.0 
0.0 0.0 0.0 
0.0 0.0 0.0 
0.0 0.0 0.0 
0.0 0.0 0.0 
0.0 0.0 0.0 
0.0 0.0 0.0 
0.0 0.0 0.0 
0.0 0.0 0.0 
0.0 0.0 0.0 
0.0 0.0 0.0 
0.0 0.0 0.0 
0.0 0.0 0.0 
0.0 0.0 0.0 
0.0 0.0 0.0 
0.0 0.0 0.0 
0.0 0.0 0.0 
0.0 0.0 0.0 
0.0 0.0 0.0 
0.0 0.0 0.0 
0.0 0.0 0.0 
0.0 0.0 0.0 
0.0 0.0 0.0 
0.0 0.0 0.0 
0.0 0.0 0.0 
0.0 0.0 0.0 
0.0 0.0 0.0 
0.0 0.0 0.0 
0.0 0.0 0.0 
0.0 0.0 0.0 
0.0 0.0 0.0 
0.0 0.0 0.0 
0.0 0.0 0.0 
0.0 0.0 0.0 
0.0 0.0 0.0 
0.0 0.0 0.0 
0.0 0.0 0.0 
0.0 0.0 0.0 
0.0 0.0 0.0 
0.0 0.0 0.0 
0.0 0.0 0.0 
0.0 0.0 0.0 
0.0 0.0 0.0 
0.0 0.0 0.0 
0.0 0.0 0.0 
0.0 0.0 0.0 
0.0 0.0 0.0 
0.0 0.0 0.0 
0.0 0.0 0.0 
0.0 0.0 0.0 
0.0 0.0 0.0 
0.0 0.0 0.0 
0.0 0.0 0.0 
0.0 0.0 0.0 
0.0 0.0 0.0 
0.0 0.0 0.0 
0.0 0.0 0.0 
0.0 0.0 0.0 
0.0 0.0 0.0 
0.0 0.0 0.0 
0.0 0.0 0.0 
0.0 0.0 0.0 
0.0 0.0 0.0 
0.0 0.0 0.0 
0.0 0.0 0.0 
0.0 0.0 0.0 
0.0 0.0 0.0 
0.0 0.0 0.0 
0.0 0.0 0.0 
0.0 0.0 0.0 
0.0 0.0 0.0 
0.0 0.0 0.0 
0.0 0.0 0.0 
0.0 0.0 0.0 
0.0 0.0 0.0 
0.0 0.0 0.0 
0.0 0.0 0.0 
0.0 0.0 0.0 
0.0 0.0 0.0 
0.0 0.0 0.0 
0.0 0.0 0.0 
0.0 0.0 0.0 
0.0 0.0 0.0 
0.0 0.0 0.0 
0.0 0.0 0.0 
0.0 0.0 0.0 
0.0 0.0 0.0 
0.0 0.0 0.0 
0.0 0.0 0.0 
0.0 0.0 0.0 
0.0 0.0 0.0 
0.0 0.0 0.0 
0.0 0.0 0.0 
0.0 0.0 0.0 
0.0 0.0 0.0 
0.0 0.0 0.0 
0.0 0.0 0.0 
0.0 0.0 0.0 
0.0 0.0 0.0 
0.0 0.0 0.0 
0.0 0.0 0.0 
0.0 0.0 0.0 
0.0 0.0 0.0 
0.0 0.0 0.0 
0.0 0.0 0.0 
0.0 0.0 0.0 
0.0 0.0 0.0 
0.0 0.0 0.0 
0.0 0.0 0.0 
0.0 0.0 0.0 
0.0 0.0 0.0 
0.0 0.0 0.0 
0.0 0.0 0.0 
0.0 0.0 0.0 
0.0 0.0 0.0 
0.0 0.0 0.0 
0.0 0.0 0.0 
0.0 0.0 0.0 
0.0 0.0 0.0 
0.0 0.0 0.0 
0.0 0.0 0.0 
0.0 0.0 0.0 
0.0 0.0 0.0 
0.0 0.0 0.0 
0.0 0.0 0.0 
0.0 0.0 0.0 
0.0 0.0 0.0 
0.0 0.0 0.0 
0.0 0.0 0.0 
0.0 0.0 0.0 
0.0 0.0 0.0 
0.0 0.0 0.0 
0.0 0.0 0.0 
0.0 0.0 0.0 
0.0 0.0 0.0 
0.0 0.0 0.0 
0.0 0.0 0.0 
0.0 0.0 0.0 
0.0 0.0 0.0 
0.0 0.0 0.0 
0.0 0.0 0.0 
0.0 0.0 0.0 
0.0 0.0 0.0 
0.0 0.0 0.0 
0.0 0.0 0.0 
0.0 0.0 0.0 
0.0 0.0 0.0 
0.0 0.0 0.0 
0.0 0.0 0.0 
0.0 0.0 0.0 
0.0 0.0 0.0 
0.0 0.0 0.0 
0.0 0.0 0.0 
0.0 0.0 0.0 
0.0 0.0 0.0 
0.0 0.0 0.0 
0.0 0.0 0.0 
0.0 0.0 0.0 
0.0 0.0 0.0 
0.0 0.0 0.0 
0.0 0.0 0.0 
0.0 0.0 0.0 
0.0 0.0 0.0 
0.0 0.0 0.0 
0.0 0.0 0.0 
0.0 0.0 0.0 
0.0 0.0 0.0 
0.0 0.0 0.0 
0.0 0.0 0.0 
0.0 0.0 0.0 
0.0 0.0 0.0 
0.0 0.0 0.0 
0.0 0.0 0.0 
0.0 0.0 0.0 
0.0 0.0 0.0 
0.0 0.0 0.0 
0.0 0.0 0.0 
0.0 0.0 0.0 
0.0 0.0 0.0 
0.0 0.0 0.0 
0.0 0.0 0.0 
0.0 0.0 0.0 
0.0 0.0 0.0 
0.0 0.0 0.0 
0.0 0.0 0.0 
0.0 0.0 0.0 
0.0 0.0 0.0 
0.0 0.0 0.0 
0.0 0.0 0.0 
0.0 0.0 0.0 
0.0 0.0 0.0 
0.0 0.0 0.0 
0.0 0.0 0.0 
0.0 0.0 0.0 
0.0 0.0 0.0 
0.0 0.0 0.0 
0.0 0.0 0.0 
0.0 0.0 0.0 
0.0 0.0 0.0 
0.0 0.0 0.0 
0.0 0.0 0.0 
0.0 0.0 0.0 
0.0 0.0 0.0 
0.0 0.0 0.0 
0.0 0.0 0.0 
0.0 0.0 0.0 
0.0 0.0 0.0 
0.0 0.0 0.0 
0.0 0.0 0.0 
0.0 0.0 0.0 
0.0 0.0 0.0 
0.0 0.0 0.0 
0.0 0.0 0.0 
0.0 0.0 0.0 
0.0 0.0 0.0 
0.0 0.0 0.0 
0.0 0.0 0.0 
0.0 0.0 0.0 
0.0 0.0 0.0 
0.0 0.0 0.0 
0.0 0.0 0.0 
0.0 0.0 0.0 
0.0 0.0 0.0 
0.0 0.0 0.0 
0.0 0.0 0.0 
0.0 0.0 0.0 
0.0 0.0 0.0 
0.0 0.0 0.0 
0.0 0.0 0.0 
0.0 0.0 0.0 
0.0 0.0 0.0 
0.0 0.0 0.0 
0.0 0.0 0.0 
0.0 0.0 0.0 
0.0 0.0 0.0 
0.0 0.0 0.0 
0.0 0.0 0.0 
0.0 0.0 0.0 
0.0 0.0 0.0 
0.0 0.0 0.0 
0.0 0.0 0.0 
0.0 0.0 0.0 
0.0 0.0 0.0 
0.0 0.0 0.0 
0.0 0.0 0.0 
0.0 0.0 0.0 
0.0 0.0 0.0 
0.0 0.0 0.0 
0.0 0.0 0.0 
0.0 0.0 0.0 
0.0 0.0 0.0 
0.0 0.0 0.0 
0.0 0.0 0.0 
0.0 0.0 0.0 
0.0 0.0 0.0 
0.0 0.0 0.0 
0.0 0.0 0.0 
0.0 0.0 0.0 
0.0 0.0 0.0 
0.0 0.0 0.0 
0.0 0.0 0.0 
0.0 0.0 0.0 
0.0 0.0 0.0 
0.0 0.0 0.0 
0.0 0.0 0.0 
0.0 0.0 0.0 
0.0 0.0 0.0 
0.0 0.0 0.0 
0.0 0.0 0.0 
0.0 0.0 0.0 
0.0 0.0 0.0 
0.0 0.0 0.0 
0.0 0.0 0.0 
0.0 0.0 0.0 
0.0 0.0 0.0 
0.0 0.0 0.0 
0.0 0.0 0.0 
0.0 0.0 0.0 
0.0 0.0 0.0 
0.0 0.0 0.0 
0.0 0.0 0.0 
0.0 0.0 0.0 
0.0 0.0 0.0 
0.0 0.0 0.0 
0.0 0.0 0.0 
0.0 0.0 0.0 
0.0 0.0 0.0 
0.0 0.0 0.0 
0.0 0.0 0.0 
0.0 0.0 0.0 
0.0 0.0 0.0 
0.0 0.0 0.0 
0.0 0.0 0.0 
0.0 0.0 0.0 
0.0 0.0 0.0 
0.0 0.0 0.0 
0.0 0.0 0.0 
0.0 0.0 0.0 
0.0 0.0 0.0 
0.0 0.0 0.0 
0.0 0.0 0.0 
0.0 0.0 0.0 
0.0 0.0 0.0 
0.0 0.0 0.0 
0.0 0.0 0.0 
0.0 0.0 0.0 
0.0 0.0 0.0 
0.0 0.0 0.0 
0.0 0.0 0.0 
0.0 0.0 0.0 
0.0 0.0 0.0 
0.0 0.0 0.0 
0.0 0.0 0.0 
0.0 0.0 0.0 
0.0 0.0 0.0 
0.0 0.0 0.0 
0.0 0.0 0.0 
0.0 0.0 0.0 
0.0 0.0 0.0 
0.0 0.0 0.0 
0.0 0.0 0.0 
0.0 0.0 0.0 
0.0 0.0 0.0 
0.0 0.0 0.0 
0.0 0.0 0.0 
0.0 0.0 0.0 
0.0 0.0 0.0 
0.0 0.0 0.0 
0.0 0.0 0.0 
0.0 0.0 0.0 
0.0 0.0 0.0 
0.0 0.0 0.0 
0.0 0.0 0.0 
0.0 0.0 0.0 
0.0 0.0 0.0 
0.0 0.0 0.0 
0.0 0.0 0.0 
0.0 0.0 0.0 
0.0 0.0 0.0 
0.0 0.0 0.0 
0.0 0.0 0.0 
0.0 0.0 0.0 
0.0 0.0 0.0 
0.0 0.0 0.0 
0.0 0.0 0.0 
0.0 0.0 0.0 
0.0 0.0 0.0 
0.0 0.0 0.0 
0.0 0.0 0.0 
0.0 0.0 0.0 
0.0 0.0 0.0 
0.0 0.0 0.0 
0.0 0.0 0.0 
0.0 0.0 0.0 
0.0 0.0 0.0 
0.0 0.0 0.0 
0.0 0.0 0.0 
0.0 0.0 0.0 
0.0 0.0 0.0 
0.0 0.0 0.0 
0.0 0.0 0.0 
0.0 0.0 0.0 
0.0 0.0 0.0 
0.0 0.0 0.0 
0.0 0.0 0.0 
0.0 0.0 0.0 
0.0 0.0 0.0 
0.0 0.0 0.0 
0.0 0.0 0.0 
0.0 0.0 0.0 
0.0 0.0 0.0 
0.0 0.0 0.0 
0.0 0.0 0.0 
0.0 0.0 0.0 
0.0 0.0 0.0 
0.0 0.0 0.0 
0.0 0.0 0.0 
0.0 0.0 0.0 
0.0 0.0 0.0 
0.0 0.0 0.0 
0.0 0.0 0.0 
0.0 0.0 0.0 
0.0 0.0 0.0 
0.0 0.0 0.0 
0.0 0.0 0.0 
0.0 0.0 0.0 
0.0 0.0 0.0 
0.0 0.0 0.0 

VECTORS node_materi_velocity float
0.0 -7.849958409896e-04 0.0 
0.0 9.903771335043e-03 0.0 
0.0 0.0 0.0 
0.0 0.0 0.0 
0.0 -7.853710807066e-04 0.0 
0.0 -7.809185542071e-04 0.0 
0.0 -7.700247738193e-04 0.0 
0.0 -7.513886555781e-04 0.0 
0.0 -7.228968798517e-04 0.0 
0.0 -6.854349029690e-04 0.0 
0.0 -6.394542946918e-04 0.0 
0.0 -5.854291621171e-04 0.0 
0.0 -5.247102720546e-04 0.0 
0.0 -4.587416997465e-04 0.0 
0.0 -3.894003519218e-04 0.0 
0.0 -3.192553248042e-04 0.0 
0.0 -2.504530497918e-04 0.0 
0.0 -1.843696361714e-04 0.0 
0.0 -1.244842399025e-04 0.0 
0.0 -7.313754298480e-05 0.0 
0.0 -3.251180463261e-05 0.0 
0.0 -5.657975341387e-06 0.0 
0.0 4.622670874531e-06 0.0 
0.0 0.0 0.0 
0.0 0.0 0.0 
0.0 0.0 0.0 
0.0 0.0 0.0 
0.0 0.0 0.0 
0.0 0.0 0.0 
0.0 0.0 0.0 
0.0 0.0 0.0 
0.0 0.0 0.0 
0.0 0.0 0.0 
0.0 0.0 0.0 
0.0 0.0 0.0 
0.0 0.0 0.0 
0.0 0.0 0.0 
0.0 0.0 0.0 
0.0 0.0 0.0 
0.0 0.0 0.0 
0.0 0.0 0.0 
0.0 0.0 0.0 
0.0 0.0 0.0 
0.0 0.0 0.0 
0.0 0.0 0.0 
0.0 0.0 0.0 
0.0 0.0 0.0 
0.0 0.0 0.0 
0.0 0.0 0.0 
0.0 0.0 0.0 
0.0 0.0 0.0 
0.0 0.0 0.0 
0.0 0.0 0.0 
0.0 0.0 0.0 
0.0 0.0 0.0 
0.0 0.0 0.0 
0.0 0.0 0.0 
0.0 0.0 0.0 
0.0 0.0 0.0 
0.0 0.0 0.0 
0.0 0.0 0.0 
0.0 0.0 0.0 
0.0 0.0 0.0 
0.0 0.0 0.0 
0.0 0.0 0.0 
0.0 0.0 0.0 
0.0 0.0 0.0 
0.0 0.0 0.0 
0.0 0.0 0.0 
0.0 0.0 0.0 
0.0 0.0 0.0 
0.0 0.0 0.0 
0.0 8.891992086670e-03 0.0 
0.0 7.881309663816e-03 0.0 
0.0 6.873231561562e-03 0.0 
0.0 5.868706217605e-03 0.0 
0.0 4.869607207934e-03 0.0 
0.0 3.877030149075e-03 0.0 
0.0 2.892533690524e-03 0.0 
0.0 1.917484155477e-03 0.0 
0.0 9.533076420538e-04 0.0 
-2.028092277705e-03 3.216320524251e-03 0.0 
1.704641331649e-03 9.629139582886e-03 0.0 
-1.710266974994e-03 4.408417096810e-03 0.0 
-1.336846972215e-03 6.335816029617e-03 0.0 
-4.569416625376e-04 9.746535187193e-03 0.0 
7.603189236137e-04 1.144068606256e-02 0.0 
1.445589084619e-03 1.193756539290e-02 0.0 
1.797450161332e-03 1.196027454684e-02 0.0 
1.942382353355e-03 1.165696884977e-02 0.0 
1.950407086649e-03 1.112668034246e-02 0.0 
1.861635735364e-03 1.043485423581e-02 0.0 
0.0 1.699528945740e-02 0.0 
0.0 1.596390222853e-02 0.0 
0.0 1.495373859703e-02 0.0 
0.0 1.394618647936e-02 0.0 
0.0 1.293735911971e-02 0.0 
0.0 1.192711929728e-02 0.0 
0.0 1.091578446778e-02 0.0 
9.361033236415e-05 9.904779046602e-03 0.0 
1.880399897633e-04 9.907813290581e-03 0.0 
2.836693458476e-04 9.912287250847e-03 0.0 
3.810280986310e-04 9.917821032680e-03 0.0 
4.806131525629e-04 9.923036702058e-03 0.0 
5.822824176386e-04 9.927054792639e-03 0.0 
6.871318644043e-04 9.929486117669e-03 0.0 
7.953662417836e-04 9.927894103940e-03 0.0 
9.076561960223e-04 9.921877312076e-03 0.0 
1.024850461257e-03 9.908976610395e-03 0.0 
1.147224364455e-03 9.886289666088e-03 0.0 
1.275836710341e-03 9.850716867228e-03 0.0 
1.411092174086e-03 9.799230367549e-03 0.0 
1.553665267737e-03 9.726857664829e-03 0.0 
-1.866093470207e-03 2.530096284940e-03 0.0 
-1.654955066415e-03 1.918159880886e-03 0.0 
-1.433070949504e-03 1.400138965150e-03 0.0 
-1.212070736225e-03 9.688333691949e-04 0.0 
-1.015193829581e-03 6.122760371228e-04 0.0 
-8.391234759260e-04 3.200658371705e-04 0.0 
-6.827415256097e-04 8.126229751498e-05 0.0 
-5.467012279534e-04 -1.135405130498e-04 0.0 
-4.297767903459e-04 -2.705312945283e-04 0.0 
-3.313571920662e-04 -3.956965723597e-04 0.0 
-2.501370540369e-04 -4.964830428830e-04 0.0 
-1.834886905183e-04 -5.738286335884e-04 0.0 
-1.319185415510e-04 -6.349506461753e-04 0.0 
-9.058844732063e-05 -6.820940981036e-04 0.0 
-5.975471390660e-05 -7.182618562193e-04 0.0 
-3.775297418013e-05 -7.444422086212e-04 0.0 
-2.276674017082e-05 -7.630562566729e-04 0.0 
-1.276854290413e-05 -7.758819719148e-04 0.0 
-5.565695284729e-06 -7.825411548327e-04 0.0 
-6.746066256339e-04 1.170127532567e-02 0.0 
-1.938894786738e-04 1.289999832048e-02 0.0 
-1.940591561736e-05 1.380235192310e-02 0.0 
1.698851132764e-04 1.450310411675e-02 0.0 
3.517786780426e-04 1.506677943978e-02 0.0 
5.107628883516e-04 1.551044339634e-02 0.0 
6.440932917884e-04 1.586507748711e-02 0.0 
7.503307734653e-04 1.614454671954e-02 0.0 
8.307080051432e-04 1.636519300489e-02 0.0 
8.867962786591e-04 1.653725596200e-02 0.0 
9.206492043118e-04 1.667039350874e-02 0.0 
9.344016732590e-04 1.677185248445e-02 0.0 
9.302556395215e-04 1.684795798092e-02 0.0 
9.103791845219e-04 1.690379020281e-02 0.0 
8.768042622092e-04 1.694357421598e-02 0.0 
8.313720378924e-04 1.697075617390e-02 0.0 
7.757528685551e-04 1.698821477242e-02 0.0 
7.114919450064e-04 1.699834387806e-02 0.0 
6.400737789966e-04 1.700312273223e-02 0.0 
5.630245713015e-04 1.700417973078e-02 0.0 
4.821157932971e-04 1.700283390828e-02 0.0 
3.997478075110e-04 1.700002891345e-02 0.0 
3.196585693822e-04 1.699575232008e-02 0.0 
2.473469040284e-04 1.698680790579e-02 0.0 
1.476243773066e-04 1.698925408949e-02 0.0 
1.083234998940e-04 1.597047686822e-02 0.0 
2.085530859274e-04 1.598076556840e-02 0.0 
3.012578366611e-04 1.598776823243e-02 0.0 
3.901492945746e-04 1.599248744233e-02 0.0 
4.762952482094e-04 1.599630487733e-02 0.0 
5.594114088426e-04 1.599901793817e-02 0.0 
6.386898396117e-04 1.599962965063e-02 0.0 
7.131470777310e-04 1.599672347937e-02 0.0 
7.817398426651e-04 1.598853427555e-02 0.0 
8.433917051827e-04 1.597291316457e-02 0.0 
8.969949418672e-04 1.594725918865e-02 0.0 
9.414170228602e-04 1.590842835116e-02 0.0 
9.755314961668e-04 1.585259803558e-02 0.0 
9.982600378730e-04 1.577507566356e-02 0.0 
1.008673183689e-03 1.567009915833e-02 0.0 
1.006077717731e-03 1.553063205156e-02 0.0 
9.903039712820e-04 1.534806052322e-02 0.0 
9.617780678382e-04 1.511178592530e-02 0.0 
9.222639727618e-04 1.480833071921e-02 0.0 
8.747612730164e-04 1.442080665595e-02 0.0 
8.256826591217e-04 1.392548385804e-02 0.0 
7.844019197759e-04 1.329646346359e-02 0.0 
7.545694916081e-04 1.249000380974e-02 0.0 
1.371915290534e-03 1.264478334706e-02 0.0 
1.324618954241e-03 1.319777161300e-02 0.0 
1.284462868014e-03 1.363154086912e-02 0.0 
1.252710397148e-03 1.397308775590e-02 0.0 
1.223577576578e-03 1.423961034098e-02 0.0 
1.193829158479e-03 1.444666703327e-02 0.0 
1.160861782833e-03 1.460566915991e-02 0.0 
1.123209846862e-03 1.472624913132e-02 0.0 
1.080027155410e-03 1.481608953738e-02 0.0 
1.030984945917e-03 1.488154166734e-02 0.0 
9.760813859967e-04 1.492777523698e-02 0.0 
9.155556468719e-04 1.495902939943e-02 0.0 
8.497951287456e-04 1.497876235220e-02 0.0 
7.792770546561e-04 1.498981806797e-02 0.0 
7.045217404838e-04 1.499454106808e-02 0.0 
6.260533277899e-04 1.499485463670e-02 0.0 
5.443514347867e-04 1.499229810981e-02 0.0 
4.597745537291e-04 1.498800650430e-02 0.0 
3.724627463557e-04 1.498259436152e-02 0.0 
2.823178243660e-04 1.497593219376e-02 0.0 
1.894240211072e-04 1.496734464273e-02 0.0 
9.465626532636e-05 1.495885573805e-02 0.0 
9.384831784902e-05 1.394896744805e-02 0.0 
1.890812748393e-04 1.395649247859e-02 0.0 
2.837808632509e-04 1.396484564205e-02 0.0 
3.770967575121e-04 1.397244077401e-02 0.0 
4.687143222374e-04 1.397907590137e-02 0.0 
5.585642890606e-04 1.398450458248e-02 0.0 
6.465925820816e-04 1.398799853660e-02 0.0 
7.326963302451e-04 1.398834788748e-02 0.0 
8.167370526785e-04 1.398388426829e-02 0.0 
8.985826227502e-04 1.397248352237e-02 0.0 
9.781614090748e-04 1.395151611008e-02 0.0 
1.055508075373e-03 1.391775373966e-02 0.0 
1.130814192390e-03 1.386724014075e-02 0.0 
1.204479492504e-03 1.379507313446e-02 0.0 
1.277272287003e-03 1.369528118416e-02 0.0 
1.350296112879e-03 1.356045343561e-02 0.0 
1.425370679484e-03 1.338174693811e-02 0.0 
1.504605308012e-03 1.314761857753e-02 0.0 
1.591543964715e-03 1.284595004674e-02 0.0 
1.685501169381e-03 1.245860459017e-02 0.0 
1.811869446632e-03 1.199253379113e-02 0.0 
1.694402900704e-03 1.225382151048e-02 0.0 
1.582626763973e-03 1.245637963501e-02 0.0 
1.477883589612e-03 1.261210091599e-02 0.0 
1.378031312510e-03 1.272922220579e-02 0.0 
1.281846380030e-03 1.281586704883e-02 0.0 
1.188099814148e-03 1.287813563043e-02 0.0 
1.096003764269e-03 1.292139767171e-02 0.0 
1.004915260605e-03 1.294988227839e-02 0.0 
9.143569717774e-04 1.296707326484e-02 0.0 
8.239713625457e-04 1.297582918341e-02 0.0 
7.335267525181e-04 1.297849327621e-02 0.0 
6.428655692086e-04 1.297693638944e-02 0.0 
5.518312647338e-04 1.297259856315e-02 0.0 
4.603142060530e-04 1.296654059491e-02 0.0 
3.682571677251e-04 1.295948583053e-02 0.0 
2.757895141226e-04 1.295197729938e-02 0.0 
1.833828382296e-04 1.294476001700e-02 0.0 
9.159065360790e-05 1.293927566100e-02 0.0 
9.396890278031e-05 1.192879170239e-02 0.0 
1.887177556790e-04 1.193336342228e-02 0.0 
2.842072500933e-04 1.193986640857e-02 0.0 
3.803071266738e-04 1.194709393715e-02 0.0 
4.769609508105e-04 1.195405683572e-02 0.0 
5.742989151473e-04 1.195995110699e-02 0.0 
6.724467934878e-04 1.196390999547e-02 0.0 
7.717706952849e-04 1.196460118817e-02 0.0 
8.725966907401e-04 1.196046158628e-02 0.0 
9.752930766156e-04 1.194935445452e-02 0.0 
1.080412727032e-03 1.192855069548e-02 0.0 
1.188607031112e-03 1.189484017192e-02 0.0 
1.300630390274e-03 1.184427522608e-02 0.0 
1.417370453550e-03 1.177216713163e-02 0.0 
1.539608938799e-03 1.167213418666e-02 0.0 
1.668747616419e-03 1.153790810193e-02 0.0 
1.803982765946e-03 1.136007982265e-02 0.0 
1.714034688814e-03 1.058599645351e-02 0.0 
1.576403815323e-03 1.069915414412e-02 0.0 
1.443832029145e-03 1.078332176628e-02 0.0 
1.318100922897e-03 1.084492347203e-02 0.0 
1.198183938953e-03 1.088822374829e-02 0.0 
1.083404841228e-03 1.091716024535e-02 0.0 
9.729768924479e-04 1.093495924769e-02 0.0 
8.662002625134e-04 1.094430192273e-02 0.0 
7.625460940828e-04 1.094773761167e-02 0.0 
6.616486323102e-04 1.094705823564e-02 0.0 
5.628605541420e-04 1.094330874828e-02 0.0 
4.659459293149e-04 1.093810354139e-02 0.0 
3.705452863697e-04 1.093193470121e-02 0.0 
2.764474597932e-04 1.092572944026e-02 0.0 
1.835877626740e-04 1.092051821882e-02 0.0 
9.169253975325e-05 1.091700998986e-02 0.0 
-1.843624623348e-03 3.756540618352e-03 0.0 
-1.566630746551e-03 5.232124491178e-03 0.0 
-1.013789933973e-03 8.062855285682e-03 0.0 
2.586331181208e-04 1.076980893516e-02 0.0 
1.174121659339e-03 1.175925593895e-02 0.0 
1.659170119786e-03 1.199416551901e-02 0.0 
1.893231085213e-03 1.184067241690e-02 0.0 
1.961906382280e-03 1.141482641168e-02 0.0 
1.917209285685e-03 1.079699577861e-02 0.0 
1.790482383638e-03 1.004345396690e-02 0.0 
-7.716493660537e-04 5.219799186364e-03 0.0 
4.667520474571e-04 1.728075491348e-04 0.0 
-2.560084412936e-04 -3.674762625407e-04 0.0 
-8.085587342223e-04 7.313989615144e-04 0.0 
3.010586177691e-04 7.229640869354e-05 0.0 
1.303725704041e-03 9.996633713235e-03 0.0 
9.413708095822e-05 -4.217857058899e-04 0.0 
5.765037300702e-04 3.021860164035e-04 0.0 
2.081480240138e-03 1.106681076775e-02 0.0 
5.906662068797e-04 4.448694902602e-04 0.0 
2.155478081174e-03 1.048922311773e-02 0.0 
1.663578013311e-04 2.931652250303e-05 0.0 
-5.775149405179e-05 -6.763261899275e-04 0.0 
5.334907554924e-04 6.003957239037e-04 0.0 
1.853753481978e-03 9.115118269495e-03 0.0 
5.973843744436e-05 -6.609497028242e-04 0.0 
9.992367548900e-05 -2.284702975058e-04 0.0 
4.623187471144e-04 7.147139498133e-04 0.0 
3.072533172724e-04 7.548682840511e-04 0.0 
8.616664421409e-05 8.113664735430e-04 0.0 
1.598796066248e-04 8.721544747635e-04 0.0 
2.144286159824e-04 7.660945056737e-04 0.0 
1.496313158294e-03 8.860591943546e-03 0.0 
9.693081653448e-04 8.994379074018e-03 0.0 
6.311679006191e-04 8.983618869381e-03 0.0 
5.903171197137e-05 5.353068053164e-03 0.0 
1.006964482763e-04 1.479893488935e-05 0.0 
-1.296441984773e-03 2.179320229890e-03 0.0 
-7.863716428159e-06 -7.584505496381e-04 0.0 
7.000940102563e-05 -5.330882161874e-05 0.0 
3.225851959345e-04 9.040400642937e-03 0.0 
2.776908477716e-05 -7.613789976343e-04 0.0 
4.289656342898e-04 8.398153879627e-04 0.0 
5.494370258329e-04 3.435560883417e-04 0.0 
5.654172634471e-04 5.189546356703e-04 0.0 
5.622084289040e-04 2.494467201199e-04 0.0 
3.807664786486e-04 1.181981169193e-04 0.0 
-5.328494138103e-04 1.444205378391e-04 0.0 
1.220230152196e-03 9.008227899981e-03 0.0 
2.707053985986e-04 5.402854431164e-05 0.0 
4.436034254304e-05 3.425730782021e-03 0.0 
-1.350572871075e-04 -5.588131837086e-04 0.0 
8.155479335318e-05 -5.546376100187e-04 0.0 
4.350130713438e-05 6.596914215127e-04 0.0 
1.824955397167e-03 1.079239146630e-02 0.0 
3.211631582376e-04 7.794846305223e-03 0.0 
2.180001705398e-03 1.091318104394e-02 0.0 
2.037876043622e-03 9.871595479239e-03 0.0 
-1.365110676097e-03 3.711616432609e-03 0.0 
7.241738822682e-05 7.256481473899e-03 0.0 
4.542823441903e-05 7.365656188469e-06 0.0 
-7.942230294712e-07 -7.812503332397e-04 0.0 
2.409906928980e-05 1.505104155125e-03 0.0 
1.768491174674e-03 8.676303876689e-03 0.0 
1.888133533329e-03 8.172699426624e-03 0.0 
1.729247995451e-03 7.822034073499e-03 0.0 
1.868833494745e-03 7.243478468205e-03 0.0 
1.713057929040e-03 6.803102628583e-03 0.0 
1.815535576170e-03 6.294058117657e-03 0.0 
1.989780789786e-03 6.703288916909e-03 0.0 
1.908392043238e-03 5.776507139179e-03 0.0 
2.098193547344e-03 6.162402238478e-03 0.0 
1.636456557475e-03 5.849100671789e-03 0.0 
1.985005112560e-03 5.254006065269e-03 0.0 
2.189581729567e-03 5.614162657938e-03 0.0 
2.042004491960e-03 4.731914808266e-03 0.0 
2.258785280498e-03 5.063196787932e-03 0.0 
2.386228667418e-03 5.936618679568e-03 0.0 
2.466655880891e-03 5.356279656210e-03 0.0 
2.571018937109e-03 6.212407283908e-03 0.0 
2.660957740840e-03 5.597332610742e-03 0.0 
2.518895148667e-03 4.782384391976e-03 0.0 
2.719677674093e-03 4.990836382162e-03 0.0 
2.837939574423e-03 5.780282691078e-03 0.0 
2.899724840237e-03 5.137666228169e-03 0.0 
2.992989765741e-03 5.895758550854e-03 0.0 
3.054021619020e-03 5.212924668010e-03 0.0 
3.122366168855e-03 5.935144619100e-03 0.0 
3.178060480781e-03 5.212436295098e-03 0.0 
3.073758054385e-03 4.556204448402e-03 0.0 
3.189484624648e-03 4.525884896051e-03 0.0 
3.264782641003e-03 5.130086425372e-03 0.0 
3.263952722488e-03 4.417569875156e-03 0.0 
3.307046868481e-03 4.961911125575e-03 0.0 
3.290564742544e-03 4.230634811442e-03 0.0 
3.219405153005e-03 3.761492563878e-03 0.0 
3.231785680215e-03 3.569828541816e-03 0.0 
3.263162160034e-03 3.969340161566e-03 0.0 
3.190753478954e-03 3.317478568620e-03 0.0 
3.177148750099e-03 3.644137941176e-03 0.0 
3.094811011690e-03 3.015290774588e-03 0.0 
3.031731606281e-03 3.269262590150e-03 0.0 
2.944567116789e-03 2.674864390818e-03 0.0 
2.985995440785e-03 2.470522048509e-03 0.0 
2.836083776105e-03 2.165254249437e-03 0.0 
2.744653502793e-03 2.312917647106e-03 0.0 
2.643687157997e-03 1.846947571695e-03 0.0 
2.709811318161e-03 1.734664549869e-03 0.0 
2.527368269776e-03 1.456886842611e-03 0.0 
2.568792797670e-03 1.373736831888e-03 0.0 
2.398104262409e-03 1.132507062640e-03 0.0 
2.317998726935e-03 1.181950194185e-03 0.0 
2.203754533454e-03 8.942790257290e-04 0.0 
2.258391486367e-03 8.653925049695e-04 0.0 
2.078507039106e-03 6.591219902406e-04 0.0 
1.991834777337e-03 6.644666846608e-04 0.0 
1.884976435860e-03 4.617699944004e-04 0.0 
1.945856627433e-03 4.701750109535e-04 0.0 
1.768211811355e-03 2.994738459372e-04 0.0 
1.683599528766e-03 2.767205628216e-04 0.0 
1.584219560806e-03 1.401073317332e-04 0.0 
1.645653177145e-03 1.730701207946e-04 0.0 
1.476404091878e-03 3.432339090027e-05 0.0 
1.397866203104e-03 -6.670080029783e-06 0.0 
1.306214014025e-03 -9.249630508887e-05 0.0 
1.363126108232e-03 -4.453499545670e-05 0.0 
1.206613011592e-03 -1.556693397618e-04 0.0 
1.244385054311e-03 -1.019240982417e-04 0.0 
1.135445442055e-03 -2.089148399927e-04 0.0 
1.050818028557e-03 -2.568528866905e-04 0.0 
9.694648444160e-04 -3.129272903053e-04 0.0 
8.991036775596e-04 -3.475425734675e-04 0.0 
3.135855667054e-03 3.168102253840e-03 0.0 
8.140864018360e-04 -4.029227008430e-04 0.0 
8.644501895362e-04 -3.626162597549e-04 0.0 
7.549107682263e-04 -4.274070148122e-04 0.0 
8.198713498377e-04 -3.682547039895e-04 0.0 
6.694205427752e-04 -4.808750388148e-04 0.0 
6.200874514977e-04 -4.969498219188e-04 0.0 
5.374574529571e-04 -5.472980782274e-04 0.0 
3.086020783030e-03 3.969012915427e-03 0.0 
2.538490367066e-03 4.221283610694e-03 0.0 
4.964618692141e-04 -5.566952998067e-04 0.0 
4.197095469333e-04 -6.030020947599e-04 0.0 
4.412573726619e-04 -5.889515881558e-04 0.0 
3.331337714556e-04 -6.399415648741e-04 0.0 
1.546130260490e-03 6.351942825972e-03 0.0 
1.453554362964e-03 5.384913470362e-03 0.0 
1.378570650230e-03 5.880391053123e-03 0.0 
1.269558325883e-03 4.909243497326e-03 0.0 
1.209433687518e-03 5.389096385643e-03 0.0 
3.168509252588e-04 -6.491199347116e-04 0.0 
1.818883544497e-03 4.341513527540e-03 0.0 
1.316885896815e-03 4.421957603805e-03 0.0 
2.893165440382e-03 6.594232570292e-03 0.0 
3.275469656316e-03 5.754902680088e-03 0.0 
2.706894002499e-03 1.608585115489e-03 0.0 
5.604468896089e-04 -5.024706373901e-04 0.0 
4.444477199617e-04 -5.570715741358e-04 0.0 
4.918037387027e-04 -4.994532085439e-04 0.0 
1.383272283378e-03 2.528478955000e-06 0.0 
1.247288175915e-03 -5.017954870132e-05 0.0 
1.364410254673e-03 4.555079925091e-05 0.0 
1.214439662436e-03 -2.884128093470e-06 0.0 
1.305883871817e-03 8.205392210850e-05 0.0 
1.145602024150e-03 3.757047668510e-05 0.0 
1.066368364832e-03 -3.609232744024e-05 0.0 
9.900951555744e-04 7.060568461780e-06 0.0 
9.217704693023e-04 -5.702823938638e-05 0.0 
1.207805096570e-03 1.096299189201e-04 0.0 
1.380346839909e-03 1.659789360869e-04 0.0 
8.409145591886e-04 -1.242565149109e-05 0.0 
7.821325621224e-04 -6.833248541023e-05 0.0 
6.995321905682e-04 -2.350205708861e-05 0.0 
6.489661980997e-04 -7.218899573444e-05 0.0 
7.094025349594e-04 -1.253277934618e-04 0.0 
5.839144540448e-04 -1.225208739389e-04 0.0 
6.260307362065e-04 -1.819974186582e-04 0.0 
2.544254823115e-03 1.277135983228e-03 0.0 
2.637630245723e-03 1.468851573131e-03 0.0 
2.455646342539e-03 1.167451267066e-03 0.0 
2.503062362576e-03 1.315423998618e-03 0.0 
2.303999229857e-03 1.044757370202e-03 0.0 
2.304247948642e-03 1.149203799531e-03 0.0 
2.089678736196e-03 9.093955013107e-04 0.0 
2.096916078950e-03 8.215987770462e-04 0.0 
2.077468287380e-03 4.206933067163e-03 0.0 
2.504269820401e-03 1.944535029525e-03 0.0 
2.574542736170e-03 2.443249571373e-03 0.0 
2.286380501206e-03 2.027746182055e-03 0.0 
2.318275741275e-03 2.553423192279e-03 0.0 
1.984452980103e-03 2.095878889642e-03 0.0 
1.966944424888e-03 2.644973680833e-03 0.0 
1.592446606400e-03 2.154097345943e-03 0.0 
1.644702013774e-03 1.673825583471e-03 0.0 
1.230442470146e-03 1.714122066140e-03 0.0 
1.314916643538e-03 1.294283525511e-03 0.0 
8.976339541640e-04 1.325717361788e-03 0.0 
1.006314092326e-03 9.593754898514e-04 0.0 
3.051800942565e-03 3.936726199342e-03 0.0 
2.508463815882e-03 1.438009429144e-03 0.0 
2.261341731549e-03 1.224787536380e-03 0.0 
2.468458300878e-03 1.526544963729e-03 0.0 
3.350555082012e-04 -6.205554944525e-04 0.0 
5.235072616727e-04 -7.031899192520e-05 0.0 
1.248596061807e-03 1.773396677946e-04 0.0 
1.433783252724e-03 2.455262110035e-04 0.0 
1.869185698295e-03 7.121326642464e-04 0.0 
2.418115504733e-04 -6.809543828493e-04 0.0 
1.512283952153e-03 2.723784743981e-03 0.0 
1.922325230734e-03 3.297687502920e-03 0.0 
1.088726226087e-03 4.414544821502e-03 0.0 
1.043329938771e-03 4.884422049996e-03 0.0 
1.263473105078e-03 2.374219374644e-04 0.0 
2.291401390710e-04 -6.868985510149e-04 0.0 
8.820240606717e-04 4.047340146018e-05 0.0 
7.468680670494e-04 1.764422512539e-03 0.0 
4.646187311982e-04 -1.147407388750e-04 0.0 
4.069211137970e-04 -6.414096966187e-05 0.0 
9.742994675516e-04 -1.090469672950e-04 0.0 
2.172768460568e-03 1.264929903458e-03 0.0 
2.386737825943e-03 1.578740500413e-03 0.0 
1.369648035404e-03 9.441489898330e-04 0.0 
1.082106871450e-03 6.551962161765e-04 0.0 
7.264779440761e-04 6.672640763006e-04 0.0 
8.290674207610e-04 3.959357929563e-04 0.0 
1.131084465467e-03 4.033613251639e-04 0.0 
8.873961440710e-04 1.866671582696e-04 0.0 
5.972172668129e-04 1.799446895941e-04 0.0 
6.691233095900e-04 6.119593884085e-07 0.0 
9.240711361981e-04 1.562954151794e-05 0.0 
7.194381833288e-04 -1.434276285268e-04 0.0 
4.774152732126e-04 -1.552964398564e-04 0.0 
5.392007301656e-04 -2.769495994167e-04 0.0 
4.456029736867e-04 -2.785101269166e-05 0.0 
4.301468091892e-04 1.372474502903e-03 0.0 
2.454661322413e-03 6.825842419063e-03 0.0 
1.074711160865e-03 1.759242099359e-04 0.0 
1.817287656686e-03 7.646391970020e-04 0.0 
9.137143539354e-04 3.908586802834e-03 0.0 
8.823545612373e-04 4.369709212444e-03 0.0 
9.871162886531e-04 5.357500083759e-03 0.0 
8.391452795527e-04 4.832090314424e-03 0.0 
7.288213513049e-04 3.847373897288e-03 0.0 
6.982407987947e-04 4.302891921131e-03 0.0 
7.866335597458e-04 5.295291845240e-03 0.0 
6.571117692243e-04 4.758884976568e-03 0.0 
7.266549632661e-04 5.757247651593e-03 0.0 
6.073554604432e-04 5.214237864251e-03 0.0 
5.354542204022e-04 4.219919458983e-03 0.0 
4.952258561559e-04 4.670931671583e-03 0.0 
5.507167817967e-04 5.669340687243e-03 0.0 
4.470060372925e-04 5.121991029419e-03 0.0 
4.885599346800e-04 6.123241437817e-03 0.0 
3.920739965005e-04 5.572697752611e-03 0.0 
3.510356616582e-04 4.575614552343e-03 0.0 
1.701199861643e-04 -7.125764964374e-04 0.0 
1.885715050203e-03 6.400601155831e-04 0.0 
1.646383808222e-03 5.523118135652e-04 0.0 
3.857181461574e-04 -5.494566474696e-04 0.0 
4.188156931525e-04 -4.885628532735e-04 0.0 
5.261862574658e-04 -4.360397712274e-04 0.0 
4.370594855798e-04 -4.241093963026e-04 0.0 
3.014298943507e-04 5.028010143815e-03 0.0 
2.641552282917e-04 4.031929045259e-03 0.0 
1.402825303592e-03 3.400162415647e-03 0.0 
1.849650818243e-03 4.077275660852e-03 0.0 
9.304166528919e-04 3.449350635808e-03 0.0 
3.526312200046e-04 -1.034719855101e-04 0.0 
3.937920746214e-04 -1.603077404383e-04 0.0 
3.284338181827e-03 5.519517379816e-03 0.0 
3.217876511785e-03 6.396699374694e-03 0.0 
3.191019765102e-03 6.092529718639e-03 0.0 
3.081781406803e-03 7.072691215052e-03 0.0 
3.094674394304e-03 7.320091529811e-03 0.0 
3.012614451093e-03 6.689384263352e-03 0.0 
1.557870572840e-03 2.409514678643e-04 0.0 
4.233142607623e-04 3.681006738777e-03 0.0 
4.484508319908e-04 -5.630582193991e-04 0.0 
3.206481304576e-04 -5.891508637002e-04 0.0 
3.003627035401e-04 -5.548976880857e-05 0.0 
2.066152050448e-03 7.139909190044e-04 0.0 
2.906397321366e-03 3.917537863710e-03 0.0 
2.850891428093e-03 3.358172374365e-03 0.0 
2.674440855465e-03 3.292043914877e-03 0.0 
2.585024042457e-03 2.790000487506e-03 0.0 
2.376166506081e-03 2.678818943597e-03 0.0 
2.250780234587e-03 2.232642624530e-03 0.0 
2.459787530383e-03 2.330956241342e-03 0.0 
2.035973720414e-03 1.262175157065e-03 0.0 
2.090796127089e-03 1.826973985351e-03 0.0 
3.368764189239e-04 6.032318199699e-03 0.0 
2.699447903881e-03 1.781101251207e-03 0.0 
9.386896796349e-04 -1.195300510194e-04 0.0 
1.679474435627e-04 -7.005950784928e-04 0.0 
3.089474758152e-04 -2.843150110979e-04 0.0 
1.571579564540e-04 -7.162902648607e-04 0.0 
2.037393099889e-04 -6.849150566296e-04 0.0 
1.048546944995e-03 2.150783190677e-04 0.0 
2.008033512606e-03 2.077327877574e-03 0.0 
2.137209910045e-03 2.509448329608e-03 0.0 
2.909688062194e-03 8.100166025120e-03 0.0 
2.917063713907e-03 8.262289563870e-03 0.0 
1.807857764851e-03 9.938875603250e-04 0.0 
1.293548825944e-03 6.381733943189e-03 0.0 
8.514076739794e-04 6.298375479514e-03 0.0 
7.755514396433e-04 6.764025000306e-03 0.0 
1.086675757309e-04 -7.379934776135e-04 0.0 
2.267005367430e-04 -1.519112154914e-04 0.0 
5.853705843167e-04 3.321518108691e-03 0.0 
2.307588268451e-03 3.919997176243e-03 0.0 
2.261113435390e-03 4.802925741056e-03 0.0 
2.116562614812e-04 1.832370527449e-03 0.0 
-7.139191111705e-05 1.439209940288e-03 0.0 
2.230464096751e-04 4.470670299704e-03 0.0 
1.891129947364e-04 3.489070047784e-03 0.0 
5.450019436035e-04 -3.695508086305e-04 0.0 
4.452716361568e-04 -3.561966800666e-04 0.0 
1.247791485668e-03 2.864023815982e-04 0.0 
3.847451634306e-04 -3.880396790762e-04 0.0 
2.160914577136e-04 3.046722892030e-03 0.0 
1.865137754941e-03 5.491134298399e-04 0.0 
2.001462994119e-03 5.920185469763e-04 0.0 
3.320425556991e-04 -4.745686480749e-04 0.0 
1.251993917107e-03 4.203137077189e-03 0.0 
7.682047208135e-04 3.495151561816e-03 0.0 
1.149660951983e-03 4.020900287130e-05 0.0 
5.774051446001e-04 -3.708051062745e-04 0.0 
1.339402349714e-04 -7.133661619410e-04 0.0 
9.873678321118e-04 2.392577957475e-04 0.0 
5.908906600940e-04 2.874634440794e-03 0.0 
2.301003090179e-03 1.921764990260e-03 0.0 
2.630436010036e-03 2.376781045993e-03 0.0 
1.900472203210e-03 1.467029111097e-03 0.0 
1.843428823464e-04 -3.915866013967e-04 0.0 
8.594397668663e-04 1.595479964704e-04 0.0 
2.492358250382e-04 -8.970364887559e-05 0.0 
1.753691804838e-03 1.900395380172e-03 0.0 
1.871958686231e-03 2.289010950130e-03 0.0 
2.638515655529e-03 4.555190021697e-03 0.0 
2.606032330671e-03 5.529779017536e-03 0.0 
2.179327646613e-03 5.871320075121e-03 0.0 
2.509186734880e-03 6.665217716113e-03 0.0 
2.157337788725e-03 7.087485441647e-03 0.0 
2.900160638698e-03 5.161598402354e-03 0.0 
2.614806099888e-03 7.086761974914e-03 0.0 
2.467151920484e-03 7.728094009653e-03 0.0 
2.598800097675e-03 7.977204173278e-03 0.0 
3.059692005493e-03 7.455693241453e-03 0.0 
2.879821537991e-03 8.322425183301e-03 0.0 
2.623824751738e-03 3.035553100922e-03 0.0 
2.806677387654e-03 1.829417047820e-03 0.0 
6.415562579351e-04 -3.770139211417e-04 0.0 
7.483067544795e-04 -1.847085252945e-04 0.0 
1.514637924739e-03 1.128677746915e-04 0.0 
4.444510426332e-04 3.235392112912e-03 0.0 
3.348783572581e-04 2.701224647841e-03 0.0 
5.906441237173e-04 6.674633717167e-03 0.0 
5.171089207971e-04 7.130372586082e-03 0.0 
2.235722936363e-04 -6.411570593890e-04 0.0 
1.893939328784e-04 -6.026232351664e-04 0.0 
1.122106463372e-03 -1.415154665602e-04 0.0 
8.954920083191e-04 1.298005238772e-04 0.0 
7.494754427685e-04 2.944331010800e-03 0.0 
7.334855628643e-04 2.497164309818e-03 0.0 
9.292631569387e-04 2.991941887834e-03 0.0 
1.196470136364e-03 3.203215609830e-04 0.0 
2.237134999276e-03 1.587672641822e-03 0.0 
2.370841133159e-03 1.002277010324e-03 0.0 
1.583127222376e-04 1.038538544307e-03 0.0 
3.085870957705e-03 3.297794364332e-03 0.0 
1.120870371717e-04 -6.497451110397e-04 0.0 
2.316287042241e-03 3.990433063646e-03 0.0 
2.054130178706e-04 -4.485392902095e-05 0.0 
2.379027258172e-04 -1.879284693237e-05 0.0 
1.621456036122e-03 9.464238972668e-04 0.0 
2.012569364301e-03 8.575039064649e-03 0.0 
2.977226536027e-03 2.766842024728e-03 0.0 
3.019385955568e-03 2.642408405334e-03 0.0 
2.424694595201e-03 8.637258123711e-03 0.0 
2.524693170573e-03 8.877483327557e-03 0.0 
2.711915710913e-03 8.167631921807e-03 0.0 
2.603027067482e-03 9.064710694831e-03 0.0 
1.128484101769e-03 -8.614339505569e-05 0.0 
9.325437274906e-04 -2.236340061291e-04 0.0 
1.549941304338e-03 1.472488532728e-03 0.0 
1.663185325253e-03 1.343472538467e-03 0.0 
1.472317644288e-03 1.660791417068e-03 0.0 
1.586456805632e-03 2.015093196014e-03 0.0 
1.372822872253e-03 7.153042016930e-04 0.0 
1.566678607908e-03 7.667966748604e-04 0.0 
1.664858577840e-04 -6.772461538197e-04 0.0 
2.698102183574e-03 9.176105228680e-03 0.0 
4.476837619211e-04 2.351690807294e-03 0.0 
2.307753527988e-03 8.352896893846e-03 0.0 
6.881103583496e-04 1.180083006960e-04 0.0 
7.284803211430e-04 9.420620046072e-05 0.0 
-3.085828742181e-04 1.105714783056e-03 0.0 
-6.603291854389e-05 7.097774611655e-04 0.0 
1.471699408583e-04 2.530280671865e-03 0.0 
2.039939810874e-03 7.134566230079e-03 0.0 
2.327574777101e-03 7.933386861494e-03 0.0 
1.614421188638e-03 6.159144760295e-03 0.0 
3.137774010697e-05 3.544396865033e-06 0.0 
1.390993505155e-04 9.046937883924e-03 0.0 
1.542476079248e-04 -1.222845309117e-05 0.0 
2.984717400759e-03 7.490989179919e-03 0.0 
1.580518793163e-04 2.054813596686e-03 0.0 
2.839074784914e-03 2.303139099730e-03 0.0 
3.233339036156e-03 5.192900264243e-03 0.0 
1.455368469996e-03 3.791010467214e-04 0.0 
1.205231588621e-04 3.049803380480e-03 0.0 
8.830055263698e-05 1.975623134932e-03 0.0 
8.913205301542e-04 7.292119920785e-03 0.0 
8.055398326753e-04 7.776676651091e-03 0.0 
9.799392116389e-04 6.835014399725e-03 0.0 
5.590516870068e-04 2.285629569079e-03 0.0 
-1.196688029209e-04 2.450759063050e-03 0.0 
3.222263803062e-04 3.142948246154e-03 0.0 
3.397795585844e-04 -6.040724163701e-04 0.0 
2.828272603664e-04 -5.895079510803e-04 0.0 
4.237727506766e-04 -4.649939429325e-04 0.0 
5.904194604219e-04 -4.409468786516e-04 0.0 
6.555037658418e-04 -3.105704640061e-04 0.0 
7.607198206187e-04 -3.121416067079e-04 0.0 
2.293533878716e-03 3.470162011499e-03 0.0 
2.049866342905e-03 3.219457134276e-03 0.0 
2.727243953260e-03 3.834415408064e-03 0.0 
1.811934586675e-03 4.456009163787e-04 0.0 
1.908093452617e-03 4.620329105635e-04 0.0 
2.083590142742e-03 6.249855146081e-04 0.0 
3.386257121450e-04 2.292828057683e-03 0.0 
2.250360063097e-04 1.684825647239e-03 0.0 
1.336514593007e-03 7.322778081885e-05 0.0 
1.375173507665e-03 2.253960452745e-04 0.0 
1.087776171816e-03 -1.840713112644e-04 0.0 
4.283869049485e-04 1.931414325344e-03 0.0 
1.703413650135e-04 3.817344264372e-06 0.0 
2.537461091760e-04 2.966082211629e-06 0.0 
6.363163205134e-05 -6.048761030054e-04 0.0 
1.395136654485e-04 -5.468568267232e-04 0.0 
5.255765113621e-04 4.299537247529e-03 0.0 
4.302396686487e-05 3.599649880162e-03 0.0 
7.061077315431e-04 2.090854430806e-03 0.0 
9.092060144223e-04 2.546891279786e-03 0.0 
4.988884219841e-04 1.563263798298e-03 0.0 
9.721833224910e-05 -7.071047840747e-04 0.0 
2.465246204510e-03 1.963457922579e-03 0.0 
9.107284282041e-04 2.556993362287e-04 0.0 
1.130971295754e-03 3.446799408992e-04 0.0 
6.653625200280e-04 1.734577003000e-04 0.0 
1.867898030220e-03 1.226703809379e-03 0.0 
1.412556881010e-03 8.660681402677e-04 0.0 
1.421631538870e-03 1.018827061956e-03 0.0 
-5.772243324654e-04 1.513237319190e-03 0.0 
6.656064189332e-05 2.376424612297e-03 0.0 
6.162087382195e-04 7.686144837007e-03 0.0 
-7.153202168625e-04 1.225109668894e-03 0.0 
5.327326210614e-04 8.178718079975e-03 0.0 
4.431093101347e-04 7.592021657974e-03 0.0 
4.613435215968e-04 8.665834460535e-03 0.0 
7.806019507357e-05 -7.359146224633e-04 0.0 
1.018748855299e-03 8.000206674912e-03 0.0 
1.119620581393e-03 7.406364882521e-03 0.0 
-3.143795592252e-05 -5.389934173197e-04 0.0 
2.887797022518e-04 1.423651553400e-03 0.0 
1.464471431895e-05 -6.449182903263e-04 0.0 
5.962919807689e-05 -6.835612612603e-04 0.0 
5.266849852181e-04 8.366800220937e-05 0.0 
5.745839952855e-04 6.869120189376e-05 0.0 
3.836200902439e-04 6.062871574053e-05 0.0 
4.457421773340e-04 5.205023570954e-05 0.0 
5.980857789258e-04 4.392881607604e-05 0.0 
4.650430470708e-04 3.105920589897e-05 0.0 
7.248861736273e-04 8.329159488949e-03 0.0 
3.053367773645e-04 3.794222231835e-05 0.0 
3.442857372492e-04 2.334374706953e-05 0.0 
2.015259581252e-04 2.452778023877e-05 0.0 
2.386493080626e-03 9.791548089018e-03 0.0 
2.708636366495e-03 7.323674210423e-03 0.0 
2.495070273431e-03 8.557803804823e-03 0.0 
2.025355324049e-03 9.365490426887e-03 0.0 
1.071687475126e-03 1.235425395110e-03 0.0 
1.309811317663e-03 1.734597336166e-03 0.0 
1.553222928907e-04 -7.362097159487e-05 0.0 
1.772426320236e-04 -1.250843869263e-04 0.0 
3.668322088723e-04 8.127386172633e-03 0.0 
2.679921451589e-04 8.167415062702e-03 0.0 
2.905699096489e-04 7.245608565092e-03 0.0 
2.099065456367e-04 7.355125099218e-03 0.0 
2.249152477992e-04 6.453132344005e-03 0.0 
1.449714216527e-04 6.566980126587e-03 0.0 
1.701815652252e-04 5.667067491360e-03 0.0 
1.140427431804e-03 8.671657281615e-04 0.0 
1.358605815663e-03 7.483670539746e-03 0.0 
2.240045962644e-03 9.281251341507e-03 0.0 
1.113384835890e-03 5.211775365205e-04 0.0 
1.354510376180e-03 6.005616820603e-04 0.0 
2.668449175274e-03 9.160417725413e-03 0.0 
2.448110720829e-03 1.006978608740e-02 0.0 
5.710550980592e-04 1.200319850441e-04 0.0 
2.904738249010e-03 4.278610825371e-03 0.0 
2.164316165983e-04 8.963943559012e-04 0.0 
-1.456046450213e-03 2.770960381850e-03 0.0 
-8.278124970626e-04 2.445060032638e-03 0.0 
3.101303283185e-03 4.780277360683e-03 0.0 
2.806682346933e-03 8.289157021272e-03 0.0 
2.839042872096e-03 7.805143851978e-03 0.0 
2.630045232986e-03 8.912458173480e-03 0.0 
1.663254591527e-03 4.189095537215e-04 0.0 
6.457420473899e-05 -4.718575792888e-04 0.0 
1.076662811947e-03 5.167192751374e-03 0.0 
2.479489928355e-04 5.568569200559e-03 0.0 
2.028322998238e-04 5.202294021337e-03 0.0 
8.127218977761e-05 -9.961639749734e-05 0.0 
2.882838876038e-03 3.515221727787e-03 0.0 
3.125339412964e-03 6.683521224687e-03 0.0 
1.748554993424e-03 5.010791845033e-03 0.0 
2.867397431702e-03 6.181334538849e-03 0.0 
2.282340228504e-03 6.516895714568e-03 0.0 
2.023405216980e-03 7.641608172859e-03 0.0 
2.165078213186e-03 8.026488470212e-03 0.0 
2.826985139464e-03 2.866438121199e-03 0.0 
2.690297456900e-03 9.104675570513e-03 0.0 
2.348493168073e-03 1.004777755964e-02 0.0 
2.742287088394e-03 6.435030775129e-03 0.0 
1.135089373348e-03 3.474922144980e-03 0.0 
1.128238543538e-03 3.009993545497e-03 0.0 
8.720023293082e-04 2.134262332879e-03 0.0 
1.098602733182e-03 2.562529103194e-03 0.0 
1.356265720766e-03 3.463216105266e-03 0.0 
1.341449063331e-03 2.995795699737e-03 0.0 
1.043450994011e-03 2.136211817092e-03 0.0 
1.301139792105e-03 2.542678208506e-03 0.0 
8.794945155664e-04 1.553084189770e-03 0.0 
1.219996170882e-03 2.087487450552e-03 0.0 
1.565053550782e-03 2.947930122387e-03 0.0 
1.512292758133e-03 2.509553903284e-03 0.0 
1.162969980744e-03 1.771598738493e-03 0.0 
1.835652319581e-03 3.371396041211e-03 0.0 
8.785271300721e-04 4.361756153244e-04 0.0 
3.224783498182e-03 4.372914658908e-03 0.0 
-3.532675168605e-04 1.928092909890e-03 0.0 
-5.941384238947e-04 2.954941147503e-03 0.0 
3.021844992719e-03 6.680638363950e-03 0.0 
4.277304570799e-04 7.441269683599e-04 0.0 
3.488647559577e-04 7.651236049569e-04 0.0 
2.324429052752e-03 3.178118469823e-03 0.0 
5.513536138950e-04 5.579378415505e-04 0.0 
2.315831576847e-03 7.432858471330e-03 0.0 
1.109280301370e-03 2.215011654634e-03 0.0 
5.874344556762e-04 4.885142477668e-04 0.0 
1.347120484015e-03 3.937919201861e-03 0.0 
1.562344478896e-03 4.401891502400e-03 0.0 
1.515742004572e-03 4.894026719467e-03 0.0 
2.665141078849e-04 7.330436824455e-04 0.0 
1.064406818934e-03 6.364606336590e-03 0.0 
5.469589841905e-04 3.130996807164e-04 0.0 
2.690357149295e-03 1.639709073130e-03 0.0 
2.863318084137e-03 2.025793157360e-03 0.0 
2.958113940518e-03 2.254313421648e-03 0.0 
1.591029414187e-03 3.433565287688e-03 0.0 
4.914707422272e-04 1.974737925091e-04 0.0 
8.808550954499e-04 3.420609060984e-04 0.0 
8.230562020192e-04 2.905928227988e-04 0.0 
1.224777739906e-03 4.549230192940e-04 0.0 
4.263807704664e-04 1.454297176643e-04 0.0 
4.506425116215e-04 6.235703161841e-04 0.0 
4.566504697327e-04 5.669173067234e-04 0.0 
1.150852325639e-03 2.018036327008e-04 0.0 
1.396887087302e-03 4.164230362611e-04 0.0 
1.611926621570e-03 4.349737245318e-04 0.0 
1.653803890680e-03 6.604205185395e-04 0.0 
1.395823391291e-03 6.543914785093e-04 0.0 
1.673911350249e-03 9.356295953311e-04 0.0 
1.913839242947e-03 9.299638279263e-04 0.0 
1.670261418703e-03 1.271024379270e-03 0.0 
1.705054262616e-03 2.455110003105e-03 0.0 
3.483562215855e-04 1.000353865315e-04 0.0 
1.469291705627e-03 1.436303998080e-04 0.0 
1.633671092137e-03 2.258033299598e-04 0.0 
1.662384278217e-03 2.022771887488e-04 0.0 
7.337563332226e-04 -3.771673342837e-04 0.0 
8.623578658981e-04 -3.054443459925e-04 0.0 
8.805631337035e-04 -2.415428858906e-04 0.0 
6.094674810451e-04 -4.419205684704e-04 0.0 
2.757843490469e-03 2.843731118248e-03 0.0 
3.175035020463e-04 8.335959869273e-05 0.0 
2.189146203924e-03 7.763108825980e-04 0.0 
9.594109108822e-04 -2.879903185943e-04 0.0 
1.356167708585e-03 8.941342561788e-03 0.0 
1.423678880133e-03 8.041877326413e-03 0.0 
1.562951489676e-03 7.958616086914e-03 0.0 
1.459563619285e-03 7.010943625262e-03 0.0 
1.265231700919e-03 7.976422045538e-03 0.0 
5.483870995491e-04 -3.019726112685e-04 0.0 
4.407842567249e-04 -2.878933343288e-04 0.0 
3.432085889828e-04 -3.381400976075e-04 0.0 
3.338069915561e-04 -2.696019196654e-04 0.0 
2.406314373009e-04 -3.161006703960e-04 0.0 
2.472970054931e-04 -3.839021533756e-04 0.0 
2.265010949200e-04 -2.480467306107e-04 0.0 
1.399757722430e-04 -2.985203452244e-04 0.0 
1.090386434668e-03 9.013078560383e-03 0.0 
-6.556039311109e-04 4.113226046314e-04 0.0 
-3.162039151129e-04 2.370139782529e-04 0.0 
-2.507303340452e-04 3.817444324617e-06 0.0 
-3.807156433940e-05 9.232166456166e-05 0.0 
-5.051961646334e-05 3.366155293892e-04 0.0 
2.660959822135e-04 1.863102729476e-04 0.0 
2.243605611671e-04 4.597602323796e-04 0.0 
-3.961388097186e-04 5.354708009104e-04 0.0 
-4.260561009090e-04 -6.427695841160e-05 0.0 
-1.864757693521e-04 -1.807166364577e-04 0.0 
-3.337643101705e-04 -2.335778061705e-04 0.0 
-1.400500714035e-04 -3.244870613438e-04 0.0 
5.574768311411e-05 -2.764950279924e-04 0.0 
2.941110753383e-04 -5.415770018306e-04 0.0 
8.861218045740e-05 1.240941871355e-05 0.0 
8.902435543473e-05 -4.908107426364e-04 0.0 
1.677831250446e-04 -5.202107365622e-04 0.0 
1.528872559241e-04 -5.790335874577e-04 0.0 
2.477091280314e-04 -5.419099038666e-04 0.0 
1.725366055889e-04 -4.607577258335e-04 0.0 
7.162509330056e-05 -6.116168359323e-04 0.0 
1.338638899854e-04 -6.271426435288e-04 0.0 
-2.580592623547e-06 -7.722577520616e-04 0.0 
1.558339471600e-05 -7.755766495615e-04 0.0 
6.386081475387e-06 -7.826278891885e-04 0.0 
2.730381237290e-05 -7.728333873273e-04 0.0 
4.262134156335e-05 -7.649312477552e-04 0.0 
2.071454958968e-05 -7.650950928795e-04 0.0 
2.253419331077e-05 -7.503153814421e-04 0.0 
-1.806687404139e-05 -7.387616530255e-04 0.0 
2.086831284065e-05 -7.297453867136e-04 0.0 
7.059957578587e-05 -7.376758389977e-04 0.0 
-3.434210809298e-05 -7.123652364154e-04 0.0 
5.434364272213e-05 4.365687364607e-03 0.0 
1.028863961921e-04 3.875723254811e-03 0.0 
2.730659360086e-04 5.988758604072e-05 0.0 
8.422916627954e-04 8.954777353592e-03 0.0 
-1.870372275921e-04 -4.752591561059e-04 0.0 
8.177998140687e-05 9.763041879355e-04 0.0 
1.251247115444e-04 8.060463053238e-04 0.0 
1.002991932314e-04 7.818302800246e-04 0.0 
5.151061004667e-05 -1.727423622521e-05 0.0 
8.365079285689e-05 -3.887273239863e-06 0.0 
4.485310432247e-05 9.501476107105e-04 0.0 
5.653480663201e-04 -5.271238030378e-04 0.0 
8.111125690282e-04 1.741852771379e-03 0.0 
2.332779084685e-04 2.604602490947e-03 0.0 
9.626850041267e-04 2.800881747928e-03 0.0 
7.526672847644e-04 -3.413786903686e-04 0.0 
2.812115593228e-04 -1.439987283088e-04 0.0 
8.399876960571e-04 -1.212898847879e-04 0.0 
3.357656721226e-04 -2.416559967728e-05 0.0 
5.075372473275e-04 -1.732549374946e-04 0.0 
5.673094328304e-04 -2.807060535816e-05 0.0 
7.827670772584e-04 2.478914451694e-04 0.0 
1.019163843026e-04 -7.387599506002e-04 0.0 
6.607809462780e-04 6.217004215279e-03 0.0 
4.257660827895e-04 6.580329974789e-03 0.0 
3.917276093663e-04 4.128163580495e-03 0.0 
3.853388595400e-04 -6.074457540482e-04 0.0 
3.466410638051e-04 -4.031066572526e-04 0.0 
2.412300367227e-04 -6.660673578296e-04 0.0 
1.051894036209e-03 9.801723859043e-04 0.0 
2.756159604241e-03 7.296545177708e-03 0.0 
1.516484422094e-03 7.533705485617e-05 0.0 
6.862369962591e-04 -4.396259239568e-04 0.0 
7.076498112686e-04 -4.516711537794e-04 0.0 
7.472029176592e-04 -2.558508309216e-04 0.0 
3.296874543304e-03 4.707610843939e-03 0.0 
1.101950139263e-03 -1.990569931985e-04 0.0 
1.041199829674e-03 6.886301922540e-05 0.0 
2.982164470742e-04 3.586906073375e-03 0.0 
-7.951752409882e-05 -6.301948430979e-04 0.0 
1.070861975279e-03 1.262787484348e-04 0.0 
1.110576419579e-03 -8.626396042545e-05 0.0 
9.227037337026e-04 5.830333045928e-03 0.0 
2.041908155674e-03 9.718077977763e-04 0.0 
4.014785950167e-04 -6.979805480771e-06 0.0 
5.663727653404e-04 3.771357521729e-03 0.0 
5.611571626750e-04 2.050791351852e-03 0.0 
1.205610352454e-03 6.887969993291e-03 0.0 
1.460219788208e-04 -6.823561799247e-04 0.0 
6.986566824555e-04 7.241269244680e-03 0.0 
7.885362539349e-04 1.767757534211e-04 0.0 
1.120270534783e-03 3.942494792429e-03 0.0 
2.876286551822e-04 -6.500453947758e-04 0.0 
2.416111680367e-03 1.074029396787e-03 0.0 
3.218978559699e-03 5.888833033230e-03 0.0 
1.956864462997e-03 9.504421308174e-03 0.0 
2.406888613383e-04 2.200816519922e-03 0.0 
3.137585720907e-03 2.984985840764e-03 0.0 
1.582678101464e-03 5.919160416335e-04 0.0 
2.264101412516e-03 9.180253089595e-04 0.0 
2.482830145480e-04 -6.429377560358e-04 0.0 
7.431595984644e-04 6.178722295801e-05 0.0 
2.855122516602e-03 2.002911500777e-03 0.0 
4.542387466780e-04 2.798224470158e-03 0.0 
2.466334908726e-03 3.163738174848e-03 0.0 
2.418611814948e-03 1.529126656555e-03 0.0 
7.467732509579e-04 3.394608449512e-03 0.0 
1.806285992047e-03 3.194519840959e-04 0.0 
1.948179040294e-03 1.001116016503e-03 0.0 
2.881679886398e-03 7.431159387384e-03 0.0 
2.922793850206e-03 4.513616740257e-03 0.0 
2.304704618575e-03 4.525078780849e-03 0.0 
3.157660910959e-03 3.884592037964e-03 0.0 
1.912976307446e-04 -1.855667904227e-04 0.0 
9.017725319916e-04 8.859431779279e-05 0.0 
6.022540630735e-04 9.962594696268e-04 0.0 
3.092489577053e-03 5.684286291716e-03 0.0 
1.139487457531e-03 5.874234999905e-03 0.0 
1.859315684287e-03 1.699956314941e-03 0.0 
3.188371222112e-04 1.830304784409e-03 0.0 
3.193099091885e-03 6.590664633112e-03 0.0 
7.323891787052e-04 2.189925071812e-05 0.0 
5.846547924155e-04 2.460419423976e-03 0.0 
9.928463592220e-04 -2.267317759960e-04 0.0 
3.847056699751e-05 -7.362503976286e-04 0.0 
3.408968936015e-04 2.897587772133e-03 0.0 
1.980009454040e-03 1.634430196583e-03 0.0 
3.087514287706e-03 2.749004999155e-03 0.0 
9.981428916984e-04 -1.662766888091e-04 0.0 
6.221543056063e-04 1.571966826442e-03 0.0 
5.933022311272e-04 1.032247438440e-05 0.0 
1.459320261072e-03 3.173514088417e-04 0.0 
-1.103682349922e-03 4.365179542125e-03 0.0 
2.138319641867e-03 8.936497615266e-03 0.0 
4.661371129465e-04 4.176343843123e-06 0.0 
2.253945970015e-03 8.272839488107e-04 0.0 
1.717270540188e-03 7.844445955713e-04 0.0 
1.501305158434e-04 -3.611098314528e-04 0.0 
1.085807253423e-03 9.141654133699e-04 0.0 
2.442742698787e-03 9.938298035568e-03 0.0 
3.518769162427e-04 2.067961334113e-06 0.0 
1.672730977721e-03 4.938858537421e-04 0.0 
2.645158253489e-03 3.730356368486e-03 0.0 
2.309813446799e-04 9.049600070060e-03 0.0 
2.230546959482e-04 1.931372659686e-05 0.0 
1.413106442987e-03 4.224133899548e-04 0.0 
2.989527980062e-03 3.361782305466e-03 0.0 
2.109322358691e-03 6.469404299253e-04 0.0 
2.110554392172e-03 1.020123315948e-02 0.0 
8.730118593138e-04 -1.797411189328e-04 0.0 
2.743559879517e-03 4.402665435416e-03 0.0 
2.295416888757e-04 7.228028899409e-04 0.0 
1.357143829344e-03 4.566857610978e-04 0.0 
1.715158919611e-03 5.366282917292e-03 0.0 
7.659450953313e-04 -2.472368032382e-04 0.0 
2.669020877286e-03 1.891019649027e-03 0.0 
5.628392476203e-05 -7.539548451876e-04 0.0 
2.321747563117e-03 9.554019951517e-03 0.0 
6.503119714752e-04 -2.448269340409e-04 0.0 
1.956080103193e-03 1.249034824426e-03 0.0 
1.953848704511e-03 4.711310056776e-04 0.0 
1.163130076106e-03 6.400024218074e-04 0.0 
5.358849787215e-04 -2.358761500717e-04 0.0 
2.171998486557e-03 1.220206357760e-03 0.0 
4.234588534498e-04 -2.220602944421e-04 0.0 
2.187596754691e-03 1.072124694707e-02 0.0 
1.775264636794e-03 4.840194655773e-03 0.0 
3.100219660217e-04 -2.049139174441e-04 0.0 
2.521890047583e-03 3.680702127966e-03 0.0 
8.413066647812e-05 -7.144927719097e-04 0.0 
2.890701779832e-03 2.838027498515e-03 0.0 
1.207722978625e-04 -3.143750354331e-05 0.0 
1.032796903779e-03 -2.595688261265e-04 0.0 
1.795833751932e-03 3.330846491140e-04 0.0 
1.587801600046e-03 3.911947268304e-03 0.0 
2.143262305235e-03 1.104408601348e-02 0.0 
1.735199169263e-03 3.383213274189e-04 0.0 
2.234050344422e-03 2.978751083372e-03 0.0 
2.757848180612e-03 2.370838061365e-03 0.0 
3.013255332927e-03 2.471293986149e-03 0.0 
1.622934879976e-03 3.334591090882e-04 0.0 
2.435327038078e-03 1.005124058766e-02 0.0 
5.769880663933e-04 -4.952193091378e-04 0.0 
4.429362798257e-04 -5.232571255634e-04 0.0 
2.089657446561e-03 9.159396218405e-04 0.0 
1.976744135075e-03 2.738391854237e-03 0.0 
5.911176645506e-05 -7.567951828114e-04 0.0 
1.838185020968e-03 3.838621571337e-03 0.0 
2.475204047235e-04 -4.762050020313e-04 0.0 
1.852248098962e-03 6.664530132509e-04 0.0 
2.247832879038e-03 1.575497214786e-03 0.0 
6.565244335966e-05 6.314971633156e-03 0.0 
1.774813321275e-03 4.507077019978e-04 0.0 
4.814154477550e-05 -7.028125103629e-04 0.0 
1.553978786686e-03 2.533485993633e-04 0.0 
2.872833006214e-03 2.183037508528e-03 0.0 
1.482854533546e-03 1.079650577510e-04 0.0 
1.282047787373e-03 -4.650074596666e-05 0.0 
1.611329677254e-04 1.674683310410e-03 0.0 
1.214608201142e-03 -1.391145940064e-04 0.0 
2.248478352315e-05 7.861314365229e-04 0.0 
3.654737912226e-05 8.617199236723e-06 0.0 
8.658382023919e-05 8.287627178596e-03 0.0 
1.894705250278e-03 1.119090448609e-02 0.0 
-1.123833889107e-03 1.607198795352e-03 0.0 
2.301000559012e-03 9.559736947037e-03 0.0 
9.060031054399e-04 -3.028625492649e-04 0.0 
2.084029675026e-03 3.709932752580e-03 0.0 
1.799775439198e-04 8.242715947878e-03 0.0 
7.352125715086e-04 -4.065993712002e-04 0.0 
8.431576659874e-04 1.303354029474e-03 0.0 
5.571884144696e-04 3.815834146186e-04 0.0 
1.168617536000e-04 4.802428866241e-03 0.0 
1.500554331002e-03 6.168703333698e-04 0.0 
2.584530693623e-03 1.945885239473e-03 0.0 
3.310734676843e-05 2.473943333728e-03 0.0 
5.388058581488e-04 9.135844324657e-03 0.0 
-9.690783454264e-05 -4.404462569262e-04 0.0 
9.206452839965e-05 -1.569796586368e-04 0.0 
1.468137202635e-03 1.070881444602e-02 0.0 
1.735968939754e-03 8.530424613207e-03 0.0 
7.715712151258e-04 6.283051081326e-03 0.0 
1.946410366809e-04 -6.350520828981e-04 0.0 
-1.300616758611e-05 -1.073449674134e-04 0.0 
9.053911525588e-04 9.090421292562e-03 0.0 
9.557034022473e-04 4.060829767848e-04 0.0 
9.066958251555e-04 8.219540557857e-03 0.0 
2.113692880295e-03 1.571156244269e-03 0.0 
-2.764492788668e-04 6.336761086611e-03 0.0 
4.022675081947e-04 1.578882854238e-03 0.0 
1.112818675352e-03 7.080681224242e-04 0.0 
1.882885691621e-04 3.456296639647e-05 0.0 
1.662113999133e-03 1.141823224205e-03 0.0 
-3.245288344941e-04 4.316422094854e-03 0.0 
1.334326095006e-03 7.263434976343e-03 0.0 
1.015537542782e-03 1.042482694436e-03 0.0 
1.572841831461e-04 4.015331897062e-03 0.0 
1.360555672282e-04 2.258593931985e-05 0.0 
1.145896048953e-03 8.277183319769e-03 0.0 
9.770134135275e-05 1.562064706538e-03 0.0 
3.547897186331e-04 7.250185900772e-04 0.0 
4.990434859107e-05 1.516845928130e-03 0.0 
1.786963772424e-03 2.893955126567e-03 0.0 
3.663581499389e-04 7.037028200921e-03 0.0 
1.607482485746e-03 7.191611430698e-03 0.0 
1.008021805464e-04 6.560217667870e-06 0.0 
7.274230763096e-04 1.400101825405e-03 0.0 
-6.972961721637e-04 3.554290802128e-03 0.0 
1.834957984150e-04 4.903898431824e-03 0.0 
3.346972142802e-04 -5.304071225715e-04 0.0 
-5.585658831954e-04 8.842672538808e-04 0.0 
4.718308910981e-04 9.017424570170e-05 0.0 
1.435359044812e-03 2.126034339709e-03 0.0 
1.690524988374e-04 1.329935580416e-05 0.0 
1.154150795114e-05 -7.757750358378e-04 0.0 
-3.813733818306e-05 -5.994615812740e-04 0.0 
5.352238745437e-04 1.273032041970e-04 0.0 
8.792206424228e-04 1.102856770937e-03 0.0 
5.350700973376e-04 3.807912982850e-04 0.0 
1.333438244793e-04 6.257049655817e-04 0.0 
-1.105808984577e-03 3.072883005156e-03 0.0 
7.382394622436e-04 9.242155405604e-03 0.0 
9.178643567674e-06 -7.040967583733e-04 0.0 
1.075829080960e-04 1.704496468687e-05 0.0 
2.351569832204e-04 1.486566349087e-03 0.0 
2.400276727410e-04 -4.860952964849e-04 0.0 
1.626746095302e-03 8.710979265622e-03 0.0 
1.133070954732e-04 -6.722179102075e-04 0.0 
1.464459410259e-03 1.242461044998e-03 0.0 
1.956082512932e-05 -3.868898557364e-04 0.0 
1.601881253968e-04 1.406817671380e-03 0.0 
6.275850047217e-04 1.828429019495e-04 0.0 
4.898942198583e-04 1.343084895431e-03 0.0 
3.996542225690e-04 1.909583296369e-04 0.0 
-8.397270387729e-04 1.918333541709e-03 0.0 
9.699594659338e-04 6.634029906197e-04 0.0 
1.067735941902e-03 3.583637545965e-04 0.0 
4.033743179569e-04 9.174639212009e-03 0.0 
6.241138034253e-04 1.406322122894e-03 0.0 
2.092483644663e-04 -5.926722696915e-04 0.0 
1.221950231645e-04 -7.238106807269e-04 0.0 
9.481297963000e-06 6.962867729447e-04 0.0 
-8.042119766192e-07 -7.842716372919e-04 0.0 
6.780745829492e-05 9.163627119997e-03 0.0 
1.418763583914e-05 5.983447937302e-06 0.0 
7.407158386629e-05 -7.522771687510e-04 0.0 
1.421776955334e-04 7.553031958974e-03 0.0 
8.006830782802e-04 1.107007680543e-03 0.0 
6.628372324072e-05 -3.517475825581e-04 0.0 
7.671627903720e-05 3.106577266249e-03 0.0 
1.685787247647e-04 -1.692607750356e-05 0.0 
-1.023380536371e-03 1.118168255346e-03 0.0 
1.125026880342e-04 5.816576923371e-03 0.0 
9.865548280480e-04 5.722674097828e-04 0.0 
3.757507631522e-04 1.307084727560e-03 0.0 
2.923816217578e-04 6.490715846046e-03 0.0 
-1.572965572225e-04 3.085214432589e-03 0.0 
1.126721162379e-03 1.566663618629e-03 0.0 
2.600339707682e-04 -4.344599167293e-04 0.0 
1.381118870096e-03 1.416256948123e-03 0.0 
1.207744464153e-03 4.911851255646e-04 0.0 
-1.547739813914e-03 3.294472754410e-03 0.0 
5.855779056549e-05 -2.837515879708e-04 0.0 
-9.282945223282e-06 -6.726759328069e-04 0.0 
3.114141613331e-04 4.622537121586e-05 0.0 
1.740304737295e-04 -4.089309558266e-04 0.0 
1.037251915005e-04 1.176462468957e-02 0.0 
6.511997655096e-05 1.647385773019e-02 0.0 
1.071720368501e-03 1.234528248359e-02 0.0 
4.999975916757e-05 1.546010902882e-02 0.0 
1.556011785991e-03 1.242687529251e-02 0.0 
4.627494465785e-05 1.445152139078e-02 0.0 
1.791870344187e-03 1.216219837491e-02 0.0 
4.566197513482e-05 1.344294168440e-02 0.0 
1.860998943515e-03 1.166524932289e-02 0.0 
4.576274347757e-05 1.243313033528e-02 0.0 
1.818596452082e-03 1.098962196051e-02 0.0 
4.566726868070e-05 1.142223292472e-02 0.0 
1.696696245945e-03 1.020453962261e-02 0.0 
4.560012811075e-05 1.041021035816e-02 0.0 

VECTORS node_materi_displacement float
0.0 7.979138394689e-02 0.0 
0.0 9.222575543217e-02 0.0 
0.0 0.0 0.0 
0.0 0.0 0.0 
0.0 7.968089783872e-02 0.0 
0.0 7.918873951137e-02 0.0 
0.0 7.831447057396e-02 0.0 
0.0 7.705390712798e-02 0.0 
0.0 7.539122161365e-02 0.0 
0.0 7.333444550054e-02 0.0 
0.0 7.088273262963e-02 0.0 
0.0 6.802967822118e-02 0.0 
0.0 6.477251051601e-02 0.0 
0.0 6.110318843500e-02 0.0 
0.0 5.700785506402e-02 0.0 
0.0 5.247981135178e-02 0.0 
0.0 4.751848901771e-02 0.0 
0.0 4.213864981059e-02 0.0 
0.0 3.629471799834e-02 0.0 
0.0 2.998887277671e-02 0.0 
0.0 2.321693685845e-02 0.0 
0.0 1.596218352072e-02 0.0 
0.0 8.214511824111e-03 0.0 
0.0 0.0 0.0 
0.0 0.0 0.0 
0.0 0.0 0.0 
0.0 0.0 0.0 
0.0 0.0 0.0 
0.0 0.0 0.0 
0.0 0.0 0.0 
0.0 0.0 0.0 
0.0 0.0 0.0 
0.0 0.0 0.0 
0.0 0.0 0.0 
0.0 0.0 0.0 
0.0 0.0 0.0 
0.0 0.0 0.0 
0.0 0.0 0.0 
0.0 0.0 0.0 
0.0 0.0 0.0 
0.0 0.0 0.0 
0.0 0.0 0.0 
0.0 0.0 0.0 
0.0 0.0 0.0 
0.0 0.0 0.0 
0.0 0.0 0.0 
0.0 0.0 0.0 
0.0 0.0 0.0 
0.0 0.0 0.0 
0.0 0.0 0.0 
0.0 0.0 0.0 
0.0 0.0 0.0 
0.0 0.0 0.0 
0.0 0.0 0.0 
0.0 0.0 0.0 
0.0 0.0 0.0 
0.0 0.0 0.0 
0.0 0.0 0.0 
0.0 0.0 0.0 
0.0 0.0 0.0 
0.0 0.0 0.0 
0.0 0.0 0.0 
0.0 0.0 0.0 
0.0 0.0 0.0 
0.0 0.0 0.0 
0.0 0.0 0.0 
0.0 0.0 0.0 
0.0 0.0 0.0 
0.0 0.0 0.0 
0.0 0.0 0.0 
0.0 0.0 0.0 
0.0 0.0 0.0 
0.0 8.485797393709e-02 0.0 
0.0 7.706944249692e-02 0.0 
0.0 6.885736577006e-02 0.0 
0.0 6.023677730821e-02 0.0 
0.0 5.119987907054e-02 0.0 
0.0 4.175882521407e-02 0.0 
0.0 3.191463354031e-02 0.0 
0.0 2.167025854224e-02 0.0 
0.0 1.103131198187e-02 0.0 
-6.900636214599e-03 9.795039957380e-02 0.0 
4.866485499104e-03 9.152218278197e-02 0.0 
-4.400349948393e-03 1.044257439037e-01 0.0 
-1.631078863921e-03 1.108761443973e-01 0.0 
1.274301488743e-03 1.156804741115e-01 0.0 
3.615393481182e-03 1.167041702908e-01 0.0 
4.947283037146e-03 1.153950866427e-01 0.0 
5.605109582230e-03 1.125895770536e-01 0.0 
5.811653129912e-03 1.086177262686e-01 0.0 
5.702203632208e-03 1.036905769177e-01 0.0 
5.362943032898e-03 9.795337617287e-02 0.0 
0.0 1.318123289244e-01 0.0 
0.0 1.274116115420e-01 0.0 
0.0 1.226354199231e-01 0.0 
0.0 1.173999195924e-01 0.0 
0.0 1.117647886253e-01 0.0 
0.0 1.056662182852e-01 0.0 
0.0 9.917223331078e-02 0.0 
2.722222050593e-04 9.222878945878e-02 0.0 
5.341315969484e-04 9.223717656050e-02 0.0 
8.050991227318e-04 9.224841876606e-02 0.0 
1.080979656249e-03 9.225490916765e-02 0.0 
1.359994172966e-03 9.227164299500e-02 0.0 
1.647097217430e-03 9.227436183318e-02 0.0 
1.945107051938e-03 9.227946743447e-02 0.0 
2.246609696360e-03 9.226998502458e-02 0.0 
2.570581765243e-03 9.226046592284e-02 0.0 
2.909740770062e-03 9.222132305866e-02 0.0 
3.262168112894e-03 9.215993891800e-02 0.0 
3.633131013594e-03 9.207319588038e-02 0.0 
4.021751192435e-03 9.194395318626e-02 0.0 
4.431224974145e-03 9.175997263758e-02 0.0 
-6.255801081099e-03 9.448671520693e-02 0.0 
-5.464679837044e-03 9.170105525259e-02 0.0 
-4.669476138723e-03 8.942129742439e-02 0.0 
-3.938089948310e-03 8.756623724964e-02 0.0 
-3.289541440889e-03 8.606217073749e-02 0.0 
-2.708416217654e-03 8.481615916159e-02 0.0 
-2.195137710724e-03 8.378419858980e-02 0.0 
-1.754637212737e-03 8.293489710150e-02 0.0 
-1.378367334259e-03 8.223975107690e-02 0.0 
-1.060462847103e-03 8.168065196488e-02 0.0 
-8.064473721600e-04 8.121818079203e-02 0.0 
-5.858264640325e-04 8.086340895435e-02 0.0 
-3.959234740634e-04 8.056110620191e-02 0.0 
-2.705283892152e-04 8.031781845628e-02 0.0 
-1.856908745309e-04 8.014002471217e-02 0.0 
-1.164795627930e-04 8.000674865530e-02 0.0 
-6.192018915213e-05 7.990667869562e-02 0.0 
-2.132506047691e-05 7.984037123685e-02 0.0 
-1.437983447395e-05 7.979442987933e-02 0.0 
1.061566301912e-03 1.194708631917e-01 0.0 
1.320564666207e-03 1.221421795552e-01 0.0 
1.538021858522e-03 1.242406226880e-01 0.0 
1.777675499307e-03 1.259084531794e-01 0.0 
2.004800324236e-03 1.272422941079e-01 0.0 
2.203683331897e-03 1.283088307509e-01 0.0 
2.365706438595e-03 1.291606432528e-01 0.0 
2.487642179716e-03 1.298367033828e-01 0.0 
2.568885959839e-03 1.303699694536e-01 0.0 
2.610495608678e-03 1.307860471582e-01 0.0 
2.614385608928e-03 1.311065610431e-01 0.0 
2.583116616148e-03 1.313492200098e-01 0.0 
2.519584263578e-03 1.315289976529e-01 0.0 
2.426881910646e-03 1.316583665243e-01 0.0 
2.308112792775e-03 1.317477775809e-01 0.0 
2.166295592170e-03 1.318059573206e-01 0.0 
2.004325326351e-03 1.318402314158e-01 0.0 
1.824996978017e-03 1.318567508485e-01 0.0 
1.631071253255e-03 1.318606789498e-01 0.0 
1.425391008107e-03 1.318563589977e-01 0.0 
1.211085038828e-03 1.318474491638e-01 0.0 
9.918931183262e-04 1.318369248974e-01 0.0 
7.725888464574e-04 1.318263950495e-01 0.0 
5.579760943104e-04 1.318118713629e-01 0.0 
3.048341163298e-04 1.317864353916e-01 0.0 
2.644515650151e-04 1.274503510362e-01 0.0 
5.205963291050e-04 1.274526222201e-01 0.0 
7.651910254829e-04 1.274663235203e-01 0.0 
1.002865685915e-03 1.274793212251e-01 0.0 
1.235143640279e-03 1.274924450891e-01 0.0 
1.461566109300e-03 1.275042189240e-01 0.0 
1.680786312622e-03 1.275117356318e-01 0.0 
1.891111211068e-03 1.275111662934e-01 0.0 
2.090755384665e-03 1.274978248562e-01 0.0 
2.277928571450e-03 1.274660831857e-01 0.0 
2.450879225356e-03 1.274091938693e-01 0.0 
2.607928527257e-03 1.273190673781e-01 0.0 
2.747547581198e-03 1.271859497747e-01 0.0 
2.868581894748e-03 1.269981498394e-01 0.0 
2.970263697023e-03 1.267415960407e-01 0.0 
3.052667219353e-03 1.263995528883e-01 0.0 
3.116425919351e-03 1.259514378892e-01 0.0 
3.164529601390e-03 1.253733013326e-01 0.0 
3.200275380831e-03 1.246333534017e-01 0.0 
3.233540841566e-03 1.236970491423e-01 0.0 
3.271810657002e-03 1.225064799410e-01 0.0 
3.344671770845e-03 1.210222709801e-01 0.0 
3.433221564190e-03 1.191254732100e-01 0.0 
4.659154582024e-03 1.170364120940e-01 0.0 
4.430595495338e-03 1.183647705024e-01 0.0 
4.207413585243e-03 1.194005697920e-01 0.0 
4.014236783849e-03 1.202345124547e-01 0.0 
3.832235579648e-03 1.208854715504e-01 0.0 
3.658572631526e-03 1.213971909025e-01 0.0 
3.485788125049e-03 1.217904051965e-01 0.0 
3.311203393224e-03 1.220898367055e-01 0.0 
3.131931694899e-03 1.223122305423e-01 0.0 
2.946501496909e-03 1.224732588500e-01 0.0 
2.753934824065e-03 1.225853225972e-01 0.0 
2.554109986530e-03 1.226592777480e-01 0.0 
2.347233549412e-03 1.227039259400e-01 0.0 
2.133716170428e-03 1.227265901459e-01 0.0 
1.914133673558e-03 1.227333928487e-01 0.0 
1.689158384440e-03 1.227294067913e-01 0.0 
1.459495560579e-03 1.227187972141e-01 0.0 
1.225633791252e-03 1.227047119590e-01 0.0 
9.876749178241e-04 1.226892006578e-01 0.0 
7.452732831910e-04 1.226728544971e-01 0.0 
4.983735864285e-04 1.226539637418e-01 0.0 
2.490764830670e-04 1.226160822117e-01 0.0 
2.556575712880e-04 1.174334354620e-01 0.0 
5.130995654905e-04 1.174310169607e-01 0.0 
7.698168921580e-04 1.174481908198e-01 0.0 
1.024877977474e-03 1.174661717584e-01 0.0 
1.278206043575e-03 1.174834344497e-01 0.0 
1.530054003156e-03 1.174988273612e-01 0.0 
1.780716235370e-03 1.175101344528e-01 0.0 
2.030245266289e-03 1.175141205632e-01 0.0 
2.278678282376e-03 1.175061659141e-01 0.0 
2.526264796269e-03 1.174806364234e-01 0.0 
2.773484334850e-03 1.174306617098e-01 0.0 
3.020928963662e-03 1.173481105262e-01 0.0 
3.269392406814e-03 1.172231317765e-01 0.0 
3.519971385250e-03 1.170428807690e-01 0.0 
3.775808042741e-03 1.167934110864e-01 0.0 
4.038776585188e-03 1.164564332743e-01 0.0 
4.315286639698e-03 1.160147478749e-01 0.0 
4.604469592674e-03 1.154358305848e-01 0.0 
4.922204492259e-03 1.147067503558e-01 0.0 
5.244385551211e-03 1.137619715750e-01 0.0 
5.418956861471e-03 1.094143516761e-01 0.0 
5.055490981563e-03 1.100638082859e-01 0.0 
4.691966077507e-03 1.105541939335e-01 0.0 
4.354628900250e-03 1.109459230601e-01 0.0 
4.032419878670e-03 1.112378643786e-01 0.0 
3.725965889924e-03 1.114569999777e-01 0.0 
3.429626577473e-03 1.116123713723e-01 0.0 
3.142285894953e-03 1.117203255404e-01 0.0 
2.862327667649e-03 1.117912419801e-01 0.0 
2.588617847166e-03 1.118335263649e-01 0.0 
2.319917464789e-03 1.118541216730e-01 0.0 
2.054747661389e-03 1.118591123463e-01 0.0 
1.792639262435e-03 1.118538543162e-01 0.0 
1.533074567003e-03 1.118424152445e-01 0.0 
1.275314449742e-03 1.118271872463e-01 0.0 
1.018658003801e-03 1.118102362097e-01 0.0 
7.628633908997e-04 1.117928836015e-01 0.0 
5.077487600469e-04 1.117753664949e-01 0.0 
2.536449735327e-04 1.117413722979e-01 0.0 
2.640016021080e-04 1.056973890460e-01 0.0 
5.292056879754e-04 1.056915664645e-01 0.0 
7.952778070579e-04 1.057067058645e-01 0.0 
1.064172777198e-03 1.057227951469e-01 0.0 
1.335638446816e-03 1.057388563741e-01 0.0 
1.611237228786e-03 1.057523596174e-01 0.0 
1.891586513244e-03 1.057612673793e-01 0.0 
2.178823964753e-03 1.057629243854e-01 0.0 
2.472273378759e-03 1.057537601089e-01 0.0 
2.774507204644e-03 1.057254529796e-01 0.0 
3.087772620633e-03 1.056722001800e-01 0.0 
3.412872248141e-03 1.055872580457e-01 0.0 
3.751884552808e-03 1.054605501673e-01 0.0 
4.107467429641e-03 1.052816591790e-01 0.0 
4.477456563099e-03 1.050259425518e-01 0.0 
4.875873098793e-03 1.046945203226e-01 0.0 
5.276685312812e-03 1.042449350825e-01 0.0 
4.943645601376e-03 9.831430790764e-02 0.0 
4.546801484051e-03 9.861665815411e-02 0.0 
4.150662211514e-03 9.881927332551e-02 0.0 
3.778784416631e-03 9.897407495281e-02 0.0 
3.425720969038e-03 9.908293511465e-02 0.0 
3.087992655311e-03 9.915607164255e-02 0.0 
2.765118123282e-03 9.920429365924e-02 0.0 
2.456101356797e-03 9.922945337672e-02 0.0 
2.156535484681e-03 9.923505723892e-02 0.0 
1.868451346235e-03 9.923682625950e-02 0.0 
1.587184917269e-03 9.922914697177e-02 0.0 
1.314112525405e-03 9.921912766110e-02 0.0 
1.044589721473e-03 9.920435200688e-02 0.0 
7.807385573993e-04 9.919215882104e-02 0.0 
5.206016302435e-04 9.917629929834e-02 0.0 
2.579393397755e-04 9.914223786571e-02 0.0 
-5.649195042909e-03 1.010780339495e-01 0.0 
-3.048508602000e-03 1.077491802363e-01 0.0 
-1.208812228473e-04 1.136082743250e-01 0.0 
2.653499639465e-03 1.165602387149e-01 0.0 
4.420232774786e-03 1.162625576737e-01 0.0 
5.357049595689e-03 1.141460086874e-01 0.0 
5.769486025930e-03 1.107330631542e-01 0.0 
5.802118070389e-03 1.062647553877e-01 0.0 
5.567020849715e-03 1.009165810466e-01 0.0 
5.139365373861e-03 9.481895142888e-02 0.0 
1.986476195755e-04 1.060071518875e-01 0.0 
1.523443732967e-03 7.757761225437e-03 0.0 
-6.838085693707e-04 8.174927827986e-02 0.0 
-2.292055081879e-03 8.655190273630e-02 0.0 
1.048936933412e-03 7.411924422250e-03 0.0 
4.855398719561e-03 1.126177721465e-01 0.0 
3.569856334463e-04 5.903763664006e-02 0.0 
1.768289708064e-03 8.181576940615e-03 0.0 
6.376163067519e-03 1.092256358301e-01 0.0 
1.718101251204e-03 8.400386069670e-03 0.0 
6.276362729574e-03 1.005958870617e-01 0.0 
6.046830242148e-04 6.684505230708e-03 0.0 
-9.792490964857e-05 8.027711647345e-02 0.0 
1.495947775638e-03 8.924433325545e-03 0.0 
5.285326337318e-03 8.833488781832e-02 0.0 
2.456294122252e-04 7.208284387460e-02 0.0 
3.757930698487e-04 4.598999903806e-02 0.0 
1.278121969658e-03 9.545449122187e-03 0.0 
8.439622485735e-04 9.290700511438e-03 0.0 
2.445063482570e-04 9.456156739166e-03 0.0 
4.427223993231e-04 1.024930070243e-02 0.0 
5.938847930083e-04 9.146840884621e-03 0.0 
4.246965799802e-03 8.532847374118e-02 0.0 
2.739207363149e-03 8.559296371197e-02 0.0 
1.785556480711e-03 8.545911701207e-02 0.0 
1.724325910802e-04 5.563448879785e-02 0.0 
3.639351458885e-04 7.191054078094e-03 0.0 
-3.655840109101e-03 9.288075402727e-02 0.0 
1.639939028404e-05 7.983852790821e-02 0.0 
2.615854696832e-04 2.718698187765e-02 0.0 
9.127188860851e-04 8.593307754264e-02 0.0 
1.279805789896e-04 7.775949242568e-02 0.0 
1.180953433953e-03 1.063948039056e-02 0.0 
1.638822844132e-03 7.645812185474e-03 0.0 
1.608191288232e-03 8.553625573682e-03 0.0 
1.777421333144e-03 8.438192520841e-03 0.0 
1.275758387330e-03 7.227210944912e-03 0.0 
-1.486940037588e-03 8.401492074519e-02 0.0 
3.454517304463e-03 8.591846762074e-02 0.0 
9.638152341806e-04 8.363402080715e-03 0.0 
1.231020463443e-04 3.731095400866e-02 0.0 
-3.332858606050e-04 8.085355515140e-02 0.0 
3.217818080921e-04 6.645797134644e-02 0.0 
1.177333420801e-04 7.698975524739e-03 0.0 
5.924547251627e-03 1.115909422566e-01 0.0 
2.940847655829e-03 1.107214001524e-01 0.0 
6.473266894869e-03 1.054611379997e-01 0.0 
5.858941251675e-03 9.485353569783e-02 0.0 
-2.899372826842e-03 1.004064768985e-01 0.0 
2.107681647271e-04 7.203703277139e-02 0.0 
1.697355868691e-04 5.677907364030e-03 0.0 
2.532038798333e-06 7.973467605246e-02 0.0 
6.530466887133e-05 1.720774670901e-02 0.0 
5.017010126906e-03 8.474146118482e-02 0.0 
5.337638770730e-03 8.140019423422e-02 0.0 
4.879664810985e-03 7.811190853467e-02 0.0 
5.263307411422e-03 7.411166051115e-02 0.0 
4.805728084963e-03 7.000610563708e-02 0.0 
5.090430086498e-03 6.626134980212e-02 0.0 
5.596132874951e-03 7.035683204361e-02 0.0 
5.346944799744e-03 6.242359989065e-02 0.0 
5.896732932404e-03 6.657259766568e-02 0.0 
4.580698695120e-03 6.190012526969e-02 0.0 
5.560728131019e-03 5.849454089292e-02 0.0 
6.154173449970e-03 6.268655132109e-02 0.0 
5.723675592302e-03 5.449928381704e-02 0.0 
6.354988568790e-03 5.870451508083e-02 0.0 
6.732159121889e-03 6.667879651224e-02 0.0 
6.970052169722e-03 6.273490886443e-02 0.0 
7.284350077182e-03 7.043448234845e-02 0.0 
7.556044309877e-03 6.651030294688e-02 0.0 
7.138008909191e-03 5.873543257490e-02 0.0 
7.751225217769e-03 6.253379896188e-02 0.0 
8.103526403078e-03 7.002738572880e-02 0.0 
8.318871173357e-03 6.606092253847e-02 0.0 
8.601674041918e-03 7.325665298860e-02 0.0 
8.828951029546e-03 6.927382969833e-02 0.0 
9.043342809177e-03 7.619921806954e-02 0.0 
9.272256902857e-03 7.218817266325e-02 0.0 
8.953102554500e-03 6.525840243914e-02 0.0 
9.389968663768e-03 6.817602130213e-02 0.0 
9.632343320155e-03 7.477147120260e-02 0.0 
9.733954733473e-03 7.076568312883e-02 0.0 
9.893887598207e-03 7.701137038329e-02 0.0 
9.969099222990e-03 7.301386919570e-02 0.0 
9.714549547822e-03 6.678742241819e-02 0.0 
9.919980245982e-03 6.908381025251e-02 0.0 
1.007912117794e-02 7.493065680132e-02 0.0 
9.994311482960e-03 7.106415987208e-02 0.0 
1.004753306124e-02 7.651728980479e-02 0.0 
9.926092451023e-03 7.273456025987e-02 0.0 
9.862535707392e-03 7.777646767588e-02 0.0 
9.706159503764e-03 7.411916332089e-02 0.0 
9.699032297981e-03 6.904850979062e-02 0.0 
9.454124378000e-03 7.056962761900e-02 0.0 
9.331091340832e-03 7.525260895723e-02 0.0 
9.065341002291e-03 7.187583115647e-02 0.0 
9.120361558357e-03 6.716693831632e-02 0.0 
8.727770049417e-03 6.866268674535e-02 0.0 
8.718124701617e-03 6.390031495376e-02 0.0 
8.330947187848e-03 6.558769780213e-02 0.0 
8.218647602762e-03 6.995921218443e-02 0.0 
7.837978673515e-03 6.708327847687e-02 0.0 
7.886599528286e-03 6.262307090971e-02 0.0 
7.414063016680e-03 6.434297195878e-02 0.0 
7.253486713291e-03 6.846147867593e-02 0.0 
6.864863021942e-03 6.589977829056e-02 0.0 
6.959288884493e-03 6.167333505400e-02 0.0 
6.442732910629e-03 6.343778622320e-02 0.0 
6.256578498957e-03 6.735225606719e-02 0.0 
5.876517168769e-03 6.507325412981e-02 0.0 
5.999831047257e-03 6.099246921273e-02 0.0 
5.470550919927e-03 6.284797555715e-02 0.0 
5.275621288618e-03 6.662218462461e-02 0.0 
4.914783504284e-03 6.456745848800e-02 0.0 
5.047471241169e-03 6.061593024523e-02 0.0 
4.530375327207e-03 6.253869846498e-02 0.0 
4.607180165923e-03 5.839996823924e-02 0.0 
4.336635972343e-03 6.623263456858e-02 0.0 
3.998176153217e-03 6.435956134621e-02 0.0 
3.757152190714e-03 6.783153297619e-02 0.0 
3.465011456050e-03 6.608982347957e-02 0.0 
9.578727176943e-03 6.286066254435e-02 0.0 
3.199327972557e-03 6.931949794351e-02 0.0 
3.426257651853e-03 7.084903560654e-02 0.0 
2.945393278232e-03 6.772652879157e-02 0.0 
3.145620753832e-03 6.432640838196e-02 0.0 
2.667057398650e-03 7.071835755788e-02 0.0 
2.448598430416e-03 6.926672390728e-02 0.0 
2.171210692719e-03 7.202917632191e-02 0.0 
9.895545012469e-03 8.177570527245e-02 0.0 
7.223020952547e-03 5.468207681860e-02 0.0 
1.983942338743e-03 7.071330611941e-02 0.0 
1.721244416571e-03 7.325027630972e-02 0.0 
1.838034895220e-03 7.439954248576e-02 0.0 
1.414623581759e-03 7.539673525808e-02 0.0 
4.335350051967e-03 6.579648945565e-02 0.0 
4.062602850950e-03 5.735761580576e-02 0.0 
3.860365420265e-03 6.138539526413e-02 0.0 
3.543172963378e-03 5.268178077980e-02 0.0 
3.381946289607e-03 5.675881252100e-02 0.0 
1.320615297303e-03 7.437958240027e-02 0.0 
5.081722633929e-03 4.989244425774e-02 0.0 
3.668821364295e-03 4.847079406288e-02 0.0 
8.281435743847e-03 7.719460526264e-02 0.0 
9.689911586830e-03 8.104625691273e-02 0.0 
8.982475284081e-03 6.201808061542e-02 0.0 
2.196808387361e-03 6.778052777110e-02 0.0 
1.758947179698e-03 6.935998293277e-02 0.0 
1.916331741027e-03 6.625331727838e-02 0.0 
5.055251907863e-03 5.620560850821e-02 0.0 
4.565789272703e-03 5.382362307717e-02 0.0 
4.933956156976e-03 5.134168219213e-02 0.0 
4.405494410641e-03 4.880148971022e-02 0.0 
4.683460273262e-03 4.602634233529e-02 0.0 
4.126822850764e-03 4.332746139906e-02 0.0 
3.880924034075e-03 4.625100779488e-02 0.0 
3.582434896896e-03 4.060753215339e-02 0.0 
3.365752645022e-03 4.367597451199e-02 0.0 
4.304724727569e-03 4.025761746835e-02 0.0 
4.892226862381e-03 4.310171194985e-02 0.0 
3.056183613945e-03 3.785990908482e-02 0.0 
2.865357188184e-03 4.106259716887e-02 0.0 
2.553474904284e-03 3.506914516019e-02 0.0 
2.385179307010e-03 3.840334695027e-02 0.0 
2.618685295517e-03 4.413029097422e-02 0.0 
2.160079485563e-03 4.160163197523e-02 0.0 
2.327727280114e-03 4.706408402585e-02 0.0 
8.520854026142e-03 5.869408112816e-02 0.0 
8.658017147025e-03 5.642288806705e-02 0.0 
8.140427730333e-03 5.304166344363e-02 0.0 
8.148279614674e-03 5.038548460890e-02 0.0 
7.578174721330e-03 4.694073368303e-02 0.0 
7.453989312120e-03 4.391046205844e-02 0.0 
6.833111027157e-03 4.039059800748e-02 0.0 
6.965720238766e-03 4.356956614937e-02 0.0 
5.831812919862e-03 5.040154453677e-02 0.0 
8.805875100229e-03 7.614728535734e-02 0.0 
8.994011436658e-03 7.950665738365e-02 0.0 
8.325888900283e-03 7.998580820919e-02 0.0 
8.422399661293e-03 8.331859474448e-02 0.0 
7.603758068842e-03 8.337646393017e-02 0.0 
7.587560397233e-03 8.669845788088e-02 0.0 
6.608457633508e-03 8.634069496579e-02 0.0 
6.667925906640e-03 8.328503225943e-02 0.0 
5.530388015891e-03 8.587287047187e-02 0.0 
5.653490578630e-03 8.311377130386e-02 0.0 
4.409827223159e-03 8.535292433803e-02 0.0 
4.604980775991e-03 8.291758122398e-02 0.0 
8.968244363722e-03 6.124171254014e-02 0.0 
8.024806794310e-03 4.749068216119e-02 0.0 
7.198139696335e-03 4.063800943449e-02 0.0 
7.767917594392e-03 4.434117007461e-02 0.0 
1.458373521691e-03 7.638147459028e-02 0.0 
1.929685231078e-03 3.568779731620e-02 0.0 
4.401306255749e-03 3.702711013814e-02 0.0 
5.020159185771e-03 4.006803701841e-02 0.0 
6.176578356460e-03 3.692881495202e-02 0.0 
1.050238880317e-03 7.630423261434e-02 0.0 
6.452046266344e-03 8.965372405696e-02 0.0 
7.456975169452e-03 9.029920508410e-02 0.0 
3.034346163322e-03 4.778715279234e-02 0.0 
2.914148115356e-03 5.195070142806e-02 0.0 
4.403473293758e-03 3.363373999366e-02 0.0 
9.726948634955e-04 7.541281086167e-02 0.0 
3.178665708501e-03 3.451420178527e-02 0.0 
4.100167264138e-03 8.803955685475e-02 0.0 
1.721692523775e-03 3.901714042935e-02 0.0 
1.503240906483e-03 3.291381786190e-02 0.0 
3.580587197974e-03 4.902400752077e-02 0.0 
6.809871805217e-03 3.710905262779e-02 0.0 
7.396317150252e-03 4.104162077281e-02 0.0 
5.697624173317e-03 8.056109089283e-02 0.0 
4.717290011649e-03 8.067226188838e-02 0.0 
3.572528641613e-03 8.272231665672e-02 0.0 
3.789349062037e-03 8.067269893065e-02 0.0 
4.761280848479e-03 7.853983186719e-02 0.0 
3.879232308716e-03 7.887958087402e-02 0.0 
2.894072086769e-03 8.075948591389e-02 0.0 
3.049547801455e-03 7.920043370328e-02 0.0 
3.908688581291e-03 7.713523173816e-02 0.0 
3.140657822274e-03 7.767474031913e-02 0.0 
2.292265355867e-03 7.951541660820e-02 0.0 
2.440380592291e-03 7.818273105940e-02 0.0 
1.639238094660e-03 2.931091935780e-02 0.0 
2.897982904910e-03 8.718297583154e-02 0.0 
6.949045001474e-03 7.427214802515e-02 0.0 
3.774551094581e-03 3.048829794721e-02 0.0 
5.916704770386e-03 3.348732498891e-02 0.0 
2.544053864469e-03 4.272139095656e-02 0.0 
2.462639553683e-03 4.697389863626e-02 0.0 
2.764396700944e-03 5.607592671051e-02 0.0 
2.347760474841e-03 5.116273894248e-02 0.0 
2.033182741064e-03 4.182765873458e-02 0.0 
1.951824870010e-03 4.610652696623e-02 0.0 
2.205568771958e-03 5.529038413339e-02 0.0 
1.840378146250e-03 5.031356744492e-02 0.0 
2.041271765228e-03 5.933757380097e-02 0.0 
1.704331731529e-03 5.444027732113e-02 0.0 
1.498678544335e-03 4.519077337040e-02 0.0 
1.388543921554e-03 4.941078157588e-02 0.0 
1.548244379254e-03 5.849095567896e-02 0.0 
1.254860230142e-03 5.355168882250e-02 0.0 
1.374791567838e-03 6.245562286460e-02 0.0 
1.101094782313e-03 5.760823112066e-02 0.0 
9.853946665209e-04 4.848272800519e-02 0.0 
7.587775435623e-04 7.705747224858e-02 0.0 
6.324380425259e-03 4.026324646598e-02 0.0 
5.496600876944e-03 3.350819033510e-02 0.0 
1.510987769075e-03 6.795717847812e-02 0.0 
1.629732712296e-03 6.467293876973e-02 0.0 
2.025473952446e-03 6.273463606676e-02 0.0 
1.672765043651e-03 6.098976920651e-02 0.0 
8.486655256563e-04 5.267640311898e-02 0.0 
7.392414952628e-04 4.329435671985e-02 0.0 
6.180235355732e-03 9.326036447959e-02 0.0 
7.191431482407e-03 9.419717196167e-02 0.0 
2.584787315199e-03 3.840184913257e-02 0.0 
1.307223239362e-03 3.637088283145e-02 0.0 
1.467437979622e-03 4.220964951501e-02 0.0 
9.866341772327e-03 8.291612192347e-02 0.0 
9.556363578971e-03 8.698543625993e-02 0.0 
9.640752690690e-03 8.849723958539e-02 0.0 
9.208984212186e-03 9.272577614034e-02 0.0 
9.115243789762e-03 9.105521778688e-02 0.0 
9.185044000162e-03 9.389255390864e-02 0.0 
5.491063125210e-03 4.604220476389e-02 0.0 
1.184895820575e-03 3.993387632743e-02 0.0 
1.906228190333e-03 7.552211794532e-02 0.0 
1.443433239925e-03 7.734278697407e-02 0.0 
1.112083725695e-03 3.007236809639e-02 0.0 
6.974580919800e-03 4.654591807644e-02 0.0 
8.453017606444e-03 5.797793100610e-02 0.0 
8.364136920932e-03 5.392571663627e-02 0.0 
7.767158357774e-03 5.031060662037e-02 0.0 
7.572298114453e-03 4.622474645305e-02 0.0 
6.890524835241e-03 4.225766223367e-02 0.0 
6.582752039022e-03 3.812930122299e-02 0.0 
7.274243253904e-03 4.216104784807e-02 0.0 
6.287901232171e-03 3.327876671290e-02 0.0 
6.173417559704e-03 3.400515959499e-02 0.0 
9.467292184341e-04 6.165798244108e-02 0.0 
8.538831259925e-03 5.120998550350e-02 0.0 
3.875350101092e-03 7.544963672743e-02 0.0 
7.802952775453e-04 7.778366900565e-02 0.0 
1.605067278271e-03 7.984678698173e-02 0.0 
6.811306312725e-04 7.633447619318e-02 0.0 
8.500123438137e-04 7.447295255769e-02 0.0 
3.643459086167e-03 2.676596782817e-02 0.0 
5.813868779220e-03 3.381562077463e-02 0.0 
6.141760126641e-03 3.801943834630e-02 0.0 
8.638735380137e-03 9.686651252134e-02 0.0 
8.557707770315e-03 9.503653661050e-02 0.0 
5.648149628705e-03 2.944090372849e-02 0.0 
3.631842031017e-03 6.541059197419e-02 0.0 
2.394736601952e-03 6.409900232230e-02 0.0 
2.186624372227e-03 6.797223507133e-02 0.0 
5.000979002337e-04 7.791751493041e-02 0.0 
1.371448055927e-03 8.095630713138e-02 0.0 
1.632339141539e-03 3.653592114692e-02 0.0 
8.275881415401e-03 9.076631436316e-02 0.0 
7.997946549610e-03 9.485232083640e-02 0.0 
2.366923046284e-03 8.978995904344e-02 0.0 
1.118557266699e-03 8.861953612907e-02 0.0 
6.239672991001e-04 4.748153500851e-02 0.0 
5.287052649194e-04 3.797248734248e-02 0.0 
2.071759328649e-03 5.880802989309e-02 0.0 
1.689335290150e-03 5.688173573811e-02 0.0 
4.298445517273e-03 3.003974132915e-02 0.0 
1.821687306673e-03 7.864939869345e-02 0.0 
6.054798061091e-04 3.353268126485e-02 0.0 
6.349678981614e-03 4.338111453501e-02 0.0 
6.866572455240e-03 4.932408608158e-02 0.0 
1.283913693284e-03 6.306861714308e-02 0.0 
5.744453041661e-03 9.721187602811e-02 0.0 
4.541503553385e-03 9.579837479664e-02 0.0 
4.631362455509e-03 7.465932704776e-02 0.0 
2.512765304503e-03 7.688086807841e-02 0.0 
5.678893671128e-04 7.551659569518e-02 0.0 
3.393209360761e-03 2.284939079407e-02 0.0 
1.644030743564e-03 3.210298517430e-02 0.0 
6.873404745846e-03 3.812011662782e-02 0.0 
7.874327937802e-03 4.592753657068e-02 0.0 
5.671163052361e-03 2.991960260356e-02 0.0 
1.077359666779e-03 8.004258811958e-02 0.0 
3.011645952529e-03 2.347158845403e-02 0.0 
9.253384499130e-04 3.365731559229e-02 0.0 
5.029202016194e-03 2.963444501313e-02 0.0 
5.333934649487e-03 3.351752172250e-02 0.0 
8.890899484323e-03 9.095412759480e-02 0.0 
8.598689786896e-03 9.508514886560e-02 0.0 
7.556586145426e-03 9.917723456683e-02 0.0 
8.111169674115e-03 9.942638400213e-02 0.0 
6.086081028684e-03 7.429682636584e-02 0.0 
9.313793669672e-03 9.072244759905e-02 0.0 
7.433380605404e-03 7.776446831793e-02 0.0 
7.014003672607e-03 8.148453849708e-02 0.0 
7.420747869575e-03 8.471885833321e-02 0.0 
8.919227913712e-03 8.909163262288e-02 0.0 
8.373992693760e-03 9.293115079016e-02 0.0 
9.085192768746e-03 8.309465109577e-02 0.0 
9.116118801434e-03 5.991172845435e-02 0.0 
2.446379280351e-03 6.068137181988e-02 0.0 
2.778793692265e-03 4.939004154247e-02 0.0 
5.460697947042e-03 5.388182875800e-02 0.0 
1.241697496469e-03 3.554920787193e-02 0.0 
9.365356852637e-04 3.006122267947e-02 0.0 
1.666585563636e-03 6.717295996545e-02 0.0 
1.461242527123e-03 7.095695693021e-02 0.0 
1.045506324293e-03 7.798041861542e-02 0.0 
9.545329340862e-04 7.878322013969e-02 0.0 
4.155736790197e-03 5.618044122703e-02 0.0 
3.168860098533e-03 2.733182699147e-02 0.0 
2.080513578419e-03 3.309282474601e-02 0.0 
2.031452558379e-03 2.861330752689e-02 0.0 
2.576197929663e-03 3.400366010030e-02 0.0 
4.073221866677e-03 2.623652145992e-02 0.0 
8.150964872382e-03 7.685469394513e-02 0.0 
8.007830925257e-03 5.548693673172e-02 0.0 
1.758344415590e-03 8.641158055173e-02 0.0 
9.281480439648e-03 6.021394094813e-02 0.0 
6.235710464819e-04 7.919660130260e-02 0.0 
6.552201027937e-03 5.064622188593e-02 0.0 
7.632839365858e-04 2.716079681596e-02 0.0 
8.827068093184e-04 2.330468448837e-02 0.0 
4.996942198896e-03 2.528009517794e-02 0.0 
5.717763410879e-03 8.502676212922e-02 0.0 
9.058558014918e-03 5.627130202448e-02 0.0 
9.336776544158e-03 5.902358761044e-02 0.0 
6.933181902119e-03 8.829091518494e-02 0.0 
7.255336662195e-03 9.128059619597e-02 0.0 
7.782353114019e-03 8.768972071783e-02 0.0 
7.524266106575e-03 9.406044287953e-02 0.0 
4.481889094862e-03 7.284740642682e-02 0.0 
3.781668809468e-03 7.383512547640e-02 0.0 
4.477919271746e-03 2.470099986256e-02 0.0 
4.909029290613e-03 2.573366642371e-02 0.0 
4.180797299275e-03 2.505432082341e-02 0.0 
4.485538291186e-03 2.872912935150e-02 0.0 
4.280952964831e-03 2.136110559870e-02 0.0 
4.950851153828e-03 2.563035230486e-02 0.0 
6.845437956017e-04 7.347829197271e-02 0.0 
7.922273309182e-03 9.877965986516e-02 0.0 
1.246807118954e-03 2.656699383558e-02 0.0 
6.570115573258e-03 8.511613763858e-02 0.0 
2.435187367214e-03 2.034449127666e-02 0.0 
2.598634481770e-03 2.416400656553e-02 0.0 
4.521992316944e-06 8.759539044522e-02 0.0 
7.336115118389e-04 8.553860819487e-02 0.0 
4.163538713246e-04 2.821055784732e-02 0.0 
6.935978078469e-03 1.036035569388e-01 0.0 
7.431210616212e-03 1.038137441639e-01 0.0 
6.188738739493e-03 1.027678355083e-01 0.0 
1.155177178320e-04 1.219651297531e-02 0.0 
3.935256363892e-04 8.601592875665e-02 0.0 
5.744229463529e-04 2.019922744080e-02 0.0 
8.628981400443e-03 8.669228165476e-02 0.0 
4.407392753459e-04 2.319666880457e-02 0.0 
8.737253518227e-03 5.241761857503e-02 0.0 
9.914988974756e-03 8.451448962924e-02 0.0 
4.967668423171e-03 3.331292336779e-02 0.0 
3.384647094144e-04 3.356543501592e-02 0.0 
2.489597415123e-04 2.232928906405e-02 0.0 
2.517159346980e-03 7.237632452518e-02 0.0 
2.283419037166e-03 7.620881270400e-02 0.0 
2.759586598151e-03 6.870811340868e-02 0.0 
3.697160079474e-03 9.100146484772e-02 0.0 
1.508626086547e-03 9.316122088456e-02 0.0 
9.021529087081e-04 3.454556942528e-02 0.0 
1.364990044160e-03 7.084126015717e-02 0.0 
1.122477351981e-03 6.925246605940e-02 0.0 
1.909698080429e-03 7.759594347761e-02 0.0 
2.501504846579e-03 7.565826953543e-02 0.0 
2.473109293223e-03 5.653518270670e-02 0.0 
2.874253370994e-03 5.853272080032e-02 0.0 
6.515857836807e-03 4.646709805672e-02 0.0 
5.787616620088e-03 4.220703237604e-02 0.0 
7.861020098350e-03 5.443472412046e-02 0.0 
6.261533835526e-03 4.629810826817e-02 0.0 
6.652839996630e-03 5.191448751072e-02 0.0 
7.219443162761e-03 5.478759074546e-02 0.0 
9.469262644379e-04 2.583902332350e-02 0.0 
6.297689427563e-04 1.927317656648e-02 0.0 
5.199826196851e-03 7.185769095884e-02 0.0 
5.406590321295e-03 7.385863311739e-02 0.0 
4.276628792469e-03 7.116454712992e-02 0.0 
1.185107829831e-03 2.215904861507e-02 0.0 
6.362474632195e-04 1.627823328078e-02 0.0 
9.406151624284e-04 1.957571156470e-02 0.0 
4.681859342193e-04 7.981922255556e-02 0.0 
8.019091011525e-04 7.955553308522e-02 0.0 
3.912230263785e-03 9.975057058598e-02 0.0 
2.490895219810e-03 9.794472276956e-02 0.0 
1.952876333493e-03 2.446238073441e-02 0.0 
2.515439334463e-03 2.961296439418e-02 0.0 
1.376638565414e-03 1.845789840784e-02 0.0 
4.076351490703e-04 7.475074878999e-02 0.0 
7.455050630884e-03 4.182848288706e-02 0.0 
3.090102566672e-03 1.911747864745e-02 0.0 
3.801591776538e-03 2.265923700536e-02 0.0 
2.279524132224e-03 1.470080104727e-02 0.0 
5.692696142570e-03 2.947688985370e-02 0.0 
4.301541263342e-03 2.128146994293e-02 0.0 
4.233680263546e-03 2.129648642201e-02 0.0 
-8.531962140209e-04 8.961741101917e-02 0.0 
1.900494458861e-04 2.658006442734e-02 0.0 
1.741584556928e-03 7.546035071072e-02 0.0 
-1.604800479229e-03 8.852463998568e-02 0.0 
1.509959885362e-03 7.933513509090e-02 0.0 
1.259574553794e-03 7.470707899546e-02 0.0 
1.307666820950e-03 8.308125580364e-02 0.0 
3.346896025009e-04 7.646064288772e-02 0.0 
2.879681321304e-03 7.809391301038e-02 0.0 
3.157502003306e-03 7.350139646945e-02 0.0 
1.276837429057e-04 8.058943044191e-02 0.0 
8.026797692285e-04 1.651910495988e-02 0.0 
2.363583921704e-04 7.998733830656e-02 0.0 
3.917677924274e-04 7.949659859757e-02 0.0 
1.880564627809e-03 1.692371363593e-02 0.0 
2.065786316897e-03 2.092904470167e-02 0.0 
1.372960920303e-03 1.360731526523e-02 0.0 
1.612882165589e-03 1.804179745985e-02 0.0 
2.165718565237e-03 2.492414692725e-02 0.0 
1.693835210748e-03 2.178436819316e-02 0.0 
2.051666789322e-03 8.050323325755e-02 0.0 
1.112327790385e-03 1.367266681469e-02 0.0 
1.260854680811e-03 1.843278084045e-02 0.0 
7.346167157483e-04 1.052601642138e-02 0.0 
6.918991767941e-03 9.740616209736e-02 0.0 
8.405672804880e-03 9.932108164960e-02 0.0 
7.693818675595e-03 1.036064296754e-01 0.0 
6.525563085321e-03 1.083698501384e-01 0.0 
3.019774239736e-03 1.826434523702e-02 0.0 
3.684066579917e-03 2.420242297461e-02 0.0 
5.781212068408e-04 3.073483426693e-02 0.0 
6.612016200662e-04 3.696735357761e-02 0.0 
1.041591779947e-03 7.896723756066e-02 0.0 
7.584914293090e-04 7.929621657251e-02 0.0 
8.273003356079e-04 7.192673158472e-02 0.0 
5.963635231467e-04 7.284229420497e-02 0.0 
6.337396306464e-04 6.531445308018e-02 0.0 
4.075132730706e-04 6.629093127976e-02 0.0 
4.834216420448e-04 5.846507353917e-02 0.0 
3.345238379894e-03 1.679357052228e-02 0.0 
5.310196489665e-03 1.072814887203e-01 0.0 
6.422707671516e-03 9.178696826592e-02 0.0 
3.509813329998e-03 1.744950736891e-02 0.0 
4.326006182856e-03 2.250870180937e-02 0.0 
7.768319585680e-03 9.659008776150e-02 0.0 
7.228257800543e-03 1.024570466415e-01 0.0 
2.001916167990e-03 1.509807251266e-02 0.0 
9.505008767169e-03 8.667556388838e-02 0.0 
5.979804497037e-04 1.062610440542e-02 0.0 
-4.049950566114e-03 9.567089806590e-02 0.0 
-1.295023577799e-03 9.392951242978e-02 0.0 
9.787622035073e-03 8.596804361074e-02 0.0 
8.102377557843e-03 9.043541722198e-02 0.0 
8.582452716717e-03 9.844113844995e-02 0.0 
7.924397870131e-03 1.022516310856e-01 0.0 
5.707875051424e-03 4.015355638505e-02 0.0 
5.536702076833e-04 8.035780786855e-02 0.0 
5.166231356732e-03 1.014161123352e-01 0.0 
7.000618348948e-04 5.757410585610e-02 0.0 
3.005904299464e-03 1.039002374555e-01 0.0 
3.034632601042e-04 3.360931789068e-02 0.0 
9.575191537886e-03 8.261533498220e-02 0.0 
9.075361033459e-03 8.281666371295e-02 0.0 
6.774228614797e-03 9.835640773162e-02 0.0 
9.006969077455e-03 9.466808094641e-02 0.0 
6.436158673826e-03 7.055321077968e-02 0.0 
5.713527582860e-03 7.792262233798e-02 0.0 
6.138875543987e-03 8.166569239627e-02 0.0 
9.509513298380e-03 7.882067439865e-02 0.0 
7.983537351256e-03 1.006569636986e-01 0.0 
7.135622126081e-03 1.062252825977e-01 0.0 
7.806721955200e-03 7.396014413600e-02 0.0 
3.151654899510e-03 3.921660251695e-02 0.0 
3.128127218836e-03 3.482210212013e-02 0.0 
2.411255451057e-03 2.544298592094e-02 0.0 
3.044676614384e-03 3.045927797386e-02 0.0 
3.769000258017e-03 3.991660046109e-02 0.0 
3.727445874230e-03 3.557961171286e-02 0.0 
2.892423684633e-03 2.617959144522e-02 0.0 
3.615200363932e-03 3.122943305393e-02 0.0 
2.437114369132e-03 1.981847376343e-02 0.0 
3.390533048537e-03 2.664805341327e-02 0.0 
4.365303527857e-03 3.635943101075e-02 0.0 
4.225354821259e-03 3.221451221200e-02 0.0 
3.241788918560e-03 2.346489385368e-02 0.0 
5.141306604872e-03 4.174840340481e-02 0.0 
2.738160675951e-03 1.311193370737e-02 0.0 
1.004673931029e-02 8.053559351448e-02 0.0 
3.062953971439e-04 9.116474136279e-02 0.0 
-2.653900087722e-05 9.604392834448e-02 0.0 
8.705288932732e-03 8.013487146072e-02 0.0 
1.185450330044e-03 9.657274329284e-03 0.0 
9.541136297715e-04 9.549934959420e-03 0.0 
8.408205365588e-03 8.692728515029e-02 0.0 
1.554686170148e-03 8.714421647769e-03 0.0 
6.558094456932e-03 7.801268870360e-02 0.0 
5.303691256018e-03 8.890249249131e-02 0.0 
1.688098619820e-03 8.581520999671e-03 0.0 
3.747122646881e-03 4.420464105513e-02 0.0 
4.354612647913e-03 4.918060690713e-02 0.0 
4.229779395542e-03 5.330993064809e-02 0.0 
7.294575552668e-04 8.934906709683e-03 0.0 
2.993596971150e-03 6.487411542243e-02 0.0 
1.650113151576e-03 7.648696769280e-03 0.0 
8.663771707901e-03 5.392044505804e-02 0.0 
9.118325067008e-03 5.765069093010e-02 0.0 
9.502365075261e-03 6.358009884101e-02 0.0 
4.433788900542e-03 4.077416782726e-02 0.0 
1.580814996691e-03 7.734806698421e-03 0.0 
2.858469648609e-03 1.474912704523e-02 0.0 
2.704510091303e-03 1.458992207224e-02 0.0 
4.012826890206e-03 2.192327870592e-02 0.0 
1.411745171715e-03 7.532024790426e-03 0.0 
1.249667953841e-03 8.587364306360e-03 0.0 
1.272010078249e-03 8.102978851441e-03 0.0 
4.725131159557e-03 7.656246494022e-02 0.0 
5.567222281550e-03 7.594636386549e-02 0.0 
6.180896923280e-03 7.300609897701e-02 0.0 
6.398393993623e-03 7.531816476148e-02 0.0 
5.666057078688e-03 7.818462707332e-02 0.0 
6.554702149625e-03 7.779389337742e-02 0.0 
7.186597643218e-03 7.466049941973e-02 0.0 
6.643865533012e-03 8.045670167389e-02 0.0 
4.803005801898e-03 3.320476921914e-02 0.0 
1.186357055724e-03 7.123915992004e-03 0.0 
5.246437232504e-03 4.873215349455e-02 0.0 
5.808897753042e-03 5.150310769092e-02 0.0 
5.977171452712e-03 5.647863586248e-02 0.0 
2.805249630609e-03 6.251680532531e-02 0.0 
3.263658681896e-03 6.050643024374e-02 0.0 
3.295484223299e-03 5.626948048536e-02 0.0 
2.352895359804e-03 6.443957003431e-02 0.0 
8.169584781959e-03 4.990444057366e-02 0.0 
1.090401475549e-03 7.130927441138e-03 0.0 
7.453188360815e-03 5.236402978328e-02 0.0 
3.639415118942e-03 6.245376543625e-02 0.0 
3.847682152019e-03 8.564174046817e-02 0.0 
4.013207176274e-03 7.897969988907e-02 0.0 
4.411923357869e-03 7.866211130962e-02 0.0 
4.102276843049e-03 7.094501691320e-02 0.0 
3.567127904373e-03 7.818862961930e-02 0.0 
2.067039526082e-03 5.447987877475e-02 0.0 
1.660603295823e-03 5.237427362546e-02 0.0 
1.300804116830e-03 5.490463841602e-02 0.0 
1.257458218944e-03 5.021103104050e-02 0.0 
9.103400238130e-04 5.285342183959e-02 0.0 
9.423025703828e-04 5.721553476698e-02 0.0 
8.530373876711e-04 4.798279140542e-02 0.0 
5.257663070556e-04 5.129233036761e-02 0.0 
3.088863996106e-03 8.581385699895e-02 0.0 
-1.836992628930e-03 8.517297928429e-02 0.0 
-5.230790757076e-04 8.412360448087e-02 0.0 
-3.966751719394e-04 8.311397308164e-02 0.0 
5.080987373180e-04 8.294631236154e-02 0.0 
5.873863698646e-04 8.396565269048e-02 0.0 
1.713612183869e-03 8.234756128984e-02 0.0 
1.698463749490e-03 8.369703431148e-02 0.0 
-6.763069038474e-04 8.542456225984e-02 0.0 
-1.176559119348e-03 8.310390709175e-02 0.0 
-2.507645310793e-04 8.230193708630e-02 0.0 
-9.076531067639e-04 8.235385883746e-02 0.0 
-1.593980155953e-04 8.166353682286e-02 0.0 
6.559472449779e-04 8.118486909509e-02 0.0 
1.387800710104e-03 7.823770702128e-02 0.0 
3.258909754847e-04 8.172584316619e-03 0.0 
3.457331864820e-04 6.298527230717e-02 0.0 
6.592646218015e-04 6.479454901458e-02 0.0 
6.012291111488e-04 6.794024872401e-02 0.0 
9.706127824027e-04 6.632448708242e-02 0.0 
6.577508302122e-04 6.147763591824e-02 0.0 
2.861287386158e-04 6.947919372495e-02 0.0 
5.426366150499e-04 7.047065873001e-02 0.0 
1.776247855144e-05 7.976426387047e-02 0.0 
8.065547030841e-05 7.940727399524e-02 0.0 
2.560255102922e-05 7.942534284327e-02 0.0 
1.258480357765e-04 7.875764225961e-02 0.0 
2.014640707848e-04 7.882214550926e-02 0.0 
1.255410722762e-04 7.945488076669e-02 0.0 
1.582823876477e-04 7.954699704580e-02 0.0 
-2.192544065514e-06 7.995170611075e-02 0.0 
1.810064372401e-04 7.967091541738e-02 0.0 
3.641534607720e-04 7.894970716255e-02 0.0 
-3.641081236645e-05 8.009663725864e-02 0.0 
1.512165520697e-04 4.647332976567e-02 0.0 
2.887732177378e-04 4.176793000563e-02 0.0 
9.568878140390e-04 7.495083192718e-03 0.0 
2.381432506018e-03 8.525363816630e-02 0.0 
-4.779696911215e-04 8.125684259027e-02 0.0 
2.279238991453e-04 1.135319310121e-02 0.0 
3.433769882368e-04 9.443501091021e-03 0.0 
2.836722824205e-04 9.142712505964e-03 0.0 
1.905411111940e-04 1.991369465507e-02 0.0 
3.097573883405e-04 1.635274433531e-02 0.0 
1.184599407499e-04 1.103063924690e-02 0.0 
2.314235011849e-03 7.331487493113e-02 0.0 
2.239672144887e-03 2.131132012859e-02 0.0 
6.526446429831e-04 2.900984527515e-02 0.0 
4.998466120218e-03 9.216318771777e-02 0.0 
3.117982258928e-03 7.477445912288e-02 0.0 
1.046581835356e-03 3.963872215666e-02 0.0 
3.093746834040e-03 4.658808811569e-02 0.0 
1.239374329080e-03 2.640096343608e-02 0.0 
1.889550567184e-03 4.466456611197e-02 0.0 
2.079368704919e-03 3.221781866394e-02 0.0 
2.614033175082e-03 1.492024961513e-02 0.0 
4.535262117196e-04 7.711040156991e-02 0.0 
1.860557489567e-03 6.329709624309e-02 0.0 
1.199613310015e-03 6.636724102390e-02 0.0 
1.098054529070e-03 4.424936574180e-02 0.0 
1.561434439853e-03 7.206717780624e-02 0.0 
1.322454077704e-03 5.897489369509e-02 0.0 
1.080412436075e-03 7.714576813484e-02 0.0 
3.017248469856e-03 1.629524871206e-02 0.0 
7.871838537867e-03 8.101886580952e-02 0.0 
5.534673263206e-03 5.859592857696e-02 0.0 
2.661729671799e-03 6.610008180751e-02 0.0 
2.849703175269e-03 7.211583607299e-02 0.0 
3.163672467027e-03 7.619204614188e-02 0.0 
1.004005545170e-02 7.892649159342e-02 0.0 
4.130854453305e-03 6.048100215306e-02 0.0 
3.731484488714e-03 3.740004161077e-02 0.0 
8.354497096007e-04 3.895989489018e-02 0.0 
-1.486511583918e-04 8.049411556839e-02 0.0 
3.799777380340e-03 3.402958748014e-02 0.0 
4.072994859834e-03 5.143466728975e-02 0.0 
2.590710099888e-03 6.013945346622e-02 0.0 
6.574003420311e-03 3.700762501435e-02 0.0 
2.102452748571e-03 8.079992240005e-02 0.0 
1.582092304681e-03 4.091083742863e-02 0.0 
1.553451528341e-03 2.367187280558e-02 0.0 
3.397828342304e-03 6.942397639199e-02 0.0 
7.184479585334e-04 7.853646214311e-02 0.0 
1.975229972212e-03 7.187847957554e-02 0.0 
2.736755475763e-03 1.941230792230e-02 0.0 
3.116071722696e-03 4.352598422007e-02 0.0 
1.182019758732e-03 7.332199110136e-02 0.0 
8.260900843604e-03 6.075570483460e-02 0.0 
9.411483710695e-03 7.879339099382e-02 0.0 
5.602758601036e-03 9.168045488605e-02 0.0 
6.742126446618e-04 2.478833906055e-02 0.0 
9.756188451710e-03 6.524482307364e-02 0.0 
5.207591954524e-03 2.981308920802e-02 0.0 
7.575423142372e-03 4.975315827021e-02 0.0 
1.007333518002e-03 7.217013308425e-02 0.0 
2.672812970364e-03 2.796191315226e-02 0.0 
9.379274447101e-03 6.546445923524e-02 0.0 
1.267041350387e-03 3.115030636498e-02 0.0 
7.098867742741e-03 4.641225723637e-02 0.0 
8.544342448120e-03 7.297872361164e-02 0.0 
2.078508595681e-03 3.749576814421e-02 0.0 
6.477520001232e-03 5.907083681719e-02 0.0 
6.177391104215e-03 3.335405688133e-02 0.0 
8.275485617871e-03 8.397163287352e-02 0.0 
8.437005968939e-03 6.203406970487e-02 0.0 
6.498402888816e-03 5.474856290235e-02 0.0 
9.392428448149e-03 6.417270431939e-02 0.0 
7.145522722250e-04 4.279842984300e-02 0.0 
3.220947484510e-03 3.101389543457e-02 0.0 
3.310801237008e-03 8.488019546687e-02 0.0 
9.575926007251e-03 8.976951455559e-02 0.0 
3.194506905068e-03 6.081929494802e-02 0.0 
5.431053186141e-03 2.991590134177e-02 0.0 
8.938797071228e-04 2.092103962581e-02 0.0 
9.362804891776e-03 8.508148034732e-02 0.0 
2.654204759503e-03 3.160715443944e-02 0.0 
1.621486434590e-03 2.791764426337e-02 0.0 
3.718001815325e-03 5.839836823121e-02 0.0 
1.611375784866e-04 7.622722884497e-02 0.0 
3.222356984817e-03 9.427130784299e-02 0.0 
7.532254861149e-03 8.028647817144e-02 0.0 
9.798503830373e-03 6.729374196909e-02 0.0 
3.698878052343e-03 5.392588227328e-02 0.0 
1.717550915912e-03 1.892489038310e-02 0.0 
2.161489000271e-03 2.865044902988e-02 0.0 
5.046211926100e-03 3.679780096446e-02 0.0 
-1.289244790847e-03 1.031887737513e-01 0.0 
6.101990083672e-03 8.845868559159e-02 0.0 
1.706277328866e-03 2.563111079505e-02 0.0 
7.759132330775e-03 5.772682633606e-02 0.0 
5.508393034073e-03 2.972397546786e-02 0.0 
5.721005320624e-04 5.544426065415e-02 0.0 
3.141994435537e-03 1.630307676028e-02 0.0 
7.137966227971e-03 9.992455091362e-02 0.0 
1.293064574107e-03 2.254384213160e-02 0.0 
5.661476751488e-03 3.691704576868e-02 0.0 
9.054240992124e-03 8.691412836838e-02 0.0 
6.530534574472e-04 8.601269873705e-02 0.0 
8.200435304208e-04 1.411530368621e-02 0.0 
4.761872504866e-03 2.963406215186e-02 0.0 
8.872603983391e-03 5.723632500898e-02 0.0 
7.402164304905e-03 5.977893374014e-02 0.0 
6.105188496525e-03 9.786187406311e-02 0.0 
3.238098192724e-03 5.165232732639e-02 0.0 
7.858925025714e-03 5.853404031164e-02 0.0 
6.364312672105e-04 8.717981779745e-03 0.0 
4.512722650735e-03 2.632379920662e-02 0.0 
4.795225857943e-03 5.813197018863e-02 0.0 
2.866027957532e-03 5.416248417184e-02 0.0 
8.306406683488e-03 4.844665725078e-02 0.0 
2.836207105621e-04 7.888238815516e-02 0.0 
6.691004279415e-03 9.464698393208e-02 0.0 
2.433635758725e-03 5.199592043346e-02 0.0 
7.389752331619e-03 7.738961111530e-02 0.0 
6.888412143842e-03 5.701287352354e-02 0.0 
3.585538576667e-03 1.736797674079e-02 0.0 
2.006159215421e-03 4.977373426359e-02 0.0 
7.910474982452e-03 7.388055373173e-02 0.0 
1.586394495495e-03 4.749702600224e-02 0.0 
6.430240202663e-03 1.031736661420e-01 0.0 
4.959823357093e-03 5.392842663488e-02 0.0 
1.162181823176e-03 4.515596497951e-02 0.0 
7.213647427982e-03 5.058574203398e-02 0.0 
4.500572377194e-04 7.903294275888e-02 0.0 
8.671591896140e-03 5.328832742378e-02 0.0 
4.495274244931e-04 2.371306620895e-02 0.0 
4.028685904636e-03 6.950792654473e-02 0.0 
6.359409458057e-03 5.430554858877e-02 0.0 
4.423622973207e-03 4.497920956177e-02 0.0 
6.458545770738e-03 1.076098190178e-01 0.0 
6.083016636806e-03 4.900867998381e-02 0.0 
6.379895767002e-03 4.228327232867e-02 0.0 
8.363786654038e-03 4.935578370638e-02 0.0 
9.485795545627e-03 6.143762774497e-02 0.0 
5.644989437774e-03 4.316584177063e-02 0.0 
7.272513190481e-03 1.041776363108e-01 0.0 
2.401786292594e-03 7.457700288724e-02 0.0 
1.930177433000e-03 7.656544842415e-02 0.0 
7.608558965479e-03 7.109371035001e-02 0.0 
5.604237898719e-03 3.783563126026e-02 0.0 
2.593398617774e-04 7.792609524359e-02 0.0 
5.138996517619e-03 4.571359759239e-02 0.0 
1.260207263289e-03 7.914972280538e-02 0.0 
6.923265239026e-03 7.209891643937e-02 0.0 
6.866364392739e-03 3.719930139020e-02 0.0 
1.836927099808e-04 6.412149562807e-02 0.0 
6.610954817690e-03 6.966385226916e-02 0.0 
1.991486823112e-04 7.434178351396e-02 0.0 
5.918350667963e-03 7.081116234876e-02 0.0 
8.986446072517e-03 5.512664733089e-02 0.0 
5.617245052558e-03 6.866420800496e-02 0.0 
4.948957773855e-03 6.993858717788e-02 0.0 
4.457084985585e-04 1.911201934072e-02 0.0 
4.660078890850e-03 6.806208090485e-02 0.0 
5.466884407819e-05 9.153822871789e-03 0.0 
1.368861798649e-04 7.433863795198e-03 0.0 
2.464042945694e-04 8.025563640402e-02 0.0 
5.988686673416e-03 1.114431452328e-01 0.0 
-3.180388909659e-03 9.032486282474e-02 0.0 
7.103603812470e-03 1.065476914053e-01 0.0 
3.626986360321e-03 7.233436613713e-02 0.0 
5.864531582034e-03 4.639791794387e-02 0.0 
5.121116402868e-04 7.989275932480e-02 0.0 
2.998611994278e-03 7.345867305432e-02 0.0 
2.343154013229e-03 1.725819780811e-02 0.0 
1.636609868526e-03 7.787726748545e-03 0.0 
3.305950028872e-04 5.060820653773e-02 0.0 
4.866984382659e-03 2.647897677719e-02 0.0 
7.922754192026e-03 4.515320590925e-02 0.0 
9.278920797634e-05 2.758124262035e-02 0.0 
1.523940953000e-03 8.657042670603e-02 0.0 
-6.555366876164e-05 8.113758709110e-02 0.0 
3.447599987088e-04 3.975186003356e-02 0.0 
5.151499630998e-03 1.132450740852e-01 0.0 
5.987128976890e-03 1.081997896874e-01 0.0 
4.206877934681e-03 1.058900462472e-01 0.0 
7.870807783778e-04 7.121430493685e-02 0.0 
4.899840454016e-04 8.208017244954e-02 0.0 
4.081192469686e-03 1.120492070585e-01 0.0 
3.055623605124e-03 1.537934594118e-02 0.0 
2.566616604552e-03 7.970338442177e-02 0.0 
6.375410633551e-03 3.410990313128e-02 0.0 
1.664144762283e-03 1.085331574789e-01 0.0 
1.108379306896e-03 1.839374531961e-02 0.0 
3.345622408371e-03 1.617006901932e-02 0.0 
6.819795680791e-04 6.568901365785e-03 0.0 
5.006332911782e-03 2.548007863757e-02 0.0 
1.489361993866e-03 1.016762373486e-01 0.0 
3.760668824467e-03 7.268568525941e-02 0.0 
2.886282708514e-03 1.634214928270e-02 0.0 
4.451467913495e-04 4.313456547639e-02 0.0 
4.902397088022e-04 6.283928130960e-03 0.0 
3.237258944043e-03 8.033286490473e-02 0.0 
2.734405367849e-04 1.785294311355e-02 0.0 
2.319847933494e-03 8.447085091501e-02 0.0 
1.339489189956e-04 1.732663499334e-02 0.0 
5.017716353267e-03 3.742331217703e-02 0.0 
1.037329246224e-03 7.018896116411e-02 0.0 
4.516557793599e-03 7.277905935910e-02 0.0 
3.756646997809e-04 1.287022491123e-02 0.0 
2.005387420955e-03 1.758613276007e-02 0.0 
-5.296123807828e-05 9.895794169771e-02 0.0 
5.181904854883e-04 5.152550885741e-02 0.0 
1.308387862481e-03 6.633158921251e-02 0.0 
-1.142555483796e-03 8.700393810353e-02 0.0 
1.673898945364e-03 1.372527497780e-02 0.0 
4.023387169125e-03 2.840924829696e-02 0.0 
6.266565115661e-04 1.314753241297e-02 0.0 
5.092895432314e-05 7.880426253460e-02 0.0 
4.246276747932e-05 8.041390642503e-02 0.0 
1.853401413372e-03 1.281878804821e-02 0.0 
2.458688395381e-03 1.568894373198e-02 0.0 
2.782217610856e-03 8.214403703574e-02 0.0 
3.674210123220e-04 7.413807303740e-03 0.0 
-2.111511176687e-03 9.705250734723e-02 0.0 
2.087977705585e-03 8.733896401173e-02 0.0 
1.676216332814e-04 7.985997650112e-02 0.0 
3.947352462744e-04 6.344585587305e-03 0.0 
6.607282407794e-04 1.711708870759e-02 0.0 
9.242884422051e-04 6.318123602652e-02 0.0 
4.614261565004e-03 8.456144495313e-02 0.0 
4.659416398011e-04 7.283817888908e-02 0.0 
4.278198084835e-03 2.255810569285e-02 0.0 
4.346577538209e-04 8.088471141562e-02 0.0 
4.467546802619e-04 1.616205829761e-02 0.0 
2.121505997845e-03 1.266906979497e-02 0.0 
1.348763367730e-03 1.610523446630e-02 0.0 
1.243423618410e-03 5.793532898888e-03 0.0 
-1.728822741026e-03 9.155551173942e-02 0.0 
2.878507388679e-03 1.399714648983e-02 0.0 
3.546574279903e-03 2.004111633367e-02 0.0 
1.144592755124e-03 8.688911476594e-02 0.0 
1.724774709767e-03 1.722983540190e-02 0.0 
8.356850076605e-04 6.896835309868e-02 0.0 
5.808356200702e-04 7.816107479108e-02 0.0 
2.487152812107e-05 8.112569882944e-03 0.0 
-6.052359033766e-06 7.971707049038e-02 0.0 
1.906588583193e-04 8.687111656171e-02 0.0 
5.544577575008e-05 6.064077439896e-03 0.0 
3.355024477290e-04 7.818332873422e-02 0.0 
4.047145027322e-04 7.443622812755e-02 0.0 
2.229189924610e-03 1.519645448714e-02 0.0 
2.453829019546e-04 5.468472080500e-02 0.0 
2.216361886549e-04 3.410241184553e-02 0.0 
1.232090225015e-03 8.180125752353e-02 0.0 
-3.001369057787e-03 8.820887699660e-02 0.0 
3.198670659467e-04 5.978013202373e-02 0.0 
3.007712909307e-03 1.436302560983e-02 0.0 
1.036366911131e-03 1.541351439274e-02 0.0 
8.279581103086e-04 6.560773977916e-02 0.0 
1.643131834947e-03 9.603638404119e-02 0.0 
3.151582623761e-03 2.144000931070e-02 0.0 
9.920175858143e-04 6.029551925746e-02 0.0 
3.949507536520e-03 2.249645951252e-02 0.0 
3.899574360858e-03 2.057232843280e-02 0.0 
-4.187661645278e-03 9.836302218209e-02 0.0 
2.246606184224e-04 5.006098015019e-02 0.0 
1.233776827014e-04 8.005506271661e-02 0.0 
1.124907844278e-03 1.211936131186e-02 0.0 
6.570236379648e-04 5.845235036926e-02 0.0 
2.278402198764e-03 1.186940249467e-01 0.0 
1.501558398305e-04 1.296635617184e-01 0.0 
4.119497780722e-03 1.178029179692e-01 0.0 
1.186524229739e-04 1.250817373560e-01 0.0 
5.063993178823e-03 1.153910811944e-01 0.0 
1.323988354158e-04 1.200761215063e-01 0.0 
5.481310205867e-03 1.117410647111e-01 0.0 
1.175059358690e-04 1.146401811154e-01 0.0 
5.520109451098e-03 1.071642787402e-01 0.0 
1.356625617109e-04 1.087726726047e-01 0.0 
5.295270203066e-03 1.016892628121e-01 0.0 
1.196759696055e-04 1.024743506143e-01 0.0 
4.884286537835e-03 9.558780447163e-02 0.0 
1.356059972711e-04 9.574796806595e-02 0.0 

TENSORS node_materi_stress float
-3.977117377047e+00 2.954602816309e-02 0.0 
2.954602816309e-02 -8.524172499604e+00 0.0 
0.0 0.0 -3.668640238075e+00 
-6.248992404296e+01 4.435938021840e-01 0.0 
4.435938021840e-01 -1.376192887283e+02 0.0 
0.0 0.0 -5.963276383139e+01 
-1.626219000901e+02 -1.440860832105e-01 0.0 
-1.440860832105e-01 -3.820140753577e+02 0.0 
0.0 0.0 -1.629907926343e+02 
-1.394509551331e+02 5.125515769393e-01 0.0 
5.125515769393e-01 -3.259080352063e+02 0.0 
0.0 0.0 -1.392076971018e+02 
-8.533087145861e+00 -2.670945470934e-01 0.0 
-2.670945470934e-01 -2.074251291090e+01 0.0 
0.0 0.0 -8.594848867082e+00 
-1.574871045653e+01 -6.145105230511e-01 0.0 
-6.145105230511e-01 -4.028007102372e+01 0.0 
0.0 0.0 -1.640863444408e+01 
-2.266769315737e+01 -4.790424014469e-01 0.0 
-4.790424014469e-01 -5.847900820879e+01 0.0 
0.0 0.0 -2.394401040985e+01 
-3.069173622092e+01 -4.364001611029e-01 0.0 
-4.364001611029e-01 -7.923939742928e+01 0.0 
0.0 0.0 -3.257934009506e+01 
-3.825865860594e+01 -3.197002275601e-01 0.0 
-3.197002275601e-01 -9.917437724792e+01 0.0 
0.0 0.0 -4.082991075616e+01 
-4.601235463991e+01 -2.982513775595e-01 0.0 
-2.982513775595e-01 -1.188277010437e+02 0.0 
0.0 0.0 -4.905201670509e+01 
-5.371321009706e+01 -3.216754090752e-01 0.0 
-3.216754090752e-01 -1.384608288386e+02 0.0 
0.0 0.0 -5.725221168071e+01 
-6.142185154350e+01 -2.758802129705e-01 0.0 
-2.758802129705e-01 -1.580592699237e+02 0.0 
0.0 0.0 -6.544433644017e+01 
-6.928296697515e+01 -2.596226764209e-01 0.0 
-2.596226764209e-01 -1.776338972340e+02 0.0 
0.0 0.0 -7.367505926276e+01 
-7.723714847734e+01 -3.148557445850e-01 0.0 
-3.148557445850e-01 -1.973669918169e+02 0.0 
0.0 0.0 -8.198124208826e+01 
-8.547758741957e+01 -4.657375657281e-01 0.0 
-4.657375657281e-01 -2.175527740567e+02 0.0 
0.0 0.0 -9.050910844287e+01 
-9.398851498472e+01 -4.847354240319e-01 0.0 
-4.847354240319e-01 -2.370598361190e+02 0.0 
0.0 0.0 -9.891450533112e+01 
-1.019319526348e+02 -6.150358432882e-01 0.0 
-6.150358432882e-01 -2.548067462803e+02 0.0 
0.0 0.0 -1.066216096745e+02 
-1.105290162230e+02 -1.712998210977e-01 0.0 
-1.712998210977e-01 -2.742682443243e+02 0.0 
0.0 0.0 -1.150391781642e+02 
-1.196428865870e+02 -1.385792196658e-01 0.0 
-1.385792196658e-01 -2.941868758235e+02 0.0 
0.0 0.0 -1.237489287232e+02 
-1.286826555087e+02 -1.265581106443e-01 0.0 
-1.265581106443e-01 -3.134621607862e+02 0.0 
0.0 0.0 -1.322434448885e+02 
-1.379339623424e+02 -9.017615462722e-02 0.0 
-9.017615462722e-02 -3.328361763052e+02 0.0 
0.0 0.0 -1.408310415943e+02 
-1.474449146571e+02 -1.208676103157e-01 0.0 
-1.208676103157e-01 -3.523160320711e+02 0.0 
0.0 0.0 -1.495282840185e+02 
-1.567331581824e+02 -1.946014692125e-01 0.0 
-1.946014692125e-01 -3.708683354172e+02 0.0 
0.0 0.0 -1.578804480799e+02 
-1.399070604438e+02 3.456418908506e-01 0.0 
3.456418908506e-01 -3.270233011057e+02 0.0 
0.0 0.0 -1.396791084648e+02 
-1.393474075787e+02 5.959271526662e-01 0.0 
5.959271526662e-01 -3.259999377921e+02 0.0 
0.0 0.0 -1.392042036112e+02 
-1.394879914959e+02 1.123544487476e+00 0.0 
1.123544487476e+00 -3.262898950315e+02 0.0 
0.0 0.0 -1.393333659582e+02 
-1.394534899163e+02 1.043260471833e+00 0.0 
1.043260471833e+00 -3.263201856810e+02 0.0 
0.0 0.0 -1.393321026792e+02 
-1.392646038919e+02 1.493589049058e+00 0.0 
1.493589049058e+00 -3.257563833872e+02 0.0 
0.0 0.0 -1.391062961837e+02 
-1.396138343969e+02 1.797062115293e+00 0.0 
1.797062115293e+00 -3.264822469847e+02 0.0 
0.0 0.0 -1.394288244145e+02 
-1.399391527654e+02 2.156330752980e+00 0.0 
2.156330752980e+00 -3.268608131877e+02 0.0 
0.0 0.0 -1.396399897859e+02 
-1.397174071870e+02 2.607855410245e+00 0.0 
2.607855410245e+00 -3.267065308842e+02 0.0 
0.0 0.0 -1.395271814214e+02 
-1.402151182590e+02 3.146471596179e+00 0.0 
3.146471596179e+00 -3.276769084538e+02 0.0 
0.0 0.0 -1.399676080138e+02 
-1.402548970493e+02 3.301522817748e+00 0.0 
3.301522817748e+00 -3.279115991920e+02 0.0 
0.0 0.0 -1.400499488724e+02 
-1.402244224956e+02 3.892765538621e+00 0.0 
3.892765538621e+00 -3.276301480940e+02 0.0 
0.0 0.0 -1.399563711769e+02 
-1.406362498822e+02 4.404317608540e+00 0.0 
4.404317608540e+00 -3.286311115099e+02 0.0 
0.0 0.0 -1.403802084176e+02 
-1.412563736933e+02 4.938993148106e+00 0.0 
4.938993148106e+00 -3.296322328435e+02 0.0 
0.0 0.0 -1.408665819610e+02 
-1.411975738420e+02 5.513995751696e+00 0.0 
5.513995751696e+00 -3.298738597929e+02 0.0 
0.0 0.0 -1.409214300905e+02 
-1.415889617960e+02 6.134443892947e+00 0.0 
6.134443892947e+00 -3.303713073123e+02 0.0 
0.0 0.0 -1.411880807325e+02 
-1.415208214256e+02 6.648490161038e+00 0.0 
6.648490161038e+00 -3.305455630313e+02 0.0 
0.0 0.0 -1.412199153371e+02 
-1.419475219908e+02 7.335210894459e+00 0.0 
7.335210894459e+00 -3.314464346285e+02 0.0 
0.0 0.0 -1.416181869858e+02 
-1.430053833564e+02 8.008136228150e+00 0.0 
8.008136228150e+00 -3.334610474906e+02 0.0 
0.0 0.0 -1.425399292541e+02 
-1.436593136144e+02 8.694588957441e+00 0.0 
8.694588957441e+00 -3.352768319261e+02 0.0 
0.0 0.0 -1.432808436621e+02 
-1.444190723350e+02 9.353609548803e+00 0.0 
9.353609548803e+00 -3.372183855601e+02 0.0 
0.0 0.0 -1.440912373685e+02 
-1.450612949038e+02 9.865087402296e+00 0.0 
9.865087402296e+00 -3.388800612253e+02 0.0 
0.0 0.0 -1.447824068387e+02 
-1.459276841125e+02 1.051400362739e+01 0.0 
1.051400362739e+01 -3.406859213210e+02 0.0 
0.0 0.0 -1.455840816301e+02 
-1.466728892946e+02 1.100312599004e+01 0.0 
1.100312599004e+01 -3.427453932377e+02 0.0 
0.0 0.0 -1.464254847597e+02 
-1.475508186933e+02 1.145101772644e+01 0.0 
1.145101772644e+01 -3.449422601220e+02 0.0 
0.0 0.0 -1.473479236446e+02 
-1.485952944086e+02 1.178847043085e+01 0.0 
1.178847043085e+01 -3.475439912819e+02 0.0 
0.0 0.0 -1.484417857072e+02 
-1.497732868022e+02 1.206533021681e+01 0.0 
1.206533021681e+01 -3.502742714502e+02 0.0 
0.0 0.0 -1.496142674757e+02 
-1.506527752344e+02 1.219062873217e+01 0.0 
1.219062873217e+01 -3.528877940156e+02 0.0 
0.0 0.0 -1.506621707750e+02 
-1.518529243288e+02 1.219625768453e+01 0.0 
1.219625768453e+01 -3.555667740798e+02 0.0 
0.0 0.0 -1.518259095226e+02 
-1.526448257446e+02 1.209161793268e+01 0.0 
1.209161793268e+01 -3.578921735743e+02 0.0 
0.0 0.0 -1.527610997957e+02 
-1.540411436923e+02 1.202071016114e+01 0.0 
1.202071016114e+01 -3.610221822477e+02 0.0 
0.0 0.0 -1.541189977820e+02 
-1.547334825080e+02 1.140518654245e+01 0.0 
1.140518654245e+01 -3.632540138561e+02 0.0 
0.0 0.0 -1.549962489092e+02 
-1.552925743184e+02 1.107520081092e+01 0.0 
1.107520081092e+01 -3.645803524593e+02 0.0 
0.0 0.0 -1.555618780333e+02 
-1.562396844323e+02 1.058862518577e+01 0.0 
1.058862518577e+01 -3.668414321935e+02 0.0 
0.0 0.0 -1.565243349877e+02 
-1.571947042263e+02 1.007210209489e+01 0.0 
1.007210209489e+01 -3.691595132903e+02 0.0 
0.0 0.0 -1.575062652550e+02 
-1.580399615586e+02 9.447359266630e+00 0.0 
9.447359266630e+00 -3.711832550675e+02 0.0 
0.0 0.0 -1.583669649878e+02 
-1.587349536721e+02 8.826269934082e+00 0.0 
8.826269934082e+00 -3.729547801828e+02 0.0 
0.0 0.0 -1.591069201565e+02 
-1.594917249397e+02 8.130251031833e+00 0.0 
8.130251031833e+00 -3.746286196162e+02 0.0 
0.0 0.0 -1.598361033668e+02 
-1.598820983719e+02 7.420929506146e+00 0.0 
7.420929506146e+00 -3.757338581281e+02 0.0 
0.0 0.0 -1.602847869500e+02 
-1.603395133765e+02 6.764751664712e+00 0.0 
6.764751664712e+00 -3.766989671126e+02 0.0 
0.0 0.0 -1.607115441467e+02 
-1.605178261545e+02 6.022752269777e+00 0.0 
6.022752269777e+00 -3.773658354272e+02 0.0 
0.0 0.0 -1.609650984745e+02 
-1.611283716482e+02 5.451663637755e+00 0.0 
5.451663637755e+00 -3.786293313924e+02 0.0 
0.0 0.0 -1.615273109122e+02 
-1.619779148756e+02 4.695253240783e+00 0.0 
4.695253240783e+00 -3.803193265795e+02 0.0 
0.0 0.0 -1.622891724365e+02 
-1.624132947238e+02 4.166151601191e+00 0.0 
4.166151601191e+00 -3.812171649614e+02 0.0 
0.0 0.0 -1.626891379056e+02 
-1.612939133967e+02 3.460300659498e+00 0.0 
3.460300659498e+00 -3.793529702667e+02 0.0 
0.0 0.0 -1.617940650990e+02 
-1.626852693611e+02 2.773397502257e+00 0.0 
2.773397502257e+00 -3.818509116385e+02 0.0 
0.0 0.0 -1.629608542999e+02 
-1.623307037590e+02 2.220585597575e+00 0.0 
2.220585597575e+00 -3.813697759167e+02 0.0 
0.0 0.0 -1.627101439027e+02 
-1.627534825996e+02 1.860315856079e+00 0.0 
1.860315856079e+00 -3.821398030766e+02 0.0 
0.0 0.0 -1.630679857028e+02 
-1.631398646923e+02 1.065725741398e+00 0.0 
1.065725741398e+00 -3.829694864239e+02 0.0 
0.0 0.0 -1.634328053349e+02 
-1.631036797106e+02 6.373372818962e-01 0.0 
6.373372818962e-01 -3.829762991870e+02 0.0 
0.0 0.0 -1.634239936693e+02 
-7.117920159224e+01 3.189334413334e-01 0.0 
3.189334413334e-01 -1.574385292245e+02 0.0 
0.0 0.0 -6.818531924501e+01 
-7.933139004829e+01 3.726827888326e-01 0.0 
3.726827888326e-01 -1.771581778767e+02 0.0 
0.0 0.0 -7.654687037750e+01 
-8.754245938309e+01 3.733628252215e-01 0.0 
3.733628252215e-01 -1.967147772038e+02 0.0 
0.0 0.0 -8.487717097606e+01 
-9.547471287917e+01 4.108152217692e-01 0.0 
4.108152217692e-01 -2.158995927244e+02 0.0 
0.0 0.0 -9.301229168107e+01 
-1.034949025770e+02 3.780687948789e-01 0.0 
3.780687948789e-01 -2.355321911673e+02 0.0 
0.0 0.0 -1.013081281233e+02 
-1.116735675469e+02 4.245510733096e-01 0.0 
4.245510733096e-01 -2.552810716293e+02 0.0 
0.0 0.0 -1.096863917529e+02 
-1.194497434376e+02 3.920757385494e-01 0.0 
3.920757385494e-01 -2.748096799945e+02 0.0 
0.0 0.0 -1.178778270296e+02 
-1.271246195250e+02 4.597869035645e-01 0.0 
4.597869035645e-01 -2.942125482899e+02 0.0 
0.0 0.0 -1.260011503445e+02 
-1.350620227682e+02 5.051035405953e-01 0.0 
5.051035405953e-01 -3.141871851483e+02 0.0 
0.0 0.0 -1.343747623749e+02 
-1.177963364296e+01 3.617900611808e+00 0.0 
3.617900611808e+00 -6.878560575618e+00 0.0 
0.0 0.0 -5.579913165521e+00 
-6.622792531913e+01 1.050610191564e+00 0.0 
1.050610191564e+00 -1.386762372940e+02 0.0 
0.0 0.0 -6.107124878395e+01 
-1.392067324187e+01 8.873017479088e+00 0.0 
8.873017479088e+00 -1.297003286164e+01 0.0 
0.0 0.0 -7.703071169861e+00 
-1.375735442516e+01 9.872990708981e+00 0.0 
9.872990708981e+00 -1.549308101446e+01 0.0 
0.0 0.0 -8.375130631888e+00 
-1.103022591296e+01 6.770297244775e+00 0.0 
6.770297244775e+00 -1.363969847723e+01 0.0 
0.0 0.0 -7.000977317058e+00 
-1.248633166779e+01 3.155012459162e+00 0.0 
3.155012459162e+00 -2.027803856061e+01 0.0 
0.0 0.0 -9.429311068521e+00 
-2.225020113948e+01 2.386947983717e+00 0.0 
2.386947983717e+00 -4.000895688934e+01 0.0 
0.0 0.0 -1.827774740865e+01 
-3.179973100031e+01 1.888406473523e+00 0.0 
1.888406473523e+00 -5.980694160564e+01 0.0 
0.0 0.0 -2.708200178179e+01 
-4.068271064045e+01 1.406526221868e+00 0.0 
1.406526221868e+00 -7.925629060021e+01 0.0 
0.0 0.0 -3.558170037220e+01 
-4.933137745994e+01 1.112716508607e+00 0.0 
1.112716508607e+00 -9.869817211923e+01 0.0 
0.0 0.0 -4.400886487375e+01 
-5.774242116287e+01 1.019093314427e+00 0.0 
1.019093314427e+00 -1.181537746104e+02 0.0 
0.0 0.0 -5.236885873198e+01 
-7.113742306227e+00 7.218654863254e-01 0.0 
7.218654863254e-01 -7.276019711539e+00 0.0 
0.0 0.0 -3.916928605330e+00 
-1.223931836023e+01 8.219659853006e-01 0.0 
8.219659853006e-01 -1.973443165190e+01 0.0 
0.0 0.0 -9.192125003638e+00 
-2.042623544939e+01 6.240761691541e-01 0.0 
6.240761691541e-01 -3.931811404906e+01 0.0 
0.0 0.0 -1.752330484954e+01 
-2.880206665735e+01 7.821652449783e-01 0.0 
7.821652449783e-01 -5.884650766972e+01 0.0 
0.0 0.0 -2.589457229812e+01 
-3.724928972075e+01 6.361651849854e-01 0.0 
6.361651849854e-01 -7.837928062030e+01 0.0 
0.0 0.0 -3.428857110231e+01 
-4.568886089843e+01 7.763814947195e-01 0.0 
7.763814947195e-01 -9.790457501697e+01 0.0 
0.0 0.0 -4.267803077462e+01 
-5.410565016705e+01 5.516089130826e-01 0.0 
5.516089130826e-01 -1.173347388078e+02 0.0 
0.0 0.0 -5.103211669244e+01 
-6.161370045224e+01 -2.314633338436e-01 0.0 
-2.314633338436e-01 -1.350091846498e+02 0.0 
0.0 0.0 -5.858686553060e+01 
-6.226002763288e+01 -3.767034745584e-02 0.0 
-3.767034745584e-02 -1.361991847575e+02 0.0 
0.0 0.0 -5.913776371712e+01 
-6.226870101815e+01 -4.397368500281e-02 0.0 
-4.397368500281e-02 -1.362339812497e+02 0.0 
0.0 0.0 -5.915080468035e+01 
-6.228536080815e+01 -2.994324835694e-04 0.0 
-2.994324835694e-04 -1.359980377967e+02 0.0 
0.0 0.0 -5.908501958145e+01 
-6.361992564587e+01 -2.318940653446e-02 0.0 
-2.318940653446e-02 -1.386393276460e+02 0.0 
0.0 0.0 -6.027777598756e+01 
-6.268962478552e+01 -3.646313962987e-02 0.0 
-3.646313962987e-02 -1.362973824062e+02 0.0 
0.0 0.0 -5.929610215752e+01 
-6.289420789141e+01 2.204745220038e-02 0.0 
2.204745220038e-02 -1.361213015995e+02 0.0 
0.0 0.0 -5.930465284728e+01 
-6.310770785214e+01 -2.682045265481e-02 0.0 
-2.682045265481e-02 -1.363142606657e+02 0.0 
0.0 0.0 -5.942659055535e+01 
-6.342223274331e+01 5.275374010228e-02 0.0 
5.275374010228e-02 -1.367620702902e+02 0.0 
0.0 0.0 -5.965529091004e+01 
-6.362575336395e+01 6.695242749173e-02 0.0 
6.695242749173e-02 -1.367148753086e+02 0.0 
0.0 0.0 -5.970218860178e+01 
-6.399542375753e+01 1.764310761571e-01 0.0 
1.764310761571e-01 -1.367164401741e+02 0.0 
0.0 0.0 -5.981355917948e+01 
-6.426764815087e+01 3.070520197412e-01 0.0 
3.070520197412e-01 -1.367324115768e+02 0.0 
0.0 0.0 -5.990001791829e+01 
-6.475861570078e+01 4.241054339175e-01 0.0 
4.241054339175e-01 -1.369539738226e+02 0.0 
0.0 0.0 -6.011377685702e+01 
-6.530194670912e+01 6.245056897320e-01 0.0 
6.245056897320e-01 -1.374614454392e+02 0.0 
0.0 0.0 -6.042901764450e+01 
-1.279772976017e+01 1.212122669205e+00 0.0 
1.212122669205e+00 -6.635033872439e+00 0.0 
0.0 0.0 -5.743728931399e+00 
-1.419847048649e+01 9.121474360608e-02 0.0 
9.121474360608e-02 -7.447397613702e+00 0.0 
0.0 0.0 -6.410631157654e+00 
-1.416608167497e+01 -4.482960308156e-01 0.0 
-4.482960308156e-01 -7.112129162310e+00 0.0 
0.0 0.0 -6.283881758932e+00 
-1.328886349280e+01 -3.837809532182e-01 0.0 
-3.837809532182e-01 -7.106877833607e+00 0.0 
0.0 0.0 -6.018864513658e+00 
-1.217171771981e+01 -4.010489170169e-01 0.0 
-4.010489170169e-01 -8.073515068926e+00 0.0 
0.0 0.0 -5.996348291670e+00 
-1.127738570855e+01 -4.847058908458e-01 0.0 
-4.847058908458e-01 -8.451260538487e+00 0.0 
0.0 0.0 -5.845577221024e+00 
-1.031984936450e+01 -4.734788924988e-01 0.0 
-4.734788924988e-01 -8.375903198318e+00 0.0 
0.0 0.0 -5.534217829806e+00 
-9.391261182035e+00 -4.270029505033e-01 0.0 
-4.270029505033e-01 -8.271632942593e+00 0.0 
0.0 0.0 -5.223616897138e+00 
-8.498656806223e+00 -3.981232814390e-01 0.0 
-3.981232814390e-01 -8.252498125117e+00 0.0 
0.0 0.0 -4.948650860331e+00 
-7.724340975786e+00 -3.491867333485e-01 0.0 
-3.491867333485e-01 -8.267518876449e+00 0.0 
0.0 0.0 -4.721504346595e+00 
-6.952037635564e+00 -2.599611402078e-01 0.0 
-2.599611402078e-01 -8.379101029989e+00 0.0 
0.0 0.0 -4.525017423311e+00 
-6.565544664066e+00 -3.286007331806e-01 0.0 
-3.286007331806e-01 -8.942524809654e+00 0.0 
0.0 0.0 -4.589090086784e+00 
-5.761964269199e+00 -3.868047965834e-01 0.0 
-3.868047965834e-01 -8.632104501871e+00 0.0 
0.0 0.0 -4.250110373562e+00 
-4.933699026075e+00 -2.914642377924e-01 0.0 
-2.914642377924e-01 -7.888578779016e+00 0.0 
0.0 0.0 -3.764908271076e+00 
-4.411303929079e+00 -2.204105114488e-01 0.0 
-2.204105114488e-01 -8.029513417104e+00 0.0 
0.0 0.0 -3.655207687402e+00 
-4.055749351433e+00 -1.826732269290e-01 0.0 
-1.826732269290e-01 -8.299459772691e+00 0.0 
0.0 0.0 -3.632314339670e+00 
-3.735994830061e+00 -1.112283862871e-01 0.0 
-1.112283862871e-01 -8.331167583116e+00 0.0 
0.0 0.0 -3.545532638070e+00 
-3.460219381698e+00 -1.304318682957e-01 0.0 
-1.304318682957e-01 -7.923779068614e+00 0.0 
0.0 0.0 -3.338092238984e+00 
-3.319690599998e+00 4.706602640839e-02 0.0 
4.706602640839e-02 -7.323185911827e+00 0.0 
0.0 0.0 -3.101279227936e+00 
-3.689183991009e+00 1.652130861448e+00 0.0 
1.652130861448e+00 -4.705475037310e+00 0.0 
0.0 0.0 -2.008918865705e+00 
-2.616065610930e+00 1.065828505434e+00 0.0 
1.065828505434e+00 -9.453665659406e+00 0.0 
0.0 0.0 -3.138810249008e+00 
-1.747747981200e+00 2.824980912893e-01 0.0 
2.824980912893e-01 -1.004518147284e+01 0.0 
0.0 0.0 -3.137878836211e+00 
-1.251618012746e+00 -2.915047665574e-02 0.0 
-2.915047665574e-02 -9.772939066780e+00 0.0 
0.0 0.0 -2.907367123858e+00 
-1.383817091003e+00 -2.078526793609e-01 0.0 
-2.078526793609e-01 -9.775223902180e+00 0.0 
0.0 0.0 -2.947712297955e+00 
-1.671168648058e+00 -2.677703391651e-01 0.0 
-2.677703391651e-01 -9.738764811673e+00 0.0 
0.0 0.0 -3.022980037919e+00 
-2.148515506669e+00 -3.017429845964e-01 0.0 
-3.017429845964e-01 -9.753722479038e+00 0.0 
0.0 0.0 -3.170671395712e+00 
-2.662926409390e+00 -3.063554583234e-01 0.0 
-3.063554583234e-01 -9.754447365752e+00 0.0 
0.0 0.0 -3.325212132543e+00 
-3.216067257631e+00 -3.010087811603e-01 0.0 
-3.010087811603e-01 -9.765837408733e+00 0.0 
0.0 0.0 -3.494571399909e+00 
-3.758125546622e+00 -2.863357098423e-01 0.0 
-2.863357098423e-01 -9.773499742630e+00 0.0 
0.0 0.0 -3.659487586776e+00 
-4.283414349546e+00 -2.674083169887e-01 0.0 
-2.674083169887e-01 -9.783028633485e+00 0.0 
0.0 0.0 -3.819932894909e+00 
-4.773757745926e+00 -2.449659928788e-01 0.0 
-2.449659928788e-01 -9.791618002366e+00 0.0 
0.0 0.0 -3.969612724488e+00 
-5.224230530177e+00 -2.210520060991e-01 0.0 
-2.210520060991e-01 -9.800715768975e+00 0.0 
0.0 0.0 -4.107483889746e+00 
-5.630697085931e+00 -1.972668245130e-01 0.0 
-1.972668245130e-01 -9.809547887335e+00 0.0 
0.0 0.0 -4.232073491980e+00 
-5.994186918260e+00 -1.747688909966e-01 0.0 
-1.747688909966e-01 -9.817861561502e+00 0.0 
0.0 0.0 -4.343614543928e+00 
-6.315675890923e+00 -1.535283902334e-01 0.0 
-1.535283902334e-01 -9.825302646072e+00 0.0 
0.0 0.0 -4.442293561098e+00 
-6.596456912459e+00 -1.331249616987e-01 0.0 
-1.331249616987e-01 -9.831768040957e+00 0.0 
0.0 0.0 -4.528467486025e+00 
-6.837695112889e+00 -1.128178372570e-01 0.0 
-1.128178372570e-01 -9.836822607301e+00 0.0 
0.0 0.0 -4.602355316057e+00 
-7.039711585424e+00 -9.118478653009e-02 0.0 
-9.118478653009e-02 -9.839437203507e+00 0.0 
0.0 0.0 -4.663744636679e+00 
-7.201163176531e+00 -6.535982447388e-02 0.0 
-6.535982447388e-02 -9.837507651849e+00 0.0 
0.0 0.0 -4.711601248514e+00 
-7.317508585391e+00 -3.007923624535e-02 0.0 
-3.007923624535e-02 -9.827117085759e+00 0.0 
0.0 0.0 -4.743387701345e+00 
-7.380610269090e+00 2.296023850710e-02 0.0 
2.296023850710e-02 -9.802004973321e+00 0.0 
0.0 0.0 -4.754784572723e+00 
-7.381688001980e+00 1.028819542308e-01 0.0 
1.028819542308e-01 -9.745692959719e+00 0.0 
0.0 0.0 -4.738214288509e+00 
-7.356855124402e+00 2.007711893178e-01 0.0 
2.007711893178e-01 -9.154022482996e+00 0.0 
0.0 0.0 -4.553263282219e+00 
-7.197814184798e+00 -2.883559306325e-01 0.0 
-2.883559306325e-01 -6.884157797164e+00 0.0 
0.0 0.0 -3.824591594589e+00 
-1.213071565982e+01 -2.533994769477e-01 0.0 
-2.533994769477e-01 -1.968725699468e+01 0.0 
0.0 0.0 -9.145391796350e+00 
-1.184938181547e+01 -3.375972446155e-02 0.0 
-3.375972446155e-02 -1.957223540216e+01 0.0 
0.0 0.0 -9.026485165289e+00 
-1.174550594162e+01 -1.824030004986e-02 0.0 
-1.824030004986e-02 -1.955123851679e+01 0.0 
0.0 0.0 -8.989023337523e+00 
-1.166335517062e+01 -6.796452807830e-02 0.0 
-6.796452807830e-02 -1.956673836238e+01 0.0 
0.0 0.0 -8.969028059900e+00 
-1.157009548588e+01 -1.165807742967e-01 0.0 
-1.165807742967e-01 -1.958084422758e+01 0.0 
0.0 0.0 -8.945281914039e+00 
-1.145480221207e+01 -1.601814719797e-01 0.0 
-1.601814719797e-01 -1.958952827446e+01 0.0 
0.0 0.0 -8.913299145959e+00 
-1.131407209820e+01 -2.004959355819e-01 0.0 
-2.004959355819e-01 -1.959392100672e+01 0.0 
0.0 0.0 -8.872397931475e+00 
-1.114701277129e+01 -2.397898559758e-01 0.0 
-2.397898559758e-01 -1.959574327453e+01 0.0 
0.0 0.0 -8.822826813745e+00 
-1.095276361506e+01 -2.793935122829e-01 0.0 
-2.793935122829e-01 -1.959635921500e+01 0.0 
0.0 0.0 -8.764736849017e+00 
-1.073108545987e+01 -3.198420651750e-01 0.0 
-3.198420651750e-01 -1.959646823418e+01 0.0 
0.0 0.0 -8.698266108216e+00 
-1.048250566144e+01 -3.610408503564e-01 0.0 
-3.610408503564e-01 -1.959648445443e+01 0.0 
0.0 0.0 -8.623697034759e+00 
-1.020890170991e+01 -4.026483667204e-01 0.0 
-4.026483667204e-01 -1.959649624163e+01 0.0 
0.0 0.0 -8.541619385462e+00 
-9.912869073367e+00 -4.439192843168e-01 0.0 
-4.439192843168e-01 -1.959864301939e+01 0.0 
0.0 0.0 -8.453453627827e+00 
-9.597331459889e+00 -4.808808981424e-01 0.0 
-4.808808981424e-01 -1.960347893038e+01 0.0 
0.0 0.0 -8.360243117082e+00 
-9.271848308989e+00 -5.096455382761e-01 0.0 
-5.096455382761e-01 -1.961383969259e+01 0.0 
0.0 0.0 -8.265706400473e+00 
-8.950012573715e+00 -5.222515168035e-01 0.0 
-5.222515168035e-01 -1.962436061180e+01 0.0 
0.0 0.0 -8.172311955656e+00 
-8.659159010775e+00 -5.176417162166e-01 0.0 
-5.176417162166e-01 -1.964846694006e+01 0.0 
0.0 0.0 -8.092287785250e+00 
-8.417013039114e+00 -4.758623071593e-01 0.0 
-4.758623071593e-01 -1.966767178304e+01 0.0 
0.0 0.0 -8.025405446647e+00 
-8.290573798585e+00 -3.980635645702e-01 0.0 
-3.980635645702e-01 -1.973533984537e+01 0.0 
0.0 0.0 -8.007774093186e+00 
-8.289761603092e+00 -2.234726839181e-01 0.0 
-2.234726839181e-01 -1.977046911994e+01 0.0 
0.0 0.0 -8.018069216910e+00 
-8.616964211261e+00 3.903513331930e-02 0.0 
3.903513331930e-02 -1.999191450295e+01 0.0 
0.0 0.0 -8.182663614262e+00 
-9.998803297555e+00 7.539681241947e-01 0.0 
7.539681241947e-01 -2.123920758781e+01 0.0 
0.0 0.0 -8.971403265608e+00 
-9.377460283949e+00 1.254711104896e+00 0.0 
1.254711104896e+00 -1.778543862925e+01 0.0 
0.0 0.0 -7.748869673959e+00 
-2.027542167208e+01 1.093570817161e+00 0.0 
1.093570817161e+00 -3.753149896894e+01 0.0 
0.0 0.0 -1.694207619231e+01 
-2.102813727302e+01 6.892867773933e-01 0.0 
6.892867773933e-01 -4.096546717471e+01 0.0 
0.0 0.0 -1.819808133432e+01 
-1.978495599294e+01 1.909960281471e-02 0.0 
1.909960281471e-02 -3.971438861246e+01 0.0 
0.0 0.0 -1.744980338162e+01 
-1.933944352249e+01 -2.645056711235e-01 0.0 
-2.645056711235e-01 -3.944693465619e+01 0.0 
0.0 0.0 -1.723591345360e+01 
-1.917027842197e+01 -4.672598221055e-01 0.0 
-4.672598221055e-01 -3.938558355979e+01 0.0 
0.0 0.0 -1.716675859453e+01 
-1.906850912055e+01 -5.716313716392e-01 0.0 
-5.716313716392e-01 -3.928406034930e+01 0.0 
0.0 0.0 -1.710577084095e+01 
-1.908586460639e+01 -6.279176323346e-01 0.0 
-6.279176323346e-01 -3.924353208014e+01 0.0 
0.0 0.0 -1.709881900596e+01 
-1.914563490699e+01 -6.380073822601e-01 0.0 
-6.380073822601e-01 -3.919822797793e+01 0.0 
0.0 0.0 -1.710315886548e+01 
-1.924428888481e+01 -6.192887079008e-01 0.0 
-6.192887079008e-01 -3.917647404848e+01 0.0 
0.0 0.0 -1.712622887999e+01 
-1.935393923128e+01 -5.824640570867e-01 0.0 
-5.824640570867e-01 -3.916388464648e+01 0.0 
0.0 0.0 -1.715534716333e+01 
-1.947355368807e+01 -5.387869900023e-01 0.0 
-5.387869900023e-01 -3.916068910178e+01 0.0 
0.0 0.0 -1.719027283696e+01 
-1.959608228446e+01 -4.906469595675e-01 0.0 
-4.906469595675e-01 -3.915855252278e+01 0.0 
0.0 0.0 -1.722639044217e+01 
-1.971501918926e+01 -4.389473351241e-01 0.0 
-4.389473351241e-01 -3.915816013740e+01 0.0 
0.0 0.0 -1.726195379800e+01 
-1.982538253523e+01 -3.858177430541e-01 0.0 
-3.858177430541e-01 -3.915897243246e+01 0.0 
0.0 0.0 -1.729530649031e+01 
-1.992526658823e+01 -3.325680627004e-01 0.0 
-3.325680627004e-01 -3.915916973665e+01 0.0 
0.0 0.0 -1.732533089746e+01 
-2.001543461654e+01 -2.797549089234e-01 0.0 
-2.797549089234e-01 -3.915672576110e+01 0.0 
0.0 0.0 -1.735164811329e+01 
-2.009662118076e+01 -2.261426687392e-01 0.0 
-2.261426687392e-01 -3.914975961052e+01 0.0 
0.0 0.0 -1.737391423738e+01 
-2.016979798156e+01 -1.722947021061e-01 0.0 
-1.722947021061e-01 -3.913878022452e+01 0.0 
0.0 0.0 -1.739257346182e+01 
-2.023968662540e+01 -1.223998482122e-01 0.0 
-1.223998482122e-01 -3.912784012218e+01 0.0 
0.0 0.0 -1.741025802427e+01 
-2.031180498962e+01 -8.408028405299e-02 0.0 
-8.408028405299e-02 -3.913369773215e+01 0.0 
0.0 0.0 -1.743365081653e+01 
-2.038808447691e+01 -4.430200595017e-02 0.0 
-4.430200595017e-02 -3.919396509694e+01 0.0 
0.0 0.0 -1.747461487216e+01 
-2.042025848908e+01 -4.781507486284e-01 0.0 
-4.781507486284e-01 -3.927956049959e+01 0.0 
0.0 0.0 -1.750994569660e+01 
-2.881354188296e+01 -3.671712248091e-01 0.0 
-3.671712248091e-01 -5.880678850662e+01 0.0 
0.0 0.0 -2.588609911687e+01 
-2.881348331825e+01 -1.889697506564e-01 0.0 
-1.889697506564e-01 -5.873660010501e+01 0.0 
0.0 0.0 -2.586502502698e+01 
-2.879291082171e+01 -1.617290514863e-01 0.0 
-1.617290514863e-01 -5.870688578319e+01 0.0 
0.0 0.0 -2.584993898147e+01 
-2.876370905561e+01 -2.075662614968e-01 0.0 
-2.075662614968e-01 -5.870477124300e+01 0.0 
0.0 0.0 -2.584054408958e+01 
-2.873484872067e+01 -2.632024192468e-01 0.0 
-2.632024192468e-01 -5.871287370128e+01 0.0 
0.0 0.0 -2.583431672658e+01 
-2.870605780731e+01 -3.229106022923e-01 0.0 
-3.229106022923e-01 -5.872229980203e+01 0.0 
0.0 0.0 -2.582850728280e+01 
-2.867801977743e+01 -3.816499841705e-01 0.0 
-3.816499841705e-01 -5.872829115521e+01 0.0 
0.0 0.0 -2.582189327979e+01 
-2.865439711590e+01 -4.403834670407e-01 0.0 
-4.403834670407e-01 -5.872811059448e+01 0.0 
0.0 0.0 -2.581475231311e+01 
-2.863637912040e+01 -5.003126798229e-01 0.0 
-5.003126798229e-01 -5.872838604566e+01 0.0 
0.0 0.0 -2.580942954982e+01 
-2.861939955563e+01 -5.576750423789e-01 0.0 
-5.576750423789e-01 -5.873247367633e+01 0.0 
0.0 0.0 -2.580556196959e+01 
-2.861216042984e+01 -6.060477948290e-01 0.0 
-6.060477948290e-01 -5.874134621885e+01 0.0 
0.0 0.0 -2.580605199461e+01 
-2.862441714209e+01 -6.416452450224e-01 0.0 
-6.416452450224e-01 -5.875290980138e+01 0.0 
0.0 0.0 -2.581319808304e+01 
-2.866365767582e+01 -6.644602881324e-01 0.0 
-6.644602881324e-01 -5.876551413373e+01 0.0 
0.0 0.0 -2.582875154286e+01 
-2.873962785849e+01 -6.728419878991e-01 0.0 
-6.728419878991e-01 -5.881044053882e+01 0.0 
0.0 0.0 -2.586502051919e+01 
-2.884340164889e+01 -6.326112360610e-01 0.0 
-6.326112360610e-01 -5.887394607653e+01 0.0 
0.0 0.0 -2.591520431763e+01 
-2.902727390859e+01 -5.409923942111e-01 0.0 
-5.409923942111e-01 -5.899853704061e+01 0.0 
0.0 0.0 -2.600774328476e+01 
-2.926889326652e+01 -3.392642123729e-01 0.0 
-3.392642123729e-01 -5.908465950848e+01 0.0 
0.0 0.0 -2.610606583250e+01 
-2.974309253867e+01 -9.717031688528e-02 0.0 
-9.717031688528e-02 -5.933922188227e+01 0.0 
0.0 0.0 -2.632469432628e+01 
-3.086909179711e+01 4.867081710411e-01 0.0 
4.867081710411e-01 -6.062072916828e+01 0.0 
0.0 0.0 -2.704694628962e+01 
-3.013734449463e+01 8.741337719445e-01 0.0 
8.741337719445e-01 -5.722814876068e+01 0.0 
0.0 0.0 -2.580964797659e+01 
-3.932529288939e+01 6.534481844350e-01 0.0 
6.534481844350e-01 -7.676046525741e+01 0.0 
0.0 0.0 -3.442572744404e+01 
-4.008801578030e+01 4.178291724880e-01 0.0 
4.178291724880e-01 -8.017442303378e+01 0.0 
0.0 0.0 -3.567873164422e+01 
-3.902818036725e+01 -7.603812401180e-02 0.0 
-7.603812401180e-02 -7.897473658546e+01 0.0 
0.0 0.0 -3.500087508581e+01 
-3.855752137870e+01 -2.850541097644e-01 0.0 
-2.850541097644e-01 -7.866354570064e+01 0.0 
0.0 0.0 -3.476632012380e+01 
-3.830864895763e+01 -4.298917116654e-01 0.0 
-4.298917116654e-01 -7.854538763715e+01 0.0 
0.0 0.0 -3.465621097844e+01 
-3.804594414315e+01 -4.795018974551e-01 0.0 
-4.795018974551e-01 -7.841826090472e+01 0.0 
0.0 0.0 -3.453926151436e+01 
-3.785712684387e+01 -5.073264658128e-01 0.0 
-5.073264658128e-01 -7.838942708102e+01 0.0 
0.0 0.0 -3.447396617747e+01 
-3.770941955233e+01 -5.167355217677e-01 0.0 
-5.167355217677e-01 -7.835800455086e+01 0.0 
0.0 0.0 -3.442022723096e+01 
-3.759576302441e+01 -5.055930038867e-01 0.0 
-5.055930038867e-01 -7.832950143376e+01 0.0 
0.0 0.0 -3.437757933745e+01 
-3.751739853703e+01 -4.734669179573e-01 0.0 
-4.734669179573e-01 -7.830681260582e+01 0.0 
0.0 0.0 -3.434726334286e+01 
-3.745325823905e+01 -4.240922943261e-01 0.0 
-4.240922943261e-01 -7.830250304646e+01 0.0 
0.0 0.0 -3.432672838565e+01 
-3.739362631756e+01 -3.788083245959e-01 0.0 
-3.788083245959e-01 -7.830569080614e+01 0.0 
0.0 0.0 -3.430979513711e+01 
-3.736106190929e+01 -3.352398588999e-01 0.0 
-3.352398588999e-01 -7.829926762119e+01 0.0 
0.0 0.0 -3.429809885914e+01 
-3.733498690814e+01 -2.844569271099e-01 0.0 
-2.844569271099e-01 -7.828704177787e+01 0.0 
0.0 0.0 -3.428660860580e+01 
-3.731740874539e+01 -2.324483218401e-01 0.0 
-2.324483218401e-01 -7.828164010439e+01 0.0 
0.0 0.0 -3.427971465494e+01 
-3.730271406585e+01 -1.842974803309e-01 0.0 
-1.842974803309e-01 -7.828120256830e+01 0.0 
0.0 0.0 -3.427517499025e+01 
-3.729408833079e+01 -1.304503949263e-01 0.0 
-1.304503949263e-01 -7.830085302668e+01 0.0 
0.0 0.0 -3.427848240724e+01 
-3.726983146455e+01 -5.761114496339e-02 0.0 
-5.761114496339e-02 -7.834560195042e+01 0.0 
0.0 0.0 -3.428463002449e+01 
-3.725465433716e+01 -4.748830246221e-01 0.0 
-4.748830246221e-01 -7.837718176530e+01 0.0 
0.0 0.0 -3.428955083074e+01 
-4.567214751204e+01 -3.427882761598e-01 0.0 
-3.427882761598e-01 -9.793567231624e+01 0.0 
0.0 0.0 -4.268234594848e+01 
-4.573559302845e+01 -1.372347827062e-01 0.0 
-1.372347827062e-01 -9.786837258246e+01 0.0 
0.0 0.0 -4.268118968327e+01 
-4.577849918021e+01 -1.374888713995e-01 0.0 
-1.374888713995e-01 -9.784013855200e+01 0.0 
0.0 0.0 -4.268559131966e+01 
-4.581953623641e+01 -1.778556045470e-01 0.0 
-1.778556045470e-01 -9.784639037094e+01 0.0 
0.0 0.0 -4.269977798220e+01 
-4.589059591304e+01 -2.241665402247e-01 0.0 
-2.241665402247e-01 -9.784468784631e+01 0.0 
0.0 0.0 -4.272058512780e+01 
-4.595242125821e+01 -2.701367120243e-01 0.0 
-2.701367120243e-01 -9.785626328114e+01 0.0 
0.0 0.0 -4.274260536180e+01 
-4.604015960469e+01 -3.110086950794e-01 0.0 
-3.110086950794e-01 -9.788122149134e+01 0.0 
0.0 0.0 -4.277641432881e+01 
-4.613515821635e+01 -3.244676636180e-01 0.0 
-3.244676636180e-01 -9.788007709260e+01 0.0 
0.0 0.0 -4.280457059268e+01 
-4.626939249273e+01 -3.646216279796e-01 0.0 
-3.646216279796e-01 -9.786362334433e+01 0.0 
0.0 0.0 -4.283990475112e+01 
-4.640637296617e+01 -3.927055455644e-01 0.0 
-3.927055455644e-01 -9.791041511227e+01 0.0 
0.0 0.0 -4.289503642353e+01 
-4.658452501645e+01 -3.757426360072e-01 0.0 
-3.757426360072e-01 -9.796236256471e+01 0.0 
0.0 0.0 -4.296406627435e+01 
-4.681477385326e+01 -3.399362185248e-01 0.0 
-3.399362185248e-01 -9.800766516688e+01 0.0 
0.0 0.0 -4.304673170604e+01 
-4.707106713882e+01 -2.725122449993e-01 0.0 
-2.725122449993e-01 -9.808243724443e+01 0.0 
0.0 0.0 -4.314605131497e+01 
-4.737348824720e+01 -1.677696459191e-01 0.0 
-1.677696459191e-01 -9.811772480965e+01 0.0 
0.0 0.0 -4.324736391706e+01 
-4.782847810937e+01 -7.317539011237e-02 0.0 
-7.317539011237e-02 -9.842261086258e+01 0.0 
0.0 0.0 -4.347532669159e+01 
-4.885156970490e+01 3.547893861450e-01 0.0 
3.547893861450e-01 -9.973308382780e+01 0.0 
0.0 0.0 -4.417539605981e+01 
-4.810768846085e+01 5.566699970534e-01 0.0 
5.566699970534e-01 -9.634447630491e+01 0.0 
0.0 0.0 -4.293564942973e+01 
-5.654339590918e+01 5.303787164972e-01 0.0 
5.303787164972e-01 -1.157856167778e+02 0.0 
0.0 0.0 -5.129870380609e+01 
-5.718785178594e+01 4.263400610332e-01 0.0 
4.263400610332e-01 -1.190721287773e+02 0.0 
0.0 0.0 -5.247799416897e+01 
-5.626835515342e+01 1.290706148393e-01 0.0 
1.290706148393e-01 -1.179118690955e+02 0.0 
0.0 0.0 -5.185406727467e+01 
-5.594416864625e+01 -3.090278080349e-03 0.0 
-3.090278080349e-03 -1.177420217226e+02 0.0 
0.0 0.0 -5.170585711066e+01 
-5.562207242140e+01 -6.609610753101e-02 0.0 
-6.609610753101e-02 -1.176738509620e+02 0.0 
0.0 0.0 -5.158877701502e+01 
-5.534440190092e+01 -1.468023628966e-01 0.0 
-1.468023628966e-01 -1.176274376009e+02 0.0 
0.0 0.0 -5.149155185055e+01 
-5.509481978893e+01 -1.928601926911e-01 0.0 
-1.928601926911e-01 -1.175097474163e+02 0.0 
0.0 0.0 -5.138137016157e+01 
-5.489110629846e+01 -1.623359538331e-01 0.0 
-1.623359538331e-01 -1.174704129495e+02 0.0 
0.0 0.0 -5.130845577439e+01 
-5.481163028251e+01 -1.831608201675e-01 0.0 
-1.831608201675e-01 -1.175316790137e+02 0.0 
0.0 0.0 -5.130299278885e+01 
-5.461516777943e+01 -1.606033300527e-01 0.0 
-1.606033300527e-01 -1.174748437386e+02 0.0 
0.0 0.0 -5.122700345541e+01 
-5.449569193224e+01 -1.539557422801e-01 0.0 
-1.539557422801e-01 -1.174508322296e+02 0.0 
0.0 0.0 -5.118395724854e+01 
-5.439800305901e+01 -9.771223907210e-02 0.0 
-9.771223907210e-02 -1.174423129713e+02 0.0 
0.0 0.0 -5.115209480911e+01 
-5.428885308642e+01 -9.797402917007e-02 0.0 
-9.797402917007e-02 -1.174628226881e+02 0.0 
0.0 0.0 -5.112550273235e+01 
-5.421167814812e+01 -4.728008785445e-02 0.0 
-4.728008785445e-02 -1.174036827547e+02 0.0 
0.0 0.0 -5.108460827086e+01 
-5.417799964966e+01 7.687976640872e-02 0.0 
7.687976640872e-02 -1.175396489954e+02 0.0 
0.0 0.0 -5.111529459351e+01 
-5.408009604517e+01 -4.787344603120e-01 0.0 
-4.787344603120e-01 -1.176143988380e+02 0.0 
0.0 0.0 -5.110834846495e+01 
-1.260772558844e+01 6.954086349449e+00 0.0 
6.954086349449e+00 -9.671508834079e+00 0.0 
0.0 0.0 -6.376169373542e+00 
-1.412563167471e+01 9.698790632576e+00 0.0 
9.698790632576e+00 -1.477129734447e+01 0.0 
0.0 0.0 -8.269078705753e+00 
-1.318232422597e+01 9.419180501311e+00 0.0 
9.419180501311e+00 -1.561282601854e+01 0.0 
0.0 0.0 -8.238545073353e+00 
-1.067372161806e+01 4.042910824242e+00 0.0 
4.042910824242e+00 -1.377191097757e+01 0.0 
0.0 0.0 -6.933689778689e+00 
-1.904773941837e+01 2.957881517497e+00 0.0 
2.957881517497e+00 -3.246903144298e+01 0.0 
0.0 0.0 -1.505503125841e+01 
-2.847698310942e+01 2.126676131255e+00 0.0 
2.126676131255e+00 -5.199201409023e+01 0.0 
0.0 0.0 -2.374069915990e+01 
-3.745827148358e+01 1.609303153733e+00 0.0 
1.609303153733e+00 -7.144778983247e+01 0.0 
0.0 0.0 -3.227181839482e+01 
-4.620932184784e+01 1.184055624615e+00 0.0 
1.184055624615e+00 -9.089988884255e+01 0.0 
0.0 0.0 -4.073276320712e+01 
-5.469546239987e+01 1.009288739324e+00 0.0 
1.009288739324e+00 -1.103243062788e+02 0.0 
0.0 0.0 -4.910593060361e+01 
-6.300712055067e+01 9.509319281418e-01 0.0 
9.509319281418e-01 -1.299007019829e+02 0.0 
0.0 0.0 -5.747234676007e+01 
-1.458155473890e+01 9.791509813804e+00 0.0 
9.791509813804e+00 -2.332186056249e+01 0.0 
0.0 0.0 -1.097102459042e+01 
-1.524569593109e+02 1.014510529272e+01 0.0 
1.014510529272e+01 -3.599633082842e+02 0.0 
0.0 0.0 -1.533260802785e+02 
-1.070404156760e+01 -6.298744821368e-01 0.0 
-6.298744821368e-01 -1.680131836289e+01 0.0 
0.0 0.0 -8.238908004002e+00 
-1.375003140314e+01 -5.459870859487e-01 0.0 
-5.459870859487e-01 -1.610299890818e+01 0.0 
0.0 0.0 -8.942816823960e+00 
-1.555956109800e+02 6.847535492210e+00 0.0 
6.847535492210e+00 -3.681686037826e+02 0.0 
0.0 0.0 -1.567292644288e+02 
-2.090630282858e+01 6.680991962153e+00 0.0 
6.680991962153e+00 -3.428230733194e+01 0.0 
0.0 0.0 -1.615658304815e+01 
-8.165064238561e+01 7.091181518314e-02 0.0 
7.091181518314e-02 -2.081875358161e+02 0.0 
0.0 0.0 -8.655145346052e+01 
-1.489016408803e+02 1.161445523146e+01 0.0 
1.161445523146e+01 -3.500076921936e+02 0.0 
0.0 0.0 -1.492727999222e+02 
-3.654914546510e+01 3.513654426765e+00 0.0 
3.513654426765e+00 -6.861599225737e+01 0.0 
0.0 0.0 -3.114954131674e+01 
-1.459514210708e+02 1.166686781037e+01 0.0 
1.166686781037e+01 -3.406089811281e+02 0.0 
0.0 0.0 -1.455681206597e+02 
-5.371655199036e+01 1.951554259311e+00 0.0 
1.951554259311e+00 -1.077601320156e+02 0.0 
0.0 0.0 -4.804300520180e+01 
-1.580605519946e+02 4.242639664558e+00 0.0 
4.242639664558e+00 -3.732178048714e+02 0.0 
0.0 0.0 -1.589835070598e+02 
-8.257353253515e+00 -4.471581511489e-01 0.0 
-4.471581511489e-01 -1.617789911786e+01 0.0 
0.0 0.0 -7.340259338563e+00 
-1.427780942114e+02 9.994949666071e+00 0.0 
9.994949666071e+00 -3.315255826755e+02 0.0 
0.0 0.0 -1.418911030661e+02 
-7.016592088329e+01 1.501946075642e+00 0.0 
1.501946075642e+00 -1.469422460892e+02 0.0 
0.0 0.0 -6.473245009173e+01 
-5.022885119188e+01 -1.563851235826e-01 0.0 
-1.563851235826e-01 -1.295691442202e+02 0.0 
0.0 0.0 -5.353939862362e+01 
-1.047542553174e+02 1.515638488129e-01 0.0 
1.515638488129e-01 -2.615041260470e+02 0.0 
0.0 0.0 -1.094775144093e+02 
-1.406741615593e+02 8.199466248888e+00 0.0 
8.199466248888e+00 -3.256422405792e+02 0.0 
0.0 0.0 -1.394949206415e+02 
-1.387927470795e+02 5.565166822316e+00 0.0 
5.565166822316e+00 -3.220155196862e+02 0.0 
0.0 0.0 -1.378424800297e+02 
-1.365760777120e+02 1.678681762832e+00 0.0 
1.678681762832e+00 -3.183028827773e+02 0.0 
0.0 0.0 -1.360636881468e+02 
-1.364526283177e+02 2.656079095581e+00 0.0 
2.656079095581e+00 -3.172130373864e+02 0.0 
0.0 0.0 -1.356996997112e+02 
-1.378923459446e+02 4.139274736333e+00 0.0 
4.139274736333e+00 -3.205326572967e+02 0.0 
0.0 0.0 -1.371275009724e+02 
-7.292858685424e+01 9.656729892994e-01 0.0 
9.656729892994e-01 -1.552491030997e+02 0.0 
0.0 0.0 -6.805330698619e+01 
-7.135232403018e+01 3.277371195828e-01 0.0 
3.277371195828e-01 -1.546724667921e+02 0.0 
0.0 0.0 -6.740743724670e+01 
-7.120912518648e+01 2.430979371649e-01 0.0 
2.430979371649e-01 -1.558774622903e+02 0.0 
0.0 0.0 -6.772597624304e+01 
-9.960775163982e+01 2.587146891035e-01 0.0 
2.587146891035e-01 -2.258408503265e+02 0.0 
0.0 0.0 -9.723458058991e+01 
-1.581482835305e+02 2.559142841679e+00 0.0 
2.559142841679e+00 -3.735517181946e+02 0.0 
0.0 0.0 -1.591100005175e+02 
-1.376412431728e+01 9.105332027009e-01 0.0 
9.105332027009e-01 -1.510574957833e+01 0.0 
0.0 0.0 -8.661226042394e+00 
-7.398839512589e+00 -2.558116375903e-01 0.0 
-2.558116375903e-01 -1.718849463573e+01 0.0 
0.0 0.0 -7.365200531065e+00 
-1.329551350227e+02 3.695938343533e-01 0.0 
3.695938343533e-01 -3.224527156339e+02 0.0 
0.0 0.0 -1.362223551970e+02 
-6.960696378899e+01 -2.177983364830e-02 0.0 
-2.177983364830e-02 -1.535403093979e+02 0.0 
0.0 0.0 -6.654418195606e+01 
-2.659017596501e+01 -1.865894312083e-01 0.0 
-1.865894312083e-01 -6.881690728782e+01 0.0 
0.0 0.0 -2.822212497585e+01 
-1.383488287296e+02 6.733240248306e+00 0.0 
6.733240248306e+00 -3.202802269652e+02 0.0 
0.0 0.0 -1.371887167084e+02 
-1.479774678412e+02 1.189737567311e+01 0.0 
1.189737567311e+01 -3.466206703265e+02 0.0 
0.0 0.0 -1.479794414503e+02 
-1.442477730890e+02 1.098593708474e+01 0.0 
1.098593708474e+01 -3.357295916662e+02 0.0 
0.0 0.0 -1.435932094266e+02 
-1.500136307839e+02 1.103003235078e+01 0.0 
1.103003235078e+01 -3.538229028413e+02 0.0 
0.0 0.0 -1.507509600876e+02 
-1.541210590635e+02 8.980279552485e+00 0.0 
8.980279552485e+00 -3.643310473830e+02 0.0 
0.0 0.0 -1.551356319340e+02 
-1.279521184225e+01 -7.941238586354e-01 0.0 
-7.941238586354e-01 -1.718324854507e+01 0.0 
0.0 0.0 -8.982739740414e+00 
-7.178671988083e+01 5.477327239878e-01 0.0 
5.477327239878e-01 -1.542206379038e+02 0.0 
0.0 0.0 -6.740220733540e+01 
-1.550613475312e+02 5.450937585246e+00 0.0 
5.450937585246e+00 -3.674832207975e+02 0.0 
0.0 0.0 -1.563633704986e+02 
-1.152544678097e+02 3.020795505837e-01 0.0 
3.020795505837e-01 -2.645761686924e+02 0.0 
0.0 0.0 -1.135491909506e+02 
-9.592677013676e+00 -5.603405509996e-01 0.0 
-5.603405509996e-01 -1.706974086793e+01 0.0 
0.0 0.0 -7.999594163989e+00 
-6.534456598391e+01 -3.522905626554e-02 0.0 
-3.522905626554e-02 -1.679639487257e+02 0.0 
0.0 0.0 -6.959255441289e+01 
-1.375189748776e+02 1.038102388090e+00 0.0 
1.038102388090e+00 -3.209628294442e+02 0.0 
0.0 0.0 -1.371445412965e+02 
-2.926049002114e+01 5.093935042483e+00 0.0 
5.093935042483e+00 -5.244554374675e+01 0.0 
0.0 0.0 -2.411181013037e+01 
-1.600098064430e+01 1.026484307072e+01 0.0 
1.026484307072e+01 -2.547603804384e+01 0.0 
0.0 0.0 -1.204310560644e+01 
-4.519228573593e+01 2.582048067576e+00 0.0 
2.582048067576e+00 -8.811830573087e+01 0.0 
0.0 0.0 -3.959317744004e+01 
-6.196144165116e+01 1.711067647167e+00 0.0 
1.711067647167e+00 -1.270906180360e+02 0.0 
0.0 0.0 -5.631561790614e+01 
-1.308893011358e+01 6.966471858648e+00 0.0 
6.966471858648e+00 -1.729870919905e+01 0.0 
0.0 0.0 -8.765559827472e+00 
-8.422054621353e+01 9.587414687196e-02 0.0 
9.587414687196e-02 -1.884970459016e+02 0.0 
0.0 0.0 -8.141527763454e+01 
-1.599388541512e+02 1.444450761158e+00 0.0 
1.444450761158e+00 -3.772173472702e+02 0.0 
0.0 0.0 -1.607468604264e+02 
-6.828413572426e+00 -1.850127968588e-01 0.0 
-1.850127968588e-01 -1.635313585401e+01 0.0 
0.0 0.0 -6.910330569410e+00 
-1.306507379394e+02 2.511037198662e-01 0.0 
2.511037198662e-01 -3.030632322690e+02 0.0 
0.0 0.0 -1.297141910625e+02 
-7.407707260035e+01 1.531874211106e+00 0.0 
1.531874211106e+00 -1.560902599507e+02 0.0 
0.0 0.0 -6.865019976532e+01 
-7.789839770288e+01 2.108486296107e+00 0.0 
2.108486296107e+00 -1.645973535499e+02 0.0 
0.0 0.0 -7.234872537583e+01 
-8.148701388284e+01 1.936746420311e+00 0.0 
1.936746420311e+00 -1.736477715368e+02 0.0 
0.0 0.0 -7.614043562590e+01 
-8.587415810743e+01 2.764749362025e+00 0.0 
2.764749362025e+00 -1.836561002025e+02 0.0 
0.0 0.0 -8.045907749299e+01 
-8.982866221302e+01 2.670640580968e+00 0.0 
2.670640580968e+00 -1.935997410667e+02 0.0 
0.0 0.0 -8.462852098391e+01 
-9.375628850851e+01 3.357374224218e+00 0.0 
3.357374224218e+00 -2.026935716523e+02 0.0 
0.0 0.0 -8.853495804825e+01 
-8.995296675075e+01 3.471758053025e+00 0.0 
3.471758053025e+00 -1.928631783538e+02 0.0 
0.0 0.0 -8.444484353137e+01 
-9.777184276199e+01 4.086748639177e+00 0.0 
4.086748639177e+00 -2.120248234651e+02 0.0 
0.0 0.0 -9.253899986813e+01 
-9.390634189543e+01 4.233475547595e+00 0.0 
4.233475547595e+00 -2.021631831562e+02 0.0 
0.0 0.0 -8.842085751548e+01 
-9.782242518299e+01 3.294495121742e+00 0.0 
3.294495121742e+00 -2.129070334680e+02 0.0 
0.0 0.0 -9.281883759529e+01 
-1.016830443140e+02 4.854000383225e+00 0.0 
4.854000383225e+00 -2.214901751109e+02 0.0 
0.0 0.0 -9.655196582747e+01 
-9.781694609253e+01 5.041074350643e+00 0.0 
5.041074350643e+00 -2.116806001471e+02 0.0 
0.0 0.0 -9.244926387188e+01 
-1.055236835293e+02 5.629181801262e+00 0.0 
5.629181801262e+00 -2.311104132303e+02 0.0 
0.0 0.0 -1.005902290279e+02 
-1.016593978902e+02 5.865301586222e+00 0.0 
5.865301586222e+00 -2.214300990545e+02 0.0 
0.0 0.0 -9.652684908342e+01 
-9.394814948319e+01 5.300377890387e+00 0.0 
5.300377890387e+00 -2.020777905768e+02 0.0 
0.0 0.0 -8.840778201800e+01 
-9.776631989956e+01 6.155912345642e+00 0.0 
6.155912345642e+00 -2.119555643255e+02 0.0 
0.0 0.0 -9.251656526753e+01 
-9.003707509070e+01 5.631260376942e+00 0.0 
5.631260376942e+00 -1.925856057060e+02 0.0 
0.0 0.0 -8.438680423900e+01 
-9.382911914696e+01 6.530162759550e+00 0.0 
6.530162759550e+00 -2.026459224682e+02 0.0 
0.0 0.0 -8.854251248454e+01 
-1.015100805522e+02 6.978961440209e+00 0.0 
6.978961440209e+00 -2.220687070745e+02 0.0 
0.0 0.0 -9.667363628801e+01 
-9.753077701450e+01 7.377541432162e+00 0.0 
7.377541432162e+00 -2.129413330409e+02 0.0 
0.0 0.0 -9.274163301663e+01 
-8.979129227671e+01 6.988783191758e+00 0.0 
6.988783191758e+00 -1.934693452572e+02 0.0 
0.0 0.0 -8.457819126018e+01 
-9.343629172303e+01 7.837265799487e+00 0.0 
7.837265799487e+00 -2.039709276646e+02 0.0 
0.0 0.0 -8.882216581630e+01 
-8.567623168204e+01 7.527331901435e+00 0.0 
7.527331901435e+00 -1.845002777809e+02 0.0 
0.0 0.0 -8.065295283889e+01 
-8.925842422841e+01 8.360769535066e+00 0.0 
8.360769535066e+00 -1.952557444160e+02 0.0 
0.0 0.0 -8.495425059332e+01 
-8.144806276235e+01 8.153579454954e+00 0.0 
8.153579454954e+00 -1.757296903277e+02 0.0 
0.0 0.0 -7.675332592702e+01 
-8.496099896366e+01 8.939020432063e+00 0.0 
8.939020432063e+00 -1.867908997546e+02 0.0 
0.0 0.0 -8.112556961547e+01 
-9.276093270791e+01 9.032221970695e+00 0.0 
9.032221970695e+00 -2.062114818787e+02 0.0 
0.0 0.0 -8.929172437599e+01 
-8.837209199464e+01 9.516950981484e+00 0.0 
9.516950981484e+00 -1.979757057079e+02 0.0 
0.0 0.0 -8.550433931078e+01 
-8.053409982301e+01 9.539433346522e+00 0.0 
9.539433346522e+00 -1.786202619082e+02 0.0 
0.0 0.0 -7.734630851935e+01 
-8.386282585910e+01 9.983363285220e+00 0.0 
9.983363285220e+00 -1.900332113723e+02 0.0 
0.0 0.0 -8.176881116943e+01 
-7.598086976187e+01 1.011862436285e+01 0.0 
1.011862436285e+01 -1.707949542161e+02 0.0 
0.0 0.0 -7.363274719339e+01 
-7.923329138194e+01 1.037336335961e+01 0.0 
1.037336335961e+01 -1.823722609118e+02 0.0 
0.0 0.0 -7.808166568812e+01 
-8.717703982076e+01 1.019206094311e+01 0.0 
1.019206094311e+01 -2.014220137353e+02 0.0 
0.0 0.0 -8.617971606683e+01 
-8.251774493496e+01 1.038363622738e+01 0.0 
1.038363622738e+01 -1.938675358563e+02 0.0 
0.0 0.0 -8.251558423737e+01 
-7.448159777473e+01 1.062423850009e+01 0.0 
1.062423850009e+01 -1.749457916384e+02 0.0 
0.0 0.0 -7.442821682393e+01 
-7.778611521334e+01 1.039983470331e+01 0.0 
1.039983470331e+01 -1.865139812713e+02 0.0 
0.0 0.0 -7.889002894541e+01 
-6.967316281707e+01 1.066074782660e+01 0.0 
1.066074782660e+01 -1.677620901321e+02 0.0 
0.0 0.0 -7.083057588475e+01 
-7.305724389485e+01 1.018448631640e+01 0.0 
1.018448631640e+01 -1.793408359777e+02 0.0 
0.0 0.0 -7.531942396176e+01 
-6.488662417815e+01 1.040026744293e+01 0.0 
1.040026744293e+01 -1.607715319923e+02 0.0 
0.0 0.0 -6.729744685114e+01 
-6.835614645598e+01 9.697860839459e+00 0.0 
9.697860839459e+00 -1.721736383964e+02 0.0 
0.0 0.0 -7.175893545572e+01 
-7.654101809557e+01 9.597785003304e+00 0.0 
9.597785003304e+00 -1.905402769811e+02 0.0 
0.0 0.0 -7.972438852299e+01 
-7.194236735427e+01 8.958329686732e+00 0.0 
8.958329686732e+00 -1.831851336850e+02 0.0 
0.0 0.0 -7.613825031179e+01 
-6.378199909181e+01 8.939258930870e+00 0.0 
8.939258930870e+00 -1.649629865556e+02 0.0 
0.0 0.0 -6.822349569422e+01 
-6.746120560529e+01 8.085617841109e+00 0.0 
8.085617841109e+00 -1.756500973875e+02 0.0 
0.0 0.0 -7.253339089784e+01 
-7.564525107598e+01 8.214291625893e+00 0.0 
8.214291625893e+00 -1.938663292430e+02 0.0 
0.0 0.0 -8.045347409570e+01 
-7.123109405930e+01 7.285090640553e+00 0.0 
7.285090640553e+00 -1.859965726454e+02 0.0 
0.0 0.0 -7.676830001142e+01 
-7.944403281522e+01 7.506509540532e+00 0.0 
7.506509540532e+00 -2.042435443334e+02 0.0 
0.0 0.0 -8.470627314458e+01 
-7.508312233937e+01 6.555221415149e+00 0.0 
6.555221415149e+00 -1.960714271660e+02 0.0 
0.0 0.0 -8.094636485162e+01 
-6.703012613553e+01 6.219880366286e+00 0.0 
6.219880366286e+00 -1.779648845543e+02 0.0 
0.0 0.0 -7.309850320695e+01 
-7.090697916565e+01 5.511109902406e+00 0.0 
5.511109902406e+00 -1.877029416285e+02 0.0 
0.0 0.0 -7.718297623823e+01 
-7.899679862588e+01 5.904257858996e+00 0.0 
5.904257858996e+00 -2.058950171336e+02 0.0 
0.0 0.0 -8.506754472783e+01 
-7.481571039687e+01 4.900243932398e+00 0.0 
4.900243932398e+00 -1.971971501324e+02 0.0 
0.0 0.0 -8.120385815879e+01 
-6.691441575420e+01 4.425080907281e+00 0.0 
4.425080907281e+00 -1.790770167798e+02 0.0 
0.0 0.0 -7.339742976021e+01 
-7.081825896661e+01 3.881133313836e+00 0.0 
3.881133313836e+00 -1.883077488695e+02 0.0 
0.0 0.0 -7.733780235083e+01 
-7.878077817108e+01 4.380613584408e+00 0.0 
4.380613584408e+00 -2.065629273461e+02 0.0 
0.0 0.0 -8.520311165515e+01 
-7.475364373728e+01 3.432092203864e+00 0.0 
3.432092203864e+00 -1.974109204275e+02 0.0 
0.0 0.0 -8.124936924944e+01 
-6.696937656159e+01 2.888814809288e+00 0.0 
2.888814809288e+00 -1.791615119050e+02 0.0 
0.0 0.0 -7.343926653997e+01 
-7.085486543512e+01 2.527942278076e+00 0.0 
2.527942278076e+00 -1.880507708242e+02 0.0 
0.0 0.0 -7.727169087779e+01 
-7.876016789818e+01 3.070326906519e+00 0.0 
3.070326906519e+00 -2.065210584855e+02 0.0 
0.0 0.0 -8.518436791510e+01 
-7.476582247898e+01 2.248079503326e+00 0.0 
2.248079503326e+00 -1.968824454460e+02 0.0 
0.0 0.0 -8.109448037749e+01 
-6.703458226037e+01 1.694184808177e+00 0.0 
1.694184808177e+00 -1.783996985652e+02 0.0 
0.0 0.0 -7.323028424766e+01 
-7.085212343118e+01 1.493506529384e+00 0.0 
1.493506529384e+00 -1.870254076207e+02 0.0 
0.0 0.0 -7.696325931557e+01 
-7.872983201318e+01 2.029167572601e+00 0.0 
2.029167572601e+00 -2.057479705369e+02 0.0 
0.0 0.0 -8.494334076503e+01 
-7.469946427304e+01 1.349236791574e+00 0.0 
1.349236791574e+00 -1.956554069130e+02 0.0 
0.0 0.0 -8.070646135581e+01 
-8.271327529913e+01 1.860245235045e+00 0.0 
1.860245235045e+00 -2.145739423970e+02 0.0 
0.0 0.0 -8.878616530884e+01 
-6.692736381584e+01 8.294505129855e-01 0.0 
8.294505129855e-01 -1.767979898563e+02 0.0 
0.0 0.0 -7.271760610165e+01 
-7.068521505063e+01 7.625459022916e-01 0.0 
7.625459022916e-01 -1.853197897469e+02 0.0 
0.0 0.0 -7.640150143927e+01 
-6.299486464725e+01 2.731489585164e-01 0.0 
2.731489585164e-01 -1.662813041135e+02 0.0 
0.0 0.0 -6.838285062821e+01 
-6.669284628967e+01 2.799651607735e-01 0.0 
2.799651607735e-01 -1.748009481436e+02 0.0 
0.0 0.0 -7.204813832997e+01 
-9.053132417187e+01 1.020209640241e+01 0.0 
1.020209640241e+01 -2.127309111467e+02 0.0 
0.0 0.0 -9.057867059557e+01 
-5.908002242402e+01 -1.571333265951e-01 0.0 
-1.571333265951e-01 -1.556167197047e+02 0.0 
0.0 0.0 -6.400902263861e+01 
-5.558276520273e+01 -1.915217220693e-01 0.0 
-1.915217220693e-01 -1.473783719127e+02 0.0 
0.0 0.0 -6.048834113462e+01 
-6.270566882808e+01 -9.083840846265e-02 0.0 
-9.083840846265e-02 -1.641459228935e+02 0.0 
0.0 0.0 -6.765547751646e+01 
-7.045724892711e+01 3.049648946597e-01 0.0 
3.049648946597e-01 -1.834620503965e+02 0.0 
0.0 0.0 -7.577578979708e+01 
-5.513670524547e+01 -4.655485525702e-01 0.0 
-4.655485525702e-01 -1.448135010423e+02 0.0 
0.0 0.0 -5.958506188634e+01 
-5.870125635568e+01 -3.620732527620e-01 0.0 
-3.620732527620e-01 -1.533672287165e+02 0.0 
0.0 0.0 -6.322054552165e+01 
-5.116404207870e+01 -6.763124718793e-01 0.0 
-6.763124718793e-01 -1.339271610731e+02 0.0 
0.0 0.0 -5.512736094555e+01 
-6.137398179227e+01 1.096324123675e+01 0.0 
1.096324123675e+01 -1.486253130673e+02 0.0 
0.0 0.0 -6.259978845786e+01 
-1.051936662577e+02 7.757425271325e+00 0.0 
7.757425271325e+00 -2.324030008287e+02 0.0 
0.0 0.0 -1.008790001259e+02 
-5.466568195681e+01 -5.464263528928e-01 0.0 
-5.464263528928e-01 -1.425018218780e+02 0.0 
0.0 0.0 -5.875025115045e+01 
-4.713393163959e+01 -7.702936217128e-01 0.0 
-7.702936217128e-01 -1.229637222209e+02 0.0 
0.0 0.0 -5.062929615816e+01 
-4.375984972424e+01 -9.229036957439e-01 0.0 
-9.229036957439e-01 -1.144160380632e+02 0.0 
0.0 0.0 -4.705276633625e+01 
-3.976310750348e+01 -9.470288842361e-01 0.0 
-9.470288842361e-01 -1.033960463824e+02 0.0 
0.0 0.0 -4.254774616577e+01 
-9.393275577766e+01 2.726583654958e+00 0.0 
2.726583654958e+00 -2.038300154512e+02 0.0 
0.0 0.0 -8.892883136866e+01 
-1.016734863447e+02 3.189023258978e+00 0.0 
3.189023258978e+00 -2.231868543730e+02 0.0 
0.0 0.0 -9.705810221531e+01 
-9.752114374346e+01 2.617676111786e+00 0.0 
2.617676111786e+00 -2.135262882952e+02 0.0 
0.0 0.0 -9.291422961161e+01 
-1.054885967675e+02 3.147031093081e+00 0.0 
3.147031093081e+00 -2.334665417553e+02 0.0 
0.0 0.0 -1.012865415568e+02 
-1.015438021155e+02 2.601140698452e+00 0.0 
2.601140698452e+00 -2.242189438463e+02 0.0 
0.0 0.0 -9.732882378853e+01 
-4.307036317529e+01 -7.610434094635e-01 0.0 
-7.610434094635e-01 -1.119146708263e+02 0.0 
0.0 0.0 -4.609551020047e+01 
-1.094257479184e+02 5.437312899355e+00 0.0 
5.437312899355e+00 -2.411148309694e+02 0.0 
0.0 0.0 -1.047621736663e+02 
-1.094174172639e+02 3.742319165171e+00 0.0 
3.742319165171e+00 -2.427720322078e+02 0.0 
0.0 0.0 -1.052568348415e+02 
-8.198499014458e+01 6.563780823580e+00 0.0 
6.563780823580e+00 -1.740177002080e+02 0.0 
0.0 0.0 -7.640080710577e+01 
-7.267503517274e+01 9.573179263142e+00 0.0 
9.573179263142e+00 -1.591751557856e+02 0.0 
0.0 0.0 -6.915505728749e+01 
-8.395556694723e+01 8.328144586167e+00 0.0 
8.328144586167e+00 -2.122494209673e+02 0.0 
0.0 0.0 -8.846149637437e+01 
-6.230473956949e+01 -2.473583711870e-01 0.0 
-2.473583711870e-01 -1.619585472911e+02 0.0 
0.0 0.0 -6.687898605817e+01 
-5.821477980404e+01 -4.204881698743e-01 0.0 
-4.204881698743e-01 -1.511244308268e+02 0.0 
0.0 0.0 -6.240176318925e+01 
-6.589737842419e+01 -1.246097162722e-01 0.0 
-1.246097162722e-01 -1.706025586677e+02 0.0 
0.0 0.0 -7.054998112756e+01 
-8.687743216561e+01 2.553437113976e+00 0.0 
2.553437113976e+00 -2.246051108152e+02 0.0 
0.0 0.0 -9.304476289424e+01 
-9.095530384114e+01 2.358511252282e+00 0.0 
2.358511252282e+00 -2.335342799745e+02 0.0 
0.0 0.0 -9.694687514470e+01 
-9.525416641042e+01 3.057295724987e+00 0.0 
3.057295724987e+00 -2.435200986616e+02 0.0 
0.0 0.0 -1.012322795216e+02 
-9.941096329475e+01 2.840242310194e+00 0.0 
2.840242310194e+00 -2.525093916321e+02 0.0 
0.0 0.0 -1.051761064780e+02 
-1.038426824331e+02 3.542938977281e+00 0.0 
3.542938977281e+00 -2.624643323138e+02 0.0 
0.0 0.0 -1.094921044241e+02 
-1.080724362572e+02 3.302443551936e+00 0.0 
3.302443551936e+00 -2.714945957452e+02 0.0 
0.0 0.0 -1.134701096007e+02 
-1.035728707747e+02 2.647050279744e+00 0.0 
2.647050279744e+00 -2.614143764333e+02 0.0 
0.0 0.0 -1.090961741624e+02 
-1.123090614116e+02 3.083036263180e+00 0.0 
3.083036263180e+00 -2.804337943584e+02 0.0 
0.0 0.0 -1.174228567310e+02 
-1.077389616371e+02 2.466065882867e+00 0.0 
2.466065882867e+00 -2.702465237518e+02 0.0 
0.0 0.0 -1.129956456167e+02 
-1.126308837592e+02 4.008198972282e+00 0.0 
4.008198972282e+00 -2.814221192525e+02 0.0 
0.0 0.0 -1.178159009035e+02 
-1.083174319698e+02 4.290677301585e+00 0.0 
4.290677301585e+00 -2.722205315175e+02 0.0 
0.0 0.0 -1.137613890462e+02 
-1.165510452436e+02 2.869912320496e+00 0.0 
2.869912320496e+00 -2.892840735171e+02 0.0 
0.0 0.0 -1.213505356282e+02 
-1.119071657676e+02 2.281881195745e+00 0.0 
2.281881195745e+00 -2.790073676258e+02 0.0 
0.0 0.0 -1.168743600180e+02 
-1.208037414574e+02 2.646684949940e+00 0.0 
2.646684949940e+00 -2.980596533419e+02 0.0 
0.0 0.0 -1.252590184398e+02 
-1.160786515701e+02 2.089122982351e+00 0.0 
2.089122982351e+00 -2.877037180340e+02 0.0 
0.0 0.0 -1.207347108812e+02 
-1.072841620629e+02 1.753108506508e+00 0.0 
1.753108506508e+00 -2.685782590644e+02 0.0 
0.0 0.0 -1.123587263382e+02 
-1.113646566406e+02 1.588420556721e+00 0.0 
1.588420556721e+00 -2.771980495184e+02 0.0 
0.0 0.0 -1.161688118477e+02 
-1.027106072298e+02 1.298291560252e+00 0.0 
1.298291560252e+00 -2.580952256093e+02 0.0 
0.0 0.0 -1.078417498517e+02 
-8.779397234086e+01 7.710413528435e+00 0.0 
7.710413528435e+00 -2.226460257378e+02 0.0 
0.0 0.0 -9.273199942360e+01 
-9.237282918680e+01 8.445899434107e+00 0.0 
8.445899434107e+00 -2.307969119310e+02 0.0 
0.0 0.0 -9.655092233533e+01 
-9.626298870395e+01 7.912358509064e+00 0.0 
7.912358509064e+00 -2.411922608563e+02 0.0 
0.0 0.0 -1.008365748681e+02 
-1.008823916293e+02 8.588736241481e+00 0.0 
8.588736241481e+00 -2.494768855391e+02 0.0 
0.0 0.0 -1.047077831505e+02 
-1.048482674266e+02 8.139263007772e+00 0.0 
8.139263007772e+00 -2.598670972974e+02 0.0 
0.0 0.0 -1.090146094172e+02 
-1.094761123138e+02 8.778133466592e+00 0.0 
8.778133466592e+00 -2.682580981344e+02 0.0 
0.0 0.0 -1.129202631345e+02 
-1.135243630515e+02 8.406472697219e+00 0.0 
8.406472697219e+00 -2.786043195551e+02 0.0 
0.0 0.0 -1.172386047820e+02 
-1.089164844176e+02 7.706498937739e+00 0.0 
7.706498937739e+00 -2.700494220305e+02 0.0 
0.0 0.0 -1.132897719344e+02 
-1.092571304869e+02 6.407374040901e+00 0.0 
6.407374040901e+00 -2.408599845978e+02 0.0 
0.0 0.0 -1.046351345254e+02 
-5.941527731544e+01 7.906351465673e+00 0.0 
7.906351465673e+00 -1.576021532605e+02 0.0 
0.0 0.0 -6.470522917278e+01 
-5.572966373489e+01 8.869901677101e+00 0.0 
8.869901677101e+00 -1.468908654903e+02 0.0 
0.0 0.0 -6.038615876755e+01 
-5.154965326763e+01 7.636774254092e+00 0.0 
7.636774254092e+00 -1.397366638025e+02 0.0 
0.0 0.0 -5.698589512103e+01 
-4.785250817298e+01 8.703132448051e+00 0.0 
8.703132448051e+00 -1.290320992983e+02 0.0 
0.0 0.0 -5.266538224137e+01 
-4.393774874054e+01 7.235037648661e+00 0.0 
7.235037648661e+00 -1.220539823880e+02 0.0 
0.0 0.0 -4.939751933855e+01 
-4.024065227347e+01 8.386864109138e+00 0.0 
8.386864109138e+00 -1.113931848823e+02 0.0 
0.0 0.0 -4.509015114672e+01 
-3.668264797718e+01 6.668115990119e+00 0.0 
6.668115990119e+00 -1.044877530950e+02 0.0 
0.0 0.0 -4.195112032165e+01 
-4.041728696361e+01 5.583787266503e+00 0.0 
5.583787266503e+00 -1.145854991808e+02 0.0 
0.0 0.0 -4.610083584333e+01 
-3.358216827537e+01 4.830381615652e+00 0.0 
4.830381615652e+00 -9.694806051692e+01 0.0 
0.0 0.0 -3.875906863769e+01 
-3.727034359726e+01 3.899691437508e+00 0.0 
3.899691437508e+00 -1.065235943796e+02 0.0 
0.0 0.0 -4.273818139305e+01 
-3.084558385646e+01 3.048220712542e+00 0.0 
3.048220712542e+00 -8.870034291204e+01 0.0 
0.0 0.0 -3.546377803055e+01 
-3.437887735688e+01 2.318704600687e+00 0.0 
2.318704600687e+00 -9.777920403801e+01 0.0 
0.0 0.0 -3.924742441847e+01 
-9.620198874919e+01 9.530159154415e+00 0.0 
9.530159154415e+00 -2.172718721099e+02 0.0 
0.0 0.0 -9.364215825773e+01 
-1.055318245652e+02 9.149165539238e+00 0.0 
9.149165539238e+00 -2.576714569509e+02 0.0 
0.0 0.0 -1.085609844548e+02 
-1.141291440755e+02 9.312674694458e+00 0.0 
9.312674694458e+00 -2.765966031717e+02 0.0 
0.0 0.0 -1.168177241742e+02 
-1.101525015428e+02 9.591882955524e+00 0.0 
9.591882955524e+00 -2.657429827409e+02 0.0 
0.0 0.0 -1.123686452851e+02 
-3.647747893274e+01 -1.082299366789e+00 0.0 
-1.082299366789e+00 -9.487458508682e+01 0.0 
0.0 0.0 -3.900561920587e+01 
-1.202553146263e+02 1.877682752978e+00 0.0 
1.877682752978e+00 -2.963514263012e+02 0.0 
0.0 0.0 -1.245820222783e+02 
-1.172394928549e+02 4.760899477573e+00 0.0 
4.760899477573e+00 -2.911824039428e+02 0.0 
0.0 0.0 -1.221265690393e+02 
-1.128288729469e+02 5.066506485145e+00 0.0 
5.066506485145e+00 -2.817494489377e+02 0.0 
0.0 0.0 -1.179734965654e+02 
-1.177066148619e+02 8.034455455691e+00 0.0 
8.034455455691e+00 -2.888155628360e+02 0.0 
0.0 0.0 -1.215566533094e+02 
-3.574879814694e+01 -8.824021653511e-01 0.0 
-8.824021653511e-01 -9.247728791318e+01 0.0 
0.0 0.0 -3.806782581804e+01 
-3.306939054414e+01 7.891515893039e+00 0.0 
7.891515893039e+00 -9.397479050963e+01 0.0 
0.0 0.0 -3.771325431613e+01 
-3.661337540364e+01 9.594816817949e+00 0.0 
9.594816817949e+00 -1.000645016538e+02 0.0 
0.0 0.0 -4.060336311723e+01 
-1.093315229682e+02 3.099831973609e+00 0.0 
3.099831973609e+00 -2.438394842901e+02 0.0 
0.0 0.0 -1.055513021775e+02 
-1.054364507995e+02 2.569929228155e+00 0.0 
2.569929228155e+00 -2.346234657586e+02 0.0 
0.0 0.0 -1.016179749674e+02 
-1.219118568339e+02 5.535607293874e+00 0.0 
5.535607293874e+00 -3.007936300153e+02 0.0 
0.0 0.0 -1.264116460548e+02 
-3.902647149965e+01 -7.218672349889e-01 0.0 
-7.218672349889e-01 -1.009767190644e+02 0.0 
0.0 0.0 -4.160095716921e+01 
-1.212386600160e+02 3.507806923731e+00 0.0 
3.507806923731e+00 -2.994372137379e+02 0.0 
0.0 0.0 -1.258027621262e+02 
-2.741351478242e+01 3.925799349417e+00 0.0 
3.925799349417e+00 -7.938476138705e+01 0.0 
0.0 0.0 -3.163948285084e+01 
-1.154559802279e+02 1.397910452210e+00 0.0 
1.397910452210e+00 -2.857840797199e+02 0.0 
0.0 0.0 -1.199720179843e+02 
-1.244105182336e+02 1.640620113641e+00 0.0 
1.640620113641e+00 -3.049359247005e+02 0.0 
0.0 0.0 -1.284039328802e+02 
-9.913695891495e+01 2.050060052321e+00 0.0 
2.050060052321e+00 -2.512150229189e+02 0.0 
0.0 0.0 -1.047055945502e+02 
-1.187662015980e+02 9.758919085603e+00 0.0 
9.758919085603e+00 -2.848938684501e+02 0.0 
0.0 0.0 -1.206980210144e+02 
-1.147236498106e+02 9.925722625435e+00 0.0 
9.925722625435e+00 -2.737713439824e+02 0.0 
0.0 0.0 -1.161484981379e+02 
-4.102620897058e+01 3.150995677354e+00 0.0 
3.150995677354e+00 -1.158994690465e+02 0.0 
0.0 0.0 -4.667770340514e+01 
-3.795723648676e+01 1.813632384744e+00 0.0 
1.813632384744e+00 -1.068000277069e+02 0.0 
0.0 0.0 -4.302717925811e+01 
-3.172871686681e+01 1.022237885692e+00 0.0 
1.022237885692e+00 -8.880710320640e+01 0.0 
0.0 0.0 -3.576074602196e+01 
-3.539706935050e+01 6.505219676353e-01 0.0 
6.505219676353e-01 -9.793732855178e+01 0.0 
0.0 0.0 -3.960031937068e+01 
-4.163514124595e+01 1.351471580937e+00 0.0 
1.351471580937e+00 -1.158845889737e+02 0.0 
0.0 0.0 -4.685591906589e+01 
-3.855480582825e+01 2.954855881160e-01 0.0 
2.954855881160e-01 -1.060010713638e+02 0.0 
0.0 0.0 -4.296676315763e+01 
-3.234959716516e+01 -3.779780287208e-01 0.0 
-3.779780287208e-01 -8.761201491375e+01 0.0 
0.0 0.0 -3.558848362367e+01 
-3.543511568992e+01 -4.705236653004e-01 0.0 
-4.705236653004e-01 -9.575607559178e+01 0.0 
0.0 0.0 -3.895735738451e+01 
-4.196137063691e+01 1.017212345542e-01 0.0 
1.017212345542e-01 -1.144897403731e+02 0.0 
0.0 0.0 -4.653533330300e+01 
-3.865064350388e+01 -5.596656287440e-01 0.0 
-5.596656287440e-01 -1.040920401590e+02 0.0 
0.0 0.0 -4.242280509885e+01 
-3.224229282624e+01 -9.884350979306e-01 0.0 
-9.884350979306e-01 -8.506367555902e+01 0.0 
0.0 0.0 -3.479179051558e+01 
-3.521123809786e+01 -9.870132536622e-01 0.0 
-9.870132536622e-01 -9.333108822961e+01 0.0 
0.0 0.0 -3.816269789824e+01 
-1.292941056192e+02 2.144687742692e+00 0.0 
2.144687742692e+00 -3.154099285834e+02 0.0 
0.0 0.0 -1.330112102608e+02 
-2.519688916409e+01 2.135442779014e+00 0.0 
2.135442779014e+00 -7.087854985171e+01 0.0 
0.0 0.0 -2.842263170474e+01 
-8.613213813083e+01 4.720338612698e+00 0.0 
4.720338612698e+00 -1.827921921586e+02 0.0 
0.0 0.0 -8.027729908682e+01 
-1.263441436975e+02 5.217121700049e+00 0.0 
5.217121700049e+00 -3.101253671235e+02 0.0 
0.0 0.0 -1.305408532463e+02 
-1.222324290461e+02 8.715845499142e+00 0.0 
8.715845499142e+00 -2.972199413214e+02 0.0 
0.0 0.0 -1.254357111102e+02 
-1.132035071642e+02 3.028832052183e+00 0.0 
3.028832052183e+00 -2.543128479657e+02 0.0 
0.0 0.0 -1.098549065390e+02 
-1.093509401139e+02 2.518828781706e+00 0.0 
2.518828781706e+00 -2.451535641450e+02 0.0 
0.0 0.0 -1.059513512777e+02 
-1.014607080087e+02 2.054000508861e+00 0.0 
2.054000508861e+00 -2.254168237632e+02 0.0 
0.0 0.0 -9.766325953158e+01 
-1.054549864573e+02 2.039474972212e+00 0.0 
2.039474972212e+00 -2.360835638819e+02 0.0 
0.0 0.0 -1.020615651018e+02 
-1.132863802792e+02 2.462354358817e+00 0.0 
2.462354358817e+00 -2.558243122333e+02 0.0 
0.0 0.0 -1.103332077537e+02 
-1.094570920061e+02 2.004891976597e+00 0.0 
2.004891976597e+00 -2.467706859928e+02 0.0 
0.0 0.0 -1.064683333997e+02 
-1.015314391799e+02 1.629143283646e+00 0.0 
1.629143283646e+00 -2.270414430277e+02 0.0 
0.0 0.0 -9.817186466228e+01 
-1.056166868752e+02 1.604779367531e+00 0.0 
1.604779367531e+00 -2.377229198184e+02 0.0 
0.0 0.0 -1.026018820081e+02 
-9.762754992374e+01 1.272138188608e+00 0.0 
1.272138188608e+00 -2.179979007132e+02 0.0 
0.0 0.0 -9.428763519109e+01 
-1.017677817756e+02 1.253773125160e+00 0.0 
1.253773125160e+00 -2.287112477047e+02 0.0 
0.0 0.0 -9.874370884410e+01 
-1.097180903715e+02 1.558043309297e+00 0.0 
1.558043309297e+00 -2.484436340477e+02 0.0 
0.0 0.0 -1.070485173258e+02 
-1.059264248372e+02 1.234059248295e+00 0.0 
1.234059248295e+00 -2.394849857646e+02 0.0 
0.0 0.0 -1.032234231805e+02 
-9.789808513230e+01 9.484967930902e-01 0.0 
9.484967930902e-01 -2.197744500369e+02 0.0 
0.0 0.0 -9.490176055077e+01 
-1.021183161455e+02 9.563813761556e-01 0.0 
9.563813761556e-01 -2.305385708656e+02 0.0 
0.0 0.0 -9.939706610334e+01 
-9.401897771582e+01 7.111707600860e-01 0.0 
7.111707600860e-01 -2.108211950439e+02 0.0 
0.0 0.0 -9.105205182790e+01 
-9.831302781495e+01 7.365997200952e-01 0.0 
7.365997200952e-01 -2.215163993236e+02 0.0 
0.0 0.0 -9.554882814156e+01 
-1.063656721776e+02 8.967657795704e-01 0.0 
8.967657795704e-01 -2.413431396268e+02 0.0 
0.0 0.0 -1.039126435413e+02 
-3.199007287594e+01 -7.791100131915e-01 0.0 
-7.791100131915e-01 -8.205154291663e+01 0.0 
0.0 0.0 -3.381248473777e+01 
-1.130849498306e+02 7.295783681774e+00 0.0 
7.295783681774e+00 -2.800677344843e+02 0.0 
0.0 0.0 -1.175458052945e+02 
-1.220427647198e+02 7.666057624496e+00 0.0 
7.666057624496e+00 -2.989883062823e+02 0.0 
0.0 0.0 -1.259093213006e+02 
-6.189793433432e+01 -1.926462609530e-01 0.0 
-1.926462609530e-01 -1.603064005502e+02 0.0 
0.0 0.0 -6.626130046536e+01 
-6.941040818828e+01 1.928303654479e-02 0.0 
1.928303654479e-02 -1.790089421594e+02 0.0 
0.0 0.0 -7.412580510432e+01 
-7.372603810946e+01 8.376805303924e-02 0.0 
8.376805303924e-02 -1.899810816496e+02 0.0 
0.0 0.0 -7.871213592773e+01 
-7.753773688894e+01 1.502027382155e-01 0.0 
1.502027382155e-01 -1.987446285504e+02 0.0 
0.0 0.0 -8.248470963180e+01 
-1.025618963925e+02 6.803066098699e-01 0.0 
6.803066098699e-01 -2.322161512723e+02 0.0 
0.0 0.0 -1.000334142994e+02 
-1.105478486371e+02 7.918401016978e-01 0.0 
7.918401016978e-01 -2.521596149260e+02 0.0 
0.0 0.0 -1.084122390689e+02 
-2.955124574192e+01 9.167357106793e+00 0.0 
9.167357106793e+00 -8.275399071684e+01 0.0 
0.0 0.0 -3.329157093763e+01 
-3.308918186869e+01 1.073453445313e+01 0.0 
1.073453445313e+01 -8.795517877375e+01 0.0 
0.0 0.0 -3.591330819273e+01 
-1.170066654808e+02 3.581130519034e+00 0.0 
3.581130519034e+00 -2.635420194121e+02 0.0 
0.0 0.0 -1.137646054679e+02 
-1.195460147274e+02 1.194905669747e+00 0.0 
1.194905669747e+00 -2.943826536299e+02 0.0 
0.0 0.0 -1.237786005072e+02 
-1.107118272413e+02 9.823823695219e-01 0.0 
9.823823695219e-01 -2.752060203532e+02 0.0 
0.0 0.0 -1.153753542784e+02 
-6.808819074179e+01 1.027734505839e+01 0.0 
1.027734505839e+01 -1.514668139704e+02 0.0 
0.0 0.0 -6.546650141367e+01 
-6.475543167254e+01 9.579073776760e+00 0.0 
9.579073776760e+00 -1.395537890006e+02 0.0 
0.0 0.0 -6.089276620194e+01 
-6.013885820614e+01 1.044347045446e+01 0.0 
1.044347045446e+01 -1.319065478774e+02 0.0 
0.0 0.0 -5.721362182506e+01 
-5.660844693946e+01 9.517722887212e+00 0.0 
9.517722887212e+00 -1.193496805443e+02 0.0 
0.0 0.0 -5.238743824514e+01 
-6.119932707857e+01 8.512319491397e+00 0.0 
8.512319491397e+00 -1.277787615184e+02 0.0 
0.0 0.0 -5.629342657910e+01 
-5.193128994964e+01 1.061088803631e+01 0.0 
1.061088803631e+01 -1.115956974947e+02 0.0 
0.0 0.0 -4.865809623330e+01 
-1.039386390616e+02 4.585868258287e+00 0.0 
4.585868258287e+00 -2.627199537029e+02 0.0 
0.0 0.0 -1.095975778294e+02 
-1.138364891243e+02 1.502156073092e+00 0.0 
1.502156073092e+00 -2.592449760621e+02 0.0 
0.0 0.0 -1.115244395559e+02 
-4.045644897296e+01 -1.068920623236e+00 0.0 
-1.068920623236e+00 -1.059602031012e+02 0.0 
0.0 0.0 -4.352499562223e+01 
-3.336328966615e+01 -1.208132268744e+00 0.0 
-1.208132268744e+00 -8.649430877147e+01 0.0 
0.0 0.0 -3.555727953129e+01 
-1.285359994425e+02 1.382206478632e+00 0.0 
1.382206478632e+00 -3.135301412889e+02 0.0 
0.0 0.0 -1.322198422194e+02 
-1.043052068522e+02 6.936977285056e+00 0.0 
6.936977285056e+00 -2.613102375952e+02 0.0 
0.0 0.0 -1.092846333342e+02 
-1.005446656845e+02 9.153686176782e+00 0.0 
9.153686176782e+00 -2.255892797888e+02 0.0 
0.0 0.0 -9.744018364198e+01 
-1.040416113235e+02 9.596721684710e+00 0.0 
9.596721684710e+00 -2.365783603342e+02 0.0 
0.0 0.0 -1.017859914973e+02 
-1.083370928342e+02 9.321949023675e+00 0.0 
9.321949023675e+00 -2.450215995539e+02 0.0 
0.0 0.0 -1.056076077164e+02 
-1.119032289661e+02 9.729027820411e+00 0.0 
9.729027820411e+00 -2.559483832601e+02 0.0 
0.0 0.0 -1.099554836678e+02 
-1.161173739532e+02 9.556229987669e+00 0.0 
9.556229987669e+00 -2.644970565479e+02 0.0 
0.0 0.0 -1.137843291503e+02 
-1.197170197738e+02 9.959273203630e+00 0.0 
9.959273203630e+00 -2.752902999570e+02 0.0 
0.0 0.0 -1.181021959192e+02 
-1.155087707849e+02 1.002851997983e+01 0.0 
1.002851997983e+01 -2.669425614079e+02 0.0 
0.0 0.0 -1.143353996578e+02 
-1.233376838531e+02 1.012273556656e+01 0.0 
1.012273556656e+01 -2.931373799307e+02 0.0 
0.0 0.0 -1.245425191352e+02 
-1.234136908086e+02 1.029389850604e+01 0.0 
1.029389850604e+01 -2.862142063359e+02 0.0 
0.0 0.0 -1.224883691434e+02 
-9.446553810442e+01 4.664771623789e-01 0.0 
4.664771623789e-01 -2.121981726006e+02 0.0 
0.0 0.0 -9.159911321151e+01 
-1.015937681620e+02 9.492236143770e+00 0.0 
9.492236143770e+00 -2.466602044231e+02 0.0 
0.0 0.0 -1.040761917755e+02 
-4.543499385586e+01 -3.241573467198e-02 0.0 
-3.241573467198e-02 -1.230579433166e+02 0.0 
0.0 0.0 -5.014788115172e+01 
-2.850687930269e+01 -8.511237374244e-01 0.0 
-8.511237374244e-01 -7.328752289204e+01 0.0 
0.0 0.0 -3.013832065842e+01 
-2.850896853806e+01 -1.272344073150e+00 0.0 
-1.272344073150e+00 -7.363273654583e+01 0.0 
0.0 0.0 -3.024251152517e+01 
-3.479771752532e+01 -6.663366218671e-01 0.0 
-6.663366218671e-01 -8.975170646477e+01 0.0 
0.0 0.0 -3.696482719703e+01 
-4.231081928961e+01 -5.920960620442e-01 0.0 
-5.920960620442e-01 -1.094484440689e+02 0.0 
0.0 0.0 -4.512777900754e+01 
-1.311545356991e+02 6.004295147300e+00 0.0 
6.004295147300e+00 -3.197833036847e+02 0.0 
0.0 0.0 -1.348813518151e+02 
-1.238246998461e+02 9.871318536575e+00 0.0 
9.871318536575e+00 -2.839219560329e+02 0.0 
0.0 0.0 -1.219239967637e+02 
-1.201150907229e+02 9.362543396334e+00 0.0 
9.362543396334e+00 -2.730708211306e+02 0.0 
0.0 0.0 -1.175557735560e+02 
-5.296494141884e+01 8.139451992544e+00 0.0 
8.139451992544e+00 -1.075518244926e+02 0.0 
0.0 0.0 -4.775502977342e+01 
-5.745872338218e+01 7.157739451141e+00 0.0 
7.157739451141e+00 -1.165094448309e+02 0.0 
0.0 0.0 -5.179045046393e+01 
-1.274675710975e+02 1.005198806966e+01 0.0 
1.005198806966e+01 -3.040061646445e+02 0.0 
0.0 0.0 -1.290421207226e+02 
-9.366398271056e+01 2.063931690606e+00 0.0 
2.063931690606e+00 -2.045920890592e+02 0.0 
0.0 0.0 -8.907682153094e+01 
-9.352270890284e+01 1.254667837944e+00 0.0 
1.254667837944e+00 -2.073881874938e+02 0.0 
0.0 0.0 -8.987326891898e+01 
-8.949406436452e+01 9.271514918949e-01 0.0 
9.271514918949e-01 -1.982667799785e+02 0.0 
0.0 0.0 -8.592825330290e+01 
-2.687713460212e+01 -5.963480431081e-01 0.0 
-5.963480431081e-01 -6.855943263356e+01 0.0 
0.0 0.0 -2.823097017070e+01 
-2.613381986036e+01 -1.282436053186e+00 0.0 
-1.282436053186e+00 -6.617684484914e+01 0.0 
0.0 0.0 -2.729319941285e+01 
-1.172597325257e+02 2.372105828726e+00 0.0 
2.372105828726e+00 -2.665458128258e+02 0.0 
0.0 0.0 -1.147416636054e+02 
-4.064309906284e+01 1.084960812300e+01 0.0 
1.084960812300e+01 -1.056368976310e+02 0.0 
0.0 0.0 -4.348399900814e+01 
-3.725432108754e+01 1.170651448392e+01 0.0 
1.170651448392e+01 -9.289893745558e+01 0.0 
0.0 0.0 -3.864597756294e+01 
-2.204112657803e+01 2.998366966009e+00 0.0 
2.998366966009e+00 -6.162844918232e+01 0.0 
0.0 0.0 -2.470087272810e+01 
-2.031308032007e+01 1.271103523740e+00 0.0 
1.271103523740e+00 -5.283373916596e+01 0.0 
0.0 0.0 -2.154404584581e+01 
-1.068041896996e+02 5.003688869407e-01 0.0 
5.003688869407e-01 -2.427533187051e+02 0.0 
0.0 0.0 -1.044672525214e+02 
-1.147345016960e+02 6.450613001610e-01 0.0 
6.450613001610e-01 -2.625614887931e+02 0.0 
0.0 0.0 -1.127887971467e+02 
-8.184157391933e+01 3.737066369744e-01 0.0 
3.737066369744e-01 -2.093905226094e+02 0.0 
0.0 0.0 -8.696962895862e+01 
-8.561282738612e+01 4.113480435266e-01 0.0 
4.113480435266e-01 -2.180743889643e+02 0.0 
0.0 0.0 -9.070616490512e+01 
-1.266692725020e+02 6.324503813481e+00 0.0 
6.324503813481e+00 -3.103093405453e+02 0.0 
0.0 0.0 -1.306935839142e+02 
-3.167108640271e+01 -1.242057283057e+00 0.0 
-1.242057283057e+00 -8.243108422703e+01 0.0 
0.0 0.0 -3.383065118892e+01 
-1.185373066803e+02 9.591346216016e-01 0.0 
9.591346216016e-01 -2.720094727840e+02 0.0 
0.0 0.0 -1.167640338393e+02 
-1.084812978895e+02 6.511928614099e+00 0.0 
6.511928614099e+00 -2.711719483871e+02 0.0 
0.0 0.0 -1.134959738830e+02 
-9.975933910454e+01 6.120843733189e+00 0.0 
6.120843733189e+00 -2.524169119215e+02 0.0 
0.0 0.0 -1.052528753078e+02 
-7.320643981936e+01 -6.314618671116e-02 0.0 
-6.314618671116e-02 -1.876661071148e+02 0.0 
0.0 0.0 -7.786176408024e+01 
-2.613710257769e+01 1.034922264683e+01 0.0 
1.034922264683e+01 -7.067689017287e+01 0.0 
0.0 0.0 -2.864419782517e+01 
-2.326562353168e+01 8.482401400505e+00 0.0 
8.482401400505e+00 -6.579168535921e+01 0.0 
0.0 0.0 -2.631719266727e+01 
-4.884000019913e+01 7.160320950486e-01 0.0 
7.160320950486e-01 -1.332077030439e+02 0.0 
0.0 0.0 -5.421431097292e+01 
-3.841546903178e+01 -9.866622527909e-01 0.0 
-9.866622527909e-01 -1.018024008602e+02 0.0 
0.0 0.0 -4.166536096759e+01 
-3.807637822778e+01 -4.743700394037e-01 0.0 
-4.743700394037e-01 -9.825081661430e+01 0.0 
0.0 0.0 -4.049815845262e+01 
-1.359612324413e+02 6.786954415905e+00 0.0 
6.786954415905e+00 -3.292364414184e+02 0.0 
0.0 0.0 -1.391593021579e+02 
-1.209793952018e+02 2.836022592570e+00 0.0 
2.836022592570e+00 -2.755136007595e+02 0.0 
0.0 0.0 -1.185478987884e+02 
-1.192227559866e+02 1.028516601674e+01 0.0 
1.028516601674e+01 -2.779665724218e+02 0.0 
0.0 0.0 -1.187567985225e+02 
-1.110949225101e+02 1.008759338827e+01 0.0 
1.008759338827e+01 -2.586431624072e+02 0.0 
0.0 0.0 -1.105214254752e+02 
-1.274091118215e+02 1.055549515201e+01 0.0 
1.055549515201e+01 -2.972962203358e+02 0.0 
0.0 0.0 -1.270115996472e+02 
-2.535115165399e+01 -1.339947165079e+00 0.0 
-1.339947165079e+00 -6.309060286635e+01 0.0 
0.0 0.0 -2.613252635610e+01 
-1.357401621636e+02 5.693054414317e+00 0.0 
5.693054414317e+00 -3.293322370969e+02 0.0 
0.0 0.0 -1.391217197782e+02 
-1.236100103282e+02 9.613110293681e-01 0.0 
9.613110293681e-01 -3.030088867972e+02 0.0 
0.0 0.0 -1.275856691376e+02 
-1.273315836327e+02 9.679158050406e+00 0.0 
9.679158050406e+00 -2.918002967974e+02 0.0 
0.0 0.0 -1.253395641290e+02 
-1.239785993078e+02 9.164788215509e+00 0.0 
9.164788215509e+00 -2.818347500237e+02 0.0 
0.0 0.0 -1.213440047994e+02 
-4.506621978836e+01 1.152594390024e+01 0.0 
1.152594390024e+01 -1.110765597193e+02 0.0 
0.0 0.0 -4.644283385230e+01 
-4.194300852575e+01 1.193916161474e+01 0.0 
1.193916161474e+01 -9.824159981390e+01 0.0 
0.0 0.0 -4.165538250189e+01 
-3.400378694950e+01 1.213117064308e+01 0.0 
1.213117064308e+01 -7.943680305241e+01 0.0 
0.0 0.0 -3.363217700058e+01 
-3.870269299732e+01 1.168889205864e+01 0.0 
1.168889205864e+01 -8.474599040522e+01 0.0 
0.0 0.0 -3.663460502076e+01 
-8.600243951460e+01 3.617364460009e+00 0.0 
3.617364460009e+00 -1.829873018770e+02 0.0 
0.0 0.0 -8.029692241748e+01 
-4.991683065689e+01 1.162041013217e+01 0.0 
1.162041013217e+01 -1.171198775334e+02 0.0 
0.0 0.0 -4.971101245710e+01 
-8.217272812592e+01 5.080703216520e+00 0.0 
5.080703216520e+00 -1.732351671957e+02 0.0 
0.0 0.0 -7.622236859650e+01 
-7.818369824342e+01 4.115348575097e+00 0.0 
4.115348575097e+00 -1.635678272547e+02 0.0 
0.0 0.0 -7.212545764945e+01 
-7.421199468494e+01 4.472363695557e+00 0.0 
4.472363695557e+00 -1.540443815619e+02 0.0 
0.0 0.0 -6.807691287406e+01 
-6.557607123232e+01 7.608765134980e+00 0.0 
7.608765134980e+00 -1.363382393331e+02 0.0 
0.0 0.0 -6.017429316962e+01 
-6.177927847172e+01 6.283229315464e+00 0.0 
6.283229315464e+00 -1.256461264277e+02 0.0 
0.0 0.0 -5.582762146982e+01 
-5.209107993338e+01 9.856055807242e+00 0.0 
9.856055807242e+00 -1.355938475524e+02 0.0 
0.0 0.0 -5.590547824574e+01 
-8.855271321889e+01 8.991177943509e+00 0.0 
8.991177943509e+00 -2.200955673030e+02 0.0 
0.0 0.0 -9.219448415656e+01 
-7.801457838996e+01 3.476422360113e-01 0.0 
3.476422360113e-01 -2.007735182412e+02 0.0 
0.0 0.0 -8.323642898934e+01 
-9.873252712835e+01 1.414668327103e+00 0.0 
1.414668327103e+00 -2.495140323644e+02 0.0 
0.0 0.0 -1.040739678478e+02 
-9.109105277349e+01 3.305151779765e+00 0.0 
3.305151779765e+00 -2.344014814517e+02 0.0 
0.0 0.0 -9.724776026757e+01 
-1.175013836588e+02 1.852850647740e+00 0.0 
1.852850647740e+00 -2.681076823700e+02 0.0 
0.0 0.0 -1.152827198086e+02 
-1.216111091544e+02 1.760602502997e+00 0.0 
1.760602502997e+00 -2.790405446786e+02 0.0 
0.0 0.0 -1.197954961499e+02 
-8.976410961774e+01 6.680225319042e-01 0.0 
6.680225319042e-01 -2.000780498633e+02 0.0 
0.0 0.0 -8.655264784431e+01 
-8.592268542482e+01 4.886710106732e-01 0.0 
4.886710106732e-01 -1.910523312086e+02 0.0 
0.0 0.0 -8.269250499003e+01 
-2.934633601103e+01 -1.132296769691e+00 0.0 
-1.132296769691e+00 -7.529963989597e+01 0.0 
0.0 0.0 -3.099379277210e+01 
-2.634348959370e+01 -1.246077554366e+00 0.0 
-1.246077554366e+00 -6.696634837895e+01 0.0 
0.0 0.0 -2.759295139180e+01 
-8.671764623847e+01 1.728530383999e+00 0.0 
1.728530383999e+00 -2.233876913963e+02 0.0 
0.0 0.0 -9.263160129043e+01 
-1.307427705741e+02 4.897481393576e+00 0.0 
4.897481393576e+00 -3.192636736808e+02 0.0 
0.0 0.0 -1.346019332765e+02 
-1.207183451695e+02 3.439076233167e+00 0.0 
3.439076233167e+00 -2.738387581379e+02 0.0 
0.0 0.0 -1.179671309922e+02 
-1.244279979363e+02 4.037277107620e+00 0.0 
4.037277107620e+00 -2.831143843067e+02 0.0 
0.0 0.0 -1.218627146729e+02 
-1.207398440090e+02 4.186858235164e+00 0.0 
4.186858235164e+00 -2.727372839569e+02 0.0 
0.0 0.0 -1.176431383897e+02 
-1.313488815783e+02 7.104826817661e+00 0.0 
7.104826817661e+00 -3.194201198775e+02 0.0 
0.0 0.0 -1.348307004368e+02 
-5.532766039900e+01 6.665068724097e+00 0.0 
6.665068724097e+00 -1.500212467997e+02 0.0 
0.0 0.0 -6.120467215961e+01 
-9.171090774373e+01 7.131958344033e+00 0.0 
7.131958344033e+00 -2.327807882188e+02 0.0 
0.0 0.0 -9.694750878875e+01 
-2.313628136539e+01 7.487836175446e-01 0.0 
7.487836175446e-01 -6.174100539799e+01 0.0 
0.0 0.0 -2.506318602901e+01 
-9.511963882599e+01 1.007334510017e+01 0.0 
1.007334510017e+01 -2.204357902021e+02 0.0 
0.0 0.0 -9.426662870842e+01 
-2.237982650711e+01 -1.056950499904e+00 0.0 
-1.056950499904e+00 -5.590757586796e+01 0.0 
0.0 0.0 -2.308622071252e+01 
-1.090801821089e+02 7.417339552495e+00 0.0 
7.417339552495e+00 -2.414598683977e+02 0.0 
0.0 0.0 -1.047620151520e+02 
-1.327627167561e+02 1.083171803143e+00 0.0 
1.083171803143e+00 -3.221913939337e+02 0.0 
0.0 0.0 -1.360862332069e+02 
-1.376980794863e+02 1.542827736936e+00 0.0 
1.542827736936e+00 -3.325220078629e+02 0.0 
0.0 0.0 -1.406660262047e+02 
-1.318356353265e+02 1.049275597691e+01 0.0 
1.049275597691e+01 -3.121628691548e+02 0.0 
0.0 0.0 -1.327995513444e+02 
-7.410934455464e+01 2.171800334820e+00 0.0 
2.171800334820e+00 -1.552806545752e+02 0.0 
0.0 0.0 -6.841699973895e+01 
-9.856270484771e+01 1.009551629503e+01 0.0 
1.009551629503e+01 -2.316109518690e+02 0.0 
0.0 0.0 -9.865209701501e+01 
-9.398543537122e+01 1.004776151073e+01 0.0 
1.004776151073e+01 -2.239435858045e+02 0.0 
0.0 0.0 -9.497870635273e+01 
-7.015434868291e+01 3.447438868693e+00 0.0 
3.447438868693e+00 -1.445983781187e+02 0.0 
0.0 0.0 -6.402581804047e+01 
-6.614123496507e+01 3.798764256446e+00 0.0 
3.798764256446e+00 -1.350618846282e+02 0.0 
0.0 0.0 -5.996093587799e+01 
-7.017431868979e+01 4.921671156669e+00 0.0 
4.921671156669e+00 -1.445830593695e+02 0.0 
0.0 0.0 -6.402721341779e+01 
-6.205592119128e+01 4.269017178863e+00 0.0 
4.269017178863e+00 -1.255182212656e+02 0.0 
0.0 0.0 -5.587224273706e+01 
-5.243254175483e+01 5.412332687706e-01 0.0 
5.412332687706e-01 -1.417257193638e+02 0.0 
0.0 0.0 -5.784747833560e+01 
-4.887052480810e+01 -1.077455701104e-01 0.0 
-1.077455701104e-01 -1.314107218444e+02 0.0 
0.0 0.0 -5.368437399575e+01 
-1.320499034524e+02 1.032312732189e+01 0.0 
1.032312732189e+01 -3.047388943230e+02 0.0 
0.0 0.0 -1.306366393326e+02 
-1.312509745216e+02 1.057725732674e+01 0.0 
1.057725732674e+01 -3.052473127759e+02 0.0 
0.0 0.0 -1.305494861893e+02 
-1.312268852751e+02 9.676727826406e+00 0.0 
9.676727826406e+00 -3.008601389105e+02 0.0 
0.0 0.0 -1.292261072557e+02 
-1.281264724247e+02 9.021707374956e+00 0.0 
9.021707374956e+00 -2.913291091246e+02 0.0 
0.0 0.0 -1.254366744648e+02 
-1.362210212551e+02 1.049778753849e+01 0.0 
1.049778753849e+01 -3.229458295014e+02 0.0 
0.0 0.0 -1.373500552269e+02 
-1.316243684990e+02 9.946254729364e+00 0.0 
9.946254729364e+00 -3.144611881575e+02 0.0 
0.0 0.0 -1.334256669970e+02 
-4.532346263010e+01 -3.859162135697e-01 0.0 
-3.859162135697e-01 -1.174021702946e+02 0.0 
0.0 0.0 -4.841768987740e+01 
-5.352178551466e+01 5.604792470296e+00 0.0 
5.604792470296e+00 -1.060775834257e+02 0.0 
0.0 0.0 -4.747981068211e+01 
-1.250104502543e+02 2.713971858565e+00 0.0 
2.713971858565e+00 -2.862426828316e+02 0.0 
0.0 0.0 -1.229759399258e+02 
-7.410529472261e+01 3.171239981309e+00 0.0 
3.171239981309e+00 -1.541598072744e+02 0.0 
0.0 0.0 -6.807953059909e+01 
-1.400266185324e+02 5.351124673358e+00 0.0 
5.351124673358e+00 -3.379719647327e+02 0.0 
0.0 0.0 -1.429995749795e+02 
-1.352126599313e+02 4.597036738355e+00 0.0 
4.597036738355e+00 -3.283560011665e+02 0.0 
0.0 0.0 -1.386705983294e+02 
-1.877445638397e+01 1.218339781085e-01 0.0 
1.218339781085e-01 -4.335522850644e+01 0.0 
0.0 0.0 -1.823890546712e+01 
-2.096797298820e+01 -3.491938635083e-01 0.0 
-3.491938635083e-01 -5.135747158418e+01 0.0 
0.0 0.0 -2.129763337171e+01 
-1.227090447042e+02 8.089875837917e-01 0.0 
8.089875837917e-01 -2.826923170478e+02 0.0 
0.0 0.0 -1.212204085256e+02 
-3.066546853296e+01 1.177558941967e+01 0.0 
1.177558941967e+01 -6.497039222915e+01 0.0 
0.0 0.0 -2.829075822863e+01 
-3.499825268287e+01 1.052260271887e+01 0.0 
1.052260271887e+01 -7.023518259505e+01 0.0 
0.0 0.0 -3.117003058338e+01 
-2.637162546081e+01 1.202221776079e+01 0.0 
1.202221776079e+01 -6.090808803692e+01 0.0 
0.0 0.0 -2.578391404932e+01 
-1.520011504598e+02 4.189515194474e-01 0.0 
4.189515194474e-01 -3.612558039676e+02 0.0 
0.0 0.0 -1.535770863282e+02 
-6.935092431589e+01 3.201818159262e-02 0.0 
3.201818159262e-02 -1.530538490046e+02 0.0 
0.0 0.0 -6.632143199615e+01 
-1.421307874745e+02 1.192775213336e+00 0.0 
1.192775213336e+00 -3.413106200797e+02 0.0 
0.0 0.0 -1.446324222663e+02 
-6.989076363546e+01 6.780373698151e+00 0.0 
6.780373698151e+00 -1.453560059130e+02 0.0 
0.0 0.0 -6.417403086454e+01 
-1.265886931641e+02 1.090953639734e+00 0.0 
1.090953639734e+00 -2.922231393200e+02 0.0 
0.0 0.0 -1.252435497452e+02 
-1.021967890387e+02 9.993251040320e+00 0.0 
9.993251040320e+00 -2.428618722486e+02 0.0 
0.0 0.0 -1.031175983862e+02 
-6.319482618779e+01 1.086906381185e+01 0.0 
1.086906381185e+01 -1.438380737035e+02 0.0 
0.0 0.0 -6.170986996738e+01 
-1.221360993640e+02 6.653489229821e+00 0.0 
6.653489229821e+00 -3.005323236232e+02 0.0 
0.0 0.0 -1.264005268962e+02 
-1.184876248109e+02 6.016605440484e-01 0.0 
6.016605440484e-01 -2.721049109059e+02 0.0 
0.0 0.0 -1.167777607150e+02 
-1.269281565074e+02 5.871088993767e-01 0.0 
5.871088993767e-01 -2.938236870819e+02 0.0 
0.0 0.0 -1.258255530768e+02 
-8.541340469656e+01 8.533612837501e-01 0.0 
8.533612837501e-01 -1.876934992648e+02 0.0 
0.0 0.0 -8.153207118840e+01 
-8.100873243056e+01 6.894009322875e-01 0.0 
6.894009322875e-01 -1.780296134801e+02 0.0 
0.0 0.0 -7.731150377319e+01 
-8.918453758993e+01 1.196211853433e+00 0.0 
1.196211853433e+00 -1.962604600860e+02 0.0 
0.0 0.0 -8.523349930277e+01 
-2.406467049633e+01 5.029666981139e+00 0.0 
5.029666981139e+00 -6.955126248958e+01 0.0 
0.0 0.0 -2.768477989577e+01 
-1.856333877550e+01 4.191863965301e+00 0.0 
4.191863965301e+00 -5.027344988877e+01 0.0 
0.0 0.0 -2.025103659928e+01 
-1.179074009285e+02 1.394145226277e+00 0.0 
1.394145226277e+00 -2.699879679314e+02 0.0 
0.0 0.0 -1.159686106580e+02 
-5.403931503645e+01 -4.636131036793e-01 0.0 
-4.636131036793e-01 -1.402701278139e+02 0.0 
0.0 0.0 -5.789283285511e+01 
-5.817523136396e+01 -3.742416998753e-01 0.0 
-3.742416998753e-01 -1.508835376331e+02 0.0 
0.0 0.0 -6.231763069913e+01 
-3.454337493705e+01 -1.206481536113e+00 0.0 
-1.206481536113e+00 -9.034880309357e+01 0.0 
0.0 0.0 -3.706765340919e+01 
-4.144554135193e+01 -9.517817823381e-01 0.0 
-9.517817823381e-01 -1.096191113222e+02 0.0 
0.0 0.0 -4.491939580224e+01 
-8.612747943731e+01 6.794755005432e-01 0.0 
6.794755005432e-01 -2.200207677961e+02 0.0 
0.0 0.0 -9.144447417003e+01 
-8.225838827240e+01 6.969720789890e-01 0.0 
6.969720789890e-01 -2.114045815315e+02 0.0 
0.0 0.0 -8.769889094117e+01 
-1.128026533395e+02 8.140792965523e+00 0.0 
8.140792965523e+00 -2.518978440557e+02 0.0 
0.0 0.0 -1.090101492186e+02 
-1.166269358286e+02 7.861874183177e+00 0.0 
7.861874183177e+00 -2.609849800596e+02 0.0 
0.0 0.0 -1.128835747665e+02 
-1.047536837339e+02 8.787938400226e+00 0.0 
8.787938400226e+00 -2.341417932614e+02 0.0 
0.0 0.0 -1.012686430986e+02 
-1.039646310963e+02 5.709760934839e+00 0.0 
5.709760934839e+00 -2.621332213790e+02 0.0 
0.0 0.0 -1.094293557426e+02 
-9.532839328369e+01 5.281793168299e+00 0.0 
5.281793168299e+00 -2.433959264363e+02 0.0 
0.0 0.0 -1.012172959160e+02 
-9.125877437261e+01 5.740257541516e+00 0.0 
5.740257541516e+00 -2.338662171342e+02 0.0 
0.0 0.0 -9.713749745203e+01 
-1.249365333815e+02 2.134755363158e+00 0.0 
2.134755363158e+00 -2.874219859077e+02 0.0 
0.0 0.0 -1.233075557868e+02 
-1.299227625795e+02 1.956622780575e+00 0.0 
1.956622780575e+00 -3.005577038620e+02 0.0 
0.0 0.0 -1.287441399324e+02 
-5.594412352295e+01 1.357996772023e+00 0.0 
1.357996772023e+00 -1.516147129094e+02 0.0 
0.0 0.0 -6.186765092970e+01 
-5.223406517064e+01 1.651948931998e+00 0.0 
1.651948931998e+00 -1.429460919555e+02 0.0 
0.0 0.0 -5.815404713785e+01 
-5.594059518563e+01 4.123961348788e-01 0.0 
4.123961348788e-01 -1.499469562181e+02 0.0 
0.0 0.0 -6.136626542112e+01 
-1.285947904972e+02 3.176725323710e+00 0.0 
3.176725323710e+00 -2.952519859521e+02 0.0 
0.0 0.0 -1.267540329348e+02 
-1.469156370434e+02 1.639114025065e+00 0.0 
1.639114025065e+00 -3.512976600731e+02 0.0 
0.0 0.0 -1.490639891350e+02 
-1.425961916565e+02 2.092589820042e+00 0.0 
2.092589820042e+00 -3.427093330396e+02 0.0 
0.0 0.0 -1.451916574088e+02 
-1.966933998110e+01 -1.066713379463e+00 0.0 
-1.066713379463e+00 -4.776608789901e+01 0.0 
0.0 0.0 -1.983062836403e+01 
-2.333538771506e+01 -1.239951493212e+00 0.0 
-1.239951493212e+00 -5.846470747983e+01 0.0 
0.0 0.0 -2.414002855847e+01 
-2.027332888015e+01 9.685610460306e+00 0.0 
9.685610460306e+00 -5.383705463685e+01 0.0 
0.0 0.0 -2.183311505510e+01 
-1.838865379262e+01 7.728873737958e+00 0.0 
7.728873737958e+00 -4.963334455339e+01 0.0 
0.0 0.0 -2.000659950380e+01 
-1.278558786848e+02 4.640048892045e+00 0.0 
4.640048892045e+00 -2.919448497457e+02 0.0 
0.0 0.0 -1.255402185292e+02 
-1.245098966249e+02 4.837718116127e+00 0.0 
4.837718116127e+00 -2.822546134752e+02 0.0 
0.0 0.0 -1.216293530300e+02 
-1.322366769158e+02 4.478444487933e+00 0.0 
4.478444487933e+00 -3.040402620487e+02 0.0 
0.0 0.0 -1.304830816894e+02 
-4.066069700981e+01 -3.601020393261e-01 0.0 
-3.601020393261e-01 -1.049662115690e+02 0.0 
0.0 0.0 -4.328807257365e+01 
-1.148998069126e+02 1.013932888650e+01 0.0 
1.013932888650e+01 -2.698931357026e+02 0.0 
0.0 0.0 -1.150378827846e+02 
-1.403381398745e+02 7.601777998029e+00 0.0 
7.601777998029e+00 -3.374784212161e+02 0.0 
0.0 0.0 -1.429449683272e+02 
-1.356376320179e+02 7.886215395247e+00 0.0 
7.886215395247e+00 -3.277518506538e+02 0.0 
0.0 0.0 -1.386168448015e+02 
-1.462435930572e+02 7.385726130428e+00 0.0 
7.385726130428e+00 -3.496495657876e+02 0.0 
0.0 0.0 -1.483679476534e+02 
-1.276012023945e+02 1.048782991027e+01 0.0 
1.048782991027e+01 -3.010288281938e+02 0.0 
0.0 0.0 -1.281890091765e+02 
-1.356604827090e+02 1.087298164416e+01 0.0 
1.087298164416e+01 -3.196678545269e+02 0.0 
0.0 0.0 -1.361985011708e+02 
-1.353550041940e+02 1.088997890018e+01 0.0 
1.088997890018e+01 -3.162590386276e+02 0.0 
0.0 0.0 -1.350842128465e+02 
-1.635191295058e+01 5.558977987823e-01 0.0 
5.558977987823e-01 -3.503821180888e+01 0.0 
0.0 0.0 -1.501703742784e+01 
-1.242195936903e+02 4.733130970142e-01 0.0 
4.733130970142e-01 -2.869017388309e+02 0.0 
0.0 0.0 -1.229363997563e+02 
-8.116537206586e+01 4.526714027247e-01 0.0 
4.526714027247e-01 -1.794343768719e+02 0.0 
0.0 0.0 -7.777992468133e+01 
-1.592589330591e+01 -8.840226608772e-02 0.0 
-8.840226608772e-02 -2.774577577776e+01 0.0 
0.0 0.0 -1.284189151605e+01 
-7.735170675256e+01 2.881547085902e-01 0.0 
2.881547085902e-01 -1.705821340316e+02 0.0 
0.0 0.0 -7.398015223524e+01 
-8.190252548960e+01 3.341516817331e-01 0.0 
3.341516817331e-01 -1.818937475276e+02 0.0 
0.0 0.0 -7.873888190516e+01 
-7.291161630594e+01 1.763706515419e-01 0.0 
1.763706515419e-01 -1.605166275974e+02 0.0 
0.0 0.0 -6.962847317101e+01 
-3.328976391574e+01 -3.698881146978e-01 0.0 
-3.698881146978e-01 -8.568373002976e+01 0.0 
0.0 0.0 -3.529204818365e+01 
-7.973193461726e+01 8.223311477612e-01 0.0 
8.223311477612e-01 -1.736259405625e+02 0.0 
0.0 0.0 -7.560736255394e+01 
-8.506646120148e+01 1.242887400211e+00 0.0 
1.242887400211e+00 -1.856065074904e+02 0.0 
0.0 0.0 -8.080189060757e+01 
-1.592181923332e+01 -1.074190523098e+00 0.0 
-1.074190523098e+00 -3.611073653664e+01 0.0 
0.0 0.0 -1.532037998976e+01 
-1.323011260109e+02 2.926438019596e+00 0.0 
2.926438019596e+00 -3.056072056481e+02 0.0 
0.0 0.0 -1.309724994977e+02 
-1.575852134002e+01 -8.344280955538e-01 0.0 
-8.344280955538e-01 -3.757659356606e+01 0.0 
0.0 0.0 -1.559910361468e+01 
-1.854992964983e+01 -7.760375589957e-01 0.0 
-7.760375589957e-01 -4.545453792337e+01 0.0 
0.0 0.0 -1.880134027196e+01 
-1.447023166214e+02 4.974632807075e+00 0.0 
4.974632807075e+00 -3.472056378538e+02 0.0 
0.0 0.0 -1.471723863426e+02 
-1.396418413743e+02 4.284112922628e+00 0.0 
4.284112922628e+00 -3.371935594292e+02 0.0 
0.0 0.0 -1.426506202411e+02 
-1.488010135483e+02 4.669874544831e+00 0.0 
4.669874544831e+00 -3.554286554115e+02 0.0 
0.0 0.0 -1.508689006879e+02 
-1.437183326684e+02 3.903662850819e+00 0.0 
3.903662850819e+00 -3.452807064563e+02 0.0 
0.0 0.0 -1.462997117374e+02 
-1.346841463195e+02 3.627816454032e+00 0.0 
3.627816454032e+00 -3.270574818063e+02 0.0 
0.0 0.0 -1.381224884377e+02 
-1.391953581663e+02 3.296930106336e+00 0.0 
3.296930106336e+00 -3.360999287965e+02 0.0 
0.0 0.0 -1.421885860889e+02 
-7.662944361001e+01 4.540475166423e-01 0.0 
4.540475166423e-01 -1.683086861798e+02 0.0 
0.0 0.0 -7.308143893693e+01 
-1.496562447793e+02 3.652347153040e+00 0.0 
3.652347153040e+00 -3.568725445782e+02 0.0 
0.0 0.0 -1.515586368073e+02 
-1.438843550147e+02 2.955574971398e+00 0.0 
2.955574971398e+00 -3.453015658585e+02 0.0 
0.0 0.0 -1.463557762620e+02 
-1.541790889027e+02 3.257051661469e+00 0.0 
3.257051661469e+00 -3.661533427747e+02 0.0 
0.0 0.0 -1.556997295032e+02 
-5.800143880108e+01 3.052003452016e+00 0.0 
3.052003452016e+00 -1.164913230926e+02 0.0 
0.0 0.0 -5.194782856811e+01 
-4.333577568863e+01 1.069643320958e+01 0.0 
1.069643320958e+01 -9.079417664644e+01 0.0 
0.0 0.0 -3.983898570052e+01 
-3.963297861820e+01 8.969428069625e+00 0.0 
8.969428069625e+00 -7.751206171573e+01 0.0 
0.0 0.0 -3.474351210018e+01 
-3.043855412364e+01 7.686258891248e+00 0.0 
7.686258891248e+00 -5.583521577508e+01 0.0 
0.0 0.0 -2.548213096962e+01 
-1.361690383885e+02 9.621798041305e+00 0.0 
9.621798041305e+00 -3.131794102195e+02 0.0 
0.0 0.0 -1.344045345824e+02 
-1.312267924135e+02 8.733036678256e+00 0.0 
8.733036678256e+00 -2.994238389366e+02 0.0 
0.0 0.0 -1.287951894050e+02 
-1.280080858185e+02 6.780546859378e-01 0.0 
6.780546859378e-01 -3.121821654159e+02 0.0 
0.0 0.0 -1.316570753703e+02 
-1.189323855512e+02 5.635792888097e-01 0.0 
5.635792888097e-01 -2.928343216943e+02 0.0 
0.0 0.0 -1.231300121736e+02 
-7.738920626893e+01 1.566047360197e-01 0.0 
1.566047360197e-01 -1.716823861439e+02 0.0 
0.0 0.0 -7.432147772385e+01 
-7.685765206810e+01 1.596260697068e-01 0.0 
1.596260697068e-01 -1.706448251480e+02 0.0 
0.0 0.0 -7.385074316484e+01 
-8.435224619297e+01 1.119192591709e-01 0.0 
1.119192591709e-01 -1.884661683758e+02 0.0 
0.0 0.0 -8.144552437062e+01 
-8.325410843883e+01 1.922123860802e-01 0.0 
1.922123860802e-01 -1.860670245537e+02 0.0 
0.0 0.0 -8.039633989777e+01 
-9.071574540883e+01 1.499283897795e-01 0.0 
1.499283897795e-01 -2.039954600695e+02 0.0 
0.0 0.0 -8.801336164351e+01 
-8.961211341247e+01 2.276628854551e-01 0.0 
2.276628854551e-01 -2.012671422394e+02 0.0 
0.0 0.0 -8.686377669557e+01 
-9.719532217208e+01 4.034454108620e-01 0.0 
4.034454108620e-01 -2.195651447332e+02 0.0 
0.0 0.0 -9.462814007158e+01 
-1.392698217310e+02 1.106557624713e+01 0.0 
1.106557624713e+01 -3.247072124857e+02 0.0 
0.0 0.0 -1.387931102650e+02 
-2.259915961148e+01 1.138369417011e+01 0.0 
1.138369417011e+01 -4.528565849376e+01 0.0 
0.0 0.0 -1.996544543157e+01 
-6.606362283295e+01 2.500059930752e+00 0.0 
2.500059930752e+00 -1.355833881145e+02 0.0 
0.0 0.0 -6.009410328424e+01 
-1.403743919101e+02 1.045997802070e+01 0.0 
1.045997802070e+01 -3.331822598652e+02 0.0 
0.0 0.0 -1.416669955326e+02 
-1.351303016416e+02 9.765118290194e+00 0.0 
9.765118290194e+00 -3.233451116962e+02 0.0 
0.0 0.0 -1.371426240014e+02 
-5.775241667385e+01 4.867850686787e+00 0.0 
4.867850686787e+00 -1.155767941813e+02 0.0 
0.0 0.0 -5.159876325654e+01 
-4.939010138023e+01 3.983763109722e+00 0.0 
3.983763109722e+00 -9.668079186131e+01 0.0 
0.0 0.0 -4.342126797246e+01 
-1.463289633345e+02 6.132978874829e+00 0.0 
6.132978874829e+00 -3.504587735784e+02 0.0 
0.0 0.0 -1.486363210739e+02 
-5.307990215711e+01 1.126686436688e+01 0.0 
1.126686436688e+01 -1.295610122860e+02 0.0 
0.0 0.0 -5.439227433294e+01 
-1.366619417665e+02 3.502395609398e+00 0.0 
3.502395609398e+00 -3.172551737710e+02 0.0 
0.0 0.0 -1.357751346612e+02 
-1.256155678803e+01 2.592777131051e+00 0.0 
2.592777131051e+00 -1.392454313400e+01 0.0 
0.0 0.0 -7.907535555708e+00 
-1.498588250470e+01 2.701689604114e+00 0.0 
2.701689604114e+00 -3.073821756626e+01 0.0 
0.0 0.0 -1.342952467612e+01 
-5.801359009846e+01 1.126049216538e+01 0.0 
1.126049216538e+01 -1.362058970914e+02 0.0 
0.0 0.0 -5.786584615697e+01 
-6.605159686457e+01 5.526352254034e+00 0.0 
5.526352254034e+00 -1.351230646388e+02 0.0 
0.0 0.0 -5.995239845102e+01 
-4.817314589057e+01 9.351074701143e+00 0.0 
9.351074701143e+00 -9.841561185038e+01 0.0 
0.0 0.0 -4.357662732229e+01 
-4.480577486879e+01 7.709639276006e+00 0.0 
7.709639276006e+00 -8.753246466391e+01 0.0 
0.0 0.0 -3.930147185981e+01 
-1.128928949447e+02 6.157358037892e+00 0.0 
6.157358037892e+00 -2.812000056314e+02 0.0 
0.0 0.0 -1.178278701728e+02 
-2.103612305550e+01 -1.311394089874e+00 0.0 
-1.311394089874e+00 -5.082699467735e+01 0.0 
0.0 0.0 -2.115893531985e+01 
-2.294593767591e+01 1.126998452643e+01 0.0 
1.126998452643e+01 -5.758496387220e+01 0.0 
0.0 0.0 -2.375927046443e+01 
-9.826597789827e+01 3.175519153577e-01 0.0 
3.175519153577e-01 -2.218059674032e+02 0.0 
0.0 0.0 -9.562158359043e+01 
-1.751480171420e+01 1.048620184541e+01 0.0 
1.048620184541e+01 -4.038181391658e+01 0.0 
0.0 0.0 -1.696898468923e+01 
-1.237612155234e+02 3.029248295693e-01 0.0 
3.029248295693e-01 -3.030387601483e+02 0.0 
0.0 0.0 -1.276399927015e+02 
-5.663142958105e+01 1.062743944861e+01 0.0 
1.062743944861e+01 -1.420507575018e+02 0.0 
0.0 0.0 -5.920465612487e+01 
-7.356252115073e+01 7.918940778161e+00 0.0 
7.918940778161e+00 -1.560848857924e+02 0.0 
0.0 0.0 -6.849422208293e+01 
-2.970186503829e+01 1.166069804783e+01 0.0 
1.166069804783e+01 -7.501475016169e+01 0.0 
0.0 0.0 -3.101498455999e+01 
-4.699328277514e+01 1.152507716616e+01 0.0 
1.152507716616e+01 -1.046295716679e+02 0.0 
0.0 0.0 -4.508685633292e+01 
-9.001241217698e+01 4.440738963330e+00 0.0 
4.440738963330e+00 -1.924065096720e+02 0.0 
0.0 0.0 -8.432567655468e+01 
-8.195135694713e+01 2.862197392713e+00 0.0 
2.862197392713e+00 -1.738399513028e+02 0.0 
0.0 0.0 -7.633739247498e+01 
-7.807142200952e+01 2.959925110386e+00 0.0 
2.959925110386e+00 -1.640677672820e+02 0.0 
0.0 0.0 -7.224175678745e+01 
-6.019311365213e+01 9.810188027914e+00 0.0 
9.810188027914e+00 -1.538255293352e+02 0.0 
0.0 0.0 -6.380559289621e+01 
-4.912379589009e+01 6.503241823884e+00 0.0 
6.503241823884e+00 -9.653230721988e+01 0.0 
0.0 0.0 -4.329683093299e+01 
-3.947313625176e+01 5.400319441091e+00 0.0 
5.400319441091e+00 -7.462040647871e+01 0.0 
0.0 0.0 -3.382806281914e+01 
-8.603817134416e+01 6.048947507056e+00 0.0 
6.048947507056e+00 -1.832033992568e+02 0.0 
0.0 0.0 -8.037247118030e+01 
-1.170306642816e+02 4.279330696267e+00 0.0 
4.279330696267e+00 -2.624656534974e+02 0.0 
0.0 0.0 -1.134488953337e+02 
-1.207392513806e+02 4.940716760370e+00 0.0 
4.940716760370e+00 -2.718582599817e+02 0.0 
0.0 0.0 -1.173792534087e+02 
-1.278684374772e+02 5.499255967322e+00 0.0 
5.499255967322e+00 -2.909897833770e+02 0.0 
0.0 0.0 -1.252574662563e+02 
-1.244405199098e+02 5.663033907400e+00 0.0 
5.663033907400e+00 -2.813494022740e+02 0.0 
0.0 0.0 -1.213369766551e+02 
-1.171075375036e+02 5.110038303699e+00 0.0 
5.110038303699e+00 -2.617579842129e+02 0.0 
0.0 0.0 -1.132596565150e+02 
-1.208786725816e+02 5.874822923976e+00 0.0 
5.874822923976e+00 -2.713220787572e+02 0.0 
0.0 0.0 -1.172602254016e+02 
-1.280210808066e+02 6.353985954388e+00 0.0 
6.353985954388e+00 -2.909047512075e+02 0.0 
0.0 0.0 -1.252777496042e+02 
-1.248639303988e+02 6.617190164449e+00 0.0 
6.617190164449e+00 -2.816312563264e+02 0.0 
0.0 0.0 -1.215485560176e+02 
-1.331245061853e+02 7.326780278504e+00 0.0 
7.326780278504e+00 -3.045990155138e+02 0.0 
0.0 0.0 -1.309170565097e+02 
-1.283977705044e+02 7.455948228847e+00 0.0 
7.455948228847e+00 -2.913972578735e+02 0.0 
0.0 0.0 -1.255385085134e+02 
-1.208360044957e+02 6.772767995799e+00 0.0 
6.772767995799e+00 -2.710329846898e+02 0.0 
0.0 0.0 -1.171606967556e+02 
-1.242286817378e+02 7.503855468108e+00 0.0 
7.503855468108e+00 -2.804843121562e+02 0.0 
0.0 0.0 -1.210138981682e+02 
-1.312239903294e+02 8.134137515053e+00 0.0 
8.134137515053e+00 -2.993161805032e+02 0.0 
0.0 0.0 -1.287620512498e+02 
-1.168513512334e+02 6.959921198172e+00 0.0 
6.959921198172e+00 -2.606477441209e+02 0.0 
0.0 0.0 -1.128497286063e+02 
-1.447160911064e+02 1.102290164277e+01 0.0 
1.102290164277e+01 -3.414154307378e+02 0.0 
0.0 0.0 -1.454394565533e+02 
-6.630039062313e+01 1.091029364379e+01 0.0 
1.091029364379e+01 -1.556908256101e+02 0.0 
0.0 0.0 -6.619736486997e+01 
-1.789673198165e+01 1.959534848964e+00 0.0 
1.959534848964e+00 -4.375732402651e+01 0.0 
0.0 0.0 -1.809621680245e+01 
-1.560989050313e+01 4.690899341874e+00 0.0 
4.690899341874e+00 -3.759841400209e+01 0.0 
0.0 0.0 -1.556249135156e+01 
-7.783362020822e+01 7.181497031849e+00 0.0 
7.181497031849e+00 -1.649742857132e+02 0.0 
0.0 0.0 -7.244237177644e+01 
-1.397485050080e+02 7.513414372568e+00 0.0 
7.513414372568e+00 -3.238425778601e+02 0.0 
0.0 0.0 -1.386773248604e+02 
-1.390273141770e+02 6.172786051816e+00 0.0 
6.172786051816e+00 -3.222288236143e+02 0.0 
0.0 0.0 -1.379768413374e+02 
-4.419693373074e+01 9.804016862225e+00 0.0 
9.804016862225e+00 -1.176764869113e+02 0.0 
0.0 0.0 -4.816202619260e+01 
-1.434699229189e+02 1.054129487368e+01 0.0 
1.054129487368e+01 -3.332826447867e+02 0.0 
0.0 0.0 -1.426257703117e+02 
-8.211530093883e+01 3.826628578843e+00 0.0 
3.826628578843e+00 -1.732398932975e+02 0.0 
0.0 0.0 -7.620655827091e+01 
-3.000560084938e+01 5.934925905536e+00 0.0 
5.934925905536e+00 -8.706547735368e+01 0.0 
0.0 0.0 -3.472132346092e+01 
-1.451337519297e+02 1.142735696539e+01 0.0 
1.142735696539e+01 -3.381019177942e+02 0.0 
0.0 0.0 -1.445707009172e+02 
-1.133021325066e+02 4.388471026175e+00 0.0 
4.388471026175e+00 -2.521945552921e+02 0.0 
0.0 0.0 -1.092490063396e+02 
-1.094636939747e+02 4.532487631461e+00 0.0 
4.532487631461e+00 -2.418257570288e+02 0.0 
0.0 0.0 -1.049868353011e+02 
-1.055982784742e+02 3.826924501714e+00 0.0 
3.826924501714e+00 -2.324234365858e+02 0.0 
0.0 0.0 -1.010065145180e+02 
-1.387505137068e+02 5.141661108524e+00 0.0 
5.141661108524e+00 -3.218470491868e+02 0.0 
0.0 0.0 -1.377792688681e+02 
-9.327809375519e+01 1.598136472578e+00 0.0 
1.598136472578e+00 -2.055507091501e+02 0.0 
0.0 0.0 -8.924864087158e+01 
-1.487470439637e+02 1.194022884945e+01 0.0 
1.194022884945e+01 -3.488098986209e+02 0.0 
0.0 0.0 -1.488670827754e+02 
-9.700247079926e+01 9.046836574431e+00 0.0 
9.046836574431e+00 -2.388215520260e+02 0.0 
0.0 0.0 -1.003472068476e+02 
-9.314244496764e+01 9.477216152077e+00 0.0 
9.477216152077e+00 -2.277474346170e+02 0.0 
0.0 0.0 -9.586696387539e+01 
-8.478837118432e+01 9.516530113170e+00 0.0 
9.516530113170e+00 -2.090351708994e+02 0.0 
0.0 0.0 -8.774706262513e+01 
-1.171091295244e+02 6.027510896386e+00 0.0 
6.027510896386e+00 -2.611122200335e+02 0.0 
0.0 0.0 -1.130664048673e+02 
-1.515250908843e+02 1.059121009013e+01 0.0 
1.059121009013e+01 -3.576821589750e+02 0.0 
0.0 0.0 -1.523621749578e+02 
-1.442639169389e+02 9.784187599675e+00 0.0 
9.784187599675e+00 -3.434518973946e+02 0.0 
0.0 0.0 -1.459147443000e+02 
-1.449594207509e+02 9.319456634402e+00 0.0 
9.319456634402e+00 -3.454209539565e+02 0.0 
0.0 0.0 -1.467141124122e+02 
-1.362170557811e+02 8.995460238789e+00 0.0 
8.995460238789e+00 -3.276033356085e+02 0.0 
0.0 0.0 -1.387461174169e+02 
-1.531933881964e+02 9.513662502489e+00 0.0 
9.513662502489e+00 -3.620374183665e+02 0.0 
0.0 0.0 -1.541692419689e+02 
-1.416879010172e+02 8.842207052131e+00 0.0 
8.842207052131e+00 -3.285664368048e+02 0.0 
0.0 0.0 -1.406763013466e+02 
-1.424629458098e+02 9.480989152916e+00 0.0 
9.480989152916e+00 -3.307389168478e+02 0.0 
0.0 0.0 -1.415605587973e+02 
-4.521855811152e+01 9.694147999912e-01 0.0 
9.694147999912e-01 -1.245432296912e+02 0.0 
0.0 0.0 -5.052853634083e+01 
-4.853019154493e+01 2.059214774706e+00 0.0 
2.059214774706e+00 -1.341890589948e+02 0.0 
0.0 0.0 -5.441577516192e+01 
-5.572109795223e+01 2.736347602866e+00 0.0 
2.736347602866e+00 -1.522981822881e+02 0.0 
0.0 0.0 -6.200578407209e+01 
-5.192520963413e+01 3.267712000665e+00 0.0 
3.267712000665e+00 -1.432634446562e+02 0.0 
0.0 0.0 -5.815659628709e+01 
-4.476896741498e+01 2.566361627311e+00 0.0 
2.566361627311e+00 -1.251231650568e+02 0.0 
0.0 0.0 -5.056763974153e+01 
-4.808980610361e+01 3.895288241516e+00 0.0 
3.895288241516e+00 -1.339482206921e+02 0.0 
0.0 0.0 -5.421140803871e+01 
-5.545085927277e+01 4.541398719779e+00 0.0 
4.541398719779e+00 -1.518409914975e+02 0.0 
0.0 0.0 -6.178755523107e+01 
-4.422674650664e+01 4.657956255119e+00 0.0 
4.657956255119e+00 -1.243620293156e+02 0.0 
0.0 0.0 -5.017663274669e+01 
-1.241601931997e+02 8.331926268958e+00 0.0 
8.331926268958e+00 -2.805520405988e+02 0.0 
0.0 0.0 -1.210136701396e+02 
-1.548191558454e+02 8.231356687544e+00 0.0 
8.231356687544e+00 -3.661124456858e+02 0.0 
0.0 0.0 -1.558794804593e+02 
-9.959590544798e+01 3.805947329764e+00 0.0 
3.805947329764e+00 -2.532786362149e+02 0.0 
0.0 0.0 -1.054623624989e+02 
-9.529935291031e+01 4.098043799637e+00 0.0 
4.098043799637e+00 -2.438333154895e+02 0.0 
0.0 0.0 -1.013398005199e+02 
-8.691463018791e+01 3.590613273267e+00 0.0 
3.590613273267e+00 -2.251236053166e+02 0.0 
0.0 0.0 -9.321147065135e+01 
-7.423973648671e+01 3.366572212475e-01 0.0 
3.366572212475e-01 -1.921542146125e+02 0.0 
0.0 0.0 -7.951818532976e+01 
-7.839303098912e+01 7.129767370266e-01 0.0 
7.129767370266e-01 -2.027291026653e+02 0.0 
0.0 0.0 -8.393664009633e+01 
-8.649922242064e+01 1.120342826592e+00 0.0 
1.120342826592e+00 -2.218872645517e+02 0.0 
0.0 0.0 -9.211594609170e+01 
-7.006531962660e+01 5.332484922848e-02 0.0 
5.332484922848e-02 -1.814355535028e+02 0.0 
0.0 0.0 -7.505026193881e+01 
-1.075369188891e+02 9.897577346434e+00 0.0 
9.897577346434e+00 -2.475973690281e+02 0.0 
0.0 0.0 -1.061402863752e+02 
-1.553482485058e+02 7.648588394618e+00 0.0 
7.648588394618e+00 -3.673653270504e+02 0.0 
0.0 0.0 -1.564140726669e+02 
-9.569961777001e+01 6.600803163480e+00 0.0 
6.600803163480e+00 -2.426888756073e+02 0.0 
0.0 0.0 -1.011165480132e+02 
-7.452115010404e+01 7.282756776794e-01 0.0 
7.282756776794e-01 -1.939938560666e+02 0.0 
0.0 0.0 -8.015450185119e+01 
-7.233887991844e+01 8.076970479065e-01 0.0 
8.076970479065e-01 -1.547764433186e+02 0.0 
0.0 0.0 -6.773459697112e+01 
-8.001969723424e+01 1.271093728416e+00 0.0 
1.271093728416e+00 -1.720981437802e+02 0.0 
0.0 0.0 -7.523535230434e+01 
-8.068407906493e+01 1.706734858801e+00 0.0 
1.706734858801e+00 -1.726940185775e+02 0.0 
0.0 0.0 -7.561342929273e+01 
-8.843229743559e+01 2.066024952251e+00 0.0 
2.066024952251e+00 -1.912107490893e+02 0.0 
0.0 0.0 -8.349291395747e+01 
-8.035507106751e+01 1.236338321394e+00 0.0 
1.236338321394e+00 -1.736382010615e+02 0.0 
0.0 0.0 -7.579798163871e+01 
-8.996940722432e+01 6.545463987234e-01 0.0 
6.545463987234e-01 -2.286303326929e+02 0.0 
0.0 0.0 -9.517992197518e+01 
-9.379916407758e+01 6.017258951051e-01 0.0 
6.017258951051e-01 -2.372006935178e+02 0.0 
0.0 0.0 -9.889995727862e+01 
-8.940710810522e+01 3.423115900024e-01 0.0 
3.423115900024e-01 -2.267174818502e+02 0.0 
0.0 0.0 -9.443737698663e+01 
-9.764894599473e+01 5.211873335197e-01 0.0 
5.211873335197e-01 -2.457196087920e+02 0.0 
0.0 0.0 -1.026105664360e+02 
-9.302416804107e+01 3.289008826023e-01 0.0 
3.289008826023e-01 -2.347991255549e+02 0.0 
0.0 0.0 -9.794698807879e+01 
-8.550396984566e+01 2.229413621456e-01 0.0 
2.229413621456e-01 -2.171207704738e+02 0.0 
0.0 0.0 -9.038742209584e+01 
-1.013721964601e+02 4.219532736983e-01 0.0 
4.219532736983e-01 -2.538501277378e+02 0.0 
0.0 0.0 -1.061666972594e+02 
-9.603363623821e+01 1.581048217391e-01 0.0 
1.581048217391e-01 -2.416242878165e+02 0.0 
0.0 0.0 -1.008973772164e+02 
-7.154423018133e+01 5.279511273895e-01 0.0 
5.279511273895e-01 -1.542622323187e+02 0.0 
0.0 0.0 -6.734193875001e+01 
-1.338801161258e+01 -7.217241127978e-01 0.0 
-7.217241127978e-01 -1.720454481923e+01 0.0 
0.0 0.0 -9.167626735742e+00 
-1.692765877912e+01 -1.143225172991e+00 0.0 
-1.143225172991e+00 -3.389655131746e+01 0.0 
0.0 0.0 -1.497520585447e+01 
-1.668518358768e+01 -1.142463524969e+00 0.0 
-1.142463524969e+00 -3.349892831322e+01 0.0 
0.0 0.0 -1.478378303345e+01 
-2.098248427425e+01 -1.213154054083e+00 0.0 
-1.213154054083e+00 -4.942427188358e+01 0.0 
0.0 0.0 -2.072202684735e+01 
-2.100028246303e+01 -9.794617378087e-01 0.0 
-9.794617378087e-01 -5.049503269506e+01 0.0 
0.0 0.0 -2.104859454743e+01 
-2.608898105189e+01 -8.051446746912e-01 0.0 
-8.051446746912e-01 -6.749372639094e+01 0.0 
0.0 0.0 -2.767481223285e+01 
-2.500209670956e+01 -3.301501459775e-01 0.0 
-3.301501459775e-01 -6.487748549575e+01 0.0 
0.0 0.0 -2.656387466159e+01 
-1.699347320466e+01 -8.862060559251e-01 0.0 
-8.862060559251e-01 -3.386788433847e+01 0.0 
0.0 0.0 -1.499883361333e+01 
-1.209243909429e+01 -7.609195858892e-01 0.0 
-7.609195858892e-01 -1.699194427377e+01 0.0 
0.0 0.0 -8.716020913673e+00 
-1.623996538242e+01 -1.188118492049e+00 0.0 
-1.188118492049e+00 -3.348729586537e+01 0.0 
0.0 0.0 -1.465493872204e+01 
-1.133021288593e+01 -7.400810820820e-01 0.0 
-7.400810820820e-01 -1.682866952281e+01 0.0 
0.0 0.0 -8.442866047767e+00 
-1.574088719071e+01 -1.180899047019e+00 0.0 
-1.180899047019e+00 -3.302923671149e+01 0.0 
0.0 0.0 -1.436588661439e+01 
-2.158941643753e+01 -1.369342382130e+00 0.0 
-1.369342382130e+00 -5.190215196291e+01 0.0 
0.0 0.0 -2.164747052013e+01 
-3.044760349162e+01 -1.267594098364e+00 0.0 
-1.267594098364e+00 -7.851779810519e+01 0.0 
0.0 0.0 -3.228962047904e+01 
-1.570247786223e+02 1.812501505618e+00 0.0 
1.812501505618e+00 -3.714718642549e+02 0.0 
0.0 0.0 -1.581489928632e+02 
-7.314167394252e+01 -3.529437878038e-02 0.0 
-3.529437878038e-02 -1.873584283614e+02 0.0 
0.0 0.0 -7.775003069118e+01 
-6.919139765329e+01 -1.498595419802e-01 0.0 
-1.498595419802e-01 -1.779188081233e+02 0.0 
0.0 0.0 -7.373306173299e+01 
-6.177998785365e+01 -2.264356009503e-01 0.0 
-2.264356009503e-01 -1.590932417648e+02 0.0 
0.0 0.0 -6.586196888552e+01 
-6.568904344973e+01 -1.398505091014e-01 0.0 
-1.398505091014e-01 -1.692331444644e+02 0.0 
0.0 0.0 -7.007665637425e+01 
-7.616637505834e+01 -7.626824640887e-02 0.0 
-7.626824640887e-02 -1.950926676328e+02 0.0 
0.0 0.0 -8.097771280733e+01 
-5.769070530226e+01 -1.573312049384e-01 0.0 
-1.573312049384e-01 -1.487033377378e+02 0.0 
0.0 0.0 -6.151821291202e+01 
-5.493238298392e+01 -3.090753467062e-01 0.0 
-3.090753467062e-01 -1.416942604111e+02 0.0 
0.0 0.0 -5.858799301852e+01 
-7.152035440894e+00 -1.438023617331e-01 0.0 
-1.438023617331e-01 -1.716269454545e+01 0.0 
0.0 0.0 -7.282306325657e+00 
-1.323715859148e+01 -2.039938140065e-01 0.0 
-2.039938140065e-01 -3.373065032804e+01 0.0 
0.0 0.0 -1.379430294894e+01 
-1.262874454204e+01 -2.509742179271e-01 0.0 
-2.509742179271e-01 -3.208883991553e+01 0.0 
0.0 0.0 -1.304974212499e+01 
-1.948473731402e+01 -2.827996006852e-01 0.0 
-2.827996006852e-01 -5.046518188220e+01 0.0 
0.0 0.0 -2.058497575887e+01 
-1.963697324642e+01 -3.651464850224e-01 0.0 
-3.651464850224e-01 -5.011165510476e+01 0.0 
0.0 0.0 -2.052458850535e+01 
-1.360555779722e+01 -3.684147398939e-01 0.0 
-3.684147398939e-01 -3.402881257609e+01 0.0 
0.0 0.0 -1.401749266104e+01 
-1.372983418673e+01 -5.158857502373e-01 0.0 
-5.158857502373e-01 -3.402945929715e+01 0.0 
0.0 0.0 -1.406144213512e+01 
-7.634097763573e+00 -3.051910928031e-01 0.0 
-3.051910928031e-01 -1.703563640382e+01 0.0 
0.0 0.0 -7.395498854867e+00 
-1.385688037863e+01 -5.528165426685e-01 0.0 
-5.528165426685e-01 -3.389621819003e+01 0.0 
0.0 0.0 -1.408729444567e+01 
-2.013906161259e+01 -7.037135214053e-01 0.0 
-7.037135214053e-01 -5.091121673924e+01 0.0 
0.0 0.0 -2.091508350555e+01 
-7.821743368962e+00 -3.593508100363e-01 0.0 
-3.593508100363e-01 -1.645876337371e+01 0.0 
0.0 0.0 -7.295889042764e+00 
-1.076808950871e+02 2.688957566363e-01 0.0 
2.688957566363e-01 -2.455950330481e+02 0.0 
0.0 0.0 -1.055827784405e+02 
-1.119547513876e+02 4.270585250459e-01 0.0 
4.270585250459e-01 -2.563230904557e+02 0.0 
0.0 0.0 -1.100833525530e+02 
-1.557774259634e+02 6.297850635159e+00 0.0 
6.297850635159e+00 -3.687346506400e+02 0.0 
0.0 0.0 -1.569536229810e+02 
-7.182216503921e+01 4.162166778210e-01 0.0 
4.162166778210e-01 -1.562568560976e+02 0.0 
0.0 0.0 -6.802370634103e+01 
-1.013524461777e+01 -6.215828763735e-01 0.0 
-6.215828763735e-01 -1.709421097086e+01 0.0 
0.0 0.0 -8.153000320431e+00 
-1.352908818070e+02 1.253667259014e+00 0.0 
1.253667259014e+00 -3.150312830935e+02 0.0 
0.0 0.0 -1.346966494702e+02 
-1.369658142546e+02 2.334652222590e+00 0.0 
2.334652222590e+00 -3.186712593987e+02 0.0 
0.0 0.0 -1.362911220960e+02 
-1.370007879784e+02 1.902733353563e+00 0.0 
1.902733353563e+00 -3.188601069905e+02 0.0 
0.0 0.0 -1.363582684907e+02 
-1.424469700465e+02 3.716247838349e-01 0.0 
3.716247838349e-01 -3.420670578554e+02 0.0 
0.0 0.0 -1.449542083706e+02 
-1.471450608510e+02 8.166103284122e-01 0.0 
8.166103284122e-01 -3.515270014144e+02 0.0 
0.0 0.0 -1.492016186796e+02 
-1.353345389895e+02 6.796484573767e-01 0.0 
6.796484573767e-01 -3.154605579864e+02 0.0 
0.0 0.0 -1.348385290928e+02 
-4.770668571286e+01 -7.960942499258e-01 0.0 
-7.960942499258e-01 -1.253791185095e+02 0.0 
0.0 0.0 -5.152574126670e+01 
-1.316255841388e+02 6.180697616335e+00 0.0 
6.180697616335e+00 -3.004546185133e+02 0.0 
0.0 0.0 -1.292240607956e+02 
-1.220232037338e+02 1.243381470462e+00 0.0 
1.243381470462e+00 -2.807945988768e+02 0.0 
0.0 0.0 -1.204453407832e+02 
-2.664430871847e+01 7.186132627653e+00 0.0 
7.186132627653e+00 -7.686438442411e+01 0.0 
0.0 0.0 -3.065260794277e+01 
-4.525331955386e+01 -6.013724327583e-01 0.0 
-6.013724327583e-01 -1.207720794089e+02 0.0 
0.0 0.0 -4.940761968883e+01 
-1.147481453229e+02 7.979832529085e-01 0.0 
7.979832529085e-01 -2.838491811939e+02 0.0 
0.0 0.0 -1.191791979551e+02 
-1.032198034938e+02 1.904323244801e+00 0.0 
1.904323244801e+00 -2.599428828584e+02 0.0 
0.0 0.0 -1.085488059056e+02 
-1.334393295143e+02 1.853710301015e+00 0.0 
1.853710301015e+00 -3.239213884073e+02 0.0 
0.0 0.0 -1.368082153765e+02 
-1.067031904386e+02 1.158013703290e+00 0.0 
1.158013703290e+00 -2.666703721278e+02 0.0 
0.0 0.0 -1.116120687699e+02 
-1.250620294497e+02 2.408184983487e+00 0.0 
2.408184983487e+00 -3.067755856655e+02 0.0 
0.0 0.0 -1.291512845346e+02 
-1.449714375813e+02 8.501928328720e+00 0.0 
8.501928328720e+00 -3.463537304283e+02 0.0 
0.0 0.0 -1.469975504029e+02 
-3.090150528110e+01 -4.758904798612e-01 0.0 
-4.758904798612e-01 -7.913407743494e+01 0.0 
0.0 0.0 -3.261067481481e+01 
-9.368005668101e+01 9.339291878288e-01 0.0 
9.339291878288e-01 -2.089434144335e+02 0.0 
0.0 0.0 -9.038704133437e+01 
-9.019188166556e+01 4.841539665599e-01 0.0 
4.841539665599e-01 -2.017854750841e+02 0.0 
0.0 0.0 -8.719320702490e+01 
-1.101001599006e+02 1.178750124324e+00 0.0 
1.178750124324e+00 -2.502901852489e+02 0.0 
0.0 0.0 -1.077171035448e+02 
-5.051922445614e+01 -6.066617498214e-01 0.0 
-6.066617498214e-01 -1.315248394983e+02 0.0 
0.0 0.0 -5.421321918632e+01 
-8.157812695280e+01 2.283433039012e-01 0.0 
2.283433039012e-01 -2.081621374508e+02 0.0 
0.0 0.0 -8.652207932109e+01 
-3.244784778002e+01 -1.016749829219e+00 0.0 
-1.016749829219e+00 -8.391180476593e+01 0.0 
0.0 0.0 -3.450789576379e+01 
-1.387289754799e+02 1.063520250226e+01 0.0 
1.063520250226e+01 -3.211911321199e+02 0.0 
0.0 0.0 -1.375760322800e+02 
-7.816436143833e+01 5.526411685780e+00 0.0 
5.526411685780e+00 -1.638416391350e+02 0.0 
0.0 0.0 -7.220180017200e+01 
-8.280425719281e+01 2.784179641335e+00 0.0 
2.784179641335e+00 -2.155892105785e+02 0.0 
0.0 0.0 -8.911804033138e+01 
-6.638736067115e+01 -1.823919024406e-02 0.0 
-1.823919024406e-02 -1.727812321541e+02 0.0 
0.0 0.0 -7.135057784759e+01 
-5.166407063369e+01 -5.554608166842e-01 0.0 
-5.554608166842e-01 -1.364131544286e+02 0.0 
0.0 0.0 -5.602316751869e+01 
-4.196219591856e+01 -5.913324879555e-01 0.0 
-5.913324879555e-01 -1.125621537647e+02 0.0 
0.0 0.0 -4.595730490499e+01 
-7.125022602297e+01 1.060108903066e+01 0.0 
1.060108903066e+01 -1.632071591204e+02 0.0 
0.0 0.0 -6.993721554300e+01 
-7.859874959411e+01 1.250196095396e+00 0.0 
1.250196095396e+00 -2.043636068092e+02 0.0 
0.0 0.0 -8.448870692100e+01 
-1.169298055198e+02 3.748694176880e+00 0.0 
3.748694176880e+00 -2.904772927985e+02 0.0 
0.0 0.0 -1.218221294955e+02 
-1.142589781116e+02 1.090844130800e+00 0.0 
1.090844130800e+00 -2.611173813159e+02 0.0 
0.0 0.0 -1.122129078282e+02 
-9.705801113195e+00 -6.256776810946e-01 0.0 
-6.256776810946e-01 -1.903503028333e+01 0.0 
0.0 0.0 -8.507548250080e+00 
-1.216101544263e+02 4.458372199635e+00 0.0 
4.458372199635e+00 -3.003738448075e+02 0.0 
0.0 0.0 -1.261951997701e+02 
-9.504239959052e+01 2.196078951437e+00 0.0 
2.196078951437e+00 -2.424010630805e+02 0.0 
0.0 0.0 -1.008330388013e+02 
-9.744853921350e+01 1.608933888067e+00 0.0 
1.608933888067e+00 -2.163664039698e+02 0.0 
0.0 0.0 -9.374448295500e+01 
-1.181429536915e+02 9.029689881431e+00 0.0 
9.029689881431e+00 -2.870762688037e+02 0.0 
0.0 0.0 -1.211657667486e+02 
-2.960723875821e+01 -8.886588669973e-01 0.0 
-8.886588669973e-01 -7.749297923180e+01 0.0 
0.0 0.0 -3.173006539700e+01 
-1.134895973323e+02 1.927574185236e+00 0.0 
1.927574185236e+00 -2.574681310612e+02 0.0 
0.0 0.0 -1.108873185180e+02 
-1.277210366455e+02 3.788894714664e+00 0.0 
3.788894714664e+00 -2.926213286587e+02 0.0 
0.0 0.0 -1.257027095913e+02 
-8.923050801547e+01 1.686102884635e+00 0.0 
1.686102884635e+00 -1.949030633574e+02 0.0 
0.0 0.0 -8.484007141186e+01 
-2.534207976455e+01 -9.937383195363e-01 0.0 
-9.937383195363e-01 -6.442754735874e+01 0.0 
0.0 0.0 -2.653088813699e+01 
-8.528531185780e+01 6.433437048231e-01 0.0 
6.433437048231e-01 -1.889433571520e+02 0.0 
0.0 0.0 -8.186860070294e+01 
-1.405569320770e+02 6.454651115214e+00 0.0 
6.454651115214e+00 -3.386251931006e+02 0.0 
0.0 0.0 -1.433546375533e+02 
-1.131974653241e+02 3.665829609593e+00 0.0 
3.665829609593e+00 -2.531062635599e+02 0.0 
0.0 0.0 -1.094911186652e+02 
-4.645005641543e+01 -5.893373172005e-01 0.0 
-5.893373172005e-01 -1.205068762805e+02 0.0 
0.0 0.0 -4.968707980877e+01 
-8.332397554616e+01 6.855339849326e+00 0.0 
6.855339849326e+00 -2.143558332348e+02 0.0 
0.0 0.0 -8.890394263428e+01 
-7.712060759771e+01 8.848757377054e+00 0.0 
8.848757377054e+00 -1.672643799155e+02 0.0 
0.0 0.0 -7.291549625395e+01 
-6.617192428083e+01 1.636837782035e+00 0.0 
1.636837782035e+00 -1.368885325149e+02 0.0 
0.0 0.0 -6.051813703873e+01 
-1.253466769496e+02 1.525474860050e+00 0.0 
1.525474860050e+00 -2.892177285227e+02 0.0 
0.0 0.0 -1.239693216417e+02 
-8.586804312208e+01 1.019610888704e+01 0.0 
1.019610888704e+01 -2.051842311603e+02 0.0 
0.0 0.0 -8.691568228471e+01 
-1.266191227976e+02 8.417599470598e+00 0.0 
8.417599470598e+00 -3.076422873887e+02 0.0 
0.0 0.0 -1.298784230559e+02 
-1.002434403887e+02 7.407305990261e+00 0.0 
7.407305990261e+00 -2.513530165493e+02 0.0 
0.0 0.0 -1.050789370814e+02 
-4.989477094521e+01 -4.541625016296e-01 0.0 
-4.541625016296e-01 -1.292497590749e+02 0.0 
0.0 0.0 -5.334335900604e+01 
-1.303611588678e+02 3.920668758491e+00 0.0 
3.920668758491e+00 -3.184099241805e+02 0.0 
0.0 0.0 -1.342313249145e+02 
-8.019670005710e+01 8.965698039010e+00 0.0 
8.965698039010e+00 -2.015525560841e+02 0.0 
0.0 0.0 -8.412477684235e+01 
-1.212465815711e+02 2.245233714727e+00 0.0 
2.245233714727e+00 -2.772236818169e+02 0.0 
0.0 0.0 -1.191410790164e+02 
-1.124822240854e+02 9.049208760121e+00 0.0 
9.049208760121e+00 -2.536470584890e+02 0.0 
0.0 0.0 -1.094387847723e+02 
-6.318685244780e+01 7.018121790977e+00 0.0 
7.018121790977e+00 -1.679312995348e+02 0.0 
0.0 0.0 -6.893544559477e+01 
-1.170322190472e+02 2.937241175698e+00 0.0 
2.937241175698e+00 -2.647903704199e+02 0.0 
0.0 0.0 -1.141467768402e+02 
-8.279527980348e+01 3.946635001183e+00 0.0 
3.946635001183e+00 -2.158171175203e+02 0.0 
0.0 0.0 -8.918371919713e+01 
-1.228085215735e+02 9.562390741424e+00 0.0 
9.562390741424e+00 -2.955664543762e+02 0.0 
0.0 0.0 -1.251124927849e+02 
-7.408641991038e+01 6.079004646666e+00 0.0 
6.079004646666e+00 -1.545765808182e+02 0.0 
0.0 0.0 -6.819890021858e+01 
-9.701119713877e+01 8.562136152150e+00 0.0 
8.562136152150e+00 -2.146920391624e+02 0.0 
0.0 0.0 -9.311097089035e+01 
-1.053870909491e+02 6.658134748208e+00 0.0 
6.658134748208e+00 -2.313188425347e+02 0.0 
0.0 0.0 -1.006117800451e+02 
-9.174206641006e+01 9.889627272161e+00 0.0 
9.889627272161e+00 -2.092149202509e+02 0.0 
0.0 0.0 -8.988709599830e+01 
-1.100451057345e+02 4.105367536728e-01 0.0 
4.105367536728e-01 -2.733702190440e+02 0.0 
0.0 0.0 -1.146245974335e+02 
-1.259767845009e+02 4.181843326974e+00 0.0 
4.181843326974e+00 -3.094531081478e+02 0.0 
0.0 0.0 -1.302289677946e+02 
-2.832097980365e+01 1.511718558622e+00 0.0 
1.511718558622e+00 -7.983713718052e+01 0.0 
0.0 0.0 -3.204743509525e+01 
-5.515858271014e+01 1.120051532205e+01 0.0 
1.120051532205e+01 -1.243852454307e+02 0.0 
0.0 0.0 -5.346314844225e+01 
-9.748023905519e+01 2.074173090662e+00 0.0 
2.074173090662e+00 -2.148729195259e+02 0.0 
0.0 0.0 -9.330594757434e+01 
-1.272322180952e+02 1.029465478138e+01 0.0 
1.029465478138e+01 -2.941536445056e+02 0.0 
0.0 0.0 -1.260157587802e+02 
-1.288531002829e+02 2.473834967941e+00 0.0 
2.473834967941e+00 -2.967889224806e+02 0.0 
0.0 0.0 -1.272926068290e+02 
-6.921886267668e+01 8.726770641904e+00 0.0 
8.726770641904e+00 -1.476301629414e+02 0.0 
0.0 0.0 -6.465470768541e+01 
-1.255510910260e+02 3.263289756397e+00 0.0 
3.263289756397e+00 -3.082637453489e+02 0.0 
0.0 0.0 -1.297444509125e+02 
-1.243600754859e+02 3.287577974932e+00 0.0 
3.287577974932e+00 -2.840488708307e+02 0.0 
0.0 0.0 -1.221226838950e+02 
-8.254113588576e+01 1.176060941498e+00 0.0 
1.176060941498e+00 -2.131282495787e+02 0.0 
0.0 0.0 -8.830081563933e+01 
-3.509139113700e+01 -1.777823324929e-01 0.0 
-1.777823324929e-01 -9.074726498381e+01 0.0 
0.0 0.0 -3.735159683624e+01 
-2.128228922124e+01 6.495168178325e+00 0.0 
6.495168178325e+00 -6.029035606733e+01 0.0 
0.0 0.0 -2.407179358657e+01 
-4.771087949045e+01 6.195943649215e+00 0.0 
6.195943649215e+00 -1.322556378620e+02 0.0 
0.0 0.0 -5.358995520574e+01 
-8.119231368756e+01 1.000515307089e+01 0.0 
1.000515307089e+01 -1.978251736079e+02 0.0 
0.0 0.0 -8.330524618865e+01 
-9.074466991953e+01 1.621132869469e+00 0.0 
1.621132869469e+00 -2.321930495644e+02 0.0 
0.0 0.0 -9.648131584519e+01 
-1.323450720823e+02 5.378386851134e+00 0.0 
5.378386851134e+00 -3.037336119699e+02 0.0 
0.0 0.0 -1.304236052156e+02 
-1.298798882022e+02 2.994142870781e+00 0.0 
2.994142870781e+00 -3.170131598442e+02 0.0 
0.0 0.0 -1.336679144139e+02 
-1.174429569755e+02 5.858290857115e+00 0.0 
5.858290857115e+00 -2.911859450669e+02 0.0 
0.0 0.0 -1.221886706127e+02 
-1.401981178794e+01 8.599239494027e+00 0.0 
8.599239494027e+00 -2.115636326025e+01 0.0 
0.0 0.0 -1.015285251446e+01 
-7.012767785286e+01 2.305459569440e+00 0.0 
2.305459569440e+00 -1.453494433365e+02 0.0 
0.0 0.0 -6.424313635679e+01 
-1.342265630612e+02 2.707924970773e+00 0.0 
2.707924970773e+00 -3.257725528769e+02 0.0 
0.0 0.0 -1.375997347814e+02 
-8.726600049535e+01 6.264862289523e+00 0.0 
6.264862289523e+00 -2.242225718236e+02 0.0 
0.0 0.0 -9.304657169569e+01 
-1.267806680956e+02 9.334236333197e+00 0.0 
9.334236333197e+00 -3.056334429165e+02 0.0 
0.0 0.0 -1.293242333036e+02 
-8.824168263663e+01 1.382033522867e-01 0.0 
1.382033522867e-01 -2.233531553713e+02 0.0 
0.0 0.0 -9.307845140237e+01 
-1.392326590234e+02 1.099445627148e+01 0.0 
1.099445627148e+01 -3.231882417720e+02 0.0 
0.0 0.0 -1.383262702386e+02 
-5.376711571397e+01 3.465649264946e+00 0.0 
3.465649264946e+00 -1.066002363710e+02 0.0 
0.0 0.0 -4.771020562549e+01 
-1.386224935482e+02 2.390279901243e+00 0.0 
2.390279901243e+00 -3.347704776208e+02 0.0 
0.0 0.0 -1.416178913507e+02 
-1.175012033741e+02 6.929183729051e+00 0.0 
6.929183729051e+00 -2.902899408010e+02 0.0 
0.0 0.0 -1.219373432525e+02 
-4.850051437979e+01 1.078059813497e+01 0.0 
1.078059813497e+01 -1.236209083567e+02 0.0 
0.0 0.0 -5.123642682096e+01 
-6.967414854519e+01 2.321354502649e-02 0.0 
2.321354502649e-02 -1.536646471660e+02 0.0 
0.0 0.0 -6.660163871336e+01 
-1.493755030318e+02 2.583416411639e+00 0.0 
2.583416411639e+00 -3.563932234580e+02 0.0 
0.0 0.0 -1.513306179469e+02 
-1.266865249690e+02 7.399754668210e+00 0.0 
7.399754668210e+00 -3.094094300272e+02 0.0 
0.0 0.0 -1.304287864989e+02 
-9.962823582551e+01 9.858976410108e+00 0.0 
9.858976410108e+00 -2.283772814199e+02 0.0 
0.0 0.0 -9.800165517361e+01 
-8.294978128616e+01 5.336186700771e+00 0.0 
5.336186700771e+00 -2.154814825168e+02 0.0 
0.0 0.0 -8.912937914089e+01 
-5.790914958170e+01 1.829870841394e+00 0.0 
1.829870841394e+00 -1.173392520306e+02 0.0 
0.0 0.0 -5.217452048370e+01 
-9.476254649614e+01 1.520010026147e+00 0.0 
1.520010026147e+00 -2.409243874336e+02 0.0 
0.0 0.0 -1.003060801789e+02 
-1.011488982198e+02 8.140037513148e+00 0.0 
8.140037513148e+00 -2.234226450942e+02 0.0 
0.0 0.0 -9.697146299420e+01 
-1.384765073965e+02 4.558373057139e+00 0.0 
4.558373057139e+00 -3.215098130197e+02 0.0 
0.0 0.0 -1.375958961249e+02 
-1.309244869717e+02 8.157035303622e+00 0.0 
8.157035303622e+00 -3.174373030483e+02 0.0 
0.0 0.0 -1.341085370060e+02 
-1.016729160697e+02 3.955901597804e+00 0.0 
3.955901597804e+00 -2.220337818201e+02 0.0 
0.0 0.0 -9.671200936692e+01 
-9.041971126530e+01 1.061843809089e+00 0.0 
1.061843809089e+00 -2.305092016519e+02 0.0 
0.0 0.0 -9.587867387516e+01 
-1.060970105400e+02 9.819021690193e+00 0.0 
9.819021690193e+00 -2.543234581713e+02 0.0 
0.0 0.0 -1.077261406134e+02 
-1.987474941350e+01 -5.243087648799e-01 0.0 
-5.243087648799e-01 -5.024290513503e+01 0.0 
0.0 0.0 -2.063529636456e+01 
-6.209327244710e+01 2.729524603075e+00 0.0 
2.729524603075e+00 -1.260635966071e+02 0.0 
0.0 0.0 -5.604706071627e+01 
-9.432539714961e+01 9.970586223272e-01 0.0 
9.970586223272e-01 -2.390964048427e+02 0.0 
0.0 0.0 -9.962654059770e+01 
-5.156427237742e+01 5.300047733893e+00 0.0 
5.300047733893e+00 -1.421777823519e+02 0.0 
0.0 0.0 -5.772261641881e+01 
-8.695312766382e+01 4.848611631907e+00 0.0 
4.848611631907e+00 -2.249153027393e+02 0.0 
0.0 0.0 -9.316052912094e+01 
-1.401657627047e+02 1.094616801116e+01 0.0 
1.094616801116e+01 -3.307104119993e+02 0.0 
0.0 0.0 -1.408628524112e+02 
-9.823773066203e+01 9.109919142804e-01 0.0 
9.109919142804e-01 -2.476816374344e+02 0.0 
0.0 0.0 -1.033758104289e+02 
-5.918470851834e+01 5.812638566062e+00 0.0 
5.812638566062e+00 -1.600228179205e+02 0.0 
0.0 0.0 -6.536225793166e+01 
-1.021467053487e+02 7.971222265580e-01 0.0 
7.971222265580e-01 -2.562144488940e+02 0.0 
0.0 0.0 -1.071083462728e+02 
-4.955486431524e+01 2.236333872131e+00 0.0 
2.236333872131e+00 -9.790110776303e+01 0.0 
0.0 0.0 -4.383679162348e+01 
-1.055880270031e+02 4.695912300875e+00 0.0 
4.695912300875e+00 -2.315565545999e+02 0.0 
0.0 0.0 -1.007433744809e+02 
-1.060774459769e+02 6.598606616709e-01 0.0 
6.598606616709e-01 -2.646803800562e+02 0.0 
0.0 0.0 -1.108273478099e+02 
-1.088352388526e+02 8.452811679863e+00 0.0 
8.452811679863e+00 -2.429120468208e+02 0.0 
0.0 0.0 -1.051241857020e+02 
-2.088219035939e+01 -7.237550987848e-01 0.0 
-7.237550987848e-01 -5.256616833601e+01 0.0 
0.0 0.0 -2.163450760862e+01 
-1.030765577175e+02 1.004509161126e+01 0.0 
1.004509161126e+01 -2.394638254568e+02 0.0 
0.0 0.0 -1.023621149523e+02 
-1.374111787214e+02 7.306332148339e-01 0.0 
7.306332148339e-01 -3.316915940327e+02 0.0 
0.0 0.0 -1.403308318262e+02 
-5.942142641002e+01 3.228408867200e-01 0.0 
3.228408867200e-01 -1.580337035093e+02 0.0 
0.0 0.0 -6.483653897579e+01 
-9.104416560313e+01 4.431456456061e+00 0.0 
4.431456456061e+00 -2.343064983230e+02 0.0 
0.0 0.0 -9.720519917785e+01 
-1.133102140997e+02 5.283496439917e+00 0.0 
5.283496439917e+00 -2.514391625819e+02 0.0 
0.0 0.0 -1.090248130045e+02 
-4.090469073469e+01 3.009672739618e+00 0.0 
3.009672739618e+00 -7.825821935695e+01 0.0 
0.0 0.0 -3.534887302749e+01 
-9.956001222352e+01 4.901509154025e+00 0.0 
4.901509154025e+00 -2.530140161438e+02 0.0 
0.0 0.0 -1.053722085102e+02 
-1.164835669107e+02 8.794526629806e+00 0.0 
8.794526629806e+00 -2.624549207795e+02 0.0 
0.0 0.0 -1.132815463071e+02 
-1.066666108168e+02 1.007355324920e+01 0.0 
1.007355324920e+01 -2.506199306297e+02 0.0 
0.0 0.0 -1.067859624339e+02 
-8.939429438004e+01 9.871420453107e+00 0.0 
9.871420453107e+00 -2.164641911944e+02 0.0 
0.0 0.0 -9.135754567233e+01 
-1.083681459397e+02 5.370683106330e+00 0.0 
5.370683106330e+00 -2.720074117762e+02 0.0 
0.0 0.0 -1.137126673148e+02 
-4.520560613340e+01 4.597331226494e+00 0.0 
4.597331226494e+00 -8.723177949147e+01 0.0 
0.0 0.0 -3.933121568746e+01 
-4.443044593833e+01 -9.101457902644e-01 0.0 
-9.101457902644e-01 -1.171845155648e+02 0.0 
0.0 0.0 -4.808448845093e+01 
-3.740340653422e+01 -1.137609005247e+00 0.0 
-1.137609005247e+00 -9.799495737661e+01 0.0 
0.0 0.0 -4.021950917325e+01 
-6.305236547193e+01 5.068849899179e+00 0.0 
5.068849899179e+00 -1.696997140071e+02 0.0 
0.0 0.0 -6.942562384370e+01 
-1.204085638193e+02 8.545535905748e+00 0.0 
8.545535905748e+00 -2.715100867593e+02 0.0 
0.0 0.0 -1.171755951736e+02 
-2.591104906589e+01 -2.702325673537e-01 0.0 
-2.702325673537e-01 -6.673997206677e+01 0.0 
0.0 0.0 -2.739530633980e+01 
-1.132152097112e+02 6.218957358402e+00 0.0 
6.218957358402e+00 -2.508860941346e+02 0.0 
0.0 0.0 -1.088303911537e+02 
-2.772881174936e+01 -1.305294016241e+00 0.0 
-1.305294016241e+00 -7.063745239731e+01 0.0 
0.0 0.0 -2.910987924400e+01 
-5.929929469426e+01 3.891015726308e+00 0.0 
3.891015726308e+00 -1.611663168404e+02 0.0 
0.0 0.0 -6.573968346040e+01 
-1.191859295660e+02 1.017126490761e+01 0.0 
1.017126490761e+01 -2.817809169513e+02 0.0 
0.0 0.0 -1.198900539552e+02 
-9.211729355208e+01 2.851246119088e-01 0.0 
2.851246119088e-01 -2.074857991939e+02 0.0 
0.0 0.0 -8.948092782380e+01 
-6.313416641308e+01 3.340091221373e+00 0.0 
3.340091221373e+00 -1.702530084951e+02 0.0 
0.0 0.0 -6.961615247245e+01 
-4.266654550177e+01 -1.849425423988e-01 0.0 
-1.849425423988e-01 -1.102670599102e+02 0.0 
0.0 0.0 -4.548008162359e+01 
-5.947949594197e+01 2.302446146939e+00 0.0 
2.302446146939e+00 -1.610843104336e+02 0.0 
0.0 0.0 -6.576914191268e+01 
-9.767184737366e+01 9.794736311228e+00 0.0 
9.794736311228e+00 -2.352514975136e+02 0.0 
0.0 0.0 -9.947700346617e+01 
-6.326002112514e+01 1.963202618405e+00 0.0 
1.963202618405e+00 -1.698034049854e+02 0.0 
0.0 0.0 -6.951902783316e+01 
-5.961039942383e+01 1.127722777870e+00 0.0 
1.127722777870e+00 -1.600863526851e+02 0.0 
0.0 0.0 -6.550902563269e+01 
-1.296238708320e+02 1.435170991556e+00 0.0 
1.435170991556e+00 -3.003165844434e+02 0.0 
0.0 0.0 -1.285821365826e+02 
-6.325836921133e+01 9.493616953276e-01 0.0 
9.493616953276e-01 -1.684415866131e+02 0.0 
0.0 0.0 -6.910998674734e+01 
-1.368650733862e+02 4.621119774373e-01 0.0 
4.621119774373e-01 -3.188248652563e+02 0.0 
0.0 0.0 -1.363069815927e+02 
-1.578364046370e+02 8.865911726513e-01 0.0 
8.865911726513e-01 -3.729603590383e+02 0.0 
0.0 0.0 -1.588390291026e+02 
-7.588117929938e+01 1.784981278713e-01 0.0 
1.784981278713e-01 -1.686001506595e+02 0.0 
0.0 0.0 -7.294439898766e+01 
-3.121634298089e+01 3.444117311652e+00 0.0 
3.444117311652e+00 -5.774758050342e+01 0.0 
0.0 0.0 -2.628917704529e+01 
-1.449117660018e+01 1.781145219951e-02 0.0 
1.781145219951e-02 -1.698693382807e+01 0.0 
0.0 0.0 -9.307985657907e+00 
-3.728039936897e+01 7.158899286183e+00 0.0 
7.158899286183e+00 -6.940170982005e+01 0.0 
0.0 0.0 -3.160463275671e+01 
-5.221859777902e+01 -1.664619436427e-01 0.0 
-1.664619436427e-01 -1.394263024421e+02 0.0 
0.0 0.0 -5.709347006633e+01 
-1.129216488563e+02 7.148273813198e+00 0.0 
7.148273813198e+00 -2.507654292119e+02 0.0 
0.0 0.0 -1.087061234205e+02 
-7.628883880313e+01 4.804382274593e-02 0.0 
4.804382274593e-02 -1.693585049034e+02 0.0 
0.0 0.0 -7.329420311195e+01 
-4.842917128138e+01 -6.220057674178e-01 0.0 
-6.220057674178e-01 -1.285459672805e+02 0.0 
0.0 0.0 -5.269254156857e+01 
-1.355333820320e+02 8.074174357363e+00 0.0 
8.074174357363e+00 -3.110218781527e+02 0.0 
0.0 0.0 -1.335665780554e+02 
-1.470361634006e+02 1.195194761702e+01 0.0 
1.195194761702e+01 -3.437612820407e+02 0.0 
0.0 0.0 -1.468392336324e+02 
-1.038151421791e+02 3.250289441037e-01 0.0 
3.250289441037e-01 -2.359967550377e+02 0.0 
0.0 0.0 -1.015435691650e+02 
-1.306647538148e+02 9.047522823464e+00 0.0 
9.047522823464e+00 -3.150374489097e+02 0.0 
0.0 0.0 -1.333106608173e+02 
-1.106367843371e+02 1.002339385555e+01 0.0 
1.002339385555e+01 -2.622520809532e+02 0.0 
0.0 0.0 -1.114666595871e+02 
-1.223994101383e+02 2.818787831954e-01 0.0 
2.818787831954e-01 -2.826417050489e+02 0.0 
0.0 0.0 -1.211123345562e+02 
-6.952692904820e+01 3.444352042969e-01 0.0 
3.444352042969e-01 -1.522765320777e+02 0.0 
0.0 0.0 -6.614103833776e+01 
-1.536879960455e+01 -1.100418998214e+00 0.0 
-1.100418998214e+00 -3.295772893147e+01 0.0 
0.0 0.0 -1.422098573629e+01 
-1.146306178520e+02 2.196458914879e-01 0.0 
2.196458914879e-01 -2.833301675048e+02 0.0 
0.0 0.0 -1.189882356071e+02 
-2.259646781681e+01 5.062147813441e+00 0.0 
5.062147813441e+00 -3.836462029083e+01 0.0 
0.0 0.0 -1.788832643229e+01 
-2.653238273144e+01 1.006320484276e+01 0.0 
1.006320484276e+01 -4.943903346563e+01 0.0 
0.0 0.0 -2.239142485912e+01 
-1.958465931484e+01 1.143011147187e+01 0.0 
1.143011147187e+01 -4.267253891905e+01 0.0 
0.0 0.0 -1.827715947017e+01 
-5.250606670553e+01 -3.488196840636e-01 0.0 
-3.488196840636e-01 -1.361520930400e+02 0.0 
0.0 0.0 -5.619744792365e+01 
-2.090723540715e+01 -1.330456495679e+00 0.0 
-1.330456495679e+00 -4.908826614958e+01 0.0 
0.0 0.0 -2.059865046702e+01 
-1.747997038769e+01 8.527811338959e+00 0.0 
8.527811338959e+00 -2.789841096333e+01 0.0 
0.0 0.0 -1.321351440531e+01 
-1.430810408467e+02 1.023180905641e+01 0.0 
1.023180905641e+01 -3.401710968500e+02 0.0 
0.0 0.0 -1.445756413090e+02 
-7.797392640452e+01 7.845840928354e-01 0.0 
7.845840928354e-01 -1.700215069324e+02 0.0 
0.0 0.0 -7.399863000109e+01 
-1.232474853833e+02 1.041213121245e+01 0.0 
1.041213121245e+01 -2.892405184135e+02 0.0 
0.0 0.0 -1.233464011391e+02 
-1.499430588713e+01 1.034307539591e+01 0.0 
1.034307539591e+01 -2.446894929905e+01 0.0 
0.0 0.0 -1.143897655586e+01 
-1.314667781031e+02 3.710711307714e+00 0.0 
3.710711307714e+00 -3.030281071034e+02 0.0 
0.0 0.0 -1.299484655620e+02 
-1.406632968600e+02 1.127289494082e+01 0.0 
1.127289494082e+01 -3.300344513197e+02 0.0 
0.0 0.0 -1.408093244539e+02 
-1.574089983550e+02 4.952372170441e+00 0.0 
4.952372170441e+00 -3.721719987090e+02 0.0 
0.0 0.0 -1.584742991192e+02 
-1.316230638311e+02 1.073237516896e+01 0.0 
1.073237516896e+01 -3.088121325268e+02 0.0 
0.0 0.0 -1.317305589074e+02 
-1.613334674080e+01 8.927113957049e+00 0.0 
8.927113957049e+00 -3.738264749119e+01 0.0 
0.0 0.0 -1.565479826960e+01 
-8.641927368161e+01 1.792090394489e+00 0.0 
1.792090394489e+00 -1.871237191625e+02 0.0 
0.0 0.0 -8.166289785323e+01 
-1.378990768548e+02 1.028535495433e+01 0.0 
1.028535495433e+01 -3.186941823546e+02 0.0 
0.0 0.0 -1.365779777628e+02 
-1.102879599893e+02 4.803299142297e-01 0.0 
4.803299142297e-01 -2.515681730435e+02 0.0 
0.0 0.0 -1.081568399098e+02 
-1.586468001209e+02 3.612175660638e+00 0.0 
3.612175660638e+00 -3.744091298094e+02 0.0 
0.0 0.0 -1.595167789791e+02 
-7.770446214870e+01 8.256271003473e-01 0.0 
8.256271003473e-01 -1.678715065734e+02 0.0 
0.0 0.0 -7.327279061662e+01 
-1.304952890566e+02 8.718909137543e-01 0.0 
8.718909137543e-01 -3.028087706364e+02 0.0 
0.0 0.0 -1.295912179079e+02 
-2.606175908849e+01 3.337765240286e-01 0.0 
3.337765240286e-01 -7.103721054806e+01 0.0 
0.0 0.0 -2.872969089096e+01 
-1.305154675588e+02 3.976946247863e-01 0.0 
3.976946247863e-01 -3.029823570978e+02 0.0 
0.0 0.0 -1.296493473970e+02 
-1.204515046949e+02 7.681879161836e+00 0.0 
7.681879161836e+00 -2.705105745738e+02 0.0 
0.0 0.0 -1.168886237806e+02 
-8.661521164884e+01 2.305366208421e-01 0.0 
2.305366208421e-01 -1.933428316634e+02 0.0 
0.0 0.0 -8.358741299368e+01 
-8.689074602847e+01 2.131387686971e+00 0.0 
2.131387686971e+00 -1.867775080014e+02 0.0 
0.0 0.0 -8.170047620896e+01 
-1.515981200657e+02 1.274739551789e+00 0.0 
1.274739551789e+00 -3.603832347064e+02 0.0 
0.0 0.0 -1.531944064316e+02 
-1.341450315115e+02 6.946911001399e+00 0.0 
6.946911001399e+00 -3.080641829218e+02 0.0 
0.0 0.0 -1.322627643300e+02 
-1.497911082182e+01 6.668872338486e+00 0.0 
6.668872338486e+00 -3.367544980998e+01 0.0 
0.0 0.0 -1.419636818954e+01 
-1.035966038368e+02 2.574515582541e-01 0.0 
2.574515582541e-01 -2.349281730800e+02 0.0 
0.0 0.0 -1.011574330751e+02 
-6.559412756946e+01 -9.247019104050e-02 0.0 
-9.247019104050e-02 -1.694122858381e+02 0.0 
0.0 0.0 -7.010192402227e+01 
-1.654161210508e+01 -5.195761790326e-01 0.0 
-5.195761790326e-01 -3.095046202064e+01 0.0 
0.0 0.0 -1.404006200868e+01 
-1.482784597369e+02 5.518986006522e+00 0.0 
5.518986006522e+00 -3.543699294089e+02 0.0 
0.0 0.0 -1.503945167437e+02 
-1.273760599585e+02 8.171134807452e+00 0.0 
8.171134807452e+00 -2.892398308886e+02 0.0 
0.0 0.0 -1.245847672541e+02 
-1.506047564268e+02 2.018343290059e+00 0.0 
2.018343290059e+00 -3.588235738849e+02 0.0 
0.0 0.0 -1.524284990935e+02 
-1.932252037859e+01 -2.694994039520e-01 0.0 
-2.694994039520e-01 -4.977804291704e+01 0.0 
0.0 0.0 -2.033016898869e+01 
-1.395945266206e+01 -9.888577459984e-01 0.0 
-9.888577459984e-01 -3.110958528934e+01 0.0 
0.0 0.0 -1.320262987527e+01 
-1.487492334249e+02 6.891608777048e+00 0.0 
6.891608777048e+00 -3.550077327150e+02 0.0 
0.0 0.0 -1.507270898420e+02 
-1.373731992161e+02 9.201911091535e+00 0.0 
9.201911091535e+00 -3.162683452653e+02 0.0 
0.0 0.0 -1.356924633444e+02 
-2.978145287288e+01 -1.802420690829e-02 0.0 
-1.802420690829e-02 -8.048969401050e+01 0.0 
0.0 0.0 -3.268134406501e+01 
-1.386476206034e+02 3.163679421905e+00 0.0 
3.163679421905e+00 -3.228204476147e+02 0.0 
0.0 0.0 -1.380404204654e+02 
-1.335797505968e+01 4.641494945956e+00 0.0 
4.641494945956e+00 -2.416675405715e+01 0.0 
0.0 0.0 -1.093922272010e+01 
-6.908689754257e+01 1.518934239087e-01 0.0 
1.518934239087e-01 -1.502342492337e+02 0.0 
0.0 0.0 -6.539634403288e+01 
-1.366990766901e+01 -5.593289091892e-01 0.0 
-5.593289091892e-01 -3.230944812582e+01 0.0 
0.0 0.0 -1.356957634312e+01 
-1.588185124815e+02 3.163666445548e+00 0.0 
3.163666445548e+00 -3.747022942005e+02 0.0 
0.0 0.0 -1.596562420046e+02 
-1.313460058864e+02 2.204465809771e+00 0.0 
2.204465809771e+00 -3.041664403525e+02 0.0 
0.0 0.0 -1.302537338717e+02 
-7.268206493128e+01 -1.850587872629e-01 0.0 
-1.850587872629e-01 -1.864682985544e+02 0.0 
0.0 0.0 -7.734510904571e+01 
-7.375088276766e+01 1.185288539192e+00 0.0 
1.185288539192e+00 -1.561525011153e+02 0.0 
0.0 0.0 -6.857101516489e+01 
-4.778642793954e+01 -3.424835225120e-01 0.0 
-3.424835225120e-01 -1.235518405437e+02 0.0 
0.0 0.0 -5.100148054498e+01 
-1.338008206887e+02 1.051010474303e+01 0.0 
1.051010474303e+01 -3.106039441999e+02 0.0 
0.0 0.0 -1.329214294666e+02 
-1.978663175119e+01 -1.367975080303e+00 0.0 
-1.367975080303e+00 -4.617397556055e+01 0.0 
0.0 0.0 -1.938818219352e+01 
-1.317930025877e+02 1.750159112793e+00 0.0 
1.750159112793e+00 -3.058202958933e+02 0.0 
0.0 0.0 -1.308839895443e+02 
-1.480448909483e+02 8.217979497421e+00 0.0 
8.217979497421e+00 -3.529705793656e+02 0.0 
0.0 0.0 -1.499046410942e+02 
-1.339912507171e+02 5.018272009571e+00 0.0 
5.018272009571e+00 -3.087046859489e+02 0.0 
0.0 0.0 -1.324087809998e+02 
-1.520124991536e+02 1.164765567469e+01 0.0 
1.164765567469e+01 -3.574560606967e+02 0.0 
0.0 0.0 -1.524405679551e+02 
-1.534535109124e+01 9.437994873532e-01 0.0 
9.437994873532e-01 -2.844724296414e+01 0.0 
0.0 0.0 -1.283963252354e+01 
-1.421727960555e+02 1.151386426527e+01 0.0 
1.151386426527e+01 -3.326544003524e+02 0.0 
0.0 0.0 -1.420481589224e+02 
-1.385418005308e+02 8.476070859603e+00 0.0 
8.476070859603e+00 -3.331635643528e+02 0.0 
0.0 0.0 -1.411116094651e+02 
-6.917257354302e+01 -1.164249590779e-01 0.0 
-1.164249590779e-01 -1.520765558470e+02 0.0 
0.0 0.0 -6.597473881701e+01 
-1.337950914161e+02 5.816902935616e+00 0.0 
5.816902935616e+00 -3.073699093254e+02 0.0 
0.0 0.0 -1.319495002225e+02 
-5.878990992754e+01 -3.582240124943e-01 0.0 
-3.582240124943e-01 -1.518134174241e+02 0.0 
0.0 0.0 -6.278099820551e+01 
-2.589894778694e+01 -6.042282029365e-01 0.0 
-6.042282029365e-01 -6.578374529334e+01 0.0 
0.0 0.0 -2.710480792409e+01 
-1.376722142049e+02 3.163387914044e-01 0.0 
3.163387914044e-01 -3.208745514231e+02 0.0 
0.0 0.0 -1.371640296884e+02 
-6.107090489640e+00 -1.990344971257e-02 0.0 
-1.990344971257e-02 -1.412714275779e+01 0.0 
0.0 0.0 -5.982621048894e+00 
-6.837569930160e+01 9.650091259537e-02 0.0 
9.650091259537e-02 -1.509795410577e+02 0.0 
0.0 0.0 -6.540657210779e+01 
-1.600030531006e+02 2.352425132090e-01 0.0 
2.352425132090e-01 -3.771840696692e+02 0.0 
0.0 0.0 -1.607561368310e+02 
-2.472958027987e+01 -4.920723249977e-01 0.0 
-4.920723249977e-01 -6.287012154158e+01 0.0 
0.0 0.0 -2.587991054643e+01 
-8.200820935976e+01 2.085437308518e-01 0.0 
2.085437308518e-01 -1.829592152359e+02 0.0 
0.0 0.0 -7.909022737871e+01 
-1.372027304605e+02 8.759215054966e+00 0.0 
8.759215054966e+00 -3.155479028828e+02 0.0 
0.0 0.0 -1.354251900030e+02 
-9.028292803290e+01 2.991322090206e-02 0.0 
2.991322090206e-02 -2.283511994257e+02 0.0 
0.0 0.0 -9.519023823757e+01 
-1.179730059975e+02 5.898229922625e-01 0.0 
5.898229922625e-01 -2.713649231259e+02 0.0 
0.0 0.0 -1.164013787370e+02 
-2.466053993549e+01 -1.216695742412e+00 0.0 
-1.216695742412e+00 -6.158153896718e+01 0.0 
0.0 0.0 -2.547262367080e+01 
-1.411463622718e+01 -4.244059985551e-01 0.0 
-4.244059985551e-01 -1.448990088155e+01 0.0 
0.0 0.0 -8.598633770153e+00 
-9.641786313806e+01 3.581974415402e-01 0.0 
3.581974415402e-01 -2.178037612508e+02 0.0 
0.0 0.0 -9.386648731664e+01 
-1.427160120400e+02 1.118273386217e+01 0.0 
1.118273386217e+01 -3.359425785586e+02 0.0 
0.0 0.0 -1.431975771796e+02 
-1.336835782635e+02 4.182293681412e+00 0.0 
4.182293681412e+00 -3.086971737983e+02 0.0 
0.0 0.0 -1.323142256185e+02 
-9.099886124423e+01 1.932950935332e-01 0.0 
1.932950935332e-01 -2.041353468875e+02 0.0 
0.0 0.0 -8.814026243951e+01 
-1.779694160137e+01 6.040305195122e+00 0.0 
6.040305195122e+00 -4.675806431658e+01 0.0 
0.0 0.0 -1.896650177539e+01 
-1.330913505899e+02 8.581385742062e+00 0.0 
8.581385742062e+00 -3.045609599115e+02 0.0 
0.0 0.0 -1.308956931504e+02 
-7.893360584684e+01 7.612323525225e-02 0.0 
7.612323525225e-02 -2.012124712263e+02 0.0 
0.0 0.0 -8.364382312195e+01 
-1.335077884267e+02 1.020256226475e+01 0.0 
1.020256226475e+01 -3.076453031518e+02 0.0 
0.0 0.0 -1.319459274735e+02 
-1.376880923434e+02 9.582199952143e+00 0.0 
9.582199952143e+00 -3.297794481631e+02 0.0 
0.0 0.0 -1.398402621520e+02 
-1.215863036032e+01 4.980693847465e+00 0.0 
4.980693847465e+00 -1.247565162351e+01 0.0 
0.0 0.0 -7.257363572254e+00 
-9.755014215337e+01 1.994736235490e-02 0.0 
1.994736235490e-02 -2.452157754232e+02 0.0 
0.0 0.0 -1.024297752730e+02 
-1.324435727483e+01 -5.569700091961e-01 0.0 
-5.569700091961e-01 -3.027182732378e+01 0.0 
0.0 0.0 -1.275640692909e+01 
-1.513766389261e+02 4.367851809086e+00 0.0 
4.367851809086e+00 -3.604923031150e+02 0.0 
0.0 0.0 -1.531606826123e+02 
-8.233933103710e+01 1.347575838606e-01 0.0 
1.347575838606e-01 -2.096342989528e+02 0.0 
0.0 0.0 -8.719208899696e+01 
-4.655998352844e+00 1.754792230522e+00 0.0 
1.754792230522e+00 -7.663498263091e+00 0.0 
0.0 0.0 -3.213739852687e+00 
-8.095620832549e+00 9.665667294671e-02 0.0 
9.665667294671e-02 -9.365818519510e+00 0.0 
0.0 0.0 -4.838431805618e+00 
-1.605330606857e+01 1.982042774692e+00 0.0 
1.982042774692e+00 -2.858987953215e+01 0.0 
0.0 0.0 -1.299295568022e+01 
-1.652979410759e+01 -2.132250933115e-02 0.0 
-2.132250933115e-02 -3.008770943600e+01 0.0 
0.0 0.0 -1.358525106308e+01 
-2.619940149496e+01 1.589014432416e+00 0.0 
1.589014432416e+00 -4.850260370884e+01 0.0 
0.0 0.0 -2.201060156114e+01 
-2.436117204652e+01 -2.649171803312e-02 0.0 
-2.649171803312e-02 -4.851722293268e+01 0.0 
0.0 0.0 -2.146351849376e+01 
-3.541358572100e+01 1.267569050194e+00 0.0 
1.267569050194e+00 -6.805179042558e+01 0.0 
0.0 0.0 -3.063961284397e+01 
-3.326214437407e+01 -2.329109595929e-02 0.0 
-2.329109595929e-02 -6.915349096177e+01 0.0 
0.0 0.0 -3.032469060075e+01 
-4.437605061480e+01 1.029078153013e+00 0.0 
1.029078153013e+00 -8.765570224214e+01 0.0 
0.0 0.0 -3.920952585708e+01 
-4.122615241023e+01 -1.193076147085e-02 0.0 
-1.193076147085e-02 -8.760242679298e+01 0.0 
0.0 0.0 -3.824857376096e+01 
-5.296704802212e+01 9.252341180846e-01 0.0 
9.252341180846e-01 -1.071103975703e+02 0.0 
0.0 0.0 -4.762323367772e+01 
-5.015360035973e+01 -5.661130989408e-02 0.0 
-5.661130989408e-02 -1.082536455556e+02 0.0 
0.0 0.0 -4.712217377461e+01 
-6.132533069898e+01 9.269202065061e-01 0.0 
9.269202065061e-01 -1.266715912796e+02 0.0 
0.0 0.0 -5.599907659357e+01 
-5.792444996238e+01 -1.586095601557e-01 0.0 
-1.586095601557e-01 -1.266535814069e+02 0.0 
0.0 0.0 -5.497340941079e+01 

TENSORS node_materi_strain_total float
-1.132375533347e-05 1.476453225411e-06 0.0 
1.476453225411e-06 1.075230550190e-04 0.0 
0.0 0.0 0.0 
-2.710799484661e-04 -1.767732858995e-05 0.0 
-1.767732858995e-05 7.168336650618e-03 0.0 
0.0 0.0 0.0 
3.787016910350e-05 3.622808688019e-05 0.0 
3.622808688019e-05 8.249097828755e-03 0.0 
0.0 0.0 0.0 
-1.698756962221e-05 -4.172357237663e-06 0.0 
-4.172357237663e-06 1.105664426596e-02 0.0 
0.0 0.0 0.0 
7.948643038066e-06 -5.260594034162e-06 0.0 
-5.260594034162e-06 3.047755964298e-04 0.0 
0.0 0.0 0.0 
4.950896656871e-05 1.012290552273e-05 0.0 
1.012290552273e-05 6.964176847234e-04 0.0 
0.0 0.0 0.0 
1.075895711582e-04 1.057467892153e-05 0.0 
1.057467892153e-05 1.057303334953e-03 0.0 
0.0 0.0 0.0 
1.601712006589e-04 9.429486064187e-06 0.0 
9.429486064187e-06 1.468058379992e-03 0.0 
0.0 0.0 0.0 
2.123596397268e-04 7.182009777397e-06 0.0 
7.182009777397e-06 1.865987545064e-03 0.0 
0.0 0.0 0.0 
2.661913724532e-04 7.075201506300e-06 0.0 
7.075201506300e-06 2.258711477296e-03 0.0 
0.0 0.0 0.0 
3.131937273194e-04 8.545682726698e-06 0.0 
8.545682726698e-06 2.654823437497e-03 0.0 
0.0 0.0 0.0 
3.527327842021e-04 8.624852393535e-06 0.0 
8.624852393535e-06 3.055986829182e-03 0.0 
0.0 0.0 0.0 
3.854131425094e-04 9.995120136683e-06 0.0 
9.995120136683e-06 3.462533951828e-03 0.0 
0.0 0.0 0.0 
4.059198520178e-04 1.423472954824e-05 0.0 
1.423472954824e-05 3.881476631323e-03 0.0 
0.0 0.0 0.0 
4.125387271294e-04 2.217438801826e-05 0.0 
2.217438801826e-05 4.320891090546e-03 0.0 
0.0 0.0 0.0 
4.197472062536e-04 2.437859709720e-05 0.0 
2.437859709720e-05 4.749901291588e-03 0.0 
0.0 0.0 0.0 
4.169944416532e-04 3.324596993824e-05 0.0 
3.324596993824e-05 5.146241198123e-03 0.0 
0.0 0.0 0.0 
3.936255166886e-04 1.902892531499e-05 0.0 
1.902892531499e-05 5.595254621037e-03 0.0 
0.0 0.0 0.0 
3.589120631884e-04 2.018183523603e-05 0.0 
2.018183523603e-05 6.064282374590e-03 0.0 
0.0 0.0 0.0 
3.125425997933e-04 2.211201951985e-05 0.0 
2.211201951985e-05 6.527754630794e-03 0.0 
0.0 0.0 0.0 
2.517988598420e-04 2.268081629045e-05 0.0 
2.268081629045e-05 7.004835573494e-03 0.0 
0.0 0.0 0.0 
1.766756500997e-04 2.741370323214e-05 0.0 
2.741370323214e-05 7.495168539873e-03 0.0 
0.0 0.0 0.0 
1.036672965665e-04 3.202188799994e-05 0.0 
3.202188799994e-05 7.969386591858e-03 0.0 
0.0 0.0 0.0 
-1.091014493693e-05 2.673322873392e-05 0.0 
2.673322873392e-05 1.107552240116e-02 0.0 
0.0 0.0 0.0 
-1.495579121417e-05 5.012138569390e-05 0.0 
5.012138569390e-05 1.105416496826e-02 0.0 
0.0 0.0 0.0 
-1.462805733895e-05 6.539348115887e-05 0.0 
6.539348115887e-05 1.105793649886e-02 0.0 
0.0 0.0 0.0 
-1.529093213829e-05 1.054794538056e-04 0.0 
1.054794538056e-04 1.105399462376e-02 0.0 
0.0 0.0 0.0 
-1.879832811850e-05 1.252449843043e-04 0.0 
1.252449843043e-04 1.103726559221e-02 0.0 
0.0 0.0 0.0 
-1.633909623437e-05 1.562829739768e-04 0.0 
1.562829739768e-04 1.104408236489e-02 0.0 
0.0 0.0 0.0 
-1.632184866170e-05 1.883606223506e-04 0.0 
1.883606223506e-04 1.103844030901e-02 0.0 
0.0 0.0 0.0 
-2.030133169695e-05 2.212522902115e-04 0.0 
2.212522902115e-04 1.102227937907e-02 0.0 
0.0 0.0 0.0 
-1.990895939215e-05 2.512203965660e-04 0.0 
2.512203965660e-04 1.102329078538e-02 0.0 
0.0 0.0 0.0 
-1.984179155919e-05 2.998382675612e-04 0.0 
2.998382675612e-04 1.100657129914e-02 0.0 
0.0 0.0 0.0 
-2.605335441249e-05 3.339306122553e-04 0.0 
3.339306122553e-04 1.097662504234e-02 0.0 
0.0 0.0 0.0 
-2.445442465286e-05 3.793002698344e-04 0.0 
3.793002698344e-04 1.096483351362e-02 0.0 
0.0 0.0 0.0 
-2.500901494555e-05 4.279930642007e-04 0.0 
4.279930642007e-04 1.094134200647e-02 0.0 
0.0 0.0 0.0 
-2.730734355501e-05 4.764581866931e-04 0.0 
4.764581866931e-04 1.090285450804e-02 0.0 
0.0 0.0 0.0 
-2.984612337257e-05 5.264088219239e-04 0.0 
5.264088219239e-04 1.085869356026e-02 0.0 
0.0 0.0 0.0 
-3.211093011546e-05 5.811856807020e-04 0.0 
5.811856807020e-04 1.080085000731e-02 0.0 
0.0 0.0 0.0 
-3.559074541667e-05 6.344390359415e-04 0.0 
6.344390359415e-04 1.074572232088e-02 0.0 
0.0 0.0 0.0 
-3.407287908756e-05 6.948581017879e-04 0.0 
6.948581017879e-04 1.069202667073e-02 0.0 
0.0 0.0 0.0 
-3.264200156446e-05 7.513969900063e-04 0.0 
7.513969900063e-04 1.062841130759e-02 0.0 
0.0 0.0 0.0 
-2.866327892070e-05 8.081456473450e-04 0.0 
8.081456473450e-04 1.055574483167e-02 0.0 
0.0 0.0 0.0 
-2.551744506522e-05 8.634413253518e-04 0.0 
8.634413253518e-04 1.046399780168e-02 0.0 
0.0 0.0 0.0 
-2.686829919603e-05 9.106783164859e-04 0.0 
9.106783164859e-04 1.036258113026e-02 0.0 
0.0 0.0 0.0 
-2.177154440079e-05 9.552169405869e-04 0.0 
9.552169405869e-04 1.025480426476e-02 0.0 
0.0 0.0 0.0 
-1.827114088337e-05 9.916068463009e-04 0.0 
9.916068463009e-04 1.013841879721e-02 0.0 
0.0 0.0 0.0 
-1.475454550022e-05 1.021024644683e-03 0.0 
1.021024644683e-03 1.002004152560e-02 0.0 
0.0 0.0 0.0 
-8.596665604969e-06 1.043224479104e-03 0.0 
1.043224479104e-03 9.899106467324e-03 0.0 
0.0 0.0 0.0 
-3.745347630072e-06 1.053613684923e-03 0.0 
1.053613684923e-03 9.773454750483e-03 0.0 
0.0 0.0 0.0 
3.926214479015e-06 1.054748961686e-03 0.0 
1.054748961686e-03 9.645028226179e-03 0.0 
0.0 0.0 0.0 
6.747038706179e-06 1.045008949004e-03 0.0 
1.045008949004e-03 9.512630367028e-03 0.0 
0.0 0.0 0.0 
8.145194395774e-06 1.023881169322e-03 0.0 
1.023881169322e-03 9.405083924024e-03 0.0 
0.0 0.0 0.0 
1.894367869200e-05 1.005708641660e-03 0.0 
1.005708641660e-03 9.272414297281e-03 0.0 
0.0 0.0 0.0 
2.267469164578e-05 9.653271421944e-04 0.0 
9.653271421944e-04 9.134448609438e-03 0.0 
0.0 0.0 0.0 
2.595461997886e-05 9.176575533801e-04 0.0 
9.176575533801e-04 9.017854655031e-03 0.0 
0.0 0.0 0.0 
2.747168505472e-05 8.687794158723e-04 0.0 
8.687794158723e-04 8.924560317214e-03 0.0 
0.0 0.0 0.0 
3.196311157764e-05 8.178161622562e-04 0.0 
8.178161622562e-04 8.831231009683e-03 0.0 
0.0 0.0 0.0 
2.705790223974e-05 7.596347284451e-04 0.0 
7.596347284451e-04 8.746207675824e-03 0.0 
0.0 0.0 0.0 
3.583309448711e-05 7.035807314076e-04 0.0 
7.035807314076e-04 8.671744183376e-03 0.0 
0.0 0.0 0.0 
3.071321686369e-05 6.429457400129e-04 0.0 
6.429457400129e-04 8.594953973179e-03 0.0 
0.0 0.0 0.0 
3.804137070588e-05 5.829150601627e-04 0.0 
5.829150601627e-04 8.526932729702e-03 0.0 
0.0 0.0 0.0 
3.266165485642e-05 5.229060686855e-04 0.0 
5.229060686855e-04 8.463834022369e-03 0.0 
0.0 0.0 0.0 
2.775121384335e-05 4.649147147984e-04 0.0 
4.649147147984e-04 8.427114582956e-03 0.0 
0.0 0.0 0.0 
3.075584209000e-05 4.122723898026e-04 0.0 
4.122723898026e-04 8.410175914567e-03 0.0 
0.0 0.0 0.0 
3.465750882614e-05 3.557423843153e-04 0.0 
3.557423843153e-04 8.386889980415e-03 0.0 
0.0 0.0 0.0 
3.736204873761e-05 2.943744304428e-04 0.0 
2.943744304428e-04 8.291385956653e-03 0.0 
0.0 0.0 0.0 
3.305687012278e-05 2.422559699208e-04 0.0 
2.422559699208e-04 8.322857776809e-03 0.0 
0.0 0.0 0.0 
2.670558212118e-05 1.927631569726e-04 0.0 
1.927631569726e-04 8.284879876272e-03 0.0 
0.0 0.0 0.0 
2.364220484696e-05 1.409448503443e-04 0.0 
1.409448503443e-04 8.282172935308e-03 0.0 
0.0 0.0 0.0 
2.595125391084e-05 1.007038696557e-04 0.0 
1.007038696557e-04 8.289798735496e-03 0.0 
0.0 0.0 0.0 
2.502786731159e-05 5.481998191772e-05 0.0 
5.481998191772e-05 8.282512991487e-03 0.0 
0.0 0.0 0.0 
-2.590223190292e-04 -1.163166034575e-05 0.0 
-1.163166034575e-05 7.593915498928e-03 0.0 
0.0 0.0 0.0 
-2.543961125808e-04 -1.217252768530e-05 0.0 
-1.217252768530e-05 8.017733600045e-03 0.0 
0.0 0.0 0.0 
-2.395740529370e-04 -1.089090016358e-05 0.0 
-1.089090016358e-05 8.431328240917e-03 0.0 
0.0 0.0 0.0 
-2.205986748705e-04 -1.057111253349e-05 0.0 
-1.057111253349e-05 8.833191877573e-03 0.0 
0.0 0.0 0.0 
-1.968340292524e-04 -7.893416119198e-06 0.0 
-7.893416119198e-06 9.239618148028e-03 0.0 
0.0 0.0 0.0 
-1.640845231647e-04 -7.792886501578e-06 0.0 
-7.792886501578e-06 9.641834126735e-03 0.0 
0.0 0.0 0.0 
-1.314117720666e-04 -5.672454059879e-06 0.0 
-5.672454059879e-06 1.003754047283e-02 0.0 
0.0 0.0 0.0 
-9.148831055076e-05 -5.827789773002e-06 0.0 
-5.827789773002e-06 1.042692242219e-02 0.0 
0.0 0.0 0.0 
-5.089765248449e-05 -6.673675937219e-06 0.0 
-6.673675937219e-06 1.082194061592e-02 0.0 
0.0 0.0 0.0 
-5.254359069454e-04 3.297553147249e-04 0.0 
3.297553147249e-04 3.875484296296e-04 0.0 
0.0 0.0 0.0 
-4.512397341626e-04 8.784578131813e-05 0.0 
8.784578131813e-05 7.192380451767e-03 0.0 
0.0 0.0 0.0 
-5.369414962641e-04 7.899732009065e-04 0.0 
7.899732009065e-04 1.210419081004e-03 0.0 
0.0 0.0 0.0 
-4.706821569876e-04 8.888397926769e-04 0.0 
8.888397926769e-04 2.478275288282e-03 0.0 
0.0 0.0 0.0 
-3.414100571580e-04 6.115385750076e-04 0.0 
6.115385750076e-04 3.896947571048e-03 0.0 
0.0 0.0 0.0 
-2.567827381176e-04 2.809053865057e-04 0.0 
2.809053865057e-04 4.478212121078e-03 0.0 
0.0 0.0 0.0 
-3.333945296023e-04 2.149900170592e-04 0.0 
2.149900170592e-04 4.937469686452e-03 0.0 
0.0 0.0 0.0 
-3.876289610799e-04 1.615614634836e-04 0.0 
1.615614634836e-04 5.391962911704e-03 0.0 
0.0 0.0 0.0 
-4.268461928794e-04 1.222215480633e-04 0.0 
1.222215480633e-04 5.844768284804e-03 0.0 
0.0 0.0 0.0 
-4.478919594664e-04 9.660209761852e-05 0.0 
9.660209761852e-05 6.291900650757e-03 0.0 
0.0 0.0 0.0 
-4.528453787668e-04 8.674741844475e-05 0.0 
8.674741844475e-05 6.733002237644e-03 0.0 
0.0 0.0 0.0 
-3.085056999139e-04 -1.857062000674e-05 0.0 
-1.857062000674e-05 4.336179130803e-03 0.0 
0.0 0.0 0.0 
-2.694203902411e-04 -2.992156686073e-05 0.0 
-2.992156686073e-05 4.585115138368e-03 0.0 
0.0 0.0 0.0 
-2.556208456334e-04 -2.831127191134e-05 0.0 
-2.831127191134e-05 5.005730912233e-03 0.0 
0.0 0.0 0.0 
-2.557587558168e-04 -3.452505740054e-05 0.0 
-3.452505740054e-05 5.435600697193e-03 0.0 
0.0 0.0 0.0 
-2.599043441599e-04 -2.802116377429e-05 0.0 
-2.802116377429e-05 5.867179582150e-03 0.0 
0.0 0.0 0.0 
-2.632226025892e-04 -3.279920386057e-05 0.0 
-3.279920386057e-05 6.297265444302e-03 0.0 
0.0 0.0 0.0 
-2.643867337242e-04 -2.306966019961e-05 0.0 
-2.306966019961e-05 6.723306987441e-03 0.0 
0.0 0.0 0.0 
-2.661425524843e-04 7.432892259058e-06 0.0 
7.432892259058e-06 7.109837390928e-03 0.0 
0.0 0.0 0.0 
-2.663903999685e-04 -1.132076130332e-06 0.0 
-1.132076130332e-06 7.136705836375e-03 0.0 
0.0 0.0 0.0 
-2.725243844274e-04 -1.627299937333e-06 0.0 
-1.627299937333e-06 7.140803999421e-03 0.0 
0.0 0.0 0.0 
-2.778270495582e-04 -3.559593814888e-06 0.0 
-3.559593814888e-06 7.137839087388e-03 0.0 
0.0 0.0 0.0 
-2.823691431570e-04 3.195270646621e-07 0.0 
3.195270646621e-07 7.197214003551e-03 0.0 
0.0 0.0 0.0 
-2.922482578065e-04 -4.528199823721e-07 0.0 
-4.528199823721e-07 7.150832608498e-03 0.0 
0.0 0.0 0.0 
-3.004761250086e-04 -1.165138393617e-06 0.0 
-1.165138393617e-06 7.148879374476e-03 0.0 
0.0 0.0 0.0 
-3.117622086123e-04 3.583179814869e-06 0.0 
3.583179814869e-06 7.156472961409e-03 0.0 
0.0 0.0 0.0 
-3.292045093710e-04 5.783796385061e-06 0.0 
5.783796385061e-06 7.170540865037e-03 0.0 
0.0 0.0 0.0 
-3.455007234017e-04 1.212683028487e-05 0.0 
1.212683028487e-05 7.171641500066e-03 0.0 
0.0 0.0 0.0 
-3.601125306162e-04 1.883871865644e-05 0.0 
1.883871865644e-05 7.171361844382e-03 0.0 
0.0 0.0 0.0 
-3.796780514205e-04 2.833232844157e-05 0.0 
2.833232844157e-05 7.171450647640e-03 0.0 
0.0 0.0 0.0 
-3.984540625508e-04 4.449121452519e-05 0.0 
4.449121452519e-05 7.171549300100e-03 0.0 
0.0 0.0 0.0 
-4.204894292905e-04 6.467301255239e-05 0.0 
6.467301255239e-05 7.176344130627e-03 0.0 
0.0 0.0 0.0 
-6.074555961380e-04 9.710024916029e-05 0.0 
9.710024916029e-05 4.017318484279e-04 0.0 
0.0 0.0 0.0 
-6.793931494634e-04 5.543892931699e-06 0.0 
5.543892931699e-06 4.097152586962e-04 0.0 
0.0 0.0 0.0 
-6.699688443899e-04 -3.542440247849e-05 0.0 
-3.542440247849e-05 3.888224239381e-04 0.0 
0.0 0.0 0.0 
-6.117515389946e-04 -4.370438829003e-05 0.0 
-4.370438829003e-05 3.604578815051e-04 0.0 
0.0 0.0 0.0 
-5.384349666583e-04 -5.020740098442e-05 0.0 
-5.020740098442e-05 3.382839150103e-04 0.0 
0.0 0.0 0.0 
-4.818356743222e-04 -4.507703252169e-05 0.0 
-4.507703252169e-05 3.203482772063e-04 0.0 
0.0 0.0 0.0 
-4.224097979034e-04 -4.075525364195e-05 0.0 
-4.075525364195e-05 2.965267062795e-04 0.0 
0.0 0.0 0.0 
-3.629206447879e-04 -3.767744080646e-05 0.0 
-3.767744080646e-05 2.703950413422e-04 0.0 
0.0 0.0 0.0 
-3.079766204370e-04 -3.638076891231e-05 0.0 
-3.638076891231e-05 2.470907108187e-04 0.0 
0.0 0.0 0.0 
-2.561491323495e-04 -3.421007480944e-05 0.0 
-3.421007480944e-05 2.245287666613e-04 0.0 
0.0 0.0 0.0 
-2.065553365603e-04 -3.066237775462e-05 0.0 
-3.066237775462e-05 2.076375594993e-04 0.0 
0.0 0.0 0.0 
-1.817481759216e-04 -2.615303147391e-05 0.0 
-2.615303147391e-05 2.001706226501e-04 0.0 
0.0 0.0 0.0 
-1.358590968299e-04 -1.891835747743e-05 0.0 
-1.891835747743e-05 1.768350372250e-04 0.0 
0.0 0.0 0.0 
-9.011639786471e-05 -2.061712974659e-05 0.0 
-2.061712974659e-05 1.510460681136e-04 0.0 
0.0 0.0 0.0 
-6.171381577217e-05 -2.130139379697e-05 0.0 
-2.130139379697e-05 1.391944125153e-04 0.0 
0.0 0.0 0.0 
-4.743279328686e-05 -1.502314922397e-05 0.0 
-1.502314922397e-05 1.352899573429e-04 0.0 
0.0 0.0 0.0 
-3.229137852108e-05 -6.818235133351e-06 0.0 
-6.818235133351e-06 1.285781124595e-04 0.0 
0.0 0.0 0.0 
-1.083499349241e-05 2.458267501481e-06 0.0 
2.458267501481e-06 1.115926460678e-04 0.0 
0.0 0.0 0.0 
-4.231476099847e-06 6.426027610173e-06 0.0 
6.426027610173e-06 9.923061913275e-05 0.0 
0.0 0.0 0.0 
-5.390652646172e-05 1.450773217747e-04 0.0 
1.450773217747e-04 4.135024695659e-03 0.0 
0.0 0.0 0.0 
7.452377594272e-05 8.014800939191e-05 0.0 
8.014800939191e-05 4.187668406629e-03 0.0 
0.0 0.0 0.0 
1.258413324233e-04 3.620692280585e-05 0.0 
3.620692280585e-05 4.203899971180e-03 0.0 
0.0 0.0 0.0 
1.343566236028e-04 -3.723720894487e-06 0.0 
-3.723720894487e-06 4.203853032398e-03 0.0 
0.0 0.0 0.0 
1.320303706375e-04 -1.365423014322e-05 0.0 
-1.365423014322e-05 4.211708289388e-03 0.0 
0.0 0.0 0.0 
1.115724147008e-04 -2.126272434864e-05 0.0 
-2.126272434864e-05 4.218381489767e-03 0.0 
0.0 0.0 0.0 
8.459362964156e-05 -2.309719866381e-05 0.0 
-2.309719866381e-05 4.230554930712e-03 0.0 
0.0 0.0 0.0 
5.301991712966e-05 -2.393431605916e-05 0.0 
-2.393431605916e-05 4.242948885875e-03 0.0 
0.0 0.0 0.0 
2.050120657689e-05 -2.341154141582e-05 0.0 
-2.341154141582e-05 4.256256241909e-03 0.0 
0.0 0.0 0.0 
-1.200390775258e-05 -2.266446508547e-05 0.0 
-2.266446508547e-05 4.269302174640e-03 0.0 
0.0 0.0 0.0 
-4.319921259869e-05 -2.161356383035e-05 0.0 
-2.161356383035e-05 4.282037738948e-03 0.0 
0.0 0.0 0.0 
-7.256483627031e-05 -2.050165522012e-05 0.0 
-2.050165522012e-05 4.294062919641e-03 0.0 
0.0 0.0 0.0 
-9.963906168057e-05 -1.928930576228e-05 0.0 
-1.928930576228e-05 4.305283364560e-03 0.0 
0.0 0.0 0.0 
-1.242224240429e-04 -1.799868510254e-05 0.0 
-1.799868510254e-05 4.315553036974e-03 0.0 
0.0 0.0 0.0 
-1.462155026783e-04 -1.663031943788e-05 0.0 
-1.663031943788e-05 4.324771583316e-03 0.0 
0.0 0.0 0.0 
-1.656390900652e-04 -1.521709423113e-05 0.0 
-1.521709423113e-05 4.332864833404e-03 0.0 
0.0 0.0 0.0 
-1.825449724789e-04 -1.376278479454e-05 0.0 
-1.376278479454e-05 4.339816308714e-03 0.0 
0.0 0.0 0.0 
-1.969658929510e-04 -1.223680850650e-05 0.0 
-1.223680850650e-05 4.345631467617e-03 0.0 
0.0 0.0 0.0 
-2.088871948008e-04 -1.053268628922e-05 0.0 
-1.053268628922e-05 4.350335884190e-03 0.0 
0.0 0.0 0.0 
-2.182145690854e-04 -8.389682958831e-06 0.0 
-8.389682958831e-06 4.354008161417e-03 0.0 
0.0 0.0 0.0 
-2.247586009212e-04 -5.248744091399e-06 0.0 
-5.248744091399e-06 4.356857559159e-03 0.0 
0.0 0.0 0.0 
-2.282562724517e-04 -1.062530725809e-07 0.0 
-1.062530725809e-07 4.359241177611e-03 0.0 
0.0 0.0 0.0 
-2.290066324436e-04 8.059499467497e-06 0.0 
8.059499467497e-06 4.360457206640e-03 0.0 
0.0 0.0 0.0 
-2.443570518626e-04 1.589319889903e-05 0.0 
1.589319889903e-05 4.351912765007e-03 0.0 
0.0 0.0 0.0 
-2.792969345734e-04 3.103787112754e-05 0.0 
3.103787112754e-05 4.314190361493e-03 0.0 
0.0 0.0 0.0 
-2.624165558992e-04 1.696666733497e-05 0.0 
1.696666733497e-05 4.582772927344e-03 0.0 
0.0 0.0 0.0 
-2.454476871584e-04 6.231154995042e-06 0.0 
6.231154995042e-06 4.578161877420e-03 0.0 
0.0 0.0 0.0 
-2.393219011457e-04 -2.456629670147e-06 0.0 
-2.456629670147e-06 4.575683581333e-03 0.0 
0.0 0.0 0.0 
-2.344403132131e-04 -7.850030637368e-06 0.0 
-7.850030637368e-06 4.572889554256e-03 0.0 
0.0 0.0 0.0 
-2.291612652350e-04 -1.231461544416e-05 0.0 
-1.231461544416e-05 4.570333813793e-03 0.0 
0.0 0.0 0.0 
-2.226274963308e-04 -1.615068653308e-05 0.0 
-1.615068653308e-05 4.567530027423e-03 0.0 
0.0 0.0 0.0 
-2.144655222457e-04 -1.964365506401e-05 0.0 
-1.964365506401e-05 4.564103759120e-03 0.0 
0.0 0.0 0.0 
-2.045408070755e-04 -2.297333350158e-05 0.0 
-2.297333350158e-05 4.559881327726e-03 0.0 
0.0 0.0 0.0 
-1.928405139628e-04 -2.623016028721e-05 0.0 
-2.623016028721e-05 4.554815962296e-03 0.0 
0.0 0.0 0.0 
-1.793865504475e-04 -2.944020987302e-05 0.0 
-2.944020987302e-05 4.548907084455e-03 0.0 
0.0 0.0 0.0 
-1.642272041992e-04 -3.258178014494e-05 0.0 
-3.258178014494e-05 4.542186551192e-03 0.0 
0.0 0.0 0.0 
-1.474504483417e-04 -3.557451071712e-05 0.0 
-3.557451071712e-05 4.534720702949e-03 0.0 
0.0 0.0 0.0 
-1.292726148357e-04 -3.825686878201e-05 0.0 
-3.825686878201e-05 4.526682743505e-03 0.0 
0.0 0.0 0.0 
-1.100949759629e-04 -4.052112728041e-05 0.0 
-4.052112728041e-05 4.518254687670e-03 0.0 
0.0 0.0 0.0 
-9.044479449621e-05 -4.211018189419e-05 0.0 
-4.211018189419e-05 4.509668796450e-03 0.0 
0.0 0.0 0.0 
-7.108718042085e-05 -4.285678267083e-05 0.0 
-4.285678267083e-05 4.501028981117e-03 0.0 
0.0 0.0 0.0 
-5.306834889988e-05 -4.185237049326e-05 0.0 
-4.185237049326e-05 4.492926919303e-03 0.0 
0.0 0.0 0.0 
-3.823632672654e-05 -3.887660331209e-05 0.0 
-3.887660331209e-05 4.485289479357e-03 0.0 
0.0 0.0 0.0 
-2.838201153279e-05 -3.104955503828e-05 0.0 
-3.104955503828e-05 4.479587771588e-03 0.0 
0.0 0.0 0.0 
-2.807156432690e-05 -1.784271631484e-05 0.0 
-1.784271631484e-05 4.474306135744e-03 0.0 
0.0 0.0 0.0 
-3.738696386511e-05 1.067829275903e-05 0.0 
1.067829275903e-05 4.473729784477e-03 0.0 
0.0 0.0 0.0 
-8.330940434455e-05 6.163016552676e-05 0.0 
6.163016552676e-05 4.495843886649e-03 0.0 
0.0 0.0 0.0 
-9.937927381570e-05 1.150417736831e-04 0.0 
1.150417736831e-04 4.419493796665e-03 0.0 
0.0 0.0 0.0 
-2.444756602528e-04 1.068398380937e-04 0.0 
1.068398380937e-04 4.901684100000e-03 0.0 
0.0 0.0 0.0 
-2.341279159867e-04 5.667747175820e-05 0.0 
5.667747175820e-05 4.980257208030e-03 0.0 
0.0 0.0 0.0 
-2.011114623808e-04 7.138627823761e-06 0.0 
7.138627823761e-06 4.965512267642e-03 0.0 
0.0 0.0 0.0 
-1.867518780403e-04 -2.187476138335e-05 0.0 
-2.187476138335e-05 4.965860945494e-03 0.0 
0.0 0.0 0.0 
-1.774037058857e-04 -3.752666634124e-05 0.0 
-3.752666634124e-05 4.968554334248e-03 0.0 
0.0 0.0 0.0 
-1.747602213916e-04 -4.710986184774e-05 0.0 
-4.710986184774e-05 4.969812633174e-03 0.0 
0.0 0.0 0.0 
-1.759248623652e-04 -5.165508539605e-05 0.0 
-5.165508539605e-05 4.972697673312e-03 0.0 
0.0 0.0 0.0 
-1.801597120851e-04 -5.327865698722e-05 0.0 
-5.327865698722e-05 4.975658169507e-03 0.0 
0.0 0.0 0.0 
-1.862043429632e-04 -5.277174612233e-05 0.0 
-5.277174612233e-05 4.979275606493e-03 0.0 
0.0 0.0 0.0 
-1.934793499470e-04 -5.079265244900e-05 0.0 
-5.079265244900e-05 4.983148826529e-03 0.0 
0.0 0.0 0.0 
-2.011194290252e-04 -4.767013461092e-05 0.0 
-4.767013461092e-05 4.987070338425e-03 0.0 
0.0 0.0 0.0 
-2.086080589999e-04 -4.387037649088e-05 0.0 
-4.387037649088e-05 4.990694095540e-03 0.0 
0.0 0.0 0.0 
-2.157052504149e-04 -3.971453302364e-05 0.0 
-3.971453302364e-05 4.993983823405e-03 0.0 
0.0 0.0 0.0 
-2.222543041278e-04 -3.532455529866e-05 0.0 
-3.532455529866e-05 4.996902925167e-03 0.0 
0.0 0.0 0.0 
-2.281212708610e-04 -3.075318502707e-05 0.0 
-3.075318502707e-05 4.999414148544e-03 0.0 
0.0 0.0 0.0 
-2.332274666423e-04 -2.601890387283e-05 0.0 
-2.601890387283e-05 5.001528453056e-03 0.0 
0.0 0.0 0.0 
-2.376534513354e-04 -2.119798180806e-05 0.0 
-2.119798180806e-05 5.003377636410e-03 0.0 
0.0 0.0 0.0 
-2.417028520538e-04 -1.639534273016e-05 0.0 
-1.639534273016e-05 5.005270102991e-03 0.0 
0.0 0.0 0.0 
-2.458010196312e-04 -1.193733677685e-05 0.0 
-1.193733677685e-05 5.007477493065e-03 0.0 
0.0 0.0 0.0 
-2.502769019467e-04 -8.656620002836e-06 0.0 
-8.656620002836e-06 5.009682855268e-03 0.0 
0.0 0.0 0.0 
-2.546722582768e-04 -7.673045313191e-06 0.0 
-7.673045313191e-06 5.009987032289e-03 0.0 
0.0 0.0 0.0 
-2.558427826155e-04 1.259677621459e-05 0.0 
1.259677621459e-05 5.007489880859e-03 0.0 
0.0 0.0 0.0 
-2.569853118526e-04 4.915005803524e-06 0.0 
4.915005803524e-06 5.437522525798e-03 0.0 
0.0 0.0 0.0 
-2.570601716815e-04 -9.118983340037e-06 0.0 
-9.118983340037e-06 5.439492405507e-03 0.0 
0.0 0.0 0.0 
-2.556164351227e-04 -1.502787510074e-05 0.0 
-1.502787510074e-05 5.439709771364e-03 0.0 
0.0 0.0 0.0 
-2.538770886157e-04 -1.900040302367e-05 0.0 
-1.900040302367e-05 5.439096305427e-03 0.0 
0.0 0.0 0.0 
-2.522966833250e-04 -2.369896551129e-05 0.0 
-2.369896551129e-05 5.438410248874e-03 0.0 
0.0 0.0 0.0 
-2.510011710359e-04 -2.888142016912e-05 0.0 
-2.888142016912e-05 5.437901984155e-03 0.0 
0.0 0.0 0.0 
-2.498643989001e-04 -3.432580565722e-05 0.0 
-3.432580565722e-05 5.437449945798e-03 0.0 
0.0 0.0 0.0 
-2.487258718442e-04 -3.971475156885e-05 0.0 
-3.971475156885e-05 5.436828883719e-03 0.0 
0.0 0.0 0.0 
-2.476485675621e-04 -4.476634216462e-05 0.0 
-4.476634216462e-05 5.436103729709e-03 0.0 
0.0 0.0 0.0 
-2.469689695395e-04 -4.934329070007e-05 0.0 
-4.934329070007e-05 5.435396717045e-03 0.0 
0.0 0.0 0.0 
-2.467883946078e-04 -5.333900073793e-05 0.0 
-5.333900073793e-05 5.434669262436e-03 0.0 
0.0 0.0 0.0 
-2.472284114128e-04 -5.639731580991e-05 0.0 
-5.639731580991e-05 5.433790478065e-03 0.0 
0.0 0.0 0.0 
-2.485955780953e-04 -5.775383850918e-05 0.0 
-5.775383850918e-05 5.432633926412e-03 0.0 
0.0 0.0 0.0 
-2.517330948342e-04 -5.632850367026e-05 0.0 
-5.632850367026e-05 5.432056582551e-03 0.0 
0.0 0.0 0.0 
-2.577575972919e-04 -5.206930871240e-05 0.0 
-5.206930871240e-05 5.431780863672e-03 0.0 
0.0 0.0 0.0 
-2.669280340900e-04 -4.300261180773e-05 0.0 
-4.300261180773e-05 5.432487880888e-03 0.0 
0.0 0.0 0.0 
-2.802923658563e-04 -2.899516757008e-05 0.0 
-2.899516757008e-05 5.431093918534e-03 0.0 
0.0 0.0 0.0 
-2.954444830621e-04 -2.942848250467e-06 0.0 
-2.942848250467e-06 5.430334012803e-03 0.0 
0.0 0.0 0.0 
-3.238983439765e-04 3.769548808618e-05 0.0 
3.769548808618e-05 5.445551232418e-03 0.0 
0.0 0.0 0.0 
-3.310315350241e-04 7.784154489617e-05 0.0 
7.784154489617e-05 5.362061297182e-03 0.0 
0.0 0.0 0.0 
-3.811103158111e-04 6.122875549041e-05 0.0 
6.122875549041e-05 5.810771273921e-03 0.0 
0.0 0.0 0.0 
-3.766115179607e-04 3.002892236885e-05 0.0 
3.002892236885e-05 5.896633488414e-03 0.0 
0.0 0.0 0.0 
-3.524980127240e-04 -5.273832388321e-07 0.0 
-5.273832388321e-07 5.883030184020e-03 0.0 
0.0 0.0 0.0 
-3.357167262999e-04 -2.090511632896e-05 0.0 
-2.090511632896e-05 5.882252778498e-03 0.0 
0.0 0.0 0.0 
-3.192318233879e-04 -3.286972407685e-05 0.0 
-3.286972407685e-05 5.882302675788e-03 0.0 
0.0 0.0 0.0 
-3.071101557736e-04 -4.111428334961e-05 0.0 
-4.111428334961e-05 5.880916799301e-03 0.0 
0.0 0.0 0.0 
-2.974613408647e-04 -4.463813066834e-05 0.0 
-4.463813066834e-05 5.880908955346e-03 0.0 
0.0 0.0 0.0 
-2.893723879582e-04 -4.503924748840e-05 0.0 
-4.503924748840e-05 5.879908200917e-03 0.0 
0.0 0.0 0.0 
-2.827023805604e-04 -4.360183589890e-05 0.0 
-4.360183589890e-05 5.878534171618e-03 0.0 
0.0 0.0 0.0 
-2.770761088896e-04 -4.113312329691e-05 0.0 
-4.113312329691e-05 5.877013047209e-03 0.0 
0.0 0.0 0.0 
-2.728334599825e-04 -3.800310096393e-05 0.0 
-3.800310096393e-05 5.875955937034e-03 0.0 
0.0 0.0 0.0 
-2.697271324920e-04 -3.388979427763e-05 0.0 
-3.388979427763e-05 5.875132268060e-03 0.0 
0.0 0.0 0.0 
-2.668516953040e-04 -2.934948882763e-05 0.0 
-2.934948882763e-05 5.873963668028e-03 0.0 
0.0 0.0 0.0 
-2.647709740854e-04 -2.498617230505e-05 0.0 
-2.498617230505e-05 5.872871685507e-03 0.0 
0.0 0.0 0.0 
-2.633345331167e-04 -2.093538338828e-05 0.0 
-2.093538338828e-05 5.872063763296e-03 0.0 
0.0 0.0 0.0 
-2.625229524370e-04 -1.725864981371e-05 0.0 
-1.725864981371e-05 5.871341502120e-03 0.0 
0.0 0.0 0.0 
-2.618014012166e-04 -1.418060184442e-05 0.0 
-1.418060184442e-05 5.870377970396e-03 0.0 
0.0 0.0 0.0 
-2.611994466333e-04 -1.146594175132e-05 0.0 
-1.146594175132e-05 5.869129534048e-03 0.0 
0.0 0.0 0.0 
-2.603580072248e-04 1.139496655389e-05 0.0 
1.139496655389e-05 5.867847353092e-03 0.0 
0.0 0.0 0.0 
-2.648203566089e-04 6.151989340780e-06 0.0 
6.151989340780e-06 6.299284606523e-03 0.0 
0.0 0.0 0.0 
-2.653713843134e-04 -8.755464413255e-06 0.0 
-8.755464413255e-06 6.299774550795e-03 0.0 
0.0 0.0 0.0 
-2.673557135770e-04 -1.392302896225e-05 0.0 
-1.392302896225e-05 6.301179300898e-03 0.0 
0.0 0.0 0.0 
-2.702748035981e-04 -1.705422677541e-05 0.0 
-1.705422677541e-05 6.303189558338e-03 0.0 
0.0 0.0 0.0 
-2.733075945061e-04 -1.986572828015e-05 0.0 
-1.986572828015e-05 6.304851657114e-03 0.0 
0.0 0.0 0.0 
-2.779843312297e-04 -2.297154977843e-05 0.0 
-2.297154977843e-05 6.307215948970e-03 0.0 
0.0 0.0 0.0 
-2.834694266470e-04 -2.591425402843e-05 0.0 
-2.591425402843e-05 6.309849440220e-03 0.0 
0.0 0.0 0.0 
-2.903310643292e-04 -2.948919718128e-05 0.0 
-2.948919718128e-05 6.312236448061e-03 0.0 
0.0 0.0 0.0 
-2.975562544140e-04 -3.117789624641e-05 0.0 
-3.117789624641e-05 6.313715165924e-03 0.0 
0.0 0.0 0.0 
-3.073975189201e-04 -3.155741550055e-05 0.0 
-3.155741550055e-05 6.316873250366e-03 0.0 
0.0 0.0 0.0 
-3.186382059072e-04 -3.135957133184e-05 0.0 
-3.135957133184e-05 6.319864855697e-03 0.0 
0.0 0.0 0.0 
-3.311157661049e-04 -2.887295695829e-05 0.0 
-2.887295695829e-05 6.321868353872e-03 0.0 
0.0 0.0 0.0 
-3.460458230563e-04 -2.350748093114e-05 0.0 
-2.350748093114e-05 6.323637950723e-03 0.0 
0.0 0.0 0.0 
-3.622665494727e-04 -1.379554498732e-05 0.0 
-1.379554498732e-05 6.321987498724e-03 0.0 
0.0 0.0 0.0 
-3.793586377191e-04 4.864327603997e-06 0.0 
4.864327603997e-06 6.323248557235e-03 0.0 
0.0 0.0 0.0 
-4.036920223674e-04 2.841790376902e-05 0.0 
2.841790376902e-05 6.341403036945e-03 0.0 
0.0 0.0 0.0 
-4.095564311090e-04 5.095702807204e-05 0.0 
5.095702807204e-05 6.257281174220e-03 0.0 
0.0 0.0 0.0 
-4.178881225745e-04 5.407140607260e-05 0.0 
5.407140607260e-05 6.693188477146e-03 0.0 
0.0 0.0 0.0 
-4.132549365088e-04 3.578698289149e-05 0.0 
3.578698289149e-05 6.775265050202e-03 0.0 
0.0 0.0 0.0 
-3.912728803919e-04 1.701461687406e-05 0.0 
1.701461687406e-05 6.759645727094e-03 0.0 
0.0 0.0 0.0 
-3.702418002282e-04 4.852443755946e-06 0.0 
4.852443755946e-06 6.757714488856e-03 0.0 
0.0 0.0 0.0 
-3.532520363718e-04 -4.334777642000e-06 0.0 
-4.334777642000e-06 6.756624996627e-03 0.0 
0.0 0.0 0.0 
-3.378224977449e-04 -8.887118506189e-06 0.0 
-8.887118506189e-06 6.754336952837e-03 0.0 
0.0 0.0 0.0 
-3.239119783491e-04 -1.160452757950e-05 0.0 
-1.160452757950e-05 6.749727841176e-03 0.0 
0.0 0.0 0.0 
-3.119117593973e-04 -1.452066510872e-05 0.0 
-1.452066510872e-05 6.746572301422e-03 0.0 
0.0 0.0 0.0 
-2.999425448661e-04 -1.355978960002e-05 0.0 
-1.355978960002e-05 6.744176271229e-03 0.0 
0.0 0.0 0.0 
-2.919277247933e-04 -1.378809716356e-05 0.0 
-1.378809716356e-05 6.740135812675e-03 0.0 
0.0 0.0 0.0 
-2.841626267070e-04 -1.222812167364e-05 0.0 
-1.222812167364e-05 6.736884302850e-03 0.0 
0.0 0.0 0.0 
-2.780925225371e-04 -1.235799301370e-05 0.0 
-1.235799301370e-05 6.733735274868e-03 0.0 
0.0 0.0 0.0 
-2.739748557794e-04 -1.006375684210e-05 0.0 
-1.006375684210e-05 6.732154962820e-03 0.0 
0.0 0.0 0.0 
-2.694621135526e-04 -9.026981619057e-06 0.0 
-9.026981619057e-06 6.728436705133e-03 0.0 
0.0 0.0 0.0 
-2.673994523415e-04 -1.030818081627e-05 0.0 
-1.030818081627e-05 6.729702543165e-03 0.0 
0.0 0.0 0.0 
-2.690489045639e-04 1.471734887257e-05 0.0 
1.471734887257e-05 6.731583091803e-03 0.0 
0.0 0.0 0.0 
-5.300004356640e-04 6.129753955021e-04 0.0 
6.129753955021e-04 6.818409271632e-04 0.0 
0.0 0.0 0.0 
-5.164219608776e-04 8.725621006622e-04 0.0 
8.725621006622e-04 1.831653942355e-03 0.0 
0.0 0.0 0.0 
-4.334725239190e-04 8.578957994911e-04 0.0 
8.578957994911e-04 3.165332234064e-03 0.0 
0.0 0.0 0.0 
-2.941931614684e-04 3.732685128849e-04 0.0 
3.732685128849e-04 4.294087246528e-03 0.0 
0.0 0.0 0.0 
-3.141550087428e-04 2.650840066854e-04 0.0 
2.650840066854e-04 4.750504250236e-03 0.0 
0.0 0.0 0.0 
-3.682169166828e-04 2.002836643994e-04 0.0 
2.002836643994e-04 5.211805265661e-03 0.0 
0.0 0.0 0.0 
-4.183697347371e-04 1.497258492173e-04 0.0 
1.497258492173e-04 5.664808381831e-03 0.0 
0.0 0.0 0.0 
-4.426661098541e-04 1.169899343193e-04 0.0 
1.169899343193e-04 6.112310169519e-03 0.0 
0.0 0.0 0.0 
-4.531522884425e-04 9.886625130547e-05 0.0 
9.886625130547e-05 6.554374571053e-03 0.0 
0.0 0.0 0.0 
-4.476207790931e-04 9.487724991677e-05 0.0 
9.487724991677e-05 6.992922940608e-03 0.0 
0.0 0.0 0.0 
-3.194811894451e-04 8.500812476925e-04 0.0 
8.500812476925e-04 2.190606859162e-03 0.0 
0.0 0.0 0.0 
8.045772548700e-05 8.720440706516e-04 0.0 
8.720440706516e-04 8.763068393033e-03 0.0 
0.0 0.0 0.0 
-2.135735236230e-04 -6.025176752336e-05 0.0 
-6.025176752336e-05 3.441136869266e-04 0.0 
0.0 0.0 0.0 
-4.152618025838e-04 -6.187854627201e-05 0.0 
-6.187854627201e-05 4.191635312524e-04 0.0 
0.0 0.0 0.0 
9.851669935793e-05 6.038715773055e-04 0.0 
6.038715773055e-04 8.351246190613e-03 0.0 
0.0 0.0 0.0 
-4.240640264201e-04 5.918875981127e-04 0.0 
5.918875981127e-04 4.526437219979e-03 0.0 
0.0 0.0 0.0 
4.127554648164e-04 1.979866400493e-06 0.0 
1.979866400493e-06 4.115759319034e-03 0.0 
0.0 0.0 0.0 
3.266245891017e-05 1.013147852770e-03 0.0 
1.013147852770e-03 9.230645675521e-03 0.0 
0.0 0.0 0.0 
-4.739771637900e-04 2.886119866602e-04 0.0 
2.886119866602e-04 5.518932960058e-03 0.0 
0.0 0.0 0.0 
-3.093553595335e-05 1.013081974147e-03 0.0 
1.013081974147e-03 9.787068429857e-03 0.0 
0.0 0.0 0.0 
-4.990225780183e-04 1.708603272756e-04 0.0 
1.708603272756e-04 6.449942078279e-03 0.0 
0.0 0.0 0.0 
9.302151543052e-05 3.738530623263e-04 0.0 
3.738530623263e-04 8.196813315476e-03 0.0 
0.0 0.0 0.0 
-7.591097965111e-05 -3.463203261894e-05 0.0 
-3.463203261894e-05 2.726171187793e-04 0.0 
0.0 0.0 0.0 
-7.710367386408e-05 8.692300678004e-04 0.0 
8.692300678004e-04 1.026392851104e-02 0.0 
0.0 0.0 0.0 
-4.768958272101e-04 1.380658590431e-04 0.0 
1.380658590431e-04 7.345529597395e-03 0.0 
0.0 0.0 0.0 
2.936862358317e-04 -1.017602260755e-05 0.0 
-1.017602260755e-05 2.474676455976e-03 0.0 
0.0 0.0 0.0 
4.074418816481e-04 1.976767158273e-05 0.0 
1.976767158273e-05 5.302402667023e-03 0.0 
0.0 0.0 0.0 
-9.640726396559e-05 7.058025473098e-04 0.0 
7.058025473098e-04 1.050588715266e-02 0.0 
0.0 0.0 0.0 
-8.268227076082e-05 4.909961096045e-04 0.0 
4.909961096045e-04 1.073701502515e-02 0.0 
0.0 0.0 0.0 
-4.996659973344e-05 1.366913898464e-04 0.0 
1.366913898464e-04 1.088672383233e-02 0.0 
0.0 0.0 0.0 
-6.489106140509e-05 2.355932678467e-04 0.0 
2.355932678467e-04 1.083185322007e-02 0.0 
0.0 0.0 0.0 
-7.144755735281e-05 3.478133748596e-04 0.0 
3.478133748596e-04 1.082835878471e-02 0.0 
0.0 0.0 0.0 
-4.207274283802e-04 8.942336357003e-05 0.0 
8.942336357003e-05 7.556138050439e-03 0.0 
0.0 0.0 0.0 
-3.412406297581e-04 3.421457254491e-05 0.0 
3.421457254491e-05 7.558666034605e-03 0.0 
0.0 0.0 0.0 
-2.984995915566e-04 1.486173874162e-05 0.0 
1.486173874162e-05 7.576388619368e-03 0.0 
0.0 0.0 0.0 
-2.082744118710e-04 5.095339706205e-06 0.0 
5.095339706205e-06 9.039800658331e-03 0.0 
0.0 0.0 0.0 
8.563095484545e-05 2.162503974036e-04 0.0 
2.162503974036e-04 8.097098416405e-03 0.0 
0.0 0.0 0.0 
-4.371043624907e-04 6.976639696926e-05 0.0 
6.976639696926e-05 4.754285274468e-04 0.0 
0.0 0.0 0.0 
-1.032297321646e-05 -1.940799488854e-05 0.0 
-1.940799488854e-05 2.633856353843e-04 0.0 
0.0 0.0 0.0 
2.851339293852e-04 3.145217995939e-05 0.0 
3.145217995939e-05 6.749391839304e-03 0.0 
0.0 0.0 0.0 
-2.736154616508e-04 7.918821194529e-06 0.0 
7.918821194529e-06 7.517076695551e-03 0.0 
0.0 0.0 0.0 
1.314536292996e-04 -1.503189773879e-05 0.0 
-1.503189773879e-05 1.261976109689e-03 0.0 
0.0 0.0 0.0 
-1.057706083287e-04 5.861885163637e-04 0.0 
5.861885163637e-04 1.058691786887e-02 0.0 
0.0 0.0 0.0 
7.756929374381e-07 1.037876049418e-03 0.0 
1.037876049418e-03 9.543052536248e-03 0.0 
0.0 0.0 0.0 
-5.855403211715e-05 9.546305523533e-04 0.0 
9.546305523533e-04 1.004376693886e-02 0.0 
0.0 0.0 0.0 
6.249411150381e-05 9.621818331037e-04 0.0 
9.621818331037e-04 8.974415955037e-03 0.0 
0.0 0.0 0.0 
8.457844901832e-05 7.700850198270e-04 0.0 
7.700850198270e-04 8.586784961992e-03 0.0 
0.0 0.0 0.0 
-3.345607505535e-04 -6.757346385383e-05 0.0 
-6.757346385383e-05 4.063775660013e-04 0.0 
0.0 0.0 0.0 
-3.773175265250e-04 5.459097889246e-05 0.0 
5.459097889246e-05 7.547320373102e-03 0.0 
0.0 0.0 0.0 
1.093201784042e-04 4.775026681684e-04 0.0 
4.775026681684e-04 8.165777025413e-03 0.0 
0.0 0.0 0.0 
-1.530915369183e-04 1.102470018290e-05 0.0 
1.102470018290e-05 9.832120898012e-03 0.0 
0.0 0.0 0.0 
-1.373998295600e-04 -5.597387406668e-05 0.0 
-5.597387406668e-05 3.190885143775e-04 0.0 
0.0 0.0 0.0 
3.704776415865e-04 -6.288926278716e-06 0.0 
-6.288926278716e-06 3.261189518929e-03 0.0 
0.0 0.0 0.0 
-4.033794895995e-05 8.474763823173e-05 0.0 
8.474763823173e-05 1.094972278477e-02 0.0 
0.0 0.0 0.0 
-4.604124017652e-04 4.339065401524e-04 0.0 
4.339065401524e-04 5.079959766056e-03 0.0 
0.0 0.0 0.0 
-3.504282880031e-04 8.933414820014e-04 0.0 
8.933414820014e-04 3.524825525797e-03 0.0 
0.0 0.0 0.0 
-4.944381507588e-04 2.200267014672e-04 0.0 
2.200267014672e-04 5.992815787463e-03 0.0 
0.0 0.0 0.0 
-4.934338874273e-04 1.447619441660e-04 0.0 
1.447619441660e-04 6.896219065986e-03 0.0 
0.0 0.0 0.0 
-3.800851490044e-04 5.964834532906e-04 0.0 
5.964834532906e-04 1.003443580909e-03 0.0 
0.0 0.0 0.0 
-2.442449909453e-04 4.220348053510e-06 0.0 
4.220348053510e-06 8.257507282472e-03 0.0 
0.0 0.0 0.0 
6.595926578319e-05 1.188359227574e-04 0.0 
1.188359227574e-04 8.152766473462e-03 0.0 
0.0 0.0 0.0 
1.360406333735e-05 -1.401926475257e-06 0.0 
-1.401926475257e-06 2.351384940301e-04 0.0 
0.0 0.0 0.0 
-7.124912572573e-05 2.169545341131e-05 0.0 
2.169545341131e-05 1.060180702819e-02 0.0 
0.0 0.0 0.0 
-4.661248978310e-04 1.381343905944e-04 0.0 
1.381343905944e-04 7.548748968577e-03 0.0 
0.0 0.0 0.0 
-4.807351199852e-04 1.852185487020e-04 0.0 
1.852185487020e-04 7.701373696319e-03 0.0 
0.0 0.0 0.0 
-4.580124037862e-04 1.787171947823e-04 0.0 
1.787171947823e-04 7.908117381974e-03 0.0 
0.0 0.0 0.0 
-4.753947134317e-04 2.355561409512e-04 0.0 
2.355561409512e-04 8.075823666014e-03 0.0 
0.0 0.0 0.0 
-4.526803697153e-04 2.315180792380e-04 0.0 
2.315180792380e-04 8.302961867368e-03 0.0 
0.0 0.0 0.0 
-4.586371280738e-04 2.872570344040e-04 0.0 
2.872570344040e-04 8.444996559604e-03 0.0 
0.0 0.0 0.0 
-4.819226839450e-04 2.973141034265e-04 0.0 
2.973141034265e-04 8.214221610761e-03 0.0 
0.0 0.0 0.0 
-4.568704982000e-04 3.496757513202e-04 0.0 
3.496757513202e-04 8.576426856308e-03 0.0 
0.0 0.0 0.0 
-4.798769041200e-04 3.640874043227e-04 0.0 
3.640874043227e-04 8.336700708111e-03 0.0 
0.0 0.0 0.0 
-4.296755992595e-04 2.807793604574e-04 0.0 
2.807793604574e-04 8.675599777780e-03 0.0 
0.0 0.0 0.0 
-4.475405861909e-04 4.152872073959e-04 0.0 
4.152872073959e-04 8.694185714060e-03 0.0 
0.0 0.0 0.0 
-4.687618495616e-04 4.337278220522e-04 0.0 
4.337278220522e-04 8.444970648849e-03 0.0 
0.0 0.0 0.0 
-4.295748111957e-04 4.834460854883e-04 0.0 
4.834460854883e-04 8.797701342092e-03 0.0 
0.0 0.0 0.0 
-4.479986535661e-04 5.048379642074e-04 0.0 
5.048379642074e-04 8.538717809981e-03 0.0 
0.0 0.0 0.0 
-4.842183261534e-04 4.576434859925e-04 0.0 
4.576434859925e-04 8.189952888588e-03 0.0 
0.0 0.0 0.0 
-4.589289503417e-04 5.319422716531e-04 0.0 
5.319422716531e-04 8.271851628407e-03 0.0 
0.0 0.0 0.0 
-4.929538292519e-04 4.877552667822e-04 0.0 
4.877552667822e-04 7.926605293549e-03 0.0 
0.0 0.0 0.0 
-4.616762349662e-04 5.651868370433e-04 0.0 
5.651868370433e-04 7.994980219600e-03 0.0 
0.0 0.0 0.0 
-4.227805366731e-04 6.036948090243e-04 0.0 
6.036948090243e-04 8.338684849589e-03 0.0 
0.0 0.0 0.0 
-4.181389669100e-04 6.377493829613e-04 0.0 
6.377493829613e-04 8.046844503707e-03 0.0 
0.0 0.0 0.0 
-4.550208893561e-04 6.050850324799e-04 0.0 
6.050850324799e-04 7.705611467453e-03 0.0 
0.0 0.0 0.0 
-4.024141664316e-04 6.782044057956e-04 0.0 
6.782044057956e-04 7.740785930448e-03 0.0 
0.0 0.0 0.0 
-4.379049647548e-04 6.525405202676e-04 0.0 
6.525405202676e-04 7.402562024646e-03 0.0 
0.0 0.0 0.0 
-3.747368508767e-04 7.240630302343e-04 0.0 
7.240630302343e-04 7.419325421606e-03 0.0 
0.0 0.0 0.0 
-4.090557945118e-04 7.067176836295e-04 0.0 
7.067176836295e-04 7.081791357164e-03 0.0 
0.0 0.0 0.0 
-3.336234431919e-04 7.742234980059e-04 0.0 
7.742234980059e-04 7.079093616827e-03 0.0 
0.0 0.0 0.0 
-3.013320475536e-04 7.817411566228e-04 0.0 
7.817411566228e-04 7.424410273733e-03 0.0 
0.0 0.0 0.0 
-2.492389620028e-04 8.244761153641e-04 0.0 
8.244761153641e-04 7.066441935149e-03 0.0 
0.0 0.0 0.0 
-2.770762426842e-04 8.268877047014e-04 0.0 
8.268877047014e-04 6.717562144429e-03 0.0 
0.0 0.0 0.0 
-1.821514263770e-04 8.654477047480e-04 0.0 
8.654477047480e-04 6.687828597991e-03 0.0 
0.0 0.0 0.0 
-2.041604249583e-04 8.775928015732e-04 0.0 
8.775928015732e-04 6.331795351023e-03 0.0 
0.0 0.0 0.0 
-1.001227612120e-04 8.999720558417e-04 0.0 
8.999720558417e-04 6.286153127639e-03 0.0 
0.0 0.0 0.0 
-8.684320819154e-05 8.838720547437e-04 0.0 
8.838720547437e-04 6.659664969157e-03 0.0 
0.0 0.0 0.0 
-5.812314178103e-07 9.001950364714e-04 0.0 
9.001950364714e-04 6.250192148057e-03 0.0 
0.0 0.0 0.0 
-4.874451102421e-06 9.209767330157e-04 0.0 
9.209767330157e-04 5.860251098028e-03 0.0 
0.0 0.0 0.0 
9.473127871270e-05 9.009663691926e-04 0.0 
9.009663691926e-04 5.824578787104e-03 0.0 
0.0 0.0 0.0 
9.920109088979e-05 9.223569560504e-04 0.0 
9.223569560504e-04 5.415995488904e-03 0.0 
0.0 0.0 0.0 
1.946962118925e-04 8.826523057378e-04 0.0 
8.826523057378e-04 5.388231250716e-03 0.0 
0.0 0.0 0.0 
2.076868153080e-04 9.001871490423e-04 0.0 
9.001871490423e-04 4.959222022340e-03 0.0 
0.0 0.0 0.0 
2.935569566000e-04 8.407319402700e-04 0.0 
8.407319402700e-04 4.944444172596e-03 0.0 
0.0 0.0 0.0 
2.744283832424e-04 8.317013246657e-04 0.0 
8.317013246657e-04 5.383815185864e-03 0.0 
0.0 0.0 0.0 
3.621625985851e-04 7.759027520993e-04 0.0 
7.759027520993e-04 4.955858965818e-03 0.0 
0.0 0.0 0.0 
3.835662142032e-04 7.743611885695e-04 0.0 
7.743611885695e-04 4.502680429161e-03 0.0 
0.0 0.0 0.0 
4.385141727270e-04 7.000812736983e-04 0.0 
7.000812736983e-04 4.534812508116e-03 0.0 
0.0 0.0 0.0 
4.157562178294e-04 7.109702268807e-04 0.0 
7.109702268807e-04 4.992085309933e-03 0.0 
0.0 0.0 0.0 
4.791491873647e-04 6.304886283010e-04 0.0 
6.304886283010e-04 4.591119395981e-03 0.0 
0.0 0.0 0.0 
4.554650702245e-04 6.494639741613e-04 0.0 
6.494639741613e-04 5.050113011091e-03 0.0 
0.0 0.0 0.0 
5.075267319508e-04 5.674551268589e-04 0.0 
5.674551268589e-04 4.667946352646e-03 0.0 
0.0 0.0 0.0 
5.252886127309e-04 5.382945345909e-04 0.0 
5.382945345909e-04 4.210009631566e-03 0.0 
0.0 0.0 0.0 
5.433009706471e-04 4.774700318049e-04 0.0 
4.774700318049e-04 4.305075943156e-03 0.0 
0.0 0.0 0.0 
5.256441409883e-04 5.113672392584e-04 0.0 
5.113672392584e-04 4.761185498084e-03 0.0 
0.0 0.0 0.0 
5.529464887329e-04 4.245101730508e-04 0.0 
4.245101730508e-04 4.413256307316e-03 0.0 
0.0 0.0 0.0 
5.609999409730e-04 3.830805948016e-04 0.0 
3.830805948016e-04 3.963407983120e-03 0.0 
0.0 0.0 0.0 
5.644253467251e-04 3.370671536723e-04 0.0 
3.370671536723e-04 4.086768254909e-03 0.0 
0.0 0.0 0.0 
5.558458576827e-04 3.801426107878e-04 0.0 
3.801426107878e-04 4.534623241669e-03 0.0 
0.0 0.0 0.0 
5.625859748631e-04 2.987137223040e-04 0.0 
2.987137223040e-04 4.220316129122e-03 0.0 
0.0 0.0 0.0 
5.602824236824e-04 2.513774141733e-04 0.0 
2.513774141733e-04 3.781009843160e-03 0.0 
0.0 0.0 0.0 
5.559596349384e-04 2.208426898646e-04 0.0 
2.208426898646e-04 3.924834209440e-03 0.0 
0.0 0.0 0.0 
5.566468681415e-04 2.675835340658e-04 0.0 
2.675835340658e-04 4.364658245558e-03 0.0 
0.0 0.0 0.0 
5.486421629014e-04 1.960093389011e-04 0.0 
1.960093389011e-04 4.075169472628e-03 0.0 
0.0 0.0 0.0 
5.372929903542e-04 1.486052295568e-04 0.0 
1.486052295568e-04 3.645279942627e-03 0.0 
0.0 0.0 0.0 
5.304002140073e-04 1.314539637973e-04 0.0 
1.314539637973e-04 3.801006502559e-03 0.0 
0.0 0.0 0.0 
5.390687564430e-04 1.770311455350e-04 0.0 
1.770311455350e-04 4.233017295699e-03 0.0 
0.0 0.0 0.0 
5.218625628558e-04 1.184555597135e-04 0.0 
1.184555597135e-04 3.961674205845e-03 0.0 
0.0 0.0 0.0 
5.272544042857e-04 1.620908553566e-04 0.0 
1.620908553566e-04 4.395830964001e-03 0.0 
0.0 0.0 0.0 
5.032214841667e-04 7.419607459209e-05 0.0 
7.419607459209e-05 3.536501160366e-03 0.0 
0.0 0.0 0.0 
4.972903532676e-04 6.735110978882e-05 0.0 
6.735110978882e-05 3.700893490962e-03 0.0 
0.0 0.0 0.0 
4.690083273646e-04 2.622984053007e-05 0.0 
2.622984053007e-05 3.281735466261e-03 0.0 
0.0 0.0 0.0 
4.668293674316e-04 2.513782383496e-05 0.0 
2.513782383496e-05 3.450287341952e-03 0.0 
0.0 0.0 0.0 
3.401563585433e-06 8.848559930248e-04 0.0 
8.848559930248e-04 6.640468646584e-03 0.0 
0.0 0.0 0.0 
4.303876163254e-04 -1.147030959185e-05 0.0 
-1.147030959185e-05 3.037722567872e-03 0.0 
0.0 0.0 0.0 
4.271236885625e-04 -1.318620161535e-05 0.0 
-1.318620161535e-05 2.874732169299e-03 0.0 
0.0 0.0 0.0 
4.324683985858e-04 -7.875105842998e-06 0.0 
-7.875105842998e-06 3.208518289730e-03 0.0 
0.0 0.0 0.0 
4.634370012953e-04 2.609857941547e-05 0.0 
2.609857941547e-05 3.624201209759e-03 0.0 
0.0 0.0 0.0 
3.891414920932e-04 -3.955412894605e-05 0.0 
-3.955412894605e-05 2.801061004935e-03 0.0 
0.0 0.0 0.0 
3.957504308376e-04 -3.194768248259e-05 0.0 
-3.194768248259e-05 2.973369078383e-03 0.0 
0.0 0.0 0.0 
3.463007931268e-04 -5.757595780891e-05 0.0 
-5.757595780891e-05 2.571237994961e-03 0.0 
0.0 0.0 0.0 
1.048635063939e-04 9.485976266150e-04 0.0 
9.485976266150e-04 4.995586122465e-03 0.0 
0.0 0.0 0.0 
-3.767919877913e-04 6.700082313783e-04 0.0 
6.700082313783e-04 8.392210758041e-03 0.0 
0.0 0.0 0.0 
3.576143917639e-04 -4.695345485558e-05 0.0 
-4.695345485558e-05 2.743932766753e-03 0.0 
0.0 0.0 0.0 
3.038158162587e-04 -6.722451930361e-05 0.0 
-6.722451930361e-05 2.346114438538e-03 0.0 
0.0 0.0 0.0 
2.863903911536e-04 -7.859636981406e-05 0.0 
-7.859636981406e-05 2.175463134866e-03 0.0 
0.0 0.0 0.0 
2.422873374746e-04 -8.194448555725e-05 0.0 
-8.194448555725e-05 1.953628683010e-03 0.0 
0.0 0.0 0.0 
-4.243299190471e-04 2.265907382073e-04 0.0 
2.265907382073e-04 8.526901371086e-03 0.0 
0.0 0.0 0.0 
-3.977738711512e-04 2.767985983070e-04 0.0 
2.767985983070e-04 8.905281025793e-03 0.0 
0.0 0.0 0.0 
-3.950981957283e-04 2.226269742198e-04 0.0 
2.226269742198e-04 8.741980825547e-03 0.0 
0.0 0.0 0.0 
-3.645739825191e-04 2.715322978820e-04 0.0 
2.715322978820e-04 9.131535863331e-03 0.0 
0.0 0.0 0.0 
-3.637705507642e-04 2.208230984201e-04 0.0 
2.208230984201e-04 8.972011798181e-03 0.0 
0.0 0.0 0.0 
2.636396473743e-04 -6.965989271265e-05 0.0 
-6.965989271265e-05 2.122938192758e-03 0.0 
0.0 0.0 0.0 
-4.037870156608e-04 4.672968605467e-04 0.0 
4.672968605467e-04 9.052193759147e-03 0.0 
0.0 0.0 0.0 
-3.602960888211e-04 3.259830918675e-04 0.0 
3.259830918675e-04 9.280520036449e-03 0.0 
0.0 0.0 0.0 
-4.871880122135e-04 5.694800513024e-04 0.0 
5.694800513024e-04 7.369806917808e-03 0.0 
0.0 0.0 0.0 
-3.057892915439e-04 8.302559321209e-04 0.0 
8.302559321209e-04 6.377125549287e-03 0.0 
0.0 0.0 0.0 
3.898209419843e-04 7.199517283968e-04 0.0 
7.199517283968e-04 5.447010920320e-03 0.0 
0.0 0.0 0.0 
4.010934348282e-04 -2.397627767650e-05 0.0 
-2.397627767650e-05 3.147763137547e-03 0.0 
0.0 0.0 0.0 
3.674134273912e-04 -3.580984221089e-05 0.0 
-3.580984221089e-05 2.918610318402e-03 0.0 
0.0 0.0 0.0 
4.044294146647e-04 -1.641594516803e-05 0.0 
-1.641594516803e-05 3.324842287822e-03 0.0 
0.0 0.0 0.0 
5.349862363044e-04 2.216652194314e-04 0.0 
2.216652194314e-04 4.674874111588e-03 0.0 
0.0 0.0 0.0 
5.198237536435e-04 2.048278294713e-04 0.0 
2.048278294713e-04 4.838157001888e-03 0.0 
0.0 0.0 0.0 
5.185379821412e-04 2.651710633805e-04 0.0 
2.651710633805e-04 5.124210839290e-03 0.0 
0.0 0.0 0.0 
4.999353640196e-04 2.463605946498e-04 0.0 
2.463605946498e-04 5.287460159062e-03 0.0 
0.0 0.0 0.0 
4.900158496458e-04 3.072063883284e-04 0.0 
3.072063883284e-04 5.579854114209e-03 0.0 
0.0 0.0 0.0 
4.679022299080e-04 2.866374658860e-04 0.0 
2.866374658860e-04 5.743525808451e-03 0.0 
0.0 0.0 0.0 
4.788490456146e-04 2.291982133059e-04 0.0 
2.291982133059e-04 5.455793650176e-03 0.0 
0.0 0.0 0.0 
4.428661905503e-04 2.668366899807e-04 0.0 
2.668366899807e-04 5.912780474694e-03 0.0 
0.0 0.0 0.0 
4.556575657715e-04 2.129050720511e-04 0.0 
2.129050720511e-04 5.628738057354e-03 0.0 
0.0 0.0 0.0 
4.498512225761e-04 3.480118644433e-04 0.0 
3.480118644433e-04 6.041411203523e-03 0.0 
0.0 0.0 0.0 
4.721282534582e-04 3.714232451636e-04 0.0 
3.714232451636e-04 5.882851634931e-03 0.0 
0.0 0.0 0.0 
4.156373911575e-04 2.473958396823e-04 0.0 
2.473958396823e-04 6.086799563470e-03 0.0 
0.0 0.0 0.0 
4.307472228410e-04 1.968765235586e-04 0.0 
1.968765235586e-04 5.806076049583e-03 0.0 
0.0 0.0 0.0 
3.867360118663e-04 2.279932225655e-04 0.0 
2.279932225655e-04 6.265879141461e-03 0.0 
0.0 0.0 0.0 
4.045550550539e-04 1.799262685252e-04 0.0 
1.799262685252e-04 5.987452827303e-03 0.0 
0.0 0.0 0.0 
4.401882850602e-04 1.513393034259e-04 0.0 
1.513393034259e-04 5.532693790219e-03 0.0 
0.0 0.0 0.0 
4.173721721646e-04 1.372366513354e-04 0.0 
1.372366513354e-04 5.715337371631e-03 0.0 
0.0 0.0 0.0 
4.444939248190e-04 1.113435955396e-04 0.0 
1.113435955396e-04 5.268154996042e-03 0.0 
0.0 0.0 0.0 
4.274783695522e-04 6.664275419725e-04 0.0 
6.664275419725e-04 5.507472746721e-03 0.0 
0.0 0.0 0.0 
3.614036462719e-04 7.297414925759e-04 0.0 
7.297414925759e-04 5.900024094225e-03 0.0 
0.0 0.0 0.0 
3.960143458480e-04 6.837403798295e-04 0.0 
6.837403798295e-04 5.962871821725e-03 0.0 
0.0 0.0 0.0 
3.305972966411e-04 7.418048431890e-04 0.0 
7.418048431890e-04 6.350614741454e-03 0.0 
0.0 0.0 0.0 
3.608099603125e-04 7.029865829492e-04 0.0 
7.029865829492e-04 6.417247599583e-03 0.0 
0.0 0.0 0.0 
2.968127426584e-04 7.578110591370e-04 0.0 
7.578110591370e-04 6.799827216901e-03 0.0 
0.0 0.0 0.0 
3.210643466074e-04 7.259211963249e-04 0.0 
7.259211963249e-04 6.870497720923e-03 0.0 
0.0 0.0 0.0 
3.794053029567e-04 6.661281379751e-04 0.0 
6.661281379751e-04 6.499383968289e-03 0.0 
0.0 0.0 0.0 
-4.034187327472e-04 5.524178369218e-04 0.0 
5.524178369218e-04 8.885712518694e-03 0.0 
0.0 0.0 0.0 
4.573654540530e-04 6.847982304245e-04 0.0 
6.847982304245e-04 4.073960178429e-03 0.0 
0.0 0.0 0.0 
4.022820720775e-04 7.682867122068e-04 0.0 
7.682867122068e-04 4.043758287457e-03 0.0 
0.0 0.0 0.0 
4.697706886146e-04 6.620303873972e-04 0.0 
6.620303873972e-04 3.609080540465e-03 0.0 
0.0 0.0 0.0 
4.156121830693e-04 7.541351505291e-04 0.0 
7.541351505291e-04 3.579503279627e-03 0.0 
0.0 0.0 0.0 
4.712738724607e-04 6.280826255531e-04 0.0 
6.280826255531e-04 3.141272081263e-03 0.0 
0.0 0.0 0.0 
4.182306764084e-04 7.273866061438e-04 0.0 
7.273866061438e-04 3.111954978956e-03 0.0 
0.0 0.0 0.0 
4.534516620811e-04 5.797759298737e-04 0.0 
5.797759298737e-04 2.673505115217e-03 0.0 
0.0 0.0 0.0 
4.909334461326e-04 4.866684437351e-04 0.0 
4.866684437351e-04 2.739436571891e-03 0.0 
0.0 0.0 0.0 
4.455572604937e-04 4.225855723048e-04 0.0 
4.225855723048e-04 2.280476327133e-03 0.0 
0.0 0.0 0.0 
4.739961444786e-04 3.415945339895e-04 0.0 
3.415945339895e-04 2.379777443021e-03 0.0 
0.0 0.0 0.0 
3.979038104847e-04 2.685607990783e-04 0.0 
2.685607990783e-04 1.936887158358e-03 0.0 
0.0 0.0 0.0 
4.237795130965e-04 2.051005720051e-04 0.0 
2.051005720051e-04 2.061629153672e-03 0.0 
0.0 0.0 0.0 
-2.219987316541e-04 8.251333308857e-04 0.0 
8.251333308857e-04 7.422353113956e-03 0.0 
0.0 0.0 0.0 
2.607932288194e-04 7.904049396712e-04 0.0 
7.904049396712e-04 6.743156008706e-03 0.0 
0.0 0.0 0.0 
2.306225063462e-04 8.057134683126e-04 0.0 
8.057134683126e-04 7.186419360041e-03 0.0 
0.0 0.0 0.0 
1.907473758143e-04 8.297797060095e-04 0.0 
8.297797060095e-04 7.133579723962e-03 0.0 
0.0 0.0 0.0 
2.174727903397e-04 -9.353556846724e-05 0.0 
-9.353556846724e-05 1.785202180167e-03 0.0 
0.0 0.0 0.0 
3.776911136775e-04 1.614146802284e-04 0.0 
1.614146802284e-04 6.172648958003e-03 0.0 
0.0 0.0 0.0 
4.242328057636e-04 4.118956020491e-04 0.0 
4.118956020491e-04 6.349899150290e-03 0.0 
0.0 0.0 0.0 
4.458617219422e-04 4.373151642073e-04 0.0 
4.373151642073e-04 6.195437732228e-03 0.0 
0.0 0.0 0.0 
3.336398027156e-04 6.959394087777e-04 0.0 
6.959394087777e-04 6.958508169188e-03 0.0 
0.0 0.0 0.0 
2.019610217590e-04 -7.796470862957e-05 0.0 
-7.796470862957e-05 1.736530802873e-03 0.0 
0.0 0.0 0.0 
3.998157535524e-04 6.837400059348e-04 0.0 
6.837400059348e-04 2.646237126602e-03 0.0 
0.0 0.0 0.0 
3.444376734496e-04 8.315087149431e-04 0.0 
8.315087149431e-04 3.124413683856e-03 0.0 
0.0 0.0 0.0 
-3.281394867998e-04 2.655389624369e-04 0.0 
2.655389624369e-04 9.354584194467e-03 0.0 
0.0 0.0 0.0 
-3.293945468516e-04 2.184456777058e-04 0.0 
2.184456777058e-04 9.192852996561e-03 0.0 
0.0 0.0 0.0 
3.909226557276e-04 4.778053822071e-04 0.0 
4.778053822071e-04 6.668873999895e-03 0.0 
0.0 0.0 0.0 
2.260692520480e-04 -6.498903452374e-05 0.0 
-6.498903452374e-05 1.903690810166e-03 0.0 
0.0 0.0 0.0 
3.941950223981e-04 3.027917834411e-04 0.0 
3.027917834411e-04 6.376801521815e-03 0.0 
0.0 0.0 0.0 
3.625368556465e-04 3.465589639915e-04 0.0 
3.465589639915e-04 1.835485553042e-03 0.0 
0.0 0.0 0.0 
3.943155101635e-04 1.218925534424e-04 0.0 
1.218925534424e-04 5.901267992214e-03 0.0 
0.0 0.0 0.0 
3.500115106618e-04 1.413550232363e-04 0.0 
1.413550232363e-04 6.360740711628e-03 0.0 
0.0 0.0 0.0 
4.830994564946e-04 1.770155084978e-04 0.0 
1.770155084978e-04 5.178605164072e-03 0.0 
0.0 0.0 0.0 
1.662070212483e-04 8.464444116228e-04 0.0 
8.464444116228e-04 7.571801857072e-03 0.0 
0.0 0.0 0.0 
1.240564801459e-04 8.594494300117e-04 0.0 
8.594494300117e-04 7.518608985844e-03 0.0 
0.0 0.0 0.0 
4.904554036099e-04 2.750685414920e-04 0.0 
2.750685414920e-04 2.501733961046e-03 0.0 
0.0 0.0 0.0 
4.379488193696e-04 1.549534038406e-04 0.0 
1.549534038406e-04 2.202738534084e-03 0.0 
0.0 0.0 0.0 
3.477325711398e-04 8.812448990608e-05 0.0 
8.812448990608e-05 1.793055734959e-03 0.0 
0.0 0.0 0.0 
3.653021839992e-04 5.706545436316e-05 0.0 
5.706545436316e-05 1.946719695333e-03 0.0 
0.0 0.0 0.0 
4.508213351117e-04 1.179113091928e-04 0.0 
1.179113091928e-04 2.350667427486e-03 0.0 
0.0 0.0 0.0 
3.848783493376e-04 3.052652735105e-05 0.0 
3.052652735105e-05 2.088498986135e-03 0.0 
0.0 0.0 0.0 
2.877813604960e-04 -2.322147948338e-05 0.0 
-2.322147948338e-05 1.692967540991e-03 0.0 
0.0 0.0 0.0 
3.091555199964e-04 -3.703438198790e-05 0.0 
-3.703438198790e-05 1.846092391009e-03 0.0 
0.0 0.0 0.0 
3.989714824718e-04 1.225655495674e-05 0.0 
1.225655495674e-05 2.244662659858e-03 0.0 
0.0 0.0 0.0 
3.299201993618e-04 -4.633281527006e-05 0.0 
-4.633281527006e-05 2.004675687236e-03 0.0 
0.0 0.0 0.0 
2.288831867847e-04 -8.534991574517e-05 0.0 
-8.534991574517e-05 1.615913278639e-03 0.0 
0.0 0.0 0.0 
2.580450030080e-04 -8.604226741635e-05 0.0 
-8.604226741635e-05 1.774997983598e-03 0.0 
0.0 0.0 0.0 
3.249527441789e-04 1.838431693383e-04 0.0 
1.838431693383e-04 6.636982681428e-03 0.0 
0.0 0.0 0.0 
2.808229236780e-04 1.878751007936e-04 0.0 
1.878751007936e-04 1.515165613186e-03 0.0 
0.0 0.0 0.0 
-5.116720396946e-04 4.083607967484e-04 0.0 
4.083607967484e-04 7.840946929484e-03 0.0 
0.0 0.0 0.0 
3.649735627106e-04 4.521164502324e-04 0.0 
4.521164502324e-04 6.821510165001e-03 0.0 
0.0 0.0 0.0 
2.751614751490e-04 7.549399519223e-04 0.0 
7.549399519223e-04 7.321450380941e-03 0.0 
0.0 0.0 0.0 
-2.895450452432e-04 2.593583654664e-04 0.0 
2.593583654664e-04 9.576133778709e-03 0.0 
0.0 0.0 0.0 
-2.936851065844e-04 2.150806784314e-04 0.0 
2.150806784314e-04 9.412810577022e-03 0.0 
0.0 0.0 0.0 
-3.269594313831e-04 1.773064746508e-04 0.0 
1.773064746508e-04 9.021865861223e-03 0.0 
0.0 0.0 0.0 
-2.948643860762e-04 1.756358323164e-04 0.0 
1.756358323164e-04 9.242983884150e-03 0.0 
0.0 0.0 0.0 
-2.569722643076e-04 2.096767594360e-04 0.0 
2.096767594360e-04 9.632387808205e-03 0.0 
0.0 0.0 0.0 
-2.614348383491e-04 1.720066685046e-04 0.0 
1.720066685046e-04 9.462217591125e-03 0.0 
0.0 0.0 0.0 
-2.937568829250e-04 1.403579822149e-04 0.0 
1.403579822149e-04 9.067320363588e-03 0.0 
0.0 0.0 0.0 
-2.630726110588e-04 1.383403771151e-04 0.0 
1.383403771151e-04 9.286227336149e-03 0.0 
0.0 0.0 0.0 
-2.899938996693e-04 1.094575973591e-04 0.0 
1.094575973591e-04 8.886170424503e-03 0.0 
0.0 0.0 0.0 
-2.628975691762e-04 1.090253015925e-04 0.0 
1.090253015925e-04 9.105978714577e-03 0.0 
0.0 0.0 0.0 
-2.317685449012e-04 1.343272669720e-04 0.0 
1.343272669720e-04 9.504430956784e-03 0.0 
0.0 0.0 0.0 
-2.351240093164e-04 1.057995507509e-04 0.0 
1.057995507509e-04 9.325361563278e-03 0.0 
0.0 0.0 0.0 
-2.623595577036e-04 8.394920090612e-05 0.0 
8.394920090612e-05 8.923130459511e-03 0.0 
0.0 0.0 0.0 
-2.375781797536e-04 8.092638076212e-05 0.0 
8.092638076212e-05 9.143171386902e-03 0.0 
0.0 0.0 0.0 
-2.613708722219e-04 6.216967645599e-05 0.0 
6.216967645599e-05 8.737034906321e-03 0.0 
0.0 0.0 0.0 
-2.386822421279e-04 5.930044607296e-05 0.0 
5.930044607296e-05 8.956324234730e-03 0.0 
0.0 0.0 0.0 
-2.121078266779e-04 7.685821373665e-05 0.0 
7.685821373665e-05 9.362765092108e-03 0.0 
0.0 0.0 0.0 
1.671605969225e-04 -6.786929619385e-05 0.0 
-6.786929619385e-05 1.528745364752e-03 0.0 
0.0 0.0 0.0 
3.865816507167e-04 6.327182511760e-04 0.0 
6.327182511760e-04 6.596631892703e-03 0.0 
0.0 0.0 0.0 
3.332374556703e-04 6.688958961166e-04 0.0 
6.688958961166e-04 7.065425194712e-03 0.0 
0.0 0.0 0.0 
3.743801405405e-04 -2.832316540693e-05 0.0 
-2.832316540693e-05 3.106776224460e-03 0.0 
0.0 0.0 0.0 
4.087672065751e-04 -1.104264076098e-05 0.0 
-1.104264076098e-05 3.498570189324e-03 0.0 
0.0 0.0 0.0 
4.313640368696e-04 8.288640641506e-06 0.0 
8.288640641506e-06 3.737227447372e-03 0.0 
0.0 0.0 0.0 
4.309064670985e-04 1.182491071566e-05 0.0 
1.182491071566e-05 3.919915614767e-03 0.0 
0.0 0.0 0.0 
-2.168752112618e-04 5.549418208062e-05 0.0 
5.549418208062e-05 9.174941920435e-03 0.0 
0.0 0.0 0.0 
-1.881012817216e-04 7.088920077061e-05 0.0 
7.088920077061e-05 9.582371172471e-03 0.0 
0.0 0.0 0.0 
3.239733166319e-04 7.942380353869e-04 0.0 
7.942380353869e-04 2.667932887257e-03 0.0 
0.0 0.0 0.0 
2.446014903026e-04 9.320481697002e-04 0.0 
9.320481697002e-04 3.191094089275e-03 0.0 
0.0 0.0 0.0 
-2.812000457058e-04 3.082710094659e-04 0.0 
3.082710094659e-04 9.731248637102e-03 0.0 
0.0 0.0 0.0 
3.700420415111e-04 1.037207302226e-04 0.0 
1.037207302226e-04 6.092656541299e-03 0.0 
0.0 0.0 0.0 
4.059950545274e-04 8.773745877081e-05 0.0 
8.773745877081e-05 5.638605055553e-03 0.0 
0.0 0.0 0.0 
-2.277735304209e-04 8.913894679834e-04 0.0 
8.913894679834e-04 5.983949038832e-03 0.0 
0.0 0.0 0.0 
-3.355186097985e-04 8.316079969375e-04 0.0 
8.316079969375e-04 6.045805335701e-03 0.0 
0.0 0.0 0.0 
-2.532183521505e-04 9.044661791074e-04 0.0 
9.044661791074e-04 5.643188212254e-03 0.0 
0.0 0.0 0.0 
-3.662812656755e-04 8.271902626074e-04 0.0 
8.271902626074e-04 5.719496879849e-03 0.0 
0.0 0.0 0.0 
-4.278399230667e-04 7.425276786936e-04 0.0 
7.425276786936e-04 6.093483316910e-03 0.0 
0.0 0.0 0.0 
-2.822812962632e-04 9.149083626492e-04 0.0 
9.149083626492e-04 5.304818265212e-03 0.0 
0.0 0.0 0.0 
4.903536817622e-04 3.966412308487e-04 0.0 
3.966412308487e-04 5.726929078639e-03 0.0 
0.0 0.0 0.0 
-2.004585567558e-04 1.276378787235e-04 0.0 
1.276378787235e-04 9.722411462988e-03 0.0 
0.0 0.0 0.0 
2.657932690681e-04 -8.841827342718e-05 0.0 
-8.841827342718e-05 2.007948694803e-03 0.0 
0.0 0.0 0.0 
1.893173605857e-04 -1.023257966169e-04 0.0 
-1.023257966169e-04 1.621036851314e-03 0.0 
0.0 0.0 0.0 
3.201640630514e-04 1.192073185692e-04 0.0 
1.192073185692e-04 6.555637022616e-03 0.0 
0.0 0.0 0.0 
4.315612423086e-04 6.010692626510e-04 0.0 
6.010692626510e-04 6.134455327045e-03 0.0 
0.0 0.0 0.0 
-2.689180123791e-04 7.915404680909e-04 0.0 
7.915404680909e-04 7.777125390956e-03 0.0 
0.0 0.0 0.0 
-1.948915122047e-04 8.304868744508e-04 0.0 
8.304868744508e-04 7.784921817377e-03 0.0 
0.0 0.0 0.0 
-2.359162951706e-04 8.056158504093e-04 0.0 
8.056158504093e-04 8.136716911889e-03 0.0 
0.0 0.0 0.0 
-1.674418929845e-04 8.423227481646e-04 0.0 
8.423227481646e-04 8.153153870567e-03 0.0 
0.0 0.0 0.0 
-2.016943068400e-04 8.255039176533e-04 0.0 
8.255039176533e-04 8.501990276930e-03 0.0 
0.0 0.0 0.0 
-1.397755841039e-04 8.616754299813e-04 0.0 
8.616754299813e-04 8.525456671931e-03 0.0 
0.0 0.0 0.0 
-1.012040752903e-04 8.693969683804e-04 0.0 
8.693969683804e-04 8.171352161168e-03 0.0 
0.0 0.0 0.0 
1.081132096304e-04 8.811496750162e-04 0.0 
8.811496750162e-04 7.951159714657e-03 0.0 
0.0 0.0 0.0 
-8.199022563393e-05 8.903443870823e-04 0.0 
8.903443870823e-04 8.554054050401e-03 0.0 
0.0 0.0 0.0 
-2.386767805224e-04 4.451477511514e-05 0.0 
4.451477511514e-05 8.760768398967e-03 0.0 
0.0 0.0 0.0 
2.139142816505e-04 8.221045701410e-04 0.0 
8.221045701410e-04 6.695123479936e-03 0.0 
0.0 0.0 0.0 
4.101950616883e-04 -3.045700919032e-08 0.0 
-3.045700919032e-08 2.406243428719e-03 0.0 
0.0 0.0 0.0 
1.379175265610e-04 -8.173511180117e-05 0.0 
-8.173511180117e-05 1.358214853632e-03 0.0 
0.0 0.0 0.0 
1.471050371132e-04 -1.102004109911e-04 0.0 
-1.102004109911e-04 1.385646309609e-03 0.0 
0.0 0.0 0.0 
1.920823950628e-04 -5.451745165817e-05 0.0 
-5.451745165817e-05 1.680151315969e-03 0.0 
0.0 0.0 0.0 
2.478602706918e-04 -4.964401191465e-05 0.0 
-4.964401191465e-05 2.072495368261e-03 0.0 
0.0 0.0 0.0 
3.250017827097e-04 5.195459296766e-04 0.0 
5.195459296766e-04 7.144821204004e-03 0.0 
0.0 0.0 0.0 
-1.664630588808e-04 8.528873466052e-04 0.0 
8.528873466052e-04 8.871415389801e-03 0.0 
0.0 0.0 0.0 
-2.229839721809e-04 8.088102264100e-04 0.0 
8.088102264100e-04 8.834267885435e-03 0.0 
0.0 0.0 0.0 
-4.532538325128e-04 7.157217109623e-04 0.0 
7.157217109623e-04 5.780501818162e-03 0.0 
0.0 0.0 0.0 
-4.945613480708e-04 6.233703409281e-04 0.0 
6.233703409281e-04 6.118564765166e-03 0.0 
0.0 0.0 0.0 
1.406784623970e-04 8.726697990074e-04 0.0 
8.726697990074e-04 8.007016836601e-03 0.0 
0.0 0.0 0.0 
-3.850295082872e-04 1.781256833481e-04 0.0 
1.781256833481e-04 8.580426340391e-03 0.0 
0.0 0.0 0.0 
-3.163603827292e-04 1.081659287181e-04 0.0 
1.081659287181e-04 8.666695916440e-03 0.0 
0.0 0.0 0.0 
-3.074787938108e-04 8.125758602541e-05 0.0 
8.125758602541e-05 8.478826263922e-03 0.0 
0.0 0.0 0.0 
1.320391320810e-04 -5.879186567426e-05 0.0 
-5.879186567426e-05 1.260529939952e-03 0.0 
0.0 0.0 0.0 
1.105251404005e-04 -1.087452875641e-04 0.0 
-1.087452875641e-04 1.246699014491e-03 0.0 
0.0 0.0 0.0 
-2.197355908406e-04 2.022879373145e-04 0.0 
2.022879373145e-04 9.850825668018e-03 0.0 
0.0 0.0 0.0 
2.452955449971e-04 9.413756975306e-04 0.0 
9.413756975306e-04 3.634561724913e-03 0.0 
0.0 0.0 0.0 
1.200208115478e-04 1.016165314919e-03 0.0 
1.016165314919e-03 3.743501464495e-03 0.0 
0.0 0.0 0.0 
2.256432947163e-04 2.645910704262e-04 0.0 
2.645910704262e-04 1.411035127807e-03 0.0 
0.0 0.0 0.0 
1.087562214949e-04 1.112391242498e-04 0.0 
1.112391242498e-04 1.118561026822e-03 0.0 
0.0 0.0 0.0 
-1.934511285402e-04 5.287498718734e-05 0.0 
5.287498718734e-05 9.389392107815e-03 0.0 
0.0 0.0 0.0 
-1.617526304267e-04 6.270727820944e-05 0.0 
6.270727820944e-05 9.791613309899e-03 0.0 
0.0 0.0 0.0 
4.488527261064e-04 3.129257053779e-05 0.0 
3.129257053779e-05 4.157597721865e-03 0.0 
0.0 0.0 0.0 
4.416633282678e-04 3.013933152260e-05 0.0 
3.013933152260e-05 4.341236151653e-03 0.0 
0.0 0.0 0.0 
3.507532375970e-04 5.456913546661e-04 0.0 
5.456913546661e-04 6.999756470145e-03 0.0 
0.0 0.0 0.0 
1.865497219281e-04 -1.081420172228e-04 0.0 
-1.081420172228e-04 1.551885840349e-03 0.0 
0.0 0.0 0.0 
-1.507540855070e-04 8.359868110957e-05 0.0 
8.359868110957e-05 9.980932636823e-03 0.0 
0.0 0.0 0.0 
4.334190093478e-04 5.659429624875e-04 0.0 
5.659429624875e-04 6.244804125043e-03 0.0 
0.0 0.0 0.0 
4.754088465190e-04 5.310708449731e-04 0.0 
5.310708449731e-04 5.780565118008e-03 0.0 
0.0 0.0 0.0 
4.127823786968e-04 1.650011880373e-06 0.0 
1.650011880373e-06 3.677670993485e-03 0.0 
0.0 0.0 0.0 
2.164438032814e-04 9.003548463559e-04 0.0 
9.003548463559e-04 2.755269300106e-03 0.0 
0.0 0.0 0.0 
2.626790754566e-04 7.374188320008e-04 0.0 
7.374188320008e-04 2.226530620678e-03 0.0 
0.0 0.0 0.0 
4.665703002233e-04 6.576052020089e-05 0.0 
6.576052020089e-05 2.656967430304e-03 0.0 
0.0 0.0 0.0 
2.833463661654e-04 -8.402120663586e-05 0.0 
-8.402120663586e-05 1.937490788082e-03 0.0 
0.0 0.0 0.0 
2.146553537753e-04 -4.029067210157e-05 0.0 
-4.029067210157e-05 1.848649495671e-03 0.0 
0.0 0.0 0.0 
2.790396292057e-04 5.918510828116e-04 0.0 
5.918510828116e-04 7.479538945804e-03 0.0 
0.0 0.0 0.0 
-2.086509770105e-04 2.419956742509e-04 0.0 
2.419956742509e-04 1.001313394159e-02 0.0 
0.0 0.0 0.0 
-4.154164350730e-05 8.862900915337e-04 0.0 
8.862900915337e-04 8.197366125107e-03 0.0 
0.0 0.0 0.0 
-5.100183442204e-05 8.742734983231e-04 0.0 
8.742734983231e-04 7.803455892675e-03 0.0 
0.0 0.0 0.0 
-2.877420666320e-05 9.108395703212e-04 0.0 
9.108395703212e-04 8.590500367331e-03 0.0 
0.0 0.0 0.0 
7.490898253489e-05 -1.189386151449e-04 0.0 
-1.189386151449e-04 1.178998108432e-03 0.0 
0.0 0.0 0.0 
2.917974533436e-04 4.923144016821e-04 0.0 
4.923144016821e-04 7.305643353798e-03 0.0 
0.0 0.0 0.0 
3.430943140821e-04 8.258233002986e-05 0.0 
8.258233002986e-05 6.289828796164e-03 0.0 
0.0 0.0 0.0 
-1.818651078769e-04 8.431507425375e-04 0.0 
8.431507425375e-04 9.187231887956e-03 0.0 
0.0 0.0 0.0 
-2.305202032602e-04 7.938598557156e-04 0.0 
7.938598557156e-04 9.150246746851e-03 0.0 
0.0 0.0 0.0 
1.177108833017e-04 1.001065416816e-03 0.0 
1.001065416816e-03 4.158001336516e-03 0.0 
0.0 0.0 0.0 
-2.708140226894e-05 1.032695773510e-03 0.0 
1.032695773510e-03 4.301007681531e-03 0.0 
0.0 0.0 0.0 
-3.351880948053e-05 1.052799157348e-03 0.0 
1.052799157348e-03 3.922522907179e-03 0.0 
0.0 0.0 0.0 
-1.825376869291e-04 1.018402068937e-03 0.0 
1.018402068937e-03 4.485548524034e-03 0.0 
0.0 0.0 0.0 
-5.023742647965e-04 3.112583463184e-04 0.0 
3.112583463184e-04 7.978208335970e-03 0.0 
0.0 0.0 0.0 
-2.015527667478e-05 1.006637569301e-03 0.0 
1.006637569301e-03 4.681647106083e-03 0.0 
0.0 0.0 0.0 
-5.189906469191e-04 4.398595877454e-04 0.0 
4.398595877454e-04 7.583246025255e-03 0.0 
0.0 0.0 0.0 
-5.287787364724e-04 3.558944380308e-04 0.0 
3.558944380308e-04 7.491470130430e-03 0.0 
0.0 0.0 0.0 
-5.352602846368e-04 3.879722502367e-04 0.0 
3.879722502367e-04 7.241191293940e-03 0.0 
0.0 0.0 0.0 
-4.715540118261e-04 6.600605213787e-04 0.0 
6.600605213787e-04 6.431088272382e-03 0.0 
0.0 0.0 0.0 
-5.187844877801e-04 5.438267155741e-04 0.0 
5.438267155741e-04 6.422891518671e-03 0.0 
0.0 0.0 0.0 
3.292369389939e-04 8.536242232715e-04 0.0 
8.536242232715e-04 4.042586276097e-03 0.0 
0.0 0.0 0.0 
3.146571021340e-04 7.774468211553e-04 0.0 
7.774468211553e-04 5.852589352217e-03 0.0 
0.0 0.0 0.0 
4.536815340967e-04 3.038138878619e-05 0.0 
3.038138878619e-05 3.978372380656e-03 0.0 
0.0 0.0 0.0 
4.632697125208e-04 1.213255574900e-04 0.0 
1.213255574900e-04 5.088005032272e-03 0.0 
0.0 0.0 0.0 
5.339989537272e-04 2.868448899639e-04 0.0 
2.868448899639e-04 4.965756142760e-03 0.0 
0.0 0.0 0.0 
-1.925406275554e-04 1.586883079480e-04 0.0 
1.586883079480e-04 9.895226966525e-03 0.0 
0.0 0.0 0.0 
-1.588453637419e-04 1.480540403632e-04 0.0 
1.480540403632e-04 1.011440702498e-02 0.0 
0.0 0.0 0.0 
-2.821022148136e-04 6.246247895451e-05 0.0 
6.246247895451e-05 8.514946767104e-03 0.0 
0.0 0.0 0.0 
-2.754820332085e-04 4.280395198822e-05 0.0 
4.280395198822e-05 8.322808511533e-03 0.0 
0.0 0.0 0.0 
1.418813283229e-04 -9.899689460916e-05 0.0 
-9.899689460916e-05 1.398960854615e-03 0.0 
0.0 0.0 0.0 
1.024763811190e-04 -1.041140540058e-04 0.0 
-1.041140540058e-04 1.239639939173e-03 0.0 
0.0 0.0 0.0 
5.134488984904e-04 1.500703264925e-04 0.0 
1.500703264925e-04 4.563825270100e-03 0.0 
0.0 0.0 0.0 
3.328325890882e-04 4.266456795783e-04 0.0 
4.266456795783e-04 6.979990120398e-03 0.0 
0.0 0.0 0.0 
-2.388418313102e-04 2.979732187283e-04 0.0 
2.979732187283e-04 9.949169922813e-03 0.0 
0.0 0.0 0.0 
-2.234669751373e-04 3.484835076928e-04 0.0 
3.484835076928e-04 1.009836046286e-02 0.0 
0.0 0.0 0.0 
-2.679507417442e-04 3.612016996409e-04 0.0 
3.612016996409e-04 9.876014832532e-03 0.0 
0.0 0.0 0.0 
3.059197172149e-04 6.162007222277e-04 0.0 
6.162007222277e-04 7.335064825199e-03 0.0 
0.0 0.0 0.0 
5.084566911667e-04 5.777054129498e-04 0.0 
5.777054129498e-04 3.668424734074e-03 0.0 
0.0 0.0 0.0 
4.536120162751e-04 6.166660182643e-04 0.0 
6.166660182643e-04 5.584165012345e-03 0.0 
0.0 0.0 0.0 
1.657521614086e-04 5.955234648044e-05 0.0 
5.955234648044e-05 1.249361229256e-03 0.0 
0.0 0.0 0.0 
-7.428193572049e-05 8.734083868470e-04 0.0 
8.734083868470e-04 7.036540219833e-03 0.0 
0.0 0.0 0.0 
6.125081528811e-05 -9.343851286445e-05 0.0 
-9.343851286445e-05 1.021186885856e-03 0.0 
0.0 0.0 0.0 
-3.781336143880e-04 6.421238935934e-04 0.0 
6.421238935934e-04 8.683466491434e-03 0.0 
0.0 0.0 0.0 
2.897072489313e-04 9.414456643340e-05 0.0 
9.414456643340e-05 6.756191369676e-03 0.0 
0.0 0.0 0.0 
2.593714573333e-04 1.337281287983e-04 0.0 
1.337281287983e-04 7.023850187838e-03 0.0 
0.0 0.0 0.0 
8.907371555167e-05 9.102789809882e-04 0.0 
9.102789809882e-04 8.372055361268e-03 0.0 
0.0 0.0 0.0 
-4.966493273011e-04 1.939327807166e-04 0.0 
1.939327807166e-04 7.485068382115e-03 0.0 
0.0 0.0 0.0 
6.784833352906e-06 8.763468042760e-04 0.0 
8.763468042760e-04 7.033114221032e-03 0.0 
0.0 0.0 0.0 
8.466922484274e-05 8.716990390839e-04 0.0 
8.716990390839e-04 6.636646182322e-03 0.0 
0.0 0.0 0.0 
-5.337727137210e-04 3.006452370077e-04 0.0 
3.006452370077e-04 7.141495309889e-03 0.0 
0.0 0.0 0.0 
-5.385631373556e-04 3.311837376211e-04 0.0 
3.311837376211e-04 6.900087021045e-03 0.0 
0.0 0.0 0.0 
-5.358459367480e-04 4.282947632862e-04 0.0 
4.282947632862e-04 6.982905764139e-03 0.0 
0.0 0.0 0.0 
-5.395662745773e-04 3.718820836629e-04 0.0 
3.718820836629e-04 6.647081547817e-03 0.0 
0.0 0.0 0.0 
4.701725150199e-04 4.939938996405e-05 0.0 
4.939938996405e-05 2.814025582022e-03 0.0 
0.0 0.0 0.0 
4.186284761577e-04 -7.787078835133e-06 0.0 
-7.787078835133e-06 2.565584201306e-03 0.0 
0.0 0.0 0.0 
-1.269682888516e-04 8.956864647451e-04 0.0 
8.956864647451e-04 9.270181444788e-03 0.0 
0.0 0.0 0.0 
-6.160739194348e-05 9.276273887073e-04 0.0 
9.276273887073e-04 8.932087699947e-03 0.0 
0.0 0.0 0.0 
-1.778969523172e-04 8.359691176177e-04 0.0 
8.359691176177e-04 9.498564492478e-03 0.0 
0.0 0.0 0.0 
-2.219582548289e-04 7.816685810599e-04 0.0 
7.816685810599e-04 9.462153755932e-03 0.0 
0.0 0.0 0.0 
1.145402698724e-04 9.083106857167e-04 0.0 
9.083106857167e-04 8.435252725948e-03 0.0 
0.0 0.0 0.0 
1.638477205400e-04 8.614369099597e-04 0.0 
8.614369099597e-04 8.068971072287e-03 0.0 
0.0 0.0 0.0 
2.644218188010e-04 -3.632747642336e-05 0.0 
-3.632747642336e-05 2.231811723888e-03 0.0 
0.0 0.0 0.0 
-5.271878344151e-04 4.869079770465e-04 0.0 
4.869079770465e-04 6.106205317197e-03 0.0 
0.0 0.0 0.0 
-1.668090248206e-04 2.301304153780e-04 0.0 
2.301304153780e-04 1.023072973842e-02 0.0 
0.0 0.0 0.0 
-5.246322086173e-04 2.764372004537e-04 0.0 
2.764372004537e-04 7.378656282683e-03 0.0 
0.0 0.0 0.0 
2.521209572549e-04 4.616600231693e-04 0.0 
4.616600231693e-04 7.455658911854e-03 0.0 
0.0 0.0 0.0 
2.977696014126e-04 4.002204446520e-04 0.0 
4.002204446520e-04 7.150465435224e-03 0.0 
0.0 0.0 0.0 
-3.673189583333e-05 7.323210881916e-06 0.0 
7.323210881916e-06 8.794744008228e-04 0.0 
0.0 0.0 0.0 
3.106466690856e-05 -4.119446088873e-05 0.0 
-4.119446088873e-05 1.006968668254e-03 0.0 
0.0 0.0 0.0 
-1.243546863215e-04 7.099046065966e-05 0.0 
7.099046065966e-05 1.019480606639e-02 0.0 
0.0 0.0 0.0 
-2.085042256491e-04 1.020435667270e-03 0.0 
1.020435667270e-03 4.155969598153e-03 0.0 
0.0 0.0 0.0 
-3.378662107100e-04 9.159535840606e-04 0.0 
9.159535840606e-04 4.676554435937e-03 0.0 
0.0 0.0 0.0 
-5.244653192219e-05 1.040976186751e-03 0.0 
1.040976186751e-03 3.545061759315e-03 0.0 
0.0 0.0 0.0 
1.364791071472e-04 3.867074680791e-05 0.0 
3.867074680791e-05 7.722709539549e-03 0.0 
0.0 0.0 0.0 
-2.631184811450e-04 1.294477041116e-06 0.0 
1.294477041116e-06 7.500682845513e-03 0.0 
0.0 0.0 0.0 
2.257706594538e-04 1.044756378767e-04 0.0 
1.044756378767e-04 7.229704303924e-03 0.0 
0.0 0.0 0.0 
-4.985279288633e-04 5.877643733432e-04 0.0 
5.877643733432e-04 6.744777020626e-03 0.0 
0.0 0.0 0.0 
-1.075454727868e-04 9.637634848460e-05 0.0 
9.637634848460e-05 1.038201593453e-02 0.0 
0.0 0.0 0.0 
7.872596957318e-05 8.671734284701e-04 0.0 
8.671734284701e-04 7.047560691577e-03 0.0 
0.0 0.0 0.0 
-1.287651705351e-04 9.459826328876e-04 0.0 
9.459826328876e-04 5.549007054269e-03 0.0 
0.0 0.0 0.0 
3.690775670215e-04 5.722586049753e-04 0.0 
5.722586049753e-04 6.859156176352e-03 0.0 
0.0 0.0 0.0 
-1.406257173300e-04 4.375383819568e-05 0.0 
4.375383819568e-05 9.982935987024e-03 0.0 
0.0 0.0 0.0 
-1.003233669514e-04 5.729177996083e-05 0.0 
5.729177996083e-05 1.041803219685e-02 0.0 
0.0 0.0 0.0 
-3.273685895981e-04 7.875052573609e-05 0.0 
7.875052573609e-05 8.257198003874e-03 0.0 
0.0 0.0 0.0 
-3.191781871183e-04 5.076469941652e-05 0.0 
5.076469941652e-05 8.054304374192e-03 0.0 
0.0 0.0 0.0 
-3.412246676722e-04 1.052651947756e-04 0.0 
1.052651947756e-04 8.434497716557e-03 0.0 
0.0 0.0 0.0 
3.122783791277e-04 4.373832978201e-04 0.0 
4.373832978201e-04 1.767687255774e-03 0.0 
0.0 0.0 0.0 
1.389065399313e-04 3.624806386218e-04 0.0 
3.624806386218e-04 1.319411839623e-03 0.0 
0.0 0.0 0.0 
-1.699807773241e-04 1.188396643241e-04 0.0 
1.188396643241e-04 9.938896509982e-03 0.0 
0.0 0.0 0.0 
3.330163005841e-04 -4.218228864362e-05 0.0 
-4.218228864362e-05 2.694889965609e-03 0.0 
0.0 0.0 0.0 
3.458901840249e-04 -2.506797463126e-05 0.0 
-2.506797463126e-05 2.912326067495e-03 0.0 
0.0 0.0 0.0 
2.182321357376e-04 -1.043525993012e-04 0.0 
-1.043525993012e-04 1.704264194130e-03 0.0 
0.0 0.0 0.0 
3.028222421973e-04 -8.090607975157e-05 0.0 
-8.090607975157e-05 2.089511091755e-03 0.0 
0.0 0.0 0.0 
4.631236969695e-04 5.763441650627e-05 0.0 
5.763441650627e-05 4.402708139114e-03 0.0 
0.0 0.0 0.0 
4.727097304097e-04 5.960191398427e-05 0.0 
5.960191398427e-05 4.224450245756e-03 0.0 
0.0 0.0 0.0 
-3.310970384457e-04 7.037689882076e-04 0.0 
7.037689882076e-04 8.741880527769e-03 0.0 
0.0 0.0 0.0 
-3.279863165038e-04 6.816582251642e-04 0.0 
6.816582251642e-04 9.033997096139e-03 0.0 
0.0 0.0 0.0 
-3.024893368581e-04 7.592209559090e-04 0.0 
7.592209559090e-04 8.114903487521e-03 0.0 
0.0 0.0 0.0 
4.726580440627e-04 4.951337100525e-04 0.0 
4.951337100525e-04 5.903063154584e-03 0.0 
0.0 0.0 0.0 
5.094048855480e-04 4.578880014783e-04 0.0 
4.578880014783e-04 5.440678483008e-03 0.0 
0.0 0.0 0.0 
5.091305268271e-04 4.968860206283e-04 0.0 
4.968860206283e-04 5.322247920082e-03 0.0 
0.0 0.0 0.0 
-1.466823386740e-04 1.799262688445e-04 0.0 
1.799262688445e-04 1.027274035982e-02 0.0 
0.0 0.0 0.0 
-1.062909238224e-04 1.686826820278e-04 0.0 
1.686826820278e-04 1.053184259958e-02 0.0 
0.0 0.0 0.0 
5.131290043283e-04 1.195913060322e-04 0.0 
1.195913060322e-04 3.074626561114e-03 0.0 
0.0 0.0 0.0 
5.123894061998e-04 1.457715547481e-04 0.0 
1.457715547481e-04 2.923979296207e-03 0.0 
0.0 0.0 0.0 
4.714521528078e-04 3.781292453359e-05 0.0 
3.781292453359e-05 2.967771483900e-03 0.0 
0.0 0.0 0.0 
-1.510052132272e-04 2.721653863750e-04 0.0 
2.721653863750e-04 1.038826816500e-02 0.0 
0.0 0.0 0.0 
1.895800849665e-04 1.505120833261e-04 0.0 
1.505120833261e-04 7.496797138516e-03 0.0 
0.0 0.0 0.0 
2.181247001808e-04 1.741053617153e-04 0.0 
1.741053617153e-04 7.296453469079e-03 0.0 
0.0 0.0 0.0 
9.753207732980e-06 -9.894614149380e-05 0.0 
-9.894614149380e-05 8.711953723242e-04 0.0 
0.0 0.0 0.0 
5.638606324576e-05 -1.110315258248e-04 0.0 
-1.110315258248e-04 1.081412402822e-03 0.0 
0.0 0.0 0.0 
1.293823113476e-04 8.390293238057e-04 0.0 
8.390293238057e-04 2.333216221346e-03 0.0 
0.0 0.0 0.0 
1.418514016741e-04 6.613481113588e-04 0.0 
6.613481113588e-04 1.801013916101e-03 0.0 
0.0 0.0 0.0 
-2.021771826730e-04 4.022488963356e-04 0.0 
4.022488963356e-04 1.022794949860e-02 0.0 
0.0 0.0 0.0 
-2.500180165945e-04 4.192610022718e-04 0.0 
4.192610022718e-04 1.001433222137e-02 0.0 
0.0 0.0 0.0 
-1.500937681756e-04 3.880643140845e-04 0.0 
3.880643140845e-04 1.047931897496e-02 0.0 
0.0 0.0 0.0 
2.293685704740e-04 -2.443311558072e-05 0.0 
-2.443311558072e-05 1.981877379894e-03 0.0 
0.0 0.0 0.0 
1.193710443054e-05 8.817707298124e-04 0.0 
8.817707298124e-04 7.836563648622e-03 0.0 
0.0 0.0 0.0 
2.285258136921e-04 6.648770463284e-04 0.0 
6.648770463284e-04 7.804563492258e-03 0.0 
0.0 0.0 0.0 
2.576278000968e-04 6.922571117370e-04 0.0 
6.922571117370e-04 7.670494072252e-03 0.0 
0.0 0.0 0.0 
1.862928131863e-04 6.449679654469e-04 0.0 
6.449679654469e-04 8.016447554464e-03 0.0 
0.0 0.0 0.0 
5.597516585506e-05 9.079308818247e-04 0.0 
9.079308818247e-04 8.310215876767e-03 0.0 
0.0 0.0 0.0 
4.302228399017e-05 9.388185932547e-04 0.0 
9.388185932547e-04 8.710281355485e-03 0.0 
0.0 0.0 0.0 
-2.090878689914e-05 9.469683654005e-04 0.0 
9.469683654005e-04 8.983669695757e-03 0.0 
0.0 0.0 0.0 
-1.168298748567e-04 4.178643848352e-05 0.0 
4.178643848352e-05 7.490448144492e-04 0.0 
0.0 0.0 0.0 
-1.088531682745e-04 3.262225498597e-05 0.0 
3.262225498597e-05 1.028136580036e-02 0.0 
0.0 0.0 0.0 
-2.934737666979e-04 3.844081869750e-05 0.0 
3.844081869750e-05 8.079978752316e-03 0.0 
0.0 0.0 0.0 
-2.637188334265e-04 -2.343377675312e-05 0.0 
-2.343377675312e-05 6.048569509109e-04 0.0 
0.0 0.0 0.0 
-2.833712019154e-04 2.476535407212e-05 0.0 
2.476535407212e-05 7.887853445467e-03 0.0 
0.0 0.0 0.0 
-2.719843458176e-04 2.810512686146e-05 0.0 
2.810512686146e-05 8.126606695893e-03 0.0 
0.0 0.0 0.0 
-2.793878459814e-04 1.306606771555e-05 0.0 
1.306606771555e-05 7.669947602884e-03 0.0 
0.0 0.0 0.0 
1.783601823732e-04 -2.707700632582e-05 0.0 
-2.707700632582e-05 1.598112082062e-03 0.0 
0.0 0.0 0.0 
-3.495591292123e-04 6.594661609385e-05 0.0 
6.594661609385e-05 7.961562943034e-03 0.0 
0.0 0.0 0.0 
-3.655981653674e-04 9.997359193884e-05 0.0 
9.997359193884e-05 8.209405980683e-03 0.0 
0.0 0.0 0.0 
-5.544016607650e-05 -9.145370994960e-05 0.0 
-9.145370994960e-05 6.511822019731e-04 0.0 
0.0 0.0 0.0 
-1.054790612989e-04 2.553500136066e-04 0.0 
2.553500136066e-04 1.059867542486e-02 0.0 
0.0 0.0 0.0 
-2.340953700292e-05 -7.875043652141e-05 0.0 
-7.875043652141e-05 6.719501729307e-04 0.0 
0.0 0.0 0.0 
2.533226672939e-05 -7.562584866271e-05 0.0 
-7.562584866271e-05 8.135752529484e-04 0.0 
0.0 0.0 0.0 
2.237455203406e-04 4.384746513481e-04 0.0 
4.384746513481e-04 7.630193616122e-03 0.0 
0.0 0.0 0.0 
2.629681606239e-04 3.706158401252e-04 0.0 
3.706158401252e-04 7.320391138888e-03 0.0 
0.0 0.0 0.0 
1.783068881762e-04 4.013670774472e-04 0.0 
4.013670774472e-04 7.792105340886e-03 0.0 
0.0 0.0 0.0 
2.184338441941e-04 3.451981818142e-04 0.0 
3.451981818142e-04 7.484045845900e-03 0.0 
0.0 0.0 0.0 
2.988955721393e-04 3.119216453110e-04 0.0 
3.119216453110e-04 7.018193692043e-03 0.0 
0.0 0.0 0.0 
2.615701969556e-04 2.889575927052e-04 0.0 
2.889575927052e-04 7.209424476991e-03 0.0 
0.0 0.0 0.0 
-3.111561448038e-04 3.202297808212e-05 0.0 
3.202297808212e-05 7.846332465518e-03 0.0 
0.0 0.0 0.0 
1.702634021509e-04 3.253616834178e-04 0.0 
3.253616834178e-04 7.746547158508e-03 0.0 
0.0 0.0 0.0 
2.190718853500e-04 2.583862873063e-04 0.0 
2.583862873063e-04 7.411192266319e-03 0.0 
0.0 0.0 0.0 
1.290088732494e-04 2.872135276238e-04 0.0 
2.872135276238e-04 7.951124128734e-03 0.0 
0.0 0.0 0.0 
-5.277505198638e-04 2.665381135454e-04 0.0 
2.665381135454e-04 6.560678324283e-03 0.0 
0.0 0.0 0.0 
-3.096956415708e-04 9.285530098545e-04 0.0 
9.285530098545e-04 4.973911194829e-03 0.0 
0.0 0.0 0.0 
-4.302954346610e-04 7.786720310461e-04 0.0 
7.786720310461e-04 5.116022740743e-03 0.0 
0.0 0.0 0.0 
-4.359567736519e-04 6.862219184586e-04 0.0 
6.862219184586e-04 4.843441021836e-03 0.0 
0.0 0.0 0.0 
-1.481942557619e-04 8.365965971664e-04 0.0 
8.365965971664e-04 9.860583760569e-03 0.0 
0.0 0.0 0.0 
-2.076905137702e-04 7.677856027344e-04 0.0 
7.677856027344e-04 9.732686312080e-03 0.0 
0.0 0.0 0.0 
3.159341712734e-04 5.930724624421e-05 0.0 
5.930724624421e-05 6.504073669418e-03 0.0 
0.0 0.0 0.0 
3.615483942162e-04 5.109900337264e-05 0.0 
5.109900337264e-05 6.038708716207e-03 0.0 
0.0 0.0 0.0 
-2.714512160933e-04 1.716578098629e-05 0.0 
1.716578098629e-05 7.906834715421e-03 0.0 
0.0 0.0 0.0 
-2.633599877993e-04 9.708622558627e-06 0.0 
9.708622558627e-06 7.881660874676e-03 0.0 
0.0 0.0 0.0 
-2.561146117365e-04 2.559862953455e-05 0.0 
2.559862953455e-05 8.261530050628e-03 0.0 
0.0 0.0 0.0 
-2.516090005435e-04 1.310279776963e-05 0.0 
1.310279776963e-05 8.209188630729e-03 0.0 
0.0 0.0 0.0 
-2.405098286693e-04 2.815998993970e-05 0.0 
2.815998993970e-05 8.587719561319e-03 0.0 
0.0 0.0 0.0 
-2.356423964481e-04 1.264817196915e-05 0.0 
1.264817196915e-05 8.527555740706e-03 0.0 
0.0 0.0 0.0 
-2.196597834680e-04 2.021919695369e-05 0.0 
2.021919695369e-05 8.910339704041e-03 0.0 
0.0 0.0 0.0 
-4.344957317542e-05 9.720468906697e-04 0.0 
9.720468906697e-04 9.347157764072e-03 0.0 
0.0 0.0 0.0 
-2.288097755147e-04 9.912140604018e-04 0.0 
9.912140604018e-04 3.816655769851e-03 0.0 
0.0 0.0 0.0 
-5.186169468624e-04 2.186470643295e-04 0.0 
2.186470643295e-04 7.023973828418e-03 0.0 
0.0 0.0 0.0 
1.227631599261e-04 9.009928744414e-04 0.0 
9.009928744414e-04 8.501223250043e-03 0.0 
0.0 0.0 0.0 
1.718431461984e-04 8.446155446927e-04 0.0 
8.446155446927e-04 8.116035513757e-03 0.0 
0.0 0.0 0.0 
-5.362807640593e-04 4.229004399823e-04 0.0 
4.229004399823e-04 6.379706576471e-03 0.0 
0.0 0.0 0.0 
-5.231105828159e-04 3.507305795414e-04 0.0 
3.507305795414e-04 6.057538959199e-03 0.0 
0.0 0.0 0.0 
1.941604040620e-04 5.385040540192e-04 0.0 
5.385040540192e-04 7.850930447577e-03 0.0 
0.0 0.0 0.0 
1.119618094501e-04 9.772979729321e-04 0.0 
9.772979729321e-04 4.572177758378e-03 0.0 
0.0 0.0 0.0 
-7.663863835087e-05 3.020061164608e-04 0.0 
3.020061164608e-04 1.079643092974e-02 0.0 
0.0 0.0 0.0 
-3.937136625504e-04 2.218973764990e-04 0.0 
2.218973764990e-04 5.081191207206e-04 0.0 
0.0 0.0 0.0 
-1.286594146949e-04 2.399153876848e-04 0.0 
2.399153876848e-04 8.237625785563e-04 0.0 
0.0 0.0 0.0 
-1.375396398684e-05 9.773322005933e-04 0.0 
9.773322005933e-04 5.067325155573e-03 0.0 
0.0 0.0 0.0 
-5.310811168012e-04 4.795559750463e-04 0.0 
4.795559750463e-04 6.710233647753e-03 0.0 
0.0 0.0 0.0 
-3.958512138641e-04 8.149915114197e-04 0.0 
8.149915114197e-04 5.399156229572e-03 0.0 
0.0 0.0 0.0 
-4.713287291701e-04 6.696637514250e-04 0.0 
6.696637514250e-04 5.481768208243e-03 0.0 
0.0 0.0 0.0 
4.269331350233e-04 5.339620776850e-04 0.0 
5.339620776850e-04 6.376056790236e-03 0.0 
0.0 0.0 0.0 
1.312621366554e-05 -1.149241567017e-04 0.0 
-1.149241567017e-04 9.405508456949e-04 0.0 
0.0 0.0 0.0 
6.726563117881e-05 9.756050976532e-04 0.0 
9.756050976532e-04 2.921976224370e-03 0.0 
0.0 0.0 0.0 
-2.227368806412e-04 4.179912305995e-05 0.0 
4.179912305995e-05 8.957895248366e-03 0.0 
0.0 0.0 0.0 
-4.782957130476e-05 9.090752587204e-04 0.0 
9.090752587204e-04 2.528480889700e-03 0.0 
0.0 0.0 0.0 
3.378850121346e-04 2.804907969504e-05 0.0 
2.804907969504e-05 6.277475172278e-03 0.0 
0.0 0.0 0.0 
2.216051180272e-04 9.194157825174e-04 0.0 
9.194157825174e-04 4.518757108631e-03 0.0 
0.0 0.0 0.0 
-4.420024279014e-04 6.863671349906e-04 0.0 
6.863671349906e-04 6.752197867628e-03 0.0 
0.0 0.0 0.0 
1.131882635675e-04 1.013405972981e-03 0.0 
1.013405972981e-03 3.331168361898e-03 0.0 
0.0 0.0 0.0 
-1.675724646502e-04 9.943050042033e-04 0.0 
9.943050042033e-04 4.834858825680e-03 0.0 
0.0 0.0 0.0 
-4.985757056943e-04 3.833338810175e-04 0.0 
3.833338810175e-04 8.091686902483e-03 0.0 
0.0 0.0 0.0 
-4.965046695849e-04 2.444919859858e-04 0.0 
2.444919859858e-04 7.849589882459e-03 0.0 
0.0 0.0 0.0 
-5.122446093087e-04 2.586310169502e-04 0.0 
2.586310169502e-04 7.617132420861e-03 0.0 
0.0 0.0 0.0 
3.117201446529e-04 8.488329943649e-04 0.0 
8.488329943649e-04 4.497316217864e-03 0.0 
0.0 0.0 0.0 
-5.073195630052e-04 5.688164089400e-04 0.0 
5.688164089400e-04 5.817134230202e-03 0.0 
0.0 0.0 0.0 
-4.926098859590e-04 4.695896577117e-04 0.0 
4.695896577117e-04 5.481006214646e-03 0.0 
0.0 0.0 0.0 
-4.942325340730e-04 5.246709309500e-04 0.0 
5.246709309500e-04 7.653690805801e-03 0.0 
0.0 0.0 0.0 
-3.107211111702e-04 3.732867261147e-04 0.0 
3.732867261147e-04 9.650382801319e-03 0.0 
0.0 0.0 0.0 
-2.939817869663e-04 4.324484203318e-04 0.0 
4.324484203318e-04 9.782473730993e-03 0.0 
0.0 0.0 0.0 
-2.268916522746e-04 4.765725415151e-04 0.0 
4.765725415151e-04 1.012615961699e-02 0.0 
0.0 0.0 0.0 
-2.725441405159e-04 4.928940973678e-04 0.0 
4.928940973678e-04 9.902132054229e-03 0.0 
0.0 0.0 0.0 
-3.352060862311e-04 4.440975467802e-04 0.0 
4.440975467802e-04 9.548152185200e-03 0.0 
0.0 0.0 0.0 
-3.129898524460e-04 5.060481900631e-04 0.0 
5.060481900631e-04 9.663786929499e-03 0.0 
0.0 0.0 0.0 
-2.404672564969e-04 5.560290467370e-04 0.0 
5.560290467370e-04 1.001360979827e-02 0.0 
0.0 0.0 0.0 
-2.813004918028e-04 5.734681384387e-04 0.0 
5.734681384387e-04 9.776748889150e-03 0.0 
0.0 0.0 0.0 
-1.926220806976e-04 6.291655091908e-04 0.0 
6.291655091908e-04 1.018264862987e-02 0.0 
0.0 0.0 0.0 
-2.469135190015e-04 6.388065739076e-04 0.0 
6.388065739076e-04 9.864628153671e-03 0.0 
0.0 0.0 0.0 
-3.176677073319e-04 5.884433103315e-04 0.0 
5.884433103315e-04 9.508453665477e-03 0.0 
0.0 0.0 0.0 
-2.857306433651e-04 6.511285708793e-04 0.0 
6.511285708793e-04 9.587332716710e-03 0.0 
0.0 0.0 0.0 
-2.190653591866e-04 7.019261836051e-04 0.0 
7.019261836051e-04 9.909350919350e-03 0.0 
0.0 0.0 0.0 
-3.491456856667e-04 6.021847109296e-04 0.0 
6.021847109296e-04 9.236439525749e-03 0.0 
0.0 0.0 0.0 
7.290532331698e-05 9.530772793617e-04 0.0 
9.530772793617e-04 8.856541947686e-03 0.0 
0.0 0.0 0.0 
-9.256481870020e-06 9.467960877252e-04 0.0 
9.467960877252e-04 5.465492591764e-03 0.0 
0.0 0.0 0.0 
2.384208699948e-05 1.737350342313e-04 0.0 
1.737350342313e-04 1.000391861594e-03 0.0 
0.0 0.0 0.0 
-8.641741656423e-06 4.253572556187e-04 0.0 
4.253572556187e-04 1.149768835102e-03 0.0 
0.0 0.0 0.0 
-4.702830224934e-04 6.233740888854e-04 0.0 
6.233740888854e-04 7.070754603263e-03 0.0 
0.0 0.0 0.0 
-9.795982523673e-05 6.525201516781e-04 0.0 
6.525201516781e-04 1.056340174382e-02 0.0 
0.0 0.0 0.0 
-9.356911190717e-05 5.350366057294e-04 0.0 
5.350366057294e-04 1.068880864533e-02 0.0 
0.0 0.0 0.0 
3.422911994319e-04 8.498297319509e-04 0.0 
8.498297319509e-04 3.584338787560e-03 0.0 
0.0 0.0 0.0 
-7.191863079263e-05 9.130181880136e-04 0.0 
9.130181880136e-04 1.015439242687e-02 0.0 
0.0 0.0 0.0 
-5.178734243918e-04 3.303938002099e-04 0.0 
3.303938002099e-04 7.736870140324e-03 0.0 
0.0 0.0 0.0 
4.047133870128e-04 5.160499330997e-04 0.0 
5.160499330997e-04 2.214768521242e-03 0.0 
0.0 0.0 0.0 
-4.706706223808e-05 9.857932778504e-04 0.0 
9.857932778504e-04 9.920073193644e-03 0.0 
0.0 0.0 0.0 
-3.507105612664e-04 3.839401941707e-04 0.0 
3.839401941707e-04 9.419839406967e-03 0.0 
0.0 0.0 0.0 
-3.873723428234e-04 3.921731136144e-04 0.0 
3.921731136144e-04 9.181458680899e-03 0.0 
0.0 0.0 0.0 
-3.956175466614e-04 3.330345802890e-04 0.0 
3.330345802890e-04 9.048485139409e-03 0.0 
0.0 0.0 0.0 
-7.845743021108e-05 4.386487954782e-04 0.0 
4.386487954782e-04 1.078026553979e-02 0.0 
0.0 0.0 0.0 
-3.519971733687e-04 1.386632093547e-04 0.0 
1.386632093547e-04 8.620904068899e-03 0.0 
0.0 0.0 0.0 
1.022298302400e-05 1.030671718830e-03 0.0 
1.030671718830e-03 9.413257939998e-03 0.0 
0.0 0.0 0.0 
2.885946350680e-04 7.816346226014e-04 0.0 
7.816346226014e-04 6.298643692642e-03 0.0 
0.0 0.0 0.0 
2.347821903133e-04 8.206051394395e-04 0.0 
8.206051394395e-04 6.257539875967e-03 0.0 
0.0 0.0 0.0 
2.549814985237e-04 8.245003385423e-04 0.0 
8.245003385423e-04 5.820713105649e-03 0.0 
0.0 0.0 0.0 
-3.485597995001e-04 5.196487752764e-04 0.0 
5.196487752764e-04 9.411405639826e-03 0.0 
0.0 0.0 0.0 
7.047268049550e-05 9.204648085501e-04 0.0 
9.204648085501e-04 8.869405564065e-03 0.0 
0.0 0.0 0.0 
1.395267734874e-04 8.466099173653e-04 0.0 
8.466099173653e-04 8.418072942934e-03 0.0 
0.0 0.0 0.0 
1.535795224771e-04 8.011828336317e-04 0.0 
8.011828336317e-04 8.312454431921e-03 0.0 
0.0 0.0 0.0 
2.077632266130e-04 7.798578981696e-04 0.0 
7.798578981696e-04 7.936233642060e-03 0.0 
0.0 0.0 0.0 
8.754199141995e-05 8.243325439473e-04 0.0 
8.243325439473e-04 8.663417195907e-03 0.0 
0.0 0.0 0.0 
-8.604637882489e-05 7.650856549791e-04 0.0 
7.650856549791e-04 1.045567665666e-02 0.0 
0.0 0.0 0.0 
-7.902719151108e-05 8.199180154413e-04 0.0 
8.199180154413e-04 1.038017661204e-02 0.0 
0.0 0.0 0.0 
4.603472797448e-04 8.801508045867e-05 0.0 
8.801508045867e-05 2.501046607446e-03 0.0 
0.0 0.0 0.0 
5.088825877884e-04 1.797130766543e-04 0.0 
1.797130766543e-04 2.778159546354e-03 0.0 
0.0 0.0 0.0 
5.438167053903e-04 2.375835026955e-04 0.0 
2.375835026955e-04 3.211580028402e-03 0.0 
0.0 0.0 0.0 
5.396728153606e-04 2.831325187105e-04 0.0 
2.831325187105e-04 3.077705628961e-03 0.0 
0.0 0.0 0.0 
5.018212453272e-04 2.222098312387e-04 0.0 
2.222098312387e-04 2.636324752943e-03 0.0 
0.0 0.0 0.0 
5.305212954968e-04 3.386232783030e-04 0.0 
3.386232783030e-04 2.950450195223e-03 0.0 
0.0 0.0 0.0 
5.487399535330e-04 3.927150676476e-04 0.0 
3.927150676476e-04 3.401395816053e-03 0.0 
0.0 0.0 0.0 
5.151388214907e-04 4.057729790459e-04 0.0 
4.057729790459e-04 2.834505089534e-03 0.0 
0.0 0.0 0.0 
-2.710449735568e-04 7.219314207432e-04 0.0 
7.219314207432e-04 9.389147175113e-03 0.0 
0.0 0.0 0.0 
9.242688871706e-05 7.176938596115e-04 0.0 
7.176938596115e-04 8.506449829007e-03 0.0 
0.0 0.0 0.0 
5.089168536440e-04 3.298749829439e-04 0.0 
3.298749829439e-04 5.421202687910e-03 0.0 
0.0 0.0 0.0 
5.234216557346e-04 3.551493884930e-04 0.0 
3.551493884930e-04 5.265715682383e-03 0.0 
0.0 0.0 0.0 
5.456857545444e-04 3.124709191672e-04 0.0 
3.124709191672e-04 4.812154532098e-03 0.0 
0.0 0.0 0.0 
4.588685219796e-04 2.795057000242e-05 0.0 
2.795057000242e-05 3.800998143263e-03 0.0 
0.0 0.0 0.0 
4.818800211409e-04 6.122022567093e-05 0.0 
6.122022567093e-05 4.047538381780e-03 0.0 
0.0 0.0 0.0 
4.878125794926e-04 9.632824324530e-05 0.0 
9.632824324530e-05 4.476906336500e-03 0.0 
0.0 0.0 0.0 
4.323597168612e-04 2.315472559796e-06 0.0 
2.315472559796e-06 3.560608750366e-03 0.0 
0.0 0.0 0.0 
-1.208152524655e-04 8.574544138303e-04 0.0 
8.574544138303e-04 7.791447631261e-03 0.0 
0.0 0.0 0.0 
9.401263077435e-05 6.586475022472e-04 0.0 
6.586475022472e-04 8.429931343715e-03 0.0 
0.0 0.0 0.0 
4.693770855464e-04 5.714802087298e-04 0.0 
5.714802087298e-04 5.675250401625e-03 0.0 
0.0 0.0 0.0 
4.901768026325e-04 6.350991386937e-05 0.0 
6.350991386937e-05 3.872064712513e-03 0.0 
0.0 0.0 0.0 
-4.012621096400e-04 6.752088532401e-05 0.0 
6.752088532401e-05 7.555889078482e-03 0.0 
0.0 0.0 0.0 
-4.117030559975e-04 1.172614824764e-04 0.0 
1.172614824764e-04 7.913636304307e-03 0.0 
0.0 0.0 0.0 
-4.383212569994e-04 1.380894374692e-04 0.0 
1.380894374692e-04 7.913533145924e-03 0.0 
0.0 0.0 0.0 
-4.145348430328e-04 1.696006680493e-04 0.0 
1.696006680493e-04 8.296716499504e-03 0.0 
0.0 0.0 0.0 
-3.885680802896e-04 9.292610283343e-05 0.0 
9.292610283343e-05 7.954019301252e-03 0.0 
0.0 0.0 0.0 
4.522923741951e-04 5.474712142431e-05 0.0 
5.474712142431e-05 4.583827037021e-03 0.0 
0.0 0.0 0.0 
4.414164352305e-04 5.046226343572e-05 0.0 
5.046226343572e-05 4.766895771350e-03 0.0 
0.0 0.0 0.0 
4.356800533390e-04 3.011296462515e-05 0.0 
3.011296462515e-05 4.526080664537e-03 0.0 
0.0 0.0 0.0 
4.308065877873e-04 4.356117665785e-05 0.0 
4.356117665785e-05 4.951439296511e-03 0.0 
0.0 0.0 0.0 
4.305154121616e-04 2.283424390764e-05 0.0 
2.283424390764e-05 4.700503889094e-03 0.0 
0.0 0.0 0.0 
4.306125367940e-04 1.312671376317e-05 0.0 
1.312671376317e-05 4.308909597327e-03 0.0 
0.0 0.0 0.0 
4.211113975667e-04 3.211861858355e-05 0.0 
3.211861858355e-05 5.129353711690e-03 0.0 
0.0 0.0 0.0 
4.233652876070e-04 1.743328127664e-05 0.0 
1.743328127664e-05 4.850898575599e-03 0.0 
0.0 0.0 0.0 
-3.599819936826e-04 3.914039177424e-05 0.0 
3.914039177424e-05 7.549627603769e-03 0.0 
0.0 0.0 0.0 
-3.698269021546e-04 -6.660781809011e-05 0.0 
-6.660781809011e-05 4.212365781719e-04 0.0 
0.0 0.0 0.0 
-1.710754315674e-04 -9.391249072254e-05 0.0 
-9.391249072254e-05 6.677540356643e-04 0.0 
0.0 0.0 0.0 
-1.612218819735e-04 -1.032867830778e-04 0.0 
-1.032867830778e-04 6.483292034704e-04 0.0 
0.0 0.0 0.0 
-1.991626662436e-05 -1.072505208560e-04 0.0 
-1.072505208560e-04 9.442730190459e-04 0.0 
0.0 0.0 0.0 
8.869481007793e-07 -7.516565891779e-05 0.0 
-7.516565891779e-05 9.710832747734e-04 0.0 
0.0 0.0 0.0 
1.444508515992e-04 -6.851435279548e-05 0.0 
-6.851435279548e-05 1.292168545800e-03 0.0 
0.0 0.0 0.0 
1.417613669265e-04 -4.128985707753e-05 0.0 
-4.128985707753e-05 1.251913123123e-03 0.0 
0.0 0.0 0.0 
-1.754860708451e-04 -8.247432287762e-05 0.0 
-8.247432287762e-05 6.757545144053e-04 0.0 
0.0 0.0 0.0 
-2.938442931570e-04 -6.710642869267e-05 0.0 
-6.710642869267e-05 3.840846990194e-04 0.0 
0.0 0.0 0.0 
-1.366876978672e-04 -1.017330554504e-04 0.0 
-1.017330554504e-04 6.361014085275e-04 0.0 
0.0 0.0 0.0 
-2.500436959188e-04 -6.330210186564e-05 0.0 
-6.330210186564e-05 3.619257199294e-04 0.0 
0.0 0.0 0.0 
-1.160116304958e-04 -1.021853693889e-04 0.0 
-1.021853693889e-04 6.145531244244e-04 0.0 
0.0 0.0 0.0 
9.465331488125e-06 -1.165182644940e-04 0.0 
-1.165182644940e-04 9.719896002882e-04 0.0 
0.0 0.0 0.0 
1.563102154318e-04 -1.099744471985e-04 0.0 
-1.099744471985e-04 1.468828583592e-03 0.0 
0.0 0.0 0.0 
9.037970275836e-05 1.661003214961e-04 0.0 
1.661003214961e-04 8.018512787908e-03 0.0 
0.0 0.0 0.0 
3.965779417182e-04 -7.191340547313e-07 0.0 
-7.191340547313e-07 3.668683747108e-03 0.0 
0.0 0.0 0.0 
3.846044937314e-04 -3.605493928065e-06 0.0 
-3.605493928065e-06 3.470949943940e-03 0.0 
0.0 0.0 0.0 
3.578986940472e-04 -1.069217227602e-05 0.0 
-1.069217227602e-05 3.078084439280e-03 0.0 
0.0 0.0 0.0 
3.758864602745e-04 -1.473293973586e-05 0.0 
-1.473293973586e-05 3.290269129325e-03 0.0 
0.0 0.0 0.0 
4.063942240325e-04 3.858146400074e-06 0.0 
3.858146400074e-06 3.834506104924e-03 0.0 
0.0 0.0 0.0 
3.350327508505e-04 -6.735497357961e-06 0.0 
-6.735497357961e-06 2.864098810988e-03 0.0 
0.0 0.0 0.0 
3.209326473339e-04 -1.542444555246e-05 0.0 
-1.542444555246e-05 2.720153171550e-03 0.0 
0.0 0.0 0.0 
4.974445863744e-06 -1.359710402185e-05 0.0 
-1.359710402185e-05 2.550142365470e-04 0.0 
0.0 0.0 0.0 
4.559869379757e-05 -2.523787232131e-05 0.0 
-2.523787232131e-05 5.562666199499e-04 0.0 
0.0 0.0 0.0 
3.644696194414e-05 -1.310953678781e-05 0.0 
-1.310953678781e-05 5.242059160280e-04 0.0 
0.0 0.0 0.0 
8.292719562553e-05 -1.963074460305e-05 0.0 
-1.963074460305e-05 8.957161899319e-04 0.0 
0.0 0.0 0.0 
8.222777078197e-05 -3.566465461686e-05 0.0 
-3.566465461686e-05 8.886874107326e-04 0.0 
0.0 0.0 0.0 
3.954673016615e-05 -3.164978109436e-05 0.0 
-3.164978109436e-05 5.628218409464e-04 0.0 
0.0 0.0 0.0 
2.840047366365e-05 -3.912826749780e-05 0.0 
-3.912826749780e-05 5.686777605580e-04 0.0 
0.0 0.0 0.0 
-2.404334944378e-05 -2.756339034527e-05 0.0 
-2.756339034527e-05 2.665793339374e-04 0.0 
0.0 0.0 0.0 
1.897404640237e-05 -4.981288391716e-05 0.0 
-4.981288391716e-05 5.722906697878e-04 0.0 
0.0 0.0 0.0 
7.369735104919e-05 -5.560509033103e-05 0.0 
-5.560509033103e-05 9.103293413673e-04 0.0 
0.0 0.0 0.0 
-4.224898125695e-05 -3.371250402408e-05 0.0 
-3.371250402408e-05 2.646685274046e-04 0.0 
0.0 0.0 0.0 
-1.815061685768e-04 9.033283359435e-06 0.0 
9.033283359435e-06 9.445431319582e-03 0.0 
0.0 0.0 0.0 
-1.663510974443e-04 2.568396545611e-05 0.0 
2.568396545611e-05 9.665209276605e-03 0.0 
0.0 0.0 0.0 
9.906223801644e-05 5.438357797940e-04 0.0 
5.438357797940e-04 8.284553268077e-03 0.0 
0.0 0.0 0.0 
-3.233719053630e-04 2.330383898680e-05 0.0 
2.330383898680e-05 7.588983433928e-03 0.0 
0.0 0.0 0.0 
-1.696559053782e-04 -5.285790308020e-05 0.0 
-5.285790308020e-05 3.323735564770e-04 0.0 
0.0 0.0 0.0 
-5.544518144248e-05 1.081341470329e-04 0.0 
1.081341470329e-04 1.082934278880e-02 0.0 
0.0 0.0 0.0 
-5.554217033619e-05 1.963527014397e-04 0.0 
1.963527014397e-04 1.087418545596e-02 0.0 
0.0 0.0 0.0 
-4.836694059490e-05 1.695938248997e-04 0.0 
1.695938248997e-04 1.088838095591e-02 0.0 
0.0 0.0 0.0 
2.176148202309e-04 3.663491121074e-05 0.0 
3.663491121074e-05 7.235803343823e-03 0.0 
0.0 0.0 0.0 
1.848369592165e-04 7.272666797800e-05 0.0 
7.272666797800e-05 7.477795686068e-03 0.0 
0.0 0.0 0.0 
-5.000629340566e-05 6.187369793450e-05 0.0 
6.187369793450e-05 1.084561003550e-02 0.0 
0.0 0.0 0.0 
3.331118338696e-04 -6.728210391901e-05 0.0 
-6.728210391901e-05 2.400134636312e-03 0.0 
0.0 0.0 0.0 
-2.015129179776e-04 5.411289955068e-04 0.0 
5.411289955068e-04 1.023859787387e-02 0.0 
0.0 0.0 0.0 
-1.397199348162e-04 1.090612197127e-04 0.0 
1.090612197127e-04 1.015545542354e-02 0.0 
0.0 0.0 0.0 
3.470997301600e-04 6.224201800850e-04 0.0 
6.224201800850e-04 2.193340255886e-03 0.0 
0.0 0.0 0.0 
3.620375482519e-04 -5.092367183187e-05 0.0 
-5.092367183187e-05 2.326576973843e-03 0.0 
0.0 0.0 0.0 
3.852806452592e-04 7.048215004575e-05 0.0 
7.048215004575e-05 5.832326181409e-03 0.0 
0.0 0.0 0.0 
4.622819047803e-04 1.644328272251e-04 0.0 
1.644328272251e-04 5.354246262346e-03 0.0 
0.0 0.0 0.0 
2.916707995992e-04 1.594524635255e-04 0.0 
1.594524635255e-04 6.825617402026e-03 0.0 
0.0 0.0 0.0 
4.251892197012e-04 1.003897244656e-04 0.0 
1.003897244656e-04 5.452050223522e-03 0.0 
0.0 0.0 0.0 
3.562522430097e-04 2.070092820684e-04 0.0 
2.070092820684e-04 6.449749064343e-03 0.0 
0.0 0.0 0.0 
1.735943642453e-04 7.483677357799e-04 0.0 
7.483677357799e-04 8.168506076082e-03 0.0 
0.0 0.0 0.0 
1.614845244569e-04 -4.360279487815e-05 0.0 
-4.360279487815e-05 1.469039458249e-03 0.0 
0.0 0.0 0.0 
-2.855221819671e-04 8.410784800608e-05 0.0 
8.410784800608e-05 8.700139787487e-03 0.0 
0.0 0.0 0.0 
-2.588534526790e-04 4.523996288697e-05 0.0 
4.523996288697e-05 8.546566478333e-03 0.0 
0.0 0.0 0.0 
-2.069788079369e-04 1.004782750028e-04 0.0 
1.004782750028e-04 9.544305404937e-03 0.0 
0.0 0.0 0.0 
3.182938562146e-04 -5.500124733931e-05 0.0 
-5.500124733931e-05 2.518355194432e-03 0.0 
0.0 0.0 0.0 
4.308145899482e-04 1.301909364528e-05 0.0 
1.301909364528e-05 4.117740003772e-03 0.0 
0.0 0.0 0.0 
1.733489037549e-04 -9.066305328498e-05 0.0 
-9.066305328498e-05 1.567759288694e-03 0.0 
0.0 0.0 0.0 
-9.695078473241e-05 9.238793470673e-04 0.0 
9.238793470673e-04 9.677723549261e-03 0.0 
0.0 0.0 0.0 
-5.199321772910e-04 4.789694016507e-04 0.0 
4.789694016507e-04 7.317503424816e-03 0.0 
0.0 0.0 0.0 
5.473893126138e-04 2.422284058296e-04 0.0 
2.422284058296e-04 4.516607234338e-03 0.0 
0.0 0.0 0.0 
4.332183662016e-04 -2.994534930781e-06 0.0 
-2.994534930781e-06 3.383406395740e-03 0.0 
0.0 0.0 0.0 
3.808251523882e-04 -4.582949526405e-05 0.0 
-4.582949526405e-05 2.633380636209e-03 0.0 
0.0 0.0 0.0 
3.478077206250e-04 -4.988311863044e-05 0.0 
-4.988311863044e-05 2.167991045087e-03 0.0 
0.0 0.0 0.0 
-1.140276096606e-04 9.211963067513e-04 0.0 
9.211963067513e-04 5.916237152867e-03 0.0 
0.0 0.0 0.0 
5.118898127665e-04 1.090014850301e-04 0.0 
1.090014850301e-04 4.128660479061e-03 0.0 
0.0 0.0 0.0 
4.236417799528e-04 3.257137865064e-04 0.0 
3.257137865064e-04 6.206037734000e-03 0.0 
0.0 0.0 0.0 
-1.794431508998e-04 9.316027370340e-05 0.0 
9.316027370340e-05 9.762956757848e-03 0.0 
0.0 0.0 0.0 
-1.104618976646e-04 -4.537982971017e-05 0.0 
-4.537982971017e-05 3.403832181317e-04 0.0 
0.0 0.0 0.0 
3.979232209664e-04 3.879788512760e-04 0.0 
3.879788512760e-04 6.508326955350e-03 0.0 
0.0 0.0 0.0 
5.023547576848e-04 1.901989860894e-04 0.0 
1.901989860894e-04 5.006195491218e-03 0.0 
0.0 0.0 0.0 
-3.235065241549e-04 1.410968212138e-04 0.0 
1.410968212138e-04 8.846751726847e-03 0.0 
0.0 0.0 0.0 
2.589689763833e-04 7.796114872702e-04 0.0 
7.796114872702e-04 7.247729447143e-03 0.0 
0.0 0.0 0.0 
1.964882082160e-04 -7.816634223381e-05 0.0 
-7.816634223381e-05 1.475218122592e-03 0.0 
0.0 0.0 0.0 
-2.271316592615e-04 1.665328702557e-04 0.0 
1.665328702557e-04 9.679705000171e-03 0.0 
0.0 0.0 0.0 
-1.799561611259e-04 3.317949339475e-04 0.0 
3.317949339475e-04 1.030074376585e-02 0.0 
0.0 0.0 0.0 
-3.768368099777e-04 1.333913083962e-04 0.0 
1.333913083962e-04 8.395846210861e-03 0.0 
0.0 0.0 0.0 
1.010154169389e-04 -8.863880990268e-05 0.0 
-8.863880990268e-05 1.183562385269e-03 0.0 
0.0 0.0 0.0 
-3.027727186658e-04 5.827392507939e-05 0.0 
5.827392507939e-05 8.283554477864e-03 0.0 
0.0 0.0 0.0 
2.413804080889e-04 5.616704784347e-04 0.0 
5.616704784347e-04 7.627705565922e-03 0.0 
0.0 0.0 0.0 
-3.220764502079e-04 3.174484162608e-04 0.0 
3.174484162608e-04 9.507526976290e-03 0.0 
0.0 0.0 0.0 
2.827067859892e-04 -5.661900692926e-05 0.0 
-5.661900692926e-05 2.294399743640e-03 0.0 
0.0 0.0 0.0 
4.831121038322e-04 5.928815430495e-04 0.0 
5.928815430495e-04 5.126679498817e-03 0.0 
0.0 0.0 0.0 
-3.658569887104e-04 7.672463533264e-04 0.0 
7.672463533264e-04 6.741490078130e-03 0.0 
0.0 0.0 0.0 
-4.823265787148e-04 1.373279145369e-04 0.0 
1.373279145369e-04 7.118485807845e-03 0.0 
0.0 0.0 0.0 
-1.273996409990e-04 1.362201661603e-04 0.0 
1.362201661603e-04 1.031844549605e-02 0.0 
0.0 0.0 0.0 
8.971072826262e-05 8.834542789045e-04 0.0 
8.834542789045e-04 6.230120473841e-03 0.0 
0.0 0.0 0.0 
2.790375027285e-04 7.328731050034e-04 0.0 
7.328731050034e-04 7.425182338111e-03 0.0 
0.0 0.0 0.0 
4.191685469384e-04 6.404602586981e-04 0.0 
6.404602586981e-04 6.041383454292e-03 0.0 
0.0 0.0 0.0 
2.992842861842e-04 -4.142706035658e-05 0.0 
-4.142706035658e-05 2.471012405364e-03 0.0 
0.0 0.0 0.0 
3.330051435760e-04 3.366998203199e-04 0.0 
3.366998203199e-04 6.847710962348e-03 0.0 
0.0 0.0 0.0 
3.393282433973e-04 7.762123079980e-04 0.0 
7.762123079980e-04 5.405031530456e-03 0.0 
0.0 0.0 0.0 
-1.829249989485e-04 1.930019847775e-04 0.0 
1.930019847775e-04 1.006672284531e-02 0.0 
0.0 0.0 0.0 
-2.636701004286e-04 7.816287502621e-04 0.0 
7.816287502621e-04 8.472568323513e-03 0.0 
0.0 0.0 0.0 
4.973638004042e-04 6.074139401149e-04 0.0 
6.074139401149e-04 4.131093518678e-03 0.0 
0.0 0.0 0.0 
-2.493955910431e-04 2.518796767497e-04 0.0 
2.518796767497e-04 9.794261814507e-03 0.0 
0.0 0.0 0.0 
5.529089817043e-04 3.429495190253e-04 0.0 
3.429495190253e-04 4.667244894610e-03 0.0 
0.0 0.0 0.0 
1.974484455088e-04 8.292385936374e-04 0.0 
8.292385936374e-04 7.629026368751e-03 0.0 
0.0 0.0 0.0 
-5.133430243142e-04 5.276885266237e-04 0.0 
5.276885266237e-04 7.039813765384e-03 0.0 
0.0 0.0 0.0 
-3.392197935397e-04 7.408994506827e-04 0.0 
7.408994506827e-04 7.763462993816e-03 0.0 
0.0 0.0 0.0 
-4.177363377969e-04 5.753059066321e-04 0.0 
5.753059066321e-04 8.616482477536e-03 0.0 
0.0 0.0 0.0 
-1.612398609386e-04 8.570273420699e-04 0.0 
8.570273420699e-04 7.050402941278e-03 0.0 
0.0 0.0 0.0 
3.973269281734e-04 4.422233964374e-05 0.0 
4.422233964374e-05 5.579819830029e-03 0.0 
0.0 0.0 0.0 
3.665537989116e-04 3.637212728672e-04 0.0 
3.637212728672e-04 6.675465366742e-03 0.0 
0.0 0.0 0.0 
3.181331509196e-04 1.313034768894e-04 0.0 
1.313034768894e-04 1.639997065024e-03 0.0 
0.0 0.0 0.0 
-1.469120415711e-04 9.705059593540e-04 0.0 
9.705059593540e-04 5.189309514982e-03 0.0 
0.0 0.0 0.0 
-3.569532405237e-04 1.771602468824e-04 0.0 
1.771602468824e-04 8.800326515102e-03 0.0 
0.0 0.0 0.0 
-1.120528008625e-04 8.889455481697e-04 0.0 
8.889455481697e-04 8.890727356731e-03 0.0 
0.0 0.0 0.0 
-1.302255859061e-04 2.177444514243e-04 0.0 
2.177444514243e-04 1.044353199813e-02 0.0 
0.0 0.0 0.0 
-3.975375051948e-04 7.581278153081e-04 0.0 
7.581278153081e-04 6.413085546333e-03 0.0 
0.0 0.0 0.0 
3.633374536690e-04 2.800447617279e-04 0.0 
2.800447617279e-04 6.551007071039e-03 0.0 
0.0 0.0 0.0 
-1.961359915618e-04 2.861084979583e-04 0.0 
2.861084979583e-04 1.016150159580e-02 0.0 
0.0 0.0 0.0 
5.004520660751e-04 1.021093685626e-04 0.0 
1.021093685626e-04 4.301022783794e-03 0.0 
0.0 0.0 0.0 
1.935144398848e-04 -1.371792990938e-05 0.0 
-1.371792990938e-05 1.697174642129e-03 0.0 
0.0 0.0 0.0 
2.454025534860e-04 5.616369588262e-04 0.0 
5.616369588262e-04 1.773179647920e-03 0.0 
0.0 0.0 0.0 
5.083180958020e-04 5.382082865354e-04 0.0 
5.382082865354e-04 3.203836325539e-03 0.0 
0.0 0.0 0.0 
1.816303401466e-04 8.671083222551e-04 0.0 
8.671083222551e-04 5.810354896833e-03 0.0 
0.0 0.0 0.0 
4.980069078834e-04 1.399448764188e-04 0.0 
1.399448764188e-04 4.736403983945e-03 0.0 
0.0 0.0 0.0 
-1.703761884595e-04 4.704231719133e-04 0.0 
4.704231719133e-04 1.039457592353e-02 0.0 
0.0 0.0 0.0 
3.306326394836e-04 2.576030024009e-04 0.0 
2.576030024009e-04 6.731467336240e-03 0.0 
0.0 0.0 0.0 
4.114440274819e-04 5.042760488440e-04 0.0 
5.042760488440e-04 6.520873775224e-03 0.0 
0.0 0.0 0.0 
-3.359204747193e-04 7.490405873765e-04 0.0 
7.490405873765e-04 1.570793277550e-03 0.0 
0.0 0.0 0.0 
-5.076130762122e-04 2.043791001456e-04 0.0 
2.043791001456e-04 7.254274394628e-03 0.0 
0.0 0.0 0.0 
2.958179548608e-04 2.325800932705e-04 0.0 
2.325800932705e-04 6.918791076761e-03 0.0 
0.0 0.0 0.0 
5.006640313653e-04 5.421997113551e-04 0.0 
5.421997113551e-04 5.218198704549e-03 0.0 
0.0 0.0 0.0 
2.166496230233e-04 8.096692256495e-04 0.0 
8.096692256495e-04 7.690290342393e-03 0.0 
0.0 0.0 0.0 
4.279167686697e-04 1.151651096982e-05 0.0 
1.151651096982e-05 4.443415081238e-03 0.0 
0.0 0.0 0.0 
-7.621097072671e-05 9.482312401456e-04 0.0 
9.482312401456e-04 9.536897984281e-03 0.0 
0.0 0.0 0.0 
-5.263435647263e-04 3.056203785098e-04 0.0 
3.056203785098e-04 6.313790139471e-03 0.0 
0.0 0.0 0.0 
2.582906207721e-04 2.048611147972e-04 0.0 
2.048611147972e-04 7.117613432458e-03 0.0 
0.0 0.0 0.0 
3.831769733385e-04 6.040758337203e-04 0.0 
6.040758337203e-04 6.720256648112e-03 0.0 
0.0 0.0 0.0 
2.357882177567e-04 9.352730882762e-04 0.0 
9.352730882762e-04 4.076172758368e-03 0.0 
0.0 0.0 0.0 
-2.662113674522e-04 3.901355206508e-06 0.0 
3.901355206508e-06 7.515816871569e-03 0.0 
0.0 0.0 0.0 
1.674871670936e-04 2.272322541277e-04 0.0 
2.272322541277e-04 7.666313067628e-03 0.0 
0.0 0.0 0.0 
3.211680725518e-04 6.424091164796e-04 0.0 
6.424091164796e-04 7.200351903589e-03 0.0 
0.0 0.0 0.0 
-1.409470168472e-04 8.538453811559e-04 0.0 
8.538453811559e-04 7.418296421375e-03 0.0 
0.0 0.0 0.0 
5.351386214248e-04 4.620035955069e-04 0.0 
4.620035955069e-04 4.867231496367e-03 0.0 
0.0 0.0 0.0 
-4.956002073684e-04 1.538299131484e-04 0.0 
1.538299131484e-04 6.672570482202e-03 0.0 
0.0 0.0 0.0 
4.812710375763e-04 1.307366782934e-04 0.0 
1.307366782934e-04 4.911710242911e-03 0.0 
0.0 0.0 0.0 
-3.642623251196e-04 7.031130790712e-04 0.0 
7.031130790712e-04 8.085116073442e-03 0.0 
0.0 0.0 0.0 
-7.124076504922e-05 3.959417136558e-04 0.0 
3.959417136558e-04 1.081306650566e-02 0.0 
0.0 0.0 0.0 
2.672206383032e-04 7.053328571944e-04 0.0 
7.053328571944e-04 7.531239625250e-03 0.0 
0.0 0.0 0.0 
-4.282866216556e-04 3.392588920677e-04 0.0 
3.392588920677e-04 8.811702474005e-03 0.0 
0.0 0.0 0.0 
4.742282820063e-04 9.073215265679e-05 0.0 
9.073215265679e-05 4.653151403084e-03 0.0 
0.0 0.0 0.0 
1.402938412013e-04 8.503484392499e-04 0.0 
8.503484392499e-04 7.083367329921e-03 0.0 
0.0 0.0 0.0 
7.984123523130e-05 -4.853055586003e-05 0.0 
-4.853055586003e-05 8.930006560102e-04 0.0 
0.0 0.0 0.0 
-5.240593524712e-04 2.389810039892e-04 0.0 
2.389810039892e-04 6.796300528542e-03 0.0 
0.0 0.0 0.0 
4.596261578787e-04 8.474839700511e-05 0.0 
8.474839700511e-05 4.832090969415e-03 0.0 
0.0 0.0 0.0 
5.330962967551e-04 4.596194183054e-04 0.0 
4.596194183054e-04 3.293328372986e-03 0.0 
0.0 0.0 0.0 
5.370226319973e-04 4.199493945839e-04 0.0 
4.199493945839e-04 4.985976375352e-03 0.0 
0.0 0.0 0.0 
6.751759898157e-05 9.550518182636e-04 0.0 
9.550518182636e-04 8.782687244073e-03 0.0 
0.0 0.0 0.0 
4.445575846367e-04 7.793253948240e-05 0.0 
7.793253948240e-05 5.014344343216e-03 0.0 
0.0 0.0 0.0 
5.347810776201e-04 5.030685900476e-04 0.0 
5.030685900476e-04 3.752182479445e-03 0.0 
0.0 0.0 0.0 
4.291578860287e-04 6.941161659560e-05 0.0 
6.941161659560e-05 5.198711408217e-03 0.0 
0.0 0.0 0.0 
-4.948199515330e-04 1.911109643667e-04 0.0 
1.911109643667e-04 6.222861712073e-03 0.0 
0.0 0.0 0.0 
-4.201026920259e-04 4.019017499355e-04 0.0 
4.019017499355e-04 8.939617165906e-03 0.0 
0.0 0.0 0.0 
4.145050796340e-04 5.725828031751e-05 0.0 
5.725828031751e-05 5.383887867066e-03 0.0 
0.0 0.0 0.0 
-3.229067764454e-04 7.294892400683e-04 0.0 
7.294892400683e-04 8.435540359217e-03 0.0 
0.0 0.0 0.0 
6.773511854785e-05 -7.263756396621e-05 0.0 
-7.263756396621e-05 9.476688662297e-04 0.0 
0.0 0.0 0.0 
-6.262083957196e-05 8.697750289235e-04 0.0 
8.697750289235e-04 7.417215560215e-03 0.0 
0.0 0.0 0.0 
2.571325824029e-04 6.780672408445e-05 0.0 
6.780672408445e-05 6.982411628289e-03 0.0 
0.0 0.0 0.0 
4.705198765231e-04 3.000580895879e-05 0.0 
3.000580895879e-05 3.121681271685e-03 0.0 
0.0 0.0 0.0 
5.329763266999e-04 3.849544157406e-04 0.0 
3.849544157406e-04 5.118497180655e-03 0.0 
0.0 0.0 0.0 
-3.719836338051e-04 4.548592662662e-04 0.0 
4.548592662662e-04 9.303938213087e-03 0.0 
0.0 0.0 0.0 
-4.843591787889e-04 2.502268895842e-04 0.0 
2.502268895842e-04 5.759970799067e-03 0.0 
0.0 0.0 0.0 
5.030224573638e-04 4.249182477982e-04 0.0 
4.249182477982e-04 5.576748698816e-03 0.0 
0.0 0.0 0.0 
-2.783171402246e-04 7.594047860453e-04 0.0 
7.594047860453e-04 8.792154333872e-03 0.0 
0.0 0.0 0.0 
9.671367167119e-06 8.755055897632e-04 0.0 
8.755055897632e-04 7.430744405918e-03 0.0 
0.0 0.0 0.0 
1.686326563355e-04 8.558906215228e-04 0.0 
8.558906215228e-04 6.232411100625e-03 0.0 
0.0 0.0 0.0 
4.631570160428e-04 4.646566032338e-04 0.0 
4.646566032338e-04 6.044555814462e-03 0.0 
0.0 0.0 0.0 
-5.141381457663e-04 4.070655816400e-04 0.0 
4.070655816400e-04 5.803918675216e-03 0.0 
0.0 0.0 0.0 
3.180317794578e-04 -7.471905579849e-05 0.0 
-7.471905579849e-05 2.237730598929e-03 0.0 
0.0 0.0 0.0 
2.434576001295e-04 -9.762768621213e-05 0.0 
-9.762768621213e-05 1.851948753247e-03 0.0 
0.0 0.0 0.0 
5.516817249399e-04 4.383216857688e-04 0.0 
4.383216857688e-04 3.852011809451e-03 0.0 
0.0 0.0 0.0 
-2.807558960278e-04 7.391894895990e-04 0.0 
7.391894895990e-04 9.099611296368e-03 0.0 
0.0 0.0 0.0 
1.248087828452e-04 -3.491788190399e-05 0.0 
-3.491788190399e-05 1.222601134755e-03 0.0 
0.0 0.0 0.0 
-3.800517554608e-04 5.349385168744e-04 0.0 
5.349385168744e-04 9.151724800744e-03 0.0 
0.0 0.0 0.0 
1.206116878297e-04 -1.179964344168e-04 0.0 
-1.179964344168e-04 1.319063346813e-03 0.0 
0.0 0.0 0.0 
5.575522156127e-04 3.364820249930e-04 0.0 
3.364820249930e-04 3.519692822922e-03 0.0 
0.0 0.0 0.0 
6.522966243764e-05 8.841814168717e-04 0.0 
8.841814168717e-04 7.894617492959e-03 0.0 
0.0 0.0 0.0 
-2.290807403769e-04 6.611415197555e-07 0.0 
6.611415197555e-07 8.656934740687e-03 0.0 
0.0 0.0 0.0 
5.611019227767e-04 2.898349471527e-04 0.0 
2.898349471527e-04 3.646521433354e-03 0.0 
0.0 0.0 0.0 
2.447563395003e-04 -1.146621973498e-05 0.0 
-1.146621973498e-05 2.087214264931e-03 0.0 
0.0 0.0 0.0 
5.443564991800e-04 2.005381563182e-04 0.0 
2.005381563182e-04 3.350506646816e-03 0.0 
0.0 0.0 0.0 
1.550982544715e-04 8.495478303235e-04 0.0 
8.495478303235e-04 6.655395621101e-03 0.0 
0.0 0.0 0.0 
5.420548617701e-04 1.714819616417e-04 0.0 
1.714819616417e-04 3.496002986948e-03 0.0 
0.0 0.0 0.0 
5.116407627096e-04 9.956577727054e-05 0.0 
9.956577727054e-05 3.226112096126e-03 0.0 
0.0 0.0 0.0 
-9.602602899587e-05 1.216135793694e-04 0.0 
1.216135793694e-04 1.053818496325e-02 0.0 
0.0 0.0 0.0 
5.082393358981e-04 8.487099856846e-05 0.0 
8.487099856846e-05 3.379463298187e-03 0.0 
0.0 0.0 0.0 
-3.826887061044e-05 3.351041666528e-05 0.0 
3.351041666528e-05 1.091169330624e-02 0.0 
0.0 0.0 0.0 
8.742265603174e-05 7.382902656361e-05 0.0 
7.382902656361e-05 8.030671767724e-03 0.0 
0.0 0.0 0.0 
-2.571867187876e-04 -2.037728194586e-06 0.0 
-2.037728194586e-06 7.834185241763e-03 0.0 
0.0 0.0 0.0 
-4.403666424982e-04 3.095501572542e-04 0.0 
3.095501572542e-04 5.275055859425e-03 0.0 
0.0 0.0 0.0 
-4.466146015975e-04 3.230640868017e-06 0.0 
3.230640868017e-06 4.775804220597e-04 0.0 
0.0 0.0 0.0 
-4.842355089080e-04 6.117350178838e-04 0.0 
6.117350178838e-04 5.216834074322e-03 0.0 
0.0 0.0 0.0 
4.239290443673e-04 -1.200505110260e-05 0.0 
-1.200505110260e-05 2.719597754419e-03 0.0 
0.0 0.0 0.0 
-3.691869043470e-04 6.197611524339e-04 0.0 
6.197611524339e-04 8.962213777947e-03 0.0 
0.0 0.0 0.0 
-2.581952448116e-04 8.422249463161e-06 0.0 
8.422249463161e-06 7.851750558366e-03 0.0 
0.0 0.0 0.0 
3.716747109714e-04 -4.884527604870e-05 0.0 
-4.884527604870e-05 2.478458402724e-03 0.0 
0.0 0.0 0.0 
-1.671700022950e-04 7.003318915669e-04 0.0 
7.003318915669e-04 1.018907410403e-02 0.0 
0.0 0.0 0.0 
-1.805206684319e-05 1.027454967429e-03 0.0 
1.027454967429e-03 9.672212507904e-03 0.0 
0.0 0.0 0.0 
-1.966758468566e-04 2.221297804305e-05 0.0 
2.221297804305e-05 9.250156697818e-03 0.0 
0.0 0.0 0.0 
2.190597087686e-04 7.908463169953e-04 0.0 
7.908463169953e-04 7.762938984935e-03 0.0 
0.0 0.0 0.0 
7.250627265557e-05 8.714955336822e-04 0.0 
8.714955336822e-04 7.468910265026e-03 0.0 
0.0 0.0 0.0 
-1.187470821849e-04 1.469736116172e-05 0.0 
1.469736116172e-05 1.019775562719e-02 0.0 
0.0 0.0 0.0 
-2.886096458495e-04 2.043195024042e-06 0.0 
2.043195024042e-06 7.494975708135e-03 0.0 
0.0 0.0 0.0 
-9.630812375085e-05 -9.494296677493e-05 0.0 
-9.494296677493e-05 6.028794421897e-04 0.0 
0.0 0.0 0.0 
3.777059774356e-04 2.442006507192e-05 0.0 
2.442006507192e-05 5.808895145307e-03 0.0 
0.0 0.0 0.0 
-4.177573486350e-04 4.423375030012e-04 0.0 
4.423375030012e-04 4.778187413779e-03 0.0 
0.0 0.0 0.0 
-3.589033900223e-04 8.724334023136e-04 0.0 
8.724334023136e-04 4.384277422842e-03 0.0 
0.0 0.0 0.0 
-1.163083135515e-04 9.898447710503e-04 0.0 
9.898447710503e-04 3.164620802316e-03 0.0 
0.0 0.0 0.0 
3.084622220954e-04 -2.871742637218e-05 0.0 
-2.871742637218e-05 2.610141732158e-03 0.0 
0.0 0.0 0.0 
-1.743980698093e-05 -1.116248929362e-04 0.0 
-1.116248929362e-04 9.291141589686e-04 0.0 
0.0 0.0 0.0 
-3.680281923277e-04 7.435070286014e-04 0.0 
7.435070286014e-04 4.127493544155e-03 0.0 
0.0 0.0 0.0 
1.219211119558e-04 8.775925347031e-04 0.0 
8.775925347031e-04 8.502970135963e-03 0.0 
0.0 0.0 0.0 
-3.321882769300e-04 4.433230620186e-05 0.0 
4.433230620186e-05 7.883957178112e-03 0.0 
0.0 0.0 0.0 
1.271978102702e-05 8.978039724312e-04 0.0 
8.978039724312e-04 8.244433952320e-03 0.0 
0.0 0.0 0.0 
-3.066335484956e-04 8.998517317799e-04 0.0 
8.998517317799e-04 2.843001667279e-03 0.0 
0.0 0.0 0.0 
-1.360229012837e-04 3.142816267272e-04 0.0 
3.142816267272e-04 1.051368566188e-02 0.0 
0.0 0.0 0.0 
8.905430223503e-06 9.803067640933e-04 0.0 
9.803067640933e-04 9.101631776576e-03 0.0 
0.0 0.0 0.0 
8.851390004479e-05 4.205510851712e-04 0.0 
4.205510851712e-04 8.223650823068e-03 0.0 
0.0 0.0 0.0 
1.356860338297e-05 9.286454488078e-04 0.0 
9.286454488078e-04 8.653476705732e-03 0.0 
0.0 0.0 0.0 
-4.645253090764e-05 7.722209371531e-04 0.0 
7.722209371531e-04 1.933374098765e-03 0.0 
0.0 0.0 0.0 
-3.961284714749e-04 1.335191309375e-04 0.0 
1.335191309375e-04 8.226344538698e-03 0.0 
0.0 0.0 0.0 
-1.204423472062e-04 8.867038208540e-04 0.0 
8.867038208540e-04 9.797158632488e-03 0.0 
0.0 0.0 0.0 
-1.774064185597e-04 4.009091690533e-05 0.0 
4.009091690533e-05 9.568384255358e-03 0.0 
0.0 0.0 0.0 
8.542690272235e-05 3.425919272017e-04 0.0 
3.425919272017e-04 8.191127012077e-03 0.0 
0.0 0.0 0.0 
-3.667869192556e-04 7.071212457243e-05 0.0 
7.071212457243e-05 7.837953536551e-03 0.0 
0.0 0.0 0.0 
-7.974545364070e-05 8.129565432832e-05 0.0 
8.129565432832e-05 1.059393625689e-02 0.0 
0.0 0.0 0.0 
2.276122025617e-04 2.268459675005e-05 0.0 
2.268459675005e-05 1.397279069849e-03 0.0 
0.0 0.0 0.0 
-7.448712495339e-05 4.354897589321e-05 0.0 
4.354897589321e-05 1.060075129119e-02 0.0 
0.0 0.0 0.0 
-3.135715774018e-04 6.644950592944e-04 0.0 
6.644950592944e-04 9.314683920463e-03 0.0 
0.0 0.0 0.0 
-2.572031253237e-04 3.474676375082e-05 0.0 
3.474676375082e-05 8.365923278096e-03 0.0 
0.0 0.0 0.0 
-4.381562783856e-04 1.911008144047e-04 0.0 
1.911008144047e-04 8.189492426761e-03 0.0 
0.0 0.0 0.0 
1.430454859139e-04 1.147591088965e-04 0.0 
1.147591088965e-04 7.714345289163e-03 0.0 
0.0 0.0 0.0 
-1.729523792876e-04 5.897224959668e-04 0.0 
5.897224959668e-04 1.032239412777e-02 0.0 
0.0 0.0 0.0 
-6.614254229802e-05 5.859678614599e-04 0.0 
5.859678614599e-04 1.367089406424e-03 0.0 
0.0 0.0 0.0 
-2.010462036755e-04 4.090472940073e-05 0.0 
4.090472940073e-05 9.227924608996e-03 0.0 
0.0 0.0 0.0 
3.853934670945e-04 -1.765416813253e-05 0.0 
-1.765416813253e-05 3.294607549831e-03 0.0 
0.0 0.0 0.0 
-2.098786543524e-04 -5.655894435779e-05 0.0 
-5.655894435779e-05 6.417969120615e-04 0.0 
0.0 0.0 0.0 
1.762548042410e-04 4.973941996130e-04 0.0 
4.973941996130e-04 7.872444656433e-03 0.0 
0.0 0.0 0.0 
-2.510204264700e-04 7.073642655971e-04 0.0 
7.073642655971e-04 9.649672178207e-03 0.0 
0.0 0.0 0.0 
1.491109204336e-04 1.935712293056e-04 0.0 
1.935712293056e-04 7.705581105251e-03 0.0 
0.0 0.0 0.0 
7.991018761100e-05 -9.810853958334e-06 0.0 
-9.810853958334e-06 8.814580943172e-04 0.0 
0.0 0.0 0.0 
-6.654300352313e-05 -7.771616690114e-05 0.0 
-7.771616690114e-05 5.504002116993e-04 0.0 
0.0 0.0 0.0 
1.651965666231e-04 6.026534413105e-04 0.0 
6.026534413105e-04 8.056587296839e-03 0.0 
0.0 0.0 0.0 
-1.461870843505e-04 8.010049077767e-04 0.0 
8.010049077767e-04 1.006407961378e-02 0.0 
0.0 0.0 0.0 
2.583298259088e-04 5.728411562452e-06 0.0 
5.728411562452e-06 1.576292928955e-03 0.0 
0.0 0.0 0.0 
-5.321451972367e-05 2.718774430714e-04 0.0 
2.718774430714e-04 1.091972958353e-02 0.0 
0.0 0.0 0.0 
-2.097713974576e-04 3.968534261574e-04 0.0 
3.968534261574e-04 8.697067284637e-04 0.0 
0.0 0.0 0.0 
-3.082968366423e-04 1.625599143388e-05 0.0 
1.625599143388e-05 7.457220493524e-03 0.0 
0.0 0.0 0.0 
-4.407340285136e-06 -5.777104374177e-05 0.0 
-5.777104374177e-05 5.496466021794e-04 0.0 
0.0 0.0 0.0 
8.134088463043e-05 2.482624079457e-04 0.0 
2.482624079457e-04 8.147053985933e-03 0.0 
0.0 0.0 0.0 
-1.027519992428e-04 2.032761989222e-04 0.0 
2.032761989222e-04 1.059377101534e-02 0.0 
0.0 0.0 0.0 
4.025099916975e-04 2.568104277267e-06 0.0 
2.568104277267e-06 3.650755606776e-03 0.0 
0.0 0.0 0.0 
-4.404134906065e-04 1.165799576431e-04 0.0 
1.165799576431e-04 7.562241607006e-03 0.0 
0.0 0.0 0.0 
2.762482067575e-04 -2.052641852420e-05 0.0 
-2.052641852420e-05 2.354005230963e-03 0.0 
0.0 0.0 0.0 
-8.431145865588e-05 9.307723344962e-04 0.0 
9.307723344962e-04 9.193251811378e-03 0.0 
0.0 0.0 0.0 
-2.013012794126e-05 -1.129535271784e-04 0.0 
-1.129535271784e-04 8.572204229885e-04 0.0 
0.0 0.0 0.0 
-8.847836207078e-05 1.444258815645e-04 0.0 
1.444258815645e-04 1.064038400055e-02 0.0 
0.0 0.0 0.0 
1.539943986335e-04 7.091449186061e-04 0.0 
7.091449186061e-04 8.223547084688e-03 0.0 
0.0 0.0 0.0 
-1.430210404051e-04 4.395569096200e-04 0.0 
4.395569096200e-04 1.052535468169e-02 0.0 
0.0 0.0 0.0 
3.417853027159e-05 1.010045898537e-03 0.0 
1.010045898537e-03 9.229573227444e-03 0.0 
0.0 0.0 0.0 
-2.015925772068e-04 9.882927561914e-05 0.0 
9.882927561914e-05 6.671103271845e-04 0.0 
0.0 0.0 0.0 
-1.964135171471e-05 9.930239389942e-04 0.0 
9.930239389942e-04 9.337972039736e-03 0.0 
0.0 0.0 0.0 
2.129798965595e-04 7.502255420842e-04 0.0 
7.502255420842e-04 7.924281631004e-03 0.0 
0.0 0.0 0.0 
-2.784758984024e-04 1.316790802886e-05 0.0 
1.316790802886e-05 7.487218215452e-03 0.0 
0.0 0.0 0.0 
-1.602285761438e-04 5.241635928451e-04 0.0 
5.241635928451e-04 1.040890186887e-02 0.0 
0.0 0.0 0.0 
3.432147234881e-04 -1.719847640152e-05 0.0 
-1.719847640152e-05 2.929327115969e-03 0.0 
0.0 0.0 0.0 
1.165367267957e-04 -7.471697781771e-05 0.0 
-7.471697781771e-05 1.208237561131e-03 0.0 
0.0 0.0 0.0 
-2.955132168536e-05 1.356370436248e-05 0.0 
1.356370436248e-05 1.095368987187e-02 0.0 
0.0 0.0 0.0 
-7.535434467743e-07 -3.817970816499e-06 0.0 
-3.817970816499e-06 1.919091890872e-04 0.0 
0.0 0.0 0.0 
-2.641527296141e-04 -2.597913103823e-06 0.0 
-2.597913103823e-06 7.455775220371e-03 0.0 
0.0 0.0 0.0 
6.640561637701e-05 4.104315213994e-05 0.0 
4.104315213994e-05 8.131776346069e-03 0.0 
0.0 0.0 0.0 
1.187463416761e-04 -4.448442151762e-05 0.0 
-4.448442151762e-05 1.145403608018e-03 0.0 
0.0 0.0 0.0 
-2.492107314473e-04 5.041643572543e-06 0.0 
5.041643572543e-06 8.140751090633e-03 0.0 
0.0 0.0 0.0 
-1.493487615936e-04 7.545389640146e-04 0.0 
7.545389640146e-04 1.016658710366e-02 0.0 
0.0 0.0 0.0 
4.213655733583e-04 7.388511381711e-06 0.0 
7.388511381711e-06 4.555096519155e-03 0.0 
0.0 0.0 0.0 
-1.390032447601e-04 2.069364616764e-05 0.0 
2.069364616764e-05 9.970425607278e-03 0.0 
0.0 0.0 0.0 
8.901989051187e-05 -9.923029111770e-05 0.0 
-9.923029111770e-05 1.165316800104e-03 0.0 
0.0 0.0 0.0 
-4.687149020711e-04 -3.796915478978e-05 0.0 
-3.796915478978e-05 4.168853370126e-04 0.0 
0.0 0.0 0.0 
-2.188310168609e-04 1.062826459508e-05 0.0 
1.062826459508e-05 8.873368003692e-03 0.0 
0.0 0.0 0.0 
3.370383079484e-05 9.871883768118e-04 0.0 
9.871883768118e-04 9.045040425331e-03 0.0 
0.0 0.0 0.0 
-1.261671476546e-04 3.542015514285e-04 0.0 
3.542015514285e-04 1.059543397070e-02 0.0 
0.0 0.0 0.0 
-2.442395269747e-04 3.658044614355e-05 0.0 
3.658044614355e-05 8.591225916428e-03 0.0 
0.0 0.0 0.0 
1.084268635051e-04 5.001648687193e-04 0.0 
5.001648687193e-04 1.473026021448e-03 0.0 
0.0 0.0 0.0 
-1.966720122960e-04 7.486374134219e-04 0.0 
7.486374134219e-04 9.916676182092e-03 0.0 
0.0 0.0 0.0 
4.221172740187e-04 5.237844458080e-06 0.0 
5.237844458080e-06 3.963489596901e-03 0.0 
0.0 0.0 0.0 
-1.488044168010e-04 8.764709878612e-04 0.0 
8.764709878612e-04 9.499130972132e-03 0.0 
0.0 0.0 0.0 
1.691810237669e-04 8.264732045461e-04 0.0 
8.264732045461e-04 8.145911571097e-03 0.0 
0.0 0.0 0.0 
-4.169879303594e-04 4.228016402682e-04 0.0 
4.228016402682e-04 5.939684610930e-04 0.0 
0.0 0.0 0.0 
4.175949520045e-04 1.127703503480e-05 0.0 
1.127703503480e-05 4.932017532078e-03 0.0 
0.0 0.0 0.0 
-4.249841785744e-05 -6.319218746463e-05 0.0 
-6.319218746463e-05 5.217092828333e-04 0.0 
0.0 0.0 0.0 
1.474939233387e-04 3.688795560706e-04 0.0 
3.688795560706e-04 7.886726921936e-03 0.0 
0.0 0.0 0.0 
4.209329767307e-04 4.999883937599e-06 0.0 
4.999883937599e-06 4.145804860024e-03 0.0 
0.0 0.0 0.0 
-6.583569590549e-05 1.409850852409e-04 0.0 
1.409850852409e-04 4.266447290670e-03 0.0 
0.0 0.0 0.0 
-2.876092416317e-04 7.976985598160e-06 0.0 
7.976985598160e-06 4.368152803931e-03 0.0 
0.0 0.0 0.0 
-2.236027099758e-04 1.572061509247e-04 0.0 
1.572061509247e-04 4.699209553803e-03 0.0 
0.0 0.0 0.0 
-2.594661425356e-04 -2.745637706523e-06 0.0 
-2.745637706523e-06 4.805547080192e-03 0.0 
0.0 0.0 0.0 
-3.136900028629e-04 1.279494186267e-04 0.0 
1.279494186267e-04 5.155343676606e-03 0.0 
0.0 0.0 0.0 
-2.552218835898e-04 -4.114104970650e-06 0.0 
-4.114104970650e-06 5.208697401812e-03 0.0 
0.0 0.0 0.0 
-3.787345076064e-04 9.160288854546e-05 0.0 
9.160288854546e-05 5.608847306482e-03 0.0 
0.0 0.0 0.0 
-2.577836880869e-04 -3.973457965070e-06 0.0 
-3.973457965070e-06 5.664047306888e-03 0.0 
0.0 0.0 0.0 
-4.143969858386e-04 7.133124129219e-05 0.0 
7.133124129219e-05 6.055193751361e-03 0.0 
0.0 0.0 0.0 
-2.621884807494e-04 -3.224422502966e-06 0.0 
-3.224422502966e-06 6.070805464056e-03 0.0 
0.0 0.0 0.0 
-4.321009153182e-04 6.103732320226e-05 0.0 
6.103732320226e-05 6.496975737218e-03 0.0 
0.0 0.0 0.0 
-2.647378291131e-04 -1.091780752211e-06 0.0 
-1.091780752211e-06 6.525140897630e-03 0.0 
0.0 0.0 0.0 
-4.325783640864e-04 6.291827127728e-05 0.0 
6.291827127728e-05 6.931660019339e-03 0.0 
0.0 0.0 0.0 
-2.690894946442e-04 4.865081904703e-06 0.0 
4.865081904703e-06 6.929067004678e-03 0.0 
0.0 0.0 0.0 

TENSORS node_materi_strain_plasti float
-1.741775845211e-05 -2.168405097446e-06 0.0 
-2.168405097446e-06 1.395813736689e-04 0.0 
0.0 0.0 -3.282868849617e-05 
-7.193710724364e-04 -1.122442495584e-04 0.0 
-1.122442495584e-04 4.531072016065e-03 0.0 
0.0 0.0 -6.959116756397e-04 
-1.326721611229e-03 9.743109485019e-05 0.0 
9.743109485019e-05 8.921087027136e-03 0.0 
0.0 0.0 -1.332621093165e-03 
-1.328526300077e-03 -9.718698781147e-05 0.0 
-9.718698781147e-05 8.927311597372e-03 0.0 
0.0 0.0 -1.332621093165e-03 
-8.193859278094e-05 3.577520009453e-05 0.0 
3.577520009453e-05 3.368763971302e-04 0.0 
0.0 0.0 -8.453455331316e-05 
-1.695924659271e-04 1.267609683743e-04 0.0 
1.267609683743e-04 8.452299049113e-04 0.0 
0.0 0.0 -1.619080202416e-04 
-2.296336673595e-04 1.041833740939e-04 0.0 
1.041833740939e-04 1.224476071287e-03 0.0 
0.0 0.0 -2.266090766362e-04 
-2.971855348456e-04 9.450166671955e-05 0.0 
9.450166671955e-05 1.745895085854e-03 0.0 
0.0 0.0 -2.937643997455e-04 
-3.715291688780e-04 6.977872566520e-05 0.0 
6.977872566520e-05 2.214517262813e-03 0.0 
0.0 0.0 -3.610469555860e-04 
-4.249688263073e-04 6.584730845625e-05 0.0 
6.584730845625e-05 2.664484643095e-03 0.0 
0.0 0.0 -4.277228197774e-04 
-4.875317281638e-04 7.284843635977e-05 0.0 
7.284843635977e-05 3.123402469253e-03 0.0 
0.0 0.0 -4.940119848999e-04 
-5.560650258811e-04 6.506894170195e-05 0.0 
6.506894170195e-05 3.586726731214e-03 0.0 
0.0 0.0 -5.601824523721e-04 
-6.219544696599e-04 6.499150418632e-05 0.0 
6.499150418632e-05 4.044891981262e-03 0.0 
0.0 0.0 -6.267196139102e-04 
-6.989301157160e-04 8.304445482453e-05 0.0 
8.304445482453e-05 4.516508974108e-03 0.0 
0.0 0.0 -6.936951881209e-04 
-7.842461813792e-04 1.250766207627e-04 0.0 
1.250766207627e-04 5.027932232893e-03 0.0 
0.0 0.0 -7.607197531558e-04 
-8.342478146059e-04 1.327780010266e-04 0.0 
1.327780010266e-04 5.490101288131e-03 0.0 
0.0 0.0 -8.270758575053e-04 
-8.797786789152e-04 1.730981527131e-04 0.0 
1.730981527131e-04 5.870913224211e-03 0.0 
0.0 0.0 -8.903361771248e-04 
-9.530636179412e-04 6.774981962024e-05 0.0 
6.774981962024e-05 6.360455625450e-03 0.0 
0.0 0.0 -9.558084330571e-04 
-1.021468397639e-03 6.438406854748e-05 0.0 
6.438406854748e-05 6.838909130196e-03 0.0 
0.0 0.0 -1.024523475697e-03 
-1.087303877607e-03 6.616077821805e-05 0.0 
6.616077821805e-05 7.302617105742e-03 0.0 
0.0 0.0 -1.091244731156e-03 
-1.157611465321e-03 6.099216604961e-05 0.0 
6.099216604961e-05 7.775325521779e-03 0.0 
0.0 0.0 -1.158330123333e-03 
-1.229956863987e-03 7.577779225234e-05 0.0 
7.577779225234e-05 8.251739665694e-03 0.0 
0.0 0.0 -1.226073836101e-03 
-1.285597262298e-03 9.777469733004e-05 0.0 
9.777469733004e-05 8.717344745921e-03 0.0 
0.0 0.0 -1.289832767750e-03 
-1.328056332164e-03 -6.444803612929e-06 0.0 
-6.444803612929e-06 8.942057407760e-03 0.0 
0.0 0.0 -1.336902025401e-03 
-1.335490548137e-03 -3.051268407678e-06 0.0 
-3.051268407678e-06 8.928554519845e-03 0.0 
0.0 0.0 -1.332945767435e-03 
-1.336130347494e-03 -6.396074884476e-05 0.0 
-6.396074884476e-05 8.918857970665e-03 0.0 
0.0 0.0 -1.334903170087e-03 
-1.339230604727e-03 3.012709249351e-05 0.0 
3.012709249351e-05 8.923856553285e-03 0.0 
0.0 0.0 -1.334459899807e-03 
-1.337146058389e-03 -8.398799894874e-06 0.0 
-8.398799894874e-06 8.911324906834e-03 0.0 
0.0 0.0 -1.332067731643e-03 
-1.335355832928e-03 1.075181302724e-06 0.0 
1.075181302724e-06 8.911332561918e-03 0.0 
0.0 0.0 -1.335050935171e-03 
-1.325449513940e-03 2.957247517956e-06 0.0 
2.957247517956e-06 8.920139941522e-03 0.0 
0.0 0.0 -1.335055123498e-03 
-1.337345353037e-03 -9.523690686198e-06 0.0 
-9.523690686198e-06 8.921732771433e-03 0.0 
0.0 0.0 -1.333530254363e-03 
-1.334717977068e-03 -4.294761687245e-05 0.0 
-4.294761687245e-05 8.930458145260e-03 0.0 
0.0 0.0 -1.336259905589e-03 
-1.337792100019e-03 2.741258004611e-05 0.0 
2.741258004611e-05 8.934606220421e-03 0.0 
0.0 0.0 -1.335712483792e-03 
-1.336136187727e-03 -6.884802183741e-06 0.0 
-6.884802183741e-06 8.921957108707e-03 0.0 
0.0 0.0 -1.333313947604e-03 
-1.338126723765e-03 -4.814512478211e-06 0.0 
-4.814512478211e-06 8.924502617003e-03 0.0 
0.0 0.0 -1.335862559377e-03 
-1.327324523368e-03 -1.060172701922e-07 0.0 
-1.060172701922e-07 8.942333996565e-03 0.0 
0.0 0.0 -1.336097458551e-03 
-1.338609928482e-03 -2.842890241029e-06 0.0 
-2.842890241029e-06 8.932107808072e-03 0.0 
0.0 0.0 -1.335235043394e-03 
-1.329400644355e-03 -1.048596426291e-05 0.0 
-1.048596426291e-05 8.921074213048e-03 0.0 
0.0 0.0 -1.334297546486e-03 
-1.338340837827e-03 9.966400157379e-06 0.0 
9.966400157379e-06 8.903421378777e-03 0.0 
0.0 0.0 -1.332308435384e-03 
-1.339067962771e-03 -2.558483156546e-06 0.0 
-2.558483156546e-06 8.895896267544e-03 0.0 
0.0 0.0 -1.332019584455e-03 
-1.327125647707e-03 1.639257363250e-06 0.0 
1.639257363250e-06 8.917700513123e-03 0.0 
0.0 0.0 -1.333392124151e-03 
-1.334568721853e-03 -4.268105943786e-06 0.0 
-4.268105943786e-06 8.928545997729e-03 0.0 
0.0 0.0 -1.334727449481e-03 
-1.336827804858e-03 -5.001027102512e-06 0.0 
-5.001027102512e-06 8.928021219148e-03 0.0 
0.0 0.0 -1.336576889699e-03 
-1.337235537648e-03 1.693416763899e-05 0.0 
1.693416763899e-05 8.930023700079e-03 0.0 
0.0 0.0 -1.335888391555e-03 
-1.331872643832e-03 -1.070662442944e-06 0.0 
-1.070662442944e-06 8.931108733201e-03 0.0 
0.0 0.0 -1.334783226448e-03 
-1.335383687196e-03 3.225376233217e-06 0.0 
3.225376233217e-06 8.925108831379e-03 0.0 
0.0 0.0 -1.335053869153e-03 
-1.335647092676e-03 -1.629379981326e-06 0.0 
-1.629379981326e-06 8.920485307702e-03 0.0 
0.0 0.0 -1.334960189349e-03 
-1.336340449165e-03 -1.285585314755e-06 0.0 
-1.285585314755e-06 8.933772799625e-03 0.0 
0.0 0.0 -1.334889991128e-03 
-1.330589077276e-03 -4.874946038577e-06 0.0 
-4.874946038577e-06 8.935469598915e-03 0.0 
0.0 0.0 -1.335774086633e-03 
-1.341165284707e-03 -5.814943729686e-06 0.0 
-5.814943729686e-06 8.933862901487e-03 0.0 
0.0 0.0 -1.336605656894e-03 
-1.330240946256e-03 -4.520075279769e-06 0.0 
-4.520075279769e-06 8.938118272604e-03 0.0 
0.0 0.0 -1.336508443943e-03 
-1.338673330008e-03 -5.862543655719e-06 0.0 
-5.862543655719e-06 8.942517447788e-03 0.0 
0.0 0.0 -1.335343284290e-03 
-1.336600650314e-03 -3.582742261962e-05 0.0 
-3.582742261962e-05 8.951381047284e-03 0.0 
0.0 0.0 -1.337998490269e-03 
-1.341076503417e-03 3.451828262941e-05 0.0 
3.451828262941e-05 8.946627943271e-03 0.0 
0.0 0.0 -1.337247094005e-03 
-1.334448453648e-03 1.095281049644e-05 0.0 
1.095281049644e-05 8.923080866366e-03 0.0 
0.0 0.0 -1.333783489999e-03 
-1.333263826439e-03 -4.659210696540e-08 0.0 
-4.659210696540e-08 8.908320836892e-03 0.0 
0.0 0.0 -1.334548731617e-03 
-1.334150017560e-03 -8.272198035472e-06 0.0 
-8.272198035472e-06 8.929832025163e-03 0.0 
0.0 0.0 -1.334619746794e-03 
-1.331619300726e-03 -1.909948370258e-06 0.0 
-1.909948370258e-06 8.928586538444e-03 0.0 
0.0 0.0 -1.335242115105e-03 
-1.340870630612e-03 -1.061733168398e-05 0.0 
-1.061733168398e-05 8.926675419192e-03 0.0 
0.0 0.0 -1.335691437541e-03 
-1.329659514104e-03 -2.082049369195e-06 0.0 
-2.082049369195e-06 8.934711562866e-03 0.0 
0.0 0.0 -1.335646478247e-03 
-1.339117702311e-03 -4.029677061322e-07 0.0 
-4.029677061322e-07 8.924836081587e-03 0.0 
0.0 0.0 -1.334931242407e-03 
-1.328302087749e-03 -6.726834891335e-06 0.0 
-6.726834891335e-06 8.915098302923e-03 0.0 
0.0 0.0 -1.334100791702e-03 
-1.338339244626e-03 1.868410609640e-06 0.0 
1.868410609640e-06 8.913909047127e-03 0.0 
0.0 0.0 -1.332237298415e-03 
-1.340573467967e-03 -1.512560094744e-05 0.0 
-1.512560094744e-05 8.916790452845e-03 0.0 
0.0 0.0 -1.333749945600e-03 
-1.332872318884e-03 1.070088453614e-05 0.0 
1.070088453614e-05 8.939654193892e-03 0.0 
0.0 0.0 -1.336652505695e-03 
-1.326343527950e-03 -1.064817557574e-05 0.0 
-1.064817557574e-05 8.953327537606e-03 0.0 
0.0 0.0 -1.337094627689e-03 
-1.334975160234e-03 -1.103658676067e-05 0.0 
-1.103658676067e-05 8.887287544370e-03 0.0 
0.0 0.0 -1.328990728106e-03 
-1.326727222271e-03 3.789706117049e-06 0.0 
3.789706117049e-06 8.937395178325e-03 0.0 
0.0 0.0 -1.335900064369e-03 
-1.338702731113e-03 6.248103656251e-07 0.0 
6.248103656251e-07 8.926718973225e-03 0.0 
0.0 0.0 -1.332523500780e-03 
-1.338833780446e-03 -4.056504769856e-05 0.0 
-4.056504769856e-05 8.921997078910e-03 0.0 
0.0 0.0 -1.335219049675e-03 
-1.336003357241e-03 1.668194413568e-05 0.0 
1.668194413568e-05 8.951047853454e-03 0.0 
0.0 0.0 -1.336566422126e-03 
-1.338588357839e-03 -8.318316932401e-07 0.0 
-8.318316932401e-07 8.955066587464e-03 0.0 
0.0 0.0 -1.335855682064e-03 
-7.644479361830e-04 -7.854511718928e-05 0.0 
-7.854511718928e-05 4.967324475694e-03 0.0 
0.0 0.0 -7.648954205800e-04 
-8.429692067441e-04 -8.894340543493e-05 0.0 
-8.894340543493e-05 5.465473064469e-03 0.0 
0.0 0.0 -8.298981322982e-04 
-9.045101262401e-04 -8.649802336555e-05 0.0 
-8.649802336555e-05 5.927599153875e-03 0.0 
0.0 0.0 -8.959277352460e-04 
-9.682355907570e-04 -9.235019684030e-05 0.0 
-9.235019684030e-05 6.375436758553e-03 0.0 
0.0 0.0 -9.610467530554e-04 
-1.034301386645e-03 -8.131875668407e-05 0.0 
-8.131875668407e-05 6.841207604472e-03 0.0 
0.0 0.0 -1.026987810050e-03 
-1.084652817885e-03 -8.917462571015e-05 0.0 
-8.917462571015e-05 7.307643626561e-03 0.0 
0.0 0.0 -1.092790196867e-03 
-1.153469442186e-03 -7.930470280165e-05 0.0 
-7.930470280165e-05 7.768901773096e-03 0.0 
0.0 0.0 -1.158290425478e-03 
-1.218602686822e-03 -9.135197616384e-05 0.0 
-9.135197616384e-05 8.209166370611e-03 0.0 
0.0 0.0 -1.224481705251e-03 
-1.280117147855e-03 -1.008986322443e-04 0.0 
-1.008986322443e-04 8.709401710635e-03 0.0 
0.0 0.0 -1.288782062784e-03 
-1.752208263143e-05 3.240785673632e-05 0.0 
3.240785673632e-05 1.037696529891e-04 0.0 
0.0 0.0 -2.939528373048e-05 
-6.988773385000e-04 -6.414203901489e-06 0.0 
-6.414203901489e-06 4.541118799231e-03 0.0 
0.0 0.0 -6.945495707198e-04 
-1.068839245990e-04 4.195670543775e-05 0.0 
4.195670543775e-05 4.592598232630e-04 0.0 
0.0 0.0 -1.088012745759e-04 
-1.837805977244e-04 6.636119579700e-05 0.0 
6.636119579700e-05 9.280212819520e-04 0.0 
0.0 0.0 -1.795578361538e-04 
-2.366038422839e-04 4.955896092091e-05 0.0 
4.955896092091e-05 1.397435450140e-03 0.0 
0.0 0.0 -2.443953301040e-04 
-2.826384836080e-04 1.494194675664e-05 0.0 
1.494194675664e-05 1.693936406411e-03 0.0 
0.0 0.0 -2.907975307606e-04 
-3.467236823258e-04 1.624238360764e-05 0.0 
1.624238360764e-05 2.160989176577e-03 0.0 
0.0 0.0 -3.576084760620e-04 
-4.034182833337e-04 -4.200861776736e-06 0.0 
-4.200861776736e-06 2.629562399744e-03 0.0 
0.0 0.0 -4.246591878591e-04 
-4.761223259385e-04 6.452176696024e-07 0.0 
6.452176696024e-07 3.097474449594e-03 0.0 
0.0 0.0 -4.913636896408e-04 
-5.446829016033e-04 3.333337451638e-07 0.0 
3.333337451638e-07 3.565252150871e-03 0.0 
0.0 0.0 -5.580753662734e-04 
-6.120040484324e-04 -3.148004277915e-06 0.0 
-3.148004277915e-06 4.032884488981e-03 0.0 
0.0 0.0 -6.248674136757e-04 
-2.803374013918e-04 -1.622645909765e-04 0.0 
-1.622645909765e-04 1.489522582230e-03 0.0 
0.0 0.0 -2.488888888889e-04 
-2.986636326699e-04 -2.023172378402e-04 0.0 
-2.023172378402e-04 1.738781714550e-03 0.0 
0.0 0.0 -2.933333333333e-04 
-3.640335269793e-04 -1.647957464760e-04 0.0 
-1.647957464760e-04 2.201281042858e-03 0.0 
0.0 0.0 -3.600000000000e-04 
-4.304425780171e-04 -2.046254239306e-04 0.0 
-2.046254239306e-04 2.664768429398e-03 0.0 
0.0 0.0 -4.266666666667e-04 
-4.966420638955e-04 -1.663109596127e-04 0.0 
-1.663109596127e-04 3.128374407042e-03 0.0 
0.0 0.0 -4.933333333333e-04 
-5.622839918589e-04 -2.001712001392e-04 0.0 
-2.001712001392e-04 3.590232611973e-03 0.0 
0.0 0.0 -5.600000000000e-04 
-6.246804992584e-04 -1.417515320002e-04 0.0 
-1.417515320002e-04 4.042867570769e-03 0.0 
0.0 0.0 -6.266666666667e-04 
-6.913130996727e-04 5.498609571768e-05 0.0 
5.498609571768e-05 4.454824349021e-03 0.0 
0.0 0.0 -6.874962403976e-04 
-6.868874145389e-04 4.265374631682e-06 0.0 
4.265374631682e-06 4.486723904769e-03 0.0 
0.0 0.0 -6.910932206029e-04 
-6.934978988667e-04 4.367505525820e-06 0.0 
4.367505525820e-06 4.491335876748e-03 0.0 
0.0 0.0 -6.911911970487e-04 
-6.907997940409e-04 -7.067285999291e-06 0.0 
-7.067285999291e-06 4.485601554890e-03 0.0 
0.0 0.0 -6.903356507966e-04 
-6.907918205776e-04 4.658551261964e-06 0.0 
4.658551261964e-06 4.562156077984e-03 0.0 
0.0 0.0 -6.980756478071e-04 
-6.892878188424e-04 5.414637571099e-06 0.0 
5.414637571099e-06 4.494915586897e-03 0.0 
0.0 0.0 -6.911448554634e-04 
-6.797647522222e-04 -6.151835168632e-06 0.0 
-6.151835168632e-06 4.487621365133e-03 0.0 
0.0 0.0 -6.903833977050e-04 
-6.832908759363e-04 1.181523808990e-05 0.0 
1.181523808990e-05 4.498914041665e-03 0.0 
0.0 0.0 -6.905588330458e-04 
-6.949806625349e-04 2.423611152395e-06 0.0 
2.423611152395e-06 4.508372842652e-03 0.0 
0.0 0.0 -6.922444453805e-04 
-6.970682970385e-04 1.264857313784e-05 0.0 
1.264857313784e-05 4.510203072304e-03 0.0 
0.0 0.0 -6.916098530255e-04 
-6.888508586807e-04 7.096050778982e-06 0.0 
7.096050778982e-06 4.506612582973e-03 0.0 
0.0 0.0 -6.911665914957e-04 
-6.923116819991e-04 3.442306794673e-06 0.0 
3.442306794673e-06 4.500662587744e-03 0.0 
0.0 0.0 -6.911615840689e-04 
-6.874005628903e-04 1.547082050469e-05 0.0 
1.547082050469e-05 4.496710901948e-03 0.0 
0.0 0.0 -6.914992001314e-04 
-6.904170598993e-04 2.109837221789e-05 0.0 
2.109837221789e-05 4.507680445908e-03 0.0 
0.0 0.0 -6.922481495424e-04 
-2.592440264170e-05 -1.590076434165e-05 0.0 
-1.590076434165e-05 1.361807839619e-04 0.0 
0.0 0.0 -2.981554499673e-05 
-3.446067835921e-05 -4.722769694990e-06 0.0 
-4.722769694990e-06 1.514232641041e-04 0.0 
0.0 0.0 -3.001360406192e-05 
-1.576164107189e-05 6.855840384387e-06 0.0 
6.855840384387e-06 1.420727738414e-04 0.0 
0.0 0.0 -2.891678940537e-05 
-1.058332407340e-05 -2.088674468891e-05 0.0 
-2.088674468891e-05 1.367187831328e-04 0.0 
0.0 0.0 -2.889836327124e-05 
-3.364373544555e-05 -3.089965635258e-05 0.0 
-3.089965635258e-05 1.595260388365e-04 0.0 
0.0 0.0 -3.040745255895e-05 
-4.176671741931e-05 -6.138377296778e-06 0.0 
-6.138377296778e-06 1.798263625009e-04 0.0 
0.0 0.0 -3.068777868300e-05 
-3.824342451581e-05 5.591674158896e-07 0.0 
5.591674158896e-07 1.791426173783e-04 0.0 
0.0 0.0 -3.058835961954e-05 
-3.226360630243e-05 -1.341036859017e-06 0.0 
-1.341036859017e-06 1.722310666212e-04 0.0 
0.0 0.0 -3.053879953887e-05 
-3.075195274388e-05 -3.753502375186e-06 0.0 
-3.753502375186e-06 1.736984769830e-04 0.0 
0.0 0.0 -3.044251428418e-05 
-2.638860610343e-05 -7.894449171806e-06 0.0 
-7.894449171806e-06 1.709687444738e-04 0.0 
0.0 0.0 -3.048531495051e-05 
-2.681419529694e-05 -1.626482453990e-05 0.0 
-1.626482453990e-05 1.776638784057e-04 0.0 
0.0 0.0 -3.060061046523e-05 
-4.178895109071e-05 4.651397470156e-06 0.0 
4.651397470156e-06 1.936858804511e-04 0.0 
0.0 0.0 -3.133350520012e-05 
-3.584663091299e-05 2.920944978626e-05 0.0 
2.920944978626e-05 1.814285478668e-04 0.0 
0.0 0.0 -3.101487170496e-05 
-1.892508329030e-05 9.286208390834e-06 0.0 
9.286208390834e-06 1.578481945027e-04 0.0 
0.0 0.0 -3.010388419214e-05 
-2.660519595212e-05 -4.398298942812e-06 0.0 
-4.398298942812e-06 1.591906609278e-04 0.0 
0.0 0.0 -3.041972112533e-05 
-4.134075465171e-05 1.617060886410e-06 0.0 
1.617060886410e-06 1.756452327158e-04 0.0 
0.0 0.0 -3.060566238437e-05 
-4.636580504523e-05 5.643116689733e-06 0.0 
5.643116689733e-06 1.798643178415e-04 0.0 
0.0 0.0 -3.058114983003e-05 
-3.066571027210e-05 2.752472550755e-05 0.0 
2.752472550755e-05 1.500341931887e-04 0.0 
0.0 0.0 -3.041506914824e-05 
-1.475246436935e-05 4.693943976226e-06 0.0 
4.693943976226e-06 1.322021267255e-04 0.0 
0.0 0.0 -2.944997384815e-05 
-1.558232947463e-04 3.785294231852e-06 0.0 
3.785294231852e-06 1.344718119597e-03 0.0 
0.0 0.0 -2.475397458109e-04 
-2.297689020489e-04 -2.444758882478e-05 0.0 
-2.444758882478e-05 1.526949792329e-03 0.0 
0.0 0.0 -2.589881426915e-04 
-2.509329713073e-04 2.344750978822e-05 0.0 
2.344750978822e-05 1.561051384872e-03 0.0 
0.0 0.0 -2.562962962963e-04 
-2.654379289899e-04 -2.394692501980e-06 0.0 
-2.394692501980e-06 1.557387785969e-03 0.0 
0.0 0.0 -2.562962962963e-04 
-2.598035102613e-04 8.719337469453e-06 0.0 
8.719337469453e-06 1.561944480273e-03 0.0 
0.0 0.0 -2.562962962963e-04 
-2.618808687168e-04 3.888076758004e-06 0.0 
3.888076758004e-06 1.558934688677e-03 0.0 
0.0 0.0 -2.562962962963e-04 
-2.602895103718e-04 6.107720002418e-06 0.0 
6.107720002418e-06 1.559604543118e-03 0.0 
0.0 0.0 -2.562962962963e-04 
-2.606744751732e-04 5.232980657735e-06 0.0 
5.232980657735e-06 1.558667791271e-03 0.0 
0.0 0.0 -2.562962962963e-04 
-2.599321153835e-04 5.351772569473e-06 0.0 
5.351772569473e-06 1.558284481193e-03 0.0 
0.0 0.0 -2.562962962963e-04 
-2.597515808622e-04 4.302592868397e-06 0.0 
4.302592868397e-06 1.557701746666e-03 0.0 
0.0 0.0 -2.562962962963e-04 
-2.593271161598e-04 3.123647284003e-06 0.0 
3.123647284003e-06 1.557357888143e-03 0.0 
0.0 0.0 -2.562962962963e-04 
-2.591685640420e-04 1.457461658746e-06 0.0 
1.457461658746e-06 1.557155228909e-03 0.0 
0.0 0.0 -2.562962962963e-04 
-2.591506491395e-04 -2.629304673840e-07 0.0 
-2.629304673840e-07 1.557215312612e-03 0.0 
0.0 0.0 -2.562962962963e-04 
-2.593046755300e-04 -1.804453956156e-06 0.0 
-1.804453956156e-06 1.557452669757e-03 0.0 
0.0 0.0 -2.562962962963e-04 
-2.594621931992e-04 -2.967364436341e-06 0.0 
-2.967364436341e-06 1.557724843357e-03 0.0 
0.0 0.0 -2.562962962963e-04 
-2.595755844434e-04 -3.822600821798e-06 0.0 
-3.822600821798e-06 1.557910805954e-03 0.0 
0.0 0.0 -2.562962962963e-04 
-2.596155184842e-04 -4.450576227967e-06 0.0 
-4.450576227967e-06 1.557954208660e-03 0.0 
0.0 0.0 -2.562962962963e-04 
-2.595327401886e-04 -4.918525221792e-06 0.0 
-4.918525221792e-06 1.557803818043e-03 0.0 
0.0 0.0 -2.562962962963e-04 
-2.592663555392e-04 -5.260009579882e-06 0.0 
-5.260009579882e-06 1.557414425167e-03 0.0 
0.0 0.0 -2.562962962963e-04 
-2.587488316203e-04 -5.450329675521e-06 0.0 
-5.450329675521e-06 1.556771901557e-03 0.0 
0.0 0.0 -2.562962962963e-04 
-2.579644206001e-04 -5.283753900270e-06 0.0 
-5.283753900270e-06 1.555965957660e-03 0.0 
0.0 0.0 -2.562962962963e-04 
-2.569810083962e-04 -4.192280819726e-06 0.0 
-4.192280819726e-06 1.555185464181e-03 0.0 
0.0 0.0 -2.562962962963e-04 
-2.562018735725e-04 -1.713873131673e-06 0.0 
-1.713873131673e-06 1.552957209997e-03 0.0 
0.0 0.0 -2.562962962963e-04 
-2.576753885031e-04 -3.013941683704e-06 0.0 
-3.013941683704e-06 1.509163747593e-03 0.0 
0.0 0.0 -2.562962962963e-04 
-2.358398656441e-04 1.120574368980e-04 0.0 
1.120574368980e-04 1.441574987939e-03 0.0 
0.0 0.0 -2.488888888889e-04 
-2.970218210651e-04 7.785591067420e-05 0.0 
7.785591067420e-05 1.736401244533e-03 0.0 
0.0 0.0 -2.933333333333e-04 
-2.941299774760e-04 1.831399556342e-05 0.0 
1.831399556342e-05 1.732126897949e-03 0.0 
0.0 0.0 -2.933333333333e-04 
-2.937600754571e-04 -1.751607331651e-06 0.0 
-1.751607331651e-06 1.731075563536e-03 0.0 
0.0 0.0 -2.933333333333e-04 
-2.942652969506e-04 -3.919543074497e-06 0.0 
-3.919543074497e-06 1.731357780471e-03 0.0 
0.0 0.0 -2.933333333333e-04 
-2.950107556751e-04 -4.421896676889e-06 0.0 
-4.421896676889e-06 1.732082547633e-03 0.0 
0.0 0.0 -2.933333333333e-04 
-2.956972306013e-04 -4.536584589682e-06 0.0 
-4.536584589682e-06 1.732803218560e-03 0.0 
0.0 0.0 -2.933333333333e-04 
-2.961870944633e-04 -4.534681293830e-06 0.0 
-4.534681293830e-06 1.733302425641e-03 0.0 
0.0 0.0 -2.933333333333e-04 
-2.964446907551e-04 -4.383091967362e-06 0.0 
-4.383091967362e-06 1.733534087661e-03 0.0 
0.0 0.0 -2.933333333333e-04 
-2.965448609062e-04 -4.032111778719e-06 0.0 
-4.032111778719e-06 1.733556567348e-03 0.0 
0.0 0.0 -2.933333333333e-04 
-2.965422066374e-04 -3.441128449051e-06 0.0 
-3.441128449051e-06 1.733417935372e-03 0.0 
0.0 0.0 -2.933333333333e-04 
-2.964637898873e-04 -2.583146228101e-06 0.0 
-2.583146228101e-06 1.733161460896e-03 0.0 
0.0 0.0 -2.933333333333e-04 
-2.962859802227e-04 -1.356637869366e-06 0.0 
-1.356637869366e-06 1.732810030484e-03 0.0 
0.0 0.0 -2.933333333333e-04 
-2.961232762222e-04 4.322717175537e-07 0.0 
4.322717175537e-07 1.732599157441e-03 0.0 
0.0 0.0 -2.933333333333e-04 
-2.962139862529e-04 2.310434450526e-06 0.0 
2.310434450526e-06 1.732668458157e-03 0.0 
0.0 0.0 -2.933333333333e-04 
-2.965791624248e-04 4.118196179478e-06 0.0 
4.118196179478e-06 1.733173681766e-03 0.0 
0.0 0.0 -2.933333333333e-04 
-2.970197935224e-04 4.810030904273e-06 0.0 
4.810030904273e-06 1.733539864650e-03 0.0 
0.0 0.0 -2.933333333333e-04 
-2.972728426878e-04 6.019823157692e-06 0.0 
6.019823157692e-06 1.734462446054e-03 0.0 
0.0 0.0 -2.933333333333e-04 
-2.976303353794e-04 4.729593283435e-06 0.0 
4.729593283435e-06 1.734285895178e-03 0.0 
0.0 0.0 -2.933333333333e-04 
-2.972060370648e-04 6.898574448954e-06 0.0 
6.898574448954e-06 1.735976803444e-03 0.0 
0.0 0.0 -2.933333333333e-04 
-2.978582241911e-04 3.049832582786e-06 0.0 
3.049832582786e-06 1.732847460673e-03 0.0 
0.0 0.0 -2.933333333333e-04 
-2.930809121252e-04 1.459049574271e-05 0.0 
1.459049574271e-05 1.737198194830e-03 0.0 
0.0 0.0 -2.933333333333e-04 
-2.902738991463e-04 -7.427477140233e-06 0.0 
-7.427477140233e-06 1.761638628587e-03 0.0 
0.0 0.0 -2.960058309038e-04 
-2.435748903376e-04 1.260028918425e-05 0.0 
1.260028918425e-05 1.641234534695e-03 0.0 
0.0 0.0 -2.853401360544e-04 
-3.075534139628e-04 2.412740121267e-05 0.0 
2.412740121267e-05 2.105219673239e-03 0.0 
0.0 0.0 -3.519676952907e-04 
-3.514953782151e-04 -6.121431231784e-06 0.0 
-6.121431231784e-06 2.223151637376e-03 0.0 
0.0 0.0 -3.626389769158e-04 
-3.587315693995e-04 1.096665782631e-05 0.0 
1.096665782631e-05 2.201776320981e-03 0.0 
0.0 0.0 -3.600000000000e-04 
-3.644459387370e-04 2.098126894706e-06 0.0 
2.098126894706e-06 2.197482783051e-03 0.0 
0.0 0.0 -3.600000000000e-04 
-3.637653208407e-04 5.938369815804e-06 0.0 
5.938369815804e-06 2.200852497904e-03 0.0 
0.0 0.0 -3.600000000000e-04 
-3.646562371602e-04 4.863047388640e-06 0.0 
4.863047388640e-06 2.198597723898e-03 0.0 
0.0 0.0 -3.600000000000e-04 
-3.637142436613e-04 5.528885479230e-06 0.0 
5.528885479230e-06 2.198572806408e-03 0.0 
0.0 0.0 -3.600000000000e-04 
-3.631451218203e-04 4.030632283972e-06 0.0 
4.030632283972e-06 2.197230825920e-03 0.0 
0.0 0.0 -3.600000000000e-04 
-3.626391425451e-04 1.799883791491e-06 0.0 
1.799883791491e-06 2.196963521096e-03 0.0 
0.0 0.0 -3.600000000000e-04 
-3.629347040581e-04 -6.248683363075e-07 0.0 
-6.248683363075e-07 2.197222075070e-03 0.0 
0.0 0.0 -3.600000000000e-04 
-3.632350885950e-04 -1.950524288105e-06 0.0 
-1.950524288105e-06 2.197839748043e-03 0.0 
0.0 0.0 -3.600000000000e-04 
-3.632347660019e-04 -2.695279990052e-06 0.0 
-2.695279990052e-06 2.198148142527e-03 0.0 
0.0 0.0 -3.600000000000e-04 
-3.631062498386e-04 -3.344861292445e-06 0.0 
-3.344861292445e-06 2.198321706153e-03 0.0 
0.0 0.0 -3.600000000000e-04 
-3.629810469011e-04 -3.774035134601e-06 0.0 
-3.774035134601e-06 2.198420640153e-03 0.0 
0.0 0.0 -3.600000000000e-04 
-3.627935109947e-04 -3.861239186074e-06 0.0 
-3.861239186074e-06 2.198346847940e-03 0.0 
0.0 0.0 -3.600000000000e-04 
-3.623659696942e-04 -3.546956865600e-06 0.0 
-3.546956865600e-06 2.197968515867e-03 0.0 
0.0 0.0 -3.600000000000e-04 
-3.616855162427e-04 -3.197901034656e-06 0.0 
-3.197901034656e-06 2.197284235415e-03 0.0 
0.0 0.0 -3.600000000000e-04 
-3.610100603434e-04 -2.926270428592e-06 0.0 
-2.926270428592e-06 2.196608022425e-03 0.0 
0.0 0.0 -3.600000000000e-04 
-3.605838742006e-04 -2.658699863581e-06 0.0 
-2.658699863581e-06 2.196334608217e-03 0.0 
0.0 0.0 -3.600000000000e-04 
-3.608368736123e-04 -2.739324103154e-06 0.0 
-2.739324103154e-06 2.197020254621e-03 0.0 
0.0 0.0 -3.600000000000e-04 
-3.621715591980e-04 -7.667076261686e-06 0.0 
-7.667076261686e-06 2.198997385104e-03 0.0 
0.0 0.0 -3.600000000000e-04 
-3.636156739341e-04 1.080730155248e-04 0.0 
1.080730155248e-04 2.200856497118e-03 0.0 
0.0 0.0 -3.600000000000e-04 
-4.299402721252e-04 7.347302390729e-05 0.0 
7.347302390729e-05 2.663982272910e-03 0.0 
0.0 0.0 -4.266666666667e-04 
-4.281937864377e-04 1.451679010037e-05 0.0 
1.451679010037e-05 2.661695578936e-03 0.0 
0.0 0.0 -4.266666666667e-04 
-4.272255423018e-04 -2.022714610518e-06 0.0 
-2.022714610518e-06 2.660645160847e-03 0.0 
0.0 0.0 -4.266666666667e-04 
-4.272027915601e-04 -2.022654054574e-06 0.0 
-2.022654054574e-06 2.660662658724e-03 0.0 
0.0 0.0 -4.266666666667e-04 
-4.275839105045e-04 -1.776178353133e-06 0.0 
-1.776178353133e-06 2.661218520015e-03 0.0 
0.0 0.0 -4.266666666667e-04 
-4.282801255787e-04 -1.791669274238e-06 0.0 
-1.791669274238e-06 2.662030669155e-03 0.0 
0.0 0.0 -4.266666666667e-04 
-4.290001024384e-04 -2.498947391547e-06 0.0 
-2.498947391547e-06 2.662671095001e-03 0.0 
0.0 0.0 -4.266666666667e-04 
-4.292899889364e-04 -3.096368850653e-06 0.0 
-3.096368850653e-06 2.662653268105e-03 0.0 
0.0 0.0 -4.266666666667e-04 
-4.293129381118e-04 -2.811819826603e-06 0.0 
-2.811819826603e-06 2.662413292682e-03 0.0 
0.0 0.0 -4.266666666667e-04 
-4.297697120825e-04 -2.022907387796e-06 0.0 
-2.022907387796e-06 2.662395731629e-03 0.0 
0.0 0.0 -4.266666666667e-04 
-4.302589968875e-04 -1.629717038830e-06 0.0 
-1.629717038830e-06 2.662394761870e-03 0.0 
0.0 0.0 -4.266666666667e-04 
-4.302560929618e-04 -1.576122482616e-06 0.0 
-1.576122482616e-06 2.661898826988e-03 0.0 
0.0 0.0 -4.266666666667e-04 
-4.295703799059e-04 -3.345604087401e-07 0.0 
-3.345604087401e-07 2.660486684286e-03 0.0 
0.0 0.0 -4.266666666667e-04 
-4.292671254285e-04 3.968937228656e-06 0.0 
3.968937228656e-06 2.660659650919e-03 0.0 
0.0 0.0 -4.266666666667e-04 
-4.306471619154e-04 5.513996825783e-06 0.0 
5.513996825783e-06 2.661538482777e-03 0.0 
0.0 0.0 -4.266666666667e-04 
-4.319020466915e-04 7.766791381144e-06 0.0 
7.766791381144e-06 2.665023339729e-03 0.0 
0.0 0.0 -4.266666666667e-04 
-4.328473215748e-04 8.154616711558e-07 0.0 
8.154616711558e-07 2.662572037119e-03 0.0 
0.0 0.0 -4.266666666667e-04 
-4.258499713217e-04 1.095715842585e-05 0.0 
1.095715842585e-05 2.664926400988e-03 0.0 
0.0 0.0 -4.266666666667e-04 
-4.219848975642e-04 -8.971773474757e-06 0.0 
-8.971773474757e-06 2.691197449249e-03 0.0 
0.0 0.0 -4.293391642371e-04 
-3.746379728484e-04 4.166569321959e-06 0.0 
4.166569321959e-06 2.570236127040e-03 0.0 
0.0 0.0 -4.186734693878e-04 
-4.417760951276e-04 9.193159012092e-06 0.0 
9.193159012092e-06 3.032321566953e-03 0.0 
0.0 0.0 -4.852947845805e-04 
-4.904405177129e-04 -1.236587849357e-05 0.0 
-1.236587849357e-05 3.156055993877e-03 0.0 
0.0 0.0 -4.959669582118e-04 
-4.967982216663e-04 1.212517501771e-05 0.0 
1.212517501771e-05 3.134098180657e-03 0.0 
0.0 0.0 -4.933333333333e-04 
-5.004792842088e-04 7.599146367907e-06 0.0 
7.599146367907e-06 3.126678995157e-03 0.0 
0.0 0.0 -4.933333333333e-04 
-4.960205318575e-04 8.775115201624e-06 0.0 
8.775115201624e-06 3.126031319544e-03 0.0 
0.0 0.0 -4.933333333333e-04 
-4.965309946115e-04 8.850955263351e-07 0.0 
8.850955263351e-07 3.123763413131e-03 0.0 
0.0 0.0 -4.933333333333e-04 
-4.975874164433e-04 -1.339673929123e-06 0.0 
-1.339673929123e-06 3.126915566987e-03 0.0 
0.0 0.0 -4.933333333333e-04 
-4.976423867723e-04 -5.110045370489e-07 0.0 
-5.110045370489e-07 3.127848901976e-03 0.0 
0.0 0.0 -4.933333333333e-04 
-4.971264610240e-04 4.324488759023e-07 0.0 
4.324488759023e-07 3.127700753298e-03 0.0 
0.0 0.0 -4.933333333333e-04 
-4.956643920610e-04 -1.986474812227e-07 0.0 
-1.986474812227e-07 3.126840649999e-03 0.0 
0.0 0.0 -4.933333333333e-04 
-4.952008726881e-04 -2.496870911332e-06 0.0 
-2.496870911332e-06 3.127189740971e-03 0.0 
0.0 0.0 -4.933333333333e-04 
-4.957950968528e-04 -2.119478958632e-06 0.0 
-2.119478958632e-06 3.128109892710e-03 0.0 
0.0 0.0 -4.933333333333e-04 
-4.947282309581e-04 -5.907354459501e-07 0.0 
-5.907354459501e-07 3.127398294072e-03 0.0 
0.0 0.0 -4.933333333333e-04 
-4.939115212163e-04 -6.664772443831e-07 0.0 
-6.664772443831e-07 3.126242560420e-03 0.0 
0.0 0.0 -4.933333333333e-04 
-4.934010452772e-04 -1.579724324278e-06 0.0 
-1.579724324278e-06 3.125563968915e-03 0.0 
0.0 0.0 -4.933333333333e-04 
-4.934695658846e-04 -2.572403036742e-06 0.0 
-2.572403036742e-06 3.125197225552e-03 0.0 
0.0 0.0 -4.933333333333e-04 
-4.937822211755e-04 -5.749801901612e-06 0.0 
-5.749801901612e-06 3.125650090747e-03 0.0 
0.0 0.0 -4.933333333333e-04 
-4.958153218285e-04 -1.294595170899e-05 0.0 
-1.294595170899e-05 3.127747100962e-03 0.0 
0.0 0.0 -4.933333333333e-04 
-4.967157033350e-04 1.051029907090e-04 0.0 
1.051029907090e-04 3.128775367421e-03 0.0 
0.0 0.0 -4.933333333333e-04 
-5.657042211010e-04 7.172061321592e-05 0.0 
7.172061321592e-05 3.594572891729e-03 0.0 
0.0 0.0 -5.600000000000e-04 
-5.606564277312e-04 6.276433509236e-06 0.0 
6.276433509236e-06 3.589330402058e-03 0.0 
0.0 0.0 -5.600000000000e-04 
-5.593036989964e-04 -4.014653548583e-06 0.0 
-4.014653548583e-06 3.587906727700e-03 0.0 
0.0 0.0 -5.600000000000e-04 
-5.598957549005e-04 -3.280148762673e-06 0.0 
-3.280148762673e-06 3.589229298695e-03 0.0 
0.0 0.0 -5.600000000000e-04 
-5.585733264525e-04 -8.759229213482e-07 0.0 
-8.759229213482e-07 3.588940559384e-03 0.0 
0.0 0.0 -5.600000000000e-04 
-5.598002868747e-04 8.805971940142e-07 0.0 
8.805971940142e-07 3.590399635312e-03 0.0 
0.0 0.0 -5.600000000000e-04 
-5.606115027376e-04 2.079665756902e-06 0.0 
2.079665756902e-06 3.592266060973e-03 0.0 
0.0 0.0 -5.600000000000e-04 
-5.616801369451e-04 -2.737332668778e-06 0.0 
-2.737332668778e-06 3.592113678054e-03 0.0 
0.0 0.0 -5.600000000000e-04 
-5.603339834742e-04 8.452896903076e-07 0.0 
8.452896903076e-07 3.589104110669e-03 0.0 
0.0 0.0 -5.600000000000e-04 
-5.630816852247e-04 4.954130230059e-06 0.0 
4.954130230059e-06 3.591539403390e-03 0.0 
0.0 0.0 -5.600000000000e-04 
-5.648651149249e-04 2.409580910900e-06 0.0 
2.409580910900e-06 3.593050534195e-03 0.0 
0.0 0.0 -5.600000000000e-04 
-5.645521133457e-04 1.176363961052e-06 0.0 
1.176363961052e-06 3.591815920478e-03 0.0 
0.0 0.0 -5.600000000000e-04 
-5.658777849897e-04 2.204939376018e-07 0.0 
2.204939376018e-07 3.591458064609e-03 0.0 
0.0 0.0 -5.600000000000e-04 
-5.646691075266e-04 1.488981984672e-06 0.0 
1.488981984672e-06 3.584085442749e-03 0.0 
0.0 0.0 -5.600000000000e-04 
-5.620855148441e-04 2.241238949414e-05 0.0 
2.241238949414e-05 3.592013185388e-03 0.0 
0.0 0.0 -5.600000000000e-04 
-5.610961373633e-04 -4.661019393758e-06 0.0 
-4.661019393758e-06 3.625654344184e-03 0.0 
0.0 0.0 -5.626724975705e-04 
-5.133198511328e-04 5.424589988168e-06 0.0 
5.424589988168e-06 3.504617598641e-03 0.0 
0.0 0.0 -5.520068027211e-04 
-5.819676487162e-04 1.621050128568e-05 0.0 
1.621050128568e-05 3.968047816962e-03 0.0 
0.0 0.0 -6.186195084094e-04 
-6.343601883411e-04 -2.324978129448e-06 0.0 
-2.324978129448e-06 4.083322615344e-03 0.0 
0.0 0.0 -6.292929119699e-04 
-6.353679309005e-04 1.165699384264e-05 0.0 
1.165699384264e-05 4.057988551565e-03 0.0 
0.0 0.0 -6.266666666667e-04 
-6.295881338101e-04 1.024053571249e-05 0.0 
1.024053571249e-05 4.054182088558e-03 0.0 
0.0 0.0 -6.266666666667e-04 
-6.303664344858e-04 2.787103354708e-06 0.0 
2.787103354708e-06 4.057331405365e-03 0.0 
0.0 0.0 -6.266666666667e-04 
-6.305754933791e-04 7.671505889705e-06 0.0 
7.671505889705e-06 4.059447051202e-03 0.0 
0.0 0.0 -6.266666666667e-04 
-6.287463439774e-04 1.022004490747e-05 0.0 
1.022004490747e-05 4.054187203252e-03 0.0 
0.0 0.0 -6.266666666667e-04 
-6.280820473115e-04 -9.030982197010e-07 0.0 
-9.030982197010e-07 4.053941923266e-03 0.0 
0.0 0.0 -6.266666666667e-04 
-6.225272954156e-04 4.628296295670e-06 0.0 
4.628296295670e-06 4.057329077379e-03 0.0 
0.0 0.0 -6.266666666667e-04 
-6.249534833788e-04 2.617162153450e-07 0.0 
2.617162153450e-07 4.054948637219e-03 0.0 
0.0 0.0 -6.266666666667e-04 
-6.238122874529e-04 2.229418647929e-06 0.0 
2.229418647929e-06 4.053346801204e-03 0.0 
0.0 0.0 -6.266666666667e-04 
-6.234471408791e-04 -7.779197921569e-06 0.0 
-7.779197921569e-06 4.052220848929e-03 0.0 
0.0 0.0 -6.266666666667e-04 
-6.264844917596e-04 -3.145348628054e-06 0.0 
-3.145348628054e-06 4.054722692316e-03 0.0 
0.0 0.0 -6.266666666667e-04 
-6.251160575234e-04 -9.858748010009e-06 0.0 
-9.858748010009e-06 4.049423160403e-03 0.0 
0.0 0.0 -6.266666666667e-04 
-6.286316808084e-04 -3.394218781005e-05 0.0 
-3.394218781005e-05 4.059813257993e-03 0.0 
0.0 0.0 -6.266666666667e-04 
-6.381641142781e-04 1.124153375325e-04 0.0 
1.124153375325e-04 4.068774124134e-03 0.0 
0.0 0.0 -6.266666666667e-04 
-6.112648154111e-05 2.057582376640e-05 0.0 
2.057582376640e-05 2.373049901765e-04 0.0 
0.0 0.0 -7.119425116788e-05 
-1.546216371726e-04 6.400049167789e-05 0.0 
6.400049167789e-05 7.010998205819e-04 0.0 
0.0 0.0 -1.457676002711e-04 
-2.180259668060e-04 8.313364542166e-05 0.0 
8.313364542166e-05 1.168903010383e-03 0.0 
0.0 0.0 -2.130143027807e-04 
-2.358197999292e-04 4.576581623460e-05 0.0 
4.576581623460e-05 1.512721513540e-03 0.0 
0.0 0.0 -2.657627312065e-04 
-2.992106949204e-04 1.746855033808e-05 0.0 
1.746855033808e-05 1.971118758993e-03 0.0 
0.0 0.0 -3.310903933743e-04 
-3.554966514658e-04 3.194346604781e-05 0.0 
3.194346604781e-05 2.438311747236e-03 0.0 
0.0 0.0 -3.977576770754e-04 
-4.339038949759e-04 2.050581845431e-05 0.0 
2.050581845431e-05 2.896351248714e-03 0.0 
0.0 0.0 -4.650267612653e-04 
-4.998008163795e-04 2.874356037189e-05 0.0 
2.874356037189e-05 3.362017349155e-03 0.0 
0.0 0.0 -5.317697887215e-04 
-5.672864552025e-04 2.278912112814e-05 0.0 
2.278912112814e-05 3.826790215475e-03 0.0 
0.0 0.0 -5.985602557689e-04 
-6.332370943918e-04 2.492629895563e-05 0.0 
2.492629895563e-05 4.302559779817e-03 0.0 
0.0 0.0 -6.652967104836e-04 
-1.935964666812e-04 2.967460992316e-06 0.0 
2.967460992316e-06 9.892888486110e-04 0.0 
0.0 0.0 -1.870278901045e-04 
-1.298255034363e-03 -1.439677610187e-05 0.0 
-1.439677610187e-05 8.770849623045e-03 0.0 
0.0 0.0 -1.303388942653e-03 
-5.711706292193e-05 -1.132529147633e-05 0.0 
-1.132529147633e-05 2.965576224762e-04 0.0 
0.0 0.0 -5.718844814378e-05 
-5.424579011881e-05 -2.911933097958e-05 0.0 
-2.911933097958e-05 2.725297638317e-04 0.0 
0.0 0.0 -5.560925106410e-05 
-1.303094143304e-03 2.083700262783e-05 0.0 
2.083700262783e-05 8.775603321897e-03 0.0 
0.0 0.0 -1.303360877099e-03 
-3.337502689384e-04 2.573658945227e-05 0.0 
2.573658945227e-05 1.945399262405e-03 0.0 
0.0 0.0 -3.213286234882e-04 
-7.420382513691e-04 -8.331648497424e-06 0.0 
-8.331648497424e-06 4.783425200817e-03 0.0 
0.0 0.0 -7.300567563597e-04 
-1.300502925116e-03 1.312346542057e-05 0.0 
1.312346542057e-05 8.760360600138e-03 0.0 
0.0 0.0 -1.300998267065e-03 
-4.558051091763e-04 -3.180946065212e-05 0.0 
-3.180946065212e-05 2.815581106164e-03 0.0 
0.0 0.0 -4.497936382440e-04 
-1.301730818783e-03 3.906861163013e-06 0.0 
3.906861163013e-06 8.781071212001e-03 0.0 
0.0 0.0 -1.304014651794e-03 
-5.931132187703e-04 3.451249603952e-06 0.0 
3.451249603952e-06 3.770920661498e-03 0.0 
0.0 0.0 -5.857980290939e-04 
-1.294626432424e-03 1.231524946250e-05 0.0 
1.231524946250e-05 8.803233335001e-03 0.0 
0.0 0.0 -1.307658508868e-03 
-5.100449476858e-05 8.243347627931e-06 0.0 
8.243347627931e-06 2.661035943334e-04 0.0 
0.0 0.0 -5.457498774670e-05 
-1.304712708061e-03 6.002193481849e-06 0.0 
6.002193481849e-06 8.782841008775e-03 0.0 
0.0 0.0 -1.304481600125e-03 
-7.263025570845e-04 1.579439830825e-05 0.0 
1.579439830825e-05 4.732739805173e-03 0.0 
0.0 0.0 -7.203075318094e-04 
-4.572752679378e-04 6.754709539216e-06 0.0 
6.754709539216e-06 2.913924238746e-03 0.0 
0.0 0.0 -4.640473930190e-04 
-9.144584483086e-04 1.326427603790e-05 0.0 
1.326427603790e-05 6.048992087784e-03 0.0 
0.0 0.0 -9.125512086551e-04 
-1.295486455605e-03 -9.635721854318e-06 0.0 
-9.635721854318e-06 8.767400550756e-03 0.0 
0.0 0.0 -1.301280071178e-03 
-1.304620553661e-03 1.736330334082e-05 0.0 
1.736330334082e-05 8.785218481020e-03 0.0 
0.0 0.0 -1.304294760550e-03 
-1.308798115864e-03 -1.758872586472e-05 0.0 
-1.758872586472e-05 8.782113468746e-03 0.0 
0.0 0.0 -1.303238611779e-03 
-1.297364651419e-03 1.079949245934e-05 0.0 
1.079949245934e-05 8.741492182535e-03 0.0 
0.0 0.0 -1.297727402575e-03 
-1.310467176952e-03 -2.184753791196e-05 0.0 
-2.184753791196e-05 8.795852425490e-03 0.0 
0.0 0.0 -1.305306183856e-03 
-7.504043158260e-04 1.146340899483e-05 0.0 
1.146340899483e-05 4.928957716144e-03 0.0 
0.0 0.0 -7.522011426764e-04 
-7.523353912946e-04 1.162137769546e-05 0.0 
1.162137769546e-05 4.926512636401e-03 0.0 
0.0 0.0 -7.529849494387e-04 
-7.546537283985e-04 -1.241349829200e-05 0.0 
-1.241349829200e-05 4.950472109635e-03 0.0 
0.0 0.0 -7.580270452736e-04 
-9.976077557880e-04 -3.465320003220e-05 0.0 
-3.465320003220e-05 6.602229680106e-03 0.0 
0.0 0.0 -9.950081682429e-04 
-1.300592036334e-03 -1.108396441711e-05 0.0 
-1.108396441711e-05 8.788475349475e-03 0.0 
0.0 0.0 -1.302874185639e-03 
-4.947082956209e-05 -1.829296119630e-05 0.0 
-1.829296119630e-05 2.690780974868e-04 0.0 
0.0 0.0 -5.461765089469e-05 
-6.582489508630e-05 5.524694071904e-06 0.0 
5.524694071904e-06 3.064286723342e-04 0.0 
0.0 0.0 -5.841730026856e-05 
-1.120911548220e-03 -1.158571369125e-06 0.0 
-1.158571369125e-06 7.515613535503e-03 0.0 
0.0 0.0 -1.122886395833e-03 
-7.582082522979e-04 1.961281355476e-05 0.0 
1.961281355476e-05 4.902933380827e-03 0.0 
0.0 0.0 -7.500338828344e-04 
-2.694321437334e-04 2.278372598534e-06 0.0 
2.278372598534e-06 1.494554554088e-03 0.0 
0.0 0.0 -2.594501920933e-04 
-1.298427704971e-03 5.282056354333e-06 0.0 
5.282056354333e-06 8.696713485831e-03 0.0 
0.0 0.0 -1.293200138473e-03 
-1.306703206650e-03 1.354031549595e-05 0.0 
1.354031549595e-05 8.802982423650e-03 0.0 
0.0 0.0 -1.307307853467e-03 
-1.306558631645e-03 5.032010017838e-06 0.0 
5.032010017838e-06 8.775985095811e-03 0.0 
0.0 0.0 -1.304733450272e-03 
-1.299335994773e-03 1.249139207268e-05 0.0 
1.249139207268e-05 8.749655727550e-03 0.0 
0.0 0.0 -1.297928233296e-03 
-1.308929768589e-03 -1.641174944338e-05 0.0 
-1.641174944338e-05 8.785621003878e-03 0.0 
0.0 0.0 -1.305578568836e-03 
-6.266603041308e-05 2.501207789151e-06 0.0 
2.501207789151e-06 3.071735198218e-04 0.0 
0.0 0.0 -5.851952868526e-05 
-7.474245186294e-04 1.424161896037e-05 0.0 
1.424161896037e-05 4.916877911110e-03 0.0 
0.0 0.0 -7.500980793755e-04 
-1.296702677324e-03 1.017615489427e-05 0.0 
1.017615489427e-05 8.704965271547e-03 0.0 
0.0 0.0 -1.293180865222e-03 
-1.128899365850e-03 -3.031105506872e-05 0.0 
-3.031105506872e-05 7.537413441575e-03 0.0 
0.0 0.0 -1.123598490052e-03 
-5.732050020511e-05 -1.482205262677e-05 0.0 
-1.482205262677e-05 2.925850224953e-04 0.0 
0.0 0.0 -5.798785095132e-05 
-5.914251289981e-04 -6.471482804739e-06 0.0 
-6.471482804739e-06 3.820964198355e-03 0.0 
0.0 0.0 -5.937437734062e-04 
-1.319868342544e-03 -1.044247080556e-05 0.0 
-1.044247080556e-05 8.859569502417e-03 0.0 
0.0 0.0 -1.311981303940e-03 
-4.039407312574e-04 -1.513566039237e-05 0.0 
-1.513566039237e-05 2.425755132442e-03 0.0 
0.0 0.0 -3.897472533596e-04 
-2.622920170020e-04 7.443498411070e-06 0.0 
7.443498411070e-06 1.467365751784e-03 0.0 
0.0 0.0 -2.548795656134e-04 
-5.270389969687e-04 -7.501595445452e-06 0.0 
-7.501595445452e-06 3.294996993381e-03 0.0 
0.0 0.0 -5.178568985205e-04 
-6.568994839779e-04 -7.061170510265e-06 0.0 
-7.061170510265e-06 4.237934581571e-03 0.0 
0.0 0.0 -6.527703211191e-04 
-1.172487669235e-04 -1.455488225111e-05 0.0 
-1.455488225111e-05 4.809709659116e-04 0.0 
0.0 0.0 -1.118557093815e-04 
-8.696005125465e-04 -8.177489350787e-06 0.0 
-8.177489350787e-06 5.725890687358e-03 0.0 
0.0 0.0 -8.684787984471e-04 
-1.317974587429e-03 -1.269961975259e-05 0.0 
-1.269961975259e-05 8.865515668911e-03 0.0 
0.0 0.0 -1.313906642692e-03 
-5.185989643578e-05 2.926503183834e-05 0.0 
2.926503183834e-05 2.746618289318e-04 0.0 
0.0 0.0 -5.836448670120e-05 
-1.244012605559e-03 -1.337379541831e-07 0.0 
-1.337379541831e-07 8.417025004517e-03 0.0 
0.0 0.0 -1.253930875827e-03 
-7.490231005429e-04 1.074391793059e-05 0.0 
1.074391793059e-05 4.928373640173e-03 0.0 
0.0 0.0 -7.532271817479e-04 
-7.806985373677e-04 4.966139412122e-06 0.0 
4.966139412122e-06 5.109831204569e-03 0.0 
0.0 0.0 -7.809350190597e-04 
-8.062001814621e-04 2.173167671068e-05 0.0 
2.173167671068e-05 5.343609321704e-03 0.0 
0.0 0.0 -8.115578932774e-04 
-8.489268176994e-04 -8.110940848539e-06 0.0 
-8.110940848539e-06 5.566485028911e-03 0.0 
0.0 0.0 -8.428390908522e-04 
-8.804673106023e-04 1.251244415453e-07 0.0 
1.251244415453e-07 5.795279077470e-03 0.0 
0.0 0.0 -8.784658474099e-04 
-9.121627378671e-04 -7.430796722992e-06 0.0 
-7.430796722992e-06 6.000836909727e-03 0.0 
0.0 0.0 -9.060409163497e-04 
-8.756777626728e-04 -7.143189004675e-06 0.0 
-7.143189004675e-06 5.761383353658e-03 0.0 
0.0 0.0 -8.711257577414e-04 
-9.375016757267e-04 -9.018261483619e-06 0.0 
-9.018261483619e-06 6.200512371454e-03 0.0 
0.0 0.0 -9.341442283280e-04 
-9.034456709669e-04 -5.627619604456e-06 0.0 
-5.627619604456e-06 5.955351813444e-03 0.0 
0.0 0.0 -8.989774131092e-04 
-9.375397006910e-04 -9.487100187186e-06 0.0 
-9.487100187186e-06 6.248793060300e-03 0.0 
0.0 0.0 -9.415083590319e-04 
-9.651447206159e-04 -1.078565163385e-05 0.0 
-1.078565163385e-05 6.396664073004e-03 0.0 
0.0 0.0 -9.622976032585e-04 
-9.304266532056e-04 -6.330576673760e-06 0.0 
-6.330576673760e-06 6.148924780633e-03 0.0 
0.0 0.0 -9.268639294333e-04 
-9.923459703203e-04 -8.832674575488e-06 0.0 
-8.832674575488e-06 6.591396283471e-03 0.0 
0.0 0.0 -9.903372159162e-04 
-9.579486406670e-04 -6.976346530304e-06 0.0 
-6.976346530304e-06 6.343540435811e-03 0.0 
0.0 0.0 -9.547708836903e-04 
-8.957338589247e-04 -3.445195682091e-06 0.0 
-3.445195682091e-06 5.904490313780e-03 0.0 
0.0 0.0 -8.916807130883e-04 
-9.234034349690e-04 -3.140263271689e-06 0.0 
-3.140263271689e-06 6.097553141781e-03 0.0 
0.0 0.0 -9.194532194038e-04 
-8.597658352201e-04 -5.745984387998e-07 0.0 
-5.745984387998e-07 5.659471370407e-03 0.0 
0.0 0.0 -8.565021464485e-04 
-8.876676417698e-04 -1.521204235314e-06 0.0 
-1.521204235314e-06 5.852313305850e-03 0.0 
0.0 0.0 -8.841639842141e-04 
-9.508204613182e-04 -2.297031587626e-06 0.0 
-2.297031587626e-06 6.292146332209e-03 0.0 
0.0 0.0 -9.471984275390e-04 
-9.148993498349e-04 -3.275082318902e-06 0.0 
-3.275082318902e-06 6.045345094116e-03 0.0 
0.0 0.0 -9.118195294070e-04 
-8.520584533063e-04 -1.219021611571e-06 0.0 
-1.219021611571e-06 5.605756351829e-03 0.0 
0.0 0.0 -8.488396520500e-04 
-8.789321886970e-04 -2.050593653236e-06 0.0 
-2.050593653236e-06 5.797286878756e-03 0.0 
0.0 0.0 -8.764089341820e-04 
-8.161164546335e-04 3.435109532188e-07 0.0 
3.435109532188e-07 5.359457664966e-03 0.0 
0.0 0.0 -8.135623229517e-04 
-8.427829602136e-04 -1.073992276181e-06 0.0 
-1.073992276181e-06 5.550412011619e-03 0.0 
0.0 0.0 -8.410744910442e-04 
-7.803403629458e-04 1.482617336378e-07 0.0 
1.482617336378e-07 5.112144953619e-03 0.0 
0.0 0.0 -7.781617608290e-04 
-8.069161494671e-04 -9.832122125772e-07 0.0 
-9.832122125772e-07 5.303670065228e-03 0.0 
0.0 0.0 -8.056965831182e-04 
-8.693622760752e-04 -2.102828341541e-06 0.0 
-2.102828341541e-06 5.742393281941e-03 0.0 
0.0 0.0 -8.686949506212e-04 
-8.339431778097e-04 -6.526060624194e-07 0.0 
-6.526060624194e-07 5.495228078517e-03 0.0 
0.0 0.0 -8.332427817419e-04 
-7.711323033224e-04 2.736293388892e-07 0.0 
2.736293388892e-07 5.056666474078e-03 0.0 
0.0 0.0 -7.703313069557e-04 
-7.984646574761e-04 4.457733912402e-07 0.0 
4.457733912402e-07 5.248286890054e-03 0.0 
0.0 0.0 -7.977945042040e-04 
-7.355637814562e-04 1.290713586090e-06 0.0 
1.290713586090e-06 4.810484252267e-03 0.0 
0.0 0.0 -7.349073124327e-04 
-7.625544307914e-04 1.894462684329e-06 0.0 
1.894462684329e-06 4.999988831075e-03 0.0 
0.0 0.0 -7.622392297106e-04 
-8.257237067376e-04 1.120212681242e-06 0.0 
1.120212681242e-06 5.439584299338e-03 0.0 
0.0 0.0 -8.253152238873e-04 
-7.900934727742e-04 5.597935307216e-07 0.0 
5.597935307216e-07 5.191568262959e-03 0.0 
0.0 0.0 -7.896995018144e-04 
-7.266613947029e-04 4.187926819449e-07 0.0 
4.187926819449e-07 4.748654817893e-03 0.0 
0.0 0.0 -7.264132926704e-04 
-7.549260771137e-04 -7.052768559302e-07 0.0 
-7.052768559302e-07 4.942867002026e-03 0.0 
0.0 0.0 -7.539848323805e-04 
-6.914939078145e-04 -3.149044509631e-06 0.0 
-3.149044509631e-06 4.497991263930e-03 0.0 
0.0 0.0 -6.903858661722e-04 
-7.195945743336e-04 -6.350033753307e-09 0.0 
-6.350033753307e-09 4.694794432778e-03 0.0 
0.0 0.0 -7.182351804274e-04 
-6.554914090724e-04 -2.338725356749e-06 0.0 
-2.338725356749e-06 4.247612436471e-03 0.0 
0.0 0.0 -6.542402593883e-04 
-6.835277346369e-04 5.013350338708e-07 0.0 
5.013350338708e-07 4.443250069824e-03 0.0 
0.0 0.0 -6.821763112594e-04 
-7.475539329935e-04 -2.134179080387e-07 0.0 
-2.134179080387e-07 4.889262543532e-03 0.0 
0.0 0.0 -7.460902125261e-04 
-7.115638396740e-04 -9.716415016319e-07 0.0 
-9.716415016319e-07 4.638756710994e-03 0.0 
0.0 0.0 -7.100832486075e-04 
-6.472258987921e-04 -7.491708784541e-07 0.0 
-7.491708784541e-07 4.191362599469e-03 0.0 
0.0 0.0 -6.458624074531e-04 
-6.748538623222e-04 -1.344545062167e-06 0.0 
-1.344545062167e-06 4.385359401490e-03 0.0 
0.0 0.0 -6.737786430284e-04 
-7.391037565522e-04 -1.870094726724e-06 0.0 
-1.870094726724e-06 4.833803711944e-03 0.0 
0.0 0.0 -7.381473126730e-04 
-7.024920060125e-04 -1.771787760386e-06 0.0 
-1.771787760386e-06 4.579736205562e-03 0.0 
0.0 0.0 -7.017500108595e-04 
-7.668451599419e-04 -2.200372036207e-06 0.0 
-2.200372036207e-06 5.029184891420e-03 0.0 
0.0 0.0 -7.662494016216e-04 
-7.304037803269e-04 -1.328124908122e-06 0.0 
-1.328124908122e-06 4.775158829539e-03 0.0 
0.0 0.0 -7.297828278826e-04 
-6.661738894366e-04 -1.523527640984e-06 0.0 
-1.523527640984e-06 4.327585164653e-03 0.0 
0.0 0.0 -6.655364893108e-04 
-6.940255140087e-04 -3.189861404589e-07 0.0 
-3.189861404589e-07 4.522445273198e-03 0.0 
0.0 0.0 -6.934067383651e-04 
-7.582740677644e-04 -6.702170425952e-07 0.0 
-6.702170425952e-07 4.970550121083e-03 0.0 
0.0 0.0 -7.577868799165e-04 
-7.219132454206e-04 -3.552688473153e-07 0.0 
-3.552688473153e-07 4.715591284681e-03 0.0 
0.0 0.0 -7.212202614536e-04 
-6.579749567302e-04 -8.528343255421e-07 0.0 
-8.528343255421e-07 4.269380617602e-03 0.0 
0.0 0.0 -6.571136838490e-04 
-6.854396942303e-04 1.404532946379e-06 0.0 
1.404532946379e-06 4.463099019341e-03 0.0 
0.0 0.0 -6.848379476561e-04 
-7.499209568980e-04 9.788669448942e-07 0.0 
9.788669448942e-07 4.910836491420e-03 0.0 
0.0 0.0 -7.491645792950e-04 
-7.130866886284e-04 2.531462605068e-06 0.0 
2.531462605068e-06 4.656380230421e-03 0.0 
0.0 0.0 -7.127097857715e-04 
-6.490463142765e-04 2.026928070046e-06 0.0 
2.026928070046e-06 4.209801950481e-03 0.0 
0.0 0.0 -6.486049398320e-04 
-6.764658608434e-04 3.508718195961e-06 0.0 
3.508718195961e-06 4.404145734277e-03 0.0 
0.0 0.0 -6.763006240845e-04 
-7.410587565243e-04 2.977071001621e-06 0.0 
2.977071001621e-06 4.853988703533e-03 0.0 
0.0 0.0 -7.409416231994e-04 
-7.040690402047e-04 2.351563892333e-06 0.0 
2.351563892333e-06 4.597607851949e-03 0.0 
0.0 0.0 -7.042275185679e-04 
-6.395068044754e-04 3.551759029581e-06 0.0 
3.551759029581e-06 4.148883800447e-03 0.0 
0.0 0.0 -6.398389559308e-04 
-6.666949009551e-04 4.033462501374e-06 0.0 
4.033462501374e-06 4.341905952590e-03 0.0 
0.0 0.0 -6.674633383154e-04 
-7.319239687128e-04 2.339911819127e-06 0.0 
2.339911819127e-06 4.794577675996e-03 0.0 
0.0 0.0 -7.324886333286e-04 
-6.941465830900e-04 3.043408887515e-06 0.0 
3.043408887515e-06 4.534944571325e-03 0.0 
0.0 0.0 -6.954027321055e-04 
-7.599625173411e-04 1.739203305330e-06 0.0 
1.739203305330e-06 4.991507953981e-03 0.0 
0.0 0.0 -7.608997874520e-04 
-6.288087524291e-04 4.620726933368e-06 0.0 
4.620726933368e-06 4.080538413552e-03 0.0 
0.0 0.0 -6.302092384919e-04 
-6.562200550336e-04 2.527596513767e-06 0.0 
2.527596513767e-06 4.273760246295e-03 0.0 
0.0 0.0 -6.580989212857e-04 
-5.905021683275e-04 5.113861583962e-06 0.0 
5.113861583962e-06 3.817210818870e-03 0.0 
0.0 0.0 -5.925517106747e-04 
-6.180070563344e-04 1.748353135852e-06 0.0 
1.748353135852e-06 4.012241935297e-03 0.0 
0.0 0.0 -6.207111136070e-04 
-8.536335610934e-04 1.348609631237e-06 0.0 
1.348609631237e-06 5.632618076260e-03 0.0 
0.0 0.0 -8.529317679587e-04 
-5.517808621481e-04 4.295824092782e-06 0.0 
4.295824092782e-06 3.553884541992e-03 0.0 
0.0 0.0 -5.549884598765e-04 
-5.256512596245e-04 6.824695261327e-06 0.0 
6.824695261327e-06 3.365117692800e-03 0.0 
0.0 0.0 -5.276250340903e-04 
-5.798411198688e-04 -4.887552469910e-09 0.0 
-4.887552469910e-09 3.751124839276e-03 0.0 
0.0 0.0 -5.833260987948e-04 
-6.468648656294e-04 -6.634229100666e-07 0.0 
-6.634229100666e-07 4.212613913655e-03 0.0 
0.0 0.0 -6.493616581942e-04 
-5.137698154976e-04 1.586824553395e-06 0.0 
1.586824553395e-06 3.290773483107e-03 0.0 
0.0 0.0 -5.173870653820e-04 
-5.418307247046e-04 -1.136001153091e-06 0.0 
-1.136001153091e-06 3.490016299043e-03 0.0 
0.0 0.0 -5.459094278256e-04 
-4.770030151011e-04 2.075579507917e-06 0.0 
2.075579507917e-06 3.029794249274e-03 0.0 
0.0 0.0 -4.798161731008e-04 
-6.265889875599e-04 -3.099894472637e-06 0.0 
-3.099894472637e-06 4.044775427509e-03 0.0 
0.0 0.0 -6.252159162693e-04 
-9.779259260500e-04 -4.603917606301e-06 0.0 
-4.603917606301e-06 6.486620776824e-03 0.0 
0.0 0.0 -9.750716696758e-04 
-5.048311626822e-04 8.069914569390e-07 0.0 
8.069914569390e-07 3.230775089179e-03 0.0 
0.0 0.0 -5.084495576641e-04 
-4.414277464692e-04 -9.314775103287e-07 0.0 
-9.314775103287e-07 2.769397101649e-03 0.0 
0.0 0.0 -4.423119711188e-04 
-4.126781969750e-04 2.777234300813e-06 0.0 
2.777234300813e-06 2.568725273303e-03 0.0 
0.0 0.0 -4.136824817550e-04 
-3.752383636154e-04 2.627021531009e-07 0.0 
2.627021531009e-07 2.307149796782e-03 0.0 
0.0 0.0 -3.761903503575e-04 
-9.032923406135e-04 -1.942635711141e-05 0.0 
-1.942635711141e-05 6.054768473392e-03 0.0 
0.0 0.0 -9.126358703463e-04 
-9.750351070606e-04 8.331650577883e-07 0.0 
8.331650577883e-07 6.501449499714e-03 0.0 
0.0 0.0 -9.772611937912e-04 
-9.426936007589e-04 -8.476577603346e-06 0.0 
-8.476577603346e-06 6.285634427722e-03 0.0 
0.0 0.0 -9.468612964576e-04 
-1.013350986754e-03 -2.420793703441e-06 0.0 
-2.420793703441e-06 6.752430832338e-03 0.0 
0.0 0.0 -1.012955122490e-03 
-9.819905249802e-04 -9.218190891349e-06 0.0 
-9.218190891349e-06 6.546568860747e-03 0.0 
0.0 0.0 -9.835180958883e-04 
-4.033189249179e-04 -7.405594451634e-06 0.0 
-7.405594451634e-06 2.507023825451e-03 0.0 
0.0 0.0 -4.047791634435e-04 
-1.026297749493e-03 -7.873848128133e-06 0.0 
-7.873848128133e-06 6.842470359288e-03 0.0 
0.0 0.0 -1.026687169009e-03 
-1.041976492741e-03 3.297528438811e-06 0.0 
3.297528438811e-06 6.953471480802e-03 0.0 
0.0 0.0 -1.042264213861e-03 
-7.894126093117e-04 1.238093184233e-06 0.0 
1.238093184233e-06 5.169984540206e-03 0.0 
0.0 0.0 -7.861871271282e-04 
-7.083334352114e-04 1.160791963841e-06 0.0 
1.160791963841e-06 4.619009573669e-03 0.0 
0.0 0.0 -7.076088937226e-04 
-8.034448321062e-04 -3.641604808747e-06 0.0 
-3.641604808747e-06 5.283437919380e-03 0.0 
0.0 0.0 -8.027518904046e-04 
-5.699317647335e-04 -5.077104347272e-06 0.0 
-5.077104347272e-06 3.690391390143e-03 0.0 
0.0 0.0 -5.745905038755e-04 
-5.325923514100e-04 1.264931689767e-06 0.0 
1.264931689767e-06 3.434700451156e-03 0.0 
0.0 0.0 -5.371338854166e-04 
-6.021414154153e-04 -1.123287284887e-05 0.0 
-1.123287284887e-05 3.895898666929e-03 0.0 
0.0 0.0 -6.033452624549e-04 
-7.975586205945e-04 7.346724402817e-07 0.0 
7.346724402817e-07 5.250837552225e-03 0.0 
0.0 0.0 -7.980428604176e-04 
-8.260589898796e-04 8.470418803897e-07 0.0 
8.470418803897e-07 5.449813526142e-03 0.0 
0.0 0.0 -8.266132305475e-04 
-8.633840041631e-04 4.108677631334e-07 0.0 
4.108677631334e-07 5.709024598085e-03 0.0 
0.0 0.0 -8.638188500004e-04 
-8.921637692903e-04 4.125221993885e-07 0.0 
4.125221993885e-07 5.908664068470e-03 0.0 
0.0 0.0 -8.924533907576e-04 
-9.293171742377e-04 3.033539280726e-07 0.0 
3.033539280726e-07 6.168083546012e-03 0.0 
0.0 0.0 -9.297164513315e-04 
-9.582709124814e-04 8.513827699176e-07 0.0 
8.513827699176e-07 6.368400937687e-03 0.0 
0.0 0.0 -9.583747859490e-04 
-9.209100768105e-04 -4.256218772022e-07 0.0 
-4.256218772022e-07 6.108351576790e-03 0.0 
0.0 0.0 -9.210728288235e-04 
-9.873571107966e-04 -7.195723232203e-07 0.0 
-7.195723232203e-07 6.568673837727e-03 0.0 
0.0 0.0 -9.870277070005e-04 
-9.496224461858e-04 -1.641275594905e-06 0.0 
-1.641275594905e-06 6.308003890192e-03 0.0 
0.0 0.0 -9.497007337289e-04 
-9.952004913145e-04 1.269240357803e-06 0.0 
1.269240357803e-06 6.627713601016e-03 0.0 
0.0 0.0 -9.956835613869e-04 
-9.665012269537e-04 -8.709086142667e-07 0.0 
-8.709086142667e-07 6.427165842683e-03 0.0 
0.0 0.0 -9.668198671257e-04 
-1.015999965498e-03 -2.659789521343e-06 0.0 
-2.659789521343e-06 6.768164853945e-03 0.0 
0.0 0.0 -1.015681523326e-03 
-9.780689760982e-04 -1.773026811882e-06 0.0 
-1.773026811882e-06 6.507705614272e-03 0.0 
0.0 0.0 -9.783260305705e-04 
-1.043750394909e-03 -2.772279525245e-06 0.0 
-2.772279525245e-06 6.967527210065e-03 0.0 
0.0 0.0 -1.044362401637e-03 
-1.005977853166e-03 -2.262113223733e-06 0.0 
-2.262113223733e-06 6.706658029639e-03 0.0 
0.0 0.0 -1.007007767922e-03 
-9.404749716457e-04 -1.193534276169e-06 0.0 
-1.193534276169e-06 6.246239019973e-03 0.0 
0.0 0.0 -9.408676861799e-04 
-9.684909118554e-04 -8.529271608881e-07 0.0 
-8.529271608881e-07 6.444829778042e-03 0.0 
0.0 0.0 -9.695029660748e-04 
-9.037723104013e-04 -2.350012697831e-06 0.0 
-2.350012697831e-06 5.986848649888e-03 0.0 
0.0 0.0 -9.035672079865e-04 
-8.314464570683e-04 -3.616594317094e-06 0.0 
-3.616594317094e-06 5.479880314984e-03 0.0 
0.0 0.0 -8.309624794500e-04 
-8.682753299778e-04 -4.472916759992e-06 0.0 
-4.472916759992e-06 5.735257211893e-03 0.0 
0.0 0.0 -8.675775700443e-04 
-8.962132157840e-04 -3.994715245400e-06 0.0 
-3.994715245400e-06 5.931796623670e-03 0.0 
0.0 0.0 -8.958500940740e-04 
-9.334915543322e-04 -5.104595478856e-06 0.0 
-5.104595478856e-06 6.188168080628e-03 0.0 
0.0 0.0 -9.325549191312e-04 
-9.611906856984e-04 -4.832422115390e-06 0.0 
-4.832422115390e-06 6.384949120317e-03 0.0 
0.0 0.0 -9.609176734917e-04 
-9.993166695243e-04 -5.921015935411e-06 0.0 
-5.921015935411e-06 6.642197475408e-03 0.0 
0.0 0.0 -9.976363410588e-04 
-1.026869107811e-03 -5.279541534857e-06 0.0 
-5.279541534857e-06 6.837737939095e-03 0.0 
0.0 0.0 -1.026032504441e-03 
-9.888890578615e-04 -3.536873257958e-06 0.0 
-3.536873257958e-06 6.582021445560e-03 0.0 
0.0 0.0 -9.892761093610e-04 
-1.020948249731e-03 -5.775826579251e-06 0.0 
-5.775826579251e-06 6.785097853957e-03 0.0 
0.0 0.0 -1.018102500310e-03 
-6.106564943980e-04 -8.377932010853e-07 0.0 
-8.377932010853e-07 3.937861241286e-03 0.0 
0.0 0.0 -6.095594541484e-04 
-5.829707017920e-04 -8.761996172272e-07 0.0 
-8.761996172272e-07 3.743841342214e-03 0.0 
0.0 0.0 -5.816898710390e-04 
-5.468224651884e-04 3.532374184790e-07 0.0 
3.532374184790e-07 3.491149788400e-03 0.0 
0.0 0.0 -5.454521931755e-04 
-5.191424428683e-04 -2.726566039409e-07 0.0 
-2.726566039409e-07 3.297674531074e-03 0.0 
0.0 0.0 -5.176388733440e-04 
-4.833226440277e-04 2.092058671683e-06 0.0 
2.092058671683e-06 3.045002640289e-03 0.0 
0.0 0.0 -4.814163979944e-04 
-4.557758029647e-04 1.050100037043e-06 0.0 
1.050100037043e-06 2.852852491029e-03 0.0 
0.0 0.0 -4.537165770244e-04 
-4.203756978464e-04 3.745088126668e-06 0.0 
3.745088126668e-06 2.598843361212e-03 0.0 
0.0 0.0 -4.172264234068e-04 
-4.466735727578e-04 5.480427942949e-06 0.0 
5.480427942949e-06 2.790981770740e-03 0.0 
0.0 0.0 -4.450327826477e-04 
-3.836326554130e-04 7.904997896639e-06 0.0 
7.904997896639e-06 2.342835906920e-03 0.0 
0.0 0.0 -3.805252178390e-04 
-4.084193757356e-04 7.242552144165e-06 0.0 
7.242552144165e-06 2.535005811079e-03 0.0 
0.0 0.0 -4.085362445790e-04 
-3.461331758914e-04 8.763341315882e-06 0.0 
8.763341315882e-06 2.084280570054e-03 0.0 
0.0 0.0 -3.437934912881e-04 
-3.698709012629e-04 8.292346557800e-06 0.0 
8.292346557800e-06 2.277114687721e-03 0.0 
0.0 0.0 -3.717096690223e-04 
-8.965032625882e-04 -1.627591660537e-06 0.0 
-1.627591660537e-06 5.934603885101e-03 0.0 
0.0 0.0 -8.963565068603e-04 
-9.708908500796e-04 -5.045480792177e-06 0.0 
-5.045480792177e-06 6.444533853224e-03 0.0 
0.0 0.0 -9.691568884624e-04 
-1.036699855876e-03 -2.770010414119e-06 0.0 
-2.770010414119e-06 6.900219655108e-03 0.0 
0.0 0.0 -1.034312087004e-03 
-1.006639220865e-03 -3.033633605173e-06 0.0 
-3.033633605173e-06 6.698197690662e-03 0.0 
0.0 0.0 -1.005320805676e-03 
-3.491849021404e-04 5.274199756899e-07 0.0 
5.274199756899e-07 2.108115059856e-03 0.0 
0.0 0.0 -3.475522021424e-04 
-1.033063842021e-03 -2.635650059539e-06 0.0 
-2.635650059539e-06 6.905166544597e-03 0.0 
0.0 0.0 -1.035773625862e-03 
-1.032236772368e-03 -1.431372014452e-06 0.0 
-1.431372014452e-06 6.887149851833e-03 0.0 
0.0 0.0 -1.032922975483e-03 
-1.003745583219e-03 -3.564129010567e-06 0.0 
-3.564129010567e-06 6.683661322661e-03 0.0 
0.0 0.0 -1.003739924893e-03 
-1.054629030311e-03 -7.601280977910e-07 0.0 
-7.601280977910e-07 7.036563315422e-03 0.0 
0.0 0.0 -1.054598834243e-03 
-3.382801587767e-04 -2.979708598297e-06 0.0 
-2.979708598297e-06 2.049061231215e-03 0.0 
0.0 0.0 -3.392587823741e-04 
-3.925929468368e-04 -3.827429239244e-07 0.0 
-3.827429239244e-07 2.409736501278e-03 0.0 
0.0 0.0 -3.899405068163e-04 
-4.274717193387e-04 -8.415189167567e-08 0.0 
-8.415189167567e-08 2.658832617141e-03 0.0 
0.0 0.0 -4.261104576107e-04 
-1.049394948444e-03 -6.226283885082e-06 0.0 
-6.226283885082e-06 7.001982288460e-03 0.0 
0.0 0.0 -1.048874596840e-03 
-1.017918189327e-03 -8.563044135185e-06 0.0 
-8.563044135185e-06 6.794247194180e-03 0.0 
0.0 0.0 -1.019458214591e-03 
-1.069216758149e-03 -3.894499857362e-06 0.0 
-3.894499857362e-06 7.146438403505e-03 0.0 
0.0 0.0 -1.070157681403e-03 
-3.646275857636e-04 -4.854414982731e-06 0.0 
-4.854414982731e-06 2.250210390791e-03 0.0 
0.0 0.0 -3.675747464493e-04 
-1.054357939260e-03 -2.436299897803e-06 0.0 
-2.436299897803e-06 7.029823091953e-03 0.0 
0.0 0.0 -1.052997445444e-03 
-3.197645753904e-04 1.264604075083e-05 0.0 
1.264604075083e-05 1.895364248012e-03 0.0 
0.0 0.0 -3.160508651072e-04 
-9.953050425208e-04 1.480628501674e-06 0.0 
1.480628501674e-06 6.643084749548e-03 0.0 
0.0 0.0 -9.982306137915e-04 
-1.060585647238e-03 -1.664106558644e-06 0.0 
-1.664106558644e-06 7.103829563321e-03 0.0 
0.0 0.0 -1.064501221861e-03 
-8.833816014428e-04 -1.312725406789e-06 0.0 
-1.312725406789e-06 5.848632048973e-03 0.0 
0.0 0.0 -8.838659695519e-04 
-1.072126527592e-03 1.342848407724e-06 0.0 
1.342848407724e-06 7.156046509616e-03 0.0 
0.0 0.0 -1.070909199420e-03 
-1.040873144494e-03 -1.559728385194e-06 0.0 
-1.559728385194e-06 6.945723517804e-03 0.0 
0.0 0.0 -1.041442769611e-03 
-4.361432558224e-04 3.964498909281e-06 0.0 
3.964498909281e-06 2.732385665183e-03 0.0 
0.0 0.0 -4.368024751037e-04 
-4.014490958451e-04 -4.456139007885e-06 0.0 
-4.456139007885e-06 2.476345149205e-03 0.0 
0.0 0.0 -4.000028750317e-04 
-3.379276697082e-04 -9.389203743798e-07 0.0 
-9.389203743798e-07 2.030025360652e-03 0.0 
0.0 0.0 -3.362177140684e-04 
-3.635969428549e-04 1.373767669547e-06 0.0 
1.373767669547e-06 2.244616072891e-03 0.0 
0.0 0.0 -3.646174584383e-04 
-4.300938244296e-04 1.567544356461e-06 0.0 
1.567544356461e-06 2.681550340782e-03 0.0 
0.0 0.0 -4.284477484795e-04 
-3.889085083712e-04 9.835552761999e-06 0.0 
9.835552761999e-06 2.418297915731e-03 0.0 
0.0 0.0 -3.914172224959e-04 
-3.204770754165e-04 1.907323267818e-05 0.0 
1.907323267818e-05 1.962571053019e-03 0.0 
0.0 0.0 -3.275549428413e-04 
-3.502907991612e-04 7.488671342929e-06 0.0 
7.488671342929e-06 2.156719423535e-03 0.0 
0.0 0.0 -3.541853722931e-04 
-4.167106155496e-04 6.881429257417e-06 0.0 
6.881429257417e-06 2.610903268491e-03 0.0 
0.0 0.0 -4.192720002935e-04 
-3.788914181042e-04 4.343078442188e-06 0.0 
4.343078442188e-06 2.349536149817e-03 0.0 
0.0 0.0 -3.818909459020e-04 
-3.084459074469e-04 6.289188176421e-07 0.0 
6.289188176421e-07 1.890259859557e-03 0.0 
0.0 0.0 -3.163726278224e-04 
-3.419617535017e-04 -1.002237531258e-06 0.0 
-1.002237531258e-06 2.083935112305e-03 0.0 
0.0 0.0 -3.442135738104e-04 
-1.099071483736e-03 -4.059536723357e-06 0.0 
-4.059536723357e-06 7.365286043721e-03 0.0 
0.0 0.0 -1.101875158976e-03 
-2.778270531889e-04 5.606786558079e-06 0.0 
5.606786558079e-06 1.634146459113e-03 0.0 
0.0 0.0 -2.790856233436e-04 
-8.331232600789e-04 -1.470432704221e-06 0.0 
-1.470432704221e-06 5.468049203594e-03 0.0 
0.0 0.0 -8.288706041983e-04 
-1.097753538925e-03 -6.819421046411e-08 0.0 
-6.819421046411e-08 7.345996197340e-03 0.0 
0.0 0.0 -1.099012274073e-03 
-1.093116720620e-03 -8.666493399369e-07 0.0 
-8.666493399369e-07 7.286837829642e-03 0.0 
0.0 0.0 -1.090660416876e-03 
-1.084365567575e-03 -6.280824779015e-06 0.0 
-6.280824779015e-06 7.252032631151e-03 0.0 
0.0 0.0 -1.085032576515e-03 
-1.054657705810e-03 -6.435631966191e-06 0.0 
-6.435631966191e-06 7.045218181684e-03 0.0 
0.0 0.0 -1.055603631703e-03 
-9.875851288997e-04 -1.413805567774e-06 0.0 
-1.413805567774e-06 6.584177510452e-03 0.0 
0.0 0.0 -9.897378988699e-04 
-1.026769546168e-03 -2.237330550586e-06 0.0 
-2.237330550586e-06 6.840866959104e-03 0.0 
0.0 0.0 -1.026001677571e-03 
-1.092973095107e-03 -7.454569989634e-06 0.0 
-7.454569989634e-06 7.301089234385e-03 0.0 
0.0 0.0 -1.091942449670e-03 
-1.064751991023e-03 -3.501272267722e-06 0.0 
-3.501272267722e-06 7.095620902661e-03 0.0 
0.0 0.0 -1.062342898562e-03 
-9.988564979816e-04 -1.668871402228e-06 0.0 
-1.668871402228e-06 6.635005463114e-03 0.0 
0.0 0.0 -9.962627399151e-04 
-1.034436478479e-03 -1.481002808395e-06 0.0 
-1.481002808395e-06 6.886326563749e-03 0.0 
0.0 0.0 -1.032646955902e-03 
-9.669903561008e-04 -1.588757973808e-06 0.0 
-1.588757973808e-06 6.424013170772e-03 0.0 
0.0 0.0 -9.664557332607e-04 
-1.003700280699e-03 7.299281571934e-07 0.0 
7.299281571934e-07 6.676052297610e-03 0.0 
0.0 0.0 -1.002889032254e-03 
-1.069539961128e-03 -1.406306334207e-06 0.0 
-1.406306334207e-06 7.137459283332e-03 0.0 
0.0 0.0 -1.069134413525e-03 
-1.040251277345e-03 -2.304501535982e-06 0.0 
-2.304501535982e-06 6.929939891367e-03 0.0 
0.0 0.0 -1.039387411609e-03 
-9.757356294361e-04 3.492291009935e-06 0.0 
3.492291009935e-06 6.469291385121e-03 0.0 
0.0 0.0 -9.730575354659e-04 
-1.011311036558e-03 -3.920010342729e-06 0.0 
-3.920010342729e-06 6.721391753202e-03 0.0 
0.0 0.0 -1.009574527126e-03 
-9.473976655285e-04 1.069754497067e-06 0.0 
1.069754497067e-06 6.259448801403e-03 0.0 
0.0 0.0 -9.431603702596e-04 
-9.787243902099e-04 -9.076392670580e-06 0.0 
-9.076392670580e-06 6.505694726987e-03 0.0 
0.0 0.0 -9.796061197752e-04 
-1.045613844249e-03 -1.722974318907e-06 0.0 
-1.722974318907e-06 6.974649094867e-03 0.0 
0.0 0.0 -1.046101832713e-03 
-2.943775444909e-04 -6.928567678538e-07 0.0 
-6.928567678538e-07 1.805789486149e-03 0.0 
0.0 0.0 -3.035957800550e-04 
-1.017758437714e-03 8.339975111558e-07 0.0 
8.339975111558e-07 6.780275813963e-03 0.0 
0.0 0.0 -1.017732614895e-03 
-1.085695951343e-03 9.008470653890e-06 0.0 
9.008470653890e-06 7.238624846316e-03 0.0 
0.0 0.0 -1.083831836677e-03 
-5.709103913775e-04 -2.325431224868e-05 0.0 
-2.325431224868e-05 3.664168357293e-03 0.0 
0.0 0.0 -5.671321338944e-04 
-6.324387949388e-04 -2.542767452305e-05 0.0 
-2.542767452305e-05 4.079572971033e-03 0.0 
0.0 0.0 -6.325382687906e-04 
-6.703304024063e-04 2.057485422877e-06 0.0 
2.057485422877e-06 4.353279279577e-03 0.0 
0.0 0.0 -6.695659616924e-04 
-6.965174910300e-04 -2.385319859374e-06 0.0 
-2.385319859374e-06 4.560833435242e-03 0.0 
0.0 0.0 -6.986863204145e-04 
-1.013217864429e-03 -6.931448216209e-06 0.0 
-6.931448216209e-06 6.760757040862e-03 0.0 
0.0 0.0 -1.015477767897e-03 
-1.085754476307e-03 4.526117246952e-06 0.0 
4.526117246952e-06 7.228792746516e-03 0.0 
0.0 0.0 -1.082739357160e-03 
-3.632786350414e-04 -5.324944036105e-07 0.0 
-5.324944036105e-07 2.218076515491e-03 0.0 
0.0 0.0 -3.630904347118e-04 
-3.989196443092e-04 3.443700858680e-06 0.0 
3.443700858680e-06 2.465366928233e-03 0.0 
0.0 0.0 -3.987635198617e-04 
-1.114604240908e-03 -4.187271034193e-06 0.0 
-4.187271034193e-06 7.457266297093e-03 0.0 
0.0 0.0 -1.114382729655e-03 
-1.023827423401e-03 3.244776890839e-07 0.0 
3.244776890839e-07 6.846372715936e-03 0.0 
0.0 0.0 -1.027045364000e-03 
-9.591711885291e-04 5.195306824484e-06 0.0 
5.195306824484e-06 6.383348184143e-03 0.0 
0.0 0.0 -9.609938998495e-04 
-6.727539858769e-04 1.372459178985e-06 0.0 
1.372459178985e-06 4.373266699251e-03 0.0 
0.0 0.0 -6.721935305596e-04 
-6.457182263887e-04 2.843205903296e-06 0.0 
2.843205903296e-06 4.180265241662e-03 0.0 
0.0 0.0 -6.449639573754e-04 
-6.090109741668e-04 -1.269187225415e-06 0.0 
-1.269187225415e-06 3.932858286179e-03 0.0 
0.0 0.0 -6.093131083769e-04 
-5.816903259702e-04 4.641891431384e-06 0.0 
4.641891431384e-06 3.732340485873e-03 0.0 
0.0 0.0 -5.812298138028e-04 
-6.200283683434e-04 9.586645545116e-06 0.0 
9.586645545116e-06 3.992414838426e-03 0.0 
0.0 0.0 -6.173664885638e-04 
-5.434193891668e-04 -9.403867661906e-06 0.0 
-9.403867661906e-06 3.478668698050e-03 0.0 
0.0 0.0 -5.448148816535e-04 
-9.373928058819e-04 -1.601369738936e-06 0.0 
-1.601369738936e-06 6.221929865538e-03 0.0 
0.0 0.0 -9.373051277721e-04 
-1.105789133782e-03 -5.097961888920e-06 0.0 
-5.097961888920e-06 7.391609738888e-03 0.0 
0.0 0.0 -1.105708206284e-03 
-3.854345613970e-04 8.443027839813e-06 0.0 
8.443027839813e-06 2.371646984252e-03 0.0 
0.0 0.0 -3.852871208612e-04 
-3.201910169614e-04 4.758000015084e-06 0.0 
4.758000015084e-06 1.911169802832e-03 0.0 
0.0 0.0 -3.193625892355e-04 
-1.092402492623e-03 -1.167819157760e-06 0.0 
-1.167819157760e-06 7.309660398486e-03 0.0 
0.0 0.0 -1.093300181677e-03 
-9.522712570359e-04 -2.708707742721e-07 0.0 
-2.708707742721e-07 6.324723503682e-03 0.0 
0.0 0.0 -9.522822042369e-04 
-9.318364452749e-04 -3.558001127041e-06 0.0 
-3.558001127041e-06 6.182417451607e-03 0.0 
0.0 0.0 -9.319735432435e-04 
-9.592391997822e-04 -2.458009781541e-06 0.0 
-2.458009781541e-06 6.375907434676e-03 0.0 
0.0 0.0 -9.598347391831e-04 
-9.950739296232e-04 -4.572796618511e-06 0.0 
-4.572796618511e-06 6.625947379230e-03 0.0 
0.0 0.0 -9.957130113267e-04 
-1.022389104434e-03 -1.719325875492e-06 0.0 
-1.719325875492e-06 6.820013246431e-03 0.0 
0.0 0.0 -1.023751803962e-03 
-1.059370439720e-03 -5.405362556151e-06 0.0 
-5.405362556151e-06 7.072199763533e-03 0.0 
0.0 0.0 -1.059873349132e-03 
-1.087678763415e-03 -2.923161999985e-06 0.0 
-2.923161999985e-06 7.265128234670e-03 0.0 
0.0 0.0 -1.087854580038e-03 
-1.051303081442e-03 5.171402569265e-07 0.0 
5.171402569265e-07 7.018896459243e-03 0.0 
0.0 0.0 -1.051791170495e-03 
-1.103769166383e-03 7.691851827851e-06 0.0 
7.691851827851e-06 7.404894528321e-03 0.0 
0.0 0.0 -1.107463318235e-03 
-1.117712624745e-03 -3.586966882199e-06 0.0 
-3.586966882199e-06 7.467456065743e-03 0.0 
0.0 0.0 -1.115916943430e-03 
-9.389683298366e-04 8.173508751278e-06 0.0 
8.173508751278e-06 6.277342985551e-03 0.0 
0.0 0.0 -9.487150400336e-04 
-9.410739694122e-04 -1.111791304632e-06 0.0 
-1.111791304632e-06 6.241243045591e-03 0.0 
0.0 0.0 -9.398448712237e-04 
-4.457204000865e-04 5.557813324762e-06 0.0 
5.557813324762e-06 2.807268937135e-03 0.0 
0.0 0.0 -4.474652294669e-04 
-2.787239558753e-04 -1.594210911545e-05 0.0 
-1.594210911545e-05 1.590980471387e-03 0.0 
0.0 0.0 -2.752498982733e-04 
-2.801629165477e-04 1.388173637535e-07 0.0 
1.388173637535e-07 1.614413284500e-03 0.0 
0.0 0.0 -2.770275614452e-04 
-3.257086370933e-04 6.463444473954e-06 0.0 
6.463444473954e-06 1.982032803988e-03 0.0 
0.0 0.0 -3.299748606085e-04 
-3.924316838372e-04 3.341960258366e-06 0.0 
3.341960258366e-06 2.447443434601e-03 0.0 
0.0 0.0 -3.961554456411e-04 
-1.134349550786e-03 -1.652632845532e-06 0.0 
-1.652632845532e-06 7.607275251226e-03 0.0 
0.0 0.0 -1.136360603439e-03 
-1.125800754315e-03 -5.253853129254e-06 0.0 
-5.253853129254e-06 7.520991050392e-03 0.0 
0.0 0.0 -1.124065295910e-03 
-1.096791908378e-03 -5.220402544478e-06 0.0 
-5.220402544478e-06 7.320289406060e-03 0.0 
0.0 0.0 -1.095615423988e-03 
-5.557080703907e-04 2.060507655022e-05 0.0 
2.060507655022e-05 3.553838567094e-03 0.0 
0.0 0.0 -5.539799138139e-04 
-5.938414920039e-04 6.065843658374e-06 0.0 
6.065843658374e-06 3.806784454423e-03 0.0 
0.0 0.0 -5.905304635153e-04 
-1.132061157024e-03 2.994999273290e-06 0.0 
2.994999273290e-06 7.609332849678e-03 0.0 
0.0 0.0 -1.136278651916e-03 
-9.052603845710e-04 -1.496793008832e-06 0.0 
-1.496793008832e-06 6.089428360264e-03 0.0 
0.0 0.0 -9.177848451843e-04 
-9.302886435713e-04 -1.143901140747e-06 0.0 
-1.143901140747e-06 6.175006027383e-03 0.0 
0.0 0.0 -9.302130594432e-04 
-8.986318941468e-04 1.808913455717e-06 0.0 
1.808913455717e-06 5.958837749668e-03 0.0 
0.0 0.0 -9.001900590098e-04 
-2.448154097378e-04 -1.421673720980e-05 0.0 
-1.421673720980e-05 1.469020257813e-03 0.0 
0.0 0.0 -2.595221258752e-04 
-2.425141975507e-04 4.798340757492e-06 0.0 
4.798340757492e-06 1.427444744679e-03 0.0 
0.0 0.0 -2.525597767350e-04 
-1.129866785975e-03 -6.589135683459e-06 0.0 
-6.589135683459e-06 7.556758245339e-03 0.0 
0.0 0.0 -1.128363834889e-03 
-4.625030533362e-04 2.152653740831e-06 0.0 
2.152653740831e-06 2.905591162520e-03 0.0 
0.0 0.0 -4.615872697407e-04 
-4.348533942840e-04 3.201452625958e-06 0.0 
3.201452625958e-06 2.712395630356e-03 0.0 
0.0 0.0 -4.342639779644e-04 
-2.556862254962e-04 9.465200077470e-06 0.0 
9.465200077470e-06 1.446637132955e-03 0.0 
0.0 0.0 -2.508181872060e-04 
-2.123142658657e-04 2.153637718006e-06 0.0 
2.153637718006e-06 1.175585796085e-03 0.0 
0.0 0.0 -2.143868084631e-04 
-1.042731456099e-03 1.901936730496e-05 0.0 
1.901936730496e-05 6.995442815012e-03 0.0 
0.0 0.0 -1.051814883004e-03 
-1.110984337992e-03 1.360393105763e-05 0.0 
1.360393105763e-05 7.468547826848e-03 0.0 
0.0 0.0 -1.117859435171e-03 
-7.312716402703e-04 -2.190675999974e-06 0.0 
-2.190675999974e-06 4.814374156657e-03 0.0 
0.0 0.0 -7.356929296387e-04 
-7.645892286358e-04 -1.102166449941e-05 0.0 
-1.102166449941e-05 5.018862629850e-03 0.0 
0.0 0.0 -7.648299719236e-04 
-1.105578814045e-03 -4.864618337802e-06 0.0 
-4.864618337802e-06 7.407304501986e-03 0.0 
0.0 0.0 -1.107558395918e-03 
-3.066920262703e-04 -9.941053824018e-07 0.0 
-9.941053824018e-07 1.825477502809e-03 0.0 
0.0 0.0 -3.060794667268e-04 
-1.146252104278e-03 9.473611415292e-07 0.0 
9.473611415292e-07 7.693660702169e-03 0.0 
0.0 0.0 -1.149181664990e-03 
-9.819770468004e-04 3.151631864564e-06 0.0 
3.151631864564e-06 6.525650668115e-03 0.0 
0.0 0.0 -9.807908033776e-04 
-9.159380280943e-04 1.195442860185e-06 0.0 
1.195442860185e-06 6.068082639928e-03 0.0 
0.0 0.0 -9.152404036620e-04 
-6.511413906152e-04 1.424536279068e-05 0.0 
1.424536279068e-05 4.294241389317e-03 0.0 
0.0 0.0 -6.604623333687e-04 
-3.374810340454e-04 6.844433927067e-06 0.0 
6.844433927067e-06 2.031763814607e-03 0.0 
0.0 0.0 -3.366432492119e-04 
-3.027001806187e-04 4.554754580628e-06 0.0 
4.554754580628e-06 1.781580953441e-03 0.0 
0.0 0.0 -3.009099309908e-04 
-4.837618896287e-04 7.408810593372e-06 0.0 
7.408810593372e-06 3.065907824054e-03 0.0 
0.0 0.0 -4.845585894574e-04 
-3.706525314116e-04 2.979043878704e-06 0.0 
2.979043878704e-06 2.283251894813e-03 0.0 
0.0 0.0 -3.723415964733e-04 
-3.535775650443e-04 1.642795960174e-06 0.0 
1.642795960174e-06 2.183712345689e-03 0.0 
0.0 0.0 -3.583452993329e-04 
-1.171956394673e-03 7.296733533158e-06 0.0 
7.296733533158e-06 7.865937936914e-03 0.0 
0.0 0.0 -1.173829981771e-03 
-1.155496536768e-03 -7.585900876950e-06 0.0 
-7.585900876950e-06 7.757441294242e-03 0.0 
0.0 0.0 -1.157575248917e-03 
-1.081331483118e-03 -1.018192650106e-05 0.0 
-1.018192650106e-05 7.219793718708e-03 0.0 
0.0 0.0 -1.080172819833e-03 
-1.016976595983e-03 3.080934611955e-08 0.0 
3.080934611955e-08 6.767850029250e-03 0.0 
0.0 0.0 -1.015677837919e-03 
-1.139278177336e-03 -7.940019038833e-06 0.0 
-7.940019038833e-06 7.665797132760e-03 0.0 
0.0 0.0 -1.144955025780e-03 
-2.327287223154e-04 -5.619721676041e-06 0.0 
-5.619721676041e-06 1.369838176642e-03 0.0 
0.0 0.0 -2.399185640008e-04 
-1.167065302037e-03 -2.167295117500e-06 0.0 
-2.167295117500e-06 7.816099518397e-03 0.0 
0.0 0.0 -1.165794428787e-03 
-1.057599608467e-03 -1.462585030755e-06 0.0 
-1.462585030755e-06 7.053925433098e-03 0.0 
0.0 0.0 -1.056136825731e-03 
-1.166821884924e-03 8.580756338007e-06 0.0 
8.580756338007e-06 7.754116842770e-03 0.0 
0.0 0.0 -1.157598467365e-03 
-1.133408506306e-03 -8.435792570134e-07 0.0 
-8.435792570134e-07 7.569033753462e-03 0.0 
0.0 0.0 -1.131219827106e-03 
-4.984456519411e-04 4.300557589694e-06 0.0 
4.300557589694e-06 3.150357815837e-03 0.0 
0.0 0.0 -4.968499830348e-04 
-4.727344614058e-04 -4.063132868510e-06 0.0 
-4.063132868510e-06 2.963684111716e-03 0.0 
0.0 0.0 -4.705806478706e-04 
-4.091383170964e-04 2.862069894884e-06 0.0 
2.862069894884e-06 2.529363987017e-03 0.0 
0.0 0.0 -4.078257031896e-04 
-4.471058786427e-04 1.072951437627e-05 0.0 
1.072951437627e-05 2.788633828474e-03 0.0 
0.0 0.0 -4.438024830152e-04 
-8.440631779025e-04 -4.493147098186e-06 0.0 
-4.493147098186e-06 5.518369027804e-03 0.0 
0.0 0.0 -8.361670615231e-04 
-5.357092529257e-04 -9.292843077276e-07 0.0 
-9.292843077276e-07 3.402933662769e-03 0.0 
0.0 0.0 -5.333915535664e-04 
-7.972227851670e-04 -9.360487058620e-07 0.0 
-9.360487058620e-07 5.222669072684e-03 0.0 
0.0 0.0 -7.939299641313e-04 
-7.702508874020e-04 -1.538210288694e-06 0.0 
-1.538210288694e-06 5.031866795854e-03 0.0 
0.0 0.0 -7.665196690739e-04 
-7.355056886190e-04 7.347932434339e-07 0.0 
7.347932434339e-07 4.791036993934e-03 0.0 
0.0 0.0 -7.319524942586e-04 
-6.561872916338e-04 1.268419360779e-06 0.0 
1.268419360779e-06 4.239606973166e-03 0.0 
0.0 0.0 -6.527873785750e-04 
-6.291613184762e-04 -1.439650198950e-06 0.0 
-1.439650198950e-06 4.053875822961e-03 0.0 
0.0 0.0 -6.261871041946e-04 
-5.548406946331e-04 -1.134560045618e-06 0.0 
-1.134560045618e-06 3.546628030902e-03 0.0 
0.0 0.0 -5.534964465553e-04 
-8.399940984115e-04 -3.577201230982e-06 0.0 
-3.577201230982e-06 5.537581821643e-03 0.0 
0.0 0.0 -8.390310526140e-04 
-7.058409553933e-04 5.047899970867e-07 0.0 
5.047899970867e-07 4.614117323526e-03 0.0 
0.0 0.0 -7.069621042110e-04 
-8.747594299032e-04 -2.558061717813e-06 0.0 
-2.558061717813e-06 5.788017369400e-03 0.0 
0.0 0.0 -8.751042800696e-04 
-8.345970192924e-04 7.968047685778e-07 0.0 
7.968047685778e-07 5.508873449258e-03 0.0 
0.0 0.0 -8.350146568664e-04 
-1.135366159085e-03 -3.784163045634e-06 0.0 
-3.784163045634e-06 7.595187475630e-03 0.0 
0.0 0.0 -1.135109731873e-03 
-1.173430748718e-03 -9.063019793227e-06 0.0 
-9.063019793227e-06 7.855172062360e-03 0.0 
0.0 0.0 -1.171938512032e-03 
-9.103494794309e-04 9.134385712292e-06 0.0 
9.134385712292e-06 6.008446285683e-03 0.0 
0.0 0.0 -9.065739516476e-04 
-8.719468559850e-04 9.049287930901e-07 0.0 
9.049287930901e-07 5.790867004059e-03 0.0 
0.0 0.0 -8.764137937918e-04 
-2.822142401262e-04 -1.729015805195e-06 0.0 
-1.729015805195e-06 1.647043850495e-03 0.0 
0.0 0.0 -2.813159824896e-04 
-2.590672524344e-04 7.758668078397e-06 0.0 
7.758668078397e-06 1.453070456664e-03 0.0 
0.0 0.0 -2.532569443854e-04 
-7.885436432884e-04 5.287197584799e-07 0.0 
5.287197584799e-07 5.190389624089e-03 0.0 
0.0 0.0 -7.894497706086e-04 
-1.129157536929e-03 4.394584270073e-06 0.0 
4.394584270073e-06 7.545263270116e-03 0.0 
0.0 0.0 -1.127529358476e-03 
-1.150499129859e-03 -1.601096256605e-07 0.0 
-1.601096256605e-07 7.703368893988e-03 0.0 
0.0 0.0 -1.150095860580e-03 
-1.180515255213e-03 -2.827683268633e-06 0.0 
-2.827683268633e-06 7.908952217123e-03 0.0 
0.0 0.0 -1.179372829571e-03 
-1.142938913333e-03 -3.318694813209e-06 0.0 
-3.318694813209e-06 7.657003561438e-03 0.0 
0.0 0.0 -1.143369325255e-03 
-1.140111309187e-03 8.981293941533e-07 0.0 
8.981293941533e-07 7.659653688633e-03 0.0 
0.0 0.0 -1.144273392007e-03 
-5.742583376343e-04 1.322470560157e-07 0.0 
1.322470560157e-07 3.685291735877e-03 0.0 
0.0 0.0 -5.733740095480e-04 
-8.593234151619e-04 -2.874076436987e-06 0.0 
-2.874076436987e-06 5.675695790787e-03 0.0 
0.0 0.0 -8.590966742019e-04 
-2.435677437140e-04 -1.068446741352e-05 0.0 
-1.068446741352e-05 1.382271228051e-03 0.0 
0.0 0.0 -2.423215009416e-04 
-8.888171571716e-04 7.702896638068e-07 0.0 
7.702896638068e-07 5.879388839658e-03 0.0 
0.0 0.0 -8.884627649733e-04 
-2.162237035634e-04 -3.672272412206e-06 0.0 
-3.672272412206e-06 1.184819371308e-03 0.0 
0.0 0.0 -2.162536877156e-04 
-1.014212058360e-03 -1.424401912202e-06 0.0 
-1.424401912202e-06 6.732806316095e-03 0.0 
0.0 0.0 -1.010319580236e-03 
-1.121146682577e-03 5.393536553209e-07 0.0 
5.393536553209e-07 7.512550218556e-03 0.0 
0.0 0.0 -1.122815839103e-03 
-1.157064342210e-03 3.278319440547e-08 0.0 
3.278319440547e-08 7.769042756358e-03 0.0 
0.0 0.0 -1.159213750608e-03 
-1.166424981014e-03 1.813592645858e-06 0.0 
1.813592645858e-06 7.856112587899e-03 0.0 
0.0 0.0 -1.171959308352e-03 
-7.504080630279e-04 1.142017006433e-05 0.0 
1.142017006433e-05 4.900584458038e-03 0.0 
0.0 0.0 -7.470952864203e-04 
-9.172347539122e-04 2.804117413104e-06 0.0 
2.804117413104e-06 6.075069916316e-03 0.0 
0.0 0.0 -9.162722660995e-04 
-8.822868772853e-04 1.786082975063e-06 0.0 
1.786082975063e-06 5.828052429250e-03 0.0 
0.0 0.0 -8.808726170640e-04 
-7.075025449257e-04 3.734403442010e-06 0.0 
3.734403442010e-06 4.602949033638e-03 0.0 
0.0 0.0 -7.048691535495e-04 
-6.736902723486e-04 3.915004124942e-06 0.0 
3.915004124942e-06 4.364959797177e-03 0.0 
0.0 0.0 -6.707530558731e-04 
-7.003926698376e-04 3.499859416460e-06 0.0 
3.499859416460e-06 4.548937086678e-03 0.0 
0.0 0.0 -6.972958566626e-04 
-6.396081130525e-04 3.801189656200e-06 0.0 
3.801189656200e-06 4.126284090508e-03 0.0 
0.0 0.0 -6.359606378414e-04 
-5.113814833483e-04 4.985013341203e-06 0.0 
4.985013341203e-06 3.258506878652e-03 0.0 
0.0 0.0 -5.122594947013e-04 
-4.735906672379e-04 3.101741148863e-06 0.0 
3.101741148863e-06 2.998270021668e-03 0.0 
0.0 0.0 -4.750188804659e-04 
-1.196527535369e-03 2.030860363372e-06 0.0 
2.030860363372e-06 8.017120294099e-03 0.0 
0.0 0.0 -1.192042136895e-03 
-1.179471908673e-03 2.186350744695e-05 0.0 
2.186350744695e-05 7.917990259976e-03 0.0 
0.0 0.0 -1.178660172201e-03 
-1.197525366512e-03 -5.361254674990e-06 0.0 
-5.361254674990e-06 8.017772106938e-03 0.0 
0.0 0.0 -1.193029175878e-03 
-1.157007599871e-03 -4.254495392406e-07 0.0 
-4.254495392406e-07 7.831852404544e-03 0.0 
0.0 0.0 -1.168165168231e-03 
-1.184219832489e-03 -2.995135238731e-06 0.0 
-2.995135238731e-06 8.054139615854e-03 0.0 
0.0 0.0 -1.200910491468e-03 
-1.156433585434e-03 -1.143666503597e-06 0.0 
-1.143666503597e-06 7.807020133364e-03 0.0 
0.0 0.0 -1.164168769488e-03 
-4.264796299706e-04 -5.762809161309e-06 0.0 
-5.762809161309e-06 2.638842137297e-03 0.0 
0.0 0.0 -4.227350873389e-04 
-5.681760473819e-04 2.318592575124e-06 0.0 
2.318592575124e-06 3.626581176623e-03 0.0 
0.0 0.0 -5.646260317871e-04 
-1.184636686047e-03 -1.016095806200e-05 0.0 
-1.016095806200e-05 8.009054334469e-03 0.0 
0.0 0.0 -1.194151889699e-03 
-7.414862310133e-04 3.192804147242e-06 0.0 
3.192804147242e-06 4.838396811126e-03 0.0 
0.0 0.0 -7.390869131010e-04 
-1.198370689590e-03 -4.208230376649e-06 0.0 
-4.208230376649e-06 8.000236790466e-03 0.0 
0.0 0.0 -1.192835421428e-03 
-1.157965586969e-03 3.621187988980e-06 0.0 
3.621187988980e-06 7.751872966735e-03 0.0 
0.0 0.0 -1.156047193884e-03 
-1.679677723564e-04 -6.471467774982e-06 0.0 
-6.471467774982e-06 9.157850137994e-04 0.0 
0.0 0.0 -1.776502893165e-04 
-2.010012491603e-04 -2.186198543601e-05 0.0 
-2.186198543601e-05 1.109886420371e-03 0.0 
0.0 0.0 -2.034953494974e-04 
-1.179928424182e-03 1.756406795434e-06 0.0 
1.756406795434e-06 7.951460578279e-03 0.0 
0.0 0.0 -1.184588873336e-03 
-3.838885301584e-04 -2.308315346758e-07 0.0 
-2.308315346758e-07 2.344842445821e-03 0.0 
0.0 0.0 -3.811925308841e-04 
-4.219559892701e-04 7.989363516761e-06 0.0 
7.989363516761e-06 2.586701229719e-03 0.0 
0.0 0.0 -4.158690271831e-04 
-3.474814854535e-04 -1.898705035349e-06 0.0 
-1.898705035349e-06 2.092244309525e-03 0.0 
0.0 0.0 -3.459699425273e-04 
-1.258412294817e-03 4.723230244952e-06 0.0 
4.723230244952e-06 8.451854294521e-03 0.0 
0.0 0.0 -1.258310293365e-03 
-7.484881504011e-04 -2.960864060488e-06 0.0 
-2.960864060488e-06 4.893199602045e-03 0.0 
0.0 0.0 -7.479256703001e-04 
-1.180456674817e-03 2.203572108547e-06 0.0 
2.203572108547e-06 7.969948982011e-03 0.0 
0.0 0.0 -1.189418985649e-03 
-6.915459890032e-04 2.639723401422e-07 0.0 
2.639723401422e-07 4.488659587491e-03 0.0 
0.0 0.0 -6.884682336192e-04 
-1.207477073685e-03 3.654066082018e-06 0.0 
3.654066082018e-06 8.169097270233e-03 0.0 
0.0 0.0 -1.216510697198e-03 
-9.459891485395e-04 2.183343284694e-06 0.0 
2.183343284694e-06 6.276634781059e-03 0.0 
0.0 0.0 -9.449116413281e-04 
-6.354655665353e-04 7.994205054123e-06 0.0 
7.994205054123e-06 4.117898953292e-03 0.0 
0.0 0.0 -6.353966017694e-04 
-1.078683645924e-03 -8.754256551645e-06 0.0 
-8.754256551645e-06 7.202760317135e-03 0.0 
0.0 0.0 -1.078177493492e-03 
-1.141578224773e-03 -1.678015124368e-05 0.0 
-1.678015124368e-05 7.703318796330e-03 0.0 
0.0 0.0 -1.149140729088e-03 
-1.226390364052e-03 1.281801736302e-05 0.0 
1.281801736302e-05 8.221773688784e-03 0.0 
0.0 0.0 -1.221625961084e-03 
-8.548571335587e-04 9.585095622167e-06 0.0 
9.585095622167e-06 5.710330831809e-03 0.0 
0.0 0.0 -8.638707813346e-04 
-8.315226367925e-04 -1.796676276346e-05 0.0 
-1.796676276346e-05 5.471080815741e-03 0.0 
0.0 0.0 -8.327709333130e-04 
-8.913153694948e-04 3.187001622880e-06 0.0 
3.187001622880e-06 5.908304703834e-03 0.0 
0.0 0.0 -8.925140200429e-04 
-2.901697666162e-04 2.957652242772e-06 0.0 
2.957652242772e-06 1.700907778148e-03 0.0 
0.0 0.0 -2.887053311254e-04 
-2.259876589124e-04 -1.628476741978e-06 0.0 
-1.628476741978e-06 1.207242233753e-03 0.0 
0.0 0.0 -2.186270541161e-04 
-1.144042553285e-03 -3.972510573142e-06 0.0 
-3.972510573142e-06 7.644643748638e-03 0.0 
0.0 0.0 -1.142090266074e-03 
-5.015691225624e-04 -4.004972649499e-06 0.0 
-4.004972649499e-06 3.172327891301e-03 0.0 
0.0 0.0 -5.006138788623e-04 
-5.490396028458e-04 1.473261204921e-05 0.0 
1.473261204921e-05 3.431798845594e-03 0.0 
0.0 0.0 -5.359218444892e-04 
-3.334097721274e-04 4.182676571657e-07 0.0 
4.182676571657e-07 2.008435002854e-03 0.0 
0.0 0.0 -3.328711069468e-04 
-3.967994371980e-04 3.163349435476e-06 0.0 
3.163349435476e-06 2.463726324997e-03 0.0 
0.0 0.0 -3.985542937016e-04 
-7.704918098594e-04 -2.506920414946e-06 0.0 
-2.506920414946e-06 5.073323433467e-03 0.0 
0.0 0.0 -7.728092966600e-04 
-7.429755971663e-04 -1.604665722884e-06 0.0 
-1.604665722884e-06 4.873825415622e-03 0.0 
0.0 0.0 -7.441750962829e-04 
-1.041105417575e-03 -3.532804275446e-06 0.0 
-3.532804275446e-06 6.930458439110e-03 0.0 
0.0 0.0 -1.038692069610e-03 
-1.077691050121e-03 5.915919111682e-07 0.0 
5.915919111682e-07 7.178307862229e-03 0.0 
0.0 0.0 -1.074129358999e-03 
-9.680145315127e-04 -4.800744221087e-06 0.0 
-4.800744221087e-06 6.431374472253e-03 0.0 
0.0 0.0 -9.675620497173e-04 
-9.449072701309e-04 5.755247327845e-07 0.0 
5.755247327845e-07 6.268683015175e-03 0.0 
0.0 0.0 -9.439558448496e-04 
-8.793469056982e-04 2.651871179317e-07 0.0 
2.651871179317e-07 5.812169911194e-03 0.0 
0.0 0.0 -8.783802297791e-04 
-8.506353188413e-04 -1.205932606215e-06 0.0 
-1.205932606215e-06 5.614865789540e-03 0.0 
0.0 0.0 -8.502765121185e-04 
-1.205371287344e-03 -1.017172525849e-05 0.0 
-1.017172525849e-05 8.044519540676e-03 0.0 
0.0 0.0 -1.199867006878e-03 
-1.246871842620e-03 -1.782584577441e-06 0.0 
-1.782584577441e-06 8.370823131876e-03 0.0 
0.0 0.0 -1.242728214876e-03 
-5.491066158241e-04 3.796504913762e-06 0.0 
3.796504913762e-06 3.515286504074e-03 0.0 
0.0 0.0 -5.488632449009e-04 
-5.218883337207e-04 5.205294616504e-06 0.0 
5.205294616504e-06 3.322312941731e-03 0.0 
0.0 0.0 -5.212126360957e-04 
-5.377854580404e-04 4.143852354849e-06 0.0 
4.143852354849e-06 3.445251353484e-03 0.0 
0.0 0.0 -5.390128571062e-04 
-1.214529256448e-03 -6.301616693034e-06 0.0 
-6.301616693034e-06 8.215301645721e-03 0.0 
0.0 0.0 -1.223056365294e-03 
-1.220614911318e-03 1.691106897423e-05 0.0 
1.691106897423e-05 8.234319209605e-03 0.0 
0.0 0.0 -1.224004481682e-03 
-1.202636442924e-03 -1.450484537664e-05 0.0 
-1.450484537664e-05 8.019827799738e-03 0.0 
0.0 0.0 -1.195820777905e-03 
-1.923031463658e-04 -1.299529721398e-05 0.0 
-1.299529721398e-05 1.005842812599e-03 0.0 
0.0 0.0 -1.880780275778e-04 
-2.380587333974e-04 -7.138126159536e-06 0.0 
-7.138126159536e-06 1.256954979671e-03 0.0 
0.0 0.0 -2.247092568812e-04 
-2.809188805545e-04 -7.804988416391e-07 0.0 
-7.804988416391e-07 1.601881524077e-03 0.0 
0.0 0.0 -2.751197234063e-04 
-2.390831316059e-04 -1.697522519503e-05 0.0 
-1.697522519503e-05 1.345355817379e-03 0.0 
0.0 0.0 -2.407125716443e-04 
-1.208745358061e-03 2.226513834229e-07 0.0 
2.226513834229e-07 8.094728759758e-03 0.0 
0.0 0.0 -1.207258722210e-03 
-1.173002429905e-03 -1.580225171699e-08 0.0 
-1.580225171699e-08 7.865013445176e-03 0.0 
0.0 0.0 -1.172631524865e-03 
-1.245587066994e-03 -1.350830728451e-07 0.0 
-1.350830728451e-07 8.403006214559e-03 0.0 
0.0 0.0 -1.247471551777e-03 
-3.784912276642e-04 1.355145565509e-05 0.0 
1.355145565509e-05 2.351827936340e-03 0.0 
0.0 0.0 -3.801539159394e-04 
-1.045351836581e-03 6.057785964129e-06 0.0 
6.057785964129e-06 6.969505785323e-03 0.0 
0.0 0.0 -1.045322365442e-03 
-1.205298536187e-03 1.211257299849e-05 0.0 
1.211257299849e-05 8.100207033565e-03 0.0 
0.0 0.0 -1.207899217314e-03 
-1.178583019777e-03 1.757022163117e-05 0.0 
1.757022163117e-05 7.916687945301e-03 0.0 
0.0 0.0 -1.178012378629e-03 
-1.242442001561e-03 9.743401619653e-06 0.0 
9.743401619653e-06 8.382783963078e-03 0.0 
0.0 0.0 -1.244624083072e-03 
-1.137070212873e-03 -2.028754131516e-06 0.0 
-2.028754131516e-06 7.646903784891e-03 0.0 
0.0 0.0 -1.142102124289e-03 
-1.209034666392e-03 -7.012965144914e-06 0.0 
-7.012965144914e-06 8.081623741308e-03 0.0 
0.0 0.0 -1.205428683694e-03 
-1.206763234680e-03 6.340388102828e-06 0.0 
6.340388102828e-06 8.101632159503e-03 0.0 
0.0 0.0 -1.209323031234e-03 
-1.526588308959e-04 -1.278274148856e-05 0.0 
-1.278274148856e-05 7.096255753314e-04 0.0 
0.0 0.0 -1.515181680101e-04 
-1.197635794990e-03 -1.679642684386e-05 0.0 
-1.679642684386e-05 8.038463106289e-03 0.0 
0.0 0.0 -1.199992767657e-03 
-8.372255126925e-04 -1.581405743953e-06 0.0 
-1.581405743953e-06 5.516497338344e-03 0.0 
0.0 0.0 -8.371571859873e-04 
-1.098991945020e-04 -3.154449405104e-05 0.0 
-3.154449405104e-05 5.330743413541e-04 0.0 
0.0 0.0 -1.134605161963e-04 
-7.981850025034e-04 -4.161080113950e-07 0.0 
-4.161080113950e-07 5.308479178574e-03 0.0 
0.0 0.0 -8.070151920887e-04 
-8.429634412097e-04 -1.709371110809e-06 0.0 
-1.709371110809e-06 5.581100165216e-03 0.0 
0.0 0.0 -8.451615393777e-04 
-7.696584184700e-04 -4.438777502839e-06 0.0 
-4.438777502839e-06 5.046252634616e-03 0.0 
0.0 0.0 -7.748096441827e-04 
-3.107010397172e-04 9.959927229299e-06 0.0 
9.959927229299e-06 1.894638977858e-03 0.0 
0.0 0.0 -3.155299188714e-04 
-8.095068364426e-04 -1.064416675758e-05 0.0 
-1.064416675758e-05 5.359424365734e-03 0.0 
0.0 0.0 -8.174106193842e-04 
-8.516632903957e-04 -1.548663215885e-05 0.0 
-1.548663215885e-05 5.659882039523e-03 0.0 
0.0 0.0 -8.556612431672e-04 
-1.454483653541e-04 3.285604104460e-06 0.0 
3.285604104460e-06 7.139538730244e-04 0.0 
0.0 0.0 -1.421329337195e-04 
-1.249632985061e-03 3.450770483262e-06 0.0 
3.450770483262e-06 8.450128189206e-03 0.0 
0.0 0.0 -1.259301554906e-03 
-1.652376678941e-04 -1.286666981350e-05 0.0 
-1.286666981350e-05 7.455520390207e-04 0.0 
0.0 0.0 -1.556443337539e-04 
-1.771144640534e-04 -1.673852043284e-05 0.0 
-1.673852043284e-05 9.409763732997e-04 0.0 
0.0 0.0 -1.806578101979e-04 
-1.211541890789e-03 1.467961613667e-05 0.0 
1.467961613667e-05 8.216069586299e-03 0.0 
0.0 0.0 -1.221214701962e-03 
-1.182137557378e-03 -1.347893005093e-06 0.0 
-1.347893005093e-06 7.946617508211e-03 0.0 
0.0 0.0 -1.184344882880e-03 
-1.248636598491e-03 -6.710766209692e-06 0.0 
-6.710766209692e-06 8.399111666310e-03 0.0 
0.0 0.0 -1.247726601234e-03 
-1.216304493113e-03 1.376146948642e-05 0.0 
1.376146948642e-05 8.121468603000e-03 0.0 
0.0 0.0 -1.211018817991e-03 
-1.146160367712e-03 -4.978228076893e-06 0.0 
-4.978228076893e-06 7.680298396241e-03 0.0 
0.0 0.0 -1.147066289601e-03 
-1.174333499691e-03 6.447300312268e-06 0.0 
6.447300312268e-06 7.890872304648e-03 0.0 
0.0 0.0 -1.176490610025e-03 
-8.022613359355e-04 -1.465561338710e-05 0.0 
-1.465561338710e-05 5.265642214057e-03 0.0 
0.0 0.0 -7.985989294648e-04 
-1.243628943204e-03 1.764986030868e-05 0.0 
1.764986030868e-05 8.400828657624e-03 0.0 
0.0 0.0 -1.249018369598e-03 
-1.202560827820e-03 4.472912903621e-06 0.0 
4.472912903621e-06 8.095627160272e-03 0.0 
0.0 0.0 -1.207442871744e-03 
-1.280707394095e-03 9.871433926351e-06 0.0 
9.871433926351e-06 8.646120131381e-03 0.0 
0.0 0.0 -1.277927415301e-03 
-6.139046463498e-04 4.062295408107e-06 0.0 
4.062295408107e-06 3.949909662933e-03 0.0 
0.0 0.0 -6.108003466767e-04 
-4.855763441254e-04 3.057596715551e-06 0.0 
3.057596715551e-06 3.031592722143e-03 0.0 
0.0 0.0 -4.789358348571e-04 
-4.592668061051e-04 2.643196690510e-06 0.0 
2.643196690510e-06 2.831145132009e-03 0.0 
0.0 0.0 -4.527251363391e-04 
-3.939664762502e-04 4.015896243431e-05 0.0 
4.015896243431e-05 2.394779108390e-03 0.0 
0.0 0.0 -3.875663759467e-04 
-1.235451159508e-03 5.414867173210e-06 0.0 
5.414867173210e-06 8.338545045283e-03 0.0 
0.0 0.0 -1.240180566941e-03 
-1.197541601819e-03 2.184484790426e-05 0.0 
2.184484790426e-05 8.058909055166e-03 0.0 
0.0 0.0 -1.200590015451e-03 
-1.087867486780e-03 1.085013592536e-06 0.0 
1.085013592536e-06 7.270465583492e-03 0.0 
0.0 0.0 -1.087555896896e-03 
-1.022984886136e-03 4.510930018279e-06 0.0 
4.510930018279e-06 6.802736585016e-03 0.0 
0.0 0.0 -1.020738973070e-03 
-8.163996236660e-04 7.186741062486e-06 0.0 
7.186741062486e-06 5.339991771102e-03 0.0 
0.0 0.0 -8.108182148135e-04 
-8.104965103200e-04 -8.251273631930e-06 0.0 
-8.251273631930e-06 5.308853861974e-03 0.0 
0.0 0.0 -8.077352941366e-04 
-8.720514006204e-04 3.179792081281e-05 0.0 
3.179792081281e-05 5.733381675574e-03 0.0 
0.0 0.0 -8.678526801547e-04 
-8.648510791426e-04 -7.111218047977e-06 0.0 
-7.111218047977e-06 5.661166370703e-03 0.0 
0.0 0.0 -8.609153521579e-04 
-9.263549734801e-04 3.033239231763e-05 0.0 
3.033239231763e-05 6.105443762298e-03 0.0 
0.0 0.0 -9.200517378055e-04 
-9.083479877114e-04 -1.416522287393e-05 0.0 
-1.416522287393e-05 6.036653926986e-03 0.0 
0.0 0.0 -9.108947733944e-04 
-9.698621139042e-04 -2.949214397537e-05 0.0 
-2.949214397537e-05 6.467199866666e-03 0.0 
0.0 0.0 -9.726914458129e-04 
-1.247222366311e-03 2.606056517105e-05 0.0 
2.606056517105e-05 8.375150940582e-03 0.0 
0.0 0.0 -1.245087786853e-03 
-3.186375953883e-04 9.254464651409e-06 0.0 
9.254464651409e-06 1.904578218722e-03 0.0 
0.0 0.0 -3.180830487989e-04 
-6.795655702328e-04 3.950407328760e-06 0.0 
3.950407328760e-06 4.416747400763e-03 0.0 
0.0 0.0 -6.783069842581e-04 
-1.217523867403e-03 -1.107710803929e-05 0.0 
-1.107710803929e-05 8.250220171501e-03 0.0 
0.0 0.0 -1.228261380050e-03 
-1.189954932966e-03 -3.389414248198e-06 0.0 
-3.389414248198e-06 7.976695802146e-03 0.0 
0.0 0.0 -1.187396807988e-03 
-6.030585832721e-04 2.040094254721e-06 0.0 
2.040094254721e-06 3.869813641297e-03 0.0 
0.0 0.0 -6.000944487132e-04 
-5.459736888774e-04 1.094222006431e-05 0.0 
1.094222006431e-05 3.457763009942e-03 0.0 
0.0 0.0 -5.401620014017e-04 
-1.244604975369e-03 1.395843640125e-05 0.0 
1.395843640125e-05 8.345755076324e-03 0.0 
0.0 0.0 -1.238794375355e-03 
-5.618086059147e-04 1.672788938571e-06 0.0 
1.672788938571e-06 3.593027472553e-03 0.0 
0.0 0.0 -5.600314934590e-04 
-1.295241739404e-03 -3.069672707253e-06 0.0 
-3.069672707253e-06 8.734931616820e-03 0.0 
0.0 0.0 -1.295459716840e-03 
-4.726518995237e-05 -5.619949717465e-06 0.0 
-5.619949717465e-06 2.661811301103e-04 0.0 
0.0 0.0 -5.690003420298e-05 
-1.291194022147e-04 1.153791065658e-05 0.0 
1.153791065658e-05 6.783732708889e-04 0.0 
0.0 0.0 -1.353443326634e-04 
-5.978702258073e-04 2.845759187996e-06 0.0 
2.845759187996e-06 3.846572588730e-03 0.0 
0.0 0.0 -5.969207367497e-04 
-6.645061217588e-04 1.210892726737e-06 0.0 
1.210892726737e-06 4.303380572845e-03 0.0 
0.0 0.0 -6.620222007989e-04 
-5.132181813278e-04 9.130074641215e-06 0.0 
9.130074641215e-06 3.278288147999e-03 0.0 
0.0 0.0 -5.157319100482e-04 
-4.860075133994e-04 2.990028342248e-06 0.0 
2.990028342248e-06 3.124396954495e-03 0.0 
0.0 0.0 -4.917183783407e-04 
-1.011317378684e-03 6.487621353873e-07 0.0 
6.487621353873e-07 6.733904614894e-03 0.0 
0.0 0.0 -1.010552660601e-03 
-1.970258742010e-04 -2.540004491899e-06 0.0 
-2.540004491899e-06 1.065332307301e-03 0.0 
0.0 0.0 -1.995083582888e-04 
-3.139166667020e-04 -2.253789274829e-06 0.0 
-2.253789274829e-06 1.850494599455e-03 0.0 
0.0 0.0 -3.106934562087e-04 
-9.732483420248e-04 2.855591412457e-05 0.0 
2.855591412457e-05 6.524849625929e-03 0.0 
0.0 0.0 -9.796923013958e-04 
-2.492954901946e-04 5.421975703901e-07 0.0 
5.421975703901e-07 1.421478567984e-03 0.0 
0.0 0.0 -2.487700610537e-04 
-1.054075874997e-03 3.591188931398e-06 0.0 
3.591188931398e-06 7.044165573929e-03 0.0 
0.0 0.0 -1.055800198362e-03 
-5.906078188001e-04 -3.257939390685e-06 0.0 
-3.257939390685e-06 3.796619652219e-03 0.0 
0.0 0.0 -5.891999696964e-04 
-7.180999395262e-04 1.178684334054e-07 0.0 
1.178684334054e-07 4.675154024113e-03 0.0 
0.0 0.0 -7.153500975001e-04 
-3.728153202837e-04 5.624284337174e-06 0.0 
5.624284337174e-06 2.280349559801e-03 0.0 
0.0 0.0 -3.721998919698e-04 
-5.103591414383e-04 -9.070033728056e-06 0.0 
-9.070033728056e-06 3.229749929793e-03 0.0 
0.0 0.0 -5.080103017801e-04 
-8.695833745558e-04 -3.060324942152e-06 0.0 
-3.060324942152e-06 5.711345853531e-03 0.0 
0.0 0.0 -8.638580894607e-04 
-8.186088136840e-04 -7.130242765285e-06 0.0 
-7.130242765285e-06 5.325410070609e-03 0.0 
0.0 0.0 -8.086477316853e-04 
-7.808475722582e-04 4.208348100211e-06 0.0 
4.208348100211e-06 5.088284712977e-03 0.0 
0.0 0.0 -7.738406155293e-04 
-6.192436331633e-04 -2.766602775267e-06 0.0 
-2.766602775267e-06 3.995359302638e-03 0.0 
0.0 0.0 -6.178822433291e-04 
-5.311490319336e-04 1.040423507352e-05 0.0 
1.040423507352e-05 3.373878795457e-03 0.0 
0.0 0.0 -5.288330985435e-04 
-4.650941372062e-04 3.123945634320e-06 0.0 
3.123945634320e-06 2.898874049441e-03 0.0 
0.0 0.0 -4.617239487405e-04 
-8.245081772930e-04 8.576273436612e-07 0.0 
8.576273436612e-07 5.414129368543e-03 0.0 
0.0 0.0 -8.213029907542e-04 
-1.107776256753e-03 4.822798209618e-06 0.0 
4.822798209618e-06 7.407183480602e-03 0.0 
0.0 0.0 -1.107475121065e-03 
-1.139123580733e-03 8.505935532770e-06 0.0 
8.505935532770e-06 7.608538315330e-03 0.0 
0.0 0.0 -1.136341617999e-03 
-1.199876040135e-03 -5.928463898229e-08 0.0 
-5.928463898229e-08 8.046533922637e-03 0.0 
0.0 0.0 -1.199268560344e-03 
-1.168168474149e-03 4.195650786351e-06 0.0 
4.195650786351e-06 7.812169121329e-03 0.0 
0.0 0.0 -1.164598082371e-03 
-1.102136352719e-03 2.455120919178e-06 0.0 
2.455120919178e-06 7.358887921961e-03 0.0 
0.0 0.0 -1.100413285504e-03 
-1.128466826395e-03 -6.206260029614e-06 0.0 
-6.206260029614e-06 7.555420673368e-03 0.0 
0.0 0.0 -1.129075729544e-03 
-1.196306272628e-03 1.070052804672e-05 0.0 
1.070052804672e-05 8.004295185816e-03 0.0 
0.0 0.0 -1.193594387005e-03 
-1.153224420722e-03 -4.335162698857e-08 0.0 
-4.335162698857e-08 7.767660328472e-03 0.0 
0.0 0.0 -1.159256375294e-03 
-1.235596637609e-03 -1.164422989244e-05 0.0 
-1.164422989244e-05 8.301735673801e-03 0.0 
0.0 0.0 -1.234286862126e-03 
-1.186419994292e-03 -1.475121185166e-05 0.0 
-1.475121185166e-05 7.963391228364e-03 0.0 
0.0 0.0 -1.187309181180e-03 
-1.120005548931e-03 2.940168057848e-06 0.0 
2.940168057848e-06 7.498615446152e-03 0.0 
0.0 0.0 -1.120864512401e-03 
-1.154875778754e-03 1.588860619796e-06 0.0 
1.588860619796e-06 7.686132635796e-03 0.0 
0.0 0.0 -1.147759711419e-03 
-1.213465252650e-03 -6.064802065587e-06 0.0 
-6.064802065587e-06 8.128624196229e-03 0.0 
0.0 0.0 -1.207767947030e-03 
-1.084932373400e-03 -2.016919157353e-06 0.0 
-2.016919157353e-06 7.235951787837e-03 0.0 
0.0 0.0 -1.082593982084e-03 
-1.254330692315e-03 -4.481726023152e-06 0.0 
-4.481726023152e-06 8.484172233715e-03 0.0 
0.0 0.0 -1.264544343569e-03 
-6.624416308103e-04 2.474610527067e-06 0.0 
2.474610527067e-06 4.298662523578e-03 0.0 
0.0 0.0 -6.621140475474e-04 
-1.785384896329e-04 7.817361308922e-06 0.0 
7.817361308922e-06 9.797346640556e-04 0.0 
0.0 0.0 -1.850918921636e-04 
-1.812548087705e-04 3.762529197936e-05 0.0 
3.762529197936e-05 9.321215546565e-04 0.0 
0.0 0.0 -1.767209935827e-04 
-7.539589003549e-04 1.955358916859e-06 0.0 
1.955358916859e-06 4.924010090496e-03 0.0 
0.0 0.0 -7.509174086159e-04 
-1.304930514548e-03 2.715145444446e-06 0.0 
2.715145444446e-06 8.760435441101e-03 0.0 
0.0 0.0 -1.299806302097e-03 
-1.304281806298e-03 1.236291441072e-07 0.0 
1.236291441072e-07 8.779429009152e-03 0.0 
0.0 0.0 -1.301753673823e-03 
-4.909194379315e-04 2.965411161773e-07 0.0 
2.965411161773e-07 3.101621980483e-03 0.0 
0.0 0.0 -4.895692906686e-04 
-1.302172698065e-03 -1.121402078097e-06 0.0 
-1.121402078097e-06 8.776859442822e-03 0.0 
0.0 0.0 -1.303413959896e-03 
-8.069978020622e-04 -2.494686579793e-06 0.0 
-2.494686579793e-06 5.276076784830e-03 0.0 
0.0 0.0 -8.012154088905e-04 
-3.570511327705e-04 3.379375906477e-06 0.0 
3.379375906477e-06 2.154968683645e-03 0.0 
0.0 0.0 -3.530685601169e-04 
-1.302556100553e-03 -9.155318300837e-06 0.0 
-9.155318300837e-06 8.779430224672e-03 0.0 
0.0 0.0 -1.304286792737e-03 
-1.070880273795e-03 7.212077137724e-06 0.0 
7.212077137724e-06 7.154951258216e-03 0.0 
0.0 0.0 -1.071440646998e-03 
-1.034235002280e-03 -1.284962224456e-06 0.0 
-1.284962224456e-06 6.899499474228e-03 0.0 
0.0 0.0 -1.034857077839e-03 
-1.003722632452e-03 2.735580280874e-06 0.0 
2.735580280874e-06 6.699806917378e-03 0.0 
0.0 0.0 -1.006057961993e-03 
-1.300150248326e-03 -1.392366785442e-05 0.0 
-1.392366785442e-05 8.797329976127e-03 0.0 
0.0 0.0 -1.305867370806e-03 
-9.260727886855e-04 3.160967958324e-07 0.0 
3.160967958324e-07 6.120955206479e-03 0.0 
0.0 0.0 -9.232948652302e-04 
-1.306196713142e-03 -8.296229578561e-06 0.0 
-8.296229578561e-06 8.804073325104e-03 0.0 
0.0 0.0 -1.306016332489e-03 
-9.052728605033e-04 -4.849094365273e-06 0.0 
-4.849094365273e-06 5.990555075409e-03 0.0 
0.0 0.0 -9.039903713831e-04 
-8.761060883680e-04 -1.507187481036e-06 0.0 
-1.507187481036e-06 5.787161046779e-03 0.0 
0.0 0.0 -8.747633066757e-04 
-8.116067085345e-04 -5.312091982633e-07 0.0 
-5.312091982633e-07 5.336659872116e-03 0.0 
0.0 0.0 -8.101682821885e-04 
-1.090435695547e-03 -5.471004820640e-06 0.0 
-5.471004820640e-06 7.297274492399e-03 0.0 
0.0 0.0 -1.092245366321e-03 
-1.304752605298e-03 5.119868144783e-06 0.0 
5.119868144783e-06 8.772978853590e-03 0.0 
0.0 0.0 -1.302677999426e-03 
-1.251945645214e-03 -2.706015879675e-06 0.0 
-2.706015879675e-06 8.407016214184e-03 0.0 
0.0 0.0 -1.248400714067e-03 
-1.246920299523e-03 -1.300681603293e-05 0.0 
-1.300681603293e-05 8.402409073512e-03 0.0 
0.0 0.0 -1.248426544684e-03 
-1.200536970879e-03 5.026882822930e-07 0.0 
5.026882822930e-07 8.002917905198e-03 0.0 
0.0 0.0 -1.189114855724e-03 
-1.300430795451e-03 -3.697458701874e-07 0.0 
-3.697458701874e-07 8.777742711435e-03 0.0 
0.0 0.0 -1.303398793257e-03 
-1.305040401458e-03 -2.477912411246e-06 0.0 
-2.477912411246e-06 8.792831145886e-03 0.0 
0.0 0.0 -1.306665994082e-03 
-1.309321026579e-03 -3.535422289684e-06 0.0 
-3.535422289684e-06 8.803291043654e-03 0.0 
0.0 0.0 -1.308500709484e-03 
-4.563282024571e-04 7.998262252195e-06 0.0 
7.998262252195e-06 2.871636865217e-03 0.0 
0.0 0.0 -4.564773689951e-04 
-4.946429183726e-04 2.495592359639e-06 0.0 
2.495592359639e-06 3.130328514227e-03 0.0 
0.0 0.0 -4.934415926888e-04 
-5.584596756046e-04 8.667542274345e-07 0.0 
8.667542274345e-07 3.577137698620e-03 0.0 
0.0 0.0 -5.576035839405e-04 
-5.302623041630e-04 -1.383760277086e-07 0.0 
-1.383760277086e-07 3.381956619872e-03 0.0 
0.0 0.0 -5.298816096007e-04 
-4.659671190879e-04 -4.163529231501e-07 0.0 
-4.163529231501e-07 2.931155601344e-03 0.0 
0.0 0.0 -4.652367627802e-04 
-5.016537237261e-04 2.063261409926e-06 0.0 
2.063261409926e-06 3.184734037305e-03 0.0 
0.0 0.0 -5.016361848483e-04 
-5.661735479295e-04 -1.745642799837e-06 0.0 
-1.745642799837e-06 3.632429034736e-03 0.0 
0.0 0.0 -5.657331850765e-04 
-4.736975024202e-04 4.166873871236e-06 0.0 
4.166873871236e-06 2.986059562016e-03 0.0 
0.0 0.0 -4.731795164401e-04 
-1.136859235010e-03 -3.377117996039e-07 0.0 
-3.377117996039e-07 7.623291641590e-03 0.0 
0.0 0.0 -1.138512926666e-03 
-1.305247072706e-03 8.619226715452e-06 0.0 
8.619226715452e-06 8.792398553622e-03 0.0 
0.0 0.0 -1.305779161548e-03 
-9.003036646772e-04 5.242872872431e-08 0.0 
5.242872872431e-08 5.967493708530e-03 0.0 
0.0 0.0 -9.007942405787e-04 
-8.714438606503e-04 -2.881495108060e-08 0.0 
-2.881495108060e-08 5.762779516703e-03 0.0 
0.0 0.0 -8.713600568839e-04 
-8.060291522058e-04 2.568870968060e-06 0.0 
2.568870968060e-06 5.307363937555e-03 0.0 
0.0 0.0 -8.059887332522e-04 
-6.767854044607e-04 -2.452778344729e-06 0.0 
-2.452778344729e-06 4.414816973838e-03 0.0 
0.0 0.0 -6.781883600425e-04 
-7.139648610369e-04 -1.142183076086e-06 0.0 
-1.142183076086e-06 4.673969170683e-03 0.0 
0.0 0.0 -7.153987595530e-04 
-7.802120795526e-04 -1.536270118745e-06 0.0 
-1.536270118745e-06 5.133033430624e-03 0.0 
0.0 0.0 -7.812419408864e-04 
-6.404629301344e-04 -4.612028746678e-06 0.0 
-4.612028746678e-06 4.156213633446e-03 0.0 
0.0 0.0 -6.407943132712e-04 
-9.874131908799e-04 -6.712457213216e-07 0.0 
-6.712457213216e-07 6.570776206516e-03 0.0 
0.0 0.0 -9.876394229526e-04 
-1.303361853095e-03 -8.460317239526e-06 0.0 
-8.460317239526e-06 8.788997264875e-03 0.0 
0.0 0.0 -1.305003056577e-03 
-8.872565026320e-04 -1.178797543573e-06 0.0 
-1.178797543573e-06 5.871190587017e-03 0.0 
0.0 0.0 -8.871663004355e-04 
-6.846436599198e-04 7.853769409709e-07 0.0 
7.853769409709e-07 4.472455721995e-03 0.0 
0.0 0.0 -6.865966444657e-04 
-7.539028914794e-04 -4.959050989123e-06 0.0 
-4.959050989123e-06 4.922681506756e-03 0.0 
0.0 0.0 -7.516786372745e-04 
-8.065421024266e-04 1.420005202741e-05 0.0 
1.420005202741e-05 5.322326400601e-03 0.0 
0.0 0.0 -8.094822736869e-04 
-8.086043951130e-04 -1.965516725366e-05 0.0 
-1.965516725366e-05 5.337498560082e-03 0.0 
0.0 0.0 -8.097394517040e-04 
-8.597670883848e-04 -1.890965562487e-05 0.0 
-1.890965562487e-05 5.752558822544e-03 0.0 
0.0 0.0 -8.733121467894e-04 
-8.092120706639e-04 -2.844643670808e-05 0.0 
-2.844643670808e-05 5.361887279047e-03 0.0 
0.0 0.0 -8.155917408702e-04 
-8.008122296240e-04 -3.960466263451e-06 0.0 
-3.960466263451e-06 5.274822743462e-03 0.0 
0.0 0.0 -8.015266587451e-04 
-8.309313177437e-04 -3.374628280102e-06 0.0 
-3.374628280102e-06 5.475720121039e-03 0.0 
0.0 0.0 -8.302790088839e-04 
-7.940624788884e-04 8.919203165535e-07 0.0 
8.919203165535e-07 5.224020544311e-03 0.0 
0.0 0.0 -7.937858958383e-04 
-8.582675862212e-04 -3.216784494388e-06 0.0 
-3.216784494388e-06 5.673950666655e-03 0.0 
0.0 0.0 -8.590670690980e-04 
-8.174868470622e-04 -1.134099850245e-05 0.0 
-1.134099850245e-05 5.408679153658e-03 0.0 
0.0 0.0 -8.213578559547e-04 
-7.534944197864e-04 -1.238974191223e-05 0.0 
-1.238974191223e-05 4.986891128186e-03 0.0 
0.0 0.0 -7.608744282309e-04 
-8.810221771506e-04 -8.901330273928e-06 0.0 
-8.901330273928e-06 5.862708610279e-03 0.0 
0.0 0.0 -8.866101721103e-04 
-8.418977428013e-04 7.461726785173e-06 0.0 
7.461726785173e-06 5.581554122099e-03 0.0 
0.0 0.0 -8.437388122980e-04 
-7.467365547974e-04 -1.323074519904e-05 0.0 
-1.323074519904e-05 4.916042254111e-03 0.0 
0.0 0.0 -7.509531518293e-04 
-6.281984343026e-05 -8.116789961930e-06 0.0 
-8.116789961930e-06 3.039228182762e-04 0.0 
0.0 0.0 -5.875963060191e-05 
-1.355333239518e-04 1.033404853999e-05 0.0 
1.033404853999e-05 6.720001517331e-04 0.0 
0.0 0.0 -1.336704791874e-04 
-1.282422711095e-04 -8.546555161091e-06 0.0 
-8.546555161091e-06 6.602474725937e-04 0.0 
0.0 0.0 -1.318084371690e-04 
-1.928083139696e-04 -4.221005670817e-06 0.0 
-4.221005670817e-06 1.041957248050e-03 0.0 
0.0 0.0 -1.954650243430e-04 
-2.029746956204e-04 1.944205005125e-05 0.0 
1.944205005125e-05 1.074330231207e-03 0.0 
0.0 0.0 -1.996745964068e-04 
-2.516532851573e-04 2.529704688843e-06 0.0 
2.529704688843e-06 1.468491691138e-03 0.0 
0.0 0.0 -2.586654344069e-04 
-2.430663838691e-04 -2.535368885229e-05 0.0 
-2.535368885229e-05 1.426461466079e-03 0.0 
0.0 0.0 -2.494736616194e-04 
-1.355920943443e-04 -1.133959606156e-05 0.0 
-1.133959606156e-05 6.743890404386e-04 0.0 
0.0 0.0 -1.329747880817e-04 
-5.916993316135e-05 -2.320129164534e-06 0.0 
-2.320129164534e-06 2.981065881978e-04 0.0 
0.0 0.0 -5.794854899120e-05 
-1.308876834567e-04 2.474427720982e-06 0.0 
2.474427720982e-06 6.544145800914e-04 0.0 
0.0 0.0 -1.315689628225e-04 
-5.700489183936e-05 1.676517162921e-06 0.0 
1.676517162921e-06 2.920832994483e-04 0.0 
0.0 0.0 -5.719792189481e-05 
-1.267870388794e-04 3.184293719907e-07 0.0 
3.184293719907e-07 6.426508649646e-04 0.0 
0.0 0.0 -1.299421249981e-04 
-1.994525793344e-04 4.316150581238e-06 0.0 
4.316150581238e-06 1.086316860704e-03 0.0 
0.0 0.0 -2.038865569970e-04 
-2.958463202673e-04 -2.325840138199e-07 0.0 
-2.325840138199e-07 1.726726422813e-03 0.0 
0.0 0.0 -2.925150634556e-04 
-1.301927001702e-03 1.803371535176e-05 0.0 
1.803371535176e-05 8.724914391627e-03 0.0 
0.0 0.0 -1.294874803588e-03 
-6.623633125061e-04 4.679424212470e-06 0.0 
4.679424212470e-06 4.281040174428e-03 0.0 
0.0 0.0 -6.595503360071e-04 
-6.354861751500e-04 1.876466608711e-05 0.0 
1.876466608711e-05 4.076331016795e-03 0.0 
0.0 0.0 -6.264797819744e-04 
-5.600446600074e-04 1.786449294601e-05 0.0 
1.786449294601e-05 3.606391450714e-03 0.0 
0.0 0.0 -5.641716646261e-04 
-6.018396249447e-04 -5.225124560815e-06 0.0 
-5.225124560815e-06 3.865969919156e-03 0.0 
0.0 0.0 -5.974662984275e-04 
-6.971605018600e-04 2.093612217768e-05 0.0 
2.093612217768e-05 4.459125829408e-03 0.0 
0.0 0.0 -6.865721209800e-04 
-5.253766316691e-04 1.379974747341e-05 0.0 
1.379974747341e-05 3.365120840458e-03 0.0 
0.0 0.0 -5.286920563404e-04 
-4.997160733495e-04 2.272416899081e-05 0.0 
2.272416899081e-05 3.215754431319e-03 0.0 
0.0 0.0 -5.038291843518e-04 
-6.458044435335e-05 -2.268465343287e-06 0.0 
-2.268465343287e-06 3.061057402813e-04 0.0 
0.0 0.0 -5.826474687103e-05 
-1.365107396446e-04 -1.511681688150e-05 0.0 
-1.511681688150e-05 6.671209083265e-04 0.0 
0.0 0.0 -1.338235891287e-04 
-1.329944671514e-04 1.728312419841e-05 0.0 
1.728312419841e-05 6.296869018316e-04 0.0 
0.0 0.0 -1.329549719063e-04 
-2.100970973320e-04 9.757108246001e-06 0.0 
9.757108246001e-06 1.064616598962e-03 0.0 
0.0 0.0 -1.976702944042e-04 
-1.907673612492e-04 -8.037251829827e-06 0.0 
-8.037251829827e-06 1.054607848416e-03 0.0 
0.0 0.0 -1.960684762570e-04 
-1.291399276806e-04 5.589927262183e-07 0.0 
5.589927262183e-07 6.717799826529e-04 0.0 
0.0 0.0 -1.329856363161e-04 
-1.332115243410e-04 1.116366171220e-05 0.0 
1.116366171220e-05 6.698553752902e-04 0.0 
0.0 0.0 -1.328726424774e-04 
-6.123018265424e-05 -2.226991271334e-06 0.0 
-2.226991271334e-06 2.966407899736e-04 0.0 
0.0 0.0 -5.786540529839e-05 
-1.318562850821e-04 -3.804233771788e-06 0.0 
-3.804233771788e-06 6.638255964620e-04 0.0 
0.0 0.0 -1.308611123410e-04 
-1.930153503724e-04 1.076682971486e-05 0.0 
1.076682971486e-05 1.064256298509e-03 0.0 
0.0 0.0 -1.994574706984e-04 
-5.202007941151e-05 -5.137534308526e-06 0.0 
-5.137534308526e-06 2.737802621695e-04 0.0 
0.0 0.0 -5.534513975842e-05 
-1.060096701056e-03 -2.854203109810e-05 0.0 
-2.854203109810e-05 7.080511066382e-03 0.0 
0.0 0.0 -1.060427308513e-03 
-1.101245431622e-03 -2.265554676241e-05 0.0 
-2.265554676241e-05 7.326835296988e-03 0.0 
0.0 0.0 -1.097082233180e-03 
-1.303771853134e-03 -3.955883839532e-06 0.0 
-3.955883839532e-06 8.773017437093e-03 0.0 
0.0 0.0 -1.300897016293e-03 
-7.525731418622e-04 -2.553654618204e-05 0.0 
-2.553654618204e-05 4.964909214712e-03 0.0 
0.0 0.0 -7.584009903415e-04 
-5.671099606197e-05 2.025225744353e-06 0.0 
2.025225744353e-06 2.971089711715e-04 0.0 
0.0 0.0 -5.884959645353e-05 
-1.296052575560e-03 -1.034030830046e-06 0.0 
-1.034030830046e-06 8.715505616406e-03 0.0 
0.0 0.0 -1.292107529982e-03 
-1.300241625373e-03 -1.196764903617e-05 0.0 
-1.196764903617e-05 8.782711832524e-03 0.0 
0.0 0.0 -1.303172775453e-03 
-1.297505069925e-03 9.380535181792e-06 0.0 
9.380535181792e-06 8.784349503541e-03 0.0 
0.0 0.0 -1.304823151597e-03 
-1.190737660973e-03 8.854859890109e-06 0.0 
8.854859890109e-06 7.990764728896e-03 0.0 
0.0 0.0 -1.191058493115e-03 
-1.217720710694e-03 3.907545697899e-06 0.0 
3.907545697899e-06 8.218811643119e-03 0.0 
0.0 0.0 -1.224322658093e-03 
-1.301588133362e-03 5.941663257033e-06 0.0 
5.941663257033e-06 8.722214772172e-03 0.0 
0.0 0.0 -1.294569364341e-03 
-4.491538872292e-04 3.425462149105e-06 0.0 
3.425462149105e-06 2.829494640627e-03 0.0 
0.0 0.0 -4.512809064328e-04 
-1.219121534789e-03 1.093707084892e-05 0.0 
1.093707084892e-05 8.264877250953e-03 0.0 
0.0 0.0 -1.225740639889e-03 
-1.181600644536e-03 2.602984545223e-06 0.0 
2.602984545223e-06 7.898254142128e-03 0.0 
0.0 0.0 -1.178628832109e-03 
-3.271245572877e-04 -7.559619564853e-07 0.0 
-7.559619564853e-07 1.969290585494e-03 0.0 
0.0 0.0 -3.268383546744e-04 
-4.353641825211e-04 2.390544681031e-06 0.0 
2.390544681031e-06 2.735090082528e-03 0.0 
0.0 0.0 -4.373623857420e-04 
-9.887113880157e-04 2.647202920691e-06 0.0 
2.647202920691e-06 6.590846789922e-03 0.0 
0.0 0.0 -9.899674718230e-04 
-9.119629022756e-04 -1.217041315454e-06 0.0 
-1.217041315454e-06 6.048161892543e-03 0.0 
0.0 0.0 -9.123979313600e-04 
-1.130689760044e-03 -2.404858458419e-06 0.0 
-2.404858458419e-06 7.563292742476e-03 0.0 
0.0 0.0 -1.130390451587e-03 
-9.324694232768e-04 5.707369417897e-08 0.0 
5.707369417897e-08 6.185987888161e-03 0.0 
0.0 0.0 -9.322225209316e-04 
-1.071273223037e-03 -3.400166334340e-06 0.0 
-3.400166334340e-06 7.166794807332e-03 0.0 
0.0 0.0 -1.073123358692e-03 
-1.246132006402e-03 2.306789458163e-05 0.0 
2.306789458163e-05 8.374889379432e-03 0.0 
0.0 0.0 -1.244129926109e-03 
-2.805652380377e-04 -4.717906580370e-06 0.0 
-4.717906580370e-06 1.732830044642e-03 0.0 
0.0 0.0 -2.939217362394e-04 
-9.366102056304e-04 6.334636788504e-06 0.0 
6.334636788504e-06 6.210934504197e-03 0.0 
0.0 0.0 -9.364826870394e-04 
-9.120035044512e-04 6.559904903544e-06 0.0 
6.559904903544e-06 6.042070421320e-03 0.0 
0.0 0.0 -9.130351872960e-04 
-1.076387052139e-03 -3.360138210610e-06 0.0 
-3.360138210610e-06 7.184148688862e-03 0.0 
0.0 0.0 -1.075939795031e-03 
-4.728102684627e-04 -4.847791376242e-06 0.0 
-4.847791376242e-06 2.971951481931e-03 0.0 
0.0 0.0 -4.709579147287e-04 
-7.280869989337e-04 -1.354131871897e-05 0.0 
-1.354131871897e-05 4.780585004203e-03 0.0 
0.0 0.0 -7.304257169629e-04 
-3.156217836785e-04 -5.089469505304e-06 0.0 
-5.089469505304e-06 1.850033331779e-03 0.0 
0.0 0.0 -3.104331955072e-04 
-1.248490279357e-03 4.323593742207e-06 0.0 
4.323593742207e-06 8.417241528006e-03 0.0 
0.0 0.0 -1.251461238623e-03 
-7.622164195474e-04 2.744443297153e-08 0.0 
2.744443297153e-08 4.979735740211e-03 0.0 
0.0 0.0 -7.590395520047e-04 
-7.692339302932e-04 1.865673827942e-06 0.0 
1.865673827942e-06 5.052106796517e-03 0.0 
0.0 0.0 -7.694287042311e-04 
-6.089514047186e-04 -2.827610219258e-06 0.0 
-2.827610219258e-06 3.952389816829e-03 0.0 
0.0 0.0 -6.120242822960e-04 
-4.863994982411e-04 4.620884363832e-06 0.0 
4.620884363832e-06 3.095071946727e-03 0.0 
0.0 0.0 -4.894362539292e-04 
-4.085285658609e-04 2.731393984732e-06 0.0 
2.731393984732e-06 2.545768838986e-03 0.0 
0.0 0.0 -4.100935076628e-04 
-6.992575820324e-04 4.870514854637e-06 0.0 
4.870514854637e-06 4.559959934010e-03 0.0 
0.0 0.0 -6.990242139688e-04 
-7.223263303115e-04 1.302313524923e-06 0.0 
1.302313524923e-06 4.731940689569e-03 0.0 
0.0 0.0 -7.237531747479e-04 
-1.024699739881e-03 1.653915686907e-06 0.0 
1.653915686907e-06 6.828723699735e-03 0.0 
0.0 0.0 -1.024340108609e-03 
-1.114669738223e-03 -2.759101931811e-06 0.0 
-2.759101931811e-06 7.438940293733e-03 0.0 
0.0 0.0 -1.112552678551e-03 
-7.837510010112e-05 1.769113863607e-05 0.0 
1.769113863607e-05 3.475076993490e-04 0.0 
0.0 0.0 -7.176178390651e-05 
-1.061119640742e-03 3.173187948495e-06 0.0 
3.173187948495e-06 7.087064478518e-03 0.0 
0.0 0.0 -1.061672265243e-03 
-8.547259828446e-04 -2.557127369417e-07 0.0 
-2.557127369417e-07 5.648936137093e-03 0.0 
0.0 0.0 -8.552253422611e-04 
-9.623974161653e-04 3.311768495871e-06 0.0 
3.311768495871e-06 6.381924133008e-03 0.0 
0.0 0.0 -9.599091010803e-04 
-1.065648191468e-03 -5.923271574245e-06 0.0 
-5.923271574245e-06 7.096345784584e-03 0.0 
0.0 0.0 -1.062640036239e-03 
-2.783998705011e-04 -2.298480854765e-06 0.0 
-2.298480854765e-06 1.715267207971e-03 0.0 
0.0 0.0 -2.909097700217e-04 
-1.100348444179e-03 -1.047118262864e-06 0.0 
-1.047118262864e-06 7.347575470432e-03 0.0 
0.0 0.0 -1.098747615487e-03 
-1.217488030174e-03 6.848117353235e-06 0.0 
6.848117353235e-06 8.139341092548e-03 0.0 
0.0 0.0 -1.212453547082e-03 
-8.838417845426e-04 -2.547521654431e-05 0.0 
-2.547521654431e-05 5.856172789859e-03 0.0 
0.0 0.0 -8.875094802107e-04 
-2.462642296247e-04 -5.029644419068e-06 0.0 
-5.029644419068e-06 1.395111957816e-03 0.0 
0.0 0.0 -2.442495876194e-04 
-8.759046619095e-04 5.034941322772e-06 0.0 
5.034941322772e-06 5.740576630140e-03 0.0 
0.0 0.0 -8.692469099983e-04 
-1.203793389362e-03 4.534763565552e-06 0.0 
4.534763565552e-06 8.059936526887e-03 0.0 
0.0 0.0 -1.202705989510e-03 
-1.079080060508e-03 -5.136331410960e-07 0.0 
-5.136331410960e-07 7.205755043523e-03 0.0 
0.0 0.0 -1.078220320736e-03 
-4.314372885713e-04 -1.108621221044e-05 0.0 
-1.108621221044e-05 2.708353444584e-03 0.0 
0.0 0.0 -4.336020471383e-04 
-7.948364969142e-04 -2.495821117444e-06 0.0 
-2.495821117444e-06 5.224923007330e-03 0.0 
0.0 0.0 -7.943514531093e-04 
-7.442299034792e-04 7.080946299366e-07 0.0 
7.080946299366e-07 4.865637424934e-03 0.0 
0.0 0.0 -7.428158978947e-04 
-6.789224573103e-04 -9.062719812238e-06 0.0 
-9.062719812238e-06 4.471649261705e-03 0.0 
0.0 0.0 -6.865907729104e-04 
-1.214586438871e-03 8.024689911949e-06 0.0 
8.024689911949e-06 8.094834481891e-03 0.0 
0.0 0.0 -1.206557591227e-03 
-8.183792108392e-04 -4.169826119579e-07 0.0 
-4.169826119579e-07 5.384604412960e-03 0.0 
0.0 0.0 -8.172945450071e-04 
-1.123489439230e-03 6.695635103151e-06 0.0 
6.695635103151e-06 7.497291039553e-03 0.0 
0.0 0.0 -1.120054252910e-03 
-9.239887439884e-04 -3.012520915633e-06 0.0 
-3.012520915633e-06 6.128004255690e-03 0.0 
0.0 0.0 -9.240809108919e-04 
-4.625644487372e-04 -4.132620430702e-06 0.0 
-4.132620430702e-06 2.914638302916e-03 0.0 
0.0 0.0 -4.629711029823e-04 
-1.121328625940e-03 -6.182944165264e-06 0.0 
-6.182944165264e-06 7.491651595506e-03 0.0 
0.0 0.0 -1.118919378802e-03 
-7.755037056980e-04 -1.629710765725e-06 0.0 
-1.629710765725e-06 5.087191610180e-03 0.0 
0.0 0.0 -7.743986277066e-04 
-1.165062879850e-03 -3.169874330989e-06 0.0 
-3.169874330989e-06 7.809274989077e-03 0.0 
0.0 0.0 -1.164614768973e-03 
-1.031438669585e-03 -5.272017896760e-06 0.0 
-5.272017896760e-06 6.875819044251e-03 0.0 
0.0 0.0 -1.031533309622e-03 
-6.383681651354e-04 -1.646563539618e-06 0.0 
-1.646563539618e-06 4.132113027582e-03 0.0 
0.0 0.0 -6.375205594687e-04 
-1.120494149395e-03 -5.362450288203e-06 0.0 
-5.362450288203e-06 7.500323563236e-03 0.0 
0.0 0.0 -1.121170216299e-03 
-7.780649319143e-04 1.815637845543e-06 0.0 
1.815637845543e-06 5.106477756252e-03 0.0 
0.0 0.0 -7.773091661689e-04 
-1.101658644117e-03 9.961254279955e-07 0.0 
9.961254279955e-07 7.356355521752e-03 0.0 
0.0 0.0 -1.099429584637e-03 
-7.271456150642e-04 1.682914491919e-06 0.0 
1.682914491919e-06 4.735785920808e-03 0.0 
0.0 0.0 -7.240542973723e-04 
-9.053111554421e-04 -2.304698340662e-06 0.0 
-2.304698340662e-06 5.989601996014e-03 0.0 
0.0 0.0 -9.041109700986e-04 
-9.863008524358e-04 -3.464876425113e-06 0.0 
-3.464876425113e-06 6.537147458197e-03 0.0 
0.0 0.0 -9.824247929831e-04 
-8.612973840953e-04 -1.473763680943e-07 0.0 
-1.473763680943e-07 5.687311619382e-03 0.0 
0.0 0.0 -8.608216255090e-04 
-9.529955923155e-04 1.728497531751e-05 0.0 
1.728497531751e-05 6.336375010902e-03 0.0 
0.0 0.0 -9.534332399069e-04 
-1.092284604608e-03 2.589702392293e-06 0.0 
2.589702392293e-06 7.290468944473e-03 0.0 
0.0 0.0 -1.090315851396e-03 
-3.119597294079e-04 5.757369509238e-07 0.0 
5.757369509238e-07 1.828570008309e-03 0.0 
0.0 0.0 -3.071334217218e-04 
-5.718786607335e-04 -4.107371137151e-07 0.0 
-4.107371137151e-07 3.675898340669e-03 0.0 
0.0 0.0 -5.719042557127e-04 
-9.488327861295e-04 -5.202841950027e-06 0.0 
-5.202841950027e-06 6.331676782321e-03 0.0 
0.0 0.0 -9.536514739466e-04 
-1.157212024015e-03 -6.515732433124e-06 0.0 
-6.515732433124e-06 7.701144359915e-03 0.0 
0.0 0.0 -1.150585697120e-03 
-1.224312444037e-03 6.690841738719e-06 0.0 
6.690841738719e-06 8.269264616708e-03 0.0 
0.0 0.0 -1.229329624135e-03 
-6.820956806615e-04 3.615386019445e-06 0.0 
3.615386019445e-06 4.429302489243e-03 0.0 
0.0 0.0 -6.801182747099e-04 
-1.081664045678e-03 -5.547367653078e-06 0.0 
-5.547367653078e-06 7.227268260236e-03 0.0 
0.0 0.0 -1.081576975854e-03 
-1.187584404498e-03 2.370146928347e-06 0.0 
2.370146928347e-06 7.946791552093e-03 0.0 
0.0 0.0 -1.185355684152e-03 
-7.511569300737e-04 3.681739321961e-07 0.0 
3.681739321961e-07 4.931952546785e-03 0.0 
0.0 0.0 -7.524367508395e-04 
-3.356805227239e-04 3.379744479997e-06 0.0 
3.379744479997e-06 2.005119320146e-03 0.0 
0.0 0.0 -3.333104686742e-04 
-2.618377986137e-04 -2.555233257220e-06 0.0 
-2.555233257220e-06 1.542022096797e-03 0.0 
0.0 0.0 -2.654833071040e-04 
-5.104550227812e-04 2.453007206903e-06 0.0 
2.453007206903e-06 3.238650363468e-03 0.0 
0.0 0.0 -5.092532232582e-04 
-7.832353398933e-04 -9.887778153908e-09 0.0 
-9.887778153908e-09 5.137653853930e-03 0.0 
0.0 0.0 -7.817448632792e-04 
-8.173389799679e-04 -1.106611203690e-06 0.0 
-1.106611203690e-06 5.390375532825e-03 0.0 
0.0 0.0 -8.181699076276e-04 
-1.246124432281e-03 8.592622963370e-06 0.0 
8.592622963370e-06 8.369587963902e-03 0.0 
0.0 0.0 -1.242275372262e-03 
-1.107849420052e-03 -3.778759467000e-06 0.0 
-3.778759467000e-06 7.425444910215e-03 0.0 
0.0 0.0 -1.110186454522e-03 
-1.040708302916e-03 -6.884984211962e-06 0.0 
-6.884984211962e-06 6.941970815521e-03 0.0 
0.0 0.0 -1.040857148505e-03 
-1.527209700993e-04 7.546329121728e-06 0.0 
7.546329121728e-06 7.439800217049e-04 0.0 
0.0 0.0 -1.519369657486e-04 
-7.102565865705e-04 9.145208254839e-06 0.0 
9.145208254839e-06 4.653234839291e-03 0.0 
0.0 0.0 -7.126371066839e-04 
-1.135597595821e-03 -4.213475059661e-06 0.0 
-4.213475059661e-06 7.626732622695e-03 0.0 
0.0 0.0 -1.139074001596e-03 
-8.226822624900e-04 -1.510040807146e-06 0.0 
-1.510040807146e-06 5.420363658064e-03 0.0 
0.0 0.0 -8.223634564932e-04 
-1.130518051871e-03 1.404153544755e-06 0.0 
1.404153544755e-06 7.542933512680e-03 0.0 
0.0 0.0 -1.126725356868e-03 
-7.730615027956e-04 -9.222257900533e-07 0.0 
-9.222257900533e-07 5.135473060459e-03 0.0 
0.0 0.0 -7.817916451012e-04 
-1.247411460160e-03 -9.243273431592e-06 0.0 
-9.243273431592e-06 8.408376939559e-03 0.0 
0.0 0.0 -1.249754184115e-03 
-5.771690213087e-04 1.052821776229e-05 0.0 
1.052821776229e-05 3.703652171226e-03 0.0 
0.0 0.0 -5.757576642514e-04 
-1.170100609579e-03 -4.592953287663e-06 0.0 
-4.592953287663e-06 7.841109684677e-03 0.0 
0.0 0.0 -1.168790087466e-03 
-1.048740829087e-03 7.093154405142e-06 0.0 
7.093154405142e-06 6.993148920806e-03 0.0 
0.0 0.0 -1.047452346298e-03 
-5.261911269690e-04 1.909166490890e-06 0.0 
1.909166490890e-06 3.348024093927e-03 0.0 
0.0 0.0 -5.248669331578e-04 
-7.497340550746e-04 3.779029275090e-06 0.0 
3.779029275090e-06 4.910648048132e-03 0.0 
0.0 0.0 -7.498068730476e-04 
-1.245763281564e-03 6.672330238115e-06 0.0 
6.672330238115e-06 8.371772027766e-03 0.0 
0.0 0.0 -1.243807156011e-03 
-1.117703748533e-03 2.194090469607e-06 0.0 
2.194090469607e-06 7.455079503703e-03 0.0 
0.0 0.0 -1.114542488500e-03 
-9.240113812816e-04 -1.198482106942e-06 0.0 
-1.198482106942e-06 6.127698402996e-03 0.0 
0.0 0.0 -9.240346875991e-04 
-7.861216138727e-04 -9.318371199110e-07 0.0 
-9.318371199110e-07 5.164682558518e-03 0.0 
0.0 0.0 -7.856950878877e-04 
-6.177367695525e-04 -9.517786211573e-06 0.0 
-9.517786211573e-06 3.998918706787e-03 0.0 
0.0 0.0 -6.191377506773e-04 
-8.459389819467e-04 -1.995047945311e-06 0.0 
-1.995047945311e-06 5.590510800112e-03 0.0 
0.0 0.0 -8.467704336814e-04 
-9.417404110639e-04 -4.713677469947e-06 0.0 
-4.713677469947e-06 6.237570578551e-03 0.0 
0.0 0.0 -9.395224721591e-04 
-1.301810218994e-03 1.765430740839e-06 0.0 
1.765430740839e-06 8.802491938361e-03 0.0 
0.0 0.0 -1.306889097489e-03 
-1.157353199815e-03 -3.220404905638e-06 0.0 
-3.220404905638e-06 7.685679656852e-03 0.0 
0.0 0.0 -1.148622835147e-03 
-9.680073786691e-04 -7.171826150583e-06 0.0 
-7.171826150583e-06 6.444265355765e-03 0.0 
0.0 0.0 -9.696660045843e-04 
-8.086257517039e-04 -2.588621595210e-06 0.0 
-2.588621595210e-06 5.331381971752e-03 0.0 
0.0 0.0 -8.097439408559e-04 
-9.758814597954e-04 -1.266881133520e-06 0.0 
-1.266881133520e-06 6.485358460050e-03 0.0 
0.0 0.0 -9.749840279683e-04 
-1.830817571470e-04 -6.180925807537e-06 0.0 
-6.180925807537e-06 1.047535156777e-03 0.0 
0.0 0.0 -1.970089232863e-04 
-6.448165884168e-04 4.844410112103e-06 0.0 
4.844410112103e-06 4.184395435775e-03 0.0 
0.0 0.0 -6.447622526173e-04 
-8.380376970069e-04 -3.326700526506e-06 0.0 
-3.326700526506e-06 5.530905952602e-03 0.0 
0.0 0.0 -8.382314227178e-04 
-5.380831595537e-04 5.638960694938e-07 0.0 
5.638960694938e-07 3.435054469080e-03 0.0 
0.0 0.0 -5.374563060555e-04 
-8.145911171393e-04 -5.272270294572e-07 0.0 
-5.272270294572e-07 5.360444702331e-03 0.0 
0.0 0.0 -8.136389561866e-04 
-1.227174802196e-03 1.276784792667e-05 0.0 
1.276784792667e-05 8.302917635780e-03 0.0 
0.0 0.0 -1.234277959947e-03 
-8.676280294557e-04 -2.040186177139e-06 0.0 
-2.040186177139e-06 5.731120870230e-03 0.0 
0.0 0.0 -8.668853676281e-04 
-6.021329393958e-04 -1.386838022326e-06 0.0 
-1.386838022326e-06 3.881394728410e-03 0.0 
0.0 0.0 -6.015264011954e-04 
-8.964491756309e-04 6.553805878160e-07 0.0 
6.553805878160e-07 5.929532426753e-03 0.0 
0.0 0.0 -8.955981815692e-04 
-5.512424861372e-04 -5.409275769173e-06 0.0 
-5.409275769173e-06 3.527258760375e-03 0.0 
0.0 0.0 -5.519888345566e-04 
-9.985595773763e-04 -1.015463228060e-05 0.0 
-1.015463228060e-05 6.646851321069e-03 0.0 
0.0 0.0 -9.983267706061e-04 
-9.215064714085e-04 1.407126120722e-07 0.0 
1.407126120722e-07 6.123536504565e-03 0.0 
0.0 0.0 -9.243533921793e-04 
-1.004433427129e-03 -6.175544373061e-06 0.0 
-6.175544373061e-06 6.679704057184e-03 0.0 
0.0 0.0 -1.003151257071e-03 
-2.014979142818e-04 -1.982424414306e-05 0.0 
-1.982424414306e-05 1.118628598720e-03 0.0 
0.0 0.0 -2.040322045631e-04 
-9.524490800155e-04 -1.599154771265e-06 0.0 
-1.599154771265e-06 6.321577882661e-03 0.0 
0.0 0.0 -9.517466134248e-04 
-1.151323095747e-03 8.970357597703e-06 0.0 
8.970357597703e-06 7.737810625971e-03 0.0 
0.0 0.0 -1.155419075730e-03 
-5.642242598448e-04 4.052530886118e-06 0.0 
4.052530886118e-06 3.629354201895e-03 0.0 
0.0 0.0 -5.654343806685e-04 
-8.430123869833e-04 1.789712430457e-06 0.0 
1.789712430457e-06 5.558821852331e-03 0.0 
0.0 0.0 -8.420324705410e-04 
-1.064235786948e-03 -6.087517053101e-06 0.0 
-6.087517053101e-06 7.102031703649e-03 0.0 
0.0 0.0 -1.063653581392e-03 
-4.868392782288e-04 -2.122282903202e-05 0.0 
-2.122282903202e-05 3.049667270729e-03 0.0 
0.0 0.0 -4.839843007303e-04 
-9.081670479201e-04 2.415755652884e-07 0.0 
2.415755652884e-07 6.014517114267e-03 0.0 
0.0 0.0 -9.074658271045e-04 
-1.068096740286e-03 -5.575043742403e-06 0.0 
-5.575043742403e-06 7.125147388201e-03 0.0 
0.0 0.0 -1.067288052377e-03 
-9.808487270250e-04 4.928616331385e-06 0.0 
4.928616331385e-06 6.520553626334e-03 0.0 
0.0 0.0 -9.801762873724e-04 
-8.470889807538e-04 7.350311736948e-07 0.0 
7.350311736948e-07 5.583629027931e-03 0.0 
0.0 0.0 -8.455731917576e-04 
-9.738610544212e-04 -1.605198629589e-06 0.0 
-1.605198629589e-06 6.476533283027e-03 0.0 
0.0 0.0 -9.738262179588e-04 
-5.107285056985e-04 1.726041735434e-05 0.0 
1.726041735434e-05 3.222108758113e-03 0.0 
0.0 0.0 -5.057041985798e-04 
-4.224983753940e-04 8.320492048848e-06 0.0 
8.320492048848e-06 2.639215696168e-03 0.0 
0.0 0.0 -4.238464704258e-04 
-3.592226638991e-04 1.930188485194e-06 0.0 
1.930188485194e-06 2.185168436497e-03 0.0 
0.0 0.0 -3.586180353125e-04 
-6.301304693072e-04 -1.957277653515e-06 0.0 
-1.957277653515e-06 4.076615728565e-03 0.0 
0.0 0.0 -6.294631353604e-04 
-1.103647244802e-03 -2.847244464940e-06 0.0 
-2.847244464940e-06 7.378786394117e-03 0.0 
0.0 0.0 -1.103081964739e-03 
-2.559482480597e-04 -2.299545213333e-05 0.0 
-2.299545213333e-05 1.449439224095e-03 0.0 
0.0 0.0 -2.521214004998e-04 
-1.054932560315e-03 -8.075575040894e-06 0.0 
-8.075575040894e-06 7.041307941420e-03 0.0 
0.0 0.0 -1.054898413167e-03 
-2.650995954687e-04 -9.741906018410e-06 0.0 
-9.741906018410e-06 1.540523614087e-03 0.0 
0.0 0.0 -2.660187670962e-04 
-5.941857965254e-04 -1.478675907496e-06 0.0 
-1.478675907496e-06 3.826673915507e-03 0.0 
0.0 0.0 -5.935709857392e-04 
-1.072876015775e-03 5.343583090757e-06 0.0 
5.343583090757e-06 7.192683716525e-03 0.0 
0.0 0.0 -1.077081564483e-03 
-9.321388457540e-04 -4.809931635802e-05 0.0 
-4.809931635802e-05 6.189086367178e-03 0.0 
0.0 0.0 -9.315431351609e-04 
-6.217808576270e-04 7.207492673147e-07 0.0 
7.207492673147e-07 4.019499781701e-03 0.0 
0.0 0.0 -6.211106552582e-04 
-3.980785928309e-04 9.124267879167e-06 0.0 
9.124267879167e-06 2.462820491612e-03 0.0 
0.0 0.0 -3.989951351066e-04 
-5.857792725331e-04 1.985647166887e-06 0.0 
1.985647166887e-06 3.767357559114e-03 0.0 
0.0 0.0 -5.850331209179e-04 
-9.112445775697e-04 1.341366700758e-06 0.0 
1.341366700758e-06 6.030641515549e-03 0.0 
0.0 0.0 -9.098959706900e-04 
-6.128747489382e-04 2.675469426563e-06 0.0 
2.675469426563e-06 3.959229262623e-03 0.0 
0.0 0.0 -6.124823626799e-04 
-5.756573688349e-04 3.659606376921e-06 0.0 
3.659606376921e-06 3.704306399129e-03 0.0 
0.0 0.0 -5.760838601101e-04 
-1.248717565768e-03 -5.535813130874e-06 0.0 
-5.535813130874e-06 8.366851373818e-03 0.0 
0.0 0.0 -1.242975171717e-03 
-6.019390184711e-04 5.185969946808e-06 0.0 
5.185969946808e-06 3.892334269077e-03 0.0 
0.0 0.0 -6.030381679152e-04 
-1.295271260153e-03 -1.307857609192e-05 0.0 
-1.307857609192e-05 8.801391727423e-03 0.0 
0.0 0.0 -1.305370344976e-03 
-1.297876901994e-03 -6.017750132337e-06 0.0 
-6.017750132337e-06 8.756844234735e-03 0.0 
0.0 0.0 -1.298405437673e-03 
-8.024513087945e-04 -3.501513188686e-05 0.0 
-3.501513188686e-05 5.274019348334e-03 0.0 
0.0 0.0 -7.997855503562e-04 
-4.254874939528e-04 2.211998048864e-05 0.0 
2.211998048864e-05 2.578130903576e-03 0.0 
0.0 0.0 -4.121418992062e-04 
-6.508445551723e-05 3.373963354785e-06 0.0 
3.373963354785e-06 3.129607731290e-04 0.0 
0.0 0.0 -6.767973558354e-05 
-4.292600751844e-04 -1.740584050413e-05 0.0 
-1.740584050413e-05 2.722306669060e-03 0.0 
0.0 0.0 -4.369243393394e-04 
-4.999202719491e-04 4.843301359549e-06 0.0 
4.843301359549e-06 3.182731173832e-03 0.0 
0.0 0.0 -5.013603847490e-04 
-1.049593438910e-03 4.881772467913e-07 0.0 
4.881772467913e-07 6.980157933883e-03 0.0 
0.0 0.0 -1.045752072333e-03 
-8.016418655660e-04 8.516902983695e-06 0.0 
8.516902983695e-06 5.282246051091e-03 0.0 
0.0 0.0 -8.029817139903e-04 
-4.608886666597e-04 1.012378092170e-05 0.0 
1.012378092170e-05 2.916090626050e-03 0.0 
0.0 0.0 -4.630712860745e-04 
-1.246806949158e-03 1.140227857429e-06 0.0 
1.140227857429e-06 8.413894031447e-03 0.0 
0.0 0.0 -1.250093291501e-03 
-1.307722546221e-03 -1.676098542474e-05 0.0 
-1.676098542474e-05 8.791128539895e-03 0.0 
0.0 0.0 -1.306737725957e-03 
-1.028575866269e-03 -1.191239422521e-05 0.0 
-1.191239422521e-05 6.846657277970e-03 0.0 
0.0 0.0 -1.028769680629e-03 
-1.163087821654e-03 1.345534459019e-05 0.0 
1.345534459019e-05 7.719562356736e-03 0.0 
0.0 0.0 -1.152835590205e-03 
-1.010012111677e-03 5.602799068575e-06 0.0 
5.602799068575e-06 6.735304706068e-03 0.0 
0.0 0.0 -1.010595862668e-03 
-1.192917845756e-03 -1.946426676376e-05 0.0 
-1.946426676376e-05 7.943592006894e-03 0.0 
0.0 0.0 -1.185717314024e-03 
-7.402744024553e-04 -5.561571203005e-05 0.0 
-5.561571203005e-05 4.875197844443e-03 0.0 
0.0 0.0 -7.451086181774e-04 
-1.274079564101e-04 8.533594738936e-07 0.0 
8.533594738936e-07 6.386951496409e-04 0.0 
0.0 0.0 -1.305770345747e-04 
-9.879127130267e-04 1.076817561927e-05 0.0 
1.076817561927e-05 6.567110452730e-03 0.0 
0.0 0.0 -9.879584850274e-04 
-3.534515362331e-04 7.236051672545e-06 0.0 
7.236051672545e-06 2.087202708593e-03 0.0 
0.0 0.0 -3.437331075899e-04 
-3.524709716392e-04 5.779652155093e-07 0.0 
5.779652155093e-07 2.140761807693e-03 0.0 
0.0 0.0 -3.524505972177e-04 
-2.862323044565e-04 -1.529779689611e-06 0.0 
-1.529779689611e-06 1.660184670344e-03 0.0 
0.0 0.0 -2.832406441101e-04 
-4.971401695179e-04 3.027225826669e-06 0.0 
3.027225826669e-06 3.086653370969e-03 0.0 
0.0 0.0 -4.856826860430e-04 
-1.849802147030e-04 7.362673378517e-06 0.0 
7.362673378517e-06 1.024898749324e-03 0.0 
0.0 0.0 -1.942844358666e-04 
-2.871589559832e-04 8.860091783220e-06 0.0 
8.860091783220e-06 1.702387296045e-03 0.0 
0.0 0.0 -2.888902821290e-04 
-1.252722980053e-03 -1.832850037119e-05 0.0 
-1.832850037119e-05 8.369674222349e-03 0.0 
0.0 0.0 -1.245112051941e-03 
-7.926742292647e-04 -4.732996368776e-05 0.0 
-4.732996368776e-05 5.282443543312e-03 0.0 
0.0 0.0 -8.050116406322e-04 
-1.106262153398e-03 -9.161465296466e-06 0.0 
-9.161465296466e-06 7.422861484469e-03 0.0 
0.0 0.0 -1.110409235593e-03 
-2.195876704695e-04 6.903728268407e-06 0.0 
6.903728268407e-06 1.223775342103e-03 0.0 
0.0 0.0 -2.210826640180e-04 
-1.251801969841e-03 -1.462670654940e-05 0.0 
-1.462670654940e-05 8.397461752409e-03 0.0 
0.0 0.0 -1.247366155457e-03 
-1.250359073208e-03 6.645071777191e-06 0.0 
6.645071777191e-06 8.395286537502e-03 0.0 
0.0 0.0 -1.246608778627e-03 
-1.310061522223e-03 -1.730900586737e-05 0.0 
-1.730900586737e-05 8.803293803047e-03 0.0 
0.0 0.0 -1.306249356034e-03 
-1.172119357565e-03 -2.987465004677e-06 0.0 
-2.987465004677e-06 7.878008992010e-03 0.0 
0.0 0.0 -1.176371721005e-03 
-2.180388128944e-04 -2.924544915676e-06 0.0 
-2.924544915676e-06 1.180274271759e-03 0.0 
0.0 0.0 -2.130604828246e-04 
-8.442593127821e-04 -4.359073983630e-05 0.0 
-4.359073983630e-05 5.668047935442e-03 0.0 
0.0 0.0 -8.603500797662e-04 
-1.256774464996e-03 -9.387217042970e-06 0.0 
-9.387217042970e-06 8.415646483150e-03 0.0 
0.0 0.0 -1.250827372426e-03 
-1.072962494745e-03 -3.075351322496e-06 0.0 
-3.075351322496e-06 7.220489030587e-03 0.0 
0.0 0.0 -1.080253149739e-03 
-1.299956315864e-03 5.907340655945e-05 0.0 
5.907340655945e-05 8.822006705032e-03 0.0 
0.0 0.0 -1.309985050881e-03 
-7.806106637019e-04 -1.684448248675e-06 0.0 
-1.684448248675e-06 5.212548371629e-03 0.0 
0.0 0.0 -7.979019438933e-04 
-1.254167562389e-03 1.146355027257e-05 0.0 
1.146355027257e-05 8.413941643761e-03 0.0 
0.0 0.0 -1.252774941638e-03 
-2.773224831107e-04 -1.248540399819e-05 0.0 
-1.248540399819e-05 1.578602427722e-03 0.0 
0.0 0.0 -2.737139294578e-04 
-1.253589576776e-03 1.816421682347e-05 0.0 
1.816421682347e-05 8.411285343410e-03 0.0 
0.0 0.0 -1.254166199180e-03 
-1.115104807484e-03 -2.535602796036e-06 0.0 
-2.535602796036e-06 7.430825592014e-03 0.0 
0.0 0.0 -1.110316242656e-03 
-8.788088159188e-04 2.953384655569e-05 0.0 
2.953384655569e-05 5.848517526204e-03 0.0 
0.0 0.0 -8.840149073763e-04 
-8.453655219936e-04 1.276109640112e-05 0.0 
1.276109640112e-05 5.644378390582e-03 0.0 
0.0 0.0 -8.570326279659e-04 
-1.251636506986e-03 8.563362149544e-06 0.0 
8.563362149544e-06 8.428656629745e-03 0.0 
0.0 0.0 -1.256337174517e-03 
-1.259327999631e-03 -2.468624830891e-05 0.0 
-2.468624830891e-05 8.412107540714e-03 0.0 
0.0 0.0 -1.249505442739e-03 
-1.752421740852e-04 1.599785091568e-05 0.0 
1.599785091568e-05 9.248205746742e-04 0.0 
0.0 0.0 -1.769373265848e-04 
-1.014009013286e-03 3.718452203742e-05 0.0 
3.718452203742e-05 6.827048883928e-03 0.0 
0.0 0.0 -1.024357608964e-03 
-6.037112023629e-04 -1.928016981804e-05 0.0 
-1.928016981804e-05 3.870166564208e-03 0.0 
0.0 0.0 -5.984289768806e-04 
-1.136473903534e-04 -2.305801768327e-05 0.0 
-2.305801768327e-05 5.992740239482e-04 0.0 
0.0 0.0 -1.205697443558e-04 
-1.256657915508e-03 3.816415809552e-05 0.0 
3.816415809552e-05 8.403684845898e-03 0.0 
0.0 0.0 -1.249521112489e-03 
-1.181297459508e-03 -1.601502097609e-06 0.0 
-1.601502097609e-06 7.855797415998e-03 0.0 
0.0 0.0 -1.172189067419e-03 
-1.260809781498e-03 3.729628833421e-05 0.0 
3.729628833421e-05 8.413738862441e-03 0.0 
0.0 0.0 -1.251863004148e-03 
-2.027346260532e-04 2.709152210168e-05 0.0 
2.709152210168e-05 1.045860090397e-03 0.0 
0.0 0.0 -1.953152674555e-04 
-1.282550990439e-04 1.596967550411e-05 0.0 
1.596967550411e-05 5.957593377885e-04 0.0 
0.0 0.0 -1.273034037094e-04 
-1.264740521524e-03 1.076136126608e-05 0.0 
1.076136126608e-05 8.488256231164e-03 0.0 
0.0 0.0 -1.258522865334e-03 
-1.257630123801e-03 7.011893020693e-06 0.0 
7.011893020693e-06 8.461160637007e-03 0.0 
0.0 0.0 -1.257106814994e-03 
-2.964921431859e-04 1.458101898901e-05 0.0 
1.458101898901e-05 1.817377003358e-03 0.0 
0.0 0.0 -3.034980657766e-04 
-1.315300675602e-03 -4.616213654092e-06 0.0 
-4.616213654092e-06 8.874722920157e-03 0.0 
0.0 0.0 -1.314710167832e-03 
-1.230668747668e-04 -1.081893831765e-05 0.0 
-1.081893831765e-05 5.709731362741e-04 0.0 
0.0 0.0 -1.229206800733e-04 
-7.274132408296e-04 6.183789390248e-06 0.0 
6.183789390248e-06 4.811004360547e-03 0.0 
0.0 0.0 -7.389643750272e-04 
-1.204537552605e-04 -1.859174322407e-05 0.0 
-1.859174322407e-05 6.217166808925e-04 0.0 
0.0 0.0 -1.247417965529e-04 
-1.299793796178e-03 -5.184403467026e-05 0.0 
-5.184403467026e-05 8.811604799613e-03 0.0 
0.0 0.0 -1.308531455474e-03 
-1.262934174837e-03 2.444499081752e-05 0.0 
2.444499081752e-05 8.445031740868e-03 0.0 
0.0 0.0 -1.254845750201e-03 
-6.580718270352e-04 3.721306501344e-05 0.0 
3.721306501344e-05 4.264446760778e-03 0.0 
0.0 0.0 -6.564513288157e-04 
-7.456337922437e-04 2.770990182635e-05 0.0 
2.770990182635e-05 4.941313475091e-03 0.0 
0.0 0.0 -7.541421605440e-04 
-4.450321519268e-04 1.831097352036e-05 0.0 
1.831097352036e-05 2.791375237210e-03 0.0 
0.0 0.0 -4.426424662127e-04 
-1.211596464916e-03 3.979318020067e-05 0.0 
3.979318020067e-05 8.090084984478e-03 0.0 
0.0 0.0 -1.203498912175e-03 
-1.699334618160e-04 1.120862622914e-05 0.0 
1.120862622914e-05 9.446237105804e-04 0.0 
0.0 0.0 -1.843356288727e-04 
-1.269994123481e-03 -1.450914975509e-05 0.0 
-1.450914975509e-05 8.504040731719e-03 0.0 
0.0 0.0 -1.260296891839e-03 
-1.268600913962e-03 -6.159942340754e-06 0.0 
-6.159942340754e-06 8.509424202183e-03 0.0 
0.0 0.0 -1.261416966621e-03 
-1.266492101745e-03 9.280004247674e-06 0.0 
9.280004247674e-06 8.502341661499e-03 0.0 
0.0 0.0 -1.260618436842e-03 
-1.320646394007e-03 1.164813461384e-06 0.0 
1.164813461384e-06 8.896090470956e-03 0.0 
0.0 0.0 -1.317725628150e-03 
-1.063917710965e-04 3.406664009707e-05 0.0 
3.406664009707e-05 5.707022560972e-04 0.0 
0.0 0.0 -1.219614697575e-04 
-1.271929683323e-03 -9.688594658062e-06 0.0 
-9.688594658062e-06 8.520583266263e-03 0.0 
0.0 0.0 -1.263090216482e-03 
-1.211976787312e-03 3.126546850388e-05 0.0 
3.126546850388e-05 8.084092320638e-03 0.0 
0.0 0.0 -1.202239909569e-03 
-7.453046702514e-04 4.651614229788e-05 0.0 
4.651614229788e-05 4.880400084605e-03 0.0 
0.0 0.0 -7.439744481034e-04 
-1.252851707889e-03 4.006401018330e-05 0.0 
4.006401018330e-05 8.422629498426e-03 0.0 
0.0 0.0 -1.252574368527e-03 
-5.410687361656e-04 2.769520936264e-05 0.0 
2.769520936264e-05 3.454688790362e-03 0.0 
0.0 0.0 -5.383891422301e-04 
-2.371733345551e-04 -4.470106712643e-05 0.0 
-4.470106712643e-05 1.418248240622e-03 0.0 
0.0 0.0 -2.492021827984e-04 
-1.298998890690e-03 -2.770464845181e-05 0.0 
-2.770464845181e-05 8.833071909488e-03 0.0 
0.0 0.0 -1.313490227100e-03 
-4.294380069032e-05 -4.186010349487e-06 0.0 
-4.186010349487e-06 2.320436162997e-04 0.0 
0.0 0.0 -5.297760877488e-05 
-7.470694764219e-04 -2.192265105751e-05 0.0 
-2.192265105751e-05 4.855390412225e-03 0.0 
0.0 0.0 -7.402411036050e-04 
-1.312354484328e-03 4.131093532365e-05 0.0 
4.131093532365e-05 8.846630708308e-03 0.0 
0.0 0.0 -1.313492844077e-03 
-2.211400451138e-04 -3.676306702309e-06 0.0 
-3.676306702309e-06 1.335213202641e-03 0.0 
0.0 0.0 -2.401910970207e-04 
-8.452827785452e-04 -2.606429286923e-05 0.0 
-2.606429286923e-05 5.603903241888e-03 0.0 
0.0 0.0 -8.489638187885e-04 
-1.255507124853e-03 -9.186014831590e-06 0.0 
-9.186014831590e-06 8.480922712531e-03 0.0 
0.0 0.0 -1.260211869575e-03 
-8.025976065576e-04 9.592064473732e-06 0.0 
9.592064473732e-06 5.261098351640e-03 0.0 
0.0 0.0 -7.986629621775e-04 
-1.151240916671e-03 -6.084869299023e-05 0.0 
-6.084869299023e-05 7.669030971500e-03 0.0 
0.0 0.0 -1.148445367820e-03 
-2.192829735373e-04 1.243334644933e-05 0.0 
1.243334644933e-05 1.310510961281e-03 0.0 
0.0 0.0 -2.379222736554e-04 
-3.921137447337e-05 -2.374603163355e-06 0.0 
-2.374603163355e-06 2.327919393127e-04 0.0 
0.0 0.0 -4.855001867800e-05 
-9.645913781641e-04 -4.083102734348e-05 0.0 
-4.083102734348e-05 6.424950689754e-03 0.0 
0.0 0.0 -9.668795991591e-04 
-1.266746155896e-03 3.603621751399e-05 0.0 
3.603621751399e-05 8.474273100537e-03 0.0 
0.0 0.0 -1.258714341260e-03 
-1.271487619191e-03 -1.652780192111e-05 0.0 
-1.652780192111e-05 8.532655002207e-03 0.0 
0.0 0.0 -1.263997700767e-03 
-9.164544161815e-04 3.965640940801e-05 0.0 
3.965640940801e-05 6.111358236627e-03 0.0 
0.0 0.0 -9.199601189493e-04 
-2.093975888614e-04 -4.665649638259e-05 0.0 
-4.665649638259e-05 1.197818786362e-03 0.0 
0.0 0.0 -2.164625706183e-04 
-1.227420417668e-03 9.834631553151e-06 0.0 
9.834631553151e-06 8.219790599597e-03 0.0 
0.0 0.0 -1.221038716794e-03 
-6.921621610821e-04 -2.719005194231e-06 0.0 
-2.719005194231e-06 4.614590635001e-03 0.0 
0.0 0.0 -7.060606045913e-04 
-1.222382248160e-03 -1.550215016824e-05 0.0 
-1.550215016824e-05 8.147929268757e-03 0.0 
0.0 0.0 -1.208939113964e-03 
-1.221146925072e-03 -7.968249279324e-06 0.0 
-7.968249279324e-06 8.100682442682e-03 0.0 
0.0 0.0 -1.203806565432e-03 
-5.670525863277e-05 -1.771698635756e-05 0.0 
-1.771698635756e-05 2.585053466943e-04 0.0 
0.0 0.0 -6.449378323916e-05 
-8.615762060500e-04 1.909652726141e-05 0.0 
1.909652726141e-05 5.665696184107e-03 0.0 
0.0 0.0 -8.562696210230e-04 
-1.225143862683e-04 -2.984290666861e-05 0.0 
-2.984290666861e-05 5.860977302170e-04 0.0 
0.0 0.0 -1.223049983750e-04 
-1.270837356719e-03 -1.933520143368e-05 0.0 
-1.933520143368e-05 8.510135783999e-03 0.0 
0.0 0.0 -1.263714160583e-03 
-7.340830126836e-04 -1.335821332731e-05 0.0 
-1.335821332731e-05 4.821918862365e-03 0.0 
0.0 0.0 -7.344436328926e-04 
-1.988978580244e-04 -2.219381614200e-05 0.0 
-2.219381614200e-05 1.457110350865e-03 0.0 
0.0 0.0 -2.580578987991e-04 
-2.653195259643e-04 -7.998521144443e-07 0.0 
-7.998521144443e-07 1.467192985801e-03 0.0 
0.0 0.0 -2.600000000000e-04 
-2.777260844818e-04 -2.914177909712e-05 0.0 
-2.914177909712e-05 1.926657240018e-03 0.0 
0.0 0.0 -3.193537414966e-04 
-3.309390786781e-04 -1.795373795647e-06 0.0 
-1.795373795647e-06 2.009093472513e-03 0.0 
0.0 0.0 -3.266666666667e-04 
-3.365637611374e-04 -1.953033103199e-05 0.0 
-1.953033103199e-05 2.395340660532e-03 0.0 
0.0 0.0 -3.859030858720e-04 
-3.974252423505e-04 -3.636312148893e-06 0.0 
-3.636312148893e-06 2.393351786518e-03 0.0 
0.0 0.0 -3.933333333333e-04 
-4.176772664277e-04 -3.650619160946e-05 0.0 
-3.650619160946e-05 2.860283649269e-03 0.0 
0.0 0.0 -4.526870748299e-04 
-4.632043610658e-04 -3.909792630531e-06 0.0 
-3.909792630531e-06 2.935876671509e-03 0.0 
0.0 0.0 -4.600000000000e-04 
-4.858491939109e-04 -3.571106393788e-05 0.0 
-3.571106393788e-05 3.331481419020e-03 0.0 
0.0 0.0 -5.192176870747e-04 
-5.307983311465e-04 -4.380846350984e-06 0.0 
-4.380846350984e-06 3.321472726831e-03 0.0 
0.0 0.0 -5.266666666667e-04 
-5.549907469666e-04 -3.829926739680e-05 0.0 
-3.829926739680e-05 3.794910893621e-03 0.0 
0.0 0.0 -5.860204081633e-04 
-5.953475250696e-04 7.629065543884e-06 0.0 
7.629065543884e-06 3.863201785318e-03 0.0 
0.0 0.0 -5.933333333333e-04 
-6.234948668458e-04 -3.482962657316e-05 0.0 
-3.482962657316e-05 4.267925272266e-03 0.0 
0.0 0.0 -6.525251918948e-04 
-6.733326468399e-04 3.722248756973e-05 0.0 
3.722248756973e-05 4.248015244343e-03 0.0 
0.0 0.0 -6.600000000000e-04 

SCALARS node_materi_plasti_kappa_shear float
LOOKUP_TABLE default
1.154246033666e-04
3.030366954187e-03
5.919693902231e-03
5.923852315190e-03
2.859947626271e-04
6.218445993993e-04
8.718334659108e-04
1.197083009525e-03
1.504800919970e-03
1.797006115044e-03
2.096281833338e-03
2.401455262769e-03
2.703248692656e-03
3.016765538726e-03
3.359027883223e-03
3.663996831824e-03
3.908074174929e-03
4.228433772035e-03
4.543227631705e-03
4.848753617487e-03
5.161467818816e-03
5.477271259315e-03
5.779376537800e-03
5.932061195851e-03
5.925336573631e-03
5.920984287690e-03
5.924407700450e-03
5.915528138253e-03
5.915864416856e-03
5.918097125373e-03
5.921994664725e-03
5.927387718192e-03
5.930449677587e-03
5.921712747723e-03
5.924515498722e-03
5.931743115084e-03
5.928847067526e-03
5.919544915052e-03
5.911436947505e-03
5.907167024861e-03
5.916691287179e-03
5.925466264875e-03
5.926352037367e-03
5.927462665333e-03
5.926179788313e-03
5.923807961778e-03
5.921183308973e-03
5.929039143344e-03
5.928617810733e-03
5.930983770204e-03
5.930261081197e-03
5.934897168252e-03
5.940412066917e-03
5.938845524630e-03
5.922011629466e-03
5.913355498151e-03
5.926067531878e-03
5.924785671547e-03
5.926499683681e-03
5.927876554226e-03
5.924703349372e-03
5.915717987273e-03
5.917408892843e-03
5.920280365368e-03
5.931958681328e-03
5.938110150403e-03
5.906803770761e-03
5.928713183382e-03
5.925023434436e-03
5.923453604397e-03
5.939442334280e-03
5.942268996102e-03
3.313640150810e-03
3.643609585951e-03
3.947542440608e-03
4.242858391353e-03
4.550358348147e-03
4.852089997296e-03
5.156894848885e-03
5.448757344777e-03
5.772918013305e-03
9.252120421733e-05
3.026620073330e-03
3.625369357502e-04
6.731817662417e-04
9.637909774644e-04
1.150050340834e-03
1.455650881850e-03
1.761739050222e-03
2.071596637440e-03
2.380436576739e-03
2.688785350789e-03
1.043867159950e-03
1.203400472496e-03
1.503243346297e-03
1.805240586308e-03
2.108589051748e-03
2.410886229173e-03
2.706771452633e-03
2.974381815992e-03
2.988250338394e-03
2.992834626340e-03
2.988540146830e-03
3.040036634150e-03
2.993658303481e-03
2.986565369329e-03
2.994325014933e-03
3.003444053817e-03
3.004893136958e-03
3.000286560445e-03
2.997851424533e-03
2.994316307864e-03
3.001824735141e-03
9.621576344536e-05
1.072789967255e-04
9.631852337867e-05
9.634646192605e-05
1.161697218308e-04
1.255618245920e-04
1.234927640208e-04
1.176143698925e-04
1.181040846592e-04
1.155364499888e-04
1.206715439587e-04
1.365993450730e-04
1.279414962217e-04
1.070815165248e-04
1.087456221067e-04
1.225517974272e-04
1.266454771602e-04
1.116507655708e-04
1.010315185056e-04
9.209528610041e-04
1.046034930625e-03
1.048251028582e-03
1.049865010801e-03
1.050839315864e-03
1.049650095784e-03
1.049585172775e-03
1.049149298476e-03
1.048713870957e-03
1.048320114938e-03
1.047994588163e-03
1.047828093482e-03
1.047856647231e-03
1.048039785899e-03
1.048245107472e-03
1.048388005299e-03
1.048427044126e-03
1.048318301669e-03
1.048018024679e-03
1.047498312318e-03
1.046805363634e-03
1.046065898222e-03
1.044549241052e-03
1.020966150768e-03
9.956663203359e-04
1.187992031409e-03
1.170134596188e-03
1.168919802431e-03
1.169232374386e-03
1.169868085339e-03
1.170482980653e-03
1.170912721050e-03
1.171120299723e-03
1.171160922491e-03
1.171078166626e-03
1.170905132217e-03
1.170648727803e-03
1.170479286423e-03
1.170547781896e-03
1.170950149661e-03
1.171291949906e-03
1.171904111755e-03
1.171902869802e-03
1.172775691022e-03
1.171191663991e-03
1.172612854848e-03
1.187833400543e-03
1.100890959270e-03
1.406472201895e-03
1.491080212999e-03
1.478875045824e-03
1.477895659223e-03
1.479619060523e-03
1.478564647702e-03
1.478277220900e-03
1.477332716482e-03
1.477027418563e-03
1.477261296584e-03
1.477705681800e-03
1.477884862686e-03
1.477949264049e-03
1.477971194428e-03
1.477874591721e-03
1.477531872393e-03
1.476939422515e-03
1.476353314810e-03
1.476071760447e-03
1.476543377434e-03
1.479007895978e-03
1.494609376958e-03
1.795031686062e-03
1.783773745531e-03
1.782623055880e-03
1.782626379155e-03
1.783057178786e-03
1.783727354425e-03
1.784306026727e-03
1.784380359053e-03
1.784248010391e-03
1.784368936443e-03
1.784509361012e-03
1.784222028420e-03
1.783208560618e-03
1.783225774654e-03
1.784136159459e-03
1.786530570038e-03
1.785403695648e-03
1.784867355603e-03
1.800532715687e-03
1.713377617146e-03
2.018704063446e-03
2.107896464569e-03
2.095467463099e-03
2.092115637880e-03
2.090444484697e-03
2.089262768386e-03
2.091381496790e-03
2.091935832999e-03
2.091701405459e-03
2.090782435672e-03
2.090851254199e-03
2.091553502457e-03
2.090833695651e-03
2.089930293994e-03
2.089391547646e-03
2.089200621047e-03
2.089561437809e-03
2.092034405906e-03
2.102852006717e-03
2.407656875407e-03
2.395972459848e-03
2.394599199124e-03
2.395531468110e-03
2.394981263883e-03
2.396176998543e-03
2.397491354676e-03
2.397714307114e-03
2.395585196248e-03
2.397789855342e-03
2.399172565538e-03
2.398368259276e-03
2.398547875961e-03
2.393984296182e-03
2.398022086534e-03
2.418470853755e-03
2.331238587604e-03
2.637929620288e-03
2.723228742168e-03
2.707307494023e-03
2.703362484179e-03
2.705380261164e-03
2.706672240760e-03
2.703116806963e-03
2.702772263136e-03
2.703136713816e-03
2.702441216446e-03
2.701188865917e-03
2.700451988879e-03
2.702758821159e-03
2.699325300696e-03
2.707024502910e-03
2.723902039593e-03
2.292941970270e-04
5.236807730249e-04
8.235808296834e-04
1.028419111740e-03
1.324751298754e-03
1.629703414510e-03
1.935057087960e-03
2.241665025770e-03
2.548701800634e-03
2.861688706248e-03
7.103606478164e-04
5.814911313878e-03
2.047918518275e-04
1.970502068753e-04
5.819197632046e-03
1.328946267278e-03
3.191329080053e-03
5.810273490245e-03
1.892382905539e-03
5.822030968612e-03
2.522985579042e-03
5.833950524206e-03
1.864247367510e-04
5.824179591591e-03
3.155514371104e-03
1.957918245127e-03
4.023649944342e-03
5.811714724389e-03
5.825466270030e-03
5.824996473377e-03
5.797525205523e-03
5.833870913861e-03
3.279705906600e-03
3.278932509466e-03
3.299538154266e-03
4.392988308338e-03
5.825782847880e-03
1.875803799628e-04
2.130243859940e-04
4.990941270632e-03
3.266764248665e-03
1.027578116983e-03
5.770593586357e-03
5.837121425949e-03
5.820649096206e-03
5.802522940310e-03
5.827315517430e-03
2.124904197991e-04
3.271394634805e-03
5.775055632193e-03
5.005410343617e-03
2.049450714895e-04
2.556345996281e-03
5.876876022666e-03
1.638575426776e-03
1.018536859922e-03
2.209222523540e-03
2.829980156742e-03
3.757872655430e-04
3.812034731290e-03
5.879774981020e-03
2.000834389720e-04
5.582228690945e-03
3.282968380463e-03
3.405879163641e-03
3.554924991576e-03
3.706761369563e-03
3.858428676321e-03
3.994172834541e-03
3.835090176788e-03
4.124628089981e-03
3.963011153955e-03
4.154617485841e-03
4.253890367715e-03
4.090560016023e-03
4.382096032079e-03
4.218726563058e-03
3.929419603329e-03
4.056695462337e-03
3.767499058174e-03
3.894823734663e-03
4.184913419616e-03
4.022005877425e-03
3.732190171091e-03
3.858313833382e-03
3.569562641982e-03
3.695377336778e-03
3.406514106271e-03
3.532562577704e-03
3.821712444257e-03
3.658737601044e-03
3.369644961438e-03
3.495886750392e-03
3.207187652528e-03
3.332149617847e-03
3.621982769517e-03
3.458496973122e-03
3.166845774337e-03
3.294707675905e-03
3.002130027115e-03
3.131260622861e-03
2.837304896117e-03
2.965670032421e-03
3.259556182238e-03
3.094478366317e-03
2.799648397582e-03
2.927396624230e-03
3.222929756525e-03
3.055408384458e-03
3.351641860097e-03
3.184131490321e-03
2.889094859221e-03
3.017387565719e-03
3.312807633971e-03
3.144807155985e-03
2.850539984923e-03
2.978148191045e-03
3.273453875391e-03
3.105701933788e-03
2.811118638057e-03
2.939152856274e-03
3.235930558971e-03
3.066878938369e-03
2.770729598448e-03
2.897992444106e-03
3.196676201024e-03
3.025458962526e-03
3.326539777395e-03
2.725836099392e-03
2.853445082624e-03
2.552546008883e-03
2.681203652163e-03
3.749361599789e-03
2.379164116958e-03
2.254416588919e-03
2.509143601858e-03
2.813194765712e-03
2.206243071564e-03
2.337199456257e-03
2.035089294135e-03
2.704627779472e-03
4.313057656759e-03
2.166880539926e-03
1.864421071359e-03
1.732868546084e-03
1.561342170473e-03
4.024498791055e-03
4.321449536869e-03
4.179690524695e-03
4.487558501959e-03
4.351378253477e-03
1.692293086120e-03
4.547507496043e-03
4.620310667296e-03
3.444574795783e-03
3.081228819560e-03
3.519317618785e-03
2.468789982299e-03
2.300880945692e-03
2.604574973058e-03
3.497581244636e-03
3.628764160508e-03
3.799698635942e-03
3.931379681523e-03
4.102448612731e-03
4.234588908537e-03
4.063072780301e-03
4.366751221426e-03
4.194735028229e-03
4.405545622725e-03
4.273365102485e-03
4.498318737704e-03
4.326379418243e-03
4.629602997623e-03
4.457503609016e-03
4.153929470569e-03
4.284864263682e-03
3.982884066866e-03
3.648745610141e-03
3.817193794493e-03
3.946719407469e-03
4.115926409861e-03
4.245574739592e-03
4.415539763342e-03
4.544399560802e-03
4.375426891281e-03
4.509920023172e-03
2.632653377112e-03
2.504948411976e-03
2.338614636793e-03
2.211400256375e-03
2.045332097660e-03
1.919061142858e-03
1.752635209565e-03
1.878513981748e-03
1.584910331352e-03
1.710339413602e-03
1.415942396810e-03
1.540924270131e-03
3.948384266438e-03
4.285218450736e-03
4.585788453075e-03
4.452548000313e-03
1.432045145505e-03
4.588120534621e-03
4.576656745919e-03
4.442906503729e-03
4.675416510747e-03
1.391840176144e-03
1.627976054006e-03
1.791438559949e-03
4.652375729059e-03
4.515073750359e-03
4.747734229222e-03
1.522378979602e-03
4.671085369189e-03
1.291851135584e-03
4.415253925120e-03
4.718848314431e-03
3.891705484867e-03
4.754278458359e-03
4.616084921715e-03
1.839848146906e-03
1.672605894671e-03
1.378135101855e-03
1.515420670763e-03
1.805900116599e-03
1.632448232839e-03
1.332653763525e-03
1.460848178870e-03
1.759405537371e-03
1.587950129179e-03
1.285510927899e-03
1.415480434626e-03
4.891516996896e-03
1.121510096864e-03
3.641366942473e-03
4.879243427220e-03
4.841045972056e-03
4.817221487039e-03
4.680859314151e-03
4.376749942027e-03
4.546436710308e-03
4.850021688501e-03
4.714841530376e-03
4.411085338888e-03
4.576823668989e-03
4.271643822444e-03
4.438121527056e-03
4.742306724662e-03
4.605607762388e-03
4.302170490177e-03
4.468415119196e-03
4.164526586705e-03
4.326213013675e-03
4.634793358128e-03
1.226849014185e-03
4.506378239639e-03
4.809738295993e-03
2.453146888506e-03
2.728545033659e-03
2.907124081246e-03
3.043059147020e-03
4.493803980505e-03
4.803851567309e-03
1.501869364537e-03
1.664240495932e-03
4.952759396910e-03
4.548949919362e-03
4.244032685451e-03
2.918967585879e-03
2.792586959038e-03
2.629168594188e-03
2.499093692646e-03
2.668968419875e-03
2.332626947431e-03
4.138292167915e-03
4.909939925648e-03
1.603914124137e-03
1.302913386403e-03
4.855203702972e-03
4.205737706829e-03
4.111791117138e-03
4.239349827017e-03
4.404279031402e-03
4.532163345971e-03
4.698797086860e-03
4.826101189866e-03
4.663500232458e-03
4.917627217648e-03
4.959771601570e-03
4.174662190372e-03
4.151213148999e-03
1.888480938751e-03
1.096487228566e-03
1.112867725487e-03
1.347315636886e-03
1.652113615696e-03
5.051413102721e-03
4.995155339568e-03
4.862932033424e-03
2.379373966366e-03
2.546273267233e-03
5.051913667086e-03
4.046495241742e-03
4.106805891897e-03
3.964719198022e-03
1.001701890259e-03
9.814910827122e-04
5.018736248123e-03
1.953490702354e-03
1.826326942528e-03
1.000603477325e-03
8.270248169059e-04
4.649062039121e-03
4.959360782526e-03
3.209003612840e-03
3.344763241722e-03
4.919412739713e-03
1.246851632543e-03
5.108760944892e-03
4.338688324758e-03
4.036566623443e-03
2.862194265683e-03
1.379647792169e-03
1.216950747748e-03
2.058445277619e-03
1.544704251302e-03
1.478187698947e-03
5.222097844678e-03
5.150166074507e-03
4.796698922503e-03
4.498570299624e-03
5.089656245451e-03
9.457015925928e-04
5.189931181500e-03
4.686738709315e-03
5.150549732461e-03
5.027069730600e-03
2.114316632000e-03
1.991901980435e-03
1.705778784395e-03
1.877221421128e-03
3.675799238899e-03
2.280051155843e-03
3.479503618634e-03
3.353779208918e-03
3.194968393760e-03
2.831556800728e-03
2.708824037533e-03
2.375496384323e-03
3.686936591630e-03
3.078073203987e-03
3.851596386181e-03
3.667740788258e-03
5.044158210038e-03
5.215830386065e-03
3.998289725651e-03
3.853491964182e-03
1.131663708096e-03
1.005870343686e-03
3.457686078413e-03
5.011327749084e-03
5.115127262102e-03
5.250667570774e-03
5.084339547061e-03
5.085185550635e-03
2.466333230067e-03
3.777777636612e-03
9.588302078742e-04
3.912004250684e-03
8.314503266492e-04
4.475699055473e-03
4.989278594651e-03
5.157849786265e-03
5.214381496867e-03
3.266010047436e-03
4.041180497852e-03
3.878621153168e-03
3.070483235828e-03
2.913482248638e-03
3.035157386404e-03
2.755770959431e-03
2.184615498058e-03
2.013559352505e-03
5.319773126116e-03
5.255640298353e-03
5.321605394694e-03
5.197016645099e-03
5.342046142709e-03
5.180952194182e-03
1.777196002727e-03
2.427249311879e-03
5.314454420742e-03
3.225902650504e-03
5.312357786980e-03
5.147322410379e-03
6.540445478406e-04
7.723794913411e-04
5.277227190096e-03
1.587049601255e-03
1.745337399366e-03
1.421339300996e-03
5.610035015994e-03
3.257775872683e-03
5.289370763037e-03
2.995256057925e-03
5.420258365801e-03
4.174507003320e-03
2.750543209626e-03
4.785821545599e-03
5.111095174845e-03
5.457139877325e-03
3.797889722827e-03
3.646479732755e-03
3.931549897695e-03
1.164427047641e-03
8.448239735480e-04
5.077361997568e-03
2.130717764018e-03
2.299994958429e-03
1.365911109574e-03
1.662041853713e-03
3.380077755549e-03
3.249013876935e-03
4.605823304079e-03
4.769919328613e-03
4.276226867883e-03
4.169358572453e-03
3.867935193715e-03
3.737504250769e-03
5.341787835815e-03
5.553309217008e-03
2.353647089942e-03
2.227016294383e-03
2.307076216506e-03
5.450349556697e-03
5.463341176944e-03
5.325739410321e-03
7.148670898350e-04
8.870883348093e-04
1.101873869960e-03
9.316626042025e-04
5.373764850267e-03
5.221517258001e-03
5.572702457976e-03
1.582372335378e-03
4.632172669378e-03
5.375893312072e-03
5.254154539084e-03
5.559534277686e-03
5.076810545238e-03
5.365925183894e-03
5.378240200423e-03
5.392140300883e-04
5.334646512646e-03
3.675752576569e-03
3.994140177194e-04
3.535833562514e-03
3.716995656290e-03
3.370679194070e-03
1.282169154075e-03
3.567296707678e-03
3.765939256375e-03
5.126327859221e-04
5.605887865963e-03
5.560267422025e-04
6.660332016854e-04
5.449756143397e-03
5.274590684749e-03
5.572244234080e-03
5.392478454778e-03
5.099677131758e-03
5.238383322142e-03
3.509567093749e-03
5.572364392840e-03
5.374148307929e-03
5.737141131835e-03
2.638726436383e-03
2.039901378839e-03
1.905448348708e-03
1.617406521166e-03
5.530794330127e-03
5.348359015461e-03
4.829734702657e-03
4.521447046327e-03
3.557349194756e-03
3.532569652196e-03
3.813584889458e-03
3.767894522616e-03
4.058668074403e-03
4.012436085661e-03
4.295379223318e-03
5.556472121404e-03
1.300890945793e-03
2.946721722792e-03
5.471988497703e-03
5.293800497184e-03
2.587723201717e-03
2.314665718403e-03
5.537328889683e-03
2.406283520918e-03
5.792762283983e-03
1.858040090612e-04
4.857765212982e-04
2.573038789786e-03
2.873030274745e-03
2.199216706967e-03
2.091680435174e-03
4.476442988489e-03
7.504877515353e-04
1.263024816417e-03
4.334362747608e-03
9.849535248275e-04
4.679903303412e-03
2.540562741112e-03
3.118474233540e-03
1.542099058054e-03
2.168158947901e-03
3.802386178974e-03
3.549362578402e-03
3.391116114852e-03
2.670946485909e-03
2.260803135557e-03
1.949223813238e-03
3.605674145861e-03
4.919767447334e-03
5.053137848748e-03
5.341032503505e-03
5.187217989567e-03
4.888560595270e-03
5.017653317247e-03
5.314535410036e-03
5.156798542278e-03
5.508315270460e-03
5.286399283860e-03
4.980351695302e-03
5.106165886697e-03
5.394021959470e-03
4.807746362982e-03
5.628111934766e-03
2.871243858978e-03
6.965101933152e-04
6.551789095587e-04
3.282360146456e-03
5.809860564826e-03
5.821157866103e-03
2.082528349660e-03
5.819524766679e-03
3.515099545658e-03
1.460932159611e-03
5.821354656771e-03
4.753391499877e-03
4.585238946775e-03
4.452711673430e-03
5.831503303158e-03
4.073161563167e-03
5.837134571400e-03
3.985700881929e-03
3.851791908228e-03
3.554575317505e-03
4.847344029507e-03
5.817888275316e-03
5.575635814432e-03
5.571525256645e-03
5.311966086722e-03
5.819541179728e-03
5.830698806893e-03
5.838402623043e-03
1.930986719212e-03
2.101024040918e-03
2.394475490464e-03
2.266384359489e-03
1.970817861414e-03
2.136867911929e-03
2.431134490451e-03
2.006483688020e-03
5.062450549600e-03
5.830124137920e-03
3.970119493304e-03
3.835301643933e-03
3.534841884466e-03
2.946573758729e-03
3.117318954907e-03
3.419825569632e-03
2.776365598311e-03
4.367919564161e-03
5.827346570942e-03
3.906600699280e-03
2.984402664609e-03
3.276820545210e-03
3.539493379070e-03
3.549133742473e-03
3.824596042644e-03
3.567726925698e-03
3.513236360802e-03
3.646056828441e-03
3.479442829320e-03
3.776440321699e-03
3.600754084134e-03
3.319682840169e-03
3.899235541114e-03
3.712790048005e-03
3.270946734921e-03
2.113632266740e-04
4.663590485079e-04
4.566049970039e-04
7.156745567247e-04
7.373279452377e-04
1.003154234088e-03
9.722585000682e-04
4.717549759512e-04
2.060508248568e-04
4.540770013058e-04
2.016183866916e-04
4.467968440683e-04
7.550412036772e-04
1.182852220765e-03
5.788845613533e-03
2.859709310104e-03
2.724978007808e-03
2.413348020450e-03
2.580932184492e-03
2.979254934651e-03
2.254988964791e-03
2.151777952318e-03
2.124248935492e-04
4.645380525494e-04
4.620287622045e-04
7.358870940255e-04
7.228556758076e-04
4.637229493946e-04
4.638167508819e-04
2.058552859172e-04
4.611112548755e-04
7.280621305049e-04
1.906731245643e-04
4.704546691336e-03
4.866377932286e-03
5.817051415440e-03
3.306461396406e-03
2.060812032613e-04
5.781234699132e-03
5.822288119502e-03
5.823020880709e-03
5.305314190989e-03
5.454685450902e-03
5.787205338867e-03
1.904164271810e-03
5.481003932717e-03
5.244910374535e-03
1.337919885917e-03
1.840104844977e-03
4.380249884781e-03
4.023192351168e-03
5.022936148851e-03
4.114296708411e-03
4.760794110996e-03
5.555554324813e-03
1.179594138024e-03
4.131571153262e-03
4.020912679793e-03
4.773210184270e-03
1.997971753623e-03
3.186209854797e-03
1.264320056221e-03
5.581499467917e-03
3.319123411055e-03
3.366608306896e-03
2.641689808122e-03
2.077782102881e-03
1.716997042932e-03
3.042088607286e-03
3.155408692379e-03
4.538280633475e-03
4.941818270038e-03
2.600596271960e-04
4.708539861147e-03
3.760089428882e-03
4.244105085551e-03
4.715328609436e-03
1.167410736667e-03
4.880974533881e-03
5.403313920794e-03
3.898336749169e-03
9.671126416541e-04
3.824252090179e-03
5.351558397039e-03
4.786917829570e-03
1.824211420534e-03
3.480609807162e-03
3.243878701939e-03
2.980785244645e-03
5.375575519212e-03
3.585995865997e-03
4.980015277352e-03
4.076017659109e-03
1.959475074490e-03
4.975844888606e-03
3.389984283037e-03
5.185084528177e-03
4.569389381663e-03
2.760527645323e-03
4.981119205122e-03
3.402542523838e-03
4.886475886782e-03
3.158193069385e-03
3.984904577625e-03
4.346595079122e-03
3.785347613028e-03
4.212795144997e-03
4.843183184598e-03
1.250416126476e-03
2.458873987470e-03
4.209667670053e-03
5.115121627223e-03
5.486043343848e-03
2.956453768341e-03
4.801040750307e-03
5.276018678210e-03
3.287319671934e-03
1.360173557846e-03
1.054118268605e-03
2.172491032492e-03
3.423285296841e-03
3.589532674148e-03
5.552240847616e-03
4.931191158355e-03
4.613419327886e-03
5.464000382780e-04
3.101627176124e-03
5.063754079328e-03
3.609293720743e-03
5.009794558603e-03
3.416052821844e-03
5.575482653537e-03
2.475536180774e-03
5.206362114330e-03
4.647615435026e-03
2.244695150429e-03
3.268136202907e-03
5.555008699614e-03
4.952886856145e-03
4.075675641162e-03
3.440761170649e-03
2.670689667684e-03
3.721275175177e-03
4.148714793035e-03
5.835319629331e-03
5.106135759620e-03
4.284472671237e-03
3.550391241370e-03
4.312448323242e-03
7.156855192345e-04
2.792869111198e-03
3.682084945283e-03
2.301558692687e-03
3.569870679035e-03
5.507448749153e-03
3.814302881920e-03
2.595277141504e-03
3.945212643466e-03
2.359824458181e-03
4.418520852231e-03
4.072359630917e-03
4.440337999663e-03
7.757686492746e-04
4.203718467632e-03
5.137853672774e-03
2.428401079217e-03
3.700926420415e-03
4.718919712422e-03
2.045517196664e-03
4.001751556342e-03
4.734200010830e-03
4.335389309684e-03
3.717467635180e-03
4.306468150559e-03
2.158315669710e-03
1.778111948175e-03
1.480789573342e-03
2.723576269686e-03
4.901358873080e-03
9.907929562043e-04
4.678560104240e-03
1.061568277770e-03
2.558752785224e-03
4.777870338073e-03
4.115757970203e-03
2.685651994210e-03
1.661993244650e-03
2.519680303368e-03
4.012449715584e-03
2.645863061595e-03
2.477781824869e-03
5.552773111685e-03
2.601556434606e-03
5.832588277671e-03
5.807498199141e-03
3.510356051034e-03
1.737451315662e-03
2.405479085723e-04
1.829108936978e-03
2.134121346790e-03
4.639057668376e-03
3.513173410346e-03
1.958554503757e-03
5.579740788868e-03
5.830554327362e-03
4.549382429434e-03
5.128190593651e-03
4.477241356342e-03
5.275457844279e-03
3.249070074697e-03
4.477567605621e-04
4.366937944895e-03
1.414652943865e-03
1.454830351756e-03
1.141526190888e-03
2.071482774289e-03
7.048676555722e-04
1.168371653297e-03
5.554008919411e-03
3.515193931760e-03
4.930134979137e-03
8.572356047718e-04
5.572156000341e-03
5.569776879399e-03
5.838339516943e-03
5.230953075188e-03
8.277135440665e-04
3.767849181542e-03
5.583236268412e-03
4.792801184414e-03
5.849741729017e-03
3.467504393821e-03
5.585086652784e-03
1.085481836247e-03
5.581941862217e-03
4.937207249790e-03
3.891365713394e-03
3.752927955089e-03
5.593723576573e-03
5.582903556172e-03
6.530334131599e-04
4.532821262706e-03
2.586505146794e-03
4.309456059287e-04
5.577341518437e-03
5.218037136216e-03
5.584899765061e-03
7.371716874997e-04
4.403063957911e-04
5.630357557198e-03
5.612012503027e-03
1.230585207076e-03
5.884366405666e-03
4.092504687394e-04
3.203199811466e-03
4.370733977465e-04
5.843994283019e-03
5.604234858726e-03
2.845335710462e-03
3.286444788878e-03
1.873211432721e-03
5.369777350956e-03
6.577588307219e-04
5.641946929749e-03
5.644321122624e-03
5.639466704751e-03
5.898898139880e-03
4.211607310232e-04
5.652386425481e-03
5.366048530729e-03
3.253953958084e-03
5.587679770306e-03
2.309938481824e-03
9.687550335973e-04
5.854893632795e-03
1.859115235788e-04
3.234858844656e-03
5.866847427828e-03
9.109470946294e-04
3.727440323860e-03
5.623149802079e-03
3.507013142730e-03
5.092976750137e-03
8.975669244277e-04
1.659950822664e-04
4.270563646727e-03
5.623311015091e-03
5.659663736694e-03
4.061400799491e-03
8.220481444570e-04
5.453937277557e-03
3.071062049363e-03
5.407469273276e-03
5.377966207611e-03
2.102243503153e-04
3.774256867795e-03
4.259532598859e-04
5.646002650816e-03
3.210355763876e-03
9.970413582044e-04
1.031318664959e-03
1.287275284106e-03
1.374254474633e-03
1.593862915393e-03
1.630621312590e-03
1.904403431918e-03
1.978503866699e-03
2.215256382710e-03
2.237857692827e-03
2.521729557575e-03
2.586604075054e-03
2.833800295395e-03
2.849139881866e-03

SCALARS node_materi_plasti_phimob float
LOOKUP_TABLE default
1.826510843378e+01
1.432931035520e+01
2.056448349783e+01
1.992366529189e+01
-3.160824803893e+01
-6.447330740206e+00
3.814545756702e+00
9.779240653516e+00
1.326840343339e+01
1.540227237825e+01
1.692991782824e+01
1.806461849437e+01
1.888590960774e+01
1.953516788761e+01
2.004702694719e+01
2.031849461291e+01
2.047102415607e+01
2.064420790073e+01
2.073128983441e+01
2.076194267430e+01
2.075906018047e+01
2.072112249669e+01
2.065113115695e+01
1.993760013235e+01
1.993285421202e+01
1.993595573289e+01
1.993910014607e+01
1.993083752988e+01
1.993807536586e+01
1.993537905533e+01
1.994431536595e+01
1.995367128635e+01
1.996165990437e+01
1.995768604915e+01
1.997411215147e+01
1.998077705899e+01
1.999867319395e+01
2.000207807374e+01
2.001909975609e+01
2.003566233573e+01
2.005761643349e+01
2.009516548752e+01
2.013081749394e+01
2.016178601015e+01
2.018716104938e+01
2.022495649680e+01
2.026409463768e+01
2.030968255833e+01
2.034098421657e+01
2.040762164637e+01
2.042202313061e+01
2.047231918714e+01
2.048725943949e+01
2.053176030290e+01
2.053555764595e+01
2.054537405555e+01
2.055818843366e+01
2.056429902404e+01
2.057621133176e+01
2.057031040978e+01
2.058038747547e+01
2.057106237714e+01
2.058324128018e+01
2.057546968754e+01
2.056097951374e+01
2.055524810374e+01
2.058641496686e+01
2.055011726593e+01
2.056660441469e+01
2.055678445948e+01
2.055611623647e+01
2.056146638939e+01
1.549241449896e+01
1.643367405248e+01
1.717029603486e+01
1.776961471017e+01
1.828989053159e+01
1.872329241510e+01
1.911013589469e+01
1.944660973907e+01
1.974742238884e+01
-4.292574720413e+01
1.402222070378e+01
-2.191886335408e+01
-1.750333859520e+01
-3.062918350225e+01
-3.032733293145e+01
-8.337586864916e+00
1.585982972326e+00
6.834762536489e+00
1.009228464663e+01
1.231466054579e+01
1.911609760576e+01
-3.358940022033e+01
-8.883588218068e+00
1.709046116550e+00
7.160841753685e+00
1.048054379815e+01
1.266250038742e+01
1.411444194570e+01
1.417742818073e+01
1.418107261121e+01
1.415342703561e+01
1.430138326911e+01
1.413948233232e+01
1.409621838949e+01
1.409287903771e+01
1.410542200266e+01
1.407758569202e+01
1.403607651549e+01
1.400611604279e+01
1.397574768017e+01
1.397343931115e+01
-4.580349326866e+01
-4.319344977172e+01
-4.314676268994e+01
-4.544789522499e+01
-4.852034504364e+01
-5.095950847080e+01
-5.364224988923e+01
-5.623654028476e+01
-5.837992115749e+01
-5.968464896552e+01
-5.976650050301e+01
-5.799537881113e+01
-5.892071369400e+01
-6.134468158773e+01
-6.090999985599e+01
-6.000675110057e+01
-5.989135997049e+01
-9.600865205975e+00
4.023227859419e+01
4.277087784598e+01
-1.596320972067e+01
-5.806461146911e+00
4.090813856463e+01
4.167682317922e+01
-6.181523274986e+00
-5.465094407501e+01
-5.480111470713e+01
-5.491792108561e+01
-5.504418212129e+01
-5.512273790484e+01
-5.515570868173e+01
-5.517477931988e+01
-5.519076708969e+01
-5.520408701063e+01
-5.521592818235e+01
-5.522676635648e+01
-5.523812342254e+01
-5.525330722423e+01
-5.527872346743e+01
-5.532533674630e+01
-5.540803187984e+01
-5.556530427348e+01
-5.721834832904e+01
-8.824510947880e+00
-3.550951851216e+01
-3.629060402263e+01
-3.625948253346e+01
-3.620751713430e+01
-3.615803864505e+01
-3.611506240516e+01
-3.607540810303e+01
-3.603553000615e+01
-3.599271695004e+01
-3.594564787795e+01
-3.589368521768e+01
-3.583692143897e+01
-3.577320325268e+01
-3.570277932084e+01
-3.562032992635e+01
-3.552170837426e+01
-3.541215206380e+01
-3.532096079257e+01
-3.518775476862e+01
-1.093642115273e+01
-1.104298284287e+01
-1.207659049364e+01
-3.705412869233e+01
-1.032487194807e+01
-8.254082951224e+00
-9.081045122610e+00
-9.171786545731e+00
-9.173572872145e+00
-9.223389240252e+00
-9.258157418937e+00
-9.309357362662e+00
-9.354168100673e+00
-9.395688248034e+00
-9.432132004854e+00
-9.467916504895e+00
-9.501229752887e+00
-9.531209330992e+00
-9.558734920183e+00
-9.585589014248e+00
-9.613906388653e+00
-9.644249679578e+00
-9.674769236479e+00
-9.681596937115e+00
-9.450442091096e+00
-8.765112937196e+00
1.440029616244e+00
1.403417562483e+00
1.402491452215e+00
1.409538862053e+00
1.421098767973e+00
1.433208359119e+00
1.443679678299e+00
1.450774887974e+00
1.457000506628e+00
1.464552326217e+00
1.472032423618e+00
1.476391949976e+00
1.475759445885e+00
1.480164530152e+00
1.485762079578e+00
1.497194495319e+00
1.482126247988e+00
1.487290405380e+00
1.849216886424e+00
7.032783802802e-01
6.340723176249e+00
7.075903704102e+00
6.909669404074e+00
6.907867778638e+00
6.920387991108e+00
6.931815278733e+00
6.956909117385e+00
6.974263773256e+00
6.986098134968e+00
6.993227517041e+00
7.002453904000e+00
7.012914214117e+00
7.016260990547e+00
7.016664889041e+00
7.017401887204e+00
7.019393732578e+00
7.028028475355e+00
7.076376111548e+00
7.190455540322e+00
1.042627897708e+01
1.040354050390e+01
1.039310040760e+01
1.038817920516e+01
1.037747610660e+01
1.037059165896e+01
1.036231306731e+01
1.034781054388e+01
1.032466917919e+01
1.031289438408e+01
1.029598946974e+01
1.026997839790e+01
1.024501418108e+01
1.020684162475e+01
1.019744037833e+01
1.031085060611e+01
9.796780131969e+00
1.210876769535e+01
1.248878278088e+01
1.243060959905e+01
1.244858435435e+01
1.248052878796e+01
1.251005571973e+01
1.252558250205e+01
1.254659521342e+01
1.256672259470e+01
1.258375043104e+01
1.259602159324e+01
1.260758067835e+01
1.262477104499e+01
1.262723616920e+01
1.266132234077e+01
1.271776534952e+01
-3.113133889350e+01
-1.827345879930e+01
-1.904362293321e+01
-1.233969318394e+01
-1.449760042548e+01
-1.490308846049e+00
5.051106279327e+00
8.921821340916e+00
1.148187339200e+01
1.332176871522e+01
-1.157149063172e+01
2.061525345183e+01
-4.050343941889e+01
-3.678234529444e+01
2.067855080006e+01
-1.072091037997e+01
1.982278018473e+01
2.045152427786e+01
4.360090210262e+00
2.018298908474e+01
1.118195757892e+01
2.063809346503e+01
-4.159578307611e+01
1.999534637802e+01
1.453426083465e+01
1.629509695449e+01
2.056479586454e+01
1.988725828008e+01
1.984104544106e+01
1.981311350824e+01
1.978288585305e+01
1.982919349956e+01
1.509119037724e+01
1.519880811270e+01
1.532601220443e+01
1.803948107939e+01
2.063686059819e+01
-3.700369255385e+01
-3.974230466261e+01
2.076477616148e+01
1.526859214093e+01
7.195372331569e+00
1.981137901366e+01
2.034045514014e+01
2.007278676899e+01
2.055615243599e+01
2.065867534757e+01
-3.755047242319e+01
1.510890738263e+01
2.069320976068e+01
1.892274251725e+01
-4.005070916735e+01
1.852601652956e+01
1.985521999230e+01
-1.042059819914e+00
-9.980330451792e+00
8.462345171937e+00
1.307641765200e+01
-2.370801824448e+01
1.686795663783e+01
2.062649544508e+01
-1.560109460277e+01
1.958373514544e+01
1.507116488528e+01
1.549927257823e+01
1.594448344335e+01
1.636507412399e+01
1.676337865654e+01
1.707517071903e+01
1.670710592339e+01
1.736817519208e+01
1.703557795590e+01
1.741245742481e+01
1.765355935363e+01
1.735358535162e+01
1.792997669363e+01
1.766400411248e+01
1.704033540372e+01
1.739044867613e+01
1.670968128743e+01
1.710831796908e+01
1.772909135460e+01
1.749100065103e+01
1.682034419083e+01
1.725391634045e+01
1.653030530858e+01
1.702297388510e+01
1.624242176116e+01
1.680311951165e+01
1.748072869377e+01
1.731370805619e+01
1.660047996376e+01
1.716441670189e+01
1.642095131138e+01
1.709532377991e+01
1.771186312580e+01
1.784395255720e+01
1.726114607312e+01
1.811319776282e+01
1.759211504905e+01
1.841746381357e+01
1.795443282663e+01
1.871854551479e+01
1.906550471891e+01
1.930812505601e+01
1.897259243953e+01
1.948746354074e+01
1.976075192233e+01
1.987959781866e+01
2.010731103856e+01
2.017856202320e+01
1.990538508726e+01
2.016414949515e+01
2.040448713730e+01
2.036063659308e+01
2.004471900934e+01
2.022530453991e+01
2.051052315761e+01
2.036511386074e+01
1.998669012732e+01
2.013428948861e+01
2.047580617035e+01
2.025378421550e+01
1.980690328655e+01
1.995032508180e+01
2.035310712793e+01
2.007246039653e+01
2.043364133820e+01
1.955592941876e+01
1.971840654577e+01
1.906479419064e+01
1.928431700018e+01
1.833457337422e+01
1.847256091999e+01
1.815062606771e+01
1.876803067908e+01
1.948355515739e+01
1.777550202721e+01
1.816173242885e+01
1.695945392183e+01
1.695624176194e+01
1.805465146864e+01
1.745773945010e+01
1.600368273846e+01
1.524958086911e+01
1.389238755726e+01
1.713190142558e+01
1.773948111647e+01
1.746904368459e+01
1.804115591989e+01
1.780594697685e+01
1.485075301026e+01
1.818996748586e+01
1.826302376833e+01
1.600785506311e+01
1.571365932780e+01
1.997227757698e+01
1.849756328168e+01
1.788940663684e+01
1.881023874480e+01
2.062898456058e+01
2.067855701531e+01
2.080857347176e+01
2.083430205735e+01
2.091421308945e+01
2.092141259372e+01
2.084819339997e+01
2.091789590079e+01
2.085274542202e+01
2.096243098249e+01
2.095916821825e+01
2.090501994833e+01
2.084934500356e+01
2.088376965455e+01
2.083914842315e+01
2.076927215851e+01
2.077408159345e+01
2.066582584735e+01
2.027797540568e+01
2.014255707835e+01
2.040881719049e+01
2.028137881323e+01
2.050844502356e+01
2.039433751523e+01
2.058231597814e+01
2.067604906741e+01
1.819939291262e+01
1.912314204650e+01
1.853577578572e+01
1.861056267247e+01
1.793034889241e+01
1.783772324206e+01
1.701384955123e+01
1.657674977584e+01
1.738397223486e+01
1.559311460216e+01
1.649527551425e+01
1.398713617179e+01
1.511725473273e+01
1.790034545717e+01
2.014241634175e+01
2.027411325933e+01
2.000196255326e+01
1.274350608256e+01
2.082387754005e+01
2.097536903809e+01
2.097148911623e+01
2.071710017325e+01
1.226413079562e+01
1.548480511463e+01
1.587060732461e+01
1.832055791687e+01
1.810515535916e+01
2.096186927766e+01
1.347452023433e+01
2.093725023508e+01
1.247102971045e+01
2.077287724811e+01
2.080780606090e+01
2.074117011982e+01
2.015828643642e+01
1.987311586833e+01
1.719605751466e+01
1.603293845682e+01
1.329836708194e+01
1.448991733735e+01
1.678026269611e+01
1.539837957045e+01
1.238588700617e+01
1.366497011224e+01
1.617987569292e+01
1.472207036623e+01
1.140106903790e+01
1.289695159628e+01
2.082996156338e+01
9.577239887485e+00
1.629940577109e+01
2.095170702116e+01
2.062967198736e+01
1.858020983911e+01
1.838400856935e+01
1.787902543894e+01
1.818086272775e+01
1.864544494396e+01
1.845714986190e+01
1.796552235526e+01
1.825591045305e+01
1.773080100208e+01
1.804156998248e+01
1.852222724520e+01
1.832644982271e+01
1.781587869408e+01
1.811746607264e+01
1.757073154226e+01
1.788695267826e+01
1.839201142972e+01
1.027020787534e+01
2.079539185187e+01
2.080939148691e+01
1.832914195608e+01
1.908146357185e+01
1.948135703677e+01
1.965493897196e+01
1.817697946812e+01
1.864827631854e+01
1.393478552669e+01
1.423534403469e+01
1.876955672654e+01
2.077311070513e+01
2.070519231757e+01
1.548998258975e+01
1.457508412626e+01
1.428029761588e+01
1.302219952498e+01
1.351809159370e+01
1.259672166092e+01
2.093881287414e+01
1.876921305203e+01
1.436189333474e+01
1.131482961688e+01
2.079954558733e+01
2.075596739973e+01
1.804268548689e+01
1.839357736545e+01
1.851964560997e+01
1.881576718424e+01
1.893078950216e+01
1.918215409321e+01
1.908906214257e+01
2.005498435916e+01
1.942173093595e+01
1.762159003478e+01
1.981908605960e+01
1.683824718795e+01
8.357856576543e+00
8.523955634605e+00
1.175133394556e+01
1.448311856363e+01
2.091839628912e+01
1.928914285637e+01
1.905332085309e+01
1.158983576648e+01
1.233477696079e+01
2.027842479322e+01
1.720010870484e+01
1.739183912511e+01
1.711279850763e+01
6.865847135883e+00
6.142864561031e+00
1.888592320703e+01
1.570641965006e+01
1.386619820396e+01
6.779502498821e+00
1.682476423097e+00
1.843371766455e+01
1.886386375630e+01
1.994160984668e+01
2.008094908618e+01
2.092531131850e+01
1.063468732650e+01
1.904581052289e+01
2.085935453686e+01
2.080856406970e+01
1.926976509596e+01
1.167878780360e+01
1.039551804396e+01
1.783129265851e+01
1.409576256232e+01
1.304520965816e+01
2.087089482297e+01
1.904984232706e+01
1.938614179689e+01
1.904907185044e+01
1.967290107304e+01
4.876080012820e+00
2.090076607452e+01
2.078156983446e+01
1.939502428244e+01
1.918465790157e+01
1.519715040124e+01
1.314795458607e+01
1.117910808819e+01
1.030090171558e+01
1.631075449903e+01
1.457474982116e+01
1.589137358263e+01
1.540253824934e+01
1.489266687845e+01
1.400971870394e+01
1.304245064740e+01
1.774583555625e+01
1.979714798828e+01
1.981726373011e+01
2.063535860890e+01
2.076718239529e+01
1.893966724072e+01
1.915890188587e+01
1.721401113847e+01
1.690573098621e+01
8.809603339942e+00
6.448138137758e+00
2.050067026399e+01
2.093178091524e+01
1.899564103195e+01
1.916618817734e+01
1.894965849867e+01
2.087044307819e+01
1.912016652554e+01
2.051013366057e+01
5.625649260857e+00
1.822722126470e+01
2.250347157394e+00
1.825631080319e+01
2.077919685212e+01
2.077814822651e+01
2.021064300790e+01
1.498937705594e+01
1.875326406369e+01
1.892462956353e+01
1.430344705610e+01
1.364754061266e+01
1.433496671177e+01
1.290758314740e+01
1.823094407485e+01
1.737100938523e+01
1.962529151940e+01
1.970469706807e+01
1.951955495118e+01
1.932092791810e+01
2.036365834841e+01
2.044366102597e+01
1.533281931343e+01
1.106875290520e+01
1.925551501412e+01
1.489021857155e+01
2.086117854323e+01
2.089696041264e+01
-4.866242939562e+00
-1.212706539650e-01
1.924411857603e+01
7.021389581537e+00
6.576157960034e+00
8.052373368443e+00
2.067387105855e+01
1.525040584526e+01
2.073367606051e+01
1.451248157695e+01
1.939944497523e+01
1.924667762092e+01
1.540455999942e+01
2.091441320574e+01
1.905151140661e+01
1.944247012802e+01
1.670364944246e+01
1.634745529190e+01
1.699795272479e+01
1.032860914075e+01
1.799912651404e+00
1.899696293755e+01
1.721116702923e+01
1.784291199618e+01
1.215363071131e+01
1.499194280924e+01
2.020360909833e+01
2.010938172598e+01
1.853694366893e+01
1.871329831582e+01
1.819807502114e+01
2.089305587165e+01
2.082234784912e+01
2.071638449340e+01
1.930680668071e+01
1.953147051462e+01
1.891466081069e+01
1.861014603055e+01
1.855443202257e+01
1.940634349877e+01
2.073145461256e+01
2.077273500195e+01
-1.983635724226e+00
3.255167891228e+00
6.747463428238e+00
3.850120459404e+00
1.932552317346e+01
1.912944280133e+01
1.954037807928e+01
1.391816887157e+01
1.943131945844e+01
2.080230881361e+01
2.082361299411e+01
2.077662529982e+01
1.998451198104e+01
2.018684362011e+01
1.993877470321e+01
-1.189285843979e+01
1.932614421983e+01
1.644370865492e+01
-2.048381301977e+01
1.607344730943e+01
1.657365664016e+01
1.560391549490e+01
1.098455836400e+01
1.609833111271e+01
1.657736931243e+01
-1.145518288562e+01
1.959041035557e+01
-9.172622485714e+00
-3.212047496665e+00
2.080511469078e+01
2.085002223879e+01
2.076897298518e+01
2.080450956634e+01
2.086946140878e+01
2.082669215077e+01
1.594536134483e+01
2.073125022657e+01
2.076960446149e+01
2.071233953469e+01
1.206652661758e+01
1.019327980924e+01
7.406303537731e+00
1.279886305871e+00
1.969537391175e+01
1.945450144956e+01
2.077528423263e+01
2.074535450716e+01
1.615734240855e+01
1.612457582489e+01
1.685342543003e+01
1.677088371066e+01
1.739657617196e+01
1.730552287308e+01
1.785641180910e+01
1.998565506939e+01
1.555410675385e+00
1.369393456442e+01
2.049969648101e+01
2.057788843062e+01
1.202355277857e+01
9.776612538128e+00
2.080690722119e+01
1.617822076349e+01
1.977553811248e+01
-3.767381636995e+01
-1.592512884647e+01
1.566771064461e+01
1.371889811948e+01
1.077458047959e+01
8.859299421515e+00
2.092442055389e+01
-5.295914263306e-01
8.172611230978e+00
1.790520039619e+01
7.077740116298e-01
2.075265617223e+01
1.738834438119e+01
1.526559632648e+01
1.185372554463e+01
1.257067107098e+01
1.668049761666e+01
1.593008609666e+01
1.544182422530e+01
1.829135630562e+01
9.972182498467e+00
5.942183493272e+00
1.636438917176e+01
1.872207759638e+01
1.891554453003e+01
1.929183172438e+01
1.910157455715e+01
1.868987628816e+01
1.889009984191e+01
1.928507606574e+01
1.909449915215e+01
1.952799879938e+01
1.929151168762e+01
1.888777503261e+01
1.909387758114e+01
1.944502059613e+01
1.867203504196e+01
2.044649513292e+01
1.654767125461e+01
-3.731703860182e+00
-6.570220011468e+00
1.564002254615e+01
1.986836704605e+01
1.984010134757e+01
1.700098740483e+01
2.002398385779e+01
1.587537611436e+01
1.438460925716e+01
2.012347580620e+01
1.847781793212e+01
1.821608006107e+01
1.798016996072e+01
1.983441353918e+01
1.729254254652e+01
2.038956357983e+01
1.998455895378e+01
1.960448009021e+01
1.935633546070e+01
1.866734203932e+01
2.060025785389e+01
2.066044680463e+01
2.069070999962e+01
2.073009736789e+01
2.064292580961e+01
1.994066294937e+01
1.998007833194e+01
1.735038566068e+01
1.824461147238e+01
1.918559896475e+01
1.887427009901e+01
1.777942100090e+01
1.848267713805e+01
1.928821328606e+01
1.799631665366e+01
1.911001726823e+01
2.066888029356e+01
2.089357379347e+01
2.085397466760e+01
2.070640173877e+01
1.966277401370e+01
1.999614227465e+01
2.035500462406e+01
1.927328113060e+01
1.871310933889e+01
2.066937537517e+01
2.068304677814e+01
1.986486507452e+01
1.510495468358e+01
1.594761968255e+01
1.593981798095e+01
1.669915133072e+01
1.604303552417e+01
2.029684083322e+01
2.038108665771e+01
2.019740661716e+01
2.044775045278e+01
2.027995182463e+01
1.998013959824e+01
2.049485577550e+01
2.035456684583e+01
1.513869947420e+01
-3.654918955826e+01
-1.359736913985e+01
-1.395869271995e+01
-1.391792945471e+00
-6.363988775953e-01
6.842552312139e+00
6.229374373297e+00
-1.385861761131e+01
-3.880799389870e+01
-1.398626291515e+01
-3.985773876176e+01
-1.430251846378e+01
-2.065489964134e-01
9.639846584405e+00
2.065434644957e+01
1.924226109379e+01
1.896740271688e+01
1.813560362067e+01
1.863038832291e+01
1.951839789765e+01
1.758082352051e+01
1.716634221229e+01
-3.973960676576e+01
-1.255842709527e+01
-1.440468864521e+01
1.059610487701e-01
-1.497291410810e-01
-1.248390810899e+01
-1.260026893269e+01
-4.012026829813e+01
-1.299468278695e+01
6.916084325797e-02
-4.127578682061e+01
1.851829625782e+01
1.875499797239e+01
2.068466377405e+01
1.530252074085e+01
-4.025292729771e+01
1.976453979979e+01
1.980631695466e+01
1.980999328198e+01
2.073962287931e+01
2.070886499308e+01
1.977751442465e+01
1.637643723205e+01
1.944948098858e+01
1.920711224801e+01
1.273080359580e+01
1.631030751480e+01
2.072393810579e+01
2.075866578456e+01
2.080963888105e+01
2.069020237879e+01
2.085726754655e+01
2.074760672279e+01
9.632351223207e+00
1.747855919947e+01
1.729367812486e+01
1.858722278065e+01
1.665541576082e+01
1.984131262746e+01
1.078868024540e+01
1.985124603742e+01
1.545954788192e+01
2.056269644304e+01
1.903178831025e+01
1.733354094036e+01
1.561110084407e+01
1.634368398886e+01
2.018005690085e+01
2.095485076748e+01
1.882850508561e+01
-3.597740862537e+01
2.096465634673e+01
2.071504084262e+01
1.764665176343e+01
2.048271961014e+01
9.716960395249e+00
1.870899731499e+01
1.935659132627e+01
1.690080833955e+01
5.648038047097e+00
1.680698918083e+01
2.083936995023e+01
1.852504103488e+01
1.565865778695e+01
2.037132773082e+01
1.596657298778e+01
1.382938568943e+01
1.935406530242e+01
1.854946679740e+01
2.073596463632e+01
2.060903492277e+01
1.636234978593e+01
2.091462844721e+01
1.957624415938e+01
1.910514071881e+01
1.865658444643e+01
1.956660056170e+01
1.882255769872e+01
2.062247078501e+01
2.037953731390e+01
1.500128692656e+01
1.766213898158e+01
1.796469727712e+01
1.777260950948e+01
2.065628413858e+01
2.094592781238e+01
1.173252005741e+01
1.419870250341e+01
1.755403373023e+01
1.950096373835e+01
1.944973766468e+01
1.490908908372e+01
2.090797642014e+01
1.920615456228e+01
2.027396154802e+01
1.195025036642e+01
7.878044187527e+00
1.844970069365e+01
1.880201504425e+01
2.055554528522e+01
1.952697067839e+01
2.087045728819e+01
2.095397092125e+01
-1.588672288228e+01
1.437079745186e+01
2.083285690163e+01
2.057002887093e+01
2.054289066127e+01
2.006801232022e+01
1.990631173485e+01
1.101169763577e+01
2.080891383255e+01
2.087733185872e+01
1.667441509671e+01
1.527590103272e+01
2.073187938492e+01
2.086158447371e+01
1.828039265847e+01
2.057374778574e+01
1.218314374456e+01
2.059952761872e+01
1.785463256834e+01
1.983393712240e+01
2.079624586191e+01
1.767750717012e+01
2.042174500514e+01
1.966085956292e+01
-2.407318979527e-01
1.293577675495e+01
2.048286537577e+01
1.891983773139e+01
2.070023855729e+01
2.033941658284e+01
2.053752235775e+01
1.951042041049e+01
2.058301416570e+01
9.929136712641e+00
1.794019044533e+01
2.061299356580e+01
1.836372064881e+01
6.478396488095e-01
1.866623642560e+01
2.075603760040e+01
1.882572347793e+01
2.079177519082e+01
1.844713616225e+01
6.611410463359e+00
2.089441546305e+01
1.880290317527e+01
1.911471887820e+01
1.913169482743e+01
2.094640411260e+01
8.369677632357e+00
1.571564960849e+01
1.334660213983e+01
1.981200229273e+01
1.895588635292e+01
6.588175327901e+00
1.843527703135e+01
7.494505048162e+00
1.957730164423e+01
1.976969505952e+01
1.751177751414e+01
1.980580802772e+01
1.454787054990e+01
1.943387501913e+01
1.941480820884e+01
1.963927970909e+01
1.916482679258e+01
1.953958764386e+01
1.937405153525e+01
1.981407264689e+01
2.063575501550e+01
1.604335226781e+01
1.017293012659e+00
-3.408007712645e+01
5.129572162896e+00
1.779591992772e+01
1.846013676442e+01
1.607196902320e+01
1.685739977663e+01
1.963934244875e+01
2.026733553885e+01
1.828961408263e+01
2.065165657380e+01
1.952914912131e+01
1.926076260052e+01
1.515951403510e+01
-1.417464938948e+01
2.069512885986e+01
-8.539078141031e+00
5.629985886932e-01
2.039930082008e+00
1.690621191607e+01
-1.568937340799e+00
-1.316317500722e+01
2.060550526092e+01
1.596991038305e+01
1.969895429930e+01
-9.846864569585e+00
1.954344708398e+01
2.020090459141e+01
2.066967102156e+01
1.994974740110e+01
-2.709470420944e+00
1.657833711054e+01
1.980544753601e+01
1.863659807609e+01
2.063053138370e+01
1.580847439222e+01
1.958368178272e+01
8.886531416409e+00
1.958991715677e+01
1.889882132221e+01
1.701088431946e+01
1.651289299147e+01
2.067280215099e+01
1.959970803034e+01
-8.471546902822e+00
1.825129985009e+01
1.870668959571e+01
-1.726093489299e+01
2.078223578933e+01
1.927331427411e+01
2.071613356279e+01
-1.109380997540e-01
-1.547759187488e+01
2.077412195551e+01
1.973763294755e+01
1.099716639402e+01
1.986495089864e+01
-2.096442773061e+01
1.499844994908e+01
-1.477562731823e+01
2.062279497912e+01
1.958971714860e+01
1.925161408135e+01
1.509705725490e+01
1.585215142116e+01
1.974818764150e+01
-3.169179136775e+00
1.962579240757e+01
2.075373672059e+01
1.962023603094e+01
2.052946239607e+01
-1.911646841473e+01
2.016673031260e+01
2.077545376076e+01
1.517581131976e+01
1.958610965678e+01
1.781363915707e+01
6.138993702143e+00
1.984295436459e+01
-1.475758109561e+01
1.515119097918e+01
2.061158592886e+01
5.243832240413e+00
1.664990212957e+01
1.971741077318e+01
2.017524195510e+01
1.905444743023e+01
4.577361687016e+00
-3.770318083002e+01
1.781378872868e+01
2.034102294855e+01
1.963351432023e+01
1.738609620128e+01
1.000133616367e+00
1.954306843335e+01
1.960502444250e+01
1.965100189872e+01
2.066555334258e+01
-3.473585958536e+01
2.041285455018e+01
-1.638044837900e+01
2.073769531639e+01
1.983347306731e+01
2.274721381399e+01
-1.507142755377e+01
-1.809794002480e+01
-1.658345002158e+01
-2.871101260536e+00
-2.479145682253e+00
4.326514895163e+00
5.129775379008e+00
8.492999788865e+00
9.001553005499e+00
1.119093142276e+01
1.178896913541e+01
1.311079983077e+01
1.353220324143e+01

SCALARS node_materi_stress_average_a_sig float
LOOKUP_TABLE default
-5.389976704909e+00
-8.658065886757e+01
-2.358755893607e+02
-2.015222291471e+02
-1.262348297462e+01
-2.414580530811e+01
-3.503023725867e+01
-4.750349124842e+01
-5.942098220334e+01
-7.129735746291e+01
-8.314208353881e+01
-9.497515263580e+01
-1.068639744906e+02
-1.188617941275e+02
-1.311798233064e+02
-1.433209521449e+02
-1.544534361966e+02
-1.666121462372e+02
-1.791928970446e+02
-1.914627537278e+02
-2.038670600806e+02
-2.164297435822e+02
-2.284939805598e+02
-2.022031566714e+02
-2.015171829940e+02
-2.017037508285e+02
-2.017019260922e+02
-2.013757611542e+02
-2.018416352654e+02
-2.021466519130e+02
-2.019837064975e+02
-2.026198782422e+02
-2.027388150379e+02
-2.026036472555e+02
-2.032158566032e+02
-2.039183961659e+02
-2.039976212418e+02
-2.043827832802e+02
-2.044287665980e+02
-2.050040478683e+02
-2.063354533670e+02
-2.074056630675e+02
-2.085762317545e+02
-2.095745876559e+02
-2.107325623545e+02
-2.119479224306e+02
-2.132803341533e+02
-2.148603571326e+02
-2.165539419094e+02
-2.180675800083e+02
-2.197485359771e+02
-2.210993663715e+02
-2.230607745740e+02
-2.243279150911e+02
-2.251449349370e+02
-2.265351505379e+02
-2.279534942572e+02
-2.291967272046e+02
-2.302655513371e+02
-2.313188159742e+02
-2.319669144833e+02
-2.325833415453e+02
-2.329495866854e+02
-2.337616713176e+02
-2.348621379639e+02
-2.354398658636e+02
-2.341469829208e+02
-2.358323450998e+02
-2.354702078594e+02
-2.359870904597e+02
-2.365140521504e+02
-2.365013241890e+02
-9.893435002057e+01
-1.110121461008e+02
-1.230448025210e+02
-1.347955324282e+02
-1.467784072892e+02
-1.588803436430e+02
-1.707124168206e+02
-1.824461060531e+02
-1.945413234305e+02
-8.079369128032e+00
-8.865847046570e+01
-1.153125909113e+01
-1.254185535717e+01
-1.055696723575e+01
-1.406456043231e+01
-2.684563514582e+01
-3.956289146258e+01
-5.184023387095e+01
-6.401280481764e+01
-7.608835150175e+01
-6.102230207699e+00
-1.372195833859e+01
-2.575588478266e+01
-3.784771554173e+01
-4.997238048112e+01
-6.209048889667e+01
-7.415750188908e+01
-8.506991687753e+01
-8.586565870250e+01
-8.588449564939e+01
-8.578947272877e+01
-8.751234309315e+01
-8.609436978308e+01
-8.610672077940e+01
-8.628285302439e+01
-8.661319798117e+01
-8.668093909146e+01
-8.684180770369e+01
-8.696669254865e+01
-8.727545546015e+01
-8.773080326428e+01
-8.392164188001e+00
-9.352166419283e+00
-9.187364198737e+00
-8.804868613355e+00
-8.747193693467e+00
-8.524741156022e+00
-8.076656797542e+00
-7.628837007255e+00
-7.233268597224e+00
-6.904454732943e+00
-6.618718696288e+00
-6.699053186835e+00
-6.214726381544e+00
-5.529062025389e+00
-5.365341677862e+00
-5.329174487931e+00
-5.204231683749e+00
-4.907363563098e+00
-4.581385246587e+00
-3.467859298008e+00
-5.069513839781e+00
-4.976936096750e+00
-4.643974734461e+00
-4.702251097046e+00
-4.810971165883e+00
-5.024303127140e+00
-5.247528635895e+00
-5.492158688758e+00
-5.730370958676e+00
-5.962125292647e+00
-6.178329490926e+00
-6.377476729633e+00
-6.557439488415e+00
-6.718554341230e+00
-6.861090699364e+00
-6.985564146480e+00
-7.092291012082e+00
-7.180964475204e+00
-7.250090692298e+00
-7.296004457499e+00
-7.312466605045e+00
-7.288531750069e+00
-7.021380296539e+00
-5.968854525517e+00
-1.365445481695e+01
-1.348270079431e+01
-1.342858926531e+01
-1.339970719763e+01
-1.336540720917e+01
-1.331920987750e+01
-1.326013034546e+01
-1.318852761985e+01
-1.310461989302e+01
-1.300860660076e+01
-1.290089571687e+01
-1.278233911233e+01
-1.265498857353e+01
-1.252035116912e+01
-1.238379813402e+01
-1.224889504706e+01
-1.213330457869e+01
-1.203669675627e+01
-1.201122924571e+01
-1.202609997998e+01
-1.226384744282e+01
-1.340313805032e+01
-1.163725619572e+01
-2.491633227778e+01
-2.673056192735e+01
-2.564971599567e+01
-2.534076387743e+01
-2.524087352543e+01
-2.515278010360e+01
-2.514273856416e+01
-2.514900725014e+01
-2.518233060443e+01
-2.522439034703e+01
-2.527483854227e+01
-2.532700841647e+01
-2.537837770822e+01
-2.542655381933e+01
-2.546992240745e+01
-2.550793616364e+01
-2.554009834289e+01
-2.556705055597e+01
-2.559259492395e+01
-2.562638451277e+01
-2.568555481534e+01
-2.573658822842e+01
-3.783547650215e+01
-3.780503615008e+01
-3.778324519546e+01
-3.776967479607e+01
-3.776067971618e+01
-3.775228829738e+01
-3.774273473748e+01
-3.773242000783e+01
-3.772473157196e+01
-3.771914506719e+01
-3.771985288110e+01
-3.773017500884e+01
-3.775264111747e+01
-3.780502963884e+01
-3.787751734768e+01
-3.801118474466e+01
-3.815320620250e+01
-3.846900291574e+01
-3.951225575167e+01
-3.772504707730e+01
-5.017049519695e+01
-5.198039015277e+01
-5.100126401284e+01
-5.066246240105e+01
-5.050341585774e+01
-5.033448885408e+01
-5.024017336745e+01
-5.016255044472e+01
-5.010094793187e+01
-5.005715816190e+01
-5.002749655706e+01
-5.000303742027e+01
-4.998614279654e+01
-4.996954576393e+01
-4.995958783491e+01
-4.995303054147e+01
-4.995780792157e+01
-4.996668781315e+01
-4.997379564440e+01
-6.209672192559e+01
-6.209505176473e+01
-6.210140968396e+01
-6.212190152985e+01
-6.215195629572e+01
-6.218376330038e+01
-6.223259847495e+01
-6.227326863388e+01
-6.232430686273e+01
-6.240394150066e+01
-6.250365128517e+01
-6.262305690873e+01
-6.276651856607e+01
-6.291285899131e+01
-6.324213855451e+01
-6.425334986417e+01
-6.246260473183e+01
-7.454257216435e+01
-7.624599157740e+01
-7.534476384119e+01
-7.513068249317e+01
-7.496156679947e+01
-7.482113045079e+01
-7.466197912227e+01
-7.455665834079e+01
-7.454876736167e+01
-7.443900499115e+01
-7.437682713677e+01
-7.433080361315e+01
-7.429239283562e+01
-7.423332305791e+01
-7.427764774618e+01
-7.426761444937e+01
-9.551801265352e+00
-1.238866924164e+01
-1.234456510595e+01
-1.045977412477e+01
-2.219060070659e+01
-3.473656545318e+01
-4.705929323696e+01
-5.928065796584e+01
-7.137523309411e+01
-8.346005643121e+01
-1.629147996393e+01
-2.219154492912e+02
-1.191475597816e+01
-1.293194904509e+01
-2.268311597305e+02
-2.378173106956e+01
-1.254632105541e+02
-2.160607109987e+02
-4.543822634640e+01
-2.107095076195e+02
-6.983989640260e+01
-2.300872879753e+02
-1.059183723664e+01
-2.053982599843e+02
-9.394687235473e+01
-7.777913134523e+01
-1.585786319246e+02
-2.019371075933e+02
-1.995502489318e+02
-1.969808828787e+02
-1.964551218051e+02
-1.985175014045e+02
-9.874366564672e+01
-9.781074268967e+01
-9.827085457328e+01
-1.408943941854e+02
-2.302700007476e+02
-1.251036664600e+01
-1.065084489313e+01
-1.972100686178e+02
-9.656381838097e+01
-4.120973607622e+01
-1.986059241344e+02
-2.141925265394e+02
-2.078568580606e+02
-2.181958312376e+02
-2.245292461268e+02
-1.298706670924e+01
-9.780318837335e+01
-2.263026462758e+02
-1.644599424842e+02
-1.155400401520e+01
-1.009670230408e+02
-1.985421152061e+02
-3.527261463275e+01
-1.784004143153e+01
-5.763458963561e+01
-8.178922586442e+01
-1.305106638003e+01
-1.180442899166e+02
-2.326343539493e+02
-1.003062666528e+01
-1.878093870903e+02
-9.960584410546e+01
-1.049481588762e+02
-1.104250736819e+02
-1.166631119343e+02
-1.226856414212e+02
-1.283282727364e+02
-1.224203295453e+02
-1.341118886984e+02
-1.281634608557e+02
-1.345160987488e+02
-1.399083950841e+02
-1.339822700372e+02
-1.457414419291e+02
-1.398721153427e+02
-1.281445740260e+02
-1.340794831642e+02
-1.223364950119e+02
-1.283391846999e+02
-1.400841413049e+02
-1.344045810240e+02
-1.226129429314e+02
-1.287431284013e+02
-1.169431541006e+02
-1.231561397459e+02
-1.113103596724e+02
-1.176258227779e+02
-1.294213796542e+02
-1.239507123378e+02
-1.121668900835e+02
-1.185549494670e+02
-1.068028570571e+02
-1.132290726606e+02
-1.249262565410e+02
-1.196336216762e+02
-1.079518687457e+02
-1.143967084767e+02
-1.027552762780e+02
-1.092391679448e+02
-9.765186767386e+01
-1.040962401027e+02
-1.156018945332e+02
-1.104219171170e+02
-9.898949378053e+01
-1.052148979635e+02
-1.166550181382e+02
-1.113319889054e+02
-1.227979500977e+02
-1.173669714523e+02
-1.060311712989e+02
-1.119309656774e+02
-1.233197868291e+02
-1.177389062294e+02
-1.064629540981e+02
-1.121546033956e+02
-1.235156057241e+02
-1.178046444714e+02
-1.065233850022e+02
-1.120591090457e+02
-1.234885314329e+02
-1.175809161008e+02
-1.062215216911e+02
-1.116135967892e+02
-1.231403811050e+02
-1.170204441806e+02
-1.286911276683e+02
-1.054809865913e+02
-1.108021687456e+02
-9.921967312964e+01
-1.045139775877e+02
-1.312803019714e+02
-9.290192158910e+01
-8.781649275001e+01
-9.816902307934e+01
-1.098983630402e+02
-8.651175605805e+01
-9.176301019793e+01
-8.007285469913e+01
-9.086636110580e+01
-1.461585557374e+02
-8.530591832843e+01
-7.357565000623e+01
-6.840955137458e+01
-6.190230001723e+01
-1.288972008658e+02
-1.406394809777e+02
-1.346538872168e+02
-1.467472266932e+02
-1.410305232501e+02
-6.702684806734e+01
-1.517675841847e+02
-1.524820947711e+02
-1.108011658194e+02
-1.003350827486e+02
-1.282221614296e+02
-9.704742430625e+01
-9.058032460669e+01
-1.023499727398e+02
-1.348424352917e+02
-1.404788196535e+02
-1.466688481979e+02
-1.523654871349e+02
-1.585997063903e+02
-1.643457138677e+02
-1.580278071234e+02
-1.700552375004e+02
-1.636603770018e+02
-1.706229679717e+02
-1.647664508445e+02
-1.757285514630e+02
-1.692629644705e+02
-1.813741377464e+02
-1.748390268285e+02
-1.627403824885e+02
-1.682438393356e+02
-1.562158608970e+02
-1.343906658341e+02
-1.399068878177e+02
-1.460972748095e+02
-1.516890201063e+02
-1.579099913804e+02
-1.635514911942e+02
-1.697890957962e+02
-1.640852261275e+02
-1.515840832034e+02
-9.390755324957e+01
-8.766889599757e+01
-8.275740406371e+01
-7.651666323754e+01
-7.179641682235e+01
-6.557466276749e+01
-6.104050713127e+01
-6.703454066259e+01
-5.642976580999e+01
-6.217737312329e+01
-5.166990159968e+01
-5.713516860445e+01
-1.357053397056e+02
-1.572547553236e+02
-1.691811571405e+02
-1.627547098563e+02
-5.678589440847e+01
-1.803962544019e+02
-1.768494886124e+02
-1.708506061500e+02
-1.760262770024e+02
-5.543130395939e+01
-5.491914512330e+01
-5.909374672489e+01
-1.529074364786e+02
-1.472259638419e+02
-1.830390443014e+02
-6.053471591108e+01
-1.821595452934e+02
-4.614591967343e+01
-1.737373593107e+02
-1.859167919381e+02
-1.516858587947e+02
-1.747860303542e+02
-1.682144973103e+02
-6.786779380742e+01
-6.259481448393e+01
-5.209885536506e+01
-5.764490575766e+01
-6.812521642851e+01
-6.250754678324e+01
-5.185003190086e+01
-5.671618288873e+01
-6.766214810433e+01
-6.172182958723e+01
-5.069925296695e+01
-5.556834140857e+01
-1.925717481545e+02
-4.149935690685e+01
-1.164005431254e+02
-1.890034546891e+02
-1.816293604926e+02
-1.591237538896e+02
-1.534852851789e+02
-1.415135971012e+02
-1.478667051470e+02
-1.598146334221e+02
-1.542320371329e+02
-1.422482489566e+02
-1.486471629006e+02
-1.366376952760e+02
-1.430742461081e+02
-1.550700805817e+02
-1.495449445941e+02
-1.375247652400e+02
-1.440179843715e+02
-1.319640748625e+02
-1.384594184267e+02
-1.505404851152e+02
-4.928470017678e+01
-1.702328298698e+02
-1.823134641009e+02
-9.615521178330e+01
-1.075150518173e+02
-1.141397518956e+02
-1.195890250237e+02
-1.449371539881e+02
-1.570399008773e+02
-4.853226913213e+01
-5.231922294506e+01
-1.647710967869e+02
-1.792357562882e+02
-1.670977339576e+02
-9.500716870864e+01
-8.840066229170e+01
-8.308634263619e+01
-7.611518857631e+01
-8.175717172537e+01
-7.072836122587e+01
-1.587520568646e+02
-1.615353015808e+02
-6.331388256545e+01
-5.180495932297e+01
-1.914286609836e+02
-1.583000259272e+02
-1.411913763718e+02
-1.474686543850e+02
-1.529887667015e+02
-1.592690319647e+02
-1.647995865505e+02
-1.710365052166e+02
-1.655955772835e+02
-1.803391943063e+02
-1.773720887626e+02
-1.327542746388e+02
-1.507767214535e+02
-7.288027277471e+01
-4.397757428439e+01
-4.412807220302e+01
-5.383808372904e+01
-6.562901412200e+01
-1.952730637330e+02
-1.765568842143e+02
-1.702472284698e+02
-6.942393189494e+01
-7.525287289234e+01
-1.868386188215e+02
-1.291109644336e+02
-1.302613884385e+02
-1.245630325486e+02
-4.122251246879e+01
-3.986795470745e+01
-1.661824029856e+02
-6.325466523398e+01
-5.626641203535e+01
-3.612348282948e+01
-3.156362177728e+01
-1.513415869754e+02
-1.633615958786e+02
-1.260672418291e+02
-1.314644604185e+02
-1.892240656539e+02
-4.931094060622e+01
-1.691036044345e+02
-1.643830733865e+02
-1.524763754446e+02
-1.129114370048e+02
-4.181939685858e+01
-3.845816718605e+01
-7.875400473866e+01
-6.062774361985e+01
-5.894178443157e+01
-2.014523253392e+02
-1.716802982499e+02
-1.719820423103e+02
-1.600865034642e+02
-1.839056439348e+02
-3.819142695882e+01
-2.013980396796e+02
-1.847348554210e+02
-1.814904815197e+02
-1.757191180436e+02
-6.752853778666e+01
-6.061333028051e+01
-4.902425566750e+01
-5.336109614110e+01
-1.164288879364e+02
-7.224924021581e+01
-1.105434213061e+02
-1.046256610492e+02
-9.877776304031e+01
-8.736286791168e+01
-8.108434212307e+01
-8.119680191052e+01
-1.336142548928e+02
-1.206748418735e+02
-1.507735091135e+02
-1.409134314976e+02
-1.669639286125e+02
-1.734823833276e+02
-1.254649357751e+02
-1.198891738745e+02
-4.521325622637e+01
-4.030092978815e+01
-1.342456463084e+02
-1.948694591771e+02
-1.708414114332e+02
-1.764683656386e+02
-1.703734221185e+02
-1.951999006309e+02
-8.885119311944e+01
-1.404797349171e+02
-3.664682426413e+01
-1.366073525788e+02
-3.379120769586e+01
-1.517673552195e+02
-1.970134479656e+02
-2.036287045180e+02
-1.922660186086e+02
-9.926899962293e+01
-1.429419179106e+02
-1.376359091762e+02
-9.292618161401e+01
-8.705468515710e+01
-9.292819715903e+01
-8.114879506464e+01
-8.400191315142e+01
-7.798854021609e+01
-1.891418123693e+02
-1.890159244956e+02
-1.871043771471e+02
-1.816307520047e+02
-1.988389686611e+02
-1.931704078845e+02
-7.038110760068e+01
-6.902639320750e+01
-1.780763576706e+02
-9.878154419869e+01
-2.069993860815e+02
-2.007464198091e+02
-2.678953011918e+01
-3.120769264803e+01
-1.755405900925e+02
-4.130887299691e+01
-4.546782195377e+01
-3.768787584902e+01
-2.222780135852e+02
-9.624206843888e+01
-2.093579432735e+02
-9.314026680433e+01
-1.813517940765e+02
-1.493920865578e+02
-8.958092328621e+01
-1.830229832945e+02
-1.691234321439e+02
-1.821924655554e+02
-1.182129917166e+02
-1.121166165613e+02
-1.235594989929e+02
-4.043357096056e+01
-2.969594175452e+01
-1.679546598393e+02
-8.406742523516e+01
-9.045879989874e+01
-5.398661047994e+01
-6.532801615879e+01
-1.325309071345e+02
-1.271206202484e+02
-1.579035488713e+02
-1.634984968849e+02
-1.467213733646e+02
-1.585090694059e+02
-1.466472052120e+02
-1.407541629863e+02
-1.785553583586e+02
-1.864082021246e+02
-8.980882912068e+01
-8.444473475466e+01
-8.908460560828e+01
-1.835336031280e+02
-2.157590954172e+02
-2.101657273683e+02
-2.908868541471e+01
-3.531337458445e+01
-3.198116619070e+01
-2.934286594994e+01
-1.817803156532e+02
-1.761312877100e+02
-1.889200068846e+02
-6.297166038415e+01
-1.666102751332e+02
-2.069205098060e+02
-2.006687758244e+02
-2.147537021661e+02
-1.856063465883e+02
-1.971756128022e+02
-1.955660852227e+02
-2.213572072910e+01
-1.780192440925e+02
-1.127932245397e+02
-1.883785353324e+01
-1.073046643398e+02
-1.141783849741e+02
-1.010189056915e+02
-5.142184737638e+01
-1.096550792446e+02
-1.171582864332e+02
-2.245097858658e+01
-1.896269437189e+02
-2.297807284025e+01
-2.760193594838e+01
-2.130267802726e+02
-2.064953403482e+02
-2.183661898826e+02
-2.117662502874e+02
-1.999547055212e+02
-2.058279576839e+02
-1.060065229089e+02
-2.193624753883e+02
-2.118472323784e+02
-2.253440537269e+02
-7.548019682061e+01
-5.798964601186e+01
-5.062951747804e+01
-3.725196695611e+01
-1.945843277301e+02
-1.864819402517e+02
-1.906157755349e+02
-1.782989064730e+02
-1.077976900456e+02
-1.071177401270e+02
-1.180879796464e+02
-1.165724909634e+02
-1.275748557073e+02
-1.259143441158e+02
-1.371295356590e+02
-2.009233814939e+02
-2.928342117893e+01
-8.724703807724e+01
-2.050745491026e+02
-1.985393457798e+02
-7.497599137056e+01
-6.316405373800e+01
-2.151413526623e+02
-7.901106292536e+01
-1.965640833996e+02
-1.146454515924e+01
-1.971787491569e+01
-8.402844444895e+01
-8.704235331814e+01
-6.338846168775e+01
-5.721323713084e+01
-1.706402569163e+02
-3.100735101756e+01
-3.476339067085e+01
-1.385645096306e+02
-2.495520010667e+01
-1.848133227911e+02
-8.596228106925e+01
-9.938054300868e+01
-4.524386658666e+01
-6.556990359200e+01
-1.222481994679e+02
-1.107095669083e+02
-1.047936486930e+02
-9.260807862786e+01
-6.298431134765e+01
-4.930720184987e+01
-1.165380139271e+02
-1.643150710376e+02
-1.699922549237e+02
-1.813718957035e+02
-1.757089662796e+02
-1.640417260772e+02
-1.698203255801e+02
-1.814011938728e+02
-1.760145809142e+02
-1.895468594030e+02
-1.817778456305e+02
-1.696765619804e+02
-1.752422973540e+02
-1.864340740275e+02
-1.634496079869e+02
-2.105236594658e+02
-9.606286036773e+01
-2.658342427020e+01
-2.292359861893e+01
-1.050834258993e+02
-2.007561359095e+02
-1.997443263763e+02
-7.001181561153e+01
-2.064594460057e+02
-1.105205841691e+02
-5.059746722133e+01
-2.092687902137e+02
-1.582485647128e+02
-1.520920954349e+02
-1.463427431927e+02
-1.994589439206e+02
-1.293591479256e+02
-2.154746751200e+02
-1.453904098910e+02
-1.389189478200e+02
-1.271902015696e+02
-1.637625848084e+02
-2.205231416057e+02
-2.112101862112e+02
-2.123648290398e+02
-2.008555029355e+02
-2.231333495106e+02
-2.036435463895e+02
-2.049208071516e+02
-7.343010804786e+01
-7.904500856722e+01
-9.000835477080e+01
-8.444841685913e+01
-7.348659073777e+01
-7.874981161146e+01
-8.969313533376e+01
-7.292180285632e+01
-1.752419679794e+02
-2.256036939968e+02
-1.527789680539e+02
-1.468241563066e+02
-1.350832353853e+02
-1.153040454763e+02
-1.216862579169e+02
-1.335008110213e+02
-1.088503783561e+02
-1.537581914308e+02
-2.263758827410e+02
-1.465016804635e+02
-1.162231693406e+02
-9.828330673606e+01
-1.091177311063e+02
-1.096638423117e+02
-1.210453201608e+02
-1.099304179226e+02
-1.379265539641e+02
-1.432999382913e+02
-1.368539889807e+02
-1.486597070742e+02
-1.419234272249e+02
-1.310040541384e+02
-1.537963404858e+02
-1.461851004237e+02
-9.771613375001e+01
-1.325339438919e+01
-2.193313865035e+01
-2.165596497812e+01
-3.037626100173e+01
-3.084796990184e+01
-4.041917322523e+01
-3.881448562230e+01
-2.195339705215e+01
-1.260013476058e+01
-2.146073332328e+01
-1.220058281884e+01
-2.104533683887e+01
-3.171301297352e+01
-4.708500735862e+01
-2.288818785801e+02
-1.127500443317e+02
-1.069477558365e+02
-9.557839950131e+01
-1.016662814295e+02
-1.174122518328e+02
-8.930408531736e+01
-8.507154547119e+01
-1.053234543733e+01
-2.025403728949e+01
-1.925577552752e+01
-3.017829831836e+01
-3.009107228551e+01
-2.055062101145e+01
-2.060691187300e+01
-1.068841100742e+01
-2.061346433811e+01
-3.065512061912e+01
-1.052546526181e+01
-1.529529021919e+02
-1.594537314654e+02
-2.271552331948e+02
-9.870090915926e+01
-1.179415196969e+01
-1.950062714569e+02
-1.973093985831e+02
-1.974063878198e+02
-2.098227454241e+02
-2.159578936483e+02
-1.952112086896e+02
-7.487051516301e+01
-1.871014211493e+02
-1.744210477979e+02
-4.472043369512e+01
-7.181100621720e+01
-1.725921748240e+02
-1.572371640859e+02
-1.980563110993e+02
-1.616618771121e+02
-1.869962998833e+02
-2.127742394708e+02
-4.754875251028e+01
-1.310035041496e+02
-1.263901879249e+02
-1.560358162314e+02
-7.875242771357e+01
-1.254207812416e+02
-5.028918276991e+01
-1.991653799600e+02
-1.047359335818e+02
-1.291705027009e+02
-1.035063902243e+02
-8.136679752700e+01
-6.682721819609e+01
-1.014648668954e+02
-1.224836877748e+02
-1.764097426046e+02
-1.625297557519e+02
-1.241612654887e+01
-1.827263996680e+02
-1.460921671574e+02
-1.358531420461e+02
-1.754616630813e+02
-4.627676112900e+01
-1.606150156372e+02
-1.820150249651e+02
-1.229912142616e+02
-3.876683842009e+01
-1.186990899043e+02
-2.075122542436e+02
-1.585982825164e+02
-7.221467083489e+01
-1.288612504717e+02
-1.057668279224e+02
-8.785953127817e+01
-1.795112423713e+02
-1.259893188557e+02
-1.880466110808e+02
-1.522251313398e+02
-7.749596300873e+01
-1.943341359876e+02
-1.219580109945e+02
-1.725371141348e+02
-1.585226891156e+02
-1.000178658591e+02
-1.653231221024e+02
-1.292653721736e+02
-1.811624895782e+02
-9.895396698239e+01
-1.349380690638e+02
-1.457725711763e+02
-1.302813608864e+02
-1.660133074040e+02
-1.885529534811e+02
-4.673518402647e+01
-7.766899219436e+01
-1.352197020518e+02
-1.824672071270e+02
-1.843115431975e+02
-9.383457776781e+01
-1.878530957624e+02
-1.768438767372e+02
-1.279900670346e+02
-5.439675098568e+01
-3.521481295838e+01
-7.785215751940e+01
-1.207742444947e+02
-1.398063451097e+02
-1.888340964226e+02
-1.935203208201e+02
-1.769391908850e+02
-1.510967585421e+01
-9.324008584870e+01
-1.991996169065e+02
-1.348450480049e+02
-1.872461147719e+02
-1.348910964701e+02
-2.002490570114e+02
-6.935918590348e+01
-2.050036208399e+02
-1.765761624759e+02
-7.445261651917e+01
-9.664681147485e+01
-2.190331148123e+02
-1.888415804984e+02
-1.420023908063e+02
-1.291868809813e+02
-7.580764069868e+01
-1.453310047029e+02
-1.405143354361e+02
-1.991940721804e+02
-1.941567756753e+02
-1.401395690855e+02
-1.389358622641e+02
-1.560488697749e+02
-3.025098363770e+01
-8.140130992350e+01
-1.443494475300e+02
-8.382155704939e+01
-1.350096531747e+02
-2.039130090384e+02
-1.497650595085e+02
-9.485659479017e+01
-1.551565001718e+02
-6.376425456725e+01
-1.459626520280e+02
-1.605283912810e+02
-1.522904904585e+02
-3.169428876800e+01
-1.483008327089e+02
-2.031445348601e+02
-9.409722296503e+01
-1.408519543680e+02
-1.579247298954e+02
-5.150392770638e+01
-1.526487456258e+02
-1.640733446657e+02
-1.546908346268e+02
-1.324053437489e+02
-1.646960750102e+02
-5.725620043744e+01
-6.989981665135e+01
-5.853929102803e+01
-1.007259011076e+02
-1.696980819174e+02
-4.001544249082e+01
-1.576438983332e+02
-4.249204779689e+01
-9.540176499836e+01
-1.736189668241e+02
-1.296946735233e+02
-1.010011091269e+02
-6.613789567852e+01
-9.544431609609e+01
-1.441334494511e+02
-1.008608179812e+02
-9.506859258055e+01
-1.861741972860e+02
-1.002699808573e+02
-1.973323067451e+02
-2.298785975926e+02
-1.058085763155e+02
-3.841770017653e+01
-1.359536536205e+01
-4.609558064858e+01
-8.291279009581e+01
-1.574644004962e+02
-1.063138489395e+02
-7.655589337683e+01
-1.933739460800e+02
-2.125455596913e+02
-1.471184887939e+02
-1.930042878473e+02
-1.614518416258e+02
-1.753844832478e+02
-9.598149982121e+01
-2.084917142410e+01
-1.723163403213e+02
-2.628313817998e+01
-3.278761368540e+01
-2.684478590135e+01
-8.161853588971e+01
-3.019805067458e+01
-1.953063191878e+01
-2.092759263352e+02
-1.073313544460e+02
-1.786114683120e+02
-1.696741058068e+01
-1.881477835895e+02
-2.038356908779e+02
-2.293517653944e+02
-1.907219184218e+02
-2.305693083386e+01
-1.184019635658e+02
-1.977237456574e+02
-1.566709909809e+02
-2.308575696365e+02
-1.062829197796e+02
-1.876317592003e+02
-4.194288684250e+01
-1.877157240178e+02
-1.692835676831e+02
-1.211818187686e+02
-1.184562434129e+02
-2.217252537346e+02
-1.914906595877e+02
-2.095030960711e+01
-1.465607366640e+02
-1.017027791433e+02
-2.051071204480e+01
-2.176809686298e+02
-1.804002193671e+02
-2.206189431351e+02
-2.981024409477e+01
-1.942388927556e+01
-2.181613519940e+02
-1.964446692753e+02
-4.765083031613e+01
-1.998361628945e+02
-1.615465061231e+01
-9.490583026972e+01
-1.984964404598e+01
-2.310590162289e+02
-1.885887267035e+02
-1.121651575105e+02
-9.949146634928e+01
-7.411324967608e+01
-1.924420647850e+02
-2.844959650175e+01
-1.894990960084e+02
-2.169733704694e+02
-1.917015725553e+02
-2.206363759351e+02
-1.887740885964e+01
-2.056251184434e+02
-2.042723247829e+02
-9.574128940235e+01
-1.910381669880e+02
-9.112810851906e+01
-3.959583366812e+01
-1.985702651055e+02
-8.738951432108e+00
-9.492060415570e+01
-2.326477532003e+02
-3.782653745596e+01
-1.146858839915e+02
-1.960586077821e+02
-1.379414552320e+02
-1.685797692868e+02
-3.723823419115e+01
-1.240105695963e+01
-1.360293705685e+02
-2.072853892594e+02
-1.915649925601e+02
-1.277581568571e+02
-2.784050256445e+01
-1.895160012173e+02
-1.212633000650e+02
-1.910330063507e+02
-2.024359342195e+02
-1.063054851869e+01
-1.483985642832e+02
-1.875753050923e+01
-2.216765415511e+02
-1.263885729956e+02
-5.177745489541e+00
-7.433290385892e+00
-1.921204709365e+01
-2.006758486889e+01
-3.223753558831e+01
-3.144730449099e+01
-4.470166299685e+01
-4.424677531220e+01
-5.708042623801e+01
-5.569238432139e+01
-6.923355975670e+01
-6.850980656332e+01
-8.133199952404e+01
-7.985048026003e+01

SCALARS node_materi_stress_size_dev_sd_sig float
LOOKUP_TABLE default
3.845009743475e+00
6.254508645976e+01
1.789826673080e+02
1.523426996248e+02
9.951007833821e+00
1.978496377236e+01
2.874092456265e+01
3.889619552186e+01
4.872380025857e+01
5.825373826521e+01
6.779907513060e+01
7.731527140967e+01
8.673149942701e+01
9.620837061683e+01
1.058466903443e+02
1.148610908026e+02
1.229550049689e+02
1.318900399979e+02
1.408683460985e+02
1.494394681077e+02
1.579675985992e+02
1.664326426241e+02
1.743743652550e+02
1.528736982040e+02
1.524619784576e+02
1.525945531466e+02
1.526327294085e+02
1.523492137418e+02
1.526741599404e+02
1.527736145660e+02
1.527982143125e+02
1.532276815908e+02
1.533758779830e+02
1.532246130382e+02
1.537280327421e+02
1.541259756618e+02
1.543634917124e+02
1.545477448500e+02
1.547469535370e+02
1.552068961835e+02
1.561081158600e+02
1.570917474341e+02
1.581083152926e+02
1.589796748980e+02
1.598529350243e+02
1.609476179441e+02
1.620634638709e+02
1.633565670834e+02
1.646597911720e+02
1.660179449919e+02
1.672345313322e+02
1.684067378756e+02
1.698205611437e+02
1.709119143311e+02
1.714896786914e+02
1.724907460928e+02
1.735270950980e+02
1.744099188741e+02
1.752033084856e+02
1.758943176790e+02
1.763905399843e+02
1.767641457780e+02
1.770783060317e+02
1.775935788603e+02
1.782717864009e+02
1.786372947664e+02
1.779079553556e+02
1.788786015764e+02
1.787175423038e+02
1.790192562665e+02
1.793769934864e+02
1.793968816595e+02
7.168537911818e+01
8.103765075176e+01
9.024814920756e+01
9.934874026459e+01
1.087130539186e+02
1.180761849633e+02
1.274986400234e+02
1.368892264384e+02
1.465382023975e+02
6.896346021071e+00
6.138541127770e+01
1.341250428054e+01
1.491645590883e+01
1.067923777944e+01
9.082502980097e+00
1.670912309671e+01
2.515935197497e+01
3.382938123550e+01
4.267613974391e+01
5.167943905395e+01
2.866820744101e+00
7.760071059796e+00
1.675987885324e+01
2.582390816506e+01
3.486574684314e+01
4.392847860347e+01
5.293148902773e+01
6.120117412117e+01
6.168527273009e+01
6.170470449226e+01
6.153430832823e+01
6.266210084149e+01
6.153270977041e+01
6.130767380031e+01
6.133098219338e+01
6.147735015513e+01
6.134165228908e+01
6.115574132987e+01
6.103004870053e+01
6.093504553883e+01
6.101112923267e+01
5.696420542351e+00
5.981979377170e+00
6.158439502448e+00
5.571873764780e+00
4.479959663702e+00
3.902595344841e+00
3.468979926260e+00
3.109513210122e+00
2.859461251386e+00
2.745777203137e+00
2.780070518060e+00
3.117513530895e+00
3.194943265091e+00
3.033795920012e+00
3.321102066291e+00
3.659273101254e+00
3.835293158188e+00
3.699949488425e+00
3.362214823189e+00
3.027913025436e+00
5.589256887153e+00
6.297341425439e+00
6.389981591785e+00
6.317584127200e+00
6.122240133250e+00
5.852829238703e+00
5.556572070939e+00
5.255139346740e+00
4.968820438141e+00
4.706312298969e+00
4.475167268767e+00
4.277749149842e+00
4.113419008121e+00
3.978924575864e+00
3.870626733175e+00
3.784844720484e+00
3.717863398269e+00
3.666122566425e+00
3.626236739912e+00
3.595087674753e+00
3.570047138293e+00
3.545646322636e+00
3.291341032600e+00
2.666886522828e+00
7.692629917536e+00
7.720770673784e+00
7.747903869780e+00
7.790208451920e+00
7.837058841944e+00
7.890264528166e+00
7.952146868584e+00
8.024620688914e+00
8.109492658029e+00
8.207962993540e+00
8.320736058801e+00
8.447678536925e+00
8.589562327535e+00
8.745497983760e+00
8.912681376971e+00
9.079875597407e+00
9.241919463099e+00
9.374285994830e+00
9.478909424249e+00
9.492084519282e+00
9.470052096804e+00
9.683526732128e+00
7.821443246288e+00
1.570544607061e+01
1.757565452360e+01
1.730461563210e+01
1.734440621454e+01
1.739404904749e+01
1.738157983904e+01
1.734967731358e+01
1.729077400284e+01
1.722684539313e+01
1.716274116460e+01
1.710007418713e+01
1.703691894501e+01
1.697697617735e+01
1.692239151265e+01
1.687288577840e+01
1.682672252992e+01
1.678222772138e+01
1.673928398229e+01
1.669841580553e+01
1.666815197675e+01
1.667224641159e+01
1.672753309542e+01
2.577301846455e+01
2.572185212382e+01
2.571149465444e+01
2.572500746509e+01
2.574561599837e+01
2.576743613134e+01
2.578682628687e+01
2.580015893972e+01
2.581136763847e+01
2.582481002331e+01
2.583653388824e+01
2.584004568062e+01
2.583045895714e+01
2.582398201236e+01
2.581399993813e+01
2.580402221994e+01
2.573753184264e+01
2.567509818631e+01
2.600249301120e+01
2.411325695933e+01
3.276273220536e+01
3.467600454024e+01
3.437868393590e+01
3.440116442934e+01
3.444659688967e+01
3.449138493243e+01
3.456600027888e+01
3.461818702127e+01
3.465496286112e+01
3.467762513092e+01
3.470534960167e+01
3.473618116445e+01
3.474716101861e+01
3.475095692743e+01
3.475528483945e+01
3.476174511043e+01
3.477892009392e+01
3.482106407511e+01
3.485649812984e+01
4.394712745965e+01
4.386682208869e+01
4.382585946164e+01
4.380968346667e+01
4.377306950373e+01
4.375029473096e+01
4.372363152664e+01
4.367521240261e+01
4.359714571985e+01
4.356073553037e+01
4.350651140022e+01
4.342160679260e+01
4.334365661317e+01
4.321623086566e+01
4.319703833177e+01
4.358213319918e+01
4.166493236264e+01
5.065371747733e+01
5.256017458378e+01
5.222752111465e+01
5.227399934791e+01
5.238941974177e+01
5.249795449699e+01
5.254394461633e+01
5.261991923444e+01
5.270216698985e+01
5.276283294753e+01
5.280706458560e+01
5.285064251510e+01
5.292023819883e+01
5.291893506443e+01
5.302926579027e+01
5.313463644797e+01
1.077758206621e+01
1.462183507029e+01
1.434171164389e+01
7.492633098102e+00
1.356238153765e+01
2.160757869495e+01
3.017991899238e+01
3.895463983365e+01
4.788741184585e+01
5.702828896615e+01
1.650468630071e+01
1.696821766340e+02
6.296797867126e+00
5.218639252952e+00
1.733748243157e+02
1.630780116865e+01
1.013754902166e+02
1.648713155070e+02
2.907030523191e+01
1.599472253442e+02
4.669719582649e+01
1.754022326144e+02
6.901200073885e+00
1.551204167999e+02
6.505411164813e+01
6.347311970547e+01
1.261018895257e+02
1.519526165904e+02
1.501965628058e+02
1.486079025677e+02
1.479462883156e+02
1.495530243281e+02
6.930401083758e+01
6.969848915840e+01
7.059721124444e+01
1.040519123005e+02
1.755221829451e+02
4.978146811466e+00
8.015156967507e+00
1.534085770432e+02
6.981527095055e+01
3.383245650966e+01
1.493261528751e+02
1.630610775082e+02
1.573809068906e+02
1.668401896494e+02
1.716933923378e+02
5.911061678608e+00
6.917083861491e+01
1.730843869517e+02
1.226235075910e+02
6.894341817177e+00
8.210911801900e+01
1.499415630346e+02
2.252809451051e+01
1.749368629922e+01
3.772127213875e+01
5.567869760408e+01
1.155304851141e+01
8.630955560329e+01
1.770899834817e+02
7.748096432646e+00
1.411585559182e+02
6.931920802815e+01
7.322110691748e+01
7.757228376819e+01
8.223162373904e+01
8.701149159404e+01
9.127689517912e+01
8.650184010205e+01
9.566991406496e+01
9.091110081111e+01
9.618697058240e+01
1.002180965253e+02
9.550275713419e+01
1.049158555876e+02
1.002972188783e+02
9.094348031447e+01
9.584673443070e+01
8.649734849797e+01
9.155051650853e+01
1.009520229554e+02
9.681093074303e+01
8.741978619254e+01
9.285646570039e+01
8.349781767334e+01
8.914368951391e+01
7.980449383311e+01
8.569060182713e+01
9.494345406693e+01
9.167773001048e+01
8.252974326957e+01
8.868619070211e+01
7.968696697703e+01
8.594793294755e+01
9.479269403798e+01
9.209587844567e+01
8.341480005972e+01
8.954481553660e+01
8.103580481581e+01
8.707107466823e+01
7.871070571566e+01
8.453215207170e+01
9.280594605643e+01
9.006128239389e+01
8.184397821410e+01
8.709359299286e+01
9.533566238251e+01
9.210687006828e+01
1.003823599454e+02
9.692635186452e+01
8.864239999990e+01
9.323372374641e+01
1.015684522409e+02
9.766702505630e+01
8.927138716351e+01
9.354320372380e+01
1.020014175260e+02
9.772611982553e+01
8.917435988048e+01
9.324949221569e+01
1.018876332567e+02
9.727914736998e+01
8.854076863903e+01
9.248538227065e+01
1.013092277890e+02
9.642027241561e+01
1.053050227662e+02
8.744891000598e+01
9.136090343846e+01
8.222261211181e+01
8.616776475152e+01
1.007941926174e+02
7.688898332880e+01
7.303103362840e+01
8.088073794102e+01
9.017623629228e+01
7.147704254956e+01
7.551883069992e+01
6.602422447767e+01
7.242431508376e+01
1.062394462017e+02
7.011416469266e+01
6.054806360829e+01
5.640939973552e+01
5.087501660722e+01
9.192267510863e+01
1.012526241918e+02
9.672434938104e+01
1.063437616913e+02
1.019945335248e+02
5.502825709996e+01
1.097469770315e+02
1.107477960594e+02
7.807850739898e+01
7.336700850558e+01
1.036327081699e+02
7.956610502298e+01
7.421254767572e+01
8.365690431686e+01
1.100820827476e+02
1.140966811846e+02
1.187720931325e+02
1.227841797733e+02
1.273689663731e+02
1.313685808593e+02
1.267376868221e+02
1.353041920917e+02
1.306403052033e+02
1.358685077794e+02
1.317998760912e+02
1.391771361643e+02
1.344934998757e+02
1.429937024964e+02
1.383012150894e+02
1.296977507797e+02
1.335032433621e+02
1.248424722022e+02
1.086950129348e+02
1.119950418128e+02
1.170480851464e+02
1.204099228862e+02
1.254354478521e+02
1.288613698792e+02
1.338258747208e+02
1.302726344773e+02
1.097637014783e+02
7.889559992896e+01
7.368211648975e+01
7.072037235001e+01
6.557345075704e+01
6.251664123990e+01
5.745818698850e+01
5.416918602753e+01
5.890797236720e+01
5.022612498215e+01
5.472882989122e+01
4.567414513071e+01
5.000510555715e+01
1.008195072681e+02
1.236821463005e+02
1.322277698539e+02
1.268713545740e+02
4.670825437591e+01
1.420732713071e+02
1.402330110082e+02
1.360602901272e+02
1.386313487103e+02
4.541864817990e+01
4.922753230014e+01
5.205751780179e+01
1.114868554132e+02
1.071353558040e+02
1.444666869308e+02
4.957509053365e+01
1.437570944564e+02
4.119446688349e+01
1.372800310950e+02
1.458138810067e+02
1.219958692365e+02
1.355652720345e+02
1.300439420145e+02
5.913027973555e+01
5.431925992539e+01
4.507174014297e+01
4.944592010427e+01
5.864058074623e+01
5.336138423869e+01
4.386239928512e+01
4.788335526792e+01
5.744315762724e+01
5.196723168132e+01
4.214942807737e+01
4.631783154474e+01
1.504989556812e+02
3.618049759652e+01
8.169136646774e+01
1.485564519327e+02
1.421226090319e+02
1.166850447008e+02
1.123524706088e+02
1.028361576008e+02
1.081082689629e+02
1.176574461312e+02
1.133913921862e+02
1.039027440798e+02
1.091395018477e+02
9.968971225523e+01
1.049202576547e+02
1.143955813759e+02
1.101840071065e+02
1.007660867883e+02
1.059917438412e+02
9.660787212878e+01
1.017477207203e+02
1.112308417301e+02
4.016682203049e+01
1.349517170781e+02
1.433336673848e+02
7.862986860904e+01
8.762524043950e+01
9.295324398960e+01
9.700874056440e+01
1.069137844033e+02
1.165125505542e+02
4.395185128369e+01
4.625289532920e+01
1.210968505061e+02
1.410674481992e+02
1.324534135971e+02
7.068395564058e+01
6.415559959393e+01
6.162409686070e+01
5.471667477756e+01
5.774022156803e+01
5.230437409005e+01
1.275619752466e+02
1.196994422010e+02
5.229776433767e+01
4.254823628145e+01
1.495786200545e+02
1.265910589796e+02
1.041964874524e+02
1.099888520992e+02
1.135014801488e+02
1.192122068871e+02
1.228606645676e+02
1.284638418006e+02
1.249345733275e+02
1.388913654083e+02
1.340979740330e+02
9.732185151730e+01
1.182106161352e+02
6.154515160757e+01
3.593590481338e+01
3.620121726541e+01
4.402179730722e+01
5.371110171856e+01
1.527522421402e+02
1.322406146588e+02
1.266397500841e+02
4.823564281793e+01
5.168837605518e+01
1.442070567719e+02
9.254804651651e+01
9.451255095291e+01
9.031301291534e+01
3.350505191001e+01
3.228309024344e+01
1.229782304304e+02
5.416496823152e+01
4.783268960232e+01
3.157962154153e+01
2.612691881932e+01
1.119704801386e+02
1.215057744415e+02
1.021155300017e+02
1.061377832915e+02
1.485952957918e+02
4.063044600809e+01
1.260469703637e+02
1.311608922356e+02
1.227688281811e+02
9.161460064722e+01
3.829475111101e+01
3.562639650199e+01
6.680774581402e+01
5.050006437509e+01
4.817865274488e+01
1.568132960200e+02
1.272441519315e+02
1.306168395445e+02
1.215475465124e+02
1.396748015520e+02
3.055895337433e+01
1.569116869653e+02
1.448891676981e+02
1.358003655808e+02
1.306225411480e+02
5.577891734422e+01
4.908114227080e+01
4.100956238464e+01
4.186784292284e+01
8.177701885851e+01
5.735983075098e+01
7.723155432632e+01
7.254992600160e+01
6.812064571541e+01
6.105945238598e+01
5.545536928387e+01
6.811839950591e+01
1.067091369269e+02
9.817113886407e+01
1.210074562381e+02
1.146770413226e+02
1.239129360960e+02
1.293121641971e+02
9.141512151975e+01
8.718937477799e+01
3.690131396456e+01
3.271777527384e+01
1.092836647008e+02
1.525329410959e+02
1.262541849711e+02
1.307514799099e+02
1.255284616025e+02
1.524893863979e+02
7.562260982458e+01
1.135546886562e+02
3.078237685384e+01
1.036538412587e+02
2.713271819761e+01
1.103923797884e+02
1.533367100152e+02
1.578904381508e+02
1.475924882214e+02
6.878657618951e+01
1.095314533305e+02
1.066580090001e+02
6.362053875005e+01
5.920300726946e+01
6.379401484887e+01
5.485013151361e+01
7.080468445987e+01
6.551720403917e+01
1.423311652712e+02
1.431384162984e+02
1.399994274301e+02
1.349703458048e+02
1.527246339223e+02
1.492201674482e+02
5.763293753635e+01
4.626301084116e+01
1.325395478750e+02
6.810577416484e+01
1.606001645184e+02
1.564434467911e+02
2.029301946521e+01
2.468437962471e+01
1.312427362748e+02
3.346565217416e+01
3.389559275014e+01
3.313619657118e+01
1.702170148870e+02
6.961291962530e+01
1.616268476715e+02
6.479207179708e+01
1.358012071348e+02
1.153475415137e+02
6.821387835977e+01
1.442577488584e+02
1.261347028395e+02
1.367245102026e+02
8.514869476154e+01
8.077481068619e+01
8.910001017484e+01
3.645418543711e+01
2.591753017751e+01
1.249878421128e+02
6.889100332949e+01
7.406472335216e+01
4.460281116480e+01
5.431755955173e+01
1.072230020485e+02
1.033027118190e+02
1.157243615442e+02
1.199418447000e+02
1.078147633636e+02
1.272284624437e+02
1.188007022415e+02
1.144026343546e+02
1.333729921528e+02
1.398338815931e+02
7.583655652315e+01
7.180942943170e+01
7.464179574825e+01
1.369064386835e+02
1.660232961407e+02
1.623694466088e+02
2.292502578362e+01
2.841434505850e+01
3.008917340323e+01
2.717232297049e+01
1.350928499446e+02
1.301698744181e+02
1.411405689437e+02
5.146867388965e+01
1.273053237068e+02
1.602717198461e+02
1.560576319923e+02
1.655496764584e+02
1.421396700462e+02
1.508081964474e+02
1.486183146428e+02
1.584993391632e+01
1.333580437566e+02
8.165601769643e+01
1.112644514267e+01
7.753648826260e+01
8.296555383820e+01
7.290692762444e+01
4.198920230262e+01
7.841087393359e+01
8.390423867845e+01
1.680393156446e+01
1.421096141678e+02
1.791871810626e+01
2.189313061561e+01
1.644946603937e+02
1.602007188768e+02
1.680027759307e+02
1.636244906345e+02
1.557719705589e+02
1.596320734981e+02
7.634818798910e+01
1.684993101473e+02
1.635102855946e+02
1.725203082776e+02
5.059467625865e+01
4.300170906089e+01
3.545224249953e+01
2.546460134636e+01
1.458900446155e+02
1.388859133377e+02
1.489132559638e+02
1.403103249505e+02
7.827283131882e+01
7.783384552010e+01
8.621997298158e+01
8.513749238801e+01
9.361548778214e+01
9.230897364677e+01
1.009805189803e+02
1.524095233402e+02
2.543133126141e+01
5.945521241680e+01
1.575977031168e+02
1.534843920407e+02
5.038812805732e+01
4.164867134487e+01
1.659641389418e+02
6.393505842835e+01
1.479000869033e+02
5.775147476189e+00
1.407058301859e+01
6.585847043575e+01
5.955932715176e+01
4.500889979083e+01
3.889613205247e+01
1.357320528106e+02
2.434490629567e+01
3.218061781013e+01
1.019676837396e+02
2.402166598839e+01
1.448226054198e+02
7.034252958690e+01
7.043675751775e+01
4.002829202729e+01
5.055648863959e+01
8.624901473141e+01
7.752619426408e+01
7.283300428632e+01
7.629134281225e+01
4.230559193901e+01
3.217759810853e+01
8.219270048371e+01
1.203883097839e+02
1.249779606056e+02
1.344916880879e+02
1.296487889340e+02
1.199263471180e+02
1.246173443618e+02
1.344286160439e+02
1.297127343504e+02
1.412986120745e+02
1.346844212533e+02
1.245318487489e+02
1.293507078832e+02
1.387404551739e+02
1.194826514599e+02
1.610659927797e+02
7.464124650860e+01
2.121588320115e+01
1.915817074790e+01
7.414885847363e+01
1.511253942679e+02
1.502678821884e+02
6.006646158675e+01
1.560409552508e+02
7.711880703720e+01
4.556796413494e+01
1.586136489427e+02
1.152627649793e+02
1.101331151591e+02
1.056156310068e+02
1.500720409742e+02
9.338606602898e+01
1.641723730524e+02
1.151666254373e+02
1.096316416624e+02
1.011602892701e+02
1.195669720459e+02
1.686522809979e+02
1.625565395010e+02
1.634966133658e+02
1.557644192913e+02
1.706546401678e+02
1.535105004311e+02
1.546786363823e+02
6.272801822713e+01
6.772813466037e+01
7.651638879624e+01
7.231585037457e+01
6.347825167320e+01
6.796602161110e+01
7.651705366199e+01
6.348416364231e+01
1.295342016112e+02
1.724822789789e+02
1.232738945601e+02
1.190293950152e+02
1.104830866392e+02
9.419702984516e+01
9.933929987668e+01
1.083352753262e+02
8.896820774087e+01
1.157824954130e+02
1.730161984019e+02
1.182361092724e+02
9.533807040017e+01
6.927565359615e+01
7.723001299761e+01
7.731679191778e+01
8.605531243254e+01
7.811186238747e+01
1.111539239410e+02
1.150641601104e+02
1.101183780439e+02
1.189276624396e+02
1.138032356331e+02
1.055279901601e+02
1.225887034898e+02
1.169394532128e+02
6.932228347676e+01
5.776242742960e+00
1.480556745853e+01
1.465611744906e+01
2.339268010268e+01
2.410249929409e+01
3.319790791369e+01
3.194303550117e+01
1.471368501907e+01
5.982481366277e+00
1.486730357959e+01
6.114949362613e+00
1.480388944320e+01
2.480229590091e+01
3.856086881884e+01
1.746569731627e+02
9.143433391584e+01
8.698099600553e+01
7.784366777304e+01
8.281054377612e+01
9.519956206536e+01
7.279959612270e+01
6.939791472557e+01
8.123554482702e+00
1.651263396179e+01
1.572405507428e+01
2.486165080290e+01
2.453357289447e+01
1.651813475507e+01
1.645704794794e+01
7.787531911647e+00
1.628757447924e+01
2.483456614218e+01
7.294008988380e+00
1.134733108310e+02
1.186491672602e+02
1.736292450342e+02
7.054495842250e+01
6.698754727222e+00
1.470113092479e+02
1.486747480162e+02
1.487748502088e+02
1.619760988158e+02
1.660479535877e+02
1.472783278912e+02
6.192930358712e+01
1.391140062402e+02
1.302971042441e+02
4.075738691725e+01
6.004275505452e+01
1.363021381632e+02
1.258735438058e+02
1.541932998166e+02
1.286658718266e+02
1.467670796438e+02
1.640482817462e+02
3.870869023410e+01
9.549403565190e+01
9.236687081235e+01
1.154618876549e+02
6.469118984722e+01
1.013978483739e+02
4.122997118734e+01
1.502075430491e+02
7.293205854826e+01
1.060081357640e+02
8.491656501716e+01
6.749274070946e+01
5.609105359440e+01
7.709600605294e+01
1.003840300588e+02
1.398469944041e+02
1.207632102718e+02
8.198516942247e+00
1.442624258340e+02
1.180657292682e+02
9.866922200612e+01
1.373112144509e+02
3.828199360789e+01
1.186659427258e+02
1.355779476666e+02
8.816061996851e+01
3.147045660964e+01
8.607003172745e+01
1.608513062538e+02
1.158938429668e+02
5.919577229302e+01
1.052309123214e+02
7.640920001319e+01
6.022545619879e+01
1.343833038604e+02
9.806233348835e+01
1.469752093658e+02
1.219054298108e+02
6.343533729599e+01
1.520869297579e+02
9.834337694167e+01
1.282622894657e+02
1.172236157642e+02
8.386526658252e+01
1.219098761036e+02
1.062467169772e+02
1.407761823510e+02
6.878991782190e+01
9.846456140711e+01
1.052488010798e+02
9.768874092599e+01
1.315259771614e+02
1.482204009449e+02
4.068320014994e+01
5.937973400327e+01
9.764358311569e+01
1.375626772138e+02
1.378049293907e+02
6.710943512883e+01
1.475743102792e+02
1.313905835146e+02
1.043653121706e+02
4.454949247645e+01
3.211602995305e+01
6.733252714049e+01
9.543430690080e+01
1.132460393868e+02
1.409345526023e+02
1.513301896176e+02
1.402083496235e+02
1.449876441777e+01
6.403922164300e+01
1.550851928434e+02
1.098986676292e+02
1.456050479744e+02
1.083975975930e+02
1.513711717341e+02
4.607285849011e+01
1.589813472021e+02
1.396499262952e+02
6.214874563558e+01
6.986609776155e+01
1.682764347395e+02
1.480588548820e+02
1.067082672841e+02
1.060480121129e+02
5.109258214048e+01
1.171628289035e+02
1.022346693618e+02
1.499455099480e+02
1.514439704354e+02
1.005166490273e+02
1.122304321068e+02
1.211651579169e+02
2.450213057935e+01
5.500235199500e+01
1.161099401117e+02
7.199525789920e+01
1.104120587680e+02
1.560648975642e+02
1.199847660892e+02
8.035303073429e+01
1.238250509708e+02
4.212288778318e+01
1.050966828684e+02
1.276072363334e+02
1.116610304655e+02
2.558874105070e+01
1.125526535242e+02
1.574542773944e+02
7.840076843439e+01
1.147121722345e+02
1.148147929562e+02
3.327518591658e+01
1.231857203008e+02
1.211536860487e+02
1.183492596615e+02
1.039021261194e+02
1.317025243728e+02
3.751437257645e+01
5.798359139500e+01
4.839088691118e+01
8.489862182970e+01
1.252988623486e+02
3.274978294115e+01
1.145780292855e+02
3.453414192986e+01
8.086089122050e+01
1.332503971408e+02
9.529337151071e+01
8.507090477672e+01
5.408420382998e+01
8.058098798529e+01
1.124599974975e+02
8.459856006911e+01
7.975527635478e+01
1.398119767962e+02
8.360607056997e+01
1.487993463984e+02
1.752445731066e+02
7.693210497156e+01
2.441984398740e+01
5.539627573871e+00
3.055111007368e+01
6.930081691896e+01
1.147549733279e+02
7.724267930546e+01
6.375196955562e+01
1.445471294198e+02
1.615922837944e+02
1.088660214454e+02
1.500178467674e+02
1.242671057357e+02
1.313664897750e+02
6.899032819392e+01
1.493339645377e+01
1.359988810387e+02
1.677132354976e+01
2.504025999288e+01
2.525720338486e+01
6.684249981249e+01
2.321310410833e+01
1.611142591450e+01
1.609683672171e+02
7.683889290783e+01
1.362901681505e+02
1.745532083156e+01
1.408010102567e+02
1.553813299219e+02
1.750601267541e+02
1.454246249168e+02
2.161805884308e+01
8.427190676565e+01
1.488731659385e+02
1.162365906898e+02
1.758893109308e+02
7.550439862279e+01
1.410692915020e+02
3.568614929371e+01
1.411746664826e+02
1.244778292757e+02
8.840536041221e+01
8.381078611844e+01
1.698339704468e+02
1.431166311914e+02
1.822492384956e+01
1.082419191798e+02
8.298821097714e+01
1.292870312874e+01
1.675976290405e+02
1.338152536140e+02
1.692943896855e+02
2.446880508787e+01
1.439011141857e+01
1.678908644797e+02
1.473340855459e+02
4.027147610050e+01
1.506914181803e+02
1.192907517467e+01
6.781376816996e+01
1.528073320906e+01
1.759842476638e+02
1.415896454780e+02
9.106248205058e+01
6.951211853459e+01
6.059425939825e+01
1.454807749778e+02
2.179569939680e+01
1.424867417698e+02
1.669720364333e+02
1.434789567457e+02
1.683771557969e+02
1.192868035016e+01
1.564282698278e+02
1.583237725997e+02
6.903356829178e+01
1.427199608879e+02
7.437930570438e+01
3.209621949254e+01
1.497926464941e+02
6.599806607673e+00
6.869012369236e+01
1.770212258834e+02
3.069067539152e+01
8.364338544812e+01
1.468726148310e+02
1.107832361148e+02
1.258932586084e+02
2.986946882995e+01
4.703008170461e+00
1.001702941360e+02
1.583642370086e+02
1.435821804634e+02
9.356480778027e+01
2.470760456155e+01
1.414309181181e+02
9.797402521561e+01
1.435515444229e+02
1.565583240985e+02
8.168992512503e+00
1.186265769753e+02
1.412827044094e+01
1.701307472288e+02
1.020126819779e+02
4.057967054087e+00
3.305347589024e+00
1.201896298514e+01
1.244750660494e+01
2.026454089349e+01
2.100649364095e+01
2.885223643873e+01
3.057502459457e+01
3.765283185657e+01
3.913833782624e+01
4.656149220497e+01
4.872330335703e+01
5.567244133658e+01
5.736026542480e+01

SCALARS node_materi_strain_total_average_a_ept float
LOOKUP_TABLE default
3.206643322852e-05
2.299085567384e-03
2.762322665953e-03
3.679885565447e-03
1.042414131559e-04
2.486422170974e-04
3.882976353703e-04
5.427431935504e-04
6.927823949303e-04
8.416342832497e-04
9.893390549389e-04
1.136239871128e-03
1.282649031446e-03
1.429132161113e-03
1.577809939225e-03
1.723216165947e-03
1.854411879926e-03
1.996293379242e-03
2.141064812593e-03
2.280099076862e-03
2.418878144445e-03
2.557281396658e-03
2.691017962808e-03
3.688204085409e-03
3.679736392348e-03
3.681102813841e-03
3.679567897207e-03
3.672822421363e-03
3.675914422886e-03
3.674039486784e-03
3.667326015792e-03
3.667793941997e-03
3.662243169195e-03
3.650190562643e-03
3.646793029656e-03
3.638777663841e-03
3.625182388162e-03
3.609615812297e-03
3.589579692399e-03
3.570043858489e-03
3.552651263882e-03
3.531923102008e-03
3.509027184249e-03
3.479493452205e-03
3.445237610354e-03
3.411010906786e-03
3.373382552110e-03
3.335095660035e-03
3.296836600573e-03
3.256569800951e-03
3.216318146886e-03
3.173125801911e-03
3.137743039473e-03
3.097119325324e-03
3.052374433695e-03
3.014603091670e-03
2.984010667423e-03
2.954398040420e-03
2.924421859355e-03
2.902525759288e-03
2.875222396681e-03
2.854991366802e-03
2.832165225742e-03
2.818288598933e-03
2.813643918886e-03
2.807182496414e-03
2.776249335130e-03
2.785304882311e-03
2.770528486131e-03
2.768605046718e-03
2.771916663135e-03
2.769180286266e-03
2.444964393299e-03
2.587779162488e-03
2.730584729327e-03
2.870864400901e-03
3.014261372925e-03
3.159249867857e-03
3.302042900256e-03
3.445144703881e-03
3.590347654479e-03
-4.596249243858e-05
2.247046905868e-03
2.244925282465e-04
6.691977104316e-04
1.185179171297e-03
1.407143127653e-03
1.534691718950e-03
1.668111316875e-03
1.805974030642e-03
1.948002897097e-03
2.093385619626e-03
1.342557810296e-03
1.438564916042e-03
1.583370022200e-03
1.726613980459e-03
1.869091745997e-03
2.011347613904e-03
2.152973417906e-03
2.281231612815e-03
2.290105145469e-03
2.289426538331e-03
2.286670679277e-03
2.304948286798e-03
2.286194783564e-03
2.282801083156e-03
2.281570250932e-03
2.280445451889e-03
2.275380258888e-03
2.270416437922e-03
2.263924198740e-03
2.257698412516e-03
2.251951567112e-03
-6.857458257005e-05
-8.989263025574e-05
-9.371547348393e-05
-8.376455249652e-05
-6.671701721599e-05
-5.382913237198e-05
-4.196103054130e-05
-3.084186781524e-05
-2.029530320608e-05
-1.054012189606e-05
3.607409796806e-07
6.140815576175e-06
1.365864679838e-05
2.030989008295e-05
2.582686558105e-05
2.928572135203e-05
3.209557797948e-05
3.358588419180e-05
3.166638101097e-05
1.360372723066e-03
1.420730727524e-03
1.443247101201e-03
1.446069885333e-03
1.447912886675e-03
1.443317968156e-03
1.438382853451e-03
1.431989601001e-03
1.425585816162e-03
1.419099422296e-03
1.412946175450e-03
1.407166027790e-03
1.401881434293e-03
1.397110204310e-03
1.392852026879e-03
1.389075247780e-03
1.385757112078e-03
1.382888524889e-03
1.380482896463e-03
1.378597864110e-03
1.377366319413e-03
1.376994968386e-03
1.377150191399e-03
1.369185237715e-03
1.344964475640e-03
1.440118790482e-03
1.444238063420e-03
1.445453893396e-03
1.446149747014e-03
1.447057516186e-03
1.448300843698e-03
1.449879412291e-03
1.451780173550e-03
1.453991816111e-03
1.456506844669e-03
1.459319782331e-03
1.462423418203e-03
1.465803376223e-03
1.469386570569e-03
1.473074667318e-03
1.476647266899e-03
1.479952856801e-03
1.482351050877e-03
1.483735253352e-03
1.482078190472e-03
1.478780940204e-03
1.470844827435e-03
1.440038174283e-03
1.552402813249e-03
1.582043097348e-03
1.588133601754e-03
1.593036355818e-03
1.597050209454e-03
1.598350803928e-03
1.598924270316e-03
1.598499485807e-03
1.597690421177e-03
1.596556492194e-03
1.595316969800e-03
1.594028678847e-03
1.592759524330e-03
1.591549540346e-03
1.590430959228e-03
1.589433662138e-03
1.588574728358e-03
1.587855750312e-03
1.587225491145e-03
1.586468651107e-03
1.585104924671e-03
1.583882366081e-03
1.726845737982e-03
1.727477411275e-03
1.728031112081e-03
1.728406405604e-03
1.728704521850e-03
1.728966937706e-03
1.729195182299e-03
1.729367670625e-03
1.729485054049e-03
1.729475915835e-03
1.729293622609e-03
1.728854022217e-03
1.728012782772e-03
1.726774495906e-03
1.724674422127e-03
1.721853282266e-03
1.716933850893e-03
1.711629843247e-03
1.707217629480e-03
1.677009920719e-03
1.809886986037e-03
1.840007323484e-03
1.843510723765e-03
1.848845350733e-03
1.854356950800e-03
1.857935547842e-03
1.861149204827e-03
1.863511937653e-03
1.865277263686e-03
1.866645646106e-03
1.867707492351e-03
1.868468378523e-03
1.869037324241e-03
1.869366903807e-03
1.869576410060e-03
1.869606183228e-03
1.869525523060e-03
1.869310029138e-03
1.869163115289e-03
2.011488083305e-03
2.011467722161e-03
2.011274529107e-03
2.010971584913e-03
2.010514687536e-03
2.009743872580e-03
2.008793337858e-03
2.007301794577e-03
2.005386303837e-03
2.003158577149e-03
2.000408883263e-03
1.996917529256e-03
1.992530709222e-03
1.986573649750e-03
1.981296639839e-03
1.979237004859e-03
1.949241581037e-03
2.091766784857e-03
2.120670037898e-03
2.122790948901e-03
2.129157562876e-03
2.134457653418e-03
2.138838151697e-03
2.141938620942e-03
2.144886847342e-03
2.148077908788e-03
2.149402695961e-03
2.150907225381e-03
2.151880917444e-03
2.152726702347e-03
2.152991530527e-03
2.154101030274e-03
2.154178062413e-03
5.061349716642e-05
4.384106604925e-04
9.106199033816e-04
1.333298028353e-03
1.478783080498e-03
1.614529449660e-03
1.748812882365e-03
1.889881353222e-03
2.033740760870e-03
2.181767387172e-03
6.237085565722e-04
2.947842039507e-03
4.351338776787e-05
1.300576222866e-06
2.816587629990e-03
1.367457731186e-03
1.509504927950e-03
3.087769378144e-03
1.681651932089e-03
3.252044297968e-03
1.983639833420e-03
2.763278276969e-03
6.556871304273e-05
3.395608279058e-03
2.289544590062e-03
9.227875639361e-04
1.903281516224e-03
3.469826629563e-03
3.551444251464e-03
3.612252410866e-03
3.588987386220e-03
3.585637075784e-03
2.378470207353e-03
2.405808468282e-03
2.425963009271e-03
2.943842082153e-03
2.727576457083e-03
1.277472165203e-05
8.435422072262e-05
2.344841922896e-03
2.414487077967e-03
4.644765796630e-04
3.493715753514e-03
3.181276076395e-03
3.328404302247e-03
3.012303355513e-03
2.890454470337e-03
2.393893848258e-05
2.390000948859e-03
2.758365734606e-03
3.226343120365e-03
6.056289493914e-05
1.210555720172e-03
3.636461611937e-03
1.539849121430e-03
1.058132412598e-03
1.832792545568e-03
2.134261726186e-03
2.077861439681e-04
2.671087430509e-03
2.739575246415e-03
8.291418578916e-05
3.510185967489e-03
2.360874690249e-03
2.406879525445e-03
2.483368326063e-03
2.533476317527e-03
2.616760499218e-03
2.662119810510e-03
2.577432975605e-03
2.706518786036e-03
2.618941267997e-03
2.748641392840e-03
2.748881709290e-03
2.658736266429e-03
2.789375510299e-03
2.696906385472e-03
2.568578187478e-03
2.604307559355e-03
2.477883821432e-03
2.511101328211e-03
2.638634770972e-03
2.542901845599e-03
2.416863526032e-03
2.446123921339e-03
2.321552353297e-03
2.348196190243e-03
2.224245187551e-03
2.248490057878e-03
2.374359408727e-03
2.272400991049e-03
2.146828633915e-03
2.168559057205e-03
2.042544975355e-03
2.062010122142e-03
2.190940586988e-03
2.083203638880e-03
1.951792215642e-03
1.973103355272e-03
1.838398859931e-03
1.860975820869e-03
1.722302945883e-03
1.746000376399e-03
1.886081189702e-03
1.772673854801e-03
1.628748881122e-03
1.657775560281e-03
1.802613842587e-03
1.690089527782e-03
1.835192693772e-03
1.725157694866e-03
1.578432748099e-03
1.616125637935e-03
1.762276546357e-03
1.655400932016e-03
1.508135974698e-03
1.550397867211e-03
1.696823033117e-03
1.594300701328e-03
1.447097422281e-03
1.493597948126e-03
1.640435037900e-03
1.541270545176e-03
1.394190977661e-03
1.443802238855e-03
1.590695350714e-03
1.494512256234e-03
1.641028456096e-03
1.346574214844e-03
1.399394614743e-03
1.250247931209e-03
1.305705569794e-03
2.214623403390e-03
1.156036728066e-03
1.100618619287e-03
1.213662229439e-03
1.362546070351e-03
1.063400832343e-03
1.123039836407e-03
9.725129293626e-04
1.700149876286e-03
2.671806256750e-03
1.033849052839e-03
8.833100849321e-04
8.206178420066e-04
7.319720068282e-04
2.700857150679e-03
2.835835718214e-03
2.782294209940e-03
2.922320626937e-03
2.869413749139e-03
7.955259467108e-04
2.882802247829e-03
2.973407982543e-03
2.294206301865e-03
2.023778752581e-03
1.945610620768e-03
1.182952190792e-03
1.095341248598e-03
1.243090567495e-03
1.736620115964e-03
1.785993585177e-03
1.880916273810e-03
1.929131841027e-03
2.023289987952e-03
2.070476012786e-03
1.978214231930e-03
2.118548888415e-03
2.028131874375e-03
2.163754142033e-03
2.118326629463e-03
2.167478984876e-03
2.078941090808e-03
2.217538384443e-03
2.130669294119e-03
1.990960691760e-03
2.044236514598e-03
1.904216306954e-03
1.978317038758e-03
2.087142580166e-03
2.119628722524e-03
2.227070679365e-03
2.259352519965e-03
2.365546653186e-03
2.397187355843e-03
2.292929757082e-03
2.827431261982e-03
1.510441877494e-03
1.482013453178e-03
1.359617076360e-03
1.331705154232e-03
1.204181984574e-03
1.176728551788e-03
1.042318925766e-03
1.076790006008e-03
9.086778625422e-04
9.512578624997e-04
7.782636562808e-04
8.284695555895e-04
2.400118127434e-03
2.334649745842e-03
2.472347288796e-03
2.441442366592e-03
6.675583235022e-04
2.183446690560e-03
2.258043985351e-03
2.213766484723e-03
2.430715990635e-03
6.461639415441e-04
1.015350960051e-03
1.156283785769e-03
3.008814902556e-03
2.954486149903e-03
2.353265551874e-03
7.099200207379e-04
2.256998848071e-03
7.326741362294e-04
2.098527834126e-03
2.236917407430e-03
1.887234873522e-03
2.579336292773e-03
2.547555155330e-03
9.973964548854e-04
8.802291178179e-04
7.135961020328e-04
7.706739597774e-04
9.338295875325e-04
8.244591118241e-04
6.602496338288e-04
7.184159703353e-04
8.812113807767e-04
7.781986288661e-04
6.149321551412e-04
6.776809955354e-04
2.320645141869e-03
5.986628456213e-04
2.443091629930e-03
2.395494575904e-03
2.532203952030e-03
3.095529577822e-03
3.039708490146e-03
2.898302143280e-03
2.982706499358e-03
3.125138514632e-03
3.066927584259e-03
2.924521160221e-03
3.007718241697e-03
2.865392174945e-03
2.947693715134e-03
3.090887470627e-03
3.030079184654e-03
2.886923633936e-03
2.968531069049e-03
2.825221344700e-03
2.905880664201e-03
3.050219088477e-03
5.653019872247e-04
2.327737847806e-03
2.466220883461e-03
1.160385455000e-03
1.302445798633e-03
1.389530494747e-03
1.450274027289e-03
2.986022236391e-03
3.131423296916e-03
9.973020679631e-04
1.145231859859e-03
3.150016197132e-03
2.154232860937e-03
2.014866703360e-03
1.918725169470e-03
1.903428908634e-03
1.796656620034e-03
1.784405204725e-03
1.888547797948e-03
1.674178989650e-03
2.072427586801e-03
3.173984302077e-03
7.579139879569e-04
6.034514039665e-04
2.291933695223e-03
2.188672189784e-03
2.502735792859e-03
2.530010101724e-03
2.633600205573e-03
2.661903992527e-03
2.766765323363e-03
2.795227029276e-03
2.690049361959e-03
2.686424308096e-03
2.824021274922e-03
2.840697206148e-03
2.303012587195e-03
9.388128301359e-04
4.987107933977e-04
5.109171155742e-04
6.240779036773e-04
7.734518796509e-04
2.489940995571e-03
2.901650776973e-03
2.870427971085e-03
1.775749328550e-03
1.874667805698e-03
2.715898432999e-03
2.731798944035e-03
2.783445177903e-03
2.723782490037e-03
4.641896906778e-04
4.524080516305e-04
3.210363359059e-03
1.293285756637e-03
1.287840758681e-03
5.455594741744e-04
4.091057494389e-04
3.065313659758e-03
3.209953559824e-03
1.535483482657e-03
1.594299826640e-03
2.450169902581e-03
5.794785207589e-04
3.276726183772e-03
2.226074378130e-03
2.085324654842e-03
1.363484457394e-03
9.905710344624e-04
8.297365653781e-04
1.041179243509e-03
7.402790514158e-04
6.877682831488e-04
2.586192858336e-03
3.268160988192e-03
2.718608160533e-03
2.584151352751e-03
2.853908720223e-03
4.179690303222e-04
2.532480269047e-03
2.210974370082e-03
3.001788926693e-03
2.973242181197e-03
1.425237406606e-03
1.424642093087e-03
1.296334699233e-03
1.434336945702e-03
2.491944690391e-03
1.553830609803e-03
2.354751792779e-03
2.320897131319e-03
2.235310336434e-03
1.986511420185e-03
1.968035676964e-03
1.457274405030e-03
2.055748818117e-03
1.477351304917e-03
1.850424914931e-03
1.833251698829e-03
3.234228779657e-03
3.318520553747e-03
2.744281517430e-03
2.682442159442e-03
5.136140609792e-04
4.473721067640e-04
1.692424722864e-03
2.437607569829e-03
3.236776030501e-03
3.291631162573e-03
3.202688030263e-03
2.546994847471e-03
1.392293808414e-03
2.012592342873e-03
4.717044635547e-04
2.320752761371e-03
3.608125670479e-04
2.768444292349e-03
2.348632872869e-03
2.427740548391e-03
2.820376358940e-03
2.329473018271e-03
2.346633018128e-03
2.240438469055e-03
2.202574198723e-03
2.120507961230e-03
2.149019942464e-03
2.035838424413e-03
1.094732699014e-03
9.947375591547e-04
3.047737718646e-03
2.956826769334e-03
3.106889180053e-03
3.080065167034e-03
2.849930998607e-03
2.744272930942e-03
8.320778475629e-04
1.859672494261e-03
3.354640237866e-03
2.284674691355e-03
2.569259956370e-03
2.482745012212e-03
2.809141683298e-04
3.460111117208e-04
3.356817126691e-03
1.315821790835e-03
1.446229408409e-03
1.164205075798e-03
2.619729548899e-03
2.412521454789e-03
2.485158321126e-03
2.082083030588e-03
3.424823487247e-03
2.375428887050e-03
1.806747294578e-03
2.409411247791e-03
3.280770089898e-03
3.439236276633e-03
2.643276471425e-03
2.578375395691e-03
2.697757682961e-03
6.933218783005e-04
4.861061265182e-04
3.256305244219e-03
1.009302088731e-03
1.086072083840e-03
6.408321099557e-04
7.974444446506e-04
1.621943945361e-03
1.565719992055e-03
2.803594496441e-03
2.902003593212e-03
2.604138050221e-03
2.125240399549e-03
1.983361122852e-03
1.943792815637e-03
3.375352673714e-03
3.475183891920e-03
1.195918521814e-03
1.145456234135e-03
1.146407878903e-03
3.412420983926e-03
2.562125741161e-03
2.504859389753e-03
2.936495266857e-04
3.792661553559e-04
8.208661775646e-04
6.476217725917e-04
3.341924105308e-03
3.254771401591e-03
3.443075068927e-03
7.370819834559e-04
2.616166917684e-03
2.677696435317e-03
2.642707290783e-03
2.734246789217e-03
2.788730347541e-03
2.917767879825e-03
2.987586969619e-03
2.107383131975e-04
3.390837544029e-03
2.595501661873e-03
1.137127058281e-04
2.534827414517e-03
2.618207450025e-03
2.463519918968e-03
5.921574214783e-04
2.537334604607e-03
2.614602605105e-03
1.985806786322e-04
3.497732121187e-03
2.161802119759e-04
2.796358398926e-04
2.617979712154e-03
2.527786433171e-03
2.656804076354e-03
2.567493230032e-03
2.439029754727e-03
2.490331557982e-03
2.511725440238e-03
2.638936853553e-03
2.543421383890e-03
2.693377667328e-03
2.010975934806e-03
1.554738517753e-03
1.561909102027e-03
1.469161416061e-03
3.237463168269e-03
3.174998599437e-03
2.273335946897e-03
2.133419036808e-03
2.545127833109e-03
2.539433628959e-03
2.668471812964e-03
2.652526543395e-03
2.782403244217e-03
2.763971114753e-03
2.896893306858e-03
3.101236063632e-03
1.195948664779e-03
2.168452293852e-03
2.874662136656e-03
2.762626219985e-03
1.947808604137e-03
1.844809458794e-03
2.681696950546e-03
1.561379855943e-03
3.573264097129e-03
3.813515272342e-05
2.317010546205e-04
1.684523730529e-03
2.059717510317e-03
1.667768338569e-03
1.670146493024e-03
2.267663308420e-03
3.178923531201e-04
9.964139518495e-04
2.911719455908e-03
8.268837727983e-04
2.205120061471e-03
1.580120742219e-03
2.103398479909e-03
1.148118875155e-03
1.555762120343e-03
2.531037065596e-03
2.451028404291e-03
2.368295937184e-03
1.603012120839e-03
1.769938222399e-03
1.662798776229e-03
2.386486090576e-03
3.113220563383e-03
3.162830648009e-03
3.299755988237e-03
3.209862637904e-03
3.070982032990e-03
3.116932359018e-03
3.257714180591e-03
3.165149465782e-03
3.330008849726e-03
3.205904878223e-03
3.063595319382e-03
3.100534024448e-03
3.230095186721e-03
2.962431280027e-03
2.976482423668e-03
1.818745369965e-03
3.414113161977e-04
3.803756978152e-04
2.200157193590e-03
3.488480639529e-03
3.531746511142e-03
1.308876662330e-03
3.360824598693e-03
2.406332238644e-03
8.731606360850e-04
3.291002043802e-03
3.023042948567e-03
2.931362112692e-03
2.884289197583e-03
3.567269369859e-03
2.756302298510e-03
3.141160307674e-03
2.195746109237e-03
2.164107355427e-03
2.025231534724e-03
3.020948613442e-03
2.979959414853e-03
2.852533238807e-03
2.822011318133e-03
2.714665622891e-03
2.916986395776e-03
3.456543425944e-03
3.433716473511e-03
9.871312957301e-04
1.095680711381e-03
1.251798911264e-03
1.205792814774e-03
1.046048666090e-03
1.160323830240e-03
1.316711923195e-03
1.116547970341e-03
3.039367400519e-03
2.866292239241e-03
1.976706513851e-03
1.929712446039e-03
1.785946762214e-03
1.419955555081e-03
1.509806134307e-03
1.654906305331e-03
1.330989489076e-03
2.556877459599e-03
2.841314658163e-03
2.048209162390e-03
1.454080505048e-03
2.384875656281e-03
2.500644416103e-03
2.491737296308e-03
2.627393885490e-03
2.521817073654e-03
1.678706470405e-03
1.736104068860e-03
1.653920239292e-03
1.794081961433e-03
1.710339767085e-03
1.579840711374e-03
1.850155036419e-03
1.758087954402e-03
2.396548536695e-03
1.713655867244e-05
1.655595346990e-04
1.623691071656e-04
3.081189174738e-04
3.239900742914e-04
4.788731324665e-04
4.645581633500e-04
1.667561478534e-04
3.008013528746e-05
1.664712368868e-04
3.729400800352e-05
1.661804979762e-04
3.271516439254e-04
5.417129330079e-04
2.702964163556e-03
1.355087229609e-03
1.285184812557e-03
1.145327711109e-03
1.222051863200e-03
1.413633442986e-03
1.066377187280e-03
1.013695272961e-03
8.666289413691e-05
2.006217712492e-04
1.868842926574e-04
3.262144618525e-04
3.236383938382e-04
2.007895237042e-04
1.990260780739e-04
8.084532816454e-05
1.970882387301e-04
3.280088974721e-04
7.413984871589e-05
3.087975050335e-03
3.166286059720e-03
2.794538502031e-03
2.421870509522e-03
5.423921703293e-05
3.591299202453e-03
3.606214428542e-03
3.613338005104e-03
2.484472721351e-03
2.554210881761e-03
3.598534580697e-03
9.110821567273e-04
3.345694985297e-03
3.338578496241e-03
8.468133286821e-04
8.962048406982e-04
2.072535608889e-03
1.938842722376e-03
2.372429400542e-03
1.959079814408e-03
2.268667102451e-03
2.780700146776e-03
5.435079942353e-04
2.804872535173e-03
2.762571008551e-03
3.112442199000e-03
9.455496835487e-04
1.516184864573e-03
5.803693974830e-04
3.193590921510e-03
2.265857082508e-03
1.687998848984e-03
1.272208253980e-03
1.004735262866e-03
8.385995885707e-04
1.934069847735e-03
1.546850097276e-03
2.209893171318e-03
3.194504535649e-03
7.664044015570e-05
2.302083392105e-03
1.836183416301e-03
2.841081734231e-03
2.502232807842e-03
5.572354436028e-04
3.150857780303e-03
3.373595868241e-03
2.673003133628e-03
4.281926007360e-04
2.660260586399e-03
2.623028658004e-03
3.061816842027e-03
8.590355098766e-04
1.869930534216e-03
2.125211029806e-03
2.212053076377e-03
3.397015285018e-03
2.106610400701e-03
2.568073280280e-03
2.153517333744e-03
9.234322305160e-04
2.393572035308e-03
1.914786591284e-03
3.294599282121e-03
2.736299407695e-03
1.542819106361e-03
3.181622074488e-03
1.740051292105e-03
2.608824938086e-03
2.175490247023e-03
2.474747733426e-03
2.732915379913e-03
2.296387693446e-03
1.992382252734e-03
2.347339721885e-03
6.527100719813e-04
1.680799157804e-03
2.814457758193e-03
2.926224851956e-03
3.437768804076e-03
2.005182680379e-03
2.304781508236e-03
3.321788534745e-03
1.600491616623e-03
6.302296940047e-04
6.728607338021e-04
1.237384807114e-03
1.997328412327e-03
1.744803630609e-03
3.408066578357e-03
2.354033325241e-03
2.310772600902e-03
4.116242676101e-04
2.248887106139e-03
2.404869677207e-03
1.906287578638e-03
2.635646655139e-03
1.623777283302e-03
3.153562337851e-03
1.929148858248e-03
2.458634684410e-03
2.367811207150e-03
1.437320325375e-03
2.416535168039e-03
2.611266744907e-03
2.507173325380e-03
2.425783134843e-03
1.800790039264e-03
2.058990091611e-03
1.797660426829e-03
2.573617916108e-03
3.580608580203e-03
2.599486754518e-03
2.794471950783e-03
1.709126561697e-03
2.407887057041e-03
3.242806304138e-04
2.090747058690e-03
1.763905709098e-03
1.275474889914e-03
1.840999669117e-03
2.950068281018e-03
1.819633975951e-03
1.428987852355e-03
1.875956431415e-03
1.909347253513e-03
2.839838157960e-03
1.932797648900e-03
2.704211194257e-03
3.384679949258e-04
2.451531573548e-03
2.413181403564e-03
1.197400382736e-03
1.883824502452e-03
2.977318193094e-03
1.758537206759e-03
2.026590385393e-03
2.837945731216e-03
2.480138591028e-03
2.133681252320e-03
2.169237610168e-03
1.763260176483e-03
8.519207927956e-04
6.984687844588e-04
1.467897844797e-03
2.939618466780e-03
4.491366392000e-04
2.923891015094e-03
4.798916782142e-04
1.359081679512e-03
2.653282385132e-03
2.809284666770e-03
1.402541118710e-03
7.773235348105e-04
1.298287715332e-03
2.270164625191e-03
1.346019282906e-03
1.245917619612e-03
3.480719644752e-03
1.295900878028e-03
3.624474811878e-03
2.706031474585e-03
2.525666174325e-03
1.611563072309e-03
1.032194015405e-05
1.577532855138e-03
1.047842266262e-03
2.864342291200e-03
2.531185104518e-03
9.500443712319e-04
3.340634700579e-03
3.218053480354e-03
3.017826950320e-03
2.660666231234e-03
2.513805512561e-03
3.359669515003e-03
2.402122020762e-03
1.688571061463e-04
2.062200374248e-03
1.453476688381e-03
1.341791344273e-03
1.016104162921e-03
9.728679847510e-04
3.038914506626e-04
1.253155117276e-03
2.874963749306e-03
2.517256300394e-03
2.752384577782e-03
8.454560395944e-04
3.459220920198e-03
3.036845735600e-03
2.770721574371e-03
2.889015103038e-03
6.289738559525e-04
2.610072022408e-03
3.225572095094e-03
3.130325945599e-03
2.758851304933e-03
2.490388872432e-03
3.504730267751e-03
5.416304241370e-04
3.508754722079e-03
3.000370781020e-03
2.702906717591e-03
2.583778716125e-03
2.619130258359e-03
3.383147249495e-03
4.336489547086e-04
3.008959468440e-03
1.226667005642e-03
1.439727525697e-04
2.682899820225e-03
3.132883917246e-03
2.618230675228e-03
3.204560939761e-04
1.612857360587e-04
2.740594621154e-03
3.305964176477e-03
6.115409182880e-04
3.622171687937e-03
2.199784436687e-04
2.382974552294e-03
1.817464206314e-04
2.742798290188e-03
3.497006338700e-03
1.351088532824e-03
2.373942705466e-03
8.767511459069e-04
3.036313450907e-03
2.790300983491e-04
3.517301879492e-03
2.792513827774e-03
3.460777880430e-03
3.087917252572e-03
1.551725833259e-04
3.106110229340e-03
2.712420509188e-03
2.402914105683e-03
3.416224430910e-03
1.090847279819e-03
4.415914293089e-04
3.641379516730e-03
6.371854854680e-05
2.397207496919e-03
2.732727320815e-03
4.213833165646e-04
2.630513453062e-03
3.339079447355e-03
1.658820697505e-03
3.277140787506e-03
4.181122302054e-04
-1.727652168616e-05
2.884845662277e-03
3.026248085375e-03
3.489755607681e-03
2.782328796484e-03
5.271509616509e-04
3.240001389932e-03
1.461868956973e-03
3.116775518444e-03
2.771697531621e-03
5.899351024455e-05
1.783204161361e-03
1.597369549920e-04
2.678073615092e-03
1.522245945585e-03
1.400203864921e-03
1.360181187433e-03
1.491868947942e-03
1.515360312552e-03
1.613884557914e-03
1.651158506074e-03
1.743370932958e-03
1.802087872934e-03
1.880265588508e-03
1.936205661102e-03
2.021624940633e-03
2.086801022839e-03
2.166360551751e-03
2.219992503345e-03

SCALARS node_materi_strain_total_size_dev_sd_ept float
LOOKUP_TABLE default
9.278483822121e-05
5.966722409538e-03
6.720148402686e-03
9.034657298113e-03
2.457801378350e-04
5.497133975349e-04
8.230214728002e-04
1.138998476103e-03
1.444737677668e-03
1.745763644130e-03
2.051815916602e-03
2.364424149581e-03
2.683713630257e-03
3.017247225374e-03
3.372361014446e-03
3.718940274492e-03
4.042692563310e-03
4.416670437514e-03
4.811722935253e-03
5.207080360281e-03
5.619540771570e-03
6.049066400992e-03
6.465229101356e-03
9.047662498906e-03
9.032077910219e-03
9.035218449461e-03
9.033029561260e-03
9.021312771746e-03
9.026839449739e-03
9.023452324645e-03
9.013385584115e-03
9.015621014563e-03
9.004928447370e-03
8.985450571574e-03
8.978786732418e-03
8.964253333030e-03
8.938745151279e-03
8.909452855549e-03
8.870157748257e-03
8.834093118410e-03
8.798991865193e-03
8.756137556094e-03
8.705800018958e-03
8.640968633575e-03
8.569334455110e-03
8.490075211515e-03
8.403291515168e-03
8.313714172186e-03
8.219587743254e-03
8.119414681865e-03
8.013580247140e-03
7.903675560457e-03
7.811276535536e-03
7.695744353947e-03
7.573071336822e-03
7.466128286548e-03
7.378694187055e-03
7.289986693655e-03
7.210703228231e-03
7.135580952789e-03
7.064009064322e-03
6.995475805399e-03
6.936925475854e-03
6.900802114796e-03
6.879110812869e-03
6.852255779668e-03
6.767503860585e-03
6.790777597397e-03
6.759199563880e-03
6.755675885633e-03
6.759523142887e-03
6.752894189575e-03
6.308832150576e-03
6.652763547791e-03
6.984028204714e-03
7.304011144100e-03
7.625752218342e-03
7.940367203959e-03
8.249793343212e-03
8.551145136392e-03
8.856934543137e-03
7.983834671766e-04
6.066442798851e-03
1.688296523912e-03
2.569043737380e-03
3.440460877825e-03
3.786552720244e-03
4.185255573466e-03
4.574706369722e-03
4.958705838321e-03
5.331335580845e-03
5.692683746796e-03
3.673000208982e-03
3.858659317184e-03
4.195605457742e-03
4.546423201499e-03
4.900245404436e-03
5.252659528105e-03
5.600708704813e-03
5.916813083539e-03
5.938837585877e-03
5.944824217016e-03
5.944692730658e-03
5.995103179735e-03
5.961523017137e-03
5.963490804205e-03
5.974582677530e-03
5.993647006092e-03
6.001669826619e-03
6.007865604992e-03
6.016594296029e-03
6.025133822118e-03
6.039141831136e-03
7.315328263111e-04
7.779852564933e-04
7.590804545509e-04
6.978112037996e-04
6.293141548890e-04
5.745953245587e-04
5.141963847095e-04
4.525598186496e-04
3.966293493998e-04
3.435591957582e-04
2.960716730681e-04
2.726820692413e-04
2.233482867273e-04
1.747813978349e-04
1.486273774606e-04
1.357632941437e-04
1.207379907635e-04
9.590811773662e-05
8.330023869204e-05
3.404642149905e-03
3.391097238872e-03
3.382653737197e-03
3.378920746732e-03
3.386286524716e-03
3.399793336692e-03
3.420377518025e-03
3.443078478716e-03
3.467037487406e-03
3.490928672583e-03
3.514170880573e-03
3.536203325564e-03
3.556729154568e-03
3.575517635523e-03
3.592418551587e-03
3.607357337531e-03
3.620323019817e-03
3.631317374932e-03
3.640340500297e-03
3.647403080085e-03
3.652583385025e-03
3.656055136918e-03
3.657394297953e-03
3.657233329314e-03
3.642167435683e-03
3.853494452561e-03
3.842189173645e-03
3.837467446782e-03
3.833061062581e-03
3.828686849174e-03
3.823570221838e-03
3.817245001314e-03
3.809516136712e-03
3.800346741138e-03
3.789753565035e-03
3.777791643793e-03
3.764560773553e-03
3.750300872206e-03
3.735336607134e-03
3.720079639320e-03
3.704932824114e-03
3.690789945069e-03
3.678343730102e-03
3.669472630442e-03
3.664856456413e-03
3.668174588828e-03
3.706345335422e-03
3.653373926664e-03
4.108435393542e-03
4.166007840270e-03
4.138883280471e-03
4.133075575335e-03
4.131478262566e-03
4.131566475897e-03
4.134529203723e-03
4.138805039361e-03
4.144343529605e-03
4.150588919055e-03
4.157012841718e-03
4.163125245588e-03
4.168801862013e-03
4.173947969193e-03
4.178475888581e-03
4.182360312746e-03
4.185744454884e-03
4.189012895148e-03
4.192574353020e-03
4.196315332445e-03
4.198484596547e-03
4.196984363220e-03
4.548269162580e-03
4.549921895346e-03
4.549500990184e-03
4.548271992490e-03
4.547067732267e-03
4.546148681571e-03
4.545360570659e-03
4.544446035827e-03
4.543479500054e-03
4.542701820931e-03
4.542120132954e-03
4.541668577843e-03
4.541354161404e-03
4.542213512000e-03
4.544513083788e-03
4.548905079651e-03
4.553398824698e-03
4.559254554530e-03
4.584539688838e-03
4.520654269192e-03
4.908231156432e-03
4.975645219775e-03
4.953655638558e-03
4.945683989648e-03
4.938586382886e-03
4.932251647763e-03
4.928075631310e-03
4.923726604152e-03
4.919665544707e-03
4.915927124201e-03
4.913165060455e-03
4.911079991702e-03
4.908816581149e-03
4.906972208767e-03
4.905650480614e-03
4.904679726136e-03
4.903560198857e-03
4.902265763796e-03
4.900853628397e-03
5.254801532063e-03
5.255447410725e-03
5.257475788514e-03
5.260400044209e-03
5.263091565549e-03
5.267076266718e-03
5.271635984071e-03
5.276606754829e-03
5.280981003615e-03
5.287857768620e-03
5.295213106689e-03
5.302290596864e-03
5.310246130380e-03
5.315987116554e-03
5.324549134983e-03
5.350311908309e-03
5.284682504863e-03
5.643827164327e-03
5.708400242661e-03
5.685750573048e-03
5.674847611460e-03
5.666487227915e-03
5.657867421275e-03
5.648036035838e-03
5.640241989463e-03
5.633074714288e-03
5.626298689622e-03
5.620271513524e-03
5.615074104097e-03
5.611994160584e-03
5.607005948530e-03
5.607152357292e-03
5.609419048517e-03
1.220491706016e-03
2.137233099956e-03
3.031750511051e-03
3.670332786715e-03
4.030648194116e-03
4.422511603818e-03
4.809873533169e-03
5.183503409367e-03
5.547649740044e-03
5.902458149372e-03
2.275756095575e-03
7.228377740492e-03
4.069498565637e-04
5.964840862077e-04
6.832484365719e-03
3.969799002817e-03
3.205313448507e-03
7.658711665063e-03
4.729271557544e-03
8.130987595793e-03
5.486773358104e-03
6.675987810625e-03
2.637869543012e-04
8.501460375921e-03
6.204539932134e-03
1.912033369293e-03
4.173107099255e-03
8.675262715260e-03
8.828035656576e-03
8.911538536933e-03
8.877036218877e-03
8.884257273036e-03
6.349556307365e-03
6.315732380798e-03
6.311522692137e-03
7.467449864847e-03
6.583680118780e-03
6.529453485331e-04
2.210995105667e-04
5.398399680209e-03
6.252374695594e-03
9.813766834482e-04
8.727147417008e-03
7.928598443387e-03
8.334776318659e-03
7.427901486354e-03
7.061296639979e-03
5.333729930053e-04
6.322504256494e-03
6.657487390063e-03
8.091131667997e-03
3.405271642565e-04
2.525144433009e-03
8.957726350618e-03
4.391026602665e-03
3.283958034370e-03
5.116419460994e-03
5.846195951275e-03
1.316595426008e-03
6.844121095808e-03
6.632071935400e-03
1.866944725869e-04
8.685626834448e-03
6.365363911163e-03
6.498589672959e-03
6.656622329069e-03
6.804439334344e-03
6.979182616849e-03
7.101598584690e-03
6.924810124831e-03
7.213365561120e-03
7.029894716143e-03
7.276210428790e-03
7.311978718590e-03
7.120875716897e-03
7.396598978304e-03
7.197236637509e-03
6.923574879327e-03
6.989479001574e-03
6.717898530083e-03
6.771619919756e-03
7.039468934806e-03
6.807418440523e-03
6.541564031618e-03
6.561330634773e-03
6.298609970523e-03
6.300259988205e-03
6.039552572427e-03
6.021344739030e-03
6.286665219502e-03
5.988724790827e-03
5.722174360390e-03
5.670122115422e-03
5.399785381666e-03
5.328225584806e-03
5.614310010624e-03
5.259885191685e-03
4.960895525870e-03
4.886590049045e-03
4.572220641703e-03
4.498822045178e-03
4.166378328300e-03
4.099001379643e-03
4.446608181246e-03
4.058156257691e-03
3.696221832533e-03
3.673198513315e-03
4.044314070998e-03
3.678829329690e-03
4.055970918613e-03
3.709826136136e-03
3.332458764287e-03
3.383670174652e-03
3.761824841665e-03
3.452816544555e-03
3.081136625359e-03
3.168008622710e-03
3.538808295643e-03
3.268125885864e-03
2.907586660507e-03
3.019677662047e-03
3.380860525225e-03
3.139794435172e-03
2.790987495411e-03
2.917163072908e-03
3.268145576086e-03
3.048699039742e-03
3.402197933769e-03
2.707636623722e-03
2.842194013005e-03
2.510333209406e-03
2.647465791229e-03
5.563102121763e-03
2.324648852136e-03
2.193805690346e-03
2.462278323909e-03
2.789511633457e-03
2.146634324190e-03
2.283840617502e-03
1.974961988129e-03
4.253824534565e-03
7.074839195971e-03
2.110671159450e-03
1.806899322731e-03
1.675342698717e-03
1.510446598217e-03
7.148909116262e-03
7.449133940726e-03
7.311222446746e-03
7.618756292844e-03
7.485068109954e-03
1.639357447165e-03
7.590147700714e-03
7.742540298828e-03
6.277728375466e-03
5.463775788742e-03
4.416146199165e-03
2.423285121534e-03
2.248672086870e-03
2.565707676228e-03
3.631994065211e-03
3.767302686318e-03
4.006683374423e-03
4.142934757737e-03
4.391187979668e-03
4.528877402207e-03
4.284862863793e-03
4.672767794903e-03
4.431818630697e-03
4.785158723240e-03
4.652401076126e-03
4.821866580500e-03
4.583404282565e-03
4.976177098729e-03
4.739066168905e-03
4.354135969828e-03
4.510015500610e-03
4.134937420694e-03
4.434188790770e-03
4.789305769120e-03
4.813438664241e-03
5.163392255583e-03
5.194767504423e-03
5.539573113644e-03
5.578639866255e-03
5.244121769261e-03
7.466315151947e-03
3.301503889277e-03
3.332453941317e-03
2.928658316044e-03
2.966934615504e-03
2.555093376866e-03
2.600633189351e-03
2.183172471343e-03
2.177335660178e-03
1.810846296407e-03
1.845728070895e-03
1.495669133248e-03
1.566828299032e-03
6.262635079236e-03
5.516872093495e-03
5.887160180902e-03
5.866812633137e-03
1.383776245611e-03
4.898370829421e-03
5.054129078978e-03
4.925692268915e-03
5.636991582273e-03
1.347553693611e-03
2.237098934378e-03
2.693034549559e-03
7.784474388280e-03
7.650197303481e-03
5.335702450742e-03
1.473646446443e-03
5.071510789889e-03
1.459524665250e-03
4.668908546422e-03
5.060641706380e-03
4.053275108748e-03
6.231678528851e-03
6.209030997622e-03
1.914718165988e-03
1.663570687734e-03
1.350496379348e-03
1.465558300839e-03
1.772165423670e-03
1.572458144247e-03
1.281501831291e-03
1.399290114053e-03
1.693631794055e-03
1.521540696327e-03
1.242460376523e-03
1.361711061051e-03
5.297787122744e-03
1.170466081806e-03
6.646027683597e-03
5.464416017497e-03
5.965152773901e-03
7.948194631670e-03
7.814108406082e-03
7.507554549809e-03
7.674097849004e-03
7.977304438985e-03
7.838555229330e-03
7.528845884915e-03
7.694309221295e-03
7.378391847666e-03
7.546193861826e-03
7.858960238589e-03
7.713358482508e-03
7.396093595075e-03
7.565090510775e-03
7.243355360938e-03
7.412645869891e-03
7.733476889928e-03
1.189755658891e-03
5.311362537702e-03
5.716588798012e-03
2.398820582989e-03
2.705223226186e-03
2.891486873794e-03
3.040035230820e-03
7.581804990926e-03
7.902520758805e-03
2.345339734499e-03
2.836489188845e-03
8.074560632429e-03
4.832882490301e-03
4.449160727960e-03
5.138497681218e-03
5.213286275007e-03
4.884862929514e-03
4.966184469122e-03
5.264640755558e-03
4.635328285363e-03
4.524151150150e-03
8.023435803649e-03
1.547526660698e-03
1.261777271469e-03
5.229571911665e-03
4.916248358186e-03
6.558811593781e-03
6.543665177635e-03
6.837565522248e-03
6.831088599375e-03
7.121970347793e-03
7.123765530712e-03
6.825235810916e-03
6.567712850320e-03
7.130126286810e-03
7.252813993565e-03
5.505501671022e-03
1.820483133309e-03
1.063481416578e-03
1.087582158498e-03
1.302815684025e-03
1.602160226283e-03
5.752784861070e-03
7.411195782452e-03
7.394882600597e-03
5.018395999522e-03
5.283509130423e-03
6.597492047171e-03
7.172673491201e-03
7.210575605379e-03
7.052749141568e-03
9.832938635329e-04
9.879808596263e-04
8.139385247005e-03
3.166199788302e-03
3.334335112914e-03
1.135361826851e-03
8.863703680145e-04
7.746951369660e-03
8.062153183911e-03
3.227370053154e-03
3.379029263988e-03
5.630735203293e-03
1.207954379909e-03
8.212485441315e-03
4.995977588070e-03
4.599921998400e-03
2.849278694143e-03
2.513153718309e-03
2.012119197588e-03
2.008394884339e-03
1.484666838572e-03
1.430997177268e-03
6.054482708158e-03
8.269273344185e-03
6.826204388849e-03
6.510892313194e-03
7.142996360892e-03
9.486023153935e-04
5.890835982060e-03
5.002806880182e-03
7.669934859474e-03
7.649841490466e-03
3.634995173097e-03
3.813594933917e-03
3.544380149201e-03
4.006966894701e-03
6.743039867187e-03
4.086770798693e-03
6.444172287286e-03
6.363596694230e-03
6.167054642302e-03
5.532986216269e-03
5.522198341342e-03
3.396660612444e-03
4.783549804015e-03
3.080165443071e-03
3.982415940026e-03
3.876340227581e-03
8.162245106157e-03
8.326617879872e-03
7.070958922809e-03
6.911020793677e-03
1.097918186136e-03
9.841050016293e-04
3.541788918820e-03
5.600830357327e-03
8.233495396044e-03
8.352556249782e-03
8.191261688561e-03
5.932505479497e-03
2.927099106252e-03
4.471871295866e-03
9.633041686347e-04
5.906472750593e-03
8.206574827359e-04
7.305981804530e-03
5.403660740459e-03
5.635223059298e-03
6.920469082887e-03
6.329991742298e-03
5.872022612139e-03
5.523881448364e-03
6.075577699735e-03
5.884807086568e-03
5.963230370191e-03
5.684848561337e-03
2.132923749866e-03
1.946557201178e-03
7.725980704542e-03
7.434951086812e-03
7.917940536732e-03
7.895772692364e-03
6.960628171160e-03
6.635223099648e-03
1.725248158096e-03
5.259532658613e-03
8.428567071037e-03
6.262062536252e-03
6.022738959208e-03
5.748574353481e-03
7.336166593011e-04
8.118951972317e-04
8.375855206739e-03
3.768816028842e-03
4.169834337199e-03
3.266704146888e-03
6.250832848840e-03
6.234476604012e-03
5.814928321784e-03
5.781545799541e-03
8.522215084015e-03
5.852375739607e-03
4.775439108765e-03
5.515742365362e-03
8.209278784509e-03
8.547922895601e-03
6.880418653401e-03
6.710796430630e-03
7.031760659960e-03
1.470632053890e-03
1.146311282946e-03
8.187077103694e-03
2.078657825424e-03
2.250307142510e-03
1.319819403923e-03
1.600967386771e-03
3.422405511210e-03
3.274462072437e-03
7.344403017724e-03
7.575296684863e-03
6.837498546739e-03
4.691474687948e-03
4.298678227753e-03
4.212402725381e-03
8.452008052366e-03
8.646224884268e-03
2.335502235900e-03
2.217766121037e-03
2.256111981514e-03
8.552965282458e-03
6.048946253569e-03
5.875668070774e-03
7.210874053018e-04
8.750769810504e-04
2.201616289467e-03
1.697142808940e-03
8.453996967786e-03
8.301825570002e-03
8.635713308759e-03
1.533548921073e-03
6.514132599949e-03
6.351171838846e-03
6.237754863656e-03
6.534660453734e-03
6.883345644098e-03
7.217583024053e-03
7.464799317253e-03
6.670664559447e-04
8.439616247563e-03
6.720509820866e-03
6.306394370436e-04
6.559245977748e-03
6.749241506741e-03
6.379631969814e-03
1.239068066974e-03
6.648546706299e-03
6.858539032804e-03
5.705581272142e-04
8.704657596830e-03
5.694441602818e-04
6.628697798680e-04
6.171951344379e-03
5.896005268531e-03
6.316254139215e-03
6.043253650023e-03
5.629597947844e-03
5.797064725539e-03
6.537393072680e-03
6.273574722920e-03
5.974973911086e-03
6.452840587232e-03
5.597413079876e-03
4.394142666428e-03
4.500313653488e-03
4.256227729329e-03
8.198131376828e-03
8.105890410258e-03
5.187066069980e-03
4.790356151374e-03
6.569572531541e-03
6.545529441811e-03
6.852558544201e-03
6.807843802586e-03
7.112176514354e-03
7.060909660433e-03
7.366630790245e-03
7.772258428543e-03
3.506186843228e-03
5.966089917628e-03
7.008451801954e-03
6.665583430585e-03
5.473944423264e-03
5.196487369863e-03
6.378109812780e-03
3.938762038146e-03
8.857006309514e-03
7.122566326088e-04
8.057299058484e-04
4.367547282895e-03
5.748210326662e-03
4.721403902317e-03
4.775004148198e-03
5.097029767801e-03
7.797798855401e-04
2.732683304690e-03
7.406933424996e-03
2.448903552276e-03
4.993472826123e-03
3.829958317978e-03
5.784192802977e-03
3.034624641698e-03
4.256763788684e-03
6.841010050317e-03
6.630196841438e-03
6.449062251545e-03
3.749015062389e-03
5.034429865638e-03
4.736076773798e-03
6.502911681591e-03
8.026748716130e-03
8.133065088709e-03
8.389258753876e-03
8.228167125655e-03
7.961232730756e-03
8.053142741548e-03
8.313268746277e-03
8.140464777736e-03
8.440868322845e-03
8.206980218641e-03
7.940232118581e-03
8.000412098311e-03
8.241849383666e-03
7.735048377879e-03
7.326801498809e-03
4.662728434538e-03
8.438216550970e-04
1.117964055424e-03
6.039193014027e-03
8.714248453445e-03
8.798421080927e-03
3.044600894082e-03
8.420132797177e-03
6.555483815108e-03
1.820543629247e-03
8.237812870658e-03
7.857151296086e-03
7.679725830780e-03
7.569415307591e-03
8.856007787760e-03
7.189627032341e-03
7.818787227108e-03
5.149194273676e-03
5.148653380110e-03
4.795897197778e-03
7.864968415404e-03
7.329758389169e-03
6.921421737038e-03
6.820046156684e-03
6.491155392536e-03
7.134078812096e-03
8.640382692942e-03
8.586478698333e-03
1.886627274882e-03
2.107172719337e-03
2.453950526533e-03
2.358397293927e-03
2.004528310590e-03
2.275277230497e-03
2.641565523837e-03
2.211120172859e-03
7.845932539866e-03
6.982227923321e-03
4.259573221623e-03
4.133113073760e-03
3.752474226662e-03
2.934431518892e-03
3.127895050868e-03
3.476070350428e-03
2.747777512952e-03
6.525246480348e-03
6.908039297721e-03
4.527303712898e-03
2.982980909855e-03
6.340243962113e-03
6.637994575649e-03
6.650413934487e-03
6.953795847873e-03
6.660029629061e-03
3.573215211871e-03
3.725730080203e-03
3.531385053804e-03
3.879426545550e-03
3.674960786222e-03
3.356305063022e-03
4.027461550872e-03
3.799795156302e-03
6.316580820799e-03
5.676305226812e-04
6.407585260222e-04
6.233525403265e-04
7.938776597853e-04
7.996215111317e-04
1.005979920956e-03
9.712618576837e-04
6.462358038111e-04
4.900587990933e-04
6.007243458440e-04
4.442452697750e-04
5.737334458278e-04
8.067972441206e-04
1.151399298304e-03
6.514740873260e-03
2.847407827290e-03
2.690788011313e-03
2.380671593927e-03
2.547030314775e-03
2.978849538200e-03
2.214479342971e-03
2.102373075500e-03
2.071120391679e-04
4.382218712567e-04
4.143509705758e-04
7.005051888335e-04
6.963082834217e-04
4.465271406216e-04
4.565401248871e-04
2.314178118718e-04
4.650891854625e-04
7.194061099161e-04
2.400360809713e-04
7.787330143773e-03
7.960474869279e-03
6.768073180114e-03
6.332610424837e-03
3.688055654650e-04
8.866162389015e-03
8.905827054024e-03
8.913364612503e-03
5.821432501067e-03
6.032428339816e-03
8.876320239550e-03
1.841317854251e-03
8.477860004419e-03
8.350944024017e-03
1.885405797440e-03
1.771911028464e-03
4.613913065779e-03
4.202189976709e-03
5.462573676277e-03
4.290898804243e-03
5.135302627318e-03
6.684149544659e-03
1.140944244729e-03
7.223999839611e-03
7.086571897268e-03
7.880032254426e-03
1.940948615102e-03
3.200823849026e-03
1.222240850069e-03
8.048463811475e-03
6.234796248599e-03
3.502671098962e-03
2.603765235488e-03
2.013813102497e-03
1.648145692377e-03
5.048781148764e-03
3.186439315117e-03
4.925004788737e-03
8.046757389679e-03
3.384670629598e-04
5.188347905930e-03
3.907940159801e-03
7.361674602413e-03
5.918507255885e-03
1.138227596084e-03
8.001251765795e-03
8.497907675385e-03
7.016622321526e-03
9.363177887608e-04
6.890920014407e-03
6.183062843961e-03
7.910384460711e-03
1.771095342625e-03
4.090151149805e-03
5.762751771460e-03
6.021931633548e-03
8.479653380355e-03
5.202884768870e-03
6.041556052834e-03
4.856077046164e-03
1.908068274725e-03
5.480986236335e-03
4.419875283951e-03
8.299621475861e-03
7.114339012113e-03
3.303079686361e-03
8.108544402077e-03
3.638787778374e-03
6.260862547711e-03
6.015075712698e-03
6.565909128555e-03
7.257668240193e-03
5.948359634505e-03
4.403113458798e-03
5.332051628495e-03
1.243860509419e-03
4.512097361306e-03
7.339783135524e-03
7.412803888172e-03
8.586290324739e-03
5.511165495268e-03
5.221925361882e-03
8.387816339494e-03
3.329471678632e-03
1.314023426700e-03
1.573860197990e-03
2.551259948364e-03
4.830010862576e-03
3.686147526637e-03
8.583360599989e-03
5.378686676672e-03
5.213507418983e-03
1.787191673030e-03
6.147619865638e-03
5.542126914173e-03
4.143238618405e-03
6.297517863981e-03
3.466606064701e-03
7.932316810874e-03
5.400272692474e-03
5.716329035076e-03
5.405450905987e-03
3.496081061102e-03
6.248157770508e-03
6.200607628087e-03
5.823730862748e-03
6.233443693090e-03
3.830753989928e-03
5.665494073582e-03
3.833530285451e-03
6.827883818002e-03
8.875739336514e-03
6.124865049991e-03
7.391380294724e-03
3.623511318988e-03
5.852025272532e-03
7.021833395897e-04
5.784884884719e-03
3.773676439698e-03
2.583059207393e-03
3.915766766013e-03
7.270192103136e-03
3.926859327824e-03
2.957194840737e-03
4.082006264620e-03
5.301422513809e-03
7.498149710948e-03
4.237629029627e-03
7.098495931644e-03
7.546754315176e-04
6.204998313442e-03
5.599915298997e-03
2.380500070071e-03
4.016599642668e-03
7.779599034152e-03
4.925417250350e-03
4.403755545722e-03
7.373670836112e-03
6.188361151768e-03
5.165142355491e-03
4.802728964391e-03
4.995393422649e-03
1.715354543275e-03
1.429850408034e-03
3.010386562875e-03
7.619086666425e-03
9.526794434207e-04
7.669642012154e-03
1.044716966819e-03
2.717394581653e-03
6.540112505081e-03
7.163711115580e-03
2.806883994008e-03
1.613671704077e-03
2.558514592003e-03
5.504622339227e-03
2.671959721701e-03
2.456108725253e-03
8.645572005786e-03
2.579807807206e-03
8.925150319532e-03
6.522454613694e-03
6.504125063593e-03
4.518890692582e-03
6.536427989583e-04
4.553290186688e-03
2.069370865289e-03
7.524122025900e-03
6.518903234733e-03
1.891538248322e-03
8.446690820414e-03
8.037147720934e-03
7.634345332081e-03
6.350169308919e-03
6.192837166607e-03
8.375357602887e-03
6.240784737083e-03
5.524753781909e-04
4.596640745488e-03
4.130270892526e-03
3.933416862228e-03
2.981699981233e-03
2.017479080017e-03
7.819382708067e-04
3.683213252947e-03
7.004245392980e-03
6.577334011494e-03
6.845151155437e-03
2.766181690874e-03
8.651878766144e-03
7.556089394721e-03
6.705169637874e-03
7.181112946199e-03
1.935437743908e-03
6.886790911990e-03
8.146064383433e-03
7.886180525557e-03
6.671043124779e-03
6.555298504767e-03
8.683412921786e-03
1.060723690035e-03
8.686264455849e-03
7.793464991205e-03
6.938308601227e-03
6.877868042721e-03
6.243267944503e-03
8.540504807316e-03
1.412752880948e-03
7.618191866247e-03
2.547440783020e-03
6.325865109301e-04
6.395889169471e-03
8.045808094471e-03
6.237608377552e-03
6.895434658765e-04
4.913335970439e-04
6.567320190562e-03
8.354764476171e-03
1.195638926267e-03
8.945992255757e-03
9.849911519376e-04
6.218521511773e-03
4.579416061997e-04
6.628389401178e-03
8.696782435260e-03
2.830852047273e-03
6.364104967077e-03
1.820005123978e-03
7.654937194407e-03
7.260686516367e-04
8.726573224111e-03
6.727690058641e-03
8.675195452210e-03
7.656427149186e-03
6.580080663729e-04
7.760575907365e-03
6.472526668605e-03
6.230115859398e-03
8.597013328449e-03
2.264840371921e-03
9.484593270410e-04
8.955759525769e-03
1.570945517814e-04
6.198270964528e-03
6.612879062803e-03
8.929256116832e-04
6.750939346819e-03
8.430427143274e-03
3.559705620697e-03
8.198207726259e-03
9.279695984895e-04
6.288679690251e-04
7.336059512942e-03
7.502562335895e-03
8.717503888764e-03
7.116700875861e-03
1.359495284025e-03
8.246649944926e-03
3.078360782252e-03
7.915122606012e-03
6.686081949708e-03
9.347508855907e-04
3.867814057115e-03
4.532389127797e-04
6.401415889382e-03
3.226954345730e-03
3.516382775156e-03
3.689624191028e-03
3.937636001046e-03
4.033815794697e-03
4.346819739816e-03
4.360817291367e-03
4.743560211846e-03
4.733429390613e-03
5.122604461637e-03
5.067224633800e-03
5.490350975930e-03
5.439056601037e-03
5.844963469685e-03
5.770556810636e-03


CELL_DATA 2241

SCALARS element_number int
LOOKUP_TABLE default
407
408
409
410
411
412
413
414
415
416
417
418
419
420
421
422
423
424
425
426
427
428
429
430
431
432
433
434
435
436
437
438
439
440
441
442
443
444
445
446
447
448
449
450
451
452
453
454
455
456
457
458
459
460
461
462
463
464
465
466
467
468
469
470
471
472
473
474
475
476
477
478
479
480
481
482
483
484
485
486
487
488
489
490
491
492
493
494
495
496
497
498
499
500
501
502
503
504
505
506
507
508
509
510
511
512
513
514
515
516
517
518
519
520
521
522
523
524
525
526
527
528
529
530
531
532
533
534
535
536
537
538
539
540
541
542
543
544
545
546
547
548
549
550
551
552
553
554
555
556
557
558
559
560
561
562
563
564
565
566
567
568
569
570
571
572
573
574
575
576
577
578
579
580
581
582
583
584
585
586
587
588
589
590
591
592
593
594
595
596
597
598
599
600
601
602
603
604
605
606
607
608
609
610
611
612
613
614
615
616
617
618
619
620
621
622
623
624
625
626
627
628
629
630
631
632
633
634
635
636
637
638
639
640
641
642
643
644
645
646
647
648
649
650
651
652
653
654
655
656
657
658
659
660
661
662
663
664
665
666
667
668
669
670
671
672
673
674
675
676
677
678
679
680
681
682
683
684
685
686
687
688
689
690
691
692
693
694
695
696
697
698
699
700
701
702
703
704
705
706
707
708
709
710
711
712
713
714
715
716
717
718
719
720
721
722
723
724
725
726
727
728
729
730
731
732
733
734
735
736
737
738
739
740
741
742
743
744
745
746
747
748
749
750
751
752
753
754
755
756
757
758
759
760
761
762
763
764
765
766
767
768
769
770
771
772
773
774
775
776
777
778
779
780
781
782
783
784
785
786
787
788
789
790
791
792
793
794
795
796
797
798
799
800
801
802
803
804
805
806
807
808
809
810
811
812
813
814
815
816
817
818
819
820
821
822
823
824
825
826
827
828
829
830
831
832
833
834
835
836
837
838
839
840
841
842
843
844
845
846
847
848
849
850
851
852
853
854
855
856
857
858
859
860
861
862
863
864
865
866
867
868
869
870
871
872
873
874
875
876
877
878
879
880
881
882
883
884
885
886
887
888
889
890
891
892
893
894
895
896
897
898
899
900
901
902
903
904
905
906
907
908
909
910
911
912
913
914
915
916
917
918
919
920
921
922
923
924
925
926
927
928
929
930
931
932
933
934
935
936
937
938
939
940
941
942
943
944
945
946
947
948
949
950
951
952
953
954
955
956
957
958
959
960
961
962
963
964
965
966
967
968
969
970
971
972
973
974
975
976
977
978
979
980
981
982
983
984
985
986
987
988
989
990
991
992
993
994
995
996
997
998
999
1000
1001
1002
1003
1004
1005
1006
1007
1008
1009
1010
1011
1012
1013
1014
1015
1016
1017
1018
1019
1020
1021
1022
1023
1024
1025
1026
1027
1028
1029
1030
1031
1032
1033
1034
1035
1036
1037
1038
1039
1040
1041
1042
1043
1044
1045
1046
1047
1048
1049
1050
1051
1052
1053
1054
1055
1056
1057
1058
1059
1060
1061
1062
1063
1064
1065
1066
1067
1068
1069
1070
1071
1072
1073
1074
1075
1076
1077
1078
1079
1080
1081
1082
1083
1084
1085
1086
1087
1088
1089
1090
1091
1092
1093
1094
1095
1096
1097
1098
1099
1100
1101
1102
1103
1104
1105
1106
1107
1108
1109
1110
1111
1112
1113
1114
1115
1116
1117
1118
1119
1120
1121
1122
1123
1124
1125
1126
1127
1128
1129
1130
1131
1132
1133
1134
1135
1136
1137
1138
1139
1140
1141
1142
1143
1144
1145
1146
1147
1148
1149
1150
1151
1152
1153
1154
1155
1156
1157
1158
1159
1160
1161
1162
1163
1164
1165
1166
1167
1168
1169
1170
1171
1172
1173
1174
1175
1176
1177
1178
1179
1180
1181
1182
1183
1184
1185
1186
1187
1188
1189
1190
1191
1192
1193
1194
1195
1196
1197
1198
1199
1200
1201
1202
1203
1204
1205
1206
1207
1208
1209
1210
1211
1212
1213
1214
1215
1216
1217
1218
1219
1220
1221
1222
1223
1224
1225
1226
1227
1228
1229
1230
1231
1232
1233
1234
1235
1236
1237
1238
1239
1240
1241
1242
1243
1244
1245
1246
1247
1248
1249
1250
1251
1252
1253
1254
1255
1256
1257
1258
1259
1260
1261
1262
1263
1264
1265
1266
1267
1268
1269
1270
1271
1272
1273
1274
1275
1276
1277
1278
1279
1280
1281
1282
1283
1284
1285
1286
1287
1288
1289
1290
1291
1292
1293
1294
1295
1296
1297
1298
1299
1300
1301
1302
1303
1304
1305
1306
1307
1308
1309
1310
1311
1312
1313
1314
1315
1316
1317
1318
1319
1320
1321
1322
1323
1324
1325
1326
1327
1328
1329
1330
1331
1332
1333
1334
1335
1336
1337
1338
1339
1340
1341
1342
1343
1344
1345
1346
1347
1348
1349
1350
1351
1352
1353
1354
1355
1356
1357
1358
1359
1360
1361
1362
1363
1364
1365
1366
1367
1368
1369
1370
1371
1372
1373
1374
1375
1376
1377
1378
1379
1380
1381
1382
1383
1384
1385
1386
1387
1388
1389
1390
1391
1392
1393
1394
1395
1396
1397
1398
1399
1400
1401
1402
1403
1404
1405
1406
1407
1408
1409
1410
1411
1412
1413
1414
1415
1416
1417
1418
1419
1420
1421
1422
1423
1424
1425
1426
1427
1428
1429
1430
1431
1432
1433
1434
1435
1436
1437
1438
1439
1440
1441
1442
1443
1444
1445
1446
1447
1448
1449
1450
1451
1452
1453
1454
1455
1456
1457
1458
1459
1460
1461
1462
1463
1464
1465
1466
1467
1468
1469
1470
1471
1472
1473
1474
1475
1476
1477
1478
1479
1480
1481
1482
1483
1484
1485
1486
1487
1488
1489
1490
1491
1492
1493
1494
1495
1496
1497
1498
1499
1500
1501
1502
1503
1504
1505
1506
1507
1508
1509
1510
1511
1512
1513
1514
1515
1516
1517
1518
1519
1520
1521
1522
1523
1524
1525
1526
1527
1528
1529
1530
1531
1532
1533
1534
1535
1536
1537
1538
1539
1540
1541
1542
1543
1544
1545
1546
1547
1548
1549
1550
1551
1552
1553
1554
1555
1556
1557
1558
1559
1560
1561
1562
1563
1564
1565
1566
1567
1568
1569
1570
1571
1572
1573
1574
1575
1576
1577
1578
1579
1580
1581
1582
1583
1584
1585
1586
1587
1588
1589
1590
1591
1592
1593
1594
1595
1596
1597
1598
1599
1600
1601
1602
1603
1604
1605
1606
1607
1608
1609
1610
1611
1612
1613
1614
1615
1616
1617
1618
1619
1620
1621
1622
1623
1624
1625
1626
1627
1628
1629
1630
1631
1632
1633
1634
1635
1636
1637
1638
1639
1640
1641
1642
1643
1644
1645
1646
1647
1648
1649
1650
1651
1652
1653
1654
1655
1656
1657
1658
1659
1660
1661
1662
1663
1664
1665
1666
1667
1668
1669
1670
1671
1672
1673
1674
1675
1676
1677
1678
1679
1680
1681
1682
1683
1684
1685
1686
1687
1688
1689
1690
1691
1692
1693
1694
1695
1696
1697
1698
1699
1700
1701
1702
1703
1704
1705
1706
1707
1708
1709
1710
1711
1712
1713
1714
1715
1716
1717
1718
1719
1720
1721
1722
1723
1724
1725
1726
1727
1728
1729
1730
1731
1732
1733
1734
1735
1736
1737
1738
1739
1740
1741
1742
1743
1744
1745
1746
1747
1748
1749
1750
1751
1752
1753
1754
1755
1756
1757
1758
1759
1760
1761
1762
1763
1764
1765
1766
1767
1768
1769
1770
1771
1772
1773
1774
1775
1776
1777
1778
1779
1780
1781
1782
1783
1784
1785
1786
1787
1788
1789
1790
1791
1792
1793
1794
1795
1796
1797
1798
1799
1800
1801
1802
1803
1804
1805
1806
1807
1808
1809
1810
1811
1812
1813
1814
1815
1816
1817
1818
1819
1820
1821
1822
1823
1824
1825
1826
1827
1828
1829
1830
1831
1832
1833
1834
1835
1836
1837
1838
1839
1840
1841
1842
1843
1844
1845
1846
1847
1848
1849
1850
1851
1852
1853
1854
1855
1856
1857
1858
1859
1860
1861
1862
1863
1864
1865
1866
1867
1868
1869
1870
1871
1872
1873
1874
1875
1876
1877
1878
1879
1880
1881
1882
1883
1884
1885
1886
1887
1888
1889
1890
1891
1892
1893
1894
1895
1896
1897
1898
1899
1900
1901
1902
1903
1904
1905
1906
1907
1908
1909
1910
1911
1912
1913
1914
1915
1916
1917
1918
1919
1920
1921
1922
1923
1924
1925
1926
1927
1928
1929
1930
1931
1932
1933
1934
1935
1936
1937
1938
1939
1940
1941
1942
1943
1944
1945
1946
1947
1948
1949
1950
1951
1952
1953
1954
1955
1956
1957
1958
1959
1960
1961
1962
1963
1964
1965
1966
1967
1968
1969
1970
1971
1972
1973
1974
1975
1976
1977
1978
1979
1980
1981
1982
1983
1984
1985
1986
1987
1988
1989
1990
1991
1992
1993
1994
1995
1996
1997
1998
1999
2000
2001
2002
2003
2004
2005
2006
2007
2008
2009
2010
2011
2012
2013
2014
2015
2016
2017
2018
2019
2020
2021
2022
2023
2024
2025
2026
2027
2028
2029
2030
2031
2032
2033
2034
2035
2036
2037
2038
2039
2040
2041
2042
2043
2044
2045
2046
2047
2048
2049
2050
2051
2052
2053
2054
2055
2056
2057
2058
2059
2060
2061
2062
2063
2064
2065
2066
2067
2068
2069
2070
2071
2072
2073
2074
2075
2076
2077
2078
2079
2080
2081
2082
2083
2084
2085
2086
2087
2088
2089
2090
2091
2092
2093
2094
2095
2096
2097
2098
2099
2100
2101
2102
2103
2104
2105
2106
2107
2108
2109
2110
2111
2112
2113
2114
2115
2116
2117
2118
2119
2120
2121
2122
2123
2124
2125
2126
2127
2128
2129
2130
2131
2132
2133
2134
2135
2136
2137
2138
2139
2140
2141
2142
2143
2144
2145
2146
2147
2148
2149
2150
2151
2152
2153
2154
2155
2156
2157
2158
2159
2160
2161
2162
2163
2164
2165
2166
2167
2168
2169
2170
2171
2172
2173
2174
2175
2176
2177
2178
2179
2180
2181
2182
2183
2184
2185
2186
2187
2188
2189
2190
2191
2192
2193
2194
2195
2196
2197
2198
2199
2200
2201
2202
2203
2204
2205
2206
2207
2208
2209
2210
2211
2212
2213
2214
2215
2216
2217
2218
2219
2220
2221
2222
2223
2224
2225
2226
2227
2228
2229
2230
2231
2232
2233
2234
2235
2236
2237
2238
2239
2240
2241
2242
2243
2244
2245
2246
2247
2248
2249
2250
2251
2252
2253
2254
2255
2256
2257
2258
2259
2260
2261
2262
2263
2264
2265
2266
2267
2268
2269
2270
2271
2272
2273
2274
2275
2276
2277
2278
2279
2280
2281
2282
2283
2284
2285
2286
2287
2288
2289
2290
2291
2292
2293
2294
2295
2296
2297
2298
2299
2300
2301
2302
2303
2304
2305
2306
2307
2308
2309
2310
2311
2312
2313
2314
2315
2316
2317
2318
2319
2320
2321
2322
2323
2324
2325
2509
2510
2511
2512
2513
2514
2515
2516
2517
2518
2519
2520
2521
2522
2523
2524
2525
2526
2527
2528
2529
2530
2531
2532
2533
2534
2535
2536
2537
2538
2539
2540
2541
2542
2543
2544
2545
2546
2547
2548
2549
2550
2551
2552
2553
2554
2555
2556
2557
2558
2559
2560
2561
2562
2563
2564
2565
2566
2567
2568
2569
2570
2571
2572
2573
2574
2575
2576
2577
2578
2579
2580
2581
2582
2583
2584
2585
2586
2587
2588
2589
2590
2591
2592
2593
2594
2595
2596
2597
2598
2599
2600
2601
2602
2603
2604
2605
2606
2607
2608
2609
2610
2611
2612
2613
2614
2615
2616
2617
2618
2619
2620
2621
2622
2623
2624
2625
2626
2627
2628
2629
2630
2631
2632
2633
2634
2635
2636
2637
2638
2639
2640
2641
2642
2643
2644
2645
2646
2647
2648
2649
2650
2651
2652
2653
2654
2655
2656
2657
2658
2659
2660
2661
2662
2663
2664
2665
2666
2667
2668
2669
2670
2671
2672
2673
2674
2675
2676
2677
2678
2679
2680
2681
2682
2683
2684
2685
2686
2687
2688
2689
2690
2691
2692
2693
2694
2695
2696
2697
2698
2699
2700
2701
2702
2703
2704
2705
2706
2707
2708
2709
2710
2711
2712
2713
2714
2715
2716
2717
2718
2719
2720
2721
2722
2723
2724
2725
2726
2727
2728
2729
2730
2731
2732
2733
2734
2735
2736
2737
2738
2739
2740
2741
2742
2743
2744
2745
2746
2747
2748
2749
2750
2751
2752
2753
2754
2755
2756
2757
2758
2759
2760
2761
2762
2763
2764
2765
2766
2767
2768
2769
2770
2771
2772
2773
2774
2775
2776
2777
2778
2779
2780
2781
2782
2783
2784
2785
2786
2787
2788
2789
2790
2791
2792
2793
2794
2795
2796
2797
2798
2799
2800
2801
2802
2803
2804
2805
2806
2807
2808
2809
2810
2811
2812
2813
2814
2815
2816
2817
2818
2819
2820
2821
2822
2823
2824
2825
2826
2827
2828
2829
2830

SCALARS element_group int
LOOKUP_TABLE default
0
0
0
0
0
0
0
0
0
0
0
0
0
0
0
0
0
0
0
0
0
0
0
0
0
0
0
0
0
0
0
0
0
0
0
0
0
0
0
0
0
0
0
0
0
0
0
0
0
0
0
0
0
0
0
0
0
0
0
0
0
0
0
0
0
0
0
0
0
0
0
0
0
0
0
0
0
0
0
0
0
0
0
0
0
0
0
0
0
0
0
0
0
0
0
0
0
0
0
0
0
0
0
0
0
0
0
0
0
0
0
0
0
0
0
0
0
0
0
0
0
0
0
0
0
0
0
0
0
0
0
0
0
0
0
0
0
0
0
0
0
0
0
0
0
0
0
0
0
0
0
0
0
0
0
0
0
0
0
0
0
0
0
0
0
0
0
0
0
0
0
0
0
0
0
0
0
0
0
0
0
0
0
0
0
0
0
0
0
0
0
0
0
0
0
0
0
0
0
0
0
0
0
0
0
0
0
0
0
0
0
0
0
0
0
0
0
0
0
0
0
0
0
0
0
0
0
0
0
0
0
0
0
0
0
0
0
0
0
0
0
0
0
0
0
0
0
0
0
0
0
0
0
0
0
0
0
0
0
0
0
0
0
0
0
0
0
0
0
0
0
0
0
0
0
0
0
0
0
0
0
0
0
0
0
0
0
0
0
0
0
0
0
0
0
0
0
0
0
0
0
0
0
0
0
0
0
0
0
0
0
0
0
0
0
0
0
0
0
0
0
0
0
0
0
0
0
0
0
0
0
0
0
0
0
0
0
0
0
0
0
0
0
0
0
0
0
0
0
0
0
0
0
0
0
0
0
0
0
0
0
0
0
0
0
0
0
0
0
0
0
0
0
0
0
0
0
0
0
0
0
0
0
0
0
0
0
0
0
0
0
0
0
0
0
0
0
0
0
0
0
0
0
0
0
0
0
0
0
0
0
0
0
0
0
0
0
0
0
0
0
0
0
0
0
0
0
0
0
0
0
0
0
0
0
0
0
0
0
0
0
0
0
0
0
0
0
0
0
0
0
0
0
0
0
0
0
0
0
0
0
0
0
0
0
0
0
0
0
0
0
0
0
0
0
0
0
0
0
0
0
0
0
0
0
0
0
0
0
0
0
0
0
0
0
0
0
0
0
0
0
0
0
0
0
0
0
0
0
0
0
0
0
0
0
0
0
0
0
0
0
0
0
0
0
0
0
0
0
0
0
0
0
0
0
0
0
0
0
0
0
0
0
0
0
0
0
0
0
0
0
0
0
0
0
0
0
0
0
0
0
0
0
0
0
0
0
0
0
0
0
0
0
0
0
0
0
0
0
0
0
0
0
0
0
0
0
0
0
0
0
0
0
0
0
0
0
0
0
0
0
0
0
0
0
0
0
0
0
0
0
0
0
0
0
0
0
0
0
0
0
0
0
0
0
0
0
0
0
0
0
0
0
0
0
0
0
0
0
0
0
0
0
0
0
0
0
0
0
0
0
0
0
0
0
0
0
0
0
0
0
0
0
0
0
0
0
0
0
0
0
0
0
0
0
0
0
0
0
0
0
0
0
0
0
0
0
0
0
0
0
0
0
0
0
0
0
0
0
0
0
0
0
0
0
0
0
0
0
0
0
0
0
0
0
0
0
0
0
0
0
0
0
0
0
0
0
0
0
0
0
0
0
0
0
0
0
0
0
0
0
0
0
0
0
0
0
0
0
0
0
0
0
0
0
0
0
0
0
0
0
0
0
0
0
0
0
0
0
0
0
0
0
0
0
0
0
0
0
0
0
0
0
0
0
0
0
0
0
0
0
0
0
0
0
0
0
0
0
0
0
0
0
0
0
0
0
0
0
0
0
0
0
0
0
0
0
0
0
0
0
0
0
0
0
0
0
0
0
0
0
0
0
0
0
0
0
0
0
0
0
0
0
0
0
0
0
0
0
0
0
0
0
0
0
0
0
0
0
0
0
0
0
0
0
0
0
0
0
0
0
0
0
0
0
0
0
0
0
0
0
0
0
0
0
0
0
0
0
0
0
0
0
0
0
0
0
0
0
0
0
0
0
0
0
0
0
0
0
0
0
0
0
0
0
0
0
0
0
0
0
0
0
0
0
0
0
0
0
0
0
0
0
0
0
0
0
0
0
0
0
0
0
0
0
0
0
0
0
0
0
0
0
0
0
0
0
0
0
0
0
0
0
0
0
0
0
0
0
0
0
0
0
0
0
0
0
0
0
0
0
0
0
0
0
0
0
0
0
0
0
0
0
0
0
0
0
0
0
0
0
0
0
0
0
0
0
0
0
0
0
0
0
0
0
0
0
0
0
0
0
0
0
0
0
0
0
0
0
0
0
0
0
0
0
0
0
0
0
0
0
0
0
0
0
0
0
0
0
0
0
0
0
0
0
0
0
0
0
0
0
0
0
0
0
0
0
0
0
0
0
0
0
0
0
0
0
0
0
0
0
0
0
0
0
0
0
0
0
0
0
0
0
0
0
0
0
0
0
0
0
0
0
0
0
0
0
0
0
0
0
0
0
0
0
0
0
0
0
0
0
0
0
0
0
0
0
0
0
0
0
0
0
0
0
0
0
0
0
0
0
0
0
0
0
0
0
0
0
0
0
0
0
0
0
0
0
0
0
0
0
0
0
0
0
0
0
0
0
0
0
0
0
0
0
0
0
0
0
0
0
0
0
0
0
0
0
0
0
0
0
0
0
0
0
0
0
0
0
0
0
0
0
0
0
0
0
0
0
0
0
0
0
0
0
0
0
0
0
0
0
0
0
0
0
0
0
0
0
0
0
0
0
0
0
0
0
0
0
0
0
0
0
0
0
0
0
0
0
0
0
0
0
0
0
0
0
0
0
0
0
0
0
0
0
0
0
0
0
0
0
0
0
0
0
0
0
0
0
0
0
0
0
0
0
0
0
0
0
0
0
0
0
0
0
0
0
0
0
0
0
0
0
0
0
0
0
0
0
0
0
0
0
0
0
0
0
0
0
0
0
0
0
0
0
0
0
0
0
0
0
0
0
0
0
0
0
0
0
0
0
0
0
0
0
0
0
0
0
0
0
0
0
0
0
0
0
0
0
0
0
0
0
0
0
0
0
0
0
0
0
0
0
0
0
0
0
0
0
0
0
0
0
0
0
0
0
0
0
0
0
0
0
0
0
0
0
0
0
0
0
0
0
0
0
0
0
0
0
0
0
0
0
0
0
0
0
0
0
0
0
0
0
0
0
0
0
0
0
0
0
0
0
0
0
0
0
0
0
0
0
0
0
0
0
0
0
0
0
0
0
0
0
0
0
0
0
0
0
0
0
0
0
0
0
0
0
0
0
0
0
0
0
0
0
0
0
0
0
0
0
0
0
0
0
0
0
0
0
0
0
0
0
0
0
0
0
0
0
0
0
0
0
0
0
0
0
0
0
0
0
0
0
0
0
0
0
0
0
0
0
0
0
0
0
0
0
0
0
0
0
0
0
0
0
0
0
0
0
0
0
0
0
0
0
0
0
0
0
0
0
0
0
0
0
0
0
0
0
0
0
0
0
0
0
0
0
0
0
0
0
0
0
0
0
0
0
0
0
0
0
0
0
0
0
0
0
0
0
0
0
0
0
0
0
0
0
0
0
0
0
0
0
0
0
0
0
0
0
0
0
0
0
0
0
0
0
0
0
0
0
0
0
0
0
0
0
0
0
0
0
0
0
0
0
0
0
0
0
0
0
0
0
0
0
0
0
0
0
0
0
0
0
0
0
0
0
0
0
0
0
0
0
0
0
0
0
0
0
0
0
0
0
0
0
0
0
0
0
0
0
0
0
0
0
0
0
0
0
0
0
0
0
0
0
0
0
0
0
0
0
0
0
0
0
0
0
0
0
0
0
0
0
0
0
0
0
0
0
0
0
0
0
0
0
0
0
0
0
0
0
0
0
0
0
0
0
0
0
0
0
0
0
0
0
0
0
0
0
0
0
0
0
0
0
0
0
0
0
0
0
0
0
0
0
0
0
0
0
0
0
0
0
0
0
0
0
0
0
0
0
0
0
0
0
0
0
0
0
0
0
0
0
0
0
0
0
0
0
0
0
0
0
0
0
0
0
0
0
0
0
0
0
0
0
0
0
0
0
0
0
0
0
0
0
0
0
0
0
0
0
0
0
0
0
0
0
0
0
0
0
0
0
0
0
0
0
0
0
0
0
0
0
0
0
0
0
0
0
0
0
0
0
0
0
0
0
0
0
0
0
0
0
0
0
0
0
0
0
0
0
0
0
0
0
0
0
0
0
0
0
0
0
0
0
0
0
0
0
0
0
0
0
0
0
0
0
0
0
0
0
0
0
0
0
0
0
0
0
0
0
0
0
0
0
0
0
0
0
0
0
0
0
0
0
0
0
0
0
0
0
0
0
0
0
0
0
0
0
0
0
0
0
0
0
0
0
0
0
0
0
0
0
0
0
0
0
0
0
0
0
0
0
0
0
0
0
0
0
0
0
0
0
0
0
0
0
0
0
0
0
0
0
0
0
0
0
0
0
0
0
0
0
0
0
0
0
0
0
0
0
0
0
0
0
0
0
0
0
0
0
0
0
0
0
0
0
0
0
0
0
0
0
0
0
0
0
0
0
0
0
0
0
0
0
0
0
0
0
0
0
0
0
0
0
0
0
0
0
0
0
0
0
0
0
0
0
0
0
0
0
0
0
0
0
0
0
0
0
0
0
0
0
0
0
0
0
0
0
0
0
0
0
0
0
0
0
0
0
0
0
0
0
0
0
0
0
0
0
0
0
0
0
0
0
0
0
0
0
0
0
0
0
0
0
0
0
0
0
0
0
0
0
0
0
0
0
0
0
0
0
0
0
0
0
0
0
0
0
0
0
0
0
0
0
0
0
0
0
0
0
0
0
0
0
0
0
0
0
0
0
0
0
0
0
0
0
0
0
0
0
0
0
0
0
0
0
0
0
0
0
0
0
0
0
0
0
0
0
0
0
0
0
0
0
0
0
0
0
0
0
0
0
0
0
0
0
0
0
0
0
0
0
0
0
0
0
0
0
0
0
0
0
0
0
0
0
0
0
0
0


VECTORS element_materi_velocity float
2.022717938506e-03 1.067702450401e-02 0.0 
2.158149708084e-03 1.013330199099e-02 0.0 
5.898479065869e-04 1.003975035981e-03 0.0 
7.695166610407e-05 1.495945150727e-03 0.0 
7.909058896993e-04 8.353537831211e-03 0.0 
-5.138732412927e-04 2.616920081064e-03 0.0 
5.933697533000e-04 8.282827262121e-03 0.0 
2.050437093409e-03 9.905872946741e-03 0.0 
6.574209374886e-04 8.332974398446e-03 0.0 
1.125110673586e-04 1.531060830387e-03 0.0 
1.554668475507e-04 -2.583457911136e-04 0.0 
1.772815974617e-03 1.028889877974e-02 0.0 
7.366678417519e-05 3.763381221576e-06 0.0 
1.196820878255e-03 7.423585640450e-03 0.0 
6.092593136257e-05 7.514357697687e-06 0.0 
6.201858426987e-05 1.057301246254e-03 0.0 
1.026147818437e-03 8.669221436437e-03 0.0 
-4.335829389480e-04 2.274637335193e-03 0.0 
5.498034876860e-05 -7.513629343030e-04 0.0 
4.809994894941e-05 -7.445146725754e-04 0.0 
1.336549428162e-04 1.568600365011e-03 0.0 
2.220023194483e-03 1.072071245630e-02 0.0 
2.342233354714e-03 1.038837089618e-02 0.0 
9.414889337388e-04 2.827569074324e-04 0.0 
1.377227698486e-03 6.424356207192e-03 0.0 
1.725741337179e-04 -2.206946061797e-04 0.0 
1.628350898230e-03 9.355658837779e-03 0.0 
9.389669640355e-04 7.420668772638e-04 0.0 
1.461421510002e-03 6.414425834786e-03 0.0 
7.736935033948e-04 2.288112277825e-04 0.0 
3.593600871996e-05 5.020510743114e-04 0.0 
-1.178441568741e-04 -5.243552523781e-04 0.0 
6.782160163186e-04 1.232437661178e-03 0.0 
5.042719693441e-05 -7.535425403362e-05 0.0 
3.936701580202e-04 6.610842075385e-05 0.0 
1.125271751178e-04 1.570457318621e-05 0.0 
1.030362887404e-04 1.385758164188e-05 0.0 
8.513734649554e-04 4.022666239883e-04 0.0 
4.935875107695e-04 9.241571829083e-03 0.0 
4.484436640389e-04 9.254503458201e-03 0.0 
2.338944178035e-03 1.015036435722e-02 0.0 
3.817265506123e-04 8.407199325945e-05 0.0 
1.315028598784e-03 9.205826539668e-03 0.0 
1.699959533875e-03 9.005474241732e-03 0.0 
4.125568598385e-05 2.118490700383e-03 0.0 
1.333321969325e-03 8.368172148505e-03 0.0 
-1.708971149086e-04 5.272879304884e-04 0.0 
4.685468659139e-05 1.799458231851e-03 0.0 
-4.559822186475e-04 3.946024612649e-04 0.0 
1.176916110422e-03 7.886656749276e-03 0.0 
2.356951708338e-03 1.030708838897e-02 0.0 
7.124969810673e-05 -7.264232680555e-04 0.0 
5.387792533489e-04 5.910246548876e-04 0.0 
2.270113719625e-03 1.052424200886e-02 0.0 
4.260907929455e-04 1.030652905150e-03 0.0 
1.581446633127e-04 -6.615053823085e-04 0.0 
6.127681467404e-05 -7.153892306887e-04 0.0 
1.022012945647e-04 -7.551539690365e-05 0.0 
7.851702542626e-05 -7.432080539329e-04 0.0 
7.432754329800e-05 1.066020105329e-03 0.0 
-7.968350512630e-04 9.112781569136e-04 0.0 
1.398854737785e-03 9.562394695283e-04 0.0 
2.943504113698e-03 7.659333697383e-03 0.0 
3.714067923793e-04 5.218567069139e-04 0.0 
1.199185753391e-04 7.595660215264e-06 0.0 
2.257124910487e-03 1.067568438161e-02 0.0 
-7.657555454764e-04 1.075848392707e-03 0.0 
7.283236428894e-04 1.190384056353e-03 0.0 
1.830126804252e-04 -3.174655468290e-04 0.0 
7.188439481711e-04 7.979196535214e-04 0.0 
2.608437186964e-04 -1.781598120585e-04 0.0 
7.214387219942e-05 2.987981186337e-04 0.0 
1.230231365162e-03 1.007930728843e-03 0.0 
2.128693825129e-06 -7.829725080341e-04 0.0 
1.472706740465e-04 -6.448042122115e-04 0.0 
2.558321436960e-04 1.375370270858e-03 0.0 
5.317109549964e-04 1.247804184765e-03 0.0 
2.326514120276e-04 5.940702063092e-03 0.0 
1.004873915604e-04 -7.331599991127e-04 0.0 
2.720950314989e-04 6.804886157720e-03 0.0 
1.971318985574e-04 -2.375737515273e-04 0.0 
9.649176152663e-04 8.404708768929e-03 0.0 
2.288433482096e-03 1.038860963835e-02 0.0 
2.108226219496e-03 1.076849760449e-02 0.0 
7.430275629193e-04 7.782368461574e-03 0.0 
6.799171981007e-04 7.752191190212e-03 0.0 
1.535349303893e-04 -1.558769453286e-04 0.0 
2.709072992587e-05 -9.907939346154e-05 0.0 
1.746296963777e-03 3.385982578312e-03 0.0 
8.515091068754e-04 8.316998187513e-03 0.0 
-1.051276726858e-04 -4.848996101173e-04 0.0 
1.639648526810e-03 8.163876475345e-03 0.0 
1.256774443127e-04 4.231161339371e-03 0.0 
1.525472450537e-04 4.573886398376e-03 0.0 
1.436200775269e-04 5.541629538583e-04 0.0 
6.134632605150e-04 2.921935550271e-04 0.0 
1.085010446306e-03 8.430156185021e-03 0.0 
4.386506417220e-04 9.003127226217e-05 0.0 
9.434708441307e-05 6.712811077881e-03 0.0 
2.792925389092e-03 8.272589350192e-03 0.0 
7.684724328888e-04 8.842030749381e-03 0.0 
7.828086514095e-05 8.778430856629e-06 0.0 
2.406367132868e-03 1.700040984891e-03 0.0 
1.395829851832e-03 9.053198289655e-04 0.0 
2.660872165751e-03 6.125443757499e-03 0.0 
-2.542874470983e-04 3.697001028508e-04 0.0 
8.531123358870e-05 -1.753300433613e-05 0.0 
1.268979127335e-04 3.646952844118e-03 0.0 
-6.201004916839e-04 5.593974556854e-04 0.0 
1.437780174402e-04 1.705254205769e-05 0.0 
1.917101875976e-03 3.805650226570e-03 0.0 
1.860623166256e-06 -7.840902023957e-04 0.0 
3.186475272508e-03 4.782030761278e-03 0.0 
2.035917823055e-03 9.005319329363e-03 0.0 
2.884112008926e-04 -5.539416591728e-04 0.0 
2.654719459504e-03 8.425135276760e-03 0.0 
2.977812909997e-03 7.189073110127e-03 0.0 
2.808713526682e-04 4.974007548288e-05 0.0 
1.198555018043e-04 7.125497853153e-03 0.0 
2.853431229895e-03 7.272734108584e-03 0.0 
1.505360916370e-04 -4.983064693478e-04 0.0 
1.708161755142e-03 8.403105738603e-03 0.0 
1.000419446972e-04 3.344034633847e-03 0.0 
2.862882749763e-03 6.731464337542e-03 0.0 
-7.085024521933e-04 4.078630813036e-03 0.0 
2.224115972644e-03 9.678834817502e-03 0.0 
2.465949176214e-04 -5.746967082128e-04 0.0 
2.195926678821e-03 1.008149207624e-02 0.0 
1.940010444520e-04 9.738369979152e-04 0.0 
-3.262670132643e-04 3.823454259048e-03 0.0 
2.426068972288e-04 -2.128424794925e-04 0.0 
6.101933518351e-05 1.480872224591e-03 0.0 
2.890407095228e-03 8.034190461497e-03 0.0 
2.287906241639e-03 9.944930386089e-03 0.0 
4.230737583049e-04 7.595693074091e-05 0.0 
5.052530402871e-05 2.758107620631e-06 0.0 
2.165839406970e-04 -1.515499685526e-04 0.0 
2.891026544697e-03 7.737101862858e-03 0.0 
5.471012487784e-04 1.521119962603e-04 0.0 
2.692719529897e-03 8.838095147172e-03 0.0 
1.501533036952e-04 1.090900744196e-03 0.0 
8.281329576804e-04 9.795592966501e-04 0.0 
1.268389382793e-03 7.375942338391e-03 0.0 
2.954184353701e-04 5.542965848024e-03 0.0 
2.784984353399e-03 8.590666643329e-03 0.0 
2.243189305497e-03 1.033400605127e-02 0.0 
2.962747426625e-03 7.200928977084e-03 0.0 
2.953349215818e-03 5.675739744306e-03 0.0 
5.675687932765e-04 8.766060424671e-03 0.0 
3.137369188132e-03 4.374068311673e-03 0.0 
-6.821086040436e-05 -5.657560607674e-04 0.0 
1.362463532308e-04 8.027791695150e-03 0.0 
3.806155453504e-05 -7.636691892577e-04 0.0 
2.138747216044e-03 9.363114812004e-03 0.0 
4.437407478866e-04 1.189508951747e-04 0.0 
2.695073511026e-03 6.723408821795e-03 0.0 
1.168597834003e-04 -1.272268143535e-04 0.0 
1.688349989281e-03 9.297516251110e-03 0.0 
2.432536592390e-03 1.828280125613e-03 0.0 
3.191365166552e-04 8.445067292757e-03 0.0 
3.030687438408e-03 4.342633700494e-03 0.0 
1.153679972596e-04 -5.278909891897e-05 0.0 
1.654791639363e-04 -4.465497275723e-04 0.0 
1.195568995481e-04 -1.585107662478e-05 0.0 
2.262887772673e-03 7.937414611796e-03 0.0 
1.642678810207e-04 1.580400576346e-05 0.0 
1.352202382248e-04 8.525760336799e-03 0.0 
2.791196800357e-03 5.624237319580e-03 0.0 
2.044353382829e-03 9.437504800893e-03 0.0 
9.948574609917e-05 -2.702474102337e-04 0.0 
1.599072743575e-03 1.002364619538e-02 0.0 
2.957865969359e-03 3.920948489528e-03 0.0 
2.574750989538e-04 5.022416548026e-03 0.0 
3.642639075879e-04 8.780808675859e-03 0.0 
3.031317832979e-03 5.208720684917e-03 0.0 
2.129492132813e-03 9.784693326742e-03 0.0 
1.756085067775e-03 2.402865017785e-03 0.0 
3.048162993369e-04 -5.156285581710e-04 0.0 
7.627606843845e-04 5.645395443467e-04 0.0 
8.795262106009e-04 9.452819770321e-04 0.0 
2.475372021810e-03 9.009999641780e-03 0.0 
2.732597854905e-04 -5.008579494755e-04 0.0 
1.388199890238e-03 5.011749406751e-04 0.0 
2.571406313848e-03 9.387808818604e-03 0.0 
2.273808718831e-03 9.161010392916e-03 0.0 
2.105322406451e-03 8.512675050042e-03 0.0 
3.142377298798e-03 5.219154638881e-03 0.0 
1.096931977821e-04 1.154117990630e-03 0.0 
1.665904852910e-03 3.895675361177e-03 0.0 
8.076410297828e-05 -3.400685379575e-05 0.0 
8.171133963420e-04 7.187189308765e-03 0.0 
2.717273960422e-03 3.427043732398e-03 0.0 
1.664755995312e-03 3.406705660471e-03 0.0 
-1.783410732708e-03 2.839125730347e-03 0.0 
2.477420948965e-03 9.598185606473e-03 0.0 
1.513735296901e-03 4.318000968061e-04 0.0 
3.805920762882e-05 -7.161116389989e-04 0.0 
6.213973355811e-04 1.329330094079e-03 0.0 
1.535250975003e-03 5.376013620539e-03 0.0 
1.127616848992e-03 -2.025327533752e-04 0.0 
1.577407076310e-03 4.895370190874e-04 0.0 
1.633227323625e-03 7.657420530371e-03 0.0 
1.362479513411e-03 6.885370848265e-03 0.0 
7.345586509846e-04 2.039999794927e-04 0.0 
6.732834830568e-04 -4.511632780391e-04 0.0 
3.089850191512e-03 6.433101402579e-03 0.0 
2.412548273248e-03 7.328931633348e-03 0.0 
1.428727421450e-03 4.900299264545e-03 0.0 
2.212749192919e-03 7.515610794396e-03 0.0 
2.203717127680e-03 8.438627659775e-03 0.0 
2.747100595794e-03 1.951719469588e-03 0.0 
1.910554913532e-03 2.804319663873e-03 0.0 
-1.193433644016e-03 2.465113548126e-03 0.0 
2.426512986690e-03 9.506657560053e-03 0.0 
2.743343584026e-03 8.705766589704e-03 0.0 
3.043967268814e-03 6.951716256185e-03 0.0 
1.506760025855e-03 3.447102751910e-03 0.0 
2.600932592291e-04 2.544658801421e-03 0.0 
1.525981107532e-03 3.717873364282e-04 0.0 
4.105166828087e-04 8.655953281725e-03 0.0 
2.810911792846e-03 3.841396307215e-03 0.0 
1.505346131257e-03 2.987789096444e-04 0.0 
-2.471858500105e-05 -6.492630220770e-04 0.0 
1.393249461801e-03 4.417967841711e-03 0.0 
-4.885065445796e-05 -6.597323219441e-04 0.0 
5.853285170155e-05 -7.273046658737e-04 0.0 
8.617200421530e-04 8.122979379177e-03 0.0 
5.367812688803e-04 -4.864744377843e-04 0.0 
1.266365251393e-03 3.944932983549e-03 0.0 
4.857094969747e-04 -4.763993157158e-04 0.0 
1.479879664670e-03 5.445709785567e-03 0.0 
4.215972813477e-04 1.197583856870e-04 0.0 
2.270483818368e-04 -5.215462768617e-04 0.0 
1.528735246343e-03 5.336378720988e-04 0.0 
2.363579008440e-03 7.837949791610e-03 0.0 
1.426686814361e-04 9.842039594026e-06 0.0 
-1.539527301731e-03 2.493458965560e-03 0.0 
2.062998691809e-03 5.228345887070e-03 0.0 
3.000197088450e-03 3.584499077788e-03 0.0 
2.519767531630e-03 9.722833949460e-03 0.0 
1.597118013081e-03 4.306321513950e-04 0.0 
1.773878540565e-04 2.029549050750e-05 0.0 
1.727316593779e-03 4.364551817206e-03 0.0 
2.071232902791e-03 3.040259884526e-03 0.0 
1.472211360184e-03 4.771369882059e-04 0.0 
1.277619448778e-04 -1.903389155218e-04 0.0 
2.932230106500e-03 6.902010107209e-03 0.0 
1.597748467693e-03 4.887400379720e-03 0.0 
1.168136560052e-03 7.967660583333e-04 0.0 
2.913851873927e-03 3.216974146379e-03 0.0 
1.847434609558e-03 5.680418893483e-03 0.0 
2.179290521524e-03 6.588927798231e-03 0.0 
1.165918136925e-04 5.073664404943e-04 0.0 
3.155561380506e-03 6.169166292339e-03 0.0 
2.933077299302e-03 2.242582323645e-03 0.0 
3.084647545600e-04 7.846803266809e-03 0.0 
8.981401742366e-05 -1.785837369657e-04 0.0 
2.115273739630e-03 7.585194028239e-03 0.0 
2.184780850646e-03 3.465267716329e-03 0.0 
8.770056641679e-04 2.433840990547e-03 0.0 
1.710391204188e-04 6.315187612074e-04 0.0 
1.190748601649e-03 3.946458180405e-03 0.0 
2.350944375921e-03 6.925198868320e-03 0.0 
2.990833819949e-03 6.185001697972e-03 0.0 
1.061541021690e-03 3.469786275081e-03 0.0 
1.749365993217e-03 3.871233462188e-03 0.0 
2.797204044339e-03 6.775269507710e-03 0.0 
2.025833819746e-04 2.994822804708e-05 0.0 
2.873304614925e-03 2.028880656749e-03 0.0 
2.642704041797e-03 6.578066677984e-03 0.0 
3.251665692547e-03 4.757808589030e-03 0.0 
2.876036470770e-03 2.036507875609e-03 0.0 
1.404670286641e-03 2.364297914853e-03 0.0 
1.494314509368e-03 8.287028452291e-03 0.0 
2.838735253015e-03 2.618073386375e-03 0.0 
1.479794258981e-03 8.447233545578e-04 0.0 
1.641803571912e-03 4.384677808826e-03 0.0 
-1.605830173798e-03 2.209192131905e-03 0.0 
2.056841265164e-03 7.144127510472e-03 0.0 
2.203216406305e-03 2.792171780979e-03 0.0 
1.953106415686e-03 4.630331082314e-03 0.0 
1.310723125972e-03 2.027743688906e-03 0.0 
2.190038501805e-03 6.097820203662e-03 0.0 
-2.125719524206e-05 -4.837657511782e-04 0.0 
2.768487784793e-03 8.847690121021e-03 0.0 
2.786784207029e-03 1.831639759437e-03 0.0 
2.251836531359e-03 7.012413209182e-03 0.0 
1.482064663031e-03 7.670479012863e-03 0.0 
-8.709335276674e-05 2.070407500130e-03 0.0 
1.571273601452e-03 1.050267654811e-03 0.0 
1.203004909403e-03 5.709830066166e-04 0.0 
2.556278619319e-03 9.354970434545e-03 0.0 
1.684256011767e-03 4.869456358488e-03 0.0 
2.839016411000e-03 8.489043719834e-03 0.0 
2.715393792809e-03 2.540868446560e-03 0.0 
2.777882922413e-03 3.139070983303e-03 0.0 
2.170130485223e-04 2.189586386526e-03 0.0 
3.261606733840e-03 4.349955221471e-03 0.0 
6.016905410443e-04 4.889674673413e-03 0.0 
2.187060244101e-04 5.066639630027e-04 0.0 
2.855653637899e-04 5.279807854409e-04 0.0 
3.173135069779e-03 5.678804649143e-03 0.0 
1.800517869258e-03 2.888815309245e-03 0.0 
1.501490012981e-03 3.893525051229e-03 0.0 
2.658087922114e-03 6.081590223260e-03 0.0 
1.612478162160e-03 3.140544887516e-03 0.0 
1.282526099382e-03 7.512455615063e-04 0.0 
2.843668310340e-03 7.107312378461e-03 0.0 
1.951059003582e-04 1.325812767217e-03 0.0 
2.531137352660e-03 3.314675979744e-03 0.0 
2.793642889471e-03 2.125732085762e-03 0.0 
9.514110801387e-04 4.556622358697e-03 0.0 
2.690490830383e-04 8.787594486119e-05 0.0 
1.724933784190e-03 3.591708526473e-03 0.0 
2.969333399614e-03 6.390209828365e-03 0.0 
5.058586718458e-04 1.960807536355e-03 0.0 
2.173133222296e-03 8.027757035206e-04 0.0 
2.934427954178e-03 2.936855034056e-03 0.0 
1.307931648020e-03 4.913919466448e-04 0.0 
2.512206447595e-03 7.213566134543e-03 0.0 
3.024309937847e-04 3.968292076358e-04 0.0 
2.505547743061e-03 2.677408621525e-03 0.0 
2.711554927558e-03 1.645992564694e-03 0.0 
8.485917164275e-04 3.999275295512e-03 0.0 
9.914089470965e-04 5.850813155426e-03 0.0 
1.581836577525e-03 3.565733572171e-04 0.0 
2.242818064122e-03 6.557034673771e-03 0.0 
9.890165880917e-04 6.343317927414e-03 0.0 
3.722569591140e-04 3.589641590736e-04 0.0 
1.387493405579e-03 3.276182790537e-04 0.0 
3.043204195786e-04 4.460947553325e-04 0.0 
1.212882211976e-03 6.381312978795e-03 0.0 
1.999050093995e-03 3.762753953651e-03 0.0 
1.670988938391e-03 6.925793843374e-03 0.0 
2.496882204453e-03 8.114185435547e-03 0.0 
2.546828786470e-03 6.708337225961e-03 0.0 
2.470636308980e-03 6.324956127513e-03 0.0 
3.229182435967e-03 6.078133448810e-03 0.0 
3.927002208520e-04 3.111279126756e-04 0.0 
1.537725455174e-03 6.851499293978e-03 0.0 
2.067017598155e-03 8.081045235906e-03 0.0 
2.675117542457e-03 2.781746931165e-03 0.0 
3.869400352802e-04 -5.099426901088e-04 0.0 
2.324164695278e-03 8.757135453022e-03 0.0 
2.431515570721e-03 6.022105602923e-03 0.0 
2.738528952577e-04 8.752471925233e-03 0.0 
1.226274626136e-03 3.405293313753e-04 0.0 
2.422176515255e-03 2.922364921008e-03 0.0 
1.421910227892e-03 3.934342269842e-03 0.0 
2.348824470891e-03 5.401341611238e-03 0.0 
2.560252706016e-03 7.597353385948e-03 0.0 
2.610349919198e-03 1.474661548293e-03 0.0 
1.564502208350e-03 1.301606727655e-04 0.0 
3.654653366745e-04 2.188852563527e-04 0.0 
2.504737772894e-03 9.244580703802e-03 0.0 
1.543293358671e-03 1.413044496084e-03 0.0 
1.111727092246e-03 -1.942515771324e-04 0.0 
2.282666791527e-03 8.618893697734e-03 0.0 
2.292233774285e-03 7.244390269228e-03 0.0 
1.485740919024e-03 2.974724539527e-03 0.0 
2.908031593515e-03 6.090091270741e-03 0.0 
2.604887359892e-03 9.468769680497e-03 0.0 
2.516062621150e-03 8.497315208182e-03 0.0 
3.512263903771e-04 1.489735042097e-04 0.0 
8.770988890138e-04 3.922357444751e-04 0.0 
1.411206089874e-03 2.990679731977e-03 0.0 
1.475068989161e-03 4.411279141243e-03 0.0 
1.608173959152e-03 1.502281214665e-04 0.0 
3.028714621100e-03 7.497649589994e-03 0.0 
1.690558327814e-03 2.507618590252e-03 0.0 
2.089891048755e-03 2.431425254251e-03 0.0 
3.045733642438e-03 6.170513844635e-03 0.0 
2.274696249866e-03 8.988710672939e-04 0.0 
8.053285163195e-04 -3.502887947552e-04 0.0 
1.194368999162e-03 3.011912917986e-03 0.0 
1.451608699215e-03 1.169818964871e-03 0.0 
3.259228116642e-03 5.890373144866e-03 0.0 
2.704417597507e-03 6.939445975917e-03 0.0 
3.163559227897e-03 6.520640102795e-03 0.0 
2.966830680648e-04 4.862803060577e-04 0.0 
2.592767967492e-04 5.349796643065e-04 0.0 
6.558337598758e-04 1.327256661582e-03 0.0 
1.603564431697e-03 1.803160978000e-04 0.0 
9.933167815378e-04 3.461262438690e-03 0.0 
1.944562882042e-03 6.388343688499e-03 0.0 
2.393066326217e-03 2.341472981903e-03 0.0 
8.050666851422e-04 2.088354578750e-03 0.0 
2.831662478491e-03 8.586939991950e-03 0.0 
1.348359429879e-03 8.319880644580e-03 0.0 
1.136501542973e-03 6.375603776595e-03 0.0 
6.774013499147e-04 2.279713285442e-04 0.0 
1.637666209499e-03 2.942960022294e-03 0.0 
2.081770708618e-03 6.651058865678e-03 0.0 
2.474634495139e-03 5.835101873228e-03 0.0 
1.028863612855e-03 1.897852077771e-03 0.0 
-9.025938588050e-05 -2.605662419313e-04 0.0 
3.162651010437e-03 3.995355171837e-03 0.0 
3.282433055266e-03 5.282300077011e-03 0.0 
3.221698136105e-03 3.995464253883e-03 0.0 
-7.332868501566e-04 4.633800274448e-03 0.0 
2.561562001481e-04 7.589382909004e-03 0.0 
3.218014102461e-04 -4.942586489315e-04 0.0 
2.139450840695e-03 4.266732859384e-03 0.0 
1.421269234888e-04 4.847657255476e-05 0.0 
2.558790006880e-03 1.581885214693e-03 0.0 
1.974702704870e-03 8.129782221377e-03 0.0 
2.220480170040e-05 -7.699958069332e-04 0.0 
3.179139021516e-03 6.387672963677e-03 0.0 
3.098300379803e-03 3.627471148918e-03 0.0 
2.286050208496e-03 6.022559017358e-03 0.0 
3.300470750750e-04 3.891043435424e-04 0.0 
2.399866681224e-03 8.239416342403e-03 0.0 
2.747061467885e-03 5.937548692316e-03 0.0 
8.805467088727e-04 -3.205631228588e-04 0.0 
1.203482800300e-03 3.474278297446e-03 0.0 
1.539200240834e-03 1.607671681531e-04 0.0 
3.616147897958e-04 3.861111884847e-04 0.0 
1.541062490381e-04 2.382379832711e-04 0.0 
1.024177724241e-04 2.516227613504e-04 0.0 
1.429885447633e-04 2.799384626542e-04 0.0 
2.278198559161e-03 5.537992708479e-03 0.0 
1.277208249440e-03 3.470376284208e-03 0.0 
1.362063171256e-03 2.526031927149e-03 0.0 
3.131444104297e-03 6.929827373186e-03 0.0 
2.973808723468e-03 7.894182372934e-03 0.0 
6.764869368423e-04 -4.195712755703e-04 0.0 
1.265439172426e-03 3.007180302732e-03 0.0 
3.842839063744e-04 3.358229611457e-04 0.0 
9.911861815698e-04 3.004585104200e-03 0.0 
2.751041045771e-03 1.815534493899e-03 0.0 
1.057511310436e-03 3.010602323421e-03 0.0 
2.731252987006e-03 2.997301326706e-03 0.0 
3.288951568874e-03 5.412110395159e-03 0.0 
2.748790965613e-03 8.886316045798e-03 0.0 
1.141007980504e-03 3.699483684884e-03 0.0 
2.777092469251e-04 1.080457238604e-03 0.0 
3.095138540999e-03 6.618201732348e-03 0.0 
1.229214197990e-03 1.122275444001e-03 0.0 
7.466215597731e-04 -3.950159874100e-04 0.0 
9.874398686359e-04 1.347001108295e-04 0.0 
5.299714421245e-04 1.705064265843e-04 0.0 
2.501887140530e-03 4.962631593430e-03 0.0 
1.502141705405e-04 2.078567720614e-04 0.0 
4.673147312243e-04 1.003753705271e-03 0.0 
2.910218060134e-03 5.604569156700e-03 0.0 
-2.200967169754e-04 -2.462605013240e-04 0.0 
1.778302518308e-04 2.001319079679e-04 0.0 
6.130259617114e-04 2.374474159141e-04 0.0 
1.056444311725e-03 2.639440387114e-04 0.0 
2.567294442584e-03 1.464380833630e-03 0.0 
3.744875714202e-04 2.050952323733e-04 0.0 
-3.398498472700e-04 -2.905284544132e-04 0.0 
3.231078152905e-03 6.002915491050e-03 0.0 
2.739524996452e-03 5.456150561327e-03 0.0 
3.056459184538e-03 5.681275945988e-03 0.0 
2.824464034399e-03 6.269848678833e-03 0.0 
1.616733242925e-03 4.430401527691e-03 0.0 
1.884724211490e-04 1.729848785568e-04 0.0 
2.607822019788e-03 2.233567416001e-03 0.0 
-7.100105549878e-05 1.733224459209e-03 0.0 
2.610362466762e-04 3.782803867908e-05 0.0 
-2.432742742892e-04 -3.085137100184e-04 0.0 
2.613211982989e-03 8.703275314732e-03 0.0 
1.466456423057e-04 3.275620115721e-04 0.0 
2.228706377499e-03 8.856881950206e-03 0.0 
3.194075965614e-04 1.234271138813e-04 0.0 
1.968887356266e-04 1.482898300867e-04 0.0 
2.374410072778e-03 6.426452271066e-03 0.0 
-1.349316986386e-04 2.219837240679e-04 0.0 
-3.339612534810e-04 1.626846723123e-03 0.0 
5.916826713691e-05 2.050824889661e-04 0.0 
7.911374838664e-04 8.152924707050e-05 0.0 
1.425386582337e-03 8.614603943915e-03 0.0 
1.926790748351e-03 7.685928689229e-03 0.0 
1.831456752776e-04 1.145186961139e-04 0.0 
1.280543187234e-03 8.641997502435e-03 0.0 
1.912558083858e-04 4.959706554989e-04 0.0 
2.600885021103e-03 2.654895949032e-03 0.0 
1.054655537322e-03 6.868661872945e-03 0.0 
2.510427139009e-03 7.938288292247e-03 0.0 
2.632756289686e-03 1.619606584494e-03 0.0 
6.208778615783e-04 2.661366363046e-03 0.0 
1.921679100234e-04 1.007286721345e-04 0.0 
1.425768190266e-04 2.480423227866e-04 0.0 
1.162882519859e-04 2.550412016523e-04 0.0 
1.449446628346e-03 1.006829912501e-04 0.0 
5.539060364522e-04 -4.812814714681e-04 0.0 
3.296086531204e-03 5.063013116443e-03 0.0 
1.379861944039e-03 9.041170705579e-05 0.0 
1.874028096347e-04 8.314890670664e-05 0.0 
2.026521439143e-03 3.764986780005e-03 0.0 
1.574512877407e-03 7.501471974600e-04 0.0 
1.554205866517e-03 5.039390931108e-04 0.0 
9.180168731070e-04 6.321240975055e-03 0.0 
2.430409000780e-04 7.274450115024e-05 0.0 
-2.016686044992e-04 1.110510290464e-04 0.0 
1.555840158190e-04 5.760251637828e-05 0.0 
1.307637640202e-03 2.812075714121e-04 0.0 
1.522168232442e-04 1.889724355745e-04 0.0 
1.432447493266e-03 2.514990492074e-03 0.0 
-4.367474428232e-04 -2.058832045829e-04 0.0 
3.271517253762e-03 5.140009495999e-03 0.0 
8.643884575650e-04 2.979485611153e-03 0.0 
1.837845379650e-04 1.859792805168e-04 0.0 
2.370556609602e-03 5.452031707903e-03 0.0 
2.463742210199e-03 2.209834092532e-03 0.0 
4.456017330135e-04 3.798112896503e-03 0.0 
9.762296791251e-04 3.625255827304e-04 0.0 
1.287116350885e-03 1.129442763216e-04 0.0 
1.461329072179e-03 3.589309353558e-04 0.0 
-5.015524200114e-04 2.642523735745e-04 0.0 
1.958114852254e-04 1.628380825889e-04 0.0 
1.194749752550e-03 2.579892715514e-03 0.0 
1.299876697343e-03 3.286083297675e-04 0.0 
1.039436216110e-03 7.413861985719e-03 0.0 
8.108046433047e-04 -2.736211758064e-04 0.0 
1.482171456424e-03 5.770783444366e-04 0.0 
2.566210852946e-03 5.722006516953e-03 0.0 
1.823196613968e-04 1.043665602388e-04 0.0 
5.424858257379e-04 -4.591378494139e-04 0.0 
1.457333555158e-03 2.174855383182e-04 0.0 
3.210775915477e-03 4.956135872173e-03 0.0 
1.997715529826e-03 5.596789907160e-04 0.0 
1.747184827959e-03 8.420046472656e-04 0.0 
1.553611123535e-03 2.034617325440e-04 0.0 
3.220607227161e-03 5.410451917900e-03 0.0 
2.622673239150e-03 3.430065832596e-03 0.0 
2.412754616103e-03 1.396447309751e-03 0.0 
3.278594077324e-03 4.836522475367e-03 0.0 
9.697775389995e-04 -2.974619262508e-04 0.0 
2.402405786457e-03 4.426037646332e-03 0.0 
6.187171223044e-04 -4.613390432724e-04 0.0 
2.616022343630e-03 2.517156135194e-03 0.0 
2.717067211959e-03 1.635617912147e-03 0.0 
2.977109393078e-04 1.060790889330e-04 0.0 
8.481923009680e-04 2.543229199475e-03 0.0 
6.924251156746e-04 -3.226782091882e-04 0.0 
1.638235807424e-04 6.582459750304e-05 0.0 
7.235544483087e-04 2.684870926774e-04 0.0 
3.210354796362e-03 3.643652223788e-03 0.0 
-3.665945543228e-04 1.284173201389e-04 0.0 
2.219532412106e-04 6.113166174140e-05 0.0 
1.032947868676e-03 2.568928327190e-03 0.0 
1.074861471273e-03 8.588072569669e-05 0.0 
1.269221595495e-04 3.939937230642e-05 0.0 
1.385174139118e-03 1.305544193345e-04 0.0 
2.952192419130e-03 8.013469329542e-03 0.0 
1.960673167170e-03 7.196125185991e-03 0.0 
2.789564635585e-03 1.813637888029e-03 0.0 
1.471464876737e-03 6.357776950090e-05 0.0 
2.085587082830e-03 6.941067828596e-04 0.0 
1.622452493886e-03 5.369803436183e-03 0.0 
2.800092648081e-03 7.962649443488e-03 0.0 
2.342654862463e-03 1.456738455867e-03 0.0 
2.417972343616e-04 7.017955336105e-03 0.0 
8.927953127598e-04 -3.345958653504e-04 0.0 
2.438591375700e-03 1.300879075764e-03 0.0 
1.204886548919e-03 9.097796211488e-06 0.0 
7.658989951653e-04 -1.437754011814e-04 0.0 
-5.518329514907e-04 -3.218505798215e-05 0.0 
2.714902874966e-03 5.082189147196e-03 0.0 
1.225228928429e-03 1.558028936155e-04 0.0 
7.856113399131e-04 -3.315844289947e-04 0.0 
3.261837527598e-03 3.923267838275e-03 0.0 
1.469169706125e-03 1.835202679197e-04 0.0 
9.075558052575e-04 6.808503266674e-03 0.0 
1.004140589272e-03 -2.123050221004e-05 0.0 
1.161187405285e-04 3.334512884382e-05 0.0 
2.819114029584e-03 5.302928433803e-03 0.0 
6.859266147986e-04 -3.332419972852e-04 0.0 
2.982245408333e-03 5.415449815678e-03 0.0 
7.120108039255e-04 -3.554409540445e-04 0.0 
-4.355072130110e-04 -1.371317592106e-04 0.0 
1.891383286900e-03 6.746941834257e-03 0.0 
1.894598363334e-04 -5.470514092955e-04 0.0 
-6.089401648847e-05 -6.902618414822e-04 0.0 
5.709148196681e-04 -3.942015003332e-04 0.0 
1.354242051480e-03 1.962816049616e-04 0.0 
2.491952710855e-04 3.079410485451e-03 0.0 
2.175560772227e-03 7.428601153389e-04 0.0 
2.091399780262e-03 6.644383147274e-04 0.0 
1.918152126536e-03 8.620952253589e-03 0.0 
1.284078190374e-03 9.266762442999e-03 0.0 
3.316480729149e-04 1.006370123561e-03 0.0 
3.118149422885e-03 5.453501860736e-03 0.0 
-6.156175644007e-05 -7.042403969128e-04 0.0 
2.076728912217e-04 -5.636856879067e-04 0.0 
-2.877540681021e-04 -8.039205018157e-05 0.0 
6.342066994413e-04 -4.475885196632e-04 0.0 
1.811719875646e-03 2.347498666794e-03 0.0 
2.845735786163e-04 3.111485603492e-03 0.0 
8.423187303759e-04 6.361831407033e-05 0.0 
5.907420206842e-04 -5.184323066933e-04 0.0 
6.945800085485e-04 -1.640112458048e-04 0.0 
1.143876484715e-03 2.819939127762e-04 0.0 
4.628903792399e-04 1.656422514297e-03 0.0 
1.340750581073e-04 -5.512939780129e-04 0.0 
8.840914024342e-05 -6.332363940951e-04 0.0 
2.061873732718e-04 5.188533579542e-05 0.0 
1.058345006821e-04 2.778653289758e-05 0.0 
1.431146953561e-04 -4.905930683440e-04 0.0 
6.140206557935e-04 -3.523783979261e-04 0.0 
1.420773487597e-03 5.364901763248e-05 0.0 
1.079389953441e-03 3.069002793703e-04 0.0 
2.680510462248e-04 -5.777837002324e-04 0.0 
1.186603845247e-03 2.463008793767e-04 0.0 
3.800069397910e-05 -7.392455357178e-04 0.0 
5.924033321487e-04 -4.183247536132e-04 0.0 
8.345469400734e-04 -2.863762795303e-04 0.0 
1.179500882410e-05 -7.579536746532e-04 0.0 
1.127874246109e-04 -5.218863630724e-04 0.0 
7.896188171154e-04 2.526653542819e-03 0.0 
-3.852485404270e-05 -7.338219059553e-04 0.0 
1.421191013655e-03 9.200388290961e-03 0.0 
1.487023533372e-03 9.462226658641e-03 0.0 
2.142389847305e-03 8.178716683367e-04 0.0 
4.378784358164e-05 -6.373402778161e-04 0.0 
1.072278244462e-03 -5.515481440125e-05 0.0 
1.359070574159e-03 4.793707224532e-03 0.0 
5.394706505151e-04 5.489008455978e-05 0.0 
7.349152517773e-04 6.625470897805e-04 0.0 
5.154260094586e-04 3.742223031208e-03 0.0 
2.515132626159e-03 7.307426262677e-03 0.0 
5.754997142165e-05 -5.192359411105e-04 0.0 
2.611802993053e-03 8.340773140881e-03 0.0 
9.064186747208e-04 9.290344579895e-03 0.0 
8.484380335338e-04 9.601516256536e-03 0.0 
-3.738789868032e-05 -7.231295818867e-04 0.0 
8.445210703347e-06 -7.396074737271e-04 0.0 
2.850284955075e-05 -7.711137615480e-04 0.0 
4.082545709513e-04 -5.908551006692e-04 0.0 
3.423413512658e-06 -7.652677981931e-04 0.0 
1.185660139940e-04 -4.577847247866e-04 0.0 
-8.264521649714e-04 5.849992010895e-04 0.0 
5.146876306464e-04 -5.544578231403e-04 0.0 
2.143486019533e-04 5.896256345308e-03 0.0 
1.214430408998e-03 9.581744811099e-03 0.0 
1.533774128637e-03 2.068266845095e-03 0.0 
1.298011936099e-03 1.192209257052e-04 0.0 
1.932644050295e-04 6.791745856604e-03 0.0 
2.387503110019e-05 -6.121667642471e-04 0.0 
2.630642862301e-05 -7.685343300654e-04 0.0 
4.170823718147e-05 2.686821017746e-04 0.0 
9.500143938975e-05 5.594002600291e-04 0.0 
9.633361990306e-04 7.375780331807e-03 0.0 
1.028181687090e-03 9.305478081599e-03 0.0 
1.194587464033e-04 -6.059310223063e-04 0.0 
6.215527914850e-05 5.310655845225e-04 0.0 
4.850187569909e-04 -5.597112035309e-04 0.0 
1.347698864337e-03 9.530429932188e-03 0.0 
1.152613650440e-03 9.302532042151e-03 0.0 
2.328829373654e-03 9.157509805579e-03 0.0 
8.883803596165e-05 2.443478941485e-04 0.0 
7.514130159193e-05 5.292921951161e-04 0.0 
-1.132132386257e-06 -7.491758613686e-04 0.0 
-2.122785488322e-05 -7.472181370949e-04 0.0 
1.308464101261e-04 -5.847853882983e-04 0.0 
9.119224529412e-04 -2.579063359597e-04 0.0 
5.551304767018e-05 -5.872370866681e-06 0.0 
-1.011941100009e-03 7.708361226107e-04 0.0 
6.719679381909e-05 3.889047133813e-03 0.0 
-6.758589402824e-04 2.919363265470e-04 0.0 
1.977584266503e-03 6.183742986069e-04 0.0 
-6.849048051154e-04 1.819162241749e-04 0.0 
-8.366404122060e-04 4.478881596416e-04 0.0 
1.907163677803e-03 4.998841246395e-04 0.0 
2.206634000022e-04 -4.003140152122e-06 0.0 
1.800227448924e-04 6.229059987317e-03 0.0 
2.783251733851e-03 7.631778828966e-03 0.0 
1.123911722738e-05 -7.709764981675e-04 0.0 
5.724941458596e-04 -1.592577433639e-04 0.0 
1.495103477416e-05 3.167158702368e-04 0.0 
2.945147048562e-05 5.366130107411e-04 0.0 
1.087487086793e-03 9.602781612289e-03 0.0 
2.016261059867e-03 7.252166038779e-04 0.0 
3.343306441047e-05 2.606100933415e-04 0.0 
2.465561768241e-03 2.087334652944e-03 0.0 
1.642442952143e-05 -7.770126420258e-04 0.0 
4.069526354327e-06 -7.763615782876e-04 0.0 
7.058417720638e-06 -7.798182906632e-04 0.0 
2.718493111773e-05 -5.549256813968e-04 0.0 
4.468013829214e-05 6.591691634006e-06 0.0 
8.033023096600e-06 1.458631984219e-03 0.0 
-5.381119519049e-06 -7.764633524054e-04 0.0 
6.105381213098e-05 -4.571127160909e-04 0.0 
1.514274480634e-05 2.455218729490e-06 0.0 
6.310287624457e-05 9.069451200965e-06 0.0 
1.913748512593e-04 4.406133157808e-05 0.0 
3.779178489783e-05 4.862787541902e-03 0.0 
1.478678084768e-05 3.398431540540e-03 0.0 
2.953739348580e-05 4.136472904516e-06 0.0 
3.356548275877e-05 4.932978296449e-06 0.0 
3.290132842172e-05 3.889482765234e-03 0.0 
-6.376153739443e-06 -7.798911533291e-04 0.0 
6.335273942207e-04 9.613386593230e-03 0.0 
9.672716075412e-04 9.608410998830e-03 0.0 
-1.107034974084e-05 -7.645881861242e-04 0.0 
5.545260044369e-05 9.772174167676e-06 0.0 
1.812571115357e-04 3.797204345079e-05 0.0 
9.023513286620e-05 1.800951477055e-05 0.0 
-1.270529189950e-05 -7.703986602164e-04 0.0 
-2.279447692637e-05 -7.553163383107e-04 0.0 
1.003528725897e-04 2.409880289785e-05 0.0 
9.102197866955e-05 1.996252868024e-05 0.0 
1.967723732379e-05 5.363793826234e-03 0.0 
3.290942134710e-04 9.623502975488e-03 0.0 
1.811454757404e-05 4.370774907205e-03 0.0 
2.413912940894e-05 7.337007566426e-03 0.0 
1.402498908810e-04 9.619843407035e-03 0.0 
-9.341949430782e-05 -6.644569780688e-04 0.0 
-1.895610105542e-04 -5.430416200600e-04 0.0 
-2.561771578984e-04 -4.558129237829e-04 0.0 
-3.390474745685e-04 -3.445680431429e-04 0.0 
3.137902698607e-05 -4.233092525194e-04 0.0 
2.967478514491e-05 -4.914209048125e-04 0.0 
-1.907438562455e-04 -5.101851275658e-04 0.0 
3.330789182967e-05 -2.210976611563e-04 0.0 
-2.581342869839e-04 -4.128106636688e-04 0.0 
7.147620532746e-05 2.553648352246e-04 0.0 
2.872221473803e-05 2.704554911810e-04 0.0 
5.329320220828e-05 2.907181582545e-04 0.0 
9.256361592387e-06 -7.609308090106e-04 0.0 
1.991281248145e-05 -6.619463001617e-04 0.0 
2.725999380229e-05 3.254347293118e-04 0.0 
2.333646700854e-05 -5.298605641205e-05 0.0 
1.450043571146e-05 2.198971405042e-04 0.0 
1.717020334889e-05 -1.848133873307e-05 0.0 
1.045924670232e-05 8.363641327260e-07 0.0 
5.685971626264e-05 -5.233862082366e-04 0.0 
5.598220854032e-05 5.958902204928e-04 0.0 
4.176042951375e-05 5.453318698161e-04 0.0 
4.050667035743e-05 -3.436495415885e-05 0.0 
2.762945005121e-05 -6.462604900523e-06 0.0 
3.425449513163e-04 -1.359261514190e-04 0.0 
-5.472156801097e-04 5.380195898083e-05 0.0 
4.789352297736e-04 -4.746852776816e-04 0.0 
-1.051355643124e-05 -7.269574253849e-04 0.0 
5.029570011102e-04 4.234608589485e-05 0.0 
6.615933574010e-04 -3.987006079653e-04 0.0 
3.960965865354e-04 -3.871919401027e-05 0.0 
3.680514902165e-04 -5.909215258506e-04 0.0 
5.097950270756e-05 -7.007169305144e-04 0.0 
2.758048357053e-04 -1.333078813267e-05 0.0 
5.027492288830e-04 -4.098999920535e-04 0.0 
1.020223808593e-04 -5.817626778029e-04 0.0 
3.476831631532e-04 -4.793211271591e-05 0.0 
9.179478446415e-05 2.467283709236e-03 0.0 
5.105996221791e-05 -5.838945360227e-04 0.0 
1.315284139870e-03 2.200959387542e-04 0.0 
9.874794338954e-04 -6.738917804053e-05 0.0 
4.036806752747e-04 -1.261734882745e-04 0.0 
2.943595347885e-04 -1.123914542315e-04 0.0 
2.455064352592e-03 2.138510260984e-03 0.0 
2.707208375109e-03 8.507166545970e-03 0.0 
3.283533815294e-03 4.302528605649e-03 0.0 
6.397825750702e-04 -1.432820286863e-04 0.0 
2.478928157426e-04 -3.971218158730e-05 0.0 
1.939335833175e-04 -9.613633579891e-05 0.0 
5.305324518995e-04 -4.255819759529e-04 0.0 
1.737710926294e-04 2.543939053527e-03 0.0 
2.231198935806e-04 3.522573995024e-03 0.0 
4.237616802012e-04 8.128414097047e-03 0.0 
7.135004317271e-04 -8.861642486882e-05 0.0 
5.186901441902e-04 -1.368388501028e-04 0.0 
1.186645507858e-04 2.518569062426e-03 0.0 
1.522686981523e-04 3.023051366710e-03 0.0 
1.050414750654e-03 -7.713441838689e-05 0.0 
1.874972329185e-04 -9.067985253054e-06 0.0 
4.677398412659e-04 3.712106103557e-03 0.0 
1.379457048973e-04 -9.944058533949e-05 0.0 
3.715551872282e-04 3.078172509562e-05 0.0 
2.024737484995e-04 2.568712993221e-03 0.0 
3.967052318171e-04 5.090101111458e-03 0.0 
1.278915999429e-03 1.509828409339e-04 0.0 
1.966791351713e-04 -6.960346241684e-04 0.0 
5.004503460654e-04 -3.452647949224e-04 0.0 
5.723578052576e-05 -5.635754490161e-04 0.0 
-4.032119495882e-04 2.798700791737e-05 0.0 
1.841247977694e-04 3.022024537226e-03 0.0 
1.991877838708e-04 -2.529174301483e-05 0.0 
-3.154320601439e-04 -1.595238003466e-04 0.0 
1.228679949816e-03 2.558228575112e-03 0.0 
4.976502839977e-04 7.633704108010e-03 0.0 
4.586771163855e-04 -5.410365809291e-05 0.0 
2.516705154829e-04 -6.334911556837e-05 0.0 
1.049601333692e-03 -1.646162374831e-04 0.0 
2.033237119332e-04 -6.939284983047e-05 0.0 
4.790618175976e-04 8.145524732828e-03 0.0 
2.358017832024e-03 1.270666921685e-03 0.0 
2.837161575796e-04 2.860458320888e-05 0.0 
1.030729207647e-04 -7.187951894930e-04 0.0 
4.679820876211e-04 6.045671778127e-05 0.0 
3.055402614336e-04 4.545184580472e-03 0.0 
1.680551342481e-04 -6.918424574635e-04 0.0 
6.401639632621e-04 -3.843768917649e-04 0.0 
2.770456772589e-04 -3.460476404597e-04 0.0 
5.433069467314e-04 6.155738614075e-03 0.0 
5.589987367735e-04 -5.187052530385e-04 0.0 
2.254382109011e-04 3.997223130916e-03 0.0 
3.434601032584e-04 5.544342032042e-03 0.0 
5.829642696648e-04 -3.273646279684e-04 0.0 
2.358966721282e-04 -1.195955880369e-04 0.0 
3.007432495276e-04 -8.288846773140e-05 0.0 
2.628771774392e-04 4.510203162926e-03 0.0 
1.932929934001e-04 -6.980419859265e-04 0.0 
4.757776884467e-04 -3.832856283332e-04 0.0 
1.841775928919e-03 1.145100954570e-03 0.0 
3.469932393662e-04 4.096894735404e-03 0.0 
4.606871453994e-04 -4.495706736012e-04 0.0 
9.120192109703e-04 -9.578836382308e-05 0.0 
6.099164338822e-04 8.218846818795e-05 0.0 
3.481798508365e-04 5.058774149590e-03 0.0 
-3.190663726002e-04 1.352720680845e-03 0.0 
6.212031652250e-05 -6.594082208754e-04 0.0 
9.583148304532e-04 1.601420646823e-03 0.0 
2.913437004933e-04 -3.281607180607e-05 0.0 
4.425466561577e-04 5.605976739949e-03 0.0 
2.023694348213e-04 -2.875559154104e-04 0.0 
5.746539275780e-04 7.163717046752e-03 0.0 
1.094568754258e-03 2.469128321378e-04 0.0 
4.781476641436e-04 -3.153542085547e-04 0.0 
3.533050124472e-04 -7.436757466016e-05 0.0 
1.649458338048e-04 -7.048571611438e-04 0.0 
4.053740005897e-04 4.035055464228e-05 0.0 
5.128868931031e-04 -3.425733666552e-04 0.0 
1.325481416682e-04 -6.992390332785e-04 0.0 
4.096573951806e-04 -3.944709112073e-04 0.0 
4.988994494244e-04 -5.196651400233e-04 0.0 
4.661414575175e-04 -5.797505870477e-04 0.0 
2.669798412590e-04 -2.779164402240e-04 0.0 
-8.972918656721e-05 -6.471572264002e-04 0.0 
-1.326878339082e-04 -5.876122201316e-04 0.0 
4.553160177157e-04 -1.494344722693e-04 0.0 
1.854726938964e-04 -7.052551041043e-04 0.0 
6.474277290346e-04 -1.066792210450e-04 0.0 
7.771742643796e-04 -1.049833878866e-04 0.0 
8.246285985412e-04 -3.810680974230e-04 0.0 
8.607329997206e-04 -8.244271267607e-05 0.0 
4.008812202179e-04 3.205874499843e-03 0.0 
-2.903679280127e-04 2.830304881047e-03 0.0 
4.321125260042e-04 -5.124909030957e-04 0.0 
1.031522132227e-03 2.717595643197e-04 0.0 
1.453151727831e-04 -7.222867463038e-04 0.0 
5.321043263982e-04 6.642749247022e-03 0.0 
5.553500933593e-04 7.665078501021e-03 0.0 
2.445381189908e-04 -6.109770527519e-04 0.0 
7.706942292706e-04 1.140050083446e-04 0.0 
5.999738166899e-04 4.731014099934e-03 0.0 
2.136905585695e-04 -6.934764767672e-04 0.0 
4.124385004854e-04 2.775481546918e-03 0.0 
3.726517040121e-04 2.743148272812e-03 0.0 
2.626008716010e-04 -6.723242895252e-04 0.0 
2.680916504008e-03 7.895540622408e-03 0.0 
3.698155507729e-04 -6.164828824941e-04 0.0 
4.080570216666e-04 -9.411789801565e-05 0.0 
3.725999457546e-04 -2.985451172006e-04 0.0 
9.698156290894e-04 2.563715719388e-03 0.0 
3.601396661089e-04 3.175059877591e-03 0.0 
5.240134823052e-04 -1.025268682464e-04 0.0 
5.854626379391e-04 -8.834295386618e-05 0.0 
2.930919774317e-04 -6.169544725139e-04 0.0 
4.650157022226e-04 -8.306690015403e-05 0.0 
5.460118456671e-04 4.701696331606e-03 0.0 
3.058823392800e-04 -3.079475625563e-04 0.0 
4.954275845898e-04 5.638191051493e-03 0.0 
4.846647791068e-04 4.190619289781e-03 0.0 
2.892400577830e-03 2.212895932908e-03 0.0 
3.373901455822e-04 3.619339300008e-03 0.0 
3.719143683614e-04 -4.339282338767e-04 0.0 
4.097548272882e-04 -3.274100373343e-04 0.0 
3.899818082345e-04 -5.702002126585e-04 0.0 
8.826671452627e-04 -3.594887503011e-04 0.0 
4.976495584150e-04 5.154087796082e-03 0.0 
1.330261148640e-03 -4.797687158114e-05 0.0 
3.565647478826e-04 -6.306878647818e-04 0.0 
1.217042007005e-04 -6.190814830705e-04 0.0 
5.510993661319e-04 5.184836741026e-03 0.0 
3.980335636836e-04 -6.106317492632e-04 0.0 
4.949630235825e-04 7.099597328122e-05 0.0 
3.965897694390e-04 4.608589720752e-03 0.0 
5.121398893966e-04 -4.208020332501e-05 0.0 
5.720630066476e-04 2.029433631993e-04 0.0 
3.959725781438e-04 -4.624136325504e-04 0.0 
2.972654157292e-04 -6.566719608116e-04 0.0 
1.750177545621e-04 -6.311751351984e-04 0.0 
7.102103169301e-04 -5.467451274443e-05 0.0 
3.849054994047e-04 6.061781975699e-03 0.0 
6.345446118065e-05 -6.331798347904e-04 0.0 
5.004521595949e-04 -5.387458371109e-04 0.0 
1.046389381159e-04 -7.293469116681e-04 0.0 
6.007139505974e-04 6.186992873230e-03 0.0 
4.406565349406e-04 -5.353271433831e-04 0.0 
8.479635758273e-04 -8.221686986150e-05 0.0 
3.361083217027e-04 -5.810123383066e-04 0.0 
2.594877110265e-04 3.555186003554e-03 0.0 
4.845429563682e-04 -5.689984909313e-04 0.0 
9.043445918115e-04 1.170277281029e-05 0.0 
4.619743529024e-04 -4.079462427610e-04 0.0 
8.482725302044e-04 -4.592879209590e-05 0.0 
3.123822194270e-04 -3.750496360786e-04 0.0 
6.386026071661e-04 -4.125388606041e-05 0.0 
1.847943565463e-03 1.038209415895e-03 0.0 
1.310048585760e-04 -7.228054591340e-04 0.0 
4.619947712404e-04 7.100908072948e-03 0.0 
1.892845111912e-03 5.289109643983e-04 0.0 
3.228815086662e-03 6.247422229298e-03 0.0 
4.354666713234e-04 6.092089721739e-03 0.0 
6.212695974750e-04 -3.012018455376e-04 0.0 
7.882320656638e-04 5.783638325449e-03 0.0 
1.225806388292e-04 -7.310145643581e-04 0.0 
6.386097908919e-04 5.813574697593e-05 0.0 
1.939001618531e-03 6.343881548091e-04 0.0 
2.300856164332e-03 1.338754134522e-03 0.0 
2.995133585709e-04 2.226292784254e-03 0.0 
1.331656904655e-03 -7.000901651367e-07 0.0 
2.169963435862e-04 -6.825389397239e-04 0.0 
1.142136683806e-03 -4.686596162034e-07 0.0 
6.477585549035e-04 9.862750112204e-05 0.0 
9.999058362981e-04 -1.431024840681e-04 0.0 
5.799276308676e-04 -5.685953100594e-05 0.0 
4.446531676049e-04 4.640362093833e-03 0.0 
8.268635299531e-04 6.763621972532e-05 0.0 
9.927446632363e-04 -2.868666612161e-05 0.0 
8.241372674909e-04 7.277607190727e-03 0.0 
2.061693941069e-04 -6.683663221617e-04 0.0 
5.513355912230e-04 -5.336477333176e-04 0.0 
3.239406662713e-03 4.691180398859e-03 0.0 
7.741931039597e-04 -3.475339799664e-05 0.0 
3.023810037901e-03 7.679358111711e-03 0.0 
3.287188111171e-03 4.536705270724e-03 0.0 
6.637073976445e-04 5.243456830804e-03 0.0 
4.771449794222e-04 6.611314666229e-03 0.0 
8.394265479256e-04 6.784840133535e-03 0.0 
3.783737629816e-04 -3.658144783089e-04 0.0 
9.432143120169e-04 1.550909100945e-04 0.0 
1.294911262976e-03 4.157353108865e-05 0.0 
6.351698481308e-04 7.200682599618e-03 0.0 
1.133543492851e-03 2.061083282943e-03 0.0 
2.198493335641e-03 1.368615186978e-03 0.0 
9.175933946884e-04 -2.079777413856e-05 0.0 
4.367559087615e-04 4.160033996952e-03 0.0 
8.227002825406e-04 -3.926240963742e-04 0.0 
6.814729208331e-04 -4.684106251819e-04 0.0 
2.666192795201e-04 -6.425933038904e-04 0.0 
1.219763664179e-03 7.641810590456e-05 0.0 
6.222571124552e-04 -4.796821277552e-04 0.0 
6.649304566624e-04 5.729496577041e-03 0.0 
7.845380256296e-04 6.273216043804e-03 0.0 
2.661832706110e-03 1.572328832415e-03 0.0 
6.474728067880e-04 -4.865566652106e-04 0.0 
2.196369740862e-03 2.225682754659e-03 0.0 
6.089884824100e-04 -5.083743129870e-04 0.0 
7.461392376125e-04 -4.370682514900e-04 0.0 
3.031397721265e-04 -6.421881390520e-04 0.0 
1.128910403646e-03 2.094748221560e-04 0.0 
1.216090822557e-03 -1.523601616145e-04 0.0 
3.790894168116e-04 3.650706188476e-03 0.0 
1.381914738045e-03 -3.423596988177e-05 0.0 
1.221975186135e-03 3.891342356671e-05 0.0 
1.291648504534e-03 -4.985838932934e-05 0.0 
3.228567106401e-03 3.618882424001e-03 0.0 
2.720584528839e-04 -6.623211018510e-04 0.0 
8.143473778450e-04 1.357856070146e-04 0.0 
7.062017410917e-04 1.325294274035e-04 0.0 
2.769360710030e-03 3.681332395550e-03 0.0 
8.942183079372e-04 -3.544641882053e-04 0.0 
1.275379364341e-03 -2.504292514627e-06 0.0 
6.062843961727e-04 5.700194255591e-03 0.0 
7.536730381077e-04 -4.117625475861e-04 0.0 
3.236232327695e-03 5.601649120899e-03 0.0 
4.338367585625e-04 -5.890477162049e-04 0.0 
8.017769268743e-04 -1.729361701559e-04 0.0 
9.731288501774e-04 -3.057742501544e-04 0.0 
3.739664439107e-04 -6.198559278399e-04 0.0 
2.401693680807e-04 -6.739530008068e-04 0.0 
1.204593231199e-03 -9.787303783441e-05 0.0 
1.067355181519e-03 2.846239235547e-06 0.0 
1.920953467038e-03 2.232951553303e-03 0.0 
-1.316415853894e-04 -6.129913742872e-04 0.0 
1.778929258660e-03 3.459881343864e-04 0.0 
1.486163285263e-03 5.592021420123e-05 0.0 
1.051909438343e-03 -2.595650056629e-04 0.0 
7.209957830625e-04 6.246092289059e-03 0.0 
1.271374724712e-03 -1.007094778201e-04 0.0 
4.420828162386e-04 -5.737375426636e-04 0.0 
1.130958827401e-03 -2.071456888150e-04 0.0 
3.044691123414e-04 4.064816556992e-03 0.0 
3.898553793620e-04 -5.895299148514e-04 0.0 
1.059127380231e-04 -6.718875174082e-04 0.0 
2.036081030599e-04 -6.631935323811e-04 0.0 
8.728121082616e-04 -1.996716293567e-04 0.0 
7.953954675469e-04 -4.057367047924e-04 0.0 
1.666028183102e-03 2.042170994884e-04 0.0 
1.291984377949e-03 -9.756688010246e-05 0.0 
4.109644564705e-04 -3.164347631969e-04 0.0 
1.850664863687e-04 -6.830062054157e-04 0.0 
1.129879250927e-03 6.886313737468e-03 0.0 
3.299394799937e-04 -6.355370278452e-04 0.0 
1.195593442583e-03 1.968952717317e-04 0.0 
2.173803309577e-03 2.421865050260e-03 0.0 
1.998788793456e-03 6.214066098189e-03 0.0 
6.350275319052e-04 3.347842148925e-03 0.0 
1.643577712050e-03 1.988298521071e-03 0.0 
2.800339203623e-03 1.967610100028e-03 0.0 
2.505647423424e-03 3.044867011107e-03 0.0 
5.786847289023e-04 -1.918912226000e-04 0.0 
1.037393026234e-03 -2.479667328278e-04 0.0 
3.101230456023e-03 3.309563768638e-03 0.0 
1.014086252559e-03 4.848311114323e-04 0.0 
3.376877619236e-04 -1.971742221486e-04 0.0 
6.870784053277e-04 -4.546609202293e-04 0.0 
1.393494769669e-03 -2.161433140613e-05 0.0 
1.568758943276e-03 1.158336144760e-04 0.0 
3.375823577689e-04 -6.205211883980e-04 0.0 
1.420960937901e-03 1.111017945149e-05 0.0 
1.678676966976e-03 2.387672468307e-04 0.0 
1.969780034133e-03 5.303556651982e-04 0.0 
7.303855852933e-04 -4.451562978124e-04 0.0 
2.163531348334e-03 9.252505495198e-04 0.0 
7.234667640787e-04 5.270474824467e-03 0.0 
2.091365449966e-03 7.392892335435e-04 0.0 
9.942326242421e-04 1.835168418247e-04 0.0 
7.708775430390e-04 -4.239537587348e-05 0.0 
8.544862601146e-04 2.228049440920e-04 0.0 
1.546180563706e-03 9.424352218369e-05 0.0 
1.322651866140e-03 1.661705309097e-03 0.0 
2.633176854533e-03 5.123517794960e-03 0.0 
6.686139437179e-04 -2.254093529550e-04 0.0 
2.090926796490e-03 5.676856987229e-03 0.0 
8.044592195082e-04 2.963615318808e-03 0.0 
1.704774482470e-03 2.315997645464e-04 0.0 
2.968734056964e-03 4.740162196136e-03 0.0 
2.163457167342e-03 5.136424751379e-03 0.0 
3.253076952339e-03 5.591274046230e-03 0.0 
4.418544930644e-04 -2.388536834570e-04 0.0 
3.111994079329e-04 1.417153411549e-03 0.0 
2.926785071974e-04 -3.546470971903e-04 0.0 
1.344857939993e-03 6.295119644804e-04 0.0 
2.653977167043e-04 2.649455752341e-03 0.0 
1.950605609149e-03 7.245971856253e-04 0.0 
6.500272508169e-04 6.710969059042e-03 0.0 
6.708109114721e-04 3.823927975703e-03 0.0 
1.866348291549e-03 4.104729504304e-04 0.0 
2.629593023779e-03 1.451524223949e-03 0.0 
4.889871089879e-04 2.385913191144e-03 0.0 
9.711063486401e-04 3.879899638245e-05 0.0 
7.746732126977e-04 4.810091360265e-03 0.0 
1.780108977714e-03 4.712079666467e-04 0.0 
6.219922553771e-04 -9.937070299827e-05 0.0 
8.167737306983e-04 4.349724474719e-03 0.0 
9.083785817692e-04 7.942840156803e-04 0.0 
7.396770396201e-04 1.521185783119e-04 0.0 
1.119793726471e-03 -2.038597398836e-04 0.0 
7.116630227923e-04 6.740766153422e-03 0.0 
7.599159849247e-04 7.260656965359e-03 0.0 
1.452004874068e-03 2.170848343325e-05 0.0 
1.131535650132e-03 7.202113827686e-05 0.0 
1.175754377885e-03 1.377494450498e-04 0.0 
1.605604365429e-04 -6.577527834511e-04 0.0 
1.847948003797e-03 2.298316638806e-03 0.0 
2.286750094077e-03 9.640595311130e-04 0.0 
1.985106084101e-03 5.951195564339e-04 0.0 
3.298162051443e-03 4.633385593652e-03 0.0 
3.882834563738e-04 1.902252228680e-03 0.0 
1.161167596841e-03 2.564845540008e-03 0.0 
2.992645329675e-04 2.681663137973e-03 0.0 
2.974743648081e-03 7.756369201558e-03 0.0 
9.776190776379e-04 3.924160753381e-03 0.0 
1.058965669800e-03 3.783135479076e-05 0.0 
3.705671936781e-04 2.307119104083e-03 0.0 
9.709335962203e-04 4.870543782067e-03 0.0 
1.184316068389e-03 -1.522168104007e-04 0.0 
2.414490419706e-03 1.257114699812e-03 0.0 
7.554024765508e-04 4.327452044281e-03 0.0 
5.413150021106e-04 2.849281118927e-03 0.0 
5.863129183223e-04 4.250053985760e-03 0.0 
7.139953759216e-04 4.785689580979e-03 0.0 
8.419149538179e-04 1.042003473769e-04 0.0 
1.582453081671e-03 8.253294789594e-04 0.0 
1.013688381488e-03 1.440011607493e-04 0.0 
1.130461482282e-03 -4.174680531972e-05 0.0 
2.410977938105e-03 9.407683789364e-03 0.0 
1.925384030393e-03 7.953891208531e-04 0.0 
1.346666195221e-03 4.905371523831e-03 0.0 
2.778732398373e-04 -6.620212935007e-04 0.0 
2.180217686309e-03 8.062645069797e-04 0.0 
2.148952823816e-03 6.997366311147e-04 0.0 
2.532112983613e-03 1.317242279605e-03 0.0 
1.230292923756e-03 1.065936001732e-03 0.0 
2.306619174266e-03 1.069578760851e-03 0.0 
2.370436513692e-03 1.169795056117e-03 0.0 
2.688958470943e-03 7.813793757597e-03 0.0 
1.156147218982e-03 -1.474988526668e-04 0.0 
1.063670188372e-03 5.865447140085e-03 0.0 
6.980978454967e-04 8.851644587978e-03 0.0 
-1.225042361606e-03 5.595913235720e-03 0.0 
1.190768085977e-03 -4.644254574008e-05 0.0 
1.800428185573e-03 6.348348644649e-04 0.0 
9.272392105060e-04 2.146214735817e-03 0.0 
2.606647207761e-03 1.419819310202e-03 0.0 
1.159990352955e-03 -9.265299189566e-05 0.0 
8.535816558093e-04 5.808000123560e-03 0.0 
-3.831894794244e-04 8.534745592699e-03 0.0 
2.018593504480e-03 8.143756475345e-04 0.0 
2.456914099604e-03 1.148954753540e-03 0.0 
2.656588600601e-03 7.453503775300e-03 0.0 
1.106622300508e-03 1.015905621934e-04 0.0 
9.491826767662e-04 3.286547587966e-04 0.0 
1.131389732650e-03 1.598475420551e-04 0.0 
9.414836770138e-04 2.103706227454e-04 0.0 
2.232641971565e-03 1.034452223681e-03 0.0 
6.405751111198e-04 4.277711473143e-03 0.0 
2.283862249217e-03 2.026565072318e-03 0.0 
8.988409885987e-04 1.838006896531e-04 0.0 
7.742259152584e-04 1.073570957032e-02 0.0 
9.163217673028e-04 5.339974481370e-03 0.0 
1.633970315784e-03 1.013065282305e-03 0.0 
6.166613828173e-04 3.798589183851e-03 0.0 
2.420902644991e-03 1.175877545296e-03 0.0 
2.498088443285e-03 1.321043579046e-03 0.0 
6.905869442161e-04 -2.675447337618e-04 0.0 
1.901370531845e-04 1.548018323547e-03 0.0 
4.883541848839e-04 3.268324701600e-03 0.0 
2.465503265730e-04 -6.592994024804e-04 0.0 
1.481555380375e-03 1.149640426605e-02 0.0 
2.431863935809e-03 2.451199784460e-03 0.0 
2.668677416354e-04 2.195622271667e-03 0.0 
7.179122401580e-04 1.224079357507e-04 0.0 
3.147101053271e-03 4.764841879850e-03 0.0 
9.028720431477e-04 4.853099870209e-03 0.0 
9.571841282080e-04 -2.115171168986e-04 0.0 
1.152689666394e-03 8.529068986203e-04 0.0 
2.814471514412e-03 4.665133083140e-03 0.0 
3.685314683241e-04 -1.047291536095e-04 0.0 
7.712269438816e-04 2.541825469400e-04 0.0 
5.559397238065e-04 5.785894783390e-05 0.0 
2.545843803792e-03 1.304479607808e-03 0.0 
1.653519322535e-04 4.852821907955e-04 0.0 
1.846033507085e-03 1.167375027787e-02 0.0 
6.820746382977e-04 7.489487510416e-05 0.0 
2.630870160397e-03 2.034800082775e-03 0.0 
1.130750361273e-03 5.382584478515e-03 0.0 
6.915496101342e-04 1.487538125743e-03 0.0 
8.137555353582e-04 1.964970831562e-04 0.0 
5.160057259398e-04 -5.388809531626e-05 0.0 
2.902966111663e-04 -6.121727078287e-04 0.0 
2.202499278622e-03 1.115266377896e-03 0.0 
1.740050326849e-03 2.639986502759e-04 0.0 
1.821762507129e-03 1.067495538219e-03 0.0 
3.098707931083e-03 6.155400091236e-03 0.0 
1.235571585827e-03 4.424565297854e-03 0.0 
1.350962105350e-03 6.677594710246e-04 0.0 
8.494941910004e-04 5.319238401864e-03 0.0 
9.843887654071e-04 2.146864563888e-03 0.0 
8.476140553769e-04 3.890968154930e-03 0.0 
8.645354831986e-04 3.434089483147e-03 0.0 
1.292598086624e-03 2.974942969185e-03 0.0 
6.912115186985e-04 4.253842991739e-05 0.0 
9.464662846477e-04 4.387572688425e-03 0.0 
3.010541223003e-03 2.491280156438e-03 0.0 
2.005205047988e-03 1.147027410353e-02 0.0 
1.121578279405e-03 5.575524511793e-04 0.0 
1.489197030107e-03 1.847348331851e-03 0.0 
2.918970761049e-04 -6.323518557272e-04 0.0 
2.005533315278e-03 1.173664206949e-03 0.0 
2.207988392489e-05 -7.496726836137e-04 0.0 
3.247251858588e-03 3.853985305712e-03 0.0 
1.982958182852e-03 8.819474986963e-04 0.0 
6.813727227693e-04 2.497428890823e-03 0.0 
6.461605721305e-04 2.050427512974e-03 0.0 
2.145278280171e-03 1.010135699539e-03 0.0 
6.888284207856e-04 3.372205595865e-03 0.0 
2.841768131896e-03 2.384345429121e-03 0.0 
2.326570441617e-03 2.784001816018e-03 0.0 
2.022597183368e-03 1.101024329062e-02 0.0 
1.298419636586e-03 2.122880030776e-03 0.0 
1.938907021557e-03 1.036781516456e-02 0.0 
1.869660860666e-03 9.994243170295e-03 0.0 
2.757275945754e-03 1.782053722045e-03 0.0 
1.782959065755e-03 9.595903939760e-03 0.0 
3.044156052883e-03 2.859117561301e-03 0.0 
3.154237746914e-03 3.325635761461e-03 0.0 
2.357535809714e-03 1.023976321466e-03 0.0 
9.382996359509e-04 7.606119274428e-04 0.0 
2.601990795202e-03 1.521762741456e-03 0.0 
4.957643643053e-04 2.823811128715e-03 0.0 
1.074695100561e-03 2.077324738456e-03 0.0 
8.184425995218e-04 1.664900022907e-05 0.0 
1.600712224409e-03 8.852052197616e-04 0.0 
1.840118143612e-03 3.630336136622e-04 0.0 
8.033210158873e-04 3.415842087715e-03 0.0 
2.461002913482e-03 1.193424430438e-03 0.0 
5.521436857079e-04 2.843683211980e-05 0.0 
7.859830545000e-04 3.870563853081e-03 0.0 
1.046471137920e-03 3.935463416580e-03 0.0 
2.221672240441e-03 9.281271520694e-04 0.0 
2.729860750754e-03 1.915622123667e-03 0.0 
1.966311742496e-03 2.162390529118e-03 0.0 
2.548836256799e-03 5.245332219642e-03 0.0 
8.792174120958e-04 5.727986951445e-04 0.0 
1.396687042486e-03 1.560743725041e-03 0.0 
3.172282792770e-03 5.656572091533e-03 0.0 
3.101946718062e-03 4.993855137170e-03 0.0 
4.251552990888e-04 1.952643227054e-05 0.0 
1.015256839597e-03 4.402517891444e-03 0.0 
2.626955581978e-03 1.679499654725e-03 0.0 
2.852145041610e-03 4.088523337343e-03 0.0 
1.756383818815e-03 6.895626342940e-04 0.0 
5.353273654450e-04 3.297033366860e-03 0.0 
1.699322711786e-03 1.950065915790e-03 0.0 
1.214156656997e-03 5.881688442912e-03 0.0 
1.354981683116e-03 3.739453325531e-04 0.0 
2.509719767051e-03 1.241634070634e-03 0.0 
1.699415869327e-03 6.187868398150e-04 0.0 
3.257974206012e-03 4.136565750159e-03 0.0 
5.346441191527e-04 2.422156063372e-03 0.0 
1.376820641682e-03 1.637103336064e-03 0.0 
2.363529629405e-03 1.029251195450e-03 0.0 
1.147664355949e-03 1.444707651146e-03 0.0 
2.097423806826e-03 1.738589362236e-03 0.0 
3.147043925921e-03 3.409129727350e-03 0.0 
2.741474812298e-03 2.108373156079e-03 0.0 
2.341248994970e-03 1.043411315409e-03 0.0 
1.323528283940e-03 2.803919093014e-04 0.0 
1.072954896676e-03 1.193125459050e-03 0.0 
2.443735878881e-03 1.117814130113e-03 0.0 
2.072197111362e-03 5.200027843825e-03 0.0 
3.874332554795e-04 9.862684082255e-06 0.0 
2.126086019946e-03 4.667348221120e-03 0.0 
2.267121297353e-03 2.130190950408e-03 0.0 
1.997196901047e-03 5.730971814309e-03 0.0 
1.799142333318e-03 6.780213071482e-03 0.0 
2.592354396608e-03 4.664834794944e-03 0.0 
1.774238471018e-03 9.206000838960e-04 0.0 
7.858576126138e-04 4.138662504544e-05 0.0 
1.113829950792e-03 4.896021085714e-03 0.0 
5.978437158411e-04 2.037073153323e-03 0.0 
1.904569469731e-03 6.257951391248e-03 0.0 
2.342595106961e-03 1.853317951134e-03 0.0 
1.884817885184e-03 1.545825211638e-03 0.0 
4.069198769368e-04 2.326740020620e-03 0.0 
3.186708293359e-03 3.290764317067e-03 0.0 
3.195682166758e-03 3.499807786511e-03 0.0 
2.522189597782e-03 1.773536419258e-03 0.0 
1.159518362251e-03 4.422094370419e-03 0.0 
3.115821830561e-03 7.122149801459e-03 0.0 
2.945229092170e-03 2.570796509930e-03 0.0 
3.168549999325e-03 6.769151845872e-03 0.0 
2.127429744137e-03 1.163611152113e-03 0.0 
1.408414765309e-03 1.076488442862e-03 0.0 
2.421326270553e-03 1.389321231117e-03 0.0 
1.723558734366e-04 1.283407662499e-03 0.0 
7.458226838572e-04 2.069904179011e-03 0.0 
3.056582939739e-03 7.210067882020e-03 0.0 
2.003009230212e-03 5.294154821855e-04 0.0 
1.661763022445e-03 1.276442903840e-03 0.0 
1.189239413163e-03 4.904294901491e-03 0.0 
9.416654741125e-04 6.597691282612e-05 0.0 
3.023703244920e-03 2.986472585185e-03 0.0 
-7.388735436586e-05 1.194487755884e-03 0.0 
2.762259071223e-04 8.115923380868e-06 0.0 
3.105014540533e-03 4.339605181265e-03 0.0 
2.508072334702e-03 1.665435037723e-03 0.0 
1.770555540594e-03 1.816737263491e-03 0.0 
-5.337091411820e-04 1.281353923714e-03 0.0 
1.004611445648e-03 9.457869515099e-05 0.0 
2.425725191564e-03 3.609490671517e-03 0.0 
1.293851054564e-03 5.883740460652e-03 0.0 
9.484847395213e-04 -1.516882583456e-04 0.0 
2.529889080907e-03 1.610987023620e-03 0.0 
5.081607970481e-04 1.518600804216e-05 0.0 
3.066317720262e-03 3.077579547633e-03 0.0 
2.386672211542e-03 1.687111442634e-03 0.0 
3.010652106105e-03 4.136822837151e-03 0.0 
-7.210102350815e-05 9.513435961761e-04 0.0 
2.545210468001e-03 2.920287781993e-03 0.0 
2.083809642506e-03 1.065903783553e-03 0.0 
1.086906478404e-03 1.357626500738e-03 0.0 
2.211660084425e-03 2.329596481900e-03 0.0 
1.764990962172e-03 1.526426719775e-03 0.0 
7.576119761540e-04 -4.676152620525e-06 0.0 
3.517668621281e-04 1.868549048368e-03 0.0 
8.727203120828e-04 4.594546845118e-04 0.0 
1.976268421905e-03 1.086644493428e-03 0.0 
2.922215444559e-03 2.436880229588e-03 0.0 
2.810576534975e-03 3.522584717651e-03 0.0 
3.137962325138e-04 -6.377185377178e-06 0.0 
2.126863195458e-04 -3.537042184081e-04 0.0 
2.403990261042e-03 2.567154018544e-03 0.0 
1.056644561651e-03 5.372052377887e-03 0.0 
6.412590629194e-04 2.538351372619e-05 0.0 
9.560421718633e-04 1.148911967016e-04 0.0 
2.790786288207e-04 9.334095987948e-03 0.0 
1.860402283196e-04 9.334783748188e-03 0.0 
1.948631049672e-03 4.775811467025e-03 0.0 
2.703452108672e-03 3.146738925583e-03 0.0 
8.204354366168e-04 -1.619131763384e-04 0.0 
2.457890852658e-03 4.331367022105e-03 0.0 
3.097609114510e-03 2.931832166646e-03 0.0 
1.216552503717e-03 4.233241783294e-04 0.0 
3.008457856421e-03 2.720225737972e-03 0.0 
1.479901016194e-04 4.962991318715e-04 0.0 
1.828738341175e-03 7.746070656110e-03 0.0 
3.168409022725e-03 3.240972212140e-03 0.0 
1.027672926276e-03 -1.205292055099e-04 0.0 
1.740533866759e-03 1.974600606352e-03 0.0 
1.072300987286e-03 -1.891014119182e-04 0.0 
2.936363230675e-03 3.737478812472e-03 0.0 
2.958846769821e-03 4.954735878812e-03 0.0 
1.285854221211e-03 5.392910312031e-03 0.0 
2.382770429341e-03 3.893959561946e-03 0.0 
2.219895754621e-03 3.560017403140e-03 0.0 
4.301230679710e-05 -7.648532726313e-04 0.0 
1.018069136456e-03 -2.379263625962e-04 0.0 
3.126043503447e-03 6.909959699751e-03 0.0 
2.343381926654e-03 4.981518408330e-03 0.0 
2.213652728817e-03 4.598402878648e-03 0.0 
1.546153174759e-03 7.172676508306e-04 0.0 
1.282352233250e-05 -7.368453110195e-04 0.0 
7.783486998252e-04 8.742996785929e-04 0.0 
3.203699419365e-03 4.276015603057e-03 0.0 
9.382050453341e-04 -2.733888135276e-04 0.0 
1.952125413994e-03 9.936957007741e-03 0.0 
1.867033442871e-03 9.554331181523e-03 0.0 
1.367227779692e-03 5.391516006937e-03 0.0 
1.044571676177e-03 3.232065241797e-03 0.0 
9.172392949052e-04 -1.958535645442e-04 0.0 
1.734943278715e-03 5.620859276301e-04 0.0 
8.354007031879e-04 1.093784107089e-03 0.0 
7.546359719929e-04 6.158497171323e-04 0.0 
6.936344953807e-04 2.933119628096e-03 0.0 
7.273895605973e-04 -2.899829579841e-04 0.0 
6.750745334669e-04 2.906556004637e-06 0.0 
4.980589795289e-05 -7.473153552091e-04 0.0 
1.733707774730e-03 4.873029457679e-04 0.0 
3.132982159391e-03 4.115734377786e-03 0.0 
3.987327197169e-05 -7.613270619408e-04 0.0 
6.407729011558e-04 2.909887438094e-03 0.0 
6.433449421422e-04 1.231483778106e-03 0.0 
2.430085216044e-03 4.887914276345e-03 0.0 
3.016857841203e-03 4.760915285556e-03 0.0 
2.044562008410e-03 5.920791437065e-04 0.0 
1.642246944747e-03 2.683587084143e-04 0.0 
6.317624659530e-04 2.485180595543e-03 0.0 
1.538196235180e-03 2.733122626520e-04 0.0 
3.154312340556e-03 3.647959655391e-03 0.0 
3.213672928817e-03 4.021218158999e-03 0.0 
-1.460193357156e-03 4.668573710038e-03 0.0 
3.969045315001e-04 1.135757505612e-03 0.0 
2.066964015321e-03 1.919857641607e-03 0.0 
1.721683354228e-03 6.315420472677e-03 0.0 
1.871099045543e-03 1.623467612920e-03 0.0 
2.530420725823e-03 4.068514522142e-03 0.0 
1.428505461381e-03 3.456986357769e-03 0.0 
1.805763500410e-03 1.749924241748e-03 0.0 
1.941062436425e-03 9.064859547439e-03 0.0 
2.039376477160e-03 2.003308939015e-03 0.0 
6.200479515086e-04 -1.375006268746e-05 0.0 
2.866087632875e-03 3.187895266026e-03 0.0 
1.037698571431e-03 -1.781746437884e-04 0.0 
1.076941924883e-03 -1.313520385983e-04 0.0 
8.011208831123e-04 2.084373479703e-03 0.0 
1.697296374095e-03 2.537217226075e-04 0.0 
2.967649741985e-03 4.329119684123e-03 0.0 
2.944895785861e-03 2.250466855053e-03 0.0 
1.385525539625e-03 2.667665191032e-04 0.0 
3.138617829189e-03 3.017156469513e-03 0.0 
1.868783658645e-03 1.384829800093e-03 0.0 
2.271311102366e-03 8.686239472443e-04 0.0 
2.167841651507e-03 1.749949673487e-03 0.0 
2.379962269828e-03 4.432632078824e-03 0.0 
2.057741518836e-03 1.490379220944e-03 0.0 
2.667242640225e-03 4.538261809424e-03 0.0 
1.744042729463e-03 8.507857623114e-04 0.0 
1.902452578718e-03 9.191228032834e-04 0.0 
3.124359592783e-03 3.027258114121e-03 0.0 
1.459418424561e-03 5.872415783152e-03 0.0 
5.422495923014e-04 -4.523929043547e-06 0.0 
4.930165064879e-04 -1.724842473557e-05 0.0 
3.840418604266e-04 3.330796404704e-03 0.0 
2.601313431389e-03 4.101550391359e-03 0.0 
3.064057831467e-04 1.490847833350e-05 0.0 
2.527179980827e-03 9.765710634579e-03 0.0 
7.215212737620e-04 -2.255907541912e-04 0.0 
-1.147320820842e-03 4.939034406556e-03 0.0 
4.212056676253e-04 -7.202235838142e-06 0.0 
1.869721482639e-03 1.801378223232e-03 0.0 
1.769125751291e-04 -3.252436156911e-04 0.0 
2.546763132284e-03 1.805215129638e-03 0.0 
1.545380393643e-03 5.861985656041e-03 0.0 
1.631881582335e-03 6.334715375448e-03 0.0 
3.066329944529e-03 3.727700180924e-03 0.0 
2.072146519998e-03 1.060571220656e-02 0.0 
2.021879907160e-03 1.028994147244e-02 0.0 
3.777485206840e-04 -1.664955034494e-05 0.0 
1.638668207360e-03 3.042439681238e-04 0.0 
2.048920401981e-03 5.810189834037e-04 0.0 
1.807861260955e-03 5.610197997217e-04 0.0 
2.309483045583e-03 9.222352835223e-04 0.0 
2.083614311783e-03 1.919351756093e-03 0.0 
1.992723588169e-03 1.070830309352e-02 0.0 
1.770379806412e-03 7.289538390096e-03 0.0 
2.342302267636e-04 9.623233537163e-03 0.0 
1.858822117516e-03 8.402971967832e-04 0.0 
3.056106913394e-03 2.744939274084e-03 0.0 
1.138160026144e-03 5.971607462749e-04 0.0 
1.605025362079e-04 -4.997080138638e-05 0.0 
2.346966261181e-03 9.678634519739e-04 0.0 
2.562887971075e-04 2.239508463505e-05 0.0 
2.013972610899e-03 1.133068336704e-03 0.0 
1.399047664413e-03 8.174981531140e-04 0.0 
3.077686616242e-03 3.514722902587e-03 0.0 
2.759660426779e-03 2.686179887585e-03 0.0 
1.246849291702e-03 3.624716306123e-04 0.0 
1.045902396750e-03 -2.604703188082e-04 0.0 
2.797865894328e-03 4.250232527912e-03 0.0 
2.207219938358e-03 7.798722945685e-04 0.0 
2.855359523320e-03 4.684649467947e-03 0.0 
2.729470719343e-03 4.188052405185e-03 0.0 
2.617843465053e-03 2.237025676646e-03 0.0 
2.148740294721e-03 7.238183083785e-04 0.0 
8.957663409742e-04 -1.366926570052e-04 0.0 
2.787654131282e-03 4.843722681916e-03 0.0 
-1.056071944279e-03 3.446263413298e-03 0.0 
2.811866331411e-03 1.996643972365e-03 0.0 
-2.977819669080e-04 4.912838434185e-03 0.0 
1.327000296205e-04 -6.991480101090e-04 0.0 
7.957545697082e-04 -2.038954824885e-04 0.0 
2.081072980233e-03 2.592403454370e-03 0.0 
1.722383684419e-03 5.836480568913e-03 0.0 
2.103326937814e-03 1.109713228026e-02 0.0 
7.651389629190e-05 2.409342966470e-04 0.0 
-1.639667424813e-03 3.958858049257e-03 0.0 
2.101660406048e-03 1.087509882550e-02 0.0 
1.981844099957e-03 5.193831436164e-04 0.0 
6.180676122887e-04 -2.857900031052e-04 0.0 
2.423711776297e-03 9.022920467595e-03 0.0 
1.746329347269e-03 5.173781465935e-04 0.0 
1.721568004444e-03 2.990697688309e-04 0.0 
2.964073450240e-03 3.552226959725e-03 0.0 
2.612309027348e-03 1.732888621321e-03 0.0 
1.578205191789e-03 2.509847789853e-03 0.0 
6.905955395139e-04 3.064540360626e-03 0.0 
8.024093498845e-04 -2.669737652789e-04 0.0 
5.781946832486e-04 -2.608918984604e-04 0.0 
6.166619813273e-04 -4.913380886516e-04 0.0 
1.836792729994e-03 8.654707190936e-03 0.0 
1.813028846340e-03 5.812282724710e-03 0.0 
5.777890605909e-05 -1.270267653455e-04 0.0 
3.317755588750e-05 -7.564551065031e-04 0.0 
-8.054594794785e-04 1.448515261146e-03 0.0 
3.525651618739e-04 -5.513283303648e-04 0.0 
5.083521116652e-04 -2.752473652230e-04 0.0 
2.193218220017e-03 1.106032057928e-03 0.0 
1.705992870404e-03 5.872824187741e-04 0.0 
1.766750957381e-03 1.151896266343e-03 0.0 
6.748831540537e-04 -2.038442926645e-04 0.0 
1.859717764617e-03 4.811904749527e-03 0.0 
4.667093629654e-04 -2.486099262809e-04 0.0 
2.302869676147e-03 1.310427736166e-03 0.0 
2.664231293453e-03 3.972594323816e-03 0.0 
1.094755161881e-03 7.894584959067e-03 0.0 
2.223514808465e-03 1.472137624088e-03 0.0 
3.993500339103e-04 -2.598518494788e-04 0.0 
6.040758954677e-04 -2.209001675902e-04 0.0 
2.007397568901e-03 1.135705710936e-02 0.0 
2.095082252450e-03 8.248951107434e-04 0.0 
3.557626036759e-04 -2.321920438505e-04 0.0 
4.156138511034e-05 5.845581967975e-03 0.0 
4.602327719550e-05 6.814894889539e-03 0.0 
2.072165031948e-03 1.126597982477e-02 0.0 
5.564843207518e-04 -1.970428354081e-04 0.0 
1.421888962452e-03 1.839908084855e-04 0.0 
6.836887756322e-04 5.550845951346e-03 0.0 
1.385802994827e-03 7.672435069224e-04 0.0 
3.520127729436e-04 -4.430795413467e-04 0.0 
1.457782637746e-03 1.448471459777e-04 0.0 
2.916468807759e-03 2.226708217346e-03 0.0 
2.030628496775e-03 1.126434740284e-02 0.0 
2.901100174993e-04 -2.408541892401e-04 0.0 
3.595999407329e-05 -6.830657053853e-04 0.0 
1.795290901152e-03 8.223679125604e-03 0.0 
4.889603598329e-04 -2.103971273361e-04 0.0 
1.901997107997e-03 4.202526669090e-04 0.0 
8.398400294496e-04 -2.228402693539e-04 0.0 
-8.425866351780e-04 2.824294728432e-03 0.0 
5.139465611622e-05 3.002083793999e-03 0.0 
1.781129761967e-03 3.963994197399e-04 0.0 
1.436003390791e-03 5.545697980991e-04 0.0 
2.759661990160e-03 2.528548868624e-03 0.0 
4.415960584662e-04 -1.852076574583e-04 0.0 
3.757576313643e-04 -1.957606507748e-04 0.0 
2.058498392022e-03 1.022036602509e-03 0.0 
8.655046352993e-05 -3.516571617085e-04 0.0 
-7.990811935450e-04 3.194038318262e-03 0.0 
3.283418666553e-04 -1.697401287304e-04 0.0 
1.300407189362e-03 4.079263639839e-04 0.0 
1.166102686986e-03 -1.055718174289e-04 0.0 
2.571822969856e-03 3.559618570293e-03 0.0 
2.491372554350e-03 9.734564572604e-03 0.0 
2.451304764455e-03 3.790715916720e-03 0.0 
4.691125301240e-04 1.065438659782e-04 0.0 
-1.403953301676e-03 1.641832547129e-03 0.0 
7.494927841049e-06 2.620438121743e-04 0.0 
1.218245970742e-05 2.872399745574e-06 0.0 
2.886127341306e-05 8.353642976361e-03 0.0 
1.488313432485e-03 8.046743648482e-05 0.0 
2.879357750121e-03 3.014513640743e-03 0.0 
2.275915100260e-03 1.445668552045e-03 0.0 
9.659394779195e-05 -6.934700710316e-04 0.0 
-1.393020000338e-03 4.161737690515e-03 0.0 
2.116999125108e-04 2.160034107093e-03 0.0 
1.889553930864e-03 5.290235953407e-03 0.0 
1.775628662767e-03 9.140187243023e-03 0.0 
3.826182071164e-04 2.754843016263e-04 0.0 
2.887070392434e-05 -7.206532626144e-04 0.0 
3.688751467675e-04 2.417131676534e-04 0.0 
1.799605199881e-03 5.327661570748e-03 0.0 
1.218755885741e-03 -1.468419130293e-04 0.0 
2.988700239200e-03 3.165868056104e-03 0.0 
1.387589508008e-03 1.826474391820e-05 0.0 
1.248199406475e-03 6.641955460456e-03 0.0 
1.194810720110e-03 -1.232288837458e-04 0.0 
1.899691019142e-03 4.304016635714e-03 0.0 
1.601443078860e-04 -2.950662855181e-05 0.0 
1.670797212242e-03 3.269256213942e-04 0.0 
2.349824756907e-03 3.376538407613e-03 0.0 
-1.193428458328e-03 1.375168671949e-03 0.0 
1.977913440953e-03 7.489531065841e-04 0.0 
1.502137266569e-03 3.925684958657e-03 0.0 
9.555706459104e-04 -3.117041253956e-04 0.0 
9.754410015822e-04 -2.368559555528e-04 0.0 
2.984599757855e-03 2.967554629191e-03 0.0 
4.661277821213e-04 2.490154202755e-04 0.0 
1.721749910688e-03 1.130695378176e-02 0.0 
1.878451870067e-03 1.141729359095e-02 0.0 
8.352219554949e-04 -3.573593934066e-04 0.0 
1.885925303020e-03 4.220828551184e-04 0.0 
3.079451780513e-03 2.735094942023e-03 0.0 
2.407425100244e-03 3.274397128729e-03 0.0 
9.808827841453e-04 1.647975223266e-03 0.0 
1.944647850593e-03 1.161501099241e-02 0.0 
7.674570276450e-05 4.840394761338e-03 0.0 
1.186514220732e-03 1.312899835538e-03 0.0 
2.121737863009e-03 1.352304608003e-03 0.0 
-2.817554483655e-04 5.586284764771e-03 0.0 
2.607908892850e-03 9.444007128950e-03 0.0 
1.754834674065e-03 2.849379406529e-04 0.0 
2.150061020057e-03 3.639940983501e-03 0.0 
1.851989482830e-03 3.745558796292e-04 0.0 
2.131051115269e-05 2.811187089257e-03 0.0 
1.818409069518e-03 4.153183847870e-04 0.0 
1.711504855430e-03 7.716220461011e-03 0.0 
3.019627853717e-03 2.491537468984e-03 0.0 
1.813042124604e-03 3.778129623655e-04 0.0 
2.875258832157e-03 2.658569194869e-03 0.0 
2.924023445058e-04 6.030534415435e-03 0.0 
7.691041907711e-04 -4.069622615781e-04 0.0 
1.346266588973e-04 4.606084454573e-03 0.0 
1.723356211971e-03 3.724604509619e-04 0.0 
2.029633013635e-03 8.609767300529e-03 0.0 
-8.469284201153e-04 1.679589885417e-03 0.0 
1.906880535274e-05 1.965510548110e-03 0.0 
2.582256310382e-05 2.930735935424e-03 0.0 
-1.643221157466e-04 -3.774698602702e-04 0.0 
1.699374686059e-03 3.993231930628e-04 0.0 
4.894583927366e-04 -5.271782180335e-04 0.0 
5.302623215680e-04 -5.284671105249e-04 0.0 
2.027584388576e-03 2.668717962580e-03 0.0 
2.858049833851e-03 2.480273061941e-03 0.0 
2.279198387731e-03 2.883979195943e-03 0.0 
1.872965399191e-03 5.938757999698e-04 0.0 
5.339004761168e-04 9.661978606451e-03 0.0 
3.385340752351e-04 6.803012535135e-05 0.0 
4.040117474247e-04 -5.584887362209e-04 0.0 
1.633506696384e-03 6.578085240018e-04 0.0 
3.056742336467e-03 2.699562744083e-03 0.0 
7.969611527709e-05 -7.438232519583e-04 0.0 
2.155400860327e-03 4.147314866864e-03 0.0 
2.203803568983e-03 9.973896139181e-04 0.0 
-4.791141794138e-05 -1.881855439545e-04 0.0 
1.806630410863e-03 7.522791199056e-04 0.0 
3.068817613322e-05 -1.552778449036e-04 0.0 
1.985885933436e-03 4.259156482255e-03 0.0 
2.722028168335e-04 -4.186104275014e-04 0.0 
1.187966704424e-04 -3.371259197451e-04 0.0 
2.106714785565e-03 3.142670333337e-03 0.0 
2.050568209890e-03 1.354792060410e-03 0.0 
1.008858727012e-03 -2.488342288853e-04 0.0 
7.372902589768e-05 -6.786600411315e-04 0.0 
2.968491431570e-03 2.432246633337e-03 0.0 
2.188414778655e-05 6.352303137441e-03 0.0 
-1.006026886569e-04 -3.735286175711e-06 0.0 
8.776162808124e-04 8.472032386700e-04 0.0 
5.280397225597e-04 9.946813939093e-04 0.0 
1.003929679998e-04 7.699046870490e-03 0.0 
3.490286765805e-04 1.468897178494e-03 0.0 
5.853729749078e-04 8.805460984905e-04 0.0 
1.883874844824e-03 5.256481270197e-04 0.0 
1.573477616332e-03 2.126780733120e-04 0.0 
7.760097466414e-04 3.152058917974e-04 0.0 
-1.358410313432e-03 1.901559635376e-03 0.0 
1.604718159183e-05 -7.037147643945e-04 0.0 
8.827242868307e-05 -3.113398385844e-04 0.0 
9.344167329183e-04 -3.083492117154e-04 0.0 
1.513692971973e-03 3.045727897232e-04 0.0 
1.177393943430e-03 1.071537807394e-02 0.0 
1.489071419714e-03 1.108682061709e-02 0.0 
9.389217368695e-04 7.837289051184e-03 0.0 
1.951914929490e-03 8.374521543392e-04 0.0 
2.031366363376e-04 -6.517453309179e-04 0.0 
2.293314058328e-03 1.818793052369e-03 0.0 
1.182154568311e-04 2.129316296650e-05 0.0 
1.529979892536e-04 2.953050356937e-05 0.0 
1.583557874373e-03 1.749309841019e-04 0.0 
1.210452634023e-03 8.420611088429e-03 0.0 
-9.541782141137e-04 1.316825573197e-03 0.0 
2.565375494196e-04 8.877267594993e-03 0.0 
3.418422135727e-04 3.422872678707e-04 0.0 
8.225833249067e-04 9.952287980320e-03 0.0 
2.910431248898e-03 2.376195004531e-03 0.0 
1.249015494050e-03 -1.980545340117e-05 0.0 
1.646906243177e-03 3.796766752976e-04 0.0 
-3.402458704860e-04 7.098385053189e-04 0.0 
5.879475589965e-05 2.652315070758e-03 0.0 
1.367138971309e-03 4.489736420108e-05 0.0 
1.841542518368e-04 2.111366466015e-03 0.0 
1.556401122482e-04 3.518068441775e-03 0.0 
2.244596261521e-05 5.787596824111e-04 0.0 
2.732520451376e-05 5.327618475064e-06 0.0 
5.300040282200e-05 7.808472772104e-03 0.0 
1.298174063873e-03 -6.409514000094e-05 0.0 
1.666488151561e-03 1.170754513266e-02 0.0 
1.306229472757e-03 -7.942699304168e-05 0.0 
4.535185574273e-05 7.528646439950e-06 0.0 
-7.949818723785e-04 5.964125434197e-03 0.0 
-3.230253515341e-04 7.398154225839e-03 0.0 
1.524111749123e-03 6.672922036671e-04 0.0 
9.060985510985e-04 8.722898995155e-03 0.0 
1.110572782827e-04 2.022656171112e-03 0.0 
2.168109452738e-03 3.062434983036e-03 0.0 
1.647522970121e-03 1.078198391284e-03 0.0 
1.711636283379e-03 2.924968357021e-03 0.0 
3.412534228200e-04 7.470007646215e-03 0.0 
7.979609872376e-04 -3.502802036112e-04 0.0 
8.637380392316e-04 -2.892917485875e-04 0.0 
9.613205120187e-05 5.324024614259e-03 0.0 
1.881234969883e-03 1.313227759284e-03 0.0 
1.558908173778e-03 9.099476291332e-03 0.0 
1.833527463717e-04 8.779751300621e-03 0.0 
2.192920782384e-04 7.921752036600e-03 0.0 
3.920998896486e-04 7.585478677176e-03 0.0 
1.490231741089e-04 8.244448651831e-04 0.0 
6.927664388983e-04 -3.963083134068e-04 0.0 
1.618411083126e-04 1.291157866214e-03 0.0 
3.763335505508e-04 6.549892125136e-03 0.0 
6.182283609037e-04 3.097733204549e-04 0.0 
1.075374605871e-03 1.720813406173e-03 0.0 
2.235007111947e-03 4.075148199025e-03 0.0 
5.160264877617e-04 2.030031210022e-03 0.0 
3.618518210439e-04 -4.978462079733e-04 0.0 
3.344142069346e-04 -5.564572403738e-04 0.0 
5.769987825023e-04 1.094048438139e-04 0.0 
-5.877544757121e-04 7.170456721018e-04 0.0 
8.622232416592e-05 -6.940450682150e-04 0.0 
1.857294714899e-04 1.271944715395e-04 0.0 
1.310353090943e-05 -7.690596024305e-04 0.0 
2.263170112529e-04 8.486577026880e-03 0.0 
1.038523294609e-03 3.679598655631e-04 0.0 
-1.981220684746e-06 -5.811103671997e-04 0.0 
-2.763831952570e-05 -6.975960615721e-04 0.0 
9.774114370137e-05 4.992864801151e-04 0.0 
7.919657889409e-04 9.374942287712e-03 0.0 
2.379579040188e-04 1.396341869420e-03 0.0 
1.014767653950e-03 4.131096694826e-04 0.0 
6.855130757557e-04 9.385086797551e-03 0.0 
-1.086667637551e-03 1.901617522317e-03 0.0 
3.908074547889e-05 1.084374991788e-03 0.0 
1.247577110684e-04 -7.129661770431e-04 0.0 
2.662729005584e-04 1.821406684670e-03 0.0 
3.586096936534e-05 5.681654895624e-06 0.0 
8.834561952958e-04 1.696465944089e-03 0.0 
5.611739085942e-04 7.961807120015e-04 0.0 
1.341078892019e-03 7.760578116098e-03 0.0 
2.185066419390e-04 -5.160719789712e-04 0.0 
2.275590654614e-03 1.703370460545e-03 0.0 
3.253859842131e-04 1.643814486801e-04 0.0 
9.136393083808e-05 4.347946495220e-03 0.0 
3.206208838243e-04 1.468016832523e-04 0.0 
-3.110605586525e-04 8.999198327007e-04 0.0 
2.143061009059e-04 2.835198062566e-05 0.0 
6.968718207249e-04 4.813303891806e-04 0.0 
5.860156396157e-05 -7.580011997725e-04 0.0 
5.970395202096e-04 1.829774880127e-04 0.0 
4.184322499091e-04 1.213130792058e-03 0.0 
2.128517144431e-04 9.819169582944e-04 0.0 
5.109606669357e-04 8.660132288389e-03 0.0 
1.683262803412e-03 7.272249377594e-03 0.0 
1.154218405237e-03 5.869796197665e-03 0.0 
6.981610852964e-04 1.011310675400e-03 0.0 
1.653331701252e-04 -5.996161668926e-04 0.0 
-2.705229208404e-04 3.413051704960e-03 0.0 
2.076474596517e-03 1.457785756145e-03 0.0 
4.216718563836e-04 9.671832315582e-03 0.0 
5.649634577952e-04 1.665734374845e-03 0.0 
3.160432654333e-06 5.498648049995e-04 0.0 
3.160432654333e-06 2.320955909816e-04 0.0 
-2.123302420449e-06 -7.839362110381e-04 0.0 
-2.680706588731e-07 -7.848795196627e-04 0.0 
2.260248609831e-05 9.319796847237e-03 0.0 
5.380593021969e-05 9.657392500547e-03 0.0 
4.729211946381e-06 1.994482645767e-06 0.0 
4.729211946381e-06 3.535372937278e-06 0.0 
1.595882156432e-06 -7.827166199067e-04 0.0 
-1.014670002273e-03 9.394668620183e-04 0.0 
2.152844346539e-04 1.185972153755e-05 0.0 
1.422690722439e-03 1.151033103876e-03 0.0 
1.336608616866e-04 -7.247935515926e-04 0.0 
3.541643720105e-04 4.540594308125e-05 0.0 
5.282715535150e-05 -2.542249784228e-04 0.0 
5.347360139965e-05 -3.876445467899e-04 0.0 
2.550819541308e-04 6.170805796870e-03 0.0 
2.787177673316e-04 5.413479665441e-05 0.0 
2.602541692915e-03 2.093393741139e-03 0.0 
9.230842180950e-05 -7.253264305448e-04 0.0 
3.129058634241e-04 -4.373784073523e-04 0.0 
9.356035750038e-04 1.393986816170e-03 0.0 
1.103578225614e-05 2.427987059909e-03 0.0 
1.035171066808e-04 -3.782143733002e-04 0.0 
1.656852209410e-04 7.158379061593e-03 0.0 
1.327651403548e-03 1.289639288919e-03 0.0 
1.642459026617e-03 2.491699823127e-03 0.0 
1.973619930118e-03 3.274448337808e-03 0.0 
5.840853921355e-04 9.348839328892e-03 0.0 
2.697542118608e-03 2.046681329410e-03 0.0 
7.060901461133e-04 1.704183760739e-03 0.0 
1.256704285021e-04 -6.855229493673e-04 0.0 
-1.799845011428e-04 -4.277272251909e-04 0.0 
1.561583993091e-03 1.596380287008e-03 0.0 
1.678370842625e-03 7.219847086477e-04 0.0 
1.322010475462e-04 8.723528666855e-05 0.0 
1.331820022865e-04 5.428691093657e-03 0.0 
1.194537091904e-04 1.350256980235e-05 0.0 
1.624572132961e-03 1.471635297556e-03 0.0 
1.366735989340e-03 1.209704997032e-03 0.0 
6.399606796288e-05 -1.899398641047e-04 0.0 
-1.129889310617e-03 2.762967806548e-03 0.0 
1.134192595196e-03 1.130291881584e-02 0.0 
2.034494509243e-03 7.866125901593e-03 0.0 
1.405856198141e-03 7.438751976006e-03 0.0 
2.727151219716e-03 2.206620800189e-03 0.0 
2.086376643483e-04 1.764153279514e-03 0.0 
6.697941911262e-04 2.843344964713e-04 0.0 
-1.500707569945e-04 -9.474805318217e-05 0.0 
-7.246569360559e-05 -3.839410580021e-04 0.0 
2.356942027140e-04 9.868921804972e-03 0.0 
2.181637336419e-04 4.981045977362e-03 0.0 
2.419171038651e-04 -6.224992633381e-04 0.0 
4.785987826038e-04 1.640379959237e-03 0.0 
7.836657820799e-05 -7.492774340542e-04 0.0 
1.141199538106e-03 5.092740651219e-04 0.0 
8.678520626616e-04 7.762779043244e-03 0.0 
7.364048951250e-04 4.549079638274e-04 0.0 
2.105056057895e-03 1.653316781875e-03 0.0 
1.543332531569e-03 7.387057047625e-03 0.0 
5.060299655393e-04 1.280401677299e-04 0.0 
3.680602913373e-04 1.197717138600e-03 0.0 
3.216273380134e-05 1.269360506593e-03 0.0 
-8.756953950183e-04 6.911810800637e-03 0.0 
4.717697351862e-04 1.990238867853e-03 0.0 
7.107694733746e-04 7.064583905521e-04 0.0 
1.172652747527e-03 4.992765948033e-04 0.0 
1.892093027546e-03 1.393336193190e-03 0.0 
6.276285638738e-05 1.152098879882e-05 0.0 
1.902215255677e-03 3.325094640119e-03 0.0 
-1.677292847277e-03 3.093917886837e-03 0.0 
8.135721457760e-05 4.071869740849e-03 0.0 
1.370207261229e-03 2.135728993829e-03 0.0 
1.277828424468e-03 6.844379637608e-03 0.0 
1.129001937760e-04 -3.185169554387e-06 0.0 
1.661405913738e-03 1.209226465753e-03 0.0 
2.220201772754e-04 3.670162003845e-05 0.0 
1.898145291859e-04 3.991690748183e-03 0.0 
7.033391807696e-04 3.958510356342e-04 0.0 
6.316050755126e-04 1.413703142207e-04 0.0 
6.630408828355e-04 1.591788859727e-04 0.0 
1.792510970442e-04 -6.182889987061e-04 0.0 
1.008044561864e-04 1.730082060763e-05 0.0 
1.152170878606e-03 8.766163260044e-03 0.0 
1.343077205091e-04 2.049052991696e-03 0.0 
-2.158052105334e-05 -3.292906483576e-04 0.0 
8.793335993089e-05 2.844268419675e-03 0.0 
2.005421188252e-04 5.379845041248e-03 0.0 
5.975863142176e-06 -7.797738264112e-04 0.0 
3.717855013147e-04 9.199388680036e-04 0.0 
1.847294792648e-03 2.856174087983e-03 0.0 
1.733871004632e-04 1.054922376392e-03 0.0 
6.825518104045e-05 1.956297891786e-03 0.0 
9.087295447415e-04 5.048186159979e-04 0.0 
4.117445142877e-04 7.069793277894e-03 0.0 
-8.423738312980e-05 -5.961565360268e-04 0.0 
-6.736023508987e-04 2.097162161412e-03 0.0 
-3.433671598764e-05 -6.248582382327e-04 0.0 
8.949263740489e-05 -4.167780121406e-04 0.0 
-1.806485571656e-03 3.422444632338e-03 0.0 
2.773680664028e-04 -4.650412870964e-04 0.0 
1.417970511616e-04 -6.169637196414e-07 0.0 
8.606622131164e-04 1.759388804625e-03 0.0 
1.622223558425e-03 6.782218961751e-03 0.0 
3.797436845300e-04 -5.228088744382e-04 0.0 
5.622087448886e-04 9.728351620237e-05 0.0 
9.938247716381e-04 3.169783802217e-04 0.0 
8.774050557061e-04 5.716757337952e-04 0.0 
1.149516816362e-03 1.146304009488e-03 0.0 
1.483408208364e-03 2.105247226327e-03 0.0 
-4.257601558109e-06 -4.330645639838e-04 0.0 
-5.274896580920e-04 1.071697235277e-03 0.0 
1.977133243423e-04 6.694260760053e-06 0.0 
1.507713393314e-05 -7.770787707846e-04 0.0 
3.847169317046e-06 -7.755727879547e-04 0.0 
-1.055363066061e-03 3.877028925621e-03 0.0 
1.337966939575e-05 -6.164186582019e-04 0.0 
3.845953314530e-04 9.431973719442e-05 0.0 
6.231206225493e-04 7.567232671879e-04 0.0 
1.873366514869e-04 1.760772500571e-03 0.0 
6.921949687454e-04 4.628474978600e-04 0.0 
1.185283689000e-03 3.865764855312e-04 0.0 
3.318720635402e-04 6.520020748889e-03 0.0 
4.444794149309e-05 2.085683218606e-04 0.0 
6.537849283038e-04 3.188905936118e-04 0.0 
7.402458561439e-04 9.699845209071e-03 0.0 
3.916699761305e-05 -1.064979345177e-05 0.0 
-1.431717228219e-06 -7.154024605008e-04 0.0 
6.942645212411e-05 1.061463319207e-05 0.0 
1.562003581091e-03 8.510062432027e-03 0.0 
5.765895006389e-05 -7.570544205646e-04 0.0 
1.934491344582e-04 -4.890212529602e-04 0.0 
7.121847301452e-04 9.255939194009e-04 0.0 
2.975399391922e-04 1.869899730393e-03 0.0 
3.545538816719e-04 9.436656206424e-04 0.0 
1.023031409676e-04 -6.534367521868e-04 0.0 
-5.900729626996e-04 1.786554590263e-03 0.0 
2.944409402464e-04 4.713901778429e-05 0.0 
1.065536049538e-05 4.941394031559e-04 0.0 
1.691167165380e-05 4.866882391342e-06 0.0 
5.146375951137e-05 8.781082128421e-03 0.0 
8.911864070598e-04 2.989493408549e-04 0.0 
7.967436145307e-05 -7.480751638507e-04 0.0 
4.463918113406e-04 1.645586311217e-03 0.0 
-1.928526523580e-05 -6.843662937025e-04 0.0 
4.522359016519e-04 1.336921351334e-04 0.0 
4.731006142457e-04 1.223306668641e-03 0.0 
-9.879938402027e-04 2.180904601413e-03 0.0 
1.662320139933e-03 1.428629966135e-03 0.0 
1.879421304121e-04 4.463300209530e-03 0.0 
1.155513209474e-04 1.000004808316e-03 0.0 
1.332180741897e-04 6.365277654564e-05 0.0 
7.906228112176e-05 5.828205536564e-03 0.0 
5.693253532115e-04 7.658317678167e-04 0.0 
6.060520856692e-04 1.668635384226e-03 0.0 
1.568463724134e-04 5.124464929809e-03 0.0 
9.355416276939e-04 1.258842690036e-03 0.0 
2.032815828073e-04 -5.712052536719e-04 0.0 
3.689958708408e-04 9.377620295875e-03 0.0 
1.177339478869e-03 8.497985935791e-04 0.0 
1.119345575093e-05 1.051566190041e-03 0.0 
-2.388043430273e-06 -7.826877084548e-04 0.0 
1.001723803915e-04 9.371781350174e-03 0.0 
1.518845864870e-05 4.716838558956e-06 0.0 
1.534208176305e-04 -7.123274185523e-04 0.0 
1.104459099837e-03 4.293896836523e-04 0.0 
7.690762339206e-04 1.760812409051e-03 0.0 
1.358292457788e-04 1.297622485111e-03 0.0 
9.488518129993e-05 -7.430101989882e-04 0.0 
-4.829103844269e-04 3.198148794073e-03 0.0 
2.209457441357e-05 -3.534677530947e-04 0.0 
7.465433925745e-05 3.469343767694e-03 0.0 
-1.222840740700e-03 1.162380196564e-03 0.0 
2.732403560034e-04 9.319940410582e-04 0.0 
1.425518916374e-04 6.016874847106e-03 0.0 
2.655859521748e-04 -5.860569949191e-05 0.0 
2.692889264020e-04 6.729818918381e-03 0.0 
8.891917707358e-04 6.373840444666e-04 0.0 
4.161383793540e-05 -3.182514984443e-04 0.0 
-1.585491704453e-03 3.587543268457e-03 0.0 
2.289055538378e-04 -6.057441012233e-04 0.0 
2.846573466888e-04 -4.071562424525e-04 0.0 
1.951926352183e-05 -2.844866541889e-04 0.0 
1.187413928388e-03 6.927793239527e-04 0.0 
1.469013867589e-04 -4.304914625167e-04 0.0 
1.904859983553e-04 -3.846476468850e-04 0.0 
2.166365572419e-05 -6.670518281312e-04 0.0 
3.802588096370e-04 5.296810755531e-05 0.0 
1.535709439741e-03 1.659147915121e-03 0.0 
7.554143441462e-05 3.194150694962e-03 0.0 
1.868838359198e-05 9.958407881976e-04 0.0 
2.737091835612e-05 6.048348013019e-06 0.0 
9.783020968319e-05 8.832730727506e-03 0.0 
1.077088510155e-04 6.232842894371e-03 0.0 
2.022003500289e-04 -4.347161994631e-04 0.0 
2.271204833303e-04 -4.090976753105e-04 0.0 
1.394326901770e-04 -3.972754977231e-04 0.0 
1.354269723779e-03 5.695390469982e-04 0.0 
1.274243646405e-04 -9.206075346946e-05 0.0 
1.289658019055e-03 1.373177019875e-03 0.0 
1.773539283633e-04 7.716957668690e-03 0.0 
3.308156291098e-04 1.217354029157e-03 0.0 
1.311025511687e-03 5.209928260761e-04 0.0 
3.164365604486e-04 6.924450870686e-03 0.0 
1.241683395978e-03 1.821432232277e-03 0.0 
1.170643461470e-03 7.154678908249e-04 0.0 
8.821108291967e-04 5.311450709745e-04 0.0 
-1.339553158196e-03 3.359657397392e-03 0.0 
1.290630508284e-03 1.809098431501e-03 0.0 
1.105251040822e-03 1.468039241911e-03 0.0 
1.984163214043e-05 -6.867779841468e-04 0.0 
2.241994163660e-04 -4.604376463492e-04 0.0 
-1.369865082901e-03 3.046105380472e-03 0.0 
1.030124740468e-03 1.481756679222e-03 0.0 
1.677649270763e-04 1.664884628783e-02 0.0 
1.880744966166e-04 1.631268344747e-02 0.0 
2.585195197793e-04 1.665444193142e-02 0.0 
2.764898306569e-04 1.632142870697e-02 0.0 
3.402214045181e-04 1.666118315532e-02 0.0 
3.637183129156e-04 1.632676152941e-02 0.0 
4.240042984609e-04 1.666511675469e-02 0.0 
4.495201120270e-04 1.633054207598e-02 0.0 
5.071452042693e-04 1.666777283879e-02 0.0 
5.329104094512e-04 1.633316751543e-02 0.0 
5.875032530469e-04 1.666877346706e-02 0.0 
6.127250091503e-04 1.633392344034e-02 0.0 
6.634185212049e-04 1.666703208697e-02 0.0 
6.877762874497e-04 1.633156566935e-02 0.0 
7.334639637641e-04 1.666109404328e-02 0.0 
7.568799296504e-04 1.632449084245e-02 0.0 
7.962882497042e-04 1.664916840729e-02 0.0 
8.188345285801e-04 1.631073453801e-02 0.0 
8.505226684281e-04 1.662908118482e-02 0.0 
2.233848788135e-04 1.203510302420e-02 0.0 
8.723969697530e-04 1.628791552307e-02 0.0 
8.947261295328e-04 1.659820786915e-02 0.0 
9.162637164164e-04 1.625315924754e-02 0.0 
4.403329788493e-04 1.227689606426e-02 0.0 
9.273506156345e-04 1.655339217830e-02 0.0 
9.490680528495e-04 1.620299478922e-02 0.0 
9.467296029824e-04 1.649080283365e-02 0.0 
9.693977357663e-04 1.613317539453e-02 0.0 
9.511036384813e-04 1.640577388558e-02 0.0 
-2.549236376024e-04 1.212196611191e-02 0.0 
9.758608086246e-04 1.603852277688e-02 0.0 
9.387062222199e-04 1.629258287636e-02 0.0 
9.671823933597e-04 1.591266239063e-02 0.0 
9.078606671778e-04 1.614436033948e-02 0.0 
9.423632313854e-04 1.574796185989e-02 0.0 
8.571142499635e-04 1.595260008255e-02 0.0 
9.008042708619e-04 1.553479772269e-02 0.0 
7.854007110306e-04 1.570713671065e-02 0.0 
8.427117774628e-04 1.526173137721e-02 0.0 
6.923733843006e-04 1.539461720089e-02 0.0 
7.692627113766e-04 1.491319359050e-02 0.0 
3.742257444117e-04 1.132503989576e-02 0.0 
6.840742033936e-04 1.447102331792e-02 0.0 
5.791009464702e-04 1.499934316402e-02 0.0 
5.933232307246e-04 1.390835047946e-02 0.0 
4.491154834802e-04 1.449845580486e-02 0.0 
5.065218319222e-04 1.319627306548e-02 0.0 
3.116270391450e-04 1.386730650114e-02 0.0 
1.804246991056e-04 1.306411801777e-02 0.0 
-1.040827720042e-04 1.141190298347e-02 0.0 
2.170665885032e-05 1.647768313870e-02 0.0 
1.070226179172e-04 1.647786289596e-02 0.0 
5.781449214832e-05 1.613607894231e-02 0.0 
7.091478461919e-05 1.681946709236e-02 0.0 
-2.909717233502e-04 1.073920648267e-02 0.0 
1.308012621092e-04 1.529889241633e-02 0.0 
1.687668689762e-04 1.563952902645e-02 0.0 
2.267649771335e-04 1.530801413496e-02 0.0 
2.640429156515e-04 1.564815533153e-02 0.0 
3.186794691276e-04 1.531543159590e-02 0.0 
3.546232925305e-04 1.565428334543e-02 0.0 
4.074621982198e-04 1.532102943605e-02 0.0 
4.420730321711e-04 1.565893294132e-02 0.0 
4.934737455751e-04 1.532553649715e-02 0.0 
5.266860306129e-04 1.566254030844e-02 0.0 
5.766053904731e-04 1.532872356156e-02 0.0 
6.080515254147e-04 1.566450074183e-02 0.0 
6.564216359618e-04 1.532967511847e-02 0.0 
6.854528859422e-04 1.566363139936e-02 0.0 
7.323152909570e-04 1.532702753848e-02 0.0 
7.580546583507e-04 1.565835860763e-02 0.0 
8.036040086890e-04 1.531903823191e-02 0.0 
8.249755588645e-04 1.564673659744e-02 0.0 
1.100570457632e-03 1.252643711336e-02 0.0 
8.695808269334e-04 1.530356830540e-02 0.0 
8.853140979739e-04 1.562640058422e-02 0.0 
9.295439915786e-04 1.527802127502e-02 0.0 
8.702305932949e-04 1.271058325231e-02 0.0 
9.381644502414e-04 1.559448759226e-02 0.0 
1.200635431643e-03 1.262627073452e-02 0.0 
9.828277849248e-04 1.523924841849e-02 0.0 
9.826444883148e-04 1.554752268469e-02 0.0 
1.028847865831e-03 1.518340974676e-02 0.0 
1.017939563150e-03 1.548125441217e-02 0.0 
1.067165680048e-03 1.510580477742e-02 0.0 
1.043381022808e-03 1.539047465107e-02 0.0 
1.097581604461e-03 1.500067248319e-02 0.0 
1.058537561418e-03 1.526880012327e-02 0.0 
1.230477037486e-03 1.201403460515e-02 0.0 
1.120256219681e-03 1.486098941491e-02 0.0 
1.063403615831e-03 1.510845320268e-02 0.0 
1.135903568780e-03 1.467811263249e-02 0.0 
1.058553205233e-03 1.489981892983e-02 0.0 
1.045584145916e-03 1.463106813347e-02 0.0 
1.146022013855e-03 1.444149467406e-02 0.0 
1.027162704597e-03 1.428689274809e-02 0.0 
1.153145745974e-03 1.413765311474e-02 0.0 
1.008354295460e-03 1.384802070900e-02 0.0 
9.939999564772e-04 1.328891022290e-02 0.0 
1.161281031757e-03 1.375003971269e-02 0.0 
1.174072301299e-03 1.325601293937e-02 0.0 
1.000137173149e-03 1.219818074409e-02 0.0 
1.666658638919e-05 1.545924995146e-02 0.0 
8.432650812931e-05 1.546314721170e-02 0.0 
5.277441968719e-05 1.579816270852e-02 0.0 
4.821867483131e-05 1.512423445463e-02 0.0 
8.963366915202e-04 1.189664860375e-02 0.0 
1.259762014275e-04 1.462505594295e-02 0.0 
1.574512045985e-04 1.429093485646e-02 0.0 
2.202743734375e-04 1.463325643836e-02 0.0 
2.517266541521e-04 1.429909010480e-02 0.0 
3.128538113242e-04 1.464112406578e-02 0.0 
3.444467890396e-04 1.430662692586e-02 0.0 
4.031113525323e-04 1.464768054661e-02 0.0 
4.351952111596e-04 1.431317439322e-02 0.0 
4.909467702511e-04 1.465312683849e-02 0.0 
5.238766820283e-04 1.431862619789e-02 0.0 
5.763230172124e-04 1.465721910966e-02 0.0 
6.104033996440e-04 1.432245258526e-02 0.0 
6.590558834518e-04 1.465913141379e-02 0.0 
6.946035509368e-04 1.432362916405e-02 0.0 
7.388317084617e-04 1.465756900784e-02 0.0 
7.762368125266e-04 1.432068340791e-02 0.0 
8.152697453601e-04 1.465082156282e-02 0.0 
1.559360300521e-03 1.252830715078e-02 0.0 
8.550382680581e-04 1.431171004762e-02 0.0 
8.879777994559e-04 1.463675842467e-02 0.0 
1.602523428318e-03 1.253888358334e-02 0.0 
9.307665595656e-04 1.429434301063e-02 0.0 
9.565994806478e-04 1.461277358217e-02 0.0 
1.003250290148e-03 1.426568169557e-02 0.0 
1.020858135762e-03 1.457569021466e-02 0.0 
1.072435737893e-03 1.422217851592e-02 0.0 
1.417515343589e-03 1.275647675086e-02 0.0 
1.080608764572e-03 1.452162378182e-02 0.0 
1.138440280101e-03 1.415946760419e-02 0.0 
1.135905498259e-03 1.444580393439e-02 0.0 
1.201653875457e-03 1.407220114998e-02 0.0 
1.187114638899e-03 1.434239982513e-02 0.0 
1.262810060905e-03 1.395380125989e-02 0.0 
1.234995684730e-03 1.420426320960e-02 0.0 
1.323165316947e-03 1.379628913566e-02 0.0 
1.280925804847e-03 1.402267477078e-02 0.0 
1.384517854692e-03 1.358965861887e-02 0.0 
1.670877355703e-03 1.212710511945e-02 0.0 
1.449619889958e-03 1.332221879339e-02 0.0 
1.326964427246e-03 1.378677222480e-02 0.0 
1.520502667370e-03 1.297869850201e-02 0.0 
1.376239076625e-03 1.348352622392e-02 0.0 
1.431527663879e-03 1.309597235743e-02 0.0 
1.529032398770e-03 1.235527471952e-02 0.0 
1.542498155262e-05 1.445048215572e-02 0.0 
7.825984261108e-05 1.445311485896e-02 0.0 
4.670775416896e-05 1.411555843940e-02 0.0 
4.697706999474e-05 1.478803857529e-02 0.0 
1.492224831646e-03 1.219217141965e-02 0.0 
1.229406032288e-04 1.327766770869e-02 0.0 
1.554374769726e-04 1.361673998122e-02 0.0 
2.160845423972e-04 1.328440993166e-02 0.0 
2.495505507376e-04 1.362443847334e-02 0.0 
3.092758483662e-04 1.329210292398e-02 0.0 
3.430449294961e-04 1.363225741553e-02 0.0 
4.018893770968e-04 1.329948906648e-02 0.0 
4.353750952675e-04 1.363935242343e-02 0.0 
4.936199310081e-04 1.330607168648e-02 0.0 
5.263699586773e-04 1.364539301567e-02 0.0 
5.844203743343e-04 1.331134651169e-02 0.0 
6.160074801169e-04 1.364981316951e-02 0.0 
6.743283012694e-04 1.331447606742e-02 0.0 
7.042718882816e-04 1.365161323343e-02 0.0 
7.633981484363e-04 1.331422344903e-02 0.0 
7.911349151564e-04 1.364935377973e-02 0.0 
1.775265554086e-03 1.222170575714e-02 0.0 
8.516884623339e-04 1.330892890551e-02 0.0 
8.765588824020e-04 1.364114701850e-02 0.0 
1.689638492761e-03 1.248891767061e-02 0.0 
9.392849517108e-04 1.329647968853e-02 0.0 
9.605530974766e-04 1.362462730361e-02 0.0 
1.781931921567e-03 1.216515089588e-02 0.0 
1.026360144650e-03 1.327426535339e-02 0.0 
1.043224416239e-03 1.359688917382e-02 0.0 
1.113203884597e-03 1.323909568060e-02 0.0 
1.124807360637e-03 1.355437650361e-02 0.0 
1.200253462189e-03 1.318708094000e-02 0.0 
1.205713354975e-03 1.349272677468e-02 0.0 
1.875827927585e-03 1.188661321386e-02 0.0 
1.288119061681e-03 1.311338746303e-02 0.0 
1.286594364006e-03 1.340652550814e-02 0.0 
1.377729063042e-03 1.301220143531e-02 0.0 
1.368483996498e-03 1.328927851192e-02 0.0 
1.452764518779e-03 1.313286000291e-02 0.0 
1.470268822155e-03 1.287631132887e-02 0.0 
1.541459629400e-03 1.292772900871e-02 0.0 
1.567466781387e-03 1.269731602787e-02 0.0 
1.636006239786e-03 1.266203413847e-02 0.0 
1.670292551782e-03 1.246465795972e-02 0.0 
1.790200866260e-03 1.215382512732e-02 0.0 
1.522065837827e-05 1.344216242782e-02 0.0 
7.703364886391e-05 1.344372826449e-02 0.0 
4.650343099461e-05 1.377936520394e-02 0.0 
4.575087624757e-05 1.310652548837e-02 0.0 
1.792060805308e-03 1.208651718464e-02 0.0 
1.229807982059e-04 1.260427579347e-02 0.0 
1.553564988963e-04 1.226897171389e-02 0.0 
2.159633693438e-04 1.261003357955e-02 0.0 
2.495715066317e-04 1.227506904341e-02 0.0 
3.094179773137e-04 1.261710984616e-02 0.0 
3.442571814974e-04 1.228214872542e-02 0.0 
4.029595001507e-04 1.262437345420e-02 0.0 
4.391940945124e-04 1.228923045593e-02 0.0 
4.963688071991e-04 1.263106533126e-02 0.0 
5.343637102305e-04 1.229553550196e-02 0.0 
5.896652496965e-04 1.263649535320e-02 0.0 
6.298704259479e-04 1.230026583064e-02 0.0 
6.829463717382e-04 1.263977988704e-02 0.0 
7.259147470969e-04 1.230233481995e-02 0.0 
7.764229367829e-04 1.263964121593e-02 0.0 
1.835269643623e-03 1.168191705861e-02 0.0 
8.227795828569e-04 1.230029731929e-02 0.0 
1.816264251100e-03 1.158019389186e-02 0.0 
8.703083416877e-04 1.263445467818e-02 0.0 
9.207489130444e-04 1.229229643521e-02 0.0 
9.648551029993e-04 1.262210333258e-02 0.0 
1.020207021418e-03 1.227592914280e-02 0.0 
1.060443917302e-03 1.259994354853e-02 0.0 
1.121674507471e-03 1.224826284637e-02 0.0 
1.789090430284e-03 1.197053487484e-02 0.0 
1.157570203176e-03 1.256479115802e-02 0.0 
1.225779078511e-03 1.220575034281e-02 0.0 
1.256858861484e-03 1.251275930178e-02 0.0 
1.333282407952e-03 1.214410313552e-02 0.0 
1.359082715364e-03 1.243908546209e-02 0.0 
1.445003568287e-03 1.205784117469e-02 0.0 
1.465174613640e-03 1.233781910281e-02 0.0 
1.562080048277e-03 1.194071440153e-02 0.0 
1.685119048780e-03 1.178478918653e-02 0.0 
1.576419323335e-03 1.220212955098e-02 0.0 
1.924437470815e-03 1.140225202568e-02 0.0 
1.693670810208e-03 1.202342698938e-02 0.0 
1.878258257476e-03 1.169086984190e-02 0.0 
1.525424782586e-05 1.243253625076e-02 0.0 
7.710743328859e-05 1.243373256622e-02 0.0 
4.657721541929e-05 1.209634711165e-02 0.0 
4.578446569516e-05 1.276992170533e-02 0.0 
1.905386060756e-03 1.168810968419e-02 0.0 
1.230830684025e-04 1.125543997036e-02 0.0 
1.554248070444e-04 1.159422444783e-02 0.0 
2.162509927154e-04 1.125987036045e-02 0.0 
2.497908218552e-04 1.159965309037e-02 0.0 
3.103999987521e-04 1.126584351668e-02 0.0 
3.450198877123e-04 1.160629834898e-02 0.0 
4.055994474528e-04 1.127237739325e-02 0.0 
4.410713355997e-04 1.161308477142e-02 0.0 
5.019224780891e-04 1.127848970846e-02 0.0 
5.380401400333e-04 1.161910556366e-02 0.0 
5.996027005332e-04 1.128343936364e-02 0.0 
6.361314469818e-04 1.162363977937e-02 0.0 
6.988805066269e-04 1.128623528093e-02 0.0 
1.782993267955e-03 1.098746143275e-02 0.0 
7.355878609518e-04 1.162541626510e-02 0.0 
8.001723506271e-04 1.128554690752e-02 0.0 
1.763775611483e-03 1.129586996169e-02 0.0 
8.368558828461e-04 1.162312156573e-02 0.0 
9.039246152338e-04 1.127990758557e-02 0.0 
1.748139346866e-03 1.085291959708e-02 0.0 
9.402888866012e-04 1.161492509616e-02 0.0 
1.010558270097e-03 1.126715798252e-02 0.0 
1.046370214959e-03 1.159835513178e-02 0.0 
1.120667169071e-03 1.124464489637e-02 0.0 
1.155734565699e-03 1.157053820523e-02 0.0 
1.865813824377e-03 1.074049065831e-02 0.0 
1.234963964321e-03 1.120932913075e-02 0.0 
1.269112781428e-03 1.152801295668e-02 0.0 
1.387277624323e-03 1.146658804133e-02 0.0 
1.354187780772e-03 1.115750682147e-02 0.0 
1.511127735891e-03 1.138115182080e-02 0.0 
1.479202099339e-03 1.108488101401e-02 0.0 
1.640797081344e-03 1.126534624736e-02 0.0 
1.610015814312e-03 1.098576159476e-02 0.0 
1.846596167905e-03 1.104889918726e-02 0.0 
1.522242289357e-05 1.142171222992e-02 0.0 
7.710957040475e-05 1.142267820566e-02 0.0 
4.654539048700e-05 1.175938130813e-02 0.0 
4.578660281132e-05 1.108500912745e-02 0.0 
1.890533046094e-03 1.109458531457e-02 0.0 
1.229635449305e-04 1.058076908509e-02 0.0 
1.550793616005e-04 1.024437018533e-02 0.0 
2.160250707435e-04 1.058468698322e-02 0.0 
2.493855984681e-04 1.024860999389e-02 0.0 
3.102206973368e-04 1.058998379744e-02 0.0 
3.450809102828e-04 1.025401432825e-02 0.0 
4.058397714385e-04 1.059595309176e-02 0.0 
4.425290601696e-04 1.025965375871e-02 0.0 
5.031398786733e-04 1.060148299724e-02 0.0 
5.419187081145e-04 1.026446674766e-02 0.0 
6.022638680303e-04 1.060580725885e-02 0.0 
6.436876381177e-04 1.026786638198e-02 0.0 
1.659247130972e-03 1.017761111654e-02 0.0 
7.037755302658e-04 1.060809398833e-02 0.0 
1.611570138236e-03 1.001838379728e-02 0.0 
7.483480667569e-04 1.026837261109e-02 0.0 
8.080375327933e-04 1.060664454611e-02 0.0 
8.564075667731e-04 1.026469111292e-02 0.0 
9.156111169945e-04 1.060037949417e-02 0.0 
9.684945165756e-04 1.025527105672e-02 0.0 
1.027077398311e-03 1.058703203448e-02 0.0 
1.085159888980e-03 1.023747550728e-02 0.0 
1.662378250027e-03 1.049656340675e-02 0.0 
1.142937714879e-03 1.056389121991e-02 0.0 
1.207081671250e-03 1.020841009387e-02 0.0 
1.264040524064e-03 1.052795469585e-02 0.0 
1.335009935775e-03 1.016495690227e-02 0.0 
1.469529823656e-03 1.010313659955e-02 0.0 
1.391008375376e-03 1.047582520196e-02 0.0 
1.524633704068e-03 1.040311119175e-02 0.0 
1.730606653744e-03 9.959044390797e-03 0.0 
1.733737772799e-03 1.027799668100e-02 0.0 
1.520004270358e-05 1.040992205366e-02 0.0 
7.696766674272e-05 1.041066646487e-02 0.0 
4.640348682497e-05 1.007292024660e-02 0.0 
4.576422262133e-05 1.074766827193e-02 0.0 
1.788717602605e-03 1.035476821874e-02 0.0 

VECTORS element_materi_displacement float
0.0 0.0 0.0 
0.0 0.0 0.0 
0.0 0.0 0.0 
0.0 0.0 0.0 
0.0 0.0 0.0 
0.0 0.0 0.0 
0.0 0.0 0.0 
0.0 0.0 0.0 
0.0 0.0 0.0 
0.0 0.0 0.0 
0.0 0.0 0.0 
0.0 0.0 0.0 
0.0 0.0 0.0 
0.0 0.0 0.0 
0.0 0.0 0.0 
0.0 0.0 0.0 
0.0 0.0 0.0 
0.0 0.0 0.0 
0.0 0.0 0.0 
0.0 0.0 0.0 
0.0 0.0 0.0 
0.0 0.0 0.0 
0.0 0.0 0.0 
0.0 0.0 0.0 
0.0 0.0 0.0 
0.0 0.0 0.0 
0.0 0.0 0.0 
0.0 0.0 0.0 
0.0 0.0 0.0 
0.0 0.0 0.0 
0.0 0.0 0.0 
0.0 0.0 0.0 
0.0 0.0 0.0 
0.0 0.0 0.0 
0.0 0.0 0.0 
0.0 0.0 0.0 
0.0 0.0 0.0 
0.0 0.0 0.0 
0.0 0.0 0.0 
0.0 0.0 0.0 
0.0 0.0 0.0 
0.0 0.0 0.0 
0.0 0.0 0.0 
0.0 0.0 0.0 
0.0 0.0 0.0 
0.0 0.0 0.0 
0.0 0.0 0.0 
0.0 0.0 0.0 
0.0 0.0 0.0 
0.0 0.0 0.0 
0.0 0.0 0.0 
0.0 0.0 0.0 
0.0 0.0 0.0 
0.0 0.0 0.0 
0.0 0.0 0.0 
0.0 0.0 0.0 
0.0 0.0 0.0 
0.0 0.0 0.0 
0.0 0.0 0.0 
0.0 0.0 0.0 
0.0 0.0 0.0 
0.0 0.0 0.0 
0.0 0.0 0.0 
0.0 0.0 0.0 
0.0 0.0 0.0 
0.0 0.0 0.0 
0.0 0.0 0.0 
0.0 0.0 0.0 
0.0 0.0 0.0 
0.0 0.0 0.0 
0.0 0.0 0.0 
0.0 0.0 0.0 
0.0 0.0 0.0 
0.0 0.0 0.0 
0.0 0.0 0.0 
0.0 0.0 0.0 
0.0 0.0 0.0 
0.0 0.0 0.0 
0.0 0.0 0.0 
0.0 0.0 0.0 
0.0 0.0 0.0 
0.0 0.0 0.0 
0.0 0.0 0.0 
0.0 0.0 0.0 
0.0 0.0 0.0 
0.0 0.0 0.0 
0.0 0.0 0.0 
0.0 0.0 0.0 
0.0 0.0 0.0 
0.0 0.0 0.0 
0.0 0.0 0.0 
0.0 0.0 0.0 
0.0 0.0 0.0 
0.0 0.0 0.0 
0.0 0.0 0.0 
0.0 0.0 0.0 
0.0 0.0 0.0 
0.0 0.0 0.0 
0.0 0.0 0.0 
0.0 0.0 0.0 
0.0 0.0 0.0 
0.0 0.0 0.0 
0.0 0.0 0.0 
0.0 0.0 0.0 
0.0 0.0 0.0 
0.0 0.0 0.0 
0.0 0.0 0.0 
0.0 0.0 0.0 
0.0 0.0 0.0 
0.0 0.0 0.0 
0.0 0.0 0.0 
0.0 0.0 0.0 
0.0 0.0 0.0 
0.0 0.0 0.0 
0.0 0.0 0.0 
0.0 0.0 0.0 
0.0 0.0 0.0 
0.0 0.0 0.0 
0.0 0.0 0.0 
0.0 0.0 0.0 
0.0 0.0 0.0 
0.0 0.0 0.0 
0.0 0.0 0.0 
0.0 0.0 0.0 
0.0 0.0 0.0 
0.0 0.0 0.0 
0.0 0.0 0.0 
0.0 0.0 0.0 
0.0 0.0 0.0 
0.0 0.0 0.0 
0.0 0.0 0.0 
0.0 0.0 0.0 
0.0 0.0 0.0 
0.0 0.0 0.0 
0.0 0.0 0.0 
0.0 0.0 0.0 
0.0 0.0 0.0 
0.0 0.0 0.0 
0.0 0.0 0.0 
0.0 0.0 0.0 
0.0 0.0 0.0 
0.0 0.0 0.0 
0.0 0.0 0.0 
0.0 0.0 0.0 
0.0 0.0 0.0 
0.0 0.0 0.0 
0.0 0.0 0.0 
0.0 0.0 0.0 
0.0 0.0 0.0 
0.0 0.0 0.0 
0.0 0.0 0.0 
0.0 0.0 0.0 
0.0 0.0 0.0 
0.0 0.0 0.0 
0.0 0.0 0.0 
0.0 0.0 0.0 
0.0 0.0 0.0 
0.0 0.0 0.0 
0.0 0.0 0.0 
0.0 0.0 0.0 
0.0 0.0 0.0 
0.0 0.0 0.0 
0.0 0.0 0.0 
0.0 0.0 0.0 
0.0 0.0 0.0 
0.0 0.0 0.0 
0.0 0.0 0.0 
0.0 0.0 0.0 
0.0 0.0 0.0 
0.0 0.0 0.0 
0.0 0.0 0.0 
0.0 0.0 0.0 
0.0 0.0 0.0 
0.0 0.0 0.0 
0.0 0.0 0.0 
0.0 0.0 0.0 
0.0 0.0 0.0 
0.0 0.0 0.0 
0.0 0.0 0.0 
0.0 0.0 0.0 
0.0 0.0 0.0 
0.0 0.0 0.0 
0.0 0.0 0.0 
0.0 0.0 0.0 
0.0 0.0 0.0 
0.0 0.0 0.0 
0.0 0.0 0.0 
0.0 0.0 0.0 
0.0 0.0 0.0 
0.0 0.0 0.0 
0.0 0.0 0.0 
0.0 0.0 0.0 
0.0 0.0 0.0 
0.0 0.0 0.0 
0.0 0.0 0.0 
0.0 0.0 0.0 
0.0 0.0 0.0 
0.0 0.0 0.0 
0.0 0.0 0.0 
0.0 0.0 0.0 
0.0 0.0 0.0 
0.0 0.0 0.0 
0.0 0.0 0.0 
0.0 0.0 0.0 
0.0 0.0 0.0 
0.0 0.0 0.0 
0.0 0.0 0.0 
0.0 0.0 0.0 
0.0 0.0 0.0 
0.0 0.0 0.0 
0.0 0.0 0.0 
0.0 0.0 0.0 
0.0 0.0 0.0 
0.0 0.0 0.0 
0.0 0.0 0.0 
0.0 0.0 0.0 
0.0 0.0 0.0 
0.0 0.0 0.0 
0.0 0.0 0.0 
0.0 0.0 0.0 
0.0 0.0 0.0 
0.0 0.0 0.0 
0.0 0.0 0.0 
0.0 0.0 0.0 
0.0 0.0 0.0 
0.0 0.0 0.0 
0.0 0.0 0.0 
0.0 0.0 0.0 
0.0 0.0 0.0 
0.0 0.0 0.0 
0.0 0.0 0.0 
0.0 0.0 0.0 
0.0 0.0 0.0 
0.0 0.0 0.0 
0.0 0.0 0.0 
0.0 0.0 0.0 
0.0 0.0 0.0 
0.0 0.0 0.0 
0.0 0.0 0.0 
0.0 0.0 0.0 
0.0 0.0 0.0 
0.0 0.0 0.0 
0.0 0.0 0.0 
0.0 0.0 0.0 
0.0 0.0 0.0 
0.0 0.0 0.0 
0.0 0.0 0.0 
0.0 0.0 0.0 
0.0 0.0 0.0 
0.0 0.0 0.0 
0.0 0.0 0.0 
0.0 0.0 0.0 
0.0 0.0 0.0 
0.0 0.0 0.0 
0.0 0.0 0.0 
0.0 0.0 0.0 
0.0 0.0 0.0 
0.0 0.0 0.0 
0.0 0.0 0.0 
0.0 0.0 0.0 
0.0 0.0 0.0 
0.0 0.0 0.0 
0.0 0.0 0.0 
0.0 0.0 0.0 
0.0 0.0 0.0 
0.0 0.0 0.0 
0.0 0.0 0.0 
0.0 0.0 0.0 
0.0 0.0 0.0 
0.0 0.0 0.0 
0.0 0.0 0.0 
0.0 0.0 0.0 
0.0 0.0 0.0 
0.0 0.0 0.0 
0.0 0.0 0.0 
0.0 0.0 0.0 
0.0 0.0 0.0 
0.0 0.0 0.0 
0.0 0.0 0.0 
0.0 0.0 0.0 
0.0 0.0 0.0 
0.0 0.0 0.0 
0.0 0.0 0.0 
0.0 0.0 0.0 
0.0 0.0 0.0 
0.0 0.0 0.0 
0.0 0.0 0.0 
0.0 0.0 0.0 
0.0 0.0 0.0 
0.0 0.0 0.0 
0.0 0.0 0.0 
0.0 0.0 0.0 
0.0 0.0 0.0 
0.0 0.0 0.0 
0.0 0.0 0.0 
0.0 0.0 0.0 
0.0 0.0 0.0 
0.0 0.0 0.0 
0.0 0.0 0.0 
0.0 0.0 0.0 
0.0 0.0 0.0 
0.0 0.0 0.0 
0.0 0.0 0.0 
0.0 0.0 0.0 
0.0 0.0 0.0 
0.0 0.0 0.0 
0.0 0.0 0.0 
0.0 0.0 0.0 
0.0 0.0 0.0 
0.0 0.0 0.0 
0.0 0.0 0.0 
0.0 0.0 0.0 
0.0 0.0 0.0 
0.0 0.0 0.0 
0.0 0.0 0.0 
0.0 0.0 0.0 
0.0 0.0 0.0 
0.0 0.0 0.0 
0.0 0.0 0.0 
0.0 0.0 0.0 
0.0 0.0 0.0 
0.0 0.0 0.0 
0.0 0.0 0.0 
0.0 0.0 0.0 
0.0 0.0 0.0 
0.0 0.0 0.0 
0.0 0.0 0.0 
0.0 0.0 0.0 
0.0 0.0 0.0 
0.0 0.0 0.0 
0.0 0.0 0.0 
0.0 0.0 0.0 
0.0 0.0 0.0 
0.0 0.0 0.0 
0.0 0.0 0.0 
0.0 0.0 0.0 
0.0 0.0 0.0 
0.0 0.0 0.0 
0.0 0.0 0.0 
0.0 0.0 0.0 
0.0 0.0 0.0 
0.0 0.0 0.0 
0.0 0.0 0.0 
0.0 0.0 0.0 
0.0 0.0 0.0 
0.0 0.0 0.0 
0.0 0.0 0.0 
0.0 0.0 0.0 
0.0 0.0 0.0 
0.0 0.0 0.0 
0.0 0.0 0.0 
0.0 0.0 0.0 
0.0 0.0 0.0 
0.0 0.0 0.0 
0.0 0.0 0.0 
0.0 0.0 0.0 
0.0 0.0 0.0 
0.0 0.0 0.0 
0.0 0.0 0.0 
0.0 0.0 0.0 
0.0 0.0 0.0 
0.0 0.0 0.0 
0.0 0.0 0.0 
0.0 0.0 0.0 
0.0 0.0 0.0 
0.0 0.0 0.0 
0.0 0.0 0.0 
0.0 0.0 0.0 
0.0 0.0 0.0 
0.0 0.0 0.0 
0.0 0.0 0.0 
0.0 0.0 0.0 
0.0 0.0 0.0 
0.0 0.0 0.0 
0.0 0.0 0.0 
0.0 0.0 0.0 
0.0 0.0 0.0 
0.0 0.0 0.0 
0.0 0.0 0.0 
0.0 0.0 0.0 
0.0 0.0 0.0 
0.0 0.0 0.0 
0.0 0.0 0.0 
0.0 0.0 0.0 
0.0 0.0 0.0 
0.0 0.0 0.0 
0.0 0.0 0.0 
0.0 0.0 0.0 
0.0 0.0 0.0 
0.0 0.0 0.0 
0.0 0.0 0.0 
0.0 0.0 0.0 
0.0 0.0 0.0 
0.0 0.0 0.0 
0.0 0.0 0.0 
0.0 0.0 0.0 
0.0 0.0 0.0 
0.0 0.0 0.0 
0.0 0.0 0.0 
0.0 0.0 0.0 
0.0 0.0 0.0 
0.0 0.0 0.0 
0.0 0.0 0.0 
0.0 0.0 0.0 
0.0 0.0 0.0 
0.0 0.0 0.0 
0.0 0.0 0.0 
0.0 0.0 0.0 
0.0 0.0 0.0 
0.0 0.0 0.0 
0.0 0.0 0.0 
0.0 0.0 0.0 
0.0 0.0 0.0 
0.0 0.0 0.0 
0.0 0.0 0.0 
0.0 0.0 0.0 
0.0 0.0 0.0 
0.0 0.0 0.0 
0.0 0.0 0.0 
0.0 0.0 0.0 
0.0 0.0 0.0 
0.0 0.0 0.0 
0.0 0.0 0.0 
0.0 0.0 0.0 
0.0 0.0 0.0 
0.0 0.0 0.0 
0.0 0.0 0.0 
0.0 0.0 0.0 
0.0 0.0 0.0 
0.0 0.0 0.0 
0.0 0.0 0.0 
0.0 0.0 0.0 
0.0 0.0 0.0 
0.0 0.0 0.0 
0.0 0.0 0.0 
0.0 0.0 0.0 
0.0 0.0 0.0 
0.0 0.0 0.0 
0.0 0.0 0.0 
0.0 0.0 0.0 
0.0 0.0 0.0 
0.0 0.0 0.0 
0.0 0.0 0.0 
0.0 0.0 0.0 
0.0 0.0 0.0 
0.0 0.0 0.0 
0.0 0.0 0.0 
0.0 0.0 0.0 
0.0 0.0 0.0 
0.0 0.0 0.0 
0.0 0.0 0.0 
0.0 0.0 0.0 
0.0 0.0 0.0 
0.0 0.0 0.0 
0.0 0.0 0.0 
0.0 0.0 0.0 
0.0 0.0 0.0 
0.0 0.0 0.0 
0.0 0.0 0.0 
0.0 0.0 0.0 
0.0 0.0 0.0 
0.0 0.0 0.0 
0.0 0.0 0.0 
0.0 0.0 0.0 
0.0 0.0 0.0 
0.0 0.0 0.0 
0.0 0.0 0.0 
0.0 0.0 0.0 
0.0 0.0 0.0 
0.0 0.0 0.0 
0.0 0.0 0.0 
0.0 0.0 0.0 
0.0 0.0 0.0 
0.0 0.0 0.0 
0.0 0.0 0.0 
0.0 0.0 0.0 
0.0 0.0 0.0 
0.0 0.0 0.0 
0.0 0.0 0.0 
0.0 0.0 0.0 
0.0 0.0 0.0 
0.0 0.0 0.0 
0.0 0.0 0.0 
0.0 0.0 0.0 
0.0 0.0 0.0 
0.0 0.0 0.0 
0.0 0.0 0.0 
0.0 0.0 0.0 
0.0 0.0 0.0 
0.0 0.0 0.0 
0.0 0.0 0.0 
0.0 0.0 0.0 
0.0 0.0 0.0 
0.0 0.0 0.0 
0.0 0.0 0.0 
0.0 0.0 0.0 
0.0 0.0 0.0 
0.0 0.0 0.0 
0.0 0.0 0.0 
0.0 0.0 0.0 
0.0 0.0 0.0 
0.0 0.0 0.0 
0.0 0.0 0.0 
0.0 0.0 0.0 
0.0 0.0 0.0 
0.0 0.0 0.0 
0.0 0.0 0.0 
0.0 0.0 0.0 
0.0 0.0 0.0 
0.0 0.0 0.0 
0.0 0.0 0.0 
0.0 0.0 0.0 
0.0 0.0 0.0 
0.0 0.0 0.0 
0.0 0.0 0.0 
0.0 0.0 0.0 
0.0 0.0 0.0 
0.0 0.0 0.0 
0.0 0.0 0.0 
0.0 0.0 0.0 
0.0 0.0 0.0 
0.0 0.0 0.0 
0.0 0.0 0.0 
0.0 0.0 0.0 
0.0 0.0 0.0 
0.0 0.0 0.0 
0.0 0.0 0.0 
0.0 0.0 0.0 
0.0 0.0 0.0 
0.0 0.0 0.0 
0.0 0.0 0.0 
0.0 0.0 0.0 
0.0 0.0 0.0 
0.0 0.0 0.0 
0.0 0.0 0.0 
0.0 0.0 0.0 
0.0 0.0 0.0 
0.0 0.0 0.0 
0.0 0.0 0.0 
0.0 0.0 0.0 
0.0 0.0 0.0 
0.0 0.0 0.0 
0.0 0.0 0.0 
0.0 0.0 0.0 
0.0 0.0 0.0 
0.0 0.0 0.0 
0.0 0.0 0.0 
0.0 0.0 0.0 
0.0 0.0 0.0 
0.0 0.0 0.0 
0.0 0.0 0.0 
0.0 0.0 0.0 
0.0 0.0 0.0 
0.0 0.0 0.0 
0.0 0.0 0.0 
0.0 0.0 0.0 
0.0 0.0 0.0 
0.0 0.0 0.0 
0.0 0.0 0.0 
0.0 0.0 0.0 
0.0 0.0 0.0 
0.0 0.0 0.0 
0.0 0.0 0.0 
0.0 0.0 0.0 
0.0 0.0 0.0 
0.0 0.0 0.0 
0.0 0.0 0.0 
0.0 0.0 0.0 
0.0 0.0 0.0 
0.0 0.0 0.0 
0.0 0.0 0.0 
0.0 0.0 0.0 
0.0 0.0 0.0 
0.0 0.0 0.0 
0.0 0.0 0.0 
0.0 0.0 0.0 
0.0 0.0 0.0 
0.0 0.0 0.0 
0.0 0.0 0.0 
0.0 0.0 0.0 
0.0 0.0 0.0 
0.0 0.0 0.0 
0.0 0.0 0.0 
0.0 0.0 0.0 
0.0 0.0 0.0 
0.0 0.0 0.0 
0.0 0.0 0.0 
0.0 0.0 0.0 
0.0 0.0 0.0 
0.0 0.0 0.0 
0.0 0.0 0.0 
0.0 0.0 0.0 
0.0 0.0 0.0 
0.0 0.0 0.0 
0.0 0.0 0.0 
0.0 0.0 0.0 
0.0 0.0 0.0 
0.0 0.0 0.0 
0.0 0.0 0.0 
0.0 0.0 0.0 
0.0 0.0 0.0 
0.0 0.0 0.0 
0.0 0.0 0.0 
0.0 0.0 0.0 
0.0 0.0 0.0 
0.0 0.0 0.0 
0.0 0.0 0.0 
0.0 0.0 0.0 
0.0 0.0 0.0 
0.0 0.0 0.0 
0.0 0.0 0.0 
0.0 0.0 0.0 
0.0 0.0 0.0 
0.0 0.0 0.0 
0.0 0.0 0.0 
0.0 0.0 0.0 
0.0 0.0 0.0 
0.0 0.0 0.0 
0.0 0.0 0.0 
0.0 0.0 0.0 
0.0 0.0 0.0 
0.0 0.0 0.0 
0.0 0.0 0.0 
0.0 0.0 0.0 
0.0 0.0 0.0 
0.0 0.0 0.0 
0.0 0.0 0.0 
0.0 0.0 0.0 
0.0 0.0 0.0 
0.0 0.0 0.0 
0.0 0.0 0.0 
0.0 0.0 0.0 
0.0 0.0 0.0 
0.0 0.0 0.0 
0.0 0.0 0.0 
0.0 0.0 0.0 
0.0 0.0 0.0 
0.0 0.0 0.0 
0.0 0.0 0.0 
0.0 0.0 0.0 
0.0 0.0 0.0 
0.0 0.0 0.0 
0.0 0.0 0.0 
0.0 0.0 0.0 
0.0 0.0 0.0 
0.0 0.0 0.0 
0.0 0.0 0.0 
0.0 0.0 0.0 
0.0 0.0 0.0 
0.0 0.0 0.0 
0.0 0.0 0.0 
0.0 0.0 0.0 
0.0 0.0 0.0 
0.0 0.0 0.0 
0.0 0.0 0.0 
0.0 0.0 0.0 
0.0 0.0 0.0 
0.0 0.0 0.0 
0.0 0.0 0.0 
0.0 0.0 0.0 
0.0 0.0 0.0 
0.0 0.0 0.0 
0.0 0.0 0.0 
0.0 0.0 0.0 
0.0 0.0 0.0 
0.0 0.0 0.0 
0.0 0.0 0.0 
0.0 0.0 0.0 
0.0 0.0 0.0 
0.0 0.0 0.0 
0.0 0.0 0.0 
0.0 0.0 0.0 
0.0 0.0 0.0 
0.0 0.0 0.0 
0.0 0.0 0.0 
0.0 0.0 0.0 
0.0 0.0 0.0 
0.0 0.0 0.0 
0.0 0.0 0.0 
0.0 0.0 0.0 
0.0 0.0 0.0 
0.0 0.0 0.0 
0.0 0.0 0.0 
0.0 0.0 0.0 
0.0 0.0 0.0 
0.0 0.0 0.0 
0.0 0.0 0.0 
0.0 0.0 0.0 
0.0 0.0 0.0 
0.0 0.0 0.0 
0.0 0.0 0.0 
0.0 0.0 0.0 
0.0 0.0 0.0 
0.0 0.0 0.0 
0.0 0.0 0.0 
0.0 0.0 0.0 
0.0 0.0 0.0 
0.0 0.0 0.0 
0.0 0.0 0.0 
0.0 0.0 0.0 
0.0 0.0 0.0 
0.0 0.0 0.0 
0.0 0.0 0.0 
0.0 0.0 0.0 
0.0 0.0 0.0 
0.0 0.0 0.0 
0.0 0.0 0.0 
0.0 0.0 0.0 
0.0 0.0 0.0 
0.0 0.0 0.0 
0.0 0.0 0.0 
0.0 0.0 0.0 
0.0 0.0 0.0 
0.0 0.0 0.0 
0.0 0.0 0.0 
0.0 0.0 0.0 
0.0 0.0 0.0 
0.0 0.0 0.0 
0.0 0.0 0.0 
0.0 0.0 0.0 
0.0 0.0 0.0 
0.0 0.0 0.0 
0.0 0.0 0.0 
0.0 0.0 0.0 
0.0 0.0 0.0 
0.0 0.0 0.0 
0.0 0.0 0.0 
0.0 0.0 0.0 
0.0 0.0 0.0 
0.0 0.0 0.0 
0.0 0.0 0.0 
0.0 0.0 0.0 
0.0 0.0 0.0 
0.0 0.0 0.0 
0.0 0.0 0.0 
0.0 0.0 0.0 
0.0 0.0 0.0 
0.0 0.0 0.0 
0.0 0.0 0.0 
0.0 0.0 0.0 
0.0 0.0 0.0 
0.0 0.0 0.0 
0.0 0.0 0.0 
0.0 0.0 0.0 
0.0 0.0 0.0 
0.0 0.0 0.0 
0.0 0.0 0.0 
0.0 0.0 0.0 
0.0 0.0 0.0 
0.0 0.0 0.0 
0.0 0.0 0.0 
0.0 0.0 0.0 
0.0 0.0 0.0 
0.0 0.0 0.0 
0.0 0.0 0.0 
0.0 0.0 0.0 
0.0 0.0 0.0 
0.0 0.0 0.0 
0.0 0.0 0.0 
0.0 0.0 0.0 
0.0 0.0 0.0 
0.0 0.0 0.0 
0.0 0.0 0.0 
0.0 0.0 0.0 
0.0 0.0 0.0 
0.0 0.0 0.0 
0.0 0.0 0.0 
0.0 0.0 0.0 
0.0 0.0 0.0 
0.0 0.0 0.0 
0.0 0.0 0.0 
0.0 0.0 0.0 
0.0 0.0 0.0 
0.0 0.0 0.0 
0.0 0.0 0.0 
0.0 0.0 0.0 
0.0 0.0 0.0 
0.0 0.0 0.0 
0.0 0.0 0.0 
0.0 0.0 0.0 
0.0 0.0 0.0 
0.0 0.0 0.0 
0.0 0.0 0.0 
0.0 0.0 0.0 
0.0 0.0 0.0 
0.0 0.0 0.0 
0.0 0.0 0.0 
0.0 0.0 0.0 
0.0 0.0 0.0 
0.0 0.0 0.0 
0.0 0.0 0.0 
0.0 0.0 0.0 
0.0 0.0 0.0 
0.0 0.0 0.0 
0.0 0.0 0.0 
0.0 0.0 0.0 
0.0 0.0 0.0 
0.0 0.0 0.0 
0.0 0.0 0.0 
0.0 0.0 0.0 
0.0 0.0 0.0 
0.0 0.0 0.0 
0.0 0.0 0.0 
0.0 0.0 0.0 
0.0 0.0 0.0 
0.0 0.0 0.0 
0.0 0.0 0.0 
0.0 0.0 0.0 
0.0 0.0 0.0 
0.0 0.0 0.0 
0.0 0.0 0.0 
0.0 0.0 0.0 
0.0 0.0 0.0 
0.0 0.0 0.0 
0.0 0.0 0.0 
0.0 0.0 0.0 
0.0 0.0 0.0 
0.0 0.0 0.0 
0.0 0.0 0.0 
0.0 0.0 0.0 
0.0 0.0 0.0 
0.0 0.0 0.0 
0.0 0.0 0.0 
0.0 0.0 0.0 
0.0 0.0 0.0 
0.0 0.0 0.0 
0.0 0.0 0.0 
0.0 0.0 0.0 
0.0 0.0 0.0 
0.0 0.0 0.0 
0.0 0.0 0.0 
0.0 0.0 0.0 
0.0 0.0 0.0 
0.0 0.0 0.0 
0.0 0.0 0.0 
0.0 0.0 0.0 
0.0 0.0 0.0 
0.0 0.0 0.0 
0.0 0.0 0.0 
0.0 0.0 0.0 
0.0 0.0 0.0 
0.0 0.0 0.0 
0.0 0.0 0.0 
0.0 0.0 0.0 
0.0 0.0 0.0 
0.0 0.0 0.0 
0.0 0.0 0.0 
0.0 0.0 0.0 
0.0 0.0 0.0 
0.0 0.0 0.0 
0.0 0.0 0.0 
0.0 0.0 0.0 
0.0 0.0 0.0 
0.0 0.0 0.0 
0.0 0.0 0.0 
0.0 0.0 0.0 
0.0 0.0 0.0 
0.0 0.0 0.0 
0.0 0.0 0.0 
0.0 0.0 0.0 
0.0 0.0 0.0 
0.0 0.0 0.0 
0.0 0.0 0.0 
0.0 0.0 0.0 
0.0 0.0 0.0 
0.0 0.0 0.0 
0.0 0.0 0.0 
0.0 0.0 0.0 
0.0 0.0 0.0 
0.0 0.0 0.0 
0.0 0.0 0.0 
0.0 0.0 0.0 
0.0 0.0 0.0 
0.0 0.0 0.0 
0.0 0.0 0.0 
0.0 0.0 0.0 
0.0 0.0 0.0 
0.0 0.0 0.0 
0.0 0.0 0.0 
0.0 0.0 0.0 
0.0 0.0 0.0 
0.0 0.0 0.0 
0.0 0.0 0.0 
0.0 0.0 0.0 
0.0 0.0 0.0 
0.0 0.0 0.0 
0.0 0.0 0.0 
0.0 0.0 0.0 
0.0 0.0 0.0 
0.0 0.0 0.0 
0.0 0.0 0.0 
0.0 0.0 0.0 
0.0 0.0 0.0 
0.0 0.0 0.0 
0.0 0.0 0.0 
0.0 0.0 0.0 
0.0 0.0 0.0 
0.0 0.0 0.0 
0.0 0.0 0.0 
0.0 0.0 0.0 
0.0 0.0 0.0 
0.0 0.0 0.0 
0.0 0.0 0.0 
0.0 0.0 0.0 
0.0 0.0 0.0 
0.0 0.0 0.0 
0.0 0.0 0.0 
0.0 0.0 0.0 
0.0 0.0 0.0 
0.0 0.0 0.0 
0.0 0.0 0.0 
0.0 0.0 0.0 
0.0 0.0 0.0 
0.0 0.0 0.0 
0.0 0.0 0.0 
0.0 0.0 0.0 
0.0 0.0 0.0 
0.0 0.0 0.0 
0.0 0.0 0.0 
0.0 0.0 0.0 
0.0 0.0 0.0 
0.0 0.0 0.0 
0.0 0.0 0.0 
0.0 0.0 0.0 
0.0 0.0 0.0 
0.0 0.0 0.0 
0.0 0.0 0.0 
0.0 0.0 0.0 
0.0 0.0 0.0 
0.0 0.0 0.0 
0.0 0.0 0.0 
0.0 0.0 0.0 
0.0 0.0 0.0 
0.0 0.0 0.0 
0.0 0.0 0.0 
0.0 0.0 0.0 
0.0 0.0 0.0 
0.0 0.0 0.0 
0.0 0.0 0.0 
0.0 0.0 0.0 
0.0 0.0 0.0 
0.0 0.0 0.0 
0.0 0.0 0.0 
0.0 0.0 0.0 
0.0 0.0 0.0 
0.0 0.0 0.0 
0.0 0.0 0.0 
0.0 0.0 0.0 
0.0 0.0 0.0 
0.0 0.0 0.0 
0.0 0.0 0.0 
0.0 0.0 0.0 
0.0 0.0 0.0 
0.0 0.0 0.0 
0.0 0.0 0.0 
0.0 0.0 0.0 
0.0 0.0 0.0 
0.0 0.0 0.0 
0.0 0.0 0.0 
0.0 0.0 0.0 
0.0 0.0 0.0 
0.0 0.0 0.0 
0.0 0.0 0.0 
0.0 0.0 0.0 
0.0 0.0 0.0 
0.0 0.0 0.0 
0.0 0.0 0.0 
0.0 0.0 0.0 
0.0 0.0 0.0 
0.0 0.0 0.0 
0.0 0.0 0.0 
0.0 0.0 0.0 
0.0 0.0 0.0 
0.0 0.0 0.0 
0.0 0.0 0.0 
0.0 0.0 0.0 
0.0 0.0 0.0 
0.0 0.0 0.0 
0.0 0.0 0.0 
0.0 0.0 0.0 
0.0 0.0 0.0 
0.0 0.0 0.0 
0.0 0.0 0.0 
0.0 0.0 0.0 
0.0 0.0 0.0 
0.0 0.0 0.0 
0.0 0.0 0.0 
0.0 0.0 0.0 
0.0 0.0 0.0 
0.0 0.0 0.0 
0.0 0.0 0.0 
0.0 0.0 0.0 
0.0 0.0 0.0 
0.0 0.0 0.0 
0.0 0.0 0.0 
0.0 0.0 0.0 
0.0 0.0 0.0 
0.0 0.0 0.0 
0.0 0.0 0.0 
0.0 0.0 0.0 
0.0 0.0 0.0 
0.0 0.0 0.0 
0.0 0.0 0.0 
0.0 0.0 0.0 
0.0 0.0 0.0 
0.0 0.0 0.0 
0.0 0.0 0.0 
0.0 0.0 0.0 
0.0 0.0 0.0 
0.0 0.0 0.0 
0.0 0.0 0.0 
0.0 0.0 0.0 
0.0 0.0 0.0 
0.0 0.0 0.0 
0.0 0.0 0.0 
0.0 0.0 0.0 
0.0 0.0 0.0 
0.0 0.0 0.0 
0.0 0.0 0.0 
0.0 0.0 0.0 
0.0 0.0 0.0 
0.0 0.0 0.0 
0.0 0.0 0.0 
0.0 0.0 0.0 
0.0 0.0 0.0 
0.0 0.0 0.0 
0.0 0.0 0.0 
0.0 0.0 0.0 
0.0 0.0 0.0 
0.0 0.0 0.0 
0.0 0.0 0.0 
0.0 0.0 0.0 
0.0 0.0 0.0 
0.0 0.0 0.0 
0.0 0.0 0.0 
0.0 0.0 0.0 
0.0 0.0 0.0 
0.0 0.0 0.0 
0.0 0.0 0.0 
0.0 0.0 0.0 
0.0 0.0 0.0 
0.0 0.0 0.0 
0.0 0.0 0.0 
0.0 0.0 0.0 
0.0 0.0 0.0 
0.0 0.0 0.0 
0.0 0.0 0.0 
0.0 0.0 0.0 
0.0 0.0 0.0 
0.0 0.0 0.0 
0.0 0.0 0.0 
0.0 0.0 0.0 
0.0 0.0 0.0 
0.0 0.0 0.0 
0.0 0.0 0.0 
0.0 0.0 0.0 
0.0 0.0 0.0 
0.0 0.0 0.0 
0.0 0.0 0.0 
0.0 0.0 0.0 
0.0 0.0 0.0 
0.0 0.0 0.0 
0.0 0.0 0.0 
0.0 0.0 0.0 
0.0 0.0 0.0 
0.0 0.0 0.0 
0.0 0.0 0.0 
0.0 0.0 0.0 
0.0 0.0 0.0 
0.0 0.0 0.0 
0.0 0.0 0.0 
0.0 0.0 0.0 
0.0 0.0 0.0 
0.0 0.0 0.0 
0.0 0.0 0.0 
0.0 0.0 0.0 
0.0 0.0 0.0 
0.0 0.0 0.0 
0.0 0.0 0.0 
0.0 0.0 0.0 
0.0 0.0 0.0 
0.0 0.0 0.0 
0.0 0.0 0.0 
0.0 0.0 0.0 
0.0 0.0 0.0 
0.0 0.0 0.0 
0.0 0.0 0.0 
0.0 0.0 0.0 
0.0 0.0 0.0 
0.0 0.0 0.0 
0.0 0.0 0.0 
0.0 0.0 0.0 
0.0 0.0 0.0 
0.0 0.0 0.0 
0.0 0.0 0.0 
0.0 0.0 0.0 
0.0 0.0 0.0 
0.0 0.0 0.0 
0.0 0.0 0.0 
0.0 0.0 0.0 
0.0 0.0 0.0 
0.0 0.0 0.0 
0.0 0.0 0.0 
0.0 0.0 0.0 
0.0 0.0 0.0 
0.0 0.0 0.0 
0.0 0.0 0.0 
0.0 0.0 0.0 
0.0 0.0 0.0 
0.0 0.0 0.0 
0.0 0.0 0.0 
0.0 0.0 0.0 
0.0 0.0 0.0 
0.0 0.0 0.0 
0.0 0.0 0.0 
0.0 0.0 0.0 
0.0 0.0 0.0 
0.0 0.0 0.0 
0.0 0.0 0.0 
0.0 0.0 0.0 
0.0 0.0 0.0 
0.0 0.0 0.0 
0.0 0.0 0.0 
0.0 0.0 0.0 
0.0 0.0 0.0 
0.0 0.0 0.0 
0.0 0.0 0.0 
0.0 0.0 0.0 
0.0 0.0 0.0 
0.0 0.0 0.0 
0.0 0.0 0.0 
0.0 0.0 0.0 
0.0 0.0 0.0 
0.0 0.0 0.0 
0.0 0.0 0.0 
0.0 0.0 0.0 
0.0 0.0 0.0 
0.0 0.0 0.0 
0.0 0.0 0.0 
0.0 0.0 0.0 
0.0 0.0 0.0 
0.0 0.0 0.0 
0.0 0.0 0.0 
0.0 0.0 0.0 
0.0 0.0 0.0 
0.0 0.0 0.0 
0.0 0.0 0.0 
0.0 0.0 0.0 
0.0 0.0 0.0 
0.0 0.0 0.0 
0.0 0.0 0.0 
0.0 0.0 0.0 
0.0 0.0 0.0 
0.0 0.0 0.0 
0.0 0.0 0.0 
0.0 0.0 0.0 
0.0 0.0 0.0 
0.0 0.0 0.0 
0.0 0.0 0.0 
0.0 0.0 0.0 
0.0 0.0 0.0 
0.0 0.0 0.0 
0.0 0.0 0.0 
0.0 0.0 0.0 
0.0 0.0 0.0 
0.0 0.0 0.0 
0.0 0.0 0.0 
0.0 0.0 0.0 
0.0 0.0 0.0 
0.0 0.0 0.0 
0.0 0.0 0.0 
0.0 0.0 0.0 
0.0 0.0 0.0 
0.0 0.0 0.0 
0.0 0.0 0.0 
0.0 0.0 0.0 
0.0 0.0 0.0 
0.0 0.0 0.0 
0.0 0.0 0.0 
0.0 0.0 0.0 
0.0 0.0 0.0 
0.0 0.0 0.0 
0.0 0.0 0.0 
0.0 0.0 0.0 
0.0 0.0 0.0 
0.0 0.0 0.0 
0.0 0.0 0.0 
0.0 0.0 0.0 
0.0 0.0 0.0 
0.0 0.0 0.0 
0.0 0.0 0.0 
0.0 0.0 0.0 
0.0 0.0 0.0 
0.0 0.0 0.0 
0.0 0.0 0.0 
0.0 0.0 0.0 
0.0 0.0 0.0 
0.0 0.0 0.0 
0.0 0.0 0.0 
0.0 0.0 0.0 
0.0 0.0 0.0 
0.0 0.0 0.0 
0.0 0.0 0.0 
0.0 0.0 0.0 
0.0 0.0 0.0 
0.0 0.0 0.0 
0.0 0.0 0.0 
0.0 0.0 0.0 
0.0 0.0 0.0 
0.0 0.0 0.0 
0.0 0.0 0.0 
0.0 0.0 0.0 
0.0 0.0 0.0 
0.0 0.0 0.0 
0.0 0.0 0.0 
0.0 0.0 0.0 
0.0 0.0 0.0 
0.0 0.0 0.0 
0.0 0.0 0.0 
0.0 0.0 0.0 
0.0 0.0 0.0 
0.0 0.0 0.0 
0.0 0.0 0.0 
0.0 0.0 0.0 
0.0 0.0 0.0 
0.0 0.0 0.0 
0.0 0.0 0.0 
0.0 0.0 0.0 
0.0 0.0 0.0 
0.0 0.0 0.0 
0.0 0.0 0.0 
0.0 0.0 0.0 
0.0 0.0 0.0 
0.0 0.0 0.0 
0.0 0.0 0.0 
0.0 0.0 0.0 
0.0 0.0 0.0 
0.0 0.0 0.0 
0.0 0.0 0.0 
0.0 0.0 0.0 
0.0 0.0 0.0 
0.0 0.0 0.0 
0.0 0.0 0.0 
0.0 0.0 0.0 
0.0 0.0 0.0 
0.0 0.0 0.0 
0.0 0.0 0.0 
0.0 0.0 0.0 
0.0 0.0 0.0 
0.0 0.0 0.0 
0.0 0.0 0.0 
0.0 0.0 0.0 
0.0 0.0 0.0 
0.0 0.0 0.0 
0.0 0.0 0.0 
0.0 0.0 0.0 
0.0 0.0 0.0 
0.0 0.0 0.0 
0.0 0.0 0.0 
0.0 0.0 0.0 
0.0 0.0 0.0 
0.0 0.0 0.0 
0.0 0.0 0.0 
0.0 0.0 0.0 
0.0 0.0 0.0 
0.0 0.0 0.0 
0.0 0.0 0.0 
0.0 0.0 0.0 
0.0 0.0 0.0 
0.0 0.0 0.0 
0.0 0.0 0.0 
0.0 0.0 0.0 
0.0 0.0 0.0 
0.0 0.0 0.0 
0.0 0.0 0.0 
0.0 0.0 0.0 
0.0 0.0 0.0 
0.0 0.0 0.0 
0.0 0.0 0.0 
0.0 0.0 0.0 
0.0 0.0 0.0 
0.0 0.0 0.0 
0.0 0.0 0.0 
0.0 0.0 0.0 
0.0 0.0 0.0 
0.0 0.0 0.0 
0.0 0.0 0.0 
0.0 0.0 0.0 
0.0 0.0 0.0 
0.0 0.0 0.0 
0.0 0.0 0.0 
0.0 0.0 0.0 
0.0 0.0 0.0 
0.0 0.0 0.0 
0.0 0.0 0.0 
0.0 0.0 0.0 
0.0 0.0 0.0 
0.0 0.0 0.0 
0.0 0.0 0.0 
0.0 0.0 0.0 
0.0 0.0 0.0 
0.0 0.0 0.0 
0.0 0.0 0.0 
0.0 0.0 0.0 
0.0 0.0 0.0 
0.0 0.0 0.0 
0.0 0.0 0.0 
0.0 0.0 0.0 
0.0 0.0 0.0 
0.0 0.0 0.0 
0.0 0.0 0.0 
0.0 0.0 0.0 
0.0 0.0 0.0 
0.0 0.0 0.0 
0.0 0.0 0.0 
0.0 0.0 0.0 
0.0 0.0 0.0 
0.0 0.0 0.0 
0.0 0.0 0.0 
0.0 0.0 0.0 
0.0 0.0 0.0 
0.0 0.0 0.0 
0.0 0.0 0.0 
0.0 0.0 0.0 
0.0 0.0 0.0 
0.0 0.0 0.0 
0.0 0.0 0.0 
0.0 0.0 0.0 
0.0 0.0 0.0 
0.0 0.0 0.0 
0.0 0.0 0.0 
0.0 0.0 0.0 
0.0 0.0 0.0 
0.0 0.0 0.0 
0.0 0.0 0.0 
0.0 0.0 0.0 
0.0 0.0 0.0 
0.0 0.0 0.0 
0.0 0.0 0.0 
0.0 0.0 0.0 
0.0 0.0 0.0 
0.0 0.0 0.0 
0.0 0.0 0.0 
0.0 0.0 0.0 
0.0 0.0 0.0 
0.0 0.0 0.0 
0.0 0.0 0.0 
0.0 0.0 0.0 
0.0 0.0 0.0 
0.0 0.0 0.0 
0.0 0.0 0.0 
0.0 0.0 0.0 
0.0 0.0 0.0 
0.0 0.0 0.0 
0.0 0.0 0.0 
0.0 0.0 0.0 
0.0 0.0 0.0 
0.0 0.0 0.0 
0.0 0.0 0.0 
0.0 0.0 0.0 
0.0 0.0 0.0 
0.0 0.0 0.0 
0.0 0.0 0.0 
0.0 0.0 0.0 
0.0 0.0 0.0 
0.0 0.0 0.0 
0.0 0.0 0.0 
0.0 0.0 0.0 
0.0 0.0 0.0 
0.0 0.0 0.0 
0.0 0.0 0.0 
0.0 0.0 0.0 
0.0 0.0 0.0 
0.0 0.0 0.0 
0.0 0.0 0.0 
0.0 0.0 0.0 
0.0 0.0 0.0 
0.0 0.0 0.0 
0.0 0.0 0.0 
0.0 0.0 0.0 
0.0 0.0 0.0 
0.0 0.0 0.0 
0.0 0.0 0.0 
0.0 0.0 0.0 
0.0 0.0 0.0 
0.0 0.0 0.0 
0.0 0.0 0.0 
0.0 0.0 0.0 
0.0 0.0 0.0 
0.0 0.0 0.0 
0.0 0.0 0.0 
0.0 0.0 0.0 
0.0 0.0 0.0 
0.0 0.0 0.0 
0.0 0.0 0.0 
0.0 0.0 0.0 
0.0 0.0 0.0 
0.0 0.0 0.0 
0.0 0.0 0.0 
0.0 0.0 0.0 
0.0 0.0 0.0 
0.0 0.0 0.0 
0.0 0.0 0.0 
0.0 0.0 0.0 
0.0 0.0 0.0 
0.0 0.0 0.0 
0.0 0.0 0.0 
0.0 0.0 0.0 
0.0 0.0 0.0 
0.0 0.0 0.0 
0.0 0.0 0.0 
0.0 0.0 0.0 
0.0 0.0 0.0 
0.0 0.0 0.0 
0.0 0.0 0.0 
0.0 0.0 0.0 
0.0 0.0 0.0 
0.0 0.0 0.0 
0.0 0.0 0.0 
0.0 0.0 0.0 
0.0 0.0 0.0 
0.0 0.0 0.0 
0.0 0.0 0.0 
0.0 0.0 0.0 
0.0 0.0 0.0 
0.0 0.0 0.0 
0.0 0.0 0.0 
0.0 0.0 0.0 
0.0 0.0 0.0 
0.0 0.0 0.0 
0.0 0.0 0.0 
0.0 0.0 0.0 
0.0 0.0 0.0 
0.0 0.0 0.0 
0.0 0.0 0.0 
0.0 0.0 0.0 
0.0 0.0 0.0 
0.0 0.0 0.0 
0.0 0.0 0.0 
0.0 0.0 0.0 
0.0 0.0 0.0 
0.0 0.0 0.0 
0.0 0.0 0.0 
0.0 0.0 0.0 
0.0 0.0 0.0 
0.0 0.0 0.0 
0.0 0.0 0.0 
0.0 0.0 0.0 
0.0 0.0 0.0 
0.0 0.0 0.0 
0.0 0.0 0.0 
0.0 0.0 0.0 
0.0 0.0 0.0 
0.0 0.0 0.0 
0.0 0.0 0.0 
0.0 0.0 0.0 
0.0 0.0 0.0 
0.0 0.0 0.0 
0.0 0.0 0.0 
0.0 0.0 0.0 
0.0 0.0 0.0 
0.0 0.0 0.0 
0.0 0.0 0.0 
0.0 0.0 0.0 
0.0 0.0 0.0 
0.0 0.0 0.0 
0.0 0.0 0.0 
0.0 0.0 0.0 
0.0 0.0 0.0 
0.0 0.0 0.0 
0.0 0.0 0.0 
0.0 0.0 0.0 
0.0 0.0 0.0 
0.0 0.0 0.0 
0.0 0.0 0.0 
0.0 0.0 0.0 
0.0 0.0 0.0 
0.0 0.0 0.0 
0.0 0.0 0.0 
0.0 0.0 0.0 
0.0 0.0 0.0 
0.0 0.0 0.0 
0.0 0.0 0.0 
0.0 0.0 0.0 
0.0 0.0 0.0 
0.0 0.0 0.0 
0.0 0.0 0.0 
0.0 0.0 0.0 
0.0 0.0 0.0 
0.0 0.0 0.0 
0.0 0.0 0.0 
0.0 0.0 0.0 
0.0 0.0 0.0 
0.0 0.0 0.0 
0.0 0.0 0.0 
0.0 0.0 0.0 
0.0 0.0 0.0 
0.0 0.0 0.0 
0.0 0.0 0.0 
0.0 0.0 0.0 
0.0 0.0 0.0 
0.0 0.0 0.0 
0.0 0.0 0.0 
0.0 0.0 0.0 
0.0 0.0 0.0 
0.0 0.0 0.0 
0.0 0.0 0.0 
0.0 0.0 0.0 
0.0 0.0 0.0 
0.0 0.0 0.0 
0.0 0.0 0.0 
0.0 0.0 0.0 
0.0 0.0 0.0 
0.0 0.0 0.0 
0.0 0.0 0.0 
0.0 0.0 0.0 
0.0 0.0 0.0 
0.0 0.0 0.0 
0.0 0.0 0.0 
0.0 0.0 0.0 
0.0 0.0 0.0 
0.0 0.0 0.0 
0.0 0.0 0.0 
0.0 0.0 0.0 
0.0 0.0 0.0 
0.0 0.0 0.0 
0.0 0.0 0.0 
0.0 0.0 0.0 
0.0 0.0 0.0 
0.0 0.0 0.0 
0.0 0.0 0.0 
0.0 0.0 0.0 
0.0 0.0 0.0 
0.0 0.0 0.0 
0.0 0.0 0.0 
0.0 0.0 0.0 
0.0 0.0 0.0 
0.0 0.0 0.0 
0.0 0.0 0.0 
0.0 0.0 0.0 
0.0 0.0 0.0 
0.0 0.0 0.0 
0.0 0.0 0.0 
0.0 0.0 0.0 
0.0 0.0 0.0 
0.0 0.0 0.0 
0.0 0.0 0.0 
0.0 0.0 0.0 
0.0 0.0 0.0 
0.0 0.0 0.0 
0.0 0.0 0.0 
0.0 0.0 0.0 
0.0 0.0 0.0 
0.0 0.0 0.0 
0.0 0.0 0.0 
0.0 0.0 0.0 
0.0 0.0 0.0 
0.0 0.0 0.0 
0.0 0.0 0.0 
0.0 0.0 0.0 
0.0 0.0 0.0 
0.0 0.0 0.0 
0.0 0.0 0.0 
0.0 0.0 0.0 
0.0 0.0 0.0 
0.0 0.0 0.0 
0.0 0.0 0.0 
0.0 0.0 0.0 
0.0 0.0 0.0 
0.0 0.0 0.0 
0.0 0.0 0.0 
0.0 0.0 0.0 
0.0 0.0 0.0 
0.0 0.0 0.0 
0.0 0.0 0.0 
0.0 0.0 0.0 
0.0 0.0 0.0 
0.0 0.0 0.0 
0.0 0.0 0.0 
0.0 0.0 0.0 
0.0 0.0 0.0 
0.0 0.0 0.0 
0.0 0.0 0.0 
0.0 0.0 0.0 
0.0 0.0 0.0 
0.0 0.0 0.0 
0.0 0.0 0.0 
0.0 0.0 0.0 
0.0 0.0 0.0 
0.0 0.0 0.0 
0.0 0.0 0.0 
0.0 0.0 0.0 
0.0 0.0 0.0 
0.0 0.0 0.0 
0.0 0.0 0.0 
0.0 0.0 0.0 
0.0 0.0 0.0 
0.0 0.0 0.0 
0.0 0.0 0.0 
0.0 0.0 0.0 
0.0 0.0 0.0 
0.0 0.0 0.0 
0.0 0.0 0.0 
0.0 0.0 0.0 
0.0 0.0 0.0 
0.0 0.0 0.0 
0.0 0.0 0.0 
0.0 0.0 0.0 
0.0 0.0 0.0 
0.0 0.0 0.0 
0.0 0.0 0.0 
0.0 0.0 0.0 
0.0 0.0 0.0 
0.0 0.0 0.0 
0.0 0.0 0.0 
0.0 0.0 0.0 
0.0 0.0 0.0 
0.0 0.0 0.0 
0.0 0.0 0.0 
0.0 0.0 0.0 
0.0 0.0 0.0 
0.0 0.0 0.0 
0.0 0.0 0.0 
0.0 0.0 0.0 
0.0 0.0 0.0 
0.0 0.0 0.0 
0.0 0.0 0.0 
0.0 0.0 0.0 
0.0 0.0 0.0 
0.0 0.0 0.0 
0.0 0.0 0.0 
0.0 0.0 0.0 
0.0 0.0 0.0 
0.0 0.0 0.0 
0.0 0.0 0.0 
0.0 0.0 0.0 
0.0 0.0 0.0 
0.0 0.0 0.0 
0.0 0.0 0.0 
0.0 0.0 0.0 
0.0 0.0 0.0 
0.0 0.0 0.0 
0.0 0.0 0.0 
0.0 0.0 0.0 
0.0 0.0 0.0 
0.0 0.0 0.0 
0.0 0.0 0.0 
0.0 0.0 0.0 
0.0 0.0 0.0 
0.0 0.0 0.0 
0.0 0.0 0.0 
0.0 0.0 0.0 
0.0 0.0 0.0 
0.0 0.0 0.0 
0.0 0.0 0.0 
0.0 0.0 0.0 
0.0 0.0 0.0 
0.0 0.0 0.0 
0.0 0.0 0.0 
0.0 0.0 0.0 
0.0 0.0 0.0 
0.0 0.0 0.0 
0.0 0.0 0.0 
0.0 0.0 0.0 
0.0 0.0 0.0 
0.0 0.0 0.0 
0.0 0.0 0.0 
0.0 0.0 0.0 
0.0 0.0 0.0 
0.0 0.0 0.0 
0.0 0.0 0.0 
0.0 0.0 0.0 
0.0 0.0 0.0 
0.0 0.0 0.0 
0.0 0.0 0.0 
0.0 0.0 0.0 
0.0 0.0 0.0 
0.0 0.0 0.0 
0.0 0.0 0.0 
0.0 0.0 0.0 
0.0 0.0 0.0 
0.0 0.0 0.0 
0.0 0.0 0.0 
0.0 0.0 0.0 
0.0 0.0 0.0 
0.0 0.0 0.0 
0.0 0.0 0.0 
0.0 0.0 0.0 
0.0 0.0 0.0 
0.0 0.0 0.0 
0.0 0.0 0.0 
0.0 0.0 0.0 
0.0 0.0 0.0 
0.0 0.0 0.0 
0.0 0.0 0.0 
0.0 0.0 0.0 
0.0 0.0 0.0 
0.0 0.0 0.0 
0.0 0.0 0.0 
0.0 0.0 0.0 
0.0 0.0 0.0 
0.0 0.0 0.0 
0.0 0.0 0.0 
0.0 0.0 0.0 
0.0 0.0 0.0 
0.0 0.0 0.0 
0.0 0.0 0.0 
0.0 0.0 0.0 
0.0 0.0 0.0 
0.0 0.0 0.0 
0.0 0.0 0.0 
0.0 0.0 0.0 
0.0 0.0 0.0 
0.0 0.0 0.0 
0.0 0.0 0.0 
0.0 0.0 0.0 
0.0 0.0 0.0 
0.0 0.0 0.0 
0.0 0.0 0.0 
0.0 0.0 0.0 
0.0 0.0 0.0 
0.0 0.0 0.0 
0.0 0.0 0.0 
0.0 0.0 0.0 
0.0 0.0 0.0 
0.0 0.0 0.0 
0.0 0.0 0.0 
0.0 0.0 0.0 
0.0 0.0 0.0 
0.0 0.0 0.0 
0.0 0.0 0.0 
0.0 0.0 0.0 
0.0 0.0 0.0 
0.0 0.0 0.0 
0.0 0.0 0.0 
0.0 0.0 0.0 
0.0 0.0 0.0 
0.0 0.0 0.0 
0.0 0.0 0.0 
0.0 0.0 0.0 
0.0 0.0 0.0 
0.0 0.0 0.0 
0.0 0.0 0.0 
0.0 0.0 0.0 
0.0 0.0 0.0 
0.0 0.0 0.0 
0.0 0.0 0.0 
0.0 0.0 0.0 
0.0 0.0 0.0 
0.0 0.0 0.0 
0.0 0.0 0.0 
0.0 0.0 0.0 
0.0 0.0 0.0 
0.0 0.0 0.0 
0.0 0.0 0.0 
0.0 0.0 0.0 
0.0 0.0 0.0 
0.0 0.0 0.0 
0.0 0.0 0.0 
0.0 0.0 0.0 
0.0 0.0 0.0 
0.0 0.0 0.0 
0.0 0.0 0.0 
0.0 0.0 0.0 
0.0 0.0 0.0 
0.0 0.0 0.0 
0.0 0.0 0.0 
0.0 0.0 0.0 
0.0 0.0 0.0 
0.0 0.0 0.0 
0.0 0.0 0.0 
0.0 0.0 0.0 
0.0 0.0 0.0 
0.0 0.0 0.0 
0.0 0.0 0.0 
0.0 0.0 0.0 
0.0 0.0 0.0 
0.0 0.0 0.0 
0.0 0.0 0.0 
0.0 0.0 0.0 
0.0 0.0 0.0 
0.0 0.0 0.0 
0.0 0.0 0.0 
0.0 0.0 0.0 
0.0 0.0 0.0 
0.0 0.0 0.0 
0.0 0.0 0.0 
0.0 0.0 0.0 
0.0 0.0 0.0 
0.0 0.0 0.0 
0.0 0.0 0.0 
0.0 0.0 0.0 
0.0 0.0 0.0 
0.0 0.0 0.0 
0.0 0.0 0.0 
0.0 0.0 0.0 
0.0 0.0 0.0 
0.0 0.0 0.0 
0.0 0.0 0.0 
0.0 0.0 0.0 
0.0 0.0 0.0 
0.0 0.0 0.0 
0.0 0.0 0.0 
0.0 0.0 0.0 
0.0 0.0 0.0 
0.0 0.0 0.0 
0.0 0.0 0.0 
0.0 0.0 0.0 
0.0 0.0 0.0 
0.0 0.0 0.0 
0.0 0.0 0.0 
0.0 0.0 0.0 
0.0 0.0 0.0 
0.0 0.0 0.0 
0.0 0.0 0.0 
0.0 0.0 0.0 
0.0 0.0 0.0 
0.0 0.0 0.0 
0.0 0.0 0.0 
0.0 0.0 0.0 
0.0 0.0 0.0 
0.0 0.0 0.0 
0.0 0.0 0.0 
0.0 0.0 0.0 
0.0 0.0 0.0 
0.0 0.0 0.0 
0.0 0.0 0.0 
0.0 0.0 0.0 
0.0 0.0 0.0 
0.0 0.0 0.0 
0.0 0.0 0.0 
0.0 0.0 0.0 
0.0 0.0 0.0 
0.0 0.0 0.0 
0.0 0.0 0.0 
0.0 0.0 0.0 
0.0 0.0 0.0 
0.0 0.0 0.0 
0.0 0.0 0.0 
0.0 0.0 0.0 
0.0 0.0 0.0 
0.0 0.0 0.0 
0.0 0.0 0.0 
0.0 0.0 0.0 
0.0 0.0 0.0 
0.0 0.0 0.0 
0.0 0.0 0.0 
0.0 0.0 0.0 
0.0 0.0 0.0 
0.0 0.0 0.0 
0.0 0.0 0.0 
0.0 0.0 0.0 
0.0 0.0 0.0 
0.0 0.0 0.0 
0.0 0.0 0.0 
0.0 0.0 0.0 
0.0 0.0 0.0 
0.0 0.0 0.0 
0.0 0.0 0.0 
0.0 0.0 0.0 
0.0 0.0 0.0 
0.0 0.0 0.0 
0.0 0.0 0.0 
0.0 0.0 0.0 
0.0 0.0 0.0 
0.0 0.0 0.0 
0.0 0.0 0.0 
0.0 0.0 0.0 
0.0 0.0 0.0 
0.0 0.0 0.0 
0.0 0.0 0.0 
0.0 0.0 0.0 
0.0 0.0 0.0 
0.0 0.0 0.0 
0.0 0.0 0.0 
0.0 0.0 0.0 
0.0 0.0 0.0 
0.0 0.0 0.0 
0.0 0.0 0.0 
0.0 0.0 0.0 
0.0 0.0 0.0 
0.0 0.0 0.0 
0.0 0.0 0.0 
0.0 0.0 0.0 
0.0 0.0 0.0 
0.0 0.0 0.0 
0.0 0.0 0.0 
0.0 0.0 0.0 
0.0 0.0 0.0 
0.0 0.0 0.0 
0.0 0.0 0.0 
0.0 0.0 0.0 
0.0 0.0 0.0 
0.0 0.0 0.0 
0.0 0.0 0.0 
0.0 0.0 0.0 
0.0 0.0 0.0 
0.0 0.0 0.0 
0.0 0.0 0.0 
0.0 0.0 0.0 
0.0 0.0 0.0 
0.0 0.0 0.0 
0.0 0.0 0.0 
0.0 0.0 0.0 
0.0 0.0 0.0 
0.0 0.0 0.0 
0.0 0.0 0.0 
0.0 0.0 0.0 
0.0 0.0 0.0 
0.0 0.0 0.0 
0.0 0.0 0.0 
0.0 0.0 0.0 
0.0 0.0 0.0 
0.0 0.0 0.0 
0.0 0.0 0.0 
0.0 0.0 0.0 
0.0 0.0 0.0 
0.0 0.0 0.0 
0.0 0.0 0.0 
0.0 0.0 0.0 
0.0 0.0 0.0 
0.0 0.0 0.0 
0.0 0.0 0.0 
0.0 0.0 0.0 
0.0 0.0 0.0 
0.0 0.0 0.0 
0.0 0.0 0.0 
0.0 0.0 0.0 
0.0 0.0 0.0 
0.0 0.0 0.0 
0.0 0.0 0.0 
0.0 0.0 0.0 
0.0 0.0 0.0 
0.0 0.0 0.0 
0.0 0.0 0.0 
0.0 0.0 0.0 
0.0 0.0 0.0 
0.0 0.0 0.0 
0.0 0.0 0.0 
0.0 0.0 0.0 
0.0 0.0 0.0 
0.0 0.0 0.0 
0.0 0.0 0.0 
0.0 0.0 0.0 
0.0 0.0 0.0 
0.0 0.0 0.0 
0.0 0.0 0.0 
0.0 0.0 0.0 
0.0 0.0 0.0 
0.0 0.0 0.0 
0.0 0.0 0.0 
0.0 0.0 0.0 
0.0 0.0 0.0 
0.0 0.0 0.0 
0.0 0.0 0.0 
0.0 0.0 0.0 
0.0 0.0 0.0 
0.0 0.0 0.0 
0.0 0.0 0.0 
0.0 0.0 0.0 
0.0 0.0 0.0 
0.0 0.0 0.0 
0.0 0.0 0.0 
0.0 0.0 0.0 
0.0 0.0 0.0 
0.0 0.0 0.0 
0.0 0.0 0.0 
0.0 0.0 0.0 
0.0 0.0 0.0 
0.0 0.0 0.0 
0.0 0.0 0.0 
0.0 0.0 0.0 
0.0 0.0 0.0 
0.0 0.0 0.0 
0.0 0.0 0.0 
0.0 0.0 0.0 
0.0 0.0 0.0 
0.0 0.0 0.0 
0.0 0.0 0.0 
0.0 0.0 0.0 
0.0 0.0 0.0 
0.0 0.0 0.0 
0.0 0.0 0.0 
0.0 0.0 0.0 
0.0 0.0 0.0 
0.0 0.0 0.0 
0.0 0.0 0.0 
0.0 0.0 0.0 
0.0 0.0 0.0 
0.0 0.0 0.0 
0.0 0.0 0.0 
0.0 0.0 0.0 
0.0 0.0 0.0 
0.0 0.0 0.0 
0.0 0.0 0.0 
0.0 0.0 0.0 
0.0 0.0 0.0 
0.0 0.0 0.0 
0.0 0.0 0.0 
0.0 0.0 0.0 
0.0 0.0 0.0 
0.0 0.0 0.0 
0.0 0.0 0.0 
0.0 0.0 0.0 
0.0 0.0 0.0 
0.0 0.0 0.0 
0.0 0.0 0.0 
0.0 0.0 0.0 
0.0 0.0 0.0 
0.0 0.0 0.0 
0.0 0.0 0.0 
0.0 0.0 0.0 
0.0 0.0 0.0 
0.0 0.0 0.0 
0.0 0.0 0.0 
0.0 0.0 0.0 
0.0 0.0 0.0 
0.0 0.0 0.0 
0.0 0.0 0.0 
0.0 0.0 0.0 
0.0 0.0 0.0 
0.0 0.0 0.0 
0.0 0.0 0.0 
0.0 0.0 0.0 
0.0 0.0 0.0 
0.0 0.0 0.0 
0.0 0.0 0.0 
0.0 0.0 0.0 
0.0 0.0 0.0 
0.0 0.0 0.0 
0.0 0.0 0.0 
0.0 0.0 0.0 
0.0 0.0 0.0 
0.0 0.0 0.0 
0.0 0.0 0.0 
0.0 0.0 0.0 
0.0 0.0 0.0 
0.0 0.0 0.0 
0.0 0.0 0.0 
0.0 0.0 0.0 
0.0 0.0 0.0 
0.0 0.0 0.0 
0.0 0.0 0.0 
0.0 0.0 0.0 
0.0 0.0 0.0 
0.0 0.0 0.0 
0.0 0.0 0.0 
0.0 0.0 0.0 
0.0 0.0 0.0 
0.0 0.0 0.0 
0.0 0.0 0.0 
0.0 0.0 0.0 
0.0 0.0 0.0 
0.0 0.0 0.0 
0.0 0.0 0.0 
0.0 0.0 0.0 
0.0 0.0 0.0 
0.0 0.0 0.0 
0.0 0.0 0.0 
0.0 0.0 0.0 
0.0 0.0 0.0 
0.0 0.0 0.0 
0.0 0.0 0.0 
0.0 0.0 0.0 
0.0 0.0 0.0 
0.0 0.0 0.0 
0.0 0.0 0.0 
0.0 0.0 0.0 
0.0 0.0 0.0 
0.0 0.0 0.0 
0.0 0.0 0.0 
0.0 0.0 0.0 
0.0 0.0 0.0 
0.0 0.0 0.0 
0.0 0.0 0.0 
0.0 0.0 0.0 
0.0 0.0 0.0 
0.0 0.0 0.0 
0.0 0.0 0.0 
0.0 0.0 0.0 
0.0 0.0 0.0 
0.0 0.0 0.0 
0.0 0.0 0.0 
0.0 0.0 0.0 
0.0 0.0 0.0 
0.0 0.0 0.0 
0.0 0.0 0.0 
0.0 0.0 0.0 
0.0 0.0 0.0 
0.0 0.0 0.0 
0.0 0.0 0.0 
0.0 0.0 0.0 
0.0 0.0 0.0 
0.0 0.0 0.0 
0.0 0.0 0.0 
0.0 0.0 0.0 
0.0 0.0 0.0 
0.0 0.0 0.0 
0.0 0.0 0.0 
0.0 0.0 0.0 
0.0 0.0 0.0 
0.0 0.0 0.0 
0.0 0.0 0.0 
0.0 0.0 0.0 
0.0 0.0 0.0 
0.0 0.0 0.0 
0.0 0.0 0.0 
0.0 0.0 0.0 
0.0 0.0 0.0 
0.0 0.0 0.0 
0.0 0.0 0.0 
0.0 0.0 0.0 
0.0 0.0 0.0 
0.0 0.0 0.0 
0.0 0.0 0.0 
0.0 0.0 0.0 
0.0 0.0 0.0 
0.0 0.0 0.0 
0.0 0.0 0.0 
0.0 0.0 0.0 
0.0 0.0 0.0 
0.0 0.0 0.0 
0.0 0.0 0.0 
0.0 0.0 0.0 
0.0 0.0 0.0 
0.0 0.0 0.0 
0.0 0.0 0.0 
0.0 0.0 0.0 
0.0 0.0 0.0 
0.0 0.0 0.0 
0.0 0.0 0.0 
0.0 0.0 0.0 
0.0 0.0 0.0 
0.0 0.0 0.0 
0.0 0.0 0.0 
0.0 0.0 0.0 
0.0 0.0 0.0 
0.0 0.0 0.0 
0.0 0.0 0.0 
0.0 0.0 0.0 
0.0 0.0 0.0 
0.0 0.0 0.0 
0.0 0.0 0.0 
0.0 0.0 0.0 
0.0 0.0 0.0 
0.0 0.0 0.0 
0.0 0.0 0.0 
0.0 0.0 0.0 
0.0 0.0 0.0 
0.0 0.0 0.0 
0.0 0.0 0.0 
0.0 0.0 0.0 
0.0 0.0 0.0 
0.0 0.0 0.0 
0.0 0.0 0.0 
0.0 0.0 0.0 
0.0 0.0 0.0 
0.0 0.0 0.0 
0.0 0.0 0.0 
0.0 0.0 0.0 
0.0 0.0 0.0 
0.0 0.0 0.0 
0.0 0.0 0.0 
0.0 0.0 0.0 
0.0 0.0 0.0 
0.0 0.0 0.0 
0.0 0.0 0.0 
0.0 0.0 0.0 
0.0 0.0 0.0 
0.0 0.0 0.0 
0.0 0.0 0.0 
0.0 0.0 0.0 
0.0 0.0 0.0 
0.0 0.0 0.0 
0.0 0.0 0.0 
0.0 0.0 0.0 
0.0 0.0 0.0 
0.0 0.0 0.0 
0.0 0.0 0.0 
0.0 0.0 0.0 
0.0 0.0 0.0 
0.0 0.0 0.0 
0.0 0.0 0.0 
0.0 0.0 0.0 
0.0 0.0 0.0 
0.0 0.0 0.0 
0.0 0.0 0.0 
0.0 0.0 0.0 
0.0 0.0 0.0 
0.0 0.0 0.0 
0.0 0.0 0.0 
0.0 0.0 0.0 
0.0 0.0 0.0 
0.0 0.0 0.0 
0.0 0.0 0.0 
0.0 0.0 0.0 
0.0 0.0 0.0 
0.0 0.0 0.0 
0.0 0.0 0.0 
0.0 0.0 0.0 
0.0 0.0 0.0 
0.0 0.0 0.0 
0.0 0.0 0.0 
0.0 0.0 0.0 
0.0 0.0 0.0 
0.0 0.0 0.0 
0.0 0.0 0.0 
0.0 0.0 0.0 
0.0 0.0 0.0 
0.0 0.0 0.0 
0.0 0.0 0.0 
0.0 0.0 0.0 
0.0 0.0 0.0 
0.0 0.0 0.0 
0.0 0.0 0.0 
0.0 0.0 0.0 
0.0 0.0 0.0 
0.0 0.0 0.0 
0.0 0.0 0.0 
0.0 0.0 0.0 
0.0 0.0 0.0 
0.0 0.0 0.0 
0.0 0.0 0.0 
0.0 0.0 0.0 
0.0 0.0 0.0 
0.0 0.0 0.0 
0.0 0.0 0.0 
0.0 0.0 0.0 
0.0 0.0 0.0 
0.0 0.0 0.0 
0.0 0.0 0.0 
0.0 0.0 0.0 
0.0 0.0 0.0 
0.0 0.0 0.0 
0.0 0.0 0.0 
0.0 0.0 0.0 
0.0 0.0 0.0 
0.0 0.0 0.0 
0.0 0.0 0.0 
0.0 0.0 0.0 
0.0 0.0 0.0 

TENSORS element_materi_stress float
-3.324486153386e+01 3.653620991571e+00 0.0 
3.653620991571e+00 -6.476228896931e+01 0.0 
0.0 0.0 -2.900214515095e+01 
-3.568851019589e+01 7.056552121951e+00 0.0 
7.056552121951e+00 -6.210083012950e+01 0.0 
0.0 0.0 -2.893680209762e+01 
-1.363409339431e+02 7.558865800006e+00 0.0 
7.558865800006e+00 -3.148351587993e+02 0.0 
0.0 0.0 -1.349528278227e+02 
-1.311230984690e+02 1.411989027088e+00 0.0 
1.411989027088e+00 -3.042993582760e+02 0.0 
0.0 0.0 -1.302267370235e+02 
-7.638381649173e+01 -4.938134976868e-01 0.0 
-4.938134976868e-01 -1.676288866894e+02 0.0 
0.0 0.0 -7.280381095435e+01 
-1.587534943447e+01 3.899728665499e+00 0.0 
3.899728665499e+00 -4.041478677396e+01 0.0 
0.0 0.0 -1.648704086253e+01 
-7.626938299008e+01 -7.857156446781e-01 0.0 
-7.857156446781e-01 -1.679021438163e+02 0.0 
0.0 0.0 -7.285145804193e+01 
-3.398618372517e+01 7.216365495489e+00 0.0 
7.216365495489e+00 -6.268852530988e+01 0.0 
0.0 0.0 -2.860241271052e+01 
-7.663295916989e+01 1.500468205700e+00 0.0 
1.500468205700e+00 -1.684059647716e+02 0.0 
0.0 0.0 -7.311167718246e+01 
-1.305314001333e+02 2.377479030911e-01 0.0 
2.377479030911e-01 -3.026953191957e+02 0.0 
0.0 0.0 -1.295680157987e+02 
-1.002288029267e+02 -3.436628835341e-01 0.0 
-3.436628835341e-01 -2.510819156315e+02 0.0 
0.0 0.0 -1.049932155674e+02 
-2.624631354322e+01 5.426760487202e+00 0.0 
5.426760487202e+00 -4.473293815981e+01 0.0 
0.0 0.0 -2.089377551091e+01 
-1.520435368448e+02 2.548066620164e-02 0.0 
2.548066620164e-02 -3.615894265644e+02 0.0 
0.0 0.0 -1.536898890228e+02 
-8.470412885954e+01 5.230560506188e-01 0.0 
5.230560506188e-01 -1.847342882827e+02 0.0 
0.0 0.0 -8.043152514266e+01 
-1.563733803138e+02 1.999862042421e+00 0.0 
1.999862042421e+00 -3.694688036944e+02 0.0 
0.0 0.0 -1.573526552024e+02 
-1.339101275058e+02 1.013853172873e-01 0.0 
1.013853172873e-01 -3.123301599186e+02 0.0 
0.0 0.0 -1.334720862273e+02 
-7.510565626250e+01 5.637651278104e-01 0.0 
5.637651278104e-01 -1.634802629018e+02 0.0 
0.0 0.0 -7.117577574931e+01 
-1.697752198915e+01 2.769479435659e+00 0.0 
2.769479435659e+00 -4.127634097400e+01 0.0 
0.0 0.0 -1.707615888894e+01 
-2.974922177802e+01 1.362854685084e-01 0.0 
1.362854685084e-01 -7.681912678717e+01 0.0 
0.0 0.0 -3.157050456956e+01 
-3.053670057989e+01 -5.821177260553e-01 0.0 
-5.821177260553e-01 -7.956411363533e+01 0.0 
0.0 0.0 -3.263024426457e+01 
-1.312443614347e+02 2.144424368741e+00 0.0 
2.144424368741e+00 -3.034565063446e+02 0.0 
0.0 0.0 -1.300102603338e+02 
-3.991996260958e+01 2.822954706065e+00 0.0 
2.822954706065e+00 -7.586087730397e+01 0.0 
0.0 0.0 -3.433425197407e+01 
-4.625002822153e+01 4.695385077559e+00 0.0 
4.695385077559e+00 -8.906255967843e+01 0.0 
0.0 0.0 -4.019377636999e+01 
-1.404903848367e+02 8.740978681410e+00 0.0 
8.740978681410e+00 -3.368622542572e+02 0.0 
0.0 0.0 -1.428057917282e+02 
-9.276304456668e+01 1.275047217576e+00 0.0 
1.275047217576e+00 -2.026269663090e+02 0.0 
0.0 0.0 -8.821700326271e+01 
-1.058555748433e+02 9.586997657928e-01 0.0 
9.586997657928e-01 -2.640642377521e+02 0.0 
0.0 0.0 -1.105759437786e+02 
-6.973791576931e+01 1.207080977048e+00 0.0 
1.207080977048e+00 -1.472488578685e+02 0.0 
0.0 0.0 -6.469603209134e+01 
-1.426001609382e+02 1.159547246414e+01 0.0 
1.159547246414e+01 -3.321268014384e+02 0.0 
0.0 0.0 -1.420180887130e+02 
-9.375532630987e+01 3.457505374823e+00 0.0 
3.457505374823e+00 -2.033190550488e+02 0.0 
0.0 0.0 -8.872231440759e+01 
-1.441617385102e+02 7.408411944356e+00 0.0 
7.408411944356e+00 -3.458167752720e+02 0.0 
0.0 0.0 -1.465935541347e+02 
-2.398349891343e+01 -4.872200338876e-01 0.0 
-4.872200338876e-01 -5.815730995382e+01 0.0 
0.0 0.0 -2.424224266017e+01 
-1.284313443114e+01 -9.798371874335e-01 0.0 
-9.798371874335e-01 -2.589109932224e+01 0.0 
0.0 0.0 -1.122027012601e+01 
-1.371181031546e+02 7.244572194398e+00 0.0 
7.244572194398e+00 -3.154987779517e+02 0.0 
0.0 0.0 -1.353850643319e+02 
-1.283550485413e+02 1.017015547999e+00 0.0 
1.017015547999e+00 -3.125956395299e+02 0.0 
0.0 0.0 -1.318852064214e+02 
-1.501002020073e+02 5.998912794870e+00 0.0 
5.998912794870e+00 -3.572275183456e+02 0.0 
0.0 0.0 -1.517983161058e+02 
-1.591523882489e+02 2.040137015667e+00 0.0 
2.040137015667e+00 -3.767239601349e+02 0.0 
0.0 0.0 -1.603629045151e+02 
-1.597553343971e+02 4.904924036800e+00 0.0 
4.904924036800e+00 -3.767294154030e+02 0.0 
0.0 0.0 -1.605454249400e+02 
-1.446811934601e+02 9.984707549108e+00 0.0 
9.984707549108e+00 -3.428829738687e+02 0.0 
0.0 0.0 -1.458692501987e+02 
-6.825530604536e+01 1.351543758248e+00 0.0 
1.351543758248e+00 -1.490757905003e+02 0.0 
0.0 0.0 -6.479932896369e+01 
-6.825908954494e+01 -1.360587180992e+00 0.0 
-1.360587180992e+00 -1.497140996098e+02 0.0 
0.0 0.0 -6.499195674641e+01 
-5.466439920585e+01 3.795549422049e+00 0.0 
3.795549422049e+00 -1.079461990768e+02 0.0 
0.0 0.0 -4.838317948480e+01 
-1.523298470068e+02 6.261664200174e+00 0.0 
6.261664200174e+00 -3.604080065506e+02 0.0 
0.0 0.0 -1.534213560672e+02 
-2.093083650143e+01 7.268091529667e+00 0.0 
7.268091529667e+00 -3.829306003462e+01 0.0 
0.0 0.0 -1.736716896081e+01 
-7.048827152109e+01 9.154941300510e-01 0.0 
9.154941300510e-01 -1.479304466587e+02 0.0 
0.0 0.0 -6.512561545395e+01 
-1.267155926319e+02 6.486096626090e-01 0.0 
6.486096626090e-01 -2.930893988236e+02 0.0 
0.0 0.0 -1.255414974367e+02 
-2.281782664464e+01 1.189580211380e+01 0.0 
1.189580211380e+01 -3.849583175098e+01 0.0 
0.0 0.0 -1.799409751869e+01 
-1.781537019155e+01 -1.031041146327e+00 0.0 
-1.031041146327e+00 -4.339339456353e+01 0.0 
0.0 0.0 -1.796262942652e+01 
-1.271648665999e+02 1.384315667916e-01 0.0 
1.384315667916e-01 -2.947302593629e+02 0.0 
0.0 0.0 -1.261685377888e+02 
-1.378956914396e+01 -9.824499391885e-01 0.0 
-9.824499391885e-01 -2.575711682242e+01 0.0 
0.0 0.0 -1.185387922121e+01 
-8.164926564188e+01 1.806732736574e+00 0.0 
1.806732736574e+00 -1.762395841300e+02 0.0 
0.0 0.0 -7.696665493158e+01 
-5.053647665321e+01 4.188497117644e+00 0.0 
4.188497117644e+00 -9.877188478547e+01 0.0 
0.0 0.0 -4.439250843160e+01 
-3.777986438572e+01 -7.377988573200e-02 0.0 
-7.377988573200e-02 -9.654552893702e+01 0.0 
0.0 0.0 -3.989761799682e+01 
-2.935229950647e+01 5.254177987703e-01 0.0 
5.254177987703e-01 -7.994630517955e+01 0.0 
0.0 0.0 -3.238958140581e+01 
-4.868235731020e+01 1.862990829532e+00 0.0 
1.862990829532e+00 -9.571820872800e+01 0.0 
0.0 0.0 -4.292016981146e+01 
-1.353929241130e+02 5.584041933125e+00 0.0 
5.584041933125e+00 -3.130684731492e+02 0.0 
0.0 0.0 -1.341384191787e+02 
-4.932704156713e+01 1.705647009294e-01 0.0 
1.705647009294e-01 -1.273397861164e+02 0.0 
0.0 0.0 -5.260004830505e+01 
-3.839581601616e+01 -7.108843031828e-01 0.0 
-7.108843031828e-01 -9.959655793095e+01 0.0 
0.0 0.0 -4.099771218413e+01 
-1.281119072552e+02 -3.255705694418e-01 0.0 
-3.255705694418e-01 -3.125442761459e+02 0.0 
0.0 0.0 -1.317968550204e+02 
-2.339351016765e+01 -6.945127073386e-01 0.0 
-6.945127073386e-01 -5.892532110894e+01 0.0 
0.0 0.0 -2.429564938297e+01 
-1.342225868608e+02 1.823075745540e+00 0.0 
1.823075745540e+00 -3.124990750011e+02 0.0 
0.0 0.0 -1.336164985586e+02 
-1.633505180120e+01 -3.915625725573e-01 0.0 
-3.915625725573e-01 -2.243250319305e+01 0.0 
0.0 0.0 -1.123026649827e+01 
-1.354744446469e+02 1.001075234900e+01 0.0 
1.001075234900e+01 -3.185962216221e+02 0.0 
0.0 0.0 -1.358211998807e+02 
-5.213785898943e+01 7.813545657132e+00 0.0 
7.813545657132e+00 -1.083758894782e+02 0.0 
0.0 0.0 -4.775412454028e+01 
-2.683866286215e+01 -1.163808319345e-01 0.0 
-1.163808319345e-01 -7.266325351844e+01 0.0 
0.0 0.0 -2.945057491418e+01 
-1.517758554682e+02 2.452870406601e+00 0.0 
2.452870406601e+00 -3.609281772824e+02 0.0 
0.0 0.0 -1.534112098252e+02 
-4.404758103367e+01 2.285668288169e+00 0.0 
2.285668288169e+00 -8.523310434780e+01 0.0 
0.0 0.0 -3.838420561444e+01 
-1.330858070632e+01 -7.216929760566e-01 0.0 
-7.216929760566e-01 -2.107851335819e+01 0.0 
0.0 0.0 -1.061808217411e+01 
-1.381230474623e+02 8.345574400560e+00 0.0 
8.345574400560e+00 -3.164258636445e+02 0.0 
0.0 0.0 -1.359646733321e+02 
-2.536225302459e+01 -7.949624588116e-01 0.0 
-7.949624588116e-01 -6.349611010055e+01 0.0 
0.0 0.0 -2.625750893754e+01 
-1.392824394937e+02 9.724436481782e+00 0.0 
9.724436481782e+00 -3.229780116390e+02 0.0 
0.0 0.0 -1.382781353398e+02 
-1.105755891030e+02 1.347758726544e+00 0.0 
1.347758726544e+00 -2.744655261235e+02 0.0 
0.0 0.0 -1.151123345679e+02 
-1.395929637679e+02 3.593246451655e+00 0.0 
3.593246451655e+00 -3.270502487918e+02 0.0 
0.0 0.0 -1.395929637679e+02 
-1.363046499797e+02 1.053307671536e+01 0.0 
1.053307671536e+01 -3.167936440831e+02 0.0 
0.0 0.0 -1.355294882188e+02 
-1.170778318063e+01 -9.325475239701e-01 0.0 
-9.325475239701e-01 -2.976272864613e+01 0.0 
0.0 0.0 -1.204115354803e+01 
-5.103714345332e+01 -8.143284666276e-01 0.0 
-8.143284666276e-01 -1.326106190632e+02 0.0 
0.0 0.0 -5.469432875495e+01 
-1.328478316708e+02 3.357568495129e+00 0.0 
3.357568495129e+00 -3.067649665166e+02 0.0 
0.0 0.0 -1.314838394562e+02 
-1.366661527177e+02 6.046108464789e+00 0.0 
6.046108464789e+00 -3.141347319995e+02 0.0 
0.0 0.0 -1.348402654152e+02 
-1.754290901578e+01 1.144018307846e+01 0.0 
1.144018307846e+01 -3.409099489734e+01 0.0 
0.0 0.0 -1.509017117394e+01 
-2.298681167054e+01 -6.916998271539e-01 0.0 
-6.916998271539e-01 -5.898531355751e+01 0.0 
0.0 0.0 -2.419163756841e+01 
-1.559009025908e+01 1.037348503431e+01 0.0 
1.037348503431e+01 -3.331937848573e+01 0.0 
0.0 0.0 -1.427284062344e+01 
-2.443249294664e+01 -1.976031467227e+00 0.0 
-1.976031467227e+00 -6.284165662954e+01 0.0 
0.0 0.0 -2.578224487285e+01 
-7.517270096855e+01 3.898594580985e-01 0.0 
3.898594580985e-01 -1.631812372530e+02 0.0 
0.0 0.0 -7.110618146645e+01 
-4.222501216618e+01 5.369330161506e+00 0.0 
5.369330161506e+00 -8.027308826817e+01 0.0 
0.0 0.0 -3.634943013030e+01 
-3.486116199498e+01 3.403547003705e+00 0.0 
3.403547003705e+00 -6.446907393506e+01 0.0 
0.0 0.0 -2.939907077901e+01 
-8.105799855633e+01 1.530531001602e+00 0.0 
1.530531001602e+00 -1.786561878377e+02 0.0 
0.0 0.0 -7.751425591820e+01 
-8.063815857432e+01 -4.159673948377e-01 0.0 
-4.159673948377e-01 -1.784479852293e+02 0.0 
0.0 0.0 -7.732584314109e+01 
-1.144489584173e+02 1.198952713855e+00 0.0 
1.198952713855e+00 -2.829655051845e+02 0.0 
0.0 0.0 -1.188243390805e+02 
-1.242968762779e+02 -7.097284229358e-01 0.0 
-7.097284229358e-01 -3.042994063676e+02 0.0 
0.0 0.0 -1.281788847936e+02 
-1.178540447745e+02 7.574577215126e+00 0.0 
7.574577215126e+00 -2.616823094160e+02 0.0 
0.0 0.0 -1.134609062571e+02 
-7.662080397361e+01 1.678220320802e+00 0.0 
1.678220320802e+00 -1.670339670173e+02 0.0 
0.0 0.0 -7.269643129728e+01 
-1.233696863470e+01 -9.854731185503e-01 0.0 
-9.854731185503e-01 -2.573843986814e+01 0.0 
0.0 0.0 -1.137873777018e+01 
-7.778835177643e+01 1.446047263788e+00 0.0 
1.446047263788e+00 -1.654164634768e+02 0.0 
0.0 0.0 -7.256144457597e+01 
-1.078718581924e+02 7.507072562688e-01 0.0 
7.507072562688e-01 -2.465877349993e+02 0.0 
0.0 0.0 -1.059378779575e+02 
-1.068635327380e+02 -3.614934411011e-02 0.0 
-3.614934411011e-02 -2.430779152271e+02 0.0 
0.0 0.0 -1.045824343895e+02 
-1.411576597653e+02 4.007026306209e+00 0.0 
4.007026306209e+00 -3.280206929318e+02 0.0 
0.0 0.0 -1.403535058091e+02 
-1.492922512316e+02 1.189966411816e+01 0.0 
1.189966411816e+01 -3.506705148005e+02 0.0 
0.0 0.0 -1.495888298096e+02 
-7.551728306317e+01 1.079748840223e+00 0.0 
1.079748840223e+00 -1.628443930413e+02 0.0 
0.0 0.0 -7.110850283134e+01 
-1.505671656706e+02 6.258357458026e+00 0.0 
6.258357458026e+00 -3.603255227961e+02 0.0 
0.0 0.0 -1.528678065400e+02 
-8.830117969998e+01 7.032352062196e-01 0.0 
7.032352062196e-01 -1.980546637164e+02 0.0 
0.0 0.0 -8.550675302492e+01 
-4.931294685026e+01 9.452730406030e+00 0.0 
9.452730406030e+00 -9.791790223511e+01 0.0 
0.0 0.0 -4.376925472561e+01 
-7.280182481994e+01 1.043195551140e+00 0.0 
1.043195551140e+00 -1.584456863188e+02 0.0 
0.0 0.0 -6.897425334161e+01 
-1.558565728777e+02 6.460075536474e-01 0.0 
6.460075536474e-01 -3.691267542142e+02 0.0 
0.0 0.0 -1.570949981275e+02 
-1.151710302957e+02 1.101224672803e+01 0.0 
1.101224672803e+01 -2.724788289940e+02 0.0 
0.0 0.0 -1.158949577869e+02 
-1.363986923052e+02 1.188479134974e+01 0.0 
1.188479134974e+01 -3.194144956172e+02 0.0 
0.0 0.0 -1.363439563767e+02 
-4.254629357869e+01 1.297056355418e+01 0.0 
1.297056355418e+01 -9.482926013945e+01 0.0 
0.0 0.0 -4.081266611544e+01 
-2.048552120726e+01 -1.230905985872e+00 0.0 
-1.230905985872e+00 -4.259129924800e+01 0.0 
0.0 0.0 -1.852304613658e+01 
-1.422779228784e+02 1.530904987999e+00 0.0 
1.530904987999e+00 -3.415886238036e+02 0.0 
0.0 0.0 -1.447599640046e+02 
-1.143939984874e+02 1.955254842895e-01 0.0 
1.955254842895e-01 -2.620268815797e+02 0.0 
0.0 0.0 -1.125262640201e+02 
-1.662907117427e+01 -8.125844250452e-01 0.0 
-8.125844250452e-01 -2.555846452435e+01 0.0 
0.0 0.0 -1.225626070958e+01 
-1.553914423233e+02 3.049342728054e+00 0.0 
3.049342728054e+00 -3.664615528886e+02 0.0 
0.0 0.0 -1.561558985636e+02 
-1.123320837185e+02 5.687463101502e+00 0.0 
5.687463101502e+00 -2.499610710326e+02 0.0 
0.0 0.0 -1.082879464253e+02 
-8.803002246509e+00 4.073607775891e-01 0.0 
4.073607775891e-01 -2.204524090597e+01 0.0 
0.0 0.0 -8.854472945743e+00 
-6.248810456328e+01 1.006419978797e+01 0.0 
1.006419978797e+01 -1.457369820127e+02 0.0 
0.0 0.0 -6.206752597280e+01 
-7.076046852489e+01 2.778617063505e+00 0.0 
2.778617063505e+00 -1.463939063809e+02 0.0 
0.0 0.0 -6.474631247173e+01 
-6.204958207498e+01 1.991423465517e-02 0.0 
1.991423465517e-02 -1.609570338430e+02 0.0 
0.0 0.0 -6.650198477539e+01 
-4.371951964689e+01 7.489709521247e+00 0.0 
7.489709521247e+00 -8.696350163590e+01 0.0 
0.0 0.0 -3.880490638484e+01 
-5.241931748244e+01 1.108955762636e+01 0.0 
1.108955762636e+01 -1.088470789810e+02 0.0 
0.0 0.0 -4.797991893903e+01 
-1.534579164595e+02 4.359927969369e+00 0.0 
4.359927969369e+00 -3.643617082753e+02 0.0 
0.0 0.0 -1.549458874205e+02 
-8.574903504773e+01 -6.212685505508e-01 0.0 
-6.212685505508e-01 -1.914845636757e+02 0.0 
0.0 0.0 -8.277007961702e+01 
-4.772753338512e+01 9.092838136038e+00 0.0 
9.092838136038e+00 -1.009196804340e+02 0.0 
0.0 0.0 -4.419416414575e+01 
-2.443432352122e+01 -6.061266447021e-01 0.0 
-6.061266447021e-01 -6.076645753772e+01 0.0 
0.0 0.0 -2.516023431768e+01 
-7.753501442704e+01 1.176132187616e+00 0.0 
1.176132187616e+00 -1.646149421208e+02 0.0 
0.0 0.0 -7.224498696435e+01 
-1.150885598033e+02 7.545578266867e-01 0.0 
7.545578266867e-01 -2.636764205467e+02 0.0 
0.0 0.0 -1.132294941050e+02 
-4.750928388899e+01 1.225993316905e+01 0.0 
1.225993316905e+01 -1.010436518331e+02 0.0 
0.0 0.0 -4.416588071661e+01 
-1.521077399768e+01 7.938372297942e+00 0.0 
7.938372297942e+00 -2.981492385226e+01 0.0 
0.0 0.0 -1.310770935498e+01 
-6.278862018718e+01 3.172639475332e+00 0.0 
3.172639475332e+00 -1.272241651447e+02 0.0 
0.0 0.0 -5.660383559957e+01 
-6.180069830554e+01 -4.926735628087e-01 0.0 
-4.926735628087e-01 -1.595666984741e+02 0.0 
0.0 0.0 -6.601021903390e+01 
-5.723942070239e+01 1.273665091818e+00 0.0 
1.273665091818e+00 -1.159083522817e+02 0.0 
0.0 0.0 -5.154433189522e+01 
-1.353228072421e+02 2.323674095356e+00 0.0 
2.323674095356e+00 -3.146901427596e+02 0.0 
0.0 0.0 -1.346038850005e+02 
-1.558784416515e+01 7.847504913653e+00 0.0 
7.847504913653e+00 -4.116489592496e+01 0.0 
0.0 0.0 -1.662582202703e+01 
-1.054406041168e+02 -1.901156054012e-01 0.0 
-1.901156054012e-01 -2.630858007939e+02 0.0 
0.0 0.0 -1.101579214732e+02 
-1.308619939738e+02 -2.800082298119e-01 0.0 
-2.800082298119e-01 -3.042594300598e+02 0.0 
0.0 0.0 -1.301364272101e+02 
-6.548194884498e+01 5.224101586734e+00 0.0 
5.224101586734e+00 -1.350931621679e+02 0.0 
0.0 0.0 -5.977253330387e+01 
-5.885774034074e+01 3.442565584416e+00 0.0 
3.442565584416e+00 -1.178784835318e+02 0.0 
0.0 0.0 -5.262086716175e+01 
-1.492773251323e+02 4.377170257788e+00 0.0 
4.377170257788e+00 -3.569214854928e+02 0.0 
0.0 0.0 -1.514596431875e+02 
-1.524453233267e+02 1.815063748715e+00 0.0 
1.815063748715e+00 -3.622484145411e+02 0.0 
0.0 0.0 -1.540081213604e+02 
-1.142901169821e+02 -1.268842474394e-01 0.0 
-1.268842474394e-01 -2.829487492631e+02 0.0 
0.0 0.0 -1.187716598736e+02 
-7.058781391032e+01 7.071436775847e+00 0.0 
7.071436775847e+00 -1.452717570133e+02 0.0 
0.0 0.0 -6.435787127709e+01 
-1.499509958055e+02 7.848879859089e+00 0.0 
7.848879859089e+00 -3.581160952792e+02 0.0 
0.0 0.0 -1.520201273254e+02 
-6.145641333204e+01 3.900309662282e+00 0.0 
3.900309662282e+00 -1.249904960198e+02 0.0 
0.0 0.0 -5.553407280555e+01 
-1.335759262412e+02 2.044246104179e+00 0.0 
2.044246104179e+00 -3.099748150481e+02 0.0 
0.0 0.0 -1.326652223868e+02 
-1.400419330628e+02 9.665486629164e+00 0.0 
9.665486629164e+00 -3.232146303093e+02 0.0 
0.0 0.0 -1.385769690116e+02 
-8.505238522388e+01 2.516886643733e+00 0.0 
2.516886643733e+00 -1.843118360362e+02 0.0 
0.0 0.0 -8.040926637803e+01 
-9.852177919961e+01 -2.218422850191e-01 0.0 
-2.218422850191e-01 -2.223036523551e+02 0.0 
0.0 0.0 -9.584762946641e+01 
-6.244792468907e+01 6.582849512704e+00 0.0 
6.582849512704e+00 -1.255761530207e+02 0.0 
0.0 0.0 -5.600722331292e+01 
-5.297861014872e+01 1.405122754979e+00 0.0 
1.405122754979e+00 -1.062127092801e+02 0.0 
0.0 0.0 -4.735739582865e+01 
-7.350926007945e+01 5.739514533781e+00 0.0 
5.739514533781e+00 -1.547173915494e+02 0.0 
0.0 0.0 -6.806799548866e+01 
-5.064514523835e+01 1.256976459878e+01 0.0 
1.256976459878e+01 -1.148141780782e+02 0.0 
0.0 0.0 -4.923779699496e+01 
-7.346942242449e+01 1.006442964385e+00 0.0 
1.006442964385e+00 -1.612200574703e+02 0.0 
0.0 0.0 -7.000684396844e+01 
-6.168658697757e+01 1.208875465866e+01 0.0 
1.208875465866e+01 -1.457510769726e+02 0.0 
0.0 0.0 -6.183129918505e+01 
-1.168957712135e+01 -6.718777297988e-01 0.0 
-6.718777297988e-01 -2.510868397315e+01 0.0 
0.0 0.0 -1.105765592045e+01 
-7.912324906232e+01 1.382480402836e-01 0.0 
1.382480402836e-01 -1.761645465536e+02 0.0 
0.0 0.0 -7.618633868476e+01 
-2.256484041380e+01 -2.384937261072e-01 0.0 
-2.384937261072e-01 -5.999513679143e+01 0.0 
0.0 0.0 -2.436799316157e+01 
-6.678410896340e+01 2.975071417538e+00 0.0 
2.975071417538e+00 -1.369402965715e+02 0.0 
0.0 0.0 -6.071732166046e+01 
-1.518309012992e+02 7.508611032371e+00 0.0 
7.508611032371e+00 -3.590004060349e+02 0.0 
0.0 0.0 -1.528493922002e+02 
-4.312922154668e+01 1.035019142003e+01 0.0 
1.035019142003e+01 -9.480166819685e+01 0.0 
0.0 0.0 -4.097926692306e+01 
-1.190707218403e+02 -4.599364946800e-01 0.0 
-4.599364946800e-01 -2.931880300052e+02 0.0 
0.0 0.0 -1.232776255536e+02 
-2.712037573355e+01 1.001386597007e+01 0.0 
1.001386597007e+01 -4.516334701569e+01 0.0 
0.0 0.0 -2.128511682477e+01 
-1.148510439350e+02 9.168722706997e+00 0.0 
9.168722706997e+00 -2.721039132283e+02 0.0 
0.0 0.0 -1.156864871490e+02 
-7.343377638119e+01 7.587941229633e-02 0.0 
7.587941229633e-02 -1.627615422694e+02 0.0 
0.0 0.0 -7.045859559518e+01 
-5.753733176200e+01 1.033832169510e+01 0.0 
1.033832169510e+01 -1.389723073944e+02 0.0 
0.0 0.0 -5.855289174693e+01 
-1.326799656337e+02 1.520831149130e+00 0.0 
1.520831149130e+00 -3.219233524519e+02 0.0 
0.0 0.0 -1.359809954257e+02 
-2.409878015523e+01 -1.891601905499e+00 0.0 
-1.891601905499e+00 -6.027679237228e+01 0.0 
0.0 0.0 -2.491267175826e+01 
-1.420651854473e+02 -6.293080339509e-03 0.0 
-6.293080339509e-03 -3.412655977095e+02 0.0 
0.0 0.0 -1.445992349470e+02 
-7.755422168320e+01 2.454276165715e+00 0.0 
2.454276165715e+00 -1.633234702117e+02 0.0 
0.0 0.0 -7.186330756847e+01 
-1.531006253234e+02 2.468307240638e+00 0.0 
2.468307240638e+00 -3.651165867583e+02 0.0 
0.0 0.0 -1.550651636245e+02 
-7.292062662679e+01 -5.776771259597e-02 0.0 
-5.776771259597e-02 -1.616946607175e+02 0.0 
0.0 0.0 -6.998458620330e+01 
-4.644882217456e+01 1.083482114964e+01 0.0 
1.083482114964e+01 -1.075899111813e+02 0.0 
0.0 0.0 -4.581162000676e+01 
-6.556464146434e+01 1.064011277168e+00 0.0 
1.064011277168e+00 -1.353826416968e+02 0.0 
0.0 0.0 -5.988418494834e+01 
-1.002175299136e+02 6.617774679710e-01 0.0 
6.617774679710e-01 -2.520424509500e+02 0.0 
0.0 0.0 -1.052779942591e+02 
-2.490601585031e+01 5.590562544913e+00 0.0 
5.590562544913e+00 -4.603099087030e+01 0.0 
0.0 0.0 -2.088110201618e+01 
-5.681457872506e+01 1.190440871794e+01 0.0 
1.190440871794e+01 -1.389691444021e+02 0.0 
0.0 0.0 -5.833511693815e+01 
-1.028139657412e+02 1.466490311856e+00 0.0 
1.466490311856e+00 -2.329728719154e+02 0.0 
0.0 0.0 -1.003360512970e+02 
-7.297109485454e+01 -5.145672997313e-01 0.0 
-5.145672997313e-01 -1.615030673724e+02 0.0 
0.0 0.0 -6.994224866807e+01 
-5.437032580793e+01 1.050109598350e+01 0.0 
1.050109598350e+01 -1.263222521963e+02 0.0 
0.0 0.0 -5.380777340127e+01 
-6.121544110632e+01 1.169113857584e+00 0.0 
1.169113857584e+00 -1.254559915037e+02 0.0 
0.0 0.0 -5.560142978300e+01 
-1.238636231197e+02 7.746723795030e+00 0.0 
7.746723795030e+00 -2.811777611600e+02 0.0 
0.0 0.0 -1.211124152839e+02 
-6.929269933482e+01 1.313456976957e-01 0.0 
1.313456976957e-01 -1.778745541981e+02 0.0 
0.0 0.0 -7.375017605988e+01 
-1.428878377307e+02 1.093758244119e+01 0.0 
1.093758244119e+01 -3.336148781236e+02 0.0 
0.0 0.0 -1.425508147563e+02 
-1.408438334374e+02 1.060005100324e+01 0.0 
1.060005100324e+01 -3.247675283136e+02 0.0 
0.0 0.0 -1.392834085253e+02 
-4.121977674603e+01 8.967955509206e+00 0.0 
8.967955509206e+00 -7.810509724887e+01 0.0 
0.0 0.0 -3.539746219847e+01 
-6.965746407696e+01 -3.758704549314e-01 0.0 
-3.758704549314e-01 -1.789885725478e+02 0.0 
0.0 0.0 -7.419381098744e+01 
-1.315227370432e+02 9.361358450665e+00 0.0 
9.361358450665e+00 -3.174041431512e+02 0.0 
0.0 0.0 -1.342780640583e+02 
-5.852561292244e+01 5.148965254381e+00 0.0 
5.148965254381e+00 -1.162625828021e+02 0.0 
0.0 0.0 -5.203645871738e+01 
-3.470918836714e+01 6.458052291716e+00 0.0 
6.458052291716e+00 -6.568519415278e+01 0.0 
0.0 0.0 -2.971831475598e+01 
-7.355127788939e+01 1.653320942769e+00 0.0 
1.653320942769e+00 -1.543734548576e+02 0.0 
0.0 0.0 -6.797741982409e+01 
-5.871815397932e+01 1.219335200470e+01 0.0 
1.219335200470e+01 -1.342031783013e+02 0.0 
0.0 0.0 -5.747639968418e+01 
-1.325658041666e+02 9.392146386870e-01 0.0 
9.392146386870e-01 -3.089303171063e+02 0.0 
0.0 0.0 -1.320488363819e+02 
-1.125316079879e+02 4.720147769870e+00 0.0 
4.720147769870e+00 -2.504043790619e+02 0.0 
0.0 0.0 -1.084807961149e+02 
-1.374990067394e+02 -4.577474893430e-01 0.0 
-4.577474893430e-01 -3.319703576856e+02 0.0 
0.0 0.0 -1.404408093275e+02 
-1.983051477224e+01 1.246184103803e+01 0.0 
1.246184103803e+01 -3.590587618149e+01 0.0 
0.0 0.0 -1.632091728612e+01 
-5.227065776297e+01 1.125650237432e+01 0.0 
1.125650237432e+01 -1.328084620209e+02 0.0 
0.0 0.0 -5.512373593516e+01 
-1.163734814626e+02 5.501069324908e+00 0.0 
5.501069324908e+00 -2.603030497875e+02 0.0 
0.0 0.0 -1.126029593750e+02 
-1.237196790446e+01 2.179882103193e+00 0.0 
2.179882103193e+00 -4.780973364176e+00 0.0 
0.0 0.0 -4.745882380590e+00 
-5.737445939420e+01 2.731594654713e+00 0.0 
2.731594654713e+00 -1.157034323885e+02 0.0 
0.0 0.0 -5.152336753482e+01 
-1.225933593518e+02 7.963525770206e+00 0.0 
7.963525770206e+00 -3.003135339076e+02 0.0 
0.0 0.0 -1.264720679778e+02 
-1.712458180382e+01 -3.688893280343e-01 0.0 
-3.688893280343e-01 -4.249369605249e+01 0.0 
0.0 0.0 -1.748548335689e+01 
-1.348303621997e+02 5.442302188995e+00 0.0 
5.442302188995e+00 -3.097686460579e+02 0.0 
0.0 0.0 -1.329797024773e+02 
-1.010833313150e+02 2.601278028493e+00 0.0 
2.601278028493e+00 -2.221567851610e+02 0.0 
0.0 0.0 -9.657203494280e+01 
-6.250063099423e+01 4.464527244599e-02 0.0 
4.464527244599e-02 -1.670169641857e+02 0.0 
0.0 0.0 -6.845527855397e+01 
-1.217109282058e+02 6.372007824973e+00 0.0 
6.372007824973e+00 -2.997815136215e+02 0.0 
0.0 0.0 -1.260477325482e+02 
-8.429427255230e+01 2.124331264618e+00 0.0 
2.124331264618e+00 -1.804665469245e+02 0.0 
0.0 0.0 -7.902824584305e+01 
-9.060770162139e+01 2.607549469023e+00 0.0 
2.607549469023e+00 -1.958814514280e+02 0.0 
0.0 0.0 -8.554674591480e+01 
-1.450027159181e+02 8.340271606842e+00 0.0 
8.340271606842e+00 -3.458149906832e+02 0.0 
0.0 0.0 -1.468453119804e+02 
-4.746063977677e+01 -1.376986467006e+00 0.0 
-1.376986467006e+00 -1.263736108425e+02 0.0 
0.0 0.0 -5.175027518579e+01 
-7.730208740354e+01 6.820893966213e+00 0.0 
6.820893966213e+00 -1.655294388026e+02 0.0 
0.0 0.0 -7.244945786186e+01 
-8.161446583987e+01 3.351009550895e+00 0.0 
3.351009550895e+00 -1.727009107562e+02 0.0 
0.0 0.0 -7.589461297883e+01 
-1.062211146642e+02 4.398128421899e+00 0.0 
4.398128421899e+00 -2.334311501375e+02 0.0 
0.0 0.0 -1.014956794405e+02 
-8.269175371308e+01 4.305616503309e+00 0.0 
4.305616503309e+00 -1.739579745329e+02 0.0 
0.0 0.0 -7.659491847380e+01 
-7.465533182817e+01 3.609980228679e+00 0.0 
3.609980228679e+00 -1.548307414323e+02 0.0 
0.0 0.0 -6.844582197814e+01 
-1.017823142015e+02 1.053304282469e+01 0.0 
1.053304282469e+01 -2.447809540317e+02 0.0 
0.0 0.0 -1.035689804700e+02 
-1.208281778381e+02 9.098000866298e+00 0.0 
9.098000866298e+00 -2.709181789152e+02 0.0 
0.0 0.0 -1.171239070260e+02 
-1.539165052895e+01 2.068905624285e+00 0.0 
2.068905624285e+00 -2.171552692339e+01 0.0 
0.0 0.0 -1.073215323570e+01 
-4.079833781064e+01 6.095571012554e+00 0.0 
6.095571012554e+00 -7.842890225920e+01 0.0 
0.0 0.0 -3.536817202095e+01 
-4.832826524762e+01 6.357250800525e+00 0.0 
6.357250800525e+00 -9.677859201583e+01 0.0 
0.0 0.0 -4.313205717903e+01 
-7.419887766070e+01 8.256566631477e+00 0.0 
8.256566631477e+00 -1.555003587926e+02 0.0 
0.0 0.0 -6.850977093599e+01 
-1.178942810159e+02 6.586582486005e+00 0.0 
6.586582486005e+00 -2.620436834926e+02 0.0 
0.0 0.0 -1.135813893525e+02 
-2.006820183044e+01 4.690051138272e+00 0.0 
4.690051138272e+00 -6.009868645366e+01 0.0 
0.0 0.0 -2.365006648523e+01 
-1.178935010060e+02 7.132059453900e+00 0.0 
7.132059453900e+00 -2.911554728346e+02 0.0 
0.0 0.0 -1.223146921522e+02 
-7.281333725139e+01 1.061539759314e+00 0.0 
1.061539759314e+00 -1.602297045647e+02 0.0 
0.0 0.0 -6.951291254481e+01 
-5.282729141330e+01 1.018705108910e+01 0.0 
1.018705108910e+01 -1.328291702146e+02 0.0 
0.0 0.0 -5.529693848836e+01 
-1.133022866407e+02 6.300723811452e+00 0.0 
6.300723811452e+00 -2.819576420874e+02 0.0 
0.0 0.0 -1.181779786184e+02 
-1.249451812857e+01 -7.787554511020e-02 0.0 
-7.787554511020e-02 -2.867737100783e+01 0.0 
0.0 0.0 -1.195156674092e+01 
-1.088376947703e+02 3.163887530042e+00 0.0 
3.163887530042e+00 -2.417982706433e+02 0.0 
0.0 0.0 -1.047907896241e+02 
-1.143662952506e+01 -7.774247701681e-01 0.0 
-7.774247701681e-01 -2.403991074601e+01 0.0 
0.0 0.0 -1.024296208132e+01 
-1.684962163930e+01 -6.886350304998e-01 0.0 
-6.886350304998e-01 -4.294111971909e+01 0.0 
0.0 0.0 -1.753722240752e+01 
-1.746932253494e+01 9.475680943781e+00 0.0 
9.475680943781e+00 -3.511105365317e+01 0.0 
0.0 0.0 -1.537411285644e+01 
-4.029142178835e+01 -1.566456507676e+00 0.0 
-1.566456507676e+00 -1.071027428152e+02 0.0 
0.0 0.0 -4.381824938105e+01 
-1.138864109086e+02 4.910885456242e+00 0.0 
4.910885456242e+00 -2.530356188651e+02 0.0 
0.0 0.0 -1.096766089321e+02 
-3.853974054332e+01 -5.044946116085e-01 0.0 
-5.044946116085e-01 -1.005528947027e+02 0.0 
0.0 0.0 -4.132779057381e+01 
-2.605072010813e+01 1.111180787288e+01 0.0 
1.111180787288e+01 -6.628304658113e+01 0.0 
0.0 0.0 -2.730013000678e+01 
-2.984610938760e+01 -3.474550240502e-01 0.0 
-3.474550240502e-01 -7.832149946213e+01 0.0 
0.0 0.0 -3.205028265492e+01 
-2.671598825495e+01 -1.902478540732e+00 0.0 
-1.902478540732e+00 -6.842071426470e+01 0.0 
0.0 0.0 -2.814101075590e+01 
-1.262197479518e+02 7.194139349130e+00 0.0 
7.194139349130e+00 -3.082088618360e+02 0.0 
0.0 0.0 -1.299285829363e+02 
-7.870505035589e+01 4.594828476517e+00 0.0 
4.594828476517e+00 -1.639350953087e+02 0.0 
0.0 0.0 -7.239204369938e+01 
-1.514863917875e+02 8.936217289709e-01 0.0 
8.936217289709e-01 -3.609271081864e+02 0.0 
0.0 0.0 -1.533240499922e+02 
-1.080977576201e+01 1.040722483242e+00 0.0 
1.040722483242e+00 -8.555206149349e+00 0.0 
0.0 0.0 -6.351194098262e+00 
-3.367078823171e+01 1.120528756793e+01 0.0 
1.120528756793e+01 -8.395081732967e+01 0.0 
0.0 0.0 -3.488648166841e+01 
-6.106885464963e+01 9.857573791563e+00 0.0 
9.857573791563e+00 -1.514771443197e+02 0.0 
0.0 0.0 -6.336379969078e+01 
-5.281938879795e+01 3.066298311358e+00 0.0 
3.066298311358e+00 -1.051991104449e+02 0.0 
0.0 0.0 -4.700554977286e+01 
-1.170452099553e+02 5.648948264312e+00 0.0 
5.648948264312e+00 -2.906473119654e+02 0.0 
0.0 0.0 -1.219077565762e+02 
-1.539895450783e+02 2.129455894912e+00 0.0 
2.129455894912e+00 -3.666667585694e+02 0.0 
0.0 0.0 -1.557968910943e+02 
-1.102015310247e+02 5.984968025407e+00 0.0 
5.984968025407e+00 -2.420458856269e+02 0.0 
0.0 0.0 -1.052742249955e+02 
-4.043726985050e+01 9.959762604914e+00 0.0 
9.959762604914e+00 -1.090078818281e+02 0.0 
0.0 0.0 -4.443354550359e+01 
-1.268697983530e+02 8.563260699327e+00 0.0 
8.563260699327e+00 -3.085009057659e+02 0.0 
0.0 0.0 -1.302112112357e+02 
-1.096597909447e+02 -7.251908313140e-01 0.0 
-7.251908313140e-01 -2.726914951469e+02 0.0 
0.0 0.0 -1.143053858275e+02 
-7.848790848562e+01 7.541675843398e+00 0.0 
7.541675843398e+00 -1.647271910347e+02 0.0 
0.0 0.0 -7.256452985608e+01 
-1.048694994657e+02 3.211841153091e+00 0.0 
3.211841153091e+00 -2.312075370009e+02 0.0 
0.0 0.0 -1.004231109400e+02 
-1.394000918640e+02 1.172982532262e+01 0.0 
1.172982532262e+01 -3.251257300744e+02 0.0 
0.0 0.0 -1.389577465815e+02 
-6.051140810896e+01 1.117097752667e+01 0.0 
1.117097752667e+01 -1.515170981068e+02 0.0 
0.0 0.0 -6.320855186473e+01 
-2.977060449404e+01 1.305489140598e+01 0.0 
1.305489140598e+01 -7.015615929969e+01 0.0 
0.0 0.0 -2.957802913812e+01 
-9.061851926393e+01 4.945537924044e+00 0.0 
4.945537924044e+00 -1.930165675739e+02 0.0 
0.0 0.0 -8.469052605136e+01 
-1.409208186588e+02 3.085728969027e+00 0.0 
3.085728969027e+00 -3.280990951014e+02 0.0 
0.0 0.0 -1.403059741281e+02 
-7.766221298695e+01 9.278799472849e+00 0.0 
9.278799472849e+00 -1.661258586794e+02 0.0 
0.0 0.0 -7.273642149991e+01 
-8.047277176572e+01 1.016785565614e+01 0.0 
1.016785565614e+01 -1.998244739102e+02 0.0 
0.0 0.0 -8.368917370277e+01 
-8.080907446457e+01 4.116698884949e-01 0.0 
4.116698884949e-01 -1.799336247863e+02 0.0 
0.0 0.0 -7.782280977526e+01 
-2.406831993421e+01 -1.115870999403e+00 0.0 
-1.115870999403e+00 -5.740878107208e+01 0.0 
0.0 0.0 -2.404313030188e+01 
-8.129495249042e+01 2.256149505727e+00 0.0 
2.256149505727e+00 -1.729031202234e+02 0.0 
0.0 0.0 -7.585942181413e+01 
-4.031539509055e+01 9.500172876455e+00 0.0 
9.500172876455e+00 -1.088569386092e+02 0.0 
0.0 0.0 -4.435170010992e+01 
-2.595019393685e+01 5.680632869739e+00 0.0 
5.680632869739e+00 -7.816684920876e+01 0.0 
0.0 0.0 -3.083511294368e+01 
-2.343079253539e+01 -7.537787913072e-02 0.0 
-7.537787913072e-02 -6.170262678742e+01 0.0 
0.0 0.0 -2.514002579684e+01 
-1.126475246178e+02 3.117672102883e+00 0.0 
3.117672102883e+00 -2.521783492168e+02 0.0 
0.0 0.0 -1.090477621504e+02 
-8.672224940000e+01 5.170952257451e+00 0.0 
5.170952257451e+00 -1.832984393281e+02 0.0 
0.0 0.0 -8.060620661844e+01 
-5.168093022355e+01 1.016518910529e+01 0.0 
1.016518910529e+01 -1.146987605788e+02 0.0 
0.0 0.0 -4.951390724070e+01 
-1.176076207324e+02 4.806231940232e+00 0.0 
4.806231940232e+00 -2.633609311612e+02 0.0 
0.0 0.0 -1.138905655681e+02 
-1.140364023960e+02 6.759376094394e+00 0.0 
6.759376094394e+00 -2.516320563811e+02 0.0 
0.0 0.0 -1.093005376332e+02 
-8.261571598193e+01 6.946893103394e+00 0.0 
6.946893103394e+00 -1.739773228141e+02 0.0 
0.0 0.0 -7.657791163881e+01 
-1.550841574501e+02 3.534145397986e+00 0.0 
3.534145397986e+00 -3.661473075313e+02 0.0 
0.0 0.0 -1.559694394944e+02 
-8.446231838315e+01 8.380997658954e+00 0.0 
8.380997658954e+00 -2.107894279162e+02 0.0 
0.0 0.0 -8.817552388981e+01 
-8.666803192570e+01 6.472741294248e+00 0.0 
6.472741294248e+00 -1.833165009792e+02 0.0 
0.0 0.0 -8.059535987147e+01 
-6.685318049949e+01 1.178738323135e+01 0.0 
1.178738323135e+01 -1.536012788317e+02 0.0 
0.0 0.0 -6.573633779936e+01 
-8.882224560292e+01 1.015663391664e+01 0.0 
1.015663391664e+01 -2.184186111418e+02 0.0 
0.0 0.0 -9.177225702342e+01 
-3.246768813032e+01 6.333083592836e+00 0.0 
6.333083592836e+00 -9.552306262471e+01 0.0 
0.0 0.0 -3.799722522651e+01 
-7.635244666683e+01 1.001565871695e+00 0.0 
1.001565871695e+00 -1.636770216947e+02 0.0 
0.0 0.0 -7.160884050846e+01 
-6.408027416184e+01 1.028867981275e+01 0.0 
1.028867981275e+01 -1.630710186874e+02 0.0 
0.0 0.0 -6.774538785478e+01 
-4.530311572457e+01 3.735234708365e+00 0.0 
3.735234708365e+00 -1.254335413332e+02 0.0 
0.0 0.0 -5.082099711732e+01 
-1.087739058374e+02 3.979113701566e+00 0.0 
3.979113701566e+00 -2.408995407748e+02 0.0 
0.0 0.0 -1.045020339837e+02 
-1.521144561402e+01 4.157634211804e-01 0.0 
4.157634211804e-01 -6.568922103794e+00 0.0 
0.0 0.0 -6.134110315345e+00 
-8.660944027793e+01 4.193440387892e+00 0.0 
4.193440387892e+00 -1.837668427241e+02 0.0 
0.0 0.0 -8.071288490060e+01 
-4.383167562674e+01 8.375853683766e+00 0.0 
8.375853683766e+00 -1.201871396402e+02 0.0 
0.0 0.0 -4.880564458009e+01 
-3.319768414691e+01 1.227254207292e+01 0.0 
1.227254207292e+01 -8.396220150358e+01 0.0 
0.0 0.0 -3.474796569515e+01 
-3.396851552163e+01 6.298796805729e+00 0.0 
6.298796805729e+00 -9.614908914957e+01 0.0 
0.0 0.0 -3.863528140136e+01 
-9.334287045061e+01 3.715755244131e+00 0.0 
3.715755244131e+00 -2.015521989360e+02 0.0 
0.0 0.0 -8.806852081597e+01 
-1.837340999016e+01 -9.595298156527e-01 0.0 
-9.595298156527e-01 -4.138378026103e+01 0.0 
0.0 0.0 -1.752715707536e+01 
-5.283937084186e+01 5.357293434178e+00 0.0 
5.357293434178e+00 -1.059264992718e+02 0.0 
0.0 0.0 -4.722976103410e+01 
-9.282996893015e+01 8.378295696336e+00 0.0 
8.378295696336e+00 -2.293933159208e+02 0.0 
0.0 0.0 -9.626698545528e+01 
-8.540406464094e+01 3.083088519173e+00 0.0 
3.083088519173e+00 -1.822234696475e+02 0.0 
0.0 0.0 -7.988826028652e+01 
-8.381049219473e+01 1.828324486895e+00 0.0 
1.828324486895e+00 -1.809747426618e+02 0.0 
0.0 0.0 -7.903557045696e+01 
-1.845871914683e+01 3.001742042530e+00 0.0 
3.001742042530e+00 -5.261538087443e+01 0.0 
0.0 0.0 -2.092223000638e+01 
-4.372600511667e+01 3.344938738525e+00 0.0 
3.344938738525e+00 -1.246791648208e+02 0.0 
0.0 0.0 -5.012155098125e+01 
-4.210209667024e+01 2.451310590791e+00 0.0 
2.451310590791e+00 -1.163864062397e+02 0.0 
0.0 0.0 -4.714655087298e+01 
-4.545580291129e+01 7.894618406477e+00 0.0 
7.894618406477e+00 -8.700079258855e+01 0.0 
0.0 0.0 -3.933697864995e+01 
-1.062280496160e+02 5.265605809912e+00 0.0 
5.265605809912e+00 -2.323319032449e+02 0.0 
0.0 0.0 -1.011679858583e+02 
-5.382056887844e+01 8.451106932719e+00 0.0 
8.451106932719e+00 -1.070055908217e+02 0.0 
0.0 0.0 -4.784784791004e+01 
-5.980103168809e+01 8.512847440199e+00 0.0 
8.512847440199e+00 -1.558978313114e+02 0.0 
0.0 0.0 -6.430965889986e+01 
-5.629578682638e+01 9.388123192061e+00 0.0 
9.388123192061e+00 -1.447035259470e+02 0.0 
0.0 0.0 -5.989979383201e+01 
-2.231572125794e+01 4.390885885092e+00 0.0 
4.390885885092e+00 -6.085768470608e+01 0.0 
0.0 0.0 -2.455202178921e+01 
-7.080237108442e+01 9.848418432637e+00 0.0 
9.848418432637e+00 -1.653603591056e+02 0.0 
0.0 0.0 -7.044881905700e+01 
-2.055929350979e+01 1.118632077411e+01 0.0 
1.118632077411e+01 -4.956012289488e+01 0.0 
0.0 0.0 -2.063582492140e+01 
-1.430082419709e+02 6.286988527052e+00 0.0 
6.286988527052e+00 -3.310104206304e+02 0.0 
0.0 0.0 -1.418055987804e+02 
-1.430911008638e+02 7.642916567910e+00 0.0 
7.642916567910e+00 -3.319192186322e+02 0.0 
0.0 0.0 -1.421030958488e+02 
-8.099238981511e+01 7.737935345408e+00 0.0 
7.737935345408e+00 -1.767611755214e+02 0.0 
0.0 0.0 -7.692606960094e+01 
-3.617555318958e+01 8.087376409246e+00 0.0 
8.087376409246e+00 -1.025983201781e+02 0.0 
0.0 0.0 -4.123216201030e+01 
-2.970870989671e+01 1.078840700797e+01 0.0 
1.078840700797e+01 -7.948858326292e+01 0.0 
0.0 0.0 -3.235918794789e+01 
-8.949076448146e+01 5.182779317820e+00 0.0 
5.182779317820e+00 -1.924748212191e+02 0.0 
0.0 0.0 -8.418967571017e+01 
-3.330525504999e+01 9.532627915581e+00 0.0 
9.532627915581e+00 -9.166993876290e+01 0.0 
0.0 0.0 -3.709255814387e+01 
-4.039555389082e+01 1.933115618831e+00 0.0 
1.933115618831e+00 -1.155482310998e+02 0.0 
0.0 0.0 -4.638313549717e+01 
-7.759424793320e+01 5.151269256654e+00 0.0 
5.151269256654e+00 -1.637407045294e+02 0.0 
0.0 0.0 -7.200048573877e+01 
-1.340450276413e+02 2.370835338519e+00 0.0 
2.370835338519e+00 -3.106738426091e+02 0.0 
0.0 0.0 -1.330156610751e+02 
-4.820408948394e+01 9.490029621413e+00 0.0 
9.490029621413e+00 -1.266279933983e+02 0.0 
0.0 0.0 -5.204962486468e+01 
-1.018811835171e+02 9.048956241622e+00 0.0 
9.048956241622e+00 -2.445678017371e+02 0.0 
0.0 0.0 -1.035346955763e+02 
-2.246633187465e+01 1.002950341356e+01 0.0 
1.002950341356e+01 -6.214362911819e+01 0.0 
0.0 0.0 -2.498298829785e+01 
-1.568920191196e+02 9.719887046053e+00 0.0 
9.719887046053e+00 -3.706847455712e+02 0.0 
0.0 0.0 -1.578730294072e+02 
-3.269593676872e+01 9.314389196645e+00 0.0 
9.314389196645e+00 -9.136156099338e+01 0.0 
0.0 0.0 -3.681724932863e+01 
-8.145123987425e+01 6.173681920392e+00 0.0 
6.173681920392e+00 -1.743066240658e+02 0.0 
0.0 0.0 -7.632735918200e+01 
-2.334734257180e+01 3.618164899686e+00 0.0 
3.618164899686e+00 -7.026112812456e+01 0.0 
0.0 0.0 -2.768254120891e+01 
-9.973003845341e+01 6.183139949029e+00 0.0 
6.183139949029e+00 -2.517736903634e+02 0.0 
0.0 0.0 -1.050511186451e+02 
-6.449305990235e+01 9.203257989310e+00 0.0 
9.203257989310e+00 -1.629980246054e+02 0.0 
0.0 0.0 -6.784732535232e+01 
-4.419447805055e+01 1.435798012320e+00 0.0 
1.435798012320e+00 -1.247344513415e+02 0.0 
0.0 0.0 -5.027867881760e+01 
-8.277020302162e+01 5.524844067862e+00 0.0 
5.524844067862e+00 -1.735912924178e+02 0.0 
0.0 0.0 -7.650844863183e+01 
-1.455593557242e+02 9.669123625339e+00 0.0 
9.669123625339e+00 -3.376934803584e+02 0.0 
0.0 0.0 -1.445758508248e+02 
-5.174082597639e+01 8.500413369147e+00 0.0 
8.500413369147e+00 -1.379455724810e+02 0.0 
0.0 0.0 -5.650591953723e+01 
-9.274559905716e+01 9.649315153307e+00 0.0 
9.649315153307e+00 -2.296136398820e+02 0.0 
0.0 0.0 -9.630777168176e+01 
-2.347296404719e+01 1.006162770264e+01 0.0 
1.006162770264e+01 -6.257748337372e+01 0.0 
0.0 0.0 -2.541513422627e+01 
-9.690850884331e+01 9.008993785474e-01 0.0 
9.008993785474e-01 -2.151423152699e+02 0.0 
0.0 0.0 -9.321524723398e+01 
-1.124440293281e+02 4.916097434592e+00 0.0 
4.916097434592e+00 -2.813423611795e+02 0.0 
0.0 0.0 -1.177359171523e+02 
-3.429099522023e+01 1.314477269966e+01 0.0 
1.314477269966e+01 -7.485191795292e+01 0.0 
0.0 0.0 -3.234287395195e+01 
-9.383172370527e+01 2.242191626641e+00 0.0 
2.242191626641e+00 -2.068600418967e+02 0.0 
0.0 0.0 -8.980752968059e+01 
-1.475387433819e+02 1.131397013626e+01 0.0 
1.131397013626e+01 -3.431163558755e+02 0.0 
0.0 0.0 -1.467965297772e+02 
-1.216657175021e+02 5.414575861206e+00 0.0 
5.414575861206e+00 -3.005455833067e+02 0.0 
0.0 0.0 -1.262633902426e+02 
-1.449703401837e+02 8.978368463903e+00 0.0 
8.978368463903e+00 -3.358127609064e+02 0.0 
0.0 0.0 -1.438349303270e+02 
-9.399541594008e+01 2.761177962520e+00 0.0 
2.761177962520e+00 -2.052992550709e+02 0.0 
0.0 0.0 -8.938840130329e+01 
-1.136421163603e+02 7.650581334422e+00 0.0 
7.650581334422e+00 -2.510805701345e+02 0.0 
0.0 0.0 -1.090168059484e+02 
-2.662616055502e+01 1.313823017787e+01 0.0 
1.313823017787e+01 -5.513278440659e+01 0.0 
0.0 0.0 -2.412768348848e+01 
-7.481727670708e+01 4.906584256925e+00 0.0 
4.906584256925e+00 -1.544830215010e+02 0.0 
0.0 0.0 -6.839008946241e+01 
-8.558866830813e+01 4.252985402795e+00 0.0 
4.252985402795e+00 -1.824050927043e+02 0.0 
0.0 0.0 -7.999812830374e+01 
-9.064584102001e+01 6.080989265499e+00 0.0 
6.080989265499e+00 -1.928449335879e+02 0.0 
0.0 0.0 -8.464723238237e+01 
-7.321505390629e+01 1.004481350670e+01 0.0 
1.004481350670e+01 -1.576741568766e+02 0.0 
0.0 0.0 -6.886676323488e+01 
-1.491113728307e+02 1.222108347817e+01 0.0 
1.222108347817e+01 -3.477247829235e+02 0.0 
0.0 0.0 -1.486508467263e+02 
-8.994589283602e+01 1.715595259616e+00 0.0 
1.715595259616e+00 -1.948028595283e+02 0.0 
0.0 0.0 -8.502462570930e+01 
-7.868099445287e+01 3.480207316116e+00 0.0 
3.480207316116e+00 -1.650178424340e+02 0.0 
0.0 0.0 -7.270965106606e+01 
-5.597712122516e+01 1.029724220649e+01 0.0 
1.029724220649e+01 -1.447656773534e+02 0.0 
0.0 0.0 -5.982283957356e+01 
-3.345193851554e+01 -1.819391421094e+00 0.0 
-1.819391421094e+00 -8.795231882977e+01 0.0 
0.0 0.0 -3.602127720360e+01 
-7.068964624689e+01 3.943788150281e+00 0.0 
3.943788150281e+00 -1.450996209605e+02 0.0 
0.0 0.0 -6.433678016222e+01 
-3.836031077173e+01 1.109585159173e+01 0.0 
1.109585159173e+01 -8.876460274147e+01 0.0 
0.0 0.0 -3.773747405396e+01 
-7.343985424741e+01 2.473856492959e-01 0.0 
2.473856492959e-01 -1.624264648338e+02 0.0 
0.0 0.0 -7.035989572437e+01 
-4.585078882666e+01 1.967420154813e+00 0.0 
1.967420154813e+00 -1.255498290109e+02 0.0 
0.0 0.0 -5.102018535127e+01 
-4.805799832545e+01 1.020402408002e+01 0.0 
1.020402408002e+01 -1.267118541140e+02 0.0 
0.0 0.0 -5.203095573182e+01 
-1.126672796980e+02 3.827708620018e+00 0.0 
3.827708620018e+00 -2.512835512484e+02 0.0 
0.0 0.0 -1.087852492839e+02 
-3.746793192449e+01 1.301613859584e+01 0.0 
1.301613859584e+01 -8.874312829345e+01 0.0 
0.0 0.0 -3.746331806538e+01 
-7.761791376149e+01 3.642014718707e+00 0.0 
3.642014718707e+00 -1.631023468915e+02 0.0 
0.0 0.0 -7.181607819590e+01 
-9.658374498418e+01 7.888038961397e+00 0.0 
7.888038961397e+00 -2.400090100406e+02 0.0 
0.0 0.0 -1.005778265074e+02 
-8.639594897074e+01 2.465898825570e+00 0.0 
2.465898825570e+00 -2.246917745947e+02 0.0 
0.0 0.0 -9.292631706962e+01 
-1.519609808672e+02 1.258957884854e+01 0.0 
1.258957884854e+01 -3.556388072943e+02 0.0 
0.0 0.0 -1.518799364484e+02 
-6.272733124814e+01 4.646007363090e+00 0.0 
4.646007363090e+00 -1.262815607703e+02 0.0 
0.0 0.0 -5.630266760554e+01 
-3.987770991006e+01 4.180753246184e+00 0.0 
4.180753246184e+00 -1.151630858355e+02 0.0 
0.0 0.0 -4.611223872367e+01 
-6.018906191932e+01 1.164050994348e+00 0.0 
1.164050994348e+00 -1.595984438280e+02 0.0 
0.0 0.0 -6.553625172419e+01 
-3.544698953390e+01 1.059893238969e+01 0.0 
1.059893238969e+01 -6.684947733041e+01 0.0 
0.0 0.0 -3.028894005929e+01 
-3.494311897085e+01 1.039825525978e+01 0.0 
1.039825525978e+01 -7.469753391232e+01 0.0 
0.0 0.0 -3.249219586495e+01 
-1.215826356924e+02 7.296148008649e+00 0.0 
7.296148008649e+00 -2.717385802968e+02 0.0 
0.0 0.0 -1.175963647968e+02 
-8.628036044134e+01 7.946522415643e+00 0.0 
7.946522415643e+00 -1.840801098719e+02 0.0 
0.0 0.0 -8.070814109398e+01 
-5.414726723327e+01 5.929593819168e+00 0.0 
5.929593819168e+00 -1.061063088343e+02 0.0 
0.0 0.0 -4.767607282028e+01 
-6.957412838551e+01 2.964353891239e+00 0.0 
2.964353891239e+00 -1.439683044207e+02 0.0 
0.0 0.0 -6.366272984187e+01 
-1.543843817393e+02 1.140268851995e+01 0.0 
1.140268851995e+01 -3.642565945411e+02 0.0 
0.0 0.0 -1.551922928841e+02 
-1.451675115334e+02 1.143261680992e+01 0.0 
1.143261680992e+01 -3.438310203561e+02 0.0 
0.0 0.0 -1.462995595669e+02 
-1.202363685913e+02 5.301741694489e+00 0.0 
5.301741694489e+00 -2.705515711808e+02 0.0 
0.0 0.0 -1.168363819316e+02 
-1.101957363972e+02 5.075720908993e+00 0.0 
5.075720908993e+00 -2.428486567872e+02 0.0 
0.0 0.0 -1.055133179553e+02 
-8.332872648755e+01 3.862874952589e+00 0.0 
3.862874952589e+00 -2.161959762700e+02 0.0 
0.0 0.0 -8.945741082725e+01 
-5.734944981907e+01 9.863676230616e+00 0.0 
9.863676230616e+00 -1.179920738296e+02 0.0 
0.0 0.0 -5.220245709460e+01 
-3.701683525767e+01 8.244660351738e+00 0.0 
8.244660351738e+00 -1.029902224129e+02 0.0 
0.0 0.0 -4.160211730118e+01 
-4.423614957019e+01 8.773710375082e+00 0.0 
8.773710375082e+00 -1.204457341448e+02 0.0 
0.0 0.0 -4.900456511450e+01 
-8.205234774575e+01 8.556649295835e+00 0.0 
8.556649295835e+00 -1.750647100343e+02 0.0 
0.0 0.0 -7.673511733402e+01 
-9.615270899987e+01 7.840159131084e+00 0.0 
7.840159131084e+00 -2.422930395101e+02 0.0 
0.0 0.0 -1.011337245530e+02 
-7.486994660134e+01 1.174904447557e+00 0.0 
1.174904447557e+00 -1.934635559027e+02 0.0 
0.0 0.0 -8.010005075120e+01 
-1.202238091895e+02 4.442562518402e+00 0.0 
4.442562518402e+00 -2.712561685037e+02 0.0 
0.0 0.0 -1.170439933080e+02 
-4.147789035245e+01 4.404883990572e+00 0.0 
4.404883990572e+00 -1.158908841338e+02 0.0 
0.0 0.0 -4.681063234586e+01 
-6.860569245362e+01 1.081291302690e+01 0.0 
1.081291302690e+01 -1.495478171892e+02 0.0 
0.0 0.0 -6.504605289286e+01 
-8.158381531724e+01 4.643073840015e+00 0.0 
4.643073840015e+00 -1.729078134451e+02 0.0 
0.0 0.0 -7.594748862872e+01 
-6.067396506263e+01 1.094179052371e+01 0.0 
1.094179052371e+01 -1.297263686001e+02 0.0 
0.0 0.0 -5.672010009883e+01 
-1.446243250802e+02 8.341833675110e+00 0.0 
8.341833675110e+00 -3.341355508309e+02 0.0 
0.0 0.0 -1.432279627733e+02 
-1.425713328474e+02 6.669250445345e+00 0.0 
6.669250445345e+00 -3.309907157588e+02 0.0 
0.0 0.0 -1.416686145819e+02 
-1.359220483913e+02 7.568963421047e+00 0.0 
7.568963421047e+00 -3.106822823131e+02 0.0 
0.0 0.0 -1.335812992113e+02 
-9.155945696361e+01 4.418158409611e+00 0.0 
4.418158409611e+00 -2.348197878085e+02 0.0 
0.0 0.0 -9.751377343162e+01 
-1.164372770066e+02 3.038393977618e+00 0.0 
3.038393977618e+00 -2.625398136408e+02 0.0 
0.0 0.0 -1.132931271942e+02 
-3.046209105481e+01 1.127008199733e+01 0.0 
1.127008199733e+01 -7.015419269729e+01 0.0 
0.0 0.0 -2.978488512563e+01 
-5.184486980778e+01 9.111156003690e+00 0.0 
9.111156003690e+00 -1.381239378210e+02 0.0 
0.0 0.0 -5.659064228863e+01 
-2.786761491080e+01 5.315744193275e+00 0.0 
5.315744193275e+00 -7.888824731287e+01 0.0 
0.0 0.0 -3.162675866710e+01 
-5.822581529082e+01 7.395458983636e+00 0.0 
7.395458983636e+00 -1.162202959852e+02 0.0 
0.0 0.0 -5.193383338280e+01 
-7.649950369480e+01 1.038309288756e+00 0.0 
1.038309288756e+00 -1.637519116356e+02 0.0 
0.0 0.0 -7.167542459912e+01 
-9.285189529985e+01 8.552459134440e-01 0.0 
8.552459134440e-01 -2.045540075662e+02 0.0 
0.0 0.0 -8.882177085982e+01 
-1.481266459903e+02 9.428720327424e+00 0.0 
9.428720327424e+00 -3.534085572399e+02 0.0 
0.0 0.0 -1.500605609690e+02 
-1.198380122771e+02 6.147477372808e+00 0.0 
6.147477372808e+00 -2.698577279113e+02 0.0 
0.0 0.0 -1.165087220565e+02 
-8.939590670130e+01 2.920353919909e+00 0.0 
2.920353919909e+00 -1.920558365603e+02 0.0 
0.0 0.0 -8.403552297847e+01 
-9.339722545686e+01 4.824846965902e+00 0.0 
4.824846965902e+00 -2.018084360066e+02 0.0 
0.0 0.0 -8.816169843904e+01 
-2.937843420667e+01 4.481370695782e+00 0.0 
4.481370695782e+00 -8.786501723914e+01 0.0 
0.0 0.0 -3.477303543374e+01 
-1.922002480402e+01 -1.465895051904e+00 0.0 
-1.465895051904e+00 -4.200215836599e+01 0.0 
0.0 0.0 -1.796665495100e+01 
-6.593203988156e+01 9.997492307646e+00 0.0 
9.997492307646e+00 -1.582848279600e+02 0.0 
0.0 0.0 -6.686506035248e+01 
-7.648066161765e+01 1.070751501130e+01 0.0 
1.070751501130e+01 -1.690599700153e+02 0.0 
0.0 0.0 -7.326218948989e+01 
-7.004006073245e+01 1.167551344447e+01 0.0 
1.167551344447e+01 -1.654104287780e+02 0.0 
0.0 0.0 -7.023514685313e+01 
-1.408497094834e+01 9.087046025277e+00 0.0 
9.087046025277e+00 -2.929948818794e+01 0.0 
0.0 0.0 -1.261533774088e+01 
-8.021291466189e+01 -1.484050154987e-01 0.0 
-1.484050154987e-01 -1.790531673327e+02 0.0 
0.0 0.0 -7.737982459837e+01 
-3.150998885143e+01 -6.972206290539e-01 0.0 
-6.972206290539e-01 -8.087142375336e+01 0.0 
0.0 0.0 -3.331442378144e+01 
-3.691373032317e+01 1.048475288234e+01 0.0 
1.048475288234e+01 -9.681416799348e+01 0.0 
0.0 0.0 -3.971836949500e+01 
-1.582510358732e+02 9.604369697154e+00 0.0 
9.604369697154e+00 -3.705857503707e+02 0.0 
0.0 0.0 -1.582510358732e+02 
-1.059146692591e+02 1.028219238063e+01 0.0 
1.028219238063e+01 -2.564436446448e+02 0.0 
0.0 0.0 -1.083074941712e+02 
-7.720441943544e+01 1.530154955383e+00 0.0 
1.530154955383e+00 -1.640484833590e+02 0.0 
0.0 0.0 -7.197587083834e+01 
-2.318770645385e+01 -7.243804037250e-01 0.0 
-7.243804037250e-01 -5.899709428677e+01 0.0 
0.0 0.0 -2.425544022218e+01 
-7.310887778234e+01 7.565143247898e+00 0.0 
7.565143247898e+00 -1.571420252213e+02 0.0 
0.0 0.0 -6.867527090110e+01 
-6.520449875782e+01 1.159289624957e+01 0.0 
1.159289624957e+01 -1.582973773548e+02 0.0 
0.0 0.0 -6.665056283377e+01 
-9.453536811106e+01 5.787848703494e+00 0.0 
5.787848703494e+00 -2.024358983892e+02 0.0 
0.0 0.0 -8.869137995008e+01 
-1.460460154054e+02 1.006234009290e+01 0.0 
1.006234009290e+01 -3.393184886286e+02 0.0 
0.0 0.0 -1.452093512102e+02 
-7.357727977454e+01 2.672810379677e+00 0.0 
2.672810379677e+00 -1.535942966532e+02 0.0 
0.0 0.0 -6.775147292832e+01 
-9.039023220749e+01 7.425555084857e+00 0.0 
7.425555084857e+00 -1.932696881514e+02 0.0 
0.0 0.0 -8.469797610766e+01 
-7.388946004599e+01 -1.596751111558e-01 0.0 
-1.596751111558e-01 -1.927618348831e+02 0.0 
0.0 0.0 -7.959538847871e+01 
-1.164958936484e+02 3.772237238627e+00 0.0 
3.772237238627e+00 -2.616696458604e+02 0.0 
0.0 0.0 -1.130496618526e+02 
-9.483745868711e+01 2.955955574720e+00 0.0 
2.955955574720e+00 -2.435606602180e+02 0.0 
0.0 0.0 -1.011194356715e+02 
-1.471276063785e+02 1.089003247529e+01 0.0 
1.089003247529e+01 -3.411950567255e+02 0.0 
0.0 0.0 -1.460967989312e+02 
-1.426162775216e+02 8.221712337043e+00 0.0 
8.221712337043e+00 -3.341046475503e+02 0.0 
0.0 0.0 -1.426162775216e+02 
-1.407434296288e+02 5.741976557191e+00 0.0 
5.741976557191e+00 -3.297346691339e+02 0.0 
0.0 0.0 -1.407434296288e+02 
-1.409759176412e+02 6.901853443170e+00 0.0 
6.901853443170e+00 -3.302771411627e+02 0.0 
0.0 0.0 -1.409759176412e+02 
-9.727861914060e+01 4.541381351141e+00 0.0 
4.541381351141e+00 -2.113020704743e+02 0.0 
0.0 0.0 -9.217420688447e+01 
-1.177297796168e+02 5.580386403129e+00 0.0 
5.580386403129e+00 -2.625315883483e+02 0.0 
0.0 0.0 -1.136784103895e+02 
-1.240140248719e+02 6.081325125764e+00 0.0 
6.081325125764e+00 -2.807859835967e+02 0.0 
0.0 0.0 -1.210400025406e+02 
-6.072008148061e+01 8.193608493485e+00 0.0 
8.193608493485e+00 -1.292666634463e+02 0.0 
0.0 0.0 -5.659602347807e+01 
-5.684055872821e+01 6.898401928245e+00 0.0 
6.898401928245e+00 -1.172408985750e+02 0.0 
0.0 0.0 -5.182443719097e+01 
-7.073291887539e+01 8.435126371772e-01 0.0 
8.435126371772e-01 -1.828321773912e+02 0.0 
0.0 0.0 -7.566952887997e+01 
-1.215643977852e+02 6.379405623995e+00 0.0 
6.379405623995e+00 -2.722351106416e+02 0.0 
0.0 0.0 -1.177398525280e+02 
-1.482617203633e+02 1.185342922238e+01 0.0 
1.185342922238e+01 -3.452483970270e+02 0.0 
0.0 0.0 -1.476530352171e+02 
-1.202004331409e+02 3.650584462003e+00 0.0 
3.650584462003e+00 -2.718586945644e+02 0.0 
0.0 0.0 -1.172177383116e+02 
-9.731981126573e+01 1.019562117127e+01 0.0 
1.019562117127e+01 -2.373475351024e+02 0.0 
0.0 0.0 -1.000002039105e+02 
-1.213461026413e+02 5.418372977617e+00 0.0 
5.418372977617e+00 -2.726906813168e+02 0.0 
0.0 0.0 -1.178110351874e+02 
-1.080541454316e+02 1.061335186381e+01 0.0 
1.061335186381e+01 -2.464806957212e+02 0.0 
0.0 0.0 -1.059604523458e+02 
-7.227520067411e+01 9.108340056068e+00 0.0 
9.108340056068e+00 -1.609841687604e+02 0.0 
0.0 0.0 -6.957781083035e+01 
-5.711789306836e+01 4.579087560832e+00 0.0 
4.579087560832e+00 -1.153261139659e+02 0.0 
0.0 0.0 -5.133320211027e+01 
-2.565321639865e+01 8.896138389558e+00 0.0 
8.896138389558e+00 -7.411536902631e+01 0.0 
0.0 0.0 -2.953057562749e+01 
-1.338929155499e+02 3.315099301455e+00 0.0 
3.315099301455e+00 -3.111493966069e+02 0.0 
0.0 0.0 -1.331126936470e+02 
-5.635000880261e+01 9.204158791965e+00 0.0 
9.204158791965e+00 -1.218900089308e+02 0.0 
0.0 0.0 -5.307200532002e+01 
-1.357095611982e+02 1.031705723564e+01 0.0 
1.031705723564e+01 -3.137331308908e+02 0.0 
0.0 0.0 -1.344328076267e+02 
-6.981638476369e+01 -5.285027197852e-01 0.0 
-5.285027197852e-01 -1.821490300416e+02 0.0 
0.0 0.0 -7.518962444160e+01 
-4.263190549746e+01 9.544119037305e-01 0.0 
9.544119037305e-01 -1.157060944033e+02 0.0 
0.0 0.0 -4.710139997021e+01 
-1.503165777809e+02 8.526502148468e+00 0.0 
8.526502148468e+00 -3.555230813533e+02 0.0 
0.0 0.0 -1.513518977403e+02 
-4.152903616345e+01 1.100740657879e+01 0.0 
1.100740657879e+01 -1.019993309057e+02 0.0 
0.0 0.0 -4.265851012073e+01 
-1.433913231378e+02 8.883686071377e+00 0.0 
8.883686071377e+00 -3.359130873216e+02 0.0 
0.0 0.0 -1.433913231378e+02 
-1.355100196249e+02 6.075960345986e+00 0.0 
6.075960345986e+00 -3.137997679757e+02 0.0 
0.0 0.0 -1.343929362802e+02 
-8.927025518384e+01 6.560789800584e+00 0.0 
6.560789800584e+00 -1.938493177068e+02 0.0 
0.0 0.0 -8.453587186718e+01 
-1.265587346902e+01 -1.042867463292e+00 0.0 
-1.042867463292e+00 -2.485500520083e+01 0.0 
0.0 0.0 -1.128031242978e+01 
-1.448313311631e+02 1.002490316430e+01 0.0 
1.002490316430e+01 -3.392731060471e+02 0.0 
0.0 0.0 -1.448313311631e+02 
-1.488583165531e+02 9.883770614985e+00 0.0 
9.883770614985e+00 -3.514261105392e+02 0.0 
0.0 0.0 -1.496853281277e+02 
-4.092671269729e+01 2.921404862324e-01 0.0 
2.921404862324e-01 -1.148403036905e+02 0.0 
0.0 0.0 -4.633010491635e+01 
-1.012793989273e+02 9.761047749756e+00 0.0 
9.761047749756e+00 -2.484229532401e+02 0.0 
0.0 0.0 -1.045107056502e+02 
-1.522617854707e+02 1.244329312329e+01 0.0 
1.244329312329e+01 -3.577735732754e+02 0.0 
0.0 0.0 -1.526106076238e+02 
-8.429506442973e+00 -4.353633568341e-01 0.0 
-4.353633568341e-01 -8.932388057240e+00 0.0 
0.0 0.0 -5.778481492852e+00 
-6.440732618984e+01 9.193256240388e+00 0.0 
9.193256240388e+00 -1.416297749298e+02 0.0 
0.0 0.0 -6.141113033588e+01 
-9.329861356001e+01 6.080492402973e+00 0.0 
6.080492402973e+00 -2.027992227060e+02 0.0 
0.0 0.0 -8.842935087979e+01 
-8.517580253328e+01 7.107242771754e+00 0.0 
7.107242771754e+00 -1.851633103924e+02 0.0 
0.0 0.0 -8.070173387772e+01 
-8.548046815113e+01 5.622642402003e+00 0.0 
5.622642402003e+00 -1.832742489321e+02 0.0 
0.0 0.0 -8.022641512497e+01 
-2.926818760413e+01 1.037254365403e+01 0.0 
1.037254365403e+01 -7.921218933803e+01 0.0 
0.0 0.0 -3.214411308265e+01 
-1.466558097059e+02 1.106833259128e+01 0.0 
1.106833259128e+01 -3.435302226470e+02 0.0 
0.0 0.0 -1.466558097059e+02 
-5.972320688213e+01 9.314826526237e+00 0.0 
9.314826526237e+00 -1.560455018407e+02 0.0 
0.0 0.0 -6.433061261686e+01 
-2.094972792405e+01 2.083127268453e+00 0.0 
2.083127268453e+00 -5.344848722514e+01 0.0 
0.0 0.0 -2.191946454476e+01 
-1.530861233947e+02 3.970708275712e+00 0.0 
3.970708275712e+00 -3.651056321172e+02 0.0 
0.0 0.0 -1.550575266536e+02 
-1.399260675504e+01 -1.001831742071e+00 0.0 
-1.001831742071e+00 -2.512450009293e+01 0.0 
0.0 0.0 -1.133513205439e+01 
-6.551029639769e+01 3.351812592118e+00 0.0 
3.351812592118e+00 -1.344214497917e+02 0.0 
0.0 0.0 -5.957952385683e+01 
-2.222898640686e+01 -8.141577893102e-01 0.0 
-8.141577893102e-01 -5.864542527290e+01 0.0 
0.0 0.0 -2.386232350393e+01 
-6.945023844697e+01 1.751756486985e+00 0.0 
1.751756486985e+00 -1.441756190798e+02 0.0 
0.0 0.0 -6.368775725802e+01 
-1.552533502637e+02 1.095685214859e+01 0.0 
1.095685214859e+01 -3.664376561694e+02 0.0 
0.0 0.0 -1.561073019299e+02 
-1.489395843843e+02 1.171303644871e+01 0.0 
1.171303644871e+01 -3.488590302301e+02 0.0 
0.0 0.0 -1.489395843843e+02 
-8.945140119532e+01 3.941251131687e+00 0.0 
3.941251131687e+00 -1.919124841571e+02 0.0 
0.0 0.0 -8.400916560571e+01 
-1.733066161863e+01 -1.187920761316e+00 0.0 
-1.187920761316e+00 -4.203910104721e+01 0.0 
0.0 0.0 -1.741092879975e+01 
-1.712980467419e+01 1.039867700445e+00 0.0 
1.039867700445e+00 -4.350348505290e+01 0.0 
0.0 0.0 -1.778998691813e+01 
-2.415765644047e+01 -1.125524710139e+00 0.0 
-1.125524710139e+00 -5.814366608493e+01 0.0 
0.0 0.0 -2.429039675762e+01 
-1.309162852160e+02 5.105649951080e+00 0.0 
5.105649951080e+00 -3.192830633935e+02 0.0 
0.0 0.0 -1.346598045829e+02 
-7.639236051497e+01 1.005241168041e+00 0.0 
1.005241168041e+00 -1.636761858766e+02 0.0 
0.0 0.0 -7.162056391747e+01 
-8.243667880016e+01 3.508136674675e+00 0.0 
3.508136674675e+00 -1.744129010752e+02 0.0 
0.0 0.0 -7.665487396260e+01 
-1.512609131381e+02 1.197492443110e+01 0.0 
1.197492443110e+01 -3.542754639889e+02 0.0 
0.0 0.0 -1.512609131381e+02 
-7.578396286573e+01 1.079199200097e+00 0.0 
1.079199200097e+00 -1.636121055987e+02 0.0 
0.0 0.0 -7.141882053932e+01 
-1.421653837592e+02 5.547137518141e+00 0.0 
5.547137518141e+00 -3.302911245895e+02 0.0 
0.0 0.0 -1.413369525046e+02 
-1.114198094983e+02 9.013839462261e+00 0.0 
9.013839462261e+00 -2.569748352371e+02 0.0 
0.0 0.0 -1.101183934206e+02 
-8.868049514929e+01 4.835561964444e-01 0.0 
4.835561964444e-01 -1.953103727884e+02 0.0 
0.0 0.0 -8.479726038131e+01 
-3.898069842596e+01 9.133851845849e+00 0.0 
9.133851845849e+00 -7.999948158833e+01 0.0 
0.0 0.0 -3.529405400429e+01 
-1.012563016310e+02 8.408700714525e+00 0.0 
8.408700714525e+00 -2.481428579701e+02 0.0 
0.0 0.0 -1.044197478803e+02 
-2.483894847013e+01 6.482522900769e+00 0.0 
6.482522900769e+00 -6.903497913154e+01 0.0 
0.0 0.0 -2.776217828050e+01 
-1.533358127819e+02 1.180729090082e+01 0.0 
1.180729090082e+01 -3.591168964912e+02 0.0 
0.0 0.0 -1.533358127819e+02 
-1.417755474674e+02 7.460862672296e+00 0.0 
7.460862672296e+00 -3.321429440905e+02 0.0 
0.0 0.0 -1.417755474674e+02 
-1.410152137882e+02 6.374366594598e+00 0.0 
6.374366594598e+00 -3.303688321725e+02 0.0 
0.0 0.0 -1.410152137882e+02 
-9.579990098486e+01 4.159032234258e+00 0.0 
4.159032234258e+00 -2.442243744118e+02 0.0 
0.0 0.0 -1.016072826190e+02 
-6.656467003541e+01 6.050051122459e-01 0.0 
6.050051122459e-01 -1.720293275620e+02 0.0 
0.0 0.0 -7.117819927921e+01 
-7.176768214503e+01 1.130015203076e+01 0.0 
1.130015203076e+01 -1.612502190874e+02 0.0 
0.0 0.0 -6.950537036972e+01 
-9.904300742967e+01 2.674338748706e+00 0.0 
2.674338748706e+00 -2.526834779879e+02 0.0 
0.0 0.0 -1.051179456253e+02 
-1.552593833990e+02 1.116477713331e+01 0.0 
1.116477713331e+01 -3.636052279310e+02 0.0 
0.0 0.0 -1.552593833990e+02 
-3.675084247252e+01 1.117457190485e+01 0.0 
1.117457190485e+01 -9.689236955108e+01 0.0 
0.0 0.0 -3.969296360708e+01 
-4.757005795038e+01 2.654048441653e+00 0.0 
2.654048441653e+00 -1.339493169887e+02 0.0 
0.0 0.0 -5.405581248171e+01 
-5.138598359112e+01 2.113661465249e+00 0.0 
2.113661465249e+00 -1.430097300149e+02 0.0 
0.0 0.0 -5.791871408180e+01 
-9.298670580743e+01 5.789033763073e-01 0.0 
5.789033763073e-01 -2.062299188199e+02 0.0 
0.0 0.0 -8.936498738820e+01 
-1.574319232897e+02 9.125132986887e+00 0.0 
9.125132986887e+00 -3.723941525196e+02 0.0 
0.0 0.0 -1.585478227428e+02 
-2.016903636509e+01 -1.291232330006e+00 0.0 
-1.291232330006e+00 -4.168848604139e+01 0.0 
0.0 0.0 -1.815725672194e+01 
-1.572317452166e+02 1.015088662923e+01 0.0 
1.015088662923e+01 -3.682074055053e+02 0.0 
0.0 0.0 -1.572317452166e+02 
-4.788796173555e+01 9.619205794203e-01 0.0 
9.619205794203e-01 -1.334272654181e+02 0.0 
0.0 0.0 -5.399456814611e+01 
-1.443065381429e+02 9.508018949694e+00 0.0 
9.508018949694e+00 -3.380485890002e+02 0.0 
0.0 0.0 -1.443065381429e+02 
-1.253538278954e+02 8.036010927539e+00 0.0 
8.036010927539e+00 -2.818302571307e+02 0.0 
0.0 0.0 -1.217552255078e+02 
-9.009282884008e+00 -4.210306808486e-01 0.0 
-4.210306808486e-01 -7.851532375596e+00 0.0 
0.0 0.0 -4.658244577881e+00 
-6.760833481805e+01 9.701482065535e+00 0.0 
9.701482065535e+00 -1.534688724819e+02 0.0 
0.0 0.0 -6.592316219000e+01 
-1.213697491591e+02 4.704296724848e+00 0.0 
4.704296724848e+00 -2.738202327918e+02 0.0 
0.0 0.0 -1.181569945853e+02 
-1.458241147959e+02 1.062707524259e+01 0.0 
1.062707524259e+01 -3.415896011905e+02 0.0 
0.0 0.0 -1.458241147959e+02 
-9.838044197531e+01 6.625949924598e+00 0.0 
6.625949924598e+00 -2.121629208457e+02 0.0 
0.0 0.0 -9.276300884631e+01 
-1.149956826939e+02 9.226855972191e+00 0.0 
9.226855972191e+00 -2.680043919216e+02 0.0 
0.0 0.0 -1.145000223847e+02 
-1.960589519402e+01 8.257901188066e+00 0.0 
8.257901188066e+00 -5.727230170470e+01 0.0 
0.0 0.0 -2.266345906962e+01 
-1.415273797469e+02 9.014797332459e+00 0.0 
9.014797332459e+00 -3.369808470169e+02 0.0 
0.0 0.0 -1.431524680291e+02 
-5.164014420357e+01 6.477551318558e-01 0.0 
6.477551318558e-01 -1.421445510471e+02 0.0 
0.0 0.0 -5.773540857521e+01 
-5.281343486243e+01 2.687826044530e+00 0.0 
2.687826044530e+00 -1.437260348454e+02 0.0 
0.0 0.0 -5.856184091234e+01 
-1.621267921575e+01 -1.121055706454e+00 0.0 
-1.121055706454e+00 -2.584484508459e+01 0.0 
0.0 0.0 -1.221725729010e+01 
-1.477349260109e+02 1.143129136566e+01 0.0 
1.143129136566e+01 -3.460481606921e+02 0.0 
0.0 0.0 -1.477349260109e+02 
-3.040115839003e+01 7.499927275856e+00 0.0 
7.499927275856e+00 -8.580059858700e+01 0.0 
0.0 0.0 -3.446052709311e+01 
-1.271841488506e+02 7.591112227581e+00 0.0 
7.591112227581e+00 -3.105799821000e+02 0.0 
0.0 0.0 -1.309292392852e+02 
-8.515971959567e+01 2.002686730530e+00 0.0 
2.002686730530e+00 -1.858479197676e+02 0.0 
0.0 0.0 -8.090229180899e+01 
-4.603334849678e+01 1.307713427799e-01 0.0 
1.307713427799e-01 -1.224695508717e+02 0.0 
0.0 0.0 -5.015086981055e+01 
-4.904850220330e+01 3.188662391904e+00 0.0 
3.188662391904e+00 -1.346870433381e+02 0.0 
0.0 0.0 -5.472066366241e+01 
-9.443191935204e+01 6.973220015385e+00 0.0 
6.973220015385e+00 -2.026638497387e+02 0.0 
0.0 0.0 -8.872873072723e+01 
-1.523368789813e+02 1.202426977394e+01 0.0 
1.202426977394e+01 -3.567860509563e+02 0.0 
0.0 0.0 -1.523368789813e+02 
-6.942079918241e+01 -7.225671170077e-01 0.0 
-7.225671170077e-01 -1.800997443811e+02 0.0 
0.0 0.0 -7.445616306905e+01 
-1.087827807877e+02 5.474753159217e+00 0.0 
5.474753159217e+00 -2.725720494187e+02 0.0 
0.0 0.0 -1.140064490619e+02 
-8.451900457477e+01 8.446478858590e+00 0.0 
8.446478858590e+00 -1.880797125916e+02 0.0 
0.0 0.0 -8.137961514992e+01 
-9.579205986123e+01 6.478115271153e+00 0.0 
6.478115271153e+00 -2.434062034092e+02 0.0 
0.0 0.0 -1.013594789811e+02 
-5.237076054925e+01 4.461451611145e+00 0.0 
4.461451611145e+00 -1.433110696178e+02 0.0 
0.0 0.0 -5.830454905012e+01 
-1.000382069002e+02 4.950300587560e+00 0.0 
4.950300587560e+00 -2.536000268999e+02 0.0 
0.0 0.0 -1.056914701400e+02 
-8.106242850184e+01 1.005747400210e+01 0.0 
1.005747400210e+01 -1.772341872145e+02 0.0 
0.0 0.0 -7.708898471491e+01 
-1.088550013742e+02 9.920989072610e+00 0.0 
9.920989072610e+00 -2.441519709844e+02 0.0 
0.0 0.0 -1.055020917076e+02 
-1.097678776586e+02 8.501254913338e+00 0.0 
8.501254913338e+00 -2.669811598231e+02 0.0 
0.0 0.0 -1.126247112445e+02 
-8.011321556167e+01 9.007359405104e+00 0.0 
9.007359405104e+00 -1.802497519511e+02 0.0 
0.0 0.0 -7.770889025382e+01 
-7.002131243490e+01 -1.321757277848e-01 0.0 
-1.321757277848e-01 -1.840494702848e+02 0.0 
0.0 0.0 -7.582123481590e+01 
-4.074675573553e+01 1.225295920568e+01 0.0 
1.225295920568e+01 -1.019239787076e+02 0.0 
0.0 0.0 -4.240122033295e+01 
-6.572295535442e+01 -7.981105171077e-01 0.0 
-7.981105171077e-01 -1.713709517405e+02 0.0 
0.0 0.0 -7.072817212848e+01 
-1.115867886221e+02 1.087336708081e+01 0.0 
1.087336708081e+01 -2.575135888855e+02 0.0 
0.0 0.0 -1.103301132523e+02 
-8.814953106459e+01 7.810368445290e+00 0.0 
7.810368445290e+00 -2.214202594074e+02 0.0 
0.0 0.0 -9.247093714161e+01 
-1.561013315891e+02 1.046104995827e+01 0.0 
1.046104995827e+01 -3.686853839950e+02 0.0 
0.0 0.0 -1.570360146752e+02 
-1.250887316344e+02 5.285523205118e+00 0.0 
5.285523205118e+00 -2.829135115907e+02 0.0 
0.0 0.0 -1.220006729675e+02 
-4.125441121293e+01 -1.320757845076e+00 0.0 
-1.320757845076e+00 -1.111127454179e+02 0.0 
0.0 0.0 -4.531014698925e+01 
-1.562339578168e+02 1.065813677949e+01 0.0 
1.065813677949e+01 -3.658792349058e+02 0.0 
0.0 0.0 -1.562339578168e+02 
-1.478242934172e+02 1.007662656769e+01 0.0 
1.007662656769e+01 -3.516863018269e+02 0.0 
0.0 0.0 -1.494531785732e+02 
-7.412552453791e+01 9.760808459444e+00 0.0 
9.760808459444e+00 -1.771954451088e+02 0.0 
0.0 0.0 -7.499629089400e+01 
-1.357848512407e+01 -1.045786315108e+00 0.0 
-1.045786315108e+00 -2.545845966115e+01 0.0 
0.0 0.0 -1.168886695726e+01 
-1.582865844560e+02 8.347813262958e+00 0.0 
8.347813262958e+00 -3.741124813344e+02 0.0 
0.0 0.0 -1.593197197371e+02 
-1.249713566915e+02 6.034778493652e+00 0.0 
6.034778493652e+00 -2.819785852695e+02 0.0 
0.0 0.0 -1.216849825883e+02 
-4.456956469511e+01 -5.294526753377e-03 0.0 
-5.294526753377e-03 -1.235090625720e+02 0.0 
0.0 0.0 -5.002358818013e+01 
-1.589768296831e+02 9.017821056683e+00 0.0 
9.017821056683e+00 -3.722792692606e+02 0.0 
0.0 0.0 -1.589768296831e+02 
-1.043831293479e+02 4.680662023512e+00 0.0 
4.680662023512e+00 -2.631279692306e+02 0.0 
0.0 0.0 -1.098533295735e+02 
-6.116923757457e+01 6.014771392448e+00 0.0 
6.014771392448e+00 -1.259024795329e+02 0.0 
0.0 0.0 -5.572151513224e+01 
-8.548165622594e+01 2.205095516482e+00 0.0 
2.205095516482e+00 -1.828905180012e+02 0.0 
0.0 0.0 -8.011165226814e+01 
-8.430661627538e+01 9.571456790530e+00 0.0 
9.571456790530e+00 -2.109381495496e+02 0.0 
0.0 0.0 -8.817342974749e+01 
-8.743316291189e+01 3.629103360452e+00 0.0 
3.629103360452e+00 -2.253728808014e+02 0.0 
0.0 0.0 -9.344181311399e+01 
-1.002321157004e+02 7.343352089967e+00 0.0 
7.343352089967e+00 -2.522566369384e+02 0.0 
0.0 0.0 -1.053466257916e+02 
-1.023822942327e+02 4.510690967768e+00 0.0 
4.510690967768e+00 -2.230982197850e+02 0.0 
0.0 0.0 -9.724415420529e+01 
-6.959406655786e+01 4.544002440038e+00 0.0 
4.544002440038e+00 -1.443570137904e+02 0.0 
0.0 0.0 -6.378532410449e+01 
-1.143848456979e+02 8.893860751691e+00 0.0 
8.893860751691e+00 -2.752053746820e+02 0.0 
0.0 0.0 -1.164770661140e+02 
-8.730165445384e+01 3.210840922777e-01 0.0 
3.210840922777e-01 -1.956766888346e+02 0.0 
0.0 0.0 -8.449350298653e+01 
-7.109788211409e+01 1.137574501565e+00 0.0 
1.137574501565e+00 -1.847789293513e+02 0.0 
0.0 0.0 -7.636304343960e+01 
-1.050842570026e+02 8.014887527405e+00 0.0 
8.014887527405e+00 -2.587054851262e+02 0.0 
0.0 0.0 -1.087369226386e+02 
-5.307538518115e+01 1.413553791591e+00 0.0 
1.413553791591e+00 -1.428942639127e+02 0.0 
0.0 0.0 -5.839089472817e+01 
-1.025792361339e+02 8.960730007809e-01 0.0 
8.960730007809e-01 -2.587068191821e+02 0.0 
0.0 0.0 -1.079858165948e+02 
-1.001133247388e+01 -4.118481205405e-01 0.0 
-4.118481205405e-01 -7.981341042519e+00 0.0 
0.0 0.0 -4.997802054919e+00 
-4.530565654155e+01 1.271018821828e+01 0.0 
1.271018821828e+01 -1.075233656221e+02 0.0 
0.0 0.0 -4.544870664909e+01 
-4.944441521704e+01 1.645890202505e+00 0.0 
1.645890202505e+00 -1.342268230526e+02 0.0 
0.0 0.0 -5.470137148091e+01 
-7.777262172072e+01 -1.624674922414e-01 0.0 
-1.624674922414e-01 -2.014952915513e+02 0.0 
0.0 0.0 -8.338037398160e+01 
-7.884922968820e+01 9.630157934414e+00 0.0 
9.630157934414e+00 -1.843869164584e+02 0.0 
0.0 0.0 -7.857084384398e+01 
-1.034737293382e+02 3.415394809831e+00 0.0 
3.415394809831e+00 -2.624753085410e+02 0.0 
0.0 0.0 -1.093847113638e+02 
-9.002497124655e+01 1.867683266238e+00 0.0 
1.867683266238e+00 -1.979950235122e+02 0.0 
0.0 0.0 -8.600599842762e+01 
-4.610909386956e+01 8.078854629453e-01 0.0 
8.078854629453e-01 -1.243422626723e+02 0.0 
0.0 0.0 -5.073540696256e+01 
-1.597961080435e+02 8.335855758676e+00 0.0 
8.335855758676e+00 -3.741909187682e+02 0.0 
0.0 0.0 -1.597961080435e+02 
-9.402782411648e+01 8.296697044487e+00 0.0 
8.296697044487e+00 -2.035434841751e+02 0.0 
0.0 0.0 -8.887139248748e+01 
-8.163567538934e+01 -1.818373425887e-01 0.0 
-1.818373425887e-01 -2.101000812557e+02 0.0 
0.0 0.0 -8.712072699351e+01 
-8.982738431378e+01 8.819105204399e+00 0.0 
8.819105204399e+00 -1.945375946143e+02 0.0 
0.0 0.0 -8.490949367842e+01 
-7.864418418349e+01 1.187450590183e+00 0.0 
1.187450590183e+00 -2.021525915675e+02 0.0 
0.0 0.0 -8.383903272529e+01 
-9.153168188218e+00 -4.481300501208e-01 0.0 
-4.481300501208e-01 -8.982025409664e+00 0.0 
0.0 0.0 -6.014804058614e+00 
-9.051549381223e+01 3.987835451314e+00 0.0 
3.987835451314e+00 -1.936719045820e+02 0.0 
0.0 0.0 -8.485621951827e+01 
-6.524877229820e+01 -9.163272436652e-01 0.0 
-9.163272436652e-01 -1.683089984800e+02 0.0 
0.0 0.0 -6.966733123345e+01 
-5.549558243060e+00 -2.990129150803e-01 0.0 
-2.990129150803e-01 -8.787876576973e+00 0.0 
0.0 0.0 -4.855905234656e+00 
-7.736504620549e+01 -5.149971786186e-01 0.0 
-5.149971786186e-01 -1.993415969740e+02 0.0 
0.0 0.0 -8.261199295384e+01 
-1.123229475730e+02 3.872667509866e+00 0.0 
3.872667509866e+00 -2.814304687296e+02 0.0 
0.0 0.0 -1.177260248908e+02 
-1.179517858800e+02 3.552347562526e-01 0.0 
3.552347562526e-01 -2.707476478502e+02 0.0 
0.0 0.0 -1.162098301191e+02 
-9.172666438978e+01 6.966748528038e+00 0.0 
6.966748528038e+00 -2.337108710314e+02 0.0 
0.0 0.0 -9.723126062636e+01 
-9.515905001568e+01 5.376076491772e+00 0.0 
5.376076491772e+00 -2.428672458382e+02 0.0 
0.0 0.0 -1.010078887562e+02 
-7.475204188826e+01 2.668770624768e+00 0.0 
2.668770624768e+00 -1.563068414856e+02 0.0 
0.0 0.0 -6.891766501216e+01 
-6.806510507715e+01 5.058532994323e-01 0.0 
5.058532994323e-01 -1.456732149581e+02 0.0 
0.0 0.0 -6.372149601058e+01 
-1.351997450163e+02 4.690135167715e+00 0.0 
4.690135167715e+00 -3.128333948953e+02 0.0 
0.0 0.0 -1.340099419735e+02 
-8.550353608943e+01 9.419955877663e+00 0.0 
9.419955877663e+00 -1.857336485361e+02 0.0 
0.0 0.0 -8.097115538767e+01 
-4.276221947707e+00 -2.094864312801e-01 0.0 
-2.094864312801e-01 -7.304178321156e+00 0.0 
0.0 0.0 -3.074120080659e+00 
-2.720235986045e+01 -6.543598928198e-01 0.0 
-6.543598928198e-01 -6.893962612622e+01 0.0 
0.0 0.0 -2.844259579600e+01 
-1.328011081360e+01 -1.025108819895e+00 0.0 
-1.025108819895e+00 -2.519513142979e+01 0.0 
0.0 0.0 -1.153608593041e+01 
-4.551154620430e+01 -3.313869722490e-01 0.0 
-3.313869722490e-01 -1.195485385758e+02 0.0 
0.0 0.0 -4.911802543402e+01 
-1.246033219389e+02 9.747000852658e+00 0.0 
9.747000852658e+00 -2.816198444276e+02 0.0 
0.0 0.0 -1.214669499100e+02 
-1.184625168399e+02 2.002335103060e+00 0.0 
2.002335103060e+00 -2.712471137429e+02 0.0 
0.0 0.0 -1.165128891748e+02 
-1.253937063555e+02 3.016618124762e+00 0.0 
3.016618124762e+00 -3.086389073193e+02 0.0 
0.0 0.0 -1.298097841024e+02 
-5.186343593158e+01 1.451891967186e-02 0.0 
1.451891967186e-02 -1.354527530723e+02 0.0 
0.0 0.0 -5.579485670115e+01 
-1.033076265477e+02 2.268943201771e+00 0.0 
2.268943201771e+00 -2.593317577272e+02 0.0 
0.0 0.0 -1.083918152824e+02 
-1.309622314654e+02 5.866038384953e+00 0.0 
5.866038384953e+00 -3.195062992108e+02 0.0 
0.0 0.0 -1.347405592028e+02 
-2.581824607887e+01 3.196371986759e+00 0.0 
3.196371986759e+00 -7.120659469122e+01 0.0 
0.0 0.0 -2.870745223103e+01 
-6.551598408535e+01 7.433300779994e-01 0.0 
7.433300779994e-01 -1.684661440358e+02 0.0 
0.0 0.0 -6.979463843634e+01 
-5.384006675915e+01 -8.683986198212e-01 0.0 
-8.683986198212e-01 -1.388243612271e+02 0.0 
0.0 0.0 -5.739932839587e+01 
-1.584754241707e+02 7.561253754769e+00 0.0 
7.561253754769e+00 -3.751362088459e+02 0.0 
0.0 0.0 -1.596834899050e+02 
-1.603924823197e+02 7.707084073864e+00 0.0 
7.707084073864e+00 -3.755824587460e+02 0.0 
0.0 0.0 -1.603924823197e+02 
-7.289307833688e+01 6.053933695009e-01 0.0 
6.053933695009e-01 -1.869591028180e+02 0.0 
0.0 0.0 -7.755565434647e+01 
-8.249199024947e+01 1.203128367029e+00 0.0 
1.203128367029e+00 -2.107657197079e+02 0.0 
0.0 0.0 -8.757731298721e+01 
-9.052038812274e+01 2.202762273977e+00 0.0 
2.202762273977e+00 -2.337394108760e+02 0.0 
0.0 0.0 -9.687793969962e+01 
-1.356958672210e+02 6.766524246977e+00 0.0 
6.766524246977e+00 -3.286730056310e+02 0.0 
0.0 0.0 -1.389106618556e+02 
-2.946605528631e+01 -1.889811530081e+00 0.0 
-1.889811530081e+00 -7.630301232823e+01 0.0 
0.0 0.0 -3.133072028436e+01 
-1.261431393807e+02 5.070518587446e+00 0.0 
5.070518587446e+00 -3.100282887916e+02 0.0 
0.0 0.0 -1.304514284517e+02 
-1.742637555615e+01 -7.450020785393e-01 0.0 
-7.450020785393e-01 -4.285007752234e+01 0.0 
0.0 0.0 -1.768293592355e+01 
-7.434821153638e+01 8.870631154685e-01 0.0 
8.870631154685e-01 -1.914484787212e+02 0.0 
0.0 0.0 -7.933900707726e+01 
-8.287903774341e+01 1.584683730917e+00 0.0 
1.584683730917e+00 -2.127015201996e+02 0.0 
0.0 0.0 -8.827416738289e+01 
-1.037450021102e+01 -3.963599473962e-01 0.0 
-3.963599473962e-01 -2.554520278121e+01 0.0 
0.0 0.0 -1.075650606744e+01 
-6.934891638596e+01 -7.912814979200e-01 0.0 
-7.912814979200e-01 -1.776392604341e+02 0.0 
0.0 0.0 -7.369645304601e+01 
-1.237352523805e+02 3.636119101164e+00 0.0 
3.636119101164e+00 -2.819305199923e+02 0.0 
0.0 0.0 -1.212997317118e+02 
-3.775145794657e+00 -1.958890256313e-01 0.0 
-1.958890256313e-01 -7.783920695315e+00 0.0 
0.0 0.0 -3.067719946992e+00 
-6.880119628743e+01 5.990038818300e-01 0.0 
5.990038818300e-01 -1.460074670651e+02 0.0 
0.0 0.0 -6.404259900575e+01 
-6.906977454412e+01 8.212503375843e-01 0.0 
8.212503375843e-01 -1.464296473951e+02 0.0 
0.0 0.0 -6.424982658177e+01 
-1.047655002840e+02 8.164414732254e+00 0.0 
8.164414732254e+00 -2.609407880562e+02 0.0 
0.0 0.0 -1.093118865021e+02 
-5.384653684712e+01 6.183328848592e-01 0.0 
6.183328848592e-01 -1.387488110454e+02 0.0 
0.0 0.0 -5.737860436777e+01 
-4.820139802834e+01 -2.135974918525e-01 0.0 
-2.135974918525e-01 -1.321292550067e+02 0.0 
0.0 0.0 -5.369919591052e+01 
-2.625320564481e+01 1.194711571325e+01 0.0 
1.194711571325e+01 -6.652408691806e+01 0.0 
0.0 0.0 -2.743318776886e+01 
-1.389818866067e+02 3.132869761663e+00 0.0 
3.132869761663e+00 -3.360556602894e+02 0.0 
0.0 0.0 -1.421112640688e+02 
-1.411435734198e+02 1.064689066352e+01 0.0 
1.064689066352e+01 -3.285334246589e+02 0.0 
0.0 0.0 -1.405030994236e+02 
-1.140379473800e+02 2.529322605701e+00 0.0 
2.529322605701e+00 -2.586012921981e+02 0.0 
0.0 0.0 -1.113917718734e+02 
-3.894621789573e+01 1.217371782645e+01 0.0 
1.217371782645e+01 -8.053095948830e+01 0.0 
0.0 0.0 -3.544315321521e+01 
-1.933401504791e+01 -2.033732085041e+00 0.0 
-2.033732085041e+00 -4.755947165069e+01 0.0 
0.0 0.0 -1.966804600958e+01 
-7.081548235374e+01 5.330124422136e+00 0.0 
5.330124422136e+00 -1.449340495290e+02 0.0 
0.0 0.0 -6.432485956482e+01 
-6.781006792940e+01 1.935743897620e-01 0.0 
1.935743897620e-01 -1.463374903033e+02 0.0 
0.0 0.0 -6.384426746980e+01 
-6.724420721375e+01 3.003359476346e-01 0.0 
3.003359476346e-01 -1.460721761404e+02 0.0 
0.0 0.0 -6.359491500625e+01 
-5.182544044873e+00 -2.558560774349e-01 0.0 
-2.558560774349e-01 -9.000441234841e+00 0.0 
0.0 0.0 -4.823783034554e+00 
-1.053496920787e+01 -4.604147131389e-01 0.0 
-4.604147131389e-01 -2.540413631300e+01 0.0 
0.0 0.0 -1.080306102622e+01 
-1.594989499848e+01 -8.943889449398e-02 0.0 
-8.943889449398e-02 -4.204757768550e+01 0.0 
0.0 0.0 -1.699924180519e+01 
-3.973523879931e+01 -1.702518789034e+00 0.0 
-1.702518789034e+00 -1.043414991520e+02 0.0 
0.0 0.0 -4.282302138539e+01 
-1.033106144900e+01 -2.937807303123e-01 0.0 
-2.937807303123e-01 -2.579730247754e+01 0.0 
0.0 0.0 -1.043850917796e+01 
-7.686992533752e+01 -7.032970821930e-01 0.0 
-7.032970821930e-01 -1.971582329719e+02 0.0 
0.0 0.0 -8.180844749281e+01 
-1.098062248799e+01 -4.746082623256e-01 0.0 
-4.746082623256e-01 -8.895033204075e+00 0.0 
0.0 0.0 -6.531032072772e+00 
-4.700836853182e+01 -1.506989576568e+00 0.0 
-1.506989576568e+00 -1.238505213212e+02 0.0 
0.0 0.0 -5.085766695591e+01 
-9.437786698564e+01 7.460412106922e-02 0.0 
7.460412106922e-02 -2.127173240355e+02 0.0 
0.0 0.0 -9.172855730633e+01 
-6.808023932630e+01 3.955180929926e-01 0.0 
3.955180929926e-01 -1.458951769672e+02 0.0 
0.0 0.0 -6.379262488804e+01 
-1.284519539190e+02 9.525511463345e+00 0.0 
9.525511463345e+00 -2.904113831112e+02 0.0 
0.0 0.0 -1.252590011091e+02 
-1.077696562883e+02 3.128148052616e+00 0.0 
3.128148052616e+00 -2.716452802989e+02 0.0 
0.0 0.0 -1.134244809762e+02 
-8.689469208425e+01 -1.152559462499e-01 0.0 
-1.152559462499e-01 -1.950811526278e+02 0.0 
0.0 0.0 -8.419275341361e+01 
-5.746308485665e+01 -7.818796489340e-01 0.0 
-7.818796489340e-01 -1.481801720503e+02 0.0 
0.0 0.0 -6.129297707209e+01 
-1.702646740040e+01 -3.176330525802e-01 0.0 
-3.176330525802e-01 -4.260732658637e+01 0.0 
0.0 0.0 -1.749013819603e+01 
-1.393811738218e+02 2.433748459716e+00 0.0 
2.433748459716e+00 -3.265560722510e+02 0.0 
0.0 0.0 -1.393811738218e+02 
-1.403831191701e+02 2.606254535534e+00 0.0 
2.606254535534e+00 -3.269916870736e+02 0.0 
0.0 0.0 -1.398124418731e+02 
-8.442361003537e+01 2.249924435191e-03 0.0 
2.249924435191e-03 -1.853194837310e+02 0.0 
0.0 0.0 -8.052292812991e+01 
-6.759494026102e+01 2.791548902215e-01 0.0 
2.791548902215e-01 -1.458424403712e+02 0.0 
0.0 0.0 -6.363121418966e+01 
-5.839169741438e+01 2.438470450613e-01 0.0 
2.438470450613e-01 -1.502130587591e+02 0.0 
0.0 0.0 -6.218142685204e+01 
-1.402596756905e+02 1.917059795734e+00 0.0 
1.917059795734e+00 -3.267558101202e+02 0.0 
0.0 0.0 -1.397046457432e+02 
-4.446724677232e+01 -2.844415800734e-01 0.0 
-2.844415800734e-01 -1.159759623042e+02 0.0 
0.0 0.0 -4.773296272297e+01 
-6.849115107058e+01 6.185754492827e-01 0.0 
6.185754492827e-01 -1.459377747776e+02 0.0 
0.0 0.0 -6.392867775444e+01 
-6.823408639904e+01 3.281080806434e-01 0.0 
3.281080806434e-01 -1.457739685244e+02 0.0 
0.0 0.0 -6.380241647702e+01 
-6.545368204694e+01 1.987990196792e+00 0.0 
1.987990196792e+00 -1.346046354270e+02 0.0 
0.0 0.0 -5.961749524220e+01 
-1.406839081380e+02 5.252873179756e+00 0.0 
5.252873179756e+00 -3.295957856553e+02 0.0 
0.0 0.0 -1.406839081380e+02 
-1.409854689313e+02 2.136142524343e+00 0.0 
2.136142524343e+00 -3.273077977117e+02 0.0 
0.0 0.0 -1.400879799929e+02 
-1.055573849480e+01 -3.991108283826e-01 0.0 
-3.991108283826e-01 -2.560150193848e+01 0.0 
0.0 0.0 -1.044717212998e+01 
-5.031189312415e+00 -1.706953147494e-01 0.0 
-1.706953147494e-01 -9.102655404067e+00 0.0 
0.0 0.0 -4.817408222241e+00 
-2.265610291265e+01 -1.801465137807e+00 0.0 
-1.801465137807e+00 -5.708961481511e+01 0.0 
0.0 0.0 -2.352371531833e+01 
-8.194942155266e+01 2.440503365080e-01 0.0 
2.440503365080e-01 -2.120217229321e+02 0.0 
0.0 0.0 -8.779134334542e+01 
-1.471750245755e+02 -4.535858889721e-01 0.0 
-4.535858889721e-01 -3.518146311463e+02 0.0 
0.0 0.0 -1.492968967166e+02 
-1.331329674573e+01 -2.831546209832e-01 0.0 
-2.831546209832e-01 -7.201315151885e+00 0.0 
0.0 0.0 -5.754383569285e+00 
-1.114764237278e+02 1.048064127040e+00 0.0 
1.048064127040e+00 -2.550247615927e+02 0.0 
0.0 0.0 -1.095503555962e+02 
-1.049489372785e+01 -4.942624760312e-01 0.0 
-4.942624760312e-01 -9.047612429136e+00 0.0 
0.0 0.0 -6.443701887830e+00 
-1.037725674296e+02 5.710044930775e+00 0.0 
5.710044930775e+00 -2.615152019783e+02 0.0 
0.0 0.0 -1.091863308224e+02 
-1.111602947212e+01 -5.144713287642e-01 0.0 
-5.144713287642e-01 -8.181972335509e+00 0.0 
0.0 0.0 -5.389400542288e+00 
-1.222123392570e+01 -4.453838677420e-01 0.0 
-4.453838677420e-01 -8.124196850817e+00 0.0 
0.0 0.0 -5.703629232955e+00 
-9.921037766652e+01 4.900776532169e+00 0.0 
4.900776532169e+00 -2.524223731649e+02 0.0 
0.0 0.0 -1.050898252494e+02 
-1.421658657230e+02 9.175633905904e-01 0.0 
9.175633905904e-01 -3.417993625725e+02 0.0 
0.0 0.0 -1.447895684886e+02 
-9.398196314191e+01 6.380039293813e-01 0.0 
6.380039293813e-01 -2.114582646517e+02 0.0 
0.0 0.0 -9.123206833809e+01 
-7.474522249580e+01 6.426129030280e+00 0.0 
6.426129030280e+00 -1.546454269922e+02 0.0 
0.0 0.0 -6.841719484639e+01 
-1.018231299515e+01 -2.031889094952e-01 0.0 
-2.031889094952e-01 -2.553564938922e+01 0.0 
0.0 0.0 -1.069788283981e+01 
-1.072811178226e+02 2.143800808326e+00 0.0 
2.143800808326e+00 -2.679027015453e+02 0.0 
0.0 0.0 -1.121551458104e+02 
-1.388110348021e+02 8.300488699301e-01 0.0 
8.300488699301e-01 -3.252257478716e+02 0.0 
0.0 0.0 -1.388110348021e+02 
-1.399500558274e+02 1.441787736497e+00 0.0 
1.441787736497e+00 -3.263372082204e+02 0.0 
0.0 0.0 -1.394861792143e+02 
-6.774285991998e+01 2.673791227369e-01 0.0 
2.673791227369e-01 -1.458361582628e+02 0.0 
0.0 0.0 -6.367370545484e+01 
-1.084061321556e+02 6.486572298725e+00 0.0 
6.486572298725e+00 -2.704436260169e+02 0.0 
0.0 0.0 -1.132549274517e+02 
-1.394508155430e+02 1.899101274881e+00 0.0 
1.899101274881e+00 -3.267185696003e+02 0.0 
0.0 0.0 -1.394508155430e+02 
-1.152697557753e+02 1.108664667226e+01 0.0 
1.108664667226e+01 -2.685073904015e+02 0.0 
0.0 0.0 -1.147331438530e+02 
-1.634523143110e+01 -4.021287795220e-01 0.0 
-4.021287795220e-01 -4.147880073638e+01 0.0 
0.0 0.0 -1.694720965025e+01 
-1.009823968615e+01 -1.913619052703e-01 0.0 
-1.913619052703e-01 -2.558726302282e+01 0.0 
0.0 0.0 -1.030565081269e+01 
-9.820805037600e+00 -2.021134267708e-02 0.0 
-2.021134267708e-02 -2.512728454793e+01 0.0 
0.0 0.0 -1.032569438969e+01 
-6.532752352026e+01 -7.457950405933e-01 0.0 
-7.457950405933e-01 -1.678175009255e+02 0.0 
0.0 0.0 -6.954350733372e+01 
-1.615928526669e+02 2.239212810736e+00 0.0 
2.239212810736e+00 -3.815283539222e+02 0.0 
0.0 0.0 -1.625363619767e+02 
-1.314512343093e+02 9.816236747397e-01 0.0 
9.816236747397e-01 -3.049648351387e+02 0.0 
0.0 0.0 -1.305248208344e+02 
-4.453526972104e+00 -2.223280686603e-02 0.0 
-2.223280686603e-02 -9.074252852455e+00 0.0 
0.0 0.0 -4.627012059039e+00 
-7.721674618955e+01 7.104919265991e-01 0.0 
7.104919265991e-01 -1.973097831678e+02 0.0 
0.0 0.0 -8.195795880722e+01 
-1.637762506288e+02 1.399785802909e+00 0.0 
1.399785802909e+00 -3.834779181338e+02 0.0 
0.0 0.0 -1.637762506288e+02 
-1.610011992995e+02 2.134224899336e+00 0.0 
2.134224899336e+00 -3.807971998025e+02 0.0 
0.0 0.0 -1.621395197306e+02 
-1.590432145931e+02 6.923972888682e+00 0.0 
6.923972888682e+00 -3.761544750862e+02 0.0 
0.0 0.0 -1.601593069038e+02 
-1.035004034218e+02 -7.481904076207e-01 0.0 
-7.481904076207e-01 -2.355450761773e+02 0.0 
0.0 0.0 -1.013136438797e+02 
-1.156902433698e+02 8.969606157619e-01 0.0 
8.969606157619e-01 -2.652441058455e+02 0.0 
0.0 0.0 -1.138803047646e+02 
-1.628913445030e+02 1.941948954593e+00 0.0 
1.941948954593e+00 -3.814131371737e+02 0.0 
0.0 0.0 -1.628913445030e+02 
-1.630995674745e+02 2.585582938795e+00 0.0 
2.585582938795e+00 -3.818989907738e+02 0.0 
0.0 0.0 -1.630995674745e+02 
-1.116199086151e+02 -5.591697395177e-01 0.0 
-5.591697395177e-01 -2.551672146591e+02 0.0 
0.0 0.0 -1.096361369823e+02 
-2.819694291100e+00 -3.103006438611e-01 0.0 
-3.103006438611e-01 -6.787886817107e+00 0.0 
0.0 0.0 -2.482274332462e+00 
-6.661700392012e+01 8.185185028454e-02 0.0 
8.185185028454e-02 -1.452741350735e+02 0.0 
0.0 0.0 -6.316734169810e+01 
-6.751476739651e+01 1.037966343472e-01 0.0 
1.037966343472e-01 -1.461318858482e+02 0.0 
0.0 0.0 -6.369399597342e+01 
-4.739634661067e+00 -9.348766429517e-02 0.0 
-9.348766429517e-02 -9.072501994376e+00 0.0 
0.0 0.0 -4.719792738984e+00 
-1.627383676306e+02 4.322338113877e+00 0.0 
4.322338113877e+00 -3.810561911380e+02 0.0 
0.0 0.0 -1.627383676306e+02 
-1.589554604056e+02 6.089787031677e+00 0.0 
6.089787031677e+00 -3.767021308131e+02 0.0 
0.0 0.0 -1.602972773656e+02 
-1.614010811468e+02 5.602638362003e+00 0.0 
5.602638362003e+00 -3.779358560092e+02 0.0 
0.0 0.0 -1.614010811468e+02 
-3.107436881890e+00 -5.876215415991e-02 0.0 
-5.876215415991e-02 -7.909197536278e+00 0.0 
0.0 0.0 -2.904990325450e+00 
-3.360912947227e+00 -1.814353404063e-01 0.0 
-1.814353404063e-01 -8.011803218692e+00 0.0 
0.0 0.0 -3.011814849776e+00 
-1.607783886253e+02 6.994450689804e+00 0.0 
6.994450689804e+00 -3.764829067924e+02 0.0 
0.0 0.0 -1.607783886253e+02 
-1.611969369111e+02 6.375831415650e+00 0.0 
6.375831415650e+00 -3.774595194593e+02 0.0 
0.0 0.0 -1.611969369111e+02 
-9.927375365362e+01 9.465344485726e-01 0.0 
9.465344485726e-01 -2.256196029412e+02 0.0 
0.0 0.0 -9.706800697844e+01 
-6.603561838691e+01 -1.131811059078e-01 0.0 
-1.131811059078e-01 -1.449283826834e+02 0.0 
0.0 0.0 -6.288920032108e+01 
-1.077105506556e+02 9.358623436847e-01 0.0 
9.358623436847e-01 -2.454318943834e+02 0.0 
0.0 0.0 -1.055427335117e+02 
-8.300459850064e+01 9.055508755041e-01 0.0 
9.055508755041e-01 -1.862454800261e+02 0.0 
0.0 0.0 -8.037502355804e+01 
-6.614521861597e+01 -5.258180027072e-02 0.0 
-5.258180027072e-02 -1.450316189844e+02 0.0 
0.0 0.0 -6.295305128010e+01 
-4.975316887457e+00 -3.658933670167e-01 0.0 
-3.658933670167e-01 -7.573681438920e+00 0.0 
0.0 0.0 -3.364699497913e+00 
-6.567371373412e+00 -1.548482996756e-01 0.0 
-1.548482996756e-01 -8.274830499801e+00 0.0 
0.0 0.0 -4.052660561964e+00 
-7.208417860818e+00 -2.944458947983e-01 0.0 
-2.944458947983e-01 -7.843204819479e+00 0.0 
0.0 0.0 -4.115486804089e+00 
-8.057181091689e+00 -3.379758066343e-01 0.0 
-3.379758066343e-01 -7.973573942515e+00 0.0 
0.0 0.0 -4.409226510261e+00 
-8.124544781291e+01 -8.837251579680e-01 0.0 
-8.837251579680e-01 -2.073141651202e+02 0.0 
0.0 0.0 -8.616788387994e+01 
-7.324925142957e+01 -7.713340023860e-01 0.0 
-7.713340023860e-01 -1.874770271625e+02 0.0 
0.0 0.0 -7.781788357762e+01 
-7.080323672462e+00 -3.305892261493e-01 0.0 
-3.305892261493e-01 -9.019267770685e+00 0.0 
0.0 0.0 -5.406904903880e+00 
-1.062944987122e+02 -8.144465052484e-01 0.0 
-8.144465052484e-01 -2.650122412171e+02 0.0 
0.0 0.0 -1.109920219788e+02 
-7.907423974851e+00 -4.151384986129e-01 0.0 
-4.151384986129e-01 -8.985777867353e+00 0.0 
0.0 0.0 -5.639799725434e+00 
-1.399226439536e+02 4.078023858000e+00 0.0 
4.078023858000e+00 -3.278195025583e+02 0.0 
0.0 0.0 -1.399226439536e+02 
-1.391310119572e+02 1.575025275264e+00 0.0 
1.575025275264e+00 -3.259723612335e+02 0.0 
0.0 0.0 -1.391310119572e+02 
-1.393879285691e+02 2.783563235486e+00 0.0 
2.783563235486e+00 -3.265718333279e+02 0.0 
0.0 0.0 -1.393879285691e+02 
-2.679797724907e+01 -9.410233908760e-01 0.0 
-9.410233908760e-01 -6.876249611627e+01 0.0 
0.0 0.0 -2.826814200960e+01 
-4.983000858740e+01 -8.014794631509e-01 0.0 
-8.014794631509e-01 -1.284535034202e+02 0.0 
0.0 0.0 -5.308505360227e+01 
-1.388483655551e+02 1.305518274371e+00 0.0 
1.305518274371e+00 -3.253128529620e+02 0.0 
0.0 0.0 -1.388483655551e+02 
-1.333960417070e+02 -6.869614569958e-01 0.0 
-6.869614569958e-01 -3.234914364609e+02 0.0 
0.0 0.0 -1.366662434504e+02 
-1.397028838582e+02 1.098796856000e+00 0.0 
1.098796856000e+00 -3.273067290024e+02 0.0 
0.0 0.0 -1.397028838582e+02 
-1.427170050608e+02 -7.335628316569e-01 0.0 
-7.335628316569e-01 -3.428258609259e+02 0.0 
0.0 0.0 -1.452628597960e+02 
-1.522937181450e+02 -8.227840995013e-01 0.0 
-8.227840995013e-01 -3.621105932452e+02 0.0 
0.0 0.0 -1.539212934171e+02 
-6.927212597563e+01 7.382610137167e-01 0.0 
7.382610137167e-01 -1.776071636142e+02 0.0 
0.0 0.0 -7.366378687694e+01 
-1.398144341632e+02 1.600223597540e+00 0.0 
1.600223597540e+00 -3.259839359660e+02 0.0 
0.0 0.0 -1.393395110388e+02 
-1.398092203357e+02 7.254662851275e-01 0.0 
7.254662851275e-01 -3.263409750786e+02 0.0 
0.0 0.0 -1.394450586243e+02 
-1.376888402593e+02 1.149995824771e+00 0.0 
1.149995824771e+00 -3.321912315289e+02 0.0 
0.0 0.0 -1.405640215365e+02 
-1.473240207653e+02 1.193744100211e+00 0.0 
1.193744100211e+00 -3.520116420423e+02 0.0 
0.0 0.0 -1.494006988423e+02 
-1.152997125682e+02 1.780400640658e+00 0.0 
1.780400640658e+00 -2.849853907355e+02 0.0 
0.0 0.0 -1.196855309911e+02 
-9.832186147516e+00 -4.941172281918e-01 0.0 
-4.941172281918e-01 -8.964396216924e+00 0.0 
0.0 0.0 -6.215450892212e+00 
-6.993340659956e+01 6.945514671729e-01 0.0 
6.945514671729e-01 -1.806037348667e+02 0.0 
0.0 0.0 -7.476114243987e+01 
-1.072499972683e+01 -3.491805974817e-01 0.0 
-3.491805974817e-01 -2.532116283721e+01 0.0 
0.0 0.0 -1.041384876921e+01 
-1.394585725453e+02 4.437710974732e+00 0.0 
4.437710974732e+00 -3.364477706493e+02 0.0 
0.0 0.0 -1.423719029584e+02 
-7.360236277562e+01 -4.949541354054e-01 0.0 
-4.949541354054e-01 -1.908326412207e+02 0.0 
0.0 0.0 -7.893050119889e+01 
-1.287135577743e+02 1.052460859805e+00 0.0 
1.052460859805e+00 -3.142254252274e+02 0.0 
0.0 0.0 -1.324816949005e+02 
-3.717686535787e+01 -4.899828115200e-01 0.0 
-4.899828115200e-01 -9.644573342470e+01 0.0 
0.0 0.0 -3.968677963477e+01 
-1.681317125722e+01 -1.144046580018e+00 0.0 
-1.144046580018e+00 -4.145733465385e+01 0.0 
0.0 0.0 -1.708115177332e+01 
-1.381570893798e+02 2.652505544996e+00 0.0 
2.652505544996e+00 -3.335341494932e+02 0.0 
0.0 0.0 -1.411073716619e+02 
-7.824786031910e+01 9.440696806524e-01 0.0 
9.440696806524e-01 -2.000508961647e+02 0.0 
0.0 0.0 -8.308962694514e+01 
-6.112789968265e+01 -8.559229414119e-01 0.0 
-8.559229414119e-01 -1.580734865495e+02 0.0 
0.0 0.0 -6.536041586964e+01 
-1.290952870036e+02 2.447689845486e+00 0.0 
2.447689845486e+00 -3.147043180349e+02 0.0 
0.0 0.0 -1.327398815115e+02 
-1.226751999206e+02 -2.270381025402e-01 0.0 
-2.270381025402e-01 -2.829396444633e+02 0.0 
0.0 0.0 -1.212844533152e+02 
-6.147494625360e+01 7.000340506159e-01 0.0 
7.000340506159e-01 -1.581801367954e+02 0.0 
0.0 0.0 -6.549652491470e+01 
-1.177431215259e+02 5.976556837142e+00 0.0 
5.976556837142e+00 -2.916258490279e+02 0.0 
0.0 0.0 -1.224106911661e+02 
-1.029649159161e+02 1.587448427866e+00 0.0 
1.587448427866e+00 -2.604044933364e+02 0.0 
0.0 0.0 -1.086108227758e+02 
-1.148433512471e+02 3.582417674461e-01 0.0 
3.582417674461e-01 -2.844780192830e+02 0.0 
0.0 0.0 -1.193964111590e+02 
-1.189833181672e+02 2.007369769761e-01 0.0 
2.007369769761e-01 -2.932579856931e+02 0.0 
0.0 0.0 -1.232723911581e+02 
-5.529092682980e+01 7.482924516837e+00 0.0 
7.482924516837e+00 -1.485666721341e+02 0.0 
0.0 0.0 -6.075727968916e+01 
-6.674141385317e+01 5.835413546597e+00 0.0 
5.835413546597e+00 -1.354498058209e+02 0.0 
0.0 0.0 -6.025736590222e+01 
-7.491040032626e+01 1.146859265875e+01 0.0 
1.146859265875e+01 -1.728517044936e+02 0.0 
0.0 0.0 -7.392863144596e+01 
-1.066540076710e+02 7.367611344319e-01 0.0 
7.367611344319e-01 -2.673264342836e+02 0.0 
0.0 0.0 -1.117941325864e+02 
-1.332606241228e+02 2.210130638262e+00 0.0 
2.210130638262e+00 -3.233661501547e+02 0.0 
0.0 0.0 -1.365880322832e+02 
-1.231831441976e+02 -8.021628298455e-02 0.0 
-8.021628298455e-02 -3.021616098301e+02 0.0 
0.0 0.0 -1.272034262083e+02 
-3.750669087443e+01 -1.705579618504e+00 0.0 
-1.705579618504e+00 -9.982079079771e+01 0.0 
0.0 0.0 -4.079824450164e+01 
-1.224885642378e+02 1.128447782897e-01 0.0 
1.128447782897e-01 -2.818218060716e+02 0.0 
0.0 0.0 -1.208931110928e+02 
-1.142756414550e+02 1.609619871082e-02 0.0 
1.609619871082e-02 -2.618148128716e+02 0.0 
0.0 0.0 -1.124271362980e+02 
-7.741051328166e+01 -7.053482412426e-01 0.0 
-7.053482412426e-01 -1.716530328724e+02 0.0 
0.0 0.0 -7.431906384620e+01 
-1.112933913930e+02 1.222149024862e+00 0.0 
1.222149024862e+00 -2.778518495080e+02 0.0 
0.0 0.0 -1.163435722703e+02 
-1.107501595682e+02 5.620221271502e-01 0.0 
5.620221271502e-01 -2.759336503726e+02 0.0 
0.0 0.0 -1.156051429822e+02 
-1.230324323328e+02 1.478720750151e+00 0.0 
1.478720750151e+00 -2.837796425167e+02 0.0 
0.0 0.0 -1.216436224549e+02 
-1.185716121256e+02 -5.510288291363e-03 0.0 
-5.510288291363e-03 -2.725629528503e+02 0.0 
0.0 0.0 -1.169403694928e+02 
-9.972143658673e+01 3.075275452039e+00 0.0 
3.075275452039e+00 -2.522644099388e+02 0.0 
0.0 0.0 -1.051957539577e+02 
-1.424578867380e+02 2.322240847975e+00 0.0 
2.322240847975e+00 -3.421046015355e+02 0.0 
0.0 0.0 -1.449687464821e+02 
-1.132824883238e+02 8.786883940163e-01 0.0 
8.786883940163e-01 -2.580015009227e+02 0.0 
0.0 0.0 -1.109851967739e+02 
-1.234210532726e+02 1.292265997363e+00 0.0 
1.292265997363e+00 -3.022617259049e+02 0.0 
0.0 0.0 -1.273048337532e+02 
-1.443154989421e+02 4.279729898720e+00 0.0 
4.279729898720e+00 -3.461337272217e+02 0.0 
0.0 0.0 -1.467347678492e+02 
-1.227269301148e+02 1.905315824434e+00 0.0 
1.905315824434e+00 -2.823479465909e+02 0.0 
0.0 0.0 -1.211224630117e+02 
-1.026306723408e+02 1.651080852489e+00 0.0 
1.651080852489e+00 -2.316849053219e+02 0.0 
0.0 0.0 -9.989467329881e+01 
-1.131723484838e+02 5.172438254469e+00 0.0 
5.172438254469e+00 -2.820721128860e+02 0.0 
0.0 0.0 -1.181733384109e+02 
-3.830971923621e+01 -1.340325950157e+00 0.0 
-1.340325950157e+00 -9.935495975711e+01 0.0 
0.0 0.0 -4.089940369799e+01 
-3.455455851025e+01 -1.658717725441e+00 0.0 
-1.658717725441e+00 -9.199622801065e+01 0.0 
0.0 0.0 -3.756523595627e+01 
-1.966953669318e+01 -4.415466581679e-01 0.0 
-4.415466581679e-01 -4.801236048455e+01 0.0 
0.0 0.0 -1.990456915332e+01 
-1.553699736620e+01 -1.095050097263e+00 0.0 
-1.095050097263e+00 -2.560220554311e+01 0.0 
0.0 0.0 -1.194176087279e+01 
-1.189771381577e+02 1.610722773080e+00 0.0 
1.610722773080e+00 -2.729607894211e+02 0.0 
0.0 0.0 -1.171813782736e+02 
-1.372179492781e+02 4.237440557445e-01 0.0 
4.237440557445e-01 -3.314220817343e+02 0.0 
0.0 0.0 -1.401920093037e+02 
-1.474083957633e+01 -1.091263199325e+00 0.0 
-1.091263199325e+00 -2.522656600062e+01 0.0 
0.0 0.0 -1.159022167309e+01 
-1.253035078200e+02 7.058859075245e+00 0.0 
7.058859075245e+00 -2.815725668255e+02 0.0 
0.0 0.0 -1.216628223936e+02 
-8.159584488427e+01 -4.961501362848e-01 0.0 
-4.961501362848e-01 -1.807052376719e+02 0.0 
0.0 0.0 -7.829032476686e+01 
-1.250111481048e+02 2.727447706727e+00 0.0 
2.727447706727e+00 -3.061911516883e+02 0.0 
0.0 0.0 -1.289606899379e+02 
-1.279409540901e+02 3.113954885153e-01 0.0 
3.113954885153e-01 -3.122729105347e+02 0.0 
0.0 0.0 -1.316641593875e+02 
-5.171264481160e+01 -3.232669056704e-01 0.0 
-3.232669056704e-01 -1.403935225614e+02 0.0 
0.0 0.0 -5.723185021190e+01 
-1.282117814160e+02 1.757656914781e+00 0.0 
1.757656914781e+00 -3.126855886323e+02 0.0 
0.0 0.0 -1.318692110145e+02 
-7.778245643610e+01 1.346002057749e+00 0.0 
1.346002057749e+00 -1.717473315688e+02 0.0 
0.0 0.0 -7.445893640148e+01 
-1.098884429123e+02 9.926909949770e+00 0.0 
9.926909949770e+00 -2.673326409008e+02 0.0 
0.0 0.0 -1.127663251439e+02 
-1.486777510828e+02 2.297406469350e+00 0.0 
2.297406469350e+00 -3.549217917181e+02 0.0 
0.0 0.0 -1.506798628403e+02 
-3.706660621156e+01 -8.712916768158e-01 0.0 
-8.712916768158e-01 -9.602653412906e+01 0.0 
0.0 0.0 -3.952794210219e+01 
-1.443798355262e+02 5.084518599421e+00 0.0 
5.084518599421e+00 -3.466955225611e+02 0.0 
0.0 0.0 -1.469226074262e+02 
-1.068951901093e+02 1.510091315750e+00 0.0 
1.510091315750e+00 -2.425616273204e+02 0.0 
0.0 0.0 -1.044370452289e+02 
-4.161408609210e+01 -1.229135512975e+00 0.0 
-1.229135512975e+00 -1.078625335996e+02 0.0 
0.0 0.0 -4.444298590752e+01 
-4.243445254811e+01 -3.211215288964e-01 0.0 
-3.211215288964e-01 -1.118115968209e+02 0.0 
0.0 0.0 -4.587381481070e+01 
-8.878893035497e+01 -5.167452800143e-01 0.0 
-5.167452800143e-01 -2.252812166590e+02 0.0 
0.0 0.0 -9.382104410418e+01 
-9.348693379074e+01 -1.386556161411e-02 0.0 
-1.386556161411e-02 -2.096546203951e+02 0.0 
0.0 0.0 -9.054246625574e+01 
-5.802015413738e+01 -1.098995226147e+00 0.0 
-1.098995226147e+00 -1.518848242376e+02 0.0 
0.0 0.0 -6.257149351251e+01 
-1.111058440665e+02 1.480150519090e+00 0.0 
1.480150519090e+00 -2.533356374388e+02 0.0 
0.0 0.0 -1.089324444516e+02 
-9.870126284018e+01 1.495563730008e+00 0.0 
1.495563730008e+00 -2.222912480728e+02 0.0 
0.0 0.0 -9.589775327390e+01 
-8.552018050931e+01 -1.774317107096e-01 0.0 
-1.774317107096e-01 -2.187510891730e+02 0.0 
0.0 0.0 -9.088138090469e+01 
-1.191803185971e+02 1.557294046745e+00 0.0 
1.557294046745e+00 -2.934803099782e+02 0.0 
0.0 0.0 -1.233981885726e+02 
-1.241605455011e+02 2.020999032177e+00 0.0 
2.020999032177e+00 -3.041949161150e+02 0.0 
0.0 0.0 -1.281066384848e+02 
-1.062310403477e+02 -1.736907408747e-01 0.0 
-1.736907408747e-01 -2.419370905700e+02 0.0 
0.0 0.0 -1.040504392753e+02 
-3.239762162074e+01 -2.454524216323e-01 0.0 
-2.454524216323e-01 -8.317722719950e+01 0.0 
0.0 0.0 -3.427245464607e+01 
-8.120746919119e+01 -4.360337904279e-01 0.0 
-4.360337904279e-01 -2.080715881665e+02 0.0 
0.0 0.0 -8.638371720732e+01 
-1.273797083755e+02 9.487787656995e+00 0.0 
9.487787656995e+00 -3.025492867132e+02 0.0 
0.0 0.0 -1.285786985266e+02 
-1.106362994429e+02 1.813205680230e+00 0.0 
1.813205680230e+00 -2.514997256446e+02 0.0 
0.0 0.0 -1.082408075263e+02 
-7.304090481383e+01 -7.855116494321e-01 0.0 
-7.855116494321e-01 -1.883420387903e+02 0.0 
0.0 0.0 -7.801488308124e+01 
-1.038141956327e+02 2.926015565495e+00 0.0 
2.926015565495e+00 -2.610715357787e+02 0.0 
0.0 0.0 -1.090657194234e+02 
-1.402207118895e+02 5.527100433680e+00 0.0 
5.527100433680e+00 -3.380974960508e+02 0.0 
0.0 0.0 -1.430954623821e+02 
-1.022081401170e+02 5.227327498279e-03 0.0 
5.227327498279e-03 -2.312304174002e+02 0.0 
0.0 0.0 -9.963156725517e+01 
-1.907566151239e+01 8.410666607682e-01 0.0 
8.410666607682e-01 -4.430259964149e+01 0.0 
0.0 0.0 -1.861347834616e+01 
-1.890919076677e+01 -2.569449774275e-01 0.0 
-2.569449774275e-01 -4.667975595279e+01 0.0 
0.0 0.0 -1.927668401587e+01 
-3.133606293693e+01 4.314581524216e+00 0.0 
4.314581524216e+00 -8.865364371684e+01 0.0 
0.0 0.0 -3.559691199613e+01 
-1.329290616760e+02 7.307819440454e-01 0.0 
7.307819440454e-01 -3.229057016871e+02 0.0 
0.0 0.0 -1.363504290089e+02 
-9.778529639602e+01 2.324909547763e-02 0.0 
2.324909547763e-02 -2.204312898240e+02 0.0 
0.0 0.0 -9.506497586601e+01 
-9.757650618875e+01 1.143477595819e+00 0.0 
1.143477595819e+00 -2.449209211372e+02 0.0 
0.0 0.0 -1.023492281978e+02 
-8.546894260199e+01 -2.089603044237e-01 0.0 
-2.089603044237e-01 -1.900798217528e+02 0.0 
0.0 0.0 -8.226462930642e+01 
-1.316419525202e+02 7.234496757208e+00 0.0 
7.234496757208e+00 -3.200785300073e+02 0.0 
0.0 0.0 -1.351161447582e+02 
-8.937323832340e+01 -2.135907967764e-01 0.0 
-2.135907967764e-01 -2.273526458639e+02 0.0 
0.0 0.0 -9.461776525619e+01 
-1.238295242616e+02 5.722419233040e-01 0.0 
5.722419233040e-01 -3.037368512068e+02 0.0 
0.0 0.0 -1.278699126405e+02 
-3.880956442126e+01 7.836325312046e-02 0.0 
7.836325312046e-02 -9.989545575460e+01 0.0 
0.0 0.0 -4.121150605276e+01 
-1.438278103965e+02 2.638574579915e+00 0.0 
2.638574579915e+00 -3.460222996469e+02 0.0 
0.0 0.0 -1.465550330130e+02 
-8.621689704144e+01 1.223504453921e+00 0.0 
1.223504453921e+00 -2.193622454703e+02 0.0 
0.0 0.0 -9.127374275351e+01 
-4.200088227197e+01 3.009956418458e-01 0.0 
3.009956418458e-01 -1.083671511230e+02 0.0 
0.0 0.0 -4.471041001850e+01 
-8.181979906305e+01 1.043223351889e+00 0.0 
1.043223351889e+00 -2.086769726423e+02 0.0 
0.0 0.0 -8.674903151160e+01 
-6.162365983474e+01 -9.716684346306e-01 0.0 
-9.716684346306e-01 -1.604617584565e+02 0.0 
0.0 0.0 -6.622562548737e+01 
-4.782904392286e+01 -1.299626516600e-01 0.0 
-1.299626516600e-01 -1.245062194733e+02 0.0 
0.0 0.0 -5.130057901886e+01 
-9.702097471163e+01 -3.543921576009e-01 0.0 
-3.543921576009e-01 -2.442715577446e+02 0.0 
0.0 0.0 -1.019877597369e+02 
-6.357800120742e+00 -3.101348002396e-01 0.0 
-3.101348002396e-01 -9.300102256538e+00 0.0 
0.0 0.0 -5.293039939907e+00 
-7.176486819387e+00 -3.465676773724e-01 0.0 
-3.465676773724e-01 -9.530214119008e+00 0.0 
0.0 0.0 -5.622018015524e+00 
-1.112699742075e+02 1.983582851499e+00 0.0 
1.983582851499e+00 -2.764666045617e+02 0.0 
0.0 0.0 -1.159209736308e+02 
-3.571688655656e+01 -1.392939989178e-01 0.0 
-1.392939989178e-01 -9.170470369820e+01 0.0 
0.0 0.0 -3.782647707643e+01 
-1.119708814685e+02 2.621431251889e+00 0.0 
2.621431251889e+00 -2.784467704663e+02 0.0 
0.0 0.0 -1.167252955804e+02 
-1.078998291634e+02 2.773293425312e+00 0.0 
2.773293425312e+00 -2.698059232195e+02 0.0 
0.0 0.0 -1.129117257149e+02 
-6.602863404191e+01 -5.577754339103e-01 0.0 
-5.577754339103e-01 -1.734499613405e+02 0.0 
0.0 0.0 -7.144357861471e+01 
-4.127016812213e+01 -7.569351231752e-01 0.0 
-7.569351231752e-01 -1.132247413935e+02 0.0 
0.0 0.0 -4.594847285469e+01 
-1.181193532339e+02 2.471527782106e+00 0.0 
2.471527782106e+00 -2.694374844137e+02 0.0 
0.0 0.0 -1.158670512943e+02 
-1.607888619353e+01 4.496986141932e+00 0.0 
4.496986141932e+00 -4.346345779216e+01 0.0 
0.0 0.0 -1.746270319571e+01 
-6.522931091002e+01 -8.273272327243e-01 0.0 
-8.273272327243e-01 -1.692231176157e+02 0.0 
0.0 0.0 -6.993572855770e+01 
-1.361750760113e+02 7.960259534336e+00 0.0 
7.960259534336e+00 -3.287210402806e+02 0.0 
0.0 0.0 -1.390688348876e+02 
-3.076639014595e+01 -1.383369761016e+00 0.0 
-1.383369761016e+00 -7.918698996085e+01 0.0 
0.0 0.0 -3.258601403204e+01 
-9.026213551667e+01 1.399607131343e+00 0.0 
1.399607131343e+00 -2.012675265783e+02 0.0 
0.0 0.0 -8.705889862849e+01 
-8.204413850421e+01 1.293275254195e+00 0.0 
1.293275254195e+00 -1.812382271935e+02 0.0 
0.0 0.0 -7.858470970930e+01 
-3.009738067289e+01 -5.971813702245e-01 0.0 
-5.971813702245e-01 -7.688237886236e+01 0.0 
0.0 0.0 -3.169392786057e+01 
-1.356929437500e+02 5.790330234584e+00 0.0 
5.790330234584e+00 -3.289811798211e+02 0.0 
0.0 0.0 -1.390022370713e+02 
-1.061521048491e+02 2.248226287652e+00 0.0 
2.248226287652e+00 -2.388715592462e+02 0.0 
0.0 0.0 -1.031070992286e+02 
-3.512316894105e+01 -1.428958795646e+00 0.0 
-1.428958795646e+00 -9.108321775881e+01 0.0 
0.0 0.0 -3.746191600996e+01 
-1.217182959084e+02 2.758814820915e+00 0.0 
2.758814820915e+00 -2.781379700108e+02 0.0 
0.0 0.0 -1.195568797758e+02 
-1.208591554611e+02 1.257477806988e+00 0.0 
1.257477806988e+00 -2.774384466798e+02 0.0 
0.0 0.0 -1.190892806423e+02 
-3.964875266296e+01 -9.222859750011e-02 0.0 
-9.222859750011e-02 -1.023679212034e+02 0.0 
0.0 0.0 -4.220500215992e+01 
-4.372169898928e+01 1.116806686005e+01 0.0 
1.116806686005e+01 -8.746961833810e+01 0.0 
0.0 0.0 -3.895739519821e+01 
-4.045411099981e+01 -3.403884418909e-01 0.0 
-3.403884418909e-01 -1.049504336150e+02 0.0 
0.0 0.0 -4.322136338443e+01 
-1.201596366194e+02 2.236813677919e+00 0.0 
2.236813677919e+00 -2.956427587457e+02 0.0 
0.0 0.0 -1.243407186095e+02 
-9.321086988261e+01 -2.783266051167e-01 0.0 
-2.783266051167e-01 -2.359147946423e+02 0.0 
0.0 0.0 -9.833769935748e+01 
-1.236685664961e+02 4.395962930793e+00 0.0 
4.395962930793e+00 -2.810228905917e+02 0.0 
0.0 0.0 -1.210074371264e+02 
-1.174078562919e+02 7.920140848701e-01 0.0 
7.920140848701e-01 -2.688524831481e+02 0.0 
0.0 0.0 -1.154781018320e+02 
-1.160588040869e+02 2.439735620637e+00 0.0 
2.439735620637e+00 -2.870684020566e+02 0.0 
0.0 0.0 -1.205381618431e+02 
-1.154729692267e+02 1.026772397895e+00 0.0 
1.026772397895e+00 -2.865103383859e+02 0.0 
0.0 0.0 -1.201949922838e+02 
-3.262495005992e+01 -1.812440822607e+00 0.0 
-1.812440822607e+00 -8.483713929229e+01 0.0 
0.0 0.0 -3.483862680566e+01 
-1.196539556381e+02 8.070666686086e-01 0.0 
8.070666686086e-01 -2.951150432996e+02 0.0 
0.0 0.0 -1.240306996813e+02 
-1.053848407650e+02 5.710976292452e-01 0.0 
5.710976292452e-01 -2.382646933265e+02 0.0 
0.0 0.0 -1.026948602275e+02 
-9.373844114268e+01 1.128247383489e+00 0.0 
1.128247383489e+00 -2.364503866429e+02 0.0 
0.0 0.0 -9.865664833568e+01 
-9.841123960792e+01 1.658015091350e+00 0.0 
1.658015091350e+00 -2.209699640202e+02 0.0 
0.0 0.0 -9.541436108842e+01 
-1.102706972406e+02 2.206056853643e+00 0.0 
2.206056853643e+00 -2.496495731049e+02 0.0 
0.0 0.0 -1.075760811036e+02 
-7.617349828833e+01 8.422829934030e+00 0.0 
8.422829934030e+00 -1.923238424258e+02 0.0 
0.0 0.0 -8.014920221423e+01 
-1.137238906631e+02 4.558959277465e-01 0.0 
4.558959277465e-01 -2.599012793024e+02 0.0 
0.0 0.0 -1.116875509896e+02 
-7.714208905895e+01 -7.063578957664e-01 0.0 
-7.063578957664e-01 -1.981894445283e+02 0.0 
0.0 0.0 -8.219946007617e+01 
-8.992334775611e+01 1.213396407777e+00 0.0 
1.213396407777e+00 -2.279069923585e+02 0.0 
0.0 0.0 -9.494910203438e+01 
-5.759569495848e+01 -1.236543141602e+00 0.0 
-1.236543141602e+00 -1.498524783327e+02 0.0 
0.0 0.0 -6.183445198737e+01 
-5.980903899183e+01 6.013705638951e-01 0.0 
6.013705638951e-01 -1.571627377929e+02 0.0 
0.0 0.0 -6.469153303541e+01 
-1.015804588864e+02 2.671934035684e-01 0.0 
2.671934035684e-01 -2.293339742646e+02 0.0 
0.0 0.0 -9.887432994529e+01 
-8.330575195293e+01 2.867970567062e+00 0.0 
2.867970567062e+00 -2.155472498379e+02 0.0 
0.0 0.0 -8.925590053725e+01 
-4.378109421692e+01 -1.608330025741e-01 0.0 
-1.608330025741e-01 -1.134883065799e+02 0.0 
0.0 0.0 -4.678082023903e+01 
-2.306619917484e+01 -6.722959522472e-01 0.0 
-6.722959522472e-01 -5.746665007168e+01 0.0 
0.0 0.0 -2.375985477396e+01 
-1.023087863724e+02 1.922005204858e+00 0.0 
1.922005204858e+00 -2.299203908713e+02 0.0 
0.0 0.0 -9.926875317311e+01 
-4.306508931934e+01 -1.573121135238e+00 0.0 
-1.573121135238e+00 -1.128715925137e+02 0.0 
0.0 0.0 -4.638100454993e+01 
-1.442931006050e+02 3.732855049322e+00 0.0 
3.732855049322e+00 -3.464648438878e+02 0.0 
0.0 0.0 -1.468273833479e+02 
-1.058481354479e+02 2.371895827872e-01 0.0 
2.371895827872e-01 -2.401374746172e+02 0.0 
0.0 0.0 -1.033956830195e+02 
-1.244918353848e+02 1.305702799992e+00 0.0 
1.305702799992e+00 -3.056620380736e+02 0.0 
0.0 0.0 -1.286461620375e+02 
-1.494727188254e+02 9.341445837561e+00 0.0 
9.341445837561e+00 -3.533369916692e+02 0.0 
0.0 0.0 -1.504429131484e+02 
-7.376829888753e+01 8.418267323778e-01 0.0 
8.418267323778e-01 -1.891368310102e+02 0.0 
0.0 0.0 -7.847153896931e+01 
-3.905412827127e+01 -1.570116441473e+00 0.0 
-1.570116441473e+00 -1.017892904910e+02 0.0 
0.0 0.0 -4.185302562870e+01 
-2.557283965508e+01 -1.861351443014e+00 0.0 
-1.861351443014e+00 -6.511680807012e+01 0.0 
0.0 0.0 -2.680689431756e+01 
-1.166662942834e+02 3.160736990357e+00 0.0 
3.160736990357e+00 -2.888609902935e+02 0.0 
0.0 0.0 -1.212581853730e+02 
-9.405164809788e+01 -2.202148635251e-01 0.0 
-2.202148635251e-01 -2.115946372335e+02 0.0 
0.0 0.0 -9.129388559941e+01 
-1.903891231618e+01 -1.595916280642e+00 0.0 
-1.595916280642e+00 -4.626374359290e+01 0.0 
0.0 0.0 -1.919079677272e+01 
-5.892371076976e+01 2.923661755867e-01 0.0 
2.923661755867e-01 -1.525737448719e+02 0.0 
0.0 0.0 -6.304923669249e+01 
-3.486723504282e+01 1.745199294694e-01 0.0 
1.745199294694e-01 -8.910362074519e+01 0.0 
0.0 0.0 -3.679125673641e+01 
-9.424096013016e+01 1.612346917790e+00 0.0 
1.612346917790e+00 -2.102450107270e+02 0.0 
0.0 0.0 -9.094579125713e+01 
-6.261242398300e+01 4.743479073103e-01 0.0 
4.743479073103e-01 -1.611976691242e+02 0.0 
0.0 0.0 -6.674302793215e+01 
-1.071323819555e+02 1.411488909178e+00 0.0 
1.411488909178e+00 -2.691719540363e+02 0.0 
0.0 0.0 -1.124913007975e+02 
-5.798954462459e+01 3.805106496703e-01 0.0 
3.805106496703e-01 -1.502616995511e+02 0.0 
0.0 0.0 -6.207537325272e+01 
-1.148037802365e+02 1.754593398842e+00 0.0 
1.754593398842e+00 -2.623638338986e+02 0.0 
0.0 0.0 -1.127502842405e+02 
-5.048442392062e+01 -1.380070444918e+00 0.0 
-1.380070444918e+00 -1.324384606466e+02 0.0 
0.0 0.0 -5.447686537017e+01 
-1.171257140733e+02 3.978860637752e+00 0.0 
3.978860637752e+00 -2.902803955605e+02 0.0 
0.0 0.0 -1.218218328901e+02 
-3.561088925514e+01 -6.089638576283e-01 0.0 
-6.089638576283e-01 -9.267915941889e+01 0.0 
0.0 0.0 -3.808701460221e+01 
-1.124910613331e+02 3.352437085633e+00 0.0 
3.352437085633e+00 -2.800979966208e+02 0.0 
0.0 0.0 -1.173767173862e+02 
-8.564484655340e+01 8.697089991035e-01 0.0 
8.697089991035e-01 -2.176756115143e+02 0.0 
0.0 0.0 -9.059613742032e+01 
-1.202251977326e+02 1.544276905089e+00 0.0 
1.544276905089e+00 -2.969907752472e+02 0.0 
0.0 0.0 -1.247647918939e+02 
-5.110967569122e+01 4.002540358084e+00 0.0 
4.002540358084e+00 -1.426840500290e+02 0.0 
0.0 0.0 -5.773811771607e+01 
-3.409989532695e+01 -1.299671871068e+00 0.0 
-1.299671871068e+00 -8.824960433432e+01 0.0 
0.0 0.0 -3.630484989838e+01 
-8.649793715602e+01 1.208927493873e+00 0.0 
1.208927493873e+00 -1.922853026989e+02 0.0 
0.0 0.0 -8.323497195646e+01 
-1.043898639538e+02 6.916697083298e+00 0.0 
6.916697083298e+00 -2.620338102002e+02 0.0 
0.0 0.0 -1.095271022462e+02 
-6.879091979104e+01 8.357115290519e+00 0.0 
8.357115290519e+00 -1.491359458923e+02 0.0 
0.0 0.0 -6.497805970500e+01 
-9.450114709779e+01 1.464692178624e+00 0.0 
1.464692178624e+00 -2.118658980891e+02 0.0 
0.0 0.0 -9.151011355608e+01 
-3.913181178979e+01 -3.048329412003e-01 0.0 
-3.048329412003e-01 -1.033938846951e+02 0.0 
0.0 0.0 -4.235770894546e+01 
-9.711029591401e+01 6.014032281368e-01 0.0 
6.014032281368e-01 -2.168801219887e+02 0.0 
0.0 0.0 -9.379712537082e+01 
-3.108384946502e+01 8.627859683575e-02 0.0 
8.627859683575e-02 -8.011852528356e+01 0.0 
0.0 0.0 -3.296071242457e+01 
-1.352921570344e+02 4.827841516288e+00 0.0 
4.827841516288e+00 -3.282185813023e+02 0.0 
0.0 0.0 -1.386532215010e+02 
-1.089248870904e+02 7.734339709584e+00 0.0 
7.734339709584e+00 -2.709314822183e+02 0.0 
0.0 0.0 -1.135569107926e+02 
-1.145520875401e+02 1.040729073106e+01 0.0 
1.040729073106e+01 -2.755771704707e+02 0.0 
0.0 0.0 -1.166387774032e+02 
-1.258967978156e+02 2.722356222808e+00 0.0 
2.722356222808e+00 -2.895544758203e+02 0.0 
0.0 0.0 -1.242353820908e+02 
-9.153068914680e+01 3.410086647761e+00 0.0 
3.410086647761e+00 -2.344278759707e+02 0.0 
0.0 0.0 -9.738756953525e+01 
-3.185136823470e+01 -1.629873761098e+00 0.0 
-1.629873761098e+00 -8.251492517442e+01 0.0 
0.0 0.0 -3.390988802274e+01 
-1.041485554015e+02 3.721823149869e+00 0.0 
3.721823149869e+00 -2.623536438934e+02 0.0 
0.0 0.0 -1.095506597885e+02 
-1.395616427100e+02 4.079013231024e+00 0.0 
4.079013231024e+00 -3.374970709749e+02 0.0 
0.0 0.0 -1.427176141055e+02 
-4.961259086026e+01 6.950805434718e-01 0.0 
6.950805434718e-01 -1.329177634915e+02 0.0 
0.0 0.0 -5.435910630553e+01 
-1.208431753165e+02 2.959371324012e+00 0.0 
2.959371324012e+00 -2.975615843034e+02 0.0 
0.0 0.0 -1.251214278860e+02 
-1.064540941940e+02 1.901560231262e+00 0.0 
1.901560231262e+00 -2.406738171458e+02 0.0 
0.0 0.0 -1.037383734019e+02 
-3.783763543050e+01 -5.827057512408e-01 0.0 
-5.827057512408e-01 -1.046742940159e+02 0.0 
0.0 0.0 -4.235357883393e+01 
-1.083206611628e+02 3.535256955657e+00 0.0 
3.535256955657e+00 -2.712677252654e+02 0.0 
0.0 0.0 -1.134765159284e+02 
-8.583009220946e+01 1.598053888210e+00 0.0 
1.598053888210e+00 -1.887469448340e+02 0.0 
0.0 0.0 -8.197311111303e+01 
-4.632243847155e+01 1.727723688998e-01 0.0 
1.727723688998e-01 -1.195499577203e+02 0.0 
0.0 0.0 -4.936171885755e+01 
-5.536086695004e+01 1.490278642030e-01 0.0 
1.490278642030e-01 -1.440031362667e+02 0.0 
0.0 0.0 -5.940920096501e+01 
-8.434660608842e+01 1.060939411466e+01 0.0 
1.060939411466e+01 -1.884490736969e+02 0.0 
0.0 0.0 -8.143870393561e+01 
-1.159600364774e+02 1.771181739126e+00 0.0 
1.771181739126e+00 -2.882554920769e+02 0.0 
0.0 0.0 -1.208646585663e+02 
-6.185678897920e+01 8.829404035619e+00 0.0 
8.829404035619e+00 -1.267609047988e+02 0.0 
0.0 0.0 -5.618530813341e+01 
-7.968907130819e+01 1.108787390891e+01 0.0 
1.108787390891e+01 -1.805150947604e+02 0.0 
0.0 0.0 -7.766124982059e+01 
-1.012442138187e+02 5.909386322712e-01 0.0 
5.909386322712e-01 -2.275442662000e+02 0.0 
0.0 0.0 -9.823654400559e+01 
-8.966711388577e+01 -2.646733746641e-01 0.0 
-2.646733746641e-01 -2.007378713564e+02 0.0 
0.0 0.0 -8.672149557266e+01 
-8.904143897068e+01 2.336121555980e-01 0.0 
2.336121555980e-01 -1.972686971950e+02 0.0 
0.0 0.0 -8.549304084969e+01 
-8.513621294153e+01 -3.624113652233e-01 0.0 
-3.624113652233e-01 -2.170758892842e+02 0.0 
0.0 0.0 -9.026363066773e+01 
-1.312959275808e+02 6.113482969213e+00 0.0 
6.113482969213e+00 -3.198963691076e+02 0.0 
0.0 0.0 -1.349576890065e+02 
-9.997627218447e+01 3.928595836748e+00 0.0 
3.928595836748e+00 -2.533475572157e+02 0.0 
0.0 0.0 -1.055971488201e+02 
-8.593865055465e+01 1.332928300392e+00 0.0 
1.332928300392e+00 -1.905321184679e+02 0.0 
0.0 0.0 -8.254123070676e+01 
-1.297017074826e+02 8.143763574008e+00 0.0 
8.143763574008e+00 -2.929432739276e+02 0.0 
0.0 0.0 -1.263934944231e+02 
-1.191828149277e+02 1.083445642781e+01 0.0 
1.083445642781e+01 -2.837425090954e+02 0.0 
0.0 0.0 -1.204775972070e+02 
-1.117105538224e+02 1.983748353376e+00 0.0 
1.983748353376e+00 -2.794654374730e+02 0.0 
0.0 0.0 -1.169527973886e+02 
-1.095596715650e+02 5.364421671931e-01 0.0 
5.364421671931e-01 -2.490674658744e+02 0.0 
0.0 0.0 -1.071881412318e+02 
-6.337710053681e+01 6.935415989999e-01 0.0 
6.935415989999e-01 -1.655619971339e+02 0.0 
0.0 0.0 -6.828172930120e+01 
-5.937768479366e+01 3.715250128131e-01 0.0 
3.715250128131e-01 -1.548372932442e+02 0.0 
0.0 0.0 -6.386449341136e+01 
-3.306723531694e+01 -4.385340262001e-01 0.0 
-4.385340262001e-01 -8.532719559383e+01 0.0 
0.0 0.0 -3.511832927323e+01 
-1.086292507745e+02 4.423295260552e+00 0.0 
4.423295260552e+00 -2.722907024520e+02 0.0 
0.0 0.0 -1.138759859679e+02 
-6.297328728522e+01 4.872526629313e-01 0.0 
4.872526629313e-01 -1.634306768781e+02 0.0 
0.0 0.0 -6.752118924900e+01 
-9.815661284225e+01 1.945085294346e+00 0.0 
1.945085294346e+00 -2.191438366410e+02 0.0 
0.0 0.0 -9.479013484497e+01 
-9.401215140299e+01 1.957547291421e+00 0.0 
1.957547291421e+00 -2.084403987032e+02 0.0 
0.0 0.0 -9.033576503186e+01 
-7.981564446274e+01 8.792201569920e+00 0.0 
8.792201569920e+00 -2.031982208122e+02 0.0 
0.0 0.0 -8.450415958248e+01 
-5.090484691906e+01 -1.289542881003e+00 0.0 
-1.289542881003e+00 -1.347774723947e+02 0.0 
0.0 0.0 -5.530469579412e+01 
-4.740352973136e+01 7.253637176603e+00 0.0 
7.253637176603e+00 -1.307783575885e+02 0.0 
0.0 0.0 -5.305456619595e+01 
-5.443811321526e+01 -1.204398942005e+00 0.0 
-1.204398942005e+00 -1.433118756587e+02 0.0 
0.0 0.0 -5.892499666219e+01 
-5.837197584792e+01 -9.387344239986e-01 0.0 
-9.387344239986e-01 -1.541217287689e+02 0.0 
0.0 0.0 -6.334811138505e+01 
-3.580647306259e+01 -1.709931309484e+00 0.0 
-1.709931309484e+00 -9.334550944314e+01 0.0 
0.0 0.0 -3.834559475172e+01 
-1.268660976440e+02 6.458499715032e+00 0.0 
6.458499715032e+00 -3.106235448108e+02 0.0 
0.0 0.0 -1.308468927365e+02 
-7.017424624410e+01 5.288215138145e-01 0.0 
5.288215138145e-01 -1.858496071741e+02 0.0 
0.0 0.0 -7.640715602545e+01 
-1.143788680905e+02 2.128207156725e+00 0.0 
2.128207156725e+00 -2.604613489091e+02 0.0 
0.0 0.0 -1.120520650999e+02 
-7.415421237127e+01 1.215848852518e+00 0.0 
1.215848852518e+00 -1.960160430910e+02 0.0 
0.0 0.0 -8.065107663868e+01 
-1.032547785737e+02 2.422593941553e+00 0.0 
2.422593941553e+00 -2.616910066977e+02 0.0 
0.0 0.0 -1.090837355814e+02 
-8.626691683571e+01 1.497250741701e+00 0.0 
1.497250741701e+00 -2.237141484021e+02 0.0 
0.0 0.0 -9.259431957136e+01 
-7.816200027917e+01 1.136194007084e+01 0.0 
1.136194007084e+01 -1.844698958858e+02 0.0 
0.0 0.0 -7.838956884950e+01 
-3.641774915092e+01 -3.277829747568e-01 0.0 
-3.277829747568e-01 -9.393114565186e+01 0.0 
0.0 0.0 -3.870466844083e+01 
-1.349520466014e+02 4.449915853644e+00 0.0 
4.449915853644e+00 -3.283137634444e+02 0.0 
0.0 0.0 -1.385797430137e+02 
-1.409772014450e+02 6.705577220846e+00 0.0 
6.705577220846e+00 -3.397953845351e+02 0.0 
0.0 0.0 -1.438317757940e+02 
-1.043065985718e+02 8.232706637713e+00 0.0 
8.232706637713e+00 -2.350251399779e+02 0.0 
0.0 0.0 -1.013995215649e+02 
-6.227620107744e+01 -5.811683634280e-01 0.0 
-5.811683634280e-01 -1.648137939932e+02 0.0 
0.0 0.0 -6.772699852120e+01 
-9.465474059395e+01 1.968958608473e+00 0.0 
1.968958608473e+00 -2.426978955076e+02 0.0 
0.0 0.0 -1.008057908305e+02 
-9.736013200619e+01 2.452857025894e-01 0.0 
2.452857025894e-01 -2.185227399435e+02 0.0 
0.0 0.0 -9.436486158489e+01 
-6.704118599565e+01 7.632636836876e-01 0.0 
7.632636836876e-01 -1.741689908599e+02 0.0 
0.0 0.0 -7.196305305666e+01 
-6.386490817008e+01 1.154792693070e+01 0.0 
1.154792693070e+01 -1.419200313740e+02 0.0 
0.0 0.0 -6.133548186322e+01 
-5.120471364679e+01 3.398485266925e-02 0.0 
3.398485266925e-02 -1.330562948906e+02 0.0 
0.0 0.0 -5.487830256123e+01 
-4.267993173287e+01 1.384394411341e-01 0.0 
1.384394411341e-01 -1.140198632882e+02 0.0 
0.0 0.0 -4.660993850633e+01 
-6.735594753289e+01 1.119794389199e+00 0.0 
1.119794389199e+00 -1.761515367577e+02 0.0 
0.0 0.0 -7.265224528719e+01 
-4.643922481102e+01 -1.411759348556e+00 0.0 
-1.411759348556e+00 -1.214214592214e+02 0.0 
0.0 0.0 -4.995820520973e+01 
-4.297350435878e+01 4.607854370268e-02 0.0 
4.607854370268e-02 -1.109530511948e+02 0.0 
0.0 0.0 -4.577796666608e+01 
-8.731286807134e+01 2.722383846175e+00 0.0 
2.722383846175e+00 -2.244263456267e+02 0.0 
0.0 0.0 -9.312176410942e+01 
-1.074774348044e+02 2.194923766812e+00 0.0 
2.194923766812e+00 -2.706161225177e+02 0.0 
0.0 0.0 -1.130280671966e+02 
-1.235227006101e+02 8.656509643618e+00 0.0 
8.656509643618e+00 -2.823953973451e+02 0.0 
0.0 0.0 -1.213754293866e+02 
-5.952775799397e+00 -4.843862224939e-01 0.0 
-4.843862224939e-01 -9.022529810154e+00 0.0 
0.0 0.0 -4.092591682865e+00 
-7.023915111687e+01 2.720342716942e+00 0.0 
2.720342716942e+00 -1.879077106146e+02 0.0 
0.0 0.0 -7.704405851944e+01 
-7.022492629603e+01 1.472660834281e+00 0.0 
1.472660834281e+00 -1.872146371135e+02 0.0 
0.0 0.0 -7.683186902286e+01 
-6.619768932169e+01 -8.441016266967e-02 0.0 
-8.441016266967e-02 -1.754111975828e+02 0.0 
0.0 0.0 -7.208266607134e+01 
-9.319067525470e+01 2.472040022953e-01 0.0 
2.472040022953e-01 -2.078099890204e+02 0.0 
0.0 0.0 -8.990019928252e+01 
-7.809846001914e+01 1.009758614764e+00 0.0 
1.009758614764e+00 -2.047490254967e+02 0.0 
0.0 0.0 -8.445424565476e+01 
-5.400022231628e+01 -1.274871338750e+00 0.0 
-1.274871338750e+00 -1.410544703547e+02 0.0 
0.0 0.0 -5.811640780130e+01 
-7.134445170692e+01 1.656665008081e+00 0.0 
1.656665008081e+00 -1.865930687309e+02 0.0 
0.0 0.0 -7.698125613136e+01 
-1.099755956075e+02 1.637999186679e-01 0.0 
1.637999186679e-01 -2.509446874564e+02 0.0 
0.0 0.0 -1.078760849192e+02 
-5.453296696199e+01 1.934398128402e-01 0.0 
1.934398128402e-01 -1.416064638208e+02 0.0 
0.0 0.0 -5.844182923482e+01 
-2.170539258693e+01 -1.564086699361e+00 0.0 
-1.564086699361e+00 -5.429560122361e+01 0.0 
0.0 0.0 -2.240029814316e+01 
-2.872918581851e+01 -1.693165309369e+00 0.0 
-1.693165309369e+00 -7.401142126058e+01 0.0 
0.0 0.0 -3.042218212373e+01 
-4.473678052202e+01 -8.653672405554e-01 0.0 
-8.653672405554e-01 -1.217137740470e+02 0.0 
0.0 0.0 -4.953516637071e+01 
-5.478164332479e+01 -9.711503341394e-01 0.0 
-9.711503341394e-01 -1.456601774238e+02 0.0 
0.0 0.0 -5.973254622458e+01 
-7.419333579162e+01 2.303744636964e+00 0.0 
2.303744636964e+00 -1.969413086566e+02 0.0 
0.0 0.0 -8.094039333445e+01 
-7.532515325525e+01 2.304422190915e+00 0.0 
2.304422190915e+00 -1.967671041577e+02 0.0 
0.0 0.0 -8.122767722390e+01 
-3.228662751465e+01 -5.555611715736e-01 0.0 
-5.555611715736e-01 -8.381717353302e+01 0.0 
0.0 0.0 -3.443114031430e+01 
-2.881507509647e+01 -3.012115944072e-01 0.0 
-3.012115944072e-01 -7.434063147176e+01 0.0 
0.0 0.0 -3.054671197047e+01 
-8.940632154080e+01 2.377356432918e+00 0.0 
2.377356432918e+00 -1.956026856528e+02 0.0 
0.0 0.0 -8.510270215809e+01 
-4.711218184725e+01 4.515154473723e-02 0.0 
4.515154473723e-02 -1.220245866879e+02 0.0 
0.0 0.0 -5.034103056054e+01 
-1.213665750768e+02 4.321780042081e+00 0.0 
4.321780042081e+00 -3.003694864686e+02 0.0 
0.0 0.0 -1.261208184636e+02 
-1.197093144864e+02 8.753545196614e+00 0.0 
8.753545196614e+00 -2.739220627502e+02 0.0 
0.0 0.0 -1.176894131710e+02 
-9.451167070698e+01 4.739644797134e+00 0.0 
4.739644797134e+00 -2.028657964048e+02 0.0 
0.0 0.0 -8.881324013355e+01 
-1.166956479976e+02 1.791904433587e+00 0.0 
1.791904433587e+00 -2.653653321423e+02 0.0 
0.0 0.0 -1.142182940420e+02 
-1.273177571669e+02 8.498317650807e+00 0.0 
8.498317650807e+00 -2.910254092086e+02 0.0 
0.0 0.0 -1.251029499126e+02 
-7.598222759531e+01 9.504277761067e+00 0.0 
9.504277761067e+00 -1.924746763907e+02 0.0 
0.0 0.0 -8.013707119580e+01 
-1.120097151477e+02 8.454241096689e+00 0.0 
8.454241096689e+00 -2.544496758857e+02 0.0 
0.0 0.0 -1.095378173100e+02 
-3.600806067865e+01 -3.692949444889e-01 0.0 
-3.692949444889e-01 -9.496472328767e+01 0.0 
0.0 0.0 -3.889183518989e+01 
-7.514856974026e+01 1.618908630466e+00 0.0 
1.618908630466e+00 -1.952243816459e+02 0.0 
0.0 0.0 -8.071188541585e+01 
-6.934951835394e+01 9.650743492730e+00 0.0 
9.650743492730e+00 -1.701717623667e+02 0.0 
0.0 0.0 -7.145638421618e+01 
-3.747216436400e+01 8.249718046813e-01 0.0 
8.249718046813e-01 -1.064885113290e+02 0.0 
0.0 0.0 -4.278820270791e+01 
-2.966230598275e+01 -7.053197205938e-01 0.0 
-7.053197205938e-01 -7.588544548518e+01 0.0 
0.0 0.0 -3.126432544038e+01 
-6.203743175254e+01 -8.768508883675e-01 0.0 
-8.768508883675e-01 -1.627355660135e+02 0.0 
0.0 0.0 -6.703189932981e+01 
-7.142737663499e+01 2.471036708907e+00 0.0 
2.471036708907e+00 -1.879693344459e+02 0.0 
0.0 0.0 -7.741901332428e+01 
-7.532839880844e+01 3.295179007759e+00 0.0 
3.295179007759e+00 -1.976491252239e+02 0.0 
0.0 0.0 -8.149325720969e+01 
-4.982603715353e+01 -1.225916021868e+00 0.0 
-1.225916021868e+00 -1.299857620141e+02 0.0 
0.0 0.0 -5.354353975030e+01 
-8.220768402357e+01 1.713449092904e+00 0.0 
1.713449092904e+00 -2.148290990030e+02 0.0 
0.0 0.0 -8.871103490797e+01 
-7.136063732137e+01 3.605289318064e+00 0.0 
3.605289318064e+00 -1.886008292170e+02 0.0 
0.0 0.0 -7.758843996152e+01 
-7.427375150502e+01 3.690309995608e+00 0.0 
3.690309995608e+00 -1.971459395825e+02 0.0 
0.0 0.0 -8.102590732627e+01 
-5.586417476535e+01 2.533409991004e-01 0.0 
2.533409991004e-01 -1.463798831153e+02 0.0 
0.0 0.0 -6.027321736420e+01 
-1.093571618105e+02 8.918260419785e+00 0.0 
8.918260419785e+00 -2.694846802133e+02 0.0 
0.0 0.0 -1.132525526071e+02 
-1.020513503098e+02 2.290650683177e+00 0.0 
2.290650683177e+00 -2.281687917261e+02 0.0 
0.0 0.0 -9.866604261077e+01 
-7.036061458754e+01 4.257218921620e+00 0.0 
4.257218921620e+00 -1.878268507923e+02 0.0 
0.0 0.0 -7.705623961396e+01 
-1.305945258319e+02 4.763220904334e+00 0.0 
4.763220904334e+00 -3.193061926925e+02 0.0 
0.0 0.0 -1.345702155573e+02 
-3.934985620669e+01 1.929654418187e-01 0.0 
1.929654418187e-01 -1.054819871816e+02 0.0 
0.0 0.0 -4.304955301647e+01 
-1.405030567498e+02 6.394221974253e+00 0.0 
6.394221974253e+00 -3.389824611728e+02 0.0 
0.0 0.0 -1.434456553768e+02 
-7.817229030622e+01 1.970195499051e+00 0.0 
1.970195499051e+00 -2.058662311665e+02 0.0 
0.0 0.0 -8.481155644183e+01 
-1.317447604219e+02 8.256028702753e+00 0.0 
8.256028702753e+00 -3.015573611319e+02 0.0 
0.0 0.0 -1.295906364661e+02 
-9.813135219656e+01 7.834778274157e+00 0.0 
7.834778274157e+00 -2.127333780745e+02 0.0 
0.0 0.0 -9.285941908130e+01 
-3.793689175701e+01 -1.326247684815e+00 0.0 
-1.326247684815e+00 -1.026631042684e+02 0.0 
0.0 0.0 -4.177999880762e+01 
-9.841197835163e+01 5.530862108907e+00 0.0 
5.530862108907e+00 -2.121979100471e+02 0.0 
0.0 0.0 -9.278296651961e+01 
-1.202554609017e+02 2.931251161346e+00 0.0 
2.931251161346e+00 -2.730258115736e+02 0.0 
0.0 0.0 -1.175843817426e+02 
-8.228941616585e+01 2.805270497170e+00 0.0 
2.805270497170e+00 -2.155228550412e+02 0.0 
0.0 0.0 -8.894368136213e+01 
-5.328103750065e+01 1.237722886232e+01 0.0 
1.237722886232e+01 -1.262495856712e+02 0.0 
0.0 0.0 -5.345918695156e+01 
-1.022662306901e+02 6.338049405126e+00 0.0 
6.338049405126e+00 -2.217452153423e+02 0.0 
0.0 0.0 -9.680343380972e+01 
-7.668268259373e+01 8.408378687368e+00 0.0 
8.408378687368e+00 -1.686488759795e+02 0.0 
0.0 0.0 -7.319946757196e+01 
-3.134947833684e+01 -1.707425054455e+00 0.0 
-1.707425054455e+00 -8.315141558283e+01 0.0 
0.0 0.0 -3.395026817590e+01 
-1.321987115219e+02 2.426724720770e+00 0.0 
2.426724720770e+00 -3.054136709079e+02 0.0 
0.0 0.0 -1.308837147289e+02 
-2.796065342290e+01 -1.894764566239e+00 0.0 
-1.894764566239e+00 -7.260461794384e+01 0.0 
0.0 0.0 -2.976958141002e+01 
-1.364024891333e+02 1.098432996385e+01 0.0 
1.098432996385e+01 -3.243499257513e+02 0.0 
0.0 0.0 -1.378257244654e+02 
-1.214296913212e+02 6.841840510109e-01 0.0 
6.841840510109e-01 -2.795115624804e+02 0.0 
0.0 0.0 -1.198823761405e+02 
-1.135398377284e+02 8.521552762816e+00 0.0 
8.521552762816e+00 -2.797040588709e+02 0.0 
0.0 0.0 -1.175731689798e+02 
-8.918703511222e+01 -1.139212920623e-01 0.0 
-1.139212920623e-01 -1.986892012588e+02 0.0 
0.0 0.0 -8.596287091131e+01 
-1.138412200853e+02 3.055513852165e+00 0.0 
3.055513852165e+00 -2.569953029966e+02 0.0 
0.0 0.0 -1.108509569246e+02 
-7.525405397673e+01 4.574205132651e+00 0.0 
4.574205132651e+00 -1.977665154701e+02 0.0 
0.0 0.0 -8.150617083406e+01 
-8.817831200784e+01 8.958395509748e+00 0.0 
8.958395509748e+00 -2.216647029561e+02 0.0 
0.0 0.0 -9.255290448918e+01 
-1.244796572626e+02 2.135260957860e+00 0.0 
2.135260957860e+00 -2.850806083242e+02 0.0 
0.0 0.0 -1.224680796761e+02 
-1.163463288287e+02 2.611221030220e+00 0.0 
2.611221030220e+00 -2.896452103446e+02 0.0 
0.0 0.0 -1.213974617520e+02 
-1.059912532326e+02 2.671433893253e+00 0.0 
2.671433893253e+00 -2.372418425615e+02 0.0 
0.0 0.0 -1.025699287382e+02 
-1.079721372620e+02 5.276545484368e+00 0.0 
5.276545484368e+00 -2.713094730905e+02 0.0 
0.0 0.0 -1.133844831058e+02 
-3.465895252596e+01 -1.236920902938e+00 0.0 
-1.236920902938e+00 -9.419782153435e+01 0.0 
0.0 0.0 -3.825703221809e+01 
-1.099203515588e+02 3.120164717373e+00 0.0 
3.120164717373e+00 -2.463114404145e+02 0.0 
0.0 0.0 -1.064695375920e+02 
-1.426820169729e+02 1.136754961000e+01 0.0 
1.136754961000e+01 -3.301730474522e+02 0.0 
0.0 0.0 -1.414565193275e+02 
-1.403709760147e+02 5.137277252702e+00 0.0 
5.137277252702e+00 -3.390417627881e+02 0.0 
0.0 0.0 -1.434238216408e+02 
-7.404331956714e+01 3.964932764587e-01 0.0 
3.964932764587e-01 -1.944890834795e+02 0.0 
0.0 0.0 -8.015972091400e+01 
-8.994492474055e+01 1.667574502014e+00 0.0 
1.667574502014e+00 -1.992497090106e+02 0.0 
0.0 0.0 -8.635839012535e+01 
-8.494510360875e+01 -1.410828881694e-01 0.0 
-1.410828881694e-01 -1.880849411077e+02 0.0 
0.0 0.0 -8.150901341495e+01 
-7.928773045691e+01 3.063556117442e+00 0.0 
3.063556117442e+00 -2.065793016352e+02 0.0 
0.0 0.0 -8.536010962764e+01 
-1.120509222107e+02 2.857818357566e+00 0.0 
2.857818357566e+00 -2.806882239210e+02 0.0 
0.0 0.0 -1.174217438395e+02 
-1.166861765533e+02 3.566714568525e+00 0.0 
3.566714568525e+00 -2.906063951610e+02 0.0 
0.0 0.0 -1.217877715143e+02 
-2.598642454283e+01 -3.911076467316e-01 0.0 
-3.911076467316e-01 -6.562289629665e+01 0.0 
0.0 0.0 -2.708279625184e+01 
-3.974643014614e+01 6.879821230080e+00 0.0 
6.879821230080e+00 -1.131298110894e+02 0.0 
0.0 0.0 -4.546287237068e+01 
-7.459064227513e+01 5.282752178146e+00 0.0 
5.282752178146e+00 -1.965934306484e+02 0.0 
0.0 0.0 -8.095522187705e+01 
-7.126834796331e+01 5.072238567753e+00 0.0 
5.072238567753e+00 -1.884065478821e+02 0.0 
0.0 0.0 -7.750246875363e+01 
-7.555938726456e+01 9.500505764934e+00 0.0 
9.500505764934e+00 -1.727105207220e+02 0.0 
0.0 0.0 -7.408097239598e+01 
-1.291890106956e+02 3.644752138217e+00 0.0 
3.644752138217e+00 -2.961499919747e+02 0.0 
0.0 0.0 -1.272017008011e+02 
-1.238612143788e+02 5.327117602656e+00 0.0 
5.327117602656e+00 -2.806714069839e+02 0.0 
0.0 0.0 -1.209597864088e+02 
-1.220415823645e+02 2.302235034249e+00 0.0 
2.302235034249e+00 -2.799540200054e+02 0.0 
0.0 0.0 -1.201986807110e+02 
-6.623285136254e+01 7.903106856432e+00 0.0 
7.903106856432e+00 -1.357585538935e+02 0.0 
0.0 0.0 -6.019742157681e+01 
-1.126404673795e+02 2.458121876566e+00 0.0 
2.458121876566e+00 -2.532658975326e+02 0.0 
0.0 0.0 -1.093719094736e+02 
-1.128736757782e+02 4.194206835262e+00 0.0 
4.194206835262e+00 -2.813278749894e+02 0.0 
0.0 0.0 -1.178604652303e+02 
-1.246801433982e+02 1.509624404979e+00 0.0 
1.509624404979e+00 -2.868418574582e+02 0.0 
0.0 0.0 -1.230566002569e+02 
-1.059791024451e+02 3.170529311656e+00 0.0 
3.170529311656e+00 -2.356502182939e+02 0.0 
0.0 0.0 -1.020887962217e+02 
-7.921115484568e+01 2.199260145408e+00 0.0 
2.199260145408e+00 -2.054845524390e+02 0.0 
0.0 0.0 -8.500871218539e+01 
-7.075574479382e+01 5.988207974015e+00 0.0 
5.988207974015e+00 -1.868199221164e+02 0.0 
0.0 0.0 -7.687270007308e+01 
-1.089044017112e+02 1.392411015091e+00 0.0 
1.392411015091e+00 -2.455907555182e+02 0.0 
0.0 0.0 -1.059485471688e+02 
-1.215944459506e+02 3.422259878952e+00 0.0 
3.422259878952e+00 -2.768000939049e+02 0.0 
0.0 0.0 -1.191183619566e+02 
-1.091804636705e+02 9.148680855252e-01 0.0 
9.148680855252e-01 -2.472731854877e+02 0.0 
0.0 0.0 -1.065360947475e+02 
-1.050793105938e+02 9.629097409974e-01 0.0 
9.629097409974e-01 -2.365691203970e+02 0.0 
0.0 0.0 -1.020945292972e+02 
-1.302010194387e+02 3.680634404370e+00 0.0 
3.680634404370e+00 -3.186479442749e+02 0.0 
0.0 0.0 -1.342546891141e+02 
-1.322091775721e+02 1.106274745643e+01 0.0 
1.106274745643e+01 -3.138903648220e+02 0.0 
0.0 0.0 -1.334298627182e+02 
-1.257959481349e+02 3.990506916284e+00 0.0 
3.990506916284e+00 -3.095664982779e+02 0.0 
0.0 0.0 -1.302087339238e+02 
-9.880422077657e+01 1.767573926224e+00 0.0 
1.767573926224e+00 -2.515798636480e+02 0.0 
0.0 0.0 -1.047152253274e+02 
-6.140609246885e+01 2.291180932851e+00 0.0 
2.291180932851e+00 -1.249255535082e+02 0.0 
0.0 0.0 -5.549949379311e+01 
-1.180905621084e+02 9.220464257755e+00 0.0 
9.220464257755e+00 -2.881965823557e+02 0.0 
0.0 0.0 -1.214861433392e+02 
-1.049565738059e+02 2.567176315894e+00 0.0 
2.567176315894e+00 -2.325182343101e+02 0.0 
0.0 0.0 -1.008424424348e+02 
-4.238679724231e+01 -1.376474611415e+00 0.0 
-1.376474611415e+00 -1.103964607740e+02 0.0 
0.0 0.0 -4.543497740488e+01 
-7.527693265215e+01 6.139064911759e+00 0.0 
6.139064911759e+00 -1.970815141703e+02 0.0 
0.0 0.0 -8.130753404673e+01 
-8.673640357043e+01 5.039317591011e+00 0.0 
5.039317591011e+00 -2.244263062922e+02 0.0 
0.0 0.0 -9.294881295878e+01 
-9.666468578119e+01 9.129919248314e+00 0.0 
9.129919248314e+00 -2.402997116923e+02 0.0 
0.0 0.0 -1.006893192420e+02 
-3.667289823372e+01 2.599431925311e+00 0.0 
2.599431925311e+00 -1.064856587208e+02 0.0 
0.0 0.0 -4.254756708637e+01 
-7.131075221516e+01 6.792448730999e+00 0.0 
6.792448730999e+00 -1.872487286233e+02 0.0 
0.0 0.0 -7.716784425154e+01 
-1.052634864924e+02 9.333293791396e+00 0.0 
9.333293791396e+00 -2.590614204164e+02 0.0 
0.0 0.0 -1.088974720726e+02 
-7.363943048045e+01 4.042544908847e+00 0.0 
4.042544908847e+00 -1.536906102928e+02 0.0 
0.0 0.0 -6.779901223199e+01 
-8.208450007002e+01 8.648474951583e-01 0.0 
8.648474951583e-01 -2.135223325796e+02 0.0 
0.0 0.0 -8.828204979489e+01 
-9.798961799264e+01 2.729569287473e+00 0.0 
2.729569287473e+00 -2.158348317263e+02 0.0 
0.0 0.0 -9.374733491567e+01 
-7.226190404784e+01 -4.401287660633e-01 0.0 
-4.401287660633e-01 -1.582674062318e+02 0.0 
0.0 0.0 -6.875879308390e+01 
-1.392069029077e+01 9.935096716691e+00 0.0 
9.935096716691e+00 -1.510688094224e+01 0.0 
0.0 0.0 -8.308271369902e+00 
-9.562721223829e+01 3.231908398295e+00 0.0 
3.231908398295e+00 -2.433863828299e+02 0.0 
0.0 0.0 -1.013040785205e+02 
-1.172262138397e+02 6.823245714901e+00 0.0 
6.823245714901e+00 -2.892101051809e+02 0.0 
0.0 0.0 -1.215308957062e+02 
-1.275499031802e+02 4.967287731669e+00 0.0 
4.967287731669e+00 -2.905822084286e+02 0.0 
0.0 0.0 -1.250396334827e+02 
-8.350052983810e+01 7.089674768177e+00 0.0 
7.089674768177e+00 -2.133104267667e+02 0.0 
0.0 0.0 -8.864328698145e+01 
-9.033939616074e+01 1.320479271290e+00 0.0 
1.320479271290e+00 -2.325530315101e+02 0.0 
0.0 0.0 -9.646772830126e+01 
-9.796069007540e+01 2.288857709966e+00 0.0 
2.288857709966e+00 -2.175149647436e+02 0.0 
0.0 0.0 -9.424269644572e+01 
-1.186811645415e+01 8.276593523433e+00 0.0 
8.276593523433e+00 -1.525729429175e+01 0.0 
0.0 0.0 -7.737623223769e+00 
-1.130669101400e+02 7.214144534242e+00 0.0 
7.214144534242e+00 -2.792215284210e+02 0.0 
0.0 0.0 -1.172865315683e+02 
-9.213033742107e+01 8.377569098283e+00 0.0 
8.377569098283e+00 -2.321082423581e+02 0.0 
0.0 0.0 -9.687157393374e+01 
-7.880773642137e+01 5.948559975490e+00 0.0 
5.948559975490e+00 -1.640879567365e+02 0.0 
0.0 0.0 -7.246870794736e+01 
-1.174769482449e+02 4.900779339964e+00 0.0 
4.900779339964e+00 -2.912300007959e+02 0.0 
0.0 0.0 -1.222120847122e+02 
-3.926460686697e+01 1.137188436784e+00 0.0 
1.137188436784e+00 -1.073080322306e+02 0.0 
0.0 0.0 -4.357179172926e+01 
-1.221457879167e+02 5.655239653354e+00 0.0 
5.655239653354e+00 -3.009901113839e+02 0.0 
0.0 0.0 -1.265407697902e+02 
-1.354312033098e+02 5.510182634618e+00 0.0 
5.510182634618e+00 -3.290233157924e+02 0.0 
0.0 0.0 -1.389363557307e+02 
-1.090117750342e+02 7.613607157379e+00 0.0 
7.613607157379e+00 -2.690580491669e+02 0.0 
0.0 0.0 -1.130209472604e+02 
-1.099926780092e+02 2.621082775563e+00 0.0 
2.621082775563e+00 -2.479105958535e+02 0.0 
0.0 0.0 -1.069709821588e+02 
-1.197422094989e+02 1.107294735439e+01 0.0 
1.107294735439e+01 -2.769219214490e+02 0.0 
0.0 0.0 -1.185992392844e+02 
-1.362502955079e+02 6.988852285163e+00 0.0 
6.988852285163e+00 -3.296399500136e+02 0.0 
0.0 0.0 -1.393670736565e+02 
-1.358756935308e+01 2.980631405863e+00 0.0 
2.980631405863e+00 -2.258315676626e+01 0.0 
0.0 0.0 -1.045121783580e+01 
-1.020078718959e+02 2.683146790594e+00 0.0 
2.683146790594e+00 -2.265773663395e+02 0.0 
0.0 0.0 -9.817557147060e+01 
-1.321929483407e+02 1.145770135175e+01 0.0 
1.145770135175e+01 -3.110446037405e+02 0.0 
0.0 0.0 -1.325712656244e+02 
-1.129336884045e+02 1.326000582514e+00 0.0 
1.326000582514e+00 -2.563164986304e+02 0.0 
0.0 0.0 -1.103750561105e+02 
-1.004187765879e+02 7.405230170621e+00 0.0 
7.405230170621e+00 -2.503627327190e+02 0.0 
0.0 0.0 -1.048344527921e+02 
-7.546518480139e+01 7.856795939400e+00 0.0 
7.856795939400e+00 -1.953003499693e+02 0.0 
0.0 0.0 -8.082966043121e+01 
-8.981021339703e+01 1.613559689328e-01 0.0 
1.613559689328e-01 -2.292742886909e+02 0.0 
0.0 0.0 -9.532535062638e+01 
-2.135700248867e+01 1.699909713532e+00 0.0 
1.699909713532e+00 -6.138141947249e+01 0.0 
0.0 0.0 -2.442152658835e+01 
-1.169910616452e+02 1.221272476714e+00 0.0 
1.221272476714e+00 -2.670293999951e+02 0.0 
0.0 0.0 -1.148061384921e+02 
-4.583560315772e+01 -1.280329074856e+00 0.0 
-1.280329074856e+00 -1.190747063868e+02 0.0 
0.0 0.0 -4.907309286335e+01 
-2.243635869295e+01 1.885159899750e+00 0.0 
1.885159899750e+00 -4.069918926797e+01 0.0 
0.0 0.0 -1.854066438828e+01 
-1.160230417374e+02 1.075161915098e+01 0.0 
1.075161915098e+01 -2.658959639281e+02 0.0 
0.0 0.0 -1.141757016996e+02 
-1.253419097592e+02 1.018004086964e+00 0.0 
1.018004086964e+00 -2.890063580043e+02 0.0 
0.0 0.0 -1.239044803291e+02 
-3.611513389987e+01 2.901573413433e-01 0.0 
2.901573413433e-01 -9.712512192584e+01 0.0 
0.0 0.0 -3.957207674771e+01 
-8.888977597507e+01 1.008097370287e+01 0.0 
1.008097370287e+01 -1.967065932900e+02 0.0 
0.0 0.0 -8.527891077953e+01 
-1.049103053917e+02 1.410088970613e+00 0.0 
1.410088970613e+00 -2.349061617086e+02 0.0 
0.0 0.0 -1.015449401301e+02 
-8.708486930207e+01 2.048956130194e+00 0.0 
2.048956130194e+00 -2.230272350535e+02 0.0 
0.0 0.0 -9.263363130668e+01 
-3.858179050524e+01 2.888369082518e+00 0.0 
2.888369082518e+00 -1.073593341709e+02 0.0 
0.0 0.0 -4.338233740284e+01 
-4.944999667832e+01 1.072936198050e+01 0.0 
1.072936198050e+01 -1.202199724515e+02 0.0 
0.0 0.0 -5.050099073895e+01 
-2.865616119907e+01 -1.497872076290e+00 0.0 
-1.497872076290e+00 -7.527051310188e+01 0.0 
0.0 0.0 -3.077800229029e+01 
-3.455284057740e+01 -3.182788881532e-01 0.0 
-3.182788881532e-01 -9.635258191695e+01 0.0 
0.0 0.0 -3.887162674831e+01 
-3.153031784231e+01 -1.072860231967e+00 0.0 
-1.072860231967e+00 -8.614509453077e+01 0.0 
0.0 0.0 -3.490262371192e+01 
-9.191510222586e+01 7.239359286583e+00 0.0 
7.239359286583e+00 -2.317741476072e+02 0.0 
0.0 0.0 -9.670677494993e+01 
-1.426228767207e+02 5.026678502280e+00 0.0 
5.026678502280e+00 -3.302221283592e+02 0.0 
0.0 0.0 -1.414535015240e+02 
-3.134391015154e+01 1.311284699388e+00 0.0 
1.311284699388e+00 -5.967013286188e+01 0.0 
0.0 0.0 -2.690421290403e+01 
-1.346833565837e+02 3.399492175395e+00 0.0 
3.399492175395e+00 -3.276292524841e+02 0.0 
0.0 0.0 -1.382937827203e+02 
-6.334965088978e+01 7.618705477514e+00 0.0 
7.618705477514e+00 -1.665397928545e+02 0.0 
0.0 0.0 -6.856683312330e+01 
-1.020617519385e+02 3.229259760895e+00 0.0 
3.229259760895e+00 -2.251478966341e+02 0.0 
0.0 0.0 -9.776289457177e+01 
-2.673338798944e+01 2.628562796782e+00 0.0 
2.628562796782e+00 -7.943393723764e+01 0.0 
0.0 0.0 -3.145019756813e+01 
-1.410538745913e+02 7.756527210058e+00 0.0 
7.756527210058e+00 -3.391070020467e+02 0.0 
0.0 0.0 -1.436482629914e+02 
-3.311879823418e+01 -4.137778888186e-01 0.0 
-4.137778888186e-01 -8.691213436221e+01 0.0 
0.0 0.0 -3.560927977892e+01 
-5.372543178707e+01 -1.148635637612e+00 0.0 
-1.148635637612e+00 -1.393076725396e+02 0.0 
0.0 0.0 -5.750993129799e+01 
-1.136607006820e+02 8.197720580027e+00 0.0 
8.197720580027e+00 -2.774902421182e+02 0.0 
0.0 0.0 -1.169452828401e+02 
-7.924883982941e+01 4.184696845584e+00 0.0 
4.184696845584e+00 -2.069508545547e+02 0.0 
0.0 0.0 -8.545990831525e+01 
-1.279250251414e+02 1.110962121419e+01 0.0 
1.110962121419e+01 -3.030831945590e+02 0.0 
0.0 0.0 -1.289024659101e+02 
-5.590066591513e+01 1.185365138915e+01 0.0 
1.185365138915e+01 -1.221750042104e+02 0.0 
0.0 0.0 -5.302270103766e+01 
-1.099551848167e+02 4.296165164064e+00 0.0 
4.296165164064e+00 -2.436705700739e+02 0.0 
0.0 0.0 -1.056877264672e+02 
-1.358409514106e+02 9.394356249243e+00 0.0 
9.394356249243e+00 -3.237636765599e+02 0.0 
0.0 0.0 -1.374813883911e+02 
-1.009957349537e+02 9.596044463485e-01 0.0 
9.596044463485e-01 -2.258738167494e+02 0.0 
0.0 0.0 -9.766086551093e+01 
-1.284724382337e+02 6.827051474024e+00 0.0 
6.827051474024e+00 -2.913729338166e+02 0.0 
0.0 0.0 -1.255536116151e+02 
-1.137632425864e+02 3.604535597597e+00 0.0 
3.604535597597e+00 -2.553545088703e+02 0.0 
0.0 0.0 -1.103353254370e+02 
-1.175776548181e+02 4.131089835675e+00 0.0 
4.131089835675e+00 -2.645443543167e+02 0.0 
0.0 0.0 -1.142366027404e+02 
-2.904985324722e+01 7.651419812979e+00 0.0 
7.651419812979e+00 -8.526660049218e+01 0.0 
0.0 0.0 -3.389493612182e+01 
-1.297568723271e+02 2.760804824882e+00 0.0 
2.760804824882e+00 -3.174233199626e+02 0.0 
0.0 0.0 -1.337540576869e+02 
-1.088179358965e+02 1.922744488025e+00 0.0 
1.922744488025e+00 -2.440804073551e+02 0.0 
0.0 0.0 -1.054695029755e+02 
-8.084468954905e+01 8.936403382137e+00 0.0 
8.936403382137e+00 -1.997371809888e+02 0.0 
0.0 0.0 -8.377456116134e+01 
-4.004034090798e+01 7.596980932380e-01 0.0 
7.596980932380e-01 -7.885021766655e+01 0.0 
0.0 0.0 -3.526716757236e+01 
-1.411007152067e+02 1.154662705453e+01 0.0 
1.154662705453e+01 -3.328047446450e+02 0.0 
0.0 0.0 -1.417716379555e+02 
-3.612973678917e+01 5.185966020598e+00 0.0 
5.185966020598e+00 -1.055306187239e+02 0.0 
0.0 0.0 -4.209810665392e+01 
-5.056621473301e+01 2.554657164962e-01 0.0 
2.554657164962e-01 -1.306066906252e+02 0.0 
0.0 0.0 -5.395187160746e+01 
-1.229020743081e+02 9.085270053317e+00 0.0 
9.085270053317e+00 -2.942346743465e+02 0.0 
0.0 0.0 -1.247410245964e+02 
-3.104391984042e+01 4.471941192454e-01 0.0 
4.471941192454e-01 -7.999480852731e+01 0.0 
0.0 0.0 -3.291161851032e+01 
-8.293330212058e+01 1.121800022334e+01 0.0 
1.121800022334e+01 -1.919747985429e+02 0.0 
0.0 0.0 -8.207243019905e+01 
-1.176717574562e+02 7.889978020574e+00 0.0 
7.889978020574e+00 -2.877643260960e+02 0.0 
0.0 0.0 -1.212308250656e+02 
-1.248225844007e+02 4.443490426298e+00 0.0 
4.443490426298e+00 -2.837267919279e+02 0.0 
0.0 0.0 -1.221648128986e+02 
-1.286061272435e+02 5.057372205850e+00 0.0 
5.057372205850e+00 -2.934115262066e+02 0.0 
0.0 0.0 -1.262052960350e+02 
-1.139480117595e+02 9.582381793579e+00 0.0 
9.582381793579e+00 -2.779007510780e+02 0.0 
0.0 0.0 -1.171546288513e+02 
-1.176419575169e+02 3.529222529713e+00 0.0 
3.529222529713e+00 -2.660643941008e+02 0.0 
0.0 0.0 -1.147119054853e+02 
-6.795057002826e+01 8.470239759646e+00 0.0 
8.470239759646e+00 -1.740392664177e+02 0.0 
0.0 0.0 -7.219695093379e+01 
-1.166466046609e+02 1.018266035857e+01 0.0 
1.018266035857e+01 -2.637141290388e+02 0.0 
0.0 0.0 -1.137082201099e+02 
-4.867074488452e+01 4.187549607551e-01 0.0 
4.187549607551e-01 -9.824030249536e+01 0.0 
0.0 0.0 -4.367331421396e+01 
-1.271014253755e+02 6.877976617676e+00 0.0 
6.877976617676e+00 -2.896478373841e+02 0.0 
0.0 0.0 -1.246247788279e+02 
-5.702202548102e+01 3.172730781113e-01 0.0 
3.172730781113e-01 -1.176426940030e+02 0.0 
0.0 0.0 -5.199941584521e+01 
-6.166015390198e+01 4.350305537518e-01 0.0 
4.350305537518e-01 -1.273833947960e+02 0.0 
0.0 0.0 -5.631306460941e+01 
-7.978276803470e+01 7.746770433338e+00 0.0 
7.746770433338e+00 -2.029647663120e+02 0.0 
0.0 0.0 -8.442426030402e+01 
-6.535082814189e+01 2.426302650046e-01 0.0 
2.426302650046e-01 -1.372828475041e+02 0.0 
0.0 0.0 -6.039010269381e+01 
-9.436062109654e+01 1.098125940399e+01 0.0 
1.098125940399e+01 -2.222876229337e+02 0.0 
0.0 0.0 -9.459447320908e+01 
-7.338733463876e+01 1.128703300574e+01 0.0 
1.128703300574e+01 -1.772126992243e+02 0.0 
0.0 0.0 -7.478001015893e+01 
-7.941342444984e+01 7.175828012139e+00 0.0 
7.175828012139e+00 -2.054292096597e+02 0.0 
0.0 0.0 -8.505279023288e+01 
-3.368277089686e+01 1.166573744198e+00 0.0 
1.166573744198e+00 -9.707072901803e+01 0.0 
0.0 0.0 -3.882604997447e+01 
-7.518914923424e+01 6.937681237593e+00 0.0 
6.937681237593e+00 -1.949835570040e+02 0.0 
0.0 0.0 -8.065181187148e+01 
-1.206916478318e+02 1.684057639738e+00 0.0 
1.684057639738e+00 -2.761198350784e+02 0.0 
0.0 0.0 -1.186434448730e+02 
-1.283453379345e+02 5.821303508539e+00 0.0 
5.821303508539e+00 -2.921955621309e+02 0.0 
0.0 0.0 -1.257622700196e+02 
-1.206480048615e+02 2.375371029166e+00 0.0 
2.375371029166e+00 -2.984936779087e+02 0.0 
0.0 0.0 -1.253425048311e+02 
-1.315200120785e+02 9.463122226103e+00 0.0 
9.463122226103e+00 -3.132571463706e+02 0.0 
0.0 0.0 -1.330331475347e+02 
-7.822584438770e+01 3.204274572977e+00 0.0 
3.204274572977e+00 -2.062983040520e+02 0.0 
0.0 0.0 -8.495724453190e+01 
-1.165429154979e+02 2.369344174332e+00 0.0 
2.369344174332e+00 -2.638000391141e+02 0.0 
0.0 0.0 -1.137028863836e+02 
-7.896298550088e+01 6.235295656196e+00 0.0 
6.235295656196e+00 -2.050369219791e+02 0.0 
0.0 0.0 -8.479997224399e+01 
-1.341912105882e+02 2.460627466584e+00 0.0 
2.460627466584e+00 -3.261887558230e+02 0.0 
0.0 0.0 -1.377139899234e+02 
-1.127147028051e+02 1.884909604971e+00 0.0 
1.884909604971e+00 -2.546186482273e+02 0.0 
0.0 0.0 -1.098000053097e+02 
-1.137593836198e+02 4.223629538154e+00 0.0 
4.223629538154e+00 -2.540560066171e+02 0.0 
0.0 0.0 -1.099446170711e+02 
-1.043633643871e+02 6.934048878614e+00 0.0 
6.934048878614e+00 -2.605018506047e+02 0.0 
0.0 0.0 -1.090595644976e+02 
-7.151348039123e+01 7.693906442659e+00 0.0 
7.693906442659e+00 -1.846720552707e+02 0.0 
0.0 0.0 -7.645566069859e+01 
-1.241561510631e+02 1.040647039347e+01 0.0 
1.040647039347e+01 -2.828344666488e+02 0.0 
0.0 0.0 -1.216971853136e+02 
-9.723183308422e+01 5.684151462104e+00 0.0 
5.684151462104e+00 -2.119345749193e+02 0.0 
0.0 0.0 -9.234992240105e+01 
-3.550904259343e+01 1.617453467445e+00 0.0 
1.617453467445e+00 -9.794695438412e+01 0.0 
0.0 0.0 -3.963679909327e+01 
-3.769787308149e+01 5.254473384585e+00 0.0 
5.254473384585e+00 -1.062101632123e+02 0.0 
0.0 0.0 -4.277241088815e+01 
-5.963627509654e+01 9.920038850864e+00 0.0 
9.920038850864e+00 -1.340980992192e+02 0.0 
0.0 0.0 -5.772031229471e+01 
-8.879885882571e+01 7.891304805742e+00 0.0 
7.891304805742e+00 -1.962300813738e+02 0.0 
0.0 0.0 -8.510868205986e+01 
-1.386462054478e+02 2.109004672173e+00 0.0 
2.109004672173e+00 -3.350806093672e+02 0.0 
0.0 0.0 -1.417180444445e+02 
-1.098788268065e+02 3.687156340904e+00 0.0 
3.687156340904e+00 -2.448318806056e+02 0.0 
0.0 0.0 -1.060132122236e+02 
-7.158823673768e+01 8.610912310779e+00 0.0 
8.610912310779e+00 -1.849046996684e+02 0.0 
0.0 0.0 -7.654788092182e+01 
-1.010483403592e+02 9.712373048881e+00 0.0 
9.712373048881e+00 -2.246066215925e+02 0.0 
0.0 0.0 -9.729648858550e+01 
-1.219156565171e+02 7.540309344030e+00 0.0 
7.540309344030e+00 -2.980882133744e+02 0.0 
0.0 0.0 -1.256011609675e+02 
-1.178017448844e+02 2.952898585398e+00 0.0 
2.952898585398e+00 -2.676778142023e+02 0.0 
0.0 0.0 -1.152438677260e+02 
-1.278507484229e+02 1.013848907842e+01 0.0 
1.013848907842e+01 -2.915050240133e+02 0.0 
0.0 0.0 -1.254067317309e+02 
-9.701391167629e+01 1.440016305355e+00 0.0 
1.440016305355e+00 -2.140114769171e+02 0.0 
0.0 0.0 -9.290761657801e+01 
-1.264346595184e+02 6.170713801718e+00 0.0 
6.170713801718e+00 -3.099520576250e+02 0.0 
0.0 0.0 -1.305160151430e+02 
-8.373070305398e+01 8.127408071902e+00 0.0 
8.127408071902e+00 -2.136317894690e+02 0.0 
0.0 0.0 -8.880874775691e+01 
-1.224005088375e+02 8.887016120401e+00 0.0 
8.887016120401e+00 -2.984728888131e+02 0.0 
0.0 0.0 -1.258620192952e+02 
-8.345835758388e+01 9.335049667303e+00 0.0 
9.335049667303e+00 -1.917945304934e+02 0.0 
0.0 0.0 -8.217586642317e+01 
-1.251359798684e+02 3.810355691271e+00 0.0 
3.810355691271e+00 -2.856058985094e+02 0.0 
0.0 0.0 -1.228225635133e+02 
-1.327774179815e+02 1.035666178514e+01 0.0 
1.035666178514e+01 -3.021828957084e+02 0.0 
0.0 0.0 -1.300880941070e+02 
-9.577398996036e+01 6.690935621746e+00 0.0 
6.690935621746e+00 -2.418748800973e+02 0.0 
0.0 0.0 -1.008946610173e+02 
-3.298238711630e+01 3.447101262998e+00 0.0 
3.447101262998e+00 -9.727983105972e+01 0.0 
0.0 0.0 -3.867866545281e+01 
-1.229532592787e+02 9.510985212503e+00 0.0 
9.510985212503e+00 -2.872283431542e+02 0.0 
0.0 0.0 -1.226544807298e+02 
-9.093865055429e+01 1.103570930588e+01 0.0 
1.103570930588e+01 -2.110223411553e+02 0.0 
0.0 0.0 -9.018829751288e+01 
-6.778726090073e+01 9.430254568878e+00 0.0 
9.430254568878e+00 -1.741845082217e+02 0.0 
0.0 0.0 -7.219153073672e+01 
-1.006750402473e+02 8.631137628837e+00 0.0 
8.631137628837e+00 -2.507338506640e+02 0.0 
0.0 0.0 -1.050226672734e+02 
-1.224184452931e+02 6.770281062492e+00 0.0 
6.770281062492e+00 -3.011173598557e+02 0.0 
0.0 0.0 -1.266607415446e+02 
-3.491330288954e+01 3.511504815397e+00 0.0 
3.511504815397e+00 -9.811194331526e+01 0.0 
0.0 0.0 -3.950757386144e+01 
-8.730884949832e+01 6.470074435915e+00 0.0 
6.470074435915e+00 -2.233868452696e+02 0.0 
0.0 0.0 -9.280870843038e+01 
-1.010666098112e+02 4.332549291060e+00 0.0 
4.332549291060e+00 -2.208503076936e+02 0.0 
0.0 0.0 -9.617507525144e+01 
-1.391321092325e+02 3.593324569102e+00 0.0 
3.593324569102e+00 -3.355842882320e+02 0.0 
0.0 0.0 -1.420149192394e+02 
-1.048992395885e+02 5.148079141392e+00 0.0 
5.148079141392e+00 -2.305843487172e+02 0.0 
0.0 0.0 -1.002450764917e+02 
-1.192850926586e+02 9.232490858359e+00 0.0 
9.232490858359e+00 -2.763446670261e+02 0.0 
0.0 0.0 -1.182889279054e+02 
-9.715710589814e+01 3.548699291448e+00 0.0 
3.548699291448e+00 -2.112907894150e+02 0.0 
0.0 0.0 -9.213436859395e+01 
-8.895434857943e+01 2.008961604243e+00 0.0 
2.008961604243e+00 -1.925657201451e+02 0.0 
0.0 0.0 -8.405602061735e+01 
-1.009885559139e+02 6.503449654360e+00 0.0 
6.503449654360e+00 -2.222687124805e+02 0.0 
0.0 0.0 -9.657718051831e+01 
-1.269860786934e+02 8.935821221221e+00 0.0 
8.935821221221e+00 -3.048482086175e+02 0.0 
0.0 0.0 -1.291502861933e+02 
-1.261245756902e+02 4.413605958539e+00 0.0 
4.413605958539e+00 -3.092664206215e+02 0.0 
0.0 0.0 -1.302172988935e+02 
-1.049122462268e+02 1.980116153164e+00 0.0 
1.980116153164e+00 -2.336403424217e+02 0.0 
0.0 0.0 -1.011657765946e+02 
-1.277788135324e+02 3.451133026214e+00 0.0 
3.451133026214e+00 -2.927714233481e+02 0.0 
0.0 0.0 -1.257650710642e+02 
-9.320363278014e+01 2.784178245418e+00 0.0 
2.784178245418e+00 -2.019281718504e+02 0.0 
0.0 0.0 -8.813954138918e+01 
-5.565164481021e+01 8.091675672736e+00 0.0 
8.091675672736e+00 -1.488593821585e+02 0.0 
0.0 0.0 -6.095330809061e+01 
-1.277303592803e+02 1.135653100461e+01 0.0 
1.135653100461e+01 -2.962161773769e+02 0.0 
0.0 0.0 -1.267839609972e+02 
-1.255965957584e+02 3.344734360616e+00 0.0 
3.344734360616e+00 -2.875352141569e+02 0.0 
0.0 0.0 -1.235395429746e+02 
-8.211983553597e+01 9.517254119434e+00 0.0 
9.517254119434e+00 -1.957933959769e+02 0.0 
0.0 0.0 -8.297396945385e+01 
-8.678152320574e+01 9.428518618781e+00 0.0 
9.428518618781e+00 -2.032127419169e+02 0.0 
0.0 0.0 -8.659827953680e+01 
-6.352798401391e+01 8.393716470990e+00 0.0 
8.393716470990e+00 -1.667890717214e+02 0.0 
0.0 0.0 -6.869511672059e+01 
-1.087778011511e+02 2.512884934606e+00 0.0 
2.512884934606e+00 -2.428319106496e+02 0.0 
0.0 0.0 -1.050829135402e+02 
-6.509447840680e+01 7.313067174854e+00 0.0 
7.313067174854e+00 -1.373958645149e+02 0.0 
0.0 0.0 -6.034710287652e+01 
-9.817939231455e+01 9.202785581240e+00 0.0 
9.202785581240e+00 -2.332233257180e+02 0.0 
0.0 0.0 -9.902081540977e+01 
-6.533460505751e+01 9.975759085564e+00 0.0 
9.975759085564e+00 -1.380161639459e+02 0.0 
0.0 0.0 -6.060523070102e+01 
-1.183123283227e+02 8.677290303034e+00 0.0 
8.677290303034e+00 -2.858800829546e+02 0.0 
0.0 0.0 -1.208577233832e+02 
-1.354292471529e+02 1.149856189016e+01 0.0 
1.149856189016e+01 -3.147135339293e+02 0.0 
0.0 0.0 -1.346428343247e+02 
-6.738762809021e+01 7.550734605697e+00 0.0 
7.550734605697e+00 -1.771604505261e+02 0.0 
0.0 0.0 -7.296442358490e+01 
-2.381150301678e+01 1.637215446542e+00 0.0 
1.637215446542e+00 -6.240568676407e+01 0.0 
0.0 0.0 -2.546515693425e+01 
-1.277036698793e+02 4.198502151728e+00 0.0 
4.198502151728e+00 -2.918332874095e+02 0.0 
0.0 0.0 -1.254610871866e+02 
-6.933382995474e+01 6.487515804636e+00 0.0 
6.487515804636e+00 -1.457948120613e+02 0.0 
0.0 0.0 -6.413859260482e+01 
-8.241016755026e+01 4.126139285597e+00 0.0 
4.126139285597e+00 -2.154670620171e+02 0.0 
0.0 0.0 -8.896316887022e+01 
-1.312338591871e+02 9.838377849227e+00 0.0 
9.838377849227e+00 -3.066899087275e+02 0.0 
0.0 0.0 -1.309771303744e+02 
-1.060204126256e+02 3.737082998258e+00 0.0 
3.737082998258e+00 -2.344108679140e+02 0.0 
0.0 0.0 -1.017293841619e+02 
-1.217936302870e+02 4.651164761944e+00 0.0 
4.651164761944e+00 -3.002986706730e+02 0.0 
0.0 0.0 -1.262276902880e+02 
-6.869240529621e+01 1.092615560774e+01 0.0 
1.092615560774e+01 -1.701677852005e+02 0.0 
0.0 0.0 -7.125805714902e+01 
-1.955478230433e+01 3.254343526961e-01 0.0 
3.254343526961e-01 -5.196075683968e+01 0.0 
0.0 0.0 -2.105466174320e+01 
-1.436766315322e+02 3.344924174836e+00 0.0 
3.344924174836e+00 -3.454226112018e+02 0.0 
0.0 0.0 -1.463297728202e+02 
-9.230773740632e+01 8.487554041063e+00 0.0 
8.487554041063e+00 -2.073853923985e+02 0.0 
0.0 0.0 -8.950793894145e+01 
-1.104209249652e+02 1.067396553829e+01 0.0 
1.067396553829e+01 -2.641109443781e+02 0.0 
0.0 0.0 -1.119595608030e+02 
-1.274929917183e+02 9.187497221743e+00 0.0 
9.187497221743e+00 -2.936688501502e+02 0.0 
0.0 0.0 -1.259485525606e+02 
-1.581213600182e+01 9.264963649477e-02 0.0 
9.264963649477e-02 -3.468666779663e+01 0.0 
0.0 0.0 -1.474964113953e+01 
-1.210373277697e+02 3.276974736325e+00 0.0 
3.276974736325e+00 -2.996737760674e+02 0.0 
0.0 0.0 -1.258133311511e+02 
-4.433517400725e+01 1.129425830678e+01 0.0 
1.129425830678e+01 -1.146671138778e+02 0.0 
0.0 0.0 -4.730068636550e+01 
-9.823092123028e+01 3.216904884582e+00 0.0 
3.216904884582e+00 -2.148170770949e+02 0.0 
0.0 0.0 -9.351439949754e+01 
-9.535506347084e+01 2.493050421813e+00 0.0 
2.493050421813e+00 -2.420635634165e+02 0.0 
0.0 0.0 -1.008255880662e+02 
-6.700062069844e+01 6.766211775832e+00 0.0 
6.766211775832e+00 -1.768104565884e+02 0.0 
0.0 0.0 -7.274332318605e+01 
-1.347328510778e+02 3.855933045891e+00 0.0 
3.855933045891e+00 -3.267264100712e+02 0.0 
0.0 0.0 -1.380377783447e+02 
-9.472826709838e+01 9.292525967400e+00 0.0 
9.292525967400e+00 -2.220753291638e+02 0.0 
0.0 0.0 -9.464107887865e+01 
-5.894825046679e+01 6.536260129723e+00 0.0 
6.536260129723e+00 -1.588124988537e+02 0.0 
0.0 0.0 -6.492822479615e+01 
-9.671593045230e+01 1.013342721305e+01 0.0 
1.013342721305e+01 -2.161017058811e+02 0.0 
0.0 0.0 -9.344529090003e+01 
-2.183942587329e+01 2.157999051557e-01 0.0 
2.157999051557e-01 -5.289662206081e+01 0.0 
0.0 0.0 -2.202081438023e+01 
-1.124273546215e+02 1.039333665442e+01 0.0 
1.039333665442e+01 -2.550061942488e+02 0.0 
0.0 0.0 -1.098300646611e+02 
-1.185934273373e+02 1.016558168952e+01 0.0 
1.016558168952e+01 -2.863183227628e+02 0.0 
0.0 0.0 -1.210735250300e+02 
-1.346489188142e+02 9.625547527371e+00 0.0 
9.625547527371e+00 -3.082917050461e+02 0.0 
0.0 0.0 -1.324821871581e+02 
-1.202835087467e+02 1.064642962640e+01 0.0 
1.064642962640e+01 -2.745403275127e+02 0.0 
0.0 0.0 -1.180471508778e+02 
-4.459228896073e+01 6.035256575926e+00 0.0 
6.035256575926e+00 -1.237751614347e+02 0.0 
0.0 0.0 -5.011023511863e+01 
-1.213709008941e+02 3.757875077924e+00 0.0 
3.757875077924e+00 -2.991114414624e+02 0.0 
0.0 0.0 -1.257447027070e+02 
-1.285113440269e+02 2.052766176010e+00 0.0 
2.052766176010e+00 -2.957703535505e+02 0.0 
0.0 0.0 -1.268845092732e+02 
-1.449440881467e+02 1.199852197391e+01 0.0 
1.199852197391e+01 -3.404102725176e+02 0.0 
0.0 0.0 -1.452063081993e+02 
-1.232630587918e+02 1.065534624671e+01 0.0 
1.065534624671e+01 -2.947233991511e+02 0.0 
0.0 0.0 -1.249959373829e+02 
-7.224716692178e+01 1.022846965411e+01 0.0 
1.022846965411e+01 -1.814164533837e+02 0.0 
0.0 0.0 -7.569908609163e+01 
-1.045566108387e+02 1.023556788294e+01 0.0 
1.023556788294e+01 -2.355139556522e+02 0.0 
0.0 0.0 -1.016211699473e+02 
-1.377100320349e+02 1.290382514578e+00 0.0 
1.290382514578e+00 -3.330080196929e+02 0.0 
0.0 0.0 -1.408154155183e+02 
-8.914742045802e+01 9.408522182363e-01 0.0 
9.408522182363e-01 -2.258136160441e+02 0.0 
0.0 0.0 -9.408831095063e+01 
-1.156277460563e+02 8.907166993320e+00 0.0 
8.907166993320e+00 -2.653499498509e+02 0.0 
0.0 0.0 -1.138933087722e+02 
-1.009688414838e+02 1.429769314285e+00 0.0 
1.429769314285e+00 -2.243900492410e+02 0.0 
0.0 0.0 -9.720766721745e+01 
-1.304241788150e+02 4.147044180043e+00 0.0 
4.147044180043e+00 -3.180108028113e+02 0.0 
0.0 0.0 -1.341304944879e+02 
-1.265187379385e+02 5.360017983361e+00 0.0 
5.360017983361e+00 -3.101762871589e+02 0.0 
0.0 0.0 -1.306085075292e+02 
-6.605900084075e+01 5.527222935260e-02 0.0 
5.527222935260e-02 -1.452157250993e+02 0.0 
0.0 0.0 -6.298241778201e+01 
-6.601402067893e+01 -1.305566359073e-01 0.0 
-1.305566359073e-01 -1.451711584608e+02 0.0 
0.0 0.0 -6.295555374191e+01 
-1.062147751705e+02 6.165154555509e+00 0.0 
6.165154555509e+00 -2.317445294380e+02 0.0 
0.0 0.0 -1.009877913825e+02 
-1.078672764513e+02 8.694852797683e+00 0.0 
8.694852797683e+00 -2.459826605744e+02 0.0 
0.0 0.0 -1.057549811077e+02 
-9.936290301665e+01 2.376600500034e+00 0.0 
2.376600500034e+00 -2.507852010370e+02 0.0 
0.0 0.0 -1.046444312161e+02 
-1.057642849119e+02 8.237584327839e+00 0.0 
8.237584327839e+00 -2.321298878404e+02 0.0 
0.0 0.0 -1.009682518257e+02 
-9.011830429618e+01 9.328618720975e+00 0.0 
9.328618720975e+00 -2.144199653537e+02 0.0 
0.0 0.0 -9.096148089496e+01 
-1.347743804644e+02 7.844435026675e+00 0.0 
7.844435026675e+00 -3.256375209866e+02 0.0 
0.0 0.0 -1.377235704353e+02 
-7.267340242543e+01 9.070362213194e+00 0.0 
9.070362213194e+00 -1.813492820838e+02 0.0 
0.0 0.0 -7.580680535277e+01 
-1.415237694720e+02 4.597501205340e+00 0.0 
4.597501205340e+00 -3.289950474554e+02 0.0 
0.0 0.0 -1.407556450782e+02 
-8.154489624170e+01 1.616538252078e+00 0.0 
1.616538252078e+00 -1.739139797324e+02 0.0 
0.0 0.0 -7.623766279224e+01 
-8.626057878010e+01 1.114594639745e+01 0.0 
1.114594639745e+01 -2.033674663566e+02 0.0 
0.0 0.0 -8.648841354102e+01 
-9.443586682291e+01 1.176102378706e+00 0.0 
1.176102378706e+00 -2.413702711466e+02 0.0 
0.0 0.0 -1.003418413909e+02 
-4.076668201815e+01 7.066367939736e+00 0.0 
7.066367939736e+00 -1.136037145693e+02 0.0 
0.0 0.0 -4.591111897625e+01 
-8.313297532319e+01 2.113009762471e+00 0.0 
2.113009762471e+00 -2.142434609999e+02 0.0 
0.0 0.0 -8.881293089692e+01 
-1.000792189811e+02 8.563106304892e+00 0.0 
8.563106304892e+00 -2.266605459198e+02 0.0 
0.0 0.0 -9.762192947026e+01 
-9.295296492380e+01 7.371872462612e+00 0.0 
7.371872462612e+00 -2.046524229598e+02 0.0 
0.0 0.0 -8.888161636507e+01 
-1.010235689957e+02 2.003464088456e+00 0.0 
2.003464088456e+00 -2.232860020957e+02 0.0 
0.0 0.0 -9.689287132743e+01 
-1.086045970344e+02 6.921738486894e+00 0.0 
6.921738486894e+00 -2.417488285638e+02 0.0 
0.0 0.0 -1.047060276795e+02 
-1.132894364455e+02 8.636253143167e+00 0.0 
8.636253143167e+00 -2.514763456274e+02 0.0 
0.0 0.0 -1.090297346219e+02 
-2.322506877674e+01 6.618641114055e-02 0.0 
6.618641114055e-02 -5.904242079022e+01 0.0 
0.0 0.0 -2.428024687009e+01 
-7.797197801839e+01 3.086572624112e-01 0.0 
3.086572624112e-01 -2.032178297113e+02 0.0 
0.0 0.0 -8.395694231892e+01 
-6.976924111608e+01 9.104725545891e+00 0.0 
9.104725545891e+00 -1.464168211970e+02 0.0 
0.0 0.0 -6.445581869393e+01 
-1.010602961749e+02 5.386530184203e+00 0.0 
5.386530184203e+00 -2.211375597045e+02 0.0 
0.0 0.0 -9.625935676383e+01 
-1.060715597719e+02 7.151819510869e+00 0.0 
7.151819510869e+00 -2.316484792430e+02 0.0 
0.0 0.0 -1.009160117045e+02 
-1.309143122772e+02 8.815446514095e+00 0.0 
8.815446514095e+00 -3.145529059251e+02 0.0 
0.0 0.0 -1.332401654607e+02 
-3.423331157326e+01 -8.153712116782e-01 0.0 
-8.153712116782e-01 -8.896088764425e+01 0.0 
0.0 0.0 -3.655825976525e+01 
-3.225882497928e+01 1.936863971816e+00 0.0 
1.936863971816e+00 -8.928246765165e+01 0.0 
0.0 0.0 -3.606238778928e+01 
-8.794703539313e+01 8.931795282740e+00 0.0 
8.931795282740e+00 -1.994535528678e+02 0.0 
0.0 0.0 -8.582017647827e+01 
-7.899769827060e+01 1.596364510575e+00 0.0 
1.596364510575e+00 -2.039306905233e+02 0.0 
0.0 0.0 -8.447851663816e+01 
-6.258982798361e+01 2.432237709900e+00 0.0 
2.432237709900e+00 -1.283636600792e+02 0.0 
0.0 0.0 -5.688604641885e+01 
-6.674958867315e+01 2.191398981504e+00 0.0 
2.191398981504e+00 -1.382641932027e+02 0.0 
0.0 0.0 -6.110413456276e+01 
-1.021980392100e+02 3.765413057207e+00 0.0 
3.765413057207e+00 -2.240816654884e+02 0.0 
0.0 0.0 -9.748391140952e+01 
-2.689450309021e+01 8.821160318025e+00 0.0 
8.821160318025e+00 -7.462189176332e+01 0.0 
0.0 0.0 -3.005491845606e+01 
-9.015608211581e+01 6.582263572025e-01 0.0 
6.582263572025e-01 -2.311162501084e+02 0.0 
0.0 0.0 -9.598169966725e+01 
-1.178293911311e+02 8.156676038245e+00 0.0 
8.156676038245e+00 -2.897555624762e+02 0.0 
0.0 0.0 -1.218754860822e+02 
-3.016367663667e+01 1.809484064880e+00 0.0 
1.809484064880e+00 -8.836509135135e+01 0.0 
0.0 0.0 -3.515863039641e+01 
-1.418689019808e+02 1.104389745263e+01 0.0 
1.104389745263e+01 -3.308836940114e+02 0.0 
0.0 0.0 -1.414257787977e+02 
-1.212018132625e+02 3.908303083539e+00 0.0 
3.908303083539e+00 -2.747393546316e+02 0.0 
0.0 0.0 -1.183823503682e+02 
-8.674240773645e+01 1.547105577833e+00 0.0 
1.547105577833e+00 -2.213208591149e+02 0.0 
0.0 0.0 -9.201898005540e+01 
-1.249820135682e+02 2.125037467828e+00 0.0 
2.125037467828e+00 -3.072768093268e+02 0.0 
0.0 0.0 -1.292776468685e+02 
-1.628874005408e+01 -5.692322695548e-01 0.0 
-5.692322695548e-01 -4.233658424361e+01 0.0 
0.0 0.0 -1.718759728931e+01 
-1.132450945625e+02 7.381628910196e+00 0.0 
7.381628910196e+00 -2.808801506924e+02 0.0 
0.0 0.0 -1.178375735765e+02 
-9.222239253014e+01 1.054550988898e+01 0.0 
1.054550988898e+01 -2.077799094028e+02 0.0 
0.0 0.0 -8.960069057989e+01 
-1.652032313133e+01 -4.743311351672e-01 0.0 
-4.743311351672e-01 -4.224814123793e+01 0.0 
0.0 0.0 -1.723053931078e+01 
-1.203286826145e+02 2.327132064037e+00 0.0 
2.327132064037e+00 -2.741652775754e+02 0.0 
0.0 0.0 -1.179481880570e+02 
-2.894468556986e+01 2.578089810980e+00 0.0 
2.578089810980e+00 -8.035761079141e+01 0.0 
0.0 0.0 -3.239068890838e+01 
-1.020962033540e+02 7.440775521658e+00 0.0 
7.440775521658e+00 -2.220260447383e+02 0.0 
0.0 0.0 -9.683667442769e+01 
-9.329199868443e+01 9.555136088227e+00 0.0 
9.555136088227e+00 -2.052174086196e+02 0.0 
0.0 0.0 -8.915282219120e+01 
-7.924819772425e+01 5.584824986637e+00 0.0 
5.584824986637e+00 -2.066326315849e+02 0.0 
0.0 0.0 -8.536424879273e+01 
-9.910186694075e+01 3.726642567233e+00 0.0 
3.726642567233e+00 -2.529486526201e+02 0.0 
0.0 0.0 -1.052151558682e+02 
-1.239096421363e+02 2.850978717814e+00 0.0 
2.850978717814e+00 -2.831961972637e+02 0.0 
0.0 0.0 -1.217317518200e+02 
-1.078883390711e+02 4.158330074141e+00 0.0 
4.158330074141e+00 -2.719134332250e+02 0.0 
0.0 0.0 -1.135405316888e+02 
-9.132773624074e+01 9.206380510760e+00 0.0 
9.206380510760e+00 -2.107904058389e+02 0.0 
0.0 0.0 -9.023544262391e+01 
-8.762266921934e+01 1.092870733260e+01 0.0 
1.092870733260e+01 -1.997372644645e+02 0.0 
0.0 0.0 -8.580798010514e+01 
-1.450752004166e+01 9.809646144345e+00 0.0 
9.809646144345e+00 -1.405214174615e+01 0.0 
0.0 0.0 -8.167898536341e+00 
-2.451650984090e+01 1.072506919491e+00 0.0 
1.072506919491e+00 -7.048605015344e+01 0.0 
0.0 0.0 -2.810076799830e+01 
-1.238332297316e+02 1.095766768042e+01 0.0 
1.095766768042e+01 -2.851406925515e+02 0.0 
0.0 0.0 -1.222921766849e+02 
-9.438348166363e+01 4.015047604214e+00 0.0 
4.015047604214e+00 -2.036350863281e+02 0.0 
0.0 0.0 -8.900557039750e+01 
-1.269379944034e+02 9.632768925956e+00 0.0 
9.632768925956e+00 -2.954334364579e+02 0.0 
0.0 0.0 -1.263114292584e+02 
-4.479669674801e+01 1.039093356190e+01 0.0 
1.039093356190e+01 -1.146668170466e+02 0.0 
0.0 0.0 -4.743905413838e+01 
-1.164122658983e+02 4.595231061466e+00 0.0 
4.595231061466e+00 -2.608581334187e+02 0.0 
0.0 0.0 -1.127811197951e+02 
-1.280567333504e+02 1.097370386892e+01 0.0 
1.097370386892e+01 -2.940958302631e+02 0.0 
0.0 0.0 -1.262457690841e+02 
-6.970686513701e+01 9.197311063817e-01 0.0 
9.197311063817e-01 -1.455433989341e+02 0.0 
0.0 0.0 -6.417507922132e+01 
-1.232494997120e+02 9.260264912301e+00 0.0 
9.260264912301e+00 -2.844701988725e+02 0.0 
0.0 0.0 -1.219159095753e+02 
-1.256180057888e+02 3.521001519318e+00 0.0 
3.521001519318e+00 -3.078624116447e+02 0.0 
0.0 0.0 -1.296441252301e+02 
-1.035643900307e+02 8.922901679001e+00 0.0 
8.922901679001e+00 -2.377247100579e+02 0.0 
0.0 0.0 -1.019867300266e+02 
-8.610987284767e+01 7.453276468316e-01 0.0 
7.453276468316e-01 -2.223285582519e+02 0.0 
0.0 0.0 -9.213152932988e+01 
-9.132626495786e+01 2.605134282069e+00 0.0 
2.605134282069e+00 -2.332524194096e+02 0.0 
0.0 0.0 -9.697360531023e+01 
-1.290518759573e+02 6.077362969505e+00 0.0 
6.077362969505e+00 -2.932086153781e+02 0.0 
0.0 0.0 -1.262781474006e+02 
-9.058188568664e+01 3.280334133396e+00 0.0 
3.280334133396e+00 -2.341693387841e+02 0.0 
0.0 0.0 -9.702536734121e+01 
-9.656129490362e+01 8.044935973218e+00 0.0 
8.044935973218e+00 -2.156277097093e+02 0.0 
0.0 0.0 -9.325670138389e+01 
-8.907178605576e+01 8.817956268779e+00 0.0 
8.817956268779e+00 -2.182843264772e+02 0.0 
0.0 0.0 -9.180683375989e+01 
-1.169337620830e+02 4.616007519050e+00 0.0 
4.616007519050e+00 -2.909972511375e+02 0.0 
0.0 0.0 -1.219793039661e+02 
-8.151577325655e+01 1.106013816564e+01 0.0 
1.106013816564e+01 -1.958593935358e+02 0.0 
0.0 0.0 -8.281255003770e+01 
-4.722736311033e+01 4.808389388179e+00 0.0 
4.808389388179e+00 -1.330316983061e+02 0.0 
0.0 0.0 -5.367771842494e+01 
-9.119712906091e+01 5.895342790992e+00 0.0 
5.895342790992e+00 -2.332317699623e+02 0.0 
0.0 0.0 -9.692866970695e+01 
-5.107267847127e+01 6.224469416207e+00 0.0 
6.224469416207e+00 -1.409556074863e+02 0.0 
0.0 0.0 -5.720848578726e+01 
-1.048482538525e+02 6.173029401132e+00 0.0 
6.173029401132e+00 -2.313196443944e+02 0.0 
0.0 0.0 -1.004503694740e+02 
-5.189924542297e+01 6.670857344511e+00 0.0 
6.670857344511e+00 -1.414050830093e+02 0.0 
0.0 0.0 -5.759129852969e+01 
-1.017433153070e+02 8.639790634213e+00 0.0 
8.639790634213e+00 -2.230045862350e+02 0.0 
0.0 0.0 -9.702437046261e+01 
-1.273932019077e+02 1.048482697134e+01 0.0 
1.048482697134e+01 -3.053620472690e+02 0.0 
0.0 0.0 -1.294265747530e+02 
-1.223030343881e+02 8.455478016714e+00 0.0 
8.455478016714e+00 -2.962666655022e+02 0.0 
0.0 0.0 -1.251709099671e+02 
-7.740622303166e+01 9.411834398789e+00 0.0 
9.411834398789e+00 -1.885530578965e+02 0.0 
0.0 0.0 -7.938778427846e+01 
-9.715596214825e+01 1.987722048075e+00 0.0 
1.987722048075e+00 -2.130269637346e+02 0.0 
0.0 0.0 -9.265487776484e+01 
-1.293310693753e+02 1.855213545024e+00 0.0 
1.855213545024e+00 -3.160137693882e+02 0.0 
0.0 0.0 -1.332034516291e+02 
-1.298628931003e+02 3.263543807489e+00 0.0 
3.263543807489e+00 -3.165629353361e+02 0.0 
0.0 0.0 -1.335277485309e+02 
-2.123596728363e+01 7.876448216194e+00 0.0 
7.876448216194e+00 -5.786767892538e+01 0.0 
0.0 0.0 -2.333109386270e+01 
-1.046517594269e+02 7.246727033125e+00 0.0 
7.246727033125e+00 -2.327601384394e+02 0.0 
0.0 0.0 -1.008235693599e+02 
-1.435309891386e+02 1.594076866798e+00 0.0 
1.594076866798e+00 -3.447899254232e+02 0.0 
0.0 0.0 -1.460962743685e+02 
-4.853986634176e+01 3.737136044434e+00 0.0 
3.737136044434e+00 -9.571178307689e+01 0.0 
0.0 0.0 -4.287549482560e+01 
-9.491828828420e+01 1.905989088111e+00 0.0 
1.905989088111e+00 -2.403374704622e+02 0.0 
0.0 0.0 -1.001767276239e+02 
-1.394868469170e+01 9.351629036694e+00 0.0 
9.351629036694e+00 -1.515486934503e+01 0.0 
0.0 0.0 -8.331066211018e+00 
-1.336542501335e+02 1.570530184959e+00 0.0 
1.570530184959e+00 -3.246673048669e+02 0.0 
0.0 0.0 -1.370964665001e+02 
-4.343943102205e+01 5.779906431989e+00 0.0 
5.779906431989e+00 -1.232302513092e+02 0.0 
0.0 0.0 -4.960090469938e+01 
-9.187273539038e+01 -3.680344643148e-01 0.0 
-3.680344643148e-01 -2.320570551015e+02 0.0 
0.0 0.0 -9.677893714758e+01 
-1.102620923940e+02 8.995177876548e+00 0.0 
8.995177876548e+00 -2.637565243707e+02 0.0 
0.0 0.0 -1.118055850294e+02 
-9.842589692495e+01 3.814421682298e+00 0.0 
3.814421682298e+00 -2.139063274062e+02 0.0 
0.0 0.0 -9.329966729934e+01 
-9.349882823450e+01 2.107942358002e+00 0.0 
2.107942358002e+00 -2.029035877135e+02 0.0 
0.0 0.0 -8.852072478441e+01 
-9.575862691748e+01 8.900807898570e+00 0.0 
8.900807898570e+00 -2.185960849776e+02 0.0 
0.0 0.0 -9.390641356851e+01 
-5.433837055134e+01 2.598676675056e+00 0.0 
2.598676675056e+00 -1.089169246035e+02 0.0 
0.0 0.0 -4.857658854645e+01 
-5.859260490827e+01 2.308698542700e+00 0.0 
2.308698542700e+00 -1.187584243616e+02 0.0 
0.0 0.0 -5.280530878097e+01 
-1.340309492173e+02 2.948441097182e+00 0.0 
2.948441097182e+00 -3.251507163081e+02 0.0 
0.0 0.0 -1.373544996576e+02 
-1.043469113316e+02 5.789788351740e+00 0.0 
5.789788351740e+00 -2.628102515128e+02 0.0 
0.0 0.0 -1.097471488533e+02 
-8.742958574598e+01 6.044700223079e+00 0.0 
6.044700223079e+00 -2.249572277996e+02 0.0 
0.0 0.0 -9.331604406367e+01 
-1.125832370384e+02 6.052315566372e+00 0.0 
6.052315566372e+00 -2.803615721428e+02 0.0 
0.0 0.0 -1.174834427544e+02 
-8.282545925209e+01 5.605763933626e+00 0.0 
5.605763933626e+00 -2.148602809159e+02 0.0 
0.0 0.0 -8.890572205039e+01 
-4.803426995537e+01 7.656782738476e+00 0.0 
7.656782738476e+00 -1.311360256265e+02 0.0 
0.0 0.0 -5.335108867455e+01 
-5.328044003472e+01 4.564314058738e-01 0.0 
4.564314058738e-01 -1.077716542886e+02 0.0 
0.0 0.0 -4.791562829701e+01 
-8.631187498510e+01 3.261928673357e+00 0.0 
3.261928673357e+00 -1.844815776794e+02 0.0 
0.0 0.0 -8.083803579935e+01 
-6.613987160466e+01 -2.482191703955e-02 0.0 
-2.482191703955e-02 -1.453865388644e+02 0.0 
0.0 0.0 -6.305792314072e+01 
-1.226807905260e+02 9.886999188169e+00 0.0 
9.886999188169e+00 -2.967173052652e+02 0.0 
0.0 0.0 -1.254194287374e+02 
-7.683457962310e+01 1.076078918021e+01 0.0 
1.076078918021e+01 -1.885904290942e+02 0.0 
0.0 0.0 -7.922750261519e+01 
-1.401270210606e+02 1.002690163599e+01 0.0 
1.002690163599e+01 -3.319647511631e+02 0.0 
0.0 0.0 -1.412275316671e+02 
-1.324406631358e+02 -9.663909322045e-02 0.0 
-9.663909322045e-02 -3.215164395300e+02 0.0 
0.0 0.0 -1.357871307997e+02 
-8.770243152183e+01 7.517668986176e+00 0.0 
7.517668986176e+00 -2.237899521153e+02 0.0 
0.0 0.0 -9.304771509113e+01 
-1.490035762445e+02 3.859907352242e+00 0.0 
3.859907352242e+00 -3.552990531886e+02 0.0 
0.0 0.0 -1.508907888299e+02 
-5.581975476743e+01 5.842276973537e+00 0.0 
5.842276973537e+00 -1.514185622042e+02 0.0 
0.0 0.0 -6.177149509150e+01 
-1.354678678212e+02 9.945332803747e+00 0.0 
9.945332803747e+00 -3.210486900976e+02 0.0 
0.0 0.0 -1.365549673756e+02 
-9.557393815952e+01 1.082456271932e+01 0.0 
1.082456271932e+01 -2.189323039541e+02 0.0 
0.0 0.0 -9.395187263409e+01 
-1.070286659823e+02 9.151893038951e+00 0.0 
9.151893038951e+00 -2.487174676457e+02 0.0 
0.0 0.0 -1.063238400884e+02 
-1.316413064034e+02 8.274312710398e+00 0.0 
8.274312710398e+00 -3.190883344176e+02 0.0 
0.0 0.0 -1.348188922463e+02 
-6.371538187999e+01 1.109758222656e+00 0.0 
1.109758222656e+00 -1.677612719282e+02 0.0 
0.0 0.0 -6.904299614245e+01 
-1.006682631543e+02 7.623409637906e+00 0.0 
7.623409637906e+00 -2.241039401360e+02 0.0 
0.0 0.0 -9.703166098708e+01 
-8.340791517708e+01 6.564331907295e+00 0.0 
6.564331907295e+00 -2.153162506246e+02 0.0 
0.0 0.0 -8.921724974052e+01 
-9.754432080731e+01 9.065089702058e+00 0.0 
9.065089702058e+00 -2.139441319573e+02 0.0 
0.0 0.0 -9.304653582938e+01 
-4.856917686331e+01 1.206481385631e+01 0.0 
1.206481385631e+01 -1.201258935824e+02 0.0 
0.0 0.0 -5.020852113370e+01 
-1.106149565088e+02 9.210116873465e+00 0.0 
9.210116873465e+00 -2.598950876113e+02 0.0 
0.0 0.0 -1.107530132360e+02 
-7.846641794896e+01 4.657806211009e+00 0.0 
4.657806211009e+00 -2.060894167825e+02 0.0 
0.0 0.0 -8.496675041943e+01 
-9.853027506041e+01 1.042468068008e+00 0.0 
1.042468068008e+00 -2.501158638966e+02 0.0 
0.0 0.0 -1.041938416871e+02 
-9.699500099300e+01 6.910040582781e+00 0.0 
6.910040582781e+00 -2.132986145746e+02 0.0 
0.0 0.0 -9.268808467028e+01 
-1.409515983653e+01 5.900716308364e+00 0.0 
5.900716308364e+00 -2.509799935505e+01 0.0 
0.0 0.0 -1.135794775747e+01 
-9.741490847878e+01 8.741126353358e+00 0.0 
8.741126353358e+00 -2.371066323425e+02 0.0 
0.0 0.0 -9.995646224639e+01 
-1.638100267840e+01 1.011145082196e+01 0.0 
1.011145082196e+01 -3.254778625235e+01 0.0 
0.0 0.0 -1.427863667923e+01 
-2.472680314377e+01 -1.658569577119e+00 0.0 
-1.658569577119e+00 -6.324803394228e+01 0.0 
0.0 0.0 -2.599245112581e+01 
-9.412143436426e+01 5.704718149256e-01 0.0 
5.704718149256e-01 -2.396657326267e+02 0.0 
0.0 0.0 -9.973615009728e+01 
-1.206338175245e+02 9.952284502457e+00 0.0 
9.952284502457e+00 -2.724684565607e+02 0.0 
0.0 0.0 -1.175306822256e+02 
-9.716071872715e+01 2.717590089676e+00 0.0 
2.717590089676e+00 -2.117421944142e+02 0.0 
0.0 0.0 -9.227087394239e+01 
-4.602988683504e+01 3.093349535065e+00 0.0 
3.093349535065e+00 -8.985127694831e+01 0.0 
0.0 0.0 -4.036434913501e+01 
-1.404623362211e+02 4.537427762281e+00 0.0 
4.537427762281e+00 -3.290787845159e+02 0.0 
0.0 0.0 -1.404623362211e+02 
-1.405239012613e+01 8.750096581501e+00 0.0 
8.750096581501e+00 -1.135136426587e+01 0.0 
0.0 0.0 -7.328704334020e+00 
-5.021442531446e+01 2.570540488844e+00 0.0 
2.570540488844e+00 -9.940401990142e+01 0.0 
0.0 0.0 -4.448553356476e+01 
-9.070888265253e+01 4.536587144046e+00 0.0 
4.536587144046e+00 -2.338294484343e+02 0.0 
0.0 0.0 -9.696149932606e+01 
-9.056440934226e+01 1.524532142763e+00 0.0 
1.524532142763e+00 -2.299125688343e+02 0.0 
0.0 0.0 -9.574309345295e+01 
-6.681407893649e+01 4.209106337241e+00 0.0 
4.209106337241e+00 -1.358403897495e+02 0.0 
0.0 0.0 -6.039634060579e+01 
-5.878295030182e+01 2.715671305387e+00 0.0 
2.715671305387e+00 -1.610130419774e+02 0.0 
0.0 0.0 -6.553879768378e+01 
-9.567724228358e+01 5.256871525300e+00 0.0 
5.256871525300e+00 -2.439014266064e+02 0.0 
0.0 0.0 -1.014736006670e+02 
-1.001280262078e+02 1.055054957994e+01 0.0 
1.055054957994e+01 -2.271075940797e+02 0.0 
0.0 0.0 -9.777068608625e+01 
-1.058746041357e+02 8.792733418138e+00 0.0 
8.792733418138e+00 -2.561396024468e+02 0.0 
0.0 0.0 -1.082042619748e+02 
-1.232850064973e+02 6.919433034722e+00 0.0 
6.919433034722e+00 -2.796269784250e+02 0.0 
0.0 0.0 -1.204735954767e+02 
-2.273119517637e+01 6.981132588550e+00 0.0 
6.981132588550e+00 -6.829538736185e+01 0.0 
0.0 0.0 -2.690797476147e+01 
-8.587640286099e+01 2.068974098317e-01 0.0 
2.068974098317e-01 -2.206571455000e+02 0.0 
0.0 0.0 -9.156006450830e+01 
-9.375030021736e+01 9.627883065623e-02 0.0 
9.627883065623e-02 -2.379048320143e+02 0.0 
0.0 0.0 -9.909653966950e+01 
-4.843492139118e+01 -6.653873749252e-02 0.0 
-6.653873749252e-02 -1.269620728216e+02 0.0 
0.0 0.0 -5.221909826383e+01 
-7.352647425753e+01 7.487180080715e-01 0.0 
7.487180080715e-01 -1.552522000816e+02 0.0 
0.0 0.0 -6.823360230174e+01 
-9.832005548849e+01 4.630632350441e+00 0.0 
4.630632350441e+00 -2.126183525942e+02 0.0 
0.0 0.0 -9.288152242479e+01 
-1.193116859533e+02 1.003502919112e+00 0.0 
1.003502919112e+00 -2.933434829364e+02 0.0 
0.0 0.0 -1.233965506669e+02 
-1.719868159644e+01 -5.251946644121e-01 0.0 
-5.251946644121e-01 -4.243925298427e+01 0.0 
0.0 0.0 -1.749138037421e+01 
-1.517462675261e+01 2.844203036566e-01 0.0 
2.844203036566e-01 -2.610149274675e+01 0.0 
0.0 0.0 -1.198283584981e+01 
-3.433929018103e+01 -6.423025764055e-01 0.0 
-6.423025764055e-01 -8.861969332885e+01 0.0 
0.0 0.0 -3.648769505296e+01 
-9.439141791218e+01 1.473985472486e+00 0.0 
1.473985472486e+00 -2.384986148019e+02 0.0 
0.0 0.0 -9.946700981422e+01 
-6.344869481958e+01 6.357444985482e+00 0.0 
6.357444985482e+00 -1.692729292887e+02 0.0 
0.0 0.0 -6.941648723248e+01 
-5.620593763363e+01 3.873346873532e+00 0.0 
3.873346873532e+00 -1.526320781087e+02 0.0 
0.0 0.0 -6.225140472270e+01 
-4.845922158960e+01 5.173515591325e+00 0.0 
5.173515591325e+00 -1.336321813630e+02 0.0 
0.0 0.0 -5.422742088576e+01 
-9.810567442341e+01 4.699323569949e-01 0.0 
4.699323569949e-01 -2.482572131512e+02 0.0 
0.0 0.0 -1.035088662724e+02 
-1.048860838422e+02 4.128449117742e+00 0.0 
4.128449117742e+00 -2.306161674267e+02 0.0 
0.0 0.0 -1.002506753807e+02 
-9.767427257774e+01 8.488162817827e-03 0.0 
8.488162817827e-03 -2.464823217771e+02 0.0 
0.0 0.0 -1.028469783065e+02 
-6.273286187770e+01 5.697364729937e+00 0.0 
5.697364729937e+00 -1.688155294286e+02 0.0 
0.0 0.0 -6.906451739190e+01 
-1.052907296300e+02 9.355167488804e+00 0.0 
9.355167488804e+00 -2.334244592232e+02 0.0 
0.0 0.0 -1.012145566560e+02 
-8.079883642171e+01 2.639362541788e-01 0.0 
2.639362541788e-01 -1.759041943209e+02 0.0 
0.0 0.0 -7.661090922279e+01 
-1.189201905834e+02 9.144628430242e+00 0.0 
9.144628430242e+00 -2.833338823740e+02 0.0 
0.0 0.0 -1.202762218872e+02 
-9.822183801342e+01 1.406402729443e+00 0.0 
1.406402729443e+00 -2.470487916632e+02 0.0 
0.0 0.0 -1.031811889030e+02 
-9.880349723341e+01 1.824263346505e+00 0.0 
1.824263346505e+00 -2.488920559035e+02 0.0 
0.0 0.0 -1.039086659411e+02 
-3.755077344971e+01 3.855968578331e+00 0.0 
3.855968578331e+00 -7.032580994741e+01 0.0 
0.0 0.0 -3.196297501914e+01 
-6.735785824722e+01 5.662093500326e+00 0.0 
5.662093500326e+00 -1.789953781938e+02 0.0 
0.0 0.0 -7.350597093230e+01 
-1.015908362449e+02 -9.252027620984e-02 0.0 
-9.252027620984e-02 -2.549557886910e+02 0.0 
0.0 0.0 -1.065639874808e+02 
-9.565834870330e+01 -5.874577322589e-01 0.0 
-5.874577322589e-01 -2.162851714164e+02 0.0 
0.0 0.0 -9.318305603591e+01 
-8.813074336803e+01 -6.588313488333e-01 0.0 
-6.588313488333e-01 -1.981048477695e+02 0.0 
0.0 0.0 -8.547067734127e+01 
-4.181707167548e+01 3.302084541810e+00 0.0 
3.302084541810e+00 -8.028514190909e+01 0.0 
0.0 0.0 -3.623066407537e+01 
-1.021117196808e+02 3.460485134814e-01 0.0 
3.460485134814e-01 -2.568611910452e+02 0.0 
0.0 0.0 -1.072918732178e+02 
-5.649563405093e+01 2.328076759480e+00 0.0 
2.328076759480e+00 -1.524316881868e+02 0.0 
0.0 0.0 -6.227819667131e+01 
-1.922426528905e+01 1.074686456973e+01 0.0 
1.074686456973e+01 -4.899663871289e+01 0.0 
0.0 0.0 -2.006627120058e+01 
-1.365282502020e+02 1.149297060867e+01 0.0 
1.149297060867e+01 -3.219942934478e+02 0.0 
0.0 0.0 -1.371567630949e+02 
-3.064100158246e+01 -1.903239078791e+00 0.0 
-1.903239078791e+00 -8.021623105899e+01 0.0 
0.0 0.0 -3.285716979243e+01 
-5.891312320831e+01 1.259940157360e+00 0.0 
1.259940157360e+00 -1.604232661453e+02 0.0 
0.0 0.0 -6.540091680609e+01 
-9.339594947249e+01 1.057366350608e+01 0.0 
1.057366350608e+01 -2.259341867173e+02 0.0 
0.0 0.0 -9.539904085693e+01 
-4.475950707715e+01 6.904502023145e-01 0.0 
6.904502023145e-01 -8.827423264349e+01 0.0 
0.0 0.0 -3.951012191619e+01 
-1.021107159732e+02 1.317712927114e+00 0.0 
1.317712927114e+00 -2.556763333677e+02 0.0 
0.0 0.0 -1.069361148023e+02 
-4.622312551428e+01 7.187198139200e-01 0.0 
7.187198139200e-01 -1.192890488395e+02 0.0 
0.0 0.0 -4.925365230614e+01 
-7.792587559418e+01 2.578599261666e+00 0.0 
2.578599261666e+00 -1.636497155656e+02 0.0 
0.0 0.0 -7.207267734793e+01 
-1.026951763507e+02 1.716887159736e+00 0.0 
1.716887159736e+00 -2.574508090643e+02 0.0 
0.0 0.0 -1.076437956245e+02 
-8.327265388254e+01 5.103927532981e+00 0.0 
5.103927532981e+00 -2.160671113698e+02 0.0 
0.0 0.0 -8.940192957571e+01 
-9.104952094887e+01 1.979242994901e+00 0.0 
1.979242994901e+00 -2.317997135166e+02 0.0 
0.0 0.0 -9.645477033965e+01 
-1.586575846424e+01 3.793335996180e+00 0.0 
3.793335996180e+00 -3.167711430669e+01 0.0 
0.0 0.0 -1.386286183128e+01 
-1.187168361677e+02 1.008821367284e+00 0.0 
1.008821367284e+00 -2.738306674483e+02 0.0 
0.0 0.0 -1.173642510848e+02 
-6.748928753460e+01 3.997316745112e+00 0.0 
3.997316745112e+00 -1.796419469906e+02 0.0 
0.0 0.0 -7.373937035755e+01 
-1.309055009303e+02 7.996765017455e+00 0.0 
7.996765017455e+00 -3.172417397515e+02 0.0 
0.0 0.0 -1.340441722045e+02 
-1.070736854781e+02 1.097668069195e+01 0.0 
1.097668069195e+01 -2.492210479778e+02 0.0 
0.0 0.0 -1.064884200368e+02 
-1.061109950018e+02 1.957407595506e-01 0.0 
1.957407595506e-01 -2.654072761775e+02 0.0 
0.0 0.0 -1.110554813538e+02 
-1.065871139036e+02 1.547734824011e+00 0.0 
1.547734824011e+00 -2.659417059909e+02 0.0 
0.0 0.0 -1.113586459684e+02 
-5.871279642260e+01 4.511594926011e+00 0.0 
4.511594926011e+00 -1.605349773111e+02 0.0 
0.0 0.0 -6.537433212011e+01 
-2.278246302965e+01 -1.752625444296e+00 0.0 
-1.752625444296e+00 -5.440484899125e+01 0.0 
0.0 0.0 -2.275619360627e+01 
-1.270878701650e+01 4.882393493440e+00 0.0 
4.882393493440e+00 -3.065870642120e+01 0.0 
0.0 0.0 -1.261024803131e+01 
-1.101598165199e+02 2.859337396723e-02 0.0 
2.859337396723e-02 -2.739571253702e+02 0.0 
0.0 0.0 -1.148350825670e+02 
-1.308690979819e+02 7.054707202636e+00 0.0 
7.054707202636e+00 -3.188202348254e+02 0.0 
0.0 0.0 -1.345067998422e+02 
-5.666763471326e+01 1.252661802902e+00 0.0 
1.252661802902e+00 -1.513694356458e+02 0.0 
0.0 0.0 -6.201112110773e+01 
-1.083531693140e+02 7.882984515441e+00 0.0 
7.882984515441e+00 -2.435386276542e+02 0.0 
0.0 0.0 -1.051675390905e+02 
-4.403826714945e+01 4.328996389876e+00 0.0 
4.328996389876e+00 -8.530786920117e+01 0.0 
0.0 0.0 -3.840384090519e+01 
-1.094094849518e+02 8.995261491519e+00 0.0 
8.995261491519e+00 -2.425058514134e+02 0.0 
0.0 0.0 -1.051746009096e+02 
-1.504068252968e+02 6.356208332747e+00 0.0 
6.356208332747e+00 -3.597391282710e+02 0.0 
0.0 0.0 -1.526437860703e+02 
-1.542439489684e+01 -3.810584157292e-01 0.0 
-3.810584157292e-01 -7.081998595276e+00 0.0 
0.0 0.0 -6.351918047635e+00 
-1.393854933734e+02 5.788598753947e-01 0.0 
5.788598753947e-01 -3.265661512045e+02 0.0 
0.0 0.0 -1.393854933734e+02 
-1.635481291792e+02 8.600058252093e-01 0.0 
8.600058252093e-01 -3.829456347515e+02 0.0 
0.0 0.0 -1.635481291792e+02 
-7.492861953869e+01 7.876158457816e-01 0.0 
7.876158457816e-01 -1.664553128934e+02 0.0 
0.0 0.0 -7.201517972963e+01 
-6.762464806477e+01 2.679919832075e+00 0.0 
2.679919832075e+00 -1.793228396140e+02 0.0 
0.0 0.0 -7.368424630363e+01 
-1.035677137693e+02 1.081011095378e+01 0.0 
1.081011095378e+01 -2.381729166214e+02 0.0 
0.0 0.0 -1.021221891172e+02 
-5.952376953974e+01 7.164443033686e+00 0.0 
7.164443033686e+00 -1.591997900904e+02 0.0 
0.0 0.0 -6.521706788905e+01 
-2.208959739881e+01 -3.542890902298e-01 0.0 
-3.542890902298e-01 -5.504669995755e+01 0.0 
0.0 0.0 -2.274088920691e+01 
-1.320210955783e+01 8.059309711418e+00 0.0 
8.059309711418e+00 -1.350659257291e+01 0.0 
0.0 0.0 -7.612610639223e+00 
-1.259415266517e+02 2.005847151417e+00 0.0 
2.005847151417e+00 -2.906899153249e+02 0.0 
0.0 0.0 -1.245894325930e+02 
-1.023617128103e+02 5.418287934685e+00 0.0 
5.418287934685e+00 -2.222413466449e+02 0.0 
0.0 0.0 -9.698091783658e+01 
-7.090972720190e+01 2.240427468123e+00 0.0 
2.240427468123e+00 -1.490039953268e+02 0.0 
0.0 0.0 -6.557411675862e+01 
-1.503006685600e+02 1.249013457737e+01 0.0 
1.249013457737e+01 -3.504447000418e+02 0.0 
0.0 0.0 -1.498236105805e+02 
-3.855873442654e+01 6.682650124456e-01 0.0 
6.682650124456e-01 -9.982169322799e+01 0.0 
0.0 0.0 -4.111412829636e+01 
-1.506178051028e+02 1.260414214108e+01 0.0 
1.260414214108e+01 -3.528688339791e+02 0.0 
0.0 0.0 -1.506459917246e+02 
-1.010768788879e+02 3.399049215935e+00 0.0 
3.399049215935e+00 -2.212044838813e+02 0.0 
0.0 0.0 -9.628440883075e+01 
-6.763178274811e+01 1.721223223586e+00 0.0 
1.721223223586e+00 -1.781558295364e+02 0.0 
0.0 0.0 -7.333628368535e+01 
-9.917671986818e+01 9.144925630040e+00 0.0 
9.144925630040e+00 -2.297300788284e+02 0.0 
0.0 0.0 -9.827203960898e+01 
-6.262553706300e+01 9.684560774482e-01 0.0 
9.684560774482e-01 -1.688704174910e+02 0.0 
0.0 0.0 -6.904878636621e+01 
-2.219836692385e+01 1.096000029562e+01 0.0 
1.096000029562e+01 -5.172008622877e+01 0.0 
0.0 0.0 -2.177553594578e+01 
-5.892373410294e+01 1.932152852347e-01 0.0 
1.932152852347e-01 -1.588573194022e+02 0.0 
0.0 0.0 -6.493431605155e+01 
-1.086840870888e+02 4.865781833207e+00 0.0 
4.865781833207e+00 -2.402459678818e+02 0.0 
0.0 0.0 -1.042790164912e+02 
-1.375043284938e+02 1.892742814777e+00 0.0 
1.892742814777e+00 -3.318851930160e+02 0.0 
0.0 0.0 -1.404168564529e+02 
-6.254522254134e+01 2.214727351737e+00 0.0 
2.214727351737e+00 -1.697591105453e+02 0.0 
0.0 0.0 -6.929129992598e+01 
-1.122993917698e+02 7.606142316148e+00 0.0 
7.606142316148e+00 -2.523056712634e+02 0.0 
0.0 0.0 -1.089815189100e+02 
-1.226982630324e+01 -4.725184126826e-01 0.0 
-4.725184126826e-01 -8.369641254338e+00 0.0 
0.0 0.0 -6.693095790516e+00 
-6.252761599656e+01 3.833457582286e+00 0.0 
3.833457582286e+00 -1.698173919526e+02 0.0 
0.0 0.0 -6.930350238473e+01 
-1.140476928339e+02 5.834935595186e+00 0.0 
5.834935595186e+00 -2.523833531167e+02 0.0 
0.0 0.0 -1.095293137852e+02 
-5.861492907964e+01 -5.264508985537e-01 0.0 
-5.264508985537e-01 -1.563872866260e+02 0.0 
0.0 0.0 -6.410066471169e+01 
-5.302832467717e+01 6.053051513999e-01 0.0 
6.053051513999e-01 -1.411367968939e+02 0.0 
0.0 0.0 -5.784953647131e+01 
-9.897252103480e+01 1.093596646764e+01 0.0 
1.093596646764e+01 -2.300642822720e+02 0.0 
0.0 0.0 -9.831104099203e+01 
-2.838545033749e+01 -1.001364997716e+00 0.0 
-1.001364997716e+00 -7.758190196882e+01 0.0 
0.0 0.0 -3.139020569189e+01 
-2.813122725380e+01 4.355958928597e+00 0.0 
4.355958928597e+00 -4.936129478032e+01 0.0 
0.0 0.0 -2.284775661024e+01 
-3.339405241860e+01 4.318841411595e+00 0.0 
4.318841411595e+00 -6.109697122774e+01 0.0 
0.0 0.0 -2.794730709390e+01 
-5.136639849770e+01 -9.336434324188e-01 0.0 
-9.336434324188e-01 -1.376222841490e+02 0.0 
0.0 0.0 -5.629660479402e+01 
-9.149489844933e+01 5.609817868621e+00 0.0 
5.609817868621e+00 -2.344492861121e+02 0.0 
0.0 0.0 -9.738325536844e+01 
-8.549620091567e+01 9.222419502229e+00 0.0 
9.222419502229e+00 -2.070539751699e+02 0.0 
0.0 0.0 -8.736505282567e+01 
-1.130068980233e+02 9.630587234142e+00 0.0 
9.630587234142e+00 -2.529375329311e+02 0.0 
0.0 0.0 -1.093833292863e+02 
-1.310721703685e+02 6.944205438717e+00 0.0 
6.944205438717e+00 -3.005836650874e+02 0.0 
0.0 0.0 -1.290967506368e+02 
-3.584272741816e+01 1.095975245773e+00 0.0 
1.095975245773e+00 -6.878182295501e+01 0.0 
0.0 0.0 -3.098736511195e+01 
-1.037839714603e+02 1.149031561458e+00 0.0 
1.149031561458e+00 -2.358740909544e+02 0.0 
0.0 0.0 -1.014974187244e+02 
-1.338439655080e+02 9.124374159679e+00 0.0 
9.124374159679e+00 -3.092637393882e+02 0.0 
0.0 0.0 -1.325323114689e+02 
-5.487037368300e+01 5.302706747721e+00 0.0 
5.302706747721e+00 -1.508951192000e+02 0.0 
0.0 0.0 -6.132964786489e+01 
-1.453188841961e+01 1.001715728131e+01 0.0 
1.001715728131e+01 -3.176069335047e+01 0.0 
0.0 0.0 -1.348777453102e+01 
-5.026050031187e+01 6.630184979527e+00 0.0 
6.630184979527e+00 -9.717449942022e+01 0.0 
0.0 0.0 -4.383049991963e+01 
-8.733234685309e+01 4.711142821266e+00 0.0 
4.711142821266e+00 -2.253418994011e+02 0.0 
0.0 0.0 -9.340227387627e+01 
-1.123149125230e+02 6.619602660495e+00 0.0 
6.619602660495e+00 -2.506965049837e+02 0.0 
0.0 0.0 -1.085034252520e+02 
-8.640257770228e+01 3.670497737121e+00 0.0 
3.670497737121e+00 -2.247216807028e+02 0.0 
0.0 0.0 -9.293727752151e+01 
-2.016897157614e+01 6.094174448122e+00 0.0 
6.094174448122e+00 -5.318781164711e+01 0.0 
0.0 0.0 -2.160703496698e+01 
-9.998809842865e+01 6.105387543143e+00 0.0 
6.105387543143e+00 -2.530128891656e+02 0.0 
0.0 0.0 -1.055002962783e+02 
-2.665276623817e+01 1.037061045156e+01 0.0 
1.037061045156e+01 -5.534831874154e+01 0.0 
0.0 0.0 -2.420032549391e+01 
-8.505641574933e+01 1.063933379637e+01 0.0 
1.063933379637e+01 -2.071570049624e+02 0.0 
0.0 0.0 -8.726402621352e+01 
-9.477604264387e+01 4.060074650665e+00 0.0 
4.060074650665e+00 -2.432553583317e+02 0.0 
0.0 0.0 -1.010094202927e+02 
-1.026400401719e+02 9.250972885203e+00 0.0 
9.250972885203e+00 -2.408771593957e+02 0.0 
0.0 0.0 -1.026551598703e+02 
-9.428483194579e+01 1.085373598473e+00 0.0 
1.085373598473e+00 -2.115052864581e+02 0.0 
0.0 0.0 -9.133703552117e+01 
-5.253819762499e+01 1.181125204353e-01 0.0 
1.181125204353e-01 -1.383257099738e+02 0.0 
0.0 0.0 -5.685917227964e+01 
-1.684945137257e+01 9.415234546876e+00 0.0 
9.415234546876e+00 -4.533464739154e+01 0.0 
0.0 0.0 -1.825522962923e+01 
-1.034699117126e+02 4.470290286070e+00 0.0 
4.470290286070e+00 -2.621555186264e+02 0.0 
0.0 0.0 -1.092876291017e+02 
-3.065481211216e+01 8.499273059656e+00 0.0 
8.499273059656e+00 -5.969603758672e+01 0.0 
0.0 0.0 -2.670525490966e+01 
-1.364983425045e+01 1.571363279391e-01 0.0 
1.571363279391e-01 -2.543239463669e+01 0.0 
0.0 0.0 -1.132466866614e+01 
-1.263834768275e+02 -4.894484322151e-01 0.0 
-4.894484322151e-01 -2.925825547075e+02 0.0 
0.0 0.0 -1.252898094605e+02 
-1.191198395048e+02 -6.079188682824e-01 0.0 
-6.079188682824e-01 -2.740946791144e+02 0.0 
0.0 0.0 -1.175643555857e+02 
-1.240233200834e+01 -8.649241559715e-01 0.0 
-8.649241559715e-01 -2.470419404003e+01 0.0 
0.0 0.0 -1.111400564808e+01 
-1.087573975541e+02 6.588868679988e+00 0.0 
6.588868679988e+00 -2.718652640261e+02 0.0 
0.0 0.0 -1.137867984741e+02 
-4.132285173818e+01 -4.759344130744e-01 0.0 
-4.759344130744e-01 -1.078641991908e+02 0.0 
0.0 0.0 -4.435611527870e+01 
-4.356129473118e+01 -1.643571644089e+00 0.0 
-1.643571644089e+00 -1.152559291428e+02 0.0 
0.0 0.0 -4.724516716220e+01 
-1.199432501837e+02 7.996127565093e+00 0.0 
7.996127565093e+00 -2.719943685866e+02 0.0 
0.0 0.0 -1.171812856311e+02 
-1.024953873701e+02 1.090958746472e+01 0.0 
1.090958746472e+01 -2.411379917307e+02 0.0 
0.0 0.0 -1.026900137302e+02 
-1.160219559921e+02 8.223790283274e+00 0.0 
8.223790283274e+00 -2.630904144398e+02 0.0 
0.0 0.0 -1.133337111296e+02 
-6.358709602745e+01 4.493090146750e+00 0.0 
4.493090146750e+00 -1.704380991812e+02 0.0 
0.0 0.0 -6.980755856259e+01 
-6.647478234828e+01 -2.985392577404e-02 0.0 
-2.985392577404e-02 -1.452480241925e+02 0.0 
0.0 0.0 -6.311684196224e+01 
-1.525719311934e+02 5.877490816747e+00 0.0 
5.877490816747e+00 -3.613582491347e+02 0.0 
0.0 0.0 -1.537790540984e+02 
-3.647519643889e+01 -1.817074501623e+00 0.0 
-1.817074501623e+00 -9.587789539238e+01 0.0 
0.0 0.0 -3.930592754938e+01 
-1.267505855061e+02 9.526008541907e+00 0.0 
9.526008541907e+00 -3.064378774060e+02 0.0 
0.0 0.0 -1.295565388736e+02 
-8.969756594802e+01 1.090227641654e+01 0.0 
1.090227641654e+01 -2.146111905689e+02 0.0 
0.0 0.0 -9.089262695508e+01 
-2.973895549641e+01 -1.002944797561e+00 0.0 
-1.002944797561e+00 -7.604345594480e+01 0.0 
0.0 0.0 -3.133472343236e+01 
-1.085866246553e+02 5.880824575944e+00 0.0 
5.880824575944e+00 -2.403933281510e+02 0.0 
0.0 0.0 -1.042939858419e+02 
-6.654507501667e+01 4.933081171585e+00 0.0 
4.933081171585e+00 -1.784717473427e+02 0.0 
0.0 0.0 -7.310504670780e+01 
-1.770452561942e+01 -1.335966179423e+00 0.0 
-1.335966179423e+00 -4.201711540519e+01 0.0 
0.0 0.0 -1.751649230738e+01 
-5.497001587712e+01 3.315101220508e+00 0.0 
3.315101220508e+00 -1.519914298689e+02 0.0 
0.0 0.0 -6.168843372380e+01 
-1.153200975299e+02 -7.095121551735e-01 0.0 
-7.095121551735e-01 -2.849177381664e+02 0.0 
0.0 0.0 -1.196713507089e+02 
-1.100111588267e+02 6.925476581276e+00 0.0 
6.925476581276e+00 -2.414921103087e+02 0.0 
0.0 0.0 -1.050509807406e+02 
-2.897278813086e+01 -8.310972986684e-01 0.0 
-8.310972986684e-01 -7.327309539679e+01 0.0 
0.0 0.0 -3.027376505829e+01 
-9.246868259868e+01 5.888114874821e-01 0.0 
5.888114874821e-01 -2.326030321558e+02 0.0 
0.0 0.0 -9.712151442633e+01 
-1.162169218649e+02 7.327134477687e+00 0.0 
7.327134477687e+00 -2.614172865710e+02 0.0 
0.0 0.0 -1.128902625308e+02 
-1.237162897825e+02 1.107464961684e+01 0.0 
1.107464961684e+01 -2.918807324963e+02 0.0 
0.0 0.0 -1.242791066837e+02 
-5.512217088952e+01 -4.175895189414e-01 0.0 
-4.175895189414e-01 -1.483262189772e+02 0.0 
0.0 0.0 -6.063451696003e+01 
-4.602186349229e+01 -8.897401542103e-01 0.0 
-8.897401542103e-01 -1.192536674437e+02 0.0 
0.0 0.0 -4.918265928080e+01 
-9.364784813898e+01 9.072873228645e+00 0.0 
9.072873228645e+00 -2.257444632707e+02 0.0 
0.0 0.0 -9.541769342290e+01 
-9.149203628059e+01 8.733689489937e-01 0.0 
8.733689489937e-01 -2.057940038156e+02 0.0 
0.0 0.0 -8.878581202886e+01 
-1.770805384498e+01 -1.229993349084e+00 0.0 
-1.229993349084e+00 -4.142148841410e+01 0.0 
0.0 0.0 -1.733886267772e+01 
-1.416839916374e+02 1.094079599208e+01 0.0 
1.094079599208e+01 -3.278998348127e+02 0.0 
0.0 0.0 -1.404751479350e+02 
-1.355410195386e+02 6.831435325687e+00 0.0 
6.831435325687e+00 -3.145238168561e+02 0.0 
0.0 0.0 -1.346194509184e+02 
-8.007676855929e+01 8.216770536800e-01 0.0 
8.216770536800e-01 -1.783189795113e+02 0.0 
0.0 0.0 -7.711872442117e+01 
-1.331334721934e+02 4.335801024575e+00 0.0 
4.335801024575e+00 -3.061990038778e+02 0.0 
0.0 0.0 -1.313997428214e+02 
-1.373700451648e+02 7.750442816704e+00 0.0 
7.750442816704e+00 -3.185394617436e+02 0.0 
0.0 0.0 -1.363728520725e+02 
-6.638496170314e+01 3.232386724950e+00 0.0 
3.232386724950e+00 -1.789778326770e+02 0.0 
0.0 0.0 -7.320883831405e+01 
-6.378471452682e+01 2.984352684560e+00 0.0 
2.984352684560e+00 -1.704835889424e+02 0.0 
0.0 0.0 -6.988049104077e+01 
-1.469411935176e+02 1.072282730053e+01 0.0 
1.072282730053e+01 -3.494801803020e+02 0.0 
0.0 0.0 -1.485264121459e+02 
-1.195957094862e+01 2.389392253671e-01 0.0 
2.389392253671e-01 -8.691272142037e+00 0.0 
0.0 0.0 -6.745865109982e+00 
-4.198392981803e+01 -8.119944834475e-01 0.0 
-8.119944834475e-01 -1.087405508715e+02 0.0 
0.0 0.0 -4.481734420687e+01 
-9.383756041112e+01 -7.337402729886e-01 0.0 
-7.337402729886e-01 -2.370403519228e+02 0.0 
0.0 0.0 -9.886337370018e+01 
-5.638638369746e+01 5.626312483654e-01 0.0 
5.626312483654e-01 -1.491120355105e+02 0.0 
0.0 0.0 -6.124952576239e+01 
-5.512280095429e+01 1.640224874196e+00 0.0 
1.640224874196e+00 -1.517201891830e+02 0.0 
0.0 0.0 -6.165289704119e+01 
-2.028790516415e+01 5.975941015100e+00 0.0 
5.975941015100e+00 -2.972470767127e+01 0.0 
0.0 0.0 -1.460378385063e+01 
-2.508997520313e+01 6.063127372824e+00 0.0 
6.063127372824e+00 -4.277373961044e+01 0.0 
0.0 0.0 -1.995911444407e+01 
-8.194573597383e+01 1.454071699052e+00 0.0 
1.454071699052e+00 -1.788040929222e+02 0.0 
0.0 0.0 -7.782494866880e+01 
-5.972215232898e+01 5.115427229386e+00 0.0 
5.115427229386e+00 -1.611058599537e+02 0.0 
0.0 0.0 -6.584840368479e+01 
-4.877111794767e+01 -1.009063607964e+00 0.0 
-1.009063607964e+00 -1.269329370616e+02 0.0 
0.0 0.0 -5.231121650279e+01 
-1.187017163540e+02 9.389484418806e+00 0.0 
9.389484418806e+00 -2.790923915949e+02 0.0 
0.0 0.0 -1.189382323847e+02 
-1.608768595723e+02 4.861704921475e+00 0.0 
4.861704921475e+00 -3.798252479444e+02 0.0 
0.0 0.0 -1.618106322550e+02 
-1.596655163737e+02 5.850635864266e+00 0.0 
5.850635864266e+00 -3.778755975117e+02 0.0 
0.0 0.0 -1.608623341656e+02 
-6.639724632852e+01 1.810860039315e+00 0.0 
1.810860039315e+00 -1.785758851201e+02 0.0 
0.0 0.0 -7.309193943457e+01 
-7.548637043452e+01 3.281669680596e-01 0.0 
3.281669680596e-01 -1.625731905639e+02 0.0 
0.0 0.0 -7.101786829954e+01 
-1.622106481964e+01 -9.247379136260e-02 0.0 
-9.247379136260e-02 -2.093942913480e+01 0.0 
0.0 0.0 -1.074814818633e+01 
-1.629826520179e+01 1.045770631364e+01 0.0 
1.045770631364e+01 -1.699235869130e+01 0.0 
0.0 0.0 -9.587187167929e+00 
-2.852854282997e+01 -1.576141956245e-01 0.0 
-1.576141956245e-01 -7.321881194618e+01 0.0 
0.0 0.0 -3.012420643285e+01 
-1.860511436892e+01 8.256859307302e+00 0.0 
8.256859307302e+00 -2.389858163350e+01 0.0 
0.0 0.0 -1.235110880073e+01 
-9.790888043307e+01 1.079875571297e+01 0.0 
1.079875571297e+01 -2.333749469822e+02 0.0 
0.0 0.0 -9.898514822459e+01 
-5.532559693435e+01 4.229678721811e-01 0.0 
4.229678721811e-01 -1.506500755648e+02 0.0 
0.0 0.0 -6.139270174975e+01 
-6.001548037011e+01 3.387355054303e+00 0.0 
3.387355054303e+00 -1.616880195990e+02 0.0 
0.0 0.0 -6.611104999074e+01 
-1.974843120914e+01 -3.231191789738e-01 0.0 
-3.231191789738e-01 -4.161092420845e+01 0.0 
0.0 0.0 -1.800780662527e+01 
-1.199215682598e+02 2.440235016078e-01 0.0 
2.440235016078e-01 -2.771626751763e+02 0.0 
0.0 0.0 -1.187252730308e+02 
-6.021485755939e+01 2.075686919671e+00 0.0 
2.075686919671e+00 -1.611444325995e+02 0.0 
0.0 0.0 -6.600778704766e+01 
-1.256267715954e+02 5.073719366007e-01 0.0 
5.073719366007e-01 -2.902234072713e+02 0.0 
0.0 0.0 -1.243550536600e+02 
-1.144170607230e+02 1.099375673526e+00 0.0 
1.099375673526e+00 -2.616895654201e+02 0.0 
0.0 0.0 -1.124319878429e+02 
-1.398456945605e+02 3.788727126739e-01 0.0 
3.788727126739e-01 -3.262079143001e+02 0.0 
0.0 0.0 -1.394160826582e+02 
-1.620952142688e+02 9.373855960763e-01 0.0 
9.373855960763e-01 -3.824849063865e+02 0.0 
0.0 0.0 -1.629740361966e+02 
-8.006095210553e+01 -5.751183547878e-01 0.0 
-5.751183547878e-01 -1.787737407106e+02 0.0 
0.0 0.0 -7.725040784483e+01 
-6.390503617003e+01 1.853348709784e+00 0.0 
1.853348709784e+00 -1.696264354073e+02 0.0 
0.0 0.0 -6.965944147321e+01 
-2.645041170320e+01 1.488618222793e+00 0.0 
1.488618222793e+00 -4.904827360467e+01 0.0 
0.0 0.0 -2.224960559236e+01 
-6.639996933338e+01 7.196866865674e-01 0.0 
7.196866865674e-01 -1.773945273192e+02 0.0 
0.0 0.0 -7.273834899578e+01 
-1.630393233410e+02 3.899307075360e+00 0.0 
3.899307075360e+00 -3.817584211289e+02 0.0 
0.0 0.0 -1.630393233410e+02 
-1.462209140456e+01 1.024667900090e+01 0.0 
1.024667900090e+01 -1.606144529690e+01 0.0 
0.0 0.0 -8.805061010440e+00 
-1.494957464361e+01 1.054375157115e+01 0.0 
1.054375157115e+01 -1.627026695962e+01 0.0 
0.0 0.0 -8.965952480969e+00 
-1.311074473121e+02 1.013135366645e+01 0.0 
1.013135366645e+01 -3.147863901062e+02 0.0 
0.0 0.0 -1.333681512255e+02 
-7.491581136311e+01 4.362722172572e-01 0.0 
4.362722172572e-01 -1.630614840754e+02 0.0 
0.0 0.0 -7.099318863155e+01 
-1.262703899025e+02 1.913046227394e-02 0.0 
1.913046227394e-02 -2.922348609809e+02 0.0 
0.0 0.0 -1.251515752650e+02 
-1.169960879706e+02 9.358227877721e+00 0.0 
9.358227877721e+00 -2.619330808953e+02 0.0 
0.0 0.0 -1.132787506598e+02 
-1.312379939125e+02 9.803801817270e+00 0.0 
9.803801817270e+00 -3.100487588700e+02 0.0 
0.0 0.0 -1.319860258348e+02 
-1.213820913579e+02 8.346200563430e+00 0.0 
8.346200563430e+00 -2.712512096986e+02 0.0 
0.0 0.0 -1.173899903170e+02 
-8.196322229601e+01 -4.783699150612e-01 0.0 
-4.783699150612e-01 -1.823307753387e+02 0.0 
0.0 0.0 -7.888819929042e+01 
-4.930884943146e+01 7.352120182652e-02 0.0 
7.352120182652e-02 -1.305275559210e+02 0.0 
0.0 0.0 -5.355092160572e+01 
-4.809945948079e+01 -8.889963120880e-01 0.0 
-8.889963120880e-01 -1.298329232009e+02 0.0 
0.0 0.0 -5.297971480452e+01 
-9.966067157696e+01 -5.338329756934e-01 0.0 
-5.338329756934e-01 -2.254212307194e+02 0.0 
0.0 0.0 -9.712457068892e+01 
-1.277639712581e+02 1.149190512236e+01 0.0 
1.149190512236e+01 -2.992154223050e+02 0.0 
0.0 0.0 -1.276938180689e+02 
-6.948695685135e+01 7.138850754689e-01 0.0 
7.138850754689e-01 -1.466806188798e+02 0.0 
0.0 0.0 -6.445027271934e+01 
-7.316524654941e+01 1.256453591087e-02 0.0 
1.256453591087e-02 -1.618569961599e+02 0.0 
0.0 0.0 -7.010667281279e+01 
-8.002339530359e+01 3.917890751060e-01 0.0 
3.917890751060e-01 -1.777631520882e+02 0.0 
0.0 0.0 -7.693596421753e+01 
-8.232342535318e+01 1.245429548067e+00 0.0 
1.245429548067e+00 -1.833649558034e+02 0.0 
0.0 0.0 -7.930651434699e+01 
-2.270661783173e+01 -4.366528102057e-03 0.0 
-4.366528102057e-03 -6.137947466767e+01 0.0 
0.0 0.0 -2.482582774982e+01 
-4.438939615307e+01 -1.281651455095e+00 0.0 
-1.281651455095e+00 -1.188781042211e+02 0.0 
0.0 0.0 -4.858025011224e+01 
-1.339541210431e+02 1.567649457542e+00 0.0 
1.567649457542e+00 -3.107820919074e+02 0.0 
0.0 0.0 -1.330208638852e+02 
-9.062846792949e+01 1.310142996816e+00 0.0 
1.310142996816e+00 -2.026225165766e+02 0.0 
0.0 0.0 -8.757529535184e+01 
-1.481512775328e+02 1.068098752491e+01 0.0 
1.068098752491e+01 -3.497593274321e+02 0.0 
0.0 0.0 -1.489731814895e+02 
-1.331434670325e+02 8.652407689379e+00 0.0 
8.652407689379e+00 -3.025925301149e+02 0.0 
0.0 0.0 -1.303207991442e+02 
-1.096596078860e+02 7.915829295441e+00 0.0 
7.915829295441e+00 -2.413879989767e+02 0.0 
0.0 0.0 -1.049142820588e+02 
-1.281524235928e+02 4.121240883366e+00 0.0 
4.121240883366e+00 -2.935237548853e+02 0.0 
0.0 0.0 -1.261028535434e+02 
-6.866772490765e+01 -6.667451391816e-01 0.0 
-6.667451391816e-01 -1.769264024717e+02 0.0 
0.0 0.0 -7.327823821381e+01 
-6.213782851876e+01 -8.057697894279e-01 0.0 
-8.057697894279e-01 -1.614819104755e+02 0.0 
0.0 0.0 -6.668592169828e+01 
-1.442149593038e+02 4.949166424284e+00 0.0 
4.949166424284e+00 -3.462189772496e+02 0.0 
0.0 0.0 -1.467301809660e+02 
-1.349287630181e+01 -9.371356601442e-01 0.0 
-9.371356601442e-01 -2.429610666409e+01 0.0 
0.0 0.0 -1.138937956080e+01 
-4.481580374331e+01 -8.402113991766e-02 0.0 
-8.402113991766e-02 -1.149008411475e+02 0.0 
0.0 0.0 -4.751499346726e+01 
-1.500796074623e+02 1.199281962434e+01 0.0 
1.199281962434e+01 -3.515190840787e+02 0.0 
0.0 0.0 -1.500796074623e+02 
-2.225086543999e+01 5.964096405515e-01 0.0 
5.964096405515e-01 -5.758557487047e+01 0.0 
0.0 0.0 -2.355093209314e+01 
-7.322689734997e+01 -2.056259145356e-02 0.0 
-2.056259145356e-02 -1.619309995779e+02 0.0 
0.0 0.0 -7.014736907835e+01 
-1.404293285322e+02 9.473209830193e+00 0.0 
9.473209830193e+00 -3.375071195922e+02 0.0 
0.0 0.0 -1.429809344373e+02 
-1.720609271484e+01 -1.447337067042e+00 0.0 
-1.447337067042e+00 -3.908132019665e+01 0.0 
0.0 0.0 -1.648622387345e+01 
-1.071640191348e+01 -3.377913306240e-01 0.0 
-3.377913306240e-01 -2.397180457605e+01 0.0 
0.0 0.0 -1.000646194686e+01 
-1.410065174867e+02 3.430258520491e+00 0.0 
3.430258520491e+00 -3.278734383507e+02 0.0 
0.0 0.0 -1.402639867512e+02 
-6.697862348293e+01 -2.442681841620e-01 0.0 
-2.442681841620e-01 -1.452183021383e+02 0.0 
0.0 0.0 -6.325907768638e+01 
-1.327960243630e+02 1.674548413829e+00 0.0 
1.674548413829e+00 -3.070758519779e+02 0.0 
0.0 0.0 -1.315615629023e+02 
-1.407763275558e+02 9.390994647440e+00 0.0 
9.390994647440e+00 -3.355250316694e+02 0.0 
0.0 0.0 -1.424904077676e+02 
-6.672706460629e+01 3.097974820745e-01 0.0 
3.097974820745e-01 -1.449135469120e+02 0.0 
0.0 0.0 -6.309218345550e+01 
-1.673891822988e+01 3.902349282082e-01 0.0 
3.902349282082e-01 -2.229230828657e+01 0.0 
0.0 0.0 -1.130936795493e+01 
-1.328397677882e+02 8.734637679726e-01 0.0 
8.734637679726e-01 -3.095640872586e+02 0.0 
0.0 0.0 -1.323211565140e+02 
-2.468224668498e+01 -1.865687024706e-02 0.0 
-1.865687024706e-02 -6.334740974285e+01 0.0 
0.0 0.0 -2.600889692835e+01 
-1.277781452251e+02 1.656490966176e+00 0.0 
1.656490966176e+00 -2.958138742539e+02 0.0 
0.0 0.0 -1.266776058437e+02 
-1.632286076001e+02 2.996834510166e+00 0.0 
2.996834510166e+00 -3.822000844002e+02 0.0 
0.0 0.0 -1.632286076001e+02 
-1.311702429512e+02 7.229177033300e+00 0.0 
7.229177033300e+00 -2.997108070556e+02 0.0 
0.0 0.0 -1.288643150020e+02 
-2.765333246988e+01 4.272549750839e-01 0.0 
4.272549750839e-01 -7.921416123299e+01 0.0 
0.0 0.0 -3.166024811086e+01 
-8.330988075224e+01 1.362017361917e+00 0.0 
1.362017361917e+00 -1.802444911836e+02 0.0 
0.0 0.0 -7.866631158074e+01 
-6.971483571366e+01 3.954244103869e-01 0.0 
3.954244103869e-01 -1.796909735662e+02 0.0 
0.0 0.0 -7.442174278396e+01 
-1.191407201017e+02 1.101620806712e+01 0.0 
1.101620806712e+01 -2.794539795771e+02 0.0 
0.0 0.0 -1.191784099036e+02 
-1.536779028785e+02 1.260684423633e+01 0.0 
1.260684423633e+01 -3.606936476136e+02 0.0 
0.0 0.0 -1.539114651476e+02 
-1.079941126419e+02 -2.122233452257e-01 0.0 
-2.122233452257e-01 -2.465271605215e+02 0.0 
0.0 0.0 -1.059563819490e+02 
-1.538313487087e+02 1.140278714777e+01 0.0 
1.140278714777e+01 -3.629008109990e+02 0.0 
0.0 0.0 -1.546196479123e+02 
-1.725167436287e+01 -7.390321832927e-01 0.0 
-7.390321832927e-01 -4.036194884760e+01 0.0 
0.0 0.0 -1.688408696314e+01 
-1.544959383649e+02 4.310479199840e+00 0.0 
4.310479199840e+00 -3.665790776344e+02 0.0 
0.0 0.0 -1.559225047998e+02 
-3.191603075495e+01 4.598633568367e-01 0.0 
4.598633568367e-01 -8.938200177203e+01 0.0 
0.0 0.0 -3.598940975809e+01 
-2.218156351245e+01 -7.642550753385e-01 0.0 
-7.642550753385e-01 -5.755321817066e+01 0.0 
0.0 0.0 -2.352043450493e+01 
-1.494905823294e+02 9.270486851536e+00 0.0 
9.270486851536e+00 -3.562444154154e+02 0.0 
0.0 0.0 -1.513204993234e+02 
-1.365082596093e+02 5.197726961054e+00 0.0 
5.197726961054e+00 -3.139547458549e+02 0.0 
0.0 0.0 -1.347389016392e+02 
-1.357370509082e+02 3.753142492092e+00 0.0 
3.753142492092e+00 -3.148541081794e+02 0.0 
0.0 0.0 -1.347773477263e+02 
-7.294899527620e+01 -6.349262438257e-01 0.0 
-6.349262438257e-01 -1.606798064687e+02 0.0 
0.0 0.0 -6.968864052346e+01 
-8.500881160312e+01 1.353648039055e+00 0.0 
1.353648039055e+00 -1.829911752582e+02 0.0 
0.0 0.0 -7.999999605840e+01 
-2.312180962903e+01 1.259829481506e+01 0.0 
1.259829481506e+01 -5.200225900807e+01 0.0 
0.0 0.0 -2.213722059113e+01 
-1.399208624309e+02 9.052467885655e+00 0.0 
9.052467885655e+00 -3.210420912170e+02 0.0 
0.0 0.0 -1.378888860944e+02 
-5.833632129736e+01 -8.327738986428e-01 0.0 
-8.327738986428e-01 -1.502525826223e+02 0.0 
0.0 0.0 -6.217667117591e+01 
-1.656572783956e+01 6.381633195199e+00 0.0 
6.381633195199e+00 -4.210345454275e+01 0.0 
0.0 0.0 -1.720075471469e+01 
-1.233163026976e+02 9.611133896435e+00 0.0 
9.611133896435e+00 -2.914341650378e+02 0.0 
0.0 0.0 -1.240251403206e+02 
-6.611690804112e+01 1.129578132146e-01 0.0 
1.129578132146e-01 -1.445292335593e+02 0.0 
0.0 0.0 -6.279384248012e+01 
-1.304881163021e+02 4.117495154410e+00 0.0 
4.117495154410e+00 -3.002233828330e+02 0.0 
0.0 0.0 -1.288134497405e+02 
-1.392902728459e+02 7.818451226061e-01 0.0 
7.818451226061e-01 -3.247222497652e+02 0.0 
0.0 0.0 -1.388037567833e+02 
-1.396116374203e+02 2.432580312725e-01 0.0 
2.432580312725e-01 -3.270938206474e+02 0.0 
0.0 0.0 -1.396116374203e+02 
-2.865758743651e+00 3.351889512253e-01 0.0 
3.351889512253e-01 -6.628775818595e+00 0.0 
0.0 0.0 -2.448360368674e+00 
-5.088476010442e+00 -2.760968948992e-01 0.0 
-2.760968948992e-01 -1.041956918061e+01 0.0 
0.0 0.0 -4.888920107477e+00 
-6.679310785749e+01 6.717473046311e-01 0.0 
6.717473046311e-01 -1.469791304031e+02 0.0 
0.0 0.0 -6.373167147818e+01 
-6.540907784577e+01 -1.071306176605e-01 0.0 
-1.071306176605e-01 -1.444687708034e+02 0.0 
0.0 0.0 -6.256335459474e+01 
-1.637602605755e+02 3.688925442453e-01 0.0 
3.688925442453e-01 -3.834406080096e+02 0.0 
0.0 0.0 -1.637602605755e+02 
-1.614835396047e+02 -6.570647106663e-01 0.0 
-6.570647106663e-01 -3.805875427059e+02 0.0 
0.0 0.0 -1.622213246932e+02 
-9.504596682358e+00 -6.822798543391e-01 0.0 
-6.822798543391e-01 -2.298923278399e+01 0.0 
0.0 0.0 -9.348148839905e+00 
-1.174926990785e+01 -3.768769746365e-01 0.0 
-3.768769746365e-01 -8.234570711618e+00 0.0 
0.0 0.0 -6.495578533045e+00 
-1.469357115822e+02 1.637900623989e+00 0.0 
1.637900623989e+00 -3.509960761762e+02 0.0 
0.0 0.0 -1.489795363275e+02 
-1.351529390188e+02 9.964239548006e+00 0.0 
9.964239548006e+00 -3.150252352717e+02 0.0 
0.0 0.0 -1.346534522872e+02 
-2.936820895587e+01 -2.246069018931e-01 0.0 
-2.246069018931e-01 -7.406020906098e+01 0.0 
0.0 0.0 -3.062852540506e+01 
-1.481064338238e+02 4.535386249754e+00 0.0 
4.535386249754e+00 -3.531979761782e+02 0.0 
0.0 0.0 -1.499913230006e+02 
-1.010511374543e+02 3.137107308939e-01 0.0 
3.137107308939e-01 -2.527617880420e+02 0.0 
0.0 0.0 -1.057438776489e+02 
-8.586625247944e+01 7.987076187777e-01 0.0 
7.987076187777e-01 -2.183989348939e+02 0.0 
0.0 0.0 -9.087955621200e+01 
-9.427762438025e+01 -3.427443314010e-02 0.0 
-3.427443314010e-02 -2.124969991096e+02 0.0 
0.0 0.0 -9.163238704695e+01 
-2.678956320164e+01 -1.239703482502e+00 0.0 
-1.239703482502e+00 -6.900013231583e+01 0.0 
0.0 0.0 -2.833690865524e+01 
-1.108206488008e+02 1.096479458037e+01 0.0 
1.096479458037e+01 -2.603060518025e+02 0.0 
0.0 0.0 -1.109380101810e+02 
-2.388931058782e+01 -8.331992153453e-01 0.0 
-8.331992153453e-01 -5.942888428394e+01 0.0 
0.0 0.0 -2.459545846153e+01 
-7.793501708056e+01 7.835012068231e-01 0.0 
7.835012068231e-01 -1.987301678311e+02 0.0 
0.0 0.0 -8.259955547348e+01 
-1.335706997328e+02 7.699947913164e+00 0.0 
7.699947913164e+00 -3.069476571088e+02 0.0 
0.0 0.0 -1.317555070525e+02 
-1.235391474382e+02 8.871854681688e-01 0.0 
8.871854681688e-01 -2.850902550236e+02 0.0 
0.0 0.0 -1.221888207386e+02 
-8.600974949189e+01 -3.644649912732e-01 0.0 
-3.644649912732e-01 -2.175315788065e+02 0.0 
0.0 0.0 -9.066239848952e+01 
-8.581837620273e+01 8.800705216216e-01 0.0 
8.800705216216e-01 -1.920873121161e+02 0.0 
0.0 0.0 -8.297170649565e+01 
-1.357521616315e+02 1.037212469054e+01 0.0 
1.037212469054e+01 -3.136437964950e+02 0.0 
0.0 0.0 -1.344187874379e+02 
-1.248700051022e+02 8.982159819705e+00 0.0 
8.982159819705e+00 -2.807301185257e+02 0.0 
0.0 0.0 -1.212800370884e+02 
-1.172668728006e+02 8.469577411140e+00 0.0 
8.469577411140e+00 -2.609805964929e+02 0.0 
0.0 0.0 -1.130742407880e+02 
-6.648613914668e+01 2.896946845137e-02 0.0 
2.896946845137e-02 -1.451589817566e+02 0.0 
0.0 0.0 -6.309353627097e+01 
-1.063609440262e+02 1.087025424187e+01 0.0 
1.087025424187e+01 -2.525849220634e+02 0.0 
0.0 0.0 -1.072837598269e+02 
-1.299639132317e+02 5.101969828602e+00 0.0 
5.101969828602e+00 -2.987299905630e+02 0.0 
0.0 0.0 -1.282081711384e+02 
-4.390520943015e+01 -7.216308721538e-01 0.0 
-7.216308721538e-01 -1.143606561464e+02 0.0 
0.0 0.0 -4.707975967298e+01 
-1.343519913268e+01 -7.240133326968e-01 0.0 
-7.240133326968e-01 -2.508747617729e+01 0.0 
0.0 0.0 -1.115680259299e+01 
-1.308128099107e+02 1.053136552704e+01 0.0 
1.053136552704e+01 -3.002353957096e+02 0.0 
0.0 0.0 -1.289144616861e+02 
-1.262852221629e+02 8.231313642415e+00 0.0 
8.231313642415e+00 -3.061153434311e+02 0.0 
0.0 0.0 -1.293201696782e+02 
-2.268655875921e+01 -9.501925234957e-01 0.0 
-9.501925234957e-01 -5.754464768578e+01 0.0 
0.0 0.0 -2.366936193350e+01 
-1.001197353797e+02 8.897619054669e-01 0.0 
8.897619054669e-01 -2.265936068954e+02 0.0 
0.0 0.0 -9.761400268253e+01 
-1.545692337537e+02 2.379624185438e+00 0.0 
2.379624185438e+00 -3.655823192031e+02 0.0 
0.0 0.0 -1.556454658870e+02 
-1.302944032868e+02 9.770458558224e+00 0.0 
9.770458558224e+00 -3.023761239964e+02 0.0 
0.0 0.0 -1.294011581849e+02 
-1.362306630706e+02 1.110968415110e+01 0.0 
1.110968415110e+01 -3.154191327562e+02 0.0 
0.0 0.0 -1.350949387480e+02 
-1.099724524267e+02 1.010059197129e+00 0.0 
1.010059197129e+00 -2.728747535894e+02 0.0 
0.0 0.0 -1.144541618048e+02 
-1.172230865224e+01 3.128997489943e+00 0.0 
3.128997489943e+00 -2.177487306714e+01 0.0 
0.0 0.0 -9.925945565039e+00 
-1.645212932324e+01 2.254347647167e+00 0.0 
2.254347647167e+00 -2.856072514232e+01 0.0 
0.0 0.0 -1.310385633967e+01 
-3.101767915866e+01 1.233158593181e+01 0.0 
1.233158593181e+01 -5.963760566423e+01 0.0 
0.0 0.0 -2.679658544687e+01 
-8.375349958188e+01 1.391104193191e+00 0.0 
1.391104193191e+00 -1.802645096291e+02 0.0 
0.0 0.0 -7.880540276331e+01 
-1.063549465709e+02 9.129166999508e+00 0.0 
9.129166999508e+00 -2.522822452601e+02 0.0 
0.0 0.0 -1.071911575493e+02 
-1.288674103309e+02 2.316777287836e+00 0.0 
2.316777287836e+00 -2.980984693905e+02 0.0 
0.0 0.0 -1.276897639164e+02 
-1.474793454154e+02 9.922985177215e+00 0.0 
9.922985177215e+00 -3.486131773925e+02 0.0 
0.0 0.0 -1.484277568424e+02 
-1.983841801215e+01 -1.167610238456e+00 0.0 
-1.167610238456e+00 -4.162779878981e+01 0.0 
0.0 0.0 -1.803986504059e+01 
-1.861865040369e+01 -1.565830795027e+00 0.0 
-1.565830795027e+00 -4.034516939341e+01 0.0 
0.0 0.0 -1.728914593913e+01 
-8.758457074428e+00 3.812727825564e+00 0.0 
3.812727825564e+00 -1.459958001642e+01 0.0 
0.0 0.0 -6.607411127255e+00 
-1.024929782475e+02 -6.432571838324e-01 0.0 
-6.432571838324e-01 -2.322473712718e+02 0.0 
0.0 0.0 -1.000221048558e+02 
-5.414781957422e+01 2.848152252588e-01 0.0 
2.848152252588e-01 -1.400265901162e+02 0.0 
0.0 0.0 -5.785232290712e+01 
-1.311776285269e+02 4.628303474519e+00 0.0 
4.628303474519e+00 -3.013226009667e+02 0.0 
0.0 0.0 -1.293500688481e+02 
-2.800664441792e+01 1.818263152356e-01 0.0 
1.818263152356e-01 -7.098647391634e+01 0.0 
0.0 0.0 -2.929793550028e+01 
-1.390534907168e+02 9.417230497577e+00 0.0 
9.417230497577e+00 -3.314612180101e+02 0.0 
0.0 0.0 -1.407544126180e+02 
-8.121457974350e+01 -3.550323103229e-02 0.0 
-3.550323103229e-02 -1.780267533944e+02 0.0 
0.0 0.0 -7.737239994137e+01 
-1.450751368220e+02 1.130621328524e+01 0.0 
1.130621328524e+01 -3.394710395627e+02 0.0 
0.0 0.0 -1.449638529154e+02 
-1.236739123191e+02 1.142407647029e+01 0.0 
1.142407647029e+01 -2.880449960097e+02 0.0 
0.0 0.0 -1.231156724986e+02 
-8.439012493856e+01 2.187048664631e+00 0.0 
2.187048664631e+00 -1.806056590201e+02 0.0 
0.0 0.0 -7.909873518758e+01 
-1.505641326020e+02 7.779105156662e+00 0.0 
7.779105156662e+00 -3.592695101917e+02 0.0 
0.0 0.0 -1.525500928381e+02 
-1.358980481801e+02 4.206945425771e+00 0.0 
4.206945425771e+00 -3.137647602365e+02 0.0 
0.0 0.0 -1.344988425250e+02 
-1.341048849864e+02 1.367265298793e-01 0.0 
1.367265298793e-01 -3.109288226126e+02 0.0 
0.0 0.0 -1.331101122797e+02 
-1.272928158015e+01 9.437196409355e+00 0.0 
9.437196409355e+00 -1.531091680425e+01 0.0 
0.0 0.0 -8.012059515322e+00 
-1.274319114411e+02 2.707457409565e+00 0.0 
2.707457409565e+00 -2.930627421185e+02 0.0 
0.0 0.0 -1.257483960679e+02 
-1.402028000257e+02 1.009220390294e+01 0.0 
1.009220390294e+01 -3.260493149760e+02 0.0 
0.0 0.0 -1.394756345005e+02 
-1.390683763411e+02 1.050419990577e+01 0.0 
1.050419990577e+01 -3.321159533699e+02 0.0 
0.0 0.0 -1.409552989133e+02 
-1.268882895693e+02 9.539979299708e+00 0.0 
9.539979299708e+00 -2.982021559568e+02 0.0 
0.0 0.0 -1.271271336578e+02 
-1.623185174241e+02 4.901716686996e+00 0.0 
4.901716686996e+00 -3.800765406562e+02 0.0 
0.0 0.0 -1.623185174241e+02 
-1.160597589124e+02 6.353227601744e+00 0.0 
6.353227601744e+00 -2.600535765328e+02 0.0 
0.0 0.0 -1.124340006336e+02 
-1.126652877385e+01 2.647780382670e+00 0.0 
2.647780382670e+00 -8.923264688368e+00 0.0 
0.0 0.0 -6.608680939192e+00 
-1.868603728267e+01 9.163075136592e+00 0.0 
9.163075136592e+00 -4.613414333810e+01 0.0 
0.0 0.0 -1.904605418623e+01 
-1.284117270233e+02 8.696034292476e+00 0.0 
8.696034292476e+00 -2.906918623873e+02 0.0 
0.0 0.0 -1.253310768232e+02 
-8.937290122866e+01 1.082894304578e+00 0.0 
1.082894304578e+00 -1.949163075357e+02 0.0 
0.0 0.0 -8.488676262930e+01 
-1.468633720329e+02 1.988091536869e+00 0.0 
1.988091536869e+00 -3.506553147218e+02 0.0 
0.0 0.0 -1.488556060264e+02 
-1.319749912946e+02 1.166302107571e+01 0.0 
1.166302107571e+01 -3.073957407896e+02 0.0 
0.0 0.0 -1.314112196253e+02 
-1.551156107199e+02 4.490131663964e+00 0.0 
4.490131663964e+00 -3.663355678804e+02 0.0 
0.0 0.0 -1.560353535801e+02 
-1.110597136485e+02 -3.304670751497e-01 0.0 
-3.304670751497e-01 -2.530051747566e+02 0.0 
0.0 0.0 -1.088194665215e+02 
-1.458734346673e+02 1.127486015826e+01 0.0 
1.127486015826e+01 -3.422277347055e+02 0.0 
0.0 0.0 -1.460303508118e+02 
-1.454357686041e+02 7.262601235025e+00 0.0 
7.262601235025e+00 -3.476826328579e+02 0.0 
0.0 0.0 -1.475355204386e+02 
-1.447994744344e+02 6.072466073718e+00 0.0 
6.072466073718e+00 -3.472564951048e+02 0.0 
0.0 0.0 -1.472167908618e+02 
-5.637756302829e+01 1.329470628855e-01 0.0 
1.329470628855e-01 -1.454194674500e+02 0.0 
0.0 0.0 -6.013910914348e+01 
-1.614621931999e+02 4.276809614335e+00 0.0 
4.276809614335e+00 -3.808368826174e+02 0.0 
0.0 0.0 -1.622897227452e+02 
-7.507055518225e+01 6.495507027013e-01 0.0 
6.495507027013e-01 -1.617961708107e+02 0.0 
0.0 0.0 -7.066001779787e+01 
-1.269141314686e+02 1.638017027246e+00 0.0 
1.638017027246e+00 -2.927938504462e+02 0.0 
0.0 0.0 -1.255123945744e+02 
-1.755583570418e+01 -1.144045073846e+00 0.0 
-1.144045073846e+00 -4.114439317575e+01 0.0 
0.0 0.0 -1.721006866398e+01 
-1.212345102838e+02 9.159924645173e-01 0.0 
9.159924645173e-01 -2.780592689641e+02 0.0 
0.0 0.0 -1.193881337744e+02 
-1.010927987879e+02 4.957692780971e-01 0.0 
4.957692780971e-01 -2.283982666768e+02 0.0 
0.0 0.0 -9.844731963941e+01 
-1.658411140589e+01 1.815294088331e-01 0.0 
1.815294088331e-01 -4.198853078541e+01 0.0 
0.0 0.0 -1.717179265739e+01 
-2.638884932530e+01 1.246111609485e+00 0.0 
1.246111609485e+00 -7.131744190230e+01 0.0 
0.0 0.0 -2.891188736828e+01 
-1.198452934993e+02 7.020676540272e+00 0.0 
7.020676540272e+00 -2.704209677676e+02 0.0 
0.0 0.0 -1.166798783801e+02 
-1.334241697221e+02 2.416686373246e+00 0.0 
2.416686373246e+00 -3.105233416985e+02 0.0 
0.0 0.0 -1.327842534262e+02 
-1.276058244457e+02 1.119859489100e+00 0.0 
1.119859489100e+00 -2.954291861950e+02 0.0 
0.0 0.0 -1.265105031922e+02 
-1.440671846844e+02 1.048938870271e+01 0.0 
1.048938870271e+01 -3.400723933199e+02 0.0 
0.0 0.0 -1.448418734013e+02 
-8.580497582639e+01 -5.939506317642e-01 0.0 
-5.939506317642e-01 -1.916066245501e+02 0.0 
0.0 0.0 -8.282348011294e+01 
-1.219916866431e+01 -8.783231855680e-01 0.0 
-8.783231855680e-01 -2.459434952271e+01 0.0 
0.0 0.0 -1.063805545611e+01 
-1.659520364368e+01 1.942746483306e+00 0.0 
1.942746483306e+00 -3.549761905375e+01 0.0 
0.0 0.0 -1.522784680923e+01 
-1.232322873490e+01 -1.505031566710e+00 0.0 
-1.505031566710e+00 -2.808073452105e+01 0.0 
0.0 0.0 -1.171260383392e+01 
-2.292997216074e+01 -8.746313169622e-01 0.0 
-8.746313169622e-01 -5.448815239340e+01 0.0 
0.0 0.0 -2.282543736624e+01 
-1.170040425056e+01 6.026039349562e+00 0.0 
6.026039349562e+00 -6.931443674311e+00 0.0 
0.0 0.0 -5.385176176782e+00 
-7.598178538903e+01 -4.497234539953e-01 0.0 
-4.497234539953e-01 -1.938167772163e+02 0.0 
0.0 0.0 -8.053956878161e+01 
-1.466760028567e+02 5.361251049910e-01 0.0 
5.361251049910e-01 -3.505309317613e+02 0.0 
0.0 0.0 -1.487620803854e+02 
-1.309737435215e+02 5.860407032562e+00 0.0 
5.860407032562e+00 -2.999052304324e+02 0.0 
0.0 0.0 -1.288636921862e+02 
-9.081462821236e+01 3.276315206935e+00 0.0 
3.276315206935e+00 -1.950212992758e+02 0.0 
0.0 0.0 -8.535077824645e+01 
-6.582280301109e+01 8.589040410561e-01 0.0 
8.589040410561e-01 -1.698215282022e+02 0.0 
0.0 0.0 -7.029329936397e+01 
-1.447609173843e+02 6.132745075764e+00 0.0 
6.132745075764e+00 -3.470254123711e+02 0.0 
0.0 0.0 -1.471358989266e+02 
-1.398379756283e+02 7.556458436763e+00 0.0 
7.556458436763e+00 -3.370151230668e+02 0.0 
0.0 0.0 -1.426559296085e+02 
-1.445154358471e+02 1.155315417121e+01 0.0 
1.155315417121e+01 -3.389929790438e+02 0.0 
0.0 0.0 -1.446525244673e+02 
-1.354025480199e+02 1.016679682181e+01 0.0 
1.016679682181e+01 -3.131635584101e+02 0.0 
0.0 0.0 -1.341698319290e+02 
-1.271021057200e+02 7.618485129097e+00 0.0 
7.618485129097e+00 -2.896538341130e+02 0.0 
0.0 0.0 -1.246267819499e+02 
-1.704623745770e+01 -1.502742771386e+00 0.0 
-1.502742771386e+00 -4.048731384894e+01 0.0 
0.0 0.0 -1.686006539199e+01 
-1.911305824914e+01 -4.914503170834e-03 0.0 
-4.914503170834e-03 -3.592277585244e+01 0.0 
0.0 0.0 -1.611075023047e+01 
-1.469318196871e+02 2.712262671259e+00 0.0 
2.712262671259e+00 -3.514957791007e+02 0.0 
0.0 0.0 -1.491282796363e+02 
-1.563568181016e+01 -3.085422114035e-01 0.0 
-3.085422114035e-01 -4.123006100292e+01 0.0 
0.0 0.0 -1.665972284392e+01 
-1.895423678306e+01 -1.092513454016e+00 0.0 
-1.092513454016e+00 -4.908895363964e+01 0.0 
0.0 0.0 -2.001295712681e+01 
-1.316481149042e+01 7.349433748485e+00 0.0 
7.349433748485e+00 -2.511016385719e+01 0.0 
0.0 0.0 -1.108249260428e+01 
-1.637919607490e+01 -4.417191808725e-01 0.0 
-4.417191808725e-01 -3.868283823316e+01 0.0 
0.0 0.0 -1.611861029242e+01 
-1.525399661872e+02 6.987663087086e+00 0.0 
6.987663087086e+00 -3.610908971496e+02 0.0 
0.0 0.0 -1.536892590011e+02 
-1.393392397647e+02 9.602499152991e+00 0.0 
9.602499152991e+00 -3.231742027033e+02 0.0 
0.0 0.0 -1.383540327404e+02 
-1.284579412702e+02 8.258015488240e-01 0.0 
8.258015488240e-01 -2.980460459305e+02 0.0 
0.0 0.0 -1.275511961602e+02 
-1.444345352703e+02 1.135624116150e+01 0.0 
1.135624116150e+01 -3.384768980903e+02 0.0 
0.0 0.0 -1.444734300082e+02 
-1.352911600361e+02 8.924311093300e+00 0.0 
8.924311093300e+00 -3.260521517246e+02 0.0 
0.0 0.0 -1.380029935282e+02 
-9.060523861358e+01 -6.501602024795e-01 0.0 
-6.501602024795e-01 -2.028716949074e+02 0.0 
0.0 0.0 -8.764308005631e+01 
-1.402509087212e+02 3.225593032561e+00 0.0 
3.225593032561e+00 -3.285854536827e+02 0.0 
0.0 0.0 -1.402509087212e+02 
-3.366773094626e+01 1.819336282184e-01 0.0 
1.819336282184e-01 -9.014588967798e+01 0.0 
0.0 0.0 -3.674408618727e+01 
-6.666507075588e+01 9.087103655441e-02 0.0 
9.087103655441e-02 -1.443263045675e+02 0.0 
0.0 0.0 -6.289741259702e+01 
-2.384293861712e+01 -1.494060650458e+00 0.0 
-1.494060650458e+00 -5.570824202810e+01 0.0 
0.0 0.0 -2.346535419356e+01 
-1.048073433782e+01 -7.047775083168e-01 0.0 
-7.047775083168e-01 -2.436711669605e+01 0.0 
0.0 0.0 -1.060121519064e+01 
-1.617276330088e+02 2.737775057812e+00 0.0 
2.737775057812e+00 -3.814536597414e+02 0.0 
0.0 0.0 -1.625543878251e+02 
-7.746878626072e+01 1.653091601177e+00 0.0 
1.653091601177e+00 -1.650236776872e+02 0.0 
0.0 0.0 -7.234773918437e+01 
-2.291852165911e+01 -6.114071636953e-01 0.0 
-6.114071636953e-01 -5.717124615785e+01 0.0 
0.0 0.0 -2.362693034509e+01 
-7.242679909970e+01 -9.356963681834e-01 0.0 
-9.356963681834e-01 -1.864483694060e+02 0.0 
0.0 0.0 -7.726255055170e+01 
-1.406110463599e+02 9.324799646771e+00 0.0 
9.324799646771e+00 -3.238010011146e+02 0.0 
0.0 0.0 -1.389236142423e+02 
-1.286866624803e+02 2.903767957084e+00 0.0 
2.903767957084e+00 -2.967452912233e+02 0.0 
0.0 0.0 -1.272295861111e+02 
-1.353229089975e+02 5.135415322198e+00 0.0 
5.135415322198e+00 -3.141851157669e+02 0.0 
0.0 0.0 -1.344524074293e+02 
-5.161150595103e+01 2.842547969077e-01 0.0 
2.842547969077e-01 -1.328454733452e+02 0.0 
0.0 0.0 -5.493709378886e+01 
-1.726941451202e+01 9.202461633898e-01 0.0 
9.202461633898e-01 -3.620263097881e+01 0.0 
0.0 0.0 -1.564161364725e+01 
-1.530195695803e+02 5.250115916576e+00 0.0 
5.250115916576e+00 -3.645573299860e+02 0.0 
0.0 0.0 -1.548730698699e+02 
-1.407240505376e+02 2.148077658845e-01 0.0 
2.148077658845e-01 -3.274099314652e+02 0.0 
0.0 0.0 -1.400401946008e+02 
-1.620026493770e+02 6.831134762341e-01 0.0 
6.831134762341e-01 -3.825426547999e+02 0.0 
0.0 0.0 -1.629635912531e+02 
-7.181587738052e+01 -5.025628264127e-01 0.0 
-5.025628264127e-01 -1.588811443769e+02 0.0 
0.0 0.0 -6.880910652723e+01 
-1.423761579931e+02 8.581939911082e+00 0.0 
8.581939911082e+00 -3.396059063936e+02 0.0 
0.0 0.0 -1.441946193160e+02 
-2.292871987238e+01 -2.711746491116e-01 0.0 
-2.711746491116e-01 -5.833688507760e+01 0.0 
0.0 0.0 -2.397968148499e+01 
-1.304851276838e+02 3.238221759773e+00 0.0 
3.238221759773e+00 -3.011872035604e+02 0.0 
0.0 0.0 -1.291016993733e+02 
-1.050841283129e+01 -5.926917237646e-01 0.0 
-5.926917237646e-01 -2.339401911265e+01 0.0 
0.0 0.0 -1.027848733072e+01 
-1.516184221785e+02 8.221847225281e+00 0.0 
8.221847225281e+00 -3.588606201783e+02 0.0 
0.0 0.0 -1.527437127070e+02 
-1.361235940078e+02 5.095441076189e+00 0.0 
5.095441076189e+00 -3.138033148476e+02 0.0 
0.0 0.0 -1.345780726566e+02 
-1.247338482020e+01 1.308633533922e+00 0.0 
1.308633533922e+00 -2.281126186487e+01 0.0 
0.0 0.0 -1.069466554014e+01 
-1.310214480873e+02 1.117306474246e+01 0.0 
1.117306474246e+01 -3.034055848921e+02 0.0 
0.0 0.0 -1.299281098938e+02 
-1.071215961466e+02 1.202987490554e+00 0.0 
1.202987490554e+00 -2.430217662781e+02 0.0 
0.0 0.0 -1.046430087274e+02 
-1.337787204210e+02 1.852200964697e+00 0.0 
1.852200964697e+00 -3.116215575552e+02 0.0 
0.0 0.0 -1.332200833929e+02 
-1.551097154164e+02 1.164799534626e+01 0.0 
1.164799534626e+01 -3.632560026383e+02 0.0 
0.0 0.0 -1.551097154164e+02 
-9.576936102297e+01 1.326203240164e+00 0.0 
1.326203240164e+00 -2.162999297505e+02 0.0 
0.0 0.0 -9.322078723204e+01 
-1.389154794615e+02 8.719153449807e+00 0.0 
8.719153449807e+00 -3.223977392820e+02 0.0 
0.0 0.0 -1.379939656230e+02 
-1.315133746690e+02 5.545281534001e+00 0.0 
5.545281534001e+00 -3.013568704422e+02 0.0 
0.0 0.0 -1.294610735334e+02 
-1.004121132643e+02 2.679075505617e-01 0.0 
2.679075505617e-01 -2.278955459465e+02 0.0 
0.0 0.0 -9.809229776324e+01 
-1.349271145313e+02 8.655822885717e+00 0.0 
8.655822885717e+00 -3.101588533160e+02 0.0 
0.0 0.0 -1.331257903542e+02 
-6.205925234399e+01 2.592333549576e-01 0.0 
2.592333549576e-01 -1.592451801419e+02 0.0 
0.0 0.0 -6.599132974576e+01 
-6.570243802311e+01 1.185321128045e-01 0.0 
1.185321128045e-01 -1.444066741290e+02 0.0 
0.0 0.0 -6.263273364563e+01 
-1.386173910186e+02 1.059933491438e+01 0.0 
1.059933491438e+01 -3.250330966225e+02 0.0 
0.0 0.0 -1.386951462923e+02 
-1.344445611494e+02 -2.481581755599e-01 0.0 
-2.481581755599e-01 -3.128744705411e+02 0.0 
0.0 0.0 -1.337957095072e+02 
-4.273618765241e+00 1.163097718609e-01 0.0 
1.163097718609e-01 -8.552895099778e+00 0.0 
0.0 0.0 -4.373202982672e+00 
-6.561827160170e+01 -2.169441467313e-01 0.0 
-2.169441467313e-01 -1.446559898520e+02 0.0 
0.0 0.0 -6.268227843612e+01 
-1.564222167975e+02 8.960444025302e-01 0.0 
8.960444025302e-01 -3.699068703006e+02 0.0 
0.0 0.0 -1.574987261294e+02 
-2.856816103550e+01 -1.252978200043e+00 0.0 
-1.252978200043e+00 -7.309690982143e+01 0.0 
0.0 0.0 -3.009952125708e+01 
-1.396559908426e+02 9.616109134945e+00 0.0 
9.616109134945e+00 -3.356129130130e+02 0.0 
0.0 0.0 -1.421806711567e+02 
-1.320050093065e+02 6.418173849710e+00 0.0 
6.418173849710e+00 -3.004164100311e+02 0.0 
0.0 0.0 -1.293264258013e+02 
-1.339068198732e+02 2.188366305067e+00 0.0 
2.188366305067e+00 -3.105533146827e+02 0.0 
0.0 0.0 -1.329380403668e+02 
-2.761245193747e+01 -9.953510520789e-01 0.0 
-9.953510520789e-01 -7.030278438545e+01 0.0 
0.0 0.0 -2.897457089688e+01 
-1.752067140690e+01 6.382052412316e+00 0.0 
6.382052412316e+00 -4.177800471644e+01 0.0 
0.0 0.0 -1.738960283700e+01 
-8.932106196637e+01 -1.312195157994e+00 0.0 
-1.312195157994e+00 -2.269452221559e+02 0.0 
0.0 0.0 -9.447988523668e+01 
-1.149035554730e+02 2.571980121660e-02 0.0 
2.571980121660e-02 -2.640955834941e+02 0.0 
0.0 0.0 -1.132997416901e+02 
-1.480402382483e+01 -4.913112640349e-01 0.0 
-4.913112640349e-01 -5.884747637317e+00 0.0 
0.0 0.0 -5.806631438643e+00 
-1.351522687690e+02 4.291550279449e+00 0.0 
4.291550279449e+00 -3.141647626562e+02 0.0 
0.0 0.0 -1.343951094276e+02 
-9.318745547308e+01 5.462568059572e-02 0.0 
5.462568059572e-02 -2.103278601932e+02 0.0 
0.0 0.0 -9.065459469990e+01 
-2.770248268445e+01 -7.602844983556e-01 0.0 
-7.602844983556e-01 -6.930850161797e+01 0.0 
0.0 0.0 -2.870329529073e+01 
-8.746067140711e+01 1.540857533865e-02 0.0 
1.540857533865e-02 -1.965423311581e+02 0.0 
0.0 0.0 -8.480090076956e+01 
-1.438965262777e+02 1.233076575664e+01 0.0 
1.233076575664e+01 -3.356432979311e+02 0.0 
0.0 0.0 -1.434619472626e+02 
-9.419426124989e+01 1.202360641408e+00 0.0 
1.202360641408e+00 -2.375880766192e+02 0.0 
0.0 0.0 -9.913470136072e+01 
-1.207038238862e+01 6.086123117283e+00 0.0 
6.086123117283e+00 -1.073171856205e+01 0.0 
0.0 0.0 -6.414627609825e+00 
-5.537571466253e+01 -8.578530188632e-01 0.0 
-8.578530188632e-01 -1.445831584324e+02 0.0 
0.0 0.0 -5.958766192849e+01 
-8.179079701930e+01 -2.576044734192e-01 0.0 
-2.576044734192e-01 -2.086247389049e+02 0.0 
0.0 0.0 -8.672466077726e+01 
-9.845022173790e+01 -1.344371755510e+00 0.0 
-1.344371755510e+00 -2.466462095819e+02 0.0 
0.0 0.0 -1.031289293960e+02 
-1.398601643133e+02 1.172389234192e+01 0.0 
1.172389234192e+01 -3.287720714498e+02 0.0 
0.0 0.0 -1.401896707289e+02 
-7.948055208958e+01 7.017378540170e-01 0.0 
7.017378540170e-01 -2.033515012743e+02 0.0 
0.0 0.0 -8.444961600915e+01 
-8.508568458245e+01 -2.048766747324e-01 0.0 
-2.048766747324e-01 -2.158650956414e+02 0.0 
0.0 0.0 -8.988523406716e+01 
-1.540608201878e+01 -1.129081022560e+00 0.0 
-1.129081022560e+00 -3.707511808859e+01 0.0 
0.0 0.0 -1.534436003221e+01 
-1.475554571116e+02 3.592916939426e+00 0.0 
3.592916939426e+00 -3.532650094130e+02 0.0 
0.0 0.0 -1.498461399574e+02 
-1.301541000710e+02 9.154616438148e+00 0.0 
9.154616438148e+00 -3.001626469171e+02 0.0 
0.0 0.0 -1.286950240964e+02 
-1.865045099071e+01 6.846679778041e+00 0.0 
6.846679778041e+00 -5.325759288445e+01 0.0 
0.0 0.0 -2.117241316255e+01 
-1.342905490711e+02 5.899412128188e-01 0.0 
5.899412128188e-01 -3.122722846967e+02 0.0 
0.0 0.0 -1.335688501304e+02 
-1.563465991484e+02 -1.147731462983e-01 0.0 
-1.147731462983e-01 -3.694426725302e+02 0.0 
0.0 0.0 -1.573367815036e+02 
-7.224216182252e+01 6.373948491501e-01 0.0 
6.373948491501e-01 -1.599126698531e+02 0.0 
0.0 0.0 -6.924644950268e+01 
-9.335209223760e+01 5.422935716838e-02 0.0 
5.422935716838e-02 -2.103761786951e+02 0.0 
0.0 0.0 -9.071848127982e+01 
-7.969845510927e+01 -5.663191820034e-01 0.0 
-5.663191820034e-01 -2.032419992906e+02 0.0 
0.0 0.0 -8.448213631997e+01 
-8.256614010581e+01 5.063133836996e-01 0.0 
5.063133836996e-01 -2.094643440793e+02 0.0 
0.0 0.0 -8.720914525552e+01 
-8.486582329839e+01 2.369325383223e-01 0.0 
2.369325383223e-01 -2.162485544783e+02 0.0 
0.0 0.0 -8.993431333302e+01 
-1.342356940694e+02 8.738149193430e+00 0.0 
8.738149193430e+00 -3.228042770149e+02 0.0 
0.0 0.0 -1.367119913253e+02 
-2.228115641502e+01 -1.639237557248e+00 0.0 
-1.639237557248e+00 -5.634617118821e+01 0.0 
0.0 0.0 -2.318819828097e+01 
-1.354173225003e+02 1.078790784624e+01 0.0 
1.078790784624e+01 -3.110211182273e+02 0.0 
0.0 0.0 -1.335315322183e+02 
-7.927361792671e+01 -1.760084107755e-01 0.0 
-1.760084107755e-01 -1.767406743231e+02 0.0 
0.0 0.0 -7.640428767495e+01 
-1.357048181577e+02 4.546447467548e+00 0.0 
4.546447467548e+00 -3.130465415714e+02 0.0 
0.0 0.0 -1.342254079187e+02 
-1.347040729082e+02 9.661546879133e+00 0.0 
9.661546879133e+00 -3.228390657482e+02 0.0 
0.0 0.0 -1.368629415969e+02 
-8.836593987442e+01 5.501279294739e-01 0.0 
5.501279294739e-01 -1.972604228041e+02 0.0 
0.0 0.0 -8.528790880356e+01 
-1.298454425658e+02 7.775360028938e+00 0.0 
7.775360028938e+00 -2.970771207657e+02 0.0 
0.0 0.0 -1.276767689994e+02 
-1.388052295609e+02 1.042237020054e+01 0.0 
1.042237020054e+01 -3.276785073866e+02 0.0 
0.0 0.0 -1.395451210842e+02 
-1.449740469741e+02 1.200315790743e+01 0.0 
1.200315790743e+01 -3.409621859314e+02 0.0 
0.0 0.0 -1.453808698717e+02 
-1.194872728193e+01 5.653151684838e+00 0.0 
5.653151684838e+00 -1.799441658122e+01 0.0 
0.0 0.0 -8.796976020007e+00 
-1.307420728425e+02 9.035336539775e+00 0.0 
9.035336539775e+00 -2.976590711147e+02 0.0 
0.0 0.0 -1.281203431872e+02 
-1.346709427636e+02 8.337310707196e+00 0.0 
8.337310707196e+00 -3.089696791025e+02 0.0 
0.0 0.0 -1.326921865598e+02 
-1.637614387044e+01 -2.077769843777e-01 0.0 
-2.077769843777e-01 -3.817271766381e+01 0.0 
0.0 0.0 -1.596465846028e+01 
-7.562944037706e+01 4.405719304087e-01 0.0 
4.405719304087e-01 -1.933968000358e+02 0.0 
0.0 0.0 -8.030787212385e+01 
-1.380710910665e+01 4.490374702971e+00 0.0 
4.490374702971e+00 -1.779741461158e+01 0.0 
0.0 0.0 -9.081357115467e+00 
-1.352711802465e+02 9.103098548682e+00 0.0 
9.103098548682e+00 -3.089400752586e+02 0.0 
0.0 0.0 -1.328633766515e+02 
-7.050468886411e+00 4.838898694322e-01 0.0 
4.838898694322e-01 -7.981863337823e+00 0.0 
0.0 0.0 -4.109699667270e+00 
-7.853136774136e+00 -7.637604410492e-02 0.0 
-7.637604410492e-02 -9.871816205742e+00 0.0 
0.0 0.0 -4.917485893964e+00 
-7.166959712657e+00 1.947997426262e-01 0.0 
1.947997426262e-01 -9.608387905422e+00 0.0 
0.0 0.0 -4.632604285424e+00 
-7.695664380338e+00 3.768929169158e-02 0.0 
3.768929169158e-02 -9.899156476332e+00 0.0 
0.0 0.0 -4.878446257001e+00 
-7.282439912944e+00 7.615682837457e-02 0.0 
7.615682837457e-02 -9.729534497402e+00 0.0 
0.0 0.0 -4.703592323104e+00 
-7.580358062867e+00 -1.273228363939e-02 0.0 
-1.273228363939e-02 -9.900076489906e+00 0.0 
0.0 0.0 -4.844130365832e+00 
-7.279032831460e+00 5.456170786114e-03 0.0 
5.456170786114e-03 -9.776403932656e+00 0.0 
0.0 0.0 -4.716631029235e+00 
-7.485580635544e+00 -5.969573736970e-02 0.0 
-5.969573736970e-02 -9.911863843454e+00 0.0 
0.0 0.0 -4.819233343700e+00 
-7.187912289169e+00 -3.599814215246e-02 0.0 
-3.599814215246e-02 -9.793083481168e+00 0.0 
0.0 0.0 -4.694298731101e+00 
-7.382912112949e+00 -9.845739857505e-02 0.0 
-9.845739857505e-02 -9.926752162242e+00 0.0 
0.0 0.0 -4.792899282557e+00 
-7.032665127475e+00 -6.162393269414e-02 0.0 
-6.162393269414e-02 -9.792687312138e+00 0.0 
0.0 0.0 -4.647605731884e+00 
-7.260594751526e+00 -1.323013288637e-01 0.0 
-1.323013288637e-01 -9.942517299688e+00 0.0 
0.0 0.0 -4.760933615364e+00 
-6.825874877272e+00 -7.962909803242e-02 0.0 
-7.962909803242e-02 -9.783106998695e+00 0.0 
0.0 0.0 -4.582694562790e+00 
-7.114531417327e+00 -1.643699832811e-01 0.0 
-1.643699832811e-01 -9.958979813549e+00 0.0 
0.0 0.0 -4.722053369263e+00 
-6.572679044067e+00 -9.445443045751e-02 0.0 
-9.445443045751e-02 -9.768381009659e+00 0.0 
0.0 0.0 -4.502318016118e+00 
-6.942641253184e+00 -1.966392866311e-01 0.0 
-1.966392866311e-01 -9.976319081223e+00 0.0 
0.0 0.0 -4.675688100322e+00 
-6.274050440125e+00 -1.082811680076e-01 0.0 
-1.082811680076e-01 -9.750604031988e+00 0.0 
0.0 0.0 -4.407396341634e+00 
-6.744116820280e+00 -2.300806200732e-01 0.0 
-2.300806200732e-01 -9.994737126696e+00 0.0 
0.0 0.0 -4.621656184093e+00 
-5.928860412364e+00 -1.222233826195e-01 0.0 
-1.222233826195e-01 -9.730566779533e+00 0.0 
0.0 0.0 -4.297828157569e+00 
-3.727312322883e+00 2.443343324354e+00 0.0 
2.443343324354e+00 -1.173838183897e+01 0.0 
0.0 0.0 -4.239708248555e+00 
-6.518850076638e+00 -2.652468484460e-01 0.0 
-2.652468484460e-01 -1.001447807656e+01 0.0 
0.0 0.0 -4.559998445958e+00 
-5.534850265778e+00 -1.368364419243e-01 0.0 
-1.368364419243e-01 -9.708539828416e+00 0.0 
0.0 0.0 -4.173017028258e+00 
-6.268172360485e+00 -3.024497604992e-01 0.0 
-3.024497604992e-01 -1.003590501976e+01 0.0 
0.0 0.0 -4.491223214074e+00 
-7.912031635716e+00 1.134553787305e+00 0.0 
1.134553787305e+00 -1.083176951064e+01 0.0 
0.0 0.0 -5.223140343907e+00 
-5.089068631531e+00 -1.525142711155e-01 0.0 
-1.525142711155e-01 -9.684198813828e+00 0.0 
0.0 0.0 -4.031980233608e+00 
-5.995028013640e+00 -3.421481453195e-01 0.0 
-3.421481453195e-01 -1.005976044994e+01 0.0 
0.0 0.0 -4.416436539073e+00 
-4.588594945361e+00 -1.684936018622e-01 0.0 
-1.684936018622e-01 -9.658188043162e+00 0.0 
0.0 0.0 -3.874034896557e+00 
-5.699562416022e+00 -3.825021881208e-01 0.0 
-3.825021881208e-01 -1.008571121773e+01 0.0 
0.0 0.0 -4.335582090125e+00 
-4.033115876393e+00 -1.839021886534e-01 0.0 
-1.839021886534e-01 -9.630954746209e+00 0.0 
0.0 0.0 -3.699221186781e+00 
9.984429019808e-01 -9.725949252461e-02 0.0 
-9.725949252461e-02 -5.075024673634e+00 0.0 
0.0 0.0 -4.945380031243e-01 
-5.391468072719e+00 -4.220938945508e-01 0.0 
-4.220938945508e-01 -1.011455779327e+01 0.0 
0.0 0.0 -4.251807759796e+00 
-3.425659099527e+00 -1.962288677618e-01 0.0 
-1.962288677618e-01 -9.603573360976e+00 0.0 
0.0 0.0 -3.508769738151e+00 
-5.074810537855e+00 -4.559080510837e-01 0.0 
-4.559080510837e-01 -1.014474378924e+01 0.0 
0.0 0.0 -4.165866298128e+00 
-2.773907002483e+00 -2.068702106813e-01 0.0 
-2.068702106813e-01 -9.572182077677e+00 0.0 
0.0 0.0 -3.303826724048e+00 
-4.788059877017e+00 -4.877620992667e-01 0.0 
-4.877620992667e-01 -1.018136794026e+01 0.0 
0.0 0.0 -4.090828345183e+00 
-2.086234893394e+00 -2.083940335328e-01 0.0 
-2.083940335328e-01 -9.543962208264e+00 0.0 
0.0 0.0 -3.089059130497e+00 
-4.518675538972e+00 -5.014816440794e-01 0.0 
-5.014816440794e-01 -1.021745682148e+01 0.0 
0.0 0.0 -4.020839708137e+00 
-1.383868795804e+00 -2.091906973580e-01 0.0 
-2.091906973580e-01 -9.501923067506e+00 0.0 
0.0 0.0 -2.865737558993e+00 
-4.377458083703e+00 -5.171549658852e-01 0.0 
-5.171549658852e-01 -1.027027750569e+01 0.0 
0.0 0.0 -3.994320676817e+00 
-6.842196405017e-01 -1.788832905459e-01 0.0 
-1.788832905459e-01 -9.488966863920e+00 0.0 
0.0 0.0 -2.651955951327e+00 
-4.272046593494e+00 -4.689006819574e-01 0.0 
-4.689006819574e-01 -1.031128569770e+01 0.0 
0.0 0.0 -3.974999687357e+00 
-1.102519403693e+01 4.153594329854e+00 0.0 
4.153594329854e+00 -1.250874701092e+01 0.0 
0.0 0.0 -6.660182314357e+00 
-4.558148438145e+00 -4.522596251574e-01 0.0 
-4.522596251574e-01 -1.040079830664e+01 0.0 
0.0 0.0 -4.087684023434e+00 
-5.723971017919e-02 -1.555270449921e-01 0.0 
-1.555270449921e-01 -9.416041873402e+00 0.0 
0.0 0.0 -2.441984475074e+00 
-4.813248076978e+00 -1.903101937462e-01 0.0 
-1.903101937462e-01 -1.043364484284e+01 0.0 
0.0 0.0 -4.174067875944e+00 
4.639368753163e-01 -1.577136793320e-02 0.0 
-1.577136793320e-02 -9.508831526502e+00 0.0 
0.0 0.0 -2.313468395356e+00 
-6.014339719922e+00 -5.381226044699e-02 0.0 
-5.381226044699e-02 -1.058971697313e+01 0.0 
0.0 0.0 -4.581217007915e+00 
5.944571634245e-01 1.186301317122e-01 0.0 
1.186301317122e-01 -9.376340831003e+00 0.0 
0.0 0.0 -2.234565100274e+00 
1.766386128972e-01 7.826764026027e-01 0.0 
7.826764026027e-01 -1.016948661438e+01 0.0 
0.0 0.0 -2.597854400446e+00 
-4.869929953541e+00 5.194907604040e-01 0.0 
5.194907604040e-01 -1.331839528838e+00 0.0 
0.0 0.0 -1.460530844714e+00 
-7.918844540354e+00 1.503682251337e+00 0.0 
1.503682251337e+00 -1.027287851273e+01 0.0 
0.0 0.0 -5.057516915926e+00 
-8.234333595885e+00 -1.289006382643e+00 0.0 
-1.289006382643e+00 -8.391449143324e+00 0.0 
0.0 0.0 -4.587734821763e+00 
-9.920665121859e+00 2.319021017795e-01 0.0 
2.319021017795e-01 -1.451978551164e+01 0.0 
0.0 0.0 -6.932135190049e+00 
-6.308640072099e+00 -5.995127868632e-02 0.0 
-5.995127868632e-02 -4.279160910346e+00 0.0 
0.0 0.0 -2.776340294733e+00 
-7.196064921466e+00 4.534161316464e+00 0.0 
4.534161316464e+00 -7.709560909458e+00 0.0 
0.0 0.0 -4.071687749277e+00 
-1.695887595147e+01 2.434796953314e-01 0.0 
2.434796953314e-01 -3.122665070202e+01 0.0 
0.0 0.0 -1.405565799605e+01 
-1.623778369484e+01 -2.831466975004e-01 0.0 
-2.831466975004e-01 -2.943599235406e+01 0.0 
0.0 0.0 -1.330213281467e+01 
-1.615294143356e+01 -1.084310671180e-02 0.0 
-1.084310671180e-02 -2.936590845552e+01 0.0 
0.0 0.0 -1.325565496672e+01 
-1.598980489729e+01 -6.468153276992e-02 0.0 
-6.468153276992e-02 -2.925215101589e+01 0.0 
0.0 0.0 -1.317258677395e+01 
-1.605170669649e+01 -5.573164925881e-02 0.0 
-5.573164925881e-02 -2.927679431176e+01 0.0 
0.0 0.0 -1.319855030247e+01 
-1.587306169981e+01 -9.014245469720e-02 0.0 
-9.014245469720e-02 -2.924971830944e+01 0.0 
0.0 0.0 -1.313683400277e+01 
-1.598355494931e+01 -1.056698880314e-01 0.0 
-1.056698880314e-01 -2.930025860059e+01 0.0 
0.0 0.0 -1.318514406497e+01 
-1.577854284474e+01 -1.450029755182e-01 0.0 
-1.450029755182e-01 -2.926210899824e+01 0.0 
0.0 0.0 -1.311219555289e+01 
-1.591318201600e+01 -1.570476014560e-01 0.0 
-1.570476014560e-01 -2.932226594222e+01 0.0 
0.0 0.0 -1.317063438747e+01 
-1.567244301691e+01 -2.032827907089e-01 0.0 
-2.032827907089e-01 -2.926899093814e+01 0.0 
0.0 0.0 -1.308243018651e+01 
-1.583714546040e+01 -2.051360494968e-01 0.0 
-2.051360494968e-01 -2.933796918107e+01 0.0 
0.0 0.0 -1.315253439244e+01 
-1.554305280316e+01 -2.602873315394e-01 0.0 
-2.602873315394e-01 -2.926825275349e+01 0.0 
0.0 0.0 -1.304339166700e+01 
-1.575370283896e+01 -2.500617209314e-01 0.0 
-2.500617209314e-01 -2.935001889960e+01 0.0 
0.0 0.0 -1.313111652157e+01 
-1.538667590093e+01 -3.163261508432e-01 0.0 
-3.163261508432e-01 -2.926065027530e+01 0.0 
0.0 0.0 -1.299419785287e+01 
-1.566312013706e+01 -2.940016152304e-01 0.0 
-2.940016152304e-01 -2.936097260164e+01 0.0 
0.0 0.0 -1.310722782161e+01 
-1.520242887515e+01 -3.729476694114e-01 0.0 
-3.729476694114e-01 -2.924915686581e+01 0.0 
0.0 0.0 -1.293547572229e+01 
-1.556347345322e+01 -3.379124893121e-01 0.0 
-3.379124893121e-01 -2.937250832539e+01 0.0 
0.0 0.0 -1.308079453358e+01 
-1.498987084837e+01 -4.304998402621e-01 0.0 
-4.304998402621e-01 -2.923482985891e+01 0.0 
0.0 0.0 -1.286741021218e+01 
-1.591604589237e+01 2.505079937325e+00 0.0 
2.505079937325e+00 -3.208494301304e+01 0.0 
0.0 0.0 -1.400029667162e+01 
-1.545557735253e+01 -3.822351052860e-01 0.0 
-3.822351052860e-01 -2.938548275126e+01 0.0 
0.0 0.0 -1.305231803114e+01 
-1.474923724904e+01 -4.887665943629e-01 0.0 
-4.887665943629e-01 -2.921871481216e+01 0.0 
0.0 0.0 -1.279038561836e+01 
-1.534231823912e+01 -4.261937801108e-01 0.0 
-4.261937801108e-01 -2.940068599675e+01 0.0 
0.0 0.0 -1.302290127076e+01 
-1.240138492956e+01 1.021112680693e+00 0.0 
1.021112680693e+00 -2.549282246229e+01 0.0 
0.0 0.0 -1.096826221756e+01 
-1.448160577756e+01 -5.467516767952e-01 0.0 
-5.467516767952e-01 -2.920058299293e+01 0.0 
0.0 0.0 -1.270465663114e+01 
-1.814340118902e+01 1.215057375053e+00 0.0 
1.215057375053e+00 -3.046637797274e+01 0.0 
0.0 0.0 -1.418293374853e+01 
-1.523018347248e+01 -4.687476922496e-01 0.0 
-4.687476922496e-01 -2.941868041306e+01 0.0 
0.0 0.0 -1.299465916566e+01 
-1.418935200378e+01 -6.032786543438e-01 0.0 
-6.032786543438e-01 -2.917984976026e+01 0.0 
0.0 0.0 -1.261076052921e+01 
-1.512756854150e+01 -5.112911509181e-01 0.0 
-5.112911509181e-01 -2.944169651848e+01 0.0 
0.0 0.0 -1.297077951799e+01 
-1.387710851990e+01 -6.558019653362e-01 0.0 
-6.558019653362e-01 -2.916665212677e+01 0.0 
0.0 0.0 -1.251312819400e+01 
-1.503184066079e+01 -5.444480382414e-01 0.0 
-5.444480382414e-01 -2.946978124319e+01 0.0 
0.0 0.0 -1.295048657119e+01 
-1.355089321352e+01 -6.965371139515e-01 0.0 
-6.965371139515e-01 -2.915321645513e+01 0.0 
0.0 0.0 -1.241123290060e+01 
-1.496366212632e+01 -5.693378339839e-01 0.0 
-5.693378339839e-01 -2.950603501334e+01 0.0 
0.0 0.0 -1.294090914190e+01 
-1.322459680400e+01 -7.177674683246e-01 0.0 
-7.177674683246e-01 -2.916091174358e+01 0.0 
0.0 0.0 -1.231565256427e+01 
-2.019432925949e+01 2.900918166016e+00 0.0 
2.900918166016e+00 -3.315169842214e+01 0.0 
0.0 0.0 -1.560380830449e+01 
-1.492437992310e+01 -5.574605943697e-01 0.0 
-5.574605943697e-01 -2.954431353125e+01 0.0 
0.0 0.0 -1.294060803630e+01 
-1.291432129783e+01 -7.077406770948e-01 0.0 
-7.077406770948e-01 -2.914264458883e+01 0.0 
0.0 0.0 -1.221708976600e+01 
-1.499220702997e+01 -5.427892421154e-01 0.0 
-5.427892421154e-01 -2.960209352023e+01 0.0 
0.0 0.0 -1.297829016506e+01 
-1.265545542746e+01 -6.576826012106e-01 0.0 
-6.576826012106e-01 -2.920327656129e+01 0.0 
0.0 0.0 -1.215761959662e+01 
-1.247577609026e+01 -5.413773955642e-01 0.0 
-5.413773955642e-01 -2.916635285432e+01 0.0 
0.0 0.0 -1.209263868337e+01 
-1.509084429849e+01 -4.282865388584e-01 0.0 
-4.282865388584e-01 -2.964674388797e+01 0.0 
0.0 0.0 -1.302127645594e+01 
-1.245992114741e+01 -3.307436272042e-01 0.0 
-3.307436272042e-01 -2.941632632350e+01 0.0 
0.0 0.0 -1.216287424127e+01 
-1.547402123615e+01 -3.513214262644e-01 0.0 
-3.513214262644e-01 -2.975882982709e+01 0.0 
0.0 0.0 -1.316985531897e+01 
-1.265899228929e+01 3.213452797877e-02 0.0 
3.213452797877e-02 -2.930276729264e+01 0.0 
0.0 0.0 -1.218852787458e+01 
-1.329766043845e+01 6.620191987737e-01 0.0 
6.620191987737e-01 -3.023060701961e+01 0.0 
0.0 0.0 -1.265848023742e+01 
-1.573222144004e+01 3.446034782364e-02 0.0 
3.446034782364e-02 -2.977559522577e+01 0.0 
0.0 0.0 -1.325234499974e+01 
-1.683767290002e+01 1.983982600002e-01 0.0 
1.983982600002e-01 -3.007483802946e+01 0.0 
0.0 0.0 -1.367375327884e+01 
-1.570146419285e+01 1.501060314734e+00 0.0 
1.501060314734e+00 -2.363005423114e+01 0.0 
0.0 0.0 -1.139945552720e+01 
-1.671244284208e+01 1.434994217515e+00 0.0 
1.434994217515e+00 -2.916108017048e+01 0.0 
0.0 0.0 -1.336205690377e+01 
-1.638514031734e+01 -1.455223728447e+00 0.0 
-1.455223728447e+00 -3.108651629010e+01 0.0 
0.0 0.0 -1.384149698223e+01 
-1.440532093662e+01 1.172853705709e-01 0.0 
1.172853705709e-01 -2.498398241274e+01 0.0 
0.0 0.0 -1.141679100481e+01 
-1.861627233430e+01 -1.823458969635e-01 0.0 
-1.823458969635e-01 -3.511925887070e+01 0.0 
0.0 0.0 -1.572065936150e+01 
-1.441217983854e+01 3.142675704490e+00 0.0 
3.142675704490e+00 -2.599878198390e+01 0.0 
0.0 0.0 -1.172328854673e+01 
-2.383930827580e+01 1.928334482210e-01 0.0 
1.928334482210e-01 -4.728099279211e+01 0.0 
0.0 0.0 -2.093609032037e+01 
-2.460388885952e+01 -3.097016938256e-01 0.0 
-3.097016938256e-01 -4.892854765941e+01 0.0 
0.0 0.0 -2.165973095568e+01 
-2.453570864628e+01 -9.843368121558e-02 0.0 
-9.843368121558e-02 -4.892569861855e+01 0.0 
0.0 0.0 -2.163842217945e+01 
-2.465519851769e+01 -1.418582707863e-01 0.0 
-1.418582707863e-01 -4.902605922961e+01 0.0 
0.0 0.0 -2.170437732419e+01 
-2.448546974641e+01 -1.329334635755e-01 0.0 
-1.329334635755e-01 -4.895557476159e+01 0.0 
0.0 0.0 -2.163231335240e+01 
-2.464272713864e+01 -1.787273212591e-01 0.0 
-1.787273212591e-01 -4.904233214683e+01 0.0 
0.0 0.0 -2.170551778564e+01 
-2.440159952172e+01 -1.711943124514e-01 0.0 
-1.711943124514e-01 -4.894236260289e+01 0.0 
0.0 0.0 -2.160318863738e+01 
-2.462010186558e+01 -2.339051542838e-01 0.0 
-2.339051542838e-01 -4.906329501690e+01 0.0 
0.0 0.0 -2.170501906474e+01 
-2.432180669202e+01 -2.209482808958e-01 0.0 
-2.209482808958e-01 -4.894239018628e+01 0.0 
0.0 0.0 -2.157925906349e+01 
-2.459564211231e+01 -2.954331131506e-01 0.0 
-2.954331131506e-01 -4.908346013909e+01 0.0 
0.0 0.0 -2.170373067542e+01 
-2.423950778692e+01 -2.750081767273e-01 0.0 
-2.750081767273e-01 -4.894348127629e+01 0.0 
0.0 0.0 -2.155489671896e+01 
-2.456933419559e+01 -3.591127212612e-01 0.0 
-3.591127212612e-01 -4.909956941433e+01 0.0 
0.0 0.0 -2.170067108298e+01 
-2.414986461420e+01 -3.289234535840e-01 0.0 
-3.289234535840e-01 -4.894106304183e+01 0.0 
0.0 0.0 -2.152727829681e+01 
-2.454810436610e+01 -4.228910088173e-01 0.0 
-4.228910088173e-01 -4.911164741811e+01 0.0 
0.0 0.0 -2.169792553526e+01 
-2.405013167211e+01 -3.832044267959e-01 0.0 
-3.832044267959e-01 -4.893066618341e+01 0.0 
0.0 0.0 -2.149423935665e+01 
-2.453327118488e+01 -4.896360124340e-01 0.0 
-4.896360124340e-01 -4.912309727642e+01 0.0 
0.0 0.0 -2.169691053839e+01 
-2.393986988896e+01 -4.372042451409e-01 0.0 
-4.372042451409e-01 -4.891743334210e+01 0.0 
0.0 0.0 -2.145719096932e+01 
-2.623498776390e+01 2.149293343901e+00 0.0 
2.149293343901e+00 -5.181066298085e+01 0.0 
0.0 0.0 -2.301369522342e+01 
-2.452046218183e+01 -5.564613264642e-01 0.0 
-5.564613264642e-01 -4.913422765982e+01 0.0 
0.0 0.0 -2.169640695250e+01 
-2.382086141067e+01 -4.893710042790e-01 0.0 
-4.893710042790e-01 -4.890447888692e+01 0.0 
0.0 0.0 -2.141760208928e+01 
-2.790233541341e+01 8.377877191420e-01 0.0 
8.377877191420e-01 -5.033530765538e+01 0.0 
0.0 0.0 -2.307129292064e+01 
-2.451124378918e+01 -6.207964202286e-01 0.0 
-6.207964202286e-01 -4.914641269635e+01 0.0 
0.0 0.0 -2.169729694566e+01 
-2.369725566620e+01 -5.365188531378e-01 0.0 
-5.365188531378e-01 -4.889553999327e+01 0.0 
0.0 0.0 -2.137783869784e+01 
-2.451552581064e+01 -6.780678204836e-01 0.0 
-6.780678204836e-01 -4.916004885833e+01 0.0 
0.0 0.0 -2.170267240069e+01 
-2.357443316245e+01 -5.764421172367e-01 0.0 
-5.764421172367e-01 -4.888859635634e+01 0.0 
0.0 0.0 -2.133890885564e+01 
-2.454380837036e+01 -7.258493094409e-01 0.0 
-7.258493094409e-01 -4.917443862258e+01 0.0 
0.0 0.0 -2.171547409788e+01 
-2.336872781823e+01 9.232952884904e-01 0.0 
9.232952884904e-01 -4.531396617195e+01 0.0 
0.0 0.0 -2.020480819706e+01 
-2.345828983708e+01 -6.091754183313e-01 0.0 
-6.091754183313e-01 -4.888004620818e+01 0.0 
0.0 0.0 -2.130150081358e+01 
-2.461322014683e+01 -7.704770329072e-01 0.0 
-7.704770329072e-01 -4.920386875312e+01 0.0 
0.0 0.0 -2.174512666999e+01 
-2.335770560277e+01 -6.245386416709e-01 0.0 
-6.245386416709e-01 -4.889679944115e+01 0.0 
0.0 0.0 -2.127635151318e+01 
-2.468118799567e+01 -7.826782113179e-01 0.0 
-7.826782113179e-01 -4.923283269608e+01 0.0 
0.0 0.0 -2.177420620753e+01 
-2.328851984291e+01 -6.105044543948e-01 0.0 
-6.105044543948e-01 -4.893070301871e+01 0.0 
0.0 0.0 -2.126576685848e+01 
-2.484181618391e+01 -7.683906398469e-01 0.0 
-7.683906398469e-01 -4.929663902775e+01 0.0 
0.0 0.0 -2.184153656350e+01 
-2.327221275810e+01 -5.440448030876e-01 0.0 
-5.440448030876e-01 -4.902259014624e+01 0.0 
0.0 0.0 -2.128844087130e+01 
-2.497220117905e+01 -6.527657974417e-01 0.0 
-6.527657974417e-01 -4.932240061010e+01 0.0 
0.0 0.0 -2.188838053674e+01 
-2.333573253522e+01 -4.249871157259e-01 0.0 
-4.249871157259e-01 -4.907031969915e+01 0.0 
0.0 0.0 -2.132181567031e+01 
-2.542416628784e+01 -5.479475818015e-01 0.0 
-5.479475818015e-01 -4.946867560866e+01 0.0 
0.0 0.0 -2.206785256895e+01 
-2.966845669642e+01 2.078657673103e+00 0.0 
2.078657673103e+00 -5.303350222722e+01 0.0 
0.0 0.0 -2.441058767709e+01 
-2.561382560679e+01 -1.688926731649e-01 0.0 
-1.688926731649e-01 -4.946367479262e+01 0.0 
0.0 0.0 -2.212325011982e+01 
-2.352326495283e+01 -2.018658529211e-01 0.0 
-2.018658529211e-01 -4.932239208143e+01 0.0 
0.0 0.0 -2.145369711028e+01 
-2.672261989739e+01 7.854508083267e-03 0.0 
7.854508083267e-03 -4.986683293775e+01 0.0 
0.0 0.0 -2.257683585054e+01 
-2.385892895041e+01 1.047098600322e-01 0.0 
1.047098600322e-01 -4.932361449370e+01 0.0 
0.0 0.0 -2.155476303323e+01 
-2.446202328625e+01 6.496379544177e-01 0.0 
6.496379544177e-01 -5.014513286693e+01 0.0 
0.0 0.0 -2.198214684596e+01 
-2.552543370128e+01 1.204811424170e+00 0.0 
1.204811424170e+00 -4.385228345536e+01 0.0 
0.0 0.0 -2.041331514699e+01 
-2.416954677753e+01 1.440319349441e+00 0.0 
1.440319349441e+00 -4.949524076255e+01 0.0 
0.0 0.0 -2.169943626203e+01 
-2.451527421190e+01 -1.470985016536e+00 0.0 
-1.470985016536e+00 -4.746706795008e+01 0.0 
0.0 0.0 -2.119470264859e+01 
-2.655318735301e+01 1.213617883385e-01 0.0 
1.213617883385e-01 -5.360970662560e+01 0.0 
0.0 0.0 -2.364886819358e+01 
-2.220667984364e+01 -1.966629933764e-01 0.0 
-1.966629933764e-01 -4.349687639250e+01 0.0 
0.0 0.0 -1.931106687084e+01 
-2.447963398550e+01 2.357843356482e+00 0.0 
2.357843356482e+00 -4.525092116453e+01 0.0 
0.0 0.0 -2.051916654501e+01 
-3.382491255216e+01 2.147969813467e-01 0.0 
2.147969813467e-01 -7.035712492596e+01 0.0 
0.0 0.0 -3.085461124344e+01 
-3.302187326308e+01 -3.290515433588e-01 0.0 
-3.290515433588e-01 -6.857051126771e+01 0.0 
0.0 0.0 -3.007771535924e+01 
-3.310797237720e+01 -9.375582454936e-02 0.0 
-9.375582454936e-02 -6.857358525973e+01 0.0 
0.0 0.0 -3.010446729108e+01 
-3.295625824574e+01 -1.610174902029e-01 0.0 
-1.610174902029e-01 -6.839519859505e+01 0.0 
0.0 0.0 -3.000543705224e+01 
-3.309144134302e+01 -1.554588429765e-01 0.0 
-1.554588429765e-01 -6.845131795229e+01 0.0 
0.0 0.0 -3.006282778859e+01 
-3.292636993875e+01 -2.003789201175e-01 0.0 
-2.003789201175e-01 -6.837083201376e+01 0.0 
0.0 0.0 -2.998916058575e+01 
-3.309932041195e+01 -2.058267404601e-01 0.0 
-2.058267404601e-01 -6.844509894736e+01 0.0 
0.0 0.0 -3.006332580779e+01 
-3.289213545702e+01 -2.553651204087e-01 0.0 
-2.553651204087e-01 -6.836470673027e+01 0.0 
0.0 0.0 -2.997705265619e+01 
-3.312115256129e+01 -2.569977689749e-01 0.0 
-2.569977689749e-01 -6.846050310794e+01 0.0 
0.0 0.0 -3.007449670077e+01 
-3.285825363579e+01 -3.165650777670e-01 0.0 
-3.165650777670e-01 -6.836288702720e+01 0.0 
0.0 0.0 -2.996634219890e+01 
-3.314760242696e+01 -3.113311795943e-01 0.0 
-3.113311795943e-01 -6.847926239604e+01 0.0 
0.0 0.0 -3.008805944690e+01 
-3.282600668627e+01 -3.800133452537e-01 0.0 
-3.800133452537e-01 -6.836513855926e+01 0.0 
0.0 0.0 -2.995734357366e+01 
-3.317946141978e+01 -3.591878547931e-01 0.0 
-3.591878547931e-01 -6.849711404110e+01 0.0 
0.0 0.0 -3.010297263827e+01 
-3.279534738261e+01 -4.397715213139e-01 0.0 
-4.397715213139e-01 -6.835521445664e+01 0.0 
0.0 0.0 -2.994516855178e+01 
-3.323056868700e+01 -4.071885655326e-01 0.0 
-4.071885655326e-01 -6.850833511434e+01 0.0 
0.0 0.0 -3.012167114040e+01 
-3.276895940269e+01 -4.996092673505e-01 0.0 
-4.996092673505e-01 -6.833970311798e+01 0.0 
0.0 0.0 -2.993259875620e+01 
-3.554429707913e+01 1.712982942783e+00 0.0 
1.712982942783e+00 -7.134544430679e+01 0.0 
0.0 0.0 -3.166692241578e+01 
-3.330630006239e+01 -4.592072217883e-01 0.0 
-4.592072217883e-01 -6.852074430489e+01 0.0 
0.0 0.0 -3.014811331018e+01 
-3.274941200164e+01 -5.597580057595e-01 0.0 
-5.597580057595e-01 -6.833511057271e+01 0.0 
0.0 0.0 -2.992535677231e+01 
-3.311548301397e+01 7.491102714420e-01 0.0 
7.491102714420e-01 -6.478351354310e+01 0.0 
0.0 0.0 -2.896969896712e+01 
-3.337698250351e+01 -5.087775373458e-01 0.0 
-5.087775373458e-01 -6.853375234438e+01 0.0 
0.0 0.0 -3.017322045437e+01 
-3.273743544696e+01 -6.108859601964e-01 0.0 
-6.108859601964e-01 -6.834085989782e+01 0.0 
0.0 0.0 -2.992348860343e+01 
-3.695440442684e+01 6.277422378011e-01 0.0 
6.277422378011e-01 -6.989108064834e+01 0.0 
0.0 0.0 -3.165364552255e+01 
-3.347118356100e+01 -5.437411029188e-01 0.0 
-5.437411029188e-01 -6.855398452196e+01 0.0 
0.0 0.0 -3.020755042489e+01 
-3.274031830508e+01 -6.462766120087e-01 0.0 
-6.462766120087e-01 -6.835123134537e+01 0.0 
0.0 0.0 -2.992746489514e+01 
-3.360460504632e+01 -5.607708339759e-01 0.0 
-5.607708339759e-01 -6.857936283262e+01 0.0 
0.0 0.0 -3.025519036368e+01 
-3.276781215770e+01 -6.624647769885e-01 0.0 
-6.624647769885e-01 -6.836378079305e+01 0.0 
0.0 0.0 -2.993947788523e+01 
-3.377244571301e+01 -5.590911636624e-01 0.0 
-5.590911636624e-01 -6.860306574509e+01 0.0 
0.0 0.0 -3.031265343743e+01 
-3.282636982992e+01 -6.597040274643e-01 0.0 
-6.597040274643e-01 -6.836788468033e+01 0.0 
0.0 0.0 -2.995827635307e+01 
-3.842788354312e+01 1.497648862995e+00 0.0 
1.497648862995e+00 -7.253145090329e+01 0.0 
0.0 0.0 -3.288780033392e+01 
-3.402128308956e+01 -5.731508586648e-01 0.0 
-5.731508586648e-01 -6.866252915494e+01 0.0 
0.0 0.0 -3.040514367335e+01 
-3.293800048620e+01 -6.265031553695e-01 0.0 
-6.265031553695e-01 -6.849872850731e+01 0.0 
0.0 0.0 -3.003101869805e+01 
-3.421453818598e+01 -4.841395276251e-01 0.0 
-4.841395276251e-01 -6.872756181373e+01 0.0 
0.0 0.0 -3.048262999991e+01 
-3.309634719869e+01 -5.234514278121e-01 0.0 
-5.234514278121e-01 -6.855721139558e+01 0.0 
0.0 0.0 -3.009606757828e+01 
-3.336997466227e+01 -3.306742977058e-01 0.0 
-3.306742977058e-01 -6.891720540429e+01 0.0 
0.0 0.0 -3.028615401997e+01 
-3.461109146952e+01 -4.266273993728e-01 0.0 
-4.266273993728e-01 -6.887517565973e+01 0.0 
0.0 0.0 -3.064588013877e+01 
-3.370895061000e+01 -3.165751826994e-02 0.0 
-3.165751826994e-02 -6.879983902705e+01 0.0 
0.0 0.0 -3.035263689112e+01 
-3.480233432472e+01 -4.755296329282e-02 0.0 
-4.755296329282e-02 -6.892951670166e+01 0.0 
0.0 0.0 -3.071955530791e+01 
-3.427408360523e+01 3.734500503110e-01 0.0 
3.734500503110e-01 -6.967094345565e+01 0.0 
0.0 0.0 -3.078350811826e+01 
-3.591426416935e+01 -6.108325465276e-03 0.0 
-6.108325465276e-03 -6.930980632823e+01 0.0 
0.0 0.0 -3.116722114927e+01 
-3.456667924777e+01 1.110534123558e+00 0.0 
1.110534123558e+00 -6.354675294916e+01 0.0 
0.0 0.0 -2.903402965908e+01 
-3.345087807044e+01 1.451101744522e+00 0.0 
1.451101744522e+00 -6.821462015589e+01 0.0 
0.0 0.0 -3.009964946790e+01 
-3.311523611978e+01 -1.472501860269e+00 0.0 
-1.472501860269e+00 -7.017389369725e+01 0.0 
0.0 0.0 -3.058673894511e+01 
-3.103465442840e+01 1.158780976110e-01 0.0 
1.158780976110e-01 -6.406646313484e+01 0.0 
0.0 0.0 -2.813033526897e+01 
-3.544780887767e+01 -1.876423657010e-01 0.0 
-1.876423657010e-01 -7.415898685910e+01 0.0 
0.0 0.0 -3.248203872103e+01 
-3.405492610901e+01 1.889878055024e+00 0.0 
1.889878055024e+00 -6.469135261176e+01 0.0 
0.0 0.0 -2.922388361623e+01 
-4.070318670414e+01 2.312918623891e-01 0.0 
2.312918623891e-01 -8.640643128059e+01 0.0 
0.0 0.0 -3.773288539542e+01 
-4.148714500127e+01 -2.818509743737e-01 0.0 
-2.818509743737e-01 -8.807187851362e+01 0.0 
0.0 0.0 -3.846770705447e+01 
-4.147389888943e+01 -8.709737123430e-02 0.0 
-8.709737123430e-02 -8.809408045493e+01 0.0 
0.0 0.0 -3.847039380331e+01 
-4.161282754495e+01 -1.272615420699e-01 0.0 
-1.272615420699e-01 -8.816800738251e+01 0.0 
0.0 0.0 -3.853425047824e+01 
-4.152213158442e+01 -1.581112985251e-01 0.0 
-1.581112985251e-01 -8.812292851556e+01 0.0 
0.0 0.0 -3.849351802999e+01 
-4.164385722192e+01 -1.888724750720e-01 0.0 
-1.888724750720e-01 -8.817297090631e+01 0.0 
0.0 0.0 -3.854504843847e+01 
-4.153316389504e+01 -1.971366048342e-01 0.0 
-1.971366048342e-01 -8.812406707456e+01 0.0 
0.0 0.0 -3.849716929088e+01 
-4.171581803328e+01 -2.379515175288e-01 0.0 
-2.379515175288e-01 -8.818430603583e+01 0.0 
0.0 0.0 -3.857003722073e+01 
-4.154286211377e+01 -2.414121788339e-01 0.0 
-2.414121788339e-01 -8.811115873040e+01 0.0 
0.0 0.0 -3.849620625325e+01 
-4.177864609340e+01 -2.943426300575e-01 0.0 
-2.943426300575e-01 -8.819697189805e+01 0.0 
0.0 0.0 -3.859268539744e+01 
-4.156140461762e+01 -2.860927274319e-01 0.0 
-2.860927274319e-01 -8.811146750757e+01 0.0 
0.0 0.0 -3.850186163756e+01 
-4.186115567049e+01 -3.505157501502e-01 0.0 
-3.505157501502e-01 -8.821919101412e+01 0.0 
0.0 0.0 -3.862410400538e+01 
-4.159074063461e+01 -3.242982961761e-01 0.0 
-3.242982961761e-01 -8.812343220904e+01 0.0 
0.0 0.0 -3.851425185310e+01 
-4.192698876210e+01 -3.869680241296e-01 0.0 
-3.869680241296e-01 -8.822285512607e+01 0.0 
0.0 0.0 -3.864495316645e+01 
-4.163865101927e+01 -3.554356856303e-01 0.0 
-3.554356856303e-01 -8.812719388966e+01 0.0 
0.0 0.0 -3.852975347268e+01 
-4.455391079590e+01 1.544566929856e+00 0.0 
1.544566929856e+00 -9.083855635060e+01 0.0 
0.0 0.0 -4.021774014395e+01 
-4.208090538870e+01 -4.231410402239e-01 0.0 
-4.231410402239e-01 -8.822661298597e+01 0.0 
0.0 0.0 -3.869225551240e+01 
-4.570109572278e+01 4.581779680606e-01 0.0 
4.581779680606e-01 -8.959302166016e+01 0.0 
0.0 0.0 -4.018823521488e+01 
-4.169416487426e+01 -3.999719854310e-01 0.0 
-3.999719854310e-01 -8.809242886594e+01 0.0 
0.0 0.0 -3.853597812206e+01 
-4.220737136708e+01 -4.846682516823e-01 0.0 
-4.846682516823e-01 -8.824100541308e+01 0.0 
0.0 0.0 -3.873451303405e+01 
-4.177016041332e+01 -4.284185057367e-01 0.0 
-4.284185057367e-01 -8.811783413392e+01 0.0 
0.0 0.0 -3.856639836417e+01 
-4.234390388814e+01 -5.114235682559e-01 0.0 
-5.114235682559e-01 -8.826789271330e+01 0.0 
0.0 0.0 -3.878353898043e+01 
-4.187491233351e+01 -4.303113488668e-01 0.0 
-4.303113488668e-01 -8.816268499115e+01 0.0 
0.0 0.0 -3.861127919740e+01 
-4.255326699222e+01 -5.068106076069e-01 0.0 
-5.068106076069e-01 -8.830360671249e+01 0.0 
0.0 0.0 -3.885706211141e+01 
-4.236169246624e+01 6.109692652964e-01 0.0 
6.109692652964e-01 -8.435380568763e+01 0.0 
0.0 0.0 -3.761464944616e+01 
-4.201223107587e+01 -4.125026252293e-01 0.0 
-4.125026252293e-01 -8.819715690157e+01 0.0 
0.0 0.0 -3.866281639323e+01 
-4.279201785169e+01 -4.833187994664e-01 0.0 
-4.833187994664e-01 -8.834065562234e+01 0.0 
0.0 0.0 -3.893980204221e+01 
-4.219364921860e+01 -3.658105955543e-01 0.0 
-3.658105955543e-01 -8.825254059144e+01 0.0 
0.0 0.0 -3.873385694301e+01 
-4.303956814002e+01 -4.097820290388e-01 0.0 
-4.097820290388e-01 -8.835852928561e+01 0.0 
0.0 0.0 -3.901942922769e+01 
-4.242234886782e+01 -3.094727103460e-01 0.0 
-3.094727103460e-01 -8.826501597089e+01 0.0 
0.0 0.0 -3.880620945161e+01 
-4.353536913509e+01 -4.159090082668e-01 0.0 
-4.159090082668e-01 -8.854402504025e+01 0.0 
0.0 0.0 -3.922381825260e+01 
-4.272035398116e+01 -1.701750097201e-01 0.0 
-1.701750097201e-01 -8.857446533581e+01 0.0 
0.0 0.0 -3.898844579509e+01 
-4.361376414032e+01 -1.420136086395e-01 0.0 
-1.420136086395e-01 -8.858982007623e+01 0.0 
0.0 0.0 -3.926107526496e+01 
-4.472278607738e+01 -8.386524951370e-02 0.0 
-8.386524951370e-02 -8.907306634318e+01 0.0 
0.0 0.0 -3.973875572617e+01 
-4.308903329653e+01 3.608231458325e-02 0.0 
3.608231458325e-02 -8.865703992275e+01 0.0 
0.0 0.0 -3.912382196578e+01 
-4.716394114221e+01 1.109952217110e+00 0.0 
1.109952217110e+00 -9.214362259042e+01 0.0 
0.0 0.0 -4.139226911979e+01 
-4.357386237308e+01 3.964088512310e-01 0.0 
3.964088512310e-01 -8.939641548116e+01 0.0 
0.0 0.0 -3.949108335627e+01 
-4.342465805486e+01 8.508241997895e-01 0.0 
8.508241997895e-01 -8.328682433993e+01 0.0 
0.0 0.0 -3.761344471844e+01 
-4.103579163414e+01 1.458993227321e+00 0.0 
1.458993227321e+00 -8.854982861992e+01 0.0 
0.0 0.0 -3.847568607622e+01 
-4.137410146846e+01 -1.457450899298e+00 0.0 
-1.457450899298e+00 -8.657296698266e+01 0.0 
0.0 0.0 -3.798412053533e+01 
-4.343203623756e+01 1.285264922938e-01 0.0 
1.285264922938e-01 -9.269322472308e+01 0.0 
0.0 0.0 -4.043757828819e+01 
-3.906268030075e+01 -1.777918662002e-01 0.0 
-1.777918662002e-01 -8.259368684628e+01 0.0 
0.0 0.0 -3.609691014411e+01 
-4.302265461385e+01 1.463811678877e+00 0.0 
1.463811678877e+00 -8.405033108468e+01 0.0 
0.0 0.0 -3.772189570956e+01 
-5.057764419093e+01 2.887146330758e-01 0.0 
2.887146330758e-01 -1.094964112149e+02 0.0 
0.0 0.0 -4.762221662174e+01 
-4.989178815489e+01 -2.463237257013e-01 0.0 
-2.463237257013e-01 -1.076827125387e+02 0.0 
0.0 0.0 -4.687235020809e+01 
-5.005772569340e+01 9.230193243745e-04 0.0 
9.230193243745e-04 -1.077117434248e+02 0.0 
0.0 0.0 -4.693084073546e+01 
-4.989017288678e+01 -8.179810218262e-02 0.0 
-8.179810218262e-02 -1.074818131801e+02 0.0 
0.0 0.0 -4.681159582007e+01 
-5.006197241951e+01 -1.215297854656e-01 0.0 
-1.215297854656e-01 -1.075643959505e+02 0.0 
0.0 0.0 -4.688791051099e+01 
-4.994003342366e+01 -1.473600250820e-01 0.0 
-1.473600250820e-01 -1.075307153770e+02 0.0 
0.0 0.0 -4.684122464021e+01 
-5.010054253122e+01 -1.246855188122e-01 0.0 
-1.246855188122e-01 -1.075900134760e+02 0.0 
0.0 0.0 -4.690716680217e+01 
-4.998380231330e+01 -1.711274859528e-01 0.0 
-1.711274859528e-01 -1.074762693559e+02 0.0 
0.0 0.0 -4.683802150076e+01 
-5.026923310801e+01 -1.749327396474e-01 0.0 
-1.749327396474e-01 -1.075951244725e+02 0.0 
0.0 0.0 -4.695930727414e+01 
-5.005321381646e+01 -2.252326893280e-01 0.0 
-2.252326893280e-01 -1.075042965852e+02 0.0 
0.0 0.0 -4.686725312050e+01 
-5.033684076279e+01 -2.049982361163e-01 0.0 
-2.049982361163e-01 -1.076082028591e+02 0.0 
0.0 0.0 -4.698351308655e+01 
-5.012326658850e+01 -2.596382390618e-01 0.0 
-2.596382390618e-01 -1.074974498228e+02 0.0 
0.0 0.0 -4.688621492340e+01 
-5.051678584310e+01 -2.500242011580e-01 0.0 
-2.500242011580e-01 -1.076464724598e+02 0.0 
0.0 0.0 -4.704897749086e+01 
-5.318044511480e+01 1.383049666921e+00 0.0 
1.383049666921e+00 -1.102823244092e+02 0.0 
0.0 0.0 -4.863883085721e+01 
-5.022202012932e+01 -2.946076598009e-01 0.0 
-2.946076598009e-01 -1.075779283162e+02 0.0 
0.0 0.0 -4.693998453367e+01 
-5.061743718526e+01 -1.988707636165e-01 0.0 
-1.988707636165e-01 -1.076631625940e+02 0.0 
0.0 0.0 -4.708417993378e+01 
-5.102118208660e+01 5.470127996953e-01 0.0 
5.470127996953e-01 -1.037693236981e+02 0.0 
0.0 0.0 -4.603715173540e+01 
-5.032494681342e+01 -2.877828083065e-01 0.0 
-2.877828083065e-01 -1.074627096436e+02 0.0 
0.0 0.0 -4.693629693712e+01 
-5.083812828330e+01 -2.674843226080e-01 0.0 
-2.674843226080e-01 -1.076365550650e+02 0.0 
0.0 0.0 -4.714240500448e+01 
-5.406151633546e+01 4.508587598966e-01 0.0 
4.508587598966e-01 -1.089670332021e+02 0.0 
0.0 0.0 -4.850856486127e+01 
-5.047083822964e+01 -3.246813596258e-01 0.0 
-3.246813596258e-01 -1.075224280924e+02 0.0 
0.0 0.0 -4.699797989661e+01 
-5.100330300499e+01 -2.904108111921e-01 0.0 
-2.904108111921e-01 -1.076816712609e+02 0.0 
0.0 0.0 -4.720549227978e+01 
-5.064266089387e+01 -3.166307768934e-01 0.0 
-3.166307768934e-01 -1.076316590600e+02 0.0 
0.0 0.0 -4.708229598616e+01 
-5.124336516018e+01 -2.262740444761e-01 0.0 
-2.262740444761e-01 -1.077479195755e+02 0.0 
0.0 0.0 -4.729738542070e+01 
-5.084904083080e+01 -2.630054699443e-01 0.0 
-2.630054699443e-01 -1.076604123359e+02 0.0 
0.0 0.0 -4.715283595000e+01 
-5.565049946993e+01 9.510437964107e-01 0.0 
9.510437964107e-01 -1.115380343728e+02 0.0 
0.0 0.0 -4.975656015283e+01 
-5.157582307193e+01 -1.783138145729e-01 0.0 
-1.783138145729e-01 -1.078035977674e+02 0.0 
0.0 0.0 -4.741382625181e+01 
-5.110626329707e+01 -1.956659943291e-01 0.0 
-1.956659943291e-01 -1.077405616615e+02 0.0 
0.0 0.0 -4.725404748759e+01 
-5.142604775978e+01 -6.629175176914e-02 0.0 
-6.629175176914e-02 -1.079269817317e+02 0.0 
0.0 0.0 -4.740590884745e+01 
-5.186885656576e+01 -1.142042998379e-01 0.0 
-1.142042998379e-01 -1.078753545739e+02 0.0 
0.0 0.0 -4.752326334190e+01 
-5.176460755058e+01 7.519904881279e-02 0.0 
7.519904881279e-02 -1.077455813431e+02 0.0 
0.0 0.0 -4.745305666810e+01 
-5.205298802993e+01 1.196385750932e-01 0.0 
1.196385750932e-01 -1.078662154864e+02 0.0 
0.0 0.0 -4.757576105490e+01 
-5.227226088322e+01 2.924010200716e-01 0.0 
2.924010200716e-01 -1.087929791430e+02 0.0 
0.0 0.0 -4.791957200787e+01 
-5.306451296588e+01 -7.855478293218e-02 0.0 
-7.855478293218e-02 -1.082887942371e+02 0.0 
0.0 0.0 -4.800599216090e+01 
-5.201606541715e+01 8.198302093108e-01 0.0 
8.198302093108e-01 -1.028519078010e+02 0.0 
0.0 0.0 -4.606039196544e+01 
-5.036736685602e+01 1.420302916494e+00 0.0 
1.420302916494e+00 -1.072095258688e+02 0.0 
0.0 0.0 -4.687306781744e+01 
-4.999102947305e+01 -1.502916940433e+00 0.0 
-1.502916940433e+00 -1.093960324203e+02 0.0 
0.0 0.0 -4.741611856800e+01 
-4.792024886600e+01 9.770334276925e-02 0.0 
9.770334276925e-02 -1.031657208561e+02 0.0 
0.0 0.0 -4.492579091663e+01 
-5.233575624383e+01 -2.415345584061e-01 0.0 
-2.415345584061e-01 -1.132433030774e+02 0.0 
0.0 0.0 -4.927371779636e+01 
-5.161113908812e+01 1.202455403536e+00 0.0 
1.202455403536e+00 -1.033831228459e+02 0.0 
0.0 0.0 -4.609827858022e+01 
-5.763585698229e+01 4.275268662800e-01 0.0 
4.275268662800e-01 -1.259655743947e+02 0.0 
0.0 0.0 -5.468042941310e+01 
-5.850915583880e+01 -9.008103657324e-03 0.0 
-9.008103657324e-03 -1.272141391710e+02 0.0 
0.0 0.0 -5.531698850294e+01 
-5.839582703766e+01 -5.540908692477e-04 0.0 
-5.540908692477e-04 -1.271673132281e+02 0.0 
0.0 0.0 -5.526894207973e+01 
-5.835607202124e+01 -8.499536990908e-03 0.0 
-8.499536990908e-03 -1.272243398364e+02 0.0 
0.0 0.0 -5.527412355730e+01 
-5.850829883013e+01 -7.222203094267e-02 0.0 
-7.222203094267e-02 -1.272724909086e+02 0.0 
0.0 0.0 -5.533423692161e+01 
-5.851334442520e+01 -1.003897484885e-01 0.0 
-1.003897484885e-01 -1.273764101060e+02 0.0 
0.0 0.0 -5.536692635937e+01 
-5.860892688880e+01 -2.165706622951e-02 0.0 
-2.165706622951e-02 -1.274429103103e+02 0.0 
0.0 0.0 -5.541555115974e+01 
-5.873492908377e+01 1.941399705242e-03 0.0 
1.941399705242e-03 -1.273046159921e+02 0.0 
0.0 0.0 -5.541186352277e+01 
-5.869058442892e+01 -9.581202349594e-02 0.0 
-9.581202349594e-02 -1.272449442213e+02 0.0 
0.0 0.0 -5.538065859505e+01 
-5.880788002870e+01 -1.425156866471e-01 0.0 
-1.425156866471e-01 -1.273585854468e+02 0.0 
0.0 0.0 -5.544993964266e+01 
-5.881639944854e+01 -8.024307844571e-02 0.0 
-8.024307844571e-02 -1.273938397925e+02 0.0 
0.0 0.0 -5.546307177230e+01 
-5.893554382084e+01 -7.698746564825e-02 0.0 
-7.698746564825e-02 -1.273507281752e+02 0.0 
0.0 0.0 -5.548588159881e+01 
-6.154151167594e+01 1.456666872510e+00 0.0 
1.456666872510e+00 -1.297832832495e+02 0.0 
0.0 0.0 -5.699743847762e+01 
-5.896217021281e+01 -9.172875988609e-02 0.0 
-9.172875988609e-02 -1.273523693224e+02 0.0 
0.0 0.0 -5.549436186056e+01 
-6.163701722103e+01 3.943653406443e-01 0.0 
3.943653406443e-01 -1.283467612558e+02 0.0 
0.0 0.0 -5.659513354306e+01 
-5.945839403252e+01 -1.815194301768e-01 0.0 
-1.815194301768e-01 -1.275107255464e+02 0.0 
0.0 0.0 -5.569073587366e+01 
-5.909297429203e+01 -8.221410636680e-02 0.0 
-8.221410636680e-02 -1.274394158432e+02 0.0 
0.0 0.0 -5.555971704056e+01 
-5.920697733571e+01 -4.412797941223e-02 0.0 
-4.412797941223e-02 -1.273186397583e+02 0.0 
0.0 0.0 -5.555768512821e+01 
-5.926617388102e+01 -9.353574268840e-02 0.0 
-9.353574268840e-02 -1.273019947930e+02 0.0 
0.0 0.0 -5.557045060220e+01 
-5.949120270345e+01 -1.435208090296e-01 0.0 
-1.435208090296e-01 -1.274102348977e+02 0.0 
0.0 0.0 -5.567043128036e+01 
-5.949927263121e+01 -3.752811100279e-02 0.0 
-3.752811100279e-02 -1.275056003888e+02 0.0 
0.0 0.0 -5.570146190600e+01 
-5.991147727155e+01 -6.756716232296e-02 0.0 
-6.756716232296e-02 -1.275629320831e+02 0.0 
0.0 0.0 -5.584232280640e+01 
-5.951013838626e+01 5.786418209232e-01 0.0 
5.786418209232e-01 -1.233285868847e+02 0.0 
0.0 0.0 -5.445161758128e+01 
-5.976633244374e+01 5.759672850758e-02 0.0 
5.759672850758e-02 -1.276348432371e+02 0.0 
0.0 0.0 -5.582035270426e+01 
-6.023754718459e+01 7.755159438490e-02 0.0 
7.755159438490e-02 -1.275955619698e+02 0.0 
0.0 0.0 -5.594993274632e+01 
-6.006032583714e+01 1.358683609148e-01 0.0 
1.358683609148e-01 -1.276007708863e+02 0.0 
0.0 0.0 -5.589832901702e+01 
-6.067152040948e+01 1.089453214398e-01 0.0 
1.089453214398e-01 -1.276919699017e+02 0.0 
0.0 0.0 -5.610904709335e+01 
-6.113582919691e+01 1.720288554649e-01 0.0 
1.720288554649e-01 -1.279171082516e+02 0.0 
0.0 0.0 -5.631588123455e+01 
-6.038222269614e+01 2.248287579033e-01 0.0 
2.248287579033e-01 -1.277398755448e+02 0.0 
0.0 0.0 -5.603662947228e+01 
-6.074418667199e+01 4.384235521816e-01 0.0 
4.384235521816e-01 -1.281456789845e+02 0.0 
0.0 0.0 -5.626695969696e+01 
-6.393020570271e+01 8.976062875669e-01 0.0 
8.976062875669e-01 -1.311374691947e+02 0.0 
0.0 0.0 -5.812030246922e+01 
-6.031946703100e+01 7.747658450246e-01 0.0 
7.747658450246e-01 -1.224370257895e+02 0.0 
0.0 0.0 -5.442694784615e+01 
-5.779041657615e+01 1.291515728851e+00 0.0 
1.291515728851e+00 -1.272584454614e+02 0.0 
0.0 0.0 -5.511465861125e+01 
-5.801122838874e+01 -1.580348327780e+00 0.0 
-1.580348327780e+00 -1.259573910972e+02 0.0 
0.0 0.0 -5.479058584579e+01 
-5.996709389243e+01 -8.175720708555e-02 0.0 
-8.175720708555e-02 -1.317708082456e+02 0.0 
0.0 0.0 -5.712137064140e+01 
-5.592906099218e+01 -2.638484346081e-01 0.0 
-2.638484346081e-01 -1.216276808235e+02 0.0 
0.0 0.0 -5.286702254471e+01 
-6.003247985327e+01 1.164159636000e+00 0.0 
1.164159636000e+00 -1.228992814104e+02 0.0 
0.0 0.0 -5.447952837909e+01 

TENSORS element_materi_strain_total float
-4.198187600007e-04 4.337900679501e-04 0.0 
4.337900679501e-04 5.277135452637e-03 0.0 
0.0 0.0 0.0 
-5.445853551729e-04 4.797213016015e-04 0.0 
4.797213016015e-04 5.322627424094e-03 0.0 
0.0 0.0 0.0 
-1.014073426774e-04 6.396491667398e-04 0.0 
6.396491667398e-04 1.037027680896e-02 0.0 
0.0 0.0 0.0 
-8.355109161851e-05 3.497661942173e-05 0.0 
3.497661942173e-05 1.062591329192e-02 0.0 
0.0 0.0 0.0 
-3.124091667497e-04 7.235733160617e-05 0.0 
7.235733160617e-05 7.836255723982e-03 0.0 
0.0 0.0 0.0 
2.642454772972e-05 4.483568346441e-04 0.0 
4.483568346441e-04 1.099540586244e-03 0.0 
0.0 0.0 0.0 
-2.830145197286e-04 6.666708730726e-05 0.0 
6.666708730726e-05 7.835603510049e-03 0.0 
0.0 0.0 0.0 
-4.748519671407e-04 6.458229599485e-04 0.0 
6.458229599485e-04 5.050549337101e-03 0.0 
0.0 0.0 0.0 
-3.103359499046e-04 -1.384774798337e-05 0.0 
-1.384774798337e-05 7.844270774448e-03 0.0 
0.0 0.0 0.0 
-7.902264577786e-05 1.327095386386e-04 0.0 
1.327095386386e-04 1.059135563537e-02 0.0 
0.0 0.0 0.0 
4.211630316391e-04 4.423770576509e-05 0.0 
4.423770576509e-05 5.059727593089e-03 0.0 
0.0 0.0 0.0 
-4.717039141003e-04 4.704287909527e-04 0.0 
4.704287909527e-04 4.970183443724e-03 0.0 
0.0 0.0 0.0 
1.499885710843e-04 1.151610023342e-04 0.0 
1.151610023342e-04 7.731797869577e-03 0.0 
0.0 0.0 0.0 
-3.655902655234e-04 1.383392217272e-04 0.0 
1.383392217272e-04 8.189076689004e-03 0.0 
0.0 0.0 0.0 
8.621993054314e-05 8.167894907267e-05 0.0 
8.167894907267e-05 7.950040921811e-03 0.0 
0.0 0.0 0.0 
-5.316003959788e-05 1.107690183138e-04 0.0 
1.107690183138e-04 1.078215163383e-02 0.0 
0.0 0.0 0.0 
-3.554317123657e-04 5.120432093746e-05 0.0 
5.120432093746e-05 7.746644226730e-03 0.0 
0.0 0.0 0.0 
1.706909778298e-05 1.407921739287e-04 0.0 
1.407921739287e-04 1.023401766540e-03 0.0 
0.0 0.0 0.0 
1.250527310466e-04 -4.763107955267e-05 0.0 
-4.763107955267e-05 1.426946790388e-03 0.0 
0.0 0.0 0.0 
1.828249479132e-04 4.611923724928e-06 0.0 
4.611923724928e-06 1.473785370352e-03 0.0 
0.0 0.0 0.0 
-9.354534338968e-05 7.218300143691e-05 0.0 
7.218300143691e-05 1.060164397464e-02 0.0 
0.0 0.0 0.0 
-4.818639682735e-04 2.908349305719e-04 0.0 
2.908349305719e-04 5.728511802842e-03 0.0 
0.0 0.0 0.0 
-5.310674824784e-04 3.569178433206e-04 0.0 
3.569178433206e-04 5.868334128466e-03 0.0 
0.0 0.0 0.0 
2.031271606613e-04 6.814998270205e-04 0.0 
6.814998270205e-04 7.899476343113e-03 0.0 
0.0 0.0 0.0 
-3.813807242913e-04 2.203529586026e-04 0.0 
2.203529586026e-04 8.532267018783e-03 0.0 
0.0 0.0 0.0 
4.095992866484e-04 1.054674441876e-05 0.0 
1.054674441876e-05 5.364885071018e-03 0.0 
0.0 0.0 0.0 
-4.352605249592e-04 9.546455847018e-05 0.0 
9.546455847018e-05 7.371147289839e-03 0.0 
0.0 0.0 0.0 
-5.941252881492e-05 1.011542063710e-03 0.0 
1.011542063710e-03 9.608268372242e-03 0.0 
0.0 0.0 0.0 
-4.332813965945e-04 1.730191606267e-04 0.0 
1.730191606267e-04 8.536433382524e-03 0.0 
0.0 0.0 0.0 
2.000000348881e-04 7.170995978668e-04 0.0 
7.170995978668e-04 8.037562989128e-03 0.0 
0.0 0.0 0.0 
2.477170310988e-05 -2.544983255226e-05 0.0 
-2.544983255226e-05 1.165161138880e-03 0.0 
0.0 0.0 0.0 
-1.449504241513e-04 -6.945691040938e-05 0.0 
-6.945691040938e-05 4.663310703117e-04 0.0 
0.0 0.0 0.0 
-1.801811565281e-04 6.556779982557e-04 0.0 
6.556779982557e-04 1.040732733126e-02 0.0 
0.0 0.0 0.0 
3.099780539582e-04 -4.016430235537e-06 0.0 
-4.016430235537e-06 6.505482752507e-03 0.0 
0.0 0.0 0.0 
1.725325243784e-04 4.158149677217e-04 0.0 
4.158149677217e-04 7.880829243565e-03 0.0 
0.0 0.0 0.0 
8.586962955137e-05 3.703598397097e-04 0.0 
3.703598397097e-04 8.229217161396e-03 0.0 
0.0 0.0 0.0 
6.357856539907e-05 2.209607336891e-04 0.0 
2.209607336891e-04 8.220025222786e-03 0.0 
0.0 0.0 0.0 
1.166599920746e-04 9.530965459006e-04 0.0 
9.530965459006e-04 8.723796951780e-03 0.0 
0.0 0.0 0.0 
-2.876112267679e-04 -4.156857568846e-05 0.0 
-4.156857568846e-05 7.422393861854e-03 0.0 
0.0 0.0 0.0 
-2.753903401465e-04 6.048211539761e-05 0.0 
6.048211539761e-05 7.439034000651e-03 0.0 
0.0 0.0 0.0 
-5.432923364349e-04 2.606552142965e-04 0.0 
2.606552142965e-04 6.388008921677e-03 0.0 
0.0 0.0 0.0 
1.124762230853e-04 5.477760149876e-04 0.0 
5.477760149876e-04 8.095632015017e-03 0.0 
0.0 0.0 0.0 
-3.106758403465e-04 7.388749727751e-04 0.0 
7.388749727751e-04 4.254124747083e-03 0.0 
0.0 0.0 0.0 
-4.525841425288e-04 1.070069787861e-04 0.0 
1.070069787861e-04 7.396141936555e-03 0.0 
0.0 0.0 0.0 
-1.139523010694e-04 7.129964314983e-06 0.0 
7.129964314983e-06 1.040592920636e-02 0.0 
0.0 0.0 0.0 
-4.188690707247e-04 9.357557329334e-04 0.0 
9.357557329334e-04 4.272283256009e-03 0.0 
0.0 0.0 0.0 
1.756748560733e-05 -9.154593114988e-05 0.0 
-9.154593114988e-05 7.926743601536e-04 0.0 
0.0 0.0 0.0 
-7.210660447554e-05 4.358213769776e-05 0.0 
4.358213769776e-05 1.043768070120e-02 0.0 
0.0 0.0 0.0 
-1.677474615238e-04 -8.285368717909e-05 0.0 
-8.285368717909e-05 4.902508463873e-04 0.0 
0.0 0.0 0.0 
-3.850873958321e-04 6.598365055058e-05 0.0 
6.598365055058e-05 8.010188806932e-03 0.0 
0.0 0.0 0.0 
-5.373843741875e-04 3.063501061629e-04 0.0 
3.063501061629e-04 6.130551473577e-03 0.0 
0.0 0.0 0.0 
1.890737886840e-04 -4.160864657278e-05 0.0 
-4.160864657278e-05 1.813218103600e-03 0.0 
0.0 0.0 0.0 
2.606049382812e-04 -2.785359825916e-05 0.0 
-2.785359825916e-05 1.613179344541e-03 0.0 
0.0 0.0 0.0 
-4.926028900990e-04 2.261366388319e-04 0.0 
2.261366388319e-04 6.181222564617e-03 0.0 
0.0 0.0 0.0 
-9.311431835135e-05 4.800036832873e-04 0.0 
4.800036832873e-04 1.056538263651e-02 0.0 
0.0 0.0 0.0 
2.751629323350e-04 -5.782708807359e-05 0.0 
-5.782708807359e-05 2.430518827605e-03 0.0 
0.0 0.0 0.0 
2.337310435234e-04 1.059880068790e-05 0.0 
1.059880068790e-05 1.873931677090e-03 0.0 
0.0 0.0 0.0 
3.190116741425e-04 6.313843153051e-05 0.0 
6.313843153051e-05 6.507329679236e-03 0.0 
0.0 0.0 0.0 
7.558149740250e-05 -4.929269729664e-05 0.0 
-4.929269729664e-05 1.073558541243e-03 0.0 
0.0 0.0 0.0 
-5.877273677013e-05 5.508977910019e-05 0.0 
5.508977910019e-05 1.078294460932e-02 0.0 
0.0 0.0 0.0 
-4.411512656592e-04 -9.710570345240e-05 0.0 
-9.710570345240e-05 5.349332234352e-04 0.0 
0.0 0.0 0.0 
3.376866787752e-05 9.816849063408e-04 0.0 
9.816849063408e-04 8.863538844351e-03 0.0 
0.0 0.0 0.0 
-3.809404760976e-04 7.903586280871e-04 0.0 
7.903586280871e-04 5.562687619761e-03 0.0 
0.0 0.0 0.0 
2.400006005583e-04 5.049577716676e-05 0.0 
5.049577716676e-05 1.380343378687e-03 0.0 
0.0 0.0 0.0 
1.454863647155e-04 1.213480380536e-04 0.0 
1.213480380536e-04 7.738674129496e-03 0.0 
0.0 0.0 0.0 
-4.989673795218e-04 2.503895350126e-04 0.0 
2.503895350126e-04 5.954847535008e-03 0.0 
0.0 0.0 0.0 
-2.312518094613e-04 -3.985229769800e-05 0.0 
-3.985229769800e-05 4.312538226419e-04 0.0 
0.0 0.0 0.0 
-1.903726498839e-04 6.836089975861e-04 0.0 
6.836089975861e-04 1.034856984522e-02 0.0 
0.0 0.0 0.0 
7.332254599079e-05 -1.740653602841e-04 0.0 
-1.740653602841e-04 1.190665126389e-03 0.0 
0.0 0.0 0.0 
-7.819125437969e-05 8.408911554746e-04 0.0 
8.408911554746e-04 1.004789941821e-02 0.0 
0.0 0.0 0.0 
3.996667189772e-04 3.205846835709e-05 0.0 
3.205846835709e-05 5.609729019803e-03 0.0 
0.0 0.0 0.0 
0.0 3.090234869436e-04 0.0 
3.090234869436e-04 1.098268626546e-02 0.0 
0.0 0.0 0.0 
-7.176307524337e-05 9.137065112324e-04 0.0 
9.137065112324e-04 9.323891909796e-03 0.0 
0.0 0.0 0.0 
2.779401246777e-05 2.926217693528e-05 0.0 
2.926217693528e-05 4.921583273503e-04 0.0 
0.0 0.0 0.0 
3.084028477545e-04 5.380418446725e-06 0.0 
5.380418446725e-06 2.538227639376e-03 0.0 
0.0 0.0 0.0 
-1.097196350032e-04 2.044060543482e-04 0.0 
2.044060543482e-04 1.063414694148e-02 0.0 
0.0 0.0 0.0 
-1.718580379407e-04 5.212645339745e-04 0.0 
5.212645339745e-04 1.054571430887e-02 0.0 
0.0 0.0 0.0 
-2.115419688664e-04 8.962783364449e-04 0.0 
8.962783364449e-04 2.968590657467e-03 0.0 
0.0 0.0 0.0 
1.276906806704e-04 -6.596172185960e-05 0.0 
-6.596172185960e-05 1.070260213756e-03 0.0 
0.0 0.0 0.0 
-1.234942630475e-04 9.990832203172e-04 0.0 
9.990832203172e-04 2.972907773666e-03 0.0 
0.0 0.0 0.0 
1.048625597087e-04 -6.259350179604e-05 0.0 
-6.259350179604e-05 1.173311510535e-03 0.0 
0.0 0.0 0.0 
-3.362386616255e-04 4.978745902484e-05 0.0 
4.978745902484e-05 7.742513649190e-03 0.0 
0.0 0.0 0.0 
-5.267981101273e-04 4.156692482792e-04 0.0 
4.156692482792e-04 5.618196327010e-03 0.0 
0.0 0.0 0.0 
-4.841276777815e-04 3.057375484534e-04 0.0 
3.057375484534e-04 5.445553835309e-03 0.0 
0.0 0.0 0.0 
-3.274180505739e-04 9.313872071589e-06 0.0 
9.313872071589e-06 8.065853772563e-03 0.0 
0.0 0.0 0.0 
-2.947901934285e-04 7.536209414803e-05 0.0 
7.536209414803e-05 8.065181220977e-03 0.0 
0.0 0.0 0.0 
3.762954419861e-04 1.154537280392e-05 0.0 
1.154537280392e-05 5.802795253327e-03 0.0 
0.0 0.0 0.0 
3.394358700084e-04 3.561396619274e-05 0.0 
3.561396619274e-05 6.305845221626e-03 0.0 
0.0 0.0 0.0 
-3.823534987647e-04 5.514695311376e-04 0.0 
5.514695311376e-04 9.336424022787e-03 0.0 
0.0 0.0 0.0 
-3.356600611222e-04 -1.339286261177e-06 0.0 
-1.339286261177e-06 7.820145979496e-03 0.0 
0.0 0.0 0.0 
-8.225058678890e-05 -6.687774152927e-05 0.0 
-6.687774152927e-05 4.450746370639e-04 0.0 
0.0 0.0 0.0 
-4.486075935984e-04 1.357421473881e-04 0.0 
1.357421473881e-04 7.767923651802e-03 0.0 
0.0 0.0 0.0 
-1.785883962589e-04 9.959751430545e-06 0.0 
9.959751430545e-06 9.468934184076e-03 0.0 
0.0 0.0 0.0 
-1.971338494609e-04 5.309113377921e-05 0.0 
5.309113377921e-05 9.396421417833e-03 0.0 
0.0 0.0 0.0 
-7.816006323746e-05 3.366267302796e-04 0.0 
3.366267302796e-04 1.097680953985e-02 0.0 
0.0 0.0 0.0 
1.947436628669e-05 9.568535801968e-04 0.0 
9.568535801968e-04 9.068424450620e-03 0.0 
0.0 0.0 0.0 
-3.643311708087e-04 3.864306587368e-05 0.0 
3.864306587368e-05 7.737056967352e-03 0.0 
0.0 0.0 0.0 
1.777786054067e-04 5.415548578413e-04 0.0 
5.415548578413e-04 8.077767174226e-03 0.0 
0.0 0.0 0.0 
-2.330174103120e-04 -1.636604527137e-05 0.0 
-1.636604527137e-05 8.458177002410e-03 0.0 
0.0 0.0 0.0 
-4.758468295013e-04 7.503788001519e-04 0.0 
7.503788001519e-04 5.625881337610e-03 0.0 
0.0 0.0 0.0 
-3.211404781420e-04 -1.624322208177e-07 0.0 
-1.624322208177e-07 7.632601507420e-03 0.0 
0.0 0.0 0.0 
9.479602209939e-05 1.526780847450e-04 0.0 
1.526780847450e-04 7.945593534470e-03 0.0 
0.0 0.0 0.0 
6.435340851518e-05 8.434546380314e-04 0.0 
8.434546380314e-04 7.690555739423e-03 0.0 
0.0 0.0 0.0 
-8.123212404620e-06 9.225263169551e-04 0.0 
9.225263169551e-04 8.873212636776e-03 0.0 
0.0 0.0 0.0 
-1.526943777429e-04 1.022015502364e-03 0.0 
1.022015502364e-03 4.665944966505e-03 0.0 
0.0 0.0 0.0 
-1.676821080784e-04 -7.780542754225e-05 0.0 
-7.780542754225e-05 8.676015603766e-04 0.0 
0.0 0.0 0.0 
2.190261911574e-04 3.294474104898e-05 0.0 
3.294474104898e-05 7.227403520961e-03 0.0 
0.0 0.0 0.0 
-1.728437742321e-04 5.340535705591e-05 0.0 
5.340535705591e-05 9.781557346226e-03 0.0 
0.0 0.0 0.0 
-3.812453177744e-04 -9.263015276164e-05 0.0 
-9.263015276164e-05 5.606419471957e-04 0.0 
0.0 0.0 0.0 
9.678771254795e-05 2.212746918920e-04 0.0 
2.212746918920e-04 7.910587800588e-03 0.0 
0.0 0.0 0.0 
-3.536107977493e-04 5.844474379087e-04 0.0 
5.844474379087e-04 9.057817058778e-03 0.0 
0.0 0.0 0.0 
4.319592839419e-06 -4.952997840894e-05 0.0 
-4.952997840894e-05 3.116823537690e-04 0.0 
0.0 0.0 0.0 
-3.562785834643e-05 9.767463704569e-04 0.0 
9.767463704569e-04 5.260235631975e-03 0.0 
0.0 0.0 0.0 
-5.164790989690e-04 1.672933598527e-04 0.0 
1.672933598527e-04 7.302245780255e-03 0.0 
0.0 0.0 0.0 
3.804536367362e-04 -3.395253127348e-05 0.0 
-3.395253127348e-05 3.114180728069e-03 0.0 
0.0 0.0 0.0 
-4.107061528472e-04 7.328577385711e-04 0.0 
7.328577385711e-04 5.259312403119e-03 0.0 
0.0 0.0 0.0 
-3.840554193206e-04 8.489342860914e-04 0.0 
8.489342860914e-04 5.558302888303e-03 0.0 
0.0 0.0 0.0 
1.171060563836e-04 4.331541794778e-04 0.0 
4.331541794778e-04 8.024904431888e-03 0.0 
0.0 0.0 0.0 
-2.384833260660e-04 3.923712019157e-05 0.0 
3.923712019157e-05 8.320439249072e-03 0.0 
0.0 0.0 0.0 
-3.029836120758e-04 9.060200803617e-04 0.0 
9.060200803617e-04 5.141763535082e-03 0.0 
0.0 0.0 0.0 
5.228270038238e-05 -1.688901050556e-04 0.0 
-1.688901050556e-04 1.132990777506e-03 0.0 
0.0 0.0 0.0 
-4.463312341259e-04 1.660832581302e-04 0.0 
1.660832581302e-04 7.716637515475e-03 0.0 
0.0 0.0 0.0 
-1.357011259501e-04 1.949911361616e-05 0.0 
1.949911361616e-05 9.812316816923e-03 0.0 
0.0 0.0 0.0 
-2.898084719891e-04 9.370582058900e-04 0.0 
9.370582058900e-04 5.140264881968e-03 0.0 
0.0 0.0 0.0 
-1.720353938200e-04 6.112561575180e-04 0.0 
6.112561575180e-04 1.714098667659e-03 0.0 
0.0 0.0 0.0 
-5.359831850854e-04 1.988075500956e-04 0.0 
1.988075500956e-04 6.845796042674e-03 0.0 
0.0 0.0 0.0 
3.414527845989e-04 -6.646291524637e-06 0.0 
-6.646291524637e-06 3.095140899594e-03 0.0 
0.0 0.0 0.0 
-4.893890776196e-04 1.882900716954e-04 0.0 
1.882900716954e-04 6.633155690854e-03 0.0 
0.0 0.0 0.0 
-6.328805990952e-05 2.842181895981e-04 0.0 
2.842181895981e-04 1.077019915209e-02 0.0 
0.0 0.0 0.0 
7.545553431432e-05 7.687323223784e-04 0.0 
7.687323223784e-04 1.607503817366e-03 0.0 
0.0 0.0 0.0 
4.163541602997e-04 6.773334839869e-05 0.0 
6.773334839869e-05 5.336595755328e-03 0.0 
0.0 0.0 0.0 
-7.813459849926e-05 9.051215685574e-05 0.0 
9.051215685574e-05 1.062756450108e-02 0.0 
0.0 0.0 0.0 
-4.968683834164e-04 5.409213574533e-04 0.0 
5.409213574533e-04 6.589491668149e-03 0.0 
0.0 0.0 0.0 
-5.413646509215e-04 2.208328639846e-04 0.0 
2.208328639846e-04 6.621711022040e-03 0.0 
0.0 0.0 0.0 
2.023545390482e-04 5.053913166709e-04 0.0 
5.053913166709e-04 7.882626394164e-03 0.0 
0.0 0.0 0.0 
1.404488666239e-04 2.614969582138e-05 0.0 
2.614969582138e-05 7.748871260596e-03 0.0 
0.0 0.0 0.0 
3.854507788437e-04 7.773677822363e-05 0.0 
7.773677822363e-05 5.804586045979e-03 0.0 
0.0 0.0 0.0 
-5.425498738231e-04 5.253478442766e-04 0.0 
5.253478442766e-04 6.876540001187e-03 0.0 
0.0 0.0 0.0 
1.776303721353e-04 7.167503685096e-04 0.0 
7.167503685096e-04 8.295999888555e-03 0.0 
0.0 0.0 0.0 
-5.152569455853e-04 4.276142715934e-04 0.0 
4.276142715934e-04 6.549731968692e-03 0.0 
0.0 0.0 0.0 
-4.983987628049e-05 1.731725448093e-04 0.0 
1.731725448093e-04 1.071399930323e-02 0.0 
0.0 0.0 0.0 
-1.358064773952e-04 8.758423719480e-04 0.0 
8.758423719480e-04 1.009945327672e-02 0.0 
0.0 0.0 0.0 
-4.045482753433e-04 8.336509833166e-05 0.0 
8.336509833166e-05 8.178528747814e-03 0.0 
0.0 0.0 0.0 
-2.212992032897e-04 7.809079756926e-05 0.0 
7.809079756926e-05 8.971260955951e-03 0.0 
0.0 0.0 0.0 
-5.604035387566e-04 4.791637169843e-04 0.0 
4.791637169843e-04 6.547585505816e-03 0.0 
0.0 0.0 0.0 
-4.943928676765e-04 2.029288877380e-04 0.0 
2.029288877380e-04 6.404345907812e-03 0.0 
0.0 0.0 0.0 
-4.753612948530e-04 5.878890191223e-04 0.0 
5.878890191223e-04 6.913515466420e-03 0.0 
0.0 0.0 0.0 
-1.240548112171e-04 1.004902446015e-03 0.0 
1.004902446015e-03 5.019419834237e-03 0.0 
0.0 0.0 0.0 
-2.968018405415e-04 -1.119977991199e-05 0.0 
-1.119977991199e-05 7.686432615470e-03 0.0 
0.0 0.0 0.0 
1.062738430946e-05 9.395041968378e-04 0.0 
9.395041968378e-04 5.264627494604e-03 0.0 
0.0 0.0 0.0 
-5.143778257721e-05 -9.485981021843e-05 0.0 
-9.485981021843e-05 4.203591715952e-04 0.0 
0.0 0.0 0.0 
-2.593131525922e-04 5.170171572952e-06 0.0 
5.170171572952e-06 7.996584787575e-03 0.0 
0.0 0.0 0.0 
1.227239477291e-04 -1.910174307704e-05 0.0 
-1.910174307704e-05 1.086485201294e-03 0.0 
0.0 0.0 0.0 
-5.273667914987e-04 1.808922779692e-04 0.0 
1.808922779692e-04 7.074477442245e-03 0.0 
0.0 0.0 0.0 
1.063151189267e-04 6.528463636790e-04 0.0 
6.528463636790e-04 8.247131303442e-03 0.0 
0.0 0.0 0.0 
-1.937226509884e-04 1.011235184819e-03 0.0 
1.011235184819e-03 4.666797549246e-03 0.0 
0.0 0.0 0.0 
3.648179924933e-04 6.233852986687e-05 0.0 
6.233852986687e-05 6.041253037891e-03 0.0 
0.0 0.0 0.0 
-5.006889177481e-04 7.568245370396e-04 0.0 
7.568245370396e-04 4.689132454814e-03 0.0 
0.0 0.0 0.0 
7.402833521652e-05 9.130306320058e-04 0.0 
9.130306320058e-04 7.684245603077e-03 0.0 
0.0 0.0 0.0 
-2.692464932972e-04 9.771127773276e-06 0.0 
9.771127773276e-06 7.715948975622e-03 0.0 
0.0 0.0 0.0 
8.639316841252e-05 1.000050711050e-03 0.0 
1.000050711050e-03 4.774854835251e-03 0.0 
0.0 0.0 0.0 
2.852585915452e-04 2.382110705084e-05 0.0 
2.382110705084e-05 6.740725361322e-03 0.0 
0.0 0.0 0.0 
8.708349065101e-05 -7.611322159955e-05 0.0 
-7.611322159955e-05 1.115150170830e-03 0.0 
0.0 0.0 0.0 
2.300772866934e-04 1.094934343500e-04 0.0 
1.094934343500e-04 7.219283444262e-03 0.0 
0.0 0.0 0.0 
-4.991458936368e-04 3.026560950371e-04 0.0 
3.026560950371e-04 7.559414466562e-03 0.0 
0.0 0.0 0.0 
1.561831096060e-04 2.203781670218e-04 0.0 
2.203781670218e-04 7.887821334682e-03 0.0 
0.0 0.0 0.0 
-2.588610886015e-04 7.126656972573e-06 0.0 
7.126656972573e-06 7.687343452217e-03 0.0 
0.0 0.0 0.0 
-5.944805653690e-05 1.020253800434e-03 0.0 
1.020253800434e-03 4.491354341469e-03 0.0 
0.0 0.0 0.0 
-4.762384974948e-04 1.693850126267e-04 0.0 
1.693850126267e-04 7.077015869502e-03 0.0 
0.0 0.0 0.0 
4.100626426067e-04 -5.021284821173e-06 0.0 
-5.021284821173e-06 5.092484066263e-03 0.0 
0.0 0.0 0.0 
-3.630315468029e-04 6.080239799533e-04 0.0 
6.080239799533e-04 4.644854630015e-03 0.0 
0.0 0.0 0.0 
1.304661005694e-04 9.260510529540e-04 0.0 
9.260510529540e-04 4.784683447113e-03 0.0 
0.0 0.0 0.0 
-2.193318611572e-04 1.111964782290e-05 0.0 
1.111964782290e-05 9.189283684523e-03 0.0 
0.0 0.0 0.0 
-2.777926519368e-04 3.252948017115e-05 0.0 
3.252948017115e-05 7.691312758532e-03 0.0 
0.0 0.0 0.0 
-4.979886329792e-05 9.956897990230e-04 0.0 
9.956897990230e-04 4.865551834489e-03 0.0 
0.0 0.0 0.0 
-4.903752602438e-04 1.741944123583e-04 0.0 
1.741944123583e-04 6.853711465300e-03 0.0 
0.0 0.0 0.0 
-2.339834730699e-04 7.748455250509e-04 0.0 
7.748455250509e-04 9.283156496049e-03 0.0 
0.0 0.0 0.0 
3.808633283904e-04 -1.690363660258e-05 0.0 
-1.690363660258e-05 3.474003111041e-03 0.0 
0.0 0.0 0.0 
-1.358878198010e-05 9.747163592397e-04 0.0 
9.747163592397e-04 9.541314692990e-03 0.0 
0.0 0.0 0.0 
-1.433346717028e-04 9.014327252530e-04 0.0 
9.014327252530e-04 1.000147753175e-02 0.0 
0.0 0.0 0.0 
-5.024815442589e-04 7.088768373345e-04 0.0 
7.088768373345e-04 5.354709700054e-03 0.0 
0.0 0.0 0.0 
4.123496852351e-04 3.376829750191e-06 0.0 
3.376829750191e-06 3.487059553637e-03 0.0 
0.0 0.0 0.0 
2.339558701787e-04 7.137273664219e-04 0.0 
7.137273664219e-04 7.665885424575e-03 0.0 
0.0 0.0 0.0 
-5.645318756227e-04 3.678125307338e-04 0.0 
3.678125307338e-04 6.482711660022e-03 0.0 
0.0 0.0 0.0 
-4.483789126776e-04 6.420451164659e-04 0.0 
6.420451164659e-04 5.017273727173e-03 0.0 
0.0 0.0 0.0 
-4.879347825668e-04 2.319450184115e-04 0.0 
2.319450184115e-04 7.436267513059e-03 0.0 
0.0 0.0 0.0 
-1.080846608950e-04 9.721119715992e-04 0.0 
9.721119715992e-04 5.371173597053e-03 0.0 
0.0 0.0 0.0 
-5.450776338933e-05 1.429902726441e-04 0.0 
1.429902726441e-04 1.070898931999e-02 0.0 
0.0 0.0 0.0 
-3.509231363572e-04 5.059965983935e-04 0.0 
5.059965983935e-04 9.230021311926e-03 0.0 
0.0 0.0 0.0 
2.586796616519e-04 7.458330475037e-05 0.0 
7.458330475037e-05 6.983059859997e-03 0.0 
0.0 0.0 0.0 
-3.071691213026e-04 9.713507187551e-04 0.0 
9.713507187551e-04 3.643746255064e-03 0.0 
0.0 0.0 0.0 
2.463293629942e-04 8.772307177080e-04 0.0 
8.772307177080e-04 4.301708517371e-03 0.0 
0.0 0.0 0.0 
-3.232658719465e-04 5.737900194988e-04 0.0 
5.737900194988e-04 9.329731457092e-03 0.0 
0.0 0.0 0.0 
-6.448351335004e-04 1.799786233720e-04 0.0 
1.799786233720e-04 4.590385462655e-04 0.0 
0.0 0.0 0.0 
-5.132367462913e-04 3.145061283191e-04 0.0 
3.145061283191e-04 6.483723943480e-03 0.0 
0.0 0.0 0.0 
3.359624152175e-04 5.743495058292e-04 0.0 
5.743495058292e-04 6.965863827241e-03 0.0 
0.0 0.0 0.0 
1.535585858470e-05 -7.305830301471e-05 0.0 
-7.305830301471e-05 7.533572966867e-04 0.0 
0.0 0.0 0.0 
-1.414688796358e-04 5.893920468772e-04 0.0 
5.893920468772e-04 1.040799142363e-02 0.0 
0.0 0.0 0.0 
-3.873373463310e-04 3.227602840223e-04 0.0 
3.227602840223e-04 8.860933284773e-03 0.0 
0.0 0.0 0.0 
5.173944394237e-04 9.782282939099e-05 0.0 
9.782282939099e-05 3.317962461353e-03 0.0 
0.0 0.0 0.0 
3.736438042192e-04 6.718514217923e-04 0.0 
6.718514217923e-04 6.959190689195e-03 0.0 
0.0 0.0 0.0 
-4.522995713040e-04 1.789944308724e-04 0.0 
1.789944308724e-04 8.052063316745e-03 0.0 
0.0 0.0 0.0 
-4.148483863632e-04 1.452434964266e-04 0.0 
1.452434964266e-04 8.397816104708e-03 0.0 
0.0 0.0 0.0 
1.623723343307e-04 6.516692502972e-04 0.0 
6.516692502972e-04 8.021108930242e-03 0.0 
0.0 0.0 0.0 
3.745058017461e-04 -1.751778742995e-05 0.0 
-1.751778742995e-05 2.426346546331e-03 0.0 
0.0 0.0 0.0 
-4.233406064416e-04 6.838384616848e-04 0.0 
6.838384616848e-04 6.919927021985e-03 0.0 
0.0 0.0 0.0 
-4.996712851124e-04 3.786645982848e-04 0.0 
3.786645982848e-04 7.669134294762e-03 0.0 
0.0 0.0 0.0 
-4.085192247792e-04 2.850543287918e-04 0.0 
2.850543287918e-04 9.097649165190e-03 0.0 
0.0 0.0 0.0 
-5.360321200654e-04 2.821120362494e-04 0.0 
2.821120362494e-04 7.800390392360e-03 0.0 
0.0 0.0 0.0 
-5.390888214537e-04 2.322673935758e-04 0.0 
2.322673935758e-04 7.436269755933e-03 0.0 
0.0 0.0 0.0 
1.542707278002e-04 8.138543829793e-04 0.0 
8.138543829793e-04 6.870886182392e-03 0.0 
0.0 0.0 0.0 
-3.226916016570e-04 6.848477946864e-04 0.0 
6.848477946864e-04 9.213897394109e-03 0.0 
0.0 0.0 0.0 
-3.899514616256e-04 1.767409806206e-04 0.0 
1.767409806206e-04 6.859353116047e-04 0.0 
0.0 0.0 0.0 
-4.508797652900e-04 5.822088740686e-04 0.0 
5.822088740686e-04 5.339010183188e-03 0.0 
0.0 0.0 0.0 
-4.555134901764e-04 6.437262374188e-04 0.0 
6.437262374188e-04 5.643125770628e-03 0.0 
0.0 0.0 0.0 
-4.963918216765e-04 6.258548124770e-04 0.0 
6.258548124770e-04 6.908449089938e-03 0.0 
0.0 0.0 0.0 
-3.740174358563e-04 4.658709476578e-04 0.0 
4.658709476578e-04 9.490782967737e-03 0.0 
0.0 0.0 0.0 
3.268516271842e-04 4.976846655743e-04 0.0 
4.976846655743e-04 1.492787798274e-03 0.0 
0.0 0.0 0.0 
3.838583943829e-04 5.075287319202e-04 0.0 
5.075287319202e-04 6.618491041190e-03 0.0 
0.0 0.0 0.0 
-2.806999479520e-04 -2.522618790321e-05 0.0 
-2.522618790321e-05 7.661265506292e-03 0.0 
0.0 0.0 0.0 
2.118659875370e-04 9.810885804273e-04 0.0 
9.810885804273e-04 4.287254723434e-03 0.0 
0.0 0.0 0.0 
4.228943687385e-04 4.409062758073e-04 0.0 
4.409062758073e-04 6.286358474744e-03 0.0 
0.0 0.0 0.0 
-5.480597913454e-05 -1.030697049409e-04 0.0 
-1.030697049409e-04 5.071344064016e-04 0.0 
0.0 0.0 0.0 
-3.484693577386e-04 3.754949067519e-04 0.0 
3.754949067519e-04 9.233758874196e-03 0.0 
0.0 0.0 0.0 
-9.859789154243e-05 -3.306207749550e-05 0.0 
-3.306207749550e-05 3.990361470592e-04 0.0 
0.0 0.0 0.0 
7.016149467165e-05 -6.234540214419e-05 0.0 
-6.234540214419e-05 7.505654114295e-04 0.0 
0.0 0.0 0.0 
-1.738305093049e-04 9.370539526844e-04 0.0 
9.370539526844e-04 3.641925778377e-03 0.0 
0.0 0.0 0.0 
3.065934215443e-04 -4.908814964643e-05 0.0 
-4.908814964643e-05 2.031567976525e-03 0.0 
0.0 0.0 0.0 
-3.645568725970e-04 3.327253499767e-04 0.0 
3.327253499767e-04 9.469985424069e-03 0.0 
0.0 0.0 0.0 
2.402768959227e-04 -1.401648269776e-04 0.0 
-1.401648269776e-04 1.906734108041e-03 0.0 
0.0 0.0 0.0 
1.073443698352e-04 1.051273247762e-03 0.0 
1.051273247762e-03 3.113626558918e-03 0.0 
0.0 0.0 0.0 
1.922264448098e-04 -1.205781817607e-04 0.0 
-1.205781817607e-04 1.498032174742e-03 0.0 
0.0 0.0 0.0 
1.226979136668e-04 -7.025113913845e-05 0.0 
-7.025113913845e-05 1.270786774259e-03 0.0 
0.0 0.0 0.0 
3.185593200821e-04 7.233350327913e-04 0.0 
7.233350327913e-04 7.295046049873e-03 0.0 
0.0 0.0 0.0 
-5.501246754416e-04 3.041664891917e-04 0.0 
3.041664891917e-04 7.559375032590e-03 0.0 
0.0 0.0 0.0 
1.598046214024e-04 2.013735622357e-04 0.0 
2.013735622357e-04 7.743073817633e-03 0.0 
0.0 0.0 0.0 
-3.864104108585e-04 9.019594854767e-05 0.0 
9.019594854767e-05 2.784585437783e-04 0.0 
0.0 0.0 0.0 
1.048929227738e-04 1.063777537457e-03 0.0 
1.063777537457e-03 3.524174770414e-03 0.0 
0.0 0.0 0.0 
1.980414058187e-04 9.566411208660e-04 0.0 
9.566411208660e-04 4.733109171289e-03 0.0 
0.0 0.0 0.0 
-5.070131657223e-04 3.582616527146e-04 0.0 
3.582616527146e-04 6.216522273450e-03 0.0 
0.0 0.0 0.0 
4.195876650801e-04 6.010990492401e-04 0.0 
6.010990492401e-04 6.612029881079e-03 0.0 
0.0 0.0 0.0 
1.471675348368e-04 2.824267588299e-04 0.0 
2.824267588299e-04 7.939597591295e-03 0.0 
0.0 0.0 0.0 
-4.272472358252e-04 4.158900670127e-04 0.0 
4.158900670127e-04 9.126628794369e-03 0.0 
0.0 0.0 0.0 
3.448714237104e-04 7.689685570463e-04 0.0 
7.689685570463e-04 3.359881127627e-03 0.0 
0.0 0.0 0.0 
2.849244364183e-04 6.465318466174e-04 0.0 
6.465318466174e-04 7.295574877634e-03 0.0 
0.0 0.0 0.0 
3.965951822853e-04 6.571332566033e-05 0.0 
6.571332566033e-05 5.560327834716e-03 0.0 
0.0 0.0 0.0 
-5.166729948803e-04 5.642304354914e-04 0.0 
5.642304354914e-04 7.205117924959e-03 0.0 
0.0 0.0 0.0 
-3.816530037078e-04 3.806119834664e-04 0.0 
3.806119834664e-04 8.993000769954e-03 0.0 
0.0 0.0 0.0 
-4.111077790825e-05 9.370232208191e-04 0.0 
9.370232208191e-04 9.169326101659e-03 0.0 
0.0 0.0 0.0 
2.321404330288e-04 8.652338207128e-04 0.0 
8.652338207128e-04 4.746359084812e-03 0.0 
0.0 0.0 0.0 
-1.757867149732e-05 1.045863028346e-03 0.0 
1.045863028346e-03 3.736371823703e-03 0.0 
0.0 0.0 0.0 
-5.193245688554e-04 3.334597804906e-04 0.0 
3.334597804906e-04 8.160203098577e-03 0.0 
0.0 0.0 0.0 
-5.952537467757e-05 3.170617170554e-04 0.0 
3.170617170554e-04 1.100252341036e-02 0.0 
0.0 0.0 0.0 
-4.289512282921e-04 7.102480751144e-04 0.0 
7.102480751144e-04 6.916621142636e-03 0.0 
0.0 0.0 0.0 
2.775281252734e-04 7.854681110469e-04 0.0 
7.854681110469e-04 5.606535693632e-03 0.0 
0.0 0.0 0.0 
-2.698335980733e-04 9.557913848421e-06 0.0 
9.557913848421e-06 8.080463170320e-03 0.0 
0.0 0.0 0.0 
1.935341021220e-06 -1.554768987223e-04 0.0 
-1.554768987223e-04 1.094766020744e-03 0.0 
0.0 0.0 0.0 
-4.859028624399e-04 2.876896486226e-04 0.0 
2.876896486226e-04 7.799197852930e-03 0.0 
0.0 0.0 0.0 
3.485052145773e-04 9.172470366891e-04 0.0 
9.172470366891e-04 3.337493805205e-03 0.0 
0.0 0.0 0.0 
4.197845817264e-04 5.800566648596e-04 0.0 
5.800566648596e-04 1.964758505979e-03 0.0 
0.0 0.0 0.0 
1.535410048983e-04 -1.025376416214e-04 0.0 
-1.025376416214e-04 1.179380265848e-03 0.0 
0.0 0.0 0.0 
-3.125602423767e-04 3.675996272321e-04 0.0 
3.675996272321e-04 9.465278250845e-03 0.0 
0.0 0.0 0.0 
-5.354972368923e-04 3.570935857527e-04 0.0 
3.570935857527e-04 7.916685854254e-03 0.0 
0.0 0.0 0.0 
-1.857064194268e-04 9.703648856991e-04 0.0 
9.703648856991e-04 5.025371380658e-03 0.0 
0.0 0.0 0.0 
-3.229400433093e-04 3.205260069462e-04 0.0 
3.205260069462e-04 9.697649975105e-03 0.0 
0.0 0.0 0.0 
-4.073666235497e-04 4.814613267188e-04 0.0 
4.814613267188e-04 9.235599298048e-03 0.0 
0.0 0.0 0.0 
-5.269911081885e-04 5.127650992475e-04 0.0 
5.127650992475e-04 7.485405262238e-03 0.0 
0.0 0.0 0.0 
1.072333152863e-04 3.441294440186e-04 0.0 
3.441294440186e-04 7.973903602946e-03 0.0 
0.0 0.0 0.0 
3.205889337412e-04 8.229519487000e-04 0.0 
8.229519487000e-04 5.622098012999e-03 0.0 
0.0 0.0 0.0 
-5.287994786860e-04 4.693667043077e-04 0.0 
4.693667043077e-04 7.756083324884e-03 0.0 
0.0 0.0 0.0 
-9.615608014513e-05 9.320227058672e-04 0.0 
9.320227058672e-04 5.735700263073e-03 0.0 
0.0 0.0 0.0 
2.545850358640e-04 7.809006885393e-04 0.0 
7.809006885393e-04 6.042879390678e-03 0.0 
0.0 0.0 0.0 
4.758598210746e-04 6.446324856755e-04 0.0 
6.446324856755e-04 2.417363837767e-03 0.0 
0.0 0.0 0.0 
-4.302943618436e-04 1.092538256697e-04 0.0 
1.092538256697e-04 7.745974467937e-03 0.0 
0.0 0.0 0.0 
3.160764187726e-04 7.957605832821e-04 0.0 
7.957605832821e-04 4.727757018705e-03 0.0 
0.0 0.0 0.0 
4.786884687100e-04 2.283218911536e-04 0.0 
2.283218911536e-04 2.734521101964e-03 0.0 
0.0 0.0 0.0 
-3.702038763526e-04 4.422063608416e-04 0.0 
4.422063608416e-04 9.121130910787e-03 0.0 
0.0 0.0 0.0 
-7.911212440551e-04 2.112617556124e-05 0.0 
2.112617556124e-05 4.676984552399e-04 0.0 
0.0 0.0 0.0 
-5.184354132302e-04 2.636839383079e-04 0.0 
2.636839383079e-04 8.034780637911e-03 0.0 
0.0 0.0 0.0 
4.296436126305e-04 8.211531468160e-04 0.0 
8.211531468160e-04 3.329211703546e-03 0.0 
0.0 0.0 0.0 
1.347761272275e-04 9.741233775775e-04 0.0 
9.741233775775e-04 3.536487185510e-03 0.0 
0.0 0.0 0.0 
3.997885808962e-04 4.534093093676e-04 0.0 
4.534093093676e-04 2.450361427990e-03 0.0 
0.0 0.0 0.0 
-4.616931930079e-04 4.130636837113e-04 0.0 
4.130636837113e-04 8.269351656101e-03 0.0 
0.0 0.0 0.0 
-6.591314382154e-05 -1.417161289818e-04 0.0 
-1.417161289818e-04 7.687402265504e-04 0.0 
0.0 0.0 0.0 
-4.890158514066e-04 5.557492786235e-04 0.0 
5.557492786235e-04 5.979801940909e-03 0.0 
0.0 0.0 0.0 
2.966749419691e-04 8.215688152932e-04 0.0 
8.215688152932e-04 6.069737273523e-03 0.0 
0.0 0.0 0.0 
-4.867693352024e-04 3.576699967435e-04 0.0 
3.576699967435e-04 7.916220801414e-03 0.0 
0.0 0.0 0.0 
-4.320382130361e-04 1.456047871628e-04 0.0 
1.456047871628e-04 8.086458506839e-03 0.0 
0.0 0.0 0.0 
2.021108378965e-04 3.549778325267e-04 0.0 
3.549778325267e-04 1.174478658142e-03 0.0 
0.0 0.0 0.0 
5.540954986287e-04 3.878681044428e-04 0.0 
3.878681044428e-04 2.709489308641e-03 0.0 
0.0 0.0 0.0 
4.344003750918e-04 1.110102841141e-04 0.0 
1.110102841141e-04 2.425446736339e-03 0.0 
0.0 0.0 0.0 
-5.325445929465e-04 5.999340210051e-04 0.0 
5.999340210051e-04 5.668569854860e-03 0.0 
0.0 0.0 0.0 
-4.394151126376e-04 3.501473932720e-04 0.0 
3.501473932720e-04 8.999217034194e-03 0.0 
0.0 0.0 0.0 
-5.205974424611e-04 6.470318173376e-04 0.0 
6.470318173376e-04 5.966316922156e-03 0.0 
0.0 0.0 0.0 
3.895944810977e-04 8.325010876006e-04 0.0 
8.325010876006e-04 4.261353796880e-03 0.0 
0.0 0.0 0.0 
3.107874182153e-04 9.102494024363e-04 0.0 
9.102494024363e-04 4.259427707766e-03 0.0 
0.0 0.0 0.0 
1.776655687160e-04 2.787090052646e-04 0.0 
2.787090052646e-04 1.572638208126e-03 0.0 
0.0 0.0 0.0 
-3.057437541065e-05 9.525196882246e-04 0.0 
9.525196882246e-04 5.661652567937e-03 0.0 
0.0 0.0 0.0 
-6.467338863336e-07 8.747603767051e-04 0.0 
8.747603767051e-04 2.713540014683e-03 0.0 
0.0 0.0 0.0 
-8.953837011771e-05 5.435670393591e-04 0.0 
5.435670393591e-04 1.085599506918e-02 0.0 
0.0 0.0 0.0 
-1.067722362500e-04 6.475835162166e-04 0.0 
6.475835162166e-04 1.074625630611e-02 0.0 
0.0 0.0 0.0 
-3.543969054151e-04 7.641385704478e-04 0.0 
7.641385704478e-04 6.912790565611e-03 0.0 
0.0 0.0 0.0 
4.363559442950e-04 7.956788242170e-04 0.0 
7.956788242170e-04 2.857245607894e-03 0.0 
0.0 0.0 0.0 
2.308460985081e-04 8.431273247440e-04 0.0 
8.431273247440e-04 2.972578262032e-03 0.0 
0.0 0.0 0.0 
-4.628836114257e-04 5.420856190925e-04 0.0 
5.420856190925e-04 7.826373379544e-03 0.0 
0.0 0.0 0.0 
3.263331576198e-04 7.318246568750e-04 0.0 
7.318246568750e-04 2.901327693805e-03 0.0 
0.0 0.0 0.0 
5.196618572363e-04 2.665516323268e-04 0.0 
2.665516323268e-04 2.400787759173e-03 0.0 
0.0 0.0 0.0 
-4.880437302880e-04 5.352077337482e-04 0.0 
5.352077337482e-04 7.210052269700e-03 0.0 
0.0 0.0 0.0 
-1.105563088647e-04 1.861720533398e-04 0.0 
1.861720533398e-04 1.072020289538e-02 0.0 
0.0 0.0 0.0 
3.318548441940e-04 9.197174182719e-04 0.0 
9.197174182719e-04 3.800276208111e-03 0.0 
0.0 0.0 0.0 
1.413160916750e-04 8.822893575661e-04 0.0 
8.822893575661e-04 6.862707125215e-03 0.0 
0.0 0.0 0.0 
2.150163833863e-04 9.604529948117e-04 0.0 
9.604529948117e-04 2.520577220382e-03 0.0 
0.0 0.0 0.0 
9.588933473292e-05 8.461368171279e-04 0.0 
8.461368171279e-04 8.831706613922e-03 0.0 
0.0 0.0 0.0 
3.563773488438e-04 9.006679520631e-04 0.0 
9.006679520631e-04 2.873862404969e-03 0.0 
0.0 0.0 0.0 
-4.467421944557e-04 6.279744347156e-04 0.0 
6.279744347156e-04 7.240371960460e-03 0.0 
0.0 0.0 0.0 
3.672847154295e-04 4.170487695434e-04 0.0 
4.170487695434e-04 1.588491325414e-03 0.0 
0.0 0.0 0.0 
4.613556356794e-04 6.304084230590e-04 0.0 
6.304084230590e-04 5.895035524274e-03 0.0 
0.0 0.0 0.0 
2.896223815692e-04 8.936073785461e-04 0.0 
8.936073785461e-04 4.712333382725e-03 0.0 
0.0 0.0 0.0 
5.254603611109e-04 2.200107186883e-04 0.0 
2.200107186883e-04 2.549296654606e-03 0.0 
0.0 0.0 0.0 
-5.468083074364e-04 3.863511838942e-04 0.0 
3.863511838942e-04 7.668342361852e-03 0.0 
0.0 0.0 0.0 
-8.598983676211e-05 8.281247486807e-04 0.0 
8.281247486807e-04 1.055635106411e-02 0.0 
0.0 0.0 0.0 
4.112371645495e-04 8.311051268094e-04 0.0 
8.311051268094e-04 3.798396025961e-03 0.0 
0.0 0.0 0.0 
3.078726585555e-04 7.377477077273e-04 0.0 
7.377477077273e-04 6.081481056529e-03 0.0 
0.0 0.0 0.0 
1.672631598031e-04 7.875051323403e-04 0.0 
7.875051323403e-04 2.544423067355e-03 0.0 
0.0 0.0 0.0 
-3.209217293506e-04 1.830567131219e-04 0.0 
1.830567131219e-04 8.820892218094e-03 0.0 
0.0 0.0 0.0 
4.591139560770e-04 5.296396475590e-04 0.0 
5.296396475590e-04 6.275006949537e-03 0.0 
0.0 0.0 0.0 
-1.709988961740e-04 1.049910361528e-03 0.0 
1.049910361528e-03 4.325110730861e-03 0.0 
0.0 0.0 0.0 
-3.558504545447e-04 1.006077037173e-04 0.0 
1.006077037173e-04 8.650433269101e-03 0.0 
0.0 0.0 0.0 
-6.531463320236e-05 9.871598321702e-04 0.0 
9.871598321702e-04 1.025481273011e-02 0.0 
0.0 0.0 0.0 
3.977076861663e-04 5.641641512253e-04 0.0 
5.641641512253e-04 6.755267574554e-03 0.0 
0.0 0.0 0.0 
-9.792600469338e-05 7.695589018450e-04 0.0 
7.695589018450e-04 1.062958930629e-02 0.0 
0.0 0.0 0.0 
-3.875688167536e-04 1.344097170787e-04 0.0 
1.344097170787e-04 8.602538130623e-03 0.0 
0.0 0.0 0.0 
-4.035873586913e-04 5.687346639408e-04 0.0 
5.687346639408e-04 9.061501048886e-03 0.0 
0.0 0.0 0.0 
-2.184682046403e-04 1.040952032523e-03 0.0 
1.040952032523e-03 3.999347879539e-03 0.0 
0.0 0.0 0.0 
-5.601387712504e-04 3.350552554200e-04 0.0 
3.350552554200e-04 7.317671077527e-03 0.0 
0.0 0.0 0.0 
-4.874453775358e-04 4.604696004328e-04 0.0 
4.604696004328e-04 7.757142066861e-03 0.0 
0.0 0.0 0.0 
-5.229369445837e-04 4.336571196360e-04 0.0 
4.336571196360e-04 8.017316404434e-03 0.0 
0.0 0.0 0.0 
-3.777188721245e-04 7.777798186166e-04 0.0 
7.777798186166e-04 6.577563007035e-03 0.0 
0.0 0.0 0.0 
-4.426363650067e-05 1.053301906894e-03 0.0 
1.053301906894e-03 1.002215759348e-02 0.0 
0.0 0.0 0.0 
-4.109808157633e-04 2.206205204556e-04 0.0 
2.206205204556e-04 8.351405772865e-03 0.0 
0.0 0.0 0.0 
-5.253631756900e-04 2.151159098048e-04 0.0 
2.151159098048e-04 7.671254544322e-03 0.0 
0.0 0.0 0.0 
3.320997352341e-04 7.956456936114e-04 0.0 
7.956456936114e-04 4.276666316294e-03 0.0 
0.0 0.0 0.0 
2.212140522277e-04 -6.320229226417e-05 0.0 
-6.320229226417e-05 1.651949297158e-03 0.0 
0.0 0.0 0.0 
-5.522547107585e-04 2.511921163338e-04 0.0 
2.511921163338e-04 7.198737075938e-03 0.0 
0.0 0.0 0.0 
-5.572027750256e-05 1.055172559086e-03 0.0 
1.055172559086e-03 4.106524847671e-03 0.0 
0.0 0.0 0.0 
-2.696875218183e-04 7.397788514108e-07 0.0 
7.397788514108e-07 7.705538591256e-03 0.0 
0.0 0.0 0.0 
4.468864378047e-04 7.789195209053e-05 0.0 
7.789195209053e-05 2.570824462536e-03 0.0 
0.0 0.0 0.0 
3.431131087761e-04 7.877969807918e-04 0.0 
7.877969807918e-04 3.819042881080e-03 0.0 
0.0 0.0 0.0 
-3.356465454322e-04 4.350704912572e-04 0.0 
4.350704912572e-04 9.364581404551e-03 0.0 
0.0 0.0 0.0 
-9.308386008655e-07 1.036383686053e-03 0.0 
1.036383686053e-03 4.108739272386e-03 0.0 
0.0 0.0 0.0 
-5.073206944707e-04 4.072795312475e-04 0.0 
4.072795312475e-04 7.415526657551e-03 0.0 
0.0 0.0 0.0 
3.452775195012e-04 7.776182282200e-04 0.0 
7.776182282200e-04 6.117784561477e-03 0.0 
0.0 0.0 0.0 
5.661353673632e-04 3.126562648831e-04 0.0 
3.126562648831e-04 4.731796323545e-03 0.0 
0.0 0.0 0.0 
1.177864343704e-05 1.090048887211e-03 0.0 
1.090048887211e-03 9.643405515465e-03 0.0 
0.0 0.0 0.0 
-5.623637825019e-04 3.187438327709e-04 0.0 
3.187438327709e-04 6.729074947243e-03 0.0 
0.0 0.0 0.0 
5.390468079682e-04 4.605345435685e-04 0.0 
4.605345435685e-04 2.587197530163e-03 0.0 
0.0 0.0 0.0 
4.644853963611e-04 1.138558707550e-05 0.0 
1.138558707550e-05 3.178654166635e-03 0.0 
0.0 0.0 0.0 
-4.567937525900e-04 8.444517931869e-04 0.0 
8.444517931869e-04 4.988256918305e-03 0.0 
0.0 0.0 0.0 
-2.138430503874e-04 9.988749184853e-04 0.0 
9.988749184853e-04 4.330855543047e-03 0.0 
0.0 0.0 0.0 
-3.456100883849e-04 5.319662490490e-04 0.0 
5.319662490490e-04 9.594397692158e-03 0.0 
0.0 0.0 0.0 
-4.854678936947e-04 5.953309805616e-04 0.0 
5.953309805616e-04 7.538033297636e-03 0.0 
0.0 0.0 0.0 
-5.653777823075e-04 4.199499716242e-04 0.0 
4.199499716242e-04 6.211499444375e-03 0.0 
0.0 0.0 0.0 
-5.158676493503e-04 3.493806961499e-04 0.0 
3.493806961499e-04 7.073857135326e-03 0.0 
0.0 0.0 0.0 
6.802407493733e-05 9.997991180233e-04 0.0 
9.997991180233e-04 9.129674691618e-03 0.0 
0.0 0.0 0.0 
9.492883279472e-05 9.184897712904e-04 0.0 
9.184897712904e-04 8.736914066160e-03 0.0 
0.0 0.0 0.0 
-2.901756409062e-04 5.588075103408e-04 0.0 
5.588075103408e-04 9.587901111995e-03 0.0 
0.0 0.0 0.0 
-4.044893882682e-04 3.423070175846e-04 0.0 
3.423070175846e-04 9.239957767134e-03 0.0 
0.0 0.0 0.0 
5.313902578370e-04 2.403574306864e-04 0.0 
2.403574306864e-04 4.593772078436e-03 0.0 
0.0 0.0 0.0 
-4.480174666369e-04 7.651184590914e-04 0.0 
7.651184590914e-04 5.938271402093e-03 0.0 
0.0 0.0 0.0 
3.941427604617e-04 6.203431527403e-04 0.0 
6.203431527403e-04 2.885268122111e-03 0.0 
0.0 0.0 0.0 
4.115387602579e-04 6.661255902735e-04 0.0 
6.661255902735e-04 3.353038857500e-03 0.0 
0.0 0.0 0.0 
-4.631892226534e-04 6.504573698210e-04 0.0 
6.504573698210e-04 7.237146155814e-03 0.0 
0.0 0.0 0.0 
4.316428001767e-04 5.823378088764e-04 0.0 
5.823378088764e-04 5.818005474626e-03 0.0 
0.0 0.0 0.0 
4.551391969101e-04 2.524844586578e-06 0.0 
2.524844586578e-06 3.839918239300e-03 0.0 
0.0 0.0 0.0 
-2.793317264781e-04 4.863602812118e-04 0.0 
4.863602812118e-04 9.728087721478e-03 0.0 
0.0 0.0 0.0 
4.627306221963e-04 2.881044753545e-04 0.0 
2.881044753545e-04 2.614476030430e-03 0.0 
0.0 0.0 0.0 
-3.086794689476e-04 8.440893418597e-04 0.0 
8.440893418597e-04 6.211878855602e-03 0.0 
0.0 0.0 0.0 
-4.909725016213e-04 4.932692020412e-04 0.0 
4.932692020412e-04 7.488819734476e-03 0.0 
0.0 0.0 0.0 
-3.424714192810e-04 8.502058123363e-04 0.0 
8.502058123363e-04 5.884596340385e-03 0.0 
0.0 0.0 0.0 
-1.022186372627e-04 7.127325413574e-04 0.0 
7.127325413574e-04 1.069275852889e-02 0.0 
0.0 0.0 0.0 
-9.633279034638e-05 6.045250463844e-04 0.0 
6.045250463844e-04 1.079621545390e-02 0.0 
0.0 0.0 0.0 
-1.880696186798e-04 5.432641332511e-04 0.0 
5.432641332511e-04 1.041507300424e-02 0.0 
0.0 0.0 0.0 
5.165357918915e-04 2.858037055392e-04 0.0 
2.858037055392e-04 5.043303855358e-03 0.0 
0.0 0.0 0.0 
-2.727697758209e-04 3.597344414282e-04 0.0 
3.597344414282e-04 9.692432107119e-03 0.0 
0.0 0.0 0.0 
-6.077709588226e-05 1.065687771616e-03 0.0 
1.065687771616e-03 3.734215998038e-03 0.0 
0.0 0.0 0.0 
4.101404002608e-04 6.952127150885e-04 0.0 
6.952127150885e-04 3.819263624655e-03 0.0 
0.0 0.0 0.0 
3.214913113547e-04 3.738970827094e-04 0.0 
3.738970827094e-04 2.000554372847e-03 0.0 
0.0 0.0 0.0 
-5.480477230910e-04 5.522431907440e-04 0.0 
5.522431907440e-04 6.263222543873e-03 0.0 
0.0 0.0 0.0 
-4.020306743819e-04 8.104688553754e-05 0.0 
8.104688553754e-05 7.753154805999e-03 0.0 
0.0 0.0 0.0 
-3.469936948816e-04 1.811335795767e-04 0.0 
1.811335795767e-04 8.598037461504e-03 0.0 
0.0 0.0 0.0 
1.607028111792e-04 8.160638652570e-04 0.0 
8.160638652570e-04 8.447030440589e-03 0.0 
0.0 0.0 0.0 
-2.867793075343e-04 6.400214827859e-04 0.0 
6.400214827859e-04 9.409588581615e-03 0.0 
0.0 0.0 0.0 
-4.677812889861e-04 3.429346774962e-04 0.0 
3.429346774962e-04 8.158457232627e-03 0.0 
0.0 0.0 0.0 
-4.579509449341e-04 5.102848730088e-04 0.0 
5.102848730088e-04 8.101293302025e-03 0.0 
0.0 0.0 0.0 
4.633656119730e-04 4.868265928962e-04 0.0 
4.868265928962e-04 2.030560348009e-03 0.0 
0.0 0.0 0.0 
-1.206188968809e-04 -1.080466613342e-04 0.0 
-1.080466613342e-04 8.060979020530e-04 0.0 
0.0 0.0 0.0 
7.967668036768e-05 9.668539056059e-04 0.0 
9.668539056059e-04 5.203701499927e-03 0.0 
0.0 0.0 0.0 
-2.795699844323e-04 8.349315624993e-04 0.0 
8.349315624993e-04 6.547764914119e-03 0.0 
0.0 0.0 0.0 
1.651535800495e-05 9.131296593589e-04 0.0 
9.131296593589e-04 5.667038093069e-03 0.0 
0.0 0.0 0.0 
-1.360893335668e-04 8.829143821680e-04 0.0 
8.829143821680e-04 1.719564792863e-03 0.0 
0.0 0.0 0.0 
-2.546956814456e-04 2.690053511761e-05 0.0 
2.690053511761e-05 8.063509672860e-03 0.0 
0.0 0.0 0.0 
1.523309946672e-04 -1.589298442396e-04 0.0 
-1.589298442396e-04 1.519096957867e-03 0.0 
0.0 0.0 0.0 
2.424445022948e-04 1.004910564434e-03 0.0 
1.004910564434e-03 3.397318727308e-03 0.0 
0.0 0.0 0.0 
0.0 8.323220779947e-04 0.0 
8.323220779947e-04 8.881306131841e-03 0.0 
0.0 0.0 0.0 
2.055636961904e-04 7.895178843195e-04 0.0 
7.895178843195e-04 6.920955768115e-03 0.0 
0.0 0.0 0.0 
-4.780060006823e-04 2.246710287475e-04 0.0 
2.246710287475e-04 7.669909752034e-03 0.0 
0.0 0.0 0.0 
8.382831327447e-05 7.823777253642e-06 0.0 
7.823777253642e-06 1.068048158685e-03 0.0 
0.0 0.0 0.0 
-3.864133359522e-04 7.499146433150e-04 0.0 
7.499146433150e-04 6.581427334832e-03 0.0 
0.0 0.0 0.0 
1.239762988854e-04 9.024847723763e-04 0.0 
9.024847723763e-04 5.212540286605e-03 0.0 
0.0 0.0 0.0 
-5.104968136005e-04 4.047875469172e-04 0.0 
4.047875469172e-04 8.270599409810e-03 0.0 
0.0 0.0 0.0 
-7.655233519566e-05 8.921316883312e-04 0.0 
8.921316883312e-04 1.046229975771e-02 0.0 
0.0 0.0 0.0 
-5.086086851230e-04 3.238495701463e-04 0.0 
3.238495701463e-04 7.318771358299e-03 0.0 
0.0 0.0 0.0 
-4.965383527427e-04 5.491673369613e-04 0.0 
5.491673369613e-04 7.825602341809e-03 0.0 
0.0 0.0 0.0 
4.964166130930e-04 8.409981615144e-05 0.0 
8.409981615144e-05 3.827479249209e-03 0.0 
0.0 0.0 0.0 
-2.986027024129e-04 4.266275538808e-04 0.0 
4.266275538808e-04 9.602966303696e-03 0.0 
0.0 0.0 0.0 
5.449280414185e-04 3.542339853344e-04 0.0 
3.542339853344e-04 5.184862190393e-03 0.0 
0.0 0.0 0.0 
-8.060489758810e-05 9.394618858647e-04 0.0 
9.394618858647e-04 1.036285533624e-02 0.0 
0.0 0.0 0.0 
0.0 7.137693191570e-04 0.0 
7.137693191570e-04 1.066134356929e-02 0.0 
0.0 0.0 0.0 
0.0 4.942885774497e-04 0.0 
4.942885774497e-04 1.088268378609e-02 0.0 
0.0 0.0 0.0 
0.0 5.976611467585e-04 0.0 
5.976611467585e-04 1.076893274251e-02 0.0 
0.0 0.0 0.0 
-4.458097347800e-04 4.851110445252e-04 0.0 
4.851110445252e-04 8.366165456356e-03 0.0 
0.0 0.0 0.0 
-3.524985011496e-04 3.914158455730e-04 0.0 
3.914158455730e-04 9.607786668155e-03 0.0 
0.0 0.0 0.0 
-2.526998360154e-04 6.312442566578e-04 0.0 
6.312442566578e-04 9.687581071467e-03 0.0 
0.0 0.0 0.0 
-3.591482287688e-04 8.116718995002e-04 0.0 
8.116718995002e-04 5.889355475186e-03 0.0 
0.0 0.0 0.0 
-4.386072902033e-04 6.977163236871e-04 0.0 
6.977163236871e-04 5.946727856726e-03 0.0 
0.0 0.0 0.0 
4.300521713501e-04 -2.721459399704e-05 0.0 
-2.721459399704e-05 3.596394667883e-03 0.0 
0.0 0.0 0.0 
-3.342496258877e-04 4.525470389474e-04 0.0 
4.525470389474e-04 9.733392023315e-03 0.0 
0.0 0.0 0.0 
-5.481342265012e-05 1.024813772263e-03 0.0 
1.024813772263e-03 1.013833419192e-02 0.0 
0.0 0.0 0.0 
-2.575466700937e-04 4.139452249436e-04 0.0 
4.139452249436e-04 9.830658075880e-03 0.0 
0.0 0.0 0.0 
2.306178482225e-04 7.817351386714e-04 0.0 
7.817351386714e-04 6.481553781751e-03 0.0 
0.0 0.0 0.0 
-3.081201362318e-04 3.782965937084e-04 0.0 
3.782965937084e-04 9.835758778318e-03 0.0 
0.0 0.0 0.0 
-1.806575370895e-04 8.243239927131e-04 0.0 
8.243239927131e-04 7.971200091897e-03 0.0 
0.0 0.0 0.0 
-2.343942489934e-04 8.814719967927e-04 0.0 
8.814719967927e-04 6.160536750607e-03 0.0 
0.0 0.0 0.0 
-5.051012763612e-04 4.846004962432e-04 0.0 
4.846004962432e-04 6.270188606469e-03 0.0 
0.0 0.0 0.0 
3.358423449251e-04 8.656449794978e-04 0.0 
8.656449794978e-04 2.417687418024e-03 0.0 
0.0 0.0 0.0 
-7.288813302864e-05 3.343110384947e-04 0.0 
3.343110384947e-04 1.066912526231e-02 0.0 
0.0 0.0 0.0 
-2.830545839483e-04 8.968524905379e-04 0.0 
8.968524905379e-04 5.483767553368e-03 0.0 
0.0 0.0 0.0 
-8.737494915556e-05 8.893891136136e-04 0.0 
8.893891136136e-04 9.451523873924e-03 0.0 
0.0 0.0 0.0 
4.679772151188e-04 5.140673898847e-05 0.0 
5.140673898847e-05 3.584394426126e-03 0.0 
0.0 0.0 0.0 
3.897902566592e-04 -8.532433549484e-06 0.0 
-8.532433549484e-06 2.299934910299e-03 0.0 
0.0 0.0 0.0 
1.004384008443e-04 7.606452322932e-04 0.0 
7.606452322932e-04 8.398954865922e-03 0.0 
0.0 0.0 0.0 
9.608355233515e-05 1.047318992072e-03 0.0 
1.047318992072e-03 3.941737194918e-03 0.0 
0.0 0.0 0.0 
0.0 7.708627490171e-04 0.0 
7.708627490171e-04 1.059430104719e-02 0.0 
0.0 0.0 0.0 
-1.105711546868e-04 5.194884824082e-04 0.0 
5.194884824082e-04 1.053214257801e-02 0.0 
0.0 0.0 0.0 
-4.135668388136e-04 6.607571654679e-04 0.0 
6.607571654679e-04 7.574132251584e-03 0.0 
0.0 0.0 0.0 
-1.192122786896e-04 -9.148082342134e-05 0.0 
-9.148082342134e-05 4.512266114780e-04 0.0 
0.0 0.0 0.0 
0.0 8.727428433870e-04 0.0 
8.727428433870e-04 1.041311126363e-02 0.0 
0.0 0.0 0.0 
7.551973360309e-05 8.454431756791e-04 0.0 
8.454431756791e-04 8.614703130243e-03 0.0 
0.0 0.0 0.0 
4.675655805602e-04 1.253054691454e-04 0.0 
1.253054691454e-04 2.279325452202e-03 0.0 
0.0 0.0 0.0 
2.788574944690e-04 7.471070356597e-04 0.0 
7.471070356597e-04 6.526006508899e-03 0.0 
0.0 0.0 0.0 
2.024111611854e-05 1.080591127920e-03 0.0 
1.080591127920e-03 9.509423611214e-03 0.0 
0.0 0.0 0.0 
-2.297554956772e-04 -3.773149092563e-05 0.0 
-3.773149092563e-05 2.205861548359e-04 0.0 
0.0 0.0 0.0 
-2.599478089845e-04 8.889169843779e-04 0.0 
8.889169843779e-04 5.820022815802e-03 0.0 
0.0 0.0 0.0 
-4.255405765123e-04 6.195694739060e-04 0.0 
6.195694739060e-04 7.878288078313e-03 0.0 
0.0 0.0 0.0 
-3.902782101174e-04 7.097086922336e-04 0.0 
7.097086922336e-04 7.252918115345e-03 0.0 
0.0 0.0 0.0 
-4.592101517735e-04 5.813716240501e-04 0.0 
5.813716240501e-04 7.539860791857e-03 0.0 
0.0 0.0 0.0 
2.489819132903e-04 9.947945366154e-04 0.0 
9.947945366154e-04 2.949646492190e-03 0.0 
0.0 0.0 0.0 
0.0 9.586607693842e-04 0.0 
9.586607693842e-04 1.019782327326e-02 0.0 
0.0 0.0 0.0 
3.982533650979e-04 7.121669991924e-04 0.0 
7.121669991924e-04 4.280222059706e-03 0.0 
0.0 0.0 0.0 
8.116644429168e-05 9.276887629889e-05 0.0 
9.276887629889e-05 1.219190289454e-03 0.0 
0.0 0.0 0.0 
1.640674820906e-04 3.739497970645e-04 0.0 
3.739497970645e-04 7.989164084893e-03 0.0 
0.0 0.0 0.0 
-2.305978995527e-04 -8.436400752692e-05 0.0 
-8.436400752692e-05 4.820545940849e-04 0.0 
0.0 0.0 0.0 
-5.171764484568e-04 3.832452835301e-04 0.0 
3.832452835301e-04 6.821072386010e-03 0.0 
0.0 0.0 0.0 
1.480239561031e-04 -6.449933553719e-05 0.0 
-6.449933553719e-05 1.075810131621e-03 0.0 
0.0 0.0 0.0 
-4.985704652902e-04 2.444915384376e-04 0.0 
2.444915384376e-04 7.199370006775e-03 0.0 
0.0 0.0 0.0 
7.786385993658e-05 9.456995815510e-04 0.0 
9.456995815510e-04 9.016842378814e-03 0.0 
0.0 0.0 0.0 
0.0 1.018426029899e-03 0.0 
1.018426029899e-03 9.958868056877e-03 0.0 
0.0 0.0 0.0 
-4.776730866071e-04 4.339286924899e-04 0.0 
4.339286924899e-04 8.017060594743e-03 0.0 
0.0 0.0 0.0 
-1.061015525916e-05 -1.161711111753e-04 0.0 
-1.161711111753e-04 7.791254816629e-04 0.0 
0.0 0.0 0.0 
5.839281699394e-05 1.879054685974e-04 0.0 
1.879054685974e-04 9.181416945054e-04 0.0 
0.0 0.0 0.0 
-6.749192878130e-06 -7.552231554986e-05 0.0 
-7.552231554986e-05 1.146126975946e-03 0.0 
0.0 0.0 0.0 
3.211094940283e-04 3.435113100242e-04 0.0 
3.435113100242e-04 6.918544878234e-03 0.0 
0.0 0.0 0.0 
-4.135093430769e-04 1.016409595783e-04 0.0 
1.016409595783e-04 7.732532689876e-03 0.0 
0.0 0.0 0.0 
-5.069722038561e-04 1.983393257204e-04 0.0 
1.983393257204e-04 7.889802174227e-03 0.0 
0.0 0.0 0.0 
0.0 1.040684817710e-03 0.0 
1.040684817710e-03 9.710482971324e-03 0.0 
0.0 0.0 0.0 
-3.968830168281e-04 7.216795672525e-05 0.0 
7.216795672525e-05 7.740613860799e-03 0.0 
0.0 0.0 0.0 
-8.192203066504e-05 4.891639312631e-04 0.0 
4.891639312631e-04 1.090194893498e-02 0.0 
0.0 0.0 0.0 
-1.114042095831e-04 8.771654328727e-04 0.0 
8.771654328727e-04 7.978281931210e-03 0.0 
0.0 0.0 0.0 
-3.400305963045e-04 1.426415033524e-04 0.0 
1.426415033524e-04 8.415579042602e-03 0.0 
0.0 0.0 0.0 
-3.428374522499e-04 8.824011654635e-04 0.0 
8.824011654635e-04 4.829594102249e-03 0.0 
0.0 0.0 0.0 
2.722673476907e-04 8.240308100369e-04 0.0 
8.240308100369e-04 6.515298973671e-03 0.0 
0.0 0.0 0.0 
2.605924703554e-04 4.769035989692e-04 0.0 
4.769035989692e-04 1.986893324002e-03 0.0 
0.0 0.0 0.0 
0.0 1.020922538956e-03 0.0 
1.020922538956e-03 9.447271298119e-03 0.0 
0.0 0.0 0.0 
0.0 6.580724448494e-04 0.0 
6.580724448494e-04 1.072197791402e-02 0.0 
0.0 0.0 0.0 
0.0 5.413708489630e-04 0.0 
5.413708489630e-04 1.083740182553e-02 0.0 
0.0 0.0 0.0 
5.038940737785e-04 2.632851127879e-04 0.0 
2.632851127879e-04 5.198580383814e-03 0.0 
0.0 0.0 0.0 
4.025774014429e-04 -4.921678676524e-05 0.0 
-4.921678676524e-05 3.357971589648e-03 0.0 
0.0 0.0 0.0 
-1.966454555469e-04 8.885901619409e-04 0.0 
8.885901619409e-04 6.159224069028e-03 0.0 
0.0 0.0 0.0 
5.270042234915e-04 3.293614642969e-04 0.0 
3.293614642969e-04 5.342996320255e-03 0.0 
0.0 0.0 0.0 
0.0 9.694200724511e-04 0.0 
9.694200724511e-04 9.204517862337e-03 0.0 
0.0 0.0 0.0 
2.541829516514e-04 8.746652627679e-04 0.0 
8.746652627679e-04 3.416671463637e-03 0.0 
0.0 0.0 0.0 
5.622397026777e-04 3.267418277266e-04 0.0 
3.267418277266e-04 2.843224309780e-03 0.0 
0.0 0.0 0.0 
5.648358975552e-04 2.758032074200e-04 0.0 
2.758032074200e-04 2.983154771311e-03 0.0 
0.0 0.0 0.0 
-3.157380975098e-04 1.463546161019e-04 0.0 
1.463546161019e-04 8.645109065202e-03 0.0 
0.0 0.0 0.0 
8.117370671923e-05 7.785331015382e-04 0.0 
7.785331015382e-04 8.746304393304e-03 0.0 
0.0 0.0 0.0 
-1.645906091370e-04 -1.022098425022e-04 0.0 
-1.022098425022e-04 8.306894929586e-04 0.0 
0.0 0.0 0.0 
0.0 8.805108424806e-04 0.0 
8.805108424806e-04 8.967568311920e-03 0.0 
0.0 0.0 0.0 
5.279589342539e-04 1.811754399068e-04 0.0 
1.811754399068e-04 2.699790399835e-03 0.0 
0.0 0.0 0.0 
0.0 8.254494443374e-04 0.0 
8.254494443374e-04 1.051658238370e-02 0.0 
0.0 0.0 0.0 
-3.152976413454e-04 6.021683228598e-04 0.0 
6.021683228598e-04 9.692999167742e-03 0.0 
0.0 0.0 0.0 
-3.762698784777e-04 -3.598909138023e-05 0.0 
-3.598909138023e-05 2.723966996561e-04 0.0 
0.0 0.0 0.0 
-1.469653939534e-04 9.344131893249e-04 0.0 
9.344131893249e-04 5.735629621440e-03 0.0 
0.0 0.0 0.0 
-2.782590456064e-04 3.083605772252e-04 0.0 
3.083605772252e-04 9.921001260369e-03 0.0 
0.0 0.0 0.0 
0.0 9.198302202062e-04 0.0 
9.198302202062e-04 1.031177679090e-02 0.0 
0.0 0.0 0.0 
-4.904424324150e-04 4.780916393778e-04 0.0 
4.780916393778e-04 8.367282164159e-03 0.0 
0.0 0.0 0.0 
-4.430767001207e-05 8.981823243613e-04 0.0 
8.981823243613e-04 7.993967635125e-03 0.0 
0.0 0.0 0.0 
2.618575833433e-04 8.122700544399e-04 0.0 
8.122700544399e-04 1.983258545119e-03 0.0 
0.0 0.0 0.0 
1.608394234742e-04 7.843976274780e-04 0.0 
7.843976274780e-04 8.158933393748e-03 0.0 
0.0 0.0 0.0 
5.274260834482e-04 1.516195275344e-04 0.0 
1.516195275344e-04 2.856072618052e-03 0.0 
0.0 0.0 0.0 
4.976771888692e-04 1.427745083976e-04 0.0 
1.427745083976e-04 3.001219034037e-03 0.0 
0.0 0.0 0.0 
-3.521089482742e-04 -8.903622942050e-05 0.0 
-8.903622942050e-05 5.577462211159e-04 0.0 
0.0 0.0 0.0 
0.0 9.913459972560e-04 0.0 
9.913459972560e-04 1.007909892646e-02 0.0 
0.0 0.0 0.0 
3.479904150518e-04 5.574774630898e-04 0.0 
5.574774630898e-04 2.425012634860e-03 0.0 
0.0 0.0 0.0 
3.250900168070e-04 5.552791217370e-04 0.0 
5.552791217370e-04 7.107506306798e-03 0.0 
0.0 0.0 0.0 
-3.659320901244e-04 5.780124613665e-05 0.0 
5.780124613665e-05 8.215674874551e-03 0.0 
0.0 0.0 0.0 
3.577911202961e-04 -8.221057918735e-05 0.0 
-8.221057918735e-05 2.373294537514e-03 0.0 
0.0 0.0 0.0 
4.904767071363e-04 1.806226334229e-04 0.0 
1.806226334229e-04 2.864671955799e-03 0.0 
0.0 0.0 0.0 
-4.977066183461e-04 5.106676842155e-04 0.0 
5.106676842155e-04 8.101423283546e-03 0.0 
0.0 0.0 0.0 
0.0 1.033513180137e-03 0.0 
1.033513180137e-03 9.581196191750e-03 0.0 
0.0 0.0 0.0 
4.346074416326e-04 3.168146860054e-05 0.0 
3.168146860054e-05 3.526212887908e-03 0.0 
0.0 0.0 0.0 
4.528776465305e-04 3.734914871293e-04 0.0 
3.734914871293e-04 5.964969374657e-03 0.0 
0.0 0.0 0.0 
-2.731752310952e-04 8.251781794047e-04 0.0 
8.251781794047e-04 6.893357079170e-03 0.0 
0.0 0.0 0.0 
4.818101672994e-04 4.671039941364e-04 0.0 
4.671039941364e-04 5.556129436607e-03 0.0 
0.0 0.0 0.0 
5.149067514445e-04 2.934715302588e-04 0.0 
2.934715302588e-04 3.182890995463e-03 0.0 
0.0 0.0 0.0 
4.904226827513e-04 3.301314954769e-04 0.0 
3.301314954769e-04 5.500163716043e-03 0.0 
0.0 0.0 0.0 
-3.450070865865e-04 7.782234720747e-04 0.0 
7.782234720747e-04 6.910868240279e-03 0.0 
0.0 0.0 0.0 
-2.904837592703e-04 7.616287935825e-04 0.0 
7.616287935825e-04 8.296172632815e-03 0.0 
0.0 0.0 0.0 
2.463135485824e-04 8.323818180858e-04 0.0 
8.323818180858e-04 6.959045687632e-03 0.0 
0.0 0.0 0.0 
-2.093241779464e-04 8.738033725692e-04 0.0 
8.738033725692e-04 6.510579518004e-03 0.0 
0.0 0.0 0.0 
5.046322556455e-04 8.642268483554e-05 0.0 
8.642268483554e-05 3.652290627151e-03 0.0 
0.0 0.0 0.0 
1.428586032566e-04 9.704777319219e-04 0.0 
9.704777319219e-04 3.952551636437e-03 0.0 
0.0 0.0 0.0 
4.364551722316e-04 2.634469240303e-05 0.0 
2.634469240303e-05 3.346441997206e-03 0.0 
0.0 0.0 0.0 
-1.100692996201e-04 8.472064941235e-04 0.0 
8.472064941235e-04 7.983534926342e-03 0.0 
0.0 0.0 0.0 
3.736665278842e-04 7.706073082722e-04 0.0 
7.706073082722e-04 5.665683992405e-03 0.0 
0.0 0.0 0.0 
8.241505516415e-05 8.935053271416e-04 0.0 
8.935053271416e-04 8.924806507882e-03 0.0 
0.0 0.0 0.0 
-2.628217081349e-04 3.633752863630e-04 0.0 
3.633752863630e-04 1.006065758095e-02 0.0 
0.0 0.0 0.0 
3.530177997522e-04 -1.935313544402e-05 0.0 
-1.935313544402e-05 2.125440648330e-03 0.0 
0.0 0.0 0.0 
0.0 9.267622361087e-04 0.0 
9.267622361087e-04 9.069153274358e-03 0.0 
0.0 0.0 0.0 
1.611413576190e-04 8.697835531883e-04 0.0 
8.697835531883e-04 8.557791414051e-03 0.0 
0.0 0.0 0.0 
7.492204727022e-05 9.386976037489e-04 0.0 
9.386976037489e-04 5.617347904332e-03 0.0 
0.0 0.0 0.0 
-1.637133071318e-04 -9.539864651594e-05 0.0 
-9.539864651594e-05 4.811106114844e-04 0.0 
0.0 0.0 0.0 
1.074992834613e-04 7.254038516029e-04 0.0 
7.254038516029e-04 8.671719572332e-03 0.0 
0.0 0.0 0.0 
-2.891706156034e-04 4.391063935634e-04 0.0 
4.391063935634e-04 9.963233179110e-03 0.0 
0.0 0.0 0.0 
4.740364534506e-04 1.001869339408e-04 0.0 
1.001869339408e-04 2.437935123439e-03 0.0 
0.0 0.0 0.0 
0.0 7.749895916458e-04 0.0 
7.749895916458e-04 8.780680283287e-03 0.0 
0.0 0.0 0.0 
4.746027103464e-04 3.075492428839e-04 0.0 
3.075492428839e-04 5.656829933375e-03 0.0 
0.0 0.0 0.0 
-4.759913640507e-04 6.116974607145e-04 0.0 
6.116974607145e-04 6.282117714882e-03 0.0 
0.0 0.0 0.0 
-4.643483616112e-04 2.774520647115e-04 0.0 
2.774520647115e-04 8.032594333331e-03 0.0 
0.0 0.0 0.0 
3.345545147904e-04 7.309044584001e-04 0.0 
7.309044584001e-04 5.633656387168e-03 0.0 
0.0 0.0 0.0 
5.211760227353e-04 2.168990943227e-04 0.0 
2.168990943227e-04 4.745889962254e-03 0.0 
0.0 0.0 0.0 
4.431612177851e-04 5.415991869530e-04 0.0 
5.415991869530e-04 5.909608349663e-03 0.0 
0.0 0.0 0.0 
-4.432369591436e-04 2.919789611171e-04 0.0 
2.919789611171e-04 8.865610975207e-03 0.0 
0.0 0.0 0.0 
-5.065761102199e-04 4.849182049398e-04 0.0 
4.849182049398e-04 6.881878361220e-03 0.0 
0.0 0.0 0.0 
1.807292687159e-04 8.703023615277e-04 0.0 
8.703023615277e-04 7.349481046082e-03 0.0 
0.0 0.0 0.0 
-2.569734558827e-04 1.529436850538e-05 0.0 
1.529436850538e-05 8.413011427034e-03 0.0 
0.0 0.0 0.0 
4.589846452137e-04 1.354818021605e-06 0.0 
1.354818021605e-06 3.665321676316e-03 0.0 
0.0 0.0 0.0 
3.148291064143e-04 7.879039225234e-04 0.0 
7.879039225234e-04 6.568156336447e-03 0.0 
0.0 0.0 0.0 
4.618463088533e-04 3.359324106242e-05 0.0 
3.359324106242e-05 2.871345915596e-03 0.0 
0.0 0.0 0.0 
4.690533368912e-04 1.735993693227e-04 0.0 
1.735993693227e-04 5.301034016616e-03 0.0 
0.0 0.0 0.0 
-4.405004979871e-04 -3.820529336202e-05 0.0 
-3.820529336202e-05 2.982677594459e-04 0.0 
0.0 0.0 0.0 
1.022158443442e-05 1.015030101052e-03 0.0 
1.015030101052e-03 4.491745466237e-03 0.0 
0.0 0.0 0.0 
4.558460157402e-04 5.206312121806e-05 0.0 
5.206312121806e-05 2.718469296362e-03 0.0 
0.0 0.0 0.0 
4.871578121481e-04 8.236186826837e-05 0.0 
8.236186826837e-05 4.005510272924e-03 0.0 
0.0 0.0 0.0 
-2.426474978401e-05 9.288428466407e-04 0.0 
9.288428466407e-04 6.053155897130e-03 0.0 
0.0 0.0 0.0 
5.126493900778e-04 3.946885968837e-04 0.0 
3.946885968837e-04 5.643783583582e-03 0.0 
0.0 0.0 0.0 
-3.422771712912e-04 6.848179240588e-05 0.0 
6.848179240588e-05 8.468898221170e-03 0.0 
0.0 0.0 0.0 
4.023586654289e-04 -2.347126727434e-05 0.0 
-2.347126727434e-05 2.457586120636e-03 0.0 
0.0 0.0 0.0 
0.0 7.253814921514e-04 0.0 
7.253814921514e-04 8.711638350881e-03 0.0 
0.0 0.0 0.0 
-4.498015225999e-04 6.243136139324e-04 0.0 
6.243136139324e-04 7.877752043516e-03 0.0 
0.0 0.0 0.0 
4.771859270265e-04 8.122732452684e-05 0.0 
8.122732452684e-05 4.183001375393e-03 0.0 
0.0 0.0 0.0 
-4.281854287941e-04 6.710144788058e-04 0.0 
6.710144788058e-04 7.572770367040e-03 0.0 
0.0 0.0 0.0 
4.502206041603e-04 5.107090216773e-06 0.0 
5.107090216773e-06 4.017213824710e-03 0.0 
0.0 0.0 0.0 
-2.719915578990e-04 -3.883793767713e-05 0.0 
-3.883793767713e-05 2.405206649247e-04 0.0 
0.0 0.0 0.0 
-4.959013154801e-04 2.520951143195e-04 0.0 
2.520951143195e-04 8.264894007897e-03 0.0 
0.0 0.0 0.0 
3.771098387491e-04 2.498631835449e-05 0.0 
2.498631835449e-05 3.269716791251e-03 0.0 
0.0 0.0 0.0 
-6.011659406169e-05 -2.591445264029e-05 0.0 
-2.591445264029e-05 1.399473004928e-04 0.0 
0.0 0.0 0.0 
4.574267110697e-04 5.696541236433e-05 0.0 
5.696541236433e-05 3.938833148084e-03 0.0 
0.0 0.0 0.0 
4.679430199244e-04 4.330985883011e-04 0.0 
4.330985883011e-04 6.108480947054e-03 0.0 
0.0 0.0 0.0 
-1.498728509406e-04 1.284106721212e-04 0.0 
1.284106721212e-04 9.957898488804e-03 0.0 
0.0 0.0 0.0 
4.768021073389e-04 5.087473394711e-04 0.0 
5.087473394711e-04 5.452572828724e-03 0.0 
0.0 0.0 0.0 
5.067548342597e-04 5.605135554591e-04 0.0 
5.605135554591e-04 5.539887539004e-03 0.0 
0.0 0.0 0.0 
-5.059897072353e-04 1.562722941541e-04 0.0 
1.562722941541e-04 7.528929347494e-03 0.0 
0.0 0.0 0.0 
-3.951398094888e-04 4.001608671615e-05 0.0 
4.001608671615e-05 7.374447127789e-03 0.0 
0.0 0.0 0.0 
-7.681944466187e-05 3.952186671760e-04 0.0 
3.952186671760e-04 1.064378287554e-02 0.0 
0.0 0.0 0.0 
-3.941785941515e-04 7.219149324752e-04 0.0 
7.219149324752e-04 7.251345141593e-03 0.0 
0.0 0.0 0.0 
-8.483751468424e-05 -2.237720569061e-05 0.0 
-2.237720569061e-05 1.459967411110e-04 0.0 
0.0 0.0 0.0 
9.647089459364e-05 -1.556737941831e-04 0.0 
-1.556737941831e-04 1.285959383983e-03 0.0 
0.0 0.0 0.0 
-1.509781896559e-04 -9.725322937766e-05 0.0 
-9.725322937766e-05 4.693009958381e-04 0.0 
0.0 0.0 0.0 
3.143989191050e-04 -1.081232917928e-04 0.0 
-1.081232917928e-04 2.290720067836e-03 0.0 
0.0 0.0 0.0 
-2.741068289029e-04 7.422134542635e-04 0.0 
7.422134542635e-04 9.284607064014e-03 0.0 
0.0 0.0 0.0 
-1.715506848963e-04 7.411211674449e-05 0.0 
7.411211674449e-05 9.964475431863e-03 0.0 
0.0 0.0 0.0 
3.794334045315e-04 3.577962064423e-04 0.0 
3.577962064423e-04 6.604112213120e-03 0.0 
0.0 0.0 0.0 
3.440849212897e-04 -9.620773116188e-05 0.0 
-9.620773116188e-05 2.604779190935e-03 0.0 
0.0 0.0 0.0 
4.404998907193e-04 9.905702904027e-05 0.0 
9.905702904027e-05 5.313220191959e-03 0.0 
0.0 0.0 0.0 
3.340565327339e-04 6.037796342536e-04 0.0 
6.037796342536e-04 7.230153155241e-03 0.0 
0.0 0.0 0.0 
2.536478894941e-04 1.912654168556e-04 0.0 
1.912654168556e-04 1.626521991257e-03 0.0 
0.0 0.0 0.0 
3.687733587849e-04 -4.772525922878e-05 0.0 
-4.772525922878e-05 3.271025215116e-03 0.0 
0.0 0.0 0.0 
3.243655688130e-04 2.167940947853e-05 0.0 
2.167940947853e-05 2.662042297402e-03 0.0 
0.0 0.0 0.0 
9.213965059107e-05 6.632763487060e-04 0.0 
6.632763487060e-04 8.594434171883e-03 0.0 
0.0 0.0 0.0 
0.0 6.599568504685e-04 0.0 
6.599568504685e-04 8.631874626915e-03 0.0 
0.0 0.0 0.0 
3.941692652094e-04 -3.232037473129e-05 0.0 
-3.232037473129e-05 3.661124940726e-03 0.0 
0.0 0.0 0.0 
4.467898478131e-04 6.690450491674e-06 0.0 
6.690450491674e-06 4.194554576196e-03 0.0 
0.0 0.0 0.0 
5.513244251765e-04 2.881911769162e-04 0.0 
2.881911769162e-04 4.890104141198e-03 0.0 
0.0 0.0 0.0 
2.928525311798e-04 6.753707252354e-04 0.0 
6.753707252354e-04 7.570881766171e-03 0.0 
0.0 0.0 0.0 
1.597173463799e-04 -6.397364074435e-05 0.0 
-6.397364074435e-05 1.418287752246e-03 0.0 
0.0 0.0 0.0 
3.765614071947e-04 5.363226852409e-04 0.0 
5.363226852409e-04 6.898889952572e-03 0.0 
0.0 0.0 0.0 
2.325315478369e-05 -4.806696936361e-05 0.0 
-4.806696936361e-05 7.509452726275e-04 0.0 
0.0 0.0 0.0 
4.278019823205e-04 -2.121941683387e-05 0.0 
-2.121941683387e-05 3.774073930915e-03 0.0 
0.0 0.0 0.0 
4.682761241401e-04 3.860171555057e-05 0.0 
3.860171555057e-05 4.266968801203e-03 0.0 
0.0 0.0 0.0 
3.322849834841e-05 -2.719442202337e-05 0.0 
-2.719442202337e-05 3.905393950072e-04 0.0 
0.0 0.0 0.0 
3.927563546191e-04 2.952005294913e-05 0.0 
2.952005294913e-05 3.461087016243e-03 0.0 
0.0 0.0 0.0 
-2.133672075002e-04 4.012686609395e-04 0.0 
4.012686609395e-04 1.005368999577e-02 0.0 
0.0 0.0 0.0 
-6.921131173798e-05 -1.935278232259e-05 0.0 
-1.935278232259e-05 1.405277499051e-04 0.0 
0.0 0.0 0.0 
-4.113896352237e-04 5.872560281733e-05 0.0 
5.872560281733e-05 7.375400823386e-03 0.0 
0.0 0.0 0.0 
-4.094737817101e-04 7.173699027064e-05 0.0 
7.173699027064e-05 7.361321073075e-03 0.0 
0.0 0.0 0.0 
3.944820833670e-04 6.103143092488e-04 0.0 
6.103143092488e-04 6.274968066742e-03 0.0 
0.0 0.0 0.0 
3.126978821957e-04 -4.187312100399e-05 0.0 
-4.187312100399e-05 2.659703033114e-03 0.0 
0.0 0.0 0.0 
4.779082744188e-04 8.057156472409e-05 0.0 
8.057156472409e-05 2.600395507741e-03 0.0 
0.0 0.0 0.0 
1.007129197754e-04 9.506041101261e-04 0.0 
9.506041101261e-04 3.126703340652e-03 0.0 
0.0 0.0 0.0 
2.742654581942e-04 3.587912234480e-04 0.0 
3.587912234480e-04 7.243402180690e-03 0.0 
0.0 0.0 0.0 
-5.742661955022e-05 9.187754742382e-04 0.0 
9.187754742382e-04 9.832136717368e-03 0.0 
0.0 0.0 0.0 
-2.292802025615e-04 1.211605394157e-04 0.0 
1.211605394157e-04 9.705145210029e-03 0.0 
0.0 0.0 0.0 
-3.082468687793e-04 9.732038873383e-04 0.0 
9.732038873383e-04 4.818057506874e-03 0.0 
0.0 0.0 0.0 
5.390120770610e-06 -5.690578065986e-05 0.0 
-5.690578065986e-05 8.695091424182e-04 0.0 
0.0 0.0 0.0 
-5.655030109218e-04 3.720815658989e-04 0.0 
3.720815658989e-04 7.071128179579e-03 0.0 
0.0 0.0 0.0 
-3.305839978909e-04 1.649828764203e-05 0.0 
1.649828764203e-05 7.380177167716e-03 0.0 
0.0 0.0 0.0 
-3.239720688833e-04 8.733532841912e-06 0.0 
8.733532841912e-06 7.368736461261e-03 0.0 
0.0 0.0 0.0 
-3.109262089429e-05 -2.217419337769e-05 0.0 
-2.217419337769e-05 1.310587465297e-04 0.0 
0.0 0.0 0.0 
2.328837285726e-05 -3.520695067782e-05 0.0 
-3.520695067782e-05 3.941337599074e-04 0.0 
0.0 0.0 0.0 
8.150034778143e-05 -3.335551659136e-05 0.0 
-3.335551659136e-05 7.273289672824e-04 0.0 
0.0 0.0 0.0 
2.683726559269e-04 -4.786297233193e-05 0.0 
-4.786297233193e-05 1.972493464391e-03 0.0 
0.0 0.0 0.0 
-1.847159802892e-06 -2.434425696180e-05 0.0 
-2.434425696180e-05 3.989435873140e-04 0.0 
0.0 0.0 0.0 
4.020502528956e-04 3.284639506957e-05 0.0 
3.284639506957e-05 3.879681933370e-03 0.0 
0.0 0.0 0.0 
-3.856311693188e-04 -4.113271606822e-05 0.0 
-4.113271606822e-05 2.876772184193e-04 0.0 
0.0 0.0 0.0 
3.351641072493e-04 -2.931538275744e-05 0.0 
-2.931538275744e-05 2.365665880626e-03 0.0 
0.0 0.0 0.0 
-2.198110235575e-04 3.615439759636e-05 0.0 
3.615439759636e-05 8.769532775797e-03 0.0 
0.0 0.0 0.0 
-3.709629007003e-04 3.931872309582e-05 0.0 
3.931872309582e-05 7.365088387255e-03 0.0 
0.0 0.0 0.0 
-2.620590689434e-04 7.246112819905e-04 0.0 
7.246112819905e-04 9.566966341279e-03 0.0 
0.0 0.0 0.0 
4.905946222136e-04 3.687817888053e-04 0.0 
3.687817888053e-04 5.801940785197e-03 0.0 
0.0 0.0 0.0 
-2.377862780956e-04 2.916394140428e-05 0.0 
2.916394140428e-05 8.400830391967e-03 0.0 
0.0 0.0 0.0 
3.339949085619e-04 3.373845148254e-05 0.0 
3.373845148254e-05 2.853054408466e-03 0.0 
0.0 0.0 0.0 
4.469344341085e-05 -3.466118957971e-05 0.0 
-3.466118957971e-05 7.379842156052e-04 0.0 
0.0 0.0 0.0 
0.0 2.005410492353e-04 0.0 
2.005410492353e-04 1.103049815290e-02 0.0 
0.0 0.0 0.0 
-6.090399509084e-05 2.253417338601e-04 0.0 
2.253417338601e-04 1.102247189798e-02 0.0 
0.0 0.0 0.0 
-3.275195962588e-04 1.157043069395e-04 0.0 
1.157043069395e-04 8.211291826713e-03 0.0 
0.0 0.0 0.0 
-3.571730363435e-04 2.044001901163e-05 0.0 
2.044001901163e-05 7.375499897593e-03 0.0 
0.0 0.0 0.0 
3.347400451241e-04 -3.916552672909e-05 0.0 
-3.916552672909e-05 2.893048019204e-03 0.0 
0.0 0.0 0.0 
-4.901728870310e-05 1.547264622780e-04 0.0 
1.547264622780e-04 1.104405629865e-02 0.0 
0.0 0.0 0.0 
2.839418899356e-04 -1.205792818380e-04 0.0 
-1.205792818380e-04 2.208881887180e-03 0.0 
0.0 0.0 0.0 
-3.886201788408e-04 5.152782056948e-05 0.0 
5.152782056948e-05 7.359185163043e-03 0.0 
0.0 0.0 0.0 
-3.659321915734e-04 3.204951960201e-05 0.0 
3.204951960201e-05 7.371951674870e-03 0.0 
0.0 0.0 0.0 
-5.071512682980e-04 2.623044907828e-04 0.0 
2.623044907828e-04 6.971750937576e-03 0.0 
0.0 0.0 0.0 
0.0 4.459220513666e-04 0.0 
4.459220513666e-04 1.092393080306e-02 0.0 
0.0 0.0 0.0 
-4.896554598510e-05 1.931692549059e-04 0.0 
1.931692549059e-04 1.103826638858e-02 0.0 
0.0 0.0 0.0 
-1.851247647455e-05 -3.109036075783e-05 0.0 
-3.109036075783e-05 4.033919999571e-04 0.0 
0.0 0.0 0.0 
-1.852769448174e-05 -1.479359394495e-05 0.0 
-1.479359394495e-05 1.288994105655e-04 0.0 
0.0 0.0 0.0 
5.827054338869e-05 -5.930239661226e-05 0.0 
-5.930239661226e-05 1.046327940105e-03 0.0 
0.0 0.0 0.0 
5.075949333138e-04 1.190821019100e-04 0.0 
1.190821019100e-04 4.254778219055e-03 0.0 
0.0 0.0 0.0 
1.847156687291e-04 7.807613319225e-05 0.0 
7.807613319225e-05 7.478705294441e-03 0.0 
0.0 0.0 0.0 
-6.485485074210e-04 -5.833144502990e-05 0.0 
-5.833144502990e-05 3.738890790890e-04 0.0 
0.0 0.0 0.0 
-1.694428142885e-04 -1.592931004645e-05 0.0 
-1.592931004645e-05 9.638308817454e-03 0.0 
0.0 0.0 0.0 
-3.511032928014e-04 -4.283608125604e-05 0.0 
-4.283608125604e-05 2.778177883906e-04 0.0 
0.0 0.0 0.0 
4.687315100298e-04 5.919788914275e-04 0.0 
5.919788914275e-04 6.002285061762e-03 0.0 
0.0 0.0 0.0 
-5.132785069301e-04 -4.123697445388e-05 0.0 
-4.123697445388e-05 3.299415957054e-04 0.0 
0.0 0.0 0.0 
-5.811252232352e-04 -5.115804185515e-05 0.0 
-5.115804185515e-05 3.532854475228e-04 0.0 
0.0 0.0 0.0 
5.082319060086e-04 5.218832376903e-04 0.0 
5.218832376903e-04 5.659882422032e-03 0.0 
0.0 0.0 0.0 
2.293067715928e-04 1.772524981778e-04 0.0 
1.772524981778e-04 7.256274351265e-03 0.0 
0.0 0.0 0.0 
-2.375400937501e-04 8.105380863866e-06 0.0 
8.105380863866e-06 8.740886035653e-03 0.0 
0.0 0.0 0.0 
-5.508541418209e-04 4.685379221638e-04 0.0 
4.685379221638e-04 7.151778568820e-03 0.0 
0.0 0.0 0.0 
4.479231278376e-05 -2.440356233352e-05 0.0 
-2.440356233352e-05 3.838696415186e-04 0.0 
0.0 0.0 0.0 
4.219541031272e-04 8.765894102026e-05 0.0 
8.765894102026e-05 5.494244882317e-03 0.0 
0.0 0.0 0.0 
0.0 5.928343097102e-05 0.0 
5.928343097102e-05 1.104059543200e-02 0.0 
0.0 0.0 0.0 
-4.388417201684e-05 5.218918522146e-05 0.0 
5.218918522146e-05 1.105455992138e-02 0.0 
0.0 0.0 0.0 
-3.524273428320e-04 2.904216781190e-05 0.0 
2.904216781190e-05 7.363979928069e-03 0.0 
0.0 0.0 0.0 
4.205842626472e-04 6.571653512201e-04 0.0 
6.571653512201e-04 6.356198829350e-03 0.0 
0.0 0.0 0.0 
0.0 1.713715629105e-04 0.0 
1.713715629105e-04 1.104655638555e-02 0.0 
0.0 0.0 0.0 
-4.811018900497e-05 8.567251125342e-04 0.0 
8.567251125342e-04 8.000008416282e-03 0.0 
0.0 0.0 0.0 
4.363202757696e-05 -1.430401643493e-05 0.0 
-1.430401643493e-05 7.179864330285e-04 0.0 
0.0 0.0 0.0 
1.418090992300e-05 -2.137632757838e-05 0.0 
-2.137632757838e-05 3.905537366102e-04 0.0 
0.0 0.0 0.0 
4.479312130945e-05 -2.332662140997e-05 0.0 
-2.332662140997e-05 3.798767256546e-04 0.0 
0.0 0.0 0.0 
3.715588300119e-04 3.304773926398e-05 0.0 
3.304773926398e-05 3.257167705160e-03 0.0 
0.0 0.0 0.0 
7.092661454089e-05 1.339544850612e-04 0.0 
1.339544850612e-04 8.279899173120e-03 0.0 
0.0 0.0 0.0 
-7.105797869045e-05 -3.119511005777e-05 0.0 
-3.119511005777e-05 1.063894656037e-02 0.0 
0.0 0.0 0.0 
1.503537420100e-05 -1.926843261722e-06 0.0 
-1.926843261722e-06 1.074268280188e-04 0.0 
0.0 0.0 0.0 
4.058111800687e-04 -3.129849876187e-05 0.0 
-3.129849876187e-05 3.879774441983e-03 0.0 
0.0 0.0 0.0 
0.0 1.240619633278e-04 0.0 
1.240619633278e-04 8.300113702356e-03 0.0 
0.0 0.0 0.0 
8.011674636355e-05 2.033533138292e-04 0.0 
2.033533138292e-04 8.284619682940e-03 0.0 
0.0 0.0 0.0 
1.141241121176e-04 6.007929955781e-04 0.0 
6.007929955781e-04 8.526067043520e-03 0.0 
0.0 0.0 0.0 
-1.968203367440e-04 4.227881600473e-05 0.0 
4.227881600473e-05 9.240902349947e-03 0.0 
0.0 0.0 0.0 
-1.490315376533e-04 -3.040030171154e-05 0.0 
-3.040030171154e-05 9.844191673765e-03 0.0 
0.0 0.0 0.0 
0.0 1.648181026438e-04 0.0 
1.648181026438e-04 8.266505930447e-03 0.0 
0.0 0.0 0.0 
0.0 2.101180544448e-04 0.0 
2.101180544448e-04 8.303514015430e-03 0.0 
0.0 0.0 0.0 
-1.637954033173e-04 3.935005993106e-05 0.0 
3.935005993106e-05 9.640256849973e-03 0.0 
0.0 0.0 0.0 
-6.945226002975e-06 1.073101552292e-05 0.0 
1.073101552292e-05 1.001561922682e-04 0.0 
0.0 0.0 0.0 
-2.980098345082e-04 6.330964627102e-06 0.0 
6.330964627102e-06 7.347458559396e-03 0.0 
0.0 0.0 0.0 
-3.391590048190e-04 2.407700980900e-05 0.0 
2.407700980900e-05 7.374280163362e-03 0.0 
0.0 0.0 0.0 
-1.719633247133e-06 -8.102264238915e-06 0.0 
-8.102264238915e-06 1.220967079039e-04 0.0 
0.0 0.0 0.0 
0.0 3.798792824642e-04 0.0 
3.798792824642e-04 8.398797217657e-03 0.0 
0.0 0.0 0.0 
9.798496456925e-05 5.404835983221e-04 0.0 
5.404835983221e-04 8.462870289669e-03 0.0 
0.0 0.0 0.0 
0.0 4.858864436886e-04 0.0 
4.858864436886e-04 8.432453752593e-03 0.0 
0.0 0.0 0.0 
-4.059512867527e-05 -1.429369756756e-06 0.0 
-1.429369756756e-06 1.271949179165e-04 0.0 
0.0 0.0 0.0 
-5.455937364085e-05 -1.092307140438e-05 0.0 
-1.092307140438e-05 1.364427115582e-04 0.0 
0.0 0.0 0.0 
0.0 6.056040208642e-04 0.0 
6.056040208642e-04 8.558553120738e-03 0.0 
0.0 0.0 0.0 
0.0 5.423481640457e-04 0.0 
5.423481640457e-04 8.496178024846e-03 0.0 
0.0 0.0 0.0 
-2.142551224897e-04 -3.363064663807e-05 0.0 
-3.363064663807e-05 9.036898237669e-03 0.0 
0.0 0.0 0.0 
-2.758805335176e-04 6.064122996575e-06 0.0 
6.064122996575e-06 7.331169945967e-03 0.0 
0.0 0.0 0.0 
-1.794266285235e-04 -3.232841772426e-05 0.0 
-3.232841772426e-05 9.441053856467e-03 0.0 
0.0 0.0 0.0 
-2.508719041406e-04 -3.385865175110e-05 0.0 
-3.385865175110e-05 8.212076726861e-03 0.0 
0.0 0.0 0.0 
-2.619093918891e-04 2.021793162638e-06 0.0 
2.021793162638e-06 7.326221195826e-03 0.0 
0.0 0.0 0.0 
-1.253950848482e-04 -1.355973090886e-05 0.0 
-1.355973090886e-05 1.671941627368e-04 0.0 
0.0 0.0 0.0 
-2.206209081276e-04 -3.210623688012e-05 0.0 
-3.210623688012e-05 2.162058075612e-04 0.0 
0.0 0.0 0.0 
-2.540154749429e-04 -3.122983011747e-05 0.0 
-3.122983011747e-05 2.196878445826e-04 0.0 
0.0 0.0 0.0 
-3.179044871561e-04 -3.542172443107e-05 0.0 
-3.542172443107e-05 2.482892779643e-04 0.0 
0.0 0.0 0.0 
4.126469841634e-04 3.928117297965e-05 0.0 
3.928117297965e-05 4.095333370974e-03 0.0 
0.0 0.0 0.0 
3.993013918213e-04 3.472151442693e-05 0.0 
3.472151442693e-05 3.669322081012e-03 0.0 
0.0 0.0 0.0 
-1.450296266104e-04 -2.865106626628e-05 0.0 
-2.865106626628e-05 1.870190263542e-04 0.0 
0.0 0.0 0.0 
4.094203222120e-04 3.979059138619e-05 0.0 
3.979059138619e-05 5.379839207112e-03 0.0 
0.0 0.0 0.0 
-1.965274349495e-04 -3.597866987978e-05 0.0 
-3.597866987978e-05 2.056091774369e-04 0.0 
0.0 0.0 0.0 
0.0 3.561416195427e-04 0.0 
3.561416195427e-04 1.097037932171e-02 0.0 
0.0 0.0 0.0 
0.0 1.427508967418e-04 0.0 
1.427508967418e-04 1.104163441047e-02 0.0 
0.0 0.0 0.0 
0.0 2.378740875391e-04 0.0 
2.378740875391e-04 1.101386808633e-02 0.0 
0.0 0.0 0.0 
1.357064996932e-04 3.732672796613e-05 0.0 
3.732672796613e-05 1.260563445983e-03 0.0 
0.0 0.0 0.0 
2.928883912006e-04 3.377171770154e-05 0.0 
3.377171770154e-05 2.451712870912e-03 0.0 
0.0 0.0 0.0 
0.0 1.107481528937e-04 0.0 
1.107481528937e-04 1.103302611195e-02 0.0 
0.0 0.0 0.0 
2.882138754132e-04 3.473852260235e-05 0.0 
3.473852260235e-05 6.771935918249e-03 0.0 
0.0 0.0 0.0 
0.0 8.470782728414e-05 0.0 
8.470782728414e-05 1.107865414320e-02 0.0 
0.0 0.0 0.0 
2.175209845123e-04 3.685578221119e-05 0.0 
3.685578221119e-05 7.254753337721e-03 0.0 
0.0 0.0 0.0 
1.364212700528e-04 4.448396548137e-05 0.0 
4.448396548137e-05 7.747671696595e-03 0.0 
0.0 0.0 0.0 
3.853792056949e-04 -3.778389328085e-05 0.0 
-3.778389328085e-05 3.461112069312e-03 0.0 
0.0 0.0 0.0 
-5.639498435550e-05 1.222359032774e-04 0.0 
1.222359032774e-04 1.103713625420e-02 0.0 
0.0 0.0 0.0 
-4.587279641488e-05 1.209823812390e-04 0.0 
1.209823812390e-04 1.105030361612e-02 0.0 
0.0 0.0 0.0 
2.496617196004e-04 -3.551855942198e-06 0.0 
-3.551855942198e-06 6.987817464513e-03 0.0 
0.0 0.0 0.0 
1.760846957342e-04 9.013620038647e-07 0.0 
9.013620038647e-07 7.483080585303e-03 0.0 
0.0 0.0 0.0 
3.854826147824e-04 6.097397962333e-05 0.0 
6.097397962333e-05 5.866966603197e-03 0.0 
0.0 0.0 0.0 
-3.134503887930e-04 -4.282349310995e-05 0.0 
-4.282349310995e-05 2.613707636872e-04 0.0 
0.0 0.0 0.0 
4.009207338611e-04 -4.091989293187e-05 0.0 
-4.091989293187e-05 3.536629372948e-03 0.0 
0.0 0.0 0.0 
-3.020436593137e-05 -4.276246099075e-05 0.0 
-4.276246099075e-05 4.014643367596e-04 0.0 
0.0 0.0 0.0 
2.527750037322e-04 2.979208175766e-04 0.0 
2.979208175766e-04 7.249616077492e-03 0.0 
0.0 0.0 0.0 
4.626641321899e-04 5.351747195136e-05 0.0 
5.351747195136e-05 3.762557428637e-03 0.0 
0.0 0.0 0.0 
3.298073397158e-04 1.844013793998e-04 0.0 
1.844013793998e-04 6.585536816319e-03 0.0 
0.0 0.0 0.0 
2.151304138047e-04 -1.397832353663e-04 0.0 
-1.397832353663e-04 1.817666781378e-03 0.0 
0.0 0.0 0.0 
4.174418249070e-05 -3.882075602070e-05 0.0 
-3.882075602070e-05 7.219084602801e-04 0.0 
0.0 0.0 0.0 
2.567578514507e-04 1.351482695785e-04 0.0 
1.351482695785e-04 7.060536049298e-03 0.0 
0.0 0.0 0.0 
4.318509775536e-04 -1.693371911521e-05 0.0 
-1.693371911521e-05 3.950863691590e-03 0.0 
0.0 0.0 0.0 
3.517534863757e-04 2.611943619015e-05 0.0 
2.611943619015e-05 3.059006733823e-03 0.0 
0.0 0.0 0.0 
3.184773580958e-04 1.166585673547e-04 0.0 
1.166585673547e-04 6.596361972778e-03 0.0 
0.0 0.0 0.0 
-1.102589259001e-04 7.780327691012e-05 0.0 
7.780327691012e-05 1.020083856445e-02 0.0 
0.0 0.0 0.0 
3.526446140325e-04 -4.091163356592e-05 0.0 
-4.091163356592e-05 3.057738373921e-03 0.0 
0.0 0.0 0.0 
4.047657712238e-04 4.163879628505e-04 0.0 
4.163879628505e-04 6.436644008369e-03 0.0 
0.0 0.0 0.0 
4.894612817714e-04 2.341526992560e-04 0.0 
2.341526992560e-04 5.394662890679e-03 0.0 
0.0 0.0 0.0 
3.981016373145e-04 1.322097469796e-04 0.0 
1.322097469796e-04 5.855909654837e-03 0.0 
0.0 0.0 0.0 
3.715672143596e-04 1.104958438376e-04 0.0 
1.104958438376e-04 6.054971724478e-03 0.0 
0.0 0.0 0.0 
4.723672862250e-04 7.430886509384e-04 0.0 
7.430886509384e-04 3.826647901249e-03 0.0 
0.0 0.0 0.0 
-5.648318490056e-04 4.193704550302e-04 0.0 
4.193704550302e-04 6.816174381455e-03 0.0 
0.0 0.0 0.0 
-8.503548739780e-05 9.016033776669e-04 0.0 
9.016033776669e-04 6.103702324304e-03 0.0 
0.0 0.0 0.0 
4.459152109775e-04 1.610905276099e-04 0.0 
1.610905276099e-04 5.482786338280e-03 0.0 
0.0 0.0 0.0 
2.887328353955e-04 8.929989291072e-05 0.0 
8.929989291072e-05 6.796182111705e-03 0.0 
0.0 0.0 0.0 
3.449049329560e-04 9.065988348704e-05 0.0 
9.065988348704e-05 6.261935239364e-03 0.0 
0.0 0.0 0.0 
2.885452737356e-04 -4.801563007145e-05 0.0 
-4.801563007145e-05 1.890552810155e-03 0.0 
0.0 0.0 0.0 
-1.193397345088e-04 1.192224213755e-04 0.0 
1.192224213755e-04 1.017615149701e-02 0.0 
0.0 0.0 0.0 
-1.627479508527e-04 1.057624153862e-04 0.0 
1.057624153862e-04 9.779121314459e-03 0.0 
0.0 0.0 0.0 
-2.712731147281e-04 5.593205623484e-05 0.0 
5.593205623484e-05 7.910138562874e-03 0.0 
0.0 0.0 0.0 
4.380793367633e-04 2.028840286774e-04 0.0 
2.028840286774e-04 5.751843591450e-03 0.0 
0.0 0.0 0.0 
4.221009994261e-04 1.472462100958e-04 0.0 
1.472462100958e-04 5.668031780642e-03 0.0 
0.0 0.0 0.0 
-1.298902619831e-04 2.254273838411e-05 0.0 
2.254273838411e-05 1.021680438183e-02 0.0 
0.0 0.0 0.0 
-1.416428357497e-04 9.217937068618e-05 0.0 
9.217937068618e-05 9.994656328879e-03 0.0 
0.0 0.0 0.0 
4.748319482550e-04 1.689437723253e-04 0.0 
1.689437723253e-04 5.235063734595e-03 0.0 
0.0 0.0 0.0 
2.247110486440e-04 1.040525272369e-04 0.0 
1.040525272369e-04 7.262864758334e-03 0.0 
0.0 0.0 0.0 
-1.988860303811e-04 1.727846616480e-04 0.0 
1.727846616480e-04 9.698959040463e-03 0.0 
0.0 0.0 0.0 
3.369954622103e-04 2.159300327400e-05 0.0 
2.159300327400e-05 6.261870252497e-03 0.0 
0.0 0.0 0.0 
2.123856864613e-04 2.614412199481e-04 0.0 
2.614412199481e-04 7.460804404198e-03 0.0 
0.0 0.0 0.0 
-1.407678090428e-04 6.191805802789e-05 0.0 
6.191805802789e-05 1.018578857395e-02 0.0 
0.0 0.0 0.0 
-2.377128687334e-04 3.988184921432e-05 0.0 
3.988184921432e-05 9.164090004453e-03 0.0 
0.0 0.0 0.0 
4.341021316567e-04 3.509297669781e-04 0.0 
3.509297669781e-04 6.121105185720e-03 0.0 
0.0 0.0 0.0 
2.270299912677e-04 -2.102640533014e-05 0.0 
-2.102640533014e-05 1.871591415167e-03 0.0 
0.0 0.0 0.0 
2.627323248539e-04 -4.763636747565e-05 0.0 
-4.763636747565e-05 1.737592321184e-03 0.0 
0.0 0.0 0.0 
3.204206672436e-06 -1.551659392993e-04 0.0 
-1.551659392993e-04 8.829003986612e-04 0.0 
0.0 0.0 0.0 
-3.137100593905e-04 -9.410935836664e-05 0.0 
-9.410935836664e-05 5.302784156240e-04 0.0 
0.0 0.0 0.0 
-1.512890776079e-04 3.776926301652e-05 0.0 
3.776926301652e-05 9.999971819720e-03 0.0 
0.0 0.0 0.0 
2.612201532088e-04 1.332028179001e-04 0.0 
1.332028179001e-04 6.982291319678e-03 0.0 
0.0 0.0 0.0 
-2.724350652166e-04 -9.140926026260e-05 0.0 
-9.140926026260e-05 5.047695945966e-04 0.0 
0.0 0.0 0.0 
-3.081302513037e-04 5.144705818697e-04 0.0 
5.144705818697e-04 9.845259464521e-03 0.0 
0.0 0.0 0.0 
-2.668579316729e-04 6.366965205724e-05 0.0 
6.366965205724e-05 8.104846983045e-03 0.0 
0.0 0.0 0.0 
3.466117369038e-04 1.363611386477e-04 0.0 
1.363611386477e-04 6.408976149667e-03 0.0 
0.0 0.0 0.0 
3.220226970619e-04 1.233171670665e-04 0.0 
1.233171670665e-04 6.512272280935e-03 0.0 
0.0 0.0 0.0 
4.790254422098e-04 6.470994048717e-05 0.0 
6.470994048717e-05 2.757859309667e-03 0.0 
0.0 0.0 0.0 
3.165140445520e-04 5.304976341658e-05 0.0 
5.304976341658e-05 6.522404922543e-03 0.0 
0.0 0.0 0.0 
-2.832944636340e-04 -1.872662737270e-05 0.0 
-1.872662737270e-05 7.908482429350e-03 0.0 
0.0 0.0 0.0 
2.469281795696e-04 7.614881674019e-04 0.0 
7.614881674019e-04 6.969472777474e-03 0.0 
0.0 0.0 0.0 
1.853116508805e-04 3.108449376985e-04 0.0 
3.108449376985e-04 7.659157152634e-03 0.0 
0.0 0.0 0.0 
2.156240308562e-04 -1.891288600780e-06 0.0 
-1.891288600780e-06 1.805382886129e-03 0.0 
0.0 0.0 0.0 
2.141167777365e-04 3.569403830192e-04 0.0 
3.569403830192e-04 7.559691864742e-03 0.0 
0.0 0.0 0.0 
-2.126012997126e-04 3.679547303432e-05 0.0 
3.679547303432e-05 9.385347806512e-03 0.0 
0.0 0.0 0.0 
2.492719933458e-04 -4.666595123659e-06 0.0 
-4.666595123659e-06 2.039982758663e-03 0.0 
0.0 0.0 0.0 
3.009725024048e-04 -1.176069358782e-04 0.0 
-1.176069358782e-04 2.139265372600e-03 0.0 
0.0 0.0 0.0 
4.375171542057e-04 5.486797593574e-05 0.0 
5.486797593574e-05 4.488526154474e-03 0.0 
0.0 0.0 0.0 
-2.620434504069e-04 1.001994316893e-04 0.0 
1.001994316893e-04 8.717560363465e-03 0.0 
0.0 0.0 0.0 
3.985094847723e-04 1.335887622543e-06 0.0 
1.335887622543e-06 2.937779649513e-03 0.0 
0.0 0.0 0.0 
-1.881476598239e-04 2.771809349143e-05 0.0 
2.771809349143e-05 9.605017410544e-03 0.0 
0.0 0.0 0.0 
-2.371115312534e-04 1.766810862134e-05 0.0 
1.766810862134e-05 8.969067798657e-03 0.0 
0.0 0.0 0.0 
4.665562495003e-04 7.863137546313e-05 0.0 
7.863137546313e-05 4.363977973305e-03 0.0 
0.0 0.0 0.0 
3.608257568075e-04 4.272045258039e-05 0.0 
4.272045258039e-05 6.059812468185e-03 0.0 
0.0 0.0 0.0 
3.427312387554e-04 7.525086979100e-05 0.0 
7.525086979100e-05 6.327576141477e-03 0.0 
0.0 0.0 0.0 
-1.962466062564e-04 9.373429289598e-05 0.0 
9.373429289598e-05 9.377171920408e-03 0.0 
0.0 0.0 0.0 
1.649856895536e-04 -1.131846901787e-04 0.0 
-1.131846901787e-04 1.554575586667e-03 0.0 
0.0 0.0 0.0 
4.509245168358e-04 5.569173114639e-05 0.0 
5.569173114639e-05 4.121882156309e-03 0.0 
0.0 0.0 0.0 
1.088573219519e-04 9.264187607938e-04 0.0 
9.264187607938e-04 8.162559290159e-03 0.0 
0.0 0.0 0.0 
-2.078453682793e-04 5.793702717747e-05 0.0 
5.793702717747e-05 9.567335257784e-03 0.0 
0.0 0.0 0.0 
4.355763747799e-04 4.015799176512e-05 0.0 
4.015799176512e-05 3.696751652786e-03 0.0 
0.0 0.0 0.0 
4.555272784224e-04 1.559499845168e-04 0.0 
1.559499845168e-04 5.407423404347e-03 0.0 
0.0 0.0 0.0 
2.490431658257e-04 3.777212004138e-04 0.0 
3.777212004138e-04 7.396242492134e-03 0.0 
0.0 0.0 0.0 
-2.146607659016e-04 9.555677253991e-05 0.0 
9.555677253991e-05 9.157519356558e-03 0.0 
0.0 0.0 0.0 
-5.031130540045e-05 -3.382472684573e-05 0.0 
-3.382472684573e-05 9.420835468210e-04 0.0 
0.0 0.0 0.0 
1.838829808265e-05 -1.252617218187e-04 0.0 
-1.252617218187e-04 8.507433217697e-04 0.0 
0.0 0.0 0.0 
3.644118617758e-04 2.833325311231e-04 0.0 
2.833325311231e-04 2.064821161443e-03 0.0 
0.0 0.0 0.0 
2.955000837079e-04 1.634127669858e-04 0.0 
1.634127669858e-04 6.784952536750e-03 0.0 
0.0 0.0 0.0 
-2.399175269180e-04 9.870551768849e-05 0.0 
9.870551768849e-05 8.938455766343e-03 0.0 
0.0 0.0 0.0 
4.277838315090e-04 -8.306794857113e-06 0.0 
-8.306794857113e-06 4.925730274167e-03 0.0 
0.0 0.0 0.0 
-2.762161078835e-04 7.670318607335e-05 0.0 
7.670318607335e-05 8.307719049971e-03 0.0 
0.0 0.0 0.0 
3.029636116332e-04 5.299165519424e-04 0.0 
5.299165519424e-04 7.241016410926e-03 0.0 
0.0 0.0 0.0 
4.552440099272e-04 7.611706492091e-05 0.0 
7.611706492091e-05 4.546082924382e-03 0.0 
0.0 0.0 0.0 
3.535201652918e-04 1.473046473064e-04 0.0 
1.473046473064e-04 6.316477092053e-03 0.0 
0.0 0.0 0.0 
2.140444260108e-04 -8.446716185298e-05 0.0 
-8.446716185298e-05 1.881944723403e-03 0.0 
0.0 0.0 0.0 
2.344998669839e-04 3.485740048498e-04 0.0 
3.485740048498e-04 7.464414403338e-03 0.0 
0.0 0.0 0.0 
4.395680538660e-04 6.710172876444e-06 0.0 
6.710172876444e-06 4.375474785709e-03 0.0 
0.0 0.0 0.0 
2.309656295969e-04 -7.096412314536e-05 0.0 
-7.096412314536e-05 2.050401780318e-03 0.0 
0.0 0.0 0.0 
4.268834658108e-04 -1.661540950451e-05 0.0 
-1.661540950451e-05 4.133858039816e-03 0.0 
0.0 0.0 0.0 
4.035140827847e-04 8.787724013779e-06 0.0 
8.787724013779e-06 3.112395470089e-03 0.0 
0.0 0.0 0.0 
3.019517696312e-04 -1.086099042445e-04 0.0 
-1.086099042445e-04 2.378254187733e-03 0.0 
0.0 0.0 0.0 
4.328144433836e-04 6.319609937692e-05 0.0 
6.319609937692e-05 4.911853523245e-03 0.0 
0.0 0.0 0.0 
-9.227921567234e-05 -2.687834935410e-05 0.0 
-2.687834935410e-05 1.689679290520e-04 0.0 
0.0 0.0 0.0 
-1.347206296681e-04 -3.003586537227e-05 0.0 
-3.003586537227e-05 1.899630405029e-04 0.0 
0.0 0.0 0.0 
4.032945394694e-04 7.545423126005e-05 0.0 
7.545423126005e-05 5.679168649210e-03 0.0 
0.0 0.0 0.0 
1.903145410327e-04 -9.982055451204e-05 0.0 
-9.982055451204e-05 1.719159918293e-03 0.0 
0.0 0.0 0.0 
4.128255748237e-04 1.284415716794e-04 0.0 
1.284415716794e-04 5.763427593717e-03 0.0 
0.0 0.0 0.0 
4.347563601865e-04 1.429632942258e-04 0.0 
1.429632942258e-04 5.583851009289e-03 0.0 
0.0 0.0 0.0 
4.721139079393e-04 4.957831445798e-05 0.0 
4.957831445798e-05 3.407643619045e-03 0.0 
0.0 0.0 0.0 
4.082012501989e-04 3.349277074318e-05 0.0 
3.349277074318e-05 2.193159850250e-03 0.0 
0.0 0.0 0.0 
-1.941951822508e-04 1.122528648835e-04 0.0 
1.122528648835e-04 9.922408332605e-03 0.0 
0.0 0.0 0.0 
1.090958653600e-04 3.455920179832e-04 0.0 
3.455920179832e-04 1.223820916421e-03 0.0 
0.0 0.0 0.0 
4.061992749118e-04 1.507966067946e-05 0.0 
1.507966067946e-05 3.292180244220e-03 0.0 
0.0 0.0 0.0 
2.541917783834e-04 6.066615264459e-04 0.0 
6.066615264459e-04 7.564662518706e-03 0.0 
0.0 0.0 0.0 
1.731754005927e-04 -2.545792373408e-05 0.0 
-2.545792373408e-05 1.467382238361e-03 0.0 
0.0 0.0 0.0 
-2.823325450326e-04 2.522668296312e-05 0.0 
2.522668296312e-05 8.536306570675e-03 0.0 
0.0 0.0 0.0 
-2.922004732554e-04 6.781667277112e-07 0.0 
6.781667277112e-07 8.113383878603e-03 0.0 
0.0 0.0 0.0 
1.396738427883e-04 -1.479545229593e-04 0.0 
-1.479545229593e-04 1.432597927454e-03 0.0 
0.0 0.0 0.0 
2.856010576682e-04 4.121339681978e-04 0.0 
4.121339681978e-04 7.219424832799e-03 0.0 
0.0 0.0 0.0 
-2.645918665264e-04 9.554684912067e-05 0.0 
9.554684912067e-05 9.309652627028e-03 0.0 
0.0 0.0 0.0 
2.032075523928e-04 -3.452261338382e-05 0.0 
-3.452261338382e-05 1.705903926895e-03 0.0 
0.0 0.0 0.0 
-1.859544556905e-04 1.466179455560e-04 0.0 
1.466179455560e-04 1.009050674772e-02 0.0 
0.0 0.0 0.0 
-1.562059525509e-04 1.940349460777e-04 0.0 
1.940349460777e-04 1.008292539976e-02 0.0 
0.0 0.0 0.0 
2.246836530164e-04 -1.110944118734e-04 0.0 
-1.110944118734e-04 1.932235239102e-03 0.0 
0.0 0.0 0.0 
-4.205747933421e-04 8.613995352548e-04 0.0 
8.613995352548e-04 5.246989593555e-03 0.0 
0.0 0.0 0.0 
2.404539029572e-04 -1.270961230214e-04 0.0 
-1.270961230214e-04 1.985026752188e-03 0.0 
0.0 0.0 0.0 
3.688493785627e-04 9.608929379752e-05 0.0 
9.608929379752e-05 6.134038031754e-03 0.0 
0.0 0.0 0.0 
4.436083108881e-04 7.125601459203e-05 0.0 
7.125601459203e-05 4.730444838057e-03 0.0 
0.0 0.0 0.0 
-2.361670399218e-04 4.728838540532e-04 0.0 
4.728838540532e-04 9.957009735203e-03 0.0 
0.0 0.0 0.0 
-1.684481639126e-04 1.641091693769e-04 0.0 
1.641091693769e-04 9.916232062423e-03 0.0 
0.0 0.0 0.0 
3.907434208075e-04 1.130407256098e-04 0.0 
1.130407256098e-04 5.947405629646e-03 0.0 
0.0 0.0 0.0 
4.106937238257e-04 1.859419319974e-04 0.0 
1.859419319974e-04 5.936128005183e-03 0.0 
0.0 0.0 0.0 
1.906571312345e-04 -5.835401010562e-05 0.0 
-5.835401010562e-05 1.585159666824e-03 0.0 
0.0 0.0 0.0 
3.828030854010e-04 1.673151129115e-04 0.0 
1.673151129115e-04 6.123054207194e-03 0.0 
0.0 0.0 0.0 
-2.343109778452e-04 1.479503486893e-04 0.0 
1.479503486893e-04 9.303430287314e-03 0.0 
0.0 0.0 0.0 
4.290869021599e-04 2.708623135689e-06 0.0 
2.708623135689e-06 4.741150744098e-03 0.0 
0.0 0.0 0.0 
-2.628965853011e-04 4.389629032126e-05 0.0 
4.389629032126e-05 8.944911279416e-03 0.0 
0.0 0.0 0.0 
-2.331609633532e-04 9.048128066861e-05 0.0 
9.048128066861e-05 9.528107993939e-03 0.0 
0.0 0.0 0.0 
3.430989584967e-04 8.249873466990e-04 0.0 
8.249873466990e-04 5.171648386448e-03 0.0 
0.0 0.0 0.0 
-1.785258275984e-04 1.371768963615e-04 0.0 
1.371768963615e-04 9.740462785735e-03 0.0 
0.0 0.0 0.0 
4.300057936122e-04 4.395941717516e-05 0.0 
4.395941717516e-05 3.903288589967e-03 0.0 
0.0 0.0 0.0 
4.337982903027e-04 5.329674247286e-06 0.0 
5.329674247286e-06 4.557345192552e-03 0.0 
0.0 0.0 0.0 
3.680765225005e-04 4.794492615637e-06 0.0 
4.794492615637e-06 2.890766609222e-03 0.0 
0.0 0.0 0.0 
4.259502114494e-04 -3.869461950498e-05 0.0 
-3.869461950498e-05 3.081727345106e-03 0.0 
0.0 0.0 0.0 
-2.375014464621e-04 1.215181966352e-04 0.0 
1.215181966352e-04 9.122298233591e-03 0.0 
0.0 0.0 0.0 
5.166050793133e-04 1.529771551311e-04 0.0 
1.529771551311e-04 4.458216463792e-03 0.0 
0.0 0.0 0.0 
2.620721605020e-04 -1.136689373938e-04 0.0 
-1.136689373938e-04 2.154320053905e-03 0.0 
0.0 0.0 0.0 
5.513369070775e-05 -1.415347884353e-04 0.0 
-1.415347884353e-04 1.056650876766e-03 0.0 
0.0 0.0 0.0 
-2.637241096326e-04 6.810964217662e-05 0.0 
6.810964217662e-05 9.128620752802e-03 0.0 
0.0 0.0 0.0 
2.884580212212e-04 -3.811455469113e-05 0.0 
-3.811455469113e-05 2.142456637080e-03 0.0 
0.0 0.0 0.0 
2.415588494717e-04 4.240463064901e-04 0.0 
4.240463064901e-04 7.552899143571e-03 0.0 
0.0 0.0 0.0 
-2.114695738460e-04 1.181624873682e-04 0.0 
1.181624873682e-04 9.341393671436e-03 0.0 
0.0 0.0 0.0 
3.625458299494e-04 2.091291119505e-04 0.0 
2.091291119505e-04 6.397841094408e-03 0.0 
0.0 0.0 0.0 
8.580634659916e-05 7.973219438692e-04 0.0 
7.973219438692e-04 8.496698615288e-03 0.0 
0.0 0.0 0.0 
4.101976739985e-04 -3.531054717302e-05 0.0 
-3.531054717302e-05 3.712849558135e-03 0.0 
0.0 0.0 0.0 
2.438097429858e-04 -3.877196445223e-05 0.0 
-3.877196445223e-05 1.920958992058e-03 0.0 
0.0 0.0 0.0 
1.055919688557e-04 -5.624518110061e-05 0.0 
-5.624518110061e-05 1.198015754483e-03 0.0 
0.0 0.0 0.0 
3.986000264005e-04 1.750852417395e-04 0.0 
1.750852417395e-04 6.039715534322e-03 0.0 
0.0 0.0 0.0 
-2.419462941595e-04 8.131547321292e-05 0.0 
8.131547321292e-05 8.753444977215e-03 0.0 
0.0 0.0 0.0 
2.026146300182e-05 -5.224851896774e-05 0.0 
-5.224851896774e-05 8.328891155316e-04 0.0 
0.0 0.0 0.0 
3.669442059797e-04 -7.367352925088e-05 0.0 
-7.367352925088e-05 2.949485901609e-03 0.0 
0.0 0.0 0.0 
1.848672763485e-04 -7.235960152256e-05 0.0 
-7.235960152256e-05 1.665356889378e-03 0.0 
0.0 0.0 0.0 
-2.860915775843e-04 4.660150798370e-05 0.0 
4.660150798370e-05 8.723845075274e-03 0.0 
0.0 0.0 0.0 
3.787575533549e-04 -6.390784460485e-05 0.0 
-6.390784460485e-05 3.123664162119e-03 0.0 
0.0 0.0 0.0 
4.645181721874e-04 2.185323355378e-04 0.0 
2.185323355378e-04 5.571693535293e-03 0.0 
0.0 0.0 0.0 
3.450151597026e-04 -7.127866547473e-05 0.0 
-7.127866547473e-05 2.898766502450e-03 0.0 
0.0 0.0 0.0 
-1.805070900894e-04 4.850925673002e-05 0.0 
4.850925673002e-05 9.786664126996e-03 0.0 
0.0 0.0 0.0 
3.483731421312e-04 -1.999630697672e-05 0.0 
-1.999630697672e-05 2.538005063418e-03 0.0 
0.0 0.0 0.0 
4.065036756642e-04 2.462728584160e-04 0.0 
2.462728584160e-04 6.148695995169e-03 0.0 
0.0 0.0 0.0 
2.149491720072e-04 -1.483943382062e-04 0.0 
-1.483943382062e-04 1.753667973382e-03 0.0 
0.0 0.0 0.0 
4.235592469921e-04 1.919007570966e-04 0.0 
1.919007570966e-04 5.861304574470e-03 0.0 
0.0 0.0 0.0 
4.265080296131e-04 -7.087255608913e-06 0.0 
-7.087255608913e-06 4.326243246896e-03 0.0 
0.0 0.0 0.0 
3.943827833321e-04 2.305047768040e-04 0.0 
2.305047768040e-04 6.211113577226e-03 0.0 
0.0 0.0 0.0 
5.734255082077e-04 4.407109755067e-04 0.0 
4.407109755067e-04 3.162084949903e-03 0.0 
0.0 0.0 0.0 
1.931587664934e-04 -7.395262364083e-06 0.0 
-7.395262364083e-06 1.648827936136e-03 0.0 
0.0 0.0 0.0 
-2.749944815351e-04 8.230843194923e-06 0.0 
8.230843194923e-06 8.344986634034e-03 0.0 
0.0 0.0 0.0 
4.437634437313e-04 5.033462041723e-04 0.0 
5.033462041723e-04 6.015597898981e-03 0.0 
0.0 0.0 0.0 
-3.317186708732e-04 8.200893325674e-04 0.0 
8.200893325674e-04 6.215339589976e-03 0.0 
0.0 0.0 0.0 
-2.607444658014e-04 2.267495516079e-05 0.0 
2.267495516079e-05 8.755367505157e-03 0.0 
0.0 0.0 0.0 
2.798611242387e-04 -1.231208327397e-04 0.0 
-1.231208327397e-04 1.978425602841e-03 0.0 
0.0 0.0 0.0 
-2.893083818978e-04 1.489038066809e-04 0.0 
1.489038066809e-04 8.865476680171e-03 0.0 
0.0 0.0 0.0 
1.547712449796e-04 -8.893740215571e-05 0.0 
-8.893740215571e-05 1.492001664454e-03 0.0 
0.0 0.0 0.0 
2.885156053816e-04 3.158354461961e-04 0.0 
3.158354461961e-04 7.091167214078e-03 0.0 
0.0 0.0 0.0 
4.010527443430e-04 5.749494139977e-04 0.0 
5.749494139977e-04 6.368636130479e-03 0.0 
0.0 0.0 0.0 
1.784492443819e-04 8.049657922256e-04 0.0 
8.049657922256e-04 7.358562780196e-03 0.0 
0.0 0.0 0.0 
-1.491360900031e-04 1.327347865657e-04 0.0 
1.327347865657e-04 1.031841509387e-02 0.0 
0.0 0.0 0.0 
5.081453963227e-04 1.986471454918e-04 0.0 
1.986471454918e-04 4.903822484998e-03 0.0 
0.0 0.0 0.0 
1.755718624350e-04 -4.590950805232e-05 0.0 
-4.590950805232e-05 1.539778108540e-03 0.0 
0.0 0.0 0.0 
4.683560120604e-04 2.252855234298e-04 0.0 
2.252855234298e-04 5.519462775540e-03 0.0 
0.0 0.0 0.0 
2.724383640396e-04 4.568994263471e-04 0.0 
4.568994263471e-04 7.383840004247e-03 0.0 
0.0 0.0 0.0 
4.124682704085e-04 -3.205434024870e-05 0.0 
-3.205434024870e-05 2.617178638436e-03 0.0 
0.0 0.0 0.0 
3.727488851779e-04 1.567000602534e-04 0.0 
1.567000602534e-04 6.222488661923e-03 0.0 
0.0 0.0 0.0 
-2.359710772609e-04 6.339394334529e-05 0.0 
6.339394334529e-05 9.347879366171e-03 0.0 
0.0 0.0 0.0 
3.956506851299e-04 4.920488729282e-05 0.0 
4.920488729282e-05 2.029990611652e-03 0.0 
0.0 0.0 0.0 
4.469311552044e-04 2.083035539492e-04 0.0 
2.083035539492e-04 5.688028398604e-03 0.0 
0.0 0.0 0.0 
-3.266023176479e-04 4.194407272774e-05 0.0 
4.194407272774e-05 8.276327270207e-03 0.0 
0.0 0.0 0.0 
2.664793474372e-04 -7.870033201111e-05 0.0 
-7.870033201111e-05 2.274068335400e-03 0.0 
0.0 0.0 0.0 
3.559067061893e-04 -8.496402341640e-05 0.0 
-8.496402341640e-05 2.776560013472e-03 0.0 
0.0 0.0 0.0 
-2.527264721526e-04 8.260161012707e-04 0.0 
8.260161012707e-04 6.893132936615e-03 0.0 
0.0 0.0 0.0 
4.249701945160e-04 2.498934840744e-04 0.0 
2.498934840744e-04 6.028048052674e-03 0.0 
0.0 0.0 0.0 
-4.951084172118e-04 6.757839744618e-04 0.0 
6.757839744618e-04 6.273201612449e-03 0.0 
0.0 0.0 0.0 
-1.762398173208e-04 8.687309981532e-04 0.0 
8.687309981532e-04 6.511152782957e-03 0.0 
0.0 0.0 0.0 
-2.621269842918e-04 1.495223015827e-04 0.0 
1.495223015827e-04 9.084749736471e-03 0.0 
0.0 0.0 0.0 
-2.602906598715e-04 8.231518091298e-05 0.0 
8.231518091298e-05 8.529607952871e-03 0.0 
0.0 0.0 0.0 
-3.076271559924e-04 1.164399629423e-04 0.0 
1.164399629423e-04 8.462425546316e-03 0.0 
0.0 0.0 0.0 
4.435616328644e-04 5.360275544910e-05 0.0 
5.360275544910e-05 4.312773811147e-03 0.0 
0.0 0.0 0.0 
3.176250660355e-04 4.349184432973e-04 0.0 
4.349184432973e-04 7.063712716378e-03 0.0 
0.0 0.0 0.0 
4.875026171520e-04 2.432682141432e-04 0.0 
2.432682141432e-04 5.356080805738e-03 0.0 
0.0 0.0 0.0 
-3.042853559868e-04 2.508212591200e-05 0.0 
2.508212591200e-05 8.313714079850e-03 0.0 
0.0 0.0 0.0 
-2.734497376122e-04 5.785918582741e-04 0.0 
5.785918582741e-04 9.973881430914e-03 0.0 
0.0 0.0 0.0 
1.113307654044e-04 8.375368624945e-04 0.0 
8.375368624945e-04 7.741389342485e-03 0.0 
0.0 0.0 0.0 
4.539482600512e-04 2.685911019499e-04 0.0 
2.685911019499e-04 5.849315540732e-03 0.0 
0.0 0.0 0.0 
-2.060754813445e-04 1.433438929903e-04 0.0 
1.433438929903e-04 9.521832745853e-03 0.0 
0.0 0.0 0.0 
4.286242559322e-04 -3.697018645965e-05 0.0 
-3.697018645965e-05 3.247804506252e-03 0.0 
0.0 0.0 0.0 
3.929270727816e-04 -6.556456953923e-05 0.0 
-6.556456953923e-05 3.008953939066e-03 0.0 
0.0 0.0 0.0 
1.708000711034e-04 -1.384068000303e-04 0.0 
-1.384068000303e-04 1.597589717371e-03 0.0 
0.0 0.0 0.0 
4.549407158132e-04 2.864552666906e-04 0.0 
2.864552666906e-04 5.814620797076e-03 0.0 
0.0 0.0 0.0 
3.985602617582e-04 -5.743565408227e-05 0.0 
-5.743565408227e-05 3.182504217219e-03 0.0 
0.0 0.0 0.0 
-2.907312999265e-04 6.965253135506e-05 0.0 
6.965253135506e-05 8.907871831330e-03 0.0 
0.0 0.0 0.0 
-3.171513893111e-04 6.917572604482e-05 0.0 
6.917572604482e-05 8.687108788400e-03 0.0 
0.0 0.0 0.0 
4.059112386103e-04 6.650070068548e-04 0.0 
6.650070068548e-04 5.224795001935e-03 0.0 
0.0 0.0 0.0 
3.847233521672e-04 -1.342659969364e-05 0.0 
-1.342659969364e-05 2.592664014026e-03 0.0 
0.0 0.0 0.0 
4.880000519407e-04 7.234173433957e-04 0.0 
7.234173433957e-04 3.358066585020e-03 0.0 
0.0 0.0 0.0 
3.923241122703e-04 -6.362398296522e-06 0.0 
-6.362398296522e-06 2.764163633581e-03 0.0 
0.0 0.0 0.0 
4.348797781106e-04 1.677419937979e-05 0.0 
1.677419937979e-05 2.996004608016e-03 0.0 
0.0 0.0 0.0 
2.194225670114e-04 -4.971026994797e-05 0.0 
-4.971026994797e-05 1.753276698850e-03 0.0 
0.0 0.0 0.0 
3.457993187770e-04 4.599837291536e-04 0.0 
4.599837291536e-04 6.910135530433e-03 0.0 
0.0 0.0 0.0 
5.412242899943e-04 1.420101296925e-04 0.0 
1.420101296925e-04 3.738539844898e-03 0.0 
0.0 0.0 0.0 
-2.019855192923e-04 8.285540277385e-05 0.0 
8.285540277385e-05 9.746928602641e-03 0.0 
0.0 0.0 0.0 
5.632565070353e-04 2.017710606686e-04 0.0 
2.017710606686e-04 4.005879817377e-03 0.0 
0.0 0.0 0.0 
5.054502088579e-04 3.078223531504e-04 0.0 
3.078223531504e-04 5.506656043614e-03 0.0 
0.0 0.0 0.0 
5.488931127788e-04 2.275491011412e-04 0.0 
2.275491011412e-04 4.607451700464e-03 0.0 
0.0 0.0 0.0 
1.919050070276e-05 8.910672224542e-04 0.0 
8.910672224542e-04 6.058609801393e-03 0.0 
0.0 0.0 0.0 
1.995076301702e-04 -1.243050638371e-04 0.0 
-1.243050638371e-04 1.765732963978e-03 0.0 
0.0 0.0 0.0 
3.077256606914e-04 4.767420499337e-04 0.0 
4.767420499337e-04 7.207299812218e-03 0.0 
0.0 0.0 0.0 
2.378293073000e-04 4.742189189741e-04 0.0 
4.742189189741e-04 7.570364169270e-03 0.0 
0.0 0.0 0.0 
-2.516992670926e-04 8.055324183261e-04 0.0 
8.055324183261e-04 7.956988330619e-03 0.0 
0.0 0.0 0.0 
4.750296767098e-04 4.948514073801e-05 0.0 
4.948514073801e-05 3.234185647067e-03 0.0 
0.0 0.0 0.0 
5.333571569262e-04 2.682732666467e-04 0.0 
2.682732666467e-04 5.053680899735e-03 0.0 
0.0 0.0 0.0 
-2.619001768345e-04 1.233701366306e-04 0.0 
1.233701366306e-04 8.901547052516e-03 0.0 
0.0 0.0 0.0 
4.299904294971e-04 -3.237305571323e-05 0.0 
-3.237305571323e-05 3.420450048556e-03 0.0 
0.0 0.0 0.0 
-2.200088060993e-04 9.108551336042e-04 0.0 
9.108551336042e-04 5.816402120512e-03 0.0 
0.0 0.0 0.0 
3.166084269788e-04 -9.556845355343e-05 0.0 
-9.556845355343e-05 2.549860874993e-03 0.0 
0.0 0.0 0.0 
3.422660346040e-04 -8.205382823725e-05 0.0 
-8.205382823725e-05 2.211374507264e-03 0.0 
0.0 0.0 0.0 
4.615914631489e-04 9.561714162918e-07 0.0 
9.561714162918e-07 3.494477975880e-03 0.0 
0.0 0.0 0.0 
3.054313770876e-04 -2.738895896211e-05 0.0 
-2.738895896211e-05 2.313789814096e-03 0.0 
0.0 0.0 0.0 
2.462371663221e-04 -9.625847143066e-05 0.0 
-9.625847143066e-05 2.101898159802e-03 0.0 
0.0 0.0 0.0 
5.044249140116e-04 1.393880873948e-04 0.0 
1.393880873948e-04 4.621226972522e-03 0.0 
0.0 0.0 0.0 
4.810203965409e-04 2.879238258698e-04 0.0 
2.879238258698e-04 5.675622307421e-03 0.0 
0.0 0.0 0.0 
-1.894214249909e-04 8.376993254949e-04 0.0 
8.376993254949e-04 9.015295745905e-03 0.0 
0.0 0.0 0.0 
-1.899029899691e-04 -1.631699216933e-05 0.0 
-1.631699216933e-05 1.943430198863e-04 0.0 
0.0 0.0 0.0 
5.895180687527e-04 3.300207002164e-04 0.0 
3.300207002164e-04 3.986191485766e-03 0.0 
0.0 0.0 0.0 
5.725649815620e-04 2.224515996335e-04 0.0 
2.224515996335e-04 3.846567543996e-03 0.0 
0.0 0.0 0.0 
5.115049690658e-04 9.102655189872e-05 0.0 
9.102655189872e-05 3.481216338013e-03 0.0 
0.0 0.0 0.0 
-2.849934398951e-04 1.210622351985e-04 0.0 
1.210622351985e-04 8.681053648200e-03 0.0 
0.0 0.0 0.0 
5.517290258621e-04 1.855549743946e-04 0.0 
1.855549743946e-04 4.168500160012e-03 0.0 
0.0 0.0 0.0 
3.593443845320e-04 -8.854303558583e-06 0.0 
-8.854303558583e-06 2.711905097514e-03 0.0 
0.0 0.0 0.0 
4.902769714816e-04 4.970868231622e-05 0.0 
4.970868231622e-05 3.752985898251e-03 0.0 
0.0 0.0 0.0 
-1.883570835945e-04 1.128156730857e-04 0.0 
1.128156730857e-04 9.560904455906e-03 0.0 
0.0 0.0 0.0 
3.278438151955e-04 -8.200559248046e-05 0.0 
-8.200559248046e-05 2.723444669858e-03 0.0 
0.0 0.0 0.0 
6.660373959955e-05 -4.651361564153e-05 0.0 
-4.651361564153e-05 9.778043225757e-04 0.0 
0.0 0.0 0.0 
1.430392244743e-04 -5.419360223628e-05 0.0 
-5.419360223628e-05 1.369384137549e-03 0.0 
0.0 0.0 0.0 
4.179678750704e-04 2.333235823787e-05 0.0 
2.333235823787e-05 2.357765947989e-03 0.0 
0.0 0.0 0.0 
4.319320598105e-04 1.312128266056e-05 0.0 
1.312128266056e-05 2.826812656802e-03 0.0 
0.0 0.0 0.0 
5.843430732786e-04 2.965382963755e-04 0.0 
2.965382963755e-04 4.132828128462e-03 0.0 
0.0 0.0 0.0 
5.125406487203e-04 1.067404751293e-04 0.0 
1.067404751293e-04 4.021799245850e-03 0.0 
0.0 0.0 0.0 
1.840247424596e-04 -1.564862076504e-04 0.0 
-1.564862076504e-04 1.587467803272e-03 0.0 
0.0 0.0 0.0 
1.317520673354e-04 -1.314530756060e-04 0.0 
-1.314530756060e-04 1.380794105877e-03 0.0 
0.0 0.0 0.0 
-3.874198553425e-04 9.013561064384e-05 0.0 
9.013561064384e-05 8.415215750440e-03 0.0 
0.0 0.0 0.0 
2.808983423976e-04 -9.982333298204e-05 0.0 
-9.982333298204e-05 2.324968855653e-03 0.0 
0.0 0.0 0.0 
4.133196776435e-04 4.707204294452e-04 0.0 
4.707204294452e-04 6.577455896677e-03 0.0 
0.0 0.0 0.0 
-1.751078893611e-04 8.516170649573e-04 0.0 
8.516170649573e-04 8.686149846921e-03 0.0 
0.0 0.0 0.0 
-4.980564569425e-04 3.152767759284e-04 0.0 
3.152767759284e-04 8.398591918406e-03 0.0 
0.0 0.0 0.0 
-2.160133734855e-04 2.501427527069e-04 0.0 
2.501427527069e-04 9.822537188946e-03 0.0 
0.0 0.0 0.0 
-1.831022211789e-04 8.237225276742e-04 0.0 
8.237225276742e-04 9.325412709722e-03 0.0 
0.0 0.0 0.0 
3.589027117390e-04 7.268876561096e-04 0.0 
7.268876561096e-04 5.186251442541e-03 0.0 
0.0 0.0 0.0 
-2.141350323446e-04 8.256627697947e-04 0.0 
8.256627697947e-04 8.318644238223e-03 0.0 
0.0 0.0 0.0 
2.529239112263e-04 -1.264570175297e-04 0.0 
-1.264570175297e-04 1.815631430125e-03 0.0 
0.0 0.0 0.0 
4.841357522298e-04 4.399744330218e-05 0.0 
4.399744330218e-05 3.919040180447e-03 0.0 
0.0 0.0 0.0 
1.807569922845e-04 9.292733232337e-04 0.0 
9.292733232337e-04 5.169942986919e-03 0.0 
0.0 0.0 0.0 
4.562358229669e-04 1.604339735378e-04 0.0 
1.604339735378e-04 2.129909398540e-03 0.0 
0.0 0.0 0.0 
1.393177644018e-04 -1.588560179886e-04 0.0 
-1.588560179886e-04 1.436976156042e-03 0.0 
0.0 0.0 0.0 
4.362749472537e-04 2.130466281635e-05 0.0 
2.130466281635e-05 3.170253017447e-03 0.0 
0.0 0.0 0.0 
5.197715608147e-04 1.217489474710e-04 0.0 
1.217489474710e-04 3.864321519038e-03 0.0 
0.0 0.0 0.0 
5.343990817486e-04 1.923544241333e-04 0.0 
1.923544241333e-04 4.149822830386e-03 0.0 
0.0 0.0 0.0 
3.196367910960e-04 -1.636684249921e-05 0.0 
-1.636684249921e-05 2.486161854475e-03 0.0 
0.0 0.0 0.0 
5.637733814998e-04 2.457276435854e-04 0.0 
2.457276435854e-04 4.443759916822e-03 0.0 
0.0 0.0 0.0 
5.394474242966e-04 2.203106422336e-04 0.0 
2.203106422336e-04 4.005540427663e-03 0.0 
0.0 0.0 0.0 
5.842854235099e-04 4.141355902677e-04 0.0 
4.141355902677e-04 4.298202719983e-03 0.0 
0.0 0.0 0.0 
3.859097159400e-04 -7.253767436484e-05 0.0 
-7.253767436484e-05 2.839800643989e-03 0.0 
0.0 0.0 0.0 
3.380266340369e-04 6.742641821696e-04 0.0 
6.742641821696e-04 6.648409281703e-03 0.0 
0.0 0.0 0.0 
-2.956519026938e-04 9.842898329281e-05 0.0 
9.842898329281e-05 9.090761862448e-03 0.0 
0.0 0.0 0.0 
5.796513844671e-04 4.624235617986e-04 0.0 
4.624235617986e-04 4.173675662962e-03 0.0 
0.0 0.0 0.0 
3.469800663476e-04 5.093301843210e-04 0.0 
5.093301843210e-04 7.052274386085e-03 0.0 
0.0 0.0 0.0 
3.237915839636e-04 -7.734156141252e-05 0.0 
-7.734156141252e-05 2.049369342873e-03 0.0 
0.0 0.0 0.0 
2.586110427096e-04 6.569613511048e-04 0.0 
6.569613511048e-04 7.733688406186e-03 0.0 
0.0 0.0 0.0 
5.753529500205e-04 2.683144371992e-04 0.0 
2.683144371992e-04 4.284476954633e-03 0.0 
0.0 0.0 0.0 
-1.631255385259e-04 8.318322831168e-04 0.0 
8.318322831168e-04 9.655170509259e-03 0.0 
0.0 0.0 0.0 
-4.599821415513e-04 5.840022896820e-04 0.0 
5.840022896820e-04 8.169281781439e-03 0.0 
0.0 0.0 0.0 
3.359423697886e-04 -1.589269441226e-05 0.0 
-1.589269441226e-05 1.961645026586e-03 0.0 
0.0 0.0 0.0 
-4.915059927532e-04 3.825935394348e-04 0.0 
3.825935394348e-04 8.517871926482e-03 0.0 
0.0 0.0 0.0 
-2.314402982693e-04 3.496120742780e-04 0.0 
3.496120742780e-04 9.915603650799e-03 0.0 
0.0 0.0 0.0 
5.762807514644e-04 3.399004266020e-04 0.0 
3.399004266020e-04 4.578213072747e-03 0.0 
0.0 0.0 0.0 
1.396704589629e-05 9.798901545925e-04 0.0 
9.798901545925e-04 4.867507540068e-03 0.0 
0.0 0.0 0.0 
-4.754421667605e-04 4.516181371062e-04 0.0 
4.516181371062e-04 8.623936172096e-03 0.0 
0.0 0.0 0.0 
-3.026545038922e-04 8.231735403897e-04 0.0 
8.231735403897e-04 6.549670178384e-03 0.0 
0.0 0.0 0.0 
2.327855454811e-04 -4.666048469039e-05 0.0 
-4.666048469039e-05 1.569225717581e-03 0.0 
0.0 0.0 0.0 
-1.021926952630e-04 3.130307315583e-04 0.0 
3.130307315583e-04 1.058322835468e-02 0.0 
0.0 0.0 0.0 
1.483170646375e-04 -6.254089353713e-05 0.0 
-6.254089353713e-05 1.356231543836e-03 0.0 
0.0 0.0 0.0 
1.370478932321e-04 8.540110365508e-04 0.0 
8.540110365508e-04 8.295938708555e-03 0.0 
0.0 0.0 0.0 
-1.391632432891e-04 1.535810849433e-04 0.0 
1.535810849433e-04 1.013057481556e-02 0.0 
0.0 0.0 0.0 
3.502979496628e-04 6.401340901734e-04 0.0 
6.401340901734e-04 6.733420651811e-03 0.0 
0.0 0.0 0.0 
-2.816442519873e-04 1.009619391056e-04 0.0 
1.009619391056e-04 8.490535463390e-03 0.0 
0.0 0.0 0.0 
-2.610873043585e-04 1.627435061455e-04 0.0 
1.627435061455e-04 9.661203097900e-03 0.0 
0.0 0.0 0.0 
5.415282522463e-04 3.039400008889e-04 0.0 
3.039400008889e-04 4.316389133281e-03 0.0 
0.0 0.0 0.0 
3.786152946166e-04 6.783765408443e-04 0.0 
6.783765408443e-04 5.678691059790e-03 0.0 
0.0 0.0 0.0 
-1.618031842491e-04 2.808116278493e-04 0.0 
2.808116278493e-04 1.019863657678e-02 0.0 
0.0 0.0 0.0 
4.368732140387e-04 3.237009932010e-04 0.0 
3.237009932010e-04 6.136454935404e-03 0.0 
0.0 0.0 0.0 
-2.980931405184e-04 1.317569883822e-04 0.0 
1.317569883822e-04 9.269313078491e-03 0.0 
0.0 0.0 0.0 
4.670773137532e-04 5.589811125350e-04 0.0 
5.589811125350e-04 6.128803935788e-03 0.0 
0.0 0.0 0.0 
3.163960463894e-04 -9.744560771780e-06 0.0 
-9.744560771780e-06 1.796873966321e-03 0.0 
0.0 0.0 0.0 
-2.982073410714e-04 1.692107017939e-04 0.0 
1.692107017939e-04 9.442333442489e-03 0.0 
0.0 0.0 0.0 
-8.334042311797e-05 9.837131881638e-04 0.0 
9.837131881638e-04 9.759156661351e-03 0.0 
0.0 0.0 0.0 
2.668072703276e-04 5.544530726772e-04 0.0 
5.544530726772e-04 7.552197961334e-03 0.0 
0.0 0.0 0.0 
5.316007080338e-04 1.319951249640e-04 0.0 
1.319951249640e-04 3.905349926033e-03 0.0 
0.0 0.0 0.0 
-3.077723455750e-04 4.299873776297e-05 0.0 
4.299873776297e-05 8.495985654212e-03 0.0 
0.0 0.0 0.0 
-3.007261144433e-04 9.592478147610e-05 0.0 
9.592478147610e-05 8.270056676194e-03 0.0 
0.0 0.0 0.0 
5.265078962271e-04 1.694155643009e-04 0.0 
1.694155643009e-04 4.299948170339e-03 0.0 
0.0 0.0 0.0 
4.657256043732e-04 3.461100196776e-04 0.0 
3.461100196776e-04 5.966227256223e-03 0.0 
0.0 0.0 0.0 
4.432228631630e-04 4.071608484571e-04 0.0 
4.071608484571e-04 6.266266515660e-03 0.0 
0.0 0.0 0.0 
1.015257314811e-04 -1.388272512229e-04 0.0 
-1.388272512229e-04 1.211017924007e-03 0.0 
0.0 0.0 0.0 
4.928315570947e-04 6.920503657695e-04 0.0 
6.920503657695e-04 2.887084455057e-03 0.0 
0.0 0.0 0.0 
5.509111255220e-04 5.522083444455e-04 0.0 
5.522083444455e-04 4.521063396789e-03 0.0 
0.0 0.0 0.0 
5.393364733974e-04 3.455209974227e-04 0.0 
3.455209974227e-04 4.193568924016e-03 0.0 
0.0 0.0 0.0 
-1.287888655099e-04 9.180287174836e-04 0.0 
9.180287174836e-04 6.101514071421e-03 0.0 
0.0 0.0 0.0 
-1.542211512228e-04 2.197971454452e-04 0.0 
2.197971454452e-04 1.041823908287e-02 0.0 
0.0 0.0 0.0 
-2.546821728249e-04 5.480968731358e-04 0.0 
5.480968731358e-04 9.841184914503e-03 0.0 
0.0 0.0 0.0 
-1.602112249558e-04 1.012033157445e-04 0.0 
1.012033157445e-04 1.013470536168e-02 0.0 
0.0 0.0 0.0 
-5.262946410048e-04 5.943340713052e-04 0.0 
5.943340713052e-04 6.584743072838e-03 0.0 
0.0 0.0 0.0 
-2.833089277575e-04 3.075889859502e-04 0.0 
3.075889859502e-04 9.541918896218e-03 0.0 
0.0 0.0 0.0 
4.319204418022e-04 2.662278064980e-04 0.0 
2.662278064980e-04 5.978565670832e-03 0.0 
0.0 0.0 0.0 
-1.461927081059e-04 2.309162997033e-04 0.0 
2.309162997033e-04 1.025672915055e-02 0.0 
0.0 0.0 0.0 
-3.344459073944e-04 1.733112006832e-04 0.0 
1.733112006832e-04 9.222080861887e-03 0.0 
0.0 0.0 0.0 
5.038037330427e-04 9.472397178421e-05 0.0 
9.472397178421e-05 4.182870160025e-03 0.0 
0.0 0.0 0.0 
5.294632937141e-04 6.126854914277e-04 0.0 
6.126854914277e-04 4.425446034932e-03 0.0 
0.0 0.0 0.0 
-2.587642213800e-04 2.166702935496e-04 0.0 
2.166702935496e-04 9.436667913740e-03 0.0 
0.0 0.0 0.0 
-2.135460892801e-04 1.915753238422e-04 0.0 
1.915753238422e-04 1.004720682731e-02 0.0 
0.0 0.0 0.0 
-2.303812287399e-04 1.780399222896e-04 0.0 
1.780399222896e-04 9.481290581929e-03 0.0 
0.0 0.0 0.0 
-2.615754858332e-04 1.810794855406e-04 0.0 
1.810794855406e-04 9.263450410225e-03 0.0 
0.0 0.0 0.0 
3.481164197801e-04 4.206962817446e-04 0.0 
4.206962817446e-04 6.905796465821e-03 0.0 
0.0 0.0 0.0 
1.176453114438e-04 8.595781387341e-04 0.0 
8.595781387341e-04 8.227813650208e-03 0.0 
0.0 0.0 0.0 
3.840738764898e-04 4.446698989147e-04 0.0 
4.446698989147e-04 6.736040112175e-03 0.0 
0.0 0.0 0.0 
5.124934798553e-04 2.505799050054e-04 0.0 
2.505799050054e-04 5.221921794215e-03 0.0 
0.0 0.0 0.0 
-5.118527353570e-04 2.815617541635e-04 0.0 
2.815617541635e-04 6.737205203443e-03 0.0 
0.0 0.0 0.0 
2.934858871200e-04 7.033377554977e-04 0.0 
7.033377554977e-04 7.099185791058e-03 0.0 
0.0 0.0 0.0 
-3.561594257800e-04 3.187274879501e-04 0.0 
3.187274879501e-04 9.092545751237e-03 0.0 
0.0 0.0 0.0 
2.649426082564e-04 -2.721175061242e-05 0.0 
-2.721175061242e-05 2.091356201735e-03 0.0 
0.0 0.0 0.0 
5.221681037342e-04 4.380216441201e-04 0.0 
4.380216441201e-04 4.539643446446e-03 0.0 
0.0 0.0 0.0 
5.379718238976e-04 5.299374196844e-04 0.0 
5.299374196844e-04 5.083863171338e-03 0.0 
0.0 0.0 0.0 
3.482584845971e-04 6.929079070798e-04 0.0 
6.929079070798e-04 6.129982321050e-03 0.0 
0.0 0.0 0.0 
5.098393584033e-04 3.250147739918e-04 0.0 
3.250147739918e-04 2.261829494571e-03 0.0 
0.0 0.0 0.0 
5.070483260030e-04 4.942648126988e-04 0.0 
4.942648126988e-04 4.445557835945e-03 0.0 
0.0 0.0 0.0 
3.143211627752e-04 7.098502545208e-04 0.0 
7.098502545208e-04 6.579732645008e-03 0.0 
0.0 0.0 0.0 
-5.101340600632e-04 4.416151481546e-04 0.0 
4.416151481546e-04 7.155402707750e-03 0.0 
0.0 0.0 0.0 
5.380705607059e-04 1.723518422935e-04 0.0 
1.723518422935e-04 4.336720327191e-03 0.0 
0.0 0.0 0.0 
-3.607667097885e-04 1.344041457159e-04 0.0 
1.344041457159e-04 8.825266671654e-03 0.0 
0.0 0.0 0.0 
-3.008430300240e-04 4.911475087111e-05 0.0 
4.911475087111e-05 7.633831793715e-03 0.0 
0.0 0.0 0.0 
-5.123545799510e-04 9.651765050010e-04 0.0 
9.651765050010e-04 2.046688212036e-03 0.0 
0.0 0.0 0.0 
4.924527092656e-04 1.829343055233e-04 0.0 
1.829343055233e-04 5.066958635531e-03 0.0 
0.0 0.0 0.0 
3.737133853035e-04 6.866177641884e-04 0.0 
6.866177641884e-04 6.819304184165e-03 0.0 
0.0 0.0 0.0 
-2.149085265715e-04 5.316406520507e-04 0.0 
5.316406520507e-04 1.007090936989e-02 0.0 
0.0 0.0 0.0 
4.448818596614e-04 7.087407289767e-04 0.0 
7.087407289767e-04 5.269239820673e-03 0.0 
0.0 0.0 0.0 
5.316692325559e-04 2.121750706302e-04 0.0 
2.121750706302e-04 4.775801318081e-03 0.0 
0.0 0.0 0.0 
-3.260601003726e-04 9.963966813317e-05 0.0 
9.963966813317e-05 8.871157197377e-03 0.0 
0.0 0.0 0.0 
-3.894085519376e-04 8.272389690168e-04 0.0 
8.272389690168e-04 3.399034710650e-03 0.0 
0.0 0.0 0.0 
3.659297473879e-04 7.195922316491e-04 0.0 
7.195922316491e-04 6.721362277754e-03 0.0 
0.0 0.0 0.0 
4.106365641559e-04 6.284990498407e-04 0.0 
6.284990498407e-04 5.740354001627e-03 0.0 
0.0 0.0 0.0 
-5.525975217643e-04 4.224213045492e-04 0.0 
4.224213045492e-04 7.413562005909e-03 0.0 
0.0 0.0 0.0 
4.105213982366e-04 3.286334960513e-04 0.0 
3.286334960513e-04 6.278306681261e-03 0.0 
0.0 0.0 0.0 
3.743794331359e-04 1.281545758044e-05 0.0 
1.281545758044e-05 2.149201860692e-03 0.0 
0.0 0.0 0.0 
3.820433709705e-04 3.930760162626e-04 0.0 
3.930760162626e-04 6.589442348259e-03 0.0 
0.0 0.0 0.0 
3.038889429461e-04 5.774986865126e-04 0.0 
5.774986865126e-04 7.378599866505e-03 0.0 
0.0 0.0 0.0 
3.465661108282e-04 7.528869506775e-04 0.0 
7.528869506775e-04 6.636569805269e-03 0.0 
0.0 0.0 0.0 
-2.641081982681e-04 1.274247208646e-04 0.0 
1.274247208646e-04 9.487458798793e-03 0.0 
0.0 0.0 0.0 
-9.726456045911e-05 8.591830229416e-04 0.0 
8.591830229416e-04 8.367986387554e-03 0.0 
0.0 0.0 0.0 
2.738173493595e-04 5.042237408891e-04 0.0 
5.042237408891e-04 7.388011077501e-03 0.0 
0.0 0.0 0.0 
-3.099905023066e-04 3.741705579425e-04 0.0 
3.741705579425e-04 4.417808677404e-03 0.0 
0.0 0.0 0.0 
-3.306164769175e-04 1.345832649486e-04 0.0 
1.345832649486e-04 9.049155658489e-03 0.0 
0.0 0.0 0.0 
3.796351358987e-05 8.975064687539e-04 0.0 
8.975064687539e-04 8.520498849971e-03 0.0 
0.0 0.0 0.0 
-2.249806797363e-04 2.123650165449e-04 0.0 
2.123650165449e-04 9.655212247599e-03 0.0 
0.0 0.0 0.0 
3.820400120897e-04 7.354417111299e-04 0.0 
7.354417111299e-04 6.182026075840e-03 0.0 
0.0 0.0 0.0 
4.643714928143e-04 5.847690704298e-04 0.0 
5.847690704298e-04 4.826284875690e-03 0.0 
0.0 0.0 0.0 
4.788541624599e-04 1.075273725331e-04 0.0 
1.075273725331e-04 4.609807460831e-03 0.0 
0.0 0.0 0.0 
2.719843124699e-04 2.527765220678e-04 0.0 
2.527765220678e-04 1.284890294448e-03 0.0 
0.0 0.0 0.0 
-1.907219418975e-04 2.052788901070e-04 0.0 
2.052788901070e-04 9.871417068578e-03 0.0 
0.0 0.0 0.0 
2.840986997670e-04 -1.274510573932e-05 0.0 
-1.274510573932e-05 2.265486817131e-03 0.0 
0.0 0.0 0.0 
-3.675400741894e-04 2.550383086226e-04 0.0 
2.550383086226e-04 4.908172941881e-03 0.0 
0.0 0.0 0.0 
-1.576224977082e-04 8.376337824879e-04 0.0 
8.376337824879e-04 8.341914907648e-03 0.0 
0.0 0.0 0.0 
-1.248755687778e-04 1.839891595307e-04 0.0 
1.839891595307e-04 1.031175589956e-02 0.0 
0.0 0.0 0.0 
3.021394990796e-04 -6.524645870044e-05 0.0 
-6.524645870044e-05 1.894775507337e-03 0.0 
0.0 0.0 0.0 
-3.137254870366e-04 7.794099748009e-04 0.0 
7.794099748009e-04 7.252877015481e-03 0.0 
0.0 0.0 0.0 
-2.916528503353e-04 2.192547839644e-04 0.0 
2.192547839644e-04 9.216670258874e-03 0.0 
0.0 0.0 0.0 
4.819916195085e-04 7.986153290797e-05 0.0 
7.986153290797e-05 4.522808523686e-03 0.0 
0.0 0.0 0.0 
4.177166164849e-04 1.545503716825e-04 0.0 
1.545503716825e-04 2.289300071500e-03 0.0 
0.0 0.0 0.0 
8.818144067257e-05 1.024059114690e-03 0.0 
1.024059114690e-03 4.354303619997e-03 0.0 
0.0 0.0 0.0 
2.061321061699e-04 -4.751044921319e-05 0.0 
-4.751044921319e-05 1.417934746877e-03 0.0 
0.0 0.0 0.0 
3.797446414608e-04 6.961224233764e-05 0.0 
6.961224233764e-05 1.877765574626e-03 0.0 
0.0 0.0 0.0 
2.912115583760e-04 3.792365941835e-06 0.0 
3.792365941835e-06 1.646707262985e-03 0.0 
0.0 0.0 0.0 
4.147313924767e-04 7.211912633119e-04 0.0 
7.211912633119e-04 5.726521574099e-03 0.0 
0.0 0.0 0.0 
-7.502704483664e-05 4.380380263812e-04 0.0 
4.380380263812e-04 1.094098765981e-02 0.0 
0.0 0.0 0.0 
-4.070543967843e-04 1.999733739553e-04 0.0 
1.999733739553e-04 5.372835741894e-03 0.0 
0.0 0.0 0.0 
3.103091071335e-04 3.903604811842e-04 0.0 
3.903604811842e-04 7.078943938111e-03 0.0 
0.0 0.0 0.0 
4.510146970189e-04 7.547134494262e-04 0.0 
7.547134494262e-04 4.291916954581e-03 0.0 
0.0 0.0 0.0 
-3.696510245428e-04 1.761653935609e-04 0.0 
1.761653935609e-04 9.002169122772e-03 0.0 
0.0 0.0 0.0 
4.050197438521e-04 3.269833908215e-04 0.0 
3.269833908215e-04 1.701964119279e-03 0.0 
0.0 0.0 0.0 
2.205258668277e-04 5.762887466106e-04 0.0 
5.762887466106e-04 7.729113317258e-03 0.0 
0.0 0.0 0.0 
2.257437470397e-04 -1.228709642773e-04 0.0 
-1.228709642773e-04 1.658837654888e-03 0.0 
0.0 0.0 0.0 
3.370984069138e-04 -9.285857110636e-07 0.0 
-9.285857110636e-07 2.673673584602e-03 0.0 
0.0 0.0 0.0 
2.822286588264e-04 8.036943298102e-04 0.0 
8.036943298102e-04 7.017211144290e-03 0.0 
0.0 0.0 0.0 
5.381150944999e-04 2.680361893984e-04 0.0 
2.680361893984e-04 4.448836408684e-03 0.0 
0.0 0.0 0.0 
9.091380692183e-05 8.661358322237e-04 0.0 
8.661358322237e-04 8.170480986261e-03 0.0 
0.0 0.0 0.0 
-2.480792708183e-04 9.302202273151e-04 0.0 
9.302202273151e-04 5.479439351894e-03 0.0 
0.0 0.0 0.0 
-3.715114096551e-04 2.762968505027e-04 0.0 
2.762968505027e-04 9.323902753158e-03 0.0 
0.0 0.0 0.0 
1.616025974673e-04 9.120100071052e-04 0.0 
9.120100071052e-04 8.286924276663e-03 0.0 
0.0 0.0 0.0 
-2.918522862344e-04 1.823389612598e-04 0.0 
1.823389612598e-04 9.043762952816e-03 0.0 
0.0 0.0 0.0 
-2.629221757301e-04 4.996133452978e-04 0.0 
4.996133452978e-04 1.007598511708e-02 0.0 
0.0 0.0 0.0 
-2.957517523465e-04 2.111670925483e-04 0.0 
2.111670925483e-04 9.608748339834e-03 0.0 
0.0 0.0 0.0 
-2.896820217899e-04 2.572150224878e-04 0.0 
2.572150224878e-04 9.769397544463e-03 0.0 
0.0 0.0 0.0 
4.182124228118e-04 7.524834530108e-04 0.0 
7.524834530108e-04 2.391204863176e-03 0.0 
0.0 0.0 0.0 
3.448124398859e-04 3.306136304524e-04 0.0 
3.306136304524e-04 6.777189517840e-03 0.0 
0.0 0.0 0.0 
-2.892062095673e-04 2.608724318728e-04 0.0 
2.608724318728e-04 9.383783922436e-03 0.0 
0.0 0.0 0.0 
2.520521443077e-04 8.695879056494e-04 0.0 
8.695879056494e-04 5.594957904569e-03 0.0 
0.0 0.0 0.0 
-4.436859347228e-04 1.580545544279e-04 0.0 
1.580545544279e-04 5.829632099558e-03 0.0 
0.0 0.0 0.0 
8.317607337105e-05 9.037680151710e-04 0.0 
9.037680151710e-04 8.651226675465e-03 0.0 
0.0 0.0 0.0 
5.142906986189e-04 5.485645457004e-04 0.0 
5.485645457004e-04 2.486632202986e-03 0.0 
0.0 0.0 0.0 
3.004271080962e-04 -8.730853831190e-05 0.0 
-8.730853831190e-05 2.496526573047e-03 0.0 
0.0 0.0 0.0 
1.600661323962e-04 8.880014142834e-04 0.0 
8.880014142834e-04 7.785174804687e-03 0.0 
0.0 0.0 0.0 
1.590046236575e-04 -4.334606365485e-05 0.0 
-4.334606365485e-05 1.480926179658e-03 0.0 
0.0 0.0 0.0 
-7.460903209844e-05 8.798136246636e-04 0.0 
8.798136246636e-04 6.475311325431e-03 0.0 
0.0 0.0 0.0 
3.063744627345e-04 7.744033280675e-04 0.0 
7.744033280675e-04 7.089638576837e-03 0.0 
0.0 0.0 0.0 
-2.306665649184e-04 2.946324519109e-04 0.0 
2.946324519109e-04 1.013306471182e-02 0.0 
0.0 0.0 0.0 
-2.136478881193e-04 3.500372121060e-04 0.0 
3.500372121060e-04 1.028579731164e-02 0.0 
0.0 0.0 0.0 
2.760032375368e-04 7.310427298880e-04 0.0 
7.310427298880e-04 7.027820592915e-03 0.0 
0.0 0.0 0.0 
-2.549147667583e-04 2.026254426941e-04 0.0 
2.026254426941e-04 9.828338569541e-03 0.0 
0.0 0.0 0.0 
3.661118067928e-04 8.291564258744e-04 0.0 
8.291564258744e-04 4.719094548453e-03 0.0 
0.0 0.0 0.0 
-2.545590589529e-04 7.832104309962e-04 0.0 
7.832104309962e-04 8.657426925684e-03 0.0 
0.0 0.0 0.0 
-4.612778135247e-04 1.300457323568e-04 0.0 
1.300457323568e-04 6.276625902878e-03 0.0 
0.0 0.0 0.0 
-2.243536144727e-04 6.856584683967e-04 0.0 
6.856584683967e-04 9.755828744552e-03 0.0 
0.0 0.0 0.0 
-4.646132394899e-04 1.194979741833e-04 0.0 
1.194979741833e-04 6.718050008321e-03 0.0 
0.0 0.0 0.0 
-4.454297948764e-04 1.111790034301e-04 0.0 
1.111790034301e-04 6.933870559629e-03 0.0 
0.0 0.0 0.0 
4.012962163429e-04 7.660743270326e-04 0.0 
7.660743270326e-04 5.209999259949e-03 0.0 
0.0 0.0 0.0 
-4.507751469139e-04 1.226893069442e-04 0.0 
1.226893069442e-04 7.157209670946e-03 0.0 
0.0 0.0 0.0 
1.881616543131e-05 8.586728301650e-04 0.0 
8.586728301650e-04 6.839816040897e-03 0.0 
0.0 0.0 0.0 
1.193591685260e-04 8.837024719786e-04 0.0 
8.837024719786e-04 5.625402162569e-03 0.0 
0.0 0.0 0.0 
4.882434833804e-04 5.256537259711e-04 0.0 
5.256537259711e-04 4.902892804268e-03 0.0 
0.0 0.0 0.0 
4.466042724995e-04 1.993864877378e-04 0.0 
1.993864877378e-04 1.972304178438e-03 0.0 
0.0 0.0 0.0 
4.726899710814e-04 6.959525532523e-04 0.0 
6.959525532523e-04 4.809360720814e-03 0.0 
0.0 0.0 0.0 
-1.794683938176e-04 2.419728923352e-04 0.0 
2.419728923352e-04 1.004108855225e-02 0.0 
0.0 0.0 0.0 
-2.177373965947e-04 6.257283744411e-04 0.0 
6.257283744411e-04 9.971472563846e-03 0.0 
0.0 0.0 0.0 
4.055233714677e-04 3.009078039450e-04 0.0 
3.009078039450e-04 6.310805405954e-03 0.0 
0.0 0.0 0.0 
1.375895982019e-04 9.171052220512e-04 0.0 
9.171052220512e-04 8.219139561811e-03 0.0 
0.0 0.0 0.0 
5.825639361048e-04 3.734365047114e-04 0.0 
3.734365047114e-04 4.432111190875e-03 0.0 
0.0 0.0 0.0 
-2.439907990038e-04 3.016008000295e-04 0.0 
3.016008000295e-04 9.763879732356e-03 0.0 
0.0 0.0 0.0 
5.051226702713e-04 6.351493161804e-04 0.0 
6.351493161804e-04 4.886433168253e-03 0.0 
0.0 0.0 0.0 
3.095532722892e-04 3.079898951731e-04 0.0 
3.079898951731e-04 6.959692271558e-03 0.0 
0.0 0.0 0.0 
-2.528465787917e-04 2.566678597259e-04 0.0 
2.566678597259e-04 9.603246636613e-03 0.0 
0.0 0.0 0.0 
-3.317402049910e-04 2.671149554260e-04 0.0 
2.671149554260e-04 9.547138363644e-03 0.0 
0.0 0.0 0.0 
4.071111406385e-04 6.952986633897e-04 0.0 
6.952986633897e-04 6.261944702376e-03 0.0 
0.0 0.0 0.0 
4.266979747052e-04 7.614916387311e-04 0.0 
7.614916387311e-04 4.752560471130e-03 0.0 
0.0 0.0 0.0 
-2.147365140590e-04 8.104329807914e-04 0.0 
8.104329807914e-04 9.017157721613e-03 0.0 
0.0 0.0 0.0 
-4.274061092189e-04 5.856286184026e-04 0.0 
5.856286184026e-04 8.168912452951e-03 0.0 
0.0 0.0 0.0 
3.530739719384e-04 3.778767364440e-05 0.0 
3.778767364440e-05 1.998683060516e-03 0.0 
0.0 0.0 0.0 
4.392235931272e-04 3.635054463381e-04 0.0 
3.635054463381e-04 2.516747251016e-03 0.0 
0.0 0.0 0.0 
-1.657482237716e-04 9.497464264730e-04 0.0 
9.497464264730e-04 5.374901091560e-03 0.0 
0.0 0.0 0.0 
-3.212573548664e-04 7.764758588319e-04 0.0 
7.764758588319e-04 7.253323658829e-03 0.0 
0.0 0.0 0.0 
2.705439549737e-04 2.821353231329e-04 0.0 
2.821353231329e-04 7.151059424554e-03 0.0 
0.0 0.0 0.0 
-3.353305609939e-04 2.177058599097e-04 0.0 
2.177058599097e-04 9.389074236943e-03 0.0 
0.0 0.0 0.0 
4.290391944974e-04 6.504081793036e-04 0.0 
6.504081793036e-04 4.769544963229e-03 0.0 
0.0 0.0 0.0 
-3.250212253081e-04 7.452883572146e-04 0.0 
7.452883572146e-04 7.940792445512e-03 0.0 
0.0 0.0 0.0 
3.198069701058e-04 7.516681725148e-04 0.0 
7.516681725148e-04 7.185294510842e-03 0.0 
0.0 0.0 0.0 
-2.233177043657e-04 1.549281323122e-04 0.0 
1.549281323122e-04 9.877706094099e-03 0.0 
0.0 0.0 0.0 
-2.262108459719e-04 8.070633199050e-04 0.0 
8.070633199050e-04 9.327330178723e-03 0.0 
0.0 0.0 0.0 
-3.533862826633e-04 2.176199058913e-04 0.0 
2.176199058913e-04 8.776818205719e-03 0.0 
0.0 0.0 0.0 
3.522592244749e-04 6.311310699000e-04 0.0 
6.311310699000e-04 7.095778427248e-03 0.0 
0.0 0.0 0.0 
4.398131889083e-04 6.071651692738e-04 0.0 
6.071651692738e-04 5.284564479184e-03 0.0 
0.0 0.0 0.0 
2.986048767137e-04 6.742864386426e-04 0.0 
6.742864386426e-04 7.192481599500e-03 0.0 
0.0 0.0 0.0 
-1.117986151608e-04 9.028127704421e-04 0.0 
9.028127704421e-04 6.472082364590e-03 0.0 
0.0 0.0 0.0 
-2.018187234916e-04 2.357760771698e-04 0.0 
2.357760771698e-04 1.020335504184e-02 0.0 
0.0 0.0 0.0 
-2.153723983526e-04 7.927864142635e-04 0.0 
7.927864142635e-04 9.657609415270e-03 0.0 
0.0 0.0 0.0 
4.436249202622e-04 6.742246118071e-04 0.0 
6.742246118071e-04 5.803543870432e-03 0.0 
0.0 0.0 0.0 
4.922632165714e-04 3.998750084032e-04 0.0 
3.998750084032e-04 2.133735571352e-03 0.0 
0.0 0.0 0.0 
-2.883017540534e-05 9.159608378460e-04 0.0 
9.159608378460e-04 8.389567660327e-03 0.0 
0.0 0.0 0.0 
-6.549696634861e-05 8.638958639758e-04 0.0 
8.638958639758e-04 6.850436526431e-03 0.0 
0.0 0.0 0.0 
3.803465164396e-04 7.218685860414e-04 0.0 
7.218685860414e-04 4.735738196644e-03 0.0 
0.0 0.0 0.0 
3.767947015065e-04 6.501777358077e-04 0.0 
6.501777358077e-04 6.194803087305e-03 0.0 
0.0 0.0 0.0 
3.681401710469e-04 4.846859835977e-04 0.0 
4.846859835977e-04 6.765705420779e-03 0.0 
0.0 0.0 0.0 
4.008732686054e-04 2.125329562806e-04 0.0 
2.125329562806e-04 2.164678780591e-03 0.0 
0.0 0.0 0.0 
4.761919174945e-04 6.545924995875e-04 0.0 
6.545924995875e-04 5.345465544951e-03 0.0 
0.0 0.0 0.0 
-4.276231964674e-04 4.651929806185e-04 0.0 
4.651929806185e-04 8.621899272250e-03 0.0 
0.0 0.0 0.0 
2.548606915043e-04 2.080375183804e-04 0.0 
2.080375183804e-04 7.161506158459e-03 0.0 
0.0 0.0 0.0 
-4.052216955229e-04 5.341397604551e-04 0.0 
5.341397604551e-04 8.713427403310e-03 0.0 
0.0 0.0 0.0 
-8.655621435916e-05 8.970107534957e-04 0.0 
8.970107534957e-04 8.362427179130e-03 0.0 
0.0 0.0 0.0 
-4.408999241748e-04 3.971959688751e-04 0.0 
3.971959688751e-04 8.515728416474e-03 0.0 
0.0 0.0 0.0 
-4.464592662125e-04 2.734615520224e-04 0.0 
2.734615520224e-04 8.261234914949e-03 0.0 
0.0 0.0 0.0 
-3.858115939782e-04 6.562312409278e-04 0.0 
6.562312409278e-04 8.220733264992e-03 0.0 
0.0 0.0 0.0 
1.901708592942e-04 8.768994205677e-04 0.0 
8.768994205677e-04 7.845334970959e-03 0.0 
0.0 0.0 0.0 
3.538508104950e-04 2.820818476204e-04 0.0 
2.820818476204e-04 6.616308012705e-03 0.0 
0.0 0.0 0.0 
-3.243806640987e-04 2.633904407378e-04 0.0 
2.633904407378e-04 9.162880336989e-03 0.0 
0.0 0.0 0.0 
-1.734208464104e-04 3.869900696971e-04 0.0 
3.869900696971e-04 1.028100584675e-02 0.0 
0.0 0.0 0.0 
-4.470132674201e-04 3.324420497953e-04 0.0 
3.324420497953e-04 8.396011534391e-03 0.0 
0.0 0.0 0.0 
4.583683482899e-04 6.060076560896e-04 0.0 
6.060076560896e-04 3.848748297845e-03 0.0 
0.0 0.0 0.0 
-8.214547084717e-05 8.836314464137e-04 0.0 
8.836314464137e-04 8.749833885332e-03 0.0 
0.0 0.0 0.0 
-1.718947898139e-04 1.782977486511e-04 0.0 
1.782977486511e-04 1.026288945868e-02 0.0 
0.0 0.0 0.0 
7.323661885916e-05 9.183152074477e-04 0.0 
9.183152074477e-04 6.022649998751e-03 0.0 
0.0 0.0 0.0 
-1.613571793124e-05 9.116294470050e-04 0.0 
9.116294470050e-04 6.442752489081e-03 0.0 
0.0 0.0 0.0 
4.470595824633e-04 6.315317254249e-04 0.0 
6.315317254249e-04 4.311221114555e-03 0.0 
0.0 0.0 0.0 
-3.209370250946e-04 3.134186160298e-04 0.0 
3.134186160298e-04 9.318760407866e-03 0.0 
0.0 0.0 0.0 
-4.150120736431e-04 7.302008044378e-04 0.0 
7.302008044378e-04 6.259704617749e-03 0.0 
0.0 0.0 0.0 
7.132657632281e-05 8.957687678392e-04 0.0 
8.957687678392e-04 6.835890801743e-03 0.0 
0.0 0.0 0.0 
-4.111460619360e-04 7.746746109836e-04 0.0 
7.746746109836e-04 6.253638937256e-03 0.0 
0.0 0.0 0.0 
2.189816504670e-04 8.495612730214e-04 0.0 
8.495612730214e-04 7.402046123301e-03 0.0 
0.0 0.0 0.0 
-6.651783986544e-05 9.190377355741e-04 0.0 
9.190377355741e-04 9.123377624467e-03 0.0 
0.0 0.0 0.0 
4.824041008433e-04 5.586424121300e-04 0.0 
5.586424121300e-04 4.368186432661e-03 0.0 
0.0 0.0 0.0 
1.533578806832e-04 4.031730307965e-05 0.0 
4.031730307965e-05 1.320024051858e-03 0.0 
0.0 0.0 0.0 
-1.915936220899e-04 4.619336061052e-04 0.0 
4.619336061052e-04 1.019476477398e-02 0.0 
0.0 0.0 0.0 
-4.537015584062e-04 6.522391354247e-04 0.0 
6.522391354247e-04 6.595922825227e-03 0.0 
0.0 0.0 0.0 
5.672130342482e-04 4.515717854414e-04 0.0 
4.515717854414e-04 4.748733186163e-03 0.0 
0.0 0.0 0.0 
-4.732410004760e-06 9.529363760636e-04 0.0 
9.529363760636e-04 8.780297010502e-03 0.0 
0.0 0.0 0.0 
-3.731395378629e-04 2.240149165678e-04 0.0 
2.240149165678e-04 9.167732925143e-03 0.0 
0.0 0.0 0.0 
3.829856581916e-04 3.059909910219e-04 0.0 
3.059909910219e-04 6.444432568536e-03 0.0 
0.0 0.0 0.0 
2.215833802615e-04 8.538824785188e-04 0.0 
8.538824785188e-04 5.181047221690e-03 0.0 
0.0 0.0 0.0 
1.379471799312e-04 1.274913023006e-04 0.0 
1.274913023006e-04 1.027036283843e-03 0.0 
0.0 0.0 0.0 
2.140580108250e-04 1.736519793066e-04 0.0 
1.736519793066e-04 7.386414383389e-03 0.0 
0.0 0.0 0.0 
-2.431780861543e-04 8.285101059598e-04 0.0 
8.285101059598e-04 7.244540558010e-03 0.0 
0.0 0.0 0.0 
1.319315474897e-04 8.180393078528e-04 0.0 
8.180393078528e-04 7.302415080610e-03 0.0 
0.0 0.0 0.0 
-1.364880746383e-04 8.890959088298e-04 0.0 
8.890959088298e-04 9.062398081963e-03 0.0 
0.0 0.0 0.0 
-1.035065687107e-04 7.921010406145e-05 0.0 
7.921010406145e-05 7.019588096231e-04 0.0 
0.0 0.0 0.0 
4.138243630742e-04 3.836194125886e-04 0.0 
3.836194125886e-04 6.432239291744e-03 0.0 
0.0 0.0 0.0 
2.557589927032e-04 8.840952520905e-04 0.0 
8.840952520905e-04 3.860126999788e-03 0.0 
0.0 0.0 0.0 
-4.040928876303e-04 1.781633990699e-04 0.0 
1.781633990699e-04 8.781438096735e-03 0.0 
0.0 0.0 0.0 
4.749728061832e-04 1.185411987935e-04 0.0 
1.185411987935e-04 4.961668813034e-03 0.0 
0.0 0.0 0.0 
4.969270712376e-04 6.804740632629e-04 0.0 
6.804740632629e-04 4.347893348558e-03 0.0 
0.0 0.0 0.0 
2.896633972931e-04 2.356842955510e-04 0.0 
2.356842955510e-04 6.970960280803e-03 0.0 
0.0 0.0 0.0 
-7.978931168218e-06 9.006899314135e-04 0.0 
9.006899314135e-04 6.833575864118e-03 0.0 
0.0 0.0 0.0 
5.171294452231e-04 6.612809014753e-04 0.0 
6.612809014753e-04 3.885004742640e-03 0.0 
0.0 0.0 0.0 
-2.833477222204e-04 7.829494905272e-04 0.0 
7.829494905272e-04 7.601960782221e-03 0.0 
0.0 0.0 0.0 
2.853914687262e-05 -7.655248786130e-05 0.0 
-7.655248786130e-05 1.064531710676e-03 0.0 
0.0 0.0 0.0 
-2.236693834684e-04 8.039962605092e-04 0.0 
8.039962605092e-04 8.321648076853e-03 0.0 
0.0 0.0 0.0 
2.108337562496e-04 7.821894293306e-04 0.0 
7.821894293306e-04 7.412177647353e-03 0.0 
0.0 0.0 0.0 
-1.839266691964e-04 7.609988511592e-04 0.0 
7.609988511592e-04 9.896706540295e-03 0.0 
0.0 0.0 0.0 
-1.932513534244e-04 8.241278680935e-04 0.0 
8.241278680935e-04 8.690034934004e-03 0.0 
0.0 0.0 0.0 
4.773384449386e-04 4.305091511578e-04 0.0 
4.305091511578e-04 2.978890636387e-03 0.0 
0.0 0.0 0.0 
3.793195982535e-04 2.268090326121e-04 0.0 
2.268090326121e-04 6.322627811824e-03 0.0 
0.0 0.0 0.0 
-1.199205405399e-04 2.683277541450e-04 0.0 
2.683277541450e-04 1.041631793264e-02 0.0 
0.0 0.0 0.0 
2.920271840168e-05 9.482455837319e-04 0.0 
9.482455837319e-04 8.998409260095e-03 0.0 
0.0 0.0 0.0 
1.476850661242e-04 8.282987661841e-04 0.0 
8.282987661841e-04 7.794157045679e-03 0.0 
0.0 0.0 0.0 
2.978176233375e-04 7.910248591401e-04 0.0 
7.910248591401e-04 5.169860749694e-03 0.0 
0.0 0.0 0.0 
-2.536557222790e-04 7.904669514073e-04 0.0 
7.904669514073e-04 7.959007616926e-03 0.0 
0.0 0.0 0.0 
2.605862462435e-04 1.976516698626e-04 0.0 
1.976516698626e-04 7.049708903834e-03 0.0 
0.0 0.0 0.0 
4.239880485655e-04 -1.454499044206e-05 0.0 
-1.454499044206e-05 4.501300850044e-03 0.0 
0.0 0.0 0.0 
-1.494431234887e-04 8.644091115686e-04 0.0 
8.644091115686e-04 8.338037639892e-03 0.0 
0.0 0.0 0.0 
-3.233529145126e-04 2.192287394706e-04 0.0 
2.192287394706e-04 8.997129498341e-03 0.0 
0.0 0.0 0.0 
3.234516533526e-04 2.603788590198e-04 0.0 
2.603788590198e-04 6.788094890600e-03 0.0 
0.0 0.0 0.0 
3.538534538641e-04 3.707134353817e-04 0.0 
3.707134353817e-04 6.747666782999e-03 0.0 
0.0 0.0 0.0 
-2.696035340739e-04 5.768135492826e-08 0.0 
5.768135492826e-08 7.335720015500e-03 0.0 
0.0 0.0 0.0 
-2.645687001295e-04 5.698486538470e-06 0.0 
5.698486538470e-06 7.331434711871e-03 0.0 
0.0 0.0 0.0 
-4.554480676686e-04 4.312628487671e-04 0.0 
4.312628487671e-04 8.876168237136e-03 0.0 
0.0 0.0 0.0 
-1.818546065691e-04 8.464079088359e-04 0.0 
8.464079088359e-04 7.967840575900e-03 0.0 
0.0 0.0 0.0 
4.584196431821e-04 1.096283437204e-04 0.0 
1.096283437204e-04 5.137181346907e-03 0.0 
0.0 0.0 0.0 
-4.186382274812e-04 6.176957870317e-04 0.0 
6.176957870317e-04 8.514083596261e-03 0.0 
0.0 0.0 0.0 
7.210983978445e-05 9.027460149724e-04 0.0 
9.027460149724e-04 6.427557582426e-03 0.0 
0.0 0.0 0.0 
2.423437330477e-04 7.455164349959e-04 0.0 
7.455164349959e-04 7.740232703155e-03 0.0 
0.0 0.0 0.0 
2.701301288666e-04 8.809599162584e-04 0.0 
8.809599162584e-04 5.156572114307e-03 0.0 
0.0 0.0 0.0 
-7.336327395857e-05 3.817400751060e-04 0.0 
3.817400751060e-04 1.096501366262e-02 0.0 
0.0 0.0 0.0 
-4.522537135652e-04 2.170139092818e-04 0.0 
2.170139092818e-04 7.888967638258e-03 0.0 
0.0 0.0 0.0 
1.909499174491e-05 8.715018706169e-04 0.0 
8.715018706169e-04 6.448673376553e-03 0.0 
0.0 0.0 0.0 
5.123867865235e-04 1.985817600681e-04 0.0 
1.985817600681e-04 4.948517880149e-03 0.0 
0.0 0.0 0.0 
4.437965543405e-04 5.196557199887e-04 0.0 
5.196557199887e-04 2.914320645392e-03 0.0 
0.0 0.0 0.0 
4.935320202140e-04 8.640681448965e-05 0.0 
8.640681448965e-05 4.350301247707e-03 0.0 
0.0 0.0 0.0 
-2.128340283842e-04 8.351689902062e-04 0.0 
8.351689902062e-04 7.602966236866e-03 0.0 
0.0 0.0 0.0 
-3.549879912772e-04 7.319993103064e-04 0.0 
7.319993103064e-04 7.592872552562e-03 0.0 
0.0 0.0 0.0 
-3.579729077874e-04 2.655845346931e-04 0.0 
2.655845346931e-04 8.941032101727e-03 0.0 
0.0 0.0 0.0 
-3.407210761576e-04 6.934254800157e-04 0.0 
6.934254800157e-04 8.567266516380e-03 0.0 
0.0 0.0 0.0 
-3.727608023957e-04 6.521435713116e-04 0.0 
6.521435713116e-04 8.859522775220e-03 0.0 
0.0 0.0 0.0 
8.192314163202e-05 -4.576920892204e-05 0.0 
-4.576920892204e-05 1.069378414686e-03 0.0 
0.0 0.0 0.0 
5.201961023731e-04 1.245337133469e-04 0.0 
1.245337133469e-04 4.077681032964e-03 0.0 
0.0 0.0 0.0 
-4.632160166399e-04 6.961076819280e-04 0.0 
6.961076819280e-04 6.590839791149e-03 0.0 
0.0 0.0 0.0 
-4.204840799832e-04 5.563749475613e-04 0.0 
5.563749475613e-04 8.445544511819e-03 0.0 
0.0 0.0 0.0 
-4.505918119346e-04 5.236922562186e-04 0.0 
5.236922562186e-04 8.715951152145e-03 0.0 
0.0 0.0 0.0 
2.059344477714e-04 8.538862202401e-04 0.0 
8.538862202401e-04 7.902415761783e-03 0.0 
0.0 0.0 0.0 
1.858024786261e-04 3.430779388128e-05 0.0 
3.430779388128e-05 1.662685514336e-03 0.0 
0.0 0.0 0.0 
3.341493297082e-04 7.952244253810e-05 0.0 
7.952244253810e-05 1.860723142951e-03 0.0 
0.0 0.0 0.0 
-1.849577371458e-04 8.676579517943e-04 0.0 
8.676579517943e-04 6.869054696791e-03 0.0 
0.0 0.0 0.0 
4.766954472402e-04 4.065100755855e-05 0.0 
4.065100755855e-05 4.090575508990e-03 0.0 
0.0 0.0 0.0 
-5.001078055203e-04 1.034946916340e-04 0.0 
1.034946916340e-04 6.936031182132e-03 0.0 
0.0 0.0 0.0 
-4.895810767649e-04 1.043163463490e-04 0.0 
1.043163463490e-04 7.159948100027e-03 0.0 
0.0 0.0 0.0 
-4.077235889348e-04 2.311513815483e-04 0.0 
2.311513815483e-04 8.945241240855e-03 0.0 
0.0 0.0 0.0 
2.762285270828e-04 6.716798461307e-04 0.0 
6.716798461307e-04 2.450936681539e-03 0.0 
0.0 0.0 0.0 
5.056935716301e-04 1.525846225965e-04 0.0 
1.525846225965e-04 4.686526931697e-03 0.0 
0.0 0.0 0.0 
3.499789112849e-04 6.107528726676e-04 0.0 
6.107528726676e-04 6.830953767904e-03 0.0 
0.0 0.0 0.0 
4.334942328779e-04 2.595963997997e-04 0.0 
2.595963997997e-04 1.820939253982e-03 0.0 
0.0 0.0 0.0 
-4.255827160948e-05 9.428093282878e-04 0.0 
9.428093282878e-04 9.689555071289e-03 0.0 
0.0 0.0 0.0 
-2.450599245596e-04 2.481740442576e-04 0.0 
2.481740442576e-04 9.982628163600e-03 0.0 
0.0 0.0 0.0 
4.598278038095e-04 3.726681716446e-05 0.0 
3.726681716446e-05 4.442963281515e-03 0.0 
0.0 0.0 0.0 
3.730668485595e-04 2.794773967176e-04 0.0 
2.794773967176e-04 6.491016787309e-03 0.0 
0.0 0.0 0.0 
7.582709865894e-05 -5.199393805951e-05 0.0 
-5.199393805951e-05 7.344985757225e-04 0.0 
0.0 0.0 0.0 
3.960263931708e-04 5.397121379839e-04 0.0 
5.397121379839e-04 6.482223930743e-03 0.0 
0.0 0.0 0.0 
-2.276707584326e-04 8.200843789540e-04 0.0 
8.200843789540e-04 7.245689324827e-03 0.0 
0.0 0.0 0.0 
8.309509244864e-05 -3.807829156308e-05 0.0 
-3.807829156308e-05 7.270366461070e-04 0.0 
0.0 0.0 0.0 
-2.038097247984e-04 2.910428212432e-04 0.0 
2.910428212432e-04 9.978729445099e-03 0.0 
0.0 0.0 0.0 
2.913605392256e-04 1.290445080416e-04 0.0 
1.290445080416e-04 1.735184063498e-03 0.0 
0.0 0.0 0.0 
-4.595835171531e-04 5.506058673526e-04 0.0 
5.506058673526e-04 8.446654055944e-03 0.0 
0.0 0.0 0.0 
-3.595335260534e-04 7.332649087530e-04 0.0 
7.332649087530e-04 7.592722694266e-03 0.0 
0.0 0.0 0.0 
5.293297753894e-04 3.888108931830e-04 0.0 
3.888108931830e-04 4.646068794287e-03 0.0 
0.0 0.0 0.0 
5.289866344793e-04 4.222879858096e-04 0.0 
4.222879858096e-04 5.486594525617e-03 0.0 
0.0 0.0 0.0 
-1.922113793204e-04 3.366049194063e-04 0.0 
3.366049194063e-04 1.013044573384e-02 0.0 
0.0 0.0 0.0 
4.897399367565e-04 4.612751682008e-04 0.0 
4.612751682008e-04 5.951760398005e-03 0.0 
0.0 0.0 0.0 
-9.515717907460e-05 8.914155881169e-04 0.0 
8.914155881169e-04 6.846437820418e-03 0.0 
0.0 0.0 0.0 
-1.578617385356e-04 8.536650342587e-04 0.0 
8.536650342587e-04 6.870969288989e-03 0.0 
0.0 0.0 0.0 
-5.410735865818e-04 9.286489787777e-04 0.0 
9.286489787777e-04 1.412013880119e-03 0.0 
0.0 0.0 0.0 
3.095671763429e-04 1.868634638956e-04 0.0 
1.868634638956e-04 1.422409158775e-03 0.0 
0.0 0.0 0.0 
-1.341056876791e-04 8.608957218375e-04 0.0 
8.608957218375e-04 8.712410337989e-03 0.0 
0.0 0.0 0.0 
-4.710178561442e-04 2.404172475428e-04 0.0 
2.404172475428e-04 8.492732659776e-03 0.0 
0.0 0.0 0.0 
-6.303924505369e-05 9.253845399595e-04 0.0 
9.253845399595e-04 8.742098852073e-03 0.0 
0.0 0.0 0.0 
2.280230054992e-04 9.968583372804e-04 0.0 
9.968583372804e-04 3.843207717103e-03 0.0 
0.0 0.0 0.0 
-3.166839878974e-04 4.964961884272e-04 0.0 
4.964961884272e-04 9.484201094926e-03 0.0 
0.0 0.0 0.0 
-1.615198938381e-04 8.560749145546e-04 0.0 
8.560749145546e-04 9.064836721382e-03 0.0 
0.0 0.0 0.0 
-4.661231986636e-04 1.682990733290e-04 0.0 
1.682990733290e-04 7.301803355525e-03 0.0 
0.0 0.0 0.0 
-1.176746279636e-04 8.859753424047e-04 0.0 
8.859753424047e-04 8.707915032921e-03 0.0 
0.0 0.0 0.0 
3.500766201359e-04 2.061894034456e-04 0.0 
2.061894034456e-04 6.502753085414e-03 0.0 
0.0 0.0 0.0 
-1.363095105215e-04 8.675834179839e-04 0.0 
8.675834179839e-04 7.603172790472e-03 0.0 
0.0 0.0 0.0 
5.227022738012e-04 1.621210411626e-04 0.0 
1.621210411626e-04 4.509992170364e-03 0.0 
0.0 0.0 0.0 
4.902943896536e-04 1.279791029842e-04 0.0 
1.279791029842e-04 4.788909584738e-03 0.0 
0.0 0.0 0.0 
-2.438589230952e-04 4.251314484577e-04 0.0 
4.251314484577e-04 1.020714438387e-02 0.0 
0.0 0.0 0.0 
5.579531119775e-04 3.820675365256e-04 0.0 
3.820675365256e-04 5.029161252917e-03 0.0 
0.0 0.0 0.0 
-2.869501089904e-04 7.898366008641e-04 0.0 
7.898366008641e-04 7.601036933593e-03 0.0 
0.0 0.0 0.0 
2.354696727023e-04 8.623642194270e-04 0.0 
8.623642194270e-04 6.032730337092e-03 0.0 
0.0 0.0 0.0 
4.369495884795e-04 4.987315029546e-04 0.0 
4.987315029546e-04 6.424413190539e-03 0.0 
0.0 0.0 0.0 
1.112750546737e-04 8.640998742888e-04 0.0 
8.640998742888e-04 6.030356103301e-03 0.0 
0.0 0.0 0.0 
5.578497118999e-04 5.129962590221e-04 0.0 
5.129962590221e-04 3.046486525992e-03 0.0 
0.0 0.0 0.0 
4.965459180384e-04 6.052749385602e-04 0.0 
6.052749385602e-04 5.436392693459e-03 0.0 
0.0 0.0 0.0 
5.301763116432e-04 6.344504806364e-04 0.0 
6.344504806364e-04 3.419466054815e-03 0.0 
0.0 0.0 0.0 
-3.852616306557e-04 6.280050507488e-04 0.0 
6.280050507488e-04 8.512443945947e-03 0.0 
0.0 0.0 0.0 
4.930677951998e-04 4.840470945047e-04 0.0 
4.840470945047e-04 3.443052791434e-03 0.0 
0.0 0.0 0.0 
-4.113732085251e-04 6.517438742586e-04 0.0 
6.517438742586e-04 8.221460459862e-03 0.0 
0.0 0.0 0.0 
1.706852140315e-04 8.122366365605e-04 0.0 
8.122366365605e-04 7.855399065551e-03 0.0 
0.0 0.0 0.0 
2.463341268861e-04 8.262460361602e-04 0.0 
8.262460361602e-04 7.465043359661e-03 0.0 
0.0 0.0 0.0 
1.704042822444e-04 9.099158352372e-04 0.0 
9.099158352372e-04 5.593106752277e-03 0.0 
0.0 0.0 0.0 
-3.861376691313e-04 2.674904107783e-04 0.0 
2.674904107783e-04 8.715473112656e-03 0.0 
0.0 0.0 0.0 
3.379840452711e-04 2.558981644981e-04 0.0 
2.558981644981e-04 6.676286701753e-03 0.0 
0.0 0.0 0.0 
3.197752941917e-04 1.836341754588e-04 0.0 
1.836341754588e-04 6.688011265336e-03 0.0 
0.0 0.0 0.0 
1.750928736532e-04 5.914929251461e-04 0.0 
5.914929251461e-04 2.021642486268e-03 0.0 
0.0 0.0 0.0 
-3.345406897355e-04 7.211159717141e-04 0.0 
7.211159717141e-04 8.260411466570e-03 0.0 
0.0 0.0 0.0 
2.292625117468e-04 2.602923106605e-04 0.0 
2.602923106605e-04 7.366520386231e-03 0.0 
0.0 0.0 0.0 
-4.988533126776e-04 4.125143684134e-04 0.0 
4.125143684134e-04 5.963478900319e-03 0.0 
0.0 0.0 0.0 
4.559740479442e-04 6.880978944115e-05 0.0 
6.880978944115e-05 4.874503653166e-03 0.0 
0.0 0.0 0.0 
-4.958377160998e-04 7.238608182080e-04 0.0 
7.238608182080e-04 2.036259734910e-03 0.0 
0.0 0.0 0.0 
3.020803459310e-04 2.300910826018e-04 0.0 
2.300910826018e-04 6.864922629663e-03 0.0 
0.0 0.0 0.0 
5.319045778023e-04 5.972412556569e-04 0.0 
5.972412556569e-04 2.952831165399e-03 0.0 
0.0 0.0 0.0 
4.319020931460e-04 3.908455029668e-05 0.0 
3.908455029668e-05 4.634461788537e-03 0.0 
0.0 0.0 0.0 
1.342572701448e-04 8.882807601188e-04 0.0 
8.882807601188e-04 7.294019362642e-03 0.0 
0.0 0.0 0.0 
-4.407659719509e-04 2.356076967509e-04 0.0 
2.356076967509e-04 8.719843600045e-03 0.0 
0.0 0.0 0.0 
-4.169854944752e-04 2.697565688310e-04 0.0 
2.697565688310e-04 8.488682951804e-03 0.0 
0.0 0.0 0.0 
-1.609241263482e-04 8.651170341087e-04 0.0 
8.651170341087e-04 7.233618189610e-03 0.0 
0.0 0.0 0.0 
-5.072666023738e-04 1.267551378636e-04 0.0 
1.267551378636e-04 6.491270714879e-03 0.0 
0.0 0.0 0.0 
-5.019017303163e-04 1.211072962246e-04 0.0 
1.211072962246e-04 6.718028428418e-03 0.0 
0.0 0.0 0.0 
2.888959183818e-04 1.594421279713e-04 0.0 
1.594421279713e-04 6.876608133174e-03 0.0 
0.0 0.0 0.0 
4.674457999776e-04 3.979726515921e-04 0.0 
3.979726515921e-04 5.814302873933e-03 0.0 
0.0 0.0 0.0 
5.100463471364e-04 4.290431000893e-04 0.0 
4.290431000893e-04 5.100702992684e-03 0.0 
0.0 0.0 0.0 
4.238626510586e-04 6.266900148086e-04 0.0 
6.266900148086e-04 6.471277792507e-03 0.0 
0.0 0.0 0.0 
5.262713854159e-04 5.796613463702e-04 0.0 
5.796613463702e-04 4.979492507272e-03 0.0 
0.0 0.0 0.0 
4.595717333282e-04 5.700054782345e-04 0.0 
5.700054782345e-04 3.382290779208e-03 0.0 
0.0 0.0 0.0 
-4.486853885717e-04 1.138250106528e-04 0.0 
1.138250106528e-04 6.493460551087e-03 0.0 
0.0 0.0 0.0 
-4.864334198653e-04 1.949748796517e-04 0.0 
1.949748796517e-04 8.117448927420e-03 0.0 
0.0 0.0 0.0 
-2.709675257835e-04 1.641619435420e-06 0.0 
1.641619435420e-06 7.338147078455e-03 0.0 
0.0 0.0 0.0 
2.320396160660e-04 7.600930703646e-04 0.0 
7.600930703646e-04 7.474485361804e-03 0.0 
0.0 0.0 0.0 
2.059433191723e-04 8.381798092002e-04 0.0 
8.381798092002e-04 5.603316266534e-03 0.0 
0.0 0.0 0.0 
1.187671239600e-04 9.572940258301e-04 0.0 
9.572940258301e-04 8.640310900523e-03 0.0 
0.0 0.0 0.0 
2.929203222344e-04 1.035812887063e-04 0.0 
1.035812887063e-04 6.730176561544e-03 0.0 
0.0 0.0 0.0 
4.630299775230e-04 5.550672009141e-04 0.0 
5.550672009141e-04 5.361228488974e-03 0.0 
0.0 0.0 0.0 
1.620668165332e-04 2.275664140173e-04 0.0 
2.275664140173e-04 7.668106071839e-03 0.0 
0.0 0.0 0.0 
5.153504259086e-04 4.105746638983e-04 0.0 
4.105746638983e-04 3.530382884225e-03 0.0 
0.0 0.0 0.0 
9.065713785406e-05 9.543988966979e-04 0.0 
9.543988966979e-04 8.573552188390e-03 0.0 
0.0 0.0 0.0 
-1.408676260948e-04 8.442240651869e-04 0.0 
8.442240651869e-04 7.236648327032e-03 0.0 
0.0 0.0 0.0 
-6.153576416668e-05 8.867426837092e-04 0.0 
8.867426837092e-04 7.605124756713e-03 0.0 
0.0 0.0 0.0 
2.770682197106e-04 6.249822557941e-04 0.0 
6.249822557941e-04 7.441406777029e-03 0.0 
0.0 0.0 0.0 
4.631838445681e-04 4.569080034084e-06 0.0 
4.569080034084e-06 3.332288944662e-03 0.0 
0.0 0.0 0.0 
-3.172074507972e-04 7.545014657579e-04 0.0 
7.545014657579e-04 7.939716363095e-03 0.0 
0.0 0.0 0.0 
5.033629759779e-04 4.745100231305e-04 0.0 
4.745100231305e-04 4.995642537527e-03 0.0 
0.0 0.0 0.0 
-3.916184588116e-04 6.905060612002e-04 0.0 
6.905060612002e-04 7.913636973869e-03 0.0 
0.0 0.0 0.0 
1.408971136125e-04 9.526482238790e-04 0.0 
9.526482238790e-04 4.364462384403e-03 0.0 
0.0 0.0 0.0 
1.058805796217e-05 9.034059142916e-04 0.0 
9.034059142916e-04 7.626872203099e-03 0.0 
0.0 0.0 0.0 
5.629077718996e-04 4.981483515127e-04 0.0 
4.981483515127e-04 4.628378296202e-03 0.0 
0.0 0.0 0.0 
4.914166378120e-04 1.859236360269e-04 0.0 
1.859236360269e-04 5.124294261626e-03 0.0 
0.0 0.0 0.0 
-3.763247582933e-04 6.906358050608e-04 0.0 
6.906358050608e-04 7.913551394119e-03 0.0 
0.0 0.0 0.0 
-2.759008335085e-04 4.598529992464e-04 0.0 
4.598529992464e-04 1.186358040065e-03 0.0 
0.0 0.0 0.0 
2.192691204734e-04 8.600181327935e-04 0.0 
8.600181327935e-04 6.471028192549e-03 0.0 
0.0 0.0 0.0 
-1.788494678127e-04 7.712353763170e-04 0.0 
7.712353763170e-04 2.321578834164e-03 0.0 
0.0 0.0 0.0 
9.867067629288e-05 -4.074737991915e-05 0.0 
-4.074737991915e-05 1.159463194130e-03 0.0 
0.0 0.0 0.0 
4.873944494612e-04 1.429494502953e-04 0.0 
1.429494502953e-04 4.861278479632e-03 0.0 
0.0 0.0 0.0 
-2.712016126298e-04 7.627713385318e-04 0.0 
7.627713385318e-04 8.975294107886e-03 0.0 
0.0 0.0 0.0 
-4.187099675119e-04 3.241554044800e-04 0.0 
3.241554044800e-04 8.625795195073e-03 0.0 
0.0 0.0 0.0 
-5.011643916598e-04 1.705342401312e-04 0.0 
1.705342401312e-04 6.040107231821e-03 0.0 
0.0 0.0 0.0 
0.0 4.000191148544e-04 0.0 
4.000191148544e-04 1.095910755653e-02 0.0 
0.0 0.0 0.0 
-5.695986114590e-04 8.254189632521e-04 0.0 
8.254189632521e-04 8.089691406878e-04 0.0 
0.0 0.0 0.0 
-5.004444559935e-04 1.563092700154e-04 0.0 
1.563092700154e-04 6.272543231210e-03 0.0 
0.0 0.0 0.0 
5.413978810309e-04 4.859707149295e-04 0.0 
4.859707149295e-04 5.200331552138e-03 0.0 
0.0 0.0 0.0 
4.495281912076e-04 3.446315885840e-05 0.0 
3.446315885840e-05 4.621944167442e-03 0.0 
0.0 0.0 0.0 
-5.586151975456e-04 2.820892932134e-04 0.0 
2.820892932134e-04 6.968184274668e-03 0.0 
0.0 0.0 0.0 
5.849176453292e-04 3.265117702059e-04 0.0 
3.265117702059e-04 3.416374521028e-03 0.0 
0.0 0.0 0.0 
5.017036718897e-04 3.563716222722e-04 0.0 
3.563716222722e-04 5.350208553971e-03 0.0 
0.0 0.0 0.0 
-2.040376683852e-04 8.189699855583e-04 0.0 
8.189699855583e-04 7.605343592203e-03 0.0 
0.0 0.0 0.0 
2.014969495256e-04 8.634710720457e-04 0.0 
8.634710720457e-04 6.911017981135e-03 0.0 
0.0 0.0 0.0 
-2.545280785854e-04 7.012538663080e-04 0.0 
7.012538663080e-04 9.488370932648e-03 0.0 
0.0 0.0 0.0 
3.597899639318e-04 6.959200544499e-04 0.0 
6.959200544499e-04 1.941235525762e-03 0.0 
0.0 0.0 0.0 
4.935901111738e-04 1.130466681786e-04 0.0 
1.130466681786e-04 4.431043918789e-03 0.0 
0.0 0.0 0.0 
4.634633300222e-04 1.017655290600e-04 0.0 
1.017655290600e-04 4.791862547983e-03 0.0 
0.0 0.0 0.0 
3.306732178614e-04 -1.073743527996e-04 0.0 
-1.073743527996e-04 2.434716610958e-03 0.0 
0.0 0.0 0.0 
-4.583858157551e-04 1.742511517346e-04 0.0 
1.742511517346e-04 7.524954985423e-03 0.0 
0.0 0.0 0.0 
-4.727210956739e-04 3.009708382641e-04 0.0 
3.009708382641e-04 8.629311045537e-03 0.0 
0.0 0.0 0.0 
3.570710199952e-04 -1.037302245837e-05 0.0 
-1.037302245837e-05 6.043070089909e-03 0.0 
0.0 0.0 0.0 
3.331819380814e-05 -4.121696410467e-05 0.0 
-4.121696410467e-05 7.385575601262e-04 0.0 
0.0 0.0 0.0 
-2.850437072378e-04 -1.019003315240e-04 0.0 
-1.019003315240e-04 5.797962157812e-04 0.0 
0.0 0.0 0.0 
1.854300910553e-04 -1.478159726212e-04 0.0 
-1.478159726212e-04 1.666891336038e-03 0.0 
0.0 0.0 0.0 
4.393944106473e-04 3.079542736694e-05 0.0 
3.079542736694e-05 4.803619823305e-03 0.0 
0.0 0.0 0.0 
5.168884505993e-04 4.569124737428e-04 0.0 
4.569124737428e-04 3.988893180762e-03 0.0 
0.0 0.0 0.0 
5.237902324025e-04 2.438707533543e-04 0.0 
2.438707533543e-04 3.306079919655e-03 0.0 
0.0 0.0 0.0 
4.997718433124e-04 3.546253407297e-04 0.0 
3.546253407297e-04 3.070490505588e-03 0.0 
0.0 0.0 0.0 
4.682769069269e-04 1.339093631202e-04 0.0 
1.339093631202e-04 5.040812505350e-03 0.0 
0.0 0.0 0.0 
-4.012176823518e-04 4.509978034286e-04 0.0 
4.509978034286e-04 8.871808033049e-03 0.0 
0.0 0.0 0.0 
4.475503737682e-04 9.450743798271e-05 0.0 
9.450743798271e-05 4.976045049108e-03 0.0 
0.0 0.0 0.0 
5.477768520159e-04 5.868703695748e-04 0.0 
5.868703695748e-04 3.967451536719e-03 0.0 
0.0 0.0 0.0 
-3.545093845546e-04 7.101752964355e-04 0.0 
7.101752964355e-04 8.261919783139e-03 0.0 
0.0 0.0 0.0 
-3.495287890776e-04 1.049403192224e-04 0.0 
1.049403192224e-04 8.010700720570e-03 0.0 
0.0 0.0 0.0 
1.217366206054e-04 8.990826500452e-04 0.0 
8.990826500452e-04 7.733793343821e-03 0.0 
0.0 0.0 0.0 
4.289032158495e-04 2.476796150446e-05 0.0 
2.476796150446e-05 4.987836800697e-03 0.0 
0.0 0.0 0.0 
4.416603087116e-04 6.201516901779e-05 0.0 
6.201516901779e-05 5.053615481718e-03 0.0 
0.0 0.0 0.0 
-4.939833032271e-04 2.350876607087e-04 0.0 
2.350876607087e-04 5.586371416125e-03 0.0 
0.0 0.0 0.0 
5.318762309463e-04 3.975101797951e-04 0.0 
3.975101797951e-04 4.085992548420e-03 0.0 
0.0 0.0 0.0 
4.314730225221e-04 8.413375293903e-05 0.0 
8.413375293903e-05 5.160019819675e-03 0.0 
0.0 0.0 0.0 
-2.209167852880e-04 3.393442442910e-05 0.0 
3.393442442910e-05 8.842088933196e-03 0.0 
0.0 0.0 0.0 
-2.412261378365e-04 3.320306665185e-05 0.0 
3.320306665185e-05 8.461319534036e-03 0.0 
0.0 0.0 0.0 
-4.928239343619e-04 2.086951342369e-04 0.0 
2.086951342369e-04 5.820533820200e-03 0.0 
0.0 0.0 0.0 
4.486571284517e-04 1.243305434289e-04 0.0 
1.243305434289e-04 5.224250576628e-03 0.0 
0.0 0.0 0.0 
5.010985844451e-04 1.125980919737e-04 0.0 
1.125980919737e-04 3.142206617401e-03 0.0 
0.0 0.0 0.0 
6.955506125617e-05 1.030275310528e-03 0.0 
1.030275310528e-03 2.715671832002e-03 0.0 
0.0 0.0 0.0 
6.846091479051e-05 9.001087054088e-04 0.0 
9.001087054088e-04 8.586101291016e-03 0.0 
0.0 0.0 0.0 
1.920764258654e-04 -6.740866404833e-05 0.0 
-6.740866404833e-05 1.503584018175e-03 0.0 
0.0 0.0 0.0 
5.616337350789e-04 2.022204605878e-04 0.0 
2.022204605878e-04 3.274806554754e-03 0.0 
0.0 0.0 0.0 
1.720765226483e-04 8.170438419125e-04 0.0 
8.170438419125e-04 6.447310280207e-03 0.0 
0.0 0.0 0.0 
-4.370227673344e-04 1.301015351874e-04 0.0 
1.301015351874e-04 6.050942415299e-03 0.0 
0.0 0.0 0.0 
4.189536319206e-04 1.530460839898e-05 0.0 
1.530460839898e-05 5.177330053292e-03 0.0 
0.0 0.0 0.0 
2.650590425091e-04 -4.665573615634e-05 0.0 
-4.665573615634e-05 2.267645447859e-03 0.0 
0.0 0.0 0.0 
-4.828032788176e-04 1.407635825736e-04 0.0 
1.407635825736e-04 7.705678280477e-03 0.0 
0.0 0.0 0.0 
4.266199562193e-04 5.418113003798e-05 0.0 
5.418113003798e-05 5.236672580556e-03 0.0 
0.0 0.0 0.0 
5.301547245977e-04 3.489608902346e-04 0.0 
3.489608902346e-04 4.766234425424e-03 0.0 
0.0 0.0 0.0 
4.697291171891e-04 7.479281832807e-05 0.0 
7.479281832807e-05 4.699311624571e-03 0.0 
0.0 0.0 0.0 
-1.702757086961e-04 2.710915763172e-04 0.0 
2.710915763172e-04 1.027868520923e-03 0.0 
0.0 0.0 0.0 
-1.482762491810e-04 -1.236415494193e-05 0.0 
-1.236415494193e-05 1.002186862676e-02 0.0 
0.0 0.0 0.0 
5.412691762774e-04 2.563408816979e-04 0.0 
2.563408816979e-04 3.873823690456e-03 0.0 
0.0 0.0 0.0 
2.641001432460e-04 7.963428163318e-04 0.0 
7.963428163318e-04 7.670177150914e-03 0.0 
0.0 0.0 0.0 
-5.257614169063e-05 8.533784609189e-04 0.0 
8.533784609189e-04 7.611227418489e-03 0.0 
0.0 0.0 0.0 
4.285085915139e-04 1.134672909505e-04 0.0 
1.134672909505e-04 5.409932871776e-03 0.0 
0.0 0.0 0.0 
4.118921562994e-04 4.541212615889e-05 0.0 
4.541212615889e-05 5.421761327490e-03 0.0 
0.0 0.0 0.0 
5.766724905527e-04 4.836076880768e-04 0.0 
4.836076880768e-04 3.612090757252e-03 0.0 
0.0 0.0 0.0 
1.358201455814e-05 -7.268872002529e-05 0.0 
-7.268872002529e-05 1.018871053272e-03 0.0 
0.0 0.0 0.0 
-3.132641950065e-06 4.828102073834e-04 0.0 
4.828102073834e-04 9.843265147318e-04 0.0 
0.0 0.0 0.0 
4.086907877847e-04 9.890737765240e-05 0.0 
9.890737765240e-05 5.597891226809e-03 0.0 
0.0 0.0 0.0 
3.031503352704e-04 7.056085989447e-04 0.0 
7.056085989447e-04 7.444296823187e-03 0.0 
0.0 0.0 0.0 
4.644868502715e-04 2.151921032799e-05 0.0 
2.151921032799e-05 3.025468341903e-03 0.0 
0.0 0.0 0.0 
-2.760149341255e-04 7.781994041376e-04 0.0 
7.781994041376e-04 8.293831369947e-03 0.0 
0.0 0.0 0.0 
-4.895149403940e-04 4.700665426243e-04 0.0 
4.700665426243e-04 5.695950425423e-03 0.0 
0.0 0.0 0.0 
-3.696671308704e-04 6.798370343222e-04 0.0 
6.798370343222e-04 8.569309244184e-03 0.0 
0.0 0.0 0.0 
1.846180823759e-04 6.053069836073e-04 0.0 
6.053069836073e-04 8.130196923542e-03 0.0 
0.0 0.0 0.0 
-7.952036983201e-04 -2.520256296462e-05 0.0 
-2.520256296462e-05 4.528520385452e-04 0.0 
0.0 0.0 0.0 
0.0 3.305000863942e-05 0.0 
3.305000863942e-05 1.106787348800e-02 0.0 
0.0 0.0 0.0 
0.0 7.624351405889e-05 0.0 
7.624351405889e-05 8.281097468575e-03 0.0 
0.0 0.0 0.0 
-2.573283933028e-04 -3.041227663644e-05 0.0 
-3.041227663644e-05 7.788531440167e-03 0.0 
0.0 0.0 0.0 
5.252707833472e-04 1.436785244721e-04 0.0 
1.436785244721e-04 3.717117655416e-03 0.0 
0.0 0.0 0.0 
-1.249151938121e-04 8.417044615791e-04 0.0 
8.417044615791e-04 7.607371290932e-03 0.0 
0.0 0.0 0.0 
4.928857506421e-04 5.256841688216e-04 0.0 
5.256841688216e-04 3.906803936934e-03 0.0 
0.0 0.0 0.0 
6.450106245004e-05 -1.200979347903e-04 0.0 
-1.200979347903e-04 1.002910627476e-03 0.0 
0.0 0.0 0.0 
-5.001522907515e-04 6.158516606897e-04 0.0 
6.158516606897e-04 1.410274222204e-03 0.0 
0.0 0.0 0.0 
-1.317988025352e-04 9.375907828874e-05 0.0 
9.375907828874e-05 1.035086764486e-02 0.0 
0.0 0.0 0.0 
-4.685486537296e-04 3.644801032514e-04 0.0 
3.644801032514e-04 8.761638398971e-03 0.0 
0.0 0.0 0.0 
-4.905200179278e-04 1.025669817478e-04 0.0 
1.025669817478e-04 7.400332124955e-03 0.0 
0.0 0.0 0.0 
-2.578999681491e-05 1.077696156851e-03 0.0 
1.077696156851e-03 9.902246792271e-03 0.0 
0.0 0.0 0.0 
2.106497569043e-04 -4.687138752279e-05 0.0 
-4.687138752279e-05 1.878501007740e-03 0.0 
0.0 0.0 0.0 
-1.123604289022e-05 1.086604986498e-03 0.0 
1.086604986498e-03 9.773676727301e-03 0.0 
0.0 0.0 0.0 
-4.139835912589e-04 3.876887718067e-04 0.0 
3.876887718067e-04 8.757279824068e-03 0.0 
0.0 0.0 0.0 
4.957443904667e-04 6.003917422000e-05 0.0 
6.003917422000e-05 3.596013475021e-03 0.0 
0.0 0.0 0.0 
-7.862797592140e-05 8.854733225183e-04 0.0 
8.854733225183e-04 7.223624338001e-03 0.0 
0.0 0.0 0.0 
5.566405097173e-04 1.747945331385e-04 0.0 
1.747945331385e-04 3.423212001022e-03 0.0 
0.0 0.0 0.0 
-3.681137605460e-05 1.055816494271e-03 0.0 
1.055816494271e-03 3.345069916112e-03 0.0 
0.0 0.0 0.0 
5.223016824534e-04 1.110206280986e-04 0.0 
1.110206280986e-04 3.163688749823e-03 0.0 
0.0 0.0 0.0 
-3.805193482121e-04 5.181725189594e-04 0.0 
5.181725189594e-04 8.972936880353e-03 0.0 
0.0 0.0 0.0 
2.568334411353e-04 6.241646860024e-05 0.0 
6.241646860024e-05 6.993821021649e-03 0.0 
0.0 0.0 0.0 
5.841451004778e-04 2.828538008441e-04 0.0 
2.828538008441e-04 3.551043626671e-03 0.0 
0.0 0.0 0.0 
-2.887580345999e-04 7.536668484270e-04 0.0 
7.536668484270e-04 8.612718481650e-03 0.0 
0.0 0.0 0.0 
-4.833166444362e-04 -4.095159576583e-05 0.0 
-4.095159576583e-05 2.891208466116e-04 0.0 
0.0 0.0 0.0 
5.862055801944e-04 4.218677369619e-04 0.0 
4.218677369619e-04 3.725858114183e-03 0.0 
0.0 0.0 0.0 
-3.928261305419e-04 4.026954352647e-04 0.0 
4.026954352647e-04 9.370864198776e-03 0.0 
0.0 0.0 0.0 
4.767897992453e-04 5.003671859829e-05 0.0 
5.003671859829e-05 3.066516546839e-03 0.0 
0.0 0.0 0.0 
4.196947217106e-04 -3.585603999283e-05 0.0 
-3.585603999283e-05 2.772111245407e-03 0.0 
0.0 0.0 0.0 
-5.756293571535e-05 8.547515498705e-04 0.0 
8.547515498705e-04 7.228518442998e-03 0.0 
0.0 0.0 0.0 
2.785246121570e-04 1.444316423201e-05 0.0 
1.444316423201e-05 1.480605872297e-03 0.0 
0.0 0.0 0.0 
-4.949506207719e-04 3.178312084252e-04 0.0 
3.178312084252e-04 5.150910963713e-03 0.0 
0.0 0.0 0.0 
-4.500355265463e-04 2.843691579930e-04 0.0 
2.843691579930e-04 5.362128637169e-03 0.0 
0.0 0.0 0.0 
4.283163383660e-04 1.153883106205e-05 0.0 
1.153883106205e-05 2.667574701241e-03 0.0 
0.0 0.0 0.0 
5.088036681442e-04 3.908269243699e-04 0.0 
3.908269243699e-04 5.218462435364e-03 0.0 
0.0 0.0 0.0 
1.604421612276e-04 8.951373512637e-04 0.0 
8.951373512637e-04 6.015315059394e-03 0.0 
0.0 0.0 0.0 
-3.139504847867e-04 7.339408853732e-04 0.0 
7.339408853732e-04 8.615051809810e-03 0.0 
0.0 0.0 0.0 
-1.685760592158e-04 6.682074089799e-04 0.0 
6.682074089799e-04 1.003608822657e-02 0.0 
0.0 0.0 0.0 
-4.074490048707e-04 1.594362336546e-04 0.0 
1.594362336546e-04 5.601226091760e-03 0.0 
0.0 0.0 0.0 
-1.958292265546e-04 -2.389952654224e-05 0.0 
-2.389952654224e-05 9.245972222156e-03 0.0 
0.0 0.0 0.0 
-1.176027807808e-04 8.523923789497e-04 0.0 
8.523923789497e-04 9.665769632484e-03 0.0 
0.0 0.0 0.0 
5.591124960023e-04 5.547621761712e-04 0.0 
5.547621761712e-04 3.507472580776e-03 0.0 
0.0 0.0 0.0 
-8.482636326612e-05 9.732633905619e-04 0.0 
9.732633905619e-04 2.328877557183e-03 0.0 
0.0 0.0 0.0 
-5.567310606467e-04 4.963905566308e-04 0.0 
4.963905566308e-04 5.949040467237e-03 0.0 
0.0 0.0 0.0 
5.258192467328e-04 3.140401507668e-04 0.0 
3.140401507668e-04 4.896680609585e-03 0.0 
0.0 0.0 0.0 
-3.352293026253e-04 6.715187905257e-04 0.0 
6.715187905257e-04 8.856919277079e-03 0.0 
0.0 0.0 0.0 
5.645201368265e-04 4.133229524387e-04 0.0 
4.133229524387e-04 4.881393660342e-03 0.0 
0.0 0.0 0.0 
1.131282348499e-04 4.712519404307e-04 0.0 
4.712519404307e-04 1.649214943616e-03 0.0 
0.0 0.0 0.0 
4.771275661763e-04 4.284458296733e-04 0.0 
4.284458296733e-04 5.674188480152e-03 0.0 
0.0 0.0 0.0 
-2.177103710610e-04 1.006355431244e-03 0.0 
1.006355431244e-03 3.997561534004e-03 0.0 
0.0 0.0 0.0 
1.896650792539e-04 8.257291578910e-04 0.0 
8.257291578910e-04 6.025077294926e-03 0.0 
0.0 0.0 0.0 
5.390581246287e-04 4.530973080700e-04 0.0 
4.530973080700e-04 5.335076571753e-03 0.0 
0.0 0.0 0.0 
-5.070261256401e-07 8.965996949452e-04 0.0 
8.965996949452e-04 7.227427114156e-03 0.0 
0.0 0.0 0.0 
-2.334882835735e-04 8.679198564177e-06 0.0 
8.679198564177e-06 8.743239011124e-03 0.0 
0.0 0.0 0.0 
3.772067668038e-04 -7.724183995682e-05 0.0 
-7.724183995682e-05 2.679943345149e-03 0.0 
0.0 0.0 0.0 
1.193320447468e-04 9.086387617655e-04 0.0 
9.086387617655e-04 2.122626442699e-03 0.0 
0.0 0.0 0.0 
5.038129470309e-04 4.913340893718e-04 0.0 
4.913340893718e-04 5.800121187472e-03 0.0 
0.0 0.0 0.0 
-3.362484045035e-04 8.359562516635e-04 0.0 
8.359562516635e-04 4.543836641717e-03 0.0 
0.0 0.0 0.0 
-1.889876586756e-04 1.183533131718e-04 0.0 
1.183533131718e-04 5.565293032472e-04 0.0 
0.0 0.0 0.0 
-8.839851958142e-05 4.337990692637e-05 0.0 
4.337990692637e-05 1.039744570814e-02 0.0 
0.0 0.0 0.0 
-1.301953451661e-04 4.305110571951e-05 0.0 
4.305110571951e-05 1.002405474667e-02 0.0 
0.0 0.0 0.0 
-1.114939395761e-04 -8.306151209774e-05 0.0 
-8.306151209774e-05 4.376233341248e-04 0.0 
0.0 0.0 0.0 
4.359350876759e-04 4.668117868720e-04 0.0 
4.668117868720e-04 6.139785003078e-03 0.0 
0.0 0.0 0.0 
2.619358017755e-04 -1.294214778587e-04 0.0 
-1.294214778587e-04 2.048932157776e-03 0.0 
0.0 0.0 0.0 
3.200835147144e-04 -3.678927526350e-05 0.0 
-3.678927526350e-05 2.194100234148e-03 0.0 
0.0 0.0 0.0 
-2.390782858867e-04 7.896891684243e-04 0.0 
7.896891684243e-04 8.973540674853e-03 0.0 
0.0 0.0 0.0 
1.661515137252e-05 8.515980514227e-04 0.0 
8.515980514227e-04 7.233457062280e-03 0.0 
0.0 0.0 0.0 
-2.328773330919e-04 8.071302176884e-04 0.0 
8.071302176884e-04 8.654282964600e-03 0.0 
0.0 0.0 0.0 
5.383152906655e-04 2.987163412909e-04 0.0 
2.987163412909e-04 3.748919073193e-03 0.0 
0.0 0.0 0.0 
-2.871030444647e-04 7.809649541867e-06 0.0 
7.809649541867e-06 7.343148036889e-03 0.0 
0.0 0.0 0.0 
9.200952291977e-05 4.900590479894e-04 0.0 
4.900590479894e-04 8.048805061185e-03 0.0 
0.0 0.0 0.0 
2.452953382517e-04 -5.607339790468e-05 0.0 
-5.607339790468e-05 1.805617643943e-03 0.0 
0.0 0.0 0.0 
2.391978360448e-04 7.378788033180e-04 0.0 
7.378788033180e-04 7.542209292960e-03 0.0 
0.0 0.0 0.0 
1.021057032859e-04 8.489253548374e-04 0.0 
8.489253548374e-04 6.436170722624e-03 0.0 
0.0 0.0 0.0 
1.727183193907e-04 -3.583345431086e-06 0.0 
-3.583345431086e-06 1.403982452523e-03 0.0 
0.0 0.0 0.0 
-3.743063400425e-04 6.032026359844e-04 0.0 
6.032026359844e-04 8.787738361639e-03 0.0 
0.0 0.0 0.0 
5.681506532100e-04 5.203916479716e-04 0.0 
5.203916479716e-04 4.064522768377e-03 0.0 
0.0 0.0 0.0 
-5.672599582174e-06 -1.055648741954e-04 0.0 
-1.055648741954e-04 7.686027736615e-04 0.0 
0.0 0.0 0.0 
5.817876009477e-04 3.782851600802e-04 0.0 
3.782851600802e-04 3.286211821759e-03 0.0 
0.0 0.0 0.0 
3.802292995616e-04 3.530456197373e-05 0.0 
3.530456197373e-05 5.843931812235e-03 0.0 
0.0 0.0 0.0 
-4.331943925426e-04 5.002902670232e-04 0.0 
5.002902670232e-04 8.977840087404e-03 0.0 
0.0 0.0 0.0 
1.171986017454e-04 -1.663856324190e-04 0.0 
-1.663856324190e-04 1.372771382242e-03 0.0 
0.0 0.0 0.0 
4.322230148708e-04 -7.974158556716e-06 0.0 
-7.974158556716e-06 4.644606353143e-03 0.0 
0.0 0.0 0.0 
-2.906380962976e-04 7.343107373419e-04 0.0 
7.343107373419e-04 8.920428184747e-03 0.0 
0.0 0.0 0.0 
5.577461050277e-05 8.697225302566e-04 0.0 
8.697225302566e-04 8.113560520528e-03 0.0 
0.0 0.0 0.0 
4.787188238404e-04 5.409822120506e-05 0.0 
5.409822120506e-05 2.908847089967e-03 0.0 
0.0 0.0 0.0 
2.768245328699e-04 1.947204889305e-05 0.0 
1.947204889305e-05 2.269107434144e-03 0.0 
0.0 0.0 0.0 
1.520367988952e-04 8.861438038051e-04 0.0 
8.861438038051e-04 6.437862909508e-03 0.0 
0.0 0.0 0.0 
-2.266241168338e-04 -3.201711539150e-05 0.0 
-3.201711539150e-05 8.620588461855e-03 0.0 
0.0 0.0 0.0 
-2.312996934761e-05 -1.141061375933e-04 0.0 
-1.141061375933e-04 7.619851313792e-04 0.0 
0.0 0.0 0.0 
-1.097031894174e-04 9.490401569518e-04 0.0 
9.490401569518e-04 9.891961966476e-03 0.0 
0.0 0.0 0.0 
-9.717957870226e-05 6.014052426497e-04 0.0 
6.014052426497e-04 1.044181357369e-02 0.0 
0.0 0.0 0.0 
-2.468831270179e-04 -2.464674683153e-05 0.0 
-2.464674683153e-05 8.040438549345e-03 0.0 
0.0 0.0 0.0 
-1.401719163946e-04 2.616689043496e-04 0.0 
2.616689043496e-04 1.059072259010e-02 0.0 
0.0 0.0 0.0 
-8.651894927625e-05 7.154963571734e-04 0.0 
7.154963571734e-04 1.033278485728e-02 0.0 
0.0 0.0 0.0 
5.906146861669e-04 3.724447515401e-04 0.0 
3.724447515401e-04 3.852433575950e-03 0.0 
0.0 0.0 0.0 
5.275823068924e-04 1.690158077086e-04 0.0 
1.690158077086e-04 3.572331157688e-03 0.0 
0.0 0.0 0.0 
1.198879361386e-04 9.109200142134e-04 0.0 
9.109200142134e-04 8.682854011626e-03 0.0 
0.0 0.0 0.0 
-4.518545060149e-04 2.070806619848e-05 0.0 
2.070806619848e-05 3.085952823034e-04 0.0 
0.0 0.0 0.0 
2.406266836499e-04 3.410962297370e-05 0.0 
3.410962297370e-05 2.056776113117e-03 0.0 
0.0 0.0 0.0 
4.170571118705e-04 4.257966983308e-05 0.0 
4.257966983308e-05 4.748381378396e-03 0.0 
0.0 0.0 0.0 
4.225469557000e-04 -3.787758255118e-05 0.0 
-3.787758255118e-05 2.925818420656e-03 0.0 
0.0 0.0 0.0 
5.643296304423e-04 2.343986394579e-04 0.0 
2.343986394579e-04 3.126117811551e-03 0.0 
0.0 0.0 0.0 
-5.145288294153e-04 4.525121408787e-04 0.0 
4.525121408787e-04 4.707294455281e-03 0.0 
0.0 0.0 0.0 
-4.494361209804e-04 4.347131435660e-04 0.0 
4.347131435660e-04 4.880138799242e-03 0.0 
0.0 0.0 0.0 
-3.479318842252e-04 4.354559452245e-05 0.0 
4.354559452245e-05 8.067058336128e-03 0.0 
0.0 0.0 0.0 
5.302969441368e-04 3.496403880645e-04 0.0 
3.496403880645e-04 3.634713487714e-03 0.0 
0.0 0.0 0.0 
2.994810574528e-04 -2.523951618541e-06 0.0 
-2.523951618541e-06 2.424892718752e-03 0.0 
0.0 0.0 0.0 
1.633922034139e-05 9.147711405988e-04 0.0 
9.147711405988e-04 8.034890930378e-03 0.0 
0.0 0.0 0.0 
9.226752627001e-05 4.198093095455e-04 0.0 
4.198093095455e-04 8.410790534598e-03 0.0 
0.0 0.0 0.0 
8.325364153006e-05 4.717291233085e-04 0.0 
4.717291233085e-04 8.427950004827e-03 0.0 
0.0 0.0 0.0 
5.797324653976e-04 2.497226523395e-04 0.0 
2.497226523395e-04 3.697128670716e-03 0.0 
0.0 0.0 0.0 
-3.703907323871e-04 8.053032980682e-05 0.0 
8.053032980682e-05 7.729188259904e-03 0.0 
0.0 0.0 0.0 
-4.698635833068e-04 2.287638801770e-05 0.0 
2.287638801770e-05 5.385195639607e-04 0.0 
0.0 0.0 0.0 
-5.884204776445e-04 7.961794609092e-04 0.0 
7.961794609092e-04 4.091842274484e-03 0.0 
0.0 0.0 0.0 
1.424695699630e-04 -6.445825284358e-05 0.0 
-6.445825284358e-05 1.458870700582e-03 0.0 
0.0 0.0 0.0 
-5.454685219010e-04 6.209194000872e-04 0.0 
6.209194000872e-04 4.445408355277e-03 0.0 
0.0 0.0 0.0 
9.162026533671e-05 8.379374628844e-04 0.0 
8.379374628844e-04 6.842579036734e-03 0.0 
0.0 0.0 0.0 
5.252999439573e-04 1.280567234313e-04 0.0 
1.280567234313e-04 3.011905778790e-03 0.0 
0.0 0.0 0.0 
5.273496377436e-04 2.021421373371e-04 0.0 
2.021421373371e-04 3.436534112829e-03 0.0 
0.0 0.0 0.0 
-1.741343871211e-04 -1.006021494481e-04 0.0 
-1.006021494481e-04 8.685088317122e-04 0.0 
0.0 0.0 0.0 
-1.166516447308e-04 3.665551113897e-05 0.0 
3.665551113897e-05 1.009286047717e-02 0.0 
0.0 0.0 0.0 
5.014693701870e-04 8.945979160379e-05 0.0 
8.945979160379e-05 3.291421882093e-03 0.0 
0.0 0.0 0.0 
-1.051662181935e-04 1.425863081506e-04 0.0 
1.425863081506e-04 1.034312758620e-02 0.0 
0.0 0.0 0.0 
-1.574637654599e-04 2.361005183905e-05 0.0 
2.361005183905e-05 9.773341028777e-03 0.0 
0.0 0.0 0.0 
-4.486737364251e-05 5.803071747127e-05 0.0 
5.803071747127e-05 1.105402598477e-02 0.0 
0.0 0.0 0.0 
7.785376173253e-05 1.018061315804e-04 0.0 
1.018061315804e-04 8.288185035556e-03 0.0 
0.0 0.0 0.0 
-2.549880402990e-04 2.775334533163e-05 0.0 
2.775334533163e-05 8.052592633106e-03 0.0 
0.0 0.0 0.0 
4.996462196714e-04 7.254377702303e-05 0.0 
7.254377702303e-05 3.440975823124e-03 0.0 
0.0 0.0 0.0 
-3.529006273906e-04 2.060228034492e-04 0.0 
2.060228034492e-04 5.139550408296e-03 0.0 
0.0 0.0 0.0 
5.498638870125e-04 1.564139956026e-04 0.0 
1.564139956026e-04 3.579485113168e-03 0.0 
0.0 0.0 0.0 
0.0 3.267287863847e-04 0.0 
3.267287863847e-04 8.376066544969e-03 0.0 
0.0 0.0 0.0 
-5.089296759740e-04 7.840370138990e-04 0.0 
7.840370138990e-04 2.690672023813e-03 0.0 
0.0 0.0 0.0 
-5.202468047817e-04 8.291425703259e-04 0.0 
8.291425703259e-04 3.399496362543e-03 0.0 
0.0 0.0 0.0 
1.848402545619e-04 8.032948088003e-04 0.0 
8.032948088003e-04 7.906509753413e-03 0.0 
0.0 0.0 0.0 
-3.288573655043e-04 4.328033884450e-05 0.0 
4.328033884450e-05 7.732881103037e-03 0.0 
0.0 0.0 0.0 
-9.653512227192e-05 1.045902072175e-04 0.0 
1.045902072175e-04 1.038722403092e-02 0.0 
0.0 0.0 0.0 
-3.240370903529e-04 7.092302578271e-04 0.0 
7.092302578271e-04 8.922037964434e-03 0.0 
0.0 0.0 0.0 
6.654960857366e-05 9.480289500222e-04 0.0 
9.480289500222e-04 8.507323723394e-03 0.0 
0.0 0.0 0.0 
-3.508635865646e-04 6.129734838105e-04 0.0 
6.129734838105e-04 9.416905764997e-03 0.0 
0.0 0.0 0.0 
-2.534341543134e-04 4.967102959387e-05 0.0 
4.967102959387e-05 8.132972283783e-03 0.0 
0.0 0.0 0.0 
3.694739993358e-04 -7.928992403172e-05 0.0 
-7.928992403172e-05 2.527939540418e-03 0.0 
0.0 0.0 0.0 
4.248234272508e-04 1.535618769305e-05 0.0 
1.535618769305e-05 2.515295528825e-03 0.0 
0.0 0.0 0.0 
-2.011885267915e-04 4.683250016097e-05 0.0 
4.683250016097e-05 9.031680045786e-03 0.0 
0.0 0.0 0.0 
-9.227465305184e-07 8.800418688450e-04 0.0 
8.800418688450e-04 8.451257103018e-03 0.0 
0.0 0.0 0.0 
-4.253244694792e-04 8.163226267750e-05 0.0 
8.163226267750e-05 7.379141610073e-03 0.0 
0.0 0.0 0.0 
-2.645688270235e-04 5.798453958563e-06 0.0 
5.798453958563e-06 7.691043419676e-03 0.0 
0.0 0.0 0.0 
-2.588245362765e-04 1.810268660790e-06 0.0 
1.810268660790e-06 8.031487425340e-03 0.0 
0.0 0.0 0.0 
-2.778785523523e-04 -1.207495281435e-05 0.0 
-1.207495281435e-05 8.155741750520e-03 0.0 
0.0 0.0 0.0 
1.712990442697e-04 8.320899615260e-05 0.0 
8.320899615260e-05 1.210044659080e-03 0.0 
0.0 0.0 0.0 
3.661464404714e-04 -2.243764414296e-05 0.0 
-2.243764414296e-05 2.278226215369e-03 0.0 
0.0 0.0 0.0 
-9.416324196510e-05 1.798962452310e-04 0.0 
1.798962452310e-04 1.073062403738e-02 0.0 
0.0 0.0 0.0 
-2.575372837231e-04 5.303534971372e-06 0.0 
5.303534971372e-06 8.560547985184e-03 0.0 
0.0 0.0 0.0 
7.015166580793e-05 9.992059253397e-04 0.0 
9.992059253397e-04 9.057083447633e-03 0.0 
0.0 0.0 0.0 
-2.471042253477e-04 6.669691282773e-04 0.0 
6.669691282773e-04 1.004139028079e-02 0.0 
0.0 0.0 0.0 
-4.161906470125e-04 5.899546819271e-04 0.0 
5.899546819271e-04 8.790562837719e-03 0.0 
0.0 0.0 0.0 
-1.880925884588e-04 2.831452937951e-04 0.0 
2.831452937951e-04 1.033842384664e-02 0.0 
0.0 0.0 0.0 
4.174180375731e-04 1.721196287051e-05 0.0 
1.721196287051e-05 3.449574081293e-03 0.0 
0.0 0.0 0.0 
3.659411884469e-04 7.848384118967e-06 0.0 
7.848384118967e-06 3.131843602188e-03 0.0 
0.0 0.0 0.0 
2.045856745507e-04 4.989910851181e-04 0.0 
4.989910851181e-04 7.668300233536e-03 0.0 
0.0 0.0 0.0 
-1.796746361800e-04 -4.940858918472e-05 0.0 
-4.940858918472e-05 4.748495406066e-04 0.0 
0.0 0.0 0.0 
2.416469775453e-04 -3.945066728539e-05 0.0 
-3.945066728539e-05 2.177323909638e-03 0.0 
0.0 0.0 0.0 
0.0 1.033551250562e-03 0.0 
1.033551250562e-03 9.836204552824e-03 0.0 
0.0 0.0 0.0 
1.110343417829e-04 -4.490682683165e-05 0.0 
-4.490682683165e-05 1.037077621466e-03 0.0 
0.0 0.0 0.0 
-2.578720958847e-04 9.472111100254e-06 0.0 
9.472111100254e-06 7.693017412655e-03 0.0 
0.0 0.0 0.0 
1.992998735367e-04 7.980251801770e-04 0.0 
7.980251801770e-04 8.135413834957e-03 0.0 
0.0 0.0 0.0 
-5.212355263962e-05 -5.519365854917e-05 0.0 
-5.519365854917e-05 7.053607672112e-04 0.0 
0.0 0.0 0.0 
-5.923255541840e-05 -5.160949413321e-05 0.0 
-5.160949413321e-05 3.862660982183e-04 0.0 
0.0 0.0 0.0 
-5.972687817646e-05 2.423575034744e-04 0.0 
2.423575034744e-04 1.102150004822e-02 0.0 
0.0 0.0 0.0 
-3.109801992486e-04 2.375910045498e-05 0.0 
2.375910045498e-05 7.352086094581e-03 0.0 
0.0 0.0 0.0 
-9.761156585963e-05 2.552357336196e-04 0.0 
2.552357336196e-04 1.064111231665e-02 0.0 
0.0 0.0 0.0 
1.320288650188e-04 8.194508290131e-04 0.0 
8.194508290131e-04 8.267754831256e-03 0.0 
0.0 0.0 0.0 
-3.070178313759e-04 -7.041592723355e-07 0.0 
-7.041592723355e-07 7.342590312323e-03 0.0 
0.0 0.0 0.0 
-4.520324131914e-04 2.873120894257e-05 0.0 
2.873120894257e-05 6.176497039685e-04 0.0 
0.0 0.0 0.0 
-4.644677846466e-05 2.735475728649e-05 0.0 
2.735475728649e-05 1.073445948351e-02 0.0 
0.0 0.0 0.0 
1.140423752370e-04 -1.174233586118e-04 0.0 
-1.174233586118e-04 1.163329040180e-03 0.0 
0.0 0.0 0.0 
-1.065905495796e-04 2.059705170858e-04 0.0 
2.059705170858e-04 1.043786957818e-02 0.0 
0.0 0.0 0.0 
0.0 2.594483619878e-04 0.0 
2.594483619878e-04 8.340234897460e-03 0.0 
0.0 0.0 0.0 
-2.166302223712e-04 5.526947600589e-04 0.0 
5.526947600589e-04 1.017092420235e-02 0.0 
0.0 0.0 0.0 
3.464250870109e-04 1.368085457460e-04 0.0 
1.368085457460e-04 1.548605259639e-03 0.0 
0.0 0.0 0.0 
-3.954462017316e-04 1.290495771550e-04 0.0 
1.290495771550e-04 8.077383938314e-03 0.0 
0.0 0.0 0.0 
3.753095546180e-04 -3.179798013122e-05 0.0 
-3.179798013122e-05 3.511292314637e-03 0.0 
0.0 0.0 0.0 
7.856312743248e-06 8.539313386146e-04 0.0 
8.539313386146e-04 8.039453977371e-03 0.0 
0.0 0.0 0.0 
2.443558318732e-05 1.046464134619e-03 0.0 
1.046464134619e-03 9.409633209460e-03 0.0 
0.0 0.0 0.0 
-1.837226020326e-04 4.472807853376e-05 0.0 
4.472807853376e-05 9.466093821497e-03 0.0 
0.0 0.0 0.0 
5.683103607601e-05 1.043449018139e-03 0.0 
1.043449018139e-03 9.254377765013e-03 0.0 
0.0 0.0 0.0 
-4.131329276791e-06 2.511782025928e-05 0.0 
2.511782025928e-05 7.684797114256e-04 0.0 
0.0 0.0 0.0 
1.300590422957e-04 3.111224817982e-04 0.0 
3.111224817982e-04 7.990641572451e-03 0.0 
0.0 0.0 0.0 
3.455378274004e-04 1.030953880293e-04 0.0 
1.030953880293e-04 1.764839423668e-03 0.0 
0.0 0.0 0.0 
1.191146397816e-04 -2.247950565638e-05 0.0 
-2.247950565638e-05 1.038597620222e-03 0.0 
0.0 0.0 0.0 
1.480264007536e-04 7.529573961689e-04 0.0 
7.529573961689e-04 8.397158149989e-03 0.0 
0.0 0.0 0.0 
-1.519536264012e-04 4.219525093320e-04 0.0 
4.219525093320e-04 1.063790635507e-02 0.0 
0.0 0.0 0.0 
-8.353228585478e-05 2.423202065446e-04 0.0 
2.423202065446e-04 1.076992108541e-02 0.0 
0.0 0.0 0.0 
-2.780579826601e-04 4.750362562521e-05 0.0 
4.750362562521e-05 7.678371256285e-03 0.0 
0.0 0.0 0.0 
-4.373580152274e-04 2.174481555784e-04 0.0 
2.174481555784e-04 8.108102343644e-03 0.0 
0.0 0.0 0.0 
-8.838821329382e-05 9.862645459861e-04 0.0 
9.862645459861e-04 3.341738379582e-03 0.0 
0.0 0.0 0.0 
-1.655183911216e-04 7.440856991882e-04 0.0 
7.440856991882e-04 1.032327305635e-02 0.0 
0.0 0.0 0.0 
3.513490416556e-04 1.382528448093e-05 0.0 
1.382528448093e-05 2.895219369246e-03 0.0 
0.0 0.0 0.0 
8.827083709972e-05 4.684761750298e-04 0.0 
4.684761750298e-04 1.531502800413e-03 0.0 
0.0 0.0 0.0 
6.762868704269e-05 9.258667122766e-04 0.0 
9.258667122766e-04 8.106095773531e-03 0.0 
0.0 0.0 0.0 
-2.790145167161e-04 -2.966035411118e-07 0.0 
-2.966035411118e-07 7.321708925359e-03 0.0 
0.0 0.0 0.0 
-1.441585445471e-04 4.329849708688e-04 0.0 
4.329849708688e-04 1.038067031443e-02 0.0 
0.0 0.0 0.0 
-3.397513924441e-05 -2.533228409746e-05 0.0 
-2.533228409746e-05 1.103131198187e-02 0.0 
0.0 0.0 0.0 
0.0 1.698756962214e-05 0.0 
1.698756962214e-05 1.108197655006e-02 0.0 
0.0 0.0 0.0 
-1.437983447394e-05 -1.533112920347e-06 0.0 
-1.533112920347e-06 1.045600018681e-04 0.0 
0.0 0.0 0.0 
-8.267676192997e-06 4.486019371169e-06 0.0 
4.486019371169e-06 1.104861081700e-04 0.0 
0.0 0.0 0.0 
-2.604448439207e-04 -2.660438496734e-05 0.0 
-2.660438496734e-05 7.367781495082e-03 0.0 
0.0 0.0 0.0 
-2.722222050593e-04 4.371667267239e-06 0.0 
4.371667267239e-06 7.317606751751e-03 0.0 
0.0 0.0 0.0 
0.0 3.787016910357e-05 0.0 
3.787016910357e-05 8.283683833412e-03 0.0 
0.0 0.0 0.0 
7.574033820701e-05 3.458600465681e-05 0.0 
3.458600465681e-05 8.214511824098e-03 0.0 
0.0 0.0 0.0 
5.929568416274e-06 1.740703764767e-05 0.0 
1.740703764767e-05 3.398418183669e-04 0.0 
0.0 0.0 0.0 
-4.553199191495e-04 -3.266267113516e-05 0.0 
-3.266267113516e-05 2.829901787686e-04 0.0 
0.0 0.0 0.0 
1.668844735594e-04 2.050354571661e-04 0.0 
2.050354571661e-04 7.505143905374e-03 0.0 
0.0 0.0 0.0 
-4.100029097676e-05 9.865851551203e-04 0.0 
9.865851551203e-04 9.136271933993e-03 0.0 
0.0 0.0 0.0 
1.287979094513e-04 -9.253733691539e-05 0.0 
-9.253733691539e-05 1.374101431896e-03 0.0 
0.0 0.0 0.0 
1.582867710581e-04 3.274698985467e-04 0.0 
3.274698985467e-04 7.687744889099e-03 0.0 
0.0 0.0 0.0 
4.140257778529e-04 1.114996084885e-06 0.0 
1.114996084885e-06 5.097562053196e-03 0.0 
0.0 0.0 0.0 
4.125568061564e-04 -2.818200613929e-05 0.0 
-2.818200613929e-05 4.339296188432e-03 0.0 
0.0 0.0 0.0 
-2.452804834611e-04 4.602356425978e-05 0.0 
4.602356425978e-05 8.766617155577e-03 0.0 
0.0 0.0 0.0 
1.486140545823e-04 -3.262287960918e-05 0.0 
-3.262287960918e-05 1.321667315444e-03 0.0 
0.0 0.0 0.0 
1.092088932486e-05 8.487602408292e-04 0.0 
8.487602408292e-04 7.633910761524e-03 0.0 
0.0 0.0 0.0 
6.967018010795e-05 -5.596981326264e-05 0.0 
-5.596981326264e-05 1.082148033425e-03 0.0 
0.0 0.0 0.0 
4.247376728106e-04 -2.672828774810e-05 0.0 
-2.672828774810e-05 3.910014728988e-03 0.0 
0.0 0.0 0.0 
-1.449297389250e-04 7.236237581964e-04 0.0 
7.236237581964e-04 1.005233835798e-02 0.0 
0.0 0.0 0.0 
-1.150084333804e-04 -2.966816618760e-05 0.0 
-2.966816618760e-05 1.024437499807e-02 0.0 
0.0 0.0 0.0 
4.346521133858e-04 2.360409420524e-05 0.0 
2.360409420524e-05 4.309913654258e-03 0.0 
0.0 0.0 0.0 
-2.516422830693e-04 -1.570816158412e-05 0.0 
-1.570816158412e-05 8.335266014440e-03 0.0 
0.0 0.0 0.0 
-1.317411829505e-04 9.397176642454e-04 0.0 
9.397176642454e-04 9.518235350914e-03 0.0 
0.0 0.0 0.0 
-3.117601385172e-04 6.701528825344e-04 0.0 
6.701528825344e-04 9.493211202023e-03 0.0 
0.0 0.0 0.0 
-3.681282130142e-04 6.296944762314e-04 0.0 
6.296944762314e-04 9.140160464930e-03 0.0 
0.0 0.0 0.0 
-2.934741348133e-04 7.671055553592e-06 0.0 
7.671055553592e-06 7.344532770176e-03 0.0 
0.0 0.0 0.0 
7.849046057262e-05 8.361557549368e-04 0.0 
8.361557549368e-04 7.259158247533e-03 0.0 
0.0 0.0 0.0 
-1.582378213637e-04 5.033794510199e-04 0.0 
5.033794510199e-04 1.027386523280e-02 0.0 
0.0 0.0 0.0 
2.651699526381e-04 -3.282768567882e-06 0.0 
-3.282768567882e-06 2.171005922588e-03 0.0 
0.0 0.0 0.0 
-1.951618848265e-04 -8.495320027900e-05 0.0 
-8.495320027900e-05 4.705195831129e-04 0.0 
0.0 0.0 0.0 
-1.750690892325e-04 8.401467249562e-04 0.0 
8.401467249562e-04 9.348827765546e-03 0.0 
0.0 0.0 0.0 
2.600640788228e-04 8.022585817713e-04 0.0 
8.022585817713e-04 7.537888752147e-03 0.0 
0.0 0.0 0.0 
1.080465164576e-04 -1.363626684999e-04 0.0 
-1.363626684999e-04 1.064066649970e-03 0.0 
0.0 0.0 0.0 
-2.213027003105e-04 -2.852616188112e-06 0.0 
-2.852616188112e-06 9.056606320036e-03 0.0 
0.0 0.0 0.0 
8.152755018687e-05 1.851766639040e-04 0.0 
1.851766639040e-04 7.871223247253e-03 0.0 
0.0 0.0 0.0 
-8.376825572731e-05 9.071536911498e-04 0.0 
9.071536911498e-04 9.056456302704e-03 0.0 
0.0 0.0 0.0 
-1.128165764189e-04 9.482272358663e-04 0.0 
9.482272358663e-04 9.388992017084e-03 0.0 
0.0 0.0 0.0 
3.912269282922e-04 -1.800837741495e-05 0.0 
-1.800837741495e-05 5.561992843765e-03 0.0 
0.0 0.0 0.0 
-1.484623899976e-04 2.963390957419e-04 0.0 
2.963390957419e-04 5.639785525926e-04 0.0 
0.0 0.0 0.0 
-2.900863318760e-04 2.460094596552e-04 0.0 
2.460094596552e-04 4.688465740630e-03 0.0 
0.0 0.0 0.0 
-3.692277357499e-04 9.608334882259e-04 0.0 
9.608334882259e-04 4.548725903428e-03 0.0 
0.0 0.0 0.0 
-3.968995419150e-04 1.369728597552e-04 0.0 
1.369728597552e-04 8.086313416876e-03 0.0 
0.0 0.0 0.0 
7.298727215943e-05 8.992911761713e-04 0.0 
8.992911761713e-04 7.251571875960e-03 0.0 
0.0 0.0 0.0 
-1.088748312856e-04 1.188434676321e-04 0.0 
1.188434676321e-04 1.049003138949e-02 0.0 
0.0 0.0 0.0 
8.154047835740e-05 8.941647257249e-04 0.0 
8.941647257249e-04 8.703205897728e-03 0.0 
0.0 0.0 0.0 
-1.512091571780e-04 -1.166434841113e-04 0.0 
-1.166434841113e-04 8.166105735381e-04 0.0 
0.0 0.0 0.0 
-1.129931238764e-04 -1.089673768529e-04 0.0 
-1.089673768529e-04 7.587034894430e-04 0.0 
0.0 0.0 0.0 
-1.709047340448e-04 4.322586522192e-04 0.0 
4.322586522192e-04 4.059376853700e-03 0.0 
0.0 0.0 0.0 
-1.985719180576e-04 8.419868158649e-05 0.0 
8.419868158649e-05 9.174828076183e-03 0.0 
0.0 0.0 0.0 
3.081210974381e-04 -6.635584874754e-05 0.0 
-6.635584874754e-05 2.691426403252e-03 0.0 
0.0 0.0 0.0 
-1.594397503565e-04 3.257166668792e-04 0.0 
3.257166668792e-04 1.045924764558e-02 0.0 
0.0 0.0 0.0 
1.273199174914e-04 -7.094240878474e-05 0.0 
-7.094240878474e-05 1.310216329415e-03 0.0 
0.0 0.0 0.0 
1.431635706171e-04 8.645818706302e-04 0.0 
8.645818706302e-04 8.312538821632e-03 0.0 
0.0 0.0 0.0 
-3.122534121729e-04 8.638742487869e-05 0.0 
8.638742487869e-05 8.057186822709e-03 0.0 
0.0 0.0 0.0 
9.343042395749e-06 9.805615407459e-04 0.0 
9.805615407459e-04 9.307195721397e-03 0.0 
0.0 0.0 0.0 
-4.707648650371e-05 8.729181109201e-04 0.0 
8.729181109201e-04 8.397775720974e-03 0.0 
0.0 0.0 0.0 
-4.323148232663e-04 1.453908933157e-04 0.0 
1.453908933157e-04 8.086321293931e-03 0.0 
0.0 0.0 0.0 
1.703796036894e-04 6.499284989371e-04 0.0 
6.499284989371e-04 8.231834518743e-03 0.0 
0.0 0.0 0.0 
-1.312162767332e-04 4.035501025323e-04 0.0 
4.035501025323e-04 1.066682247569e-02 0.0 
0.0 0.0 0.0 
-7.217744189170e-05 4.297014665034e-05 0.0 
4.297014665034e-05 1.075420335927e-02 0.0 
0.0 0.0 0.0 
-3.907622150376e-04 9.173058591306e-04 0.0 
9.173058591306e-04 2.697465628998e-03 0.0 
0.0 0.0 0.0 
-1.458236087420e-04 3.219078318777e-04 0.0 
3.219078318777e-04 1.033542734375e-02 0.0 
0.0 0.0 0.0 
-6.406632788281e-05 8.893333091128e-04 0.0 
8.893333091128e-04 9.947532754006e-03 0.0 
0.0 0.0 0.0 
1.599769888083e-04 8.579479973467e-04 0.0 
8.579479973467e-04 8.314553187377e-03 0.0 
0.0 0.0 0.0 
3.249369906899e-05 9.392946633319e-04 0.0 
9.392946633319e-04 8.437130208645e-03 0.0 
0.0 0.0 0.0 
0.0 4.371285773980e-04 0.0 
4.371285773980e-04 8.420939991447e-03 0.0 
0.0 0.0 0.0 
-3.176795646963e-04 6.554616659938e-04 0.0 
6.554616659938e-04 9.136400677429e-03 0.0 
0.0 0.0 0.0 
-4.036801456706e-04 2.294742998314e-04 0.0 
2.294742998314e-04 2.775799221935e-04 0.0 
0.0 0.0 0.0 
1.347143069252e-05 6.905486227718e-04 0.0 
6.905486227718e-04 2.114872037840e-03 0.0 
0.0 0.0 0.0 
-2.825616316883e-04 6.646958011148e-04 0.0 
6.646958011148e-04 9.760303108704e-03 0.0 
0.0 0.0 0.0 
-3.688999520216e-04 1.729646230193e-04 0.0 
1.729646230193e-04 8.391680485780e-03 0.0 
0.0 0.0 0.0 
1.847651710107e-04 7.453500112121e-05 0.0 
7.453500112121e-05 7.460712726570e-03 0.0 
0.0 0.0 0.0 
-4.235439628719e-05 9.002959873519e-04 0.0 
9.002959873519e-04 8.788397718204e-03 0.0 
0.0 0.0 0.0 
9.058824245778e-05 3.647314567678e-04 0.0 
3.647314567678e-04 8.022418274140e-03 0.0 
0.0 0.0 0.0 
-1.692244930660e-04 8.920447483721e-05 0.0 
8.920447483721e-05 9.597571957017e-03 0.0 
0.0 0.0 0.0 
7.148727402262e-06 9.704302788289e-04 0.0 
9.704302788289e-04 9.192924110012e-03 0.0 
0.0 0.0 0.0 
1.750276653880e-04 5.472274449285e-04 0.0 
5.472274449285e-04 7.862054656112e-03 0.0 
0.0 0.0 0.0 
2.082153536846e-04 6.103311789901e-04 0.0 
6.103311789901e-04 7.856256516823e-03 0.0 
0.0 0.0 0.0 
3.164563832541e-04 -4.681580443379e-05 0.0 
-4.681580443379e-05 2.794534051648e-03 0.0 
0.0 0.0 0.0 
1.039725264784e-04 3.606190840971e-04 0.0 
3.606190840971e-04 8.385806178620e-03 0.0 
0.0 0.0 0.0 
-3.645965081724e-04 6.346325740872e-05 0.0 
6.346325740872e-05 7.702632927997e-03 0.0 
0.0 0.0 0.0 
-1.074310858079e-04 4.963876327809e-05 0.0 
4.963876327809e-05 1.039402834000e-02 0.0 
0.0 0.0 0.0 
-1.153644398899e-06 -1.371918351006e-04 0.0 
-1.371918351006e-04 7.516128153626e-04 0.0 
0.0 0.0 0.0 
-1.365793320354e-04 1.723695887825e-05 0.0 
1.723695887825e-05 1.010103744208e-02 0.0 
0.0 0.0 0.0 
-2.213753913918e-04 2.832757402071e-05 0.0 
2.832757402071e-05 9.090505079407e-03 0.0 
0.0 0.0 0.0 
4.470501523990e-05 -3.819759599720e-05 0.0 
-3.819759599720e-05 7.228257894114e-04 0.0 
0.0 0.0 0.0 
1.938025403521e-04 -4.014498684513e-06 0.0 
-4.014498684513e-06 1.452121511301e-03 0.0 
0.0 0.0 0.0 
-2.784698830328e-04 7.174339808883e-04 0.0 
7.174339808883e-04 9.213054480750e-03 0.0 
0.0 0.0 0.0 
-6.298729579601e-05 1.997195724876e-04 0.0 
1.997195724876e-04 1.071967409770e-02 0.0 
0.0 0.0 0.0 
-1.035702014358e-04 1.332568097573e-05 0.0 
1.332568097573e-05 1.044984841091e-02 0.0 
0.0 0.0 0.0 
7.745740145348e-05 1.026175379996e-03 0.0 
1.026175379996e-03 8.999774792112e-03 0.0 
0.0 0.0 0.0 
-2.576075309831e-04 7.159978986881e-05 0.0 
7.159978986881e-05 8.335443815536e-03 0.0 
0.0 0.0 0.0 
-1.276396062255e-04 -8.073335525362e-05 0.0 
-8.073335525362e-05 4.346529699395e-04 0.0 
0.0 0.0 0.0 
-8.416384885879e-05 2.649910505962e-04 0.0 
2.649910505962e-04 8.713794442032e-04 0.0 
0.0 0.0 0.0 
-7.528697144010e-05 -2.756246338546e-05 0.0 
-2.756246338546e-05 4.885850140806e-04 0.0 
0.0 0.0 0.0 
9.950177626505e-06 -1.618378630043e-04 0.0 
-1.618378630043e-04 1.020299374022e-03 0.0 
0.0 0.0 0.0 
-5.277924416650e-04 5.798130209713e-04 0.0 
5.798130209713e-04 4.260268204299e-04 0.0 
0.0 0.0 0.0 
4.139044592577e-04 2.594434489046e-05 0.0 
2.594434489046e-05 3.806907331335e-03 0.0 
0.0 0.0 0.0 
1.970168560306e-04 1.431535780520e-04 0.0 
1.431535780520e-04 7.459252553053e-03 0.0 
0.0 0.0 0.0 
-1.827013201569e-04 5.955703456185e-04 0.0 
5.955703456185e-04 1.017683252732e-02 0.0 
0.0 0.0 0.0 
-4.578281663672e-04 1.930500718015e-04 0.0 
1.930500718015e-04 8.349569406618e-03 0.0 
0.0 0.0 0.0 
3.822911443261e-04 -6.247501977606e-05 0.0 
-6.247501977606e-05 3.303436226563e-03 0.0 
0.0 0.0 0.0 
2.045456792799e-04 4.509746904452e-04 0.0 
4.509746904452e-04 7.684724419053e-03 0.0 
0.0 0.0 0.0 
2.491784189365e-04 7.688034000320e-04 0.0 
7.688034000320e-04 7.920500850939e-03 0.0 
0.0 0.0 0.0 
5.107563915363e-06 1.045103456475e-03 0.0 
1.045103456475e-03 9.363620939618e-03 0.0 
0.0 0.0 0.0 
-1.121183442029e-04 8.626404851907e-04 0.0 
8.626404851907e-04 9.613326725534e-03 0.0 
0.0 0.0 0.0 
-2.173056761205e-04 7.596970593088e-04 0.0 
7.596970593088e-04 9.564597136471e-03 0.0 
0.0 0.0 0.0 
-1.003606361571e-05 -8.408184090894e-05 0.0 
-8.408184090894e-05 7.366153828432e-04 0.0 
0.0 0.0 0.0 
-2.289284984158e-04 -7.750274662276e-05 0.0 
-7.750274662276e-05 7.727563425477e-04 0.0 
0.0 0.0 0.0 
1.811548474135e-04 1.558922962003e-04 0.0 
1.558922962003e-04 7.520643221314e-03 0.0 
0.0 0.0 0.0 
8.395539575923e-05 -1.307775984658e-05 0.0 
-1.307775984658e-05 7.050699646152e-04 0.0 
0.0 0.0 0.0 
7.602787199845e-05 3.930413563012e-05 0.0 
3.930413563012e-05 8.742689374086e-04 0.0 
0.0 0.0 0.0 
-1.703345274959e-04 7.317115268978e-04 0.0 
7.317115268978e-04 1.132548367543e-03 0.0 
0.0 0.0 0.0 
-2.622710473321e-05 -1.302315470990e-04 0.0 
-1.302315470990e-04 7.030431356698e-04 0.0 
0.0 0.0 0.0 
8.774212797769e-05 6.004731000895e-04 0.0 
6.004731000895e-04 8.202593868976e-03 0.0 
0.0 0.0 0.0 
-9.146707862584e-05 7.943104617970e-04 0.0 
7.943104617970e-04 1.019795201372e-02 0.0 
0.0 0.0 0.0 
-9.947417515044e-05 1.659448908226e-04 0.0 
1.659448908226e-04 1.049273786519e-02 0.0 
0.0 0.0 0.0 
-1.033904923331e-05 9.842526078656e-04 0.0 
9.842526078656e-04 9.459933342387e-03 0.0 
0.0 0.0 0.0 
2.203901348223e-04 6.972778633953e-04 0.0 
6.972778633953e-04 7.746401873074e-03 0.0 
0.0 0.0 0.0 
-2.406780871353e-04 7.603153775177e-05 0.0 
7.603153775177e-05 8.567049665669e-03 0.0 
0.0 0.0 0.0 
0.0 2.734295986845e-04 0.0 
2.734295986845e-04 1.103450422160e-02 0.0 
0.0 0.0 0.0 
2.828414070926e-04 -4.135200895066e-05 0.0 
-4.135200895066e-05 1.759918853956e-03 0.0 
0.0 0.0 0.0 
-3.015026444212e-04 9.272697336461e-06 0.0 
9.272697336461e-06 7.324992759578e-03 0.0 
0.0 0.0 0.0 
-2.246418958185e-05 -9.913104981519e-05 0.0 
-9.913104981519e-05 1.083644382358e-03 0.0 
0.0 0.0 0.0 
1.198976344829e-05 -3.743721731189e-05 0.0 
-3.743721731189e-05 3.832779413162e-04 0.0 
0.0 0.0 0.0 
9.917061036835e-05 2.572014933299e-04 0.0 
2.572014933299e-04 8.324824417537e-03 0.0 
0.0 0.0 0.0 
-4.343729789478e-04 1.135505404067e-04 0.0 
1.135505404067e-04 7.742457638290e-03 0.0 
0.0 0.0 0.0 
8.303995963721e-05 -3.964421538859e-05 0.0 
-3.964421538859e-05 1.031798600493e-03 0.0 
0.0 0.0 0.0 
3.995085904080e-04 3.570427921928e-05 0.0 
3.570427921928e-05 3.651453385669e-03 0.0 
0.0 0.0 0.0 
-1.398288073868e-04 8.171062755312e-04 0.0 
8.171062755312e-04 1.025011384429e-02 0.0 
0.0 0.0 0.0 
-1.360142761141e-04 1.692831180783e-04 0.0 
1.692831180783e-04 1.044999618881e-02 0.0 
0.0 0.0 0.0 
-8.502243470176e-05 4.415975873503e-04 0.0 
4.415975873503e-04 1.063303661028e-02 0.0 
0.0 0.0 0.0 
2.902819974022e-04 -4.745045455809e-05 0.0 
-4.745045455809e-05 2.537847652428e-03 0.0 
0.0 0.0 0.0 
-1.315228261094e-04 9.748034401689e-07 0.0 
9.748034401689e-07 7.957593167174e-04 0.0 
0.0 0.0 0.0 
1.478679336273e-04 3.967538645296e-04 0.0 
3.967538645296e-04 8.034901701507e-03 0.0 
0.0 0.0 0.0 
-3.273043481078e-05 3.016210794020e-05 0.0 
3.016210794020e-05 1.107671716543e-02 0.0 
0.0 0.0 0.0 
7.508360193476e-05 5.034626259071e-05 0.0 
5.034626259071e-05 8.282757672473e-03 0.0 
0.0 0.0 0.0 
-2.592937198640e-04 2.212168056653e-05 0.0 
2.212168056653e-05 7.625433561534e-03 0.0 
0.0 0.0 0.0 
1.536873224544e-04 7.415048318206e-04 0.0 
7.415048318206e-04 8.078858892894e-03 0.0 
0.0 0.0 0.0 
1.281855694324e-04 -7.095722874768e-05 0.0 
-7.095722874768e-05 1.052554012369e-03 0.0 
0.0 0.0 0.0 
-1.359058372910e-04 3.636802019966e-04 0.0 
3.636802019966e-04 1.046227481047e-02 0.0 
0.0 0.0 0.0 
-1.984453636361e-05 -5.676809118166e-05 0.0 
-5.676809118166e-05 3.742910751168e-04 0.0 
0.0 0.0 0.0 
8.194285105989e-05 7.072479801879e-04 0.0 
7.072479801879e-04 8.365905465526e-03 0.0 
0.0 0.0 0.0 
-1.464964707291e-04 4.973558389173e-04 0.0 
4.973558389173e-04 1.058304311388e-02 0.0 
0.0 0.0 0.0 
-1.512561391989e-04 8.109600194500e-05 0.0 
8.109600194500e-05 4.942338677862e-04 0.0 
0.0 0.0 0.0 
-1.122090949131e-04 8.981890791125e-04 0.0 
8.981890791125e-04 9.060646893314e-03 0.0 
0.0 0.0 0.0 
-1.891842328803e-04 1.127473249003e-05 0.0 
1.127473249003e-05 9.392479598216e-03 0.0 
0.0 0.0 0.0 
-4.821569063562e-05 1.452268792634e-04 0.0 
1.452268792634e-04 1.075678332206e-02 0.0 
0.0 0.0 0.0 
0.0 1.004256834391e-03 0.0 
1.004256834391e-03 9.358347264492e-03 0.0 
0.0 0.0 0.0 
-2.206364733583e-04 -3.494352917727e-05 0.0 
-3.494352917727e-05 8.841262161233e-03 0.0 
0.0 0.0 0.0 
-8.032509109601e-05 7.623854739700e-04 0.0 
7.623854739700e-04 1.029776060873e-02 0.0 
0.0 0.0 0.0 
-1.874741256465e-04 4.038936416314e-04 0.0 
4.038936416314e-04 1.039211701481e-02 0.0 
0.0 0.0 0.0 
-1.989656265871e-04 2.763152512723e-05 0.0 
2.763152512723e-05 9.085388873339e-03 0.0 
0.0 0.0 0.0 
-1.481909869596e-04 7.430029806334e-04 0.0 
7.430029806334e-04 1.002445854121e-02 0.0 
0.0 0.0 0.0 
3.636663935938e-04 -4.219328672381e-05 0.0 
-4.219328672381e-05 3.080490507042e-03 0.0 
0.0 0.0 0.0 
-2.794820352608e-04 -1.649263980167e-06 0.0 
-1.649263980167e-06 7.322769886428e-03 0.0 
0.0 0.0 0.0 
-4.505965206736e-06 9.908319662532e-04 0.0 
9.908319662532e-04 9.177080875361e-03 0.0 
0.0 0.0 0.0 
-4.765983951860e-05 3.650636634358e-05 0.0 
3.650636634358e-05 1.079556330553e-02 0.0 
0.0 0.0 0.0 
8.630632177375e-06 1.008018022795e-05 0.0 
1.008018022795e-05 9.297566326194e-05 0.0 
0.0 0.0 0.0 
-2.651633693909e-04 8.498399952274e-06 0.0 
8.498399952274e-06 7.319682025087e-03 0.0 
0.0 0.0 0.0 
9.884028143969e-05 1.699569386163e-05 0.0 
1.699569386163e-05 7.945976254880e-03 0.0 
0.0 0.0 0.0 
1.424824885119e-04 -4.169265843914e-05 0.0 
-4.169265843914e-05 1.351349086398e-03 0.0 
0.0 0.0 0.0 
1.877433250708e-04 8.496643046198e-04 0.0 
8.496643046198e-04 8.226400876677e-03 0.0 
0.0 0.0 0.0 
-2.190069870918e-04 4.872934499455e-04 0.0 
4.872934499455e-04 1.028479580105e-02 0.0 
0.0 0.0 0.0 
-9.166387131709e-05 1.122179248736e-04 0.0 
1.122179248736e-04 1.073174338862e-02 0.0 
0.0 0.0 0.0 
1.360716220380e-04 -1.839874901074e-05 0.0 
-1.839874901074e-05 1.293851477589e-03 0.0 
0.0 0.0 0.0 
-5.320770725681e-06 5.789356417658e-04 0.0 
5.789356417658e-04 1.413287637189e-03 0.0 
0.0 0.0 0.0 
4.124123910683e-04 5.542399721441e-05 0.0 
5.542399721441e-05 4.528043712231e-03 0.0 
0.0 0.0 0.0 
-1.578078719034e-04 4.244080214673e-05 0.0 
4.244080214673e-05 9.824044673455e-03 0.0 
0.0 0.0 0.0 
-7.313861904134e-04 -4.011904870502e-05 0.0 
-4.011904870502e-05 4.244943866576e-04 0.0 
0.0 0.0 0.0 
-7.101855010505e-05 3.570842958851e-04 0.0 
3.570842958851e-04 1.070268480376e-02 0.0 
0.0 0.0 0.0 
-2.189638652111e-04 2.394892030208e-05 0.0 
2.394892030208e-05 8.719119140014e-03 0.0 
0.0 0.0 0.0 
1.150013383184e-04 -1.492079444844e-04 0.0 
-1.492079444844e-04 1.308129580618e-03 0.0 
0.0 0.0 0.0 
-2.456676372687e-04 3.421828700854e-05 0.0 
3.421828700854e-05 8.435439581887e-03 0.0 
0.0 0.0 0.0 
-4.735853014060e-05 1.007908443558e-03 0.0 
1.007908443558e-03 9.519898939653e-03 0.0 
0.0 0.0 0.0 
4.192920027979e-04 -4.112052826647e-05 0.0 
-4.112052826647e-05 4.760337828472e-03 0.0 
0.0 0.0 0.0 
-4.926102538679e-04 4.336942022828e-04 0.0 
4.336942022828e-04 8.105268203720e-04 0.0 
0.0 0.0 0.0 
3.431490143382e-04 -4.162283806316e-06 0.0 
-4.162283806316e-06 2.781250752313e-03 0.0 
0.0 0.0 0.0 
4.331909449780e-04 3.098334210897e-05 0.0 
3.098334210897e-05 4.120261605818e-03 0.0 
0.0 0.0 0.0 
4.275372248947e-04 5.883232234366e-05 0.0 
5.883232234366e-05 4.961322334062e-03 0.0 
0.0 0.0 0.0 
2.056029742969e-05 9.440883179170e-04 0.0 
9.440883179170e-04 8.897975032301e-03 0.0 
0.0 0.0 0.0 
4.105366435061e-04 -2.554477046732e-05 0.0 
-2.554477046732e-05 4.012127992012e-03 0.0 
0.0 0.0 0.0 
4.337010685114e-04 2.577689239833e-05 0.0 
2.577689239833e-05 4.276020189233e-03 0.0 
0.0 0.0 0.0 
-2.278692779412e-05 -3.412866291668e-05 0.0 
-3.412866291668e-05 6.493060441308e-04 0.0 
0.0 0.0 0.0 
1.766591874597e-04 3.814927634446e-04 0.0 
3.814927634446e-04 7.699405660042e-03 0.0 
0.0 0.0 0.0 
-1.492646983688e-04 8.744661952480e-04 0.0 
8.744661952480e-04 9.352381833984e-03 0.0 
0.0 0.0 0.0 
2.369601509415e-04 6.365685683870e-04 0.0 
6.365685683870e-04 1.547303809599e-03 0.0 
0.0 0.0 0.0 
-3.339119485302e-05 9.494762003930e-06 0.0 
9.494762003930e-06 1.078288035648e-02 0.0 
0.0 0.0 0.0 
8.236386030358e-05 6.541763048699e-05 0.0 
6.541763048699e-05 7.931952145482e-03 0.0 
0.0 0.0 0.0 
-2.636395098354e-04 -2.137692833782e-05 0.0 
-2.137692833782e-05 7.648372268399e-03 0.0 
0.0 0.0 0.0 
-2.320635186329e-04 2.015604787772e-05 0.0 
2.015604787772e-05 8.718172351389e-03 0.0 
0.0 0.0 0.0 
4.206229232071e-04 3.285030165258e-05 0.0 
3.285030165258e-05 4.005582929167e-03 0.0 
0.0 0.0 0.0 
4.287699748904e-04 -1.123568181305e-05 0.0 
-1.123568181305e-05 4.141105537495e-03 0.0 
0.0 0.0 0.0 
4.110342735386e-04 3.152677917456e-06 0.0 
3.152677917456e-06 4.294187652211e-03 0.0 
0.0 0.0 0.0 
2.000957221995e-04 8.339713345883e-04 0.0 
8.339713345883e-04 7.964256849782e-03 0.0 
0.0 0.0 0.0 
9.590173278284e-05 -7.882691317984e-05 0.0 
-7.882691317984e-05 1.049076072131e-03 0.0 
0.0 0.0 0.0 
-1.758287692503e-04 8.653838696658e-04 0.0 
8.653838696658e-04 9.662883184683e-03 0.0 
0.0 0.0 0.0 
-2.497317684912e-04 2.115583451384e-05 0.0 
2.115583451384e-05 8.011026852732e-03 0.0 
0.0 0.0 0.0 
-1.332553237872e-04 3.209764898494e-04 0.0 
3.209764898494e-04 1.068614011799e-02 0.0 
0.0 0.0 0.0 
1.660602177369e-04 7.713315571625e-04 0.0 
7.713315571625e-04 7.956592110393e-03 0.0 
0.0 0.0 0.0 
-2.560831434349e-04 1.794964313348e-05 0.0 
1.794964313348e-05 8.443784167885e-03 0.0 
0.0 0.0 0.0 
-1.981433906132e-04 7.335803490771e-04 0.0 
7.335803490771e-04 9.794666810674e-03 0.0 
0.0 0.0 0.0 
5.052635889835e-05 9.663626091821e-04 0.0 
9.663626091821e-04 8.889125702076e-03 0.0 
0.0 0.0 0.0 
1.282636879041e-05 1.028885298135e-03 0.0 
1.028885298135e-03 9.245402490152e-03 0.0 
0.0 0.0 0.0 
-2.719143769438e-04 5.123713673749e-04 0.0 
5.123713673749e-04 6.719848945806e-04 0.0 
0.0 0.0 0.0 
-2.418236432956e-04 7.148056352393e-04 0.0 
7.148056352393e-04 9.796883878724e-03 0.0 
0.0 0.0 0.0 
-1.779024865391e-04 8.147685055915e-04 0.0 
8.147685055915e-04 9.915793466454e-03 0.0 
0.0 0.0 0.0 
-1.645675445250e-05 -8.893240078843e-05 0.0 
-8.893240078843e-05 6.787787414584e-04 0.0 
0.0 0.0 0.0 
4.114776689685e-04 -2.038695234238e-05 0.0 
-2.038695234238e-05 3.797065448600e-03 0.0 
0.0 0.0 0.0 
-3.889424336495e-04 3.586553108804e-04 0.0 
3.586553108804e-04 7.837238478892e-04 0.0 
0.0 0.0 0.0 
-2.172995540726e-04 7.370295965683e-04 0.0 
7.370295965683e-04 1.005157821340e-02 0.0 
0.0 0.0 0.0 
-2.581055461737e-04 9.705701844092e-06 0.0 
9.705701844092e-06 4.336583099976e-03 0.0 
0.0 0.0 0.0 
-2.561447640899e-04 2.248015145490e-05 0.0 
2.248015145490e-05 4.359336495970e-03 0.0 
0.0 0.0 0.0 
-2.188208453243e-04 1.549374339809e-05 0.0 
1.549374339809e-05 4.359818699077e-03 0.0 
0.0 0.0 0.0 
-2.445946963778e-04 3.903876658143e-06 0.0 
3.903876658143e-06 4.360861988823e-03 0.0 
0.0 0.0 0.0 
-2.236043556287e-04 4.780878346263e-06 0.0 
4.780878346263e-06 4.360690932021e-03 0.0 
0.0 0.0 0.0 
-2.376746604325e-04 -2.843803105208e-06 0.0 
-2.843803105208e-06 4.358603495802e-03 0.0 
0.0 0.0 0.0 
-2.234898012938e-04 -2.255834458797e-06 0.0 
-2.255834458797e-06 4.358429105009e-03 0.0 
0.0 0.0 0.0 
-2.322779543634e-04 -7.424023396080e-06 0.0 
-7.424023396080e-06 4.356265984671e-03 0.0 
0.0 0.0 0.0 
-2.185080471062e-04 -6.066374419320e-06 0.0 
-6.066374419320e-06 4.355877587797e-03 0.0 
0.0 0.0 0.0 
-2.264224690214e-04 -1.091163328818e-05 0.0 
-1.091163328818e-05 4.353498593102e-03 0.0 
0.0 0.0 0.0 
-2.097131911287e-04 -8.191041168989e-06 0.0 
-8.191041168989e-06 4.352648303351e-03 0.0 
0.0 0.0 0.0 
-2.192202033221e-04 -1.386067762517e-05 0.0 
-1.386067762517e-05 4.349955182448e-03 0.0 
0.0 0.0 0.0 
-1.977281899515e-04 -9.546340073491e-06 0.0 
-9.546340073491e-06 4.348404166771e-03 0.0 
0.0 0.0 0.0 
-2.103248984454e-04 -1.659360896535e-05 0.0 
-1.659360896535e-05 4.345496964551e-03 0.0 
0.0 0.0 0.0 
-1.828445904561e-04 -1.057047648067e-05 0.0 
-1.057047648067e-05 4.342993271528e-03 0.0 
0.0 0.0 0.0 
-1.996441735973e-04 -1.926741092264e-05 0.0 
-1.926741092264e-05 4.340097464725e-03 0.0 
0.0 0.0 0.0 
-1.651461533831e-04 -1.145046698030e-05 0.0 
-1.145046698030e-05 4.336358189888e-03 0.0 
0.0 0.0 0.0 
-1.871731867855e-04 -2.194823260562e-05 0.0 
-2.194823260562e-05 4.333769967504e-03 0.0 
0.0 0.0 0.0 
-1.445979300269e-04 -1.225258310746e-05 0.0 
-1.225258310746e-05 4.328466342820e-03 0.0 
0.0 0.0 0.0 
-5.530801664988e-06 1.380056415402e-04 0.0 
1.380056415402e-04 4.252645839674e-03 0.0 
0.0 0.0 0.0 
-1.729506539054e-04 -2.464570048792e-05 0.0 
-2.464570048792e-05 4.326549433181e-03 0.0 
0.0 0.0 0.0 
-1.210979241026e-04 -1.299267471825e-05 0.0 
-1.299267471825e-05 4.319298973945e-03 0.0 
0.0 0.0 0.0 
-1.570493019006e-04 -2.733898941362e-05 0.0 
-2.733898941362e-05 4.318500725185e-03 0.0 
0.0 0.0 0.0 
-1.821719169917e-04 1.052767252751e-04 0.0 
1.052767252751e-04 4.320484840200e-03 0.0 
0.0 0.0 0.0 
-9.452004612531e-05 -1.366439117574e-05 0.0 
-1.366439117574e-05 4.308859411792e-03 0.0 
0.0 0.0 0.0 
-1.396190539414e-04 -2.997047538210e-05 0.0 
-2.997047538210e-05 4.309768477383e-03 0.0 
0.0 0.0 0.0 
-6.477808497496e-05 -1.423305072898e-05 0.0 
-1.423305072898e-05 4.297222204505e-03 0.0 
0.0 0.0 0.0 
-1.210343135499e-04 -3.253959099986e-05 0.0 
-3.253959099986e-05 4.300508649374e-03 0.0 
0.0 0.0 0.0 
-3.188211028604e-05 -1.473232393153e-05 0.0 
-1.473232393153e-05 4.284457905044e-03 0.0 
0.0 0.0 0.0 
2.640767635955e-04 4.149450247930e-06 0.0 
4.149450247930e-06 4.008750175580e-03 0.0 
0.0 0.0 0.0 
-1.016818022747e-04 -3.499650010455e-05 0.0 
-3.499650010455e-05 4.290959098991e-03 0.0 
0.0 0.0 0.0 
3.966274764622e-06 -1.511186745497e-05 0.0 
-1.511186745497e-05 4.270696212807e-03 0.0 
0.0 0.0 0.0 
-8.240352233002e-05 -3.738676419754e-05 0.0 
-3.738676419754e-05 4.281250223031e-03 0.0 
0.0 0.0 0.0 
4.242552430767e-05 -1.549476360389e-05 0.0 
-1.549476360389e-05 4.255960088081e-03 0.0 
0.0 0.0 0.0 
-6.375869999786e-05 -3.929038500597e-05 0.0 
-3.929038500597e-05 4.272032430125e-03 0.0 
0.0 0.0 0.0 
8.283679542087e-05 -1.544947563759e-05 0.0 
-1.544947563759e-05 4.240776207522e-03 0.0 
0.0 0.0 0.0 
-4.810368203900e-05 -4.104979527925e-05 0.0 
-4.104979527925e-05 4.263277857560e-03 0.0 
0.0 0.0 0.0 
1.243266380071e-04 -1.530367726063e-05 0.0 
-1.530367726063e-05 4.224792592542e-03 0.0 
0.0 0.0 0.0 
-3.574577944110e-05 -4.078002670111e-05 0.0 
-4.078002670111e-05 4.256924260934e-03 0.0 
0.0 0.0 0.0 
1.652000303587e-04 -1.320789202968e-05 0.0 
-1.320789202968e-05 4.209947938659e-03 0.0 
0.0 0.0 0.0 
-3.326546073568e-05 -4.037942113438e-05 0.0 
-4.037942113438e-05 4.251664585860e-03 0.0 
0.0 0.0 0.0 
-3.129988675771e-04 3.811799519844e-04 0.0 
3.811799519844e-04 4.445605681388e-03 0.0 
0.0 0.0 0.0 
-3.826981543598e-05 -3.049300689026e-05 0.0 
-3.049300689026e-05 4.255007374097e-03 0.0 
0.0 0.0 0.0 
2.027826744793e-04 -1.020085988187e-05 0.0 
-1.020085988187e-05 4.193531944782e-03 0.0 
0.0 0.0 0.0 
-7.286111384319e-05 -2.598072736252e-05 0.0 
-2.598072736252e-05 4.258247638966e-03 0.0 
0.0 0.0 0.0 
2.315782528692e-04 -2.688236575355e-07 0.0 
-2.688236575355e-07 4.186585549286e-03 0.0 
0.0 0.0 0.0 
-8.854979334449e-05 2.038215957653e-05 0.0 
2.038215957653e-05 4.276181233536e-03 0.0 
0.0 0.0 0.0 
2.443527317824e-04 1.507838833659e-05 0.0 
1.507838833659e-05 4.166725908941e-03 0.0 
0.0 0.0 0.0 
2.217210588320e-04 7.316022050442e-05 0.0 
7.316022050442e-05 4.168792771062e-03 0.0 
0.0 0.0 0.0 
-2.088898779754e-04 4.060529719094e-05 0.0 
4.060529719094e-05 4.358787466036e-03 0.0 
0.0 0.0 0.0 
-3.062001439652e-04 -5.260308291397e-05 0.0 
-5.260308291397e-05 4.400717382371e-03 0.0 
0.0 0.0 0.0 
-2.689740016839e-04 6.794606863803e-05 0.0 
6.794606863803e-05 4.334347105269e-03 0.0 
0.0 0.0 0.0 
-2.644515650151e-04 1.103113768086e-06 0.0 
1.103113768086e-06 4.465905848848e-03 0.0 
0.0 0.0 0.0 
-3.108112558626e-04 1.546184290049e-05 0.0 
1.546184290049e-05 4.271640879236e-03 0.0 
0.0 0.0 0.0 
-2.169064650053e-04 3.904772178854e-04 0.0 
3.904772178854e-04 4.037536445360e-03 0.0 
0.0 0.0 0.0 
-2.548370389919e-04 -1.444409774751e-05 0.0 
-1.444409774751e-05 4.833427012639e-03 0.0 
0.0 0.0 0.0 
-2.561447640899e-04 4.407414908296e-06 0.0 
4.407414908296e-06 4.798559731240e-03 0.0 
0.0 0.0 0.0 
-2.523863566906e-04 -4.030563515509e-06 0.0 
-4.030563515509e-06 4.797818889246e-03 0.0 
0.0 0.0 0.0 
-2.445946963778e-04 -4.867692933664e-06 0.0 
-4.867692933664e-06 4.792575460163e-03 0.0 
0.0 0.0 0.0 
-2.477883376250e-04 -6.475887744008e-06 0.0 
-6.475887744008e-06 4.792379279163e-03 0.0 
0.0 0.0 0.0 
-2.376746604325e-04 -9.237149242408e-06 0.0 
-9.237149242408e-06 4.788990332028e-03 0.0 
0.0 0.0 0.0 
-2.432468483927e-04 -1.090856425800e-05 0.0 
-1.090856425800e-05 4.788741784902e-03 0.0 
0.0 0.0 0.0 
-2.322779543634e-04 -1.443080936371e-05 0.0 
-1.443080936371e-05 4.786306623123e-03 0.0 
0.0 0.0 0.0 
-2.390586975344e-04 -1.543652635941e-05 0.0 
-1.543652635941e-05 4.786168101743e-03 0.0 
0.0 0.0 0.0 
-2.264224690214e-04 -1.961832583826e-05 0.0 
-1.961832583826e-05 4.783885992320e-03 0.0 
0.0 0.0 0.0 
-2.347664421689e-04 -1.969825336320e-05 0.0 
-1.969825336320e-05 4.784007099617e-03 0.0 
0.0 0.0 0.0 
-2.192202033221e-04 -2.462418791467e-05 0.0 
-2.462418791467e-05 4.781184993702e-03 0.0 
0.0 0.0 0.0 
-2.299747399879e-04 -2.372143218220e-05 0.0 
-2.372143218220e-05 4.781708787175e-03 0.0 
0.0 0.0 0.0 
-2.103248984454e-04 -2.951568362318e-05 0.0 
-2.951568362318e-05 4.777872460072e-03 0.0 
0.0 0.0 0.0 
-2.244621079114e-04 -2.755273845422e-05 0.0 
-2.755273845422e-05 4.778982814066e-03 0.0 
0.0 0.0 0.0 
-1.996441735973e-04 -3.434008256343e-05 0.0 
-3.434008256343e-05 4.773844991415e-03 0.0 
0.0 0.0 0.0 
-2.182622096280e-04 -3.124820330049e-05 0.0 
-3.124820330049e-05 4.775767551410e-03 0.0 
0.0 0.0 0.0 
-1.871731867855e-04 -3.912656535078e-05 0.0 
-3.912656535078e-05 4.769057608833e-03 0.0 
0.0 0.0 0.0 
-2.101654381389e-04 1.429495355211e-04 0.0 
1.429495355211e-04 4.735470528229e-03 0.0 
0.0 0.0 0.0 
-2.114736912759e-04 -3.481857275424e-05 0.0 
-3.481857275424e-05 4.772079066128e-03 0.0 
0.0 0.0 0.0 
-1.729506539054e-04 -4.384960493211e-05 0.0 
-4.384960493211e-05 4.763520088261e-03 0.0 
0.0 0.0 0.0 
-2.042653894807e-04 -3.823911696549e-05 0.0 
-3.823911696549e-05 4.767994047064e-03 0.0 
0.0 0.0 0.0 
-8.854979334449e-05 1.003151681727e-04 0.0 
1.003151681727e-04 4.550299280288e-03 0.0 
0.0 0.0 0.0 
-1.570493019006e-04 -4.842459435224e-05 0.0 
-4.842459435224e-05 4.757256039514e-03 0.0 
0.0 0.0 0.0 
-2.945313096799e-04 1.112268693855e-04 0.0 
1.112268693855e-04 4.788284662250e-03 0.0 
0.0 0.0 0.0 
-1.968459322406e-04 -4.140167845611e-05 0.0 
-4.140167845611e-05 4.763628446848e-03 0.0 
0.0 0.0 0.0 
-1.396190539414e-04 -5.264693552291e-05 0.0 
-5.264693552291e-05 4.750311116974e-03 0.0 
0.0 0.0 0.0 
-1.895508690565e-04 -4.395796251347e-05 0.0 
-4.395796251347e-05 4.759210213606e-03 0.0 
0.0 0.0 0.0 
-1.210343135499e-04 -5.619319754473e-05 0.0 
-5.619319754473e-05 4.743075799189e-03 0.0 
0.0 0.0 0.0 
-1.832555138424e-04 -4.589364767115e-05 0.0 
-4.589364767115e-05 4.755108490822e-03 0.0 
0.0 0.0 0.0 
-1.016818022747e-04 -5.877150343063e-05 0.0 
-5.877150343063e-05 4.735418182603e-03 0.0 
0.0 0.0 0.0 
-1.784643925326e-04 -4.652453213644e-05 0.0 
-4.652453213644e-05 4.751569838177e-03 0.0 
0.0 0.0 0.0 
-8.240352233002e-05 -5.986992404100e-05 0.0 
-5.986992404100e-05 4.728119223089e-03 0.0 
0.0 0.0 0.0 
-3.191423273657e-04 2.636267596987e-04 0.0 
2.636267596987e-04 4.825043364756e-03 0.0 
0.0 0.0 0.0 
-1.766241621770e-04 -4.630150373577e-05 0.0 
-4.630150373577e-05 4.748957218595e-03 0.0 
0.0 0.0 0.0 
-6.375869999786e-05 -5.879735544082e-05 0.0 
-5.879735544082e-05 4.719854703782e-03 0.0 
0.0 0.0 0.0 
-1.775221247464e-04 -4.233091078510e-05 0.0 
-4.233091078510e-05 4.747563186388e-03 0.0 
0.0 0.0 0.0 
-4.810368203900e-05 -5.419630081082e-05 0.0 
-5.419630081082e-05 4.714057130444e-03 0.0 
0.0 0.0 0.0 
-3.574577944110e-05 -4.438901656520e-05 0.0 
-4.438901656520e-05 4.704471614142e-03 0.0 
0.0 0.0 0.0 
-1.860456754061e-04 -3.754080325551e-05 0.0 
-3.754080325551e-05 4.748213420521e-03 0.0 
0.0 0.0 0.0 
-3.326546073568e-05 -2.601586402438e-05 0.0 
-2.601586402438e-05 4.703568158691e-03 0.0 
0.0 0.0 0.0 
-1.974696192019e-04 -2.152510977489e-05 0.0 
-2.152510977489e-05 4.750950071242e-03 0.0 
0.0 0.0 0.0 
-3.826981543598e-05 7.156680089947e-06 0.0 
7.156680089947e-06 4.685230160955e-03 0.0 
0.0 0.0 0.0 
-7.286111384319e-05 6.743976505742e-05 0.0 
6.743976505742e-05 4.695697954337e-03 0.0 
0.0 0.0 0.0 
-2.281415080974e-04 -7.123826048125e-06 0.0 
-7.123826048125e-06 4.756834590081e-03 0.0 
0.0 0.0 0.0 
-2.336381775015e-04 4.621586931712e-05 0.0 
4.621586931712e-05 4.761610029224e-03 0.0 
0.0 0.0 0.0 
-2.765532810539e-04 1.219331403063e-04 0.0 
1.219331403063e-04 4.686025041939e-03 0.0 
0.0 0.0 0.0 
-2.425782869689e-04 -5.951543723451e-05 0.0 
-5.951543723451e-05 4.776191618903e-03 0.0 
0.0 0.0 0.0 
-2.762232021342e-04 5.320584687637e-05 0.0 
5.320584687637e-05 4.836378421462e-03 0.0 
0.0 0.0 0.0 
-2.644515650151e-04 -8.670861062530e-06 0.0 
-8.670861062530e-06 4.697645703351e-03 0.0 
0.0 0.0 0.0 
-2.546115160240e-04 3.997900594575e-06 0.0 
3.997900594575e-06 4.911972577054e-03 0.0 
0.0 0.0 0.0 
-1.821719169917e-04 2.691832282637e-04 0.0 
2.691832282637e-04 4.515179612966e-03 0.0 
0.0 0.0 0.0 
-2.548370389919e-04 -1.988224720371e-05 0.0 
-1.988224720371e-05 5.183488561528e-03 0.0 
0.0 0.0 0.0 
-2.574419942062e-04 -5.571737884390e-07 0.0 
-5.571737884390e-07 5.222841628863e-03 0.0 
0.0 0.0 0.0 
-2.523863566906e-04 -1.153160453227e-05 0.0 
-1.153160453227e-05 5.223786370218e-03 0.0 
0.0 0.0 0.0 
-2.567173266712e-04 -1.248751688829e-05 0.0 
-1.248751688829e-05 5.225783711529e-03 0.0 
0.0 0.0 0.0 
-2.477883376250e-04 -1.254645440328e-05 0.0 
-1.254645440328e-05 5.225753421289e-03 0.0 
0.0 0.0 0.0 
-2.550610853196e-04 -1.650238673812e-05 0.0 
-1.650238673812e-05 5.224592459281e-03 0.0 
0.0 0.0 0.0 
-2.432468483927e-04 -1.595357827530e-05 0.0 
-1.595357827530e-05 5.224407681727e-03 0.0 
0.0 0.0 0.0 
-2.533280661052e-04 -2.114964211753e-05 0.0 
-2.114964211753e-05 5.223153888798e-03 0.0 
0.0 0.0 0.0 
-2.390586975344e-04 -2.049293600700e-05 0.0 
-2.049293600700e-05 5.222842537653e-03 0.0 
0.0 0.0 0.0 
-2.518479595842e-04 -2.655081010613e-05 0.0 
-2.655081010613e-05 5.221977623946e-03 0.0 
0.0 0.0 0.0 
-2.347664421689e-04 -2.539103917437e-05 0.0 
-2.539103917437e-05 5.221384463180e-03 0.0 
0.0 0.0 0.0 
-2.506622322179e-04 -3.236034493740e-05 0.0 
-3.236034493740e-05 5.220992982835e-03 0.0 
0.0 0.0 0.0 
-2.299747399879e-04 -3.031816566511e-05 0.0 
-3.031816566511e-05 5.219892391829e-03 0.0 
0.0 0.0 0.0 
-2.495290309223e-04 -3.835067498302e-05 0.0 
-3.835067498302e-05 5.219965522045e-03 0.0 
0.0 0.0 0.0 
-2.244621079114e-04 -3.506041525468e-05 0.0 
-3.506041525468e-05 5.218062916077e-03 0.0 
0.0 0.0 0.0 
-2.484330160907e-04 -4.420050160892e-05 0.0 
-4.420050160892e-05 5.218867887415e-03 0.0 
0.0 0.0 0.0 
-2.182622096280e-04 -3.954539061020e-05 0.0 
-3.954539061020e-05 5.215891390617e-03 0.0 
0.0 0.0 0.0 
-3.163421942544e-04 1.093567305136e-04 0.0 
1.093567305136e-04 5.205084326131e-03 0.0 
0.0 0.0 0.0 
-2.475865138961e-04 -4.983930049093e-05 0.0 
-4.983930049093e-05 5.217739627297e-03 0.0 
0.0 0.0 0.0 
-2.114736912759e-04 -4.370916563520e-05 0.0 
-4.370916563520e-05 5.213367696143e-03 0.0 
0.0 0.0 0.0 
-3.607240310186e-04 8.127939827987e-05 0.0 
8.127939827987e-05 5.239969862940e-03 0.0 
0.0 0.0 0.0 
-2.472195385806e-04 -5.514095950288e-05 0.0 
-5.514095950288e-05 5.216665563206e-03 0.0 
0.0 0.0 0.0 
-2.042653894807e-04 -4.746483915535e-05 0.0 
-4.746483915535e-05 5.210538112439e-03 0.0 
0.0 0.0 0.0 
-2.474446288079e-04 -5.994609163246e-05 0.0 
-5.994609163246e-05 5.215676979606e-03 0.0 
0.0 0.0 0.0 
-1.968459322406e-04 -5.054448710384e-05 0.0 
-5.054448710384e-05 5.207328405082e-03 0.0 
0.0 0.0 0.0 
-2.484634431464e-04 -6.384711534180e-05 0.0 
-6.384711534180e-05 5.214806992066e-03 0.0 
0.0 0.0 0.0 
-2.336381775015e-04 9.933892730719e-05 0.0 
9.933892730719e-05 5.034828509722e-03 0.0 
0.0 0.0 0.0 
-1.895508690565e-04 -5.235773575588e-05 0.0 
-5.235773575588e-05 5.203607784602e-03 0.0 
0.0 0.0 0.0 
-2.505789784314e-04 -6.576275772677e-05 0.0 
-6.576275772677e-05 5.214490771053e-03 0.0 
0.0 0.0 0.0 
-1.832555138424e-04 -5.246517552196e-05 0.0 
-5.246517552196e-05 5.200160579689e-03 0.0 
0.0 0.0 0.0 
-2.558366574859e-04 -6.585498497124e-05 0.0 
-6.585498497124e-05 5.215076809606e-03 0.0 
0.0 0.0 0.0 
-1.784643925326e-04 -5.016209819191e-05 0.0 
-5.016209819191e-05 5.196615116147e-03 0.0 
0.0 0.0 0.0 
-2.629685424421e-04 -6.227166450203e-05 0.0 
-6.227166450203e-05 5.216762248432e-03 0.0 
0.0 0.0 0.0 
-1.766241621770e-04 -4.480078976916e-05 0.0 
-4.480078976916e-05 5.194162395433e-03 0.0 
0.0 0.0 0.0 
-2.765100545051e-04 -5.642005519383e-05 0.0 
-5.642005519383e-05 5.219211466938e-03 0.0 
0.0 0.0 0.0 
-1.775221247464e-04 -3.400855616178e-05 0.0 
-3.400855616178e-05 5.189126827911e-03 0.0 
0.0 0.0 0.0 
-2.891829529700e-04 -4.007908807493e-05 0.0 
-4.007908807493e-05 5.223108112943e-03 0.0 
0.0 0.0 0.0 
-3.671257663853e-04 1.945190535038e-04 0.0 
1.945190535038e-04 5.266633362142e-03 0.0 
0.0 0.0 0.0 
-3.177348995848e-04 -2.382457564027e-05 0.0 
-2.382457564027e-05 5.226620265140e-03 0.0 
0.0 0.0 0.0 
-1.860456754061e-04 -1.700433895930e-05 0.0 
-1.700433895930e-05 5.189257327279e-03 0.0 
0.0 0.0 0.0 
-3.221810589508e-04 2.394276804704e-05 0.0 
2.394276804704e-05 5.227824834043e-03 0.0 
0.0 0.0 0.0 
-1.974696192019e-04 1.303527589509e-05 0.0 
1.303527589509e-05 5.175652974639e-03 0.0 
0.0 0.0 0.0 
-2.281415080974e-04 6.051852284783e-05 0.0 
6.051852284783e-05 5.178242977155e-03 0.0 
0.0 0.0 0.0 
-3.376538733104e-04 1.085829631823e-04 0.0 
1.085829631823e-04 5.114828508430e-03 0.0 
0.0 0.0 0.0 
-2.706820635168e-04 -5.975067627718e-05 0.0 
-5.975067627718e-05 5.235500330713e-03 0.0 
0.0 0.0 0.0 
-2.399363835268e-04 5.068012949606e-05 0.0 
5.068012949606e-05 5.180413590211e-03 0.0 
0.0 0.0 0.0 
-2.556575712918e-04 -9.408998373243e-06 0.0 
-9.408998373243e-06 5.319616564063e-03 0.0 
0.0 0.0 0.0 
-2.546115160240e-04 2.023125271766e-06 0.0 
2.023125271766e-06 5.099259122261e-03 0.0 
0.0 0.0 0.0 
-2.945313096799e-04 2.082346343124e-04 0.0 
2.082346343124e-04 5.014854936037e-03 0.0 
0.0 0.0 0.0 
-2.606192682193e-04 -1.968436351863e-05 0.0 
-1.968436351863e-05 5.691191518060e-03 0.0 
0.0 0.0 0.0 
-2.574419942062e-04 -2.551396474427e-06 0.0 
-2.551396474427e-06 5.655771390879e-03 0.0 
0.0 0.0 0.0 
-2.616560316436e-04 -1.284912966857e-05 0.0 
-1.284912966857e-05 5.654752152654e-03 0.0 
0.0 0.0 0.0 
-2.567173266712e-04 -1.473707868823e-05 0.0 
-1.473707868823e-05 5.654019178898e-03 0.0 
0.0 0.0 0.0 
-2.623534491294e-04 -1.526027715390e-05 0.0 
-1.526027715390e-05 5.653972402317e-03 0.0 
0.0 0.0 0.0 
-2.550610853196e-04 -1.863353673262e-05 0.0 
-1.863353673262e-05 5.654137454872e-03 0.0 
0.0 0.0 0.0 
-2.632373804519e-04 -1.874472144739e-05 0.0 
-1.874472144739e-05 5.654196980881e-03 0.0 
0.0 0.0 0.0 
-2.533280661052e-04 -2.301855283109e-05 0.0 
-2.301855283109e-05 5.654089367005e-03 0.0 
0.0 0.0 0.0 
-2.643693510368e-04 -2.288651738935e-05 0.0 
-2.288651738935e-05 5.654294895942e-03 0.0 
0.0 0.0 0.0 
-2.518479595842e-04 -2.809533461663e-05 0.0 
-2.809533461663e-05 5.654103179903e-03 0.0 
0.0 0.0 0.0 
-2.662202004420e-04 -2.734298751889e-05 0.0 
-2.734298751889e-05 5.654652259451e-03 0.0 
0.0 0.0 0.0 
-2.506622322179e-04 -3.354800466132e-05 0.0 
-3.354800466132e-05 5.654301395612e-03 0.0 
0.0 0.0 0.0 
-2.688291271323e-04 -3.218048786473e-05 0.0 
-3.218048786473e-05 5.655336387647e-03 0.0 
0.0 0.0 0.0 
-2.495290309223e-04 -3.919715583174e-05 0.0 
-3.919715583174e-05 5.654210994818e-03 0.0 
0.0 0.0 0.0 
-2.719690291280e-04 -3.688878078190e-05 0.0 
-3.688878078190e-05 5.656031944764e-03 0.0 
0.0 0.0 0.0 
-2.484330160907e-04 -4.459098095285e-05 0.0 
-4.459098095285e-05 5.653834037196e-03 0.0 
0.0 0.0 0.0 
-3.872214680265e-04 7.416607047404e-05 0.0 
7.416607047404e-05 5.666939064925e-03 0.0 
0.0 0.0 0.0 
-2.755901357709e-04 -4.106178501637e-05 0.0 
-4.106178501637e-05 5.656797004549e-03 0.0 
0.0 0.0 0.0 
-2.475865138961e-04 -4.936009430845e-05 0.0 
-4.936009430845e-05 5.653492431178e-03 0.0 
0.0 0.0 0.0 
-3.221810589508e-04 7.135410449267e-05 0.0 
7.135410449267e-05 5.502611462473e-03 0.0 
0.0 0.0 0.0 
-2.807280210075e-04 -4.458322812884e-05 0.0 
-4.458322812884e-05 5.657952208459e-03 0.0 
0.0 0.0 0.0 
-2.472195385806e-04 -5.342699613413e-05 0.0 
-5.342699613413e-05 5.653162775986e-03 0.0 
0.0 0.0 0.0 
-4.027654035361e-04 6.449288206773e-05 0.0 
6.449288206773e-05 5.680498237209e-03 0.0 
0.0 0.0 0.0 
-2.871366433888e-04 -4.753554986828e-05 0.0 
-4.753554986828e-05 5.659421802478e-03 0.0 
0.0 0.0 0.0 
-2.474446288079e-04 -5.651956813447e-05 0.0 
-5.651956813447e-05 5.652550340900e-03 0.0 
0.0 0.0 0.0 
-2.947083923276e-04 -4.952361265168e-05 0.0 
-4.952361265168e-05 5.661001652900e-03 0.0 
0.0 0.0 0.0 
-2.484634431464e-04 -5.800301999524e-05 0.0 
-5.800301999524e-05 5.651378497837e-03 0.0 
0.0 0.0 0.0 
-3.039377563600e-04 -4.982933247016e-05 0.0 
-4.982933247016e-05 5.662550869055e-03 0.0 
0.0 0.0 0.0 
-2.505789784314e-04 -5.672306976523e-05 0.0 
-5.672306976523e-05 5.648968643857e-03 0.0 
0.0 0.0 0.0 
-4.132979813400e-04 1.422146972752e-04 0.0 
1.422146972752e-04 5.713739632989e-03 0.0 
0.0 0.0 0.0 
-3.143117833286e-04 -4.562458409630e-05 0.0 
-4.562458409630e-05 5.664544852419e-03 0.0 
0.0 0.0 0.0 
-2.558366574859e-04 -5.154044994007e-05 0.0 
-5.154044994007e-05 5.649097838685e-03 0.0 
0.0 0.0 0.0 
-3.304707913629e-04 -4.055569467690e-05 0.0 
-4.055569467690e-05 5.667831830202e-03 0.0 
0.0 0.0 0.0 
-2.629685424421e-04 -4.203095999225e-05 0.0 
-4.203095999225e-05 5.645301338962e-03 0.0 
0.0 0.0 0.0 
-2.765100545051e-04 -2.625540578629e-05 0.0 
-2.625540578629e-05 5.648270236133e-03 0.0 
0.0 0.0 0.0 
-3.459868484686e-04 -2.623679560280e-05 0.0 
-2.623679560280e-05 5.671219599431e-03 0.0 
0.0 0.0 0.0 
-2.891829529700e-04 -1.118213826457e-06 0.0 
-1.118213826457e-06 5.632535079485e-03 0.0 
0.0 0.0 0.0 
-3.728460554414e-04 -1.608968637717e-05 0.0 
-1.608968637717e-05 5.674311787795e-03 0.0 
0.0 0.0 0.0 
-3.177348995848e-04 4.070189126697e-05 0.0 
4.070189126697e-05 5.638711788497e-03 0.0 
0.0 0.0 0.0 
-3.727855178571e-04 2.366723573119e-05 0.0 
2.366723573119e-05 5.671771503473e-03 0.0 
0.0 0.0 0.0 
-3.922375221085e-04 7.867668193996e-05 0.0 
7.867668193996e-05 5.552099065541e-03 0.0 
0.0 0.0 0.0 
-2.410378171668e-04 -5.930975029994e-05 0.0 
-5.930975029994e-05 5.635130967122e-03 0.0 
0.0 0.0 0.0 
-2.742906730867e-04 5.035490094237e-05 0.0 
5.035490094237e-05 5.694702025909e-03 0.0 
0.0 0.0 0.0 
-2.556575712918e-04 -9.630804651784e-06 0.0 
-9.630804651784e-06 5.552154926873e-03 0.0 
0.0 0.0 0.0 
-2.601486908024e-04 2.691822149072e-06 0.0 
2.691822149072e-06 5.774201307647e-03 0.0 
0.0 0.0 0.0 
-3.607240310186e-04 1.512777937696e-04 0.0 
1.512777937696e-04 5.471619580938e-03 0.0 
0.0 0.0 0.0 
-2.606192682193e-04 -1.935349498066e-05 0.0 
-1.935349498066e-05 6.044854897939e-03 0.0 
0.0 0.0 0.0 
-2.652040858675e-04 -1.187071088700e-06 0.0 
-1.187071088700e-06 6.083508901262e-03 0.0 
0.0 0.0 0.0 
-2.616560316436e-04 -1.317019477695e-05 0.0 
-1.317019477695e-05 6.084698343495e-03 0.0 
0.0 0.0 0.0 
-2.660721190825e-04 -1.379920359473e-05 0.0 
-1.379920359473e-05 6.087313191997e-03 0.0 
0.0 0.0 0.0 
-2.623534491294e-04 -1.526772718415e-05 0.0 
-1.526772718415e-05 6.087512553017e-03 0.0 
0.0 0.0 0.0 
-2.688949701398e-04 -1.735727941843e-05 0.0 
-1.735727941843e-05 6.089049991014e-03 0.0 
0.0 0.0 0.0 
-2.632373804519e-04 -1.828835694579e-05 0.0 
-1.828835694579e-05 6.089179630622e-03 0.0 
0.0 0.0 0.0 
-2.714656696179e-04 -2.122600774161e-05 0.0 
-2.122600774161e-05 6.090338525622e-03 0.0 
0.0 0.0 0.0 
-2.643693510368e-04 -2.144814397446e-05 0.0 
-2.144814397446e-05 6.090283179703e-03 0.0 
0.0 0.0 0.0 
-2.755987819705e-04 -2.516304389699e-05 0.0 
-2.516304389699e-05 6.092081113684e-03 0.0 
0.0 0.0 0.0 
-2.662202004420e-04 -2.498100643398e-05 0.0 
-2.498100643398e-05 6.091815484361e-03 0.0 
0.0 0.0 0.0 
-2.803492844575e-04 -2.939694398189e-05 0.0 
-2.939694398189e-05 6.094145795215e-03 0.0 
0.0 0.0 0.0 
-2.688291271323e-04 -2.864750250498e-05 0.0 
-2.864750250498e-05 6.093530685880e-03 0.0 
0.0 0.0 0.0 
-2.872374515089e-04 -3.414290957575e-05 0.0 
-3.414290957575e-05 6.096519362168e-03 0.0 
0.0 0.0 0.0 
-2.719690291280e-04 -3.228192910668e-05 0.0 
-3.228192910668e-05 6.095164233085e-03 0.0 
0.0 0.0 0.0 
-4.303162067614e-04 5.389908288390e-05 0.0 
5.389908288390e-05 6.120840532644e-03 0.0 
0.0 0.0 0.0 
-2.934494140066e-04 -3.858275965820e-05 0.0 
-3.858275965820e-05 6.098299601898e-03 0.0 
0.0 0.0 0.0 
-4.255183193963e-04 4.956437893751e-05 0.0 
4.956437893751e-05 6.123770194004e-03 0.0 
0.0 0.0 0.0 
-2.755901357709e-04 -3.461237026758e-05 0.0 
-3.461237026758e-05 6.095608800712e-03 0.0 
0.0 0.0 0.0 
-3.022338258848e-04 -4.101188586919e-05 0.0 
-4.101188586919e-05 6.100996602999e-03 0.0 
0.0 0.0 0.0 
-2.807280210075e-04 -3.616937619102e-05 0.0 
-3.616937619102e-05 6.097231235355e-03 0.0 
0.0 0.0 0.0 
-3.132654159893e-04 -4.302208201758e-05 0.0 
-4.302208201758e-05 6.104397280145e-03 0.0 
0.0 0.0 0.0 
-2.871366433888e-04 -3.687378305354e-05 0.0 
-3.687378305354e-05 6.099039727287e-03 0.0 
0.0 0.0 0.0 
-3.250996275084e-04 -4.405716529756e-05 0.0 
-4.405716529756e-05 6.107584854365e-03 0.0 
0.0 0.0 0.0 
-3.727855178571e-04 6.192967080883e-05 0.0 
6.192967080883e-05 5.957704316905e-03 0.0 
0.0 0.0 0.0 
-2.947083923276e-04 -3.572580592485e-05 0.0 
-3.572580592485e-05 6.099850827575e-03 0.0 
0.0 0.0 0.0 
-3.390123046666e-04 -4.268554895614e-05 0.0 
-4.268554895614e-05 6.110641144543e-03 0.0 
0.0 0.0 0.0 
-3.039377563600e-04 -3.206146401196e-05 0.0 
-3.206146401196e-05 6.100030740165e-03 0.0 
0.0 0.0 0.0 
-3.555828768328e-04 -3.907827228276e-05 0.0 
-3.907827228276e-05 6.112728952814e-03 0.0 
0.0 0.0 0.0 
-3.143117833286e-04 -2.336897747123e-05 0.0 
-2.336897747123e-05 6.096676737493e-03 0.0 
0.0 0.0 0.0 
-3.699891334584e-04 -2.528706609390e-05 0.0 
-2.528706609390e-05 6.116028091610e-03 0.0 
0.0 0.0 0.0 
-3.304707913629e-04 -1.084157218272e-05 0.0 
-1.084157218272e-05 6.099636704321e-03 0.0 
0.0 0.0 0.0 
-3.984165356939e-04 -1.522767754770e-05 0.0 
-1.522767754770e-05 6.118833845844e-03 0.0 
0.0 0.0 0.0 
-4.008122140188e-04 1.760559788052e-05 0.0 
1.760559788052e-05 6.118185123945e-03 0.0 
0.0 0.0 0.0 
-3.459868484686e-04 9.462002028621e-06 0.0 
9.462002028621e-06 6.090693352228e-03 0.0 
0.0 0.0 0.0 
-4.366610662404e-04 1.089022152882e-04 0.0 
1.089022152882e-04 6.157807670282e-03 0.0 
0.0 0.0 0.0 
-3.728460554414e-04 3.834998842412e-05 0.0 
3.834998842412e-05 6.095501004591e-03 0.0 
0.0 0.0 0.0 
-4.178251524953e-04 6.059399618783e-05 0.0 
6.059399618783e-05 5.984422485614e-03 0.0 
0.0 0.0 0.0 
-2.782821778682e-04 -5.863502504819e-05 0.0 
-5.863502504819e-05 6.098570340059e-03 0.0 
0.0 0.0 0.0 
-2.463214522189e-04 5.119263662931e-05 0.0 
5.119263662931e-05 6.041318655224e-03 0.0 
0.0 0.0 0.0 
-2.640016021079e-04 -8.623599694888e-06 0.0 
-8.623599694888e-06 6.182517147166e-03 0.0 
0.0 0.0 0.0 
-2.601486908024e-04 3.168298101899e-06 0.0 
3.168298101899e-06 5.960815713774e-03 0.0 
0.0 0.0 0.0 
-4.027654035361e-04 1.159868568799e-04 0.0 
1.159868568799e-04 5.931519311831e-03 0.0 
0.0 0.0 0.0 
-2.706217538097e-04 -1.849539913347e-05 0.0 
-1.849539913347e-05 6.554119015655e-03 0.0 
0.0 0.0 0.0 
-2.652040858675e-04 -5.868005718273e-07 0.0 
-5.868005718273e-07 6.515609670980e-03 0.0 
0.0 0.0 0.0 
-2.680198643367e-04 -1.175096546237e-05 0.0 
-1.175096546237e-05 6.514305982995e-03 0.0 
0.0 0.0 0.0 
-2.660721190825e-04 -1.203855098495e-05 0.0 
-1.203855098495e-05 6.513211214044e-03 0.0 
0.0 0.0 0.0 
-2.718466538881e-04 -1.100494805368e-05 0.0 
-1.100494805368e-05 6.513438572012e-03 0.0 
0.0 0.0 0.0 
-2.688949701398e-04 -1.407046453755e-05 0.0 
-1.407046453755e-05 6.516550283304e-03 0.0 
0.0 0.0 0.0 
-2.776901616213e-04 -1.415488817204e-05 0.0 
-1.415488817204e-05 6.516652151673e-03 0.0 
0.0 0.0 0.0 
-2.714656696179e-04 -1.722836383704e-05 0.0 
-1.722836383704e-05 6.517366767794e-03 0.0 
0.0 0.0 0.0 
-2.813473128231e-04 -1.508580476878e-05 0.0 
-1.508580476878e-05 6.518210635582e-03 0.0 
0.0 0.0 0.0 
-2.755987819705e-04 -1.904300546204e-05 0.0 
-1.904300546204e-05 6.520829720297e-03 0.0 
0.0 0.0 0.0 
-2.897896540802e-04 -1.749951628953e-05 0.0 
-1.749951628953e-05 6.521816411454e-03 0.0 
0.0 0.0 0.0 
-2.803492844575e-04 -2.174578260615e-05 0.0 
-2.174578260615e-05 6.522607168808e-03 0.0 
0.0 0.0 0.0 
-2.968139608168e-04 -1.807548116411e-05 0.0 
-1.807548116411e-05 6.524816366581e-03 0.0 
0.0 0.0 0.0 
-4.493963943731e-04 4.467552040698e-05 0.0 
4.467552040698e-05 6.565282760900e-03 0.0 
0.0 0.0 0.0 
-2.872374515089e-04 -2.347690433772e-05 0.0 
-2.347690433772e-05 6.527477262669e-03 0.0 
0.0 0.0 0.0 
-3.086436258163e-04 -2.227993663732e-05 0.0 
-2.227993663732e-05 6.529225658502e-03 0.0 
0.0 0.0 0.0 
-4.008122140188e-04 5.392967097679e-05 0.0 
5.392967097679e-05 6.405440739004e-03 0.0 
0.0 0.0 0.0 
-2.934494140066e-04 -2.617074377200e-05 0.0 
-2.617074377200e-05 6.526732570046e-03 0.0 
0.0 0.0 0.0 
-3.183809109306e-04 -2.109157238519e-05 0.0 
-2.109157238519e-05 6.531168473277e-03 0.0 
0.0 0.0 0.0 
-4.320034143046e-04 5.040041655773e-05 0.0 
5.040041655773e-05 6.555209619732e-03 0.0 
0.0 0.0 0.0 
-3.022338258848e-04 -2.559804552632e-05 0.0 
-2.559804552632e-05 6.529484946614e-03 0.0 
0.0 0.0 0.0 
-3.326586087647e-04 -1.938419797740e-05 0.0 
-1.938419797740e-05 6.535772052683e-03 0.0 
0.0 0.0 0.0 
-3.132654159893e-04 -2.415890542179e-05 0.0 
-2.415890542179e-05 6.533357384398e-03 0.0 
0.0 0.0 0.0 
-3.479625050592e-04 -1.872167644070e-05 0.0 
-1.872167644070e-05 6.540507380117e-03 0.0 
0.0 0.0 0.0 
-3.250996275084e-04 -2.132381575989e-05 0.0 
-2.132381575989e-05 6.534302507871e-03 0.0 
0.0 0.0 0.0 
-4.463635884985e-04 9.247469455882e-05 0.0 
9.247469455882e-05 6.595918454717e-03 0.0 
0.0 0.0 0.0 
-3.637623399518e-04 -1.453823722803e-05 0.0 
-1.453823722803e-05 6.543908444436e-03 0.0 
0.0 0.0 0.0 
-3.390123046666e-04 -1.490716858329e-05 0.0 
-1.490716858329e-05 6.534922344446e-03 0.0 
0.0 0.0 0.0 
-3.555828768328e-04 -5.360136140483e-06 0.0 
-5.360136140483e-06 6.536046848665e-03 0.0 
0.0 0.0 0.0 
-3.831468189792e-04 -6.952295612188e-06 0.0 
-6.952295612188e-06 6.547457673702e-03 0.0 
0.0 0.0 0.0 
-3.699891334584e-04 1.157060310529e-05 0.0 
1.157060310529e-05 6.522100556760e-03 0.0 
0.0 0.0 0.0 
-4.081434929250e-04 -1.249421040840e-06 0.0 
-1.249421040840e-06 6.548343805002e-03 0.0 
0.0 0.0 0.0 
-3.984165356939e-04 3.807979608020e-05 0.0 
3.807979608020e-05 6.536175816961e-03 0.0 
0.0 0.0 0.0 
-4.088696966471e-04 3.089188226281e-05 0.0 
3.089188226281e-05 6.546716327914e-03 0.0 
0.0 0.0 0.0 
-4.318314643825e-04 5.306940686645e-05 0.0 
5.306940686645e-05 6.421260994252e-03 0.0 
0.0 0.0 0.0 
-2.466050282727e-04 -5.679526527087e-05 0.0 
-5.679526527087e-05 6.493984974449e-03 0.0 
0.0 0.0 0.0 
-2.825890026725e-04 5.341256899479e-05 0.0 
5.341256899479e-05 6.558359248422e-03 0.0 
0.0 0.0 0.0 
-2.640016021079e-04 -7.142925428319e-06 0.0 
-7.142925428319e-06 6.413989315537e-03 0.0 
0.0 0.0 0.0 
-2.657556833994e-04 6.158498695555e-06 0.0 
6.158498695555e-06 6.634230052111e-03 0.0 
0.0 0.0 0.0 
-4.255183193963e-04 9.322312534687e-05 0.0 
9.322312534687e-05 6.379528989525e-03 0.0 
0.0 0.0 0.0 
-2.706217538097e-04 -2.070849959993e-05 0.0 
-2.070849959993e-05 6.914480571557e-03 0.0 
0.0 0.0 0.0 
-2.619093918891e-04 -3.255316810759e-06 0.0 
-3.255316810759e-06 6.939616096767e-03 0.0 
0.0 0.0 0.0 
-2.680198643367e-04 -7.052103319262e-06 0.0 
-7.052103319262e-06 6.940083921036e-03 0.0 
0.0 0.0 0.0 
-2.709675257835e-04 -5.846935788499e-06 0.0 
-5.846935788499e-06 6.944732014293e-03 0.0 
0.0 0.0 0.0 
-2.718466538881e-04 -6.468386105576e-06 0.0 
-6.468386105576e-06 6.944848526419e-03 0.0 
0.0 0.0 0.0 
-2.758805335176e-04 -5.211901516848e-06 0.0 
-5.211901516848e-06 6.950206415890e-03 0.0 
0.0 0.0 0.0 
-2.776901616213e-04 -9.471952666912e-06 0.0 
-9.471952666912e-06 6.951233827622e-03 0.0 
0.0 0.0 0.0 
-2.790145167161e-04 -1.079196418086e-05 0.0 
-1.079196418086e-05 6.949945523062e-03 0.0 
0.0 0.0 0.0 
-2.813473128231e-04 -7.414984456575e-06 0.0 
-7.414984456575e-06 6.949002743475e-03 0.0 
0.0 0.0 0.0 
-2.871030444647e-04 -5.982947619833e-06 0.0 
-5.982947619833e-06 6.955264933567e-03 0.0 
0.0 0.0 0.0 
-2.897896540802e-04 -8.342471445101e-06 0.0 
-8.342471445101e-06 6.956181372724e-03 0.0 
0.0 0.0 0.0 
-2.980098345082e-04 -1.020317055186e-05 0.0 
-1.020317055186e-05 6.958409978238e-03 0.0 
0.0 0.0 0.0 
-4.535085179996e-04 4.441926650201e-05 0.0 
4.441926650201e-05 7.002514227707e-03 0.0 
0.0 0.0 0.0 
-2.968139608168e-04 -6.862160924610e-06 0.0 
-6.862160924610e-06 6.956983578244e-03 0.0 
0.0 0.0 0.0 
-4.352605249592e-04 5.506627136218e-05 0.0 
5.506627136218e-05 6.989568082907e-03 0.0 
0.0 0.0 0.0 
-3.015026444212e-04 -4.825001576459e-06 0.0 
-4.825001576459e-06 6.962841059080e-03 0.0 
0.0 0.0 0.0 
-3.086436258163e-04 -5.839252959876e-06 0.0 
-5.839252959876e-06 6.963713702299e-03 0.0 
0.0 0.0 0.0 
-3.239720688833e-04 -9.601997207803e-06 0.0 
-9.601997207803e-06 6.966467691657e-03 0.0 
0.0 0.0 0.0 
-3.183809109306e-04 -2.140487690115e-06 0.0 
-2.140487690115e-06 6.962125712751e-03 0.0 
0.0 0.0 0.0 
-3.391590048190e-04 -2.863567084655e-06 0.0 
-2.863567084655e-06 6.971457993471e-03 0.0 
0.0 0.0 0.0 
-3.326586087647e-04 1.450705186694e-06 0.0 
1.450705186694e-06 6.968357868257e-03 0.0 
0.0 0.0 0.0 
-3.524273428320e-04 6.146469746467e-07 0.0 
6.146469746467e-07 6.976273149642e-03 0.0 
0.0 0.0 0.0 
-4.088696966471e-04 6.168460417203e-05 0.0 
6.168460417203e-05 6.844269614682e-03 0.0 
0.0 0.0 0.0 
-3.479625050592e-04 6.876716641415e-06 0.0 
6.876716641415e-06 6.971753881927e-03 0.0 
0.0 0.0 0.0 
-3.709629007003e-04 5.130537812835e-06 0.0 
5.130537812835e-06 6.979124044527e-03 0.0 
0.0 0.0 0.0 
-3.637623399518e-04 1.656780912237e-05 0.0 
1.656780912237e-05 6.970153720883e-03 0.0 
0.0 0.0 0.0 
-3.886201788408e-04 1.743299333279e-05 0.0 
1.743299333279e-05 6.980705442341e-03 0.0 
0.0 0.0 0.0 
-4.094737817101e-04 3.601231865690e-05 0.0 
3.601231865690e-05 6.983543991429e-03 0.0 
0.0 0.0 0.0 
-3.831468189792e-04 3.151156150403e-05 0.0 
3.151156150403e-05 6.969139307326e-03 0.0 
0.0 0.0 0.0 
-4.081434929250e-04 4.812567387695e-05 0.0 
4.812567387695e-05 6.973342736438e-03 0.0 
0.0 0.0 0.0 
-4.407692638493e-04 8.770710541455e-05 0.0 
8.770710541455e-05 7.029749829462e-03 0.0 
0.0 0.0 0.0 
-4.271659778496e-04 5.786210902053e-05 0.0 
5.786210902053e-05 6.850106405504e-03 0.0 
0.0 0.0 0.0 
-2.794305398253e-04 -5.045774581763e-05 0.0 
-5.045774581763e-05 6.946477878611e-03 0.0 
0.0 0.0 0.0 
-2.589495502927e-04 5.912105268400e-05 0.0 
5.912105268400e-05 6.909774618481e-03 0.0 
0.0 0.0 0.0 
-2.722222050593e-04 1.981149157954e-06 0.0 
1.981149157954e-06 7.041480477026e-03 0.0 
0.0 0.0 0.0 
-2.657556833994e-04 8.815871594495e-06 0.0 
8.815871594495e-06 6.818535044594e-03 0.0 
0.0 0.0 0.0 
-4.320034143046e-04 8.550962834230e-05 0.0 
8.550962834230e-05 6.826653078079e-03 0.0 
0.0 0.0 0.0 

TENSORS element_materi_strain_plasti float
-4.741889373871e-04 2.342858306946e-04 0.0 
2.342858306946e-04 2.814002888893e-03 0.0 
0.0 0.0 -4.220722639049e-04 
-3.897703972720e-04 -2.636930979351e-04 0.0 
-2.636930979351e-04 2.518846771568e-03 0.0 
0.0 0.0 -4.303330772826e-04 
-1.259341393326e-03 -3.090507185476e-05 0.0 
-3.090507185476e-05 8.411433358411e-03 0.0 
0.0 0.0 -1.278236581085e-03 
-1.261464826866e-03 -1.747915258517e-04 0.0 
-1.747915258517e-04 8.480496286503e-03 0.0 
0.0 0.0 -1.255598393855e-03 
-7.983281552709e-04 2.303090028114e-04 0.0 
2.303090028114e-04 5.254489729699e-03 0.0 
0.0 0.0 -7.961861350945e-04 
-2.059346616286e-04 2.207607006016e-04 0.0 
2.207607006016e-04 1.009101900264e-03 0.0 
0.0 0.0 -1.793459522598e-04 
-7.878967474187e-04 2.695248863587e-04 0.0 
2.695248863587e-04 5.204562819075e-03 0.0 
0.0 0.0 -8.011023898636e-04 
-4.128254064944e-04 4.080923401226e-05 0.0 
4.080923401226e-05 2.687408780313e-03 0.0 
0.0 0.0 -4.045669272905e-04 
-8.029485881418e-04 -2.877766516214e-04 0.0 
-2.877766516214e-04 5.280709952101e-03 0.0 
0.0 0.0 -7.977904104816e-04 
-1.248589478216e-03 2.242094407414e-04 0.0 
2.242094407414e-04 8.399546616313e-03 0.0 
0.0 0.0 -1.253060141438e-03 
-8.734037686267e-04 1.480436446761e-04 0.0 
1.480436446761e-04 5.724300399011e-03 0.0 
0.0 0.0 -8.816510380685e-04 
-3.813204680075e-04 2.190974571179e-07 0.0 
2.190974571179e-07 2.153866306060e-03 0.0 
0.0 0.0 -3.735031833740e-04 
-1.251882997596e-03 2.259053558602e-04 0.0 
2.259053558602e-04 8.467796470942e-03 0.0 
0.0 0.0 -1.259187713256e-03 
-8.479147549375e-04 1.860153946804e-04 0.0 
1.860153946804e-04 5.638680799524e-03 0.0 
0.0 0.0 -8.526168115438e-04 
-1.288189434839e-03 -1.832848558743e-04 0.0 
-1.832848558743e-04 8.626562874010e-03 0.0 
0.0 0.0 -1.289538875031e-03 
-1.301181403367e-03 2.039645816311e-04 0.0 
2.039645816311e-04 8.626062176419e-03 0.0 
0.0 0.0 -1.285984941237e-03 
-7.889097476292e-04 4.689353054445e-06 0.0 
4.689353054445e-06 5.256085596916e-03 0.0 
0.0 0.0 -7.740676797406e-04 
-1.741032192830e-04 -1.984587543236e-04 0.0 
-1.984587543236e-04 9.106845467383e-04 0.0 
0.0 0.0 -1.826237857505e-04 
-3.103934600629e-04 -1.188849736468e-04 0.0 
-1.188849736468e-04 1.808737160777e-03 0.0 
0.0 0.0 -2.776016825098e-04 
-3.017260514233e-04 1.101242532994e-04 0.0 
1.101242532994e-04 1.644506395847e-03 0.0 
0.0 0.0 -3.031105466646e-04 
-1.236978180346e-03 -2.273342210413e-04 0.0 
-2.273342210413e-04 8.474882909105e-03 0.0 
0.0 0.0 -1.250388265701e-03 
-4.788832533263e-04 9.235771209242e-05 0.0 
9.235771209242e-05 2.938553769607e-03 0.0 
0.0 0.0 -4.811142067971e-04 
-5.153479436012e-04 -1.000310601356e-04 0.0 
-1.000310601356e-04 3.322116646267e-03 0.0 
0.0 0.0 -5.091556215902e-04 
-1.207914407075e-03 -1.521033174033e-04 0.0 
-1.521033174033e-04 8.119148175608e-03 0.0 
0.0 0.0 -1.210372970477e-03 
-9.004893154001e-04 2.196977328252e-04 0.0 
2.196977328252e-04 6.011080091783e-03 0.0 
0.0 0.0 -9.130988374533e-04 
-9.174590915307e-04 -1.450811372332e-04 0.0 
-1.450811372332e-04 6.162434229051e-03 0.0 
0.0 0.0 -9.179597371190e-04 
-7.131055436641e-04 -1.829825241466e-05 0.0 
-1.829825241466e-05 4.865076399380e-03 0.0 
0.0 0.0 -7.148082707961e-04 
-1.275014108034e-03 1.320223363480e-05 0.0 
1.320223363480e-05 8.706353732723e-03 0.0 
0.0 0.0 -1.266047838742e-03 
-9.084778585211e-04 -2.532626103826e-04 0.0 
-2.532626103826e-04 6.055345996359e-03 0.0 
0.0 0.0 -9.113908267906e-04 
-1.248671644075e-03 1.500744587119e-04 0.0 
1.500744587119e-04 8.319441606585e-03 0.0 
0.0 0.0 -1.237914324842e-03 
-2.162503473685e-04 3.355180743600e-05 0.0 
3.355180743600e-05 1.390767343688e-03 0.0 
0.0 0.0 -2.185975924268e-04 
-1.102777646678e-04 3.092462500305e-05 0.0 
3.092462500305e-05 6.008114765358e-04 0.0 
0.0 0.0 -1.059755802940e-04 
-1.291285801941e-03 5.563014948237e-05 0.0 
5.563014948237e-05 8.705630370944e-03 0.0 
0.0 0.0 -1.261301343383e-03 
-1.086169392383e-03 -1.843155554575e-04 0.0 
-1.843155554575e-04 7.250914267634e-03 0.0 
0.0 0.0 -1.090200430068e-03 
-1.229627234356e-03 -2.081816156674e-04 0.0 
-2.081816156674e-04 8.461501921680e-03 0.0 
0.0 0.0 -1.254989870190e-03 
-1.333928130876e-03 3.870959300371e-04 0.0 
3.870959300371e-04 8.918766405510e-03 0.0 
0.0 0.0 -1.314886350686e-03 
-1.319549054242e-03 -4.082653656671e-04 0.0 
-4.082653656671e-04 8.897494246722e-03 0.0 
0.0 0.0 -1.314653105918e-03 
-1.251043943053e-03 1.755104499558e-04 0.0 
1.755104499558e-04 8.438640087517e-03 0.0 
0.0 0.0 -1.264739017786e-03 
-7.261695585194e-04 -3.174047361399e-04 0.0 
-3.174047361399e-04 4.739951691414e-03 0.0 
0.0 0.0 -7.380763454961e-04 
-7.293562810949e-04 3.567993421671e-04 0.0 
3.567993421671e-04 4.808642079977e-03 0.0 
0.0 0.0 -7.371174501546e-04 
-5.783756129442e-04 -1.365848045621e-04 0.0 
-1.365848045621e-04 3.784424820314e-03 0.0 
0.0 0.0 -5.794556523337e-04 
-1.262877717034e-03 1.019690194505e-05 0.0 
1.019690194505e-05 8.450550888573e-03 0.0 
0.0 0.0 -1.280756488215e-03 
-3.226099019571e-04 2.179474137412e-04 0.0 
2.179474137412e-04 1.923375161646e-03 0.0 
0.0 0.0 -3.207852484642e-04 
-7.228265239814e-04 5.532830836330e-05 0.0 
5.532830836330e-05 4.629144605835e-03 0.0 
0.0 0.0 -7.350059072715e-04 
-1.225055898073e-03 -9.816574622226e-05 0.0 
-9.816574622226e-05 8.293394798268e-03 0.0 
0.0 0.0 -1.212858513926e-03 
-3.206551623609e-04 -1.904275671922e-04 0.0 
-1.904275671922e-04 1.917970267075e-03 0.0 
0.0 0.0 -3.198426158856e-04 
-1.782809379457e-04 -4.378063603026e-06 0.0 
-4.378063603026e-06 7.801372807212e-04 0.0 
0.0 0.0 -1.830859565219e-04 
-1.220501464306e-03 6.316947048498e-05 0.0 
6.316947048498e-05 8.106622909265e-03 0.0 
0.0 0.0 -1.234743356787e-03 
-9.829459878545e-05 4.583948434498e-06 0.0 
4.583948434498e-06 3.276774367732e-04 0.0 
0.0 0.0 -9.830693056618e-05 
-8.022047642295e-04 -1.811997065716e-04 0.0 
-1.811997065716e-04 5.439298518069e-03 0.0 
0.0 0.0 -8.229436299569e-04 
-5.489987759976e-04 -1.133059547326e-04 0.0 
-1.133059547326e-04 3.572814356686e-03 0.0 
0.0 0.0 -5.440916476828e-04 
-3.388458973029e-04 -7.042877961868e-05 0.0 
-7.042877961868e-05 2.248035829402e-03 0.0 
0.0 0.0 -3.443810396916e-04 
-3.074157494333e-04 -1.467796149718e-04 0.0 
-1.467796149718e-04 1.814374481458e-03 0.0 
0.0 0.0 -3.047895897720e-04 
-5.421593945536e-04 1.293548672116e-04 0.0 
1.293548672116e-04 3.418474043213e-03 0.0 
0.0 0.0 -5.489460876789e-04 
-1.266579725590e-03 -7.893235167067e-06 0.0 
-7.893235167067e-06 8.468672292321e-03 0.0 
0.0 0.0 -1.282189168212e-03 
-4.597210026088e-04 -1.452187243083e-04 0.0 
-1.452187243083e-04 2.937502524048e-03 0.0 
0.0 0.0 -4.512233509908e-04 
-3.611878323951e-04 1.444175472608e-04 0.0 
1.444175472608e-04 2.127268062759e-03 0.0 
0.0 0.0 -3.694212080277e-04 
-1.088084509005e-03 1.827090950976e-04 0.0 
1.827090950976e-04 7.290496234404e-03 0.0 
0.0 0.0 -1.087734043503e-03 
-2.215722591699e-04 2.179680801208e-05 0.0 
2.179680801208e-05 1.355906413413e-03 0.0 
0.0 0.0 -2.189683579105e-04 
-1.291565119731e-03 -2.058202376931e-04 0.0 
-2.058202376931e-04 8.638287399565e-03 0.0 
0.0 0.0 -1.285320035817e-03 
-9.406322495136e-05 -1.263405609949e-04 0.0 
-1.263405609949e-04 5.178868060054e-04 0.0 
0.0 0.0 -9.532668554595e-05 
-1.207108165930e-03 2.281727388556e-04 0.0 
2.281727388556e-04 8.099161405669e-03 0.0 
0.0 0.0 -1.210824713543e-03 
-5.507253245741e-04 2.263693422713e-04 0.0 
2.263693422713e-04 3.467321570737e-03 0.0 
0.0 0.0 -5.497085007362e-04 
-2.633068753573e-04 1.211642318688e-04 0.0 
1.211642318688e-04 1.594924151360e-03 0.0 
0.0 0.0 -2.769417647402e-04 
-1.253722868311e-03 -1.824681277037e-04 0.0 
-1.824681277037e-04 8.465445333241e-03 0.0 
0.0 0.0 -1.257478522087e-03 
-5.218987792326e-04 1.045965667426e-04 0.0 
1.045965667426e-04 3.169150320614e-03 0.0 
0.0 0.0 -5.137572693775e-04 
-6.027079853017e-05 4.538885378714e-05 0.0 
4.538885378714e-05 2.053936984272e-04 0.0 
0.0 0.0 -6.219552852730e-05 
-1.264974411680e-03 -7.934823425828e-05 0.0 
-7.934823425828e-05 8.671954395754e-03 0.0 
0.0 0.0 -1.261660853087e-03 
-2.446973118894e-04 -2.103372277075e-04 0.0 
-2.103372277075e-04 1.398643057908e-03 0.0 
0.0 0.0 -2.404310120911e-04 
-1.273528016320e-03 -3.786679226458e-06 0.0 
-3.786679226458e-06 8.448618323595e-03 0.0 
0.0 0.0 -1.282376455277e-03 
-9.491469453000e-04 -1.694945758869e-04 0.0 
-1.694945758869e-04 6.388198818832e-03 0.0 
0.0 0.0 -9.556290573178e-04 
-1.338499280800e-03 -4.782411066394e-06 0.0 
-4.782411066394e-06 8.836661036334e-03 0.0 
0.0 0.0 -1.338499280800e-03 
-1.237491500558e-03 1.679725136184e-06 0.0 
1.679725136184e-06 8.119391193773e-03 0.0 
0.0 0.0 -1.232909111256e-03 
-1.306267830690e-04 2.201659246920e-04 0.0 
2.201659246920e-04 5.612930774448e-04 0.0 
0.0 0.0 -1.295286970291e-04 
-4.862904107144e-04 1.519111044422e-04 0.0 
1.519111044422e-04 2.949318680169e-03 0.0 
0.0 0.0 -4.777371989943e-04 
-1.254133957623e-03 -1.731664304592e-04 0.0 
-1.731664304592e-04 8.495066883004e-03 0.0 
0.0 0.0 -1.262626981217e-03 
-1.278966520388e-03 -5.463065947675e-06 0.0 
-5.463065947675e-06 8.716306064884e-03 0.0 
0.0 0.0 -1.265352048664e-03 
-2.500278062252e-04 -1.904083940434e-04 0.0 
-1.904083940434e-04 1.447205075698e-03 0.0 
0.0 0.0 -2.510564503189e-04 
-2.134033531635e-04 -1.202880701251e-05 0.0 
-1.202880701251e-05 1.118917748560e-03 0.0 
0.0 0.0 -2.366757893512e-04 
-2.618885880878e-04 2.000957013546e-04 0.0 
2.000957013546e-04 1.434490946595e-03 0.0 
0.0 0.0 -2.525559601288e-04 
-2.561151872774e-04 2.173251173940e-04 0.0 
2.173251173940e-04 1.315804408785e-03 0.0 
0.0 0.0 -2.439992467140e-04 
-7.756433689863e-04 3.199927864594e-05 0.0 
3.199927864594e-05 4.983308918424e-03 0.0 
0.0 0.0 -7.918363975426e-04 
-4.925212314280e-04 -9.934539810266e-05 0.0 
-9.934539810266e-05 3.122416797223e-03 0.0 
0.0 0.0 -4.749402310763e-04 
-4.545793902690e-04 2.152694959791e-05 0.0 
2.152694959791e-05 2.617959458629e-03 0.0 
0.0 0.0 -4.438329512050e-04 
-8.539707940099e-04 -2.466642961344e-04 0.0 
-2.466642961344e-04 5.506675063211e-03 0.0 
0.0 0.0 -8.336771054075e-04 
-8.435305426984e-04 2.228252034013e-04 0.0 
2.228252034013e-04 5.474459253188e-03 0.0 
0.0 0.0 -8.358076868167e-04 
-9.896151407778e-04 -1.847277247936e-04 0.0 
-1.847277247936e-04 6.561076695027e-03 0.0 
0.0 0.0 -9.867109252839e-04 
-1.055581697673e-03 1.942475256944e-04 0.0 
1.942475256944e-04 7.096214809641e-03 0.0 
0.0 0.0 -1.058576829647e-03 
-1.087556198862e-03 -2.099876550133e-04 0.0 
-2.099876550133e-04 7.325766427452e-03 0.0 
0.0 0.0 -1.085941371602e-03 
-7.938707313230e-04 -2.935700947946e-04 0.0 
-2.935700947946e-04 5.166210845136e-03 0.0 
0.0 0.0 -7.983229688164e-04 
-9.891997245649e-05 3.705985749017e-05 0.0 
3.705985749017e-05 3.315907805063e-04 0.0 
0.0 0.0 -9.971606059277e-05 
-7.885073175136e-04 2.083610238624e-05 0.0 
2.083610238624e-05 5.061448418496e-03 0.0 
0.0 0.0 -7.928983479555e-04 
-1.080416093341e-03 -1.102030882255e-04 0.0 
-1.102030882255e-04 7.033104683541e-03 0.0 
0.0 0.0 -1.069439317440e-03 
-1.045886068578e-03 1.124481538708e-04 0.0 
1.124481538708e-04 7.095766026652e-03 0.0 
0.0 0.0 -1.046447409317e-03 
-1.328437641777e-03 -2.129776585032e-05 0.0 
-2.129776585032e-05 9.108372857470e-03 0.0 
0.0 0.0 -1.319970921405e-03 
-1.300424073257e-03 -1.489012867546e-04 0.0 
-1.489012867546e-04 8.723441004214e-03 0.0 
0.0 0.0 -1.294194962782e-03 
-7.712114504191e-04 -1.098703338913e-04 0.0 
-1.098703338913e-04 4.988523523052e-03 0.0 
0.0 0.0 -7.889745663688e-04 
-1.284794183645e-03 -1.672243708688e-06 0.0 
-1.672243708688e-06 8.719527791253e-03 0.0 
0.0 0.0 -1.263183913703e-03 
-8.948346215206e-04 -1.546261929541e-04 0.0 
-1.546261929541e-04 5.902983939671e-03 0.0 
0.0 0.0 -9.040008563810e-04 
-5.152734121650e-04 -1.377156700746e-04 0.0 
-1.377156700746e-04 3.387112186572e-03 0.0 
0.0 0.0 -5.198799001330e-04 
-7.537468891923e-04 -1.811454266392e-04 0.0 
-1.811454266392e-04 5.032849217033e-03 0.0 
0.0 0.0 -7.643292725053e-04 
-1.300051982580e-03 1.933815268577e-04 0.0 
1.933815268577e-04 8.643096299671e-03 0.0 
0.0 0.0 -1.287517816355e-03 
-1.042138929644e-03 -2.218801567962e-04 0.0 
-2.218801567962e-04 6.995297199161e-03 0.0 
0.0 0.0 -1.043751955586e-03 
-1.212978672895e-03 -2.149778667109e-04 0.0 
-2.149778667109e-04 8.151603330808e-03 0.0 
0.0 0.0 -1.209599240962e-03 
-4.772009659134e-04 -2.042000113292e-04 0.0 
-2.042000113292e-04 3.047489558792e-03 0.0 
0.0 0.0 -4.747543016519e-04 
-1.600906628411e-04 5.774618246658e-05 0.0 
5.774618246658e-05 1.025327310925e-03 0.0 
0.0 0.0 -1.624897275554e-04 
-1.185986913304e-03 -1.994673824885e-04 0.0 
-1.994673824885e-04 7.973913807476e-03 0.0 
0.0 0.0 -1.189902873528e-03 
-1.119764034804e-03 7.291963016832e-05 0.0 
7.291963016832e-05 7.561876066394e-03 0.0 
0.0 0.0 -1.108790581071e-03 
-1.060815689674e-04 -4.441233851545e-05 0.0 
-4.441233851545e-05 6.067820639570e-04 0.0 
0.0 0.0 -1.038131581323e-04 
-1.254593141611e-03 -8.600335574532e-05 0.0 
-8.600335574532e-05 8.491952788715e-03 0.0 
0.0 0.0 -1.285127980003e-03 
-1.054610615232e-03 1.830679382237e-04 0.0 
1.830679382237e-04 6.961937164299e-03 0.0 
0.0 0.0 -1.051491716222e-03 
-1.014932494026e-04 -1.696691582667e-04 0.0 
-1.696691582667e-04 3.826202340035e-04 0.0 
0.0 0.0 -1.013520483084e-04 
-6.301709070232e-04 2.090314443316e-04 0.0 
2.090314443316e-04 4.024350450833e-03 0.0 
0.0 0.0 -6.309931931857e-04 
-7.106440805022e-04 -1.470402379688e-04 0.0 
-1.470402379688e-04 4.709551499753e-03 0.0 
0.0 0.0 -7.153918394734e-04 
-5.826588176687e-04 -7.135686322053e-05 0.0 
-7.135686322053e-05 3.565625895428e-03 0.0 
0.0 0.0 -5.772375537024e-04 
-4.700128970004e-04 1.674991601261e-04 0.0 
1.674991601261e-04 2.986365482112e-03 0.0 
0.0 0.0 -4.852398935310e-04 
-5.464898507642e-04 -2.243214163867e-04 0.0 
-2.243214163867e-04 3.519571152392e-03 0.0 
0.0 0.0 -5.471823052058e-04 
-1.295684493703e-03 1.105875109316e-04 0.0 
1.105875109316e-04 8.547279304038e-03 0.0 
0.0 0.0 -1.283833066805e-03 
-8.570047827625e-04 1.861607891453e-04 0.0 
1.861607891453e-04 5.815261551137e-03 0.0 
0.0 0.0 -8.766975940251e-04 
-5.090056138741e-04 2.359482171435e-04 0.0 
2.359482171435e-04 3.233178911117e-03 0.0 
0.0 0.0 -5.122473358773e-04 
-2.401563577846e-04 -2.327182583628e-04 0.0 
-2.327182583628e-04 1.352155075276e-03 0.0 
0.0 0.0 -2.295267891405e-04 
-7.623542819020e-04 1.283036037402e-04 0.0 
1.283036037402e-04 5.225810972112e-03 0.0 
0.0 0.0 -7.744920945421e-04 
-1.103870852233e-03 -9.179179606005e-05 0.0 
-9.179179606005e-05 7.387674560017e-03 0.0 
0.0 0.0 -1.129288753466e-03 
-5.110192863144e-04 -2.509386708551e-04 0.0 
-2.509386708551e-04 3.262724462356e-03 0.0 
0.0 0.0 -5.109724225979e-04 
-1.701414425471e-04 -1.534722166073e-04 0.0 
-1.534722166073e-04 9.835208087659e-04 0.0 
0.0 0.0 -1.803716510945e-04 
-6.470086521654e-04 -1.523090755330e-04 0.0 
-1.523090755330e-04 4.254329431163e-03 0.0 
0.0 0.0 -6.470401313398e-04 
-5.812575166427e-04 7.210416783757e-05 0.0 
7.210416783757e-05 3.739643384109e-03 0.0 
0.0 0.0 -5.578851714504e-04 
-6.125337073479e-04 1.558115274757e-04 0.0 
1.558115274757e-04 3.923971555451e-03 0.0 
0.0 0.0 -6.167189930164e-04 
-1.291653437089e-03 1.656662026679e-04 0.0 
1.656662026679e-04 8.654933890924e-03 0.0 
0.0 0.0 -1.290671971449e-03 
-2.237296866695e-04 1.772304597236e-04 0.0 
1.772304597236e-04 1.151710267161e-03 0.0 
0.0 0.0 -2.092271396208e-04 
-9.141643905242e-04 1.684200684003e-04 0.0 
1.684200684003e-04 6.033430644026e-03 0.0 
0.0 0.0 -9.216843799351e-04 
-1.271942419784e-03 2.295590735455e-04 0.0 
2.295590735455e-04 8.471227576744e-03 0.0 
0.0 0.0 -1.256690274141e-03 
-6.609256603744e-04 1.763317732060e-04 0.0 
1.763317732060e-04 4.239720102404e-03 0.0 
0.0 0.0 -6.588732905211e-04 
-6.147586220519e-04 -1.550456399962e-04 0.0 
-1.550456399962e-04 4.029116054442e-03 0.0 
0.0 0.0 -6.139229799761e-04 
-1.241743830704e-03 2.520731219919e-04 0.0 
2.520731219919e-04 8.466488124430e-03 0.0 
0.0 0.0 -1.254964138299e-03 
-1.256064603940e-03 -2.623116581344e-04 0.0 
-2.623116581344e-04 8.488036362469e-03 0.0 
0.0 0.0 -1.261070974318e-03 
-9.903209289541e-04 1.774668260034e-04 0.0 
1.774668260034e-04 6.556735258886e-03 0.0 
0.0 0.0 -9.873713238705e-04 
-6.942353831373e-04 -1.750200192602e-04 0.0 
-1.750200192602e-04 4.553149239605e-03 0.0 
0.0 0.0 -6.916138708610e-04 
-1.272024970549e-03 7.302822811058e-05 0.0 
7.302822811058e-05 8.719688557752e-03 0.0 
0.0 0.0 -1.270330610962e-03 
-6.345922402826e-04 1.791748683913e-04 0.0 
1.791748683913e-04 4.059488016013e-03 0.0 
0.0 0.0 -6.326048069937e-04 
-1.254086704545e-03 -7.990901772509e-06 0.0 
-7.990901772509e-06 8.463054394801e-03 0.0 
0.0 0.0 -1.283174495648e-03 
-1.276280299661e-03 7.633372817423e-05 0.0 
7.633372817423e-05 8.703927362015e-03 0.0 
0.0 0.0 -1.267437373369e-03 
-8.565153591280e-04 -2.695301549171e-04 0.0 
-2.695301549171e-04 5.568894745570e-03 0.0 
0.0 0.0 -8.543707170918e-04 
-9.713226980400e-04 1.946342578752e-04 0.0 
1.946342578752e-04 6.532485670191e-03 0.0 
0.0 0.0 -9.817831382938e-04 
-6.315283379598e-04 -1.826998149001e-04 0.0 
-1.826998149001e-04 4.113094555246e-03 0.0 
0.0 0.0 -6.293189184696e-04 
-5.902450977429e-04 1.623031646131e-04 0.0 
1.623031646131e-04 3.689468477665e-03 0.0 
0.0 0.0 -5.830241378053e-04 
-7.249782629771e-04 1.809288523893e-04 0.0 
1.809288523893e-04 4.673091201127e-03 0.0 
0.0 0.0 -7.211932326589e-04 
-5.403888112139e-04 -1.689543050934e-04 0.0 
-1.689543050934e-04 3.513114326182e-03 0.0 
0.0 0.0 -5.383041810906e-04 
-7.661110268238e-04 -1.968496736507e-04 0.0 
-1.968496736507e-04 5.166653984338e-03 0.0 
0.0 0.0 -7.693993191400e-04 
-6.294182824657e-04 -2.163757471592e-04 0.0 
-2.163757471592e-04 4.099286379753e-03 0.0 
0.0 0.0 -6.275039421266e-04 
-9.046107145188e-05 -7.326081393839e-05 0.0 
-7.326081393839e-05 3.093039216748e-04 0.0 
0.0 0.0 -9.378979295270e-05 
-8.218888591145e-04 -1.362265050326e-05 0.0 
-1.362265050326e-05 5.568518320124e-03 0.0 
0.0 0.0 -8.171079392438e-04 
-2.708662158631e-04 3.135426371168e-06 0.0 
3.135426371168e-06 1.198400692882e-03 0.0 
0.0 0.0 -2.373169254524e-04 
-6.825469564227e-04 -1.538944897682e-04 0.0 
-1.538944897682e-04 4.493577698030e-03 0.0 
0.0 0.0 -6.809683978454e-04 
-1.266750237588e-03 4.200148413727e-06 0.0 
4.200148413727e-06 8.473073137795e-03 0.0 
0.0 0.0 -1.284796145094e-03 
-4.841925383156e-04 2.284371901658e-04 0.0 
2.284371901658e-04 3.002882293729e-03 0.0 
0.0 0.0 -4.767992880414e-04 
-1.020870051269e-03 2.043993854783e-04 0.0 
2.043993854783e-04 6.818231983257e-03 0.0 
0.0 0.0 -1.021089721936e-03 
-3.490407114895e-04 -2.220876940666e-04 0.0 
-2.220876940666e-04 2.148206482994e-03 0.0 
0.0 0.0 -3.540742325023e-04 
-1.043282338519e-03 2.368159947987e-04 0.0 
2.368159947987e-04 6.958410863996e-03 0.0 
0.0 0.0 -1.044905595188e-03 
-8.013630412540e-04 6.389824081856e-06 0.0 
6.389824081856e-06 5.002686662292e-03 0.0 
0.0 0.0 -7.899655494116e-04 
-5.947683694498e-04 2.081256616156e-04 0.0 
2.081256616156e-04 3.787155443009e-03 0.0 
0.0 0.0 -5.931463391684e-04 
-1.121794229525e-03 -2.159685184143e-04 0.0 
-2.159685184143e-04 7.508906289541e-03 0.0 
0.0 0.0 -1.120963572432e-03 
-2.180914166738e-04 1.756512204206e-04 0.0 
1.756512204206e-04 1.241780399830e-03 0.0 
0.0 0.0 -2.346376350630e-04 
-1.178651579784e-03 2.200776692921e-04 0.0 
2.200776692921e-04 7.962810812677e-03 0.0 
0.0 0.0 -1.189111243166e-03 
-7.770557330009e-04 1.799043213504e-04 0.0 
1.799043213504e-04 5.036915018676e-03 0.0 
0.0 0.0 -7.711223959738e-04 
-1.280064085681e-03 1.291641233303e-05 0.0 
1.291641233303e-05 8.715123744243e-03 0.0 
0.0 0.0 -1.265987209193e-03 
-7.886647595985e-04 2.426638412845e-05 0.0 
2.426638412845e-05 5.002569468986e-03 0.0 
0.0 0.0 -7.842605076999e-04 
-5.085061027866e-04 1.624719349288e-04 0.0 
1.624719349288e-04 3.132188298831e-03 0.0 
0.0 0.0 -5.042822341261e-04 
-6.680122214844e-04 1.543414038776e-04 0.0 
1.543414038776e-04 4.389762745766e-03 0.0 
0.0 0.0 -6.840799553763e-04 
-9.007934225225e-04 -1.247506640907e-04 0.0 
-1.247506640907e-04 5.946782140169e-03 0.0 
0.0 0.0 -8.722824885218e-04 
-3.656654935953e-04 2.470171187882e-04 0.0 
2.470171187882e-04 2.250740956869e-03 0.0 
0.0 0.0 -3.514598124168e-04 
-5.924594186081e-04 -2.113287385343e-04 0.0 
-2.113287385343e-04 3.843594924053e-03 0.0 
0.0 0.0 -5.911455407098e-04 
-1.021044424836e-03 -2.319523584093e-04 0.0 
-2.319523584093e-04 6.800629387681e-03 0.0 
0.0 0.0 -1.016465148841e-03 
-7.832948860764e-04 1.542506256291e-04 0.0 
1.542506256291e-04 5.221219062028e-03 0.0 
0.0 0.0 -7.680022369673e-04 
-5.676669992827e-04 1.711896275723e-04 0.0 
1.711896275723e-04 3.564089172862e-03 0.0 
0.0 0.0 -5.666226778950e-04 
-6.536822883720e-04 1.457424227352e-04 0.0 
1.457424227352e-04 4.156474681676e-03 0.0 
0.0 0.0 -6.498546761489e-04 
-1.132270982308e-03 2.069255922966e-04 0.0 
2.069255922966e-04 7.587995835191e-03 0.0 
0.0 0.0 -1.136725521675e-03 
-6.243703934397e-04 -5.657386080576e-05 0.0 
-5.657386080576e-05 4.179915537147e-03 0.0 
0.0 0.0 -6.189190723244e-04 
-1.269582323065e-03 5.358509534069e-05 0.0 
5.358509534069e-05 8.454036067307e-03 0.0 
0.0 0.0 -1.285202198870e-03 
-1.273584082277e-03 -3.447672338951e-05 0.0 
-3.447672338951e-05 8.706627272042e-03 0.0 
0.0 0.0 -1.265486236287e-03 
-4.574522532321e-04 -1.366919469267e-04 0.0 
-1.366919469267e-04 2.968706494426e-03 0.0 
0.0 0.0 -4.595713030950e-04 
-6.193411254739e-04 7.190453835515e-05 0.0 
7.190453835515e-05 3.976368456989e-03 0.0 
0.0 0.0 -6.385407451345e-04 
-1.157661612575e-03 -1.951807319381e-04 0.0 
-1.951807319381e-04 7.743964299132e-03 0.0 
0.0 0.0 -1.152822474774e-03 
-6.058642039217e-04 -1.568622492918e-04 0.0 
-1.568622492918e-04 3.943482715706e-03 0.0 
0.0 0.0 -6.037256927378e-04 
-4.410111678775e-04 1.646945023678e-04 0.0 
1.646945023678e-04 2.528625053889e-03 0.0 
0.0 0.0 -4.251746348339e-04 
-7.492101616993e-04 1.773144067430e-04 0.0 
1.773144067430e-04 4.849787455535e-03 0.0 
0.0 0.0 -7.443430781256e-04 
-6.015846242072e-04 -1.692904042825e-04 0.0 
-1.692904042825e-04 3.951833046067e-03 0.0 
0.0 0.0 -6.011186688906e-04 
-1.288763796550e-03 1.231833412492e-04 0.0 
1.231833412492e-04 8.478545606423e-03 0.0 
0.0 0.0 -1.279059907835e-03 
-1.060544670799e-03 1.938342500095e-04 0.0 
1.938342500095e-04 7.027045279308e-03 0.0 
0.0 0.0 -1.060691896764e-03 
-1.152244772895e-03 2.285095076535e-04 0.0 
2.285095076535e-04 7.745399107629e-03 0.0 
0.0 0.0 -1.155968210243e-03 
-2.882194771885e-04 -2.173510090809e-04 0.0 
-2.173510090809e-04 1.694759427097e-03 0.0 
0.0 0.0 -2.852154713500e-04 
-5.567709701176e-04 -1.966656427986e-04 0.0 
-1.966656427986e-04 3.599381630168e-03 0.0 
0.0 0.0 -5.558335581882e-04 
-1.085941057106e-03 1.940613560135e-04 0.0 
1.940613560135e-04 7.224719901000e-03 0.0 
0.0 0.0 -1.089453766084e-03 
-2.843827826560e-05 -1.788898447614e-05 0.0 
-1.788898447614e-05 1.853186358372e-04 0.0 
0.0 0.0 -4.453055683374e-05 
-6.135292459430e-04 1.555358498214e-04 0.0 
1.555358498214e-04 3.889243112960e-03 0.0 
0.0 0.0 -6.073871274648e-04 
-1.080867878280e-03 -2.316454551773e-04 0.0 
-2.316454551773e-04 7.249333231753e-03 0.0 
0.0 0.0 -1.080675545910e-03 
-1.764831160191e-04 -8.217578917015e-05 0.0 
-8.217578917015e-05 1.019550636912e-03 0.0 
0.0 0.0 -1.605608400042e-04 
-1.238595889810e-03 2.354517143286e-04 0.0 
2.354517143286e-04 8.471121261651e-03 0.0 
0.0 0.0 -1.257517519450e-03 
-9.713207705103e-04 1.946323764392e-04 0.0 
1.946323764392e-04 6.442137433534e-03 0.0 
0.0 0.0 -9.749624431058e-04 
-5.981973631964e-04 1.879071448913e-04 0.0 
1.879071448913e-04 3.813329018576e-03 0.0 
0.0 0.0 -5.995223474422e-04 
-1.084348145166e-03 2.392214872560e-04 0.0 
2.392214872560e-04 7.212887026288e-03 0.0 
0.0 0.0 -1.082135573042e-03 
-8.219004318722e-04 -1.022855745570e-05 0.0 
-1.022855745570e-05 5.626191621956e-03 0.0 
0.0 0.0 -8.259898420369e-04 
-8.600931526372e-04 -1.614882484442e-04 0.0 
-1.614882484442e-04 5.932770930688e-03 0.0 
0.0 0.0 -8.838609275114e-04 
-1.235110349403e-03 -1.423085779250e-04 0.0 
-1.423085779250e-04 8.282740067778e-03 0.0 
0.0 0.0 -1.237791025003e-03 
-4.556209105529e-04 2.036420794211e-04 0.0 
2.036420794211e-04 2.823352627341e-03 0.0 
0.0 0.0 -4.583583101839e-04 
-7.508195319224e-04 1.853886358928e-04 0.0 
1.853886358928e-04 4.860963236206e-03 0.0 
0.0 0.0 -7.480401524272e-04 
-8.027906713221e-04 1.764875410810e-04 0.0 
1.764875410810e-04 5.221920557136e-03 0.0 
0.0 0.0 -7.988399675000e-04 
-1.007530328557e-03 -1.922336022122e-04 0.0 
-1.922336022122e-04 6.759039767951e-03 0.0 
0.0 0.0 -1.008548823165e-03 
-8.112396533280e-04 -1.820827880749e-04 0.0 
-1.820827880749e-04 5.334789694812e-03 0.0 
0.0 0.0 -8.035999206669e-04 
-7.424823838501e-04 -1.611951191526e-04 0.0 
-1.611951191526e-04 4.887914283700e-03 0.0 
0.0 0.0 -7.415510827328e-04 
-9.420049562243e-04 -1.980186569884e-04 0.0 
-1.980186569884e-04 6.275886053793e-03 0.0 
0.0 0.0 -9.414312740916e-04 
-1.106765657790e-03 -2.072912274522e-04 0.0 
-2.072912274522e-04 7.417848919971e-03 0.0 
0.0 0.0 -1.105110859848e-03 
-8.771550322174e-05 -5.128346968193e-06 0.0 
-5.128346968193e-06 5.622743997178e-04 0.0 
0.0 0.0 -1.015871403443e-04 
-4.452411510459e-04 1.078521059611e-04 0.0 
1.078521059611e-04 2.907946245103e-03 0.0 
0.0 0.0 -4.649757541953e-04 
-5.301149448616e-04 1.855290027466e-04 0.0 
1.855290027466e-04 3.290005967673e-03 0.0 
0.0 0.0 -5.249394872960e-04 
-7.215069587739e-04 -1.794285911688e-04 0.0 
-1.794285911688e-04 4.739905292165e-03 0.0 
0.0 0.0 -7.181710532390e-04 
-1.095309768585e-03 -2.099324022586e-04 0.0 
-2.099324022586e-04 7.373113916822e-03 0.0 
0.0 0.0 -1.095076276885e-03 
-2.412241836646e-04 1.824271338482e-04 0.0 
1.824271338482e-04 1.391269291466e-03 0.0 
0.0 0.0 -2.576475407671e-04 
-1.042666947128e-03 -2.211661748355e-04 0.0 
-2.211661748355e-04 6.991049176526e-03 0.0 
0.0 0.0 -1.043355442177e-03 
-7.709980970027e-04 -2.344526007543e-04 0.0 
-2.344526007543e-04 5.001364750652e-03 0.0 
0.0 0.0 -7.763349569542e-04 
-5.598484848317e-04 1.964216387432e-04 0.0 
1.964216387432e-04 3.545883977613e-03 0.0 
0.0 0.0 -5.576783925304e-04 
-1.005904581142e-03 -2.103129090371e-04 0.0 
-2.103129090371e-04 6.739916943409e-03 0.0 
0.0 0.0 -1.006238978475e-03 
-1.328137378895e-04 -1.926409820627e-04 0.0 
-1.926409820627e-04 5.524811366157e-04 0.0 
0.0 0.0 -1.250635456846e-04 
-1.037748486931e-03 2.025826416298e-04 0.0 
2.025826416298e-04 6.894254509779e-03 0.0 
0.0 0.0 -1.040010908530e-03 
-9.586550230840e-05 6.862947183813e-05 0.0 
6.862947183813e-05 5.313753155375e-04 0.0 
0.0 0.0 -1.007187892234e-04 
-1.713724236673e-04 -5.327399001740e-06 0.0 
-5.327399001740e-06 7.517172537926e-04 0.0 
0.0 0.0 -1.819418517600e-04 
-2.796122854916e-04 2.316565417801e-04 0.0 
2.316565417801e-04 1.675994704223e-03 0.0 
0.0 0.0 -2.873666149908e-04 
-3.926605428350e-04 1.733428287043e-04 0.0 
1.733428287043e-04 2.352552718651e-03 0.0 
0.0 0.0 -3.935955730116e-04 
-1.073504857728e-03 -1.857694457952e-04 0.0 
-1.857694457952e-04 7.207934761623e-03 0.0 
0.0 0.0 -1.073797489760e-03 
-3.651136453237e-04 -1.928839212764e-04 0.0 
-1.928839212764e-04 2.293609592088e-03 0.0 
0.0 0.0 -3.637595386041e-04 
-3.442210319021e-04 1.764997975595e-04 0.0 
1.764997975595e-04 2.032847714738e-03 0.0 
0.0 0.0 -3.432832105208e-04 
-2.910729329918e-04 -1.809308260193e-04 0.0 
-1.809308260193e-04 1.763076573158e-03 0.0 
0.0 0.0 -2.922710279673e-04 
-2.622356291375e-04 1.892606687832e-04 0.0 
1.892606687832e-04 1.448318780246e-03 0.0 
0.0 0.0 -2.614315927221e-04 
-1.120397219207e-03 1.996859117335e-04 0.0 
1.996859117335e-04 7.447331785752e-03 0.0 
0.0 0.0 -1.117524173959e-03 
-7.717946648580e-04 -1.881039575464e-04 0.0 
-1.881039575464e-04 5.076611576995e-03 0.0 
0.0 0.0 -7.687972329812e-04 
-1.256202704630e-03 2.478526914498e-04 0.0 
2.478526914498e-04 8.487594918351e-03 0.0 
0.0 0.0 -1.256743614961e-03 
0.0 0.0 0.0 
0.0 0.0 0.0 
0.0 0.0 0.0 
-4.048716956913e-04 1.853052298050e-04 0.0 
1.853052298050e-04 2.461420572415e-03 0.0 
0.0 0.0 -4.044045206172e-04 
-6.239445424561e-04 2.046361178611e-04 0.0 
2.046361178611e-04 3.992995746549e-03 0.0 
0.0 0.0 -6.230907113744e-04 
-5.740868944919e-04 1.850315981272e-04 0.0 
1.850315981272e-04 3.613473978480e-03 0.0 
0.0 0.0 -5.709397776106e-04 
-1.047068133195e-03 2.230470659994e-04 0.0 
2.230470659994e-04 6.949500072304e-03 0.0 
0.0 0.0 -1.045235091131e-03 
-1.285400109254e-03 1.957478292084e-04 0.0 
1.957478292084e-04 8.698618921316e-03 0.0 
0.0 0.0 -1.275930989368e-03 
-1.029713153133e-03 -2.056143237118e-04 0.0 
-2.056143237118e-04 6.913851891301e-03 0.0 
0.0 0.0 -1.029499106509e-03 
-4.579566149125e-04 -1.884217374257e-04 0.0 
-1.884217374257e-04 2.912212194121e-03 0.0 
0.0 0.0 -4.564841486881e-04 
-1.120831572504e-03 -1.912348279818e-04 0.0 
-1.912348279818e-04 7.467678576310e-03 0.0 
0.0 0.0 -1.116166892424e-03 
-9.572670568062e-04 2.571263954151e-04 0.0 
2.571263954151e-04 6.316374419588e-03 0.0 
0.0 0.0 -9.512440159151e-04 
-7.570218913511e-04 -1.787629418728e-04 0.0 
-1.787629418728e-04 4.987297939344e-03 0.0 
0.0 0.0 -7.537083776970e-04 
-9.994998658216e-04 2.045048337302e-04 0.0 
2.045048337302e-04 6.629510214408e-03 0.0 
0.0 0.0 -1.003200534345e-03 
-1.242505065463e-03 -1.591232809489e-04 0.0 
-1.591232809489e-04 8.294319035880e-03 0.0 
0.0 0.0 -1.239730878702e-03 
-6.222328359965e-04 -2.058351298643e-04 0.0 
-2.058351298643e-04 4.057741749781e-03 0.0 
0.0 0.0 -6.206208101913e-04 
-3.761575650769e-04 -1.711217870112e-04 0.0 
-1.711217870112e-04 2.346047162404e-03 0.0 
0.0 0.0 -3.752687577596e-04 
-8.718273414275e-04 -1.903070125199e-04 0.0 
-1.903070125199e-04 5.767456116596e-03 0.0 
0.0 0.0 -8.662621843288e-04 
-1.329807574370e-03 9.926374614624e-05 0.0 
9.926374614624e-05 9.094631735092e-03 0.0 
0.0 0.0 -1.323568725688e-03 
-7.473763321356e-04 -1.878290917317e-04 0.0 
-1.878290917317e-04 4.922460573442e-03 0.0 
0.0 0.0 -7.453270327203e-04 
-7.780710127091e-04 -1.914920916378e-04 0.0 
-1.914920916378e-04 5.142441463468e-03 0.0 
0.0 0.0 -7.768443034385e-04 
-8.403853568470e-04 -5.224028630894e-05 0.0 
-5.224028630894e-05 5.665674692091e-03 0.0 
0.0 0.0 -8.293613651800e-04 
-2.119957057011e-04 -1.175361575481e-04 0.0 
-1.175361575481e-04 1.307524346165e-03 0.0 
0.0 0.0 -2.161141481901e-04 
-8.208799096498e-04 1.843133829192e-04 0.0 
1.843133829192e-04 5.271529166893e-03 0.0 
0.0 0.0 -8.060563724883e-04 
-4.603670611930e-04 1.877974414593e-04 0.0 
1.877974414593e-04 2.847786037855e-03 0.0 
0.0 0.0 -4.590591740919e-04 
-3.265147701176e-04 1.754702989644e-04 0.0 
1.754702989644e-04 1.892353118097e-03 0.0 
0.0 0.0 -3.229397045850e-04 
-2.372523115321e-04 -1.920097841935e-04 0.0 
-1.920097841935e-04 1.297568945568e-03 0.0 
0.0 0.0 -2.426597671045e-04 
-1.076566808285e-03 1.948027566312e-04 0.0 
1.948027566312e-04 7.152792080089e-03 0.0 
0.0 0.0 -1.075985979751e-03 
-8.366892688468e-04 -1.821112197860e-04 0.0 
-1.821112197860e-04 5.525859000099e-03 0.0 
0.0 0.0 -8.312490730234e-04 
-5.408471440859e-04 1.787636598149e-04 0.0 
1.787636598149e-04 3.420100638870e-03 0.0 
0.0 0.0 -5.429493831729e-04 
-1.110558394075e-03 -1.920281890811e-04 0.0 
-1.920281890811e-04 7.461731149687e-03 0.0 
0.0 0.0 -1.109763131677e-03 
-1.054698518121e-03 -2.087025362573e-04 0.0 
-2.087025362573e-04 7.108835153234e-03 0.0 
0.0 0.0 -1.057773507355e-03 
-7.924197653506e-04 -1.785979394266e-04 0.0 
-1.785979394266e-04 5.231483760846e-03 0.0 
0.0 0.0 -7.887050335656e-04 
-1.257903229921e-03 7.567368571964e-05 0.0 
7.567368571964e-05 8.498216080292e-03 0.0 
0.0 0.0 -1.288412101370e-03 
-8.091181034430e-04 1.931976365146e-04 0.0 
1.931976365146e-04 5.284760522789e-03 0.0 
0.0 0.0 -8.078958932737e-04 
-8.263277637736e-04 -1.832084157210e-04 0.0 
-1.832084157210e-04 5.471677470530e-03 0.0 
0.0 0.0 -8.238265297874e-04 
-6.650106902351e-04 -1.791010150322e-04 0.0 
-1.791010150322e-04 4.378261468460e-03 0.0 
0.0 0.0 -6.656476441012e-04 
-8.423857986255e-04 -1.986818351390e-04 0.0 
-1.986818351390e-04 5.587318921638e-03 0.0 
0.0 0.0 -8.413031780454e-04 
-3.899474951329e-04 1.915304819262e-04 0.0 
1.915304819262e-04 2.337472328750e-03 0.0 
0.0 0.0 -3.865807678710e-04 
-8.089876515703e-04 4.490290024569e-05 0.0 
4.490290024569e-05 5.014601975749e-03 0.0 
0.0 0.0 -7.898058234521e-04 
-6.502027287348e-04 -1.918500009786e-04 0.0 
-1.918500009786e-04 4.255074906530e-03 0.0 
0.0 0.0 -6.486359607860e-04 
-4.676332506753e-04 -1.907969004762e-04 0.0 
-1.907969004762e-04 2.994133619140e-03 0.0 
0.0 0.0 -4.681053320140e-04 
-1.032293230965e-03 1.946996800783e-04 0.0 
1.946996800783e-04 6.836459352288e-03 0.0 
0.0 0.0 -1.032318248600e-03 
-4.933492965949e-05 -2.981330854880e-05 0.0 
-2.981330854880e-05 2.232237160484e-04 0.0 
0.0 0.0 -4.491607815645e-05 
-8.460396934351e-04 -1.994951239521e-04 0.0 
-1.994951239521e-04 5.571843201912e-03 0.0 
0.0 0.0 -8.386390795737e-04 
-4.884576987714e-04 1.904916551126e-04 0.0 
1.904916551126e-04 3.043938579203e-03 0.0 
0.0 0.0 -4.870240021111e-04 
-4.011070509712e-04 -1.789938708172e-04 0.0 
-1.789938708172e-04 2.527031405991e-03 0.0 
0.0 0.0 -4.015254440178e-04 
-3.881231226590e-04 -1.849728275912e-04 0.0 
-1.849728275912e-04 2.413136850469e-03 0.0 
0.0 0.0 -3.834586606452e-04 
-9.010939454830e-04 1.820631251065e-04 0.0 
1.820631251065e-04 5.900115668490e-03 0.0 
0.0 0.0 -8.965110541436e-04 
-1.535639171870e-04 -1.171137565838e-04 0.0 
-1.171137565838e-04 9.290832055632e-04 0.0 
0.0 0.0 -1.609926926485e-04 
-5.642000446768e-04 1.829010286562e-04 0.0 
1.829010286562e-04 3.554613982315e-03 0.0 
0.0 0.0 -5.613503766092e-04 
-8.738800955345e-04 1.908997098881e-04 0.0 
1.908997098881e-04 5.736495439307e-03 0.0 
0.0 0.0 -8.726802719924e-04 
-8.424168210172e-04 1.809379834970e-04 0.0 
1.809379834970e-04 5.460364861261e-03 0.0 
0.0 0.0 -8.336838631977e-04 
-8.483140592107e-04 -2.570000340280e-05 0.0 
-2.570000340280e-05 5.646419876325e-03 0.0 
0.0 0.0 -8.301023967811e-04 
-2.301022018194e-04 1.896537110150e-04 0.0 
1.896537110150e-04 1.205962353600e-03 0.0 
0.0 0.0 -2.187087652219e-04 
-4.708793642351e-04 1.959468275412e-04 0.0 
1.959468275412e-04 2.928096743676e-03 0.0 
0.0 0.0 -4.706942212664e-04 
-4.339228685620e-04 -2.028732675090e-04 0.0 
-2.028732675090e-04 2.736979889631e-03 0.0 
0.0 0.0 -4.311372127493e-04 
-4.979504220915e-04 -1.685324817791e-04 0.0 
-1.685324817791e-04 3.206245351086e-03 0.0 
0.0 0.0 -4.957039317942e-04 
-1.001539925556e-03 -2.124102205074e-04 0.0 
-2.124102205074e-04 6.704131800771e-03 0.0 
0.0 0.0 -1.000663671924e-03 
-5.607402459633e-04 -1.707949003296e-04 0.0 
-1.707949003296e-04 3.631087283813e-03 0.0 
0.0 0.0 -5.577786207633e-04 
-6.163072057110e-04 1.894419522333e-04 0.0 
1.894419522333e-04 3.933506140839e-03 0.0 
0.0 0.0 -6.151539951222e-04 
-5.883906607909e-04 1.932241182488e-04 0.0 
1.932241182488e-04 3.740119885148e-03 0.0 
0.0 0.0 -5.868308051845e-04 
-2.691521273047e-04 -2.036688762201e-04 0.0 
-2.036688762201e-04 1.523725894567e-03 0.0 
0.0 0.0 -2.530049833111e-04 
-6.958714508921e-04 1.979801814588e-04 0.0 
1.979801814588e-04 4.490850522134e-03 0.0 
0.0 0.0 -6.959382511914e-04 
-2.861043400586e-04 -1.894415141014e-04 0.0 
-1.894415141014e-04 1.663430798726e-03 0.0 
0.0 0.0 -2.788248838327e-04 
-1.306755613337e-03 -2.610599304158e-06 0.0 
-2.610599304158e-06 9.100164486650e-03 0.0 
0.0 0.0 -1.321446319728e-03 
-1.339174511630e-03 -2.960517267119e-05 0.0 
-2.960517267119e-05 9.091242340449e-03 0.0 
0.0 0.0 -1.318029376683e-03 
-7.775136936643e-04 1.870350143581e-04 0.0 
1.870350143581e-04 5.054396183358e-03 0.0 
0.0 0.0 -7.755312068111e-04 
-4.251819947504e-04 1.895457374981e-04 0.0 
1.895457374981e-04 2.596133538266e-03 0.0 
0.0 0.0 -4.232985079168e-04 
-3.648329347482e-04 -1.837358985601e-04 0.0 
-1.837358985601e-04 2.280199425849e-03 0.0 
0.0 0.0 -3.659709354871e-04 
-8.573750887322e-04 1.858228230961e-04 0.0 
1.858228230961e-04 5.602884265534e-03 0.0 
0.0 0.0 -8.539191708179e-04 
-3.949528212466e-04 -1.886728582840e-04 0.0 
-1.886728582840e-04 2.475291397225e-03 0.0 
0.0 0.0 -3.930530440640e-04 
-4.332493895502e-04 1.980298907227e-04 0.0 
1.980298907227e-04 2.665937605433e-03 0.0 
0.0 0.0 -4.339875075689e-04 
-7.596321613464e-04 1.775287963431e-04 0.0 
1.775287963431e-04 4.918201734153e-03 0.0 
0.0 0.0 -7.563811545761e-04 
-1.287984799363e-03 -3.860068533034e-05 0.0 
-3.860068533034e-05 8.730948327736e-03 0.0 
0.0 0.0 -1.266640259566e-03 
-5.240495846064e-04 1.944963688322e-04 0.0 
1.944963688322e-04 3.293655739787e-03 0.0 
0.0 0.0 -5.226246958029e-04 
-9.447998235248e-04 1.960929665842e-04 0.0 
1.960929665842e-04 6.232881478096e-03 0.0 
0.0 0.0 -9.428115367422e-04 
-3.107562741713e-04 1.824587312734e-04 0.0 
1.824587312734e-04 1.780558679157e-03 0.0 
0.0 0.0 -3.076624342134e-04 
-1.311994729519e-03 7.493212939933e-06 0.0 
7.493212939933e-06 9.101970930917e-03 0.0 
0.0 0.0 -1.322863172658e-03 
-3.967767638388e-04 1.868417767076e-04 0.0 
1.868417767076e-04 2.404071077719e-03 0.0 
0.0 0.0 -3.959736908235e-04 
-7.861913752228e-04 1.858440032300e-04 0.0 
1.858440032300e-04 5.109311146391e-03 0.0 
0.0 0.0 -7.835188407615e-04 
-2.939612478103e-04 2.069489564745e-04 0.0 
2.069489564745e-04 1.627899719100e-03 0.0 
0.0 0.0 -2.855287480241e-04 
-9.209672284179e-04 1.890725882863e-04 0.0 
1.890725882863e-04 6.061382275032e-03 0.0 
0.0 0.0 -9.211625808215e-04 
-6.527425537756e-04 1.919833722786e-04 0.0 
1.919833722786e-04 4.182126969127e-03 0.0 
0.0 0.0 -6.516619296807e-04 
-4.643737788932e-04 1.911497819079e-04 0.0 
1.911497819079e-04 2.873282577301e-03 0.0 
0.0 0.0 -4.625367401933e-04 
-8.005133107045e-04 -1.849372706410e-04 0.0 
-1.849372706410e-04 5.279390117932e-03 0.0 
0.0 0.0 -7.963903837170e-04 
-1.325618080026e-03 -1.973193103071e-05 0.0 
-1.973193103071e-05 9.091764273344e-03 0.0 
0.0 0.0 -1.324865334549e-03 
-5.527714494018e-04 1.888052696333e-04 0.0 
1.888052696333e-04 3.488692206257e-03 0.0 
0.0 0.0 -5.510338386786e-04 
-8.711724193672e-04 -1.970525444520e-04 0.0 
-1.970525444520e-04 5.796794660819e-03 0.0 
0.0 0.0 -8.703234504572e-04 
-3.052115937338e-04 -1.690052037768e-04 0.0 
-1.690052037768e-04 1.853679927901e-03 0.0 
0.0 0.0 -3.041533380166e-04 
-9.585285003453e-04 2.099575339622e-04 0.0 
2.099575339622e-04 6.326919234623e-03 0.0 
0.0 0.0 -9.576894438039e-04 
-1.007861502229e-03 2.071557397888e-04 0.0 
2.071557397888e-04 6.684066242240e-03 0.0 
0.0 0.0 -1.008345180213e-03 
-4.131133098155e-04 -1.786065448845e-04 0.0 
-1.786065448845e-04 2.602572281114e-03 0.0 
0.0 0.0 -4.109515902261e-04 
-9.327998617517e-04 -1.874311411832e-04 0.0 
-1.874311411832e-04 6.181670543660e-03 0.0 
0.0 0.0 -9.257128893455e-04 
-1.323570257858e-03 1.323150738932e-05 0.0 
1.323150738932e-05 9.099733073090e-03 0.0 
0.0 0.0 -1.322580803729e-03 
-1.076618962997e-03 1.898018198415e-04 0.0 
1.898018198415e-04 7.144327477010e-03 0.0 
0.0 0.0 -1.075861678316e-03 
-1.321614991336e-03 -1.713273005328e-05 0.0 
-1.713273005328e-05 9.105058184061e-03 0.0 
0.0 0.0 -1.322091174222e-03 
-9.079440508185e-04 -2.097847460126e-04 0.0 
-2.097847460126e-04 6.119714420928e-03 0.0 
0.0 0.0 -9.196498359204e-04 
-1.050990778737e-03 -1.886314367516e-04 0.0 
-1.886314367516e-04 7.044669431277e-03 0.0 
0.0 0.0 -1.048263655743e-03 
-3.511245847016e-04 -1.953891657847e-04 0.0 
-1.953891657847e-04 2.144448464187e-03 0.0 
0.0 0.0 -3.491910591611e-04 
-7.374872672360e-04 -1.803640936936e-04 0.0 
-1.803640936936e-04 4.844525720206e-03 0.0 
0.0 0.0 -7.343713905234e-04 
-8.293244045422e-04 1.837550643811e-04 0.0 
1.837550643811e-04 5.409584064822e-03 0.0 
0.0 0.0 -8.263924940540e-04 
-8.620298851759e-04 -1.867239000812e-04 0.0 
-1.867239000812e-04 5.715504193618e-03 0.0 
0.0 0.0 -8.589723558544e-04 
-7.110415388042e-04 -1.855413705945e-04 0.0 
-1.855413705945e-04 4.678427107823e-03 0.0 
0.0 0.0 -7.101745248689e-04 
-1.326686360805e-03 -1.171732242917e-05 0.0 
-1.171732242917e-05 9.109208916885e-03 0.0 
0.0 0.0 -1.322334986692e-03 
-8.655458594579e-04 1.438711959111e-04 0.0 
1.438711959111e-04 5.877137978370e-03 0.0 
0.0 0.0 -8.810748613436e-04 
-7.842175920213e-04 -1.730041151838e-04 0.0 
-1.730041151838e-04 5.148772658244e-03 0.0 
0.0 0.0 -7.763708431881e-04 
-5.855858139709e-04 -1.935639285694e-04 0.0 
-1.935639285694e-04 3.803586164403e-03 0.0 
0.0 0.0 -5.843899590101e-04 
-3.295388154563e-04 1.889565951280e-04 0.0 
1.889565951280e-04 1.906230365352e-03 0.0 
0.0 0.0 -3.280768480529e-04 
-7.085854070096e-04 -1.812057133811e-04 0.0 
-1.812057133811e-04 4.648076014877e-03 0.0 
0.0 0.0 -7.069124235890e-04 
-4.422183154956e-04 1.870641756049e-04 0.0 
1.870641756049e-04 2.708861584455e-03 0.0 
0.0 0.0 -4.404772202000e-04 
-7.723719974628e-04 -4.140062150847e-05 0.0 
-4.140062150847e-05 5.256708913763e-03 0.0 
0.0 0.0 -7.696142143080e-04 
-4.606920221105e-04 -1.852355893198e-04 0.0 
-1.852355893198e-04 2.942829590752e-03 0.0 
0.0 0.0 -4.595640944490e-04 
-5.214756889107e-04 -1.931035456200e-04 0.0 
-1.931035456200e-04 3.354332559651e-03 0.0 
0.0 0.0 -5.202658224677e-04 
-1.068256360121e-03 2.066714883779e-04 0.0 
2.066714883779e-04 7.094366600133e-03 0.0 
0.0 0.0 -1.069052450572e-03 
-4.377877323945e-04 -1.833633178395e-04 0.0 
-1.833633178395e-04 2.778061496653e-03 0.0 
0.0 0.0 -4.372567615832e-04 
-7.685639283948e-04 1.832765112525e-04 0.0 
1.832765112525e-04 4.976704183313e-03 0.0 
0.0 0.0 -7.640689829422e-04 
-9.023009032283e-04 1.879763697979e-04 0.0 
1.879763697979e-04 5.928541464362e-03 0.0 
0.0 0.0 -9.014246907137e-04 
-8.033627654917e-04 1.978900666673e-04 0.0 
1.978900666673e-04 5.248675409053e-03 0.0 
0.0 0.0 -8.035328976187e-04 
-1.305960172853e-03 -2.095892658959e-06 0.0 
-2.095892658959e-06 9.102496999303e-03 0.0 
0.0 0.0 -1.324762665914e-03 
-6.445820078637e-04 -1.678202773937e-04 0.0 
-1.678202773937e-04 4.194265313441e-03 0.0 
0.0 0.0 -6.390224077203e-04 
-4.435428954873e-04 1.964051911317e-04 0.0 
1.964051911317e-04 2.726576725320e-03 0.0 
0.0 0.0 -4.422638729430e-04 
-5.680634224624e-04 -1.789976648693e-04 0.0 
-1.789976648693e-04 3.709617648682e-03 0.0 
0.0 0.0 -5.691257024010e-04 
-4.282333792407e-04 -1.482446945053e-04 0.0 
-1.482446945053e-04 2.644915346169e-03 0.0 
0.0 0.0 -4.184705811166e-04 
-4.155606553471e-04 1.953855919425e-04 0.0 
1.953855919425e-04 2.537485002560e-03 0.0 
0.0 0.0 -4.141309408042e-04 
-1.124019592153e-03 -2.007331567345e-04 0.0 
-2.007331567345e-04 7.565647962713e-03 0.0 
0.0 0.0 -1.123886314723e-03 
-8.186901870458e-04 -1.867352575881e-04 0.0 
-1.867352575881e-04 5.417532343351e-03 0.0 
0.0 0.0 -8.161479701220e-04 
-5.717796681143e-04 -1.878963187406e-04 0.0 
-1.878963187406e-04 3.680777609877e-03 0.0 
0.0 0.0 -5.672387349321e-04 
-7.059258560287e-04 1.849400511517e-04 0.0 
1.849400511517e-04 4.547028472385e-03 0.0 
0.0 0.0 -7.023794137935e-04 
-1.322670125945e-03 2.313222592220e-05 0.0 
2.313222592220e-05 9.105794211902e-03 0.0 
0.0 0.0 -1.320675234999e-03 
-1.261246667212e-03 -1.446740378059e-04 0.0 
-1.446740378059e-04 8.590068615086e-03 0.0 
0.0 0.0 -1.258064670439e-03 
-1.122100566517e-03 1.986464603035e-04 0.0 
1.986464603035e-04 7.484284741315e-03 0.0 
0.0 0.0 -1.126590436115e-03 
-1.036201990782e-03 -1.951775890561e-04 0.0 
-1.951775890561e-04 6.963709654535e-03 0.0 
0.0 0.0 -1.037522200811e-03 
-7.719052834795e-04 -1.888501304091e-04 0.0 
-1.888501304091e-04 5.114447170550e-03 0.0 
0.0 0.0 -7.721428985420e-04 
-5.862259843954e-04 -1.794669617907e-04 0.0 
-1.794669617907e-04 3.806767764826e-03 0.0 
0.0 0.0 -5.842812205453e-04 
-4.235649518209e-04 -1.883881554872e-04 0.0 
-1.883881554872e-04 2.667804805964e-03 0.0 
0.0 0.0 -4.203166018452e-04 
-4.860729007889e-04 -1.885252844673e-04 0.0 
-1.885252844673e-04 3.110387779237e-03 0.0 
0.0 0.0 -4.843489805398e-04 
-7.832353818819e-04 -1.822378049693e-04 0.0 
-1.822378049693e-04 5.173491727743e-03 0.0 
0.0 0.0 -7.808727949117e-04 
-8.901416230107e-04 -1.942852983017e-04 0.0 
-1.942852983017e-04 5.937129717394e-03 0.0 
0.0 0.0 -8.900964085843e-04 
-6.791455967190e-04 -1.986004150700e-04 0.0 
-1.986004150700e-04 4.477294610112e-03 0.0 
0.0 0.0 -6.810091006415e-04 
-1.137984490542e-03 2.026763925672e-04 0.0 
2.026763925672e-04 7.560494271962e-03 0.0 
0.0 0.0 -1.134236807130e-03 
-4.390058928460e-04 -1.873042743236e-04 0.0 
-1.873042743236e-04 2.794180260139e-03 0.0 
0.0 0.0 -4.395655422792e-04 
-6.752152374307e-04 -1.860595742758e-04 0.0 
-1.860595742758e-04 4.431501668800e-03 0.0 
0.0 0.0 -6.750378637491e-04 
-7.938192706807e-04 1.817389384797e-04 0.0 
1.817389384797e-04 5.160116736331e-03 0.0 
0.0 0.0 -7.913284153978e-04 
-6.120290380758e-04 -1.961653994372e-04 0.0 
-1.961653994372e-04 3.987310124629e-03 0.0 
0.0 0.0 -6.122259156574e-04 
-1.301288756895e-03 -2.045275430418e-05 0.0 
-2.045275430418e-05 9.103514886722e-03 0.0 
0.0 0.0 -1.320088186226e-03 
-1.336559860406e-03 5.304668224227e-05 0.0 
5.304668224227e-05 9.092320412842e-03 0.0 
0.0 0.0 -1.318462653075e-03 
-1.241699233935e-03 -2.254253931460e-04 0.0 
-2.254253931460e-04 8.519567921102e-03 0.0 
0.0 0.0 -1.256494544188e-03 
-8.370305663977e-04 -1.942067132543e-04 0.0 
-1.942067132543e-04 5.564466733165e-03 0.0 
0.0 0.0 -8.375255977276e-04 
-1.112341827327e-03 1.928139267360e-04 0.0 
1.928139267360e-04 7.404901105712e-03 0.0 
0.0 0.0 -1.112065035246e-03 
-3.806812841048e-04 1.778946636946e-04 0.0 
1.778946636946e-04 2.279220825059e-03 0.0 
0.0 0.0 -3.785953687517e-04 
-5.494616984378e-04 -1.888416104626e-04 0.0 
-1.888416104626e-04 3.555923799118e-03 0.0 
0.0 0.0 -5.483018170244e-04 
-3.235962926905e-04 -1.736014947489e-04 0.0 
-1.736014947489e-04 1.973084689826e-03 0.0 
0.0 0.0 -3.192951451658e-04 
-5.963652417524e-04 -1.773931756756e-04 0.0 
-1.773931756756e-04 3.870665993091e-03 0.0 
0.0 0.0 -5.936226173563e-04 
-7.754418230907e-04 -1.787983897600e-05 0.0 
-1.787983897600e-05 4.998811631156e-03 0.0 
0.0 0.0 -7.914980036671e-04 
-9.191665137011e-04 2.140245341565e-04 0.0 
2.140245341565e-04 6.074527525348e-03 0.0 
0.0 0.0 -9.214502702889e-04 
-1.272306740568e-03 -2.183792906185e-06 0.0 
-2.183792906185e-06 8.701539900471e-03 0.0 
0.0 0.0 -1.265403586923e-03 
-1.115465796476e-03 2.144802209519e-04 0.0 
2.144802209519e-04 7.405352776166e-03 0.0 
0.0 0.0 -1.117224974728e-03 
-8.719756485576e-04 1.796746755415e-04 0.0 
1.796746755415e-04 5.704231125349e-03 0.0 
0.0 0.0 -8.687609488834e-04 
-8.934000445298e-04 1.842629385947e-04 0.0 
1.842629385947e-04 5.848617048582e-03 0.0 
0.0 0.0 -8.891947744737e-04 
-3.538517022684e-04 1.968822651903e-04 0.0 
1.968822651903e-04 2.082939193951e-03 0.0 
0.0 0.0 -3.496852078947e-04 
-1.730179310378e-04 3.799515299484e-05 0.0 
3.799515299484e-05 9.814996314958e-04 0.0 
0.0 0.0 -1.610244214183e-04 
-6.605957920443e-04 2.008091445531e-04 0.0 
2.008091445531e-04 4.241664916870e-03 0.0 
0.0 0.0 -6.594106982652e-04 
-7.382500259091e-04 -1.861061436275e-04 0.0 
-1.861061436275e-04 4.870305797290e-03 0.0 
0.0 0.0 -7.376142925499e-04 
-6.935826622016e-04 -1.974963449897e-04 0.0 
-1.974963449897e-04 4.557561403420e-03 0.0 
0.0 0.0 -6.931905564144e-04 
-1.927200046455e-04 1.907407866213e-04 0.0 
1.907407866213e-04 9.362068114562e-04 0.0 
0.0 0.0 -1.839988823918e-04 
-8.553897316391e-04 7.952460625499e-05 0.0 
7.952460625499e-05 5.374666730048e-03 0.0 
0.0 0.0 -8.462285223656e-04 
-3.012637912477e-04 -1.970081127766e-04 0.0 
-1.970081127766e-04 1.826424334369e-03 0.0 
0.0 0.0 -2.972104253142e-04 
-4.320291499202e-04 1.924639625951e-04 0.0 
1.924639625951e-04 2.652618994648e-03 0.0 
0.0 0.0 -4.314049239902e-04 
-1.341153861134e-03 -1.132581838998e-07 0.0 
-1.132581838998e-07 8.854160665758e-03 0.0 
0.0 0.0 -1.341153861134e-03 
-9.735832254612e-04 -2.032109106710e-04 0.0 
-2.032109106710e-04 6.501326132665e-03 0.0 
0.0 0.0 -9.717687626070e-04 
-8.038658590280e-04 1.841151985619e-04 0.0 
1.841151985619e-04 5.090192522503e-03 0.0 
0.0 0.0 -7.790007367612e-04 
-2.263569738136e-04 1.412068244863e-04 0.0 
1.412068244863e-04 1.378581130634e-03 0.0 
0.0 0.0 -2.176483604987e-04 
-7.148393686400e-04 1.885377903276e-04 0.0 
1.885377903276e-04 4.617805235716e-03 0.0 
0.0 0.0 -7.126719623954e-04 
-6.583475203356e-04 -2.044658051722e-04 0.0 
-2.044658051722e-04 4.303955154821e-03 0.0 
0.0 0.0 -6.569982659716e-04 
-8.980808506785e-04 -1.936520147712e-04 0.0 
-1.936520147712e-04 5.958242186783e-03 0.0 
0.0 0.0 -8.940630110299e-04 
-1.327874025612e-03 4.012442722696e-05 0.0 
4.012442722696e-05 9.098102111315e-03 0.0 
0.0 0.0 -1.323832587333e-03 
-7.403554818969e-04 1.844120078152e-04 0.0 
1.844120078152e-04 4.792048619543e-03 0.0 
0.0 0.0 -7.366500567795e-04 
-8.545868996671e-04 -1.887615407860e-04 0.0 
-1.887615407860e-04 5.662533660862e-03 0.0 
0.0 0.0 -8.513774089097e-04 
-6.818667097911e-04 1.958766515699e-04 0.0 
1.958766515699e-04 4.409131248910e-03 0.0 
0.0 0.0 -6.837695253815e-04 
-1.105187862003e-03 1.994006530663e-04 0.0 
1.994006530663e-04 7.356411437885e-03 0.0 
0.0 0.0 -1.105258581891e-03 
-8.686753316719e-04 1.961023377173e-04 0.0 
1.961023377173e-04 5.708119835605e-03 0.0 
0.0 0.0 -8.691653677727e-04 
-1.313443091824e-03 -8.681857321597e-06 0.0 
-8.681857321597e-06 9.107589922997e-03 0.0 
0.0 0.0 -1.322174839672e-03 
-1.340103718614e-03 2.441833226492e-06 0.0 
2.441833226492e-06 8.842216911178e-03 0.0 
0.0 0.0 -1.340103718614e-03 
-1.341028575724e-03 -6.698781680323e-06 0.0 
-6.698781680323e-06 8.834191149721e-03 0.0 
0.0 0.0 -1.341028575724e-03 
-1.338044909071e-03 -9.989699658948e-07 0.0 
-9.989699658948e-07 8.789076720715e-03 0.0 
0.0 0.0 -1.338044909071e-03 
-9.278953530001e-04 1.830493215192e-04 0.0 
1.830493215192e-04 6.094694774967e-03 0.0 
0.0 0.0 -9.244680137507e-04 
-1.104382085207e-03 -1.844352853963e-04 0.0 
-1.844352853963e-04 7.413030585339e-03 0.0 
0.0 0.0 -1.103002250422e-03 
-1.150866030357e-03 2.083921581833e-04 0.0 
2.083921581833e-04 7.696092280171e-03 0.0 
0.0 0.0 -1.155914796392e-03 
-6.164628833105e-04 2.031183267964e-04 0.0 
2.031183267964e-04 3.927882065764e-03 0.0 
0.0 0.0 -6.147330147620e-04 
-5.911685103850e-04 1.997096464783e-04 0.0 
1.997096464783e-04 3.740736628945e-03 0.0 
0.0 0.0 -5.872917534094e-04 
-6.414807696813e-04 -2.006380451048e-04 0.0 
-2.006380451048e-04 4.218783169969e-03 0.0 
0.0 0.0 -6.436934073013e-04 
-1.134641282245e-03 -2.006695635977e-04 0.0 
-2.006695635977e-04 7.623716292157e-03 0.0 
0.0 0.0 -1.131852245309e-03 
-1.324500994006e-03 -4.966854021231e-06 0.0 
-4.966854021231e-06 9.095768239117e-03 0.0 
0.0 0.0 -1.322440284024e-03 
-1.140227253108e-03 1.951224764733e-04 0.0 
1.951224764733e-04 7.603009729401e-03 0.0 
0.0 0.0 -1.141180801552e-03 
-9.080174246261e-04 -2.037707256769e-04 0.0 
-2.037707256769e-04 6.042971740774e-03 0.0 
0.0 0.0 -9.063345769726e-04 
-1.140612365318e-03 -1.825914620367e-04 0.0 
-1.825914620367e-04 7.661221724928e-03 0.0 
0.0 0.0 -1.138864741757e-03 
-9.895587303989e-04 -1.909996709669e-04 0.0 
-1.909996709669e-04 6.631323534056e-03 0.0 
0.0 0.0 -9.903545940741e-04 
-7.055944550106e-04 1.841650505337e-04 0.0 
1.841650505337e-04 4.559451876543e-03 0.0 
0.0 0.0 -7.049739924763e-04 
-6.005001548623e-04 1.754924819423e-04 0.0 
1.754924819423e-04 3.808564972462e-03 0.0 
0.0 0.0 -5.967387615352e-04 
-3.335508235583e-04 1.892926381390e-04 0.0 
1.892926381390e-04 1.961394351476e-03 0.0 
0.0 0.0 -3.333553686509e-04 
-1.287482303742e-03 9.400486473721e-05 0.0 
9.400486473721e-05 8.494651886701e-03 0.0 
0.0 0.0 -1.282213402295e-03 
-5.782088747012e-04 1.983174571352e-04 0.0 
1.983174571352e-04 3.685190236892e-03 0.0 
0.0 0.0 -5.792479259103e-04 
-1.207490032650e-03 -9.511693616602e-06 0.0 
-9.511693616602e-06 8.106813054446e-03 0.0 
0.0 0.0 -1.230767059693e-03 
-6.442432414831e-04 1.944206160730e-04 0.0 
1.944206160730e-04 4.149320661563e-03 0.0 
0.0 0.0 -6.465396845166e-04 
-4.198574354174e-04 -1.824962637456e-04 0.0 
-1.824962637456e-04 2.680260699037e-03 0.0 
0.0 0.0 -4.222915044375e-04 
-1.273602229187e-03 4.336342551855e-05 0.0 
4.336342551855e-05 8.460076842639e-03 0.0 
0.0 0.0 -1.284312900220e-03 
-4.687866799152e-04 1.866875104872e-04 0.0 
1.866875104872e-04 2.893520146276e-03 0.0 
0.0 0.0 -4.669824892858e-04 
-1.341987455608e-03 1.886578995432e-06 0.0 
1.886578995432e-06 8.838362897947e-03 0.0 
0.0 0.0 -1.341987455608e-03 
-1.296411374061e-03 -1.418949515449e-05 0.0 
-1.418949515449e-05 8.470243795444e-03 0.0 
0.0 0.0 -1.282654109251e-03 
-8.495078228820e-04 1.843107655011e-04 0.0 
1.843107655011e-04 5.547072023185e-03 0.0 
0.0 0.0 -8.462542048450e-04 
-9.255048927816e-05 -2.197953205394e-06 0.0 
-2.197953205394e-06 3.085086574748e-04 0.0 
0.0 0.0 -9.255350065570e-05 
-1.340954708391e-03 7.835804962273e-06 0.0 
7.835804962273e-06 8.838032502772e-03 0.0 
0.0 0.0 -1.340954708391e-03 
-1.280816053348e-03 -2.230055523915e-05 0.0 
-2.230055523915e-05 8.460310632468e-03 0.0 
0.0 0.0 -1.284661450484e-03 
-4.260944399251e-04 1.999732540104e-04 0.0 
1.999732540104e-04 2.608418284960e-03 0.0 
0.0 0.0 -4.253660281670e-04 
-9.365021749047e-04 -1.977008719716e-04 0.0 
-1.977008719716e-04 6.250684752616e-03 0.0 
0.0 0.0 -9.353130867196e-04 
-1.333005063589e-03 4.344781137132e-06 0.0 
4.344781137132e-06 9.114671664273e-03 0.0 
0.0 0.0 -1.323014926434e-03 
0.0 0.0 0.0 
0.0 0.0 0.0 
0.0 0.0 0.0 
-6.428281947913e-04 1.843362204219e-04 0.0 
1.843362204219e-04 4.123262309836e-03 0.0 
0.0 0.0 -6.425506931502e-04 
-8.851411761515e-04 1.851869312967e-04 0.0 
1.851869312967e-04 5.794563189636e-03 0.0 
0.0 0.0 -8.816033652580e-04 
-8.134395165507e-04 1.874953040299e-04 0.0 
1.874953040299e-04 5.300126487808e-03 0.0 
0.0 0.0 -8.109139232486e-04 
-8.225202755535e-04 1.881518984197e-04 0.0 
1.881518984197e-04 5.356080317152e-03 0.0 
0.0 0.0 -8.186613860469e-04 
-3.691769062860e-04 1.916815065321e-04 0.0 
1.916815065321e-04 2.210779207524e-03 0.0 
0.0 0.0 -3.689119447714e-04 
-1.341360672448e-03 -1.189443720158e-06 0.0 
-1.189443720158e-06 8.827889647213e-03 0.0 
0.0 0.0 -1.341360672448e-03 
-6.134329689946e-04 -1.902359328296e-04 0.0 
-1.902359328296e-04 4.002222739952e-03 0.0 
0.0 0.0 -6.123778370825e-04 
-2.202070906779e-04 -1.755376406008e-04 0.0 
-1.755376406008e-04 1.255756531969e-03 0.0 
0.0 0.0 -2.173296945085e-04 
-1.279142293538e-03 5.964349300567e-05 0.0 
5.964349300567e-05 8.727032320364e-03 0.0 
0.0 0.0 -1.272354826527e-03 
-1.022272037248e-04 4.922820238481e-06 0.0 
4.922820238481e-06 5.965869288915e-04 0.0 
0.0 0.0 -1.019437782286e-04 
-6.710661406479e-04 1.855097177597e-04 0.0 
1.855097177597e-04 4.303579593448e-03 0.0 
0.0 0.0 -6.678899790657e-04 
-2.300720776572e-04 1.212201240606e-05 0.0 
1.212201240606e-05 1.125450156733e-03 0.0 
0.0 0.0 -2.365401520142e-04 
-7.086437154644e-04 1.853452857980e-04 0.0 
1.853452857980e-04 4.588815352963e-03 0.0 
0.0 0.0 -7.094882865497e-04 
-1.317968381893e-03 -7.788542654235e-06 0.0 
-7.788542654235e-06 9.086616382280e-03 0.0 
0.0 0.0 -1.321823097425e-03 
-1.341255375116e-03 6.592408687492e-06 0.0 
6.592408687492e-06 8.854311445215e-03 0.0 
0.0 0.0 -1.341255375116e-03 
-8.673920198820e-04 1.847071888206e-04 0.0 
1.847071888206e-04 5.656037287956e-03 0.0 
0.0 0.0 -8.613793510407e-04 
-1.969643249741e-04 -2.643595705587e-05 0.0 
-2.643595705587e-05 7.486662135304e-04 0.0 
0.0 0.0 -1.793976806842e-04 
-1.826266447966e-04 1.955672024509e-04 0.0 
1.955672024509e-04 9.200601904339e-04 0.0 
0.0 0.0 -1.838036673156e-04 
-2.361898229358e-04 4.404631865774e-05 0.0 
4.404631865774e-05 1.375633081646e-03 0.0 
0.0 0.0 -2.179364692381e-04 
-1.125162068454e-03 -1.979567048055e-04 0.0 
-1.979567048055e-04 7.560228932207e-03 0.0 
0.0 0.0 -1.121833217354e-03 
-7.703836607526e-04 2.904011669621e-05 0.0 
2.904011669621e-05 5.271332940567e-03 0.0 
0.0 0.0 -7.704300227928e-04 
-8.168157235620e-04 -2.113983721696e-04 0.0 
-2.113983721696e-04 5.355765378531e-03 0.0 
0.0 0.0 -8.109332722942e-04 
-1.342502730507e-03 5.716067361742e-06 0.0 
5.716067361742e-06 8.856705817959e-03 0.0 
0.0 0.0 -1.342502730507e-03 
-7.906151483404e-04 -4.272528123306e-05 0.0 
-4.272528123306e-05 5.268742702063e-03 0.0 
0.0 0.0 -7.720444664677e-04 
-1.332977220355e-03 1.682402604841e-05 0.0 
1.682402604841e-05 9.104707937730e-03 0.0 
0.0 0.0 -1.322852565091e-03 
-1.019613459442e-03 1.919320256201e-04 0.0 
1.919320256201e-04 6.758525883042e-03 0.0 
0.0 0.0 -1.020998643257e-03 
-8.942284646778e-04 2.014665993212e-04 0.0 
2.014665993212e-04 5.869620442183e-03 0.0 
0.0 0.0 -8.907448815977e-04 
-4.710891496910e-04 1.816013443134e-04 0.0 
1.816013443134e-04 2.782078830397e-03 0.0 
0.0 0.0 -4.477608806526e-04 
-9.397641453592e-04 1.905534962229e-04 0.0 
1.905534962229e-04 6.187842394577e-03 0.0 
0.0 0.0 -9.378661514434e-04 
-2.865699781096e-04 -1.698301048615e-04 0.0 
-1.698301048615e-04 1.797113955835e-03 0.0 
0.0 0.0 -2.938158648993e-04 
-1.340754991027e-03 -4.752011562199e-06 0.0 
-4.752011562199e-06 8.857728678543e-03 0.0 
0.0 0.0 -1.340754991027e-03 
-1.339984467612e-03 2.292869316744e-05 0.0 
2.292869316744e-05 8.807369741469e-03 0.0 
0.0 0.0 -1.339984467612e-03 
-1.340417744004e-03 -2.214851180424e-05 0.0 
-2.214851180424e-05 8.828867002772e-03 0.0 
0.0 0.0 -1.340417744004e-03 
-8.660623943402e-04 -1.943286950290e-04 0.0 
-1.943286950290e-04 5.772294168294e-03 0.0 
0.0 0.0 -8.666500598261e-04 
-6.034856013850e-04 -2.033011263198e-04 0.0 
-2.033011263198e-04 3.957936150372e-03 0.0 
0.0 0.0 -6.062238016986e-04 
-7.026976706329e-04 -1.815126947841e-04 0.0 
-1.815126947841e-04 4.627441659305e-03 0.0 
0.0 0.0 -7.021192356133e-04 
-8.976477462119e-04 1.951708788181e-04 0.0 
1.951708788181e-04 5.904473226514e-03 0.0 
0.0 0.0 -8.981573260837e-04 
-1.339627896631e-03 3.612108462024e-06 0.0 
3.612108462024e-06 8.853033835610e-03 0.0 
0.0 0.0 -1.339627896631e-03 
-4.295950600907e-04 -1.875952713055e-04 0.0 
-1.875952713055e-04 2.717501457664e-03 0.0 
0.0 0.0 -4.287941800800e-04 
-4.990450639494e-04 1.934485922333e-04 0.0 
1.934485922333e-04 3.125390132284e-03 0.0 
0.0 0.0 -4.991860405784e-04 
-5.285799076226e-04 1.852384275300e-04 0.0 
1.852384275300e-04 3.322934541718e-03 0.0 
0.0 0.0 -5.272458293186e-04 
-9.298142287186e-04 1.923659803105e-04 0.0 
1.923659803105e-04 6.128652270364e-03 0.0 
0.0 0.0 -9.279583942086e-04 
-1.339074735525e-03 -2.462351465068e-05 0.0 
-2.462351465068e-05 9.096799452257e-03 0.0 
0.0 0.0 -1.323537156312e-03 
-1.500618556416e-04 1.939391886343e-05 0.0 
1.939391886343e-05 9.791726158994e-04 0.0 
0.0 0.0 -1.598254822437e-04 
-1.340775759057e-03 1.534669228245e-06 0.0 
1.534669228245e-06 8.827931576809e-03 0.0 
0.0 0.0 -1.340775759057e-03 
-4.918224965486e-04 1.956179793808e-04 0.0 
1.956179793808e-04 3.063033243647e-03 0.0 
0.0 0.0 -4.905422085546e-04 
-1.342877878941e-03 2.842270727739e-06 0.0 
2.842270727739e-06 8.853936486152e-03 0.0 
0.0 0.0 -1.342877878941e-03 
-1.156184618631e-03 -1.885719150537e-04 0.0 
-1.885719150537e-04 7.774113329411e-03 0.0 
0.0 0.0 -1.152765850879e-03 
-4.494164570379e-05 1.000468586638e-06 0.0 
1.000468586638e-06 2.551504228595e-04 0.0 
0.0 0.0 -4.576175375704e-05 
-6.699730055747e-04 1.872361539571e-04 0.0 
1.872361539571e-04 4.302808495342e-03 0.0 
0.0 0.0 -6.690559060524e-04 
-1.145839910847e-03 -1.986902778567e-04 0.0 
-1.986902778567e-04 7.714207575352e-03 0.0 
0.0 0.0 -1.146019594970e-03 
-1.341220131281e-03 -2.365934969506e-06 0.0 
-2.365934969506e-06 8.847703773833e-03 0.0 
0.0 0.0 -1.341220131281e-03 
-9.256050002818e-04 -1.923147081747e-04 0.0 
-1.923147081747e-04 6.153846390776e-03 0.0 
0.0 0.0 -9.220067723808e-04 
-1.050351148173e-03 1.970429468761e-04 0.0 
1.970429468761e-04 6.958336458839e-03 0.0 
0.0 0.0 -1.049000704964e-03 
-2.748725954193e-04 1.931705696150e-04 0.0 
1.931705696150e-04 1.524979906539e-03 0.0 
0.0 0.0 -2.717413095444e-04 
-1.208683908170e-03 6.230383996376e-06 0.0 
6.230383996376e-06 8.102506712124e-03 0.0 
0.0 0.0 -1.228682347183e-03 
-5.192327213783e-04 1.909614988804e-04 0.0 
1.909614988804e-04 3.260562468968e-03 0.0 
0.0 0.0 -5.184025592846e-04 
-5.248109421634e-04 -1.803408309234e-04 0.0 
-1.803408309234e-04 3.388681347671e-03 0.0 
0.0 0.0 -5.242929400402e-04 
-1.101238409147e-04 1.624386361106e-05 0.0 
1.624386361106e-05 6.254833965552e-04 0.0 
0.0 0.0 -1.042847928631e-04 
-1.341079611575e-03 1.268157797412e-06 0.0 
1.268157797412e-06 8.837798036775e-03 0.0 
0.0 0.0 -1.341079611575e-03 
-3.602734137550e-04 -1.850324683020e-04 0.0 
-1.850324683020e-04 2.230825920775e-03 0.0 
0.0 0.0 -3.564518745397e-04 
-1.109985979917e-03 -2.052345426402e-04 0.0 
-2.052345426402e-04 7.476883123942e-03 0.0 
0.0 0.0 -1.110501492391e-03 
-8.524872272040e-04 -2.315298743520e-04 0.0 
-2.315298743520e-04 5.680178330686e-03 0.0 
0.0 0.0 -8.555322119248e-04 
-4.402194268268e-04 -1.870881911232e-04 0.0 
-1.870881911232e-04 2.811358430466e-03 0.0 
0.0 0.0 -4.411586999297e-04 
-4.975783628974e-04 -1.914562144177e-04 0.0 
-1.914562144177e-04 3.191209784275e-03 0.0 
0.0 0.0 -4.964677435772e-04 
-8.901378245668e-04 -1.873561009025e-04 0.0 
-1.873561009025e-04 5.908561179355e-03 0.0 
0.0 0.0 -8.867075537039e-04 
-1.342259935407e-03 -1.718040054209e-05 0.0 
-1.718040054209e-05 8.855152000548e-03 0.0 
0.0 0.0 -1.342259935407e-03 
-6.396775884645e-04 1.886079041491e-04 0.0 
1.886079041491e-04 4.098241029371e-03 0.0 
0.0 0.0 -6.378868265889e-04 
-9.691742763952e-04 -2.019742400055e-04 0.0 
-2.019742400055e-04 6.483311990656e-03 0.0 
0.0 0.0 -9.693340058278e-04 
-8.041747505048e-04 1.863000233206e-04 0.0 
1.863000233206e-04 5.244246416890e-03 0.0 
0.0 0.0 -8.030799362305e-04 
-8.818155169255e-04 -1.886653253937e-04 0.0 
-1.886653253937e-04 5.877887840043e-03 0.0 
0.0 0.0 -8.811160271665e-04 
-5.320000478192e-04 -1.863752187475e-04 0.0 
-1.863752187475e-04 3.439757636019e-03 0.0 
0.0 0.0 -5.326451291888e-04 
-9.026994633866e-04 -1.977891108899e-04 0.0 
-1.977891108899e-04 6.021154653626e-03 0.0 
0.0 0.0 -9.031726653527e-04 
-7.735880944808e-04 -1.868485495488e-04 0.0 
-1.868485495488e-04 5.115539884918e-03 0.0 
0.0 0.0 -7.729461360948e-04 
-9.981479559481e-04 -1.963805187541e-04 0.0 
-1.963805187541e-04 6.683666354433e-03 0.0 
0.0 0.0 -9.982497011217e-04 
-1.004413229733e-03 1.912127845263e-04 0.0 
1.912127845263e-04 6.639387752267e-03 0.0 
0.0 0.0 -1.003134534203e-03 
-7.686187780918e-04 1.863311149204e-04 0.0 
1.863311149204e-04 4.996748422870e-03 0.0 
0.0 0.0 -7.676694601592e-04 
-6.531466934911e-04 1.957558291538e-04 0.0 
1.957558291538e-04 4.207071568820e-03 0.0 
0.0 0.0 -6.551190094499e-04 
-4.645380568116e-04 -1.828907984748e-04 0.0 
-1.828907984748e-04 2.961721166152e-03 0.0 
0.0 0.0 -4.640097282922e-04 
-6.064572421459e-04 1.910285411047e-04 0.0 
1.910285411047e-04 3.887705448155e-03 0.0 
0.0 0.0 -6.091269606258e-04 
-1.019361563877e-03 -1.903039724258e-04 0.0 
-1.903039724258e-04 6.831244999586e-03 0.0 
0.0 0.0 -1.018204129641e-03 
-8.373723247003e-04 1.874174193606e-04 0.0 
1.874174193606e-04 5.476720692713e-03 0.0 
0.0 0.0 -8.365169925761e-04 
-1.320520432489e-03 -2.623800515076e-05 0.0 
-2.623800515076e-05 9.107403832922e-03 0.0 
0.0 0.0 -1.321929620191e-03 
-1.169515206127e-03 -1.894067828278e-04 0.0 
-1.894067828278e-04 7.912550107300e-03 0.0 
0.0 0.0 -1.174325249119e-03 
-4.054788487746e-04 1.902250889252e-04 0.0 
1.902250889252e-04 2.477005508034e-03 0.0 
0.0 0.0 -4.069995479128e-04 
-1.341047338368e-03 6.114097105094e-06 0.0 
6.114097105094e-06 8.810414551587e-03 0.0 
0.0 0.0 -1.341047338368e-03 
-1.246442799579e-03 -7.048165356567e-06 0.0 
-7.048165356567e-06 8.701531217890e-03 0.0 
0.0 0.0 -1.266414110344e-03 
-7.243231333997e-04 1.855217411942e-04 0.0 
1.855217411942e-04 4.688371918965e-03 0.0 
0.0 0.0 -7.237787631415e-04 
-9.766466055395e-05 -9.527665079749e-06 0.0 
-9.527665079749e-06 3.256739367155e-04 0.0 
0.0 0.0 -9.771826121210e-05 
-1.305508824941e-03 3.853404293041e-06 0.0 
3.853404293041e-06 9.105182867572e-03 0.0 
0.0 0.0 -1.323469717371e-03 
-1.171509388478e-03 -1.678154851062e-04 0.0 
-1.678154851062e-04 7.861802012676e-03 0.0 
0.0 0.0 -1.167157861819e-03 
-4.521694521811e-04 2.012915858521e-04 0.0 
2.012915858521e-04 2.804008720375e-03 0.0 
0.0 0.0 -4.535238702637e-04 
-1.341709311524e-03 -1.310979986681e-05 0.0 
-1.310979986681e-05 8.829628018658e-03 0.0 
0.0 0.0 -1.341709311524e-03 
-9.320413057689e-04 -1.962162649741e-04 0.0 
-1.962162649741e-04 6.231458751848e-03 0.0 
0.0 0.0 -9.325599965574e-04 
-6.268046795761e-04 1.808345467381e-04 0.0 
1.808345467381e-04 3.989844982223e-03 0.0 
0.0 0.0 -6.229492605273e-04 
-8.398341044078e-04 1.726875732327e-04 0.0 
1.726875732327e-04 5.514357495571e-03 0.0 
0.0 0.0 -8.408860858065e-04 
-8.060358487985e-04 -1.972435935582e-04 0.0 
-1.972435935582e-04 5.343400692596e-03 0.0 
0.0 0.0 -8.054665293395e-04 
-8.004419744920e-04 -1.952463938328e-04 0.0 
-1.952463938328e-04 5.314426112526e-03 0.0 
0.0 0.0 -8.008683130455e-04 
-9.182717976000e-04 -1.896493216881e-04 0.0 
-1.896493216881e-04 6.134019344384e-03 0.0 
0.0 0.0 -9.181754741429e-04 
-9.700343521080e-04 -1.978951788456e-04 0.0 
-1.978951788456e-04 6.510189924062e-03 0.0 
0.0 0.0 -9.721028620036e-04 
-6.977402691426e-04 1.822093202730e-04 0.0 
1.822093202730e-04 4.487185732323e-03 0.0 
0.0 0.0 -6.945885048819e-04 
-1.040005538332e-03 1.990021927622e-04 0.0 
1.990021927622e-04 6.900874594821e-03 0.0 
0.0 0.0 -1.039409037654e-03 
-8.975501320031e-04 -2.506583898403e-05 0.0 
-2.506583898403e-05 6.020256954512e-03 0.0 
0.0 0.0 -8.839498032872e-04 
-6.495260709226e-04 -1.944699442281e-04 0.0 
-1.944699442281e-04 4.277277504375e-03 0.0 
0.0 0.0 -6.521967345917e-04 
-9.682052284533e-04 1.865606736300e-04 0.0 
1.865606736300e-04 6.381518702333e-03 0.0 
0.0 0.0 -9.664699797409e-04 
-5.143750252184e-04 -1.778295084177e-04 0.0 
-1.778295084177e-04 3.324024151635e-03 0.0 
0.0 0.0 -5.155438399970e-04 
-9.088890292892e-04 1.918794185101e-04 0.0 
1.918794185101e-04 5.978978740211e-03 0.0 
0.0 0.0 -9.093720595694e-04 
-5.184917320349e-05 -5.023579163688e-06 0.0 
-5.023579163688e-06 2.615427770040e-04 0.0 
0.0 0.0 -4.585464485956e-05 
-5.019069719293e-04 -1.730390890633e-04 0.0 
-1.730390890633e-04 3.221983585288e-03 0.0 
0.0 0.0 -4.997308803768e-04 
-4.873333685601e-04 -1.811613926647e-04 0.0 
-1.811613926647e-04 3.131270652529e-03 0.0 
0.0 0.0 -4.875765080988e-04 
-7.115036268068e-04 1.928847685253e-04 0.0 
1.928847685253e-04 4.611615726792e-03 0.0 
0.0 0.0 -7.126562430122e-04 
-7.596608402965e-04 1.884583179830e-04 0.0 
1.884583179830e-04 4.937228765552e-03 0.0 
0.0 0.0 -7.595228636782e-04 
-9.346957466835e-04 1.973754267299e-04 0.0 
1.973754267299e-04 6.167461615292e-03 0.0 
0.0 0.0 -9.350600278798e-04 
-8.902631525084e-04 -1.867681813361e-04 0.0 
-1.867681813361e-04 5.973122971149e-03 0.0 
0.0 0.0 -8.962969588583e-04 
-4.491438895741e-04 -1.869760147925e-04 0.0 
-1.869760147925e-04 2.875737731611e-03 0.0 
0.0 0.0 -4.505554202764e-04 
-1.341827844788e-03 5.881319465548e-06 0.0 
5.881319465548e-06 8.853598786661e-03 0.0 
0.0 0.0 -1.341827844788e-03 
-8.819043585380e-04 -1.894669265129e-04 0.0 
-1.894669265129e-04 5.856756576790e-03 0.0 
0.0 0.0 -8.789935771182e-04 
-7.395748600622e-04 1.939731217691e-04 0.0 
1.939731217691e-04 4.808423671935e-03 0.0 
0.0 0.0 -7.413896480605e-04 
-8.456344442179e-04 -1.866159444843e-04 0.0 
-1.866159444843e-04 5.609212261315e-03 0.0 
0.0 0.0 -8.436662038215e-04 
-7.098621749807e-04 -1.956105885315e-04 0.0 
-1.956105885315e-04 4.679646247114e-03 0.0 
0.0 0.0 -7.098625721847e-04 
0.0 0.0 0.0 
0.0 0.0 0.0 
0.0 0.0 0.0 
-8.787853985480e-04 -1.870345829221e-04 0.0 
-1.870345829221e-04 5.815290073788e-03 0.0 
0.0 0.0 -8.733545218784e-04 
-6.014622352257e-04 2.088026922776e-04 0.0 
2.088026922776e-04 3.826503758406e-03 0.0 
0.0 0.0 -5.956302995864e-04 
0.0 0.0 0.0 
0.0 0.0 0.0 
0.0 0.0 0.0 
-7.014361857610e-04 2.031970023559e-04 0.0 
2.031970023559e-04 4.544280328863e-03 0.0 
0.0 0.0 -7.041275119738e-04 
-1.001578329479e-03 1.949348082253e-04 0.0 
1.949348082253e-04 6.625301000394e-03 0.0 
0.0 0.0 -1.001254648526e-03 
-1.145850176714e-03 1.952473198253e-04 0.0 
1.952473198253e-04 7.640587141445e-03 0.0 
0.0 0.0 -1.146946825052e-03 
-8.534899184109e-04 -1.900750659177e-04 0.0 
-1.900750659177e-04 5.682294137051e-03 0.0 
0.0 0.0 -8.532270185794e-04 
-8.843005196868e-04 1.891738523445e-04 0.0 
1.891738523445e-04 5.802847869315e-03 0.0 
0.0 0.0 -8.841559964380e-04 
-7.498668879057e-04 -1.500423199849e-04 0.0 
-1.500423199849e-04 4.956000169468e-03 0.0 
0.0 0.0 -7.495231765994e-04 
-7.499562203702e-04 -7.649065135971e-06 0.0 
-7.649065135971e-06 4.585920683461e-03 0.0 
0.0 0.0 -7.312625299844e-04 
-1.259814766287e-03 -2.251942805194e-05 0.0 
-2.251942805194e-05 8.482919934012e-03 0.0 
0.0 0.0 -1.286111585339e-03 
-8.096577215198e-04 -1.889624871779e-04 0.0 
-1.889624871779e-04 5.361431513159e-03 0.0 
0.0 0.0 -8.082854548548e-04 
-2.601123029567e-05 -8.443429959340e-06 0.0 
-8.443429959340e-06 2.242861713756e-04 0.0 
0.0 0.0 -4.535587742227e-05 
-2.679801948708e-04 -1.979252069442e-04 0.0 
-1.979252069442e-04 1.544873028567e-03 0.0 
0.0 0.0 -2.569639750501e-04 
-9.553383276929e-05 -1.682092997355e-05 0.0 
-1.682092997355e-05 3.188442541892e-04 0.0 
0.0 0.0 -9.570446632282e-05 
-4.265759374031e-04 -1.588061750624e-04 0.0 
-1.588061750624e-04 2.743578014402e-03 0.0 
0.0 0.0 -4.284133232656e-04 
-1.136810990824e-03 -2.050532392671e-04 0.0 
-2.050532392671e-04 7.627868260152e-03 0.0 
0.0 0.0 -1.134523071099e-03 
-1.147232605264e-03 -1.988471843747e-04 0.0 
-1.988471843747e-04 7.696346442353e-03 0.0 
0.0 0.0 -1.144649651339e-03 
-1.090721102207e-03 1.927119379258e-04 0.0 
1.927119379258e-04 7.225314130525e-03 0.0 
0.0 0.0 -1.087427768671e-03 
-4.794185500659e-04 -1.949320750669e-04 0.0 
-1.949320750669e-04 3.096205477872e-03 0.0 
0.0 0.0 -4.827803379924e-04 
-9.064466102036e-04 -1.951694302264e-04 0.0 
-1.951694302264e-04 6.052913189119e-03 0.0 
0.0 0.0 -9.063168105749e-04 
-1.135504702689e-03 1.907792817820e-04 0.0 
1.907792817820e-04 7.600364314815e-03 0.0 
0.0 0.0 -1.142106164841e-03 
-2.788698608245e-04 -1.715069773271e-04 0.0 
-1.715069773271e-04 1.706769297964e-03 0.0 
0.0 0.0 -2.821198837983e-04 
-5.962549057611e-04 -2.242943986441e-04 0.0 
-2.242943986441e-04 3.850260609285e-03 0.0 
0.0 0.0 -5.942115541274e-04 
-4.821057558984e-04 1.938812463927e-04 0.0 
1.938812463927e-04 3.093517382699e-03 0.0 
0.0 0.0 -4.980019828625e-04 
-1.334956243324e-03 1.593537991863e-05 0.0 
1.593537991863e-05 9.100113722888e-03 0.0 
0.0 0.0 -1.322396863610e-03 
-1.341641872583e-03 -1.598087186617e-05 0.0 
-1.598087186617e-05 8.845353034364e-03 0.0 
0.0 0.0 -1.341641872583e-03 
-6.679494605951e-04 -1.695756001761e-04 0.0 
-1.695756001761e-04 4.277020538631e-03 0.0 
0.0 0.0 -6.580288049735e-04 
-7.324961324261e-04 -1.951613493016e-04 0.0 
-1.951613493016e-04 4.877737690436e-03 0.0 
0.0 0.0 -7.385580096348e-04 
-8.320090833607e-04 1.945702263430e-04 0.0 
1.945702263430e-04 5.445258436908e-03 0.0 
0.0 0.0 -8.323457052078e-04 
-1.163041303964e-03 1.778772476614e-04 0.0 
1.778772476614e-04 7.881722024609e-03 0.0 
0.0 0.0 -1.177278300149e-03 
-2.899237030429e-04 1.996200503921e-04 0.0 
1.996200503921e-04 1.630038568431e-03 0.0 
0.0 0.0 -2.880367495917e-04 
-1.101530990218e-03 1.937554819911e-04 0.0 
1.937554819911e-04 7.342981690998e-03 0.0 
0.0 0.0 -1.104707344597e-03 
-1.602377275385e-04 3.299975488627e-05 0.0 
3.299975488627e-05 1.021185104458e-03 0.0 
0.0 0.0 -1.612556504808e-04 
-6.771993620365e-04 -1.961964403489e-04 0.0 
-1.961964403489e-04 4.422374575330e-03 0.0 
0.0 0.0 -6.724657308136e-04 
-7.463531003114e-04 -1.974750822578e-04 0.0 
-1.974750822578e-04 4.938620865557e-03 0.0 
0.0 0.0 -7.470513223636e-04 
-9.733051936618e-05 1.431354683527e-05 0.0 
1.431354683527e-05 3.247181541799e-04 0.0 
0.0 0.0 -9.745184349161e-05 
-6.107893375519e-04 1.961955655377e-04 0.0 
1.961955655377e-04 4.041501780347e-03 0.0 
0.0 0.0 -6.267591816330e-04 
-1.179150888516e-03 1.722766776771e-04 0.0 
1.722766776771e-04 7.845621701176e-03 0.0 
0.0 0.0 -1.176862138969e-03 
-5.380435756070e-05 -4.751466869097e-06 0.0 
-4.751466869097e-06 2.532858114077e-04 0.0 
0.0 0.0 -4.590328595372e-05 
-7.312532489837e-04 1.362386611746e-05 0.0 
1.362386611746e-05 4.573834094121e-03 0.0 
0.0 0.0 -7.322753781719e-04 
-7.047922472484e-04 1.123922026654e-06 0.0 
1.123922026654e-06 4.847576831705e-03 0.0 
0.0 0.0 -7.130472889423e-04 
-9.547380700052e-04 -1.945366017599e-04 0.0 
-1.945366017599e-04 6.390005998802e-03 0.0 
0.0 0.0 -9.552000144736e-04 
-4.877659469443e-04 -1.909239420502e-04 0.0 
-1.909239420502e-04 3.137535928941e-03 0.0 
0.0 0.0 -4.943513106837e-04 
-4.803168808599e-04 1.981666947026e-04 0.0 
1.981666947026e-04 2.999843219209e-03 0.0 
0.0 0.0 -4.817493388239e-04 
-3.413576717745e-04 -1.696251700452e-04 0.0 
-1.696251700452e-04 2.103971295735e-03 0.0 
0.0 0.0 -3.398054741319e-04 
-1.177842708252e-03 1.745516882077e-04 0.0 
1.745516882077e-04 7.866046843566e-03 0.0 
0.0 0.0 -1.180895453064e-03 
-1.288113258455e-03 -7.910099866469e-06 0.0 
-7.910099866469e-06 8.468043511099e-03 0.0 
0.0 0.0 -1.286194385238e-03 
-1.101033919243e-03 -1.960948394901e-04 0.0 
-1.960948394901e-04 7.394725323298e-03 0.0 
0.0 0.0 -1.101088927253e-03 
-4.503494869687e-04 -1.637033152419e-04 0.0 
-1.637033152419e-04 2.832512250195e-03 0.0 
0.0 0.0 -4.457015571677e-04 
-2.141424004699e-04 2.387020000873e-04 0.0 
2.387020000873e-04 9.652683007765e-04 0.0 
0.0 0.0 -1.905831712289e-04 
-7.028954825783e-04 -1.797251013725e-04 0.0 
-1.797251013725e-04 4.605141056062e-03 0.0 
0.0 0.0 -6.999131133628e-04 
-7.213924053115e-04 -5.563189413670e-07 0.0 
-5.563189413670e-07 4.593100885078e-03 0.0 
0.0 0.0 -7.345111139194e-04 
-7.221802994753e-04 -3.459116523951e-05 0.0 
-3.459116523951e-05 4.860709319501e-03 0.0 
0.0 0.0 -7.144802219086e-04 
0.0 0.0 0.0 
0.0 0.0 0.0 
0.0 0.0 0.0 
-9.462674636508e-05 9.391315588449e-06 0.0 
9.391315588449e-06 3.155479012844e-04 0.0 
0.0 0.0 -9.468049496542e-05 
-1.889846684321e-04 -5.120829147043e-05 0.0 
-5.120829147043e-05 7.312686420689e-04 0.0 
0.0 0.0 -1.795416262981e-04 
-3.813293178289e-04 1.993773121020e-04 0.0 
1.993773121020e-04 2.301443442694e-03 0.0 
0.0 0.0 -3.820941496288e-04 
-1.147287239146e-04 2.233479330516e-06 0.0 
2.233479330516e-06 6.267336868547e-04 0.0 
0.0 0.0 -1.035694276016e-04 
-7.177698882456e-04 1.875976177193e-04 0.0 
1.875976177193e-04 4.537921580666e-03 0.0 
0.0 0.0 -6.918148876825e-04 
0.0 0.0 0.0 
0.0 0.0 0.0 
0.0 0.0 0.0 
-4.466789787722e-04 2.025807610902e-04 0.0 
2.025807610902e-04 2.763058809203e-03 0.0 
0.0 0.0 -4.482372226011e-04 
-9.484602570363e-04 5.937741420738e-05 0.0 
5.937741420738e-05 6.186307546056e-03 0.0 
0.0 0.0 -9.582560723523e-04 
-7.114040901391e-04 1.008097673958e-05 0.0 
1.008097673958e-05 4.858827396879e-03 0.0 
0.0 0.0 -7.120344407548e-04 
-1.154819602250e-03 -2.018660896654e-04 0.0 
-2.018660896654e-04 7.854075905782e-03 0.0 
0.0 0.0 -1.169483110168e-03 
-9.636351090388e-04 1.953512484906e-04 0.0 
1.953512484906e-04 6.363047776900e-03 0.0 
0.0 0.0 -9.641449249716e-04 
-9.024629704430e-04 7.830558015855e-05 0.0 
7.830558015855e-05 5.773999043953e-03 0.0 
0.0 0.0 -8.988447104697e-04 
-5.248669465082e-04 2.030027087803e-04 0.0 
2.030027087803e-04 3.352814556998e-03 0.0 
0.0 0.0 -5.269378630653e-04 
-1.557908844091e-04 -1.426598337885e-05 0.0 
-1.426598337885e-05 1.017280518651e-03 0.0 
0.0 0.0 -1.602995255322e-04 
-1.340974968048e-03 -2.076763454684e-05 0.0 
-2.076763454684e-05 8.825339797415e-03 0.0 
0.0 0.0 -1.340974968048e-03 
-1.331740677566e-03 -1.067318438994e-06 0.0 
-1.067318438994e-06 9.107204473734e-03 0.0 
0.0 0.0 -1.320295381545e-03 
-8.482992821085e-04 2.310186269769e-04 0.0 
2.310186269769e-04 5.616583664962e-03 0.0 
0.0 0.0 -8.588387843224e-04 
-7.462574470129e-04 -7.506809615133e-06 0.0 
-7.506809615133e-06 4.590636784032e-03 0.0 
0.0 0.0 -7.326073368541e-04 
-5.251543525855e-04 -1.205978746021e-04 0.0 
-1.205978746021e-04 3.428806267579e-03 0.0 
0.0 0.0 -5.314511797787e-04 
-1.323491096028e-03 -2.283744003806e-05 0.0 
-2.283744003806e-05 9.085754239402e-03 0.0 
0.0 0.0 -1.322576402756e-03 
-4.157468964118e-04 -1.918553564633e-04 0.0 
-1.918553564633e-04 2.636700862140e-03 0.0 
0.0 0.0 -4.166600706249e-04 
-7.057672473389e-04 -4.164103403377e-06 0.0 
-4.164103403377e-06 4.837446989167e-03 0.0 
0.0 0.0 -7.125614225629e-04 
-7.131316839303e-04 7.226971892511e-06 0.0 
7.226971892511e-06 4.584933787265e-03 0.0 
0.0 0.0 -7.312775522649e-04 
-6.769264019625e-04 1.800240141216e-04 0.0 
1.800240141216e-04 4.359211225871e-03 0.0 
0.0 0.0 -6.755779900756e-04 
-1.341823989366e-03 -1.865391509118e-05 0.0 
-1.865391509118e-05 8.857424336763e-03 0.0 
0.0 0.0 -1.341823989366e-03 
-1.293765856573e-03 1.607380559237e-05 0.0 
1.607380559237e-05 9.094492997413e-03 0.0 
0.0 0.0 -1.322582685247e-03 
-1.126722208426e-04 6.998488737317e-06 0.0 
6.998488737317e-06 6.134703062311e-04 0.0 
0.0 0.0 -1.035688293187e-04 
0.0 0.0 0.0 
0.0 0.0 0.0 
0.0 0.0 0.0 
-2.390355384623e-04 1.936491639954e-04 0.0 
1.936491639954e-04 1.192457136132e-03 0.0 
0.0 0.0 -2.221130066924e-04 
-7.484754656573e-04 1.958621454920e-04 0.0 
1.958621454920e-04 4.871290639516e-03 0.0 
0.0 0.0 -7.497705102653e-04 
-1.223848934685e-03 2.347738204730e-04 0.0 
2.347738204730e-04 8.231542695031e-03 0.0 
0.0 0.0 -1.224669017856e-03 
-3.851215442265e-05 -6.758275575605e-05 0.0 
-6.758275575605e-05 2.149841041377e-04 0.0 
0.0 0.0 -4.506945562690e-05 
-1.095035538177e-03 -2.135230687798e-04 0.0 
-2.135230687798e-04 7.297496536284e-03 0.0 
0.0 0.0 -1.092518628633e-03 
0.0 0.0 0.0 
0.0 0.0 0.0 
0.0 0.0 0.0 
-9.497696422961e-04 1.942166615207e-04 0.0 
1.942166615207e-04 6.260470679264e-03 0.0 
0.0 0.0 -9.493083249531e-04 
-6.288110034395e-05 6.701081411356e-06 0.0 
6.701081411356e-06 2.758850751309e-04 0.0 
0.0 0.0 -4.591043399908e-05 
-6.241905191399e-05 -2.511621330169e-05 0.0 
-2.511621330169e-05 2.635940123717e-04 0.0 
0.0 0.0 -4.615290204994e-05 
-9.135771074388e-04 1.942985431381e-04 0.0 
1.942985431381e-04 6.003773453710e-03 0.0 
0.0 0.0 -9.122568895951e-04 
-1.191044637578e-03 1.954606753199e-04 0.0 
1.954606753199e-04 7.975629465802e-03 0.0 
0.0 0.0 -1.192963836147e-03 
-9.353430265021e-04 -9.437658603170e-05 0.0 
-9.437658603170e-05 6.401376295666e-03 0.0 
0.0 0.0 -9.361271490834e-04 
-7.292657224304e-04 -1.767865209209e-04 0.0 
-1.767865209209e-04 4.795789678295e-03 0.0 
0.0 0.0 -7.268406435589e-04 
-9.710718174901e-05 -1.358771368786e-05 0.0 
-1.358771368786e-05 3.239463226278e-04 0.0 
0.0 0.0 -9.721677466234e-05 
-9.353638871596e-04 -1.962742580693e-04 0.0 
-1.962742580693e-04 6.250401807132e-03 0.0 
0.0 0.0 -9.349022313484e-04 
-1.337797817327e-03 -2.530827551252e-05 0.0 
-2.530827551252e-05 8.814034455446e-03 0.0 
0.0 0.0 -1.337797817327e-03 
-1.326036287352e-03 -1.455315038833e-04 0.0 
-1.455315038833e-04 9.082015863418e-03 0.0 
0.0 0.0 -1.322354755130e-03 
-7.123437340295e-04 1.173862101606e-05 0.0 
1.173862101606e-05 4.855322276952e-03 0.0 
0.0 0.0 -7.125764448434e-04 
-9.860203699540e-04 1.899915039945e-04 0.0 
1.899915039945e-04 6.516626141222e-03 0.0 
0.0 0.0 -9.863757069361e-04 
-1.341607717199e-03 1.356557150833e-05 0.0 
1.356557150833e-05 8.840587029738e-03 0.0 
0.0 0.0 -1.341607717199e-03 
-1.048314093038e-03 -2.082351981234e-04 0.0 
-2.082351981234e-04 7.019832661667e-03 0.0 
0.0 0.0 -1.046710270629e-03 
-1.675301838823e-04 4.109428891396e-05 0.0 
4.109428891396e-05 9.648536059596e-04 0.0 
0.0 0.0 -1.589907658001e-04 
-1.067672517152e-04 -9.583258243249e-06 0.0 
-9.583258243249e-06 6.200113654204e-04 0.0 
0.0 0.0 -1.029725306715e-04 
-1.028842676796e-04 -4.314994342259e-05 0.0 
-4.314994342259e-05 3.453649952318e-04 0.0 
0.0 0.0 -1.039203118081e-04 
-5.871622493136e-04 1.953666188975e-04 0.0 
1.953666188975e-04 3.814212399552e-03 0.0 
0.0 0.0 -5.933358154923e-04 
-1.333672766825e-03 -1.202212504052e-04 0.0 
-1.202212504052e-04 9.086271765214e-03 0.0 
0.0 0.0 -1.322828574513e-03 
-1.249098589656e-03 -2.325383237371e-04 0.0 
-2.325383237371e-04 8.487130897030e-03 0.0 
0.0 0.0 -1.258329778789e-03 
0.0 0.0 0.0 
0.0 0.0 0.0 
0.0 0.0 0.0 
-6.989700289776e-04 -1.857489314676e-04 0.0 
-1.857489314676e-04 4.509333602690e-03 0.0 
0.0 0.0 -6.938761155152e-04 
-1.344798314369e-03 5.494387484637e-06 0.0 
5.494387484637e-06 8.860415151620e-03 0.0 
0.0 0.0 -1.344798314369e-03 
-1.337322942170e-03 3.677431177350e-05 0.0 
3.677431177350e-05 9.118625106116e-03 0.0 
0.0 0.0 -1.318785251170e-03 
-1.303755075695e-03 1.430690451441e-06 0.0 
1.430690451441e-06 9.096198326928e-03 0.0 
0.0 0.0 -1.321151187552e-03 
-1.034449558172e-03 2.142439693304e-04 0.0 
2.142439693304e-04 6.840882471351e-03 0.0 
0.0 0.0 -1.027148381742e-03 
-1.117879717661e-03 -2.162737768218e-04 0.0 
-2.162737768218e-04 7.549121072969e-03 0.0 
0.0 0.0 -1.125709525796e-03 
-1.338030260144e-03 -6.968280175079e-06 0.0 
-6.968280175079e-06 8.819304319896e-03 0.0 
0.0 0.0 -1.338030260144e-03 
-1.340754991027e-03 -2.793160050154e-05 0.0 
-2.793160050154e-05 8.842227493663e-03 0.0 
0.0 0.0 -1.340754991027e-03 
-1.084387157107e-03 1.756228747119e-04 0.0 
1.756228747119e-04 7.304356114432e-03 0.0 
0.0 0.0 -1.092518628634e-03 
-2.311762207506e-05 7.524747598176e-05 0.0 
7.524747598176e-05 1.841595127811e-04 0.0 
0.0 0.0 -4.541545915403e-05 
-7.129930244863e-04 -1.525724795116e-06 0.0 
-1.525724795116e-06 4.814692496190e-03 0.0 
0.0 0.0 -7.139539158865e-04 
-7.213897068280e-04 3.016260299782e-05 0.0 
3.016260299782e-05 4.878464797693e-03 0.0 
0.0 0.0 -7.133642253441e-04 
0.0 0.0 0.0 
0.0 0.0 0.0 
0.0 0.0 0.0 
-1.342313591240e-03 1.055329185638e-05 0.0 
1.055329185638e-05 8.873951644270e-03 0.0 
0.0 0.0 -1.342313591240e-03 
-1.336661786254e-03 2.540411115353e-05 0.0 
2.540411115353e-05 9.107640988403e-03 0.0 
0.0 0.0 -1.318355947622e-03 
-1.337959751097e-03 6.489046299871e-07 0.0 
6.489046299871e-07 8.814031058647e-03 0.0 
0.0 0.0 -1.337959751097e-03 
-6.887950874124e-05 7.326700540873e-06 0.0 
7.326700540873e-06 2.659430667850e-04 0.0 
0.0 0.0 -4.582974829071e-05 
-7.021790639444e-05 9.602649528326e-06 0.0 
9.602649528326e-06 2.736498867396e-04 0.0 
0.0 0.0 -4.591370119938e-05 
-1.340754991027e-03 -1.163411170853e-06 0.0 
-1.163411170853e-06 8.829041487509e-03 0.0 
0.0 0.0 -1.340754991027e-03 
-1.340396196526e-03 -2.044778395459e-05 0.0 
-2.044778395459e-05 8.820055094331e-03 0.0 
0.0 0.0 -1.340396196526e-03 
-1.016763022878e-03 -2.313272643621e-04 0.0 
-2.313272643621e-04 6.613286649783e-03 0.0 
0.0 0.0 -9.936726122374e-04 
-7.156761650400e-04 3.174630435051e-05 0.0 
3.174630435051e-05 4.813106322843e-03 0.0 
0.0 0.0 -7.124851972278e-04 
-1.051691578887e-03 -2.268729750205e-04 0.0 
-2.268729750205e-04 7.069453692283e-03 0.0 
0.0 0.0 -1.060142436171e-03 
-8.856361613045e-04 -2.246794552562e-04 0.0 
-2.246794552562e-04 5.656932423438e-03 0.0 
0.0 0.0 -8.626607521899e-04 
-6.974461573379e-04 1.315776503887e-05 0.0 
1.315776503887e-05 4.815685979733e-03 0.0 
0.0 0.0 -7.121912678902e-04 
-3.076401957522e-05 3.630205513184e-05 0.0 
3.630205513184e-05 2.492584121326e-04 0.0 
0.0 0.0 -4.495577515415e-05 
-4.859098010839e-05 -3.737210181647e-05 0.0 
-3.737210181647e-05 2.860304098853e-04 0.0 
0.0 0.0 -4.591167563965e-05 
-3.185160578242e-05 -1.142237180323e-05 0.0 
-1.142237180323e-05 2.469612253318e-04 0.0 
0.0 0.0 -4.589015575604e-05 
-4.731421252786e-05 -1.226097571219e-05 0.0 
-1.226097571219e-05 2.659450080895e-04 0.0 
0.0 0.0 -4.556578909549e-05 
-7.410966517880e-04 2.317413733404e-04 0.0 
2.317413733404e-04 4.761489269815e-03 0.0 
0.0 0.0 -7.271325101417e-04 
-6.567236663823e-04 2.031409226008e-04 0.0 
2.031409226008e-04 4.278704049819e-03 0.0 
0.0 0.0 -6.600769387058e-04 
0.0 0.0 0.0 
0.0 0.0 0.0 
0.0 0.0 0.0 
-9.198692932468e-04 2.207519103488e-04 0.0 
2.207519103488e-04 6.164531821473e-03 0.0 
0.0 0.0 -9.221709323543e-04 
0.0 0.0 0.0 
0.0 0.0 0.0 
0.0 0.0 0.0 
-1.341471640605e-03 5.425770365487e-06 0.0 
5.425770365487e-06 8.820837432317e-03 0.0 
0.0 0.0 -1.341471640605e-03 
-1.340968685557e-03 1.249741243790e-05 0.0 
1.249741243790e-05 8.807656416615e-03 0.0 
0.0 0.0 -1.340968685557e-03 
-1.339320413496e-03 -6.736119072763e-06 0.0 
-6.736119072763e-06 8.832654043149e-03 0.0 
0.0 0.0 -1.339320413496e-03 
-2.516213945074e-04 2.377641770174e-04 0.0 
2.377641770174e-04 1.477950192533e-03 0.0 
0.0 0.0 -2.599136149544e-04 
-4.499622910390e-04 2.064665423492e-04 0.0 
2.064665423492e-04 2.879856921820e-03 0.0 
0.0 0.0 -4.607467809507e-04 
-1.337132911908e-03 -4.793528436990e-06 0.0 
-4.793528436990e-06 8.820087587172e-03 0.0 
0.0 0.0 -1.337132911908e-03 
-1.120160542764e-03 1.885503644173e-04 0.0 
1.885503644173e-04 7.560722239950e-03 0.0 
0.0 0.0 -1.124956933753e-03 
-1.344556937803e-03 -2.104246713846e-05 0.0 
-2.104246713846e-05 8.860523593132e-03 0.0 
0.0 0.0 -1.344556937803e-03 
-1.195658010449e-03 2.008624552429e-04 0.0 
2.008624552429e-04 8.028011251529e-03 0.0 
0.0 0.0 -1.192538251246e-03 
-1.264541089761e-03 2.315838415430e-04 0.0 
2.315838415430e-04 8.498729307699e-03 0.0 
0.0 0.0 -1.259905836238e-03 
-6.219774932840e-04 -2.035330289393e-04 0.0 
-2.035330289393e-04 4.041759494414e-03 0.0 
0.0 0.0 -6.267460875326e-04 
-1.333336577702e-03 -3.290028368553e-05 0.0 
-3.290028368553e-05 9.106230716714e-03 0.0 
0.0 0.0 -1.318101597465e-03 
-1.336001964470e-03 1.162172730560e-04 0.0 
1.162172730560e-04 9.090958479552e-03 0.0 
0.0 0.0 -1.321689849711e-03 
-1.157015842751e-03 -2.064363215114e-04 0.0 
-2.064363215114e-04 7.737243073859e-03 0.0 
0.0 0.0 -1.157495185000e-03 
-1.229671491752e-03 -2.051129200289e-04 0.0 
-2.051129200289e-04 8.228478437854e-03 0.0 
0.0 0.0 -1.225777420818e-03 
-9.871372975694e-04 -1.866548184674e-04 0.0 
-1.866548184674e-04 6.644402027939e-03 0.0 
0.0 0.0 -9.925156490314e-04 
0.0 0.0 0.0 
0.0 0.0 0.0 
0.0 0.0 0.0 
-6.525071487266e-04 -2.022287068404e-04 0.0 
-2.022287068404e-04 4.165983179946e-03 0.0 
0.0 0.0 -6.350241097613e-04 
-1.062777711571e-04 -2.500028508467e-05 0.0 
-2.500028508467e-05 5.975407209184e-04 0.0 
0.0 0.0 -1.030398215525e-04 
-1.177532662352e-03 -1.733616004670e-04 0.0 
-1.733616004670e-04 7.926724853394e-03 0.0 
0.0 0.0 -1.177819030284e-03 
-6.744770170931e-04 1.928269940396e-04 0.0 
1.928269940396e-04 4.352241427477e-03 0.0 
0.0 0.0 -6.753691525988e-04 
-1.095781442937e-03 1.863762097668e-04 0.0 
1.863762097668e-04 7.297090200674e-03 0.0 
0.0 0.0 -1.099016898379e-03 
-3.528730048209e-04 -1.946361167357e-04 0.0 
-1.946361167357e-04 2.176757571714e-03 0.0 
0.0 0.0 -3.504775146279e-04 
-1.550760112035e-04 1.206598951617e-04 0.0 
1.206598951617e-04 7.508446244134e-04 0.0 
0.0 0.0 -1.735952156319e-04 
-1.160601579575e-03 -1.894710886425e-04 0.0 
-1.894710886425e-04 7.820833929289e-03 0.0 
0.0 0.0 -1.161668299909e-03 
-6.889768412053e-04 -1.975061828768e-04 0.0 
-1.975061828768e-04 4.617261067584e-03 0.0 
0.0 0.0 -7.012080445024e-04 
-5.762009062567e-04 2.005988488917e-04 0.0 
2.005988488917e-04 3.584897669436e-03 0.0 
0.0 0.0 -5.611363230934e-04 
-1.093490207039e-03 -1.909491051748e-04 0.0 
-1.909491051748e-04 7.367841895943e-03 0.0 
0.0 0.0 -1.096102707776e-03 
-1.178635420303e-03 1.949598249272e-04 0.0 
1.949598249272e-04 7.912911661083e-03 0.0 
0.0 0.0 -1.188907866872e-03 
-5.561658818215e-04 -2.031625025719e-04 0.0 
-2.031625025719e-04 3.593153237093e-03 0.0 
0.0 0.0 -5.602736785587e-04 
-1.035403721303e-03 -2.031605927371e-04 0.0 
-2.031605927371e-04 6.949569291118e-03 0.0 
0.0 0.0 -1.035646790376e-03 
-9.180249208977e-04 1.931476710154e-04 0.0 
1.931476710154e-04 6.042341158293e-03 0.0 
0.0 0.0 -9.181742748318e-04 
-9.917755747799e-04 2.023242542686e-04 0.0 
2.023242542686e-04 6.575747416083e-03 0.0 
0.0 0.0 -9.952786863929e-04 
-1.024377024952e-03 1.861972783327e-04 0.0 
1.861972783327e-04 6.794579129447e-03 0.0 
0.0 0.0 -1.024224580100e-03 
-5.802650742356e-04 1.891370522917e-04 0.0 
1.891370522917e-04 3.679117002713e-03 0.0 
0.0 0.0 -5.788817793163e-04 
-6.680148396563e-04 -1.727307713496e-04 0.0 
-1.727307713496e-04 4.367645791481e-03 0.0 
0.0 0.0 -6.651338130661e-04 
-7.292546132973e-04 -1.846826388503e-04 0.0 
-1.846826388503e-04 4.813421317749e-03 0.0 
0.0 0.0 -7.293057621918e-04 
-9.374184943370e-04 1.944757919182e-04 0.0 
1.944757919182e-04 6.178932175002e-03 0.0 
0.0 0.0 -9.378562126457e-04 
-1.124743441142e-03 -2.044895248107e-04 0.0 
-2.044895248107e-04 7.578873023721e-03 0.0 
0.0 0.0 -1.125100902632e-03 
-1.057275381377e-03 1.952239226914e-04 0.0 
1.952239226914e-04 7.019062258926e-03 0.0 
0.0 0.0 -1.053755873404e-03 
-3.652721065736e-04 1.996025403978e-04 0.0 
1.996025403978e-04 2.192815232503e-03 0.0 
0.0 0.0 -3.685493992842e-04 
-1.164581229115e-03 2.188850811809e-04 0.0 
2.188850811809e-04 7.900774321480e-03 0.0 
0.0 0.0 -1.183514100502e-03 
-1.119628239997e-03 2.087348229959e-04 0.0 
2.087348229959e-04 7.433542979004e-03 0.0 
0.0 0.0 -1.117084069417e-03 
-8.143956589139e-04 2.341244742851e-04 0.0 
2.341244742851e-04 5.337741611520e-03 0.0 
0.0 0.0 -8.110481619253e-04 
-9.749777922597e-04 1.939288930454e-04 0.0 
1.939288930454e-04 6.440647276838e-03 0.0 
0.0 0.0 -9.753747863247e-04 
-9.652234430735e-04 1.970752514855e-04 0.0 
1.970752514855e-04 6.378006768513e-03 0.0 
0.0 0.0 -9.665592132828e-04 
-1.194888926874e-03 -2.112261199246e-04 0.0 
-2.112261199246e-04 8.020188826812e-03 0.0 
0.0 0.0 -1.185362187646e-03 
-1.151241251503e-03 1.853138580095e-04 0.0 
1.853138580095e-04 7.714994671460e-03 0.0 
0.0 0.0 -1.150972777267e-03 
-8.863019395197e-04 -1.951602003696e-04 0.0 
-1.951602003696e-04 5.913977900844e-03 0.0 
0.0 0.0 -8.866930489607e-04 
-1.183768845123e-03 -1.944166925085e-04 0.0 
-1.944166925085e-04 8.022430172970e-03 0.0 
0.0 0.0 -1.190872049285e-03 
-1.103203670140e-03 1.932633349999e-04 0.0 
1.932633349999e-04 7.339211362922e-03 0.0 
0.0 0.0 -1.103416240745e-03 
-1.053347130920e-03 -1.808067663282e-04 0.0 
-1.808067663282e-04 7.018991585010e-03 0.0 
0.0 0.0 -1.053748284807e-03 
-1.207301516059e-03 -2.189374092153e-04 0.0 
-2.189374092153e-04 8.148472988394e-03 0.0 
0.0 0.0 -1.210017230578e-03 
-1.183451424094e-03 -2.064186268461e-04 0.0 
-2.064186268461e-04 7.961006455012e-03 0.0 
0.0 0.0 -1.181737430652e-03 
-1.012410866899e-03 -2.064236493361e-04 0.0 
-2.064236493361e-04 6.767125967856e-03 0.0 
0.0 0.0 -1.011817915138e-03 
-9.978825943571e-04 -1.946964301518e-04 0.0 
-1.946964301518e-04 6.692413921007e-03 0.0 
0.0 0.0 -9.985655989919e-04 
-3.618458064176e-04 1.902703540337e-04 0.0 
1.902703540337e-04 2.182295586331e-03 0.0 
0.0 0.0 -3.644364776638e-04 
-3.396688960242e-04 1.922383374584e-04 0.0 
1.922383374584e-04 2.020949841441e-03 0.0 
0.0 0.0 -3.414758422231e-04 
-2.048022796594e-04 -2.337971245162e-04 0.0 
-2.337971245162e-04 1.038657557028e-03 0.0 
0.0 0.0 -1.876370064529e-04 
-1.053265806659e-04 1.589966792234e-06 0.0 
1.589966792234e-06 6.159987105294e-04 0.0 
0.0 0.0 -1.032036840373e-04 
-1.146654591444e-03 -2.036534213009e-04 0.0 
-2.036534213009e-04 7.733548266154e-03 0.0 
0.0 0.0 -1.150998037120e-03 
-1.153371435519e-03 1.929566661378e-04 0.0 
1.929566661378e-04 7.706474852566e-03 0.0 
0.0 0.0 -1.156839719840e-03 
-1.023100123294e-04 6.333767357802e-06 0.0 
6.333767357802e-06 5.922537874641e-04 0.0 
0.0 0.0 -1.029284987275e-04 
-1.152902847458e-03 -1.945944093032e-04 0.0 
-1.945944093032e-04 7.806589318492e-03 0.0 
0.0 0.0 -1.160298666437e-03 
-8.240593874314e-04 2.133386610705e-04 0.0 
2.133386610705e-04 5.515954645069e-03 0.0 
0.0 0.0 -8.436798659344e-04 
-1.063159338098e-03 -2.000353252038e-04 0.0 
-2.000353252038e-04 7.170931875512e-03 0.0 
0.0 0.0 -1.067477449466e-03 
-1.091085119062e-03 1.926591161237e-04 0.0 
1.926591161237e-04 7.245677048731e-03 0.0 
0.0 0.0 -1.090430023688e-03 
-5.083685843408e-04 1.854528112905e-04 0.0 
1.854528112905e-04 3.184990427277e-03 0.0 
0.0 0.0 -5.090628918580e-04 
-1.088419020765e-03 -1.985610050621e-04 0.0 
-1.985610050621e-04 7.308442647816e-03 0.0 
0.0 0.0 -1.087955833448e-03 
-8.052736907314e-04 -2.707602780886e-04 0.0 
-2.707602780886e-04 5.346563189152e-03 0.0 
0.0 0.0 -8.100176300978e-04 
-1.002877096566e-03 -1.976880564897e-04 0.0 
-1.976880564897e-04 6.706443384887e-03 0.0 
0.0 0.0 -1.000388816061e-03 
-1.231169607282e-03 2.234727540429e-04 0.0 
2.234727540429e-04 8.305282306820e-03 0.0 
0.0 0.0 -1.242964905849e-03 
-3.519355017218e-04 1.472413134465e-04 0.0 
1.472413134465e-04 2.089181619658e-03 0.0 
0.0 0.0 -3.542437553904e-04 
-1.221302329282e-03 -1.674357911946e-04 0.0 
-1.674357911946e-04 8.209373583472e-03 0.0 
0.0 0.0 -1.215045542354e-03 
-1.047850802636e-03 -1.881582153281e-04 0.0 
-1.881582153281e-04 7.026769425363e-03 0.0 
0.0 0.0 -1.048288725887e-03 
-3.889604497647e-04 2.037169653350e-04 0.0 
2.037169653350e-04 2.380154464468e-03 0.0 
0.0 0.0 -3.930611257745e-04 
-4.005955795872e-04 -1.795528067477e-04 0.0 
-1.795528067477e-04 2.551679544193e-03 0.0 
0.0 0.0 -4.034900192350e-04 
-7.895600060851e-04 1.993051337406e-04 0.0 
1.993051337406e-04 5.154958880860e-03 0.0 
0.0 0.0 -7.909606353592e-04 
-9.478370252282e-04 2.028022273917e-04 0.0 
2.028022273917e-04 6.213549732246e-03 0.0 
0.0 0.0 -9.409807611877e-04 
-5.389171118930e-04 1.931642811106e-04 0.0 
1.931642811106e-04 3.423254400861e-03 0.0 
0.0 0.0 -5.429771841545e-04 
-1.084906178257e-03 -2.011232363261e-04 0.0 
-2.011232363261e-04 7.274950011924e-03 0.0 
0.0 0.0 -1.085119818393e-03 
-9.758201311387e-04 -2.238948292920e-04 0.0 
-2.238948292920e-04 6.526325342415e-03 0.0 
0.0 0.0 -9.816794289629e-04 
-7.681741524081e-04 1.880175807826e-04 0.0 
1.880175807826e-04 5.011383542904e-03 0.0 
0.0 0.0 -7.700930343086e-04 
-1.026480683520e-03 -1.844900629416e-04 0.0 
-1.844900629416e-04 6.842321728991e-03 0.0 
0.0 0.0 -1.021757709120e-03 
-1.057960421125e-03 -1.998047593286e-04 0.0 
-1.998047593286e-04 7.113469784678e-03 0.0 
0.0 0.0 -1.058696934625e-03 
-1.057942238941e-03 2.175749808769e-04 0.0 
2.175749808769e-04 6.964480207197e-03 0.0 
0.0 0.0 -1.050681058959e-03 
-3.033747618520e-04 -1.838242939411e-04 0.0 
-1.838242939411e-04 1.857406959021e-03 0.0 
0.0 0.0 -3.058749225436e-04 
-7.305418871957e-04 1.869626526336e-04 0.0 
1.869626526336e-04 4.754815575901e-03 0.0 
0.0 0.0 -7.328582426338e-04 
-1.136183616218e-03 2.082876610418e-04 0.0 
2.082876610418e-04 7.610878515336e-03 0.0 
0.0 0.0 -1.141128458404e-03 
-1.078434925953e-03 -1.984149302182e-04 0.0 
-1.984149302182e-04 7.234990828440e-03 0.0 
0.0 0.0 -1.078198857115e-03 
-6.621852882438e-04 2.164713360985e-04 0.0 
2.164713360985e-04 4.271535496369e-03 0.0 
0.0 0.0 -6.666835465145e-04 
-9.149083998473e-04 -1.952760623190e-04 0.0 
-1.952760623190e-04 6.113676858771e-03 0.0 
0.0 0.0 -9.153036164073e-04 
-1.187688204395e-03 -2.025883410102e-04 0.0 
-2.025883410102e-04 8.016876824675e-03 0.0 
0.0 0.0 -1.187586327529e-03 
-1.005326890981e-03 1.902074749801e-04 0.0 
1.902074749801e-04 6.713852212323e-03 0.0 
0.0 0.0 -1.013969106439e-03 
-1.909283182059e-04 -2.134343415579e-04 0.0 
-2.134343415579e-04 9.857203047885e-04 0.0 
0.0 0.0 -1.806728872115e-04 
-1.970147197369e-04 -2.059863142165e-04 0.0 
-2.059863142165e-04 1.002592449070e-03 0.0 
0.0 0.0 -1.835536028976e-04 
-3.515992897123e-04 -1.811957352846e-04 0.0 
-1.811957352846e-04 2.155411981566e-03 0.0 
0.0 0.0 -3.467375663575e-04 
-1.128856114321e-03 2.001566636705e-04 0.0 
2.001566636705e-04 7.510015093798e-03 0.0 
0.0 0.0 -1.127837695838e-03 
-9.816567297486e-04 1.933811921609e-04 0.0 
1.933811921609e-04 6.465198559992e-03 0.0 
0.0 0.0 -9.775003154318e-04 
-8.371572204409e-04 -2.148163729895e-04 0.0 
-2.148163729895e-04 5.710338305933e-03 0.0 
0.0 0.0 -8.513051444990e-04 
-8.730704368828e-04 1.896261582468e-04 0.0 
1.896261582468e-04 5.754508324044e-03 0.0 
0.0 0.0 -8.745614812816e-04 
-1.137329719499e-03 -1.941463340313e-04 0.0 
-1.941463340313e-04 7.669003078820e-03 0.0 
0.0 0.0 -1.139196670502e-03 
-7.981531024245e-04 1.892565346164e-04 0.0 
1.892565346164e-04 5.212239015909e-03 0.0 
0.0 0.0 -7.988714448434e-04 
-1.058279653052e-03 1.954206945734e-04 0.0 
1.954206945734e-04 7.042085544045e-03 0.0 
0.0 0.0 -1.061632825506e-03 
-3.556360797851e-04 -1.825172875802e-04 0.0 
-1.825172875802e-04 2.253382462632e-03 0.0 
0.0 0.0 -3.615122310665e-04 
-1.213390557451e-03 2.397950825143e-04 0.0 
2.397950825143e-04 8.136808344214e-03 0.0 
0.0 0.0 -1.211531131004e-03 
-7.660046426258e-04 -1.986537595935e-04 0.0 
-1.986537595935e-04 5.080766734255e-03 0.0 
0.0 0.0 -7.673127347790e-04 
-3.927767409548e-04 -1.941008242107e-04 0.0 
-1.941008242107e-04 2.469153154105e-03 0.0 
0.0 0.0 -3.889166325194e-04 
-7.314298842456e-04 -2.140562000031e-04 0.0 
-2.140562000031e-04 4.812028074598e-03 0.0 
0.0 0.0 -7.311132045151e-04 
-5.669903072896e-04 1.859979766969e-04 0.0 
1.859979766969e-04 3.622850524897e-03 0.0 
0.0 0.0 -5.716673668464e-04 
-4.441913073698e-04 -1.946929488680e-04 0.0 
-1.946929488680e-04 2.835535865589e-03 0.0 
0.0 0.0 -4.452767020142e-04 
-8.541353571324e-04 1.878201727380e-04 0.0 
1.878201727380e-04 5.598851307335e-03 0.0 
0.0 0.0 -8.564950983273e-04 
0.0 0.0 0.0 
0.0 0.0 0.0 
0.0 0.0 0.0 
0.0 0.0 0.0 
0.0 0.0 0.0 
0.0 0.0 0.0 
-9.633926432213e-04 -1.929125650731e-04 0.0 
-1.929125650731e-04 6.449382072422e-03 0.0 
0.0 0.0 -9.636005660098e-04 
-3.261615758852e-04 -1.754968158783e-04 0.0 
-1.754968158783e-04 2.064243752771e-03 0.0 
0.0 0.0 -3.336449385292e-04 
-9.716625480636e-04 -1.974982736353e-04 0.0 
-1.974982736353e-04 6.511810819199e-03 0.0 
0.0 0.0 -9.724388998541e-04 
-9.434553557208e-04 -1.947776052692e-04 0.0 
-1.947776052692e-04 6.314151919472e-03 0.0 
0.0 0.0 -9.438473481109e-04 
-6.149570530546e-04 1.958377041271e-04 0.0 
1.958377041271e-04 3.946002749694e-03 0.0 
0.0 0.0 -6.177757646845e-04 
-4.134741271646e-04 1.981876295034e-04 0.0 
1.981876295034e-04 2.543324249367e-03 0.0 
0.0 0.0 -4.162223005415e-04 
-1.136715502842e-03 -2.038924191314e-04 0.0 
-2.038924191314e-04 7.650435027918e-03 0.0 
0.0 0.0 -1.137719822027e-03 
-2.155883669569e-04 -8.829356196857e-05 0.0 
-8.829356196857e-05 9.573383583193e-04 0.0 
0.0 0.0 -2.047534254615e-04 
-6.021718484836e-04 1.735627083645e-04 0.0 
1.735627083645e-04 3.837011647565e-03 0.0 
0.0 0.0 -6.004815939294e-04 
-1.172134314024e-03 -1.664552663931e-04 0.0 
-1.664552663931e-04 7.890382462293e-03 0.0 
0.0 0.0 -1.175533656463e-03 
-2.822824235296e-04 1.888682444413e-04 0.0 
1.888682444413e-04 1.684200929602e-03 0.0 
0.0 0.0 -2.977570873278e-04 
-9.136045934539e-04 -1.921452035066e-04 0.0 
-1.921452035066e-04 6.056651557430e-03 0.0 
0.0 0.0 -9.088859120638e-04 
-8.340119380580e-04 -2.228113772718e-04 0.0 
-2.228113772718e-04 5.573887948832e-03 0.0 
0.0 0.0 -8.416286270284e-04 
-2.829330432205e-04 -1.923976084131e-04 0.0 
-1.923976084131e-04 1.716244531209e-03 0.0 
0.0 0.0 -2.842394630762e-04 
-1.159926400282e-03 -1.793893042656e-04 0.0 
-1.793893042656e-04 7.808824689671e-03 0.0 
0.0 0.0 -1.158722036769e-03 
-1.035589941137e-03 -1.985988582850e-04 0.0 
-1.985988582850e-04 6.933992631060e-03 0.0 
0.0 0.0 -1.034898561726e-03 
-3.359494272766e-04 1.786409644777e-04 0.0 
1.786409644777e-04 1.989232140030e-03 0.0 
0.0 0.0 -3.364655670308e-04 
-1.165152170532e-03 -1.849586778465e-04 0.0 
-1.849586778465e-04 7.849581652679e-03 0.0 
0.0 0.0 -1.166520446339e-03 
-1.171818434168e-03 1.701070722775e-04 0.0 
1.701070722775e-04 7.787163600185e-03 0.0 
0.0 0.0 -1.169001632583e-03 
-3.670484435220e-04 -2.062025335134e-04 0.0 
-2.062025335134e-04 2.310354927649e-03 0.0 
0.0 0.0 -3.701904734684e-04 
-4.878019895888e-04 -2.129991852323e-04 0.0 
-2.129991852323e-04 3.076179585064e-03 0.0 
0.0 0.0 -4.801335248058e-04 
-3.784853096696e-04 -1.951915827816e-04 0.0 
-1.951915827816e-04 2.373996755405e-03 0.0 
0.0 0.0 -3.791106726259e-04 
-1.023434568927e-03 -1.955357832442e-04 0.0 
-1.955357832442e-04 6.907952393425e-03 0.0 
0.0 0.0 -1.029923508343e-03 
-8.283537341299e-04 1.907553074043e-04 0.0 
1.907553074043e-04 5.413544228672e-03 0.0 
0.0 0.0 -8.276368238623e-04 
-1.175065292852e-03 1.838008001023e-04 0.0 
1.838008001023e-04 7.798269859187e-03 0.0 
0.0 0.0 -1.169529464977e-03 
-1.141233486497e-03 1.909358973763e-04 0.0 
1.909358973763e-04 7.594915182305e-03 0.0 
0.0 0.0 -1.140030709108e-03 
-9.986353517479e-04 -1.968060563575e-04 0.0 
-1.968060563575e-04 6.710344376515e-03 0.0 
0.0 0.0 -1.001167767022e-03 
-1.002641746751e-03 1.939099816929e-04 0.0 
1.939099816929e-04 6.639482721891e-03 0.0 
0.0 0.0 -1.004093472296e-03 
-3.170641866385e-04 1.974483890407e-04 0.0 
1.974483890407e-04 1.842860083610e-03 0.0 
0.0 0.0 -3.158693332420e-04 
-1.029368673375e-03 1.947386699307e-04 0.0 
1.947386699307e-04 6.837075470330e-03 0.0 
0.0 0.0 -1.032853941699e-03 
-1.038324079738e-03 1.969104416428e-04 0.0 
1.969104416428e-04 6.879456010501e-03 0.0 
0.0 0.0 -1.037144748481e-03 
-8.220289990508e-04 -1.901456335333e-04 0.0 
-1.901456335333e-04 5.481743507948e-03 0.0 
0.0 0.0 -8.248712778174e-04 
-9.784412971014e-04 -1.995967018581e-04 0.0 
-1.995967018581e-04 6.519224964638e-03 0.0 
0.0 0.0 -9.752741834902e-04 
-1.071043316413e-03 -2.014206266275e-04 0.0 
-2.014206266275e-04 7.187990111683e-03 0.0 
0.0 0.0 -1.071415751597e-03 
-7.449992410114e-04 1.900175048327e-04 0.0 
1.900175048327e-04 4.830596508428e-03 0.0 
0.0 0.0 -7.435371925968e-04 
-1.112301323396e-03 1.953318319137e-04 0.0 
1.953318319137e-04 7.388703494557e-03 0.0 
0.0 0.0 -1.110258267496e-03 
-7.048168666415e-04 2.103542029498e-04 0.0 
2.103542029498e-04 4.551180166485e-03 0.0 
0.0 0.0 -6.965171720951e-04 
-7.978310569569e-04 -1.996626955201e-04 0.0 
-1.996626955201e-04 5.282133349968e-03 0.0 
0.0 0.0 -7.960639764766e-04 
-5.335116196932e-04 2.239231297757e-04 0.0 
2.239231297757e-04 3.386453430155e-03 0.0 
0.0 0.0 -5.342291996904e-04 
-5.553576446558e-04 -1.816268034184e-04 0.0 
-1.816268034184e-04 3.628347878161e-03 0.0 
0.0 0.0 -5.581583723280e-04 
-1.010310088917e-03 1.967228699853e-04 0.0 
1.967228699853e-04 6.672709965049e-03 0.0 
0.0 0.0 -1.007339817349e-03 
-7.628577911211e-04 -1.911605880287e-04 0.0 
-1.911605880287e-04 5.057166832743e-03 0.0 
0.0 0.0 -7.637833264599e-04 
-4.056535220845e-04 -1.994601543413e-04 0.0 
-1.994601543413e-04 2.573810220736e-03 0.0 
0.0 0.0 -4.077494273363e-04 
-2.235505229120e-04 -1.665382784811e-04 0.0 
-1.665382784811e-04 1.264629605483e-03 0.0 
0.0 0.0 -2.185673950299e-04 
-1.005369566171e-03 -1.969282844887e-04 0.0 
-1.969282844887e-04 6.726819346583e-03 0.0 
0.0 0.0 -1.005115000480e-03 
-4.096373717980e-04 1.964452207256e-04 0.0 
1.964452207256e-04 2.501615904785e-03 0.0 
0.0 0.0 -4.107160730352e-04 
-1.196795855234e-03 2.010644044310e-04 0.0 
2.010644044310e-04 8.139442919111e-03 0.0 
0.0 0.0 -1.218716866995e-03 
-1.042807145316e-03 1.952121137199e-04 0.0 
1.952121137199e-04 6.924647329534e-03 0.0 
0.0 0.0 -1.043883448597e-03 
-1.067869276876e-03 1.919364052357e-04 0.0 
1.919364052357e-04 7.100655193935e-03 0.0 
0.0 0.0 -1.070373463590e-03 
-1.283006779812e-03 -2.454005743876e-05 0.0 
-2.454005743876e-05 8.441304095904e-03 0.0 
0.0 0.0 -1.284729618418e-03 
-6.611541786482e-04 -2.165377279582e-04 0.0 
-2.165377279582e-04 4.358180230514e-03 0.0 
0.0 0.0 -6.637377122259e-04 
-3.719232158050e-04 1.946095876175e-04 0.0 
1.946095876175e-04 2.237835984063e-03 0.0 
0.0 0.0 -3.731618544808e-04 
-2.509805120977e-04 2.101438879212e-04 0.0 
2.101438879212e-04 1.370179870162e-03 0.0 
0.0 0.0 -2.496210768721e-04 
-1.009272610852e-03 -1.976905948494e-04 0.0 
-1.976905948494e-04 6.773236228030e-03 0.0 
0.0 0.0 -1.009908742814e-03 
-9.502891484141e-04 2.008015227702e-04 0.0 
2.008015227702e-04 6.263291661127e-03 0.0 
0.0 0.0 -9.473489374553e-04 
-1.787867007396e-04 1.721284507092e-04 0.0 
1.721284507092e-04 9.234900215081e-04 0.0 
0.0 0.0 -1.858848441742e-04 
-5.306487836806e-04 -1.980238622701e-04 0.0 
-1.980238622701e-04 3.494279541485e-03 0.0 
0.0 0.0 -5.400474096907e-04 
-3.064883048416e-04 -1.749693241531e-04 0.0 
-1.749693241531e-04 2.001263288359e-03 0.0 
0.0 0.0 -3.246070344129e-04 
-9.392936976826e-04 -1.862704497829e-04 0.0 
-1.862704497829e-04 6.266809515345e-03 0.0 
0.0 0.0 -9.387834224271e-04 
-5.480159981423e-04 -2.100359931435e-04 0.0 
-2.100359931435e-04 3.693369469425e-03 0.0 
0.0 0.0 -5.687878759048e-04 
-9.467150260524e-04 1.924065934847e-04 0.0 
1.924065934847e-04 6.242240235616e-03 0.0 
0.0 0.0 -9.467935652645e-04 
-5.428455294622e-04 -2.085125102257e-04 0.0 
-2.085125102257e-04 3.415670535467e-03 0.0 
0.0 0.0 -5.337555413937e-04 
-1.117346964304e-03 -2.071110090059e-04 0.0 
-2.071110090059e-04 7.492505049919e-03 0.0 
0.0 0.0 -1.114809527198e-03 
-4.745048492879e-04 1.992195964991e-04 0.0 
1.992195964991e-04 2.965213732964e-03 0.0 
0.0 0.0 -4.768663991247e-04 
-1.019084130149e-03 -1.971234603784e-04 0.0 
-1.971234603784e-04 6.834832976306e-03 0.0 
0.0 0.0 -1.018590841688e-03 
-3.372917149944e-04 -1.912349410902e-04 0.0 
-1.912349410902e-04 2.104646860584e-03 0.0 
0.0 0.0 -3.376433569222e-04 
-9.810862783946e-04 -1.972875806497e-04 0.0 
-1.972875806497e-04 6.573374097127e-03 0.0 
0.0 0.0 -9.812220007866e-04 
-7.630262787412e-04 -1.649240710624e-04 0.0 
-1.649240710624e-04 5.040550269950e-03 0.0 
0.0 0.0 -7.604224332210e-04 
-1.040603755793e-03 1.933348900592e-04 0.0 
1.933348900592e-04 6.902261502476e-03 0.0 
0.0 0.0 -1.041555045145e-03 
-5.360677599799e-04 1.876482889456e-04 0.0 
1.876482889456e-04 3.380336319223e-03 0.0 
0.0 0.0 -5.350282927002e-04 
-3.256683131977e-04 2.104859329235e-04 0.0 
2.104859329235e-04 1.909139084910e-03 0.0 
0.0 0.0 -3.277310168338e-04 
-8.709310065231e-04 -1.930857458815e-04 0.0 
-1.930857458815e-04 5.840506173077e-03 0.0 
0.0 0.0 -8.787268422831e-04 
-9.478935846188e-04 -1.922017527602e-04 0.0 
-1.922017527602e-04 6.329496652854e-03 0.0 
0.0 0.0 -9.464297096767e-04 
-6.788789609641e-04 1.916120147783e-04 0.0 
1.916120147783e-04 4.369175427210e-03 0.0 
0.0 0.0 -6.776081642141e-04 
-9.468425740780e-04 -2.085300673065e-04 0.0 
-2.085300673065e-04 6.298374618209e-03 0.0 
0.0 0.0 -9.453210152248e-04 
-3.756080425156e-04 -1.934039556713e-04 0.0 
-1.934039556713e-04 2.352414382127e-03 0.0 
0.0 0.0 -3.758914132629e-04 
-9.664473934007e-04 1.935643871513e-04 0.0 
1.935643871513e-04 6.379409966944e-03 0.0 
0.0 0.0 -9.642804585795e-04 
-3.026576237446e-04 -1.928297610963e-04 0.0 
-1.928297610963e-04 1.798935007683e-03 0.0 
0.0 0.0 -2.947674122297e-04 
-1.153179427147e-03 -2.051549704311e-04 0.0 
-2.051549704311e-04 7.761192827607e-03 0.0 
0.0 0.0 -1.150402778756e-03 
-9.838604339424e-04 -1.907200549991e-04 0.0 
-1.907200549991e-04 6.585836583388e-03 0.0 
0.0 0.0 -9.834711240942e-04 
-1.039448222436e-03 -1.939988089318e-04 0.0 
-1.939988089318e-04 6.961176011231e-03 0.0 
0.0 0.0 -1.037051012011e-03 
-1.209610339595e-03 -2.064055054886e-04 0.0 
-2.064055054886e-04 8.130245976668e-03 0.0 
0.0 0.0 -1.204463612412e-03 
-8.289278457568e-04 -1.937873946282e-04 0.0 
-1.937873946282e-04 5.514638524943e-03 0.0 
0.0 0.0 -8.294769417472e-04 
-3.109821114722e-04 1.906924358190e-04 0.0 
1.906924358190e-04 1.784796369805e-03 0.0 
0.0 0.0 -3.081489256106e-04 
-9.237752216618e-04 -1.945449657843e-04 0.0 
-1.945449657843e-04 6.173770782065e-03 0.0 
0.0 0.0 -9.239488535170e-04 
-1.191042257491e-03 2.067698926502e-04 0.0 
2.067698926502e-04 7.951909524645e-03 0.0 
0.0 0.0 -1.189963100592e-03 
-4.775062598439e-04 -1.845893080325e-04 0.0 
-1.845893080325e-04 3.071724244623e-03 0.0 
0.0 0.0 -4.786098583285e-04 
-1.036708665275e-03 -1.995575756553e-04 0.0 
-1.995575756553e-04 6.972509629402e-03 0.0 
0.0 0.0 -1.038675661098e-03 
-1.042240091366e-03 -2.028158867282e-04 0.0 
-2.028158867282e-04 6.979443732142e-03 0.0 
0.0 0.0 -1.041631482750e-03 
-3.838009065759e-04 1.994121048007e-04 0.0 
1.994121048007e-04 2.344808306372e-03 0.0 
0.0 0.0 -3.880698300753e-04 
-9.524861751469e-04 -1.961707644155e-04 0.0 
-1.961707644155e-04 6.373861031903e-03 0.0 
0.0 0.0 -9.525765839929e-04 
-8.586433483391e-04 -1.931078618343e-04 0.0 
-1.931078618343e-04 5.748348032680e-03 0.0 
0.0 0.0 -8.663127257149e-04 
-4.249902311886e-04 -1.873478746315e-04 0.0 
-1.873478746315e-04 2.710801804411e-03 0.0 
0.0 0.0 -4.280652785065e-04 
-5.063403877371e-04 -1.957595432946e-04 0.0 
-1.957595432946e-04 3.295220362808e-03 0.0 
0.0 0.0 -5.113914792957e-04 
-8.011417777980e-04 -1.869294440003e-04 0.0 
-1.869294440003e-04 5.307962758149e-03 0.0 
0.0 0.0 -8.004334922225e-04 
-1.012906793309e-03 1.927821333669e-04 0.0 
1.927821333669e-04 6.702583928550e-03 0.0 
0.0 0.0 -1.012809740122e-03 
-6.237702296699e-04 -1.788620839171e-04 0.0 
-1.788620839171e-04 4.053757856152e-03 0.0 
0.0 0.0 -6.201901524263e-04 
-7.654836975308e-04 -1.844361479045e-04 0.0 
-1.844361479045e-04 5.061981616524e-03 0.0 
0.0 0.0 -7.649884091348e-04 
-1.002132587578e-03 1.966152402383e-04 0.0 
1.966152402383e-04 6.628701174112e-03 0.0 
0.0 0.0 -1.000670320419e-03 
-9.160037735611e-04 2.105070801011e-04 0.0 
2.105070801011e-04 6.003693375901e-03 0.0 
0.0 0.0 -9.110000341593e-04 
-8.984996443820e-04 1.923871522476e-04 0.0 
1.923871522476e-04 5.918711205323e-03 0.0 
0.0 0.0 -8.984003255416e-04 
-7.635747983665e-04 1.700234808702e-04 0.0 
1.700234808702e-04 4.971193028469e-03 0.0 
0.0 0.0 -7.627602282935e-04 
-1.130358647028e-03 -1.898334947356e-04 0.0 
-1.898334947356e-04 7.609563538776e-03 0.0 
0.0 0.0 -1.130631056169e-03 
-8.949695730274e-04 -1.944201834166e-04 0.0 
-1.944201834166e-04 5.973169188704e-03 0.0 
0.0 0.0 -8.953295484280e-04 
-8.818948229553e-04 -1.808766535773e-04 0.0 
-1.808766535773e-04 5.810855732820e-03 0.0 
0.0 0.0 -8.720525204519e-04 
-1.180322083838e-03 -2.544019696132e-04 0.0 
-2.544019696132e-04 8.044684295215e-03 0.0 
0.0 0.0 -1.193584144721e-03 
-1.074317409630e-03 -2.028987224977e-04 0.0 
-2.028987224977e-04 7.209609754449e-03 0.0 
0.0 0.0 -1.073433710836e-03 
-9.845138767756e-04 1.933324893147e-04 0.0 
1.933324893147e-04 6.502529959442e-03 0.0 
0.0 0.0 -9.841343610905e-04 
-1.074220521467e-03 1.937044770005e-04 0.0 
1.937044770005e-04 7.133220182241e-03 0.0 
0.0 0.0 -1.073677668998e-03 
-5.827062234069e-04 -1.941542500793e-04 0.0 
-1.941542500793e-04 3.817750575136e-03 0.0 
0.0 0.0 -5.862626530915e-04 
-5.447661780291e-04 -1.955268079661e-04 0.0 
-1.955268079661e-04 3.556218869368e-03 0.0 
0.0 0.0 -5.488365039436e-04 
-3.200298242820e-04 -2.008010355192e-04 0.0 
-2.008010355192e-04 1.912733596730e-03 0.0 
0.0 0.0 -3.130684191733e-04 
-9.610361432964e-04 -1.937939784478e-04 0.0 
-1.937939784478e-04 6.432925566233e-03 0.0 
0.0 0.0 -9.612598090090e-04 
-5.730915420071e-04 -1.993284364060e-04 0.0 
-1.993284364060e-04 3.756322275087e-03 0.0 
0.0 0.0 -5.775003002374e-04 
-9.676234080517e-04 -1.978430549766e-04 0.0 
-1.978430549766e-04 6.470709836540e-03 0.0 
0.0 0.0 -9.686535345556e-04 
-9.307775843259e-04 -2.009567450900e-04 0.0 
-2.009567450900e-04 6.218061512745e-03 0.0 
0.0 0.0 -9.322463471790e-04 
-7.694630900908e-04 -1.939675917432e-04 0.0 
-1.939675917432e-04 5.091771385307e-03 0.0 
0.0 0.0 -7.690363516573e-04 
-4.826168522867e-04 1.966675666533e-04 0.0 
1.966675666533e-04 3.022691758795e-03 0.0 
0.0 0.0 -4.860199686152e-04 
-5.166152208990e-04 1.895375761803e-04 0.0 
1.895375761803e-04 3.232772262981e-03 0.0 
0.0 0.0 -5.148587792422e-04 
-5.108840173734e-04 1.960376866878e-04 0.0 
1.960376866878e-04 3.223531247209e-03 0.0 
0.0 0.0 -5.143448975765e-04 
-5.481816317278e-04 1.962623655860e-04 0.0 
1.962623655860e-04 3.484569495256e-03 0.0 
0.0 0.0 -5.517963299543e-04 
-3.453277696027e-04 1.969675537480e-04 0.0 
1.969675537480e-04 2.040898908983e-03 0.0 
0.0 0.0 -3.446931235564e-04 
-1.101052151537e-03 -1.995058256317e-04 0.0 
-1.995058256317e-04 7.411556171306e-03 0.0 
0.0 0.0 -1.101849228970e-03 
-6.632570071373e-04 1.923578636572e-04 0.0 
1.923578636572e-04 4.270077985980e-03 0.0 
0.0 0.0 -6.642957827475e-04 
-1.108318305334e-03 -2.031784349513e-04 0.0 
-2.031784349513e-04 7.443886566257e-03 0.0 
0.0 0.0 -1.107989045227e-03 
-7.011090036509e-04 1.927949869008e-04 0.0 
1.927949869008e-04 4.532588404756e-03 0.0 
0.0 0.0 -7.013039408444e-04 
-9.265731680826e-04 1.957284230983e-04 0.0 
1.957284230983e-04 6.103426765876e-03 0.0 
0.0 0.0 -9.268471029391e-04 
-7.946469523286e-04 1.955747403875e-04 0.0 
1.955747403875e-04 5.185524606882e-03 0.0 
0.0 0.0 -7.951651613512e-04 
-7.572756681299e-04 -1.872685007042e-04 0.0 
-1.872685007042e-04 5.004494979540e-03 0.0 
0.0 0.0 -7.567435594048e-04 
-3.404029927324e-04 -1.917944120496e-04 0.0 
-1.917944120496e-04 2.114741006724e-03 0.0 
0.0 0.0 -3.417109511102e-04 
-1.168366620594e-03 1.821653519024e-04 0.0 
1.821653519024e-04 7.733894625142e-03 0.0 
0.0 0.0 -1.161691925552e-03 
-1.208283455631e-03 -2.138622136652e-04 0.0 
-2.138622136652e-04 8.118515122607e-03 0.0 
0.0 0.0 -1.198716319349e-03 
-9.647894746907e-04 1.840623527821e-04 0.0 
1.840623527821e-04 6.374025584992e-03 0.0 
0.0 0.0 -9.650368815299e-04 
-5.866113351029e-04 1.997061311369e-04 0.0 
1.997061311369e-04 3.745701321029e-03 0.0 
0.0 0.0 -5.892385666867e-04 
-8.606873822814e-04 1.952603744915e-04 0.0 
1.952603744915e-04 5.644314043148e-03 0.0 
0.0 0.0 -8.609535187098e-04 
-9.731621015165e-04 2.042240848123e-04 0.0 
2.042240848123e-04 6.416634786867e-03 0.0 
0.0 0.0 -9.708520278613e-04 
-6.114505218060e-04 -1.970451499323e-04 0.0 
-1.970451499323e-04 4.016656707276e-03 0.0 
0.0 0.0 -6.148791393494e-04 
-6.402153518211e-04 -1.799304007789e-04 0.0 
-1.799304007789e-04 4.195134185684e-03 0.0 
0.0 0.0 -6.394234923164e-04 
-4.756790629449e-04 -1.970276149029e-04 0.0 
-1.970276149029e-04 3.037216567460e-03 0.0 
0.0 0.0 -4.739097840058e-04 
-4.115649622254e-04 -1.881038262711e-04 0.0 
-1.881038262711e-04 2.615008917890e-03 0.0 
0.0 0.0 -4.132304097957e-04 
-6.210949620284e-04 -1.921853512952e-04 0.0 
-1.921853512952e-04 4.079647892730e-03 0.0 
0.0 0.0 -6.236739531379e-04 
-4.389003653302e-04 1.899270358255e-04 0.0 
1.899270358255e-04 2.702990318359e-03 0.0 
0.0 0.0 -4.393534411964e-04 
-3.957050609942e-04 -2.005038904365e-04 0.0 
-2.005038904365e-04 2.512628569390e-03 0.0 
0.0 0.0 -3.988888273503e-04 
-7.912937221892e-04 -1.931036918808e-04 0.0 
-1.931036918808e-04 5.255690323409e-03 0.0 
0.0 0.0 -7.922809795675e-04 
-9.555190717992e-04 1.953941988256e-04 0.0 
1.953941988256e-04 6.303135181036e-03 0.0 
0.0 0.0 -9.554846610150e-04 
-1.131935364223e-03 1.749369794292e-04 0.0 
1.749369794292e-04 7.516475401832e-03 0.0 
0.0 0.0 -1.128610778606e-03 
-7.677587316374e-05 5.132629422694e-05 0.0 
5.132629422694e-05 2.950272314679e-04 0.0 
0.0 0.0 -4.808883996072e-05 
-6.821273879061e-04 1.885153294962e-04 0.0 
1.885153294962e-04 4.394625922574e-03 0.0 
0.0 0.0 -6.818868151028e-04 
-6.732798359077e-04 1.896419879917e-04 0.0 
1.896419879917e-04 4.334337175818e-03 0.0 
0.0 0.0 -6.732431144785e-04 
-6.253359345237e-04 1.966841986602e-04 0.0 
1.966841986602e-04 4.007688208335e-03 0.0 
0.0 0.0 -6.268095852860e-04 
-9.342352764228e-04 1.992757766659e-04 0.0 
1.992757766659e-04 6.164738867849e-03 0.0 
0.0 0.0 -9.344164207832e-04 
-7.286499736728e-04 1.960851222300e-04 0.0 
1.960851222300e-04 4.727094990713e-03 0.0 
0.0 0.0 -7.295442444478e-04 
-5.028967805497e-04 2.032690915996e-04 0.0 
2.032690915996e-04 3.169465929495e-03 0.0 
0.0 0.0 -5.055050897130e-04 
-6.594115462037e-04 -1.877379034349e-04 0.0 
-1.877379034349e-04 4.343026444268e-03 0.0 
0.0 0.0 -6.611654675676e-04 
-1.086852433707e-03 1.972393602690e-04 0.0 
1.972393602690e-04 7.180508805687e-03 0.0 
0.0 0.0 -1.080452943103e-03 
-5.134906191046e-04 -1.975407525199e-04 0.0 
-1.975407525199e-04 3.241783811479e-03 0.0 
0.0 0.0 -5.025663706543e-04 
-2.068765507079e-04 1.780811299395e-04 0.0 
1.780811299395e-04 1.103158600140e-03 0.0 
0.0 0.0 -2.132551421006e-04 
-2.821446593325e-04 1.850947824847e-04 0.0 
1.850947824847e-04 1.595379339776e-03 0.0 
0.0 0.0 -2.784575373548e-04 
-4.423162808512e-04 1.966617048387e-04 0.0 
1.966617048387e-04 2.737975260110e-03 0.0 
0.0 0.0 -4.444240490352e-04 
-5.210766744923e-04 1.945752899053e-04 0.0 
1.945752899053e-04 3.285513932229e-03 0.0 
0.0 0.0 -5.239304829885e-04 
-7.103179674583e-04 1.937608556774e-04 0.0 
1.937608556774e-04 4.594082704701e-03 0.0 
0.0 0.0 -7.099160536912e-04 
-6.974191009825e-04 -1.859522295000e-04 0.0 
-1.859522295000e-04 4.604175499566e-03 0.0 
0.0 0.0 -6.984076724203e-04 
-3.111089899344e-04 -2.166751455615e-04 0.0 
-2.166751455615e-04 1.884393958953e-03 0.0 
0.0 0.0 -3.092759564244e-04 
-2.948433446492e-04 -2.106961415147e-04 0.0 
-2.106961415147e-04 1.651650768654e-03 0.0 
0.0 0.0 -2.765202162382e-04 
-9.029473964606e-04 -2.318038937515e-04 0.0 
-2.318038937515e-04 5.899437226641e-03 0.0 
0.0 0.0 -8.885078876198e-04 
-4.353328022797e-04 -2.074729337185e-04 0.0 
-2.074729337185e-04 2.774644133327e-03 0.0 
0.0 0.0 -4.363975895258e-04 
-1.066115861838e-03 1.923323182630e-04 0.0 
1.923323182630e-04 7.082058213666e-03 0.0 
0.0 0.0 -1.067401112627e-03 
-1.093430528172e-03 1.859529625015e-04 0.0 
1.859529625015e-04 7.265648937776e-03 0.0 
0.0 0.0 -1.093380752811e-03 
-9.055761456836e-04 -1.909848796464e-04 0.0 
-1.909848796464e-04 6.010442057108e-03 0.0 
0.0 0.0 -9.013836717722e-04 
-1.127393681638e-03 1.896887369255e-04 0.0 
1.896887369255e-04 7.503433377312e-03 0.0 
0.0 0.0 -1.126084317643e-03 
-1.155463123535e-03 1.744033292086e-04 0.0 
1.744033292086e-04 7.751673747269e-03 0.0 
0.0 0.0 -1.164310864388e-03 
-7.420687839784e-04 -1.936328330323e-04 0.0 
-1.936328330323e-04 4.896453187980e-03 0.0 
0.0 0.0 -7.408850503417e-04 
-1.028946225618e-03 1.859237494967e-04 0.0 
1.859237494967e-04 6.817745899264e-03 0.0 
0.0 0.0 -1.029042339204e-03 
-3.444765648257e-04 -1.889029113480e-04 0.0 
-1.889029113480e-04 2.157321474184e-03 0.0 
0.0 0.0 -3.474733517438e-04 
-6.874756161392e-04 -1.926159426764e-04 0.0 
-1.926159426764e-04 4.537720382930e-03 0.0 
0.0 0.0 -6.894573431515e-04 
-6.898061862195e-04 1.857511077276e-04 0.0 
1.857511077276e-04 4.440388507088e-03 0.0 
0.0 0.0 -6.879681371099e-04 
-4.019279772504e-04 1.778728342642e-04 0.0 
1.778728342642e-04 2.433102799940e-03 0.0 
0.0 0.0 -3.974404770784e-04 
-2.808996377463e-04 -1.954566177410e-04 0.0 
-1.954566177410e-04 1.711546538442e-03 0.0 
0.0 0.0 -2.813757158202e-04 
-5.769851111882e-04 1.945968129497e-04 0.0 
1.945968129497e-04 3.685550638925e-03 0.0 
0.0 0.0 -5.804062017457e-04 
-6.698465200997e-04 -1.848151346018e-04 0.0 
-1.848151346018e-04 4.407215399786e-03 0.0 
0.0 0.0 -6.703429011759e-04 
-7.069533997817e-04 -1.864555130782e-04 0.0 
-1.864555130782e-04 4.664424843705e-03 0.0 
0.0 0.0 -7.070647534220e-04 
-4.705619805672e-04 1.797584254588e-04 0.0 
1.797584254588e-04 2.905608131468e-03 0.0 
0.0 0.0 -4.680152132766e-04 
-7.664680765081e-04 1.944574444008e-04 0.0 
1.944574444008e-04 4.988010799345e-03 0.0 
0.0 0.0 -7.666177146937e-04 
-6.793079833930e-04 -1.842955306639e-04 0.0 
-1.842955306639e-04 4.467105658874e-03 0.0 
0.0 0.0 -6.790125122095e-04 
-7.192535587873e-04 1.886174479633e-04 0.0 
1.886174479633e-04 4.651675493154e-03 0.0 
0.0 0.0 -7.183521444552e-04 
-5.167516635029e-04 -1.889877885737e-04 0.0 
-1.889877885737e-04 3.361424050145e-03 0.0 
0.0 0.0 -5.205443542100e-04 
-9.916854113118e-04 -1.973034417569e-04 0.0 
-1.973034417569e-04 6.645632539252e-03 0.0 
0.0 0.0 -9.921115096417e-04 
-1.000725886826e-03 -2.001881518318e-04 0.0 
-2.001881518318e-04 6.682457666445e-03 0.0 
0.0 0.0 -9.984673180475e-04 
-6.910740697019e-04 1.869291771831e-04 0.0 
1.869291771831e-04 4.454330638785e-03 0.0 
0.0 0.0 -6.904379518788e-04 
-1.131075422052e-03 1.930354118908e-04 0.0 
1.930354118908e-04 7.540452433703e-03 0.0 
0.0 0.0 -1.133495712197e-03 
-3.818178823842e-04 -1.881304660736e-04 0.0 
-1.881304660736e-04 2.417279904182e-03 0.0 
0.0 0.0 -3.849690761666e-04 
-1.204919198583e-03 2.055908933390e-04 0.0 
2.055908933390e-04 8.107807864514e-03 0.0 
0.0 0.0 -1.208505026952e-03 
-7.381856154466e-04 1.951283212297e-04 0.0 
1.951283212297e-04 4.788651758778e-03 0.0 
0.0 0.0 -7.381355003807e-04 
-1.179893914325e-03 2.326195910896e-04 0.0 
2.326195910896e-04 8.057192319457e-03 0.0 
0.0 0.0 -1.203459118631e-03 
-9.174882615910e-04 -1.900236548233e-04 0.0 
-1.900236548233e-04 6.103327033778e-03 0.0 
0.0 0.0 -9.144069900286e-04 
-3.759838339719e-04 1.980975432101e-04 0.0 
1.980975432101e-04 2.280850535288e-03 0.0 
0.0 0.0 -3.788569260404e-04 
-9.329446838714e-04 -1.934956866743e-04 0.0 
-1.934956866743e-04 6.203824333692e-03 0.0 
0.0 0.0 -9.292863832265e-04 
-1.148316362968e-03 1.911406139228e-04 0.0 
1.911406139228e-04 7.656686617329e-03 0.0 
0.0 0.0 -1.148369591821e-03 
-7.751955477395e-04 1.935539670278e-04 0.0 
1.935539670278e-04 5.048248374235e-03 0.0 
0.0 0.0 -7.747733155264e-04 
-5.636121724150e-04 -1.856060269499e-04 0.0 
-1.856060269499e-04 3.652721039859e-03 0.0 
0.0 0.0 -5.621395992319e-04 
-9.592421645063e-04 -1.953589560094e-04 0.0 
-1.953589560094e-04 6.397497054977e-03 0.0 
0.0 0.0 -9.572423940436e-04 
-7.410203931499e-04 1.888947749689e-04 0.0 
1.888947749689e-04 4.805195564350e-03 0.0 
0.0 0.0 -7.402445244775e-04 
-3.049241937385e-04 2.026327067247e-04 0.0 
2.026327067247e-04 1.807680481835e-03 0.0 
0.0 0.0 -3.123079531677e-04 
-1.247303547099e-03 2.054291781831e-04 0.0 
2.054291781831e-04 8.428743189038e-03 0.0 
0.0 0.0 -1.259077240559e-03 
-2.832321787004e-04 2.033440710738e-04 0.0 
2.033440710738e-04 1.568411261078e-03 0.0 
0.0 0.0 -2.747754844540e-04 
-1.180725818141e-03 -1.959284539652e-04 0.0 
-1.959284539652e-04 8.086063063664e-03 0.0 
0.0 0.0 -1.194426649262e-03 
-1.181044415914e-03 1.885702677113e-04 0.0 
1.885702677113e-04 7.848025462359e-03 0.0 
0.0 0.0 -1.175981821618e-03 
-1.019774229424e-03 -1.968009652079e-04 0.0 
-1.968009652079e-04 6.844195853493e-03 0.0 
0.0 0.0 -1.020516803968e-03 
-9.063963003823e-04 2.216702355020e-04 0.0 
2.216702355020e-04 5.948302852210e-03 0.0 
0.0 0.0 -9.041796124736e-04 
-1.096159842107e-03 -2.041353887510e-04 0.0 
-2.041353887510e-04 7.354511593932e-03 0.0 
0.0 0.0 -1.094228678348e-03 
-7.158215028594e-04 -1.849822212150e-04 0.0 
-1.849822212150e-04 4.721957550486e-03 0.0 
0.0 0.0 -7.154996274706e-04 
-8.342688439829e-04 -1.960354733344e-04 0.0 
-1.960354733344e-04 5.542507863884e-03 0.0 
0.0 0.0 -8.337527902170e-04 
-1.179248762261e-03 1.915113563363e-04 0.0 
1.915113563363e-04 7.953436829066e-03 0.0 
0.0 0.0 -1.191782302182e-03 
-1.022355738208e-03 1.947903411638e-04 0.0 
1.947903411638e-04 6.764095762217e-03 0.0 
0.0 0.0 -1.021464098896e-03 
-1.029803380413e-03 -1.995345647328e-04 0.0 
-1.995345647328e-04 6.892395198165e-03 0.0 
0.0 0.0 -1.028225029406e-03 
-9.800703698298e-04 2.033610077795e-04 0.0 
2.033610077795e-04 6.469215121367e-03 0.0 
0.0 0.0 -9.780777104595e-04 
-3.460311380533e-04 1.949105016323e-04 0.0 
1.949105016323e-04 2.083431817991e-03 0.0 
0.0 0.0 -3.505936111242e-04 
-1.056998258985e-03 -2.024071474235e-04 0.0 
-2.024071474235e-04 7.098571223248e-03 0.0 
0.0 0.0 -1.057861461704e-03 
-1.245215734681e-03 -2.948889405532e-06 0.0 
-2.948889405532e-06 8.708064260567e-03 0.0 
0.0 0.0 -1.268085107495e-03 
-1.199968332554e-03 2.184447548860e-04 0.0 
2.184447548860e-04 8.021680446852e-03 0.0 
0.0 0.0 -1.202195648613e-03 
-6.908555778157e-04 1.952647486751e-04 0.0 
1.952647486751e-04 4.467406980685e-03 0.0 
0.0 0.0 -6.923681691211e-04 
-8.989504497264e-04 -2.030487714898e-04 0.0 
-2.030487714898e-04 5.998411166372e-03 0.0 
0.0 0.0 -9.020111041354e-04 
-8.706850616848e-04 2.163039302349e-04 0.0 
2.163039302349e-04 5.704755713039e-03 0.0 
0.0 0.0 -8.677534307045e-04 
-7.350398663415e-04 -1.921852650882e-04 0.0 
-1.921852650882e-04 4.858429528850e-03 0.0 
0.0 0.0 -7.352749011056e-04 
-9.925381973485e-04 1.968648573772e-04 0.0 
1.968648573772e-04 6.563559215451e-03 0.0 
0.0 0.0 -9.927925938929e-04 
-1.029028532084e-03 1.960911717032e-04 0.0 
1.960911717032e-04 6.822296250893e-03 0.0 
0.0 0.0 -1.030113165296e-03 
-2.401332151859e-04 -2.098625103456e-04 0.0 
-2.098625103456e-04 1.444865681486e-03 0.0 
0.0 0.0 -2.466400652194e-04 
-4.534206567438e-04 1.915983849917e-04 0.0 
1.915983849917e-04 2.786638049385e-03 0.0 
0.0 0.0 -4.508272210452e-04 
-7.276651503282e-04 1.887396446789e-04 0.0 
1.887396446789e-04 4.711996878728e-03 0.0 
0.0 0.0 -7.269793770173e-04 
-6.885109501690e-04 -1.881460235650e-04 0.0 
-1.881460235650e-04 4.526125077483e-03 0.0 
0.0 0.0 -6.875569550716e-04 
-7.327380615622e-04 1.893031023786e-04 0.0 
1.893031023786e-04 4.746976141071e-03 0.0 
0.0 0.0 -7.320784846625e-04 
-1.207414471784e-03 -1.921627464004e-04 0.0 
-1.921627464004e-04 8.251115158096e-03 0.0 
0.0 0.0 -1.225426844749e-03 
-1.165911235799e-03 1.728266951447e-04 0.0 
1.728266951447e-04 7.751919212480e-03 0.0 
0.0 0.0 -1.162686153705e-03 
-1.174125183305e-03 -1.966474411141e-04 0.0 
-1.966474411141e-04 7.895985343999e-03 0.0 
0.0 0.0 -1.173632101657e-03 
-6.588438363323e-04 -1.812037125044e-04 0.0 
-1.812037125044e-04 4.301364332342e-03 0.0 
0.0 0.0 -6.556197767577e-04 
-1.082747471146e-03 1.891035132956e-04 0.0 
1.891035132956e-04 7.201407994730e-03 0.0 
0.0 0.0 -1.082713561900e-03 
-9.901836726999e-04 -1.945402384494e-04 0.0 
-1.945402384494e-04 6.633588115461e-03 0.0 
0.0 0.0 -9.899156953211e-04 
-1.203900706285e-03 2.001643692103e-04 0.0 
2.001643692103e-04 8.020307122063e-03 0.0 
0.0 0.0 -1.198415070424e-03 
-1.018917370980e-03 -2.029360126540e-04 0.0 
-2.029360126540e-04 6.841232066874e-03 0.0 
0.0 0.0 -1.021631336281e-03 
-7.252862927281e-04 -1.917571483024e-04 0.0 
-1.917571483024e-04 4.797885526736e-03 0.0 
0.0 0.0 -7.266350563285e-04 
-6.996186826148e-04 1.874149340260e-04 0.0 
1.874149340260e-04 4.515630015583e-03 0.0 
0.0 0.0 -6.989458521267e-04 
-1.062701287971e-03 1.919893444833e-04 0.0 
1.919893444833e-04 7.044103527011e-03 0.0 
0.0 0.0 -1.060111126929e-03 
-1.159236038185e-03 -2.100410646673e-04 0.0 
-2.100410646673e-04 7.815649065545e-03 0.0 
0.0 0.0 -1.160283895044e-03 
-1.068044840095e-03 1.975027097547e-04 0.0 
1.975027097547e-04 7.089380260529e-03 0.0 
0.0 0.0 -1.066842251349e-03 
-1.033322736071e-03 1.952546159750e-04 0.0 
1.952546159750e-04 6.838585495745e-03 0.0 
0.0 0.0 -1.030428295937e-03 
-1.127957771235e-03 2.034159333984e-04 0.0 
2.034159333984e-04 7.486625778373e-03 0.0 
0.0 0.0 -1.124756152480e-03 
-1.155677614868e-03 -1.983866149801e-04 0.0 
-1.983866149801e-04 7.868967508162e-03 0.0 
0.0 0.0 -1.167530213646e-03 
-1.094507555949e-03 1.976519323402e-04 0.0 
1.976519323402e-04 7.281086392671e-03 0.0 
0.0 0.0 -1.096139997395e-03 
-8.893531318376e-04 1.947803294653e-04 0.0 
1.947803294653e-04 5.843023406601e-03 0.0 
0.0 0.0 -8.895595506238e-04 
-6.419372915529e-04 1.659854799663e-04 0.0 
1.659854799663e-04 4.112940198776e-03 0.0 
0.0 0.0 -6.419897747600e-04 
-1.057958817333e-03 -1.915382936822e-04 0.0 
-1.915382936822e-04 7.093836536897e-03 0.0 
0.0 0.0 -1.057160997780e-03 
-1.010397126926e-03 1.924777478118e-04 0.0 
1.924777478118e-04 6.699973834187e-03 0.0 
0.0 0.0 -1.010795753303e-03 
-4.010552004860e-04 1.841654314204e-04 0.0 
1.841654314204e-04 2.442507368575e-03 0.0 
0.0 0.0 -4.018221946533e-04 
-7.246063133898e-04 -1.880612964647e-04 0.0 
-1.880612964647e-04 4.782342909510e-03 0.0 
0.0 0.0 -7.241222962603e-04 
-8.198364604858e-04 1.863931235936e-04 0.0 
1.863931235936e-04 5.353653336719e-03 0.0 
0.0 0.0 -8.193994707270e-04 
-8.991995514688e-04 -1.967035222147e-04 0.0 
-1.967035222147e-04 5.995025760983e-03 0.0 
0.0 0.0 -8.986564694586e-04 
-4.050243053020e-04 1.994613475965e-04 0.0 
1.994613475965e-04 2.469637685563e-03 0.0 
0.0 0.0 -4.057256964758e-04 
-6.967689891126e-04 -1.888281546422e-04 0.0 
-1.888281546422e-04 4.585730407348e-03 0.0 
0.0 0.0 -6.962026719631e-04 
-9.643194553962e-04 -1.980704148003e-04 0.0 
-1.980704148003e-04 6.448875351116e-03 0.0 
0.0 0.0 -9.636952012155e-04 
-7.333735645701e-04 1.825225121090e-04 0.0 
1.825225121090e-04 4.734280668460e-03 0.0 
0.0 0.0 -7.294090860402e-04 
-7.570403720066e-04 1.947967854262e-04 0.0 
1.947967854262e-04 4.925685443404e-03 0.0 
0.0 0.0 -7.579899565570e-04 
-9.487659951765e-04 -2.043170517302e-04 0.0 
-2.043170517302e-04 6.373556266418e-03 0.0 
0.0 0.0 -9.556638187253e-04 
-7.610430462996e-04 1.745184878598e-04 0.0 
1.745184878598e-04 5.044670069107e-03 0.0 
0.0 0.0 -7.638029664831e-04 
-1.838096952562e-04 2.082695791090e-04 0.0 
2.082695791090e-04 7.724611367138e-04 0.0 
0.0 0.0 -1.578647551136e-04 
-8.576241388509e-04 -1.943288446579e-04 0.0 
-1.943288446579e-04 5.714280224429e-03 0.0 
0.0 0.0 -8.580817703278e-04 
-1.051194806149e-03 1.905396044606e-04 0.0 
1.905396044606e-04 6.972468322912e-03 0.0 
0.0 0.0 -1.051835763028e-03 
-1.194223105728e-03 2.022847639454e-04 0.0 
2.022847639454e-04 8.008401190618e-03 0.0 
0.0 0.0 -1.196871286280e-03 
-8.007996408172e-04 1.886044981360e-04 0.0 
1.886044981360e-04 5.220729595959e-03 0.0 
0.0 0.0 -7.999758813884e-04 
-8.231738978705e-04 1.954670675702e-04 0.0 
1.954670675702e-04 5.384433434041e-03 0.0 
0.0 0.0 -8.237210115815e-04 
-9.659298580920e-04 -1.974560001277e-04 0.0 
-1.974560001277e-04 6.432078237772e-03 0.0 
0.0 0.0 -9.620958722924e-04 
-2.561485936919e-04 2.198683939719e-04 0.0 
2.198683939719e-04 1.251380499119e-03 0.0 
0.0 0.0 -2.247161217206e-04 
-1.023132414130e-03 1.887327440294e-04 0.0 
1.887327440294e-04 6.775332410064e-03 0.0 
0.0 0.0 -1.023361637732e-03 
-8.622181034216e-04 -1.951138773543e-04 0.0 
-1.951138773543e-04 5.740266887697e-03 0.0 
0.0 0.0 -8.619475031456e-04 
-7.647880329061e-04 -1.862411199866e-04 0.0 
-1.862411199866e-04 5.038541863179e-03 0.0 
0.0 0.0 -7.615729788896e-04 
-1.027082371763e-03 -1.922014268245e-04 0.0 
-1.922014268245e-04 6.892038875610e-03 0.0 
0.0 0.0 -1.027225276160e-03 
-3.935518598364e-04 -1.714817472150e-04 0.0 
-1.714817472150e-04 2.494688902106e-03 0.0 
0.0 0.0 -3.946419382404e-04 
-1.063411595146e-03 -1.940895073894e-04 0.0 
-1.940895073894e-04 7.151260433919e-03 0.0 
0.0 0.0 -1.064556537081e-03 
-1.170769687049e-03 1.998990496914e-04 0.0 
1.998990496914e-04 7.807167189230e-03 0.0 
0.0 0.0 -1.170878753521e-03 
-9.957874322238e-04 1.860819940760e-04 0.0 
1.860819940760e-04 6.577964668805e-03 0.0 
0.0 0.0 -9.948919501216e-04 
-1.066802879167e-03 -1.994715727017e-04 0.0 
-1.994715727017e-04 7.144842154603e-03 0.0 
0.0 0.0 -1.064574987933e-03 
-1.080893362265e-03 -2.009448288778e-04 0.0 
-2.009448288778e-04 7.278345089593e-03 0.0 
0.0 0.0 -1.082686220397e-03 
-1.164339334361e-03 -2.029535809834e-04 0.0 
-2.029535809834e-04 7.872490943299e-03 0.0 
0.0 0.0 -1.168035910845e-03 
-3.299141803929e-04 2.316983388686e-04 0.0 
2.316983388686e-04 1.731538717207e-03 0.0 
0.0 0.0 -2.917408095836e-04 
-9.904023149971e-04 -1.959122471390e-04 0.0 
-1.959122471390e-04 6.637118298013e-03 0.0 
0.0 0.0 -9.919185416031e-04 
-1.168730602385e-03 -1.909886301280e-04 0.0 
-1.909886301280e-04 7.900162167174e-03 0.0 
0.0 0.0 -1.173906618061e-03 
-1.099721820410e-03 1.948899321208e-04 0.0 
1.948899321208e-04 7.299287446510e-03 0.0 
0.0 0.0 -1.096489272820e-03 
-9.304220125416e-04 1.873101926856e-04 0.0 
1.873101926856e-04 6.124362452359e-03 0.0 
0.0 0.0 -9.297700869391e-04 
-7.330744366569e-04 -1.923064886364e-04 0.0 
-1.923064886364e-04 4.838398720579e-03 0.0 
0.0 0.0 -7.325247082200e-04 
-8.060696050279e-04 1.870863771178e-04 0.0 
1.870863771178e-04 5.268149186535e-03 0.0 
0.0 0.0 -8.069452076110e-04 
-2.418248245405e-04 2.109020271233e-04 0.0 
2.109020271233e-04 1.359709000534e-03 0.0 
0.0 0.0 -2.482170483719e-04 
-1.134273257583e-03 1.988705509169e-04 0.0 
1.988705509169e-04 7.550007886780e-03 0.0 
0.0 0.0 -1.132911322290e-03 
-4.274524748729e-04 1.964334948297e-04 0.0 
1.964334948297e-04 2.645397720372e-03 0.0 
0.0 0.0 -4.309687334850e-04 
-3.881418594362e-04 1.833155679552e-04 0.0 
1.833155679552e-04 2.160044348329e-03 0.0 
0.0 0.0 -3.582286249851e-04 
-1.052002855886e-03 -1.883464211935e-04 0.0 
-1.883464211935e-04 7.074906707182e-03 0.0 
0.0 0.0 -1.054483161448e-03 
-1.207081545900e-03 1.915242773210e-04 0.0 
1.915242773210e-04 8.072287243083e-03 0.0 
0.0 0.0 -1.206783194404e-03 
-3.547804392097e-04 -1.807868565671e-04 0.0 
-1.807868565671e-04 2.226917608771e-03 0.0 
0.0 0.0 -3.573182248098e-04 
-8.366419951608e-04 -1.885488255626e-04 0.0 
-1.885488255626e-04 5.554595282055e-03 0.0 
0.0 0.0 -8.358581584049e-04 
-1.023802301552e-03 1.940941463560e-04 0.0 
1.940941463560e-04 6.787907294573e-03 0.0 
0.0 0.0 -1.023814440555e-03 
-7.829083596588e-04 -1.954293300843e-04 0.0 
-1.954293300843e-04 5.194152372337e-03 0.0 
0.0 0.0 -7.840072721007e-04 
-4.010673323255e-04 -1.915498976049e-04 0.0 
-1.915498976049e-04 2.542328077149e-03 0.0 
0.0 0.0 -4.027365510179e-04 
-5.321744599270e-04 1.883621527591e-04 0.0 
1.883621527591e-04 3.333505553591e-03 0.0 
0.0 0.0 -5.292697486782e-04 
-2.639771075772e-04 1.646102614639e-04 0.0 
1.646102614639e-04 1.613590548762e-03 0.0 
0.0 0.0 -2.862163191752e-04 
-3.553659692627e-04 1.943928252885e-04 0.0 
1.943928252885e-04 2.154693693140e-03 0.0 
0.0 0.0 -3.608158092454e-04 
-3.249476260035e-04 1.935471720913e-04 0.0 
1.935471720913e-04 1.899890607766e-03 0.0 
0.0 0.0 -3.238926756799e-04 
-8.653379371193e-04 1.875602502826e-04 0.0 
1.875602502826e-04 5.671952828596e-03 0.0 
0.0 0.0 -8.647910268431e-04 
-1.297827382279e-03 4.785112367207e-06 0.0 
4.785112367207e-06 9.109555355960e-03 0.0 
0.0 0.0 -1.324146187826e-03 
-4.467143920628e-04 1.726574000167e-04 0.0 
1.726574000167e-04 2.617142877359e-03 0.0 
0.0 0.0 -4.244337567297e-04 
-1.156016819955e-03 1.914756519666e-04 0.0 
1.914756519666e-04 7.686772050836e-03 0.0 
0.0 0.0 -1.153422328581e-03 
-6.441918423607e-04 1.888512827500e-04 0.0 
1.888512827500e-04 4.126863023303e-03 0.0 
0.0 0.0 -6.430507458085e-04 
-9.827241532880e-04 -2.074075714334e-04 0.0 
-2.074075714334e-04 6.589898560790e-03 0.0 
0.0 0.0 -9.856407671940e-04 
-3.167090590366e-04 1.983492302007e-04 0.0 
1.983492302007e-04 1.826080605665e-03 0.0 
0.0 0.0 -3.129386394028e-04 
-1.211080746195e-03 -1.918872231890e-04 0.0 
-1.918872231890e-04 8.120902711811e-03 0.0 
0.0 0.0 -1.206759618350e-03 
-3.103668027405e-04 -1.740204278261e-04 0.0 
-1.740204278261e-04 1.967988296131e-03 0.0 
0.0 0.0 -3.202688159031e-04 
-4.904887743195e-04 1.972396724306e-04 0.0 
1.972396724306e-04 3.115116694861e-03 0.0 
0.0 0.0 -4.995972236199e-04 
-1.033982221523e-03 1.864504257491e-04 0.0 
1.864504257491e-04 6.836114975340e-03 0.0 
0.0 0.0 -1.031547093314e-03 
-7.437947252401e-04 -1.892750744378e-04 0.0 
-1.892750744378e-04 4.914077369227e-03 0.0 
0.0 0.0 -7.436172176343e-04 
-1.132860593058e-03 -1.933960126785e-04 0.0 
-1.933960126785e-04 7.665930668868e-03 0.0 
0.0 0.0 -1.139062866688e-03 
-5.749455652610e-04 -1.941924528231e-04 0.0 
-1.941924528231e-04 3.751246786669e-03 0.0 
0.0 0.0 -5.762899171568e-04 
-1.046111348023e-03 -1.920749274324e-04 0.0 
-1.920749274324e-04 7.006833931181e-03 0.0 
0.0 0.0 -1.044446328659e-03 
-1.179461128015e-03 1.956649310083e-04 0.0 
1.956649310083e-04 7.993560630903e-03 0.0 
0.0 0.0 -1.198892520503e-03 
-9.969097330870e-04 1.983464851525e-04 0.0 
1.983464851525e-04 6.585106213615e-03 0.0 
0.0 0.0 -9.940794652285e-04 
-1.204741342101e-03 -1.841288982353e-04 0.0 
-1.841288982353e-04 8.066681748081e-03 0.0 
0.0 0.0 -1.194784139986e-03 
-1.085983696521e-03 -2.024519851536e-04 0.0 
-2.024519851536e-04 7.301290877674e-03 0.0 
0.0 0.0 -1.087318097122e-03 
-1.116801267184e-03 -2.016255265415e-04 0.0 
-2.016255265415e-04 7.509256724676e-03 0.0 
0.0 0.0 -1.116677092124e-03 
-3.616370043147e-04 1.787208051053e-04 0.0 
1.787208051053e-04 2.150891016686e-03 0.0 
0.0 0.0 -3.599422446610e-04 
-1.117518330453e-03 1.826877579253e-04 0.0 
1.826877579253e-04 7.419146366892e-03 0.0 
0.0 0.0 -1.115908039155e-03 
-1.052373239860e-03 1.884691524879e-04 0.0 
1.884691524879e-04 6.996291933739e-03 0.0 
0.0 0.0 -1.053364550114e-03 
-7.811189844041e-04 1.901992250616e-04 0.0 
1.901992250616e-04 5.082233377235e-03 0.0 
0.0 0.0 -7.792489223127e-04 
-5.208782508076e-04 1.844281060279e-04 0.0 
1.844281060279e-04 3.081353701983e-03 0.0 
0.0 0.0 -4.908673385051e-04 
-1.207263385308e-03 -1.938793257757e-04 0.0 
-1.938793257757e-04 8.301996435605e-03 0.0 
0.0 0.0 -1.232292820449e-03 
-4.172393042969e-04 1.982283144972e-04 0.0 
1.982283144972e-04 2.530985310794e-03 0.0 
0.0 0.0 -4.142712813041e-04 
-4.585162122278e-04 -2.188978008165e-04 0.0 
-2.188978008165e-04 2.969334744374e-03 0.0 
0.0 0.0 -4.655197245388e-04 
-1.104373486365e-03 2.012226859918e-04 0.0 
2.012226859918e-04 7.350396136819e-03 0.0 
0.0 0.0 -1.105063927110e-03 
-2.968425273524e-04 -1.642057746456e-04 0.0 
-1.642057746456e-04 1.792416919805e-03 0.0 
0.0 0.0 -2.939799329518e-04 
-7.924236500379e-04 -1.848261227190e-04 0.0 
-1.848261227190e-04 5.252920665959e-03 0.0 
0.0 0.0 -7.924235178053e-04 
-1.061921988885e-03 1.812104659022e-04 0.0 
1.812104659022e-04 7.031393709582e-03 0.0 
0.0 0.0 -1.059843925468e-03 
-1.181481514864e-03 -1.809401034033e-04 0.0 
-1.809401034033e-04 7.945597505832e-03 0.0 
0.0 0.0 -1.181155146799e-03 
-1.216519596998e-03 -1.765367581353e-04 0.0 
-1.765367581353e-04 8.170458135963e-03 0.0 
0.0 0.0 -1.210943746944e-03 
-1.030728582983e-03 -1.988607177777e-04 0.0 
-1.988607177777e-04 6.902267769970e-03 0.0 
0.0 0.0 -1.028825005900e-03 
-1.124714132978e-03 -2.064810197621e-04 0.0 
-2.064810197621e-04 7.559899990810e-03 0.0 
0.0 0.0 -1.123737208958e-03 
-6.812903531147e-04 1.901379600770e-04 0.0 
1.901379600770e-04 4.380740483724e-03 0.0 
0.0 0.0 -6.793824814286e-04 
-1.062351922354e-03 -1.985736001596e-04 0.0 
-1.985736001596e-04 7.130265690031e-03 0.0 
0.0 0.0 -1.062452857821e-03 
-5.858181118698e-04 1.875072715160e-04 0.0 
1.875072715160e-04 3.545318163494e-03 0.0 
0.0 0.0 -5.576509564599e-04 
-1.191462796189e-03 1.791343230628e-04 0.0 
1.791343230628e-04 7.859967464318e-03 0.0 
0.0 0.0 -1.181751882508e-03 
-6.536967362184e-04 1.840019481607e-04 0.0 
1.840019481607e-04 4.012532136349e-03 0.0 
0.0 0.0 -6.243763318321e-04 
-6.397657085008e-04 1.469527108766e-04 0.0 
1.469527108766e-04 4.231461376740e-03 0.0 
0.0 0.0 -6.577503189808e-04 
-7.727292442473e-04 1.893751122866e-04 0.0 
1.893751122866e-04 5.025497285819e-03 0.0 
0.0 0.0 -7.717627972493e-04 
-7.120157842108e-04 2.033227012875e-04 0.0 
2.033227012875e-04 4.491531755345e-03 0.0 
0.0 0.0 -6.911701761307e-04 
-8.847543506960e-04 -1.860726363622e-04 0.0 
-1.860726363622e-04 5.886975687793e-03 0.0 
0.0 0.0 -8.833033330409e-04 
-7.223081526863e-04 -1.890141103708e-04 0.0 
-1.890141103708e-04 4.756005682412e-03 0.0 
0.0 0.0 -7.209687761305e-04 
-7.611226546140e-04 -1.925027368286e-04 0.0 
-1.925027368286e-04 5.033487039423e-03 0.0 
0.0 0.0 -7.606211034647e-04 
-3.677272213406e-04 1.965668598146e-04 0.0 
1.965668598146e-04 2.206714062611e-03 0.0 
0.0 0.0 -3.685806404478e-04 
-7.360898597851e-04 1.893736919884e-04 0.0 
1.893736919884e-04 4.769891666686e-03 0.0 
0.0 0.0 -7.353490689725e-04 
-1.164475384932e-03 1.920424604491e-04 0.0 
1.920424604491e-04 7.760458237861e-03 0.0 
0.0 0.0 -1.162517914204e-03 
-1.189135404011e-03 2.424308074021e-04 0.0 
2.424308074021e-04 8.008663372928e-03 0.0 
0.0 0.0 -1.195263893373e-03 
-1.051433761328e-03 1.900846295013e-04 0.0 
1.900846295013e-04 6.962500509983e-03 0.0 
0.0 0.0 -1.050100468764e-03 
-1.163815806160e-03 1.939359249112e-04 0.0 
1.939359249112e-04 7.801481486737e-03 0.0 
0.0 0.0 -1.170266998156e-03 
-7.471505649133e-04 1.914654167736e-04 0.0 
1.914654167736e-04 4.846432176661e-03 0.0 
0.0 0.0 -7.463264885205e-04 
-1.116874559966e-03 1.925152765080e-04 0.0 
1.925152765080e-04 7.452691656896e-03 0.0 
0.0 0.0 -1.119019617531e-03 
-7.641727686351e-04 1.895140519535e-04 0.0 
1.895140519535e-04 4.965709915575e-03 0.0 
0.0 0.0 -7.634232545038e-04 
-1.140149646673e-03 1.894710294716e-04 0.0 
1.894710294716e-04 7.619303377370e-03 0.0 
0.0 0.0 -1.144395376583e-03 
-1.089871366961e-03 1.866180545901e-04 0.0 
1.866180545901e-04 7.246015693997e-03 0.0 
0.0 0.0 -1.089631904438e-03 
-1.081578605974e-03 -1.978658757613e-04 0.0 
-1.978658757613e-04 7.257137764756e-03 0.0 
0.0 0.0 -1.080451501872e-03 
-9.579838523443e-04 1.886955211530e-04 0.0 
1.886955211530e-04 6.320335730528e-03 0.0 
0.0 0.0 -9.580909834143e-04 
-7.089543903964e-04 1.893728274012e-04 0.0 
1.893728274012e-04 4.575360328887e-03 0.0 
0.0 0.0 -7.073300717972e-04 
-1.127664739308e-03 -1.829222399518e-04 0.0 
-1.829222399518e-04 7.564515174457e-03 0.0 
0.0 0.0 -1.126038590206e-03 
-9.212765999104e-04 1.860043167072e-04 0.0 
1.860043167072e-04 6.042010505937e-03 0.0 
0.0 0.0 -9.169694165663e-04 
-3.707997860418e-04 -2.047832537349e-04 0.0 
-2.047832537349e-04 2.273008460466e-03 0.0 
0.0 0.0 -3.661348613279e-04 
-4.119491099640e-04 -1.837644939852e-04 0.0 
-1.837644939852e-04 2.602040481245e-03 0.0 
0.0 0.0 -4.113794265144e-04 
-6.058388203502e-04 1.800194521296e-04 0.0 
1.800194521296e-04 3.855006073365e-03 0.0 
0.0 0.0 -6.061407060701e-04 
-8.399206414718e-04 1.851255513351e-04 0.0 
1.851255513351e-04 5.491811110990e-03 0.0 
0.0 0.0 -8.384786063130e-04 
-1.169227413895e-03 1.987098364224e-04 0.0 
1.987098364224e-04 7.826180536376e-03 0.0 
0.0 0.0 -1.173545322487e-03 
-1.051413170775e-03 -2.036953792705e-04 0.0 
-2.036953792705e-04 7.051256599190e-03 0.0 
0.0 0.0 -1.051102540299e-03 
-7.053171708153e-04 -1.917417752611e-04 0.0 
-1.917417752611e-04 4.643848416984e-03 0.0 
0.0 0.0 -7.045205360201e-04 
-9.343548124899e-04 -1.929012807103e-04 0.0 
-1.929012807103e-04 6.238086933522e-03 0.0 
0.0 0.0 -9.344940742331e-04 
-1.088202517562e-03 1.963493920645e-04 0.0 
1.963493920645e-04 7.240451625201e-03 0.0 
0.0 0.0 -1.088599101970e-03 
-1.132213948578e-03 -2.019794901778e-04 0.0 
-2.019794901778e-04 7.607209750872e-03 0.0 
0.0 0.0 -1.130578931274e-03 
-1.175177652279e-03 -1.432114671164e-04 0.0 
-1.432114671164e-04 7.818239968608e-03 0.0 
0.0 0.0 -1.160781586281e-03 
-9.493017134461e-04 1.856369855211e-04 0.0 
1.856369855211e-04 6.294032018234e-03 0.0 
0.0 0.0 -9.517943393003e-04 
-1.114893974024e-03 1.926717475022e-04 0.0 
1.926717475022e-04 7.405468821271e-03 0.0 
0.0 0.0 -1.113435711030e-03 
-7.974711636665e-04 -1.944203939155e-04 0.0 
-1.944203939155e-04 5.288608064412e-03 0.0 
0.0 0.0 -7.971871449874e-04 
-1.087511397267e-03 -1.918432502511e-04 0.0 
-1.918432502511e-04 7.293095143965e-03 0.0 
0.0 0.0 -1.086118700983e-03 
-7.957657220237e-04 1.875502652183e-04 0.0 
1.875502652183e-04 5.187404479596e-03 0.0 
0.0 0.0 -7.951163407912e-04 
-1.190027282138e-03 -1.889094988141e-04 0.0 
-1.889094988141e-04 8.016045742998e-03 0.0 
0.0 0.0 -1.188704642750e-03 
-1.182786985987e-03 -2.095818808978e-04 0.0 
-2.095818808978e-04 8.112308359412e-03 0.0 
0.0 0.0 -1.200489323427e-03 
-8.931557397796e-04 1.886870491782e-04 0.0 
1.886870491782e-04 5.866647832542e-03 0.0 
0.0 0.0 -8.929891684399e-04 
-3.790334035775e-04 2.022524645534e-04 0.0 
2.022524645534e-04 2.272501623496e-03 0.0 
0.0 0.0 -3.776191643183e-04 
-1.116621675417e-03 1.833509055247e-04 0.0 
1.833509055247e-04 7.407703431036e-03 0.0 
0.0 0.0 -1.113685640909e-03 
-8.560269120279e-04 -1.850645517351e-04 0.0 
-1.850645517351e-04 5.691539379015e-03 0.0 
0.0 0.0 -8.555605426019e-04 
-6.779302938366e-04 -1.908402865227e-04 0.0 
-1.908402865227e-04 4.449768302467e-03 0.0 
0.0 0.0 -6.765734244908e-04 
-9.269459503729e-04 -1.957083840497e-04 0.0 
-1.957083840497e-04 6.192523979842e-03 0.0 
0.0 0.0 -9.269463096178e-04 
-1.072502528949e-03 -2.041434169698e-04 0.0 
-2.041434169698e-04 7.210267326329e-03 0.0 
0.0 0.0 -1.072977024862e-03 
-3.719606472365e-04 -1.835949221077e-04 0.0 
-1.835949221077e-04 2.345098090713e-03 0.0 
0.0 0.0 -3.746637649435e-04 
-8.285830534024e-04 1.877054302830e-04 0.0 
1.877054302830e-04 5.415216649357e-03 0.0 
0.0 0.0 -8.281205301186e-04 
-9.633029216945e-04 1.794107507867e-04 0.0 
1.794107507867e-04 6.339174664891e-03 0.0 
0.0 0.0 -9.596127204057e-04 
-1.165821597608e-03 -2.067678885501e-04 0.0 
-2.067678885501e-04 7.892442231831e-03 0.0 
0.0 0.0 -1.170838755190e-03 
-9.895100639472e-04 1.759458030689e-04 0.0 
1.759458030689e-04 6.529075947432e-03 0.0 
0.0 0.0 -9.876491701490e-04 
-1.085596099012e-03 1.937230915424e-04 0.0 
1.937230915424e-04 7.212019617214e-03 0.0 
0.0 0.0 -1.085374163265e-03 
-9.372562607785e-04 1.792840605659e-04 0.0 
1.792840605659e-04 6.146041579427e-03 0.0 
0.0 0.0 -9.316602363005e-04 
-8.975747507543e-04 1.987030926427e-04 0.0 
1.987030926427e-04 5.753154163109e-03 0.0 
0.0 0.0 -8.756372412555e-04 
-9.482059618595e-04 1.851978750998e-04 0.0 
1.851978750998e-04 6.234676071384e-03 0.0 
0.0 0.0 -9.447135688329e-04 
-1.130898821175e-03 2.049231627904e-04 0.0 
2.049231627904e-04 7.550084487667e-03 0.0 
0.0 0.0 -1.133505030480e-03 
-1.085374007423e-03 -2.008613375728e-04 0.0 
-2.008613375728e-04 7.297255264970e-03 0.0 
0.0 0.0 -1.084522140297e-03 
-1.016986910713e-03 1.835607482604e-04 0.0 
1.835607482604e-04 6.748472102274e-03 0.0 
0.0 0.0 -1.017300281410e-03 
-1.211783257084e-03 1.757837481836e-04 0.0 
1.757837481836e-04 8.121141767086e-03 0.0 
0.0 0.0 -1.212886757924e-03 
-9.118555854046e-04 1.822932037183e-04 0.0 
1.822932037183e-04 5.952136168219e-03 0.0 
0.0 0.0 -9.037302385344e-04 
-5.771676927997e-04 -1.905418044285e-04 0.0 
-1.905418044285e-04 3.749121588691e-03 0.0 
0.0 0.0 -5.760585567884e-04 
-1.146857850750e-03 -2.012024813042e-04 0.0 
-2.012024813042e-04 7.726356069459e-03 0.0 
0.0 0.0 -1.146733564437e-03 
-1.190361811188e-03 -2.231584585379e-04 0.0 
-2.231584585379e-04 8.068085284209e-03 0.0 
0.0 0.0 -1.196744929305e-03 
-7.877111731868e-04 1.869730341935e-04 0.0 
1.869730341935e-04 5.130080362463e-03 0.0 
0.0 0.0 -7.869228524964e-04 
-8.229073892259e-04 1.889823334213e-04 0.0 
1.889823334213e-04 5.378866845597e-03 0.0 
0.0 0.0 -8.226527892688e-04 
-6.410005540226e-04 -1.918474041219e-04 0.0 
-1.918474041219e-04 4.195976321250e-03 0.0 
0.0 0.0 -6.402419685743e-04 
-1.047323379365e-03 1.912705100611e-04 0.0 
1.912705100611e-04 6.951134229714e-03 0.0 
0.0 0.0 -1.046609947212e-03 
-6.536475585395e-04 1.928032985675e-04 0.0 
1.928032985675e-04 4.182884861133e-03 0.0 
0.0 0.0 -6.500746975200e-04 
-9.153598550126e-04 1.963880349301e-04 0.0 
1.963880349301e-04 6.020758345298e-03 0.0 
0.0 0.0 -9.137630964162e-04 
-6.488950437602e-04 -1.797823528638e-04 0.0 
-1.797823528638e-04 4.242459853736e-03 0.0 
0.0 0.0 -6.476280927198e-04 
-1.069873888271e-03 1.950588935170e-04 0.0 
1.950588935170e-04 7.095085750561e-03 0.0 
0.0 0.0 -1.068254633495e-03 
-1.209590731991e-03 -1.550085898134e-04 0.0 
-1.550085898134e-04 8.118970202182e-03 0.0 
0.0 0.0 -1.211228670573e-03 
-6.691229637013e-04 -1.915091740607e-04 0.0 
-1.915091740607e-04 4.390308397494e-03 0.0 
0.0 0.0 -6.682047883386e-04 
-2.351166358341e-04 -2.031494045747e-04 0.0 
-2.031494045747e-04 1.435993492405e-03 0.0 
0.0 0.0 -2.451578436693e-04 
-1.204420763458e-03 1.961268392442e-04 0.0 
1.961268392442e-04 8.059775147050e-03 0.0 
0.0 0.0 -1.207184308065e-03 
-6.887858324241e-04 1.799755313790e-04 0.0 
1.799755313790e-04 4.424727357305e-03 0.0 
0.0 0.0 -6.853381776776e-04 
-7.835288517238e-04 1.879460947128e-04 0.0 
1.879460947128e-04 5.099659123499e-03 0.0 
0.0 0.0 -7.828151049093e-04 
-1.160407951921e-03 2.005539249279e-04 0.0 
2.005539249279e-04 7.864449254895e-03 0.0 
0.0 0.0 -1.177925372349e-03 
-1.016320152694e-03 -1.997312198958e-04 0.0 
-1.997312198958e-04 6.802485040097e-03 0.0 
0.0 0.0 -1.015069748350e-03 
-1.057178896244e-03 -1.942199100265e-04 0.0 
-1.942199100265e-04 7.094939907719e-03 0.0 
0.0 0.0 -1.055879354346e-03 
-6.858748156510e-04 -1.861020149713e-04 0.0 
-1.861020149713e-04 4.508466491458e-03 0.0 
0.0 0.0 -6.851017020021e-04 
-2.031820811394e-04 1.985739834671e-04 0.0 
1.985739834671e-04 1.096275256380e-03 0.0 
0.0 0.0 -2.111397097017e-04 
-1.218012060933e-03 -2.324828983585e-04 0.0 
-2.324828983585e-04 8.157957467951e-03 0.0 
0.0 0.0 -1.202131160132e-03 
-8.665795831994e-04 1.858441781354e-04 0.0 
1.858441781354e-04 5.682543428283e-03 0.0 
0.0 0.0 -8.660506973337e-04 
-1.008559534197e-03 -2.140754109307e-04 0.0 
-2.140754109307e-04 6.735537996686e-03 0.0 
0.0 0.0 -1.007142642412e-03 
-1.160459194418e-03 1.856922992241e-04 0.0 
1.856922992241e-04 7.735308684736e-03 0.0 
0.0 0.0 -1.157822513452e-03 
-1.616552956258e-04 1.423609377971e-04 0.0 
1.423609377971e-04 6.732585101887e-04 0.0 
0.0 0.0 -1.502316149797e-04 
-1.058859563023e-03 1.992298708808e-04 0.0 
1.992298708808e-04 7.024120321951e-03 0.0 
0.0 0.0 -1.058763633038e-03 
-4.932099791949e-04 -1.894809356614e-04 0.0 
-1.894809356614e-04 3.157806772283e-03 0.0 
0.0 0.0 -4.919579008500e-04 
-9.451714429142e-04 -2.012700485210e-04 0.0 
-2.012700485210e-04 6.343190678808e-03 0.0 
0.0 0.0 -9.498437721210e-04 
-8.487405687036e-04 -1.950463421938e-04 0.0 
-1.950463421938e-04 5.654542604036e-03 0.0 
0.0 0.0 -8.496012432876e-04 
-6.717289225013e-04 1.881380853815e-04 0.0 
1.881380853815e-04 4.320340016049e-03 0.0 
0.0 0.0 -6.709551114794e-04 
-1.138399201716e-03 -1.969931368524e-04 0.0 
-1.969931368524e-04 7.687743728139e-03 0.0 
0.0 0.0 -1.141635569211e-03 
-8.863371368954e-04 1.906753618110e-04 0.0 
1.906753618110e-04 5.821740968712e-03 0.0 
0.0 0.0 -8.859145181037e-04 
-6.078808339747e-04 1.896100471318e-04 0.0 
1.896100471318e-04 3.873866771808e-03 0.0 
0.0 0.0 -6.067458373204e-04 
-8.988471733596e-04 -1.905617358742e-04 0.0 
-1.905617358742e-04 5.993481774552e-03 0.0 
0.0 0.0 -8.989548790023e-04 
-1.952954180545e-04 -1.905102926162e-04 0.0 
-1.905102926162e-04 1.173502522438e-03 0.0 
0.0 0.0 -2.081142276587e-04 
-1.024988576596e-03 -1.935191657476e-04 0.0 
-1.935191657476e-04 6.880398785368e-03 0.0 
0.0 0.0 -1.026417656363e-03 
-1.069604476726e-03 -1.976553008556e-04 0.0 
-1.976553008556e-04 7.163110056360e-03 0.0 
0.0 0.0 -1.065496432940e-03 
-1.229744167387e-03 -1.464305357593e-04 0.0 
-1.464305357593e-04 8.209785373221e-03 0.0 
0.0 0.0 -1.233600908384e-03 
-1.090183204667e-03 -1.971253990561e-04 0.0 
-1.971253990561e-04 7.328950110722e-03 0.0 
0.0 0.0 -1.090749533212e-03 
-4.766984691118e-04 -1.850928375115e-04 0.0 
-1.850928375115e-04 3.048442125330e-03 0.0 
0.0 0.0 -4.758149136988e-04 
-1.046974953030e-03 -1.977469482828e-04 0.0 
-1.977469482828e-04 7.033167652259e-03 0.0 
0.0 0.0 -1.047231727503e-03 
-1.207083647933e-03 1.808427044482e-04 0.0 
1.808427044482e-04 8.205581432035e-03 0.0 
0.0 0.0 -1.228155452712e-03 
-1.260668266969e-03 -1.832526413475e-04 0.0 
-1.832526413475e-04 8.522719369677e-03 0.0 
0.0 0.0 -1.267145247477e-03 
-1.104740620517e-03 -1.903291503951e-04 0.0 
-1.903291503951e-04 7.419136809817e-03 0.0 
0.0 0.0 -1.102242875413e-03 
-7.141399757063e-04 -1.908850217657e-04 0.0 
-1.908850217657e-04 4.699621454475e-03 0.0 
0.0 0.0 -7.127912709901e-04 
-9.617225215176e-04 -1.932311968947e-04 0.0 
-1.932311968947e-04 6.435112240426e-03 0.0 
0.0 0.0 -9.624716764950e-04 
-1.172863749534e-03 1.716370371983e-04 0.0 
1.716370371983e-04 7.752633284680e-03 0.0 
0.0 0.0 -1.164316760544e-03 
-7.921196063416e-04 -1.921710320451e-04 0.0 
-1.921710320451e-04 5.233600587143e-03 0.0 
0.0 0.0 -7.878971455476e-04 
-1.056322180914e-03 1.849092776283e-04 0.0 
1.849092776283e-04 7.010189158039e-03 0.0 
0.0 0.0 -1.057196955382e-03 
-9.850942903468e-04 1.906307977984e-04 0.0 
1.906307977984e-04 6.538331902211e-03 0.0 
0.0 0.0 -9.877098122506e-04 
-1.110739431393e-03 -1.980632731679e-04 0.0 
-1.980632731679e-04 7.489376108620e-03 0.0 
0.0 0.0 -1.112977059762e-03 
-1.093828226484e-03 -1.876429130193e-04 0.0 
-1.876429130193e-04 7.351584596061e-03 0.0 
0.0 0.0 -1.093234982489e-03 
-7.343177045735e-04 -9.465157044594e-06 0.0 
-9.465157044594e-06 4.570354151395e-03 0.0 
0.0 0.0 -7.313513689239e-04 
-7.305590051735e-04 3.402678996754e-05 0.0 
3.402678996754e-05 4.568649633296e-03 0.0 
0.0 0.0 -7.310574395863e-04 
-9.952316992060e-04 -2.061010920873e-04 0.0 
-2.061010920873e-04 6.656041030992e-03 0.0 
0.0 0.0 -9.927888931629e-04 
-9.918488233691e-04 1.857079994067e-04 0.0 
1.857079994067e-04 6.564735410895e-03 0.0 
0.0 0.0 -9.930598132463e-04 
-8.773556303313e-04 -1.926873992318e-04 0.0 
-1.926873992318e-04 5.856781784187e-03 0.0 
0.0 0.0 -8.780428295617e-04 
-9.805249871409e-04 -1.924563760953e-04 0.0 
-1.924563760953e-04 6.542490604406e-03 0.0 
0.0 0.0 -9.775429604617e-04 
-8.511934619470e-04 1.885314516425e-04 0.0 
1.885314516425e-04 5.570767617800e-03 0.0 
0.0 0.0 -8.502279965035e-04 
-1.193540881150e-03 1.313307987015e-04 0.0 
1.313307987015e-04 7.848740983510e-03 0.0 
0.0 0.0 -1.180288150054e-03 
-7.169159808387e-04 1.897237155632e-04 0.0 
1.897237155632e-04 4.633470113633e-03 0.0 
0.0 0.0 -7.154845226688e-04 
-1.330586332229e-03 -3.342005871351e-05 0.0 
-3.342005871351e-05 9.092648121720e-03 0.0 
0.0 0.0 -1.323793839065e-03 
-8.042874267729e-04 1.538278548701e-04 0.0 
1.538278548701e-04 5.332999869485e-03 0.0 
0.0 0.0 -8.119939454945e-04 
-8.205821157683e-04 -1.889603009902e-04 0.0 
-1.889603009902e-04 5.445817958641e-03 0.0 
0.0 0.0 -8.199314282332e-04 
-8.518598072760e-04 1.933057744939e-04 0.0 
1.933057744939e-04 5.584111954891e-03 0.0 
0.0 0.0 -8.523954645778e-04 
-4.499586564247e-04 -1.855256695767e-04 0.0 
-1.855256695767e-04 2.857022821909e-03 0.0 
0.0 0.0 -4.479040077299e-04 
-7.538979209402e-04 -1.934413965156e-04 0.0 
-1.934413965156e-04 4.995274109938e-03 0.0 
0.0 0.0 -7.551671247638e-04 
-9.291971374279e-04 1.860662208978e-04 0.0 
1.860662208978e-04 6.122384862718e-03 0.0 
0.0 0.0 -9.293281999836e-04 
-8.759687264253e-04 1.862073937601e-04 0.0 
1.862073937601e-04 5.739375914108e-03 0.0 
0.0 0.0 -8.738309435711e-04 
-9.814387768265e-04 1.839019607205e-04 0.0 
1.839019607205e-04 6.501334764278e-03 0.0 
0.0 0.0 -9.814596669550e-04 
-1.010867161751e-03 1.870829556364e-04 0.0 
1.870829556364e-04 6.678666577386e-03 0.0 
0.0 0.0 -1.008022096355e-03 
-1.044436862417e-03 -1.926634021925e-04 0.0 
-1.926634021925e-04 6.979659342720e-03 0.0 
0.0 0.0 -1.040850218070e-03 
-2.258973833718e-04 -1.030107291084e-04 0.0 
-1.030107291084e-04 1.399562224303e-03 0.0 
0.0 0.0 -2.163717569139e-04 
-7.194022022389e-04 1.955668345425e-04 0.0 
1.955668345425e-04 4.667671693721e-03 0.0 
0.0 0.0 -7.209013985657e-04 
-6.852716132609e-04 -1.859370640984e-04 0.0 
-1.859370640984e-04 4.485062449844e-03 0.0 
0.0 0.0 -6.825522065409e-04 
-9.565981315294e-04 1.790846631941e-04 0.0 
1.790846631941e-04 6.284252226282e-03 0.0 
0.0 0.0 -9.521954671713e-04 
-9.888411307371e-04 -1.922642027800e-04 0.0 
-1.922642027800e-04 6.601876220435e-03 0.0 
0.0 0.0 -9.850634846466e-04 
-1.155748252282e-03 1.797617113704e-04 0.0 
1.797617113704e-04 7.721330663973e-03 0.0 
0.0 0.0 -1.160108757481e-03 
-3.430926826769e-04 2.099465977868e-04 0.0 
2.099465977868e-04 1.967318145224e-03 0.0 
0.0 0.0 -3.273996513303e-04 
-3.332214715971e-04 -1.766782033718e-04 0.0 
-1.766782033718e-04 2.091595055548e-03 0.0 
0.0 0.0 -3.377286911054e-04 
-8.312276761858e-04 1.871380545802e-04 0.0 
1.871380545802e-04 5.435579353952e-03 0.0 
0.0 0.0 -8.305977116616e-04 
-7.164446669360e-04 -1.954011667159e-04 0.0 
-1.954011667159e-04 4.735861933211e-03 0.0 
0.0 0.0 -7.181358556540e-04 
-6.612400540539e-04 -2.145984864481e-04 0.0 
-2.145984864481e-04 4.300984587983e-03 0.0 
0.0 0.0 -6.554599841463e-04 
-6.892288823092e-04 -1.712097974293e-04 0.0 
-1.712097974293e-04 4.548932917262e-03 0.0 
0.0 0.0 -6.889204951115e-04 
-9.785151366904e-04 -1.903688334859e-04 0.0 
-1.903688334859e-04 6.552823194572e-03 0.0 
0.0 0.0 -9.793492904611e-04 
-3.279214625417e-04 -1.856414295295e-04 0.0 
-1.856414295295e-04 2.036611823989e-03 0.0 
0.0 0.0 -3.302473245842e-04 
-8.146691974455e-04 1.910766766112e-04 0.0 
1.910766766112e-04 5.328191831945e-03 0.0 
0.0 0.0 -8.154759146177e-04 
-1.049892567768e-03 -1.923181012939e-04 0.0 
-1.923181012939e-04 7.038288222671e-03 0.0 
0.0 0.0 -1.049209916622e-03 
-3.402244297759e-04 2.055488950202e-04 0.0 
2.055488950202e-04 2.007315154740e-03 0.0 
0.0 0.0 -3.408226701431e-04 
-1.289740643797e-03 -2.865690188003e-05 0.0 
-2.865690188003e-05 8.457698383589e-03 0.0 
0.0 0.0 -1.285586381397e-03 
-1.153161816539e-03 -1.810911126316e-04 0.0 
-1.810911126316e-04 7.745860400322e-03 0.0 
0.0 0.0 -1.152455342817e-03 
-7.730865248008e-04 -1.936313324954e-04 0.0 
-1.936313324954e-04 5.137233279798e-03 0.0 
0.0 0.0 -7.756113943005e-04 
-1.077943790440e-03 1.906149656784e-04 0.0 
1.906149656784e-04 7.162163658694e-03 0.0 
0.0 0.0 -1.078722419643e-03 
-1.818286327115e-04 -5.320949396193e-06 0.0 
-5.320949396193e-06 7.441773179857e-04 0.0 
0.0 0.0 -1.797547709840e-04 
-1.014460031072e-03 -2.000580684662e-04 0.0 
-2.000580684662e-04 6.784645211728e-03 0.0 
0.0 0.0 -1.012471576362e-03 
-8.638932840094e-04 -1.877196228479e-04 0.0 
-1.877196228479e-04 5.746441231772e-03 0.0 
0.0 0.0 -8.634366945984e-04 
-1.573089574220e-04 6.060813636144e-06 0.0 
6.060813636144e-06 7.379677460024e-04 0.0 
0.0 0.0 -1.788519809851e-04 
-1.152359323407e-03 1.787160847200e-04 0.0 
1.787160847200e-04 7.696182759720e-03 0.0 
0.0 0.0 -1.154859126927e-03 
-3.172722260094e-04 -1.887798844867e-04 0.0 
-1.887798844867e-04 1.899275964143e-03 0.0 
0.0 0.0 -3.099791425632e-04 
-9.534030089958e-04 -1.885226890489e-04 0.0 
-1.885226890489e-04 6.348031499756e-03 0.0 
0.0 0.0 -9.496453321265e-04 
-8.720767110960e-04 -1.896937711200e-04 0.0 
-1.896937711200e-04 5.800514782335e-03 0.0 
0.0 0.0 -8.712718144564e-04 
-7.527095169076e-04 -1.904145446510e-04 0.0 
-1.904145446510e-04 4.974920507200e-03 0.0 
0.0 0.0 -7.519815330289e-04 
-9.060865555047e-04 1.986245932988e-04 0.0 
1.986245932988e-04 5.963263483029e-03 0.0 
0.0 0.0 -9.052548162676e-04 
-1.186359257630e-03 1.790401943916e-04 0.0 
1.790401943916e-04 7.910120458871e-03 0.0 
0.0 0.0 -1.182898372388e-03 
-9.717172959483e-04 2.017731235506e-04 0.0 
2.017731235506e-04 6.421670982773e-03 0.0 
0.0 0.0 -9.716005391689e-04 
-8.586682738841e-04 1.870585543686e-04 0.0 
1.870585543686e-04 5.626729716629e-03 0.0 
0.0 0.0 -8.581765416018e-04 
-8.285502932263e-04 -1.869792024667e-04 0.0 
-1.869792024667e-04 5.500044709232e-03 0.0 
0.0 0.0 -8.279616112547e-04 
-1.157597014143e-04 1.569592925356e-04 0.0 
1.569592925356e-04 5.309685908672e-04 0.0 
0.0 0.0 -1.241199786263e-04 
-2.771697128881e-04 1.878257284128e-04 0.0 
1.878257284128e-04 1.577050393967e-03 0.0 
0.0 0.0 -2.761011822561e-04 
-1.118878802421e-03 -1.775376209316e-04 0.0 
-1.775376209316e-04 7.515980410063e-03 0.0 
0.0 0.0 -1.118331045454e-03 
-9.134689604251e-04 -2.151070896449e-04 0.0 
-2.151070896449e-04 6.054442910930e-03 0.0 
0.0 0.0 -9.085367473448e-04 
-1.157427958602e-03 1.810891327533e-04 0.0 
1.810891327533e-04 7.664331777096e-03 0.0 
0.0 0.0 -1.148691026115e-03 
-4.952790128068e-04 1.926215238323e-04 0.0 
1.926215238323e-04 3.096112546519e-03 0.0 
0.0 0.0 -4.942977111402e-04 
-1.099935257767e-03 1.964856595336e-04 0.0 
1.964856595336e-04 7.292900558944e-03 0.0 
0.0 0.0 -1.097950598811e-03 
-1.159977421736e-03 -1.899588415038e-04 0.0 
-1.899588415038e-04 7.782799989863e-03 0.0 
0.0 0.0 -1.155407764312e-03 
-7.046437970110e-04 1.771780882186e-04 0.0 
1.771780882186e-04 4.649202442724e-03 0.0 
0.0 0.0 -7.179420443741e-04 
-1.123089437587e-03 1.668381000105e-04 0.0 
1.668381000105e-04 7.448723404798e-03 0.0 
0.0 0.0 -1.120992621467e-03 
-1.074800466033e-03 -1.979281231238e-04 0.0 
-1.979281231238e-04 7.231750290380e-03 0.0 
0.0 0.0 -1.075946734593e-03 
-9.566951811484e-04 1.885305449409e-04 0.0 
1.885305449409e-04 6.314170866049e-03 0.0 
0.0 0.0 -9.571162043194e-04 
-7.858129650109e-04 1.950519568744e-04 0.0 
1.950519568744e-04 5.127464531984e-03 0.0 
0.0 0.0 -7.866383436874e-04 
-8.200429817129e-04 -1.955984029236e-04 0.0 
-1.955984029236e-04 5.453789901756e-03 0.0 
0.0 0.0 -8.209012074946e-04 
-1.208173698565e-03 -2.031466844655e-04 0.0 
-2.031466844655e-04 8.155254103189e-03 0.0 
0.0 0.0 -1.204704583718e-03 
-8.401419513637e-04 1.955438232626e-04 0.0 
1.955438232626e-04 5.506398965405e-03 0.0 
0.0 0.0 -8.396599866114e-04 
-9.021075521636e-04 1.852176330370e-04 0.0 
1.852176330370e-04 5.931413313431e-03 0.0 
0.0 0.0 -9.015555482168e-04 
-8.449278259680e-04 1.962826855989e-04 0.0 
1.962826855989e-04 5.533739272216e-03 0.0 
0.0 0.0 -8.433600309793e-04 
-1.038695295048e-03 1.973550359404e-04 0.0 
1.973550359404e-04 6.882197727615e-03 0.0 
0.0 0.0 -1.038364586984e-03 
-7.853544279650e-04 -1.888908667993e-04 0.0 
-1.888908667993e-04 5.195025610649e-03 0.0 
0.0 0.0 -7.842421616061e-04 
-5.077615371431e-04 1.925383574265e-04 0.0 
1.925383574265e-04 3.178371744144e-03 0.0 
0.0 0.0 -5.065804551108e-04 
-8.563679286654e-04 1.886904600153e-04 0.0 
1.886904600153e-04 5.609470178926e-03 0.0 
0.0 0.0 -8.561803240471e-04 
-5.442096767108e-04 1.899929291301e-04 0.0 
1.899929291301e-04 3.427592308512e-03 0.0 
0.0 0.0 -5.426160209679e-04 
-9.840239484115e-04 1.860183386348e-04 0.0 
1.860183386348e-04 6.482342277994e-03 0.0 
0.0 0.0 -9.799122972177e-04 
-5.401920244119e-04 -1.881877507058e-04 0.0 
-1.881877507058e-04 3.494301074598e-03 0.0 
0.0 0.0 -5.399485503622e-04 
-9.444560097486e-04 -1.940759614132e-04 0.0 
-1.940759614132e-04 6.297600198433e-03 0.0 
0.0 0.0 -9.420580210740e-04 
-1.136089878121e-03 -1.928967352453e-04 0.0 
-1.928967352453e-04 7.622114445815e-03 0.0 
0.0 0.0 -1.130549445556e-03 
-1.098744179893e-03 1.868758827566e-04 0.0 
1.868758827566e-04 7.288601580292e-03 0.0 
0.0 0.0 -1.096529089934e-03 
-7.525839073148e-04 1.884470413511e-04 0.0 
1.884470413511e-04 4.883223458127e-03 0.0 
0.0 0.0 -7.512528815036e-04 
-9.420690742010e-04 1.904423332236e-04 0.0 
1.904423332236e-04 6.250031840530e-03 0.0 
0.0 0.0 -9.460253849645e-04 
-1.105063984059e-03 1.902259811921e-04 0.0 
1.902259811921e-04 7.362332298090e-03 0.0 
0.0 0.0 -1.107441567342e-03 
-1.102593190183e-03 -1.984125757140e-04 0.0 
-1.984125757140e-04 7.431259929710e-03 0.0 
0.0 0.0 -1.104747680386e-03 
-2.748138935717e-04 -1.822651738482e-04 0.0 
-1.822651738482e-04 1.604872033163e-03 0.0 
0.0 0.0 -2.683291303717e-04 
-9.752435611011e-04 1.861325910200e-04 0.0 
1.861325910200e-04 6.426869973039e-03 0.0 
0.0 0.0 -9.724793438395e-04 
-1.198880595075e-03 2.442779644092e-04 0.0 
2.442779644092e-04 8.051846061103e-03 0.0 
0.0 0.0 -1.205818386895e-03 
-5.437300718268e-04 1.772584891249e-04 0.0 
1.772584891249e-04 3.388245147726e-03 0.0 
0.0 0.0 -5.357889572170e-04 
-8.407105615714e-04 -1.927518630569e-04 0.0 
-1.927518630569e-04 5.595089898141e-03 0.0 
0.0 0.0 -8.409532000723e-04 
-1.642955148473e-04 -1.732273966109e-04 0.0 
-1.732273966109e-04 7.998697341648e-04 0.0 
0.0 0.0 -1.553180670733e-04 
-1.132480187466e-03 1.879569331440e-04 0.0 
1.879569331440e-04 7.560437012022e-03 0.0 
0.0 0.0 -1.136235114959e-03 
-4.806530012621e-04 1.926320631023e-04 0.0 
1.926320631023e-04 2.980823159841e-03 0.0 
0.0 0.0 -4.785631936959e-04 
-8.099198933222e-04 1.419617410746e-04 0.0 
1.419617410746e-04 5.272582332729e-03 0.0 
0.0 0.0 -8.166178341775e-04 
-1.008233793579e-03 2.173973549694e-04 0.0 
2.173973549694e-04 6.687663611020e-03 0.0 
0.0 0.0 -1.008721701990e-03 
-9.403782054792e-04 -1.899510314298e-04 0.0 
-1.899510314298e-04 6.304690927512e-03 0.0 
0.0 0.0 -9.438854677472e-04 
-8.963572268651e-04 1.741364622750e-04 0.0 
1.741364622750e-04 5.997227966098e-03 0.0 
0.0 0.0 -9.108073647308e-04 
-8.940895927012e-04 1.874273657986e-04 0.0 
1.874273657986e-04 5.875054319372e-03 0.0 
0.0 0.0 -8.936906232635e-04 
-5.964027012772e-04 -1.969270146159e-04 0.0 
-1.969270146159e-04 3.828565622584e-03 0.0 
0.0 0.0 -5.884905393267e-04 
-6.222186473160e-04 -1.579598216189e-04 0.0 
-1.579598216189e-04 4.074275639624e-03 0.0 
0.0 0.0 -6.218825813656e-04 
-1.132545466856e-03 -1.921788675689e-04 0.0 
-1.921788675689e-04 7.631342050474e-03 0.0 
0.0 0.0 -1.133400347077e-03 
-9.399834973731e-04 -2.076180111175e-04 0.0 
-2.076180111175e-04 6.274716467853e-03 0.0 
0.0 0.0 -9.394087121358e-04 
-8.165998643397e-04 -1.896618384883e-04 0.0 
-1.896618384883e-04 5.425461381261e-03 0.0 
0.0 0.0 -8.164864906097e-04 
-1.015808219044e-03 2.043119981128e-04 0.0 
2.043119981128e-04 6.724239760090e-03 0.0 
0.0 0.0 -1.014986374720e-03 
-7.921952984754e-04 1.876569442452e-04 0.0 
1.876569442452e-04 5.161072896404e-03 0.0 
0.0 0.0 -7.915105747055e-04 
-5.132154280477e-04 -1.871647182002e-04 0.0 
-1.871647182002e-04 3.302371768383e-03 0.0 
0.0 0.0 -5.119962057136e-04 
-5.745746208365e-04 1.485352442874e-04 0.0 
1.485352442874e-04 3.755895310226e-03 0.0 
0.0 0.0 -5.908395828668e-04 
-8.562635021511e-04 -1.754512107451e-04 0.0 
-1.754512107451e-04 5.627343192984e-03 0.0 
0.0 0.0 -8.442294783838e-04 
-7.160648306050e-04 7.585704491028e-06 0.0 
7.585704491028e-06 4.849167370762e-03 0.0 
0.0 0.0 -7.121995050294e-04 
-1.098907698796e-03 -1.935603852202e-04 0.0 
-1.935603852202e-04 7.356586615962e-03 0.0 
0.0 0.0 -1.093598669875e-03 
-7.500784032912e-04 -1.888438395023e-04 0.0 
-1.888438395023e-04 4.947212343952e-03 0.0 
0.0 0.0 -7.486350631497e-04 
-1.210182417684e-03 1.765917680882e-04 0.0 
1.765917680882e-04 8.247529209770e-03 0.0 
0.0 0.0 -1.233571955743e-03 
-1.118284649088e-03 2.239133535708e-04 0.0 
2.239133535708e-04 7.476894485256e-03 0.0 
0.0 0.0 -1.121177773779e-03 
-8.254740426917e-04 -1.929282224424e-04 0.0 
-1.929282224424e-04 5.485443478807e-03 0.0 
0.0 0.0 -8.252461108756e-04 
-1.242964237003e-03 -2.139177796874e-04 0.0 
-2.139177796874e-04 8.349538837109e-03 0.0 
0.0 0.0 -1.241472629463e-03 
-5.687293433060e-04 -1.915120142832e-04 0.0 
-1.915120142832e-04 3.690790191525e-03 0.0 
0.0 0.0 -5.682622744621e-04 
-1.208040625364e-03 1.849401074129e-04 0.0 
1.849401074129e-04 8.046920265334e-03 0.0 
0.0 0.0 -1.204482468497e-03 
-8.913551845652e-04 -1.878094076415e-04 0.0 
-1.878094076415e-04 5.940020385334e-03 0.0 
0.0 0.0 -8.910665706739e-04 
-9.852542746409e-04 1.871572406668e-04 0.0 
1.871572406668e-04 6.505324580404e-03 0.0 
0.0 0.0 -9.848034212814e-04 
-1.145107580505e-03 -1.842496915474e-04 0.0 
-1.842496915474e-04 7.703101384869e-03 0.0 
0.0 0.0 -1.146785027167e-03 
-5.943655314034e-04 -1.832199318588e-04 0.0 
-1.832199318588e-04 3.893020220943e-03 0.0 
0.0 0.0 -5.958228065582e-04 
-9.389816814797e-04 1.876119276121e-04 0.0 
1.876119276121e-04 6.182064030220e-03 0.0 
0.0 0.0 -9.369464185080e-04 
-7.887299262109e-04 -1.887974843369e-04 0.0 
-1.887974843369e-04 5.230247920474e-03 0.0 
0.0 0.0 -7.886172400246e-04 
-9.083774489982e-04 -1.902700926230e-04 0.0 
-1.902700926230e-04 6.046157002466e-03 0.0 
0.0 0.0 -9.065670216064e-04 
-5.279887302568e-04 -1.859379540024e-04 0.0 
-1.859379540024e-04 3.395303897193e-03 0.0 
0.0 0.0 -5.268093404353e-04 
-1.014606245907e-03 2.103915705159e-04 0.0 
2.103915705159e-04 6.713973890446e-03 0.0 
0.0 0.0 -1.013229387512e-03 
-7.553250635679e-04 1.889436264504e-04 0.0 
1.889436264504e-04 4.904153081957e-03 0.0 
0.0 0.0 -7.548706880268e-04 
-8.804539724126e-04 1.911528069324e-04 0.0 
1.911528069324e-04 5.783141817002e-03 0.0 
0.0 0.0 -8.810281692460e-04 
-9.122003311207e-04 1.835312424396e-04 0.0 
1.835312424396e-04 5.985147494673e-03 0.0 
0.0 0.0 -9.091416541300e-04 
-1.779440610295e-04 -1.030848282903e-04 0.0 
-1.030848282903e-04 7.740733373014e-04 0.0 
0.0 0.0 -1.392682743729e-04 
-9.092484897749e-04 2.049076976716e-04 0.0 
2.049076976716e-04 5.988548295435e-03 0.0 
0.0 0.0 -9.082496170556e-04 
-2.130732635602e-04 -2.101807231717e-04 0.0 
-2.101807231717e-04 1.221567911035e-03 0.0 
0.0 0.0 -2.164288490095e-04 
-2.520548988868e-04 2.059906335290e-04 0.0 
2.059906335290e-04 1.360441870585e-03 0.0 
0.0 0.0 -2.410360834028e-04 
-8.430214645806e-04 1.870171193368e-04 0.0 
1.870171193368e-04 5.521874591652e-03 0.0 
0.0 0.0 -8.438072171805e-04 
-1.100618043992e-03 -1.995199700288e-04 0.0 
-1.995199700288e-04 7.372933681793e-03 0.0 
0.0 0.0 -1.098354823938e-03 
-9.336786887582e-04 1.772618600830e-04 0.0 
1.772618600830e-04 6.184069199665e-03 0.0 
0.0 0.0 -9.387552692591e-04 
-5.316814076804e-04 -1.951121058157e-04 0.0 
-1.951121058157e-04 3.374217008638e-03 0.0 
0.0 0.0 -5.215302833573e-04 
-1.342322198460e-03 1.355075091339e-05 0.0 
1.355075091339e-05 8.860022296973e-03 0.0 
0.0 0.0 -1.342322198460e-03 
-6.904184216634e-05 1.341545190441e-04 0.0 
1.341545190441e-04 2.607547295548e-04 0.0 
0.0 0.0 -8.216266602363e-05 
-5.589210723321e-04 -1.329418113689e-04 0.0 
-1.329418113689e-04 3.609084095351e-03 0.0 
0.0 0.0 -5.549805679787e-04 
-8.477696331988e-04 1.855996582244e-04 0.0 
1.855996582244e-04 5.547050172852e-03 0.0 
0.0 0.0 -8.472740691907e-04 
-8.035495844310e-04 -1.953259203622e-04 0.0 
-1.953259203622e-04 5.337013229194e-03 0.0 
0.0 0.0 -8.042584860449e-04 
-6.757348554203e-04 -1.653998453618e-04 0.0 
-1.653998453618e-04 4.426804148949e-03 0.0 
0.0 0.0 -6.733236465360e-04 
-5.914609098286e-04 1.823071808114e-04 0.0 
1.823071808114e-04 3.765270744377e-03 0.0 
0.0 0.0 -5.908717820549e-04 
-8.740292955770e-04 -1.984478198409e-04 0.0 
-1.984478198409e-04 5.813273429386e-03 0.0 
0.0 0.0 -8.733819075714e-04 
-9.264128048314e-04 -1.908219560730e-04 0.0 
-1.908219560730e-04 6.187717693912e-03 0.0 
0.0 0.0 -9.266779469803e-04 
-9.738255750276e-04 2.028683516141e-04 0.0 
2.028683516141e-04 6.450883656299e-03 0.0 
0.0 0.0 -9.734188451722e-04 
-1.155174733819e-03 2.031393399309e-04 0.0 
2.031393399309e-04 7.608098909852e-03 0.0 
0.0 0.0 -1.144302277022e-03 
-2.998307148874e-04 1.817771268844e-04 0.0 
1.817771268844e-04 1.707947677580e-03 0.0 
0.0 0.0 -2.976331147772e-04 
-7.774732960360e-04 1.902311186531e-04 0.0 
1.902311186531e-04 5.067412702539e-03 0.0 
0.0 0.0 -7.784793977761e-04 
-8.354929195800e-04 1.868427274729e-04 0.0 
1.868427274729e-04 5.469964258699e-03 0.0 
0.0 0.0 -8.356154970834e-04 
-4.516910884494e-04 -2.032153244338e-04 0.0 
-2.032153244338e-04 2.897475389763e-03 0.0 
0.0 0.0 -4.544023106810e-04 
-7.514806211766e-04 2.187245154034e-04 0.0 
2.187245154034e-04 4.887888210751e-03 0.0 
0.0 0.0 -7.518103749233e-04 
-9.376130433125e-04 -2.007012642150e-04 0.0 
-2.007012642150e-04 6.245928942655e-03 0.0 
0.0 0.0 -9.362314798257e-04 
-1.020402468730e-03 -1.946865508961e-04 0.0 
-1.946865508961e-04 6.790144563629e-03 0.0 
0.0 0.0 -1.023451880212e-03 
-1.525732992224e-04 8.599813622089e-06 0.0 
8.599813622089e-06 1.000033467602e-03 0.0 
0.0 0.0 -1.605242656235e-04 
-1.269812495822e-04 -2.531001823485e-04 0.0 
-2.531001823485e-04 4.902479252968e-04 0.0 
0.0 0.0 -1.185594205871e-04 
-3.241357878483e-04 -1.842994986655e-04 0.0 
-1.842994986655e-04 2.004473459914e-03 0.0 
0.0 0.0 -3.233707900025e-04 
-8.334989762748e-04 -1.938999604970e-04 0.0 
-1.938999604970e-04 5.537569679809e-03 0.0 
0.0 0.0 -8.330087554115e-04 
-6.325222328163e-04 -1.881321833313e-04 0.0 
-1.881321833313e-04 4.138956718805e-03 0.0 
0.0 0.0 -6.322020076307e-04 
-5.606822046862e-04 -1.836386180369e-04 0.0 
-1.836386180369e-04 3.638290895272e-03 0.0 
0.0 0.0 -5.605319560360e-04 
-5.042968556975e-04 -1.874920210369e-04 0.0 
-1.874920210369e-04 3.240689773487e-03 0.0 
0.0 0.0 -5.041580933422e-04 
-8.721332834429e-04 1.863637843613e-04 0.0 
1.863637843613e-04 5.722466013089e-03 0.0 
0.0 0.0 -8.721335634590e-04 
-9.951021354220e-04 1.863977597818e-04 0.0 
1.863977597818e-04 6.578139400737e-03 0.0 
0.0 0.0 -9.956198530692e-04 
-8.650795473339e-04 1.875435944103e-04 0.0 
1.875435944103e-04 5.670505538654e-03 0.0 
0.0 0.0 -8.643287579461e-04 
-6.358273554876e-04 1.861975192938e-04 0.0 
1.861975192938e-04 4.071155698746e-03 0.0 
0.0 0.0 -6.348607296063e-04 
-9.711834339353e-04 -2.012117718551e-04 0.0 
-2.012117718551e-04 6.487584772475e-03 0.0 
0.0 0.0 -9.699423737970e-04 
-8.101971348646e-04 1.641316877204e-04 0.0 
1.641316877204e-04 5.432076920036e-03 0.0 
0.0 0.0 -8.236220363599e-04 
-1.071983661584e-03 2.130963721818e-04 0.0 
2.130963721818e-04 7.145357950686e-03 0.0 
0.0 0.0 -1.076197569190e-03 
-8.626714893424e-04 -1.942405500946e-04 0.0 
-1.942405500946e-04 5.738328913224e-03 0.0 
0.0 0.0 -8.617642947636e-04 
-8.702702279883e-04 -1.921753086920e-04 0.0 
-1.921753086920e-04 5.792753129953e-03 0.0 
0.0 0.0 -8.694825820363e-04 
-4.645559553230e-04 -1.981925654933e-04 0.0 
-1.981925654933e-04 2.889937884797e-03 0.0 
0.0 0.0 -4.548485160793e-04 
-6.608554486331e-04 -1.864091804663e-04 0.0 
-1.864091804663e-04 4.336541054873e-03 0.0 
0.0 0.0 -6.598952468721e-04 
-8.926027030231e-04 1.843043537544e-04 0.0 
1.843043537544e-04 5.864339266433e-03 0.0 
0.0 0.0 -8.930692851043e-04 
-9.679615503638e-04 1.696948557831e-04 0.0 
1.696948557831e-04 6.395623785343e-03 0.0 
0.0 0.0 -9.615701295831e-04 
-9.079120183865e-04 1.806035671015e-04 0.0 
1.806035671015e-04 6.008465197654e-03 0.0 
0.0 0.0 -8.972249362023e-04 
-4.966173735405e-04 -1.549710521066e-04 0.0 
-1.549710521066e-04 3.153972529156e-03 0.0 
0.0 0.0 -4.879487645214e-04 
-9.010013592764e-04 1.886793445211e-04 0.0 
1.886793445211e-04 5.923625585035e-03 0.0 
0.0 0.0 -9.007118478549e-04 
-5.518253028034e-04 -1.783371210292e-04 0.0 
-1.783371210292e-04 3.577417440001e-03 0.0 
0.0 0.0 -5.517684601482e-04 
-2.845535083016e-04 1.977607623024e-04 0.0 
1.977607623024e-04 1.633750881917e-03 0.0 
0.0 0.0 -2.811347238918e-04 
-1.188918642902e-03 -1.918974946843e-04 0.0 
-1.918974946843e-04 8.111302423947e-03 0.0 
0.0 0.0 -1.202908440308e-03 
-3.019785591688e-04 1.950774455604e-04 0.0 
1.950774455604e-04 1.726883632229e-03 0.0 
0.0 0.0 -3.019870735033e-04 
-5.828626320578e-04 1.860512938998e-04 0.0 
1.860512938998e-04 3.705650589538e-03 0.0 
0.0 0.0 -5.822209219963e-04 
-8.781768956791e-04 -1.986806572289e-04 0.0 
-1.986806572289e-04 5.833892611308e-03 0.0 
0.0 0.0 -8.766521650092e-04 
-5.060723315699e-04 1.405250353070e-04 0.0 
1.405250353070e-04 3.287884117068e-03 0.0 
0.0 0.0 -5.239962781855e-04 
-8.898132346488e-04 -1.977943572352e-04 0.0 
-1.977943572352e-04 5.946896776319e-03 0.0 
0.0 0.0 -8.905656347129e-04 
-4.258375091185e-04 -2.178895733922e-04 0.0 
-2.178895733922e-04 2.688533932087e-03 0.0 
0.0 0.0 -4.282508963332e-04 
-7.578747057610e-04 -1.654300402082e-04 0.0 
-1.654300402082e-04 5.036141076678e-03 0.0 
0.0 0.0 -7.823486082854e-04 
-9.004251462807e-04 -1.892315142782e-04 0.0 
-1.892315142782e-04 5.992307029229e-03 0.0 
0.0 0.0 -8.981647654366e-04 
-7.810617461964e-04 -1.867589919143e-04 0.0 
-1.867589919143e-04 5.170374097518e-03 0.0 
0.0 0.0 -7.800125773855e-04 
-8.113930582064e-04 -1.934831491267e-04 0.0 
-1.934831491267e-04 5.398532171848e-03 0.0 
0.0 0.0 -8.126672281948e-04 
-1.456223754451e-04 -1.153284200369e-04 0.0 
-1.153284200369e-04 8.334024863152e-04 0.0 
0.0 0.0 -1.489310416055e-04 
-1.183619524390e-03 -1.995906802131e-04 0.0 
-1.995906802131e-04 7.793015624772e-03 0.0 
0.0 0.0 -1.152567315725e-03 
-6.518619288047e-04 -1.801864724235e-04 0.0 
-1.801864724235e-04 4.278312019353e-03 0.0 
0.0 0.0 -6.514572604261e-04 
-1.161957516655e-03 2.065796963047e-04 0.0 
2.065796963047e-04 7.737413579119e-03 0.0 
0.0 0.0 -1.154039482800e-03 
-9.839722502603e-04 -1.958677314329e-04 0.0 
-1.958677314329e-04 6.578387584555e-03 0.0 
0.0 0.0 -9.821191134873e-04 
-9.294100606495e-04 1.930061835790e-04 0.0 
1.930061835790e-04 6.122204066633e-03 0.0 
0.0 0.0 -9.293965016571e-04 
-9.285061071557e-04 -1.774497838441e-04 0.0 
-1.774497838441e-04 6.189509746344e-03 0.0 
0.0 0.0 -9.268654845074e-04 
-5.996189068561e-04 1.852055889783e-04 0.0 
1.852055889783e-04 3.820597089734e-03 0.0 
0.0 0.0 -5.989583036242e-04 
-1.944838745677e-04 1.584109702941e-04 0.0 
1.584109702941e-04 1.163625171840e-03 0.0 
0.0 0.0 -2.103425724855e-04 
-1.545095455239e-04 1.193388759039e-04 0.0 
1.193388759039e-04 6.563556231282e-04 0.0 
0.0 0.0 -1.599169489567e-04 
-9.548054477989e-04 1.928585704838e-04 0.0 
1.928585704838e-04 6.318843775437e-03 0.0 
0.0 0.0 -9.583065114986e-04 
-1.160173340718e-03 1.884012827659e-04 0.0 
1.884012827659e-04 7.692007981726e-03 0.0 
0.0 0.0 -1.148056181429e-03 
-5.412400896945e-04 -1.740896251804e-04 0.0 
-1.740896251804e-04 3.519775267643e-03 0.0 
0.0 0.0 -5.426247857783e-04 
-1.000629830532e-03 1.900148255988e-04 0.0 
1.900148255988e-04 6.622819157878e-03 0.0 
0.0 0.0 -1.000702849114e-03 
-5.014074309498e-04 1.897737110035e-04 0.0 
1.897737110035e-04 3.104700833587e-03 0.0 
0.0 0.0 -5.002094317253e-04 
-1.008257874699e-03 -1.995045898856e-04 0.0 
-1.995045898856e-04 6.739421236299e-03 0.0 
0.0 0.0 -1.005614027492e-03 
-1.275786431468e-03 1.088711895385e-04 0.0 
1.088711895385e-04 8.693642459064e-03 0.0 
0.0 0.0 -1.266534580134e-03 
-5.404710541813e-05 1.564499946383e-05 0.0 
1.564499946383e-05 2.310460762638e-04 0.0 
0.0 0.0 -4.512473402930e-05 
-1.341620833825e-03 -3.423569445624e-05 0.0 
-3.423569445624e-05 8.854172159816e-03 0.0 
0.0 0.0 -1.341620833825e-03 
-1.340051318819e-03 3.419351748172e-06 0.0 
3.419351748172e-06 8.881496154702e-03 0.0 
0.0 0.0 -1.340051318819e-03 
-8.003500561082e-04 -1.973446332084e-04 0.0 
-1.973446332084e-04 5.182732733425e-03 0.0 
0.0 0.0 -7.955197795907e-04 
-6.427190039752e-04 -1.771623886154e-04 0.0 
-1.771623886154e-04 4.219584582941e-03 0.0 
0.0 0.0 -6.428246066218e-04 
-9.539959357727e-04 -1.903436421630e-04 0.0 
-1.903436421630e-04 6.384067375959e-03 0.0 
0.0 0.0 -9.543595451430e-04 
-6.046483611249e-04 -1.904684548623e-04 0.0 
-1.904684548623e-04 3.941030960147e-03 0.0 
0.0 0.0 -6.041149214933e-04 
-2.015327089857e-04 -1.787857606074e-04 0.0 
-1.787857606074e-04 1.215175486256e-03 0.0 
0.0 0.0 -2.095884814006e-04 
-1.358502302165e-04 -1.652436952664e-04 0.0 
-1.652436952664e-04 5.860561493669e-04 0.0 
0.0 0.0 -1.201211790779e-04 
-1.224116731780e-03 -1.601620163348e-04 0.0 
-1.601620163348e-04 8.159917680932e-03 0.0 
0.0 0.0 -1.209499414335e-03 
-9.670306227229e-04 -2.102097021758e-04 0.0 
-2.102097021758e-04 6.456763428288e-03 0.0 
0.0 0.0 -9.648175333861e-04 
-7.505793698934e-04 -1.832067976458e-04 0.0 
-1.832067976458e-04 4.862883335491e-03 0.0 
0.0 0.0 -7.224789237173e-04 
-1.308106101880e-03 -9.564346375704e-06 0.0 
-9.564346375704e-06 9.104818726286e-03 0.0 
0.0 0.0 -1.323661129950e-03 
-3.723881451927e-04 -2.095753772028e-04 0.0 
-2.095753772028e-04 2.251170567837e-03 0.0 
0.0 0.0 -3.615704333793e-04 
-1.338587368780e-03 -1.150799812328e-05 0.0 
-1.150799812328e-05 9.097604261257e-03 0.0 
0.0 0.0 -1.324908485340e-03 
-9.656783964585e-04 1.862090128514e-04 0.0 
1.862090128514e-04 6.391762053029e-03 0.0 
0.0 0.0 -9.670422101491e-04 
-6.322851321103e-04 -1.782670103149e-04 0.0 
-1.782670103149e-04 4.156088603212e-03 0.0 
0.0 0.0 -6.336394413500e-04 
-9.215195886709e-04 1.858262024963e-04 0.0 
1.858262024963e-04 6.065159777351e-03 0.0 
0.0 0.0 -9.212972352143e-04 
-6.095245585206e-04 1.817233461859e-04 0.0 
1.817233461859e-04 3.888318231073e-03 0.0 
0.0 0.0 -6.094834619596e-04 
-3.161972729321e-04 2.118996039673e-04 0.0 
2.118996039673e-04 1.862493464303e-03 0.0 
0.0 0.0 -3.160312483096e-04 
-5.714172847083e-04 1.885506067566e-04 0.0 
1.885506067566e-04 3.631122930928e-03 0.0 
0.0 0.0 -5.728018649490e-04 
-1.022496320278e-03 1.929428534963e-04 0.0 
1.929428534963e-04 6.770909400157e-03 0.0 
0.0 0.0 -1.023749757194e-03 
-1.150976429886e-03 -2.032424840275e-04 0.0 
-2.032424840275e-04 7.758939253249e-03 0.0 
0.0 0.0 -1.155390781228e-03 
-6.187002398340e-04 1.818215273870e-04 0.0 
1.818215273870e-04 3.950326342677e-03 0.0 
0.0 0.0 -6.181853003094e-04 
-1.037480631671e-03 1.889356953884e-04 0.0 
1.889356953884e-04 6.873009589990e-03 0.0 
0.0 0.0 -1.036271578259e-03 
0.0 0.0 0.0 
0.0 0.0 0.0 
0.0 0.0 0.0 
-6.276661230387e-04 1.792694929943e-04 0.0 
1.792694929943e-04 4.010933515785e-03 0.0 
0.0 0.0 -6.266282162577e-04 
-1.067618640436e-03 -2.059979659696e-04 0.0 
-2.059979659696e-04 7.168819223232e-03 0.0 
0.0 0.0 -1.066385360782e-03 
-5.602476022505e-04 1.913249262792e-04 0.0 
1.913249262792e-04 3.548859392025e-03 0.0 
0.0 0.0 -5.616069800515e-04 
-5.034317169211e-04 -1.766316395617e-04 0.0 
-1.766316395617e-04 3.262973984744e-03 0.0 
0.0 0.0 -5.052880831394e-04 
-9.189958469858e-04 -1.860644213166e-04 0.0 
-1.860644213166e-04 6.131142810909e-03 0.0 
0.0 0.0 -9.187611816440e-04 
-2.798438621560e-04 2.024562614015e-04 0.0 
2.024562614015e-04 1.659164072585e-03 0.0 
0.0 0.0 -2.979563435985e-04 
-4.237702008278e-04 -1.193704641065e-04 0.0 
-1.193704641065e-04 2.381332436810e-03 0.0 
0.0 0.0 -3.867203691650e-04 
-3.975764326489e-04 -1.798608620238e-04 0.0 
-1.798608620238e-04 2.707475849368e-03 0.0 
0.0 0.0 -4.195921675762e-04 
-4.963058465455e-04 1.849091904100e-04 0.0 
1.849091904100e-04 3.099739962777e-03 0.0 
0.0 0.0 -4.973376392308e-04 
-8.459383987433e-04 -1.907145818211e-04 0.0 
-1.907145818211e-04 5.622335891913e-03 0.0 
0.0 0.0 -8.444178005646e-04 
-8.162577903273e-04 1.917219888078e-04 0.0 
1.917219888078e-04 5.328762658263e-03 0.0 
0.0 0.0 -8.147327860213e-04 
-1.033805230838e-03 -2.014200165049e-04 0.0 
-2.014200165049e-04 6.928519613423e-03 0.0 
0.0 0.0 -1.033897369924e-03 
-1.221633880436e-03 1.327525419154e-04 0.0 
1.327525419154e-04 8.105302040654e-03 0.0 
0.0 0.0 -1.224260864640e-03 
-4.437323643489e-04 1.289034247084e-04 0.0 
1.289034247084e-04 2.824272473931e-03 0.0 
0.0 0.0 -4.570814260163e-04 
-1.026282183515e-03 -2.469645237372e-04 0.0 
-2.469645237372e-04 6.837925098464e-03 0.0 
0.0 0.0 -1.028620860735e-03 
-1.232340650598e-03 1.232265702216e-04 0.0 
1.232265702216e-04 8.131356307241e-03 0.0 
0.0 0.0 -1.228414553209e-03 
-5.714514367839e-04 1.903885160707e-04 0.0 
1.903885160707e-04 3.625837711505e-03 0.0 
0.0 0.0 -5.707601703556e-04 
-2.135565257302e-04 2.102195190307e-04 0.0 
2.102195190307e-04 1.190116728888e-03 0.0 
0.0 0.0 -2.192200328082e-04 
-5.324811030586e-04 -1.564509498564e-04 0.0 
-1.564509498564e-04 3.456619354267e-03 0.0 
0.0 0.0 -5.330167430730e-04 
-8.085387987626e-04 -1.885177874859e-04 0.0 
-1.885177874859e-04 5.361946972923e-03 0.0 
0.0 0.0 -8.082977034869e-04 
-1.047924752938e-03 1.956397865657e-04 0.0 
1.956397865657e-04 6.924645327261e-03 0.0 
0.0 0.0 -1.043024347135e-03 
-8.126482086337e-04 1.904262971098e-04 0.0 
1.904262971098e-04 5.297787546946e-03 0.0 
0.0 0.0 -8.108276944599e-04 
-2.458088517300e-04 -1.138196901464e-04 0.0 
-1.138196901464e-04 1.452613291321e-03 0.0 
0.0 0.0 -2.343049260409e-04 
-9.102031090636e-04 -2.013755147983e-04 0.0 
-2.013755147983e-04 6.070783801232e-03 0.0 
0.0 0.0 -9.096068616062e-04 
-3.560167896549e-04 2.151383842188e-04 0.0 
2.151383842188e-04 2.131802985450e-03 0.0 
0.0 0.0 -3.508512830963e-04 
-8.140185260576e-04 -1.926928755879e-04 0.0 
-1.926928755879e-04 5.389465675351e-03 0.0 
0.0 0.0 -8.123573650817e-04 
-8.767776688193e-04 2.024483433582e-04 0.0 
2.024483433582e-04 5.751188307413e-03 0.0 
0.0 0.0 -8.756097305517e-04 
-9.509565837624e-04 1.896974231218e-04 0.0 
1.896974231218e-04 6.265385166788e-03 0.0 
0.0 0.0 -9.491391837787e-04 
-9.274205801970e-04 -1.707730266069e-04 0.0 
-1.707730266069e-04 6.212775611049e-03 0.0 
0.0 0.0 -9.494079867578e-04 
-4.906398001625e-04 -1.749565167891e-04 0.0 
-1.749565167891e-04 3.179973922092e-03 0.0 
0.0 0.0 -4.933620968966e-04 
-2.484574972914e-04 1.853035354058e-04 0.0 
1.853035354058e-04 1.372800011643e-03 0.0 
0.0 0.0 -2.459554264611e-04 
-9.419221611826e-04 2.078178624914e-04 0.0 
2.078178624914e-04 6.213877196692e-03 0.0 
0.0 0.0 -9.415329344942e-04 
-3.796687070467e-04 1.987051729866e-04 0.0 
1.987051729866e-04 2.349690832434e-03 0.0 
0.0 0.0 -3.857152600925e-04 
-1.079925297708e-04 2.094696628342e-04 0.0 
2.094696628342e-04 4.385964497386e-04 0.0 
0.0 0.0 -1.205192217350e-04 
-1.217003238982e-03 1.715975421034e-04 0.0 
1.715975421034e-04 8.115367819263e-03 0.0 
0.0 0.0 -1.223389224544e-03 
-1.152822377069e-03 1.914748152746e-04 0.0 
1.914748152746e-04 7.732583850779e-03 0.0 
0.0 0.0 -1.157435638217e-03 
-9.394432781389e-05 -1.620283716041e-05 0.0 
-1.620283716041e-05 3.135234532211e-04 0.0 
0.0 0.0 -9.410533946025e-05 
-9.757772886518e-04 -2.084469974537e-04 0.0 
-2.084469974537e-04 6.524951865197e-03 0.0 
0.0 0.0 -9.758309632659e-04 
-3.896708157340e-04 -1.763476574512e-04 0.0 
-1.763476574512e-04 2.457499880861e-03 0.0 
0.0 0.0 -3.887237773309e-04 
-4.187709573894e-04 2.113072011151e-04 0.0 
2.113072011151e-04 2.560835545987e-03 0.0 
0.0 0.0 -4.195855280820e-04 
-1.100445862982e-03 1.933828922324e-04 0.0 
1.933828922324e-04 7.327011461119e-03 0.0 
0.0 0.0 -1.100737838324e-03 
-9.470047501209e-04 -1.877990577056e-04 0.0 
-1.877990577056e-04 6.324416518396e-03 0.0 
0.0 0.0 -9.467522836136e-04 
-1.064750852218e-03 1.888034529426e-04 0.0 
1.888034529426e-04 7.071897550473e-03 0.0 
0.0 0.0 -1.064854740548e-03 
-6.246803119834e-04 -1.813696095216e-04 0.0 
-1.813696095216e-04 4.082455365693e-03 0.0 
0.0 0.0 -6.238888496032e-04 
-7.066733059563e-04 2.079397955123e-05 0.0 
2.079397955123e-05 4.859565834242e-03 0.0 
0.0 0.0 -7.105917616147e-04 
-1.294146159652e-03 -3.864697892392e-05 0.0 
-3.864697892392e-05 8.444131533072e-03 0.0 
0.0 0.0 -1.281538364137e-03 
-3.542163761972e-04 2.028127844720e-04 0.0 
2.028127844720e-04 2.096644602115e-03 0.0 
0.0 0.0 -3.541816848729e-04 
-1.125206372116e-03 -1.754172072946e-04 0.0 
-1.754172072946e-04 7.521489804146e-03 0.0 
0.0 0.0 -1.121221582973e-03 
-8.491762958406e-04 -1.918772025260e-04 0.0 
-1.918772025260e-04 5.637172269943e-03 0.0 
0.0 0.0 -8.477100451819e-04 
-2.548170229509e-04 1.666770740485e-04 0.0 
1.666770740485e-04 1.576109573106e-03 0.0 
0.0 0.0 -2.892354545592e-04 
-1.017444257442e-03 1.870623454717e-04 0.0 
1.870623454717e-04 6.717348757916e-03 0.0 
0.0 0.0 -1.015166614560e-03 
-6.631831128869e-04 1.857158928685e-04 0.0 
1.857158928685e-04 4.263729749941e-03 0.0 
0.0 0.0 -6.628028861993e-04 
-1.684732311542e-04 2.043772270911e-05 0.0 
2.043772270911e-05 7.313008481942e-04 0.0 
0.0 0.0 -1.790968519484e-04 
-5.636882380034e-04 1.819527752724e-04 0.0 
1.819527752724e-04 3.574156729662e-03 0.0 
0.0 0.0 -5.632129589051e-04 
-9.884210265131e-04 1.935912308442e-04 0.0 
1.935912308442e-04 6.630368017319e-03 0.0 
0.0 0.0 -9.915417172310e-04 
-1.024292652289e-03 -1.998354067082e-04 0.0 
-1.998354067082e-04 6.855679602380e-03 0.0 
0.0 0.0 -1.020980360542e-03 
-2.668718187996e-04 -1.887143997354e-04 0.0 
-1.887143997354e-04 1.647579462571e-03 0.0 
0.0 0.0 -2.713190868338e-04 
-7.786512140660e-04 -1.180089749437e-04 0.0 
-1.180089749437e-04 5.426201302135e-03 0.0 
0.0 0.0 -8.076288038732e-04 
-1.074110154891e-03 1.985848318848e-04 0.0 
1.985848318848e-04 7.134481455861e-03 0.0 
0.0 0.0 -1.071782534217e-03 
-1.102896231441e-03 -1.801608730722e-04 0.0 
-1.801608730722e-04 7.447194143767e-03 0.0 
0.0 0.0 -1.109893377180e-03 
-5.341916501155e-04 1.805786256933e-04 0.0 
1.805786256933e-04 3.363027861628e-03 0.0 
0.0 0.0 -5.351738145117e-04 
-4.305045173777e-04 1.931657245159e-04 0.0 
1.931657245159e-04 2.621086994850e-03 0.0 
0.0 0.0 -4.333934152438e-04 
-8.799765506503e-04 1.996562479782e-04 0.0 
1.996562479782e-04 5.778741680504e-03 0.0 
0.0 0.0 -8.786267582723e-04 
-9.199821990293e-04 -2.154181819419e-04 0.0 
-2.154181819419e-04 6.117399840533e-03 0.0 
0.0 0.0 -9.278975173457e-04 
-1.674260928547e-04 -1.501342801200e-05 0.0 
-1.501342801200e-05 7.277150164987e-04 0.0 
0.0 0.0 -1.762926913357e-04 
-1.274115998275e-03 1.675675276396e-06 0.0 
1.675675276396e-06 8.713591812970e-03 0.0 
0.0 0.0 -1.269179263065e-03 
-1.298508155882e-03 1.869502884699e-05 0.0 
1.869502884699e-05 8.443421948614e-03 0.0 
0.0 0.0 -1.281197857596e-03 
-8.292940884850e-04 -1.917175163009e-04 0.0 
-1.917175163009e-04 5.414946975703e-03 0.0 
0.0 0.0 -8.387747867703e-04 
-1.244952979202e-03 -2.282010355606e-04 0.0 
-2.282010355606e-04 8.516132030964e-03 0.0 
0.0 0.0 -1.255037608383e-03 
-1.285595461777e-03 8.758262611811e-05 0.0 
8.758262611811e-05 8.470225568409e-03 0.0 
0.0 0.0 -1.285499913836e-03 
-6.550628368553e-04 1.846091374222e-04 0.0 
1.846091374222e-04 4.205898052995e-03 0.0 
0.0 0.0 -6.542748834104e-04 
-6.160633711768e-04 -1.792561832398e-04 0.0 
-1.792561832398e-04 4.023102319788e-03 0.0 
0.0 0.0 -6.153450468602e-04 
-1.283033344166e-03 -3.678337033116e-05 0.0 
-3.678337033116e-05 8.728014596535e-03 0.0 
0.0 0.0 -1.265535665854e-03 
0.0 0.0 0.0 
0.0 0.0 0.0 
0.0 0.0 0.0 
-3.991066787644e-04 2.089649564117e-04 0.0 
2.089649564117e-04 2.425063075378e-03 0.0 
0.0 0.0 -3.941707820484e-04 
-8.514609378297e-04 2.123409869842e-04 0.0 
2.123409869842e-04 5.409120252618e-03 0.0 
0.0 0.0 -8.329475646481e-04 
-5.302799896406e-04 -1.732779148190e-04 0.0 
-1.732779148190e-04 3.448271069514e-03 0.0 
0.0 0.0 -5.313546330462e-04 
-5.563051708704e-04 1.844916340552e-04 0.0 
1.844916340552e-04 3.512912497570e-03 0.0 
0.0 0.0 -5.546931404481e-04 
-3.415568276899e-04 -1.308054941932e-04 0.0 
-1.308054941932e-04 1.889315350148e-03 0.0 
0.0 0.0 -3.196518454468e-04 
-3.575678493769e-04 -1.815157908242e-04 0.0 
-1.815157908242e-04 2.264784395116e-03 0.0 
0.0 0.0 -3.528063275151e-04 
-8.197996438865e-04 -1.649479054575e-04 0.0 
-1.649479054575e-04 5.559213606059e-03 0.0 
0.0 0.0 -8.290026594306e-04 
-5.969369916123e-04 -1.873932769646e-04 0.0 
-1.873932769646e-04 3.888936242251e-03 0.0 
0.0 0.0 -5.962921515785e-04 
-4.656748358331e-04 1.698564554768e-04 0.0 
1.698564554768e-04 2.821912241396e-03 0.0 
0.0 0.0 -4.583473518421e-04 
-1.081990949278e-03 2.020316486046e-04 0.0 
2.020316486046e-04 7.171935137813e-03 0.0 
0.0 0.0 -1.077832113627e-03 
-1.313638198111e-03 -3.076900631363e-06 0.0 
-3.076900631363e-06 9.102354608081e-03 0.0 
0.0 0.0 -1.324978758543e-03 
-1.341095485501e-03 -7.065196985573e-05 0.0 
-7.065196985573e-05 9.093683970561e-03 0.0 
0.0 0.0 -1.320624918399e-03 
-6.462169745443e-04 1.855628978642e-04 0.0 
1.855628978642e-04 4.145339439620e-03 0.0 
0.0 0.0 -6.457427040837e-04 
-7.708747032324e-04 1.041783851500e-04 0.0 
1.041783851500e-04 4.982091340538e-03 0.0 
0.0 0.0 -7.877541558771e-04 
-8.769640556113e-05 6.178156653826e-05 0.0 
6.178156653826e-05 4.782988861832e-04 0.0 
0.0 0.0 -9.215226380795e-05 
-2.633621526955e-04 -2.203101725458e-04 0.0 
-2.203101725458e-04 1.488332341374e-03 0.0 
0.0 0.0 -2.565684379859e-04 
-2.684503074307e-04 -1.015967117789e-04 0.0 
-1.015967117789e-04 1.723596733048e-03 0.0 
0.0 0.0 -2.726290318112e-04 
-2.937144985059e-04 -1.893501464246e-04 0.0 
-1.893501464246e-04 1.729218905568e-03 0.0 
0.0 0.0 -2.902597925154e-04 
-9.132607495649e-04 -1.959093978122e-04 0.0 
-1.959093978122e-04 6.073898974161e-03 0.0 
0.0 0.0 -9.116044729693e-04 
-5.464820601322e-04 1.827990156846e-04 0.0 
1.827990156846e-04 3.450683961523e-03 0.0 
0.0 0.0 -5.459662534218e-04 
-5.889189184563e-04 -1.828572680717e-04 0.0 
-1.828572680717e-04 3.834736165112e-03 0.0 
0.0 0.0 -5.879858557453e-04 
-1.839870051548e-04 -1.451969745408e-04 0.0 
-1.451969745408e-04 1.010884541365e-03 0.0 
0.0 0.0 -1.607067486349e-04 
-1.189299804196e-03 3.101361533260e-05 0.0 
3.101361533260e-05 7.702189552740e-03 0.0 
0.0 0.0 -1.176327079312e-03 
-5.798619533544e-04 -1.808661495354e-04 0.0 
-1.808661495354e-04 3.773380412779e-03 0.0 
0.0 0.0 -5.792774345575e-04 
-1.207908513450e-03 1.972281472903e-04 0.0 
1.972281472903e-04 8.083641670665e-03 0.0 
0.0 0.0 -1.212957849656e-03 
-1.102884565855e-03 -1.433383463997e-04 0.0 
-1.433383463997e-04 7.411218118786e-03 0.0 
0.0 0.0 -1.117460450001e-03 
-1.327052993259e-03 5.039016474573e-05 0.0 
5.039016474573e-05 9.117456944273e-03 0.0 
0.0 0.0 -1.319418651152e-03 
-1.323160438534e-03 4.113209317422e-05 0.0 
4.113209317422e-05 9.111232254039e-03 0.0 
0.0 0.0 -1.324849633189e-03 
-8.429214028196e-04 1.551938721598e-04 0.0 
1.551938721598e-04 5.556754036542e-03 0.0 
0.0 0.0 -8.315138651140e-04 
-6.054182665991e-04 -1.761595556498e-04 0.0 
-1.761595556498e-04 3.962557590826e-03 0.0 
0.0 0.0 -6.063493599946e-04 
-3.773225086312e-04 1.540184482810e-04 0.0 
1.540184482810e-04 2.369883884178e-03 0.0 
0.0 0.0 -3.884917441798e-04 
-6.362526417499e-04 1.880822988669e-04 0.0 
1.880822988669e-04 4.081289822239e-03 0.0 
0.0 0.0 -6.367902913543e-04 
-1.343328350294e-03 -2.242232029301e-05 0.0 
-2.242232029301e-05 8.871791449146e-03 0.0 
0.0 0.0 -1.343328350294e-03 
-1.941237960476e-04 -2.080169990244e-04 0.0 
-2.080169990244e-04 1.015510769409e-03 0.0 
0.0 0.0 -1.893367542308e-04 
-2.245210048569e-04 -1.692984650134e-04 0.0 
-1.692984650134e-04 1.259236592297e-03 0.0 
0.0 0.0 -2.228547875044e-04 
-1.167115373107e-03 -1.495116845836e-04 0.0 
-1.495116845836e-04 7.791699083978e-03 0.0 
0.0 0.0 -1.156027955174e-03 
-7.604196719999e-04 1.094016003107e-05 0.0 
1.094016003107e-05 5.257478836262e-03 0.0 
0.0 0.0 -7.715229432315e-04 
-1.218850929264e-03 2.058644676409e-04 0.0 
2.058644676409e-04 8.144525734943e-03 0.0 
0.0 0.0 -1.219279742240e-03 
-1.071479820018e-03 -2.036323164842e-04 0.0 
-2.036323164842e-04 7.177512432405e-03 0.0 
0.0 0.0 -1.069611963270e-03 
-1.173316210076e-03 1.967322517176e-04 0.0 
1.967322517176e-04 7.835584524311e-03 0.0 
0.0 0.0 -1.175036385391e-03 
-1.118458415257e-03 -2.207277967069e-04 0.0 
-2.207277967069e-04 7.508134580034e-03 0.0 
0.0 0.0 -1.113576918908e-03 
-8.412072480000e-04 1.822595111317e-04 0.0 
1.822595111317e-04 5.484810982913e-03 0.0 
0.0 0.0 -8.542750875041e-04 
-4.656106938285e-04 -1.713235230467e-04 0.0 
-1.713235230467e-04 3.001776381545e-03 0.0 
0.0 0.0 -4.674384380614e-04 
-4.697017346435e-04 1.848050694814e-04 0.0 
1.848050694814e-04 2.920597782787e-03 0.0 
0.0 0.0 -4.715697005044e-04 
-9.776991098987e-04 1.861960494421e-04 0.0 
1.861960494421e-04 6.549106674112e-03 0.0 
0.0 0.0 -9.963059934037e-04 
-1.137349181097e-03 -2.318464835195e-04 0.0 
-2.318464835195e-04 7.668040183404e-03 0.0 
0.0 0.0 -1.142506377625e-03 
-7.233340711098e-04 3.952444560705e-05 0.0 
3.952444560705e-05 4.569127107640e-03 0.0 
0.0 0.0 -7.345222264051e-04 
-7.670993363221e-04 9.419055025908e-06 0.0 
9.419055025908e-06 5.242908179151e-03 0.0 
0.0 0.0 -7.676068998053e-04 
-8.154774784067e-04 -6.428956903013e-05 0.0 
-6.428956903013e-05 5.577286133227e-03 0.0 
0.0 0.0 -8.242303029217e-04 
-8.631530775678e-04 -2.400243606271e-04 0.0 
-2.400243606271e-04 5.666444636217e-03 0.0 
0.0 0.0 -8.467401457521e-04 
-2.520894261651e-04 1.671748571762e-04 0.0 
1.671748571762e-04 1.368563506488e-03 0.0 
0.0 0.0 -2.397236108670e-04 
-4.305788114656e-04 1.772776305973e-04 0.0 
1.772776305973e-04 2.648122848143e-03 0.0 
0.0 0.0 -4.335179088089e-04 
-1.282591321733e-03 8.806658448800e-05 0.0 
8.806658448800e-05 8.712918664304e-03 0.0 
0.0 0.0 -1.269310366786e-03 
-9.079866980401e-04 -2.164843828387e-04 0.0 
-2.164843828387e-04 6.067165963345e-03 0.0 
0.0 0.0 -9.150577043801e-04 
-1.296402067617e-03 1.470406796949e-04 0.0 
1.470406796949e-04 8.670707295504e-03 0.0 
0.0 0.0 -1.295322057178e-03 
-1.218050556302e-03 -1.658124096046e-04 0.0 
-1.658124096046e-04 8.300187960416e-03 0.0 
0.0 0.0 -1.215577547940e-03 
-1.017494637499e-03 -1.921677140224e-04 0.0 
-1.921677140224e-04 6.789033766802e-03 0.0 
0.0 0.0 -1.012565562176e-03 
-1.225370251071e-03 -1.480578321934e-04 0.0 
-1.480578321934e-04 8.186203026488e-03 0.0 
0.0 0.0 -1.214907066889e-03 
-6.126094482220e-04 1.499930831992e-04 0.0 
1.499930831992e-04 3.952786327319e-03 0.0 
0.0 0.0 -6.304496659280e-04 
-5.949124951754e-04 1.553635317388e-04 0.0 
1.553635317388e-04 3.760564116659e-03 0.0 
0.0 0.0 -5.666856080635e-04 
-1.240251440986e-03 1.401266566937e-04 0.0 
1.401266566937e-04 8.128078577480e-03 0.0 
0.0 0.0 -1.226851238141e-03 
-8.681779237144e-05 6.361966938889e-05 0.0 
6.361966938889e-05 2.955256088903e-04 0.0 
0.0 0.0 -8.944620707951e-05 
-3.994468741372e-04 -6.433767031839e-05 0.0 
-6.433767031839e-05 2.663800316761e-03 0.0 
0.0 0.0 -4.071640756073e-04 
-1.342405754833e-03 -1.165290042752e-05 0.0 
-1.165290042752e-05 8.847278625245e-03 0.0 
0.0 0.0 -1.342405754833e-03 
-2.282183831112e-04 -1.931913246922e-04 0.0 
-1.931913246922e-04 1.161289386138e-03 0.0 
0.0 0.0 -2.265802816212e-04 
-7.779914563104e-04 2.250840471912e-05 0.0 
2.250840471912e-05 4.976100040424e-03 0.0 
0.0 0.0 -7.870118106326e-04 
-1.235301241696e-03 -4.597267687940e-05 0.0 
-4.597267687940e-05 8.352549433382e-03 0.0 
0.0 0.0 -1.213461936786e-03 
-1.459711515859e-04 1.404844411890e-04 0.0 
1.404844411890e-04 8.229618690863e-04 0.0 
0.0 0.0 -1.562362318669e-04 
-9.769154927044e-05 -4.466849095827e-05 0.0 
-4.466849095827e-05 5.434427193165e-04 0.0 
0.0 0.0 -9.998712429274e-05 
-1.319764072821e-03 -1.098631366031e-04 0.0 
-1.098631366031e-04 9.086194502793e-03 0.0 
0.0 0.0 -1.324389858384e-03 
-7.180738404627e-04 8.985801949804e-05 0.0 
8.985801949804e-05 4.589525670273e-03 0.0 
0.0 0.0 -7.294542769151e-04 
-1.252043255197e-03 2.202164088422e-04 0.0 
2.202164088422e-04 8.539160480101e-03 0.0 
0.0 0.0 -1.261418349269e-03 
-1.248383097869e-03 1.112925247003e-05 0.0 
1.112925247003e-05 8.098072079257e-03 0.0 
0.0 0.0 -1.231858344535e-03 
-7.209227692000e-04 -5.510654877091e-05 0.0 
-5.510654877091e-05 4.575450219389e-03 0.0 
0.0 0.0 -7.289279708929e-04 
-7.887389828834e-05 -1.017830300428e-05 0.0 
-1.017830300428e-05 5.525360744204e-04 0.0 
0.0 0.0 -9.740250892546e-05 
-1.285641185581e-03 -9.669087187560e-05 0.0 
-9.669087187560e-05 8.464210102403e-03 0.0 
0.0 0.0 -1.284140717545e-03 
-2.442885352264e-04 -2.316128597141e-04 0.0 
-2.316128597141e-04 1.339036366237e-03 0.0 
0.0 0.0 -2.433545560381e-04 
-1.243394787484e-03 1.248159333677e-04 0.0 
1.248159333677e-04 8.192432393622e-03 0.0 
0.0 0.0 -1.232184317627e-03 
-1.343095105526e-03 -5.545911197425e-07 0.0 
-5.545911197425e-07 8.861098076103e-03 0.0 
0.0 0.0 -1.343095105526e-03 
-1.242483488035e-03 -1.476678323207e-04 0.0 
-1.476678323207e-04 8.164481882699e-03 0.0 
0.0 0.0 -1.225700354592e-03 
-3.053173479735e-04 1.995595624775e-04 0.0 
1.995595624775e-04 1.753941284829e-03 0.0 
0.0 0.0 -3.044764127662e-04 
-8.209179416884e-04 2.201614491088e-05 0.0 
2.201614491088e-05 5.636691216410e-03 0.0 
0.0 0.0 -8.279144014868e-04 
-6.598213782972e-04 -1.321361913962e-04 0.0 
-1.321361913962e-04 4.200506500251e-03 0.0 
0.0 0.0 -6.271989868224e-04 
-1.073009497438e-03 -2.016133877389e-04 0.0 
-2.016133877389e-04 7.190278966189e-03 0.0 
0.0 0.0 -1.077599360682e-03 
-1.322804215539e-03 -9.225806505956e-05 0.0 
-9.225806505956e-05 9.099454060859e-03 0.0 
0.0 0.0 -1.326997735404e-03 
-1.068734190482e-03 1.262415369066e-04 0.0 
1.262415369066e-04 7.132952485478e-03 0.0 
0.0 0.0 -1.061614915164e-03 
-1.337358869243e-03 1.104149306633e-04 0.0 
1.104149306633e-04 9.089889591754e-03 0.0 
0.0 0.0 -1.325870641008e-03 
-1.438532979018e-04 1.783345522893e-04 0.0 
1.783345522893e-04 7.477808023263e-04 0.0 
0.0 0.0 -1.715795432680e-04 
-1.271233225915e-03 -1.249047643759e-04 0.0 
-1.249047643759e-04 8.707020070809e-03 0.0 
0.0 0.0 -1.277656510522e-03 
-3.430844418630e-04 1.264811275403e-04 0.0 
1.264811275403e-04 2.040518818998e-03 0.0 
0.0 0.0 -3.355960889912e-04 
-2.267326677211e-04 8.751186841259e-05 0.0 
8.751186841259e-05 1.117406703756e-03 0.0 
0.0 0.0 -2.298118214877e-04 
-1.280901782935e-03 -1.009695952617e-04 0.0 
-1.009695952617e-04 8.719202259105e-03 0.0 
0.0 0.0 -1.270335377537e-03 
-1.269212628500e-03 -5.703432125200e-05 0.0 
-5.703432125200e-05 8.728165820739e-03 0.0 
0.0 0.0 -1.270603359501e-03 
-1.290208848840e-03 -1.659042855401e-04 0.0 
-1.659042855401e-04 8.665328582140e-03 0.0 
0.0 0.0 -1.289850838753e-03 
-7.717572245574e-04 2.050611335135e-04 0.0 
2.050611335135e-04 5.043252484980e-03 0.0 
0.0 0.0 -7.762633204683e-04 
-8.522136042616e-04 2.002639843872e-04 0.0 
2.002639843872e-04 5.495330100218e-03 0.0 
0.0 0.0 -8.489529362435e-04 
-3.165071740037e-04 -2.111753426377e-04 0.0 
-2.111753426377e-04 1.888408226457e-03 0.0 
0.0 0.0 -3.134500106614e-04 
-1.262455248765e-03 -8.092303513728e-05 0.0 
-8.092303513728e-05 8.720636871640e-03 0.0 
0.0 0.0 -1.273041473476e-03 
-5.172296523503e-04 1.719980447266e-04 0.0 
1.719980447266e-04 3.374654497821e-03 0.0 
0.0 0.0 -5.357483711987e-04 
-1.781924616035e-04 -1.691974037750e-04 0.0 
-1.691974037750e-04 1.076416545498e-03 0.0 
0.0 0.0 -2.114276361914e-04 
-1.103945436021e-03 1.858035491712e-04 0.0 
1.858035491712e-04 7.419563175353e-03 0.0 
0.0 0.0 -1.110141529071e-03 
-7.006483677025e-04 -2.017256137276e-05 0.0 
-2.017256137276e-05 4.817249357728e-03 0.0 
0.0 0.0 -7.096328662732e-04 
-1.236750495474e-03 1.522707816399e-04 0.0 
1.522707816399e-04 8.254648441428e-03 0.0 
0.0 0.0 -1.237729719596e-03 
-1.313320395878e-03 -1.861843894467e-04 0.0 
-1.861843894467e-04 8.989774958204e-03 0.0 
0.0 0.0 -1.321509982054e-03 
-1.343732204276e-03 -8.189586176297e-06 0.0 
-8.189586176297e-06 8.864848236539e-03 0.0 
0.0 0.0 -1.343732204276e-03 
-2.113977103298e-05 -6.116564405309e-05 0.0 
-6.116564405309e-05 2.124468673954e-04 0.0 
0.0 0.0 -4.293446239042e-05 
-1.369574587125e-05 5.682883385819e-05 0.0 
5.682883385819e-05 6.671587994242e-05 0.0 
0.0 0.0 -2.272291460193e-05 
-7.269437089926e-04 -1.696449694041e-04 0.0 
-1.696449694041e-04 4.683701017331e-03 0.0 
0.0 0.0 -7.318233512793e-04 
-7.351939856936e-04 2.731264159563e-05 0.0 
2.731264159563e-05 4.828327016366e-03 0.0 
0.0 0.0 -7.096011290571e-04 
-1.343732204276e-03 1.179896387127e-05 0.0 
1.179896387127e-05 8.857063084495e-03 0.0 
0.0 0.0 -1.343732204276e-03 
-1.309711018183e-03 1.830632258291e-04 0.0 
1.830632258291e-04 8.985110969777e-03 0.0 
0.0 0.0 -1.321509982054e-03 
-7.839023714476e-05 1.530759167141e-04 0.0 
1.530759167141e-04 4.984351001574e-04 0.0 
0.0 0.0 -9.787861857360e-05 
0.0 0.0 0.0 
0.0 0.0 0.0 
0.0 0.0 0.0 
-1.240428741391e-03 1.261681395074e-04 0.0 
1.261681395074e-04 8.137366373926e-03 0.0 
0.0 0.0 -1.230181737024e-03 
-1.207075559038e-03 2.460354552527e-04 0.0 
2.460354552527e-04 8.184062138694e-03 0.0 
0.0 0.0 -1.209364118140e-03 
-2.516969952369e-04 -1.461428108360e-04 0.0 
-1.461428108360e-04 1.687102641450e-03 0.0 
0.0 0.0 -2.712674790923e-04 
-1.245262172265e-03 -1.311938195306e-04 0.0 
-1.311938195306e-04 8.282968492479e-03 0.0 
0.0 0.0 -1.240191881334e-03 
-8.815159713633e-04 -5.214653451851e-05 0.0 
-5.214653451851e-05 5.742054567636e-03 0.0 
0.0 0.0 -8.888375990210e-04 
-7.830091470663e-04 -1.948066662000e-04 0.0 
-1.948066662000e-04 5.082527524584e-03 0.0 
0.0 0.0 -7.610796297342e-04 
-9.561048422875e-04 9.798803026384e-05 0.0 
9.798803026384e-05 6.427121213030e-03 0.0 
0.0 0.0 -9.400782610458e-04 
-2.481095332731e-04 1.496361777487e-04 0.0 
1.496361777487e-04 1.515795619755e-03 0.0 
0.0 0.0 -2.626203152100e-04 
-1.010907895305e-03 -2.030439122721e-04 0.0 
-2.030439122721e-04 6.762603191825e-03 0.0 
0.0 0.0 -1.011657465016e-03 
-2.096777059838e-04 3.248157080125e-05 0.0 
3.248157080125e-05 1.393633952846e-03 0.0 
0.0 0.0 -2.181484037039e-04 
-6.792638343957e-04 -1.892634513455e-04 0.0 
-1.892634513455e-04 4.524953282507e-03 0.0 
0.0 0.0 -6.997415131527e-04 
-1.228132135990e-03 1.125898781112e-04 0.0 
1.125898781112e-04 8.215057351811e-03 0.0 
0.0 0.0 -1.240519096027e-03 
-1.189706231828e-03 -2.131151468578e-04 0.0 
-2.131151468578e-04 8.025000395541e-03 0.0 
0.0 0.0 -1.191726112421e-03 
-7.376716687014e-04 1.103821202312e-04 0.0 
1.103821202312e-04 4.884590449631e-03 0.0 
0.0 0.0 -7.690942022927e-04 
-8.794968587203e-04 -1.839618802493e-04 0.0 
-1.839618802493e-04 5.894695197839e-03 0.0 
0.0 0.0 -8.745659502648e-04 
-1.233301431487e-03 8.160038213140e-05 0.0 
8.160038213140e-05 8.358065301524e-03 0.0 
0.0 0.0 -1.217119345309e-03 
-1.141574387304e-03 -2.166019370135e-04 0.0 
-2.166019370135e-04 7.685657586840e-03 0.0 
0.0 0.0 -1.140944809983e-03 
-1.081193771009e-03 -2.086711321349e-04 0.0 
-2.086711321349e-04 7.235399972245e-03 0.0 
0.0 0.0 -1.076426999079e-03 
-7.306608964195e-04 1.032073657561e-05 0.0 
1.032073657561e-05 4.566565227243e-03 0.0 
0.0 0.0 -7.312123441678e-04 
-9.778650762194e-04 -2.118658920496e-04 0.0 
-2.118658920496e-04 6.529297964408e-03 0.0 
0.0 0.0 -9.763781674015e-04 
-1.237478436388e-03 1.224174650821e-04 0.0 
1.224174650821e-04 8.159420566097e-03 0.0 
0.0 0.0 -1.231404929774e-03 
-4.267545194733e-04 1.185171473709e-04 0.0 
1.185171473709e-04 2.513528635352e-03 0.0 
0.0 0.0 -4.167967844001e-04 
-9.921663346510e-05 -4.441075622388e-05 0.0 
-4.441075622388e-05 6.032903446548e-04 0.0 
0.0 0.0 -1.015157820784e-04 
-1.196520802042e-03 -1.451432414407e-04 0.0 
-1.451432414407e-04 7.939655555732e-03 0.0 
0.0 0.0 -1.185975225609e-03 
-1.126502929027e-03 1.777561321906e-04 0.0 
1.777561321906e-04 7.477268686063e-03 0.0 
0.0 0.0 -1.123538223191e-03 
-2.078344596567e-04 -1.080252995939e-04 0.0 
-1.080252995939e-04 1.116725601039e-03 0.0 
0.0 0.0 -2.307047010092e-04 
-9.934730169900e-04 -1.599306293238e-04 0.0 
-1.599306293238e-04 6.730831912440e-03 0.0 
0.0 0.0 -9.893338170986e-04 
-1.294485487258e-03 -4.211486433477e-05 0.0 
-4.211486433477e-05 8.454062998903e-03 0.0 
0.0 0.0 -1.282739585886e-03 
-1.188427124013e-03 1.207612322075e-04 0.0 
1.207612322075e-04 7.845258460139e-03 0.0 
0.0 0.0 -1.182073443778e-03 
-1.229516741237e-03 -2.922411445837e-05 0.0 
-2.922411445837e-05 8.351941012254e-03 0.0 
0.0 0.0 -1.215129606110e-03 
-9.509005340637e-04 -2.110936823322e-04 0.0 
-2.110936823322e-04 6.286467037558e-03 0.0 
0.0 0.0 -9.537126495859e-04 
-9.113657589531e-05 5.031862656042e-05 0.0 
5.031862656042e-05 3.206408784026e-04 0.0 
0.0 0.0 -9.835898678883e-05 
-3.211470424961e-04 1.012653271347e-04 0.0 
1.012653271347e-04 1.877306534774e-03 0.0 
0.0 0.0 -3.212443691966e-04 
-3.868345573263e-04 -2.158079183948e-04 0.0 
-2.158079183948e-04 2.373525116556e-03 0.0 
0.0 0.0 -3.834349432650e-04 
-8.152074782469e-04 3.282099269049e-05 0.0 
3.282099269049e-05 5.366100763401e-03 0.0 
0.0 0.0 -8.471429939415e-04 
-9.776446367943e-04 2.161934057613e-04 0.0 
2.161934057613e-04 6.478555405996e-03 0.0 
0.0 0.0 -9.781602908260e-04 
-1.243353399719e-03 -1.638877946274e-04 0.0 
-1.638877946274e-04 8.293874922919e-03 0.0 
0.0 0.0 -1.236541257690e-03 
-1.282980388071e-03 6.834535406594e-05 0.0 
6.834535406594e-05 8.446722746771e-03 0.0 
0.0 0.0 -1.282325209426e-03 
-1.534406041715e-04 -3.090119355691e-05 0.0 
-3.090119355691e-05 9.940803017302e-04 0.0 
0.0 0.0 -1.581060378624e-04 
-1.515974677088e-04 5.347591743218e-05 0.0 
5.347591743218e-05 9.499659581657e-04 0.0 
0.0 0.0 -1.538280640939e-04 
-2.429997348883e-04 2.036444813406e-04 0.0 
2.036444813406e-04 1.479432396382e-03 0.0 
0.0 0.0 -2.585189829319e-04 
-1.003671688667e-03 2.798952750373e-04 0.0 
2.798952750373e-04 6.711627995117e-03 0.0 
0.0 0.0 -1.019242131223e-03 
-5.082641639815e-04 -1.820796698733e-04 0.0 
-1.820796698733e-04 3.225266612081e-03 0.0 
0.0 0.0 -4.953283059016e-04 
-1.242349672414e-03 -1.508059351583e-04 0.0 
-1.508059351583e-04 8.332022443394e-03 0.0 
0.0 0.0 -1.241298427557e-03 
-2.469827383887e-04 -1.734013788770e-04 0.0 
-1.734013788770e-04 1.596418989747e-03 0.0 
0.0 0.0 -2.623907620756e-04 
-1.225402262687e-03 9.684378834699e-05 0.0 
9.684378834699e-05 8.090992196229e-03 0.0 
0.0 0.0 -1.221152601860e-03 
-8.136377301276e-04 1.789287431363e-04 0.0 
1.789287431363e-04 5.446005510680e-03 0.0 
0.0 0.0 -8.343732341398e-04 
-1.267827958096e-03 1.379445383927e-06 0.0 
1.379445383927e-06 8.495733417342e-03 0.0 
0.0 0.0 -1.286815605725e-03 
-1.109817670536e-03 -2.343370330106e-04 0.0 
-2.343370330106e-04 7.482609533299e-03 0.0 
0.0 0.0 -1.111121968474e-03 
-8.202418952196e-04 -8.830664857131e-05 0.0 
-8.830664857131e-05 5.379056120884e-03 0.0 
0.0 0.0 -8.465141837044e-04 
-1.270879538861e-03 -4.852122928062e-05 0.0 
-4.852122928062e-05 8.726187780208e-03 0.0 
0.0 0.0 -1.269142588751e-03 
-1.282679052200e-03 7.789633126418e-05 0.0 
7.789633126418e-05 8.731686959293e-03 0.0 
0.0 0.0 -1.272727265576e-03 
-1.257303152988e-03 6.224102812160e-05 0.0 
6.224102812160e-05 8.713074082016e-03 0.0 
0.0 0.0 -1.271339345674e-03 
-1.734083018693e-04 1.988310073065e-04 0.0 
1.988310073065e-04 9.960919397328e-04 0.0 
0.0 0.0 -1.914719991171e-04 
-1.218228496203e-03 1.745230460975e-04 0.0 
1.745230460975e-04 8.126336924162e-03 0.0 
0.0 0.0 -1.218309553141e-03 
-1.287690608828e-03 2.935127504918e-05 0.0 
2.935127504918e-05 8.450884291377e-03 0.0 
0.0 0.0 -1.286645293131e-03 
-1.215292120313e-03 -1.048319889731e-04 0.0 
-1.048319889731e-04 8.264175100215e-03 0.0 
0.0 0.0 -1.211735819529e-03 
-1.131460186021e-03 2.249929147144e-04 0.0 
2.249929147144e-04 7.604741910755e-03 0.0 
0.0 0.0 -1.143254064081e-03 
-1.342665167303e-03 2.462626238341e-05 0.0 
2.462626238341e-05 8.842656329326e-03 0.0 
0.0 0.0 -1.342665167303e-03 
-1.082512435834e-03 2.096972143521e-04 0.0 
2.096972143521e-04 7.169850347795e-03 0.0 
0.0 0.0 -1.079065255302e-03 
0.0 0.0 0.0 
0.0 0.0 0.0 
0.0 0.0 0.0 
-2.601109826526e-04 -2.071691114658e-04 0.0 
-2.071691114658e-04 1.415839820494e-03 0.0 
0.0 0.0 -2.423809483696e-04 
-1.192508312149e-03 -1.779210084662e-04 0.0 
-1.779210084662e-04 7.961128754995e-03 0.0 
0.0 0.0 -1.176936364471e-03 
-8.685626322098e-04 1.582275665785e-04 0.0 
1.582275665785e-04 5.835782021141e-03 0.0 
0.0 0.0 -8.884613587993e-04 
-1.209889234857e-03 -1.955325308149e-04 0.0 
-1.955325308149e-04 8.188769710118e-03 0.0 
0.0 0.0 -1.221994126432e-03 
-1.170503729369e-03 -2.209983450853e-04 0.0 
-2.209983450853e-04 7.908922597115e-03 0.0 
0.0 0.0 -1.177009544428e-03 
-1.281372639421e-03 -4.882657488475e-05 0.0 
-4.882657488475e-05 8.503605837596e-03 0.0 
0.0 0.0 -1.292249833993e-03 
-1.060591200894e-03 2.356899093670e-04 0.0 
2.356899093670e-04 7.243032913762e-03 0.0 
0.0 0.0 -1.085521458831e-03 
-1.295424128128e-03 -1.344853644109e-05 0.0 
-1.344853644109e-05 8.497735658802e-03 0.0 
0.0 0.0 -1.288973456333e-03 
-1.240273266268e-03 -1.643959908807e-04 0.0 
-1.643959908807e-04 8.288290248441e-03 0.0 
0.0 0.0 -1.233322439334e-03 
-1.236328969747e-03 1.681015718690e-04 0.0 
1.681015718690e-04 8.249087621686e-03 0.0 
0.0 0.0 -1.235043566395e-03 
-5.200406812990e-04 -1.166757664344e-04 0.0 
-1.166757664344e-04 3.385215487565e-03 0.0 
0.0 0.0 -5.104964012366e-04 
-1.293388642315e-03 -2.007549829059e-05 0.0 
-2.007549829059e-05 9.114239519402e-03 0.0 
0.0 0.0 -1.325641941534e-03 
-7.485652657637e-04 1.433772634922e-05 0.0 
1.433772634922e-05 5.220751556451e-03 0.0 
0.0 0.0 -7.662153309038e-04 
-1.203353616892e-03 -1.846454248332e-04 0.0 
-1.846454248332e-04 8.194731648824e-03 0.0 
0.0 0.0 -1.217406395243e-03 
-1.473848137131e-04 -7.608252406775e-05 0.0 
-7.608252406775e-05 7.058205605385e-04 0.0 
0.0 0.0 -1.761976461317e-04 
-1.139762521842e-03 -1.242981094265e-04 0.0 
-1.242981094265e-04 7.914367669760e-03 0.0 
0.0 0.0 -1.163202487293e-03 
-9.847139031094e-04 -2.927819349541e-05 0.0 
-2.927819349541e-05 6.802999958382e-03 0.0 
0.0 0.0 -9.926133712568e-04 
-1.690893902524e-04 -1.078602895255e-04 0.0 
-1.078602895255e-04 9.402080020995e-04 0.0 
0.0 0.0 -1.628620303624e-04 
-2.985531882031e-04 -2.240216763464e-04 0.0 
-2.240216763464e-04 1.642242196626e-03 0.0 
0.0 0.0 -2.736924314970e-04 
-1.111715101681e-03 2.179506947961e-04 0.0 
2.179506947961e-04 7.377812155317e-03 0.0 
0.0 0.0 -1.107581195644e-03 
-1.292896746142e-03 -1.945315972070e-05 0.0 
-1.945315972070e-05 8.475231004044e-03 0.0 
0.0 0.0 -1.285368862661e-03 
-1.232559661219e-03 -1.674576161592e-04 0.0 
-1.674576161592e-04 8.301292046622e-03 0.0 
0.0 0.0 -1.223917301752e-03 
-1.254461742942e-03 2.341900515224e-04 0.0 
2.341900515224e-04 8.559507473306e-03 0.0 
0.0 0.0 -1.264779455601e-03 
-8.799678260909e-04 2.461510225767e-04 0.0 
2.461510225767e-04 5.779390736261e-03 0.0 
0.0 0.0 -8.807565902733e-04 
-9.459318500255e-05 -9.224025008795e-06 0.0 
-9.224025008795e-06 5.593643268762e-04 0.0 
0.0 0.0 -1.022500568216e-04 
-1.184228338263e-04 1.932393774192e-04 0.0 
1.932393774192e-04 8.360742900508e-04 0.0 
0.0 0.0 -1.527632439532e-04 
-1.485774023436e-04 2.057472114589e-04 0.0 
2.057472114589e-04 4.943058849458e-04 0.0 
0.0 0.0 -1.262112556552e-04 
-1.889957332613e-04 -1.720729644019e-04 0.0 
-1.720729644019e-04 1.198989706623e-03 0.0 
0.0 0.0 -2.080055930776e-04 
-2.412796962869e-05 1.151125546851e-04 0.0 
1.151125546851e-04 1.259903231300e-04 0.0 
0.0 0.0 -4.365529435769e-05 
-6.564338874857e-04 1.298407551401e-04 0.0 
1.298407551401e-04 4.516305724261e-03 0.0 
0.0 0.0 -6.753304527203e-04 
-1.206082523732e-03 1.933788045723e-04 0.0 
1.933788045723e-04 8.180269090487e-03 0.0 
0.0 0.0 -1.222305993939e-03 
-1.222663318362e-03 1.753368055928e-04 0.0 
1.753368055928e-04 8.227435580213e-03 0.0 
0.0 0.0 -1.222833113937e-03 
-8.669258191564e-04 -1.817944922657e-04 0.0 
-1.817944922657e-04 5.844176131481e-03 0.0 
0.0 0.0 -8.826313165011e-04 
-6.040048573085e-04 -2.738267400018e-04 0.0 
-2.738267400018e-04 3.891940944486e-03 0.0 
0.0 0.0 -5.988529843847e-04 
-1.222353962553e-03 -1.610597655754e-04 0.0 
-1.610597655754e-04 8.260198203253e-03 0.0 
0.0 0.0 -1.221067908166e-03 
-1.203746913663e-03 2.278206710252e-04 0.0 
2.278206710252e-04 8.189793790316e-03 0.0 
0.0 0.0 -1.208702654310e-03 
-1.279025858978e-03 8.766018994025e-05 0.0 
8.766018994025e-05 8.741593274881e-03 0.0 
0.0 0.0 -1.272252409145e-03 
-1.242705220595e-03 -3.696381206596e-05 0.0 
-3.696381206596e-05 8.148871227430e-03 0.0 
0.0 0.0 -1.237422270938e-03 
-1.174009678725e-03 1.988566962408e-04 0.0 
1.988566962408e-04 7.816359446438e-03 0.0 
0.0 0.0 -1.171232062679e-03 
-1.672054198290e-04 9.231173188905e-05 0.0 
9.231173188905e-05 7.047171557344e-04 0.0 
0.0 0.0 -1.733042685746e-04 
-1.128922232108e-04 -1.541536460293e-04 0.0 
-1.541536460293e-04 8.181726866748e-04 0.0 
0.0 0.0 -1.441637530793e-04 
-1.232867888531e-03 -1.583409372844e-04 0.0 
-1.583409372844e-04 8.274546276781e-03 0.0 
0.0 0.0 -1.223662873675e-03 
-1.809471586289e-04 2.732513028346e-05 0.0 
2.732513028346e-05 7.150332979249e-04 0.0 
0.0 0.0 -1.761523314621e-04 
-2.090612244599e-04 2.679772699564e-04 0.0 
2.679772699564e-04 1.034188635190e-03 0.0 
0.0 0.0 -1.933333333332e-04 
-1.375589269253e-04 1.895212040581e-04 0.0 
1.895212040581e-04 6.272580356086e-04 0.0 
0.0 0.0 -1.476920362276e-04 
-1.616726848356e-04 -1.838984361801e-04 0.0 
-1.838984361801e-04 7.928606863592e-04 0.0 
0.0 0.0 -1.580296812506e-04 
-1.300434401275e-03 -1.024873491577e-05 0.0 
-1.024873491577e-05 8.484073046421e-03 0.0 
0.0 0.0 -1.288571152055e-03 
-1.296196106557e-03 -7.581226292431e-05 0.0 
-7.581226292431e-05 8.500775829958e-03 0.0 
0.0 0.0 -1.290113636706e-03 
-1.257797356609e-03 1.887508465157e-04 0.0 
1.887508465157e-04 8.298916238051e-03 0.0 
0.0 0.0 -1.236907757659e-03 
-1.306315150684e-03 9.008107202586e-08 0.0 
9.008107202586e-08 8.523760771155e-03 0.0 
0.0 0.0 -1.292605224168e-03 
-1.191514572737e-03 -1.523248627148e-04 0.0 
-1.523248627148e-04 7.914354314681e-03 0.0 
0.0 0.0 -1.176879138244e-03 
-9.009707231897e-04 2.647575106000e-04 0.0 
2.647575106000e-04 6.062013665177e-03 0.0 
0.0 0.0 -9.170130443517e-04 
-1.345069444888e-03 -1.224359494152e-05 0.0 
-1.224359494152e-05 8.872525889838e-03 0.0 
0.0 0.0 -1.345069444888e-03 
-3.168516228751e-04 -1.142391801259e-04 0.0 
-1.142391801259e-04 2.071683762697e-03 0.0 
0.0 0.0 -3.330755757467e-04 
-6.832796589934e-04 2.794415003490e-06 0.0 
2.794415003490e-06 4.812526626932e-03 0.0 
0.0 0.0 -7.083073883397e-04 
-1.983733277546e-04 6.070841311573e-05 0.0 
6.070841311573e-05 1.303830959687e-03 0.0 
0.0 0.0 -2.086331215474e-04 
-8.213992574580e-05 4.728700015112e-05 0.0 
4.728700015112e-05 2.774119614063e-04 0.0 
0.0 0.0 -8.368801528307e-05 
-1.296331570259e-03 3.985530997243e-05 0.0 
3.985530997243e-05 9.108859965209e-03 0.0 
0.0 0.0 -1.323850096553e-03 
-7.636750152913e-04 -5.943479672408e-05 0.0 
-5.943479672408e-05 5.297273347084e-03 0.0 
0.0 0.0 -7.731261162940e-04 
-1.898896061389e-04 2.668881093002e-05 0.0 
2.668881093002e-05 1.324161255717e-03 0.0 
0.0 0.0 -2.115341463249e-04 
-6.766397334689e-04 2.335959289237e-04 0.0 
2.335959289237e-04 4.262192913851e-03 0.0 
0.0 0.0 -6.570498647039e-04 
-1.270388897102e-03 1.791394562197e-05 0.0 
1.791394562197e-05 8.744228481245e-03 0.0 
0.0 0.0 -1.276804206569e-03 
-1.238351285998e-03 -1.647535430713e-04 0.0 
-1.647535430713e-04 8.287386498838e-03 0.0 
0.0 0.0 -1.228616961883e-03 
-1.299245503170e-03 -6.943481147044e-06 0.0 
-6.943481147044e-06 8.501206471558e-03 0.0 
0.0 0.0 -1.289666537713e-03 
-4.674755872492e-04 -1.441717405802e-04 0.0 
-1.441717405802e-04 3.063014272079e-03 0.0 
0.0 0.0 -4.695399720401e-04 
-1.457689473942e-04 -1.575597281072e-04 0.0 
-1.575597281072e-04 7.498700715420e-04 0.0 
0.0 0.0 -1.553221962317e-04 
-1.285913149297e-03 -1.165123631474e-04 0.0 
-1.165123631474e-04 8.730182768681e-03 0.0 
0.0 0.0 -1.273144391159e-03 
-1.298815958390e-03 2.309086979375e-05 0.0 
2.309086979375e-05 9.107151826923e-03 0.0 
0.0 0.0 -1.325353038101e-03 
-1.331981550421e-03 -1.771381069916e-05 0.0 
-1.771381069916e-05 9.126640523195e-03 0.0 
0.0 0.0 -1.323783523096e-03 
-7.660500434482e-04 1.313542510446e-04 0.0 
1.313542510446e-04 5.035539676325e-03 0.0 
0.0 0.0 -7.673431308700e-04 
-1.235780327313e-03 -4.526587613016e-06 0.0 
-4.526587613016e-06 8.115023081303e-03 0.0 
0.0 0.0 -1.231867668451e-03 
-1.953177882174e-04 -9.491085164936e-05 0.0 
-9.491085164936e-05 1.122964739939e-03 0.0 
0.0 0.0 -2.324200178898e-04 
-1.257584227981e-03 1.660686322992e-04 0.0 
1.660686322992e-04 8.340961353616e-03 0.0 
0.0 0.0 -1.241575510934e-03 
-8.170589745739e-05 -1.080295024412e-05 0.0 
-1.080295024412e-05 2.725451190137e-04 0.0 
0.0 0.0 -8.178823780987e-05 
-1.306295822847e-03 -1.062422533950e-05 0.0 
-1.062422533950e-05 8.506048519693e-03 0.0 
0.0 0.0 -1.290713494763e-03 
-1.281136683790e-03 1.115018912951e-04 0.0 
1.115018912951e-04 8.702368548138e-03 0.0 
0.0 0.0 -1.268585396830e-03 
-8.090064620293e-05 -6.463780865650e-05 0.0 
-6.463780865650e-05 2.764343947342e-04 0.0 
0.0 0.0 -8.380017794199e-05 
-1.195471399734e-03 -1.402863971347e-04 0.0 
-1.402863971347e-04 7.949772117529e-03 0.0 
0.0 0.0 -1.178018281593e-03 
-1.028233004996e-03 -1.859683667160e-04 0.0 
-1.859683667160e-04 6.977936374389e-03 0.0 
0.0 0.0 -1.053859681778e-03 
-1.289487723471e-03 -3.059440868738e-05 0.0 
-3.059440868738e-05 8.509289695588e-03 0.0 
0.0 0.0 -1.289687241943e-03 
-1.346242744377e-03 -1.047219123710e-05 0.0 
-1.047219123710e-05 8.896960402449e-03 0.0 
0.0 0.0 -1.346242744377e-03 
-9.624911099008e-04 -2.997622866496e-04 0.0 
-2.997622866496e-04 6.376553401582e-03 0.0 
0.0 0.0 -9.627310317561e-04 
-1.292971171235e-03 1.345101664025e-05 0.0 
1.345101664025e-05 8.530939079912e-03 0.0 
0.0 0.0 -1.292510612804e-03 
-1.246115197789e-03 -1.533948492975e-04 0.0 
-1.533948492975e-04 8.325319025632e-03 0.0 
0.0 0.0 -1.236507170568e-03 
-1.007540401079e-03 8.825741490426e-06 0.0 
8.825741490426e-06 6.546914065101e-03 0.0 
0.0 0.0 -1.009625451247e-03 
-1.239682124839e-03 -1.433667225738e-05 0.0 
-1.433667225738e-05 8.247508066060e-03 0.0 
0.0 0.0 -1.247605899893e-03 
-5.439659078653e-04 -1.293203549736e-04 0.0 
-1.293203549736e-04 3.573225901759e-03 0.0 
0.0 0.0 -5.668522599723e-04 
-7.422257193806e-04 -2.384409417979e-05 0.0 
-2.384409417979e-05 4.553525172640e-03 0.0 
0.0 0.0 -7.287847301676e-04 
-1.250463763405e-03 1.444458806810e-04 0.0 
1.444458806810e-04 8.323970461278e-03 0.0 
0.0 0.0 -1.239219007812e-03 
-1.277932458032e-03 1.160268164509e-04 0.0 
1.160268164509e-04 8.651299276670e-03 0.0 
0.0 0.0 -1.286506427510e-03 
0.0 0.0 0.0 
0.0 0.0 0.0 
0.0 0.0 0.0 
-7.391696919876e-04 5.460045200464e-05 0.0 
5.460045200464e-05 4.572310123870e-03 0.0 
0.0 0.0 -7.284590636140e-04 
-1.282539678950e-03 -1.213229753820e-04 0.0 
-1.213229753820e-04 8.668193960288e-03 0.0 
0.0 0.0 -1.288082484959e-03 
-2.668000831652e-04 1.337975711292e-04 0.0 
1.337975711292e-04 1.552550494018e-03 0.0 
0.0 0.0 -2.765646858065e-04 
-1.244314668154e-03 3.253635918241e-05 0.0 
3.253635918241e-05 8.351662046828e-03 0.0 
0.0 0.0 -1.213252366005e-03 
-1.212806318798e-03 -1.378965673920e-04 0.0 
-1.378965673920e-04 8.296055804055e-03 0.0 
0.0 0.0 -1.225943235494e-03 
-1.276740815873e-03 -1.548809764644e-04 0.0 
-1.548809764644e-04 8.705204137735e-03 0.0 
0.0 0.0 -1.269037835114e-03 
-2.467774251027e-04 1.357300176722e-04 0.0 
1.357300176722e-04 1.515114324046e-03 0.0 
0.0 0.0 -2.647987373252e-04 
-1.846190942978e-04 5.164886539677e-05 0.0 
5.164886539677e-05 1.204409405256e-03 0.0 
0.0 0.0 -1.906575996298e-04 
-8.286327452832e-04 3.382951551478e-04 0.0 
3.382951551478e-04 5.239779904281e-03 0.0 
0.0 0.0 -7.939471195916e-04 
-1.139651880695e-03 8.042350541591e-05 0.0 
8.042350541591e-05 7.547907450212e-03 0.0 
0.0 0.0 -1.120841203304e-03 
6.762182202458e-06 4.922521689337e-06 0.0 
4.922521689337e-06 1.951722452606e-04 0.0 
0.0 0.0 -4.162563418682e-05 
-1.297631582513e-03 -2.970012333429e-05 0.0 
-2.970012333429e-05 8.538118962210e-03 0.0 
0.0 0.0 -1.292233508669e-03 
-9.496420787081e-04 3.842938930090e-05 0.0 
3.842938930090e-05 6.134769422349e-03 0.0 
0.0 0.0 -9.501928138396e-04 
-2.319252204202e-04 -1.666332425871e-04 0.0 
-1.666332425871e-04 1.531261602253e-03 0.0 
0.0 0.0 -2.601894661948e-04 
-9.182086126089e-04 6.576575429171e-05 0.0 
6.576575429171e-05 5.823601520570e-03 0.0 
0.0 0.0 -9.030544305944e-04 
-1.281338578084e-03 -1.215158440347e-04 0.0 
-1.215158440347e-04 8.719272788120e-03 0.0 
0.0 0.0 -1.271643562581e-03 
-8.361599263990e-04 -2.906502343770e-04 0.0 
-2.906502343770e-04 5.524370676589e-03 0.0 
0.0 0.0 -8.272804529250e-04 
-9.020963282829e-05 -1.875396024300e-04 0.0 
-1.875396024300e-04 3.251699178446e-04 0.0 
0.0 0.0 -8.776479312233e-05 
-5.428499226707e-04 1.403699556570e-04 0.0 
1.403699556570e-04 3.200704680556e-03 0.0 
0.0 0.0 -5.209635072927e-04 
-7.264103312116e-04 1.066181262773e-04 0.0 
1.066181262773e-04 4.783605203211e-03 0.0 
0.0 0.0 -7.319997505002e-04 
-8.379507721355e-04 3.506890823091e-04 0.0 
3.506890823091e-04 5.706153283525e-03 0.0 
0.0 0.0 -8.599999999992e-04 
-1.240777117315e-03 -1.439647034317e-04 0.0 
-1.439647034317e-04 8.329527072644e-03 0.0 
0.0 0.0 -1.232780192057e-03 
-7.376665261260e-04 -1.727241022976e-04 0.0 
-1.727241022976e-04 4.617911229220e-03 0.0 
0.0 0.0 -7.175509632692e-04 
-7.419227856638e-04 8.706574175028e-05 0.0 
8.706574175028e-05 4.905660942002e-03 0.0 
0.0 0.0 -7.596628988333e-04 
-1.725607618193e-04 1.274500514103e-04 0.0 
1.274500514103e-04 7.075820556251e-04 0.0 
0.0 0.0 -1.551230728613e-04 
-1.262496529076e-03 1.402132573887e-04 0.0 
1.402132573887e-04 8.306889500876e-03 0.0 
0.0 0.0 -1.240629869904e-03 
-1.209173557273e-03 1.621322078836e-04 0.0 
1.621322078836e-04 7.950506271258e-03 0.0 
0.0 0.0 -1.186362110037e-03 
-2.227791697187e-04 8.637930858019e-05 0.0 
8.637930858019e-05 1.298316331418e-03 0.0 
0.0 0.0 -2.411692657676e-04 
-1.261193436875e-03 -8.326695288074e-05 0.0 
-8.326695288074e-05 8.552285249105e-03 0.0 
0.0 0.0 -1.290349483557e-03 
-1.293807969811e-03 1.507292729990e-04 0.0 
1.507292729990e-04 8.596145003785e-03 0.0 
0.0 0.0 -1.290356026000e-03 
-7.679899519872e-04 -1.532356305283e-04 0.0 
-1.532356305283e-04 5.157074227234e-03 0.0 
0.0 0.0 -7.639788432047e-04 
-9.396515753231e-04 3.091234051292e-05 0.0 
3.091234051292e-05 6.333492038285e-03 0.0 
0.0 0.0 -9.358343396975e-04 
-7.048143922741e-04 1.638625948524e-04 0.0 
1.638625948524e-04 4.692848505541e-03 0.0 
0.0 0.0 -7.108516105536e-04 
-7.079275106751e-04 -1.102323501340e-04 0.0 
-1.102323501340e-04 4.802970885948e-03 0.0 
0.0 0.0 -7.343037059241e-04 
-7.780838486789e-04 -3.476295080762e-05 0.0 
-3.476295080762e-05 5.090202749114e-03 0.0 
0.0 0.0 -7.498489858827e-04 
-1.195445771267e-03 1.533301423154e-04 0.0 
1.533301423154e-04 7.905914704818e-03 0.0 
0.0 0.0 -1.180929064624e-03 
-2.101723265820e-04 1.264806835632e-04 0.0 
1.264806835632e-04 1.084941023669e-03 0.0 
0.0 0.0 -2.274637643159e-04 
-1.230210229403e-03 -1.391362873496e-04 0.0 
-1.391362873496e-04 8.342547987840e-03 0.0 
0.0 0.0 -1.217816617926e-03 
-8.387293036436e-04 7.281979356209e-05 0.0 
7.281979356209e-05 5.326094164637e-03 0.0 
0.0 0.0 -8.376728236383e-04 
-1.277193560845e-03 -1.460979146763e-04 0.0 
-1.460979146763e-04 8.720485292524e-03 0.0 
0.0 0.0 -1.272153791098e-03 
-1.202298967755e-03 -1.320050113914e-04 0.0 
-1.320050113914e-04 7.883588282290e-03 0.0 
0.0 0.0 -1.181257232468e-03 
-8.795673226242e-04 -5.945622150851e-05 0.0 
-5.945622150851e-05 6.031279173310e-03 0.0 
0.0 0.0 -8.902468719969e-04 
-1.211224544084e-03 1.194316264715e-04 0.0 
1.194316264715e-04 8.008237221313e-03 0.0 
0.0 0.0 -1.201032862555e-03 
-1.250364770317e-03 1.261810502707e-04 0.0 
1.261810502707e-04 8.225945087577e-03 0.0 
0.0 0.0 -1.236767197193e-03 
-1.292703020779e-03 -2.277677435029e-05 0.0 
-2.277677435029e-05 8.758650210356e-03 0.0 
0.0 0.0 -1.270271405117e-03 
-9.288790837527e-05 4.486310937793e-05 0.0 
4.486310937793e-05 3.125136257930e-04 0.0 
0.0 0.0 -9.412530746476e-05 
-1.213293100967e-03 -1.365137297491e-04 0.0 
-1.365137297491e-04 8.055302576551e-03 0.0 
0.0 0.0 -1.198686027802e-03 
-1.233489147260e-03 1.844031552690e-04 0.0 
1.844031552690e-04 8.360738709544e-03 0.0 
0.0 0.0 -1.227078865044e-03 
-1.296260318671e-04 -1.418501242847e-04 0.0 
-1.418501242847e-04 8.665050242929e-04 0.0 
0.0 0.0 -1.488313462956e-04 
-6.781230104505e-04 -1.171397059556e-04 0.0 
-1.171397059556e-04 4.366860208538e-03 0.0 
0.0 0.0 -6.841365946973e-04 
-7.630078233159e-05 -6.102099342087e-05 0.0 
-6.102099342087e-05 5.288528667040e-04 0.0 
0.0 0.0 -9.692352125104e-05 
-1.239413171189e-03 -1.038112219682e-04 0.0 
-1.038112219682e-04 8.427166424518e-03 0.0 
0.0 0.0 -1.230789928679e-03 
-2.521277694037e-04 -6.446284034674e-05 0.0 
-6.446284034674e-05 1.534392840313e-03 0.0 
0.0 0.0 -2.488888888889e-04 
-2.728327989193e-04 5.819881722132e-05 0.0 
5.819881722132e-05 1.339822900769e-03 0.0 
0.0 0.0 -2.711111111111e-04 
-2.480655971863e-04 -2.777801925699e-06 0.0 
-2.777801925699e-06 1.653275501699e-03 0.0 
0.0 0.0 -2.488888888889e-04 
-2.715469034664e-04 1.274942756413e-06 0.0 
1.274942756413e-06 1.347101318943e-03 0.0 
0.0 0.0 -2.711111111111e-04 
-2.489931200648e-04 -3.638760225734e-06 0.0 
-3.638760225734e-06 1.658494809349e-03 0.0 
0.0 0.0 -2.488888888889e-04 
-2.716460378005e-04 -3.480677046255e-06 0.0 
-3.480677046255e-06 1.347896604332e-03 0.0 
0.0 0.0 -2.711111111111e-04 
-2.503038673232e-04 -5.457405187188e-06 0.0 
-5.457405187188e-06 1.659164978861e-03 0.0 
0.0 0.0 -2.488888888889e-04 
-2.723056335147e-04 -4.500785648077e-06 0.0 
-4.500785648077e-06 1.348738405761e-03 0.0 
0.0 0.0 -2.711111111111e-04 
-2.512837609625e-04 -5.893070865546e-06 0.0 
-5.893070865546e-06 1.659994488358e-03 0.0 
0.0 0.0 -2.488888888889e-04 
-2.730658014986e-04 -4.757317490025e-06 0.0 
-4.757317490025e-06 1.349543620452e-03 0.0 
0.0 0.0 -2.711111111111e-04 
-2.518969323997e-04 -5.700600670993e-06 0.0 
-5.700600670993e-06 1.660777595862e-03 0.0 
0.0 0.0 -2.488888888889e-04 
-2.736940159659e-04 -4.789124913957e-06 0.0 
-4.789124913957e-06 1.350136879534e-03 0.0 
0.0 0.0 -2.711111111111e-04 
-2.522081182519e-04 -5.290303154696e-06 0.0 
-5.290303154696e-06 1.661328800105e-03 0.0 
0.0 0.0 -2.488888888889e-04 
-2.740879120576e-04 -4.696420828638e-06 0.0 
-4.696420828638e-06 1.350475034167e-03 0.0 
0.0 0.0 -2.711111111111e-04 
-2.523021902561e-04 -4.768851682041e-06 0.0 
-4.768851682041e-06 1.661607619857e-03 0.0 
0.0 0.0 -2.488888888889e-04 
-2.742860114604e-04 -4.450678829233e-06 0.0 
-4.450678829233e-06 1.350596594181e-03 0.0 
0.0 0.0 -2.711111111111e-04 
-2.522583537361e-04 -4.132198172627e-06 0.0 
-4.132198172627e-06 1.661658411941e-03 0.0 
0.0 0.0 -2.488888888889e-04 
-2.743377094271e-04 -4.015824398562e-06 0.0 
-4.015824398562e-06 1.350548093641e-03 0.0 
0.0 0.0 -2.711111111111e-04 
-2.521306901669e-04 -3.319779894205e-06 0.0 
-3.319779894205e-06 1.661525912280e-03 0.0 
0.0 0.0 -2.488888888889e-04 
-3.080779607716e-04 -1.475015598075e-04 0.0 
-1.475015598075e-04 1.635244379832e-03 0.0 
0.0 0.0 -2.581395122151e-04 
-2.742946236910e-04 -3.315280578534e-06 0.0 
-3.315280578534e-06 1.350382112278e-03 0.0 
0.0 0.0 -2.711111111111e-04 
-2.519612657398e-04 -2.267032836284e-06 0.0 
-2.267032836284e-06 1.661266505515e-03 0.0 
0.0 0.0 -2.488888888889e-04 
-2.741581536561e-04 -2.253353674045e-06 0.0 
-2.253353674045e-06 1.350150926122e-03 0.0 
0.0 0.0 -2.711111111111e-04 
-2.202457828127e-04 1.389746075053e-05 0.0 
1.389746075053e-05 1.357677145761e-03 0.0 
0.0 0.0 -2.711111111111e-04 
-2.517946071942e-04 -8.929753581382e-07 0.0 
-8.929753581382e-07 1.660940577633e-03 0.0 
0.0 0.0 -2.488888888889e-04 
-2.739189039234e-04 -6.352722421678e-07 0.0 
-6.352722421678e-07 1.349967660769e-03 0.0 
0.0 0.0 -2.711111111111e-04 
-2.517384363008e-04 7.394561981538e-07 0.0 
7.394561981538e-07 1.660737699433e-03 0.0 
0.0 0.0 -2.488888888889e-04 
-2.739337964166e-04 1.221197274564e-06 0.0 
1.221197274564e-06 1.349964284877e-03 0.0 
0.0 0.0 -2.711111111111e-04 
-2.518334594085e-04 2.411731503521e-06 0.0 
2.411731503521e-06 1.660763702417e-03 0.0 
0.0 0.0 -2.488888888889e-04 
-1.231279733979e-04 2.515721253346e-05 0.0 
2.515721253346e-05 1.427654525232e-03 0.0 
0.0 0.0 -2.578130585510e-04 
-2.740223529325e-04 3.169941513043e-06 0.0 
3.169941513043e-06 1.350175213004e-03 0.0 
0.0 0.0 -2.711111111111e-04 
-2.521255361383e-04 3.789268835446e-06 0.0 
3.789268835446e-06 1.661134749008e-03 0.0 
0.0 0.0 -2.488888888889e-04 
-2.747394659981e-04 4.250533792761e-06 0.0 
4.250533792761e-06 1.350530716705e-03 0.0 
0.0 0.0 -2.711111111111e-04 
-2.523897404502e-04 4.867975976982e-06 0.0 
4.867975976982e-06 1.661439774285e-03 0.0 
0.0 0.0 -2.488888888889e-04 
-2.744430783500e-04 5.964660527608e-06 0.0 
5.964660527608e-06 1.350990306142e-03 0.0 
0.0 0.0 -2.711111111111e-04 
-2.529635273503e-04 5.222681203829e-06 0.0 
5.222681203829e-06 1.662423363150e-03 0.0 
0.0 0.0 -2.488888888889e-04 
-2.760690211444e-04 4.823894415256e-06 0.0 
4.823894415256e-06 1.351429118495e-03 0.0 
0.0 0.0 -2.711111111111e-04 
-2.529908770248e-04 5.652366354121e-06 0.0 
5.652366354121e-06 1.662150892169e-03 0.0 
0.0 0.0 -2.488888888889e-04 
-2.736516486221e-04 8.080140684546e-06 0.0 
8.080140684546e-06 1.351951630548e-03 0.0 
0.0 0.0 -2.711111111111e-04 
-2.542260054684e-04 4.590652968587e-06 0.0 
4.590652968587e-06 1.664711106639e-03 0.0 
0.0 0.0 -2.488888888889e-04 
-2.786325066483e-04 5.172759371911e-07 0.0 
5.172759371911e-07 1.351920484534e-03 0.0 
0.0 0.0 -2.711111111111e-04 
-2.039484749468e-04 4.240355346084e-05 0.0 
4.240355346084e-05 1.529639228524e-03 0.0 
0.0 0.0 -2.692506233262e-04 
-2.686073439389e-04 1.740565458011e-05 0.0 
1.740565458011e-05 1.353255056419e-03 0.0 
0.0 0.0 -2.711111111111e-04 
-2.527840940339e-04 6.556301368232e-06 0.0 
6.556301368232e-06 1.660172474859e-03 0.0 
0.0 0.0 -2.488888888889e-04 
-2.885766075313e-04 -1.897435447569e-05 0.0 
-1.897435447569e-05 1.351855420541e-03 0.0 
0.0 0.0 -2.711111111111e-04 
-2.580190928112e-04 2.196056460017e-06 0.0 
2.196056460017e-06 1.672405909541e-03 0.0 
0.0 0.0 -2.488888888889e-04 
-2.354569360816e-04 5.009177763054e-05 0.0 
5.009177763054e-05 1.348029008298e-03 0.0 
0.0 0.0 -2.711111111111e-04 
-2.497180866270e-04 9.594220509731e-06 0.0 
9.594220509731e-06 1.647902027827e-03 0.0 
0.0 0.0 -2.488888888889e-04 
-2.676238912133e-04 1.065653122437e-05 0.0 
1.065653122437e-05 1.687223118492e-03 0.0 
0.0 0.0 -2.488888888889e-04 
-1.604370229811e-04 -8.834470754812e-06 0.0 
-8.834470754812e-06 1.235903269871e-03 0.0 
0.0 0.0 -2.470284011040e-04 
-3.182184165148e-04 -3.658444227264e-04 0.0 
-3.658444227264e-04 1.559382054094e-03 0.0 
0.0 0.0 -2.600000000000e-04 
-2.129354412600e-04 3.593199102676e-04 0.0 
3.593199102676e-04 1.370669013137e-03 0.0 
0.0 0.0 -2.600000000000e-04 
-2.876678598137e-04 -3.799013677227e-05 0.0 
-3.799013677227e-05 1.519057765608e-03 0.0 
0.0 0.0 -2.822222222222e-04 
-2.424563862687e-04 4.131524077327e-05 0.0 
4.131524077327e-05 1.419663110366e-03 0.0 
0.0 0.0 -2.377777777778e-04 
-1.839048878600e-04 -4.966859083089e-06 0.0 
-4.966859083089e-06 1.370596563687e-03 0.0 
0.0 0.0 -2.377777777778e-04 
-3.410025939663e-04 -7.109134268580e-05 0.0 
-7.109134268580e-05 1.939357491602e-03 0.0 
0.0 0.0 -3.377777777778e-04 
-3.172772433638e-04 5.789359071666e-05 0.0 
5.789359071666e-05 2.125716446876e-03 0.0 
0.0 0.0 -3.155555555556e-04 
-3.390659740094e-04 -6.181655200973e-06 0.0 
-6.181655200973e-06 1.811818636053e-03 0.0 
0.0 0.0 -3.377777777778e-04 
-3.159913479109e-04 1.476079812793e-06 0.0 
1.476079812793e-06 2.115026583353e-03 0.0 
0.0 0.0 -3.155555555556e-04 
-3.382925612550e-04 -3.291622949823e-06 0.0 
-3.291622949823e-06 1.803604871078e-03 0.0 
0.0 0.0 -3.377777777778e-04 
-3.160904822449e-04 -2.849606337303e-06 0.0 
-2.849606337303e-06 2.114329194161e-03 0.0 
0.0 0.0 -3.155555555556e-04 
-3.384956828612e-04 -3.501014590563e-06 0.0 
-3.501014590563e-06 1.803162822433e-03 0.0 
0.0 0.0 -3.377777777778e-04 
-3.167500779591e-04 -3.727769637594e-06 0.0 
-3.727769637594e-06 2.114854677275e-03 0.0 
0.0 0.0 -3.155555555556e-04 
-3.391490141729e-04 -3.651468466448e-06 0.0 
-3.651468466448e-06 1.803753947600e-03 0.0 
0.0 0.0 -3.377777777778e-04 
-3.175102459430e-04 -4.000967953647e-06 0.0 
-4.000967953647e-06 2.115610146350e-03 0.0 
0.0 0.0 -3.155555555556e-04 
-3.398779273901e-04 -3.839591480293e-06 0.0 
-3.839591480293e-06 1.804522559076e-03 0.0 
0.0 0.0 -3.377777777778e-04 
-3.181384604103e-04 -4.131905029174e-06 0.0 
-4.131905029174e-06 2.116228510088e-03 0.0 
0.0 0.0 -3.155555555556e-04 
-3.404617035917e-04 -4.098832736299e-06 0.0 
-4.098832736299e-06 1.805124771049e-03 0.0 
0.0 0.0 -3.377777777778e-04 
-3.185323565021e-04 -4.201501100217e-06 0.0 
-4.201501100217e-06 2.116520558905e-03 0.0 
0.0 0.0 -3.155555555556e-04 
-3.407292183498e-04 -4.145196935167e-06 0.0 
-4.145196935167e-06 1.805418472779e-03 0.0 
0.0 0.0 -3.377777777778e-04 
-3.187304559048e-04 -4.035902428874e-06 0.0 
-4.035902428874e-06 2.116586246076e-03 0.0 
0.0 0.0 -3.155555555556e-04 
-3.408744810369e-04 -3.924908453558e-06 0.0 
-3.924908453558e-06 1.805493857811e-03 0.0 
0.0 0.0 -3.377777777778e-04 
-3.187821538715e-04 -3.633158389462e-06 0.0 
-3.633158389462e-06 2.116456200438e-03 0.0 
0.0 0.0 -3.155555555556e-04 
-3.690431360596e-04 -1.483147847608e-04 0.0 
-1.483147847608e-04 2.100743052422e-03 0.0 
0.0 0.0 -3.249092970522e-04 
-3.409689945327e-04 -3.383060592233e-06 0.0 
-3.383060592233e-06 1.805397786316e-03 0.0 
0.0 0.0 -3.377777777778e-04 
-3.187390681354e-04 -2.979666841310e-06 0.0 
-2.979666841310e-06 2.116197507279e-03 0.0 
0.0 0.0 -3.155555555556e-04 
-3.410270300007e-04 -2.604645378448e-06 0.0 
-2.604645378448e-06 1.805179834428e-03 0.0 
0.0 0.0 -3.377777777778e-04 
-2.670328998004e-04 2.363747169204e-05 0.0 
2.363747169204e-05 1.918142120546e-03 0.0 
0.0 0.0 -3.026870748299e-04 
-3.186025981005e-04 -2.078898059982e-06 0.0 
-2.078898059982e-06 2.115791879757e-03 0.0 
0.0 0.0 -3.155555555556e-04 
-2.890685759485e-04 1.184379376180e-05 0.0 
1.184379376180e-05 1.817294272793e-03 0.0 
0.0 0.0 -3.377777777778e-04 
-3.408782700942e-04 -1.553756922301e-06 0.0 
-1.553756922301e-06 1.804821399400e-03 0.0 
0.0 0.0 -3.377777777778e-04 
-3.183633483678e-04 -7.255709595619e-07 0.0 
-7.255709595619e-07 2.115187739220e-03 0.0 
0.0 0.0 -3.155555555556e-04 
-3.404069314638e-04 7.078744655288e-07 0.0 
7.078744655288e-07 1.804467464759e-03 0.0 
0.0 0.0 -3.377777777778e-04 
-3.183782408610e-04 1.285945568806e-06 0.0 
1.285945568806e-06 2.115270095584e-03 0.0 
0.0 0.0 -3.155555555556e-04 
-3.406492705220e-04 2.583697952876e-06 0.0 
2.583697952876e-06 1.804558473506e-03 0.0 
0.0 0.0 -3.377777777778e-04 
-3.184667973769e-04 3.190092890347e-06 0.0 
3.190092890347e-06 2.115278979552e-03 0.0 
0.0 0.0 -3.155555555556e-04 
-3.409369116605e-04 5.636160284329e-06 0.0 
5.636160284329e-06 1.804991858146e-03 0.0 
0.0 0.0 -3.377777777778e-04 
-3.191839104425e-04 4.673179760941e-06 0.0 
4.673179760941e-06 2.116930574184e-03 0.0 
0.0 0.0 -3.155555555556e-04 
-2.573175860954e-04 2.442770395473e-05 0.0 
2.442770395473e-05 1.988241460667e-03 0.0 
0.0 0.0 -3.360204081633e-04 
-3.424750430989e-04 4.023495552553e-06 0.0 
4.023495552553e-06 1.805722805934e-03 0.0 
0.0 0.0 -3.377777777778e-04 
-3.188875227944e-04 5.080339814792e-06 0.0 
5.080339814792e-06 2.115625010649e-03 0.0 
0.0 0.0 -3.155555555556e-04 
-3.407604408985e-04 9.421647063138e-06 0.0 
9.421647063138e-06 1.806070588280e-03 0.0 
0.0 0.0 -3.377777777778e-04 
-3.205134655889e-04 5.605715921528e-06 0.0 
5.605715921528e-06 2.120236289604e-03 0.0 
0.0 0.0 -3.155555555556e-04 
-3.180960930666e-04 5.060715434054e-06 0.0 
5.060715434054e-06 2.113082397847e-03 0.0 
0.0 0.0 -3.155555555556e-04 
-3.444609068295e-04 -8.452731088944e-07 0.0 
-8.452731088944e-07 1.806865042408e-03 0.0 
0.0 0.0 -3.377777777778e-04 
-3.230769510927e-04 5.297167333293e-06 0.0 
5.297167333293e-06 2.127756228039e-03 0.0 
0.0 0.0 -3.155555555556e-04 
-3.355530174909e-04 1.784549433605e-05 0.0 
1.784549433605e-05 1.806438973057e-03 0.0 
0.0 0.0 -3.377777777778e-04 
-3.130517883833e-04 8.743375330241e-06 0.0 
8.743375330241e-06 2.097353132742e-03 0.0 
0.0 0.0 -3.155555555556e-04 
-3.330210519758e-04 2.012953566073e-05 0.0 
2.012953566073e-05 2.147504497682e-03 0.0 
0.0 0.0 -3.155555555556e-04 
-3.509966610494e-04 -2.022077905235e-05 0.0 
-2.022077905235e-05 1.806627387448e-03 0.0 
0.0 0.0 -3.377777777778e-04 
-2.972095881106e-04 5.804270690087e-05 0.0 
5.804270690087e-05 1.800815152055e-03 0.0 
0.0 0.0 -3.377777777778e-04 
-2.175107159718e-04 -1.631750727446e-05 0.0 
-1.631750727446e-05 1.699502326439e-03 0.0 
0.0 0.0 -3.137981859410e-04 
-2.788781723149e-04 -3.677632055049e-04 0.0 
-3.677632055049e-04 1.918773635351e-03 0.0 
0.0 0.0 -3.266666666667e-04 
-3.824407797580e-04 3.586504733502e-04 0.0 
3.586504733502e-04 2.104280094811e-03 0.0 
0.0 0.0 -3.266666666667e-04 
-3.098900820360e-04 -3.767118635735e-05 0.0 
-3.767118635735e-05 1.957913403149e-03 0.0 
0.0 0.0 -3.044444444444e-04 
-3.525472806036e-04 3.960242332949e-05 0.0 
3.960242332949e-05 2.055406756741e-03 0.0 
0.0 0.0 -3.488888888889e-04 
-2.535791161460e-04 -6.363998917510e-06 0.0 
-6.363998917510e-06 1.836833488631e-03 0.0 
0.0 0.0 -3.044444444444e-04 
-3.854470384108e-04 -7.318895876573e-05 0.0 
-7.318895876573e-05 2.462268997968e-03 0.0 
0.0 0.0 -3.822222222222e-04 
-4.067260869842e-04 5.256727935290e-05 0.0 
5.256727935290e-05 2.270583520964e-03 0.0 
0.0 0.0 -4.044444444444e-04 
-3.835104184538e-04 -6.001370987165e-06 0.0 
-6.001370987165e-06 2.584239217162e-03 0.0 
0.0 0.0 -3.822222222222e-04 
-4.054239343453e-04 -3.862668403001e-07 0.0 
-3.862668403001e-07 2.278107254442e-03 0.0 
0.0 0.0 -4.044444444444e-04 
-3.827370056994e-04 -2.051108453458e-06 0.0 
-2.051108453458e-06 2.589324965641e-03 0.0 
0.0 0.0 -3.822222222222e-04 
-4.049473858376e-04 -2.025371124652e-06 0.0 
-2.025371124652e-06 2.278227481696e-03 0.0 
0.0 0.0 -4.044444444444e-04 
-3.829401273056e-04 -2.233475725688e-06 0.0 
-2.233475725688e-06 2.589358314293e-03 0.0 
0.0 0.0 -3.822222222222e-04 
-4.051320011441e-04 -1.755724159203e-06 0.0 
-1.755724159203e-06 2.278648915763e-03 0.0 
0.0 0.0 -4.044444444444e-04 
-3.835934586173e-04 -2.688169992058e-06 0.0 
-2.688169992058e-06 2.589869457183e-03 0.0 
0.0 0.0 -3.822222222222e-04 
-4.056600794981e-04 -1.893213932825e-06 0.0 
-1.893213932825e-06 2.279331955242e-03 0.0 
0.0 0.0 -4.044444444444e-04 
-3.843223718345e-04 -3.113994382666e-06 0.0 
-3.113994382666e-06 2.590617347037e-03 0.0 
0.0 0.0 -3.822222222222e-04 
-4.064892069025e-04 -2.474484856183e-06 0.0 
-2.474484856183e-06 2.280008615996e-03 0.0 
0.0 0.0 -4.044444444444e-04 
-3.849061480361e-04 -3.622932708982e-06 0.0 
-3.622932708982e-06 2.591309291953e-03 0.0 
0.0 0.0 -3.822222222222e-04 
-4.069579766942e-04 -3.400241771046e-06 0.0 
-3.400241771046e-06 2.280265863003e-03 0.0 
0.0 0.0 -4.044444444444e-04 
-3.851736627943e-04 -3.698729864734e-06 0.0 
-3.698729864734e-06 2.591442129951e-03 0.0 
0.0 0.0 -3.822222222222e-04 
-4.070595378396e-04 -3.530761062622e-06 0.0 
-3.530761062622e-06 2.280248515823e-03 0.0 
0.0 0.0 -4.044444444444e-04 
-3.853189254814e-04 -3.308712062649e-06 0.0 
-3.308712062649e-06 2.591334618481e-03 0.0 
0.0 0.0 -3.822222222222e-04 
-4.286221488410e-04 -1.538307185823e-04 0.0 
-1.538307185823e-04 2.567067218455e-03 0.0 
0.0 0.0 -3.914586414276e-04 
-4.072795051317e-04 -3.225304394731e-06 0.0 
-3.225304394731e-06 2.280128533043e-03 0.0 
0.0 0.0 -4.044444444444e-04 
-3.854134389772e-04 -2.594023862037e-06 0.0 
-2.594023862037e-06 2.591119240828e-03 0.0 
0.0 0.0 -3.822222222222e-04 
-3.464781260891e-04 1.734225857512e-05 0.0 
1.734225857512e-05 2.287295584395e-03 0.0 
0.0 0.0 -4.044444444444e-04 
-4.077885899199e-04 -2.677206166133e-06 0.0 
-2.677206166133e-06 2.280033372710e-03 0.0 
0.0 0.0 -4.044444444444e-04 
-3.854714744452e-04 -1.933077100150e-06 0.0 
-1.933077100150e-06 2.590961113598e-03 0.0 
0.0 0.0 -3.822222222222e-04 
-4.081084443904e-04 -2.360427714429e-06 0.0 
-2.360427714429e-06 2.279760717046e-03 0.0 
0.0 0.0 -4.044444444444e-04 
-3.853227145387e-04 -1.172340553323e-06 0.0 
-1.172340553323e-06 2.590523544031e-03 0.0 
0.0 0.0 -3.822222222222e-04 
-4.077855839762e-04 -1.880350380513e-06 0.0 
-1.880350380513e-06 2.279028361984e-03 0.0 
0.0 0.0 -4.044444444444e-04 
-3.286682295382e-04 3.864000460938e-05 0.0 
3.864000460938e-05 2.388312332005e-03 0.0 
0.0 0.0 -3.692364192054e-04 
-3.848513759082e-04 8.749343323249e-07 0.0 
8.749343323249e-07 2.589303941023e-03 0.0 
0.0 0.0 -3.822222222222e-04 
-4.064553215493e-04 2.023836917044e-06 0.0 
2.023836917044e-06 2.278692862703e-03 0.0 
0.0 0.0 -4.044444444444e-04 
-3.850937149665e-04 3.323013512367e-06 0.0 
3.323013512367e-06 2.589488289002e-03 0.0 
0.0 0.0 -3.822222222222e-04 
-4.083426802909e-04 3.954253352632e-06 0.0 
3.954253352632e-06 2.279268883058e-03 0.0 
0.0 0.0 -4.044444444444e-04 
-3.853813561049e-04 5.496575711278e-06 0.0 
5.496575711278e-06 2.589798472255e-03 0.0 
0.0 0.0 -3.822222222222e-04 
-4.073887531176e-04 8.644381902742e-06 0.0 
8.644381902742e-06 2.280648906445e-03 0.0 
0.0 0.0 -4.044444444444e-04 
-3.869194875434e-04 4.699519663536e-06 0.0 
4.699519663536e-06 2.593344221483e-03 0.0 
0.0 0.0 -3.822222222222e-04 
-4.136900432831e-04 3.059611688979e-07 0.0 
3.059611688979e-07 2.281270984406e-03 0.0 
0.0 0.0 -4.044444444444e-04 
-3.852048853429e-04 5.647321068923e-06 0.0 
5.647321068923e-06 2.589552732633e-03 0.0 
0.0 0.0 -3.822222222222e-04 
-4.027468751107e-04 1.481940469573e-05 0.0 
1.481940469573e-05 2.282290554162e-03 0.0 
0.0 0.0 -4.044444444444e-04 
-3.140135372488e-04 2.873744366980e-05 0.0 
2.873744366980e-05 2.457976087611e-03 0.0 
0.0 0.0 -4.025697525387e-04 
-4.196628018255e-04 -1.837442126529e-05 0.0 
-1.837442126529e-05 2.280568181227e-03 0.0 
0.0 0.0 -4.044444444444e-04 
-3.889053512739e-04 9.814032543957e-07 0.0 
9.814032543957e-07 2.600099780335e-03 0.0 
0.0 0.0 -3.822222222222e-04 
-3.673242193347e-04 4.652408802632e-05 0.0 
4.652408802632e-05 2.277402359379e-03 0.0 
0.0 0.0 -4.044444444444e-04 
-3.799974619353e-04 7.920842717921e-06 0.0 
7.920842717921e-06 2.577842323435e-03 0.0 
0.0 0.0 -3.822222222222e-04 
-3.954411054939e-04 8.433133596591e-06 0.0 
8.433133596591e-06 2.614590654529e-03 0.0 
0.0 0.0 -3.822222222222e-04 
-2.749511289216e-04 8.331946175198e-06 0.0 
8.331946175198e-06 2.168007004057e-03 0.0 
0.0 0.0 -3.803475303165e-04 
-4.499391521729e-04 -3.691567064575e-04 0.0 
-3.691567064575e-04 2.484470054093e-03 0.0 
0.0 0.0 -3.933333333333e-04 
-3.454868480400e-04 3.563309951917e-04 0.0 
3.563309951917e-04 2.297351916339e-03 0.0 
0.0 0.0 -3.933333333333e-04 
-4.195054663633e-04 -3.985404005849e-05 0.0 
-3.985404005849e-05 2.445111450393e-03 0.0 
0.0 0.0 -4.155555555556e-04 
-3.747695028258e-04 3.813450272878e-05 0.0 
3.813450272878e-05 2.346473725249e-03 0.0 
0.0 0.0 -3.711111111111e-04 
-3.224019092818e-04 7.776420168041e-06 0.0 
7.776420168041e-06 2.309384780840e-03 0.0 
0.0 0.0 -3.711111111111e-04 
-4.743042659077e-04 -7.660020380402e-05 0.0 
-7.660020380402e-05 2.865853814990e-03 0.0 
0.0 0.0 -4.711111111111e-04 
-4.511705314287e-04 5.193280790000e-05 0.0 
5.193280790000e-05 3.054035925169e-03 0.0 
0.0 0.0 -4.488888888889e-04 
-4.724633686242e-04 -9.447249748580e-06 0.0 
-9.447249748580e-06 2.739853487715e-03 0.0 
0.0 0.0 -4.711111111111e-04 
-4.498683787897e-04 -1.564459074611e-06 0.0 
-1.564459074611e-06 3.043354068164e-03 0.0 
0.0 0.0 -4.488888888889e-04 
-4.709847188569e-04 -3.574354858548e-06 0.0 
-3.574354858548e-06 2.732085994282e-03 0.0 
0.0 0.0 -4.711111111111e-04 
-4.493918302821e-04 -2.534727311539e-06 0.0 
-2.534727311539e-06 3.042771200855e-03 0.0 
0.0 0.0 -4.488888888889e-04 
-4.712289592024e-04 -1.812807881693e-06 0.0 
-1.812807881693e-06 2.731728430754e-03 0.0 
0.0 0.0 -4.711111111111e-04 
-4.495764455886e-04 -1.773818124670e-06 0.0 
-1.773818124670e-06 3.043241608981e-03 0.0 
0.0 0.0 -4.488888888889e-04 
-4.714369542363e-04 -1.226754823058e-06 0.0 
-1.226754823058e-06 2.732193229008e-03 0.0 
0.0 0.0 -4.711111111111e-04 
-4.501045239425e-04 -1.319389086982e-06 0.0 
-1.319389086982e-06 3.044025953912e-03 0.0 
0.0 0.0 -4.488888888889e-04 
-4.721709199479e-04 -7.219039080997e-07 0.0 
-7.219039080997e-07 2.733000959488e-03 0.0 
0.0 0.0 -4.711111111111e-04 
-4.509336513469e-04 -1.227029478674e-06 0.0 
-1.227029478674e-06 3.045199183253e-03 0.0 
0.0 0.0 -4.488888888889e-04 
-4.733112105119e-04 -2.101747565311e-06 0.0 
-2.101747565311e-06 2.733939753671e-03 0.0 
0.0 0.0 -4.711111111111e-04 
-4.514024211387e-04 -2.167247969086e-06 0.0 
-2.167247969086e-06 3.045303862128e-03 0.0 
0.0 0.0 -4.488888888889e-04 
-4.736423528676e-04 -3.198210204819e-06 0.0 
-3.198210204819e-06 2.733987266950e-03 0.0 
0.0 0.0 -4.711111111111e-04 
-4.515039822840e-04 -2.583022231608e-06 0.0 
-2.583022231608e-06 3.044671970773e-03 0.0 
0.0 0.0 -4.488888888889e-04 
-5.094249609212e-04 -1.485849024676e-04 0.0 
-1.485849024676e-04 3.037014136749e-03 0.0 
0.0 0.0 -4.582426303855e-04 
-4.729917283578e-04 -2.527651589425e-06 0.0 
-2.527651589425e-06 2.733536135201e-03 0.0 
0.0 0.0 -4.711111111111e-04 
-4.517239495761e-04 -1.695467618580e-06 0.0 
-1.695467618580e-06 3.044559982769e-03 0.0 
0.0 0.0 -4.488888888889e-04 
-3.989001830536e-04 1.286242860206e-05 0.0 
1.286242860206e-05 2.848856344771e-03 0.0 
0.0 0.0 -4.360204081633e-04 
-4.741797545259e-04 -9.783497844145e-07 0.0 
-9.783497844145e-07 2.733642750037e-03 0.0 
0.0 0.0 -4.711111111111e-04 
-4.522330343643e-04 -9.670925008782e-07 0.0 
-9.670925008782e-07 3.044890510388e-03 0.0 
0.0 0.0 -4.488888888889e-04 
-4.144774096089e-04 2.017710958328e-05 0.0 
2.017710958328e-05 2.745520392554e-03 0.0 
0.0 0.0 -4.711111111111e-04 
-4.753995493701e-04 -8.226418973051e-07 0.0 
-8.226418973051e-07 2.733890535335e-03 0.0 
0.0 0.0 -4.711111111111e-04 
-4.525528888349e-04 -1.017856854085e-06 0.0 
-1.017856854085e-06 3.044832322142e-03 0.0 
0.0 0.0 -4.488888888889e-04 
-4.755368976101e-04 -1.846947414207e-06 0.0 
-1.846947414207e-06 2.733541044653e-03 0.0 
0.0 0.0 -4.711111111111e-04 
-4.522300284206e-04 -1.178811979142e-06 0.0 
-1.178811979142e-06 3.043706972071e-03 0.0 
0.0 0.0 -4.488888888889e-04 
-4.752002035872e-04 -2.749529905503e-06 0.0 
-2.749529905503e-06 2.732164380164e-03 0.0 
0.0 0.0 -4.711111111111e-04 
-4.508997659937e-04 9.025585633480e-07 0.0 
9.025585633480e-07 3.040023587775e-03 0.0 
0.0 0.0 -4.488888888889e-04 
-4.025111780395e-04 2.483692496455e-05 0.0 
2.483692496455e-05 2.925236968048e-03 0.0 
0.0 0.0 -4.693537414966e-04 
-4.720241450351e-04 8.096980642634e-06 0.0 
8.096980642634e-06 2.731296038601e-03 0.0 
0.0 0.0 -4.711111111111e-04 
-4.527871247353e-04 5.512980383908e-06 0.0 
5.512980383908e-06 3.045188244375e-03 0.0 
0.0 0.0 -4.488888888889e-04 
-4.781498596818e-04 2.806128767874e-06 0.0 
2.806128767874e-06 2.733503698510e-03 0.0 
0.0 0.0 -4.711111111111e-04 
-4.518331975621e-04 6.669660836263e-06 0.0 
6.669660836263e-06 3.040822692016e-03 0.0 
0.0 0.0 -4.488888888889e-04 
-4.581344877275e-04 4.806066696417e-06 0.0 
4.806066696417e-06 3.058516911663e-03 0.0 
0.0 0.0 -4.488888888889e-04 
-4.734463109153e-04 2.147515801901e-05 0.0 
2.147515801901e-05 2.735536322359e-03 0.0 
0.0 0.0 -4.711111111111e-04 
-4.471913195551e-04 3.250875513875e-06 0.0 
3.250875513875e-06 3.026848153488e-03 0.0 
0.0 0.0 -4.488888888889e-04 
-4.901163184293e-04 -2.393685911691e-05 0.0 
-2.393685911691e-05 2.736952886364e-03 0.0 
0.0 0.0 -4.711111111111e-04 
-4.641072462699e-04 1.667244048002e-05 0.0 
1.667244048002e-05 3.071178406626e-03 0.0 
0.0 0.0 -4.488888888889e-04 
-4.324862338949e-04 4.839324787635e-05 0.0 
4.839324787635e-05 2.728573330093e-03 0.0 
0.0 0.0 -4.711111111111e-04 
-3.598727436964e-04 -3.513921753685e-05 0.0 
-3.513921753685e-05 2.630027147507e-03 0.0 
0.0 0.0 -4.471315192744e-04 
-4.105980049468e-04 -3.701438029837e-04 0.0 
-3.701438029837e-04 2.845095093414e-03 0.0 
0.0 0.0 -4.600000000000e-04 
-5.151542512817e-04 3.559434576648e-04 0.0 
3.559434576648e-04 3.032255437761e-03 0.0 
0.0 0.0 -4.600000000000e-04 
-4.417276885855e-04 -3.934714622280e-05 0.0 
-3.934714622280e-05 2.884397119692e-03 0.0 
0.0 0.0 -4.377777777778e-04 
-4.853374994491e-04 3.790832101965e-05 0.0 
3.790832101965e-05 2.981759035168e-03 0.0 
0.0 0.0 -4.822222222222e-04 
-3.798114594225e-04 -2.502327533149e-05 0.0 
-2.502327533149e-05 2.763244671662e-03 0.0 
0.0 0.0 -4.377777777778e-04 
-5.187487103521e-04 -7.879757944209e-05 0.0 
-7.879757944209e-05 3.392117763543e-03 0.0 
0.0 0.0 -5.155555555556e-04 
-5.412972415894e-04 4.648002671404e-05 0.0 
4.648002671404e-05 3.200314872166e-03 0.0 
0.0 0.0 -5.377777777778e-04 
-5.169078130686e-04 -1.124351187329e-05 0.0 
-1.124351187329e-05 3.514306742191e-03 0.0 
0.0 0.0 -5.155555555556e-04 
-5.370398844120e-04 -5.539739897353e-06 0.0 
-5.539739897353e-06 3.206683234812e-03 0.0 
0.0 0.0 -5.377777777778e-04 
-5.154291633013e-04 -3.129495957291e-06 0.0 
-3.129495957291e-06 3.517617017321e-03 0.0 
0.0 0.0 -5.155555555556e-04 
-5.381093200183e-04 -1.976663157730e-06 0.0 
-1.976663157730e-06 3.207914382671e-03 0.0 
0.0 0.0 -5.377777777778e-04 
-5.156734036468e-04 -2.406369053650e-06 0.0 
-2.406369053650e-06 3.519066327430e-03 0.0 
0.0 0.0 -5.155555555556e-04 
-5.366091103083e-04 -1.207085778227e-06 0.0 
-1.207085778227e-06 3.208019600709e-03 0.0 
0.0 0.0 -5.377777777778e-04 
-5.158813986807e-04 -1.051510284371e-06 0.0 
-1.051510284371e-06 3.519134616611e-03 0.0 
0.0 0.0 -5.155555555556e-04 
-5.372599660982e-04 6.933014159798e-07 0.0 
6.933014159798e-07 3.208897054849e-03 0.0 
0.0 0.0 -5.377777777778e-04 
-5.166153643924e-04 -3.726067797674e-07 0.0 
-3.726067797674e-07 3.520203548651e-03 0.0 
0.0 0.0 -5.155555555556e-04 
-5.375825845931e-04 1.962175395587e-06 0.0 
1.962175395587e-06 3.210164447084e-03 0.0 
0.0 0.0 -5.377777777778e-04 
-5.177556549563e-04 -1.083300339435e-06 0.0 
-1.083300339435e-06 3.521881872284e-03 0.0 
0.0 0.0 -5.155555555556e-04 
-5.405721443304e-04 -1.211361635702e-06 0.0 
-1.211361635702e-06 3.211048643113e-03 0.0 
0.0 0.0 -5.377777777778e-04 
-5.180867973121e-04 -2.955006037441e-06 0.0 
-2.955006037441e-06 3.522497958112e-03 0.0 
0.0 0.0 -5.155555555556e-04 
-5.792879928890e-04 -1.599267687406e-04 0.0 
-1.599267687406e-04 3.507819207063e-03 0.0 
0.0 0.0 -5.247732426303e-04 
-5.375442025049e-04 -3.821072344249e-06 0.0 
-3.821072344249e-06 3.209055027385e-03 0.0 
0.0 0.0 -5.377777777778e-04 
-4.855148531560e-04 1.971124341118e-05 0.0 
1.971124341118e-05 3.223296130373e-03 0.0 
0.0 0.0 -5.377777777778e-04 
-5.174361728023e-04 1.037369395505e-07 0.0 
1.037369395505e-07 3.519390087404e-03 0.0 
0.0 0.0 -5.155555555556e-04 
-5.390305481333e-04 1.985391886553e-06 0.0 
1.985391886553e-06 3.209337053627e-03 0.0 
0.0 0.0 -5.377777777778e-04 
-5.186241989704e-04 1.920455278980e-06 0.0 
1.920455278980e-06 3.520577890956e-03 0.0 
0.0 0.0 -5.155555555556e-04 
-5.424782350989e-04 2.602587795864e-06 0.0 
2.602587795864e-06 3.210819048104e-03 0.0 
0.0 0.0 -5.377777777778e-04 
-5.198439938145e-04 8.397343631672e-07 0.0 
8.397343631672e-07 3.522383784968e-03 0.0 
0.0 0.0 -5.155555555556e-04 
-5.425396489499e-04 -2.671586099258e-07 0.0 
-2.671586099258e-07 3.210729830903e-03 0.0 
0.0 0.0 -5.377777777778e-04 
-4.639261431919e-04 1.795800229962e-05 0.0 
1.795800229962e-05 3.319383572120e-03 0.0 
0.0 0.0 -5.025510204081e-04 
-5.199813420545e-04 4.884319006211e-08 0.0 
4.884319006211e-08 3.521715893853e-03 0.0 
0.0 0.0 -5.155555555556e-04 
-5.429313789558e-04 -1.595839338101e-06 0.0 
-1.595839338101e-06 3.209826232599e-03 0.0 
0.0 0.0 -5.377777777778e-04 
-5.196446480316e-04 -7.157581278471e-07 0.0 
-7.157581278471e-07 3.520538878585e-03 0.0 
0.0 0.0 -5.155555555556e-04 
-5.449486155419e-04 -7.127659532130e-06 0.0 
-7.127659532130e-06 3.206562068945e-03 0.0 
0.0 0.0 -5.377777777778e-04 
-5.164685894796e-04 6.903981517509e-06 0.0 
6.903981517509e-06 3.511995524719e-03 0.0 
0.0 0.0 -5.155555555556e-04 
-5.340991680871e-04 2.151676257844e-05 0.0 
2.151676257844e-05 3.208223790984e-03 0.0 
0.0 0.0 -5.377777777778e-04 
-5.225943041262e-04 7.813857319380e-06 0.0 
7.813857319380e-06 3.525980620072e-03 0.0 
0.0 0.0 -5.155555555556e-04 
-5.589612776076e-04 -5.839662931230e-06 0.0 
-5.839662931230e-06 3.211769507264e-03 0.0 
0.0 0.0 -5.377777777778e-04 
-5.066406946919e-04 4.974783901009e-05 0.0 
4.974783901009e-05 3.211603155197e-03 0.0 
0.0 0.0 -5.377777777778e-04 
-5.178907553598e-04 1.266973619615e-05 0.0 
1.266973619615e-05 3.512461130721e-03 0.0 
0.0 0.0 -5.155555555556e-04 
-4.723338447053e-04 2.541271294402e-05 0.0 
2.541271294402e-05 3.400544018691e-03 0.0 
0.0 0.0 -5.358843537414e-04 
-5.345607628738e-04 7.989109301534e-06 0.0 
7.989109301534e-06 3.549518677637e-03 0.0 
0.0 0.0 -5.155555555556e-04 
-4.278487948575e-04 -2.628820225451e-05 0.0 
-2.628820225451e-05 3.098178878207e-03 0.0 
0.0 0.0 -5.136621315192e-04 
-5.830730295150e-04 -3.701622094986e-04 0.0 
-3.701622094986e-04 3.411662693846e-03 0.0 
0.0 0.0 -5.266666666667e-04 
-4.791897713482e-04 3.550100958036e-04 0.0 
3.550100958036e-04 3.225685347325e-03 0.0 
0.0 0.0 -5.266666666667e-04 
-5.533708020514e-04 -3.952512472071e-05 0.0 
-3.952512472071e-05 3.373562060411e-03 0.0 
0.0 0.0 -5.488888888889e-04 
-5.075597216713e-04 3.715385301184e-05 0.0 
3.715385301184e-05 3.274980805740e-03 0.0 
0.0 0.0 -5.044444444444e-04 
-4.478107429422e-04 -2.175364391221e-05 0.0 
-2.175364391221e-05 3.231094822119e-03 0.0 
0.0 0.0 -5.044444444444e-04 
-6.189291422576e-04 -8.703466800009e-05 0.0 
-8.703466800009e-05 3.800993658171e-03 0.0 
0.0 0.0 -6.044444444444e-04 
-5.857416860338e-04 4.152251131124e-05 0.0 
4.152251131124e-05 3.981396628525e-03 0.0 
0.0 0.0 -5.822222222222e-04 
-6.014676124269e-04 -2.366192094096e-05 0.0 
-2.366192094096e-05 3.666428660516e-03 0.0 
0.0 0.0 -6.044444444444e-04 
-5.814843288565e-04 -9.898764258253e-06 0.0 
-9.898764258253e-06 3.966852274136e-03 0.0 
0.0 0.0 -5.822222222222e-04 
-6.012057329272e-04 -9.447332933257e-07 0.0 
-9.447332933257e-07 3.656511754543e-03 0.0 
0.0 0.0 -6.044444444444e-04 
-5.825537644628e-04 -2.598524727547e-06 0.0 
-2.598524727547e-06 3.971861702718e-03 0.0 
0.0 0.0 -5.822222222222e-04 
-6.053753762140e-04 -6.697619749961e-06 0.0 
-6.697619749961e-06 3.660276641183e-03 0.0 
0.0 0.0 -6.044444444444e-04 
-5.810535547528e-04 -4.794630108920e-06 0.0 
-4.794630108920e-06 3.968237137461e-03 0.0 
0.0 0.0 -5.822222222222e-04 
-5.989315183322e-04 1.500653346669e-07 0.0 
1.500653346669e-07 3.657759237214e-03 0.0 
0.0 0.0 -6.044444444444e-04 
-5.817044105427e-04 9.543218927829e-07 0.0 
9.543218927829e-07 3.971595709461e-03 0.0 
0.0 0.0 -5.822222222222e-04 
-6.036123665843e-04 5.339950144235e-07 0.0 
5.339950144235e-07 3.660400636182e-03 0.0 
0.0 0.0 -6.044444444444e-04 
-5.820270290375e-04 1.512396225080e-06 0.0 
1.512396225080e-06 3.971136415647e-03 0.0 
0.0 0.0 -5.822222222222e-04 
-6.007150147334e-04 7.186565872499e-06 0.0 
7.186565872499e-06 3.661043708330e-03 0.0 
0.0 0.0 -6.044444444444e-04 
-6.473657891011e-04 -1.503775681191e-04 0.0 
-1.503775681191e-04 3.972322043345e-03 0.0 
0.0 0.0 -5.915759637188e-04 
-5.850165887748e-04 4.111519023384e-06 0.0 
4.111519023384e-06 3.978321279381e-03 0.0 
0.0 0.0 -5.822222222222e-04 
-6.068724417993e-04 -1.008894091445e-05 0.0 
-1.008894091445e-05 3.663848600166e-03 0.0 
0.0 0.0 -6.044444444444e-04 
-5.382166584107e-04 1.304379000640e-05 0.0 
1.304379000640e-05 3.784609928149e-03 0.0 
0.0 0.0 -5.693537414966e-04 
-5.819886469493e-04 -2.459134104207e-06 0.0 
-2.459134104207e-06 3.967910560167e-03 0.0 
0.0 0.0 -5.822222222222e-04 
-6.025293378773e-04 4.180804481685e-06 0.0 
4.180804481685e-06 3.658439256297e-03 0.0 
0.0 0.0 -6.044444444444e-04 
-5.551920643199e-04 2.265198140005e-05 0.0 
2.265198140005e-05 3.679387987050e-03 0.0 
0.0 0.0 -6.044444444444e-04 
-5.834749925778e-04 5.082011282514e-06 0.0 
5.082011282514e-06 3.970492679137e-03 0.0 
0.0 0.0 -5.822222222222e-04 
-6.079594570241e-04 1.156947798517e-05 0.0 
1.156947798517e-05 3.661485342161e-03 0.0 
0.0 0.0 -6.044444444444e-04 
-5.869226795434e-04 6.564857151272e-06 0.0 
6.564857151272e-06 3.976524406353e-03 0.0 
0.0 0.0 -5.822222222222e-04 
-6.104220387485e-04 1.777481494462e-06 0.0 
1.777481494462e-06 3.663998117975e-03 0.0 
0.0 0.0 -6.044444444444e-04 
-5.869840933944e-04 2.939983270558e-06 0.0 
2.939983270558e-06 3.973848016868e-03 0.0 
0.0 0.0 -5.822222222222e-04 
-5.382425891796e-04 2.010179773979e-05 0.0 
2.010179773979e-05 3.859360506165e-03 0.0 
0.0 0.0 -6.026870748299e-04 
-6.075003933196e-04 1.831253403248e-06 0.0 
1.831253403248e-06 3.662133086902e-03 0.0 
0.0 0.0 -6.044444444444e-04 
-5.873758234003e-04 4.101101850473e-06 0.0 
4.101101850473e-06 3.972642461745e-03 0.0 
0.0 0.0 -5.822222222222e-04 
-5.893930599864e-04 7.702980256847e-07 0.0 
7.702980256847e-07 3.976762054191e-03 0.0 
0.0 0.0 -5.822222222222e-04 
-6.109731840224e-04 5.890820747531e-06 0.0 
5.890820747531e-06 3.662416691587e-03 0.0 
0.0 0.0 -6.044444444444e-04 
-5.785436125316e-04 1.010670441636e-05 0.0 
1.010670441636e-05 3.943008250813e-03 0.0 
0.0 0.0 -5.822222222222e-04 
-6.245615995330e-04 -2.323619509784e-05 0.0 
-2.323619509784e-05 3.657960966842e-03 0.0 
0.0 0.0 -6.044444444444e-04 
-6.034057220520e-04 2.547674868134e-05 0.0 
2.547674868134e-05 4.007426657562e-03 0.0 
0.0 0.0 -5.822222222222e-04 
-5.749090046599e-04 7.539992690053e-05 0.0 
7.539992690053e-05 3.655670285631e-03 0.0 
0.0 0.0 -6.044444444444e-04 
-4.961379511751e-04 -3.596508921430e-05 0.0 
-3.596508921430e-05 3.563351096824e-03 0.0 
0.0 0.0 -5.804648526077e-04 
-5.370991115957e-04 -3.597763694007e-04 0.0 
-3.597763694007e-04 3.763144672232e-03 0.0 
0.0 0.0 -5.933333333333e-04 
-6.527633909015e-04 3.673307409981e-04 0.0 
3.673307409981e-04 3.969951782286e-03 0.0 
0.0 0.0 -5.933333333333e-04 
-5.755930242736e-04 -3.122109693664e-05 0.0 
-3.122109693664e-05 3.812561021402e-03 0.0 
0.0 0.0 -5.711111111111e-04 
-6.159345735075e-04 5.418298751483e-05 0.0 
5.418298751483e-05 3.907149665354e-03 0.0 
0.0 0.0 -6.155555555556e-04 
-5.188481864893e-04 -2.197935258590e-05 0.0 
-2.197935258590e-05 3.695326603665e-03 0.0 
0.0 0.0 -5.711111111111e-04 
-6.633735867021e-04 -1.155216560217e-04 0.0 
-1.155216560217e-04 4.354748692185e-03 0.0 
0.0 0.0 -6.488888888889e-04 
-6.563660005588e-04 -4.949228987583e-06 0.0 
-4.949228987583e-06 4.121813599109e-03 0.0 
0.0 0.0 -6.711111111111e-04 
-6.459120568713e-04 -1.400816422119e-05 0.0 
-1.400816422119e-05 4.433498309450e-03 0.0 
0.0 0.0 -6.488888888889e-04 
-6.749764366867e-04 -1.022061849857e-05 0.0 
-1.022061849857e-05 4.131528536263e-03 0.0 
0.0 0.0 -6.711111111111e-04 
-6.456501773717e-04 -4.182868477560e-07 0.0 
-4.182868477560e-07 4.441719427511e-03 0.0 
0.0 0.0 -6.488888888889e-04 
-6.743020789233e-04 6.977086704307e-06 0.0 
6.977086704307e-06 4.142139451712e-03 0.0 
0.0 0.0 -6.711111111111e-04 
-6.498198206585e-04 -1.519001385404e-05 0.0 
-1.519001385404e-05 4.455827176230e-03 0.0 
0.0 0.0 -6.488888888889e-04 
-6.621266125404e-04 -2.192043764397e-05 0.0 
-2.192043764397e-05 4.131761848184e-03 0.0 
0.0 0.0 -6.711111111111e-04 
-6.433759627766e-04 1.777448492813e-06 0.0 
1.777448492813e-06 4.439463053302e-03 0.0 
0.0 0.0 -6.488888888889e-04 
-6.671926554527e-04 1.273682377917e-05 0.0 
1.273682377917e-05 4.138458681040e-03 0.0 
0.0 0.0 -6.711111111111e-04 
-6.480568110287e-04 -2.776142626278e-06 0.0 
-2.776142626278e-06 4.452403490028e-03 0.0 
0.0 0.0 -6.488888888889e-04 
-6.701502197109e-04 -7.061847058022e-06 0.0 
-7.061847058022e-06 4.137807792637e-03 0.0 
0.0 0.0 -6.711111111111e-04 
-7.177695882629e-04 -1.636503915643e-04 0.0 
-1.636503915643e-04 4.444156976963e-03 0.0 
0.0 0.0 -6.580807474504e-04 
-6.451594591778e-04 2.175329864368e-06 0.0 
2.175329864368e-06 4.446899780492e-03 0.0 
0.0 0.0 -6.488888888889e-04 
-6.694083839791e-04 4.177588367935e-05 0.0 
4.177588367935e-05 4.159153595791e-03 0.0 
0.0 0.0 -6.711111111111e-04 
-6.460833817648e-04 2.181336474440e-05 0.0 
2.181336474440e-05 4.138351275158e-03 0.0 
0.0 0.0 -6.711111111111e-04 
-6.513168862437e-04 2.571939183827e-06 0.0 
2.571939183827e-06 4.455509820746e-03 0.0 
0.0 0.0 -6.488888888889e-04 
-6.788111886778e-04 -1.155514465082e-05 0.0 
-1.155514465082e-05 4.136861537379e-03 0.0 
0.0 0.0 -6.711111111111e-04 
-6.469737823218e-04 1.193188668576e-05 0.0 
1.193188668576e-05 4.441081764841e-03 0.0 
0.0 0.0 -6.488888888889e-04 
-6.791365925950e-04 1.914980606248e-05 0.0 
1.914980606248e-05 4.140018751422e-03 0.0 
0.0 0.0 -6.711111111111e-04 
-6.524039014686e-04 9.406282947205e-06 0.0 
9.406282947205e-06 4.453605425654e-03 0.0 
0.0 0.0 -6.488888888889e-04 
-6.708784002972e-04 1.294093541861e-05 0.0 
1.294093541861e-05 4.143170398070e-03 0.0 
0.0 0.0 -6.711111111111e-04 
-6.063230854436e-04 2.307129271736e-05 0.0 
2.307129271736e-05 4.258254267782e-03 0.0 
0.0 0.0 -6.358585252281e-04 
-6.548664831930e-04 3.770000341516e-06 0.0 
3.770000341516e-06 4.457898616998e-03 0.0 
0.0 0.0 -6.488888888889e-04 
-6.704807604954e-04 -3.181200734381e-06 0.0 
-3.181200734381e-06 4.139523021675e-03 0.0 
0.0 0.0 -6.711111111111e-04 
-6.519448377641e-04 9.585102352842e-06 0.0 
9.585102352842e-06 4.446587571773e-03 0.0 
0.0 0.0 -6.488888888889e-04 
-6.643169358871e-04 1.598213094935e-05 0.0 
1.598213094935e-05 4.135669863508e-03 0.0 
0.0 0.0 -6.711111111111e-04 
-6.628560694171e-04 4.220630236656e-05 0.0 
4.220630236656e-05 4.140094777352e-03 0.0 
0.0 0.0 -6.711111111111e-04 
-6.554176284668e-04 2.405280497148e-05 0.0 
2.405280497148e-05 4.445642855833e-03 0.0 
0.0 0.0 -6.488888888889e-04 
-6.690060439774e-04 2.025793204241e-05 0.0 
2.025793204241e-05 4.465053963584e-03 0.0 
0.0 0.0 -6.488888888889e-04 
-6.064361755080e-04 1.982912098417e-05 0.0 
1.982912098417e-05 4.335884925808e-03 0.0 
0.0 0.0 -6.691918585615e-04 
-5.634506181685e-04 -1.856852842986e-05 0.0 
-1.856852842986e-05 4.033404918511e-03 0.0 
0.0 0.0 -6.469696363393e-04 
-7.075315162008e-04 -3.247782179694e-04 0.0 
-3.247782179694e-04 4.305606072287e-03 0.0 
0.0 0.0 -6.600000000000e-04 
-6.398271965705e-04 3.921691488498e-04 0.0 
3.921691488498e-04 4.184231073606e-03 0.0 
0.0 0.0 -6.600000000000e-04 
-7.078150788587e-04 1.813354754407e-05 0.0 
1.813354754407e-05 4.306653958276e-03 0.0 
0.0 0.0 -6.822222222222e-04 
-6.381567957297e-04 6.336547185439e-05 0.0 
6.336547185439e-05 4.195569873202e-03 0.0 
0.0 0.0 -6.377777777778e-04 
-5.885253976532e-04 -3.076841355533e-05 0.0 
-3.076841355533e-05 4.174142785234e-03 0.0 
0.0 0.0 -6.377777777778e-04 

SCALARS element_materi_plasti_kappa_shear float
LOOKUP_TABLE default
1.898088649643e-03
1.711557051641e-03
5.588972410085e-03
5.625547274701e-03
3.501560146999e-03
7.282216725179e-04
3.474037579751e-03
1.788007566792e-03
3.522688057585e-03
5.576154387883e-03
3.814443258077e-03
1.461439354055e-03
5.618312958953e-03
3.751010953381e-03
5.727607835366e-03
5.730745783213e-03
3.485806207147e-03
6.593526459412e-04
1.219931793149e-03
1.129439279568e-03
5.615624188563e-03
1.975862239362e-03
2.216034645177e-03
5.387839390641e-03
4.000079313324e-03
4.090296639934e-03
3.221108468051e-03
5.760173945043e-03
4.029373913921e-03
5.523089313001e-03
9.290964436138e-04
4.104778426902e-04
5.763354464700e-03
4.818108341585e-03
5.606378478043e-03
5.926561905728e-03
5.911514681661e-03
5.601049808397e-03
3.175213616511e-03
3.219440155070e-03
2.522875806809e-03
5.613228156909e-03
1.314389251867e-03
3.093978597461e-03
5.492839635271e-03
1.306192107028e-03
5.547525844144e-04
5.389503964808e-03
2.459813448032e-04
3.614080566478e-03
2.381012112028e-03
1.496795143349e-03
1.233026261794e-03
2.292287135613e-03
5.625167383412e-03
1.964314716114e-03
1.446321564822e-03
4.840724010361e-03
9.102679910466e-04
5.734895616735e-03
3.755633206833e-04
5.378892164199e-03
2.330546822697e-03
1.083603178692e-03
5.615414212048e-03
2.131250052149e-03
1.604920622128e-04
5.736681007187e-03
9.706183660792e-04
5.615641150241e-03
4.241478972054e-03
5.874633494773e-03
5.400876667698e-03
4.558558305771e-04
1.986901141796e-03
5.633818988721e-03
5.766849763577e-03
9.985176399268e-04
7.761145875021e-04
9.970078257235e-04
9.298249562963e-04
3.329770783062e-03
2.084397622031e-03
1.770967893658e-03
3.674764228873e-03
3.652269385491e-03
4.362468712188e-03
4.711312884167e-03
4.861505206044e-03
3.454836133152e-03
2.515307574217e-04
3.378806059228e-03
4.682474906469e-03
4.702091845048e-03
6.023290360785e-03
5.787399672559e-03
3.332335907633e-03
5.769769997493e-03
3.930413862469e-03
2.258576815211e-03
3.348854702644e-03
5.740322727268e-03
4.646182631344e-03
5.409941681963e-03
2.044498184613e-03
6.875243722321e-04
5.293361504948e-03
5.009713215505e-03
4.133118292856e-04
5.636662395566e-03
4.631075715070e-03
3.269354662114e-04
2.695643369684e-03
3.134173944672e-03
2.394513305480e-03
2.006953041182e-03
2.358433690428e-03
5.680496234391e-03
3.862421047183e-03
2.174327584433e-03
9.453599785676e-04
3.463155550842e-03
4.910807945138e-03
2.193161772477e-03
6.864169327037e-04
2.833893873667e-03
2.488998346477e-03
2.624989890950e-03
5.744770783808e-03
8.095945313105e-04
4.016900758618e-03
5.625509815893e-03
2.834287320742e-03
2.685380764041e-03
5.614532063030e-03
5.633315586868e-03
4.360056895282e-03
3.033874980370e-03
5.768691703590e-03
2.715472649556e-03
5.618615457511e-03
5.760030365689e-03
3.718873437018e-03
4.339715431150e-03
2.744759010980e-03
2.474141180373e-03
3.120734003300e-03
2.345781934128e-03
3.431883328348e-03
2.738129196427e-03
2.430742527302e-04
3.688149105754e-03
8.387704164436e-04
2.991941880911e-03
5.628507851818e-03
2.024064835673e-03
4.530584219247e-03
1.460229167458e-03
4.626313542846e-03
3.347690434935e-03
2.537984777281e-03
4.987375735797e-03
8.656817948044e-04
5.285431651825e-03
3.359806122999e-03
5.766679500674e-03
3.342388058739e-03
2.107011085319e-03
2.928826646772e-03
3.947216798782e-03
1.526615979923e-03
2.569483147169e-03
4.520478967461e-03
3.465735922799e-03
2.391304591019e-03
2.779864257648e-03
5.040184275248e-03
2.772760665208e-03
5.618703717082e-03
5.759844672988e-03
1.983421498389e-03
2.659866027685e-03
5.141665672042e-03
2.630630496975e-03
1.717879912429e-03
3.236040194100e-03
2.634227826825e-03
5.637705462983e-03
4.673436176070e-03
5.143211062278e-03
1.164471534235e-03
2.407331954242e-03
4.803098661724e-03
1.296887470609e-04
2.602557350130e-03
4.814963733127e-03
6.908847608838e-04
5.616315559470e-03
4.285635638516e-03
2.554299594861e-03
4.795742518615e-03
3.724002802598e-03
3.932058578281e-03
5.497749636997e-03
1.904823798155e-03
3.244463136207e-03
3.481704692684e-03
4.488443812894e-03
3.550879868320e-03
3.254436741122e-03
4.171787960097e-03
4.925574717127e-03
3.793743182903e-04
1.944678655638e-03
2.211850110251e-03
3.157287865959e-03
4.893684273428e-03
9.647028340037e-04
4.643736636012e-03
3.342449784473e-03
2.377945774863e-03
4.477091166639e-03
4.380675775183e-04
4.584675247436e-03
3.699679224086e-04
5.360497299544e-04
1.154789664667e-03
1.594668909351e-03
4.784983334352e-03
1.546697935713e-03
1.383435816543e-03
1.200027858935e-03
1.005332530085e-03
4.949781021208e-03
3.380950736680e-03
5.631197498489e-03
0.0
1.665063222897e-03
2.673189362063e-03
2.423854183086e-03
4.621677125615e-03
5.764868817004e-03
4.590764537563e-03
1.954446704586e-03
4.960919873089e-03
4.205568891908e-03
3.320344157998e-03
4.410423547979e-03
5.507586445396e-03
2.709349539675e-03
1.580698985764e-03
3.836309747163e-03
6.017571415290e-03
3.278275707600e-03
3.423215564413e-03
3.753460771055e-03
8.863145511104e-04
3.518014179913e-03
1.918797851399e-03
1.292004175147e-03
9.082232253615e-04
4.755046881876e-03
3.676362788182e-03
2.294435875197e-03
4.952708212389e-03
4.718723855838e-03
3.481414558201e-03
5.642033395162e-03
3.523250685796e-03
3.640046674313e-03
2.917421140027e-03
3.717192777981e-03
1.585318004735e-03
3.357027743210e-03
2.838102944494e-03
2.007874057392e-03
4.547203828395e-03
1.589585432752e-04
3.708601455527e-03
2.047895045112e-03
1.700131027140e-03
1.626515464048e-03
3.929577795643e-03
6.380620704985e-04
2.384202047897e-03
3.820927590901e-03
3.640893065081e-03
3.744578397567e-03
8.473399745815e-04
1.972105034185e-03
1.841129336947e-03
2.144602490372e-03
4.453686851147e-03
2.425319558498e-03
2.633326203696e-03
2.506076668662e-03
1.050423010888e-03
3.001112002867e-03
1.139329181863e-03
6.012684016247e-03
6.015982038197e-03
3.371674230462e-03
1.754085065341e-03
1.538449888003e-03
3.733462517399e-03
1.667297713938e-03
1.800453244169e-03
3.281965826456e-03
5.778410886410e-03
2.212308197419e-03
4.148099921920e-03
1.220247403596e-03
6.015650448016e-03
1.627598388192e-03
3.408069598847e-03
1.126335977517e-03
4.035749165321e-03
2.797696233239e-03
1.935926706622e-03
3.513914298156e-03
6.014293587579e-03
2.340466570169e-03
3.854547700326e-03
1.257539573865e-03
4.211250131042e-03
4.445904991404e-03
1.749623395989e-03
4.109773335894e-03
6.017625920184e-03
4.749940685194e-03
6.020004411071e-03
4.066219120171e-03
4.677049970116e-03
1.453454976364e-03
3.226922138058e-03
3.605874528002e-03
3.801247617448e-03
3.116888250637e-03
6.023922603081e-03
3.900035487013e-03
3.427519582657e-03
2.541127325687e-03
1.304161433012e-03
3.097491959287e-03
1.828369059598e-03
3.480341907346e-03
1.973411461228e-03
2.245667589757e-03
4.717451703464e-03
1.865551334307e-03
3.320796694163e-03
3.948013352555e-03
3.499794145216e-03
6.014761074790e-03
2.797145162977e-03
1.840410315570e-03
2.476504328130e-03
1.777663760712e-03
1.715690849975e-03
5.020957594454e-03
3.604591250536e-03
2.461088412607e-03
3.037406839291e-03
6.020345341033e-03
5.688581187916e-03
4.974163615528e-03
4.623253995230e-03
3.403798714710e-03
2.542077870463e-03
1.793786123597e-03
2.084462978973e-03
3.443262116423e-03
3.946499106711e-03
2.984226002412e-03
5.025076478443e-03
1.876215262827e-03
2.954178187483e-03
3.441589599409e-03
2.662722220518e-03
6.012685245852e-03
6.016133295997e-03
5.644449372993e-03
3.701147822208e-03
4.921131353075e-03
1.545366707812e-03
2.377422492958e-03
1.336075859690e-03
2.584345771663e-03
3.338459339121e-03
4.044137853151e-03
5.756411723275e-03
4.924677558882e-03
3.800097117390e-03
3.895652219981e-03
1.419401544672e-03
6.642135258918e-04
2.837095037860e-03
3.243261720869e-03
3.038062407003e-03
6.767206337307e-04
3.595162726105e-03
1.242964933884e-03
1.791112892290e-03
5.886267587663e-03
4.319899469577e-03
3.400768600181e-03
9.348339381144e-04
3.083946857624e-03
2.871885156030e-03
3.962075947404e-03
6.018407561000e-03
3.198386693766e-03
3.766468143187e-03
2.946356736400e-03
4.889394747190e-03
3.802316230935e-03
6.019114699465e-03
5.878766063712e-03
5.874669666802e-03
5.846896484413e-03
4.057636266581e-03
4.920589971590e-03
5.113499940864e-03
2.631031740165e-03
2.507872621076e-03
2.813875816799e-03
5.059815959048e-03
6.015552509770e-03
5.051955043481e-03
4.017840351881e-03
5.084516464713e-03
4.404291654299e-03
3.045170865042e-03
2.550534457101e-03
1.338384591573e-03
5.646979922164e-03
2.469749811605e-03
5.384355873580e-03
2.775047533559e-03
1.799833226776e-03
5.623003894310e-03
1.949666713895e-03
5.877628319843e-03
5.634831675280e-03
3.696725743160e-03
2.315629071755e-04
5.876846230322e-03
5.625196717779e-03
1.763143550620e-03
4.153888461443e-03
6.029088701749e-03
0.0
2.757791127203e-03
3.859953108443e-03
3.533917503000e-03
3.571063382657e-03
1.501745143730e-03
5.871219529997e-03
2.671327868409e-03
8.692276940891e-04
5.775417212412e-03
4.034087724254e-04
2.877183319107e-03
7.845786155791e-04
3.064343649170e-03
6.008207932275e-03
5.886416939798e-03
3.769097730369e-03
5.416058611576e-04
6.663225248163e-04
9.264097944291e-04
5.017458723071e-03
3.488320970718e-03
3.568311924561e-03
5.888518575312e-03
3.493284622980e-03
6.023303222970e-03
4.495210095570e-03
3.909299515792e-03
1.880309591682e-03
4.118987834466e-03
1.217020428601e-03
5.888099209517e-03
5.858622551973e-03
5.871281062107e-03
3.837749785842e-03
2.642161995129e-03
3.082539161524e-03
3.932200029967e-03
5.884737103442e-03
1.826405636236e-03
2.101531865548e-03
2.230991329468e-03
4.079210194315e-03
6.020724823755e-03
6.550876827097e-04
5.870906118256e-03
2.061330388785e-03
5.887134204678e-03
5.158371209842e-03
1.735033884423e-04
2.876871465871e-03
5.119259939334e-03
5.882578435152e-03
4.090807838191e-03
4.627625074894e-03
1.056059908013e-03
5.381604359168e-03
2.190366286690e-03
2.266492401597e-03
4.233392830062e-04
5.876777887152e-03
1.506277909376e-03
4.962026184372e-03
3.779613678589e-03
1.886868617372e-03
2.137991957806e-03
3.928710791902e-03
5.887503593490e-03
2.741417539434e-03
4.307478873942e-03
3.496708023987e-03
3.907072451988e-03
2.300842511533e-03
4.002515627125e-03
3.405034769092e-03
4.439472514518e-03
4.416922306321e-03
3.333573885478e-03
2.813436354788e-03
1.986436464636e-03
2.602497471918e-03
4.536209320527e-03
3.650011259562e-03
6.021028889714e-03
5.248340798342e-03
1.675475904991e-03
5.860952443922e-03
5.749243689854e-03
3.130366137552e-03
2.446157471384e-04
6.015808451350e-03
5.216828897001e-03
1.891089920309e-03
5.872438978963e-03
4.140650168509e-03
2.670441489397e-03
3.672959727573e-03
3.555689535213e-03
3.535938459604e-03
4.076028772190e-03
4.323837798527e-03
2.998150908977e-03
4.588814172264e-03
3.990156233101e-03
2.851900776380e-03
4.246963853771e-03
2.223560657060e-03
3.981478068334e-03
1.793397212350e-04
2.156315504880e-03
2.097111767555e-03
3.079683430517e-03
3.294455684710e-03
4.105285117446e-03
3.968717882503e-03
1.929111457824e-03
5.886335248325e-03
3.894339398565e-03
3.209529361218e-03
3.730809639925e-03
3.117776647955e-03
0.0
3.867784336933e-03
2.563323944442e-03
0.0
3.036200146822e-03
4.407600196631e-03
5.076924335597e-03
3.778145075046e-03
3.865417070565e-03
3.297599931106e-03
3.075297279978e-03
5.632622103086e-03
3.567491943935e-03
1.510039486835e-04
1.062090790195e-03
2.398810579768e-04
1.837694429977e-03
5.063783013299e-03
5.108968424711e-03
4.804181478442e-03
2.074537259418e-03
4.022688107491e-03
5.049168604237e-03
1.160096365863e-03
2.576389109967e-03
2.078055360937e-03
6.021089235366e-03
5.881485963002e-03
2.857156921414e-03
3.246692301346e-03
3.629498285744e-03
5.229137518708e-03
1.125785695799e-03
4.880206649917e-03
6.831862832841e-04
2.949407645451e-03
3.288357648769e-03
2.441249237015e-04
2.697767110358e-03
5.212641935745e-03
1.752329176366e-04
3.063219008196e-03
3.208047659791e-03
4.245083115866e-03
2.103654506232e-03
2.019431576275e-03
1.421520152248e-03
5.225289819944e-03
5.632171442564e-03
4.908962959162e-03
1.901082200918e-03
7.152422822499e-04
3.069002747989e-03
3.072118229683e-03
3.221248037221e-03
0.0
2.370160903131e-04
5.310782124112e-04
1.561897998935e-03
4.249046179325e-04
3.032717901044e-03
0.0
1.864630217503e-03
4.122518464148e-03
3.216172429738e-03
5.209439031162e-03
4.234717777356e-03
3.854408568460e-03
2.248560931312e-03
6.787283102328e-04
5.869561306561e-03
6.023626633703e-03
3.742684779077e-03
3.077333598062e-03
2.287820883481e-03
6.009559958077e-03
1.773006016400e-03
3.202342050267e-03
3.064099742472e-03
2.912794716067e-03
5.888568312805e-03
6.006021539653e-03
4.166942996850e-04
0.0
8.441431879688e-04
3.250853044044e-03
5.464355466468e-03
1.629622625436e-04
4.849407318231e-03
0.0
4.167229288684e-03
1.911385708273e-04
1.855469029487e-04
3.998077199970e-03
5.296543687334e-03
4.237134437895e-03
3.194088539209e-03
2.435063913799e-04
4.153210895561e-03
5.861217735276e-03
6.009791560538e-03
3.214582083037e-03
4.335922088801e-03
5.878708529905e-03
4.662336340161e-03
6.526260522665e-04
4.186243951470e-04
2.626649538589e-04
2.550412609599e-03
6.014031515604e-03
5.628686910939e-03
0.0
3.011280459441e-03
5.891985303537e-03
6.031512279974e-03
6.009444186578e-03
4.549765932770e-03
5.010826545378e-03
5.864343994050e-03
5.879214029285e-03
4.848773824588e-03
1.474383398765e-04
3.191688509645e-03
3.230904037540e-03
0.0
5.898372924748e-03
6.024797090299e-03
5.861254662737e-03
1.875139568358e-04
1.924224746449e-04
5.871534849748e-03
5.866174925494e-03
4.404639489746e-03
3.191281210692e-03
4.696669621923e-03
3.777426634559e-03
3.187300555971e-03
1.702406008908e-04
1.962141474448e-04
1.658004844312e-04
1.808088655353e-04
3.181347729344e-03
2.857668427393e-03
0.0
4.096797302130e-03
0.0
5.867214387610e-03
5.859324762587e-03
5.872796053912e-03
1.028821985916e-03
1.936630062470e-03
5.864275948506e-03
5.016839626708e-03
5.891943567254e-03
5.328174982673e-03
5.640245512770e-03
2.701665040976e-03
6.022983703665e-03
6.017003585591e-03
5.139388847066e-03
5.463393282501e-03
4.411575174768e-03
0.0
2.784277416710e-03
4.061884078683e-04
5.259286228377e-03
2.908833121132e-03
4.850143225763e-03
1.472710261241e-03
5.420604269259e-04
5.189202363176e-03
3.073447472489e-03
2.406449859391e-03
4.889636581614e-03
5.255592395656e-03
2.405392247394e-03
4.614670723085e-03
4.023251322217e-03
4.374804059547e-03
4.518070815714e-03
2.466020010935e-03
2.911636777842e-03
3.205404967252e-03
4.113353234629e-03
5.029297459228e-03
4.665945937406e-03
1.491277829959e-03
5.243929663885e-03
4.941851688277e-03
3.558682000750e-03
4.285917425276e-03
4.244579152953e-03
5.321773155122e-03
5.122199489663e-03
3.931103671375e-03
5.320806263415e-03
4.878121851522e-03
4.664188533065e-03
5.406777608810e-03
5.283094587084e-03
4.496087669439e-03
4.444458481023e-03
1.481875117849e-03
1.376911560334e-03
7.503612397896e-04
4.158489178225e-04
5.132283977735e-03
5.119873486994e-03
4.012352521064e-04
5.178558947058e-03
3.672287986049e-03
4.759407346754e-03
4.816897172186e-03
2.140610803278e-03
4.851861367702e-03
3.563436395175e-03
4.454648778840e-03
5.513811741196e-03
1.417713283077e-03
5.445572691693e-03
4.665806061983e-03
1.612851643597e-03
1.714759419245e-03
3.438255392646e-03
4.137623841864e-03
2.296870595819e-03
4.830815432738e-03
4.338838747336e-03
3.342675223842e-03
4.545437980776e-03
4.722218982109e-03
4.634762812797e-03
1.261713162161e-03
3.173154214210e-03
5.055839016286e-03
4.803789849080e-03
2.857994266569e-03
4.062765352511e-03
5.318088809597e-03
4.463221862301e-03
7.092725784376e-04
7.188837629254e-04
1.457330486298e-03
4.991375457445e-03
4.302592537165e-03
3.790381226361e-03
3.831560113468e-03
5.088582652342e-03
3.475465703060e-03
4.681796565250e-03
1.519021719428e-03
5.403126934034e-03
3.381852318330e-03
1.662591917742e-03
3.207575975263e-03
2.427493216678e-03
1.903845874229e-03
3.731045389275e-03
0.0
0.0
4.284173046855e-03
1.393362755241e-03
4.325320826384e-03
4.194819161297e-03
2.641355429632e-03
1.719362769164e-03
5.077648961166e-03
6.798414436796e-04
2.568347176664e-03
5.235874665598e-03
1.155384575714e-03
4.027503858662e-03
3.708502873320e-03
1.170523382264e-03
5.180869859233e-03
4.605325228012e-03
1.354425768675e-03
5.208339196432e-03
5.174454579939e-03
1.560392004205e-03
2.066462287853e-03
1.601268088310e-03
4.585233918786e-03
3.608599847270e-03
5.182420533551e-03
5.047083544607e-03
4.455861124158e-03
4.416860348409e-03
1.262227011679e-03
4.546872248422e-03
4.575231375888e-03
3.645268122884e-03
4.332465809534e-03
4.772714813264e-03
3.224253829144e-03
4.911353602778e-03
3.039446067918e-03
3.515433690721e-03
2.274449684327e-03
2.423089078890e-03
4.439297428605e-03
3.365892711140e-03
1.732320824868e-03
8.737837506730e-04
4.468449371054e-03
1.692563081125e-03
5.400363428095e-03
4.604462714681e-03
4.720726376404e-03
5.614884535387e-03
2.906736885668e-03
1.519615723243e-03
9.588952552172e-04
4.497763875840e-03
4.168753252709e-03
6.612546370245e-04
2.334923660638e-03
1.349036943465e-03
4.164466221195e-03
2.463752493733e-03
4.155025201166e-03
2.292333716336e-03
4.974481416777e-03
1.996568548932e-03
4.538601579327e-03
1.422865093935e-03
4.366068561900e-03
3.354002373652e-03
4.590163414602e-03
2.268610930300e-03
1.307910686375e-03
3.881907493683e-03
4.205574957263e-03
2.920421497113e-03
4.187784013099e-03
1.586935699350e-03
4.244922793799e-03
1.226338966711e-03
5.150001748039e-03
4.374413810112e-03
4.622543358684e-03
5.394833408084e-03
3.667741289077e-03
1.224125341458e-03
4.102435654437e-03
5.282422523208e-03
2.057763750215e-03
4.628995763582e-03
4.635584555752e-03
1.589158083945e-03
4.234441115403e-03
3.821646127754e-03
1.821001696294e-03
2.204998645608e-03
3.531838972984e-03
4.458682283978e-03
2.705458114869e-03
3.369397376082e-03
4.409627360570e-03
3.999189459908e-03
3.940589006345e-03
3.315097548747e-03
5.049644574621e-03
3.970188919273e-03
3.865457449799e-03
5.335960465199e-03
4.786774600188e-03
4.326858616178e-03
4.742369029763e-03
2.549037087326e-03
2.376936366428e-03
1.302651264701e-03
4.273366818875e-03
2.508792953611e-03
4.299375558000e-03
4.132696996014e-03
3.389416804487e-03
2.034302780513e-03
2.172486861284e-03
2.165955219120e-03
2.337607654919e-03
1.391516248166e-03
4.919034255652e-03
2.855049591196e-03
4.941701353565e-03
3.027877065094e-03
4.063567962409e-03
3.458337729904e-03
3.331673446639e-03
1.430769057123e-03
5.141025598269e-03
5.386317345378e-03
4.241134245443e-03
2.509978051558e-03
3.760813505748e-03
4.270720268813e-03
2.680282115890e-03
2.797254708148e-03
2.037210772217e-03
1.757966815576e-03
2.721514213298e-03
1.824017326780e-03
1.691969220267e-03
3.496848774705e-03
4.195328690588e-03
4.995266969494e-03
2.135838877743e-04
2.937051639141e-03
2.897351463058e-03
2.682523461315e-03
4.103488450026e-03
3.156230924954e-03
2.130711016344e-03
2.894759596741e-03
4.775391991284e-03
2.173955602432e-03
7.788298120351e-04
1.098630592693e-03
1.847249263452e-03
2.207153680070e-03
3.068504768790e-03
3.066805177260e-03
1.285438509384e-03
1.138227833186e-03
3.930039062681e-03
1.865163626252e-03
4.708651258612e-03
4.829683528524e-03
3.996321467093e-03
4.986241804288e-03
5.148048922335e-03
3.260814721479e-03
4.534131096749e-03
1.457572490377e-03
3.023482251318e-03
2.967208668201e-03
1.645155887212e-03
1.166961927378e-03
2.469642956954e-03
2.937206611966e-03
3.106798960592e-03
1.956772177711e-03
3.328078992345e-03
2.976908204584e-03
3.106378807451e-03
2.248119148986e-03
4.413942525391e-03
4.439751776256e-03
2.976392922480e-03
5.010927287276e-03
1.627877766205e-03
5.381669347488e-03
3.196867194148e-03
5.344914307263e-03
4.057033022443e-03
1.547485956853e-03
4.123901821043e-03
5.087178339347e-03
3.367611906554e-03
2.440942977478e-03
4.251329185006e-03
3.207452396219e-03
1.238538391459e-03
5.593643574323e-03
1.085824202323e-03
5.357726211726e-03
5.214885560155e-03
4.544742657186e-03
3.963126868919e-03
4.882709138368e-03
3.144855381723e-03
3.686700440280e-03
5.279854728997e-03
4.499470890681e-03
4.577778607108e-03
4.305077680676e-03
1.417434976899e-03
4.713217591497e-03
5.753142823153e-03
5.329243380658e-03
2.984954618286e-03
3.988249552619e-03
3.801645055376e-03
3.235172335353e-03
4.367027888534e-03
4.537516687745e-03
9.970547420201e-04
1.879690939538e-03
3.146058965649e-03
3.016269873665e-03
3.169182906176e-03
5.469468509572e-03
5.150681403781e-03
5.240179499594e-03
2.868576175316e-03
4.786586511308e-03
4.405806436379e-03
5.327777423767e-03
4.543377517499e-03
3.194953866718e-03
3.016658390278e-03
4.683655011930e-03
5.186209915555e-03
4.713484120124e-03
4.548206090170e-03
4.976866936040e-03
5.217579174467e-03
4.840160058744e-03
3.891876227783e-03
2.750258353967e-03
4.710107048531e-03
4.455858956637e-03
1.652249011372e-03
3.184856128294e-03
3.569010409292e-03
3.985083673359e-03
1.671830613806e-03
3.055529241679e-03
4.284410717115e-03
3.160882025297e-03
3.286974656951e-03
4.234469480443e-03
3.357266040902e-03
5.832224582000e-04
3.799395819488e-03
4.636565872287e-03
5.317751045333e-03
3.481406310990e-03
3.589447844127e-03
4.274698478407e-03
8.890581030904e-04
4.506465777264e-03
3.816858646074e-03
3.354799917759e-03
4.576186082816e-03
1.676633756965e-03
4.747043128416e-03
5.187298868340e-03
4.376407166304e-03
4.744547438801e-03
4.830907234008e-03
5.222428902797e-03
1.201860364893e-03
4.408544086062e-03
5.240903661220e-03
4.852152895878e-03
4.077198400922e-03
3.222276421180e-03
3.512191017662e-03
9.501978410135e-04
5.017421712005e-03
1.785962296740e-03
1.474080171039e-03
4.696567737555e-03
5.360782323002e-03
1.502195583133e-03
3.694570648950e-03
4.514270677664e-03
3.456703744762e-03
1.710610669055e-03
2.238950842234e-03
1.102844825228e-03
1.463725195595e-03
1.298709706981e-03
3.778806340878e-03
6.016319104850e-03
1.770958764898e-03
5.108227611126e-03
2.760707398476e-03
4.377813891094e-03
1.251866579467e-03
5.389992930062e-03
1.329712956055e-03
2.093643212440e-03
4.546924323321e-03
3.272001809033e-03
5.085454575005e-03
2.505652950449e-03
4.652855770583e-03
5.305274251484e-03
4.381154287587e-03
5.353154153797e-03
4.847010383273e-03
4.984300817298e-03
1.461091507052e-03
4.931565832531e-03
4.651005362573e-03
3.390008201393e-03
2.079335679828e-03
5.500831082514e-03
1.712811546916e-03
1.993152190864e-03
4.885708378640e-03
1.216541976104e-03
3.495171392387e-03
4.675591106622e-03
5.272532937545e-03
5.420840566733e-03
4.583883740699e-03
5.018032232522e-03
2.928193951873e-03
4.734205484298e-03
2.384407325898e-03
5.226115629599e-03
2.691920380854e-03
2.821439891355e-03
3.352681362175e-03
3.005156168196e-03
3.913667205993e-03
3.168162756046e-03
3.350908701417e-03
1.499540076307e-03
3.184302201097e-03
5.155825657334e-03
5.317650690563e-03
4.630365567379e-03
5.181610671434e-03
3.234889799458e-03
4.952004252636e-03
3.313357221721e-03
5.062045811440e-03
4.816274352400e-03
4.818099421099e-03
4.206405183177e-03
3.056304276052e-03
5.021296019776e-03
4.023314824600e-03
1.538746154334e-03
1.749640413363e-03
2.581840747201e-03
3.659895849796e-03
5.198547264467e-03
4.682421595145e-03
3.094059173860e-03
4.145541869622e-03
4.812672239436e-03
5.049278077315e-03
5.190177469339e-03
4.186777916003e-03
4.922584909275e-03
3.519092201106e-03
4.841945469779e-03
3.459285380478e-03
5.318103245047e-03
5.375730321285e-03
3.907284938938e-03
1.543762532817e-03
4.924088818987e-03
3.784631978290e-03
2.966232018542e-03
4.115084444643e-03
4.786551662215e-03
1.580177343230e-03
3.609609721518e-03
4.218839080460e-03
5.235324707913e-03
4.343885302361e-03
4.794481932196e-03
4.091858975395e-03
3.838629298260e-03
4.150165290363e-03
5.016907512540e-03
4.843633938430e-03
4.487236376390e-03
5.391551705940e-03
3.964776956212e-03
2.504722224904e-03
5.126866157334e-03
5.351865102208e-03
3.421523486689e-03
3.585506366848e-03
2.798993443276e-03
4.621665338398e-03
2.797993190934e-03
4.008922037687e-03
2.829376981743e-03
4.717608549950e-03
5.388550033297e-03
2.927070685157e-03
9.888206599125e-04
5.353078015974e-03
2.956776001860e-03
3.401650254318e-03
5.219422455657e-03
4.518245132016e-03
4.710258760873e-03
3.004500417496e-03
7.783076031666e-04
5.413634110948e-03
3.785549847173e-03
4.475770357229e-03
5.138569278830e-03
4.994909691429e-04
4.670933741567e-03
2.116054709690e-03
4.214096454066e-03
3.759983120660e-03
2.888083435173e-03
5.100516085727e-03
3.877479781614e-03
2.594149316670e-03
3.983879265493e-03
8.165376085930e-04
4.568690469440e-03
4.756083401336e-03
5.452995028681e-03
4.864947734128e-03
2.043386112127e-03
4.669335817464e-03
5.443502610785e-03
5.653283028556e-03
4.924221690428e-03
3.131071400812e-03
4.275149951314e-03
5.153531541623e-03
3.483038301481e-03
4.661124208018e-03
4.348587759454e-03
4.969873350217e-03
4.879399467596e-03
3.061812406022e-03
3.059832632554e-03
4.421565437881e-03
4.367095910945e-03
3.892926071110e-03
4.346817112173e-03
3.712232804534e-03
5.218395199065e-03
3.094455246611e-03
6.015990180958e-03
3.548926640244e-03
3.622651461457e-03
3.720989189851e-03
1.917689178557e-03
3.325283759535e-03
4.075520205487e-03
3.823291195348e-03
4.324099751295e-03
4.442674123027e-03
4.635684442584e-03
9.413748427402e-04
3.116803001466e-03
2.990095831993e-03
4.183071766205e-03
4.385629020003e-03
5.129593891229e-03
1.345885066556e-03
1.412365657132e-03
3.622797484364e-03
3.154436867303e-03
2.871305297426e-03
3.029007655749e-03
4.352626062824e-03
1.378394098464e-03
3.551958554456e-03
4.673475020981e-03
1.371021261255e-03
5.626560674904e-03
5.140839489265e-03
3.418542020247e-03
4.761469995819e-03
5.340586268803e-04
4.506684223349e-03
3.820960628806e-03
5.232531716935e-04
5.112554520633e-03
1.291496177795e-03
4.218615333140e-03
3.856857888662e-03
3.312116629244e-03
3.970751915483e-03
5.253907736522e-03
4.273307236225e-03
3.748874096129e-03
3.658427402968e-03
4.072848571605e-04
1.086582957134e-03
4.988340503471e-03
4.027251590836e-03
5.093944963423e-03
2.082136659873e-03
4.849015704641e-03
5.165290452317e-03
3.099958031898e-03
4.951145023831e-03
4.800202598035e-03
4.202189340322e-03
3.419837614494e-03
3.627723820665e-03
5.408792691943e-03
3.669252203194e-03
3.949521165470e-03
3.687500356751e-03
4.577290825851e-03
3.457616430748e-03
2.136542330794e-03
3.737765005846e-03
2.300519927022e-03
4.313534934977e-03
2.336835197399e-03
4.185013498204e-03
5.058632123647e-03
4.845402042790e-03
3.258903797757e-03
4.157867652743e-03
4.893039108893e-03
4.931637404463e-03
1.098595117713e-03
4.276866742040e-03
5.348494697504e-03
2.274754905370e-03
3.720777205156e-03
5.805350037142e-04
5.023459904507e-03
2.007146323956e-03
3.516536072154e-03
4.448684330717e-03
4.188265097600e-03
3.987994876210e-03
3.912543751932e-03
2.560060998670e-03
2.716022476841e-03
5.063727723485e-03
4.170414237267e-03
3.608810319198e-03
4.473149988466e-03
3.442042596625e-03
2.210516303654e-03
2.509306508328e-03
3.743956289805e-03
3.211982025181e-03
4.884087041847e-03
3.294332851053e-03
5.470028085312e-03
4.968312631613e-03
3.648648400585e-03
5.541933827682e-03
2.466546029825e-03
5.345527466215e-03
3.948482313971e-03
4.328605554235e-03
5.112321421619e-03
2.597683647667e-03
4.115029269880e-03
3.480150837066e-03
4.019186076767e-03
2.272393606486e-03
4.466658165346e-03
3.272828574776e-03
3.852140252587e-03
3.985530946530e-03
5.486019707335e-04
3.987424940170e-03
8.554820142325e-04
9.504026979452e-04
3.679756779392e-03
4.895621551102e-03
4.114719913355e-03
2.260582699587e-03
5.890341927598e-03
2.361196323927e-04
2.408933314321e-03
3.696570178526e-03
3.550836608979e-03
2.949897068498e-03
2.521788525811e-03
3.865826064652e-03
4.111851899735e-03
4.291338337804e-03
5.060421643315e-03
1.172731196860e-03
3.380194152908e-03
3.645284340248e-03
1.945070109137e-03
3.263324571413e-03
4.151874911649e-03
4.514501832048e-03
6.678202814272e-04
4.351335771455e-04
1.356777941614e-03
3.683303970356e-03
2.761138937455e-03
2.431180347952e-03
2.170243072617e-03
3.811952085602e-03
4.376533666742e-03
3.777763179950e-03
2.723670872440e-03
4.310662224790e-03
3.611591761329e-03
4.750283438547e-03
3.815774579287e-03
3.851468414051e-03
1.944050795949e-03
2.890987107893e-03
3.905608017060e-03
4.252910968047e-03
3.994175970999e-03
2.110867462038e-03
3.944631663858e-03
2.390664015242e-03
1.124080825948e-03
5.376953591042e-03
1.187499430943e-03
2.482769913719e-03
3.879865431681e-03
2.200126612380e-03
3.952345974418e-03
1.811928905985e-03
3.356343314340e-03
3.983365723056e-03
3.440832380153e-03
3.590886272854e-03
5.778240294564e-04
5.177570466669e-03
2.852018100216e-03
5.139923105349e-03
4.369987342579e-03
4.075819768185e-03
4.112944593259e-03
2.558534294897e-03
8.044732495801e-04
4.846447285547e-04
4.204879470093e-03
5.110788681143e-03
2.351481271792e-03
4.405521083047e-03
2.090274329685e-03
4.476809174747e-03
5.754213561495e-03
1.628784469014e-04
5.886643384746e-03
5.901414175980e-03
3.458575707159e-03
2.812867409509e-03
4.241011420016e-03
2.631198119222e-03
8.395301720450e-04
4.442063176975e-04
5.416028733597e-03
4.290643224770e-03
3.238039868260e-03
6.016407931761e-03
1.526058316679e-03
6.021404174662e-03
4.252293004767e-03
2.770700704573e-03
4.037975120995e-03
2.603169544957e-03
1.275543801189e-03
2.434051418874e-03
4.504021302162e-03
5.149429450184e-03
2.644039120232e-03
4.570681309338e-03
0.0
2.683791218028e-03
4.759413754436e-03
2.380487600569e-03
2.182231533104e-03
4.074582213105e-03
1.142827734401e-03
1.613360141681e-03
1.808060117334e-03
2.084692713343e-03
3.738888209100e-03
3.552566181395e-03
4.601487464017e-03
5.387303345294e-03
1.895037985309e-03
4.547788030597e-03
5.406404464741e-03
2.430574595185e-03
8.388200309560e-04
2.308570276636e-03
3.567446514914e-03
4.605708546548e-03
3.532472732913e-03
9.838862332244e-04
4.035330324993e-03
1.450893591273e-03
3.586284318698e-03
3.831672797715e-03
4.170149154859e-03
4.132286282917e-03
2.127223100425e-03
9.534914560384e-04
4.136513997941e-03
1.590009906794e-03
3.818359164413e-04
5.392622240487e-03
5.134895118372e-03
2.358553379799e-04
4.335577273877e-03
1.652975194542e-03
1.733439247888e-03
4.869520458032e-03
4.202282593856e-03
4.701518647351e-03
2.723483443401e-03
3.214868672807e-03
5.618894135867e-03
1.429456025818e-03
4.994104156300e-03
3.749384831161e-03
1.080098481844e-03
4.468944246879e-03
2.850501028317e-03
5.229780796343e-04
2.395768144624e-03
4.403868178899e-03
4.552935884602e-03
1.122570998337e-03
3.592706244326e-03
4.742720139637e-03
4.941703297220e-03
2.257577943858e-03
1.773224354185e-03
3.849204691396e-03
4.071024716265e-03
5.196053913262e-04
5.764981452673e-03
5.619546678147e-03
3.612944456398e-03
5.643094491975e-03
5.633179208426e-03
2.812315344072e-03
2.684208433063e-03
5.774953852408e-03
0.0
1.642459376677e-03
3.615456688328e-03
2.303853360214e-03
2.356132906425e-03
1.288375400597e-03
1.523495052580e-03
3.689273836909e-03
2.596505031526e-03
1.903570888892e-03
4.768488117706e-03
6.016953446853e-03
6.019036760985e-03
2.772486331110e-03
3.327990862488e-03
3.338379874678e-04
1.033148740315e-03
1.155791037094e-03
1.182207438934e-03
4.038315348238e-03
2.314844929729e-03
2.560267431529e-03
6.984958962330e-04
5.129856721972e-03
2.519676737210e-03
5.369560606069e-03
4.921920194395e-03
6.028148600870e-03
6.024927523322e-03
3.694826416134e-03
2.643467046654e-03
1.596779775992e-03
2.730315514544e-03
5.897744789275e-03
7.273837460651e-04
8.727452914998e-04
5.171338012505e-03
3.477662201300e-03
5.409990092851e-03
4.766370635139e-03
5.205506796535e-03
4.984047288898e-03
3.660646591583e-03
2.009740382611e-03
1.966632147612e-03
4.354966851432e-03
5.090565716970e-03
3.059094088471e-03
3.470038770667e-03
3.693952598066e-03
3.772778857696e-03
9.470076460962e-04
1.787152598033e-03
5.767752696873e-03
4.034960654971e-03
5.756079931259e-03
5.497145112359e-03
4.509775173530e-03
5.432774287522e-03
2.645253503307e-03
2.511337306943e-03
5.406759837386e-03
2.304638287390e-04
1.771966949554e-03
5.883028560639e-03
8.247074295860e-04
3.324809475671e-03
5.529445601793e-03
5.796810560745e-04
3.735041338850e-04
6.010222977965e-03
3.068950323843e-03
5.659948107382e-03
5.391425944959e-03
3.060672020253e-03
3.701494320501e-04
5.629476601577e-03
9.427571928057e-04
5.445974576444e-03
5.891393706380e-03
5.428284510192e-03
1.205305933195e-03
3.730388698424e-03
2.799861645862e-03
4.776394335281e-03
6.019211625132e-03
4.734875419906e-03
6.017874104347e-03
5.525430350758e-04
5.764155817737e-03
1.379826528368e-03
7.818426790371e-04
5.771398210854e-03
5.772672408195e-03
5.750122728571e-03
3.364853212441e-03
3.669284283972e-03
1.289535518306e-03
5.767367083341e-03
2.258902969131e-03
7.533765705703e-04
4.926344783199e-03
3.188420317882e-03
5.482259513434e-03
5.953772275136e-03
5.893932355244e-03
1.556562156404e-04
7.519299109284e-05
3.129847729158e-03
3.204854259840e-03
5.889443725007e-03
5.949944079456e-03
3.717729449495e-04
0.0
5.412787547920e-03
5.428215329942e-03
1.134510679474e-03
5.501228040530e-03
3.826590884489e-03
3.385765392231e-03
4.259215926484e-03
1.033495775153e-03
4.492845514927e-03
9.286955643621e-04
3.016528213224e-03
5.456768976603e-03
5.324962882905e-03
3.256994374191e-03
3.913984556786e-03
5.533514411026e-03
5.100824001865e-03
4.804745634301e-03
3.058531543379e-03
4.339009031687e-03
5.424931143324e-03
1.698845153725e-03
4.086781350245e-04
5.273729960381e-03
4.969714239598e-03
7.789488230218e-04
4.461302677928e-03
5.625097067298e-03
5.215165969830e-03
5.527785936845e-03
4.184635835076e-03
2.450732908034e-04
1.273338932172e-03
1.607268086116e-03
3.578185125380e-03
4.310413086534e-03
5.506795170732e-03
5.617673364480e-03
6.645911850499e-04
6.388748237895e-04
1.019502716968e-03
4.467708076661e-03
2.159520161712e-03
5.529519713859e-03
1.082739524012e-03
5.378468444182e-03
3.624426704377e-03
5.642484205688e-03
4.966747949266e-03
3.587861483021e-03
5.771512121934e-03
5.779451194585e-03
5.760792399076e-03
7.089390944599e-04
5.397932790268e-03
5.622343722044e-03
5.472950722519e-03
5.052268972403e-03
5.880549672383e-03
4.768122438881e-03
0.0
9.845756963830e-04
5.283361989644e-03
3.879740068610e-03
5.433335536349e-03
5.248543119057e-03
5.652713428879e-03
4.807093912347e-03
5.652238210163e-03
5.501769948461e-03
5.478616351915e-03
2.254971077609e-03
6.018212737185e-03
3.451522871175e-03
5.433186761320e-03
5.068656971481e-04
5.235659828438e-03
4.498616084438e-03
6.477069853908e-04
1.135724772343e-03
4.905082491478e-03
5.637492893173e-03
5.504426529729e-03
5.673913725339e-03
3.852881204388e-03
3.799041860717e-04
5.935897059171e-04
4.188938165996e-04
8.250409444333e-04
1.478748655910e-04
2.994768496768e-03
5.427348189453e-03
5.458882754827e-03
3.883455718842e-03
2.608660953034e-03
5.476751558409e-03
5.429576111220e-03
5.784117117048e-03
5.420830804507e-03
5.193598780718e-03
5.135394386583e-04
5.681154926280e-04
5.488737210922e-03
5.166391021770e-04
7.619709822300e-04
4.832364846616e-04
5.799786674798e-04
5.645675802182e-03
5.655037542831e-03
5.514781828190e-03
5.671443408193e-03
5.255264111174e-03
4.033418773149e-03
5.899144122698e-03
1.388436502105e-03
3.180255969687e-03
8.723897877040e-04
2.133422569490e-04
6.015531814482e-03
3.502525969212e-03
8.808568387309e-04
2.855369314806e-03
5.783822611068e-03
5.499347830224e-03
5.655534667043e-03
2.044016280955e-03
5.432286145459e-04
5.780287558168e-03
6.015607847563e-03
6.035949087319e-03
3.352497016114e-03
5.397561630392e-03
7.778562056283e-04
5.539597143374e-03
2.048357633213e-04
5.660676748682e-03
5.761438663708e-03
2.169999861615e-04
5.276842850465e-03
4.633513032721e-03
5.657467102238e-03
5.913925366103e-03
4.247858577438e-03
5.671720231098e-03
5.525428271373e-03
4.362177274661e-03
5.479739394228e-03
2.387201356291e-03
3.053723610195e-03
5.526446984933e-03
5.736294853841e-03
0.0
3.063983621229e-03
5.747940021174e-03
1.061697143843e-03
5.531390322422e-03
5.495470709881e-03
5.762937850711e-03
1.031440225739e-03
8.053626735849e-04
3.509970528096e-03
5.010988788466e-03
1.260771232346e-04
5.677193264911e-03
4.090526400836e-03
1.039673297651e-03
3.888574816327e-03
5.772338171833e-03
3.681185629207e-03
3.038880930972e-04
2.159618659612e-03
3.184608949978e-03
3.800834338169e-03
5.524986598456e-03
3.091083311451e-03
3.266927546245e-03
5.190819916672e-04
5.520367014093e-03
5.284258696945e-03
8.877738012256e-04
5.674860832192e-03
5.710960226183e-03
3.423111596940e-03
4.198163726001e-03
3.122389092001e-03
3.191264477013e-03
3.380114392671e-03
5.252725700940e-03
7.633269386085e-04
5.525012493520e-03
3.559702453178e-03
5.772557366742e-03
5.241338347213e-03
3.993508198578e-03
5.321259532480e-03
5.468684898978e-03
5.796731642521e-03
2.386710946756e-04
5.348756869277e-03
5.540450075665e-03
5.978130445139e-04
2.916813067191e-03
3.606876982128e-04
5.579480516134e-03
1.032528680127e-03
9.323887220943e-04
1.097981050082e-03
9.344020797173e-04
1.101264593357e-03
9.348954780416e-04
1.102037623267e-03
9.355764002203e-04
1.102802067415e-03
9.362623126358e-04
1.103430556904e-03
9.367867162142e-04
1.103836800920e-03
9.370954764910e-04
1.104022627597e-03
9.372218071483e-04
1.104036697632e-03
9.372068093879e-04
1.103920508877e-03
1.117619374062e-03
9.370957662869e-04
1.103719047252e-03
9.369196274770e-04
9.261513620317e-04
1.103480682968e-03
9.367420727141e-04
1.103347186011e-03
9.367450145225e-04
1.103392079913e-03
1.017056258598e-03
9.368969922443e-04
1.103694692331e-03
9.373141550632e-04
1.103951497419e-03
9.375030009139e-04
1.104687114539e-03
9.382209398496e-04
1.104539841040e-03
9.378447695807e-04
1.106370907704e-03
9.392366398973e-04
1.021141825227e-03
9.372679358670e-04
1.103342739752e-03
9.422935496188e-04
1.111907271972e-03
9.260461471264e-04
1.095394210812e-03
1.123312727808e-03
8.323479749310e-04
1.128566703084e-03
9.953026640652e-04
1.042237675871e-03
9.591676168155e-04
9.134543494838e-04
1.317555908262e-03
1.411154381567e-03
1.241457495901e-03
1.403423847767e-03
1.236480862040e-03
1.403051953662e-03
1.236284882551e-03
1.403547908576e-03
1.236815340164e-03
1.404204483020e-03
1.237470339378e-03
1.404743475764e-03
1.237987658795e-03
1.405026198117e-03
1.238234757460e-03
1.405120931524e-03
1.238319585092e-03
1.405059704162e-03
1.421124237200e-03
1.238289863139e-03
1.404896347905e-03
1.238178938020e-03
1.272248389347e-03
1.404621066361e-03
1.230468354784e-03
1.237927192509e-03
1.404201724790e-03
1.237585739367e-03
1.404253981136e-03
1.237710869377e-03
1.404287754182e-03
1.238054426352e-03
1.405452877794e-03
1.320006507428e-03
1.238915382257e-03
1.404614785989e-03
1.238649182603e-03
1.407749646635e-03
1.402917868988e-03
1.240144152721e-03
1.412832891455e-03
1.237451068507e-03
1.392398719858e-03
1.427258914911e-03
1.242071057120e-03
1.224550736858e-03
1.135722002447e-03
1.334507275476e-03
1.464477983734e-03
1.308290235552e-03
1.389742403768e-03
1.221865126859e-03
1.644828616560e-03
1.545981159414e-03
1.713069814165e-03
1.549054825424e-03
1.715773419310e-03
1.548987889924e-03
1.715851555195e-03
1.549284187277e-03
1.716336015095e-03
1.549831225943e-03
1.716979131492e-03
1.550462280830e-03
1.717548348098e-03
1.550748049988e-03
1.717702537870e-03
1.550767686370e-03
1.717681668252e-03
1.725803895536e-03
1.550761344641e-03
1.717583419006e-03
1.537714373053e-03
1.550852574204e-03
1.717508033845e-03
1.550787156715e-03
1.717211703352e-03
1.550270291517e-03
1.580962922022e-03
1.716371127971e-03
1.549692184463e-03
1.716550609062e-03
1.550574202923e-03
1.716818436997e-03
1.551114104077e-03
1.719308097921e-03
1.553274409557e-03
1.716626027886e-03
1.550768170919e-03
1.626829546040e-03
1.554713128758e-03
1.723777182374e-03
1.538464917325e-03
1.708370553989e-03
1.734059786548e-03
1.441855297972e-03
1.718205167646e-03
1.580532811126e-03
1.653228733294e-03
1.570518538296e-03
1.533736984822e-03
1.929041500633e-03
2.023740013829e-03
1.854265828309e-03
2.016530832047e-03
1.849333680069e-03
2.016057688508e-03
1.849195180988e-03
2.016381773036e-03
1.849523099890e-03
2.016986771475e-03
1.850201123651e-03
2.017903593159e-03
1.851073613590e-03
2.018100274694e-03
1.851198313231e-03
2.017765292166e-03
2.038346331878e-03
1.850748802689e-03
2.017763268230e-03
1.885943985980e-03
1.851152239863e-03
2.018100772715e-03
1.841102677324e-03
1.851647953070e-03
2.018159675524e-03
1.851486642937e-03
2.017416700478e-03
1.850595558474e-03
2.014905500803e-03
1.941018760619e-03
1.849191983526e-03
2.018440167145e-03
1.852222603884e-03
2.015647441730e-03
2.027681622993e-03
1.852157743951e-03
2.006230484387e-03
1.857841458147e-03
2.036787414556e-03
1.836927752623e-03
1.752304649195e-03
1.929925313480e-03
2.063297522828e-03
1.919603130811e-03
2.001189499676e-03
1.831777990773e-03
2.258393672976e-03
2.159705713490e-03
2.327059706199e-03
2.161659692035e-03
2.328518888195e-03
2.162672994817e-03
2.329425293706e-03
2.162300175437e-03
2.329523762820e-03
2.162994370433e-03
2.330352635693e-03
2.163819996874e-03
2.331651210941e-03
2.165193397044e-03
2.332104205239e-03
2.349563023748e-03
2.163170879264e-03
2.156618435812e-03
2.330120032603e-03
2.163760401776e-03
2.331149868869e-03
2.165613130817e-03
2.332544467419e-03
2.165577836067e-03
2.195603305539e-03
2.332198422978e-03
2.165170022173e-03
2.331421633703e-03
2.163880370449e-03
2.325581563359e-03
2.161800956061e-03
2.335429634205e-03
2.170950976162e-03
2.156347734429e-03
2.326285427350e-03
2.254719671384e-03
2.352490791724e-03
2.061139530170e-03
2.319973192991e-03
2.181921643346e-03
2.266267734125e-03
2.183268200846e-03
2.140663700466e-03
2.549158764665e-03
2.636150175904e-03
2.465044416633e-03
2.626215054828e-03
2.459129987657e-03
2.629398577210e-03
2.462515755855e-03
2.626876011636e-03
2.459194547671e-03
2.628998715299e-03
2.462069348223e-03
2.628826924734e-03
2.461615336322e-03
2.655480925391e-03
2.633841262142e-03
2.465021985990e-03
2.504855940460e-03
2.626954113001e-03
2.460627946581e-03
2.459281500191e-03
2.628877804265e-03
2.463978196257e-03
2.633359730070e-03
2.466114496976e-03
2.631825731881e-03
2.557842814581e-03
2.464193016864e-03
2.631244525693e-03
2.634203394462e-03
2.465367309286e-03
2.611601312478e-03
2.466838180282e-03
2.656093472301e-03
2.452256167998e-03
2.368738549867e-03
2.524902431015e-03
2.677255740190e-03
2.532401558562e-03
2.611856570448e-03
2.448380073333e-03
2.895347462543e-03
2.762954093961e-03
2.933492103758e-03
2.773940618943e-03
2.938129622360e-03
2.779861874844e-03
2.947517109028e-03
2.770436758339e-03
2.936171750745e-03
2.775705167697e-03
2.944993665868e-03
2.776162261490e-03
2.967674935110e-03
2.940979762038e-03
2.788576165275e-03
2.769633692862e-03
2.947728243539e-03
2.778133822446e-03
2.938167467260e-03
2.780092728751e-03
2.946956698666e-03
2.779489675693e-03
2.817224370005e-03
2.950134646900e-03
2.777240784832e-03
2.942772889533e-03
2.773283112852e-03
2.775691965232e-03
2.943314050847e-03
2.958430064026e-03
2.871806310958e-03
2.678495565508e-03
2.898963514100e-03
2.818430404747e-03
2.887802313650e-03
2.791363294968e-03
2.764226645725e-03

SCALARS element_materi_plasti_phimob float
LOOKUP_TABLE default
3.801408130634e+00
3.072457320977e+00
1.973167270119e+01
1.960804829800e+01
1.592724117777e+01
-4.246898300786e+00
1.596329818409e+01
3.611215543997e+00
1.597516090991e+01
1.958014814707e+01
2.045017202081e+01
-3.943270905581e+00
2.069100648485e+01
1.655339868195e+01
2.060451911618e+01
1.974703330460e+01
1.568114601729e+01
-4.892777771880e+00
9.438961468013e+00
1.021011540792e+01
1.957053747266e+01
6.198746196765e+00
8.743755024585e+00
2.074640774499e+01
1.714827578656e+01
2.059749095565e+01
1.463213650328e+01
2.005039326020e+01
1.712711523272e+01
2.082037613036e+01
2.950087648936e+00
-2.092142915833e+01
1.971015821646e+01
2.074613279343e+01
2.071032464776e+01
2.071491211405e+01
2.064152692652e+01
2.054578672814e+01
1.498861298106e+01
1.505488015809e+01
1.119480350545e+01
2.059638259080e+01
-6.163771054292e+00
1.462213975275e+01
1.942977486258e+01
-1.400191685184e+00
-3.996554499564e+00
1.946795136074e+01
-2.164340380246e+01
1.616260013610e+01
1.011503905314e+01
1.268567530868e+01
1.116989480233e+01
9.669152845237e+00
1.970708581960e+01
1.617023585373e+01
1.342455099713e+01
2.078696036251e+01
3.921094357537e+00
1.973737780020e+01
-2.727421648166e+01
2.009923313388e+01
1.186800432678e+01
9.385730511480e+00
2.069004977273e+01
8.022032246035e+00
-2.942285463723e+01
1.969679880371e+01
5.358405207648e+00
1.987671705359e+01
2.065844778614e+01
1.997362268669e+01
1.983083277634e+01
-1.511185366112e+01
1.672806916238e+01
1.960728402738e+01
1.967770919496e+01
-1.937228310819e+00
4.273589333228e+00
-3.123571473742e+00
5.763032087508e+00
1.564659191884e+01
7.298471704989e+00
3.349817618380e+00
1.641260350330e+01
1.643106706732e+01
2.069909096674e+01
2.076560353048e+01
1.866682366905e+01
1.585660484951e+01
-2.131246948083e+01
1.559497596707e+01
1.856085717613e+01
1.845196567743e+01
1.991201112781e+01
2.044855848500e+01
1.558317757137e+01
2.088164321782e+01
1.720904024405e+01
1.061878891376e+01
1.544478802722e+01
2.065736202241e+01
1.968758112214e+01
2.006372231270e+01
1.220513657420e+01
-5.375257025477e+00
2.073062589271e+01
1.886574819668e+01
-2.230479082358e+01
2.053609361461e+01
1.844964168049e+01
-2.624310732642e+01
1.582551561536e+01
1.444600032716e+01
1.841399083249e+01
8.960489862827e+00
1.222321966119e+01
2.069811892210e+01
1.696466185803e+01
1.133649856771e+01
4.333637329997e+00
1.554543362174e+01
1.889678986160e+01
1.177694521692e+01
-1.017746197928e+01
1.305238551967e+01
1.823737260505e+01
1.208223665762e+01
1.975651621000e+01
8.730350171383e-03
2.058302723585e+01
1.962050017890e+01
1.380046612226e+01
1.222221558365e+01
2.080360820004e+01
2.068051823160e+01
2.072881964841e+01
1.446490601852e+01
2.083618837808e+01
1.293270522152e+01
1.968158861815e+01
1.984333362271e+01
1.649971677160e+01
1.792392610132e+01
1.300564100030e+01
1.105290978595e+01
1.508540880224e+01
1.391804762516e+01
1.563878353785e+01
1.643746205548e+01
-2.221754638597e+01
1.638769186795e+01
5.253472382391e+00
1.381142981888e+01
2.058769356681e+01
1.103564565456e+01
2.075093238521e+01
-1.338884300780e+00
1.964074943583e+01
1.578283597276e+01
1.632259309104e+01
2.077099817458e+01
4.393339894242e+00
2.073787437242e+01
1.543496937911e+01
2.080073958831e+01
1.573648621144e+01
1.339445671042e+01
1.373693899418e+01
2.056574952528e+01
-2.873629325224e+00
1.687299644298e+01
1.820839184878e+01
1.571415606326e+01
1.472888156006e+01
1.296991411851e+01
1.915200079267e+01
1.893524140913e+01
2.010652785512e+01
1.986290042938e+01
7.471279246987e+00
1.900429838110e+01
2.071039467405e+01
1.209065498897e+01
4.356997091055e+00
1.497085633702e+01
1.513387424806e+01
1.969840137736e+01
1.844948280509e+01
2.076212625264e+01
-3.508156433441e-01
1.728104631553e+01
1.867798800361e+01
-4.556691365811e+01
1.206126630062e+01
2.083135215815e+01
-4.360914906463e+00
1.961674513492e+01
1.772717227536e+01
1.939524695412e+01
2.092057200505e+01
1.626342409606e+01
1.687016701890e+01
2.069346469332e+01
1.679920126405e+01
1.574770834975e+01
1.588472330485e+01
1.800197002610e+01
1.590410552749e+01
1.492818539339e+01
1.960454294512e+01
1.891434626509e+01
-2.715845386997e+01
7.135911611467e+00
1.020844409499e+01
1.517793377103e+01
1.867019475319e+01
8.190372855591e+00
2.088437390983e+01
1.561316600601e+01
1.685941094128e+01
2.091519804514e+01
-1.710114841550e+01
1.825520212697e+01
-2.347067611580e+01
-3.654613804426e+00
-4.385213304851e+00
1.489726941203e+01
1.848924661616e+01
1.366977250500e+01
1.025726227633e+01
1.008657303337e+01
7.320627995631e+00
2.083530014245e+01
1.541131741712e+01
2.073175346124e+01
-5.160172957359e+01
1.265953095557e+01
1.750225466498e+01
1.093926912118e+01
2.097800417496e+01
2.077429586339e+01
1.819620405060e+01
1.658335351251e+01
2.076947768863e+01
2.067082823869e+01
1.558286520575e+01
1.796812114797e+01
2.001793839101e+01
1.789757570148e+01
1.073664986965e+01
1.669091101269e+01
1.992430639785e+01
1.584789382577e+01
1.932598160016e+01
1.653377918382e+01
2.421075761037e+00
1.592008166976e+01
1.649766437568e+01
1.347666363319e+01
5.675490971177e+00
1.851886746459e+01
1.630640826635e+01
1.309379464463e+01
1.873457340188e+01
1.842817741778e+01
1.597041105197e+01
2.056504595291e+01
1.962777123876e+01
1.633881376770e+01
1.608191561847e+01
1.956976008658e+01
1.609893000212e+01
1.557605990834e+01
1.866178530528e+01
1.769569768852e+01
1.821791676112e+01
-4.024183657429e+01
1.633712048691e+01
1.759275804964e+01
1.342794950782e+01
1.538413588440e+01
1.704438361799e+01
-5.793030659700e+00
1.118069068382e+01
1.984143656412e+01
1.631073279123e+01
1.634598112135e+01
3.829797088588e+00
1.824989856558e+01
1.676720777244e+01
8.760882799063e+00
1.794919760556e+01
1.147525581495e+01
1.870624526383e+01
1.791678222088e+01
6.722270495683e+00
1.669714361844e+01
5.538615700917e+00
1.992608153764e+01
1.996097819572e+01
1.636960427160e+01
1.658527539016e+01
1.326467721342e+01
1.675212634339e+01
1.503852887131e+01
1.739643447799e+01
1.551491510167e+01
1.968166285942e+01
1.731976316636e+01
1.948253301453e+01
1.016366379640e+01
2.071498381919e+01
1.523856990876e+01
1.608690050495e+01
1.110541189810e+01
2.074226239531e+01
1.838231692297e+01
1.794609905423e+01
1.588930948511e+01
2.003882354495e+01
1.824036068365e+01
1.995650278561e+01
9.634521337601e+00
1.761973184783e+01
2.100906154515e+01
9.909774186232e+00
1.734583447180e+01
2.012695170235e+01
2.098400353225e+01
2.000197490007e+01
1.723345337061e+01
1.843852929807e+01
6.284559048738e+00
1.490476917663e+01
1.632330683404e+01
1.669547877792e+01
1.556001259453e+01
2.025031758195e+01
1.684411258182e+01
1.549274704501e+01
1.818343241927e+01
1.201829643848e+01
1.433476135836e+01
1.165996802409e+01
1.575153352268e+01
1.736780668566e+01
1.753362853182e+01
1.847742982071e+01
1.294213523781e+01
1.542440607154e+01
2.018324348647e+01
2.077332412818e+01
2.042151638107e+01
1.297899248033e+01
1.771278147075e+01
1.885985129803e+01
5.689113152738e+00
7.944238310931e+00
1.888187022937e+01
1.646803043330e+01
1.107030851400e+01
1.431159704159e+01
2.066592924428e+01
2.057990913145e+01
1.889633902684e+01
1.822919469437e+01
2.052031571462e+01
1.281649512518e+01
1.626059503850e+01
1.752762059933e+01
1.615931864317e+01
2.056596364323e+01
1.968082199370e+01
1.892253455857e+01
1.709438271946e+01
1.529556781126e+01
1.592547030289e+01
1.402445938161e+01
1.995951636323e+01
1.995083789018e+01
1.960389478352e+01
2.071991220062e+01
1.876226051676e+01
9.166590255802e+00
1.831703918983e+01
1.233682915032e+01
1.225802280755e+01
1.556845153215e+01
1.726861395289e+01
2.080035167258e+01
1.889769070787e+01
1.670157550609e+01
1.707041520818e+01
1.491678209595e+01
-5.477769088658e+00
1.706931302335e+01
1.626722327282e+01
1.717467759658e+01
-7.961354358266e+00
1.651883149684e+01
1.017509412559e+01
1.494136021287e+01
2.048807511453e+01
1.996574874744e+01
1.552837900954e+01
4.128321624245e+00
1.541986400609e+01
1.753283129378e+01
1.703334205344e+01
2.006995700579e+01
1.490070404080e+01
1.677550548360e+01
1.987654074011e+01
1.872162303421e+01
2.091783281224e+01
2.008243516989e+01
2.012495640514e+01
2.003132358486e+01
2.005763227937e+01
1.737458851738e+01
1.869421130028e+01
1.911104284135e+01
1.377947665751e+01
1.255202632321e+01
1.929775459024e+01
1.889606344590e+01
2.018040509654e+01
1.894622271827e+01
1.978377557288e+01
1.892193234319e+01
1.863942844527e+01
1.591644346381e+01
1.210273782544e+01
1.296890381574e+01
1.971053139257e+01
1.342154199762e+01
1.975233837430e+01
1.948755663695e+01
1.624603194767e+01
2.058225403000e+01
1.422655470077e+01
2.015856515737e+01
1.973006454435e+01
1.689392818138e+01
-2.274322207971e+01
2.022033724515e+01
2.052833852841e+01
1.687129011801e+01
2.011468251862e+01
2.053615840710e+01
-5.766286676575e+01
1.484581434630e+01
1.716387494231e+01
1.662703889914e+01
1.642400808099e+01
1.325925547607e+01
2.028920705496e+01
1.885095053342e+01
2.145879949643e+00
2.081329325223e+01
-2.231103969880e+01
1.365984242033e+01
4.646469000685e+00
1.433137384052e+01
2.068202795617e+01
2.035605833149e+01
1.669720795824e+01
-4.897006118540e+00
-3.304053345447e+00
2.853867728388e+00
2.090195726627e+01
1.557201932187e+01
1.595413752923e+01
2.041088838580e+01
1.562719871276e+01
1.994241235315e+01
1.889016250467e+01
1.698451599763e+01
8.319460327529e+00
2.002771279496e+01
1.014010681164e+01
2.044713452934e+01
2.008837653211e+01
2.004882909870e+01
2.077531230910e+01
1.884809984545e+01
1.608530246756e+01
2.094204117966e+01
2.046730577266e+01
1.528025188922e+01
1.867473693636e+01
1.902192903177e+01
1.736745615563e+01
2.074632169659e+01
-5.966725661194e+00
2.048065628957e+01
1.835161519343e+01
2.019506377952e+01
1.909123474441e+01
-5.747981979988e+01
1.572441442236e+01
1.896511669758e+01
2.025871073310e+01
1.737097990716e+01
1.917236084499e+01
8.575582854346e+00
2.057935087816e+01
1.868928807626e+01
1.858386879335e+01
-2.169592683225e+01
2.032267176156e+01
1.409431477698e+01
2.087553774374e+01
1.660393273108e+01
1.643062996112e+01
1.819635007585e+01
1.707794679334e+01
2.043366462496e+01
1.927567528554e+01
2.091408777419e+01
1.693411713078e+01
2.074115681955e+01
1.877258858425e+01
2.084594061383e+01
1.647428759753e+01
1.845515005075e+01
2.018071348287e+01
1.676033346010e+01
1.973459259643e+01
1.499965860893e+01
1.902786728887e+01
1.893290362950e+01
2.002310929581e+01
2.070583389688e+01
1.912890794086e+01
1.561604384766e+01
2.047343792090e+01
2.072860771548e+01
1.767826239124e+01
-2.200589539919e+01
2.072559237620e+01
1.910231373794e+01
1.741889240400e+01
2.048983813841e+01
2.088093582032e+01
1.317553723256e+01
1.634805083949e+01
1.976430795881e+01
2.059808462454e+01
2.071311930069e+01
1.769935949357e+01
1.438763288164e+01
2.005842632632e+01
1.712848508632e+01
1.950275897792e+01
2.031853268932e+01
1.825057880080e+01
2.076460411276e+01
-5.457350885501e+01
1.445947626911e+01
1.784667761533e+01
2.000387775641e+01
1.738467563913e+01
2.099938002569e+01
1.706298296232e+01
1.689809289178e+01
2.049247416028e+01
1.719671802338e+01
2.010744793933e+01
1.694661518953e+01
1.984247738928e+01
-5.665629219938e+01
1.673387992016e+01
1.864005673976e+01
-5.860334358955e+01
1.980536899395e+01
2.102710301431e+01
1.903086071028e+01
2.061597351094e+01
2.080352010763e+01
1.505015207095e+01
1.464139607250e+01
1.970454817053e+01
1.670296657752e+01
-6.320991822912e+01
7.165331365326e+00
-2.234863705298e+01
1.588781560049e+01
1.914822091135e+01
1.902312859469e+01
2.097003836676e+01
1.704515179350e+01
2.067261054653e+01
2.092561710120e+01
9.647875156508e+00
1.857220844698e+01
1.699453742862e+01
2.075938935372e+01
2.049286469286e+01
1.926921426887e+01
1.995799828460e+01
2.081862829705e+01
2.086844158297e+01
9.467548921790e+00
2.097793298691e+01
-4.234540313664e+00
1.952613405788e+01
2.012341468475e+01
-2.092694001346e+01
1.887840267582e+01
1.916086971665e+01
-6.157992814737e+01
1.459703827486e+01
1.461436707380e+01
2.064734668931e+01
1.697149002146e+01
1.788422616290e+01
1.078170518235e+01
2.085810495558e+01
1.997559258790e+01
1.873339917863e+01
9.050647543457e+00
-1.264051685056e+00
1.434073169550e+01
1.474107144250e+01
1.477498718792e+01
-5.794015319147e+01
-2.129762430337e+01
-3.792370585870e+00
1.431674946418e+01
-2.046168553042e+01
1.962578427373e+01
-5.206122191230e+01
1.635624370918e+01
1.766886706215e+01
1.466363219419e+01
1.927413031677e+01
2.100290908706e+01
1.712151322039e+01
1.758606041757e+01
-4.165822025219e+00
1.995812806971e+01
1.991390228965e+01
1.662299403028e+01
1.471126326063e+01
1.764564128327e+01
1.991095604927e+01
1.539275234852e+01
1.462362418737e+01
1.463331968093e+01
1.366374273056e+01
2.002228364385e+01
1.989137339211e+01
-2.089679739943e+01
-5.764067819418e+01
3.359419477463e+00
2.028865789180e+01
2.072487216200e+01
-4.524596685609e+01
1.873000269427e+01
-5.333594761647e+01
2.086833988464e+01
-5.128873143339e+01
-4.825384636253e+01
2.091051118691e+01
2.076599036045e+01
1.762223722380e+01
1.497199354954e+01
-2.080306961285e+01
2.069956852623e+01
1.993561389770e+01
1.991245415106e+01
1.469421620324e+01
2.079650382148e+01
1.995663570416e+01
1.924725943614e+01
-4.713990294908e+00
-2.064220995859e+01
-2.123310009421e+01
1.851980252487e+01
2.069286928923e+01
1.961378676733e+01
-5.765624254140e+01
1.954223904596e+01
2.049622158418e+01
2.073025743235e+01
2.073627378754e+01
1.829639685933e+01
1.892953633514e+01
2.048126250503e+01
2.048829330669e+01
1.872653408499e+01
8.999999999681e+01
1.475764399339e+01
1.475133080017e+01
-5.772807987799e+01
2.049401306095e+01
2.077972086072e+01
2.048199801579e+01
-6.114635307333e+01
-6.079964696017e+01
2.048890837984e+01
2.048800496404e+01
1.805946791028e+01
1.478472718152e+01
1.851380682516e+01
1.682201015950e+01
1.478373549576e+01
-6.222078294452e+01
-6.013526706283e+01
-6.125105453623e+01
-5.999707690684e+01
1.982381187607e+01
1.923945274080e+01
-5.791317990997e+01
2.060053371974e+01
-5.780581545349e+01
1.998742433295e+01
1.994663434414e+01
1.996091573848e+01
7.367731061456e+00
1.623220304568e+01
1.993806573260e+01
2.077409169900e+01
1.995979914990e+01
2.075474115571e+01
2.069160220826e+01
1.889847355754e+01
1.990781251291e+01
1.991943555572e+01
2.074834768670e+01
2.071702412610e+01
2.072661617582e+01
-5.506450937930e+01
1.918848887408e+01
-2.136642855296e+01
2.081934652837e+01
1.966415571564e+01
2.082674946290e+01
1.299411625293e+01
-5.053898054110e+00
2.078714542005e+01
1.964550520582e+01
1.819921943148e+01
2.080460346904e+01
1.925983896598e+01
1.808799254066e+01
2.093537596152e+01
2.086824643427e+01
2.076676421861e+01
2.077563010156e+01
1.891662662431e+01
1.372203747262e+01
1.686535844618e+01
2.077149592803e+01
2.079460263757e+01
2.078384500654e+01
1.403456681132e+01
1.922443223177e+01
1.886367069741e+01
1.617609641680e+01
2.085573602512e+01
2.077198347220e+01
1.927431236485e+01
1.907147985661e+01
2.073335007143e+01
2.074618394986e+01
1.875086568288e+01
2.074847637567e+01
2.077351296438e+01
1.923419404743e+01
1.815159018882e+01
2.093059358790e+01
1.340780378456e+01
1.292066511812e+01
-1.383957135991e+00
-2.191182387853e+01
1.906500385655e+01
2.076567272585e+01
-2.229319202701e+01
1.907371212574e+01
1.652231341132e+01
2.081378179153e+01
2.079503046767e+01
1.826045061803e+01
2.078527437158e+01
1.615080308636e+01
2.024710781727e+01
2.072764104211e+01
1.291386823224e+01
2.081815038744e+01
1.842508571724e+01
1.442638215301e+01
1.519511401318e+01
2.017855625524e+01
1.754746017209e+01
1.814893224466e+01
1.867414873593e+01
1.791184692723e+01
2.020255444823e+01
2.076096266038e+01
2.078867639905e+01
1.843772438058e+01
1.061790206679e+01
1.994242163422e+01
2.013965658893e+01
1.861714580649e+01
1.944696980335e+01
2.075630668045e+01
2.083760156307e+01
1.815490183359e+01
-3.840107396855e+00
-1.928903113623e+00
1.390897461655e+01
2.080929426526e+01
1.787019806007e+01
2.037392907015e+01
1.688634038143e+01
2.087482487024e+01
2.029198488957e+01
2.080506628537e+01
1.329180191883e+01
2.083451346893e+01
2.009581051326e+01
1.436538081216e+01
1.985349211998e+01
1.848255085665e+01
1.612300982237e+01
2.043125857857e+01
-5.705848823458e+01
-5.636799946765e+01
2.072047437848e+01
1.207340542955e+01
2.077956670077e+01
2.077161963786e+01
1.928991715189e+01
1.622414234818e+01
1.896594328456e+01
-1.126401353383e+00
1.881390581636e+01
2.080951667963e+01
9.923393754743e+00
1.726498051181e+01
1.652555131589e+01
9.246673159394e+00
2.087859302599e+01
1.828711594892e+01
1.221956922609e+01
1.912073840470e+01
1.914028569504e+01
1.367285946372e+01
9.640481545252e+00
1.409186971173e+01
2.077591105035e+01
2.037357691755e+01
1.913065220601e+01
1.898150128177e+01
2.078140606283e+01
2.084046887060e+01
1.124926288989e+01
2.082072430621e+01
1.830547358247e+01
2.030743607436e+01
1.785691552308e+01
1.855190676781e+01
1.937280612697e+01
1.881086702211e+01
1.969966145616e+01
2.022068732390e+01
1.789437481631e+01
1.851905633320e+01
1.809583010372e+01
2.041605919736e+01
1.501028082229e+01
3.184013394567e+00
1.807826304172e+01
1.521686015869e+01
2.079913163257e+01
1.837101824597e+01
2.085762398291e+01
2.056605632447e+01
1.934158361223e+01
1.383705161040e+01
6.265842508011e+00
2.084049441675e+01
1.762478388538e+01
-2.251555334090e+00
1.792950645542e+01
1.156150455929e+01
1.752750434932e+01
1.825271179070e+01
2.086570745892e+01
1.781514475795e+01
1.885670159389e+01
1.694135483070e+01
2.089598330844e+01
1.251222446689e+01
2.084585066201e+01
2.002288509577e+01
2.088936429942e+01
1.915368686506e+01
1.171232027344e+01
1.695876048477e+01
2.081473711874e+01
1.511493319321e+01
1.760839517446e+01
1.429596111673e+01
1.770980745552e+01
1.009927851222e+01
2.087149477796e+01
2.076823230696e+01
2.011935302785e+01
1.934092722908e+01
2.065686286190e+01
1.073000669432e+01
2.083242722571e+01
2.088582341560e+01
1.743660831747e+01
2.082926022623e+01
1.835924431420e+01
1.543499584759e+01
2.084347836668e+01
1.676002357997e+01
1.549696250333e+01
1.752573780148e+01
1.703914269020e+01
2.091666182069e+01
1.336712890267e+01
1.688843584379e+01
1.802023263500e+01
1.727643981207e+01
1.709098617211e+01
2.008129803616e+01
2.090178408447e+01
2.081073617645e+01
1.688083407090e+01
1.928668461900e+01
1.999702426465e+01
2.093688292981e+01
1.856798112631e+01
1.880432103661e+01
1.821668305161e+01
1.111817084862e+01
2.089761273683e+01
1.854842299902e+01
1.776903571222e+01
1.743208484553e+01
1.991982992242e+01
1.731776217295e+01
1.837068630021e+01
1.776522557373e+01
1.846813448794e+01
1.269086732801e+01
2.091663778270e+01
1.998112104977e+01
1.879708016883e+01
2.030418047720e+01
2.095104353638e+01
2.066842376717e+01
1.776675874718e+01
1.250739571241e+01
2.093744032142e+01
2.086524419091e+01
1.827459934477e+01
1.906861104432e+01
2.084786000637e+01
1.778929897456e+01
1.906373544380e+01
1.507235302719e+01
1.675721647595e+01
1.572275511076e+01
1.930570119393e+01
1.597337432073e+01
1.466005506526e+01
2.048941647106e+01
2.094873281171e+01
1.923351941168e+01
-5.748286990291e+01
2.032405196325e+01
2.019469097701e+01
1.957467546139e+01
1.745321334993e+01
2.038998328732e+01
1.744368889240e+01
1.972526304547e+01
1.863232678621e+01
1.733360700956e+01
2.081004990638e+00
8.825990134871e+00
1.686365829659e+01
1.813518753431e+01
2.044844762288e+01
2.006481737777e+01
1.096827672661e+01
8.859650754190e+00
1.695107170962e+01
1.579752340763e+01
2.101008043969e+01
1.911193238449e+01
1.704899366078e+01
1.887136169600e+01
1.935481580835e+01
1.953327083251e+01
1.872324364692e+01
1.312697843663e+01
1.987215345028e+01
1.802761782521e+01
1.622802079314e+01
9.059121633947e+00
1.876539290260e+01
1.993548622554e+01
2.021974203778e+01
1.662708445864e+01
2.061584861547e+01
2.008789831648e+01
2.048596898551e+01
1.784005508354e+01
2.055733195065e+01
1.800043201430e+01
2.031565329772e+01
2.096004564305e+01
1.485709871832e+01
2.087564605041e+01
2.054085176297e+01
1.950492400566e+01
1.744771333892e+01
1.473755673155e+01
1.735414328893e+01
1.899100652520e+01
2.070407330507e+01
1.555793729765e+01
1.765061246307e+01
1.612777563114e+01
1.133227144807e+01
1.959059530635e+01
8.662626703854e+00
2.046842782389e+01
1.919259670613e+01
2.069532117922e+01
1.717694734527e+01
1.867228014278e+01
2.029914180237e+01
2.010613526550e+01
1.924142563783e+01
2.098067642355e+01
1.821371647374e+01
2.095797210888e+01
1.366389085194e+01
1.841223466130e+01
1.995650008793e+01
2.088498332227e+01
2.009805352709e+01
1.715535546554e+01
1.678512763269e+01
2.032775381248e+01
2.099703768713e+01
2.101526443878e+01
6.151680498862e+00
1.753349471724e+01
2.035622899197e+01
2.014024689001e+01
1.660796936016e+01
1.941232192714e+01
1.910989143295e+01
1.917660385177e+01
1.391229889627e+01
1.856973861976e+01
2.090162156454e+01
1.930050108572e+01
1.813157620908e+01
2.017552409179e+01
2.009734009222e+01
1.843935517322e+01
1.907364917487e+01
1.850460231047e+01
1.823738735618e+01
2.096213708882e+01
2.031670861954e+01
2.098789739071e+01
2.086292549004e+01
1.288897204950e+01
2.061118093054e+01
1.803083942948e+01
1.481342843681e+01
2.025191716352e+01
2.070138241628e+01
2.025302910548e+01
1.675944264837e+01
2.002655277126e+01
2.036792103299e+01
1.492756225097e+01
2.046244121451e+01
1.758548729934e+01
1.548130738349e+01
-1.746437511588e+01
2.070081990914e+01
2.082347828899e+01
1.929412428651e+01
2.018695582028e+01
2.070795907620e+01
1.768771715953e+01
-2.318696673974e+01
2.070843766658e+01
2.036840374819e+01
1.544693503447e+01
2.093116835723e+01
1.550115175319e+01
2.093379678636e+01
2.092583756683e+01
2.054436309553e+01
1.848569245341e+01
1.926898714415e+01
2.085509888498e+01
-2.476092879182e+01
1.791509727348e+01
2.007431259246e+01
1.869446757209e+01
2.045086404650e+01
2.001477555560e+01
2.042423197325e+01
7.225780404406e+00
1.892677119850e+01
1.561570595676e+01
-7.166651609647e+00
1.902175656645e+01
1.934814997302e+01
1.384522213626e+01
1.720922731322e+01
1.816069911241e+01
2.035691327779e+01
1.598048898803e+01
1.538969946456e+01
9.481851719360e+00
1.449158561996e+01
1.244631298187e+01
2.033332253121e+01
1.991322310799e+01
1.880314283343e+00
2.091565011611e+01
1.930367520738e+01
1.783218684844e+01
1.291030534526e+01
2.081392666948e+01
1.174230013744e+01
1.715864173636e+01
2.042978865963e+01
2.042140657880e+01
2.013905754670e+01
1.372832987746e+01
1.828201694667e+01
2.047306631604e+01
1.794407367233e+01
1.928451988104e+01
1.860142893271e+01
1.878667089941e+01
1.483118660870e+01
2.092750103284e+01
1.836946199296e+01
1.911537200622e+01
6.954175253240e+00
2.037111341461e+01
1.702940743462e+01
1.643814939657e+01
2.021534682364e+01
1.007327867417e+01
1.751081371524e+01
2.061427042892e+01
1.917389859544e+01
1.934548743697e+01
2.045831179661e+01
1.884878748286e+01
1.907404682946e+01
1.887433090709e+01
1.016303128320e+01
1.929706476478e+01
1.236987370075e+01
1.317266607662e+01
1.983332719906e+01
1.398853743477e+01
1.867251612985e+01
1.806998816417e+01
2.027136228176e+01
1.529604220738e+01
2.000000266280e+01
1.909472947957e+01
1.931734607058e+01
2.095405114325e+01
2.033863828179e+01
2.060973688067e+01
1.881108330829e+01
2.030511244641e+01
2.087260331036e+01
1.862865050761e+01
1.854254710055e+01
2.065135309718e+01
1.960011661390e+01
1.923460023647e+01
1.743274091293e+01
1.452943650193e+01
1.635709845315e+01
1.458928706510e+01
1.712851417922e+01
2.082800475172e+01
1.834287528150e+01
1.967796430328e+01
1.796712338392e+01
2.074387919004e+01
1.890905117683e+01
1.936083921076e+01
1.754290001859e+01
2.093320771552e+01
2.021718982387e+01
2.072030378412e+01
1.731468967498e+01
1.922960654081e+01
1.949147567380e+01
2.056844679304e+01
1.596228912827e+01
1.952617530596e+01
1.805205404891e+01
1.923885149784e+01
2.047883691853e+01
2.091395167667e+01
1.508565866550e+01
2.045584524502e+01
1.766444216894e+01
2.079520059374e+01
1.794771906117e+01
1.924820216566e+01
1.737346064893e+01
1.676988165442e+01
1.778044458081e+01
2.041655622394e+01
2.090112912335e+01
1.809327093152e+01
1.936075009221e+01
1.707301512692e+01
1.889220315500e+01
1.956773500536e+01
1.927905296754e+01
1.818988149384e+01
1.795776811030e+01
1.934962579928e+01
1.830998077883e+01
1.420316918590e+01
1.900617375294e+01
1.439025336770e+01
2.031532691236e+01
1.981606837444e+01
1.973295647527e+01
5.920287553968e+00
1.933107089351e+01
1.463387585137e+01
2.069083594765e+01
1.979830779327e+01
1.806493478906e+01
2.092162304514e+01
1.838400055139e+01
1.947071372863e+00
2.081662254697e+01
1.758841591178e+01
1.981188859835e+01
1.945655496398e+01
-1.108272776871e+01
2.099697752725e+01
1.647875679300e+01
1.750726048377e+01
2.059877887640e+01
1.975454782277e+01
2.083217188086e+01
1.844547639218e+01
1.942577095961e+01
1.781168788908e+01
8.151448776228e-01
1.875116547522e+01
2.035238965600e+01
1.960607369666e+01
1.912772544539e+01
1.782448241276e+01
2.088068982580e+01
1.943191089778e+01
2.035286424648e+01
2.024424126372e+01
1.902965843540e+01
1.831796418219e+01
2.081534758385e+01
2.015358256364e+01
1.899633915387e+01
1.786156089148e+01
2.086771784759e+01
2.092283358006e+01
1.481340585158e+01
1.481361064571e+01
1.792805505148e+01
1.859575095997e+01
2.063945728394e+01
1.801235986787e+01
1.862580792658e+01
2.079544403497e+01
1.877946504424e+01
1.992808769636e+01
1.597725704010e+01
1.825381763751e+01
2.073603912293e+01
1.715393557817e+01
2.027256502019e+01
1.813324312095e+01
1.733767659629e+01
1.779512878969e+01
1.830394343852e+01
1.849547184535e+01
4.108932433060e+00
2.019960410124e+01
1.476630215487e+01
1.769356433574e+01
1.794656039037e+01
2.055310742863e+01
1.189671222492e+01
1.329956664780e+01
1.744255778553e+01
2.000354058112e+01
1.321241850776e+01
1.396016268488e+01
1.776403478562e+01
1.226684674221e+01
2.056990063220e+01
2.078721701222e+01
1.428232923927e+01
2.005536772134e+01
1.901117253092e+01
2.021758236223e+01
2.091676954798e+01
-3.777266775446e+00
2.084524729956e+01
1.766878750563e+01
-4.077486681242e+00
1.903422342995e+01
1.177326003587e+01
1.769704489944e+01
1.739503186890e+01
2.042329359956e+01
2.097408423839e+01
1.920001433243e+01
2.101993308380e+01
1.789451244863e+01
1.754134075675e+01
-1.812840595737e+01
9.985930828901e+00
1.935620845879e+01
1.710245213022e+01
1.956307753578e+01
1.604082602069e+01
1.869439826682e+01
1.946135133881e+01
1.444812754595e+01
1.934269276909e+01
2.085863801665e+01
1.848163820650e+01
2.052248841599e+01
2.054915138599e+01
1.931787070613e+01
2.087260069389e+01
1.775149500039e+01
1.940452225499e+01
2.101723681844e+01
1.850032958454e+01
1.874690056489e+01
2.065744171103e+01
1.895234656773e+01
1.800424452765e+01
1.873387235905e+01
1.780198064033e+01
2.043409974376e+01
2.051461008365e+01
1.847396619592e+01
1.747244702916e+01
2.087484312571e+01
2.083387562838e+01
7.351550511830e+00
1.811230510962e+01
2.077857375618e+01
9.769271269831e+00
2.049243608514e+01
-1.922759532465e+01
2.083304542935e+01
1.822612805969e+01
2.023494840584e+01
1.973704496200e+01
1.744042315313e+01
1.711003278771e+01
1.800649903778e+01
1.136202202775e+01
1.235793077191e+01
2.081469308520e+01
2.087945150894e+01
2.061331612933e+01
2.090159850237e+01
2.053375576496e+01
1.821447419776e+01
1.127437337187e+01
1.640723776052e+01
1.482295573569e+01
2.052694703602e+01
1.876974510050e+01
2.042740132312e+01
2.077615110489e+01
2.044470082289e+01
2.071469366079e+01
1.914611342322e+01
2.031717090218e+01
1.808195952254e+01
1.879570543707e+01
2.081033764606e+01
1.909390880215e+01
1.792821936829e+01
2.046691899946e+01
1.759328767168e+01
1.606668734341e+01
1.923920259598e+01
2.054673962214e+01
2.075429953344e+01
1.755527238043e+01
-1.820632579327e+01
1.965709116042e+01
-4.699133418454e+00
5.750478395656e+00
2.060507835241e+01
1.900621453497e+01
1.739530470885e+01
8.847468989538e+00
2.000682442511e+01
-2.297012901929e+01
1.020933013535e+01
2.082295797665e+01
2.031183958232e+01
1.370510798870e+01
1.971105302009e+01
2.079347744662e+01
1.819343927781e+01
1.987564513676e+01
1.911406695476e+01
1.157570300206e+01
2.036149022389e+01
2.048213744596e+01
1.648106524919e+01
1.505604403901e+01
1.737649077361e+01
2.071783158606e+01
-4.468444790754e+00
-2.128494891651e+01
1.169218065961e+01
2.039671811998e+01
1.967036148234e+01
1.911613758400e+01
1.834945418854e+01
2.063796527261e+01
1.794073331246e+01
2.053338841386e+01
1.980889518902e+01
1.813673023968e+01
1.620869661821e+01
1.994672993654e+01
2.047016428142e+01
2.054858189537e+01
4.983038693146e+00
1.993834023299e+01
2.057081007278e+01
1.778740407455e+01
1.722690579939e+01
7.166202644432e+00
2.066473291530e+01
1.889732305915e+01
5.782017159810e+00
2.025502213535e+01
1.051182992058e+01
1.951344918300e+01
1.937029490227e+01
8.601155014316e+00
2.053325679198e+01
1.547728559954e+01
1.542966578056e+01
2.059957535604e+01
2.055416172989e+01
2.042965103394e+01
-1.312729437780e+01
1.911853212006e+01
1.992841863697e+01
2.077704071795e+01
1.890699915895e+01
2.068487962447e+01
2.063926724565e+01
1.972034625651e+01
1.354405228046e+00
-1.187484379998e+01
2.069315226242e+01
2.090455962887e+01
1.858366827197e+01
1.842662773939e+01
8.176335267394e+00
1.831687517469e+01
2.086352425825e+01
-3.981324763572e+01
1.995024456412e+01
2.049062191181e+01
1.596780377207e+01
1.978705864367e+01
1.853881781030e+01
1.932780712424e+01
2.219423508366e+00
-2.465805508556e+01
1.938205903314e+01
1.766052165102e+01
1.470254123236e+01
2.027926975837e+01
1.341116958572e+01
2.042435199347e+01
1.767656929119e+01
1.956536119964e+01
1.838000209589e+01
1.969510113972e+01
5.356775490082e+00
1.919476702633e+01
1.819715227774e+01
2.075844980518e+01
1.990689602610e+01
1.858895893892e+01
-4.850128663967e+01
1.997409506565e+01
1.845462033667e+01
1.882681230886e+01
1.786443643496e+01
1.850932308006e+01
1.074896996021e+01
-2.045750890802e+00
2.450152764950e+00
1.777962287348e+01
2.072289773484e+01
1.885807180078e+01
1.860082669054e+01
1.949515868764e+01
4.554687975195e+00
1.829422358740e+01
1.968219290048e+01
1.938899898760e+01
-4.324871016360e+00
1.003148633058e+01
2.064818439024e+01
1.849710353643e+01
2.079726182538e+01
4.123025546014e+00
2.082033432279e+01
3.827350146866e+00
1.909460557752e+01
2.091622905396e+01
1.886657097132e+01
1.760187326022e+01
1.742797433813e+01
3.887243954684e+00
2.098291620759e+01
3.457662884895e+00
-2.191840279152e+01
1.942924456011e+01
1.910407345915e+01
-2.293022244105e+01
2.087186428498e+01
1.456289800622e+01
1.566564811893e+01
1.900433753232e+01
1.901952405578e+01
1.885932764387e+01
1.972597960832e+01
1.477060496972e+01
2.062595722336e+01
1.323919581764e+01
2.062886930928e+01
1.886889234114e+01
9.097225207838e+00
1.822202790620e+01
2.009620451342e+01
-5.108047746258e+00
1.946387838185e+01
2.071043438669e+01
1.819187913940e+01
8.232501022934e+00
2.014904257978e+01
1.875865890514e+01
1.989209099448e+01
1.856341848613e+01
1.556689708417e+01
1.919378208787e+01
1.746197214568e+01
-5.572364831513e+00
1.992837611378e+01
1.975950026759e+01
1.647391354011e+01
1.957386611130e+01
1.980863050715e+01
2.017399896134e+01
1.960497648724e+01
2.071709888923e+01
-4.952526510514e+01
1.449732848952e+01
2.035355947313e+01
1.821510301830e+01
1.929210344579e+01
-1.364084838829e+01
-4.623826328973e+00
1.634177890192e+01
1.947266620548e+01
1.632840822238e+01
1.956605221257e+01
2.069725488842e+01
2.075274045498e+01
2.006789933385e+01
1.555882352364e+01
-2.992300840266e+01
-1.418553960220e+01
8.489093734207e+00
-1.554740041943e+01
1.918060514282e+01
1.897013227791e+01
1.938850191347e+01
-5.995788848202e+00
1.918615271147e+01
1.916719346704e+01
1.937983439639e+01
1.884942455240e+01
1.991270417425e+01
2.068150521341e+01
1.651120822588e+01
1.937809857249e+01
-2.469162559866e+00
1.985098416090e+01
2.049607131898e+01
-1.575161455670e+01
-1.464987594687e+01
2.057569464617e+01
1.566144523676e+01
1.942195959035e+01
1.875775371097e+01
2.010812406190e+01
1.888469870902e+01
1.661595162787e+01
1.698266607021e+01
1.737027268321e+01
1.801818164350e+01
1.981823240199e+01
1.459545156483e+01
1.572665474608e+01
1.643322907863e+01
1.666541158934e+01
6.034038620857e+00
1.626711851340e+01
1.968910302163e+01
1.732513454010e+01
2.053324660019e+01
1.946788446856e+01
1.822474160331e+01
1.937166507038e+01
1.898550118175e+01
1.848638241186e+01
2.080577161983e+01
-2.383591066856e+01
1.490999154328e+01
2.038762455984e+01
3.895725702779e+00
1.572724569459e+01
2.082931110250e+01
-7.293795693481e+00
-2.348090251977e+01
1.991304749200e+01
1.471150726430e+01
1.961728871490e+01
2.059840133219e+01
1.470625705655e+01
-2.759438039393e+01
1.970624696805e+01
5.747700140324e+00
1.947599937497e+01
2.049314950789e+01
1.945817249709e+01
1.200261128168e+01
1.633105931099e+01
1.910519269392e+01
1.957636362166e+01
2.053753175913e+01
1.854881349578e+01
2.065086310605e+01
-6.331313348581e+00
2.070096760125e+01
1.349265105054e+01
3.937669913415e+00
2.079364281780e+01
1.967500775080e+01
1.974383376478e+01
1.563993432109e+01
1.639338983741e+01
6.512403270059e+00
1.976849537330e+01
1.767993022359e+01
-1.407800283428e+00
1.987465524650e+01
1.473196011763e+01
1.949735001179e+01
1.989155342883e+01
1.995577715495e+01
8.999999999681e+01
-5.346978312924e+01
1.492331008544e+01
1.480456719851e+01
2.049402423108e+01
2.063494276458e+01
-2.477185080815e+01
-4.997196502446e+01
2.070213666419e+01
1.983521491453e+01
8.345575366866e+00
2.070377730414e+01
2.044714099584e+01
2.005960788343e+01
1.766312706640e+01
7.523231060713e+00
1.931828944848e+01
3.886702262319e+00
1.953960774273e+01
1.959908685214e+01
1.929679788978e+01
1.989915570818e+01
1.700273684123e+01
1.974734990785e+01
1.908512673929e+01
1.868359205525e+01
1.475963436575e+01
1.945350272073e+01
1.947524195121e+01
1.520954633595e+01
-2.231361524743e+01
1.953233431930e+01
2.065288502937e+01
3.549661667398e+00
1.805107887455e+01
2.059687066400e+01
1.963467354261e+01
1.979243818899e+01
2.062165559576e+01
-2.590782913635e+01
-1.761381575709e+01
4.995825540655e+00
1.629214690059e+01
1.933772703870e+01
1.950286252605e+01
2.053471458432e+01
-5.946709496284e+00
-6.595913050235e+00
-3.729693397739e+01
1.819044816811e+01
1.713623090019e+01
1.950225780631e+01
7.692790562690e+00
2.055987547192e+01
1.634313100820e+01
2.023080921359e+01
1.953601583754e+01
1.626626067312e+01
2.082388583123e+01
1.969724528632e+01
1.968472590613e+01
-1.929402611302e+01
1.939024546919e+01
1.993618805841e+01
2.064303215639e+01
1.982240647555e+01
2.049167059186e+01
1.869482618727e+01
-4.658513698934e+01
2.685152925479e+00
1.927850960602e+01
1.689859555060e+01
2.068829281487e+01
1.978676602057e+01
2.058329370439e+01
1.865945483890e+01
2.032158436375e+01
2.075080134843e+01
2.080557190940e+01
1.742170662843e+01
2.067565993130e+01
1.552907411177e+01
1.940752355608e+01
-5.756944424218e+00
1.914298604814e+01
1.807976926632e+01
-4.410319065366e+00
9.051422310931e+00
1.893061728767e+01
1.971124649893e+01
1.947016137005e+01
2.043215003903e+01
1.696855485240e+01
-2.274883301934e+01
-1.024215866232e+01
-1.761184522180e+01
1.255202020196e+00
-3.662519096495e+01
1.938246188862e+01
2.070558269490e+01
1.946681438702e+01
1.679727776892e+01
1.871233214332e+01
2.079419868563e+01
2.084963235929e+01
2.029513959962e+01
1.974731915278e+01
1.930388220789e+01
-6.102645457662e+00
-1.070552537371e+01
2.074916743619e+01
-4.348599266298e+00
1.801805058701e-01
-1.516746458858e+01
-7.515939053823e+00
2.062682643023e+01
1.987929817097e+01
1.952211972440e+01
2.026002526729e+01
2.076229900250e+01
1.734197549442e+01
1.998705062858e+01
1.269665830536e+01
1.464839001386e+01
1.681809542637e+00
-2.305397484081e+01
2.066890898321e+01
1.559220611974e+01
3.090702099370e+00
1.933934147594e+01
1.982983927703e+01
1.946238829477e+01
1.974900620874e+01
1.652816854743e+01
-9.926910419680e+00
2.079494756763e+01
1.990677867799e+01
2.069975302528e+01
1.558612963938e+01
2.064058230456e+01
3.867010402820e+00
1.953096206086e+01
-2.474050505244e+01
2.062501158340e+01
1.969036314239e+01
-2.590048980621e+01
1.964777878505e+01
1.843213801499e+01
1.973030290654e+01
2.047711203000e+01
1.778121240128e+01
1.986748821339e+01
1.948945304096e+01
1.810217812362e+01
1.964976581110e+01
1.807656559892e+01
1.476489425379e+01
2.011433450608e+01
1.973692697035e+01
-5.930316421106e+01
1.480171535470e+01
2.062684849801e+01
8.441401407975e+00
2.081088348431e+01
1.943078745847e+01
1.968457385922e+01
7.630988223769e+00
-2.475662225395e+00
2.025766108206e+01
1.892777640989e+01
-4.112575379443e+01
1.975369404808e+01
1.761434030418e+01
7.021493438744e+00
1.717522737271e+01
2.014621379902e+01
2.033242500403e+01
-3.379869669625e+01
1.765262072934e+01
1.985093131397e+01
2.036539775264e+01
2.025189085089e+01
1.976565093021e+01
1.992813308833e+01
-8.626343775447e+00
2.079316475358e+01
1.955229755244e+01
5.887506398024e+00
1.972373559082e+01
2.060236112533e+01
1.564023261787e+01
1.760413041990e+01
1.968362046995e+01
1.974674927252e+01
2.004321157556e+01
2.066719305671e+01
3.110612725587e+00
1.967570856125e+01
1.642050654053e+01
1.968341239957e+01
2.060825668331e+01
1.714827781265e+01
1.943778877314e+01
2.030584100054e+01
2.039364848853e+01
-2.744743828391e+01
1.942051136353e+01
1.961748710684e+01
-7.963568535812e+00
1.942677596719e+01
-2.922283499232e+01
1.958978911212e+01
-6.048486516007e+01
-5.523048232462e+01
-5.593969750244e+01
-5.513919071770e+01
-5.561702460031e+01
-5.512742217809e+01
-5.547964886113e+01
-5.507803584445e+01
-5.541832553332e+01
-5.501541822069e+01
-5.540242664830e+01
-5.494706612916e+01
-5.541042889523e+01
-5.487349016862e+01
-5.543045120376e+01
-5.479384920009e+01
-5.545599866559e+01
-5.470735811634e+01
-5.548442776512e+01
-4.658546974954e+01
-5.461317941928e+01
-5.551465384751e+01
-5.451025185298e+01
-5.117459899313e+01
-5.554739556860e+01
-5.439634527266e+01
-5.558059711839e+01
-5.427347990032e+01
-5.561304902648e+01
8.615992723080e+01
-5.414080795340e+01
-5.561435673462e+01
-5.400627017301e+01
-5.551191945624e+01
-5.385519055060e+01
-5.538665325000e+01
-5.371693486793e+01
-5.529975600345e+01
-5.353649490410e+01
-5.511658131749e+01
-5.342798850427e+01
-3.858560222211e+01
-5.318869677780e+01
8.999999999681e+01
-5.320469617187e+01
8.821916631865e+01
-5.287663161703e+01
8.770994554711e+01
-5.225269737082e+01
8.999999999681e+01
-5.176780478529e+01
-5.598866768038e+01
-4.252923774620e+01
8.999999999681e+01
-4.784729368968e+01
-1.509077780737e+01
-1.706002079544e+01
-1.713591364626e+01
-1.723831914932e+01
-1.722259511198e+01
-1.721234344338e+01
-1.717552452334e+01
-1.717212795542e+01
-1.712914856976e+01
-1.713517574669e+01
-1.708887538630e+01
-1.710141229983e+01
-1.705104394934e+01
-1.706900717603e+01
-1.701246606876e+01
-1.703391621964e+01
-1.697052922796e+01
-1.699465027060e+01
-1.334655963076e+01
-1.692433252082e+01
-1.694993917552e+01
-1.687366649258e+01
-2.139395822942e+01
-1.690042051824e+01
-1.610720128361e+01
-1.681955080176e+01
-1.684756461958e+01
-1.676117377822e+01
-1.678005882691e+01
-1.669892643747e+01
-1.671035378046e+01
-1.663411520997e+01
-1.661607570661e+01
-1.295442291363e+01
-1.657819226211e+01
-1.656260209701e+01
-1.652489197648e+01
-1.642663964077e+01
-1.644062592273e+01
-1.650531341642e+01
-1.613698347663e+01
-1.646785448649e+01
-1.634110427110e+01
-1.531703206988e+01
-1.652375388338e+01
-1.642553408521e+01
-2.469681932538e+01
-1.728461267418e+01
-1.491615090758e+01
-2.277594567565e+01
-1.135709082890e+01
-1.993006661818e+01
-3.034612713775e+00
-2.196201853381e+00
-2.185125730350e+00
-2.152262443236e+00
-2.155365541538e+00
-2.139268903510e+00
-2.143517895118e+00
-2.120773592231e+00
-2.124405541596e+00
-2.102011990559e+00
-2.103821097017e+00
-2.084946249876e+00
-2.083435103122e+00
-2.071184908378e+00
-2.065272315468e+00
-2.058908055738e+00
-2.046164098390e+00
-7.798891700157e-01
-2.046993752199e+00
-2.024708647357e+00
-2.095044252685e+00
-2.035092380556e+00
-1.999759812542e+00
-2.025489136249e+00
-1.973905267754e+00
-2.021207328749e+00
-4.174717473501e+00
-1.950727692142e+00
-2.017463734596e+00
-1.916658134704e+00
-2.015264911802e+00
-1.880825701568e+00
-2.015063860392e+00
-1.824671772972e+00
-2.035205066451e+00
-1.814772266496e+00
-2.056372631328e+00
-8.784107884891e-01
-2.111812909622e+00
-1.713447301376e+00
-2.127476128729e+00
-1.791665237750e+00
-1.438537522682e+00
-5.651387610136e+00
-1.695901408506e+00
-2.995297404865e+00
-2.863595495806e-02
-5.196747960683e+00
-4.273359166094e+00
5.465496508648e+00
5.007172921166e+00
4.989907570279e+00
4.957014910421e+00
4.950345205166e+00
4.954485485990e+00
4.946895800636e+00
4.959412276551e+00
4.948426862864e+00
4.965944592809e+00
4.950348823452e+00
4.973736075904e+00
4.950913181507e+00
4.976995073760e+00
4.945461888774e+00
4.977557644895e+00
5.509923554012e+00
4.935762177689e+00
4.980749123509e+00
3.601748289337e+00
4.927313136570e+00
4.986046477334e+00
4.716750409504e+00
4.916663933065e+00
4.989825460656e+00
4.899935014599e+00
4.989192957352e+00
4.875641219327e+00
4.979121254116e+00
5.352591906654e+00
4.848549481379e+00
5.002703226517e+00
4.832512750437e+00
4.990510974277e+00
5.060680056950e+00
4.806916640502e+00
4.952150305876e+00
4.786277089375e+00
5.147050228215e+00
4.706174740512e+00
2.841795830652e+00
4.829314249333e+00
5.570907846781e+00
3.731407580331e+00
6.387471839587e+00
3.437184065789e+00
8.817530344887e+00
9.085670819420e+00
9.092478504887e+00
9.086981984282e+00
9.091442677096e+00
9.083188478717e+00
9.090004747862e+00
9.074145724096e+00
9.085525911214e+00
9.067009204348e+00
9.082733939562e+00
9.058932250678e+00
9.080901672181e+00
9.049165495857e+00
9.074047972620e+00
9.244393970934e+00
9.024928068554e+00
8.757054554167e+00
9.056965671468e+00
9.007973031572e+00
9.050601961436e+00
8.992072044718e+00
9.043891256686e+00
8.966035716308e+00
8.031466200061e+00
9.029231258224e+00
8.935383144309e+00
9.012071110495e+00
8.898460259862e+00
8.977048347218e+00
8.861199408616e+00
9.000314732479e+00
8.857844178641e+00
8.791226174333e+00
8.959107395493e+00
9.114514133423e+00
9.053809067790e+00
7.581624851043e+00
9.289633544869e+00
8.764379321074e+00
9.815251775101e+00
8.136947380952e+00
7.861272628159e+00
1.194719742398e+01
1.173657345845e+01
1.171760898748e+01
1.170192926887e+01
1.169172732249e+01
1.170333271414e+01
1.169065354271e+01
1.168775002346e+01
1.166761404356e+01
1.168281173296e+01
1.166031757547e+01
1.167174525076e+01
1.164145958440e+01
1.172540310474e+01
1.167167415000e+01
1.162992164529e+01
1.087986326391e+01
1.163712593096e+01
1.159420209051e+01
1.137186319594e+01
1.162682028210e+01
1.157865581378e+01
1.162124317087e+01
1.155593454780e+01
1.159676008206e+01
1.159033477585e+01
1.151847202630e+01
1.157398816022e+01
1.156074247498e+01
1.148943993660e+01
1.148166075056e+01
1.146193850724e+01
1.159064692974e+01
1.139297626992e+01
1.056812454654e+01
1.159799500938e+01
1.202433381050e+01
1.121929486324e+01
1.231425285851e+01
1.073060318508e+01
1.348135917527e+01
1.353865711169e+01
1.354653788778e+01
1.355907220773e+01
1.354654134088e+01
1.355973334986e+01
1.355663799989e+01
1.352260931095e+01
1.352021914954e+01
1.352079619675e+01
1.352437086116e+01
1.350384360717e+01
1.351163952772e+01
1.350076570727e+01
1.330404599791e+01
1.346040995868e+01
1.349610452255e+01
1.346587527898e+01
1.345634181221e+01
1.344292549419e+01
1.345454951953e+01
1.341122887433e+01
1.288237815913e+01
1.343872239209e+01
1.337533974817e+01
1.339794393137e+01
1.333476012315e+01
1.330779447339e+01
1.337690194842e+01
1.338684025366e+01
1.339450447770e+01
1.265467715853e+01
1.364030105414e+01
1.344199620127e+01
1.394906308270e+01
1.309745262762e+01
1.276006445883e+01


