# vtk DataFile Version 2.0
Calculation C:\Users\NickSteudtner\Documents\GitHub\TOCHNOG\standsicherheit_phiC at time 5.000000000000e+00 
ASCII
DATASET UNSTRUCTURED_GRID
Field FieldData 1
Time 1 1 double
5.000000000000e+00

POINTS 1163 float
0.0 0.0 0.0 
5.000000000000e+01 -1.000000000000e+01 0.0 
0.0 -2.000000000000e+01 0.0 
5.000000000000e+01 -2.000000000000e+01 0.0 
0.0 -9.999999999991e-01 0.0 
0.0 -1.999999999998e+00 0.0 
0.0 -2.999999999997e+00 0.0 
0.0 -3.999999999994e+00 0.0 
0.0 -4.999999999991e+00 0.0 
0.0 -5.999999999988e+00 0.0 
0.0 -6.999999999985e+00 0.0 
0.0 -7.999999999982e+00 0.0 
0.0 -8.999999999983e+00 0.0 
0.0 -9.999999999985e+00 0.0 
0.0 -1.099999999999e+01 0.0 
0.0 -1.199999999999e+01 0.0 
0.0 -1.299999999999e+01 0.0 
0.0 -1.399999999999e+01 0.0 
0.0 -1.499999999999e+01 0.0 
0.0 -1.599999999999e+01 0.0 
0.0 -1.700000000000e+01 0.0 
0.0 -1.800000000000e+01 0.0 
0.0 -1.900000000000e+01 0.0 
4.900000000001e+01 -2.000000000000e+01 0.0 
4.800000000001e+01 -2.000000000000e+01 0.0 
4.700000000002e+01 -2.000000000000e+01 0.0 
4.600000000003e+01 -2.000000000000e+01 0.0 
4.500000000004e+01 -2.000000000000e+01 0.0 
4.400000000004e+01 -2.000000000000e+01 0.0 
4.300000000005e+01 -2.000000000000e+01 0.0 
4.200000000006e+01 -2.000000000000e+01 0.0 
4.100000000006e+01 -2.000000000000e+01 0.0 
4.000000000007e+01 -2.000000000000e+01 0.0 
3.900000000008e+01 -2.000000000000e+01 0.0 
3.800000000009e+01 -2.000000000000e+01 0.0 
3.700000000009e+01 -2.000000000000e+01 0.0 
3.600000000010e+01 -2.000000000000e+01 0.0 
3.500000000011e+01 -2.000000000000e+01 0.0 
3.400000000011e+01 -2.000000000000e+01 0.0 
3.300000000012e+01 -2.000000000000e+01 0.0 
3.200000000013e+01 -2.000000000000e+01 0.0 
3.100000000013e+01 -2.000000000000e+01 0.0 
3.000000000013e+01 -2.000000000000e+01 0.0 
2.900000000013e+01 -2.000000000000e+01 0.0 
2.800000000013e+01 -2.000000000000e+01 0.0 
2.700000000013e+01 -2.000000000000e+01 0.0 
2.600000000013e+01 -2.000000000000e+01 0.0 
2.500000000013e+01 -2.000000000000e+01 0.0 
2.400000000013e+01 -2.000000000000e+01 0.0 
2.300000000013e+01 -2.000000000000e+01 0.0 
2.200000000013e+01 -2.000000000000e+01 0.0 
2.100000000013e+01 -2.000000000000e+01 0.0 
2.000000000013e+01 -2.000000000000e+01 0.0 
1.900000000013e+01 -2.000000000000e+01 0.0 
1.800000000013e+01 -2.000000000000e+01 0.0 
1.700000000012e+01 -2.000000000000e+01 0.0 
1.600000000011e+01 -2.000000000000e+01 0.0 
1.500000000011e+01 -2.000000000000e+01 0.0 
1.400000000010e+01 -2.000000000000e+01 0.0 
1.300000000009e+01 -2.000000000000e+01 0.0 
1.200000000009e+01 -2.000000000000e+01 0.0 
1.100000000008e+01 -2.000000000000e+01 0.0 
1.000000000007e+01 -2.000000000000e+01 0.0 
9.000000000064e+00 -2.000000000000e+01 0.0 
8.000000000057e+00 -2.000000000000e+01 0.0 
7.000000000050e+00 -2.000000000000e+01 0.0 
6.000000000043e+00 -2.000000000000e+01 0.0 
5.000000000036e+00 -2.000000000000e+01 0.0 
4.000000000028e+00 -2.000000000000e+01 0.0 
3.000000000021e+00 -2.000000000000e+01 0.0 
2.000000000014e+00 -2.000000000000e+01 0.0 
1.000000000007e+00 -2.000000000000e+01 0.0 
5.000000000000e+01 -1.100000000000e+01 0.0 
5.000000000000e+01 -1.200000000000e+01 0.0 
5.000000000000e+01 -1.300000000000e+01 0.0 
5.000000000000e+01 -1.400000000000e+01 0.0 
5.000000000000e+01 -1.500000000000e+01 0.0 
5.000000000000e+01 -1.600000000000e+01 0.0 
5.000000000000e+01 -1.700000000000e+01 0.0 
5.000000000000e+01 -1.800000000000e+01 0.0 
5.000000000000e+01 -1.900000000000e+01 0.0 
2.000000000000e+01 0.0 0.0 
3.500000000000e+01 -1.000000000000e+01 0.0 
2.150000000000e+01 -1.000000000000e+00 0.0 
2.300000000000e+01 -2.000000000000e+00 0.0 
2.450000000000e+01 -3.000000000000e+00 0.0 
2.600000000000e+01 -4.000000000000e+00 0.0 
2.750000000000e+01 -5.000000000000e+00 0.0 
2.900000000000e+01 -6.000000000000e+00 0.0 
3.050000000000e+01 -7.000000000000e+00 0.0 
3.200000000000e+01 -8.000000000000e+00 0.0 
3.350000000000e+01 -9.000000000000e+00 0.0 
5.000000000000e+01 -4.000000000000e+00 0.0 
5.000000000000e+01 -5.000000000000e+00 0.0 
5.000000000000e+01 -6.000000000000e+00 0.0 
5.000000000000e+01 -7.000000000000e+00 0.0 
5.000000000000e+01 -8.000000000000e+00 0.0 
5.000000000000e+01 -9.000000000000e+00 0.0 
4.900000000000e+01 -1.000000000000e+01 0.0 
4.800000000000e+01 -1.000000000000e+01 0.0 
4.700000000000e+01 -1.000000000000e+01 0.0 
4.600000000000e+01 -1.000000000000e+01 0.0 
4.500000000000e+01 -1.000000000000e+01 0.0 
4.400000000000e+01 -1.000000000000e+01 0.0 
4.300000000000e+01 -1.000000000000e+01 0.0 
4.200000000000e+01 -1.000000000000e+01 0.0 
4.100000000000e+01 -1.000000000000e+01 0.0 
4.000000000000e+01 -1.000000000000e+01 0.0 
3.900000000000e+01 -1.000000000000e+01 0.0 
3.800000000000e+01 -1.000000000000e+01 0.0 
3.700000000000e+01 -1.000000000000e+01 0.0 
3.600000000000e+01 -1.000000000000e+01 0.0 
1.900000000000e+01 0.0 0.0 
1.800000000000e+01 0.0 0.0 
1.700000000000e+01 0.0 0.0 
1.600000000000e+01 0.0 0.0 
1.500000000000e+01 0.0 0.0 
1.400000000000e+01 0.0 0.0 
1.300000000000e+01 0.0 0.0 
1.200000000000e+01 0.0 0.0 
1.100000000000e+01 0.0 0.0 
1.000000000000e+01 0.0 0.0 
9.000000000000e+00 0.0 0.0 
8.000000000000e+00 0.0 0.0 
7.000000000000e+00 0.0 0.0 
6.000000000000e+00 0.0 0.0 
5.000000000000e+00 0.0 0.0 
4.000000000000e+00 0.0 0.0 
3.000000000000e+00 0.0 0.0 
2.000000000000e+00 0.0 0.0 
1.000000000000e+00 0.0 0.0 
4.900000000000e+01 -4.000000000000e+00 0.0 
4.800000000000e+01 -4.000000000000e+00 0.0 
4.700000000000e+01 -4.000000000000e+00 0.0 
4.600000000000e+01 -4.000000000000e+00 0.0 
4.500000000000e+01 -4.000000000000e+00 0.0 
4.400000000000e+01 -4.000000000000e+00 0.0 
4.300000000000e+01 -4.000000000000e+00 0.0 
4.200000000000e+01 -4.000000000000e+00 0.0 
4.100000000000e+01 -4.000000000000e+00 0.0 
4.000000000000e+01 -4.000000000000e+00 0.0 
3.900000000000e+01 -4.000000000000e+00 0.0 
3.800000000000e+01 -4.000000000000e+00 0.0 
3.700000000000e+01 -4.000000000000e+00 0.0 
3.600000000000e+01 -4.000000000000e+00 0.0 
3.500000000000e+01 -4.000000000000e+00 0.0 
3.400000000000e+01 -4.000000000000e+00 0.0 
3.300000000000e+01 -4.000000000000e+00 0.0 
3.200000000000e+01 -4.000000000000e+00 0.0 
3.100000000000e+01 -4.000000000000e+00 0.0 
3.000000000000e+01 -4.000000000000e+00 0.0 
2.900000000000e+01 -4.000000000000e+00 0.0 
2.800000000000e+01 -4.000000000000e+00 0.0 
2.700000000000e+01 -4.000000000000e+00 0.0 
2.847826086957e+01 -5.000000000000e+00 0.0 
2.945652173913e+01 -5.000000000000e+00 0.0 
3.043478260870e+01 -5.000000000000e+00 0.0 
3.141304347826e+01 -5.000000000000e+00 0.0 
3.239130434783e+01 -5.000000000000e+00 0.0 
3.336956521739e+01 -5.000000000000e+00 0.0 
3.434782608696e+01 -5.000000000000e+00 0.0 
3.532608695652e+01 -5.000000000000e+00 0.0 
3.630434782609e+01 -5.000000000000e+00 0.0 
3.728260869565e+01 -5.000000000000e+00 0.0 
3.826086956522e+01 -5.000000000000e+00 0.0 
3.923913043478e+01 -5.000000000000e+00 0.0 
4.021739130435e+01 -5.000000000000e+00 0.0 
4.119565217391e+01 -5.000000000000e+00 0.0 
4.217391304348e+01 -5.000000000000e+00 0.0 
4.315217391304e+01 -5.000000000000e+00 0.0 
4.413043478261e+01 -5.000000000000e+00 0.0 
4.510869565217e+01 -5.000000000000e+00 0.0 
4.608695652174e+01 -5.000000000000e+00 0.0 
4.706521739130e+01 -5.000000000000e+00 0.0 
4.804347826087e+01 -5.000000000000e+00 0.0 
4.902173913043e+01 -5.000000000000e+00 0.0 
4.900000000001e+01 -6.000000000000e+00 0.0 
4.800000000003e+01 -6.000000000000e+00 0.0 
4.700000000004e+01 -6.000000000000e+00 0.0 
4.600000000006e+01 -6.000000000000e+00 0.0 
4.500000000007e+01 -6.000000000000e+00 0.0 
4.400000000009e+01 -6.000000000000e+00 0.0 
4.300000000010e+01 -6.000000000000e+00 0.0 
4.200000000012e+01 -6.000000000000e+00 0.0 
4.100000000013e+01 -6.000000000000e+00 0.0 
4.000000000014e+01 -6.000000000000e+00 0.0 
3.900000000014e+01 -6.000000000000e+00 0.0 
3.800000000012e+01 -6.000000000000e+00 0.0 
3.700000000010e+01 -6.000000000000e+00 0.0 
3.600000000008e+01 -6.000000000000e+00 0.0 
3.500000000006e+01 -6.000000000000e+00 0.0 
3.400000000005e+01 -6.000000000000e+00 0.0 
3.300000000003e+01 -6.000000000000e+00 0.0 
3.200000000001e+01 -6.000000000000e+00 0.0 
3.100000000000e+01 -6.000000000000e+00 0.0 
3.000000000000e+01 -6.000000000000e+00 0.0 
3.147499999998e+01 -7.000000000000e+00 0.0 
3.244999999998e+01 -7.000000000000e+00 0.0 
3.342499999998e+01 -7.000000000000e+00 0.0 
3.439999999998e+01 -7.000000000000e+00 0.0 
3.537499999998e+01 -7.000000000000e+00 0.0 
3.634999999998e+01 -7.000000000000e+00 0.0 
3.732499999998e+01 -7.000000000000e+00 0.0 
3.829999999998e+01 -7.000000000000e+00 0.0 
3.927499999999e+01 -7.000000000000e+00 0.0 
4.024999999999e+01 -7.000000000000e+00 0.0 
4.122499999999e+01 -7.000000000000e+00 0.0 
4.219999999999e+01 -7.000000000000e+00 0.0 
4.317499999999e+01 -7.000000000000e+00 0.0 
4.414999999999e+01 -7.000000000000e+00 0.0 
4.512499999999e+01 -7.000000000000e+00 0.0 
4.609999999999e+01 -7.000000000000e+00 0.0 
4.707500000000e+01 -7.000000000000e+00 0.0 
4.805000000000e+01 -7.000000000000e+00 0.0 
4.902500000000e+01 -7.000000000000e+00 0.0 
4.900000000000e+01 -8.000000000000e+00 0.0 
4.800000000000e+01 -8.000000000000e+00 0.0 
4.700000000000e+01 -8.000000000000e+00 0.0 
4.600000000000e+01 -8.000000000000e+00 0.0 
4.500000000000e+01 -8.000000000000e+00 0.0 
4.400000000000e+01 -8.000000000000e+00 0.0 
4.300000000000e+01 -8.000000000000e+00 0.0 
4.200000000000e+01 -8.000000000000e+00 0.0 
4.100000000000e+01 -8.000000000000e+00 0.0 
4.000000000000e+01 -8.000000000000e+00 0.0 
3.900000000000e+01 -8.000000000000e+00 0.0 
3.800000000000e+01 -8.000000000000e+00 0.0 
3.700000000000e+01 -8.000000000000e+00 0.0 
3.600000000000e+01 -8.000000000000e+00 0.0 
3.500000000000e+01 -8.000000000000e+00 0.0 
3.400000000000e+01 -8.000000000000e+00 0.0 
3.300000000000e+01 -8.000000000000e+00 0.0 
3.447058823527e+01 -9.000000000000e+00 0.0 
3.544117647055e+01 -9.000000000000e+00 0.0 
3.641176470582e+01 -9.000000000000e+00 0.0 
3.738235294109e+01 -9.000000000000e+00 0.0 
3.835294117637e+01 -9.000000000000e+00 0.0 
3.932352941164e+01 -9.000000000000e+00 0.0 
4.029411764691e+01 -9.000000000000e+00 0.0 
4.126470588219e+01 -9.000000000000e+00 0.0 
4.223529411748e+01 -9.000000000000e+00 0.0 
4.320588235279e+01 -9.000000000000e+00 0.0 
4.417647058811e+01 -9.000000000000e+00 0.0 
4.514705882342e+01 -9.000000000000e+00 0.0 
4.611764705874e+01 -9.000000000000e+00 0.0 
4.708823529405e+01 -9.000000000000e+00 0.0 
4.805882352937e+01 -9.000000000000e+00 0.0 
4.902941176468e+01 -9.000000000000e+00 0.0 
2.075000000000e+01 -5.000000000006e-01 0.0 
2.225000000000e+01 -1.500000000000e+00 0.0 
2.375000000000e+01 -2.500000000000e+00 0.0 
2.525000000000e+01 -3.500000000000e+00 0.0 
2.675000000000e+01 -4.500000000000e+00 0.0 
2.825000000000e+01 -5.500000000000e+00 0.0 
2.975000000000e+01 -6.500000000000e+00 0.0 
3.125000000000e+01 -7.500000000000e+00 0.0 
3.275000000000e+01 -8.500000000000e+00 0.0 
3.425000000000e+01 -9.500000000000e+00 0.0 
2.226951693683e+01 -2.403913980114e+00 0.0 
1.650149491944e+01 -1.913490915758e+01 0.0 
1.050042386896e+01 -8.504605092970e-01 0.0 
1.553146524712e+01 -8.281255032105e-01 0.0 
1.150000000008e+01 -1.913397459621e+01 0.0 
2.530060260647e+01 -4.428336431260e+00 0.0 
8.651114563942e-01 -1.052096295641e+01 0.0 
2.050000000013e+01 -1.913397459622e+01 0.0 
2.819198729811e+01 -6.399519052838e+00 0.0 
2.445670302931e+01 -1.915649188023e+01 0.0 
3.117591465718e+01 -8.394293040695e+00 0.0 
7.465053044742e+00 -1.920411160581e+01 0.0 
6.398295709691e+00 -8.230098819370e-01 0.0 
2.849659607461e+01 -1.914296187762e+01 0.0 
3.418732642882e+01 -1.040265792588e+01 0.0 
8.386450935063e-01 -6.533605142809e+00 0.0 
9.178661865596e-01 -1.329769195597e+01 0.0 
3.149448624493e+01 -1.910466733764e+01 0.0 
3.552916747426e+01 -1.914628590759e+01 0.0 
4.449210346537e+01 -1.914359085008e+01 0.0 
4.140975975145e+01 -1.906941860733e+01 0.0 
3.847475958753e+01 -1.916622382724e+01 0.0 
3.653774794640e+01 -1.088712800241e+01 0.0 
4.047886341787e+01 -1.090139014048e+01 0.0 
4.348006339825e+01 -1.092792621489e+01 0.0 
4.919519968029e+01 -1.451526755068e+01 0.0 
4.500000000032e+00 -1.913397459621e+01 0.0 
1.856136921614e+01 -8.212235170404e-01 0.0 
3.499895312306e+00 -8.661165539723e-01 0.0 
9.076088696565e-01 -1.642306201891e+01 0.0 
4.655174095477e+01 -1.086183387525e+01 0.0 
9.430688970604e-01 -3.496112672958e+00 0.0 
3.353992337063e+01 -1.901202090820e+01 0.0 
2.249746016977e+01 -1.921262287282e+01 0.0 
2.650122741777e+01 -1.916123026018e+01 0.0 
1.863571384842e+01 -1.908325534840e+01 0.0 
1.450089971693e+01 -1.917691901860e+01 0.0 
1.350044695317e+01 -8.659695299584e-01 0.0 
3.849987469880e+01 -1.084154983397e+01 0.0 
9.454419857884e+00 -1.900818879936e+01 0.0 
4.917398660523e+01 -1.645692866081e+01 0.0 
8.500000000000e+00 -8.660254037844e-01 0.0 
8.660319230785e-01 -8.500111697188e+00 0.0 
4.649022621545e+01 -1.930506220113e+01 0.0 
2.667688107845e+01 -5.420288124331e+00 0.0 
2.379251615665e+01 -3.412225477429e+00 0.0 
2.966631491830e+01 -7.389030232731e+00 0.0 
3.267915035995e+01 -9.396934932445e+00 0.0 
2.074836922338e+01 -1.320054020319e+00 0.0 
4.915985743621e+01 -1.261973384855e+01 0.0 
2.527129768623e+00 -1.931592414663e+01 0.0 
1.538676247410e+00 -8.436956619311e-01 0.0 
4.908096641539e+01 -1.842484004551e+01 0.0 
3.478612492673e+01 -1.090889364140e+01 0.0 
3.409757055860e+01 -1.131991530427e+01 0.0 
3.501895309466e+01 -1.177687842717e+01 0.0 
3.407758073088e+01 -1.224293381580e+01 0.0 
3.484541875390e+01 -1.277051428430e+01 0.0 
3.400322025842e+01 -1.319022775640e+01 0.0 
3.321672625034e+01 -1.266779191233e+01 0.0 
3.315244139236e+01 -1.360984106532e+01 0.0 
3.236335186892e+01 -1.308463225210e+01 0.0 
3.478337442841e+01 -1.372341158982e+01 0.0 
3.230105923633e+01 -1.403023731610e+01 0.0 
3.150954055289e+01 -1.350301767700e+01 0.0 
3.144604792090e+01 -1.444931742516e+01 0.0 
3.065653897123e+01 -1.392357262981e+01 0.0 
3.071897610812e+01 -1.297447031198e+01 0.0 
2.986790411740e+01 -1.339226181535e+01 0.0 
2.993181466745e+01 -1.244703272398e+01 0.0 
2.908023061869e+01 -1.286254537734e+01 0.0 
2.901619051372e+01 -1.380881655279e+01 0.0 
2.822986160390e+01 -1.327695262116e+01 0.0 
2.829453476870e+01 -1.233265343811e+01 0.0 
2.744542905518e+01 -1.274510491105e+01 0.0 
2.751120089246e+01 -1.180368086886e+01 0.0 
2.666218649885e+01 -1.221619339205e+01 0.0 
2.672371209234e+01 -1.127125228527e+01 0.0 
2.587763216302e+01 -1.168539979114e+01 0.0 
2.581165585299e+01 -1.262994410089e+01 0.0 
2.502890882577e+01 -1.209827323619e+01 0.0 
2.509631327757e+01 -1.115492410304e+01 0.0 
2.424662989877e+01 -1.156630981079e+01 0.0 
2.431704046904e+01 -1.062389179334e+01 0.0 
2.346445438728e+01 -1.103427680694e+01 0.0 
2.339382552877e+01 -1.197964871788e+01 0.0 
2.260936050780e+01 -1.144513277642e+01 0.0 
2.268075012022e+01 -1.049911928216e+01 0.0 
2.182525737661e+01 -1.090920811464e+01 0.0 
2.189682319817e+01 -9.961716944568e+00 0.0 
2.104174127792e+01 -1.037266986667e+01 0.0 
2.111304367575e+01 -9.424179358711e+00 0.0 
2.025306185381e+01 -9.832727364719e+00 0.0 
2.018141124247e+01 -1.079140628871e+01 0.0 
1.938594498257e+01 -1.025147354112e+01 0.0 
1.946106490453e+01 -9.288010758448e+00 0.0 
1.858929958352e+01 -9.706319802516e+00 0.0 
1.851540991219e+01 -1.067205988724e+01 0.0 
1.771485303178e+01 -1.012504443115e+01 0.0 
1.764134552256e+01 -1.109360378538e+01 0.0 
1.683745148095e+01 -1.054496365337e+01 0.0 
1.691852964353e+01 -9.582555261178e+00 0.0 
1.603603813062e+01 -1.000160132379e+01 0.0 
1.595824239350e+01 -1.096750698862e+01 0.0 
1.515080624291e+01 -1.041639501931e+01 0.0 
1.523171602559e+01 -9.451711491453e+00 0.0 
1.434621060709e+01 -9.871956467464e+00 0.0 
1.426777178765e+01 -1.083749501371e+01 0.0 
1.345775282374e+01 -1.028803175500e+01 0.0 
1.354103873368e+01 -9.324918457162e+00 0.0 
1.265072018622e+01 -9.742612837270e+00 0.0 
1.257285762070e+01 -1.071557782384e+01 0.0 
1.175874815690e+01 -1.015972324288e+01 0.0 
1.184203019714e+01 -9.193604071377e+00 0.0 
1.094927709905e+01 -9.612103238656e+00 0.0 
1.086938022910e+01 -1.058685085646e+01 0.0 
1.005424098961e+01 -1.002939116380e+01 0.0 
9.977974613295e+00 -1.101324897989e+01 0.0 
1.012915646404e+01 -9.051815821181e+00 0.0 
9.237127782494e+00 -9.471239055559e+00 0.0 
9.308426593771e+00 -8.483376461131e+00 0.0 
8.418806073345e+00 -8.910712374517e+00 0.0 
2.253688464062e+01 -1.239459402279e+01 0.0 
8.495126726666e+00 -7.921646665254e+00 0.0 
9.389727383206e+00 -7.512103628377e+00 0.0 
7.601560812974e+00 -8.349460349344e+00 0.0 
7.525680547759e+00 -9.339736686940e+00 0.0 
7.677888324502e+00 -7.359727833346e+00 0.0 
6.782001206724e+00 -7.788454494773e+00 0.0 
6.858778622885e+00 -6.797338062822e+00 0.0 
2.196596590865e+01 -8.979025665442e+00 0.0 
2.816540108272e+01 -1.422634142353e+01 0.0 
5.961601194403e+00 -7.226824010712e+00 0.0 
6.038171749656e+00 -6.234825887079e+00 0.0 
6.936257279557e+00 -5.805287640737e+00 0.0 
6.115068918323e+00 -5.242109758768e+00 0.0 
3.564391741903e+01 -1.329240553876e+01 0.0 
3.558115605778e+01 -1.425902892003e+01 0.0 
3.645445282201e+01 -1.381970786460e+01 0.0 
3.639744204358e+01 -1.479198128612e+01 0.0 
3.727266909778e+01 -1.435399586226e+01 0.0 
5.216667013081e+00 -5.671788584287e+00 0.0 
3.220697293295e+01 -1.499594545107e+01 0.0 
3.551112158269e+01 -1.523479869250e+01 0.0 
2.836056961467e+01 -1.139032434851e+01 0.0 
2.516730388602e+01 -1.021382726837e+01 0.0 
1.844436907403e+01 -1.164097215196e+01 0.0 
5.885434318740e+00 -8.218694781467e+00 0.0 
5.064071066867e+00 -7.656614643901e+00 0.0 
4.988089103470e+00 -8.649722082718e+00 0.0 
1.079421050408e+01 -1.157014985435e+01 0.0 
9.902420005256e+00 -1.199903342656e+01 0.0 
1.071994252214e+01 -1.255727909771e+01 0.0 
9.826974788171e+00 -1.298659581767e+01 0.0 
1.064607883789e+01 -1.354595476388e+01 0.0 
9.751541265343e+00 -1.397556905071e+01 0.0 
8.932296185869e+00 -1.341553353988e+01 0.0 
8.856399248106e+00 -1.440570715508e+01 0.0 
8.036186803543e+00 -1.384470558472e+01 0.0 
1.057112875118e+01 -1.453516759081e+01 0.0 
1.146582585687e+01 -1.410539926903e+01 0.0 
7.959894480382e+00 -1.483563350928e+01 0.0 
7.138792279156e+00 -1.427465094140e+01 0.0 
7.062506792418e+00 -1.526615385482e+01 0.0 
6.240693558277e+00 -1.470508863040e+01 0.0 
6.316957575451e+00 -1.371212581281e+01 0.0 
5.418183007107e+00 -1.414253605022e+01 0.0 
5.494748364428e+00 -1.314886770603e+01 0.0 
1.756825565873e+01 -1.206433872514e+01 0.0 
1.837565773345e+01 -1.261356468266e+01 0.0 
1.749574831391e+01 -1.303769280014e+01 0.0 
1.830539187332e+01 -1.358828364284e+01 0.0 
1.742278925170e+01 -1.401367746928e+01 0.0 
1.823303007798e+01 -1.456432294258e+01 0.0 
1.734941694138e+01 -1.499213734361e+01 0.0 
1.653760041637e+01 -1.443920312098e+01 0.0 
3.056237977307e+01 -1.487132260174e+01 0.0 
1.866469084762e+01 -8.742953000418e+00 0.0 
1.953669694916e+01 -8.326038909849e+00 0.0 
1.874194303780e+01 -7.780688158966e+00 0.0 
1.961032016741e+01 -7.366854697285e+00 0.0 
1.881715755159e+01 -6.821102209649e+00 0.0 
1.968369797150e+01 -6.407747217358e+00 0.0 
1.889237123259e+01 -5.858375520026e+00 0.0 
1.802038875366e+01 -6.276202618170e+00 0.0 
1.809793837984e+01 -5.307629520489e+00 0.0 
1.721985207997e+01 -5.728242054488e+00 0.0 
1.729850893523e+01 -4.756990819347e+00 0.0 
1.641745664240e+01 -5.174636548624e+00 0.0 
2.495978509456e+01 -1.304406404294e+01 0.0 
1.911567814831e+01 -1.413854250293e+01 0.0 
1.904387332608e+01 -1.511463127723e+01 0.0 
1.992115934240e+01 -1.468788025898e+01 0.0 
7.013706899628e+00 -4.812582868662e+00 0.0 
5.342091874585e+00 -1.513658157269e+01 0.0 
1.139098043784e+01 -1.509488509480e+01 0.0 
1.228151810610e+01 -1.465617481983e+01 0.0 
1.646373110164e+01 -1.541993323337e+01 0.0 
5.293328636712e+00 -4.678385108584e+00 0.0 
1.975965862987e+01 -5.448124345648e+00 0.0 
2.054318374236e+01 -5.992561293251e+00 0.0 
3.721453439063e+01 -1.533216152738e+01 0.0 
3.809302733893e+01 -1.489235527381e+01 0.0 
1.220852788900e+01 -1.565304565230e+01 0.0 
4.394120899730e+00 -5.108397613210e+00 0.0 
8.779354620288e+00 -1.539524721159e+01 0.0 
1.817791047702e+01 -4.338570146253e+00 0.0 
4.518860013839e+00 -1.457343189307e+01 0.0 
4.442712140414e+00 -1.556841391069e+01 0.0 
8.115343466391e+00 -1.285760324283e+01 0.0 
1.985334703171e+01 -1.566478400426e+01 0.0 
2.071953850276e+01 -1.522074243119e+01 0.0 
1.634012953883e+01 -6.154777738301e+00 0.0 
1.553479994708e+01 -5.593730508879e+00 0.0 
1.561265946942e+01 -4.617761762647e+00 0.0 
1.470674212978e+01 -5.064576488228e+00 0.0 
1.464498299883e+01 -6.026514471420e+00 0.0 
1.383271561817e+01 -5.467796261169e+00 0.0 
1.389241253067e+01 -4.504338666645e+00 0.0 
1.301868735463e+01 -4.907185188626e+00 0.0 
1.294514184846e+01 -5.888160903592e+00 0.0 
1.212955968622e+01 -5.328262335277e+00 0.0 
1.220721122383e+01 -4.341264976687e+00 0.0 
1.131324345897e+01 -4.766773516508e+00 0.0 
5.266597955397e+00 -1.613148974258e+01 0.0 
1.737805990867e+01 -3.786677807525e+00 0.0 
3.078438094513e+01 -1.203225297748e+01 0.0 
1.131569882285e+01 -1.608511932110e+01 0.0 
1.728478341782e+01 -1.596017432313e+01 0.0 
3.803465906019e+01 -1.587509751228e+01 0.0 
3.891681276677e+01 -1.543395196905e+01 0.0 
3.897340985302e+01 -1.444710288980e+01 0.0 
3.980095968193e+01 -1.499059496613e+01 0.0 
3.974334598189e+01 -1.597921884150e+01 0.0 
4.062964983717e+01 -1.553518690417e+01 0.0 
4.068729602479e+01 -1.454434445295e+01 0.0 
4.151772679790e+01 -1.508974196007e+01 0.0 
4.157505195739e+01 -1.409694289912e+01 0.0 
4.240699932656e+01 -1.464347955968e+01 0.0 
4.234898051011e+01 -1.563721375790e+01 0.0 
4.323934606035e+01 -1.519082036405e+01 0.0 
4.329740528208e+01 -1.419587509788e+01 0.0 
4.413056841369e+01 -1.474359631875e+01 0.0 
4.418850110108e+01 -1.374786684042e+01 0.0 
4.502219770667e+01 -1.429605103525e+01 0.0 
4.496411937907e+01 -1.529215882720e+01 0.0 
4.490027319897e+00 -4.154167794594e+00 0.0 
1.565080385988e+01 -1.486411982419e+01 0.0 
1.557610691279e+01 -1.584855627870e+01 0.0 
4.195350646612e+00 -8.089117689096e+00 0.0 
4.124027797830e+00 -9.082831955007e+00 0.0 
4.917944318925e+00 -9.643530901533e+00 0.0 
4.020105689502e+00 -1.007439673661e+01 0.0 
4.587185899277e+01 -1.484039992728e+01 0.0 
4.580078661551e+01 -1.584043391042e+01 0.0 
2.061956522375e+01 -5.046701343981e+00 0.0 
2.139572955529e+01 -5.579553449826e+00 0.0 
3.715344357292e+01 -1.631485124583e+01 0.0 
3.618886196443e+00 -1.500471207167e+01 0.0 
3.695606940204e+00 -1.400939692294e+01 0.0 
2.438890661143e+01 -9.686110599723e+00 0.0 
2.523267572778e+01 -9.276766000622e+00 0.0 
2.446094171539e+01 -8.751904591412e+00 0.0 
2.529089822738e+01 -8.321495612547e+00 0.0 
2.606882688827e+01 -8.864724051119e+00 0.0 
2.452116646430e+01 -7.792756462004e+00 0.0 
1.235543269617e+01 -1.365845617339e+01 0.0 
4.318116874181e+01 -1.618567469992e+01 0.0 
7.835066111909e+00 -5.376366223896e+00 0.0 
7.905687335704e+00 -4.382539065697e+00 0.0 
3.542640009567e+00 -1.600035116542e+01 0.0 
1.572431503071e+01 -1.388358386695e+01 0.0 
2.574684696680e+01 -1.357896141127e+01 0.0 
2.488842657651e+01 -1.399674354505e+01 0.0 
2.568301775611e+01 -1.453552048595e+01 0.0 
2.481535572009e+01 -1.495542756508e+01 0.0 
2.561729699688e+01 -1.549784648532e+01 0.0 
2.474623061296e+01 -1.592058894178e+01 0.0 
2.394234041695e+01 -1.537572575827e+01 0.0 
2.065825452567e+01 -1.621899055217e+01 0.0 
2.387180528935e+01 -1.634552264687e+01 0.0 
4.585364400844e+01 -1.383912334080e+01 0.0 
1.998744432052e+01 -1.370317155541e+01 0.0 
1.205356951443e+01 -6.313580285498e+00 0.0 
5.396543905849e+00 -3.731818611283e+00 0.0 
1.139652573295e+01 -3.745819399350e+00 0.0 
3.574124306703e+00 -4.551456826011e+00 0.0 
3.494140761930e+00 -5.539787055649e+00 0.0 
1.213651452413e+01 -1.664505033022e+01 0.0 
2.555045568519e+01 -1.646529356744e+01 0.0 
2.641671114986e+01 -1.603899382371e+01 0.0 
2.612920721894e+01 -7.906435260873e+00 0.0 
2.690339829698e+01 -8.456969591431e+00 0.0 
1.978024383368e+01 -1.664410216353e+01 0.0 
3.732829979082e+01 -1.336926601859e+01 0.0 
4.074336584605e+01 -1.355133328401e+01 0.0 
4.163204691081e+01 -1.310280943992e+01 0.0 
3.773826114429e+00 -3.493444309145e+00 0.0 
1.228783001032e+01 -3.374822835872e+00 0.0 
4.057110462520e+01 -1.652588478000e+01 0.0 
2.132535497898e+01 -6.523623360525e+00 0.0 
2.216932532211e+01 -6.110044769206e+00 0.0 
1.825781152128e+01 -3.370146817147e+00 0.0 
1.745679445888e+01 -2.812942552063e+00 0.0 
4.666517057280e+01 -1.539981381543e+01 0.0 
4.660575894464e+01 -1.639014410186e+01 0.0 
4.838230979954e+00 -1.063643436446e+01 0.0 
3.938942630206e+00 -1.106778981745e+01 0.0 
1.302967218620e+01 -1.621373452436e+01 0.0 
1.049548003190e+01 -4.204825123240e+00 0.0 
4.573571907195e+01 -1.683820511148e+01 0.0 
1.483686335807e+01 -1.430849689310e+01 0.0 
1.490982658890e+01 -1.332679386284e+01 0.0 
3.190805600162e+00 -9.510968358545e+00 0.0 
2.146625721848e+01 -4.642437303115e+00 0.0 
2.069866208266e+01 -4.111852942193e+00 0.0 
1.286859345584e+01 -6.873252723348e+00 0.0 
1.041794493184e+01 -5.194814260291e+00 0.0 
2.671081808965e+00 -4.976806516331e+00 0.0 
1.295786792925e+01 -1.720506531799e+01 0.0 
3.968438206511e+01 -1.696869067241e+01 0.0 
2.308550456051e+01 -1.579963151273e+01 0.0 
2.315593682844e+01 -1.482967445235e+01 0.0 
2.299471449450e+01 -1.677069968132e+01 0.0 
1.057344714696e+01 -3.214252277840e+00 0.0 
1.124057603753e+01 -1.707713739755e+01 0.0 
2.718402535754e+00 -1.543629882103e+01 0.0 
2.638549692805e+01 -1.696744916809e+01 0.0 
2.723416349007e+01 -1.658104204545e+01 0.0 
2.210193351704e+01 -7.046769643417e+00 0.0 
2.295180925161e+01 -6.657397605239e+00 0.0 
2.301355235833e+01 -5.709111896800e+00 0.0 
2.379052718281e+01 -6.254965406962e+00 0.0 
3.243528601237e+01 -1.214181853533e+01 0.0 
2.287977995457e+01 -7.583722368300e+00 0.0 
2.999876029544e+01 -1.150837653096e+01 0.0 
3.084435366963e+01 -1.109693775882e+01 0.0 
3.006650579669e+01 -1.057778994262e+01 0.0 
2.683802665066e+01 -9.386863216633e+00 0.0 
2.768641973621e+01 -8.988883915666e+00 0.0 
2.040296980397e+01 -7.903629133404e+00 0.0 
1.925235024054e+01 -1.218872783130e+01 0.0 
5.735667000424e+00 -1.020577277283e+01 0.0 
6.396559909872e+00 -1.272326295703e+01 0.0 
1.161199420714e+01 -1.212812778229e+01 0.0 
4.229046132615e+01 -1.663084237572e+01 0.0 
4.312275399692e+01 -1.718087491556e+01 0.0 
4.335502068163e+01 -1.320039231514e+01 0.0 
4.424630298089e+01 -1.275160688731e+01 0.0 
7.090116643816e+00 -3.818998061530e+00 0.0 
7.989472176569e+00 -3.389238711200e+00 0.0 
9.085824861778e+00 -1.144036167408e+01 0.0 
1.041972423731e+01 -1.651614080893e+01 0.0 
3.797525112640e+01 -1.686052038746e+01 0.0 
3.709114253394e+01 -1.730125999865e+01 0.0 
3.626966748340e+01 -1.675477052919e+01 0.0 
1.385164591440e+01 -1.677597757552e+01 0.0 
1.787152588784e+01 -8.198993896093e+00 0.0 
1.668849729812e+01 -1.248560611628e+01 0.0 
1.659546177905e+01 -3.232482605530e+00 0.0 
2.332214717345e+01 -1.292598167641e+01 0.0 
7.168238450786e+00 -2.824711686516e+00 0.0 
2.894878403906e+01 -1.475427524446e+01 0.0 
2.646763248247e+00 -1.643270107952e+01 0.0 
3.467431944285e+00 -1.699648837348e+01 0.0 
2.059475877282e+01 -1.719473628526e+01 0.0 
3.333868355437e+01 -1.080596971682e+01 0.0 
2.246451062637e+01 -1.334557761546e+01 0.0 
2.167821896388e+01 -1.280847834858e+01 0.0 
3.089653185767e+01 -1.017198487212e+01 0.0 
3.012604365669e+01 -9.657298805968e+00 0.0 
2.929627299435e+01 -1.006100135274e+01 0.0 
2.936201435219e+01 -9.136748899251e+00 0.0 
1.198219052702e+01 -7.291887238230e+00 0.0 
1.116702076035e+01 -6.731976101053e+00 0.0 
2.551388807505e+01 -1.746927036981e+01 0.0 
2.378639090370e+01 -1.728678807149e+01 0.0 
2.718543627188e+01 -1.748668016909e+01 0.0 
2.804681050301e+01 -1.712626668293e+01 0.0 
1.970737034667e+01 -1.762317646822e+01 0.0 
1.889535776135e+01 -1.707158098231e+01 0.0 
2.593777711283e+00 -5.971157087874e+00 0.0 
2.773468281110e+01 -8.067164273938e+00 0.0 
4.051205884347e+01 -1.751819982458e+01 0.0 
3.166903145421e+01 -1.068032992414e+01 0.0 
1.033042452886e+01 -1.748285844336e+01 0.0 
9.519274604626e+00 -1.694349240233e+01 0.0 
1.668308673328e+01 -2.255861778986e+00 0.0 
1.570531902832e+01 -2.676795860126e+00 0.0 
4.655826903379e+01 -1.736656245706e+01 0.0 
2.384148070773e+01 -5.328744256413e+00 0.0 
2.460255123641e+01 -5.852182672816e+00 0.0 
2.306638135119e+01 -4.798935440613e+00 0.0 
8.467720450578e-01 -1.849576263072e+01 0.0 
4.849657322345e+01 -1.084860705506e+01 0.0 
2.565860899507e+00 -1.742859793981e+01 0.0 
2.764418872564e+01 -9.927142821799e+00 0.0 
4.565165880064e+01 -1.785336695404e+01 0.0 
2.162231831329e+01 -1.376528337468e+01 0.0 
2.360646352969e+01 -9.136041963102e+00 0.0 
1.392738739903e+01 -1.578285505772e+01 0.0 
4.756405947478e+01 -1.683706841809e+01 0.0 
4.740895034054e+01 -1.793766756892e+01 0.0 
4.080779328826e+01 -1.257387192544e+01 0.0 
4.168907939671e+01 -1.210739129181e+01 0.0 
3.991197722154e+01 -1.300815793917e+01 0.0 
1.905536506762e+01 -3.940076697685e+00 0.0 
1.923879596617e+01 -2.875000734166e+00 0.0 
4.401386745746e+01 -1.673483229438e+01 0.0 
4.247233362525e+00 -7.094581653070e+00 0.0 
3.286051630211e+00 -7.635300020553e+00 0.0 
9.609533347623e+00 -4.594311677967e+00 0.0 
9.523554636369e+00 -5.595597029530e+00 0.0 
5.660336628893e+00 -1.119290329628e+01 0.0 
6.558070063295e+00 -1.076385809362e+01 0.0 
2.809866407414e+01 -1.518037766799e+01 0.0 
2.888868674504e+01 -1.570360690070e+01 0.0 
2.654431550819e+01 -1.411217777162e+01 0.0 
1.402158265969e+01 -1.375404617952e+01 0.0 
1.409592494026e+01 -1.277071998942e+01 0.0 
1.499355196178e+01 -1.235270737023e+01 0.0 
4.221535326155e+01 -1.759335617494e+01 0.0 
4.305583287033e+01 -1.822663146802e+01 0.0 
1.280748808359e+01 -7.834332838285e+00 0.0 
1.368988389326e+01 -7.420529606172e+00 0.0 
1.110091796060e+01 -7.683966794328e+00 0.0 
3.963446145980e+01 -1.794331310122e+01 0.0 
3.423932362213e+00 -1.796415590455e+01 0.0 
4.280814572302e+00 -1.752272834860e+01 0.0 
8.050136380041e+00 -2.421582378631e+00 0.0 
8.888674091650e+00 -2.984264211327e+00 0.0 
2.152839430898e+01 -3.732609965436e+00 0.0 
2.077799585292e+01 -3.183896021866e+00 0.0 
3.618719395821e+01 -1.770276572576e+01 0.0 
3.538165138340e+01 -1.718709995539e+01 0.0 
3.702925326420e+01 -1.828844288807e+01 0.0 
1.756739438711e+00 -5.353284859169e+00 0.0 
2.233710191104e+01 -1.527265621324e+01 0.0 
1.389483555057e+01 -1.771797164730e+01 0.0 
1.475634224300e+01 -1.728357428390e+01 0.0 
1.298797563052e+01 -1.825968924755e+01 0.0 
2.145331271866e+01 -1.673705379077e+01 0.0 
2.133282821169e+01 -1.769400773673e+01 0.0 
2.292139194136e+01 -1.774915400288e+01 0.0 
1.750750053243e+01 -1.861475593469e+00 0.0 
4.830478841772e+01 -1.752611802221e+01 0.0 
4.341203507805e+01 -1.220326745522e+01 0.0 
1.685254151866e+01 -1.443085301632e+00 0.0 
4.431538535165e+01 -1.171841387375e+01 0.0 
4.511308610496e+01 -1.229557320599e+01 0.0 
4.510133242889e+01 -1.123680627466e+01 0.0 
1.846818030617e+00 -4.410877617069e+00 0.0 
3.995468694584e+01 -1.186571542989e+01 0.0 
3.901387459804e+01 -1.242507616755e+01 0.0 
8.966735877533e+00 -1.837818700423e+00 0.0 
4.049310011091e+01 -1.848269508791e+01 0.0 
7.278862053803e+00 -1.918523922691e+00 0.0 
6.429715522129e+00 -2.316676521184e+00 0.0 
9.443505505022e+00 -1.792198868094e+01 0.0 
8.620386951051e+00 -1.737590365556e+01 0.0 
8.571868171503e+00 -1.834436667826e+01 0.0 
7.758629848526e+00 -1.775677907213e+01 0.0 
7.806648388584e+00 -1.680761266021e+01 0.0 
6.908555145436e+00 -1.723746463044e+01 0.0 
4.251709122090e+01 -1.156937480156e+01 0.0 
6.931136405615e+00 -1.832465719263e+01 0.0 
6.015545461353e+00 -1.768865355295e+01 0.0 
5.960535926343e+00 -1.872011001764e+01 0.0 
3.023253444786e+01 -8.761960642196e+00 0.0 
2.454622702599e+01 -6.749421992767e+00 0.0 
2.537499741604e+01 -6.347634963783e+00 0.0 
2.544077378460e+01 -5.431358513649e+00 0.0 
2.801367161747e+01 -1.820907270221e+01 0.0 
2.884507806914e+01 -1.762032095326e+01 0.0 
1.821474531936e+00 -1.588901260460e+01 0.0 
1.821006262604e+00 -1.489370287756e+01 0.0 
4.599962488908e+01 -1.176478780598e+01 0.0 
4.705457470007e+01 -1.172182804229e+01 0.0 
4.667668314802e+01 -1.263464558483e+01 0.0 
4.759648056504e+01 -1.252380987933e+01 0.0 
4.728041618103e+01 -1.341928568376e+01 0.0 
4.825209352360e+01 -1.330491640804e+01 0.0 
4.778118233428e+01 -1.420151961695e+01 0.0 
2.388192727579e+01 -1.826934810142e+01 0.0 
2.381714684947e+01 -4.385917965223e+00 0.0 
3.172733219247e+01 -9.758744265248e+00 0.0 
1.882012070658e+01 -1.805540597212e+01 0.0 
1.805667505243e+01 -1.742221226236e+01 0.0 
2.852599958080e+01 -8.597196079481e+00 0.0 
2.856486123437e+01 -7.661382718527e+00 0.0 
1.111792842875e+01 -1.818223852980e+01 0.0 
2.203322722466e+01 -7.986646678802e+00 0.0 
3.955703676900e+01 -1.903246763601e+01 0.0 
1.944842206513e+01 -8.038750575182e-01 0.0 
1.909882767783e+01 -1.746322740933e+00 0.0 
2.281147422941e+01 -8.525912918334e+00 0.0 
2.850633001468e+01 -9.533271335986e+00 0.0 
2.532883344309e+01 -7.308951659710e+00 0.0 
2.620475466461e+01 -6.979208585400e+00 0.0 
1.396278270396e+01 -1.475095389807e+01 0.0 
9.791001166724e+00 -2.554159793552e+00 0.0 
2.229293380421e+01 -4.269762271052e+00 0.0 
4.677238984118e+01 -1.430071795514e+01 0.0 
2.228658385918e+01 -3.344747535984e+00 0.0 
8.940223674553e-01 -1.543595733415e+01 0.0 
2.118566862474e+01 -8.435876987696e+00 0.0 
2.678325936437e+01 -1.032621195706e+01 0.0 
2.223400220487e+01 -5.179046761770e+00 0.0 
2.375370625384e+01 -7.251580562134e+00 0.0 
3.156971327386e+01 -1.255534750737e+01 0.0 
3.328226391312e+01 -1.172914813316e+01 0.0 
3.250948774219e+01 -1.120157009348e+01 0.0 
2.032993445717e+01 -8.867880112202e+00 0.0 
2.697226974856e+01 -7.536633082045e+00 0.0 
2.707377810386e+01 -6.590835263295e+00 0.0 
2.914099246827e+01 -1.191678458549e+01 0.0 
3.544824072239e+01 -1.621126558525e+01 0.0 
3.456511855436e+01 -1.665054783843e+01 0.0 
3.448395810225e+01 -1.759117813016e+01 0.0 
3.368378673938e+01 -1.708037781328e+01 0.0 
3.375560452567e+01 -1.610973066913e+01 0.0 
3.288001547988e+01 -1.654324255651e+01 0.0 
3.282475929147e+01 -1.749725654692e+01 0.0 
3.199880906313e+01 -1.697294088625e+01 0.0 
3.197001272932e+01 -1.811667776864e+01 0.0 
3.111884713021e+01 -1.742166785755e+01 0.0 
3.120418962865e+01 -1.642155709385e+01 0.0 
3.034666704371e+01 -1.683123833816e+01 0.0 
3.026224379976e+01 -1.772592851714e+01 0.0 
3.046632362943e+01 -1.582232843075e+01 0.0 
1.961344017324e+01 -1.857459447985e+01 0.0 
2.274975894774e+01 -9.532738811922e+00 0.0 
1.833923246887e+01 -2.396746883672e+00 0.0 
1.988859500848e+01 -2.249244376594e+00 0.0 
2.758045562861e+01 -1.086434261689e+01 0.0 
3.247300178163e+01 -1.909930104252e+01 0.0 
3.461947482503e+01 -1.911879848019e+01 0.0 
2.047161538662e+01 -6.941478180358e+00 0.0 
2.750230940214e+01 -1.915490590764e+01 0.0 
3.165081350803e+01 -1.161860780120e+01 0.0 
1.897456727641e+01 -4.889634688522e+00 0.0 
2.549338539756e+01 -1.914858252089e+01 0.0 
3.462873135081e+01 -1.567482276144e+01 0.0 
3.384432415243e+01 -1.512280684518e+01 0.0 
3.471433767690e+01 -1.469086942990e+01 0.0 
3.651470373046e+01 -1.918207952149e+01 0.0 
3.901742690249e+01 -1.345028556517e+01 0.0 
2.153224102692e+01 -1.920169709333e+01 0.0 
1.918382939341e+01 -1.316226275662e+01 0.0 
2.005389162382e+01 -1.271962165174e+01 0.0 
2.011472087878e+01 -1.175029352900e+01 0.0 
3.210679478412e+01 -1.598038618242e+01 0.0 
1.752175226543e+01 -1.914713022656e+01 0.0 
1.696897240059e+01 -1.832772588765e+01 0.0 
1.599682523337e+01 -1.832599992024e+01 0.0 
1.644507199462e+01 -1.743697981535e+01 0.0 
1.549987712903e+01 -1.915192375101e+01 0.0 
3.050250861901e+01 -1.918943550234e+01 0.0 
2.949944061527e+01 -1.922950455235e+01 0.0 
1.375892575273e+01 -6.447160534926e+00 0.0 
1.457223670180e+01 -7.006709243857e+00 0.0 
1.450818793236e+01 -7.965943451779e+00 0.0 
1.538804712402e+01 -7.553409623699e+00 0.0 
1.545817644768e+01 -6.580929593419e+00 0.0 
1.626506893751e+01 -7.129032608911e+00 0.0 
1.619833811522e+01 -8.086588580887e+00 0.0 
1.714448609609e+01 -6.697429609777e+00 0.0 
2.887616543568e+01 -1.668015232137e+01 0.0 
1.349814589130e+01 -1.918225301544e+01 0.0 
1.153887772210e+01 -1.311384581217e+01 0.0 
1.242708159886e+01 -1.267046795531e+01 0.0 
1.249799674267e+01 -1.169005616014e+01 0.0 
6.631723893693e+00 -9.774184881867e+00 0.0 
7.451471631867e+00 -1.033148796006e+01 0.0 
7.377795355458e+00 -1.132196345268e+01 0.0 
5.810931797536e+00 -9.211654212252e+00 0.0 
2.402683899133e+01 -1.441378562320e+01 0.0 
1.249768692036e+01 -1.917388426624e+01 0.0 
1.580373499437e+01 -1.290751860664e+01 0.0 
8.344650507834e+00 -9.898403995170e+00 0.0 
3.750622115305e+01 -1.086526401533e+01 0.0 
3.699391251667e+01 -1.171695900794e+01 0.0 
3.606517829518e+01 -1.173717504500e+01 0.0 
3.650257641795e+01 -1.270047380221e+01 0.0 
3.808951488918e+01 -1.183518714175e+01 0.0 
4.760380962420e+00 -1.162484888315e+01 0.0 
3.861210370848e+00 -1.205657631736e+01 0.0 
3.038284309476e+00 -1.149851280664e+01 0.0 
2.961598794889e+00 -1.248856794980e+01 0.0 
2.138953225512e+00 -1.193212674534e+01 0.0 
2.227383593457e+00 -1.096258903918e+01 0.0 
2.043265419276e+00 -1.292158472959e+01 0.0 
1.252449446028e+00 -1.225502002753e+01 0.0 
3.949985210740e+01 -1.086594001795e+01 0.0 
1.453499444792e+01 -8.768805922472e-01 0.0 
1.403518950933e+01 -1.749965556633e+00 0.0 
1.300715031023e+01 -1.714737233040e+00 0.0 
1.350929389899e+01 -2.527443911291e+00 0.0 
1.449600910711e+01 -2.595486162864e+00 0.0 
1.395693872901e+01 -3.484211041558e+00 0.0 
1.495105865208e+01 -3.364609636216e+00 0.0 
1.508822528740e+01 -1.766586020494e+00 0.0 
1.250223858430e+01 -8.634590186802e-01 0.0 
1.200279523409e+01 -1.709044504992e+00 0.0 
1.150086239419e+01 -8.592789190668e-01 0.0 
1.101482754194e+01 -1.677730591922e+00 0.0 
1.148018564526e+01 -2.659323866909e+00 0.0 
8.800552119754e+00 -3.989875954728e+00 0.0 
3.452790439430e+00 -1.901136170646e+01 0.0 
8.658451825200e-01 -9.503462241795e+00 0.0 
1.694787786797e+00 -9.000589234502e+00 0.0 
1.703436717094e+00 -8.038819004041e+00 0.0 
2.594197971110e+00 -8.563955242845e+00 0.0 
1.630513735412e+00 -9.907244747511e+00 0.0 
8.566859292791e-01 -7.512203837972e+00 0.0 
1.685461277022e+00 -7.164280248030e+00 0.0 
2.506394468801e+00 -8.623386730818e-01 0.0 
2.007475081581e+00 -1.727729545205e+00 0.0 
9.211534699767e-01 -1.628791366312e+00 0.0 
1.500000000020e+00 -2.598063549486e+00 0.0 
2.482078929963e+00 -2.553580088725e+00 0.0 
2.999795253092e+00 -1.732169015019e+00 0.0 
3.999712607169e+00 -1.728832897453e+00 0.0 
4.499752199340e+00 -8.656478679175e-01 0.0 
4.964377774841e+00 -1.730129617941e+00 0.0 
4.425017908337e+00 -2.597541756243e+00 0.0 
5.446573195014e+00 -8.410144840023e-01 0.0 
4.915722346614e+01 -1.550640962770e+01 0.0 
4.826794919243e+01 -1.600000000000e+01 0.0 
1.053139533193e+01 -1.911782884365e+01 0.0 
4.156049861949e+01 -1.095160998589e+01 0.0 
9.494526624416e+00 -8.650570090219e-01 0.0 
4.555762166964e+01 -1.897098103585e+01 0.0 
4.250656411371e+01 -1.914387356218e+01 0.0 
4.350906466345e+01 -1.917234727395e+01 0.0 
8.759665722424e-01 -1.746422130609e+01 0.0 
1.698936011838e+00 -1.795012186674e+01 0.0 
4.742476811029e+01 -1.900090177972e+01 0.0 
7.749196752349e+00 -6.368049313489e+00 0.0 
3.361572113416e+01 -1.798765193915e+01 0.0 
4.484660149212e+01 -1.728661231383e+01 0.0 
1.984038172228e+01 -4.502575320116e+00 0.0 
1.035080352627e+01 -6.166639575753e+00 0.0 
2.753558010652e+00 -1.444909521181e+01 0.0 
7.217069543032e+00 -1.328635391078e+01 0.0 
4.364336727739e+00 -1.655585677381e+01 0.0 
4.595208426108e+00 -1.357919665443e+01 0.0 
6.164967006980e+00 -1.569873454630e+01 0.0 
1.487855768353e+01 -1.826523774028e+01 0.0 
2.791876456372e+00 -4.019632415181e+00 0.0 
4.246464893515e+01 -1.364898659620e+01 0.0 
4.503855590351e+01 -1.329552780944e+01 0.0 
4.407239109604e+01 -1.573900004093e+01 0.0 
5.141054449252e+00 -6.664290382472e+00 0.0 
3.141083947149e+00 -1.055790764912e+01 0.0 
6.196463198741e+00 -4.256497932609e+00 0.0 
2.599618716181e+01 -1.836893455464e+01 0.0 
2.923057372337e+01 -1.098461757645e+01 0.0 
1.168343877486e+01 -1.114079645041e+01 0.0 
6.706222096238e+00 -8.780364234441e+00 0.0 
8.567858614669e+00 -6.943121440850e+00 0.0 
1.123755132901e+01 -5.753525820030e+00 0.0 
2.353456234423e+01 -1.008536320953e+01 0.0 
9.162073319168e+00 -1.045593739109e+01 0.0 
9.676343469685e+00 -1.496493008366e+01 0.0 
4.490637882905e+01 -1.628778970202e+01 0.0 
7.398129387772e+00 -9.639977982323e-01 0.0 
1.049641705805e+01 -1.552503975272e+01 0.0 
9.010356286268e+00 -1.242805042052e+01 0.0 
3.985573925497e+01 -1.399863651620e+01 0.0 
1.816196318262e+01 -1.554066497931e+01 0.0 
1.306332244168e+01 -3.963646550326e+00 0.0 
4.145850903932e+01 -1.608094559275e+01 0.0 
3.794664933633e+01 -1.779020121986e+01 0.0 
3.819614412903e+01 -1.290749321016e+01 0.0 
6.270014188119e+00 -3.255093186826e+00 0.0 
4.251165370388e+01 -1.263870364997e+01 0.0 
1.207347709171e+01 -1.763942826023e+01 0.0 
3.633240829927e+01 -1.577330481104e+01 0.0 
4.319052668832e+00 -6.101812561904e+00 0.0 
1.676492415806e+01 -1.151547901392e+01 0.0 
2.594059220037e+01 -1.074225223009e+01 0.0 
3.340750911501e+01 -9.898764354137e+00 0.0 
4.397619591281e+01 -1.769773736461e+01 0.0 
2.175611595028e+01 -1.185718747128e+01 0.0 
1.641818733106e+01 -1.640685203215e+01 0.0 
1.661211421753e+01 -1.346121366338e+01 0.0 
3.428853504935e+00 -6.551993389271e+00 0.0 
8.700728832502e+00 -1.638460872825e+01 0.0 
1.931369795309e+01 -1.121629383702e+01 0.0 
4.139798872363e+01 -1.706922153459e+01 0.0 
2.647837478700e+01 -1.507353829290e+01 0.0 
1.779469616424e+01 -9.161615782908e+00 0.0 
3.885879219319e+01 -1.642026488918e+01 0.0 
1.338194936770e+01 -1.125916521471e+01 0.0 
1.897071181111e+01 -1.609204322578e+01 0.0 
2.844308548793e+01 -1.046221003096e+01 0.0 
2.659854702194e+01 -1.316109415760e+01 0.0 
2.979604503271e+01 -1.433296157755e+01 0.0 
2.417694041347e+01 -1.251231397779e+01 0.0 
1.807401327411e+00 -1.388891148480e+01 0.0 
9.599810618782e+00 -1.595439365034e+01 0.0 
1.652144692160e+01 -4.205392788472e+00 0.0 
2.367839450246e+01 -8.188385218643e+00 0.0 
3.814894930468e+01 -1.390748338767e+01 0.0 
2.466448215774e+01 -1.685878545680e+01 0.0 
4.134044524611e+01 -1.806610045954e+01 0.0 
2.600511411958e+01 -9.801774120648e+00 0.0 
7.882158050716e+00 -1.582364037353e+01 0.0 
3.881607873422e+01 -1.737970515013e+01 0.0 
8.270182347708e+00 -1.088622154920e+01 0.0 
8.672520392520e-01 -4.532984309881e+00 0.0 
1.993447205337e+01 -3.579061902667e+00 0.0 
1.794616079549e+01 -7.238038888498e+00 0.0 
2.097277068165e+01 -1.132450168636e+01 0.0 
8.194803300681e+00 -1.187214224265e+01 0.0 
3.522279404911e+01 -1.823342818178e+01 0.0 
6.984481050295e+00 -1.625271465557e+01 0.0 
1.309433007797e+01 -1.521718594215e+01 0.0 
2.150246167611e+01 -1.885399038185e+00 0.0 
3.250689370209e+01 -1.028789870535e+01 0.0 
6.085886272238e+00 -1.668342132851e+01 0.0 
1.588455661727e+01 -1.193498985921e+01 0.0 
1.809323400821e+01 -1.651110084195e+01 0.0 
1.348885082381e+00 -1.136065576512e+01 0.0 
2.497670221995e+01 -1.834631276173e+01 0.0 
2.937062818424e+01 -8.233711194470e+00 0.0 
5.185823744469e+00 -1.711566910207e+01 0.0 
1.477497877209e+01 -1.530177014512e+01 0.0 
2.125346158933e+01 -7.473003997367e+00 0.0 
4.751561118290e+01 -1.084897772632e+01 0.0 
5.056026576843e+00 -1.825750475525e+01 0.0 
1.473948554523e+01 -1.634577436309e+01 0.0 
2.410566630936e+01 -1.345970002612e+01 0.0 
1.507337507513e+01 -1.138527895328e+01 0.0 
3.189857338687e+01 -8.887781229006e+00 0.0 
7.298712468334e+00 -1.230231046246e+01 0.0 
2.738235495295e+01 -1.368931690364e+01 0.0 
3.750141041969e+01 -1.920449893070e+01 0.0 
1.557271965640e+01 -1.683317951731e+01 0.0 
3.393731848929e+01 -1.413034777044e+01 0.0 
6.482156824153e+00 -1.174575135362e+01 0.0 
2.077971718439e+01 -1.421279621836e+01 0.0 
3.455084320178e+00 -2.562590040585e+00 0.0 
3.099056096250e+01 -9.270280416035e+00 0.0 
5.580176125418e+00 -1.217387969259e+01 0.0 
1.707247630389e+01 -7.660651981710e+00 0.0 
1.418658814174e+01 -1.180390575393e+01 0.0 
2.049103025389e+01 -1.811296706038e+01 0.0 
4.680386172316e+00 -1.260396879301e+01 0.0 
1.699679896554e+01 -8.624561788199e+00 0.0 
3.779470168555e+00 -1.303424899720e+01 0.0 
3.036589870126e+01 -7.879832518349e+00 0.0 
3.306993001774e+01 -1.457671062095e+01 0.0 
2.840150110165e+00 -1.346530088269e+01 0.0 
2.732011135052e+01 -1.464591214560e+01 0.0 
5.423639259568e+00 -2.659711955016e+00 0.0 
2.324455961696e+01 -1.387269388211e+01 0.0 
1.752768355571e+00 -1.693128613594e+01 0.0 
1.020244783051e+01 -8.076834012808e+00 0.0 
1.330873875224e+01 -1.222417528206e+01 0.0 
3.297727364880e+01 -1.555480372087e+01 0.0 
2.890929955439e+01 -6.868664170731e+00 0.0 
1.323294664622e+01 -1.320754260334e+01 0.0 
2.726532861246e+01 -1.560593120806e+01 0.0 
2.240020643398e+01 -1.429299177247e+01 0.0 
2.090445823633e+01 -1.228128621332e+01 0.0 
1.315809881502e+01 -1.420739326938e+01 0.0 
2.781328038068e+01 -7.181956082300e+00 0.0 
8.614200829057e+00 -5.936933226306e+00 0.0 
8.714765730069e+00 -4.979270529687e+00 0.0 
1.611881701099e+01 -9.041973294003e+00 0.0 
2.806830314340e+01 -1.614622947108e+01 0.0 
2.084435391396e+00 -3.385085422913e+00 0.0 
3.133211811152e+01 -1.542347619750e+01 0.0 
9.693114650768e+00 -3.590281506442e+00 0.0 
1.531883592202e+01 -8.504584946143e+00 0.0 
2.151589117094e+01 -1.578915763018e+01 0.0 
4.918943882696e+01 -1.355538828056e+01 0.0 
1.443236615188e+01 -8.918701794549e+00 0.0 
8.276250966452e-01 -5.537685192197e+00 0.0 
1.362790867918e+01 -8.374718262212e+00 0.0 
2.083767477370e+01 -1.324843956035e+01 0.0 
1.273834678703e+01 -8.790890389337e+00 0.0 
1.192275845670e+01 -8.242261327467e+00 0.0 
4.477236023583e+01 -1.824312396664e+01 0.0 
1.102989384254e+01 -8.649855800911e+00 0.0 
4.849096516045e+01 -1.917293752213e+01 0.0 
1.588996752238e+00 -1.910230934687e+01 0.0 
4.904245197583e+01 -1.159839008158e+01 0.0 
2.753852929608e+01 -5.782128488093e+00 0.0 
1.756133602833e+01 -8.306130313187e-01 0.0 
2.615423700951e+01 -6.153865090092e+00 0.0 
1.028818761294e+01 -7.122020845892e+00 0.0 
2.970818901196e+01 -1.527821347593e+01 0.0 
4.801461623449e+01 -1.164472570985e+01 0.0 
9.455722100419e+00 -6.546069291118e+00 0.0 
3.089099236677e+01 -1.835339328261e+01 0.0 
2.350000000013e+01 -1.920825896750e+01 0.0 
4.830620531887e+01 -1.506626155470e+01 0.0 
1.725381944701e+01 -1.688794487850e+01 0.0 
2.156246225273e+01 -1.475893794002e+01 0.0 
4.919319648787e+01 -1.742767505896e+01 0.0 
4.437935623576e+01 -1.077662927266e+01 0.0 
1.001520521978e+01 -1.652692675208e+00 0.0 
9.067160240050e-01 -1.441937727541e+01 0.0 
2.603365149390e+01 -4.755996613848e+00 0.0 
2.458344439002e+01 -4.873645517696e+00 0.0 
2.304312390142e+01 -3.836552768096e+00 0.0 
2.546923202198e+00 -6.902480355749e+00 0.0 
1.251534969393e+01 -2.490989965776e+00 0.0 
2.454061833377e+01 -3.933354231935e+00 0.0 
1.788186558740e+01 -1.827424884923e+01 0.0 
4.090785243552e+01 -1.166553231904e+01 0.0 
2.230128851568e+01 -1.623015738726e+01 0.0 
2.302362347568e+01 -2.916239960270e+00 0.0 
3.878119254461e+01 -1.830091164002e+01 0.0 
2.210081359958e+01 -1.829238229150e+01 0.0 
8.443704882233e+00 -1.921993252862e+01 0.0 
2.218405824691e+01 -1.724557581508e+01 0.0 
2.151157503963e+01 -2.790636689331e+00 0.0 
3.741658958955e+01 -1.250400191722e+01 0.0 
2.697247663737e+01 -1.838290202309e+01 0.0 
4.743362342862e+01 -1.585850773010e+01 0.0 
6.671345075358e+00 -1.924977576322e+01 0.0 
3.900825404537e+01 -1.157220003875e+01 0.0 
4.649692961375e+01 -1.836335837481e+01 0.0 
1.578831424832e+01 -3.678284023361e+00 0.0 
4.814208768888e+01 -1.841249298770e+01 0.0 
2.964123298315e+01 -1.625739458193e+01 0.0 
4.580760351902e+01 -1.284294554687e+01 0.0 
3.561520879615e+01 -1.245548941949e+01 0.0 
2.555418095658e+00 -1.841101588290e+01 0.0 
3.288468366144e+01 -1.834258164109e+01 0.0 
2.065894391445e+01 -2.240688571739e+00 0.0 
4.739171429915e+01 -1.496536413446e+01 0.0 
3.478086729185e+00 -8.576434653209e+00 0.0 
1.606010630246e+01 -1.588421807951e+00 0.0 
1.018329200594e+01 -1.834320874317e+01 0.0 
2.957213339430e+01 -1.720496954591e+01 0.0 
4.142712790164e+00 -1.837794506222e+01 0.0 
6.698721532573e-01 -2.499999999997e+00 0.0 
8.037039123140e+00 -1.571229354954e+00 0.0 
1.203541361428e+01 -1.847784298001e+01 0.0 
2.899968332038e+01 -1.848264722179e+01 0.0 
1.469229460948e+01 -4.219485753730e+00 0.0 
4.049590781957e+01 -1.932812501995e+01 0.0 
1.996211678340e+01 -1.506329754720e+00 0.0 
4.250588298353e+01 -1.067383247529e+01 0.0 
5.831497011152e+00 -1.635396227234e+00 0.0 
5.317606125670e+00 -1.923927974868e+01 0.0 
4.208546426993e+01 -1.842830665025e+01 0.0 
2.327553405011e+00 -9.459409929662e+00 0.0 
3.568351902251e+01 -1.096637218582e+01 0.0 
1.682104374890e+00 -6.231413350963e+00 0.0 
2.451812238018e+01 -1.766524914339e+01 0.0 
1.058003429638e+01 -2.391839617098e+00 0.0 
4.399988753123e+01 -1.851998776342e+01 0.0 
1.400000000010e+01 -1.852293523028e+01 0.0 
3.604719565984e+01 -1.850662876800e+01 0.0 
1.951297136734e+01 -1.938092349694e+01 0.0 
1.821365318472e+01 -1.531276353287e+00 0.0 
2.298031859732e+01 -1.854635324722e+01 0.0 
1.552168066204e+01 -1.764280741977e+01 0.0 
4.572957713638e+01 -1.073347898229e+01 0.0 
3.429637429624e+01 -1.838861552790e+01 0.0 
2.427434426052e+00 -7.705577451869e+00 0.0 
4.662792031485e+00 -3.359424455416e+00 0.0 
4.926794919243e+01 -1.926794919243e+01 0.0 
7.320508075690e-01 -7.320508075688e-01 0.0 
4.926794919243e+01 -1.073205080757e+01 0.0 
7.320508075705e-01 -1.926794919243e+01 0.0 
2.917460242467e+00 -3.202866455310e+00 0.0 
4.838200575963e+01 -1.232674147454e+01 0.0 
2.998445708009e+01 -1.854403752148e+01 0.0 
5.949940090766e-01 -1.152762038165e+01 0.0 
4.844763495759e+01 -1.678092548787e+01 0.0 
1.301685480160e+01 -3.170056592566e+00 0.0 
1.650046335855e+01 -6.731535384067e-01 0.0 
4.854881540991e+01 -1.405224059779e+01 0.0 
2.119545114693e+01 -1.846813384545e+01 0.0 
3.797852849897e+01 -1.857978513215e+01 0.0 
4.649823708745e+01 -1.338351810816e+01 0.0 
2.012685900976e+01 -2.889659035009e+00 0.0 
2.953271913273e+01 -1.791558075192e+01 0.0 
2.408509097292e+00 -1.021949208421e+01 0.0 
2.642589566221e+01 -1.773216561448e+01 0.0 
1.730010270775e+01 -1.763165076721e+01 0.0 
2.017406551304e+01 -8.513536440582e-01 0.0 
5.254761581934e-01 -1.249999999999e+01 0.0 
6.640448215642e+00 -1.545337834885e+00 0.0 
7.843361506349e+00 -1.852719839527e+01 0.0 
1.588442191088e+00 -1.066158564320e+01 0.0 
2.731250000000e+01 -4.420918367347e+00 0.0 
4.951086956522e+01 -4.500000000000e+00 0.0 
2.880770112393e+01 -5.415638864241e+00 0.0 
4.951086956522e+01 -5.500000000000e+00 0.0 
3.031250000000e+01 -6.420918367347e+00 0.0 
4.951250000000e+01 -6.500000000000e+00 0.0 
3.180701530612e+01 -7.414795918363e+00 0.0 
4.951250000000e+01 -7.500000000000e+00 0.0 
3.331250000000e+01 -8.420918367347e+00 0.0 
4.951470588234e+01 -8.500000000000e+00 0.0 
3.480610198624e+01 -9.413633635267e+00 0.0 
4.951470588234e+01 -9.500000000000e+00 0.0 

CELLS 2186 8744 
3 302 772 1048 
3 772 302 1050 
3 782 275 793 
3 895 660 1084 
3 662 722 888 
3 752 665 791 
3 282 704 706 
3 302 729 1050 
3 704 282 722 
3 655 890 1084 
3 274 849 850 
3 729 302 1064 
3 894 1046 1090 
3 711 842 932 
3 1046 308 1090 
3 301 895 1084 
3 710 281 851 
3 665 752 790 
3 289 709 1031 
3 709 289 969 
3 890 655 1043 
3 1020 266 1026 
3 747 1020 1026 
3 697 696 906 
3 396 552 841 
3 849 274 958 
3 111 82 1111 
3 741 267 983 
3 394 396 841 
3 906 696 1116 
3 646 856 858 
3 299 712 889 
3 782 793 1091 
3 19 287 762 
3 297 716 718 
3 725 66 1082 
3 66 725 1108 
3 744 293 788 
3 708 102 1061 
3 102 708 1122 
3 984 726 1010 
3 262 748 887 
3 1065 263 1069 
3 82 311 1111 
3 703 310 1060 
3 742 1065 1069 
3 856 646 859 
3 310 703 1086 
3 852 853 859 
3 842 711 1083 
3 304 747 984 
3 694 709 969 
3 472 1085 1103 
3 304 984 1010 
3 794 276 974 
3 1067 639 1112 
3 694 969 1038 
3 287 732 762 
3 555 883 1001 
3 890 301 1084 
3 261 1095 1136 
3 1075 701 1077 
3 521 549 755 
3 1085 858 1103 
3 866 685 1090 
3 747 304 1020 
3 1095 705 1136 
3 275 782 1055 
3 582 543 864 
3 271 730 796 
3 958 901 1012 
3 33 32 750 
3 741 983 1113 
3 4 5 876 
3 873 1067 1112 
3 713 278 964 
3 794 974 1123 
3 761 1066 1073 
3 883 555 1125 
3 1066 303 1073 
3 543 556 864 
3 281 710 1071 
3 266 772 1026 
3 772 266 1048 
3 722 662 934 
3 704 722 934 
3 733 958 1063 
3 18 19 762 
3 787 784 1032 
3 662 888 1071 
3 889 712 1062 
3 313 840 1111 
3 886 1057 1081 
3 1081 1057 1093 
3 279 33 750 
3 788 293 1118 
3 710 851 1083 
3 887 748 1096 
3 307 739 1036 
3 755 549 756 
3 888 722 1106 
3 308 866 1090 
3 469 1035 1059 
3 700 1075 1077 
3 590 588 766 
3 853 856 859 
3 893 894 1016 
3 659 886 1081 
3 261 852 859 
3 989 284 1108 
3 434 787 1032 
3 4 876 1127 
3 657 753 789 
3 624 940 978 
3 668 870 1094 
3 728 755 756 
3 523 521 755 
3 297 718 1076 
3 739 307 1131 
3 727 523 755 
3 758 688 1033 
3 311 313 1111 
3 886 659 1134 
3 523 727 766 
3 1078 977 1092 
3 743 993 1002 
3 870 668 1124 
3 993 268 1002 
3 278 713 1104 
3 690 1078 1092 
3 849 958 1012 
3 660 895 1086 
3 597 654 754 
3 268 726 1002 
3 716 297 1096 
3 894 651 1046 
3 733 901 958 
3 754 654 954 
3 698 826 1116 
3 630 746 754 
3 680 891 892 
3 730 271 1102 
3 932 842 1079 
3 539 511 760 
3 746 597 754 
3 726 268 1010 
3 654 792 954 
3 766 592 961 
3 282 706 1061 
3 753 388 789 
3 712 299 1100 
3 1047 1053 1131 
3 877 289 1031 
3 305 743 978 
3 826 698 835 
3 727 590 766 
3 762 733 1063 
3 729 263 1065 
3 1035 695 1059 
3 288 734 735 
3 749 388 753 
3 732 287 1016 
3 582 758 1033 
3 894 653 1016 
3 769 642 797 
3 284 989 1098 
3 1047 652 1053 
3 588 592 766 
3 940 305 978 
3 274 850 1147 
3 263 729 1064 
3 388 749 763 
3 511 562 760 
3 734 288 1122 
3 592 753 961 
3 743 305 993 
3 636 825 1030 
3 870 571 1094 
3 267 741 1056 
3 796 730 1080 
3 728 756 1050 
3 571 870 1110 
3 813 943 997 
3 746 630 984 
3 729 728 1050 
3 769 624 978 
3 753 657 961 
3 277 890 1043 
3 400 809 1019 
3 287 893 1016 
3 742 303 1066 
3 598 763 987 
3 784 809 1032 
3 81 112 751 
3 630 726 984 
3 986 658 990 
3 882 1014 1107 
3 897 290 1123 
3 395 320 802 
3 1017 376 1044 
3 506 986 990 
3 840 313 1089 
3 841 552 1079 
3 696 698 1116 
3 1027 918 1054 
3 764 335 792 
3 594 484 797 
3 401 395 802 
3 591 769 797 
3 642 769 978 
3 540 1000 1040 
3 825 674 1030 
3 751 285 752 
3 756 772 1050 
3 756 549 771 
3 654 764 792 
3 809 779 1019 
3 665 664 970 
3 658 757 976 
3 708 734 1122 
3 763 749 987 
3 454 976 1025 
3 714 924 1148 
3 800 401 802 
3 924 270 1148 
3 882 883 1014 
3 303 742 1069 
3 1027 670 1028 
3 774 401 800 
3 670 669 1028 
3 650 759 765 
3 476 857 929 
3 688 865 1033 
3 943 506 997 
3 642 594 797 
3 685 866 1098 
3 112 285 751 
3 559 589 765 
3 349 388 763 
3 747 746 984 
3 757 658 986 
3 725 989 1108 
3 1011 400 1019 
3 458 440 795 
3 506 990 997 
3 958 274 1063 
3 792 402 954 
3 801 802 998 
3 701 1075 1120 
3 349 763 770 
3 589 650 765 
3 319 591 767 
3 750 32 1104 
3 335 764 939 
3 808 351 947 
3 735 734 736 
3 864 556 1068 
3 591 768 769 
3 558 458 795 
3 664 798 899 
3 646 858 1085 
3 401 774 936 
3 484 767 797 
3 523 766 961 
3 774 613 936 
3 809 400 1032 
3 402 773 915 
3 269 723 1082 
3 599 808 947 
3 327 593 773 
3 657 789 920 
3 599 807 808 
3 441 457 798 
3 839 280 840 
3 353 350 770 
3 470 821 822 
3 801 1011 1019 
3 112 113 285 
3 591 317 768 
3 440 438 795 
3 514 559 765 
3 443 441 798 
3 322 319 767 
3 712 758 1062 
3 550 640 771 
3 599 806 807 
3 767 591 797 
3 839 840 841 
3 560 665 790 
3 470 822 824 
3 471 474 821 
3 756 771 772 
3 801 998 1011 
3 549 550 771 
3 436 353 770 
3 763 598 770 
3 560 664 665 
3 789 345 920 
3 689 759 761 
3 37 276 794 
3 39 290 793 
3 336 335 939 
3 457 440 458 
3 513 514 572 
3 328 327 773 
3 457 458 513 
3 470 471 821 
3 402 915 954 
3 891 680 1109 
3 795 598 987 
3 1000 656 1040 
3 689 572 759 
3 294 57 814 
3 513 458 514 
3 333 402 792 
3 560 464 664 
3 836 529 944 
3 350 349 770 
3 474 818 821 
3 593 484 594 
3 42 815 816 
3 438 436 598 
3 599 427 806 
3 573 572 689 
3 804 489 927 
3 976 757 1025 
3 589 590 648 
3 663 804 927 
3 292 45 796 
3 566 658 976 
3 41 275 815 
3 932 552 962 
3 787 434 1052 
3 650 648 742 
3 595 594 627 
3 327 484 593 
3 327 325 484 
3 403 939 965 
3 267 47 799 
3 394 841 1089 
3 768 624 769 
3 598 436 770 
3 669 865 1028 
3 627 642 743 
3 589 588 590 
3 288 735 988 
3 474 817 818 
3 438 598 795 
3 778 800 801 
3 559 588 589 
3 593 594 595 
3 427 429 806 
3 602 829 916 
3 50 291 805 
3 630 628 726 
3 442 444 824 
3 683 1017 1044 
3 649 728 729 
3 648 590 649 
3 784 781 809 
3 333 331 402 
3 640 746 747 
3 595 627 628 
3 54 293 810 
3 293 744 1070 
3 781 779 809 
3 801 800 802 
3 829 369 916 
3 521 522 549 
3 441 440 457 
3 439 438 440 
3 335 333 792 
3 616 836 944 
3 384 830 831 
3 777 775 778 
3 444 470 824 
3 518 403 519 
3 773 593 915 
3 520 519 521 
3 275 40 793 
3 290 38 794 
3 290 897 1091 
3 602 828 829 
3 613 515 936 
3 589 648 650 
3 437 436 438 
3 664 464 798 
3 550 597 640 
3 838 839 842 
3 804 932 962 
3 814 812 906 
3 785 784 787 
3 319 317 591 
3 326 325 327 
3 464 443 798 
3 861 863 864 
3 388 347 789 
3 341 339 403 
3 347 345 789 
3 258 977 1078 
3 735 736 737 
3 865 669 1033 
3 514 558 559 
3 57 56 814 
3 448 450 540 
3 312 624 768 
3 289 877 1099 
3 939 764 965 
3 349 347 388 
3 325 322 767 
3 271 43 816 
3 627 594 642 
3 331 328 773 
3 384 831 837 
3 775 774 800 
3 602 827 828 
3 44 271 796 
3 41 40 275 
3 37 36 276 
3 39 38 290 
3 324 322 325 
3 778 775 800 
3 783 781 784 
3 521 519 522 
3 549 522 550 
3 833 830 917 
3 777 778 779 
3 46 292 799 
3 692 613 774 
3 806 540 807 
3 692 774 775 
3 533 531 834 
3 341 403 518 
3 640 597 746 
3 513 572 573 
3 279 750 1074 
3 520 521 523 
3 914 633 983 
3 830 384 917 
3 475 478 817 
3 294 814 906 
3 559 587 588 
3 42 41 815 
3 290 794 1123 
3 332 331 333 
3 861 862 863 
3 44 43 271 
3 259 810 811 
3 474 475 817 
3 429 448 806 
3 265 51 805 
3 120 260 862 
3 518 519 520 
3 330 328 331 
3 334 333 335 
3 402 331 773 
3 572 514 765 
3 46 45 292 
3 435 353 436 
3 561 560 790 
3 723 269 1149 
3 862 260 863 
3 629 628 630 
3 856 857 858 
3 743 642 978 
3 259 55 810 
3 48 47 267 
3 484 325 767 
3 853 855 856 
3 702 561 790 
3 856 855 857 
3 946 644 959 
3 838 280 839 
3 314 312 768 
3 50 49 291 
3 296 838 842 
3 276 36 803 
3 536 533 834 
3 663 711 804 
3 649 727 728 
3 448 540 806 
3 664 899 970 
3 52 51 265 
3 40 39 793 
3 38 37 794 
3 602 410 827 
3 405 407 833 
3 341 518 920 
3 410 412 827 
3 54 53 293 
3 514 458 558 
3 821 820 822 
3 818 819 820 
3 553 663 927 
3 58 294 826 
3 853 854 855 
3 56 55 259 
3 817 682 818 
3 43 42 816 
3 783 784 785 
3 119 120 862 
3 518 657 920 
3 612 515 613 
3 45 44 796 
3 324 325 326 
3 579 536 580 
3 573 689 690 
3 812 811 813 
3 574 681 682 
3 818 682 819 
3 852 295 853 
3 47 46 799 
3 798 457 899 
3 566 614 658 
3 663 710 711 
3 900 632 919 
3 818 820 821 
3 326 327 328 
3 51 50 805 
3 407 509 833 
3 418 454 524 
3 338 336 339 
3 677 570 678 
3 822 820 823 
3 827 524 828 
3 339 336 939 
3 675 532 949 
3 448 449 450 
3 340 339 341 
3 377 379 837 
3 559 558 587 
3 405 833 917 
3 580 536 834 
3 404 427 599 
3 56 259 814 
3 691 613 692 
3 575 900 919 
3 55 54 810 
3 259 811 812 
3 346 345 347 
3 853 295 854 
3 59 826 835 
3 776 775 777 
3 478 574 817 
3 58 57 294 
3 412 418 827 
3 550 596 597 
3 317 314 768 
3 404 599 947 
3 408 602 916 
3 570 529 836 
3 802 320 998 
3 629 754 954 
3 450 468 469 
3 737 736 738 
3 379 384 837 
3 429 431 448 
3 574 631 681 
3 601 423 902 
3 118 119 860 
3 588 587 592 
3 574 682 817 
3 830 672 831 
3 344 342 345 
3 418 524 827 
3 553 661 663 
3 478 541 574 
3 59 58 826 
3 330 331 332 
3 600 671 672 
3 332 333 334 
3 600 672 830 
3 860 119 862 
3 316 314 317 
3 869 868 870 
3 270 125 884 
3 509 564 600 
3 418 453 454 
3 898 568 923 
3 678 836 980 
3 678 570 836 
3 312 272 624 
3 296 109 838 
3 693 803 996 
3 334 335 336 
3 125 126 884 
3 688 608 865 
3 854 860 861 
3 670 1027 1054 
3 586 636 1030 
3 666 898 923 
3 463 946 959 
3 387 385 896 
3 425 423 601 
3 566 577 614 
3 483 464 560 
3 300 868 869 
3 273 872 873 
3 262 60 835 
3 60 59 835 
3 868 867 871 
3 600 564 671 
3 408 410 602 
3 614 696 697 
3 608 527 865 
3 461 546 566 
3 882 880 883 
3 509 600 833 
3 831 672 832 
3 286 879 880 
3 300 867 868 
3 612 613 691 
3 126 127 881 
3 110 280 838 
3 110 111 280 
3 529 433 944 
3 273 10 872 
3 574 541 631 
3 759 572 765 
3 719 717 720 
3 799 292 914 
3 603 497 930 
3 649 590 727 
3 712 688 758 
3 595 628 629 
3 106 281 888 
3 105 106 888 
3 126 881 884 
3 881 880 882 
3 875 877 878 
3 451 392 526 
3 286 874 879 
3 867 264 871 
3 261 116 852 
3 392 387 896 
3 740 738 760 
3 108 109 296 
3 636 731 825 
3 412 417 418 
3 737 738 739 
3 10 11 872 
3 875 878 879 
3 30 29 891 
3 278 30 891 
3 663 661 710 
3 281 107 851 
3 872 869 873 
3 28 277 892 
3 526 392 896 
3 109 110 838 
3 108 296 851 
3 627 743 1002 
3 36 35 803 
3 891 29 892 
3 286 880 881 
3 127 286 881 
3 687 608 688 
3 831 832 968 
3 893 651 894 
3 115 116 261 
3 298 885 886 
3 117 295 852 
3 569 529 570 
3 117 118 295 
3 116 117 852 
3 676 570 677 
3 622 685 686 
3 739 738 740 
3 915 629 954 
3 874 875 879 
3 424 425 904 
3 25 24 895 
3 301 25 895 
3 107 108 851 
3 505 433 529 
3 29 28 892 
3 579 580 695 
3 875 876 877 
3 874 309 875 
3 875 309 876 
3 11 12 300 
3 308 69 866 
3 80 79 310 
3 129 309 874 
3 13 264 867 
3 70 69 308 
3 68 284 866 
3 61 262 887 
3 76 283 885 
3 78 77 298 
3 69 68 866 
3 68 67 284 
3 298 77 885 
3 129 130 309 
3 103 104 282 
3 106 107 281 
3 286 128 874 
3 65 64 269 
3 297 62 887 
3 63 62 297 
3 128 129 874 
3 127 128 286 
3 61 60 262 
3 62 61 887 
3 76 75 283 
3 100 101 288 
3 77 76 885 
3 74 73 307 
3 98 99 652 
3 124 125 270 
3 122 123 299 
3 121 122 889 
3 120 121 260 
3 13 14 264 
3 12 13 867 
3 122 299 889 
3 16 17 274 
3 260 121 889 
3 34 33 279 
3 28 27 277 
3 31 30 278 
3 6 7 289 
3 9 10 273 
3 27 26 890 
3 19 20 287 
3 26 25 301 
3 20 21 893 
3 21 22 651 
3 300 12 867 
3 277 27 890 
3 26 301 890 
3 287 20 893 
3 21 651 893 
3 516 517 901 
3 295 118 860 
3 407 508 509 
3 881 882 884 
3 719 720 721 
3 600 830 833 
3 482 466 903 
3 451 526 527 
3 1014 715 1107 
3 622 686 903 
3 509 510 564 
3 300 869 872 
3 466 528 903 
3 659 660 703 
3 11 300 872 
3 454 453 461 
3 416 414 467 
3 516 465 517 
3 584 516 901 
3 435 436 437 
3 629 630 754 
3 345 342 920 
3 424 423 425 
3 528 621 622 
3 732 584 733 
3 575 669 670 
3 647 568 655 
3 563 512 568 
3 708 707 734 
3 422 420 423 
3 465 424 904 
3 659 647 660 
3 563 647 659 
3 467 414 926 
3 622 653 685 
3 525 497 603 
3 732 733 762 
3 723 721 724 
3 655 568 898 
3 502 500 503 
3 418 417 453 
3 462 544 545 
3 481 567 575 
3 687 688 712 
3 854 295 860 
3 563 568 647 
3 622 621 653 
3 861 860 862 
3 780 779 781 
3 706 606 707 
3 452 466 482 
3 528 584 621 
3 631 632 683 
3 621 584 732 
3 706 707 708 
3 448 431 449 
3 723 724 725 
3 694 576 709 
3 718 717 719 
3 511 503 512 
3 545 576 639 
3 575 670 900 
3 847 845 848 
3 499 501 605 
3 386 390 405 
3 562 512 563 
3 502 511 539 
3 671 564 843 
3 733 584 901 
3 528 516 584 
3 511 512 562 
3 504 456 542 
3 564 510 565 
3 537 623 699 
3 503 910 923 
3 509 508 510 
3 416 467 902 
3 716 644 717 
3 502 503 511 
3 645 561 702 
3 619 714 715 
3 445 443 464 
3 528 622 903 
3 501 500 502 
3 849 847 850 
3 605 606 704 
3 566 546 577 
3 843 565 844 
3 466 516 528 
3 545 544 576 
3 719 721 723 
3 564 565 843 
3 639 576 694 
3 565 510 912 
3 405 406 407 
3 391 387 392 
3 846 847 849 
3 124 270 924 
3 299 123 924 
3 517 465 904 
3 462 504 544 
3 422 423 424 
3 423 420 902 
3 379 383 384 
3 478 479 541 
3 525 603 604 
3 791 665 1141 
3 407 507 508 
3 614 577 696 
3 544 504 555 
3 605 501 606 
3 704 606 706 
3 607 527 608 
3 643 610 644 
3 496 494 497 
3 462 456 504 
3 679 603 948 
3 604 603 679 
3 399 456 462 
3 728 727 755 
3 393 392 451 
3 466 465 516 
3 844 845 846 
3 692 775 776 
3 525 604 666 
3 452 424 465 
3 422 424 452 
3 451 527 607 
3 452 465 466 
3 496 497 498 
3 846 845 847 
3 499 500 501 
3 498 497 525 
3 351 352 947 
3 910 666 923 
3 510 571 912 
3 844 565 845 
3 507 406 667 
3 381 378 382 
3 499 498 500 
3 373 375 408 
3 391 393 399 
3 619 608 687 
3 496 498 499 
3 391 392 393 
3 716 717 718 
3 503 500 910 
3 452 482 905 
3 259 812 814 
3 510 508 571 
3 399 393 456 
3 607 608 619 
3 421 420 422 
3 502 539 909 
3 619 687 714 
3 405 390 406 
3 709 576 907 
3 499 605 908 
3 407 406 507 
3 420 416 902 
3 507 667 668 
3 568 512 923 
3 390 387 391 
3 415 419 463 
3 575 567 669 
3 419 416 420 
3 848 845 912 
3 421 422 905 
3 822 823 1004 
3 576 544 907 
3 707 606 909 
3 569 570 676 
3 519 403 965 
3 501 502 909 
3 481 575 919 
3 493 495 553 
3 544 555 907 
3 720 717 946 
3 505 529 569 
3 450 449 468 
3 604 679 680 
3 408 409 410 
3 542 456 913 
3 413 411 414 
3 643 644 716 
3 631 541 632 
3 422 452 905 
3 500 498 910 
3 475 477 478 
3 415 414 416 
3 661 554 662 
3 545 639 945 
3 386 387 390 
3 338 339 340 
3 419 420 421 
3 550 522 596 
3 340 341 342 
3 495 494 496 
3 606 501 909 
3 553 554 661 
3 845 565 912 
3 583 485 610 
3 410 411 412 
3 605 704 934 
3 782 781 783 
3 469 468 537 
3 415 416 419 
3 498 525 910 
3 379 381 383 
3 383 385 386 
3 451 607 913 
3 412 413 417 
3 386 405 917 
3 495 496 908 
3 553 495 554 
3 355 357 404 
3 896 385 918 
3 437 438 439 
3 386 385 387 
3 383 381 385 
3 393 451 913 
3 461 485 546 
3 374 372 376 
3 525 666 910 
3 370 372 373 
3 412 411 413 
3 408 375 409 
3 344 345 346 
3 456 393 913 
3 583 610 643 
3 583 643 748 
3 530 532 675 
3 379 378 381 
3 410 409 411 
3 496 499 908 
3 384 383 917 
3 518 520 657 
3 390 391 911 
3 541 479 919 
3 377 378 379 
3 391 399 911 
3 462 545 937 
3 409 375 609 
3 413 414 415 
3 548 585 586 
3 123 124 924 
3 366 364 367 
3 370 368 371 
3 377 376 378 
3 554 495 908 
3 373 374 375 
3 406 390 911 
3 374 376 377 
3 512 503 923 
3 667 406 911 
3 619 715 933 
3 913 607 933 
3 632 541 919 
3 381 382 918 
3 366 368 369 
3 373 372 374 
3 481 543 567 
3 542 913 933 
3 804 711 932 
3 911 399 937 
3 461 453 485 
3 534 547 548 
3 318 317 319 
3 557 491 578 
3 586 635 636 
3 352 355 947 
3 532 534 949 
3 479 480 481 
3 377 837 921 
3 348 347 349 
3 471 473 474 
3 543 480 556 
3 383 386 917 
3 370 371 372 
3 369 368 370 
3 667 911 937 
3 373 408 916 
3 366 367 368 
3 362 364 365 
3 385 381 918 
3 432 430 433 
3 493 494 495 
3 362 360 363 
3 546 485 583 
3 478 477 479 
3 696 577 698 
3 369 370 916 
3 636 730 731 
3 329 328 330 
3 479 481 919 
3 321 319 322 
3 611 515 612 
3 369 829 952 
3 592 749 753 
3 323 322 324 
3 403 339 939 
3 481 480 543 
3 713 684 750 
3 567 543 582 
3 744 638 745 
3 898 666 941 
3 455 433 505 
3 908 605 934 
3 492 491 557 
3 365 364 366 
3 404 426 427 
3 641 578 684 
3 415 463 922 
3 490 492 493 
3 569 676 757 
3 479 477 480 
3 490 488 491 
3 799 914 983 
3 583 748 935 
3 374 377 921 
3 554 908 934 
3 662 554 934 
3 370 373 916 
3 417 413 922 
3 453 417 925 
3 607 619 933 
3 439 440 441 
3 358 360 361 
3 362 363 364 
3 342 341 920 
3 641 684 713 
3 777 779 780 
3 666 604 941 
3 597 596 654 
3 487 459 515 
3 413 415 922 
3 679 948 964 
3 460 488 489 
3 375 374 921 
3 358 356 359 
3 490 491 492 
3 557 578 641 
3 497 494 930 
3 493 492 494 
3 644 610 959 
3 637 551 638 
3 610 485 925 
3 414 411 926 
3 726 628 1002 
3 432 455 486 
3 397 395 401 
3 399 462 937 
3 361 360 362 
3 678 980 992 
3 427 428 429 
3 444 446 470 
3 358 359 360 
3 429 430 431 
3 595 629 915 
3 609 375 921 
3 489 804 962 
3 722 282 1106 
3 84 249 258 
3 411 409 926 
3 455 505 506 
3 776 777 897 
3 404 357 426 
3 409 609 926 
3 493 553 927 
3 85 250 303 
3 432 433 455 
3 428 426 616 
3 593 595 915 
3 417 922 925 
3 474 473 475 
3 485 453 925 
3 577 546 935 
3 431 430 432 
3 494 492 930 
3 538 536 579 
3 546 583 935 
3 86 251 263 
3 489 490 927 
3 699 623 700 
3 492 557 930 
3 429 428 430 
3 357 356 358 
3 999 671 1003 
3 483 560 561 
3 603 930 948 
3 937 545 945 
3 87 252 302 
3 535 533 536 
3 604 680 941 
3 475 476 477 
3 337 336 338 
3 489 488 490 
3 968 832 973 
3 470 446 471 
3 592 587 749 
3 556 480 929 
3 475 473 476 
3 477 476 929 
3 427 426 428 
3 803 35 996 
3 88 253 266 
3 717 644 946 
3 354 353 435 
3 398 460 962 
3 445 464 483 
3 698 577 935 
3 480 477 929 
3 668 667 945 
3 449 431 928 
3 366 369 952 
3 537 551 623 
3 520 523 961 
3 397 401 936 
3 637 638 744 
3 490 493 927 
3 777 780 897 
3 488 487 951 
3 487 515 611 
3 457 513 899 
3 720 946 966 
3 460 487 488 
3 351 808 972 
3 89 254 304 
3 637 744 788 
3 442 441 443 
3 667 937 945 
3 537 468 551 
3 289 7 969 
3 343 342 344 
3 432 486 928 
3 611 612 931 
3 612 691 693 
3 431 432 928 
3 578 491 951 
3 352 350 353 
3 534 548 949 
3 90 255 268 
3 783 785 786 
3 91 256 305 
3 257 91 940 
3 355 404 947 
3 82 257 272 
3 625 380 626 
3 346 347 348 
3 358 361 938 
3 471 446 472 
3 355 356 357 
3 557 641 948 
3 780 781 782 
3 463 419 966 
3 623 551 637 
3 365 366 952 
3 487 611 951 
3 357 358 938 
3 721 720 975 
3 491 488 951 
3 515 459 936 
3 433 430 944 
3 352 354 355 
3 548 547 585 
3 326 328 329 
3 471 472 473 
3 442 443 444 
3 657 520 961 
3 334 336 337 
3 724 721 979 
3 460 459 487 
3 355 354 356 
3 530 675 955 
3 486 455 943 
3 930 557 948 
3 586 585 635 
3 552 398 962 
3 658 614 990 
3 426 357 938 
3 455 506 943 
3 340 342 343 
3 684 578 967 
3 636 635 730 
3 428 616 944 
3 444 443 445 
3 538 579 581 
3 343 380 618 
3 352 353 354 
3 430 428 944 
3 461 566 976 
3 444 445 446 
3 616 426 938 
3 321 322 323 
3 724 979 985 
3 323 324 434 
3 535 536 538 
3 318 319 321 
3 315 314 316 
3 329 330 389 
3 638 551 953 
3 946 463 966 
3 398 459 460 
3 612 693 931 
3 316 317 318 
3 435 437 615 
3 538 581 634 
3 948 641 964 
3 344 346 942 
3 343 344 380 
3 354 435 950 
3 459 397 936 
3 596 522 965 
3 625 626 656 
3 522 519 965 
3 468 449 953 
3 634 701 741 
3 359 356 950 
3 483 561 617 
3 691 692 974 
3 654 596 764 
3 992 365 1005 
3 634 581 701 
3 398 397 459 
3 922 463 959 
3 348 349 350 
3 617 561 645 
3 985 686 989 
3 337 338 447 
3 450 469 1000 
3 585 547 633 
3 645 702 705 
3 925 922 959 
3 558 795 987 
3 396 398 552 
3 467 973 994 
3 356 354 950 
3 721 975 979 
3 618 380 625 
3 435 615 950 
3 337 447 530 
3 617 645 646 
3 532 533 534 
3 449 928 953 
3 731 730 1102 
3 534 535 547 
3 442 824 971 
3 419 421 966 
3 641 713 964 
3 788 265 1006 
3 551 468 953 
3 351 350 352 
3 530 531 532 
3 903 686 985 
3 847 848 982 
3 534 533 535 
3 460 489 962 
3 720 966 975 
3 610 925 959 
3 100 288 988 
3 652 99 988 
3 321 323 400 
3 532 531 533 
3 601 902 994 
3 329 389 620 
3 626 380 942 
3 813 997 1121 
3 348 350 351 
3 34 279 996 
3 313 312 314 
3 380 344 942 
3 467 926 973 
3 439 441 442 
3 609 921 968 
3 530 447 531 
3 332 334 955 
3 396 397 398 
3 620 389 673 
3 620 673 674 
3 878 877 1031 
3 921 837 968 
3 764 596 965 
3 324 326 956 
3 434 324 956 
3 745 638 981 
3 7 8 969 
3 472 446 960 
3 338 340 957 
3 837 831 968 
3 91 305 940 
3 272 257 940 
3 396 395 397 
3 513 573 899 
3 973 832 994 
3 506 505 986 
3 446 445 960 
3 267 799 983 
3 951 611 967 
3 672 671 999 
3 966 421 975 
3 883 880 1001 
3 569 757 986 
3 447 338 957 
3 879 878 1001 
3 578 951 967 
3 445 483 960 
3 326 329 956 
3 334 337 955 
3 362 365 992 
3 828 524 1021 
3 611 931 967 
3 524 454 1025 
3 343 618 957 
3 340 343 957 
3 249 83 977 
3 483 617 960 
3 535 538 963 
3 315 316 320 
3 538 634 963 
3 587 558 987 
3 779 778 1019 
3 633 547 963 
3 624 272 940 
3 547 535 963 
3 421 905 975 
3 834 531 991 
3 609 968 973 
3 926 609 973 
3 692 776 974 
3 829 828 1018 
3 337 530 955 
3 808 807 1024 
3 454 461 976 
3 942 346 972 
3 971 824 1004 
3 836 616 980 
3 615 437 971 
3 329 620 956 
3 615 971 1004 
3 389 330 995 
3 638 953 981 
3 953 928 981 
3 346 348 972 
3 394 395 396 
3 975 905 979 
3 905 482 979 
3 573 690 970 
3 389 995 1013 
3 724 985 989 
3 640 747 1026 
3 601 999 1003 
3 258 249 977 
3 979 482 985 
3 439 442 971 
3 850 847 982 
3 1000 469 1059 
3 394 320 395 
3 315 320 394 
3 447 957 991 
3 90 268 993 
3 305 256 993 
3 482 903 985 
3 1021 524 1025 
3 678 992 1005 
3 505 569 986 
3 938 361 980 
3 437 439 971 
3 256 90 993 
3 313 314 315 
3 99 100 988 
3 928 486 981 
3 348 351 972 
3 637 788 1006 
3 621 732 1016 
3 616 938 980 
3 725 724 989 
3 1004 823 1008 
3 700 623 1006 
3 957 618 991 
3 580 834 1015 
3 614 697 990 
3 378 376 1017 
3 955 675 995 
3 980 361 992 
3 332 955 995 
3 749 587 987 
3 695 580 1023 
3 361 362 992 
3 902 467 994 
3 330 332 995 
3 1092 306 1105 
3 807 540 1040 
3 761 258 1078 
3 542 933 1014 
3 601 994 999 
3 548 586 1022 
3 320 316 998 
3 89 304 1010 
3 35 34 996 
3 83 248 306 
3 268 255 1010 
3 677 678 1005 
3 671 843 1003 
3 628 627 1002 
3 1034 819 1037 
3 1018 828 1021 
3 531 447 991 
3 540 450 1000 
3 785 1087 1097 
3 899 573 970 
3 832 672 999 
3 1003 843 1007 
3 896 918 1027 
3 311 272 312 
3 316 318 998 
3 18 762 1063 
3 880 879 1001 
3 705 702 1049 
3 865 527 1028 
3 843 844 1007 
3 359 1008 1029 
3 820 819 1034 
3 824 822 1004 
3 425 601 1003 
3 321 400 1011 
3 1007 844 1009 
3 359 950 1008 
3 995 675 1013 
3 711 710 1083 
3 469 537 1035 
3 844 846 1009 
3 425 1003 1007 
3 88 266 1020 
3 363 360 1029 
3 1009 846 1012 
3 283 75 1036 
3 74 307 1036 
3 304 254 1020 
3 904 425 1007 
3 682 681 1039 
3 761 759 1066 
3 623 637 1006 
3 669 567 1033 
3 1039 681 1041 
3 1024 807 1040 
3 255 89 1010 
3 846 849 1012 
3 9 273 1038 
3 311 312 313 
3 904 1007 1009 
3 365 952 1005 
3 994 832 999 
3 752 791 1105 
3 1060 298 1134 
3 367 364 1037 
3 943 813 1058 
3 580 1015 1023 
3 517 904 1009 
3 517 1009 1012 
3 1008 823 1029 
3 582 864 1114 
3 791 1092 1105 
3 901 517 1012 
3 990 697 997 
3 631 683 1042 
3 675 949 1013 
3 772 771 1026 
3 673 389 1013 
3 748 262 1101 
3 113 114 1049 
3 24 23 1045 
3 71 70 1046 
3 73 72 1047 
3 371 368 1041 
3 834 991 1015 
3 950 615 1008 
3 933 715 1014 
3 83 306 977 
3 898 941 1043 
3 318 321 1011 
3 82 272 311 
3 48 267 1056 
3 969 8 1038 
3 291 49 1056 
3 998 318 1011 
3 376 372 1044 
3 991 618 1015 
3 371 1041 1042 
3 650 742 1066 
3 1042 683 1044 
3 400 323 1032 
3 653 621 1016 
3 367 1037 1039 
3 673 1013 1022 
3 1049 114 1136 
3 363 1029 1034 
3 778 801 1019 
3 382 378 1017 
3 683 632 1051 
3 618 625 1015 
3 857 476 1103 
3 87 302 1048 
3 266 253 1048 
3 382 1051 1054 
3 677 1005 1018 
3 942 972 1024 
3 1013 949 1022 
3 782 783 1055 
3 254 88 1020 
3 885 283 1057 
3 730 635 1080 
3 615 1004 1008 
3 258 761 1073 
3 771 640 1026 
3 952 829 1018 
3 620 674 1052 
3 1005 952 1018 
3 665 970 1141 
3 676 677 1021 
3 742 648 1065 
3 972 808 1024 
3 677 1018 1021 
3 1015 625 1023 
3 539 760 1140 
3 918 382 1054 
3 689 761 1078 
3 676 1021 1025 
3 649 729 1065 
3 1049 702 1119 
3 310 79 1060 
3 78 298 1060 
3 863 260 1062 
3 757 676 1025 
3 526 1027 1028 
3 526 896 1027 
3 1022 586 1030 
3 625 656 1023 
3 949 548 1022 
3 363 1034 1037 
3 102 103 1061 
3 297 887 1096 
3 527 526 1028 
3 486 943 1058 
3 626 942 1024 
3 709 907 1031 
3 434 956 1052 
3 360 359 1029 
3 861 864 1068 
3 823 820 1034 
3 17 18 1063 
3 323 434 1032 
3 567 582 1033 
3 850 982 1133 
3 674 673 1030 
3 537 699 1035 
3 1017 683 1051 
3 1038 273 1112 
3 626 1024 1040 
3 75 74 1036 
3 855 854 1068 
3 914 292 1080 
3 793 290 1091 
3 307 1047 1131 
3 750 684 1074 
3 815 275 1055 
3 364 363 1037 
3 367 1039 1041 
3 811 810 1070 
3 285 113 1049 
3 8 9 1038 
3 850 1133 1147 
3 382 1017 1051 
3 819 682 1039 
3 86 263 1064 
3 302 252 1064 
3 710 661 1071 
3 1029 823 1034 
3 945 639 1067 
3 579 695 1072 
3 269 64 1076 
3 63 297 1076 
3 368 367 1041 
3 296 842 1083 
3 705 1049 1136 
3 85 303 1069 
3 858 857 1103 
3 263 251 1069 
3 656 626 1040 
3 681 631 1042 
3 1037 819 1039 
3 859 646 1095 
3 703 1060 1134 
3 1041 681 1042 
3 655 898 1043 
3 563 659 1081 
3 895 24 1045 
3 70 308 1046 
3 307 73 1047 
3 371 1042 1044 
3 253 87 1048 
3 372 371 1044 
3 66 65 1082 
3 84 258 1073 
3 303 250 1073 
3 745 981 1058 
3 888 281 1071 
3 660 647 1084 
3 673 1022 1030 
3 699 700 1077 
3 785 787 1087 
3 736 734 1088 
3 1051 900 1054 
3 632 900 1051 
3 1057 283 1137 
3 1072 699 1077 
3 280 111 1111 
3 652 988 1053 
3 735 737 1053 
3 734 707 1088 
3 617 646 1085 
3 900 670 1054 
3 680 892 1115 
3 909 539 1088 
3 265 788 1118 
3 783 786 1055 
3 956 620 1052 
3 967 931 1074 
3 571 508 1094 
3 507 668 1094 
3 748 643 1096 
3 261 859 1095 
3 694 1038 1112 
3 49 48 1056 
3 6 289 1099 
3 988 735 1053 
3 812 813 1121 
3 687 712 1100 
3 270 884 1107 
3 31 278 1104 
3 105 888 1106 
3 964 278 1109 
3 811 1070 1145 
3 282 104 1106 
3 285 1049 1119 
3 895 1045 1086 
3 542 1014 1125 
3 680 679 1109 
3 67 66 1108 
3 780 782 1091 
3 472 960 1085 
3 842 839 1079 
3 870 868 1110 
3 695 1035 1072 
3 52 265 1118 
3 886 885 1057 
3 293 53 1118 
3 646 645 1095 
3 723 725 1082 
3 473 472 1103 
3 878 1031 1130 
3 294 906 1116 
3 803 693 1117 
3 713 750 1104 
3 706 708 1061 
3 313 315 1089 
3 759 650 1066 
3 815 1055 1132 
3 873 869 1124 
3 690 1092 1141 
3 1035 699 1072 
3 101 102 1122 
3 693 691 1117 
3 3 80 1126 
3 23 3 1126 
3 130 0 1127 
3 0 4 1127 
3 72 1 1128 
3 1 98 1128 
3 2 71 1129 
3 22 2 1129 
3 876 309 1127 
3 115 261 1136 
3 989 686 1098 
3 634 741 1113 
3 555 504 1125 
3 719 723 1149 
3 16 274 1147 
3 264 14 1133 
3 760 738 1140 
3 929 857 1135 
3 695 1023 1059 
3 1014 883 1125 
3 912 571 1143 
3 1055 786 1132 
3 79 78 1060 
3 982 264 1133 
3 737 739 1131 
3 633 914 1144 
3 1087 825 1097 
3 1052 674 1087 
3 103 282 1061 
3 656 1000 1059 
3 974 776 1123 
3 639 694 1112 
3 260 889 1062 
3 585 633 1144 
3 981 486 1058 
3 857 855 1135 
3 740 1057 1137 
3 866 284 1098 
3 633 963 1113 
3 983 633 1113 
3 274 17 1063 
3 751 752 1105 
3 252 86 1064 
3 648 649 1065 
3 839 841 1079 
3 1023 656 1059 
3 941 680 1115 
3 810 293 1070 
3 854 861 1068 
3 863 1062 1114 
3 251 85 1069 
3 760 562 1093 
3 668 945 1067 
3 931 693 1139 
3 1031 907 1130 
3 744 745 1070 
3 661 662 1071 
3 805 291 1075 
3 581 579 1072 
3 841 840 1089 
3 835 698 1101 
3 693 996 1139 
3 1045 310 1086 
3 250 84 1073 
3 684 967 1074 
3 292 796 1080 
3 1070 745 1145 
3 581 1072 1077 
3 64 63 1076 
3 787 1052 1087 
3 81 751 1146 
3 690 689 1078 
3 786 785 1097 
3 552 932 1079 
3 653 894 1090 
3 701 581 1077 
3 269 1076 1149 
3 562 563 1081 
3 265 805 1138 
3 935 748 1101 
3 698 935 1101 
3 1067 873 1124 
3 65 269 1082 
3 851 296 1083 
3 647 655 1084 
3 864 863 1114 
3 659 703 1134 
3 740 760 1093 
3 876 5 1099 
3 960 617 1085 
3 674 825 1087 
3 278 891 1109 
3 703 660 1086 
3 1006 265 1138 
3 707 909 1088 
3 299 924 1100 
3 790 752 1119 
3 924 714 1100 
3 758 582 1114 
3 248 81 1146 
3 571 1110 1143 
3 685 653 1090 
3 897 780 1091 
3 315 394 1089 
3 508 507 1094 
3 643 716 1096 
3 697 906 1121 
3 1075 291 1120 
3 914 1080 1144 
3 825 731 1097 
3 1062 758 1114 
3 645 705 1095 
3 686 685 1098 
3 877 876 1099 
3 5 6 1099 
3 977 306 1092 
3 714 687 1100 
3 262 835 1101 
3 271 816 1102 
3 1043 941 1115 
3 291 1056 1120 
3 997 697 1121 
3 1088 539 1140 
3 32 31 1104 
3 476 473 1103 
3 104 105 1106 
3 855 1068 1135 
3 884 882 1107 
3 284 67 1108 
3 840 280 1111 
3 1001 878 1130 
3 868 871 1110 
3 1102 816 1132 
3 679 964 1109 
3 276 803 1117 
3 273 873 1112 
3 702 790 1119 
3 1076 718 1149 
3 1045 23 1126 
3 71 1046 1129 
3 1047 72 1128 
3 906 812 1121 
3 555 1001 1130 
3 1074 931 1139 
3 270 1107 1148 
3 826 294 1116 
3 974 276 1117 
3 752 285 1119 
3 963 634 1113 
3 562 1081 1093 
3 892 277 1115 
3 53 52 1118 
3 283 1036 1137 
3 816 815 1132 
3 691 974 1117 
3 1057 740 1093 
3 1102 1132 1142 
3 869 870 1124 
3 288 101 1122 
3 741 701 1120 
3 80 310 1126 
3 309 130 1127 
3 98 652 1128 
3 651 22 1129 
3 504 542 1125 
3 813 811 1145 
3 776 897 1123 
3 277 1043 1115 
3 907 555 1130 
3 1092 791 1141 
3 14 15 1133 
3 298 886 1134 
3 114 115 1136 
3 996 279 1139 
3 739 740 1137 
3 556 929 1135 
3 738 736 1140 
3 1056 741 1120 
3 1133 15 1147 
3 306 248 1146 
3 668 1067 1124 
3 848 912 1143 
3 15 16 1147 
3 700 1006 1138 
3 871 264 1150 
3 982 848 1150 
3 715 714 1148 
3 718 719 1149 
3 635 585 1144 
3 970 690 1141 
3 310 1045 1126 
3 1046 651 1129 
3 652 1047 1128 
3 1036 739 1137 
3 1143 871 1150 
3 848 1143 1150 
3 264 982 1150 
3 745 1058 1145 
3 1068 556 1135 
3 1080 635 1144 
3 1053 737 1131 
3 279 1074 1139 
3 1058 813 1145 
3 736 1088 1140 
3 786 1097 1142 
3 1075 700 1138 
3 805 1075 1138 
3 1105 306 1146 
3 1097 731 1142 
3 731 1102 1142 
3 1107 715 1148 
3 1110 871 1143 
3 751 1105 1146 
3 1132 786 1142 
3 131 174 175 
3 131 132 174 
3 132 173 174 
3 132 133 173 
3 133 172 173 
3 133 134 172 
3 134 171 172 
3 134 135 171 
3 135 170 171 
3 135 136 170 
3 136 169 170 
3 136 137 169 
3 137 168 169 
3 137 138 168 
3 168 138 167 
3 138 139 167 
3 139 166 167 
3 139 140 166 
3 87 152 1151 
3 140 165 166 
3 140 141 165 
3 141 164 165 
3 152 153 1151 
3 164 141 142 
3 152 87 154 
3 163 164 142 
3 143 163 142 
3 162 163 143 
3 144 162 143 
3 162 144 161 
3 144 145 161 
3 161 145 160 
3 145 146 160 
3 252 87 1151 
3 160 146 159 
3 146 147 159 
3 159 147 158 
3 147 148 158 
3 148 149 157 
3 148 157 158 
3 149 150 156 
3 157 149 156 
3 150 151 155 
3 151 152 154 
3 156 150 155 
3 155 151 154 
3 153 252 1151 
3 93 92 1152 
3 131 175 1152 
3 92 131 1152 
3 175 93 1152 
3 252 153 86 
3 174 175 176 
3 174 176 177 
3 173 174 177 
3 173 177 178 
3 172 173 178 
3 179 172 178 
3 179 171 172 
3 179 180 171 
3 180 170 171 
3 180 181 170 
3 181 169 170 
3 181 182 169 
3 182 168 169 
3 182 183 168 
3 168 183 167 
3 183 184 167 
3 184 166 167 
3 155 88 1153 
3 184 185 166 
3 185 165 166 
3 195 88 155 
3 185 186 165 
3 186 164 165 
3 186 187 164 
3 164 187 163 
3 187 188 163 
3 154 155 1153 
3 163 188 162 
3 188 189 162 
3 162 189 161 
3 189 190 161 
3 161 190 160 
3 190 191 160 
3 160 191 159 
3 191 192 159 
3 159 192 158 
3 192 193 158 
3 88 253 1153 
3 193 194 157 
3 193 157 158 
3 194 195 156 
3 157 194 156 
3 156 195 155 
3 253 154 1153 
3 93 94 1154 
3 176 175 1154 
3 94 176 1154 
3 175 93 1154 
3 253 87 154 
3 213 214 176 
3 177 213 176 
3 212 213 177 
3 178 212 177 
3 211 212 178 
3 179 211 178 
3 210 211 179 
3 180 210 179 
3 209 210 180 
3 209 180 181 
3 208 209 181 
3 182 208 181 
3 207 208 182 
3 183 207 182 
3 206 207 183 
3 184 206 183 
3 89 194 1155 
3 205 206 184 
3 205 184 185 
3 194 195 1155 
3 205 185 204 
3 204 185 186 
3 194 89 196 
3 203 204 186 
3 203 186 187 
3 202 203 187 
3 202 187 188 
3 201 202 188 
3 189 201 188 
3 254 89 1155 
3 200 201 189 
3 200 189 190 
3 199 200 190 
3 199 190 191 
3 198 191 192 
3 198 199 191 
3 192 193 197 
3 198 192 197 
3 193 194 196 
3 193 196 197 
3 195 254 1155 
3 95 94 1156 
3 176 214 1156 
3 94 176 1156 
3 214 95 1156 
3 195 88 254 
3 213 214 215 
3 216 213 215 
3 212 213 216 
3 217 212 216 
3 211 212 217 
3 218 211 217 
3 210 211 218 
3 219 210 218 
3 209 210 219 
3 220 209 219 
3 208 209 220 
3 221 208 220 
3 207 208 221 
3 207 221 222 
3 206 207 222 
3 197 90 1157 
3 223 206 222 
3 90 197 231 
3 206 223 205 
3 223 224 205 
3 205 224 204 
3 224 225 204 
3 225 203 204 
3 203 225 226 
3 196 197 1157 
3 203 226 202 
3 226 227 202 
3 227 201 202 
3 227 228 201 
3 228 200 201 
3 229 200 228 
3 200 229 199 
3 199 229 230 
3 198 230 231 
3 198 199 230 
3 90 255 1157 
3 197 198 231 
3 255 196 1157 
3 95 96 1158 
3 215 214 1158 
3 96 215 1158 
3 214 95 1158 
3 89 196 255 
3 246 247 215 
3 216 246 215 
3 245 246 216 
3 217 245 216 
3 244 245 217 
3 218 244 217 
3 243 244 218 
3 219 243 218 
3 242 243 219 
3 220 242 219 
3 241 242 220 
3 221 241 220 
3 240 241 221 
3 91 230 1159 
3 240 221 222 
3 239 240 222 
3 230 231 1159 
3 223 239 222 
3 239 223 238 
3 230 91 232 
3 223 224 238 
3 224 237 238 
3 224 225 237 
3 225 236 237 
3 225 226 236 
3 256 91 1159 
3 226 235 236 
3 226 227 235 
3 227 228 234 
3 227 234 235 
3 228 229 233 
3 228 233 234 
3 229 230 232 
3 229 232 233 
3 231 256 1159 
3 97 96 1160 
3 215 247 1160 
3 96 215 1160 
3 247 97 1160 
3 90 256 231 
3 246 247 98 
3 246 98 99 
3 245 246 99 
3 245 99 100 
3 244 245 100 
3 244 100 101 
3 243 244 101 
3 243 101 102 
3 242 243 102 
3 242 102 103 
3 241 242 103 
3 241 103 104 
3 233 82 1161 
3 240 241 104 
3 111 82 233 
3 240 104 105 
3 239 240 105 
3 106 239 105 
3 238 239 106 
3 107 238 106 
3 237 238 107 
3 237 107 108 
3 232 233 1161 
3 237 108 236 
3 108 109 236 
3 109 235 236 
3 109 110 235 
3 110 111 234 
3 235 110 234 
3 234 111 233 
3 82 257 1161 
3 257 232 1161 
3 97 1 1162 
3 98 247 1162 
3 1 98 1162 
3 247 97 1162 
3 257 91 232 

CELL_TYPES 2186
5
5
5
5
5
5
5
5
5
5
5
5
5
5
5
5
5
5
5
5
5
5
5
5
5
5
5
5
5
5
5
5
5
5
5
5
5
5
5
5
5
5
5
5
5
5
5
5
5
5
5
5
5
5
5
5
5
5
5
5
5
5
5
5
5
5
5
5
5
5
5
5
5
5
5
5
5
5
5
5
5
5
5
5
5
5
5
5
5
5
5
5
5
5
5
5
5
5
5
5
5
5
5
5
5
5
5
5
5
5
5
5
5
5
5
5
5
5
5
5
5
5
5
5
5
5
5
5
5
5
5
5
5
5
5
5
5
5
5
5
5
5
5
5
5
5
5
5
5
5
5
5
5
5
5
5
5
5
5
5
5
5
5
5
5
5
5
5
5
5
5
5
5
5
5
5
5
5
5
5
5
5
5
5
5
5
5
5
5
5
5
5
5
5
5
5
5
5
5
5
5
5
5
5
5
5
5
5
5
5
5
5
5
5
5
5
5
5
5
5
5
5
5
5
5
5
5
5
5
5
5
5
5
5
5
5
5
5
5
5
5
5
5
5
5
5
5
5
5
5
5
5
5
5
5
5
5
5
5
5
5
5
5
5
5
5
5
5
5
5
5
5
5
5
5
5
5
5
5
5
5
5
5
5
5
5
5
5
5
5
5
5
5
5
5
5
5
5
5
5
5
5
5
5
5
5
5
5
5
5
5
5
5
5
5
5
5
5
5
5
5
5
5
5
5
5
5
5
5
5
5
5
5
5
5
5
5
5
5
5
5
5
5
5
5
5
5
5
5
5
5
5
5
5
5
5
5
5
5
5
5
5
5
5
5
5
5
5
5
5
5
5
5
5
5
5
5
5
5
5
5
5
5
5
5
5
5
5
5
5
5
5
5
5
5
5
5
5
5
5
5
5
5
5
5
5
5
5
5
5
5
5
5
5
5
5
5
5
5
5
5
5
5
5
5
5
5
5
5
5
5
5
5
5
5
5
5
5
5
5
5
5
5
5
5
5
5
5
5
5
5
5
5
5
5
5
5
5
5
5
5
5
5
5
5
5
5
5
5
5
5
5
5
5
5
5
5
5
5
5
5
5
5
5
5
5
5
5
5
5
5
5
5
5
5
5
5
5
5
5
5
5
5
5
5
5
5
5
5
5
5
5
5
5
5
5
5
5
5
5
5
5
5
5
5
5
5
5
5
5
5
5
5
5
5
5
5
5
5
5
5
5
5
5
5
5
5
5
5
5
5
5
5
5
5
5
5
5
5
5
5
5
5
5
5
5
5
5
5
5
5
5
5
5
5
5
5
5
5
5
5
5
5
5
5
5
5
5
5
5
5
5
5
5
5
5
5
5
5
5
5
5
5
5
5
5
5
5
5
5
5
5
5
5
5
5
5
5
5
5
5
5
5
5
5
5
5
5
5
5
5
5
5
5
5
5
5
5
5
5
5
5
5
5
5
5
5
5
5
5
5
5
5
5
5
5
5
5
5
5
5
5
5
5
5
5
5
5
5
5
5
5
5
5
5
5
5
5
5
5
5
5
5
5
5
5
5
5
5
5
5
5
5
5
5
5
5
5
5
5
5
5
5
5
5
5
5
5
5
5
5
5
5
5
5
5
5
5
5
5
5
5
5
5
5
5
5
5
5
5
5
5
5
5
5
5
5
5
5
5
5
5
5
5
5
5
5
5
5
5
5
5
5
5
5
5
5
5
5
5
5
5
5
5
5
5
5
5
5
5
5
5
5
5
5
5
5
5
5
5
5
5
5
5
5
5
5
5
5
5
5
5
5
5
5
5
5
5
5
5
5
5
5
5
5
5
5
5
5
5
5
5
5
5
5
5
5
5
5
5
5
5
5
5
5
5
5
5
5
5
5
5
5
5
5
5
5
5
5
5
5
5
5
5
5
5
5
5
5
5
5
5
5
5
5
5
5
5
5
5
5
5
5
5
5
5
5
5
5
5
5
5
5
5
5
5
5
5
5
5
5
5
5
5
5
5
5
5
5
5
5
5
5
5
5
5
5
5
5
5
5
5
5
5
5
5
5
5
5
5
5
5
5
5
5
5
5
5
5
5
5
5
5
5
5
5
5
5
5
5
5
5
5
5
5
5
5
5
5
5
5
5
5
5
5
5
5
5
5
5
5
5
5
5
5
5
5
5
5
5
5
5
5
5
5
5
5
5
5
5
5
5
5
5
5
5
5
5
5
5
5
5
5
5
5
5
5
5
5
5
5
5
5
5
5
5
5
5
5
5
5
5
5
5
5
5
5
5
5
5
5
5
5
5
5
5
5
5
5
5
5
5
5
5
5
5
5
5
5
5
5
5
5
5
5
5
5
5
5
5
5
5
5
5
5
5
5
5
5
5
5
5
5
5
5
5
5
5
5
5
5
5
5
5
5
5
5
5
5
5
5
5
5
5
5
5
5
5
5
5
5
5
5
5
5
5
5
5
5
5
5
5
5
5
5
5
5
5
5
5
5
5
5
5
5
5
5
5
5
5
5
5
5
5
5
5
5
5
5
5
5
5
5
5
5
5
5
5
5
5
5
5
5
5
5
5
5
5
5
5
5
5
5
5
5
5
5
5
5
5
5
5
5
5
5
5
5
5
5
5
5
5
5
5
5
5
5
5
5
5
5
5
5
5
5
5
5
5
5
5
5
5
5
5
5
5
5
5
5
5
5
5
5
5
5
5
5
5
5
5
5
5
5
5
5
5
5
5
5
5
5
5
5
5
5
5
5
5
5
5
5
5
5
5
5
5
5
5
5
5
5
5
5
5
5
5
5
5
5
5
5
5
5
5
5
5
5
5
5
5
5
5
5
5
5
5
5
5
5
5
5
5
5
5
5
5
5
5
5
5
5
5
5
5
5
5
5
5
5
5
5
5
5
5
5
5
5
5
5
5
5
5
5
5
5
5
5
5
5
5
5
5
5
5
5
5
5
5
5
5
5
5
5
5
5
5
5
5
5
5
5
5
5
5
5
5
5
5
5
5
5
5
5
5
5
5
5
5
5
5
5
5
5
5
5
5
5
5
5
5
5
5
5
5
5
5
5
5
5
5
5
5
5
5
5
5
5
5
5
5
5
5
5
5
5
5
5
5
5
5
5
5
5
5
5
5
5
5
5
5
5
5
5
5
5
5
5
5
5
5
5
5
5
5
5
5
5
5
5
5
5
5
5
5
5
5
5
5
5
5
5
5
5
5
5
5
5
5
5
5
5
5
5
5
5
5
5
5
5
5
5
5
5
5
5
5
5
5
5
5
5
5
5
5
5
5
5
5
5
5
5
5
5
5
5
5
5
5
5
5
5
5
5
5
5
5
5
5
5
5
5
5
5
5
5
5
5
5
5
5
5
5
5
5
5
5
5
5
5
5
5
5
5
5
5
5
5
5
5
5
5
5
5
5
5
5
5
5
5
5
5
5
5
5
5
5
5
5
5
5
5
5
5
5
5
5
5
5
5
5
5
5
5
5
5
5
5
5
5
5
5
5
5
5
5
5
5
5
5
5
5
5
5
5
5
5
5
5
5
5
5
5
5
5
5
5
5
5
5
5
5
5
5
5
5
5
5
5
5
5
5
5
5
5
5
5
5
5
5
5
5
5
5
5
5
5
5
5
5
5
5
5
5
5
5
5
5
5
5
5
5
5
5
5
5
5
5
5
5
5
5
5
5
5
5
5
5
5
5
5
5
5
5
5
5
5
5
5
5
5
5
5
5
5
5
5
5
5
5
5
5
5
5
5
5
5
5
5
5
5
5
5
5
5
5
5
5
5
5
5
5
5
5
5
5
5
5
5
5
5
5
5
5
5
5
5
5
5
5
5
5
5
5
5
5
5
5
5
5
5
5
5
5
5
5
5
5
5
5
5
5
5
5
5
5
5
5
5
5
5
5
5
5
5
5
5
5
5
5
5
5
5
5
5
5
5
5
5
5
5
5
5
5
5
5
5
5
5
5
5
5
5
5
5
5
5
5
5
5
5
5
5
5
5
5
5
5
5
5
5
5
5
5
5
5
5
5
5
5
5
5
5
5
5
5
5
5
5
5
5
5
5
5
5
5
5
5
5
5
5
5
5
5
5
5
5
5
5
5
5
5
5
5
5
5
5
5
5
5
5
5
5
5
5
5
5
5
5
5
5
5
5
5
5
5
5
5
5
5
5
5
5
5
5
5
5
5
5
5
5
5
5
5
5
5
5
5
5
5
5
5
5
5
5
5
5
5
5
5
5
5
5
5
5
5
5
5
5
5
5
5
5
5
5
5
5
5
5
5
5
5
5
5
5
5
5
5
5
5
5
5
5
5
5
5
5
5
5
5
5
5
5
5
5
5
5
5
5
5
5
5
5
5
5
5
5
5
5
5
5
5
5
5
5
5
5
5
5
5
5
5
5
5
5
5
5
5
5
5
5
5
5
5
5
5
5
5
5
5
5
5
5
5
5
5
5
5
5
5
5
5
5
5
5
5
5
5
5
5
5
5
5
5
5
5
5
5
5
5
5
5
5
5
5
5
5
5
5
5
5
5
5
5
5
5
5
5
5
5
5
5
5
5
5
5
5
5
5
5
5
5
5
5
5
5
5
5
5
5
5
5
5
5
5
5
5
5
5
5
5
5
5
5
5
5
5
5
5
5
5
5
5
5
5
5
5
5
5
5
5
5
5
5
5
5
5
5
5
5
5
5
5
5
5
5
5
5
5
5
5
5
5
5
5
5
5
5
5
5
5
5
5
5
5
5
5
5
5
5
5
5
5
5
5
5
5
5
5
5
5
5
5
5
5
5
5
5
5
5
5
5
5
5
5
5
5
5
5
5
5
5
5
5
5
5
5
5
5
5
5
5
5
5
5
5
5
5
5
5
5
5
5
5
5
5
5
5
5
5
5
5
5
5
5
5
5
5
5
5
5
5
5
5
5
5
5

POINT_DATA 1163

VECTORS coord float
0.0 0.0 0.0 
5.000000000000e+01 -1.000000000000e+01 0.0 
0.0 -2.000000000000e+01 0.0 
5.000000000000e+01 -2.000000000000e+01 0.0 
0.0 -9.999999999991e-01 0.0 
0.0 -1.999999999998e+00 0.0 
0.0 -2.999999999997e+00 0.0 
0.0 -3.999999999994e+00 0.0 
0.0 -4.999999999991e+00 0.0 
0.0 -5.999999999988e+00 0.0 
0.0 -6.999999999985e+00 0.0 
0.0 -7.999999999982e+00 0.0 
0.0 -8.999999999983e+00 0.0 
0.0 -9.999999999985e+00 0.0 
0.0 -1.099999999999e+01 0.0 
0.0 -1.199999999999e+01 0.0 
0.0 -1.299999999999e+01 0.0 
0.0 -1.399999999999e+01 0.0 
0.0 -1.499999999999e+01 0.0 
0.0 -1.599999999999e+01 0.0 
0.0 -1.700000000000e+01 0.0 
0.0 -1.800000000000e+01 0.0 
0.0 -1.900000000000e+01 0.0 
4.900000000001e+01 -2.000000000000e+01 0.0 
4.800000000001e+01 -2.000000000000e+01 0.0 
4.700000000002e+01 -2.000000000000e+01 0.0 
4.600000000003e+01 -2.000000000000e+01 0.0 
4.500000000004e+01 -2.000000000000e+01 0.0 
4.400000000004e+01 -2.000000000000e+01 0.0 
4.300000000005e+01 -2.000000000000e+01 0.0 
4.200000000006e+01 -2.000000000000e+01 0.0 
4.100000000006e+01 -2.000000000000e+01 0.0 
4.000000000007e+01 -2.000000000000e+01 0.0 
3.900000000008e+01 -2.000000000000e+01 0.0 
3.800000000009e+01 -2.000000000000e+01 0.0 
3.700000000009e+01 -2.000000000000e+01 0.0 
3.600000000010e+01 -2.000000000000e+01 0.0 
3.500000000011e+01 -2.000000000000e+01 0.0 
3.400000000011e+01 -2.000000000000e+01 0.0 
3.300000000012e+01 -2.000000000000e+01 0.0 
3.200000000013e+01 -2.000000000000e+01 0.0 
3.100000000013e+01 -2.000000000000e+01 0.0 
3.000000000013e+01 -2.000000000000e+01 0.0 
2.900000000013e+01 -2.000000000000e+01 0.0 
2.800000000013e+01 -2.000000000000e+01 0.0 
2.700000000013e+01 -2.000000000000e+01 0.0 
2.600000000013e+01 -2.000000000000e+01 0.0 
2.500000000013e+01 -2.000000000000e+01 0.0 
2.400000000013e+01 -2.000000000000e+01 0.0 
2.300000000013e+01 -2.000000000000e+01 0.0 
2.200000000013e+01 -2.000000000000e+01 0.0 
2.100000000013e+01 -2.000000000000e+01 0.0 
2.000000000013e+01 -2.000000000000e+01 0.0 
1.900000000013e+01 -2.000000000000e+01 0.0 
1.800000000013e+01 -2.000000000000e+01 0.0 
1.700000000012e+01 -2.000000000000e+01 0.0 
1.600000000011e+01 -2.000000000000e+01 0.0 
1.500000000011e+01 -2.000000000000e+01 0.0 
1.400000000010e+01 -2.000000000000e+01 0.0 
1.300000000009e+01 -2.000000000000e+01 0.0 
1.200000000009e+01 -2.000000000000e+01 0.0 
1.100000000008e+01 -2.000000000000e+01 0.0 
1.000000000007e+01 -2.000000000000e+01 0.0 
9.000000000064e+00 -2.000000000000e+01 0.0 
8.000000000057e+00 -2.000000000000e+01 0.0 
7.000000000050e+00 -2.000000000000e+01 0.0 
6.000000000043e+00 -2.000000000000e+01 0.0 
5.000000000036e+00 -2.000000000000e+01 0.0 
4.000000000028e+00 -2.000000000000e+01 0.0 
3.000000000021e+00 -2.000000000000e+01 0.0 
2.000000000014e+00 -2.000000000000e+01 0.0 
1.000000000007e+00 -2.000000000000e+01 0.0 
5.000000000000e+01 -1.100000000000e+01 0.0 
5.000000000000e+01 -1.200000000000e+01 0.0 
5.000000000000e+01 -1.300000000000e+01 0.0 
5.000000000000e+01 -1.400000000000e+01 0.0 
5.000000000000e+01 -1.500000000000e+01 0.0 
5.000000000000e+01 -1.600000000000e+01 0.0 
5.000000000000e+01 -1.700000000000e+01 0.0 
5.000000000000e+01 -1.800000000000e+01 0.0 
5.000000000000e+01 -1.900000000000e+01 0.0 
2.000000000000e+01 0.0 0.0 
3.500000000000e+01 -1.000000000000e+01 0.0 
2.150000000000e+01 -1.000000000000e+00 0.0 
2.300000000000e+01 -2.000000000000e+00 0.0 
2.450000000000e+01 -3.000000000000e+00 0.0 
2.600000000000e+01 -4.000000000000e+00 0.0 
2.750000000000e+01 -5.000000000000e+00 0.0 
2.900000000000e+01 -6.000000000000e+00 0.0 
3.050000000000e+01 -7.000000000000e+00 0.0 
3.200000000000e+01 -8.000000000000e+00 0.0 
3.350000000000e+01 -9.000000000000e+00 0.0 
5.000000000000e+01 -4.000000000000e+00 0.0 
5.000000000000e+01 -5.000000000000e+00 0.0 
5.000000000000e+01 -6.000000000000e+00 0.0 
5.000000000000e+01 -7.000000000000e+00 0.0 
5.000000000000e+01 -8.000000000000e+00 0.0 
5.000000000000e+01 -9.000000000000e+00 0.0 
4.900000000000e+01 -1.000000000000e+01 0.0 
4.800000000000e+01 -1.000000000000e+01 0.0 
4.700000000000e+01 -1.000000000000e+01 0.0 
4.600000000000e+01 -1.000000000000e+01 0.0 
4.500000000000e+01 -1.000000000000e+01 0.0 
4.400000000000e+01 -1.000000000000e+01 0.0 
4.300000000000e+01 -1.000000000000e+01 0.0 
4.200000000000e+01 -1.000000000000e+01 0.0 
4.100000000000e+01 -1.000000000000e+01 0.0 
4.000000000000e+01 -1.000000000000e+01 0.0 
3.900000000000e+01 -1.000000000000e+01 0.0 
3.800000000000e+01 -1.000000000000e+01 0.0 
3.700000000000e+01 -1.000000000000e+01 0.0 
3.600000000000e+01 -1.000000000000e+01 0.0 
1.900000000000e+01 0.0 0.0 
1.800000000000e+01 0.0 0.0 
1.700000000000e+01 0.0 0.0 
1.600000000000e+01 0.0 0.0 
1.500000000000e+01 0.0 0.0 
1.400000000000e+01 0.0 0.0 
1.300000000000e+01 0.0 0.0 
1.200000000000e+01 0.0 0.0 
1.100000000000e+01 0.0 0.0 
1.000000000000e+01 0.0 0.0 
9.000000000000e+00 0.0 0.0 
8.000000000000e+00 0.0 0.0 
7.000000000000e+00 0.0 0.0 
6.000000000000e+00 0.0 0.0 
5.000000000000e+00 0.0 0.0 
4.000000000000e+00 0.0 0.0 
3.000000000000e+00 0.0 0.0 
2.000000000000e+00 0.0 0.0 
1.000000000000e+00 0.0 0.0 
4.900000000000e+01 -4.000000000000e+00 0.0 
4.800000000000e+01 -4.000000000000e+00 0.0 
4.700000000000e+01 -4.000000000000e+00 0.0 
4.600000000000e+01 -4.000000000000e+00 0.0 
4.500000000000e+01 -4.000000000000e+00 0.0 
4.400000000000e+01 -4.000000000000e+00 0.0 
4.300000000000e+01 -4.000000000000e+00 0.0 
4.200000000000e+01 -4.000000000000e+00 0.0 
4.100000000000e+01 -4.000000000000e+00 0.0 
4.000000000000e+01 -4.000000000000e+00 0.0 
3.900000000000e+01 -4.000000000000e+00 0.0 
3.800000000000e+01 -4.000000000000e+00 0.0 
3.700000000000e+01 -4.000000000000e+00 0.0 
3.600000000000e+01 -4.000000000000e+00 0.0 
3.500000000000e+01 -4.000000000000e+00 0.0 
3.400000000000e+01 -4.000000000000e+00 0.0 
3.300000000000e+01 -4.000000000000e+00 0.0 
3.200000000000e+01 -4.000000000000e+00 0.0 
3.100000000000e+01 -4.000000000000e+00 0.0 
3.000000000000e+01 -4.000000000000e+00 0.0 
2.900000000000e+01 -4.000000000000e+00 0.0 
2.800000000000e+01 -4.000000000000e+00 0.0 
2.700000000000e+01 -4.000000000000e+00 0.0 
2.847826086957e+01 -5.000000000000e+00 0.0 
2.945652173913e+01 -5.000000000000e+00 0.0 
3.043478260870e+01 -5.000000000000e+00 0.0 
3.141304347826e+01 -5.000000000000e+00 0.0 
3.239130434783e+01 -5.000000000000e+00 0.0 
3.336956521739e+01 -5.000000000000e+00 0.0 
3.434782608696e+01 -5.000000000000e+00 0.0 
3.532608695652e+01 -5.000000000000e+00 0.0 
3.630434782609e+01 -5.000000000000e+00 0.0 
3.728260869565e+01 -5.000000000000e+00 0.0 
3.826086956522e+01 -5.000000000000e+00 0.0 
3.923913043478e+01 -5.000000000000e+00 0.0 
4.021739130435e+01 -5.000000000000e+00 0.0 
4.119565217391e+01 -5.000000000000e+00 0.0 
4.217391304348e+01 -5.000000000000e+00 0.0 
4.315217391304e+01 -5.000000000000e+00 0.0 
4.413043478261e+01 -5.000000000000e+00 0.0 
4.510869565217e+01 -5.000000000000e+00 0.0 
4.608695652174e+01 -5.000000000000e+00 0.0 
4.706521739130e+01 -5.000000000000e+00 0.0 
4.804347826087e+01 -5.000000000000e+00 0.0 
4.902173913043e+01 -5.000000000000e+00 0.0 
4.900000000001e+01 -6.000000000000e+00 0.0 
4.800000000003e+01 -6.000000000000e+00 0.0 
4.700000000004e+01 -6.000000000000e+00 0.0 
4.600000000006e+01 -6.000000000000e+00 0.0 
4.500000000007e+01 -6.000000000000e+00 0.0 
4.400000000009e+01 -6.000000000000e+00 0.0 
4.300000000010e+01 -6.000000000000e+00 0.0 
4.200000000012e+01 -6.000000000000e+00 0.0 
4.100000000013e+01 -6.000000000000e+00 0.0 
4.000000000014e+01 -6.000000000000e+00 0.0 
3.900000000014e+01 -6.000000000000e+00 0.0 
3.800000000012e+01 -6.000000000000e+00 0.0 
3.700000000010e+01 -6.000000000000e+00 0.0 
3.600000000008e+01 -6.000000000000e+00 0.0 
3.500000000006e+01 -6.000000000000e+00 0.0 
3.400000000005e+01 -6.000000000000e+00 0.0 
3.300000000003e+01 -6.000000000000e+00 0.0 
3.200000000001e+01 -6.000000000000e+00 0.0 
3.100000000000e+01 -6.000000000000e+00 0.0 
3.000000000000e+01 -6.000000000000e+00 0.0 
3.147499999998e+01 -7.000000000000e+00 0.0 
3.244999999998e+01 -7.000000000000e+00 0.0 
3.342499999998e+01 -7.000000000000e+00 0.0 
3.439999999998e+01 -7.000000000000e+00 0.0 
3.537499999998e+01 -7.000000000000e+00 0.0 
3.634999999998e+01 -7.000000000000e+00 0.0 
3.732499999998e+01 -7.000000000000e+00 0.0 
3.829999999998e+01 -7.000000000000e+00 0.0 
3.927499999999e+01 -7.000000000000e+00 0.0 
4.024999999999e+01 -7.000000000000e+00 0.0 
4.122499999999e+01 -7.000000000000e+00 0.0 
4.219999999999e+01 -7.000000000000e+00 0.0 
4.317499999999e+01 -7.000000000000e+00 0.0 
4.414999999999e+01 -7.000000000000e+00 0.0 
4.512499999999e+01 -7.000000000000e+00 0.0 
4.609999999999e+01 -7.000000000000e+00 0.0 
4.707500000000e+01 -7.000000000000e+00 0.0 
4.805000000000e+01 -7.000000000000e+00 0.0 
4.902500000000e+01 -7.000000000000e+00 0.0 
4.900000000000e+01 -8.000000000000e+00 0.0 
4.800000000000e+01 -8.000000000000e+00 0.0 
4.700000000000e+01 -8.000000000000e+00 0.0 
4.600000000000e+01 -8.000000000000e+00 0.0 
4.500000000000e+01 -8.000000000000e+00 0.0 
4.400000000000e+01 -8.000000000000e+00 0.0 
4.300000000000e+01 -8.000000000000e+00 0.0 
4.200000000000e+01 -8.000000000000e+00 0.0 
4.100000000000e+01 -8.000000000000e+00 0.0 
4.000000000000e+01 -8.000000000000e+00 0.0 
3.900000000000e+01 -8.000000000000e+00 0.0 
3.800000000000e+01 -8.000000000000e+00 0.0 
3.700000000000e+01 -8.000000000000e+00 0.0 
3.600000000000e+01 -8.000000000000e+00 0.0 
3.500000000000e+01 -8.000000000000e+00 0.0 
3.400000000000e+01 -8.000000000000e+00 0.0 
3.300000000000e+01 -8.000000000000e+00 0.0 
3.447058823527e+01 -9.000000000000e+00 0.0 
3.544117647055e+01 -9.000000000000e+00 0.0 
3.641176470582e+01 -9.000000000000e+00 0.0 
3.738235294109e+01 -9.000000000000e+00 0.0 
3.835294117637e+01 -9.000000000000e+00 0.0 
3.932352941164e+01 -9.000000000000e+00 0.0 
4.029411764691e+01 -9.000000000000e+00 0.0 
4.126470588219e+01 -9.000000000000e+00 0.0 
4.223529411748e+01 -9.000000000000e+00 0.0 
4.320588235279e+01 -9.000000000000e+00 0.0 
4.417647058811e+01 -9.000000000000e+00 0.0 
4.514705882342e+01 -9.000000000000e+00 0.0 
4.611764705874e+01 -9.000000000000e+00 0.0 
4.708823529405e+01 -9.000000000000e+00 0.0 
4.805882352937e+01 -9.000000000000e+00 0.0 
4.902941176468e+01 -9.000000000000e+00 0.0 
2.075000000000e+01 -5.000000000006e-01 0.0 
2.225000000000e+01 -1.500000000000e+00 0.0 
2.375000000000e+01 -2.500000000000e+00 0.0 
2.525000000000e+01 -3.500000000000e+00 0.0 
2.675000000000e+01 -4.500000000000e+00 0.0 
2.825000000000e+01 -5.500000000000e+00 0.0 
2.975000000000e+01 -6.500000000000e+00 0.0 
3.125000000000e+01 -7.500000000000e+00 0.0 
3.275000000000e+01 -8.500000000000e+00 0.0 
3.425000000000e+01 -9.500000000000e+00 0.0 
2.226951693683e+01 -2.403913980114e+00 0.0 
1.650149491944e+01 -1.913490915758e+01 0.0 
1.050042386896e+01 -8.504605092970e-01 0.0 
1.553146524712e+01 -8.281255032105e-01 0.0 
1.150000000008e+01 -1.913397459621e+01 0.0 
2.530060260647e+01 -4.428336431260e+00 0.0 
8.651114563942e-01 -1.052096295641e+01 0.0 
2.050000000013e+01 -1.913397459622e+01 0.0 
2.819198729811e+01 -6.399519052838e+00 0.0 
2.445670302931e+01 -1.915649188023e+01 0.0 
3.117591465718e+01 -8.394293040695e+00 0.0 
7.465053044742e+00 -1.920411160581e+01 0.0 
6.398295709691e+00 -8.230098819370e-01 0.0 
2.849659607461e+01 -1.914296187762e+01 0.0 
3.418732642882e+01 -1.040265792588e+01 0.0 
8.386450935063e-01 -6.533605142809e+00 0.0 
9.178661865596e-01 -1.329769195597e+01 0.0 
3.149448624493e+01 -1.910466733764e+01 0.0 
3.552916747426e+01 -1.914628590759e+01 0.0 
4.449210346537e+01 -1.914359085008e+01 0.0 
4.140975975145e+01 -1.906941860733e+01 0.0 
3.847475958753e+01 -1.916622382724e+01 0.0 
3.653774794640e+01 -1.088712800241e+01 0.0 
4.047886341787e+01 -1.090139014048e+01 0.0 
4.348006339825e+01 -1.092792621489e+01 0.0 
4.919519968029e+01 -1.451526755068e+01 0.0 
4.500000000032e+00 -1.913397459621e+01 0.0 
1.856136921614e+01 -8.212235170404e-01 0.0 
3.499895312306e+00 -8.661165539723e-01 0.0 
9.076088696565e-01 -1.642306201891e+01 0.0 
4.655174095477e+01 -1.086183387525e+01 0.0 
9.430688970604e-01 -3.496112672958e+00 0.0 
3.353992337063e+01 -1.901202090820e+01 0.0 
2.249746016977e+01 -1.921262287282e+01 0.0 
2.650122741777e+01 -1.916123026018e+01 0.0 
1.863571384842e+01 -1.908325534840e+01 0.0 
1.450089971693e+01 -1.917691901860e+01 0.0 
1.350044695317e+01 -8.659695299584e-01 0.0 
3.849987469880e+01 -1.084154983397e+01 0.0 
9.454419857884e+00 -1.900818879936e+01 0.0 
4.917398660523e+01 -1.645692866081e+01 0.0 
8.500000000000e+00 -8.660254037844e-01 0.0 
8.660319230785e-01 -8.500111697188e+00 0.0 
4.649022621545e+01 -1.930506220113e+01 0.0 
2.667688107845e+01 -5.420288124331e+00 0.0 
2.379251615665e+01 -3.412225477429e+00 0.0 
2.966631491830e+01 -7.389030232731e+00 0.0 
3.267915035995e+01 -9.396934932445e+00 0.0 
2.074836922338e+01 -1.320054020319e+00 0.0 
4.915985743621e+01 -1.261973384855e+01 0.0 
2.527129768623e+00 -1.931592414663e+01 0.0 
1.538676247410e+00 -8.436956619311e-01 0.0 
4.908096641539e+01 -1.842484004551e+01 0.0 
3.478612492673e+01 -1.090889364140e+01 0.0 
3.409757055860e+01 -1.131991530427e+01 0.0 
3.501895309466e+01 -1.177687842717e+01 0.0 
3.407758073088e+01 -1.224293381580e+01 0.0 
3.484541875390e+01 -1.277051428430e+01 0.0 
3.400322025842e+01 -1.319022775640e+01 0.0 
3.321672625034e+01 -1.266779191233e+01 0.0 
3.315244139236e+01 -1.360984106532e+01 0.0 
3.236335186892e+01 -1.308463225210e+01 0.0 
3.478337442841e+01 -1.372341158982e+01 0.0 
3.230105923633e+01 -1.403023731610e+01 0.0 
3.150954055289e+01 -1.350301767700e+01 0.0 
3.144604792090e+01 -1.444931742516e+01 0.0 
3.065653897123e+01 -1.392357262981e+01 0.0 
3.071897610812e+01 -1.297447031198e+01 0.0 
2.986790411740e+01 -1.339226181535e+01 0.0 
2.993181466745e+01 -1.244703272398e+01 0.0 
2.908023061869e+01 -1.286254537734e+01 0.0 
2.901619051372e+01 -1.380881655279e+01 0.0 
2.822986160390e+01 -1.327695262116e+01 0.0 
2.829453476870e+01 -1.233265343811e+01 0.0 
2.744542905518e+01 -1.274510491105e+01 0.0 
2.751120089246e+01 -1.180368086886e+01 0.0 
2.666218649885e+01 -1.221619339205e+01 0.0 
2.672371209234e+01 -1.127125228527e+01 0.0 
2.587763216302e+01 -1.168539979114e+01 0.0 
2.581165585299e+01 -1.262994410089e+01 0.0 
2.502890882577e+01 -1.209827323619e+01 0.0 
2.509631327757e+01 -1.115492410304e+01 0.0 
2.424662989877e+01 -1.156630981079e+01 0.0 
2.431704046904e+01 -1.062389179334e+01 0.0 
2.346445438728e+01 -1.103427680694e+01 0.0 
2.339382552877e+01 -1.197964871788e+01 0.0 
2.260936050780e+01 -1.144513277642e+01 0.0 
2.268075012022e+01 -1.049911928216e+01 0.0 
2.182525737661e+01 -1.090920811464e+01 0.0 
2.189682319817e+01 -9.961716944568e+00 0.0 
2.104174127792e+01 -1.037266986667e+01 0.0 
2.111304367575e+01 -9.424179358711e+00 0.0 
2.025306185381e+01 -9.832727364719e+00 0.0 
2.018141124247e+01 -1.079140628871e+01 0.0 
1.938594498257e+01 -1.025147354112e+01 0.0 
1.946106490453e+01 -9.288010758448e+00 0.0 
1.858929958352e+01 -9.706319802516e+00 0.0 
1.851540991219e+01 -1.067205988724e+01 0.0 
1.771485303178e+01 -1.012504443115e+01 0.0 
1.764134552256e+01 -1.109360378538e+01 0.0 
1.683745148095e+01 -1.054496365337e+01 0.0 
1.691852964353e+01 -9.582555261178e+00 0.0 
1.603603813062e+01 -1.000160132379e+01 0.0 
1.595824239350e+01 -1.096750698862e+01 0.0 
1.515080624291e+01 -1.041639501931e+01 0.0 
1.523171602559e+01 -9.451711491453e+00 0.0 
1.434621060709e+01 -9.871956467464e+00 0.0 
1.426777178765e+01 -1.083749501371e+01 0.0 
1.345775282374e+01 -1.028803175500e+01 0.0 
1.354103873368e+01 -9.324918457162e+00 0.0 
1.265072018622e+01 -9.742612837270e+00 0.0 
1.257285762070e+01 -1.071557782384e+01 0.0 
1.175874815690e+01 -1.015972324288e+01 0.0 
1.184203019714e+01 -9.193604071377e+00 0.0 
1.094927709905e+01 -9.612103238656e+00 0.0 
1.086938022910e+01 -1.058685085646e+01 0.0 
1.005424098961e+01 -1.002939116380e+01 0.0 
9.977974613295e+00 -1.101324897989e+01 0.0 
1.012915646404e+01 -9.051815821181e+00 0.0 
9.237127782494e+00 -9.471239055559e+00 0.0 
9.308426593771e+00 -8.483376461131e+00 0.0 
8.418806073345e+00 -8.910712374517e+00 0.0 
2.253688464062e+01 -1.239459402279e+01 0.0 
8.495126726666e+00 -7.921646665254e+00 0.0 
9.389727383206e+00 -7.512103628377e+00 0.0 
7.601560812974e+00 -8.349460349344e+00 0.0 
7.525680547759e+00 -9.339736686940e+00 0.0 
7.677888324502e+00 -7.359727833346e+00 0.0 
6.782001206724e+00 -7.788454494773e+00 0.0 
6.858778622885e+00 -6.797338062822e+00 0.0 
2.196596590865e+01 -8.979025665442e+00 0.0 
2.816540108272e+01 -1.422634142353e+01 0.0 
5.961601194403e+00 -7.226824010712e+00 0.0 
6.038171749656e+00 -6.234825887079e+00 0.0 
6.936257279557e+00 -5.805287640737e+00 0.0 
6.115068918323e+00 -5.242109758768e+00 0.0 
3.564391741903e+01 -1.329240553876e+01 0.0 
3.558115605778e+01 -1.425902892003e+01 0.0 
3.645445282201e+01 -1.381970786460e+01 0.0 
3.639744204358e+01 -1.479198128612e+01 0.0 
3.727266909778e+01 -1.435399586226e+01 0.0 
5.216667013081e+00 -5.671788584287e+00 0.0 
3.220697293295e+01 -1.499594545107e+01 0.0 
3.551112158269e+01 -1.523479869250e+01 0.0 
2.836056961467e+01 -1.139032434851e+01 0.0 
2.516730388602e+01 -1.021382726837e+01 0.0 
1.844436907403e+01 -1.164097215196e+01 0.0 
5.885434318740e+00 -8.218694781467e+00 0.0 
5.064071066867e+00 -7.656614643901e+00 0.0 
4.988089103470e+00 -8.649722082718e+00 0.0 
1.079421050408e+01 -1.157014985435e+01 0.0 
9.902420005256e+00 -1.199903342656e+01 0.0 
1.071994252214e+01 -1.255727909771e+01 0.0 
9.826974788171e+00 -1.298659581767e+01 0.0 
1.064607883789e+01 -1.354595476388e+01 0.0 
9.751541265343e+00 -1.397556905071e+01 0.0 
8.932296185869e+00 -1.341553353988e+01 0.0 
8.856399248106e+00 -1.440570715508e+01 0.0 
8.036186803543e+00 -1.384470558472e+01 0.0 
1.057112875118e+01 -1.453516759081e+01 0.0 
1.146582585687e+01 -1.410539926903e+01 0.0 
7.959894480382e+00 -1.483563350928e+01 0.0 
7.138792279156e+00 -1.427465094140e+01 0.0 
7.062506792418e+00 -1.526615385482e+01 0.0 
6.240693558277e+00 -1.470508863040e+01 0.0 
6.316957575451e+00 -1.371212581281e+01 0.0 
5.418183007107e+00 -1.414253605022e+01 0.0 
5.494748364428e+00 -1.314886770603e+01 0.0 
1.756825565873e+01 -1.206433872514e+01 0.0 
1.837565773345e+01 -1.261356468266e+01 0.0 
1.749574831391e+01 -1.303769280014e+01 0.0 
1.830539187332e+01 -1.358828364284e+01 0.0 
1.742278925170e+01 -1.401367746928e+01 0.0 
1.823303007798e+01 -1.456432294258e+01 0.0 
1.734941694138e+01 -1.499213734361e+01 0.0 
1.653760041637e+01 -1.443920312098e+01 0.0 
3.056237977307e+01 -1.487132260174e+01 0.0 
1.866469084762e+01 -8.742953000418e+00 0.0 
1.953669694916e+01 -8.326038909849e+00 0.0 
1.874194303780e+01 -7.780688158966e+00 0.0 
1.961032016741e+01 -7.366854697285e+00 0.0 
1.881715755159e+01 -6.821102209649e+00 0.0 
1.968369797150e+01 -6.407747217358e+00 0.0 
1.889237123259e+01 -5.858375520026e+00 0.0 
1.802038875366e+01 -6.276202618170e+00 0.0 
1.809793837984e+01 -5.307629520489e+00 0.0 
1.721985207997e+01 -5.728242054488e+00 0.0 
1.729850893523e+01 -4.756990819347e+00 0.0 
1.641745664240e+01 -5.174636548624e+00 0.0 
2.495978509456e+01 -1.304406404294e+01 0.0 
1.911567814831e+01 -1.413854250293e+01 0.0 
1.904387332608e+01 -1.511463127723e+01 0.0 
1.992115934240e+01 -1.468788025898e+01 0.0 
7.013706899628e+00 -4.812582868662e+00 0.0 
5.342091874585e+00 -1.513658157269e+01 0.0 
1.139098043784e+01 -1.509488509480e+01 0.0 
1.228151810610e+01 -1.465617481983e+01 0.0 
1.646373110164e+01 -1.541993323337e+01 0.0 
5.293328636712e+00 -4.678385108584e+00 0.0 
1.975965862987e+01 -5.448124345648e+00 0.0 
2.054318374236e+01 -5.992561293251e+00 0.0 
3.721453439063e+01 -1.533216152738e+01 0.0 
3.809302733893e+01 -1.489235527381e+01 0.0 
1.220852788900e+01 -1.565304565230e+01 0.0 
4.394120899730e+00 -5.108397613210e+00 0.0 
8.779354620288e+00 -1.539524721159e+01 0.0 
1.817791047702e+01 -4.338570146253e+00 0.0 
4.518860013839e+00 -1.457343189307e+01 0.0 
4.442712140414e+00 -1.556841391069e+01 0.0 
8.115343466391e+00 -1.285760324283e+01 0.0 
1.985334703171e+01 -1.566478400426e+01 0.0 
2.071953850276e+01 -1.522074243119e+01 0.0 
1.634012953883e+01 -6.154777738301e+00 0.0 
1.553479994708e+01 -5.593730508879e+00 0.0 
1.561265946942e+01 -4.617761762647e+00 0.0 
1.470674212978e+01 -5.064576488228e+00 0.0 
1.464498299883e+01 -6.026514471420e+00 0.0 
1.383271561817e+01 -5.467796261169e+00 0.0 
1.389241253067e+01 -4.504338666645e+00 0.0 
1.301868735463e+01 -4.907185188626e+00 0.0 
1.294514184846e+01 -5.888160903592e+00 0.0 
1.212955968622e+01 -5.328262335277e+00 0.0 
1.220721122383e+01 -4.341264976687e+00 0.0 
1.131324345897e+01 -4.766773516508e+00 0.0 
5.266597955397e+00 -1.613148974258e+01 0.0 
1.737805990867e+01 -3.786677807525e+00 0.0 
3.078438094513e+01 -1.203225297748e+01 0.0 
1.131569882285e+01 -1.608511932110e+01 0.0 
1.728478341782e+01 -1.596017432313e+01 0.0 
3.803465906019e+01 -1.587509751228e+01 0.0 
3.891681276677e+01 -1.543395196905e+01 0.0 
3.897340985302e+01 -1.444710288980e+01 0.0 
3.980095968193e+01 -1.499059496613e+01 0.0 
3.974334598189e+01 -1.597921884150e+01 0.0 
4.062964983717e+01 -1.553518690417e+01 0.0 
4.068729602479e+01 -1.454434445295e+01 0.0 
4.151772679790e+01 -1.508974196007e+01 0.0 
4.157505195739e+01 -1.409694289912e+01 0.0 
4.240699932656e+01 -1.464347955968e+01 0.0 
4.234898051011e+01 -1.563721375790e+01 0.0 
4.323934606035e+01 -1.519082036405e+01 0.0 
4.329740528208e+01 -1.419587509788e+01 0.0 
4.413056841369e+01 -1.474359631875e+01 0.0 
4.418850110108e+01 -1.374786684042e+01 0.0 
4.502219770667e+01 -1.429605103525e+01 0.0 
4.496411937907e+01 -1.529215882720e+01 0.0 
4.490027319897e+00 -4.154167794594e+00 0.0 
1.565080385988e+01 -1.486411982419e+01 0.0 
1.557610691279e+01 -1.584855627870e+01 0.0 
4.195350646612e+00 -8.089117689096e+00 0.0 
4.124027797830e+00 -9.082831955007e+00 0.0 
4.917944318925e+00 -9.643530901533e+00 0.0 
4.020105689502e+00 -1.007439673661e+01 0.0 
4.587185899277e+01 -1.484039992728e+01 0.0 
4.580078661551e+01 -1.584043391042e+01 0.0 
2.061956522375e+01 -5.046701343981e+00 0.0 
2.139572955529e+01 -5.579553449826e+00 0.0 
3.715344357292e+01 -1.631485124583e+01 0.0 
3.618886196443e+00 -1.500471207167e+01 0.0 
3.695606940204e+00 -1.400939692294e+01 0.0 
2.438890661143e+01 -9.686110599723e+00 0.0 
2.523267572778e+01 -9.276766000622e+00 0.0 
2.446094171539e+01 -8.751904591412e+00 0.0 
2.529089822738e+01 -8.321495612547e+00 0.0 
2.606882688827e+01 -8.864724051119e+00 0.0 
2.452116646430e+01 -7.792756462004e+00 0.0 
1.235543269617e+01 -1.365845617339e+01 0.0 
4.318116874181e+01 -1.618567469992e+01 0.0 
7.835066111909e+00 -5.376366223896e+00 0.0 
7.905687335704e+00 -4.382539065697e+00 0.0 
3.542640009567e+00 -1.600035116542e+01 0.0 
1.572431503071e+01 -1.388358386695e+01 0.0 
2.574684696680e+01 -1.357896141127e+01 0.0 
2.488842657651e+01 -1.399674354505e+01 0.0 
2.568301775611e+01 -1.453552048595e+01 0.0 
2.481535572009e+01 -1.495542756508e+01 0.0 
2.561729699688e+01 -1.549784648532e+01 0.0 
2.474623061296e+01 -1.592058894178e+01 0.0 
2.394234041695e+01 -1.537572575827e+01 0.0 
2.065825452567e+01 -1.621899055217e+01 0.0 
2.387180528935e+01 -1.634552264687e+01 0.0 
4.585364400844e+01 -1.383912334080e+01 0.0 
1.998744432052e+01 -1.370317155541e+01 0.0 
1.205356951443e+01 -6.313580285498e+00 0.0 
5.396543905849e+00 -3.731818611283e+00 0.0 
1.139652573295e+01 -3.745819399350e+00 0.0 
3.574124306703e+00 -4.551456826011e+00 0.0 
3.494140761930e+00 -5.539787055649e+00 0.0 
1.213651452413e+01 -1.664505033022e+01 0.0 
2.555045568519e+01 -1.646529356744e+01 0.0 
2.641671114986e+01 -1.603899382371e+01 0.0 
2.612920721894e+01 -7.906435260873e+00 0.0 
2.690339829698e+01 -8.456969591431e+00 0.0 
1.978024383368e+01 -1.664410216353e+01 0.0 
3.732829979082e+01 -1.336926601859e+01 0.0 
4.074336584605e+01 -1.355133328401e+01 0.0 
4.163204691081e+01 -1.310280943992e+01 0.0 
3.773826114429e+00 -3.493444309145e+00 0.0 
1.228783001032e+01 -3.374822835872e+00 0.0 
4.057110462520e+01 -1.652588478000e+01 0.0 
2.132535497898e+01 -6.523623360525e+00 0.0 
2.216932532211e+01 -6.110044769206e+00 0.0 
1.825781152128e+01 -3.370146817147e+00 0.0 
1.745679445888e+01 -2.812942552063e+00 0.0 
4.666517057280e+01 -1.539981381543e+01 0.0 
4.660575894464e+01 -1.639014410186e+01 0.0 
4.838230979954e+00 -1.063643436446e+01 0.0 
3.938942630206e+00 -1.106778981745e+01 0.0 
1.302967218620e+01 -1.621373452436e+01 0.0 
1.049548003190e+01 -4.204825123240e+00 0.0 
4.573571907195e+01 -1.683820511148e+01 0.0 
1.483686335807e+01 -1.430849689310e+01 0.0 
1.490982658890e+01 -1.332679386284e+01 0.0 
3.190805600162e+00 -9.510968358545e+00 0.0 
2.146625721848e+01 -4.642437303115e+00 0.0 
2.069866208266e+01 -4.111852942193e+00 0.0 
1.286859345584e+01 -6.873252723348e+00 0.0 
1.041794493184e+01 -5.194814260291e+00 0.0 
2.671081808965e+00 -4.976806516331e+00 0.0 
1.295786792925e+01 -1.720506531799e+01 0.0 
3.968438206511e+01 -1.696869067241e+01 0.0 
2.308550456051e+01 -1.579963151273e+01 0.0 
2.315593682844e+01 -1.482967445235e+01 0.0 
2.299471449450e+01 -1.677069968132e+01 0.0 
1.057344714696e+01 -3.214252277840e+00 0.0 
1.124057603753e+01 -1.707713739755e+01 0.0 
2.718402535754e+00 -1.543629882103e+01 0.0 
2.638549692805e+01 -1.696744916809e+01 0.0 
2.723416349007e+01 -1.658104204545e+01 0.0 
2.210193351704e+01 -7.046769643417e+00 0.0 
2.295180925161e+01 -6.657397605239e+00 0.0 
2.301355235833e+01 -5.709111896800e+00 0.0 
2.379052718281e+01 -6.254965406962e+00 0.0 
3.243528601237e+01 -1.214181853533e+01 0.0 
2.287977995457e+01 -7.583722368300e+00 0.0 
2.999876029544e+01 -1.150837653096e+01 0.0 
3.084435366963e+01 -1.109693775882e+01 0.0 
3.006650579669e+01 -1.057778994262e+01 0.0 
2.683802665066e+01 -9.386863216633e+00 0.0 
2.768641973621e+01 -8.988883915666e+00 0.0 
2.040296980397e+01 -7.903629133404e+00 0.0 
1.925235024054e+01 -1.218872783130e+01 0.0 
5.735667000424e+00 -1.020577277283e+01 0.0 
6.396559909872e+00 -1.272326295703e+01 0.0 
1.161199420714e+01 -1.212812778229e+01 0.0 
4.229046132615e+01 -1.663084237572e+01 0.0 
4.312275399692e+01 -1.718087491556e+01 0.0 
4.335502068163e+01 -1.320039231514e+01 0.0 
4.424630298089e+01 -1.275160688731e+01 0.0 
7.090116643816e+00 -3.818998061530e+00 0.0 
7.989472176569e+00 -3.389238711200e+00 0.0 
9.085824861778e+00 -1.144036167408e+01 0.0 
1.041972423731e+01 -1.651614080893e+01 0.0 
3.797525112640e+01 -1.686052038746e+01 0.0 
3.709114253394e+01 -1.730125999865e+01 0.0 
3.626966748340e+01 -1.675477052919e+01 0.0 
1.385164591440e+01 -1.677597757552e+01 0.0 
1.787152588784e+01 -8.198993896093e+00 0.0 
1.668849729812e+01 -1.248560611628e+01 0.0 
1.659546177905e+01 -3.232482605530e+00 0.0 
2.332214717345e+01 -1.292598167641e+01 0.0 
7.168238450786e+00 -2.824711686516e+00 0.0 
2.894878403906e+01 -1.475427524446e+01 0.0 
2.646763248247e+00 -1.643270107952e+01 0.0 
3.467431944285e+00 -1.699648837348e+01 0.0 
2.059475877282e+01 -1.719473628526e+01 0.0 
3.333868355437e+01 -1.080596971682e+01 0.0 
2.246451062637e+01 -1.334557761546e+01 0.0 
2.167821896388e+01 -1.280847834858e+01 0.0 
3.089653185767e+01 -1.017198487212e+01 0.0 
3.012604365669e+01 -9.657298805968e+00 0.0 
2.929627299435e+01 -1.006100135274e+01 0.0 
2.936201435219e+01 -9.136748899251e+00 0.0 
1.198219052702e+01 -7.291887238230e+00 0.0 
1.116702076035e+01 -6.731976101053e+00 0.0 
2.551388807505e+01 -1.746927036981e+01 0.0 
2.378639090370e+01 -1.728678807149e+01 0.0 
2.718543627188e+01 -1.748668016909e+01 0.0 
2.804681050301e+01 -1.712626668293e+01 0.0 
1.970737034667e+01 -1.762317646822e+01 0.0 
1.889535776135e+01 -1.707158098231e+01 0.0 
2.593777711283e+00 -5.971157087874e+00 0.0 
2.773468281110e+01 -8.067164273938e+00 0.0 
4.051205884347e+01 -1.751819982458e+01 0.0 
3.166903145421e+01 -1.068032992414e+01 0.0 
1.033042452886e+01 -1.748285844336e+01 0.0 
9.519274604626e+00 -1.694349240233e+01 0.0 
1.668308673328e+01 -2.255861778986e+00 0.0 
1.570531902832e+01 -2.676795860126e+00 0.0 
4.655826903379e+01 -1.736656245706e+01 0.0 
2.384148070773e+01 -5.328744256413e+00 0.0 
2.460255123641e+01 -5.852182672816e+00 0.0 
2.306638135119e+01 -4.798935440613e+00 0.0 
8.467720450578e-01 -1.849576263072e+01 0.0 
4.849657322345e+01 -1.084860705506e+01 0.0 
2.565860899507e+00 -1.742859793981e+01 0.0 
2.764418872564e+01 -9.927142821799e+00 0.0 
4.565165880064e+01 -1.785336695404e+01 0.0 
2.162231831329e+01 -1.376528337468e+01 0.0 
2.360646352969e+01 -9.136041963102e+00 0.0 
1.392738739903e+01 -1.578285505772e+01 0.0 
4.756405947478e+01 -1.683706841809e+01 0.0 
4.740895034054e+01 -1.793766756892e+01 0.0 
4.080779328826e+01 -1.257387192544e+01 0.0 
4.168907939671e+01 -1.210739129181e+01 0.0 
3.991197722154e+01 -1.300815793917e+01 0.0 
1.905536506762e+01 -3.940076697685e+00 0.0 
1.923879596617e+01 -2.875000734166e+00 0.0 
4.401386745746e+01 -1.673483229438e+01 0.0 
4.247233362525e+00 -7.094581653070e+00 0.0 
3.286051630211e+00 -7.635300020553e+00 0.0 
9.609533347623e+00 -4.594311677967e+00 0.0 
9.523554636369e+00 -5.595597029530e+00 0.0 
5.660336628893e+00 -1.119290329628e+01 0.0 
6.558070063295e+00 -1.076385809362e+01 0.0 
2.809866407414e+01 -1.518037766799e+01 0.0 
2.888868674504e+01 -1.570360690070e+01 0.0 
2.654431550819e+01 -1.411217777162e+01 0.0 
1.402158265969e+01 -1.375404617952e+01 0.0 
1.409592494026e+01 -1.277071998942e+01 0.0 
1.499355196178e+01 -1.235270737023e+01 0.0 
4.221535326155e+01 -1.759335617494e+01 0.0 
4.305583287033e+01 -1.822663146802e+01 0.0 
1.280748808359e+01 -7.834332838285e+00 0.0 
1.368988389326e+01 -7.420529606172e+00 0.0 
1.110091796060e+01 -7.683966794328e+00 0.0 
3.963446145980e+01 -1.794331310122e+01 0.0 
3.423932362213e+00 -1.796415590455e+01 0.0 
4.280814572302e+00 -1.752272834860e+01 0.0 
8.050136380041e+00 -2.421582378631e+00 0.0 
8.888674091650e+00 -2.984264211327e+00 0.0 
2.152839430898e+01 -3.732609965436e+00 0.0 
2.077799585292e+01 -3.183896021866e+00 0.0 
3.618719395821e+01 -1.770276572576e+01 0.0 
3.538165138340e+01 -1.718709995539e+01 0.0 
3.702925326420e+01 -1.828844288807e+01 0.0 
1.756739438711e+00 -5.353284859169e+00 0.0 
2.233710191104e+01 -1.527265621324e+01 0.0 
1.389483555057e+01 -1.771797164730e+01 0.0 
1.475634224300e+01 -1.728357428390e+01 0.0 
1.298797563052e+01 -1.825968924755e+01 0.0 
2.145331271866e+01 -1.673705379077e+01 0.0 
2.133282821169e+01 -1.769400773673e+01 0.0 
2.292139194136e+01 -1.774915400288e+01 0.0 
1.750750053243e+01 -1.861475593469e+00 0.0 
4.830478841772e+01 -1.752611802221e+01 0.0 
4.341203507805e+01 -1.220326745522e+01 0.0 
1.685254151866e+01 -1.443085301632e+00 0.0 
4.431538535165e+01 -1.171841387375e+01 0.0 
4.511308610496e+01 -1.229557320599e+01 0.0 
4.510133242889e+01 -1.123680627466e+01 0.0 
1.846818030617e+00 -4.410877617069e+00 0.0 
3.995468694584e+01 -1.186571542989e+01 0.0 
3.901387459804e+01 -1.242507616755e+01 0.0 
8.966735877533e+00 -1.837818700423e+00 0.0 
4.049310011091e+01 -1.848269508791e+01 0.0 
7.278862053803e+00 -1.918523922691e+00 0.0 
6.429715522129e+00 -2.316676521184e+00 0.0 
9.443505505022e+00 -1.792198868094e+01 0.0 
8.620386951051e+00 -1.737590365556e+01 0.0 
8.571868171503e+00 -1.834436667826e+01 0.0 
7.758629848526e+00 -1.775677907213e+01 0.0 
7.806648388584e+00 -1.680761266021e+01 0.0 
6.908555145436e+00 -1.723746463044e+01 0.0 
4.251709122090e+01 -1.156937480156e+01 0.0 
6.931136405615e+00 -1.832465719263e+01 0.0 
6.015545461353e+00 -1.768865355295e+01 0.0 
5.960535926343e+00 -1.872011001764e+01 0.0 
3.023253444786e+01 -8.761960642196e+00 0.0 
2.454622702599e+01 -6.749421992767e+00 0.0 
2.537499741604e+01 -6.347634963783e+00 0.0 
2.544077378460e+01 -5.431358513649e+00 0.0 
2.801367161747e+01 -1.820907270221e+01 0.0 
2.884507806914e+01 -1.762032095326e+01 0.0 
1.821474531936e+00 -1.588901260460e+01 0.0 
1.821006262604e+00 -1.489370287756e+01 0.0 
4.599962488908e+01 -1.176478780598e+01 0.0 
4.705457470007e+01 -1.172182804229e+01 0.0 
4.667668314802e+01 -1.263464558483e+01 0.0 
4.759648056504e+01 -1.252380987933e+01 0.0 
4.728041618103e+01 -1.341928568376e+01 0.0 
4.825209352360e+01 -1.330491640804e+01 0.0 
4.778118233428e+01 -1.420151961695e+01 0.0 
2.388192727579e+01 -1.826934810142e+01 0.0 
2.381714684947e+01 -4.385917965223e+00 0.0 
3.172733219247e+01 -9.758744265248e+00 0.0 
1.882012070658e+01 -1.805540597212e+01 0.0 
1.805667505243e+01 -1.742221226236e+01 0.0 
2.852599958080e+01 -8.597196079481e+00 0.0 
2.856486123437e+01 -7.661382718527e+00 0.0 
1.111792842875e+01 -1.818223852980e+01 0.0 
2.203322722466e+01 -7.986646678802e+00 0.0 
3.955703676900e+01 -1.903246763601e+01 0.0 
1.944842206513e+01 -8.038750575182e-01 0.0 
1.909882767783e+01 -1.746322740933e+00 0.0 
2.281147422941e+01 -8.525912918334e+00 0.0 
2.850633001468e+01 -9.533271335986e+00 0.0 
2.532883344309e+01 -7.308951659710e+00 0.0 
2.620475466461e+01 -6.979208585400e+00 0.0 
1.396278270396e+01 -1.475095389807e+01 0.0 
9.791001166724e+00 -2.554159793552e+00 0.0 
2.229293380421e+01 -4.269762271052e+00 0.0 
4.677238984118e+01 -1.430071795514e+01 0.0 
2.228658385918e+01 -3.344747535984e+00 0.0 
8.940223674553e-01 -1.543595733415e+01 0.0 
2.118566862474e+01 -8.435876987696e+00 0.0 
2.678325936437e+01 -1.032621195706e+01 0.0 
2.223400220487e+01 -5.179046761770e+00 0.0 
2.375370625384e+01 -7.251580562134e+00 0.0 
3.156971327386e+01 -1.255534750737e+01 0.0 
3.328226391312e+01 -1.172914813316e+01 0.0 
3.250948774219e+01 -1.120157009348e+01 0.0 
2.032993445717e+01 -8.867880112202e+00 0.0 
2.697226974856e+01 -7.536633082045e+00 0.0 
2.707377810386e+01 -6.590835263295e+00 0.0 
2.914099246827e+01 -1.191678458549e+01 0.0 
3.544824072239e+01 -1.621126558525e+01 0.0 
3.456511855436e+01 -1.665054783843e+01 0.0 
3.448395810225e+01 -1.759117813016e+01 0.0 
3.368378673938e+01 -1.708037781328e+01 0.0 
3.375560452567e+01 -1.610973066913e+01 0.0 
3.288001547988e+01 -1.654324255651e+01 0.0 
3.282475929147e+01 -1.749725654692e+01 0.0 
3.199880906313e+01 -1.697294088625e+01 0.0 
3.197001272932e+01 -1.811667776864e+01 0.0 
3.111884713021e+01 -1.742166785755e+01 0.0 
3.120418962865e+01 -1.642155709385e+01 0.0 
3.034666704371e+01 -1.683123833816e+01 0.0 
3.026224379976e+01 -1.772592851714e+01 0.0 
3.046632362943e+01 -1.582232843075e+01 0.0 
1.961344017324e+01 -1.857459447985e+01 0.0 
2.274975894774e+01 -9.532738811922e+00 0.0 
1.833923246887e+01 -2.396746883672e+00 0.0 
1.988859500848e+01 -2.249244376594e+00 0.0 
2.758045562861e+01 -1.086434261689e+01 0.0 
3.247300178163e+01 -1.909930104252e+01 0.0 
3.461947482503e+01 -1.911879848019e+01 0.0 
2.047161538662e+01 -6.941478180358e+00 0.0 
2.750230940214e+01 -1.915490590764e+01 0.0 
3.165081350803e+01 -1.161860780120e+01 0.0 
1.897456727641e+01 -4.889634688522e+00 0.0 
2.549338539756e+01 -1.914858252089e+01 0.0 
3.462873135081e+01 -1.567482276144e+01 0.0 
3.384432415243e+01 -1.512280684518e+01 0.0 
3.471433767690e+01 -1.469086942990e+01 0.0 
3.651470373046e+01 -1.918207952149e+01 0.0 
3.901742690249e+01 -1.345028556517e+01 0.0 
2.153224102692e+01 -1.920169709333e+01 0.0 
1.918382939341e+01 -1.316226275662e+01 0.0 
2.005389162382e+01 -1.271962165174e+01 0.0 
2.011472087878e+01 -1.175029352900e+01 0.0 
3.210679478412e+01 -1.598038618242e+01 0.0 
1.752175226543e+01 -1.914713022656e+01 0.0 
1.696897240059e+01 -1.832772588765e+01 0.0 
1.599682523337e+01 -1.832599992024e+01 0.0 
1.644507199462e+01 -1.743697981535e+01 0.0 
1.549987712903e+01 -1.915192375101e+01 0.0 
3.050250861901e+01 -1.918943550234e+01 0.0 
2.949944061527e+01 -1.922950455235e+01 0.0 
1.375892575273e+01 -6.447160534926e+00 0.0 
1.457223670180e+01 -7.006709243857e+00 0.0 
1.450818793236e+01 -7.965943451779e+00 0.0 
1.538804712402e+01 -7.553409623699e+00 0.0 
1.545817644768e+01 -6.580929593419e+00 0.0 
1.626506893751e+01 -7.129032608911e+00 0.0 
1.619833811522e+01 -8.086588580887e+00 0.0 
1.714448609609e+01 -6.697429609777e+00 0.0 
2.887616543568e+01 -1.668015232137e+01 0.0 
1.349814589130e+01 -1.918225301544e+01 0.0 
1.153887772210e+01 -1.311384581217e+01 0.0 
1.242708159886e+01 -1.267046795531e+01 0.0 
1.249799674267e+01 -1.169005616014e+01 0.0 
6.631723893693e+00 -9.774184881867e+00 0.0 
7.451471631867e+00 -1.033148796006e+01 0.0 
7.377795355458e+00 -1.132196345268e+01 0.0 
5.810931797536e+00 -9.211654212252e+00 0.0 
2.402683899133e+01 -1.441378562320e+01 0.0 
1.249768692036e+01 -1.917388426624e+01 0.0 
1.580373499437e+01 -1.290751860664e+01 0.0 
8.344650507834e+00 -9.898403995170e+00 0.0 
3.750622115305e+01 -1.086526401533e+01 0.0 
3.699391251667e+01 -1.171695900794e+01 0.0 
3.606517829518e+01 -1.173717504500e+01 0.0 
3.650257641795e+01 -1.270047380221e+01 0.0 
3.808951488918e+01 -1.183518714175e+01 0.0 
4.760380962420e+00 -1.162484888315e+01 0.0 
3.861210370848e+00 -1.205657631736e+01 0.0 
3.038284309476e+00 -1.149851280664e+01 0.0 
2.961598794889e+00 -1.248856794980e+01 0.0 
2.138953225512e+00 -1.193212674534e+01 0.0 
2.227383593457e+00 -1.096258903918e+01 0.0 
2.043265419276e+00 -1.292158472959e+01 0.0 
1.252449446028e+00 -1.225502002753e+01 0.0 
3.949985210740e+01 -1.086594001795e+01 0.0 
1.453499444792e+01 -8.768805922472e-01 0.0 
1.403518950933e+01 -1.749965556633e+00 0.0 
1.300715031023e+01 -1.714737233040e+00 0.0 
1.350929389899e+01 -2.527443911291e+00 0.0 
1.449600910711e+01 -2.595486162864e+00 0.0 
1.395693872901e+01 -3.484211041558e+00 0.0 
1.495105865208e+01 -3.364609636216e+00 0.0 
1.508822528740e+01 -1.766586020494e+00 0.0 
1.250223858430e+01 -8.634590186802e-01 0.0 
1.200279523409e+01 -1.709044504992e+00 0.0 
1.150086239419e+01 -8.592789190668e-01 0.0 
1.101482754194e+01 -1.677730591922e+00 0.0 
1.148018564526e+01 -2.659323866909e+00 0.0 
8.800552119754e+00 -3.989875954728e+00 0.0 
3.452790439430e+00 -1.901136170646e+01 0.0 
8.658451825200e-01 -9.503462241795e+00 0.0 
1.694787786797e+00 -9.000589234502e+00 0.0 
1.703436717094e+00 -8.038819004041e+00 0.0 
2.594197971110e+00 -8.563955242845e+00 0.0 
1.630513735412e+00 -9.907244747511e+00 0.0 
8.566859292791e-01 -7.512203837972e+00 0.0 
1.685461277022e+00 -7.164280248030e+00 0.0 
2.506394468801e+00 -8.623386730818e-01 0.0 
2.007475081581e+00 -1.727729545205e+00 0.0 
9.211534699767e-01 -1.628791366312e+00 0.0 
1.500000000020e+00 -2.598063549486e+00 0.0 
2.482078929963e+00 -2.553580088725e+00 0.0 
2.999795253092e+00 -1.732169015019e+00 0.0 
3.999712607169e+00 -1.728832897453e+00 0.0 
4.499752199340e+00 -8.656478679175e-01 0.0 
4.964377774841e+00 -1.730129617941e+00 0.0 
4.425017908337e+00 -2.597541756243e+00 0.0 
5.446573195014e+00 -8.410144840023e-01 0.0 
4.915722346614e+01 -1.550640962770e+01 0.0 
4.826794919243e+01 -1.600000000000e+01 0.0 
1.053139533193e+01 -1.911782884365e+01 0.0 
4.156049861949e+01 -1.095160998589e+01 0.0 
9.494526624416e+00 -8.650570090219e-01 0.0 
4.555762166964e+01 -1.897098103585e+01 0.0 
4.250656411371e+01 -1.914387356218e+01 0.0 
4.350906466345e+01 -1.917234727395e+01 0.0 
8.759665722424e-01 -1.746422130609e+01 0.0 
1.698936011838e+00 -1.795012186674e+01 0.0 
4.742476811029e+01 -1.900090177972e+01 0.0 
7.749196752349e+00 -6.368049313489e+00 0.0 
3.361572113416e+01 -1.798765193915e+01 0.0 
4.484660149212e+01 -1.728661231383e+01 0.0 
1.984038172228e+01 -4.502575320116e+00 0.0 
1.035080352627e+01 -6.166639575753e+00 0.0 
2.753558010652e+00 -1.444909521181e+01 0.0 
7.217069543032e+00 -1.328635391078e+01 0.0 
4.364336727739e+00 -1.655585677381e+01 0.0 
4.595208426108e+00 -1.357919665443e+01 0.0 
6.164967006980e+00 -1.569873454630e+01 0.0 
1.487855768353e+01 -1.826523774028e+01 0.0 
2.791876456372e+00 -4.019632415181e+00 0.0 
4.246464893515e+01 -1.364898659620e+01 0.0 
4.503855590351e+01 -1.329552780944e+01 0.0 
4.407239109604e+01 -1.573900004093e+01 0.0 
5.141054449252e+00 -6.664290382472e+00 0.0 
3.141083947149e+00 -1.055790764912e+01 0.0 
6.196463198741e+00 -4.256497932609e+00 0.0 
2.599618716181e+01 -1.836893455464e+01 0.0 
2.923057372337e+01 -1.098461757645e+01 0.0 
1.168343877486e+01 -1.114079645041e+01 0.0 
6.706222096238e+00 -8.780364234441e+00 0.0 
8.567858614669e+00 -6.943121440850e+00 0.0 
1.123755132901e+01 -5.753525820030e+00 0.0 
2.353456234423e+01 -1.008536320953e+01 0.0 
9.162073319168e+00 -1.045593739109e+01 0.0 
9.676343469685e+00 -1.496493008366e+01 0.0 
4.490637882905e+01 -1.628778970202e+01 0.0 
7.398129387772e+00 -9.639977982323e-01 0.0 
1.049641705805e+01 -1.552503975272e+01 0.0 
9.010356286268e+00 -1.242805042052e+01 0.0 
3.985573925497e+01 -1.399863651620e+01 0.0 
1.816196318262e+01 -1.554066497931e+01 0.0 
1.306332244168e+01 -3.963646550326e+00 0.0 
4.145850903932e+01 -1.608094559275e+01 0.0 
3.794664933633e+01 -1.779020121986e+01 0.0 
3.819614412903e+01 -1.290749321016e+01 0.0 
6.270014188119e+00 -3.255093186826e+00 0.0 
4.251165370388e+01 -1.263870364997e+01 0.0 
1.207347709171e+01 -1.763942826023e+01 0.0 
3.633240829927e+01 -1.577330481104e+01 0.0 
4.319052668832e+00 -6.101812561904e+00 0.0 
1.676492415806e+01 -1.151547901392e+01 0.0 
2.594059220037e+01 -1.074225223009e+01 0.0 
3.340750911501e+01 -9.898764354137e+00 0.0 
4.397619591281e+01 -1.769773736461e+01 0.0 
2.175611595028e+01 -1.185718747128e+01 0.0 
1.641818733106e+01 -1.640685203215e+01 0.0 
1.661211421753e+01 -1.346121366338e+01 0.0 
3.428853504935e+00 -6.551993389271e+00 0.0 
8.700728832502e+00 -1.638460872825e+01 0.0 
1.931369795309e+01 -1.121629383702e+01 0.0 
4.139798872363e+01 -1.706922153459e+01 0.0 
2.647837478700e+01 -1.507353829290e+01 0.0 
1.779469616424e+01 -9.161615782908e+00 0.0 
3.885879219319e+01 -1.642026488918e+01 0.0 
1.338194936770e+01 -1.125916521471e+01 0.0 
1.897071181111e+01 -1.609204322578e+01 0.0 
2.844308548793e+01 -1.046221003096e+01 0.0 
2.659854702194e+01 -1.316109415760e+01 0.0 
2.979604503271e+01 -1.433296157755e+01 0.0 
2.417694041347e+01 -1.251231397779e+01 0.0 
1.807401327411e+00 -1.388891148480e+01 0.0 
9.599810618782e+00 -1.595439365034e+01 0.0 
1.652144692160e+01 -4.205392788472e+00 0.0 
2.367839450246e+01 -8.188385218643e+00 0.0 
3.814894930468e+01 -1.390748338767e+01 0.0 
2.466448215774e+01 -1.685878545680e+01 0.0 
4.134044524611e+01 -1.806610045954e+01 0.0 
2.600511411958e+01 -9.801774120648e+00 0.0 
7.882158050716e+00 -1.582364037353e+01 0.0 
3.881607873422e+01 -1.737970515013e+01 0.0 
8.270182347708e+00 -1.088622154920e+01 0.0 
8.672520392520e-01 -4.532984309881e+00 0.0 
1.993447205337e+01 -3.579061902667e+00 0.0 
1.794616079549e+01 -7.238038888498e+00 0.0 
2.097277068165e+01 -1.132450168636e+01 0.0 
8.194803300681e+00 -1.187214224265e+01 0.0 
3.522279404911e+01 -1.823342818178e+01 0.0 
6.984481050295e+00 -1.625271465557e+01 0.0 
1.309433007797e+01 -1.521718594215e+01 0.0 
2.150246167611e+01 -1.885399038185e+00 0.0 
3.250689370209e+01 -1.028789870535e+01 0.0 
6.085886272238e+00 -1.668342132851e+01 0.0 
1.588455661727e+01 -1.193498985921e+01 0.0 
1.809323400821e+01 -1.651110084195e+01 0.0 
1.348885082381e+00 -1.136065576512e+01 0.0 
2.497670221995e+01 -1.834631276173e+01 0.0 
2.937062818424e+01 -8.233711194470e+00 0.0 
5.185823744469e+00 -1.711566910207e+01 0.0 
1.477497877209e+01 -1.530177014512e+01 0.0 
2.125346158933e+01 -7.473003997367e+00 0.0 
4.751561118290e+01 -1.084897772632e+01 0.0 
5.056026576843e+00 -1.825750475525e+01 0.0 
1.473948554523e+01 -1.634577436309e+01 0.0 
2.410566630936e+01 -1.345970002612e+01 0.0 
1.507337507513e+01 -1.138527895328e+01 0.0 
3.189857338687e+01 -8.887781229006e+00 0.0 
7.298712468334e+00 -1.230231046246e+01 0.0 
2.738235495295e+01 -1.368931690364e+01 0.0 
3.750141041969e+01 -1.920449893070e+01 0.0 
1.557271965640e+01 -1.683317951731e+01 0.0 
3.393731848929e+01 -1.413034777044e+01 0.0 
6.482156824153e+00 -1.174575135362e+01 0.0 
2.077971718439e+01 -1.421279621836e+01 0.0 
3.455084320178e+00 -2.562590040585e+00 0.0 
3.099056096250e+01 -9.270280416035e+00 0.0 
5.580176125418e+00 -1.217387969259e+01 0.0 
1.707247630389e+01 -7.660651981710e+00 0.0 
1.418658814174e+01 -1.180390575393e+01 0.0 
2.049103025389e+01 -1.811296706038e+01 0.0 
4.680386172316e+00 -1.260396879301e+01 0.0 
1.699679896554e+01 -8.624561788199e+00 0.0 
3.779470168555e+00 -1.303424899720e+01 0.0 
3.036589870126e+01 -7.879832518349e+00 0.0 
3.306993001774e+01 -1.457671062095e+01 0.0 
2.840150110165e+00 -1.346530088269e+01 0.0 
2.732011135052e+01 -1.464591214560e+01 0.0 
5.423639259568e+00 -2.659711955016e+00 0.0 
2.324455961696e+01 -1.387269388211e+01 0.0 
1.752768355571e+00 -1.693128613594e+01 0.0 
1.020244783051e+01 -8.076834012808e+00 0.0 
1.330873875224e+01 -1.222417528206e+01 0.0 
3.297727364880e+01 -1.555480372087e+01 0.0 
2.890929955439e+01 -6.868664170731e+00 0.0 
1.323294664622e+01 -1.320754260334e+01 0.0 
2.726532861246e+01 -1.560593120806e+01 0.0 
2.240020643398e+01 -1.429299177247e+01 0.0 
2.090445823633e+01 -1.228128621332e+01 0.0 
1.315809881502e+01 -1.420739326938e+01 0.0 
2.781328038068e+01 -7.181956082300e+00 0.0 
8.614200829057e+00 -5.936933226306e+00 0.0 
8.714765730069e+00 -4.979270529687e+00 0.0 
1.611881701099e+01 -9.041973294003e+00 0.0 
2.806830314340e+01 -1.614622947108e+01 0.0 
2.084435391396e+00 -3.385085422913e+00 0.0 
3.133211811152e+01 -1.542347619750e+01 0.0 
9.693114650768e+00 -3.590281506442e+00 0.0 
1.531883592202e+01 -8.504584946143e+00 0.0 
2.151589117094e+01 -1.578915763018e+01 0.0 
4.918943882696e+01 -1.355538828056e+01 0.0 
1.443236615188e+01 -8.918701794549e+00 0.0 
8.276250966452e-01 -5.537685192197e+00 0.0 
1.362790867918e+01 -8.374718262212e+00 0.0 
2.083767477370e+01 -1.324843956035e+01 0.0 
1.273834678703e+01 -8.790890389337e+00 0.0 
1.192275845670e+01 -8.242261327467e+00 0.0 
4.477236023583e+01 -1.824312396664e+01 0.0 
1.102989384254e+01 -8.649855800911e+00 0.0 
4.849096516045e+01 -1.917293752213e+01 0.0 
1.588996752238e+00 -1.910230934687e+01 0.0 
4.904245197583e+01 -1.159839008158e+01 0.0 
2.753852929608e+01 -5.782128488093e+00 0.0 
1.756133602833e+01 -8.306130313187e-01 0.0 
2.615423700951e+01 -6.153865090092e+00 0.0 
1.028818761294e+01 -7.122020845892e+00 0.0 
2.970818901196e+01 -1.527821347593e+01 0.0 
4.801461623449e+01 -1.164472570985e+01 0.0 
9.455722100419e+00 -6.546069291118e+00 0.0 
3.089099236677e+01 -1.835339328261e+01 0.0 
2.350000000013e+01 -1.920825896750e+01 0.0 
4.830620531887e+01 -1.506626155470e+01 0.0 
1.725381944701e+01 -1.688794487850e+01 0.0 
2.156246225273e+01 -1.475893794002e+01 0.0 
4.919319648787e+01 -1.742767505896e+01 0.0 
4.437935623576e+01 -1.077662927266e+01 0.0 
1.001520521978e+01 -1.652692675208e+00 0.0 
9.067160240050e-01 -1.441937727541e+01 0.0 
2.603365149390e+01 -4.755996613848e+00 0.0 
2.458344439002e+01 -4.873645517696e+00 0.0 
2.304312390142e+01 -3.836552768096e+00 0.0 
2.546923202198e+00 -6.902480355749e+00 0.0 
1.251534969393e+01 -2.490989965776e+00 0.0 
2.454061833377e+01 -3.933354231935e+00 0.0 
1.788186558740e+01 -1.827424884923e+01 0.0 
4.090785243552e+01 -1.166553231904e+01 0.0 
2.230128851568e+01 -1.623015738726e+01 0.0 
2.302362347568e+01 -2.916239960270e+00 0.0 
3.878119254461e+01 -1.830091164002e+01 0.0 
2.210081359958e+01 -1.829238229150e+01 0.0 
8.443704882233e+00 -1.921993252862e+01 0.0 
2.218405824691e+01 -1.724557581508e+01 0.0 
2.151157503963e+01 -2.790636689331e+00 0.0 
3.741658958955e+01 -1.250400191722e+01 0.0 
2.697247663737e+01 -1.838290202309e+01 0.0 
4.743362342862e+01 -1.585850773010e+01 0.0 
6.671345075358e+00 -1.924977576322e+01 0.0 
3.900825404537e+01 -1.157220003875e+01 0.0 
4.649692961375e+01 -1.836335837481e+01 0.0 
1.578831424832e+01 -3.678284023361e+00 0.0 
4.814208768888e+01 -1.841249298770e+01 0.0 
2.964123298315e+01 -1.625739458193e+01 0.0 
4.580760351902e+01 -1.284294554687e+01 0.0 
3.561520879615e+01 -1.245548941949e+01 0.0 
2.555418095658e+00 -1.841101588290e+01 0.0 
3.288468366144e+01 -1.834258164109e+01 0.0 
2.065894391445e+01 -2.240688571739e+00 0.0 
4.739171429915e+01 -1.496536413446e+01 0.0 
3.478086729185e+00 -8.576434653209e+00 0.0 
1.606010630246e+01 -1.588421807951e+00 0.0 
1.018329200594e+01 -1.834320874317e+01 0.0 
2.957213339430e+01 -1.720496954591e+01 0.0 
4.142712790164e+00 -1.837794506222e+01 0.0 
6.698721532573e-01 -2.499999999997e+00 0.0 
8.037039123140e+00 -1.571229354954e+00 0.0 
1.203541361428e+01 -1.847784298001e+01 0.0 
2.899968332038e+01 -1.848264722179e+01 0.0 
1.469229460948e+01 -4.219485753730e+00 0.0 
4.049590781957e+01 -1.932812501995e+01 0.0 
1.996211678340e+01 -1.506329754720e+00 0.0 
4.250588298353e+01 -1.067383247529e+01 0.0 
5.831497011152e+00 -1.635396227234e+00 0.0 
5.317606125670e+00 -1.923927974868e+01 0.0 
4.208546426993e+01 -1.842830665025e+01 0.0 
2.327553405011e+00 -9.459409929662e+00 0.0 
3.568351902251e+01 -1.096637218582e+01 0.0 
1.682104374890e+00 -6.231413350963e+00 0.0 
2.451812238018e+01 -1.766524914339e+01 0.0 
1.058003429638e+01 -2.391839617098e+00 0.0 
4.399988753123e+01 -1.851998776342e+01 0.0 
1.400000000010e+01 -1.852293523028e+01 0.0 
3.604719565984e+01 -1.850662876800e+01 0.0 
1.951297136734e+01 -1.938092349694e+01 0.0 
1.821365318472e+01 -1.531276353287e+00 0.0 
2.298031859732e+01 -1.854635324722e+01 0.0 
1.552168066204e+01 -1.764280741977e+01 0.0 
4.572957713638e+01 -1.073347898229e+01 0.0 
3.429637429624e+01 -1.838861552790e+01 0.0 
2.427434426052e+00 -7.705577451869e+00 0.0 
4.662792031485e+00 -3.359424455416e+00 0.0 
4.926794919243e+01 -1.926794919243e+01 0.0 
7.320508075690e-01 -7.320508075688e-01 0.0 
4.926794919243e+01 -1.073205080757e+01 0.0 
7.320508075705e-01 -1.926794919243e+01 0.0 
2.917460242467e+00 -3.202866455310e+00 0.0 
4.838200575963e+01 -1.232674147454e+01 0.0 
2.998445708009e+01 -1.854403752148e+01 0.0 
5.949940090766e-01 -1.152762038165e+01 0.0 
4.844763495759e+01 -1.678092548787e+01 0.0 
1.301685480160e+01 -3.170056592566e+00 0.0 
1.650046335855e+01 -6.731535384067e-01 0.0 
4.854881540991e+01 -1.405224059779e+01 0.0 
2.119545114693e+01 -1.846813384545e+01 0.0 
3.797852849897e+01 -1.857978513215e+01 0.0 
4.649823708745e+01 -1.338351810816e+01 0.0 
2.012685900976e+01 -2.889659035009e+00 0.0 
2.953271913273e+01 -1.791558075192e+01 0.0 
2.408509097292e+00 -1.021949208421e+01 0.0 
2.642589566221e+01 -1.773216561448e+01 0.0 
1.730010270775e+01 -1.763165076721e+01 0.0 
2.017406551304e+01 -8.513536440582e-01 0.0 
5.254761581934e-01 -1.249999999999e+01 0.0 
6.640448215642e+00 -1.545337834885e+00 0.0 
7.843361506349e+00 -1.852719839527e+01 0.0 
1.588442191088e+00 -1.066158564320e+01 0.0 
2.731250000000e+01 -4.420918367347e+00 0.0 
4.951086956522e+01 -4.500000000000e+00 0.0 
2.880770112393e+01 -5.415638864241e+00 0.0 
4.951086956522e+01 -5.500000000000e+00 0.0 
3.031250000000e+01 -6.420918367347e+00 0.0 
4.951250000000e+01 -6.500000000000e+00 0.0 
3.180701530612e+01 -7.414795918363e+00 0.0 
4.951250000000e+01 -7.500000000000e+00 0.0 
3.331250000000e+01 -8.420918367347e+00 0.0 
4.951470588234e+01 -8.500000000000e+00 0.0 
3.480610198624e+01 -9.413633635267e+00 0.0 
4.951470588234e+01 -9.500000000000e+00 0.0 

SCALARS node_number int
LOOKUP_TABLE default
1
2
3
4
5
6
7
8
9
10
11
12
13
14
15
16
17
18
19
20
21
22
23
24
25
26
27
28
29
30
31
32
33
34
35
36
37
38
39
40
41
42
43
44
45
46
47
48
49
50
51
52
53
54
55
56
57
58
59
60
61
62
63
64
65
66
67
68
69
70
71
72
73
74
75
76
77
78
79
80
81
82
84
85
86
87
88
89
90
91
92
93
97
98
99
100
101
102
104
105
106
107
108
109
110
111
112
113
114
115
116
117
118
119
120
121
122
123
124
125
126
127
128
129
130
131
132
133
134
135
136
245
246
247
248
249
250
251
252
253
254
255
256
257
258
259
260
261
262
263
264
265
266
267
268
269
270
271
272
273
274
275
276
277
278
279
280
281
282
283
284
285
286
287
288
289
290
291
292
293
294
295
296
297
298
299
300
301
302
303
304
305
306
307
308
309
310
311
312
313
314
315
316
317
318
319
320
321
322
323
324
325
326
327
328
329
330
331
332
333
334
335
336
337
338
339
340
341
342
343
344
345
346
347
348
349
350
351
352
353
354
355
356
357
358
359
360
361
362
363
364
365
366
367
368
369
370
371
372
373
374
375
376
377
378
379
380
381
382
383
384
385
386
387
388
389
390
391
392
393
394
395
396
397
398
399
400
401
402
403
404
405
406
407
408
409
410
411
412
413
414
415
416
417
418
419
420
421
422
423
424
425
426
427
428
429
430
431
432
433
434
435
436
437
438
439
440
441
442
443
444
445
446
447
448
449
450
451
452
453
454
455
456
457
458
459
460
461
462
463
464
465
466
467
468
469
470
471
472
473
474
475
476
477
478
479
480
481
482
483
484
485
486
487
488
489
490
491
492
493
494
495
496
497
498
499
500
501
502
503
504
505
506
507
508
509
510
511
512
513
514
515
516
517
518
519
520
521
522
523
524
525
526
527
528
529
530
531
532
533
534
535
536
537
538
539
540
541
542
543
544
545
546
547
548
549
550
551
552
553
554
555
556
557
558
559
560
561
562
563
564
565
566
567
568
569
570
571
572
573
574
575
576
577
578
579
580
581
582
583
584
585
586
587
588
589
590
591
592
593
594
595
596
597
598
599
600
601
602
603
604
605
606
607
608
609
610
611
612
613
614
615
616
617
618
619
620
621
622
623
624
625
626
627
628
629
630
631
632
633
634
635
636
637
638
639
640
641
642
643
644
645
646
647
648
649
650
651
652
653
654
655
656
657
658
659
660
661
662
663
664
665
666
667
668
669
670
671
672
673
674
675
676
677
678
679
680
681
682
683
684
685
686
687
688
689
690
691
692
693
694
695
696
697
698
699
700
701
702
703
704
705
706
707
708
709
710
711
712
713
714
715
716
717
718
719
720
721
722
723
724
725
726
727
728
729
730
731
732
733
734
735
736
737
738
739
740
741
742
743
744
745
746
747
748
749
750
751
752
753
754
755
756
757
758
759
760
761
762
763
764
765
766
767
768
769
770
771
772
773
774
775
776
777
778
779
780
781
782
783
784
785
786
787
788
789
790
791
792
793
794
795
796
797
798
799
800
801
802
803
804
805
806
807
808
809
810
811
812
813
814
815
816
817
818
819
820
821
822
823
824
825
826
827
828
829
830
831
832
833
834
835
836
837
838
839
840
841
842
843
844
845
846
847
848
849
850
851
852
853
854
855
856
857
858
859
860
861
862
863
864
865
866
867
868
869
870
871
872
873
874
875
876
877
878
879
880
881
882
883
884
885
886
887
888
889
890
891
892
893
894
895
896
897
898
899
900
901
902
903
904
905
906
907
908
909
910
911
912
913
914
915
916
917
918
919
920
921
922
923
924
925
926
927
928
929
930
931
932
933
934
935
936
937
938
939
940
941
942
943
944
945
946
947
948
949
950
951
952
953
954
955
956
957
958
959
960
961
962
963
964
965
966
967
968
969
970
971
972
973
974
975
976
977
978
979
980
981
982
983
984
985
986
987
988
989
990
991
992
993
994
995
996
997
998
999
1000
1001
1002
1003
1004
1005
1006
1007
1008
1009
1010
1011
1012
1013
1014
1015
1016
1017
1018
1019
1020
1021
1022
1023
1024
1025
1026
1027
1028
1029
1030
1031
1032
1033
1034
1035
1036
1037
1038
1039
1040
1041
1042
1043
1044
1045
1046
1047
1048
1049
1050
1051
1052
1053
1054
1055
1056
1057
1058
1059
1060
1061
1062
1063
1064
1065
1066
1067
1068
1069
1070
1071
1072
1073
1074
1075
1076
1077
1078
1079
1080
1081
1082
1083
1084
1085
1086
1087
1088
1089
1090
1091
1092
1093
1094
1095
1096
1097
1098
1099
1100
1101
1102
1103
1104
1105
1106
1107
1108
1109
1110
1111
1112
1113
1114
1115
1116
1117
1118
1119
1120
1121
1122
1123
1124
1125
1126
1127
1128
1129
1130
1131
1132
1133
1134
1135
1136
1137
1138
1139
1140
1141
1142
1143
1144
1145
1146
1147
1148
1149
1150
1151
1152
1153
1154
1155
1156
1157
1158
1159
1160
1161
1162
1163
1164
1165
1166
1167
1168
1169
1170
1171
1172
1173
1174
1175
1176
1177
1178
1179
1180
1181
1182
1183
1184
1185
1186
1187
1188
1189
1190
1191
1192
1193
1194
1195
1196
1197
1198
1199
1200
1201
1202
1203
1204
1205
1206
1207
1208
1209
1210
1211
1212
1213
1214
1215
1216
1217
1218
1219
1220
1221
1222
1223
1224
1225
1226
1227
1228
1229
1230
1231
1232
1233
1234
1235
1236
1237
1238
1239
1240
1241
1242
1243
1244
1245
1246
1247
1248
1249
1250
1251
1252
1253
1254
1255
1256
1257
1258
1259
1260
1261
1262
1263
1264
1273
1274
1275
1276
1277
1278
1279
1280
1281
1282
1283
1284

VECTORS node_mesh_deformation float
0.0 6.587639185772e-02 0.0 
0.000000000000e+00 1.046065096518e-01 0.0 
0.0 0.000000000000e+00 0.0 
0.000000000000e+00 0.000000000000e+00 0.0 
0.0 6.677020787440e-02 0.0 
0.0 6.695960534011e-02 0.0 
0.0 6.648476687490e-02 0.0 
0.0 6.534266242236e-02 0.0 
0.0 6.355596537666e-02 0.0 
0.0 6.127166383447e-02 0.0 
0.0 5.857599706416e-02 0.0 
0.0 5.553447077995e-02 0.0 
0.0 5.221093821951e-02 0.0 
0.0 4.864625372617e-02 0.0 
0.0 4.485328712083e-02 0.0 
0.0 4.084808391023e-02 0.0 
0.0 3.662418267486e-02 0.0 
0.0 3.217559905985e-02 0.0 
0.0 2.747768893840e-02 0.0 
0.0 2.251706735963e-02 0.0 
0.0 1.728895578195e-02 0.0 
0.0 1.178675213588e-02 0.0 
0.0 6.022051265003e-03 0.0 
0.000000000000e+00 0.000000000000e+00 0.0 
0.000000000000e+00 0.000000000000e+00 0.0 
0.000000000000e+00 0.000000000000e+00 0.0 
0.000000000000e+00 0.000000000000e+00 0.0 
0.000000000000e+00 0.000000000000e+00 0.0 
0.000000000000e+00 0.000000000000e+00 0.0 
0.000000000000e+00 0.000000000000e+00 0.0 
0.000000000000e+00 0.000000000000e+00 0.0 
0.000000000000e+00 0.000000000000e+00 0.0 
0.000000000000e+00 0.000000000000e+00 0.0 
0.000000000000e+00 0.000000000000e+00 0.0 
0.000000000000e+00 0.000000000000e+00 0.0 
0.000000000000e+00 0.000000000000e+00 0.0 
0.000000000000e+00 0.000000000000e+00 0.0 
0.000000000000e+00 0.000000000000e+00 0.0 
0.000000000000e+00 0.000000000000e+00 0.0 
0.000000000000e+00 0.000000000000e+00 0.0 
0.000000000000e+00 0.000000000000e+00 0.0 
0.000000000000e+00 0.000000000000e+00 0.0 
0.000000000000e+00 0.000000000000e+00 0.0 
0.000000000000e+00 0.000000000000e+00 0.0 
0.000000000000e+00 0.000000000000e+00 0.0 
0.000000000000e+00 0.000000000000e+00 0.0 
0.000000000000e+00 0.000000000000e+00 0.0 
0.000000000000e+00 0.000000000000e+00 0.0 
0.000000000000e+00 0.000000000000e+00 0.0 
0.000000000000e+00 0.000000000000e+00 0.0 
0.000000000000e+00 0.000000000000e+00 0.0 
0.000000000000e+00 0.000000000000e+00 0.0 
0.000000000000e+00 0.000000000000e+00 0.0 
0.000000000000e+00 0.000000000000e+00 0.0 
0.000000000000e+00 0.000000000000e+00 0.0 
0.000000000000e+00 0.000000000000e+00 0.0 
0.000000000000e+00 0.000000000000e+00 0.0 
0.000000000000e+00 0.000000000000e+00 0.0 
0.000000000000e+00 0.000000000000e+00 0.0 
0.000000000000e+00 0.000000000000e+00 0.0 
0.000000000000e+00 0.000000000000e+00 0.0 
0.000000000000e+00 0.000000000000e+00 0.0 
0.000000000000e+00 0.000000000000e+00 0.0 
0.000000000000e+00 0.000000000000e+00 0.0 
0.000000000000e+00 0.000000000000e+00 0.0 
0.000000000000e+00 0.000000000000e+00 0.0 
0.000000000000e+00 0.000000000000e+00 0.0 
0.000000000000e+00 0.000000000000e+00 0.0 
0.000000000000e+00 0.000000000000e+00 0.0 
0.000000000000e+00 0.000000000000e+00 0.0 
0.000000000000e+00 0.000000000000e+00 0.0 
0.000000000000e+00 0.000000000000e+00 0.0 
0.000000000000e+00 9.571920131674e-02 0.0 
0.000000000000e+00 8.642926720650e-02 0.0 
0.000000000000e+00 7.675183682260e-02 0.0 
0.000000000000e+00 6.671398104174e-02 0.0 
0.000000000000e+00 5.633128086804e-02 0.0 
0.000000000000e+00 4.562811981433e-02 0.0 
0.000000000000e+00 3.462467291400e-02 0.0 
0.000000000000e+00 2.333985468514e-02 0.0 
0.000000000000e+00 1.179711757291e-02 0.0 
-7.827896534423e-03 -9.218066468166e-03 0.0 
2.481713207690e-02 9.589945757899e-02 0.0 
-2.284571843880e-04 1.891359526496e-02 0.0 
7.144075625749e-03 4.183728332738e-02 0.0 
1.381848359209e-02 6.185294247093e-02 0.0 
1.894131648593e-02 7.861589010315e-02 0.0 
2.410608934681e-02 9.041033878691e-02 0.0 
2.751893411602e-02 9.775397801668e-02 0.0 
2.897237268472e-02 1.014893851728e-01 0.0 
2.878942421882e-02 1.021046738228e-01 0.0 
2.730930034057e-02 1.000827630513e-01 0.0 
0.000000000000e+00 1.486147872650e-01 0.0 
0.000000000000e+00 1.424342648105e-01 0.0 
0.000000000000e+00 1.357617179208e-01 0.0 
0.000000000000e+00 1.286681952208e-01 0.0 
0.000000000000e+00 1.210777666960e-01 0.0 
0.000000000000e+00 1.130753842669e-01 0.0 
1.389225680100e-03 1.045995606038e-01 0.0 
2.772099222348e-03 1.045743160969e-01 0.0 
4.176821803519e-03 1.045258749030e-01 0.0 
5.606382597016e-03 1.044438031858e-01 0.0 
7.066772122386e-03 1.043277361604e-01 0.0 
8.559850488865e-03 1.041421575911e-01 0.0 
1.010312386146e-02 1.038982442891e-01 0.0 
1.169493012146e-02 1.035494228933e-01 0.0 
1.335451413562e-02 1.031007731932e-01 0.0 
1.508577675059e-02 1.024969022010e-01 0.0 
1.688757127076e-02 1.017155278854e-01 0.0 
1.877123020027e-02 1.007102335777e-01 0.0 
2.072523151580e-02 9.944057108685e-02 0.0 
2.273926734750e-02 9.784978987525e-02 0.0 
-4.586983759641e-03 -2.391289781603e-02 0.0 
2.262592334397e-04 -3.156511176711e-02 0.0 
5.502859912298e-03 -3.409146061980e-02 0.0 
1.126612598827e-02 -3.111465058421e-02 0.0 
1.555932093407e-02 -2.019488321331e-02 0.0 
1.806124962189e-02 -6.389684775371e-03 0.0 
1.895397263854e-02 4.318799991692e-03 0.0 
1.914677909625e-02 1.330557454068e-02 0.0 
1.918011530435e-02 2.126744732072e-02 0.0 
1.894990329561e-02 2.862246574118e-02 0.0 
1.836915480267e-02 3.536729090373e-02 0.0 
1.749828134537e-02 4.143666014253e-02 0.0 
1.627074440529e-02 4.698513090078e-02 0.0 
1.461702902169e-02 5.193524184101e-02 0.0 
1.264139672187e-02 5.618501367382e-02 0.0 
1.043516020527e-02 5.963852985064e-02 0.0 
8.033555890362e-03 6.237843264825e-02 0.0 
5.473420290264e-03 6.437729150414e-02 0.0 
2.751170553143e-03 6.551461802364e-02 0.0 
1.161026135541e-03 1.486463134195e-01 0.0 
2.243443900248e-03 1.485892998411e-01 0.0 
3.312819319284e-03 1.485405192056e-01 0.0 
4.371277326186e-03 1.484643744165e-01 0.0 
5.414019189068e-03 1.483472986485e-01 0.0 
6.435013062998e-03 1.481740637832e-01 0.0 
7.427928357814e-03 1.479258403992e-01 0.0 
8.386165913784e-03 1.475793309231e-01 0.0 
9.302950198574e-03 1.471049801509e-01 0.0 
1.017186253036e-02 1.464667606062e-01 0.0 
1.098694697981e-02 1.456214199148e-01 0.0 
1.174224999224e-02 1.445162819123e-01 0.0 
1.243259812912e-02 1.430869228179e-01 0.0 
1.305596007936e-02 1.412544090214e-01 0.0 
1.361813318255e-02 1.389253114124e-01 0.0 
1.413073538905e-02 1.360234524446e-01 0.0 
1.456481194092e-02 1.324543294860e-01 0.0 
1.492462061251e-02 1.281079913035e-01 0.0 
1.523360253777e-02 1.228720780715e-01 0.0 
1.552906903724e-02 1.166279206258e-01 0.0 
1.586998856481e-02 1.092887656109e-01 0.0 
1.636468075582e-02 1.007545247231e-01 0.0 
1.695827986654e-02 9.086155785136e-02 0.0 
2.287187872562e-02 9.947233663908e-02 0.0 
2.186155906838e-02 1.071979487283e-01 0.0 
2.087333818379e-02 1.137934030151e-01 0.0 
1.992293185122e-02 1.193976578491e-01 0.0 
1.898584125441e-02 1.240897800921e-01 0.0 
1.804643435518e-02 1.279831671039e-01 0.0 
1.709376831814e-02 1.311809184241e-01 0.0 
1.612082296227e-02 1.337848834954e-01 0.0 
1.512789111908e-02 1.358697539412e-01 0.0 
1.413051818630e-02 1.375095818551e-01 0.0 
1.312274104893e-02 1.387891337492e-01 0.0 
1.210108034052e-02 1.397786306957e-01 0.0 
1.106383772530e-02 1.405348974691e-01 0.0 
1.001056225522e-02 1.411046494148e-01 0.0 
8.941753456568e-03 1.415269415214e-01 0.0 
7.859039179806e-03 1.418347550865e-01 0.0 
6.764621805935e-03 1.420547444028e-01 0.0 
5.660776327041e-03 1.422078326200e-01 0.0 
4.550034472643e-03 1.423112319726e-01 0.0 
3.434796380503e-03 1.423779267768e-01 0.0 
2.315457889971e-03 1.424146573949e-01 0.0 
1.162733818305e-03 1.424001584734e-01 0.0 
1.239996141543e-03 1.357961927638e-01 0.0 
2.470572527820e-03 1.357666203396e-01 0.0 
3.699035054396e-03 1.357290620720e-01 0.0 
4.927530637794e-03 1.356618249494e-01 0.0 
6.159047764584e-03 1.355554010485e-01 0.0 
7.395671068736e-03 1.353958966093e-01 0.0 
8.638513428266e-03 1.351645220031e-01 0.0 
9.888409677281e-03 1.348391191734e-01 0.0 
1.114675363371e-02 1.343899019138e-01 0.0 
1.241597704965e-02 1.337796028663e-01 0.0 
1.369960614882e-02 1.329653772655e-01 0.0 
1.500243453020e-02 1.318958798927e-01 0.0 
1.633085137100e-02 1.305085270301e-01 0.0 
1.769256354908e-02 1.287249084396e-01 0.0 
1.906500012404e-02 1.264662967453e-01 0.0 
2.044492130398e-02 1.236518183390e-01 0.0 
2.183590693634e-02 1.201919511866e-01 0.0 
2.324072106295e-02 1.159774657665e-01 0.0 
2.466033162133e-02 1.109219170636e-01 0.0 
2.605254540883e-02 1.048929767509e-01 0.0 
2.729082219293e-02 1.067513124747e-01 0.0 
2.564913584897e-02 1.111702881116e-01 0.0 
2.397810714879e-02 1.148371418657e-01 0.0 
2.232342309060e-02 1.178720794970e-01 0.0 
2.068766957689e-02 1.203406325194e-01 0.0 
1.907248990168e-02 1.223274560000e-01 0.0 
1.749728614877e-02 1.239047607036e-01 0.0 
1.597536585305e-02 1.251420582359e-01 0.0 
1.450024533932e-02 1.261011524008e-01 0.0 
1.306562278179e-02 1.268347745796e-01 0.0 
1.166514942143e-02 1.273862455774e-01 0.0 
1.029543589431e-02 1.277938437286e-01 0.0 
8.952519732368e-03 1.280916279759e-01 0.0 
7.631032635899e-03 1.283050866511e-01 0.0 
6.331119778636e-03 1.284539797373e-01 0.0 
5.048528267764e-03 1.285537070506e-01 0.0 
3.777725649485e-03 1.286158668302e-01 0.0 
2.514262931250e-03 1.286477201723e-01 0.0 
1.256455463306e-03 1.286318329928e-01 0.0 
1.335175452461e-03 1.211054357270e-01 0.0 
2.675444515617e-03 1.210685404968e-01 0.0 
4.025076685487e-03 1.210296892566e-01 0.0 
5.389895232014e-03 1.209599413399e-01 0.0 
6.774879254898e-03 1.208485852113e-01 0.0 
8.187972186889e-03 1.206819047102e-01 0.0 
9.634505831649e-03 1.204452529939e-01 0.0 
1.112360574533e-02 1.201151101754e-01 0.0 
1.266336877796e-02 1.196651964087e-01 0.0 
1.425174216529e-02 1.190595308859e-01 0.0 
1.589331087575e-02 1.182529907880e-01 0.0 
1.759471237077e-02 1.172015757275e-01 0.0 
1.936185025293e-02 1.158481749536e-01 0.0 
2.119728852161e-02 1.141355601697e-01 0.0 
2.307572516170e-02 1.119836691013e-01 0.0 
2.497527395960e-02 1.093304625603e-01 0.0 
2.686258278547e-02 1.060650161801e-01 0.0 
2.531620620260e-02 1.028433207137e-01 0.0 
2.337360022877e-02 1.050949180563e-01 0.0 
2.143059935877e-02 1.069092662199e-01 0.0 
1.955120612170e-02 1.083846182342e-01 0.0 
1.773790913636e-02 1.095578073646e-01 0.0 
1.599190212027e-02 1.104770326436e-01 0.0 
1.430566336372e-02 1.111895643527e-01 0.0 
1.269017476554e-02 1.117320099308e-01 0.0 
1.113376519918e-02 1.121401777376e-01 0.0 
9.633435187460e-03 1.124482211969e-01 0.0 
8.176577802246e-03 1.126684326124e-01 0.0 
6.759718638449e-03 1.128291564177e-01 0.0 
5.371423970566e-03 1.129344023517e-01 0.0 
4.008444130079e-03 1.130034612852e-01 0.0 
2.664884840080e-03 1.130404181406e-01 0.0 
1.328925512475e-03 1.130330282061e-01 0.0 
-3.647259656709e-03 6.225941775691e-03 0.0 
3.472321615664e-03 3.069218436708e-02 0.0 
1.058685472979e-02 5.219882824952e-02 0.0 
1.668464991059e-02 7.069263839892e-02 0.0 
2.174161568716e-02 8.509715414688e-02 0.0 
2.610002521147e-02 9.455004320857e-02 0.0 
2.847608889740e-02 1.000319075390e-01 0.0 
2.905900776521e-02 1.021525170403e-01 0.0 
2.819221700329e-02 1.013888228244e-01 0.0 
2.616996162598e-02 9.823318605067e-02 0.0 
1.189860675436e-02 2.952585917050e-02 0.0 
2.167092314085e-03 3.797692246749e-03 0.0 
1.300890834756e-02 2.483687536079e-02 0.0 
7.589156807922e-03 -2.462972818551e-02 0.0 
-2.534667393697e-04 3.943221247599e-03 0.0 
2.342880244036e-02 6.744200626331e-02 0.0 
-1.228123567735e-03 4.650266568261e-02 0.0 
4.370358373681e-03 4.526289650840e-03 0.0 
3.050011020469e-02 8.884251324922e-02 0.0 
5.629528182535e-03 5.635265953899e-03 0.0 
3.111924334581e-02 9.549119462705e-02 0.0 
-9.443559555251e-04 4.191648389494e-03 0.0 
1.150984204327e-02 5.042698376478e-02 0.0 
5.877596493928e-03 7.192681967069e-03 0.0 
2.659962726847e-02 9.062652822533e-02 0.0 
-8.957497550051e-04 5.961492178097e-02 0.0 
-1.070529526339e-03 3.519445530776e-02 0.0 
5.531330735074e-03 8.516136738081e-03 0.0 
4.039079059481e-03 9.078615424365e-03 0.0 
1.309254017748e-03 1.001143336357e-02 0.0 
2.336181865175e-03 1.068666647128e-02 0.0 
2.990915203256e-03 9.306521591508e-03 0.0 
2.164840085958e-02 9.103177130718e-02 0.0 
1.423744194266e-02 9.479977309195e-02 0.0 
9.328408914250e-03 9.578716553386e-02 0.0 
9.012152365528e-04 6.139946489777e-02 0.0 
-8.775775616412e-04 4.952653918416e-03 0.0 
3.039729253182e-03 -2.507234398238e-02 0.0 
7.007621106729e-03 6.176056511068e-02 0.0 
-6.738810450176e-04 2.027727866924e-02 0.0 
4.786201607168e-03 9.685819580669e-02 0.0 
2.956292590406e-04 6.568615142576e-02 0.0 
5.396568990065e-03 1.001071822847e-02 0.0 
4.755494789432e-03 4.642026557804e-03 0.0 
5.828778260646e-03 6.321540169438e-03 0.0 
3.578760451777e-03 4.334528784426e-03 0.0 
9.906110148741e-04 3.540393115809e-03 0.0 
1.048285165428e-02 -1.088189424349e-03 0.0 
1.782496046469e-02 9.381897194435e-02 0.0 
-9.101657491506e-04 4.815849301071e-03 0.0 
6.764472662155e-04 4.062736667660e-02 0.0 
1.295017205073e-02 3.855643052288e-02 0.0 
-1.213610325765e-03 5.365878050402e-02 0.0 
6.653261947136e-04 8.183360890857e-03 0.0 
2.787973092567e-02 7.955538732967e-02 0.0 
1.814025453082e-02 5.020473329915e-02 0.0 
3.157493582296e-02 9.378567499029e-02 0.0 
2.936898735862e-02 9.426297316066e-02 0.0 
4.431826327128e-03 5.920184645891e-03 0.0 
1.095226877808e-03 8.047509099097e-02 0.0 
-4.430658154018e-04 4.068059162844e-03 0.0 
3.261398110885e-03 6.578123790150e-02 0.0 
3.707748465871e-04 1.845630817494e-02 0.0 
2.523404330753e-02 8.767554839154e-02 0.0 
2.651788996526e-02 8.262024844796e-02 0.0 
2.429555168071e-02 8.055808930310e-02 0.0 
2.570270031437e-02 7.454657659234e-02 0.0 
2.356142317754e-02 7.130582509746e-02 0.0 
2.447275171884e-02 6.598227841860e-02 0.0 
2.676762838095e-02 6.893953624622e-02 0.0 
2.515500093990e-02 6.057809954061e-02 0.0 
2.755817335565e-02 6.334075354915e-02 0.0 
2.213840894336e-02 6.244657068440e-02 0.0 
2.554465499698e-02 5.514611600896e-02 0.0 
2.802787976137e-02 5.770526087504e-02 0.0 
2.561622994468e-02 4.974953846481e-02 0.0 
2.813455954614e-02 5.209769487089e-02 0.0 
3.043214797124e-02 5.965533244725e-02 0.0 
3.055164854121e-02 5.383069293311e-02 0.0 
3.267129673259e-02 6.090670114883e-02 0.0 
3.280222328336e-02 5.482335691101e-02 0.0 
3.025895577043e-02 4.814601918214e-02 0.0 
3.246419278465e-02 4.892713609838e-02 0.0 
3.475739441855e-02 5.502295294123e-02 0.0 
3.436551149008e-02 4.889811137796e-02 0.0 
3.636937584061e-02 5.436705111551e-02 0.0 
3.588349410886e-02 4.800021020727e-02 0.0 
3.759111324617e-02 5.279810112204e-02 0.0 
3.697622816738e-02 4.622449176682e-02 0.0 
3.483901451513e-02 4.203368130687e-02 0.0 
3.577343288451e-02 4.015355610677e-02 0.0 
3.757171742935e-02 4.358165335523e-02 0.0 
3.617992572365e-02 3.745477499939e-02 0.0 
3.762233253831e-02 4.011693412251e-02 0.0 
3.601581469392e-02 3.402760449207e-02 0.0 
3.420033231790e-02 3.204506852902e-02 0.0 
3.380468020222e-02 2.876968541276e-02 0.0 
3.522613277278e-02 2.992499077497e-02 0.0 
3.268407942265e-02 2.478337662295e-02 0.0 
3.371972779489e-02 2.504148609211e-02 0.0 
3.081981350217e-02 2.015131600401e-02 0.0 
3.150429415810e-02 1.958877954500e-02 0.0 
2.824717149487e-02 1.517947286332e-02 0.0 
2.737726269074e-02 1.638516792700e-02 0.0 
2.450747296664e-02 1.204621617967e-02 0.0 
2.506945919115e-02 1.020242397014e-02 0.0 
2.112365966467e-02 7.938875249177e-03 0.0 
2.049131290032e-02 1.018032846745e-02 0.0 
1.701912300634e-02 7.003560812009e-03 0.0 
1.639805846990e-02 9.460186735414e-03 0.0 
1.295034337987e-02 7.232012979467e-03 0.0 
1.334188122371e-02 4.523017006678e-03 0.0 
9.423499499970e-03 5.795032963947e-03 0.0 
9.143534663249e-03 8.397276220158e-03 0.0 
5.863935273084e-03 7.873614365595e-03 0.0 
5.987712384197e-03 5.276140431482e-03 0.0 
2.807514198274e-03 8.255327032209e-03 0.0 
2.903330415617e-03 1.026184582630e-02 0.0 
2.564803279501e-04 1.127309616214e-02 0.0 
8.409549741373e-05 9.530933652540e-03 0.0 
-2.036146037938e-03 1.308400519967e-02 0.0 
-1.792052203388e-03 1.431350913911e-02 0.0 
-3.772193846439e-03 1.666541952990e-02 0.0 
-3.954753288081e-03 1.570850262806e-02 0.0 
-5.348281596856e-03 1.969639547429e-02 0.0 
-5.105129451472e-03 2.011803886954e-02 0.0 
-6.358459129007e-03 2.343153683663e-02 0.0 
-5.999149302529e-03 2.324052142085e-02 0.0 
-6.503567280344e-03 2.339188532174e-02 0.0 
-7.189385746246e-03 2.724932674854e-02 0.0 
-7.179371052455e-03 2.761931019318e-02 0.0 
-7.580854413359e-03 3.146352175539e-02 0.0 
3.168573598552e-02 2.740329844700e-02 0.0 
-7.340647071780e-03 3.219923197570e-02 0.0 
-6.819530312507e-03 2.780512824628e-02 0.0 
-7.525047167918e-03 3.594230276875e-02 0.0 
-7.634613349274e-03 3.469762504240e-02 0.0 
-7.017787637730e-03 3.702131755538e-02 0.0 
-7.055183822463e-03 4.055900760141e-02 0.0 
-6.266517313454e-03 4.192302407513e-02 0.0 
3.412107959053e-02 2.519774700898e-02 0.0 
2.954061381244e-02 4.267381930533e-02 0.0 
-6.225653559977e-03 4.516149238066e-02 0.0 
-5.171847102110e-03 4.674079002514e-02 0.0 
-4.909652308783e-03 4.310869903373e-02 0.0 
-3.522613501328e-03 4.808994409282e-02 0.0 
2.133179137327e-02 6.774043853427e-02 0.0 
1.976695062010e-02 5.849955737750e-02 0.0 
1.909618119441e-02 6.376840112519e-02 0.0 
1.738423168111e-02 5.422430806369e-02 0.0 
1.684750203323e-02 5.937991332124e-02 0.0 
-3.847424451920e-03 5.131848110237e-02 0.0 
2.298697250921e-02 4.658176742109e-02 0.0 
1.769104735907e-02 4.896490391520e-02 0.0 
3.630793778400e-02 6.103133520826e-02 0.0 
3.859078811531e-02 4.697257319629e-02 0.0 
1.955461810572e-02 1.223132520703e-02 0.0 
-6.776759257654e-03 4.336858628009e-02 0.0 
-5.876127670773e-03 4.764332672540e-02 0.0 
-6.208658850244e-03 4.543542128276e-02 0.0 
-4.666732005534e-03 2.024246660872e-02 0.0 
-5.426202081276e-03 2.271606365637e-02 0.0 
-4.038909343192e-03 1.997586518198e-02 0.0 
-4.703377310177e-03 2.178311527743e-02 0.0 
-3.319588256787e-03 1.923555571630e-02 0.0 
-3.956489293323e-03 2.038372742549e-02 0.0 
-5.035645156280e-03 2.313866815415e-02 0.0 
-4.286722756675e-03 2.110871522758e-02 0.0 
-5.087977130231e-03 2.401373102009e-02 0.0 
-2.683131870263e-03 1.795323117810e-02 0.0 
-1.729254900333e-03 1.708448258578e-02 0.0 
-4.345281479840e-03 2.139620119393e-02 0.0 
-4.903962267726e-03 2.439878445903e-02 0.0 
-4.179127718376e-03 2.123869914262e-02 0.0 
-4.525103278821e-03 2.430662277394e-02 0.0 
-5.216314988377e-03 2.758421748765e-02 0.0 
-4.631448671823e-03 2.750385011669e-02 0.0 
-5.274720337814e-03 3.089787167498e-02 0.0 
1.557849539423e-02 1.161482034667e-02 0.0 
1.833321263610e-02 1.388321073969e-02 0.0 
1.459254108673e-02 1.323253504083e-02 0.0 
1.676165299158e-02 1.476497800344e-02 0.0 
1.338383170663e-02 1.385284511596e-02 0.0 
1.498451929258e-02 1.468950664843e-02 0.0 
1.186006618661e-02 1.362367242920e-02 0.0 
1.028374022094e-02 1.330577838568e-02 0.0 
2.535408668800e-02 4.435475802367e-02 0.0 
2.145419356669e-02 5.535869729737e-03 0.0 
2.524705548344e-02 8.239543259435e-03 0.0 
2.138647819438e-02 2.917186353829e-03 0.0 
2.486282970795e-02 6.172756941445e-03 0.0 
2.084036310284e-02 1.799024039491e-04 0.0 
2.393844668427e-02 4.058596877639e-03 0.0 
1.988804581288e-02 -2.679401074856e-03 0.0 
1.667499754431e-02 -4.978972860874e-03 0.0 
1.569501017656e-02 -8.529515153489e-03 0.0 
1.254603960471e-02 -8.877176089738e-03 0.0 
1.170899172702e-02 -1.289421175006e-02 0.0 
8.720142510100e-03 -1.108634482439e-02 0.0 
3.324419411577e-02 3.657341141574e-02 0.0 
1.832067528482e-02 1.613851499637e-02 0.0 
1.600708392228e-02 1.531672018613e-02 0.0 
1.923123598771e-02 1.720142467348e-02 0.0 
-2.900291512099e-03 4.412404131771e-02 0.0 
-3.985529688219e-03 2.375904728343e-02 0.0 
-1.307977148306e-03 1.583761398831e-02 0.0 
-7.039655592855e-05 1.532163490305e-02 0.0 
8.999566826169e-03 1.282908263525e-02 0.0 
-1.975165588968e-03 5.272562410407e-02 0.0 
2.247123204639e-02 1.969117519623e-03 0.0 
2.628573502267e-02 9.946385446781e-03 0.0 
1.502720987664e-02 4.953882090953e-02 0.0 
1.463299170052e-02 5.464645885665e-02 0.0 
7.677746243751e-05 1.401200523008e-02 0.0 
-2.429909275709e-03 5.551993969516e-02 0.0 
-3.615887224434e-03 1.859070470009e-02 0.0 
1.420005022333e-02 -1.226120111784e-02 0.0 
-3.923723507348e-03 2.694838467890e-02 0.0 
-3.323475029428e-03 2.278960713540e-02 0.0 
-5.844353484783e-03 2.619073000012e-02 0.0 
1.643710414073e-02 1.562090459796e-02 0.0 
1.956927040350e-02 1.787458168255e-02 0.0 
9.196449625289e-03 -7.140022861703e-03 0.0 
5.634196251663e-03 -7.480790141502e-03 0.0 
5.379183423660e-03 -1.127934714386e-02 0.0 
2.602656278448e-03 -5.691800090872e-03 0.0 
2.710859540187e-03 -2.659112027557e-03 0.0 
2.632963194280e-04 7.065051466792e-05 0.0 
5.600661457326e-04 -2.358365543102e-03 0.0 
-1.287555751427e-03 4.355691576666e-03 0.0 
-1.815215318588e-03 6.222373762440e-03 0.0 
-2.874923016238e-03 1.093052208983e-02 0.0 
-1.724024006837e-03 9.809711320627e-03 0.0 
-2.907326830979e-03 1.646977387928e-02 0.0 
-3.323527486704e-03 1.964013624751e-02 0.0 
1.054303562589e-02 -1.706146206450e-02 0.0 
3.210536111929e-02 6.706487802630e-02 0.0 
-1.038356273828e-03 1.395116867705e-02 0.0 
1.008417920938e-02 1.261133957990e-02 0.0 
1.272596394251e-02 4.452944759519e-02 0.0 
1.247346903183e-02 4.960739447814e-02 0.0 
1.404466638413e-02 5.974648464926e-02 0.0 
1.202032653583e-02 5.465546657985e-02 0.0 
1.039458381361e-02 4.429375314386e-02 0.0 
1.007864694014e-02 4.933259034538e-02 0.0 
1.139666772205e-02 5.965770466803e-02 0.0 
9.583371427361e-03 5.432129259988e-02 0.0 
1.062804788341e-02 6.458194029219e-02 0.0 
8.934711275970e-03 5.923828468096e-02 0.0 
7.866815374555e-03 4.878071343818e-02 0.0 
7.332079124375e-03 5.371917786952e-02 0.0 
8.157900787154e-03 6.408011572969e-02 0.0 
6.658200491508e-03 5.858543493543e-02 0.0 
7.274078168287e-03 6.882851409677e-02 0.0 
5.865550121499e-03 6.336862761537e-02 0.0 
5.260485491434e-03 5.294044014328e-02 0.0 
-5.219452300906e-04 5.675637846398e-02 0.0 
7.498406417806e-03 1.301611971322e-02 0.0 
6.448245850171e-03 1.221597524952e-02 0.0 
-5.270494787520e-03 4.927534854564e-02 0.0 
-5.435282144425e-03 4.668454780739e-02 0.0 
-6.233680762354e-03 4.297534433703e-02 0.0 
-5.307948249522e-03 4.391427611377e-02 0.0 
4.535879139766e-03 5.781630952714e-02 0.0 
3.981090774246e-03 4.716956250818e-02 0.0 
2.416509954612e-02 8.884033573923e-03 0.0 
2.762972544605e-02 1.772510750034e-02 0.0 
1.274713091704e-02 3.943831757516e-02 0.0 
-3.131987420140e-03 2.595557427877e-02 0.0 
-3.640674619665e-03 3.015539731317e-02 0.0 
3.829628676884e-02 4.276289815100e-02 0.0 
3.879052054288e-02 5.034441199281e-02 0.0 
3.817749763501e-02 4.547066412008e-02 0.0 
3.810953065874e-02 5.382594735086e-02 0.0 
3.858298550099e-02 5.851666331171e-02 0.0 
3.713080891304e-02 4.826141816963e-02 0.0 
-4.284726129846e-04 1.593596912597e-02 0.0 
6.269412774415e-03 4.307086937653e-02 0.0 
-4.367033243629e-03 3.876398946444e-02 0.0 
-2.009429320762e-03 3.952680829244e-02 0.0 
-2.607916889168e-03 2.144339301446e-02 0.0 
8.251015603330e-03 1.300520285852e-02 0.0 
3.200478197780e-02 3.767956669440e-02 0.0 
3.010464660572e-02 3.273720289482e-02 0.0 
2.864558591072e-02 3.305755035051e-02 0.0 
2.655818676802e-02 2.855776139482e-02 0.0 
2.486307951583e-02 2.810545205314e-02 0.0 
2.260245052661e-02 2.400614902819e-02 0.0 
2.414616121414e-02 2.452236633773e-02 0.0 
1.625704426148e-02 1.549387489848e-02 0.0 
2.007563561953e-02 2.029794367915e-02 0.0 
5.053200910339e-03 6.814766792413e-02 0.0 
2.180567590416e-02 1.805146413429e-02 0.0 
-3.550913789779e-03 1.222836209483e-02 0.0 
4.235747772299e-04 5.361396123589e-02 0.0 
-7.063166356271e-04 1.606133644710e-02 0.0 
-1.099386708593e-03 5.917198261003e-02 0.0 
-2.536542859066e-03 5.751498183855e-02 0.0 
7.225812131573e-05 1.201808650026e-02 0.0 
2.060402625564e-02 2.278482968227e-02 0.0 
2.276749877725e-02 2.692920468055e-02 0.0 
3.729847809034e-02 6.284930756311e-02 0.0 
3.768737046040e-02 6.709606944307e-02 0.0 
1.333375006660e-02 1.332031749617e-02 0.0 
1.822230461973e-02 6.905568816337e-02 0.0 
1.239083453586e-02 6.972574498722e-02 0.0 
1.138113761050e-02 7.455711070475e-02 0.0 
9.751142917374e-04 6.009390451107e-02 0.0 
3.307984176910e-04 9.031158934383e-03 0.0 
8.428738073334e-03 3.875468912070e-02 0.0 
2.967448992352e-02 1.796146531914e-02 0.0 
3.066004367313e-02 2.622147038076e-02 0.0 
1.236762472951e-02 -1.612393202253e-02 0.0 
9.078861900189e-03 -2.156789311840e-02 0.0 
3.369738924526e-03 5.197298990948e-02 0.0 
2.867097553164e-03 4.125842190724e-02 0.0 
-5.992164619768e-03 4.029441034007e-02 0.0 
-5.011064847919e-03 4.083291456577e-02 0.0 
1.377075693760e-03 1.239964960914e-02 0.0 
-1.900124963935e-03 2.249444284975e-02 0.0 
3.268794808115e-03 3.625633525911e-02 0.0 
5.617160840220e-03 1.327288715381e-02 0.0 
5.854968950430e-03 1.288219548791e-02 0.0 
-4.394138487455e-03 4.741161513850e-02 0.0 
2.469736385560e-02 1.776815303314e-02 0.0 
2.127851142346e-02 8.082519569061e-03 0.0 
-2.111056328021e-03 8.202540241799e-03 0.0 
-3.942282373393e-03 2.255183598580e-02 0.0 
-1.339675724128e-03 6.071792915317e-02 0.0 
1.033989220771e-03 1.021128990653e-02 0.0 
8.402832519607e-03 3.369043649951e-02 0.0 
2.150263365224e-02 2.099341998938e-02 0.0 
2.523375028082e-02 2.441857966902e-02 0.0 
1.737523089508e-02 1.701804695166e-02 0.0 
1.068835579918e-03 2.259199544104e-02 0.0 
-8.572819492230e-04 1.140959497489e-02 0.0 
-2.300587803072e-03 2.458608071083e-02 0.0 
1.840597862518e-02 2.119961813049e-02 0.0 
2.030797531821e-02 2.508184031703e-02 0.0 
3.260605588603e-02 2.571098438129e-02 0.0 
3.333480870378e-02 3.435640558236e-02 0.0 
3.057162710120e-02 3.582891734303e-02 0.0 
3.297438626046e-02 4.392672308325e-02 0.0 
2.902449852148e-02 7.141735960438e-02 0.0 
3.505690450262e-02 3.305913420476e-02 0.0 
3.405325996876e-02 6.785370376552e-02 0.0 
3.305591491800e-02 7.430708678882e-02 0.0 
3.466801833132e-02 7.468242682680e-02 0.0 
3.854846361412e-02 6.225780037566e-02 0.0 
3.756394304922e-02 7.043210912147e-02 0.0 
2.849937548634e-02 1.256718944060e-02 0.0 
2.224578152700e-02 1.523382710740e-02 0.0 
-6.793626672370e-03 3.910720086780e-02 0.0 
-5.907564254186e-03 3.048027486561e-02 0.0 
-2.976660678216e-03 1.777210351545e-02 0.0 
6.528644271214e-03 3.805287324774e-02 0.0 
4.967200025405e-03 3.215514440184e-02 0.0 
8.755970703028e-03 7.413340130189e-02 0.0 
7.695848063868e-03 7.874687341087e-02 0.0 
-1.254578769521e-04 4.494396885759e-02 0.0 
1.135087721888e-03 4.010025893809e-02 0.0 
-6.466154768168e-03 2.588654507943e-02 0.0 
-1.797641580097e-03 1.362296920429e-02 0.0 
1.038419117150e-02 3.416934749123e-02 0.0 
9.993843185931e-03 2.910426087012e-02 0.0 
1.250449082610e-02 3.433961489291e-02 0.0 
2.480655810603e-03 1.092417232082e-02 0.0 
1.752260506842e-02 1.443680620334e-03 0.0 
1.187010922694e-02 1.169864068879e-02 0.0 
7.390921600273e-03 -1.979865084632e-02 0.0 
3.168934912641e-02 2.987758225778e-02 0.0 
3.441408116948e-03 4.554414971512e-02 0.0 
2.721882694662e-02 4.133352306439e-02 0.0 
-1.872571806683e-03 1.976346983885e-02 0.0 
-2.072784551943e-03 1.659508213851e-02 0.0 
1.268029212223e-02 1.249371884141e-02 0.0 
2.833975743675e-02 8.502944197655e-02 0.0 
2.892198129562e-02 2.576170380141e-02 0.0 
2.869742742983e-02 2.355234221535e-02 0.0 
3.326216729896e-02 8.134458339721e-02 0.0 
3.450337952776e-02 8.134937726952e-02 0.0 
3.597071087634e-02 7.425933872394e-02 0.0 
3.540845577214e-02 8.059064509398e-02 0.0 
-3.915640200184e-03 1.353590857190e-02 0.0 
-4.927146360330e-03 1.776533491359e-02 0.0 
1.565839907707e-02 1.691815801346e-02 0.0 
1.568698949772e-02 1.572612437631e-02 0.0 
1.575365620788e-02 1.884711544037e-02 0.0 
1.751337835033e-02 2.250796498959e-02 0.0 
9.913133033603e-03 1.032384053001e-02 0.0 
1.052297509720e-02 1.141210037859e-02 0.0 
-2.293752109105e-03 5.872444138052e-02 0.0 
3.618633668190e-02 7.573100516685e-02 0.0 
6.440543117982e-03 2.792719021743e-02 0.0 
3.174331367058e-02 8.063685591741e-02 0.0 
-1.441460355775e-03 1.063883556461e-02 0.0 
-2.225957962709e-03 1.298736827756e-02 0.0 
6.426346553901e-03 -2.465963160744e-02 0.0 
4.681518421327e-03 -1.940126739159e-02 0.0 
2.245859775620e-03 3.042114292138e-02 0.0 
2.940784880838e-02 4.627963184680e-02 0.0 
3.163347792087e-02 5.405891866397e-02 0.0 
2.682003458813e-02 3.752344597902e-02 0.0 
-3.178271441345e-04 8.932901939705e-03 0.0 
2.068085256099e-03 9.708114329488e-02 0.0 
-1.420698260861e-03 1.463389767539e-02 0.0 
3.801111881477e-02 6.515770714209e-02 0.0 
2.398786841759e-03 2.487783952994e-02 0.0 
2.588087492256e-02 2.237957209615e-02 0.0 
3.745364801366e-02 3.782989165388e-02 0.0 
3.074719132330e-03 1.263065630316e-02 0.0 
1.839761191412e-03 3.638841022918e-02 0.0 
1.356101796510e-03 2.400624521070e-02 0.0 
1.303559131535e-02 7.934491084511e-02 0.0 
1.185791073289e-02 8.421653520838e-02 0.0 
1.420369695369e-02 7.463690336943e-02 0.0 
1.618562523458e-02 -8.620196555226e-03 0.0 
1.321163581549e-02 -1.120936349044e-02 0.0 
4.812551310792e-03 3.720623309245e-02 0.0 
-4.762738220629e-03 5.169826760249e-02 0.0 
-4.109404863075e-03 5.288423834178e-02 0.0 
-2.829740378239e-03 2.837834545538e-02 0.0 
-4.812181921364e-03 2.819996496121e-02 0.0 
-6.416668825691e-03 3.662268059395e-02 0.0 
-7.053027746523e-03 3.524495642071e-02 0.0 
2.612312127889e-02 3.621794986146e-02 0.0 
2.365161728871e-02 3.435145986852e-02 0.0 
3.036078818232e-02 3.802204894608e-02 0.0 
3.459300477685e-03 1.375833357272e-02 0.0 
3.245691345880e-03 1.310756802487e-02 0.0 
5.807289356644e-03 1.169030936485e-02 0.0 
4.981855859107e-03 2.742125550934e-02 0.0 
3.348881373142e-03 2.042577015411e-02 0.0 
-2.250853510425e-03 1.001552098657e-02 0.0 
4.300161209869e-05 5.115515801576e-03 0.0 
-5.314176654515e-03 1.844287982157e-02 0.0 
6.079463714038e-03 2.304332715883e-02 0.0 
-1.508233742416e-03 1.155687558269e-02 0.0 
-2.095993027935e-03 1.359848485500e-02 0.0 
5.035585390083e-03 4.063275492141e-02 0.0 
2.434039504472e-03 3.473405873490e-02 0.0 
2.067173610395e-02 1.814970603150e-02 0.0 
1.707597875405e-02 7.709343842080e-03 0.0 
9.449981571443e-03 2.446080305779e-02 0.0 
1.199797397349e-02 2.935242556115e-02 0.0 
6.770869909133e-03 1.858526589903e-02 0.0 
-1.157666434066e-03 6.159385155575e-02 0.0 
2.241191119066e-02 2.108432110666e-02 0.0 
1.908754141574e-03 8.584156294230e-03 0.0 
3.462914233017e-03 9.601432150028e-03 0.0 
6.848635362307e-04 7.067399124526e-03 0.0 
1.562903302299e-02 1.501568551573e-02 0.0 
1.156839145014e-02 1.134673380484e-02 0.0 
1.276810706232e-02 1.253515594206e-02 0.0 
7.031046910718e-03 -2.590012516356e-02 0.0 
1.025468389685e-03 2.869008386038e-02 0.0 
9.133460698806e-03 8.386638836666e-02 0.0 
5.963498303874e-03 -2.840086875987e-02 0.0 
7.913880104169e-03 8.866021192243e-02 0.0 
6.613963884483e-03 8.331444222697e-02 0.0 
6.849995932363e-03 9.326581760240e-02 0.0 
-4.168431862168e-04 6.327833064699e-02 0.0 
1.487261183394e-02 8.560200507651e-02 0.0 
1.618153537729e-02 7.963356094888e-02 0.0 
7.557412441294e-03 3.519305868529e-02 0.0 
4.159860901296e-03 1.720575118095e-02 0.0 
7.228013714258e-03 4.555840028663e-02 0.0 
5.365402551493e-03 4.995423888600e-02 0.0 
-1.659308843067e-03 9.430146252448e-03 0.0 
-2.351925828467e-03 1.200659303859e-02 0.0 
-1.641463831941e-03 8.009346505318e-03 0.0 
-2.278395632795e-03 1.092038453111e-02 0.0 
-2.984709843924e-03 1.479524084936e-02 0.0 
-2.762559619062e-03 1.364873804284e-02 0.0 
1.070619231522e-02 8.959116471297e-02 0.0 
-1.853087412157e-03 8.665717917282e-03 0.0 
-2.366937637240e-03 1.205782262976e-02 0.0 
-1.438977688269e-03 6.944347117400e-03 0.0 
3.347540545532e-02 8.805468679801e-02 0.0 
3.477245039218e-02 5.106835319046e-02 0.0 
3.334008626837e-02 6.122836438386e-02 0.0 
2.928613904366e-02 6.533966219016e-02 0.0 
1.168735142122e-02 1.436696158765e-02 0.0 
1.473838932677e-02 1.970914042900e-02 0.0 
-1.468005747286e-03 2.278192775809e-02 0.0 
-1.725796915641e-03 2.759011781978e-02 0.0 
5.474659849220e-03 8.847757576793e-02 0.0 
4.003439717494e-03 8.896713343953e-02 0.0 
4.362713102843e-03 8.021650980515e-02 0.0 
3.154590624284e-03 8.135582312586e-02 0.0 
3.386368033233e-03 7.251471748360e-02 0.0 
2.184695238363e-03 7.370644117952e-02 0.0 
2.576400911686e-03 6.460190959217e-02 0.0 
1.065817009595e-02 1.065690211511e-02 0.0 
2.455973121949e-02 4.806582854732e-02 0.0 
3.153784766185e-02 8.790382793571e-02 0.0 
7.305859945902e-03 8.346259386808e-03 0.0 
8.195048060955e-03 9.976420571277e-03 0.0 
3.604101154509e-02 7.856801750443e-02 0.0 
3.412621978911e-02 8.439365221418e-02 0.0 
-6.857147373935e-04 7.821768345295e-03 0.0 
3.374365976548e-02 2.539026036733e-02 0.0 
3.073074460765e-03 1.091909374540e-02 0.0 
1.861653771090e-03 -1.553032492703e-02 0.0 
8.129840613144e-03 -1.659342100572e-02 0.0 
3.592284956889e-02 3.196833604053e-02 0.0 
3.695278221183e-02 7.289791610546e-02 0.0 
3.627142855383e-02 5.746463805712e-02 0.0 
3.497300957558e-02 6.737768897631e-02 0.0 
3.393354252250e-03 1.361235548423e-02 0.0 
3.978808763520e-03 2.888305997465e-02 0.0 
2.390282421997e-02 2.807623207819e-02 0.0 
3.740368570078e-03 6.351699001659e-02 0.0 
1.870335085134e-02 2.867489322113e-02 0.0 
-7.985187484495e-04 2.526457284480e-02 0.0 
3.160468334386e-02 1.898450047334e-02 0.0 
3.849646105315e-02 5.754429196818e-02 0.0 
2.781631045303e-02 2.699919405545e-02 0.0 
3.559229013038e-02 4.190483129943e-02 0.0 
2.992319151282e-02 6.554627328045e-02 0.0 
2.785932060156e-02 7.714193272870e-02 0.0 
2.984057356122e-02 7.935030946995e-02 0.0 
2.865589091051e-02 1.391151256726e-02 0.0 
3.586598517415e-02 7.208742231215e-02 0.0 
3.282554836925e-02 7.774394749126e-02 0.0 
3.465469166177e-02 6.138257870830e-02 0.0 
1.509814430904e-02 3.924473869712e-02 0.0 
1.470146584391e-02 3.412606090091e-02 0.0 
1.127648501226e-02 2.469736299505e-02 0.0 
1.401072504866e-02 2.918110542178e-02 0.0 
1.746483512163e-02 3.858968027976e-02 0.0 
1.688306007178e-02 3.352876692838e-02 0.0 
1.301718604451e-02 2.446846388182e-02 0.0 
1.597977661866e-02 2.862138657339e-02 0.0 
1.070270438816e-02 1.802510948012e-02 0.0 
1.460793202609e-02 2.369564247953e-02 0.0 
1.897266377375e-02 3.256558426380e-02 0.0 
1.786566786101e-02 2.792129404462e-02 0.0 
1.358804022337e-02 2.022591368902e-02 0.0 
2.202136808664e-02 3.646602275960e-02 0.0 
6.224081921662e-03 6.740113073150e-03 0.0 
3.596250220509e-02 3.097235798866e-02 0.0 
9.875563194981e-03 -2.000360078924e-02 0.0 
1.137356114761e-02 -5.782920568430e-03 0.0 
3.760274475035e-02 5.978526232221e-02 0.0 
5.259143119318e-03 8.860301168717e-03 0.0 
4.487297995468e-03 9.172450939808e-03 0.0 
2.768450445624e-02 1.119753072093e-02 0.0 
5.876419554589e-03 6.738133153444e-03 0.0 
3.112857847616e-02 7.325231145291e-02 0.0 
1.834869926395e-02 -5.635631968022e-03 0.0 
5.836451965546e-03 6.049714030315e-03 0.0 
1.772752856721e-02 4.372983848561e-02 0.0 
2.037869895887e-02 4.801513620119e-02 0.0 
2.020452323913e-02 5.326529182004e-02 0.0 
3.570533774521e-03 8.856305490962e-03 0.0 
1.525935025597e-02 6.971660136774e-02 0.0 
4.442921740637e-03 4.430557583770e-03 0.0 
2.041501471766e-02 1.613737444456e-02 0.0 
2.421145832650e-02 1.807362873528e-02 0.0 
2.606146821432e-02 1.742584509681e-02 0.0 
1.979976952938e-02 3.771178887528e-02 0.0 
2.715031041284e-03 3.827392785638e-03 0.0 
4.515229754080e-03 6.824559727416e-03 0.0 
3.461871076428e-03 6.677681612413e-03 0.0 
5.759102466634e-03 9.378795016335e-03 0.0 
1.573098039579e-03 3.682895160381e-03 0.0 
5.249716777485e-03 7.434896392834e-03 0.0 
5.175049404603e-03 6.780762206343e-03 0.0 
1.312384370777e-04 2.631469455070e-03 0.0 
2.772353880749e-03 3.747585821765e-04 0.0 
2.782688130862e-03 3.183536215654e-03 0.0 
5.990298111209e-03 -5.781333797561e-04 0.0 
5.892629412795e-03 -3.893667542969e-03 0.0 
9.500709277386e-03 -3.508311250581e-03 0.0 
9.632125313761e-03 -1.587025961225e-04 0.0 
1.313564823631e-02 -5.143105548002e-03 0.0 
1.939627443006e-02 2.703593656564e-02 0.0 
5.446843279238e-04 3.577669599686e-03 0.0 
-2.343538196756e-03 1.770779058070e-02 0.0 
-9.890070215199e-04 1.587746301126e-02 0.0 
-1.470520836087e-03 1.528999605048e-02 0.0 
-7.357670603833e-03 3.724405118793e-02 0.0 
-7.430262361261e-03 3.323099037054e-02 0.0 
-6.976652136917e-03 3.149782860017e-02 0.0 
-6.937069525525e-03 4.135281917380e-02 0.0 
2.782417735668e-02 2.831439319268e-02 0.0 
9.339327513302e-05 3.668631809997e-03 0.0 
8.660848143327e-03 1.216316492432e-02 0.0 
-7.492432510693e-03 3.055768689267e-02 0.0 
1.972751653524e-02 9.253494175495e-02 0.0 
2.039838142065e-02 8.419359299167e-02 0.0 
2.220664414628e-02 8.271244461499e-02 0.0 
2.052954752458e-02 7.446744195346e-02 0.0 
1.825175631607e-02 8.436508507484e-02 0.0 
-5.579738582118e-03 3.736293524466e-02 0.0 
-4.603894448148e-03 3.750428777252e-02 0.0 
-3.910532620061e-03 4.076482741141e-02 0.0 
-3.542244552427e-03 3.709479956563e-02 0.0 
-2.748343483283e-03 4.013528540451e-02 0.0 
-3.027329807686e-03 4.375510336463e-02 0.0 
-2.419934747341e-03 3.620204231150e-02 0.0 
-1.595513088595e-03 3.945442749983e-02 0.0 
1.597723553039e-02 9.446904281114e-02 0.0 
8.645043915115e-03 -1.348819085318e-02 0.0 
4.826332608831e-03 -7.438616465005e-03 0.0 
5.886922337014e-03 3.358415456609e-03 0.0 
2.497692352160e-03 -1.857617399112e-03 0.0 
2.858476956764e-03 -1.082174163036e-02 0.0 
1.075073721724e-03 -4.762969698153e-03 0.0 
2.895554340622e-03 -1.207980753824e-02 0.0 
4.362014516156e-03 -1.793383983044e-02 0.0 
1.167548243673e-02 8.691372122826e-03 0.0 
6.809658622487e-03 1.242399470602e-02 0.0 
1.247379391220e-02 1.714975041521e-02 0.0 
7.639433409189e-03 2.047884099320e-02 0.0 
2.742002673331e-03 1.599844877680e-02 0.0 
-1.060193687254e-03 3.431977560196e-02 0.0 
-8.256897457199e-04 5.758517221551e-03 0.0 
-1.243454190406e-03 5.021985572753e-02 0.0 
-2.397047794432e-03 5.131003925072e-02 0.0 
-2.289519460548e-03 5.442343740626e-02 0.0 
-3.556214223002e-03 5.151339612190e-02 0.0 
-2.313067063803e-03 4.821482716626e-02 0.0 
-1.101681844280e-03 5.679526888880e-02 0.0 
-2.038448713009e-03 5.706892321304e-02 0.0 
5.156237605987e-03 6.416833956433e-02 0.0 
2.921967933098e-03 6.537327356043e-02 0.0 
1.450958486378e-03 6.670649536160e-02 0.0 
1.331508276741e-03 6.587712547315e-02 0.0 
2.207622428028e-03 6.423191792981e-02 0.0 
4.274168275243e-03 6.329854802674e-02 0.0 
5.527936582786e-03 6.045429425158e-02 0.0 
8.725326123391e-03 5.859005973085e-02 0.0 
6.562522523392e-03 5.695456377594e-02 0.0 
3.521277970751e-03 5.866185237697e-02 0.0 
1.021796505454e-02 5.487409286649e-02 0.0 
8.259332291516e-04 5.094261224919e-02 0.0 
1.567122356995e-03 4.559625325689e-02 0.0 
-5.846333303356e-04 4.137453459403e-03 0.0 
1.240244621260e-02 9.491577970562e-02 0.0 
1.308341785390e-02 3.208071696619e-02 0.0 
1.248920527310e-03 1.205280437758e-02 0.0 
1.849690451976e-03 9.907638382320e-03 0.0 
1.509539341576e-03 9.637899449924e-03 0.0 
-5.019006374366e-04 1.472877900344e-02 0.0 
-8.097855859199e-04 1.195619864745e-02 0.0 
6.861160838270e-04 1.175712912433e-02 0.0 
-5.990805142373e-03 3.798377597344e-02 0.0 
1.026146885084e-02 2.025056186036e-02 0.0 
3.513608444031e-03 3.118453148344e-02 0.0 
2.031881705854e-02 9.346148831746e-06 0.0 
-5.221709478107e-03 2.269060583526e-02 0.0 
-2.681529321891e-03 2.908934849948e-02 0.0 
-5.634531826159e-03 2.714428273242e-02 0.0 
-2.727161781467e-03 1.831742474101e-02 0.0 
-4.504139078268e-03 3.076948368546e-02 0.0 
-3.825424570843e-03 2.064189032515e-02 0.0 
2.444215930142e-03 6.837395690720e-03 0.0 
-4.733744910768e-05 6.208248268958e-02 0.0 
9.739277618010e-03 6.940863182590e-02 0.0 
6.360502486608e-03 7.351363235194e-02 0.0 
5.840066945922e-03 4.803963504641e-02 0.0 
-5.119070872907e-03 4.960866652285e-02 0.0 
-4.232701609048e-03 4.398270940790e-02 0.0 
-1.225277160084e-03 4.915704157779e-02 0.0 
1.072127660163e-02 1.162924029661e-02 0.0 
3.569565642362e-02 6.791858220147e-02 0.0 
-3.460294151125e-03 1.738978545035e-02 0.0 
-7.383050768872e-03 3.900831343336e-02 0.0 
-6.665388961260e-03 3.281299171878e-02 0.0 
-4.167491379805e-03 1.707673216839e-02 0.0 
3.711598326097e-02 3.592570648153e-02 0.0 
-6.946490163100e-03 2.670531802287e-02 0.0 
-3.301169689129e-03 1.846589847267e-02 0.0 
4.477840277254e-03 4.221825191100e-02 0.0 
1.177237180365e-02 4.513730514911e-02 0.0 
-2.192595081315e-03 1.608649447239e-02 0.0 
-5.794909083718e-03 2.471105494986e-02 0.0 
1.329142674119e-02 6.479304514849e-02 0.0 
1.292665080105e-02 1.381075581521e-02 0.0 
-5.001435217160e-04 2.941352636536e-03 0.0 
8.243835974675e-03 4.380308580805e-02 0.0 
7.753798611922e-03 2.422664514171e-02 0.0 
1.722567117415e-02 7.433600354559e-02 0.0 
1.904568103628e-03 4.998974492819e-02 0.0 
1.031584211670e-02 7.940791543970e-02 0.0 
-1.294785918660e-05 9.317646806824e-03 0.0 
1.519082585499e-02 4.437868197913e-02 0.0 
-3.846064947425e-03 5.377208261108e-02 0.0 
1.244394713680e-02 9.703120593521e-03 0.0 
3.834681035645e-02 5.030998295460e-02 0.0 
2.814913196886e-02 9.264831727330e-02 0.0 
3.606879301394e-03 2.648555812167e-02 0.0 
3.104733474462e-02 2.433982281634e-02 0.0 
7.490703836925e-03 1.154843467783e-02 0.0 
1.124560545867e-02 1.295311847574e-02 0.0 
-3.546072720567e-03 5.536743555105e-02 0.0 
-2.993346650021e-03 1.556530762930e-02 0.0 
2.354691111121e-02 1.376014806151e-02 0.0 
6.607959535970e-03 3.306773715867e-02 0.0 
2.680353763190e-02 3.262062946332e-02 0.0 
1.740910878329e-02 4.368124818576e-03 0.0 
1.050628738825e-02 3.923799879500e-02 0.0 
5.093516215755e-04 1.270997833241e-02 0.0 
1.341975185445e-02 1.373640430217e-02 0.0 
3.703850925604e-02 6.701319901576e-02 0.0 
3.344044974224e-02 4.309132321555e-02 0.0 
2.789911137900e-02 4.665817148302e-02 0.0 
3.399648918077e-02 3.467394304877e-02 0.0 
-1.945497327015e-03 3.218065348783e-02 0.0 
-2.744843137757e-03 1.600498090935e-02 0.0 
8.286652630019e-03 -1.532646415625e-02 0.0 
3.698163109823e-02 3.979821124425e-02 0.0 
1.612072315994e-02 6.455132172210e-02 0.0 
1.832684321995e-02 1.917648801470e-02 0.0 
4.648453690862e-03 2.201131973640e-02 0.0 
3.889814373787e-02 5.438882848086e-02 0.0 
-3.664605327704e-03 1.832523654381e-02 0.0 
8.199876808952e-03 2.895169512420e-02 0.0 
-7.135277939552e-03 2.941261523432e-02 0.0 
-2.667855936180e-04 6.415191391461e-02 0.0 
1.764480955890e-02 -1.645948542171e-03 0.0 
1.727619261758e-02 -1.677341925676e-03 0.0 
2.959578197360e-02 2.060860047390e-02 0.0 
-6.558798192486e-03 2.797110452199e-02 0.0 
8.147173600207e-03 1.852492875803e-02 0.0 
-3.488753529679e-03 1.766035116959e-02 0.0 
1.555852846606e-03 1.386836277577e-02 0.0 
8.383835455874e-03 1.805174780987e-02 0.0 
3.011538251561e-02 8.667288327672e-02 0.0 
-3.132212779254e-03 1.660575020411e-02 0.0 
8.853581940446e-03 1.054746030622e-02 0.0 
1.060462739338e-02 1.217720963486e-02 0.0 
-1.834231244317e-03 4.299526737254e-02 0.0 
1.062058809852e-02 1.101651961972e-02 0.0 
3.411217974658e-02 8.642955568561e-02 0.0 
-2.645235869600e-03 1.519362898664e-02 0.0 
5.082795789143e-03 1.284773163891e-02 0.0 
3.098088281654e-02 1.839685862284e-02 0.0 
3.430077159138e-03 9.703161288224e-02 0.0 
-1.752851525092e-03 9.574437550082e-03 0.0 
4.296835026587e-03 1.153502299338e-02 0.0 
3.114620949992e-02 3.167593569454e-02 0.0 
5.802616778208e-03 1.003978225372e-02 0.0 
3.043644538257e-02 9.514689262681e-02 0.0 
-6.351215002113e-03 2.949446529913e-02 0.0 
3.165694935905e-02 4.331630807754e-02 0.0 
3.148654205965e-03 8.763082990232e-03 0.0 
5.291051519920e-03 1.062033837635e-02 0.0 
2.272775928382e-02 5.733907243581e-02 0.0 
-6.543611839312e-03 3.299633017167e-02 0.0 
2.261728541829e-02 1.955872480398e-02 0.0 
2.983199150414e-03 6.182565039598e-02 0.0 
3.263886138826e-02 8.831880399385e-02 0.0 
-5.885768142925e-03 3.389305376307e-02 0.0 
1.345569883196e-02 -1.674057484331e-03 0.0 
3.061973984817e-03 1.185486945976e-02 0.0 
8.927527423818e-03 9.019553071926e-03 0.0 
-5.065647061764e-03 3.419739696108e-02 0.0 
1.351893690068e-02 1.592707988358e-03 0.0 
-4.135178066315e-03 3.396346486256e-02 0.0 
3.159535480334e-02 9.480673964742e-02 0.0 
2.298398201902e-02 5.181807958268e-02 0.0 
-3.102744452419e-03 3.326757022536e-02 0.0 
2.838728781047e-02 3.749206211276e-02 0.0 
3.807211709268e-03 5.459037506679e-02 0.0 
2.863302245342e-02 2.738862404823e-02 0.0 
-1.142014234160e-03 1.746440249584e-02 0.0 
-6.419727263999e-03 2.322097040618e-02 0.0 
8.002954850657e-04 1.385531181965e-02 0.0 
2.024194634301e-02 4.279775266542e-02 0.0 
3.118197514326e-02 9.176403171454e-02 0.0 
1.228192290279e-03 1.457394749452e-02 0.0 
2.463794663377e-02 3.144789636634e-02 0.0 
2.584054823517e-02 2.372184003280e-02 0.0 
2.779709699071e-02 2.077180366760e-02 0.0 
1.520178161073e-03 1.460423902772e-02 0.0 
3.386422883288e-02 8.120266036600e-02 0.0 
-5.437703835472e-03 3.354070814119e-02 0.0 
-3.655056629976e-03 3.387486642214e-02 0.0 
9.628391530935e-03 2.968012757767e-03 0.0 
2.213565782744e-02 2.955095274473e-02 0.0 
7.218384229697e-04 6.430403525762e-02 0.0 
2.263812457127e-02 4.133404174764e-02 0.0 
2.076841781218e-06 2.865622467185e-02 0.0 
6.028344989573e-03 2.466117298619e-03 0.0 
1.922198259258e-02 1.800541680919e-02 0.0 
9.905718238841e-04 7.121439317814e-02 0.0 
2.813279062639e-03 5.835537771597e-03 0.0 
-6.198772273940e-04 6.211017343462e-02 0.0 
2.122782285774e-05 7.392919882822e-03 0.0 
2.534988636459e-02 2.048774541028e-02 0.0 
-2.211403318066e-03 1.166111127102e-02 0.0 
-4.042948209591e-03 1.463600641986e-02 0.0 
2.431291314281e-03 2.037924419941e-02 0.0 
-5.440591085513e-03 1.910121319415e-02 0.0 
3.406949293279e-04 9.754874835654e-03 0.0 
-3.716511535503e-04 5.377793093576e-03 0.0 
1.296243970984e-03 9.020660606087e-02 0.0 
2.858883821614e-02 8.640489338482e-02 0.0 
4.750735281483e-03 -3.054845687463e-02 0.0 
3.199683176334e-02 7.038006625681e-02 0.0 
-5.994346615298e-03 2.288883654124e-02 0.0 
2.473600633664e-02 3.928788099280e-02 0.0 
2.693300671503e-03 8.973815601665e-02 0.0 
-6.049336175691e-03 2.800081253117e-02 0.0 
9.971627654483e-03 1.517189533580e-02 0.0 
5.062872517101e-03 4.970211947168e-03 0.0 
1.776007532982e-03 5.560726914933e-02 0.0 
8.176875908802e-03 1.093086044691e-02 0.0 
2.273508489681e-02 2.054780667180e-02 0.0 
5.085356760048e-04 2.982308099525e-02 0.0 
7.964594198334e-03 9.732872576373e-02 0.0 
8.272349163432e-03 2.797579806531e-02 0.0 
-9.313863804465e-04 3.012711232011e-02 0.0 
2.462941265404e-02 7.527918783909e-02 0.0 
2.688835437317e-02 5.668738264550e-02 0.0 
2.156491468947e-02 3.864367000405e-02 0.0 
-2.891897425624e-03 5.645173466295e-02 0.0 
2.951181557842e-03 7.437816813543e-03 0.0 
2.104740903535e-02 5.915629208178e-02 0.0 
5.594166380387e-03 7.246991593071e-03 0.0 
1.330908045578e-02 8.801071501888e-02 0.0 
1.878639007471e-02 1.799531699945e-02 0.0 
1.517915058378e-02 4.009309271436e-02 0.0 
5.629933829013e-03 1.890535891594e-02 0.0 
9.480783995922e-03 9.282038145031e-03 0.0 
-8.521788433420e-04 3.963064427971e-03 0.0 
1.442934002591e-02 1.399874824150e-02 0.0 
1.530257689983e-02 1.788025453892e-02 0.0 
1.900038656251e-02 7.738953149222e-02 0.0 
1.069994606512e-02 1.224885865773e-02 0.0 
2.392277896419e-03 4.709791219506e-02 0.0 
-9.015564016819e-04 4.054897344680e-03 0.0 
1.666817288849e-02 8.761926635699e-02 0.0 
1.496147456507e-03 1.909747489614e-02 0.0 
5.515176750121e-03 -1.557916563737e-02 0.0 
7.638093615441e-04 1.857712707486e-02 0.0 
2.086968177802e-02 3.154624277301e-02 0.0 
5.485875635763e-03 7.808945483669e-02 0.0 
2.245652998206e-02 7.544648708952e-02 0.0 
-9.570176035214e-04 9.261193319041e-03 0.0 
9.028824116555e-03 1.637405994912e-02 0.0 
1.178881430379e-02 5.074650492058e-03 0.0 
2.779873789777e-03 5.662374597936e-02 0.0 
-4.621366479549e-03 4.969719221482e-02 0.0 
5.439979469678e-03 -2.558308279004e-02 0.0 
-1.086637631198e-03 7.471222685641e-03 0.0 
1.655336284379e-02 2.385652604000e-02 0.0 
-1.440959640018e-03 9.151886074754e-03 0.0 
6.379908005214e-04 6.661903538758e-02 0.0 
9.001480925601e-03 4.124363029002e-02 0.0 
-5.240496254011e-05 6.446240601893e-03 0.0 
9.855332937462e-03 1.288682930543e-02 0.0 
2.382259110735e-03 -8.028272195133e-03 0.0 
1.920162997976e-03 7.670375733184e-03 0.0 
6.627064331763e-03 -6.682601905269e-03 0.0 
1.088197141885e-02 9.777244231675e-02 0.0 
7.643933049820e-03 5.320856718106e-02 0.0 
-8.463430370638e-04 4.272553054271e-03 0.0 
3.465555779918e-03 1.802742664679e-02 0.0 
-3.261960836113e-03 4.896644050275e-02 0.0 
2.336936636939e-02 8.894014919321e-02 0.0 
-1.636779381901e-03 5.961265186965e-02 0.0 
1.419197813226e-02 1.460856018232e-02 0.0 
4.397727241129e-03 2.324026916437e-02 0.0 
2.406345857423e-03 1.716235863080e-02 0.0 
1.366261592521e-03 5.997883476070e-03 0.0 
6.514821104830e-03 1.596122995094e-02 0.0 
2.775455202332e-03 3.100166861987e-03 0.0 
6.574040173845e-03 -2.444997924530e-02 0.0 
8.653351301639e-03 8.495749504192e-03 0.0 
4.082566230892e-03 8.685831253388e-03 0.0 
5.974612075377e-03 9.792631346146e-02 0.0 
8.010721170372e-03 1.655298824245e-02 0.0 
-3.113121169306e-03 5.438085929223e-02 0.0 
1.474699345033e-03 5.707768867393e-02 0.0 
1.456953664558e-04 8.652225072307e-03 0.0 
1.631685906367e-03 6.633077058231e-02 0.0 
1.006389943896e-03 9.813347010693e-02 0.0 
-1.438986407021e-04 4.417098826544e-03 0.0 
1.330076787163e-03 6.272529617792e-02 0.0 
2.137019973738e-03 8.328273098769e-02 0.0 
9.225822092031e-03 1.294537627416e-02 0.0 
-7.978570239644e-04 4.267234023969e-02 0.0 
1.179026343877e-03 3.703015281955e-02 0.0 
9.795970432389e-04 2.778751863042e-03 0.0 
6.762710155062e-03 -3.122123008371e-02 0.0 
1.704334299127e-03 6.615849567135e-02 0.0 
7.940497488200e-03 7.901370176402e-03 0.0 
5.186313826059e-03 1.567416509629e-02 0.0 
4.395375788654e-03 7.280428920723e-02 0.0 
1.479017445689e-02 -1.084779736479e-03 0.0 
1.288996884107e-02 1.796852792812e-02 0.0 
-3.357221331182e-03 4.622995791187e-02 0.0 
1.437500647738e-02 1.628692974021e-02 0.0 
6.553373255468e-03 9.049274031465e-03 0.0 
1.166241145501e-03 -4.494495329728e-03 0.0 
-6.704541622856e-04 3.869719521539e-02 0.0 
8.589607496699e-03 4.916802423959e-02 0.0 
-1.585896389655e-03 7.400212798828e-03 0.0 
-2.211207744631e-03 4.548280780459e-02 0.0 
2.014903409389e-02 9.175664392374e-02 0.0 
5.651746368613e-04 1.455824513050e-01 0.0 
2.480450637980e-02 9.970552179754e-02 0.0 
6.038568859097e-04 1.391599347235e-01 0.0 
2.722040614562e-02 1.041245675782e-01 0.0 
6.060850090179e-04 1.322758689795e-01 0.0 
2.778341221996e-02 1.053930333676e-01 0.0 
6.489086097829e-04 1.249319398980e-01 0.0 
2.691174438141e-02 1.039297541233e-01 0.0 
6.459861425512e-04 1.171322006332e-01 0.0 
2.492145398482e-02 1.002928103339e-01 0.0 
6.748059866553e-04 1.088862756204e-01 0.0 

VECTORS node_bounda_dof_materi_velocity_x float
1.000000000000e+00 0.0 0.0 
1.000000000000e+00 0.0 0.0 
1.000000000000e+00 0.0 0.0 
1.000000000000e+00 0.0 0.0 
1.000000000000e+00 0.0 0.0 
1.000000000000e+00 0.0 0.0 
1.000000000000e+00 0.0 0.0 
1.000000000000e+00 0.0 0.0 
1.000000000000e+00 0.0 0.0 
1.000000000000e+00 0.0 0.0 
1.000000000000e+00 0.0 0.0 
1.000000000000e+00 0.0 0.0 
1.000000000000e+00 0.0 0.0 
1.000000000000e+00 0.0 0.0 
1.000000000000e+00 0.0 0.0 
1.000000000000e+00 0.0 0.0 
1.000000000000e+00 0.0 0.0 
1.000000000000e+00 0.0 0.0 
1.000000000000e+00 0.0 0.0 
1.000000000000e+00 0.0 0.0 
1.000000000000e+00 0.0 0.0 
1.000000000000e+00 0.0 0.0 
1.000000000000e+00 0.0 0.0 
1.000000000000e+00 0.0 0.0 
1.000000000000e+00 0.0 0.0 
1.000000000000e+00 0.0 0.0 
1.000000000000e+00 0.0 0.0 
1.000000000000e+00 0.0 0.0 
1.000000000000e+00 0.0 0.0 
1.000000000000e+00 0.0 0.0 
1.000000000000e+00 0.0 0.0 
1.000000000000e+00 0.0 0.0 
1.000000000000e+00 0.0 0.0 
1.000000000000e+00 0.0 0.0 
1.000000000000e+00 0.0 0.0 
1.000000000000e+00 0.0 0.0 
1.000000000000e+00 0.0 0.0 
1.000000000000e+00 0.0 0.0 
1.000000000000e+00 0.0 0.0 
1.000000000000e+00 0.0 0.0 
1.000000000000e+00 0.0 0.0 
1.000000000000e+00 0.0 0.0 
1.000000000000e+00 0.0 0.0 
1.000000000000e+00 0.0 0.0 
1.000000000000e+00 0.0 0.0 
1.000000000000e+00 0.0 0.0 
1.000000000000e+00 0.0 0.0 
1.000000000000e+00 0.0 0.0 
1.000000000000e+00 0.0 0.0 
1.000000000000e+00 0.0 0.0 
1.000000000000e+00 0.0 0.0 
1.000000000000e+00 0.0 0.0 
1.000000000000e+00 0.0 0.0 
1.000000000000e+00 0.0 0.0 
1.000000000000e+00 0.0 0.0 
1.000000000000e+00 0.0 0.0 
1.000000000000e+00 0.0 0.0 
1.000000000000e+00 0.0 0.0 
1.000000000000e+00 0.0 0.0 
1.000000000000e+00 0.0 0.0 
1.000000000000e+00 0.0 0.0 
1.000000000000e+00 0.0 0.0 
1.000000000000e+00 0.0 0.0 
1.000000000000e+00 0.0 0.0 
1.000000000000e+00 0.0 0.0 
1.000000000000e+00 0.0 0.0 
1.000000000000e+00 0.0 0.0 
1.000000000000e+00 0.0 0.0 
1.000000000000e+00 0.0 0.0 
1.000000000000e+00 0.0 0.0 
1.000000000000e+00 0.0 0.0 
1.000000000000e+00 0.0 0.0 
1.000000000000e+00 0.0 0.0 
1.000000000000e+00 0.0 0.0 
1.000000000000e+00 0.0 0.0 
1.000000000000e+00 0.0 0.0 
1.000000000000e+00 0.0 0.0 
1.000000000000e+00 0.0 0.0 
1.000000000000e+00 0.0 0.0 
1.000000000000e+00 0.0 0.0 
1.000000000000e+00 0.0 0.0 
0.0 0.0 0.0 
0.0 0.0 0.0 
0.0 0.0 0.0 
0.0 0.0 0.0 
0.0 0.0 0.0 
0.0 0.0 0.0 
0.0 0.0 0.0 
0.0 0.0 0.0 
0.0 0.0 0.0 
0.0 0.0 0.0 
0.0 0.0 0.0 
1.000000000000e+00 0.0 0.0 
1.000000000000e+00 0.0 0.0 
1.000000000000e+00 0.0 0.0 
1.000000000000e+00 0.0 0.0 
1.000000000000e+00 0.0 0.0 
1.000000000000e+00 0.0 0.0 
0.0 0.0 0.0 
0.0 0.0 0.0 
0.0 0.0 0.0 
0.0 0.0 0.0 
0.0 0.0 0.0 
0.0 0.0 0.0 
0.0 0.0 0.0 
0.0 0.0 0.0 
0.0 0.0 0.0 
0.0 0.0 0.0 
0.0 0.0 0.0 
0.0 0.0 0.0 
0.0 0.0 0.0 
0.0 0.0 0.0 
0.0 0.0 0.0 
0.0 0.0 0.0 
0.0 0.0 0.0 
0.0 0.0 0.0 
0.0 0.0 0.0 
0.0 0.0 0.0 
0.0 0.0 0.0 
0.0 0.0 0.0 
0.0 0.0 0.0 
0.0 0.0 0.0 
0.0 0.0 0.0 
0.0 0.0 0.0 
0.0 0.0 0.0 
0.0 0.0 0.0 
0.0 0.0 0.0 
0.0 0.0 0.0 
0.0 0.0 0.0 
0.0 0.0 0.0 
0.0 0.0 0.0 
0.0 0.0 0.0 
0.0 0.0 0.0 
0.0 0.0 0.0 
0.0 0.0 0.0 
0.0 0.0 0.0 
0.0 0.0 0.0 
0.0 0.0 0.0 
0.0 0.0 0.0 
0.0 0.0 0.0 
0.0 0.0 0.0 
0.0 0.0 0.0 
0.0 0.0 0.0 
0.0 0.0 0.0 
0.0 0.0 0.0 
0.0 0.0 0.0 
0.0 0.0 0.0 
0.0 0.0 0.0 
0.0 0.0 0.0 
0.0 0.0 0.0 
0.0 0.0 0.0 
0.0 0.0 0.0 
0.0 0.0 0.0 
0.0 0.0 0.0 
0.0 0.0 0.0 
0.0 0.0 0.0 
0.0 0.0 0.0 
0.0 0.0 0.0 
0.0 0.0 0.0 
0.0 0.0 0.0 
0.0 0.0 0.0 
0.0 0.0 0.0 
0.0 0.0 0.0 
0.0 0.0 0.0 
0.0 0.0 0.0 
0.0 0.0 0.0 
0.0 0.0 0.0 
0.0 0.0 0.0 
0.0 0.0 0.0 
0.0 0.0 0.0 
0.0 0.0 0.0 
0.0 0.0 0.0 
0.0 0.0 0.0 
0.0 0.0 0.0 
0.0 0.0 0.0 
0.0 0.0 0.0 
0.0 0.0 0.0 
0.0 0.0 0.0 
0.0 0.0 0.0 
0.0 0.0 0.0 
0.0 0.0 0.0 
0.0 0.0 0.0 
0.0 0.0 0.0 
0.0 0.0 0.0 
0.0 0.0 0.0 
0.0 0.0 0.0 
0.0 0.0 0.0 
0.0 0.0 0.0 
0.0 0.0 0.0 
0.0 0.0 0.0 
0.0 0.0 0.0 
0.0 0.0 0.0 
0.0 0.0 0.0 
0.0 0.0 0.0 
0.0 0.0 0.0 
0.0 0.0 0.0 
0.0 0.0 0.0 
0.0 0.0 0.0 
0.0 0.0 0.0 
0.0 0.0 0.0 
0.0 0.0 0.0 
0.0 0.0 0.0 
0.0 0.0 0.0 
0.0 0.0 0.0 
0.0 0.0 0.0 
0.0 0.0 0.0 
0.0 0.0 0.0 
0.0 0.0 0.0 
0.0 0.0 0.0 
0.0 0.0 0.0 
0.0 0.0 0.0 
0.0 0.0 0.0 
0.0 0.0 0.0 
0.0 0.0 0.0 
0.0 0.0 0.0 
0.0 0.0 0.0 
0.0 0.0 0.0 
0.0 0.0 0.0 
0.0 0.0 0.0 
0.0 0.0 0.0 
0.0 0.0 0.0 
0.0 0.0 0.0 
0.0 0.0 0.0 
0.0 0.0 0.0 
0.0 0.0 0.0 
0.0 0.0 0.0 
0.0 0.0 0.0 
0.0 0.0 0.0 
0.0 0.0 0.0 
0.0 0.0 0.0 
0.0 0.0 0.0 
0.0 0.0 0.0 
0.0 0.0 0.0 
0.0 0.0 0.0 
0.0 0.0 0.0 
0.0 0.0 0.0 
0.0 0.0 0.0 
0.0 0.0 0.0 
0.0 0.0 0.0 
0.0 0.0 0.0 
0.0 0.0 0.0 
0.0 0.0 0.0 
0.0 0.0 0.0 
0.0 0.0 0.0 
0.0 0.0 0.0 
0.0 0.0 0.0 
0.0 0.0 0.0 
0.0 0.0 0.0 
0.0 0.0 0.0 
0.0 0.0 0.0 
0.0 0.0 0.0 
0.0 0.0 0.0 
0.0 0.0 0.0 
0.0 0.0 0.0 
0.0 0.0 0.0 
0.0 0.0 0.0 
0.0 0.0 0.0 
0.0 0.0 0.0 
0.0 0.0 0.0 
0.0 0.0 0.0 
0.0 0.0 0.0 
0.0 0.0 0.0 
0.0 0.0 0.0 
0.0 0.0 0.0 
0.0 0.0 0.0 
0.0 0.0 0.0 
0.0 0.0 0.0 
0.0 0.0 0.0 
0.0 0.0 0.0 
0.0 0.0 0.0 
0.0 0.0 0.0 
0.0 0.0 0.0 
0.0 0.0 0.0 
0.0 0.0 0.0 
0.0 0.0 0.0 
0.0 0.0 0.0 
0.0 0.0 0.0 
0.0 0.0 0.0 
0.0 0.0 0.0 
0.0 0.0 0.0 
0.0 0.0 0.0 
0.0 0.0 0.0 
0.0 0.0 0.0 
0.0 0.0 0.0 
0.0 0.0 0.0 
0.0 0.0 0.0 
0.0 0.0 0.0 
0.0 0.0 0.0 
0.0 0.0 0.0 
0.0 0.0 0.0 
0.0 0.0 0.0 
0.0 0.0 0.0 
0.0 0.0 0.0 
0.0 0.0 0.0 
0.0 0.0 0.0 
0.0 0.0 0.0 
0.0 0.0 0.0 
0.0 0.0 0.0 
0.0 0.0 0.0 
0.0 0.0 0.0 
0.0 0.0 0.0 
0.0 0.0 0.0 
0.0 0.0 0.0 
0.0 0.0 0.0 
0.0 0.0 0.0 
0.0 0.0 0.0 
0.0 0.0 0.0 
0.0 0.0 0.0 
0.0 0.0 0.0 
0.0 0.0 0.0 
0.0 0.0 0.0 
0.0 0.0 0.0 
0.0 0.0 0.0 
0.0 0.0 0.0 
0.0 0.0 0.0 
0.0 0.0 0.0 
0.0 0.0 0.0 
0.0 0.0 0.0 
0.0 0.0 0.0 
0.0 0.0 0.0 
0.0 0.0 0.0 
0.0 0.0 0.0 
0.0 0.0 0.0 
0.0 0.0 0.0 
0.0 0.0 0.0 
0.0 0.0 0.0 
0.0 0.0 0.0 
0.0 0.0 0.0 
0.0 0.0 0.0 
0.0 0.0 0.0 
0.0 0.0 0.0 
0.0 0.0 0.0 
0.0 0.0 0.0 
0.0 0.0 0.0 
0.0 0.0 0.0 
0.0 0.0 0.0 
0.0 0.0 0.0 
0.0 0.0 0.0 
0.0 0.0 0.0 
0.0 0.0 0.0 
0.0 0.0 0.0 
0.0 0.0 0.0 
0.0 0.0 0.0 
0.0 0.0 0.0 
0.0 0.0 0.0 
0.0 0.0 0.0 
0.0 0.0 0.0 
0.0 0.0 0.0 
0.0 0.0 0.0 
0.0 0.0 0.0 
0.0 0.0 0.0 
0.0 0.0 0.0 
0.0 0.0 0.0 
0.0 0.0 0.0 
0.0 0.0 0.0 
0.0 0.0 0.0 
0.0 0.0 0.0 
0.0 0.0 0.0 
0.0 0.0 0.0 
0.0 0.0 0.0 
0.0 0.0 0.0 
0.0 0.0 0.0 
0.0 0.0 0.0 
0.0 0.0 0.0 
0.0 0.0 0.0 
0.0 0.0 0.0 
0.0 0.0 0.0 
0.0 0.0 0.0 
0.0 0.0 0.0 
0.0 0.0 0.0 
0.0 0.0 0.0 
0.0 0.0 0.0 
0.0 0.0 0.0 
0.0 0.0 0.0 
0.0 0.0 0.0 
0.0 0.0 0.0 
0.0 0.0 0.0 
0.0 0.0 0.0 
0.0 0.0 0.0 
0.0 0.0 0.0 
0.0 0.0 0.0 
0.0 0.0 0.0 
0.0 0.0 0.0 
0.0 0.0 0.0 
0.0 0.0 0.0 
0.0 0.0 0.0 
0.0 0.0 0.0 
0.0 0.0 0.0 
0.0 0.0 0.0 
0.0 0.0 0.0 
0.0 0.0 0.0 
0.0 0.0 0.0 
0.0 0.0 0.0 
0.0 0.0 0.0 
0.0 0.0 0.0 
0.0 0.0 0.0 
0.0 0.0 0.0 
0.0 0.0 0.0 
0.0 0.0 0.0 
0.0 0.0 0.0 
0.0 0.0 0.0 
0.0 0.0 0.0 
0.0 0.0 0.0 
0.0 0.0 0.0 
0.0 0.0 0.0 
0.0 0.0 0.0 
0.0 0.0 0.0 
0.0 0.0 0.0 
0.0 0.0 0.0 
0.0 0.0 0.0 
0.0 0.0 0.0 
0.0 0.0 0.0 
0.0 0.0 0.0 
0.0 0.0 0.0 
0.0 0.0 0.0 
0.0 0.0 0.0 
0.0 0.0 0.0 
0.0 0.0 0.0 
0.0 0.0 0.0 
0.0 0.0 0.0 
0.0 0.0 0.0 
0.0 0.0 0.0 
0.0 0.0 0.0 
0.0 0.0 0.0 
0.0 0.0 0.0 
0.0 0.0 0.0 
0.0 0.0 0.0 
0.0 0.0 0.0 
0.0 0.0 0.0 
0.0 0.0 0.0 
0.0 0.0 0.0 
0.0 0.0 0.0 
0.0 0.0 0.0 
0.0 0.0 0.0 
0.0 0.0 0.0 
0.0 0.0 0.0 
0.0 0.0 0.0 
0.0 0.0 0.0 
0.0 0.0 0.0 
0.0 0.0 0.0 
0.0 0.0 0.0 
0.0 0.0 0.0 
0.0 0.0 0.0 
0.0 0.0 0.0 
0.0 0.0 0.0 
0.0 0.0 0.0 
0.0 0.0 0.0 
0.0 0.0 0.0 
0.0 0.0 0.0 
0.0 0.0 0.0 
0.0 0.0 0.0 
0.0 0.0 0.0 
0.0 0.0 0.0 
0.0 0.0 0.0 
0.0 0.0 0.0 
0.0 0.0 0.0 
0.0 0.0 0.0 
0.0 0.0 0.0 
0.0 0.0 0.0 
0.0 0.0 0.0 
0.0 0.0 0.0 
0.0 0.0 0.0 
0.0 0.0 0.0 
0.0 0.0 0.0 
0.0 0.0 0.0 
0.0 0.0 0.0 
0.0 0.0 0.0 
0.0 0.0 0.0 
0.0 0.0 0.0 
0.0 0.0 0.0 
0.0 0.0 0.0 
0.0 0.0 0.0 
0.0 0.0 0.0 
0.0 0.0 0.0 
0.0 0.0 0.0 
0.0 0.0 0.0 
0.0 0.0 0.0 
0.0 0.0 0.0 
0.0 0.0 0.0 
0.0 0.0 0.0 
0.0 0.0 0.0 
0.0 0.0 0.0 
0.0 0.0 0.0 
0.0 0.0 0.0 
0.0 0.0 0.0 
0.0 0.0 0.0 
0.0 0.0 0.0 
0.0 0.0 0.0 
0.0 0.0 0.0 
0.0 0.0 0.0 
0.0 0.0 0.0 
0.0 0.0 0.0 
0.0 0.0 0.0 
0.0 0.0 0.0 
0.0 0.0 0.0 
0.0 0.0 0.0 
0.0 0.0 0.0 
0.0 0.0 0.0 
0.0 0.0 0.0 
0.0 0.0 0.0 
0.0 0.0 0.0 
0.0 0.0 0.0 
0.0 0.0 0.0 
0.0 0.0 0.0 
0.0 0.0 0.0 
0.0 0.0 0.0 
0.0 0.0 0.0 
0.0 0.0 0.0 
0.0 0.0 0.0 
0.0 0.0 0.0 
0.0 0.0 0.0 
0.0 0.0 0.0 
0.0 0.0 0.0 
0.0 0.0 0.0 
0.0 0.0 0.0 
0.0 0.0 0.0 
0.0 0.0 0.0 
0.0 0.0 0.0 
0.0 0.0 0.0 
0.0 0.0 0.0 
0.0 0.0 0.0 
0.0 0.0 0.0 
0.0 0.0 0.0 
0.0 0.0 0.0 
0.0 0.0 0.0 
0.0 0.0 0.0 
0.0 0.0 0.0 
0.0 0.0 0.0 
0.0 0.0 0.0 
0.0 0.0 0.0 
0.0 0.0 0.0 
0.0 0.0 0.0 
0.0 0.0 0.0 
0.0 0.0 0.0 
0.0 0.0 0.0 
0.0 0.0 0.0 
0.0 0.0 0.0 
0.0 0.0 0.0 
0.0 0.0 0.0 
0.0 0.0 0.0 
0.0 0.0 0.0 
0.0 0.0 0.0 
0.0 0.0 0.0 
0.0 0.0 0.0 
0.0 0.0 0.0 
0.0 0.0 0.0 
0.0 0.0 0.0 
0.0 0.0 0.0 
0.0 0.0 0.0 
0.0 0.0 0.0 
0.0 0.0 0.0 
0.0 0.0 0.0 
0.0 0.0 0.0 
0.0 0.0 0.0 
0.0 0.0 0.0 
0.0 0.0 0.0 
0.0 0.0 0.0 
0.0 0.0 0.0 
0.0 0.0 0.0 
0.0 0.0 0.0 
0.0 0.0 0.0 
0.0 0.0 0.0 
0.0 0.0 0.0 
0.0 0.0 0.0 
0.0 0.0 0.0 
0.0 0.0 0.0 
0.0 0.0 0.0 
0.0 0.0 0.0 
0.0 0.0 0.0 
0.0 0.0 0.0 
0.0 0.0 0.0 
0.0 0.0 0.0 
0.0 0.0 0.0 
0.0 0.0 0.0 
0.0 0.0 0.0 
0.0 0.0 0.0 
0.0 0.0 0.0 
0.0 0.0 0.0 
0.0 0.0 0.0 
0.0 0.0 0.0 
0.0 0.0 0.0 
0.0 0.0 0.0 
0.0 0.0 0.0 
0.0 0.0 0.0 
0.0 0.0 0.0 
0.0 0.0 0.0 
0.0 0.0 0.0 
0.0 0.0 0.0 
0.0 0.0 0.0 
0.0 0.0 0.0 
0.0 0.0 0.0 
0.0 0.0 0.0 
0.0 0.0 0.0 
0.0 0.0 0.0 
0.0 0.0 0.0 
0.0 0.0 0.0 
0.0 0.0 0.0 
0.0 0.0 0.0 
0.0 0.0 0.0 
0.0 0.0 0.0 
0.0 0.0 0.0 
0.0 0.0 0.0 
0.0 0.0 0.0 
0.0 0.0 0.0 
0.0 0.0 0.0 
0.0 0.0 0.0 
0.0 0.0 0.0 
0.0 0.0 0.0 
0.0 0.0 0.0 
0.0 0.0 0.0 
0.0 0.0 0.0 
0.0 0.0 0.0 
0.0 0.0 0.0 
0.0 0.0 0.0 
0.0 0.0 0.0 
0.0 0.0 0.0 
0.0 0.0 0.0 
0.0 0.0 0.0 
0.0 0.0 0.0 
0.0 0.0 0.0 
0.0 0.0 0.0 
0.0 0.0 0.0 
0.0 0.0 0.0 
0.0 0.0 0.0 
0.0 0.0 0.0 
0.0 0.0 0.0 
0.0 0.0 0.0 
0.0 0.0 0.0 
0.0 0.0 0.0 
0.0 0.0 0.0 
0.0 0.0 0.0 
0.0 0.0 0.0 
0.0 0.0 0.0 
0.0 0.0 0.0 
0.0 0.0 0.0 
0.0 0.0 0.0 
0.0 0.0 0.0 
0.0 0.0 0.0 
0.0 0.0 0.0 
0.0 0.0 0.0 
0.0 0.0 0.0 
0.0 0.0 0.0 
0.0 0.0 0.0 
0.0 0.0 0.0 
0.0 0.0 0.0 
0.0 0.0 0.0 
0.0 0.0 0.0 
0.0 0.0 0.0 
0.0 0.0 0.0 
0.0 0.0 0.0 
0.0 0.0 0.0 
0.0 0.0 0.0 
0.0 0.0 0.0 
0.0 0.0 0.0 
0.0 0.0 0.0 
0.0 0.0 0.0 
0.0 0.0 0.0 
0.0 0.0 0.0 
0.0 0.0 0.0 
0.0 0.0 0.0 
0.0 0.0 0.0 
0.0 0.0 0.0 
0.0 0.0 0.0 
0.0 0.0 0.0 
0.0 0.0 0.0 
0.0 0.0 0.0 
0.0 0.0 0.0 
0.0 0.0 0.0 
0.0 0.0 0.0 
0.0 0.0 0.0 
0.0 0.0 0.0 
0.0 0.0 0.0 
0.0 0.0 0.0 
0.0 0.0 0.0 
0.0 0.0 0.0 
0.0 0.0 0.0 
0.0 0.0 0.0 
0.0 0.0 0.0 
0.0 0.0 0.0 
0.0 0.0 0.0 
0.0 0.0 0.0 
0.0 0.0 0.0 
0.0 0.0 0.0 
0.0 0.0 0.0 
0.0 0.0 0.0 
0.0 0.0 0.0 
0.0 0.0 0.0 
0.0 0.0 0.0 
0.0 0.0 0.0 
0.0 0.0 0.0 
0.0 0.0 0.0 
0.0 0.0 0.0 
0.0 0.0 0.0 
0.0 0.0 0.0 
0.0 0.0 0.0 
0.0 0.0 0.0 
0.0 0.0 0.0 
0.0 0.0 0.0 
0.0 0.0 0.0 
0.0 0.0 0.0 
0.0 0.0 0.0 
0.0 0.0 0.0 
0.0 0.0 0.0 
0.0 0.0 0.0 
0.0 0.0 0.0 
0.0 0.0 0.0 
0.0 0.0 0.0 
0.0 0.0 0.0 
0.0 0.0 0.0 
0.0 0.0 0.0 
0.0 0.0 0.0 
0.0 0.0 0.0 
0.0 0.0 0.0 
0.0 0.0 0.0 
0.0 0.0 0.0 
0.0 0.0 0.0 
0.0 0.0 0.0 
0.0 0.0 0.0 
0.0 0.0 0.0 
0.0 0.0 0.0 
0.0 0.0 0.0 
0.0 0.0 0.0 
0.0 0.0 0.0 
0.0 0.0 0.0 
0.0 0.0 0.0 
0.0 0.0 0.0 
0.0 0.0 0.0 
0.0 0.0 0.0 
0.0 0.0 0.0 
0.0 0.0 0.0 
0.0 0.0 0.0 
0.0 0.0 0.0 
0.0 0.0 0.0 
0.0 0.0 0.0 
0.0 0.0 0.0 
0.0 0.0 0.0 
0.0 0.0 0.0 
0.0 0.0 0.0 
0.0 0.0 0.0 
0.0 0.0 0.0 
0.0 0.0 0.0 
0.0 0.0 0.0 
0.0 0.0 0.0 
0.0 0.0 0.0 
0.0 0.0 0.0 
0.0 0.0 0.0 
0.0 0.0 0.0 
0.0 0.0 0.0 
0.0 0.0 0.0 
0.0 0.0 0.0 
0.0 0.0 0.0 
0.0 0.0 0.0 
0.0 0.0 0.0 
0.0 0.0 0.0 
0.0 0.0 0.0 
0.0 0.0 0.0 
0.0 0.0 0.0 
0.0 0.0 0.0 
0.0 0.0 0.0 
0.0 0.0 0.0 
0.0 0.0 0.0 
0.0 0.0 0.0 
0.0 0.0 0.0 
0.0 0.0 0.0 
0.0 0.0 0.0 
0.0 0.0 0.0 
0.0 0.0 0.0 
0.0 0.0 0.0 
0.0 0.0 0.0 
0.0 0.0 0.0 
0.0 0.0 0.0 
0.0 0.0 0.0 
0.0 0.0 0.0 
0.0 0.0 0.0 
0.0 0.0 0.0 
0.0 0.0 0.0 
0.0 0.0 0.0 
0.0 0.0 0.0 
0.0 0.0 0.0 
0.0 0.0 0.0 
0.0 0.0 0.0 
0.0 0.0 0.0 
0.0 0.0 0.0 
0.0 0.0 0.0 
0.0 0.0 0.0 
0.0 0.0 0.0 
0.0 0.0 0.0 
0.0 0.0 0.0 
0.0 0.0 0.0 
0.0 0.0 0.0 
0.0 0.0 0.0 
0.0 0.0 0.0 
0.0 0.0 0.0 
0.0 0.0 0.0 
0.0 0.0 0.0 
0.0 0.0 0.0 
0.0 0.0 0.0 
0.0 0.0 0.0 
0.0 0.0 0.0 
0.0 0.0 0.0 
0.0 0.0 0.0 
0.0 0.0 0.0 
0.0 0.0 0.0 
0.0 0.0 0.0 
0.0 0.0 0.0 
0.0 0.0 0.0 
0.0 0.0 0.0 
0.0 0.0 0.0 
0.0 0.0 0.0 
0.0 0.0 0.0 
0.0 0.0 0.0 
0.0 0.0 0.0 
0.0 0.0 0.0 
0.0 0.0 0.0 
0.0 0.0 0.0 
0.0 0.0 0.0 
0.0 0.0 0.0 
0.0 0.0 0.0 
0.0 0.0 0.0 
0.0 0.0 0.0 
0.0 0.0 0.0 
0.0 0.0 0.0 
0.0 0.0 0.0 
0.0 0.0 0.0 
0.0 0.0 0.0 
0.0 0.0 0.0 
0.0 0.0 0.0 
0.0 0.0 0.0 
0.0 0.0 0.0 
0.0 0.0 0.0 
0.0 0.0 0.0 
0.0 0.0 0.0 
0.0 0.0 0.0 
0.0 0.0 0.0 
0.0 0.0 0.0 
0.0 0.0 0.0 
0.0 0.0 0.0 
0.0 0.0 0.0 
0.0 0.0 0.0 
0.0 0.0 0.0 
0.0 0.0 0.0 
0.0 0.0 0.0 
0.0 0.0 0.0 
0.0 0.0 0.0 
0.0 0.0 0.0 
0.0 0.0 0.0 
0.0 0.0 0.0 
0.0 0.0 0.0 
0.0 0.0 0.0 
0.0 0.0 0.0 
0.0 0.0 0.0 
0.0 0.0 0.0 
0.0 0.0 0.0 
0.0 0.0 0.0 
0.0 0.0 0.0 
0.0 0.0 0.0 
0.0 0.0 0.0 
0.0 0.0 0.0 
0.0 0.0 0.0 
0.0 0.0 0.0 
0.0 0.0 0.0 
0.0 0.0 0.0 
0.0 0.0 0.0 
0.0 0.0 0.0 
0.0 0.0 0.0 
0.0 0.0 0.0 
0.0 0.0 0.0 
0.0 0.0 0.0 
0.0 0.0 0.0 
0.0 0.0 0.0 
0.0 0.0 0.0 
0.0 0.0 0.0 
0.0 0.0 0.0 
0.0 0.0 0.0 
0.0 0.0 0.0 
0.0 0.0 0.0 
0.0 0.0 0.0 
0.0 0.0 0.0 
0.0 0.0 0.0 
0.0 0.0 0.0 
0.0 0.0 0.0 
0.0 0.0 0.0 
0.0 0.0 0.0 
0.0 0.0 0.0 
0.0 0.0 0.0 
0.0 0.0 0.0 
0.0 0.0 0.0 
0.0 0.0 0.0 
0.0 0.0 0.0 
0.0 0.0 0.0 
0.0 0.0 0.0 
0.0 0.0 0.0 
0.0 0.0 0.0 
0.0 0.0 0.0 
0.0 0.0 0.0 
0.0 0.0 0.0 
0.0 0.0 0.0 
0.0 0.0 0.0 
0.0 0.0 0.0 
0.0 0.0 0.0 
0.0 0.0 0.0 
0.0 0.0 0.0 
0.0 0.0 0.0 
0.0 0.0 0.0 
0.0 0.0 0.0 
0.0 0.0 0.0 
0.0 0.0 0.0 
0.0 0.0 0.0 
0.0 0.0 0.0 
0.0 0.0 0.0 
0.0 0.0 0.0 
0.0 0.0 0.0 
0.0 0.0 0.0 
0.0 0.0 0.0 
0.0 0.0 0.0 
0.0 0.0 0.0 
0.0 0.0 0.0 
0.0 0.0 0.0 
0.0 0.0 0.0 
0.0 0.0 0.0 
0.0 0.0 0.0 
0.0 0.0 0.0 
0.0 0.0 0.0 
0.0 0.0 0.0 
0.0 0.0 0.0 
0.0 0.0 0.0 
0.0 0.0 0.0 
0.0 0.0 0.0 
0.0 0.0 0.0 
0.0 0.0 0.0 
0.0 0.0 0.0 
0.0 0.0 0.0 
0.0 0.0 0.0 
0.0 0.0 0.0 
0.0 0.0 0.0 
0.0 0.0 0.0 
0.0 0.0 0.0 
0.0 0.0 0.0 
0.0 0.0 0.0 
0.0 0.0 0.0 
0.0 0.0 0.0 
0.0 0.0 0.0 
0.0 0.0 0.0 
0.0 0.0 0.0 
0.0 0.0 0.0 
0.0 0.0 0.0 
0.0 0.0 0.0 
0.0 0.0 0.0 
0.0 0.0 0.0 
0.0 0.0 0.0 
0.0 0.0 0.0 
0.0 0.0 0.0 
0.0 0.0 0.0 
0.0 0.0 0.0 
0.0 0.0 0.0 
0.0 0.0 0.0 
0.0 0.0 0.0 
0.0 0.0 0.0 
0.0 0.0 0.0 
0.0 0.0 0.0 
0.0 0.0 0.0 
0.0 0.0 0.0 
0.0 0.0 0.0 
0.0 0.0 0.0 
0.0 0.0 0.0 
0.0 0.0 0.0 
0.0 0.0 0.0 
0.0 0.0 0.0 
0.0 0.0 0.0 
0.0 0.0 0.0 
0.0 0.0 0.0 
0.0 0.0 0.0 
0.0 0.0 0.0 
0.0 0.0 0.0 
0.0 0.0 0.0 
0.0 0.0 0.0 
0.0 0.0 0.0 
0.0 0.0 0.0 
0.0 0.0 0.0 
0.0 0.0 0.0 
0.0 0.0 0.0 
0.0 0.0 0.0 
0.0 0.0 0.0 
0.0 0.0 0.0 
0.0 0.0 0.0 
0.0 0.0 0.0 
0.0 0.0 0.0 
0.0 0.0 0.0 
0.0 0.0 0.0 
0.0 0.0 0.0 
0.0 0.0 0.0 
0.0 0.0 0.0 
0.0 0.0 0.0 
0.0 0.0 0.0 
0.0 0.0 0.0 
0.0 0.0 0.0 
0.0 0.0 0.0 
0.0 0.0 0.0 
0.0 0.0 0.0 
0.0 0.0 0.0 
0.0 0.0 0.0 
0.0 0.0 0.0 
0.0 0.0 0.0 
0.0 0.0 0.0 
0.0 0.0 0.0 
0.0 0.0 0.0 
0.0 0.0 0.0 
0.0 0.0 0.0 
0.0 0.0 0.0 
0.0 0.0 0.0 
0.0 0.0 0.0 
0.0 0.0 0.0 
0.0 0.0 0.0 
0.0 0.0 0.0 
0.0 0.0 0.0 
0.0 0.0 0.0 
0.0 0.0 0.0 
0.0 0.0 0.0 
0.0 0.0 0.0 
0.0 0.0 0.0 
0.0 0.0 0.0 
0.0 0.0 0.0 
0.0 0.0 0.0 
0.0 0.0 0.0 
0.0 0.0 0.0 
0.0 0.0 0.0 
0.0 0.0 0.0 
0.0 0.0 0.0 
0.0 0.0 0.0 
0.0 0.0 0.0 
0.0 0.0 0.0 
0.0 0.0 0.0 
0.0 0.0 0.0 
0.0 0.0 0.0 
0.0 0.0 0.0 
0.0 0.0 0.0 
0.0 0.0 0.0 
0.0 0.0 0.0 
0.0 0.0 0.0 
0.0 0.0 0.0 
0.0 0.0 0.0 
0.0 0.0 0.0 
0.0 0.0 0.0 
0.0 0.0 0.0 
0.0 0.0 0.0 
0.0 0.0 0.0 
0.0 0.0 0.0 
0.0 0.0 0.0 
0.0 0.0 0.0 
0.0 0.0 0.0 
0.0 0.0 0.0 
0.0 0.0 0.0 
0.0 0.0 0.0 
0.0 0.0 0.0 
0.0 0.0 0.0 
0.0 0.0 0.0 
0.0 0.0 0.0 
0.0 0.0 0.0 
0.0 0.0 0.0 
0.0 0.0 0.0 
0.0 0.0 0.0 
0.0 0.0 0.0 
0.0 0.0 0.0 
0.0 0.0 0.0 
0.0 0.0 0.0 
0.0 0.0 0.0 
0.0 0.0 0.0 
0.0 0.0 0.0 
0.0 0.0 0.0 
0.0 0.0 0.0 
0.0 0.0 0.0 
0.0 0.0 0.0 
0.0 0.0 0.0 
0.0 0.0 0.0 
0.0 0.0 0.0 
0.0 0.0 0.0 
0.0 0.0 0.0 
0.0 0.0 0.0 
0.0 0.0 0.0 
0.0 0.0 0.0 
0.0 0.0 0.0 
0.0 0.0 0.0 
0.0 0.0 0.0 
0.0 0.0 0.0 
0.0 0.0 0.0 
0.0 0.0 0.0 
0.0 0.0 0.0 
0.0 0.0 0.0 
0.0 0.0 0.0 
0.0 0.0 0.0 
0.0 0.0 0.0 
0.0 0.0 0.0 
0.0 0.0 0.0 
0.0 0.0 0.0 
0.0 0.0 0.0 
0.0 0.0 0.0 
0.0 0.0 0.0 
0.0 0.0 0.0 
0.0 0.0 0.0 
0.0 0.0 0.0 
0.0 0.0 0.0 
0.0 0.0 0.0 
0.0 0.0 0.0 
0.0 0.0 0.0 
0.0 0.0 0.0 
0.0 0.0 0.0 
0.0 0.0 0.0 
0.0 0.0 0.0 
0.0 0.0 0.0 
0.0 0.0 0.0 
0.0 0.0 0.0 
0.0 0.0 0.0 
0.0 0.0 0.0 
0.0 0.0 0.0 
0.0 0.0 0.0 
0.0 0.0 0.0 
0.0 0.0 0.0 
0.0 0.0 0.0 
0.0 0.0 0.0 
0.0 0.0 0.0 
0.0 0.0 0.0 
0.0 0.0 0.0 
0.0 0.0 0.0 
0.0 0.0 0.0 
0.0 0.0 0.0 
0.0 0.0 0.0 
0.0 0.0 0.0 
0.0 0.0 0.0 
0.0 0.0 0.0 
0.0 0.0 0.0 
0.0 0.0 0.0 
0.0 0.0 0.0 
0.0 0.0 0.0 
0.0 0.0 0.0 
0.0 0.0 0.0 
0.0 0.0 0.0 
0.0 0.0 0.0 
0.0 0.0 0.0 
0.0 0.0 0.0 
0.0 0.0 0.0 
0.0 0.0 0.0 
0.0 0.0 0.0 
0.0 0.0 0.0 
0.0 0.0 0.0 
0.0 0.0 0.0 
0.0 0.0 0.0 
0.0 0.0 0.0 
0.0 0.0 0.0 
0.0 0.0 0.0 
0.0 0.0 0.0 
0.0 0.0 0.0 
0.0 0.0 0.0 
0.0 0.0 0.0 
0.0 0.0 0.0 
0.0 0.0 0.0 
0.0 0.0 0.0 
0.0 0.0 0.0 
0.0 0.0 0.0 
0.0 0.0 0.0 
0.0 0.0 0.0 
0.0 0.0 0.0 
0.0 0.0 0.0 
0.0 0.0 0.0 

VECTORS node_bounda_dof_materi_velocity_y float
0.0 0.0 0.0 
0.0 0.0 0.0 
0.0 1.000000000000e+00 0.0 
0.0 1.000000000000e+00 0.0 
0.0 0.0 0.0 
0.0 0.0 0.0 
0.0 0.0 0.0 
0.0 0.0 0.0 
0.0 0.0 0.0 
0.0 0.0 0.0 
0.0 0.0 0.0 
0.0 0.0 0.0 
0.0 0.0 0.0 
0.0 0.0 0.0 
0.0 0.0 0.0 
0.0 0.0 0.0 
0.0 0.0 0.0 
0.0 0.0 0.0 
0.0 0.0 0.0 
0.0 0.0 0.0 
0.0 0.0 0.0 
0.0 0.0 0.0 
0.0 0.0 0.0 
0.0 1.000000000000e+00 0.0 
0.0 1.000000000000e+00 0.0 
0.0 1.000000000000e+00 0.0 
0.0 1.000000000000e+00 0.0 
0.0 1.000000000000e+00 0.0 
0.0 1.000000000000e+00 0.0 
0.0 1.000000000000e+00 0.0 
0.0 1.000000000000e+00 0.0 
0.0 1.000000000000e+00 0.0 
0.0 1.000000000000e+00 0.0 
0.0 1.000000000000e+00 0.0 
0.0 1.000000000000e+00 0.0 
0.0 1.000000000000e+00 0.0 
0.0 1.000000000000e+00 0.0 
0.0 1.000000000000e+00 0.0 
0.0 1.000000000000e+00 0.0 
0.0 1.000000000000e+00 0.0 
0.0 1.000000000000e+00 0.0 
0.0 1.000000000000e+00 0.0 
0.0 1.000000000000e+00 0.0 
0.0 1.000000000000e+00 0.0 
0.0 1.000000000000e+00 0.0 
0.0 1.000000000000e+00 0.0 
0.0 1.000000000000e+00 0.0 
0.0 1.000000000000e+00 0.0 
0.0 1.000000000000e+00 0.0 
0.0 1.000000000000e+00 0.0 
0.0 1.000000000000e+00 0.0 
0.0 1.000000000000e+00 0.0 
0.0 1.000000000000e+00 0.0 
0.0 1.000000000000e+00 0.0 
0.0 1.000000000000e+00 0.0 
0.0 1.000000000000e+00 0.0 
0.0 1.000000000000e+00 0.0 
0.0 1.000000000000e+00 0.0 
0.0 1.000000000000e+00 0.0 
0.0 1.000000000000e+00 0.0 
0.0 1.000000000000e+00 0.0 
0.0 1.000000000000e+00 0.0 
0.0 1.000000000000e+00 0.0 
0.0 1.000000000000e+00 0.0 
0.0 1.000000000000e+00 0.0 
0.0 1.000000000000e+00 0.0 
0.0 1.000000000000e+00 0.0 
0.0 1.000000000000e+00 0.0 
0.0 1.000000000000e+00 0.0 
0.0 1.000000000000e+00 0.0 
0.0 1.000000000000e+00 0.0 
0.0 1.000000000000e+00 0.0 
0.0 0.0 0.0 
0.0 0.0 0.0 
0.0 0.0 0.0 
0.0 0.0 0.0 
0.0 0.0 0.0 
0.0 0.0 0.0 
0.0 0.0 0.0 
0.0 0.0 0.0 
0.0 0.0 0.0 
0.0 0.0 0.0 
0.0 0.0 0.0 
0.0 0.0 0.0 
0.0 0.0 0.0 
0.0 0.0 0.0 
0.0 0.0 0.0 
0.0 0.0 0.0 
0.0 0.0 0.0 
0.0 0.0 0.0 
0.0 0.0 0.0 
0.0 0.0 0.0 
0.0 0.0 0.0 
0.0 0.0 0.0 
0.0 0.0 0.0 
0.0 0.0 0.0 
0.0 0.0 0.0 
0.0 0.0 0.0 
0.0 0.0 0.0 
0.0 0.0 0.0 
0.0 0.0 0.0 
0.0 0.0 0.0 
0.0 0.0 0.0 
0.0 0.0 0.0 
0.0 0.0 0.0 
0.0 0.0 0.0 
0.0 0.0 0.0 
0.0 0.0 0.0 
0.0 0.0 0.0 
0.0 0.0 0.0 
0.0 0.0 0.0 
0.0 0.0 0.0 
0.0 0.0 0.0 
0.0 0.0 0.0 
0.0 0.0 0.0 
0.0 0.0 0.0 
0.0 0.0 0.0 
0.0 0.0 0.0 
0.0 0.0 0.0 
0.0 0.0 0.0 
0.0 0.0 0.0 
0.0 0.0 0.0 
0.0 0.0 0.0 
0.0 0.0 0.0 
0.0 0.0 0.0 
0.0 0.0 0.0 
0.0 0.0 0.0 
0.0 0.0 0.0 
0.0 0.0 0.0 
0.0 0.0 0.0 
0.0 0.0 0.0 
0.0 0.0 0.0 
0.0 0.0 0.0 
0.0 0.0 0.0 
0.0 0.0 0.0 
0.0 0.0 0.0 
0.0 0.0 0.0 
0.0 0.0 0.0 
0.0 0.0 0.0 
0.0 0.0 0.0 
0.0 0.0 0.0 
0.0 0.0 0.0 
0.0 0.0 0.0 
0.0 0.0 0.0 
0.0 0.0 0.0 
0.0 0.0 0.0 
0.0 0.0 0.0 
0.0 0.0 0.0 
0.0 0.0 0.0 
0.0 0.0 0.0 
0.0 0.0 0.0 
0.0 0.0 0.0 
0.0 0.0 0.0 
0.0 0.0 0.0 
0.0 0.0 0.0 
0.0 0.0 0.0 
0.0 0.0 0.0 
0.0 0.0 0.0 
0.0 0.0 0.0 
0.0 0.0 0.0 
0.0 0.0 0.0 
0.0 0.0 0.0 
0.0 0.0 0.0 
0.0 0.0 0.0 
0.0 0.0 0.0 
0.0 0.0 0.0 
0.0 0.0 0.0 
0.0 0.0 0.0 
0.0 0.0 0.0 
0.0 0.0 0.0 
0.0 0.0 0.0 
0.0 0.0 0.0 
0.0 0.0 0.0 
0.0 0.0 0.0 
0.0 0.0 0.0 
0.0 0.0 0.0 
0.0 0.0 0.0 
0.0 0.0 0.0 
0.0 0.0 0.0 
0.0 0.0 0.0 
0.0 0.0 0.0 
0.0 0.0 0.0 
0.0 0.0 0.0 
0.0 0.0 0.0 
0.0 0.0 0.0 
0.0 0.0 0.0 
0.0 0.0 0.0 
0.0 0.0 0.0 
0.0 0.0 0.0 
0.0 0.0 0.0 
0.0 0.0 0.0 
0.0 0.0 0.0 
0.0 0.0 0.0 
0.0 0.0 0.0 
0.0 0.0 0.0 
0.0 0.0 0.0 
0.0 0.0 0.0 
0.0 0.0 0.0 
0.0 0.0 0.0 
0.0 0.0 0.0 
0.0 0.0 0.0 
0.0 0.0 0.0 
0.0 0.0 0.0 
0.0 0.0 0.0 
0.0 0.0 0.0 
0.0 0.0 0.0 
0.0 0.0 0.0 
0.0 0.0 0.0 
0.0 0.0 0.0 
0.0 0.0 0.0 
0.0 0.0 0.0 
0.0 0.0 0.0 
0.0 0.0 0.0 
0.0 0.0 0.0 
0.0 0.0 0.0 
0.0 0.0 0.0 
0.0 0.0 0.0 
0.0 0.0 0.0 
0.0 0.0 0.0 
0.0 0.0 0.0 
0.0 0.0 0.0 
0.0 0.0 0.0 
0.0 0.0 0.0 
0.0 0.0 0.0 
0.0 0.0 0.0 
0.0 0.0 0.0 
0.0 0.0 0.0 
0.0 0.0 0.0 
0.0 0.0 0.0 
0.0 0.0 0.0 
0.0 0.0 0.0 
0.0 0.0 0.0 
0.0 0.0 0.0 
0.0 0.0 0.0 
0.0 0.0 0.0 
0.0 0.0 0.0 
0.0 0.0 0.0 
0.0 0.0 0.0 
0.0 0.0 0.0 
0.0 0.0 0.0 
0.0 0.0 0.0 
0.0 0.0 0.0 
0.0 0.0 0.0 
0.0 0.0 0.0 
0.0 0.0 0.0 
0.0 0.0 0.0 
0.0 0.0 0.0 
0.0 0.0 0.0 
0.0 0.0 0.0 
0.0 0.0 0.0 
0.0 0.0 0.0 
0.0 0.0 0.0 
0.0 0.0 0.0 
0.0 0.0 0.0 
0.0 0.0 0.0 
0.0 0.0 0.0 
0.0 0.0 0.0 
0.0 0.0 0.0 
0.0 0.0 0.0 
0.0 0.0 0.0 
0.0 0.0 0.0 
0.0 0.0 0.0 
0.0 0.0 0.0 
0.0 0.0 0.0 
0.0 0.0 0.0 
0.0 0.0 0.0 
0.0 0.0 0.0 
0.0 0.0 0.0 
0.0 0.0 0.0 
0.0 0.0 0.0 
0.0 0.0 0.0 
0.0 0.0 0.0 
0.0 0.0 0.0 
0.0 0.0 0.0 
0.0 0.0 0.0 
0.0 0.0 0.0 
0.0 0.0 0.0 
0.0 0.0 0.0 
0.0 0.0 0.0 
0.0 0.0 0.0 
0.0 0.0 0.0 
0.0 0.0 0.0 
0.0 0.0 0.0 
0.0 0.0 0.0 
0.0 0.0 0.0 
0.0 0.0 0.0 
0.0 0.0 0.0 
0.0 0.0 0.0 
0.0 0.0 0.0 
0.0 0.0 0.0 
0.0 0.0 0.0 
0.0 0.0 0.0 
0.0 0.0 0.0 
0.0 0.0 0.0 
0.0 0.0 0.0 
0.0 0.0 0.0 
0.0 0.0 0.0 
0.0 0.0 0.0 
0.0 0.0 0.0 
0.0 0.0 0.0 
0.0 0.0 0.0 
0.0 0.0 0.0 
0.0 0.0 0.0 
0.0 0.0 0.0 
0.0 0.0 0.0 
0.0 0.0 0.0 
0.0 0.0 0.0 
0.0 0.0 0.0 
0.0 0.0 0.0 
0.0 0.0 0.0 
0.0 0.0 0.0 
0.0 0.0 0.0 
0.0 0.0 0.0 
0.0 0.0 0.0 
0.0 0.0 0.0 
0.0 0.0 0.0 
0.0 0.0 0.0 
0.0 0.0 0.0 
0.0 0.0 0.0 
0.0 0.0 0.0 
0.0 0.0 0.0 
0.0 0.0 0.0 
0.0 0.0 0.0 
0.0 0.0 0.0 
0.0 0.0 0.0 
0.0 0.0 0.0 
0.0 0.0 0.0 
0.0 0.0 0.0 
0.0 0.0 0.0 
0.0 0.0 0.0 
0.0 0.0 0.0 
0.0 0.0 0.0 
0.0 0.0 0.0 
0.0 0.0 0.0 
0.0 0.0 0.0 
0.0 0.0 0.0 
0.0 0.0 0.0 
0.0 0.0 0.0 
0.0 0.0 0.0 
0.0 0.0 0.0 
0.0 0.0 0.0 
0.0 0.0 0.0 
0.0 0.0 0.0 
0.0 0.0 0.0 
0.0 0.0 0.0 
0.0 0.0 0.0 
0.0 0.0 0.0 
0.0 0.0 0.0 
0.0 0.0 0.0 
0.0 0.0 0.0 
0.0 0.0 0.0 
0.0 0.0 0.0 
0.0 0.0 0.0 
0.0 0.0 0.0 
0.0 0.0 0.0 
0.0 0.0 0.0 
0.0 0.0 0.0 
0.0 0.0 0.0 
0.0 0.0 0.0 
0.0 0.0 0.0 
0.0 0.0 0.0 
0.0 0.0 0.0 
0.0 0.0 0.0 
0.0 0.0 0.0 
0.0 0.0 0.0 
0.0 0.0 0.0 
0.0 0.0 0.0 
0.0 0.0 0.0 
0.0 0.0 0.0 
0.0 0.0 0.0 
0.0 0.0 0.0 
0.0 0.0 0.0 
0.0 0.0 0.0 
0.0 0.0 0.0 
0.0 0.0 0.0 
0.0 0.0 0.0 
0.0 0.0 0.0 
0.0 0.0 0.0 
0.0 0.0 0.0 
0.0 0.0 0.0 
0.0 0.0 0.0 
0.0 0.0 0.0 
0.0 0.0 0.0 
0.0 0.0 0.0 
0.0 0.0 0.0 
0.0 0.0 0.0 
0.0 0.0 0.0 
0.0 0.0 0.0 
0.0 0.0 0.0 
0.0 0.0 0.0 
0.0 0.0 0.0 
0.0 0.0 0.0 
0.0 0.0 0.0 
0.0 0.0 0.0 
0.0 0.0 0.0 
0.0 0.0 0.0 
0.0 0.0 0.0 
0.0 0.0 0.0 
0.0 0.0 0.0 
0.0 0.0 0.0 
0.0 0.0 0.0 
0.0 0.0 0.0 
0.0 0.0 0.0 
0.0 0.0 0.0 
0.0 0.0 0.0 
0.0 0.0 0.0 
0.0 0.0 0.0 
0.0 0.0 0.0 
0.0 0.0 0.0 
0.0 0.0 0.0 
0.0 0.0 0.0 
0.0 0.0 0.0 
0.0 0.0 0.0 
0.0 0.0 0.0 
0.0 0.0 0.0 
0.0 0.0 0.0 
0.0 0.0 0.0 
0.0 0.0 0.0 
0.0 0.0 0.0 
0.0 0.0 0.0 
0.0 0.0 0.0 
0.0 0.0 0.0 
0.0 0.0 0.0 
0.0 0.0 0.0 
0.0 0.0 0.0 
0.0 0.0 0.0 
0.0 0.0 0.0 
0.0 0.0 0.0 
0.0 0.0 0.0 
0.0 0.0 0.0 
0.0 0.0 0.0 
0.0 0.0 0.0 
0.0 0.0 0.0 
0.0 0.0 0.0 
0.0 0.0 0.0 
0.0 0.0 0.0 
0.0 0.0 0.0 
0.0 0.0 0.0 
0.0 0.0 0.0 
0.0 0.0 0.0 
0.0 0.0 0.0 
0.0 0.0 0.0 
0.0 0.0 0.0 
0.0 0.0 0.0 
0.0 0.0 0.0 
0.0 0.0 0.0 
0.0 0.0 0.0 
0.0 0.0 0.0 
0.0 0.0 0.0 
0.0 0.0 0.0 
0.0 0.0 0.0 
0.0 0.0 0.0 
0.0 0.0 0.0 
0.0 0.0 0.0 
0.0 0.0 0.0 
0.0 0.0 0.0 
0.0 0.0 0.0 
0.0 0.0 0.0 
0.0 0.0 0.0 
0.0 0.0 0.0 
0.0 0.0 0.0 
0.0 0.0 0.0 
0.0 0.0 0.0 
0.0 0.0 0.0 
0.0 0.0 0.0 
0.0 0.0 0.0 
0.0 0.0 0.0 
0.0 0.0 0.0 
0.0 0.0 0.0 
0.0 0.0 0.0 
0.0 0.0 0.0 
0.0 0.0 0.0 
0.0 0.0 0.0 
0.0 0.0 0.0 
0.0 0.0 0.0 
0.0 0.0 0.0 
0.0 0.0 0.0 
0.0 0.0 0.0 
0.0 0.0 0.0 
0.0 0.0 0.0 
0.0 0.0 0.0 
0.0 0.0 0.0 
0.0 0.0 0.0 
0.0 0.0 0.0 
0.0 0.0 0.0 
0.0 0.0 0.0 
0.0 0.0 0.0 
0.0 0.0 0.0 
0.0 0.0 0.0 
0.0 0.0 0.0 
0.0 0.0 0.0 
0.0 0.0 0.0 
0.0 0.0 0.0 
0.0 0.0 0.0 
0.0 0.0 0.0 
0.0 0.0 0.0 
0.0 0.0 0.0 
0.0 0.0 0.0 
0.0 0.0 0.0 
0.0 0.0 0.0 
0.0 0.0 0.0 
0.0 0.0 0.0 
0.0 0.0 0.0 
0.0 0.0 0.0 
0.0 0.0 0.0 
0.0 0.0 0.0 
0.0 0.0 0.0 
0.0 0.0 0.0 
0.0 0.0 0.0 
0.0 0.0 0.0 
0.0 0.0 0.0 
0.0 0.0 0.0 
0.0 0.0 0.0 
0.0 0.0 0.0 
0.0 0.0 0.0 
0.0 0.0 0.0 
0.0 0.0 0.0 
0.0 0.0 0.0 
0.0 0.0 0.0 
0.0 0.0 0.0 
0.0 0.0 0.0 
0.0 0.0 0.0 
0.0 0.0 0.0 
0.0 0.0 0.0 
0.0 0.0 0.0 
0.0 0.0 0.0 
0.0 0.0 0.0 
0.0 0.0 0.0 
0.0 0.0 0.0 
0.0 0.0 0.0 
0.0 0.0 0.0 
0.0 0.0 0.0 
0.0 0.0 0.0 
0.0 0.0 0.0 
0.0 0.0 0.0 
0.0 0.0 0.0 
0.0 0.0 0.0 
0.0 0.0 0.0 
0.0 0.0 0.0 
0.0 0.0 0.0 
0.0 0.0 0.0 
0.0 0.0 0.0 
0.0 0.0 0.0 
0.0 0.0 0.0 
0.0 0.0 0.0 
0.0 0.0 0.0 
0.0 0.0 0.0 
0.0 0.0 0.0 
0.0 0.0 0.0 
0.0 0.0 0.0 
0.0 0.0 0.0 
0.0 0.0 0.0 
0.0 0.0 0.0 
0.0 0.0 0.0 
0.0 0.0 0.0 
0.0 0.0 0.0 
0.0 0.0 0.0 
0.0 0.0 0.0 
0.0 0.0 0.0 
0.0 0.0 0.0 
0.0 0.0 0.0 
0.0 0.0 0.0 
0.0 0.0 0.0 
0.0 0.0 0.0 
0.0 0.0 0.0 
0.0 0.0 0.0 
0.0 0.0 0.0 
0.0 0.0 0.0 
0.0 0.0 0.0 
0.0 0.0 0.0 
0.0 0.0 0.0 
0.0 0.0 0.0 
0.0 0.0 0.0 
0.0 0.0 0.0 
0.0 0.0 0.0 
0.0 0.0 0.0 
0.0 0.0 0.0 
0.0 0.0 0.0 
0.0 0.0 0.0 
0.0 0.0 0.0 
0.0 0.0 0.0 
0.0 0.0 0.0 
0.0 0.0 0.0 
0.0 0.0 0.0 
0.0 0.0 0.0 
0.0 0.0 0.0 
0.0 0.0 0.0 
0.0 0.0 0.0 
0.0 0.0 0.0 
0.0 0.0 0.0 
0.0 0.0 0.0 
0.0 0.0 0.0 
0.0 0.0 0.0 
0.0 0.0 0.0 
0.0 0.0 0.0 
0.0 0.0 0.0 
0.0 0.0 0.0 
0.0 0.0 0.0 
0.0 0.0 0.0 
0.0 0.0 0.0 
0.0 0.0 0.0 
0.0 0.0 0.0 
0.0 0.0 0.0 
0.0 0.0 0.0 
0.0 0.0 0.0 
0.0 0.0 0.0 
0.0 0.0 0.0 
0.0 0.0 0.0 
0.0 0.0 0.0 
0.0 0.0 0.0 
0.0 0.0 0.0 
0.0 0.0 0.0 
0.0 0.0 0.0 
0.0 0.0 0.0 
0.0 0.0 0.0 
0.0 0.0 0.0 
0.0 0.0 0.0 
0.0 0.0 0.0 
0.0 0.0 0.0 
0.0 0.0 0.0 
0.0 0.0 0.0 
0.0 0.0 0.0 
0.0 0.0 0.0 
0.0 0.0 0.0 
0.0 0.0 0.0 
0.0 0.0 0.0 
0.0 0.0 0.0 
0.0 0.0 0.0 
0.0 0.0 0.0 
0.0 0.0 0.0 
0.0 0.0 0.0 
0.0 0.0 0.0 
0.0 0.0 0.0 
0.0 0.0 0.0 
0.0 0.0 0.0 
0.0 0.0 0.0 
0.0 0.0 0.0 
0.0 0.0 0.0 
0.0 0.0 0.0 
0.0 0.0 0.0 
0.0 0.0 0.0 
0.0 0.0 0.0 
0.0 0.0 0.0 
0.0 0.0 0.0 
0.0 0.0 0.0 
0.0 0.0 0.0 
0.0 0.0 0.0 
0.0 0.0 0.0 
0.0 0.0 0.0 
0.0 0.0 0.0 
0.0 0.0 0.0 
0.0 0.0 0.0 
0.0 0.0 0.0 
0.0 0.0 0.0 
0.0 0.0 0.0 
0.0 0.0 0.0 
0.0 0.0 0.0 
0.0 0.0 0.0 
0.0 0.0 0.0 
0.0 0.0 0.0 
0.0 0.0 0.0 
0.0 0.0 0.0 
0.0 0.0 0.0 
0.0 0.0 0.0 
0.0 0.0 0.0 
0.0 0.0 0.0 
0.0 0.0 0.0 
0.0 0.0 0.0 
0.0 0.0 0.0 
0.0 0.0 0.0 
0.0 0.0 0.0 
0.0 0.0 0.0 
0.0 0.0 0.0 
0.0 0.0 0.0 
0.0 0.0 0.0 
0.0 0.0 0.0 
0.0 0.0 0.0 
0.0 0.0 0.0 
0.0 0.0 0.0 
0.0 0.0 0.0 
0.0 0.0 0.0 
0.0 0.0 0.0 
0.0 0.0 0.0 
0.0 0.0 0.0 
0.0 0.0 0.0 
0.0 0.0 0.0 
0.0 0.0 0.0 
0.0 0.0 0.0 
0.0 0.0 0.0 
0.0 0.0 0.0 
0.0 0.0 0.0 
0.0 0.0 0.0 
0.0 0.0 0.0 
0.0 0.0 0.0 
0.0 0.0 0.0 
0.0 0.0 0.0 
0.0 0.0 0.0 
0.0 0.0 0.0 
0.0 0.0 0.0 
0.0 0.0 0.0 
0.0 0.0 0.0 
0.0 0.0 0.0 
0.0 0.0 0.0 
0.0 0.0 0.0 
0.0 0.0 0.0 
0.0 0.0 0.0 
0.0 0.0 0.0 
0.0 0.0 0.0 
0.0 0.0 0.0 
0.0 0.0 0.0 
0.0 0.0 0.0 
0.0 0.0 0.0 
0.0 0.0 0.0 
0.0 0.0 0.0 
0.0 0.0 0.0 
0.0 0.0 0.0 
0.0 0.0 0.0 
0.0 0.0 0.0 
0.0 0.0 0.0 
0.0 0.0 0.0 
0.0 0.0 0.0 
0.0 0.0 0.0 
0.0 0.0 0.0 
0.0 0.0 0.0 
0.0 0.0 0.0 
0.0 0.0 0.0 
0.0 0.0 0.0 
0.0 0.0 0.0 
0.0 0.0 0.0 
0.0 0.0 0.0 
0.0 0.0 0.0 
0.0 0.0 0.0 
0.0 0.0 0.0 
0.0 0.0 0.0 
0.0 0.0 0.0 
0.0 0.0 0.0 
0.0 0.0 0.0 
0.0 0.0 0.0 
0.0 0.0 0.0 
0.0 0.0 0.0 
0.0 0.0 0.0 
0.0 0.0 0.0 
0.0 0.0 0.0 
0.0 0.0 0.0 
0.0 0.0 0.0 
0.0 0.0 0.0 
0.0 0.0 0.0 
0.0 0.0 0.0 
0.0 0.0 0.0 
0.0 0.0 0.0 
0.0 0.0 0.0 
0.0 0.0 0.0 
0.0 0.0 0.0 
0.0 0.0 0.0 
0.0 0.0 0.0 
0.0 0.0 0.0 
0.0 0.0 0.0 
0.0 0.0 0.0 
0.0 0.0 0.0 
0.0 0.0 0.0 
0.0 0.0 0.0 
0.0 0.0 0.0 
0.0 0.0 0.0 
0.0 0.0 0.0 
0.0 0.0 0.0 
0.0 0.0 0.0 
0.0 0.0 0.0 
0.0 0.0 0.0 
0.0 0.0 0.0 
0.0 0.0 0.0 
0.0 0.0 0.0 
0.0 0.0 0.0 
0.0 0.0 0.0 
0.0 0.0 0.0 
0.0 0.0 0.0 
0.0 0.0 0.0 
0.0 0.0 0.0 
0.0 0.0 0.0 
0.0 0.0 0.0 
0.0 0.0 0.0 
0.0 0.0 0.0 
0.0 0.0 0.0 
0.0 0.0 0.0 
0.0 0.0 0.0 
0.0 0.0 0.0 
0.0 0.0 0.0 
0.0 0.0 0.0 
0.0 0.0 0.0 
0.0 0.0 0.0 
0.0 0.0 0.0 
0.0 0.0 0.0 
0.0 0.0 0.0 
0.0 0.0 0.0 
0.0 0.0 0.0 
0.0 0.0 0.0 
0.0 0.0 0.0 
0.0 0.0 0.0 
0.0 0.0 0.0 
0.0 0.0 0.0 
0.0 0.0 0.0 
0.0 0.0 0.0 
0.0 0.0 0.0 
0.0 0.0 0.0 
0.0 0.0 0.0 
0.0 0.0 0.0 
0.0 0.0 0.0 
0.0 0.0 0.0 
0.0 0.0 0.0 
0.0 0.0 0.0 
0.0 0.0 0.0 
0.0 0.0 0.0 
0.0 0.0 0.0 
0.0 0.0 0.0 
0.0 0.0 0.0 
0.0 0.0 0.0 
0.0 0.0 0.0 
0.0 0.0 0.0 
0.0 0.0 0.0 
0.0 0.0 0.0 
0.0 0.0 0.0 
0.0 0.0 0.0 
0.0 0.0 0.0 
0.0 0.0 0.0 
0.0 0.0 0.0 
0.0 0.0 0.0 
0.0 0.0 0.0 
0.0 0.0 0.0 
0.0 0.0 0.0 
0.0 0.0 0.0 
0.0 0.0 0.0 
0.0 0.0 0.0 
0.0 0.0 0.0 
0.0 0.0 0.0 
0.0 0.0 0.0 
0.0 0.0 0.0 
0.0 0.0 0.0 
0.0 0.0 0.0 
0.0 0.0 0.0 
0.0 0.0 0.0 
0.0 0.0 0.0 
0.0 0.0 0.0 
0.0 0.0 0.0 
0.0 0.0 0.0 
0.0 0.0 0.0 
0.0 0.0 0.0 
0.0 0.0 0.0 
0.0 0.0 0.0 
0.0 0.0 0.0 
0.0 0.0 0.0 
0.0 0.0 0.0 
0.0 0.0 0.0 
0.0 0.0 0.0 
0.0 0.0 0.0 
0.0 0.0 0.0 
0.0 0.0 0.0 
0.0 0.0 0.0 
0.0 0.0 0.0 
0.0 0.0 0.0 
0.0 0.0 0.0 
0.0 0.0 0.0 
0.0 0.0 0.0 
0.0 0.0 0.0 
0.0 0.0 0.0 
0.0 0.0 0.0 
0.0 0.0 0.0 
0.0 0.0 0.0 
0.0 0.0 0.0 
0.0 0.0 0.0 
0.0 0.0 0.0 
0.0 0.0 0.0 
0.0 0.0 0.0 
0.0 0.0 0.0 
0.0 0.0 0.0 
0.0 0.0 0.0 
0.0 0.0 0.0 
0.0 0.0 0.0 
0.0 0.0 0.0 
0.0 0.0 0.0 
0.0 0.0 0.0 
0.0 0.0 0.0 
0.0 0.0 0.0 
0.0 0.0 0.0 
0.0 0.0 0.0 
0.0 0.0 0.0 
0.0 0.0 0.0 
0.0 0.0 0.0 
0.0 0.0 0.0 
0.0 0.0 0.0 
0.0 0.0 0.0 
0.0 0.0 0.0 
0.0 0.0 0.0 
0.0 0.0 0.0 
0.0 0.0 0.0 
0.0 0.0 0.0 
0.0 0.0 0.0 
0.0 0.0 0.0 
0.0 0.0 0.0 
0.0 0.0 0.0 
0.0 0.0 0.0 
0.0 0.0 0.0 
0.0 0.0 0.0 
0.0 0.0 0.0 
0.0 0.0 0.0 
0.0 0.0 0.0 
0.0 0.0 0.0 
0.0 0.0 0.0 
0.0 0.0 0.0 
0.0 0.0 0.0 
0.0 0.0 0.0 
0.0 0.0 0.0 
0.0 0.0 0.0 
0.0 0.0 0.0 
0.0 0.0 0.0 
0.0 0.0 0.0 
0.0 0.0 0.0 
0.0 0.0 0.0 
0.0 0.0 0.0 
0.0 0.0 0.0 
0.0 0.0 0.0 
0.0 0.0 0.0 
0.0 0.0 0.0 
0.0 0.0 0.0 
0.0 0.0 0.0 
0.0 0.0 0.0 
0.0 0.0 0.0 
0.0 0.0 0.0 
0.0 0.0 0.0 
0.0 0.0 0.0 
0.0 0.0 0.0 
0.0 0.0 0.0 
0.0 0.0 0.0 
0.0 0.0 0.0 
0.0 0.0 0.0 
0.0 0.0 0.0 
0.0 0.0 0.0 
0.0 0.0 0.0 
0.0 0.0 0.0 
0.0 0.0 0.0 
0.0 0.0 0.0 
0.0 0.0 0.0 
0.0 0.0 0.0 
0.0 0.0 0.0 
0.0 0.0 0.0 
0.0 0.0 0.0 
0.0 0.0 0.0 
0.0 0.0 0.0 
0.0 0.0 0.0 
0.0 0.0 0.0 
0.0 0.0 0.0 
0.0 0.0 0.0 
0.0 0.0 0.0 
0.0 0.0 0.0 
0.0 0.0 0.0 
0.0 0.0 0.0 
0.0 0.0 0.0 
0.0 0.0 0.0 
0.0 0.0 0.0 
0.0 0.0 0.0 
0.0 0.0 0.0 
0.0 0.0 0.0 
0.0 0.0 0.0 
0.0 0.0 0.0 
0.0 0.0 0.0 
0.0 0.0 0.0 
0.0 0.0 0.0 
0.0 0.0 0.0 
0.0 0.0 0.0 
0.0 0.0 0.0 
0.0 0.0 0.0 
0.0 0.0 0.0 
0.0 0.0 0.0 
0.0 0.0 0.0 
0.0 0.0 0.0 
0.0 0.0 0.0 
0.0 0.0 0.0 
0.0 0.0 0.0 
0.0 0.0 0.0 
0.0 0.0 0.0 
0.0 0.0 0.0 
0.0 0.0 0.0 
0.0 0.0 0.0 
0.0 0.0 0.0 
0.0 0.0 0.0 
0.0 0.0 0.0 
0.0 0.0 0.0 
0.0 0.0 0.0 
0.0 0.0 0.0 
0.0 0.0 0.0 
0.0 0.0 0.0 
0.0 0.0 0.0 
0.0 0.0 0.0 
0.0 0.0 0.0 
0.0 0.0 0.0 
0.0 0.0 0.0 
0.0 0.0 0.0 
0.0 0.0 0.0 
0.0 0.0 0.0 
0.0 0.0 0.0 
0.0 0.0 0.0 
0.0 0.0 0.0 
0.0 0.0 0.0 
0.0 0.0 0.0 
0.0 0.0 0.0 
0.0 0.0 0.0 
0.0 0.0 0.0 
0.0 0.0 0.0 
0.0 0.0 0.0 
0.0 0.0 0.0 
0.0 0.0 0.0 
0.0 0.0 0.0 
0.0 0.0 0.0 
0.0 0.0 0.0 
0.0 0.0 0.0 
0.0 0.0 0.0 
0.0 0.0 0.0 
0.0 0.0 0.0 
0.0 0.0 0.0 
0.0 0.0 0.0 
0.0 0.0 0.0 
0.0 0.0 0.0 
0.0 0.0 0.0 
0.0 0.0 0.0 
0.0 0.0 0.0 
0.0 0.0 0.0 
0.0 0.0 0.0 
0.0 0.0 0.0 
0.0 0.0 0.0 
0.0 0.0 0.0 
0.0 0.0 0.0 
0.0 0.0 0.0 
0.0 0.0 0.0 
0.0 0.0 0.0 
0.0 0.0 0.0 
0.0 0.0 0.0 
0.0 0.0 0.0 
0.0 0.0 0.0 
0.0 0.0 0.0 
0.0 0.0 0.0 
0.0 0.0 0.0 
0.0 0.0 0.0 
0.0 0.0 0.0 
0.0 0.0 0.0 
0.0 0.0 0.0 
0.0 0.0 0.0 
0.0 0.0 0.0 
0.0 0.0 0.0 
0.0 0.0 0.0 
0.0 0.0 0.0 
0.0 0.0 0.0 
0.0 0.0 0.0 
0.0 0.0 0.0 
0.0 0.0 0.0 
0.0 0.0 0.0 
0.0 0.0 0.0 
0.0 0.0 0.0 
0.0 0.0 0.0 
0.0 0.0 0.0 
0.0 0.0 0.0 
0.0 0.0 0.0 
0.0 0.0 0.0 
0.0 0.0 0.0 
0.0 0.0 0.0 
0.0 0.0 0.0 
0.0 0.0 0.0 
0.0 0.0 0.0 
0.0 0.0 0.0 
0.0 0.0 0.0 
0.0 0.0 0.0 
0.0 0.0 0.0 
0.0 0.0 0.0 
0.0 0.0 0.0 
0.0 0.0 0.0 
0.0 0.0 0.0 
0.0 0.0 0.0 
0.0 0.0 0.0 
0.0 0.0 0.0 
0.0 0.0 0.0 
0.0 0.0 0.0 
0.0 0.0 0.0 
0.0 0.0 0.0 
0.0 0.0 0.0 
0.0 0.0 0.0 
0.0 0.0 0.0 
0.0 0.0 0.0 
0.0 0.0 0.0 
0.0 0.0 0.0 
0.0 0.0 0.0 
0.0 0.0 0.0 
0.0 0.0 0.0 
0.0 0.0 0.0 
0.0 0.0 0.0 
0.0 0.0 0.0 
0.0 0.0 0.0 
0.0 0.0 0.0 
0.0 0.0 0.0 
0.0 0.0 0.0 
0.0 0.0 0.0 
0.0 0.0 0.0 
0.0 0.0 0.0 
0.0 0.0 0.0 
0.0 0.0 0.0 
0.0 0.0 0.0 
0.0 0.0 0.0 
0.0 0.0 0.0 
0.0 0.0 0.0 
0.0 0.0 0.0 
0.0 0.0 0.0 
0.0 0.0 0.0 
0.0 0.0 0.0 
0.0 0.0 0.0 
0.0 0.0 0.0 
0.0 0.0 0.0 
0.0 0.0 0.0 
0.0 0.0 0.0 
0.0 0.0 0.0 
0.0 0.0 0.0 
0.0 0.0 0.0 
0.0 0.0 0.0 
0.0 0.0 0.0 
0.0 0.0 0.0 
0.0 0.0 0.0 
0.0 0.0 0.0 
0.0 0.0 0.0 
0.0 0.0 0.0 
0.0 0.0 0.0 
0.0 0.0 0.0 
0.0 0.0 0.0 
0.0 0.0 0.0 
0.0 0.0 0.0 
0.0 0.0 0.0 
0.0 0.0 0.0 
0.0 0.0 0.0 
0.0 0.0 0.0 
0.0 0.0 0.0 
0.0 0.0 0.0 
0.0 0.0 0.0 
0.0 0.0 0.0 
0.0 0.0 0.0 
0.0 0.0 0.0 
0.0 0.0 0.0 
0.0 0.0 0.0 
0.0 0.0 0.0 
0.0 0.0 0.0 
0.0 0.0 0.0 
0.0 0.0 0.0 
0.0 0.0 0.0 
0.0 0.0 0.0 
0.0 0.0 0.0 
0.0 0.0 0.0 
0.0 0.0 0.0 
0.0 0.0 0.0 
0.0 0.0 0.0 
0.0 0.0 0.0 
0.0 0.0 0.0 
0.0 0.0 0.0 
0.0 0.0 0.0 
0.0 0.0 0.0 
0.0 0.0 0.0 
0.0 0.0 0.0 
0.0 0.0 0.0 
0.0 0.0 0.0 
0.0 0.0 0.0 
0.0 0.0 0.0 

SCALARS node_boundary float
LOOKUP_TABLE default
1.000000000000e+00 
1.000000000000e+00 
1.000000000000e+00 
1.000000000000e+00 
1.000000000000e+00 
1.000000000000e+00 
1.000000000000e+00 
1.000000000000e+00 
1.000000000000e+00 
1.000000000000e+00 
1.000000000000e+00 
1.000000000000e+00 
1.000000000000e+00 
1.000000000000e+00 
1.000000000000e+00 
1.000000000000e+00 
1.000000000000e+00 
1.000000000000e+00 
1.000000000000e+00 
1.000000000000e+00 
1.000000000000e+00 
1.000000000000e+00 
1.000000000000e+00 
1.000000000000e+00 
1.000000000000e+00 
1.000000000000e+00 
1.000000000000e+00 
1.000000000000e+00 
1.000000000000e+00 
1.000000000000e+00 
1.000000000000e+00 
1.000000000000e+00 
1.000000000000e+00 
1.000000000000e+00 
1.000000000000e+00 
1.000000000000e+00 
1.000000000000e+00 
1.000000000000e+00 
1.000000000000e+00 
1.000000000000e+00 
1.000000000000e+00 
1.000000000000e+00 
1.000000000000e+00 
1.000000000000e+00 
1.000000000000e+00 
1.000000000000e+00 
1.000000000000e+00 
1.000000000000e+00 
1.000000000000e+00 
1.000000000000e+00 
1.000000000000e+00 
1.000000000000e+00 
1.000000000000e+00 
1.000000000000e+00 
1.000000000000e+00 
1.000000000000e+00 
1.000000000000e+00 
1.000000000000e+00 
1.000000000000e+00 
1.000000000000e+00 
1.000000000000e+00 
1.000000000000e+00 
1.000000000000e+00 
1.000000000000e+00 
1.000000000000e+00 
1.000000000000e+00 
1.000000000000e+00 
1.000000000000e+00 
1.000000000000e+00 
1.000000000000e+00 
1.000000000000e+00 
1.000000000000e+00 
1.000000000000e+00 
1.000000000000e+00 
1.000000000000e+00 
1.000000000000e+00 
1.000000000000e+00 
1.000000000000e+00 
1.000000000000e+00 
1.000000000000e+00 
1.000000000000e+00 
1.000000000000e+00 
0.0
1.000000000000e+00 
1.000000000000e+00 
1.000000000000e+00 
1.000000000000e+00 
0.0
0.0
0.0
0.0
0.0
1.000000000000e+00 
1.000000000000e+00 
1.000000000000e+00 
1.000000000000e+00 
1.000000000000e+00 
1.000000000000e+00 
0.0
0.0
0.0
0.0
0.0
0.0
0.0
0.0
0.0
0.0
0.0
0.0
0.0
0.0
1.000000000000e+00 
1.000000000000e+00 
1.000000000000e+00 
1.000000000000e+00 
1.000000000000e+00 
1.000000000000e+00 
1.000000000000e+00 
1.000000000000e+00 
1.000000000000e+00 
1.000000000000e+00 
1.000000000000e+00 
1.000000000000e+00 
1.000000000000e+00 
1.000000000000e+00 
1.000000000000e+00 
1.000000000000e+00 
1.000000000000e+00 
1.000000000000e+00 
1.000000000000e+00 
1.000000000000e+00 
1.000000000000e+00 
1.000000000000e+00 
1.000000000000e+00 
1.000000000000e+00 
1.000000000000e+00 
1.000000000000e+00 
1.000000000000e+00 
1.000000000000e+00 
1.000000000000e+00 
1.000000000000e+00 
1.000000000000e+00 
1.000000000000e+00 
1.000000000000e+00 
1.000000000000e+00 
1.000000000000e+00 
1.000000000000e+00 
1.000000000000e+00 
1.000000000000e+00 
1.000000000000e+00 
1.000000000000e+00 
1.000000000000e+00 
1.000000000000e+00 
0.0
0.0
0.0
0.0
0.0
0.0
0.0
0.0
0.0
0.0
0.0
0.0
0.0
0.0
0.0
0.0
0.0
0.0
0.0
0.0
0.0
0.0
0.0
0.0
0.0
0.0
0.0
0.0
0.0
0.0
0.0
0.0
0.0
0.0
0.0
0.0
0.0
0.0
0.0
0.0
0.0
0.0
0.0
0.0
0.0
0.0
0.0
0.0
0.0
0.0
0.0
0.0
0.0
0.0
0.0
0.0
0.0
0.0
0.0
0.0
0.0
0.0
0.0
0.0
0.0
0.0
0.0
0.0
0.0
0.0
0.0
0.0
0.0
0.0
0.0
0.0
0.0
0.0
0.0
0.0
0.0
0.0
0.0
0.0
0.0
0.0
0.0
0.0
0.0
0.0
0.0
0.0
0.0
0.0
1.000000000000e+00 
1.000000000000e+00 
1.000000000000e+00 
1.000000000000e+00 
0.0
0.0
0.0
0.0
0.0
0.0
0.0
0.0
0.0
0.0
0.0
0.0
0.0
0.0
0.0
0.0
0.0
0.0
0.0
0.0
0.0
0.0
0.0
0.0
0.0
0.0
0.0
0.0
0.0
0.0
0.0
0.0
0.0
0.0
0.0
0.0
0.0
0.0
0.0
0.0
0.0
0.0
0.0
0.0
0.0
0.0
0.0
0.0
0.0
0.0
0.0
0.0
0.0
0.0
0.0
0.0
0.0
0.0
0.0
0.0
0.0
0.0
0.0
0.0
0.0
0.0
0.0
0.0
0.0
0.0
0.0
0.0
0.0
0.0
0.0
0.0
0.0
0.0
0.0
0.0
0.0
0.0
0.0
0.0
0.0
0.0
0.0
0.0
0.0
0.0
0.0
0.0
0.0
0.0
0.0
0.0
0.0
0.0
0.0
0.0
0.0
0.0
0.0
0.0
0.0
0.0
0.0
0.0
0.0
0.0
0.0
0.0
0.0
0.0
0.0
0.0
0.0
0.0
0.0
0.0
0.0
0.0
0.0
0.0
0.0
0.0
0.0
0.0
0.0
0.0
0.0
0.0
0.0
0.0
0.0
0.0
0.0
0.0
0.0
0.0
0.0
0.0
0.0
0.0
0.0
0.0
0.0
0.0
0.0
0.0
0.0
0.0
0.0
0.0
0.0
0.0
0.0
0.0
0.0
0.0
0.0
0.0
0.0
0.0
0.0
0.0
0.0
0.0
0.0
0.0
0.0
0.0
0.0
0.0
0.0
0.0
0.0
0.0
0.0
0.0
0.0
0.0
0.0
0.0
0.0
0.0
0.0
0.0
0.0
0.0
0.0
0.0
0.0
0.0
0.0
0.0
0.0
0.0
0.0
0.0
0.0
0.0
0.0
0.0
0.0
0.0
0.0
0.0
0.0
0.0
0.0
0.0
0.0
0.0
0.0
0.0
0.0
0.0
0.0
0.0
0.0
0.0
0.0
0.0
0.0
0.0
0.0
0.0
0.0
0.0
0.0
0.0
0.0
0.0
0.0
0.0
0.0
0.0
0.0
0.0
0.0
0.0
0.0
0.0
0.0
0.0
0.0
0.0
0.0
0.0
0.0
0.0
0.0
0.0
0.0
0.0
0.0
0.0
0.0
0.0
0.0
0.0
0.0
0.0
0.0
0.0
0.0
0.0
0.0
0.0
0.0
0.0
0.0
0.0
0.0
0.0
0.0
0.0
0.0
0.0
0.0
0.0
0.0
0.0
0.0
0.0
0.0
0.0
0.0
0.0
0.0
0.0
0.0
0.0
0.0
0.0
0.0
0.0
0.0
0.0
0.0
0.0
0.0
0.0
0.0
0.0
0.0
0.0
0.0
0.0
0.0
0.0
0.0
0.0
0.0
0.0
0.0
0.0
0.0
0.0
0.0
0.0
0.0
0.0
0.0
0.0
0.0
0.0
0.0
0.0
0.0
0.0
0.0
0.0
0.0
0.0
0.0
0.0
0.0
0.0
0.0
0.0
0.0
0.0
0.0
0.0
0.0
0.0
0.0
0.0
0.0
0.0
0.0
0.0
0.0
0.0
0.0
0.0
0.0
0.0
0.0
0.0
0.0
0.0
0.0
0.0
0.0
0.0
0.0
0.0
0.0
0.0
0.0
0.0
0.0
0.0
0.0
0.0
0.0
0.0
0.0
0.0
0.0
0.0
0.0
0.0
0.0
0.0
0.0
0.0
0.0
0.0
0.0
0.0
0.0
0.0
0.0
0.0
0.0
0.0
0.0
0.0
0.0
0.0
0.0
0.0
0.0
0.0
0.0
0.0
0.0
0.0
0.0
0.0
0.0
0.0
0.0
0.0
0.0
0.0
0.0
0.0
0.0
0.0
0.0
0.0
0.0
0.0
0.0
0.0
0.0
0.0
0.0
0.0
0.0
0.0
0.0
0.0
0.0
0.0
0.0
0.0
0.0
0.0
0.0
0.0
0.0
0.0
0.0
0.0
0.0
0.0
0.0
0.0
0.0
0.0
0.0
0.0
0.0
0.0
0.0
0.0
0.0
0.0
0.0
0.0
0.0
0.0
0.0
0.0
0.0
0.0
0.0
0.0
0.0
0.0
0.0
0.0
0.0
0.0
0.0
0.0
0.0
0.0
0.0
0.0
0.0
0.0
0.0
0.0
0.0
0.0
0.0
0.0
0.0
0.0
0.0
0.0
0.0
0.0
0.0
0.0
0.0
0.0
0.0
0.0
0.0
0.0
0.0
0.0
0.0
0.0
0.0
0.0
0.0
0.0
0.0
0.0
0.0
0.0
0.0
0.0
0.0
0.0
0.0
0.0
0.0
0.0
0.0
0.0
0.0
0.0
0.0
0.0
0.0
0.0
0.0
0.0
0.0
0.0
0.0
0.0
0.0
0.0
0.0
0.0
0.0
0.0
0.0
0.0
0.0
0.0
0.0
0.0
0.0
0.0
0.0
0.0
0.0
0.0
0.0
0.0
0.0
0.0
0.0
0.0
0.0
0.0
0.0
0.0
0.0
0.0
0.0
0.0
0.0
0.0
0.0
0.0
0.0
0.0
0.0
0.0
0.0
0.0
0.0
0.0
0.0
0.0
0.0
0.0
0.0
0.0
0.0
0.0
0.0
0.0
0.0
0.0
0.0
0.0
0.0
0.0
0.0
0.0
0.0
0.0
0.0
0.0
0.0
0.0
0.0
0.0
0.0
0.0
0.0
0.0
0.0
0.0
0.0
0.0
0.0
0.0
0.0
0.0
0.0
0.0
0.0
0.0
0.0
0.0
0.0
0.0
0.0
0.0
0.0
0.0
0.0
0.0
0.0
0.0
0.0
0.0
0.0
0.0
0.0
0.0
0.0
0.0
0.0
0.0
0.0
0.0
0.0
0.0
0.0
0.0
0.0
0.0
0.0
0.0
0.0
0.0
0.0
0.0
0.0
0.0
0.0
0.0
0.0
0.0
0.0
0.0
0.0
0.0
0.0
0.0
0.0
0.0
0.0
0.0
0.0
0.0
0.0
0.0
0.0
0.0
0.0
0.0
0.0
0.0
0.0
0.0
0.0
0.0
0.0
0.0
0.0
0.0
0.0
0.0
0.0
0.0
0.0
0.0
0.0
0.0
0.0
0.0
0.0
0.0
0.0
0.0
0.0
0.0
0.0
0.0
0.0
0.0
0.0
0.0
0.0
0.0
0.0
0.0
0.0
0.0
0.0
0.0
0.0
0.0
0.0
0.0
0.0
0.0
0.0
0.0
0.0
0.0
0.0
0.0
0.0
0.0
0.0
0.0
0.0
0.0
0.0
0.0
0.0
0.0
0.0
0.0
0.0
0.0
0.0
0.0
0.0
0.0
0.0
0.0
0.0
0.0
0.0
0.0
0.0
0.0
0.0
0.0
0.0
0.0
0.0
0.0
0.0
0.0
0.0
0.0
0.0
0.0
0.0
0.0
0.0
0.0
0.0
0.0
0.0
0.0
0.0
0.0
0.0
0.0
0.0
0.0
0.0
0.0
0.0
0.0
0.0
0.0
0.0
0.0
0.0
0.0
0.0
0.0
0.0
0.0
0.0
0.0
0.0
0.0
0.0
0.0
0.0
0.0
0.0
0.0
0.0
0.0
0.0
0.0
0.0
0.0
0.0
0.0
0.0
0.0
0.0
0.0
0.0
0.0
0.0
0.0
0.0
0.0
0.0
0.0
0.0
0.0
0.0
0.0
0.0
0.0
0.0
0.0
0.0
0.0
0.0
0.0
0.0
0.0
0.0
0.0
0.0
0.0
0.0
0.0
0.0
0.0
0.0
0.0
0.0
0.0
0.0
0.0
0.0
0.0
0.0
0.0
0.0
0.0
0.0
0.0
0.0
0.0
0.0
0.0
0.0
0.0
0.0
0.0
0.0
0.0
0.0
0.0
0.0
0.0
0.0
0.0
0.0
0.0
0.0
0.0
0.0
0.0
0.0
0.0
0.0
0.0
0.0
0.0
0.0
0.0
0.0
0.0
0.0
0.0
0.0
0.0
0.0
0.0
0.0

VECTORS node_force_edge float
0.0 0.0 0.0 
0.0 0.0 0.0 
0.0 0.0 0.0 
0.0 0.0 0.0 
0.0 0.0 0.0 
0.0 0.0 0.0 
0.0 0.0 0.0 
0.0 0.0 0.0 
0.0 0.0 0.0 
0.0 0.0 0.0 
0.0 0.0 0.0 
0.0 0.0 0.0 
0.0 0.0 0.0 
0.0 0.0 0.0 
0.0 0.0 0.0 
0.0 0.0 0.0 
0.0 0.0 0.0 
0.0 0.0 0.0 
0.0 0.0 0.0 
0.0 0.0 0.0 
0.0 0.0 0.0 
0.0 0.0 0.0 
0.0 0.0 0.0 
0.0 0.0 0.0 
0.0 0.0 0.0 
0.0 0.0 0.0 
0.0 0.0 0.0 
0.0 0.0 0.0 
0.0 0.0 0.0 
0.0 0.0 0.0 
0.0 0.0 0.0 
0.0 0.0 0.0 
0.0 0.0 0.0 
0.0 0.0 0.0 
0.0 0.0 0.0 
0.0 0.0 0.0 
0.0 0.0 0.0 
0.0 0.0 0.0 
0.0 0.0 0.0 
0.0 0.0 0.0 
0.0 0.0 0.0 
0.0 0.0 0.0 
0.0 0.0 0.0 
0.0 0.0 0.0 
0.0 0.0 0.0 
0.0 0.0 0.0 
0.0 0.0 0.0 
0.0 0.0 0.0 
0.0 0.0 0.0 
0.0 0.0 0.0 
0.0 0.0 0.0 
0.0 0.0 0.0 
0.0 0.0 0.0 
0.0 0.0 0.0 
0.0 0.0 0.0 
0.0 0.0 0.0 
0.0 0.0 0.0 
0.0 0.0 0.0 
0.0 0.0 0.0 
0.0 0.0 0.0 
0.0 0.0 0.0 
0.0 0.0 0.0 
0.0 0.0 0.0 
0.0 0.0 0.0 
0.0 0.0 0.0 
0.0 0.0 0.0 
0.0 0.0 0.0 
0.0 0.0 0.0 
0.0 0.0 0.0 
0.0 0.0 0.0 
0.0 0.0 0.0 
0.0 0.0 0.0 
0.0 0.0 0.0 
0.0 0.0 0.0 
0.0 0.0 0.0 
0.0 0.0 0.0 
0.0 0.0 0.0 
0.0 0.0 0.0 
0.0 0.0 0.0 
0.0 0.0 0.0 
0.0 0.0 0.0 
0.0 -1.000000000000e+02 0.0 
0.0 0.0 0.0 
0.0 0.0 0.0 
0.0 0.0 0.0 
0.0 0.0 0.0 
0.0 0.0 0.0 
0.0 0.0 0.0 
0.0 0.0 0.0 
0.0 0.0 0.0 
0.0 0.0 0.0 
0.0 0.0 0.0 
0.0 0.0 0.0 
0.0 0.0 0.0 
0.0 0.0 0.0 
0.0 0.0 0.0 
0.0 0.0 0.0 
0.0 0.0 0.0 
0.0 0.0 0.0 
0.0 0.0 0.0 
0.0 0.0 0.0 
0.0 0.0 0.0 
0.0 0.0 0.0 
0.0 0.0 0.0 
0.0 0.0 0.0 
0.0 0.0 0.0 
0.0 0.0 0.0 
0.0 0.0 0.0 
0.0 0.0 0.0 
0.0 0.0 0.0 
0.0 0.0 0.0 
0.0 0.0 0.0 
0.0 -1.000000000000e+02 0.0 
0.0 -1.000000000000e+02 0.0 
0.0 -1.000000000000e+02 0.0 
0.0 -1.000000000000e+02 0.0 
0.0 -1.000000000000e+02 0.0 
0.0 0.0 0.0 
0.0 0.0 0.0 
0.0 0.0 0.0 
0.0 0.0 0.0 
0.0 0.0 0.0 
0.0 0.0 0.0 
0.0 0.0 0.0 
0.0 0.0 0.0 
0.0 0.0 0.0 
0.0 0.0 0.0 
0.0 0.0 0.0 
0.0 0.0 0.0 
0.0 0.0 0.0 
0.0 0.0 0.0 
0.0 0.0 0.0 
0.0 0.0 0.0 
0.0 0.0 0.0 
0.0 0.0 0.0 
0.0 0.0 0.0 
0.0 0.0 0.0 
0.0 0.0 0.0 
0.0 0.0 0.0 
0.0 0.0 0.0 
0.0 0.0 0.0 
0.0 0.0 0.0 
0.0 0.0 0.0 
0.0 0.0 0.0 
0.0 0.0 0.0 
0.0 0.0 0.0 
0.0 0.0 0.0 
0.0 0.0 0.0 
0.0 0.0 0.0 
0.0 0.0 0.0 
0.0 0.0 0.0 
0.0 0.0 0.0 
0.0 0.0 0.0 
0.0 0.0 0.0 
0.0 0.0 0.0 
0.0 0.0 0.0 
0.0 0.0 0.0 
0.0 0.0 0.0 
0.0 0.0 0.0 
0.0 0.0 0.0 
0.0 0.0 0.0 
0.0 0.0 0.0 
0.0 0.0 0.0 
0.0 0.0 0.0 
0.0 0.0 0.0 
0.0 0.0 0.0 
0.0 0.0 0.0 
0.0 0.0 0.0 
0.0 0.0 0.0 
0.0 0.0 0.0 
0.0 0.0 0.0 
0.0 0.0 0.0 
0.0 0.0 0.0 
0.0 0.0 0.0 
0.0 0.0 0.0 
0.0 0.0 0.0 
0.0 0.0 0.0 
0.0 0.0 0.0 
0.0 0.0 0.0 
0.0 0.0 0.0 
0.0 0.0 0.0 
0.0 0.0 0.0 
0.0 0.0 0.0 
0.0 0.0 0.0 
0.0 0.0 0.0 
0.0 0.0 0.0 
0.0 0.0 0.0 
0.0 0.0 0.0 
0.0 0.0 0.0 
0.0 0.0 0.0 
0.0 0.0 0.0 
0.0 0.0 0.0 
0.0 0.0 0.0 
0.0 0.0 0.0 
0.0 0.0 0.0 
0.0 0.0 0.0 
0.0 0.0 0.0 
0.0 0.0 0.0 
0.0 0.0 0.0 
0.0 0.0 0.0 
0.0 0.0 0.0 
0.0 0.0 0.0 
0.0 0.0 0.0 
0.0 0.0 0.0 
0.0 0.0 0.0 
0.0 0.0 0.0 
0.0 0.0 0.0 
0.0 0.0 0.0 
0.0 0.0 0.0 
0.0 0.0 0.0 
0.0 0.0 0.0 
0.0 0.0 0.0 
0.0 0.0 0.0 
0.0 0.0 0.0 
0.0 0.0 0.0 
0.0 0.0 0.0 
0.0 0.0 0.0 
0.0 0.0 0.0 
0.0 0.0 0.0 
0.0 0.0 0.0 
0.0 0.0 0.0 
0.0 0.0 0.0 
0.0 0.0 0.0 
0.0 0.0 0.0 
0.0 0.0 0.0 
0.0 0.0 0.0 
0.0 0.0 0.0 
0.0 0.0 0.0 
0.0 0.0 0.0 
0.0 0.0 0.0 
0.0 0.0 0.0 
0.0 0.0 0.0 
0.0 0.0 0.0 
0.0 0.0 0.0 
0.0 0.0 0.0 
0.0 0.0 0.0 
0.0 0.0 0.0 
0.0 0.0 0.0 
0.0 0.0 0.0 
0.0 0.0 0.0 
0.0 0.0 0.0 
0.0 0.0 0.0 
0.0 0.0 0.0 
0.0 0.0 0.0 
0.0 0.0 0.0 
0.0 0.0 0.0 
0.0 0.0 0.0 
0.0 0.0 0.0 
0.0 0.0 0.0 
0.0 0.0 0.0 
0.0 0.0 0.0 
0.0 0.0 0.0 
0.0 0.0 0.0 
0.0 0.0 0.0 
0.0 0.0 0.0 
0.0 0.0 0.0 
0.0 0.0 0.0 
0.0 0.0 0.0 
0.0 0.0 0.0 
0.0 0.0 0.0 
0.0 0.0 0.0 
0.0 0.0 0.0 
0.0 0.0 0.0 
0.0 0.0 0.0 
0.0 0.0 0.0 
0.0 0.0 0.0 
0.0 0.0 0.0 
0.0 0.0 0.0 
0.0 0.0 0.0 
0.0 0.0 0.0 
0.0 0.0 0.0 
0.0 0.0 0.0 
0.0 0.0 0.0 
0.0 0.0 0.0 
0.0 0.0 0.0 
0.0 0.0 0.0 
0.0 0.0 0.0 
0.0 0.0 0.0 
0.0 0.0 0.0 
0.0 0.0 0.0 
0.0 0.0 0.0 
0.0 0.0 0.0 
0.0 0.0 0.0 
0.0 0.0 0.0 
0.0 0.0 0.0 
0.0 0.0 0.0 
0.0 0.0 0.0 
0.0 0.0 0.0 
0.0 0.0 0.0 
0.0 0.0 0.0 
0.0 0.0 0.0 
0.0 0.0 0.0 
0.0 0.0 0.0 
0.0 0.0 0.0 
0.0 0.0 0.0 
0.0 0.0 0.0 
0.0 0.0 0.0 
0.0 0.0 0.0 
0.0 0.0 0.0 
0.0 0.0 0.0 
0.0 0.0 0.0 
0.0 0.0 0.0 
0.0 0.0 0.0 
0.0 0.0 0.0 
0.0 0.0 0.0 
0.0 0.0 0.0 
0.0 0.0 0.0 
0.0 0.0 0.0 
0.0 0.0 0.0 
0.0 0.0 0.0 
0.0 0.0 0.0 
0.0 0.0 0.0 
0.0 0.0 0.0 
0.0 0.0 0.0 
0.0 0.0 0.0 
0.0 0.0 0.0 
0.0 0.0 0.0 
0.0 0.0 0.0 
0.0 0.0 0.0 
0.0 0.0 0.0 
0.0 0.0 0.0 
0.0 0.0 0.0 
0.0 0.0 0.0 
0.0 0.0 0.0 
0.0 0.0 0.0 
0.0 0.0 0.0 
0.0 0.0 0.0 
0.0 0.0 0.0 
0.0 0.0 0.0 
0.0 0.0 0.0 
0.0 0.0 0.0 
0.0 0.0 0.0 
0.0 0.0 0.0 
0.0 0.0 0.0 
0.0 0.0 0.0 
0.0 0.0 0.0 
0.0 0.0 0.0 
0.0 0.0 0.0 
0.0 0.0 0.0 
0.0 0.0 0.0 
0.0 0.0 0.0 
0.0 0.0 0.0 
0.0 0.0 0.0 
0.0 0.0 0.0 
0.0 0.0 0.0 
0.0 0.0 0.0 
0.0 0.0 0.0 
0.0 0.0 0.0 
0.0 0.0 0.0 
0.0 0.0 0.0 
0.0 0.0 0.0 
0.0 0.0 0.0 
0.0 0.0 0.0 
0.0 0.0 0.0 
0.0 0.0 0.0 
0.0 0.0 0.0 
0.0 0.0 0.0 
0.0 0.0 0.0 
0.0 0.0 0.0 
0.0 0.0 0.0 
0.0 0.0 0.0 
0.0 0.0 0.0 
0.0 0.0 0.0 
0.0 0.0 0.0 
0.0 0.0 0.0 
0.0 0.0 0.0 
0.0 0.0 0.0 
0.0 0.0 0.0 
0.0 0.0 0.0 
0.0 0.0 0.0 
0.0 0.0 0.0 
0.0 0.0 0.0 
0.0 0.0 0.0 
0.0 0.0 0.0 
0.0 0.0 0.0 
0.0 0.0 0.0 
0.0 0.0 0.0 
0.0 0.0 0.0 
0.0 0.0 0.0 
0.0 0.0 0.0 
0.0 0.0 0.0 
0.0 0.0 0.0 
0.0 0.0 0.0 
0.0 0.0 0.0 
0.0 0.0 0.0 
0.0 0.0 0.0 
0.0 0.0 0.0 
0.0 0.0 0.0 
0.0 0.0 0.0 
0.0 0.0 0.0 
0.0 0.0 0.0 
0.0 0.0 0.0 
0.0 0.0 0.0 
0.0 0.0 0.0 
0.0 0.0 0.0 
0.0 0.0 0.0 
0.0 0.0 0.0 
0.0 0.0 0.0 
0.0 0.0 0.0 
0.0 0.0 0.0 
0.0 0.0 0.0 
0.0 0.0 0.0 
0.0 0.0 0.0 
0.0 0.0 0.0 
0.0 0.0 0.0 
0.0 0.0 0.0 
0.0 0.0 0.0 
0.0 0.0 0.0 
0.0 0.0 0.0 
0.0 0.0 0.0 
0.0 0.0 0.0 
0.0 0.0 0.0 
0.0 0.0 0.0 
0.0 0.0 0.0 
0.0 0.0 0.0 
0.0 0.0 0.0 
0.0 0.0 0.0 
0.0 0.0 0.0 
0.0 0.0 0.0 
0.0 0.0 0.0 
0.0 0.0 0.0 
0.0 0.0 0.0 
0.0 0.0 0.0 
0.0 0.0 0.0 
0.0 0.0 0.0 
0.0 0.0 0.0 
0.0 0.0 0.0 
0.0 0.0 0.0 
0.0 0.0 0.0 
0.0 0.0 0.0 
0.0 0.0 0.0 
0.0 0.0 0.0 
0.0 0.0 0.0 
0.0 0.0 0.0 
0.0 0.0 0.0 
0.0 0.0 0.0 
0.0 0.0 0.0 
0.0 0.0 0.0 
0.0 0.0 0.0 
0.0 0.0 0.0 
0.0 0.0 0.0 
0.0 0.0 0.0 
0.0 0.0 0.0 
0.0 0.0 0.0 
0.0 0.0 0.0 
0.0 0.0 0.0 
0.0 0.0 0.0 
0.0 0.0 0.0 
0.0 0.0 0.0 
0.0 0.0 0.0 
0.0 0.0 0.0 
0.0 0.0 0.0 
0.0 0.0 0.0 
0.0 0.0 0.0 
0.0 0.0 0.0 
0.0 0.0 0.0 
0.0 0.0 0.0 
0.0 0.0 0.0 
0.0 0.0 0.0 
0.0 0.0 0.0 
0.0 0.0 0.0 
0.0 0.0 0.0 
0.0 0.0 0.0 
0.0 0.0 0.0 
0.0 0.0 0.0 
0.0 0.0 0.0 
0.0 0.0 0.0 
0.0 0.0 0.0 
0.0 0.0 0.0 
0.0 0.0 0.0 
0.0 0.0 0.0 
0.0 0.0 0.0 
0.0 0.0 0.0 
0.0 0.0 0.0 
0.0 0.0 0.0 
0.0 0.0 0.0 
0.0 0.0 0.0 
0.0 0.0 0.0 
0.0 0.0 0.0 
0.0 0.0 0.0 
0.0 0.0 0.0 
0.0 0.0 0.0 
0.0 0.0 0.0 
0.0 0.0 0.0 
0.0 0.0 0.0 
0.0 0.0 0.0 
0.0 0.0 0.0 
0.0 0.0 0.0 
0.0 0.0 0.0 
0.0 0.0 0.0 
0.0 0.0 0.0 
0.0 0.0 0.0 
0.0 0.0 0.0 
0.0 0.0 0.0 
0.0 0.0 0.0 
0.0 0.0 0.0 
0.0 0.0 0.0 
0.0 0.0 0.0 
0.0 0.0 0.0 
0.0 0.0 0.0 
0.0 0.0 0.0 
0.0 0.0 0.0 
0.0 0.0 0.0 
0.0 0.0 0.0 
0.0 0.0 0.0 
0.0 0.0 0.0 
0.0 0.0 0.0 
0.0 0.0 0.0 
0.0 0.0 0.0 
0.0 0.0 0.0 
0.0 0.0 0.0 
0.0 0.0 0.0 
0.0 0.0 0.0 
0.0 0.0 0.0 
0.0 0.0 0.0 
0.0 0.0 0.0 
0.0 0.0 0.0 
0.0 0.0 0.0 
0.0 0.0 0.0 
0.0 0.0 0.0 
0.0 0.0 0.0 
0.0 0.0 0.0 
0.0 0.0 0.0 
0.0 0.0 0.0 
0.0 0.0 0.0 
0.0 0.0 0.0 
0.0 0.0 0.0 
0.0 0.0 0.0 
0.0 0.0 0.0 
0.0 0.0 0.0 
0.0 0.0 0.0 
0.0 0.0 0.0 
0.0 0.0 0.0 
0.0 0.0 0.0 
0.0 0.0 0.0 
0.0 0.0 0.0 
0.0 0.0 0.0 
0.0 0.0 0.0 
0.0 0.0 0.0 
0.0 0.0 0.0 
0.0 0.0 0.0 
0.0 0.0 0.0 
0.0 0.0 0.0 
0.0 0.0 0.0 
0.0 0.0 0.0 
0.0 0.0 0.0 
0.0 0.0 0.0 
0.0 0.0 0.0 
0.0 0.0 0.0 
0.0 0.0 0.0 
0.0 0.0 0.0 
0.0 0.0 0.0 
0.0 0.0 0.0 
0.0 0.0 0.0 
0.0 0.0 0.0 
0.0 0.0 0.0 
0.0 0.0 0.0 
0.0 0.0 0.0 
0.0 0.0 0.0 
0.0 0.0 0.0 
0.0 0.0 0.0 
0.0 0.0 0.0 
0.0 0.0 0.0 
0.0 0.0 0.0 
0.0 0.0 0.0 
0.0 0.0 0.0 
0.0 0.0 0.0 
0.0 0.0 0.0 
0.0 0.0 0.0 
0.0 0.0 0.0 
0.0 0.0 0.0 
0.0 0.0 0.0 
0.0 0.0 0.0 
0.0 0.0 0.0 
0.0 0.0 0.0 
0.0 0.0 0.0 
0.0 0.0 0.0 
0.0 0.0 0.0 
0.0 0.0 0.0 
0.0 0.0 0.0 
0.0 0.0 0.0 
0.0 0.0 0.0 
0.0 0.0 0.0 
0.0 0.0 0.0 
0.0 0.0 0.0 
0.0 0.0 0.0 
0.0 0.0 0.0 
0.0 0.0 0.0 
0.0 0.0 0.0 
0.0 0.0 0.0 
0.0 0.0 0.0 
0.0 0.0 0.0 
0.0 0.0 0.0 
0.0 0.0 0.0 
0.0 0.0 0.0 
0.0 0.0 0.0 
0.0 0.0 0.0 
0.0 0.0 0.0 
0.0 0.0 0.0 
0.0 0.0 0.0 
0.0 0.0 0.0 
0.0 0.0 0.0 
0.0 0.0 0.0 
0.0 0.0 0.0 
0.0 0.0 0.0 
0.0 0.0 0.0 
0.0 0.0 0.0 
0.0 0.0 0.0 
0.0 0.0 0.0 
0.0 0.0 0.0 
0.0 0.0 0.0 
0.0 0.0 0.0 
0.0 0.0 0.0 
0.0 0.0 0.0 
0.0 0.0 0.0 
0.0 0.0 0.0 
0.0 0.0 0.0 
0.0 0.0 0.0 
0.0 0.0 0.0 
0.0 0.0 0.0 
0.0 0.0 0.0 
0.0 0.0 0.0 
0.0 0.0 0.0 
0.0 0.0 0.0 
0.0 0.0 0.0 
0.0 0.0 0.0 
0.0 0.0 0.0 
0.0 0.0 0.0 
0.0 0.0 0.0 
0.0 0.0 0.0 
0.0 0.0 0.0 
0.0 0.0 0.0 
0.0 0.0 0.0 
0.0 0.0 0.0 
0.0 0.0 0.0 
0.0 0.0 0.0 
0.0 0.0 0.0 
0.0 0.0 0.0 
0.0 0.0 0.0 
0.0 0.0 0.0 
0.0 0.0 0.0 
0.0 0.0 0.0 
0.0 0.0 0.0 
0.0 0.0 0.0 
0.0 0.0 0.0 
0.0 0.0 0.0 
0.0 0.0 0.0 
0.0 0.0 0.0 
0.0 0.0 0.0 
0.0 0.0 0.0 
0.0 0.0 0.0 
0.0 0.0 0.0 
0.0 0.0 0.0 
0.0 0.0 0.0 
0.0 0.0 0.0 
0.0 0.0 0.0 
0.0 0.0 0.0 
0.0 0.0 0.0 
0.0 0.0 0.0 
0.0 0.0 0.0 
0.0 0.0 0.0 
0.0 0.0 0.0 
0.0 0.0 0.0 
0.0 0.0 0.0 
0.0 0.0 0.0 
0.0 0.0 0.0 
0.0 0.0 0.0 
0.0 0.0 0.0 
0.0 0.0 0.0 
0.0 0.0 0.0 
0.0 0.0 0.0 
0.0 0.0 0.0 
0.0 0.0 0.0 
0.0 0.0 0.0 
0.0 0.0 0.0 
0.0 0.0 0.0 
0.0 0.0 0.0 
0.0 0.0 0.0 
0.0 0.0 0.0 
0.0 0.0 0.0 
0.0 0.0 0.0 
0.0 0.0 0.0 
0.0 0.0 0.0 
0.0 0.0 0.0 
0.0 0.0 0.0 
0.0 0.0 0.0 
0.0 0.0 0.0 
0.0 0.0 0.0 
0.0 0.0 0.0 
0.0 0.0 0.0 
0.0 0.0 0.0 
0.0 0.0 0.0 
0.0 0.0 0.0 
0.0 0.0 0.0 
0.0 0.0 0.0 
0.0 0.0 0.0 
0.0 0.0 0.0 
0.0 0.0 0.0 
0.0 0.0 0.0 
0.0 0.0 0.0 
0.0 0.0 0.0 
0.0 0.0 0.0 
0.0 0.0 0.0 
0.0 0.0 0.0 
0.0 0.0 0.0 
0.0 0.0 0.0 
0.0 0.0 0.0 
0.0 0.0 0.0 
0.0 0.0 0.0 
0.0 0.0 0.0 
0.0 0.0 0.0 
0.0 0.0 0.0 
0.0 0.0 0.0 
0.0 0.0 0.0 
0.0 0.0 0.0 
0.0 0.0 0.0 
0.0 0.0 0.0 
0.0 0.0 0.0 
0.0 0.0 0.0 
0.0 0.0 0.0 
0.0 0.0 0.0 
0.0 0.0 0.0 
0.0 0.0 0.0 
0.0 0.0 0.0 
0.0 0.0 0.0 
0.0 0.0 0.0 
0.0 0.0 0.0 
0.0 0.0 0.0 
0.0 0.0 0.0 
0.0 0.0 0.0 
0.0 0.0 0.0 
0.0 0.0 0.0 
0.0 0.0 0.0 
0.0 0.0 0.0 
0.0 0.0 0.0 
0.0 0.0 0.0 
0.0 0.0 0.0 
0.0 0.0 0.0 
0.0 0.0 0.0 
0.0 0.0 0.0 
0.0 0.0 0.0 
0.0 0.0 0.0 
0.0 0.0 0.0 
0.0 0.0 0.0 
0.0 0.0 0.0 
0.0 0.0 0.0 
0.0 0.0 0.0 
0.0 0.0 0.0 
0.0 0.0 0.0 
0.0 0.0 0.0 
0.0 0.0 0.0 
0.0 0.0 0.0 
0.0 0.0 0.0 
0.0 0.0 0.0 
0.0 0.0 0.0 
0.0 0.0 0.0 
0.0 0.0 0.0 
0.0 0.0 0.0 
0.0 0.0 0.0 
0.0 0.0 0.0 
0.0 0.0 0.0 
0.0 0.0 0.0 
0.0 0.0 0.0 
0.0 0.0 0.0 
0.0 0.0 0.0 
0.0 0.0 0.0 
0.0 0.0 0.0 
0.0 0.0 0.0 
0.0 0.0 0.0 
0.0 0.0 0.0 
0.0 0.0 0.0 
0.0 0.0 0.0 
0.0 0.0 0.0 
0.0 0.0 0.0 
0.0 0.0 0.0 
0.0 0.0 0.0 
0.0 0.0 0.0 
0.0 0.0 0.0 
0.0 0.0 0.0 
0.0 0.0 0.0 
0.0 0.0 0.0 
0.0 0.0 0.0 
0.0 0.0 0.0 
0.0 0.0 0.0 
0.0 0.0 0.0 
0.0 0.0 0.0 
0.0 0.0 0.0 
0.0 0.0 0.0 
0.0 0.0 0.0 
0.0 0.0 0.0 
0.0 0.0 0.0 
0.0 0.0 0.0 
0.0 0.0 0.0 
0.0 0.0 0.0 
0.0 0.0 0.0 
0.0 0.0 0.0 
0.0 0.0 0.0 
0.0 0.0 0.0 
0.0 0.0 0.0 
0.0 0.0 0.0 
0.0 0.0 0.0 
0.0 0.0 0.0 
0.0 0.0 0.0 
0.0 0.0 0.0 
0.0 0.0 0.0 
0.0 0.0 0.0 
0.0 0.0 0.0 
0.0 0.0 0.0 
0.0 0.0 0.0 
0.0 0.0 0.0 
0.0 0.0 0.0 
0.0 0.0 0.0 
0.0 0.0 0.0 
0.0 0.0 0.0 
0.0 0.0 0.0 
0.0 0.0 0.0 
0.0 0.0 0.0 
0.0 0.0 0.0 
0.0 0.0 0.0 
0.0 0.0 0.0 
0.0 0.0 0.0 
0.0 0.0 0.0 
0.0 0.0 0.0 
0.0 0.0 0.0 
0.0 0.0 0.0 
0.0 0.0 0.0 
0.0 0.0 0.0 
0.0 0.0 0.0 
0.0 0.0 0.0 
0.0 0.0 0.0 
0.0 0.0 0.0 
0.0 0.0 0.0 
0.0 0.0 0.0 
0.0 0.0 0.0 
0.0 0.0 0.0 
0.0 0.0 0.0 
0.0 0.0 0.0 
0.0 0.0 0.0 
0.0 0.0 0.0 
0.0 0.0 0.0 
0.0 0.0 0.0 
0.0 0.0 0.0 
0.0 0.0 0.0 
0.0 0.0 0.0 
0.0 0.0 0.0 
0.0 0.0 0.0 
0.0 0.0 0.0 
0.0 0.0 0.0 
0.0 0.0 0.0 
0.0 0.0 0.0 
0.0 0.0 0.0 
0.0 0.0 0.0 
0.0 0.0 0.0 
0.0 0.0 0.0 
0.0 0.0 0.0 
0.0 0.0 0.0 
0.0 0.0 0.0 
0.0 0.0 0.0 
0.0 0.0 0.0 
0.0 0.0 0.0 
0.0 0.0 0.0 
0.0 0.0 0.0 
0.0 0.0 0.0 
0.0 0.0 0.0 
0.0 0.0 0.0 
0.0 0.0 0.0 
0.0 0.0 0.0 
0.0 0.0 0.0 
0.0 0.0 0.0 
0.0 0.0 0.0 
0.0 0.0 0.0 
0.0 0.0 0.0 
0.0 0.0 0.0 
0.0 0.0 0.0 
0.0 0.0 0.0 
0.0 0.0 0.0 
0.0 0.0 0.0 
0.0 0.0 0.0 
0.0 0.0 0.0 
0.0 0.0 0.0 
0.0 0.0 0.0 
0.0 0.0 0.0 
0.0 0.0 0.0 
0.0 0.0 0.0 
0.0 0.0 0.0 
0.0 0.0 0.0 
0.0 0.0 0.0 
0.0 0.0 0.0 
0.0 0.0 0.0 
0.0 0.0 0.0 
0.0 0.0 0.0 
0.0 0.0 0.0 
0.0 0.0 0.0 
0.0 0.0 0.0 
0.0 0.0 0.0 
0.0 0.0 0.0 
0.0 0.0 0.0 
0.0 0.0 0.0 
0.0 0.0 0.0 
0.0 0.0 0.0 
0.0 0.0 0.0 
0.0 0.0 0.0 
0.0 0.0 0.0 
0.0 0.0 0.0 
0.0 0.0 0.0 
0.0 0.0 0.0 
0.0 0.0 0.0 
0.0 0.0 0.0 
0.0 0.0 0.0 
0.0 0.0 0.0 
0.0 0.0 0.0 
0.0 0.0 0.0 
0.0 0.0 0.0 
0.0 0.0 0.0 
0.0 0.0 0.0 
0.0 0.0 0.0 
0.0 0.0 0.0 
0.0 0.0 0.0 
0.0 0.0 0.0 
0.0 0.0 0.0 
0.0 0.0 0.0 
0.0 0.0 0.0 
0.0 0.0 0.0 
0.0 0.0 0.0 
0.0 0.0 0.0 
0.0 0.0 0.0 
0.0 0.0 0.0 
0.0 0.0 0.0 
0.0 0.0 0.0 
0.0 0.0 0.0 
0.0 0.0 0.0 
0.0 0.0 0.0 
0.0 0.0 0.0 
0.0 0.0 0.0 
0.0 0.0 0.0 
0.0 0.0 0.0 
0.0 0.0 0.0 
0.0 0.0 0.0 
0.0 0.0 0.0 
0.0 0.0 0.0 
0.0 0.0 0.0 
0.0 0.0 0.0 
0.0 0.0 0.0 
0.0 0.0 0.0 
0.0 0.0 0.0 
0.0 0.0 0.0 
0.0 0.0 0.0 
0.0 0.0 0.0 
0.0 0.0 0.0 
0.0 0.0 0.0 
0.0 0.0 0.0 
0.0 0.0 0.0 
0.0 0.0 0.0 
0.0 0.0 0.0 
0.0 0.0 0.0 
0.0 0.0 0.0 
0.0 0.0 0.0 
0.0 0.0 0.0 
0.0 0.0 0.0 
0.0 0.0 0.0 
0.0 0.0 0.0 
0.0 0.0 0.0 
0.0 0.0 0.0 
0.0 0.0 0.0 
0.0 0.0 0.0 
0.0 0.0 0.0 
0.0 0.0 0.0 
0.0 0.0 0.0 
0.0 0.0 0.0 
0.0 0.0 0.0 
0.0 0.0 0.0 
0.0 0.0 0.0 
0.0 0.0 0.0 
0.0 0.0 0.0 
0.0 0.0 0.0 
0.0 0.0 0.0 
0.0 0.0 0.0 
0.0 0.0 0.0 
0.0 0.0 0.0 
0.0 0.0 0.0 
0.0 0.0 0.0 
0.0 0.0 0.0 
0.0 0.0 0.0 
0.0 0.0 0.0 
0.0 0.0 0.0 
0.0 0.0 0.0 
0.0 0.0 0.0 
0.0 0.0 0.0 
0.0 0.0 0.0 
0.0 0.0 0.0 
0.0 0.0 0.0 
0.0 0.0 0.0 
0.0 0.0 0.0 
0.0 0.0 0.0 
0.0 0.0 0.0 
0.0 0.0 0.0 
0.0 0.0 0.0 
0.0 0.0 0.0 
0.0 0.0 0.0 
0.0 0.0 0.0 
0.0 0.0 0.0 
0.0 0.0 0.0 
0.0 0.0 0.0 
0.0 0.0 0.0 
0.0 0.0 0.0 
0.0 0.0 0.0 
0.0 0.0 0.0 
0.0 0.0 0.0 
0.0 0.0 0.0 
0.0 0.0 0.0 
0.0 0.0 0.0 
0.0 0.0 0.0 
0.0 0.0 0.0 
0.0 0.0 0.0 
0.0 0.0 0.0 
0.0 0.0 0.0 
0.0 0.0 0.0 
0.0 0.0 0.0 
0.0 0.0 0.0 
0.0 0.0 0.0 
0.0 0.0 0.0 
0.0 0.0 0.0 
0.0 0.0 0.0 
0.0 0.0 0.0 
0.0 0.0 0.0 
0.0 0.0 0.0 
0.0 0.0 0.0 
0.0 0.0 0.0 
0.0 0.0 0.0 
0.0 0.0 0.0 
0.0 0.0 0.0 
0.0 0.0 0.0 
0.0 0.0 0.0 
0.0 0.0 0.0 
0.0 0.0 0.0 
0.0 0.0 0.0 
0.0 0.0 0.0 
0.0 0.0 0.0 
0.0 0.0 0.0 
0.0 0.0 0.0 
0.0 0.0 0.0 
0.0 0.0 0.0 
0.0 0.0 0.0 
0.0 0.0 0.0 
0.0 0.0 0.0 
0.0 0.0 0.0 
0.0 0.0 0.0 
0.0 0.0 0.0 
0.0 0.0 0.0 
0.0 0.0 0.0 
0.0 0.0 0.0 
0.0 0.0 0.0 
0.0 0.0 0.0 
0.0 0.0 0.0 
0.0 0.0 0.0 
0.0 0.0 0.0 
0.0 0.0 0.0 
0.0 0.0 0.0 
0.0 0.0 0.0 
0.0 0.0 0.0 
0.0 0.0 0.0 
0.0 0.0 0.0 
0.0 0.0 0.0 
0.0 0.0 0.0 
0.0 0.0 0.0 
0.0 0.0 0.0 
0.0 0.0 0.0 
0.0 0.0 0.0 
0.0 0.0 0.0 
0.0 0.0 0.0 
0.0 0.0 0.0 
0.0 0.0 0.0 
0.0 0.0 0.0 
0.0 0.0 0.0 
0.0 0.0 0.0 
0.0 0.0 0.0 
0.0 0.0 0.0 
0.0 0.0 0.0 
0.0 0.0 0.0 
0.0 0.0 0.0 
0.0 0.0 0.0 
0.0 0.0 0.0 
0.0 0.0 0.0 
0.0 0.0 0.0 
0.0 0.0 0.0 
0.0 0.0 0.0 
0.0 0.0 0.0 
0.0 0.0 0.0 
0.0 0.0 0.0 
0.0 0.0 0.0 
0.0 0.0 0.0 
0.0 0.0 0.0 
0.0 0.0 0.0 
0.0 0.0 0.0 
0.0 0.0 0.0 
0.0 0.0 0.0 
0.0 0.0 0.0 
0.0 0.0 0.0 
0.0 0.0 0.0 
0.0 0.0 0.0 
0.0 0.0 0.0 
0.0 0.0 0.0 
0.0 0.0 0.0 
0.0 0.0 0.0 
0.0 0.0 0.0 
0.0 0.0 0.0 
0.0 0.0 0.0 
0.0 0.0 0.0 
0.0 0.0 0.0 
0.0 0.0 0.0 
0.0 0.0 0.0 
0.0 0.0 0.0 
0.0 0.0 0.0 
0.0 0.0 0.0 
0.0 0.0 0.0 
0.0 0.0 0.0 
0.0 0.0 0.0 
0.0 0.0 0.0 
0.0 0.0 0.0 
0.0 0.0 0.0 
0.0 0.0 0.0 
0.0 0.0 0.0 
0.0 0.0 0.0 
0.0 0.0 0.0 
0.0 0.0 0.0 
0.0 0.0 0.0 
0.0 0.0 0.0 
0.0 0.0 0.0 
0.0 0.0 0.0 
0.0 0.0 0.0 
0.0 0.0 0.0 
0.0 0.0 0.0 
0.0 0.0 0.0 
0.0 0.0 0.0 
0.0 0.0 0.0 
0.0 0.0 0.0 
0.0 0.0 0.0 
0.0 0.0 0.0 
0.0 0.0 0.0 
0.0 0.0 0.0 
0.0 0.0 0.0 
0.0 0.0 0.0 
0.0 0.0 0.0 
0.0 0.0 0.0 
0.0 0.0 0.0 
0.0 0.0 0.0 
0.0 0.0 0.0 
0.0 0.0 0.0 
0.0 0.0 0.0 
0.0 0.0 0.0 
0.0 0.0 0.0 
0.0 0.0 0.0 
0.0 0.0 0.0 
0.0 0.0 0.0 
0.0 0.0 0.0 
0.0 0.0 0.0 
0.0 0.0 0.0 
0.0 0.0 0.0 
0.0 0.0 0.0 
0.0 0.0 0.0 
0.0 0.0 0.0 
0.0 0.0 0.0 
0.0 0.0 0.0 

VECTORS node_force_gravity float
0.0 -1.962000000000e+01 0.0 
0.0 -1.962000000000e+01 0.0 
0.0 -1.962000000000e+01 0.0 
0.0 -1.962000000000e+01 0.0 
0.0 -1.962000000000e+01 0.0 
0.0 -1.962000000000e+01 0.0 
0.0 -1.962000000000e+01 0.0 
0.0 -1.962000000000e+01 0.0 
0.0 -1.962000000000e+01 0.0 
0.0 -1.962000000000e+01 0.0 
0.0 -1.962000000000e+01 0.0 
0.0 -1.962000000000e+01 0.0 
0.0 -1.962000000000e+01 0.0 
0.0 -1.962000000000e+01 0.0 
0.0 -1.962000000000e+01 0.0 
0.0 -1.962000000000e+01 0.0 
0.0 -1.962000000000e+01 0.0 
0.0 -1.962000000000e+01 0.0 
0.0 -1.962000000000e+01 0.0 
0.0 -1.962000000000e+01 0.0 
0.0 -1.962000000000e+01 0.0 
0.0 -1.962000000000e+01 0.0 
0.0 -1.962000000000e+01 0.0 
0.0 -1.962000000000e+01 0.0 
0.0 -1.962000000000e+01 0.0 
0.0 -1.962000000000e+01 0.0 
0.0 -1.962000000000e+01 0.0 
0.0 -1.962000000000e+01 0.0 
0.0 -1.962000000000e+01 0.0 
0.0 -1.962000000000e+01 0.0 
0.0 -1.962000000000e+01 0.0 
0.0 -1.962000000000e+01 0.0 
0.0 -1.962000000000e+01 0.0 
0.0 -1.962000000000e+01 0.0 
0.0 -1.962000000000e+01 0.0 
0.0 -1.962000000000e+01 0.0 
0.0 -1.962000000000e+01 0.0 
0.0 -1.962000000000e+01 0.0 
0.0 -1.962000000000e+01 0.0 
0.0 -1.962000000000e+01 0.0 
0.0 -1.962000000000e+01 0.0 
0.0 -1.962000000000e+01 0.0 
0.0 -1.962000000000e+01 0.0 
0.0 -1.962000000000e+01 0.0 
0.0 -1.962000000000e+01 0.0 
0.0 -1.962000000000e+01 0.0 
0.0 -1.962000000000e+01 0.0 
0.0 -1.962000000000e+01 0.0 
0.0 -1.962000000000e+01 0.0 
0.0 -1.962000000000e+01 0.0 
0.0 -1.962000000000e+01 0.0 
0.0 -1.962000000000e+01 0.0 
0.0 -1.962000000000e+01 0.0 
0.0 -1.962000000000e+01 0.0 
0.0 -1.962000000000e+01 0.0 
0.0 -1.962000000000e+01 0.0 
0.0 -1.962000000000e+01 0.0 
0.0 -1.962000000000e+01 0.0 
0.0 -1.962000000000e+01 0.0 
0.0 -1.962000000000e+01 0.0 
0.0 -1.962000000000e+01 0.0 
0.0 -1.962000000000e+01 0.0 
0.0 -1.962000000000e+01 0.0 
0.0 -1.962000000000e+01 0.0 
0.0 -1.962000000000e+01 0.0 
0.0 -1.962000000000e+01 0.0 
0.0 -1.962000000000e+01 0.0 
0.0 -1.962000000000e+01 0.0 
0.0 -1.962000000000e+01 0.0 
0.0 -1.962000000000e+01 0.0 
0.0 -1.962000000000e+01 0.0 
0.0 -1.962000000000e+01 0.0 
0.0 -1.962000000000e+01 0.0 
0.0 -1.962000000000e+01 0.0 
0.0 -1.962000000000e+01 0.0 
0.0 -1.962000000000e+01 0.0 
0.0 -1.962000000000e+01 0.0 
0.0 -1.962000000000e+01 0.0 
0.0 -1.962000000000e+01 0.0 
0.0 -1.962000000000e+01 0.0 
0.0 -1.962000000000e+01 0.0 
0.0 -1.962000000000e+01 0.0 
0.0 -1.962000000000e+01 0.0 
0.0 -1.962000000000e+01 0.0 
0.0 -1.962000000000e+01 0.0 
0.0 -1.962000000000e+01 0.0 
0.0 -1.962000000000e+01 0.0 
0.0 -1.962000000000e+01 0.0 
0.0 -1.962000000000e+01 0.0 
0.0 -1.962000000000e+01 0.0 
0.0 -1.962000000000e+01 0.0 
0.0 -1.962000000000e+01 0.0 
0.0 -1.962000000000e+01 0.0 
0.0 -1.962000000000e+01 0.0 
0.0 -1.962000000000e+01 0.0 
0.0 -1.962000000000e+01 0.0 
0.0 -1.962000000000e+01 0.0 
0.0 -1.962000000000e+01 0.0 
0.0 -1.962000000000e+01 0.0 
0.0 -1.962000000000e+01 0.0 
0.0 -1.962000000000e+01 0.0 
0.0 -1.962000000000e+01 0.0 
0.0 -1.962000000000e+01 0.0 
0.0 -1.962000000000e+01 0.0 
0.0 -1.962000000000e+01 0.0 
0.0 -1.962000000000e+01 0.0 
0.0 -1.962000000000e+01 0.0 
0.0 -1.962000000000e+01 0.0 
0.0 -1.962000000000e+01 0.0 
0.0 -1.962000000000e+01 0.0 
0.0 -1.962000000000e+01 0.0 
0.0 -1.962000000000e+01 0.0 
0.0 -1.962000000000e+01 0.0 
0.0 -1.962000000000e+01 0.0 
0.0 -1.962000000000e+01 0.0 
0.0 -1.962000000000e+01 0.0 
0.0 -1.962000000000e+01 0.0 
0.0 -1.962000000000e+01 0.0 
0.0 -1.962000000000e+01 0.0 
0.0 -1.962000000000e+01 0.0 
0.0 -1.962000000000e+01 0.0 
0.0 -1.962000000000e+01 0.0 
0.0 -1.962000000000e+01 0.0 
0.0 -1.962000000000e+01 0.0 
0.0 -1.962000000000e+01 0.0 
0.0 -1.962000000000e+01 0.0 
0.0 -1.962000000000e+01 0.0 
0.0 -1.962000000000e+01 0.0 
0.0 -1.962000000000e+01 0.0 
0.0 -1.962000000000e+01 0.0 
0.0 -1.962000000000e+01 0.0 
0.0 -1.962000000000e+01 0.0 
0.0 -1.962000000000e+01 0.0 
0.0 -1.962000000000e+01 0.0 
0.0 -1.962000000000e+01 0.0 
0.0 -1.962000000000e+01 0.0 
0.0 -1.962000000000e+01 0.0 
0.0 -1.962000000000e+01 0.0 
0.0 -1.962000000000e+01 0.0 
0.0 -1.962000000000e+01 0.0 
0.0 -1.962000000000e+01 0.0 
0.0 -1.962000000000e+01 0.0 
0.0 -1.962000000000e+01 0.0 
0.0 -1.962000000000e+01 0.0 
0.0 -1.962000000000e+01 0.0 
0.0 -1.962000000000e+01 0.0 
0.0 -1.962000000000e+01 0.0 
0.0 -1.962000000000e+01 0.0 
0.0 -1.962000000000e+01 0.0 
0.0 -1.962000000000e+01 0.0 
0.0 -1.962000000000e+01 0.0 
0.0 -1.962000000000e+01 0.0 
0.0 -1.962000000000e+01 0.0 
0.0 -1.962000000000e+01 0.0 
0.0 -1.962000000000e+01 0.0 
0.0 -1.962000000000e+01 0.0 
0.0 -1.962000000000e+01 0.0 
0.0 -1.962000000000e+01 0.0 
0.0 -1.962000000000e+01 0.0 
0.0 -1.962000000000e+01 0.0 
0.0 -1.962000000000e+01 0.0 
0.0 -1.962000000000e+01 0.0 
0.0 -1.962000000000e+01 0.0 
0.0 -1.962000000000e+01 0.0 
0.0 -1.962000000000e+01 0.0 
0.0 -1.962000000000e+01 0.0 
0.0 -1.962000000000e+01 0.0 
0.0 -1.962000000000e+01 0.0 
0.0 -1.962000000000e+01 0.0 
0.0 -1.962000000000e+01 0.0 
0.0 -1.962000000000e+01 0.0 
0.0 -1.962000000000e+01 0.0 
0.0 -1.962000000000e+01 0.0 
0.0 -1.962000000000e+01 0.0 
0.0 -1.962000000000e+01 0.0 
0.0 -1.962000000000e+01 0.0 
0.0 -1.962000000000e+01 0.0 
0.0 -1.962000000000e+01 0.0 
0.0 -1.962000000000e+01 0.0 
0.0 -1.962000000000e+01 0.0 
0.0 -1.962000000000e+01 0.0 
0.0 -1.962000000000e+01 0.0 
0.0 -1.962000000000e+01 0.0 
0.0 -1.962000000000e+01 0.0 
0.0 -1.962000000000e+01 0.0 
0.0 -1.962000000000e+01 0.0 
0.0 -1.962000000000e+01 0.0 
0.0 -1.962000000000e+01 0.0 
0.0 -1.962000000000e+01 0.0 
0.0 -1.962000000000e+01 0.0 
0.0 -1.962000000000e+01 0.0 
0.0 -1.962000000000e+01 0.0 
0.0 -1.962000000000e+01 0.0 
0.0 -1.962000000000e+01 0.0 
0.0 -1.962000000000e+01 0.0 
0.0 -1.962000000000e+01 0.0 
0.0 -1.962000000000e+01 0.0 
0.0 -1.962000000000e+01 0.0 
0.0 -1.962000000000e+01 0.0 
0.0 -1.962000000000e+01 0.0 
0.0 -1.962000000000e+01 0.0 
0.0 -1.962000000000e+01 0.0 
0.0 -1.962000000000e+01 0.0 
0.0 -1.962000000000e+01 0.0 
0.0 -1.962000000000e+01 0.0 
0.0 -1.962000000000e+01 0.0 
0.0 -1.962000000000e+01 0.0 
0.0 -1.962000000000e+01 0.0 
0.0 -1.962000000000e+01 0.0 
0.0 -1.962000000000e+01 0.0 
0.0 -1.962000000000e+01 0.0 
0.0 -1.962000000000e+01 0.0 
0.0 -1.962000000000e+01 0.0 
0.0 -1.962000000000e+01 0.0 
0.0 -1.962000000000e+01 0.0 
0.0 -1.962000000000e+01 0.0 
0.0 -1.962000000000e+01 0.0 
0.0 -1.962000000000e+01 0.0 
0.0 -1.962000000000e+01 0.0 
0.0 -1.962000000000e+01 0.0 
0.0 -1.962000000000e+01 0.0 
0.0 -1.962000000000e+01 0.0 
0.0 -1.962000000000e+01 0.0 
0.0 -1.962000000000e+01 0.0 
0.0 -1.962000000000e+01 0.0 
0.0 -1.962000000000e+01 0.0 
0.0 -1.962000000000e+01 0.0 
0.0 -1.962000000000e+01 0.0 
0.0 -1.962000000000e+01 0.0 
0.0 -1.962000000000e+01 0.0 
0.0 -1.962000000000e+01 0.0 
0.0 -1.962000000000e+01 0.0 
0.0 -1.962000000000e+01 0.0 
0.0 -1.962000000000e+01 0.0 
0.0 -1.962000000000e+01 0.0 
0.0 -1.962000000000e+01 0.0 
0.0 -1.962000000000e+01 0.0 
0.0 -1.962000000000e+01 0.0 
0.0 -1.962000000000e+01 0.0 
0.0 -1.962000000000e+01 0.0 
0.0 -1.962000000000e+01 0.0 
0.0 -1.962000000000e+01 0.0 
0.0 -1.962000000000e+01 0.0 
0.0 -1.962000000000e+01 0.0 
0.0 -1.962000000000e+01 0.0 
0.0 -1.962000000000e+01 0.0 
0.0 -1.962000000000e+01 0.0 
0.0 -1.962000000000e+01 0.0 
0.0 -1.962000000000e+01 0.0 
0.0 -1.962000000000e+01 0.0 
0.0 -1.962000000000e+01 0.0 
0.0 -1.962000000000e+01 0.0 
0.0 -1.962000000000e+01 0.0 
0.0 -1.962000000000e+01 0.0 
0.0 -1.962000000000e+01 0.0 
0.0 -1.962000000000e+01 0.0 
0.0 -1.962000000000e+01 0.0 
0.0 -1.962000000000e+01 0.0 
0.0 -1.962000000000e+01 0.0 
0.0 -1.962000000000e+01 0.0 
0.0 -1.962000000000e+01 0.0 
0.0 -1.962000000000e+01 0.0 
0.0 -1.962000000000e+01 0.0 
0.0 -1.962000000000e+01 0.0 
0.0 -1.962000000000e+01 0.0 
0.0 -1.962000000000e+01 0.0 
0.0 -1.962000000000e+01 0.0 
0.0 -1.962000000000e+01 0.0 
0.0 -1.962000000000e+01 0.0 
0.0 -1.962000000000e+01 0.0 
0.0 -1.962000000000e+01 0.0 
0.0 -1.962000000000e+01 0.0 
0.0 -1.962000000000e+01 0.0 
0.0 -1.962000000000e+01 0.0 
0.0 -1.962000000000e+01 0.0 
0.0 -1.962000000000e+01 0.0 
0.0 -1.962000000000e+01 0.0 
0.0 -1.962000000000e+01 0.0 
0.0 -1.962000000000e+01 0.0 
0.0 -1.962000000000e+01 0.0 
0.0 -1.962000000000e+01 0.0 
0.0 -1.962000000000e+01 0.0 
0.0 -1.962000000000e+01 0.0 
0.0 -1.962000000000e+01 0.0 
0.0 -1.962000000000e+01 0.0 
0.0 -1.962000000000e+01 0.0 
0.0 -1.962000000000e+01 0.0 
0.0 -1.962000000000e+01 0.0 
0.0 -1.962000000000e+01 0.0 
0.0 -1.962000000000e+01 0.0 
0.0 -1.962000000000e+01 0.0 
0.0 -1.962000000000e+01 0.0 
0.0 -1.962000000000e+01 0.0 
0.0 -1.962000000000e+01 0.0 
0.0 -1.962000000000e+01 0.0 
0.0 -1.962000000000e+01 0.0 
0.0 -1.962000000000e+01 0.0 
0.0 -1.962000000000e+01 0.0 
0.0 -1.962000000000e+01 0.0 
0.0 -1.962000000000e+01 0.0 
0.0 -1.962000000000e+01 0.0 
0.0 -1.962000000000e+01 0.0 
0.0 -1.962000000000e+01 0.0 
0.0 -1.962000000000e+01 0.0 
0.0 -1.962000000000e+01 0.0 
0.0 -1.962000000000e+01 0.0 
0.0 -1.962000000000e+01 0.0 
0.0 -1.962000000000e+01 0.0 
0.0 -1.962000000000e+01 0.0 
0.0 -1.962000000000e+01 0.0 
0.0 -1.962000000000e+01 0.0 
0.0 -1.962000000000e+01 0.0 
0.0 -1.962000000000e+01 0.0 
0.0 -1.962000000000e+01 0.0 
0.0 -1.962000000000e+01 0.0 
0.0 -1.962000000000e+01 0.0 
0.0 -1.962000000000e+01 0.0 
0.0 -1.962000000000e+01 0.0 
0.0 -1.962000000000e+01 0.0 
0.0 -1.962000000000e+01 0.0 
0.0 -1.962000000000e+01 0.0 
0.0 -1.962000000000e+01 0.0 
0.0 -1.962000000000e+01 0.0 
0.0 -1.962000000000e+01 0.0 
0.0 -1.962000000000e+01 0.0 
0.0 -1.962000000000e+01 0.0 
0.0 -1.962000000000e+01 0.0 
0.0 -1.962000000000e+01 0.0 
0.0 -1.962000000000e+01 0.0 
0.0 -1.962000000000e+01 0.0 
0.0 -1.962000000000e+01 0.0 
0.0 -1.962000000000e+01 0.0 
0.0 -1.962000000000e+01 0.0 
0.0 -1.962000000000e+01 0.0 
0.0 -1.962000000000e+01 0.0 
0.0 -1.962000000000e+01 0.0 
0.0 -1.962000000000e+01 0.0 
0.0 -1.962000000000e+01 0.0 
0.0 -1.962000000000e+01 0.0 
0.0 -1.962000000000e+01 0.0 
0.0 -1.962000000000e+01 0.0 
0.0 -1.962000000000e+01 0.0 
0.0 -1.962000000000e+01 0.0 
0.0 -1.962000000000e+01 0.0 
0.0 -1.962000000000e+01 0.0 
0.0 -1.962000000000e+01 0.0 
0.0 -1.962000000000e+01 0.0 
0.0 -1.962000000000e+01 0.0 
0.0 -1.962000000000e+01 0.0 
0.0 -1.962000000000e+01 0.0 
0.0 -1.962000000000e+01 0.0 
0.0 -1.962000000000e+01 0.0 
0.0 -1.962000000000e+01 0.0 
0.0 -1.962000000000e+01 0.0 
0.0 -1.962000000000e+01 0.0 
0.0 -1.962000000000e+01 0.0 
0.0 -1.962000000000e+01 0.0 
0.0 -1.962000000000e+01 0.0 
0.0 -1.962000000000e+01 0.0 
0.0 -1.962000000000e+01 0.0 
0.0 -1.962000000000e+01 0.0 
0.0 -1.962000000000e+01 0.0 
0.0 -1.962000000000e+01 0.0 
0.0 -1.962000000000e+01 0.0 
0.0 -1.962000000000e+01 0.0 
0.0 -1.962000000000e+01 0.0 
0.0 -1.962000000000e+01 0.0 
0.0 -1.962000000000e+01 0.0 
0.0 -1.962000000000e+01 0.0 
0.0 -1.962000000000e+01 0.0 
0.0 -1.962000000000e+01 0.0 
0.0 -1.962000000000e+01 0.0 
0.0 -1.962000000000e+01 0.0 
0.0 -1.962000000000e+01 0.0 
0.0 -1.962000000000e+01 0.0 
0.0 -1.962000000000e+01 0.0 
0.0 -1.962000000000e+01 0.0 
0.0 -1.962000000000e+01 0.0 
0.0 -1.962000000000e+01 0.0 
0.0 -1.962000000000e+01 0.0 
0.0 -1.962000000000e+01 0.0 
0.0 -1.962000000000e+01 0.0 
0.0 -1.962000000000e+01 0.0 
0.0 -1.962000000000e+01 0.0 
0.0 -1.962000000000e+01 0.0 
0.0 -1.962000000000e+01 0.0 
0.0 -1.962000000000e+01 0.0 
0.0 -1.962000000000e+01 0.0 
0.0 -1.962000000000e+01 0.0 
0.0 -1.962000000000e+01 0.0 
0.0 -1.962000000000e+01 0.0 
0.0 -1.962000000000e+01 0.0 
0.0 -1.962000000000e+01 0.0 
0.0 -1.962000000000e+01 0.0 
0.0 -1.962000000000e+01 0.0 
0.0 -1.962000000000e+01 0.0 
0.0 -1.962000000000e+01 0.0 
0.0 -1.962000000000e+01 0.0 
0.0 -1.962000000000e+01 0.0 
0.0 -1.962000000000e+01 0.0 
0.0 -1.962000000000e+01 0.0 
0.0 -1.962000000000e+01 0.0 
0.0 -1.962000000000e+01 0.0 
0.0 -1.962000000000e+01 0.0 
0.0 -1.962000000000e+01 0.0 
0.0 -1.962000000000e+01 0.0 
0.0 -1.962000000000e+01 0.0 
0.0 -1.962000000000e+01 0.0 
0.0 -1.962000000000e+01 0.0 
0.0 -1.962000000000e+01 0.0 
0.0 -1.962000000000e+01 0.0 
0.0 -1.962000000000e+01 0.0 
0.0 -1.962000000000e+01 0.0 
0.0 -1.962000000000e+01 0.0 
0.0 -1.962000000000e+01 0.0 
0.0 -1.962000000000e+01 0.0 
0.0 -1.962000000000e+01 0.0 
0.0 -1.962000000000e+01 0.0 
0.0 -1.962000000000e+01 0.0 
0.0 -1.962000000000e+01 0.0 
0.0 -1.962000000000e+01 0.0 
0.0 -1.962000000000e+01 0.0 
0.0 -1.962000000000e+01 0.0 
0.0 -1.962000000000e+01 0.0 
0.0 -1.962000000000e+01 0.0 
0.0 -1.962000000000e+01 0.0 
0.0 -1.962000000000e+01 0.0 
0.0 -1.962000000000e+01 0.0 
0.0 -1.962000000000e+01 0.0 
0.0 -1.962000000000e+01 0.0 
0.0 -1.962000000000e+01 0.0 
0.0 -1.962000000000e+01 0.0 
0.0 -1.962000000000e+01 0.0 
0.0 -1.962000000000e+01 0.0 
0.0 -1.962000000000e+01 0.0 
0.0 -1.962000000000e+01 0.0 
0.0 -1.962000000000e+01 0.0 
0.0 -1.962000000000e+01 0.0 
0.0 -1.962000000000e+01 0.0 
0.0 -1.962000000000e+01 0.0 
0.0 -1.962000000000e+01 0.0 
0.0 -1.962000000000e+01 0.0 
0.0 -1.962000000000e+01 0.0 
0.0 -1.962000000000e+01 0.0 
0.0 -1.962000000000e+01 0.0 
0.0 -1.962000000000e+01 0.0 
0.0 -1.962000000000e+01 0.0 
0.0 -1.962000000000e+01 0.0 
0.0 -1.962000000000e+01 0.0 
0.0 -1.962000000000e+01 0.0 
0.0 -1.962000000000e+01 0.0 
0.0 -1.962000000000e+01 0.0 
0.0 -1.962000000000e+01 0.0 
0.0 -1.962000000000e+01 0.0 
0.0 -1.962000000000e+01 0.0 
0.0 -1.962000000000e+01 0.0 
0.0 -1.962000000000e+01 0.0 
0.0 -1.962000000000e+01 0.0 
0.0 -1.962000000000e+01 0.0 
0.0 -1.962000000000e+01 0.0 
0.0 -1.962000000000e+01 0.0 
0.0 -1.962000000000e+01 0.0 
0.0 -1.962000000000e+01 0.0 
0.0 -1.962000000000e+01 0.0 
0.0 -1.962000000000e+01 0.0 
0.0 -1.962000000000e+01 0.0 
0.0 -1.962000000000e+01 0.0 
0.0 -1.962000000000e+01 0.0 
0.0 -1.962000000000e+01 0.0 
0.0 -1.962000000000e+01 0.0 
0.0 -1.962000000000e+01 0.0 
0.0 -1.962000000000e+01 0.0 
0.0 -1.962000000000e+01 0.0 
0.0 -1.962000000000e+01 0.0 
0.0 -1.962000000000e+01 0.0 
0.0 -1.962000000000e+01 0.0 
0.0 -1.962000000000e+01 0.0 
0.0 -1.962000000000e+01 0.0 
0.0 -1.962000000000e+01 0.0 
0.0 -1.962000000000e+01 0.0 
0.0 -1.962000000000e+01 0.0 
0.0 -1.962000000000e+01 0.0 
0.0 -1.962000000000e+01 0.0 
0.0 -1.962000000000e+01 0.0 
0.0 -1.962000000000e+01 0.0 
0.0 -1.962000000000e+01 0.0 
0.0 -1.962000000000e+01 0.0 
0.0 -1.962000000000e+01 0.0 
0.0 -1.962000000000e+01 0.0 
0.0 -1.962000000000e+01 0.0 
0.0 -1.962000000000e+01 0.0 
0.0 -1.962000000000e+01 0.0 
0.0 -1.962000000000e+01 0.0 
0.0 -1.962000000000e+01 0.0 
0.0 -1.962000000000e+01 0.0 
0.0 -1.962000000000e+01 0.0 
0.0 -1.962000000000e+01 0.0 
0.0 -1.962000000000e+01 0.0 
0.0 -1.962000000000e+01 0.0 
0.0 -1.962000000000e+01 0.0 
0.0 -1.962000000000e+01 0.0 
0.0 -1.962000000000e+01 0.0 
0.0 -1.962000000000e+01 0.0 
0.0 -1.962000000000e+01 0.0 
0.0 -1.962000000000e+01 0.0 
0.0 -1.962000000000e+01 0.0 
0.0 -1.962000000000e+01 0.0 
0.0 -1.962000000000e+01 0.0 
0.0 -1.962000000000e+01 0.0 
0.0 -1.962000000000e+01 0.0 
0.0 -1.962000000000e+01 0.0 
0.0 -1.962000000000e+01 0.0 
0.0 -1.962000000000e+01 0.0 
0.0 -1.962000000000e+01 0.0 
0.0 -1.962000000000e+01 0.0 
0.0 -1.962000000000e+01 0.0 
0.0 -1.962000000000e+01 0.0 
0.0 -1.962000000000e+01 0.0 
0.0 -1.962000000000e+01 0.0 
0.0 -1.962000000000e+01 0.0 
0.0 -1.962000000000e+01 0.0 
0.0 -1.962000000000e+01 0.0 
0.0 -1.962000000000e+01 0.0 
0.0 -1.962000000000e+01 0.0 
0.0 -1.962000000000e+01 0.0 
0.0 -1.962000000000e+01 0.0 
0.0 -1.962000000000e+01 0.0 
0.0 -1.962000000000e+01 0.0 
0.0 -1.962000000000e+01 0.0 
0.0 -1.962000000000e+01 0.0 
0.0 -1.962000000000e+01 0.0 
0.0 -1.962000000000e+01 0.0 
0.0 -1.962000000000e+01 0.0 
0.0 -1.962000000000e+01 0.0 
0.0 -1.962000000000e+01 0.0 
0.0 -1.962000000000e+01 0.0 
0.0 -1.962000000000e+01 0.0 
0.0 -1.962000000000e+01 0.0 
0.0 -1.962000000000e+01 0.0 
0.0 -1.962000000000e+01 0.0 
0.0 -1.962000000000e+01 0.0 
0.0 -1.962000000000e+01 0.0 
0.0 -1.962000000000e+01 0.0 
0.0 -1.962000000000e+01 0.0 
0.0 -1.962000000000e+01 0.0 
0.0 -1.962000000000e+01 0.0 
0.0 -1.962000000000e+01 0.0 
0.0 -1.962000000000e+01 0.0 
0.0 -1.962000000000e+01 0.0 
0.0 -1.962000000000e+01 0.0 
0.0 -1.962000000000e+01 0.0 
0.0 -1.962000000000e+01 0.0 
0.0 -1.962000000000e+01 0.0 
0.0 -1.962000000000e+01 0.0 
0.0 -1.962000000000e+01 0.0 
0.0 -1.962000000000e+01 0.0 
0.0 -1.962000000000e+01 0.0 
0.0 -1.962000000000e+01 0.0 
0.0 -1.962000000000e+01 0.0 
0.0 -1.962000000000e+01 0.0 
0.0 -1.962000000000e+01 0.0 
0.0 -1.962000000000e+01 0.0 
0.0 -1.962000000000e+01 0.0 
0.0 -1.962000000000e+01 0.0 
0.0 -1.962000000000e+01 0.0 
0.0 -1.962000000000e+01 0.0 
0.0 -1.962000000000e+01 0.0 
0.0 -1.962000000000e+01 0.0 
0.0 -1.962000000000e+01 0.0 
0.0 -1.962000000000e+01 0.0 
0.0 -1.962000000000e+01 0.0 
0.0 -1.962000000000e+01 0.0 
0.0 -1.962000000000e+01 0.0 
0.0 -1.962000000000e+01 0.0 
0.0 -1.962000000000e+01 0.0 
0.0 -1.962000000000e+01 0.0 
0.0 -1.962000000000e+01 0.0 
0.0 -1.962000000000e+01 0.0 
0.0 -1.962000000000e+01 0.0 
0.0 -1.962000000000e+01 0.0 
0.0 -1.962000000000e+01 0.0 
0.0 -1.962000000000e+01 0.0 
0.0 -1.962000000000e+01 0.0 
0.0 -1.962000000000e+01 0.0 
0.0 -1.962000000000e+01 0.0 
0.0 -1.962000000000e+01 0.0 
0.0 -1.962000000000e+01 0.0 
0.0 -1.962000000000e+01 0.0 
0.0 -1.962000000000e+01 0.0 
0.0 -1.962000000000e+01 0.0 
0.0 -1.962000000000e+01 0.0 
0.0 -1.962000000000e+01 0.0 
0.0 -1.962000000000e+01 0.0 
0.0 -1.962000000000e+01 0.0 
0.0 -1.962000000000e+01 0.0 
0.0 -1.962000000000e+01 0.0 
0.0 -1.962000000000e+01 0.0 
0.0 -1.962000000000e+01 0.0 
0.0 -1.962000000000e+01 0.0 
0.0 -1.962000000000e+01 0.0 
0.0 -1.962000000000e+01 0.0 
0.0 -1.962000000000e+01 0.0 
0.0 -1.962000000000e+01 0.0 
0.0 -1.962000000000e+01 0.0 
0.0 -1.962000000000e+01 0.0 
0.0 -1.962000000000e+01 0.0 
0.0 -1.962000000000e+01 0.0 
0.0 -1.962000000000e+01 0.0 
0.0 -1.962000000000e+01 0.0 
0.0 -1.962000000000e+01 0.0 
0.0 -1.962000000000e+01 0.0 
0.0 -1.962000000000e+01 0.0 
0.0 -1.962000000000e+01 0.0 
0.0 -1.962000000000e+01 0.0 
0.0 -1.962000000000e+01 0.0 
0.0 -1.962000000000e+01 0.0 
0.0 -1.962000000000e+01 0.0 
0.0 -1.962000000000e+01 0.0 
0.0 -1.962000000000e+01 0.0 
0.0 -1.962000000000e+01 0.0 
0.0 -1.962000000000e+01 0.0 
0.0 -1.962000000000e+01 0.0 
0.0 -1.962000000000e+01 0.0 
0.0 -1.962000000000e+01 0.0 
0.0 -1.962000000000e+01 0.0 
0.0 -1.962000000000e+01 0.0 
0.0 -1.962000000000e+01 0.0 
0.0 -1.962000000000e+01 0.0 
0.0 -1.962000000000e+01 0.0 
0.0 -1.962000000000e+01 0.0 
0.0 -1.962000000000e+01 0.0 
0.0 -1.962000000000e+01 0.0 
0.0 -1.962000000000e+01 0.0 
0.0 -1.962000000000e+01 0.0 
0.0 -1.962000000000e+01 0.0 
0.0 -1.962000000000e+01 0.0 
0.0 -1.962000000000e+01 0.0 
0.0 -1.962000000000e+01 0.0 
0.0 -1.962000000000e+01 0.0 
0.0 -1.962000000000e+01 0.0 
0.0 -1.962000000000e+01 0.0 
0.0 -1.962000000000e+01 0.0 
0.0 -1.962000000000e+01 0.0 
0.0 -1.962000000000e+01 0.0 
0.0 -1.962000000000e+01 0.0 
0.0 -1.962000000000e+01 0.0 
0.0 -1.962000000000e+01 0.0 
0.0 -1.962000000000e+01 0.0 
0.0 -1.962000000000e+01 0.0 
0.0 -1.962000000000e+01 0.0 
0.0 -1.962000000000e+01 0.0 
0.0 -1.962000000000e+01 0.0 
0.0 -1.962000000000e+01 0.0 
0.0 -1.962000000000e+01 0.0 
0.0 -1.962000000000e+01 0.0 
0.0 -1.962000000000e+01 0.0 
0.0 -1.962000000000e+01 0.0 
0.0 -1.962000000000e+01 0.0 
0.0 -1.962000000000e+01 0.0 
0.0 -1.962000000000e+01 0.0 
0.0 -1.962000000000e+01 0.0 
0.0 -1.962000000000e+01 0.0 
0.0 -1.962000000000e+01 0.0 
0.0 -1.962000000000e+01 0.0 
0.0 -1.962000000000e+01 0.0 
0.0 -1.962000000000e+01 0.0 
0.0 -1.962000000000e+01 0.0 
0.0 -1.962000000000e+01 0.0 
0.0 -1.962000000000e+01 0.0 
0.0 -1.962000000000e+01 0.0 
0.0 -1.962000000000e+01 0.0 
0.0 -1.962000000000e+01 0.0 
0.0 -1.962000000000e+01 0.0 
0.0 -1.962000000000e+01 0.0 
0.0 -1.962000000000e+01 0.0 
0.0 -1.962000000000e+01 0.0 
0.0 -1.962000000000e+01 0.0 
0.0 -1.962000000000e+01 0.0 
0.0 -1.962000000000e+01 0.0 
0.0 -1.962000000000e+01 0.0 
0.0 -1.962000000000e+01 0.0 
0.0 -1.962000000000e+01 0.0 
0.0 -1.962000000000e+01 0.0 
0.0 -1.962000000000e+01 0.0 
0.0 -1.962000000000e+01 0.0 
0.0 -1.962000000000e+01 0.0 
0.0 -1.962000000000e+01 0.0 
0.0 -1.962000000000e+01 0.0 
0.0 -1.962000000000e+01 0.0 
0.0 -1.962000000000e+01 0.0 
0.0 -1.962000000000e+01 0.0 
0.0 -1.962000000000e+01 0.0 
0.0 -1.962000000000e+01 0.0 
0.0 -1.962000000000e+01 0.0 
0.0 -1.962000000000e+01 0.0 
0.0 -1.962000000000e+01 0.0 
0.0 -1.962000000000e+01 0.0 
0.0 -1.962000000000e+01 0.0 
0.0 -1.962000000000e+01 0.0 
0.0 -1.962000000000e+01 0.0 
0.0 -1.962000000000e+01 0.0 
0.0 -1.962000000000e+01 0.0 
0.0 -1.962000000000e+01 0.0 
0.0 -1.962000000000e+01 0.0 
0.0 -1.962000000000e+01 0.0 
0.0 -1.962000000000e+01 0.0 
0.0 -1.962000000000e+01 0.0 
0.0 -1.962000000000e+01 0.0 
0.0 -1.962000000000e+01 0.0 
0.0 -1.962000000000e+01 0.0 
0.0 -1.962000000000e+01 0.0 
0.0 -1.962000000000e+01 0.0 
0.0 -1.962000000000e+01 0.0 
0.0 -1.962000000000e+01 0.0 
0.0 -1.962000000000e+01 0.0 
0.0 -1.962000000000e+01 0.0 
0.0 -1.962000000000e+01 0.0 
0.0 -1.962000000000e+01 0.0 
0.0 -1.962000000000e+01 0.0 
0.0 -1.962000000000e+01 0.0 
0.0 -1.962000000000e+01 0.0 
0.0 -1.962000000000e+01 0.0 
0.0 -1.962000000000e+01 0.0 
0.0 -1.962000000000e+01 0.0 
0.0 -1.962000000000e+01 0.0 
0.0 -1.962000000000e+01 0.0 
0.0 -1.962000000000e+01 0.0 
0.0 -1.962000000000e+01 0.0 
0.0 -1.962000000000e+01 0.0 
0.0 -1.962000000000e+01 0.0 
0.0 -1.962000000000e+01 0.0 
0.0 -1.962000000000e+01 0.0 
0.0 -1.962000000000e+01 0.0 
0.0 -1.962000000000e+01 0.0 
0.0 -1.962000000000e+01 0.0 
0.0 -1.962000000000e+01 0.0 
0.0 -1.962000000000e+01 0.0 
0.0 -1.962000000000e+01 0.0 
0.0 -1.962000000000e+01 0.0 
0.0 -1.962000000000e+01 0.0 
0.0 -1.962000000000e+01 0.0 
0.0 -1.962000000000e+01 0.0 
0.0 -1.962000000000e+01 0.0 
0.0 -1.962000000000e+01 0.0 
0.0 -1.962000000000e+01 0.0 
0.0 -1.962000000000e+01 0.0 
0.0 -1.962000000000e+01 0.0 
0.0 -1.962000000000e+01 0.0 
0.0 -1.962000000000e+01 0.0 
0.0 -1.962000000000e+01 0.0 
0.0 -1.962000000000e+01 0.0 
0.0 -1.962000000000e+01 0.0 
0.0 -1.962000000000e+01 0.0 
0.0 -1.962000000000e+01 0.0 
0.0 -1.962000000000e+01 0.0 
0.0 -1.962000000000e+01 0.0 
0.0 -1.962000000000e+01 0.0 
0.0 -1.962000000000e+01 0.0 
0.0 -1.962000000000e+01 0.0 
0.0 -1.962000000000e+01 0.0 
0.0 -1.962000000000e+01 0.0 
0.0 -1.962000000000e+01 0.0 
0.0 -1.962000000000e+01 0.0 
0.0 -1.962000000000e+01 0.0 
0.0 -1.962000000000e+01 0.0 
0.0 -1.962000000000e+01 0.0 
0.0 -1.962000000000e+01 0.0 
0.0 -1.962000000000e+01 0.0 
0.0 -1.962000000000e+01 0.0 
0.0 -1.962000000000e+01 0.0 
0.0 -1.962000000000e+01 0.0 
0.0 -1.962000000000e+01 0.0 
0.0 -1.962000000000e+01 0.0 
0.0 -1.962000000000e+01 0.0 
0.0 -1.962000000000e+01 0.0 
0.0 -1.962000000000e+01 0.0 
0.0 -1.962000000000e+01 0.0 
0.0 -1.962000000000e+01 0.0 
0.0 -1.962000000000e+01 0.0 
0.0 -1.962000000000e+01 0.0 
0.0 -1.962000000000e+01 0.0 
0.0 -1.962000000000e+01 0.0 
0.0 -1.962000000000e+01 0.0 
0.0 -1.962000000000e+01 0.0 
0.0 -1.962000000000e+01 0.0 
0.0 -1.962000000000e+01 0.0 
0.0 -1.962000000000e+01 0.0 
0.0 -1.962000000000e+01 0.0 
0.0 -1.962000000000e+01 0.0 
0.0 -1.962000000000e+01 0.0 
0.0 -1.962000000000e+01 0.0 
0.0 -1.962000000000e+01 0.0 
0.0 -1.962000000000e+01 0.0 
0.0 -1.962000000000e+01 0.0 
0.0 -1.962000000000e+01 0.0 
0.0 -1.962000000000e+01 0.0 
0.0 -1.962000000000e+01 0.0 
0.0 -1.962000000000e+01 0.0 
0.0 -1.962000000000e+01 0.0 
0.0 -1.962000000000e+01 0.0 
0.0 -1.962000000000e+01 0.0 
0.0 -1.962000000000e+01 0.0 
0.0 -1.962000000000e+01 0.0 
0.0 -1.962000000000e+01 0.0 
0.0 -1.962000000000e+01 0.0 
0.0 -1.962000000000e+01 0.0 
0.0 -1.962000000000e+01 0.0 
0.0 -1.962000000000e+01 0.0 
0.0 -1.962000000000e+01 0.0 
0.0 -1.962000000000e+01 0.0 
0.0 -1.962000000000e+01 0.0 
0.0 -1.962000000000e+01 0.0 
0.0 -1.962000000000e+01 0.0 
0.0 -1.962000000000e+01 0.0 
0.0 -1.962000000000e+01 0.0 
0.0 -1.962000000000e+01 0.0 
0.0 -1.962000000000e+01 0.0 
0.0 -1.962000000000e+01 0.0 
0.0 -1.962000000000e+01 0.0 
0.0 -1.962000000000e+01 0.0 
0.0 -1.962000000000e+01 0.0 
0.0 -1.962000000000e+01 0.0 
0.0 -1.962000000000e+01 0.0 
0.0 -1.962000000000e+01 0.0 
0.0 -1.962000000000e+01 0.0 
0.0 -1.962000000000e+01 0.0 
0.0 -1.962000000000e+01 0.0 
0.0 -1.962000000000e+01 0.0 
0.0 -1.962000000000e+01 0.0 
0.0 -1.962000000000e+01 0.0 
0.0 -1.962000000000e+01 0.0 
0.0 -1.962000000000e+01 0.0 
0.0 -1.962000000000e+01 0.0 
0.0 -1.962000000000e+01 0.0 
0.0 -1.962000000000e+01 0.0 
0.0 -1.962000000000e+01 0.0 
0.0 -1.962000000000e+01 0.0 
0.0 -1.962000000000e+01 0.0 
0.0 -1.962000000000e+01 0.0 
0.0 -1.962000000000e+01 0.0 
0.0 -1.962000000000e+01 0.0 
0.0 -1.962000000000e+01 0.0 
0.0 -1.962000000000e+01 0.0 
0.0 -1.962000000000e+01 0.0 
0.0 -1.962000000000e+01 0.0 
0.0 -1.962000000000e+01 0.0 
0.0 -1.962000000000e+01 0.0 
0.0 -1.962000000000e+01 0.0 
0.0 -1.962000000000e+01 0.0 
0.0 -1.962000000000e+01 0.0 
0.0 -1.962000000000e+01 0.0 
0.0 -1.962000000000e+01 0.0 
0.0 -1.962000000000e+01 0.0 
0.0 -1.962000000000e+01 0.0 
0.0 -1.962000000000e+01 0.0 
0.0 -1.962000000000e+01 0.0 
0.0 -1.962000000000e+01 0.0 
0.0 -1.962000000000e+01 0.0 
0.0 -1.962000000000e+01 0.0 
0.0 -1.962000000000e+01 0.0 
0.0 -1.962000000000e+01 0.0 
0.0 -1.962000000000e+01 0.0 
0.0 -1.962000000000e+01 0.0 
0.0 -1.962000000000e+01 0.0 
0.0 -1.962000000000e+01 0.0 
0.0 -1.962000000000e+01 0.0 
0.0 -1.962000000000e+01 0.0 
0.0 -1.962000000000e+01 0.0 
0.0 -1.962000000000e+01 0.0 
0.0 -1.962000000000e+01 0.0 
0.0 -1.962000000000e+01 0.0 
0.0 -1.962000000000e+01 0.0 
0.0 -1.962000000000e+01 0.0 
0.0 -1.962000000000e+01 0.0 
0.0 -1.962000000000e+01 0.0 
0.0 -1.962000000000e+01 0.0 
0.0 -1.962000000000e+01 0.0 
0.0 -1.962000000000e+01 0.0 
0.0 -1.962000000000e+01 0.0 
0.0 -1.962000000000e+01 0.0 
0.0 -1.962000000000e+01 0.0 
0.0 -1.962000000000e+01 0.0 
0.0 -1.962000000000e+01 0.0 
0.0 -1.962000000000e+01 0.0 
0.0 -1.962000000000e+01 0.0 
0.0 -1.962000000000e+01 0.0 
0.0 -1.962000000000e+01 0.0 
0.0 -1.962000000000e+01 0.0 
0.0 -1.962000000000e+01 0.0 
0.0 -1.962000000000e+01 0.0 
0.0 -1.962000000000e+01 0.0 
0.0 -1.962000000000e+01 0.0 
0.0 -1.962000000000e+01 0.0 
0.0 -1.962000000000e+01 0.0 
0.0 -1.962000000000e+01 0.0 
0.0 -1.962000000000e+01 0.0 
0.0 -1.962000000000e+01 0.0 
0.0 -1.962000000000e+01 0.0 
0.0 -1.962000000000e+01 0.0 
0.0 -1.962000000000e+01 0.0 
0.0 -1.962000000000e+01 0.0 
0.0 -1.962000000000e+01 0.0 
0.0 -1.962000000000e+01 0.0 
0.0 -1.962000000000e+01 0.0 
0.0 -1.962000000000e+01 0.0 
0.0 -1.962000000000e+01 0.0 
0.0 -1.962000000000e+01 0.0 
0.0 -1.962000000000e+01 0.0 
0.0 -1.962000000000e+01 0.0 
0.0 -1.962000000000e+01 0.0 
0.0 -1.962000000000e+01 0.0 
0.0 -1.962000000000e+01 0.0 
0.0 -1.962000000000e+01 0.0 
0.0 -1.962000000000e+01 0.0 
0.0 -1.962000000000e+01 0.0 
0.0 -1.962000000000e+01 0.0 
0.0 -1.962000000000e+01 0.0 
0.0 -1.962000000000e+01 0.0 
0.0 -1.962000000000e+01 0.0 
0.0 -1.962000000000e+01 0.0 
0.0 -1.962000000000e+01 0.0 
0.0 -1.962000000000e+01 0.0 
0.0 -1.962000000000e+01 0.0 
0.0 -1.962000000000e+01 0.0 
0.0 -1.962000000000e+01 0.0 
0.0 -1.962000000000e+01 0.0 
0.0 -1.962000000000e+01 0.0 
0.0 -1.962000000000e+01 0.0 
0.0 -1.962000000000e+01 0.0 
0.0 -1.962000000000e+01 0.0 
0.0 -1.962000000000e+01 0.0 
0.0 -1.962000000000e+01 0.0 
0.0 -1.962000000000e+01 0.0 
0.0 -1.962000000000e+01 0.0 
0.0 -1.962000000000e+01 0.0 
0.0 -1.962000000000e+01 0.0 
0.0 -1.962000000000e+01 0.0 
0.0 -1.962000000000e+01 0.0 
0.0 -1.962000000000e+01 0.0 
0.0 -1.962000000000e+01 0.0 
0.0 -1.962000000000e+01 0.0 
0.0 -1.962000000000e+01 0.0 
0.0 -1.962000000000e+01 0.0 
0.0 -1.962000000000e+01 0.0 
0.0 -1.962000000000e+01 0.0 
0.0 -1.962000000000e+01 0.0 
0.0 -1.962000000000e+01 0.0 
0.0 -1.962000000000e+01 0.0 
0.0 -1.962000000000e+01 0.0 
0.0 -1.962000000000e+01 0.0 
0.0 -1.962000000000e+01 0.0 
0.0 -1.962000000000e+01 0.0 
0.0 -1.962000000000e+01 0.0 
0.0 -1.962000000000e+01 0.0 
0.0 -1.962000000000e+01 0.0 
0.0 -1.962000000000e+01 0.0 
0.0 -1.962000000000e+01 0.0 
0.0 -1.962000000000e+01 0.0 
0.0 -1.962000000000e+01 0.0 
0.0 -1.962000000000e+01 0.0 
0.0 -1.962000000000e+01 0.0 
0.0 -1.962000000000e+01 0.0 
0.0 -1.962000000000e+01 0.0 
0.0 -1.962000000000e+01 0.0 
0.0 -1.962000000000e+01 0.0 
0.0 -1.962000000000e+01 0.0 
0.0 -1.962000000000e+01 0.0 
0.0 -1.962000000000e+01 0.0 
0.0 -1.962000000000e+01 0.0 
0.0 -1.962000000000e+01 0.0 
0.0 -1.962000000000e+01 0.0 
0.0 -1.962000000000e+01 0.0 
0.0 -1.962000000000e+01 0.0 
0.0 -1.962000000000e+01 0.0 
0.0 -1.962000000000e+01 0.0 
0.0 -1.962000000000e+01 0.0 
0.0 -1.962000000000e+01 0.0 
0.0 -1.962000000000e+01 0.0 
0.0 -1.962000000000e+01 0.0 
0.0 -1.962000000000e+01 0.0 
0.0 -1.962000000000e+01 0.0 
0.0 -1.962000000000e+01 0.0 
0.0 -1.962000000000e+01 0.0 
0.0 -1.962000000000e+01 0.0 
0.0 -1.962000000000e+01 0.0 
0.0 -1.962000000000e+01 0.0 
0.0 -1.962000000000e+01 0.0 
0.0 -1.962000000000e+01 0.0 
0.0 -1.962000000000e+01 0.0 
0.0 -1.962000000000e+01 0.0 
0.0 -1.962000000000e+01 0.0 
0.0 -1.962000000000e+01 0.0 
0.0 -1.962000000000e+01 0.0 
0.0 -1.962000000000e+01 0.0 
0.0 -1.962000000000e+01 0.0 
0.0 -1.962000000000e+01 0.0 
0.0 -1.962000000000e+01 0.0 
0.0 -1.962000000000e+01 0.0 
0.0 -1.962000000000e+01 0.0 
0.0 -1.962000000000e+01 0.0 
0.0 -1.962000000000e+01 0.0 
0.0 -1.962000000000e+01 0.0 
0.0 -1.962000000000e+01 0.0 
0.0 -1.962000000000e+01 0.0 
0.0 -1.962000000000e+01 0.0 
0.0 -1.962000000000e+01 0.0 
0.0 -1.962000000000e+01 0.0 
0.0 -1.962000000000e+01 0.0 
0.0 -1.962000000000e+01 0.0 
0.0 -1.962000000000e+01 0.0 
0.0 -1.962000000000e+01 0.0 
0.0 -1.962000000000e+01 0.0 
0.0 -1.962000000000e+01 0.0 
0.0 -1.962000000000e+01 0.0 
0.0 -1.962000000000e+01 0.0 
0.0 -1.962000000000e+01 0.0 
0.0 -1.962000000000e+01 0.0 
0.0 -1.962000000000e+01 0.0 
0.0 -1.962000000000e+01 0.0 
0.0 -1.962000000000e+01 0.0 
0.0 -1.962000000000e+01 0.0 
0.0 -1.962000000000e+01 0.0 
0.0 -1.962000000000e+01 0.0 
0.0 -1.962000000000e+01 0.0 
0.0 -1.962000000000e+01 0.0 
0.0 -1.962000000000e+01 0.0 
0.0 -1.962000000000e+01 0.0 
0.0 -1.962000000000e+01 0.0 
0.0 -1.962000000000e+01 0.0 
0.0 -1.962000000000e+01 0.0 
0.0 -1.962000000000e+01 0.0 
0.0 -1.962000000000e+01 0.0 
0.0 -1.962000000000e+01 0.0 
0.0 -1.962000000000e+01 0.0 
0.0 -1.962000000000e+01 0.0 
0.0 -1.962000000000e+01 0.0 
0.0 -1.962000000000e+01 0.0 
0.0 -1.962000000000e+01 0.0 
0.0 -1.962000000000e+01 0.0 
0.0 -1.962000000000e+01 0.0 
0.0 -1.962000000000e+01 0.0 
0.0 -1.962000000000e+01 0.0 
0.0 -1.962000000000e+01 0.0 
0.0 -1.962000000000e+01 0.0 
0.0 -1.962000000000e+01 0.0 
0.0 -1.962000000000e+01 0.0 
0.0 -1.962000000000e+01 0.0 
0.0 -1.962000000000e+01 0.0 
0.0 -1.962000000000e+01 0.0 
0.0 -1.962000000000e+01 0.0 
0.0 -1.962000000000e+01 0.0 
0.0 -1.962000000000e+01 0.0 
0.0 -1.962000000000e+01 0.0 
0.0 -1.962000000000e+01 0.0 
0.0 -1.962000000000e+01 0.0 
0.0 -1.962000000000e+01 0.0 
0.0 -1.962000000000e+01 0.0 
0.0 -1.962000000000e+01 0.0 
0.0 -1.962000000000e+01 0.0 
0.0 -1.962000000000e+01 0.0 
0.0 -1.962000000000e+01 0.0 
0.0 -1.962000000000e+01 0.0 
0.0 -1.962000000000e+01 0.0 
0.0 -1.962000000000e+01 0.0 
0.0 -1.962000000000e+01 0.0 
0.0 -1.962000000000e+01 0.0 
0.0 -1.962000000000e+01 0.0 
0.0 -1.962000000000e+01 0.0 
0.0 -1.962000000000e+01 0.0 
0.0 -1.962000000000e+01 0.0 
0.0 -1.962000000000e+01 0.0 
0.0 -1.962000000000e+01 0.0 
0.0 -1.962000000000e+01 0.0 
0.0 -1.962000000000e+01 0.0 
0.0 -1.962000000000e+01 0.0 
0.0 -1.962000000000e+01 0.0 
0.0 -1.962000000000e+01 0.0 
0.0 -1.962000000000e+01 0.0 
0.0 -1.962000000000e+01 0.0 
0.0 -1.962000000000e+01 0.0 
0.0 -1.962000000000e+01 0.0 
0.0 -1.962000000000e+01 0.0 
0.0 -1.962000000000e+01 0.0 
0.0 -1.962000000000e+01 0.0 
0.0 -1.962000000000e+01 0.0 
0.0 -1.962000000000e+01 0.0 
0.0 -1.962000000000e+01 0.0 
0.0 -1.962000000000e+01 0.0 
0.0 -1.962000000000e+01 0.0 
0.0 -1.962000000000e+01 0.0 
0.0 -1.962000000000e+01 0.0 
0.0 -1.962000000000e+01 0.0 
0.0 -1.962000000000e+01 0.0 
0.0 -1.962000000000e+01 0.0 
0.0 -1.962000000000e+01 0.0 
0.0 -1.962000000000e+01 0.0 
0.0 -1.962000000000e+01 0.0 
0.0 -1.962000000000e+01 0.0 
0.0 -1.962000000000e+01 0.0 
0.0 -1.962000000000e+01 0.0 
0.0 -1.962000000000e+01 0.0 
0.0 -1.962000000000e+01 0.0 
0.0 -1.962000000000e+01 0.0 
0.0 -1.962000000000e+01 0.0 
0.0 -1.962000000000e+01 0.0 
0.0 -1.962000000000e+01 0.0 
0.0 -1.962000000000e+01 0.0 
0.0 -1.962000000000e+01 0.0 
0.0 -1.962000000000e+01 0.0 
0.0 -1.962000000000e+01 0.0 
0.0 -1.962000000000e+01 0.0 
0.0 -1.962000000000e+01 0.0 
0.0 -1.962000000000e+01 0.0 
0.0 -1.962000000000e+01 0.0 
0.0 -1.962000000000e+01 0.0 
0.0 -1.962000000000e+01 0.0 
0.0 -1.962000000000e+01 0.0 
0.0 -1.962000000000e+01 0.0 
0.0 -1.962000000000e+01 0.0 
0.0 -1.962000000000e+01 0.0 
0.0 -1.962000000000e+01 0.0 
0.0 -1.962000000000e+01 0.0 
0.0 -1.962000000000e+01 0.0 
0.0 -1.962000000000e+01 0.0 
0.0 -1.962000000000e+01 0.0 
0.0 -1.962000000000e+01 0.0 
0.0 -1.962000000000e+01 0.0 
0.0 -1.962000000000e+01 0.0 
0.0 -1.962000000000e+01 0.0 
0.0 -1.962000000000e+01 0.0 
0.0 -1.962000000000e+01 0.0 
0.0 -1.962000000000e+01 0.0 
0.0 -1.962000000000e+01 0.0 
0.0 -1.962000000000e+01 0.0 
0.0 -1.962000000000e+01 0.0 
0.0 -1.962000000000e+01 0.0 
0.0 -1.962000000000e+01 0.0 
0.0 -1.962000000000e+01 0.0 
0.0 -1.962000000000e+01 0.0 
0.0 -1.962000000000e+01 0.0 
0.0 -1.962000000000e+01 0.0 
0.0 -1.962000000000e+01 0.0 
0.0 -1.962000000000e+01 0.0 
0.0 -1.962000000000e+01 0.0 
0.0 -1.962000000000e+01 0.0 
0.0 -1.962000000000e+01 0.0 
0.0 -1.962000000000e+01 0.0 
0.0 -1.962000000000e+01 0.0 
0.0 -1.962000000000e+01 0.0 
0.0 -1.962000000000e+01 0.0 
0.0 -1.962000000000e+01 0.0 
0.0 -1.962000000000e+01 0.0 
0.0 -1.962000000000e+01 0.0 
0.0 -1.962000000000e+01 0.0 
0.0 -1.962000000000e+01 0.0 
0.0 -1.962000000000e+01 0.0 
0.0 -1.962000000000e+01 0.0 
0.0 -1.962000000000e+01 0.0 
0.0 -1.962000000000e+01 0.0 
0.0 -1.962000000000e+01 0.0 
0.0 -1.962000000000e+01 0.0 
0.0 -1.962000000000e+01 0.0 
0.0 -1.962000000000e+01 0.0 

VECTORS node_rhside_materi_fixed float
-5.971587849668e+00 0.0 0.0 
6.115119251779e+01 0.0 0.0 
-8.403102531788e+01 -2.006026716903e+02 0.0 
6.657506915495e+01 -1.592365705310e+02 0.0 
-1.026600932166e+01 0.0 0.0 
-1.335552977057e+01 0.0 0.0 
-1.602409815401e+01 0.0 0.0 
-2.708130012684e+01 0.0 0.0 
-4.277379732230e+01 0.0 0.0 
-5.661292213033e+01 0.0 0.0 
-6.888269508213e+01 0.0 0.0 
-7.968540972553e+01 0.0 0.0 
-8.896108485216e+01 0.0 0.0 
-9.714024364554e+01 0.0 0.0 
-1.045342694565e+02 0.0 0.0 
-1.110273500717e+02 0.0 0.0 
-1.167388200412e+02 0.0 0.0 
-1.223945249621e+02 0.0 0.0 
-1.275669653111e+02 0.0 0.0 
-1.343723449297e+02 0.0 0.0 
-1.433710456508e+02 0.0 0.0 
-1.525470010248e+02 0.0 0.0 
-1.622296920167e+02 0.0 0.0 
5.854258561527e-01 -3.173302982025e+02 0.0 
9.632758491094e-01 -3.185989354135e+02 0.0 
3.198693521314e+00 -3.178448297256e+02 0.0 
2.106483637387e+00 -3.181095783168e+02 0.0 
4.102529024578e+00 -3.190379050615e+02 0.0 
4.741613246966e+00 -3.186559764702e+02 0.0 
5.349533932310e+00 -3.196010117861e+02 0.0 
6.339877642556e+00 -3.204925812475e+02 0.0 
8.248063280201e+00 -3.204313008314e+02 0.0 
7.565272876728e+00 -3.213740752109e+02 0.0 
9.828193488466e+00 -3.231476438801e+02 0.0 
1.086297046471e+01 -3.234802309303e+02 0.0 
1.177574945658e+01 -3.255309923347e+02 0.0 
1.284896977016e+01 -3.267662627934e+02 0.0 
1.420740812127e+01 -3.285221858818e+02 0.0 
1.503633181911e+01 -3.310253384873e+02 0.0 
1.701733967339e+01 -3.332638210765e+02 0.0 
1.798600313537e+01 -3.360053318452e+02 0.0 
1.909853600069e+01 -3.388399817241e+02 0.0 
2.000039856642e+01 -3.416688566366e+02 0.0 
2.039039107224e+01 -3.450659098303e+02 0.0 
2.144000485194e+01 -3.489534589954e+02 0.0 
2.174129084696e+01 -3.524600397348e+02 0.0 
2.206299618677e+01 -3.562081611056e+02 0.0 
2.211686858375e+01 -3.602613118307e+02 0.0 
2.181486957827e+01 -3.638720956034e+02 0.0 
2.138740139650e+01 -3.674492522286e+02 0.0 
2.072078032493e+01 -3.711580874280e+02 0.0 
2.003908264065e+01 -3.748226626856e+02 0.0 
1.926007870931e+01 -3.779613480494e+02 0.0 
1.790948728589e+01 -3.808989751688e+02 0.0 
1.691997028829e+01 -3.845301896498e+02 0.0 
1.576675431375e+01 -3.869604264379e+02 0.0 
1.450403653132e+01 -3.897134894213e+02 0.0 
1.300224227923e+01 -3.919854198934e+02 0.0 
1.168917575299e+01 -3.939655780521e+02 0.0 
1.027435616997e+01 -3.957473915969e+02 0.0 
8.872791096834e+00 -3.971259844922e+02 0.0 
7.654020053859e+00 -3.981855720264e+02 0.0 
6.500024242728e+00 -3.993766612151e+02 0.0 
5.496161946266e+00 -3.997554209037e+02 0.0 
4.534346306277e+00 -4.000884168168e+02 0.0 
3.717336371718e+00 -4.001829004985e+02 0.0 
2.984671889500e+00 -4.011107575885e+02 0.0 
2.193902601653e+00 -4.004103842330e+02 0.0 
1.620612707363e+00 -4.011474285839e+02 0.0 
1.605225413542e+00 -4.005881057015e+02 0.0 
7.290887728397e-01 -4.008177249163e+02 0.0 
4.022298101813e-01 -4.006704652345e+02 0.0 
6.897838149211e+01 0.0 0.0 
7.742172844831e+01 0.0 0.0 
8.528276084574e+01 0.0 0.0 
9.284570263915e+01 0.0 0.0 
1.003701966288e+02 0.0 0.0 
1.080896906550e+02 0.0 0.0 
1.151920493378e+02 0.0 0.0 
1.217951529070e+02 0.0 0.0 
1.296256773578e+02 0.0 0.0 
0.0 0.0 0.0 
0.0 0.0 0.0 
0.0 0.0 0.0 
0.0 0.0 0.0 
0.0 0.0 0.0 
0.0 0.0 0.0 
0.0 0.0 0.0 
0.0 0.0 0.0 
0.0 0.0 0.0 
0.0 0.0 0.0 
0.0 0.0 0.0 
7.206852420483e+00 0.0 0.0 
1.986343498407e+01 0.0 0.0 
2.800324797072e+01 0.0 0.0 
3.628358977517e+01 0.0 0.0 
4.465526288860e+01 0.0 0.0 
5.301485935085e+01 0.0 0.0 
0.0 0.0 0.0 
0.0 0.0 0.0 
0.0 0.0 0.0 
0.0 0.0 0.0 
0.0 0.0 0.0 
0.0 0.0 0.0 
0.0 0.0 0.0 
0.0 0.0 0.0 
0.0 0.0 0.0 
0.0 0.0 0.0 
0.0 0.0 0.0 
0.0 0.0 0.0 
0.0 0.0 0.0 
0.0 0.0 0.0 
0.0 0.0 0.0 
0.0 0.0 0.0 
0.0 0.0 0.0 
0.0 0.0 0.0 
0.0 0.0 0.0 
0.0 0.0 0.0 
0.0 0.0 0.0 
0.0 0.0 0.0 
0.0 0.0 0.0 
0.0 0.0 0.0 
0.0 0.0 0.0 
0.0 0.0 0.0 
0.0 0.0 0.0 
0.0 0.0 0.0 
0.0 0.0 0.0 
0.0 0.0 0.0 
0.0 0.0 0.0 
0.0 0.0 0.0 
0.0 0.0 0.0 
0.0 0.0 0.0 
0.0 0.0 0.0 
0.0 0.0 0.0 
0.0 0.0 0.0 
0.0 0.0 0.0 
0.0 0.0 0.0 
0.0 0.0 0.0 
0.0 0.0 0.0 
0.0 0.0 0.0 
0.0 0.0 0.0 
0.0 0.0 0.0 
0.0 0.0 0.0 
0.0 0.0 0.0 
0.0 0.0 0.0 
0.0 0.0 0.0 
0.0 0.0 0.0 
0.0 0.0 0.0 
0.0 0.0 0.0 
0.0 0.0 0.0 
0.0 0.0 0.0 
0.0 0.0 0.0 
0.0 0.0 0.0 
0.0 0.0 0.0 
0.0 0.0 0.0 
0.0 0.0 0.0 
0.0 0.0 0.0 
0.0 0.0 0.0 
0.0 0.0 0.0 
0.0 0.0 0.0 
0.0 0.0 0.0 
0.0 0.0 0.0 
0.0 0.0 0.0 
0.0 0.0 0.0 
0.0 0.0 0.0 
0.0 0.0 0.0 
0.0 0.0 0.0 
0.0 0.0 0.0 
0.0 0.0 0.0 
0.0 0.0 0.0 
0.0 0.0 0.0 
0.0 0.0 0.0 
0.0 0.0 0.0 
0.0 0.0 0.0 
0.0 0.0 0.0 
0.0 0.0 0.0 
0.0 0.0 0.0 
0.0 0.0 0.0 
0.0 0.0 0.0 
0.0 0.0 0.0 
0.0 0.0 0.0 
0.0 0.0 0.0 
0.0 0.0 0.0 
0.0 0.0 0.0 
0.0 0.0 0.0 
0.0 0.0 0.0 
0.0 0.0 0.0 
0.0 0.0 0.0 
0.0 0.0 0.0 
0.0 0.0 0.0 
0.0 0.0 0.0 
0.0 0.0 0.0 
0.0 0.0 0.0 
0.0 0.0 0.0 
0.0 0.0 0.0 
0.0 0.0 0.0 
0.0 0.0 0.0 
0.0 0.0 0.0 
0.0 0.0 0.0 
0.0 0.0 0.0 
0.0 0.0 0.0 
0.0 0.0 0.0 
0.0 0.0 0.0 
0.0 0.0 0.0 
0.0 0.0 0.0 
0.0 0.0 0.0 
0.0 0.0 0.0 
0.0 0.0 0.0 
0.0 0.0 0.0 
0.0 0.0 0.0 
0.0 0.0 0.0 
0.0 0.0 0.0 
0.0 0.0 0.0 
0.0 0.0 0.0 
0.0 0.0 0.0 
0.0 0.0 0.0 
0.0 0.0 0.0 
0.0 0.0 0.0 
0.0 0.0 0.0 
0.0 0.0 0.0 
0.0 0.0 0.0 
0.0 0.0 0.0 
0.0 0.0 0.0 
0.0 0.0 0.0 
0.0 0.0 0.0 
0.0 0.0 0.0 
0.0 0.0 0.0 
0.0 0.0 0.0 
0.0 0.0 0.0 
0.0 0.0 0.0 
0.0 0.0 0.0 
0.0 0.0 0.0 
0.0 0.0 0.0 
0.0 0.0 0.0 
0.0 0.0 0.0 
0.0 0.0 0.0 
0.0 0.0 0.0 
0.0 0.0 0.0 
0.0 0.0 0.0 
0.0 0.0 0.0 
0.0 0.0 0.0 
0.0 0.0 0.0 
0.0 0.0 0.0 
0.0 0.0 0.0 
0.0 0.0 0.0 
0.0 0.0 0.0 
0.0 0.0 0.0 
0.0 0.0 0.0 
0.0 0.0 0.0 
0.0 0.0 0.0 
0.0 0.0 0.0 
0.0 0.0 0.0 
0.0 0.0 0.0 
0.0 0.0 0.0 
0.0 0.0 0.0 
0.0 0.0 0.0 
0.0 0.0 0.0 
0.0 0.0 0.0 
0.0 0.0 0.0 
0.0 0.0 0.0 
0.0 0.0 0.0 
0.0 0.0 0.0 
0.0 0.0 0.0 
0.0 0.0 0.0 
0.0 0.0 0.0 
0.0 0.0 0.0 
0.0 0.0 0.0 
0.0 0.0 0.0 
0.0 0.0 0.0 
0.0 0.0 0.0 
0.0 0.0 0.0 
0.0 0.0 0.0 
0.0 0.0 0.0 
0.0 0.0 0.0 
0.0 0.0 0.0 
0.0 0.0 0.0 
0.0 0.0 0.0 
0.0 0.0 0.0 
0.0 0.0 0.0 
0.0 0.0 0.0 
0.0 0.0 0.0 
0.0 0.0 0.0 
0.0 0.0 0.0 
0.0 0.0 0.0 
0.0 0.0 0.0 
0.0 0.0 0.0 
0.0 0.0 0.0 
0.0 0.0 0.0 
0.0 0.0 0.0 
0.0 0.0 0.0 
0.0 0.0 0.0 
0.0 0.0 0.0 
0.0 0.0 0.0 
0.0 0.0 0.0 
0.0 0.0 0.0 
0.0 0.0 0.0 
0.0 0.0 0.0 
0.0 0.0 0.0 
0.0 0.0 0.0 
0.0 0.0 0.0 
0.0 0.0 0.0 
0.0 0.0 0.0 
0.0 0.0 0.0 
0.0 0.0 0.0 
0.0 0.0 0.0 
0.0 0.0 0.0 
0.0 0.0 0.0 
0.0 0.0 0.0 
0.0 0.0 0.0 
0.0 0.0 0.0 
0.0 0.0 0.0 
0.0 0.0 0.0 
0.0 0.0 0.0 
0.0 0.0 0.0 
0.0 0.0 0.0 
0.0 0.0 0.0 
0.0 0.0 0.0 
0.0 0.0 0.0 
0.0 0.0 0.0 
0.0 0.0 0.0 
0.0 0.0 0.0 
0.0 0.0 0.0 
0.0 0.0 0.0 
0.0 0.0 0.0 
0.0 0.0 0.0 
0.0 0.0 0.0 
0.0 0.0 0.0 
0.0 0.0 0.0 
0.0 0.0 0.0 
0.0 0.0 0.0 
0.0 0.0 0.0 
0.0 0.0 0.0 
0.0 0.0 0.0 
0.0 0.0 0.0 
0.0 0.0 0.0 
0.0 0.0 0.0 
0.0 0.0 0.0 
0.0 0.0 0.0 
0.0 0.0 0.0 
0.0 0.0 0.0 
0.0 0.0 0.0 
0.0 0.0 0.0 
0.0 0.0 0.0 
0.0 0.0 0.0 
0.0 0.0 0.0 
0.0 0.0 0.0 
0.0 0.0 0.0 
0.0 0.0 0.0 
0.0 0.0 0.0 
0.0 0.0 0.0 
0.0 0.0 0.0 
0.0 0.0 0.0 
0.0 0.0 0.0 
0.0 0.0 0.0 
0.0 0.0 0.0 
0.0 0.0 0.0 
0.0 0.0 0.0 
0.0 0.0 0.0 
0.0 0.0 0.0 
0.0 0.0 0.0 
0.0 0.0 0.0 
0.0 0.0 0.0 
0.0 0.0 0.0 
0.0 0.0 0.0 
0.0 0.0 0.0 
0.0 0.0 0.0 
0.0 0.0 0.0 
0.0 0.0 0.0 
0.0 0.0 0.0 
0.0 0.0 0.0 
0.0 0.0 0.0 
0.0 0.0 0.0 
0.0 0.0 0.0 
0.0 0.0 0.0 
0.0 0.0 0.0 
0.0 0.0 0.0 
0.0 0.0 0.0 
0.0 0.0 0.0 
0.0 0.0 0.0 
0.0 0.0 0.0 
0.0 0.0 0.0 
0.0 0.0 0.0 
0.0 0.0 0.0 
0.0 0.0 0.0 
0.0 0.0 0.0 
0.0 0.0 0.0 
0.0 0.0 0.0 
0.0 0.0 0.0 
0.0 0.0 0.0 
0.0 0.0 0.0 
0.0 0.0 0.0 
0.0 0.0 0.0 
0.0 0.0 0.0 
0.0 0.0 0.0 
0.0 0.0 0.0 
0.0 0.0 0.0 
0.0 0.0 0.0 
0.0 0.0 0.0 
0.0 0.0 0.0 
0.0 0.0 0.0 
0.0 0.0 0.0 
0.0 0.0 0.0 
0.0 0.0 0.0 
0.0 0.0 0.0 
0.0 0.0 0.0 
0.0 0.0 0.0 
0.0 0.0 0.0 
0.0 0.0 0.0 
0.0 0.0 0.0 
0.0 0.0 0.0 
0.0 0.0 0.0 
0.0 0.0 0.0 
0.0 0.0 0.0 
0.0 0.0 0.0 
0.0 0.0 0.0 
0.0 0.0 0.0 
0.0 0.0 0.0 
0.0 0.0 0.0 
0.0 0.0 0.0 
0.0 0.0 0.0 
0.0 0.0 0.0 
0.0 0.0 0.0 
0.0 0.0 0.0 
0.0 0.0 0.0 
0.0 0.0 0.0 
0.0 0.0 0.0 
0.0 0.0 0.0 
0.0 0.0 0.0 
0.0 0.0 0.0 
0.0 0.0 0.0 
0.0 0.0 0.0 
0.0 0.0 0.0 
0.0 0.0 0.0 
0.0 0.0 0.0 
0.0 0.0 0.0 
0.0 0.0 0.0 
0.0 0.0 0.0 
0.0 0.0 0.0 
0.0 0.0 0.0 
0.0 0.0 0.0 
0.0 0.0 0.0 
0.0 0.0 0.0 
0.0 0.0 0.0 
0.0 0.0 0.0 
0.0 0.0 0.0 
0.0 0.0 0.0 
0.0 0.0 0.0 
0.0 0.0 0.0 
0.0 0.0 0.0 
0.0 0.0 0.0 
0.0 0.0 0.0 
0.0 0.0 0.0 
0.0 0.0 0.0 
0.0 0.0 0.0 
0.0 0.0 0.0 
0.0 0.0 0.0 
0.0 0.0 0.0 
0.0 0.0 0.0 
0.0 0.0 0.0 
0.0 0.0 0.0 
0.0 0.0 0.0 
0.0 0.0 0.0 
0.0 0.0 0.0 
0.0 0.0 0.0 
0.0 0.0 0.0 
0.0 0.0 0.0 
0.0 0.0 0.0 
0.0 0.0 0.0 
0.0 0.0 0.0 
0.0 0.0 0.0 
0.0 0.0 0.0 
0.0 0.0 0.0 
0.0 0.0 0.0 
0.0 0.0 0.0 
0.0 0.0 0.0 
0.0 0.0 0.0 
0.0 0.0 0.0 
0.0 0.0 0.0 
0.0 0.0 0.0 
0.0 0.0 0.0 
0.0 0.0 0.0 
0.0 0.0 0.0 
0.0 0.0 0.0 
0.0 0.0 0.0 
0.0 0.0 0.0 
0.0 0.0 0.0 
0.0 0.0 0.0 
0.0 0.0 0.0 
0.0 0.0 0.0 
0.0 0.0 0.0 
0.0 0.0 0.0 
0.0 0.0 0.0 
0.0 0.0 0.0 
0.0 0.0 0.0 
0.0 0.0 0.0 
0.0 0.0 0.0 
0.0 0.0 0.0 
0.0 0.0 0.0 
0.0 0.0 0.0 
0.0 0.0 0.0 
0.0 0.0 0.0 
0.0 0.0 0.0 
0.0 0.0 0.0 
0.0 0.0 0.0 
0.0 0.0 0.0 
0.0 0.0 0.0 
0.0 0.0 0.0 
0.0 0.0 0.0 
0.0 0.0 0.0 
0.0 0.0 0.0 
0.0 0.0 0.0 
0.0 0.0 0.0 
0.0 0.0 0.0 
0.0 0.0 0.0 
0.0 0.0 0.0 
0.0 0.0 0.0 
0.0 0.0 0.0 
0.0 0.0 0.0 
0.0 0.0 0.0 
0.0 0.0 0.0 
0.0 0.0 0.0 
0.0 0.0 0.0 
0.0 0.0 0.0 
0.0 0.0 0.0 
0.0 0.0 0.0 
0.0 0.0 0.0 
0.0 0.0 0.0 
0.0 0.0 0.0 
0.0 0.0 0.0 
0.0 0.0 0.0 
0.0 0.0 0.0 
0.0 0.0 0.0 
0.0 0.0 0.0 
0.0 0.0 0.0 
0.0 0.0 0.0 
0.0 0.0 0.0 
0.0 0.0 0.0 
0.0 0.0 0.0 
0.0 0.0 0.0 
0.0 0.0 0.0 
0.0 0.0 0.0 
0.0 0.0 0.0 
0.0 0.0 0.0 
0.0 0.0 0.0 
0.0 0.0 0.0 
0.0 0.0 0.0 
0.0 0.0 0.0 
0.0 0.0 0.0 
0.0 0.0 0.0 
0.0 0.0 0.0 
0.0 0.0 0.0 
0.0 0.0 0.0 
0.0 0.0 0.0 
0.0 0.0 0.0 
0.0 0.0 0.0 
0.0 0.0 0.0 
0.0 0.0 0.0 
0.0 0.0 0.0 
0.0 0.0 0.0 
0.0 0.0 0.0 
0.0 0.0 0.0 
0.0 0.0 0.0 
0.0 0.0 0.0 
0.0 0.0 0.0 
0.0 0.0 0.0 
0.0 0.0 0.0 
0.0 0.0 0.0 
0.0 0.0 0.0 
0.0 0.0 0.0 
0.0 0.0 0.0 
0.0 0.0 0.0 
0.0 0.0 0.0 
0.0 0.0 0.0 
0.0 0.0 0.0 
0.0 0.0 0.0 
0.0 0.0 0.0 
0.0 0.0 0.0 
0.0 0.0 0.0 
0.0 0.0 0.0 
0.0 0.0 0.0 
0.0 0.0 0.0 
0.0 0.0 0.0 
0.0 0.0 0.0 
0.0 0.0 0.0 
0.0 0.0 0.0 
0.0 0.0 0.0 
0.0 0.0 0.0 
0.0 0.0 0.0 
0.0 0.0 0.0 
0.0 0.0 0.0 
0.0 0.0 0.0 
0.0 0.0 0.0 
0.0 0.0 0.0 
0.0 0.0 0.0 
0.0 0.0 0.0 
0.0 0.0 0.0 
0.0 0.0 0.0 
0.0 0.0 0.0 
0.0 0.0 0.0 
0.0 0.0 0.0 
0.0 0.0 0.0 
0.0 0.0 0.0 
0.0 0.0 0.0 
0.0 0.0 0.0 
0.0 0.0 0.0 
0.0 0.0 0.0 
0.0 0.0 0.0 
0.0 0.0 0.0 
0.0 0.0 0.0 
0.0 0.0 0.0 
0.0 0.0 0.0 
0.0 0.0 0.0 
0.0 0.0 0.0 
0.0 0.0 0.0 
0.0 0.0 0.0 
0.0 0.0 0.0 
0.0 0.0 0.0 
0.0 0.0 0.0 
0.0 0.0 0.0 
0.0 0.0 0.0 
0.0 0.0 0.0 
0.0 0.0 0.0 
0.0 0.0 0.0 
0.0 0.0 0.0 
0.0 0.0 0.0 
0.0 0.0 0.0 
0.0 0.0 0.0 
0.0 0.0 0.0 
0.0 0.0 0.0 
0.0 0.0 0.0 
0.0 0.0 0.0 
0.0 0.0 0.0 
0.0 0.0 0.0 
0.0 0.0 0.0 
0.0 0.0 0.0 
0.0 0.0 0.0 
0.0 0.0 0.0 
0.0 0.0 0.0 
0.0 0.0 0.0 
0.0 0.0 0.0 
0.0 0.0 0.0 
0.0 0.0 0.0 
0.0 0.0 0.0 
0.0 0.0 0.0 
0.0 0.0 0.0 
0.0 0.0 0.0 
0.0 0.0 0.0 
0.0 0.0 0.0 
0.0 0.0 0.0 
0.0 0.0 0.0 
0.0 0.0 0.0 
0.0 0.0 0.0 
0.0 0.0 0.0 
0.0 0.0 0.0 
0.0 0.0 0.0 
0.0 0.0 0.0 
0.0 0.0 0.0 
0.0 0.0 0.0 
0.0 0.0 0.0 
0.0 0.0 0.0 
0.0 0.0 0.0 
0.0 0.0 0.0 
0.0 0.0 0.0 
0.0 0.0 0.0 
0.0 0.0 0.0 
0.0 0.0 0.0 
0.0 0.0 0.0 
0.0 0.0 0.0 
0.0 0.0 0.0 
0.0 0.0 0.0 
0.0 0.0 0.0 
0.0 0.0 0.0 
0.0 0.0 0.0 
0.0 0.0 0.0 
0.0 0.0 0.0 
0.0 0.0 0.0 
0.0 0.0 0.0 
0.0 0.0 0.0 
0.0 0.0 0.0 
0.0 0.0 0.0 
0.0 0.0 0.0 
0.0 0.0 0.0 
0.0 0.0 0.0 
0.0 0.0 0.0 
0.0 0.0 0.0 
0.0 0.0 0.0 
0.0 0.0 0.0 
0.0 0.0 0.0 
0.0 0.0 0.0 
0.0 0.0 0.0 
0.0 0.0 0.0 
0.0 0.0 0.0 
0.0 0.0 0.0 
0.0 0.0 0.0 
0.0 0.0 0.0 
0.0 0.0 0.0 
0.0 0.0 0.0 
0.0 0.0 0.0 
0.0 0.0 0.0 
0.0 0.0 0.0 
0.0 0.0 0.0 
0.0 0.0 0.0 
0.0 0.0 0.0 
0.0 0.0 0.0 
0.0 0.0 0.0 
0.0 0.0 0.0 
0.0 0.0 0.0 
0.0 0.0 0.0 
0.0 0.0 0.0 
0.0 0.0 0.0 
0.0 0.0 0.0 
0.0 0.0 0.0 
0.0 0.0 0.0 
0.0 0.0 0.0 
0.0 0.0 0.0 
0.0 0.0 0.0 
0.0 0.0 0.0 
0.0 0.0 0.0 
0.0 0.0 0.0 
0.0 0.0 0.0 
0.0 0.0 0.0 
0.0 0.0 0.0 
0.0 0.0 0.0 
0.0 0.0 0.0 
0.0 0.0 0.0 
0.0 0.0 0.0 
0.0 0.0 0.0 
0.0 0.0 0.0 
0.0 0.0 0.0 
0.0 0.0 0.0 
0.0 0.0 0.0 
0.0 0.0 0.0 
0.0 0.0 0.0 
0.0 0.0 0.0 
0.0 0.0 0.0 
0.0 0.0 0.0 
0.0 0.0 0.0 
0.0 0.0 0.0 
0.0 0.0 0.0 
0.0 0.0 0.0 
0.0 0.0 0.0 
0.0 0.0 0.0 
0.0 0.0 0.0 
0.0 0.0 0.0 
0.0 0.0 0.0 
0.0 0.0 0.0 
0.0 0.0 0.0 
0.0 0.0 0.0 
0.0 0.0 0.0 
0.0 0.0 0.0 
0.0 0.0 0.0 
0.0 0.0 0.0 
0.0 0.0 0.0 
0.0 0.0 0.0 
0.0 0.0 0.0 
0.0 0.0 0.0 
0.0 0.0 0.0 
0.0 0.0 0.0 
0.0 0.0 0.0 
0.0 0.0 0.0 
0.0 0.0 0.0 
0.0 0.0 0.0 
0.0 0.0 0.0 
0.0 0.0 0.0 
0.0 0.0 0.0 
0.0 0.0 0.0 
0.0 0.0 0.0 
0.0 0.0 0.0 
0.0 0.0 0.0 
0.0 0.0 0.0 
0.0 0.0 0.0 
0.0 0.0 0.0 
0.0 0.0 0.0 
0.0 0.0 0.0 
0.0 0.0 0.0 
0.0 0.0 0.0 
0.0 0.0 0.0 
0.0 0.0 0.0 
0.0 0.0 0.0 
0.0 0.0 0.0 
0.0 0.0 0.0 
0.0 0.0 0.0 
0.0 0.0 0.0 
0.0 0.0 0.0 
0.0 0.0 0.0 
0.0 0.0 0.0 
0.0 0.0 0.0 
0.0 0.0 0.0 
0.0 0.0 0.0 
0.0 0.0 0.0 
0.0 0.0 0.0 
0.0 0.0 0.0 
0.0 0.0 0.0 
0.0 0.0 0.0 
0.0 0.0 0.0 
0.0 0.0 0.0 
0.0 0.0 0.0 
0.0 0.0 0.0 
0.0 0.0 0.0 
0.0 0.0 0.0 
0.0 0.0 0.0 
0.0 0.0 0.0 
0.0 0.0 0.0 
0.0 0.0 0.0 
0.0 0.0 0.0 
0.0 0.0 0.0 
0.0 0.0 0.0 
0.0 0.0 0.0 
0.0 0.0 0.0 
0.0 0.0 0.0 
0.0 0.0 0.0 
0.0 0.0 0.0 
0.0 0.0 0.0 
0.0 0.0 0.0 
0.0 0.0 0.0 
0.0 0.0 0.0 
0.0 0.0 0.0 
0.0 0.0 0.0 
0.0 0.0 0.0 
0.0 0.0 0.0 
0.0 0.0 0.0 
0.0 0.0 0.0 
0.0 0.0 0.0 
0.0 0.0 0.0 
0.0 0.0 0.0 
0.0 0.0 0.0 
0.0 0.0 0.0 
0.0 0.0 0.0 
0.0 0.0 0.0 
0.0 0.0 0.0 
0.0 0.0 0.0 
0.0 0.0 0.0 
0.0 0.0 0.0 
0.0 0.0 0.0 
0.0 0.0 0.0 
0.0 0.0 0.0 
0.0 0.0 0.0 
0.0 0.0 0.0 
0.0 0.0 0.0 
0.0 0.0 0.0 
0.0 0.0 0.0 
0.0 0.0 0.0 
0.0 0.0 0.0 
0.0 0.0 0.0 
0.0 0.0 0.0 
0.0 0.0 0.0 
0.0 0.0 0.0 
0.0 0.0 0.0 
0.0 0.0 0.0 
0.0 0.0 0.0 
0.0 0.0 0.0 
0.0 0.0 0.0 
0.0 0.0 0.0 
0.0 0.0 0.0 
0.0 0.0 0.0 
0.0 0.0 0.0 
0.0 0.0 0.0 
0.0 0.0 0.0 
0.0 0.0 0.0 
0.0 0.0 0.0 
0.0 0.0 0.0 
0.0 0.0 0.0 
0.0 0.0 0.0 
0.0 0.0 0.0 
0.0 0.0 0.0 
0.0 0.0 0.0 
0.0 0.0 0.0 
0.0 0.0 0.0 
0.0 0.0 0.0 
0.0 0.0 0.0 
0.0 0.0 0.0 
0.0 0.0 0.0 
0.0 0.0 0.0 
0.0 0.0 0.0 
0.0 0.0 0.0 
0.0 0.0 0.0 
0.0 0.0 0.0 
0.0 0.0 0.0 
0.0 0.0 0.0 
0.0 0.0 0.0 
0.0 0.0 0.0 
0.0 0.0 0.0 
0.0 0.0 0.0 
0.0 0.0 0.0 
0.0 0.0 0.0 
0.0 0.0 0.0 
0.0 0.0 0.0 
0.0 0.0 0.0 
0.0 0.0 0.0 
0.0 0.0 0.0 
0.0 0.0 0.0 
0.0 0.0 0.0 
0.0 0.0 0.0 
0.0 0.0 0.0 
0.0 0.0 0.0 
0.0 0.0 0.0 
0.0 0.0 0.0 
0.0 0.0 0.0 
0.0 0.0 0.0 
0.0 0.0 0.0 
0.0 0.0 0.0 
0.0 0.0 0.0 
0.0 0.0 0.0 
0.0 0.0 0.0 
0.0 0.0 0.0 
0.0 0.0 0.0 
0.0 0.0 0.0 
0.0 0.0 0.0 
0.0 0.0 0.0 
0.0 0.0 0.0 
0.0 0.0 0.0 
0.0 0.0 0.0 
0.0 0.0 0.0 
0.0 0.0 0.0 
0.0 0.0 0.0 
0.0 0.0 0.0 
0.0 0.0 0.0 
0.0 0.0 0.0 
0.0 0.0 0.0 
0.0 0.0 0.0 
0.0 0.0 0.0 
0.0 0.0 0.0 
0.0 0.0 0.0 
0.0 0.0 0.0 
0.0 0.0 0.0 
0.0 0.0 0.0 
0.0 0.0 0.0 
0.0 0.0 0.0 
0.0 0.0 0.0 
0.0 0.0 0.0 
0.0 0.0 0.0 
0.0 0.0 0.0 
0.0 0.0 0.0 
0.0 0.0 0.0 
0.0 0.0 0.0 
0.0 0.0 0.0 
0.0 0.0 0.0 
0.0 0.0 0.0 
0.0 0.0 0.0 
0.0 0.0 0.0 
0.0 0.0 0.0 
0.0 0.0 0.0 
0.0 0.0 0.0 
0.0 0.0 0.0 
0.0 0.0 0.0 
0.0 0.0 0.0 
0.0 0.0 0.0 
0.0 0.0 0.0 
0.0 0.0 0.0 
0.0 0.0 0.0 
0.0 0.0 0.0 
0.0 0.0 0.0 
0.0 0.0 0.0 
0.0 0.0 0.0 
0.0 0.0 0.0 
0.0 0.0 0.0 
0.0 0.0 0.0 
0.0 0.0 0.0 
0.0 0.0 0.0 
0.0 0.0 0.0 
0.0 0.0 0.0 
0.0 0.0 0.0 
0.0 0.0 0.0 
0.0 0.0 0.0 
0.0 0.0 0.0 
0.0 0.0 0.0 
0.0 0.0 0.0 
0.0 0.0 0.0 
0.0 0.0 0.0 
0.0 0.0 0.0 
0.0 0.0 0.0 
0.0 0.0 0.0 
0.0 0.0 0.0 
0.0 0.0 0.0 
0.0 0.0 0.0 
0.0 0.0 0.0 
0.0 0.0 0.0 
0.0 0.0 0.0 
0.0 0.0 0.0 
0.0 0.0 0.0 
0.0 0.0 0.0 
0.0 0.0 0.0 
0.0 0.0 0.0 
0.0 0.0 0.0 
0.0 0.0 0.0 
0.0 0.0 0.0 
0.0 0.0 0.0 
0.0 0.0 0.0 
0.0 0.0 0.0 
0.0 0.0 0.0 
0.0 0.0 0.0 
0.0 0.0 0.0 
0.0 0.0 0.0 
0.0 0.0 0.0 
0.0 0.0 0.0 
0.0 0.0 0.0 
0.0 0.0 0.0 
0.0 0.0 0.0 
0.0 0.0 0.0 
0.0 0.0 0.0 
0.0 0.0 0.0 
0.0 0.0 0.0 
0.0 0.0 0.0 
0.0 0.0 0.0 
0.0 0.0 0.0 
0.0 0.0 0.0 
0.0 0.0 0.0 
0.0 0.0 0.0 
0.0 0.0 0.0 
0.0 0.0 0.0 
0.0 0.0 0.0 
0.0 0.0 0.0 
0.0 0.0 0.0 
0.0 0.0 0.0 
0.0 0.0 0.0 
0.0 0.0 0.0 
0.0 0.0 0.0 
0.0 0.0 0.0 
0.0 0.0 0.0 
0.0 0.0 0.0 
0.0 0.0 0.0 
0.0 0.0 0.0 
0.0 0.0 0.0 
0.0 0.0 0.0 
0.0 0.0 0.0 
0.0 0.0 0.0 
0.0 0.0 0.0 
0.0 0.0 0.0 
0.0 0.0 0.0 
0.0 0.0 0.0 
0.0 0.0 0.0 
0.0 0.0 0.0 
0.0 0.0 0.0 
0.0 0.0 0.0 
0.0 0.0 0.0 
0.0 0.0 0.0 
0.0 0.0 0.0 
0.0 0.0 0.0 
0.0 0.0 0.0 
0.0 0.0 0.0 
0.0 0.0 0.0 
0.0 0.0 0.0 
0.0 0.0 0.0 
0.0 0.0 0.0 
0.0 0.0 0.0 
0.0 0.0 0.0 
0.0 0.0 0.0 
0.0 0.0 0.0 
0.0 0.0 0.0 
0.0 0.0 0.0 
0.0 0.0 0.0 
0.0 0.0 0.0 
0.0 0.0 0.0 
0.0 0.0 0.0 
0.0 0.0 0.0 
0.0 0.0 0.0 
0.0 0.0 0.0 
0.0 0.0 0.0 
0.0 0.0 0.0 
0.0 0.0 0.0 
0.0 0.0 0.0 
0.0 0.0 0.0 
0.0 0.0 0.0 
0.0 0.0 0.0 
0.0 0.0 0.0 
0.0 0.0 0.0 
0.0 0.0 0.0 
0.0 0.0 0.0 
0.0 0.0 0.0 
0.0 0.0 0.0 
0.0 0.0 0.0 
0.0 0.0 0.0 
0.0 0.0 0.0 
0.0 0.0 0.0 
0.0 0.0 0.0 
0.0 0.0 0.0 
0.0 0.0 0.0 
0.0 0.0 0.0 
0.0 0.0 0.0 
0.0 0.0 0.0 
0.0 0.0 0.0 
0.0 0.0 0.0 
0.0 0.0 0.0 
0.0 0.0 0.0 
0.0 0.0 0.0 
0.0 0.0 0.0 
0.0 0.0 0.0 
0.0 0.0 0.0 
0.0 0.0 0.0 
0.0 0.0 0.0 
0.0 0.0 0.0 
0.0 0.0 0.0 
0.0 0.0 0.0 
0.0 0.0 0.0 
0.0 0.0 0.0 
0.0 0.0 0.0 
0.0 0.0 0.0 
0.0 0.0 0.0 
0.0 0.0 0.0 
0.0 0.0 0.0 
0.0 0.0 0.0 
0.0 0.0 0.0 
0.0 0.0 0.0 
0.0 0.0 0.0 
0.0 0.0 0.0 
0.0 0.0 0.0 
0.0 0.0 0.0 
0.0 0.0 0.0 
0.0 0.0 0.0 
0.0 0.0 0.0 
0.0 0.0 0.0 
0.0 0.0 0.0 
0.0 0.0 0.0 
0.0 0.0 0.0 
0.0 0.0 0.0 
0.0 0.0 0.0 
0.0 0.0 0.0 
0.0 0.0 0.0 
0.0 0.0 0.0 
0.0 0.0 0.0 
0.0 0.0 0.0 
0.0 0.0 0.0 
0.0 0.0 0.0 
0.0 0.0 0.0 
0.0 0.0 0.0 
0.0 0.0 0.0 
0.0 0.0 0.0 
0.0 0.0 0.0 
0.0 0.0 0.0 
0.0 0.0 0.0 
0.0 0.0 0.0 
0.0 0.0 0.0 
0.0 0.0 0.0 
0.0 0.0 0.0 
0.0 0.0 0.0 
0.0 0.0 0.0 
0.0 0.0 0.0 
0.0 0.0 0.0 
0.0 0.0 0.0 
0.0 0.0 0.0 
0.0 0.0 0.0 
0.0 0.0 0.0 
0.0 0.0 0.0 
0.0 0.0 0.0 
0.0 0.0 0.0 
0.0 0.0 0.0 
0.0 0.0 0.0 
0.0 0.0 0.0 
0.0 0.0 0.0 
0.0 0.0 0.0 
0.0 0.0 0.0 
0.0 0.0 0.0 
0.0 0.0 0.0 
0.0 0.0 0.0 
0.0 0.0 0.0 
0.0 0.0 0.0 
0.0 0.0 0.0 
0.0 0.0 0.0 
0.0 0.0 0.0 
0.0 0.0 0.0 
0.0 0.0 0.0 
0.0 0.0 0.0 
0.0 0.0 0.0 

VECTORS node_materi_velocity float
0.0 -6.815064181621e-04 0.0 
0.0 9.844679859056e-03 0.0 
0.0 0.0 0.0 
0.0 0.0 0.0 
0.0 -6.721353320754e-04 0.0 
0.0 -6.596306013100e-04 0.0 
0.0 -6.427893895566e-04 0.0 
0.0 -6.206801972881e-04 0.0 
0.0 -5.918098704669e-04 0.0 
0.0 -5.567308323180e-04 0.0 
0.0 -5.157413591990e-04 0.0 
0.0 -4.691858397335e-04 0.0 
0.0 -4.180453428573e-04 0.0 
0.0 -3.634075362915e-04 0.0 
0.0 -3.067160913231e-04 0.0 
0.0 -2.499174393697e-04 0.0 
0.0 -1.946337919270e-04 0.0 
0.0 -1.418296236315e-04 0.0 
0.0 -9.437940891418e-05 0.0 
0.0 -5.405473048050e-05 0.0 
0.0 -2.252608660811e-05 0.0 
0.0 -2.178431375072e-06 0.0 
0.0 4.850821399078e-06 0.0 
0.0 0.0 0.0 
0.0 0.0 0.0 
0.0 0.0 0.0 
0.0 0.0 0.0 
0.0 0.0 0.0 
0.0 0.0 0.0 
0.0 0.0 0.0 
0.0 0.0 0.0 
0.0 0.0 0.0 
0.0 0.0 0.0 
0.0 0.0 0.0 
0.0 0.0 0.0 
0.0 0.0 0.0 
0.0 0.0 0.0 
0.0 0.0 0.0 
0.0 0.0 0.0 
0.0 0.0 0.0 
0.0 0.0 0.0 
0.0 0.0 0.0 
0.0 0.0 0.0 
0.0 0.0 0.0 
0.0 0.0 0.0 
0.0 0.0 0.0 
0.0 0.0 0.0 
0.0 0.0 0.0 
0.0 0.0 0.0 
0.0 0.0 0.0 
0.0 0.0 0.0 
0.0 0.0 0.0 
0.0 0.0 0.0 
0.0 0.0 0.0 
0.0 0.0 0.0 
0.0 0.0 0.0 
0.0 0.0 0.0 
0.0 0.0 0.0 
0.0 0.0 0.0 
0.0 0.0 0.0 
0.0 0.0 0.0 
0.0 0.0 0.0 
0.0 0.0 0.0 
0.0 0.0 0.0 
0.0 0.0 0.0 
0.0 0.0 0.0 
0.0 0.0 0.0 
0.0 0.0 0.0 
0.0 0.0 0.0 
0.0 0.0 0.0 
0.0 0.0 0.0 
0.0 0.0 0.0 
0.0 8.836913670684e-03 0.0 
0.0 7.831065772068e-03 0.0 
0.0 6.828391393603e-03 0.0 
0.0 5.829607082624e-03 0.0 
0.0 4.836446715917e-03 0.0 
0.0 3.850013554664e-03 0.0 
0.0 2.871856464603e-03 0.0 
0.0 1.903409460477e-03 0.0 
0.0 9.461459189440e-04 0.0 
-8.822355623230e-04 1.847416504143e-03 0.0 
1.798264441846e-03 9.674443622669e-03 0.0 
-6.977863019622e-04 2.717914855949e-03 0.0 
-3.693562150901e-04 3.745143348842e-03 0.0 
6.590908887604e-04 5.307450131195e-03 0.0 
6.768217057671e-05 8.540232603815e-03 0.0 
8.167360463678e-04 1.057799158001e-02 0.0 
1.514382594193e-03 1.129087525133e-02 0.0 
1.859978367569e-03 1.136830071575e-02 0.0 
1.974111571533e-03 1.103757904860e-02 0.0 
1.936008035491e-03 1.044188069109e-02 0.0 
0.0 1.594291943493e-02 0.0 
0.0 1.491342291463e-02 0.0 
0.0 1.389458024121e-02 0.0 
0.0 1.287818180467e-02 0.0 
0.0 1.186549120951e-02 0.0 
0.0 1.085405364545e-02 0.0 
1.026639473551e-04 9.846314908989e-03 0.0 
2.061769751816e-04 9.851417135599e-03 0.0 
3.100501393761e-04 9.859724627063e-03 0.0 
4.146394426444e-04 9.871146305213e-03 0.0 
5.203402639996e-04 9.884655419941e-03 0.0 
6.272592557551e-04 9.899441709480e-03 0.0 
7.363891010134e-04 9.914891273050e-03 0.0 
8.478989551808e-04 9.928301219467e-03 0.0 
9.630995708873e-04 9.938611425917e-03 0.0 
1.083048821771e-03 9.942314153013e-03 0.0 
1.208477580694e-03 9.934889350300e-03 0.0 
1.341239214155e-03 9.911347465669e-03 0.0 
1.482652072316e-03 9.865788469966e-03 0.0 
1.634261968584e-03 9.789694294427e-03 0.0 
-8.248818605181e-04 1.453466171385e-03 0.0 
-7.253366410095e-04 1.067916205692e-03 0.0 
-6.094886257843e-04 7.319295163664e-04 0.0 
-4.882427122944e-04 4.475573891904e-04 0.0 
-3.781208063549e-04 2.110897064084e-04 0.0 
-2.792829064180e-04 1.686536267590e-05 0.0 
-1.923807573992e-04 -1.411992494693e-04 0.0 
-1.186897607518e-04 -2.690736851035e-04 0.0 
-5.791467017996e-05 -3.709435851919e-04 0.0 
-9.946390935331e-06 -4.509380229843e-04 0.0 
2.586173149474e-05 -5.142548934080e-04 0.0 
5.125164878439e-05 -5.616868851379e-04 0.0 
6.581079874131e-05 -5.982975448540e-04 0.0 
7.283386547868e-05 -6.257388048020e-04 0.0 
7.222204360879e-05 -6.462522513474e-04 0.0 
6.517758521376e-05 -6.605708806148e-04 0.0 
5.299076506447e-05 -6.704083051360e-04 0.0 
3.713297278057e-05 -6.770628982888e-04 0.0 
1.918201832554e-05 -6.803529645373e-04 0.0 
1.561863036017e-04 1.594939757335e-02 0.0 
2.867409428122e-04 1.594325770698e-02 0.0 
4.169470207264e-04 1.594634441150e-02 0.0 
5.480445622003e-04 1.595316189541e-02 0.0 
6.763660612118e-04 1.596122206909e-02 0.0 
7.988504034239e-04 1.596932963065e-02 0.0 
9.127060444717e-04 1.597633080075e-02 0.0 
1.014904893802e-03 1.598093549613e-02 0.0 
1.102005048431e-03 1.598126099313e-02 0.0 
1.170245306189e-03 1.597487829725e-02 0.0 
1.215231427100e-03 1.595894250068e-02 0.0 
1.231695723897e-03 1.592981581666e-02 0.0 
1.213702506519e-03 1.588228798788e-02 0.0 
1.156028609602e-03 1.580798256255e-02 0.0 
1.057112273172e-03 1.569445394298e-02 0.0 
9.180735425761e-04 1.553938856656e-02 0.0 
7.196692689262e-04 1.532780132299e-02 0.0 
4.636280302978e-04 1.502039554689e-02 0.0 
1.614316052130e-04 1.460443792162e-02 0.0 
-1.672545568329e-04 1.404875790499e-02 0.0 
-4.876851935941e-04 1.329155240813e-02 0.0 
-7.150503906647e-04 1.228266009140e-02 0.0 
-8.938203028312e-04 1.099571145845e-02 0.0 
6.674004298681e-04 1.182642509757e-02 0.0 
6.645713828458e-04 1.272984391397e-02 0.0 
7.155793483852e-04 1.339160030885e-02 0.0 
8.068544376551e-04 1.388047707640e-02 0.0 
9.081120343800e-04 1.423662346765e-02 0.0 
1.001270580975e-03 1.449031780243e-02 0.0 
1.078981119713e-03 1.466617890324e-02 0.0 
1.135099429810e-03 1.479278342101e-02 0.0 
1.167259783069e-03 1.487867894718e-02 0.0 
1.176172333491e-03 1.493180769262e-02 0.0 
1.162510680284e-03 1.496232728502e-02 0.0 
1.127835520933e-03 1.497751212846e-02 0.0 
1.074409492750e-03 1.498211561507e-02 0.0 
1.004771593936e-03 1.497947052139e-02 0.0 
9.214600343517e-04 1.497215370646e-02 0.0 
8.268660570673e-04 1.496227740257e-02 0.0 
7.232153281937e-04 1.495144687979e-02 0.0 
6.125988781284e-04 1.494088142855e-02 0.0 
4.969455132661e-04 1.493170844646e-02 0.0 
3.779082723211e-04 1.492495743194e-02 0.0 
2.559724106014e-04 1.492091206962e-02 0.0 
1.280435078370e-04 1.491916698294e-02 0.0 
1.217188925632e-04 1.389579520423e-02 0.0 
2.428618566290e-04 1.390143282834e-02 0.0 
3.612487525173e-04 1.390785408951e-02 0.0 
4.765754896169e-04 1.391684161918e-02 0.0 
5.882476603462e-04 1.392847316196e-02 0.0 
6.952425191447e-04 1.394199101333e-02 0.0 
7.962837507554e-04 1.395631297984e-02 0.0 
8.899831337252e-04 1.397007181858e-02 0.0 
9.749069050577e-04 1.398142996891e-02 0.0 
1.049653625683e-03 1.398795223396e-02 0.0 
1.113029395215e-03 1.398644929618e-02 0.0 
1.164275532129e-03 1.397256286055e-02 0.0 
1.203296574788e-03 1.394009585463e-02 0.0 
1.230673262407e-03 1.388041788105e-02 0.0 
1.247546145271e-03 1.378343922169e-02 0.0 
1.257219426423e-03 1.363756436373e-02 0.0 
1.267528877918e-03 1.342502305954e-02 0.0 
1.285819374355e-03 1.311881839523e-02 0.0 
1.324140854504e-03 1.269126316517e-02 0.0 
1.388343903923e-03 1.210260695327e-02 0.0 
1.722564318558e-03 1.187542471984e-02 0.0 
1.616584531575e-03 1.224423571719e-02 0.0 
1.525469918428e-03 1.250938515007e-02 0.0 
1.448791845439e-03 1.269636554367e-02 0.0 
1.379622583025e-03 1.282322116664e-02 0.0 
1.313015923116e-03 1.290578099179e-02 0.0 
1.245609512075e-03 1.295499441347e-02 0.0 
1.175400618279e-03 1.298012969667e-02 0.0 
1.100926707544e-03 1.298849839127e-02 0.0 
1.021348319189e-03 1.298565069541e-02 0.0 
9.363747779499e-04 1.297568217825e-02 0.0 
8.461614833155e-04 1.296165622280e-02 0.0 
7.511540596171e-04 1.294587447599e-02 0.0 
6.519028588928e-04 1.293002384646e-02 0.0 
5.490235160413e-04 1.291533811826e-02 0.0 
4.430829834421e-04 1.290269365623e-02 0.0 
3.345274099076e-04 1.289258164887e-02 0.0 
2.238349049808e-04 1.288509318474e-02 0.0 
1.119990493221e-04 1.288072218695e-02 0.0 
1.102576595626e-04 1.186682161737e-02 0.0 
2.204076502389e-04 1.187253500856e-02 0.0 
3.298197577009e-04 1.188112404004e-02 0.0 
4.380266550317e-04 1.189268224487e-02 0.0 
5.447659461778e-04 1.190685098156e-02 0.0 
6.498813871463e-04 1.192300090470e-02 0.0 
7.531602308160e-04 1.194014162452e-02 0.0 
8.546202488332e-04 1.195672301150e-02 0.0 
9.542920921358e-04 1.197077163573e-02 0.0 
1.052456422089e-03 1.197936748086e-02 0.0 
1.149862212616e-03 1.197860621704e-02 0.0 
1.247692772010e-03 1.196344778163e-02 0.0 
1.347626757517e-03 1.192721662816e-02 0.0 
1.451875611360e-03 1.186156225411e-02 0.0 
1.562990541617e-03 1.175514807402e-02 0.0 
1.684991832333e-03 1.159541988536e-02 0.0 
1.818763086575e-03 1.136439655940e-02 0.0 
1.777407519015e-03 1.063794010087e-02 0.0 
1.634673675083e-03 1.077269988819e-02 0.0 
1.500262979438e-03 1.086250573276e-02 0.0 
1.375414434765e-03 1.091891993269e-02 0.0 
1.257712873039e-03 1.094996723863e-02 0.0 
1.145373100184e-03 1.096268764439e-02 0.0 
1.036779773662e-03 1.096263151427e-02 0.0 
9.306153371265e-04 1.095406161653e-02 0.0 
8.260250477186e-04 1.094069622833e-02 0.0 
7.224905954407e-04 1.092518172464e-02 0.0 
6.193344886672e-04 1.090890243080e-02 0.0 
5.163756517821e-04 1.089367337833e-02 0.0 
4.133427678906e-04 1.088013335415e-02 0.0 
3.100964014138e-04 1.086899460897e-02 0.0 
2.067128455285e-04 1.086088040638e-02 0.0 
1.033803371974e-04 1.085629290668e-02 0.0 
-7.506068537653e-04 2.257344364596e-03 0.0 
-5.774899015598e-04 3.162141016753e-03 0.0 
-2.569123830482e-05 4.447788630802e-03 0.0 
5.564562029607e-04 6.892705465128e-03 0.0 
4.143402318019e-04 9.741121089268e-03 0.0 
1.234834217451e-03 1.102694512051e-02 0.0 
1.728944805331e-03 1.138917812764e-02 0.0 
1.943075159860e-03 1.124185468075e-02 0.0 
1.972560815911e-03 1.076446241901e-02 0.0 
1.878131918834e-03 1.007441552269e-02 0.0 
-1.011208843276e-04 3.178118847457e-03 0.0 
4.056896803072e-04 1.272949346682e-04 0.0 
4.676706064324e-05 -4.274683214909e-04 0.0 
-2.332428852122e-04 2.970067913855e-04 0.0 
2.476949419114e-04 5.179681189364e-05 0.0 
8.895841243785e-04 6.669913952343e-03 0.0 
8.015648331663e-05 -3.335493571811e-04 0.0 
5.375373931165e-04 2.360466037246e-04 0.0 
1.959949381816e-03 1.004374915908e-02 0.0 
5.992457566041e-04 3.760783502030e-04 0.0 
2.237174576479e-03 1.027078315674e-02 0.0 
1.337657062513e-04 2.169326260484e-05 0.0 
1.003233758594e-04 -6.161937686253e-04 0.0 
5.822025554622e-04 5.500440738471e-04 0.0 
1.976674593550e-03 9.121571314439e-03 0.0 
5.770542033510e-05 -5.352442455557e-04 0.0 
8.231587481420e-05 -1.773270200308e-04 0.0 
5.192082128030e-04 6.840145273882e-04 0.0 
3.454403102240e-04 7.452944833707e-04 0.0 
8.989213910908e-05 8.068565462453e-04 0.0 
1.712841083892e-04 8.686122038485e-04 0.0 
2.362501964256e-04 7.622817569094e-04 0.0 
1.588359899830e-03 8.913533158072e-03 0.0 
1.024131036562e-03 9.018718982787e-03 0.0 
6.709850334199e-04 8.965997535369e-03 0.0 
6.151027694005e-05 5.317358464399e-03 0.0 
8.028156939063e-05 1.179199285879e-05 0.0 
-4.913230732529e-04 1.243587521373e-03 0.0 
7.220625205988e-05 -6.603750789223e-04 0.0 
5.644263857023e-05 -3.878716672693e-05 0.0 
3.466184304730e-04 8.994181895937e-03 0.0 
3.879295595105e-05 -6.326249265999e-04 0.0 
4.842820884160e-04 8.197901675574e-04 0.0 
5.345452674170e-04 2.786514027765e-04 0.0 
5.971239988176e-04 4.574165475913e-04 0.0 
5.056938733527e-04 1.889525871032e-04 0.0 
3.222168991530e-04 8.541269614475e-05 0.0 
-8.561241394103e-05 -9.347969286235e-05 0.0 
1.288936072059e-03 9.057350202859e-03 0.0 
2.197734638013e-04 3.883629763967e-05 0.0 
4.585633346378e-05 3.401812651234e-03 0.0 
9.026727779335e-05 -5.466967779885e-04 0.0 
7.259803631504e-05 -4.436655281356e-04 0.0 
4.481575392589e-05 6.552562638899e-04 0.0 
1.534795696524e-03 8.772138800701e-03 0.0 
6.015892714261e-04 4.637568422079e-03 0.0 
2.188372236043e-03 1.040367994124e-02 0.0 
2.152167014068e-03 9.805051540373e-03 0.0 
-5.127516410563e-04 2.208361640078e-03 0.0 
7.643744270923e-05 7.209976782389e-03 0.0 
3.609581732708e-05 6.396804604491e-06 0.0 
3.377757048168e-05 -6.718666206657e-04 0.0 
2.468336713358e-05 1.494007324856e-03 0.0 
1.892962980920e-03 8.694864077438e-03 0.0 
2.039597887833e-03 8.155207184642e-03 0.0 
1.867479736970e-03 7.831894963593e-03 0.0 
2.036897923893e-03 7.210135737240e-03 0.0 
1.868416902089e-03 6.791668052684e-03 0.0 
1.993343017008e-03 6.247263879426e-03 0.0 
2.182908469254e-03 6.621350662623e-03 0.0 
2.105022274716e-03 5.688495122608e-03 0.0 
2.310562022379e-03 6.026565954270e-03 0.0 
1.797209046770e-03 5.825267547616e-03 0.0 
2.194144440171e-03 5.122267212893e-03 0.0 
2.412914045416e-03 5.422695124639e-03 0.0 
2.255637909810e-03 4.557211074187e-03 0.0 
2.483059593390e-03 4.819120604094e-03 0.0 
2.618945388889e-03 5.666798246060e-03 0.0 
2.695044089053e-03 5.023903575542e-03 0.0 
2.806708912960e-03 5.842840210530e-03 0.0 
2.884960584950e-03 5.156136986163e-03 0.0 
2.730873339640e-03 4.398232893408e-03 0.0 
2.918574506555e-03 4.494462275176e-03 0.0 
3.046854391281e-03 5.208801342495e-03 0.0 
3.073038927168e-03 4.511933103892e-03 0.0 
3.173135042665e-03 5.173045845677e-03 0.0 
3.186882014869e-03 4.443971354777e-03 0.0 
3.256647352875e-03 5.042109346237e-03 0.0 
3.253719804805e-03 4.292290429851e-03 0.0 
3.151630700988e-03 3.774632191978e-03 0.0 
3.202933213849e-03 3.617117758615e-03 0.0 
3.266355652024e-03 4.061510960633e-03 0.0 
3.200127232786e-03 3.393527036955e-03 0.0 
3.219918443027e-03 3.761948644236e-03 0.0 
3.141319679931e-03 3.115790719639e-03 0.0 
3.098078350744e-03 2.811541345780e-03 0.0 
3.032734746693e-03 2.562022583299e-03 0.0 
3.028155007488e-03 2.799628322306e-03 0.0 
2.919224624581e-03 2.284928206562e-03 0.0 
2.866483943036e-03 2.462785022637e-03 0.0 
2.764139133330e-03 1.993759003018e-03 0.0 
2.665791636363e-03 2.120741935162e-03 0.0 
2.574937348352e-03 1.698793526520e-03 0.0 
2.645122527272e-03 1.599365608024e-03 0.0 
2.468739205929e-03 1.345183771228e-03 0.0 
2.361256931087e-03 1.411072912442e-03 0.0 
2.271459238888e-03 1.098579703880e-03 0.0 
2.348882271274e-03 1.052570426708e-03 0.0 
2.167746651261e-03 8.414590483126e-04 0.0 
2.217372229754e-03 8.123695430956e-04 0.0 
2.052277269106e-03 6.316648009913e-04 0.0 
1.976877007538e-03 6.425310164329e-04 0.0 
1.877617792840e-03 4.606952356855e-04 0.0 
1.927452743096e-03 4.625882997329e-04 0.0 
1.767810787521e-03 3.152244516295e-04 0.0 
1.697183517790e-03 3.008660795345e-04 0.0 
1.603859540426e-03 1.782009250912e-04 0.0 
1.651046810994e-03 2.015203941157e-04 0.0 
1.501329636201e-03 8.290239764309e-05 0.0 
1.438910998609e-03 5.228967623478e-05 0.0 
1.350647716087e-03 -2.586311466318e-05 0.0 
1.393427790590e-03 1.176518731112e-05 0.0 
1.254989606957e-03 -8.348110595098e-05 0.0 
1.201045702132e-03 -1.248526147004e-04 0.0 
1.118041427311e-03 -1.695485107767e-04 0.0 
1.154697169059e-03 -1.233376721699e-04 0.0 
1.028624214925e-03 -1.994450924913e-04 0.0 
1.050168900343e-03 -1.494203726590e-04 0.0 
9.820576308922e-04 -2.481112141944e-04 0.0 
9.040987839307e-04 -2.683923064726e-04 0.0 
8.505705838703e-04 -3.182099380491e-04 0.0 
7.831720224677e-04 -3.301376604006e-04 0.0 
2.967280236905e-03 2.309965211620e-03 0.0 
7.273671786859e-04 -3.788996226296e-04 0.0 
7.802096834167e-04 -3.626623657323e-04 0.0 
6.679997212718e-04 -3.846667099453e-04 0.0 
7.092776286830e-04 -3.332263587107e-04 0.0 
6.119746002148e-04 -4.316806440121e-04 0.0 
5.595562943866e-04 -4.324417516243e-04 0.0 
5.055653187226e-04 -4.770257562292e-04 0.0 
2.730787185921e-03 2.626738315578e-03 0.0 
2.723454854418e-03 3.800742118639e-03 0.0 
4.589505079885e-04 -4.739430407917e-04 0.0 
4.090030217385e-04 -5.155483280850e-04 0.0 
4.421751004032e-04 -5.152709248116e-04 0.0 
3.523393543896e-04 -5.504528342646e-04 0.0 
1.685853829535e-03 6.354441414510e-03 0.0 
1.595937140053e-03 5.375785649881e-03 0.0 
1.502296122199e-03 5.890033859047e-03 0.0 
1.392533308916e-03 4.908338744603e-03 0.0 
1.316339878641e-03 5.400681945722e-03 0.0 
3.226405677208e-04 -5.480657271870e-04 0.0 
2.016803607316e-03 4.218929086324e-03 0.0 
1.454432794678e-03 4.404652497635e-03 0.0 
3.106809359222e-03 5.949829513426e-03 0.0 
3.260122998900e-03 4.508027863585e-03 0.0 
2.365389111747e-03 9.980517299031e-04 0.0 
4.999112639697e-04 -4.266091885195e-04 0.0 
4.047170406415e-04 -4.653238132598e-04 0.0 
4.341252838967e-04 -4.156770377327e-04 0.0 
1.163361102133e-03 -7.666544459647e-05 0.0 
1.044989310739e-03 -1.001510492543e-04 0.0 
1.141551549084e-03 -3.217723056485e-05 0.0 
1.011856955138e-03 -5.377555443848e-05 0.0 
1.088164917775e-03 7.799994807176e-06 0.0 
9.501887428754e-04 -1.250452488091e-05 0.0 
8.847140476951e-04 -6.626373817027e-05 0.0 
8.174077190424e-04 -2.457806083396e-05 0.0 
7.614801147994e-04 -7.165774953277e-05 0.0 
1.002912955334e-03 4.092356316294e-05 0.0 
1.152193184147e-03 6.973765690722e-05 0.0 
6.910724975626e-04 -3.040954941360e-05 0.0 
6.433802576167e-04 -7.173715458806e-05 0.0 
5.723139912307e-04 -3.175146136031e-05 0.0 
5.316147047434e-04 -6.793627387129e-05 0.0 
5.847332936166e-04 -1.135987116675e-04 0.0 
4.793669278172e-04 -1.051800444535e-04 0.0 
5.176119194509e-04 -1.551376284900e-04 0.0 
2.209422059548e-03 7.750767065905e-04 0.0 
2.320791121241e-03 9.332029781152e-04 0.0 
2.143430215460e-03 7.281534076652e-04 0.0 
2.214419322886e-03 8.563176911429e-04 0.0 
2.019087481411e-03 6.701810292727e-04 0.0 
2.046650162223e-03 7.667485492539e-04 0.0 
1.836246401530e-03 6.001893100489e-04 0.0 
1.820955689289e-03 5.205170449260e-04 0.0 
2.286522267919e-03 3.992199587852e-03 0.0 
2.133655820045e-03 1.137737055222e-03 0.0 
2.188664829972e-03 1.468356483241e-03 0.0 
1.937333112441e-03 1.172730415483e-03 0.0 
1.953014358920e-03 1.518499830389e-03 0.0 
1.686349201330e-03 1.205214301577e-03 0.0 
1.658947260829e-03 1.565702053629e-03 0.0 
1.385401645572e-03 1.239095222408e-03 0.0 
1.431785879523e-03 9.242833305743e-04 0.0 
1.131304959576e-03 9.502779727616e-04 0.0 
1.193450886118e-03 6.750806525760e-04 0.0 
9.015809742054e-04 6.964078404097e-04 0.0 
9.743644288289e-04 4.562972058194e-04 0.0 
3.072891522843e-03 3.172738234772e-03 0.0 
2.253296924001e-03 9.729002646107e-04 0.0 
2.038683897119e-03 8.469004377177e-04 0.0 
2.254290749344e-03 1.070447854799e-03 0.0 
3.721033621378e-04 -5.463027311427e-04 0.0 
4.271108770765e-04 -6.132608342327e-05 0.0 
1.039384405788e-03 9.226326708352e-05 0.0 
1.200734006957e-03 1.298317639654e-04 0.0 
1.625619864324e-03 4.663201972507e-04 0.0 
2.739458362568e-04 -5.794031012927e-04 0.0 
1.314037295036e-03 1.614310118028e-03 0.0 
1.603121552369e-03 1.995078767244e-03 0.0 
1.192209783452e-03 4.416862375700e-03 0.0 
1.133407329969e-03 4.894567436900e-03 0.0 
1.055825927343e-03 1.393354930206e-04 0.0 
2.465534122906e-04 -5.754513331678e-04 0.0 
7.249215330475e-04 9.142271564938e-06 0.0 
7.991390054928e-04 9.853298450008e-04 0.0 
3.799484984424e-04 -9.441554931568e-05 0.0 
3.307104836016e-04 -5.275606417732e-05 0.0 
8.096922879216e-04 -1.189381507255e-04 0.0 
1.990478729808e-03 9.045234583614e-04 0.0 
2.217693489858e-03 1.144791968526e-03 0.0 
1.231501029713e-03 4.476774064210e-04 0.0 
1.022460641385e-03 2.587855546886e-04 0.0 
7.768896150855e-04 2.653169737906e-04 0.0 
8.393090609127e-04 8.930191173307e-05 0.0 
1.049463003681e-03 9.774698549050e-05 0.0 
8.697421794202e-04 -4.392256305931e-05 0.0 
6.710654868036e-04 -5.239575262694e-05 0.0 
7.083451299422e-04 -1.660331297219e-04 0.0 
8.833468385524e-04 -1.501543107180e-04 0.0 
7.293675429679e-04 -2.544918079979e-04 0.0 
5.653364660635e-04 -2.688403490758e-04 0.0 
5.924772231850e-04 -3.424900873683e-04 0.0 
3.614845181796e-04 -2.560092736142e-05 0.0 
5.873823600661e-04 7.286929490941e-04 0.0 
2.687475694834e-03 6.538354357262e-03 0.0 
8.920265925517e-04 1.040450249708e-04 0.0 
1.599225682061e-03 5.192153283314e-04 0.0 
9.981129421469e-04 3.910938740066e-03 0.0 
9.560187777092e-04 4.376485928881e-03 0.0 
1.063690273665e-03 5.371850737645e-03 0.0 
9.019626491781e-04 4.840415649628e-03 0.0 
7.869763407134e-04 3.850085256043e-03 0.0 
7.480739312869e-04 4.305427774233e-03 0.0 
8.393829802847e-04 5.302192138788e-03 0.0 
6.990994189066e-04 4.758948365075e-03 0.0 
7.706763809660e-04 5.759976717804e-03 0.0 
6.424445337806e-04 5.209762391586e-03 0.0 
5.676038851447e-04 4.214433887497e-03 0.0 
5.221382175005e-04 4.660915858988e-03 0.0 
5.800888166955e-04 5.658690774925e-03 0.0 
4.694713477885e-04 5.106254892606e-03 0.0 
5.133933000661e-04 6.105311125449e-03 0.0 
4.108655157297e-04 5.550507872920e-03 0.0 
3.674414528740e-04 4.556622614260e-03 0.0 
2.091943103263e-04 -6.022304106474e-04 0.0 
1.623202641558e-03 4.016321483416e-04 0.0 
1.417640867180e-03 3.602074797574e-04 0.0 
3.465417213120e-04 -4.520669544927e-04 0.0 
3.662098127486e-04 -4.002711276706e-04 0.0 
4.542011659383e-04 -3.619277829200e-04 0.0 
3.745698963363e-04 -3.459420763210e-04 0.0 
3.148927091698e-04 5.003289677781e-03 0.0 
2.754639495307e-04 4.011382023597e-03 0.0 
1.217197498542e-03 2.059788270957e-03 0.0 
1.516885600859e-03 2.505695383343e-03 0.0 
1.024378270119e-03 3.444865234372e-03 0.0 
2.873018567482e-04 -8.224719400639e-05 0.0 
3.230290325182e-04 -1.284570468240e-04 0.0 
3.166605993950e-03 4.121956876916e-03 0.0 
3.177667021031e-03 4.947747043697e-03 0.0 
3.033321912509e-03 4.469578806788e-03 0.0 
3.004524662954e-03 5.384769715364e-03 0.0 
3.131976442985e-03 5.894889869443e-03 0.0 
2.799559790626e-03 4.796804119288e-03 0.0 
1.307207271610e-03 1.097932138262e-04 0.0 
4.468111150820e-04 3.671555001130e-03 0.0 
4.653014956717e-04 -5.072798907010e-04 0.0 
3.803924763615e-04 -5.341956054930e-04 0.0 
2.432140836863e-04 -4.343921359322e-05 0.0 
1.776162250774e-03 4.304976062148e-04 0.0 
2.983517338783e-03 3.264005927328e-03 0.0 
2.876383387599e-03 2.727238958279e-03 0.0 
2.748305842576e-03 2.757835267053e-03 0.0 
2.612236753818e-03 2.282209678032e-03 0.0 
2.444250945098e-03 2.256070867620e-03 0.0 
2.277676275107e-03 1.839656167434e-03 0.0 
2.443617880078e-03 1.863997147528e-03 0.0 
1.896857751931e-03 9.318501050224e-04 0.0 
2.080547726574e-03 1.474291081109e-03 0.0 
3.529029420745e-04 6.003726718637e-03 0.0 
2.453595413570e-03 1.224308424346e-03 0.0 
8.799606563847e-04 -2.311559066830e-04 0.0 
2.267840006132e-04 -6.019357171538e-04 0.0 
4.378715016563e-04 -3.547748852073e-04 0.0 
1.811288198943e-04 -5.976580403603e-04 0.0 
2.104822758281e-04 -5.666789415972e-04 0.0 
8.739442535993e-04 1.363692203005e-04 0.0 
2.067749860810e-03 1.758863848047e-03 0.0 
2.234588927690e-03 2.169534989553e-03 0.0 
2.911756014397e-03 6.461547752470e-03 0.0 
3.013607537876e-03 6.952561666269e-03 0.0 
1.658889025566e-03 7.247468636807e-04 0.0 
1.397897742016e-03 6.404732442608e-03 0.0 
9.048038632540e-04 6.309719859212e-03 0.0 
8.203633518517e-04 6.769006655000e-03 0.0 
1.532177194131e-04 -6.229589192631e-04 0.0 
3.974919409222e-04 -2.725430120692e-04 0.0 
6.294199008932e-04 3.320377537404e-03 0.0 
1.902704536391e-03 2.422698180486e-03 0.0 
1.831988119911e-03 3.004451465092e-03 0.0 
4.470082527003e-04 1.030755387352e-03 0.0 
2.609702096751e-04 7.727261607705e-04 0.0 
2.322434002862e-04 4.445304413443e-03 0.0 
1.964412582192e-04 3.468575406859e-03 0.0 
4.626935144758e-04 -3.060252995087e-04 0.0 
3.758801044013e-04 -2.894425295209e-04 0.0 
1.048155969600e-03 1.797018791754e-04 0.0 
4.731692813458e-04 -4.160988295741e-04 0.0 
2.249592387997e-04 3.030391050086e-03 0.0 
1.591630061419e-03 3.263662862078e-04 0.0 
1.706508746808e-03 3.341946673360e-04 0.0 
2.878567037252e-04 -3.833881440042e-04 0.0 
1.089106486324e-03 2.584127372829e-03 0.0 
7.947969413079e-04 2.123621865269e-03 0.0 
1.040715720080e-03 -1.263670153406e-04 0.0 
6.027025784150e-04 -3.965266343119e-04 0.0 
1.463972523044e-04 -5.889838025703e-04 0.0 
8.273373163572e-04 1.585783608057e-04 0.0 
6.405929802219e-04 2.873063546620e-03 0.0 
2.248327421331e-03 1.505974309995e-03 0.0 
2.564103575277e-03 1.841625210802e-03 0.0 
1.859378438200e-03 1.161871891157e-03 0.0 
3.396948811518e-04 -4.261595865360e-04 0.0 
7.109487554643e-04 1.028070034752e-04 0.0 
2.023486043812e-04 -6.921728322029e-05 0.0 
1.836519793401e-03 1.650235115508e-03 0.0 
1.987228504968e-03 2.026489669362e-03 0.0 
2.208147008392e-03 2.894298592738e-03 0.0 
2.170046138984e-03 3.566096094626e-03 0.0 
1.727607951417e-03 3.702375617596e-03 0.0 
2.089319792019e-03 4.367575878899e-03 0.0 
2.363523521841e-03 6.955753126511e-03 0.0 
2.512969178440e-03 3.407022210555e-03 0.0 
2.849716822019e-03 6.688312444263e-03 0.0 
2.689706474574e-03 7.432446788787e-03 0.0 
2.821457179562e-03 7.561005750578e-03 0.0 
3.179205134653e-03 6.289508403747e-03 0.0 
3.037175387666e-03 7.302289425404e-03 0.0 
2.222463442193e-03 1.865086789170e-03 0.0 
2.490537413318e-03 1.184838632774e-03 0.0 
5.479238702780e-04 -3.195392085630e-04 0.0 
6.212501986585e-04 -1.644705033252e-04 0.0 
1.272305475785e-03 1.106985828052e-06 0.0 
4.720342499782e-04 3.229135213502e-03 0.0 
3.537267992582e-04 2.692707395268e-03 0.0 
6.221326520138e-04 6.662869733703e-03 0.0 
5.445569784386e-04 7.109720108077e-03 0.0 
2.988042031168e-04 -5.695769359177e-04 0.0 
2.939763784306e-04 -5.523476734057e-04 0.0 
9.432298052530e-04 -1.643788235865e-04 0.0 
7.384132750436e-04 7.820101772918e-05 0.0 
8.227031629878e-04 2.941060691909e-03 0.0 
8.114762294134e-04 2.488798301068e-03 0.0 
1.030438854789e-03 2.978948336662e-03 0.0 
1.011609523096e-03 2.104721502888e-04 0.0 
1.902465470989e-03 8.860200069911e-04 0.0 
2.046271671518e-03 5.944496260290e-04 0.0 
4.045537259712e-04 5.094087741113e-04 0.0 
2.987009903427e-03 2.497720661455e-03 0.0 
2.261367063486e-04 -5.845162884272e-04 0.0 
2.511563606556e-03 3.665397829125e-03 0.0 
1.657601459564e-04 -3.353463110144e-05 0.0 
1.915308784877e-04 -1.397610125640e-05 0.0 
1.512516458839e-03 7.112335099957e-04 0.0 
2.169620871257e-03 8.525186661547e-03 0.0 
2.834608572574e-03 2.047011966506e-03 0.0 
2.814217804240e-03 1.883701941745e-03 0.0 
2.622699420226e-03 8.344183945242e-03 0.0 
2.718596040430e-03 8.456155298592e-03 0.0 
2.926707188537e-03 7.598152506070e-03 0.0 
2.784348055592e-03 8.476128357322e-03 0.0 
1.011949403026e-03 -2.001153457785e-04 0.0 
8.607675585926e-04 -2.906531710047e-04 0.0 
1.598981129252e-03 1.255179889040e-03 0.0 
1.656580670060e-03 1.093215366286e-03 0.0 
1.564868810528e-03 1.474201199578e-03 0.0 
1.707152342110e-03 1.820491838181e-03 0.0 
1.260237955683e-03 5.320310271544e-04 0.0 
1.416441792539e-03 5.538835397658e-04 0.0 
1.664035460733e-04 -5.546899094399e-04 0.0 
2.814704882941e-03 8.066925920064e-03 0.0 
4.828168266360e-04 2.348137292293e-03 0.0 
2.504010368061e-03 8.156758125872e-03 0.0 
5.651772669604e-04 7.783386730641e-05 0.0 
5.969405468209e-04 5.817242384756e-05 0.0 
1.033411977987e-04 5.527401261275e-04 0.0 
2.503133518766e-04 2.914876011133e-04 0.0 
1.524948095045e-04 2.514792102393e-03 0.0 
1.578353012517e-03 4.529139968050e-03 0.0 
1.950727405764e-03 5.326916771838e-03 0.0 
1.255495757386e-03 3.824613150726e-03 0.0 
2.500108501112e-05 4.514058583353e-06 0.0 
1.501173467059e-04 8.992679397421e-03 0.0 
1.237601894094e-04 -7.891726130431e-06 0.0 
3.161090732497e-03 6.571255851777e-03 0.0 
1.642299459869e-04 2.043118448629e-03 0.0 
2.663120355948e-03 1.669095122867e-03 0.0 
3.004678236136e-03 3.688330583208e-03 0.0 
1.232457216762e-03 2.370880467583e-04 0.0 
1.246837995493e-04 3.029856798205e-03 0.0 
9.104913582835e-05 1.962300742027e-03 0.0 
9.439194540085e-04 7.307207482596e-03 0.0 
8.511520518270e-04 7.782883325005e-03 0.0 
1.042787804250e-03 6.855931268974e-03 0.0 
6.731028751471e-04 1.328216022783e-03 0.0 
2.385933342062e-04 1.431961886530e-03 0.0 
3.384593926247e-04 3.131169489479e-03 0.0 
3.173156975406e-04 -4.993375352268e-04 0.0 
2.585410789371e-04 -4.806526034900e-04 0.0 
4.832081456936e-04 -4.593157993793e-04 0.0 
5.949304082614e-04 -4.342522857180e-04 0.0 
5.522716786372e-04 -2.634180537598e-04 0.0 
6.441729672869e-04 -2.734346668094e-04 0.0 
2.460959387734e-03 3.124885137464e-03 0.0 
2.224231105913e-03 2.955413393644e-03 0.0 
2.847904708817e-03 3.291806122398e-03 0.0 
1.535581558347e-03 2.452073703087e-04 0.0 
1.617074506616e-03 2.358844252188e-04 0.0 
1.774499850137e-03 3.344095176940e-04 0.0 
3.600930499666e-04 2.286567934962e-03 0.0 
2.377126989075e-04 1.678170805585e-03 0.0 
1.173271201094e-03 -9.527362432292e-05 0.0 
1.213477178257e-03 -4.856170463881e-06 0.0 
9.680105646167e-04 -2.546442181318e-04 0.0 
4.659599902884e-04 1.927501822269e-03 0.0 
1.364116838305e-04 3.912268193010e-06 0.0 
2.039485669848e-04 2.281298663611e-06 0.0 
2.115635590255e-04 -5.623828685430e-04 0.0 
2.781911409173e-04 -5.231849325333e-04 0.0 
6.323140733992e-04 2.645288264102e-03 0.0 
3.497774463135e-04 2.187326576435e-03 0.0 
7.866156717223e-04 2.076791986090e-03 0.0 
1.014281177888e-03 2.524951435938e-03 0.0 
5.543971408450e-04 1.554340567665e-03 0.0 
1.023647629614e-04 -5.791797059657e-04 0.0 
2.366467737922e-03 1.493283650428e-03 0.0 
7.689734038246e-04 1.754446291495e-04 0.0 
9.646819672937e-04 2.343709312736e-04 0.0 
5.560494644052e-04 1.208605948220e-04 0.0 
1.770228836064e-03 9.332212685276e-04 0.0 
1.338286434000e-03 6.686310110438e-04 0.0 
1.391839792816e-03 8.167060378931e-04 0.0 
-6.002266598683e-05 8.193884642809e-04 0.0 
6.856578779188e-05 2.359815029789e-03 0.0 
6.502750848290e-04 7.672459234034e-03 0.0 
-1.540701410822e-04 6.285804336901e-04 0.0 
5.640303476462e-04 8.154320287696e-03 0.0 
4.676957507793e-04 7.562494400940e-03 0.0 
4.911581077480e-04 8.632131510571e-03 0.0 
9.158581622386e-05 -6.079112561504e-04 0.0 
1.078638197950e-03 8.027723704638e-03 0.0 
1.192044172590e-03 7.438140873813e-03 0.0 
1.663343927049e-04 -5.276435776033e-04 0.0 
3.119535286015e-04 1.419432502677e-03 0.0 
1.641367968808e-04 -5.896701654824e-04 0.0 
1.765966320529e-04 -6.080757715359e-04 0.0 
4.297931664301e-04 5.648136161491e-05 0.0 
4.680646497278e-04 4.405612140009e-05 0.0 
3.110998717387e-04 4.238647396719e-05 0.0 
3.611982462132e-04 3.505268293178e-05 0.0 
4.868537991047e-04 2.466858937112e-05 0.0 
3.766560205767e-04 1.887966605290e-05 0.0 
7.665015957556e-04 8.325092785535e-03 0.0 
2.459958900152e-04 2.712858119958e-05 0.0 
2.774998384123e-04 1.578990759384e-05 0.0 
1.615585262198e-04 1.826995041217e-05 0.0 
2.527479442089e-03 9.391688317518e-03 0.0 
2.409598578003e-03 5.079787302649e-03 0.0 
2.274235960853e-03 6.218752396288e-03 0.0 
1.707832830952e-03 6.618195285649e-03 0.0 
1.156586064290e-03 1.118926247233e-03 0.0 
1.427082782431e-03 1.594652441729e-03 0.0 
1.256766837692e-04 -5.529608726967e-05 0.0 
1.443314374043e-04 -9.598088801449e-05 0.0 
3.891658919491e-04 8.088919161421e-03 0.0 
2.849486855221e-04 8.122550092743e-03 0.0 
3.062516316773e-04 7.207172934832e-03 0.0 
2.215498296448e-04 7.311960960963e-03 0.0 
2.358152928965e-04 6.415835374035e-03 0.0 
1.520997884173e-04 6.525888160826e-03 0.0 
1.776624901718e-04 5.632183309758e-03 0.0 
1.140362878146e-03 7.158575397617e-04 0.0 
1.046716765304e-03 4.611572008056e-03 0.0 
2.399357432478e-03 9.104861663479e-03 0.0 
1.005811775667e-03 3.850716352112e-04 0.0 
1.207901479028e-03 4.312987021526e-04 0.0 
2.825866895973e-03 8.336720148249e-03 0.0 
2.530278615943e-03 9.215536182219e-03 0.0 
4.701409314135e-04 8.276339934103e-05 0.0 
2.505827673543e-03 2.771119718444e-03 0.0 
2.361097131234e-04 8.926448191052e-04 0.0 
-5.732892130737e-04 1.609325706188e-03 0.0 
-2.035554531977e-04 1.417719287001e-03 0.0 
2.768544709769e-03 3.229229780296e-03 0.0 
3.001544097133e-03 7.521757999974e-03 0.0 
2.701028395362e-03 5.813580465556e-03 0.0 
2.579300492556e-03 7.048387250080e-03 0.0 
1.409347025870e-03 2.465087761652e-04 0.0 
2.453156851819e-04 -4.809815843802e-04 0.0 
9.492274385675e-04 3.194870206774e-03 0.0 
2.589877795969e-04 5.537629329593e-03 0.0 
4.387731162151e-04 3.196219772350e-03 0.0 
6.592535622496e-05 -7.504364021187e-05 0.0 
2.484487504739e-03 2.236550877802e-03 0.0 
3.256059516234e-03 5.657887983043e-03 0.0 
1.400784610780e-03 3.106819656290e-03 0.0 
2.519709259922e-03 4.185098632084e-03 0.0 
2.507248880188e-03 6.315430784639e-03 0.0 
2.203653754788e-03 7.572712314079e-03 0.0 
2.354005136217e-03 7.907584547450e-03 0.0 
2.434443984054e-03 1.788294213825e-03 0.0 
2.741398885117e-03 7.653059305115e-03 0.0 
2.307078672890e-03 8.479795569759e-03 0.0 
2.972582479631e-03 5.940679509233e-03 0.0 
1.260198593748e-03 3.453401364238e-03 0.0 
1.258741360358e-03 2.974958798589e-03 0.0 
9.770881343842e-04 2.103781986396e-03 0.0 
1.229507781527e-03 2.515254603128e-03 0.0 
1.511523497985e-03 3.408306585664e-03 0.0 
1.497370248657e-03 2.923255251211e-03 0.0 
1.169164372913e-03 2.079343209596e-03 0.0 
1.451441001390e-03 2.455959546292e-03 0.0 
9.855649775460e-04 1.496743914734e-03 0.0 
1.357253154643e-03 1.992797395521e-03 0.0 
1.736206168216e-03 2.820619889670e-03 0.0 
1.669832746474e-03 2.369226830057e-03 0.0 
1.286731173393e-03 1.669634571461e-03 0.0 
2.023200051593e-03 3.191164128996e-03 0.0 
8.052182327152e-04 3.312530786935e-04 0.0 
2.945965567199e-03 3.023710189273e-03 0.0 
8.639062688615e-05 1.090923909690e-03 0.0 
-4.969738173853e-05 1.747095142265e-03 0.0 
3.204089515366e-03 5.859642069457e-03 0.0 
4.823745823454e-04 7.197785430847e-04 0.0 
3.934855454666e-04 7.518100010609e-04 0.0 
1.941066290157e-03 1.931489501235e-03 0.0 
5.923969357573e-04 5.018777371121e-04 0.0 
2.531935560594e-03 7.232180028554e-03 0.0 
1.041252481967e-03 1.280267556625e-03 0.0 
6.085558328433e-04 4.219031570339e-04 0.0 
1.495930991912e-03 3.901941106136e-03 0.0 
1.733533058094e-03 4.344440767398e-03 0.0 
1.674448418904e-03 4.862052162758e-03 0.0 
2.981631071124e-04 7.261476192152e-04 0.0 
1.140210138311e-03 6.387402103426e-03 0.0 
5.204985529555e-04 2.490555448372e-04 0.0 
2.403991253467e-03 1.085287195587e-03 0.0 
2.585486599330e-03 1.364843371907e-03 0.0 
2.648282071920e-03 1.488496280776e-03 0.0 
1.769403692595e-03 3.326325626752e-03 0.0 
4.339662367870e-04 1.468225256586e-04 0.0 
7.723801881475e-04 2.476591439600e-04 0.0 
7.115176309101e-04 2.076438701777e-04 0.0 
1.066399779503e-03 3.187130476483e-04 0.0 
3.654344949500e-04 1.062281777317e-04 0.0 
5.026676307981e-04 5.894053751395e-04 0.0 
5.045689929726e-04 5.281096233130e-04 0.0 
1.053579471590e-03 -2.827508487507e-05 0.0 
1.239246047384e-03 1.123559695433e-04 0.0 
1.397026062330e-03 1.334011303048e-04 0.0 
1.436032891163e-03 2.730477488764e-04 0.0 
1.245932326102e-03 2.620132983421e-04 0.0 
1.455676914526e-03 4.469877471863e-04 0.0 
1.640185940647e-03 4.525066057477e-04 0.0 
1.453938390243e-03 6.624038009558e-04 0.0 
1.853498713201e-03 2.255434049733e-03 0.0 
2.917740293008e-04 7.224372999618e-05 0.0 
1.229953486080e-03 3.844900085159e-05 0.0 
1.373660857497e-03 8.183217809881e-05 0.0 
1.401659678253e-03 4.829741365759e-05 0.0 
6.305944579394e-04 -3.290166471489e-04 0.0 
7.340676925167e-04 -2.788392298020e-04 0.0 
7.407028905396e-04 -2.234728930523e-04 0.0 
5.301273971053e-04 -3.746668754654e-04 0.0 
2.734735684723e-03 2.254071340828e-03 0.0 
2.632423931767e-04 5.976976250785e-05 0.0 
1.877999027329e-03 4.495275317819e-04 0.0 
8.210624865276e-04 -2.778775440617e-04 0.0 
1.435194664889e-03 8.996310091087e-03 0.0 
1.520816353360e-03 8.085000069882e-03 0.0 
1.677584411309e-03 7.992696546809e-03 0.0 
1.576578014273e-03 7.035781623273e-03 0.0 
1.346800434701e-03 8.018627151898e-03 0.0 
4.597450907955e-04 -2.495943630117e-04 0.0 
3.677914843062e-04 -2.330372199254e-04 0.0 
2.881974973155e-04 -2.705880575341e-04 0.0 
2.772752357374e-04 -2.145589417606e-04 0.0 
2.010517114972e-04 -2.498971927984e-04 0.0 
2.091715557334e-04 -3.052817049154e-04 0.0 
1.873257212558e-04 -1.946851036119e-04 0.0 
1.165383345725e-04 -2.339881428969e-04 0.0 
1.151571044299e-03 9.051038934483e-03 0.0 
-1.494924147158e-04 8.397898397212e-05 0.0 
6.493922918421e-05 -2.640570077500e-05 0.0 
9.198049602352e-05 -1.808333706298e-04 0.0 
2.401350727194e-04 -1.179630531128e-04 0.0 
2.458384720664e-04 4.391005850411e-05 0.0 
4.487237612675e-04 -5.201357891176e-05 0.0 
4.332099830742e-04 1.277214030897e-04 0.0 
2.810419916960e-05 1.722807699071e-04 0.0 
-3.155610079597e-05 -2.310825808312e-04 0.0 
1.179162134963e-04 -3.015113212931e-04 0.0 
1.261846711796e-05 -3.414538203947e-04 0.0 
1.317283952604e-04 -3.944687953430e-04 0.0 
2.696217302035e-04 -3.571881660768e-04 0.0 
3.801381312371e-04 -5.108467430977e-04 0.0 
7.054106804655e-05 1.033954431276e-05 0.0 
7.727179668086e-05 -3.903868441698e-04 0.0 
1.473119263831e-04 -4.162825831217e-04 0.0 
1.379957951393e-04 -4.658081271098e-04 0.0 
2.198579743981e-04 -4.371088585457e-04 0.0 
1.484888737452e-04 -3.668550151551e-04 0.0 
6.594279196978e-05 -4.921420074727e-04 0.0 
1.251138558976e-04 -5.071112478440e-04 0.0 
5.398339045596e-05 -6.672677361060e-04 0.0 
5.429447653446e-05 -6.603577067631e-04 0.0 
2.448251991679e-05 -6.646254586340e-04 0.0 
5.067320180684e-05 -6.495321446057e-04 0.0 
8.206822282069e-05 -6.463449765424e-04 0.0 
7.923453405712e-05 -6.553913462687e-04 0.0 
1.019022453514e-04 -6.483969964449e-04 0.0 
8.696455660731e-05 -6.502870116214e-04 0.0 
1.212017144949e-04 -6.380198954715e-04 0.0 
1.420692823436e-04 -6.333473664438e-04 0.0 
9.619719337280e-05 -6.362811850802e-04 0.0 
5.635826068687e-05 4.335932999485e-03 0.0 
1.065995165784e-04 3.849886623781e-03 0.0 
2.230066085874e-04 4.285121916655e-05 0.0 
8.912632430715e-04 8.963290130633e-03 0.0 
7.436325852858e-05 -4.952218438676e-04 0.0 
8.470835046439e-05 9.702590174040e-04 0.0 
1.327537390183e-04 8.024495070591e-04 0.0 
1.054110026681e-04 7.779330923020e-04 0.0 
4.127773869927e-05 -1.098938563340e-05 0.0 
6.687497086164e-05 -1.100232377762e-06 0.0 
4.602089888339e-05 9.434122935098e-04 0.0 
5.428464533350e-04 -4.731956757535e-04 0.0 
9.111586784103e-04 1.705511413981e-03 0.0 
2.437155636805e-04 2.592053365319e-03 0.0 
9.331162850757e-04 1.666996272913e-03 0.0 
7.216265292434e-04 -3.683413520167e-04 0.0 
2.298139228233e-04 -1.126789121551e-04 0.0 
6.951982224850e-04 -1.184492223307e-04 0.0 
2.713259111734e-04 -1.993184573145e-05 0.0 
4.179535362669e-04 -1.427294225919e-04 0.0 
4.621290835221e-04 -2.979341545524e-05 0.0 
6.674399152138e-04 1.749990313981e-04 0.0 
1.277153726252e-04 -6.156021750869e-04 0.0 
6.977033874307e-04 6.213293580475e-03 0.0 
4.472529706879e-04 6.554911589986e-03 0.0 
4.114545611926e-04 4.114359867046e-03 0.0 
3.669567281570e-04 -5.097941632257e-04 0.0 
2.948377726595e-04 -3.242068476212e-04 0.0 
2.923229921113e-04 -5.776780594196e-04 0.0 
1.097886512397e-03 8.504431972074e-04 0.0 
2.984907662089e-03 6.760846525288e-03 0.0 
1.279955667525e-03 -4.052269135697e-05 0.0 
6.018388288243e-04 -3.826700114323e-04 0.0 
6.563046930911e-04 -4.222823462537e-04 0.0 
7.336703884327e-04 -3.207353673282e-04 0.0 
3.112390547785e-03 3.409005148464e-03 0.0 
9.353453163769e-04 -2.165894583761e-04 0.0 
8.601064801521e-04 2.144844351397e-05 0.0 
3.118995326638e-04 3.571026010031e-03 0.0 
1.055242870709e-04 -5.885406597764e-04 0.0 
8.861942459580e-04 6.511799193929e-05 0.0 
9.267373252044e-04 -1.134754688512e-04 0.0 
9.868270876390e-04 5.844970392027e-03 0.0 
1.818259448349e-03 6.646649451088e-04 0.0 
5.272029277723e-04 -1.758493773078e-04 0.0 
6.043857693903e-04 3.768925619180e-03 0.0 
6.183377417906e-04 2.044796884432e-03 0.0 
1.292528935238e-03 6.918148795265e-03 0.0 
2.303591744459e-04 -5.981133674594e-04 0.0 
7.372729824005e-04 7.237695393892e-03 0.0 
6.550361909843e-04 1.190360113225e-04 0.0 
1.235887897002e-03 3.933891059387e-03 0.0 
2.840794269763e-04 -5.405952626952e-04 0.0 
2.076679496310e-03 6.171968025309e-04 0.0 
3.288261417014e-03 4.816686619576e-03 0.0 
2.078427501368e-03 9.480530725611e-03 0.0 
2.526434714394e-04 2.191389035543e-03 0.0 
2.901329404213e-03 2.093026314661e-03 0.0 
1.377369241180e-03 4.006465747118e-04 0.0 
1.961047193680e-03 5.626212810115e-04 0.0 
2.387868378633e-04 -5.281333836932e-04 0.0 
6.081092753239e-04 3.272154923462e-05 0.0 
2.511233349110e-03 1.269549068081e-03 0.0 
4.859535154393e-04 2.794034715156e-03 0.0 
2.576576212138e-03 2.725252281977e-03 0.0 
2.062778574158e-03 8.660428719738e-04 0.0 
8.130192726058e-04 3.395248598474e-03 0.0 
1.528143687894e-03 1.137057333530e-04 0.0 
1.760080889536e-03 7.075022496823e-04 0.0 
3.092645095035e-03 6.722733847699e-03 0.0 
3.050665505926e-03 3.860730252008e-03 0.0 
2.519488045757e-03 4.234352573146e-03 0.0 
3.111572829463e-03 3.018921769644e-03 0.0 
1.569087430963e-04 -1.441312811669e-04 0.0 
7.419911609145e-04 4.580766050102e-05 0.0 
6.985978198512e-04 4.809237783791e-04 0.0 
2.809727112777e-03 3.947834354223e-03 0.0 
1.230104023829e-03 5.893874111194e-03 0.0 
1.883351376003e-03 1.410347435288e-03 0.0 
3.416955971829e-04 1.825586511892e-03 0.0 
3.250618644573e-03 5.351239170698e-03 0.0 
5.989858118812e-04 2.311057353602e-06 0.0 
6.390553073226e-04 2.457023383563e-03 0.0 
8.389764227406e-04 -2.239295518323e-04 0.0 
4.422088662817e-05 -6.056981540059e-04 0.0 
5.321765987814e-04 1.729848982893e-03 0.0 
1.690567286632e-03 9.042831081760e-04 0.0 
2.791946463810e-03 1.852658846830e-03 0.0 
8.355684859118e-04 -1.702905314090e-04 0.0 
6.977490264671e-04 1.553168319784e-03 0.0 
4.829421393703e-04 -9.492665743346e-07 0.0 
1.227941888243e-03 1.861837635207e-04 0.0 
-3.339498771258e-04 2.674458826799e-03 0.0 
2.299464747355e-03 8.831935394285e-03 0.0 
3.777146366164e-04 -1.549516553374e-06 0.0 
1.928655078339e-03 4.601150626724e-04 0.0 
1.530906414710e-03 5.499928175343e-04 0.0 
1.263585966077e-04 -2.847973594047e-04 0.0 
1.110078338106e-03 7.748471019054e-04 0.0 
2.563510155763e-03 9.336648840515e-03 0.0 
2.839066197968e-04 -2.982496680513e-07 0.0 
1.427841607210e-03 3.081908993763e-04 0.0 
2.228626608737e-03 2.333752454692e-03 0.0 
2.488572001530e-04 8.998478530416e-03 0.0 
1.788068143800e-04 1.466644758414e-05 0.0 
1.205822341155e-03 2.763793592964e-04 0.0 
2.956765335468e-03 2.639840033065e-03 0.0 
1.794468487963e-03 3.274594490166e-04 0.0 
2.212855722025e-03 1.006870824095e-02 0.0 
7.277686443105e-04 -1.696538745353e-04 0.0 
2.906690016525e-03 3.871462551026e-03 0.0 
2.549040554976e-04 7.179505022809e-04 0.0 
1.168697163463e-03 3.093434021681e-04 0.0 
1.893657305187e-03 5.311902018362e-03 0.0 
6.414385232812e-04 -2.180023847416e-04 0.0 
2.469496191525e-03 1.346264945813e-03 0.0 
1.119878507224e-04 -6.414013789442e-04 0.0 
2.475274869459e-03 9.283568810937e-03 0.0 
5.421979846093e-04 -2.080239208428e-04 0.0 
1.674581951727e-03 6.555493481757e-04 0.0 
1.656233940517e-03 2.216563290457e-04 0.0 
1.084584373913e-03 4.886012228691e-04 0.0 
4.448639791866e-04 -1.946421857079e-04 0.0 
1.850593999220e-03 6.497368984194e-04 0.0 
3.500629977533e-04 -1.789500907164e-04 0.0 
2.239083957375e-03 1.036891722791e-02 0.0 
1.966739741182e-03 4.751637537468e-03 0.0 
2.552490772821e-04 -1.618663118739e-04 0.0 
2.671932570932e-03 3.241743628082e-03 0.0 
1.719187241328e-04 -6.211923173738e-04 0.0 
2.809815607729e-03 2.175171832742e-03 0.0 
9.711315495577e-05 -2.224182185329e-05 0.0 
9.125905214451e-04 -2.938488707016e-04 0.0 
1.516381028854e-03 1.413557386207e-04 0.0 
1.765835211360e-03 3.828666464264e-03 0.0 
2.091770041761e-03 1.030836244461e-02 0.0 
1.463432967283e-03 1.640605100407e-04 0.0 
2.368266347789e-03 2.629031225713e-03 0.0 
2.638055497615e-03 1.778436292199e-03 0.0 
2.751332696298e-03 1.696814655680e-03 0.0 
1.367330821394e-03 1.796575150170e-04 0.0 
2.472624000545e-03 8.888192796460e-03 0.0 
5.681194319313e-04 -4.615065656982e-04 0.0 
4.790091214604e-04 -4.895909734206e-04 0.0 
1.781427959587e-03 4.571041323682e-04 0.0 
2.123562589574e-03 2.469449471251e-03 0.0 
8.421497596654e-05 -6.322101163471e-04 0.0 
2.034705074650e-03 3.684731705855e-03 0.0 
3.658417825321e-04 -4.753042210356e-04 0.0 
1.587321011765e-03 2.877271250598e-04 0.0 
2.126516686958e-03 1.180440049868e-03 0.0 
6.874633937835e-05 6.273693715030e-03 0.0 
1.519455581099e-03 1.558060353568e-04 0.0 
4.977838268383e-05 -5.733361365612e-04 0.0 
1.343541401638e-03 2.383553219944e-05 0.0 
2.642876565334e-03 1.526527201931e-03 0.0 
1.278185499673e-03 -6.082377357122e-05 0.0 
1.119874553972e-03 -1.635417940201e-04 0.0 
1.681160894115e-04 1.665836646859e-03 0.0 
1.055687400629e-03 -2.134042783517e-04 0.0 
2.299069410888e-05 7.803020339005e-04 0.0 
2.901745409431e-05 7.778277985271e-06 0.0 
9.242518931274e-05 8.235881446111e-03 0.0 
1.648014711278e-03 9.825087056467e-03 0.0 
-4.013433807403e-04 8.754156551885e-04 0.0 
2.151933712278e-03 7.436649588828e-03 0.0 
8.263437352952e-04 -3.333326094350e-04 0.0 
2.279601666355e-03 3.464040490047e-03 0.0 
1.918072916328e-04 8.193594177762e-03 0.0 
6.927375488939e-04 -4.021713609011e-04 0.0 
9.397564989208e-04 1.239093913547e-03 0.0 
5.532933252872e-04 3.157266988373e-04 0.0 
1.214850933934e-04 4.771116590943e-03 0.0 
1.321217702653e-03 4.305625437832e-04 0.0 
2.435964431594e-03 1.433394948986e-03 0.0 
3.409327726141e-05 2.456210316185e-03 0.0 
5.755224060341e-04 9.107272580471e-03 0.0 
1.424988171296e-04 -4.680365884565e-04 0.0 
7.520564903739e-05 -1.203971602486e-04 0.0 
1.024014861404e-03 8.044272418803e-03 0.0 
1.303011263940e-03 5.453160923813e-03 0.0 
7.606090722235e-04 3.858492136166e-03 0.0 
1.840740268934e-04 -5.168000906059e-04 0.0 
2.411839358085e-04 -2.489356509008e-04 0.0 
8.000163229759e-04 5.515712099923e-03 0.0 
8.497318617581e-04 2.974479855642e-04 0.0 
9.585679622152e-04 8.236312991302e-03 0.0 
2.035055807616e-03 1.211602030339e-03 0.0 
2.063593134322e-04 3.803036190535e-03 0.0 
4.411056912453e-04 1.573934685926e-03 0.0 
1.071949998608e-03 5.617259664725e-04 0.0 
1.520289431591e-04 2.515044916896e-05 0.0 
1.600888664242e-03 8.920235159309e-04 0.0 
1.366107295835e-04 2.650997041009e-03 0.0 
1.431893022896e-03 7.297540746984e-03 0.0 
1.078298340023e-03 9.240507607514e-04 0.0 
1.632803731726e-04 3.990258456059e-03 0.0 
1.090914251226e-04 1.693561943386e-05 0.0 
1.214441558295e-03 8.315893059457e-03 0.0 
1.009210765037e-04 1.552011636476e-03 0.0 
5.280746148488e-04 3.025633462679e-04 0.0 
5.125481321471e-05 1.506023174825e-03 0.0 
1.957350239845e-03 2.698573916295e-03 0.0 
3.854871156512e-04 7.004678785624e-03 0.0 
1.741284635210e-03 7.205063680529e-03 0.0 
8.044309779229e-05 6.454333369259e-06 0.0 
8.177419671618e-04 1.361415974886e-03 0.0 
-9.967439193550e-05 2.136456931963e-03 0.0 
1.910646937359e-04 4.874212697644e-03 0.0 
2.967133185119e-04 -4.316772327077e-04 0.0 
-6.422571157719e-05 4.035213105827e-04 0.0 
3.860389462280e-04 6.250064706275e-05 0.0 
1.575228928682e-03 1.980522108552e-03 0.0 
1.352448404258e-04 1.077688030956e-05 0.0 
2.221694541188e-05 -6.516298673005e-04 0.0 
1.444257105586e-04 -5.658058891216e-04 0.0 
4.434775498836e-04 8.882326852513e-05 0.0 
9.622800639138e-04 1.018361500304e-03 0.0 
6.385363539875e-04 7.747352636029e-05 0.0 
1.442237995738e-04 6.231011385048e-04 0.0 
-3.641261515403e-04 1.804281131057e-03 0.0 
7.843283614343e-04 9.236664085911e-03 0.0 
1.316003279272e-04 -6.251935052552e-04 0.0 
8.595271136428e-05 1.321026143923e-05 0.0 
2.504211003117e-04 1.481393671917e-03 0.0 
2.084019915275e-04 -3.897148250302e-04 0.0 
1.734481872198e-03 8.751825395430e-03 0.0 
1.114433692054e-04 -5.468605319292e-04 0.0 
1.481721109973e-03 1.034727128381e-03 0.0 
2.297292782159e-04 -4.290508968893e-04 0.0 
1.679935043538e-04 1.400009424791e-03 0.0 
5.296741298593e-04 1.291939839024e-04 0.0 
5.479349581983e-04 1.330968216105e-03 0.0 
3.654078547343e-04 1.470265064851e-04 0.0 
-2.170674588883e-04 1.081207199424e-03 0.0 
9.521202379626e-04 5.380120797576e-04 0.0 
9.186232966607e-04 2.494743024780e-04 0.0 
4.331592925990e-04 9.133453565907e-03 0.0 
7.018770039351e-04 1.381980298536e-03 0.0 
1.910824891594e-04 -4.797925436778e-04 0.0 
1.810495327594e-04 -6.179062296674e-04 0.0 
9.683540804645e-06 6.910496313861e-04 0.0 
1.584280354618e-05 -6.742133967201e-04 0.0 
7.336472137634e-05 9.107750276347e-03 0.0 
1.125758772829e-05 5.584124034662e-06 0.0 
1.120676838779e-04 -6.327831748855e-04 0.0 
1.504391675155e-04 7.506430401716e-03 0.0 
8.860817862337e-04 1.038626565132e-03 0.0 
5.564531489851e-05 -2.763504768231e-04 0.0 
7.928236473557e-05 3.085251808738e-03 0.0 
3.700516136402e-04 -1.861684754759e-04 0.0 
-3.558756841577e-04 5.525323766245e-04 0.0 
1.175139907306e-04 5.779092176917e-03 0.0 
9.332317335934e-04 4.464997651055e-04 0.0 
4.150309038793e-04 1.301273637762e-03 0.0 
3.067436342561e-04 6.456796707253e-03 0.0 
2.220241184175e-04 1.844253410952e-03 0.0 
1.238434942665e-03 1.458896988584e-03 0.0 
2.224788080058e-04 -3.472375457312e-04 0.0 
1.449744828175e-03 1.236274229322e-03 0.0 
1.064587817050e-03 3.501403277718e-04 0.0 
-6.076185669156e-04 1.918703151390e-03 0.0 
4.863113402408e-05 -2.214728319914e-04 0.0 
1.359774540709e-04 -6.085283855935e-04 0.0 
2.516060431767e-04 3.283092422855e-05 0.0 
1.478546506640e-04 -3.242760301004e-04 0.0 
-2.685095812733e-05 1.096922749724e-02 0.0 
7.018477986621e-05 1.542769596497e-02 0.0 
1.055859976535e-03 1.171712903487e-02 0.0 
6.112214371247e-05 1.440447098971e-02 0.0 
1.598026684644e-03 1.185703051077e-02 0.0 
5.787634210316e-05 1.338636804079e-02 0.0 
1.824318278181e-03 1.157309221294e-02 0.0 
5.468916099544e-05 1.237216008737e-02 0.0 
1.860983738547e-03 1.100069147114e-02 0.0 
5.274300105575e-05 1.136013968234e-02 0.0 
1.773239788571e-03 1.025641327460e-02 0.0 
5.065295341028e-05 1.034979322730e-02 0.0 

VECTORS node_materi_displacement float
0.0 6.587639185772e-02 0.0 
0.0 1.046065096518e-01 0.0 
0.0 0.0 0.0 
0.0 0.0 0.0 
0.0 6.677020787440e-02 0.0 
0.0 6.695960534011e-02 0.0 
0.0 6.648476687490e-02 0.0 
0.0 6.534266242236e-02 0.0 
0.0 6.355596537666e-02 0.0 
0.0 6.127166383447e-02 0.0 
0.0 5.857599706416e-02 0.0 
0.0 5.553447077995e-02 0.0 
0.0 5.221093821951e-02 0.0 
0.0 4.864625372616e-02 0.0 
0.0 4.485328712083e-02 0.0 
0.0 4.084808391023e-02 0.0 
0.0 3.662418267486e-02 0.0 
0.0 3.217559905985e-02 0.0 
0.0 2.747768893839e-02 0.0 
0.0 2.251706735963e-02 0.0 
0.0 1.728895578195e-02 0.0 
0.0 1.178675213587e-02 0.0 
0.0 6.022051265002e-03 0.0 
0.0 0.0 0.0 
0.0 0.0 0.0 
0.0 0.0 0.0 
0.0 0.0 0.0 
0.0 0.0 0.0 
0.0 0.0 0.0 
0.0 0.0 0.0 
0.0 0.0 0.0 
0.0 0.0 0.0 
0.0 0.0 0.0 
0.0 0.0 0.0 
0.0 0.0 0.0 
0.0 0.0 0.0 
0.0 0.0 0.0 
0.0 0.0 0.0 
0.0 0.0 0.0 
0.0 0.0 0.0 
0.0 0.0 0.0 
0.0 0.0 0.0 
0.0 0.0 0.0 
0.0 0.0 0.0 
0.0 0.0 0.0 
0.0 0.0 0.0 
0.0 0.0 0.0 
0.0 0.0 0.0 
0.0 0.0 0.0 
0.0 0.0 0.0 
0.0 0.0 0.0 
0.0 0.0 0.0 
0.0 0.0 0.0 
0.0 0.0 0.0 
0.0 0.0 0.0 
0.0 0.0 0.0 
0.0 0.0 0.0 
0.0 0.0 0.0 
0.0 0.0 0.0 
0.0 0.0 0.0 
0.0 0.0 0.0 
0.0 0.0 0.0 
0.0 0.0 0.0 
0.0 0.0 0.0 
0.0 0.0 0.0 
0.0 0.0 0.0 
0.0 0.0 0.0 
0.0 0.0 0.0 
0.0 0.0 0.0 
0.0 0.0 0.0 
0.0 0.0 0.0 
0.0 0.0 0.0 
0.0 9.571920131674e-02 0.0 
0.0 8.642926720650e-02 0.0 
0.0 7.675183682260e-02 0.0 
0.0 6.671398104174e-02 0.0 
0.0 5.633128086804e-02 0.0 
0.0 4.562811981433e-02 0.0 
0.0 3.462467291400e-02 0.0 
0.0 2.333985468514e-02 0.0 
0.0 1.179711757291e-02 0.0 
-7.827896534423e-03 -9.218066468166e-03 0.0 
2.481713207690e-02 9.589945757899e-02 0.0 
-2.284571843864e-04 1.891359526496e-02 0.0 
7.144075625751e-03 4.183728332738e-02 0.0 
1.381848359209e-02 6.185294247093e-02 0.0 
1.894131648593e-02 7.861589010315e-02 0.0 
2.410608934680e-02 9.041033878691e-02 0.0 
2.751893411602e-02 9.775397801668e-02 0.0 
2.897237268472e-02 1.014893851728e-01 0.0 
2.878942421882e-02 1.021046738228e-01 0.0 
2.730930034057e-02 1.000827630513e-01 0.0 
0.0 1.486147872650e-01 0.0 
0.0 1.424342648105e-01 0.0 
0.0 1.357617179208e-01 0.0 
0.0 1.286681952208e-01 0.0 
0.0 1.210777666960e-01 0.0 
0.0 1.130753842669e-01 0.0 
1.389225680098e-03 1.045995606038e-01 0.0 
2.772099222346e-03 1.045743160969e-01 0.0 
4.176821803520e-03 1.045258749030e-01 0.0 
5.606382597019e-03 1.044438031858e-01 0.0 
7.066772122383e-03 1.043277361604e-01 0.0 
8.559850488868e-03 1.041421575911e-01 0.0 
1.010312386146e-02 1.038982442891e-01 0.0 
1.169493012146e-02 1.035494228933e-01 0.0 
1.335451413562e-02 1.031007731932e-01 0.0 
1.508577675059e-02 1.024969022010e-01 0.0 
1.688757127077e-02 1.017155278854e-01 0.0 
1.877123020027e-02 1.007102335777e-01 0.0 
2.072523151581e-02 9.944057108685e-02 0.0 
2.273926734749e-02 9.784978987525e-02 0.0 
-4.586983759640e-03 -2.391289781603e-02 0.0 
2.262592334380e-04 -3.156511176711e-02 0.0 
5.502859912298e-03 -3.409146061980e-02 0.0 
1.126612598827e-02 -3.111465058421e-02 0.0 
1.555932093407e-02 -2.019488321331e-02 0.0 
1.806124962189e-02 -6.389684775371e-03 0.0 
1.895397263854e-02 4.318799991692e-03 0.0 
1.914677909625e-02 1.330557454068e-02 0.0 
1.918011530435e-02 2.126744732072e-02 0.0 
1.894990329561e-02 2.862246574118e-02 0.0 
1.836915480267e-02 3.536729090373e-02 0.0 
1.749828134537e-02 4.143666014253e-02 0.0 
1.627074440529e-02 4.698513090078e-02 0.0 
1.461702902169e-02 5.193524184101e-02 0.0 
1.264139672187e-02 5.618501367382e-02 0.0 
1.043516020527e-02 5.963852985064e-02 0.0 
8.033555890362e-03 6.237843264825e-02 0.0 
5.473420290263e-03 6.437729150414e-02 0.0 
2.751170553143e-03 6.551461802364e-02 0.0 
1.161026135541e-03 1.486463134195e-01 0.0 
2.243443900251e-03 1.485892998411e-01 0.0 
3.312819319283e-03 1.485405192056e-01 0.0 
4.371277326184e-03 1.484643744165e-01 0.0 
5.414019189071e-03 1.483472986485e-01 0.0 
6.435013063000e-03 1.481740637832e-01 0.0 
7.427928357813e-03 1.479258403992e-01 0.0 
8.386165913783e-03 1.475793309231e-01 0.0 
9.302950198573e-03 1.471049801509e-01 0.0 
1.017186253036e-02 1.464667606062e-01 0.0 
1.098694697980e-02 1.456214199148e-01 0.0 
1.174224999224e-02 1.445162819123e-01 0.0 
1.243259812912e-02 1.430869228179e-01 0.0 
1.305596007936e-02 1.412544090214e-01 0.0 
1.361813318254e-02 1.389253114124e-01 0.0 
1.413073538904e-02 1.360234524446e-01 0.0 
1.456481194092e-02 1.324543294860e-01 0.0 
1.492462061251e-02 1.281079913035e-01 0.0 
1.523360253777e-02 1.228720780715e-01 0.0 
1.552906903723e-02 1.166279206258e-01 0.0 
1.586998856481e-02 1.092887656109e-01 0.0 
1.636468075582e-02 1.007545247231e-01 0.0 
1.695827986654e-02 9.086155785136e-02 0.0 
2.287187872562e-02 9.947233663908e-02 0.0 
2.186155906838e-02 1.071979487283e-01 0.0 
2.087333818379e-02 1.137934030151e-01 0.0 
1.992293185122e-02 1.193976578491e-01 0.0 
1.898584125440e-02 1.240897800921e-01 0.0 
1.804643435519e-02 1.279831671039e-01 0.0 
1.709376831814e-02 1.311809184241e-01 0.0 
1.612082296227e-02 1.337848834954e-01 0.0 
1.512789111908e-02 1.358697539412e-01 0.0 
1.413051818630e-02 1.375095818551e-01 0.0 
1.312274104893e-02 1.387891337492e-01 0.0 
1.210108034052e-02 1.397786306957e-01 0.0 
1.106383772530e-02 1.405348974691e-01 0.0 
1.001056225522e-02 1.411046494148e-01 0.0 
8.941753456570e-03 1.415269415214e-01 0.0 
7.859039179806e-03 1.418347550865e-01 0.0 
6.764621805935e-03 1.420547444028e-01 0.0 
5.660776327039e-03 1.422078326200e-01 0.0 
4.550034472642e-03 1.423112319726e-01 0.0 
3.434796380503e-03 1.423779267768e-01 0.0 
2.315457889972e-03 1.424146573949e-01 0.0 
1.162733818303e-03 1.424001584734e-01 0.0 
1.239996141543e-03 1.357961927638e-01 0.0 
2.470572527818e-03 1.357666203396e-01 0.0 
3.699035054398e-03 1.357290620720e-01 0.0 
4.927530637795e-03 1.356618249494e-01 0.0 
6.159047764584e-03 1.355554010485e-01 0.0 
7.395671068734e-03 1.353958966093e-01 0.0 
8.638513428267e-03 1.351645220031e-01 0.0 
9.888409677277e-03 1.348391191734e-01 0.0 
1.114675363371e-02 1.343899019138e-01 0.0 
1.241597704965e-02 1.337796028663e-01 0.0 
1.369960614882e-02 1.329653772655e-01 0.0 
1.500243453020e-02 1.318958798927e-01 0.0 
1.633085137100e-02 1.305085270301e-01 0.0 
1.769256354908e-02 1.287249084396e-01 0.0 
1.906500012405e-02 1.264662967453e-01 0.0 
2.044492130397e-02 1.236518183390e-01 0.0 
2.183590693634e-02 1.201919511866e-01 0.0 
2.324072106295e-02 1.159774657665e-01 0.0 
2.466033162133e-02 1.109219170636e-01 0.0 
2.605254540884e-02 1.048929767509e-01 0.0 
2.729082219293e-02 1.067513124747e-01 0.0 
2.564913584897e-02 1.111702881116e-01 0.0 
2.397810714878e-02 1.148371418657e-01 0.0 
2.232342309059e-02 1.178720794970e-01 0.0 
2.068766957689e-02 1.203406325194e-01 0.0 
1.907248990168e-02 1.223274560000e-01 0.0 
1.749728614878e-02 1.239047607036e-01 0.0 
1.597536585305e-02 1.251420582359e-01 0.0 
1.450024533932e-02 1.261011524008e-01 0.0 
1.306562278179e-02 1.268347745796e-01 0.0 
1.166514942143e-02 1.273862455774e-01 0.0 
1.029543589431e-02 1.277938437286e-01 0.0 
8.952519732368e-03 1.280916279759e-01 0.0 
7.631032635901e-03 1.283050866511e-01 0.0 
6.331119778634e-03 1.284539797373e-01 0.0 
5.048528267763e-03 1.285537070506e-01 0.0 
3.777725649482e-03 1.286158668302e-01 0.0 
2.514262931250e-03 1.286477201723e-01 0.0 
1.256455463306e-03 1.286318329928e-01 0.0 
1.335175452457e-03 1.211054357270e-01 0.0 
2.675444515618e-03 1.210685404968e-01 0.0 
4.025076685485e-03 1.210296892566e-01 0.0 
5.389895232012e-03 1.209599413399e-01 0.0 
6.774879254897e-03 1.208485852113e-01 0.0 
8.187972186888e-03 1.206819047102e-01 0.0 
9.634505831649e-03 1.204452529939e-01 0.0 
1.112360574533e-02 1.201151101754e-01 0.0 
1.266336877796e-02 1.196651964087e-01 0.0 
1.425174216529e-02 1.190595308859e-01 0.0 
1.589331087575e-02 1.182529907880e-01 0.0 
1.759471237076e-02 1.172015757275e-01 0.0 
1.936185025293e-02 1.158481749536e-01 0.0 
2.119728852161e-02 1.141355601697e-01 0.0 
2.307572516170e-02 1.119836691013e-01 0.0 
2.497527395959e-02 1.093304625603e-01 0.0 
2.686258278547e-02 1.060650161801e-01 0.0 
2.531620620260e-02 1.028433207137e-01 0.0 
2.337360022877e-02 1.050949180563e-01 0.0 
2.143059935877e-02 1.069092662199e-01 0.0 
1.955120612171e-02 1.083846182342e-01 0.0 
1.773790913636e-02 1.095578073646e-01 0.0 
1.599190212027e-02 1.104770326436e-01 0.0 
1.430566336373e-02 1.111895643527e-01 0.0 
1.269017476554e-02 1.117320099308e-01 0.0 
1.113376519918e-02 1.121401777376e-01 0.0 
9.633435187458e-03 1.124482211969e-01 0.0 
8.176577802246e-03 1.126684326124e-01 0.0 
6.759718638449e-03 1.128291564177e-01 0.0 
5.371423970568e-03 1.129344023517e-01 0.0 
4.008444130078e-03 1.130034612852e-01 0.0 
2.664884840080e-03 1.130404181406e-01 0.0 
1.328925512478e-03 1.130330282061e-01 0.0 
-3.647259656708e-03 6.225941775691e-03 0.0 
3.472321615663e-03 3.069218436708e-02 0.0 
1.058685472980e-02 5.219882824952e-02 0.0 
1.668464991059e-02 7.069263839892e-02 0.0 
2.174161568716e-02 8.509715414688e-02 0.0 
2.610002521147e-02 9.455004320857e-02 0.0 
2.847608889740e-02 1.000319075390e-01 0.0 
2.905900776521e-02 1.021525170403e-01 0.0 
2.819221700329e-02 1.013888228244e-01 0.0 
2.616996162598e-02 9.823318605067e-02 0.0 
1.189860675437e-02 2.952585917050e-02 0.0 
2.167092314085e-03 3.797692246751e-03 0.0 
1.300890834756e-02 2.483687536079e-02 0.0 
7.589156807922e-03 -2.462972818551e-02 0.0 
-2.534667393699e-04 3.943221247599e-03 0.0 
2.342880244036e-02 6.744200626331e-02 0.0 
-1.228123567735e-03 4.650266568261e-02 0.0 
4.370358373681e-03 4.526289650842e-03 0.0 
3.050011020469e-02 8.884251324922e-02 0.0 
5.629528182536e-03 5.635265953899e-03 0.0 
3.111924334581e-02 9.549119462706e-02 0.0 
-9.443559555250e-04 4.191648389493e-03 0.0 
1.150984204327e-02 5.042698376478e-02 0.0 
5.877596493928e-03 7.192681967071e-03 0.0 
2.659962726847e-02 9.062652822533e-02 0.0 
-8.957497550051e-04 5.961492178097e-02 0.0 
-1.070529526339e-03 3.519445530776e-02 0.0 
5.531330735076e-03 8.516136738080e-03 0.0 
4.039079059482e-03 9.078615424366e-03 0.0 
1.309254017750e-03 1.001143336357e-02 0.0 
2.336181865177e-03 1.068666647128e-02 0.0 
2.990915203259e-03 9.306521591510e-03 0.0 
2.164840085958e-02 9.103177130718e-02 0.0 
1.423744194266e-02 9.479977309195e-02 0.0 
9.328408914252e-03 9.578716553386e-02 0.0 
9.012152365506e-04 6.139946489777e-02 0.0 
-8.775775616412e-04 4.952653918415e-03 0.0 
3.039729253181e-03 -2.507234398238e-02 0.0 
7.007621106729e-03 6.176056511068e-02 0.0 
-6.738810450177e-04 2.027727866924e-02 0.0 
4.786201607166e-03 9.685819580670e-02 0.0 
2.956292590406e-04 6.568615142576e-02 0.0 
5.396568990067e-03 1.001071822847e-02 0.0 
4.755494789432e-03 4.642026557805e-03 0.0 
5.828778260645e-03 6.321540169438e-03 0.0 
3.578760451779e-03 4.334528784428e-03 0.0 
9.906110148744e-04 3.540393115809e-03 0.0 
1.048285165428e-02 -1.088189424349e-03 0.0 
1.782496046469e-02 9.381897194436e-02 0.0 
-9.101657491507e-04 4.815849301073e-03 0.0 
6.764472662183e-04 4.062736667660e-02 0.0 
1.295017205073e-02 3.855643052288e-02 0.0 
-1.213610325765e-03 5.365878050402e-02 0.0 
6.653261947124e-04 8.183360890857e-03 0.0 
2.787973092567e-02 7.955538732967e-02 0.0 
1.814025453082e-02 5.020473329915e-02 0.0 
3.157493582296e-02 9.378567499029e-02 0.0 
2.936898735862e-02 9.426297316066e-02 0.0 
4.431826327128e-03 5.920184645891e-03 0.0 
1.095226877807e-03 8.047509099097e-02 0.0 
-4.430658154017e-04 4.068059162845e-03 0.0 
3.261398110885e-03 6.578123790150e-02 0.0 
3.707748465842e-04 1.845630817494e-02 0.0 
2.523404330754e-02 8.767554839154e-02 0.0 
2.651788996526e-02 8.262024844796e-02 0.0 
2.429555168071e-02 8.055808930310e-02 0.0 
2.570270031437e-02 7.454657659234e-02 0.0 
2.356142317754e-02 7.130582509747e-02 0.0 
2.447275171884e-02 6.598227841860e-02 0.0 
2.676762838095e-02 6.893953624622e-02 0.0 
2.515500093990e-02 6.057809954061e-02 0.0 
2.755817335565e-02 6.334075354915e-02 0.0 
2.213840894336e-02 6.244657068440e-02 0.0 
2.554465499698e-02 5.514611600896e-02 0.0 
2.802787976137e-02 5.770526087504e-02 0.0 
2.561622994468e-02 4.974953846481e-02 0.0 
2.813455954614e-02 5.209769487089e-02 0.0 
3.043214797124e-02 5.965533244725e-02 0.0 
3.055164854121e-02 5.383069293312e-02 0.0 
3.267129673260e-02 6.090670114883e-02 0.0 
3.280222328336e-02 5.482335691101e-02 0.0 
3.025895577043e-02 4.814601918214e-02 0.0 
3.246419278465e-02 4.892713609838e-02 0.0 
3.475739441855e-02 5.502295294123e-02 0.0 
3.436551149008e-02 4.889811137796e-02 0.0 
3.636937584061e-02 5.436705111551e-02 0.0 
3.588349410886e-02 4.800021020727e-02 0.0 
3.759111324617e-02 5.279810112204e-02 0.0 
3.697622816737e-02 4.622449176682e-02 0.0 
3.483901451513e-02 4.203368130687e-02 0.0 
3.577343288451e-02 4.015355610678e-02 0.0 
3.757171742935e-02 4.358165335523e-02 0.0 
3.617992572365e-02 3.745477499939e-02 0.0 
3.762233253830e-02 4.011693412251e-02 0.0 
3.601581469392e-02 3.402760449207e-02 0.0 
3.420033231790e-02 3.204506852902e-02 0.0 
3.380468020222e-02 2.876968541276e-02 0.0 
3.522613277278e-02 2.992499077497e-02 0.0 
3.268407942265e-02 2.478337662295e-02 0.0 
3.371972779489e-02 2.504148609211e-02 0.0 
3.081981350217e-02 2.015131600401e-02 0.0 
3.150429415810e-02 1.958877954500e-02 0.0 
2.824717149487e-02 1.517947286332e-02 0.0 
2.737726269074e-02 1.638516792700e-02 0.0 
2.450747296664e-02 1.204621617967e-02 0.0 
2.506945919116e-02 1.020242397014e-02 0.0 
2.112365966467e-02 7.938875249177e-03 0.0 
2.049131290032e-02 1.018032846745e-02 0.0 
1.701912300634e-02 7.003560812008e-03 0.0 
1.639805846990e-02 9.460186735414e-03 0.0 
1.295034337987e-02 7.232012979466e-03 0.0 
1.334188122371e-02 4.523017006677e-03 0.0 
9.423499499969e-03 5.795032963946e-03 0.0 
9.143534663249e-03 8.397276220157e-03 0.0 
5.863935273084e-03 7.873614365595e-03 0.0 
5.987712384198e-03 5.276140431482e-03 0.0 
2.807514198274e-03 8.255327032209e-03 0.0 
2.903330415616e-03 1.026184582630e-02 0.0 
2.564803279503e-04 1.127309616214e-02 0.0 
8.409549741405e-05 9.530933652541e-03 0.0 
-2.036146037938e-03 1.308400519967e-02 0.0 
-1.792052203389e-03 1.431350913911e-02 0.0 
-3.772193846438e-03 1.666541952990e-02 0.0 
-3.954753288081e-03 1.570850262806e-02 0.0 
-5.348281596855e-03 1.969639547429e-02 0.0 
-5.105129451472e-03 2.011803886954e-02 0.0 
-6.358459129007e-03 2.343153683663e-02 0.0 
-5.999149302529e-03 2.324052142085e-02 0.0 
-6.503567280344e-03 2.339188532175e-02 0.0 
-7.189385746246e-03 2.724932674854e-02 0.0 
-7.179371052455e-03 2.761931019318e-02 0.0 
-7.580854413359e-03 3.146352175539e-02 0.0 
3.168573598552e-02 2.740329844700e-02 0.0 
-7.340647071781e-03 3.219923197570e-02 0.0 
-6.819530312507e-03 2.780512824628e-02 0.0 
-7.525047167918e-03 3.594230276875e-02 0.0 
-7.634613349274e-03 3.469762504240e-02 0.0 
-7.017787637729e-03 3.702131755538e-02 0.0 
-7.055183822463e-03 4.055900760141e-02 0.0 
-6.266517313454e-03 4.192302407513e-02 0.0 
3.412107959053e-02 2.519774700898e-02 0.0 
2.954061381244e-02 4.267381930533e-02 0.0 
-6.225653559977e-03 4.516149238066e-02 0.0 
-5.171847102110e-03 4.674079002514e-02 0.0 
-4.909652308783e-03 4.310869903373e-02 0.0 
-3.522613501329e-03 4.808994409282e-02 0.0 
2.133179137327e-02 6.774043853426e-02 0.0 
1.976695062010e-02 5.849955737750e-02 0.0 
1.909618119441e-02 6.376840112519e-02 0.0 
1.738423168111e-02 5.422430806369e-02 0.0 
1.684750203323e-02 5.937991332124e-02 0.0 
-3.847424451920e-03 5.131848110237e-02 0.0 
2.298697250921e-02 4.658176742109e-02 0.0 
1.769104735907e-02 4.896490391520e-02 0.0 
3.630793778399e-02 6.103133520826e-02 0.0 
3.859078811531e-02 4.697257319629e-02 0.0 
1.955461810571e-02 1.223132520703e-02 0.0 
-6.776759257653e-03 4.336858628009e-02 0.0 
-5.876127670774e-03 4.764332672540e-02 0.0 
-6.208658850244e-03 4.543542128276e-02 0.0 
-4.666732005534e-03 2.024246660872e-02 0.0 
-5.426202081276e-03 2.271606365637e-02 0.0 
-4.038909343192e-03 1.997586518198e-02 0.0 
-4.703377310178e-03 2.178311527743e-02 0.0 
-3.319588256787e-03 1.923555571630e-02 0.0 
-3.956489293323e-03 2.038372742549e-02 0.0 
-5.035645156280e-03 2.313866815415e-02 0.0 
-4.286722756675e-03 2.110871522758e-02 0.0 
-5.087977130231e-03 2.401373102009e-02 0.0 
-2.683131870263e-03 1.795323117810e-02 0.0 
-1.729254900333e-03 1.708448258578e-02 0.0 
-4.345281479840e-03 2.139620119393e-02 0.0 
-4.903962267726e-03 2.439878445903e-02 0.0 
-4.179127718376e-03 2.123869914262e-02 0.0 
-4.525103278821e-03 2.430662277394e-02 0.0 
-5.216314988377e-03 2.758421748765e-02 0.0 
-4.631448671823e-03 2.750385011669e-02 0.0 
-5.274720337814e-03 3.089787167498e-02 0.0 
1.557849539423e-02 1.161482034667e-02 0.0 
1.833321263610e-02 1.388321073969e-02 0.0 
1.459254108673e-02 1.323253504083e-02 0.0 
1.676165299158e-02 1.476497800344e-02 0.0 
1.338383170663e-02 1.385284511596e-02 0.0 
1.498451929258e-02 1.468950664843e-02 0.0 
1.186006618661e-02 1.362367242920e-02 0.0 
1.028374022094e-02 1.330577838568e-02 0.0 
2.535408668800e-02 4.435475802367e-02 0.0 
2.145419356669e-02 5.535869729738e-03 0.0 
2.524705548344e-02 8.239543259436e-03 0.0 
2.138647819438e-02 2.917186353830e-03 0.0 
2.486282970795e-02 6.172756941445e-03 0.0 
2.084036310284e-02 1.799024039492e-04 0.0 
2.393844668427e-02 4.058596877640e-03 0.0 
1.988804581289e-02 -2.679401074856e-03 0.0 
1.667499754431e-02 -4.978972860874e-03 0.0 
1.569501017656e-02 -8.529515153489e-03 0.0 
1.254603960471e-02 -8.877176089739e-03 0.0 
1.170899172702e-02 -1.289421175006e-02 0.0 
8.720142510098e-03 -1.108634482439e-02 0.0 
3.324419411577e-02 3.657341141574e-02 0.0 
1.832067528482e-02 1.613851499637e-02 0.0 
1.600708392228e-02 1.531672018613e-02 0.0 
1.923123598771e-02 1.720142467347e-02 0.0 
-2.900291512099e-03 4.412404131771e-02 0.0 
-3.985529688219e-03 2.375904728343e-02 0.0 
-1.307977148306e-03 1.583761398831e-02 0.0 
-7.039655592785e-05 1.532163490305e-02 0.0 
8.999566826170e-03 1.282908263525e-02 0.0 
-1.975165588968e-03 5.272562410406e-02 0.0 
2.247123204639e-02 1.969117519624e-03 0.0 
2.628573502267e-02 9.946385446782e-03 0.0 
1.502720987665e-02 4.953882090953e-02 0.0 
1.463299170052e-02 5.464645885665e-02 0.0 
7.677746243698e-05 1.401200523008e-02 0.0 
-2.429909275709e-03 5.551993969516e-02 0.0 
-3.615887224434e-03 1.859070470009e-02 0.0 
1.420005022333e-02 -1.226120111784e-02 0.0 
-3.923723507347e-03 2.694838467890e-02 0.0 
-3.323475029429e-03 2.278960713540e-02 0.0 
-5.844353484783e-03 2.619073000012e-02 0.0 
1.643710414073e-02 1.562090459796e-02 0.0 
1.956927040350e-02 1.787458168255e-02 0.0 
9.196449625290e-03 -7.140022861704e-03 0.0 
5.634196251663e-03 -7.480790141502e-03 0.0 
5.379183423661e-03 -1.127934714386e-02 0.0 
2.602656278447e-03 -5.691800090872e-03 0.0 
2.710859540187e-03 -2.659112027558e-03 0.0 
2.632963194274e-04 7.065051466787e-05 0.0 
5.600661457325e-04 -2.358365543101e-03 0.0 
-1.287555751426e-03 4.355691576666e-03 0.0 
-1.815215318588e-03 6.222373762439e-03 0.0 
-2.874923016239e-03 1.093052208983e-02 0.0 
-1.724024006837e-03 9.809711320627e-03 0.0 
-2.907326830979e-03 1.646977387928e-02 0.0 
-3.323527486704e-03 1.964013624751e-02 0.0 
1.054303562589e-02 -1.706146206450e-02 0.0 
3.210536111929e-02 6.706487802630e-02 0.0 
-1.038356273827e-03 1.395116867705e-02 0.0 
1.008417920938e-02 1.261133957990e-02 0.0 
1.272596394252e-02 4.452944759519e-02 0.0 
1.247346903183e-02 4.960739447814e-02 0.0 
1.404466638413e-02 5.974648464926e-02 0.0 
1.202032653583e-02 5.465546657985e-02 0.0 
1.039458381362e-02 4.429375314386e-02 0.0 
1.007864694014e-02 4.933259034539e-02 0.0 
1.139666772204e-02 5.965770466803e-02 0.0 
9.583371427363e-03 5.432129259988e-02 0.0 
1.062804788340e-02 6.458194029219e-02 0.0 
8.934711275968e-03 5.923828468096e-02 0.0 
7.866815374557e-03 4.878071343818e-02 0.0 
7.332079124376e-03 5.371917786952e-02 0.0 
8.157900787155e-03 6.408011572969e-02 0.0 
6.658200491508e-03 5.858543493543e-02 0.0 
7.274078168288e-03 6.882851409677e-02 0.0 
5.865550121500e-03 6.336862761537e-02 0.0 
5.260485491431e-03 5.294044014328e-02 0.0 
-5.219452300907e-04 5.675637846398e-02 0.0 
7.498406417807e-03 1.301611971322e-02 0.0 
6.448245850172e-03 1.221597524952e-02 0.0 
-5.270494787520e-03 4.927534854564e-02 0.0 
-5.435282144425e-03 4.668454780740e-02 0.0 
-6.233680762354e-03 4.297534433703e-02 0.0 
-5.307948249522e-03 4.391427611377e-02 0.0 
4.535879139769e-03 5.781630952714e-02 0.0 
3.981090774248e-03 4.716956250818e-02 0.0 
2.416509954612e-02 8.884033573923e-03 0.0 
2.762972544605e-02 1.772510750034e-02 0.0 
1.274713091704e-02 3.943831757517e-02 0.0 
-3.131987420140e-03 2.595557427877e-02 0.0 
-3.640674619665e-03 3.015539731318e-02 0.0 
3.829628676884e-02 4.276289815100e-02 0.0 
3.879052054287e-02 5.034441199281e-02 0.0 
3.817749763501e-02 4.547066412008e-02 0.0 
3.810953065874e-02 5.382594735086e-02 0.0 
3.858298550099e-02 5.851666331171e-02 0.0 
3.713080891304e-02 4.826141816963e-02 0.0 
-4.284726129838e-04 1.593596912597e-02 0.0 
6.269412774416e-03 4.307086937653e-02 0.0 
-4.367033243629e-03 3.876398946444e-02 0.0 
-2.009429320762e-03 3.952680829244e-02 0.0 
-2.607916889169e-03 2.144339301446e-02 0.0 
8.251015603330e-03 1.300520285852e-02 0.0 
3.200478197780e-02 3.767956669440e-02 0.0 
3.010464660572e-02 3.273720289482e-02 0.0 
2.864558591072e-02 3.305755035051e-02 0.0 
2.655818676802e-02 2.855776139482e-02 0.0 
2.486307951583e-02 2.810545205314e-02 0.0 
2.260245052661e-02 2.400614902819e-02 0.0 
2.414616121415e-02 2.452236633773e-02 0.0 
1.625704426148e-02 1.549387489848e-02 0.0 
2.007563561953e-02 2.029794367915e-02 0.0 
5.053200910339e-03 6.814766792413e-02 0.0 
2.180567590416e-02 1.805146413429e-02 0.0 
-3.550913789779e-03 1.222836209483e-02 0.0 
4.235747772297e-04 5.361396123589e-02 0.0 
-7.063166356271e-04 1.606133644710e-02 0.0 
-1.099386708593e-03 5.917198261003e-02 0.0 
-2.536542859066e-03 5.751498183855e-02 0.0 
7.225812131567e-05 1.201808650026e-02 0.0 
2.060402625564e-02 2.278482968227e-02 0.0 
2.276749877725e-02 2.692920468054e-02 0.0 
3.729847809034e-02 6.284930756311e-02 0.0 
3.768737046040e-02 6.709606944307e-02 0.0 
1.333375006660e-02 1.332031749617e-02 0.0 
1.822230461973e-02 6.905568816337e-02 0.0 
1.239083453586e-02 6.972574498722e-02 0.0 
1.138113761050e-02 7.455711070475e-02 0.0 
9.751142917374e-04 6.009390451107e-02 0.0 
3.307984176914e-04 9.031158934383e-03 0.0 
8.428738073337e-03 3.875468912070e-02 0.0 
2.967448992352e-02 1.796146531914e-02 0.0 
3.066004367314e-02 2.622147038076e-02 0.0 
1.236762472951e-02 -1.612393202253e-02 0.0 
9.078861900187e-03 -2.156789311840e-02 0.0 
3.369738924524e-03 5.197298990948e-02 0.0 
2.867097553162e-03 4.125842190724e-02 0.0 
-5.992164619768e-03 4.029441034007e-02 0.0 
-5.011064847919e-03 4.083291456577e-02 0.0 
1.377075693760e-03 1.239964960915e-02 0.0 
-1.900124963935e-03 2.249444284975e-02 0.0 
3.268794808117e-03 3.625633525912e-02 0.0 
5.617160840221e-03 1.327288715381e-02 0.0 
5.854968950431e-03 1.288219548791e-02 0.0 
-4.394138487455e-03 4.741161513850e-02 0.0 
2.469736385560e-02 1.776815303314e-02 0.0 
2.127851142346e-02 8.082519569061e-03 0.0 
-2.111056328021e-03 8.202540241799e-03 0.0 
-3.942282373393e-03 2.255183598580e-02 0.0 
-1.339675724128e-03 6.071792915317e-02 0.0 
1.033989220771e-03 1.021128990653e-02 0.0 
8.402832519606e-03 3.369043649951e-02 0.0 
2.150263365224e-02 2.099341998938e-02 0.0 
2.523375028082e-02 2.441857966902e-02 0.0 
1.737523089508e-02 1.701804695166e-02 0.0 
1.068835579918e-03 2.259199544104e-02 0.0 
-8.572819492222e-04 1.140959497489e-02 0.0 
-2.300587803072e-03 2.458608071083e-02 0.0 
1.840597862518e-02 2.119961813049e-02 0.0 
2.030797531822e-02 2.508184031703e-02 0.0 
3.260605588603e-02 2.571098438129e-02 0.0 
3.333480870378e-02 3.435640558236e-02 0.0 
3.057162710120e-02 3.582891734303e-02 0.0 
3.297438626046e-02 4.392672308325e-02 0.0 
2.902449852148e-02 7.141735960438e-02 0.0 
3.505690450262e-02 3.305913420476e-02 0.0 
3.405325996876e-02 6.785370376552e-02 0.0 
3.305591491800e-02 7.430708678882e-02 0.0 
3.466801833132e-02 7.468242682680e-02 0.0 
3.854846361412e-02 6.225780037566e-02 0.0 
3.756394304922e-02 7.043210912147e-02 0.0 
2.849937548634e-02 1.256718944060e-02 0.0 
2.224578152700e-02 1.523382710740e-02 0.0 
-6.793626672370e-03 3.910720086780e-02 0.0 
-5.907564254187e-03 3.048027486561e-02 0.0 
-2.976660678217e-03 1.777210351545e-02 0.0 
6.528644271210e-03 3.805287324774e-02 0.0 
4.967200025408e-03 3.215514440184e-02 0.0 
8.755970703026e-03 7.413340130189e-02 0.0 
7.695848063871e-03 7.874687341087e-02 0.0 
-1.254578769520e-04 4.494396885759e-02 0.0 
1.135087721888e-03 4.010025893809e-02 0.0 
-6.466154768168e-03 2.588654507943e-02 0.0 
-1.797641580096e-03 1.362296920429e-02 0.0 
1.038419117150e-02 3.416934749123e-02 0.0 
9.993843185933e-03 2.910426087012e-02 0.0 
1.250449082610e-02 3.433961489291e-02 0.0 
2.480655810603e-03 1.092417232082e-02 0.0 
1.752260506842e-02 1.443680620333e-03 0.0 
1.187010922694e-02 1.169864068879e-02 0.0 
7.390921600273e-03 -1.979865084632e-02 0.0 
3.168934912641e-02 2.987758225778e-02 0.0 
3.441408116948e-03 4.554414971512e-02 0.0 
2.721882694662e-02 4.133352306439e-02 0.0 
-1.872571806683e-03 1.976346983885e-02 0.0 
-2.072784551943e-03 1.659508213851e-02 0.0 
1.268029212223e-02 1.249371884140e-02 0.0 
2.833975743675e-02 8.502944197655e-02 0.0 
2.892198129563e-02 2.576170380141e-02 0.0 
2.869742742982e-02 2.355234221535e-02 0.0 
3.326216729896e-02 8.134458339721e-02 0.0 
3.450337952776e-02 8.134937726952e-02 0.0 
3.597071087634e-02 7.425933872395e-02 0.0 
3.540845577214e-02 8.059064509398e-02 0.0 
-3.915640200183e-03 1.353590857190e-02 0.0 
-4.927146360331e-03 1.776533491359e-02 0.0 
1.565839907707e-02 1.691815801346e-02 0.0 
1.568698949772e-02 1.572612437631e-02 0.0 
1.575365620788e-02 1.884711544037e-02 0.0 
1.751337835033e-02 2.250796498959e-02 0.0 
9.913133033603e-03 1.032384053001e-02 0.0 
1.052297509720e-02 1.141210037859e-02 0.0 
-2.293752109105e-03 5.872444138052e-02 0.0 
3.618633668190e-02 7.573100516685e-02 0.0 
6.440543117986e-03 2.792719021743e-02 0.0 
3.174331367058e-02 8.063685591741e-02 0.0 
-1.441460355774e-03 1.063883556461e-02 0.0 
-2.225957962709e-03 1.298736827756e-02 0.0 
6.426346553903e-03 -2.465963160744e-02 0.0 
4.681518421327e-03 -1.940126739159e-02 0.0 
2.245859775622e-03 3.042114292138e-02 0.0 
2.940784880838e-02 4.627963184680e-02 0.0 
3.163347792087e-02 5.405891866397e-02 0.0 
2.682003458813e-02 3.752344597902e-02 0.0 
-3.178271441345e-04 8.932901939704e-03 0.0 
2.068085256099e-03 9.708114329488e-02 0.0 
-1.420698260861e-03 1.463389767539e-02 0.0 
3.801111881477e-02 6.515770714209e-02 0.0 
2.398786841759e-03 2.487783952994e-02 0.0 
2.588087492256e-02 2.237957209615e-02 0.0 
3.745364801366e-02 3.782989165388e-02 0.0 
3.074719132331e-03 1.263065630316e-02 0.0 
1.839761191411e-03 3.638841022918e-02 0.0 
1.356101796511e-03 2.400624521070e-02 0.0 
1.303559131535e-02 7.934491084511e-02 0.0 
1.185791073289e-02 8.421653520838e-02 0.0 
1.420369695369e-02 7.463690336943e-02 0.0 
1.618562523458e-02 -8.620196555226e-03 0.0 
1.321163581549e-02 -1.120936349044e-02 0.0 
4.812551310789e-03 3.720623309245e-02 0.0 
-4.762738220629e-03 5.169826760249e-02 0.0 
-4.109404863075e-03 5.288423834178e-02 0.0 
-2.829740378238e-03 2.837834545538e-02 0.0 
-4.812181921365e-03 2.819996496120e-02 0.0 
-6.416668825691e-03 3.662268059395e-02 0.0 
-7.053027746523e-03 3.524495642071e-02 0.0 
2.612312127889e-02 3.621794986146e-02 0.0 
2.365161728871e-02 3.435145986852e-02 0.0 
3.036078818232e-02 3.802204894608e-02 0.0 
3.459300477685e-03 1.375833357272e-02 0.0 
3.245691345881e-03 1.310756802487e-02 0.0 
5.807289356645e-03 1.169030936485e-02 0.0 
4.981855859110e-03 2.742125550934e-02 0.0 
3.348881373140e-03 2.042577015410e-02 0.0 
-2.250853510425e-03 1.001552098657e-02 0.0 
4.300161209938e-05 5.115515801575e-03 0.0 
-5.314176654516e-03 1.844287982157e-02 0.0 
6.079463714035e-03 2.304332715883e-02 0.0 
-1.508233742416e-03 1.155687558269e-02 0.0 
-2.095993027935e-03 1.359848485500e-02 0.0 
5.035585390083e-03 4.063275492141e-02 0.0 
2.434039504472e-03 3.473405873490e-02 0.0 
2.067173610394e-02 1.814970603150e-02 0.0 
1.707597875405e-02 7.709343842080e-03 0.0 
9.449981571441e-03 2.446080305779e-02 0.0 
1.199797397348e-02 2.935242556115e-02 0.0 
6.770869909132e-03 1.858526589903e-02 0.0 
-1.157666434066e-03 6.159385155575e-02 0.0 
2.241191119066e-02 2.108432110666e-02 0.0 
1.908754141574e-03 8.584156294231e-03 0.0 
3.462914233017e-03 9.601432150028e-03 0.0 
6.848635362305e-04 7.067399124528e-03 0.0 
1.562903302299e-02 1.501568551574e-02 0.0 
1.156839145014e-02 1.134673380484e-02 0.0 
1.276810706232e-02 1.253515594206e-02 0.0 
7.031046910717e-03 -2.590012516356e-02 0.0 
1.025468389688e-03 2.869008386038e-02 0.0 
9.133460698804e-03 8.386638836666e-02 0.0 
5.963498303874e-03 -2.840086875987e-02 0.0 
7.913880104168e-03 8.866021192243e-02 0.0 
6.613963884486e-03 8.331444222697e-02 0.0 
6.849995932366e-03 9.326581760240e-02 0.0 
-4.168431862167e-04 6.327833064699e-02 0.0 
1.487261183394e-02 8.560200507651e-02 0.0 
1.618153537728e-02 7.963356094888e-02 0.0 
7.557412441294e-03 3.519305868529e-02 0.0 
4.159860901299e-03 1.720575118095e-02 0.0 
7.228013714258e-03 4.555840028663e-02 0.0 
5.365402551493e-03 4.995423888600e-02 0.0 
-1.659308843067e-03 9.430146252447e-03 0.0 
-2.351925828467e-03 1.200659303859e-02 0.0 
-1.641463831941e-03 8.009346505318e-03 0.0 
-2.278395632795e-03 1.092038453111e-02 0.0 
-2.984709843924e-03 1.479524084936e-02 0.0 
-2.762559619062e-03 1.364873804283e-02 0.0 
1.070619231522e-02 8.959116471297e-02 0.0 
-1.853087412157e-03 8.665717917281e-03 0.0 
-2.366937637241e-03 1.205782262976e-02 0.0 
-1.438977688269e-03 6.944347117399e-03 0.0 
3.347540545532e-02 8.805468679801e-02 0.0 
3.477245039218e-02 5.106835319046e-02 0.0 
3.334008626837e-02 6.122836438386e-02 0.0 
2.928613904365e-02 6.533966219016e-02 0.0 
1.168735142122e-02 1.436696158765e-02 0.0 
1.473838932677e-02 1.970914042900e-02 0.0 
-1.468005747286e-03 2.278192775809e-02 0.0 
-1.725796915641e-03 2.759011781978e-02 0.0 
5.474659849221e-03 8.847757576793e-02 0.0 
4.003439717490e-03 8.896713343953e-02 0.0 
4.362713102842e-03 8.021650980515e-02 0.0 
3.154590624286e-03 8.135582312586e-02 0.0 
3.386368033236e-03 7.251471748360e-02 0.0 
2.184695238360e-03 7.370644117952e-02 0.0 
2.576400911688e-03 6.460190959217e-02 0.0 
1.065817009595e-02 1.065690211511e-02 0.0 
2.455973121949e-02 4.806582854732e-02 0.0 
3.153784766185e-02 8.790382793571e-02 0.0 
7.305859945903e-03 8.346259386807e-03 0.0 
8.195048060956e-03 9.976420571277e-03 0.0 
3.604101154509e-02 7.856801750443e-02 0.0 
3.412621978911e-02 8.439365221418e-02 0.0 
-6.857147373930e-04 7.821768345295e-03 0.0 
3.374365976548e-02 2.539026036733e-02 0.0 
3.073074460767e-03 1.091909374540e-02 0.0 
1.861653771089e-03 -1.553032492703e-02 0.0 
8.129840613145e-03 -1.659342100572e-02 0.0 
3.592284956889e-02 3.196833604053e-02 0.0 
3.695278221183e-02 7.289791610546e-02 0.0 
3.627142855383e-02 5.746463805712e-02 0.0 
3.497300957558e-02 6.737768897631e-02 0.0 
3.393354252249e-03 1.361235548423e-02 0.0 
3.978808763521e-03 2.888305997465e-02 0.0 
2.390282421997e-02 2.807623207819e-02 0.0 
3.740368570077e-03 6.351699001660e-02 0.0 
1.870335085134e-02 2.867489322113e-02 0.0 
-7.985187484495e-04 2.526457284480e-02 0.0 
3.160468334386e-02 1.898450047334e-02 0.0 
3.849646105315e-02 5.754429196818e-02 0.0 
2.781631045303e-02 2.699919405545e-02 0.0 
3.559229013038e-02 4.190483129943e-02 0.0 
2.992319151282e-02 6.554627328045e-02 0.0 
2.785932060157e-02 7.714193272869e-02 0.0 
2.984057356123e-02 7.935030946995e-02 0.0 
2.865589091051e-02 1.391151256726e-02 0.0 
3.586598517415e-02 7.208742231215e-02 0.0 
3.282554836925e-02 7.774394749126e-02 0.0 
3.465469166177e-02 6.138257870830e-02 0.0 
1.509814430904e-02 3.924473869712e-02 0.0 
1.470146584391e-02 3.412606090091e-02 0.0 
1.127648501226e-02 2.469736299505e-02 0.0 
1.401072504866e-02 2.918110542179e-02 0.0 
1.746483512163e-02 3.858968027976e-02 0.0 
1.688306007178e-02 3.352876692838e-02 0.0 
1.301718604451e-02 2.446846388182e-02 0.0 
1.597977661866e-02 2.862138657339e-02 0.0 
1.070270438816e-02 1.802510948012e-02 0.0 
1.460793202609e-02 2.369564247953e-02 0.0 
1.897266377375e-02 3.256558426380e-02 0.0 
1.786566786101e-02 2.792129404462e-02 0.0 
1.358804022337e-02 2.022591368902e-02 0.0 
2.202136808664e-02 3.646602275960e-02 0.0 
6.224081921663e-03 6.740113073149e-03 0.0 
3.596250220509e-02 3.097235798866e-02 0.0 
9.875563194983e-03 -2.000360078924e-02 0.0 
1.137356114761e-02 -5.782920568430e-03 0.0 
3.760274475035e-02 5.978526232221e-02 0.0 
5.259143119321e-03 8.860301168717e-03 0.0 
4.487297995470e-03 9.172450939807e-03 0.0 
2.768450445624e-02 1.119753072093e-02 0.0 
5.876419554590e-03 6.738133153445e-03 0.0 
3.112857847616e-02 7.325231145291e-02 0.0 
1.834869926395e-02 -5.635631968022e-03 0.0 
5.836451965546e-03 6.049714030314e-03 0.0 
1.772752856722e-02 4.372983848561e-02 0.0 
2.037869895886e-02 4.801513620119e-02 0.0 
2.020452323913e-02 5.326529182004e-02 0.0 
3.570533774522e-03 8.856305490961e-03 0.0 
1.525935025597e-02 6.971660136774e-02 0.0 
4.442921740637e-03 4.430557583771e-03 0.0 
2.041501471766e-02 1.613737444456e-02 0.0 
2.421145832650e-02 1.807362873528e-02 0.0 
2.606146821432e-02 1.742584509681e-02 0.0 
1.979976952938e-02 3.771178887528e-02 0.0 
2.715031041284e-03 3.827392785638e-03 0.0 
4.515229754080e-03 6.824559727416e-03 0.0 
3.461871076429e-03 6.677681612411e-03 0.0 
5.759102466635e-03 9.378795016336e-03 0.0 
1.573098039579e-03 3.682895160381e-03 0.0 
5.249716777485e-03 7.434896392835e-03 0.0 
5.175049404603e-03 6.780762206344e-03 0.0 
1.312384370770e-04 2.631469455069e-03 0.0 
2.772353880749e-03 3.747585821765e-04 0.0 
2.782688130862e-03 3.183536215654e-03 0.0 
5.990298111210e-03 -5.781333797562e-04 0.0 
5.892629412796e-03 -3.893667542969e-03 0.0 
9.500709277385e-03 -3.508311250581e-03 0.0 
9.632125313760e-03 -1.587025961229e-04 0.0 
1.313564823631e-02 -5.143105548001e-03 0.0 
1.939627443006e-02 2.703593656564e-02 0.0 
5.446843279237e-04 3.577669599684e-03 0.0 
-2.343538196757e-03 1.770779058070e-02 0.0 
-9.890070215193e-04 1.587746301126e-02 0.0 
-1.470520836087e-03 1.528999605047e-02 0.0 
-7.357670603832e-03 3.724405118793e-02 0.0 
-7.430262361261e-03 3.323099037054e-02 0.0 
-6.976652136916e-03 3.149782860017e-02 0.0 
-6.937069525525e-03 4.135281917380e-02 0.0 
2.782417735669e-02 2.831439319268e-02 0.0 
9.339327513305e-05 3.668631809997e-03 0.0 
8.660848143328e-03 1.216316492432e-02 0.0 
-7.492432510693e-03 3.055768689267e-02 0.0 
1.972751653524e-02 9.253494175495e-02 0.0 
2.039838142065e-02 8.419359299167e-02 0.0 
2.220664414628e-02 8.271244461499e-02 0.0 
2.052954752459e-02 7.446744195345e-02 0.0 
1.825175631607e-02 8.436508507484e-02 0.0 
-5.579738582118e-03 3.736293524466e-02 0.0 
-4.603894448148e-03 3.750428777252e-02 0.0 
-3.910532620061e-03 4.076482741141e-02 0.0 
-3.542244552427e-03 3.709479956563e-02 0.0 
-2.748343483283e-03 4.013528540451e-02 0.0 
-3.027329807686e-03 4.375510336463e-02 0.0 
-2.419934747341e-03 3.620204231150e-02 0.0 
-1.595513088595e-03 3.945442749983e-02 0.0 
1.597723553038e-02 9.446904281114e-02 0.0 
8.645043915116e-03 -1.348819085318e-02 0.0 
4.826332608831e-03 -7.438616465005e-03 0.0 
5.886922337015e-03 3.358415456609e-03 0.0 
2.497692352159e-03 -1.857617399113e-03 0.0 
2.858476956764e-03 -1.082174163036e-02 0.0 
1.075073721723e-03 -4.762969698153e-03 0.0 
2.895554340623e-03 -1.207980753824e-02 0.0 
4.362014516156e-03 -1.793383983044e-02 0.0 
1.167548243673e-02 8.691372122826e-03 0.0 
6.809658622488e-03 1.242399470602e-02 0.0 
1.247379391220e-02 1.714975041521e-02 0.0 
7.639433409190e-03 2.047884099320e-02 0.0 
2.742002673332e-03 1.599844877680e-02 0.0 
-1.060193687254e-03 3.431977560196e-02 0.0 
-8.256897457198e-04 5.758517221553e-03 0.0 
-1.243454190406e-03 5.021985572753e-02 0.0 
-2.397047794432e-03 5.131003925072e-02 0.0 
-2.289519460548e-03 5.442343740626e-02 0.0 
-3.556214223002e-03 5.151339612190e-02 0.0 
-2.313067063802e-03 4.821482716626e-02 0.0 
-1.101681844280e-03 5.679526888880e-02 0.0 
-2.038448713009e-03 5.706892321304e-02 0.0 
5.156237605987e-03 6.416833956433e-02 0.0 
2.921967933098e-03 6.537327356043e-02 0.0 
1.450958486378e-03 6.670649536160e-02 0.0 
1.331508276741e-03 6.587712547315e-02 0.0 
2.207622428028e-03 6.423191792981e-02 0.0 
4.274168275243e-03 6.329854802674e-02 0.0 
5.527936582786e-03 6.045429425158e-02 0.0 
8.725326123391e-03 5.859005973085e-02 0.0 
6.562522523392e-03 5.695456377594e-02 0.0 
3.521277970751e-03 5.866185237697e-02 0.0 
1.021796505454e-02 5.487409286649e-02 0.0 
8.259332291502e-04 5.094261224919e-02 0.0 
1.567122356998e-03 4.559625325689e-02 0.0 
-5.846333303354e-04 4.137453459404e-03 0.0 
1.240244621260e-02 9.491577970563e-02 0.0 
1.308341785390e-02 3.208071696619e-02 0.0 
1.248920527307e-03 1.205280437758e-02 0.0 
1.849690451980e-03 9.907638382319e-03 0.0 
1.509539341579e-03 9.637899449925e-03 0.0 
-5.019006374366e-04 1.472877900344e-02 0.0 
-8.097855859200e-04 1.195619864745e-02 0.0 
6.861160838273e-04 1.175712912433e-02 0.0 
-5.990805142373e-03 3.798377597344e-02 0.0 
1.026146885084e-02 2.025056186036e-02 0.0 
3.513608444033e-03 3.118453148344e-02 0.0 
2.031881705854e-02 9.346148831681e-06 0.0 
-5.221709478107e-03 2.269060583526e-02 0.0 
-2.681529321891e-03 2.908934849948e-02 0.0 
-5.634531826159e-03 2.714428273242e-02 0.0 
-2.727161781468e-03 1.831742474101e-02 0.0 
-4.504139078268e-03 3.076948368545e-02 0.0 
-3.825424570843e-03 2.064189032515e-02 0.0 
2.444215930142e-03 6.837395690720e-03 0.0 
-4.733744910763e-05 6.208248268958e-02 0.0 
9.739277618011e-03 6.940863182590e-02 0.0 
6.360502486610e-03 7.351363235194e-02 0.0 
5.840066945923e-03 4.803963504641e-02 0.0 
-5.119070872907e-03 4.960866652285e-02 0.0 
-4.232701609048e-03 4.398270940790e-02 0.0 
-1.225277160084e-03 4.915704157779e-02 0.0 
1.072127660163e-02 1.162924029661e-02 0.0 
3.569565642362e-02 6.791858220147e-02 0.0 
-3.460294151125e-03 1.738978545035e-02 0.0 
-7.383050768872e-03 3.900831343336e-02 0.0 
-6.665388961259e-03 3.281299171878e-02 0.0 
-4.167491379805e-03 1.707673216839e-02 0.0 
3.711598326097e-02 3.592570648153e-02 0.0 
-6.946490163100e-03 2.670531802287e-02 0.0 
-3.301169689130e-03 1.846589847267e-02 0.0 
4.477840277253e-03 4.221825191100e-02 0.0 
1.177237180365e-02 4.513730514911e-02 0.0 
-2.192595081315e-03 1.608649447239e-02 0.0 
-5.794909083719e-03 2.471105494986e-02 0.0 
1.329142674119e-02 6.479304514849e-02 0.0 
1.292665080105e-02 1.381075581521e-02 0.0 
-5.001435217169e-04 2.941352636536e-03 0.0 
8.243835974674e-03 4.380308580806e-02 0.0 
7.753798611920e-03 2.422664514171e-02 0.0 
1.722567117414e-02 7.433600354559e-02 0.0 
1.904568103628e-03 4.998974492819e-02 0.0 
1.031584211670e-02 7.940791543970e-02 0.0 
-1.294785918696e-05 9.317646806823e-03 0.0 
1.519082585499e-02 4.437868197913e-02 0.0 
-3.846064947424e-03 5.377208261108e-02 0.0 
1.244394713680e-02 9.703120593521e-03 0.0 
3.834681035645e-02 5.030998295460e-02 0.0 
2.814913196886e-02 9.264831727330e-02 0.0 
3.606879301392e-03 2.648555812167e-02 0.0 
3.104733474462e-02 2.433982281634e-02 0.0 
7.490703836925e-03 1.154843467783e-02 0.0 
1.124560545867e-02 1.295311847574e-02 0.0 
-3.546072720567e-03 5.536743555105e-02 0.0 
-2.993346650021e-03 1.556530762930e-02 0.0 
2.354691111121e-02 1.376014806151e-02 0.0 
6.607959535973e-03 3.306773715867e-02 0.0 
2.680353763190e-02 3.262062946332e-02 0.0 
1.740910878329e-02 4.368124818576e-03 0.0 
1.050628738825e-02 3.923799879500e-02 0.0 
5.093516215756e-04 1.270997833241e-02 0.0 
1.341975185445e-02 1.373640430217e-02 0.0 
3.703850925604e-02 6.701319901576e-02 0.0 
3.344044974224e-02 4.309132321555e-02 0.0 
2.789911137900e-02 4.665817148302e-02 0.0 
3.399648918077e-02 3.467394304877e-02 0.0 
-1.945497327015e-03 3.218065348783e-02 0.0 
-2.744843137757e-03 1.600498090935e-02 0.0 
8.286652630018e-03 -1.532646415625e-02 0.0 
3.698163109823e-02 3.979821124425e-02 0.0 
1.612072315994e-02 6.455132172210e-02 0.0 
1.832684321994e-02 1.917648801470e-02 0.0 
4.648453690865e-03 2.201131973640e-02 0.0 
3.889814373787e-02 5.438882848086e-02 0.0 
-3.664605327704e-03 1.832523654381e-02 0.0 
8.199876808950e-03 2.895169512420e-02 0.0 
-7.135277939553e-03 2.941261523432e-02 0.0 
-2.667855936180e-04 6.415191391461e-02 0.0 
1.764480955890e-02 -1.645948542171e-03 0.0 
1.727619261758e-02 -1.677341925676e-03 0.0 
2.959578197360e-02 2.060860047390e-02 0.0 
-6.558798192487e-03 2.797110452199e-02 0.0 
8.147173600210e-03 1.852492875803e-02 0.0 
-3.488753529679e-03 1.766035116959e-02 0.0 
1.555852846606e-03 1.386836277577e-02 0.0 
8.383835455875e-03 1.805174780987e-02 0.0 
3.011538251561e-02 8.667288327673e-02 0.0 
-3.132212779254e-03 1.660575020411e-02 0.0 
8.853581940446e-03 1.054746030622e-02 0.0 
1.060462739338e-02 1.217720963486e-02 0.0 
-1.834231244317e-03 4.299526737254e-02 0.0 
1.062058809852e-02 1.101651961972e-02 0.0 
3.411217974658e-02 8.642955568561e-02 0.0 
-2.645235869599e-03 1.519362898664e-02 0.0 
5.082795789143e-03 1.284773163891e-02 0.0 
3.098088281654e-02 1.839685862284e-02 0.0 
3.430077159141e-03 9.703161288224e-02 0.0 
-1.752851525092e-03 9.574437550082e-03 0.0 
4.296835026586e-03 1.153502299338e-02 0.0 
3.114620949992e-02 3.167593569454e-02 0.0 
5.802616778208e-03 1.003978225372e-02 0.0 
3.043644538256e-02 9.514689262681e-02 0.0 
-6.351215002113e-03 2.949446529913e-02 0.0 
3.165694935905e-02 4.331630807754e-02 0.0 
3.148654205966e-03 8.763082990231e-03 0.0 
5.291051519921e-03 1.062033837635e-02 0.0 
2.272775928382e-02 5.733907243581e-02 0.0 
-6.543611839312e-03 3.299633017167e-02 0.0 
2.261728541829e-02 1.955872480398e-02 0.0 
2.983199150414e-03 6.182565039598e-02 0.0 
3.263886138826e-02 8.831880399385e-02 0.0 
-5.885768142925e-03 3.389305376308e-02 0.0 
1.345569883196e-02 -1.674057484331e-03 0.0 
3.061973984817e-03 1.185486945976e-02 0.0 
8.927527423820e-03 9.019553071926e-03 0.0 
-5.065647061765e-03 3.419739696108e-02 0.0 
1.351893690069e-02 1.592707988359e-03 0.0 
-4.135178066315e-03 3.396346486256e-02 0.0 
3.159535480334e-02 9.480673964742e-02 0.0 
2.298398201902e-02 5.181807958268e-02 0.0 
-3.102744452419e-03 3.326757022535e-02 0.0 
2.838728781047e-02 3.749206211276e-02 0.0 
3.807211709268e-03 5.459037506679e-02 0.0 
2.863302245342e-02 2.738862404823e-02 0.0 
-1.142014234160e-03 1.746440249584e-02 0.0 
-6.419727264000e-03 2.322097040618e-02 0.0 
8.002954850655e-04 1.385531181965e-02 0.0 
2.024194634302e-02 4.279775266542e-02 0.0 
3.118197514326e-02 9.176403171454e-02 0.0 
1.228192290279e-03 1.457394749452e-02 0.0 
2.463794663377e-02 3.144789636634e-02 0.0 
2.584054823517e-02 2.372184003280e-02 0.0 
2.779709699071e-02 2.077180366760e-02 0.0 
1.520178161073e-03 1.460423902771e-02 0.0 
3.386422883288e-02 8.120266036600e-02 0.0 
-5.437703835473e-03 3.354070814119e-02 0.0 
-3.655056629976e-03 3.387486642214e-02 0.0 
9.628391530934e-03 2.968012757768e-03 0.0 
2.213565782744e-02 2.955095274473e-02 0.0 
7.218384229697e-04 6.430403525762e-02 0.0 
2.263812457127e-02 4.133404174764e-02 0.0 
2.076841780491e-06 2.865622467185e-02 0.0 
6.028344989574e-03 2.466117298618e-03 0.0 
1.922198259258e-02 1.800541680919e-02 0.0 
9.905718238829e-04 7.121439317814e-02 0.0 
2.813279062639e-03 5.835537771598e-03 0.0 
-6.198772273939e-04 6.211017343462e-02 0.0 
2.122782285751e-05 7.392919882822e-03 0.0 
2.534988636459e-02 2.048774541028e-02 0.0 
-2.211403318067e-03 1.166111127102e-02 0.0 
-4.042948209592e-03 1.463600641986e-02 0.0 
2.431291314282e-03 2.037924419941e-02 0.0 
-5.440591085513e-03 1.910121319415e-02 0.0 
3.406949293288e-04 9.754874835655e-03 0.0 
-3.716511535504e-04 5.377793093576e-03 0.0 
1.296243970984e-03 9.020660606087e-02 0.0 
2.858883821614e-02 8.640489338482e-02 0.0 
4.750735281483e-03 -3.054845687463e-02 0.0 
3.199683176334e-02 7.038006625681e-02 0.0 
-5.994346615297e-03 2.288883654124e-02 0.0 
2.473600633664e-02 3.928788099280e-02 0.0 
2.693300671503e-03 8.973815601665e-02 0.0 
-6.049336175690e-03 2.800081253117e-02 0.0 
9.971627654483e-03 1.517189533580e-02 0.0 
5.062872517100e-03 4.970211947166e-03 0.0 
1.776007532981e-03 5.560726914933e-02 0.0 
8.176875908801e-03 1.093086044691e-02 0.0 
2.273508489681e-02 2.054780667180e-02 0.0 
5.085356760034e-04 2.982308099525e-02 0.0 
7.964594198334e-03 9.732872576373e-02 0.0 
8.272349163432e-03 2.797579806531e-02 0.0 
-9.313863804466e-04 3.012711232011e-02 0.0 
2.462941265404e-02 7.527918783909e-02 0.0 
2.688835437317e-02 5.668738264550e-02 0.0 
2.156491468947e-02 3.864367000405e-02 0.0 
-2.891897425624e-03 5.645173466295e-02 0.0 
2.951181557842e-03 7.437816813543e-03 0.0 
2.104740903535e-02 5.915629208178e-02 0.0 
5.594166380389e-03 7.246991593070e-03 0.0 
1.330908045578e-02 8.801071501888e-02 0.0 
1.878639007471e-02 1.799531699945e-02 0.0 
1.517915058378e-02 4.009309271436e-02 0.0 
5.629933829015e-03 1.890535891594e-02 0.0 
9.480783995921e-03 9.282038145030e-03 0.0 
-8.521788433421e-04 3.963064427970e-03 0.0 
1.442934002591e-02 1.399874824150e-02 0.0 
1.530257689983e-02 1.788025453892e-02 0.0 
1.900038656251e-02 7.738953149222e-02 0.0 
1.069994606512e-02 1.224885865773e-02 0.0 
2.392277896422e-03 4.709791219506e-02 0.0 
-9.015564016821e-04 4.054897344681e-03 0.0 
1.666817288850e-02 8.761926635699e-02 0.0 
1.496147456507e-03 1.909747489613e-02 0.0 
5.515176750121e-03 -1.557916563737e-02 0.0 
7.638093615457e-04 1.857712707486e-02 0.0 
2.086968177802e-02 3.154624277301e-02 0.0 
5.485875635764e-03 7.808945483669e-02 0.0 
2.245652998206e-02 7.544648708952e-02 0.0 
-9.570176035216e-04 9.261193319041e-03 0.0 
9.028824116557e-03 1.637405994912e-02 0.0 
1.178881430379e-02 5.074650492058e-03 0.0 
2.779873789775e-03 5.662374597936e-02 0.0 
-4.621366479549e-03 4.969719221482e-02 0.0 
5.439979469679e-03 -2.558308279004e-02 0.0 
-1.086637631198e-03 7.471222685640e-03 0.0 
1.655336284379e-02 2.385652604000e-02 0.0 
-1.440959640018e-03 9.151886074756e-03 0.0 
6.379908005214e-04 6.661903538758e-02 0.0 
9.001480925600e-03 4.124363029002e-02 0.0 
-5.240496254008e-05 6.446240601891e-03 0.0 
9.855332937461e-03 1.288682930543e-02 0.0 
2.382259110735e-03 -8.028272195133e-03 0.0 
1.920162997977e-03 7.670375733184e-03 0.0 
6.627064331762e-03 -6.682601905269e-03 0.0 
1.088197141886e-02 9.777244231675e-02 0.0 
7.643933049820e-03 5.320856718106e-02 0.0 
-8.463430370638e-04 4.272553054270e-03 0.0 
3.465555779921e-03 1.802742664679e-02 0.0 
-3.261960836113e-03 4.896644050274e-02 0.0 
2.336936636939e-02 8.894014919321e-02 0.0 
-1.636779381901e-03 5.961265186965e-02 0.0 
1.419197813226e-02 1.460856018232e-02 0.0 
4.397727241128e-03 2.324026916437e-02 0.0 
2.406345857423e-03 1.716235863080e-02 0.0 
1.366261592520e-03 5.997883476069e-03 0.0 
6.514821104828e-03 1.596122995094e-02 0.0 
2.775455202332e-03 3.100166861988e-03 0.0 
6.574040173845e-03 -2.444997924530e-02 0.0 
8.653351301640e-03 8.495749504192e-03 0.0 
4.082566230891e-03 8.685831253386e-03 0.0 
5.974612075380e-03 9.792631346146e-02 0.0 
8.010721170372e-03 1.655298824245e-02 0.0 
-3.113121169306e-03 5.438085929223e-02 0.0 
1.474699345033e-03 5.707768867393e-02 0.0 
1.456953664549e-04 8.652225072305e-03 0.0 
1.631685906367e-03 6.633077058231e-02 0.0 
1.006389943895e-03 9.813347010693e-02 0.0 
-1.438986407020e-04 4.417098826545e-03 0.0 
1.330076787163e-03 6.272529617792e-02 0.0 
2.137019973740e-03 8.328273098769e-02 0.0 
9.225822092030e-03 1.294537627416e-02 0.0 
-7.978570239644e-04 4.267234023969e-02 0.0 
1.179026343878e-03 3.703015281955e-02 0.0 
9.795970432388e-04 2.778751863042e-03 0.0 
6.762710155063e-03 -3.122123008371e-02 0.0 
1.704334299131e-03 6.615849567135e-02 0.0 
7.940497488200e-03 7.901370176403e-03 0.0 
5.186313826059e-03 1.567416509629e-02 0.0 
4.395375788655e-03 7.280428920723e-02 0.0 
1.479017445689e-02 -1.084779736479e-03 0.0 
1.288996884107e-02 1.796852792812e-02 0.0 
-3.357221331182e-03 4.622995791187e-02 0.0 
1.437500647738e-02 1.628692974021e-02 0.0 
6.553373255468e-03 9.049274031466e-03 0.0 
1.166241145501e-03 -4.494495329728e-03 0.0 
-6.704541622856e-04 3.869719521539e-02 0.0 
8.589607496699e-03 4.916802423959e-02 0.0 
-1.585896389655e-03 7.400212798828e-03 0.0 
-2.211207744631e-03 4.548280780459e-02 0.0 
2.014903409389e-02 9.175664392374e-02 0.0 
5.651746368644e-04 1.455824513050e-01 0.0 
2.480450637980e-02 9.970552179754e-02 0.0 
6.038568859076e-04 1.391599347235e-01 0.0 
2.722040614561e-02 1.041245675782e-01 0.0 
6.060850090190e-04 1.322758689795e-01 0.0 
2.778341221996e-02 1.053930333676e-01 0.0 
6.489086097811e-04 1.249319398980e-01 0.0 
2.691174438141e-02 1.039297541233e-01 0.0 
6.459861425514e-04 1.171322006332e-01 0.0 
2.492145398482e-02 1.002928103339e-01 0.0 
6.748059866576e-04 1.088862756204e-01 0.0 

TENSORS node_materi_stress float
-1.101073427189e+01 3.814752196687e-02 0.0 
3.814752196687e-02 -8.493810858759e+00 0.0 
0.0 0.0 -4.617095116499e+00 
-6.123280398095e+01 4.652264667738e-01 0.0 
4.652264667738e-01 -1.180928363761e+02 0.0 
0.0 0.0 -5.339769210711e+01 
-1.671839319922e+02 -2.150748781328e-01 0.0 
-2.150748781328e-01 -3.922777208984e+02 0.0 
0.0 0.0 -1.674384958672e+02 
-1.325541320506e+02 7.007649877675e-01 0.0 
7.007649877675e-01 -3.087428451104e+02 0.0 
0.0 0.0 -1.319890931483e+02 
-1.064326579511e+01 -1.413789323984e-01 0.0 
-1.413789323984e-01 -2.074178533272e+01 0.0 
0.0 0.0 -7.194623071334e+00 
-1.335256632449e+01 -5.197413103386e-01 0.0 
-5.197413103386e-01 -4.023642041366e+01 0.0 
0.0 0.0 -1.339893801069e+01 
-1.662290423407e+01 -5.994397237115e-01 0.0 
-5.994397237115e-01 -5.840935433780e+01 0.0 
0.0 0.0 -2.131727521766e+01 
-2.729027569407e+01 -7.418666460175e-01 0.0 
-7.418666460175e-01 -7.943752061197e+01 0.0 
0.0 0.0 -3.086499157215e+01 
-4.303970278401e+01 -7.185420581104e-01 0.0 
-7.185420581104e-01 -9.999176341086e+01 0.0 
0.0 0.0 -4.007991041593e+01 
-5.686393113000e+01 -7.288206729644e-01 0.0 
-7.288206729644e-01 -1.204901048084e+02 0.0 
0.0 0.0 -4.920329315906e+01 
-6.901149486326e+01 -7.665507777233e-01 0.0 
-7.665507777233e-01 -1.411119742215e+02 0.0 
0.0 0.0 -5.825957448408e+01 
-7.966190955394e+01 -7.391770297223e-01 0.0 
-7.391770297223e-01 -1.617746682413e+02 0.0 
0.0 0.0 -6.723684561907e+01 
-8.891611583205e+01 -7.079204789555e-01 0.0 
-7.079204789555e-01 -1.824486112479e+02 0.0 
0.0 0.0 -7.616392487490e+01 
-9.714217420395e+01 -7.091935607397e-01 0.0 
-7.091935607397e-01 -2.032349712197e+02 0.0 
0.0 0.0 -8.505789145926e+01 
-1.044071004062e+02 -7.742681729844e-01 0.0 
-7.742681729844e-01 -2.244339325116e+02 0.0 
0.0 0.0 -9.405520073503e+01 
-1.109577941608e+02 -6.776328660630e-01 0.0 
-6.776328660630e-01 -2.448009454921e+02 0.0 
0.0 0.0 -1.028409102924e+02 
-1.165803849439e+02 -8.147056458522e-01 0.0 
-8.147056458522e-01 -2.631595988957e+02 0.0 
0.0 0.0 -1.107962252578e+02 
-1.220030659933e+02 -3.703664617582e-01 0.0 
-3.703664617582e-01 -2.832147599066e+02 0.0 
0.0 0.0 -1.193976426063e+02 
-1.273623720550e+02 -2.767088586351e-01 0.0 
-2.767088586351e-01 -3.035736347748e+02 0.0 
0.0 0.0 -1.282345745070e+02 
-1.341299859921e+02 -2.308612369726e-01 0.0 
-2.308612369726e-01 -3.231474650896e+02 0.0 
0.0 0.0 -1.367770798714e+02 
-1.431673898810e+02 -1.613556531181e-01 0.0 
-1.613556531181e-01 -3.427233470977e+02 0.0 
0.0 0.0 -1.453672210936e+02 
-1.524936085261e+02 -1.849494805250e-01 0.0 
-1.849494805250e-01 -3.623739054490e+02 0.0 
0.0 0.0 -1.540602541925e+02 
-1.615643718168e+02 -2.552749424602e-01 0.0 
-2.552749424602e-01 -3.810885854918e+02 0.0 
0.0 0.0 -1.623958871926e+02 
-1.329197274334e+02 8.349273463364e-01 0.0 
8.349273463364e-01 -3.099204237254e+02 0.0 
0.0 0.0 -1.324520453477e+02 
-1.323833415226e+02 1.487190424681e+00 0.0 
1.487190424681e+00 -3.089234431334e+02 0.0 
0.0 0.0 -1.319920353968e+02 
-1.325481784899e+02 2.442416871986e+00 0.0 
2.442416871986e+00 -3.092764671396e+02 0.0 
0.0 0.0 -1.321473936888e+02 
-1.325540590676e+02 2.805001594237e+00 0.0 
2.805001594237e+00 -3.094332973976e+02 0.0 
0.0 0.0 -1.321962069396e+02 
-1.325043024595e+02 3.689129931803e+00 0.0 
3.689129931803e+00 -3.090199551135e+02 0.0 
0.0 0.0 -1.320572772719e+02 
-1.329075153208e+02 4.483780885572e+00 0.0 
4.483780885572e+00 -3.099463825387e+02 0.0 
0.0 0.0 -1.324561693579e+02 
-1.334300635634e+02 5.356545764374e+00 0.0 
5.356545764374e+00 -3.106490432701e+02 0.0 
0.0 0.0 -1.328237320500e+02 
-1.333374385210e+02 6.355027903205e+00 0.0 
6.355027903205e+00 -3.108360097776e+02 0.0 
0.0 0.0 -1.328520344896e+02 
-1.340346117856e+02 7.423774780016e+00 0.0 
7.423774780016e+00 -3.122495502322e+02 0.0 
0.0 0.0 -1.334852486053e+02 
-1.342475928382e+02 8.131436866734e+00 0.0 
8.131436866734e+00 -3.129800709613e+02 0.0 
0.0 0.0 -1.337682991399e+02 
-1.345589955576e+02 9.269925116990e+00 0.0 
9.269925116990e+00 -3.132686933211e+02 0.0 
0.0 0.0 -1.339483066636e+02 
-1.352173037470e+02 1.038066380133e+01 0.0 
1.038066380133e+01 -3.149631577635e+02 0.0 
0.0 0.0 -1.346541384531e+02 
-1.362565233445e+02 1.151197550100e+01 0.0 
1.151197550100e+01 -3.168487039937e+02 0.0 
0.0 0.0 -1.355315682014e+02 
-1.365146029781e+02 1.266053537325e+01 0.0 
1.266053537325e+01 -3.179649046827e+02 0.0 
0.0 0.0 -1.359438522982e+02 
-1.373921332992e+02 1.383295158648e+01 0.0 
1.383295158648e+01 -3.194917501493e+02 0.0 
0.0 0.0 -1.366651650345e+02 
-1.377416527392e+02 1.485530067029e+01 0.0 
1.485530067029e+01 -3.207900971582e+02 0.0 
0.0 0.0 -1.371595249692e+02 
-1.387276845842e+02 1.603259741470e+01 0.0 
1.603259741470e+01 -3.229948462985e+02 0.0 
0.0 0.0 -1.381167592648e+02 
-1.403943060506e+02 1.716693004649e+01 0.0 
1.716693004649e+01 -3.265106447476e+02 0.0 
0.0 0.0 -1.396714852395e+02 
-1.416020780453e+02 1.822218557513e+01 0.0 
1.822218557513e+01 -3.298464028166e+02 0.0 
0.0 0.0 -1.410345442586e+02 
-1.429478955741e+02 1.915964219149e+01 0.0 
1.915964219149e+01 -3.333891258283e+02 0.0 
0.0 0.0 -1.425011064207e+02 
-1.442004406297e+02 1.983036867381e+01 0.0 
1.983036867381e+01 -3.367345361526e+02 0.0 
0.0 0.0 -1.438804930347e+02 
-1.457276765965e+02 2.052066824325e+01 0.0 
2.052066824325e+01 -3.402434763476e+02 0.0 
0.0 0.0 -1.453913458832e+02 
-1.470910225067e+02 2.092229997202e+01 0.0 
2.092229997202e+01 -3.440109078409e+02 0.0 
0.0 0.0 -1.469305791043e+02 
-1.485758641944e+02 2.114277504198e+01 0.0 
2.114277504198e+01 -3.478538546633e+02 0.0 
0.0 0.0 -1.485289156573e+02 
-1.501974531507e+02 2.113955731605e+01 0.0 
2.113955731605e+01 -3.519853417183e+02 0.0 
0.0 0.0 -1.502548384607e+02 
-1.518923134216e+02 2.097958216394e+01 0.0 
2.097958216394e+01 -3.561203426218e+02 0.0 
0.0 0.0 -1.520037968130e+02 
-1.533145259308e+02 2.057443304726e+01 0.0 
2.057443304726e+01 -3.600235461701e+02 0.0 
0.0 0.0 -1.536014216302e+02 
-1.548841366207e+02 1.999339037342e+01 0.0 
1.999339037342e+01 -3.637686485135e+02 0.0 
0.0 0.0 -1.551958355403e+02 
-1.561062309255e+02 1.925606990730e+01 0.0 
1.925606990730e+01 -3.670777631424e+02 0.0 
0.0 0.0 -1.565551982204e+02 
-1.579075296995e+02 1.857268008671e+01 0.0 
1.857268008671e+01 -3.710485741145e+02 0.0 
0.0 0.0 -1.582868311442e+02 
-1.589081746504e+02 1.729751589864e+01 0.0 
1.729751589864e+01 -3.741124379840e+02 0.0 
0.0 0.0 -1.595061837903e+02 
-1.597252681719e+02 1.632000064266e+01 0.0 
1.632000064266e+01 -3.762373178420e+02 0.0 
0.0 0.0 -1.603887758042e+02 
-1.609953519289e+02 1.509816934817e+01 0.0 
1.509816934817e+01 -3.792423255123e+02 0.0 
0.0 0.0 -1.616713032324e+02 
-1.621820193640e+02 1.389105931527e+01 0.0 
1.389105931527e+01 -3.820902712288e+02 0.0 
0.0 0.0 -1.628816871778e+02 
-1.632270705818e+02 1.257287840242e+01 0.0 
1.257287840242e+01 -3.845949742715e+02 0.0 
0.0 0.0 -1.639466134560e+02 
-1.641522209810e+02 1.126311086280e+01 0.0 
1.126311086280e+01 -3.867073601360e+02 0.0 
0.0 0.0 -1.648578743351e+02 
-1.649197946207e+02 9.937205861783e+00 0.0 
9.937205861783e+00 -3.884712894030e+02 0.0 
0.0 0.0 -1.656173252071e+02 
-1.654170433004e+02 8.630755390322e+00 0.0 
8.630755390322e+00 -3.896097911721e+02 0.0 
0.0 0.0 -1.661080503417e+02 
-1.658003097151e+02 7.470225970475e+00 0.0 
7.470225970475e+00 -3.903946726099e+02 0.0 
0.0 0.0 -1.664584946975e+02 
-1.659631583321e+02 6.290192270462e+00 0.0 
6.290192270462e+00 -3.907960623728e+02 0.0 
0.0 0.0 -1.666277662115e+02 
-1.664874003116e+02 5.394483673252e+00 0.0 
5.394483673252e+00 -3.916684385648e+02 0.0 
0.0 0.0 -1.670467516629e+02 
-1.672111817755e+02 4.394847794925e+00 0.0 
4.394847794925e+00 -3.928834959757e+02 0.0 
0.0 0.0 -1.676284033254e+02 
-1.675272078506e+02 3.716012434770e+00 0.0 
3.716012434770e+00 -3.933674916464e+02 0.0 
0.0 0.0 -1.678684098491e+02 
-1.662592499481e+02 2.925034160658e+00 0.0 
2.925034160658e+00 -3.910544686190e+02 0.0 
0.0 0.0 -1.667941155701e+02 
-1.675249286668e+02 2.223218525289e+00 0.0 
2.223218525289e+00 -3.931150567039e+02 0.0 
0.0 0.0 -1.677919956112e+02 
-1.670743346713e+02 1.711745311643e+00 0.0 
1.711745311643e+00 -3.923087512175e+02 0.0 
0.0 0.0 -1.674149257666e+02 
-1.673945301756e+02 1.434378644201e+00 0.0 
1.434378644201e+00 -3.928011872383e+02 0.0 
0.0 0.0 -1.676587152242e+02 
-1.677156478068e+02 7.599110513634e-01 0.0 
7.599110513634e-01 -3.934212140673e+02 0.0 
0.0 0.0 -1.679410585622e+02 
-1.676429189194e+02 4.593789748418e-01 0.0 
4.593789748418e-01 -3.933047568786e+02 0.0 
0.0 0.0 -1.678843027394e+02 
-6.971900314748e+01 3.529776264197e-01 0.0 
3.529776264197e-01 -1.379715040700e+02 0.0 
0.0 0.0 -6.190715216525e+01 
-7.761619257273e+01 4.238327311538e-01 0.0 
4.238327311538e-01 -1.578231717494e+02 0.0 
0.0 0.0 -7.023180929664e+01 
-8.547736539696e+01 4.353164539180e-01 0.0 
4.353164539180e-01 -1.775446570144e+02 0.0 
0.0 0.0 -7.850660672342e+01 
-9.296111587238e+01 4.899378385836e-01 0.0 
4.899378385836e-01 -1.969226934405e+02 0.0 
0.0 0.0 -8.656514279386e+01 
-1.004415776587e+02 4.708487499297e-01 0.0 
4.708487499297e-01 -2.168093961334e+02 0.0 
0.0 0.0 -9.477529213761e+01 
-1.080108481694e+02 5.367351247025e-01 0.0 
5.367351247025e-01 -2.368645464854e+02 0.0 
0.0 0.0 -1.030626183964e+02 
-1.150594340043e+02 5.108643861176e-01 0.0 
5.108643861176e-01 -2.567248685589e+02 0.0 
0.0 0.0 -1.111352907690e+02 
-1.218717103477e+02 6.055856476645e-01 0.0 
6.055856476645e-01 -2.764612569978e+02 0.0 
0.0 0.0 -1.190998902037e+02 
-1.290056306665e+02 6.603209873569e-01 0.0 
6.603209873569e-01 -2.969042178807e+02 0.0 
0.0 0.0 -1.273729545642e+02 
-6.687296706831e+01 3.166178337947e+01 0.0 
3.166178337947e+01 -6.953288073989e+01 0.0 
0.0 0.0 -4.134513849837e+01 
-7.075848121159e+01 4.716119389590e+00 0.0 
4.716119389590e+00 -1.215540688789e+02 0.0 
0.0 0.0 -5.679170557606e+01 
-4.604388692911e+01 3.308435370609e+01 0.0 
3.308435370609e+01 -3.203216123935e+01 0.0 
0.0 0.0 -2.201914393690e+01 
-4.109279241912e+01 2.840022094027e+01 0.0 
2.840022094027e+01 -2.915256221885e+01 0.0 
0.0 0.0 -1.720261500643e+01 
-4.022141369065e+01 2.644879547017e+01 0.0 
2.644879547017e+01 -2.687791658878e+01 0.0 
0.0 0.0 -1.652740642419e+01 
-4.059665419919e+01 1.782796667988e+01 0.0 
1.782796667988e+01 -2.018218361362e+01 0.0 
0.0 0.0 -1.512494895426e+01 
-3.202727424650e+01 1.030718407148e+01 0.0 
1.030718407148e+01 -2.303045558950e+01 0.0 
0.0 0.0 -1.302039020843e+01 
-3.932945859610e+01 8.538650477382e+00 0.0 
8.538650477382e+00 -4.327509770622e+01 0.0 
0.0 0.0 -1.997141751151e+01 
-4.838167163553e+01 6.535268946125e+00 0.0 
6.535268946125e+00 -6.314778201765e+01 0.0 
0.0 0.0 -2.860200489823e+01 
-5.679614266327e+01 5.265759596343e+00 0.0 
5.265759596343e+00 -8.239136869023e+01 0.0 
0.0 0.0 -3.847387408196e+01 
-6.407635871560e+01 4.752605797420e+00 0.0 
4.752605797420e+00 -1.014298128792e+02 0.0 
0.0 0.0 -4.766939549181e+01 
-1.524930550261e+01 8.494408211504e-01 0.0 
8.494408211504e-01 -7.363319121979e+00 0.0 
0.0 0.0 -6.383787387378e+00 
-1.983354165921e+01 6.566788409790e-01 0.0 
6.566788409790e-01 -1.967551297514e+01 0.0 
0.0 0.0 -1.145271639031e+01 
-2.800301051898e+01 7.860580418112e-01 0.0 
7.860580418112e-01 -3.925530954674e+01 0.0 
0.0 0.0 -1.977749601971e+01 
-3.628171128228e+01 6.326788663508e-01 0.0 
6.326788663508e-01 -5.880272757386e+01 0.0 
0.0 0.0 -2.812533165684e+01 
-4.463804775805e+01 7.711312199104e-01 0.0 
7.711312199104e-01 -7.832415088387e+01 0.0 
0.0 0.0 -3.648865959258e+01 
-5.298705463325e+01 5.568925203359e-01 0.0 
5.568925203359e-01 -9.775860576197e+01 0.0 
0.0 0.0 -4.482369811857e+01 
-6.039792465333e+01 -1.696233204944e-01 0.0 
-1.696233204944e-01 -1.154613868650e+02 0.0 
0.0 0.0 -5.235779345551e+01 
-6.109667615202e+01 9.276362551251e-02 0.0 
9.276362551251e-02 -1.166412433991e+02 0.0 
0.0 0.0 -5.292137586532e+01 
-6.118858374338e+01 1.579054384245e-01 0.0 
1.579054384245e-01 -1.166662728895e+02 0.0 
0.0 0.0 -5.295645698988e+01 
-6.133965668585e+01 2.792015828035e-01 0.0 
2.792015828035e-01 -1.164370441351e+02 0.0 
0.0 0.0 -5.293301024629e+01 
-6.283456599411e+01 3.810277808272e-01 0.0 
3.810277808272e-01 -1.191067381183e+02 0.0 
0.0 0.0 -5.418239123373e+01 
-6.210327345807e+01 4.604747963977e-01 0.0 
4.604747963977e-01 -1.167471959064e+02 0.0 
0.0 0.0 -5.325514080934e+01 
-6.259910480680e+01 6.509366620647e-01 0.0 
6.509366620647e-01 -1.166084418621e+02 0.0 
0.0 0.0 -5.336226400067e+01 
-6.309053338333e+01 7.759891902231e-01 0.0 
7.759891902231e-01 -1.168464587062e+02 0.0 
0.0 0.0 -5.358109762687e+01 
-6.378684818784e+01 1.079125324689e+00 0.0 
1.079125324689e+00 -1.173769106880e+02 0.0 
0.0 0.0 -5.394912766276e+01 
-6.443317485518e+01 1.366602038443e+00 0.0 
1.366602038443e+00 -1.174613454800e+02 0.0 
0.0 0.0 -5.416835610055e+01 
-6.526902432494e+01 1.821628402693e+00 0.0 
1.821628402693e+00 -1.176556514021e+02 0.0 
0.0 0.0 -5.447740271811e+01 
-6.607050247655e+01 2.351503676649e+00 0.0 
2.351503676649e+00 -1.179489201041e+02 0.0 
0.0 0.0 -5.478292168691e+01 
-6.721489045138e+01 2.926133587225e+00 0.0 
2.926133587225e+00 -1.185829525379e+02 0.0 
0.0 0.0 -5.524143198850e+01 
-6.847405759599e+01 3.636109442989e+00 0.0 
3.636109442989e+00 -1.196025698677e+02 0.0 
0.0 0.0 -5.580140048711e+01 
-9.240443540672e+01 1.533750531274e+01 0.0 
1.533750531274e+01 -9.629495539162e+01 0.0 
0.0 0.0 -5.697095025607e+01 
-1.098393871540e+02 3.366316674103e+00 0.0 
3.366316674103e+00 -1.043257582472e+02 0.0 
0.0 0.0 -6.461661840887e+01 
-1.164401823108e+02 -2.158875091362e+00 0.0 
-2.158875091362e+00 -1.039329964818e+02 0.0 
0.0 0.0 -6.644612398659e+01 
-1.059153371534e+02 -1.021532068837e+01 0.0 
-1.021532068837e+01 -9.506278249159e+01 0.0 
0.0 0.0 -6.062705345831e+01 
-7.031654085705e+01 -2.128203281049e+01 0.0 
-2.128203281049e+01 -5.666726695138e+01 0.0 
0.0 0.0 -3.847403258596e+01 
-3.775627299676e+01 -1.505586152737e+01 0.0 
-1.505586152737e+01 -1.984865799725e+01 0.0 
0.0 0.0 -1.700733835768e+01 
-2.104816079599e+01 -3.906208777962e+00 0.0 
-3.906208777962e+00 -1.081158284819e+01 0.0 
0.0 0.0 -8.989741768828e+00 
-1.496868266426e+01 -7.891419615067e-01 0.0 
-7.891419615067e-01 -9.214727754562e+00 0.0 
0.0 0.0 -6.628442825210e+00 
-1.255182897402e+01 2.337281070702e-01 0.0 
2.337281070702e-01 -8.546663176606e+00 0.0 
0.0 0.0 -5.958849596781e+00 
-1.197476786659e+01 5.421690137949e-01 0.0 
5.421690137949e-01 -7.885034836218e+00 0.0 
0.0 0.0 -5.525646563624e+00 
-1.169626695599e+01 3.203371953160e-01 0.0 
3.203371953160e-01 -7.962676824909e+00 0.0 
0.0 0.0 -5.243662894962e+00 
-1.188732062534e+01 1.998929274147e-02 0.0 
1.998929274147e-02 -8.727750340078e+00 0.0 
0.0 0.0 -5.322727297338e+00 
-1.173580876054e+01 -1.335209028249e-01 0.0 
-1.335209028249e-01 -8.528074527579e+00 0.0 
0.0 0.0 -4.758121511193e+00 
-1.128720162406e+01 -7.383230128624e-02 0.0 
-7.383230128624e-02 -7.863706460232e+00 0.0 
0.0 0.0 -4.431005911391e+00 
-1.084954986827e+01 -3.865616693887e-02 0.0 
-3.865616693887e-02 -7.942246091703e+00 0.0 
0.0 0.0 -4.313904368930e+00 
-1.070471190567e+01 -1.883614133851e-02 0.0 
-1.883614133851e-02 -8.203745403225e+00 0.0 
0.0 0.0 -4.330083663082e+00 
-1.061004828467e+01 3.785515913569e-02 0.0 
3.785515913569e-02 -8.249190007198e+00 0.0 
0.0 0.0 -4.289116336580e+00 
-1.063309086025e+01 -1.089787653658e-02 0.0 
-1.089787653658e-02 -7.792946695487e+00 0.0 
0.0 0.0 -4.198579275641e+00 
-1.095417572043e+01 -1.162302246057e-01 0.0 
-1.162302246057e-01 -7.123705245168e+00 0.0 
0.0 0.0 -4.176082044156e+00 
-1.536694893063e+01 -2.276934466603e-01 0.0 
-2.276934466603e-01 -9.525071994153e+00 0.0 
0.0 0.0 -7.042765395080e+00 
-1.530297327354e+01 -9.353170659962e-02 0.0 
-9.353170659962e-02 -9.772538757004e+00 0.0 
0.0 0.0 -6.970810600401e+00 
-1.517728573432e+01 -8.644792124874e-02 0.0 
-8.644792124874e-02 -9.713026280937e+00 0.0 
0.0 0.0 -6.903797104862e+00 
-1.502497603896e+01 -1.337916669834e-01 0.0 
-1.337916669834e-01 -9.705427111745e+00 0.0 
0.0 0.0 -6.847120663320e+00 
-1.479503842883e+01 -1.874866779564e-01 0.0 
-1.874866779564e-01 -9.698466004540e+00 0.0 
0.0 0.0 -6.764601392866e+00 
-1.448228007485e+01 -2.446351778688e-01 0.0 
-2.446351778688e-01 -9.689605805378e+00 0.0 
0.0 0.0 -6.653552549221e+00 
-1.408259591145e+01 -3.073137454615e-01 0.0 
-3.073137454615e-01 -9.677882289324e+00 0.0 
0.0 0.0 -6.512121489578e+00 
-1.358870906980e+01 -3.761676199482e-01 0.0 
-3.761676199482e-01 -9.664907275384e+00 0.0 
0.0 0.0 -6.338231600158e+00 
-1.299683032129e+01 -4.497354040474e-01 0.0 
-4.497354040474e-01 -9.649497031586e+00 0.0 
0.0 0.0 -6.129199372299e+00 
-1.230605703151e+01 -5.297342866154e-01 0.0 
-5.297342866154e-01 -9.630064071120e+00 0.0 
0.0 0.0 -5.883001612115e+00 
-1.151316130642e+01 -6.172893078834e-01 0.0 
-6.172893078834e-01 -9.608248534443e+00 0.0 
0.0 0.0 -5.597719087930e+00 
-1.062076268376e+01 -7.074180236525e-01 0.0 
-7.074180236525e-01 -9.588322469171e+00 0.0 
0.0 0.0 -5.273780408157e+00 
-9.648349743500e+00 -7.837178205831e-01 0.0 
-7.837178205831e-01 -9.581617000643e+00 0.0 
0.0 0.0 -4.918258251094e+00 
-8.654184882481e+00 -8.108920676930e-01 0.0 
-8.108920676930e-01 -9.596754058745e+00 0.0 
0.0 0.0 -4.546121152738e+00 
-7.571561297146e+00 -7.898201230296e-01 0.0 
-7.898201230296e-01 -9.639813649760e+00 0.0 
0.0 0.0 -4.136116276200e+00 
-6.603384473832e+00 -6.745173330366e-01 0.0 
-6.745173330366e-01 -9.647301140871e+00 0.0 
0.0 0.0 -3.617097459924e+00 
-5.942304706665e+00 -4.904107620522e-01 0.0 
-4.904107620522e-01 -9.657430542805e+00 0.0 
0.0 0.0 -2.996357344749e+00 
-5.758949791471e+00 -1.832776654460e-01 0.0 
-1.832776654460e-01 -9.672671650591e+00 0.0 
0.0 0.0 -2.341335405487e+00 
-6.285416780958e+00 2.894431052008e-01 0.0 
2.894431052008e-01 -9.766678901721e+00 0.0 
0.0 0.0 -2.053291506766e+00 
-7.929421945770e+00 1.069294415890e+00 0.0 
1.069294415890e+00 -9.839649649023e+00 0.0 
0.0 0.0 -2.035641152552e+00 
-1.089433999829e+01 2.245275350851e+00 0.0 
2.245275350851e+00 -1.026654381358e+01 0.0 
0.0 0.0 -2.537863488771e+00 
-1.689893295004e+01 4.263606824117e+00 0.0 
4.263606824117e+00 -9.902681003029e+00 0.0 
0.0 0.0 -4.402057345531e+00 
-2.569928221840e+01 6.209386532862e+00 0.0 
6.209386532862e+00 -5.512233944629e+00 0.0 
0.0 0.0 -6.039778011952e+00 
-2.373305681615e+01 5.594981269168e+00 0.0 
5.594981269168e+00 -1.902784136569e+01 0.0 
0.0 0.0 -8.989757119717e+00 
-2.231454709008e+01 4.081334646618e+00 0.0 
4.081334646618e+00 -2.239187849786e+01 0.0 
0.0 0.0 -9.351711729374e+00 
-1.858352101350e+01 2.011707387659e+00 0.0 
2.011707387659e+00 -2.078960760373e+01 0.0 
0.0 0.0 -8.101401165035e+00 
-1.712335264755e+01 9.260199108995e-01 0.0 
9.260199108995e-01 -2.029558171078e+01 0.0 
0.0 0.0 -7.966616463193e+00 
-1.627239543043e+01 1.827660661214e-01 0.0 
1.827660661214e-01 -2.006947828823e+01 0.0 
0.0 0.0 -8.255782156121e+00 
-1.594819954326e+01 -2.988908450088e-01 0.0 
-2.988908450088e-01 -1.986792335406e+01 0.0 
0.0 0.0 -8.669684652392e+00 
-1.596530182867e+01 -6.138208665313e-01 0.0 
-6.138208665313e-01 -1.977624701759e+01 0.0 
0.0 0.0 -9.095043432678e+00 
-1.621092860905e+01 -7.916691447562e-01 0.0 
-7.916691447562e-01 -1.966170907396e+01 0.0 
0.0 0.0 -9.433635963577e+00 
-1.658594483953e+01 -8.724596870094e-01 0.0 
-8.724596870094e-01 -1.959319423854e+01 0.0 
0.0 0.0 -9.717956611100e+00 
-1.696911560983e+01 -8.631895847110e-01 0.0 
-8.631895847110e-01 -1.953140911947e+01 0.0 
0.0 0.0 -9.926714584856e+00 
-1.738176911100e+01 -8.029938174177e-01 0.0 
-8.029938174177e-01 -1.950853294330e+01 0.0 
0.0 0.0 -1.013605849275e+01 
-1.779180679748e+01 -7.219294487533e-01 0.0 
-7.219294487533e-01 -1.950434093716e+01 0.0 
0.0 0.0 -1.033435076967e+01 
-1.817682178835e+01 -6.351518698498e-01 0.0 
-6.351518698498e-01 -1.950859193469e+01 0.0 
0.0 0.0 -1.051434193551e+01 
-1.852402699919e+01 -5.492387864997e-01 0.0 
-5.492387864997e-01 -1.951398344177e+01 0.0 
0.0 0.0 -1.067195259116e+01 
-1.882536926440e+01 -4.633547640672e-01 0.0 
-4.633547640672e-01 -1.951885034433e+01 0.0 
0.0 0.0 -1.080638479556e+01 
-1.907609086541e+01 -3.796185110334e-01 0.0 
-3.796185110334e-01 -1.952666424171e+01 0.0 
0.0 0.0 -1.091933379606e+01 
-1.927578562129e+01 -3.005846325616e-01 0.0 
-3.005846325616e-01 -1.953395917128e+01 0.0 
0.0 0.0 -1.101068138420e+01 
-1.942578011746e+01 -2.229670918255e-01 0.0 
-2.229670918255e-01 -1.953714402682e+01 0.0 
0.0 0.0 -1.107989651362e+01 
-1.952870141589e+01 -1.442560167443e-01 0.0 
-1.442560167443e-01 -1.953754732459e+01 0.0 
0.0 0.0 -1.112874698082e+01 
-1.958651093196e+01 -6.203272949681e-02 0.0 
-6.203272949681e-02 -1.952880381505e+01 0.0 
0.0 0.0 -1.115872675013e+01 
-1.963233164591e+01 3.760522132056e-02 0.0 
3.760522132056e-02 -1.953970677114e+01 0.0 
0.0 0.0 -1.124001141696e+01 
-1.979497242022e+01 -4.057516875564e-01 0.0 
-4.057516875564e-01 -1.964058382893e+01 0.0 
0.0 0.0 -1.141410628651e+01 
-2.798110555711e+01 -3.381165368456e-01 0.0 
-3.381165368456e-01 -3.919837855990e+01 0.0 
0.0 0.0 -1.973950672345e+01 
-2.783507529787e+01 -1.388965232009e-01 0.0 
-1.388965232009e-01 -3.909386833081e+01 0.0 
0.0 0.0 -1.964126715334e+01 
-2.778572191552e+01 -1.542612614279e-01 0.0 
-1.542612614279e-01 -3.908578674125e+01 0.0 
0.0 0.0 -1.961967542678e+01 
-2.776174994573e+01 -2.539122648492e-01 0.0 
-2.539122648492e-01 -3.908347412604e+01 0.0 
0.0 0.0 -1.959883235087e+01 
-2.774990125159e+01 -3.625659553132e-01 0.0 
-3.625659553132e-01 -3.908104747809e+01 0.0 
0.0 0.0 -1.957651852119e+01 
-2.774984152415e+01 -4.791653645746e-01 0.0 
-4.791653645746e-01 -3.907879164012e+01 0.0 
0.0 0.0 -1.954768611724e+01 
-2.777286763867e+01 -6.014648613584e-01 0.0 
-6.014648613584e-01 -3.907265407264e+01 0.0 
0.0 0.0 -1.950486096191e+01 
-2.780113445418e+01 -7.248384917003e-01 0.0 
-7.248384917003e-01 -3.907080559807e+01 0.0 
0.0 0.0 -1.945656498220e+01 
-2.783511489928e+01 -8.435536395987e-01 0.0 
-8.435536395987e-01 -3.907661510478e+01 0.0 
0.0 0.0 -1.940304630398e+01 
-2.787838697333e+01 -9.515729999286e-01 0.0 
-9.515729999286e-01 -3.908359766174e+01 0.0 
0.0 0.0 -1.933905481836e+01 
-2.795613283212e+01 -1.037202944102e+00 0.0 
-1.037202944102e+00 -3.910492690139e+01 0.0 
0.0 0.0 -1.927581833509e+01 
-2.809508640042e+01 -1.080795379834e+00 0.0 
-1.080795379834e+00 -3.915775092752e+01 0.0 
0.0 0.0 -1.922565175706e+01 
-2.833087827354e+01 -1.052263233745e+00 0.0 
-1.052263233745e+00 -3.927356989768e+01 0.0 
0.0 0.0 -1.920604783224e+01 
-2.863137589432e+01 -9.109484260893e-01 0.0 
-9.109484260893e-01 -3.946145317036e+01 0.0 
0.0 0.0 -1.914953508239e+01 
-2.909222862423e+01 -6.088563114245e-01 0.0 
-6.088563114245e-01 -3.967249835441e+01 0.0 
0.0 0.0 -1.898280317853e+01 
-2.975925342773e+01 -1.401250529292e-01 0.0 
-1.401250529292e-01 -3.999190070755e+01 0.0 
0.0 0.0 -1.881672862049e+01 
-3.071300296887e+01 6.153555703119e-01 0.0 
6.153555703119e-01 -4.032737125762e+01 0.0 
0.0 0.0 -1.861949043964e+01 
-3.191212327639e+01 1.666674776103e+00 0.0 
1.666674776103e+00 -4.091106486615e+01 0.0 
0.0 0.0 -1.848450871256e+01 
-3.452560561520e+01 3.552105368512e+00 0.0 
3.552105368512e+00 -4.279314906606e+01 0.0 
0.0 0.0 -1.892137282672e+01 
-3.468465325567e+01 5.122356673399e+00 0.0 
5.122356673399e+00 -3.967163848745e+01 0.0 
0.0 0.0 -1.749243988799e+01 
-4.501780004483e+01 4.119099807125e+00 0.0 
4.119099807125e+00 -5.956130186461e+01 0.0 
0.0 0.0 -2.757208721413e+01 
-4.509726792592e+01 3.040173464768e+00 0.0 
3.040173464768e+00 -6.256164115668e+01 0.0 
0.0 0.0 -2.918028584659e+01 
-4.285355632510e+01 1.548755362685e+00 0.0 
1.548755362685e+00 -6.069796781182e+01 0.0 
0.0 0.0 -2.861504087991e+01 
-4.165126103572e+01 7.039022803600e-01 0.0 
7.039022803600e-01 -5.997475968161e+01 0.0 
0.0 0.0 -2.853260438025e+01 
-4.059320664820e+01 1.060441923668e-01 0.0 
1.060441923668e-01 -5.954128460194e+01 0.0 
0.0 0.0 -2.855887288781e+01 
-3.968067441189e+01 -2.476472825792e-01 0.0 
-2.476472825792e-01 -5.916377828506e+01 0.0 
0.0 0.0 -2.850540360177e+01 
-3.890360730398e+01 -4.726824179509e-01 0.0 
-4.726824179509e-01 -5.890845431810e+01 0.0 
0.0 0.0 -2.838275489940e+01 
-3.826775800669e+01 -5.929741448677e-01 0.0 
-5.929741448677e-01 -5.875005241383e+01 0.0 
0.0 0.0 -2.827910793058e+01 
-3.775165963840e+01 -6.277973379349e-01 0.0 
-6.277973379349e-01 -5.866107086619e+01 0.0 
0.0 0.0 -2.821531874861e+01 
-3.733116291740e+01 -6.031162004869e-01 0.0 
-6.031162004869e-01 -5.861235130896e+01 0.0 
0.0 0.0 -2.818042894058e+01 
-3.698727853747e+01 -5.303750666384e-01 0.0 
-5.303750666384e-01 -5.859575494628e+01 0.0 
0.0 0.0 -2.815572811503e+01 
-3.673094868751e+01 -4.511952784806e-01 0.0 
-4.511952784806e-01 -5.859905410039e+01 0.0 
0.0 0.0 -2.812772476746e+01 
-3.654225578691e+01 -3.799825036457e-01 0.0 
-3.799825036457e-01 -5.861032800819e+01 0.0 
0.0 0.0 -2.811647996927e+01 
-3.640511916678e+01 -3.072288483148e-01 0.0 
-3.072288483148e-01 -5.861587994352e+01 0.0 
0.0 0.0 -2.810138152195e+01 
-3.631990112927e+01 -2.371496185783e-01 0.0 
-2.371496185783e-01 -5.862298602678e+01 0.0 
0.0 0.0 -2.808286614681e+01 
-3.627317055865e+01 -1.731522711229e-01 0.0 
-1.731522711229e-01 -5.862791779647e+01 0.0 
0.0 0.0 -2.807032650654e+01 
-3.626164517695e+01 -1.095594012303e-01 0.0 
-1.095594012303e-01 -5.864541893228e+01 0.0 
0.0 0.0 -2.807211923277e+01 
-3.625386964863e+01 -4.858074413637e-02 0.0 
-4.858074413637e-02 -5.870440264111e+01 0.0 
0.0 0.0 -2.808748168692e+01 
-3.627799595747e+01 -4.705018043592e-01 0.0 
-4.705018043592e-01 -5.878620977058e+01 0.0 
0.0 0.0 -2.811926171841e+01 
-4.462818850055e+01 -3.420367697532e-01 0.0 
-3.420367697532e-01 -7.833415007180e+01 0.0 
0.0 0.0 -3.648870157171e+01 
-4.471340085068e+01 -1.164837995821e-01 0.0 
-1.164837995821e-01 -7.822694876104e+01 0.0 
0.0 0.0 -3.648210488352e+01 
-4.479008974349e+01 -9.920436486685e-02 0.0 
-9.920436486685e-02 -7.818585234021e+01 0.0 
0.0 0.0 -3.649278262511e+01 
-4.489084765262e+01 -1.252513053223e-01 0.0 
-1.252513053223e-01 -7.818475243166e+01 0.0 
0.0 0.0 -3.652268002528e+01 
-4.505566343376e+01 -1.529649612332e-01 0.0 
-1.529649612332e-01 -7.817061362756e+01 0.0 
0.0 0.0 -3.656788311839e+01 
-4.524239488725e+01 -1.760393147353e-01 0.0 
-1.760393147353e-01 -7.816699748288e+01 0.0 
0.0 0.0 -3.662281771104e+01 
-4.547670196087e+01 -1.850052488660e-01 0.0 
-1.850052488660e-01 -7.817797647836e+01 0.0 
0.0 0.0 -3.669640353177e+01 
-4.578045005492e+01 -1.613551352376e-01 0.0 
-1.613551352376e-01 -7.817689363580e+01 0.0 
0.0 0.0 -3.678720310722e+01 
-4.620942323455e+01 -1.607692628703e-01 0.0 
-1.607692628703e-01 -7.817475259357e+01 0.0 
0.0 0.0 -3.688821114806e+01 
-4.674119482243e+01 -1.303925982964e-01 0.0 
-1.303925982964e-01 -7.827261326653e+01 0.0 
0.0 0.0 -3.701096903443e+01 
-4.747797755781e+01 -1.768088178144e-02 0.0 
-1.768088178144e-02 -7.840936925785e+01 0.0 
0.0 0.0 -3.715021234272e+01 
-4.836023737900e+01 1.825074596026e-01 0.0 
1.825074596026e-01 -7.861775403199e+01 0.0 
0.0 0.0 -3.734384805105e+01 
-4.936954678567e+01 4.962655609525e-01 0.0 
4.962655609525e-01 -7.896412381991e+01 0.0 
0.0 0.0 -3.759255116232e+01 
-5.060231600819e+01 9.418627854494e-01 0.0 
9.418627854494e-01 -7.937821977975e+01 0.0 
0.0 0.0 -3.782016210533e+01 
-5.183688381103e+01 1.523793677074e+00 0.0 
1.523793677074e+00 -8.011160648066e+01 0.0 
0.0 0.0 -3.804383128043e+01 
-5.393431603389e+01 2.736327508762e+00 0.0 
2.736327508762e+00 -8.206231629590e+01 0.0 
0.0 0.0 -3.876641073742e+01 
-5.393179177150e+01 3.530872427462e+00 0.0 
3.530872427462e+00 -7.907572188258e+01 0.0 
0.0 0.0 -3.736417179981e+01 
-6.144878789949e+01 3.399033125147e+00 0.0 
3.399033125147e+00 -9.828377482619e+01 0.0 
0.0 0.0 -4.649120090708e+01 
-6.133474143381e+01 2.889244229731e+00 0.0 
2.889244229731e+00 -1.011402150362e+02 0.0 
0.0 0.0 -4.765029814681e+01 
-5.939839063561e+01 2.008522948536e+00 0.0 
2.008522948536e+00 -9.933428352436e+01 0.0 
0.0 0.0 -4.679448480939e+01 
-5.821412623391e+01 1.494918859630e+00 0.0 
1.494918859630e+00 -9.876150779811e+01 0.0 
0.0 0.0 -4.644393664834e+01 
-5.716151753094e+01 1.129316910889e+00 0.0 
1.129316910889e+00 -9.841969090961e+01 0.0 
0.0 0.0 -4.614614622358e+01 
-5.629079194890e+01 7.996426527792e-01 0.0 
7.996426527792e-01 -9.820835273739e+01 0.0 
0.0 0.0 -4.590766354832e+01 
-5.557466880721e+01 5.484966144583e-01 0.0 
5.484966144583e-01 -9.798102025108e+01 0.0 
0.0 0.0 -4.566670671749e+01 
-5.500583826876e+01 4.118736316594e-01 0.0 
4.118736316594e-01 -9.787829077430e+01 0.0 
0.0 0.0 -4.546523871292e+01 
-5.461634681347e+01 2.542047413292e-01 0.0 
2.542047413292e-01 -9.791764093442e+01 0.0 
0.0 0.0 -4.536019632437e+01 
-5.416329531084e+01 1.683944454806e-01 0.0 
1.683944454806e-01 -9.785664833304e+01 0.0 
0.0 0.0 -4.520598309316e+01 
-5.384134964023e+01 9.790543405492e-02 0.0 
9.790543405492e-02 -9.783220001788e+01 0.0 
0.0 0.0 -4.510206489743e+01 
-5.359159489211e+01 9.032265127190e-02 0.0 
9.032265127190e-02 -9.783146439276e+01 0.0 
0.0 0.0 -4.502691778546e+01 
-5.335912379983e+01 3.608856368932e-02 0.0 
3.608856368932e-02 -9.785001128636e+01 0.0 
0.0 0.0 -4.496274052586e+01 
-5.319268925210e+01 4.274059240944e-02 0.0 
4.274059240944e-02 -9.779324925435e+01 0.0 
0.0 0.0 -4.489578155194e+01 
-5.309866483398e+01 1.270297850805e-01 0.0 
1.270297850805e-01 -9.794692231669e+01 0.0 
0.0 0.0 -4.491367614520e+01 
-5.297266045104e+01 -4.599820986098e-01 0.0 
-4.599820986098e-01 -9.803624395547e+01 0.0 
0.0 0.0 -4.490267132195e+01 
-4.968601000944e+01 3.756220861660e+01 0.0 
3.756220861660e+01 -4.035153117726e+01 0.0 
0.0 0.0 -2.759967033744e+01 
-4.280403272196e+01 3.030985703934e+01 0.0 
3.030985703934e+01 -3.090790565472e+01 0.0 
0.0 0.0 -1.886154228896e+01 
-3.996083439746e+01 2.719508073751e+01 0.0 
2.719508073751e+01 -2.763229082186e+01 0.0 
0.0 0.0 -1.642581391238e+01 
-4.342138184078e+01 2.527709988603e+01 0.0 
2.527709988603e+01 -2.646138103061e+01 0.0 
0.0 0.0 -1.772051679884e+01 
-3.541753297611e+01 1.266568512374e+01 0.0 
1.266568512374e+01 -1.743625176701e+01 0.0 
0.0 0.0 -1.260749475109e+01 
-3.664088414489e+01 9.919249095146e+00 0.0 
9.919249095146e+00 -3.541994994078e+01 0.0 
0.0 0.0 -1.741276158944e+01 
-4.533148488952e+01 7.617082955167e+00 0.0 
7.617082955167e+00 -5.545834427150e+01 0.0 
0.0 0.0 -2.478164402597e+01 
-5.398971422281e+01 5.884443015098e+00 0.0 
5.884443015098e+00 -7.485251317047e+01 0.0 
0.0 0.0 -3.468229095410e+01 
-6.172203826365e+01 5.009244205755e+00 0.0 
5.009244205755e+00 -9.389940702170e+01 0.0 
0.0 0.0 -4.413988892776e+01 
-6.832849067042e+01 4.710526897412e+00 0.0 
4.710526897412e+00 -1.130462189349e+02 0.0 
0.0 0.0 -5.312769827057e+01 
-4.332204121980e+01 3.118989185519e+01 0.0 
3.118989185519e+01 -4.133577315567e+01 0.0 
0.0 0.0 -2.175612921159e+01 
-1.562822479774e+02 1.421656881443e+01 0.0 
1.421656881443e+01 -3.727709568187e+02 0.0 
0.0 0.0 -1.583159614388e+02 
-1.551748638107e+01 -9.153503983464e-01 0.0 
-9.153503983464e-01 -1.719959703600e+01 0.0 
0.0 0.0 -8.933854752503e+00 
-6.381751198751e+01 -2.104194720737e+01 0.0 
-2.104194720737e+01 -8.565222559341e+01 0.0 
0.0 0.0 -4.566196777080e+01 
-1.603464039352e+02 7.749916213052e+00 0.0 
7.749916213052e+00 -3.820529153044e+02 0.0 
0.0 0.0 -1.623197957719e+02 
-4.460254125312e+01 2.456879895087e+01 0.0 
2.456879895087e+01 -3.659986623965e+01 0.0 
0.0 0.0 -2.116529757389e+01 
-1.011438687774e+02 -7.854251580649e-01 0.0 
-7.854251580649e-01 -2.146914995636e+02 0.0 
0.0 0.0 -8.989766193895e+01 
-1.515238388323e+02 1.834069039513e+01 0.0 
1.834069039513e+01 -3.598326631066e+02 0.0 
0.0 0.0 -1.530069505817e+02 
-4.731379251610e+01 1.372291092209e+01 0.0 
1.372291092209e+01 -5.522571410263e+01 0.0 
0.0 0.0 -2.638251423999e+01 
-1.471789638439e+02 2.069051123684e+01 0.0 
2.069051123684e+01 -3.459037425277e+02 0.0 
0.0 0.0 -1.475248119115e+02 
-6.287118286046e+01 7.806360068331e+00 0.0 
7.806360068331e+00 -9.317728120672e+01 0.0 
0.0 0.0 -4.299250303429e+01 
-1.629963805382e+02 3.822604181056e+00 0.0 
3.822604181056e+00 -3.855630759143e+02 0.0 
0.0 0.0 -1.641678369357e+02 
-1.168799054826e+01 -2.162061214333e-01 0.0 
-2.162061214333e-01 -1.621790979834e+01 0.0 
0.0 0.0 -6.610415751646e+00 
-1.423115434753e+02 1.988352468059e+01 0.0 
1.988352468059e+01 -3.302303106674e+02 0.0 
0.0 0.0 -1.413625562428e+02 
-7.532409379761e+01 6.186131024499e+00 0.0 
6.186131024499e+00 -1.309108050567e+02 0.0 
0.0 0.0 -6.088191019626e+01 
-6.373737014082e+01 -9.812607901229e-01 0.0 
-9.812607901229e-01 -1.318583575067e+02 0.0 
0.0 0.0 -5.415331870642e+01 
-1.183134918626e+02 -4.249002218889e-01 0.0 
-4.249002218889e-01 -2.701810005479e+02 0.0 
0.0 0.0 -1.137293407740e+02 
-1.388999084378e+02 1.743130989075e+01 0.0 
1.743130989075e+01 -3.193995845453e+02 0.0 
0.0 0.0 -1.370898478949e+02 
-1.351396472225e+02 1.285100778712e+01 0.0 
1.285100778712e+01 -3.104919876356e+02 0.0 
0.0 0.0 -1.332894904574e+02 
-1.305698717711e+02 4.096330116410e+00 0.0 
4.096330116410e+00 -3.016247536515e+02 0.0 
0.0 0.0 -1.292583876268e+02 
-1.311014106471e+02 6.588623528968e+00 0.0 
6.588623528968e+00 -3.014487835634e+02 0.0 
0.0 0.0 -1.293650582632e+02 
-1.331867026156e+02 9.748969806233e+00 0.0 
9.748969806233e+00 -3.064710593381e+02 0.0 
0.0 0.0 -1.314973285861e+02 
-7.542879170550e+01 4.397369872909e+00 0.0 
4.397369872909e+00 -1.376372615917e+02 0.0 
0.0 0.0 -6.350953276854e+01 
-7.185735445078e+01 1.891982141497e+00 0.0 
1.891982141497e+00 -1.355980953398e+02 0.0 
0.0 0.0 -6.183663493716e+01 
-7.067093297284e+01 1.084737875141e+00 0.0 
1.084737875141e+00 -1.364934079387e+02 0.0 
0.0 0.0 -6.174930227347e+01 
-9.683517172947e+01 4.744139392567e-01 0.0 
4.744139392567e-01 -2.069763449894e+02 0.0 
0.0 0.0 -9.074345501565e+01 
-1.629964758521e+02 2.009539573446e+00 0.0 
2.009539573446e+00 -3.846712421676e+02 0.0 
0.0 0.0 -1.639003154059e+02 
-7.413220972241e+01 1.206154728520e+01 0.0 
1.206154728520e+01 -1.059583655565e+02 0.0 
0.0 0.0 -5.484670122081e+01 
-1.073601457186e+01 -9.849810602224e-02 0.0 
-9.849810602224e-02 -1.724873198761e+01 0.0 
0.0 0.0 -6.303517043230e+00 
-1.382380262168e+02 1.765163017451e-01 0.0 
1.765163017451e-01 -3.322722380874e+02 0.0 
0.0 0.0 -1.407530792913e+02 
-6.842660814205e+01 3.218246915372e-01 0.0 
3.218246915372e-01 -1.340522818953e+02 0.0 
0.0 0.0 -6.034366701121e+01 
-2.169604293979e+01 -5.570926877693e-01 0.0 
-5.570926877693e-01 -6.885964973977e+01 0.0 
0.0 0.0 -2.600395615027e+01 
-1.356950707608e+02 1.499601817432e+01 0.0 
1.499601817432e+01 -3.109855375872e+02 0.0 
0.0 0.0 -1.336041825044e+02 
-1.500135724385e+02 1.989442079904e+01 0.0 
1.989442079904e+01 -3.543967385755e+02 0.0 
0.0 0.0 -1.509230933042e+02 
-1.446749822853e+02 2.070072703892e+01 0.0 
2.070072703892e+01 -3.378800497965e+02 0.0 
0.0 0.0 -1.443665096246e+02 
-1.531171764790e+02 1.654342349736e+01 0.0 
1.654342349736e+01 -3.651814172361e+02 0.0 
0.0 0.0 -1.550895781146e+02 
-1.585012276696e+02 1.168644419988e+01 0.0 
1.168644419988e+01 -3.780567211894e+02 0.0 
0.0 0.0 -1.605673846577e+02 
-3.356542766984e+01 -1.299055153070e+01 0.0 
-1.299055153070e+01 -2.556374570906e+01 0.0 
0.0 0.0 -1.560189836144e+01 
-7.325799934039e+01 2.892359022709e+00 0.0 
2.892359022709e+00 -1.356359427390e+02 0.0 
0.0 0.0 -6.226818262381e+01 
-1.598751180128e+02 5.480919743357e+00 0.0 
5.480919743357e+00 -3.807997584225e+02 0.0 
0.0 0.0 -1.618024629306e+02 
-1.112646817290e+02 5.949210975397e-01 0.0 
5.949210975397e-01 -2.463229530732e+02 0.0 
0.0 0.0 -1.068762904406e+02 
-1.259005032682e+01 -8.598121085839e-02 0.0 
-8.598121085839e-02 -1.679381539058e+01 0.0 
0.0 0.0 -7.928419201571e+00 
-8.445696579417e+01 -9.795116105746e-01 0.0 
-9.795116105746e-01 -1.723298826031e+02 0.0 
0.0 0.0 -7.172732290097e+01 
-1.311944754595e+02 2.554025687401e+00 0.0 
2.554025687401e+00 -3.040332599446e+02 0.0 
0.0 0.0 -1.301683206212e+02 
-4.339668534353e+01 1.899701997827e+01 0.0 
1.899701997827e+01 -4.349647172353e+01 0.0 
0.0 0.0 -2.260373287121e+01 
-4.204110179576e+01 2.840051371325e+01 0.0 
2.840051371325e+01 -3.788452567359e+01 0.0 
0.0 0.0 -2.019716706084e+01 
-5.526231227410e+01 1.008459490231e+01 0.0 
1.008459490231e+01 -7.419237882546e+01 0.0 
0.0 0.0 -3.324845124803e+01 
-6.945568034460e+01 6.754831119646e+00 0.0 
6.754831119646e+00 -1.117197673843e+02 0.0 
0.0 0.0 -5.204385195169e+01 
-4.747425965618e+01 3.683469226213e+01 0.0 
3.683469226213e+01 -4.787113271789e+01 0.0 
0.0 0.0 -2.837963457572e+01 
-8.232603419973e+01 2.430201158931e-01 0.0 
2.430201158931e-01 -1.692467836863e+02 0.0 
0.0 0.0 -7.507184536580e+01 
-1.646842475280e+02 1.069793201216e+00 0.0 
1.069793201216e+00 -3.877632979582e+02 0.0 
0.0 0.0 -1.653342636459e+02 
-1.045776887410e+01 -8.036876169311e-02 0.0 
-8.036876169311e-02 -1.636265234614e+01 0.0 
0.0 0.0 -5.999126779146e+00 
-1.249972004212e+02 6.388370364047e-01 0.0 
6.388370364047e-01 -2.855067530713e+02 0.0 
0.0 0.0 -1.227511860478e+02 
-7.814340953261e+01 6.132122417362e+00 0.0 
6.132122417362e+00 -1.397966581204e+02 0.0 
0.0 0.0 -6.479726818596e+01 
-8.201056432148e+01 7.644836207313e+00 0.0 
7.644836207313e+00 -1.493046517550e+02 0.0 
0.0 0.0 -6.880726188447e+01 
-8.454682876455e+01 7.045162752725e+00 0.0 
7.045162752725e+00 -1.578355936051e+02 0.0 
0.0 0.0 -7.231457414693e+01 
-8.900671619983e+01 8.957874161947e+00 0.0 
8.957874161947e+00 -1.692957694079e+02 0.0 
0.0 0.0 -7.709074568232e+01 
-9.226675270835e+01 8.368224348570e+00 0.0 
8.368224348570e+00 -1.787390335563e+02 0.0 
0.0 0.0 -8.090173587939e+01 
-9.614829641219e+01 9.899587541536e+00 0.0 
9.899587541536e+00 -1.892326426918e+02 0.0 
0.0 0.0 -8.521428173120e+01 
-9.297112350826e+01 1.058657075967e+01 0.0 
1.058657075967e+01 -1.800062791697e+02 0.0 
0.0 0.0 -8.149322080339e+01 
-9.999611992163e+01 1.142604221000e+01 0.0 
1.142604221000e+01 -2.001053211425e+02 0.0 
0.0 0.0 -8.963043231924e+01 
-9.663928195912e+01 1.221445643423e+01 0.0 
1.221445643423e+01 -1.910163294301e+02 0.0 
0.0 0.0 -8.589668341678e+01 
-9.963485393726e+01 9.369193524848e+00 0.0 
9.369193524848e+00 -1.989220315988e+02 0.0 
0.0 0.0 -8.916706566081e+01 
-1.036113473211e+02 1.291449370149e+01 0.0 
1.291449370149e+01 -2.112696625104e+02 0.0 
0.0 0.0 -9.406430294944e+01 
-1.001290736842e+02 1.377363288257e+01 0.0 
1.377363288257e+01 -2.024303476089e+02 0.0 
0.0 0.0 -9.036782638794e+01 
-1.070682339915e+02 1.430504252691e+01 0.0 
1.430504252691e+01 -2.227379137929e+02 0.0 
0.0 0.0 -9.854184433532e+01 
-1.034522649698e+02 1.520315898745e+01 0.0 
1.520315898745e+01 -2.142227437872e+02 0.0 
0.0 0.0 -9.490250262710e+01 
-9.685007097463e+01 1.475443461695e+01 0.0 
1.475443461695e+01 -1.939520792333e+02 0.0 
0.0 0.0 -8.666686426967e+01 
-9.989922811824e+01 1.622536840347e+01 0.0 
1.622536840347e+01 -2.061012329508e+02 0.0 
0.0 0.0 -9.129918311061e+01 
-9.407944344345e+01 1.570160809420e+01 0.0 
1.570160809420e+01 -1.858407143560e+02 0.0 
0.0 0.0 -8.291741157394e+01 
-9.682150175886e+01 1.725912994798e+01 0.0 
1.725912994798e+01 -1.983905844629e+02 0.0 
0.0 0.0 -8.765273538484e+01 
-1.028452804870e+02 1.741374140825e+01 0.0 
1.741374140825e+01 -2.185495170570e+02 0.0 
0.0 0.0 -9.597836302663e+01 
-9.931426105196e+01 1.845550936860e+01 0.0 
1.845550936860e+01 -2.112161487565e+02 0.0 
0.0 0.0 -9.242158317457e+01 
-9.397996913838e+01 1.828891659340e+01 0.0 
1.828891659340e+01 -1.910376729251e+02 0.0 
0.0 0.0 -8.390489291758e+01 
-9.611402337548e+01 1.943397646469e+01 0.0 
1.943397646469e+01 -2.042930175333e+02 0.0 
0.0 0.0 -8.881647080528e+01 
-9.115661715525e+01 1.950181445350e+01 0.0 
1.950181445350e+01 -1.841460653708e+02 0.0 
0.0 0.0 -8.011627655115e+01 
-9.301167867193e+01 2.046182237016e+01 0.0 
2.046182237016e+01 -1.978359759807e+02 0.0 
0.0 0.0 -8.515840790888e+01 
-8.795149636865e+01 2.089293083400e+01 0.0 
2.089293083400e+01 -1.777173267112e+02 0.0 
0.0 0.0 -7.650883985888e+01 
-8.968177034677e+01 2.161565134323e+01 0.0 
2.161565134323e+01 -1.918546848502e+02 0.0 
0.0 0.0 -8.195679270191e+01 
-9.463561970289e+01 2.089115559131e+01 0.0 
2.089115559131e+01 -2.115126117578e+02 0.0 
0.0 0.0 -9.022767758974e+01 
-9.103607557775e+01 2.169421366665e+01 0.0 
2.169421366665e+01 -2.057605294520e+02 0.0 
0.0 0.0 -8.734793032184e+01 
-8.578354799322e+01 2.285034288622e+01 0.0 
2.285034288622e+01 -1.863296261510e+02 0.0 
0.0 0.0 -7.941836062376e+01 
-8.705614281654e+01 2.253153464458e+01 0.0 
2.253153464458e+01 -2.003659931216e+02 0.0 
0.0 0.0 -8.498591955768e+01 
-8.129553428827e+01 2.405558585066e+01 0.0 
2.405558585066e+01 -1.812775140271e+02 0.0 
0.0 0.0 -7.738208140180e+01 
-8.228232679271e+01 2.331754420933e+01 0.0 
2.331754420933e+01 -1.952230771891e+02 0.0 
0.0 0.0 -8.294878931375e+01 
-8.808069239596e+01 2.162442812010e+01 0.0 
2.162442812010e+01 -2.136827539048e+02 0.0 
0.0 0.0 -9.035870994299e+01 
-8.338842488105e+01 2.197464439094e+01 0.0 
2.197464439094e+01 -2.080631833077e+02 0.0 
0.0 0.0 -8.825924343071e+01 
-7.727470275177e+01 2.367829667877e+01 0.0 
2.367829667877e+01 -1.898273419983e+02 0.0 
0.0 0.0 -8.058121221340e+01 
-7.866820866218e+01 2.185358781415e+01 0.0 
2.185358781415e+01 -2.025357627652e+02 0.0 
0.0 0.0 -8.586444292941e+01 
-7.247655426220e+01 2.354580313421e+01 0.0 
2.354580313421e+01 -1.850539294179e+02 0.0 
0.0 0.0 -7.790163795931e+01 
-7.398093726433e+01 2.107861109566e+01 0.0 
2.107861109566e+01 -1.978484647614e+02 0.0 
0.0 0.0 -8.293018494544e+01 
-6.792080596973e+01 2.245158930569e+01 0.0 
2.245158930569e+01 -1.811927904462e+02 0.0 
0.0 0.0 -7.441255849681e+01 
-6.967636701384e+01 1.931779039018e+01 0.0 
1.931779039018e+01 -1.937570787384e+02 0.0 
0.0 0.0 -7.922239494340e+01 
-7.568216167029e+01 1.821701859965e+01 0.0 
1.821701859965e+01 -2.098135896518e+02 0.0 
0.0 0.0 -8.792880205266e+01 
-7.170983884909e+01 1.597148612520e+01 0.0 
1.597148612520e+01 -2.053173427564e+02 0.0 
0.0 0.0 -8.417806216785e+01 
-6.579422226558e+01 1.668677088852e+01 0.0 
1.668677088852e+01 -1.897706232200e+02 0.0 
0.0 0.0 -7.558439608757e+01 
-6.821142985296e+01 1.287716370033e+01 0.0 
1.287716370033e+01 -2.005430854271e+02 0.0 
0.0 0.0 -8.036450084328e+01 
-7.406463391998e+01 1.260790730829e+01 0.0 
1.260790730829e+01 -2.158814604490e+02 0.0 
0.0 0.0 -8.925149338075e+01 
-7.096841281833e+01 9.210940507658e+00 0.0 
9.210940507658e+00 -2.101719887232e+02 0.0 
0.0 0.0 -8.533974107333e+01 
-7.683132337313e+01 9.380394506299e+00 0.0 
9.380394506299e+00 -2.254542866686e+02 0.0 
0.0 0.0 -9.428632714307e+01 
-7.412291107914e+01 5.847737086702e+00 0.0 
5.847737086702e+00 -2.189531900010e+02 0.0 
0.0 0.0 -9.049669422782e+01 
-6.839391450437e+01 5.216463393734e+00 0.0 
5.216463393734e+00 -2.040073364510e+02 0.0 
0.0 0.0 -8.175663891371e+01 
-7.192143794194e+01 1.916830634010e+00 0.0 
1.916830634010e+00 -2.116991987024e+02 0.0 
0.0 0.0 -8.679260863380e+01 
-7.781687668637e+01 3.116667759971e+00 0.0 
3.116667759971e+00 -2.269539039201e+02 0.0 
0.0 0.0 -9.527026821691e+01 
-7.600171891259e+01 -6.235797776449e-01 0.0 
-6.235797776449e-01 -2.190396992163e+02 0.0 
0.0 0.0 -9.147923921587e+01 
-7.011222697864e+01 -2.225747599863e+00 0.0 
-2.225747599863e+00 -2.036162885803e+02 0.0 
0.0 0.0 -8.318066611169e+01 
-7.445522474243e+01 -4.355490263144e+00 0.0 
-4.355490263144e+00 -2.103997513649e+02 0.0 
0.0 0.0 -8.750521245944e+01 
-8.081038844723e+01 -2.158598051339e+00 0.0 
-2.158598051339e+00 -2.272567488355e+02 0.0 
0.0 0.0 -9.550384965738e+01 
-7.943932570400e+01 -5.434823024260e+00 0.0 
-5.434823024260e+00 -2.178925804969e+02 0.0 
0.0 0.0 -9.120835629270e+01 
-7.292762387884e+01 -7.958087044018e+00 0.0 
-7.958087044018e+00 -2.009468989306e+02 0.0 
0.0 0.0 -8.331657485521e+01 
-7.814433677763e+01 -8.253844539097e+00 0.0 
-8.253844539097e+00 -2.074047815467e+02 0.0 
0.0 0.0 -8.655083094450e+01 
-8.539553697899e+01 -5.149429997813e+00 0.0 
-5.149429997813e+00 -2.253027114290e+02 0.0 
0.0 0.0 -9.474511608408e+01 
-8.407765374120e+01 -7.383182817280e+00 0.0 
-7.383182817280e+00 -2.144100043118e+02 0.0 
0.0 0.0 -8.989526326431e+01 
-7.688616705329e+01 -1.037862710197e+01 0.0 
-1.037862710197e+01 -1.957998489273e+02 0.0 
0.0 0.0 -8.162539876790e+01 
-8.251150889244e+01 -9.067369557021e+00 0.0 
-9.067369557021e+00 -2.028764529818e+02 0.0 
0.0 0.0 -8.480351034254e+01 
-8.974058584268e+01 -6.290440697126e+00 0.0 
-6.290440697126e+00 -2.220198838330e+02 0.0 
0.0 0.0 -9.304451239743e+01 
-8.792124262388e+01 -7.657235154287e+00 0.0 
-7.657235154287e+00 -2.103873092281e+02 0.0 
0.0 0.0 -8.784416967579e+01 
-9.489763407909e+01 -5.259591962766e+00 0.0 
-5.259591962766e+00 -2.297171116994e+02 0.0 
0.0 0.0 -9.580570084553e+01 
-8.052141221154e+01 -1.017348794639e+01 0.0 
-1.017348794639e+01 -1.907141765822e+02 0.0 
0.0 0.0 -7.948503443607e+01 
-8.568014020686e+01 -8.518059721997e+00 0.0 
-8.518059721997e+00 -1.982783943013e+02 0.0 
0.0 0.0 -8.246224086120e+01 
-7.795801881524e+01 -1.063427187409e+01 0.0 
-1.063427187409e+01 -1.781139900256e+02 0.0 
0.0 0.0 -7.395996532631e+01 
-8.293218598374e+01 -8.867670807966e+00 0.0 
-8.867670807966e+00 -1.858833686408e+02 0.0 
0.0 0.0 -7.696407567093e+01 
-8.924150377633e+01 2.041123223866e+01 0.0 
2.041123223866e+01 -2.261904553844e+02 0.0 
0.0 0.0 -9.549670444856e+01 
-7.472569370616e+01 -1.053071832048e+01 0.0 
-1.053071832048e+01 -1.653821836179e+02 0.0 
0.0 0.0 -6.836839640105e+01 
-6.998913630141e+01 -1.251529294304e+01 0.0 
-1.251529294304e+01 -1.578364514243e+02 0.0 
0.0 0.0 -6.545054994132e+01 
-7.956367753972e+01 -8.730863049116e+00 0.0 
-8.730863049116e+00 -1.734171173553e+02 0.0 
0.0 0.0 -7.140085500912e+01 
-8.766686435724e+01 -7.312012756843e+00 0.0 
-7.312012756843e+00 -1.939168194738e+02 0.0 
0.0 0.0 -7.986056849027e+01 
-7.073891263111e+01 -9.954430162963e+00 0.0 
-9.954430162963e+00 -1.526507943065e+02 0.0 
0.0 0.0 -6.271734609012e+01 
-7.549237585589e+01 -8.223078359217e+00 0.0 
-8.223078359217e+00 -1.609517823068e+02 0.0 
0.0 0.0 -6.579282460870e+01 
-6.595879464200e+01 -9.011068586285e+00 0.0 
-9.011068586285e+00 -1.400286012731e+02 0.0 
0.0 0.0 -5.699933796327e+01 
-6.621836023192e+01 2.511251482605e+01 0.0 
2.511251482605e+01 -1.672732845231e+02 0.0 
0.0 0.0 -6.942553035568e+01 
-1.057311329818e+02 1.829189259483e+01 0.0 
1.829189259483e+01 -2.311892804395e+02 0.0 
0.0 0.0 -1.006746749892e+02 
-7.067124307240e+01 -7.426445229254e+00 0.0 
-7.426445229254e+00 -1.485303162247e+02 0.0 
0.0 0.0 -6.014658717018e+01 
-6.035869928497e+01 -7.804696386131e+00 0.0 
-7.804696386131e+00 -1.275423096776e+02 0.0 
0.0 0.0 -5.125663186056e+01 
-5.594490506626e+01 -9.192296790359e+00 0.0 
-9.192296790359e+00 -1.189374065036e+02 0.0 
0.0 0.0 -4.805741314687e+01 
-4.940790636553e+01 -7.556471324389e+00 0.0 
-7.556471324389e+00 -1.065270334954e+02 0.0 
0.0 0.0 -4.224240975169e+01 
-9.582426023886e+01 8.046919828571e+00 0.0 
8.046919828571e+00 -1.886417362811e+02 0.0 
0.0 0.0 -8.493979895599e+01 
-1.028198730026e+02 8.856596560708e+00 0.0 
8.856596560708e+00 -2.087218785590e+02 0.0 
0.0 0.0 -9.306252546848e+01 
-9.869048780006e+01 7.538787247722e+00 0.0 
7.538787247722e+00 -1.979138699227e+02 0.0 
0.0 0.0 -8.858130731684e+01 
-1.059486129223e+02 8.467742197927e+00 0.0 
8.467742197927e+00 -2.185514955379e+02 0.0 
0.0 0.0 -9.695003253807e+01 
-1.020319483297e+02 7.219047889430e+00 0.0 
7.219047889430e+00 -2.083043823145e+02 0.0 
0.0 0.0 -9.270089919326e+01 
-5.387835832253e+01 -6.398134235193e+00 0.0 
-6.398134235193e+00 -1.152217447782e+02 0.0 
0.0 0.0 -4.551718915518e+01 
-1.105876008219e+02 1.356628516022e+01 0.0 
1.356628516022e+01 -2.317248655555e+02 0.0 
0.0 0.0 -1.022937399132e+02 
-1.098011981823e+02 9.752394148062e+00 0.0 
9.752394148062e+00 -2.290094255763e+02 0.0 
0.0 0.0 -1.012431871276e+02 
-8.883667121583e+01 1.800500448966e+01 0.0 
1.800500448966e+01 -1.706410341973e+02 0.0 
0.0 0.0 -7.512219058870e+01 
-7.986311162101e+01 2.409394941882e+01 0.0 
2.409394941882e+01 -1.664972343316e+02 0.0 
0.0 0.0 -7.148698881712e+01 
-8.025646562340e+01 1.224281098085e+01 0.0 
1.224281098085e+01 -2.316810754589e+02 0.0 
0.0 0.0 -9.802004400805e+01 
-8.012465549214e+01 -6.732090123052e+00 0.0 
-6.732090123052e+00 -1.692681199270e+02 0.0 
0.0 0.0 -6.883921454526e+01 
-7.532845941866e+01 -6.046919900776e+00 0.0 
-6.046919900776e+00 -1.570440566399e+02 0.0 
0.0 0.0 -6.329389993981e+01 
-8.452271477804e+01 -5.440772384342e+00 0.0 
-5.440772384342e+00 -1.776529831228e+02 0.0 
0.0 0.0 -7.222856097468e+01 
-9.645588748190e+01 -3.671031569551e+00 0.0 
-3.671031569551e+00 -2.409623327362e+02 0.0 
0.0 0.0 -1.008132385297e+02 
-1.010057716142e+02 -3.053411464827e+00 0.0 
-3.053411464827e+00 -2.487564868903e+02 0.0 
0.0 0.0 -1.032952967337e+02 
-1.021100871648e+02 -1.296726043213e+00 0.0 
-1.296726043213e+00 -2.596477300807e+02 0.0 
0.0 0.0 -1.080036360936e+02 
-1.063149572120e+02 -9.899116620362e-01 0.0 
-9.899116620362e-01 -2.675745421351e+02 0.0 
0.0 0.0 -1.108309768926e+02 
-1.076819899829e+02 7.875307879254e-01 0.0 
7.875307879254e-01 -2.781760285070e+02 0.0 
0.0 0.0 -1.152578703111e+02 
-1.121183517854e+02 8.835982634800e-01 0.0 
8.835982634800e-01 -2.862523284896e+02 0.0 
0.0 0.0 -1.187431845892e+02 
-1.103695525370e+02 -6.497411039144e-01 0.0 
-6.497411039144e-01 -2.755022119356e+02 0.0 
0.0 0.0 -1.142182502049e+02 
-1.165252067377e+02 1.007737398767e+00 0.0 
1.007737398767e+00 -2.943255059211e+02 0.0 
0.0 0.0 -1.226048823443e+02 
-1.143551812629e+02 -3.041265019214e-01 0.0 
-3.041265019214e-01 -2.834650501473e+02 0.0 
0.0 0.0 -1.180308106914e+02 
-1.152305814655e+02 2.327207718436e+00 0.0 
2.327207718436e+00 -2.967169979797e+02 0.0 
0.0 0.0 -1.231137267016e+02 
-1.103321791084e+02 2.451494769955e+00 0.0 
2.451494769955e+00 -2.884037538350e+02 0.0 
0.0 0.0 -1.193814686913e+02 
-1.209053903130e+02 1.121631826180e+00 0.0 
1.121631826180e+00 -3.023939389115e+02 0.0 
0.0 0.0 -1.264279885567e+02 
-1.182313731853e+02 2.168096517662e-02 0.0 
2.168096517662e-02 -2.914516118362e+02 0.0 
0.0 0.0 -1.218002302387e+02 
-1.252784352336e+02 1.194685095676e+00 0.0 
1.194685095676e+00 -3.104606694237e+02 0.0 
0.0 0.0 -1.302183538018e+02 
-1.220274275263e+02 2.989304117034e-01 0.0 
2.989304117034e-01 -2.994886549264e+02 0.0 
0.0 0.0 -1.255761737666e+02 
-1.162981355749e+02 -9.336263305618e-01 0.0 
-9.336263305618e-01 -2.802500403712e+02 0.0 
0.0 0.0 -1.171147208880e+02 
-1.197815845565e+02 -5.041672108050e-01 0.0 
-5.041672108050e-01 -2.882909885444e+02 0.0 
0.0 0.0 -1.208697309222e+02 
-1.143486527495e+02 -1.670415503588e+00 0.0 
-1.670415503588e+00 -2.689398144978e+02 0.0 
0.0 0.0 -1.123780010602e+02 
-8.334802047082e+01 9.547920069239e+00 0.0 
9.547920069239e+00 -2.414198302753e+02 0.0 
0.0 0.0 -1.027638421106e+02 
-8.721456764691e+01 1.197155930775e+01 0.0 
1.197155930775e+01 -2.484043129230e+02 0.0 
0.0 0.0 -1.057165271136e+02 
-9.092024280762e+01 1.006784929081e+01 0.0 
1.006784929081e+01 -2.584458777556e+02 0.0 
0.0 0.0 -1.096425327746e+02 
-9.539112210518e+01 1.220380957551e+01 0.0 
1.220380957551e+01 -2.654566281641e+02 0.0 
0.0 0.0 -1.116529597142e+02 
-1.004857856125e+02 1.090419684353e+01 0.0 
1.090419684353e+01 -2.759898028090e+02 0.0 
0.0 0.0 -1.154612778641e+02 
-1.057103581186e+02 1.270978389132e+01 0.0 
1.270978389132e+01 -2.831794996311e+02 0.0 
0.0 0.0 -1.177629248158e+02 
-1.109651877377e+02 1.173647301437e+01 0.0 
1.173647301437e+01 -2.938557716911e+02 0.0 
0.0 0.0 -1.218846624405e+02 
-1.060345628736e+02 9.923081852022e+00 0.0 
9.923081852022e+00 -2.863666062222e+02 0.0 
0.0 0.0 -1.191898249743e+02 
-1.103701832392e+02 1.557791620670e+01 0.0 
1.557791620670e+01 -2.344474242888e+02 0.0 
0.0 0.0 -1.030452822584e+02 
-6.230195447228e+01 1.321459875382e+01 0.0 
1.321459875382e+01 -1.857000031581e+02 0.0 
0.0 0.0 -7.243777896293e+01 
-5.981823607557e+01 1.745375013552e+01 0.0 
1.745375013552e+01 -1.746231457152e+02 0.0 
0.0 0.0 -6.785503128060e+01 
-5.638180475146e+01 1.349984964435e+01 0.0 
1.349984964435e+01 -1.714670416818e+02 0.0 
0.0 0.0 -6.517464959144e+01 
-5.406891062467e+01 1.822962633482e+01 0.0 
1.822962633482e+01 -1.599631835950e+02 0.0 
0.0 0.0 -6.056688876323e+01 
-5.065145705612e+01 1.400588194609e+01 0.0 
1.400588194609e+01 -1.577417758068e+02 0.0 
0.0 0.0 -5.852784691248e+01 
-4.875968629222e+01 1.930936044801e+01 0.0 
1.930936044801e+01 -1.456226797250e+02 0.0 
0.0 0.0 -5.390910731559e+01 
-4.536401167171e+01 1.484635633446e+01 0.0 
1.484635633446e+01 -1.445908035023e+02 0.0 
0.0 0.0 -5.291718992909e+01 
-4.775153643627e+01 8.647222277605e+00 0.0 
8.647222277605e+00 -1.548855140850e+02 0.0 
0.0 0.0 -5.705638634501e+01 
-4.252744975211e+01 8.828092198784e+00 0.0 
8.828092198784e+00 -1.429862416965e+02 0.0 
0.0 0.0 -5.270933955999e+01 
-4.560031632995e+01 2.195786429189e+00 0.0 
2.195786429189e+00 -1.505481305114e+02 0.0 
0.0 0.0 -5.566565416668e+01 
-4.023249373073e+01 1.509403746515e+00 0.0 
1.509403746515e+00 -1.395307335908e+02 0.0 
0.0 0.0 -5.221566278405e+01 
-4.413699478537e+01 -4.842222341918e+00 0.0 
-4.842222341918e+00 -1.434421556081e+02 0.0 
0.0 0.0 -5.322130676308e+01 
-9.628721415620e+01 2.082035252690e+01 0.0 
2.082035252690e+01 -2.249585469600e+02 0.0 
0.0 0.0 -9.531063225643e+01 
-1.005859093965e+02 1.396059641873e+01 0.0 
1.396059641873e+01 -2.723321701366e+02 0.0 
0.0 0.0 -1.135646647425e+02 
-1.111833127441e+02 1.415662046908e+01 0.0 
1.415662046908e+01 -2.903494570380e+02 0.0 
0.0 0.0 -1.205835401960e+02 
-1.063395822681e+02 1.520300921110e+01 0.0 
1.520300921110e+01 -2.791409700272e+02 0.0 
0.0 0.0 -1.160395710827e+02 
-4.549279258760e+01 -8.474158978879e+00 0.0 
-8.474158978879e+00 -9.788942306976e+01 0.0 
0.0 0.0 -3.904081679422e+01 
-1.258092721793e+02 4.916639459039e-01 0.0 
4.916639459039e-01 -3.075912285480e+02 0.0 
0.0 0.0 -1.293744245187e+02 
-1.191230575096e+02 3.810923764631e+00 0.0 
3.810923764631e+00 -3.068772009334e+02 0.0 
0.0 0.0 -1.274000775329e+02 
-1.138949314616e+02 4.160439565547e+00 0.0 
4.160439565547e+00 -2.981778493080e+02 0.0 
0.0 0.0 -1.233185991859e+02 
-1.162436237678e+02 1.085248245010e+01 0.0 
1.085248245010e+01 -3.043289782788e+02 0.0 
0.0 0.0 -1.260472462072e+02 
-4.202842225741e+01 -5.732377555055e+00 0.0 
-5.732377555055e+00 -9.445375955641e+01 0.0 
0.0 0.0 -3.667749509646e+01 
-4.401760834226e+01 2.080338422622e+01 0.0 
2.080338422622e+01 -1.315718248030e+02 0.0 
0.0 0.0 -4.811143819790e+01 
-4.763082077135e+01 2.406533542020e+01 0.0 
2.406533542020e+01 -1.314506633084e+02 0.0 
0.0 0.0 -4.907756372766e+01 
-1.090824936925e+02 8.114616292611e+00 0.0 
8.114616292611e+00 -2.285483034266e+02 0.0 
0.0 0.0 -1.008892391357e+02 
-1.052156872006e+02 6.923390488078e+00 0.0 
6.923390488078e+00 -2.184228895804e+02 0.0 
0.0 0.0 -9.669157303431e+01 
-1.234332947095e+02 5.359142727590e+00 0.0 
5.359142727590e+00 -3.166702707204e+02 0.0 
0.0 0.0 -1.316310696290e+02 
-4.639028804941e+01 -4.799885531598e+00 0.0 
-4.799885531598e+00 -1.032166786681e+02 0.0 
0.0 0.0 -4.029540127885e+01 
-1.247965557005e+02 2.193318449161e+00 0.0 
2.193318449161e+00 -3.131214635147e+02 0.0 
0.0 0.0 -1.309684177038e+02 
-3.762106845171e+01 9.608893620176e+00 0.0 
9.608893620176e+00 -1.323429438161e+02 0.0 
0.0 0.0 -4.966026046042e+01 
-1.230950572752e+02 -1.734699334239e-01 0.0 
-1.734699334239e-01 -2.964025004932e+02 0.0 
0.0 0.0 -1.246192797876e+02 
-1.296701699489e+02 5.945727319123e-01 0.0 
5.945727319123e-01 -3.157122531850e+02 0.0 
0.0 0.0 -1.331184399333e+02 
-1.089529549745e+02 -1.949946360450e+00 0.0 
-1.949946360450e+00 -2.644318351946e+02 0.0 
0.0 0.0 -1.095536221202e+02 
-1.166211420065e+02 1.531160613222e+01 0.0 
1.531160613222e+01 -2.975403058578e+02 0.0 
0.0 0.0 -1.238700387885e+02 
-1.119050748655e+02 1.615489375896e+01 0.0 
1.615489375896e+01 -2.860439790141e+02 0.0 
0.0 0.0 -1.190975421206e+02 
-4.940353847116e+01 -3.238402376992e+00 0.0 
-3.238402376992e+00 -1.558289328282e+02 0.0 
0.0 0.0 -5.810559253803e+01 
-4.852050827668e+01 -9.401964921464e+00 0.0 
-9.401964921464e+00 -1.459941315447e+02 0.0 
0.0 0.0 -5.431261056560e+01 
-4.358518563739e+01 -1.167695598509e+01 0.0 
-1.167695598509e+01 -1.325789519898e+02 0.0 
0.0 0.0 -4.870841243937e+01 
-4.870304666171e+01 -1.462536723502e+01 0.0 
-1.462536723502e+01 -1.336597776833e+02 0.0 
0.0 0.0 -4.985652026106e+01 
-5.306787057217e+01 -1.205114182017e+01 0.0 
-1.205114182017e+01 -1.487891045277e+02 0.0 
0.0 0.0 -5.650128615318e+01 
-5.279059600597e+01 -1.570498230197e+01 0.0 
-1.570498230197e+01 -1.355335484456e+02 0.0 
0.0 0.0 -5.184476660647e+01 
-4.908339461979e+01 -1.819330334659e+01 0.0 
-1.819330334659e+01 -1.186698820515e+02 0.0 
0.0 0.0 -4.467432205720e+01 
-5.238546529499e+01 -1.776555464468e+01 0.0 
-1.776555464468e+01 -1.198526640039e+02 0.0 
0.0 0.0 -4.610184297565e+01 
-5.633390071166e+01 -1.602358780474e+01 0.0 
-1.602358780474e+01 -1.380436933227e+02 0.0 
0.0 0.0 -5.430914912862e+01 
-5.503709466775e+01 -1.686352860366e+01 0.0 
-1.686352860366e+01 -1.225919461643e+02 0.0 
0.0 0.0 -4.880310143839e+01 
-5.138033317651e+01 -1.745026466349e+01 0.0 
-1.745026466349e+01 -1.026081362604e+02 0.0 
0.0 0.0 -4.070925002106e+01 
-5.249824805836e+01 -1.580269144979e+01 0.0 
-1.580269144979e+01 -1.061535953251e+02 0.0 
0.0 0.0 -4.316114035372e+01 
-1.340596245295e+02 1.191131171490e+00 0.0 
1.191131171490e+00 -3.266848339246e+02 0.0 
0.0 0.0 -1.378233375362e+02 
-3.494046109061e+01 1.070223365049e+00 0.0 
1.070223365049e+00 -1.300887410637e+02 0.0 
0.0 0.0 -4.989617560789e+01 
-9.102540833097e+01 1.391435008142e+01 0.0 
1.391435008142e+01 -1.736836664359e+02 0.0 
0.0 0.0 -7.822951461043e+01 
-1.286520061559e+02 4.899173577565e+00 0.0 
4.899173577565e+00 -3.253779550210e+02 0.0 
0.0 0.0 -1.358089883531e+02 
-1.212006684892e+02 1.242762314457e+01 0.0 
1.242762314457e+01 -3.117515484720e+02 0.0 
0.0 0.0 -1.295187749022e+02 
-1.122127164442e+02 7.771208110542e+00 0.0 
7.771208110542e+00 -2.386972421296e+02 0.0 
0.0 0.0 -1.048729875721e+02 
-1.084082492179e+02 6.630157223036e+00 0.0 
6.630157223036e+00 -2.287290955829e+02 0.0 
0.0 0.0 -1.007412034402e+02 
-1.012136160279e+02 5.759202620484e+00 0.0 
5.759202620484e+00 -2.084457881455e+02 0.0 
0.0 0.0 -9.249782125201e+01 
-1.045203410360e+02 5.538465044518e+00 0.0 
5.538465044518e+00 -2.189776008358e+02 0.0 
0.0 0.0 -9.664938256156e+01 
-1.116020788960e+02 6.345958677748e+00 0.0 
6.345958677748e+00 -2.392368003927e+02 0.0 
0.0 0.0 -1.048516637866e+02 
-1.078248376242e+02 5.304507355235e+00 0.0 
5.304507355235e+00 -2.295657592511e+02 0.0 
0.0 0.0 -1.008171790626e+02 
-1.005723290930e+02 4.554175634803e+00 0.0 
4.554175634803e+00 -2.093648181236e+02 0.0 
0.0 0.0 -9.258114416498e+01 
-1.040108475828e+02 4.358705210703e+00 0.0 
4.358705210703e+00 -2.199953174527e+02 0.0 
0.0 0.0 -9.680184951064e+01 
-9.662074864085e+01 3.668339577062e+00 0.0 
3.668339577062e+00 -1.998440692052e+02 0.0 
0.0 0.0 -8.853944535382e+01 
-1.001682071335e+02 3.506681117967e+00 0.0 
3.506681117967e+00 -2.105525391964e+02 0.0 
0.0 0.0 -9.281622389897e+01 
-1.074607074658e+02 4.136227888558e+00 0.0 
4.136227888558e+00 -2.306924938818e+02 0.0 
0.0 0.0 -1.010459604043e+02 
-1.037313245406e+02 3.336115795276e+00 0.0 
3.336115795276e+00 -2.213495748860e+02 0.0 
0.0 0.0 -9.712426982797e+01 
-9.629108719564e+01 2.749410307091e+00 0.0 
2.749410307091e+00 -2.012761357659e+02 0.0 
0.0 0.0 -8.887016688847e+01 
-9.997445563670e+01 2.628631205143e+00 0.0 
2.628631205143e+00 -2.120877641378e+02 0.0 
0.0 0.0 -9.321866593236e+01 
-9.240002650198e+01 2.115720940903e+00 0.0 
2.115720940903e+00 -1.920511256107e+02 0.0 
0.0 0.0 -8.493534563381e+01 
-9.622121272816e+01 2.030775084487e+00 0.0 
2.030775084487e+00 -2.028086044364e+02 0.0 
0.0 0.0 -8.930894514936e+01 
-1.036848560734e+02 2.416525174949e+00 0.0 
2.416525174949e+00 -2.229610775091e+02 0.0 
0.0 0.0 -9.759378007477e+01 
-3.341605726882e+01 -3.851815434745e+00 0.0 
-3.851815434745e+00 -8.314445798619e+01 0.0 
0.0 0.0 -3.188306148178e+01 
-1.114480700784e+02 9.060038539277e+00 0.0 
9.060038539277e+00 -2.965207714002e+02 0.0 
0.0 0.0 -1.227655891748e+02 
-1.216222554361e+02 1.000820950133e+01 0.0 
1.000820950133e+01 -3.146530623015e+02 0.0 
0.0 0.0 -1.304825953213e+02 
-8.001539617238e+01 -4.781219212691e+00 0.0 
-4.781219212691e+00 -1.661134072992e+02 0.0 
0.0 0.0 -6.742068009955e+01 
-8.868299937525e+01 -4.281341729639e+00 0.0 
-4.281341729639e+00 -1.858031491031e+02 0.0 
0.0 0.0 -7.626990502405e+01 
-9.261243610900e+01 -4.755267291461e+00 0.0 
-4.755267291461e+00 -1.979545690568e+02 0.0 
0.0 0.0 -8.119165493396e+01 
-9.651559640496e+01 -3.713257932305e+00 0.0 
-3.713257932305e+00 -2.063750204746e+02 0.0 
0.0 0.0 -8.544930002796e+01 
-1.000025138117e+02 1.831122929315e+00 0.0 
1.831122929315e+00 -2.135956776847e+02 0.0 
0.0 0.0 -9.367945744891e+01 
-1.073239108835e+02 2.133204571084e+00 0.0 
2.133204571084e+00 -2.338660726699e+02 0.0 
0.0 0.0 -1.019569950660e+02 
-4.381992441348e+01 2.593080398203e+01 0.0 
2.593080398203e+01 -1.163929747277e+02 0.0 
0.0 0.0 -4.307713964385e+01 
-4.707212243542e+01 2.788211251625e+01 0.0 
2.788211251625e+01 -1.154389170158e+02 0.0 
0.0 0.0 -4.413862373727e+01 
-1.159260227639e+02 8.966902627086e+00 0.0 
8.966902627086e+00 -2.488643835691e+02 0.0 
0.0 0.0 -1.090371218999e+02 
-1.263226010088e+02 7.554414544175e-02 0.0 
7.554414544175e-02 -3.046390781071e+02 0.0 
0.0 0.0 -1.283778975145e+02 
-1.208374918575e+02 -6.643110692708e-01 0.0 
-6.643110692708e-01 -2.851819518463e+02 0.0 
0.0 0.0 -1.198806917295e+02 
-7.504381292667e+01 2.561623909719e+01 0.0 
2.561623909719e+01 -1.618955125227e+02 0.0 
0.0 0.0 -6.948212534953e+01 
-7.346896339208e+01 2.530932473538e+01 0.0 
2.530932473538e+01 -1.462153551641e+02 0.0 
0.0 0.0 -6.338157730500e+01 
-6.851966548313e+01 2.706562910859e+01 0.0 
2.706562910859e+01 -1.420550358208e+02 0.0 
0.0 0.0 -6.131186987103e+01 
-6.658924875967e+01 2.632078259320e+01 0.0 
2.632078259320e+01 -1.251199941617e+02 0.0 
0.0 0.0 -5.487445302418e+01 
-7.136207038760e+01 2.399870727547e+01 0.0 
2.399870727547e+01 -1.302051090720e+02 0.0 
0.0 0.0 -5.704273828648e+01 
-6.173066548433e+01 2.837763506170e+01 0.0 
2.837763506170e+01 -1.214381322092e+02 0.0 
0.0 0.0 -5.294090856568e+01 
-1.052841776762e+02 2.652102807831e+00 0.0 
2.652102807831e+00 -2.798025905974e+02 0.0 
0.0 0.0 -1.161891386133e+02 
-1.109261246123e+02 3.893927244206e+00 0.0 
3.893927244206e+00 -2.415122051479e+02 0.0 
0.0 0.0 -1.053314989281e+02 
-5.217362226435e+01 -1.045920324576e+01 0.0 
-1.045920324576e+01 -1.104104662464e+02 0.0 
0.0 0.0 -4.491784480887e+01 
-4.268139785419e+01 -9.130752017290e+00 0.0 
-9.130752017290e+00 -8.938178240614e+01 0.0 
0.0 0.0 -3.598907708970e+01 
-1.336520908778e+02 6.214563269968e-01 0.0 
6.214563269968e-01 -3.239494943970e+02 0.0 
0.0 0.0 -1.368612380563e+02 
-1.015372891379e+02 7.845127057541e+00 0.0 
7.845127057541e+00 -2.786151479723e+02 0.0 
0.0 0.0 -1.166313127759e+02 
-1.002280296061e+02 2.026555352930e+01 0.0 
2.026555352930e+01 -2.308910958394e+02 0.0 
0.0 0.0 -9.861504615857e+01 
-1.025796713463e+02 1.995041110275e+01 0.0 
1.995041110275e+01 -2.438450153985e+02 0.0 
0.0 0.0 -1.034023014253e+02 
-1.071787401455e+02 1.956782856880e+01 0.0 
1.956782856880e+01 -2.500828457157e+02 0.0 
0.0 0.0 -1.067784757583e+02 
-1.102984161154e+02 1.929942620059e+01 0.0 
1.929942620059e+01 -2.627533050339e+02 0.0 
0.0 0.0 -1.115155163448e+02 
-1.150962555631e+02 1.921738272139e+01 0.0 
1.921738272139e+01 -2.693434264253e+02 0.0 
0.0 0.0 -1.149319045965e+02 
-1.185170492011e+02 1.904905329726e+01 0.0 
1.904905329726e+01 -2.817131740444e+02 0.0 
0.0 0.0 -1.196690669737e+02 
-1.136861814308e+02 1.883760275159e+01 0.0 
1.883760275159e+01 -2.751341209712e+02 0.0 
0.0 0.0 -1.162460907206e+02 
-1.218988806202e+02 1.630997131376e+01 0.0 
1.630997131376e+01 -3.047139610801e+02 0.0 
0.0 0.0 -1.275838525101e+02 
-1.222427708056e+02 1.876702730150e+01 0.0 
1.876702730150e+01 -2.938717996690e+02 0.0 
0.0 0.0 -1.244343711424e+02 
-9.244807215806e+01 1.433526912208e+00 0.0 
1.433526912208e+00 -1.932821196815e+02 0.0 
0.0 0.0 -8.531905755186e+01 
-9.628220756262e+01 1.545404158069e+01 0.0 
1.545404158069e+01 -2.611246854761e+02 0.0 
0.0 0.0 -1.093668436612e+02 
-5.916574106417e+01 -1.592212474022e+01 0.0 
-1.592212474022e+01 -1.413446920033e+02 0.0 
0.0 0.0 -5.734158024857e+01 
-2.951869172235e+01 -4.288443021922e+00 0.0 
-4.288443021922e+00 -7.409923497959e+01 0.0 
0.0 0.0 -2.804897501891e+01 
-4.672909330215e+01 -1.422751691806e+01 0.0 
-1.422751691806e+01 -8.417957084602e+01 0.0 
0.0 0.0 -3.409889014442e+01 
-3.789786433005e+01 -3.293526066238e+00 0.0 
-3.293526066238e+00 -9.101543809472e+01 0.0 
0.0 0.0 -3.538988110570e+01 
-5.143129972966e+01 -3.912985733649e+00 0.0 
-3.912985733649e+00 -1.117740337460e+02 0.0 
0.0 0.0 -4.427006476157e+01 
-1.333542531056e+02 6.395969148565e+00 0.0 
6.395969148565e+00 -3.351133866606e+02 0.0 
0.0 0.0 -1.401402919299e+02 
-1.231075315585e+02 1.916238229443e+01 0.0 
1.916238229443e+01 -2.885236202616e+02 0.0 
0.0 0.0 -1.230893455460e+02 
-1.195378577787e+02 1.903459517071e+01 0.0 
1.903459517071e+01 -2.760215175455e+02 0.0 
0.0 0.0 -1.182678125973e+02 
-6.411090547986e+01 2.436850609295e+01 0.0 
2.436850609295e+01 -1.083995386396e+02 0.0 
0.0 0.0 -4.830565444327e+01 
-6.863891839384e+01 2.165898560332e+01 0.0 
2.165898560332e+01 -1.143810532723e+02 0.0 
0.0 0.0 -5.068485855005e+01 
-1.267591590260e+02 1.569624410109e+01 0.0 
1.569624410109e+01 -3.160287758627e+02 0.0 
0.0 0.0 -1.324363804666e+02 
-9.479755015788e+01 6.260658594553e+00 0.0 
6.260658594553e+00 -1.880382538811e+02 0.0 
0.0 0.0 -8.445074121170e+01 
-9.311261400971e+01 3.785223432732e+00 0.0 
3.785223432732e+00 -1.892695042461e+02 0.0 
0.0 0.0 -8.431463547674e+01 
-8.893955104174e+01 2.949669636931e+00 0.0 
2.949669636931e+00 -1.797178370224e+02 0.0 
0.0 0.0 -8.019721641926e+01 
-2.361322820703e+01 -2.088836036162e+00 0.0 
-2.088836036162e+00 -6.892364363492e+01 0.0 
0.0 0.0 -2.601184793240e+01 
-4.684109304815e+01 -1.667209612147e+01 0.0 
-1.667209612147e+01 -8.111613769716e+01 0.0 
0.0 0.0 -3.226771972960e+01 
-1.148272739223e+02 6.027740247517e+00 0.0 
6.027740247517e+00 -2.498393988684e+02 0.0 
0.0 0.0 -1.090000018372e+02 
-5.112303701300e+01 2.634810875699e+01 0.0 
2.634810875699e+01 -1.317136547458e+02 0.0 
0.0 0.0 -5.094337253478e+01 
-5.031370931745e+01 2.905745845703e+01 0.0 
2.905745845703e+01 -1.155891523051e+02 0.0 
0.0 0.0 -4.602490543927e+01 
-3.320914298936e+01 1.173332983926e+01 0.0 
1.173332983926e+01 -1.230544308086e+02 0.0 
0.0 0.0 -4.803472171322e+01 
-3.020204625391e+01 9.566340622750e-01 0.0 
9.566340622750e-01 -1.233324311409e+02 0.0 
0.0 0.0 -4.834288810899e+01 
-1.037689640059e+02 1.480655167099e+00 0.0 
1.480655167099e+00 -2.242180192705e+02 0.0 
0.0 0.0 -9.799609498293e+01 
-1.110055562819e+02 1.776980703796e+00 0.0 
1.776980703796e+00 -2.443651559097e+02 0.0 
0.0 0.0 -1.062112136575e+02 
-9.990170144447e+01 -3.933720578008e+00 0.0 
-3.933720578008e+00 -2.181601739813e+02 0.0 
0.0 0.0 -9.028558463117e+01 
-1.035007181832e+02 -2.998515013358e+00 0.0 
-2.998515013358e+00 -2.264657515389e+02 0.0 
0.0 0.0 -9.429944287920e+01 
-1.280388518159e+02 6.983736943746e+00 0.0 
6.983736943746e+00 -3.260858896371e+02 0.0 
0.0 0.0 -1.358374224359e+02 
-4.750632493548e+01 -1.302134759077e+01 0.0 
-1.302134759077e+01 -8.994971411595e+01 0.0 
0.0 0.0 -3.692897225545e+01 
-1.145693461048e+02 2.487245528680e+00 0.0 
2.487245528680e+00 -2.540923775152e+02 0.0 
0.0 0.0 -1.101985170860e+02 
-1.070125410045e+02 7.079612007007e+00 0.0 
7.079612007007e+00 -2.883857332893e+02 0.0 
0.0 0.0 -1.197671855776e+02 
-9.770932889787e+01 5.655024677578e+00 0.0 
5.655024677578e+00 -2.705178454802e+02 0.0 
0.0 0.0 -1.139736531933e+02 
-9.254249929539e+01 -3.284071857761e+00 0.0 
-3.284071857761e+00 -1.941122208858e+02 0.0 
0.0 0.0 -8.047629116456e+01 
-4.443407564677e+01 2.974259433307e+01 0.0 
2.974259433307e+01 -9.898026863470e+01 0.0 
0.0 0.0 -3.828157144221e+01 
-4.177988825454e+01 2.843384334919e+01 0.0 
2.843384334919e+01 -1.012819654182e+02 0.0 
0.0 0.0 -3.846115218319e+01 
-6.072186971756e+01 -1.439703230745e+01 0.0 
-1.439703230745e+01 -1.556018996367e+02 0.0 
0.0 0.0 -6.277681625742e+01 
-5.360463198447e+01 -1.479986502489e+01 0.0 
-1.479986502489e+01 -1.110153302736e+02 0.0 
0.0 0.0 -4.579563628105e+01 
-4.314710895418e+01 -2.570155781969e+00 0.0 
-2.570155781969e+00 -9.958432083530e+01 0.0 
0.0 0.0 -3.945048963122e+01 
-1.382384108892e+02 7.933698503841e+00 0.0 
7.933698503841e+00 -3.444104156262e+02 0.0 
0.0 0.0 -1.443946479546e+02 
-1.184274357978e+02 7.074713347171e+00 0.0 
7.074713347171e+00 -2.594602548549e+02 0.0 
0.0 0.0 -1.129663071958e+02 
-1.174574333114e+02 1.832348685548e+01 0.0 
1.832348685548e+01 -2.871806242361e+02 0.0 
0.0 0.0 -1.209914172643e+02 
-1.085707047244e+02 1.852843087191e+01 0.0 
1.852843087191e+01 -2.685415312099e+02 0.0 
0.0 0.0 -1.127336707803e+02 
-1.265586974321e+02 1.841436341612e+01 0.0 
1.841436341612e+01 -3.059450727840e+02 0.0 
0.0 0.0 -1.293511310648e+02 
-4.057954668469e+01 -1.023195639876e+01 0.0 
-1.023195639876e+01 -6.844874605338e+01 0.0 
0.0 0.0 -2.807100154247e+01 
-1.386859737360e+02 5.859213425657e+00 0.0 
5.859213425657e+00 -3.441189528314e+02 0.0 
0.0 0.0 -1.444414779702e+02 
-1.296095962950e+02 2.154572186422e-01 0.0 
2.154572186422e-01 -3.130342364385e+02 0.0 
0.0 0.0 -1.321744083033e+02 
-1.269710893286e+02 1.912162287542e+01 0.0 
1.912162287542e+01 -2.946287124080e+02 0.0 
0.0 0.0 -1.260799405210e+02 
-1.237033166232e+02 1.879096968205e+01 0.0 
1.879096968205e+01 -2.830135876181e+02 0.0 
0.0 0.0 -1.216150712724e+02 
-5.464834966097e+01 2.780828094234e+01 0.0 
2.780828094234e+01 -1.326747444842e+02 0.0 
0.0 0.0 -5.332314904211e+01 
-5.356871735649e+01 2.966794335393e+01 0.0 
2.966794335393e+01 -1.166462742502e+02 0.0 
0.0 0.0 -4.848825312396e+01 
-4.961415321906e+01 3.044866609137e+01 0.0 
3.044866609137e+01 -9.818092743221e+01 0.0 
0.0 0.0 -4.098822024429e+01 
-5.214535127511e+01 3.010914672388e+01 0.0 
3.010914672388e+01 -9.912675284113e+01 0.0 
0.0 0.0 -4.272515810862e+01 
-8.994590782306e+01 1.128860577660e+01 0.0 
1.128860577660e+01 -1.708138565105e+02 0.0 
0.0 0.0 -7.759025596811e+01 
-5.862393883666e+01 2.851504800304e+01 0.0 
2.851504800304e+01 -1.346664238847e+02 0.0 
0.0 0.0 -5.627494466831e+01 
-8.860263082401e+01 1.487251098740e+01 0.0 
1.487251098740e+01 -1.654183763880e+02 0.0 
0.0 0.0 -7.423950564567e+01 
-8.515184125953e+01 1.279132846428e+01 0.0 
1.279132846428e+01 -1.533208837874e+02 0.0 
0.0 0.0 -6.953527173583e+01 
-8.259011236257e+01 1.381939464738e+01 0.0 
1.381939464738e+01 -1.449706928323e+02 0.0 
0.0 0.0 -6.541560439554e+01 
-7.573299313287e+01 2.160850638156e+01 0.0 
2.160850638156e+01 -1.360235728554e+02 0.0 
0.0 0.0 -5.922817989957e+01 
-7.278454756005e+01 1.908702274864e+01 0.0 
1.908702274864e+01 -1.212621389285e+02 0.0 
0.0 0.0 -5.324542867370e+01 
-5.775782808966e+01 2.148395168923e+01 0.0 
2.148395168923e+01 -1.620026728509e+02 0.0 
0.0 0.0 -6.315825750049e+01 
-8.429333940762e+01 1.440754080745e+01 0.0 
1.440754080745e+01 -2.377897864470e+02 0.0 
0.0 0.0 -1.011319367595e+02 
-9.609473023229e+01 -4.920916273655e+00 0.0 
-4.920916273655e+00 -2.100287194725e+02 0.0 
0.0 0.0 -8.621778022864e+01 
-1.108965363556e+02 -2.284468164226e+00 0.0 
-2.284468164226e+00 -2.609681779329e+02 0.0 
0.0 0.0 -1.086098639612e+02 
-9.756530315698e+01 -1.619103750593e+00 0.0 
-1.619103750593e+00 -2.516341844181e+02 0.0 
0.0 0.0 -1.055328994235e+02 
-1.144554694679e+02 4.742556342242e+00 0.0 
4.742556342242e+00 -2.507917091547e+02 0.0 
0.0 0.0 -1.091741535868e+02 
-1.178616428204e+02 4.427824695424e+00 0.0 
4.427824695424e+00 -2.617454417214e+02 0.0 
0.0 0.0 -1.134821253626e+02 
-8.862429208791e+01 2.163094726770e+00 0.0 
2.163094726770e+00 -1.812586639293e+02 0.0 
0.0 0.0 -8.056488680518e+01 
-8.472641459313e+01 1.618065376094e+00 0.0 
1.618065376094e+00 -1.720068739537e+02 0.0 
0.0 0.0 -7.661998656405e+01 
-3.507247361608e+01 -6.626209157694e+00 0.0 
-6.626209157694e+00 -7.697039550312e+01 0.0 
0.0 0.0 -3.016949900185e+01 
-3.334268574559e+01 -6.615024587372e+00 0.0 
-6.615024587372e+00 -6.856232081661e+01 0.0 
0.0 0.0 -2.721665333131e+01 
-9.944370543258e+01 -4.389292726679e+00 0.0 
-4.389292726679e+00 -2.374454840500e+02 0.0 
0.0 0.0 -9.835269421965e+01 
-1.337519174705e+02 4.485459992443e+00 0.0 
4.485459992443e+00 -3.338733763644e+02 0.0 
0.0 0.0 -1.398875881505e+02 
-1.188332656983e+02 8.540157173187e+00 0.0 
8.540157173187e+00 -2.587914270038e+02 0.0 
0.0 0.0 -1.128874078106e+02 
-1.224080715451e+02 9.784719156957e+00 0.0 
9.784719156957e+00 -2.690304519194e+02 0.0 
0.0 0.0 -1.170315570393e+02 
-1.195337207908e+02 1.022094516139e+01 0.0 
1.022094516139e+01 -2.591023235092e+02 0.0 
0.0 0.0 -1.131908132900e+02 
-1.327851815389e+02 8.618498769233e+00 0.0 
8.618498769233e+00 -3.348784988334e+02 0.0 
0.0 0.0 -1.398991041117e+02 
-5.930391621864e+01 8.855124902317e+00 0.0 
8.855124902317e+00 -1.812761414358e+02 0.0 
0.0 0.0 -6.967302712126e+01 
-8.728448856925e+01 7.563479443763e+00 0.0 
7.563479443763e+00 -2.510113690688e+02 0.0 
0.0 0.0 -1.069785000191e+02 
-3.429866971184e+01 -9.283986480351e+00 0.0 
-9.283986480351e+00 -1.229731326152e+02 0.0 
0.0 0.0 -4.809594981015e+01 
-9.379806265145e+01 2.034330021034e+01 0.0 
2.034330021034e+01 -2.320929353208e+02 0.0 
0.0 0.0 -9.775552972373e+01 
-2.498402223646e+01 -3.793864942192e+00 0.0 
-3.793864942192e+00 -5.658582973085e+01 0.0 
0.0 0.0 -2.173388568678e+01 
-1.097578785673e+02 1.741555129526e+01 0.0 
1.741555129526e+01 -2.385163275786e+02 0.0 
0.0 0.0 -1.040822618438e+02 
-1.379425209417e+02 5.577057063907e-01 0.0 
5.577057063907e-01 -3.323707586807e+02 0.0 
0.0 0.0 -1.406939838867e+02 
-1.427482527118e+02 9.667392686226e-01 0.0 
9.667392686226e-01 -3.430575962145e+02 0.0 
0.0 0.0 -1.453417546779e+02 
-1.317005262424e+02 1.676625852059e+01 0.0 
1.676625852059e+01 -3.231473326846e+02 0.0 
0.0 0.0 -1.360543576781e+02 
-7.963679077449e+01 7.987022319527e+00 0.0 
7.987022319527e+00 -1.405275118859e+02 0.0 
0.0 0.0 -6.491550069385e+01 
-9.551906434359e+01 1.910101324884e+01 0.0 
1.910101324884e+01 -2.441141213939e+02 0.0 
0.0 0.0 -1.024738781509e+02 
-9.077881140452e+01 1.886059122231e+01 0.0 
1.886059122231e+01 -2.379613906705e+02 0.0 
0.0 0.0 -1.003597454943e+02 
-7.863698132543e+01 1.142934699598e+01 0.0 
1.142934699598e+01 -1.330986693144e+02 0.0 
0.0 0.0 -6.075525383049e+01 
-7.576766274087e+01 1.251009006115e+01 0.0 
1.251009006115e+01 -1.245119290297e+02 0.0 
0.0 0.0 -5.643122310803e+01 
-7.971838049258e+01 1.512036164226e+01 0.0 
1.512036164226e+01 -1.368168993202e+02 0.0 
0.0 0.0 -6.115256272506e+01 
-7.267019331312e+01 1.399244630484e+01 0.0 
1.399244630484e+01 -1.160836291421e+02 0.0 
0.0 0.0 -5.191396445096e+01 
-6.395381508800e+01 -1.482457510202e+01 0.0 
-1.482457510202e+01 -1.596630014072e+02 0.0 
0.0 0.0 -6.561590652202e+01 
-6.200634265351e+01 -1.567048057414e+01 0.0 
-1.567048057414e+01 -1.456756248686e+02 0.0 
0.0 0.0 -6.003443410749e+01 
-1.318066883767e+02 1.948704367061e+01 0.0 
1.948704367061e+01 -3.090254664052e+02 0.0 
0.0 0.0 -1.318496464346e+02 
-1.308415620958e+02 1.896277136613e+01 0.0 
1.896277136613e+01 -3.124315535037e+02 0.0 
0.0 0.0 -1.325819346799e+02 
-1.309953255392e+02 1.921538603299e+01 0.0 
1.921538603299e+01 -3.020364207425e+02 0.0 
0.0 0.0 -1.295095238845e+02 
-1.279257692578e+02 1.859154646082e+01 0.0 
1.859154646082e+01 -2.908243196863e+02 0.0 
0.0 0.0 -1.252250266832e+02 
-1.368537980100e+02 1.629595207269e+01 0.0 
1.629595207269e+01 -3.344149439971e+02 0.0 
0.0 0.0 -1.409806226021e+02 
-1.316778027446e+02 1.509659887660e+01 0.0 
1.509659887660e+01 -3.269187673196e+02 0.0 
0.0 0.0 -1.371789710192e+02 
-5.622434884299e+01 -2.934597771050e+00 0.0 
-2.934597771050e+00 -1.196605311305e+02 0.0 
0.0 0.0 -4.818417027562e+01 
-6.519736773604e+01 1.837317037644e+01 0.0 
1.837317037644e+01 -9.950414855481e+01 0.0 
0.0 0.0 -4.452863184085e+01 
-1.216647493502e+02 6.702492780598e+00 0.0 
6.702492780598e+00 -2.700432026178e+02 0.0 
0.0 0.0 -1.171123855904e+02 
-8.124075413846e+01 1.059200342133e+01 0.0 
1.059200342133e+01 -1.417763719655e+02 0.0 
0.0 0.0 -6.494054763249e+01 
-1.436524530332e+02 5.323865137931e+00 0.0 
5.323865137931e+00 -3.522004972622e+02 0.0 
0.0 0.0 -1.483558850886e+02 
-1.388098903172e+02 4.124392664305e+00 0.0 
4.124392664305e+00 -3.422960781031e+02 0.0 
0.0 0.0 -1.439317905261e+02 
-3.311309068613e+01 -1.111078790638e+01 0.0 
-1.111078790638e+01 -1.186315008005e+02 0.0 
0.0 0.0 -4.763607378768e+01 
-3.690992647585e+01 -2.003554430077e+01 0.0 
-2.003554430077e+01 -1.074567360212e+02 0.0 
0.0 0.0 -4.281085362310e+01 
-1.181898903671e+02 2.086996890366e+00 0.0 
2.086996890366e+00 -2.648988932395e+02 0.0 
0.0 0.0 -1.145266350820e+02 
-4.827515420761e+01 2.996969645490e+01 0.0 
2.996969645490e+01 -7.900193801706e+01 0.0 
0.0 0.0 -3.495099170460e+01 
-4.977641569720e+01 2.867095688094e+01 0.0 
2.867095688094e+01 -7.927732742785e+01 0.0 
0.0 0.0 -3.585254797943e+01 
-4.635191729521e+01 3.090102242128e+01 0.0 
3.090102242128e+01 -7.910054899710e+01 0.0 
0.0 0.0 -3.385416464370e+01 
-1.569199717407e+02 2.858895129831e-01 0.0 
2.858895129831e-01 -3.714087144220e+02 0.0 
0.0 0.0 -1.580986058488e+02 
-6.800991939324e+01 1.713426902988e-01 0.0 
1.713426902988e-01 -1.335772982726e+02 0.0 
0.0 0.0 -6.007616529975e+01 
-1.472060671883e+02 7.764765886278e-01 0.0 
7.764765886278e-01 -3.516205936062e+02 0.0 
0.0 0.0 -1.492479982384e+02 
-7.968464917473e+01 1.939268390201e+01 0.0 
1.939268390201e+01 -1.427113414568e+02 0.0 
0.0 0.0 -6.215851660235e+01 
-1.217748262666e+02 2.797366596454e+00 0.0 
2.797366596454e+00 -2.747304081435e+02 0.0 
0.0 0.0 -1.185515703230e+02 
-9.809004946121e+01 1.773861598732e+01 0.0 
1.773861598732e+01 -2.557044159052e+02 0.0 
0.0 0.0 -1.069354964949e+02 
-6.956628160166e+01 2.682030119801e+01 0.0 
2.682030119801e+01 -1.575598890314e+02 0.0 
0.0 0.0 -6.709070503528e+01 
-1.226071048268e+02 7.635923963033e+00 0.0 
7.635923963033e+00 -3.166837820527e+02 0.0 
0.0 0.0 -1.313872660639e+02 
-1.143237962313e+02 1.454256019791e+00 0.0 
1.454256019791e+00 -2.540409572396e+02 0.0 
0.0 0.0 -1.101094260413e+02 
-1.218327620738e+02 1.578222970374e+00 0.0 
1.578222970374e+00 -2.761915234972e+02 0.0 
0.0 0.0 -1.190072856713e+02 
-8.541172381098e+01 2.980048144820e+00 0.0 
2.980048144820e+00 -1.691582716031e+02 0.0 
0.0 0.0 -7.597099862423e+01 
-8.080023387334e+01 2.338185269208e+00 0.0 
2.338185269208e+00 -1.591227245262e+02 0.0 
0.0 0.0 -7.157688751987e+01 
-8.936259257796e+01 3.861507724058e+00 0.0 
3.861507724058e+00 -1.781779752654e+02 0.0 
0.0 0.0 -7.986217035301e+01 
-3.664088636066e+01 1.836589124249e+01 0.0 
1.836589124249e+01 -1.201439489762e+02 0.0 
0.0 0.0 -4.480283797614e+01 
-3.436314057784e+01 2.334791594141e+01 0.0 
2.334791594141e+01 -1.064752230976e+02 0.0 
0.0 0.0 -4.239219407483e+01 
-1.143387741959e+02 3.573930227751e+00 0.0 
3.573930227751e+00 -2.522897842670e+02 0.0 
0.0 0.0 -1.095885675389e+02 
-6.999993307815e+01 -5.139268617013e+00 0.0 
-5.139268617013e+00 -1.449414018847e+02 0.0 
0.0 0.0 -5.821465309447e+01 
-7.557985126806e+01 -3.985305369706e+00 0.0 
-3.985305369706e+00 -1.554172566184e+02 0.0 
0.0 0.0 -6.333814874398e+01 
-4.815685004903e+01 -1.230147985557e+01 0.0 
-1.230147985557e+01 -9.589783526304e+01 0.0 
0.0 0.0 -3.943936872150e+01 
-5.525101854968e+01 -1.369100787645e+01 0.0 
-1.369100787645e+01 -1.168180006750e+02 0.0 
0.0 0.0 -4.824884079213e+01 
-1.028131564051e+02 -3.895638116906e+00 0.0 
-3.895638116906e+00 -2.299529156986e+02 0.0 
0.0 0.0 -9.513846314604e+01 
-9.904219396381e+01 -4.806311637824e+00 0.0 
-4.806311637824e+00 -2.219648334001e+02 0.0 
0.0 0.0 -9.131074344234e+01 
-1.129571189969e+02 1.818395266763e+01 0.0 
1.818395266763e+01 -2.510493197943e+02 0.0 
0.0 0.0 -1.088019316374e+02 
-1.168874695305e+02 1.755025398495e+01 0.0 
1.755025398495e+01 -2.584749025990e+02 0.0 
0.0 0.0 -1.122087116388e+02 
-1.043932052882e+02 1.959400658702e+01 0.0 
1.959400658702e+01 -2.371756438173e+02 0.0 
0.0 0.0 -1.020007272758e+02 
-1.030876992429e+02 5.036570479776e+00 0.0 
5.036570479776e+00 -2.798365253204e+02 0.0 
0.0 0.0 -1.167882256902e+02 
-9.496851418764e+01 3.389006305677e+00 0.0 
3.389006305677e+00 -2.618741371758e+02 0.0 
0.0 0.0 -1.108445795964e+02 
-8.938031949289e+01 3.746204978979e+00 0.0 
3.746204978979e+00 -2.527800834151e+02 0.0 
0.0 0.0 -1.074057297440e+02 
-1.209687201090e+02 5.308919943485e+00 0.0 
5.308919943485e+00 -2.705724298069e+02 0.0 
0.0 0.0 -1.170623449747e+02 
-1.251584790754e+02 4.888215787454e+00 0.0 
4.888215787454e+00 -2.838247832610e+02 0.0 
0.0 0.0 -1.222949787009e+02 
-6.560164461331e+01 -1.285969984188e+01 0.0 
-1.285969984188e+01 -1.728151257478e+02 0.0 
0.0 0.0 -7.086506580129e+01 
-6.182769467284e+01 -1.167331677298e+01 0.0 
-1.167331677298e+01 -1.684122792092e+02 0.0 
0.0 0.0 -6.765099247549e+01 
-6.808923657677e+01 -1.413484692129e+01 0.0 
-1.413484692129e+01 -1.646297761838e+02 0.0 
0.0 0.0 -6.825244828473e+01 
-1.250705629539e+02 7.757292334001e+00 0.0 
7.757292334001e+00 -2.797424531493e+02 0.0 
0.0 0.0 -1.210439048310e+02 
-1.518895193720e+02 1.143608658682e+00 0.0 
1.143608658682e+00 -3.619242500877e+02 0.0 
0.0 0.0 -1.537441308379e+02 
-1.475284352441e+02 1.485360185851e+00 0.0 
1.485360185851e+00 -3.536200289597e+02 0.0 
0.0 0.0 -1.499445392611e+02 
-2.387269353204e+01 -3.309788477832e+00 0.0 
-3.309788477832e+00 -4.853714597740e+01 0.0 
0.0 0.0 -1.896812654271e+01 
-3.205838402750e+01 -6.269398067199e+00 0.0 
-6.269398067199e+00 -6.022342501264e+01 0.0 
0.0 0.0 -2.403980793607e+01 
-4.279535663011e+01 3.139732630031e+01 0.0 
3.139732630031e+01 -8.181777131224e+01 0.0 
0.0 0.0 -3.248392852847e+01 
-4.082745182202e+01 3.108586935800e+01 0.0 
3.108586935800e+01 -8.566831681056e+01 0.0 
0.0 0.0 -3.372656140398e+01 
-1.256539789900e+02 1.102310315991e+01 0.0 
1.102310315991e+01 -2.789222369416e+02 0.0 
0.0 0.0 -1.209728647795e+02 
-1.231737234194e+02 1.152699057484e+01 0.0 
1.152699057484e+01 -2.698133192631e+02 0.0 
0.0 0.0 -1.174961128047e+02 
-1.291415263092e+02 1.061542276167e+01 0.0 
1.061542276167e+01 -2.906431977009e+02 0.0 
0.0 0.0 -1.255354172030e+02 
-4.701501983891e+01 -1.801562091097e+00 0.0 
-1.801562091097e+00 -1.062579566300e+02 0.0 
0.0 0.0 -4.265347469500e+01 
-1.124492621744e+02 1.770445934767e+01 0.0 
1.770445934767e+01 -2.805295087567e+02 0.0 
0.0 0.0 -1.174936312793e+02 
-1.428653353358e+02 9.524574232597e+00 0.0 
9.524574232597e+00 -3.522949282320e+02 0.0 
0.0 0.0 -1.481480790703e+02 
-1.372280166444e+02 1.024583251759e+01 0.0 
1.024583251759e+01 -3.426201232877e+02 0.0 
0.0 0.0 -1.435544419796e+02 
-1.496479692556e+02 8.916744266169e+00 0.0 
8.916744266169e+00 -3.641117807383e+02 0.0 
0.0 0.0 -1.537279249982e+02 
-1.267576902454e+02 1.726564191502e+01 0.0 
1.726564191502e+01 -3.115244333046e+02 0.0 
0.0 0.0 -1.310846370650e+02 
-1.361120360108e+02 1.772569897184e+01 0.0 
1.772569897184e+01 -3.296421361154e+02 0.0 
0.0 0.0 -1.393262516379e+02 
-1.355754712345e+02 1.877038116708e+01 0.0 
1.877038116708e+01 -3.243962379551e+02 0.0 
0.0 0.0 -1.375915127569e+02 
-3.796401936415e+01 1.385851213373e+00 0.0 
1.385851213373e+00 -1.209958483913e+02 0.0 
0.0 0.0 -4.956073284679e+01 
-1.193145148182e+02 1.109015496863e+00 0.0 
1.109015496863e+00 -2.690361017062e+02 0.0 
0.0 0.0 -1.161051849573e+02 
-8.037523497045e+01 1.627868672752e+00 0.0 
1.627868672752e+00 -1.603261549877e+02 0.0 
0.0 0.0 -7.181041698746e+01 
-4.943863101317e+01 -6.971943586899e+00 0.0 
-6.971943586899e+00 -1.158359925035e+02 0.0 
0.0 0.0 -5.102468558891e+01 
-7.644340821044e+01 1.154361358744e+00 0.0 
1.154361358744e+00 -1.512987137216e+02 0.0 
0.0 0.0 -6.792263657961e+01 
-8.065012339880e+01 1.165910730329e+00 0.0 
1.165910730329e+00 -1.626845274173e+02 0.0 
0.0 0.0 -7.260039524482e+01 
-7.191464267342e+01 7.902751519840e-01 0.0 
7.902751519840e-01 -1.411014360686e+02 0.0 
0.0 0.0 -6.350482362262e+01 
-3.290562774051e+01 -1.507029258815e+00 0.0 
-1.507029258815e+00 -8.625819528328e+01 0.0 
0.0 0.0 -3.377217521889e+01 
-8.029696932571e+01 3.004802641673e+00 0.0 
3.004802641673e+00 -1.550144142125e+02 0.0 
0.0 0.0 -7.019341506145e+01 
-8.589452957700e+01 4.103483573023e+00 0.0 
4.103483573023e+00 -1.676217318499e+02 0.0 
0.0 0.0 -7.565487842806e+01 
-2.101137746197e+01 -2.653922576539e+00 0.0 
-2.653922576539e+00 -3.669461600280e+01 0.0 
0.0 0.0 -1.508442425374e+01 
-1.278425786189e+02 7.195130970642e+00 0.0 
7.195130970642e+00 -2.899051504880e+02 0.0 
0.0 0.0 -1.249243187321e+02 
-1.681644703181e+01 -1.027118233794e+00 0.0 
-1.027118233794e+00 -3.774912519484e+01 0.0 
0.0 0.0 -1.464021494254e+01 
-1.832726157899e+01 -1.325171934110e+00 0.0 
-1.325171934110e+00 -4.553261539120e+01 0.0 
0.0 0.0 -1.715850136099e+01 
-1.487679590730e+02 4.804297396851e+00 0.0 
4.804297396851e+00 -3.608164604419e+02 0.0 
0.0 0.0 -1.524753258545e+02 
-1.436910281135e+02 3.759453166182e+00 0.0 
3.759453166182e+00 -3.504903271546e+02 0.0 
0.0 0.0 -1.478544065804e+02 
-1.532887121384e+02 4.360136193166e+00 0.0 
4.360136193166e+00 -3.685054395036e+02 0.0 
0.0 0.0 -1.561382454926e+02 
-1.481551997495e+02 3.355853879916e+00 0.0 
3.355853879916e+00 -3.580203961735e+02 0.0 
0.0 0.0 -1.514526787769e+02 
-1.388421324696e+02 2.827530439915e+00 0.0 
2.827530439915e+00 -3.399253548675e+02 0.0 
0.0 0.0 -1.432302462011e+02 
-1.436830458866e+02 2.569604147689e+00 0.0 
2.569604147689e+00 -3.483805966109e+02 0.0 
0.0 0.0 -1.472190927492e+02 
-7.628571804335e+01 1.689252396477e+00 0.0 
1.689252396477e+00 -1.491633148475e+02 0.0 
0.0 0.0 -6.723470986725e+01 
-1.543706230846e+02 3.110463597911e+00 0.0 
3.110463597911e+00 -3.690889420489e+02 0.0 
0.0 0.0 -1.566378695400e+02 
-1.486049250234e+02 2.299497133438e+00 0.0 
2.299497133438e+00 -3.570583793987e+02 0.0 
0.0 0.0 -1.512989913266e+02 
-1.590224690381e+02 2.676165176136e+00 0.0 
2.676165176136e+00 -3.778641574509e+02 0.0 
0.0 0.0 -1.606659879467e+02 
-6.819814869130e+01 1.087627487156e+01 0.0 
1.087627487156e+01 -1.042747693925e+02 0.0 
0.0 0.0 -4.741996962954e+01 
-5.524992181251e+01 2.904720525962e+01 0.0 
2.904720525962e+01 -1.002650330195e+02 0.0 
0.0 0.0 -4.423855682387e+01 
-5.251547003275e+01 2.681783298459e+01 0.0 
2.681783298459e+01 -8.103945134624e+01 0.0 
0.0 0.0 -3.728793716809e+01 
-4.635997313005e+01 2.505440356040e+01 0.0 
2.505440356040e+01 -5.747580961810e+01 0.0 
0.0 0.0 -2.810847152369e+01 
-1.358983208459e+02 1.924743026234e+01 0.0 
1.924743026234e+01 -3.127374813919e+02 0.0 
0.0 0.0 -1.341907406713e+02 
-1.309260067878e+02 1.823113570443e+01 0.0 
1.823113570443e+01 -2.973759176542e+02 0.0 
0.0 0.0 -1.280905773326e+02 
-1.334439119818e+02 2.353588721626e-01 0.0 
2.353588721626e-01 -3.220423426025e+02 0.0 
0.0 0.0 -1.362065054111e+02 
-1.266439441671e+02 -6.972341219368e-02 0.0 
-6.972341219368e-02 -3.024327753318e+02 0.0 
0.0 0.0 -1.276269735084e+02 
-7.611630191746e+01 7.162968493143e-01 0.0 
7.162968493143e-01 -1.523551067338e+02 0.0 
0.0 0.0 -6.814142259539e+01 
-7.542729778065e+01 5.537998461635e-01 0.0 
5.537998461635e-01 -1.512739061042e+02 0.0 
0.0 0.0 -6.761036116544e+01 
-8.269081493969e+01 6.754035015761e-01 0.0 
6.754035015761e-01 -1.692585159066e+02 0.0 
0.0 0.0 -7.518479925388e+01 
-8.149535782325e+01 5.868059497476e-01 0.0 
5.868059497476e-01 -1.667936815459e+02 0.0 
0.0 0.0 -7.408671181073e+01 
-8.866193970366e+01 7.067014620089e-01 0.0 
7.067014620089e-01 -1.849267621764e+02 0.0 
0.0 0.0 -8.167661056403e+01 
-8.752468419078e+01 5.815917249501e-01 0.0 
5.815917249501e-01 -1.821452887387e+02 0.0 
0.0 0.0 -8.050099187885e+01 
-9.472239910155e+01 9.359600967740e-01 0.0 
9.359600967740e-01 -2.006651377796e+02 0.0 
0.0 0.0 -8.821626106433e+01 
-1.398123233148e+02 1.957621335621e+01 0.0 
1.957621335621e+01 -3.312827813958e+02 0.0 
0.0 0.0 -1.409285314132e+02 
-4.486897080411e+01 2.956177762987e+01 0.0 
2.956177762987e+01 -5.848266551289e+01 0.0 
0.0 0.0 -2.734727989058e+01 
-7.426850167232e+01 9.010106766680e+00 0.0 
9.010106766680e+00 -1.220039082120e+02 0.0 
0.0 0.0 -5.629950197382e+01 
-1.418240676000e+02 1.578041222005e+01 0.0 
1.578041222005e+01 -3.451191233693e+02 0.0 
0.0 0.0 -1.456829572908e+02 
-1.359410661239e+02 1.442797826016e+01 0.0 
1.442797826016e+01 -3.362387685645e+02 0.0 
0.0 0.0 -1.412539504065e+02 
-6.902407404441e+01 1.593121727627e+01 0.0 
1.593121727627e+01 -1.074023603883e+02 0.0 
0.0 0.0 -4.757710939500e+01 
-6.077713202071e+01 1.432364064829e+01 0.0 
1.432364064829e+01 -8.613604488255e+01 0.0 
0.0 0.0 -3.860081089300e+01 
-1.501682738667e+02 6.644769681681e+00 0.0 
6.644769681681e+00 -3.646659830622e+02 0.0 
0.0 0.0 -1.540502770787e+02 
-6.005885265287e+01 2.653279935393e+01 0.0 
2.653279935393e+01 -1.497213398989e+02 0.0 
0.0 0.0 -6.108306263786e+01 
-1.318405700016e+02 8.445998087576e+00 0.0 
8.445998087576e+00 -3.024205137435e+02 0.0 
0.0 0.0 -1.298783251235e+02 
-6.172001590689e+01 2.768351628181e+01 0.0 
2.768351628181e+01 -8.597428178776e+01 0.0 
0.0 0.0 -4.512349540054e+01 
-4.090508162786e+01 2.587943880640e+01 0.0 
2.587943880640e+01 -1.008281825724e+02 0.0 
0.0 0.0 -4.404731078916e+01 
-6.457349971691e+01 2.708429321250e+01 0.0 
2.708429321250e+01 -1.527776347161e+02 0.0 
0.0 0.0 -6.428112475358e+01 
-7.654623394987e+01 1.687319432706e+01 0.0 
1.687319432706e+01 -1.289100033133e+02 0.0 
0.0 0.0 -5.682912160549e+01 
-5.930151775247e+01 2.697682662811e+01 0.0 
2.697682662811e+01 -1.030646152080e+02 0.0 
0.0 0.0 -4.600650697298e+01 
-5.680977048589e+01 2.440548605969e+01 0.0 
2.440548605969e+01 -8.641423382140e+01 0.0 
0.0 0.0 -3.963549548107e+01 
-1.125272584310e+02 6.418547013059e+00 0.0 
6.418547013059e+00 -2.981047176912e+02 0.0 
0.0 0.0 -1.233078853651e+02 
-3.153574157043e+01 -6.316221891934e+00 0.0 
-6.316221891934e+00 -5.324522487843e+01 0.0 
0.0 0.0 -2.158650335558e+01 
-4.475021295042e+01 3.137368220184e+01 0.0 
3.137368220184e+01 -8.015597216351e+01 0.0 
0.0 0.0 -3.309483340520e+01 
-9.588821385774e+01 1.114208024362e+00 0.0 
1.114208024362e+00 -2.029919633784e+02 0.0 
0.0 0.0 -8.926405317085e+01 
-4.370697117594e+01 3.187953810428e+01 0.0 
3.187953810428e+01 -6.141597905789e+01 0.0 
0.0 0.0 -2.712756686005e+01 
-1.300848309958e+02 3.069914876230e-02 0.0 
3.069914876230e-02 -3.126110644545e+02 0.0 
0.0 0.0 -1.321386612323e+02 
-6.182695643722e+01 2.375608354769e+01 0.0 
2.375608354769e+01 -1.643387586441e+02 0.0 
0.0 0.0 -6.605226133858e+01 
-8.219617907153e+01 2.129561569816e+01 0.0 
2.129561569816e+01 -1.571243317891e+02 0.0 
0.0 0.0 -6.784664617587e+01 
-4.702787875390e+01 3.037620524234e+01 0.0 
3.037620524234e+01 -9.812956257994e+01 0.0 
0.0 0.0 -3.936910842222e+01 
-5.729009018448e+01 2.970732408344e+01 0.0 
2.970732408344e+01 -1.189546050053e+02 0.0 
0.0 0.0 -5.098366184189e+01 
-9.354082197870e+01 1.307805695753e+01 0.0 
1.307805695753e+01 -1.821609304365e+02 0.0 
0.0 0.0 -8.208795407799e+01 
-8.608364279569e+01 9.495596707684e+00 0.0 
9.495596707684e+00 -1.599915687308e+02 0.0 
0.0 0.0 -7.319326830257e+01 
-8.370822859095e+01 9.957833290052e+00 0.0 
9.957833290052e+00 -1.509100103277e+02 0.0 
0.0 0.0 -6.916209018589e+01 
-6.370490472755e+01 2.039837388655e+01 0.0 
2.039837388655e+01 -1.777057598597e+02 0.0 
0.0 0.0 -7.086399042763e+01 
-6.090329160103e+01 2.120787057923e+01 0.0 
2.120787057923e+01 -9.205853558720e+01 0.0 
0.0 0.0 -4.179795052492e+01 
-5.162850337020e+01 1.959602457745e+01 0.0 
1.959602457745e+01 -6.690919742882e+01 0.0 
0.0 0.0 -3.185372320913e+01 
-9.153237697284e+01 1.674046709355e+01 0.0 
1.674046709355e+01 -1.780235063429e+02 0.0 
0.0 0.0 -7.903086172053e+01 
-1.165852858027e+02 1.061572072676e+01 0.0 
1.061572072676e+01 -2.493730231336e+02 0.0 
0.0 0.0 -1.093874926809e+02 
-1.201329060982e+02 1.191140555844e+01 0.0 
1.191140555844e+01 -2.600360723432e+02 0.0 
0.0 0.0 -1.136506935324e+02 
-1.263770282351e+02 1.278802963478e+01 0.0 
1.278802963478e+01 -2.798091941654e+02 0.0 
0.0 0.0 -1.214558667202e+02 
-1.236965980634e+02 1.323312864473e+01 0.0 
1.323312864473e+01 -2.709315323833e+02 0.0 
0.0 0.0 -1.179884391340e+02 
-1.171825887592e+02 1.241438420305e+01 0.0 
1.241438420305e+01 -2.506779026246e+02 0.0 
0.0 0.0 -1.099581474151e+02 
-1.207607309821e+02 1.375646007945e+01 0.0 
1.375646007945e+01 -2.617378169735e+02 0.0 
0.0 0.0 -1.143495643867e+02 
-1.270700092897e+02 1.446640557980e+01 0.0 
1.446640557980e+01 -2.819022670269e+02 0.0 
0.0 0.0 -1.222916828950e+02 
-1.245502990743e+02 1.502342506658e+01 0.0 
1.502342506658e+01 -2.736638532830e+02 0.0 
0.0 0.0 -1.190642457072e+02 
-1.319499756746e+02 1.601772728823e+01 0.0 
1.601772728823e+01 -2.972141295301e+02 0.0 
0.0 0.0 -1.283492315614e+02 
-1.279179720378e+02 1.632267617526e+01 0.0 
1.632267617526e+01 -2.851215724792e+02 0.0 
0.0 0.0 -1.235118633551e+02 
-1.209908775658e+02 1.548884468188e+01 0.0 
1.548884468188e+01 -2.641496984392e+02 0.0 
0.0 0.0 -1.151421728015e+02 
-1.241575614435e+02 1.658415707196e+01 0.0 
1.658415707196e+01 -2.753233686076e+02 0.0 
0.0 0.0 -1.194442790153e+02 
-1.307224257624e+02 1.736537050235e+01 0.0 
1.736537050235e+01 -2.947074919134e+02 0.0 
0.0 0.0 -1.272289753027e+02 
-1.173540266143e+02 1.604546810152e+01 0.0 
1.604546810152e+01 -2.549278540663e+02 0.0 
0.0 0.0 -1.112845642042e+02 
-1.468340072911e+02 1.700887974603e+01 0.0 
1.700887974603e+01 -3.523924308588e+02 0.0 
0.0 0.0 -1.493679314450e+02 
-7.093199998800e+01 2.540402354485e+01 0.0 
2.540402354485e+01 -1.713582369497e+02 0.0 
0.0 0.0 -7.257170558148e+01 
-3.223477320217e+01 1.374787886352e+01 0.0 
1.374787886352e+01 -1.174181796621e+02 0.0 
0.0 0.0 -4.721061919698e+01 
-3.855836318045e+01 3.230816997133e+01 0.0 
3.230816997133e+01 -8.898366907225e+01 0.0 
0.0 0.0 -3.854658995390e+01 
-8.576150269249e+01 1.950865258583e+01 0.0 
1.950865258583e+01 -1.636559833612e+02 0.0 
0.0 0.0 -7.115169148642e+01 
-1.375044334030e+02 1.635139903409e+01 0.0 
1.635139903409e+01 -3.161293939009e+02 0.0 
0.0 0.0 -1.356901481912e+02 
-1.358590082898e+02 1.395319988226e+01 0.0 
1.395319988226e+01 -3.117379772138e+02 0.0 
0.0 0.0 -1.338790956511e+02 
-5.234452246619e+01 2.265074957609e+01 0.0 
2.265074957609e+01 -1.466478147232e+02 0.0 
0.0 0.0 -5.584293047202e+01 
-1.434527025243e+02 2.041037818283e+01 0.0 
2.041037818283e+01 -3.337050406121e+02 0.0 
0.0 0.0 -1.427473229409e+02 
-8.756015784728e+01 1.197064800986e+01 0.0 
1.197064800986e+01 -1.619715071081e+02 0.0 
0.0 0.0 -7.361836856491e+01 
-4.062939040946e+01 1.608863271498e+01 0.0 
1.608863271498e+01 -1.320877303751e+02 0.0 
0.0 0.0 -4.839290126098e+01 
-1.459687508753e+02 2.085034915300e+01 0.0 
2.085034915300e+01 -3.418641264626e+02 0.0 
0.0 0.0 -1.459498632014e+02 
-1.135532936869e+02 1.106273603671e+01 0.0 
1.106273603671e+01 -2.397078672430e+02 0.0 
0.0 0.0 -1.055783482790e+02 
-1.103503566495e+02 1.159052890405e+01 0.0 
1.159052890405e+01 -2.300153904644e+02 0.0 
0.0 0.0 -1.017097241342e+02 
-1.066520358876e+02 1.020744432100e+01 0.0 
1.020744432100e+01 -2.192108098031e+02 0.0 
0.0 0.0 -9.735885370721e+01 
-1.347499949211e+02 1.187988282665e+01 0.0 
1.187988282665e+01 -3.093800056131e+02 0.0 
0.0 0.0 -1.328390001603e+02 
-9.359537212344e+01 4.873706655083e+00 0.0 
4.873706655083e+00 -1.880510401933e+02 0.0 
0.0 0.0 -8.409392369501e+01 
-1.511058714762e+02 1.936656750290e+01 0.0 
1.936656750290e+01 -3.575551951131e+02 0.0 
0.0 0.0 -1.521983199768e+02 
-9.143836766972e+01 1.403762781401e+01 0.0 
1.403762781401e+01 -2.548440691769e+02 0.0 
0.0 0.0 -1.077417385748e+02 
-8.854197887668e+01 1.603890773132e+01 0.0 
1.603890773132e+01 -2.436113903464e+02 0.0 
0.0 0.0 -1.033454770702e+02 
-8.196005285128e+01 1.702309368392e+01 0.0 
1.702309368392e+01 -2.264353909536e+02 0.0 
0.0 0.0 -9.610940612117e+01 
-1.175250609831e+02 1.426004651561e+01 0.0 
1.426004651561e+01 -2.524807023691e+02 0.0 
0.0 0.0 -1.106017290057e+02 
-1.550954840446e+02 1.535771060697e+01 0.0 
1.535771060697e+01 -3.698529089638e+02 0.0 
0.0 0.0 -1.570845179025e+02 
-1.466924703339e+02 1.395770908183e+01 0.0 
1.395770908183e+01 -3.564978074652e+02 0.0 
0.0 0.0 -1.505570833397e+02 
-1.476512154108e+02 1.285443649193e+01 0.0 
1.285443649193e+01 -3.590417113700e+02 0.0 
0.0 0.0 -1.516078780342e+02 
-1.375174932906e+02 1.258939967898e+01 0.0 
1.258939967898e+01 -3.415452467093e+02 0.0 
0.0 0.0 -1.433188219999e+02 
-1.572664349909e+02 1.289391644636e+01 0.0 
1.289391644636e+01 -3.753746964831e+02 0.0 
0.0 0.0 -1.593923394422e+02 
-1.402952941093e+02 1.841216916624e+01 0.0 
1.841216916624e+01 -3.239128306705e+02 0.0 
0.0 0.0 -1.388624374339e+02 
-1.415173276602e+02 1.927858670076e+01 0.0 
1.927858670076e+01 -3.277250089010e+02 0.0 
0.0 0.0 -1.403727009684e+02 
-5.715450625696e+01 -1.359457604307e+01 0.0 
-1.359457604307e+01 -1.521758175637e+02 0.0 
0.0 0.0 -5.960625544513e+01 
-5.788934793938e+01 -9.851899959241e+00 0.0 
-9.851899959241e+00 -1.642280652340e+02 0.0 
0.0 0.0 -6.400526198407e+01 
-6.300465821568e+01 -8.005186142634e+00 0.0 
-8.005186142634e+00 -1.794189885116e+02 0.0 
0.0 0.0 -7.177253967510e+01 
-5.895155842371e+01 -5.254189189594e+00 0.0 
-5.254189189594e+00 -1.745136959356e+02 0.0 
0.0 0.0 -6.785271263419e+01 
-5.367821373459e+01 -7.165973684337e+00 0.0 
-7.165973684337e+00 -1.601211950968e+02 0.0 
0.0 0.0 -6.072473152670e+01 
-5.485767142403e+01 -1.642535936280e+00 0.0 
-1.642535936280e+00 -1.690943043978e+02 0.0 
0.0 0.0 -6.415870914888e+01 
-6.057206538156e+01 -3.207364040006e-01 0.0 
-3.207364040006e-01 -1.828570633300e+02 0.0 
0.0 0.0 -7.110821410522e+01 
-5.098093885644e+01 2.992387200554e+00 0.0 
2.992387200554e+00 -1.627666804557e+02 0.0 
0.0 0.0 -6.063840432707e+01 
-1.240948924725e+02 1.784355977425e+01 0.0 
1.784355977425e+01 -2.783281172267e+02 0.0 
0.0 0.0 -1.203269029098e+02 
-1.593384467567e+02 1.027928031280e+01 0.0 
1.027928031280e+01 -3.800242037503e+02 0.0 
0.0 0.0 -1.614087951521e+02 
-1.032012429337e+02 7.230951412828e-01 0.0 
7.230951412828e-01 -2.700115476444e+02 0.0 
0.0 0.0 -1.123404402094e+02 
-9.854578400567e+01 6.599902491830e-01 0.0 
6.599902491830e-01 -2.616407547268e+02 0.0 
0.0 0.0 -1.098072545027e+02 
-9.237603572338e+01 -2.028322937788e+00 0.0 
-2.028322937788e+00 -2.434881248238e+02 0.0 
0.0 0.0 -1.026921522411e+02 
-9.205111998529e+01 -6.010037840678e+00 0.0 
-6.010037840678e+00 -2.019792847229e+02 0.0 
0.0 0.0 -8.278490668631e+01 
-9.498683144147e+01 -5.832990948967e+00 0.0 
-5.832990948967e+00 -2.140217315600e+02 0.0 
0.0 0.0 -8.806645754149e+01 
-1.015106251830e+02 -4.385193225736e+00 0.0 
-4.385193225736e+00 -2.337373799459e+02 0.0 
0.0 0.0 -9.635768127695e+01 
-8.856788448724e+01 -5.857810821091e+00 0.0 
-5.857810821091e+00 -1.898246502260e+02 0.0 
0.0 0.0 -7.745484332027e+01 
-1.052799243302e+02 1.927996455060e+01 0.0 
1.927996455060e+01 -2.563808934414e+02 0.0 
0.0 0.0 -1.080893518616e+02 
-1.600172358569e+02 9.100073644561e+00 0.0 
9.100073644561e+00 -3.813482467385e+02 0.0 
0.0 0.0 -1.620096447786e+02 
-9.217730789571e+01 6.350579808725e+00 0.0 
6.350579808725e+00 -2.609487706457e+02 0.0 
0.0 0.0 -1.107213813180e+02 
-9.053596357906e+01 -7.057877089095e+00 0.0 
-7.057877089095e+00 -2.060829130986e+02 0.0 
0.0 0.0 -8.527995811519e+01 
-7.433429430888e+01 3.674347756370e+00 0.0 
3.674347756370e+00 -1.366089589963e+02 0.0 
0.0 0.0 -6.288297599155e+01 
-8.201091982955e+01 4.913505326255e+00 0.0 
4.913505326255e+00 -1.546904218860e+02 0.0 
0.0 0.0 -7.061040251466e+01 
-8.324248249220e+01 6.014426984496e+00 0.0 
6.014426984496e+00 -1.559270967962e+02 0.0 
0.0 0.0 -7.135087378651e+01 
-9.027205706305e+01 6.512617951059e+00 0.0 
6.512617951059e+00 -1.747590372311e+02 0.0 
0.0 0.0 -7.910932828824e+01 
-8.182526427963e+01 4.308075163835e+00 0.0 
4.308075163835e+00 -1.557275248575e+02 0.0 
0.0 0.0 -7.086583674113e+01 
-1.063613331699e+02 -3.050286937298e+00 0.0 
-3.050286937298e+00 -2.380565685817e+02 0.0 
0.0 0.0 -9.908881817859e+01 
-1.097117013325e+02 -2.258625593676e+00 0.0 
-2.258625593676e+00 -2.462571889211e+02 0.0 
0.0 0.0 -1.029416762005e+02 
-1.068783140814e+02 -2.175031914834e+00 0.0 
-2.175031914834e+00 -2.348807823539e+02 0.0 
0.0 0.0 -9.822895670530e+01 
-1.128865399051e+02 -1.534189173858e+00 0.0 
-1.534189173858e+00 -2.545473818603e+02 0.0 
0.0 0.0 -1.067488929558e+02 
-1.098990266462e+02 -1.355902864723e+00 0.0 
-1.355902864723e+00 -2.428576280813e+02 0.0 
0.0 0.0 -1.018763185986e+02 
-1.040408133592e+02 -1.815110216375e+00 0.0 
-1.815110216375e+00 -2.244897778175e+02 0.0 
0.0 0.0 -9.396094755555e+01 
-1.157936684443e+02 -8.750283957235e-01 0.0 
-8.750283957235e-01 -2.625556622875e+02 0.0 
0.0 0.0 -1.103781655249e+02 
-1.122723021554e+02 -7.793223336803e-01 0.0 
-7.793223336803e-01 -2.496759164885e+02 0.0 
0.0 0.0 -1.049113445043e+02 
-7.256557163225e+01 2.440629466193e+00 0.0 
2.440629466193e+00 -1.354002489711e+02 0.0 
0.0 0.0 -6.198974618099e+01 
-4.672306477587e+01 -2.391499957415e+01 0.0 
-2.391499957415e+01 -4.728886298144e+01 0.0 
0.0 0.0 -2.816608041676e+01 
-4.330245015089e+01 -2.400878503005e+01 0.0 
-2.400878503005e+01 -5.896985564507e+01 0.0 
0.0 0.0 -2.688018145947e+01 
-3.822584949306e+01 -1.516683131744e+01 0.0 
-1.516683131744e+01 -4.468147720437e+01 0.0 
0.0 0.0 -1.957233858143e+01 
-4.524365981878e+01 -2.138955193142e+01 0.0 
-2.138955193142e+01 -7.234679395584e+01 0.0 
0.0 0.0 -2.877295703453e+01 
-4.285672725869e+01 -2.395671376309e+01 0.0 
-2.395671376309e+01 -8.858808609163e+01 0.0 
0.0 0.0 -3.573311773894e+01 
-4.624827088692e+01 -2.088948066798e+01 0.0 
-2.088948066798e+01 -9.928060659733e+01 0.0 
0.0 0.0 -3.801570261969e+01 
-4.194661832328e+01 -2.017495045638e+01 0.0 
-2.017495045638e+01 -1.083230537969e+02 0.0 
0.0 0.0 -4.069472584883e+01 
-4.209824185052e+01 -2.781986162027e+01 0.0 
-2.781986162027e+01 -8.227940669443e+01 0.0 
0.0 0.0 -3.735290194952e+01 
-2.466642384601e+01 -5.924486612545e+00 0.0 
-5.924486612545e+00 -2.017031600787e+01 0.0 
0.0 0.0 -1.172911602344e+01 
-3.207785385935e+01 -9.144671485167e+00 0.0 
-9.144671485167e+00 -3.904902432802e+01 0.0 
0.0 0.0 -1.730657612844e+01 
-1.882904277577e+01 -2.646485246733e+00 0.0 
-2.646485246733e+00 -1.835894035973e+01 0.0 
0.0 0.0 -9.732663967421e+00 
-2.676870400681e+01 -5.549542568988e+00 0.0 
-5.549542568988e+00 -3.602196687436e+01 0.0 
0.0 0.0 -1.551172759564e+01 
-3.890172479412e+01 -1.106211582672e+01 0.0 
-1.106211582672e+01 -5.911130107935e+01 0.0 
0.0 0.0 -2.424563638624e+01 
-4.116831932227e+01 -9.428802444233e+00 0.0 
-9.428802444233e+00 -8.157041608466e+01 0.0 
0.0 0.0 -3.308560045725e+01 
-1.618494414505e+02 1.340162049686e+00 0.0 
1.340162049686e+00 -3.822156870044e+02 0.0 
0.0 0.0 -1.628195385365e+02 
-9.302648330756e+01 -9.383160991268e-01 0.0 
-9.383160991268e-01 -1.927788586793e+02 0.0 
0.0 0.0 -8.052533384388e+01 
-8.875386103555e+01 -1.958435098508e+00 0.0 
-1.958435098508e+00 -1.830706217119e+02 0.0 
0.0 0.0 -7.615393800342e+01 
-8.012512544933e+01 -2.064359570158e+00 0.0 
-2.064359570158e+00 -1.632343016389e+02 0.0 
0.0 0.0 -6.760478480442e+01 
-8.467202969861e+01 -2.933057911146e+00 0.0 
-2.933057911146e+00 -1.744133022046e+02 0.0 
0.0 0.0 -7.208382960563e+01 
-9.606767865581e+01 -1.742589229612e+00 0.0 
-1.742589229612e+00 -2.011209333672e+02 0.0 
0.0 0.0 -8.396047583403e+01 
-7.477086827877e+01 -1.054868039527e+00 0.0 
-1.054868039527e+00 -1.519922859181e+02 0.0 
0.0 0.0 -6.291942810171e+01 
-7.058723947019e+01 -2.063254055863e+00 0.0 
-2.063254055863e+00 -1.448375370630e+02 0.0 
0.0 0.0 -5.959751521425e+01 
-1.057336289332e+01 2.737377706083e-02 0.0 
2.737377706083e-02 -1.720460531464e+01 0.0 
0.0 0.0 -6.264203669253e+00 
-1.256642993776e+01 -9.260670539959e-02 0.0 
-9.260670539959e-02 -3.362605933139e+01 0.0 
0.0 0.0 -1.117007247337e+01 
-1.229218908474e+01 -1.874405885109e-01 0.0 
-1.874405885109e-01 -3.193988860355e+01 0.0 
0.0 0.0 -1.061352374600e+01 
-1.535811634381e+01 -3.743991474231e-01 0.0 
-3.743991474231e-01 -5.033892999284e+01 0.0 
0.0 0.0 -1.765350693296e+01 
-1.574913972717e+01 -4.562364742270e-01 0.0 
-4.562364742270e-01 -5.009336111827e+01 0.0 
0.0 0.0 -1.766461468794e+01 
-1.311019994565e+01 -2.545881846238e-01 0.0 
-2.545881846238e-01 -3.405993323128e+01 0.0 
0.0 0.0 -1.143843665998e+01 
-1.337234376971e+01 -4.797445207576e-01 0.0 
-4.797445207576e-01 -3.408171054503e+01 0.0 
0.0 0.0 -1.160082567786e+01 
-1.089436509257e+01 -1.701407364687e-01 0.0 
-1.701407364687e-01 -1.703868006556e+01 0.0 
0.0 0.0 -6.304912069957e+00 
-1.378675987171e+01 -5.602680425411e-01 0.0 
-5.602680425411e-01 -3.383372289248e+01 0.0 
0.0 0.0 -1.181496182665e+01 
-1.731566114462e+01 -1.136096943898e+00 0.0 
-1.136096943898e+00 -5.100785679717e+01 0.0 
0.0 0.0 -1.842873054028e+01 
-1.106650574503e+01 -2.180162056765e-01 0.0 
-2.180162056765e-01 -1.643890035625e+01 0.0 
0.0 0.0 -6.255398370323e+00 
-1.043427905986e+02 5.301620299349e-01 0.0 
5.301620299349e-01 -2.270285787469e+02 0.0 
0.0 0.0 -9.901141080367e+01 
-1.082415648685e+02 9.806280214534e-01 0.0 
9.806280214534e-01 -2.379289007039e+02 0.0 
0.0 0.0 -1.034511396717e+02 
-1.605839818985e+02 6.750140601635e+00 0.0 
6.750140601635e+00 -3.823967456159e+02 0.0 
0.0 0.0 -1.624942182543e+02 
-7.191943789689e+01 1.697476179458e+00 0.0 
1.697476179458e+00 -1.370663682795e+02 0.0 
0.0 0.0 -6.229574185291e+01 
-1.373927164063e+01 -3.406786602068e-01 0.0 
-3.406786602068e-01 -1.690083018554e+01 0.0 
0.0 0.0 -8.507901894419e+00 
-1.293402685339e+02 3.149579635468e+00 0.0 
3.149579635468e+00 -2.980835040644e+02 0.0 
0.0 0.0 -1.278271317795e+02 
-1.313211983140e+02 5.707920229984e+00 0.0 
5.707920229984e+00 -3.025442709404e+02 0.0 
0.0 0.0 -1.297596407763e+02 
-1.311269019863e+02 4.794175647280e+00 0.0 
4.794175647280e+00 -3.024236058532e+02 0.0 
0.0 0.0 -1.296651523518e+02 
-1.475839096373e+02 2.215415131538e-01 0.0 
2.215415131538e-01 -3.520648097480e+02 0.0 
0.0 0.0 -1.494946158156e+02 
-1.521786531786e+02 5.466461228756e-01 0.0 
5.466461228756e-01 -3.617140168128e+02 0.0 
0.0 0.0 -1.537678009974e+02 
-1.291587498668e+02 1.756566191491e+00 0.0 
1.756566191491e+00 -2.982757175318e+02 0.0 
0.0 0.0 -1.278303402196e+02 
-6.151087159104e+01 -1.064884074199e+01 0.0 
-1.064884074199e+01 -1.315495724976e+02 0.0 
0.0 0.0 -5.384248171701e+01 
-1.301131699157e+02 1.407720453647e+01 0.0 
1.407720453647e+01 -2.906707744139e+02 0.0 
0.0 0.0 -1.258351832989e+02 
-1.178054740373e+02 3.198315279532e+00 0.0 
3.198315279532e+00 -2.631684007441e+02 0.0 
0.0 0.0 -1.138921624344e+02 
-4.039410560700e+01 2.300114567252e+01 0.0 
2.300114567252e+01 -1.178708646521e+02 0.0 
0.0 0.0 -4.302141747493e+01 
-5.936183943046e+01 -1.521282414195e+01 0.0 
-1.521282414195e+01 -1.313224703885e+02 0.0 
0.0 0.0 -5.427780776018e+01 
-1.238498040386e+02 -2.929114630394e-01 0.0 
-2.929114630394e-01 -2.935871083476e+02 0.0 
0.0 0.0 -1.236875527951e+02 
-1.126860488830e+02 -1.422951333786e+00 0.0 
-1.422951333786e+00 -2.723260149898e+02 0.0 
0.0 0.0 -1.133657400415e+02 
-1.383720513170e+02 1.104110927798e+00 0.0 
1.104110927798e+00 -3.347704443964e+02 0.0 
0.0 0.0 -1.415427487140e+02 
-1.176671355850e+02 -1.118465544139e+00 0.0 
-1.118465544139e+00 -2.770297155122e+02 0.0 
0.0 0.0 -1.161337379525e+02 
-1.296608046087e+02 1.219092785181e+00 0.0 
1.219092785181e+00 -3.185565597474e+02 0.0 
0.0 0.0 -1.340204587962e+02 
-1.478600458198e+02 1.125971730131e+01 0.0 
1.125971730131e+01 -3.605046941394e+02 0.0 
0.0 0.0 -1.521094219878e+02 
-2.881752497625e+01 -2.017408274263e+00 0.0 
-2.017408274263e+00 -7.974816146927e+01 0.0 
0.0 0.0 -3.078518480772e+01 
-9.260686159490e+01 2.849350108012e+00 0.0 
2.849350108012e+00 -1.904102670857e+02 0.0 
0.0 0.0 -8.450513860417e+01 
-8.857498881850e+01 1.547403328644e+00 0.0 
1.547403328644e+00 -1.827962357768e+02 0.0 
0.0 0.0 -8.101136737860e+01 
-1.073069542291e+02 3.112240113988e+00 0.0 
3.112240113988e+00 -2.321986616989e+02 0.0 
0.0 0.0 -1.014516847784e+02 
-6.508847160972e+01 -6.406059682166e+00 0.0 
-6.406059682166e+00 -1.362023427088e+02 0.0 
0.0 0.0 -5.446961391763e+01 
-1.004250355759e+02 -2.700143863897e+00 0.0 
-2.700143863897e+00 -2.155806799902e+02 0.0 
0.0 0.0 -8.983751798837e+01 
-3.785846766740e+01 -6.378844588185e+00 0.0 
-6.378844588185e+00 -8.570500274055e+01 0.0 
0.0 0.0 -3.329909301411e+01 
-1.389212210742e+02 1.999114817655e+01 0.0 
1.999114817655e+01 -3.244010539953e+02 0.0 
0.0 0.0 -1.385966825209e+02 
-8.598278847888e+01 1.605351622263e+01 0.0 
1.605351622263e+01 -1.574965575500e+02 0.0 
0.0 0.0 -7.020611252719e+01 
-9.121860289498e+01 -4.404718633596e+00 0.0 
-4.404718633596e+00 -2.331209834792e+02 0.0 
0.0 0.0 -9.802027684392e+01 
-8.421484986205e+01 -7.178257191655e+00 0.0 
-7.178257191655e+00 -1.816058029265e+02 0.0 
0.0 0.0 -7.436728973209e+01 
-6.618542290727e+01 -1.182709617393e+01 0.0 
-1.182709617393e+01 -1.445849109694e+02 0.0 
0.0 0.0 -5.967265277071e+01 
-5.696320556841e+01 -1.618460415702e+01 0.0 
-1.618460415702e+01 -1.262975369868e+02 0.0 
0.0 0.0 -5.165243382550e+01 
-7.602502709134e+01 2.505580196040e+01 0.0 
2.505580196040e+01 -1.764884590629e+02 0.0 
0.0 0.0 -7.513245524035e+01 
-9.292402752273e+01 -6.384001206473e+00 0.0 
-6.384001206473e+00 -2.180419844291e+02 0.0 
0.0 0.0 -9.060614763092e+01 
-1.200443426562e+02 2.248386393236e+00 0.0 
2.248386393236e+00 -3.049361140742e+02 0.0 
0.0 0.0 -1.270547948995e+02 
-1.108665708544e+02 2.836895589387e+00 0.0 
2.836895589387e+00 -2.430949836192e+02 0.0 
0.0 0.0 -1.057884663421e+02 
-1.268120605893e+01 -2.649796315820e-01 0.0 
-2.649796315820e-01 -1.887038223518e+01 0.0 
0.0 0.0 -8.133754989841e+00 
-1.242093982281e+02 3.514614305342e+00 0.0 
3.514614305342e+00 -3.153237127730e+02 0.0 
0.0 0.0 -1.314599333003e+02 
-1.050949715396e+02 -2.496356050709e+00 0.0 
-2.496356050709e+00 -2.565634894012e+02 0.0 
0.0 0.0 -1.061530295131e+02 
-9.713219086888e+01 4.704835789953e+00 0.0 
4.704835789953e+00 -1.987638921842e+02 0.0 
0.0 0.0 -8.836882491593e+01 
-1.161486264175e+02 1.325743069201e+01 0.0 
1.325743069201e+01 -3.012269653607e+02 0.0 
0.0 0.0 -1.250327470393e+02 
-4.983119386967e+01 -1.938612203212e+01 0.0 
-1.938612203212e+01 -1.011846497958e+02 0.0 
0.0 0.0 -3.920089581348e+01 
-1.111573775387e+02 5.022223212272e+00 0.0 
5.022223212272e+00 -2.401978915130e+02 0.0 
0.0 0.0 -1.050065807155e+02 
-1.248471907287e+02 9.216610029721e+00 0.0 
9.216610029721e+00 -2.781275195726e+02 0.0 
0.0 0.0 -1.204924130904e+02 
-9.016933864027e+01 5.189586338309e+00 0.0 
5.189586338309e+00 -1.775134116612e+02 0.0 
0.0 0.0 -7.990482509045e+01 
-2.656996278384e+01 -4.026417955187e+00 0.0 
-4.026417955187e+00 -6.516114589104e+01 0.0 
0.0 0.0 -2.468602736461e+01 
-8.461135377140e+01 2.207976622726e+00 0.0 
2.207976622726e+00 -1.700799576310e+02 0.0 
0.0 0.0 -7.600739342072e+01 
-1.436709895644e+02 7.257727913380e+00 0.0 
7.257727913380e+00 -3.534296954335e+02 0.0 
0.0 0.0 -1.487302054994e+02 
-1.128687413311e+02 9.346333192597e+00 0.0 
9.346333192597e+00 -2.388458808888e+02 0.0 
0.0 0.0 -1.051143866660e+02 
-5.874801485273e+01 -5.191711399330e+00 0.0 
-5.191711399330e+00 -1.240040488763e+02 0.0 
0.0 0.0 -4.919793536911e+01 
-8.020178996191e+01 6.574016436607e+00 0.0 
6.574016436607e+00 -2.344168801253e+02 0.0 
0.0 0.0 -9.904775372806e+01 
-8.420181409967e+01 2.244612373162e+01 0.0 
2.244612373162e+01 -1.718139444214e+02 0.0 
0.0 0.0 -7.367296132534e+01 
-7.245634917659e+01 6.450386175257e+00 0.0 
6.450386175257e+00 -1.211510766536e+02 0.0 
0.0 0.0 -5.649580236948e+01 
-1.208827635533e+02 3.914964845890e+00 0.0 
3.914964845890e+00 -2.719454854080e+02 0.0 
0.0 0.0 -1.174484746884e+02 
-8.470598340632e+01 2.019653933032e+01 0.0 
2.019653933032e+01 -2.201441312949e+02 0.0 
0.0 0.0 -9.341192946727e+01 
-1.265014041426e+02 1.165258253430e+01 0.0 
1.165258253430e+01 -3.224068920078e+02 0.0 
0.0 0.0 -1.342724888451e+02 
-9.593028798222e+01 8.753548804232e+00 0.0 
8.753548804232e+00 -2.686062905694e+02 0.0 
0.0 0.0 -1.132418681001e+02 
-6.376312501123e+01 -4.108162345562e+00 0.0 
-4.108162345562e+00 -1.326912440752e+02 0.0 
0.0 0.0 -5.334207888420e+01 
-1.340990113624e+02 3.062326068923e+00 0.0 
3.062326068923e+00 -3.319234437434e+02 0.0 
0.0 0.0 -1.394067365317e+02 
-7.775615016439e+01 1.519271839539e+01 0.0 
1.519271839539e+01 -2.211765967193e+02 0.0 
0.0 0.0 -9.301323903581e+01 
-1.180740757653e+02 5.666292733283e+00 0.0 
5.666292733283e+00 -2.604420742314e+02 0.0 
0.0 0.0 -1.131548449990e+02 
-1.118357906330e+02 1.916890029102e+01 0.0 
1.916890029102e+01 -2.566578278764e+02 0.0 
0.0 0.0 -1.101480855528e+02 
-6.517122532393e+01 9.039139042698e+00 0.0 
9.039139042698e+00 -1.953729335246e+02 0.0 
0.0 0.0 -7.701158292805e+01 
-1.152610770034e+02 7.425178362791e+00 0.0 
7.425178362791e+00 -2.489125553973e+02 0.0 
0.0 0.0 -1.088520897202e+02 
-8.640432344570e+01 -2.471769819549e+00 0.0 
-2.471769819549e+00 -2.353637509946e+02 0.0 
0.0 0.0 -9.924820188617e+01 
-1.214613864067e+02 1.454065671924e+01 0.0 
1.454065671924e+01 -3.086312602071e+02 0.0 
0.0 0.0 -1.286277939841e+02 
-8.305401996364e+01 1.752577706617e+01 0.0 
1.752577706617e+01 -1.499369502771e+02 0.0 
0.0 0.0 -6.604856136974e+01 
-9.815465531601e+01 2.011473268924e+01 0.0 
2.011473268924e+01 -2.176455789887e+02 0.0 
0.0 0.0 -9.373901517992e+01 
-1.066146920396e+02 1.642286092163e+01 0.0 
1.642286092163e+01 -2.262374332106e+02 0.0 
0.0 0.0 -9.945563757506e+01 
-9.231551109742e+01 2.123066459773e+01 0.0 
2.123066459773e+01 -2.192393623414e+02 0.0 
0.0 0.0 -9.264800735124e+01 
-1.213962257172e+02 -5.073365154206e-01 0.0 
-5.073365154206e-01 -2.825834480118e+02 0.0 
0.0 0.0 -1.190180902994e+02 
-1.291960666753e+02 3.279206343318e+00 0.0 
3.279206343318e+00 -3.236711929792e+02 0.0 
0.0 0.0 -1.354601778964e+02 
-3.903107117813e+01 -6.745081625842e+00 0.0 
-6.745081625842e+00 -1.326540792606e+02 0.0 
0.0 0.0 -5.007398981520e+01 
-6.323990408311e+01 2.844886320325e+01 0.0 
2.844886320325e+01 -1.384203552512e+02 0.0 
0.0 0.0 -5.907091577719e+01 
-9.789851393644e+01 6.006991043825e+00 0.0 
6.006991043825e+00 -1.980780039676e+02 0.0 
0.0 0.0 -8.839295537120e+01 
-1.265916980784e+02 1.912805207550e+01 0.0 
1.912805207550e+01 -3.002206481712e+02 0.0 
0.0 0.0 -1.276437038749e+02 
-1.247435266899e+02 6.184520835594e+00 0.0 
6.184520835594e+00 -2.805175775270e+02 0.0 
0.0 0.0 -1.211783312651e+02 
-7.805104670345e+01 2.328896220442e+01 0.0 
2.328896220442e+01 -1.513042732466e+02 0.0 
0.0 0.0 -6.539093322267e+01 
-1.295207843283e+02 2.115371207855e+00 0.0 
2.115371207855e+00 -3.212389567561e+02 0.0 
0.0 0.0 -1.348279223253e+02 
-1.216449084066e+02 8.120073486393e+00 0.0 
8.120073486393e+00 -2.687117391264e+02 0.0 
0.0 0.0 -1.167069942599e+02 
-9.744044413727e+01 -5.303745586339e+00 0.0 
-5.303745586339e+00 -2.258493678645e+02 0.0 
0.0 0.0 -9.326665680742e+01 
-3.681057408839e+01 -7.702748708321e-01 0.0 
-7.702748708321e-01 -9.132707481045e+01 0.0 
0.0 0.0 -3.618197858828e+01 
-3.880624405231e+01 2.649543942447e+01 0.0 
2.649543942447e+01 -1.045532908676e+02 0.0 
0.0 0.0 -3.994672422683e+01 
-5.334926473129e+01 8.674185390870e+00 0.0 
8.674185390870e+00 -1.676978475811e+02 0.0 
0.0 0.0 -6.280406268390e+01 
-8.013393594573e+01 1.959018869277e+01 0.0 
1.959018869277e+01 -2.147224221390e+02 0.0 
0.0 0.0 -9.100427791117e+01 
-1.035242438279e+02 -3.629595311126e+00 0.0 
-3.629595311126e+00 -2.452647011663e+02 0.0 
0.0 0.0 -1.013096603626e+02 
-1.299571925120e+02 1.249869210426e+01 0.0 
1.249869210426e+01 -2.920858941934e+02 0.0 
0.0 0.0 -1.262129260116e+02 
-1.341997915208e+02 2.001140717348e+00 0.0 
2.001140717348e+00 -3.293483990323e+02 0.0 
0.0 0.0 -1.386644571659e+02 
-1.180780653494e+02 5.877025434887e+00 0.0 
5.877025434887e+00 -3.076219693300e+02 0.0 
0.0 0.0 -1.273100104038e+02 
-4.487342852731e+01 3.363068871390e+01 0.0 
3.363068871390e+01 -4.384501277443e+01 0.0 
0.0 0.0 -2.411908376718e+01 
-7.698176443575e+01 8.413533872839e+00 0.0 
8.413533872839e+00 -1.311252365224e+02 0.0 
0.0 0.0 -6.061624375813e+01 
-1.388315822982e+02 1.858909036347e+00 0.0 
1.858909036347e+00 -3.375513757074e+02 0.0 
0.0 0.0 -1.425148874017e+02 
-8.437541771480e+01 4.654605840228e+00 0.0 
4.654605840228e+00 -2.433582297749e+02 0.0 
0.0 0.0 -1.033717107194e+02 
-1.262728444240e+02 1.379653880498e+01 0.0 
1.379653880498e+01 -3.191359300336e+02 0.0 
0.0 0.0 -1.332226323373e+02 
-1.063486830160e+02 -1.100373163498e+00 0.0 
-1.100373163498e+00 -2.306428403314e+02 0.0 
0.0 0.0 -9.676269280687e+01 
-1.395987097898e+02 2.001130820542e+01 0.0 
2.001130820542e+01 -3.280242165673e+02 0.0 
0.0 0.0 -1.398868779071e+02 
-6.457832553869e+01 1.237694875668e+01 0.0 
1.237694875668e+01 -9.513964088347e+01 0.0 
0.0 0.0 -4.260900239826e+01 
-1.434294895909e+02 1.663021177675e+00 0.0 
1.663021177675e+00 -3.460739573186e+02 0.0 
0.0 0.0 -1.464510340729e+02 
-1.169489389920e+02 8.284229956177e+00 0.0 
8.284229956177e+00 -3.066680370156e+02 0.0 
0.0 0.0 -1.268530172131e+02 
-5.604229779297e+01 2.501573196211e+01 0.0 
2.501573196211e+01 -1.479162066954e+02 0.0 
0.0 0.0 -5.827834640419e+01 
-6.839936584742e+01 2.628852035898e-01 0.0 
2.628852035898e-01 -1.341860083926e+02 0.0 
0.0 0.0 -6.037561227200e+01 
-1.542316149688e+02 1.985864235241e+00 0.0 
1.985864235241e+00 -3.676857342780e+02 0.0 
0.0 0.0 -1.561752047740e+02 
-1.272416446350e+02 9.316957005374e+00 0.0 
9.316957005374e+00 -3.250292850629e+02 0.0 
0.0 0.0 -1.352812789094e+02 
-9.810371494721e+01 2.021015628903e+01 0.0 
2.021015628903e+01 -2.379060909329e+02 0.0 
0.0 0.0 -1.002806297416e+02 
-8.230310547630e+01 1.294884443478e+00 0.0 
1.294884443478e+00 -2.356004193729e+02 0.0 
0.0 0.0 -9.948420238635e+01 
-6.629277650895e+01 7.185391645876e+00 0.0 
7.185391645876e+00 -1.023613206704e+02 0.0 
0.0 0.0 -4.759004304570e+01 
-1.073070444571e+02 -2.934695441249e+00 0.0 
-2.934695441249e+00 -2.531237721119e+02 0.0 
0.0 0.0 -1.047934595206e+02 
-1.018026731325e+02 1.925435259527e+01 0.0 
1.925435259527e+01 -2.241670046878e+02 0.0 
0.0 0.0 -9.719062112033e+01 
-1.340763923937e+02 1.074594166761e+01 0.0 
1.074594166761e+01 -3.082012673478e+02 0.0 
0.0 0.0 -1.322832979224e+02 
-1.317898169464e+02 1.091147665795e+01 0.0 
1.091147665795e+01 -3.323862830413e+02 0.0 
0.0 0.0 -1.388528299963e+02 
-1.033443296277e+02 1.077220332567e+01 0.0 
1.077220332567e+01 -2.094232480064e+02 0.0 
0.0 0.0 -9.343027329024e+01 
-1.052619561212e+02 -3.573262326746e+00 0.0 
-3.573262326746e+00 -2.415982502412e+02 0.0 
0.0 0.0 -9.997055488864e+01 
-1.017175982804e+02 1.640388769189e+01 0.0 
1.640388769189e+01 -2.674252031463e+02 0.0 
0.0 0.0 -1.114374336654e+02 
-1.631136225069e+01 -6.666437396576e-01 0.0 
-6.666437396576e-01 -5.031978171373e+01 0.0 
0.0 0.0 -1.790352772914e+01 
-7.131347589919e+01 9.776168536299e+00 0.0 
9.776168536299e+00 -1.130976827108e+02 0.0 
0.0 0.0 -5.194970890176e+01 
-1.088041592562e+02 -2.815371939596e+00 0.0 
-2.815371939596e+00 -2.495539833230e+02 0.0 
0.0 0.0 -1.038532164164e+02 
-5.677795133784e+01 3.830558692061e+00 0.0 
3.830558692061e+00 -1.759222458029e+02 0.0 
0.0 0.0 -6.693564297897e+01 
-8.766376218621e+01 6.272476316936e-01 0.0 
6.272476316936e-01 -2.444186749458e+02 0.0 
0.0 0.0 -1.034657440427e+02 
-1.412828487020e+02 1.739702801296e+01 0.0 
1.739702801296e+01 -3.411451151174e+02 0.0 
0.0 0.0 -1.443283891458e+02 
-1.121859899880e+02 -2.106675388093e+00 0.0 
-2.106675388093e+00 -2.576426499498e+02 0.0 
0.0 0.0 -1.076695486163e+02 
-6.263878995291e+01 4.549060808004e+00 0.0 
4.549060808004e+00 -1.897513755325e+02 0.0 
0.0 0.0 -7.408881521205e+01 
-1.154043863427e+02 -1.464689178884e+00 0.0 
-1.464689178884e+00 -2.658038396237e+02 0.0 
0.0 0.0 -1.114387467034e+02 
-5.914548329521e+01 8.777168849721e+00 0.0 
8.777168849721e+00 -8.365309077060e+01 0.0 
0.0 0.0 -3.814316778087e+01 
-1.070413791772e+02 1.221081225752e+01 0.0 
1.221081225752e+01 -2.204923413034e+02 0.0 
0.0 0.0 -9.786011614418e+01 
-1.184647955035e+02 -8.960339589477e-01 0.0 
-8.960339589477e-01 -2.740099408771e+02 0.0 
0.0 0.0 -1.151876311768e+02 
-1.087023034087e+02 1.887139493303e+01 0.0 
1.887139493303e+01 -2.438913326669e+02 0.0 
0.0 0.0 -1.053780908227e+02 
-1.913195827955e+01 -1.536597741379e+00 0.0 
-1.536597741379e+00 -5.272529882027e+01 0.0 
0.0 0.0 -1.943126206932e+01 
-1.003848476721e+02 1.923452585597e+01 0.0 
1.923452585597e+01 -2.502059901375e+02 0.0 
0.0 0.0 -1.049990390238e+02 
-1.425996206041e+02 4.091102890531e-01 0.0 
4.091102890531e-01 -3.417262752156e+02 0.0 
0.0 0.0 -1.448977687459e+02 
-7.291253931225e+01 -1.251468150081e+01 0.0 
-1.251468150081e+01 -1.708678485065e+02 0.0 
0.0 0.0 -7.104329869590e+01 
-9.342133542624e+01 6.349176439842e-01 0.0 
6.349176439842e-01 -2.530659256666e+02 0.0 
0.0 0.0 -1.069816722604e+02 
-1.139777306090e+02 1.296993603297e+01 0.0 
1.296993603297e+01 -2.411619793562e+02 0.0 
0.0 0.0 -1.061419129895e+02 
-5.119389891953e+01 1.169948464088e+01 0.0 
1.169948464088e+01 -6.452189126445e+01 0.0 
0.0 0.0 -2.945596295981e+01 
-1.001702314055e+02 2.984973658562e+00 0.0 
2.984973658562e+00 -2.709084665644e+02 0.0 
0.0 0.0 -1.135675156203e+02 
-1.162121463215e+02 1.871990651257e+01 0.0 
1.871990651257e+01 -2.635857527342e+02 0.0 
0.0 0.0 -1.135393697167e+02 
-1.033439715974e+02 1.809850200053e+01 0.0 
1.809850200053e+01 -2.620620544625e+02 0.0 
0.0 0.0 -1.095416018954e+02 
-8.637877976209e+01 1.822444665583e+01 0.0 
1.822444665583e+01 -2.320479225890e+02 0.0 
0.0 0.0 -9.846933391087e+01 
-1.084951299574e+02 4.548633424831e+00 0.0 
4.548633424831e+00 -2.890992895284e+02 0.0 
0.0 0.0 -1.197470261352e+02 
-5.692528919167e+01 1.673664739348e+01 0.0 
1.673664739348e+01 -7.777409731426e+01 0.0 
0.0 0.0 -3.578071738538e+01 
-5.780787018745e+01 -1.226181664092e+01 0.0 
-1.226181664092e+01 -1.235487157697e+02 0.0 
0.0 0.0 -5.084698808967e+01 
-4.947808173101e+01 -1.151637964147e+01 0.0 
-1.151637964147e+01 -1.025934876404e+02 0.0 
0.0 0.0 -4.203011068295e+01 
-6.622229258512e+01 7.943455796995e-01 0.0 
7.943455796995e-01 -1.970069435049e+02 0.0 
0.0 0.0 -7.850442902628e+01 
-1.203414063170e+02 1.825833287694e+01 0.0 
1.825833287694e+01 -2.708774328229e+02 0.0 
0.0 0.0 -1.169656517420e+02 
-2.057254914962e+01 -9.477881233968e-01 0.0 
-9.477881233968e-01 -6.687358598715e+01 0.0 
0.0 0.0 -2.508779652025e+01 
-1.140569594089e+02 1.488379470145e+01 0.0 
1.488379470145e+01 -2.433072550487e+02 0.0 
0.0 0.0 -1.068092643373e+02 
-4.044911363244e+01 -9.519511519820e+00 0.0 
-9.519511519820e+00 -7.456536063907e+01 0.0 
0.0 0.0 -3.034759174818e+01 
-6.448966517004e+01 -3.782709533806e+00 0.0 
-3.782709533806e+00 -1.889628555661e+02 0.0 
0.0 0.0 -7.530305331033e+01 
-1.171274197802e+02 1.698216699964e+01 0.0 
1.698216699964e+01 -2.929100817234e+02 0.0 
0.0 0.0 -1.226112504511e+02 
-8.986043441076e+01 4.680412468309e-01 0.0 
4.680412468309e-01 -1.884330534179e+02 0.0 
0.0 0.0 -8.308804634860e+01 
-6.860296205987e+01 -6.278156637076e+00 0.0 
-6.278156637076e+00 -1.945832706659e+02 0.0 
0.0 0.0 -7.958942960977e+01 
-5.114331036702e+01 -9.093385832877e-01 0.0 
-9.093385832877e-01 -1.116431315705e+02 0.0 
0.0 0.0 -4.524140905746e+01 
-6.716663591652e+01 -9.878433432353e+00 0.0 
-9.878433432353e+00 -1.843610037583e+02 0.0 
0.0 0.0 -7.557237244821e+01 
-9.303032122977e+01 1.715999099042e+01 0.0 
1.715999099042e+01 -2.495555683934e+02 0.0 
0.0 0.0 -1.050177505933e+02 
-7.152803563976e+01 -1.091632857614e+01 0.0 
-1.091632857614e+01 -1.900067795706e+02 0.0 
0.0 0.0 -7.869098384364e+01 
-6.995119158952e+01 -1.303439720113e+01 0.0 
-1.303439720113e+01 -1.777432633001e+02 0.0 
0.0 0.0 -7.361874207761e+01 
-1.245244953806e+02 3.589117918769e+00 0.0 
3.589117918769e+00 -2.831683765325e+02 0.0 
0.0 0.0 -1.219078615739e+02 
-7.523157806121e+01 -1.180931987078e+01 0.0 
-1.180931987078e+01 -1.836320097671e+02 0.0 
0.0 0.0 -7.647991832023e+01 
-1.305496863302e+02 1.090613749212e+00 0.0 
1.090613749212e+00 -3.016685214917e+02 0.0 
0.0 0.0 -1.292654623466e+02 
-1.626121370080e+02 6.401280924297e-01 0.0 
6.401280924297e-01 -3.833088236760e+02 0.0 
0.0 0.0 -1.633762882052e+02 
-7.433860093902e+01 3.026482562976e-01 0.0 
3.026482562976e-01 -1.492158536732e+02 0.0 
0.0 0.0 -6.666633638365e+01 
-4.238406864534e+01 1.457723251200e+01 0.0 
1.457723251200e+01 -4.449637368135e+01 0.0 
0.0 0.0 -2.213606414335e+01 
-7.686936197287e+01 2.263501377724e+00 0.0 
2.263501377724e+00 -1.113867869138e+02 0.0 
0.0 0.0 -5.735659322920e+01 
-5.070423930342e+01 2.392238648007e+01 0.0 
2.392238648007e+01 -6.669439295519e+01 0.0 
0.0 0.0 -3.215652060145e+01 
-6.573848058628e+01 -1.432936931957e+01 0.0 
-1.432936931957e+01 -1.511526434855e+02 0.0 
0.0 0.0 -6.269950638961e+01 
-1.135961310861e+02 1.666412714844e+01 0.0 
1.666412714844e+01 -2.463329573214e+02 0.0 
0.0 0.0 -1.075787265223e+02 
-7.478256110334e+01 3.074741180602e-01 0.0 
3.074741180602e-01 -1.499693581522e+02 0.0 
0.0 0.0 -6.702557577665e+01 
-6.242896644846e+01 -1.368597031354e+01 0.0 
-1.368597031354e+01 -1.374076841913e+02 0.0 
0.0 0.0 -5.689312331339e+01 
-1.345037296512e+02 1.723385916769e+01 0.0 
1.723385916769e+01 -3.054818172417e+02 0.0 
0.0 0.0 -1.315956640679e+02 
-1.487206342514e+02 2.050317814467e+01 0.0 
2.050317814467e+01 -3.503784759307e+02 0.0 
0.0 0.0 -1.493297330546e+02 
-1.007956646107e+02 8.078187790221e-01 0.0 
8.078187790221e-01 -2.172818619004e+02 0.0 
0.0 0.0 -9.502325795332e+01 
-1.310467168440e+02 1.304787823396e+01 0.0 
1.304787823396e+01 -3.289063330041e+02 0.0 
0.0 0.0 -1.375859149544e+02 
-1.073404704963e+02 1.708552518019e+01 0.0 
1.708552518019e+01 -2.741391825588e+02 0.0 
0.0 0.0 -1.142712380775e+02 
-1.176344878494e+02 6.028145405350e-01 0.0 
6.028145405350e-01 -2.646617015472e+02 0.0 
0.0 0.0 -1.142888568190e+02 
-6.879706669573e+01 9.855999353763e-01 0.0 
9.855999353763e-01 -1.328357233768e+02 0.0 
0.0 0.0 -6.008983702176e+01 
-2.307552210603e+01 -3.553124784391e+00 0.0 
-3.553124784391e+00 -3.427347739128e+01 0.0 
0.0 0.0 -1.492198750027e+01 
-1.243706235712e+02 -1.663289711796e-01 0.0 
-1.663289711796e-01 -2.925518350285e+02 0.0 
0.0 0.0 -1.234116023377e+02 
-4.079029081010e+01 2.008764580780e+01 0.0 
2.008764580780e+01 -3.252586409617e+01 0.0 
0.0 0.0 -1.883109699836e+01 
-4.615344139507e+01 2.776488967397e+01 0.0 
2.776488967397e+01 -5.832075847064e+01 0.0 
0.0 0.0 -2.813893457136e+01 
-4.402278801084e+01 3.085512784262e+01 0.0 
3.085512784262e+01 -5.952734464033e+01 0.0 
0.0 0.0 -2.697656845453e+01 
-6.760366540272e+01 -3.032287602875e+00 0.0 
-3.032287602875e+00 -1.394136681483e+02 0.0 
0.0 0.0 -5.680869019598e+01 
-4.232718855420e+01 -1.548352141554e+01 0.0 
-1.548352141554e+01 -6.115475154978e+01 0.0 
0.0 0.0 -2.460466068773e+01 
-4.276063980120e+01 2.704063453187e+01 0.0 
2.704063453187e+01 -3.695161046371e+01 0.0 
0.0 0.0 -2.049168349683e+01 
-1.452504894437e+02 1.500735282207e+01 0.0 
1.500735282207e+01 -3.526452397691e+02 0.0 
0.0 0.0 -1.489687187638e+02 
-7.821681637393e+01 2.552377499851e+00 0.0 
2.552377499851e+00 -1.511381671180e+02 0.0 
0.0 0.0 -6.840649504758e+01 
-1.218255013477e+02 1.776746927772e+01 0.0 
1.776746927772e+01 -2.991736571185e+02 0.0 
0.0 0.0 -1.258997475399e+02 
-4.230924100946e+01 2.953635742055e+01 0.0 
2.953635742055e+01 -3.917392518974e+01 0.0 
0.0 0.0 -2.046566568696e+01 
-1.277611003230e+02 8.889062747507e+00 0.0 
8.889062747507e+00 -2.882975899508e+02 0.0 
0.0 0.0 -1.244176070821e+02 
-1.416552062248e+02 1.875830434660e+01 0.0 
1.875830434660e+01 -3.387600180927e+02 0.0 
0.0 0.0 -1.437245672952e+02 
-1.623579317477e+02 4.702007756386e+00 0.0 
4.702007756386e+00 -3.849644027118e+02 0.0 
0.0 0.0 -1.637967003379e+02 
-1.313333461108e+02 1.806498299056e+01 0.0 
1.806498299056e+01 -3.181765438904e+02 0.0 
0.0 0.0 -1.344529670004e+02 
-4.342831808542e+01 3.321346743846e+01 0.0 
3.321346743846e+01 -6.392843894242e+01 0.0 
0.0 0.0 -2.780341211358e+01 
-8.795564014304e+01 5.580733614236e+00 0.0 
5.580733614236e+00 -1.699398876938e+02 0.0 
0.0 0.0 -7.696865835105e+01 
-1.378687651862e+02 1.985395145964e+01 0.0 
1.985395145964e+01 -3.201828508841e+02 0.0 
0.0 0.0 -1.370154848211e+02 
-1.069084070088e+02 1.259181080542e+00 0.0 
1.259181080542e+00 -2.331470326817e+02 0.0 
0.0 0.0 -1.016166319071e+02 
-1.636091703770e+02 3.104445889743e+00 0.0 
3.104445889743e+00 -3.864190995740e+02 0.0 
0.0 0.0 -1.646084809853e+02 
-7.879595898611e+01 3.287814496366e+00 0.0 
3.287814496366e+00 -1.494044216453e+02 0.0 
0.0 0.0 -6.806011418941e+01 
-1.249946442435e+02 2.280964301717e+00 0.0 
2.280964301717e+00 -2.854216464351e+02 0.0 
0.0 0.0 -1.227248872036e+02 
-3.926181520251e+01 -1.471896475347e+01 0.0 
-1.471896475347e+01 -1.210791980385e+02 0.0 
0.0 0.0 -4.505528204882e+01 
-1.248707761766e+02 1.124099004737e+00 0.0 
1.124099004737e+00 -2.854506986355e+02 0.0 
0.0 0.0 -1.226964424436e+02 
-1.206435703185e+02 1.705021070353e+01 0.0 
1.705021070353e+01 -2.665885313721e+02 0.0 
0.0 0.0 -1.157696305072e+02 
-8.502698965971e+01 1.009851139094e+00 0.0 
1.009851139094e+00 -1.742209417728e+02 0.0 
0.0 0.0 -7.737437942976e+01 
-8.927915090877e+01 7.112909256532e+00 0.0 
7.112909256532e+00 -1.708945903509e+02 0.0 
0.0 0.0 -7.765212237791e+01 
-1.565125084818e+02 9.042898045231e-01 0.0 
9.042898045231e-01 -3.708103690729e+02 0.0 
0.0 0.0 -1.577968632664e+02 
-1.324514346317e+02 1.530656425605e+01 0.0 
1.530656425605e+01 -2.993996669703e+02 0.0 
0.0 0.0 -1.291553304806e+02 
-4.252217559264e+01 3.478046966204e+01 0.0 
3.478046966204e+01 -7.072227689036e+01 0.0 
0.0 0.0 -3.165827001976e+01 
-1.007538144578e+02 9.668649623570e-01 0.0 
9.668649623570e-01 -2.162491337539e+02 0.0 
0.0 0.0 -9.470088446349e+01 
-8.455837398622e+01 -3.862918571845e+00 0.0 
-3.862918571845e+00 -1.751653727890e+02 0.0 
0.0 0.0 -7.192890880285e+01 
-4.146185104572e+01 -1.993776738521e+01 0.0 
-1.993776738521e+01 -1.050197579824e+02 0.0 
0.0 0.0 -4.528139793860e+01 
-1.524997382435e+02 5.702045146717e+00 0.0 
5.702045146717e+00 -3.681853420730e+02 0.0 
0.0 0.0 -1.558055240950e+02 
-1.271511123844e+02 1.749828903446e+01 0.0 
1.749828903446e+01 -2.856826721982e+02 0.0 
0.0 0.0 -1.234501353748e+02 
-1.555003879751e+02 1.480635313329e+00 0.0 
1.480635313329e+00 -3.697315667491e+02 0.0 
0.0 0.0 -1.571695864173e+02 
-1.484803274411e+01 -2.478677742020e-01 0.0 
-2.478677742020e-01 -4.960521241915e+01 0.0 
0.0 0.0 -1.725603204406e+01 
-1.636473776139e+01 -9.837942594626e-01 0.0 
-9.837942594626e-01 -3.119985192399e+01 0.0 
0.0 0.0 -1.277381778179e+01 
-1.526429152124e+02 7.936483793891e+00 0.0 
7.936483793891e+00 -3.692782600310e+02 0.0 
0.0 0.0 -1.561763525730e+02 
-1.368476246549e+02 1.880914014676e+01 0.0 
1.880914014676e+01 -3.139511281934e+02 0.0 
0.0 0.0 -1.348396258545e+02 
-4.498016520778e+01 -1.744745869992e+01 0.0 
-1.744745869992e+01 -1.188208718452e+02 0.0 
0.0 0.0 -4.360054931704e+01 
-1.332548077641e+02 7.670218504066e+00 0.0 
7.670218504066e+00 -3.076638923173e+02 0.0 
0.0 0.0 -1.318756100244e+02 
-4.434936148715e+01 3.723706165172e+01 0.0 
3.723706165172e+01 -7.659053570312e+01 0.0 
0.0 0.0 -3.721260178227e+01 
-6.888175750075e+01 1.097398156965e+00 0.0 
1.097398156965e+00 -1.308462643390e+02 0.0 
0.0 0.0 -5.951840655194e+01 
-1.425927302776e+01 -5.029565111415e-01 0.0 
-5.029565111415e-01 -3.222602758788e+01 0.0 
0.0 0.0 -1.171525273363e+01 
-1.636770204704e+02 2.593269763800e+00 0.0 
2.593269763800e+00 -3.861072536224e+02 0.0 
0.0 0.0 -1.645352822278e+02 
-1.265608712071e+02 5.622156726245e+00 0.0 
5.622156726245e+00 -2.877990472425e+02 0.0 
0.0 0.0 -1.239079755349e+02 
-9.243307666124e+01 -2.566620878306e+00 0.0 
-2.566620878306e+00 -1.923356010713e+02 0.0 
0.0 0.0 -8.002070410863e+01 
-7.682526685166e+01 5.230388448035e+00 0.0 
5.230388448035e+00 -1.391660108120e+02 0.0 
0.0 0.0 -6.433533844404e+01 
-5.961655561751e+01 -1.981366473127e+00 0.0 
-1.981366473127e+00 -1.257365207036e+02 0.0 
0.0 0.0 -5.121947273173e+01 
-1.337181528119e+02 1.929209107440e+01 0.0 
1.929209107440e+01 -3.164989975257e+02 0.0 
0.0 0.0 -1.346651451013e+02 
-3.285273952455e+01 -7.394801519321e+00 0.0 
-7.394801519321e+00 -4.971634651970e+01 0.0 
0.0 0.0 -2.064514642780e+01 
-1.265852668369e+02 4.303935942785e+00 0.0 
4.303935942785e+00 -2.889958089186e+02 0.0 
0.0 0.0 -1.242743227267e+02 
-1.515171141102e+02 1.042775717663e+01 0.0 
1.042775717663e+01 -3.671725217337e+02 0.0 
0.0 0.0 -1.552068907532e+02 
-1.309942341979e+02 1.175724301969e+01 0.0 
1.175724301969e+01 -2.963182528790e+02 0.0 
0.0 0.0 -1.277937461230e+02 
-1.552624301084e+02 1.784487901684e+01 0.0 
1.784487901684e+01 -3.678616460814e+02 0.0 
0.0 0.0 -1.565372228570e+02 
-4.791192749238e+01 1.227402343754e+01 0.0 
1.227402343754e+01 -1.154643507797e+02 0.0 
0.0 0.0 -5.054415983492e+01 
-1.432300570050e+02 1.958884861393e+01 0.0 
1.958884861393e+01 -3.402103942168e+02 0.0 
0.0 0.0 -1.446321353665e+02 
-1.404074531458e+02 1.150732939036e+01 0.0 
1.150732939036e+01 -3.474909129097e+02 0.0 
0.0 0.0 -1.459695098167e+02 
-6.816440984107e+01 3.140552606924e-01 0.0 
3.140552606924e-01 -1.326001678311e+02 0.0 
0.0 0.0 -5.982937330164e+01 
-1.315247470207e+02 1.344586765496e+01 0.0 
1.344586765496e+01 -2.968464829453e+02 0.0 
0.0 0.0 -1.281113689898e+02 
-7.613002396835e+01 -2.951070767644e+00 0.0 
-2.951070767644e+00 -1.558147614746e+02 0.0 
0.0 0.0 -6.407462631869e+01 
-2.323621386513e+01 -2.335664800188e+00 0.0 
-2.335664800188e+00 -6.615981727364e+01 0.0 
0.0 0.0 -2.482411167346e+01 
-1.311622810448e+02 6.314652351034e-01 0.0 
6.314652351034e-01 -3.036879991495e+02 0.0 
0.0 0.0 -1.300550840583e+02 
-1.079902962065e+01 -5.266399977090e-02 0.0 
-5.266399977090e-02 -1.411641493863e+01 0.0 
0.0 0.0 -5.638432388838e+00 
-6.702716032450e+01 1.617870724509e-01 0.0 
1.617870724509e-01 -1.314997109584e+02 0.0 
0.0 0.0 -5.915806138487e+01 
-1.646980660462e+02 1.188890320209e-01 0.0 
1.188890320209e-01 -3.874560072941e+02 0.0 
0.0 0.0 -1.652462220021e+02 
-1.913559658443e+01 -1.253512790548e+00 0.0 
-1.253512790548e+00 -6.300643016950e+01 0.0 
0.0 0.0 -2.342255346180e+01 
-8.027736061925e+01 4.662616403241e-01 0.0 
4.662616403241e-01 -1.636678459913e+02 0.0 
0.0 0.0 -7.278356198318e+01 
-1.363783064217e+02 1.821179469109e+01 0.0 
1.821179469109e+01 -3.116026835839e+02 0.0 
0.0 0.0 -1.339942970017e+02 
-1.081585503504e+02 -5.211266466439e-01 0.0 
-5.211266466439e-01 -2.357475454757e+02 0.0 
0.0 0.0 -9.896495459920e+01 
-1.136651035959e+02 1.142414974459e+00 0.0 
1.142414974459e+00 -2.531910455077e+02 0.0 
0.0 0.0 -1.096568447311e+02 
-4.717782368001e+01 -1.972600403859e+01 0.0 
-1.972600403859e+01 -8.227918519000e+01 0.0 
0.0 0.0 -3.226443206909e+01 
-8.020765274345e+01 -6.840699123440e+00 0.0 
-6.840699123440e+00 -1.074213363961e+02 0.0 
0.0 0.0 -5.703421965957e+01 
-9.392712938062e+01 7.218537608245e-01 0.0 
7.218537608245e-01 -1.988533595478e+02 0.0 
0.0 0.0 -8.743414667853e+01 
-1.442172242046e+02 1.817156111738e+01 0.0 
1.817156111738e+01 -3.455168916076e+02 0.0 
0.0 0.0 -1.465202347437e+02 
-1.299799623833e+02 9.894388385168e+00 0.0 
9.894388385168e+00 -2.947124246220e+02 0.0 
0.0 0.0 -1.270077161016e+02 
-8.909744266388e+01 9.150854707452e-01 0.0 
9.150854707452e-01 -1.851110519800e+02 0.0 
0.0 0.0 -8.186254839318e+01 
-3.904651463239e+01 3.043605934443e+01 0.0 
3.043605934443e+01 -9.121312451807e+01 0.0 
0.0 0.0 -3.685177974112e+01 
-1.326266418615e+02 1.801102721338e+01 0.0 
1.801102721338e+01 -3.012973333396e+02 0.0 
0.0 0.0 -1.297771925603e+02 
-9.832220749039e+01 -2.239386716789e+00 0.0 
-2.239386716789e+00 -2.079170840776e+02 0.0 
0.0 0.0 -8.680275650363e+01 
-1.333556747304e+02 1.964016680807e+01 0.0 
1.964016680807e+01 -3.101702046495e+02 0.0 
0.0 0.0 -1.326577638140e+02 
-1.391025340531e+02 1.383135107643e+01 0.0 
1.383135107643e+01 -3.430202784243e+02 0.0 
0.0 0.0 -1.442368437432e+02 
-5.321939467471e+01 3.747891513001e+01 0.0 
3.747891513001e+01 -6.015634462757e+01 0.0 
0.0 0.0 -3.484720751638e+01 
-1.135554825692e+02 -3.970274035908e-01 0.0 
-3.970274035908e-01 -2.532970956358e+02 0.0 
0.0 0.0 -1.064817177884e+02 
-1.443736337118e+01 -3.156132347652e-01 0.0 
-3.156132347652e-01 -3.018198288704e+01 0.0 
0.0 0.0 -1.155833138736e+01 
-1.560731851952e+02 3.953747592586e+00 0.0 
3.953747592586e+00 -3.731512194554e+02 0.0 
0.0 0.0 -1.583673213952e+02 
-1.015711118555e+02 -1.465888934731e+00 0.0 
-1.465888934731e+00 -2.164271258668e+02 0.0 
0.0 0.0 -9.058555783269e+01 
-2.377185785383e+01 6.251172903036e+00 0.0 
6.251172903036e+00 -7.791388344548e+00 0.0 
0.0 0.0 -5.966881728389e+00 
-1.611100992742e+01 6.269109470225e-02 0.0 
6.269109470225e-02 -1.043404376893e+01 0.0 
0.0 0.0 -7.563516108906e+00 
-3.164710469333e+01 7.291954096903e+00 0.0 
7.291954096903e+00 -3.039016821907e+01 0.0 
0.0 0.0 -1.406738822701e+01 
-2.364858430322e+01 -1.522690032727e-02 0.0 
-1.522690032727e-02 -2.891372603718e+01 0.0 
0.0 0.0 -1.536869310212e+01 
-4.153102471114e+01 5.877983957549e+00 0.0 
5.877983957549e+00 -5.106249155874e+01 0.0 
0.0 0.0 -2.271989885905e+01 
-3.237564660338e+01 -1.304549575297e-02 0.0 
-1.304549575297e-02 -4.957664499290e+01 0.0 
0.0 0.0 -2.418568747889e+01 
-5.088728177978e+01 4.784334891549e+00 0.0 
4.784334891549e+00 -7.079486744943e+01 0.0 
0.0 0.0 -3.301837263995e+01 
-4.020692513981e+01 -1.768016000528e-02 0.0 
-1.768016000528e-02 -6.801561333887e+01 0.0 
0.0 0.0 -3.206676154360e+01 
-5.901892022705e+01 4.222069281822e+00 0.0 
4.222069281822e+00 -9.002620083752e+01 0.0 
0.0 0.0 -4.250978690748e+01 
-4.907538847483e+01 -5.829598174228e-02 0.0 
-5.829598174228e-02 -8.867102289235e+01 0.0 
0.0 0.0 -4.092392341016e+01 
-6.596516195470e+01 4.150294919748e+00 0.0 
4.150294919748e+00 -1.093449241906e+02 0.0 
0.0 0.0 -5.153531292745e+01 
-5.674227968244e+01 -1.369789783160e-01 0.0 
-1.369789783160e-01 -1.070803791208e+02 0.0 
0.0 0.0 -4.874679764098e+01 

TENSORS node_materi_strain_total float
2.490047476119e-03 -2.816270399573e-05 0.0 
-2.816270399573e-05 -9.381413657422e-04 0.0 
0.0 0.0 0.0 
-1.385928723870e-03 -1.359512150717e-05 0.0 
-1.359512150717e-05 8.689461740389e-03 0.0 
0.0 0.0 0.0 
-9.828459938432e-05 -4.618781391921e-05 0.0 
-4.618781391921e-05 6.027960236539e-03 0.0 
0.0 0.0 0.0 
-9.951178589562e-05 4.424547417362e-05 0.0 
4.424547417362e-05 1.180813841046e-02 0.0 
0.0 0.0 0.0 
1.934935087681e-03 -4.383742513744e-05 0.0 
-4.383742513744e-05 -5.298984933194e-04 0.0 
0.0 0.0 0.0 
1.294792252660e-03 -2.788675306154e-05 0.0 
-2.788675306154e-05 1.629031227941e-04 0.0 
0.0 0.0 0.0 
6.145011023266e-04 -5.195760286191e-05 0.0 
-5.195760286191e-05 8.133195175946e-04 0.0 
0.0 0.0 0.0 
1.015871260242e-05 -7.067906052897e-05 0.0 
-7.067906052897e-05 1.480308460661e-03 0.0 
0.0 0.0 0.0 
-5.214197454210e-04 -9.706264937211e-05 0.0 
-9.706264937211e-05 2.039864567437e-03 0.0 
0.0 0.0 0.0 
-9.050803587588e-04 -1.066954213290e-04 0.0 
-1.066954213290e-04 2.493730978032e-03 0.0 
0.0 0.0 0.0 
-1.175722154940e-03 -1.152538792151e-04 0.0 
-1.152538792151e-04 2.870625115734e-03 0.0 
0.0 0.0 0.0 
-1.343528090728e-03 -1.233967602607e-04 0.0 
-1.233967602607e-04 3.178925371964e-03 0.0 
0.0 0.0 0.0 
-1.418709747562e-03 -1.250010445135e-04 0.0 
-1.250010445135e-04 3.438571699837e-03 0.0 
0.0 0.0 0.0 
-1.427931788182e-03 -1.187210425580e-04 0.0 
-1.187210425580e-04 3.670368946591e-03 0.0 
0.0 0.0 0.0 
-1.383312512072e-03 -9.958375195182e-05 0.0 
-9.958375195182e-05 3.888772144144e-03 0.0 
0.0 0.0 0.0 
-1.309402918627e-03 -6.926512200001e-05 0.0 
-6.926512200001e-05 4.110258570847e-03 0.0 
0.0 0.0 0.0 
-1.212133766799e-03 -7.227957899248e-05 0.0 
-7.227957899248e-05 4.328481206871e-03 0.0 
0.0 0.0 0.0 
-1.091050846343e-03 -8.057869402309e-05 0.0 
-8.057869402309e-05 4.555262924990e-03 0.0 
0.0 0.0 0.0 
-9.571673987180e-04 -6.729495833261e-05 0.0 
-6.729495833261e-05 4.814513155184e-03 0.0 
0.0 0.0 0.0 
-8.140550012460e-04 -5.635015466096e-05 0.0 
-5.635015466096e-05 5.079872989955e-03 0.0 
0.0 0.0 0.0 
-6.551614012779e-04 -4.665796267270e-05 0.0 
-4.665796267270e-05 5.354138765451e-03 0.0 
0.0 0.0 0.0 
-4.734337015292e-04 -4.107219927016e-05 0.0 
-4.107219927016e-05 5.629269423822e-03 0.0 
0.0 0.0 0.0 
-2.788440665383e-04 -3.641452096665e-05 0.0 
-3.641452096665e-05 5.880710821950e-03 0.0 
0.0 0.0 0.0 
-7.230784359942e-05 1.523996643229e-04 0.0 
1.523996643229e-04 1.180792197891e-02 0.0 
0.0 0.0 0.0 
-7.833282115462e-05 2.788460544490e-04 0.0 
2.788460544490e-04 1.178110433916e-02 0.0 
0.0 0.0 0.0 
-7.786114208312e-05 4.038870552625e-04 0.0 
4.038870552625e-04 1.177135555830e-02 0.0 
0.0 0.0 0.0 
-7.525306527275e-05 5.571699783146e-04 0.0 
5.571699783146e-04 1.174175222759e-02 0.0 
0.0 0.0 0.0 
-9.253606798165e-05 6.877967185386e-04 0.0 
6.877967185386e-04 1.170163203599e-02 0.0 
0.0 0.0 0.0 
-8.423643337474e-05 8.442165017283e-04 0.0 
8.442165017283e-04 1.166755522814e-02 0.0 
0.0 0.0 0.0 
-9.418776153251e-05 1.007118484045e-03 0.0 
1.007118484045e-03 1.160835574313e-02 0.0 
0.0 0.0 0.0 
-9.514146227974e-05 1.178803027097e-03 0.0 
1.178803027097e-03 1.152876114108e-02 0.0 
0.0 0.0 0.0 
-9.727925144417e-05 1.344001973201e-03 0.0 
1.344001973201e-03 1.145304491382e-02 0.0 
0.0 0.0 0.0 
-8.871277570936e-05 1.532982427987e-03 0.0 
1.532982427987e-03 1.134582904612e-02 0.0 
0.0 0.0 0.0 
-1.136268417659e-04 1.706394746376e-03 0.0 
1.706394746376e-03 1.122462750880e-02 0.0 
0.0 0.0 0.0 
-1.033533365340e-04 1.905190701181e-03 0.0 
1.905190701181e-03 1.109001609206e-02 0.0 
0.0 0.0 0.0 
-1.109543170021e-04 2.107492674689e-03 0.0 
2.107492674689e-03 1.092087068263e-02 0.0 
0.0 0.0 0.0 
-1.032651414185e-04 2.303471646332e-03 0.0 
2.303471646332e-03 1.072891973502e-02 0.0 
0.0 0.0 0.0 
-1.144420591624e-04 2.496931890523e-03 0.0 
2.496931890523e-03 1.051493144249e-02 0.0 
0.0 0.0 0.0 
-1.055281026529e-04 2.684314249525e-03 0.0 
2.684314249525e-03 1.026141581324e-02 0.0 
0.0 0.0 0.0 
-1.109727975799e-04 2.867731074208e-03 0.0 
2.867731074208e-03 9.986509427100e-03 0.0 
0.0 0.0 0.0 
-1.036937535387e-04 3.052979024819e-03 0.0 
3.052979024819e-03 9.676384293578e-03 0.0 
0.0 0.0 0.0 
-8.537542627170e-05 3.210816986090e-03 0.0 
3.210816986090e-03 9.345076710455e-03 0.0 
0.0 0.0 0.0 
-6.298623964070e-05 3.346647167700e-03 0.0 
3.346647167700e-03 8.987957805395e-03 0.0 
0.0 0.0 0.0 
-3.817688534150e-05 3.449258841815e-03 0.0 
3.449258841815e-03 8.593156848268e-03 0.0 
0.0 0.0 0.0 
-2.725623219032e-05 3.512642995773e-03 0.0 
3.512642995773e-03 8.183428248414e-03 0.0 
0.0 0.0 0.0 
1.224770880048e-06 3.536883774222e-03 0.0 
3.536883774222e-03 7.754973959341e-03 0.0 
0.0 0.0 0.0 
2.633377970070e-05 3.511292028609e-03 0.0 
3.511292028609e-03 7.320917674459e-03 0.0 
0.0 0.0 0.0 
4.931867425724e-05 3.440879967414e-03 0.0 
3.440879967414e-03 6.896842632583e-03 0.0 
0.0 0.0 0.0 
7.938370125952e-05 3.326214124300e-03 0.0 
3.326214124300e-03 6.484321725153e-03 0.0 
0.0 0.0 0.0 
9.317755522124e-05 3.158867435908e-03 0.0 
3.158867435908e-03 6.086902021627e-03 0.0 
0.0 0.0 0.0 
1.298057625448e-04 2.947092165118e-03 0.0 
2.947092165118e-03 5.720594869408e-03 0.0 
0.0 0.0 0.0 
1.390610649052e-04 2.693205525166e-03 0.0 
2.693205525166e-03 5.384367249209e-03 0.0 
0.0 0.0 0.0 
1.376381210956e-04 2.416353831890e-03 0.0 
2.416353831890e-03 5.122714979630e-03 0.0 
0.0 0.0 0.0 
1.575473855130e-04 2.117766255807e-03 0.0 
2.117766255807e-03 4.851562543196e-03 0.0 
0.0 0.0 0.0 
1.914540195520e-04 1.797403615373e-03 0.0 
1.797403615373e-03 4.603678130001e-03 0.0 
0.0 0.0 0.0 
1.903357345737e-04 1.434133658053e-03 0.0 
1.434133658053e-03 4.438312274541e-03 0.0 
0.0 0.0 0.0 
1.853187100537e-04 1.097190371825e-03 0.0 
1.097190371825e-03 4.366357930371e-03 0.0 
0.0 0.0 0.0 
1.815684403355e-04 7.711301128842e-04 0.0 
7.711301128842e-04 4.322116125386e-03 0.0 
0.0 0.0 0.0 
1.465744897058e-04 4.575514621308e-04 0.0 
4.575514621308e-04 4.338160142525e-03 0.0 
0.0 0.0 0.0 
1.514468516561e-04 1.857318793976e-04 0.0 
1.857318793976e-04 4.407936703470e-03 0.0 
0.0 0.0 0.0 
1.146329531036e-04 -6.150705435280e-05 0.0 
-6.150705435280e-05 4.497428662481e-03 0.0 
0.0 0.0 0.0 
1.112698167255e-04 -2.607073066338e-04 0.0 
-2.607073066338e-04 4.622609525886e-03 0.0 
0.0 0.0 0.0 
7.374375306683e-05 -4.200031456256e-04 0.0 
-4.200031456256e-04 4.774097254765e-03 0.0 
0.0 0.0 0.0 
4.973411308569e-05 -5.313478248215e-04 0.0 
-5.313478248215e-04 4.959856011505e-03 0.0 
0.0 0.0 0.0 
2.527670097304e-05 -5.941034713591e-04 0.0 
-5.941034713591e-04 5.170935952259e-03 0.0 
0.0 0.0 0.0 
4.946789473159e-06 -6.197883664340e-04 0.0 
-6.197883664340e-04 5.339067825646e-03 0.0 
0.0 0.0 0.0 
-2.429734038267e-05 -6.010672810491e-04 0.0 
-6.010672810491e-04 5.466340971493e-03 0.0 
0.0 0.0 0.0 
-3.324282442433e-05 -5.499525725245e-04 0.0 
-5.499525725245e-04 5.664903475394e-03 0.0 
0.0 0.0 0.0 
-5.251528049188e-05 -4.774187506873e-04 0.0 
-4.774187506873e-04 5.772136073464e-03 0.0 
0.0 0.0 0.0 
-5.438152257342e-05 -3.915944536337e-04 0.0 
-3.915944536337e-04 5.881615190045e-03 0.0 
0.0 0.0 0.0 
-6.340874285782e-05 -2.664223536181e-04 0.0 
-2.664223536181e-04 5.970609177290e-03 0.0 
0.0 0.0 0.0 
-7.090899467547e-05 -1.545410286017e-04 0.0 
-1.545410286017e-04 6.014325437378e-03 0.0 
0.0 0.0 0.0 
-1.365149228561e-03 -4.254965341785e-06 0.0 
-4.254965341785e-06 9.104977281248e-03 0.0 
0.0 0.0 0.0 
-1.330962168960e-03 -4.350645926654e-07 0.0 
-4.350645926654e-07 9.500575373496e-03 0.0 
0.0 0.0 0.0 
-1.265628649823e-03 3.801328714384e-06 0.0 
3.801328714384e-06 9.871464219448e-03 0.0 
0.0 0.0 0.0 
-1.172255915310e-03 8.767807590097e-06 0.0 
8.767807590097e-06 1.021535529060e-02 0.0 
0.0 0.0 0.0 
-1.049879675407e-03 1.509909365309e-05 0.0 
1.509909365309e-05 1.054467736788e-02 0.0 
0.0 0.0 0.0 
-8.987062022512e-04 2.029120638151e-05 0.0 
2.029120638151e-05 1.085324047091e-02 0.0 
0.0 0.0 0.0 
-7.212477914607e-04 2.443489279630e-05 0.0 
2.443489279630e-05 1.113971667173e-02 0.0 
0.0 0.0 0.0 
-5.088999198873e-04 3.130239822573e-05 0.0 
3.130239822573e-05 1.140712650675e-02 0.0 
0.0 0.0 0.0 
-2.923076516596e-04 3.311650640539e-05 0.0 
3.311650640539e-05 1.165882688920e-02 0.0 
0.0 0.0 0.0 
-2.204494073529e-03 2.942033216860e-03 0.0 
2.942033216860e-03 -2.083922461680e-03 0.0 
0.0 0.0 0.0 
-2.106711781544e-03 9.539284627029e-04 0.0 
9.539284627029e-04 8.398782484390e-03 0.0 
0.0 0.0 0.0 
-1.871986244964e-03 3.511224168826e-03 0.0 
3.511224168826e-03 7.926558297474e-04 0.0 
0.0 0.0 0.0 
-1.417534891772e-03 3.318677487638e-03 0.0 
3.318677487638e-03 2.079790762140e-03 0.0 
0.0 0.0 0.0 
-1.396154107240e-03 3.228312009488e-03 0.0 
3.228312009488e-03 3.298518722355e-03 0.0 
0.0 0.0 0.0 
-1.742059812883e-03 2.420187453997e-03 0.0 
2.420187453997e-03 4.892752075745e-03 0.0 
0.0 0.0 0.0 
-1.351821712543e-03 1.685389440688e-03 0.0 
1.685389440688e-03 5.583567984645e-03 0.0 
0.0 0.0 0.0 
-1.457786722743e-03 1.532704894776e-03 0.0 
1.532704894776e-03 6.048515510970e-03 0.0 
0.0 0.0 0.0 
-1.695114316552e-03 1.339315040641e-03 0.0 
1.339315040641e-03 6.635763157728e-03 0.0 
0.0 0.0 0.0 
-1.906138558153e-03 1.152637594598e-03 0.0 
1.152637594598e-03 7.239490264262e-03 0.0 
0.0 0.0 0.0 
-2.044390341146e-03 1.025471355702e-03 0.0 
1.025471355702e-03 7.829192448584e-03 0.0 
0.0 0.0 0.0 
-1.158247141010e-03 -3.612849553358e-05 0.0 
-3.612849553358e-05 6.138017588869e-03 0.0 
0.0 0.0 0.0 
-1.191791174327e-03 -3.158759141774e-05 0.0 
-3.158759141774e-05 6.424525626818e-03 0.0 
0.0 0.0 0.0 
-1.239448859826e-03 -4.112971027848e-05 0.0 
-4.112971027848e-05 6.883522164941e-03 0.0 
0.0 0.0 0.0 
-1.287922606207e-03 -3.211849511494e-05 0.0 
-3.211849511494e-05 7.342952346961e-03 0.0 
0.0 0.0 0.0 
-1.333142112365e-03 -3.636831834288e-05 0.0 
-3.636831834288e-05 7.798041853537e-03 0.0 
0.0 0.0 0.0 
-1.365006057809e-03 -2.229832136492e-05 0.0 
-2.229832136492e-05 8.240776767486e-03 0.0 
0.0 0.0 0.0 
-1.381184600341e-03 1.523644439840e-05 0.0 
1.523644439840e-05 8.631022969582e-03 0.0 
0.0 0.0 0.0 
-1.391316101993e-03 1.670936777916e-05 0.0 
1.670936777916e-05 8.660150225559e-03 0.0 
0.0 0.0 0.0 
-1.413356414232e-03 2.716572442991e-05 0.0 
2.716572442991e-05 8.666913348416e-03 0.0 
0.0 0.0 0.0 
-1.441861907579e-03 3.869325923486e-05 0.0 
3.869325923486e-05 8.665888528641e-03 0.0 
0.0 0.0 0.0 
-1.473865970854e-03 6.865884020219e-05 0.0 
6.865884020219e-05 8.725034664583e-03 0.0 
0.0 0.0 0.0 
-1.515707044919e-03 8.443395599616e-05 0.0 
8.443395599616e-05 8.681854094707e-03 0.0 
0.0 0.0 0.0 
-1.567953671989e-03 1.126572246643e-04 0.0 
1.126572246643e-04 8.680227887293e-03 0.0 
0.0 0.0 0.0 
-1.619072027700e-03 1.554468797668e-04 0.0 
1.554468797668e-04 8.682683237001e-03 0.0 
0.0 0.0 0.0 
-1.690429715773e-03 2.092275896389e-04 0.0 
2.092275896389e-04 8.690708942250e-03 0.0 
0.0 0.0 0.0 
-1.763442021978e-03 2.784301468718e-04 0.0 
2.784301468718e-04 8.678253212490e-03 0.0 
0.0 0.0 0.0 
-1.836328188537e-03 3.660937347654e-04 0.0 
3.660937347654e-04 8.655053655154e-03 0.0 
0.0 0.0 0.0 
-1.909661718470e-03 4.727931475250e-04 0.0 
4.727931475250e-04 8.618857960141e-03 0.0 
0.0 0.0 0.0 
-1.975945139209e-03 6.055460492864e-04 0.0 
6.055460492864e-04 8.562092584284e-03 0.0 
0.0 0.0 0.0 
-2.033510844351e-03 7.624563741913e-04 0.0 
7.624563741913e-04 8.490249476868e-03 0.0 
0.0 0.0 0.0 
-3.070902046389e-03 1.329250460438e-03 0.0 
1.329250460438e-03 -3.095098497388e-03 0.0 
0.0 0.0 0.0 
-3.919306624576e-03 2.917474450889e-04 0.0 
2.917474450889e-04 -3.123327302599e-03 0.0 
0.0 0.0 0.0 
-4.332818388094e-03 -1.871025079180e-04 0.0 
-1.871025079180e-04 -2.959247980600e-03 0.0 
0.0 0.0 0.0 
-3.924984586911e-03 -8.853277929923e-04 0.0 
-8.853277929923e-04 -2.695294626721e-03 0.0 
0.0 0.0 0.0 
-2.759684050161e-03 -1.844442843575e-03 0.0 
-1.844442843575e-03 -1.248375434026e-03 0.0 
0.0 0.0 0.0 
-1.689535240895e-03 -1.382686463724e-03 0.0 
-1.382686463724e-03 1.717895064994e-04 0.0 
0.0 0.0 0.0 
-7.524671964332e-04 -4.298270358878e-04 0.0 
-4.298270358878e-04 2.516401744788e-04 0.0 
0.0 0.0 0.0 
-3.296966132359e-04 -1.431428143981e-04 0.0 
-1.431428143981e-04 2.331882628284e-04 0.0 
0.0 0.0 0.0 
-9.053907188716e-05 -9.335252890128e-05 0.0 
-9.335252890128e-05 1.964939027156e-04 0.0 
0.0 0.0 0.0 
2.123351002712e-04 -1.429461282998e-04 0.0 
-1.429461282998e-04 9.296104317021e-05 0.0 
0.0 0.0 0.0 
5.265267065158e-04 -1.575701673669e-04 0.0 
-1.575701673669e-04 -5.267640809503e-05 0.0 
0.0 0.0 0.0 
8.903248074722e-04 -1.783041549990e-04 0.0 
-1.783041549990e-04 -2.231474138168e-04 0.0 
0.0 0.0 0.0 
1.286255050921e-03 -1.683591784669e-04 0.0 
-1.683591784669e-04 -4.074681708189e-04 0.0 
0.0 0.0 0.0 
1.634555862910e-03 -1.610205348975e-04 0.0 
-1.610205348975e-04 -5.619023710698e-04 0.0 
0.0 0.0 0.0 
1.887637800257e-03 -1.278326208225e-04 0.0 
-1.278326208225e-04 -6.661731061246e-04 0.0 
0.0 0.0 0.0 
2.108133763786e-03 -9.638781247349e-05 0.0 
-9.638781247349e-05 -7.566205980582e-04 0.0 
0.0 0.0 0.0 
2.277949201799e-03 -7.633096495717e-05 0.0 
-7.633096495717e-05 -8.288039162008e-04 0.0 
0.0 0.0 0.0 
2.423335355694e-03 -4.627993258200e-05 0.0 
-4.627993258200e-05 -9.061723841831e-04 0.0 
0.0 0.0 0.0 
2.532620963145e-03 1.880402625354e-05 0.0 
1.880402625354e-05 -9.494732481032e-04 0.0 
0.0 0.0 0.0 
-1.153798685629e-03 -4.939576695682e-06 0.0 
-4.939576695682e-06 6.191799073834e-03 0.0 
0.0 0.0 0.0 
-1.098668620984e-03 -4.820264451666e-05 0.0 
-4.820264451666e-05 6.173056663376e-03 0.0 
0.0 0.0 0.0 
-1.089284862262e-03 -7.762330688654e-05 0.0 
-7.762330688654e-05 6.164192084538e-03 0.0 
0.0 0.0 0.0 
-1.078874958835e-03 -1.015779501127e-04 0.0 
-1.015779501127e-04 6.158096294350e-03 0.0 
0.0 0.0 0.0 
-1.064037038414e-03 -1.242477210917e-04 0.0 
-1.242477210917e-04 6.150194239474e-03 0.0 
0.0 0.0 0.0 
-1.044215642900e-03 -1.456972211638e-04 0.0 
-1.456972211638e-04 6.139808319350e-03 0.0 
0.0 0.0 0.0 
-1.019309148269e-03 -1.657650827364e-04 0.0 
-1.657650827364e-04 6.126825926231e-03 0.0 
0.0 0.0 0.0 
-9.891939820167e-04 -1.837136365738e-04 0.0 
-1.837136365738e-04 6.111084656432e-03 0.0 
0.0 0.0 0.0 
-9.541260694029e-04 -1.985226347953e-04 0.0 
-1.985226347953e-04 6.092675379152e-03 0.0 
0.0 0.0 0.0 
-9.147630774496e-04 -2.092924426306e-04 0.0 
-2.092924426306e-04 6.071821614226e-03 0.0 
0.0 0.0 0.0 
-8.715839138624e-04 -2.147466113473e-04 0.0 
-2.147466113473e-04 6.048349063343e-03 0.0 
0.0 0.0 0.0 
-8.252744447276e-04 -2.128822029916e-04 0.0 
-2.128822029916e-04 6.021699102330e-03 0.0 
0.0 0.0 0.0 
-7.777489542816e-04 -2.004294880436e-04 0.0 
-2.004294880436e-04 5.991578656403e-03 0.0 
0.0 0.0 0.0 
-7.335106828981e-04 -1.726146422015e-04 0.0 
-1.726146422015e-04 5.958524793074e-03 0.0 
0.0 0.0 0.0 
-6.897805578200e-04 -1.269256340818e-04 0.0 
-1.269256340818e-04 5.920069604062e-03 0.0 
0.0 0.0 0.0 
-6.401717172682e-04 -5.755593372822e-05 0.0 
-5.755593372822e-05 5.873858207358e-03 0.0 
0.0 0.0 0.0 
-5.847226105179e-04 3.580017501589e-05 0.0 
3.580017501589e-05 5.817045266308e-03 0.0 
0.0 0.0 0.0 
-5.422351430484e-04 1.539364230090e-04 0.0 
1.539364230090e-04 5.750364127803e-03 0.0 
0.0 0.0 0.0 
-5.253249660069e-04 3.047612327091e-04 0.0 
3.047612327091e-04 5.675703287271e-03 0.0 
0.0 0.0 0.0 
-5.488557919115e-04 4.869855747290e-04 0.0 
4.869855747290e-04 5.585499998282e-03 0.0 
0.0 0.0 0.0 
-6.227943079207e-04 7.361062806532e-04 0.0 
7.361062806532e-04 5.500394923382e-03 0.0 
0.0 0.0 0.0 
-8.630625419775e-04 1.044929961826e-03 0.0 
1.044929961826e-03 5.442853526872e-03 0.0 
0.0 0.0 0.0 
-1.391765021718e-03 1.294306941662e-03 0.0 
1.294306941662e-03 5.552540081582e-03 0.0 
0.0 0.0 0.0 
-1.088287610469e-03 1.143638001829e-03 0.0 
1.143638001829e-03 5.688022395007e-03 0.0 
0.0 0.0 0.0 
-1.025961393907e-03 9.191382473045e-04 0.0 
9.191382473045e-04 5.807473295734e-03 0.0 
0.0 0.0 0.0 
-9.418493218241e-04 6.014908428707e-04 0.0 
6.014908428707e-04 5.918936904062e-03 0.0 
0.0 0.0 0.0 
-9.312458491380e-04 3.859176786715e-04 0.0 
3.859176786715e-04 6.017557657560e-03 0.0 
0.0 0.0 0.0 
-9.335029464900e-04 2.182532985678e-04 0.0 
2.182532985678e-04 6.095837322143e-03 0.0 
0.0 0.0 0.0 
-9.488833645408e-04 8.530774040089e-05 0.0 
8.530774040089e-05 6.156127975087e-03 0.0 
0.0 0.0 0.0 
-9.715548168002e-04 -1.632819899484e-05 0.0 
-1.632819899484e-05 6.205446019604e-03 0.0 
0.0 0.0 0.0 
-9.922893993686e-04 -9.102899802367e-05 0.0 
-9.102899802367e-05 6.245085742340e-03 0.0 
0.0 0.0 0.0 
-1.009023611713e-03 -1.429728032592e-04 0.0 
-1.429728032592e-04 6.275379683576e-03 0.0 
0.0 0.0 0.0 
-1.019697149808e-03 -1.742621226212e-04 0.0 
-1.742621226212e-04 6.298177486991e-03 0.0 
0.0 0.0 0.0 
-1.034534053823e-03 -1.897179890588e-04 0.0 
-1.897179890588e-04 6.317690707425e-03 0.0 
0.0 0.0 0.0 
-1.051337835044e-03 -1.940588617707e-04 0.0 
-1.940588617707e-04 6.334447267361e-03 0.0 
0.0 0.0 0.0 
-1.068680638874e-03 -1.904598441560e-04 0.0 
-1.904598441560e-04 6.349243898432e-03 0.0 
0.0 0.0 0.0 
-1.085601939181e-03 -1.809397298939e-04 0.0 
-1.809397298939e-04 6.362547608422e-03 0.0 
0.0 0.0 0.0 
-1.101133867271e-03 -1.666480463983e-04 0.0 
-1.666480463983e-04 6.374235436142e-03 0.0 
0.0 0.0 0.0 
-1.114463727055e-03 -1.487611757122e-04 0.0 
-1.487611757122e-04 6.383894651781e-03 0.0 
0.0 0.0 0.0 
-1.125307242477e-03 -1.285619511912e-04 0.0 
-1.285619511912e-04 6.391670478839e-03 0.0 
0.0 0.0 0.0 
-1.133643293331e-03 -1.064930963805e-04 0.0 
-1.064930963805e-04 6.397917079823e-03 0.0 
0.0 0.0 0.0 
-1.139640987576e-03 -8.273387639266e-05 0.0 
-8.273387639266e-05 6.402888441260e-03 0.0 
0.0 0.0 0.0 
-1.144384270959e-03 -5.761653487422e-05 0.0 
-5.761653487422e-05 6.407720943701e-03 0.0 
0.0 0.0 0.0 
-1.159683305620e-03 -3.289567588774e-05 0.0 
-3.289567588774e-05 6.416112125385e-03 0.0 
0.0 0.0 0.0 
-1.187041981277e-03 3.897132581874e-06 0.0 
3.897132581874e-06 6.424193979459e-03 0.0 
0.0 0.0 0.0 
-1.236105241777e-03 -1.307671497322e-05 0.0 
-1.307671497322e-05 6.884015322357e-03 0.0 
0.0 0.0 0.0 
-1.226358283863e-03 -4.759572235236e-05 0.0 
-4.759572235236e-05 6.882749284354e-03 0.0 
0.0 0.0 0.0 
-1.226220780279e-03 -7.452310721373e-05 0.0 
-7.452310721373e-05 6.880537406687e-03 0.0 
0.0 0.0 0.0 
-1.228488149975e-03 -9.841213599607e-05 0.0 
-9.841213599607e-05 6.878758715597e-03 0.0 
0.0 0.0 0.0 
-1.232983366091e-03 -1.211933251755e-04 0.0 
-1.211933251755e-04 6.877383080588e-03 0.0 
0.0 0.0 0.0 
-1.238840078064e-03 -1.425568001158e-04 0.0 
-1.425568001158e-04 6.875725436209e-03 0.0 
0.0 0.0 0.0 
-1.244933620144e-03 -1.617170244837e-04 0.0 
-1.617170244837e-04 6.873114750812e-03 0.0 
0.0 0.0 0.0 
-1.252312483840e-03 -1.769565145365e-04 0.0 
-1.769565145365e-04 6.869134577893e-03 0.0 
0.0 0.0 0.0 
-1.261366545023e-03 -1.862292367044e-04 0.0 
-1.862292367044e-04 6.863887886513e-03 0.0 
0.0 0.0 0.0 
-1.272900872113e-03 -1.877470521839e-04 0.0 
-1.877470521839e-04 6.857813336014e-03 0.0 
0.0 0.0 0.0 
-1.288370559567e-03 -1.793067142007e-04 0.0 
-1.793067142007e-04 6.850287437660e-03 0.0 
0.0 0.0 0.0 
-1.308934420364e-03 -1.573453142418e-04 0.0 
-1.573453142418e-04 6.839854477844e-03 0.0 
0.0 0.0 0.0 
-1.335898067685e-03 -1.164659380144e-04 0.0 
-1.164659380144e-04 6.824036363016e-03 0.0 
0.0 0.0 0.0 
-1.356648173319e-03 -5.023384733635e-05 0.0 
-5.023384733635e-05 6.797556803469e-03 0.0 
0.0 0.0 0.0 
-1.362829630826e-03 4.438046910568e-05 0.0 
4.438046910568e-05 6.756018985923e-03 0.0 
0.0 0.0 0.0 
-1.368793645410e-03 1.708378225621e-04 0.0 
1.708378225621e-04 6.701744466333e-03 0.0 
0.0 0.0 0.0 
-1.377626285977e-03 3.358143157524e-04 0.0 
3.358143157524e-04 6.629708077736e-03 0.0 
0.0 0.0 0.0 
-1.381757511303e-03 5.517489400972e-04 0.0 
5.517489400972e-04 6.534767306418e-03 0.0 
0.0 0.0 0.0 
-1.411667650817e-03 8.618520551011e-04 0.0 
8.618520551011e-04 6.407622667511e-03 0.0 
0.0 0.0 0.0 
-1.399253773750e-03 1.099731275503e-03 0.0 
1.099731275503e-03 6.238598796730e-03 0.0 
0.0 0.0 0.0 
-1.685819714309e-03 9.786092766828e-04 0.0 
9.786092766828e-04 6.815033218284e-03 0.0 
0.0 0.0 0.0 
-1.707080220257e-03 7.727820755632e-04 0.0 
7.727820755632e-04 6.991406705468e-03 0.0 
0.0 0.0 0.0 
-1.683378224531e-03 5.083175763693e-04 0.0 
5.083175763693e-04 7.109642436577e-03 0.0 
0.0 0.0 0.0 
-1.671514251647e-03 3.244431035944e-04 0.0 
3.244431035944e-04 7.198307991158e-03 0.0 
0.0 0.0 0.0 
-1.653242352559e-03 1.844426326558e-04 0.0 
1.844426326558e-04 7.265770632001e-03 0.0 
0.0 0.0 0.0 
-1.623587784917e-03 7.771840436915e-05 0.0 
7.771840436915e-05 7.310649991349e-03 0.0 
0.0 0.0 0.0 
-1.574771615748e-03 2.171182460907e-07 0.0 
2.171182460907e-07 7.337673791096e-03 0.0 
0.0 0.0 0.0 
-1.525334315960e-03 -5.269643117966e-05 0.0 
-5.269643117966e-05 7.351069916858e-03 0.0 
0.0 0.0 0.0 
-1.482316924258e-03 -8.597806861756e-05 0.0 
-8.597806861756e-05 7.357826408038e-03 0.0 
0.0 0.0 0.0 
-1.445529695549e-03 -1.046920620483e-04 0.0 
-1.046920620483e-04 7.361001307787e-03 0.0 
0.0 0.0 0.0 
-1.413423605011e-03 -1.115545588598e-04 0.0 
-1.115545588598e-04 7.362210548992e-03 0.0 
0.0 0.0 0.0 
-1.383894125942e-03 -1.096716587190e-04 0.0 
-1.096716587190e-04 7.361056501241e-03 0.0 
0.0 0.0 0.0 
-1.359136430942e-03 -1.026591830135e-04 0.0 
-1.026591830135e-04 7.358601070551e-03 0.0 
0.0 0.0 0.0 
-1.337824485080e-03 -9.204105644426e-05 0.0 
-9.204105644426e-05 7.355620537698e-03 0.0 
0.0 0.0 0.0 
-1.318991001234e-03 -7.892280167196e-05 0.0 
-7.892280167196e-05 7.352483125911e-03 0.0 
0.0 0.0 0.0 
-1.305174279485e-03 -6.400644964529e-05 0.0 
-6.400644964529e-05 7.350481492493e-03 0.0 
0.0 0.0 0.0 
-1.296097949072e-03 -4.821754914353e-05 0.0 
-4.821754914353e-05 7.349454750096e-03 0.0 
0.0 0.0 0.0 
-1.290446954797e-03 -3.335165794224e-05 0.0 
-3.335165794224e-05 7.347758430350e-03 0.0 
0.0 0.0 0.0 
-1.289259617684e-03 1.379654781012e-06 0.0 
1.379654781012e-06 7.344883294128e-03 0.0 
0.0 0.0 0.0 
-1.335416661539e-03 -4.786536821076e-06 0.0 
-4.786536821076e-06 7.800664475002e-03 0.0 
0.0 0.0 0.0 
-1.343322478681e-03 -2.967050506480e-05 0.0 
-2.967050506480e-05 7.804742611110e-03 0.0 
0.0 0.0 0.0 
-1.356095165576e-03 -4.169417698634e-05 0.0 
-4.169417698634e-05 7.807892900887e-03 0.0 
0.0 0.0 0.0 
-1.374241302459e-03 -4.940241594690e-05 0.0 
-4.940241594690e-05 7.811608098114e-03 0.0 
0.0 0.0 0.0 
-1.398198692644e-03 -5.369510004685e-05 0.0 
-5.369510004685e-05 7.816405404755e-03 0.0 
0.0 0.0 0.0 
-1.429271518861e-03 -5.526500888297e-05 0.0 
-5.526500888297e-05 7.822605665326e-03 0.0 
0.0 0.0 0.0 
-1.465735264010e-03 -5.151814258192e-05 0.0 
-5.151814258192e-05 7.828555684543e-03 0.0 
0.0 0.0 0.0 
-1.511022295338e-03 -4.275195988749e-05 0.0 
-4.275195988749e-05 7.834403974172e-03 0.0 
0.0 0.0 0.0 
-1.559516428634e-03 -2.525438947211e-05 0.0 
-2.525438947211e-05 7.836490574309e-03 0.0 
0.0 0.0 0.0 
-1.611438141268e-03 3.863393016226e-06 0.0 
3.863393016226e-06 7.834702018968e-03 0.0 
0.0 0.0 0.0 
-1.666300141206e-03 4.709492652314e-05 0.0 
4.709492652314e-05 7.827198189968e-03 0.0 
0.0 0.0 0.0 
-1.727711337714e-03 1.104888541699e-04 0.0 
1.104888541699e-04 7.811306028870e-03 0.0 
0.0 0.0 0.0 
-1.792848406957e-03 1.978229002637e-04 0.0 
1.978229002637e-04 7.782884404323e-03 0.0 
0.0 0.0 0.0 
-1.847704006748e-03 3.126491082886e-04 0.0 
3.126491082886e-04 7.731130417603e-03 0.0 
0.0 0.0 0.0 
-1.872523268172e-03 4.654138973999e-04 0.0 
4.654138973999e-04 7.653981216743e-03 0.0 
0.0 0.0 0.0 
-1.903460293739e-03 6.867307176339e-04 0.0 
6.867307176339e-04 7.555229458776e-03 0.0 
0.0 0.0 0.0 
-1.898092722351e-03 8.579485563548e-04 0.0 
8.579485563548e-04 7.390182001013e-03 0.0 
0.0 0.0 0.0 
-2.022505343376e-03 7.880548601052e-04 0.0 
7.880548601052e-04 7.938518282937e-03 0.0 
0.0 0.0 0.0 
-2.009102994236e-03 6.517650532961e-04 0.0 
6.517650532961e-04 8.091571762883e-03 0.0 
0.0 0.0 0.0 
-1.954320427261e-03 4.756977815270e-04 0.0 
4.756977815270e-04 8.171551870121e-03 0.0 
0.0 0.0 0.0 
-1.888386508351e-03 3.540692189577e-04 0.0 
3.540692189577e-04 8.223094577025e-03 0.0 
0.0 0.0 0.0 
-1.819897303595e-03 2.571151067331e-04 0.0 
2.571151067331e-04 8.256070852492e-03 0.0 
0.0 0.0 0.0 
-1.752644945228e-03 1.816337616066e-04 0.0 
1.816337616066e-04 8.274282726820e-03 0.0 
0.0 0.0 0.0 
-1.687199233347e-03 1.231968361789e-04 0.0 
1.231968361789e-04 8.281701398079e-03 0.0 
0.0 0.0 0.0 
-1.622563271391e-03 7.795878301873e-05 0.0 
7.795878301873e-05 8.282478053156e-03 0.0 
0.0 0.0 0.0 
-1.563273712316e-03 4.730774225304e-05 0.0 
4.730774225304e-05 8.278998051610e-03 0.0 
0.0 0.0 0.0 
-1.513900881617e-03 2.332440466957e-05 0.0 
2.332440466957e-05 8.272044916061e-03 0.0 
0.0 0.0 0.0 
-1.471294839283e-03 9.640175013566e-06 0.0 
9.640175013566e-06 8.266168055986e-03 0.0 
0.0 0.0 0.0 
-1.437615089102e-03 -1.141837067433e-06 0.0 
-1.141837067433e-06 8.259523912822e-03 0.0 
0.0 0.0 0.0 
-1.410612044374e-03 -5.509151057559e-06 0.0 
-5.509151057559e-06 8.255773467154e-03 0.0 
0.0 0.0 0.0 
-1.388577614412e-03 -7.461234412057e-06 0.0 
-7.461234412057e-06 8.250167822456e-03 0.0 
0.0 0.0 0.0 
-1.374095818037e-03 -1.014899849360e-05 0.0 
-1.014899849360e-05 8.249168209959e-03 0.0 
0.0 0.0 0.0 
-1.371990958544e-03 1.434212167362e-05 0.0 
1.434212167362e-05 8.250531294897e-03 0.0 
0.0 0.0 0.0 
-2.019280277548e-03 4.083895490988e-03 0.0 
4.083895490988e-03 -2.914312649131e-04 0.0 
0.0 0.0 0.0 
-1.545414631386e-03 3.326244056416e-03 0.0 
3.326244056416e-03 1.430274816028e-03 0.0 
0.0 0.0 0.0 
-1.354819175491e-03 3.276134580169e-03 0.0 
3.276134580169e-03 2.686750816037e-03 0.0 
0.0 0.0 0.0 
-1.647446581646e-03 3.107782682873e-03 0.0 
3.107782682873e-03 3.993855576181e-03 0.0 
0.0 0.0 0.0 
-1.602828107281e-03 1.931044163719e-03 0.0 
1.931044163719e-03 5.422639976754e-03 0.0 
0.0 0.0 0.0 
-1.394208637132e-03 1.688167501507e-03 0.0 
1.688167501507e-03 5.814311478325e-03 0.0 
0.0 0.0 0.0 
-1.604122193368e-03 1.485206433342e-03 0.0 
1.485206433342e-03 6.375781184506e-03 0.0 
0.0 0.0 0.0 
-1.829443092507e-03 1.280750231281e-03 0.0 
1.280750231281e-03 6.976154398993e-03 0.0 
0.0 0.0 0.0 
-2.001830614079e-03 1.116065950518e-03 0.0 
1.116065950518e-03 7.576264021589e-03 0.0 
0.0 0.0 0.0 
-2.094773437859e-03 1.015178837372e-03 0.0 
1.015178837372e-03 8.146252257476e-03 0.0 
0.0 0.0 0.0 
-1.111954492650e-03 3.558300247242e-03 0.0 
3.558300247242e-03 1.377507434456e-03 0.0 
0.0 0.0 0.0 
5.570706119567e-04 1.228210102830e-03 0.0 
1.228210102830e-03 4.025584457382e-03 0.0 
0.0 0.0 0.0 
-2.552879207219e-04 -3.907726117579e-04 0.0 
-3.907726117579e-04 3.673520687075e-04 0.0 
0.0 0.0 0.0 
-1.567129221769e-03 -1.875345070373e-03 0.0 
-1.875345070373e-03 -2.760599991316e-03 0.0 
0.0 0.0 0.0 
3.312633649917e-04 -1.714566216130e-04 0.0 
-1.714566216130e-04 4.266449143570e-03 0.0 
0.0 0.0 0.0 
-1.400058911939e-03 3.118151847087e-03 0.0 
3.118151847087e-03 4.061765110530e-03 0.0 
0.0 0.0 0.0 
-1.392455417761e-03 -2.488653679680e-04 0.0 
-2.488653679680e-04 3.763040825426e-03 0.0 
0.0 0.0 0.0 
4.815451366980e-04 2.508890960091e-03 0.0 
2.508890960091e-03 4.836406332614e-03 0.0 
0.0 0.0 0.0 
-1.465903389834e-03 2.162179908531e-03 0.0 
2.162179908531e-03 5.751458140553e-03 0.0 
0.0 0.0 0.0 
1.994863832036e-04 3.332609998498e-03 0.0 
3.332609998498e-03 6.425669678287e-03 0.0 
0.0 0.0 0.0 
-1.902218661856e-03 1.568071772574e-03 0.0 
1.568071772574e-03 7.101566469473e-03 0.0 
0.0 0.0 0.0 
4.125627339772e-05 -6.152191303681e-04 0.0 
-6.152191303681e-04 5.088025365335e-03 0.0 
0.0 0.0 0.0 
1.126154370501e-03 -2.833994149690e-04 0.0 
-2.833994149690e-04 -2.341359511076e-04 0.0 
0.0 0.0 0.0 
-9.883258279125e-05 3.427705339622e-03 0.0 
3.427705339622e-03 8.246818005899e-03 0.0 
0.0 0.0 0.0 
-2.117352593991e-03 1.239102077455e-03 0.0 
1.239102077455e-03 8.364955545963e-03 0.0 
0.0 0.0 0.0 
-1.059012508096e-03 -2.012459613040e-04 0.0 
-2.012459613040e-04 2.692603269466e-03 0.0 
0.0 0.0 0.0 
-1.145326020873e-03 -2.167102003913e-04 0.0 
-2.167102003913e-04 4.364492933179e-03 0.0 
0.0 0.0 0.0 
-2.680293871455e-04 3.075852518575e-03 0.0 
3.075852518575e-03 9.411791507607e-03 0.0 
0.0 0.0 0.0 
-3.147739563790e-04 2.347844543436e-03 0.0 
2.347844543436e-03 1.056302307234e-02 0.0 
0.0 0.0 0.0 
-2.530496388321e-04 7.541177777914e-04 0.0 
7.541177777914e-04 1.159317913269e-02 0.0 
0.0 0.0 0.0 
-3.136808435103e-04 1.236296072294e-03 0.0 
1.236296072294e-03 1.138976468034e-02 0.0 
0.0 0.0 0.0 
-3.071779508593e-04 1.775109566188e-03 0.0 
1.775109566188e-03 1.108648913386e-02 0.0 
0.0 0.0 0.0 
-2.003619939626e-03 8.583662771301e-04 0.0 
8.583662771301e-04 8.829963476503e-03 0.0 
0.0 0.0 0.0 
-1.725110949159e-03 3.694241665245e-04 0.0 
3.694241665245e-04 9.038694965521e-03 0.0 
0.0 0.0 0.0 
-1.544395858559e-03 1.891267173433e-04 0.0 
1.891267173433e-04 9.090483892826e-03 0.0 
0.0 0.0 0.0 
-1.114246716804e-03 5.685006362690e-05 0.0 
5.685006362690e-05 1.038654497262e-02 0.0 
0.0 0.0 0.0 
-1.191053516633e-04 -5.280874288447e-04 0.0 
-5.280874288447e-04 5.573804602082e-03 0.0 
0.0 0.0 0.0 
-1.671410736806e-03 1.045334098051e-03 0.0 
1.045334098051e-03 -3.719419423580e-03 0.0 
0.0 0.0 0.0 
1.804013669326e-03 -1.460364893532e-04 0.0 
-1.460364893532e-04 -5.010367953220e-04 0.0 
0.0 0.0 0.0 
-7.238433100351e-04 -1.378691295065e-04 0.0 
-1.378691295065e-04 5.185308981453e-03 0.0 
0.0 0.0 0.0 
-1.418733073232e-03 7.416920884870e-05 0.0 
7.416920884870e-05 9.034710474710e-03 0.0 
0.0 0.0 0.0 
3.068281268023e-04 -1.018876275274e-04 0.0 
-1.018876275274e-04 1.155188889166e-03 0.0 
0.0 0.0 0.0 
-3.504909270510e-04 2.693774111633e-03 0.0 
2.693774111633e-03 1.003996888884e-02 0.0 
0.0 0.0 0.0 
3.256375518225e-04 3.017198494994e-03 0.0 
3.017198494994e-03 5.624060699450e-03 0.0 
0.0 0.0 0.0 
3.805157716515e-05 3.473840484855e-03 0.0 
3.473840484855e-03 7.349935761283e-03 0.0 
0.0 0.0 0.0 
5.837127952645e-04 1.942410634029e-03 0.0 
1.942410634029e-03 4.304816166757e-03 0.0 
0.0 0.0 0.0 
4.729107082932e-04 5.865280465383e-04 0.0 
5.865280465383e-04 3.989407730970e-03 0.0 
0.0 0.0 0.0 
-1.244581538436e-03 -1.607817451685e-03 0.0 
-1.607817451685e-03 4.435558796444e-04 0.0 
0.0 0.0 0.0 
-1.870883695347e-03 5.661684203016e-04 0.0 
5.661684203016e-04 8.963091695175e-03 0.0 
0.0 0.0 0.0 
2.070731705087e-04 -4.894284722670e-04 0.0 
-4.894284722670e-04 4.559847590916e-03 0.0 
0.0 0.0 0.0 
-8.222267056629e-04 8.375066782010e-05 0.0 
8.375066782010e-05 1.099178208350e-02 0.0 
0.0 0.0 0.0 
3.917340276297e-04 -2.942656854999e-04 0.0 
-2.942656854999e-04 1.036063081283e-04 0.0 
0.0 0.0 0.0 
-1.377743907108e-03 -2.476914218699e-04 0.0 
-2.476914218699e-04 3.293726986972e-03 0.0 
0.0 0.0 0.0 
-2.067580698485e-04 4.731910138699e-04 0.0 
4.731910138699e-04 1.169242297442e-02 0.0 
0.0 0.0 0.0 
-1.307084702004e-03 2.653373465909e-03 0.0 
2.653373465909e-03 4.988494628453e-03 0.0 
0.0 0.0 0.0 
-1.086757304862e-03 3.468401924787e-03 0.0 
3.468401924787e-03 2.708552692909e-03 0.0 
0.0 0.0 0.0 
-1.691188693574e-03 1.852923717621e-03 0.0 
1.852923717621e-03 6.429321662165e-03 0.0 
0.0 0.0 0.0 
-2.045807239084e-03 1.370353023707e-03 0.0 
1.370353023707e-03 7.753351987476e-03 0.0 
0.0 0.0 0.0 
-1.486165796017e-03 3.951978836501e-03 0.0 
3.951978836501e-03 -2.597166200860e-04 0.0 
0.0 0.0 0.0 
-1.296742519032e-03 3.710674289467e-05 0.0 
3.710674289467e-05 9.718963383667e-03 0.0 
0.0 0.0 0.0 
-1.572406737640e-04 -3.324978275018e-04 0.0 
-3.324978275018e-04 5.855383842478e-03 0.0 
0.0 0.0 0.0 
2.064918823461e-03 -5.284077138095e-05 0.0 
-5.284077138095e-05 -6.360098293280e-04 0.0 
0.0 0.0 0.0 
-4.039308192298e-04 1.202041542749e-04 0.0 
1.202041542749e-04 1.151684482093e-02 0.0 
0.0 0.0 0.0 
-2.109110560452e-03 1.198749804045e-03 0.0 
1.198749804045e-03 8.620414446691e-03 0.0 
0.0 0.0 0.0 
-2.071092784647e-03 1.455645510869e-03 0.0 
1.455645510869e-03 8.589799368137e-03 0.0 
0.0 0.0 0.0 
-2.016575849295e-03 1.341379631358e-03 0.0 
1.341379631358e-03 8.879406950495e-03 0.0 
0.0 0.0 0.0 
-1.954992635843e-03 1.651093531398e-03 0.0 
1.651093531398e-03 8.785880184007e-03 0.0 
0.0 0.0 0.0 
-1.882513697727e-03 1.541721543562e-03 0.0 
1.541721543562e-03 9.087222120121e-03 0.0 
0.0 0.0 0.0 
-1.794641060855e-03 1.804402617322e-03 0.0 
1.804402617322e-03 8.970678877565e-03 0.0 
0.0 0.0 0.0 
-1.853029180941e-03 1.934867558089e-03 0.0 
1.934867558089e-03 8.640621808959e-03 0.0 
0.0 0.0 0.0 
-1.669739510035e-03 2.067324646660e-03 0.0 
2.067324646660e-03 8.806390515035e-03 0.0 
0.0 0.0 0.0 
-1.701528221618e-03 2.215484264939e-03 0.0 
2.215484264939e-03 8.431038930443e-03 0.0 
0.0 0.0 0.0 
-1.725717731675e-03 1.701353572609e-03 0.0 
1.701353572609e-03 9.283268630552e-03 0.0 
0.0 0.0 0.0 
-1.504241594650e-03 2.319695575820e-03 0.0 
2.319695575820e-03 8.588373102205e-03 0.0 
0.0 0.0 0.0 
-1.505079751232e-03 2.479349444089e-03 0.0 
2.479349444089e-03 8.162825946817e-03 0.0 
0.0 0.0 0.0 
-1.301880892264e-03 2.554450053265e-03 0.0 
2.554450053265e-03 8.318856611684e-03 0.0 
0.0 0.0 0.0 
-1.268356949223e-03 2.717966790838e-03 0.0 
2.717966790838e-03 7.842002616742e-03 0.0 
0.0 0.0 0.0 
-1.460151358561e-03 2.656979276837e-03 0.0 
2.656979276837e-03 7.693766874219e-03 0.0 
0.0 0.0 0.0 
-1.189220650170e-03 2.903448714165e-03 0.0 
2.903448714165e-03 7.317115185531e-03 0.0 
0.0 0.0 0.0 
-1.363662727992e-03 2.827187483480e-03 0.0 
2.827187483480e-03 7.174969652736e-03 0.0 
0.0 0.0 0.0 
-1.052557549164e-03 3.081760881888e-03 0.0 
3.081760881888e-03 6.736790823281e-03 0.0 
0.0 0.0 0.0 
-8.830887221532e-04 3.099840700121e-03 0.0 
3.099840700121e-03 6.898835248929e-03 0.0 
0.0 0.0 0.0 
-7.019676058815e-04 3.276729980252e-03 0.0 
3.276729980252e-03 6.254549277287e-03 0.0 
0.0 0.0 0.0 
-8.557036671790e-04 3.246257775355e-03 0.0 
3.246257775355e-03 6.099719878819e-03 0.0 
0.0 0.0 0.0 
-4.638128722425e-04 3.434351709396e-03 0.0 
3.434351709396e-03 5.552687635534e-03 0.0 
0.0 0.0 0.0 
-6.100512772498e-04 3.410678375906e-03 0.0 
3.410678375906e-03 5.411805998779e-03 0.0 
0.0 0.0 0.0 
-1.732627191125e-04 3.571770262567e-03 0.0 
3.571770262567e-03 4.799300042462e-03 0.0 
0.0 0.0 0.0 
-3.091494133755e-04 3.564812002769e-03 0.0 
3.564812002769e-03 4.671662683971e-03 0.0 
0.0 0.0 0.0 
1.724266006257e-04 3.683042830161e-03 0.0 
3.683042830161e-03 3.998106517772e-03 0.0 
0.0 0.0 0.0 
2.807761284670e-04 3.648602602149e-03 0.0 
3.648602602149e-03 4.179005839592e-03 0.0 
0.0 0.0 0.0 
6.639679683929e-04 3.710606365260e-03 0.0 
3.710606365260e-03 3.329212340628e-03 0.0 
0.0 0.0 0.0 
5.728800117221e-04 3.754808776587e-03 0.0 
3.754808776587e-03 3.165093470641e-03 0.0 
0.0 0.0 0.0 
1.091899239750e-03 3.711942641891e-03 0.0 
3.711942641891e-03 2.464051816381e-03 0.0 
0.0 0.0 0.0 
1.007258367733e-03 3.767499262986e-03 0.0 
3.767499262986e-03 2.326983419114e-03 0.0 
0.0 0.0 0.0 
1.563370105891e-03 3.651125991012e-03 0.0 
3.651125991012e-03 1.601360888393e-03 0.0 
0.0 0.0 0.0 
1.586836051776e-03 3.581522569758e-03 0.0 
3.581522569758e-03 1.816623001306e-03 0.0 
0.0 0.0 0.0 
2.106871724787e-03 3.467921947342e-03 0.0 
3.467921947342e-03 9.201848435588e-04 0.0 
0.0 0.0 0.0 
2.127035545462e-03 3.583773842719e-03 0.0 
3.583773842719e-03 6.902992272766e-04 0.0 
0.0 0.0 0.0 
2.720731833475e-03 3.337747311488e-03 0.0 
3.337747311488e-03 -3.599703294553e-05 0.0 
0.0 0.0 0.0 
2.746458581700e-03 3.493535040329e-03 0.0 
3.493535040329e-03 -2.439595100134e-04 0.0 
0.0 0.0 0.0 
3.333971924103e-03 3.120352130737e-03 0.0 
3.120352130737e-03 -9.298279459453e-04 0.0 
0.0 0.0 0.0 
3.347082512918e-03 3.265154755136e-03 0.0 
3.265154755136e-03 -1.067924776484e-03 0.0 
0.0 0.0 0.0 
3.880360137444e-03 2.761095972809e-03 0.0 
2.761095972809e-03 -1.672780824629e-03 0.0 
0.0 0.0 0.0 
3.787388793629e-03 2.637521364391e-03 0.0 
2.637521364391e-03 -1.478042235928e-03 0.0 
0.0 0.0 0.0 
4.240953663672e-03 2.172857029146e-03 0.0 
2.172857029146e-03 -2.122308982760e-03 0.0 
0.0 0.0 0.0 
4.306297404127e-03 2.281781004969e-03 0.0 
2.281781004969e-03 -2.307768111725e-03 0.0 
0.0 0.0 0.0 
4.549666360278e-03 1.600804647884e-03 0.0 
1.600804647884e-03 -2.619623311898e-03 0.0 
0.0 0.0 0.0 
4.413490586191e-03 1.549435263741e-03 0.0 
1.549435263741e-03 -2.394665290523e-03 0.0 
0.0 0.0 0.0 
4.587958416724e-03 9.275914527138e-04 0.0 
9.275914527138e-04 -2.747994974743e-03 0.0 
0.0 0.0 0.0 
4.395060955285e-03 9.295537059502e-04 0.0 
9.295537059502e-04 -2.470935797044e-03 0.0 
0.0 0.0 0.0 
4.426088717339e-03 2.955254215079e-04 0.0 
2.955254215079e-04 -2.696137700367e-03 0.0 
0.0 0.0 0.0 
4.577909006716e-03 2.417284226018e-04 0.0 
2.417284226018e-04 -2.951599244248e-03 0.0 
0.0 0.0 0.0 
4.273237222199e-03 -3.616802761837e-04 0.0 
-3.616802761837e-04 -2.745777421553e-03 0.0 
0.0 0.0 0.0 
4.062299959902e-03 -2.473707690733e-04 0.0 
-2.473707690733e-04 -2.398558368636e-03 0.0 
0.0 0.0 0.0 
3.786897711710e-03 -8.358517690303e-04 0.0 
-8.358517690303e-04 -2.318903044793e-03 0.0 
0.0 0.0 0.0 
3.959152473467e-03 -1.016044023509e-03 0.0 
-1.016044023509e-03 -2.643392259658e-03 0.0 
0.0 0.0 0.0 
3.377823609867e-03 -1.373230550872e-03 0.0 
-1.373230550872e-03 -2.081234845808e-03 0.0 
0.0 0.0 0.0 
3.192576610860e-03 -1.150817789511e-03 0.0 
-1.150817789511e-03 -1.705279863488e-03 0.0 
0.0 0.0 0.0 
2.781489959665e-03 -1.579219968438e-03 0.0 
-1.579219968438e-03 -1.429708177893e-03 0.0 
0.0 0.0 0.0 
2.883362039046e-03 -1.823069815807e-03 0.0 
-1.823069815807e-03 -1.730791731894e-03 0.0 
0.0 0.0 0.0 
2.343724245530e-03 -1.947475928064e-03 0.0 
-1.947475928064e-03 -1.084831670542e-03 0.0 
0.0 0.0 0.0 
2.320727468475e-03 -1.749486750757e-03 0.0 
-1.749486750757e-03 -8.882860805117e-04 0.0 
0.0 0.0 0.0 
1.914559764156e-03 -2.049099233272e-03 0.0 
-2.049099233272e-03 -5.580687528559e-04 0.0 
0.0 0.0 0.0 
1.893963981563e-03 -2.240944703529e-03 0.0 
-2.240944703529e-03 -6.979126030539e-04 0.0 
0.0 0.0 0.0 
1.480411488962e-03 -2.267115632933e-03 0.0 
-2.267115632933e-03 -1.727859310780e-04 0.0 
0.0 0.0 0.0 
1.468583229309e-03 -2.079761999785e-03 0.0 
-2.079761999785e-03 1.385387135054e-05 0.0 
0.0 0.0 0.0 
1.050301398669e-03 -2.220176595201e-03 0.0 
-2.220176595201e-03 3.902419064006e-04 0.0 
0.0 0.0 0.0 
1.024003897113e-03 -2.041373436268e-03 0.0 
-2.041373436268e-03 6.318225432374e-04 0.0 
0.0 0.0 0.0 
1.032364260144e-03 -2.386824948302e-03 0.0 
-2.386824948302e-03 2.441030055478e-04 0.0 
0.0 0.0 0.0 
6.335609407260e-04 -2.273969179421e-03 0.0 
-2.273969179421e-03 7.822947509319e-04 0.0 
0.0 0.0 0.0 
5.962832774276e-04 -2.398342134138e-03 0.0 
-2.398342134138e-03 6.659059365602e-04 0.0 
0.0 0.0 0.0 
2.357586946404e-04 -2.234954335472e-03 0.0 
-2.234954335472e-03 1.167385197018e-03 0.0 
0.0 0.0 0.0 
2.048392655863e-03 3.387049310893e-03 0.0 
3.387049310893e-03 1.238361030253e-03 0.0 
0.0 0.0 0.0 
1.969106080827e-04 -2.299792113015e-03 0.0 
-2.299792113015e-03 1.060319112322e-03 0.0 
0.0 0.0 0.0 
5.176151397181e-04 -2.459391178188e-03 0.0 
-2.459391178188e-03 6.024885690710e-04 0.0 
0.0 0.0 0.0 
-1.167895949995e-04 -2.107123251327e-03 0.0 
-2.107123251327e-03 1.514787617501e-03 0.0 
0.0 0.0 0.0 
-1.000561099844e-04 -2.037266806463e-03 0.0 
-2.037266806463e-03 1.665103604253e-03 0.0 
0.0 0.0 0.0 
-1.361233520743e-04 -2.109051666233e-03 0.0 
-2.109051666233e-03 1.394605826060e-03 0.0 
0.0 0.0 0.0 
-4.037347678903e-04 -1.906219691558e-03 0.0 
-1.906219691558e-03 1.801216228751e-03 0.0 
0.0 0.0 0.0 
-3.844209103136e-04 -1.851073932136e-03 0.0 
-1.851073932136e-03 1.652422190527e-03 0.0 
0.0 0.0 0.0 
2.681127364678e-03 3.642768697982e-03 0.0 
3.642768697982e-03 -3.287794348874e-04 0.0 
0.0 0.0 0.0 
-5.519026007446e-04 3.235986005425e-03 0.0 
3.235986005425e-03 6.453750786966e-03 0.0 
0.0 0.0 0.0 
-6.118392059109e-04 -1.648813602317e-03 0.0 
-1.648813602317e-03 2.012470354645e-03 0.0 
0.0 0.0 0.0 
-5.350069288936e-04 -1.546398671306e-03 0.0 
-1.546398671306e-03 1.816536968844e-03 0.0 
0.0 0.0 0.0 
-3.514807807977e-04 -1.722585432627e-03 0.0 
-1.722585432627e-03 1.506453834247e-03 0.0 
0.0 0.0 0.0 
-4.209356584420e-04 -1.373779938449e-03 0.0 
-1.373779938449e-03 1.598001048887e-03 0.0 
0.0 0.0 0.0 
-1.805525365410e-03 1.460966121994e-03 0.0 
1.460966121994e-03 9.361092083217e-03 0.0 
0.0 0.0 0.0 
-1.631184439205e-03 1.614615888922e-03 0.0 
1.614615888922e-03 9.577812916617e-03 0.0 
0.0 0.0 0.0 
-1.703556072216e-03 1.374646256534e-03 0.0 
1.374646256534e-03 9.627918111059e-03 0.0 
0.0 0.0 0.0 
-1.526318262534e-03 1.540232555408e-03 0.0 
1.540232555408e-03 9.859086416876e-03 0.0 
0.0 0.0 0.0 
-1.593102443467e-03 1.313822275734e-03 0.0 
1.313822275734e-03 9.888742907507e-03 0.0 
0.0 0.0 0.0 
-5.778961753989e-04 -1.222133505657e-03 0.0 
-1.222133505657e-03 1.877262152544e-03 0.0 
0.0 0.0 0.0 
-1.295803622074e-03 2.422479907483e-03 0.0 
2.422479907483e-03 8.755763117305e-03 0.0 
0.0 0.0 0.0 
-1.435642772837e-03 1.770229843199e-03 0.0 
1.770229843199e-03 9.787381131559e-03 0.0 
0.0 0.0 0.0 
-1.011491784978e-03 3.172162088972e-03 0.0 
3.172162088972e-03 5.992242300267e-03 0.0 
0.0 0.0 0.0 
4.530622511472e-04 3.787138284528e-03 0.0 
3.787138284528e-03 3.089217643401e-03 0.0 
0.0 0.0 0.0 
4.176044885442e-03 1.508441616220e-03 0.0 
1.508441616220e-03 -2.050661648248e-03 0.0 
0.0 0.0 0.0 
-6.542886313379e-04 -1.682449189347e-03 0.0 
-1.682449189347e-03 2.196881462173e-03 0.0 
0.0 0.0 0.0 
-8.265057221532e-04 -1.433627837986e-03 0.0 
-1.433627837986e-03 2.362681628774e-03 0.0 
0.0 0.0 0.0 
-8.738750538700e-04 -1.444438220153e-03 0.0 
-1.444438220153e-03 2.569446876198e-03 0.0 
0.0 0.0 0.0 
1.412313161160e-03 -1.891659927960e-03 0.0 
-1.891659927960e-03 3.086777448726e-04 0.0 
0.0 0.0 0.0 
9.847231067470e-04 -1.847968509782e-03 0.0 
-1.847968509782e-03 9.617296340743e-04 0.0 
0.0 0.0 0.0 
1.346879613168e-03 -1.684113354968e-03 0.0 
-1.684113354968e-03 7.019605314080e-04 0.0 
0.0 0.0 0.0 
9.521641367149e-04 -1.619039306473e-03 0.0 
-1.619039306473e-03 1.361907973320e-03 0.0 
0.0 0.0 0.0 
1.280185104327e-03 -1.423097043266e-03 0.0 
-1.423097043266e-03 1.177309574638e-03 0.0 
0.0 0.0 0.0 
9.095145609786e-04 -1.347924459340e-03 0.0 
-1.347924459340e-03 1.821853971165e-03 0.0 
0.0 0.0 0.0 
6.018110271910e-04 -1.501784114735e-03 0.0 
-1.501784114735e-03 1.988829063428e-03 0.0 
0.0 0.0 0.0 
5.765342017066e-04 -1.242695899638e-03 0.0 
-1.242695899638e-03 2.427828822250e-03 0.0 
0.0 0.0 0.0 
2.954011523287e-04 -1.354013419218e-03 0.0 
-1.354013419218e-03 2.571815074278e-03 0.0 
0.0 0.0 0.0 
1.181560753277e-03 -1.124603359968e-03 0.0 
-1.124603359968e-03 1.714838053819e-03 0.0 
0.0 0.0 0.0 
1.566546239690e-03 -1.145995763513e-03 0.0 
-1.145995763513e-03 1.072151425200e-03 0.0 
0.0 0.0 0.0 
2.879533349900e-04 -1.119664829775e-03 0.0 
-1.119664829775e-03 2.988519296873e-03 0.0 
0.0 0.0 0.0 
3.360014153408e-05 -1.190377224180e-03 0.0 
-1.190377224180e-03 3.106885341741e-03 0.0 
0.0 0.0 0.0 
4.615725625656e-05 -9.868223296459e-04 0.0 
-9.868223296459e-04 3.502196373628e-03 0.0 
0.0 0.0 0.0 
-1.873063030234e-04 -1.022093589109e-03 0.0 
-1.022093589109e-03 3.593056405396e-03 0.0 
0.0 0.0 0.0 
-2.366828162790e-04 -1.207879161274e-03 0.0 
-1.207879161274e-03 3.245471491174e-03 0.0 
0.0 0.0 0.0 
-4.284912490222e-04 -1.010610428193e-03 0.0 
-1.010610428193e-03 3.693169431196e-03 0.0 
0.0 0.0 0.0 
-4.961398952517e-04 -1.177809118669e-03 0.0 
-1.177809118669e-03 3.382788452066e-03 0.0 
0.0 0.0 0.0 
4.078975048869e-03 9.351304531296e-04 0.0 
9.351304531296e-04 -2.012780493410e-03 0.0 
0.0 0.0 0.0 
3.789990727229e-03 1.497888734866e-03 0.0 
1.497888734866e-03 -1.430333757366e-03 0.0 
0.0 0.0 0.0 
3.608452599383e-03 9.733758682188e-04 0.0 
9.733758682188e-04 -1.212410311613e-03 0.0 
0.0 0.0 0.0 
3.290844748965e-03 1.484025497542e-03 0.0 
1.484025497542e-03 -4.909014954419e-04 0.0 
0.0 0.0 0.0 
3.101750608123e-03 1.045605897501e-03 0.0 
1.045605897501e-03 -2.502585985575e-04 0.0 
0.0 0.0 0.0 
2.810046381851e-03 1.480868679970e-03 0.0 
1.480868679970e-03 4.162515895385e-04 0.0 
0.0 0.0 0.0 
2.651465442067e-03 1.124823361076e-03 0.0 
1.124823361076e-03 6.041570129894e-04 0.0 
0.0 0.0 0.0 
2.865805393103e-03 6.836708746055e-04 0.0 
6.836708746055e-04 4.637850545369e-05 0.0 
0.0 0.0 0.0 
-1.069946515881e-03 2.765970448545e-03 0.0 
2.765970448545e-03 8.003387271260e-03 0.0 
0.0 0.0 0.0 
4.601051888684e-03 1.674448849225e-03 0.0 
1.674448849225e-03 -2.868164696939e-03 0.0 
0.0 0.0 0.0 
4.270202144317e-03 2.395700230034e-03 0.0 
2.395700230034e-03 -2.490825772066e-03 0.0 
0.0 0.0 0.0 
4.546373639104e-03 1.741272104474e-03 0.0 
1.741272104474e-03 -3.085384021295e-03 0.0 
0.0 0.0 0.0 
4.135597659150e-03 2.518225847525e-03 0.0 
2.518225847525e-03 -2.624253222716e-03 0.0 
0.0 0.0 0.0 
4.374458975953e-03 1.849170811648e-03 0.0 
1.849170811648e-03 -3.255348165047e-03 0.0 
0.0 0.0 0.0 
3.886257228643e-03 2.701838506852e-03 0.0 
2.701838506852e-03 -2.713555627800e-03 0.0 
0.0 0.0 0.0 
4.089394299001e-03 1.992665451106e-03 0.0 
1.992665451106e-03 -3.434567129534e-03 0.0 
0.0 0.0 0.0 
4.409956998137e-03 1.002410878492e-03 0.0 
1.002410878492e-03 -3.751460076556e-03 0.0 
0.0 0.0 0.0 
4.050539836560e-03 1.057786190538e-03 0.0 
1.057786190538e-03 -4.007848632060e-03 0.0 
0.0 0.0 0.0 
4.219191463688e-03 1.280234000926e-05 0.0 
1.280234000926e-05 -4.032594372468e-03 0.0 
0.0 0.0 0.0 
3.753586433517e-03 -3.630506260182e-06 0.0 
-3.630506260182e-06 -4.290531395125e-03 0.0 
0.0 0.0 0.0 
3.860872370918e-03 -1.025905426969e-03 0.0 
-1.025905426969e-03 -4.030144667155e-03 0.0 
0.0 0.0 0.0 
7.317613993236e-04 3.637059077224e-03 0.0 
3.637059077224e-03 3.578520129690e-03 0.0 
0.0 0.0 0.0 
2.900580422110e-03 1.890805818456e-03 0.0 
1.890805818456e-03 3.128888298884e-04 0.0 
0.0 0.0 0.0 
2.465384650222e-03 1.841457456196e-03 0.0 
1.841457456196e-03 1.139624667391e-03 0.0 
0.0 0.0 0.0 
2.489336337109e-03 2.203630210436e-03 0.0 
2.203630210436e-03 1.120529949545e-03 0.0 
0.0 0.0 0.0 
-2.923045912269e-04 -1.506937572720e-03 0.0 
-1.506937572720e-03 1.342937265474e-03 0.0 
0.0 0.0 0.0 
-3.680918085073e-04 -8.561881028332e-04 0.0 
-8.561881028332e-04 4.029774855460e-03 0.0 
0.0 0.0 0.0 
1.394375289596e-03 -8.483077043367e-04 0.0 
-8.483077043367e-04 1.682590268527e-03 0.0 
0.0 0.0 0.0 
1.777152920718e-03 -8.060774658880e-04 0.0 
-8.060774658880e-04 1.064149916520e-03 0.0 
0.0 0.0 0.0 
2.436110147891e-03 8.135012328593e-04 0.0 
8.135012328593e-04 8.811493886126e-04 0.0 
0.0 0.0 0.0 
-3.718026546209e-04 -1.023735535576e-03 0.0 
-1.023735535576e-03 1.577174117564e-03 0.0 
0.0 0.0 0.0 
3.509346405283e-03 2.899358345662e-03 0.0 
2.899358345662e-03 -2.772143812224e-03 0.0 
0.0 0.0 0.0 
3.163312916268e-03 3.403087381170e-03 0.0 
3.403087381170e-03 -1.910805681768e-03 0.0 
0.0 0.0 0.0 
-1.405831143420e-03 1.473440809733e-03 0.0 
1.473440809733e-03 1.012024182403e-02 0.0 
0.0 0.0 0.0 
-1.470071348224e-03 1.259879443990e-03 0.0 
1.259879443990e-03 1.013184762201e-02 0.0 
0.0 0.0 0.0 
1.532615430983e-03 -5.379992790307e-04 0.0 
-5.379992790307e-04 1.736116135604e-03 0.0 
0.0 0.0 0.0 
-5.049438442783e-04 -8.982544247665e-04 0.0 
-8.982544247665e-04 1.835180451582e-03 0.0 
0.0 0.0 0.0 
5.199439626575e-04 -9.970391374757e-04 0.0 
-9.970391374757e-04 2.902651871347e-03 0.0 
0.0 0.0 0.0 
3.489372679039e-03 1.155337241349e-03 0.0 
1.155337241349e-03 -4.211898892608e-03 0.0 
0.0 0.0 0.0 
-5.771221941311e-04 -8.186997278251e-04 0.0 
-8.186997278251e-04 4.089282748042e-03 0.0 
0.0 0.0 0.0 
-4.981428196594e-04 -6.931233464599e-04 0.0 
-6.931233464599e-04 4.411863958642e-03 0.0 
0.0 0.0 0.0 
2.800020134405e-04 -1.585355473847e-03 0.0 
-1.585355473847e-03 2.194357484604e-03 0.0 
0.0 0.0 0.0 
2.100878853024e-03 2.135821807535e-03 0.0 
2.135821807535e-03 1.889514529582e-03 0.0 
0.0 0.0 0.0 
2.085186271415e-03 2.444874005046e-03 0.0 
2.444874005046e-03 1.922733888710e-03 0.0 
0.0 0.0 0.0 
4.144218755951e-03 -8.981483216931e-04 0.0 
-8.981483216931e-04 -3.749622102993e-03 0.0 
0.0 0.0 0.0 
3.662830564658e-03 -1.844556121141e-03 0.0 
-1.844556121141e-03 -3.467793507245e-03 0.0 
0.0 0.0 0.0 
3.387508256881e-03 -2.071107442027e-03 0.0 
-2.071107442027e-03 -3.650484428245e-03 0.0 
0.0 0.0 0.0 
2.952730286412e-03 -2.631911231232e-03 0.0 
-2.631911231232e-03 -2.856114459204e-03 0.0 
0.0 0.0 0.0 
3.248493903857e-03 -2.333489578845e-03 0.0 
-2.333489578845e-03 -2.813325996802e-03 0.0 
0.0 0.0 0.0 
2.488400808722e-03 -2.864862865854e-03 0.0 
-2.864862865854e-03 -2.157008648874e-03 0.0 
0.0 0.0 0.0 
2.075939816852e-03 -3.157726922037e-03 0.0 
-3.157726922037e-03 -2.022909134213e-03 0.0 
0.0 0.0 0.0 
1.652462774826e-03 -3.159314989154e-03 0.0 
-3.159314989154e-03 -1.302795954486e-03 0.0 
0.0 0.0 0.0 
2.022287759388e-03 -2.929748811182e-03 0.0 
-2.929748811182e-03 -1.492852542497e-03 0.0 
0.0 0.0 0.0 
1.230741770993e-03 -2.981082459085e-03 0.0 
-2.981082459085e-03 -7.129904304606e-04 0.0 
0.0 0.0 0.0 
7.120234097754e-04 -2.990665253360e-03 0.0 
-2.990665253360e-03 -3.946334188431e-04 0.0 
0.0 0.0 0.0 
4.932096713559e-04 -2.727284804703e-03 0.0 
-2.727284804703e-03 2.342716714985e-05 0.0 
0.0 0.0 0.0 
-3.114237822480e-04 -7.184228961097e-04 0.0 
-7.184228961097e-04 4.386493606073e-03 0.0 
0.0 0.0 0.0 
3.148602528447e-03 8.583209472264e-06 0.0 
8.583209472264e-06 -4.539120905181e-03 0.0 
0.0 0.0 0.0 
-1.624041358542e-03 2.529761358293e-03 0.0 
2.529761358293e-03 7.556114888603e-03 0.0 
0.0 0.0 0.0 
1.184350670046e-03 -6.034722200905e-04 0.0 
-6.034722200905e-04 2.306322867068e-03 0.0 
0.0 0.0 0.0 
2.209487076202e-03 1.201786230990e-03 0.0 
1.201786230990e-03 1.417987129993e-03 0.0 
0.0 0.0 0.0 
-1.271152138979e-03 1.413103814325e-03 0.0 
1.413103814325e-03 1.036572678297e-02 0.0 
0.0 0.0 0.0 
-1.336139266889e-03 1.209196060127e-03 0.0 
1.209196060127e-03 1.035983957112e-02 0.0 
0.0 0.0 0.0 
-1.511554215875e-03 1.057728146306e-03 0.0 
1.057728146306e-03 1.010503323796e-02 0.0 
0.0 0.0 0.0 
-1.382259796769e-03 1.016502148520e-03 0.0 
1.016502148520e-03 1.032132859281e-02 0.0 
0.0 0.0 0.0 
-1.190909056340e-03 1.158281782896e-03 0.0 
1.158281782896e-03 1.057287082263e-02 0.0 
0.0 0.0 0.0 
-1.244742878898e-03 9.733928995820e-04 0.0 
9.733928995820e-04 1.052594677289e-02 0.0 
0.0 0.0 0.0 
-1.412659239049e-03 8.385980327663e-04 0.0 
8.385980327663e-04 1.025443934025e-02 0.0 
0.0 0.0 0.0 
-1.284311157556e-03 8.031779649776e-04 0.0 
8.031779649776e-04 1.045361507400e-02 0.0 
0.0 0.0 0.0 
-1.429584817395e-03 6.771386211160e-04 0.0 
6.771386211160e-04 1.016289632761e-02 0.0 
0.0 0.0 0.0 
-1.311768975003e-03 6.494713783094e-04 0.0 
6.494713783094e-04 1.035850073439e-02 0.0 
0.0 0.0 0.0 
-1.150430887607e-03 7.633763634712e-04 0.0 
7.633763634712e-04 1.064456698385e-02 0.0 
0.0 0.0 0.0 
-1.188749417512e-03 6.158235376976e-04 0.0 
6.158235376976e-04 1.054618987394e-02 0.0 
0.0 0.0 0.0 
-1.329704710368e-03 5.128759223384e-04 0.0 
5.128759223384e-04 1.024286797861e-02 0.0 
0.0 0.0 0.0 
-1.218868402855e-03 4.840767580060e-04 0.0 
4.840767580060e-04 1.043057685017e-02 0.0 
0.0 0.0 0.0 
-1.341034018510e-03 3.936226980976e-04 0.0 
3.936226980976e-04 1.011048342987e-02 0.0 
0.0 0.0 0.0 
-1.242877871175e-03 3.688423602369e-04 0.0 
3.688423602369e-04 1.029845350772e-02 0.0 
0.0 0.0 0.0 
-1.103818341283e-03 4.472821918974e-04 0.0 
4.472821918974e-04 1.061157518484e-02 0.0 
0.0 0.0 0.0 
-1.763215244604e-04 -7.211317392463e-04 0.0 
-7.211317392463e-04 1.444724184876e-03 0.0 
0.0 0.0 0.0 
2.585357371193e-03 3.816299885344e-04 0.0 
3.816299885344e-04 4.170148973785e-04 0.0 
0.0 0.0 0.0 
2.167298056079e-03 5.474142353938e-04 0.0 
5.474142353938e-04 1.234881417985e-03 0.0 
0.0 0.0 0.0 
-1.012477071721e-03 -1.209104358689e-03 0.0 
-1.209104358689e-03 2.684122962497e-03 0.0 
0.0 0.0 0.0 
-1.054219449618e-03 -1.196343712505e-03 0.0 
-1.196343712505e-03 2.912216718729e-03 0.0 
0.0 0.0 0.0 
-8.822438726375e-04 -1.406404014998e-03 0.0 
-1.406404014998e-03 2.787792234287e-03 0.0 
0.0 0.0 0.0 
-1.057626023412e-03 -1.150696795393e-03 0.0 
-1.150696795393e-03 3.145691103722e-03 0.0 
0.0 0.0 0.0 
-1.142660708353e-03 3.342262437783e-04 0.0 
3.342262437783e-04 1.047948650524e-02 0.0 
0.0 0.0 0.0 
-9.859632976529e-04 4.010626599807e-04 0.0 
4.010626599807e-04 1.078627674496e-02 0.0 
0.0 0.0 0.0 
2.680356808548e-03 3.614373242249e-03 0.0 
3.614373242249e-03 -1.826814299055e-03 0.0 
0.0 0.0 0.0 
2.255309961425e-03 3.864765212764e-03 0.0 
3.864765212764e-03 -9.060943601303e-04 0.0 
0.0 0.0 0.0 
-1.185280230265e-03 1.626996956545e-03 0.0 
1.626996956545e-03 1.033628673528e-02 0.0 
0.0 0.0 0.0 
-6.819671828763e-04 -6.330280052193e-04 0.0 
-6.330280052193e-04 4.431062156321e-03 0.0 
0.0 0.0 0.0 
-7.796574583957e-04 -7.419725167611e-04 0.0 
-7.419725167611e-04 4.141804901205e-03 0.0 
0.0 0.0 0.0 
8.793057089966e-04 3.820691290266e-03 0.0 
3.820691290266e-03 2.280781002535e-03 0.0 
0.0 0.0 0.0 
2.935529873634e-04 3.804044223773e-03 0.0 
3.804044223773e-03 3.099506674121e-03 0.0 
0.0 0.0 0.0 
7.043299885527e-04 3.863167158195e-03 0.0 
3.863167158195e-03 2.309947815994e-03 0.0 
0.0 0.0 0.0 
9.068789576977e-05 3.783399121579e-03 0.0 
3.783399121579e-03 3.180692082908e-03 0.0 
0.0 0.0 0.0 
-2.713495556919e-04 3.654640244893e-03 0.0 
3.654640244893e-03 3.918541155471e-03 0.0 
0.0 0.0 0.0 
4.733450203877e-04 3.862265617317e-03 0.0 
3.862265617317e-03 2.390274605128e-03 0.0 
0.0 0.0 0.0 
1.980685989897e-03 -1.119513363191e-03 0.0 
-1.119513363191e-03 4.053040726973e-04 0.0 
0.0 0.0 0.0 
-1.011330217795e-03 7.168431716871e-04 0.0 
7.168431716871e-04 1.082558465330e-02 0.0 
0.0 0.0 0.0 
-1.998176067634e-04 -1.879955547498e-03 0.0 
-1.879955547498e-03 1.225398968222e-03 0.0 
0.0 0.0 0.0 
-2.219594035771e-04 -1.620728300927e-03 0.0 
-1.620728300927e-03 1.136617597739e-03 0.0 
0.0 0.0 0.0 
-5.811375806533e-04 -5.366436409577e-04 0.0 
-5.366436409577e-04 4.739537408291e-03 0.0 
0.0 0.0 0.0 
2.984157444005e-03 1.837588880353e-04 0.0 
1.837588880353e-04 -4.175509357750e-04 0.0 
0.0 0.0 0.0 
3.651540173049e-04 3.563245055149e-03 0.0 
3.563245055149e-03 4.438041815623e-03 0.0 
0.0 0.0 0.0 
7.614206630336e-04 3.493177753291e-03 0.0 
3.493177753291e-03 3.921103209873e-03 0.0 
0.0 0.0 0.0 
4.103178999937e-04 3.418965704153e-03 0.0 
3.418965704153e-03 4.771134283024e-03 0.0 
0.0 0.0 0.0 
7.429253656660e-04 3.326309473171e-03 0.0 
3.326309473171e-03 4.327023926235e-03 0.0 
0.0 0.0 0.0 
4.155975296319e-04 3.295041966724e-03 0.0 
3.295041966724e-03 5.148771008135e-03 0.0 
0.0 0.0 0.0 
6.791243862467e-04 3.210333202892e-03 0.0 
3.210333202892e-03 4.767222778944e-03 0.0 
0.0 0.0 0.0 
1.022194275534e-03 3.182726750163e-03 0.0 
3.182726750163e-03 3.949074106346e-03 0.0 
0.0 0.0 0.0 
1.740067819337e-03 2.383368308588e-03 0.0 
2.383368308588e-03 2.645964569103e-03 0.0 
0.0 0.0 0.0 
8.871851973366e-04 3.087860094884e-03 0.0 
3.087860094884e-03 4.458275835384e-03 0.0 
0.0 0.0 0.0 
-1.264938905384e-03 2.735627833075e-04 0.0 
2.735627833075e-04 1.014840571534e-02 0.0 
0.0 0.0 0.0 
2.891682425590e-03 2.339862010652e-03 0.0 
2.339862010652e-03 2.987934081104e-04 0.0 
0.0 0.0 0.0 
1.549728631769e-03 -2.821706142083e-03 0.0 
-2.821706142083e-03 -8.820250386228e-04 0.0 
0.0 0.0 0.0 
-8.838357686319e-05 -7.844134969539e-04 0.0 
-7.844134969539e-04 1.224776197146e-03 0.0 
0.0 0.0 0.0 
5.995528444271e-05 -2.505857529877e-03 0.0 
-2.505857529877e-03 3.393173639189e-04 0.0 
0.0 0.0 0.0 
-3.213937549083e-04 -6.078394654942e-04 0.0 
-6.078394654942e-04 1.680207305689e-03 0.0 
0.0 0.0 0.0 
-6.703334397160e-04 -7.605721638606e-04 0.0 
-7.605721638606e-04 2.099919104694e-03 0.0 
0.0 0.0 0.0 
1.253123615166e-03 -3.257721032061e-04 0.0 
-3.257721032061e-04 2.413987813940e-03 0.0 
0.0 0.0 0.0 
3.810045051855e-04 3.229150449441e-03 0.0 
3.229150449441e-03 5.562819287686e-03 0.0 
0.0 0.0 0.0 
1.409016284401e-04 3.258770663998e-03 0.0 
3.258770663998e-03 5.920001335390e-03 0.0 
0.0 0.0 0.0 
-4.751466863082e-04 3.565921750625e-03 0.0 
3.565921750625e-03 4.033256234526e-03 0.0 
0.0 0.0 0.0 
-7.877731383950e-04 3.361401996308e-03 0.0 
3.361401996308e-03 4.704495295765e-03 0.0 
0.0 0.0 0.0 
1.711201783736e-03 2.116022155430e-03 0.0 
2.116022155430e-03 2.635332725363e-03 0.0 
0.0 0.0 0.0 
-1.744176272580e-03 1.153794240074e-03 0.0 
1.153794240074e-03 9.639404687834e-03 0.0 
0.0 0.0 0.0 
-1.542858917621e-03 7.000726001318e-04 0.0 
7.000726001318e-04 9.960287995720e-03 0.0 
0.0 0.0 0.0 
-1.534044531546e-03 5.492679788907e-04 0.0 
5.492679788907e-04 9.846314455641e-03 0.0 
0.0 0.0 0.0 
1.769643019023e-04 -4.527349113815e-04 0.0 
-4.527349113815e-04 1.129328046692e-03 0.0 
0.0 0.0 0.0 
1.276935120098e-04 -2.838874331166e-03 0.0 
-2.838874331166e-03 5.907278264372e-05 0.0 
0.0 0.0 0.0 
-1.038786657270e-03 1.103552579814e-03 0.0 
1.103552579814e-03 1.077414326822e-02 0.0 
0.0 0.0 0.0 
2.717093643728e-03 3.704055109823e-03 0.0 
3.704055109823e-03 -1.065259572241e-03 0.0 
0.0 0.0 0.0 
1.816946904079e-03 3.972339373291e-03 0.0 
3.972339373291e-03 -7.036035901172e-05 0.0 
0.0 0.0 0.0 
2.693581133112e-03 1.321723788252e-03 0.0 
1.321723788252e-03 -4.358967063959e-03 0.0 
0.0 0.0 0.0 
2.370867459812e-03 4.686614243260e-05 0.0 
4.686614243260e-05 -4.703340961267e-03 0.0 
0.0 0.0 0.0 
-1.038430058226e-03 2.927661814422e-04 0.0 
2.927661814422e-04 1.065378287356e-02 0.0 
0.0 0.0 0.0 
-8.700387291031e-04 3.436059599299e-04 0.0 
3.436059599299e-04 1.094967759077e-02 0.0 
0.0 0.0 0.0 
-8.609413344101e-04 -1.331977722361e-03 0.0 
-1.331977722361e-03 3.015337078607e-03 0.0 
0.0 0.0 0.0 
-1.020770380868e-03 -1.073595248364e-03 0.0 
-1.073595248364e-03 3.378178364639e-03 0.0 
0.0 0.0 0.0 
1.586444989405e-03 -2.069054288770e-04 0.0 
-2.069054288770e-04 1.888986516633e-03 0.0 
0.0 0.0 0.0 
1.354932858779e-05 -2.309052870257e-03 0.0 
-2.309052870257e-03 5.622579673806e-04 0.0 
0.0 0.0 0.0 
-7.989111819645e-04 4.647109751352e-04 0.0 
4.647109751352e-04 1.106719260234e-02 0.0 
0.0 0.0 0.0 
2.638933354316e-03 -8.802903318966e-05 0.0 
-8.802903318966e-05 5.945468193310e-05 0.0 
0.0 0.0 0.0 
2.981750709630e-03 -3.482178862535e-04 0.0 
-3.482178862535e-04 -7.500947484888e-04 0.0 
0.0 0.0 0.0 
-1.215813438075e-03 -9.254629696642e-04 0.0 
-9.254629696642e-04 3.239553147740e-03 0.0 
0.0 0.0 0.0 
1.597092426848e-03 3.979400735640e-03 0.0 
3.979400735640e-03 -6.478132516094e-04 0.0 
0.0 0.0 0.0 
1.934096585357e-03 3.800248007625e-03 0.0 
3.800248007625e-03 -1.624946478240e-03 0.0 
0.0 0.0 0.0 
2.244143347830e-03 -2.665510260350e-03 0.0 
-2.665510260350e-03 -1.561559898093e-03 0.0 
0.0 0.0 0.0 
3.280747214620e-04 -2.527557985048e-03 0.0 
-2.527557985048e-03 3.716838693765e-04 0.0 
0.0 0.0 0.0 
-4.868996539793e-04 -4.971664210681e-04 0.0 
-4.971664210681e-04 1.933332618659e-03 0.0 
0.0 0.0 0.0 
1.243666889376e-03 -2.672502552326e-05 0.0 
-2.672502552326e-05 2.605361390061e-03 0.0 
0.0 0.0 0.0 
-9.623864068066e-04 1.292231890047e-03 0.0 
1.292231890047e-03 1.080093604003e-02 0.0 
0.0 0.0 0.0 
1.227598294689e-03 2.998864288253e-03 0.0 
2.998864288253e-03 3.656094283945e-03 0.0 
0.0 0.0 0.0 
1.400936543981e-03 3.136099267294e-03 0.0 
3.136099267294e-03 3.098064879745e-03 0.0 
0.0 0.0 0.0 
1.020897385118e-03 2.929834363872e-03 0.0 
2.929834363872e-03 4.221857658957e-03 0.0 
0.0 0.0 0.0 
-2.943515497726e-04 -1.955702433209e-03 0.0 
-1.955702433209e-03 7.469575919904e-04 0.0 
0.0 0.0 0.0 
9.334564648904e-04 -4.206657690055e-04 0.0 
-4.206657690055e-04 2.954498183011e-03 0.0 
0.0 0.0 0.0 
-7.457105264628e-04 -4.574142791389e-04 0.0 
-4.574142791389e-04 4.721474503963e-03 0.0 
0.0 0.0 0.0 
1.315831722081e-04 3.246808464861e-03 0.0 
3.246808464861e-03 6.298469231812e-03 0.0 
0.0 0.0 0.0 
-7.795126275323e-05 3.223400049595e-03 0.0 
3.223400049595e-03 6.634038301111e-03 0.0 
0.0 0.0 0.0 
2.240407599720e-03 3.866419580626e-03 0.0 
3.866419580626e-03 -2.523495608721e-04 0.0 
0.0 0.0 0.0 
1.361304470020e-03 3.986051660740e-03 0.0 
3.986051660740e-03 7.301175098576e-04 0.0 
0.0 0.0 0.0 
8.815950819795e-04 3.999354952691e-03 0.0 
3.999354952691e-03 9.887449895232e-04 0.0 
0.0 0.0 0.0 
5.359640250029e-04 3.923988207131e-03 0.0 
3.923988207131e-03 1.757260743597e-03 0.0 
0.0 0.0 0.0 
-1.867288868503e-03 2.072408023375e-03 0.0 
2.072408023375e-03 8.278088696296e-03 0.0 
0.0 0.0 0.0 
1.705652882174e-03 3.930358405732e-03 0.0 
3.930358405732e-03 5.746959957505e-04 0.0 
0.0 0.0 0.0 
-1.510796066813e-03 2.689708424782e-03 0.0 
2.689708424782e-03 7.056909689950e-03 0.0 
0.0 0.0 0.0 
-1.749535907072e-03 2.352336039115e-03 0.0 
2.352336039115e-03 7.429421031665e-03 0.0 
0.0 0.0 0.0 
-1.639328243102e-03 2.516812960931e-03 0.0 
2.516812960931e-03 6.958840200222e-03 0.0 
0.0 0.0 0.0 
-6.130663319104e-04 3.469170127411e-03 0.0 
3.469170127411e-03 4.623679689420e-03 0.0 
0.0 0.0 0.0 
-1.064859409664e-03 3.131875130036e-03 0.0 
3.131875130036e-03 5.321181106352e-03 0.0 
0.0 0.0 0.0 
3.736494899967e-03 3.034544268258e-03 0.0 
3.034544268258e-03 -1.903066248620e-03 0.0 
0.0 0.0 0.0 
3.783632577592e-03 2.030879284324e-03 0.0 
2.030879284324e-03 -1.389007024489e-03 0.0 
0.0 0.0 0.0 
-6.526573940171e-04 -1.580629260650e-03 0.0 
-1.580629260650e-03 2.603455093597e-03 0.0 
0.0 0.0 0.0 
-2.903708018250e-04 -1.397297125335e-03 0.0 
-1.397297125335e-03 2.925661472236e-03 0.0 
0.0 0.0 0.0 
1.784133921484e-03 -1.673196385714e-03 0.0 
-1.673196385714e-03 3.231841970765e-05 0.0 
0.0 0.0 0.0 
-9.519695027230e-04 8.739063077195e-04 0.0 
8.739063077195e-04 1.090578783681e-02 0.0 
0.0 0.0 0.0 
-7.984906218317e-04 8.137375207289e-04 0.0 
8.137375207289e-04 1.108196622585e-02 0.0 
0.0 0.0 0.0 
-1.435324272083e-03 4.099645372522e-04 0.0 
4.099645372522e-04 9.915172141947e-03 0.0 
0.0 0.0 0.0 
-1.428608174504e-03 3.011915686445e-04 0.0 
3.011915686445e-04 9.765045239014e-03 0.0 
0.0 0.0 0.0 
-2.103941389549e-04 -1.207202376259e-03 0.0 
-1.207202376259e-03 1.149616148340e-03 0.0 
0.0 0.0 0.0 
-2.207394007042e-04 -1.278219324921e-03 0.0 
-1.278219324921e-03 1.016926541690e-03 0.0 
0.0 0.0 0.0 
6.172463077596e-04 -1.941844418919e-03 0.0 
-1.941844418919e-03 1.256237388991e-03 0.0 
0.0 0.0 0.0 
8.604296829475e-04 -6.403901186577e-04 0.0 
-6.403901186577e-04 2.861364820861e-03 0.0 
0.0 0.0 0.0 
-1.034877379402e-03 1.557909333245e-03 0.0 
1.557909333245e-03 1.057906821821e-02 0.0 
0.0 0.0 0.0 
-9.296598467320e-04 1.776833477471e-03 0.0 
1.776833477471e-03 1.053372671616e-02 0.0 
0.0 0.0 0.0 
-1.080271302671e-03 1.848690496698e-03 0.0 
1.848690496698e-03 1.027323508351e-02 0.0 
0.0 0.0 0.0 
1.559365965737e-03 1.375540069866e-04 0.0 
1.375540069866e-04 2.120620159895e-03 0.0 
0.0 0.0 0.0 
4.722437458795e-03 9.410911284867e-04 0.0 
9.410911284867e-04 -3.297282205086e-03 0.0 
0.0 0.0 0.0 
3.774125777311e-03 4.088485465020e-04 0.0 
4.088485465020e-04 -1.707298982245e-03 0.0 
0.0 0.0 0.0 
2.745826568438e-03 -1.282677611588e-03 0.0 
-1.282677611588e-03 -4.565563641290e-03 0.0 
0.0 0.0 0.0 
1.581384499970e-03 3.496389672503e-03 0.0 
3.496389672503e-03 2.131450140767e-03 0.0 
0.0 0.0 0.0 
-4.834864058913e-05 -9.027233283938e-04 0.0 
-9.027233283938e-04 8.872848958762e-04 0.0 
0.0 0.0 0.0 
-7.126658441055e-04 3.076943124613e-03 0.0 
3.076943124613e-03 7.091521715814e-03 0.0 
0.0 0.0 0.0 
-6.235110319511e-04 -3.883385033331e-04 0.0 
-3.883385033331e-04 5.020527543609e-03 0.0 
0.0 0.0 0.0 
-4.779425059304e-04 -4.639781015327e-04 0.0 
-4.639781015327e-04 5.058173747309e-03 0.0 
0.0 0.0 0.0 
1.376758582290e-03 2.367840090408e-03 0.0 
2.367840090408e-03 3.347084826314e-03 0.0 
0.0 0.0 0.0 
-2.069931754463e-03 1.545697663823e-03 0.0 
1.545697663823e-03 8.269319143500e-03 0.0 
0.0 0.0 0.0 
1.960761634358e-03 3.262643978088e-03 0.0 
3.262643978088e-03 1.678474615496e-03 0.0 
0.0 0.0 0.0 
2.453869814339e-03 3.119206617866e-03 0.0 
3.119206617866e-03 7.552405132030e-04 0.0 
0.0 0.0 0.0 
-1.843246727023e-03 2.141160364232e-03 0.0 
2.141160364232e-03 7.305725519947e-03 0.0 
0.0 0.0 0.0 
-1.735357808483e-03 2.304208952566e-03 0.0 
2.304208952566e-03 6.877396891870e-03 0.0 
0.0 0.0 0.0 
-1.491218977959e-03 2.699144831106e-03 0.0 
2.699144831106e-03 6.455999903993e-03 0.0 
0.0 0.0 0.0 
-1.594672742368e-03 2.495732393976e-03 0.0 
2.495732393976e-03 6.407825201882e-03 0.0 
0.0 0.0 0.0 
1.737296083968e-03 -2.604610243861e-03 0.0 
-2.604610243861e-03 -9.026362628023e-04 0.0 
0.0 0.0 0.0 
1.151302354431e-03 -2.675455634528e-03 0.0 
-2.675455634528e-03 -3.171763676666e-04 0.0 
0.0 0.0 0.0 
3.036084418290e-04 3.244432760522e-03 0.0 
3.244432760522e-03 6.046350874751e-03 0.0 
0.0 0.0 0.0 
7.194957364960e-04 3.078820498213e-03 0.0 
3.078820498213e-03 4.978672969123e-03 0.0 
0.0 0.0 0.0 
-3.578321362019e-05 3.265505216469e-03 0.0 
3.265505216469e-03 6.976629890356e-03 0.0 
0.0 0.0 0.0 
-2.265668580594e-04 3.199636877841e-03 0.0 
3.199636877841e-03 7.304883796106e-03 0.0 
0.0 0.0 0.0 
1.306424104093e-03 2.131315656312e-03 0.0 
2.131315656312e-03 3.365310817152e-03 0.0 
0.0 0.0 0.0 
1.629184035358e-03 1.850337008117e-03 0.0 
1.850337008117e-03 2.692058428210e-03 0.0 
0.0 0.0 0.0 
-8.292219931578e-04 -5.993243852299e-04 0.0 
-5.993243852299e-04 2.348920711985e-03 0.0 
0.0 0.0 0.0 
-1.212688005980e-03 2.938624206072e-03 0.0 
2.938624206072e-03 5.391786210904e-03 0.0 
0.0 0.0 0.0 
-7.966107976185e-04 1.226543066487e-03 0.0 
1.226543066487e-03 1.100077779835e-02 0.0 
0.0 0.0 0.0 
-1.922606581939e-03 1.996619496545e-03 0.0 
1.996619496545e-03 7.716040473651e-03 0.0 
0.0 0.0 0.0 
6.382160657237e-04 -4.946931011285e-04 0.0 
-4.946931011285e-04 3.463421008468e-03 0.0 
0.0 0.0 0.0 
5.735237924177e-04 -6.568233361271e-04 0.0 
-6.568233361271e-04 3.401590670059e-03 0.0 
0.0 0.0 0.0 
1.716616594625e-03 -1.150514231229e-03 0.0 
-1.150514231229e-03 -4.604180106382e-03 0.0 
0.0 0.0 0.0 
1.965643728632e-03 -2.695070172753e-03 0.0 
-2.695070172753e-03 -3.847645200457e-03 0.0 
0.0 0.0 0.0 
-6.705842657140e-04 3.920162353998e-04 0.0 
3.920162353998e-04 1.122584903704e-02 0.0 
0.0 0.0 0.0 
5.109362837831e-05 3.837589178085e-03 0.0 
3.837589178085e-03 2.055240087747e-03 0.0 
0.0 0.0 0.0 
-1.766807315388e-04 3.714234269078e-03 0.0 
3.714234269078e-03 2.779893880645e-03 0.0 
0.0 0.0 0.0 
3.079671818380e-04 3.934467803371e-03 0.0 
3.934467803371e-03 1.314586129809e-03 0.0 
0.0 0.0 0.0 
-3.613165977321e-04 -1.127359838710e-04 0.0 
-1.127359838710e-04 5.738507306924e-03 0.0 
0.0 0.0 0.0 
-1.379985369441e-03 2.863166656973e-05 0.0 
2.863166656973e-05 9.015638454962e-03 0.0 
0.0 0.0 0.0 
-4.855489054601e-04 -3.419956933850e-04 0.0 
-3.419956933850e-04 5.321676536684e-03 0.0 
0.0 0.0 0.0 
-9.155468363403e-04 3.262916285490e-03 0.0 
3.262916285490e-03 5.298509917578e-03 0.0 
0.0 0.0 0.0 
-5.806580865423e-04 5.269346991857e-04 0.0 
5.269346991857e-04 1.133210579172e-02 0.0 
0.0 0.0 0.0 
2.251829054469e-03 2.947722984605e-03 0.0 
2.947722984605e-03 1.361063798378e-03 0.0 
0.0 0.0 0.0 
1.367865776645e-03 3.837849068783e-03 0.0 
3.837849068783e-03 1.430749405503e-03 0.0 
0.0 0.0 0.0 
1.925865856511e-03 -5.277377869429e-05 0.0 
-5.277377869429e-05 1.368488402532e-03 0.0 
0.0 0.0 0.0 
-7.670375292981e-04 2.567032681469e-04 0.0 
2.567032681469e-04 1.109263986477e-02 0.0 
0.0 0.0 0.0 
-5.359077733612e-04 3.078846595619e-04 0.0 
3.078846595619e-04 1.138321531411e-02 0.0 
0.0 0.0 0.0 
-1.630984696826e-03 5.637880741640e-04 0.0 
5.637880741640e-04 9.639710830454e-03 0.0 
0.0 0.0 0.0 
-1.608573955843e-03 4.196721415532e-04 0.0 
4.196721415532e-04 9.495976474648e-03 0.0 
0.0 0.0 0.0 
-1.650018613369e-03 7.200721309554e-04 0.0 
7.200721309554e-04 9.740444222544e-03 0.0 
0.0 0.0 0.0 
3.096176466705e-03 2.391022368481e-03 0.0 
2.391022368481e-03 -3.731389782219e-03 0.0 
0.0 0.0 0.0 
1.986953779003e-03 2.752623410261e-03 0.0 
2.752623410261e-03 -3.558293934082e-03 0.0 
0.0 0.0 0.0 
-8.691282654500e-04 6.604721752776e-04 0.0 
6.604721752776e-04 1.099952740882e-02 0.0 
0.0 0.0 0.0 
-9.211176134947e-04 -1.153749055542e-03 0.0 
-1.153749055542e-03 2.452940411219e-03 0.0 
0.0 0.0 0.0 
-1.106946320294e-03 -9.252245982452e-04 0.0 
-9.252245982452e-04 2.784279625631e-03 0.0 
0.0 0.0 0.0 
-2.960558204892e-05 -2.165025938969e-03 0.0 
-2.165025938969e-03 7.797110501976e-04 0.0 
0.0 0.0 0.0 
1.891670135808e-04 -2.373019112458e-03 0.0 
-2.373019112458e-03 6.814635857118e-04 0.0 
0.0 0.0 0.0 
-6.181826670931e-04 -1.473106952090e-03 0.0 
-1.473106952090e-03 2.841236610772e-03 0.0 
0.0 0.0 0.0 
-3.770975999671e-04 -1.707447066338e-03 0.0 
-1.707447066338e-03 2.376722324480e-03 0.0 
0.0 0.0 0.0 
-4.172521228397e-04 3.183977325466e-03 0.0 
3.183977325466e-03 6.693414359390e-03 0.0 
0.0 0.0 0.0 
-5.656649901645e-04 3.074750327487e-03 0.0 
3.074750327487e-03 7.325645666133e-03 0.0 
0.0 0.0 0.0 
4.678686496904e-05 3.447879005110e-03 0.0 
3.447879005110e-03 5.251904098099e-03 0.0 
0.0 0.0 0.0 
2.582577227495e-03 -5.786314987226e-04 0.0 
-5.786314987226e-04 -1.784264409699e-04 0.0 
0.0 0.0 0.0 
2.830039894286e-03 -8.355501504755e-04 0.0 
-8.355501504755e-04 -8.757117759201e-04 0.0 
0.0 0.0 0.0 
3.267607239192e-03 -5.337468941912e-04 0.0 
-5.337468941912e-04 -1.403032021777e-03 0.0 
0.0 0.0 0.0 
-7.168463081016e-04 9.750610701365e-04 0.0 
9.750610701365e-04 1.113549001253e-02 0.0 
0.0 0.0 0.0 
-5.305086066773e-04 9.094826782182e-04 0.0 
9.094826782182e-04 1.132603924019e-02 0.0 
0.0 0.0 0.0 
2.343708902922e-03 -2.398683081849e-03 0.0 
-2.398683081849e-03 -1.481153595012e-03 0.0 
0.0 0.0 0.0 
2.903219358652e-03 -2.303370731176e-03 0.0 
-2.303370731176e-03 -2.148537241272e-03 0.0 
0.0 0.0 0.0 
1.322811617754e-03 -2.553469426706e-03 0.0 
-2.553469426706e-03 -3.290938963699e-04 0.0 
0.0 0.0 0.0 
-7.004062393450e-04 1.421954287912e-03 0.0 
1.421954287912e-03 1.101059644199e-02 0.0 
0.0 0.0 0.0 
-3.568352226558e-04 -4.268702466660e-04 0.0 
-4.268702466660e-04 5.371284486238e-03 0.0 
0.0 0.0 0.0 
-3.300186265877e-04 -5.232695475519e-04 0.0 
-5.232695475519e-04 5.087737911822e-03 0.0 
0.0 0.0 0.0 
-1.067885003691e-04 -9.158119613570e-04 0.0 
-9.158119613570e-04 7.836760720925e-04 0.0 
0.0 0.0 0.0 
-2.569535235564e-04 -1.332916714496e-03 0.0 
-1.332916714496e-03 9.189922819200e-04 0.0 
0.0 0.0 0.0 
8.365638168053e-04 4.036783798365e-03 0.0 
4.036783798365e-03 -2.837425743864e-04 0.0 
0.0 0.0 0.0 
1.095922021004e-03 3.966123646519e-03 0.0 
3.966123646519e-03 -1.283084541408e-03 0.0 
0.0 0.0 0.0 
-8.023910456957e-04 1.997761357923e-03 0.0 
1.997761357923e-03 1.044514013550e-02 0.0 
0.0 0.0 0.0 
-9.572069674046e-04 2.080332109002e-03 0.0 
2.080332109002e-03 1.017364994162e-02 0.0 
0.0 0.0 0.0 
-6.211354693688e-04 1.934831528195e-03 0.0 
1.934831528195e-03 1.071398740011e-02 0.0 
0.0 0.0 0.0 
-6.104809077201e-04 -3.433197043789e-04 0.0 
-3.433197043789e-04 2.134936777268e-03 0.0 
0.0 0.0 0.0 
1.599882860955e-03 2.897312738722e-03 0.0 
2.897312738722e-03 2.849721164375e-03 0.0 
0.0 0.0 0.0 
1.161659127048e-03 2.900148059117e-04 0.0 
2.900148059117e-04 2.851757726855e-03 0.0 
0.0 0.0 0.0 
1.474259754901e-03 4.896903938577e-04 0.0 
4.896903938577e-04 2.435809907147e-03 0.0 
0.0 0.0 0.0 
8.271116463722e-04 1.082636499004e-04 0.0 
1.082636499004e-04 3.412158748031e-03 0.0 
0.0 0.0 0.0 
1.394746897997e-03 2.589732029473e-03 0.0 
2.589732029473e-03 3.380488030432e-03 0.0 
0.0 0.0 0.0 
1.040397390556e-03 2.582026042338e-03 0.0 
2.582026042338e-03 4.032456764537e-03 0.0 
0.0 0.0 0.0 
7.545051221337e-04 2.935639061837e-03 0.0 
2.935639061837e-03 4.815208136635e-03 0.0 
0.0 0.0 0.0 
1.094185523527e-03 1.174288001202e-04 0.0 
1.174288001202e-04 -4.657110851425e-03 0.0 
0.0 0.0 0.0 
-5.947010467384e-04 1.926912739174e-04 0.0 
1.926912739174e-04 1.130504412683e-02 0.0 
0.0 0.0 0.0 
-1.505730314380e-03 3.009472546518e-04 0.0 
3.009472546518e-04 9.544200101762e-03 0.0 
0.0 0.0 0.0 
1.374580632310e-04 -6.042351108646e-04 0.0 
-6.042351108646e-04 -4.366987869893e-03 0.0 
0.0 0.0 0.0 
-1.478519687390e-03 2.128242941169e-04 0.0 
2.128242941169e-04 9.379427356482e-03 0.0 
0.0 0.0 0.0 
-1.418840343122e-03 2.143573313886e-04 0.0 
2.143573313886e-04 9.597407604727e-03 0.0 
0.0 0.0 0.0 
-1.459895096480e-03 1.397687260722e-04 0.0 
1.397687260722e-04 9.180421336954e-03 0.0 
0.0 0.0 0.0 
-1.671154007683e-04 -2.813921317255e-04 0.0 
-2.813921317255e-04 1.637185503697e-03 0.0 
0.0 0.0 0.0 
-1.733628857133e-03 5.538461340271e-04 0.0 
5.538461340271e-04 9.369362833163e-03 0.0 
0.0 0.0 0.0 
-1.758533034170e-03 7.518677493684e-04 0.0 
7.518677493684e-04 9.517549522576e-03 0.0 
0.0 0.0 0.0 
-1.567517187039e-04 -7.940111299403e-04 0.0 
-7.940111299403e-04 6.263379550013e-04 0.0 
0.0 0.0 0.0 
-5.066187379930e-04 1.333889578375e-03 0.0 
1.333889578375e-03 1.119943384892e-02 0.0 
0.0 0.0 0.0 
2.305117766987e-04 -6.303834982610e-04 0.0 
-6.303834982610e-04 5.061067437304e-04 0.0 
0.0 0.0 0.0 
3.007622552997e-04 -6.482212059394e-04 0.0 
-6.482212059394e-04 6.211016835832e-04 0.0 
0.0 0.0 0.0 
4.198474670293e-04 -5.442483235098e-04 0.0 
-5.442483235098e-04 3.960443417288e-03 0.0 
0.0 0.0 0.0 
3.416212676581e-04 -6.625621190754e-04 0.0 
-6.625621190754e-04 3.900939701831e-03 0.0 
0.0 0.0 0.0 
2.227504622304e-04 -5.883680293680e-04 0.0 
-5.883680293680e-04 4.398849342110e-03 0.0 
0.0 0.0 0.0 
1.508646561560e-04 -6.487493998629e-04 0.0 
-6.487493998629e-04 4.337023620618e-03 0.0 
0.0 0.0 0.0 
2.078799721981e-04 -7.534208565499e-04 0.0 
-7.534208565499e-04 3.889221630516e-03 0.0 
0.0 0.0 0.0 
2.579502474141e-05 -6.939386991270e-04 0.0 
-6.939386991270e-04 4.348206776399e-03 0.0 
0.0 0.0 0.0 
-1.584523634246e-03 3.020246975151e-04 0.0 
3.020246975151e-04 9.327426375610e-03 0.0 
0.0 0.0 0.0 
2.049572397276e-05 -6.274202784231e-04 0.0 
-6.274202784231e-04 4.804859090422e-03 0.0 
0.0 0.0 0.0 
-1.038662564916e-04 -6.280363402262e-04 0.0 
-6.280363402262e-04 4.768395314675e-03 0.0 
0.0 0.0 0.0 
-7.038166209324e-05 -6.121582077200e-04 0.0 
-6.121582077200e-04 5.202117722947e-03 0.0 
0.0 0.0 0.0 
-1.798634973638e-03 2.037135321725e-03 0.0 
2.037135321725e-03 6.807277697520e-03 0.0 
0.0 0.0 0.0 
1.901099152693e-04 3.832649677991e-03 0.0 
3.832649677991e-03 2.537211322606e-03 0.0 
0.0 0.0 0.0 
-4.467117797223e-04 3.562594312306e-03 0.0 
3.562594312306e-03 3.522896959066e-03 0.0 
0.0 0.0 0.0 
-8.452224131794e-04 3.285128487136e-03 0.0 
3.285128487136e-03 3.852727331295e-03 0.0 
0.0 0.0 0.0 
-1.373515465240e-04 3.299950829317e-03 0.0 
3.299950829317e-03 7.680443685862e-03 0.0 
0.0 0.0 0.0 
-3.215087048819e-04 3.173677273475e-03 0.0 
3.173677273475e-03 7.889596711626e-03 0.0 
0.0 0.0 0.0 
-7.589930340220e-04 -2.919205909227e-04 0.0 
-2.919205909227e-04 4.970341610591e-03 0.0 
0.0 0.0 0.0 
-8.893256157778e-04 -3.369108904162e-04 0.0 
-3.369108904162e-04 4.692417178052e-03 0.0 
0.0 0.0 0.0 
-1.412807848812e-03 1.383459558074e-04 0.0 
1.383459558074e-04 9.399116056743e-03 0.0 
0.0 0.0 0.0 
-1.381044725955e-03 9.427407686270e-05 0.0 
9.427407686270e-05 9.377367038725e-03 0.0 
0.0 0.0 0.0 
-1.343157115888e-03 1.540968741963e-04 0.0 
1.540968741963e-04 9.721171592520e-03 0.0 
0.0 0.0 0.0 
-1.325694047894e-03 1.024057993936e-04 0.0 
1.024057993936e-04 9.677346045495e-03 0.0 
0.0 0.0 0.0 
-1.265873518982e-03 1.585288636236e-04 0.0 
1.585288636236e-04 1.000632254047e-02 0.0 
0.0 0.0 0.0 
-1.257229160764e-03 9.484203800010e-05 0.0 
9.484203800010e-05 9.956455050836e-03 0.0 
0.0 0.0 0.0 
-1.174437320083e-03 1.478291551978e-04 0.0 
1.478291551978e-04 1.027879107801e-02 0.0 
0.0 0.0 0.0 
4.748488405243e-04 3.141154609411e-03 0.0 
3.141154609411e-03 5.611754416618e-03 0.0 
0.0 0.0 0.0 
-4.850438628225e-04 3.708531138834e-03 0.0 
3.708531138834e-03 2.376131032425e-03 0.0 
0.0 0.0 0.0 
-1.978686984603e-03 1.751692124233e-03 0.0 
1.751692124233e-03 7.565893829259e-03 0.0 
0.0 0.0 0.0 
1.174747765994e-03 1.881441921699e-03 0.0 
1.881441921699e-03 3.442274169309e-03 0.0 
0.0 0.0 0.0 
1.500296533600e-03 1.585951564034e-03 0.0 
1.585951564034e-03 2.778962803764e-03 0.0 
0.0 0.0 0.0 
-1.416299129402e-03 2.707660208981e-03 0.0 
2.707660208981e-03 5.911781185844e-03 0.0 
0.0 0.0 0.0 
-1.510903662427e-03 2.418678117247e-03 0.0 
2.418678117247e-03 5.952901895846e-03 0.0 
0.0 0.0 0.0 
6.095887062521e-04 -2.993469661107e-04 0.0 
-2.993469661107e-04 3.704041853848e-03 0.0 
0.0 0.0 0.0 
2.518559351807e-03 3.758823533356e-03 0.0 
3.758823533356e-03 -3.320562588925e-04 0.0 
0.0 0.0 0.0 
-3.493560020296e-04 1.558348964675e-03 0.0 
1.558348964675e-03 1.120175959987e-02 0.0 
0.0 0.0 0.0 
-1.438365110551e-03 2.399238077756e-03 0.0 
2.399238077756e-03 -2.833889540367e-03 0.0 
0.0 0.0 0.0 
4.365077923075e-04 2.393987394435e-03 0.0 
2.393987394435e-03 -3.512910338412e-03 0.0 
0.0 0.0 0.0 
1.933555154579e-03 3.852608155929e-03 0.0 
3.852608155929e-03 5.228076442243e-04 0.0 
0.0 0.0 0.0 
-1.302846344061e-03 2.906415969211e-03 0.0 
2.906415969211e-03 5.906922016227e-03 0.0 
0.0 0.0 0.0 
-1.506052858772e-04 3.709751806497e-03 0.0 
3.709751806497e-03 3.311428698724e-03 0.0 
0.0 0.0 0.0 
-7.091760666944e-04 3.417457459390e-03 0.0 
3.417457459390e-03 4.189970702344e-03 0.0 
0.0 0.0 0.0 
2.274867701859e-03 -2.897719640041e-04 0.0 
-2.897719640041e-04 5.944346069945e-04 0.0 
0.0 0.0 0.0 
-3.237688837653e-04 -1.397475131473e-03 0.0 
-1.397475131473e-03 8.409951296893e-04 0.0 
0.0 0.0 0.0 
5.517633516320e-04 3.992286980602e-03 0.0 
3.992286980602e-03 5.470758069395e-04 0.0 
0.0 0.0 0.0 
-1.187394743233e-03 2.331380302567e-04 0.0 
2.331380302567e-04 1.031287870541e-02 0.0 
0.0 0.0 0.0 
-2.297009822376e-04 3.888416798500e-03 0.0 
3.888416798500e-03 9.447520922298e-04 0.0 
0.0 0.0 0.0 
-8.698129765777e-04 -1.585423447851e-04 0.0 
-1.585423447851e-04 4.910606777316e-03 0.0 
0.0 0.0 0.0 
3.249930174520e-03 3.404209943618e-03 0.0 
3.404209943618e-03 -1.132058676684e-03 0.0 
0.0 0.0 0.0 
-4.554807748352e-04 3.531778392353e-03 0.0 
3.531778392353e-03 4.613000994948e-03 0.0 
0.0 0.0 0.0 
1.236289378368e-03 4.020462180487e-03 0.0 
4.020462180487e-03 2.036339980961e-04 0.0 
0.0 0.0 0.0 
8.957889063350e-04 3.938223069324e-03 0.0 
3.938223069324e-03 1.556055400569e-03 0.0 
0.0 0.0 0.0 
-1.688182384419e-03 2.375722011070e-03 0.0 
2.375722011070e-03 8.016271541205e-03 0.0 
0.0 0.0 0.0 
-1.992572999092e-03 1.764427969711e-03 0.0 
1.764427969711e-03 8.468817923962e-03 0.0 
0.0 0.0 0.0 
-1.976009681113e-03 1.873599641176e-03 0.0 
1.873599641176e-03 8.105488206898e-03 0.0 
0.0 0.0 0.0 
3.863240188089e-03 2.902182351820e-03 0.0 
2.902182351820e-03 -1.804231308687e-03 0.0 
0.0 0.0 0.0 
-9.788593595924e-04 3.178335951317e-03 0.0 
3.178335951317e-03 4.853092118133e-03 0.0 
0.0 0.0 0.0 
-1.171777140402e-03 2.834496705621e-03 0.0 
2.834496705621e-03 5.031895347738e-03 0.0 
0.0 0.0 0.0 
-1.208769858789e-03 2.993644797606e-03 0.0 
2.993644797606e-03 6.607270544478e-03 0.0 
0.0 0.0 0.0 
-1.210646178850e-03 1.921982190707e-03 0.0 
1.921982190707e-03 9.986880621910e-03 0.0 
0.0 0.0 0.0 
-1.079791320449e-03 2.149522144285e-03 0.0 
2.149522144285e-03 9.864979899764e-03 0.0 
0.0 0.0 0.0 
-8.183056994043e-04 2.298272079673e-03 0.0 
2.298272079673e-03 1.003036703200e-02 0.0 
0.0 0.0 0.0 
-9.366600099301e-04 2.372353780157e-03 0.0 
2.372353780157e-03 9.704867204343e-03 0.0 
0.0 0.0 0.0 
-1.180320091454e-03 2.229190730128e-03 0.0 
2.229190730128e-03 9.525840136012e-03 0.0 
0.0 0.0 0.0 
-1.022048145900e-03 2.448945335671e-03 0.0 
2.448945335671e-03 9.340441577940e-03 0.0 
0.0 0.0 0.0 
-7.669172228596e-04 2.585851801531e-03 0.0 
2.585851801531e-03 9.525598369790e-03 0.0 
0.0 0.0 0.0 
-8.409117239605e-04 2.664587402923e-03 0.0 
2.664587402923e-03 9.124947152710e-03 0.0 
0.0 0.0 0.0 
-5.612309130856e-04 2.827883115623e-03 0.0 
2.827883115623e-03 9.360351163656e-03 0.0 
0.0 0.0 0.0 
-6.538889166555e-04 2.862939092233e-03 0.0 
2.862939092233e-03 8.866818177328e-03 0.0 
0.0 0.0 0.0 
-8.732634275630e-04 2.741273373831e-03 0.0 
2.741273373831e-03 8.669268476711e-03 0.0 
0.0 0.0 0.0 
-6.770734297309e-04 2.913367274434e-03 0.0 
2.913367274434e-03 8.392020423680e-03 0.0 
0.0 0.0 0.0 
-4.967003713561e-04 3.034200490539e-03 0.0 
3.034200490539e-03 8.576204226659e-03 0.0 
0.0 0.0 0.0 
-8.729807013794e-04 2.831895786343e-03 0.0 
2.831895786343e-03 8.186001093806e-03 0.0 
0.0 0.0 0.0 
8.184370641439e-04 2.179596404811e-03 0.0 
2.179596404811e-03 4.103778049642e-03 0.0 
0.0 0.0 0.0 
2.070281093468e-03 3.724908576998e-03 0.0 
3.724908576998e-03 5.580764190495e-04 0.0 
0.0 0.0 0.0 
1.624184828964e-03 1.296493866605e-03 0.0 
1.296493866605e-03 -4.333596916446e-03 0.0 
0.0 0.0 0.0 
8.578305673671e-04 3.631173877348e-03 0.0 
3.631173877348e-03 -2.711161517718e-03 0.0 
0.0 0.0 0.0 
-7.610222548972e-04 3.354660825687e-03 0.0 
3.354660825687e-03 5.326824852694e-03 0.0 
0.0 0.0 0.0 
-2.953389804572e-04 2.915471492951e-03 0.0 
2.915471492951e-03 9.730754905856e-03 0.0 
0.0 0.0 0.0 
-3.362344418924e-04 2.520098308738e-03 0.0 
2.520098308738e-03 1.034509946273e-02 0.0 
0.0 0.0 0.0 
3.510564925438e-03 3.200925439869e-03 0.0 
3.200925439869e-03 -1.939880297281e-03 0.0 
0.0 0.0 0.0 
-3.802451426323e-05 3.470909403954e-03 0.0 
3.470909403954e-03 7.805209819309e-03 0.0 
0.0 0.0 0.0 
-1.829983878163e-03 2.205363874211e-03 0.0 
2.205363874211e-03 7.869102358943e-03 0.0 
0.0 0.0 0.0 
3.670858260973e-03 2.146454592890e-03 0.0 
2.146454592890e-03 -3.605294031326e-03 0.0 
0.0 0.0 0.0 
1.141979022944e-04 3.423974419419e-03 0.0 
3.423974419419e-03 6.891186673688e-03 0.0 
0.0 0.0 0.0 
-1.320371875791e-03 2.001154529889e-03 0.0 
2.001154529889e-03 9.677169947837e-03 0.0 
0.0 0.0 0.0 
-1.407984335271e-03 2.087513795105e-03 0.0 
2.087513795105e-03 9.340121398512e-03 0.0 
0.0 0.0 0.0 
-1.534836349258e-03 1.852093827662e-03 0.0 
1.852093827662e-03 9.481581443995e-03 0.0 
0.0 0.0 0.0 
-3.205100623672e-04 2.154933441926e-03 0.0 
2.154933441926e-03 1.077018996720e-02 0.0 
0.0 0.0 0.0 
-1.650155993266e-03 9.017903672186e-04 0.0 
9.017903672186e-04 9.824343863323e-03 0.0 
0.0 0.0 0.0 
3.829481418317e-04 2.799460805348e-03 0.0 
2.799460805348e-03 5.271039510113e-03 0.0 
0.0 0.0 0.0 
3.366564654173e-03 1.984288372214e-03 0.0 
1.984288372214e-03 -6.097768966247e-04 0.0 
0.0 0.0 0.0 
3.276338708239e-03 2.467044260521e-03 0.0 
2.467044260521e-03 -5.181409650870e-04 0.0 
0.0 0.0 0.0 
3.585857538958e-03 2.533061471521e-03 0.0 
2.533061471521e-03 -1.111138688358e-03 0.0 
0.0 0.0 0.0 
-1.073991183792e-03 2.533863765109e-03 0.0 
2.533863765109e-03 8.930912659313e-03 0.0 
0.0 0.0 0.0 
5.544873892483e-04 1.571418519955e-03 0.0 
1.571418519955e-03 4.144445171074e-03 0.0 
0.0 0.0 0.0 
1.039140110489e-03 1.305927726584e-03 0.0 
1.305927726584e-03 3.375813184317e-03 0.0 
0.0 0.0 0.0 
1.021645280421e-03 9.959202129020e-04 0.0 
9.959202129020e-04 3.292429582544e-03 0.0 
0.0 0.0 0.0 
1.488772529802e-03 1.054440752913e-03 0.0 
1.054440752913e-03 2.592671136206e-03 0.0 
0.0 0.0 0.0 
5.351656421937e-04 9.005382162658e-04 0.0 
9.005382162658e-04 3.969029121984e-03 0.0 
0.0 0.0 0.0 
-2.038288089236e-04 3.229914890214e-03 0.0 
3.229914890214e-03 9.065951038353e-03 0.0 
0.0 0.0 0.0 
-1.497956355184e-04 3.350486930450e-03 0.0 
3.350486930450e-03 8.685998732923e-03 0.0 
0.0 0.0 0.0 
2.758004414073e-03 -2.586830987747e-03 0.0 
-2.586830987747e-03 -2.195786202928e-03 0.0 
0.0 0.0 0.0 
3.425558999135e-03 -2.039171155220e-03 0.0 
-2.039171155220e-03 -2.730957221800e-03 0.0 
0.0 0.0 0.0 
3.506645334914e-03 -1.801748979620e-03 0.0 
-1.801748979620e-03 -2.597454464623e-03 0.0 
0.0 0.0 0.0 
3.988937894249e-03 -1.355530804136e-03 0.0 
-1.355530804136e-03 -3.107303454454e-03 0.0 
0.0 0.0 0.0 
3.866208905973e-03 -1.590711499268e-03 0.0 
-1.590711499268e-03 -3.281407327535e-03 0.0 
0.0 0.0 0.0 
4.328103088033e-03 -7.335975827885e-04 0.0 
-7.335975827885e-04 -3.509193385644e-03 0.0 
0.0 0.0 0.0 
4.421617166900e-03 -6.025725427287e-04 0.0 
-6.025725427287e-04 -3.294746699955e-03 0.0 
0.0 0.0 0.0 
4.482083381271e-03 5.994078583965e-05 0.0 
5.994078583965e-05 -3.749631818549e-03 0.0 
0.0 0.0 0.0 
-4.366972038002e-04 3.102048624592e-03 0.0 
3.102048624592e-03 7.599445170226e-03 0.0 
0.0 0.0 0.0 
4.368272862658e-04 3.001950129625e-04 0.0 
3.001950129625e-04 4.053408267519e-03 0.0 
0.0 0.0 0.0 
1.688979738668e-03 -1.445990742661e-03 0.0 
-1.445990742661e-03 5.035756811698e-04 0.0 
0.0 0.0 0.0 
2.129522142052e-03 -1.388466119776e-03 0.0 
-1.388466119776e-03 -1.770083430400e-04 0.0 
0.0 0.0 0.0 
2.246173800893e-03 -1.571403394344e-03 0.0 
-1.571403394344e-03 -6.045733501578e-04 0.0 
0.0 0.0 0.0 
-3.989978837157e-04 -1.816700281557e-03 0.0 
-1.816700281557e-03 2.149659398508e-03 0.0 
0.0 0.0 0.0 
-8.673142925804e-05 -1.923427199235e-03 0.0 
-1.923427199235e-03 1.869135001827e-03 0.0 
0.0 0.0 0.0 
-6.780766342690e-05 -1.779694942068e-03 0.0 
-1.779694942068e-03 2.122400599602e-03 0.0 
0.0 0.0 0.0 
-6.655394347688e-04 -1.652802183075e-03 0.0 
-1.652802183075e-03 2.388610257673e-03 0.0 
0.0 0.0 0.0 
1.114928251854e-03 3.341977480668e-03 0.0 
3.341977480668e-03 3.466563461114e-03 0.0 
0.0 0.0 0.0 
3.857804657626e-04 4.524771572363e-05 0.0 
4.524771572363e-05 4.141346083222e-03 0.0 
0.0 0.0 0.0 
3.374113070219e-03 -2.342424477532e-05 0.0 
-2.342424477532e-05 -1.253256814977e-03 0.0 
0.0 0.0 0.0 
2.534167465562e-04 -2.114635544646e-03 0.0 
-2.114635544646e-03 1.330796597539e-03 0.0 
0.0 0.0 0.0 
-1.947911021400e-03 7.002070654426e-04 0.0 
7.002070654426e-04 8.914802704684e-03 0.0 
0.0 0.0 0.0 
-1.925471378245e-03 9.376416811947e-04 0.0 
9.376416811947e-04 9.141356548684e-03 0.0 
0.0 0.0 0.0 
-1.993799994001e-03 1.113381488802e-03 0.0 
1.113381488802e-03 9.045035492286e-03 0.0 
0.0 0.0 0.0 
-1.862474946308e-03 1.189963701277e-03 0.0 
1.189963701277e-03 9.354375593650e-03 0.0 
0.0 0.0 0.0 
-1.862215648182e-03 7.838913084137e-04 0.0 
7.838913084137e-04 9.262495939857e-03 0.0 
0.0 0.0 0.0 
-8.097728115998e-04 -1.226019520357e-03 0.0 
-1.226019520357e-03 3.254994863601e-03 0.0 
0.0 0.0 0.0 
-9.536118462820e-04 -9.733850999286e-04 0.0 
-9.733850999286e-04 3.613015302357e-03 0.0 
0.0 0.0 0.0 
-1.135216774544e-03 -8.113365438895e-04 0.0 
-8.113365438895e-04 3.684262957807e-03 0.0 
0.0 0.0 0.0 
-1.053657683939e-03 -7.235877277691e-04 0.0 
-7.235877277691e-04 3.916633127925e-03 0.0 
0.0 0.0 0.0 
-1.205812146279e-03 -5.578977823749e-04 0.0 
-5.578977823749e-04 3.931611108054e-03 0.0 
0.0 0.0 0.0 
-1.270741777571e-03 -6.268053334201e-04 0.0 
-6.268053334201e-04 3.720475440290e-03 0.0 
0.0 0.0 0.0 
-1.119179442551e-03 -4.761618659666e-04 0.0 
-4.761618659666e-04 4.170155586861e-03 0.0 
0.0 0.0 0.0 
-1.245421271484e-03 -3.216845684744e-04 0.0 
-3.216845684744e-04 4.110016048683e-03 0.0 
0.0 0.0 0.0 
-1.807265990642e-03 4.540295616962e-04 0.0 
4.540295616962e-04 9.006681209840e-03 0.0 
0.0 0.0 0.0 
-1.500871168466e-03 -2.363459988355e-03 0.0 
-2.363459988355e-03 -7.470931954311e-04 0.0 
0.0 0.0 0.0 
-6.145144373339e-04 -3.159436013233e-03 0.0 
-3.159436013233e-03 -4.890620714907e-04 0.0 
0.0 0.0 0.0 
-8.340972968204e-04 -2.328146263633e-03 0.0 
-2.328146263633e-03 5.434082402387e-04 0.0 
0.0 0.0 0.0 
2.700081221816e-05 -3.286194029346e-03 0.0 
-3.286194029346e-03 -4.260376475959e-04 0.0 
0.0 0.0 0.0 
9.098494290336e-04 -3.414182489621e-03 0.0 
-3.414182489621e-03 -2.040205585594e-03 0.0 
0.0 0.0 0.0 
1.309098431513e-03 -3.329220544091e-03 0.0 
-3.329220544091e-03 -1.680712093402e-03 0.0 
0.0 0.0 0.0 
2.205289992345e-03 -3.152276320162e-03 0.0 
-3.152276320162e-03 -3.045803733474e-03 0.0 
0.0 0.0 0.0 
1.815833727876e-04 -3.154822441782e-03 0.0 
-3.154822441782e-03 -2.492974155313e-03 0.0 
0.0 0.0 0.0 
-8.269181589937e-04 -8.373279026251e-04 0.0 
-8.373279026251e-04 5.121990174130e-04 0.0 
0.0 0.0 0.0 
-7.373022750509e-04 -1.566435844212e-03 0.0 
-1.566435844212e-03 7.137719020341e-04 0.0 
0.0 0.0 0.0 
-5.261628140253e-04 -5.104804479276e-04 0.0 
-5.104804479276e-04 4.539727045622e-04 0.0 
0.0 0.0 0.0 
-5.363395679788e-04 -1.142856217343e-03 0.0 
-1.142856217343e-03 6.898072363178e-04 0.0 
0.0 0.0 0.0 
-4.059914565248e-04 -2.047759295541e-03 0.0 
-2.047759295541e-03 6.760849065078e-04 0.0 
0.0 0.0 0.0 
-2.049393634023e-04 -1.731377958593e-03 0.0 
-1.731377958593e-03 9.897532993498e-04 0.0 
0.0 0.0 0.0 
-1.822332843468e-04 -4.260263840542e-04 0.0 
-4.260263840542e-04 5.681481269781e-03 0.0 
0.0 0.0 0.0 
-1.415729546125e-03 -2.516387445432e-04 0.0 
-2.516387445432e-04 3.532807869417e-03 0.0 
0.0 0.0 0.0 
-1.365239548938e-03 -4.954262276624e-04 0.0 
-4.954262276624e-04 3.355791015944e-03 0.0 
0.0 0.0 0.0 
-1.300425242400e-03 -4.791243381393e-04 0.0 
-4.791243381393e-04 3.119754295486e-03 0.0 
0.0 0.0 0.0 
-1.261025030019e-03 -7.533111518259e-04 0.0 
-7.533111518259e-04 3.123955303646e-03 0.0 
0.0 0.0 0.0 
-1.375222755319e-03 -4.765007856127e-04 0.0 
-4.765007856127e-04 3.573293770357e-03 0.0 
0.0 0.0 0.0 
-1.265330269955e-03 -2.291902600700e-04 0.0 
-2.291902600700e-04 3.021004288224e-03 0.0 
0.0 0.0 0.0 
-1.164056544198e-03 -4.439619313876e-04 0.0 
-4.439619313876e-04 2.853902495561e-03 0.0 
0.0 0.0 0.0 
1.941277326917e-03 -1.101768256946e-04 0.0 
-1.101768256946e-04 -5.586745645691e-04 0.0 
0.0 0.0 0.0 
1.410202234279e-03 -1.370031854327e-04 0.0 
-1.370031854327e-04 -1.545628894462e-05 0.0 
0.0 0.0 0.0 
1.551507177188e-03 -3.004457412942e-05 0.0 
-3.004457412942e-05 -1.135676101327e-04 0.0 
0.0 0.0 0.0 
8.670245417891e-04 -1.357729160092e-04 0.0 
-1.357729160092e-04 5.591813167301e-04 0.0 
0.0 0.0 0.0 
8.399491827110e-04 -2.193977642284e-04 0.0 
-2.193977642284e-04 5.535657069794e-04 0.0 
0.0 0.0 0.0 
1.319983757278e-03 -2.140689903038e-04 0.0 
-2.140689903038e-04 1.983831098901e-05 0.0 
0.0 0.0 0.0 
1.168533430069e-03 -2.858802143252e-04 0.0 
-2.858802143252e-04 7.689952370712e-05 0.0 
0.0 0.0 0.0 
1.614614402274e-03 -1.897530935369e-04 0.0 
-1.897530935369e-04 -4.192215049577e-04 0.0 
0.0 0.0 0.0 
9.755841185773e-04 -3.690070032926e-04 0.0 
-3.690070032926e-04 1.586301056305e-04 0.0 
0.0 0.0 0.0 
5.774087986481e-04 -4.255822067517e-04 0.0 
-4.255822067517e-04 6.430021051155e-04 0.0 
0.0 0.0 0.0 
1.392349441565e-03 -2.439236174710e-04 0.0 
-2.439236174710e-04 -3.363607429048e-04 0.0 
0.0 0.0 0.0 
-9.791613237567e-04 7.290934953253e-05 0.0 
7.290934953253e-05 1.070442884254e-02 0.0 
0.0 0.0 0.0 
-8.911498438655e-04 1.622162820381e-04 0.0 
1.622162820381e-04 1.086679625166e-02 0.0 
0.0 0.0 0.0 
2.734973845457e-04 -3.469936745700e-04 0.0 
-3.469936745700e-04 4.412881658071e-03 0.0 
0.0 0.0 0.0 
-1.655508485891e-03 2.961031792302e-04 0.0 
2.961031792302e-04 9.084076713126e-03 0.0 
0.0 0.0 0.0 
2.448801463898e-05 -3.477728152378e-04 0.0 
-3.477728152378e-04 2.674643803363e-04 0.0 
0.0 0.0 0.0 
-2.888765894174e-04 5.921079434754e-04 0.0 
5.921079434754e-04 1.159712069584e-02 0.0 
0.0 0.0 0.0 
-2.806031348023e-04 1.056326700517e-03 0.0 
1.056326700517e-03 1.148910686664e-02 0.0 
0.0 0.0 0.0 
-2.559450599690e-04 9.074662860417e-04 0.0 
9.074662860417e-04 1.155200689615e-02 0.0 
0.0 0.0 0.0 
-5.595995425748e-04 -1.204312238272e-04 0.0 
-1.204312238272e-04 5.470597393749e-03 0.0 
0.0 0.0 0.0 
-4.472437741246e-04 -2.249870860652e-04 0.0 
-2.249870860652e-04 5.559755875535e-03 0.0 
0.0 0.0 0.0 
-2.621801614309e-04 3.371311902299e-04 0.0 
3.371311902299e-04 1.164990951534e-02 0.0 
0.0 0.0 0.0 
-1.649526296352e-04 -2.037611690697e-03 0.0 
-2.037611690697e-03 1.303134898282e-03 0.0 
0.0 0.0 0.0 
-6.874650029117e-04 2.529899048995e-03 0.0 
2.529899048995e-03 9.870181085405e-03 0.0 
0.0 0.0 0.0 
-7.241496451337e-04 5.986091340544e-04 0.0 
5.986091340544e-04 1.116527633418e-02 0.0 
0.0 0.0 0.0 
3.026533386442e-03 3.164289689110e-03 0.0 
3.164289689110e-03 -2.794921258078e-03 0.0 
0.0 0.0 0.0 
6.182430492472e-04 -2.599313775034e-03 0.0 
-2.599313775034e-03 2.283805179938e-04 0.0 
0.0 0.0 0.0 
-8.606097320849e-04 -5.318110164853e-04 0.0 
-5.318110164853e-04 4.441773436304e-03 0.0 
0.0 0.0 0.0 
-9.356138630882e-07 -1.403086392811e-03 0.0 
-1.403086392811e-03 2.745627322471e-03 0.0 
0.0 0.0 0.0 
-4.172754241211e-04 -5.878663098513e-04 0.0 
-5.878663098513e-04 4.748379293084e-03 0.0 
0.0 0.0 0.0 
-6.577565197354e-04 -9.574492725404e-04 0.0 
-9.574492725404e-04 3.787014810466e-03 0.0 
0.0 0.0 0.0 
-1.542421759692e-04 -8.521525728319e-04 0.0 
-8.521525728319e-04 3.969555065346e-03 0.0 
0.0 0.0 0.0 
9.979143470968e-04 6.438523661648e-04 0.0 
6.438523661648e-04 3.234430266264e-03 0.0 
0.0 0.0 0.0 
-2.217666133336e-05 -3.977262413128e-04 0.0 
-3.977262413128e-04 1.425988850371e-03 0.0 
0.0 0.0 0.0 
-1.435458081040e-03 5.340540998644e-04 0.0 
5.340540998644e-04 1.004714006484e-02 0.0 
0.0 0.0 0.0 
-1.348454528450e-03 2.930562982708e-04 0.0 
2.930562982708e-04 9.963389057831e-03 0.0 
0.0 0.0 0.0 
-1.061454704560e-03 5.743938590583e-04 0.0 
5.743938590583e-04 1.072716899094e-02 0.0 
0.0 0.0 0.0 
-7.297548529874e-04 -1.359249455111e-03 0.0 
-1.359249455111e-03 2.136536655580e-03 0.0 
0.0 0.0 0.0 
-1.186428866143e-03 -8.865693228889e-04 0.0 
-8.865693228889e-04 3.466946462017e-03 0.0 
0.0 0.0 0.0 
-2.572356804393e-04 -1.120666403765e-03 0.0 
-1.120666403765e-03 1.342445496632e-03 0.0 
0.0 0.0 0.0 
1.435745451424e-04 3.329734668429e-03 0.0 
3.329734668429e-03 6.729898158564e-03 0.0 
0.0 0.0 0.0 
-1.360365336660e-03 2.866088803249e-03 0.0 
2.866088803249e-03 6.518608735452e-03 0.0 
0.0 0.0 0.0 
1.871301118906e-03 -1.860117706597e-03 0.0 
-1.860117706597e-03 -3.235466808658e-04 0.0 
0.0 0.0 0.0 
-4.078260803481e-04 -1.889298856769e-03 0.0 
-1.889298856769e-03 1.960471271104e-03 0.0 
0.0 0.0 0.0 
1.318290746605e-04 -2.293475443846e-03 0.0 
-2.293475443846e-03 9.940038954963e-04 0.0 
0.0 0.0 0.0 
8.802268436801e-04 -2.765280261171e-03 0.0 
-2.765280261171e-03 -2.028872862498e-04 0.0 
0.0 0.0 0.0 
1.495978326498e-03 3.738443553469e-03 0.0 
3.738443553469e-03 1.476246554521e-03 0.0 
0.0 0.0 0.0 
6.330796902648e-04 -2.116095512540e-03 0.0 
-2.116095512540e-03 9.797093902366e-04 0.0 
0.0 0.0 0.0 
8.316703786891e-04 -1.070522247816e-03 0.0 
-1.070522247816e-03 2.326467935006e-03 0.0 
0.0 0.0 0.0 
-9.308555074795e-04 5.250730695132e-04 0.0 
5.250730695132e-04 1.090093729837e-02 0.0 
0.0 0.0 0.0 
7.188446685514e-04 -3.330833282701e-04 0.0 
-3.330833282701e-04 -2.246909703883e-05 0.0 
0.0 0.0 0.0 
1.039282128075e-03 -8.540387589771e-04 0.0 
-8.540387589771e-04 2.280226696432e-03 0.0 
0.0 0.0 0.0 
6.070776046759e-04 -1.739806367775e-03 0.0 
-1.739806367775e-03 1.596850549706e-03 0.0 
0.0 0.0 0.0 
-1.535194395407e-03 8.715066353511e-04 0.0 
8.715066353511e-04 1.004633428395e-02 0.0 
0.0 0.0 0.0 
2.369660076786e-03 1.502517045521e-03 0.0 
1.502517045521e-03 1.238473492029e-03 0.0 
0.0 0.0 0.0 
1.001137251037e-03 -3.254844387727e-03 0.0 
-3.254844387727e-03 -9.508047535522e-04 0.0 
0.0 0.0 0.0 
-1.101356581067e-03 9.255583302383e-04 0.0 
9.255583302383e-04 1.072022319809e-02 0.0 
0.0 0.0 0.0 
-7.688156145059e-04 1.689901289234e-03 0.0 
1.689901289234e-03 1.076265973340e-02 0.0 
0.0 0.0 0.0 
-1.756015667636e-03 9.396623919295e-04 0.0 
9.396623919295e-04 9.597506759837e-03 0.0 
0.0 0.0 0.0 
-1.811468890863e-05 -8.464103830763e-04 0.0 
-8.464103830763e-04 1.022472577481e-03 0.0 
0.0 0.0 0.0 
-1.525139643907e-03 4.151198867519e-04 0.0 
4.151198867519e-04 9.706098714087e-03 0.0 
0.0 0.0 0.0 
9.208549543991e-04 -1.735898099753e-04 0.0 
-1.735898099753e-04 3.102516942938e-03 0.0 
0.0 0.0 0.0 
-1.319294109918e-03 1.695461990400e-03 0.0 
1.695461990400e-03 1.007309968487e-02 0.0 
0.0 0.0 0.0 
-7.521084678576e-04 -1.054933869301e-03 0.0 
-1.054933869301e-03 2.166392318282e-03 0.0 
0.0 0.0 0.0 
4.170728264961e-03 3.507736686509e-04 0.0 
3.507736686509e-04 -2.309710175199e-03 0.0 
0.0 0.0 0.0 
4.916551426939e-05 3.696277051976e-03 0.0 
3.696277051976e-03 3.891879775793e-03 0.0 
0.0 0.0 0.0 
-2.089986307683e-03 1.295675615805e-03 0.0 
1.295675615805e-03 8.067382254103e-03 0.0 
0.0 0.0 0.0 
-6.436437607321e-04 7.367467646808e-04 0.0 
7.367467646808e-04 1.123974999799e-02 0.0 
0.0 0.0 0.0 
2.611978074499e-03 3.216215221359e-03 0.0 
3.216215221359e-03 2.979710782944e-04 0.0 
0.0 0.0 0.0 
1.995017412312e-03 9.331327959940e-04 0.0 
9.331327959940e-04 1.702107124537e-03 0.0 
0.0 0.0 0.0 
3.306717218952e-03 5.313009870892e-04 0.0 
5.313009870892e-04 -8.372639661672e-04 0.0 
0.0 0.0 0.0 
-9.239730848679e-04 -8.744720497169e-04 0.0 
-8.744720497169e-04 2.448149863428e-03 0.0 
0.0 0.0 0.0 
4.375121406670e-04 -8.009105915718e-04 0.0 
-8.009105915718e-04 3.397302439582e-03 0.0 
0.0 0.0 0.0 
4.073963714206e-03 2.086105433787e-03 0.0 
2.086105433787e-03 -1.861472900319e-03 0.0 
0.0 0.0 0.0 
-8.834919545710e-04 1.043749399680e-03 0.0 
1.043749399680e-03 1.096358654966e-02 0.0 
0.0 0.0 0.0 
1.125890310491e-04 3.331238039831e-03 0.0 
3.331238039831e-03 5.566128757798e-03 0.0 
0.0 0.0 0.0 
4.699298977217e-03 9.349562749427e-04 0.0 
9.349562749427e-04 -3.010281084778e-03 0.0 
0.0 0.0 0.0 
-1.121223521275e-03 1.354097962606e-03 0.0 
1.354097962606e-03 1.059170804206e-02 0.0 
0.0 0.0 0.0 
2.694045575214e-03 -1.386666791394e-03 0.0 
-1.386666791394e-03 -1.151590024022e-03 0.0 
0.0 0.0 0.0 
2.047900046698e-03 1.831373726770e-03 0.0 
1.831373726770e-03 1.925692803591e-03 0.0 
0.0 0.0 0.0 
-1.163154318713e-03 3.057839766243e-03 0.0 
3.057839766243e-03 5.933364001396e-03 0.0 
0.0 0.0 0.0 
-5.066217338403e-05 3.544061030467e-03 0.0 
3.544061030467e-03 4.990379846737e-03 0.0 
0.0 0.0 0.0 
-1.000076021253e-03 2.920677919999e-03 0.0 
2.920677919999e-03 7.477984304714e-03 0.0 
0.0 0.0 0.0 
1.141805274379e-03 3.646849873847e-03 0.0 
3.646849873847e-03 2.696302164514e-03 0.0 
0.0 0.0 0.0 
-1.015313545112e-03 -3.926163942220e-04 0.0 
-3.926163942220e-04 4.429661382624e-03 0.0 
0.0 0.0 0.0 
7.174047399421e-04 -8.336267411595e-04 0.0 
-8.336267411595e-04 2.854812686126e-03 0.0 
0.0 0.0 0.0 
3.385622205983e-03 -1.136339858005e-03 0.0 
-1.136339858005e-03 -4.310526163672e-03 0.0 
0.0 0.0 0.0 
1.170544067082e-03 3.911045062477e-03 0.0 
3.911045062477e-03 1.454268319907e-03 0.0 
0.0 0.0 0.0 
-1.629109379138e-03 1.100943628160e-03 0.0 
1.100943628160e-03 9.876776405358e-03 0.0 
0.0 0.0 0.0 
5.777923401685e-04 3.159659115323e-03 0.0 
3.159659115323e-03 5.223654199400e-03 0.0 
0.0 0.0 0.0 
-6.338554723984e-04 1.151791288606e-03 0.0 
1.151791288606e-03 1.118292723326e-02 0.0 
0.0 0.0 0.0 
-9.506489657013e-05 3.690737664667e-03 0.0 
3.690737664667e-03 3.865273819143e-03 0.0 
0.0 0.0 0.0 
2.551241468673e-04 -9.109538078434e-04 0.0 
-9.109538078434e-04 3.433862543884e-03 0.0 
0.0 0.0 0.0 
-8.717604783196e-04 1.489283701005e-03 0.0 
1.489283701005e-03 1.079807931689e-02 0.0 
0.0 0.0 0.0 
2.560947851733e-04 -1.965981605917e-03 0.0 
-1.965981605917e-03 1.565108588037e-03 0.0 
0.0 0.0 0.0 
-3.202299583318e-04 -1.380913283146e-04 0.0 
-1.380913283146e-04 1.812012140846e-03 0.0 
0.0 0.0 0.0 
2.202160469061e-03 3.443627731175e-03 0.0 
3.443627731175e-03 -2.678737945470e-03 0.0 
0.0 0.0 0.0 
4.619732325499e-03 9.560943557531e-04 0.0 
9.560943557531e-04 -3.512257032495e-03 0.0 
0.0 0.0 0.0 
3.223229708894e-03 2.979175711927e-03 0.0 
2.979175711927e-03 -6.512575262356e-04 0.0 
0.0 0.0 0.0 
2.637035192307e-04 -1.792045555628e-03 0.0 
-1.792045555628e-03 1.856424602876e-03 0.0 
0.0 0.0 0.0 
-6.379416074900e-04 2.265572523350e-03 0.0 
2.265572523350e-03 1.033260140813e-02 0.0 
0.0 0.0 0.0 
3.790169520897e-05 -8.155626838154e-04 0.0 
-8.155626838154e-04 3.919779657399e-03 0.0 
0.0 0.0 0.0 
1.899057330772e-03 -4.349313677405e-04 0.0 
-4.349313677405e-04 1.161990917408e-03 0.0 
0.0 0.0 0.0 
-1.242596480793e-03 3.610199593649e-03 0.0 
3.610199593649e-03 6.268542073385e-04 0.0 
0.0 0.0 0.0 
-2.032146287478e-03 1.640919090510e-03 0.0 
1.640919090510e-03 7.927066253188e-03 0.0 
0.0 0.0 0.0 
-1.326396160823e-04 -7.161861579289e-04 0.0 
-7.161861579289e-04 4.361653880063e-03 0.0 
0.0 0.0 0.0 
3.749344322175e-03 -1.394157631451e-04 0.0 
-1.394157631451e-04 -1.902442092761e-03 0.0 
0.0 0.0 0.0 
1.934289239561e-03 1.541312126950e-03 0.0 
1.541312126950e-03 2.025012327205e-03 0.0 
0.0 0.0 0.0 
-1.322121603011e-03 -3.887613938262e-04 0.0 
-3.887613938262e-04 3.904895549698e-03 0.0 
0.0 0.0 0.0 
2.887508506227e-04 3.262655478084e-03 0.0 
3.262655478084e-03 6.220639467986e-03 0.0 
0.0 0.0 0.0 
-1.662205439616e-03 2.224481278400e-03 0.0 
2.224481278400e-03 6.391784790124e-03 0.0 
0.0 0.0 0.0 
-2.558439888457e-04 -6.191755862455e-04 0.0 
-6.191755862455e-04 4.761265980530e-03 0.0 
0.0 0.0 0.0 
2.268874949370e-03 1.416885114074e-04 0.0 
1.416885114074e-04 8.692725198419e-04 0.0 
0.0 0.0 0.0 
3.044229619812e-03 3.539534401512e-03 0.0 
3.539534401512e-03 -1.143145029561e-03 0.0 
0.0 0.0 0.0 
-1.394505959043e-03 5.020913734500e-05 0.0 
5.020913734500e-05 9.031480771816e-03 0.0 
0.0 0.0 0.0 
-1.817024506647e-04 -5.624593837612e-04 0.0 
-5.624593837612e-04 5.185987423889e-03 0.0 
0.0 0.0 0.0 
1.863400797913e-03 3.278245410774e-04 0.0 
3.278245410774e-04 1.666538054381e-03 0.0 
0.0 0.0 0.0 
1.155471386804e-03 3.527238986683e-03 0.0 
3.527238986683e-03 3.032809962338e-03 0.0 
0.0 0.0 0.0 
3.532063990620e-03 -6.621246878586e-04 0.0 
-6.621246878586e-04 -1.871523631879e-03 0.0 
0.0 0.0 0.0 
-1.987129265523e-03 1.458927261868e-03 0.0 
1.458927261868e-03 7.435071053450e-03 0.0 
0.0 0.0 0.0 
-3.760804476137e-05 -1.606065482885e-03 0.0 
-1.606065482885e-03 2.416007065973e-03 0.0 
0.0 0.0 0.0 
-3.278717607332e-04 3.401059289799e-03 0.0 
3.401059289799e-03 5.750873843352e-03 0.0 
0.0 0.0 0.0 
-3.042066059169e-04 1.971100632539e-03 0.0 
1.971100632539e-03 1.094205897370e-02 0.0 
0.0 0.0 0.0 
1.720538011524e-03 6.838503976291e-04 0.0 
6.838503976291e-04 2.030162655439e-03 0.0 
0.0 0.0 0.0 
-1.615114906898e-03 1.947593731710e-03 0.0 
1.947593731710e-03 9.155346750991e-03 0.0 
0.0 0.0 0.0 
-3.401466261716e-04 -1.566589557624e-03 0.0 
-1.566589557624e-03 2.636086369667e-03 0.0 
0.0 0.0 0.0 
2.427282605019e-03 2.581593672937e-03 0.0 
2.581593672937e-03 1.182579819880e-03 0.0 
0.0 0.0 0.0 
7.542969615230e-04 -3.000756523698e-04 0.0 
-3.000756523698e-04 5.736564751658e-04 0.0 
0.0 0.0 0.0 
-1.901466509997e-03 1.881927555916e-03 0.0 
1.881927555916e-03 7.203552229254e-03 0.0 
0.0 0.0 0.0 
-5.628762012973e-04 -1.336200959993e-03 0.0 
-1.336200959993e-03 3.099855885845e-03 0.0 
0.0 0.0 0.0 
4.634431005638e-03 1.220949261298e-04 0.0 
1.220949261298e-04 -3.515529333801e-03 0.0 
0.0 0.0 0.0 
3.017686986744e-03 -9.809182091601e-04 0.0 
-9.809182091601e-04 -1.332875502221e-03 0.0 
0.0 0.0 0.0 
9.905014643037e-04 2.408392638429e-03 0.0 
2.408392638429e-03 4.040602038618e-03 0.0 
0.0 0.0 0.0 
-7.379605581166e-04 -1.097986247627e-03 0.0 
-1.097986247627e-03 3.509687117997e-03 0.0 
0.0 0.0 0.0 
4.657616107915e-03 1.782394568399e-04 0.0 
1.782394568399e-04 -3.254754911698e-03 0.0 
0.0 0.0 0.0 
-8.690773470252e-04 -8.598701832600e-04 0.0 
-8.598701832600e-04 3.865999863731e-03 0.0 
0.0 0.0 0.0 
-1.803697304127e-03 1.703137945958e-03 0.0 
1.703137945958e-03 6.772655265315e-03 0.0 
0.0 0.0 0.0 
-1.471486821703e-03 2.192085946890e-03 0.0 
2.192085946890e-03 8.979472364735e-03 0.0 
0.0 0.0 0.0 
-9.627918366462e-04 -6.240115663645e-04 0.0 
-6.240115663645e-04 4.176717972298e-03 0.0 
0.0 0.0 0.0 
-2.130387919484e-04 3.311632276382e-03 0.0 
3.311632276382e-03 6.003002055364e-03 0.0 
0.0 0.0 0.0 
3.696685037318e-04 -5.735281225018e-04 0.0 
-5.735281225018e-04 7.368530782868e-04 0.0 
0.0 0.0 0.0 
1.523420713768e-03 3.328401590377e-03 0.0 
3.328401590377e-03 2.575060348422e-03 0.0 
0.0 0.0 0.0 
-6.146828958197e-04 -2.494112469195e-04 0.0 
-2.494112469195e-04 5.263137921196e-03 0.0 
0.0 0.0 0.0 
9.622486141827e-04 -2.505427033654e-03 0.0 
-2.505427033654e-03 1.669439125441e-04 0.0 
0.0 0.0 0.0 
2.577017698655e-03 -1.230635910313e-03 0.0 
-1.230635910313e-03 -8.063370038111e-04 0.0 
0.0 0.0 0.0 
-1.253277797170e-03 2.318363745676e-03 0.0 
2.318363745676e-03 9.156807758532e-03 0.0 
0.0 0.0 0.0 
-1.575333327708e-03 2.000276955669e-03 0.0 
2.000276955669e-03 6.098372153899e-03 0.0 
0.0 0.0 0.0 
2.404778472928e-03 -1.026002725060e-03 0.0 
-1.026002725060e-03 -2.609503859027e-04 0.0 
0.0 0.0 0.0 
-1.285088097997e-04 3.243744351348e-03 0.0 
3.243744351348e-03 6.299257231161e-03 0.0 
0.0 0.0 0.0 
1.811450986928e-03 3.065176787024e-03 0.0 
3.065176787024e-03 2.238287030286e-03 0.0 
0.0 0.0 0.0 
3.017112952512e-03 2.884477156034e-03 0.0 
2.884477156034e-03 -2.014117695253e-04 0.0 
0.0 0.0 0.0 
2.179812890308e-03 -7.209884341978e-04 0.0 
-7.209884341978e-04 4.379972072218e-04 0.0 
0.0 0.0 0.0 
-1.351923605775e-03 2.631249029525e-03 0.0 
2.631249029525e-03 5.520580149959e-03 0.0 
0.0 0.0 0.0 
2.663254489760e-05 -2.211180032902e-03 0.0 
-2.211180032902e-03 9.821654298996e-04 0.0 
0.0 0.0 0.0 
-9.137001398046e-05 -2.023297092236e-03 0.0 
-2.023297092236e-03 9.883809471444e-04 0.0 
0.0 0.0 0.0 
4.392703425823e-03 -4.855558836909e-04 0.0 
-4.855558836909e-04 -3.015854211501e-03 0.0 
0.0 0.0 0.0 
-3.150369247807e-04 3.165428342832e-03 0.0 
3.165428342832e-03 6.983632280439e-03 0.0 
0.0 0.0 0.0 
3.425996313600e-04 -2.223926567619e-04 0.0 
-2.223926567619e-04 1.087851974007e-03 0.0 
0.0 0.0 0.0 
-1.093915029376e-03 2.640139267555e-03 0.0 
2.640139267555e-03 8.486522807991e-03 0.0 
0.0 0.0 0.0 
-2.155326457968e-04 -1.831525217579e-03 0.0 
-1.831525217579e-03 8.574695623406e-04 0.0 
0.0 0.0 0.0 
4.023118089746e-03 -1.190562390845e-03 0.0 
-1.190562390845e-03 -2.898462719460e-03 0.0 
0.0 0.0 0.0 
1.707407199982e-03 2.643763340083e-03 0.0 
2.643763340083e-03 2.714766221799e-03 0.0 
0.0 0.0 0.0 
-1.222779425638e-03 4.345118734965e-05 0.0 
4.345118734965e-05 1.006706057331e-02 0.0 
0.0 0.0 0.0 
3.498417532905e-03 -1.606632713220e-03 0.0 
-1.606632713220e-03 -2.391722485558e-03 0.0 
0.0 0.0 0.0 
-7.468878327682e-04 -1.716696067474e-04 0.0 
-1.716696067474e-04 2.290483194171e-03 0.0 
0.0 0.0 0.0 
2.944197580718e-03 -2.068013367845e-03 0.0 
-2.068013367845e-03 -1.998653189934e-03 0.0 
0.0 0.0 0.0 
2.741785737255e-03 2.769348954905e-03 0.0 
2.769348954905e-03 4.321376861498e-04 0.0 
0.0 0.0 0.0 
2.357820061479e-03 -2.170435046901e-03 0.0 
-2.170435046901e-03 -1.296861685848e-03 0.0 
0.0 0.0 0.0 
1.834007484760e-03 -2.411056605025e-03 0.0 
-2.411056605025e-03 -8.178307718185e-04 0.0 
0.0 0.0 0.0 
-4.933989602464e-04 6.668226697727e-04 0.0 
6.668226697727e-04 1.139856941938e-02 0.0 
0.0 0.0 0.0 
1.427654962549e-03 -2.431818297537e-03 0.0 
-2.431818297537e-03 -2.748950579119e-04 0.0 
0.0 0.0 0.0 
-2.238421135845e-04 1.945300890515e-04 0.0 
1.945300890515e-04 1.170427319731e-02 0.0 
0.0 0.0 0.0 
-2.213491638614e-04 -2.140484613964e-04 0.0 
-2.140484613964e-04 5.858750982387e-03 0.0 
0.0 0.0 0.0 
-1.354662847731e-03 2.394254026737e-05 0.0 
2.394254026737e-05 9.331655026481e-03 0.0 
0.0 0.0 0.0 
-1.368035596430e-03 2.224304534731e-03 0.0 
2.224304534731e-03 5.491661103884e-03 0.0 
0.0 0.0 0.0 
-1.691106624452e-03 1.961701194027e-04 0.0 
1.961701194027e-04 -3.920168031241e-03 0.0 
0.0 0.0 0.0 
-9.400032810929e-04 3.221532821811e-03 0.0 
3.221532821811e-03 4.335271671253e-03 0.0 
0.0 0.0 0.0 
8.280792658006e-04 -2.576497092235e-03 0.0 
-2.576497092235e-03 1.546688870494e-04 0.0 
0.0 0.0 0.0 
-8.201168227248e-04 2.943227964400e-03 0.0 
2.943227964400e-03 7.664758696207e-03 0.0 
0.0 0.0 0.0 
-1.363138157403e-03 6.360899095283e-05 0.0 
6.360899095283e-05 9.349826522904e-03 0.0 
0.0 0.0 0.0 
3.794667453100e-04 -2.461705862340e-03 0.0 
-2.461705862340e-03 6.105635193232e-04 0.0 
0.0 0.0 0.0 
-4.214632704836e-04 3.031260456769e-03 0.0 
3.031260456769e-03 9.007007042362e-03 0.0 
0.0 0.0 0.0 
2.540652896689e-04 3.196970440983e-03 0.0 
3.196970440983e-03 6.022572293321e-03 0.0 
0.0 0.0 0.0 
-1.054858491334e-03 1.394599128161e-04 0.0 
1.394599128161e-04 1.055362502909e-02 0.0 
0.0 0.0 0.0 
1.750673704422e-03 1.284354978463e-03 0.0 
1.284354978463e-03 2.201995525765e-03 0.0 
0.0 0.0 0.0 
1.999939326736e-03 2.762028094059e-03 0.0 
2.762028094059e-03 2.031193423895e-03 0.0 
0.0 0.0 0.0 
-6.371079824612e-04 9.538159431588e-05 0.0 
9.538159431588e-05 1.125363445427e-02 0.0 
0.0 0.0 0.0 
-1.502941862450e-03 1.303012577530e-04 0.0 
1.303012577530e-04 9.015268426494e-03 0.0 
0.0 0.0 0.0 
-3.575819837995e-04 -9.076319552609e-04 0.0 
-9.076319552609e-04 6.489583442248e-04 0.0 
0.0 0.0 0.0 
-1.006157776591e-03 -1.813426969967e-04 0.0 
-1.813426969967e-04 4.645605859858e-03 0.0 
0.0 0.0 0.0 
-1.379875449176e-03 2.696441885336e-03 0.0 
2.696441885336e-03 4.699655883145e-03 0.0 
0.0 0.0 0.0 
-6.668788872872e-04 3.536005545398e-03 0.0 
3.536005545398e-03 3.062190133036e-03 0.0 
0.0 0.0 0.0 
-3.396788201176e-04 3.816549618772e-03 0.0 
3.816549618772e-03 1.669668741058e-03 0.0 
0.0 0.0 0.0 
-1.063065940655e-03 -6.611708266602e-04 0.0 
-6.611708266602e-04 2.679219226429e-03 0.0 
0.0 0.0 0.0 
-3.895100860377e-04 -2.633948085573e-03 0.0 
-2.633948085573e-03 4.516795171445e-04 0.0 
0.0 0.0 0.0 
-1.199491547204e-03 3.346340915167e-03 0.0 
3.346340915167e-03 3.376773011140e-03 0.0 
0.0 0.0 0.0 
1.041185132411e-03 1.601751227499e-03 0.0 
1.601751227499e-03 3.466037937720e-03 0.0 
0.0 0.0 0.0 
-1.681946344832e-03 4.357094281425e-04 0.0 
4.357094281425e-04 9.333694344638e-03 0.0 
0.0 0.0 0.0 
1.351318981157e-03 2.797728843607e-03 0.0 
2.797728843607e-03 3.473457941501e-03 0.0 
0.0 0.0 0.0 
-1.065502889913e-03 3.533012287358e-03 0.0 
3.533012287358e-03 2.070458809065e-03 0.0 
0.0 0.0 0.0 
-5.971106311888e-04 1.619105492799e-03 0.0 
1.619105492799e-03 1.097039178383e-02 0.0 
0.0 0.0 0.0 
7.043634771488e-04 2.814457217374e-03 0.0 
2.814457217374e-03 4.824934781684e-03 0.0 
0.0 0.0 0.0 
9.908575521408e-05 -5.844107166647e-04 0.0 
-5.844107166647e-04 4.887880752314e-03 0.0 
0.0 0.0 0.0 
1.066898874304e-03 2.765074127420e-03 0.0 
2.765074127420e-03 4.101003076103e-03 0.0 
0.0 0.0 0.0 
-1.160852820302e-04 3.992153610836e-03 0.0 
3.992153610836e-03 1.340726956419e-04 0.0 
0.0 0.0 0.0 
-1.844989343813e-03 9.991545477686e-04 0.0 
9.991545477686e-04 9.409502976726e-03 0.0 
0.0 0.0 0.0 
8.166732238598e-06 3.345312888069e-03 0.0 
3.345312888069e-03 7.218093457773e-03 0.0 
0.0 0.0 0.0 
-9.589536473754e-04 2.321616079625e-04 0.0 
2.321616079625e-04 1.079458671991e-02 0.0 
0.0 0.0 0.0 
-1.440487576134e-05 -6.144442153583e-04 0.0 
-6.144442153583e-04 5.251577922152e-03 0.0 
0.0 0.0 0.0 
-1.814550187656e-03 6.176780581332e-04 0.0 
6.176780581332e-04 9.231423641056e-03 0.0 
0.0 0.0 0.0 
-4.260297487387e-04 4.389612345008e-04 0.0 
4.389612345008e-04 1.148041719866e-02 0.0 
0.0 0.0 0.0 
3.005407282353e-03 -2.350819513550e-03 0.0 
-2.350819513550e-03 -3.929642875170e-03 0.0 
0.0 0.0 0.0 
-4.070582235839e-04 2.279911600204e-04 0.0 
2.279911600204e-04 1.150995728297e-02 0.0 
0.0 0.0 0.0 
-6.527286772124e-04 2.986575806531e-03 0.0 
2.986575806531e-03 7.886661674640e-03 0.0 
0.0 0.0 0.0 
-1.354245316189e-03 2.142200569350e-04 0.0 
2.142200569350e-04 9.811710515696e-03 0.0 
0.0 0.0 0.0 
-1.922394594553e-03 1.329842258662e-03 0.0 
1.329842258662e-03 9.157913707076e-03 0.0 
0.0 0.0 0.0 
-3.172594640108e-04 -3.218597709093e-04 0.0 
-3.218597709093e-04 5.611957554590e-03 0.0 
0.0 0.0 0.0 
-5.448270372160e-04 2.707004323877e-03 0.0 
2.707004323877e-03 9.718966718190e-03 0.0 
0.0 0.0 0.0 
5.144891560698e-05 4.044643065391e-03 0.0 
4.044643065391e-03 -1.105046457086e-03 0.0 
0.0 0.0 0.0 
-1.085599871322e-03 2.134603984500e-04 0.0 
2.134603984500e-04 1.053392993884e-02 0.0 
0.0 0.0 0.0 
-1.152468650203e-03 -1.015503721967e-03 0.0 
-1.015503721967e-03 2.963938075658e-03 0.0 
0.0 0.0 0.0 
5.582924700388e-04 -1.954066912888e-03 0.0 
-1.954066912888e-03 -3.940781372107e-03 0.0 
0.0 0.0 0.0 
4.279112186866e-04 -4.183085203098e-04 0.0 
-4.183085203098e-04 4.021080375132e-03 0.0 
0.0 0.0 0.0 
-4.954509245398e-04 3.049392093303e-03 0.0 
3.049392093303e-03 8.121502214944e-03 0.0 
0.0 0.0 0.0 
-2.446892419113e-04 -4.859209952493e-04 0.0 
-4.859209952493e-04 5.389841618059e-03 0.0 
0.0 0.0 0.0 
9.413441922141e-04 -2.813670004834e-05 0.0 
-2.813670004834e-05 5.124091683654e-04 0.0 
0.0 0.0 0.0 
1.605856047803e-04 -5.670624074048e-04 0.0 
-5.670624074048e-04 4.078981548076e-04 0.0 
0.0 0.0 0.0 
6.306432448647e-04 -9.730834781667e-05 0.0 
-9.730834781667e-05 3.722822216166e-03 0.0 
0.0 0.0 0.0 
-2.419410434402e-04 3.260551736349e-03 0.0 
3.260551736349e-03 8.259247764444e-03 0.0 
0.0 0.0 0.0 
2.596362705917e-03 -2.955853791748e-03 0.0 
-2.955853791748e-03 -2.836237486869e-03 0.0 
0.0 0.0 0.0 
-2.493146120825e-04 1.421261338612e-03 0.0 
1.421261338612e-03 1.135380024175e-02 0.0 
0.0 0.0 0.0 
-4.182495287506e-04 3.597248685685e-03 0.0 
3.597248685685e-03 -2.118941395431e-03 0.0 
0.0 0.0 0.0 
-1.600026471349e-03 2.097057115090e-04 0.0 
2.097057115090e-04 8.976631124310e-03 0.0 
0.0 0.0 0.0 
7.902860213472e-04 -4.500523642192e-04 0.0 
-4.500523642192e-04 2.015732980259e-04 0.0 
0.0 0.0 0.0 
-6.837087730018e-05 -5.848769230695e-04 0.0 
-5.848769230695e-04 5.482572344048e-03 0.0 
0.0 0.0 0.0 
-4.961539878735e-04 1.067446415528e-03 0.0 
1.067446415528e-03 1.131009410403e-02 0.0 
0.0 0.0 0.0 
-1.330764353182e-03 -6.776282929612e-04 0.0 
-6.776282929612e-04 3.394384850153e-03 0.0 
0.0 0.0 0.0 
-2.048148914844e-03 1.038635753797e-03 0.0 
1.038635753797e-03 8.732128556164e-03 0.0 
0.0 0.0 0.0 
-9.399946101591e-04 -3.965118975063e-04 0.0 
-3.965118975063e-04 2.534279797220e-03 0.0 
0.0 0.0 0.0 
4.826428636996e-04 3.183016385508e-03 0.0 
3.183016385508e-03 5.589869490976e-03 0.0 
0.0 0.0 0.0 
-4.674785369379e-04 -1.507831871792e-03 0.0 
-1.507831871792e-03 8.147458501854e-04 0.0 
0.0 0.0 0.0 
-4.428699349807e-04 7.922738481916e-04 0.0 
7.922738481916e-04 1.142814350155e-02 0.0 
0.0 0.0 0.0 
8.012993511020e-04 3.874207274152e-04 0.0 
3.874207274152e-04 3.502653447199e-03 0.0 
0.0 0.0 0.0 
-5.578380109569e-04 2.143201982292e-03 0.0 
2.143201982292e-03 1.056835348243e-02 0.0 
0.0 0.0 0.0 
3.925459580541e-04 2.263616144624e-03 0.0 
2.263616144624e-03 4.786677390354e-03 0.0 
0.0 0.0 0.0 
2.281268030196e-04 1.063748697920e-03 0.0 
1.063748697920e-03 -4.299310375701e-03 0.0 
0.0 0.0 0.0 
5.070243235346e-04 3.019591081984e-03 0.0 
3.019591081984e-03 5.385666088960e-03 0.0 
0.0 0.0 0.0 
1.348358618569e-03 7.870355072193e-04 0.0 
7.870355072193e-04 2.709985644956e-03 0.0 
0.0 0.0 0.0 
-1.448316477218e-03 9.707101246281e-05 0.0 
9.707101246281e-05 9.007562752842e-03 0.0 
0.0 0.0 0.0 
-5.662319902591e-04 2.452601311113e-03 0.0 
2.452601311113e-03 1.013311038835e-02 0.0 
0.0 0.0 0.0 
-1.205326010370e-03 -6.722245497466e-04 0.0 
-6.722245497466e-04 2.938315650933e-03 0.0 
0.0 0.0 0.0 
1.654398369884e-04 -5.678103056347e-04 0.0 
-5.678103056347e-04 1.056654191858e-03 0.0 
0.0 0.0 0.0 
-1.829634598875e-04 9.433138912880e-05 0.0 
9.433138912880e-05 1.173840687123e-02 0.0 
0.0 0.0 0.0 
2.243029874237e-03 -6.277645717168e-06 0.0 
-6.277645717168e-06 -7.572246435126e-04 0.0 
0.0 0.0 0.0 
-1.378032591502e-03 9.610380442675e-06 0.0 
9.610380442675e-06 8.971657714635e-03 0.0 
0.0 0.0 0.0 
-1.805450419310e-04 -9.373709673891e-05 0.0 
-9.373709673891e-05 5.955841485181e-03 0.0 
0.0 0.0 0.0 
4.153138910925e-04 -3.054533092130e-04 0.0 
-3.054533092130e-04 9.618122411400e-04 0.0 
0.0 0.0 0.0 
-1.325436677118e-03 6.278681545103e-05 0.0 
6.278681545103e-05 9.615813835695e-03 0.0 
0.0 0.0 0.0 
-3.185812467853e-04 3.170208438517e-03 0.0 
3.170208438517e-03 8.675215043312e-03 0.0 
0.0 0.0 0.0 
-1.334837085154e-03 -1.750483179390e-04 0.0 
-1.750483179390e-04 4.003248685850e-03 0.0 
0.0 0.0 0.0 
-7.494294528701e-04 1.584757470909e-04 0.0 
1.584757470909e-04 1.109217365272e-02 0.0 
0.0 0.0 0.0 
3.021925998556e-04 -3.179330295714e-03 0.0 
-3.179330295714e-03 -3.687631178112e-04 0.0 
0.0 0.0 0.0 
-2.008364200603e-03 -5.928605906981e-04 0.0 
-5.928605906981e-04 -3.720763588491e-03 0.0 
0.0 0.0 0.0 
-1.173101686204e-03 9.699114629829e-05 0.0 
9.699114629829e-05 1.025143491366e-02 0.0 
0.0 0.0 0.0 
7.325553013388e-04 2.628877389818e-03 0.0 
2.628877389818e-03 4.580167289495e-03 0.0 
0.0 0.0 0.0 
-5.334778811177e-04 1.798145946929e-03 0.0 
1.798145946929e-03 1.090661584035e-02 0.0 
0.0 0.0 0.0 
-1.291431084740e-03 2.062668096236e-04 0.0 
2.062668096236e-04 1.000818603556e-02 0.0 
0.0 0.0 0.0 
1.297880067171e-03 3.767977437525e-03 0.0 
3.767977437525e-03 -2.266512279873e-03 0.0 
0.0 0.0 0.0 
-3.779913348445e-04 3.142037027799e-03 0.0 
3.142037027799e-03 8.312754983551e-03 0.0 
0.0 0.0 0.0 
-1.309754869593e-03 -6.818791193207e-04 0.0 
-6.818791193207e-04 3.530080369658e-03 0.0 
0.0 0.0 0.0 
9.636526869650e-05 3.293307194168e-03 0.0 
3.293307194168e-03 6.683973566060e-03 0.0 
0.0 0.0 0.0 
1.373827725222e-03 1.365383808470e-03 0.0 
1.365383808470e-03 2.868873250288e-03 0.0 
0.0 0.0 0.0 
-1.616031574162e-03 3.704643104872e-03 0.0 
3.704643104872e-03 -1.446462233595e-03 0.0 
0.0 0.0 0.0 
-1.255321683885e-03 -1.414354884632e-04 0.0 
-1.414354884632e-04 4.191486149168e-03 0.0 
0.0 0.0 0.0 
6.333177765252e-04 -4.845747606633e-04 0.0 
-4.845747606633e-04 2.180531693868e-04 0.0 
0.0 0.0 0.0 
1.096340643389e-04 -6.149417793232e-04 0.0 
-6.149417793232e-04 4.693395081218e-03 0.0 
0.0 0.0 0.0 
-1.352114084987e-03 -4.740966024094e-04 0.0 
-4.740966024094e-04 3.714313330361e-03 0.0 
0.0 0.0 0.0 
-1.270924551572e-03 1.279762612827e-03 0.0 
1.279762612827e-03 5.654660848899e-03 0.0 
0.0 0.0 0.0 
-1.174619327433e-03 -6.406868387965e-06 0.0 
-6.406868387965e-06 6.213811007674e-03 0.0 
0.0 0.0 0.0 
-1.327746704466e-03 1.354486501061e-03 0.0 
1.354486501061e-03 5.928946442238e-03 0.0 
0.0 0.0 0.0 
-1.214534133210e-03 -1.304021590602e-05 0.0 
-1.304021590602e-05 6.637772368311e-03 0.0 
0.0 0.0 0.0 
-1.587622147993e-03 1.215086841739e-03 0.0 
1.215086841739e-03 6.480258235593e-03 0.0 
0.0 0.0 0.0 
-1.264050324749e-03 -1.180527064388e-05 0.0 
-1.180527064388e-05 7.129498969014e-03 0.0 
0.0 0.0 0.0 
-1.828634127763e-03 1.063364739983e-03 0.0 
1.063364739983e-03 7.055197297525e-03 0.0 
0.0 0.0 0.0 
-1.312189000720e-03 -9.552503273192e-06 0.0 
-9.552503273192e-06 7.557794507503e-03 0.0 
0.0 0.0 0.0 
-2.004639936379e-03 9.311190761330e-04 0.0 
9.311190761330e-04 7.636810439707e-03 0.0 
0.0 0.0 0.0 
-1.351905768798e-03 -4.980044596730e-06 0.0 
-4.980044596730e-06 8.038117536081e-03 0.0 
0.0 0.0 0.0 
-2.097365406571e-03 8.610476882550e-04 0.0 
8.610476882550e-04 8.176406580053e-03 0.0 
0.0 0.0 0.0 
-1.379367546923e-03 7.207117520341e-06 0.0 
7.207117520341e-06 8.450090877271e-03 0.0 
0.0 0.0 0.0 

TENSORS node_materi_strain_plasti float
2.934499401238e-03 -6.293764513238e-05 0.0 
-6.293764513238e-05 -1.067748591947e-03 0.0 
0.0 0.0 -1.096634683480e-04 
-1.402797370443e-03 -1.078294972551e-04 0.0 
-1.078294972551e-04 4.900277451411e-03 0.0 
0.0 0.0 -6.959116756397e-04 
-1.452967895051e-03 -5.509598229541e-05 0.0 
-5.509598229541e-05 7.203997768270e-03 0.0 
0.0 0.0 -1.332621093165e-03 
-1.383162840862e-03 -3.297498286580e-05 0.0 
-3.297498286580e-05 8.816768276200e-03 0.0 
0.0 0.0 -1.332621093165e-03 
2.013745495957e-03 -6.316916865917e-05 0.0 
-6.316916865917e-05 -5.120452549012e-04 0.0 
0.0 0.0 -2.200719611176e-04 
9.770148188976e-04 3.431498766894e-05 0.0 
3.431498766894e-05 4.169221136190e-04 0.0 
0.0 0.0 -3.137585542919e-04 
-7.178028314759e-05 -1.232028049951e-08 0.0 
-1.232028049951e-08 1.149279144839e-03 0.0 
0.0 0.0 -2.794359002296e-04 
-6.436375512209e-04 -1.276790241492e-05 0.0 
-1.276790241492e-05 1.873669559697e-03 0.0 
0.0 0.0 -3.439875543896e-04 
-7.879199919424e-04 -6.957800867177e-05 0.0 
-6.957800867177e-05 2.362265819291e-03 0.0 
0.0 0.0 -5.230155850880e-04 
-9.090757292185e-04 -8.706192601079e-05 0.0 
-8.706192601079e-05 2.790274002592e-03 0.0 
0.0 0.0 -6.679173279409e-04 
-1.029732123068e-03 -9.763895695819e-05 0.0 
-9.763895695819e-05 3.189834221624e-03 0.0 
0.0 0.0 -7.858430676574e-04 
-1.146480183378e-03 -1.186695020361e-04 0.0 
-1.186695020361e-04 3.556707151380e-03 0.0 
0.0 0.0 -8.797909670055e-04 
-1.263272361791e-03 -1.272958726748e-04 0.0 
-1.272958726748e-04 3.899470374148e-03 0.0 
0.0 0.0 -9.497524971825e-04 
-1.384672616284e-03 -1.145152012545e-04 0.0 
-1.145152012545e-04 4.236966414279e-03 0.0 
0.0 0.0 -1.004045332643e-03 
-1.526674903082e-03 -6.496102058636e-05 0.0 
-6.496102058636e-05 4.605045077914e-03 0.0 
0.0 0.0 -1.040527029177e-03 
-1.665462947768e-03 -2.107388054909e-05 0.0 
-2.107388054909e-05 4.948618842847e-03 0.0 
0.0 0.0 -1.059523297737e-03 
-1.782894097401e-03 -3.343512703910e-06 0.0 
-3.343512703910e-06 5.233549116132e-03 0.0 
0.0 0.0 -1.072054170059e-03 
-1.938902930101e-03 -9.696053467476e-05 0.0 
-9.696053467476e-05 5.600248017308e-03 0.0 
0.0 0.0 -1.073655443973e-03 
-2.100363589718e-03 -8.662704783515e-05 0.0 
-8.662704783515e-05 5.970821215845e-03 0.0 
0.0 0.0 -1.067605311830e-03 
-2.135124898814e-03 -7.268436157999e-05 0.0 
-7.268436157999e-05 6.300803109141e-03 0.0 
0.0 0.0 -1.091655094700e-03 
-2.004143563035e-03 -6.534761213825e-05 0.0 
-6.534761213825e-05 6.588381292475e-03 0.0 
0.0 0.0 -1.158330123333e-03 
-1.835283495390e-03 -5.008648858264e-05 0.0 
-5.008648858264e-05 6.864752160643e-03 0.0 
0.0 0.0 -1.226073836101e-03 
-1.640741500190e-03 -2.858138524020e-05 0.0 
-2.858138524020e-05 7.123085926045e-03 0.0 
0.0 0.0 -1.289832767750e-03 
-1.368677421570e-03 1.600785886141e-04 0.0 
1.600785886141e-04 8.818553082708e-03 0.0 
0.0 0.0 -1.336902025401e-03 
-1.377365391022e-03 2.999124352866e-04 0.0 
2.999124352866e-04 8.800585598907e-03 0.0 
0.0 0.0 -1.332945767435e-03 
-1.378029629414e-03 3.844218527142e-04 0.0 
3.844218527142e-04 8.780564209488e-03 0.0 
0.0 0.0 -1.334903170087e-03 
-1.378699113984e-03 6.281396802948e-04 0.0 
6.281396802948e-04 8.766528136653e-03 0.0 
0.0 0.0 -1.334459899807e-03 
-1.385861616700e-03 7.361442488981e-04 0.0 
7.361442488981e-04 8.736115872586e-03 0.0 
0.0 0.0 -1.332067731643e-03 
-1.380170718422e-03 9.112443166240e-04 0.0 
9.112443166240e-04 8.705993944759e-03 0.0 
0.0 0.0 -1.335050935171e-03 
-1.376694153872e-03 1.085769035599e-03 0.0 
1.085769035599e-03 8.675777653225e-03 0.0 
0.0 0.0 -1.335055123498e-03 
-1.386603367251e-03 1.256067884305e-03 0.0 
1.256067884305e-03 8.631282104952e-03 0.0 
0.0 0.0 -1.333530254363e-03 
-1.385927681412e-03 1.401216317866e-03 0.0 
1.401216317866e-03 8.584979043230e-03 0.0 
0.0 0.0 -1.336259905589e-03 
-1.382886472311e-03 1.656515799073e-03 0.0 
1.656515799073e-03 8.524207830888e-03 0.0 
0.0 0.0 -1.335712483792e-03 
-1.394014418558e-03 1.806002472474e-03 0.0 
1.806002472474e-03 8.445999086005e-03 0.0 
0.0 0.0 -1.333313947604e-03 
-1.390408237112e-03 2.011066343467e-03 0.0 
2.011066343467e-03 8.361388601017e-03 0.0 
0.0 0.0 -1.335862559377e-03 
-1.384222329824e-03 2.219576262539e-03 0.0 
2.219576262539e-03 8.276324698237e-03 0.0 
0.0 0.0 -1.336097458551e-03 
-1.389035125892e-03 2.412450494632e-03 0.0 
2.412450494632e-03 8.157453667495e-03 0.0 
0.0 0.0 -1.335235043394e-03 
-1.385735689378e-03 2.596152172723e-03 0.0 
2.596152172723e-03 8.026403168300e-03 0.0 
0.0 0.0 -1.334297546486e-03 
-1.387385464636e-03 2.793709716201e-03 0.0 
2.793709716201e-03 7.870413974245e-03 0.0 
0.0 0.0 -1.332308435384e-03 
-1.390045521020e-03 2.956478596536e-03 0.0 
2.956478596536e-03 7.707669454312e-03 0.0 
0.0 0.0 -1.332019584455e-03 
-1.374441407390e-03 3.130356841580e-03 0.0 
3.130356841580e-03 7.548288379511e-03 0.0 
0.0 0.0 -1.333392124151e-03 
-1.370916614240e-03 3.263121805825e-03 0.0 
3.263121805825e-03 7.369253492750e-03 0.0 
0.0 0.0 -1.334727449481e-03 
-1.360841402714e-03 3.372289688876e-03 0.0 
3.372289688876e-03 7.166176364928e-03 0.0 
0.0 0.0 -1.336576889699e-03 
-1.346336485325e-03 3.461253780169e-03 0.0 
3.461253780169e-03 6.951403103377e-03 0.0 
0.0 0.0 -1.335888391555e-03 
-1.332890796825e-03 3.468370162717e-03 0.0 
3.468370162717e-03 6.730314385053e-03 0.0 
0.0 0.0 -1.334783226448e-03 
-1.319924003398e-03 3.447235553293e-03 0.0 
3.447235553293e-03 6.491181615044e-03 0.0 
0.0 0.0 -1.335053869153e-03 
-1.304557536433e-03 3.357836383275e-03 0.0 
3.357836383275e-03 6.252969737423e-03 0.0 
0.0 0.0 -1.334960189349e-03 
-1.290544710403e-03 3.217570000044e-03 0.0 
3.217570000044e-03 6.038359705784e-03 0.0 
0.0 0.0 -1.334889991128e-03 
-1.266052279295e-03 3.015967340183e-03 0.0 
3.015967340183e-03 5.820251815716e-03 0.0 
0.0 0.0 -1.335774086633e-03 
-1.268292395628e-03 2.751499810292e-03 0.0 
2.751499810292e-03 5.611006951901e-03 0.0 
0.0 0.0 -1.336605656894e-03 
-1.233716587758e-03 2.428663332176e-03 0.0 
2.428663332176e-03 5.432453778555e-03 0.0 
0.0 0.0 -1.336508443943e-03 
-1.235192718271e-03 2.048692266400e-03 0.0 
2.048692266400e-03 5.281516895731e-03 0.0 
0.0 0.0 -1.335343284290e-03 
-1.233233161047e-03 1.613443115418e-03 0.0 
1.613443115418e-03 5.176753839955e-03 0.0 
0.0 0.0 -1.337998490269e-03 
-1.231527167288e-03 1.237296422517e-03 0.0 
1.237296422517e-03 5.075978590578e-03 0.0 
0.0 0.0 -1.337247094005e-03 
-1.199833465241e-03 7.660071193524e-04 0.0 
7.660071193524e-04 4.984249579952e-03 0.0 
0.0 0.0 -1.333783489999e-03 
-1.202795443341e-03 2.512512957567e-04 0.0 
2.512512957567e-04 4.957451962835e-03 0.0 
0.0 0.0 -1.334548731617e-03 
-1.209938913942e-03 -2.134028709971e-04 0.0 
-2.134028709971e-04 5.026425426342e-03 0.0 
0.0 0.0 -1.334619746794e-03 
-1.216034057197e-03 -6.370386973179e-04 0.0 
-6.370386973179e-04 5.098251117921e-03 0.0 
0.0 0.0 -1.335242115105e-03 
-1.250273571860e-03 -1.037169625291e-03 0.0 
-1.037169625291e-03 5.212102119693e-03 0.0 
0.0 0.0 -1.335691437541e-03 
-1.244652277412e-03 -1.350985257247e-03 0.0 
-1.350985257247e-03 5.369562904984e-03 0.0 
0.0 0.0 -1.335646478247e-03 
-1.280185566221e-03 -1.619011709695e-03 0.0 
-1.619011709695e-03 5.525208807417e-03 0.0 
0.0 0.0 -1.334931242407e-03 
-1.279873673449e-03 -1.816253781483e-03 0.0 
-1.816253781483e-03 5.699667194469e-03 0.0 
0.0 0.0 -1.334100791702e-03 
-1.316092894892e-03 -1.930306284798e-03 0.0 
-1.930306284798e-03 5.897360744271e-03 0.0 
0.0 0.0 -1.332237298415e-03 
-1.332492949627e-03 -1.997739486340e-03 0.0 
-1.997739486340e-03 6.101236304603e-03 0.0 
0.0 0.0 -1.333749945600e-03 
-1.347535005711e-03 -1.949980560505e-03 0.0 
-1.949980560505e-03 6.326575568891e-03 0.0 
0.0 0.0 -1.336652505695e-03 
-1.361718678089e-03 -1.883685554895e-03 0.0 
-1.883685554895e-03 6.509663460433e-03 0.0 
0.0 0.0 -1.337094627689e-03 
-1.399643089063e-03 -1.709140483279e-03 0.0 
-1.709140483279e-03 6.643034708910e-03 0.0 
0.0 0.0 -1.328990728106e-03 
-1.392288690639e-03 -1.485263022766e-03 0.0 
-1.485263022766e-03 6.836967868930e-03 0.0 
0.0 0.0 -1.335900064369e-03 
-1.414556676199e-03 -1.251540022059e-03 0.0 
-1.251540022059e-03 6.954271934946e-03 0.0 
0.0 0.0 -1.332523500780e-03 
-1.412496609790e-03 -1.031814538929e-03 0.0 
-1.031814538929e-03 7.047562735813e-03 0.0 
0.0 0.0 -1.335219049675e-03 
-1.419510763784e-03 -6.645626228058e-04 0.0 
-6.645626228058e-04 7.146959411296e-03 0.0 
0.0 0.0 -1.336566422126e-03 
-1.427684607805e-03 -3.887077461759e-04 0.0 
-3.887077461759e-04 7.195451913880e-03 0.0 
0.0 0.0 -1.335855682064e-03 
-1.453017564014e-03 -6.969271926299e-05 0.0 
-6.969271926299e-05 5.335351891541e-03 0.0 
0.0 0.0 -7.648954205800e-04 
-1.520880417330e-03 -7.433446925198e-05 0.0 
-7.433446925198e-05 5.819919600560e-03 0.0 
0.0 0.0 -8.298981322982e-04 
-1.557423966696e-03 -6.785219458369e-05 0.0 
-6.785219458369e-05 6.258440284560e-03 0.0 
0.0 0.0 -8.959277352460e-04 
-1.578985001560e-03 -6.738694350763e-05 0.0 
-6.738694350763e-05 6.671688470532e-03 0.0 
0.0 0.0 -9.610467530554e-04 
-1.585789406967e-03 -5.141559601497e-05 0.0 
-5.141559601497e-05 7.089803706817e-03 0.0 
0.0 0.0 -1.026987810050e-03 
-1.562649818793e-03 -5.245167551875e-05 0.0 
-5.245167551875e-05 7.497011482479e-03 0.0 
0.0 0.0 -1.092790196867e-03 
-1.539445803207e-03 -3.968004133447e-05 0.0 
-3.968004133447e-05 7.888080790164e-03 0.0 
0.0 0.0 -1.158290425478e-03 
-1.493157212652e-03 -4.236338247705e-05 0.0 
-4.236338247705e-05 8.249034422054e-03 0.0 
0.0 0.0 -1.224481705251e-03 
-1.439591118906e-03 -4.822262499776e-05 0.0 
-4.822262499776e-05 8.655254164316e-03 0.0 
0.0 0.0 -1.288782062784e-03 
7.917735866415e-06 3.960239812783e-04 0.0 
3.960239812783e-04 -7.917735866414e-06 0.0 
0.0 0.0 0.0 
-1.624278093923e-03 1.090396231210e-03 0.0 
1.090396231210e-03 4.601022683819e-03 0.0 
0.0 0.0 -7.280202007920e-04 
3.205488295502e-05 1.287827028596e-03 0.0 
1.287827028596e-03 3.835194014349e-04 0.0 
0.0 0.0 -1.781032647385e-04 
2.419898888436e-04 1.714650012296e-03 0.0 
1.714650012296e-03 7.169103887313e-04 0.0 
0.0 0.0 -4.109572618178e-04 
1.972324976643e-04 1.872166137481e-03 0.0 
1.872166137481e-03 8.763202269977e-04 0.0 
0.0 0.0 -4.600940248552e-04 
-2.436255146310e-05 1.750194016815e-03 0.0 
1.750194016815e-03 1.167347113234e-03 0.0 
0.0 0.0 -4.898505264734e-04 
-2.686288214637e-04 1.584200308986e-03 0.0 
1.584200308986e-03 1.584793069977e-03 0.0 
0.0 0.0 -5.640703922202e-04 
-4.987456418830e-04 1.585377040139e-03 0.0 
1.585377040139e-03 2.175609205872e-03 0.0 
0.0 0.0 -7.186558131380e-04 
-7.693623021415e-04 1.545850130620e-03 0.0 
1.545850130620e-03 2.800183439925e-03 0.0 
0.0 0.0 -7.884857694893e-04 
-1.068442602319e-03 1.392543525831e-03 0.0 
1.392543525831e-03 3.387126047545e-03 0.0 
0.0 0.0 -7.502339878794e-04 
-1.352818007869e-03 1.227157706519e-03 0.0 
1.227157706519e-03 3.981454431592e-03 0.0 
0.0 0.0 -7.303644794522e-04 
-7.054577932449e-04 -2.194934000666e-04 0.0 
-2.194934000666e-04 2.151799228090e-03 0.0 
0.0 0.0 -3.155555555556e-04 
-8.254529843557e-04 -1.769995152719e-04 0.0 
-1.769995152719e-04 2.443834664170e-03 0.0 
0.0 0.0 -3.600000000000e-04 
-9.532376032239e-04 -2.185094811376e-04 0.0 
-2.185094811376e-04 2.944932670617e-03 0.0 
0.0 0.0 -4.266666666667e-04 
-1.074369705335e-03 -1.739013270640e-04 0.0 
-1.739013270640e-04 3.441659993103e-03 0.0 
0.0 0.0 -4.933333333333e-04 
-1.186861804691e-03 -2.063993814702e-04 0.0 
-2.063993814702e-04 3.930451098783e-03 0.0 
0.0 0.0 -5.600000000000e-04 
-1.284181826536e-03 -1.411246795881e-04 0.0 
-1.411246795881e-04 4.401802096581e-03 0.0 
0.0 0.0 -6.266666666667e-04 
-1.371869470260e-03 5.987426434916e-05 0.0 
5.987426434916e-05 4.821720366173e-03 0.0 
0.0 0.0 -6.874962403976e-04 
-1.373883297749e-03 1.733970713616e-05 0.0 
1.733970713616e-05 4.853900323376e-03 0.0 
0.0 0.0 -6.910932206029e-04 
-1.391096625977e-03 2.696117286623e-05 0.0 
2.696117286623e-05 4.858420634372e-03 0.0 
0.0 0.0 -6.911911970487e-04 
-1.403621533613e-03 2.899157745045e-05 0.0 
2.899157745045e-05 4.851539021186e-03 0.0 
0.0 0.0 -6.903356507966e-04 
-1.422086472761e-03 7.127286506100e-05 0.0 
7.127286506100e-05 4.925418991949e-03 0.0 
0.0 0.0 -6.980756478071e-04 
-1.440013737492e-03 8.905228061672e-05 0.0 
8.905228061672e-05 4.855137559965e-03 0.0 
0.0 0.0 -6.911448554634e-04 
-1.457810866496e-03 1.124854279040e-04 0.0 
1.124854279040e-04 4.842862400746e-03 0.0 
0.0 0.0 -6.903833977050e-04 
-1.485479761852e-03 1.763889665616e-04 0.0 
1.763889665616e-04 4.844524201239e-03 0.0 
0.0 0.0 -6.905588330458e-04 
-1.530071715646e-03 2.314067896651e-04 0.0 
2.314067896651e-04 4.843027902445e-03 0.0 
0.0 0.0 -6.922444453805e-04 
-1.565434249602e-03 3.199826070801e-04 0.0 
3.199826070801e-04 4.827774349685e-03 0.0 
0.0 0.0 -6.916098530255e-04 
-1.592220907441e-03 4.164385463974e-04 0.0 
4.164385463974e-04 4.800836260159e-03 0.0 
0.0 0.0 -6.911665914957e-04 
-1.624093306590e-03 5.379923244308e-04 0.0 
5.379923244308e-04 4.762121973516e-03 0.0 
0.0 0.0 -6.926885898885e-04 
-1.636272666442e-03 7.038956101205e-04 0.0 
7.038956101205e-04 4.710840836171e-03 0.0 
0.0 0.0 -6.980272606831e-04 
-1.642234561257e-03 8.946537782645e-04 0.0 
8.946537782645e-04 4.660104212790e-03 0.0 
0.0 0.0 -7.070206663417e-04 
0.0 0.0 0.0 
0.0 0.0 0.0 
0.0 0.0 0.0 
0.0 0.0 0.0 
0.0 0.0 0.0 
0.0 0.0 0.0 
0.0 0.0 0.0 
0.0 0.0 0.0 
0.0 0.0 0.0 
0.0 0.0 0.0 
0.0 0.0 0.0 
0.0 0.0 0.0 
0.0 0.0 0.0 
0.0 0.0 0.0 
0.0 0.0 0.0 
6.460969664659e-05 -1.556902627030e-04 0.0 
-1.556902627030e-04 3.828112054754e-05 0.0 
0.0 0.0 -4.409606451177e-05 
2.290958672754e-04 -1.825778835954e-04 0.0 
-1.825778835954e-04 1.295802149225e-05 0.0 
0.0 0.0 -6.349991864517e-05 
3.258301092639e-04 -1.495010221350e-04 0.0 
-1.495010221350e-04 5.825232736603e-05 0.0 
0.0 0.0 -6.729406355132e-05 
4.308097979006e-04 -2.272179296947e-04 0.0 
-2.272179296947e-04 4.144525422736e-05 0.0 
0.0 0.0 -5.004267624003e-05 
7.170242557017e-04 -3.798682189908e-04 0.0 
-3.798682189908e-04 -8.718929718944e-05 0.0 
0.0 0.0 -5.423469082675e-05 
1.016505377143e-03 -3.706654485886e-04 0.0 
-3.706654485886e-04 -2.196691987021e-04 0.0 
0.0 0.0 -6.924701466199e-05 
1.374691841568e-03 -3.600731207399e-04 0.0 
-3.600731207399e-04 -3.650587174241e-04 0.0 
0.0 0.0 -8.456438766380e-05 
1.776444192994e-03 -3.135747337774e-04 0.0 
-3.135747337774e-04 -5.394471043759e-04 0.0 
0.0 0.0 -1.145437528706e-04 
2.116489510919e-03 -3.092434709054e-04 0.0 
-3.092434709054e-04 -6.971504040322e-04 0.0 
0.0 0.0 -1.122699804219e-04 
2.340534228900e-03 -2.489648393755e-04 0.0 
-2.489648393755e-04 -7.939335318199e-04 0.0 
0.0 0.0 -1.135261812993e-04 
2.545448873624e-03 -1.895106937816e-04 0.0 
-1.895106937816e-04 -8.695809182027e-04 0.0 
0.0 0.0 -1.151526711856e-04 
2.708912883130e-03 -1.592234908312e-04 0.0 
-1.592234908312e-04 -9.353356256089e-04 0.0 
0.0 0.0 -1.168504208365e-04 
2.867102977547e-03 -9.067089989766e-05 0.0 
-9.067089989766e-05 -1.037120165575e-03 0.0 
0.0 0.0 -1.138900488129e-04 
3.013559206580e-03 5.775462477208e-05 0.0 
5.775462477208e-05 -1.103986210354e-03 0.0 
0.0 0.0 -1.064965418423e-04 
-7.551366158160e-04 2.958771069643e-05 0.0 
2.958771069643e-05 2.256387364708e-03 0.0 
0.0 0.0 -3.227671699349e-04 
-7.096336861923e-04 -8.019312655606e-05 0.0 
-8.019312655606e-05 2.230935421549e-03 0.0 
0.0 0.0 -3.330858302138e-04 
-7.060985773195e-04 -1.402623074233e-04 0.0 
-1.402623074233e-04 2.221957365003e-03 0.0 
0.0 0.0 -3.338493962773e-04 
-7.045571413685e-04 -1.799653446149e-04 0.0 
-1.799653446149e-04 2.219534686272e-03 0.0 
0.0 0.0 -3.344296484225e-04 
-7.032587874032e-04 -2.159977513377e-04 0.0 
-2.159977513377e-04 2.217417695195e-03 0.0 
0.0 0.0 -3.351929587727e-04 
-7.018897679646e-04 -2.489910114971e-04 0.0 
-2.489910114971e-04 2.214917239079e-03 0.0 
0.0 0.0 -3.361638439528e-04 
-7.005657927138e-04 -2.782624495929e-04 0.0 
-2.782624495929e-04 2.211975582684e-03 0.0 
0.0 0.0 -3.373644276732e-04 
-6.996391178374e-04 -3.022248856900e-04 0.0 
-3.022248856900e-04 2.208724846577e-03 0.0 
0.0 0.0 -3.388198498560e-04 
-6.995409390240e-04 -3.190911328891e-04 0.0 
-3.190911328891e-04 2.205306439238e-03 0.0 
0.0 0.0 -3.406095518673e-04 
-7.009168853099e-04 -3.267642755811e-04 0.0 
-3.267642755811e-04 2.201896564613e-03 0.0 
0.0 0.0 -3.428186108746e-04 
-7.044554755115e-04 -3.224964093282e-04 0.0 
-3.224964093282e-04 2.198533209604e-03 0.0 
0.0 0.0 -3.455432205849e-04 
-7.107619529862e-04 -3.031452818835e-04 0.0 
-3.031452818835e-04 2.194881590288e-03 0.0 
0.0 0.0 -3.488926388111e-04 
-7.208194393793e-04 -2.650145538529e-04 0.0 
-2.650145538529e-04 2.190872815073e-03 0.0 
0.0 0.0 -3.530117477729e-04 
-7.357188245920e-04 -2.046746593362e-04 0.0 
-2.046746593362e-04 2.186154128138e-03 0.0 
0.0 0.0 -3.582403316049e-04 
-7.568246994925e-04 -1.169491135051e-04 0.0 
-1.169491135051e-04 2.180422147765e-03 0.0 
0.0 0.0 -3.647827101544e-04 
-7.615303539915e-04 1.804470269897e-06 0.0 
1.804470269897e-06 2.164453829926e-03 0.0 
0.0 0.0 -3.801701779287e-04 
-7.379410174543e-04 1.566048821208e-04 0.0 
1.566048821208e-04 2.133952579985e-03 0.0 
0.0 0.0 -4.085338449691e-04 
-6.948815943681e-04 3.396409746954e-04 0.0 
3.396409746954e-04 2.085055052421e-03 0.0 
0.0 0.0 -4.488396981051e-04 
-6.389928850757e-04 5.593523271834e-04 0.0 
5.593523271834e-04 2.011892900150e-03 0.0 
0.0 0.0 -4.804521094988e-04 
-5.540297745213e-04 7.886267840372e-04 0.0 
7.886267840372e-04 1.894027231436e-03 0.0 
0.0 0.0 -5.159683180220e-04 
-4.488894170448e-04 1.083031500492e-03 0.0 
1.083031500492e-03 1.768038959731e-03 0.0 
0.0 0.0 -5.503230732823e-04 
-3.161275385830e-04 1.350834740805e-03 0.0 
1.350834740805e-03 1.567091819575e-03 0.0 
0.0 0.0 -5.361275489966e-04 
-1.898296813617e-04 1.512320217629e-03 0.0 
1.512320217629e-03 1.360902515612e-03 0.0 
0.0 0.0 -5.018883575357e-04 
-3.917368210583e-04 1.317479250336e-03 0.0 
1.317479250336e-03 1.747874473266e-03 0.0 
0.0 0.0 -5.812018509462e-04 
-5.091690360286e-04 1.130845155862e-03 0.0 
1.130845155862e-03 1.963327675715e-03 0.0 
0.0 0.0 -6.066533733830e-04 
-6.141014296330e-04 8.542857385472e-04 0.0 
8.542857385472e-04 2.104545634073e-03 0.0 
0.0 0.0 -5.807024946757e-04 
-6.882663027808e-04 6.113252394538e-04 0.0 
6.113252394538e-04 2.202130389397e-03 0.0 
0.0 0.0 -5.506042562872e-04 
-7.485151266818e-04 4.048271456746e-04 0.0 
4.048271456746e-04 2.276572322960e-03 0.0 
0.0 0.0 -5.097853306316e-04 
-7.897555551191e-04 2.224232272700e-04 0.0 
2.224232272700e-04 2.321631848111e-03 0.0 
0.0 0.0 -4.716768144535e-04 
-8.179605038944e-04 7.373921887575e-05 0.0 
7.373921887575e-05 2.355988915550e-03 0.0 
0.0 0.0 -4.418280814132e-04 
-8.268010595159e-04 -4.483534428960e-05 0.0 
-4.483534428960e-05 2.376308389151e-03 0.0 
0.0 0.0 -4.218770227552e-04 
-8.228503060703e-04 -1.347192607701e-04 0.0 
-1.347192607701e-04 2.388847937133e-03 0.0 
0.0 0.0 -4.090523408212e-04 
-8.109185832396e-04 -1.989047172259e-04 0.0 
-1.989047172259e-04 2.395688157729e-03 0.0 
0.0 0.0 -4.015628555955e-04 
-8.019746084778e-04 -2.402503830985e-04 0.0 
-2.402503830985e-04 2.401236351570e-03 0.0 
0.0 0.0 -3.954021415690e-04 
-7.953245493492e-04 -2.629832857574e-04 0.0 
-2.629832857574e-04 2.405546845163e-03 0.0 
0.0 0.0 -3.902995700482e-04 
-7.906845303877e-04 -2.708266975381e-04 0.0 
-2.708266975381e-04 2.409326752935e-03 0.0 
0.0 0.0 -3.860854787602e-04 
-7.877188598931e-04 -2.666780701279e-04 0.0 
-2.666780701279e-04 2.412893579400e-03 0.0 
0.0 0.0 -3.826300360752e-04 
-7.859472857759e-04 -2.529812670249e-04 0.0 
-2.529812670249e-04 2.416190377898e-03 0.0 
0.0 0.0 -3.797920724705e-04 
-7.849776301162e-04 -2.317218095120e-04 0.0 
-2.317218095120e-04 2.419097107999e-03 0.0 
0.0 0.0 -3.774328490719e-04 
-7.844810121678e-04 -2.050225660717e-04 0.0 
-2.050225660717e-04 2.421538416815e-03 0.0 
0.0 0.0 -3.754828035711e-04 
-7.842654296420e-04 -1.743385635113e-04 0.0 
-1.743385635113e-04 2.423613148989e-03 0.0 
0.0 0.0 -3.739320486442e-04 
-7.843867792918e-04 -1.404633765496e-04 0.0 
-1.404633765496e-04 2.425575961632e-03 0.0 
0.0 0.0 -3.727418427549e-04 
-7.857008201318e-04 -1.044807299690e-04 0.0 
-1.044807299690e-04 2.428069777729e-03 0.0 
0.0 0.0 -3.717245115980e-04 
-7.997888929887e-04 -7.230959013771e-05 0.0 
-7.230959013771e-05 2.434645715537e-03 0.0 
0.0 0.0 -3.674400072102e-04 
-8.218042889041e-04 7.812455767352e-05 0.0 
7.812455767352e-05 2.442717993920e-03 0.0 
0.0 0.0 -3.611040392158e-04 
-9.494559103031e-04 3.245343644015e-05 0.0 
3.245343644015e-05 2.942828314072e-03 0.0 
0.0 0.0 -4.276225674433e-04 
-9.453893070207e-04 -7.111604734988e-05 0.0 
-7.111604734988e-05 2.939480324051e-03 0.0 
0.0 0.0 -4.291610623509e-04 
-9.479485626056e-04 -1.223075957800e-04 0.0 
-1.223075957800e-04 2.938148575924e-03 0.0 
0.0 0.0 -4.294518113500e-04 
-9.513509497972e-04 -1.528128127516e-04 0.0 
-1.528128127516e-04 2.937112011401e-03 0.0 
0.0 0.0 -4.303156580442e-04 
-9.561412693041e-04 -1.795418847633e-04 0.0 
-1.795418847633e-04 2.936257850339e-03 0.0 
0.0 0.0 -4.315177398476e-04 
-9.613801982685e-04 -2.020582703720e-04 0.0 
-2.020582703720e-04 2.935027659389e-03 0.0 
0.0 0.0 -4.333935888026e-04 
-9.649594115909e-04 -2.191801396652e-04 0.0 
-2.191801396652e-04 2.932403783643e-03 0.0 
0.0 0.0 -4.365863700986e-04 
-9.694509318337e-04 -2.282743571783e-04 0.0 
-2.282743571783e-04 2.928700962369e-03 0.0 
0.0 0.0 -4.403344688981e-04 
-9.752854465798e-04 -2.262425092116e-04 0.0 
-2.262425092116e-04 2.924232336100e-03 0.0 
0.0 0.0 -4.446981798157e-04 
-9.827947901593e-04 -2.105547843802e-04 0.0 
-2.105547843802e-04 2.919037677629e-03 0.0 
0.0 0.0 -4.499693714774e-04 
-9.922432754887e-04 -1.788315847570e-04 0.0 
-1.788315847570e-04 2.912643541075e-03 0.0 
0.0 0.0 -4.561666389974e-04 
-1.003596714027e-03 -1.273527626457e-04 0.0 
-1.273527626457e-04 2.903956443196e-03 0.0 
0.0 0.0 -4.633466294216e-04 
-1.016765204047e-03 -5.053958217971e-05 0.0 
-5.053958217971e-05 2.891535834080e-03 0.0 
0.0 0.0 -4.716857746087e-04 
-1.020109545419e-03 5.743003251611e-05 0.0 
5.743003251611e-05 2.872702128626e-03 0.0 
0.0 0.0 -4.852209091340e-04 
-9.964537532025e-04 1.942960321916e-04 0.0 
1.942960321916e-04 2.839351573495e-03 0.0 
0.0 0.0 -5.097743276704e-04 
-9.610160034558e-04 3.659639876319e-04 0.0 
3.659639876319e-04 2.796351539205e-03 0.0 
0.0 0.0 -5.405745080065e-04 
-9.090299886647e-04 5.649669993174e-04 0.0 
5.649669993174e-04 2.731549626740e-03 0.0 
0.0 0.0 -5.795081218868e-04 
-8.421940977849e-04 8.146075856698e-04 0.0 
8.146075856698e-04 2.654238991049e-03 0.0 
0.0 0.0 -6.241631820133e-04 
-7.469235452296e-04 1.108005846327e-03 0.0 
1.108005846327e-03 2.554144737090e-03 0.0 
0.0 0.0 -6.876227360811e-04 
-6.222319269350e-04 1.311587394284e-03 0.0 
1.311587394284e-03 2.351737594925e-03 0.0 
0.0 0.0 -7.129699783845e-04 
-8.859289441425e-04 1.243241253464e-03 0.0 
1.243241253464e-03 2.913195279952e-03 0.0 
0.0 0.0 -7.120710084939e-04 
-1.004734523472e-03 1.018600750567e-03 0.0 
1.018600750567e-03 3.106427625498e-03 0.0 
0.0 0.0 -6.771260834247e-04 
-1.079401310026e-03 7.481842232065e-04 0.0 
7.481842232065e-04 3.193468346598e-03 0.0 
0.0 0.0 -6.300277574108e-04 
-1.131577463836e-03 5.268764785930e-04 0.0 
5.268764785930e-04 3.259614661613e-03 0.0 
0.0 0.0 -5.970134556630e-04 
-1.175698392474e-03 3.505042719681e-04 0.0 
3.505042719681e-04 3.318814681410e-03 0.0 
0.0 0.0 -5.654316324824e-04 
-1.198259795194e-03 1.983623377187e-04 0.0 
1.983623377187e-04 3.357846983414e-03 0.0 
0.0 0.0 -5.431954804876e-04 
-1.193688646499e-03 8.236585560367e-05 0.0 
8.236585560367e-05 3.385843501569e-03 0.0 
0.0 0.0 -5.307242391481e-04 
-1.181400322402e-03 -2.610677248912e-06 0.0 
-2.610677248912e-06 3.403469425701e-03 0.0 
0.0 0.0 -5.217490130384e-04 
-1.169734073994e-03 -6.313793199308e-05 0.0 
-6.313793199308e-05 3.415891564710e-03 0.0 
0.0 0.0 -5.139000268513e-04 
-1.159307772713e-03 -1.048439826788e-04 0.0 
-1.048439826788e-04 3.424926224559e-03 0.0 
0.0 0.0 -5.068416884887e-04 
-1.149301363739e-03 -1.311774395022e-04 0.0 
-1.311774395022e-04 3.432400745694e-03 0.0 
0.0 0.0 -5.012787953396e-04 
-1.136366457465e-03 -1.411361358348e-04 0.0 
-1.411361358348e-04 3.437153305501e-03 0.0 
0.0 0.0 -4.980850712606e-04 
-1.124188871364e-03 -1.394547320618e-04 0.0 
-1.394547320618e-04 3.439448222641e-03 0.0 
0.0 0.0 -4.952863446172e-04 
-1.111828436603e-03 -1.308291125140e-04 0.0 
-1.308291125140e-04 3.439882520158e-03 0.0 
0.0 0.0 -4.936612140760e-04 
-1.098447969421e-03 -1.167396694570e-04 0.0 
-1.167396694570e-04 3.439293515508e-03 0.0 
0.0 0.0 -4.933333333333e-04 
-1.087594461636e-03 -9.799983896262e-05 0.0 
-9.799983896262e-05 3.438806070953e-03 0.0 
0.0 0.0 -4.933333333333e-04 
-1.079672367243e-03 -7.744480207381e-05 0.0 
-7.744480207381e-05 3.439140724054e-03 0.0 
0.0 0.0 -4.933333333333e-04 
-1.076026664782e-03 -5.828265356752e-05 0.0 
-5.828265356752e-05 3.441224913047e-03 0.0 
0.0 0.0 -4.933333333333e-04 
-1.075502650299e-03 8.431295565096e-05 0.0 
8.431295565096e-05 3.442685458650e-03 0.0 
0.0 0.0 -4.933333333333e-04 
-1.189994461039e-03 4.971329978173e-05 0.0 
4.971329978173e-05 3.933936678343e-03 0.0 
0.0 0.0 -5.600000000000e-04 
-1.189943494860e-03 -3.915048486870e-05 0.0 
-3.915048486870e-05 3.929295747162e-03 0.0 
0.0 0.0 -5.600000000000e-04 
-1.196995215316e-03 -6.619293072910e-05 0.0 
-6.619293072910e-05 3.927958942862e-03 0.0 
0.0 0.0 -5.600000000000e-04 
-1.209000108090e-03 -7.709460563794e-05 0.0 
-7.709460563794e-05 3.928987706667e-03 0.0 
0.0 0.0 -5.600000000000e-04 
-1.222591065312e-03 -8.087627347994e-05 0.0 
-8.087627347994e-05 3.928642048882e-03 0.0 
0.0 0.0 -5.600000000000e-04 
-1.242241496923e-03 -8.001653654516e-05 0.0 
-8.001653654516e-05 3.929767912219e-03 0.0 
0.0 0.0 -5.600000000000e-04 
-1.264776066821e-03 -7.096870869374e-05 0.0 
-7.096870869374e-05 3.930292006580e-03 0.0 
0.0 0.0 -5.600000000000e-04 
-1.291607559870e-03 -5.753569633380e-05 0.0 
-5.753569633380e-05 3.928177153315e-03 0.0 
0.0 0.0 -5.600000000000e-04 
-1.313480821163e-03 -2.264210671336e-05 0.0 
-2.264210671336e-05 3.919521392894e-03 0.0 
0.0 0.0 -5.618027733580e-04 
-1.334363465792e-03 3.032816973716e-05 0.0 
3.032816973716e-05 3.911166292933e-03 0.0 
0.0 0.0 -5.662115594836e-04 
-1.345626602697e-03 9.725453922173e-05 0.0 
9.725453922173e-05 3.895259009147e-03 0.0 
0.0 0.0 -5.743994467985e-04 
-1.356260887442e-03 1.893430820086e-04 0.0 
1.893430820086e-04 3.871741255735e-03 0.0 
0.0 0.0 -5.833032914833e-04 
-1.366012120890e-03 3.096264366290e-04 0.0 
3.096264366290e-04 3.841250700024e-03 0.0 
0.0 0.0 -5.938366679572e-04 
-1.351517243904e-03 4.620420004327e-04 0.0 
4.620420004327e-04 3.787895507316e-03 0.0 
0.0 0.0 -6.115999087365e-04 
-1.313173102658e-03 6.667035574404e-04 0.0 
6.667035574404e-04 3.730474013625e-03 0.0 
0.0 0.0 -6.360477204719e-04 
-1.260419596383e-03 8.991646670823e-04 0.0 
8.991646670823e-04 3.667954377089e-03 0.0 
0.0 0.0 -6.715110950050e-04 
-1.156777947287e-03 1.103879225283e-03 0.0 
1.103879225283e-03 3.481215616997e-03 0.0 
0.0 0.0 -6.945456224821e-04 
-1.413371839818e-03 9.869439785182e-04 0.0 
9.869439785182e-04 4.044630377487e-03 0.0 
0.0 0.0 -6.871907024512e-04 
-1.498556740945e-03 8.027277734388e-04 0.0 
8.027277734388e-04 4.217784539438e-03 0.0 
0.0 0.0 -6.754388315825e-04 
-1.517003084896e-03 6.032515853078e-04 0.0 
6.032515853078e-04 4.269979929512e-03 0.0 
0.0 0.0 -6.550211625735e-04 
-1.511553648353e-03 4.490191689128e-04 0.0 
4.490191689128e-04 4.314033839254e-03 0.0 
0.0 0.0 -6.432502374181e-04 
-1.500446210863e-03 3.184819489120e-04 0.0 
3.184819489120e-04 4.351230304708e-03 0.0 
0.0 0.0 -6.352144205724e-04 
-1.482245807683e-03 2.246627967315e-04 0.0 
2.246627967315e-04 4.377537132701e-03 0.0 
0.0 0.0 -6.294719905043e-04 
-1.455175852238e-03 1.513209258517e-04 0.0 
1.513209258517e-04 4.388941904323e-03 0.0 
0.0 0.0 -6.266666666667e-04 
-1.422377976552e-03 8.452613654984e-05 0.0 
8.452613654984e-05 4.398275898476e-03 0.0 
0.0 0.0 -6.266666666667e-04 
-1.387740669927e-03 5.055332934235e-05 0.0 
5.055332934235e-05 4.407309917814e-03 0.0 
0.0 0.0 -6.266666666667e-04 
-1.364267156085e-03 1.746043878918e-05 0.0 
1.746043878918e-05 4.408435903517e-03 0.0 
0.0 0.0 -6.266666666667e-04 
-1.340556828241e-03 2.310074790946e-06 0.0 
2.310074790946e-06 4.409446433091e-03 0.0 
0.0 0.0 -6.266666666667e-04 
-1.322009739859e-03 -1.793960035533e-05 0.0 
-1.793960035533e-05 4.409251285455e-03 0.0 
0.0 0.0 -6.266666666667e-04 
-1.309592160630e-03 -1.727365315460e-05 0.0 
-1.727365315460e-05 4.412670266398e-03 0.0 
0.0 0.0 -6.266666666667e-04 
-1.296178947065e-03 -2.233083817508e-05 0.0 
-2.233083817508e-05 4.407948356665e-03 0.0 
0.0 0.0 -6.266666666667e-04 
-1.291396798343e-03 -4.231649306782e-05 0.0 
-4.231649306782e-05 4.418716211488e-03 0.0 
0.0 0.0 -6.266666666667e-04 
-1.299258567356e-03 1.084144737729e-04 0.0 
1.084144737729e-04 4.428774256468e-03 0.0 
0.0 0.0 -6.266666666667e-04 
-1.165911615005e-04 1.657008155099e-03 0.0 
1.657008155099e-03 1.433319132811e-04 0.0 
0.0 0.0 -1.146032219169e-05 
1.936976575994e-04 1.398779559345e-03 0.0 
1.398779559345e-03 5.900772889955e-04 0.0 
0.0 0.0 -3.359035485407e-04 
2.417267202073e-04 1.838455165837e-03 0.0 
1.838455165837e-03 7.923036657008e-04 0.0 
0.0 0.0 -4.431558796749e-04 
1.101677228067e-04 1.834201385501e-03 0.0 
1.834201385501e-03 9.860182752854e-04 0.0 
0.0 0.0 -4.697939991823e-04 
-1.469578992773e-04 1.666702905991e-03 0.0 
1.666702905991e-03 1.362624032771e-03 0.0 
0.0 0.0 -5.209997714973e-04 
-3.792282684864e-04 1.656998493189e-03 0.0 
1.656998493189e-03 1.899294413969e-03 0.0 
0.0 0.0 -6.514569194927e-04 
-6.251830612815e-04 1.650118487789e-03 0.0 
1.650118487789e-03 2.533700233250e-03 0.0 
0.0 0.0 -8.020470760878e-04 
-9.259280155328e-04 1.541530339945e-03 0.0 
1.541530339945e-03 3.121438131384e-03 0.0 
0.0 0.0 -7.697949396469e-04 
-1.219707571260e-03 1.363862905373e-03 0.0 
1.363862905373e-03 3.712475698443e-03 0.0 
0.0 0.0 -7.416632329583e-04 
-1.501649114425e-03 1.213866345860e-03 0.0 
1.213866345860e-03 4.312722460883e-03 0.0 
0.0 0.0 -7.242776845527e-04 
3.539823178863e-04 1.710352572919e-03 0.0 
1.710352572919e-03 5.866051080763e-04 0.0 
0.0 0.0 -4.031088968411e-04 
-9.225734973571e-04 -7.785055507498e-06 0.0 
-7.785055507498e-06 4.710905526494e-03 0.0 
0.0 0.0 -1.303388942653e-03 
2.002003524453e-04 -6.228844878024e-04 0.0 
-6.228844878024e-04 2.361800845582e-04 0.0 
0.0 0.0 -1.150931346421e-04 
6.351277012352e-06 -1.034192914689e-04 0.0 
-1.034192914689e-04 -6.351277012355e-06 0.0 
0.0 0.0 0.0 
-1.143124804619e-03 -1.686232053488e-03 0.0 
-1.686232053488e-03 5.409600557008e-03 0.0 
0.0 0.0 -1.303360877099e-03 
1.234786051762e-04 1.977711876023e-03 0.0 
1.977711876023e-03 1.061132021132e-03 0.0 
0.0 0.0 -5.076902684178e-04 
-1.444704152341e-03 -3.615903752048e-04 0.0 
-3.615903752048e-04 4.407515592965e-03 0.0 
0.0 0.0 -1.026919993916e-03 
-9.479894819801e-04 1.838728918359e-03 0.0 
1.838728918359e-03 4.893992345869e-03 0.0 
0.0 0.0 -1.300998267065e-03 
-3.669420938573e-04 1.945721923899e-03 0.0 
1.945721923899e-03 2.035468676857e-03 0.0 
0.0 0.0 -7.150828212858e-04 
-1.134501767780e-03 3.078864715943e-03 0.0 
3.078864715943e-03 5.708971873236e-03 0.0 
0.0 0.0 -1.304014651794e-03 
-9.933335184060e-04 1.783041133304e-03 0.0 
1.783041133304e-03 3.368272424712e-03 0.0 
0.0 0.0 -8.139337748180e-04 
-1.367928456590e-03 -1.893022985453e-03 0.0 
-1.893022985453e-03 6.315060285992e-03 0.0 
0.0 0.0 -1.307658508868e-03 
1.393566666495e-03 -5.293231022229e-04 0.0 
-5.293231022229e-04 -2.919979710108e-04 0.0 
0.0 0.0 -1.726441863791e-04 
-1.321068622768e-03 3.408933067941e-03 0.0 
3.408933067941e-03 6.699280987615e-03 0.0 
0.0 0.0 -1.304481600125e-03 
-1.625241511018e-03 1.405941443998e-03 0.0 
1.405941443998e-03 4.657250357868e-03 0.0 
0.0 0.0 -7.595448291451e-04 
-9.674687493222e-04 -2.324067189866e-04 0.0 
-2.324067189866e-04 3.002016490702e-03 0.0 
0.0 0.0 -7.390740322083e-04 
-1.821851265128e-03 -3.597710289885e-04 0.0 
-3.597710289885e-04 5.333319395799e-03 0.0 
0.0 0.0 -1.073818338595e-03 
-1.412437544610e-03 3.130277989420e-03 0.0 
3.130277989420e-03 7.340714354146e-03 0.0 
0.0 0.0 -1.301280071178e-03 
-1.458721797288e-03 2.468181070438e-03 0.0 
2.468181070438e-03 8.007112846752e-03 0.0 
0.0 0.0 -1.304294760550e-03 
-1.442626291436e-03 7.982050020717e-04 0.0 
7.982050020717e-04 8.632923623264e-03 0.0 
0.0 0.0 -1.303238611779e-03 
-1.460924372811e-03 1.330564066234e-03 0.0 
1.330564066234e-03 8.482170570322e-03 0.0 
0.0 0.0 -1.297727402575e-03 
-1.466071718827e-03 1.860397699296e-03 0.0 
1.860397699296e-03 8.323259225048e-03 0.0 
0.0 0.0 -1.305306183856e-03 
-1.723504189141e-03 9.545217762893e-04 0.0 
9.545217762893e-04 5.069531762335e-03 0.0 
0.0 0.0 -7.528866907182e-04 
-1.609633540750e-03 4.109047618561e-04 0.0 
4.109047618561e-04 5.236232241604e-03 0.0 
0.0 0.0 -7.529849494387e-04 
-1.529214909887e-03 1.902322029956e-04 0.0 
1.902322029956e-04 5.302594416650e-03 0.0 
0.0 0.0 -7.580270452736e-04 
-1.581306103182e-03 3.146837778263e-05 0.0 
3.146837778263e-05 6.876614414943e-03 0.0 
0.0 0.0 -9.950081682429e-04 
-1.500312298629e-03 -1.404495050420e-03 0.0 
-1.404495050420e-03 6.813712989149e-03 0.0 
0.0 0.0 -1.302874185639e-03 
0.0 0.0 0.0 
0.0 0.0 0.0 
0.0 0.0 0.0 
1.991019007460e-03 -2.749999736625e-04 0.0 
-2.749999736625e-04 -4.994877663417e-04 0.0 
0.0 0.0 -1.971444476807e-04 
-2.064700972320e-03 -3.063344179821e-04 0.0 
-3.063344179821e-04 6.409893202118e-03 0.0 
0.0 0.0 -1.122886395833e-03 
-1.468245391393e-03 9.255547116428e-05 0.0 
9.255547116428e-05 5.268982738319e-03 0.0 
0.0 0.0 -7.500338828344e-04 
-3.768246537726e-04 -1.072125225081e-04 0.0 
-1.072125225081e-04 1.532862867376e-03 0.0 
0.0 0.0 -3.103003023327e-04 
-1.462480749969e-03 2.788238406384e-03 0.0 
2.788238406384e-03 7.654884390723e-03 0.0 
0.0 0.0 -1.293200138473e-03 
-1.060495443339e-03 2.586030718155e-03 0.0 
2.586030718155e-03 5.302800007763e-03 0.0 
0.0 0.0 -1.307307853467e-03 
-1.239947575843e-03 3.359554949631e-03 0.0 
3.359554949631e-03 6.201507605709e-03 0.0 
0.0 0.0 -1.304733450272e-03 
-8.851569131084e-04 1.017294528516e-03 0.0 
1.017294528516e-03 4.688446957818e-03 0.0 
0.0 0.0 -1.297928233296e-03 
-1.011734799512e-03 -8.525942349034e-04 0.0 
-8.525942349034e-04 4.907050266684e-03 0.0 
0.0 0.0 -1.305578568836e-03 
1.120011211769e-04 -9.639393047147e-04 0.0 
-9.639393047147e-04 3.552641554252e-04 0.0 
0.0 0.0 -2.002565471152e-04 
-1.668530992619e-03 6.309946100002e-04 0.0 
6.309946100002e-04 5.166924460567e-03 0.0 
0.0 0.0 -7.500980793755e-04 
-1.253144254253e-03 -1.928883033382e-03 0.0 
-1.928883033382e-03 5.781747753778e-03 0.0 
0.0 0.0 -1.293180865222e-03 
-1.565497950727e-03 6.438167873332e-05 0.0 
6.438167873332e-05 7.693447317596e-03 0.0 
0.0 0.0 -1.123598490052e-03 
6.785802533228e-04 -5.736279611176e-04 0.0 
-5.736279611176e-04 1.838174080764e-07 0.0 
0.0 0.0 -1.171618051616e-04 
-1.195500737651e-03 -3.256008312402e-04 0.0 
-3.256008312402e-04 3.719620558921e-03 0.0 
0.0 0.0 -9.209925479532e-04 
-1.429805954471e-03 5.036842419237e-04 0.0 
5.036842419237e-04 8.739646127293e-03 0.0 
0.0 0.0 -1.311981303940e-03 
-9.905702435700e-05 2.013930135586e-03 0.0 
2.013930135586e-03 1.485122832027e-03 0.0 
0.0 0.0 -5.940282032871e-04 
3.261360612195e-04 2.014048139277e-03 0.0 
2.014048139277e-03 7.944417754282e-04 0.0 
0.0 0.0 -4.802476442776e-04 
-6.470413752911e-04 1.957850985508e-03 0.0 
1.957850985508e-03 2.728601734132e-03 0.0 
0.0 0.0 -8.637206373099e-04 
-1.316804590616e-03 1.569868653343e-03 0.0 
1.569868653343e-03 4.005894671503e-03 0.0 
0.0 0.0 -7.800224789174e-04 
6.529592356280e-05 1.519277680899e-03 0.0 
1.519277680899e-03 1.759842470225e-04 0.0 
0.0 0.0 -1.034057873937e-04 
-1.536524951872e-03 3.208999903453e-05 0.0 
3.208999903453e-05 6.068754859848e-03 0.0 
0.0 0.0 -8.684787984471e-04 
-1.527482046669e-03 -8.504264765478e-04 0.0 
-8.504264765478e-04 7.084540485198e-03 0.0 
0.0 0.0 -1.313906642692e-03 
2.259445629762e-03 -9.175095740177e-05 0.0 
-9.175095740177e-05 -6.502150918460e-04 0.0 
0.0 0.0 -1.918888419282e-04 
-1.463207116020e-03 1.296765555730e-04 0.0 
1.296765555730e-04 8.413961701398e-03 0.0 
0.0 0.0 -1.253930875827e-03 
-1.717988966153e-03 1.334598389081e-03 0.0 
1.334598389081e-03 4.909530889206e-03 0.0 
0.0 0.0 -7.655439890770e-04 
-1.720228455065e-03 1.586186079137e-03 0.0 
1.586186079137e-03 4.967329360851e-03 0.0 
0.0 0.0 -7.934218816250e-04 
-1.768015179977e-03 1.461597718910e-03 0.0 
1.461597718910e-03 5.276074626724e-03 0.0 
0.0 0.0 -8.115680642089e-04 
-1.765114281844e-03 1.749488874724e-03 0.0 
1.749488874724e-03 5.323901634960e-03 0.0 
0.0 0.0 -8.428390908522e-04 
-1.776011419960e-03 1.632950866705e-03 0.0 
1.632950866705e-03 5.614599388379e-03 0.0 
0.0 0.0 -8.784658474099e-04 
-1.753067371520e-03 1.892876727445e-03 0.0 
1.892876727445e-03 5.647697331923e-03 0.0 
0.0 0.0 -9.060409163497e-04 
-1.729403370927e-03 2.034729517834e-03 0.0 
2.034729517834e-03 5.329326258993e-03 0.0 
0.0 0.0 -8.711257577415e-04 
-1.705524146156e-03 2.154135310252e-03 0.0 
2.154135310252e-03 5.649528349792e-03 0.0 
0.0 0.0 -9.341442283280e-04 
-1.669480427723e-03 2.313796081278e-03 0.0 
2.313796081278e-03 5.302391134739e-03 0.0 
0.0 0.0 -8.989774131092e-04 
-1.760017773414e-03 1.778713600910e-03 0.0 
1.778713600910e-03 5.960915318729e-03 0.0 
0.0 0.0 -9.415083590319e-04 
-1.639128685698e-03 2.400878910049e-03 0.0 
2.400878910049e-03 5.620671151866e-03 0.0 
0.0 0.0 -9.622976032585e-04 
-1.585968914987e-03 2.571269188534e-03 0.0 
2.571269188534e-03 5.245482773901e-03 0.0 
0.0 0.0 -9.268639294333e-04 
-1.553264337981e-03 2.629359401866e-03 0.0 
2.629359401866e-03 5.564461608518e-03 0.0 
0.0 0.0 -9.903372159162e-04 
-1.482148429882e-03 2.800719357184e-03 0.0 
2.800719357184e-03 5.162964478957e-03 0.0 
0.0 0.0 -9.547708836903e-04 
-1.480872876733e-03 2.756523220070e-03 0.0 
2.756523220070e-03 4.843370134984e-03 0.0 
0.0 0.0 -9.032660992691e-04 
-1.370066982921e-03 2.994500238396e-03 0.0 
2.994500238396e-03 4.734217419357e-03 0.0 
0.0 0.0 -9.261835667445e-04 
-1.296697830142e-03 2.932762897298e-03 0.0 
2.932762897298e-03 4.406716792506e-03 0.0 
0.0 0.0 -9.004111975071e-04 
-1.176154479742e-03 3.171939239460e-03 0.0 
3.171939239460e-03 4.268382598936e-03 0.0 
0.0 0.0 -9.182233496599e-04 
-1.237826052231e-03 3.181299556145e-03 0.0 
3.181299556145e-03 4.604885530242e-03 0.0 
0.0 0.0 -9.498701766430e-04 
-1.038924370446e-03 3.354505003279e-03 0.0 
3.354505003279e-03 4.108768898160e-03 0.0 
0.0 0.0 -9.343221806050e-04 
-9.113966935237e-04 3.322436674522e-03 0.0 
3.322436674522e-03 3.767445704006e-03 0.0 
0.0 0.0 -9.288662988139e-04 
-7.681433481646e-04 3.500147498246e-03 0.0 
3.500147498246e-03 3.577220508926e-03 0.0 
0.0 0.0 -9.367850320061e-04 
-6.050859616232e-04 3.441042246538e-03 0.0 
3.441042246538e-03 3.246213294712e-03 0.0 
0.0 0.0 -9.518642033955e-04 
-4.467796431526e-04 3.596824647640e-03 0.0 
3.596824647640e-03 3.023253834938e-03 0.0 
0.0 0.0 -9.541337235040e-04 
-2.817347476968e-04 3.508182660979e-03 0.0 
3.508182660979e-03 2.709346421897e-03 0.0 
0.0 0.0 -9.642822318347e-04 
-1.040481770833e-04 3.619372760828e-03 0.0 
3.619372760828e-03 2.449228749823e-03 0.0 
0.0 0.0 -9.459728402633e-04 
-2.870166289118e-04 3.676071568470e-03 0.0 
3.676071568470e-03 2.794184702227e-03 0.0 
0.0 0.0 -9.498144071847e-04 
6.429436302438e-05 3.660882361634e-03 0.0 
3.660882361634e-03 2.186835241716e-03 0.0 
0.0 0.0 -9.193128608805e-04 
2.331588354861e-04 3.548891452897e-03 0.0 
3.548891452897e-03 1.871725410986e-03 0.0 
0.0 0.0 -8.913707482552e-04 
4.174760030635e-04 3.518419278721e-03 0.0 
3.518419278721e-03 1.585153718146e-03 0.0 
0.0 0.0 -8.538425857873e-04 
5.455280992742e-04 3.365363645192e-03 0.0 
3.365363645192e-03 1.323229666394e-03 0.0 
0.0 0.0 -8.008961852862e-04 
7.498486656370e-04 3.260544319073e-03 0.0 
3.260544319073e-03 1.013594496255e-03 0.0 
0.0 0.0 -7.557613550964e-04 
5.794043773309e-04 3.414810932032e-03 0.0 
3.414810932032e-03 1.312272080423e-03 0.0 
0.0 0.0 -8.100034870355e-04 
9.766186802750e-04 3.126905533587e-03 0.0 
3.126905533587e-03 6.756506724320e-04 0.0 
0.0 0.0 -7.081154368744e-04 
1.170764685342e-03 3.063309594450e-03 0.0 
3.063309594450e-03 3.918842971428e-04 0.0 
0.0 0.0 -6.697067067790e-04 
1.469956798013e-03 2.887539401857e-03 0.0 
2.887539401857e-03 -6.720200421088e-06 0.0 
0.0 0.0 -6.271013989681e-04 
1.655398318796e-03 2.905797537394e-03 0.0 
2.905797537394e-03 -2.066635196578e-04 0.0 
0.0 0.0 -6.208863424878e-04 
1.958892900495e-03 2.587078338226e-03 0.0 
2.587078338226e-03 -5.601119320347e-04 0.0 
0.0 0.0 -5.994775579116e-04 
2.135455672651e-03 2.638700697284e-03 0.0 
2.638700697284e-03 -6.211030008372e-04 0.0 
0.0 0.0 -6.490082879202e-04 
2.410352153471e-03 2.173774944653e-03 0.0 
2.173774944653e-03 -9.107525055140e-04 0.0 
0.0 0.0 -6.426855634101e-04 
2.158594858366e-03 2.117426171510e-03 0.0 
2.117426171510e-03 -8.346185089651e-04 0.0 
0.0 0.0 -5.674184354577e-04 
2.548284906519e-03 1.577323129924e-03 0.0 
1.577323129924e-03 -1.120076299841e-03 0.0 
0.0 0.0 -6.120894028618e-04 
2.766282761562e-03 1.671188389262e-03 0.0 
1.671188389262e-03 -1.152705968468e-03 0.0 
0.0 0.0 -6.915329113260e-04 
2.831831315373e-03 9.695675877105e-04 0.0 
9.695675877105e-04 -1.281170566415e-03 0.0 
0.0 0.0 -6.645688924106e-04 
2.536993124922e-03 9.134999273791e-04 0.0 
9.134999273791e-04 -1.229619517363e-03 0.0 
0.0 0.0 -5.603029746683e-04 
2.733867997822e-03 2.586198841001e-04 0.0 
2.586198841001e-04 -1.313858956396e-03 0.0 
0.0 0.0 -6.085753034686e-04 
2.382754168972e-03 2.331723641419e-04 0.0 
2.331723641419e-04 -1.217161318829e-03 0.0 
0.0 0.0 -4.995397929185e-04 
2.475502276821e-03 -4.225569186791e-04 0.0 
-4.225569186791e-04 -1.235276730126e-03 0.0 
0.0 0.0 -5.315252342980e-04 
2.783353977069e-03 -4.207301430438e-04 0.0 
-4.207301430438e-04 -1.298298732893e-03 0.0 
0.0 0.0 -6.364522475042e-04 
2.431423533239e-03 -1.055611195596e-03 0.0 
-1.055611195596e-03 -1.141139443354e-03 0.0 
0.0 0.0 -5.529788956651e-04 
2.074488083004e-03 -1.034963949875e-03 0.0 
-1.034963949875e-03 -9.657239908617e-04 0.0 
0.0 0.0 -4.751846109182e-04 
1.948746609120e-03 -1.563616376602e-03 0.0 
-1.563616376602e-03 -7.896259199600e-04 0.0 
0.0 0.0 -4.967660096401e-04 
2.266914827687e-03 -1.646291796375e-03 0.0 
-1.646291796375e-03 -9.610891233280e-04 0.0 
0.0 0.0 -5.596395875825e-04 
1.725234701887e-03 -1.991509456133e-03 0.0 
-1.991509456133e-03 -5.081914327056e-04 0.0 
0.0 0.0 -5.215899725061e-04 
1.402225958191e-03 -1.927478583456e-03 0.0 
-1.927478583456e-03 -1.960854800127e-04 0.0 
0.0 0.0 -5.169173477906e-04 
1.209383151701e-03 -2.216403946003e-03 0.0 
-2.216403946003e-03 7.890654783241e-05 0.0 
0.0 0.0 -5.521241569428e-04 
1.437995882087e-03 -2.266737877318e-03 0.0 
-2.266737877318e-03 -1.663516021812e-04 0.0 
0.0 0.0 -5.449904056737e-04 
1.024600490131e-03 -2.464285469351e-03 0.0 
-2.464285469351e-03 3.533750076132e-04 0.0 
0.0 0.0 -5.905609276045e-04 
8.985317602796e-04 -2.606405635227e-03 0.0 
-2.606405635227e-03 5.292322287011e-04 0.0 
0.0 0.0 -6.118988524203e-04 
7.560704768117e-04 -2.818446778216e-03 0.0 
-2.818446778216e-03 7.706212678723e-04 0.0 
0.0 0.0 -6.542964620075e-04 
8.580312086144e-04 -2.682927376050e-03 0.0 
-2.682927376050e-03 6.007672926437e-04 0.0 
0.0 0.0 -6.251993576820e-04 
5.867828103229e-04 -2.962553875983e-03 0.0 
-2.962553875983e-03 1.034857146591e-03 0.0 
0.0 0.0 -6.949885529632e-04 
4.441790608849e-04 -3.069180945402e-03 0.0 
-3.069180945402e-03 1.277969962145e-03 0.0 
0.0 0.0 -7.380638670128e-04 
2.783519300776e-04 -3.113099096991e-03 0.0 
-3.113099096991e-03 1.538449359472e-03 0.0 
0.0 0.0 -7.786291240925e-04 
1.058234640361e-04 -3.171084265656e-03 0.0 
-3.171084265656e-03 1.852966267041e-03 0.0 
0.0 0.0 -8.394813133188e-04 
3.929316153892e-04 -3.010245319228e-03 0.0 
-3.010245319228e-03 1.308656505855e-03 0.0 
0.0 0.0 -7.292520519616e-04 
9.932532998196e-05 -3.071474673695e-03 0.0 
-3.071474673695e-03 1.797955184989e-03 0.0 
0.0 0.0 -8.131202207017e-04 
1.861203807317e-04 -2.953410476768e-03 0.0 
-2.953410476768e-03 1.579421639320e-03 0.0 
0.0 0.0 -7.566608657364e-04 
-8.642223961803e-05 -2.932845730897e-03 0.0 
-2.932845730897e-03 2.045062282812e-03 0.0 
0.0 0.0 -8.394171613687e-04 
7.378179429990e-04 3.236151700417e-03 0.0 
3.236151700417e-03 1.055249139964e-03 0.0 
0.0 0.0 -7.684573212697e-04 
-2.470987176264e-05 -2.774259717146e-03 0.0 
-2.774259717146e-03 1.827411113102e-03 0.0 
0.0 0.0 -7.725862462883e-04 
2.168591650758e-04 -2.749464912916e-03 0.0 
-2.749464912916e-03 1.402707795240e-03 0.0 
0.0 0.0 -6.941001258497e-04 
-2.655633051019e-04 -2.700896907473e-03 0.0 
-2.700896907473e-03 2.263406073752e-03 0.0 
0.0 0.0 -8.562183294215e-04 
-3.538412369767e-04 -2.807118068406e-03 0.0 
-2.807118068406e-03 2.524613030834e-03 0.0 
0.0 0.0 -9.303307687962e-04 
-2.182790499822e-04 -2.492668770886e-03 0.0 
-2.492668770886e-03 2.032114690057e-03 0.0 
0.0 0.0 -7.773581314605e-04 
-4.250446102995e-04 -2.387105800852e-03 0.0 
-2.387105800852e-03 2.436232383686e-03 0.0 
0.0 0.0 -8.619376171656e-04 
-3.808762253420e-04 -2.140229309317e-03 0.0 
-2.140229309317e-03 2.184406533220e-03 0.0 
0.0 0.0 -7.729415605190e-04 
1.763159166294e-03 2.932701492782e-03 0.0 
2.932701492782e-03 -2.697944395366e-04 0.0 
0.0 0.0 -6.400134543247e-04 
-1.088844513542e-03 3.301377294412e-03 0.0 
3.301377294412e-03 4.460583281383e-03 0.0 
0.0 0.0 -9.751682721562e-04 
-5.557439599788e-04 -2.010376698230e-03 0.0 
-2.010376698230e-03 2.553174357475e-03 0.0 
0.0 0.0 -8.560415989269e-04 
-5.027177784437e-04 -1.739983302349e-03 0.0 
-1.739983302349e-03 2.268016728775e-03 0.0 
0.0 0.0 -7.565566929991e-04 
-3.487326511453e-04 -1.851839421592e-03 0.0 
-1.851839421592e-03 1.937346492323e-03 0.0 
0.0 0.0 -6.808345033620e-04 
-4.519877827048e-04 -1.437771514004e-03 0.0 
-1.437771514004e-03 1.973465387895e-03 0.0 
0.0 0.0 -6.520618307959e-04 
-1.774841257907e-03 1.527132807035e-03 0.0 
1.527132807035e-03 5.918357799879e-03 0.0 
0.0 0.0 -9.126358703463e-04 
-1.762808846704e-03 1.694088373988e-03 0.0 
1.694088373988e-03 6.266633471383e-03 0.0 
0.0 0.0 -9.772611937912e-04 
-1.774288393461e-03 1.442569390130e-03 0.0 
1.442569390130e-03 6.194015386497e-03 0.0 
0.0 0.0 -9.468612964576e-04 
-1.759396418391e-03 1.612723129842e-03 0.0 
1.612723129842e-03 6.563174828670e-03 0.0 
0.0 0.0 -1.012955122490e-03 
-1.767929614200e-03 1.376342917300e-03 0.0 
1.376342917300e-03 6.485124768915e-03 0.0 
0.0 0.0 -9.835180958883e-04 
-5.788967960072e-04 -1.335257077215e-03 0.0 
-1.335257077215e-03 2.277225899990e-03 0.0 
0.0 0.0 -7.256352817785e-04 
-1.603689512328e-03 2.493470387195e-03 0.0 
2.493470387195e-03 5.946173640174e-03 0.0 
0.0 0.0 -1.026687169009e-03 
-1.736212695290e-03 1.850044700733e-03 0.0 
1.850044700733e-03 6.615422803056e-03 0.0 
0.0 0.0 -1.042264213861e-03 
-7.638319934371e-04 3.223456733069e-03 0.0 
3.223456733069e-03 3.455847564200e-03 0.0 
0.0 0.0 -9.409285294772e-04 
3.366430025168e-04 3.397992003127e-03 0.0 
3.397992003127e-03 1.628840077963e-03 0.0 
0.0 0.0 -8.423498916340e-04 
2.156368313925e-03 8.947959957603e-04 0.0 
8.947959957603e-04 -1.035979942615e-03 0.0 
0.0 0.0 -4.801664448473e-04 
-6.227154585167e-04 -2.198002757365e-03 0.0 
-2.198002757365e-03 2.831211668969e-03 0.0 
0.0 0.0 -9.464983759082e-04 
-7.218347779198e-04 -1.819122893170e-03 0.0 
-1.819122893170e-03 2.913297155100e-03 0.0 
0.0 0.0 -9.383242106009e-04 
-8.133368797394e-04 -1.945809227020e-03 0.0 
-1.945809227020e-03 3.204453228297e-03 0.0 
0.0 0.0 -1.004955155493e-03 
2.358180408842e-04 -3.147007717197e-03 0.0 
-3.147007717197e-03 1.628184027877e-03 0.0 
0.0 0.0 -7.988580294692e-04 
-1.225410220003e-04 -3.166679032327e-03 0.0 
-3.166679032327e-03 2.260222165472e-03 0.0 
0.0 0.0 -9.088386183890e-04 
-3.596074933625e-05 -3.143460862446e-03 0.0 
-3.143460862446e-03 2.089404171616e-03 0.0 
0.0 0.0 -8.720661220001e-04 
-3.940691537939e-04 -3.066493924859e-03 0.0 
-3.066493924859e-03 2.736277962959e-03 0.0 
0.0 0.0 -9.548449181928e-04 
-3.127433245065e-04 -2.982699423106e-03 0.0 
-2.982699423106e-03 2.620883950583e-03 0.0 
0.0 0.0 -9.363521337227e-04 
-6.475470341843e-04 -2.849005951016e-03 0.0 
-2.849005951016e-03 3.244198139691e-03 0.0 
0.0 0.0 -9.829094188347e-04 
-7.290342086422e-04 -2.890946438125e-03 0.0 
-2.890946438125e-03 3.342200867435e-03 0.0 
0.0 0.0 -9.972914379494e-04 
-9.540874880885e-04 -2.660066281729e-03 0.0 
-2.660066281729e-03 3.821872870679e-03 0.0 
0.0 0.0 -1.003716470558e-03 
-1.033871380646e-03 -2.655311578103e-03 0.0 
-2.655311578103e-03 3.899288306138e-03 0.0 
0.0 0.0 -1.010717982506e-03 
-5.020318707035e-04 -2.652589391131e-03 0.0 
-2.652589391131e-03 3.162848563043e-03 0.0 
0.0 0.0 -1.000386703517e-03 
-1.738328040713e-04 -2.716917287151e-03 0.0 
-2.716917287151e-03 2.542650585114e-03 0.0 
0.0 0.0 -9.561072799058e-04 
-1.217140716833e-03 -2.433745842754e-03 0.0 
-2.433745842754e-03 4.355239653684e-03 0.0 
0.0 0.0 -1.026468870702e-03 
-1.301004518180e-03 -2.384512482324e-03 0.0 
-2.384512482324e-03 4.413129634354e-03 0.0 
0.0 0.0 -1.025303715086e-03 
-1.433223260983e-03 -2.180723409209e-03 0.0 
-2.180723409209e-03 4.841898264917e-03 0.0 
0.0 0.0 -1.051254241329e-03 
-1.533782143048e-03 -2.096001782913e-03 0.0 
-2.096001782913e-03 4.882119290392e-03 0.0 
0.0 0.0 -1.038917832539e-03 
-1.344970022650e-03 -2.253929758585e-03 0.0 
-2.253929758585e-03 4.461736113479e-03 0.0 
0.0 0.0 -1.037516479237e-03 
-1.569102967331e-03 -1.933831873179e-03 0.0 
-1.933831873179e-03 4.899834166201e-03 0.0 
0.0 0.0 -1.046305699947e-03 
-1.376153231101e-03 -2.066079550050e-03 0.0 
-2.066079550050e-03 4.500968763913e-03 0.0 
0.0 0.0 -1.050803148915e-03 
1.947540486422e-03 2.152880942579e-04 0.0 
2.152880942579e-04 -9.005037723215e-04 0.0 
0.0 0.0 -4.487300203286e-04 
1.680967532914e-03 9.207071897223e-04 0.0 
9.207071897223e-04 -5.014207716637e-04 0.0 
0.0 0.0 -5.055200405360e-04 
1.438850481880e-03 2.016578593639e-04 0.0 
2.016578593639e-04 -1.625086232559e-04 0.0 
0.0 0.0 -5.470036536960e-04 
1.202172879279e-03 8.527240019949e-04 0.0 
8.527240019949e-04 3.828898779410e-04 0.0 
0.0 0.0 -6.793126102372e-04 
1.037530362003e-03 2.011510087903e-04 0.0 
2.011510087903e-04 7.506062236288e-04 0.0 
0.0 0.0 -7.663442509849e-04 
8.675854264309e-04 7.587081521114e-04 0.0 
7.587081521114e-04 1.231843798103e-03 0.0 
0.0 0.0 -8.979051750036e-04 
7.349701041777e-04 2.153247329944e-04 0.0 
2.153247329944e-04 1.546423059999e-03 0.0 
0.0 0.0 -9.701408636527e-04 
8.610381847209e-04 -3.526591051395e-04 0.0 
-3.526591051395e-04 1.156465632251e-03 0.0 
0.0 0.0 -8.646444929881e-04 
-1.453224264520e-03 2.831768754596e-03 0.0 
2.831768754596e-03 5.484804576212e-03 0.0 
0.0 0.0 -1.018102500310e-03 
3.008867090267e-03 1.058367247789e-03 0.0 
1.058367247789e-03 -1.343458179845e-03 0.0 
0.0 0.0 -7.137466758949e-04 
2.853497805066e-03 1.766083769912e-03 0.0 
1.766083769912e-03 -1.173072932721e-03 0.0 
0.0 0.0 -7.201820881480e-04 
3.053541270561e-03 1.142570270594e-03 0.0 
1.142570270594e-03 -1.348374367158e-03 0.0 
0.0 0.0 -7.307858157443e-04 
2.838618046953e-03 1.876649797015e-03 0.0 
1.876649797015e-03 -1.126367864291e-03 0.0 
0.0 0.0 -7.338215068551e-04 
2.971080593981e-03 1.270655419308e-03 0.0 
1.270655419308e-03 -1.289312095888e-03 0.0 
0.0 0.0 -7.207579277541e-04 
2.719217330289e-03 2.056721202716e-03 0.0 
2.056721202716e-03 -1.037451596634e-03 0.0 
0.0 0.0 -7.207567429950e-04 
2.772942118414e-03 1.411962470906e-03 0.0 
1.411962470906e-03 -1.228640855760e-03 0.0 
0.0 0.0 -6.618433982802e-04 
2.936188635973e-03 5.059698955333e-04 0.0 
5.059698955333e-04 -1.379043216914e-03 0.0 
0.0 0.0 -6.673480367399e-04 
2.617932977065e-03 5.853697332861e-04 0.0 
5.853697332861e-04 -1.334188021617e-03 0.0 
0.0 0.0 -5.501764094776e-04 
2.753067280877e-03 -3.549983010408e-04 0.0 
-3.549983010408e-04 -1.367545839080e-03 0.0 
0.0 0.0 -5.937949036274e-04 
2.283697930113e-03 -2.688909952497e-04 0.0 
-2.688909952497e-04 -1.277221164065e-03 0.0 
0.0 0.0 -4.313471854492e-04 
2.525026440165e-03 -1.212492314672e-03 0.0 
-1.212492314672e-03 -1.245102357231e-03 0.0 
0.0 0.0 -5.485388926860e-04 
-1.241644147846e-04 3.665257049786e-03 0.0 
3.665257049786e-03 2.568141902724e-03 0.0 
0.0 0.0 -9.405629120884e-04 
9.458807958305e-04 1.361774924333e-03 0.0 
1.361774924333e-03 9.904922510770e-04 0.0 
0.0 0.0 -8.298741629604e-04 
6.513001348098e-04 1.229100697752e-03 0.0 
1.229100697752e-03 1.753882193068e-03 0.0 
0.0 0.0 -9.993981362447e-04 
6.963768604448e-04 1.772072157614e-03 0.0 
1.772072157614e-03 1.581186938205e-03 0.0 
0.0 0.0 -9.522937794042e-04 
-3.189420848090e-04 -1.545020922433e-03 0.0 
-1.545020922433e-03 1.685829119162e-03 0.0 
0.0 0.0 -5.858087290083e-04 
-1.729227017080e-03 -1.797597956290e-03 0.0 
-1.797597956290e-03 5.304685395965e-03 0.0 
0.0 0.0 -1.052155339158e-03 
-3.558894212413e-04 -2.357175527876e-03 0.0 
-2.357175527876e-03 3.123019306479e-03 0.0 
0.0 0.0 -1.032922975483e-03 
-3.685387661375e-05 -2.333297789804e-03 0.0 
-2.333297789804e-03 2.519376975604e-03 0.0 
0.0 0.0 -9.972889278909e-04 
5.502284084495e-04 -2.540944922989e-04 0.0 
-2.540944922989e-04 1.932880194956e-03 0.0 
0.0 0.0 -1.036234461364e-03 
-5.051250462252e-04 -1.053858961610e-03 0.0 
-1.053858961610e-03 1.923683454344e-03 0.0 
0.0 0.0 -5.970694122200e-04 
2.486914527932e-03 2.192796758779e-03 0.0 
2.192796758779e-03 -9.291035182538e-04 0.0 
0.0 0.0 -6.676332898623e-04 
2.328692636026e-03 2.634849956172e-03 0.0 
2.634849956172e-03 -6.738088910714e-04 0.0 
0.0 0.0 -7.092358906949e-04 
-1.744623678677e-03 1.540348128746e-03 0.0 
1.540348128746e-03 6.846449706807e-03 0.0 
0.0 0.0 -1.048874596840e-03 
-1.750773001735e-03 1.319704536713e-03 0.0 
1.319704536713e-03 6.756146718387e-03 0.0 
0.0 0.0 -1.019458214591e-03 
-2.480160767706e-04 -2.004916630844e-03 0.0 
-2.004916630844e-03 3.137306023889e-03 0.0 
0.0 0.0 -1.070157681403e-03 
-6.234076530390e-04 -9.645286907226e-04 0.0 
-9.645286907226e-04 2.209865459266e-03 0.0 
0.0 0.0 -6.466873288763e-04 
-1.068414060457e-03 -2.374253472806e-03 0.0 
-2.374253472806e-03 4.293485734694e-03 0.0 
0.0 0.0 -1.053463316161e-03 
2.067995625182e-03 6.451329218673e-04 0.0 
6.451329218673e-04 -1.186041327943e-03 0.0 
0.0 0.0 -3.779804131024e-04 
-1.762784595192e-03 -1.607331333857e-03 0.0 
-1.607331333857e-03 5.293267446583e-03 0.0 
0.0 0.0 -1.053563116650e-03 
-1.867913240625e-03 -1.489305966451e-03 0.0 
-1.489305966451e-03 5.673891533939e-03 0.0 
0.0 0.0 -1.070920355653e-03 
-7.933761041048e-04 -2.832720245216e-03 0.0 
-2.832720245216e-03 3.452224715287e-03 0.0 
0.0 0.0 -1.021320298254e-03 
4.031722277788e-04 1.617631885485e-03 0.0 
1.617631885485e-03 2.296315845658e-03 0.0 
0.0 0.0 -1.069468904140e-03 
4.279180701410e-04 2.089566425205e-03 0.0 
2.089566425205e-03 2.165414708705e-03 0.0 
0.0 0.0 -1.033921039166e-03 
2.748961671600e-03 -1.234973564708e-03 0.0 
-1.234973564708e-03 -1.253110519415e-03 0.0 
0.0 0.0 -6.410790652217e-04 
2.518060065866e-03 -2.059438322562e-03 0.0 
-2.059438322562e-03 -1.018220698221e-03 0.0 
0.0 0.0 -6.427883004194e-04 
2.357888963389e-03 -2.118209179973e-03 0.0 
-2.118209179973e-03 -9.914742540871e-04 0.0 
0.0 0.0 -5.856063039867e-04 
2.191323313200e-03 -2.728758808394e-03 0.0 
-2.728758808394e-03 -6.479650369089e-04 0.0 
0.0 0.0 -6.614392612675e-04 
2.278763046571e-03 -2.578114575528e-03 0.0 
-2.578114575528e-03 -7.103706415061e-04 0.0 
0.0 0.0 -6.721681735992e-04 
1.895457018917e-03 -3.007528799367e-03 0.0 
-3.007528799367e-03 -3.206537863592e-04 0.0 
0.0 0.0 -6.749156710960e-04 
1.780393766489e-03 -3.161947930664e-03 0.0 
-3.161947930664e-03 -1.991738640969e-04 0.0 
0.0 0.0 -6.776656724536e-04 
1.498218282607e-03 -3.239267173229e-03 0.0 
-3.239267173229e-03 1.323736015907e-04 0.0 
0.0 0.0 -6.988250932278e-04 
1.538218957511e-03 -3.082075736210e-03 0.0 
-3.082075736210e-03 7.246781046870e-07 0.0 
0.0 0.0 -6.595472724067e-04 
1.116756184221e-03 -3.039153293536e-03 0.0 
-3.039153293536e-03 4.098621490744e-04 0.0 
0.0 0.0 -6.542649999838e-04 
9.813252680918e-04 -2.956617965048e-03 0.0 
-2.956617965048e-03 5.482338783846e-04 0.0 
0.0 0.0 -6.555253484899e-04 
6.892512545273e-04 -2.715436424775e-03 0.0 
-2.715436424775e-03 7.414890539001e-04 0.0 
0.0 0.0 -6.131744178975e-04 
-1.739487401810e-03 -1.643308528611e-03 0.0 
-1.643308528611e-03 5.674904400731e-03 0.0 
0.0 0.0 -1.101875158976e-03 
1.625849311047e-03 -1.683389643306e-04 0.0 
-1.683389643306e-04 -1.097136295050e-03 0.0 
0.0 0.0 -2.265912925699e-04 
-1.396148361601e-03 2.647702035806e-03 0.0 
2.647702035806e-03 4.519072400057e-03 0.0 
0.0 0.0 -8.810844588398e-04 
-5.349333944456e-04 -2.056134526959e-03 0.0 
-2.056134526959e-03 3.696128141265e-03 0.0 
0.0 0.0 -1.099012274073e-03 
4.001314244547e-04 2.494511169208e-04 0.0 
2.494511169208e-04 2.291122324032e-03 0.0 
0.0 0.0 -1.088453095952e-03 
-1.720074879915e-03 1.479198222822e-03 0.0 
1.479198222822e-03 7.120039440071e-03 0.0 
0.0 0.0 -1.085032576515e-03 
-1.727265597861e-03 1.269164868262e-03 0.0 
1.269164868262e-03 7.020339379643e-03 0.0 
0.0 0.0 -1.055603631703e-03 
-1.745923234167e-03 1.117194505061e-03 0.0 
1.117194505061e-03 6.644193117880e-03 0.0 
0.0 0.0 -9.897378988699e-04 
-1.726111739886e-03 1.073003689324e-03 0.0 
1.073003689324e-03 6.905750690588e-03 0.0 
0.0 0.0 -1.026001677571e-03 
-1.697815529865e-03 1.216597394983e-03 0.0 
1.216597394983e-03 7.279055033116e-03 0.0 
0.0 0.0 -1.091942449670e-03 
-1.699755368788e-03 1.027337857590e-03 0.0 
1.027337857590e-03 7.158023142695e-03 0.0 
0.0 0.0 -1.062342898562e-03 
-1.716352618538e-03 8.878056221667e-04 0.0 
8.878056221667e-04 6.774679391188e-03 0.0 
0.0 0.0 -9.962627399151e-04 
-1.692178280540e-03 8.508470267666e-04 0.0 
8.508470267666e-04 7.019991579685e-03 0.0 
0.0 0.0 -1.032646955902e-03 
-1.695660932446e-03 7.184317155414e-04 0.0 
7.184317155414e-04 6.625583462411e-03 0.0 
0.0 0.0 -9.664557332607e-04 
-1.677486126932e-03 6.911180295046e-04 0.0 
6.911180295046e-04 6.868534941944e-03 0.0 
0.0 0.0 -1.002889032254e-03 
-1.663620555798e-03 8.098065595925e-04 0.0 
8.098065595925e-04 7.259384762552e-03 0.0 
0.0 0.0 -1.069134413525e-03 
-1.655525420696e-03 6.533870042141e-04 0.0 
6.533870042141e-04 7.107625883104e-03 0.0 
0.0 0.0 -1.039387411609e-03 
-1.659615819212e-03 5.491873914478e-04 0.0 
5.491873914478e-04 6.708579784798e-03 0.0 
0.0 0.0 -9.730575354659e-04 
-1.642941155605e-03 5.125241071205e-04 0.0 
5.125241071205e-04 6.945188648216e-03 0.0 
0.0 0.0 -1.009574527126e-03 
-1.637255380195e-03 4.205204331053e-04 0.0 
4.205204331053e-04 6.536272510904e-03 0.0 
0.0 0.0 -9.431603702596e-04 
-1.623420800787e-03 3.856837058294e-04 0.0 
3.856837058294e-04 6.767271635738e-03 0.0 
0.0 0.0 -9.796061197752e-04 
-1.622026920778e-03 4.757000201370e-04 0.0 
4.757000201370e-04 7.177981971167e-03 0.0 
0.0 0.0 -1.046101832713e-03 
-5.260638759536e-04 -7.746154698035e-04 0.0 
-7.746154698035e-04 1.804698088172e-03 0.0 
0.0 0.0 -4.826019863697e-04 
6.384355500235e-04 -8.071467030727e-04 0.0 
-8.071467030727e-04 1.625869863801e-03 0.0 
0.0 0.0 -9.660701661439e-04 
3.155700960172e-04 -6.399278427758e-04 0.0 
-6.399278427758e-04 2.369342842803e-03 0.0 
0.0 0.0 -1.083831836677e-03 
-8.892645420983e-04 -1.589464053846e-03 0.0 
-1.589464053846e-03 3.243112049151e-03 0.0 
0.0 0.0 -9.683295300233e-04 
-9.893521759344e-04 -1.650588191873e-03 0.0 
-1.650588191873e-03 3.517832807879e-03 0.0 
0.0 0.0 -1.010934236754e-03 
-9.339052402119e-04 -1.988561699477e-03 0.0 
-1.988561699477e-03 3.508091553521e-03 0.0 
0.0 0.0 -1.041462402745e-03 
-1.131758993546e-03 -1.657762215853e-03 0.0 
-1.657762215853e-03 3.856452720899e-03 0.0 
0.0 0.0 -1.033211989474e-03 
-1.610140258144e-03 3.510578464752e-04 0.0 
3.510578464752e-04 7.002203508451e-03 0.0 
0.0 0.0 -1.015477767897e-03 
-1.603569950634e-03 4.323698609735e-04 0.0 
4.323698609735e-04 7.406712470395e-03 0.0 
0.0 0.0 -1.082739357160e-03 
2.075859047304e-03 2.734073794279e-03 0.0 
2.734073794279e-03 -5.151566843200e-04 0.0 
0.0 0.0 -6.688724412789e-04 
1.829803788864e-03 2.896630922712e-03 0.0 
2.896630922712e-03 -2.437374272620e-04 0.0 
0.0 0.0 -6.797427264007e-04 
-1.702624885041e-03 1.699730791061e-03 0.0 
1.699730791061e-03 7.199957864770e-03 0.0 
0.0 0.0 -1.114382729655e-03 
-1.921178658721e-03 -1.279150328982e-03 0.0 
-1.279150328982e-03 5.641022297000e-03 0.0 
0.0 0.0 -1.061085778683e-03 
-1.759404772593e-03 -1.368797781515e-03 0.0 
-1.368797781515e-03 5.258990087990e-03 0.0 
0.0 0.0 -1.062669991958e-03 
6.091469494368e-04 3.201234470351e-03 0.0 
3.201234470351e-03 1.145920310691e-03 0.0 
0.0 0.0 -7.521716829121e-04 
3.812479400786e-04 3.221138826746e-03 0.0 
3.221138826746e-03 1.454024134529e-03 0.0 
0.0 0.0 -7.865451748317e-04 
6.223231318809e-04 3.034958604236e-03 0.0 
3.034958604236e-03 1.026602646357e-03 0.0 
0.0 0.0 -7.066824763876e-04 
3.755190555598e-04 3.004529260336e-03 0.0 
3.004529260336e-03 1.328866931440e-03 0.0 
0.0 0.0 -7.304511372856e-04 
1.504650344152e-04 3.149504562038e-03 0.0 
3.149504562038e-03 1.760988080228e-03 0.0 
0.0 0.0 -8.191941919899e-04 
5.829936888595e-04 2.805741157272e-03 0.0 
2.805741157272e-03 9.386435949221e-04 0.0 
0.0 0.0 -6.521302644778e-04 
1.691581229929e-04 -2.698724546406e-03 0.0 
-2.698724546406e-03 1.880405331260e-03 0.0 
0.0 0.0 -8.664312523603e-04 
-1.632170864774e-03 7.587389543785e-04 0.0 
7.587389543785e-04 7.494664304375e-03 0.0 
0.0 0.0 -1.105708206284e-03 
-1.867627977739e-04 -1.946982532398e-03 0.0 
-1.946982532398e-03 1.623581017794e-03 0.0 
0.0 0.0 -6.157792371515e-04 
-1.766459924498e-04 -1.658792918857e-03 0.0 
-1.658792918857e-03 1.424250676640e-03 0.0 
0.0 0.0 -5.346877217957e-04 
-1.953846352874e-03 -1.181006378595e-03 0.0 
-1.181006378595e-03 5.993034579258e-03 0.0 
0.0 0.0 -1.094582683422e-03 
9.227653006670e-04 -9.923042472365e-04 0.0 
-9.923042472365e-04 8.348026981178e-04 0.0 
0.0 0.0 -7.532434280506e-04 
-4.484070588213e-04 3.613794165219e-03 0.0 
3.613794165219e-03 3.179623750880e-03 0.0 
0.0 0.0 -9.533529749162e-04 
-2.780489895403e-04 3.528284248772e-03 0.0 
3.528284248772e-03 2.993445099109e-03 0.0 
0.0 0.0 -9.681750457242e-04 
-5.507055311170e-04 3.446174456380e-03 0.0 
3.446174456380e-03 3.597530854088e-03 0.0 
0.0 0.0 -9.957130113267e-04 
-3.863084581791e-04 3.307385071573e-03 0.0 
3.307385071573e-03 3.448440357162e-03 0.0 
0.0 0.0 -1.023751803962e-03 
-6.300320690614e-04 3.259070928407e-03 0.0 
3.259070928407e-03 4.039542678780e-03 0.0 
0.0 0.0 -1.059873349132e-03 
-5.085717340789e-04 3.118830500926e-03 0.0 
3.118830500926e-03 3.927747937877e-03 0.0 
0.0 0.0 -1.087854580038e-03 
-2.514557000785e-04 3.100269023384e-03 0.0 
3.100269023384e-03 3.340960341130e-03 0.0 
0.0 0.0 -1.051791170495e-03 
1.399069373120e-04 1.939674922792e-03 0.0 
1.939674922792e-03 2.839420856551e-03 0.0 
0.0 0.0 -1.107463318235e-03 
-4.186704419438e-04 2.922768790841e-03 0.0 
2.922768790841e-03 3.866682433006e-03 0.0 
0.0 0.0 -1.115916943430e-03 
-1.595806012880e-03 2.986475684988e-04 0.0 
2.986475684988e-04 6.569860539438e-03 0.0 
0.0 0.0 -9.487150400336e-04 
9.874874757951e-04 2.001023480651e-03 0.0 
2.001023480651e-03 8.096298849095e-04 0.0 
0.0 0.0 -7.701931545877e-04 
1.099587361542e-03 -2.883577329194e-03 0.0 
-2.883577329194e-03 3.196281228081e-04 0.0 
0.0 0.0 -6.082352075787e-04 
-4.120182269500e-04 -8.254968701079e-04 0.0 
-8.254968701079e-04 1.533206618467e-03 0.0 
0.0 0.0 -4.510100977179e-04 
5.592980566656e-04 -2.545612127290e-03 0.0 
-2.545612127290e-03 8.296765578219e-04 0.0 
0.0 0.0 -5.952748347803e-04 
-6.262840441887e-04 -6.448010795071e-04 0.0 
-6.448010795071e-04 2.035833554771e-03 0.0 
0.0 0.0 -5.222488353909e-04 
-7.319508735308e-04 -8.428934672220e-04 0.0 
-8.428934672220e-04 2.464651158961e-03 0.0 
0.0 0.0 -6.822577977165e-04 
-4.713603530403e-04 -1.760178858830e-03 0.0 
-1.760178858830e-03 3.749274242464e-03 0.0 
0.0 0.0 -1.136360603439e-03 
-7.414846696447e-04 3.136821301181e-03 0.0 
3.136821301181e-03 4.510208953631e-03 0.0 
0.0 0.0 -1.124065295910e-03 
-8.446432131550e-04 3.218211498406e-03 0.0 
3.218211498406e-03 4.600039828402e-03 0.0 
0.0 0.0 -1.095615423988e-03 
1.374965702112e-04 2.907969111804e-03 0.0 
2.907969111804e-03 1.629175485309e-03 0.0 
0.0 0.0 -7.571451666514e-04 
-7.702727876907e-05 2.968579821374e-03 0.0 
2.968579821374e-03 2.049330152496e-03 0.0 
0.0 0.0 -8.452726601685e-04 
8.289727363508e-05 1.511362000005e-03 0.0 
1.511362000005e-03 2.985439199539e-03 0.0 
0.0 0.0 -1.136278651916e-03 
-1.765237675762e-03 1.222407657091e-03 0.0 
1.222407657091e-03 6.114667953270e-03 0.0 
0.0 0.0 -9.177848451843e-04 
-1.710580504207e-03 7.440398052567e-04 0.0 
7.440398052567e-04 6.380060456859e-03 0.0 
0.0 0.0 -9.302130594432e-04 
-1.676565589941e-03 5.872598873801e-04 0.0 
5.872598873801e-04 6.215440748447e-03 0.0 
0.0 0.0 -9.001900590098e-04 
-3.803857748505e-04 -5.434049098283e-04 0.0 
-5.434049098283e-04 1.471759670645e-03 0.0 
0.0 0.0 -3.494697005546e-04 
7.568627899495e-04 -2.787918667943e-03 0.0 
-2.787918667943e-03 7.221354992753e-04 0.0 
0.0 0.0 -6.338564096678e-04 
-1.662120244785e-03 1.162296850059e-03 0.0 
1.162296850059e-03 7.529797322482e-03 0.0 
0.0 0.0 -1.128363834889e-03 
2.037234962576e-03 2.841104701767e-03 0.0 
2.841104701767e-03 -4.145658898484e-04 0.0 
0.0 0.0 -6.954296025976e-04 
1.531315725723e-03 2.908052614029e-03 0.0 
2.908052614029e-03 2.448474694820e-06 0.0 
0.0 0.0 -6.573275144647e-04 
1.261589428094e-03 6.096704043663e-04 0.0 
6.096704043663e-04 -9.183369249884e-04 0.0 
0.0 0.0 -1.471082156167e-04 
7.631106832774e-04 -7.208428592914e-05 0.0 
-7.208428592914e-05 -6.801595576128e-04 0.0 
0.0 0.0 -3.555048242768e-05 
-1.589929625905e-03 3.288854672539e-04 0.0 
3.288854672539e-04 7.214274616426e-03 0.0 
0.0 0.0 -1.051814883004e-03 
-1.572388470156e-03 3.792019312018e-04 0.0 
3.792019312018e-04 7.619653826889e-03 0.0 
0.0 0.0 -1.117859435171e-03 
-1.078769339999e-03 -1.982110544533e-03 0.0 
-1.982110544533e-03 3.829235274235e-03 0.0 
0.0 0.0 -1.051224796075e-03 
-1.274189695606e-03 -1.627447894412e-03 0.0 
-1.627447894412e-03 4.185605639052e-03 0.0 
0.0 0.0 -1.050863174419e-03 
-1.969895269108e-04 -1.624325261337e-03 0.0 
-1.624325261337e-03 3.218036131210e-03 0.0 
0.0 0.0 -1.107558395918e-03 
3.636511301315e-04 -2.361072158115e-03 0.0 
-2.361072158115e-03 9.584204304499e-04 0.0 
0.0 0.0 -5.666020973920e-04 
-1.569287665322e-03 4.982993919659e-04 0.0 
4.982993919659e-04 7.796117196338e-03 0.0 
0.0 0.0 -1.149181664990e-03 
6.559202405712e-04 -1.403190814261e-03 0.0 
-1.403190814261e-03 1.391837788957e-03 0.0 
0.0 0.0 -8.776105840836e-04 
9.173022590222e-04 -1.676640049954e-03 0.0 
-1.676640049954e-03 6.107363237665e-04 0.0 
0.0 0.0 -6.548736783380e-04 
-1.171879392758e-03 -1.281686817317e-03 0.0 
-1.281686817317e-03 3.846852730435e-03 0.0 
0.0 0.0 -1.001803992689e-03 
1.504150752549e-03 2.803418453549e-03 0.0 
2.803418453549e-03 -4.311377337536e-05 0.0 
0.0 0.0 -6.261587053603e-04 
1.650316852641e-03 2.671963168056e-03 0.0 
2.671963168056e-03 -3.170419596538e-04 0.0 
0.0 0.0 -5.714035255658e-04 
1.466801754994e-03 -2.835534920743e-03 0.0 
-2.835534920743e-03 -6.856056088169e-05 0.0 
0.0 0.0 -5.992462260482e-04 
4.198225928608e-04 -2.489806032447e-03 0.0 
-2.489806032447e-03 9.452515050113e-04 0.0 
0.0 0.0 -5.850317562309e-04 
-7.228005656972e-04 -5.488391732617e-04 0.0 
-5.488391732617e-04 2.276834511977e-03 0.0 
0.0 0.0 -5.562745863746e-04 
-4.637036380639e-04 -1.428624458379e-03 0.0 
-1.428624458379e-03 3.853108176796e-03 0.0 
0.0 0.0 -1.173829981771e-03 
-1.646663843551e-03 1.358180133252e-03 0.0 
1.358180133252e-03 7.637691352308e-03 0.0 
0.0 0.0 -1.157575248917e-03 
-1.588531343900e-04 2.821657521555e-03 0.0 
2.821657521555e-03 3.283406077172e-03 0.0 
0.0 0.0 -1.080172819833e-03 
2.446831455112e-05 3.060603850123e-03 0.0 
3.060603850123e-03 2.728589719442e-03 0.0 
0.0 0.0 -1.015677837919e-03 
-3.660685555016e-04 2.667845735617e-03 0.0 
2.667845735617e-03 3.843962247037e-03 0.0 
0.0 0.0 -1.144955025780e-03 
2.673047132891e-04 -2.137865757300e-03 0.0 
-2.137865757300e-03 9.516698016607e-04 0.0 
0.0 0.0 -5.224176492642e-04 
-7.311483308604e-04 -1.856928531792e-03 0.0 
-1.856928531792e-03 4.285424001286e-03 0.0 
0.0 0.0 -1.165794428787e-03 
-2.038713827362e-03 -9.521744761757e-04 0.0 
-9.521744761757e-04 5.942161280998e-03 0.0 
0.0 0.0 -1.070719593515e-03 
-9.487823984943e-04 3.179202297983e-03 0.0 
3.179202297983e-03 5.046317585578e-03 0.0 
0.0 0.0 -1.157598467365e-03 
-1.028189826122e-03 3.189698687636e-03 0.0 
3.189698687636e-03 5.131498804919e-03 0.0 
0.0 0.0 -1.131219827106e-03 
1.693489723556e-03 2.912737131245e-03 0.0 
2.912737131245e-03 -1.493629984725e-04 0.0 
0.0 0.0 -6.617685964645e-04 
1.185947765099e-03 2.829659806798e-03 0.0 
2.829659806798e-03 2.506006467406e-04 0.0 
0.0 0.0 -6.156636050741e-04 
1.024663306531e-03 2.720941116212e-03 0.0 
2.720941116212e-03 3.858661710823e-04 0.0 
0.0 0.0 -6.045126332627e-04 
7.581467413336e-04 2.629057648791e-03 0.0 
2.629057648791e-03 6.283993164515e-04 0.0 
0.0 0.0 -5.942340247651e-04 
-1.648477658061e-03 2.188124378807e-03 0.0 
2.188124378807e-03 4.981950326516e-03 0.0 
0.0 0.0 -8.520119503206e-04 
1.288363213325e-03 2.918108490938e-03 0.0 
2.918108490938e-03 1.603315013667e-04 0.0 
0.0 0.0 -6.208691634391e-04 
-1.164374950017e-03 2.801514945082e-03 0.0 
2.801514945082e-03 4.086272555253e-03 0.0 
0.0 0.0 -8.983830653277e-04 
-1.269722602642e-03 2.487508477755e-03 0.0 
2.487508477755e-03 4.199128990551e-03 0.0 
0.0 0.0 -8.736227209573e-04 
-1.046332524412e-03 2.638264182984e-03 0.0 
2.638264182984e-03 3.789437134256e-03 0.0 
0.0 0.0 -8.954616384525e-04 
-9.535589006008e-05 3.192865815352e-03 0.0 
3.192865815352e-03 2.227004452414e-03 0.0 
0.0 0.0 -9.127067050351e-04 
-3.022280285659e-04 2.955332983640e-03 0.0 
2.955332983640e-03 2.491438051520e-03 0.0 
0.0 0.0 -9.307589223859e-04 
2.556968385694e-03 2.345203577048e-03 0.0 
2.345203577048e-03 -8.968266888023e-04 0.0 
0.0 0.0 -7.114892986678e-04 
1.812389688023e-03 1.564451495357e-03 0.0 
1.564451495357e-03 -6.179615212951e-04 0.0 
0.0 0.0 -5.118977857407e-04 
-8.515674767651e-04 -2.308299700533e-03 0.0 
-2.308299700533e-03 3.434983390257e-03 0.0 
0.0 0.0 -1.054912416397e-03 
-1.137266829401e-03 -2.398619768870e-03 0.0 
-2.398619768870e-03 4.055285407119e-03 0.0 
0.0 0.0 -1.045074301760e-03 
3.367977982503e-04 -3.065748121326e-03 0.0 
-3.065748121326e-03 1.429094799845e-03 0.0 
0.0 0.0 -7.568111134693e-04 
-1.629365191565e-03 9.257695161170e-04 0.0 
9.257695161170e-04 7.634439739813e-03 0.0 
0.0 0.0 -1.135109731873e-03 
-1.590870954180e-03 8.599854275843e-04 0.0 
8.599854275843e-04 7.870981141839e-03 0.0 
0.0 0.0 -1.171938512032e-03 
-1.643416432560e-03 4.449926551975e-04 0.0 
4.449926551975e-04 6.296597502974e-03 0.0 
0.0 0.0 -9.065739516476e-04 
-1.602464872442e-03 3.219184720994e-04 0.0 
3.219184720994e-04 6.108782366366e-03 0.0 
0.0 0.0 -8.764137937918e-04 
-2.696764371388e-04 -1.265861831851e-03 0.0 
-1.265861831851e-03 1.411045974668e-03 0.0 
0.0 0.0 -4.842067647502e-04 
-1.400634450087e-04 -1.409834388031e-03 0.0 
-1.409834388031e-03 1.204297259864e-03 0.0 
0.0 0.0 -4.502468535423e-04 
-2.319199994023e-04 -3.122878098546e-03 0.0 
-3.122878098546e-03 2.451044877422e-03 0.0 
0.0 0.0 -9.437206122825e-04 
-7.988578011231e-04 -2.058259969339e-03 0.0 
-2.058259969339e-03 4.234722114073e-03 0.0 
0.0 0.0 -1.127529358476e-03 
-1.669665556383e-03 1.635524756470e-03 0.0 
1.635524756470e-03 7.469407833496e-03 0.0 
0.0 0.0 -1.150095860580e-03 
-1.643068085807e-03 1.857648967737e-03 0.0 
1.857648967737e-03 7.542411325100e-03 0.0 
0.0 0.0 -1.179372829571e-03 
-1.673921977860e-03 1.925750498755e-03 0.0 
1.925750498755e-03 7.258395415596e-03 0.0 
0.0 0.0 -1.143369325256e-03 
-2.014473825755e-04 -1.218765106027e-03 0.0 
-1.218765106027e-03 3.345673547677e-03 0.0 
0.0 0.0 -1.144273392007e-03 
3.110341159347e-03 3.472939405717e-04 0.0 
3.472939405717e-04 -1.445647776500e-03 0.0 
0.0 0.0 -7.134400212203e-04 
1.600864292633e-03 -4.933060105816e-04 0.0 
-4.933060105816e-04 -5.124875882505e-04 0.0 
0.0 0.0 -4.664471590211e-04 
1.395368066446e-03 -9.561308999161e-04 0.0 
-9.561308999161e-04 -1.034414870566e-03 0.0 
0.0 0.0 -1.546942268056e-04 
3.758232775366e-04 3.466607308548e-03 0.0 
3.466607308548e-03 1.708095271688e-03 0.0 
0.0 0.0 -8.625807428358e-04 
-1.387284875597e-04 -1.147843400141e-03 0.0 
-1.147843400141e-03 1.071097091449e-03 0.0 
0.0 0.0 -3.720583479433e-04 
-1.231098641636e-03 3.135190691380e-03 0.0 
3.135190691380e-03 4.944666622865e-03 0.0 
0.0 0.0 -1.010319580236e-03 
-1.984786992954e-03 -8.733459957740e-04 0.0 
-8.733459957740e-04 6.259759611652e-03 0.0 
0.0 0.0 -1.122815839103e-03 
-1.861926426933e-03 -1.095524342960e-03 0.0 
-1.095524342960e-03 6.311220838631e-03 0.0 
0.0 0.0 -1.159213750608e-03 
-1.725327838232e-04 1.829528703914e-03 0.0 
1.829528703914e-03 3.501045676607e-03 0.0 
0.0 0.0 -1.171959308352e-03 
-1.590101240846e-03 1.706978125594e-03 0.0 
1.706978125594e-03 4.660773429978e-03 0.0 
0.0 0.0 -7.960146267056e-04 
5.073336669335e-04 3.214445659709e-03 0.0 
3.214445659709e-03 1.538412133141e-03 0.0 
0.0 0.0 -8.506774374544e-04 
8.851619009454e-04 2.969244090533e-03 0.0 
2.969244090533e-03 8.376787810317e-04 0.0 
0.0 0.0 -7.383602922759e-04 
-1.156062255108e-03 2.301233915827e-03 0.0 
2.301233915827e-03 3.896290621430e-03 0.0 
0.0 0.0 -8.625652443140e-04 
-9.471297243856e-04 2.440002294532e-03 0.0 
2.440002294532e-03 3.517004994648e-03 0.0 
0.0 0.0 -8.875966840820e-04 
-8.066787093543e-04 2.777426977554e-03 0.0 
2.777426977554e-03 3.370899001042e-03 0.0 
0.0 0.0 -9.244972712473e-04 
-7.192390311965e-04 2.566107428446e-03 0.0 
2.566107428446e-03 3.124935059627e-03 0.0 
0.0 0.0 -9.234394568817e-04 
1.009712769882e-03 -2.639627470040e-03 0.0 
-2.639627470040e-03 3.518698063256e-04 0.0 
0.0 0.0 -5.835353898034e-04 
7.225051380104e-04 -2.634694636205e-03 0.0 
-2.634694636205e-03 6.767854285005e-04 0.0 
0.0 0.0 -5.996959570761e-04 
-8.921567267479e-04 3.111111284804e-03 0.0 
3.111111284804e-03 5.059665355678e-03 0.0 
0.0 0.0 -1.192042136895e-03 
-6.099967263224e-04 2.870760626298e-03 0.0 
2.870760626298e-03 4.411064189710e-03 0.0 
0.0 0.0 -1.178660172201e-03 
-1.100042912757e-03 3.200343520554e-03 0.0 
3.200343520554e-03 5.573219155758e-03 0.0 
0.0 0.0 -1.193029175878e-03 
-1.160667669830e-03 3.176739035806e-03 0.0 
3.176739035806e-03 5.649176834465e-03 0.0 
0.0 0.0 -1.168165168231e-03 
-2.521445186915e-04 1.437999620024e-03 0.0 
1.437999620024e-03 3.663538457504e-03 0.0 
0.0 0.0 -1.200910491468e-03 
-1.175265126893e-05 1.083930210957e-03 0.0 
1.083930210957e-03 3.184478001405e-03 0.0 
0.0 0.0 -1.164168769488e-03 
-8.338945190871e-04 -6.899851568111e-04 0.0 
-6.899851568111e-04 2.693161182237e-03 0.0 
0.0 0.0 -7.014880017679e-04 
-2.848117966112e-04 2.692565546894e-03 0.0 
2.692565546894e-03 2.299445011333e-03 0.0 
0.0 0.0 -8.634142348809e-04 
-1.596224494799e-03 1.291320717670e-03 0.0 
1.291320717670e-03 7.883322151599e-03 0.0 
0.0 0.0 -1.194151889699e-03 
-1.353314944435e-03 2.157291733394e-03 0.0 
2.157291733394e-03 4.270289119183e-03 0.0 
0.0 0.0 -8.433929263471e-04 
-9.622501338421e-04 -1.912189492832e-03 0.0 
-1.912189492832e-03 4.776924830183e-03 0.0 
0.0 0.0 -1.192835421428e-03 
-1.026421419571e-03 -2.028541400734e-03 0.0 
-2.028541400734e-03 4.755168212354e-03 0.0 
0.0 0.0 -1.156047193884e-03 
4.478208592864e-04 -3.751585586859e-04 0.0 
-3.751585586859e-04 -4.241673929217e-04 0.0 
0.0 0.0 -1.013719987055e-05 
1.244125017972e-03 -1.917312666705e-03 0.0 
-1.917312666705e-03 -7.538799606522e-04 0.0 
0.0 0.0 -2.101050245656e-04 
-1.537691014338e-03 4.222863431362e-04 0.0 
4.222863431362e-04 8.020533850651e-03 0.0 
0.0 0.0 -1.184588873336e-03 
6.358527835684e-04 2.480430970654e-03 0.0 
2.480430970654e-03 6.941509382628e-04 0.0 
0.0 0.0 -5.700015950705e-04 
4.499471129459e-04 2.458836012126e-03 0.0 
2.458836012126e-03 9.036367217386e-04 0.0 
0.0 0.0 -5.801073577219e-04 
8.196974528425e-04 2.512758387053e-03 0.0 
2.512758387053e-03 5.135885621210e-04 0.0 
0.0 0.0 -5.714082921272e-04 
-1.721775180469e-03 -2.750261499923e-04 0.0 
-2.750261499923e-04 6.955705942823e-03 0.0 
0.0 0.0 -1.258310293365e-03 
-1.440319018305e-03 2.756393348766e-05 0.0 
2.756393348766e-05 5.261443928406e-03 0.0 
0.0 0.0 -7.479256703001e-04 
-1.851935248777e-03 -8.185806621322e-04 0.0 
-8.185806621322e-04 6.555435669483e-03 0.0 
0.0 0.0 -1.189418985649e-03 
-3.624356194934e-04 3.164434027964e-03 0.0 
3.164434027964e-03 2.710514095153e-03 0.0 
0.0 0.0 -9.658202727595e-04 
-1.517819935298e-03 5.689925216528e-04 0.0 
5.689925216528e-04 8.183121975380e-03 0.0 
0.0 0.0 -1.216510697198e-03 
6.201224625516e-04 2.820752531408e-03 0.0 
2.820752531408e-03 1.452084294343e-03 0.0 
0.0 0.0 -8.651011823288e-04 
9.038760669871e-04 3.026845929911e-03 0.0 
3.026845929911e-03 6.793831834175e-04 0.0 
0.0 0.0 -6.785396787449e-04 
8.674105580954e-05 -1.429107710981e-03 0.0 
-1.429107710981e-03 2.679701546003e-03 0.0 
0.0 0.0 -1.078177493492e-03 
-1.550932841916e-03 2.613354928632e-04 0.0 
2.613354928632e-04 7.825402361396e-03 0.0 
0.0 0.0 -1.149140729088e-03 
-1.512659112896e-03 3.422106709257e-04 0.0 
3.422106709257e-04 8.249752470507e-03 0.0 
0.0 0.0 -1.221625961084e-03 
-1.676659295308e-03 6.110344698925e-04 0.0 
6.110344698925e-04 5.968416883272e-03 0.0 
0.0 0.0 -8.638707813346e-04 
-1.641988205188e-03 4.340588364437e-04 0.0 
4.340588364437e-04 5.771155948817e-03 0.0 
0.0 0.0 -8.327709333130e-04 
-1.719162707249e-03 7.708162564075e-04 0.0 
7.708162564075e-04 6.112617701018e-03 0.0 
0.0 0.0 -8.925140200429e-04 
1.977927820577e-03 1.598623588264e-03 0.0 
1.598623588264e-03 -1.019208972965e-03 0.0 
0.0 0.0 -4.108795061196e-04 
1.108521086627e-03 1.458274724011e-03 0.0 
1.458274724011e-03 -6.824978449185e-04 0.0 
0.0 0.0 -1.825813893037e-04 
-1.599533954581e-03 7.014631110784e-04 0.0 
7.014631110784e-04 7.724369133548e-03 0.0 
0.0 0.0 -1.142090266074e-03 
-7.915237200633e-04 -1.416691550801e-03 0.0 
-1.416691550801e-03 2.916147842675e-03 0.0 
0.0 0.0 -8.917970384883e-04 
-9.526528541598e-04 -1.159662932408e-03 0.0 
-1.159662932408e-03 3.237497577102e-03 0.0 
0.0 0.0 -9.066540859529e-04 
1.679025679155e-04 -2.197795369639e-03 0.0 
-2.197795369639e-03 1.134113528401e-03 0.0 
0.0 0.0 -5.580068984213e-04 
1.993437938488e-04 -2.372930192997e-03 0.0 
-2.372930192997e-03 1.192906332053e-03 0.0 
0.0 0.0 -5.966786253865e-04 
-1.011942446972e-03 -2.270969963916e-03 0.0 
-2.270969963916e-03 3.766401779748e-03 0.0 
0.0 0.0 -1.058899862332e-03 
-7.573046355122e-04 -2.581800115454e-03 0.0 
-2.581800115454e-03 3.322201121737e-03 0.0 
0.0 0.0 -1.050266080739e-03 
-1.095827954621e-03 3.216069521876e-03 0.0 
3.216069521876e-03 4.826499025112e-03 0.0 
0.0 0.0 -1.038692069610e-03 
-1.234301998555e-03 3.107456630916e-03 0.0 
3.107456630916e-03 5.310904523361e-03 0.0 
0.0 0.0 -1.074129358999e-03 
-7.180889207275e-04 3.499463535137e-03 0.0 
3.499463535137e-03 3.763199671929e-03 0.0 
0.0 0.0 -9.722238801078e-04 
6.053063119579e-04 -2.030268547273e-03 0.0 
-2.030268547273e-03 1.237774920504e-03 0.0 
0.0 0.0 -7.898919567692e-04 
8.551862749054e-04 -2.258528060602e-03 0.0 
-2.258528060602e-03 5.423122765455e-04 0.0 
0.0 0.0 -5.989279506218e-04 
1.198969096751e-03 -1.716835984739e-03 0.0 
-1.716835984739e-03 -1.728528183354e-05 0.0 
0.0 0.0 -5.064359206787e-04 
-1.578160803348e-03 1.029909350069e-03 0.0 
1.029909350069e-03 7.988225935028e-03 0.0 
0.0 0.0 -1.199867006878e-03 
-1.525066789097e-03 9.716746199443e-04 0.0 
9.716746199443e-04 8.273760627129e-03 0.0 
0.0 0.0 -1.242728214876e-03 
1.321351467926e-03 -2.568351524438e-03 0.0 
-2.568351524438e-03 -2.315153931369e-07 0.0 
0.0 0.0 -5.661942653711e-04 
1.809254267051e-03 -2.583366555036e-03 0.0 
-2.583366555036e-03 -4.342692756295e-04 0.0 
0.0 0.0 -5.892792820379e-04 
6.921033763950e-04 -2.656898720389e-03 0.0 
-2.656898720389e-03 7.465441525006e-04 0.0 
0.0 0.0 -6.165632266696e-04 
-1.574485567314e-03 1.499311237931e-03 0.0 
1.499311237931e-03 7.988348182121e-03 0.0 
0.0 0.0 -1.223056365294e-03 
-1.741572698048e-03 -1.051965994170e-03 0.0 
-1.051965994170e-03 6.624165410999e-03 0.0 
0.0 0.0 -1.224004481682e-03 
-1.735235085971e-03 -1.304001527318e-03 0.0 
-1.304001527318e-03 6.344789461694e-03 0.0 
0.0 0.0 -1.195820777905e-03 
-2.679240954609e-05 -1.257927253223e-03 0.0 
-1.257927253223e-03 9.029103496679e-04 0.0 
0.0 0.0 -3.450663815859e-04 
-3.035170911774e-06 -1.579137764012e-03 0.0 
-1.579137764012e-03 1.039327180488e-03 0.0 
0.0 0.0 -4.410249086127e-04 
1.155100538592e-03 2.631364371344e-03 0.0 
2.631364371344e-03 1.868470155697e-04 0.0 
0.0 0.0 -5.751203803551e-04 
1.215808673203e-03 2.544029937651e-03 0.0 
2.544029937651e-03 -5.958635491021e-05 0.0 
0.0 0.0 -4.955238506970e-04 
-1.603953202991e-03 2.084851501461e-03 0.0 
2.084851501461e-03 7.579130278610e-03 0.0 
0.0 0.0 -1.207258722210e-03 
-1.637778905667e-03 2.162652518366e-03 0.0 
2.162652518366e-03 7.304299819900e-03 0.0 
0.0 0.0 -1.172631524865e-03 
-1.556077565275e-03 2.029656444368e-03 0.0 
2.029656444368e-03 7.905393318382e-03 0.0 
0.0 0.0 -1.247471551777e-03 
-8.078621275666e-04 -3.743686463011e-04 0.0 
-3.743686463011e-04 2.476609172107e-03 0.0 
0.0 0.0 -5.753817989848e-04 
1.173818397494e-04 2.725852523849e-03 0.0 
2.725852523849e-03 2.691650762888e-03 0.0 
0.0 0.0 -1.045322365442e-03 
-5.040778805934e-04 -1.070896588493e-03 0.0 
-1.070896588493e-03 3.980562278462e-03 0.0 
0.0 0.0 -1.207899217314e-03 
-2.520428194526e-04 -7.965635153337e-04 0.0 
-7.965635153337e-04 3.542662319704e-03 0.0 
0.0 0.0 -1.178012378629e-03 
-7.711086010594e-04 -1.329041706335e-03 0.0 
-1.329041706335e-03 4.567355749165e-03 0.0 
0.0 0.0 -1.244624083072e-03 
-1.223572839919e-04 2.186752793674e-03 0.0 
2.186752793674e-03 3.375840631155e-03 0.0 
0.0 0.0 -1.142102124289e-03 
-4.435966474857e-04 2.091597596222e-03 0.0 
2.091597596222e-03 3.997165180884e-03 0.0 
0.0 0.0 -1.205428683694e-03 
-6.295415077105e-04 2.617745388046e-03 0.0 
2.617745388046e-03 4.421095216534e-03 0.0 
0.0 0.0 -1.209323031234e-03 
8.913702169857e-05 -5.356610077544e-06 0.0 
-5.356610077544e-06 -8.913702169857e-05 0.0 
0.0 0.0 0.0 
-1.516551893121e-03 1.931531950452e-04 0.0 
1.931531950452e-04 8.105824831205e-03 0.0 
0.0 0.0 -1.199992767657e-03 
-1.600603275175e-03 3.197306060267e-04 0.0 
3.197306060267e-04 5.842030124630e-03 0.0 
0.0 0.0 -8.371571859873e-04 
0.0 0.0 0.0 
0.0 0.0 0.0 
0.0 0.0 0.0 
-1.547068004807e-03 2.255592860515e-04 0.0 
2.255592860515e-04 5.653808019545e-03 0.0 
0.0 0.0 -8.070151920887e-04 
-1.566358775821e-03 2.266234695203e-04 0.0 
2.266234695203e-04 5.919104175052e-03 0.0 
0.0 0.0 -8.451615393777e-04 
-1.505853756260e-03 1.425564258005e-04 0.0 
1.425564258005e-04 5.404792730384e-03 0.0 
0.0 0.0 -7.748096441827e-04 
-6.628775469822e-04 -3.015658585898e-04 0.0 
-3.015658585898e-04 2.010090265861e-03 0.0 
0.0 0.0 -4.206613647546e-04 
-1.675398106948e-03 5.868598101642e-04 0.0 
5.868598101642e-04 5.623434088204e-03 0.0 
0.0 0.0 -8.174106193842e-04 
-1.726757844430e-03 7.924650127462e-04 0.0 
7.924650127462e-04 5.855419414792e-03 0.0 
0.0 0.0 -8.556612431672e-04 
8.558548932515e-05 -1.128009013281e-03 0.0 
-1.128009013281e-03 6.309628739441e-04 0.0 
0.0 0.0 -2.713320700168e-04 
-1.513004436039e-03 1.420623121839e-03 0.0 
1.420623121839e-03 8.214217499082e-03 0.0 
0.0 0.0 -1.259301554906e-03 
1.749391661274e-04 -1.082733169331e-03 0.0 
-1.082733169331e-03 5.892299780132e-04 0.0 
0.0 0.0 -2.441793916413e-04 
1.147662153238e-04 -1.066745943300e-03 0.0 
-1.066745943300e-03 7.910181080930e-04 0.0 
0.0 0.0 -2.872885922025e-04 
-1.122672355991e-03 -1.921241529141e-03 0.0 
-1.921241529141e-03 5.266335920734e-03 0.0 
0.0 0.0 -1.221214701962e-03 
-1.203549749022e-03 -1.976762786956e-03 0.0 
-1.976762786956e-03 5.228557791274e-03 0.0 
0.0 0.0 -1.184344882880e-03 
-1.271935696370e-03 -1.932492998885e-03 0.0 
-1.932492998885e-03 5.682500405781e-03 0.0 
0.0 0.0 -1.247726601234e-03 
-1.345935677545e-03 -1.879180138911e-03 0.0 
-1.879180138911e-03 5.631962343118e-03 0.0 
0.0 0.0 -1.211018817991e-03 
-1.319489507466e-03 -1.996946989352e-03 0.0 
-1.996946989352e-03 5.223869660522e-03 0.0 
0.0 0.0 -1.147066289601e-03 
-1.457152980048e-03 -1.833275450520e-03 0.0 
-1.833275450520e-03 5.658001904065e-03 0.0 
0.0 0.0 -1.176490610025e-03 
-1.598701855115e-03 3.112456463076e-04 0.0 
3.112456463076e-04 5.594187128056e-03 0.0 
0.0 0.0 -7.985989294648e-04 
-1.425017338431e-03 -1.793987580484e-03 0.0 
-1.793987580484e-03 6.077694866820e-03 0.0 
0.0 0.0 -1.249018369598e-03 
-1.544794874514e-03 -1.654652183582e-03 0.0 
-1.654652183582e-03 6.043342076509e-03 0.0 
0.0 0.0 -1.207442871744e-03 
-1.490747382805e-03 -1.688185045970e-03 0.0 
-1.688185045970e-03 6.481641932430e-03 0.0 
0.0 0.0 -1.277927415301e-03 
-8.701201880038e-04 2.189049665711e-03 0.0 
2.189049665711e-03 3.268695103799e-03 0.0 
0.0 0.0 -8.722607330507e-04 
5.310970710450e-04 2.630450444314e-03 0.0 
2.630450444314e-03 9.000089298474e-04 0.0 
0.0 0.0 -6.133311432396e-04 
2.617133158352e-04 2.476764240616e-03 0.0 
2.476764240616e-03 1.164640329384e-03 0.0 
0.0 0.0 -6.112944193795e-04 
1.728571300418e-04 2.227493690469e-03 0.0 
2.227493690469e-03 1.142483149507e-03 0.0 
0.0 0.0 -5.637172626637e-04 
-1.229541831672e-03 3.263680413163e-03 0.0 
3.263680413163e-03 6.138633277811e-03 0.0 
0.0 0.0 -1.240180566941e-03 
-1.276361500880e-03 3.187291024850e-03 0.0 
3.187291024850e-03 6.099399323178e-03 0.0 
0.0 0.0 -1.200590015451e-03 
-2.088598425736e-03 -6.246367196868e-04 0.0 
-6.246367196868e-04 6.194373546362e-03 0.0 
0.0 0.0 -1.090180627845e-03 
-2.041663287848e-03 -6.617363893855e-04 0.0 
-6.617363893855e-04 5.852171557009e-03 0.0 
0.0 0.0 -1.067141795818e-03 
-1.532469855713e-03 1.525337910669e-04 0.0 
1.525337910669e-04 5.692847008020e-03 0.0 
0.0 0.0 -8.108182148135e-04 
-1.511312180107e-03 9.255618039040e-05 0.0 
9.255618039040e-05 5.666580148835e-03 0.0 
0.0 0.0 -8.077352941366e-04 
-1.560488436606e-03 1.911238081195e-04 0.0 
1.911238081195e-04 6.070956180256e-03 0.0 
0.0 0.0 -8.678526801547e-04 
-1.544526745633e-03 1.030985674976e-04 0.0 
1.030985674976e-04 6.005801825662e-03 0.0 
0.0 0.0 -8.609153521579e-04 
-1.580530064686e-03 1.945628071657e-04 0.0 
1.945628071657e-04 6.420611350931e-03 0.0 
0.0 0.0 -9.200517378055e-04 
-1.559403933791e-03 8.887484367551e-05 0.0 
8.887484367551e-05 6.359767284502e-03 0.0 
0.0 0.0 -9.108947733944e-04 
-1.583263469338e-03 1.334252269549e-04 0.0 
1.334252269549e-04 6.753346818615e-03 0.0 
0.0 0.0 -9.726914458129e-04 
-8.669769815257e-04 2.889098903744e-03 0.0 
2.889098903744e-03 5.024560399167e-03 0.0 
0.0 0.0 -1.245087786853e-03 
4.982055672495e-04 2.293020821825e-03 0.0 
2.293020821825e-03 7.508210362061e-04 0.0 
0.0 0.0 -5.352971157667e-04 
-1.245162061090e-03 1.941632408908e-03 0.0 
1.941632408908e-03 3.965163190857e-03 0.0 
0.0 0.0 -8.237883836899e-04 
-3.879507205886e-04 1.027612391922e-03 0.0 
1.027612391922e-03 3.877749242080e-03 0.0 
0.0 0.0 -1.228261380050e-03 
-1.475502455479e-04 6.710535629733e-04 0.0 
6.710535629733e-04 3.400758398957e-03 0.0 
0.0 0.0 -1.187396807988e-03 
-4.877113708210e-04 2.653909423409e-03 0.0 
2.653909423409e-03 2.711925927626e-03 0.0 
0.0 0.0 -9.301491777014e-04 
-4.673273112926e-04 2.354591855457e-03 0.0 
2.354591855457e-03 2.518811343451e-03 0.0 
0.0 0.0 -8.783714799336e-04 
-9.656459474725e-04 -1.750454010380e-03 0.0 
-1.750454010380e-03 4.960948450779e-03 0.0 
0.0 0.0 -1.238794375355e-03 
1.773029984471e-03 2.918628512030e-03 0.0 
2.918628512030e-03 -2.405794798709e-04 0.0 
0.0 0.0 -6.567645019713e-04 
-1.474754496101e-03 1.652724927503e-03 0.0 
1.652724927503e-03 8.365646577830e-03 0.0 
0.0 0.0 -1.295459716840e-03 
0.0 0.0 0.0 
0.0 0.0 0.0 
0.0 0.0 0.0 
1.498393906149e-04 3.022053957605e-04 0.0 
3.022053957605e-04 -1.163750170629e-04 0.0 
0.0 0.0 -1.434187437942e-05 
1.327025876230e-03 3.010605488358e-03 0.0 
3.010605488358e-03 1.473338213913e-04 0.0 
0.0 0.0 -6.318684418375e-04 
-5.499021132442e-04 2.888144921732e-03 0.0 
2.888144921732e-03 2.938437648155e-03 0.0 
0.0 0.0 -9.558721723632e-04 
3.323415439528e-04 2.743520330787e-03 0.0 
2.743520330787e-03 1.229329144075e-03 0.0 
0.0 0.0 -6.692874377263e-04 
9.209566797494e-05 2.604630668434e-03 0.0 
2.604630668434e-03 1.511290340994e-03 0.0 
0.0 0.0 -6.871654324154e-04 
3.645468755337e-04 -1.692092076938e-03 0.0 
-1.692092076938e-03 1.976975662064e-03 0.0 
0.0 0.0 -9.759998253719e-04 
1.091376312940e-04 -1.700138468344e-03 0.0 
-1.700138468344e-03 9.084482070208e-04 0.0 
0.0 0.0 -4.293607968937e-04 
9.860679807434e-04 2.546469046220e-03 0.0 
2.546469046220e-03 3.575313038065e-04 0.0 
0.0 0.0 -5.758282648071e-04 
-1.592993118431e-03 2.731466696240e-04 0.0 
2.731466696240e-04 6.800272037187e-03 0.0 
0.0 0.0 -9.796923013958e-04 
6.911227834126e-04 2.251046992259e-03 0.0 
2.251046992259e-03 5.130124139505e-04 0.0 
0.0 0.0 -5.160579417270e-04 
-2.121618955622e-03 -3.224058753556e-04 0.0 
-3.224058753556e-04 6.099005119318e-03 0.0 
0.0 0.0 -1.073807358551e-03 
2.201373567652e-03 2.690698738968e-03 0.0 
2.690698738968e-03 -6.091920316776e-04 0.0 
0.0 0.0 -6.823635154174e-04 
-1.638384935320e-04 3.372316730358e-03 0.0 
3.372316730358e-03 2.445531910937e-03 0.0 
0.0 0.0 -9.519839029876e-04 
1.275974649949e-03 2.775715452302e-03 0.0 
2.775715452302e-03 1.801999389927e-04 0.0 
0.0 0.0 -6.240748238320e-04 
8.350192799097e-04 2.727176630851e-03 0.0 
2.727176630851e-03 5.820764688072e-04 0.0 
0.0 0.0 -6.073267494501e-04 
-1.574296698924e-03 2.484580816168e-03 0.0 
2.484580816168e-03 4.927078130058e-03 0.0 
0.0 0.0 -8.786961992330e-04 
-1.699341285066e-03 1.882952510091e-03 0.0 
1.882952510091e-03 5.001649373791e-03 0.0 
0.0 0.0 -8.239340753773e-04 
-1.544077067517e-03 2.021174845409e-03 0.0 
2.021174845409e-03 4.648313902463e-03 0.0 
0.0 0.0 -8.287327148421e-04 
2.547623254183e-03 2.268646563305e-03 0.0 
2.268646563305e-03 -9.255766277510e-04 0.0 
0.0 0.0 -6.951628398994e-04 
-9.793607364304e-05 2.680641002234e-03 0.0 
2.680641002234e-03 1.905972935152e-03 0.0 
0.0 0.0 -7.748729406467e-04 
-1.401926105552e-04 2.272349151151e-03 0.0 
2.272349151151e-03 1.732062029039e-03 0.0 
0.0 0.0 -6.822297507788e-04 
-1.042335079289e-03 3.085608632330e-03 0.0 
3.085608632330e-03 3.939330989580e-03 0.0 
0.0 0.0 -9.170298757010e-04 
-1.694312562690e-03 2.003906122110e-03 0.0 
2.003906122110e-03 6.960974899569e-03 0.0 
0.0 0.0 -1.107475121065e-03 
-1.654341182746e-03 2.234400658440e-03 0.0 
2.234400658440e-03 6.989596744706e-03 0.0 
0.0 0.0 -1.136341617999e-03 
-1.591073595122e-03 2.379952355984e-03 0.0 
2.379952355984e-03 7.311228899108e-03 0.0 
0.0 0.0 -1.199268560344e-03 
-1.606550985090e-03 2.450965261895e-03 0.0 
2.450965261895e-03 7.002228799418e-03 0.0 
0.0 0.0 -1.164598082371e-03 
-1.654615127137e-03 2.306554865062e-03 0.0 
2.306554865062e-03 6.662432923767e-03 0.0 
0.0 0.0 -1.100413285504e-03 
-1.595489437176e-03 2.513437590904e-03 0.0 
2.513437590904e-03 6.653696588520e-03 0.0 
0.0 0.0 -1.129075729544e-03 
-1.546389988990e-03 2.664193302564e-03 0.0 
2.664193302564e-03 6.994860909819e-03 0.0 
0.0 0.0 -1.193594387005e-03 
-1.524710140769e-03 2.725114460972e-03 0.0 
2.725114460972e-03 6.640657221836e-03 0.0 
0.0 0.0 -1.159256375294e-03 
-1.483453285402e-03 2.879360167952e-03 0.0 
2.879360167952e-03 7.061959584516e-03 0.0 
0.0 0.0 -1.234286862126e-03 
-1.459335345335e-03 2.896614314087e-03 0.0 
2.896614314087e-03 6.597331098230e-03 0.0 
0.0 0.0 -1.187309181180e-03 
-1.487240193726e-03 2.797813669470e-03 0.0 
2.797813669470e-03 6.237817525026e-03 0.0 
0.0 0.0 -1.120864512401e-03 
-1.416348664038e-03 2.952147323061e-03 0.0 
2.952147323061e-03 6.179572228468e-03 0.0 
0.0 0.0 -1.147759711419e-03 
-1.401702611885e-03 3.058403427338e-03 0.0 
3.058403427338e-03 6.528924407833e-03 0.0 
0.0 0.0 -1.207767947030e-03 
-1.429554607918e-03 2.882577101757e-03 0.0 
2.882577101757e-03 5.825437132677e-03 0.0 
0.0 0.0 -1.082593982084e-03 
-6.657140394303e-04 1.410986986977e-03 0.0 
1.410986986977e-03 4.342280522210e-03 0.0 
0.0 0.0 -1.264544343569e-03 
1.285034861164e-03 3.046453072889e-03 0.0 
3.046453072889e-03 2.156214386420e-04 0.0 
0.0 0.0 -6.431384142027e-04 
3.221685064304e-04 2.100220635338e-04 0.0 
2.100220635338e-04 -3.125792772457e-04 0.0 
0.0 0.0 -4.109669650583e-06 
7.277286052914e-04 1.662264959666e-03 0.0 
1.662264959666e-03 -4.217765524128e-04 0.0 
0.0 0.0 -1.311223083766e-04 
-4.639929809661e-04 3.327821869830e-03 0.0 
3.327821869830e-03 2.959449472573e-03 0.0 
0.0 0.0 -9.691543639280e-04 
-1.437907230863e-03 2.996700486661e-03 0.0 
2.996700486661e-03 7.518201304671e-03 0.0 
0.0 0.0 -1.299806302097e-03 
-1.466395687024e-03 2.621641971218e-03 0.0 
2.621641971218e-03 7.881651097987e-03 0.0 
0.0 0.0 -1.301753673823e-03 
2.487482228611e-03 2.475720953215e-03 0.0 
2.475720953215e-03 -8.077451105291e-04 0.0 
0.0 0.0 -7.198873363210e-04 
-1.280305576935e-03 3.404019922885e-03 0.0 
3.404019922885e-03 6.453749912264e-03 0.0 
0.0 0.0 -1.303413959896e-03 
-1.478986277362e-03 2.335815426712e-03 0.0 
2.335815426712e-03 4.599949913439e-03 0.0 
0.0 0.0 -8.572908036711e-04 
2.443469762099e-03 1.504212848516e-03 0.0 
1.504212848516e-03 -1.149517681368e-03 0.0 
0.0 0.0 -5.545508917418e-04 
-1.188451958700e-03 3.233888318984e-03 0.0 
3.233888318984e-03 5.957074391346e-03 0.0 
0.0 0.0 -1.304286792737e-03 
-1.700650587437e-03 2.084768146748e-03 0.0 
2.084768146748e-03 6.648225866754e-03 0.0 
0.0 0.0 -1.071440646998e-03 
-1.693986595116e-03 2.166002580174e-03 0.0 
2.166002580174e-03 6.318613390721e-03 0.0 
0.0 0.0 -1.034857077839e-03 
-1.735485188954e-03 1.934897306350e-03 0.0 
1.934897306350e-03 6.303939504401e-03 0.0 
0.0 0.0 -1.006057961993e-03 
-1.460757887231e-03 2.250687193900e-03 0.0 
2.250687193900e-03 8.134933915156e-03 0.0 
0.0 0.0 -1.305867370806e-03 
-1.749991994699e-03 9.588049142227e-04 0.0 
9.588049142227e-04 6.254499179949e-03 0.0 
0.0 0.0 -9.232948652302e-04 
-1.017747060708e-03 2.242049910193e-03 0.0 
2.242049910193e-03 5.131073367086e-03 0.0 
0.0 0.0 -1.306016332489e-03 
1.333415972402e-03 1.535387923333e-03 0.0 
1.535387923333e-03 1.136937242501e-04 0.0 
0.0 0.0 -6.201898699939e-04 
1.391903311676e-03 2.154011180947e-03 0.0 
2.154011180947e-03 1.151631227135e-05 0.0 
0.0 0.0 -6.014655531204e-04 
1.815463505361e-03 2.115453371163e-03 0.0 
2.115453371163e-03 -5.458577548768e-04 0.0 
0.0 0.0 -5.441167502075e-04 
-1.566214445404e-03 2.595986134179e-03 0.0 
2.595986134179e-03 6.282321888988e-03 0.0 
0.0 0.0 -1.092245366321e-03 
-9.205735445318e-04 4.808338680360e-04 0.0 
4.808338680360e-04 4.693547071086e-03 0.0 
0.0 0.0 -1.302677999426e-03 
-5.441937307524e-04 1.925192123183e-04 0.0 
1.925192123183e-04 4.093065944914e-03 0.0 
0.0 0.0 -1.248400714067e-03 
-5.696920249624e-04 -2.362618994637e-04 0.0 
-2.362618994637e-04 4.138723512730e-03 0.0 
0.0 0.0 -1.248426544684e-03 
-2.031241474020e-04 -7.328110519664e-05 0.0 
-7.328110519664e-05 3.471353297543e-03 0.0 
0.0 0.0 -1.189114855724e-03 
-9.524782035086e-04 -4.338690848369e-04 0.0 
-4.338690848369e-04 4.786583626593e-03 0.0 
0.0 0.0 -1.303398793257e-03 
-1.386313891139e-03 3.268387124946e-03 0.0 
3.268387124946e-03 7.156994535034e-03 0.0 
0.0 0.0 -1.306665994082e-03 
-1.359095365040e-03 3.359352166101e-03 0.0 
3.359352166101e-03 6.950855487648e-03 0.0 
0.0 0.0 -1.308500709484e-03 
1.902852668699e-03 -2.817268794694e-03 0.0 
-2.817268794694e-03 -4.032967653229e-04 0.0 
0.0 0.0 -6.426668157327e-04 
2.253407391376e-03 -2.370679650838e-03 0.0 
-2.370679650838e-03 -7.551607023087e-04 0.0 
0.0 0.0 -6.421057238860e-04 
2.152188401618e-03 -2.215932361183e-03 0.0 
-2.215932361183e-03 -7.648493634962e-04 0.0 
0.0 0.0 -5.945738734806e-04 
2.568498674833e-03 -1.800335482077e-03 0.0 
-1.800335482077e-03 -1.054151680982e-03 0.0 
0.0 0.0 -6.490058545078e-04 
2.589267859695e-03 -1.939320893250e-03 0.0 
-1.939320893250e-03 -1.034701238564e-03 0.0 
0.0 0.0 -6.662428376277e-04 
2.845251393852e-03 -1.182488936622e-03 0.0 
-1.182488936622e-03 -1.266140625123e-03 0.0 
0.0 0.0 -6.767617580267e-04 
2.841382791890e-03 -1.149550775431e-03 0.0 
-1.149550775431e-03 -1.284812658761e-03 0.0 
0.0 0.0 -6.671014856266e-04 
2.966198092938e-03 -3.987988764167e-04 0.0 
-3.987988764167e-04 -1.382086548665e-03 0.0 
0.0 0.0 -6.789049475453e-04 
-1.248651035025e-03 3.111213554981e-03 0.0 
3.111213554981e-03 5.700369437698e-03 0.0 
0.0 0.0 -1.138512926666e-03 
-1.048382069547e-03 -1.181351894960e-03 0.0 
-1.181351894960e-03 5.065835417687e-03 0.0 
0.0 0.0 -1.305779161548e-03 
4.789526992596e-05 -3.017317976477e-03 0.0 
-3.017317976477e-03 1.955725826502e-03 0.0 
0.0 0.0 -8.490207048509e-04 
4.255875009583e-04 -2.891330549410e-03 0.0 
-2.891330549410e-03 1.272940405536e-03 0.0 
0.0 0.0 -7.279405313547e-04 
7.016485745697e-04 -2.791230812805e-03 0.0 
-2.791230812805e-03 8.160956132734e-04 0.0 
0.0 0.0 -6.504617947899e-04 
-6.090620729236e-04 -2.591660670729e-03 0.0 
-2.591660670729e-03 2.996920806010e-03 0.0 
0.0 0.0 -1.013136008453e-03 
-4.847718747428e-04 -2.835802633982e-03 0.0 
-2.835802633982e-03 2.833935359093e-03 0.0 
0.0 0.0 -9.978061834832e-04 
-6.569091499038e-04 -2.799289725008e-03 0.0 
-2.799289725008e-03 3.183472627718e-03 0.0 
0.0 0.0 -1.035689958333e-03 
-7.207313198164e-04 -2.290250490495e-03 0.0 
-2.290250490495e-03 3.125345330795e-03 0.0 
0.0 0.0 -1.018322119518e-03 
-1.167877884792e-04 3.342094439232e-03 0.0 
3.342094439232e-03 2.837618912037e-03 0.0 
0.0 0.0 -9.882323209451e-04 
-1.091898030697e-03 -1.486850666943e-03 0.0 
-1.486850666943e-03 5.227315460995e-03 0.0 
0.0 0.0 -1.305003056577e-03 
1.225364256890e-03 -1.147615656396e-03 0.0 
-1.147615656396e-03 3.835923769498e-05 0.0 
0.0 0.0 -5.415957833937e-04 
-1.980397502487e-04 -3.005905727183e-03 0.0 
-3.005905727183e-03 2.314319347710e-03 0.0 
0.0 0.0 -9.069769703405e-04 
-1.707142071172e-03 7.635271864477e-04 0.0 
7.635271864477e-04 5.127553643252e-03 0.0 
0.0 0.0 -7.516786372745e-04 
-1.746908817975e-03 1.023609105839e-03 0.0 
1.023609105839e-03 5.442206395915e-03 0.0 
0.0 0.0 -8.094822736869e-04 
-1.772933357879e-03 1.184262300292e-03 0.0 
1.184262300292e-03 5.385289162601e-03 0.0 
0.0 0.0 -8.097394517040e-04 
-1.768350599280e-03 1.251073624371e-03 0.0 
1.251073624371e-03 5.764313646979e-03 0.0 
0.0 0.0 -8.733121467894e-04 
-1.727990335715e-03 8.210495884293e-04 0.0 
8.210495884293e-04 5.545557871090e-03 0.0 
0.0 0.0 -8.155917408702e-04 
-1.236784994223e-03 -1.923322638249e-03 0.0 
-1.923322638249e-03 4.168389852977e-03 0.0 
0.0 0.0 -1.057296815204e-03 
-1.427088068768e-03 -1.555275096953e-03 0.0 
-1.555275096953e-03 4.526520888732e-03 0.0 
0.0 0.0 -1.060211733922e-03 
-1.439309846138e-03 -1.245667555875e-03 0.0 
-1.245667555875e-03 4.501167157264e-03 0.0 
0.0 0.0 -1.053704044192e-03 
-1.586214255689e-03 -1.181249332069e-03 0.0 
-1.181249332069e-03 4.840144294026e-03 0.0 
0.0 0.0 -1.064485974018e-03 
-1.568580492753e-03 -8.807724015312e-04 0.0 
-8.807724015312e-04 4.760936091880e-03 0.0 
0.0 0.0 -1.058069710598e-03 
-1.437909822652e-03 -9.389915626686e-04 0.0 
-9.389915626686e-04 4.447516747931e-03 0.0 
0.0 0.0 -1.040756414728e-03 
-1.718221607956e-03 -8.006521433412e-04 0.0 
-8.006521433412e-04 5.111220650433e-03 0.0 
0.0 0.0 -1.068385751750e-03 
-1.669418493281e-03 -5.082865991109e-04 0.0 
-5.082865991109e-04 4.972394175886e-03 0.0 
0.0 0.0 -1.061946884890e-03 
-1.641647603362e-03 4.850166825857e-04 0.0 
4.850166825857e-04 5.202247326036e-03 0.0 
0.0 0.0 -7.509531518293e-04 
4.681733094658e-05 -5.816533838581e-04 0.0 
-5.816533838581e-04 9.454411860111e-05 0.0 
0.0 0.0 -6.058347837758e-05 
4.397814964137e-04 -2.157349287924e-03 0.0 
-2.157349287924e-03 4.211423268834e-04 0.0 
0.0 0.0 -3.689673528416e-04 
3.155046189534e-04 -2.027375098909e-03 0.0 
-2.027375098909e-03 7.742453397045e-04 0.0 
0.0 0.0 -4.670356965677e-04 
8.520514226530e-04 -2.864865723911e-03 0.0 
-2.864865723911e-03 5.535726049248e-04 0.0 
0.0 0.0 -6.024102975334e-04 
1.107532573262e-03 -2.675867926973e-03 0.0 
-2.675867926973e-03 -1.282410957994e-04 0.0 
0.0 0.0 -4.196963474839e-04 
1.414391538560e-03 -3.037597772400e-03 0.0 
-3.037597772400e-03 4.732794591139e-06 0.0 
0.0 0.0 -6.081961427792e-04 
1.798568626031e-03 -2.807561227883e-03 0.0 
-2.807561227883e-03 -5.963916264621e-04 0.0 
0.0 0.0 -5.152187141009e-04 
4.798167785024e-04 -1.487535536050e-03 0.0 
-1.487535536050e-03 -2.160815451901e-04 0.0 
0.0 0.0 -1.130293857052e-04 
1.221925142391e-04 -6.477447924089e-04 0.0 
-6.477447924089e-04 3.263707583015e-04 0.0 
0.0 0.0 -1.721226713898e-04 
1.600896537738e-04 -1.547795297662e-03 0.0 
-1.547795297662e-03 7.330764534416e-04 0.0 
0.0 0.0 -3.827854745209e-04 
1.103966075786e-04 -5.622367864216e-04 0.0 
-5.622367864216e-04 3.103757836854e-04 0.0 
0.0 0.0 -1.517934084529e-04 
1.053013884946e-04 -1.323791722729e-03 0.0 
-1.323791722729e-03 6.739471651028e-04 0.0 
0.0 0.0 -3.339636658274e-04 
3.430982234410e-04 -2.178085181117e-03 0.0 
-2.178085181117e-03 8.728126235658e-04 0.0 
0.0 0.0 -5.211046487172e-04 
-1.935346954464e-05 -1.828430160185e-03 0.0 
-1.828430160185e-03 1.220825087692e-03 0.0 
0.0 0.0 -5.149164077774e-04 
-1.561183168720e-03 -1.084347523387e-03 0.0 
-1.084347523387e-03 6.914233553436e-03 0.0 
0.0 0.0 -1.294874803588e-03 
-1.312931512090e-03 -3.406360319044e-04 0.0 
-3.406360319044e-04 4.053324067572e-03 0.0 
0.0 0.0 -9.806349194848e-04 
-1.232619789514e-03 -6.513903715833e-04 0.0 
-6.513903715833e-04 3.864959534980e-03 0.0 
0.0 0.0 -9.593735700280e-04 
-1.113036939270e-03 -6.004263507847e-04 0.0 
-6.004263507847e-04 3.522372894904e-03 0.0 
0.0 0.0 -8.977078860960e-04 
-1.116965318077e-03 -9.982255990531e-04 0.0 
-9.982255990531e-04 3.625196753216e-03 0.0 
0.0 0.0 -9.469176294500e-04 
-1.332244483269e-03 -6.509527714259e-04 0.0 
-6.509527714259e-04 4.142116544653e-03 0.0 
0.0 0.0 -1.006312639172e-03 
-1.080865388107e-03 -2.755367266220e-04 0.0 
-2.755367266220e-04 3.371661966390e-03 0.0 
0.0 0.0 -8.426599334973e-04 
-1.024104142748e-03 -5.302931597588e-04 0.0 
-5.302931597588e-04 3.225767958481e-03 0.0 
0.0 0.0 -8.124903673991e-04 
2.119334771273e-03 -2.250984394130e-04 0.0 
-2.250984394130e-04 -5.528535054759e-04 0.0 
0.0 0.0 -1.954030217304e-04 
1.237953986699e-03 -2.579545419294e-04 0.0 
-2.579545419294e-04 1.543244489082e-04 0.0 
0.0 0.0 -2.932658944931e-04 
1.411332111426e-03 -2.759944625030e-05 0.0 
-2.759944625030e-05 3.743876493098e-05 0.0 
0.0 0.0 -2.856593951198e-04 
3.600465984566e-04 -2.066499797985e-04 0.0 
-2.066499797985e-04 8.608267290585e-04 0.0 
0.0 0.0 -3.080440922735e-04 
3.653305054747e-04 -3.597145395908e-04 0.0 
-3.597145395908e-04 8.532226922973e-04 0.0 
0.0 0.0 -3.086108473030e-04 
1.169231949576e-03 -3.840093619394e-04 0.0 
-3.840093619394e-04 1.923594400946e-04 0.0 
0.0 0.0 -2.956379591255e-04 
1.031256041784e-03 -4.886047117192e-04 0.0 
-4.886047117192e-04 2.379226924498e-04 0.0 
0.0 0.0 -2.908089562448e-04 
1.816529586793e-03 -3.500151260859e-04 0.0 
-3.500151260859e-04 -4.323507490206e-04 0.0 
0.0 0.0 -1.958374107737e-04 
8.667756449627e-04 -6.409008792115e-04 0.0 
-6.409008792115e-04 2.928477416533e-04 0.0 
0.0 0.0 -2.796976375194e-04 
1.702636575089e-04 -6.542409432277e-04 0.0 
-6.542409432277e-04 9.095668014512e-04 0.0 
0.0 0.0 -3.106791268491e-04 
1.620102908946e-03 -4.500577592913e-04 0.0 
-4.500577592913e-04 -3.726586433767e-04 0.0 
0.0 0.0 -1.892091717599e-04 
-1.577535716708e-03 5.392394720966e-05 0.0 
5.392394720966e-05 7.299934411769e-03 0.0 
0.0 0.0 -1.060427308513e-03 
-1.573061893325e-03 1.544570403577e-04 0.0 
1.544570403577e-04 7.509050943264e-03 0.0 
0.0 0.0 -1.097082233180e-03 
-1.192953449252e-03 -1.864011720090e-03 0.0 
-1.864011720090e-03 5.605209134645e-03 0.0 
0.0 0.0 -1.300897016293e-03 
-1.579855819088e-03 2.979771540211e-04 0.0 
2.979771540211e-04 5.293250471981e-03 0.0 
0.0 0.0 -7.584009903415e-04 
3.744709763724e-04 -6.364946627065e-04 0.0 
-6.364946627065e-04 1.401291707387e-04 0.0 
0.0 0.0 -1.034024162715e-04 
-1.449845600680e-03 6.382887501364e-04 0.0 
6.382887501364e-04 8.609834207447e-03 0.0 
0.0 0.0 -1.292107529982e-03 
-1.448440923656e-03 1.123280561170e-03 0.0 
1.123280561170e-03 8.566022624529e-03 0.0 
0.0 0.0 -1.303172775453e-03 
-1.434083243244e-03 9.839421265548e-04 0.0 
9.839421265548e-04 8.603548743914e-03 0.0 
0.0 0.0 -1.304823151597e-03 
-1.916252571144e-03 -2.792629766010e-04 0.0 
-2.792629766010e-04 6.698528630947e-03 0.0 
0.0 0.0 -1.191058493115e-03 
-1.809292576517e-03 -5.447261667623e-04 0.0 
-5.447261667623e-04 6.787910699568e-03 0.0 
0.0 0.0 -1.224322658093e-03 
-1.441620689681e-03 3.697909072679e-04 0.0 
3.697909072679e-04 8.644537781625e-03 0.0 
0.0 0.0 -1.294569364341e-03 
-1.966831809583e-04 -2.229424319449e-03 0.0 
-2.229424319449e-03 1.821439975238e-03 0.0 
0.0 0.0 -6.963243404055e-04 
-1.542446802675e-03 2.619749311667e-03 0.0 
2.619749311667e-03 7.342230023592e-03 0.0 
0.0 0.0 -1.225740639889e-03 
-1.563624804990e-03 6.428436196565e-04 0.0 
6.428436196565e-04 7.948413338163e-03 0.0 
0.0 0.0 -1.178628832109e-03 
2.201456429693e-03 2.341714128316e-03 0.0 
2.341714128316e-03 -8.075777083502e-04 0.0 
0.0 0.0 -5.973765948613e-04 
4.529977292289e-04 -2.561738032130e-03 0.0 
-2.561738032130e-03 9.606788663604e-04 0.0 
0.0 0.0 -6.058613981097e-04 
-1.912750157524e-03 -1.012850712710e-03 0.0 
-1.012850712710e-03 5.577288917285e-03 0.0 
0.0 0.0 -1.066202199875e-03 
-1.088098720313e-03 -2.559527887766e-03 0.0 
-2.559527887766e-03 3.979421504262e-03 0.0 
0.0 0.0 -1.028256539386e-03 
-1.822459650115e-03 -1.367111847188e-03 0.0 
-1.367111847188e-03 6.015979930005e-03 0.0 
0.0 0.0 -1.130390451587e-03 
-1.582105737625e-03 -1.721031184097e-03 0.0 
-1.721031184097e-03 4.901863080820e-03 0.0 
0.0 0.0 -1.057243679378e-03 
-1.608185598285e-03 -1.915614561762e-03 0.0 
-1.915614561762e-03 5.282640092044e-03 0.0 
0.0 0.0 -1.076106726067e-03 
-6.144948469041e-04 -6.639795998970e-04 0.0 
-6.639795998970e-04 4.224201553889e-03 0.0 
0.0 0.0 -1.244129926109e-03 
-5.789303246957e-04 -4.457683817534e-04 0.0 
-4.457683817534e-04 1.808907778624e-03 0.0 
0.0 0.0 -3.862231446352e-04 
-1.669791442216e-03 5.742208476735e-04 0.0 
5.742208476735e-04 6.461493581352e-03 0.0 
0.0 0.0 -9.364826870394e-04 
-1.605975857622e-03 3.178960195767e-04 0.0 
3.178960195767e-04 6.348918363535e-03 0.0 
0.0 0.0 -9.130351872960e-04 
-1.629937813867e-03 6.093327650254e-04 0.0 
6.093327650254e-04 7.342083193620e-03 0.0 
0.0 0.0 -1.075939795031e-03 
-6.482537929307e-04 -1.608115231979e-03 0.0 
-1.608115231979e-03 2.605453652753e-03 0.0 
0.0 0.0 -8.387999399238e-04 
-1.303549504287e-03 -1.305113709369e-03 0.0 
-1.305113709369e-03 4.181114019267e-03 0.0 
0.0 0.0 -1.034705495726e-03 
-3.971862798800e-04 -1.135666412244e-03 0.0 
-1.135666412244e-03 1.660229728604e-03 0.0 
0.0 0.0 -5.350964027253e-04 
-1.079760018860e-03 3.194336986256e-03 0.0 
3.194336986256e-03 5.659153012299e-03 0.0 
0.0 0.0 -1.251461238623e-03 
-9.146057249504e-04 2.949568127909e-03 0.0 
2.949568127909e-03 3.641380823932e-03 0.0 
0.0 0.0 -9.215523041033e-04 
5.869540678773e-04 -2.956750850037e-03 0.0 
-2.956750850037e-03 1.034406097070e-03 0.0 
0.0 0.0 -6.948686421203e-04 
-4.983222250127e-04 -2.534366466985e-03 0.0 
-2.534366466985e-03 2.700875388843e-03 0.0 
0.0 0.0 -9.439513559275e-04 
-3.730260252316e-06 -2.536920884211e-03 0.0 
-2.536920884211e-03 1.637062224885e-03 0.0 
0.0 0.0 -6.999994134141e-04 
7.353476243331e-04 -2.725229135126e-03 0.0 
-2.725229135126e-03 6.766599510438e-04 0.0 
0.0 0.0 -6.051461037329e-04 
8.595376325540e-04 3.133881433802e-03 0.0 
3.133881433802e-03 8.059885165152e-04 0.0 
0.0 0.0 -7.137969210297e-04 
-4.203429083409e-05 -3.125630815959e-03 0.0 
-3.125630815959e-03 2.086027069296e-03 0.0 
0.0 0.0 -8.759969050552e-04 
-8.028650656472e-04 -2.530764803792e-03 0.0 
-2.530764803792e-03 3.746131268308e-03 0.0 
0.0 0.0 -1.026962916580e-03 
-1.603305794962e-03 5.584175701992e-04 0.0 
5.584175701992e-04 7.571764629350e-03 0.0 
0.0 0.0 -1.112552678551e-03 
9.600606219979e-04 -6.202368537327e-04 0.0 
-6.202368537327e-04 -7.835338607429e-05 0.0 
0.0 0.0 -1.528964725408e-04 
-6.507698434307e-04 -2.317277330880e-03 0.0 
-2.317277330880e-03 3.698342537328e-03 0.0 
0.0 0.0 -1.061672265243e-03 
-4.694800132291e-04 -3.046911020093e-03 0.0 
-3.046911020093e-03 2.876301697078e-03 0.0 
0.0 0.0 -9.848592602066e-04 
-1.735611780566e-03 9.275084004437e-04 0.0 
9.275084004437e-04 6.521846032081e-03 0.0 
0.0 0.0 -9.599091010803e-04 
5.517342203791e-04 7.070794377615e-04 0.0 
7.070794377615e-04 1.993016539601e-03 0.0 
0.0 0.0 -1.047968735850e-03 
1.251262826807e-03 -3.149427623220e-03 0.0 
-3.149427623220e-03 3.147933255355e-04 0.0 
0.0 0.0 -6.711669224326e-04 
-1.667035138543e-03 9.805979703494e-04 0.0 
9.805979703494e-04 7.401003517057e-03 0.0 
0.0 0.0 -1.098747615487e-03 
-1.603855099599e-03 1.782256839983e-03 0.0 
1.782256839983e-03 7.796685969376e-03 0.0 
0.0 0.0 -1.212453547082e-03 
-1.753933973529e-03 9.797964852189e-04 0.0 
9.797964852189e-04 5.978451539688e-03 0.0 
0.0 0.0 -8.875094802107e-04 
-2.613102227183e-04 -9.949083205869e-04 0.0 
-9.949083205869e-04 1.295268273910e-03 0.0 
0.0 0.0 -4.064699368096e-04 
-1.648709990180e-03 4.475238255647e-04 0.0 
4.475238255647e-04 6.036264205668e-03 0.0 
0.0 0.0 -8.692469099983e-04 
-7.203164161434e-04 -1.605185791603e-03 0.0 
-1.605185791603e-03 4.351922217429e-03 0.0 
0.0 0.0 -1.202705989510e-03 
-1.725470359675e-03 1.770892894084e-03 0.0 
1.770892894084e-03 6.914744693878e-03 0.0 
0.0 0.0 -1.078220320736e-03 
-7.065492097226e-04 -1.209971096051e-03 0.0 
-1.209971096051e-03 2.577314578998e-03 0.0 
0.0 0.0 -7.821142971127e-04 
2.080536798912e-03 -4.379488450435e-04 0.0 
-4.379488450435e-04 -1.014496050842e-03 0.0 
0.0 0.0 -4.568746063161e-04 
3.673244141799e-05 3.501892657137e-03 0.0 
3.501892657137e-03 2.162557991526e-03 0.0 
0.0 0.0 -9.249336466263e-04 
-1.472424715948e-03 1.473284294565e-03 0.0 
1.473284294565e-03 4.326140179341e-03 0.0 
0.0 0.0 -7.656857982150e-04 
-1.552562983666e-03 7.948996227407e-04 0.0 
7.948996227407e-04 8.084351316505e-03 0.0 
0.0 0.0 -1.206557591227e-03 
1.197294541337e-03 2.931696958795e-03 0.0 
2.931696958795e-03 3.430979437177e-04 0.0 
0.0 0.0 -6.601682078804e-04 
2.014691518502e-04 -1.535153806247e-04 0.0 
-1.535153806247e-04 2.672995857900e-03 0.0 
0.0 0.0 -1.120054252910e-03 
1.167692333485e-03 -4.546798185550e-04 0.0 
-4.546798185550e-04 3.225795309946e-04 0.0 
0.0 0.0 -6.386879419198e-04 
-8.300689796229e-04 -1.036862626203e-03 0.0 
-1.036862626203e-03 2.843866615447e-03 0.0 
0.0 0.0 -8.092532257643e-04 
-1.141410086144e-03 -2.132624368424e-03 0.0 
-2.132624368424e-03 4.763879094691e-03 0.0 
0.0 0.0 -1.118919378802e-03 
2.226178382358e-03 1.538806345707e-03 0.0 
1.538806345707e-03 -1.000001690931e-03 0.0 
0.0 0.0 -5.255042963258e-04 
-1.621773390463e-03 1.105341392258e-03 0.0 
1.105341392258e-03 7.770539650855e-03 0.0 
0.0 0.0 -1.164614768973e-03 
-7.726765049569e-04 3.339866695887e-03 0.0 
3.339866695887e-03 4.168840091130e-03 0.0 
0.0 0.0 -1.031533309622e-03 
2.985503110291e-03 3.031284491510e-04 0.0 
3.031284491510e-04 -1.381029514076e-03 0.0 
0.0 0.0 -6.876315412354e-04 
-1.686948173027e-03 1.421165008995e-03 0.0 
1.421165008995e-03 7.380565372555e-03 0.0 
0.0 0.0 -1.121170216299e-03 
1.011452247809e-03 -2.344893480733e-03 0.0 
-2.344893480733e-03 3.172812092828e-04 0.0 
0.0 0.0 -5.694571958966e-04 
3.273818053523e-04 1.142366955538e-03 0.0 
1.142366955538e-03 2.480645691333e-03 0.0 
0.0 0.0 -1.099429584637e-03 
-6.433175181119e-04 3.077878174349e-03 0.0 
3.077878174349e-03 3.183682229986e-03 0.0 
0.0 0.0 -9.539696108702e-04 
-6.121546724542e-04 3.601568394799e-03 0.0 
3.601568394799e-03 3.377991454684e-03 0.0 
0.0 0.0 -9.441813108648e-04 
-1.362049427310e-03 2.994726613582e-03 0.0 
2.994726613582e-03 5.058459491364e-03 0.0 
0.0 0.0 -9.824247929831e-04 
2.242703281786e-04 3.613717884088e-03 0.0 
3.613717884088e-03 1.934819861174e-03 0.0 
0.0 0.0 -8.887186042024e-04 
-1.881029170096e-03 -6.972944591045e-04 0.0 
-6.972944591045e-04 5.485539571048e-03 0.0 
0.0 0.0 -1.071820694527e-03 
-9.158007506096e-04 -2.235649248494e-03 0.0 
-2.235649248494e-03 4.248678740424e-03 0.0 
0.0 0.0 -1.090315851396e-03 
2.052665481287e-03 -1.103532234197e-03 0.0 
-1.103532234197e-03 -1.175556670273e-03 0.0 
0.0 0.0 -3.759037761492e-04 
8.914746630086e-04 2.890953836391e-03 0.0 
2.890953836391e-03 6.027493594732e-04 0.0 
0.0 0.0 -6.403817239208e-04 
-1.758945777430e-03 1.160675475390e-03 0.0 
1.160675475390e-03 6.378359981790e-03 0.0 
0.0 0.0 -9.536514739466e-04 
-6.639671926482e-04 3.003789204226e-03 0.0 
3.003789204226e-03 4.418789612070e-03 0.0 
0.0 0.0 -1.150585697120e-03 
-1.554201493046e-03 1.231598965710e-03 0.0 
1.231598965710e-03 8.128380504732e-03 0.0 
0.0 0.0 -1.229329624135e-03 
1.209824795641e-04 3.344721880567e-03 0.0 
3.344721880567e-03 1.935063257791e-03 0.0 
0.0 0.0 -8.811624588665e-04 
-1.286404788732e-03 -2.188571958382e-03 0.0 
-2.188571958382e-03 4.794074532598e-03 0.0 
0.0 0.0 -1.081576975854e-03 
-1.629163603093e-03 1.571087997701e-03 0.0 
1.571087997701e-03 7.723510960528e-03 0.0 
0.0 0.0 -1.185355684152e-03 
-3.559661832873e-04 -3.012647310201e-03 0.0 
-3.012647310201e-03 2.646809915025e-03 0.0 
0.0 0.0 -9.737892037141e-04 
-7.230165557545e-04 -1.426683456850e-04 0.0 
-1.426683456850e-04 2.147619513236e-03 0.0 
0.0 0.0 -4.572648740992e-04 
1.660426463556e-03 2.294712628775e-03 0.0 
2.294712628775e-03 -6.270108860030e-04 0.0 
0.0 0.0 -4.428923903797e-04 
3.083725212360e-03 4.086632437554e-04 0.0 
4.086632437554e-04 -1.411678867675e-03 0.0 
0.0 0.0 -7.165912905795e-04 
1.695879907660e-03 2.562718717107e-03 0.0 
2.562718717107e-03 -3.302884133479e-04 0.0 
0.0 0.0 -5.852534975623e-04 
-5.576706971117e-04 -2.954961257328e-03 0.0 
-2.954961257328e-03 3.029681223364e-03 0.0 
0.0 0.0 -1.013304783341e-03 
-1.555713883054e-03 2.364705081961e-03 0.0 
2.364705081961e-03 7.663070105557e-03 0.0 
0.0 0.0 -1.242275372262e-03 
-1.459222448555e-03 -1.977989758638e-03 0.0 
-1.977989758638e-03 5.249777589170e-03 0.0 
0.0 0.0 -1.110186454522e-03 
5.809827755289e-05 -1.888547144195e-03 0.0 
-1.888547144195e-03 2.563693945277e-03 0.0 
0.0 0.0 -1.040857148505e-03 
2.644131911140e-04 1.391079810222e-03 0.0 
1.391079810222e-03 4.162206259310e-04 0.0 
0.0 0.0 -2.917002073050e-04 
-1.420828704055e-03 1.823492309729e-03 0.0 
1.823492309729e-03 4.313202363895e-03 0.0 
0.0 0.0 -8.070275419711e-04 
-1.590933393314e-03 -1.754583215491e-03 0.0 
-1.754583215491e-03 5.664446844218e-03 0.0 
0.0 0.0 -1.139074001596e-03 
1.644076570115e-03 -1.085629871930e-03 0.0 
-1.085629871930e-03 -5.732577340253e-04 0.0 
0.0 0.0 -4.589223583244e-04 
2.052489302078e-04 6.912241943710e-04 0.0 
6.912241943710e-04 2.710009798059e-03 0.0 
0.0 0.0 -1.126725356868e-03 
-1.535445043143e-03 -5.867914393128e-04 0.0 
-5.867914393128e-04 4.647107690583e-03 0.0 
0.0 0.0 -1.044109258258e-03 
-9.859779036616e-04 3.056684200562e-03 0.0 
3.056684200562e-03 5.375983574251e-03 0.0 
0.0 0.0 -1.249754184115e-03 
-6.610476002560e-04 2.303624772309e-03 0.0 
2.303624772309e-03 2.903406990762e-03 0.0 
0.0 0.0 -9.028501661438e-04 
-1.686501264746e-03 -1.526608176621e-03 0.0 
-1.526608176621e-03 6.045524770636e-03 0.0 
0.0 0.0 -1.168790087466e-03 
3.742641179637e-04 -1.152556169589e-03 0.0 
-1.152556169589e-03 2.146769681943e-03 0.0 
0.0 0.0 -1.036257385577e-03 
2.158291477526e-03 2.743008596258e-03 0.0 
2.743008596258e-03 -5.432811980168e-04 0.0 
0.0 0.0 -6.921472626470e-04 
-1.448920855555e-03 5.485150606776e-05 0.0 
5.485150606776e-05 5.277752212934e-03 0.0 
0.0 0.0 -7.498068730476e-04 
-1.593954056461e-03 -1.469135234964e-03 0.0 
-1.469135234964e-03 6.450266463409e-03 0.0 
0.0 0.0 -1.243807156011e-03 
5.209000563453e-05 -9.592901321100e-04 0.0 
-9.592901321100e-04 2.854437082012e-03 0.0 
0.0 0.0 -1.114542488500e-03 
3.461661553033e-05 3.551384216602e-03 0.0 
3.551384216602e-03 2.362376837699e-03 0.0 
0.0 0.0 -9.321888224300e-04 
1.558216832635e-03 -1.548696012587e-03 0.0 
-1.548696012587e-03 -4.269730613691e-04 0.0 
0.0 0.0 -4.848187591140e-04 
-1.159109189925e-03 1.672386638450e-03 0.0 
1.672386638450e-03 3.686907530899e-03 0.0 
0.0 0.0 -7.928834912169e-04 
-8.622534806161e-04 -2.703450422620e-03 0.0 
-2.703450422620e-03 3.567462389003e-03 0.0 
0.0 0.0 -1.042489463686e-03 
-8.810352068874e-04 3.464697463085e-03 0.0 
3.464697463085e-03 3.935493660585e-03 0.0 
0.0 0.0 -9.528746205426e-04 
-1.455694182561e-03 2.079571376027e-03 0.0 
2.079571376027e-03 8.238502292373e-03 0.0 
0.0 0.0 -1.306889097489e-03 
-4.021262128289e-05 -5.236218254538e-04 0.0 
-5.236218254538e-04 3.069008893941e-03 0.0 
0.0 0.0 -1.148622835147e-03 
-1.725562695568e-03 2.028005553636e-03 0.0 
2.028005553636e-03 5.979413828880e-03 0.0 
0.0 0.0 -9.696660045843e-04 
-9.371362615476e-04 -2.513813645279e-03 0.0 
-2.513813645279e-03 3.674904326905e-03 0.0 
0.0 0.0 -1.055577742195e-03 
6.828857261752e-04 2.319846812613e-03 0.0 
2.319846812613e-03 1.471382999158e-03 0.0 
0.0 0.0 -9.020111454724e-04 
3.069126660921e-04 -4.845997231989e-04 0.0 
-4.845997231989e-04 8.592191971431e-04 0.0 
0.0 0.0 -3.093966206321e-04 
-1.066278201586e-03 2.069319232208e-03 0.0 
2.069319232208e-03 3.624795843977e-03 0.0 
0.0 0.0 -8.430048313659e-04 
-1.188974335056e-03 -2.184404117123e-03 0.0 
-2.184404117123e-03 4.121734009211e-03 0.0 
0.0 0.0 -1.055179846540e-03 
3.051680346467e-03 -4.197736543643e-04 0.0 
-4.197736543643e-04 -1.412706451387e-03 0.0 
0.0 0.0 -7.024173836058e-04 
1.117277129867e-03 -2.070559341147e-03 0.0 
-2.070559341147e-03 1.215006496444e-04 0.0 
0.0 0.0 -5.309047626477e-04 
-5.077233341081e-04 1.801300421280e-03 0.0 
1.801300421280e-03 4.164826850224e-03 0.0 
0.0 0.0 -1.234277959947e-03 
-1.405357231203e-03 -1.830815427985e-03 0.0 
-1.830815427985e-03 4.525691195773e-03 0.0 
0.0 0.0 -1.058821591963e-03 
2.981871888689e-03 -4.320249597075e-04 0.0 
-4.320249597075e-04 -1.387251596233e-03 0.0 
0.0 0.0 -6.834086967669e-04 
-1.589234832291e-03 -1.465860908847e-03 0.0 
-1.465860908847e-03 4.884351969089e-03 0.0 
0.0 0.0 -1.063846254002e-03 
-8.219124233661e-04 1.884899957964e-03 0.0 
1.884899957964e-03 3.049244611375e-03 0.0 
0.0 0.0 -8.384157971481e-04 
-1.674104129450e-03 2.267631102477e-03 0.0 
2.267631102477e-03 5.977690423385e-03 0.0 
0.0 0.0 -9.983267706061e-04 
-1.746776969671e-03 -1.092710579845e-03 0.0 
-1.092710579845e-03 5.203384673320e-03 0.0 
0.0 0.0 -1.068006041337e-03 
-9.280916248974e-04 3.352222764373e-03 0.0 
3.352222764373e-03 4.310032082870e-03 0.0 
0.0 0.0 -1.003151257071e-03 
2.463563334715e-05 -8.807126364979e-04 0.0 
-8.807126364979e-04 9.974910621111e-04 0.0 
0.0 0.0 -3.190932086048e-04 
1.865633619246e-04 3.322818699054e-03 0.0 
3.322818699054e-03 2.196662702388e-03 0.0 
0.0 0.0 -9.369607680273e-04 
-1.969274810505e-03 -5.697349439415e-04 0.0 
-5.697349439415e-04 6.492408088354e-03 0.0 
0.0 0.0 -1.155419075730e-03 
4.460939102830e-04 -2.841642607167e-03 0.0 
-2.841642607167e-03 1.136269056788e-03 0.0 
0.0 0.0 -6.781555573162e-04 
7.887889646567e-04 -2.571324212251e-03 0.0 
-2.571324212251e-03 6.415432993246e-04 0.0 
0.0 0.0 -6.129995417062e-04 
-1.637827184878e-03 2.388605245637e-03 0.0 
2.388605245637e-03 6.314063370822e-03 0.0 
0.0 0.0 -1.063653581392e-03 
-4.992814516217e-04 1.972643240252e-03 0.0 
1.972643240252e-03 2.384387457051e-03 0.0 
0.0 0.0 -8.079025737556e-04 
5.124750958276e-04 -2.569400884271e-03 0.0 
-2.569400884271e-03 1.193670865080e-03 0.0 
0.0 0.0 -7.312054118175e-04 
-9.641562230990e-04 3.242704907183e-03 0.0 
3.242704907183e-03 4.707911026065e-03 0.0 
0.0 0.0 -1.067288052377e-03 
3.154663455590e-04 2.993279893955e-03 0.0 
2.993279893955e-03 2.102244501383e-03 0.0 
0.0 0.0 -9.588566822092e-04 
1.346446614896e-03 2.610050225058e-03 0.0 
2.610050225058e-03 1.067961116776e-04 0.0 
0.0 0.0 -6.228183113887e-04 
2.887356895726e-04 -2.230406662033e-03 0.0 
-2.230406662033e-03 1.886206335840e-03 0.0 
0.0 0.0 -9.159128653295e-04 
-3.070381522363e-04 2.361479177514e-03 0.0 
2.361479177514e-03 2.144874392585e-03 0.0 
0.0 0.0 -7.876441030066e-04 
-4.603323552835e-06 -2.296978514711e-03 0.0 
-2.296978514711e-03 1.485132063043e-03 0.0 
0.0 0.0 -6.345123169243e-04 
-1.725456702673e-05 -2.050421713285e-03 0.0 
-2.050421713285e-03 1.350463780520e-03 0.0 
0.0 0.0 -5.713753772113e-04 
2.694499012180e-03 -1.108798334530e-03 0.0 
-1.108798334530e-03 -1.215742971782e-03 0.0 
0.0 0.0 -6.337525887422e-04 
-1.125553493016e-03 3.166078986994e-03 0.0 
3.166078986994e-03 5.226172467772e-03 0.0 
0.0 0.0 -1.103081964739e-03 
-3.505794759798e-04 -2.805020388018e-04 0.0 
-2.805020388018e-04 1.476517852756e-03 0.0 
0.0 0.0 -3.018576685516e-04 
-1.520679869667e-03 2.700420786858e-03 0.0 
2.700420786858e-03 5.894437551981e-03 0.0 
0.0 0.0 -1.054898413167e-03 
1.434637815246e-04 -2.013001771722e-03 0.0 
-2.013001771722e-03 1.061630091320e-03 0.0 
0.0 0.0 -5.164688026476e-04 
2.470206604480e-03 -1.725455129164e-03 0.0 
-1.725455129164e-03 -1.033453851675e-03 0.0 
0.0 0.0 -6.157511797736e-04 
1.550603106910e-04 2.343951066894e-03 0.0 
2.343951066894e-03 2.741523029304e-03 0.0 
0.0 0.0 -1.077081564483e-03 
-1.567382262079e-03 5.775225248615e-06 0.0 
5.775225248615e-06 6.502023960398e-03 0.0 
0.0 0.0 -9.315431351609e-04 
1.994050342792e-03 -2.125051609346e-03 0.0 
-2.125051609346e-03 -7.055681148420e-04 0.0 
0.0 0.0 -5.522066691216e-04 
-8.473530892992e-04 -1.857205257249e-04 0.0 
-1.857205257249e-04 2.593065685554e-03 0.0 
0.0 0.0 -6.119633700263e-04 
1.664939330105e-03 -2.423764940749e-03 0.0 
-2.423764940749e-03 -3.798301328600e-04 0.0 
0.0 0.0 -5.507610845334e-04 
9.691114688175e-04 2.564299471471e-03 0.0 
2.564299471471e-03 7.430038862534e-04 0.0 
0.0 0.0 -7.337637236018e-04 
1.166584806499e-03 -2.448706473937e-03 0.0 
-2.448706473937e-03 1.644568183363e-04 0.0 
0.0 0.0 -5.704464106438e-04 
9.207629563978e-04 -2.562817695187e-03 0.0 
-2.562817695187e-03 4.684807333005e-04 0.0 
0.0 0.0 -5.953901527278e-04 
-1.509599202053e-03 7.115315669588e-04 0.0 
7.115315669588e-04 8.319494978420e-03 0.0 
0.0 0.0 -1.242975171717e-03 
6.644834369663e-04 -2.816687817472e-03 0.0 
-2.816687817472e-03 8.638079814567e-04 0.0 
0.0 0.0 -6.549820364670e-04 
-1.417913046649e-03 2.000204615730e-04 0.0 
2.000204615730e-04 8.717353493565e-03 0.0 
0.0 0.0 -1.305370344976e-03 
-1.585981038622e-03 -5.390524588140e-04 0.0 
-5.390524588140e-04 7.088561262435e-03 0.0 
0.0 0.0 -1.298405437673e-03 
-1.489518803289e-03 -4.573950556845e-06 0.0 
-4.573950556845e-06 5.635615486584e-03 0.0 
0.0 0.0 -7.997855503562e-04 
-2.605550091072e-04 1.921888767382e-03 0.0 
1.921888767382e-03 1.771030104647e-03 0.0 
0.0 0.0 -6.473464695169e-04 
0.0 0.0 0.0 
0.0 0.0 0.0 
0.0 0.0 0.0 
5.300339532942e-05 2.296518653744e-03 0.0 
2.296518653744e-03 1.380741919417e-03 0.0 
0.0 0.0 -6.144622777483e-04 
4.589079226346e-04 -2.669236835745e-03 0.0 
-2.669236835745e-03 1.017039993413e-03 0.0 
0.0 0.0 -6.325491068774e-04 
-1.344360499523e-03 2.998007223071e-03 0.0 
2.998007223071e-03 5.396263019476e-03 0.0 
0.0 0.0 -1.045752072333e-03 
-1.493847809746e-03 7.392246810856e-05 0.0 
7.392246810856e-05 5.643210332918e-03 0.0 
0.0 0.0 -8.029817139903e-04 
2.189770723719e-04 -2.551176870332e-03 0.0 
-2.551176870332e-03 1.274969331798e-03 0.0 
0.0 0.0 -6.402627446442e-04 
-1.419524211431e-03 3.075318657805e-03 0.0 
3.075318657805e-03 6.922500903080e-03 0.0 
0.0 0.0 -1.250093291501e-03 
-1.105460999237e-03 2.840056670224e-03 0.0 
2.840056670224e-03 5.499135179184e-03 0.0 
0.0 0.0 -1.306737725957e-03 
-1.583352928322e-03 1.388979039351e-04 0.0 
1.388979039351e-04 7.093261842357e-03 0.0 
0.0 0.0 -1.028769680629e-03 
3.110761131384e-05 3.070777297068e-04 0.0 
3.070777297068e-04 2.990066827201e-03 0.0 
0.0 0.0 -1.152835590205e-03 
4.038330844269e-04 2.562565156884e-03 0.0 
2.562565156884e-03 2.099896012322e-03 0.0 
0.0 0.0 -9.954397186036e-04 
-1.532870607185e-03 8.627533493903e-05 0.0 
8.627533493903e-05 8.032571934377e-03 0.0 
0.0 0.0 -1.185717314024e-03 
-1.493423908883e-03 8.976519337403e-05 0.0 
8.976519337403e-05 5.235057922781e-03 0.0 
0.0 0.0 -7.451086181774e-04 
8.476467916489e-05 -1.199388947894e-03 0.0 
-1.199388947894e-03 6.043361303539e-04 0.0 
0.0 0.0 -2.642930028689e-04 
-1.995343437528e-03 -3.338550389889e-04 0.0 
-3.338550389889e-04 5.735331553200e-03 0.0 
0.0 0.0 -1.072300834510e-03 
-4.728391316332e-06 1.911025163986e-03 0.0 
1.911025163986e-03 1.236688893795e-03 0.0 
0.0 0.0 -5.279830724910e-04 
3.550394143264e-04 2.259430213976e-03 0.0 
2.259430213976e-03 9.034181507030e-04 0.0 
0.0 0.0 -5.393389564412e-04 
6.085214745978e-04 2.284877078157e-03 0.0 
2.284877078157e-03 6.261355702317e-04 0.0 
0.0 0.0 -5.291387334984e-04 
-9.396181000691e-04 -7.967451354887e-04 0.0 
-7.967451354887e-04 3.058992386408e-03 0.0 
0.0 0.0 -8.121166773320e-04 
5.494964702923e-04 -2.584085792452e-03 0.0 
-2.584085792452e-03 8.433772001581e-04 0.0 
0.0 0.0 -5.969458587645e-04 
2.401282782028e-04 2.005638511475e-03 0.0 
2.005638511475e-03 9.040366262875e-04 0.0 
0.0 0.0 -4.903563876387e-04 
-5.261734606055e-04 6.022279658391e-04 0.0 
6.022279658391e-04 4.033101031005e-03 0.0 
0.0 0.0 -1.245112051941e-03 
-1.636730137181e-03 4.290067563108e-04 0.0 
4.290067563108e-04 5.580276288558e-03 0.0 
0.0 0.0 -8.050116406322e-04 
-1.121915910908e-04 2.515763012409e-03 0.0 
2.515763012409e-03 3.291467473346e-03 0.0 
0.0 0.0 -1.110409235593e-03 
3.679053624996e-04 1.946389288486e-03 0.0 
1.946389288486e-03 7.047317248665e-04 0.0 
0.0 0.0 -4.597016088712e-04 
-1.554707372438e-03 1.697440109364e-03 0.0 
1.697440109364e-03 8.056864122716e-03 0.0 
0.0 0.0 -1.247366155457e-03 
-7.215899275846e-04 2.377475014672e-03 0.0 
2.377475014672e-03 4.622150950018e-03 0.0 
0.0 0.0 -1.246608778627e-03 
-1.331856878630e-03 -1.983836111103e-03 0.0 
-1.983836111103e-03 6.114923973583e-03 0.0 
0.0 0.0 -1.306249356034e-03 
-3.798399904625e-04 2.398884536475e-03 0.0 
2.398884536475e-03 3.901175645834e-03 0.0 
0.0 0.0 -1.176371721005e-03 
7.581050863864e-04 2.227306199006e-03 0.0 
2.227306199006e-03 3.618205949459e-04 0.0 
0.0 0.0 -4.799681491424e-04 
-1.753134334940e-03 1.030981935736e-03 0.0 
1.030981935736e-03 5.768775069705e-03 0.0 
0.0 0.0 -8.603500797662e-04 
-1.168709675212e-03 3.249274189801e-03 0.0 
3.249274189801e-03 5.927681969270e-03 0.0 
0.0 0.0 -1.250827372426e-03 
-1.580586288305e-03 2.460651619642e-04 0.0 
2.460651619642e-04 7.417010690682e-03 0.0 
0.0 0.0 -1.080253149739e-03 
-1.410996846028e-03 -1.766992384939e-03 0.0 
-1.766992384939e-03 6.482040820837e-03 0.0 
0.0 0.0 -1.309985050881e-03 
-1.682012249170e-03 6.654682702296e-04 0.0 
6.654682702296e-04 5.457303072723e-03 0.0 
0.0 0.0 -7.979019438933e-04 
-1.482092413582e-03 4.825553233706e-04 0.0 
4.825553233706e-04 8.388620482460e-03 0.0 
0.0 0.0 -1.252774941638e-03 
2.053124764649e-03 -2.150351803165e-03 0.0 
-2.150351803165e-03 -1.002699963371e-03 0.0 
0.0 0.0 -4.501820576904e-04 
-1.472782165905e-03 2.611384925530e-04 0.0 
2.611384925530e-04 8.403666031078e-03 0.0 
0.0 0.0 -1.254166199180e-03 
-1.340636802885e-03 3.017781757784e-03 0.0 
3.017781757784e-03 5.759872352408e-03 0.0 
0.0 0.0 -1.110316242656e-03 
-1.575034003637e-03 2.533992497604e-04 0.0 
2.533992497604e-04 6.175537215493e-03 0.0 
0.0 0.0 -8.840149073763e-04 
-1.771751416511e-03 1.426780246192e-03 0.0 
1.426780246192e-03 5.587137473215e-03 0.0 
0.0 0.0 -8.570326279659e-04 
-1.684907386527e-03 -8.004631079360e-04 0.0 
-8.004631079360e-04 6.831074281255e-03 0.0 
0.0 0.0 -1.256337174517e-03 
-1.508670120193e-03 2.760870843371e-03 0.0 
2.760870843371e-03 7.327066348949e-03 0.0 
0.0 0.0 -1.249505442739e-03 
6.883790236625e-04 2.060671389361e-03 0.0 
2.060671389361e-03 2.237385116845e-05 0.0 
0.0 0.0 -3.046083749275e-04 
-1.585370214117e-03 2.593308700915e-04 0.0 
2.593308700915e-04 7.073771685170e-03 0.0 
0.0 0.0 -1.024357608964e-03 
-1.028891659838e-03 -1.361434891480e-03 0.0 
-1.361434891480e-03 3.507211596145e-03 0.0 
0.0 0.0 -9.709766588611e-04 
2.096603589134e-04 -4.522541456736e-04 0.0 
-4.522541456736e-04 -1.685826935135e-04 0.0 
0.0 0.0 -1.760471374282e-05 
-1.108111334259e-03 -1.824971532717e-03 0.0 
-1.824971532717e-03 5.280702358381e-03 0.0 
0.0 0.0 -1.249521112489e-03 
-1.346888651128e-03 3.065747420634e-03 0.0 
3.065747420634e-03 6.117675129117e-03 0.0 
0.0 0.0 -1.172189067419e-03 
-1.641216111045e-03 -1.228485444809e-03 0.0 
-1.228485444809e-03 6.632464522082e-03 0.0 
0.0 0.0 -1.251863004148e-03 
4.253395517685e-04 -1.330965256832e-05 0.0 
-1.330965256832e-05 8.162616228349e-04 0.0 
0.0 0.0 -3.073113677837e-04 
2.659967583917e-04 -9.636004765028e-04 0.0 
-9.636004765028e-04 4.197455964224e-04 0.0 
0.0 0.0 -2.058019112872e-04 
-9.341108583894e-04 -1.570273886574e-03 0.0 
-1.570273886574e-03 4.919000747850e-03 0.0 
0.0 0.0 -1.258522865334e-03 
-1.325021295734e-03 3.260852513925e-03 0.0 
3.260852513925e-03 6.529415890564e-03 0.0 
0.0 0.0 -1.257106814994e-03 
2.069780564081e-03 -2.887481408844e-03 0.0 
-2.887481408844e-03 -5.620999085580e-04 0.0 
0.0 0.0 -6.461488523668e-04 
-1.444494309143e-03 1.513018136519e-03 0.0 
1.513018136519e-03 8.529509024149e-03 0.0 
0.0 0.0 -1.314710167832e-03 
1.606042082751e-04 7.400733517384e-04 0.0 
7.400733517384e-04 -6.805152101560e-05 0.0 
0.0 0.0 -3.966543739693e-05 
-1.527500430813e-03 2.291957424775e-04 0.0 
2.291957424775e-04 5.159544215479e-03 0.0 
0.0 0.0 -7.389643750272e-04 
7.522855132365e-04 -8.129255998406e-04 0.0 
-8.129255998406e-04 2.933811725579e-04 0.0 
0.0 0.0 -2.584822669346e-04 
-1.451285018422e-03 -1.619253938531e-03 0.0 
-1.619253938531e-03 6.712702821616e-03 0.0 
0.0 0.0 -1.308531455474e-03 
-1.521082113150e-03 1.160385665173e-03 0.0 
1.160385665173e-03 8.292813149207e-03 0.0 
0.0 0.0 -1.254845750201e-03 
-1.245470008181e-03 -9.103756336826e-04 0.0 
-9.103756336826e-04 3.950697369425e-03 0.0 
0.0 0.0 -9.904446095582e-04 
-1.723966937065e-03 1.170670843267e-03 0.0 
1.170670843267e-03 5.001993590100e-03 0.0 
0.0 0.0 -7.582784842146e-04 
-9.206532372436e-04 -4.495869396707e-04 0.0 
-4.495869396707e-04 2.876332750162e-03 0.0 
0.0 0.0 -7.084058105195e-04 
-8.029287135569e-04 3.022070318119e-03 0.0 
3.022070318119e-03 4.846485263972e-03 0.0 
0.0 0.0 -1.203498912175e-03 
1.578052768763e-04 -1.733898146901e-03 0.0 
-1.733898146901e-03 8.518457615679e-04 0.0 
0.0 0.0 -4.327075879046e-04 
-1.502885003929e-03 8.385321329672e-04 0.0 
8.385321329672e-04 8.406515819115e-03 0.0 
0.0 0.0 -1.260296891839e-03 
-7.798982579111e-04 -1.032636455785e-03 0.0 
-1.032636455785e-03 4.559837266151e-03 0.0 
0.0 0.0 -1.261416966621e-03 
-1.541080814648e-03 2.248481841172e-03 0.0 
2.248481841172e-03 7.871819285488e-03 0.0 
0.0 0.0 -1.260618436842e-03 
-1.035661708301e-03 1.434119926330e-03 0.0 
1.434119926330e-03 4.999968609048e-03 0.0 
0.0 0.0 -1.317725628150e-03 
0.0 0.0 0.0 
0.0 0.0 0.0 
0.0 0.0 0.0 
-8.775793509473e-04 2.643781737553e-03 0.0 
2.643781737553e-03 4.999185491909e-03 0.0 
0.0 0.0 -1.263090216482e-03 
-3.359262024726e-04 -4.205327465571e-04 0.0 
-4.205327465571e-04 3.690481845722e-03 0.0 
0.0 0.0 -1.202239909569e-03 
-1.469921091904e-03 1.397057797389e-04 0.0 
1.397057797389e-04 5.245389338611e-03 0.0 
0.0 0.0 -7.439744481034e-04 
-1.522980262771e-03 2.574585562032e-03 0.0 
2.574585562032e-03 7.567445771786e-03 0.0 
0.0 0.0 -1.252574368527e-03 
-1.039501310576e-03 -8.329301664350e-04 0.0 
-8.329301664350e-04 3.357758752277e-03 0.0 
0.0 0.0 -8.789764298429e-04 
-3.276933337434e-04 -7.307720459036e-04 0.0 
-7.307720459036e-04 1.390604940151e-03 0.0 
0.0 0.0 -3.555153606766e-04 
-1.400496614823e-03 7.920880417302e-05 0.0 
7.920880417302e-05 8.744396333073e-03 0.0 
0.0 0.0 -1.313490227100e-03 
2.520733888645e-03 -3.426864807379e-06 0.0 
-3.426864807379e-06 -8.047604136628e-04 0.0 
0.0 0.0 -1.695477456824e-04 
-1.436285120339e-03 -8.822331672806e-06 0.0 
-8.822331672806e-06 5.224558560537e-03 0.0 
0.0 0.0 -7.402411036050e-04 
-1.541544735514e-03 -2.080816256948e-04 0.0 
-2.080816256948e-04 7.171789726740e-03 0.0 
0.0 0.0 -1.313492844077e-03 
-2.510837729256e-04 -3.936310680644e-04 0.0 
-3.936310680644e-04 1.321735893226e-03 0.0 
0.0 0.0 -2.948614013126e-04 
-1.524937947447e-03 4.475494657923e-05 0.0 
4.475494657923e-05 5.953624986698e-03 0.0 
0.0 0.0 -8.489638187885e-04 
-1.372178966628e-03 3.183705797245e-03 0.0 
3.183705797245e-03 6.771642373061e-03 0.0 
0.0 0.0 -1.260211869575e-03 
-1.590513358799e-03 -2.597680171264e-04 0.0 
-2.597680171264e-04 4.769333481416e-03 0.0 
0.0 0.0 -1.052454572086e-03 
-1.550492385742e-03 1.189328986090e-04 0.0 
1.189328986090e-04 7.800235903878e-03 0.0 
0.0 0.0 -1.148445367820e-03 
9.452528930191e-04 -2.939486558072e-03 0.0 
-2.939486558072e-03 5.700922820308e-04 0.0 
0.0 0.0 -6.494336464500e-04 
0.0 0.0 0.0 
0.0 0.0 0.0 
0.0 0.0 0.0 
-1.577256117848e-03 6.886097405366e-05 0.0 
6.886097405366e-05 6.718118974100e-03 0.0 
0.0 0.0 -9.668795991591e-04 
-7.257532866393e-04 2.108017519290e-03 0.0 
2.108017519290e-03 4.551210106726e-03 0.0 
0.0 0.0 -1.258714341260e-03 
-1.539880904137e-03 1.881264573762e-03 0.0 
1.881264573762e-03 8.091722768049e-03 0.0 
0.0 0.0 -1.263997700767e-03 
-1.584367033562e-03 2.539188043181e-04 0.0 
2.539188043181e-04 6.423614681133e-03 0.0 
0.0 0.0 -9.199601189493e-04 
1.149887053528e-03 2.260371255349e-03 0.0 
2.260371255349e-03 -3.607458547944e-04 0.0 
0.0 0.0 -3.382033708860e-04 
-1.352077778871e-03 3.162162671945e-03 0.0 
3.162162671945e-03 6.429958482634e-03 0.0 
0.0 0.0 -1.221038716794e-03 
-1.328731786449e-03 -9.755978743980e-04 0.0 
-9.755978743980e-04 4.177204897338e-03 0.0 
0.0 0.0 -1.017329335709e-03 
-1.052088232510e-03 3.182318808270e-03 0.0 
3.182318808270e-03 5.489904176315e-03 0.0 
0.0 0.0 -1.208939113964e-03 
-2.749523466846e-04 3.333334303576e-04 0.0 
3.333334303576e-04 3.590145673266e-03 0.0 
0.0 0.0 -1.203806565432e-03 
-2.377535377310e-05 9.129409205425e-04 0.0 
9.129409205425e-04 2.377535377310e-05 0.0 
0.0 0.0 0.0 
-1.710135402111e-03 -2.140528936374e-04 0.0 
-2.140528936374e-04 5.062773823412e-03 0.0 
0.0 0.0 -1.067873332563e-03 
6.585939474405e-04 -9.144432273007e-04 0.0 
-9.144432273007e-04 2.765533765623e-04 0.0 
0.0 0.0 -2.242399343496e-04 
-1.352905233575e-03 -1.915199808028e-03 0.0 
-1.915199808028e-03 5.962667998270e-03 0.0 
0.0 0.0 -1.263714160583e-03 
-1.428737268169e-03 -6.941057894653e-04 0.0 
-6.941057894653e-04 4.390777467220e-03 0.0 
0.0 0.0 -1.028704531826e-03 
-2.539865042717e-04 1.475988589127e-03 0.0 
1.475988589127e-03 1.481692899272e-03 0.0 
0.0 0.0 -5.261598835715e-04 
-7.605031964952e-04 -2.368019319099e-05 0.0 
-2.368019319099e-05 2.235923404876e-03 0.0 
0.0 0.0 -3.266666666667e-04 
-4.663272730380e-04 1.445034291992e-03 0.0 
1.445034291992e-03 2.011357929561e-03 0.0 
0.0 0.0 -6.621559956526e-04 
-8.902768957816e-04 -2.344110242198e-05 0.0 
-2.344110242198e-05 2.651675222682e-03 0.0 
0.0 0.0 -3.933333333333e-04 
-7.205553837693e-04 1.411323130837e-03 0.0 
1.411323130837e-03 2.635120153819e-03 0.0 
0.0 0.0 -7.632308096241e-04 
-1.014253867293e-03 -2.134932202391e-05 0.0 
-2.134932202391e-05 3.236715286896e-03 0.0 
0.0 0.0 -4.600000000000e-04 
-1.004964497974e-03 1.297444765431e-03 0.0 
1.297444765431e-03 3.201027753380e-03 0.0 
0.0 0.0 -7.249691623289e-04 
-1.133374822382e-03 -1.604044547880e-05 0.0 
-1.604044547880e-05 3.646694996426e-03 0.0 
0.0 0.0 -5.266666666667e-04 
-1.280118750972e-03 1.130412810083e-03 0.0 
1.130412810083e-03 3.777030638565e-03 0.0 
0.0 0.0 -7.062703689559e-04 
-1.238778796526e-03 1.445476418683e-07 0.0 
1.445476418683e-07 4.216199491205e-03 0.0 
0.0 0.0 -5.933333333333e-04 
-1.543151210513e-03 1.002710923754e-03 0.0 
1.002710923754e-03 4.354039341919e-03 0.0 
0.0 0.0 -6.963727196364e-04 
-1.346425769997e-03 3.815725794878e-05 0.0 
3.815725794878e-05 4.612334605524e-03 0.0 
0.0 0.0 -6.600000000000e-04 

SCALARS node_materi_plasti_kappa_shear float
LOOKUP_TABLE default
2.115083374134e-03
3.458023789683e-03
4.967886194112e-03
5.876066285134e-03
1.429593561868e-03
9.260891180627e-04
9.750663137551e-04
1.375519170543e-03
1.749514182145e-03
2.072909783402e-03
2.372334959694e-03
2.646556194044e-03
2.900020015941e-03
3.146970300908e-03
3.414657029732e-03
3.664527045737e-03
3.866039465253e-03
4.132559423194e-03
4.398804352871e-03
4.605615939913e-03
4.743184926543e-03
4.864835234233e-03
4.967891461667e-03
5.874817732443e-03
5.871659258458e-03
5.865996944230e-03
5.879052454380e-03
5.875406408010e-03
5.881746665879e-03
5.893121739855e-03
5.904403498293e-03
5.911667380715e-03
5.942687471040e-03
5.945547502063e-03
5.964504727329e-03
5.990682248078e-03
6.003086871528e-03
6.009687630856e-03
6.018022142948e-03
6.013722829185e-03
6.018405848819e-03
6.000999157977e-03
5.961878918865e-03
5.908140669358e-03
5.805875616932e-03
5.680054112450e-03
5.512945864727e-03
5.326235031303e-03
5.099814575695e-03
4.848871496600e-03
4.578436030419e-03
4.312126051031e-03
4.068983510438e-03
3.878948019144e-03
3.696536407386e-03
3.610414615740e-03
3.648906839705e-03
3.740049181565e-03
3.899047133921e-03
4.078094335185e-03
4.265058537564e-03
4.435125269455e-03
4.594665148187e-03
4.735181100800e-03
4.838272090162e-03
4.913247143246e-03
4.935696440884e-03
4.963163630604e-03
4.970148499816e-03
4.972729571996e-03
4.968771048834e-03
4.969260551934e-03
3.740141790492e-03
4.058111443788e-03
4.339280484927e-03
4.600412294281e-03
4.861219744615e-03
5.105119180278e-03
5.341101545075e-03
5.553418984263e-03
5.788796962491e-03
3.961049302272e-04
3.540835783254e-03
1.333560026146e-03
1.806164222754e-03
1.988465623784e-03
1.949677816373e-03
1.969885892913e-03
2.264787004423e-03
2.585388498505e-03
2.853460972533e-03
3.168094353423e-03
1.572628594525e-03
1.788727031060e-03
2.132257304510e-03
2.471218391375e-03
2.803483841189e-03
3.120103201879e-03
3.399382940078e-03
3.415840330809e-03
3.424362395235e-03
3.424497136894e-03
3.479931295206e-03
3.440294557840e-03
3.439848037433e-03
3.453307638175e-03
3.471621284897e-03
3.481974088033e-03
3.486271779339e-03
3.492543524408e-03
3.498742868845e-03
3.518045244631e-03
0.0
0.0
0.0
0.0
0.0
1.744449562148e-04
3.008916063010e-04
4.050478665291e-04
5.046139784359e-04
6.936516565606e-04
8.134086808571e-04
1.035447660179e-03
1.317664285716e-03
1.556461179225e-03
1.698703308833e-03
1.829256340020e-03
1.936274606327e-03
2.057713747761e-03
2.160946537055e-03
1.637294510395e-03
1.602690273447e-03
1.600286060224e-03
1.602463473319e-03
1.605432563493e-03
1.608544546812e-03
1.611506344380e-03
1.614021656524e-03
1.615753562036e-03
1.616403298983e-03
1.615582408017e-03
1.612857856648e-03
1.608534956529e-03
1.603830605458e-03
1.601395241002e-03
1.594004684720e-03
1.583533455574e-03
1.580895149551e-03
1.593370560843e-03
1.614584362591e-03
1.704582119432e-03
1.781836753548e-03
1.816370996384e-03
1.850937220206e-03
1.850833601174e-03
1.786344784286e-03
1.749796523466e-03
1.737769871441e-03
1.733448498837e-03
1.741846356920e-03
1.749852201886e-03
1.756263397866e-03
1.759477367312e-03
1.762640434647e-03
1.764403705946e-03
1.764817381730e-03
1.764122728998e-03
1.762502703657e-03
1.760185883725e-03
1.757507986054e-03
1.754840510805e-03
1.752603729670e-03
1.751629968430e-03
1.757828555964e-03
1.777885292437e-03
2.120050012342e-03
2.111449579431e-03
2.113835223347e-03
2.116675236187e-03
2.120310449716e-03
2.123984102461e-03
2.126249522508e-03
2.127631391968e-03
2.128064366183e-03
2.127554982720e-03
2.126046799571e-03
2.123459660332e-03
2.120356283497e-03
2.114885182925e-03
2.101970331483e-03
2.096356667345e-03
2.097335722453e-03
2.128284095306e-03
2.196494271365e-03
2.186295543855e-03
2.483010702437e-03
2.506754027907e-03
2.468879242947e-03
2.457348499547e-03
2.466578465204e-03
2.474302737319e-03
2.478559870350e-03
2.480374252064e-03
2.482060617048e-03
2.483166610535e-03
2.483757347614e-03
2.481626238939e-03
2.477865116003e-03
2.472879665190e-03
2.467009561395e-03
2.462065239057e-03
2.458696764635e-03
2.458241881530e-03
2.465987666585e-03
2.800073416758e-03
2.792133891103e-03
2.794251622192e-03
2.799303906405e-03
2.804006642559e-03
2.811538170580e-03
2.819615238005e-03
2.827588526175e-03
2.830423737218e-03
2.834223597871e-03
2.832548011680e-03
2.829858727631e-03
2.829414630415e-03
2.819420454677e-03
2.821018701118e-03
2.841223476047e-03
2.785918999873e-03
3.125502671646e-03
3.195441658547e-03
3.182187427784e-03
3.176497158046e-03
3.175725551500e-03
3.174775535585e-03
3.166739352413e-03
3.157972763163e-03
3.150169453340e-03
3.142150136721e-03
3.134434164911e-03
3.127916890668e-03
3.125563909718e-03
3.118279613313e-03
3.123246277339e-03
3.139058430584e-03
1.666745357649e-03
1.474374331820e-03
1.940173948538e-03
1.976172725544e-03
1.946627877587e-03
2.173629989805e-03
2.503079452047e-03
2.766578717886e-03
3.045897946307e-03
3.384322342055e-03
1.792071878644e-03
3.375143360344e-03
7.233637867985e-04
1.036141330496e-04
4.185730067683e-03
2.132887875458e-03
3.290669112102e-03
3.943090107724e-03
2.459850990970e-03
5.049081016827e-03
3.049657566422e-03
4.807738799368e-03
1.182564866658e-03
5.746835578076e-03
3.688122146157e-03
2.243660734344e-03
3.956138881533e-03
5.918594875086e-03
5.957497874511e-03
5.833020523938e-03
5.849817635203e-03
5.907569221224e-03
3.796891756948e-03
3.753148626160e-03
3.750719424971e-03
4.728883318265e-03
4.949356106529e-03
0.0
1.446675358332e-03
4.662329876841e-03
3.701848086155e-03
1.172285973879e-03
5.916122430582e-03
4.554740200655e-03
5.468890302383e-03
3.503959695460e-03
3.612570973627e-03
1.012610592318e-03
3.764133124860e-03
4.509011244357e-03
5.226961181745e-03
8.281022762432e-04
2.786147332295e-03
5.862108365073e-03
2.293034409321e-03
2.118172696952e-03
2.814022264942e-03
3.328976841209e-03
1.544280849765e-03
4.215679675405e-03
4.988678889666e-03
1.603073179023e-03
5.647207016452e-03
3.826980774528e-03
3.959485929510e-03
4.093805969592e-03
4.237157459642e-03
4.355175514086e-03
4.475551541186e-03
4.360600218784e-03
4.584917723766e-03
4.472803770017e-03
4.603457862675e-03
4.678779703983e-03
4.566901197709e-03
4.755547519284e-03
4.640471696753e-03
4.457539912409e-03
4.538567241607e-03
4.334573614265e-03
4.420847848507e-03
4.584491396975e-03
4.467742894371e-03
4.290813753397e-03
4.341561214995e-03
4.161369484108e-03
4.203844918484e-03
4.020961676830e-03
4.033609205764e-03
4.190038035743e-03
3.995998885876e-03
3.816070395907e-03
3.728966813226e-03
3.537030536043e-03
3.407128807490e-03
3.586398617854e-03
3.288807272957e-03
3.252863900070e-03
3.170185754012e-03
3.233111113295e-03
3.074120756272e-03
3.162643393988e-03
2.933378461355e-03
2.797468942969e-03
2.619962109437e-03
2.778421306725e-03
2.482787310082e-03
2.288870685994e-03
2.245276885126e-03
2.009188259652e-03
2.106063465321e-03
2.298880449605e-03
2.277186157407e-03
2.045146607384e-03
2.269833337431e-03
2.492081268530e-03
2.449252250951e-03
2.235847836527e-03
2.412279828812e-03
2.543747264894e-03
2.600115002725e-03
2.727482019444e-03
2.938942653524e-03
2.800953391655e-03
3.099410076939e-03
3.236731448007e-03
3.326718393122e-03
3.458435113975e-03
3.182252973246e-03
3.349632840797e-03
3.182734544931e-03
3.297058188961e-03
3.395874895856e-03
3.084763359842e-03
2.947638229530e-03
3.173599872694e-03
3.367971322397e-03
2.907366739478e-03
2.989778207621e-03
2.681037591212e-03
3.273090083598e-03
4.583977419968e-03
2.763122244056e-03
2.422279070482e-03
2.341976270933e-03
2.055104190934e-03
4.487857016271e-03
4.743988105410e-03
4.617567667593e-03
4.883368050274e-03
4.763228887328e-03
2.160659489003e-03
4.890919826071e-03
4.994559216402e-03
4.077898647515e-03
3.620014606063e-03
2.026865546520e-03
3.041451028518e-03
2.832922892333e-03
3.077663964185e-03
3.380542676541e-03
3.577929148800e-03
3.502531489785e-03
3.663458989421e-03
3.546277218968e-03
3.702657791091e-03
3.786178392521e-03
3.850978684801e-03
3.897450996605e-03
3.504687425170e-03
3.291824593051e-03
3.999992240266e-03
4.016767369501e-03
4.146857594668e-03
4.147424783067e-03
3.977096144328e-03
4.088166746606e-03
3.903561376438e-03
1.647610095171e-03
1.670364952503e-03
1.200482357020e-03
1.361632881091e-03
1.080278838397e-03
1.418148903541e-03
1.352867822665e-03
1.212666352797e-03
4.813044669928e-03
2.629702736151e-03
2.873791510621e-03
2.692884768804e-03
2.922961960319e-03
2.693279210870e-03
2.967619989366e-03
2.640231682294e-03
2.442231823403e-03
2.256451765602e-03
2.304389301660e-03
1.970174595809e-03
2.413972446824e-03
4.105974986965e-03
1.752978929950e-03
1.881015725757e-03
2.212471553438e-03
1.986920103444e-03
4.283844059937e-03
3.257008008793e-03
2.972866264147e-03
1.546774196166e-03
1.779410363677e-03
2.938187575973e-03
3.188246772319e-03
5.018824155785e-03
4.900262887059e-03
3.011629305590e-03
1.908912131209e-03
3.906913380700e-03
1.895281348439e-03
4.211749337744e-03
4.409990212532e-03
3.799088406628e-03
2.355436507833e-03
2.649299599465e-03
2.548634680734e-03
2.876527123569e-03
2.844168383616e-03
3.212913817799e-03
3.129285464298e-03
3.337589162415e-03
3.439166685576e-03
3.438974933722e-03
3.303340296455e-03
3.181680302338e-03
3.085186834318e-03
2.829834518630e-03
4.432489689449e-03
1.483659745450e-03
4.217722169449e-03
3.341461549786e-03
1.739764648709e-03
5.152372939051e-03
5.035369681437e-03
4.778294671962e-03
4.917428704147e-03
5.167012334313e-03
5.050565403691e-03
4.795745429522e-03
4.929418857156e-03
4.668419815856e-03
4.805864584515e-03
5.058823087727e-03
4.939281816885e-03
4.682797093272e-03
4.818002280012e-03
4.556116505805e-03
4.690388347301e-03
4.950293242362e-03
1.552403935002e-03
1.574322739071e-03
1.877343647282e-03
2.891197733424e-03
3.092514519054e-03
3.276732472821e-03
3.305456961863e-03
4.827759947093e-03
5.081593595751e-03
3.163419766099e-03
3.211991907021e-03
5.265451275810e-03
4.339993450943e-03
4.108622684801e-03
3.351327486416e-03
3.414147971325e-03
3.173366515349e-03
3.179934844101e-03
3.412464276917e-03
2.933374923412e-03
3.048978120526e-03
5.184623155997e-03
2.285735175407e-03
1.964820094476e-03
4.525309975274e-03
1.417417973454e-03
4.266164728390e-03
4.121971091758e-03
4.284403972733e-03
4.105296115865e-03
4.321717176209e-03
4.160575813867e-03
3.892235684062e-03
2.811745021311e-03
3.984494120428e-03
4.554222149543e-03
2.269911801835e-03
3.028107761873e-03
1.410044382037e-03
2.660796390279e-03
1.642549087339e-03
2.019881341573e-03
3.191265930906e-03
4.449437667659e-03
4.556738233615e-03
3.151991049237e-03
3.330144195961e-03
2.615443417616e-03
4.499456307731e-03
4.528967056282e-03
4.393751219098e-03
1.261306655149e-03
2.904934706402e-03
5.293699107592e-03
3.240583809678e-03
3.137492166912e-03
1.326987575174e-03
7.734678318549e-04
4.951662652887e-03
5.199111337285e-03
3.458302994746e-03
3.498814191065e-03
2.813032372855e-03
2.488302007795e-03
5.318301846901e-03
1.850643022250e-03
1.900800904807e-03
3.131639576739e-03
3.027700141336e-03
2.957799237182e-03
3.061527549215e-03
2.613926403272e-03
1.775348210848e-03
3.082947151770e-03
5.403046930315e-03
3.649594930354e-03
3.629629087466e-03
3.791790756931e-03
2.266631384107e-03
3.561658471125e-03
4.464949176004e-03
4.749074667132e-03
4.803902692703e-03
3.195369272568e-03
2.992485238832e-03
2.855378574955e-03
2.741778446605e-03
4.234794425954e-03
3.108532495677e-03
4.079034698662e-03
3.940552543924e-03
3.815579800974e-03
3.588995439569e-03
3.476421980838e-03
3.087431809056e-03
2.199698414150e-03
3.435465997500e-03
3.826462726601e-03
3.261674752205e-03
5.297684949133e-03
5.419151855637e-03
4.414057560104e-03
4.275097580202e-03
1.647451024479e-03
1.675335589964e-03
3.606226530559e-03
3.650868628108e-03
5.391618930748e-03
5.502109459712e-03
5.372609048885e-03
2.675369016162e-03
2.527778908692e-03
1.410070067518e-03
1.620197969852e-03
3.704561518482e-03
1.421863687494e-03
4.706685273956e-03
4.622442071867e-03
4.666940698600e-03
3.076866095470e-03
3.811195532018e-03
3.440349836705e-03
3.147617514472e-03
3.657267983904e-03
3.541815125300e-03
3.706500821150e-03
3.438152628286e-03
2.775184890772e-03
2.746720812631e-03
4.705097558488e-03
4.212391869045e-03
5.032584068110e-03
5.060540397521e-03
2.962566848859e-03
2.515241370603e-03
2.118397082965e-03
3.180431248684e-03
5.518846616804e-03
3.789817242396e-03
3.891070071717e-03
3.945571653991e-03
5.986403847301e-04
2.213189616717e-03
5.440739059520e-03
2.585939956196e-03
2.577091143894e-03
2.623503978078e-03
4.897871729883e-03
3.686454329978e-03
4.752961752010e-03
3.733356492718e-03
5.550112872523e-03
3.071330919958e-03
3.165660564610e-03
2.415063932661e-03
5.310812901883e-03
5.569340241546e-03
4.247537830652e-03
4.096212274891e-03
4.376310335557e-03
2.295285634796e-03
1.760148970824e-03
5.307204263575e-03
2.597022010623e-03
2.677083653507e-03
2.361042937549e-03
2.540509620076e-03
3.590752619766e-03
3.561980325172e-03
4.687546968051e-03
4.862462070621e-03
4.404636295064e-03
2.304172143242e-03
2.399216396593e-03
1.964677543140e-03
5.518361070662e-03
5.664420780412e-03
2.775557848670e-03
2.950132041529e-03
2.770175388850e-03
5.630497223971e-03
4.810959073252e-03
4.708255592783e-03
1.439105625328e-03
1.764440458605e-03
2.782344288704e-03
2.711314613078e-03
5.598196232205e-03
5.483018715217e-03
5.749000539319e-03
1.876891076347e-03
3.340823531716e-03
3.019076182411e-03
2.638636300015e-03
3.496239648933e-03
3.233921457243e-03
3.509435497577e-03
4.060457021751e-03
9.830298147039e-05
5.472024458089e-03
4.113394862956e-03
0.0
3.974022231900e-03
4.142147385999e-03
3.808811843470e-03
1.512139063608e-03
4.035840610883e-03
4.228908811524e-03
1.229665042051e-03
5.727754258707e-03
1.213722886229e-03
1.289130077108e-03
4.190343840825e-03
4.208177283858e-03
4.453725484854e-03
4.415818037714e-03
4.236650972425e-03
4.433395698974e-03
3.960847876624e-03
4.646929544121e-03
4.602784854752e-03
4.854292446809e-03
3.246379902709e-03
2.751258169961e-03
2.634703286177e-03
2.390161293581e-03
5.366413333148e-03
5.305369359066e-03
4.571502884887e-03
4.361148070353e-03
3.986570332512e-03
3.958169901241e-03
4.225562744729e-03
4.178369498049e-03
4.446132963819e-03
4.399693690965e-03
4.649688467265e-03
4.553994310106e-03
2.395247212063e-03
3.489844342941e-03
2.935834930029e-03
2.507685734421e-03
3.320342588166e-03
3.002197588997e-03
3.920773109245e-03
3.240450602112e-03
5.870937815019e-03
0.0
3.323452107101e-04
3.218749665587e-03
3.600131537244e-03
2.907036869022e-03
2.836905823125e-03
2.270773315379e-03
1.834790987996e-03
2.673096930044e-03
4.690114924130e-03
2.348836148975e-03
4.492676789655e-03
3.205482778443e-03
3.817317219374e-03
2.948492527326e-03
2.849084286571e-03
4.354187352303e-03
4.105094102283e-03
3.949385469094e-03
3.043885708512e-03
3.025811206364e-03
2.606730506197e-03
4.199509327046e-03
5.239720060421e-03
5.342311723545e-03
5.568723597318e-03
5.436074129988e-03
5.195127512814e-03
5.275945829576e-03
5.522846822361e-03
5.362101483362e-03
5.654790167380e-03
5.418798555265e-03
5.183358795615e-03
5.228039527145e-03
5.462723589554e-03
5.010149217662e-03
3.394314338742e-03
3.254416177728e-03
3.998143781563e-04
1.780285334436e-03
3.960367887196e-03
5.943039136803e-03
5.959345631699e-03
3.141346465330e-03
5.620347987340e-03
4.084459886071e-03
2.498622170437e-03
5.268940025094e-03
5.099701809653e-03
4.951938385870e-03
4.853275658762e-03
5.939990338712e-03
4.510478805277e-03
4.274617599746e-03
1.914060081792e-03
2.484209945367e-03
2.639018446471e-03
5.114013007791e-03
3.400229055208e-03
2.914794698409e-03
2.950236209628e-03
2.471629201444e-03
3.451405133461e-03
5.898428211788e-03
5.845499826008e-03
3.178797580669e-03
2.960279401288e-03
2.804058035340e-03
2.729987471253e-03
2.829725808593e-03
2.578048860295e-03
2.561856093753e-03
2.441038645177e-03
5.056780879738e-03
3.797514540817e-03
3.350528560522e-03
3.070190277767e-03
2.914035417259e-03
3.410817836896e-03
3.523130452731e-03
3.651707279838e-03
3.259955241283e-03
3.906281668705e-03
3.999951674760e-03
1.514180247365e-03
3.455226154399e-03
3.780489020667e-03
4.041242521720e-03
4.062468817485e-03
4.304541709678e-03
4.049230948442e-03
3.629888373411e-03
3.687995609435e-03
3.556481715217e-03
3.766062809759e-03
3.630392003192e-03
3.425625743275e-03
3.859887208052e-03
3.712754465682e-03
3.753295504860e-03
5.944650398121e-04
2.225590346816e-03
2.127823725117e-03
2.979469021594e-03
2.824219377905e-03
3.230470095965e-03
3.141720754719e-03
1.550829825203e-03
7.467435189644e-04
1.647650571366e-03
6.781160949691e-04
1.418844655901e-03
2.293180220520e-03
2.042650195457e-03
4.943618431220e-03
3.031335723016e-03
2.945155604069e-03
2.688743593994e-03
2.875725181900e-03
3.142994710358e-03
2.523324995075e-03
2.457510238830e-03
1.510421340239e-03
1.007815092101e-03
1.077602730068e-03
9.323160320548e-04
9.716390507349e-04
1.014619391924e-03
1.008787792094e-03
1.356424777816e-03
1.016122513265e-03
1.104929402575e-03
1.269761046994e-03
4.987755442147e-03
5.116267723268e-03
4.373987183766e-03
3.768398534654e-03
7.723067608076e-04
5.801414033109e-03
5.849888523554e-03
5.842497446698e-03
4.794097655678e-03
4.842845514710e-03
5.795857190058e-03
2.602280117318e-03
5.684608119029e-03
5.426766964233e-03
2.915293754372e-03
2.687040126660e-03
4.231633519162e-03
3.882386612765e-03
4.556515040671e-03
3.998756045770e-03
4.293387971553e-03
3.074535552154e-03
1.408470089399e-03
4.539066931421e-03
4.423048734156e-03
5.069081138622e-03
2.521812465648e-03
3.361884437641e-03
1.678049688451e-03
5.074061553586e-03
3.958676471230e-03
3.095099427902e-03
3.226856089265e-03
2.810734054587e-03
2.838974017310e-03
3.275246495708e-03
3.484344474013e-03
3.705978157807e-03
5.196157012198e-03
1.018518931270e-03
3.521375643282e-03
3.706077620756e-03
4.658000838490e-03
1.709680317594e-03
3.305261692782e-03
5.177694957922e-03
5.612493104205e-03
4.353675085413e-03
1.412398444283e-03
4.259060800003e-03
3.477784717748e-03
5.132413977016e-03
2.272689532028e-03
1.816489196477e-03
3.846604393139e-03
3.494167407997e-03
5.528278511332e-03
3.146089818610e-03
1.957139825605e-03
1.112448474457e-03
2.360079505855e-03
4.023485214536e-03
2.432815649017e-03
5.414327495685e-03
4.449676466395e-03
2.421354826549e-03
5.279237453520e-03
2.481134471885e-03
2.154599998102e-03
3.850201562972e-03
4.337013816297e-03
4.689567346140e-03
3.889632788579e-03
4.106706360112e-03
3.777078850776e-03
2.080073589128e-03
3.024091218619e-03
4.636084587167e-03
4.310138882828e-03
5.639613987774e-03
3.640972516568e-03
4.095996415080e-03
5.509310551577e-03
3.587895264237e-03
1.596224348258e-03
2.654907617398e-03
2.518196502036e-03
2.963465931010e-03
3.699806971781e-03
5.746687556824e-03
4.270512341206e-03
2.658558888212e-03
1.452005223562e-03
3.642720607827e-03
4.434127154033e-03
1.755325851135e-03
2.085706409627e-03
3.490851329931e-03
4.839928513279e-03
3.143753996542e-03
4.591157827227e-03
1.995758212990e-03
3.213796841356e-03
3.698867822439e-03
4.783484472751e-03
2.274372036269e-03
3.942041855717e-03
2.018129477521e-03
3.179171001688e-03
3.766024258519e-03
4.461967294443e-03
5.932012927013e-03
2.263421662545e-03
4.710985723029e-03
3.694491554536e-03
2.635139483983e-03
1.025903351167e-03
3.364049018946e-03
3.741140459926e-03
2.496086040746e-03
2.247981960543e-03
3.447314890979e-03
3.806063609485e-03
2.443637327429e-03
3.889607978100e-03
2.932212877137e-03
4.809565923031e-03
3.991122142150e-03
4.535682597544e-03
1.253579093275e-03
3.692076032167e-03
4.710605835282e-03
2.989317964917e-03
2.692080032987e-03
5.041460301469e-03
2.649271473601e-03
2.763935828314e-03
4.635607043239e-03
3.377136231024e-03
2.886852932384e-03
2.656221383019e-03
2.841982051278e-03
2.546121946089e-03
2.280710634061e-03
2.448224017802e-03
4.844932991548e-03
1.159538546380e-03
4.958406181658e-03
2.170695742773e-03
2.635116820677e-03
3.060192089563e-03
4.490482294088e-03
2.676098572190e-03
1.933023820066e-03
2.768539009112e-03
2.773761821372e-03
2.620450107336e-03
2.685714993396e-03
5.648300186419e-03
2.938653539912e-03
5.823614188444e-03
4.963188208300e-03
3.932121989893e-03
2.324149862710e-03
0.0
2.514548860694e-03
2.801591293186e-03
4.851561224056e-03
3.937231005468e-03
2.729494295403e-03
5.675085357911e-03
4.803426685540e-03
4.862248751244e-03
2.171293786245e-03
3.009255413908e-03
5.428982077181e-03
3.693412385959e-03
1.283308417236e-03
4.241990484630e-03
2.118254558368e-03
2.377043969348e-03
2.382468483149e-03
2.413239708947e-03
2.697664909012e-03
2.126804265286e-03
2.932528478253e-03
3.975655703172e-03
3.423996743188e-03
2.040734890307e-03
5.723862858495e-03
4.029709976472e-03
4.729446121623e-03
3.643538952676e-03
2.324384274866e-03
4.240145590124e-03
5.248251932663e-03
5.065638731077e-03
4.865415511008e-03
3.950525462167e-03
5.659251463191e-03
2.734727135404e-03
5.648629554702e-03
5.043134290996e-03
4.301884988432e-03
4.260018092810e-03
4.871863521837e-03
5.738997361023e-03
2.142169266280e-03
4.855264715639e-03
2.941329875457e-03
4.982839675412e-04
4.155649936064e-03
5.251942821195e-03
4.831609780295e-03
9.013000089023e-04
1.077083856090e-03
3.817677234665e-03
5.571067232882e-03
3.300048357497e-03
5.920327576545e-03
7.577862853329e-04
3.663422898644e-03
1.060195543772e-03
4.951255767581e-03
5.712619248511e-03
3.070814862917e-03
3.822820158157e-03
2.186156026243e-03
4.538463984820e-03
1.851321241038e-03
5.716697476405e-03
3.395600169627e-03
5.810236312995e-03
3.850312672382e-03
0.0
4.395921499424e-03
2.651166453379e-03
3.693193394849e-03
5.779881690989e-03
2.632058365002e-03
1.305216945228e-03
5.834411797515e-03
1.794472957361e-03
3.663155821034e-03
4.974463401011e-03
1.126337765141e-03
4.139350774126e-03
5.652422135997e-03
3.542221846802e-03
5.289169342971e-03
3.063748398770e-03
0.0
4.627165150353e-03
3.844266386451e-03
5.798941796910e-03
4.453871606854e-03
2.441774290393e-03
5.465528199286e-03
3.248665564556e-03
4.976193501889e-03
2.571640358639e-03
9.177753277438e-04
3.751244995352e-03
1.075195837059e-03
4.615840899057e-03
3.326084611542e-03
1.835437331310e-03
1.638630534890e-03
2.076700773459e-03
1.933797938159e-03
2.408370959842e-03
2.324628182171e-03
2.687439418484e-03
2.614478323154e-03
2.992334186830e-03
2.991431796678e-03
3.343927869160e-03
3.270124677663e-03

SCALARS node_materi_plasti_phimob float
LOOKUP_TABLE default
-4.911169720545e+01
1.183864931071e+01
2.061945706214e+01
1.969193306647e+01
-3.051049727236e+01
-3.545364210998e+00
8.946702458602e+00
1.262131945659e+01
1.256437716339e+01
1.437069246714e+01
1.568119794307e+01
1.668165118495e+01
1.746542565980e+01
1.811168857536e+01
1.866415706207e+01
1.907098706821e+01
1.937215268543e+01
1.967447229742e+01
2.013178840357e+01
2.060633306207e+01
2.066744197456e+01
2.067971142068e+01
2.066000559046e+01
1.971567316894e+01
1.971123997282e+01
1.971880720914e+01
1.972767644350e+01
1.972160411595e+01
1.974073089750e+01
1.974819248847e+01
1.977429226652e+01
1.980289069233e+01
1.983280922317e+01
1.984793465449e+01
1.989647895495e+01
1.993510287526e+01
1.999186688212e+01
2.003049113517e+01
2.008960072233e+01
2.014740709888e+01
2.021402331010e+01
2.030657665373e+01
2.041413401016e+01
2.050683810894e+01
2.056589647942e+01
2.065695969173e+01
2.072245770714e+01
2.077481437051e+01
2.080650388278e+01
2.085309174663e+01
2.085557699787e+01
2.087593670398e+01
2.085692989619e+01
2.087669302454e+01
2.087045946073e+01
2.085245508830e+01
2.084035492543e+01
2.082578812614e+01
2.080534657811e+01
2.078737292881e+01
2.076953977616e+01
2.074916129502e+01
2.073727368260e+01
2.071015580491e+01
2.067826201644e+01
2.065986028344e+01
2.068085772840e+01
2.063313081404e+01
2.064102298961e+01
2.062734691396e+01
2.062215314454e+01
2.062433434285e+01
1.353735278803e+01
1.486531365051e+01
1.589372348382e+01
1.672216818088e+01
1.743704330419e+01
1.803411633860e+01
1.856430550661e+01
1.902873805047e+01
1.944109660959e+01
1.861829004566e+01
1.149529269259e+01
3.296143784892e+01
2.631085223365e+01
2.382906438497e+01
1.107696946808e+01
-5.255816130265e+00
-3.545790163595e-01
4.091633147666e+00
7.035228626560e+00
9.451156883280e+00
-3.998982101317e+01
-2.918397283519e+01
-1.057471358798e+01
1.286248504599e-01
5.866680827762e+00
9.341634685890e+00
1.152649766607e+01
1.161469459391e+01
1.160762876332e+01
1.155689872704e+01
1.176257804860e+01
1.150353361767e+01
1.142207316735e+01
1.139432589459e+01
1.138367597101e+01
1.132105123494e+01
1.125572728739e+01
1.122188133940e+01
1.122500182052e+01
1.130138971021e+01
9.961784213869e+00
8.500816089128e+00
9.182572393167e+00
1.015758701717e+01
1.115961039992e+01
1.219365076076e+00
-2.621428994364e+01
-4.094687838443e+01
-4.706417024357e+01
-4.865353993075e+01
-4.862016618257e+01
-4.828827048373e+01
-4.895166625874e+01
-4.986948070814e+01
-5.037146111267e+01
-5.079461213800e+01
-5.093032531022e+01
-5.069333998188e+01
-5.064399789861e+01
-4.017744088063e+01
-4.053818795409e+01
-4.083701476804e+01
-4.120566001724e+01
-4.176736908812e+01
-4.254018071762e+01
-4.353997004303e+01
-4.478895600326e+01
-4.628667085016e+01
-4.795151468642e+01
-4.946017929372e+01
-5.040267351895e+01
-5.078603236594e+01
-5.085275461383e+01
-5.090433845863e+01
-5.092797666241e+01
-5.081114421276e+01
-5.046244638052e+01
-4.962275140986e+01
6.325079882534e-01
5.461395632408e+00
-3.167461485195e+01
-1.453341445595e+01
-1.891660918102e+01
-5.149827357553e-01
-2.673246086591e+01
-2.923005470276e+01
-3.058009554770e+01
-3.125668929561e+01
-3.143990024912e+01
-3.156600764194e+01
-3.164893583450e+01
-3.174671529985e+01
-3.165569562746e+01
-3.132905999693e+01
-3.086646010114e+01
-3.041364045170e+01
-3.001820087746e+01
-2.968970365122e+01
-2.942957454647e+01
-2.923804860447e+01
-2.911435817845e+01
-2.907675066758e+01
-2.940443905339e+01
-2.986444382253e+01
-1.125853670174e+01
-1.137442925586e+01
-1.133890933891e+01
-1.131396345324e+01
-1.128425106754e+01
-1.124544001986e+01
-1.119473968547e+01
-1.112864526201e+01
-1.104548566177e+01
-1.094837768862e+01
-1.083279734152e+01
-1.069446457095e+01
-1.052327984102e+01
-1.030342453705e+01
-1.003472877282e+01
-9.687257750321e+00
-9.219826311558e+00
-8.146154087292e+00
-5.456810630106e+00
-4.788595470133e+00
1.754442580230e+00
1.924178052744e+00
8.778534551175e-01
4.063513957917e-01
9.920933243110e-02
-1.055943133890e-01
-1.873248695297e-01
-2.198720163911e-01
-2.371780551854e-01
-2.493692125565e-01
-2.503382491177e-01
-2.370663070259e-01
-2.274869940180e-01
-2.180956107711e-01
-2.045928040147e-01
-1.953544669364e-01
-1.835271056795e-01
-8.483577552670e-02
1.797249659562e-01
5.751177198764e+00
5.703750327303e+00
5.682366253623e+00
5.665121998170e+00
5.633611107390e+00
5.601276011353e+00
5.565027220738e+00
5.514471069815e+00
5.458642260157e+00
5.434989458004e+00
5.419419584640e+00
5.407224216883e+00
5.429242638622e+00
5.503855244510e+00
5.729982181779e+00
6.289641703433e+00
5.948347973010e+00
8.837539543107e+00
9.171851649217e+00
8.913502647800e+00
8.867498300704e+00
8.881959517615e+00
8.916378741692e+00
8.950113179153e+00
9.010616214353e+00
9.075579539779e+00
9.128825557541e+00
9.171193634261e+00
9.207616274871e+00
9.244990622859e+00
9.259859722842e+00
9.321865272308e+00
9.416096735776e+00
3.499586537224e+01
2.877152649419e+01
2.499423063911e+01
2.154665222962e+01
2.643009934701e+00
-1.725255003567e+00
3.060767642784e+00
6.038804477790e+00
8.584450749122e+00
1.065880722475e+01
2.596009871041e+01
2.109200357382e+01
-3.500552526316e+01
1.327260288065e+01
2.098721996292e+01
1.635328770228e+01
1.842981726503e+01
2.103356369536e+01
5.515628196591e+00
2.077956074907e+01
9.294114313249e+00
2.078490607589e+01
-3.793982805352e+01
2.029626642089e+01
1.239416510839e+01
1.516673675674e+01
1.949919999685e+01
1.992850900153e+01
1.972219112244e+01
1.954556302977e+01
1.952563027031e+01
1.963530782779e+01
1.291935026080e+01
1.300640772722e+01
1.323329396903e+01
1.709398500474e+01
2.070748803596e+01
1.093121445389e+01
-3.655170145435e+01
2.065506700297e+01
1.319084098815e+01
1.130598283323e+01
1.974303802310e+01
2.093184411391e+01
2.056168384053e+01
2.111112141930e+01
2.106232803492e+01
-2.502308096678e+00
1.287111793347e+01
2.093708679370e+01
1.830500565791e+01
-3.743653617343e+01
1.713091583423e+01
1.959515026849e+01
6.833344859046e+00
2.255276199405e+01
7.882342374299e+00
1.089135029216e+01
3.207097540348e+01
1.547487840119e+01
2.067202841620e+01
-3.760283291773e+01
1.921966297936e+01
1.303833766188e+01
1.377253315082e+01
1.429973412619e+01
1.502802032890e+01
1.551353025829e+01
1.605053134090e+01
1.563629046053e+01
1.656060725226e+01
1.622538884137e+01
1.644406573343e+01
1.705540897030e+01
1.679098256154e+01
1.752815001804e+01
1.732866226023e+01
1.657308956255e+01
1.717081274901e+01
1.641877537840e+01
1.708328881454e+01
1.772140507308e+01
1.768444047694e+01
1.708254140587e+01
1.772078189605e+01
1.718853837974e+01
1.785370823821e+01
1.734357494581e+01
1.794504654014e+01
1.851636686353e+01
1.866024777309e+01
1.799471171791e+01
1.900802844695e+01
1.839497261538e+01
1.979878109390e+01
2.030394312930e+01
2.094645765523e+01
2.062012849694e+01
2.159250075850e+01
2.144481764493e+01
2.229442099865e+01
2.219844563213e+01
2.286234194609e+01
2.296507269511e+01
2.336345403515e+01
2.324667765942e+01
2.354243059056e+01
2.371076792558e+01
2.369380202671e+01
2.388412111508e+01
2.371218144634e+01
2.348241549889e+01
2.332968102972e+01
2.355273053749e+01
2.303866142354e+01
2.277418968318e+01
2.239458073728e+01
2.269538089298e+01
2.194312850873e+01
2.167518874772e+01
2.101139330079e+01
2.120240905973e+01
2.019945111849e+01
1.984358118253e+01
1.910913179192e+01
1.961352984863e+01
1.869248444842e+01
1.926467343628e+01
1.814604768495e+01
1.821324661487e+01
1.762383588826e+01
1.791931639981e+01
2.137611244411e+01
1.721129393067e+01
1.689255022185e+01
1.757814682235e+01
1.828165157100e+01
1.672831297625e+01
1.718534230632e+01
1.618467017802e+01
2.134112598381e+01
1.822338349077e+01
1.673446050724e+01
1.555385642658e+01
1.482944648942e+01
1.391347216942e+01
1.597666497084e+01
1.683732916997e+01
1.640111563253e+01
1.720827996681e+01
1.683601664612e+01
1.480429024433e+01
1.775510967548e+01
1.756603794596e+01
1.640408127342e+01
1.737212451760e+01
2.381639747740e+01
1.763578037647e+01
1.725364350434e+01
1.796339826178e+01
2.020763476837e+01
2.001041239070e+01
2.098423669148e+01
2.087626102042e+01
2.169393889194e+01
2.153665307478e+01
2.082767904298e+01
2.139538971731e+01
2.077615811308e+01
2.191144783661e+01
2.215513464603e+01
2.126832787948e+01
2.075032446662e+01
2.115044002908e+01
2.075743871666e+01
2.011642051039e+01
2.018495553640e+01
1.971244287754e+01
2.394861326431e+01
2.381956042295e+01
2.386251246469e+01
2.358398849106e+01
2.337889985597e+01
2.296335606925e+01
2.278654881519e+01
2.308860166823e+01
1.797639241174e+01
2.346096868553e+01
2.323787791151e+01
2.348051033829e+01
2.326088813931e+01
2.356593631867e+01
2.328482968349e+01
2.367414334302e+01
2.362518603701e+01
2.378279069730e+01
2.334510945995e+01
2.369226551373e+01
2.269512389793e+01
1.948434276363e+01
2.313024549357e+01
2.251063350364e+01
2.254703887661e+01
1.285480433839e+01
2.077409117599e+01
2.208042795835e+01
2.235932782410e+01
2.260946471868e+01
1.268663936418e+01
2.333896919000e+01
2.270289471309e+01
1.756016187471e+01
1.722701152713e+01
2.212814861575e+01
1.367506591200e+01
2.149736720581e+01
2.422469359357e+01
2.028626792866e+01
2.077711514769e+01
2.009894413312e+01
2.208814591220e+01
2.204273112122e+01
2.267586992528e+01
2.158596008752e+01
2.142359328076e+01
1.980391365309e+01
2.050546989918e+01
1.862988632051e+01
1.773872666853e+01
1.691051733270e+01
1.783530117432e+01
1.620115281527e+01
1.485561267204e+01
1.434594983838e+01
2.093528602868e+01
2.450736004587e+01
1.570123369024e+01
2.187455316030e+01
2.232479106311e+01
1.789352487297e+01
1.759589102741e+01
1.688423813089e+01
1.729302741565e+01
1.794579225438e+01
1.766938739630e+01
1.697876191874e+01
1.737998516416e+01
1.664349451400e+01
1.707697442345e+01
1.774844077416e+01
1.747397197975e+01
1.676195871640e+01
1.718436635268e+01
1.642334121970e+01
1.686834913157e+01
1.756772872604e+01
1.151623847317e+01
2.284056556631e+01
2.241833624282e+01
1.749942588748e+01
1.802678586289e+01
1.846802207707e+01
1.848570376882e+01
1.727330707875e+01
1.792335801249e+01
2.266329593334e+01
2.188016951750e+01
1.818549171593e+01
2.040812761085e+01
1.983693792426e+01
1.788837123419e+01
1.666880291773e+01
1.747124973080e+01
1.584618710475e+01
1.563625039342e+01
1.712232077021e+01
2.242217924475e+01
1.809070941953e+01
1.401726829909e+01
1.157233579028e+01
2.076759206091e+01
2.328402722427e+01
1.916715200791e+01
2.002129203802e+01
1.961027564751e+01
2.025099093768e+01
1.988293488624e+01
2.039364000736e+01
2.074822923314e+01
2.171840273146e+01
2.078228612661e+01
1.650657440966e+01
2.309047636853e+01
1.732795157738e+01
9.558493013504e+00
1.179247218473e+01
1.225977206163e+01
1.428056747483e+01
2.185031505837e+01
2.012387958023e+01
1.961310982307e+01
1.444086846804e+01
1.439877833098e+01
2.174293728258e+01
1.597331163011e+01
1.616926678609e+01
1.577318397100e+01
9.940040314534e+00
1.249798894891e+01
1.827035146043e+01
2.203011481116e+01
2.103241761430e+01
2.520366272179e+01
2.596063391256e+01
1.763161817706e+01
1.822392554345e+01
1.882760594064e+01
1.888148752971e+01
2.209017566317e+01
1.197734939313e+01
1.847384768446e+01
2.297768035399e+01
2.330272337457e+01
1.806260881068e+01
2.174670037686e+01
2.259063491628e+01
1.910786198235e+01
1.429122304884e+01
1.294561419206e+01
2.176397439795e+01
1.851273783925e+01
2.109953685590e+01
2.118108166080e+01
2.102104020584e+01
7.855110241791e+00
2.162291761089e+01
2.054051563399e+01
1.993543299811e+01
1.947981179372e+01
2.127097209164e+01
2.012663200827e+01
1.971654325948e+01
1.851271034169e+01
1.525287196576e+01
2.028778272956e+01
1.554973362087e+01
1.466509009322e+01
1.448477551371e+01
1.572612204660e+01
1.455003043008e+01
2.280361383141e+01
2.354925574797e+01
1.881352414162e+01
1.967386353527e+01
2.117602447855e+01
1.833156710334e+01
1.863366118622e+01
1.591956791345e+01
1.549537841563e+01
9.542540082128e+00
7.370113553555e+00
1.933872190941e+01
2.164222520935e+01
1.847271747436e+01
1.873402766797e+01
1.846709908398e+01
2.198130058339e+01
2.347010643585e+01
2.389391022446e+01
2.403667814625e+01
2.087338808695e+01
3.553905583069e+00
1.828762877342e+01
2.071760567233e+01
2.077033550071e+01
2.146878611498e+01
1.325632532092e+01
2.169852242458e+01
2.219068830434e+01
1.337111969134e+01
1.312932326268e+01
1.443585417517e+01
1.308774676102e+01
1.872292681838e+01
1.704341602254e+01
2.035151139557e+01
2.080881171154e+01
1.986338188319e+01
1.947599694795e+01
2.145062494223e+01
2.172237810257e+01
1.464784798203e+01
1.276298618340e+01
1.878974406686e+01
1.370438627430e+01
2.139941290164e+01
2.142665468005e+01
2.438999202172e+01
2.213669820633e+01
1.874801261491e+01
1.787649523996e+01
1.612967576882e+01
1.956890020566e+01
2.066287786929e+01
1.318440065443e+01
2.070558615414e+01
1.575419747854e+01
1.896393073637e+01
2.222597393311e+01
1.922814925194e+01
2.233970293501e+01
1.848271903248e+01
1.902037703331e+01
1.519257952051e+01
1.468467654668e+01
1.561682807610e+01
2.418027024330e+01
2.514879824914e+01
1.840592096063e+01
1.663466145993e+01
1.685460151720e+01
1.249723127737e+01
1.459204492368e+01
1.912871147806e+01
1.908029603133e+01
1.870496237089e+01
1.877186517120e+01
1.884872523534e+01
2.297291533775e+01
2.300166825955e+01
2.343287416556e+01
1.884562562265e+01
1.915406307037e+01
2.014535297959e+01
2.061675198347e+01
1.804978955616e+01
1.901184642712e+01
2.074536982768e+01
2.081480445025e+01
-5.018088604402e-01
4.742214579011e+00
2.197241741865e+01
2.310359661171e+01
1.898312516879e+01
1.874779209246e+01
1.925046924643e+01
1.353197035997e+01
2.147726595042e+01
2.162036504123e+01
2.185198314261e+01
2.138231895852e+01
2.142038063807e+01
2.125072526755e+01
2.095639809634e+01
2.113317719269e+01
1.886255821821e+01
1.483520685905e+01
1.646702849048e+01
1.432211951001e+01
1.503673438824e+01
1.366121296894e+01
1.228250819929e+01
1.432182130768e+01
1.502472852638e+01
-1.014893233002e+01
1.926129609439e+01
-8.184133272627e+00
-1.913276098007e+00
2.120575025534e+01
2.123574786417e+01
2.104965909647e+01
2.107288334550e+01
2.121018771123e+01
2.105511833862e+01
1.411254713929e+01
2.090783860972e+01
2.091342533790e+01
2.082665847607e+01
1.130071551657e+01
1.677438270252e+01
1.395644435547e+01
1.245894926997e+01
1.993017271836e+01
1.954007035272e+01
2.063537882621e+01
2.016480065453e+01
1.445519112393e+01
1.442058407049e+01
1.544116546392e+01
1.533237401173e+01
1.619938168529e+01
1.608002632615e+01
1.683904652572e+01
2.081269813747e+01
1.856604629441e+01
1.216079084531e+01
2.142012264547e+01
2.169167701786e+01
1.302809254535e+01
1.066481406745e+01
2.129771808293e+01
2.133705736962e+01
1.953909733039e+01
1.637595891286e+01
2.273171194394e+01
2.031426021561e+01
1.456057056972e+01
1.492586455587e+01
1.294271118682e+01
2.268784977458e+01
2.047098637920e+00
2.084005455212e+01
1.690141320930e+01
2.182054795469e+01
2.040931620149e+01
2.214916222315e+01
1.666239966578e+01
2.082194061968e+01
1.899869969682e+01
1.593167492939e+01
1.455041480433e+01
1.411361126470e+01
2.278089873546e+01
1.262358136821e+01
9.505098556597e+00
1.635848365453e+01
1.819521576989e+01
1.850218988045e+01
1.900522436154e+01
1.879598557111e+01
1.825625175454e+01
1.857835816057e+01
1.908049707755e+01
1.889700319430e+01
1.942837395414e+01
1.919795775239e+01
1.871224346930e+01
1.902711615471e+01
1.943292898818e+01
1.853679892144e+01
2.118522825273e+01
2.040711097281e+01
2.538478147593e+01
2.586041943927e+01
1.658049245594e+01
1.985887246490e+01
1.974694263132e+01
2.278156579045e+01
2.041455040953e+01
1.492754830042e+01
2.382677972236e+01
2.067010714589e+01
1.791410494617e+01
1.762503512659e+01
1.723458538183e+01
1.968670985283e+01
1.605029528821e+01
2.097073615379e+01
2.354450922095e+01
2.318826466388e+01
2.306864644326e+01
1.836368292275e+01
2.110046945557e+01
2.141894982213e+01
2.142032773904e+01
2.178043763098e+01
2.109116181795e+01
2.006729761974e+01
2.019611164344e+01
1.972220693862e+01
2.117771190669e+01
2.171494583307e+01
2.223713696032e+01
2.188281429796e+01
2.278969261091e+01
2.290332915867e+01
2.329917952788e+01
1.918576604878e+01
2.104356690160e+01
2.186271444817e+01
2.206374317650e+01
2.153705214401e+01
1.862649195996e+01
1.887601968284e+01
1.930793678861e+01
1.833581013269e+01
2.071014095335e+01
2.101037496902e+01
2.367811086880e+01
1.853690246203e+01
1.288733919541e+01
1.416351802023e+01
1.420356606028e+01
1.529399952443e+01
1.426784109560e+01
1.916009275702e+01
1.922622424471e+01
1.896916672322e+01
1.931031825394e+01
1.906622681400e+01
1.870167429350e+01
1.939801296258e+01
1.916370409383e+01
1.291114162984e+01
1.351287007865e+01
1.329084508761e+01
4.507493697578e+00
1.323677761633e+01
1.735398623950e+01
1.647959541977e+01
1.928321057423e+01
2.015615137790e+01
-1.869517270856e+01
-3.311826582159e+00
-2.903681435963e+01
-8.661734559222e+00
5.848506484233e+00
1.025068275590e+01
2.070147934805e+01
1.782321603921e+01
1.758213007566e+01
1.684700662810e+01
1.739808323011e+01
1.811522320006e+01
1.627123005497e+01
1.600843450476e+01
-3.656541813158e+01
-1.057033596909e+01
-1.260204495944e+01
3.868202989346e+00
3.497741569171e+00
-1.036327918012e+01
-1.044300690753e+01
-3.674893359253e+01
-1.117677893134e+01
2.884623802183e+00
-3.754849615345e+01
1.775145995247e+01
1.807685042504e+01
2.096000967724e+01
1.317371634502e+01
-3.709611233678e+01
1.947247008960e+01
1.954892875690e+01
1.954840872798e+01
2.067643584076e+01
2.068002176607e+01
1.948651406349e+01
1.560691373558e+01
1.924823302770e+01
1.869713167495e+01
2.339227930091e+01
1.574094802341e+01
1.994645376237e+01
2.009037878447e+01
2.084754409588e+01
1.976887355614e+01
2.104015767369e+01
2.145598802531e+01
1.195499540547e+01
1.628862470158e+01
1.604337017219e+01
1.783679556508e+01
1.621951499064e+01
1.858115431969e+01
1.135359625024e+01
2.041416288038e+01
1.549604607127e+01
2.060269302132e+01
1.798205466487e+01
1.629301786815e+01
1.577800913531e+01
1.943812202559e+01
1.875407334363e+01
2.169285846209e+01
1.817170931504e+01
-3.404480834980e+01
2.182670761057e+01
2.004501298185e+01
1.653825421310e+01
2.243532823490e+01
1.559954232270e+01
1.801411808265e+01
1.897426951146e+01
1.551353278817e+01
6.858867834312e+00
1.534090085870e+01
2.152546367032e+01
1.788188777589e+01
1.543104259055e+01
2.387915903755e+01
1.736690412922e+01
1.163638535945e+01
1.890339725120e+01
2.185798655057e+01
2.219132605103e+01
2.363353255098e+01
1.577116651065e+01
2.139555291255e+01
2.348034928497e+01
1.856822855845e+01
1.925155379438e+01
2.352474540590e+01
1.821075021483e+01
2.214850628201e+01
2.207801208839e+01
1.560117316195e+01
1.832189767288e+01
1.782886039920e+01
1.981204970764e+01
1.968848821493e+01
2.160041770644e+01
2.313912547943e+01
1.911057087156e+01
1.644745759314e+01
2.053241107834e+01
1.905081003307e+01
1.661706654249e+01
2.131268052764e+01
1.874638832872e+01
1.908754944434e+01
1.229415100368e+01
2.364121608302e+01
2.353749296818e+01
2.242018788387e+01
1.956771415970e+01
1.928590793015e+01
2.114622346176e+01
2.239844358910e+01
2.891595904562e+01
1.269439510721e+01
2.100535440506e+01
2.371319614879e+01
2.202838863193e+01
1.879055053739e+01
2.060046332211e+01
1.107419922633e+01
2.090419165037e+01
2.259977119409e+01
2.215265714920e+01
1.321415763771e+01
2.081501028601e+01
2.220619805792e+01
2.045312253678e+01
2.330640591522e+01
1.007109508337e+01
1.966333541902e+01
1.822079749434e+01
1.966317734362e+01
2.201658999838e+01
1.689235721246e+01
1.938529781412e+01
2.250097146475e+01
3.175519421667e+00
1.166527400308e+01
1.940605161990e+01
2.327159306334e+01
2.288792126836e+01
2.126080950987e+01
1.945731509631e+01
2.333079960887e+01
1.952490372732e+01
8.519925585115e+00
1.733540206258e+01
1.959825425667e+01
1.867841023517e+01
2.659882736605e+00
2.119036660970e+01
2.068402564596e+01
1.753423612512e+01
2.238051182795e+01
1.800485986277e+01
6.678528601487e+00
2.269605102369e+01
1.909953210258e+01
2.167304940451e+01
2.261824120101e+01
2.266109384036e+01
1.007594574834e+01
1.504130337020e+01
1.319879099512e+01
2.309443134124e+01
1.911559203776e+01
1.097785048368e+01
1.815903360058e+01
8.944089997911e+00
2.251487846132e+01
2.163515769342e+01
1.636647885477e+01
2.205968484720e+01
1.368893669734e+01
2.119148718935e+01
2.277278218574e+01
2.070135595048e+01
1.949854820989e+01
1.915956309107e+01
1.859875098580e+01
1.953694806832e+01
2.066249719662e+01
1.431631651527e+01
3.969699769102e+00
1.037665562487e+01
1.130217653644e+01
1.677721571539e+01
1.839146474421e+01
1.435427258575e+01
1.593875614915e+01
1.962200347722e+01
2.086345037007e+01
1.743657972802e+01
2.193017488193e+01
2.193070759161e+01
1.877043108909e+01
1.301131553445e+01
-1.171271320737e+01
1.985398374489e+01
9.510554553229e+00
1.589385299223e+01
2.047006319930e+01
1.590471727712e+01
9.160982167653e+00
2.047537097807e+01
2.139794264826e+01
1.414134167672e+01
2.130258898910e+01
2.405472767879e+01
1.921799478960e+01
2.106323495936e+01
2.084781562550e+01
2.117204123733e+01
2.357752270934e+01
1.507723938008e+01
2.023456511397e+01
1.791062042395e+01
2.074831607623e+01
1.390830565380e+01
1.921966385515e+01
2.176812751754e+01
1.922773553349e+01
1.888114039646e+01
1.565581084938e+01
1.508251573869e+01
2.068288568901e+01
1.947321514011e+01
2.593360499955e+01
1.738161026465e+01
1.760117692622e+01
1.990531459951e+01
2.116917369552e+01
1.929263603612e+01
2.076406765543e+01
3.892190587245e+00
-1.502160405493e+01
2.126343653138e+01
1.986018874448e+01
1.910080261504e+01
1.965334757965e+01
2.813399287520e+01
1.274585783612e+01
-1.339372084236e+01
2.071219897644e+01
1.924147525610e+01
1.791754342838e+01
1.300182696204e+01
1.488970160968e+01
2.064519229714e+01
1.068175255797e+00
1.928109228435e+01
2.133863656071e+01
1.938396121375e+01
2.101327575649e+01
1.779186218996e+01
2.094597884209e+01
2.171464806158e+01
1.304969065714e+01
1.939844059027e+01
1.665877172109e+01
8.836037159102e+00
1.957908850061e+01
-4.126082720972e+01
1.304335382516e+01
2.064607335139e+01
9.914420601688e+00
1.516846365329e+01
1.977029237845e+01
1.889077930801e+01
1.848900347843e+01
1.390941638000e+01
1.045595929199e+01
1.678202789466e+01
2.113572603630e+01
1.935681479767e+01
1.618123263361e+01
2.419403075804e+01
1.958627999793e+01
1.832136717100e+01
2.017360001966e+01
2.165589960760e+01
2.811558717207e+01
1.922592592933e+01
-1.550327843685e+01
2.094870023187e+01
1.849415727038e+01
-1.674408275819e+01
-3.848340170962e+01
-6.259347214189e+00
-1.951884745220e+01
8.094910251129e-01
-3.605847043378e+00
4.863197520726e+00
3.407887641995e+00
7.906839884610e+00
7.986987694951e+00
1.022903030153e+01
1.066184084061e+01

SCALARS node_materi_stress_average_a_sig float
LOOKUP_TABLE default
-8.040546749051e+00
-7.757444415471e+01
-2.423000495859e+02
-1.910953567698e+02
-1.285989139972e+01
-2.232930824961e+01
-3.211651126318e+01
-4.586426262606e+01
-6.103712553693e+01
-7.551910969915e+01
-8.946101452296e+01
-1.028911411381e+02
-1.158428839849e+02
-1.284783456276e+02
-1.409654112176e+02
-1.528665499817e+02
-1.635120696991e+02
-1.748718228354e+02
-1.863901937789e+02
-1.980181769844e+02
-2.104193193574e+02
-2.229759227226e+02
-2.350162815004e+02
-1.917640655022e+02
-1.910996066842e+02
-1.913240131061e+02
-1.913945211349e+02
-1.911938449483e+02
-1.917700224058e+02
-1.923009462945e+02
-1.923418275961e+02
-1.932564702077e+02
-1.936653209798e+02
-1.939253318474e+02
-1.949448666545e+02
-1.962122651799e+02
-1.968077866530e+02
-1.978496828277e+02
-1.985637582889e+02
-1.999464300492e+02
-2.021921453459e+02
-2.041610083735e+02
-2.062793759410e+02
-2.082718232723e+02
-2.104541662758e+02
-2.126775031506e+02
-2.149862115050e+02
-2.174792111099e+02
-2.200054842855e+02
-2.223131645770e+02
-2.246162068915e+02
-2.265797307628e+02
-2.290809783194e+02
-2.308422654749e+02
-2.321171206060e+02
-2.339696602246e+02
-2.357179925902e+02
-2.372562194365e+02
-2.385724851507e+02
-2.396694697436e+02
-2.403782949381e+02
-2.408844923408e+02
-2.411289956388e+02
-2.417341968464e+02
-2.425743603589e+02
-2.429210364487e+02
-2.413692780457e+02
-2.428106603273e+02
-2.422660038852e+02
-2.426181442127e+02
-2.430259734788e+02
-2.429439928458e+02
-8.986588646092e+01
-1.018903912063e+02
-1.138428763783e+02
-1.254829840356e+02
-1.373420886432e+02
-1.493126710171e+02
-1.609731977774e+02
-1.724776191831e+02
-1.844276010371e+02
-5.925032876886e+01
-8.303475188885e+01
-3.336506403512e+01
-2.914932321480e+01
-2.787557890121e+01
-2.530126225569e+01
-2.269270668148e+01
-3.419199127128e+01
-4.671048618380e+01
-5.922046181182e+01
-7.105852236222e+01
-9.665470670657e+00
-1.698725700822e+01
-2.901193869514e+01
-4.106992350433e+01
-5.315028607817e+01
-6.518978617126e+01
-7.607236832462e+01
-7.688643180547e+01
-7.693710454093e+01
-7.690323702241e+01
-7.870789844872e+01
-7.736853672460e+01
-7.752327022319e+01
-7.783936323881e+01
-7.837096217954e+01
-7.868762547857e+01
-7.913402614838e+01
-7.960078142253e+01
-8.034642499258e+01
-8.129267598360e+01
-8.189011368480e+01
-9.292725460334e+01
-9.560643425971e+01
-8.720172436778e+01
-5.515261346480e+01
-2.487075645056e+01
-1.361649513767e+01
-1.027061774801e+01
-9.019113915804e+00
-8.461816422145e+00
-8.300868891953e+00
-8.645932754250e+00
-8.340668266437e+00
-7.860637998561e+00
-7.701900109634e+00
-7.746180323991e+00
-7.716118209481e+00
-7.541538943793e+00
-7.417987669918e+00
-1.064492877329e+01
-1.068210754365e+01
-1.059803637337e+01
-1.052584127134e+01
-1.041936860875e+01
-1.027514614315e+01
-1.009086656345e+01
-9.863949315113e+00
-9.591842241727e+00
-9.273040904915e+00
-8.906376309598e+00
-8.494288520364e+00
-8.049408331746e+00
-7.599020031322e+00
-7.115830407702e+00
-6.622594358209e+00
-6.198697531406e+00
-5.924318949183e+00
-6.035129063149e+00
-6.601570915782e+00
-7.899582433546e+00
-1.040122376620e+01
-1.241709805833e+01
-1.725021843385e+01
-1.801937910577e+01
-1.582484326076e+01
-1.512851694051e+01
-1.486588529159e+01
-1.482860251657e+01
-1.494553075964e+01
-1.510209121553e+01
-1.529903189639e+01
-1.547574643805e+01
-1.567545351568e+01
-1.587683283477e+01
-1.606658521952e+01
-1.623665434404e+01
-1.638353480143e+01
-1.650736296773e+01
-1.660680872559e+01
-1.668094021930e+01
-1.673166524043e+01
-1.675801383238e+01
-1.680401661134e+01
-1.694988751189e+01
-2.897299694682e+01
-2.885673692734e+01
-2.883039469451e+01
-2.881468547421e+01
-2.880248908362e+01
-2.879210642717e+01
-2.878346089107e+01
-2.877616834482e+01
-2.877159210268e+01
-2.876701315114e+01
-2.877895935620e+01
-2.882616302833e+01
-2.893683200115e+01
-2.908078804902e+01
-2.924917671906e+01
-2.952262758525e+01
-2.988662155538e+01
-3.043589895170e+01
-3.208004250266e+01
-3.061624387704e+01
-4.405039637453e+01
-4.561306497640e+01
-4.405552167228e+01
-4.338620836586e+01
-4.289778804599e+01
-4.244995209958e+01
-4.206493884050e+01
-4.176563945037e+01
-4.154268308440e+01
-4.137464772231e+01
-4.124625386626e+01
-4.115257585179e+01
-4.108968792146e+01
-4.104079354408e+01
-4.100858443429e+01
-4.099047162055e+01
-4.099306111400e+01
-4.101525132555e+01
-4.106115581549e+01
-5.315034671469e+01
-5.314081816508e+01
-5.315624156960e+01
-5.319942670319e+01
-5.326472005990e+01
-5.334407002705e+01
-5.345036065700e+01
-5.358151559931e+01
-5.375746232539e+01
-5.400825904113e+01
-5.434585305279e+01
-5.477394648734e+01
-5.530874058930e+01
-5.593356596442e+01
-5.666410719071e+01
-5.825434768907e+01
-5.679056181796e+01
-6.874125454425e+01
-7.004175153894e+01
-6.850905298979e+01
-6.780652356012e+01
-6.724245155471e+01
-6.680226941154e+01
-6.640746525859e+01
-6.611645591866e+01
-6.596472802409e+01
-6.574197557901e+01
-6.559187151852e+01
-6.548332569011e+01
-6.539062520401e+01
-6.529390668613e+01
-6.531975443195e+01
-6.530385857615e+01
-3.921240384138e+01
-3.085782688855e+01
-2.800631304390e+01
-2.920109322341e+01
-2.182042649807e+01
-2.982453189170e+01
-4.185715772900e+01
-5.450817278246e+01
-6.658711140437e+01
-7.816746929198e+01
-3.547131452902e+01
-2.291230554116e+02
-1.388364605653e+01
-6.504390178390e+01
-2.349063716705e+02
-3.412256835555e+01
-1.352443434266e+02
-2.214544841735e+02
-4.297400695291e+01
-2.135358394277e+02
-6.634698903382e+01
-2.375757644627e+02
-1.150543869942e+01
-2.046348034618e+02
-8.903893635019e+01
-8.324968211798e+01
-1.674079443948e+02
-1.984631136260e+02
-1.929737084385e+02
-1.871510043498e+02
-1.873050841579e+02
-1.903850301799e+02
-9.219186202192e+01
-8.976402824257e+01
-8.963788106167e+01
-1.315183239115e+02
-2.371893444752e+02
-7.831242549991e+01
-1.142942120090e+01
-2.037544478651e+02
-8.760751901620e+01
-3.885321627661e+01
-1.934282636175e+02
-2.184444681061e+02
-2.089738472355e+02
-2.244627239432e+02
-2.323751111722e+02
-2.491035724678e+01
-9.038737490106e+01
-2.341591131220e+02
-1.548213084143e+02
-1.243742830632e+01
-1.095047237661e+02
-1.884653520085e+02
-3.649896331276e+01
-3.337426484340e+01
-5.423438078253e+01
-7.773976656020e+01
-4.124167564993e+01
-1.088815544173e+02
-2.392606030440e+02
-1.093984933313e+01
-1.777517131801e+02
-9.424577861298e+01
-1.000408259870e+02
-1.048989988389e+02
-1.117977437633e+02
-1.173025073813e+02
-1.235317402784e+02
-1.181568744938e+02
-1.299106244611e+02
-1.245174316020e+02
-1.292413170656e+02
-1.363151042603e+02
-1.309757492270e+02
-1.427826640399e+02
-1.375258371280e+02
-1.258230048259e+02
-1.324332147266e+02
-1.209458564578e+02
-1.276216072022e+02
-1.391243868569e+02
-1.343173309943e+02
-1.229741783270e+02
-1.297411705714e+02
-1.184729863591e+02
-1.253353541872e+02
-1.140592209796e+02
-1.211644159663e+02
-1.321253030168e+02
-1.280481784505e+02
-1.171771782560e+02
-1.241360184986e+02
-1.133183765724e+02
-1.201513977652e+02
-1.307073854146e+02
-1.265702838731e+02
-1.158944189878e+02
-1.223561381189e+02
-1.118107072131e+02
-1.182531956570e+02
-1.078420516376e+02
-1.142186135652e+02
-1.244748511249e+02
-1.204017479245e+02
-1.103830805244e+02
-1.163730053744e+02
-1.263991959166e+02
-1.221600475383e+02
-1.321906457283e+02
-1.278575984360e+02
-1.180526299564e+02
-1.234710817594e+02
-1.333470162744e+02
-1.288402191149e+02
-1.189697272236e+02
-1.241200628556e+02
-1.345236623134e+02
-1.295134208312e+02
-1.190636992216e+02
-1.240333164229e+02
-1.351477881640e+02
-1.294609737724e+02
-1.181038049162e+02
-1.233971574056e+02
-1.349349940244e+02
-1.287175738426e+02
-1.401401488747e+02
-1.169068744099e+02
-1.221402584564e+02
-1.100106580557e+02
-1.152598767651e+02
-1.369762212031e+02
-1.028254245750e+02
-9.775871255568e+01
-1.081272166347e+02
-1.204814174404e+02
-9.536901767592e+01
-1.007456609238e+02
-8.766224462613e+01
-1.009723917036e+02
-1.458650294701e+02
-9.311604882242e+01
-7.971921360770e+01
-7.431324157226e+01
-6.605911653753e+01
-1.231352651586e+02
-1.348680923434e+02
-1.283952216799e+02
-1.404833803328e+02
-1.343457432792e+02
-7.153909741862e+01
-1.482020687635e+02
-1.466846036287e+02
-1.115332986673e+02
-1.059491115899e+02
-1.366525283635e+02
-1.060773299881e+02
-9.855547199946e+01
-1.114680862918e+02
-1.460771529159e+02
-1.510191850794e+02
-1.565871511130e+02
-1.615734920799e+02
-1.670386296003e+02
-1.723712882881e+02
-1.666966715592e+02
-1.778185316677e+02
-1.719503473672e+02
-1.783537687156e+02
-1.727058005449e+02
-1.832424392604e+02
-1.771610717534e+02
-1.886524861530e+02
-1.823640854064e+02
-1.712209656114e+02
-1.763141013410e+02
-1.652221561025e+02
-1.425105642856e+02
-1.471118025612e+02
-1.530028844459e+02
-1.575002366612e+02
-1.639789554285e+02
-1.688842608552e+02
-1.755685406231e+02
-1.705303313567e+02
-1.492876299288e+02
-1.068132455311e+02
-1.007654710238e+02
-9.767449867489e+01
-9.153299432763e+01
-8.897369325846e+01
-8.276382444425e+01
-8.095733503436e+01
-8.656447895543e+01
-7.940767700286e+01
-8.393803366935e+01
-7.732629670186e+01
-8.026681905217e+01
-1.388521311242e+02
-1.621609147585e+02
-1.740387699927e+02
-1.671733744593e+02
-6.080767748386e+01
-1.875916417487e+02
-1.844667786586e+02
-1.784637933185e+02
-1.822066160846e+02
-5.771989230343e+01
-7.456695711439e+01
-7.605301593580e+01
-1.461733454183e+02
-1.401100499384e+02
-1.905782116863e+02
-6.330078933212e+01
-1.896288123063e+02
-7.320809090942e+01
-1.813722791853e+02
-1.928336210224e+02
-1.609794707631e+02
-1.793438288843e+02
-1.723488653334e+02
-8.777935461246e+01
-8.294241679566e+01
-7.495751668885e+01
-7.740644820202e+01
-8.611942041770e+01
-8.005630368601e+01
-7.080919957617e+01
-7.277999075818e+01
-8.289558105434e+01
-7.547738075681e+01
-6.489923981932e+01
-6.727099457904e+01
-1.995225986634e+02
-7.164179258739e+01
-1.143128631258e+02
-1.966129831766e+02
-1.874903306211e+02
-1.519276487153e+02
-1.459595160803e+02
-1.340524084751e+02
-1.400491081445e+02
-1.518968476918e+02
-1.460692586460e+02
-1.341727637939e+02
-1.402693381820e+02
-1.283347544000e+02
-1.345123234096e+02
-1.463997205840e+02
-1.407350564182e+02
-1.288124632833e+02
-1.350936285690e+02
-1.231288325822e+02
-1.294462541046e+02
-1.414132378858e+02
-4.948119224560e+01
-1.769114768845e+02
-1.889193043530e+02
-1.045164945237e+02
-1.169186845008e+02
-1.239195533666e+02
-1.294466389692e+02
-1.357592163151e+02
-1.477156595398e+02
-6.776334626167e+01
-6.888322106283e+01
-1.579425094110e+02
-1.864465255435e+02
-1.753000451444e+02
-1.021404835996e+02
-9.435529862039e+01
-9.062885705833e+01
-8.219456531519e+01
-8.620330591536e+01
-7.870323541972e+01
-1.670919689623e+02
-1.525899428961e+02
-6.916731110654e+01
-5.601741911667e+01
-1.981542744437e+02
-1.655945832954e+02
-1.432447238680e+02
-1.499423293900e+02
-1.546800205398e+02
-1.615224124980e+02
-1.664571955283e+02
-1.732997634064e+02
-1.683554643742e+02
-1.847322314035e+02
-1.801829805390e+02
-1.236830831305e+02
-1.555912455666e+02
-8.595067110536e+01
-4.388896724028e+01
-5.500251809753e+01
-5.476772784349e+01
-6.915846607907e+01
-2.028693105654e+02
-1.782401657887e+02
-1.712757293072e+02
-7.360536618758e+01
-7.790161007208e+01
-1.917414384518e+02
-1.224288484169e+02
-1.222322512442e+02
-1.162848681611e+02
-3.951623992478e+01
-5.340831682497e+01
-1.578888915427e+02
-7.792668809785e+01
-7.064258902062e+01
-6.809943183706e+01
-6.729245516794e+01
-1.419943594198e+02
-1.538606419497e+02
-1.361158200190e+02
-1.414219708671e+02
-1.966540546296e+02
-5.812833710229e+01
-1.596200802353e+02
-1.717218199571e+02
-1.607336091905e+02
-1.223770037819e+02
-6.056530524123e+01
-6.050766861864e+01
-9.303352853724e+01
-7.013853284637e+01
-6.072730647357e+01
-2.090144914900e+02
-1.636179992828e+02
-1.752098249373e+02
-1.632819689048e+02
-1.872849670936e+02
-4.569976476018e+01
-2.090821348459e+02
-1.916060803456e+02
-1.825599140859e+02
-1.761106585046e+02
-8.021541439577e+01
-7.290108157689e+01
-6.292776696519e+01
-6.466575407496e+01
-1.127833401006e+02
-8.318843579655e+01
-1.094201709526e+02
-1.026693322609e+02
-9.765880319679e+01
-9.032824862928e+01
-8.243070505409e+01
-9.430625281369e+01
-1.410716875380e+02
-1.307804099778e+02
-1.601581927499e+02
-1.515774623329e+02
-1.581404440698e+02
-1.643630699681e+02
-1.168159476075e+02
-1.111177583703e+02
-4.740412270701e+01
-4.304055329783e+01
-1.450806279007e+02
-2.025042939951e+02
-1.635040335043e+02
-1.694900268346e+02
-1.639422858633e+02
-2.025209281613e+02
-1.034176949252e+02
-1.484247858857e+02
-6.845591737907e+01
-1.412155092320e+02
-3.443457921803e+01
-1.507854893299e+02
-2.036690878364e+02
-2.103825345347e+02
-1.969674055350e+02
-9.502660111809e+01
-1.473690212961e+02
-1.430333158565e+02
-9.083030149011e+01
-8.557027162620e+01
-9.256261417928e+01
-8.022259563539e+01
-9.641090767240e+01
-8.923880054321e+01
-1.908939337388e+02
-1.919516834265e+02
-1.875137567221e+02
-1.813250385424e+02
-2.040831215364e+02
-1.985918470278e+02
-7.468968341638e+01
-6.974338271057e+01
-1.696067791861e+02
-9.598589124548e+01
-2.147362784613e+02
-2.083459196488e+02
-6.646022175811e+01
-6.239250537339e+01
-1.658718062296e+02
-5.407602797642e+01
-5.496876370150e+01
-5.310221031200e+01
-2.288090973371e+02
-8.722112765519e+01
-2.160248863443e+02
-9.485150241129e+01
-1.716856015777e+02
-1.535766539538e+02
-9.807229188944e+01
-1.902260509811e+02
-1.594913931707e+02
-1.723438570807e+02
-1.101803313461e+02
-1.038332819731e+02
-1.158009127321e+02
-6.719589110432e+01
-6.107685258343e+01
-1.587390420006e+02
-9.105199601911e+01
-9.811175221015e+01
-6.116468467786e+01
-7.343928667227e+01
-1.426348450832e+02
-1.374392569354e+02
-1.576027901429e+02
-1.625236945894e+02
-1.478565254604e+02
-1.665708167512e+02
-1.558957436533e+02
-1.498553775507e+02
-1.695344982969e+02
-1.770927470124e+02
-1.030939453875e+02
-9.929698878585e+01
-1.003238203484e+02
-1.752856403114e+02
-2.225193000992e+02
-2.170310011550e+02
-3.045932201738e+01
-3.877387232540e+01
-5.236568549028e+01
-5.340744334552e+01
-1.751830269037e+02
-1.701610518291e+02
-1.817733804044e+02
-6.530881705465e+01
-1.701574674035e+02
-2.144361142127e+02
-2.078008606372e+02
-2.224958916640e+02
-1.897889202050e+02
-2.016934745880e+02
-1.991877406488e+02
-6.950686686741e+01
-1.681519338272e+02
-1.041706023152e+02
-7.209976970187e+01
-9.855491950389e+01
-1.053116820203e+02
-9.217363412156e+01
-5.097866608090e+01
-1.018349328665e+02
-1.097237132850e+02
-2.426347257284e+01
-1.808906826130e+02
-2.306859572306e+01
-2.700612611039e+01
-2.206865817898e+02
-2.140119206162e+02
-2.259774657115e+02
-2.192094248999e+02
-2.073325778461e+02
-2.130942450822e+02
-9.756124758603e+01
-2.266991448912e+02
-2.189874319162e+02
-2.325175381452e+02
-7.329762923780e+01
-6.658450388530e+01
-5.694761951569e+01
-4.398141809061e+01
-1.942755143030e+02
-1.854641672582e+02
-1.972309199985e+02
-1.855678976691e+02
-9.887094374890e+01
-9.810385501675e+01
-1.090447100334e+02
-1.074585837266e+02
-1.184217708147e+02
-1.167236549361e+02
-1.278679326485e+02
-2.040078787079e+02
-4.356630540253e+01
-8.419063728605e+01
-2.108753827534e+02
-2.044779283650e+02
-7.466784794258e+01
-6.183799593209e+01
-2.229615113359e+02
-9.028775172989e+01
-1.880464696229e+02
-6.427259769840e+01
-6.192685832980e+01
-9.387741972886e+01
-8.742845295622e+01
-6.945754664449e+01
-6.095316659612e+01
-1.779799538291e+02
-3.545582326815e+01
-5.266700617304e+01
-1.293814101357e+02
-4.408350569796e+01
-1.916115188942e+02
-9.740599213996e+01
-1.023890523455e+02
-6.150884991869e+01
-7.574278567723e+01
-1.192632354977e+02
-1.064228266097e+02
-1.012601097015e+02
-1.040915516716e+02
-6.491992590438e+01
-5.013047466938e+01
-1.161955816788e+02
-1.584486005390e+02
-1.646065573246e+02
-1.758806963736e+02
-1.708721898602e+02
-1.592728795996e+02
-1.656160374474e+02
-1.770879864038e+02
-1.724261326882e+02
-1.858377789221e+02
-1.788504692907e+02
-1.667609162688e+02
-1.729750696888e+02
-1.842196309929e+02
-1.611888149616e+02
-2.161981231983e+02
-1.049539808397e+02
-6.562119068709e+01
-5.536287406887e+01
-1.068563925134e+02
-1.964413251650e+02
-1.938253603849e+02
-8.494508922045e+01
-2.066350220258e+02
-1.077166778401e+02
-7.370334068183e+01
-2.112609135131e+02
-1.529465030696e+02
-1.473584904160e+02
-1.410738997993e+02
-1.923230002315e+02
-1.219134453372e+02
-2.202864621887e+02
-1.513413918072e+02
-1.451662820978e+02
-1.348349499753e+02
-1.602024974526e+02
-2.273443036370e+02
-2.179157870463e+02
-2.194336016050e+02
-2.074605206666e+02
-2.306778236387e+02
-2.010235207379e+02
-2.032050125099e+02
-8.964552642192e+01
-9.537422505250e+01
-1.047320621341e+02
-1.004393223312e+02
-9.150804678603e+01
-9.603689499025e+01
-1.048457809389e+02
-9.146200787975e+01
-1.742499708697e+02
-2.335904818864e+02
-1.618510769292e+02
-1.566645977450e+02
-1.461854375961e+02
-1.256051037982e+02
-1.323583401810e+02
-1.438685621353e+02
-1.186157926778e+02
-1.565833898777e+02
-2.344583757913e+02
-1.546158199531e+02
-1.272996115976e+02
-9.127540976557e+01
-1.024372480767e+02
-1.035068176916e+02
-1.147134741941e+02
-1.028062086261e+02
-1.478355733101e+02
-1.529701888180e+02
-1.466626843802e+02
-1.580609382404e+02
-1.515443244420e+02
-1.408305129107e+02
-1.629091654189e+02
-1.556198543827e+02
-8.998518892810e+01
-4.072600272469e+01
-4.305082908514e+01
-3.415988842629e+01
-4.878780360305e+01
-5.572597702975e+01
-6.118152670131e+01
-6.365479932300e+01
-5.391018349816e+01
-1.885528529244e+01
-2.947781810527e+01
-1.564021570097e+01
-2.610079949227e+01
-4.075288741990e+01
-5.194144528806e+01
-2.356282223304e+02
-1.221102252769e+02
-1.159928069169e+02
-1.036547372975e+02
-1.103897205029e+02
-1.270496959523e+02
-9.656086076620e+01
-9.167409724915e+01
-1.134739062574e+01
-1.912085391417e+01
-1.828186714477e+01
-2.778351775654e+01
-2.783570517780e+01
-1.953618994564e+01
-1.968495999753e+01
-1.141265240936e+01
-1.981181486361e+01
-2.891741616069e+01
-1.125360149054e+01
-1.434609267164e+02
-1.498738684147e+02
-2.351583152562e+02
-9.042718267642e+01
-1.304933457353e+01
-1.850836347926e+02
-1.878750366769e+02
-1.877385533971e+02
-2.163811117336e+02
-2.225534903296e+02
-1.850882692060e+02
-8.230097526856e+01
-1.822063758761e+02
-1.649553457386e+02
-6.709546257802e+01
-8.165403919305e+01
-1.803748217271e+02
-1.661259346381e+02
-2.048950814758e+02
-1.702768630166e+02
-1.940792743841e+02
-2.201580539823e+02
-4.645029041775e+01
-1.225074224282e+02
-1.174608639913e+02
-1.469857669021e+02
-8.525347607873e+01
-1.352810778515e+02
-5.228752114069e+01
-2.006396525301e+02
-1.045618195187e+02
-1.407866210727e+02
-1.133959808402e+02
-9.014766221578e+01
-7.830439212689e+01
-1.092153137982e+02
-1.338573865276e+02
-1.840117505433e+02
-1.532500069386e+02
-1.322844776132e+01
-1.903310147671e+02
-1.559371634846e+02
-1.280883026563e+02
-1.808027796058e+02
-6.340557982633e+01
-1.521206165891e+02
-1.744890411306e+02
-1.158625251306e+02
-3.880571201316e+01
-1.102329016077e+02
-2.152769634991e+02
-1.522763362953e+02
-7.731666636606e+01
-1.378888079384e+02
-1.098962399488e+02
-8.336774273322e+01
-1.700922412165e+02
-1.327540147228e+02
-1.943935949985e+02
-1.592594822172e+02
-8.326548265688e+01
-2.018097305458e+02
-1.306486619732e+02
-1.638903316653e+02
-1.595472346874e+02
-1.125185805922e+02
-1.576752407070e+02
-1.403387587755e+02
-1.862401468660e+02
-9.967984387015e+01
-1.365130831615e+02
-1.441025876084e+02
-1.347342935967e+02
-1.743325880095e+02
-1.961091458503e+02
-7.391971341796e+01
-8.691039170385e+01
-1.281231577584e+02
-1.848186833748e+02
-1.754798118273e+02
-9.824875105758e+01
-1.951958878032e+02
-1.690212139310e+02
-1.388521562697e+02
-5.477320916237e+01
-6.110208638224e+01
-9.461705833209e+01
-1.286202119986e+02
-1.500328684523e+02
-1.827520042390e+02
-2.007375492397e+02
-1.843366816944e+02
-3.761250835631e+01
-8.957441490542e+01
-2.062992818024e+02
-1.437017860697e+02
-1.928771355983e+02
-1.445847387181e+02
-2.025032680880e+02
-6.744232294014e+01
-2.119848269941e+02
-1.834899977402e+02
-8.741228363087e+01
-8.765366217067e+01
-2.260308513403e+02
-1.958507362024e+02
-1.454301452072e+02
-1.391292424118e+02
-7.208138007501e+01
-1.550747586965e+02
-1.410534329802e+02
-1.915203192213e+02
-2.010096433280e+02
-1.353992836415e+02
-1.489435870837e+02
-1.601934116974e+02
-2.817822389785e+01
-7.878695583724e+01
-1.540704529986e+02
-9.987861337324e+01
-1.451827270583e+02
-2.089187843217e+02
-1.591660628514e+02
-1.088263268992e+02
-1.642156575566e+02
-6.031391394889e+01
-1.417979455416e+02
-1.692207891858e+02
-1.526572422994e+02
-3.042950638972e+01
-1.518632922778e+02
-2.097412215219e+02
-1.049412288382e+02
-1.511563111178e+02
-1.537605409849e+02
-4.839058438127e+01
-1.615487378634e+02
-1.644457562575e+02
-1.583158759851e+02
-1.389653454207e+02
-1.724471485403e+02
-5.682670129710e+01
-7.740119134894e+01
-6.470056001814e+01
-1.139112217054e+02
-1.693948302939e+02
-3.751131055234e+01
-1.547244929316e+02
-4.845402200656e+01
-1.095851913488e+02
-1.775495839849e+02
-1.204605113924e+02
-1.142585541118e+02
-6.934261699832e+01
-1.090333373743e+02
-1.492012134055e+02
-1.134085996847e+02
-1.071043989891e+02
-1.765335778290e+02
-1.117811687162e+02
-1.871612233895e+02
-2.364324162964e+02
-9.674026366528e+01
-3.633883549001e+01
-8.187091403864e+01
-4.985171762002e+01
-9.319687682046e+01
-1.558359383099e+02
-9.725916501072e+01
-8.557659131773e+01
-1.905270703202e+02
-2.161429477456e+02
-1.377002614881e+02
-1.991796549342e+02
-1.652502970442e+02
-1.655283487385e+02
-8.724087569810e+01
-2.409032899919e+01
-1.801113536458e+02
-3.071575063488e+01
-4.420437814569e+01
-4.350890036857e+01
-8.794200791568e+01
-4.269553359724e+01
-3.340131125391e+01
-2.156214826589e+02
-9.925382617984e+01
-1.822996353354e+02
-3.398294396205e+01
-1.801587657853e+02
-2.080465972042e+02
-2.370396782658e+02
-1.946542856672e+02
-4.505338971381e+01
-1.116213953960e+02
-1.983557002971e+02
-1.472240238659e+02
-2.382122503121e+02
-9.875349827360e+01
-1.777137259608e+02
-6.846543176328e+01
-1.776726390852e+02
-1.676672440659e+02
-1.122074369541e+02
-1.126086212125e+02
-2.283732469404e+02
-1.870021440275e+02
-4.830090750092e+01
-1.372346108917e+02
-1.105508851927e+02
-6.392100232224e+01
-2.254968681372e+02
-1.787613066525e+02
-2.274671803805e+02
-2.723642573577e+01
-2.011280248906e+01
-2.260325092721e+02
-1.952127929009e+02
-6.913386212334e+01
-1.909314367020e+02
-5.271749965751e+01
-8.641547613058e+01
-1.940018444976e+01
-2.381065187736e+02
-1.794226313282e+02
-1.215964606137e+02
-9.344220536924e+01
-7.885751635094e+01
-1.949607651463e+02
-3.440474415735e+01
-1.799517994941e+02
-2.246321755324e+02
-1.850354110666e+02
-2.265537663489e+02
-7.130681270234e+01
-2.093575288628e+02
-2.112892919574e+02
-8.686465032459e+01
-1.854941996519e+02
-9.867313725388e+01
-3.807338093741e+01
-1.883017880842e+02
-1.018462564937e+01
-8.589497755592e+01
-2.391334317808e+02
-3.518819340524e+01
-1.055762561979e+02
-1.939917623358e+02
-1.476236834751e+02
-1.588376646115e+02
-5.390714697970e+01
-8.155440293305e+01
-1.267382118690e+02
-2.120847835186e+02
-1.839000343689e+02
-1.186903476790e+02
-5.570380629719e+01
-1.879003892538e+02
-1.310140160239e+02
-1.920612143979e+02
-2.087865520736e+02
-4.940764893955e+01
-1.577780986644e+02
-1.872589254853e+01
-2.291972420153e+02
-1.361945985183e+02
-1.251004264226e+01
-1.136952326842e+01
-2.536822037980e+01
-2.264366781417e+01
-3.843780504298e+01
-3.537932635839e+01
-5.156684062305e+01
-4.676310000743e+01
-6.385163599068e+01
-5.955677825911e+01
-7.561513302424e+01
-7.085648548141e+01

SCALARS node_materi_stress_size_dev_sd_sig float
LOOKUP_TABLE default
4.555260016869e+00
4.993733595893e+01
1.836847237913e+02
1.440921200028e+02
9.958560251347e+00
2.194398177882e+01
3.238375535436e+01
4.120965307701e+01
4.776618582892e+01
5.535332553587e+01
6.372369694852e+01
7.265802445995e+01
8.207798636816e+01
9.196113559872e+01
1.024952241147e+02
1.127464407032e+02
1.221167509176e+02
1.327062789697e+02
1.435216770025e+02
1.532632319228e+02
1.620463061425e+02
1.707307587527e+02
1.789026356137e+02
1.447165887295e+02
1.443197307521e+02
1.445032291451e+02
1.446220216611e+02
1.444015499573e+02
1.448750792236e+02
1.451446763426e+02
1.454035673020e+02
1.461143572839e+02
1.465822968062e+02
1.467525345116e+02
1.477235940551e+02
1.486440025509e+02
1.494634137973e+02
1.502602880139e+02
1.511636405439e+02
1.523996197069e+02
1.541826908237e+02
1.560752533429e+02
1.580177723001e+02
1.598140830075e+02
1.615863537644e+02
1.635487478540e+02
1.654531682159e+02
1.674264380868e+02
1.693256446605e+02
1.711516273448e+02
1.727559634554e+02
1.742160695693e+02
1.758469738430e+02
1.771668716667e+02
1.780136282427e+02
1.791992154284e+02
1.803425456073e+02
1.813269875891e+02
1.821259895960e+02
1.827859723722e+02
1.831782678839e+02
1.834169189632e+02
1.835202991131e+02
1.837900231369e+02
1.841954689617e+02
1.843336093299e+02
1.833732235244e+02
1.841114836690e+02
1.837801871414e+02
1.839471918777e+02
1.841990035861e+02
1.841547996440e+02
5.917759172713e+01
6.870471407030e+01
7.817640323909e+01
8.761496695068e+01
9.741188958490e+01
1.072884663193e+02
1.173064154302e+02
1.273713875295e+02
1.377631622318e+02
4.989357054613e+01
4.865825363789e+01
4.980369467233e+01
4.357195661264e+01
4.100333582712e+01
3.161303726528e+01
1.983123846038e+01
2.137611318806e+01
2.619759779083e+01
3.207250535252e+01
3.953974805622e+01
6.977940797448e+00
6.842634763735e+00
1.387282554075e+01
2.248871582918e+01
3.138440304254e+01
4.031169145110e+01
4.857593613452e+01
4.903164840011e+01
4.900555121826e+01
4.878395859770e+01
4.985799633316e+01
4.863730048219e+01
4.832166195589e+01
4.825711603336e+01
4.830026318838e+01
4.807827470301e+01
4.786167179288e+01
4.775597857482e+01
4.776875995254e+01
4.804386180333e+01
3.754321869919e+01
3.521508782277e+01
3.691912613859e+01
3.642683387005e+01
3.763328009046e+01
2.657911372306e+01
1.072478289658e+01
6.139840867210e+00
4.709326994583e+00
4.677872675270e+00
4.603785641501e+00
4.643035978826e+00
4.942913816557e+00
4.849188217200e+00
4.631087229977e+00
4.542323295255e+00
4.517322734164e+00
4.560319723449e+00
4.809178629523e+00
6.052340306589e+00
5.997577580372e+00
5.951060227609e+00
5.872314601815e+00
5.752722212158e+00
5.592715468044e+00
5.394511931436e+00
5.160149467393e+00
4.898131011447e+00
4.623878847997e+00
4.358584337766e+00
4.134169284138e+00
3.992092824000e+00
3.967316166024e+00
4.087115120564e+00
4.369459807742e+00
4.771222005615e+00
5.194463149563e+00
5.478110357336e+00
5.948347496487e+00
7.307642019912e+00
1.071519731824e+01
1.848990907749e+01
1.326762935515e+01
1.208347059791e+01
1.000023394516e+01
9.147992787276e+00
8.533224547419e+00
8.047309658354e+00
7.704382303167e+00
7.443419939323e+00
7.264072431832e+00
7.138662220244e+00
7.041200619988e+00
6.970467130021e+00
6.923492607356e+00
6.895084609057e+00
6.879444495075e+00
6.872323744316e+00
6.869424347435e+00
6.867544357164e+00
6.865180132934e+00
6.858380633857e+00
6.815009075093e+00
6.805034713017e+00
1.382129751333e+01
1.381325882986e+01
1.382567718956e+01
1.384260037964e+01
1.386139043442e+01
1.388598986599e+01
1.391778472508e+01
1.395836794824e+01
1.400940057584e+01
1.406836710927e+01
1.413378641393e+01
1.420500741044e+01
1.428698731818e+01
1.443085649583e+01
1.465640147880e+01
1.497722318066e+01
1.540771654465e+01
1.613380542398e+01
1.786440382198e+01
1.797952817358e+01
2.338787502556e+01
2.400087124371e+01
2.283903385981e+01
2.235644393000e+01
2.208945566740e+01
2.194524950487e+01
2.193962272835e+01
2.198397660603e+01
2.204127850533e+01
2.209758135796e+01
2.216006584925e+01
2.222575735912e+01
2.227655417797e+01
2.231569630303e+01
2.234809986837e+01
2.236789105173e+01
2.238228716948e+01
2.242116807272e+01
2.247201643498e+01
3.137985865696e+01
3.127099576312e+01
3.121160775597e+01
3.116800030698e+01
3.108895793533e+01
3.100769462963e+01
3.091597888551e+01
3.078782628617e+01
3.062352505759e+01
3.050427806662e+01
3.036299080497e+01
3.022478738051e+01
3.015306129817e+01
3.013210296332e+01
3.040470157435e+01
3.130873210124e+01
3.011842749247e+01
3.800147778183e+01
3.950948122047e+01
3.889459867607e+01
3.887228858706e+01
3.900320879849e+01
3.917520439310e+01
3.930673753637e+01
3.948508616953e+01
3.967934432703e+01
3.983970059637e+01
3.996704758269e+01
4.007862621924e+01
4.019539585667e+01
4.023349218325e+01
4.037731317607e+01
4.049813709622e+01
5.538671906692e+01
4.608687506636e+01
4.190827204968e+01
4.024164290381e+01
2.469452496667e+01
2.070281160719e+01
2.459016669924e+01
2.960540346912e+01
3.638259584599e+01
4.454998245880e+01
4.722023719471e+01
1.770829439018e+02
6.311983187659e+00
4.107789542825e+01
1.805553308418e+02
3.861488659347e+01
9.763323356751e+01
1.714544903636e+02
2.865051946494e+01
1.647365987647e+02
3.740663494586e+01
1.813291959020e+02
6.804075901167e+00
1.563729725405e+02
5.301608106183e+01
5.993377804706e+01
1.259139384959e+02
1.501591964757e+02
1.450786933374e+02
1.403238353059e+02
1.401124675066e+02
1.428476848445e+02
5.663598329234e+01
5.664370364513e+01
5.775215717245e+01
9.251958744458e+01
1.806511837270e+02
4.029111896347e+01
7.787136057175e+00
1.574117488226e+02
5.717121748987e+01
3.688466939540e+01
1.455387097092e+02
1.688683491382e+02
1.605686811481e+02
1.739308508265e+02
1.791925715654e+02
2.234934955372e+01
5.610943640992e+01
1.797697320822e+02
1.121122799438e+02
6.272746651426e+00
7.748187958760e+01
1.415891401500e+02
3.180243164140e+01
4.338514469077e+01
3.229838503931e+01
4.443874497452e+01
5.442256896819e+01
7.411053300592e+01
1.818847870786e+02
7.352744502435e+00
1.319850804020e+02
5.724150182299e+01
6.200352758392e+01
6.616273317443e+01
7.204524012883e+01
7.659181603751e+01
8.204080004738e+01
7.764048798340e+01
8.778254828945e+01
8.360169090527e+01
8.668018133973e+01
9.384252781624e+01
8.992055574134e+01
1.001742536198e+02
9.655280700783e+01
8.631101726055e+01
9.329507441640e+01
8.289988144534e+01
9.027823926795e+01
1.004618386171e+02
9.785248293272e+01
8.757100813683e+01
9.549320838352e+01
8.538744670386e+01
9.355596999082e+01
8.376770230632e+01
9.197815815784e+01
1.016666755846e+02
1.000344604034e+02
9.076136689122e+01
9.866101847021e+01
8.995924923744e+01
9.767944205074e+01
1.061376188217e+02
1.045909719634e+02
9.657072862384e+01
1.030738075708e+02
9.576210030822e+01
1.021360392034e+02
9.539242881801e+01
1.013975765928e+02
1.079942594478e+02
1.067890088116e+02
1.002915415176e+02
1.050352075319e+02
1.115520170248e+02
1.090509196416e+02
1.156524200467e+02
1.124724528462e+02
1.059529213159e+02
1.086012212970e+02
1.153911252907e+02
1.110156468102e+02
1.041290568465e+02
1.062514407171e+02
1.140894648779e+02
1.088330990000e+02
1.011825827002e+02
1.029455597234e+02
1.108539843970e+02
1.046444062130e+02
9.634144924244e+01
9.819622525648e+01
1.070526239899e+02
1.006090850145e+02
1.099626632599e+02
9.153585928125e+01
9.405219676244e+01
8.480131738675e+01
8.750198139774e+01
1.130998229069e+02
7.817942072008e+01
7.574672639346e+01
8.111675831269e+01
9.070026238325e+01
7.177852760795e+01
7.496295258710e+01
6.569541543246e+01
8.865738748057e+01
1.077140299976e+02
6.907821592955e+01
5.994850426508e+01
5.645420310914e+01
5.095440258675e+01
8.139648778994e+01
9.157540132755e+01
8.610475057524e+01
9.657038085178e+01
9.139247220534e+01
5.458101628599e+01
1.042428348924e+02
1.019455865788e+02
7.734979290217e+01
8.182438062780e+01
1.183350427580e+02
7.838326711220e+01
7.264239527550e+01
8.188673866957e+01
1.163668433186e+02
1.197920608959e+02
1.263050052931e+02
1.298710552289e+02
1.362248859220e+02
1.395594592734e+02
1.332899808267e+02
1.427631775760e+02
1.366024652629e+02
1.451092169494e+02
1.418872406789e+02
1.459910458393e+02
1.399995022816e+02
1.492344002240e+02
1.434702850648e+02
1.335405759929e+02
1.371471301269e+02
1.270572756848e+02
1.226595979457e+02
1.258890650520e+02
1.305960279129e+02
1.338355831497e+02
1.384542545321e+02
1.413888673319e+02
1.460236645621e+02
1.428654241915e+02
1.067260788047e+02
9.866762134995e+01
9.393612719506e+01
9.258054896232e+01
8.780539059368e+01
8.670018444514e+01
8.176683068984e+01
8.088993328962e+01
8.482030879404e+01
7.919000376639e+01
8.194910598007e+01
7.668404477222e+01
7.794126840062e+01
1.094939417818e+02
1.366769139880e+02
1.440043951611e+02
1.389763345160e+02
4.719131827110e+01
1.469921422065e+02
1.501325015856e+02
1.468884068728e+02
1.505138374999e+02
4.587049182915e+01
7.581737084776e+01
7.591229328634e+01
1.017040277746e+02
9.659993898570e+01
1.547250904202e+02
4.954360661911e+01
1.513417311439e+02
7.417903334343e+01
1.408870098056e+02
1.505170743791e+02
1.267334704876e+02
1.464608294747e+02
1.412009039973e+02
8.369560929589e+01
7.846557342187e+01
7.256838869505e+01
7.193833192940e+01
7.866122405159e+01
7.148655302928e+01
6.409118445045e+01
6.304543336468e+01
7.125680298688e+01
6.259282658603e+01
5.290463862188e+01
5.301722234726e+01
1.557731410406e+02
7.237538347910e+01
7.587110222583e+01
1.579374621857e+02
1.533126298576e+02
1.069633707064e+02
1.019485885220e+02
9.168359600876e+01
9.714363397334e+01
1.074510467230e+02
1.026563571133e+02
9.248879986895e+01
9.797106258906e+01
8.792007915027e+01
9.340659012627e+01
1.035021675985e+02
9.895522626361e+01
8.898948975957e+01
9.449224899052e+01
8.463000056068e+01
9.002882585997e+01
1.000265215436e+02
4.160133643059e+01
1.472677382108e+02
1.547677232439e+02
7.626469068977e+01
8.503708852620e+01
9.128098146782e+01
9.468775975942e+01
9.546972620187e+01
1.056235936707e+02
6.994533724295e+01
6.935615576529e+01
1.121816382642e+02
1.447630572969e+02
1.345822814574e+02
8.175478467783e+01
7.325434944923e+01
7.387862011468e+01
6.494670179993e+01
6.448748374104e+01
6.624664038380e+01
1.383078187565e+02
1.091179560980e+02
5.288298201833e+01
4.311503160125e+01
1.540862673095e+02
1.392748321547e+02
1.111103773601e+02
1.184185282203e+02
1.200767609194e+02
1.269536008755e+02
1.289069193846e+02
1.354865227422e+02
1.334747518433e+02
1.488005812002e+02
1.417551606688e+02
8.541405186904e+01
1.314124007161e+02
7.149432299626e+01
3.750802495493e+01
4.197089589039e+01
4.467308323265e+01
5.272944594056e+01
1.622885870836e+02
1.377608596499e+02
1.310837837588e+02
5.593302077933e+01
5.563741647011e+01
1.538826596483e+02
8.117149159534e+01
8.251271405710e+01
7.804631712706e+01
3.617728914280e+01
4.258748864791e+01
1.130132273283e+02
7.568367381134e+01
6.876161014659e+01
7.010933474527e+01
6.983619211873e+01
1.008074553131e+02
1.109252394730e+02
1.008667298572e+02
1.044460667742e+02
1.589240506825e+02
4.374872836536e+01
1.157991678890e+02
1.435175435352e+02
1.351853932094e+02
8.839275425439e+01
6.325926499809e+01
6.415831059976e+01
7.930234595665e+01
5.454292867381e+01
4.780005487820e+01
1.662616046486e+02
1.178712095060e+02
1.395848656044e+02
1.315850820926e+02
1.476563829522e+02
3.261735640878e+01
1.656431012626e+02
1.487298813693e+02
1.398956515833e+02
1.336066459690e+02
7.533558937362e+01
6.814500794007e+01
6.128314513552e+01
6.032273291612e+01
7.336557475647e+01
7.485953311660e+01
7.245157946224e+01
6.555565801414e+01
6.234625530144e+01
6.482401954685e+01
5.640334957569e+01
8.838501348118e+01
1.207829028856e+02
9.755844269606e+01
1.235193575671e+02
1.226947665580e+02
1.137335272151e+02
1.194729711780e+02
7.919046972180e+01
7.482860384648e+01
3.756433955518e+01
3.291385974141e+01
1.132961910711e+02
1.610770487495e+02
1.174013467640e+02
1.227533268436e+02
1.175253199312e+02
1.626396346545e+02
9.645461235261e+01
1.268635095678e+02
6.874414458444e+01
1.149938709606e+02
2.775041198104e+01
1.103075660876e+02
1.576406910117e+02
1.625092006117e+02
1.563769605691e+02
5.780521224717e+01
1.216277259559e+02
1.194753113969e+02
5.568716559861e+01
5.267478217810e+01
5.972652758258e+01
5.035879478036e+01
8.026305732172e+01
7.259989562261e+01
1.472823111575e+02
1.499792868528e+02
1.428731142853e+02
1.366750784209e+02
1.613047034882e+02
1.586588911118e+02
5.552577491622e+01
4.708821377552e+01
1.234156455011e+02
5.918092282042e+01
1.685596790231e+02
1.641983726639e+02
6.659670615178e+01
6.218065508883e+01
1.213464740905e+02
5.307620513405e+01
5.125762371302e+01
5.478789743737e+01
1.746506061940e+02
5.705149231270e+01
1.660800539342e+02
6.589067710618e+01
1.262861569985e+02
1.277245379820e+02
8.215766959301e+01
1.553785599974e+02
1.158556872907e+02
1.272221677387e+02
7.266306610207e+01
6.810912542698e+01
7.688496855988e+01
7.009397904207e+01
6.491533929404e+01
1.147363946360e+02
6.692064459345e+01
7.094065274122e+01
4.637065535424e+01
5.676241611151e+01
1.072215959356e+02
1.038891165702e+02
1.173385099449e+02
1.201537335888e+02
1.128608413926e+02
1.392417588348e+02
1.303691884394e+02
1.268099697452e+02
1.240040102215e+02
1.309178386126e+02
8.738512486466e+01
8.634160702162e+01
8.125567701927e+01
1.284340172186e+02
1.707481935345e+02
1.673086224438e+02
2.289428677435e+01
2.829990196522e+01
5.767048648364e+01
5.932132672943e+01
1.280496371358e+02
1.231978987714e+02
1.342044413927e+02
5.031153782090e+01
1.375230884621e+02
1.694195018984e+02
1.658141018405e+02
1.739250693072e+02
1.511121065312e+02
1.587131260454e+02
1.556355946645e+02
6.362197636447e+01
1.235881576963e+02
6.908072893584e+01
5.447714710549e+01
6.489860258593e+01
7.051654302896e+01
6.022878301048e+01
4.326529206827e+01
6.565961038985e+01
7.151484610418e+01
1.623117333144e+01
1.339179944924e+02
1.810400108107e+01
2.278247943358e+01
1.717777900887e+02
1.672616722781e+02
1.746808989710e+02
1.700902372664e+02
1.624711802296e+02
1.657499710696e+02
6.356750380739e+01
1.744540101940e+02
1.691436790980e+02
1.780565469526e+02
4.349514790153e+01
5.873391192818e+01
4.924383973634e+01
4.117223378715e+01
1.476219547638e+02
1.394816413127e+02
1.528749932706e+02
1.431313814044e+02
6.575453632833e+01
6.535860415063e+01
7.394346558095e+01
7.286366344168e+01
8.160739598555e+01
8.028279939575e+01
8.928642993776e+01
1.583206572129e+02
4.727630397909e+01
4.968472310637e+01
1.659444520806e+02
1.627016441164e+02
4.842433243459e+01
3.926602534534e+01
1.738277217925e+02
8.189646201229e+01
1.405941959066e+02
4.875367711651e+01
6.011985570224e+01
8.167627322249e+01
5.783485249603e+01
5.690368697906e+01
4.807423714387e+01
1.475989322097e+02
2.457594765176e+01
5.630279462702e+01
9.028949548259e+01
5.119248160012e+01
1.482006951161e+02
8.864323132449e+01
7.418818818882e+01
6.234076487399e+01
6.771873981463e+01
7.963564077764e+01
6.758571439007e+01
6.325963094420e+01
9.479657714917e+01
4.676334869428e+01
3.722657155644e+01
7.982899737087e+01
1.124818523240e+02
1.181734369884e+02
1.286113342561e+02
1.240335880553e+02
1.134312456862e+02
1.194073978667e+02
1.300346881265e+02
1.258573362943e+02
1.382991506344e+02
1.322228704546e+02
1.213415618484e+02
1.275693438274e+02
1.375520461485e+02
1.171061247697e+02
1.685382702087e+02
8.891772031507e+01
6.719031498988e+01
6.150749993363e+01
7.554593717658e+01
1.484056367284e+02
1.457615223991e+02
8.211620938461e+01
1.582832912553e+02
6.927596495250e+01
7.523915001794e+01
1.626507705087e+02
1.075540310923e+02
1.027339071295e+02
9.700325001810e+01
1.443523569111e+02
8.157154512604e+01
1.703372600272e+02
1.288263027289e+02
1.231309218228e+02
1.151765371820e+02
1.149067655537e+02
1.758884605832e+02
1.708934389541e+02
1.719707449912e+02
1.652328185103e+02
1.781587590154e+02
1.527472298586e+02
1.549252308288e+02
7.897902568424e+01
8.558095015560e+01
9.237861949920e+01
9.124334232454e+01
8.478900427449e+01
8.974813705033e+01
9.583502089057e+01
8.769878322261e+01
1.299702848622e+02
1.799381080458e+02
1.326304615637e+02
1.288187557583e+02
1.194284670021e+02
9.415251314774e+01
1.004756567113e+02
1.103011463073e+02
8.795697713766e+01
1.252465292293e+02
1.803678430531e+02
1.311969727617e+02
9.707550127518e+01
5.634948125096e+01
6.487574451530e+01
6.530605128781e+01
7.453412710056e+01
6.556044628214e+01
1.107013785806e+02
1.143976222727e+02
1.082613339762e+02
1.182708481897e+02
1.119957052732e+02
1.027409363624e+02
1.221078690855e+02
1.153174781360e+02
5.622836387828e+01
3.715699053529e+01
4.083885504820e+01
2.828600404284e+01
4.339593216446e+01
5.284977287501e+01
5.553321734492e+01
6.170672820555e+01
5.259627138563e+01
1.250919696728e+01
2.034102600369e+01
8.152730689162e+00
1.651057078801e+01
2.928631600209e+01
3.908047682525e+01
1.795435596509e+02
8.701140076792e+01
8.268131483455e+01
7.356282591404e+01
7.902509455276e+01
9.115474607930e+01
6.842088973300e+01
6.563861708988e+01
7.793995838102e+00
1.779307548968e+01
1.677174862264e+01
2.767733170206e+01
2.730120322532e+01
1.783075166868e+01
1.768980178734e+01
7.620217585229e+00
1.724797528637e+01
2.711424432918e+01
7.211062730801e+00
1.024212021393e+02
1.079070452593e+02
1.805870603335e+02
5.757509065652e+01
6.013881133162e+00
1.384718028276e+02
1.406766855863e+02
1.406272679161e+02
1.661837008272e+02
1.704415986078e+02
1.386511848972e+02
6.240460089988e+01
1.343587532880e+02
1.204027479145e+02
7.020519191629e+01
6.462362812383e+01
1.386568336569e+02
1.300844578383e+02
1.590876476145e+02
1.307590718016e+02
1.524938278222e+02
1.726509779046e+02
4.090474348706e+01
8.345807940901e+01
8.022754706643e+01
1.045388460176e+02
6.349910067853e+01
9.870495668184e+01
4.203409782416e+01
1.541903739292e+02
6.959175420932e+01
1.133595439223e+02
8.444176523759e+01
6.889186870037e+01
6.319017251125e+01
8.969113042389e+01
1.035121587648e+02
1.482185421804e+02
1.101688217147e+02
7.630676309102e+00
1.532506182338e+02
1.232944018664e+02
8.703578392652e+01
1.488084658506e+02
5.430499300166e+01
1.081932120782e+02
1.276353209957e+02
7.620886724615e+01
3.280414656363e+01
7.361568827617e+01
1.695506209758e+02
1.069869243091e+02
5.804375308396e+01
1.193336651558e+02
8.254567524864e+01
4.849695839965e+01
1.248906565679e+02
1.109470407986e+02
1.577430396403e+02
1.350488111078e+02
6.125693376735e+01
1.594591145034e+02
1.134503733753e+02
1.185734862909e+02
1.219918793003e+02
1.026195634522e+02
1.123262012813e+02
1.167875233839e+02
1.513866474685e+02
6.743562597866e+01
1.034053997620e+02
1.033646266634e+02
1.077645464924e+02
1.325922908075e+02
1.563625266320e+02
7.298324379397e+01
7.488177604627e+01
8.635893970424e+01
1.439053102870e+02
1.289660817421e+02
7.339770711623e+01
1.544451854030e+02
1.226840002019e+02
1.068538343848e+02
4.478461626085e+01
6.508976666840e+01
9.058908445523e+01
1.093024201006e+02
1.167580963245e+02
1.350936475682e+02
1.575725286164e+02
1.513624341828e+02
5.035557592697e+01
5.352752939890e+01
1.607929186423e+02
1.229669485795e+02
1.559383323638e+02
1.056284172288e+02
1.563144561239e+02
4.121183607359e+01
1.642557105588e+02
1.514778741408e+02
8.212892734721e+01
5.727318216544e+01
1.735192636981e+02
1.588602387756e+02
1.168202513276e+02
1.187896480057e+02
4.066285810658e+01
1.201698692554e+02
1.054224568230e+02
1.437157736717e+02
1.617182609229e+02
9.219840527888e+01
1.136523901116e+02
1.335417474380e+02
2.715748878260e+01
4.630835396071e+01
1.170630829965e+02
9.356755184985e+01
1.220544887507e+02
1.638159169897e+02
1.206877483159e+02
9.965056292942e+01
1.244684372892e+02
3.452103382848e+01
9.813036000086e+01
1.283671497113e+02
1.149054966303e+02
2.739380581038e+01
1.235212883846e+02
1.616572209420e+02
8.267079476878e+01
1.251842718340e+02
1.087458304687e+02
3.000588949287e+01
1.343387105044e+02
1.242881732877e+02
1.296889400950e+02
1.171917271828e+02
1.432350016983e+02
3.797324439961e+01
5.932387588239e+01
4.946515017811e+01
1.021471285922e+02
1.269665673413e+02
3.612762325599e+01
1.106330775482e+02
3.542549335031e+01
9.766423515935e+01
1.433662821207e+02
8.338927058897e+01
9.908214708189e+01
5.199105992820e+01
9.349802715434e+01
1.255678090137e+02
9.520981102492e+01
8.849457729604e+01
1.307121163585e+02
8.957407151579e+01
1.402536469056e+02
1.798892160708e+02
6.449919637988e+01
2.701481820388e+01
3.882526337803e+01
4.173827563515e+01
7.384839650850e+01
1.133933707102e+02
6.479059486421e+01
6.648028000213e+01
1.428990237406e+02
1.669422405189e+02
9.755927515067e+01
1.600168469673e+02
1.356209135566e+02
1.214391034753e+02
5.619773964341e+01
1.462990845882e+01
1.377127734522e+02
3.245065316360e+01
4.475430387665e+01
4.933812384233e+01
6.364474048755e+01
3.387679085996e+01
4.158427558506e+01
1.691762953578e+02
6.402443061792e+01
1.453580789696e+02
4.498647730089e+01
1.330587399776e+02
1.622802720360e+02
1.812948949503e+02
1.534411146107e+02
5.350456902881e+01
7.227873736885e+01
1.518272200596e+02
1.053153250092e+02
1.815700408427e+02
6.266995043623e+01
1.319639181526e+02
6.784092111974e+01
1.320191510401e+02
1.235776219150e+02
7.615663457747e+01
7.255799163437e+01
1.744561862068e+02
1.393693607485e+02
5.685464862189e+01
9.687688512320e+01
7.982571005754e+01
5.775798802822e+01
1.749585426293e+02
1.332947728493e+02
1.742541566702e+02
2.745115723810e+01
1.388405751928e+01
1.758159145399e+02
1.478437416253e+02
6.567326474924e+01
1.433817104376e+02
6.044457763524e+01
5.483964940774e+01
1.582704421041e+01
1.813012539297e+02
1.329846138089e+02
8.715645455546e+01
5.717265656501e+01
5.778900155167e+01
1.513344998608e+02
2.314187965534e+01
1.336997081059e+02
1.752167483665e+02
1.373222247546e+02
1.748987343415e+02
5.682956871054e+01
1.626411308647e+02
1.676503141114e+02
5.632530533292e+01
1.377185709363e+02
7.062458333661e+01
3.457518226917e+01
1.413236604227e+02
6.042340557346e+00
5.613110788360e+01
1.816578049989e+02
3.425073770409e+01
7.134747729195e+01
1.463375340692e+02
1.081273639197e+02
1.156048615903e+02
4.579185433723e+01
3.695594268336e+01
8.844780011395e+01
1.654365570219e+02
1.364525328362e+02
8.151939370576e+01
6.120852365662e+01
1.412131519201e+02
9.459123318449e+01
1.472966945036e+02
1.656014282795e+02
5.613740711527e+01
1.170946305738e+02
1.418473280595e+01
1.764029965782e+02
9.859273059620e+01
1.643354679651e+01
6.152265312587e+00
1.728289167851e+01
9.656562952098e+00
2.202509212589e+01
1.832713398803e+01
2.756817369879e+01
2.665775199107e+01
3.463508693369e+01
3.612047686617e+01
4.295472483327e+01
4.472423390755e+01

SCALARS node_materi_strain_total_average_a_ept float
LOOKUP_TABLE default
5.173020367922e-04
2.434511005506e-03
1.976558545718e-03
3.902875541522e-03
4.683455314539e-04
4.858984584846e-04
4.759402066404e-04
4.968223910879e-04
5.061482740052e-04
5.295502064245e-04
5.649676535980e-04
6.117990937452e-04
6.732873174251e-04
7.474790528030e-04
8.351532106908e-04
9.336185507399e-04
1.038782480024e-03
1.154737359549e-03
1.285781918822e-03
1.421939329570e-03
1.566325788058e-03
1.718611907431e-03
1.867288918471e-03
3.911871378437e-03
3.900923839334e-03
3.897831472073e-03
3.888833054104e-03
3.869698656002e-03
3.861106264923e-03
3.838055993867e-03
3.811206559599e-03
3.785255220792e-03
3.752372090136e-03
3.703666889013e-03
3.662220918509e-03
3.603305455208e-03
3.541884864534e-03
3.466829794442e-03
3.385295903528e-03
3.291845543173e-03
3.190896846680e-03
3.086567094728e-03
2.974990521918e-03
2.851659987642e-03
2.718724005408e-03
2.585399576740e-03
2.449083818053e-03
2.315387102280e-03
2.187901808804e-03
2.060026525616e-03
1.950133543984e-03
1.841142771371e-03
1.753451033575e-03
1.669703309570e-03
1.598377383184e-03
1.542882669705e-03
1.517225546808e-03
1.501228188574e-03
1.494911544077e-03
1.519794518375e-03
1.537353871861e-03
1.577959780871e-03
1.615947002610e-03
1.669863374863e-03
1.732070884411e-03
1.781338205040e-03
1.814014543703e-03
1.877220216990e-03
1.906540264324e-03
1.942411222491e-03
1.969066811477e-03
1.981138814234e-03
2.579942684229e-03
2.723204401512e-03
2.868611856542e-03
3.014366458430e-03
3.164932564159e-03
3.318178089552e-03
3.472822960090e-03
3.632742195620e-03
3.788839745846e-03
-1.429472178403e-03
2.097356900949e-03
-3.597768050722e-04
2.207519567894e-04
6.341215383717e-04
1.050230754287e-03
1.410582090700e-03
1.530242929409e-03
1.646882947059e-03
1.777783902036e-03
1.928267369146e-03
1.659923482620e-03
1.744244817497e-03
1.881357768372e-03
2.018343246918e-03
2.154966580391e-03
2.291923569892e-03
2.416612789747e-03
2.422944707855e-03
2.417852311395e-03
2.408008873687e-03
2.417056231243e-03
2.388715683263e-03
2.370758071768e-03
2.354537069767e-03
2.333426408826e-03
2.304937063504e-03
2.272908488872e-03
2.236398747224e-03
2.195382481691e-03
2.152246210839e-03
-2.055333514593e-03
-2.347544642391e-03
-2.430688789565e-03
-2.206759737877e-03
-1.336019828062e-03
-5.059152447985e-04
-1.669423406514e-04
-3.216945013582e-05
3.531827694280e-05
1.017653811471e-04
1.579500994736e-04
2.223924645518e-04
2.929289600342e-04
3.575511639466e-04
4.071548980440e-04
4.505043885758e-04
4.830484285329e-04
5.057209905037e-04
5.277159050141e-04
1.679333462735e-03
1.691462680797e-03
1.691635740759e-03
1.693073778505e-03
1.695385733687e-03
1.698530892150e-03
1.702505592654e-03
1.707296891472e-03
1.712849769916e-03
1.719019512259e-03
1.725588383160e-03
1.732141552534e-03
1.737943234041e-03
1.741671370059e-03
1.743429682081e-03
1.744562163363e-03
1.744107551930e-03
1.736042994918e-03
1.716792773755e-03
1.678881402124e-03
1.625866871820e-03
1.526596994965e-03
1.386925019955e-03
1.533244928179e-03
1.593837300609e-03
1.659029194079e-03
1.695437269474e-03
1.720778125218e-03
1.735748203515e-03
1.744630400935e-03
1.750932114324e-03
1.755452023955e-03
1.759493445728e-03
1.761052217867e-03
1.761036477439e-03
1.760187753186e-03
1.758981889747e-03
1.757700522957e-03
1.756476974909e-03
1.755454412121e-03
1.754757928831e-03
1.754415817895e-03
1.754445557581e-03
1.752142939921e-03
1.745717332727e-03
1.882636693527e-03
1.885463666831e-03
1.884772208803e-03
1.883423521874e-03
1.881466571499e-03
1.878961786048e-03
1.876060376889e-03
1.872274031351e-03
1.867507113830e-03
1.861637487967e-03
1.853972292698e-03
1.843640019160e-03
1.829379431777e-03
1.813636210050e-03
1.797729785032e-03
1.777650273641e-03
1.750693930586e-03
1.717669931705e-03
1.665318338898e-03
1.613115007660e-03
1.709737834658e-03
1.761442161737e-03
1.808754737348e-03
1.842264579837e-03
1.870842759814e-03
1.895687402144e-03
1.920967391783e-03
1.941911866966e-03
1.958503161260e-03
1.971823870746e-03
1.982928981327e-03
1.992387458433e-03
1.999821546536e-03
2.005932017539e-03
2.011164041559e-03
2.015102404336e-03
2.017785600341e-03
2.019103825184e-03
2.018541225482e-03
2.155082604488e-03
2.153806710810e-03
2.150599245104e-03
2.145788931885e-03
2.139402237370e-03
2.131111382155e-03
2.120940140178e-03
2.107793892945e-03
2.092324715225e-03
2.074421292567e-03
2.053632682921e-03
2.027864897052e-03
1.996678665789e-03
1.961142136952e-03
1.927152649524e-03
1.883923055012e-03
1.830696426221e-03
1.972004313187e-03
2.027489589549e-03
2.072410480953e-03
2.111569356225e-03
2.145391182966e-03
2.173879260530e-03
2.198167388244e-03
2.219971593922e-03
2.238574779765e-03
2.252714678148e-03
2.264957738901e-03
2.273969607907e-03
2.281720474260e-03
2.287196736015e-03
2.291690797307e-03
2.292846778784e-03
-7.702371808205e-04
-3.837993845293e-05
4.439772135154e-04
7.821363315116e-04
1.273270623157e-03
1.473367613731e-03
1.590552997046e-03
1.715570435495e-03
1.858144469170e-03
2.017159606539e-03
8.851764726854e-05
1.527551689780e-03
3.735471599522e-05
-1.442576404362e-03
1.532570836187e-03
8.872353995303e-04
7.901951358882e-04
1.772650489771e-03
1.428518250240e-03
2.208385353830e-03
1.733115935872e-03
1.709760546244e-03
2.973394731310e-04
2.715995141036e-03
2.082534317324e-03
5.445302537902e-04
1.073055637435e-03
3.047920706821e-03
3.416083038655e-03
3.780043164618e-03
3.692027945611e-03
3.593103727668e-03
2.275447845626e-03
2.437861338788e-03
2.515362678089e-03
3.090766085273e-03
1.818233083473e-03
-1.796943386795e-03
4.343256246681e-04
1.487155223806e-03
2.538659133826e-03
4.873390053226e-04
3.229825987264e-03
1.983232750424e-03
2.462662446149e-03
1.629509654007e-03
1.487439479755e-03
-2.670085529306e-04
2.364069333276e-03
1.588973587142e-03
3.389851792611e-03
1.651134452527e-04
6.386610266214e-04
3.828554968191e-03
1.227136642150e-03
5.405984626820e-04
1.579377656197e-03
1.902514916131e-03
-5.819608053675e-04
2.807406954878e-03
1.899381056238e-03
4.763029980443e-04
3.704304667234e-03
2.170434628746e-03
2.172902194497e-03
2.287610367067e-03
2.276962516055e-03
2.401569474131e-03
2.392012605570e-03
2.262530876006e-03
2.378883668333e-03
2.243170236275e-03
2.519183632959e-03
2.361377169185e-03
2.219248731862e-03
2.338991906473e-03
2.191215222507e-03
2.077871838553e-03
2.042631511787e-03
1.937102308248e-03
1.894744424706e-03
2.005248842259e-03
1.850860557135e-03
1.748005403880e-03
1.696291587764e-03
1.600584907176e-03
1.542012441116e-03
1.454171090199e-03
1.390177706133e-03
1.486593989353e-03
1.331060103007e-03
1.245991160788e-03
1.185317018710e-03
1.111413928949e-03
1.054910331428e-03
1.134486351028e-03
1.009018856115e-03
9.391115909127e-04
8.949116001765e-04
8.341663572289e-04
8.013813260525e-04
7.597192454779e-04
7.358597709381e-04
7.697821859002e-04
7.062148936376e-04
6.661764308006e-04
6.433476827934e-04
6.729417652226e-04
6.133211473270e-04
6.413750527470e-04
5.766503389907e-04
5.421032541562e-04
5.091532668819e-04
5.545805304220e-04
4.893315556393e-04
4.385867379365e-04
4.321962546864e-04
4.957655824573e-04
4.505939272571e-04
3.841901023838e-04
4.196308583295e-04
4.774804626543e-04
4.521636704333e-04
3.986837928364e-04
4.358751859613e-04
4.941457002200e-04
4.801811016900e-04
5.519421467835e-04
4.254890885638e-04
4.719518972193e-04
4.207297379960e-04
4.677146305530e-04
1.095584562039e-03
4.190765734683e-04
3.733679029297e-04
4.659993408338e-04
5.216824980896e-04
4.194941579951e-04
4.658271536201e-04
4.226670934045e-04
7.841159765967e-04
1.967282728740e-03
4.668770495781e-04
4.271766799833e-04
3.849910178163e-04
3.923551301485e-04
2.518522239269e-03
2.648876159137e-03
2.641454012948e-03
2.777589384781e-03
2.765213488014e-03
4.331219923816e-04
2.486653165077e-03
2.783912786241e-03
1.660250171763e-03
1.180759964849e-03
7.084610790646e-04
5.141976102783e-04
5.120586355404e-04
5.651906074427e-04
5.736636353441e-04
6.488175802737e-04
6.829467148588e-04
7.713573700117e-04
8.191648929882e-04
9.104561773813e-04
8.635466968729e-04
1.001454341319e-03
9.557387422021e-04
9.654662690320e-04
8.795658882966e-04
1.092157543954e-03
1.046828494425e-03
1.182784543295e-03
1.135250034124e-03
1.002929558298e-03
1.088226060724e-03
9.622161856047e-04
6.887315184863e-04
7.865523232878e-04
7.986807625900e-04
9.333144178409e-04
9.504973365217e-04
1.075432657130e-03
1.085207485019e-03
9.707279661855e-04
2.311146918460e-03
5.776290639151e-04
5.931254574171e-04
4.869965392695e-04
5.037814788111e-04
3.730369369688e-04
3.909005336143e-04
2.182757231554e-04
2.194989738605e-04
1.423040149988e-05
6.219903040663e-05
-1.789816538693e-04
-5.642409874543e-05
1.436760509671e-03
1.071156417333e-03
1.201669772538e-03
1.203288762218e-03
3.502108914158e-04
1.220561015651e-03
1.025655186041e-03
9.471009457459e-04
1.105753178834e-03
4.017904876476e-04
2.457341976862e-04
4.175024115002e-04
2.904803560203e-03
2.887258757927e-03
1.089577188863e-03
4.434122024345e-04
1.140865278001e-03
-2.408420711894e-04
1.170720184637e-03
1.304573712994e-03
8.247864993481e-04
1.330131127535e-03
1.335973386709e-03
1.315322176527e-04
6.501235247114e-05
-8.765872378804e-05
3.220527573594e-05
1.450559690185e-04
1.104640532827e-04
1.767689421277e-05
1.165556067798e-04
1.764784056302e-04
1.725837801776e-04
1.057966636441e-04
1.722122795019e-04
1.358356607942e-03
-4.635061255780e-04
1.977357843354e-03
1.163557845705e-03
1.209158068732e-03
3.031524881330e-03
3.007900101409e-03
2.864493007362e-03
2.979689598681e-03
3.127320588764e-03
3.093734631332e-03
2.947260033734e-03
3.056434638815e-03
2.911103836737e-03
3.015577253128e-03
3.164712032082e-03
3.119146818808e-03
2.971054422747e-03
3.070569482439e-03
2.923149803788e-03
3.018525212181e-03
3.169252281186e-03
4.228008868051e-04
1.000790756190e-03
1.134059824688e-03
5.572152969255e-04
6.193324230369e-04
6.351827872164e-04
6.960216934367e-04
3.112275265629e-03
3.266771149102e-03
2.845141698311e-04
4.497385337650e-04
3.050335501672e-03
1.249698324482e-03
1.120715814270e-03
1.053362237177e-03
1.131019887162e-03
1.004759268182e-03
1.090459992893e-03
1.215730533260e-03
9.545398751719e-04
7.953300208648e-04
3.271418145168e-03
3.418604538194e-04
3.048860647206e-04
1.386133275879e-03
8.555355027432e-04
1.601065277643e-03
1.560841290969e-03
1.727150727673e-03
1.689983097300e-03
1.854789512589e-03
1.815449055063e-03
1.657089460626e-03
1.462010796147e-03
1.781820344240e-03
2.961155603319e-03
1.063491944567e-03
2.225678643821e-04
3.787975400943e-04
1.330908827872e-04
4.529378502603e-04
4.765285549927e-04
1.222370476369e-03
1.981274597624e-03
2.020300987943e-03
1.186036516073e-03
1.305574052457e-03
1.448844836366e-03
2.631742805085e-03
2.805809692700e-03
2.770756641365e-03
4.354307828648e-04
6.225543155116e-05
3.245118870317e-03
5.506113571623e-04
5.821955150224e-04
-5.551286436156e-04
-7.774911671520e-04
3.205117605111e-03
3.359879620554e-03
7.181319147322e-04
7.858026612568e-04
1.158477168679e-03
1.919357653228e-04
3.422760473458e-03
8.994626787496e-04
7.438853203803e-04
6.745799032218e-04
3.164263917464e-04
1.030500357054e-04
2.275278165790e-04
2.332528636128e-04
4.821443215600e-04
1.283009426479e-03
3.279516544408e-03
1.627897526211e-03
1.499667141242e-03
1.747585014692e-03
1.508686807393e-04
1.295984882634e-03
1.325254659167e-03
2.143350801340e-03
2.185362346119e-03
6.626860129491e-04
6.971406599592e-04
6.234466905009e-04
7.644082562001e-04
2.136933275931e-03
7.601162926414e-04
1.848704541046e-03
1.893295041531e-03
1.773170652373e-03
1.336871119170e-03
1.418773898896e-03
6.111428837822e-04
7.982085177011e-04
6.502658998600e-04
8.784302234702e-04
6.054841137305e-04
3.317939444696e-03
3.427825201338e-03
2.826615956621e-03
2.778812354837e-03
3.130740031285e-04
2.653957136619e-04
6.244945655835e-04
1.240598167936e-03
3.181396946268e-03
3.201355623142e-03
3.064321260278e-03
1.226662041877e-03
4.750517512361e-04
6.889422650219e-04
-6.065790242838e-04
1.237611546912e-03
2.796454184290e-04
2.126285290570e-03
1.465672170553e-03
1.526743747126e-03
1.574614469535e-03
2.066462463012e-03
1.213078749951e-03
1.069703442514e-03
1.820826264308e-03
1.714013027796e-03
1.654926975345e-03
1.604384153171e-03
2.782199403886e-04
2.780419955883e-04
2.116653105527e-03
1.899389568540e-03
2.313615558912e-03
2.359438979349e-03
1.557244973748e-03
1.440414154523e-03
5.065662396092e-04
1.393032734975e-03
3.401389000244e-03
1.931144630571e-03
1.367212358064e-03
1.325038154159e-03
-9.625211705859e-04
-6.273338239416e-04
3.518421590441e-03
7.021112387083e-04
8.677377163686e-04
5.408511038823e-04
1.792396903064e-03
2.545217695174e-03
1.612042543741e-03
1.460987693746e-03
3.583815901726e-03
1.204297617616e-03
9.328717273828e-04
1.098118086348e-03
3.441867445158e-03
3.615769180249e-03
2.669575377876e-03
2.629134172935e-03
2.696808536392e-03
-2.117377718379e-04
-5.237800516928e-04
3.376799714456e-03
5.106075992415e-04
5.591111017792e-04
2.500351560496e-04
2.902101997642e-04
7.410179812262e-04
6.665415748375e-04
2.092054078850e-03
2.253326891990e-03
1.766230321023e-03
8.013835955084e-04
6.514427061220e-04
6.215250724715e-04
3.472881234811e-03
3.598510211171e-03
2.875184359702e-04
2.515607057935e-04
3.312392404615e-04
3.436730067547e-03
1.671483087861e-03
1.585906428411e-03
2.256291905745e-04
2.206795861212e-04
1.842737474730e-04
-6.238750680143e-05
3.214249696602e-03
3.072147658071e-03
3.364283976915e-03
5.081519565161e-04
1.483201341777e-03
1.337805617968e-03
1.303356554016e-03
1.413090131468e-03
1.591744976143e-03
1.690951385031e-03
1.856571086256e-03
-1.187641775966e-03
3.570114360031e-03
2.679489929127e-03
-1.409843268887e-03
2.633635889697e-03
2.726189087202e-03
2.573508746825e-03
4.900233676428e-04
2.545244658677e-03
2.586338829469e-03
1.565287454324e-04
3.564271703643e-03
2.455395068097e-04
3.072879796276e-04
1.460096961439e-03
1.414186989830e-03
1.540533268113e-03
1.495962758925e-03
1.365700534238e-03
1.458000600380e-03
2.580967580455e-03
1.608451604798e-03
1.554843019395e-03
1.710578686951e-03
1.669547574627e-03
9.091070792918e-04
1.025395059781e-03
1.002501639372e-03
2.514364046446e-03
2.522696002248e-03
1.403782858856e-03
1.267697187425e-03
2.662102735977e-03
2.665440770923e-03
2.792671492211e-03
2.783883999200e-03
2.913483007161e-03
2.899741963357e-03
3.034784585976e-03
2.028867752381e-03
6.303623898675e-04
1.862402281552e-03
1.539007311768e-03
1.426419779121e-03
1.498494018814e-03
1.480666077806e-03
1.437876853367e-03
7.288343643049e-04
3.617467865945e-03
-1.424084883639e-03
-1.025467515368e-03
8.187875996011e-04
1.534691890722e-03
1.053607804282e-03
1.160264878550e-03
9.564341029512e-04
1.724087486413e-04
3.662797195238e-04
3.041827987391e-03
2.383503699974e-04
1.346931266913e-03
7.059571659452e-04
1.385840073371e-03
4.799744588215e-04
8.172814356346e-04
2.109363052262e-03
2.158748308290e-03
2.043159508595e-03
6.863362931338e-04
1.291410919514e-03
1.286706069112e-03
1.799500228563e-03
2.925411481020e-03
2.928396193105e-03
3.070687110864e-03
2.922735731471e-03
2.781840014853e-03
2.772797810680e-03
2.919560382310e-03
2.761345142917e-03
2.933040083524e-03
2.737643086891e-03
2.598668349716e-03
2.571648997983e-03
2.693167951768e-03
2.437673464142e-03
1.640738371262e-03
8.761191708393e-04
-9.031373624942e-04
-6.177769834503e-04
1.521934199266e-03
3.145138641800e-03
3.336288340281e-03
5.235615427187e-04
2.589061768349e-03
2.013039493593e-03
2.185474321537e-05
2.335128191994e-03
2.785599357349e-03
2.644045687747e-03
2.648915031579e-03
3.483226634943e-03
2.724729290019e-03
1.884662550648e-03
9.189292525162e-04
9.193992477172e-04
8.249062835334e-04
2.618973825174e-03
1.566310853441e-03
1.471651098269e-03
1.438024954322e-03
1.360481222003e-03
1.501398254726e-03
2.954040743143e-03
2.845401032468e-03
1.874060703817e-04
2.315339257785e-04
3.030636234303e-04
2.938781465983e-04
1.949338594792e-04
2.729699007964e-04
3.756234889818e-04
2.441505209072e-04
2.387582655475e-03
1.496745184595e-03
7.308518066124e-04
6.508379330041e-04
5.472001502451e-04
5.835538382641e-04
5.941345241898e-04
6.848643120583e-04
5.743569409682e-04
1.527163904323e-03
1.509042182995e-03
7.069520850808e-04
5.280711146984e-04
2.322297227761e-03
2.405295056813e-03
2.350411832761e-03
2.497300215781e-03
2.466760097225e-03
8.150740173338e-04
8.864678186918e-04
8.496820610878e-04
9.543251479956e-04
9.085996539250e-04
8.165778875731e-04
1.016992048104e-03
9.548649257330e-04
2.399805073066e-03
-7.493214546323e-04
-3.678588362749e-04
-9.689635219387e-05
-1.330122784592e-04
-3.767853855201e-04
-1.238712206296e-04
-2.801712470428e-04
-7.704635941752e-04
-1.049063805269e-04
-7.843457672247e-06
-2.406336982106e-05
5.115588944633e-05
9.003114999435e-05
2.616046453158e-04
1.833082661812e-03
7.056927744307e-04
6.635171556688e-04
6.064430176954e-04
6.209767578756e-04
7.326903383460e-04
5.852246727564e-04
5.632819837878e-04
4.608675874493e-04
4.649153151114e-04
4.793131890185e-04
4.754019528398e-04
4.645049632301e-04
4.466073560890e-04
4.151443179252e-04
3.984642991054e-04
3.780714080692e-04
4.068036345878e-04
3.519962328867e-04
3.241755839593e-03
3.325215469264e-03
1.562126347539e-03
2.476189409078e-03
9.731746499177e-05
3.769414702141e-03
3.736167910614e-03
3.765353945395e-03
1.636999283725e-03
1.704170700470e-03
3.795909784637e-03
3.793940895489e-04
3.060905360831e-03
3.480375563015e-03
7.720404278806e-05
2.822078557470e-04
1.193721234740e-03
9.148972362025e-04
1.443701289654e-03
1.043086096910e-03
1.271770963126e-03
1.410781537787e-03
4.679373963458e-04
2.870560661267e-03
2.871644843127e-03
3.221904762125e-03
4.689272675307e-04
7.601725319581e-04
3.617366053977e-04
2.291157567902e-03
1.719414466264e-03
5.159181460134e-04
5.175483969187e-04
3.752776567189e-04
2.257798524767e-04
9.907416270062e-04
5.375963601671e-04
1.052712771232e-03
3.323360596964e-03
2.321251905042e-04
1.106502941502e-03
7.346427181273e-04
2.837046629515e-03
1.202711189605e-03
1.677749916156e-05
3.206288872340e-03
3.331281372965e-03
2.613830364067e-03
3.347859628574e-04
2.726986356727e-03
1.341123965779e-03
2.917935191652e-03
4.714279501415e-04
6.203393632541e-04
1.313681763354e-03
1.992465315473e-03
3.532035412420e-03
9.699830509311e-04
1.232374845616e-03
8.231510842615e-04
5.080589261866e-04
1.278271526750e-03
7.374969379625e-04
3.360031531697e-03
1.892905929616e-03
5.630059641464e-04
3.156828173596e-03
5.141518503974e-04
1.324530950096e-03
1.590069894228e-03
1.646572557784e-03
2.159302761154e-03
1.279369146298e-03
1.138115945838e-03
1.190739142023e-03
-3.083013192296e-04
8.749374623298e-04
2.749222342073e-03
1.933815513190e-03
3.516357253620e-03
1.256736307524e-03
1.229662230250e-03
3.308772946191e-03
6.070677910699e-04
4.972607275046e-04
-1.588591588031e-04
3.691584310012e-04
8.573240608862e-04
7.067093740356e-04
3.231553266881e-03
1.319227117536e-03
1.020349416060e-03
-2.052474244847e-04
1.964973321904e-03
1.409671421327e-03
6.156340764712e-04
1.319767188922e-03
8.609246488958e-04
2.169796772870e-03
1.576526450169e-03
1.501807330561e-03
1.046049156404e-03
6.336948634171e-04
2.545658270924e-03
1.668094991075e-03
1.176646284098e-03
1.396093783047e-03
5.535134529139e-04
1.815980595976e-03
7.927996737374e-04
1.807667360873e-03
3.545950789260e-03
1.250233555655e-03
2.513410614698e-03
7.653132478318e-04
1.203287474966e-03
4.426511455629e-04
1.767361906419e-03
8.456598948491e-04
3.729672239456e-04
5.616038281741e-04
1.677034500974e-03
9.239088532934e-04
4.676203987388e-04
9.989741722352e-04
1.656319320396e-03
2.502661847677e-03
1.071308711884e-03
1.929987754472e-03
3.688405273395e-04
1.366160354064e-03
1.549485008459e-03
3.763975089089e-04
5.902268982813e-04
2.634509987121e-03
1.507679608730e-03
7.146093623419e-04
2.056916140454e-03
1.349912672405e-03
9.385670609956e-04
8.726033658434e-04
1.389552181395e-03
3.362659915991e-04
2.990036443880e-04
4.589497381073e-04
2.222865118553e-03
4.768172017891e-04
2.464202592872e-03
2.139789721813e-04
3.748851234287e-04
1.474057807260e-03
2.948093715891e-03
3.688983491157e-04
5.145317871341e-04
3.151814635946e-04
1.057974474468e-03
3.536527918769e-04
3.387255709804e-04
3.635056819710e-03
3.842533015456e-04
3.826810361243e-03
1.879133939508e-03
2.658997392917e-03
1.374541835818e-03
-1.870424885231e-03
1.131756130054e-03
3.275827176166e-04
2.281547291161e-03
2.662229455167e-03
3.300100882111e-04
2.861847923960e-03
2.092212527663e-03
3.166255512586e-03
1.317556410062e-03
1.343710916877e-03
3.538842157269e-03
2.504108854682e-03
9.712545347510e-05
1.213149361089e-03
1.106593477990e-03
7.984370819164e-04
4.433299736468e-04
5.387177619248e-04
2.072314370227e-05
7.257604879785e-04
1.502407690044e-03
2.550582666602e-03
1.608258974219e-03
3.349853063841e-04
3.457760384213e-03
1.843099419611e-03
1.662322169176e-03
1.722633983469e-03
5.995804537245e-06
2.521504544304e-03
2.408753396670e-03
3.278544357511e-03
1.745724348797e-03
2.472291151133e-03
3.684795816641e-03
-3.080785309389e-04
3.700966353128e-03
2.411310999143e-03
2.819155066502e-03
2.411839704174e-03
1.764899363527e-03
3.058046560325e-03
-3.511991804932e-04
3.149443355838e-03
6.038231418183e-04
-1.127496300689e-03
1.482997197939e-03
2.542017096802e-03
1.715050792049e-03
4.845844535265e-04
1.894945865293e-04
1.451155153677e-03
2.672435573668e-03
-7.995826031731e-05
3.701495209889e-03
-8.457303080606e-04
2.458868217654e-03
3.306197731244e-04
1.804733822249e-03
3.604646705385e-03
6.878734989902e-04
2.227993213773e-03
5.314283956868e-04
2.024170784892e-03
1.157557710825e-04
3.661757855524e-03
1.434650932767e-03
3.336838490490e-03
1.726407782803e-03
-1.357061190894e-03
1.964230137498e-03
1.352781421175e-03
2.519748758541e-03
3.188959466030e-03
5.776632135211e-04
4.073646762820e-04
3.851814470447e-03
4.952684102413e-04
2.531208374378e-03
1.925098814417e-03
4.590420440775e-04
2.763459052859e-03
2.785544598842e-03
8.894705335654e-04
3.447581399949e-03
-2.219017265188e-05
-1.909709263031e-03
3.026111075818e-03
1.770907530278e-03
3.457712653077e-03
2.905584983607e-03
-3.228774042339e-04
2.644921216236e-03
7.401085000219e-04
2.260112944919e-03
1.414233658503e-03
-1.020831269252e-03
9.787214884278e-04
2.837903153040e-04
1.601009715186e-03
7.873997484580e-04
1.461245432442e-03
1.679730560080e-03
1.533733245924e-03
1.807746078367e-03
1.630878695866e-03
1.955149548088e-03
1.742187723254e-03
2.081868502261e-03
1.877390167776e-03
2.228737255761e-03
2.026347057827e-03
2.356907776783e-03

SCALARS node_materi_strain_total_size_dev_sd_ept float
LOOKUP_TABLE default
2.505838729732e-03
7.723171752084e-03
4.962849992709e-03
9.682388040267e-03
1.835910410654e-03
9.981421797937e-04
6.041044500420e-04
1.208681071450e-03
1.919169115625e-03
2.493864913964e-03
2.948188037628e-03
3.289102214686e-03
3.536639049944e-03
3.723252874108e-03
3.868267504510e-03
4.000428232318e-03
4.120468344680e-03
4.237162140907e-03
4.375506615826e-03
4.517566983240e-03
4.662645481847e-03
4.801594204193e-03
4.919640444625e-03
9.673183971958e-03
9.659422618578e-03
9.660116613695e-03
9.650192619800e-03
9.641534152655e-03
9.635347373863e-03
9.622855513785e-03
9.598158791113e-03
9.581748921730e-03
9.549601459789e-03
9.522462630916e-03
9.488048054379e-03
9.445070008435e-03
9.386026871898e-03
9.326815720602e-03
9.237867264131e-03
9.147770618407e-03
9.040965611319e-03
8.909306922161e-03
8.754184227647e-03
8.558193802072e-03
8.334997407192e-03
8.068819204853e-03
7.762785443445e-03
7.427323086437e-03
7.058285049061e-03
6.654683867341e-03
6.221229551878e-03
5.774776233065e-03
5.358629779640e-03
4.916159140196e-03
4.475197839442e-03
4.087402774268e-03
3.821146155906e-03
3.625173096465e-03
3.543380110908e-03
3.548592489773e-03
3.627285588636e-03
3.747928119676e-03
3.913616470479e-03
4.099021235200e-03
4.294755727334e-03
4.444597569376e-03
4.553250644953e-03
4.703750089634e-03
4.782413898213e-03
4.856352844906e-03
4.915534969201e-03
4.944711458464e-03
8.049594223066e-03
8.353733684048e-03
8.623273662875e-03
8.858250727765e-03
9.068766712395e-03
9.250427423718e-03
9.403891858943e-03
9.528537472779e-03
9.641056049126e-03
4.514806055442e-03
7.975024944452e-03
5.329325289834e-03
5.311871707628e-03
5.697994255685e-03
5.948063212474e-03
5.719746761125e-03
6.031842200802e-03
6.508273539417e-03
7.015638497754e-03
7.511612618201e-03
5.545572016740e-03
5.793938326787e-03
6.189020360256e-03
6.584726920506e-03
6.975509089854e-03
7.349550785523e-03
7.673502497129e-03
7.702112545197e-03
7.718575639107e-03
7.732015512188e-03
7.796246301645e-03
7.782565689235e-03
7.808247990992e-03
7.837549071688e-03
7.882822495476e-03
7.914458204969e-03
7.940514167138e-03
7.960788218953e-03
7.967938750258e-03
7.967790830740e-03
3.141767033308e-03
2.958626954513e-03
3.142568140340e-03
3.102960217640e-03
3.259354099281e-03
2.437177460494e-03
9.567773959356e-04
4.482764021914e-04
2.459561436283e-04
2.520447641714e-04
5.047942057523e-04
8.704496249669e-04
1.272693940160e-03
1.629672931721e-03
1.882105230100e-03
2.103906201290e-03
2.277633415848e-03
2.435308017403e-03
2.545765767980e-03
5.586518892776e-03
5.543934550143e-03
5.532717404996e-03
5.523337835838e-03
5.510439241731e-03
5.493183620905e-03
5.471413648806e-03
5.444885103083e-03
5.413714926202e-03
5.378320519024e-03
5.338675052934e-03
5.294490776154e-03
5.246228372542e-03
5.196286152356e-03
5.141653469360e-03
5.078204802215e-03
5.005671384389e-03
4.936249948769e-03
4.881925916985e-03
4.849477757854e-03
4.878072644122e-03
5.055867241283e-03
5.508855518054e-03
5.394558778834e-03
5.371035382059e-03
5.327977391748e-03
5.362141484412e-03
5.407651740370e-03
5.456590568136e-03
5.506433199162e-03
5.550226745938e-03
5.585209561132e-03
5.610713408565e-03
5.634851166782e-03
5.657040099330e-03
5.677388793693e-03
5.695960862412e-03
5.712301020302e-03
5.725798285707e-03
5.736546319130e-03
5.744879935175e-03
5.751132686189e-03
5.756813766191e-03
5.770919318452e-03
5.791094914518e-03
6.187487565135e-03
6.181893184166e-03
6.180568012457e-03
6.180940220614e-03
6.182901607122e-03
6.185424618842e-03
6.187330868412e-03
6.188674613925e-03
6.189557066230e-03
6.190581223377e-03
6.191849375313e-03
6.192689894544e-03
6.191876714230e-03
6.179360058629e-03
6.148946190438e-03
6.112710084148e-03
6.073025454694e-03
6.030764576073e-03
6.017986060612e-03
5.957383968047e-03
6.514016251016e-03
6.609102768519e-03
6.639485690929e-03
6.681190622756e-03
6.715095935784e-03
6.731480425000e-03
6.726887485287e-03
6.712478113819e-03
6.696450811686e-03
6.680684776124e-03
6.665491524197e-03
6.649477284582e-03
6.634717832370e-03
6.621222030913e-03
6.608847145245e-03
6.599949895463e-03
6.594287580517e-03
6.589893109109e-03
6.586803377675e-03
6.978581993274e-03
6.985959715212e-03
6.995029029210e-03
7.007239899754e-03
7.023232415586e-03
7.043946176879e-03
7.067164280921e-03
7.094811074459e-03
7.121129365414e-03
7.146303055679e-03
7.168947059418e-03
7.189519858435e-03
7.204560068309e-03
7.200114659947e-03
7.168070873268e-03
7.141453156750e-03
7.045235924120e-03
7.529027711723e-03
7.617577154026e-03
7.626371971816e-03
7.619700952978e-03
7.602554734389e-03
7.577878824315e-03
7.547698630749e-03
7.513952873217e-03
7.480404958913e-03
7.449532922604e-03
7.423228948566e-03
7.400923029287e-03
7.384371172566e-03
7.368834473800e-03
7.360813905153e-03
7.360882975456e-03
5.978213264842e-03
5.153384559580e-03
5.470734248906e-03
6.012185732950e-03
5.879480516513e-03
5.910788301196e-03
6.328182481093e-03
6.816501212479e-03
7.317117338076e-03
7.784849331062e-03
5.332303883231e-03
3.540115182980e-03
7.080535351434e-04
3.296598933516e-03
3.365233774056e-03
5.961734872541e-03
3.788146146689e-03
5.175414027440e-03
6.201305848833e-03
6.993619007544e-03
7.068048371666e-03
4.228102408723e-03
1.103830367295e-03
8.329958827869e-03
8.032158094898e-03
2.750105478168e-03
4.123124019074e-03
8.927818023565e-03
9.364422944838e-03
9.630007517583e-03
9.591078148383e-03
9.517113236658e-03
8.241562017954e-03
8.192524591041e-03
8.130956007575e-03
8.970497260021e-03
4.660613892449e-03
3.020947673606e-03
1.726916401305e-03
4.562291330602e-03
8.019690046674e-03
8.584108154074e-04
9.172858299563e-03
6.176037212936e-03
7.743643849954e-03
4.295599592816e-03
3.192118460036e-03
2.588821785688e-03
8.228720463129e-03
3.706704550859e-03
9.329312565656e-03
5.055561822417e-04
3.412602247324e-03
9.655559225132e-03
6.013047277379e-03
5.630291543082e-03
6.601488278928e-03
7.562859254413e-03
5.700559604754e-03
8.514572379372e-03
4.869128155269e-03
1.998346543242e-03
9.574139836586e-03
8.215931799944e-03
8.255142298806e-03
8.414841710025e-03
8.420940067131e-03
8.577451049180e-03
8.546366523668e-03
8.379996982752e-03
8.480032063716e-03
8.288481083122e-03
8.712492616052e-03
8.369979930756e-03
8.149610114956e-03
8.218031997808e-03
7.967192032943e-03
7.905220700744e-03
7.700481724273e-03
7.620278710718e-03
7.397064211723e-03
7.451760158323e-03
7.128043876324e-03
7.060355641058e-03
6.782683114652e-03
6.726042265835e-03
6.437777518589e-03
6.402494368921e-03
6.111171203114e-03
6.126797031968e-03
5.809177607407e-03
5.821142857285e-03
5.532260148657e-03
5.577795252698e-03
5.322726497322e-03
5.254673898298e-03
5.126817406612e-03
5.295457620054e-03
5.223235722267e-03
5.470340446894e-03
5.433829915458e-03
5.651050860737e-03
5.610545750475e-03
5.353902014358e-03
5.516908582345e-03
5.740354256377e-03
5.607615589944e-03
5.353154997096e-03
5.403073396857e-03
5.090789607066e-03
5.102598704801e-03
5.376283699593e-03
5.028296341975e-03
4.631961691615e-03
4.516288947317e-03
4.914267685212e-03
4.353432474127e-03
3.874524159183e-03
3.762913581951e-03
4.184946555180e-03
3.704990944859e-03
3.407678557209e-03
3.429466314815e-03
3.693372658357e-03
3.454147971295e-03
3.174146919020e-03
3.228322835475e-03
2.977964794933e-03
3.460651097286e-03
3.269103917130e-03
3.431039771082e-03
3.279045775330e-03
5.007268715073e-03
3.348770283315e-03
3.508549140402e-03
3.246027105744e-03
3.204221501868e-03
3.214300358237e-03
3.166029671266e-03
3.032372919178e-03
5.656107658289e-03
7.161571234804e-03
3.034408376326e-03
2.796658171212e-03
2.807648266430e-03
2.458354973331e-03
8.725247735495e-03
8.863385197463e-03
8.856995946600e-03
9.007266882474e-03
8.991009549973e-03
2.506494326616e-03
8.457480754190e-03
8.992820234883e-03
6.984698716129e-03
5.852416726466e-03
4.968863551987e-03
3.181580546546e-03
3.096666208150e-03
3.252721496660e-03
2.873916331752e-03
2.731608675285e-03
2.565162805511e-03
2.493794266982e-03
2.249944168033e-03
2.300734224603e-03
2.567331283159e-03
2.511294144580e-03
2.761863440847e-03
2.017385795800e-03
1.977189905917e-03
2.818339772017e-03
3.033201555735e-03
3.165155402940e-03
3.341872330501e-03
3.238741267113e-03
3.508997605504e-03
3.418523246025e-03
4.584234655755e-03
4.363626017685e-03
3.804223600917e-03
3.586374128151e-03
3.026505249742e-03
2.997649737464e-03
2.528379721767e-03
2.514530750154e-03
8.029693528955e-03
5.831178191587e-03
5.904422506883e-03
5.961683321098e-03
5.992612825672e-03
6.012867761746e-03
6.050440673623e-03
6.026433059952e-03
5.948637589522e-03
5.891259573458e-03
5.835419061369e-03
5.692274925750e-03
5.765744909040e-03
5.796967848808e-03
3.495630312266e-03
3.134767336716e-03
3.580592610160e-03
2.462255300289e-03
3.656690514833e-03
1.748925012827e-03
1.702706288874e-03
2.089630381653e-03
2.058513424004e-03
6.052412349907e-03
6.024683362355e-03
9.133677257824e-03
9.109404427596e-03
1.542841661545e-03
2.155628552224e-03
2.603686414722e-03
5.693101751024e-03
3.779429144319e-03
3.945604147307e-03
2.807043203472e-03
3.435066265788e-03
3.826911355703e-03
5.726748960370e-03
5.677500709330e-03
5.775566523604e-03
5.543176694566e-03
5.412461485719e-03
5.217575725878e-03
5.323835900835e-03
4.934541244551e-03
4.836494474896e-03
4.439305174572e-03
4.303172246672e-03
3.876983133362e-03
3.851645858664e-03
5.465615247310e-03
7.797559585013e-03
1.840806490845e-03
2.322694819641e-03
9.245940458457e-03
9.213764987412e-03
9.056385039468e-03
9.158131304419e-03
9.303047511165e-03
9.248045516051e-03
9.082763924617e-03
9.175638116645e-03
8.990085166194e-03
9.087451949903e-03
9.260106787046e-03
9.176409573580e-03
8.984934575089e-03
9.081081619865e-03
8.871060294875e-03
8.974435695739e-03
9.170146426695e-03
1.619289180906e-03
2.035807123645e-03
1.721383923673e-03
3.197190319262e-03
3.362163510453e-03
3.360909516728e-03
3.494111183417e-03
9.071381002078e-03
9.253227055238e-03
6.033747263055e-03
5.930721378120e-03
9.253340525083e-03
4.026860101351e-03
3.885286117427e-03
5.642852857756e-03
5.898898366364e-03
5.714143598888e-03
5.931773365423e-03
6.140633828782e-03
5.747888349106e-03
2.167108487451e-03
9.334734603572e-03
2.873915398680e-03
2.513129414455e-03
4.196762103276e-03
2.636523488057e-03
6.126398060022e-03
5.748975285559e-03
6.112412550683e-03
5.730236903679e-03
6.170610579008e-03
5.823447062408e-03
5.353665111416e-03
3.870068061606e-03
5.496219583719e-03
8.856328509555e-03
4.000995858596e-03
4.353741924213e-03
1.519221751101e-03
3.553059988296e-03
1.746387722934e-03
2.309698856641e-03
1.768429286881e-03
6.337870385004e-03
6.637815402324e-03
6.140396423492e-03
6.343290821622e-03
3.539892027022e-03
8.822955589040e-03
8.885395308782e-03
8.767856893928e-03
1.071371131383e-03
4.015791696128e-03
9.381071795314e-03
5.920127172480e-03
5.817933651428e-03
5.368927015458e-03
5.092479163977e-03
9.161578138562e-03
9.328567073747e-03
3.440155031939e-03
3.592605917865e-03
1.464407534252e-03
3.296854547511e-03
9.402502644443e-03
2.134456136280e-03
2.834765371079e-03
3.510084926634e-03
5.860140755503e-03
5.935747010105e-03
4.639960329039e-03
3.586036804332e-03
1.942113731854e-03
1.843286248315e-03
9.415967669708e-03
4.991016525458e-03
4.948116997854e-03
5.183822162475e-03
2.868073990873e-03
2.217112855865e-03
4.242400451565e-03
6.854903444795e-03
7.104205134139e-03
5.802072819723e-03
5.718865431461e-03
5.707753436372e-03
5.693648189874e-03
8.179475456014e-03
5.692243081774e-03
7.503227072936e-03
7.653132959440e-03
7.372187361576e-03
6.361043450229e-03
6.559528905390e-03
5.905885728911e-03
4.752130766098e-03
3.306384822737e-03
3.199026382057e-03
2.771915868932e-03
9.399133591400e-03
9.461603636618e-03
8.760003591061e-03
8.626300959746e-03
1.996625188266e-03
2.034514709932e-03
2.886289051565e-03
2.265103848093e-03
9.352965248942e-03
9.348363862045e-03
9.239667954798e-03
1.566012449625e-03
5.853867782704e-03
4.008651285917e-03
5.529072641868e-03
5.186356245009e-03
1.478115764277e-03
7.494628971787e-03
4.410384526869e-03
4.387626083223e-03
4.107741743700e-03
8.039516015779e-03
4.851481682578e-03
4.755835235120e-03
7.482920180372e-03
7.219092086099e-03
7.089293657198e-03
6.952583678387e-03
4.143515409102e-03
3.938312025507e-03
6.653011630400e-03
5.782740506846e-03
7.344606377448e-03
7.562218935210e-03
3.852536562407e-03
3.244153892701e-03
2.480642859675e-03
6.480075199473e-03
9.484312063957e-03
7.747174758282e-03
2.698932837424e-03
2.737773563853e-03
4.900333862707e-03
5.658117367875e-03
9.467779668601e-03
5.674673841032e-03
5.752494436895e-03
5.648494889755e-03
4.842352178972e-03
7.984568652572e-03
4.581907629010e-03
6.618324833718e-03
9.527743520384e-03
4.466583939249e-03
5.546667703634e-03
1.403459993688e-03
9.392946521009e-03
9.530635532932e-03
8.651008719607e-03
8.507425538516e-03
8.764558972284e-03
5.899919974111e-03
5.562398375791e-03
9.402611616627e-03
2.957277079342e-03
3.122788598627e-03
3.129847872872e-03
3.392631768070e-03
3.338793274130e-03
3.207636133247e-03
7.219504659751e-03
7.593470498600e-03
6.480873111967e-03
2.333350156318e-03
2.983144687671e-03
3.472268303392e-03
9.499041131418e-03
9.558613629410e-03
4.352717300134e-03
4.844180013786e-03
3.816986676906e-03
9.504439501131e-03
4.578307294644e-03
4.358476086093e-03
1.466372896637e-03
2.077933450299e-03
5.767991443785e-03
5.856274239861e-03
9.313038247027e-03
9.206556792935e-03
9.418453234693e-03
2.095643955380e-03
4.568338804713e-03
2.069062498096e-03
1.868151538730e-03
2.521886570438e-03
4.380123970288e-03
4.700946872189e-03
5.536324790530e-03
4.322270644522e-03
9.486559031998e-03
8.485347312950e-03
3.722459373165e-03
8.333195807332e-03
8.480502223575e-03
8.159758476840e-03
1.465025014044e-03
8.483460902045e-03
8.645192418309e-03
1.266599360370e-03
9.546224675991e-03
9.608212512184e-04
1.016527910070e-03
3.171458185439e-03
3.195659281665e-03
3.601682791207e-03
3.600079425465e-03
3.272480878573e-03
3.673332565640e-03
8.349242769357e-03
4.014106833423e-03
4.035422025100e-03
4.363280805948e-03
7.036461521656e-03
5.776899093717e-03
5.902559256849e-03
5.841833493023e-03
7.862655527026e-03
7.962510510667e-03
4.420292124964e-03
4.267965375083e-03
8.313682393626e-03
8.279272238989e-03
8.541410754216e-03
8.495848087469e-03
8.735790728494e-03
8.689309639100e-03
8.913293639986e-03
6.253164042648e-03
5.674116884577e-03
7.542491328458e-03
3.633634635297e-03
2.983284854243e-03
6.699362257303e-03
6.545438291399e-03
2.840470405012e-03
5.754764346669e-03
9.549876934144e-03
3.940616393197e-03
4.564940143383e-03
5.629023287849e-03
6.813061446651e-03
5.931483009732e-03
6.113769082028e-03
1.718142184261e-03
2.151464211787e-03
5.663741069904e-03
8.950750115848e-03
5.569062466708e-03
4.413415159767e-03
5.790143962520e-03
6.377499511105e-03
5.762550136731e-03
5.677948681237e-03
8.065385413880e-03
8.242393677258e-03
8.006297660602e-03
5.797588089087e-03
6.301672881283e-03
6.147758785187e-03
7.302490243068e-03
9.105898242875e-03
9.055283310014e-03
9.140822617257e-03
8.982803119101e-03
8.880172680361e-03
8.787370181170e-03
8.895332873499e-03
8.677370807333e-03
8.838372445272e-03
8.541475679482e-03
8.407659173629e-03
8.247406699424e-03
8.393525753851e-03
8.123128765989e-03
4.351556879512e-03
5.481299709460e-03
4.725765546296e-03
5.771669802465e-03
6.671796255420e-03
9.060853876717e-03
9.297497932063e-03
5.979690538786e-03
8.056515862770e-03
7.927287591409e-03
5.973813453209e-03
7.388519849269e-03
8.951064051592e-03
8.772843468348e-03
8.835516954738e-03
9.433376465334e-03
8.865367999585e-03
5.740087944310e-03
4.128812566490e-03
4.543082128625e-03
4.988425922236e-03
8.554444310449e-03
3.881057240208e-03
3.064237329851e-03
2.768360248991e-03
2.368406722367e-03
3.301354636474e-03
8.770327512286e-03
8.580886723193e-03
5.070117494665e-03
5.229550260592e-03
5.025971278494e-03
5.383567098961e-03
5.537321904397e-03
5.647982620831e-03
5.541566791943e-03
5.828993701865e-03
7.751517907583e-03
3.174969654975e-03
2.384446768190e-03
2.674154594151e-03
3.074270469846e-03
3.218606751432e-03
3.137091786813e-03
3.071920080383e-03
3.259179977868e-03
5.347996393726e-03
3.236053727948e-03
3.384825740507e-03
3.153098364828e-03
8.250421276366e-03
8.466041016452e-03
8.467221197137e-03
8.665775083061e-03
8.499172500381e-03
3.501990053651e-03
3.674334858615e-03
3.743416331051e-03
3.842545836936e-03
3.880385124560e-03
3.773869854626e-03
3.999175166299e-03
3.989356703517e-03
8.217153357232e-03
3.506879070197e-03
4.491650161868e-03
3.435603899848e-03
4.661255487460e-03
5.279928719182e-03
5.163324362152e-03
5.811921244087e-03
4.936887631780e-03
1.521631184655e-03
2.441381355198e-03
1.001190272367e-03
1.835179568168e-03
2.997372066431e-03
2.609911882783e-03
4.753405012569e-03
3.621830867095e-03
3.506471390898e-03
3.283256544489e-03
3.365620276707e-03
3.674679114927e-03
3.131312855552e-03
2.990339730787e-03
1.862191181231e-03
1.173886806040e-03
1.316303185556e-03
6.505865201466e-04
6.789151616962e-04
1.111767669858e-03
1.008862970726e-03
1.542211859077e-03
9.057848811899e-04
7.827039453106e-04
1.341293754259e-03
9.166637470674e-03
9.260824116269e-03
3.531064767298e-03
8.187916114215e-03
5.344311486705e-04
9.625610638349e-03
9.614214213340e-03
9.624328045157e-03
4.714901365579e-03
4.743369839872e-03
9.632738538559e-03
3.097946596008e-03
9.087707978430e-03
9.463900461172e-03
6.081041543901e-03
3.702475186894e-03
4.093987680260e-03
2.994104584382e-03
4.142412104780e-03
3.652869723411e-03
3.518704581587e-03
2.513075862010e-03
1.301311688663e-03
8.880069561556e-03
8.747581540388e-03
9.258330647149e-03
2.851801332812e-03
3.642218378743e-03
1.996886668972e-03
7.192927067339e-03
7.204347675600e-03
3.118976033404e-03
3.216380112418e-03
3.332113730553e-03
3.994569159190e-03
5.424432554064e-03
3.073973207517e-03
2.252010635276e-03
9.333496260413e-03
7.599244783330e-04
2.016248807530e-03
2.711683521542e-03
8.980991107523e-03
2.706414195450e-03
4.805568124373e-03
9.327841292717e-03
9.425770417488e-03
8.744445684854e-03
1.463678401847e-03
8.635374250862e-03
2.266718244015e-03
9.133127590459e-03
2.611122521983e-03
4.671333525879e-03
6.107110134985e-03
7.803748823662e-03
9.508208371446e-03
4.977619467987e-03
2.015562821751e-03
3.188607544110e-03
2.757207850236e-03
2.848519264865e-03
5.209052530406e-03
9.449348019965e-03
6.514559142353e-03
5.651775155803e-03
9.338730730930e-03
3.411257004341e-03
3.057270043026e-03
6.904602639446e-03
6.472525881117e-03
7.745537753545e-03
5.501130466933e-03
4.132206808367e-03
2.408508461242e-03
5.686867412276e-03
5.637470180121e-03
8.941710843957e-03
6.030619480302e-03
9.540365590689e-03
6.119992615220e-03
2.996659203036e-03
9.431356207952e-03
3.023197458335e-03
1.637763402125e-03
5.972150610695e-03
5.924295334826e-03
5.134131701731e-03
2.905235271207e-03
9.279356094092e-03
3.387523213292e-03
1.487156156705e-03
5.279933229458e-03
7.795503086522e-03
3.755787868680e-03
4.071698211340e-03
2.714420681124e-03
3.882642383304e-03
6.778312465140e-03
6.786616734309e-03
4.090915658236e-03
1.631233583924e-03
5.867368622812e-03
8.004761434263e-03
4.383215687179e-03
1.520217104950e-03
5.437706003321e-03
3.991962363975e-03
7.320692946962e-03
3.018576354916e-03
6.819932153357e-03
9.479998452034e-03
1.824242954834e-03
8.663920257408e-03
3.196238986345e-03
4.034320936302e-03
7.002259220768e-04
7.295158527056e-03
3.369180934396e-03
5.783545446730e-03
3.444008760303e-03
4.524481631588e-03
3.565503378759e-03
5.629773480339e-03
3.766451334508e-03
6.833253980373e-03
8.580019233145e-03
3.963283353770e-03
6.844024961548e-03
9.640260745480e-04
5.050651287088e-03
4.582592760197e-03
3.617056351955e-03
3.045492685271e-03
8.680180059273e-03
6.391771304721e-03
2.534643598060e-03
6.931680819668e-03
4.649205126691e-03
4.810533214990e-03
1.923217234880e-03
6.352863900972e-03
3.225642269166e-03
2.984040563559e-03
5.313270599011e-03
7.354376470765e-03
8.471419482926e-04
8.303102246153e-03
2.711699949366e-03
5.196135712799e-03
4.212555628697e-03
8.761900732650e-03
4.765872538885e-03
2.251414383307e-03
4.573647831013e-03
4.436754366764e-03
4.035781382652e-03
3.913389003593e-03
9.561339761801e-03
3.674002538129e-03
9.653101452772e-03
4.885914338768e-03
8.228319515437e-03
6.021364349067e-03
2.794468945265e-03
6.049141944302e-03
3.696536345962e-03
7.818562850642e-03
8.247611583734e-03
3.508568704232e-03
8.666623704965e-03
6.606444309763e-03
9.080479277717e-03
2.450492492369e-03
4.238682028206e-03
9.460347713826e-03
8.047121995528e-03
1.472515969000e-03
4.271367873073e-03
5.904131771955e-03
5.737238096333e-03
5.607642373957e-03
2.883048404114e-03
3.772241930506e-03
5.801481373225e-03
3.384820948581e-03
8.414871551013e-03
4.667553496259e-03
5.481769994008e-03
9.491086427079e-03
5.424704231623e-03
4.036622725105e-03
4.934102327217e-03
5.648532936651e-03
8.652479186199e-03
7.554925394794e-03
9.236012844479e-03
4.380833374428e-03
8.422479242079e-03
9.572548965763e-03
5.936542233160e-03
9.573782802543e-03
7.938607874738e-03
8.622790628264e-03
8.581901481220e-03
4.738913303296e-03
9.019753272313e-03
5.794137306185e-03
9.081649484836e-03
3.328933968240e-03
4.434462716128e-03
3.178728891143e-03
8.088034456040e-03
4.556128429071e-03
6.676893843851e-04
8.529733840923e-04
2.821081378559e-03
8.252900621452e-03
5.678054745140e-03
9.586850625941e-03
5.329114584711e-03
8.067827792316e-03
8.615972074874e-04
4.579982926535e-03
9.563621045911e-03
3.576539197276e-03
8.228648143833e-03
2.602567752860e-03
6.281000683141e-03
2.321478557829e-03
9.582723078278e-03
2.652580171200e-03
9.369334806427e-03
4.936885391758e-03
3.908246269368e-03
5.993641079682e-03
2.216052846608e-03
8.012817950570e-03
9.193620819017e-03
3.160569091412e-03
1.136163530816e-03
9.660851110533e-03
2.206530897265e-03
7.947877275542e-03
4.940060855857e-03
8.074732620136e-04
8.445023662826e-03
8.496088335781e-03
3.936445150341e-03
9.380337810756e-03
4.521295351077e-03
2.763983971695e-03
8.889030047788e-03
5.091976226210e-03
9.478301274898e-03
8.751537103370e-03
5.907971654339e-03
8.246377478239e-03
3.669272642635e-03
7.145082356121e-03
2.801109014504e-03
5.387604539126e-03
4.038651929514e-03
8.225893014775e-04
3.886719371915e-03
3.770129454028e-03
5.519085846472e-03
5.614870936718e-03
5.790299783284e-03
5.977592961816e-03
6.283937220311e-03
6.400002205885e-03
6.802613220780e-03
6.770505956704e-03
7.314344735397e-03
7.178943032759e-03
7.772845377184e-03
7.526071468167e-03


CELL_DATA 2186

SCALARS element_number int
LOOKUP_TABLE default
407
408
409
410
411
412
413
414
415
416
417
418
419
420
421
422
423
424
425
426
427
428
429
430
431
432
433
434
435
436
437
438
439
440
441
442
443
444
445
446
447
448
449
450
451
452
453
454
455
456
457
458
459
460
461
462
463
464
465
466
467
468
469
470
471
472
473
474
475
476
477
478
479
480
481
482
483
484
485
486
487
488
489
490
491
492
493
494
495
496
497
498
499
500
501
502
503
504
505
506
507
508
509
510
511
512
513
514
515
516
517
518
519
520
521
522
523
524
525
526
527
528
529
530
531
532
533
534
535
536
537
538
539
540
541
542
543
544
545
546
547
548
549
550
551
552
553
554
555
556
557
558
559
560
561
562
563
564
565
566
567
568
569
570
571
572
573
574
575
576
577
578
579
580
581
582
583
584
585
586
587
588
589
590
591
592
593
594
595
596
597
598
599
600
601
602
603
604
605
606
607
608
609
610
611
612
613
614
615
616
617
618
619
620
621
622
623
624
625
626
627
628
629
630
631
632
633
634
635
636
637
638
639
640
641
642
643
644
645
646
647
648
649
650
651
652
653
654
655
656
657
658
659
660
661
662
663
664
665
666
667
668
669
670
671
672
673
674
675
676
677
678
679
680
681
682
683
684
685
686
687
688
689
690
691
692
693
694
695
696
697
698
699
700
701
702
703
704
705
706
707
708
709
710
711
712
713
714
715
716
717
718
719
720
721
722
723
724
725
726
727
728
729
730
731
732
733
734
735
736
737
738
739
740
741
742
743
744
745
746
747
748
749
750
751
752
753
754
755
756
757
758
759
760
761
762
763
764
765
766
767
768
769
770
771
772
773
774
775
776
777
778
779
780
781
782
783
784
785
786
787
788
789
790
791
792
793
794
795
796
797
798
799
800
801
802
803
804
805
806
807
808
809
810
811
812
813
814
815
816
817
818
819
820
821
822
823
824
825
826
827
828
829
830
831
832
833
834
835
836
837
838
839
840
841
842
843
844
845
846
847
848
849
850
851
852
853
854
855
856
857
858
859
860
861
862
863
864
865
866
867
868
869
870
871
872
873
874
875
876
877
878
879
880
881
882
883
884
885
886
887
888
889
890
891
892
893
894
895
896
897
898
899
900
901
902
903
904
905
906
907
908
909
910
911
912
913
914
915
916
917
918
919
920
921
922
923
924
925
926
927
928
929
930
931
932
933
934
935
936
937
938
939
940
941
942
943
944
945
946
947
948
949
950
951
952
953
954
955
956
957
958
959
960
961
962
963
964
965
966
967
968
969
970
971
972
973
974
975
976
977
978
979
980
981
982
983
984
985
986
987
988
989
990
991
992
993
994
995
996
997
998
999
1000
1001
1002
1003
1004
1005
1006
1007
1008
1009
1010
1011
1012
1013
1014
1015
1016
1017
1018
1019
1020
1021
1022
1023
1024
1025
1026
1027
1028
1029
1030
1031
1032
1033
1034
1035
1036
1037
1038
1039
1040
1041
1042
1043
1044
1045
1046
1047
1048
1049
1050
1051
1052
1053
1054
1055
1056
1057
1058
1059
1060
1061
1062
1063
1064
1065
1066
1067
1068
1069
1070
1071
1072
1073
1074
1075
1076
1077
1078
1079
1080
1081
1082
1083
1084
1085
1086
1087
1088
1089
1090
1091
1092
1093
1094
1095
1096
1097
1098
1099
1100
1101
1102
1103
1104
1105
1106
1107
1108
1109
1110
1111
1112
1113
1114
1115
1116
1117
1118
1119
1120
1121
1122
1123
1124
1125
1126
1127
1128
1129
1130
1131
1132
1133
1134
1135
1136
1137
1138
1139
1140
1141
1142
1143
1144
1145
1146
1147
1148
1149
1150
1151
1152
1153
1154
1155
1156
1157
1158
1159
1160
1161
1162
1163
1164
1165
1166
1167
1168
1169
1170
1171
1172
1173
1174
1175
1176
1177
1178
1179
1180
1181
1182
1183
1184
1185
1186
1187
1188
1189
1190
1191
1192
1193
1194
1195
1196
1197
1198
1199
1200
1201
1202
1203
1204
1205
1206
1207
1208
1209
1210
1211
1212
1213
1214
1215
1216
1217
1218
1219
1220
1221
1222
1223
1224
1225
1226
1227
1228
1229
1230
1231
1232
1233
1234
1235
1236
1237
1238
1239
1240
1241
1242
1243
1244
1245
1246
1247
1248
1249
1250
1251
1252
1253
1254
1255
1256
1257
1258
1259
1260
1261
1262
1263
1264
1265
1266
1267
1268
1269
1270
1271
1272
1273
1274
1275
1276
1277
1278
1279
1280
1281
1282
1283
1284
1285
1286
1287
1288
1289
1290
1291
1292
1293
1294
1295
1296
1297
1298
1299
1300
1301
1302
1303
1304
1305
1306
1307
1308
1309
1310
1311
1312
1313
1314
1315
1316
1317
1318
1319
1320
1321
1322
1323
1324
1325
1326
1327
1328
1329
1330
1331
1332
1333
1334
1335
1336
1337
1338
1339
1340
1341
1342
1343
1344
1345
1346
1347
1348
1349
1350
1351
1352
1353
1354
1355
1356
1357
1358
1359
1360
1361
1362
1363
1364
1365
1366
1367
1368
1369
1370
1371
1372
1373
1374
1375
1376
1377
1378
1379
1380
1381
1382
1383
1384
1385
1386
1387
1388
1389
1390
1391
1392
1393
1394
1395
1396
1397
1398
1399
1400
1401
1402
1403
1404
1405
1406
1407
1408
1409
1410
1411
1412
1413
1414
1415
1416
1417
1418
1419
1420
1421
1422
1423
1424
1425
1426
1427
1428
1429
1430
1431
1432
1433
1434
1435
1436
1437
1438
1439
1440
1441
1442
1443
1444
1445
1446
1447
1448
1449
1450
1451
1452
1453
1454
1455
1456
1457
1458
1459
1460
1461
1462
1463
1464
1465
1466
1467
1468
1469
1470
1471
1472
1473
1474
1475
1476
1477
1478
1479
1480
1481
1482
1483
1484
1485
1486
1487
1488
1489
1490
1491
1492
1493
1494
1495
1496
1497
1498
1499
1500
1501
1502
1503
1504
1505
1506
1507
1508
1509
1510
1511
1512
1513
1514
1515
1516
1517
1518
1519
1520
1521
1522
1523
1524
1525
1526
1527
1528
1529
1530
1531
1532
1533
1534
1535
1536
1537
1538
1539
1540
1541
1542
1543
1544
1545
1546
1547
1548
1549
1550
1551
1552
1553
1554
1555
1556
1557
1558
1559
1560
1561
1562
1563
1564
1565
1566
1567
1568
1569
1570
1571
1572
1573
1574
1575
1576
1577
1578
1579
1580
1581
1582
1583
1584
1585
1586
1587
1588
1589
1590
1591
1592
1593
1594
1595
1596
1597
1598
1599
1600
1601
1602
1603
1604
1605
1606
1607
1608
1609
1610
1611
1612
1613
1614
1615
1616
1617
1618
1619
1620
1621
1622
1623
1624
1625
1626
1627
1628
1629
1630
1631
1632
1633
1634
1635
1636
1637
1638
1639
1640
1641
1642
1643
1644
1645
1646
1647
1648
1649
1650
1651
1652
1653
1654
1655
1656
1657
1658
1659
1660
1661
1662
1663
1664
1665
1666
1667
1668
1669
1670
1671
1672
1673
1674
1675
1676
1677
1678
1679
1680
1681
1682
1683
1684
1685
1686
1687
1688
1689
1690
1691
1692
1693
1694
1695
1696
1697
1698
1699
1700
1701
1702
1703
1704
1705
1706
1707
1708
1709
1710
1711
1712
1713
1714
1715
1716
1717
1718
1719
1720
1721
1722
1723
1724
1725
1726
1727
1728
1729
1730
1731
1732
1733
1734
1735
1736
1737
1738
1739
1740
1741
1742
1743
1744
1745
1746
1747
1748
1749
1750
1751
1752
1753
1754
1755
1756
1757
1758
1759
1760
1761
1762
1763
1764
1765
1766
1767
1768
1769
1770
1771
1772
1773
1774
1775
1776
1777
1778
1779
1780
1781
1782
1783
1784
1785
1786
1787
1788
1789
1790
1791
1792
1793
1794
1795
1796
1797
1798
1799
1800
1801
1802
1803
1804
1805
1806
1807
1808
1809
1810
1811
1812
1813
1814
1815
1816
1817
1818
1819
1820
1821
1822
1823
1824
1825
1826
1827
1828
1829
1830
1831
1832
1833
1834
1835
1836
1837
1838
1839
1840
1841
1842
1843
1844
1845
1846
1847
1848
1849
1850
1851
1852
1853
1854
1855
1856
1857
1858
1859
1860
1861
1862
1863
1864
1865
1866
1867
1868
1869
1870
1871
1872
1873
1874
1875
1876
1877
1878
1879
1880
1881
1882
1883
1884
1885
1886
1887
1888
1889
1890
1891
1892
1893
1894
1895
1896
1897
1898
1899
1900
1901
1902
1903
1904
1905
1906
1907
1908
1909
1910
1911
1912
1913
1914
1915
1916
1917
1918
1919
1920
1921
1922
1923
1924
1925
1926
1927
1928
1929
1930
1931
1932
1933
1934
1935
1936
1937
1938
1939
1940
1941
1942
1943
1944
1945
1946
1947
1948
1949
1950
1951
1952
1953
1954
1955
1956
1957
1958
1959
1960
1961
1962
1963
1964
1965
1966
1967
1968
1969
1970
1971
1972
1973
1974
1975
1976
1977
1978
1979
1980
1981
1982
1983
1984
1985
1986
1987
1988
1989
1990
1991
1992
1993
1994
1995
1996
1997
1998
1999
2000
2001
2002
2003
2004
2005
2006
2007
2008
2009
2010
2011
2012
2013
2014
2015
2016
2017
2018
2019
2020
2021
2022
2023
2024
2025
2026
2027
2028
2029
2030
2031
2032
2033
2034
2035
2036
2037
2038
2039
2040
2041
2042
2043
2044
2045
2046
2047
2048
2049
2050
2051
2052
2053
2054
2055
2056
2057
2058
2059
2060
2061
2062
2063
2064
2065
2066
2067
2068
2069
2070
2071
2072
2073
2074
2075
2076
2077
2078
2079
2080
2081
2082
2083
2084
2085
2086
2087
2088
2089
2090
2091
2092
2093
2094
2095
2096
2097
2098
2099
2100
2101
2102
2103
2104
2105
2106
2107
2108
2109
2110
2111
2112
2113
2114
2115
2116
2117
2118
2119
2120
2121
2122
2123
2124
2125
2126
2127
2128
2129
2130
2131
2132
2133
2134
2135
2136
2137
2138
2139
2140
2141
2142
2143
2144
2145
2146
2147
2148
2149
2150
2151
2152
2153
2154
2155
2156
2157
2158
2159
2160
2161
2162
2163
2164
2165
2166
2167
2168
2169
2170
2171
2172
2173
2174
2175
2176
2177
2178
2179
2180
2181
2182
2183
2184
2185
2186
2187
2188
2189
2190
2191
2192
2193
2194
2195
2196
2197
2198
2199
2200
2201
2202
2203
2204
2205
2206
2207
2208
2209
2210
2211
2212
2213
2214
2215
2216
2217
2218
2219
2220
2221
2222
2223
2224
2225
2226
2227
2228
2229
2230
2231
2232
2233
2234
2235
2236
2237
2238
2239
2240
2241
2242
2243
2244
2245
2246
2247
2248
2249
2250
2251
2252
2253
2254
2255
2256
2257
2258
2259
2260
2261
2262
2263
2264
2265
2266
2267
2268
2269
2270
2271
2272
2273
2274
2275
2276
2277
2278
2279
2280
2281
2282
2283
2284
2285
2286
2287
2288
2289
2290
2291
2292
2293
2294
2295
2296
2297
2298
2299
2300
2301
2302
2303
2304
2305
2306
2307
2308
2309
2310
2311
2312
2313
2314
2315
2316
2317
2318
2319
2320
2321
2322
2323
2324
2325
2564
2565
2566
2567
2568
2569
2570
2571
2572
2573
2574
2575
2576
2577
2578
2579
2580
2581
2582
2583
2584
2585
2586
2587
2588
2589
2590
2591
2592
2593
2594
2595
2596
2597
2598
2599
2600
2601
2602
2603
2604
2605
2606
2607
2608
2609
2610
2611
2612
2613
2614
2615
2616
2617
2618
2619
2620
2621
2622
2623
2624
2625
2626
2627
2628
2629
2630
2631
2632
2633
2634
2635
2636
2637
2638
2639
2640
2641
2642
2643
2644
2645
2646
2647
2648
2649
2650
2651
2652
2653
2654
2655
2656
2657
2658
2659
2660
2661
2662
2663
2664
2665
2666
2667
2668
2669
2670
2671
2672
2673
2674
2675
2676
2677
2678
2679
2680
2681
2682
2683
2684
2685
2686
2687
2688
2689
2690
2691
2692
2693
2694
2695
2696
2697
2698
2699
2700
2701
2702
2703
2704
2705
2706
2707
2708
2709
2710
2711
2712
2713
2714
2715
2716
2717
2718
2719
2720
2721
2722
2723
2724
2725
2726
2727
2728
2729
2730
2731
2732
2733
2734
2735
2736
2737
2738
2739
2740
2741
2742
2743
2744
2745
2746
2747
2748
2749
2750
2751
2752
2753
2754
2755
2756
2757
2758
2759
2760
2761
2762
2763
2764
2765
2766
2767
2768
2769
2770
2771
2772
2773
2774
2775
2776
2777
2778
2779
2780
2781
2782
2783
2784
2785
2786
2787
2788
2789
2790
2791
2792
2793
2794
2795
2796
2797
2798
2799
2800
2801
2802
2803
2804
2805
2806
2807
2808
2809
2810
2811
2812
2813
2814
2815
2816
2817
2818
2819
2820
2821
2822
2823
2824
2825
2826
2827
2828
2829
2830

SCALARS element_group int
LOOKUP_TABLE default
0
0
0
0
0
0
0
0
0
0
0
0
0
0
0
0
0
0
0
0
0
0
0
0
0
0
0
0
0
0
0
0
0
0
0
0
0
0
0
0
0
0
0
0
0
0
0
0
0
0
0
0
0
0
0
0
0
0
0
0
0
0
0
0
0
0
0
0
0
0
0
0
0
0
0
0
0
0
0
0
0
0
0
0
0
0
0
0
0
0
0
0
0
0
0
0
0
0
0
0
0
0
0
0
0
0
0
0
0
0
0
0
0
0
0
0
0
0
0
0
0
0
0
0
0
0
0
0
0
0
0
0
0
0
0
0
0
0
0
0
0
0
0
0
0
0
0
0
0
0
0
0
0
0
0
0
0
0
0
0
0
0
0
0
0
0
0
0
0
0
0
0
0
0
0
0
0
0
0
0
0
0
0
0
0
0
0
0
0
0
0
0
0
0
0
0
0
0
0
0
0
0
0
0
0
0
0
0
0
0
0
0
0
0
0
0
0
0
0
0
0
0
0
0
0
0
0
0
0
0
0
0
0
0
0
0
0
0
0
0
0
0
0
0
0
0
0
0
0
0
0
0
0
0
0
0
0
0
0
0
0
0
0
0
0
0
0
0
0
0
0
0
0
0
0
0
0
0
0
0
0
0
0
0
0
0
0
0
0
0
0
0
0
0
0
0
0
0
0
0
0
0
0
0
0
0
0
0
0
0
0
0
0
0
0
0
0
0
0
0
0
0
0
0
0
0
0
0
0
0
0
0
0
0
0
0
0
0
0
0
0
0
0
0
0
0
0
0
0
0
0
0
0
0
0
0
0
0
0
0
0
0
0
0
0
0
0
0
0
0
0
0
0
0
0
0
0
0
0
0
0
0
0
0
0
0
0
0
0
0
0
0
0
0
0
0
0
0
0
0
0
0
0
0
0
0
0
0
0
0
0
0
0
0
0
0
0
0
0
0
0
0
0
0
0
0
0
0
0
0
0
0
0
0
0
0
0
0
0
0
0
0
0
0
0
0
0
0
0
0
0
0
0
0
0
0
0
0
0
0
0
0
0
0
0
0
0
0
0
0
0
0
0
0
0
0
0
0
0
0
0
0
0
0
0
0
0
0
0
0
0
0
0
0
0
0
0
0
0
0
0
0
0
0
0
0
0
0
0
0
0
0
0
0
0
0
0
0
0
0
0
0
0
0
0
0
0
0
0
0
0
0
0
0
0
0
0
0
0
0
0
0
0
0
0
0
0
0
0
0
0
0
0
0
0
0
0
0
0
0
0
0
0
0
0
0
0
0
0
0
0
0
0
0
0
0
0
0
0
0
0
0
0
0
0
0
0
0
0
0
0
0
0
0
0
0
0
0
0
0
0
0
0
0
0
0
0
0
0
0
0
0
0
0
0
0
0
0
0
0
0
0
0
0
0
0
0
0
0
0
0
0
0
0
0
0
0
0
0
0
0
0
0
0
0
0
0
0
0
0
0
0
0
0
0
0
0
0
0
0
0
0
0
0
0
0
0
0
0
0
0
0
0
0
0
0
0
0
0
0
0
0
0
0
0
0
0
0
0
0
0
0
0
0
0
0
0
0
0
0
0
0
0
0
0
0
0
0
0
0
0
0
0
0
0
0
0
0
0
0
0
0
0
0
0
0
0
0
0
0
0
0
0
0
0
0
0
0
0
0
0
0
0
0
0
0
0
0
0
0
0
0
0
0
0
0
0
0
0
0
0
0
0
0
0
0
0
0
0
0
0
0
0
0
0
0
0
0
0
0
0
0
0
0
0
0
0
0
0
0
0
0
0
0
0
0
0
0
0
0
0
0
0
0
0
0
0
0
0
0
0
0
0
0
0
0
0
0
0
0
0
0
0
0
0
0
0
0
0
0
0
0
0
0
0
0
0
0
0
0
0
0
0
0
0
0
0
0
0
0
0
0
0
0
0
0
0
0
0
0
0
0
0
0
0
0
0
0
0
0
0
0
0
0
0
0
0
0
0
0
0
0
0
0
0
0
0
0
0
0
0
0
0
0
0
0
0
0
0
0
0
0
0
0
0
0
0
0
0
0
0
0
0
0
0
0
0
0
0
0
0
0
0
0
0
0
0
0
0
0
0
0
0
0
0
0
0
0
0
0
0
0
0
0
0
0
0
0
0
0
0
0
0
0
0
0
0
0
0
0
0
0
0
0
0
0
0
0
0
0
0
0
0
0
0
0
0
0
0
0
0
0
0
0
0
0
0
0
0
0
0
0
0
0
0
0
0
0
0
0
0
0
0
0
0
0
0
0
0
0
0
0
0
0
0
0
0
0
0
0
0
0
0
0
0
0
0
0
0
0
0
0
0
0
0
0
0
0
0
0
0
0
0
0
0
0
0
0
0
0
0
0
0
0
0
0
0
0
0
0
0
0
0
0
0
0
0
0
0
0
0
0
0
0
0
0
0
0
0
0
0
0
0
0
0
0
0
0
0
0
0
0
0
0
0
0
0
0
0
0
0
0
0
0
0
0
0
0
0
0
0
0
0
0
0
0
0
0
0
0
0
0
0
0
0
0
0
0
0
0
0
0
0
0
0
0
0
0
0
0
0
0
0
0
0
0
0
0
0
0
0
0
0
0
0
0
0
0
0
0
0
0
0
0
0
0
0
0
0
0
0
0
0
0
0
0
0
0
0
0
0
0
0
0
0
0
0
0
0
0
0
0
0
0
0
0
0
0
0
0
0
0
0
0
0
0
0
0
0
0
0
0
0
0
0
0
0
0
0
0
0
0
0
0
0
0
0
0
0
0
0
0
0
0
0
0
0
0
0
0
0
0
0
0
0
0
0
0
0
0
0
0
0
0
0
0
0
0
0
0
0
0
0
0
0
0
0
0
0
0
0
0
0
0
0
0
0
0
0
0
0
0
0
0
0
0
0
0
0
0
0
0
0
0
0
0
0
0
0
0
0
0
0
0
0
0
0
0
0
0
0
0
0
0
0
0
0
0
0
0
0
0
0
0
0
0
0
0
0
0
0
0
0
0
0
0
0
0
0
0
0
0
0
0
0
0
0
0
0
0
0
0
0
0
0
0
0
0
0
0
0
0
0
0
0
0
0
0
0
0
0
0
0
0
0
0
0
0
0
0
0
0
0
0
0
0
0
0
0
0
0
0
0
0
0
0
0
0
0
0
0
0
0
0
0
0
0
0
0
0
0
0
0
0
0
0
0
0
0
0
0
0
0
0
0
0
0
0
0
0
0
0
0
0
0
0
0
0
0
0
0
0
0
0
0
0
0
0
0
0
0
0
0
0
0
0
0
0
0
0
0
0
0
0
0
0
0
0
0
0
0
0
0
0
0
0
0
0
0
0
0
0
0
0
0
0
0
0
0
0
0
0
0
0
0
0
0
0
0
0
0
0
0
0
0
0
0
0
0
0
0
0
0
0
0
0
0
0
0
0
0
0
0
0
0
0
0
0
0
0
0
0
0
0
0
0
0
0
0
0
0
0
0
0
0
0
0
0
0
0
0
0
0
0
0
0
0
0
0
0
0
0
0
0
0
0
0
0
0
0
0
0
0
0
0
0
0
0
0
0
0
0
0
0
0
0
0
0
0
0
0
0
0
0
0
0
0
0
0
0
0
0
0
0
0
0
0
0
0
0
0
0
0
0
0
0
0
0
0
0
0
0
0
0
0
0
0
0
0
0
0
0
0
0
0
0
0
0
0
0
0
0
0
0
0
0
0
0
0
0
0
0
0
0
0
0
0
0
0
0
0
0
0
0
0
0
0
0
0
0
0
0
0
0
0
0
0
0
0
0
0
0
0
0
0
0
0
0
0
0
0
0
0
0
0
0
0
0
0
0
0
0
0
0
0
0
0
0
0
0
0
0
0
0
0
0
0
0
0
0
0
0
0
0
0
0
0
0
0
0
0
0
0
0
0
0
0
0
0
0
0
0
0
0
0
0
0
0
0
0
0
0
0
0
0
0
0
0
0
0
0
0
0
0
0
0
0
0
0
0
0
0
0
0
0
0
0
0
0
0
0
0
0
0
0
0
0
0
0
0
0
0
0
0
0
0
0
0
0
0
0
0
0
0
0
0
0
0
0
0
0
0
0
0
0
0
0
0
0
0
0
0
0
0
0
0
0
0
0
0
0
0
0
0
0
0
0
0
0
0
0
0
0
0
0
0
0
0
0
0
0
0
0
0
0
0
0
0
0
0
0
0
0
0
0
0
0
0
0
0
0
0
0
0
0
0
0
0
0
0
0
0
0
0
0
0
0
0
0
0
0
0
0
0
0
0
0
0
0
0
0
0
0
0
0
0
0
0
0
0
0
0
0
0
0
0
0
0
0
0
0
0
0
0
0
0
0
0
0
0
0
0
0
0
0
0
0
0
0
0
0
0
0
0
0
0
0
0
0
0
0
0
0
0
0
0
0
0
0
0
0
0
0
0
0
0
0
0
0
0
0
0
0
0
0
0
0
0
0
0
0
0
0
0
0
0
0
0
0
0
0
0
0
0
0
0
0
0
0
0
0
0
0
0
0
0
0
0
0
0
0
0
0
0
0
0
0
0
0
0
0
0
0
0
0
0
0
0
0
0
0
0
0
0
0
0
0
0
0
0
0
0
0
0
0
0
0
0
0
0
0
0
0
0
0
0
0
0
0
0
0
0
0
0
0
0
0
0
0
0
0
0
0
0
0
0
0
0
0
0
0
0
0
0
0
0
0
0
0
0
0
0
0
0
0
0
0
0
0
0
0
0
0
0
0
0
0
0
0
0
0
0
0
0
0
0
0
0
0
0
0
0
0
0
0
0
0
0
0
0
0
0
0
0
0
0
0
0
0
0
0
0
0
0
0
0
0
0
0
0
0
0
0
0
0
0
0
0
0
0
0
0
0
0
0
0
0
0
0
0
0
0
0
0
0
0
0
0
0
0
0
0
0
0
0
0


VECTORS element_materi_velocity float
1.829963026897e-03 9.025673808975e-03 0.0 
1.997936027231e-03 8.229527986429e-03 0.0 
6.623825908981e-04 9.668456617356e-04 0.0 
7.933037040514e-05 1.485908224004e-03 0.0 
8.363056302180e-04 8.357088747058e-03 0.0 
-4.886500243340e-06 1.532258771932e-03 0.0 
6.284301552983e-04 8.264259019033e-03 0.0 
1.798187413251e-03 7.608994558393e-03 0.0 
6.959205713348e-04 8.321183184980e-03 0.0 
1.166197909850e-04 1.521796367503e-03 0.0 
1.287266435475e-04 -2.020000888465e-04 0.0 
1.422214462960e-03 7.811535501718e-03 0.0 
5.877850758275e-05 4.377459658922e-06 0.0 
1.277124514176e-03 7.458305606992e-03 0.0 
4.851878973789e-05 6.876471986340e-06 0.0 
6.391924310431e-05 1.050226731292e-03 0.0 
1.084780092937e-03 8.699160540636e-03 0.0 
4.047616929822e-05 1.313535027740e-03 0.0 
7.153124938048e-05 -6.242487663658e-04 0.0 
5.819988626769e-05 -6.154114455854e-04 0.0 
1.390181286209e-04 1.559738037631e-03 0.0 
2.174781141374e-03 9.746768133383e-03 0.0 
2.364890886083e-03 9.470697141096e-03 0.0 
8.003650954440e-04 1.949381972737e-04 0.0 
1.492257292830e-03 6.443515974976e-03 0.0 
1.421834463888e-04 -1.720478016032e-04 0.0 
1.722336094209e-03 9.405321104175e-03 0.0 
9.498956576188e-04 6.222609972900e-04 0.0 
1.588242655336e-03 6.426752298943e-03 0.0 
6.553624829659e-04 1.598792148167e-04 0.0 
3.097872690058e-04 1.543730209024e-04 0.0 
1.103216430090e-04 -5.231873998198e-04 0.0 
7.618938423510e-04 1.192646144235e-03 0.0 
4.078933159839e-05 -5.596184580644e-05 0.0 
3.202221673234e-04 4.590137774059e-05 0.0 
9.021665044748e-05 1.173518994868e-05 0.0 
8.250374586137e-05 1.049340395047e-05 0.0 
7.722412939116e-04 3.017591003360e-04 0.0 
5.290069259272e-04 9.208019836994e-03 0.0 
4.815525547822e-04 9.216746832140e-03 0.0 
2.443357851742e-03 9.699084795315e-03 0.0 
3.136141606374e-04 5.913714346707e-05 0.0 
9.975372370981e-04 5.879595658693e-03 0.0 
1.808569764988e-03 9.040377698512e-03 0.0 
4.244747739563e-05 2.103344223610e-03 0.0 
1.049914784073e-03 5.193481677264e-03 0.0 
1.747520077042e-04 1.692261431748e-04 0.0 
4.816798938006e-05 1.786615176490e-03 0.0 
-1.881632878733e-05 7.661801770141e-05 0.0 
1.251095388529e-03 7.924220361723e-03 0.0 
2.427387002583e-03 9.651954987992e-03 0.0 
7.939048860448e-05 -5.975963720407e-04 0.0 
6.478335279739e-04 2.151179488063e-04 0.0 
2.330322116394e-03 1.003641533656e-02 0.0 
4.788916273859e-04 1.016757601405e-03 0.0 
1.539736473907e-04 -5.394501773250e-04 0.0 
6.545467742447e-05 -5.860713321776e-04 0.0 
8.268155952146e-05 -5.637563140282e-05 0.0 
1.357582841597e-04 -6.325692215504e-04 0.0 
7.681506029798e-05 1.059175639256e-03 0.0 
-2.177814269824e-04 4.176868261976e-04 0.0 
1.354892818555e-03 7.568185067655e-04 0.0 
2.872436357571e-03 5.886632644463e-03 0.0 
5.332736506368e-04 1.692527585726e-04 0.0 
9.579861655645e-05 6.902048625011e-06 0.0 
2.270140297916e-03 9.975859522690e-03 0.0 
-1.913905122724e-04 5.282113736325e-04 0.0 
8.148432297566e-04 1.139950785223e-03 0.0 
3.490627043372e-04 -3.793742126067e-04 0.0 
7.770618518365e-04 7.236160193973e-04 0.0 
2.139905810672e-04 -1.395588350653e-04 0.0 
7.870323770780e-05 2.975482730351e-04 0.0 
1.244054108742e-03 8.418105900160e-04 0.0 
8.160839972263e-06 -6.654637973398e-04 0.0 
1.402104173321e-04 -5.235906234597e-04 0.0 
2.749777447245e-04 1.371210406139e-03 0.0 
5.977038586230e-04 1.228986206460e-03 0.0 
4.685805006236e-04 3.619249366350e-03 0.0 
1.587788448387e-04 -6.247375051248e-04 0.0 
5.228525523606e-04 4.099698916260e-03 0.0 
3.683283909273e-04 -3.281686877845e-04 0.0 
1.020445732242e-03 8.427585226242e-03 0.0 
2.246550685084e-03 9.137245841766e-03 0.0 
1.971680921995e-03 9.449543928435e-03 0.0 
7.849755433277e-04 7.781890501478e-03 0.0 
7.180165543283e-04 7.745082471154e-03 0.0 
1.254819431793e-04 -1.201697764767e-04 0.0 
2.197511874165e-05 -7.449259320219e-05 0.0 
1.931370431486e-03 3.232171908174e-03 0.0 
9.003277523712e-04 8.327495482313e-03 0.0 
1.277321561210e-04 -4.969673366424e-04 0.0 
1.759848673493e-03 8.192138968610e-03 0.0 
1.304549943815e-04 4.203753890261e-03 0.0 
1.586100534340e-04 4.545195914882e-03 0.0 
1.574533031830e-04 5.516421920048e-04 0.0 
5.587733202674e-04 2.224107240939e-04 0.0 
1.148216933515e-03 8.464885232859e-03 0.0 
3.597288287430e-04 6.270508852344e-05 0.0 
9.909452350164e-05 6.669852886082e-03 0.0 
2.730694967439e-03 6.441171822702e-03 0.0 
8.140310667538e-04 8.841682334027e-03 0.0 
6.235999438864e-05 7.730227428838e-06 0.0 
2.260058202804e-03 1.252875655793e-03 0.0 
1.337041698950e-03 7.074601644824e-04 0.0 
2.259691730309e-03 4.039590201870e-03 0.0 
1.129606334734e-04 6.326170921207e-05 0.0 
6.842195483890e-05 -1.144381328815e-05 0.0 
1.315212297668e-04 3.623333959348e-03 0.0 
-1.182103669195e-04 1.844221817549e-04 0.0 
1.150136983783e-04 1.322290062739e-05 0.0 
2.114809131387e-03 3.622698474234e-03 0.0 
1.344177448766e-05 -6.703247291432e-04 0.0 
2.906396171035e-03 3.313756850926e-03 0.0 
2.182504373327e-03 8.945884260481e-03 0.0 
2.583707906157e-04 -4.498128982478e-04 0.0 
2.518188282924e-03 6.360240037308e-03 0.0 
2.835037616314e-03 5.331718100070e-03 0.0 
2.276340928997e-04 3.545774025861e-05 0.0 
1.263254662140e-04 7.080765114977e-03 0.0 
2.636728921331e-03 5.230057295831e-03 0.0 
2.964495362105e-04 -4.931569126497e-04 0.0 
1.831641530030e-03 8.426194812154e-03 0.0 
1.035218936211e-04 3.321665076908e-03 0.0 
2.576289209517e-03 4.687230018007e-03 0.0 
-9.900451315929e-05 2.487304266590e-03 0.0 
2.362496007987e-03 9.485712905121e-03 0.0 
2.231605141649e-04 -4.658513352378e-04 0.0 
2.308435055988e-03 9.874353402876e-03 0.0 
2.091538121882e-04 9.703819483434e-04 0.0 
1.289045946538e-04 2.324926849802e-03 0.0 
1.998278472114e-04 -1.668942322175e-04 0.0 
6.277494930882e-05 1.470578736787e-03 0.0 
3.066603405765e-03 7.131767759051e-03 0.0 
2.413309629342e-03 9.648680095066e-03 0.0 
3.452018588198e-04 5.260610210578e-05 0.0 
4.029783665569e-05 3.730701396954e-06 0.0 
1.770180344413e-04 -1.175970271121e-04 0.0 
3.085093308222e-03 6.938582566483e-03 0.0 
4.591658745218e-04 1.074327695735e-04 0.0 
2.870586349566e-03 8.111535501848e-03 0.0 
1.586258135313e-04 1.086184468315e-03 0.0 
9.003562278887e-04 8.957772737947e-04 0.0 
1.357074130945e-03 7.411438898049e-03 0.0 
3.089278102804e-04 5.514881908670e-03 0.0 
2.954862126924e-03 7.720255857875e-03 0.0 
2.334579325314e-03 1.001046290072e-02 0.0 
3.152608447633e-03 6.384543922978e-03 0.0 
2.614135183713e-03 3.846651732287e-03 0.0 
6.035125957001e-04 8.742530134512e-03 0.0 
2.815099154297e-03 2.959892761716e-03 0.0 
1.336757936856e-04 -5.467154149045e-04 0.0 
1.448905494870e-04 7.978635341863e-03 0.0 
5.789371124148e-05 -6.381223958509e-04 0.0 
2.283663064634e-03 9.247282866046e-03 0.0 
3.703552956276e-04 8.429136244202e-05 0.0 
2.339542543315e-03 4.544153937877e-03 0.0 
9.515414755556e-05 -9.714056282500e-05 0.0 
1.300142739757e-03 6.247090053935e-03 0.0 
2.309649618825e-03 1.369039549761e-03 0.0 
3.402443359814e-04 8.401883716701e-03 0.0 
2.668386523078e-03 2.875695938106e-03 0.0 
9.307749243173e-05 -3.877502528330e-05 0.0 
3.169507829553e-04 -4.608151306506e-04 0.0 
9.591610507562e-05 -1.041126012050e-05 0.0 
2.463317021624e-03 7.765507567292e-03 0.0 
1.314444080655e-04 1.241177358416e-05 0.0 
1.447832758838e-04 8.474051673765e-03 0.0 
2.400908192449e-03 3.719405645755e-03 0.0 
2.176686420930e-03 9.372505886756e-03 0.0 
8.249511447027e-05 -2.109293316397e-04 0.0 
1.207143938911e-03 7.110793885599e-03 0.0 
2.573700788068e-03 2.544802970608e-03 0.0 
2.687079630177e-04 4.995407806939e-03 0.0 
3.896478716737e-04 8.738851541089e-03 0.0 
2.697080333662e-03 3.528028781691e-03 0.0 
2.254793389523e-03 9.659540481600e-03 0.0 
1.894737881628e-03 2.181791786388e-03 0.0 
2.681426655451e-04 -4.173914117525e-04 0.0 
7.643006533458e-04 4.692208629340e-04 0.0 
9.424271133569e-04 8.482849150321e-04 0.0 
2.335156721896e-03 6.901263078399e-03 0.0 
2.387055565503e-04 -4.034039425267e-04 0.0 
1.204155394715e-03 3.429010081761e-04 0.0 
2.724575035776e-03 8.716499115362e-03 0.0 
2.044667501361e-03 6.757865756922e-03 0.0 
2.274363584943e-03 8.421568867760e-03 0.0 
2.860983352894e-03 3.621798239242e-03 0.0 
1.142388596616e-04 1.147650736836e-03 0.0 
1.850680837091e-03 3.791307059113e-03 0.0 
6.494451074176e-05 -2.400612473788e-05 0.0 
8.029717029845e-04 4.369210855434e-03 0.0 
2.311859185223e-03 2.145130040555e-03 0.0 
1.846771645154e-03 3.277225740759e-03 0.0 
-7.601355453049e-04 1.636736127239e-03 0.0 
2.625112551148e-03 9.068155171785e-03 0.0 
1.288707055042e-03 2.738861018103e-04 0.0 
1.415735888516e-04 -6.281352393668e-04 0.0 
6.991059235872e-04 1.302427293358e-03 0.0 
1.689198201909e-03 5.354368453418e-03 0.0 
9.834451843220e-04 -2.517881210826e-04 0.0 
1.350434938515e-03 3.149259128100e-04 0.0 
1.762116261163e-03 7.676551730310e-03 0.0 
1.468789593062e-03 6.912684937622e-03 0.0 
6.182323326964e-04 1.418330692913e-04 0.0 
6.390538913054e-04 -4.286534242844e-04 0.0 
3.238932128158e-03 5.519879799579e-03 0.0 
2.636372576668e-03 7.067660391534e-03 0.0 
1.574939451212e-03 4.880830103425e-03 0.0 
2.416488072884e-03 7.365172567505e-03 0.0 
2.385826750544e-03 8.298759355869e-03 0.0 
2.521989390143e-03 1.365700190697e-03 0.0 
2.067097469563e-03 2.560098971543e-03 0.0 
-4.227225798414e-04 1.423544171521e-03 0.0 
2.346104292575e-03 7.654944136222e-03 0.0 
2.744151797357e-03 7.054331435888e-03 0.0 
3.207079921366e-03 6.029595301426e-03 0.0 
1.677536384204e-03 3.359415780742e-03 0.0 
4.812909360449e-04 1.496675630735e-03 0.0 
1.289915376958e-03 2.232601954814e-04 0.0 
4.378277640987e-04 8.618168079300e-03 0.0 
2.406313929006e-03 2.447141016979e-03 0.0 
1.265335572198e-03 1.652243475010e-04 0.0 
1.352128460075e-04 -5.955797369508e-04 0.0 
1.541604068498e-03 4.389548588843e-03 0.0 
1.139417056670e-04 -6.044209379984e-04 0.0 
1.450632403238e-04 -6.308531930964e-04 0.0 
8.161074532353e-04 4.921617510020e-03 0.0 
5.473529872177e-04 -4.617832749456e-04 0.0 
1.403520793446e-03 3.919998322670e-03 0.0 
5.190492251385e-04 -4.610530195060e-04 0.0 
1.201835935578e-03 3.375434337930e-03 0.0 
5.489973919478e-04 -9.341956961549e-05 0.0 
3.413903515622e-04 -5.031119655555e-04 0.0 
1.321235757274e-03 3.567324855458e-04 0.0 
2.575217467743e-03 7.607128314404e-03 0.0 
1.140658641010e-04 8.342897605111e-06 0.0 
-6.298313822815e-04 1.435459799649e-03 0.0 
1.653460227369e-03 3.271215579659e-03 0.0 
2.627022109008e-03 2.328010376181e-03 0.0 
2.639885222560e-03 8.962968390328e-03 0.0 
1.356548616614e-03 2.639292407666e-04 0.0 
1.421060173214e-04 1.538221981185e-05 0.0 
1.916459519953e-03 4.266411029352e-03 0.0 
1.734378367785e-03 1.830756774036e-03 0.0 
1.264053457266e-03 3.153100804073e-04 0.0 
1.048100889826e-04 -1.472851538154e-04 0.0 
3.134514656541e-03 6.177401810194e-03 0.0 
1.767212927395e-03 4.839464982839e-03 0.0 
1.138636676462e-03 6.388146947077e-04 0.0 
2.528241041719e-03 2.048529008930e-03 0.0 
1.461296106528e-03 3.544602808204e-03 0.0 
2.393778141469e-03 6.432583288473e-03 0.0 
1.267778375657e-04 5.052486525367e-04 0.0 
3.266989428708e-03 5.172227982952e-03 0.0 
2.601545982767e-03 1.452470318960e-03 0.0 
3.267887363828e-04 7.806214062999e-03 0.0 
3.027658689781e-04 -2.928889430156e-04 0.0 
2.307060804282e-03 7.478683329347e-03 0.0 
1.815630792972e-03 2.116422149655e-03 0.0 
8.824905473967e-04 1.425159950774e-03 0.0 
4.038659832666e-04 2.405907834903e-04 0.0 
1.316839761809e-03 3.930648307087e-03 0.0 
2.575553378539e-03 6.695321723485e-03 0.0 
2.709665387775e-03 4.309912368531e-03 0.0 
1.175508448513e-03 3.455413586762e-03 0.0 
1.940304124854e-03 3.743328806310e-03 0.0 
3.021433166980e-03 6.217118515982e-03 0.0 
1.629510071297e-04 2.191915441276e-05 0.0 
2.550017611449e-03 1.314294660544e-03 0.0 
2.876336071537e-03 6.157277388009e-03 0.0 
3.021011450373e-03 3.373681973649e-03 0.0 
2.574768694856e-03 1.346059428486e-03 0.0 
1.246897140858e-03 1.377890965687e-03 0.0 
1.595586888167e-03 8.330409924921e-03 0.0 
2.456879421164e-03 1.632720217596e-03 0.0 
1.311036756780e-03 3.855594839831e-04 0.0 
1.822036003545e-03 4.308248256377e-03 0.0 
-6.805138582601e-04 1.254989966150e-03 0.0 
2.250028581961e-03 7.049938701071e-03 0.0 
1.851009303302e-03 1.671897128418e-03 0.0 
1.583219443850e-03 2.872322168242e-03 0.0 
1.185986362372e-03 1.156546917265e-03 0.0 
2.410241649327e-03 5.921563954516e-03 0.0 
1.847162983388e-04 -4.922205834800e-04 0.0 
2.856570435311e-03 7.557515630483e-03 0.0 
2.493338422038e-03 1.211656400089e-03 0.0 
2.467569320874e-03 6.834454646568e-03 0.0 
1.591659592981e-03 7.704492746655e-03 0.0 
2.573307379309e-04 1.184547061191e-03 0.0 
1.380372111494e-03 5.190229848544e-04 0.0 
1.105951990390e-03 2.061819461737e-04 0.0 
2.542592683521e-03 7.727080708318e-03 0.0 
1.864643368155e-03 4.802660107743e-03 0.0 
2.888920812463e-03 7.022389574618e-03 0.0 
2.328121915038e-03 1.555907869836e-03 0.0 
2.380464976995e-03 1.963310626932e-03 0.0 
4.529014873512e-04 1.263644432222e-03 0.0 
3.028837040824e-03 3.077447886681e-03 0.0 
6.734382093939e-04 3.012126081075e-03 0.0 
2.463086185635e-04 4.990348281439e-04 0.0 
3.222188902538e-04 5.131895702140e-04 0.0 
3.266209524898e-03 4.717028798555e-03 0.0 
1.525368702745e-03 1.725030312967e-03 0.0 
1.274396528575e-03 2.383203675710e-03 0.0 
2.888083992514e-03 5.646552235309e-03 0.0 
1.378118781982e-03 1.889725718743e-03 0.0 
1.166631332400e-03 3.228254198172e-04 0.0 
3.061454038782e-03 6.477803295471e-03 0.0 
2.069625127458e-04 1.320671328187e-03 0.0 
2.130718780362e-03 2.043442915032e-03 0.0 
2.591831037603e-03 1.513962423537e-03 0.0 
8.902159994303e-04 2.808095281235e-03 0.0 
2.292171313677e-04 6.388029129216e-05 0.0 
1.445734883923e-03 2.186854140515e-03 0.0 
3.161344639084e-03 5.660839142853e-03 0.0 
6.397500444467e-04 1.114767085045e-03 0.0 
1.871736157261e-03 4.808821396694e-04 0.0 
2.558390989590e-03 1.869276558503e-03 0.0 
1.178213792389e-03 1.573720844586e-04 0.0 
2.742299663809e-03 6.886371196771e-03 0.0 
3.357455412569e-04 3.725049994842e-04 0.0 
2.121380877028e-03 1.617314367600e-03 0.0 
2.405106596008e-03 1.067776268825e-03 0.0 
8.387391670104e-04 2.451012500733e-03 0.0 
1.063575833205e-03 5.868074411033e-03 0.0 
1.334873245169e-03 2.041166849010e-04 0.0 
1.798426918651e-03 4.199697154848e-03 0.0 
1.056608343400e-03 6.362767921476e-03 0.0 
3.965069781916e-04 3.197647615678e-04 0.0 
1.169518358202e-03 2.009912298181e-04 0.0 
3.406252812004e-04 4.244733008426e-04 0.0 
1.306843567028e-03 6.405585116356e-03 0.0 
2.196441328622e-03 3.549134735631e-03 0.0 
1.293521845069e-03 4.321775042278e-03 0.0 
2.711287691454e-03 7.779212161536e-03 0.0 
2.781300476604e-03 6.356502337352e-03 0.0 
2.704376665561e-03 6.015997604617e-03 0.0 
3.266334353496e-03 4.891984551286e-03 0.0 
4.026005298158e-04 2.659938357457e-04 0.0 
1.667905493006e-03 6.865095572771e-03 0.0 
2.242426587421e-03 8.001827841025e-03 0.0 
2.281857418739e-03 1.707245828746e-03 0.0 
4.474517994637e-04 -4.865845052992e-04 0.0 
2.508689073588e-03 8.535267911531e-03 0.0 
1.995657960807e-03 3.878682530374e-03 0.0 
2.934747720494e-04 8.705070173032e-03 0.0 
1.114096174218e-03 6.060929005292e-05 0.0 
2.038848030423e-03 1.771692040265e-03 0.0 
1.580329182663e-03 3.884896153066e-03 0.0 
1.909880736771e-03 3.424307725771e-03 0.0 
2.786960158718e-03 7.227254994543e-03 0.0 
2.313067232531e-03 9.582692882815e-04 0.0 
1.317973607187e-03 2.960569376225e-06 0.0 
3.516812734575e-04 1.759023158712e-04 0.0 
2.676807846037e-03 8.774657324477e-03 0.0 
1.359725051961e-03 7.539225947020e-04 0.0 
9.787628288968e-04 -2.539657890617e-04 0.0 
1.977598732523e-03 6.054621484592e-03 0.0 
1.872800070100e-03 4.741210872929e-03 0.0 
1.652350287400e-03 2.867635020905e-03 0.0 
3.108932931056e-03 5.443892233866e-03 0.0 
2.723616798285e-03 8.539727416844e-03 0.0 
2.720917546739e-03 8.120448331470e-03 0.0 
3.132200367132e-04 1.119250375873e-04 0.0 
7.870791702592e-04 2.904907359595e-04 0.0 
1.572738314214e-03 2.901846808085e-03 0.0 
1.634637489637e-03 4.369478012097e-03 0.0 
1.358347712123e-03 6.513303203914e-06 0.0 
3.016085706779e-03 5.913735779092e-03 0.0 
1.452795400479e-03 1.473035798022e-03 0.0 
1.766103607026e-03 1.429805395198e-03 0.0 
3.211290636969e-03 5.358265753790e-03 0.0 
1.961772630842e-03 5.355328129408e-04 0.0 
6.913132597130e-04 -3.136940785539e-04 0.0 
1.333257546623e-03 2.966173329127e-03 0.0 
1.292963435358e-03 5.950539533176e-04 0.0 
3.201465337960e-03 4.525910594733e-03 0.0 
2.935735654580e-03 6.463279492928e-03 0.0 
3.071837865498e-03 4.934031855283e-03 0.0 
3.338609317161e-04 4.679310234910e-04 0.0 
2.925892112942e-04 5.238667228728e-04 0.0 
7.377275779960e-04 1.295572518808e-03 0.0 
1.349208670511e-03 4.374552586148e-05 0.0 
1.096901673970e-03 3.452568210141e-03 0.0 
1.520485573774e-03 4.018709578791e-03 0.0 
2.026337433777e-03 1.386528909704e-03 0.0 
8.378314542024e-04 1.197937808136e-03 0.0 
2.955162602828e-03 7.440592337246e-03 0.0 
1.434270484317e-03 8.366645770955e-03 0.0 
1.220947699126e-03 6.399808336629e-03 0.0 
5.814640136913e-04 1.629570264358e-04 0.0 
1.809746322094e-03 2.793670282908e-03 0.0 
2.285664671158e-03 6.534556581134e-03 0.0 
2.706899463634e-03 5.511180677377e-03 0.0 
9.905654823455e-04 1.071958458129e-03 0.0 
1.730887796534e-04 -3.510560942376e-04 0.0 
2.847745565385e-03 2.704411175830e-03 0.0 
3.248799031317e-03 4.110495822818e-03 0.0 
2.946868172574e-03 2.762041178072e-03 0.0 
-9.948667728999e-05 2.834524905088e-03 0.0 
2.709167156147e-04 7.547227996179e-03 0.0 
4.097293531543e-04 -4.818222545042e-04 0.0 
1.750526085720e-03 2.644281676307e-03 0.0 
1.218114983167e-04 3.540939257725e-05 0.0 
2.320394362305e-03 1.089218847919e-03 0.0 
2.137624171293e-03 8.084368720090e-03 0.0 
3.722770105659e-05 -6.445956461687e-04 0.0 
3.264979859274e-03 5.275271257772e-03 0.0 
2.754354255107e-03 2.403421757793e-03 0.0 
2.513036104831e-03 5.801641385113e-03 0.0 
3.622571828116e-04 3.593845657200e-04 0.0 
2.605472087620e-03 7.977796286634e-03 0.0 
2.968132485287e-03 5.435205945964e-03 0.0 
7.548026025758e-04 -2.966477108581e-04 0.0 
1.338290315339e-03 3.443433756321e-03 0.0 
1.291973273120e-03 4.046272159281e-05 0.0 
3.915331637398e-04 3.506406036531e-04 0.0 
1.730694042677e-04 2.280048424627e-04 0.0 
1.151467700747e-04 2.484314944569e-04 0.0 
1.614273628053e-04 2.732633891858e-04 0.0 
2.504973009232e-03 5.302871324931e-03 0.0 
1.422065283418e-03 3.428402163463e-03 0.0 
1.514966774750e-03 2.423125610494e-03 0.0 
3.104722708990e-03 5.409135542835e-03 0.0 
3.019113331753e-03 6.436333096061e-03 0.0 
5.875202279563e-04 -3.621178446822e-04 0.0 
1.412800509390e-03 2.948938813334e-03 0.0 
4.018932772203e-04 2.931065682084e-04 0.0 
1.101639542142e-03 2.985767045613e-03 0.0 
2.481024422122e-03 1.224812997280e-03 0.0 
1.177740377331e-03 2.984437199588e-03 0.0 
2.741118608713e-03 2.421173325713e-03 0.0 
3.215549145292e-03 4.130644461579e-03 0.0 
2.892582388860e-03 7.901978497906e-03 0.0 
1.033700308725e-03 2.255845836352e-03 0.0 
3.044885335981e-04 1.076287087313e-03 0.0 
2.945802122030e-03 4.883717547147e-03 0.0 
1.268981993252e-03 9.601567293841e-04 0.0 
6.472369718156e-04 -3.483043390973e-04 0.0 
9.355561631875e-04 -7.411731955080e-05 0.0 
4.516971031056e-04 1.222133017582e-04 0.0 
2.070060422429e-03 3.154948717485e-03 0.0 
1.675558769327e-04 1.964684583798e-04 0.0 
5.265482126059e-04 9.845268223849e-04 0.0 
3.097676120371e-03 4.964593430688e-03 0.0 
8.742102529153e-05 -3.458113123436e-04 0.0 
1.940675184874e-04 1.833480246157e-04 0.0 
5.373453684139e-04 1.739255347623e-04 0.0 
9.909282182305e-04 8.516445852041e-06 0.0 
2.290569166784e-03 9.715017171134e-04 0.0 
3.526786486907e-04 1.617007161873e-04 0.0 
4.902858604119e-07 -3.799552423592e-04 0.0 
3.125864975830e-03 4.513094242467e-03 0.0 
2.950129827595e-03 4.953133534611e-03 0.0 
3.205554803470e-03 4.886375515564e-03 0.0 
3.042082076711e-03 5.699770121718e-03 0.0 
1.335592232654e-03 2.732214137488e-03 0.0 
1.990413329392e-04 1.524721825304e-04 0.0 
2.227859193701e-03 1.339055483635e-03 0.0 
2.647896964205e-04 9.648018192707e-04 0.0 
2.104558798144e-04 2.721758934432e-05 0.0 
6.370464100720e-05 -3.877969790762e-04 0.0 
2.809883761520e-03 8.176812053995e-03 0.0 
3.759240721360e-04 3.987262756068e-05 0.0 
2.400944182631e-03 8.697851727879e-03 0.0 
2.798853056980e-04 9.137248677561e-05 0.0 
1.997485855347e-04 1.253594500677e-04 0.0 
2.604556654637e-03 6.173527795987e-03 0.0 
1.836375913233e-04 -3.348623179455e-05 0.0 
9.577939019148e-05 8.943461782471e-04 0.0 
3.115657686844e-04 -4.202219117347e-05 0.0 
6.490136610198e-04 4.556721119440e-05 0.0 
1.514790306027e-03 8.664947773014e-03 0.0 
2.093383188838e-03 7.646018411987e-03 0.0 
1.781817558057e-04 9.288380092551e-05 0.0 
1.356977057216e-03 8.690762481948e-03 0.0 
2.145344724455e-04 4.904807008620e-04 0.0 
2.596863439540e-03 2.133426055463e-03 0.0 
1.125014038384e-03 6.893824748738e-03 0.0 
2.211520648207e-03 5.541818823592e-03 0.0 
2.370294530346e-03 1.094165294848e-03 0.0 
7.127985863347e-04 1.575020426196e-03 0.0 
1.791791310388e-04 7.868220124155e-05 0.0 
1.607915274485e-04 2.399261810282e-04 0.0 
1.311618484889e-04 2.506033336870e-04 0.0 
1.214603503650e-03 2.459585371597e-06 0.0 
4.880546483239e-04 -4.056510339059e-04 0.0 
3.166304994921e-03 3.764303556539e-03 0.0 
1.153223317646e-03 4.690588364638e-06 0.0 
1.685646244509e-04 6.298419570105e-05 0.0 
1.674237229873e-03 2.307824110358e-03 0.0 
1.379214043931e-03 3.273495981349e-04 0.0 
1.357435000292e-03 1.729349495748e-04 0.0 
9.781395850477e-04 6.336873840071e-03 0.0 
2.046636428179e-04 5.255214204698e-05 0.0 
1.323515993090e-04 -1.084007081725e-04 0.0 
1.352298934357e-04 4.243164488940e-05 0.0 
1.168767565744e-03 2.640823806812e-05 0.0 
1.681896643242e-04 1.760365411043e-04 0.0 
1.587764023111e-03 2.394214705082e-03 0.0 
-5.466198793794e-05 -3.271570302300e-04 0.0 
3.094558259290e-03 3.739764202863e-03 0.0 
9.554311181070e-04 2.970870624034e-03 0.0 
1.974656452524e-04 1.672925790374e-04 0.0 
2.599016357111e-03 5.169940808565e-03 0.0 
2.418682958896e-03 1.737198889442e-03 0.0 
5.922961536736e-04 2.318745568602e-03 0.0 
8.500991995202e-04 2.580053539287e-04 0.0 
1.142488033144e-03 -7.549893670914e-05 0.0 
1.283249762657e-03 8.030030979473e-05 0.0 
-5.672186649087e-05 -1.196880322174e-05 0.0 
2.028519442811e-04 1.406343856780e-04 0.0 
1.096135354026e-03 1.520524649189e-03 0.0 
1.097407569819e-03 2.090873587408e-04 0.0 
1.104490058264e-03 7.440598615808e-03 0.0 
7.720214920896e-04 -3.265766301166e-04 0.0 
1.307070421550e-03 2.158056722539e-04 0.0 
2.795571195654e-03 5.340960257412e-03 0.0 
1.734995176518e-04 8.301851494574e-05 0.0 
4.728179489801e-04 -3.840905653727e-04 0.0 
1.220044820905e-03 1.031208782329e-04 0.0 
3.241002890226e-03 3.990306383033e-03 0.0 
1.699361034520e-03 3.014962034163e-04 0.0 
1.510631915445e-03 3.908473672702e-04 0.0 
1.303607205062e-03 7.669146425887e-05 0.0 
3.269445624614e-03 4.390162670020e-03 0.0 
2.724262254510e-03 2.924964557143e-03 0.0 
2.182090523488e-03 9.634161857093e-04 0.0 
3.228800442612e-03 3.738995547275e-03 0.0 
8.361110976420e-04 -2.921358369783e-04 0.0 
1.980946554898e-03 2.773816079439e-03 0.0 
5.439591632998e-04 -3.946486918058e-04 0.0 
2.580819046693e-03 1.986564566386e-03 0.0 
2.392239215435e-03 1.038697780264e-03 0.0 
2.570413917524e-04 7.784103746665e-05 0.0 
9.437785681331e-04 2.526897252897e-03 0.0 
6.859998320303e-04 -3.618677845523e-04 0.0 
1.446554122623e-04 4.894084188621e-05 0.0 
6.298624997883e-04 1.941993162687e-04 0.0 
2.937954525035e-03 2.515780517168e-03 0.0 
2.376910375557e-05 -1.002395880891e-04 0.0 
1.850054741592e-04 4.400449750134e-05 0.0 
1.155112425423e-03 2.531331796037e-03 0.0 
9.925473434075e-04 -1.015988036446e-04 0.0 
1.074056330510e-04 2.847089871492e-05 0.0 
1.156770529334e-03 3.866221752199e-05 0.0 
3.076662686732e-03 6.848119831807e-03 0.0 
2.141153382645e-03 7.134732904647e-03 0.0 
2.455719958058e-03 1.150813143586e-03 0.0 
1.238540748481e-03 -3.869371670846e-05 0.0 
1.786890008304e-03 4.047399351109e-04 0.0 
1.788438256954e-03 5.333073909579e-03 0.0 
3.006965460235e-03 7.280881451247e-03 0.0 
2.154154323003e-03 1.039921093896e-03 0.0 
2.545389180729e-04 6.978323089943e-03 0.0 
7.711707125594e-04 -3.137471877243e-04 0.0 
2.171455469703e-03 8.653221683358e-04 0.0 
1.075312108067e-03 -1.405853284807e-04 0.0 
6.337272382534e-04 -1.321728124411e-04 0.0 
-1.142088729823e-04 -2.137851718013e-04 0.0 
2.297054108605e-03 3.289138965973e-03 0.0 
1.102590789976e-03 -5.316609022652e-05 0.0 
6.696117059143e-04 -2.937635145868e-04 0.0 
3.067403144704e-03 2.825813875081e-03 0.0 
1.229784647279e-03 7.265995719501e-05 0.0 
9.638370405042e-04 6.824286203594e-03 0.0 
9.346744050058e-04 -1.692257442472e-04 0.0 
9.725800976692e-05 2.408124333206e-05 0.0 
3.012822608335e-03 4.738398907188e-03 0.0 
5.814561720674e-04 -2.854639763774e-04 0.0 
3.144351994901e-03 4.709650101448e-03 0.0 
6.075637651681e-04 -3.073301741738e-04 0.0 
-4.587579814328e-05 -2.805366954431e-04 0.0 
2.071049803385e-03 6.692916759763e-03 0.0 
1.683885653068e-04 -4.397331895924e-04 0.0 
8.978481157028e-05 -6.260712528358e-04 0.0 
4.882728502307e-04 -3.291640969973e-04 0.0 
1.130770532297e-03 9.727756265205e-05 0.0 
2.601914450480e-04 3.064490141812e-03 0.0 
1.860384651935e-03 4.146840373828e-04 0.0 
1.786335874758e-03 3.727105722706e-04 0.0 
2.061964450880e-03 8.600655053543e-03 0.0 
1.355123317035e-03 9.321669253205e-03 0.0 
3.691547678184e-04 9.994795630538e-04 0.0 
3.232416390850e-03 4.592790376955e-03 0.0 
8.041770082009e-05 -6.360907470765e-04 0.0 
3.174352168617e-04 -5.287931163456e-04 0.0 
5.944686957460e-05 -2.378090909180e-04 0.0 
6.185957963622e-04 -4.326434041058e-04 0.0 
1.939314478884e-03 2.105476992931e-03 0.0 
2.980248296563e-04 3.098082954943e-03 0.0 
6.916739897620e-04 2.922382710019e-05 0.0 
5.534621240908e-04 -4.606340253316e-04 0.0 
5.745318039087e-04 -1.444022811609e-04 0.0 
9.623676030177e-04 1.829174634233e-04 0.0 
6.111765394197e-04 9.149260604822e-04 0.0 
1.193019192791e-04 -4.419187461224e-04 0.0 
8.292068940082e-05 -5.114991669575e-04 0.0 
1.703124450294e-04 3.718885813383e-05 0.0 
8.774746439224e-05 1.992325416928e-05 0.0 
1.243575322697e-04 -3.911748141489e-04 0.0 
5.209630211303e-04 -2.963275206105e-04 0.0 
1.192406042334e-03 -3.591189644442e-05 0.0 
9.150882980713e-04 2.067625702373e-04 0.0 
3.515023286764e-04 -5.324633406655e-04 0.0 
9.926420501810e-04 1.518021974988e-04 0.0 
1.217244140633e-04 -6.399214194534e-04 0.0 
5.107508111072e-04 -3.520446223161e-04 0.0 
7.063145167811e-04 -2.585822632212e-04 0.0 
8.444767715613e-05 -6.547211405453e-04 0.0 
9.906058645967e-05 -4.167783184757e-04 0.0 
8.761769186415e-04 2.514846207940e-03 0.0 
7.478806180996e-05 -6.523700478612e-04 0.0 
1.502068879012e-03 9.258543906375e-03 0.0 
1.568424646910e-03 9.523005307488e-03 0.0 
1.852721711248e-03 5.045453107174e-04 0.0 
4.121607076829e-05 -5.143758707425e-04 0.0 
9.775419264971e-04 -1.858794226007e-04 0.0 
1.146372845224e-03 2.961939078631e-03 0.0 
4.387055650152e-04 3.459246456766e-05 0.0 
7.678554480192e-04 5.765876339442e-04 0.0 
5.480079681711e-04 3.737498240060e-03 0.0 
2.149881925262e-03 4.924759984462e-03 0.0 
2.299470729347e-04 -5.106033648389e-04 0.0 
2.822253469509e-03 7.871771185080e-03 0.0 
9.594979501735e-04 9.306873513112e-03 0.0 
9.007539230466e-04 9.610067592006e-03 0.0 
8.512793119630e-05 -6.442734826830e-04 0.0 
1.033561721512e-04 -6.455679678459e-04 0.0 
6.234530038733e-05 -6.520782759704e-04 0.0 
4.265266527376e-04 -5.229511822184e-04 0.0 
6.847472552432e-05 -6.610113870990e-04 0.0 
1.019723845809e-04 -3.635970721687e-04 0.0 
-2.536187020943e-04 1.973584939220e-04 0.0 
4.968622908203e-04 -4.884974522647e-04 0.0 
2.241551875551e-04 5.861882671129e-03 0.0 
1.279550955636e-03 9.634529006276e-03 0.0 
1.662577945914e-03 1.890192776547e-03 0.0 
1.081090352419e-03 3.948707162578e-05 0.0 
2.031549703195e-04 6.751228165275e-03 0.0 
2.198093065659e-05 -4.923564021351e-04 0.0 
7.186574447075e-05 -6.540313431914e-04 0.0 
4.425124633942e-05 2.674831690197e-04 0.0 
1.013459491358e-04 5.570205703025e-04 0.0 
1.021781818736e-03 7.396954152070e-03 0.0 
1.086250300877e-03 9.337357356761e-03 0.0 
1.096841476689e-04 -4.883537941422e-04 0.0 
6.510104725905e-05 5.282632128491e-04 0.0 
4.834410164700e-04 -4.985821637553e-04 0.0 
1.419695317120e-03 9.591148675574e-03 0.0 
1.216328232351e-03 9.347759495880e-03 0.0 
2.499110574054e-03 8.910871473219e-03 0.0 
9.938770237081e-05 2.420492064051e-04 0.0 
7.938824722878e-05 5.267941997870e-04 0.0 
8.702435133952e-05 -6.530196956628e-04 0.0 
7.478279796032e-05 -6.570776570528e-04 0.0 
2.612436927912e-04 -5.459718248273e-04 0.0 
7.712490019323e-04 -2.420805582289e-04 0.0 
4.438459819068e-05 -2.525186475938e-06 0.0 
-3.665354679538e-04 3.185512956614e-04 0.0 
6.960470357636e-05 3.862544091500e-03 0.0 
-1.714625783583e-04 2.454884595222e-06 0.0 
1.691433686334e-03 3.636861865862e-04 0.0 
-1.857586925861e-04 -7.260452655191e-05 0.0 
-2.689653758296e-04 1.039780176855e-04 0.0 
1.619721603923e-03 2.717621542878e-04 0.0 
1.772970431010e-04 -2.594178133259e-06 0.0 
1.885258571619e-04 6.191302281540e-03 0.0 
3.001419981887e-03 7.027244293019e-03 0.0 
6.250413368251e-05 -6.610055963793e-04 0.0 
4.716441278450e-04 -1.343490318451e-04 0.0 
1.534029962780e-05 3.144707645033e-04 0.0 
3.027888426976e-05 5.328895191332e-04 0.0 
1.147699148921e-03 9.642747479265e-03 0.0 
1.740106860540e-03 4.508822664941e-04 0.0 
3.513700088936e-05 2.593110307673e-04 0.0 
2.392966244843e-03 1.613627723742e-03 0.0 
4.315006608603e-05 -6.581717700009e-04 0.0 
4.735181249070e-05 -6.664973545116e-04 0.0 
3.751818897764e-05 -6.656165953543e-04 0.0 
2.419934543835e-05 -4.436322369088e-04 0.0 
3.554562845788e-05 5.578782972418e-06 0.0 
8.227789044528e-06 1.447854234759e-03 0.0 
4.163131123940e-05 -6.720657516869e-04 0.0 
5.247609333250e-05 -3.624479125474e-04 0.0 
1.203193910903e-05 2.132268201497e-06 0.0 
5.027421247906e-05 7.377179057185e-06 0.0 
1.569005168329e-04 3.154934368673e-05 0.0 
3.928951254231e-05 4.829912726601e-03 0.0 
1.528544448793e-05 3.374560890167e-03 0.0 
2.351368934885e-05 3.446514770922e-06 0.0 
2.676052313021e-05 3.930664286263e-06 0.0 
3.407153138355e-05 3.862586401794e-03 0.0 
3.003085386259e-05 -6.764274944973e-04 0.0 
6.782111300628e-04 9.593443505967e-03 0.0 
1.023426476407e-03 9.633214853906e-03 0.0 
5.972680252677e-05 -6.660170400548e-04 0.0 
4.458856875044e-05 7.231087534945e-06 0.0 
1.475933574629e-04 2.722917226874e-05 0.0 
7.325782126710e-05 1.294543254656e-05 0.0 
4.803570943367e-05 -6.715796465103e-04 0.0 
6.345820077937e-05 -6.637847548910e-04 0.0 
8.256498063713e-05 1.726560396455e-05 0.0 
7.433553619581e-05 1.428373972218e-05 0.0 
2.050342564668e-05 5.327804087647e-03 0.0 
3.571026708312e-04 9.575017609404e-03 0.0 
1.878608689562e-05 4.340797756689e-03 0.0 
2.547914756974e-05 7.289811316020e-03 0.0 
1.529860897475e-04 9.563470480669e-03 0.0 
7.965601335978e-05 -6.134100394271e-04 0.0 
5.579355269083e-05 -5.408795188448e-04 0.0 
3.009286636266e-05 -4.868049200866e-04 0.0 
-7.031333490684e-06 -4.164499765557e-04 0.0 
2.671882777221e-05 -3.345576615986e-04 0.0 
2.575726556029e-05 -3.906132411062e-04 0.0 
6.349742260556e-05 -5.187245050880e-04 0.0 
2.743862493807e-05 -1.712634785298e-04 0.0 
3.706130941216e-05 -4.578760627809e-04 0.0 
7.875006547521e-05 2.540939189698e-04 0.0 
2.996404636969e-05 2.689521820818e-04 0.0 
5.709470279640e-05 2.895374012828e-04 0.0 
1.293098531702e-05 -6.320315044815e-04 0.0 
1.923514011170e-05 -5.359054790242e-04 0.0 
2.823611682146e-05 3.234196724680e-04 0.0 
1.881421285674e-05 -3.845599460518e-05 0.0 
1.493858464196e-05 2.184187546300e-04 0.0 
1.375924623309e-05 -1.189796787220e-05 0.0 
8.333695003705e-06 2.395482869120e-06 0.0 
4.995661099863e-05 -4.173659050542e-04 0.0 
5.820016319115e-05 5.923718545498e-04 0.0 
4.317470146342e-05 5.418384270980e-04 0.0 
3.257345908983e-05 -2.410087965615e-05 0.0 
2.209294123680e-05 -2.884586141708e-06 0.0 
2.800482706966e-04 -1.077943843285e-04 0.0 
-1.031830907121e-04 -1.552538410543e-04 0.0 
4.181787541945e-04 -3.926253161078e-04 0.0 
1.014544881583e-04 -6.415293640577e-04 0.0 
4.082360219649e-04 2.620031278527e-05 0.0 
5.695485751076e-04 -3.410742437258e-04 0.0 
3.211736376515e-04 -3.276294575673e-05 0.0 
4.059324447237e-04 -5.292594091122e-04 0.0 
1.600385613709e-04 -6.181538647216e-04 0.0 
2.222684522153e-04 -1.054221610808e-05 0.0 
4.304881922501e-04 -3.379650529166e-04 0.0 
9.217887447470e-05 -4.672052209060e-04 0.0 
2.817501594871e-04 -3.870904116733e-05 0.0 
9.476624105650e-05 2.450657523340e-03 0.0 
4.618027609494e-05 -4.683311251139e-04 0.0 
1.098648113363e-03 1.204768413565e-04 0.0 
8.186288168053e-04 -8.561987947618e-05 0.0 
3.300931292363e-04 -1.017065967153e-04 0.0 
2.398214613176e-04 -8.804779646058e-05 0.0 
2.086551254152e-03 1.259607984649e-03 0.0 
2.904199780421e-03 7.865346287788e-03 0.0 
3.093955078401e-03 3.108141396803e-03 0.0 
5.272373802949e-04 -1.246387948703e-04 0.0 
2.001683693768e-04 -3.031664865035e-05 0.0 
1.574522418516e-04 -7.349808616815e-05 0.0 
5.602803774566e-04 -4.300315731364e-04 0.0 
1.805613314304e-04 2.529433867036e-03 0.0 
2.322881488499e-04 3.503449493514e-03 0.0 
4.493399168255e-04 8.094515024310e-03 0.0 
5.865760853256e-04 -8.442404670894e-05 0.0 
4.257563208422e-04 -1.141083387870e-04 0.0 
1.227425816274e-04 2.502316547541e-03 0.0 
1.578732890910e-04 3.004408102485e-03 0.0 
8.737145536070e-04 -9.955911924898e-05 0.0 
1.505675839092e-04 -5.985186397940e-06 0.0 
4.954830834016e-04 3.705041367376e-03 0.0 
1.119778257995e-04 -7.544020516534e-05 0.0 
3.000505830014e-04 2.059938494877e-05 0.0 
2.109682494890e-04 2.555187621345e-03 0.0 
4.159261054641e-04 5.071128459929e-03 0.0 
1.064830181757e-03 6.764149571789e-05 0.0 
2.127215026710e-04 -5.799294383751e-04 0.0 
5.561163609819e-04 -3.850385170848e-04 0.0 
2.186963642159e-04 -5.377371262265e-04 0.0 
-8.396006237828e-06 -1.684652147745e-04 0.0 
1.912984355078e-04 3.004586186446e-03 0.0 
1.603504046178e-04 -1.846748616276e-05 0.0 
3.299285993941e-05 -2.913492408397e-04 0.0 
1.372658540987e-03 2.486186002366e-03 0.0 
5.254276922880e-04 7.608844932238e-03 0.0 
3.731019596192e-04 -4.656102498734e-05 0.0 
2.037742780080e-04 -4.873037597165e-05 0.0 
9.469091754119e-04 -2.484709116384e-04 0.0 
1.645951447023e-04 -5.268266719713e-05 0.0 
5.076280687245e-04 8.116315399735e-03 0.0 
2.112876994447e-03 8.621830838608e-04 0.0 
2.283514182158e-04 2.039614640186e-05 0.0 
1.134492771632e-04 -5.920249215622e-04 0.0 
3.801209225599e-04 4.049842609969e-05 0.0 
3.192660371915e-04 4.523764771879e-03 0.0 
1.744276914019e-04 -5.701175512025e-04 0.0 
6.397531719732e-04 -3.997067573489e-04 0.0 
2.328069215154e-04 -2.752556517493e-04 0.0 
5.718715895918e-04 6.142290544692e-03 0.0 
5.061393554483e-04 -4.443313269785e-04 0.0 
2.347162026787e-04 3.975087281300e-03 0.0 
3.595537223247e-04 5.519174756446e-03 0.0 
4.915700946362e-04 -2.730125720934e-04 0.0 
1.921646548696e-04 -9.262569446328e-05 0.0 
2.442881816052e-04 -6.496789693997e-05 0.0 
2.742000196623e-04 4.486658704940e-03 0.0 
2.366413823988e-04 -5.945230763647e-04 0.0 
4.043811717378e-04 -3.138033017835e-04 0.0 
1.726534348945e-03 8.587682945152e-04 0.0 
3.635985155768e-04 4.080669497112e-03 0.0 
3.983269583411e-04 -3.693803289705e-04 0.0 
7.554568750686e-04 -1.030150408630e-04 0.0 
4.982661209929e-04 5.290330228752e-05 0.0 
3.643998925912e-04 5.036806721654e-03 0.0 
1.014295804957e-04 7.149515837263e-04 0.0 
1.889567117608e-04 -5.940874084818e-04 0.0 
9.440083130916e-04 8.773385527241e-04 0.0 
2.353569577825e-04 -2.578238686036e-05 0.0 
4.645767211948e-04 5.587357963658e-03 0.0 
1.683052557752e-04 -2.261901464358e-04 0.0 
6.056549050938e-04 7.148349691938e-03 0.0 
9.164791798523e-04 1.582164867605e-04 0.0 
4.011388931677e-04 -2.573580374860e-04 0.0 
2.870754746787e-04 -5.948082392564e-05 0.0 
1.793361160090e-04 -5.844402615093e-04 0.0 
3.279500522684e-04 2.702031006142e-05 0.0 
4.327729032242e-04 -2.816873973471e-04 0.0 
1.383885204464e-04 -5.742844726587e-04 0.0 
3.484292577990e-04 -3.198638178210e-04 0.0 
4.462511961693e-04 -4.358700131707e-04 0.0 
4.522478136214e-04 -5.026150030419e-04 0.0 
2.218842228301e-04 -2.197137460570e-04 0.0 
9.055282055718e-05 -6.010106577519e-04 0.0 
8.234773788288e-05 -5.656414409676e-04 0.0 
3.736436890759e-04 -1.218673395772e-04 0.0 
2.122921808371e-04 -5.917799280585e-04 0.0 
5.319049753924e-04 -9.557167666409e-05 0.0 
6.411039245728e-04 -1.012616961954e-04 0.0 
7.201497908075e-04 -3.493435763522e-04 0.0 
8.308916793017e-04 -2.119340084663e-04 0.0 
4.241907214395e-04 3.197799203300e-03 0.0 
1.369733569617e-04 1.674436813249e-03 0.0 
3.822922726524e-04 -4.226717066320e-04 0.0 
8.693067477591e-04 1.814983800813e-04 0.0 
1.811802832113e-04 -6.076157900903e-04 0.0 
5.600276435062e-04 6.625966989076e-03 0.0 
5.862874703046e-04 7.645499876602e-03 0.0 
3.243910193029e-04 -5.520400716055e-04 0.0 
6.335103629416e-04 7.140243629438e-05 0.0 
6.363826126106e-04 4.727714881386e-03 0.0 
2.432311862912e-04 -5.856949483693e-04 0.0 
4.393602717947e-04 2.769912621206e-03 0.0 
3.952846997344e-04 2.736136847910e-03 0.0 
2.810466054227e-04 -5.676400538825e-04 0.0 
2.461620978073e-03 5.704040054831e-03 0.0 
3.888726056435e-04 -5.373421634063e-04 0.0 
3.326536129307e-04 -7.647293583313e-05 0.0 
3.110880724530e-04 -2.393947397400e-04 0.0 
1.083370224210e-03 2.534564073641e-03 0.0 
3.796657689883e-04 3.165143961959e-03 0.0 
4.288087677787e-04 -8.697389239749e-05 0.0 
4.793641698790e-04 -7.814746724936e-05 0.0 
3.504333472054e-04 -5.500250908511e-04 0.0 
3.792566197068e-04 -6.949923230542e-05 0.0 
5.773955454753e-04 4.695037379357e-03 0.0 
2.555081481834e-04 -2.450147306977e-04 0.0 
5.209844881834e-04 5.623418930993e-03 0.0 
5.121844059090e-04 4.182301582538e-03 0.0 
2.541698360770e-03 1.404699482444e-03 0.0 
3.539378288270e-04 3.605518455519e-03 0.0 
3.190881242403e-04 -3.511790226488e-04 0.0 
3.439563620077e-04 -2.643559356601e-04 0.0 
3.561914864980e-04 -4.722427676598e-04 0.0 
7.860491486576e-04 -3.532573088037e-04 0.0 
5.238994606615e-04 5.141953842173e-03 0.0 
1.122742390512e-03 -1.164744964751e-04 0.0 
3.613276479496e-04 -5.380222965122e-04 0.0 
2.438922146016e-04 -5.664156101253e-04 0.0 
5.815571893255e-04 5.176456341833e-03 0.0 
4.011724921771e-04 -5.270906957204e-04 0.0 
4.029858959655e-04 4.764131899407e-05 0.0 
4.161224539517e-04 4.592412457971e-03 0.0 
4.169081595927e-04 -3.890680874665e-05 0.0 
4.942139353891e-04 1.470556608592e-04 0.0 
3.428788042700e-04 -3.765337826653e-04 0.0 
3.163085861224e-04 -5.593072209148e-04 0.0 
2.729724292986e-04 -5.688136325835e-04 0.0 
5.824363178636e-04 -5.714162993989e-05 0.0 
4.036738094974e-04 6.036382060514e-03 0.0 
2.006123540850e-04 -5.788564408175e-04 0.0 
4.545262708666e-04 -4.552920141904e-04 0.0 
1.218994803845e-04 -6.041657446026e-04 0.0 
6.333082853800e-04 6.178284696367e-03 0.0 
3.951280152834e-04 -4.443559351618e-04 0.0 
7.000195316337e-04 -8.728137548386e-05 0.0 
3.074661659299e-04 -4.773523644032e-04 0.0 
2.707742403314e-04 3.537599694571e-03 0.0 
4.578396161499e-04 -4.888390417020e-04 0.0 
7.444672498842e-04 -1.528177956087e-05 0.0 
5.196933351515e-04 -4.239804210884e-04 0.0 
6.986442899929e-04 -5.793481784481e-05 0.0 
2.640689419028e-04 -3.000255366902e-04 0.0 
5.220192598321e-04 -4.316038356228e-05 0.0 
1.590148268966e-03 5.183479003699e-04 0.0 
1.517471482747e-04 -6.007480060059e-04 0.0 
4.865018999686e-04 7.075708699668e-03 0.0 
1.611240122191e-03 3.019227746175e-04 0.0 
3.229469554835e-03 4.935671359327e-03 0.0 
4.571705954946e-04 6.070243529451e-03 0.0 
6.429500633442e-04 -3.532506963361e-04 0.0 
8.382877415016e-04 5.790629571935e-03 0.0 
1.540206373109e-04 -6.120730449034e-04 0.0 
5.210092413855e-04 3.381542000194e-05 0.0 
1.663664984584e-03 3.861653469214e-04 0.0 
2.094484458757e-03 9.406239169595e-04 0.0 
3.171775160441e-04 2.219148711938e-03 0.0 
1.116633987319e-03 -6.966457480521e-05 0.0 
2.643509429938e-04 -5.863389592887e-04 0.0 
9.489199152361e-04 -4.418127249656e-05 0.0 
5.306369934038e-04 6.416255092296e-05 0.0 
9.175592060013e-04 -2.406414744888e-04 0.0 
4.736182217807e-04 -5.301859091660e-05 0.0 
4.676880421606e-04 4.627176872880e-03 0.0 
8.204780493050e-04 -1.200366678331e-04 0.0 
8.212006271790e-04 -5.416651617900e-05 0.0 
8.718116192291e-04 7.286365820867e-03 0.0 
2.052242199216e-04 -5.498340782434e-04 0.0 
5.080240403659e-04 -4.611368495484e-04 0.0 
3.223138699553e-03 3.690718585401e-03 0.0 
6.355889154700e-04 -4.463272178732e-05 0.0 
3.108263038505e-03 6.378986646486e-03 0.0 
3.187121785248e-03 3.423755466943e-03 0.0 
7.040734445511e-04 5.242895824822e-03 0.0 
5.017344163975e-04 6.589980941171e-03 0.0 
8.896955563714e-04 6.795311332269e-03 0.0 
3.196384581254e-04 -2.947458115587e-04 0.0 
7.804628743532e-04 9.501768205841e-05 0.0 
1.080524473999e-03 -2.605093006538e-05 0.0 
6.698935730811e-04 7.191008120543e-03 0.0 
1.264753044526e-03 1.981833618849e-03 0.0 
2.035009990532e-03 9.937218439700e-04 0.0 
7.566534438014e-04 -4.221511992678e-05 0.0 
4.601346312584e-04 4.148943575721e-03 0.0 
7.261796408085e-04 -3.645679976585e-04 0.0 
6.131768719577e-04 -4.162630351939e-04 0.0 
3.210768524553e-04 -5.645192421600e-04 0.0 
1.013755538662e-03 1.207301102973e-05 0.0 
5.537687957269e-04 -4.139069838587e-04 0.0 
7.036081007257e-04 5.727677563288e-03 0.0 
8.319478653572e-04 6.279567744005e-03 0.0 
2.310547870925e-03 9.543305665689e-04 0.0 
6.037085822137e-04 -4.423862220064e-04 0.0 
1.858898890897e-03 1.298814849149e-03 0.0 
5.590320711080e-04 -4.470493839552e-04 0.0 
6.691138333908e-04 -3.984156588623e-04 0.0 
3.389219028796e-04 -5.581445416090e-04 0.0 
9.405989244981e-04 1.265832460973e-04 0.0 
1.042907757709e-03 -2.057016058208e-04 0.0 
3.989083562998e-04 3.639028119218e-03 0.0 
1.175909401109e-03 -1.254557629659e-04 0.0 
1.016736871929e-03 -1.949336150407e-05 0.0 
1.086173104405e-03 -1.087456221699e-04 0.0 
2.993371459587e-03 2.548859704056e-03 0.0 
3.062027275859e-04 -5.691779983256e-04 0.0 
6.715130991561e-04 8.628062950360e-05 0.0 
5.820889846127e-04 8.780142337422e-05 0.0 
2.859909296725e-03 3.104549105593e-03 0.0 
7.870365950079e-04 -3.424157403598e-04 0.0 
1.066132604987e-03 -6.203461141922e-05 0.0 
6.400789126356e-04 5.693915582328e-03 0.0 
6.597053929264e-04 -3.668543600295e-04 0.0 
3.068202047532e-03 4.093288755637e-03 0.0 
4.116367526280e-04 -4.997618440341e-04 0.0 
7.809995292617e-04 -2.687943606697e-04 0.0 
8.459471300895e-04 -3.055799683074e-04 0.0 
3.662001058721e-04 -5.244694061659e-04 0.0 
2.470383716983e-04 -5.609085124867e-04 0.0 
1.012796005445e-03 -1.379834151666e-04 0.0 
8.841035032043e-04 -3.444877462838e-05 0.0 
2.019445742020e-03 1.948753258141e-03 0.0 
7.419557819886e-05 -5.828416965894e-04 0.0 
1.514700058412e-03 1.044643329897e-04 0.0 
1.268894341725e-03 -7.806561177153e-05 0.0 
9.122423328977e-04 -2.782378195720e-04 0.0 
7.629143734161e-04 6.247425651093e-03 0.0 
1.077830094776e-03 -1.574010457734e-04 0.0 
4.102080922624e-04 -4.830203390924e-04 0.0 
9.715935432494e-04 -2.386495377195e-04 0.0 
3.182683116895e-04 4.046343549296e-03 0.0 
3.629964887797e-04 -4.914851705708e-04 0.0 
2.110308376158e-04 -5.969018091408e-04 0.0 
2.738287898913e-04 -5.817894542655e-04 0.0 
8.247995344700e-04 -2.808481483386e-04 0.0 
7.212938517313e-04 -3.879481115385e-04 0.0 
1.415135047626e-03 2.293482343034e-05 0.0 
1.100454270432e-03 -1.641104251460e-04 0.0 
5.011726687291e-04 -3.711212673832e-04 0.0 
2.498220557235e-04 -5.925757146776e-04 0.0 
1.208261082047e-03 6.914563924168e-03 0.0 
3.245589076180e-04 -5.328183843693e-04 0.0 
9.957456418943e-04 1.118812616916e-04 0.0 
2.248863244533e-03 2.061489901740e-03 0.0 
2.199497588783e-03 6.112137246500e-03 0.0 
6.856630739428e-04 3.347842113355e-03 0.0 
1.753083219202e-03 1.773727569040e-03 0.0 
2.442951608771e-03 1.222434422006e-03 0.0 
2.589710999938e-03 2.579719472217e-03 0.0 
6.290604107388e-04 -2.886074148140e-04 0.0 
8.868355289451e-04 -2.542864363035e-04 0.0 
2.765471570910e-03 2.192428653606e-03 0.0 
9.704109019931e-04 1.486114839707e-04 0.0 
4.668999695473e-04 -2.987194154508e-04 0.0 
6.097982814942e-04 -3.999261576673e-04 0.0 
1.191358912133e-03 -1.259607438094e-04 0.0 
1.333021704545e-03 -3.252634443435e-05 0.0 
3.227839508913e-04 -5.165756537159e-04 0.0 
1.199337979572e-03 -8.017526937443e-05 0.0 
1.430296116966e-03 3.644298640489e-05 0.0 
1.674239046314e-03 2.316485902788e-04 0.0 
6.652154906640e-04 -4.109542042984e-04 0.0 
1.892096524076e-03 5.969624614159e-04 0.0 
7.697195933858e-04 5.273705740556e-03 0.0 
1.780870699384e-03 3.589285889498e-04 0.0 
8.256398672051e-04 1.144070829155e-04 0.0 
7.736865038209e-04 -1.902264161459e-04 0.0 
7.174533948624e-04 1.516278615924e-04 0.0 
1.309457688357e-03 -3.741286999894e-05 0.0 
1.430273729610e-03 1.511356842381e-03 0.0 
2.844802810382e-03 4.682944051583e-03 0.0 
6.851717181952e-04 -3.059057542315e-04 0.0 
2.305873502655e-03 5.523842763934e-03 0.0 
8.861858875067e-04 2.958241409116e-03 0.0 
1.441077052245e-03 5.792277810722e-05 0.0 
2.595780520584e-03 3.135790569765e-03 0.0 
2.383870516206e-03 4.933008934307e-03 0.0 
3.271580022646e-03 4.462075147931e-03 0.0 
5.318950636350e-04 -3.220351072171e-04 0.0 
3.380077440044e-04 1.413193048017e-03 0.0 
4.169118880513e-04 -3.990111004391e-04 0.0 
1.210051682411e-03 4.567512923765e-04 0.0 
2.782728092482e-04 2.638203963447e-03 0.0 
1.689926065057e-03 4.628231301728e-04 0.0 
6.857030072817e-04 6.704619569357e-03 0.0 
7.214900576311e-04 3.825296855893e-03 0.0 
1.585411995873e-03 1.542079056167e-04 0.0 
2.298534097512e-03 9.021104715363e-04 0.0 
5.297899323821e-04 2.382900887061e-03 0.0 
8.008119107473e-04 2.004218081648e-06 0.0 
8.298065202499e-04 4.816011854216e-03 0.0 
1.512186215212e-03 2.726941442272e-04 0.0 
6.676830463246e-04 -2.297884289319e-04 0.0 
8.816525892002e-04 4.355662278184e-03 0.0 
9.388402277820e-04 6.823978187156e-04 0.0 
6.120419592874e-04 1.015354713796e-04 0.0 
9.560227717443e-04 -2.281422857800e-04 0.0 
7.517799072276e-04 6.739998543122e-03 0.0 
8.029294620264e-04 7.263195124633e-03 0.0 
1.229880814514e-03 -8.244715649260e-05 0.0 
9.377360594540e-04 1.662249393200e-05 0.0 
9.761638690269e-04 6.610160739525e-05 0.0 
2.517666946371e-04 -5.840688639348e-04 0.0 
1.576899369243e-03 1.336670525871e-03 0.0 
1.952449268347e-03 5.183161121366e-04 0.0 
1.689617948579e-03 2.647638187517e-04 0.0 
3.157876223581e-03 3.428914837447e-03 0.0 
4.202434485086e-04 1.898357205746e-03 0.0 
1.298680801033e-03 2.505951021312e-03 0.0 
3.149432211075e-04 2.671755306763e-03 0.0 
3.125823751605e-03 6.721017893643e-03 0.0 
1.071566998573e-03 3.924222116713e-03 0.0 
8.759009806900e-04 -5.211380733637e-06 0.0 
3.959140541963e-04 2.302063054003e-03 0.0 
1.051038793781e-03 4.880968034476e-03 0.0 
1.004712810548e-03 -1.884849745088e-04 0.0 
2.065633642635e-03 7.052182885789e-04 0.0 
8.123376403928e-04 4.331976226635e-03 0.0 
5.842765692504e-04 2.847192792106e-03 0.0 
6.236963578139e-04 4.247435957251e-03 0.0 
7.621854434927e-04 4.788856092699e-03 0.0 
6.924483275930e-04 6.072703402592e-05 0.0 
1.445189591263e-03 6.035538102003e-04 0.0 
8.388780378511e-04 8.245467821310e-05 0.0 
9.411027760125e-04 -7.783825381998e-05 0.0 
2.573783450659e-03 9.043804142349e-03 0.0 
1.687030649305e-03 5.285749452103e-04 0.0 
1.480967747882e-03 4.896258964040e-03 0.0 
2.844244689959e-04 -5.547041076833e-04 0.0 
1.857627107819e-03 4.128359956826e-04 0.0 
1.832541138813e-03 3.739946764610e-04 0.0 
2.226213553195e-03 8.392246923078e-04 0.0 
1.133105448220e-03 5.263517549388e-04 0.0 
1.968924023162e-03 5.782970177032e-04 0.0 
2.093385655506e-03 7.644157565565e-04 0.0 
2.911024010062e-03 7.306668260645e-03 0.0 
9.762480073242e-04 -1.767962182072e-04 0.0 
1.144668145268e-03 5.884375650755e-03 0.0 
7.406049968699e-04 8.842584802272e-03 0.0 
-3.493223336592e-04 3.361801071017e-03 0.0 
9.945278636939e-04 -8.913402418133e-05 0.0 
1.555487791021e-03 4.093866084499e-04 0.0 
1.039251531441e-03 2.108182667835e-03 0.0 
2.264061133683e-03 8.618326598631e-04 0.0 
9.716521470656e-04 -1.260017805640e-04 0.0 
9.103379770592e-04 5.818960796676e-03 0.0 
4.116629739605e-04 4.797602394692e-03 0.0 
1.760940651714e-03 5.290088507419e-04 0.0 
2.133041315508e-03 6.992265800949e-04 0.0 
2.885360554557e-03 7.003388240043e-03 0.0 
9.164045604815e-04 4.249666620540e-05 0.0 
9.195047480048e-04 4.770877805475e-05 0.0 
9.392017480992e-04 8.714209466455e-05 0.0 
7.854392536469e-04 1.379945308095e-04 0.0 
1.967328015054e-03 6.790396295252e-04 0.0 
6.838530398613e-04 4.277767252829e-03 0.0 
2.257497675995e-03 1.614754179544e-03 0.0 
7.466430666826e-04 1.194040783661e-04 0.0 
5.045741659720e-04 7.367617340429e-03 0.0 
9.841600034940e-04 5.352412259767e-03 0.0 
1.540343909634e-03 7.710285965224e-04 0.0 
6.606265338568e-04 3.798243643606e-03 0.0 
2.125645673252e-03 7.515507093603e-04 0.0 
2.145798716707e-03 7.618311307999e-04 0.0 
5.786360621759e-04 -2.298147864480e-04 0.0 
4.317869408138e-04 8.440581657388e-04 0.0 
5.207911782693e-04 3.264031849279e-03 0.0 
2.444495135559e-04 -5.451358626619e-04 0.0 
9.219573248980e-04 9.697083823328e-03 0.0 
2.444510303001e-03 1.995287664331e-03 0.0 
2.813609898684e-04 2.187422412132e-03 0.0 
7.497175987220e-04 -8.745048180270e-05 0.0 
3.202761239881e-03 3.894680126815e-03 0.0 
9.738905668507e-04 4.862917438718e-03 0.0 
8.050825997307e-04 -2.058976587645e-04 0.0 
1.076108699976e-03 3.875867223096e-04 0.0 
2.408981286792e-03 3.024146840579e-03 0.0 
4.966771115860e-04 -2.390775794843e-04 0.0 
7.933722423789e-04 -2.338801317726e-06 0.0 
6.355378481727e-04 -1.314260865522e-04 0.0 
2.224547798749e-03 8.121443641236e-04 0.0 
1.843557208700e-04 4.813660404987e-04 0.0 
1.569722064487e-03 1.078718984364e-02 0.0 
5.577048239575e-04 4.498336482743e-05 0.0 
2.255457330007e-03 1.215796557181e-03 0.0 
1.226617077480e-03 5.396374497939e-03 0.0 
7.627007799214e-04 8.034768781682e-04 0.0 
6.794743239156e-04 1.328249889834e-04 0.0 
6.002948412593e-04 -2.035742853685e-04 0.0 
2.715478714470e-04 -5.027078408033e-04 0.0 
1.967864502564e-03 7.594379773601e-04 0.0 
1.474300371561e-03 6.945777276906e-05 0.0 
1.689421078778e-03 7.892768262329e-04 0.0 
2.880869605304e-03 4.404739093433e-03 0.0 
1.360951333532e-03 4.415627433875e-03 0.0 
1.227497174630e-03 4.903287340438e-04 0.0 
9.093909057006e-04 5.329192726814e-03 0.0 
1.103276944284e-03 2.100036408902e-03 0.0 
9.223836641540e-04 3.894224422474e-03 0.0 
9.483981250845e-04 3.432288222116e-03 0.0 
1.154783692885e-03 1.780364887299e-03 0.0 
5.646496287700e-04 1.990039865311e-05 0.0 
1.029179683275e-03 4.393997368616e-03 0.0 
2.695117021001e-03 1.646840245210e-03 0.0 
1.925765136315e-03 1.105371959488e-02 0.0 
1.023755988022e-03 4.161185803530e-04 0.0 
1.316164161557e-03 1.037885508581e-03 0.0 
2.800606541267e-04 -5.226887272051e-04 0.0 
1.848741835768e-03 8.537068090215e-04 0.0 
2.767128085974e-05 -6.196677592980e-04 0.0 
3.090710925789e-03 2.829784882906e-03 0.0 
1.751243843980e-03 5.946898611630e-04 0.0 
7.508390447306e-04 2.491551959136e-03 0.0 
7.174963473269e-04 2.039976951607e-03 0.0 
1.900385337367e-03 6.772009348039e-04 0.0 
7.468628645137e-04 3.372799133712e-03 0.0 
2.468311161790e-03 1.485016736730e-03 0.0 
2.418472028309e-03 2.383619379717e-03 0.0 
2.051453769291e-03 1.085007229536e-02 0.0 
1.437939024837e-03 2.010552932346e-03 0.0 
2.020245288490e-03 1.033713155016e-02 0.0 
1.964189151898e-03 9.998942313131e-03 0.0 
2.408501577377e-03 1.106723741564e-03 0.0 
1.884356984743e-03 9.623476819932e-03 0.0 
2.872035537906e-03 2.080226373290e-03 0.0 
2.849949233649e-03 2.247157410739e-03 0.0 
2.018803169504e-03 5.704833010850e-04 0.0 
9.245715617666e-04 3.267999114329e-04 0.0 
2.244667050763e-03 9.021330060387e-04 0.0 
5.327300809895e-04 2.820849848284e-03 0.0 
1.202056783950e-03 2.010682223541e-03 0.0 
6.716599474971e-04 -6.318740165019e-06 0.0 
1.477214480029e-03 6.560038002769e-04 0.0 
1.560173378363e-03 1.327095083706e-04 0.0 
8.779451259135e-04 3.415749343483e-03 0.0 
2.115442998390e-03 6.870770488726e-04 0.0 
4.488173196839e-04 1.419966294989e-05 0.0 
8.520047970095e-04 3.873939927799e-03 0.0 
1.150825316858e-03 3.931872889820e-03 0.0 
1.933696788126e-03 5.844397850701e-04 0.0 
2.363026905364e-03 1.165444633938e-03 0.0 
2.046286193967e-03 1.859544651036e-03 0.0 
2.770292671214e-03 4.859424485038e-03 0.0 
8.795531057945e-04 2.044681467374e-04 0.0 
1.252180575072e-03 8.498806519706e-04 0.0 
2.949242420474e-03 4.035247914739e-03 0.0 
3.197410840221e-03 4.170297992202e-03 0.0 
3.439568318685e-04 1.104001903112e-05 0.0 
1.107910018523e-03 4.407456184222e-03 0.0 
2.262696053808e-03 9.975363929667e-04 0.0 
2.960695851176e-03 3.472180767245e-03 0.0 
1.534071595855e-03 4.620607000980e-04 0.0 
5.732530619076e-04 3.294445957246e-03 0.0 
1.796205702966e-03 1.716975328149e-03 0.0 
1.314780548162e-03 5.899762833175e-03 0.0 
1.149963027004e-03 2.413131854478e-04 0.0 
2.167824595204e-03 7.348810174056e-04 0.0 
1.473543324228e-03 4.090580839066e-04 0.0 
3.146508421154e-03 3.106953034124e-03 0.0 
5.818694259443e-04 2.419196250817e-03 0.0 
1.476202405643e-03 1.471206428330e-03 0.0 
2.050249693552e-03 6.284081049019e-04 0.0 
1.075445606633e-03 7.739221552491e-04 0.0 
2.062751195368e-03 1.380712427420e-03 0.0 
3.017456163692e-03 2.539742406285e-03 0.0 
2.367151791968e-03 1.284945462516e-03 0.0 
2.041188296850e-03 6.536519059831e-04 0.0 
1.110641261729e-03 1.684070452389e-04 0.0 
1.023132096384e-03 6.092618996017e-04 0.0 
2.110791075792e-03 6.622410450501e-04 0.0 
2.287565465133e-03 5.034057803907e-03 0.0 
3.130403649418e-04 4.647380457473e-06 0.0 
2.341739923707e-03 4.456177088711e-03 0.0 
2.267280627253e-03 1.725981465357e-03 0.0 
2.203242912422e-03 5.612442763257e-03 0.0 
1.966219280997e-03 6.749689223117e-03 0.0 
2.790967566871e-03 4.231145762408e-03 0.0 
1.611803902547e-03 6.620442177096e-04 0.0 
6.440055400842e-04 1.472495938439e-05 0.0 
1.213985664021e-03 4.904037252774e-03 0.0 
6.614037040163e-04 2.029311917722e-03 0.0 
2.093757920326e-03 6.185703221552e-03 0.0 
1.991151467825e-03 1.065495825899e-03 0.0 
1.865502278278e-03 1.243126112851e-03 0.0 
4.368219797527e-04 2.322586173113e-03 0.0 
2.951096258496e-03 2.313325701507e-03 0.0 
3.032697778114e-03 2.561176380233e-03 0.0 
2.155964544364e-03 1.034119877025e-03 0.0 
1.273543663123e-03 4.419697393230e-03 0.0 
3.187266740737e-03 5.845212481296e-03 0.0 
2.770648910921e-03 1.866603010373e-03 0.0 
3.186754036196e-03 5.397958694613e-03 0.0 
1.929747838821e-03 8.196420485871e-04 0.0 
1.396261113674e-03 8.752596479802e-04 0.0 
2.069134077652e-03 7.833443122398e-04 0.0 
4.176354319041e-04 6.702759613253e-04 0.0 
8.328819586925e-04 2.051637247271e-03 0.0 
3.198785127795e-03 6.172884079522e-03 0.0 
1.700583079825e-03 2.502120573927e-04 0.0 
1.635932967025e-03 1.023931098445e-03 0.0 
1.300360990336e-03 4.908627688675e-03 0.0 
7.756730580380e-04 2.546612519331e-05 0.0 
2.668289372682e-03 1.937764821567e-03 0.0 
2.562883778150e-04 6.116250203365e-04 0.0 
2.222206670539e-04 5.549832193233e-06 0.0 
3.142485145893e-03 3.521496061789e-03 0.0 
2.313826810243e-03 1.187168256380e-03 0.0 
1.834416927821e-03 1.554759617532e-03 0.0 
-3.691720309012e-05 6.669030080329e-04 0.0 
8.294306290082e-04 4.412469865143e-05 0.0 
2.024132478428e-03 2.229313378804e-03 0.0 
1.405511247619e-03 5.898482749126e-03 0.0 
7.910098060480e-04 -1.529608522233e-04 0.0 
2.167328154769e-03 9.353605413887e-04 0.0 
4.124375988545e-04 5.460294308397e-06 0.0 
2.929632904302e-03 2.284899279860e-03 0.0 
2.032966621731e-03 9.632666447289e-04 0.0 
3.069346520872e-03 3.403792118026e-03 0.0 
2.527360918822e-04 4.512121671174e-04 0.0 
2.601597847164e-03 2.432038604235e-03 0.0 
1.872341411668e-03 7.396892108363e-04 0.0 
1.181982970212e-03 1.243980063089e-03 0.0 
2.263225693672e-03 1.951530294367e-03 0.0 
1.525430518799e-03 8.303234132354e-04 0.0 
6.207907668915e-04 -1.994998447343e-05 0.0 
3.788219841401e-04 1.864385435620e-03 0.0 
8.091133332484e-04 3.519669684291e-04 0.0 
1.803149548303e-03 7.789241905748e-04 0.0 
2.562933027184e-03 1.547780968591e-03 0.0 
2.869402189653e-03 2.916360050887e-03 0.0 
2.530603659850e-04 -5.982932245298e-06 0.0 
1.788606212795e-04 -2.799920857062e-04 0.0 
2.444721324675e-03 2.125978904362e-03 0.0 
1.142400542488e-03 5.386764095247e-03 0.0 
5.229272501187e-04 8.676793383462e-06 0.0 
7.888662273054e-04 6.304222338983e-05 0.0 
3.018419233340e-04 9.284128351139e-03 0.0 
2.017171740135e-04 9.280858354478e-03 0.0 
2.155528652433e-03 4.632802457801e-03 0.0 
2.745641994664e-03 2.589094634455e-03 0.0 
6.814056884847e-04 -1.508578667304e-04 0.0 
2.655297266871e-03 3.954790947058e-03 0.0 
2.894275815119e-03 2.095564489342e-03 0.0 
1.051240079876e-03 2.925102507648e-04 0.0 
2.661399669651e-03 1.763972712520e-03 0.0 
1.637180839744e-04 4.934107530634e-04 0.0 
1.981325182899e-03 7.732412628492e-03 0.0 
2.967114795937e-03 2.321671369860e-03 0.0 
8.573326996793e-04 -1.342347169952e-04 0.0 
1.501178908808e-03 1.122864284853e-03 0.0 
9.058505147902e-04 -2.016326112650e-04 0.0 
2.977597416408e-03 3.054661040126e-03 0.0 
3.103528815988e-03 4.272211570225e-03 0.0 
1.403723103252e-03 5.399684849791e-03 0.0 
2.565325949569e-03 3.530341695076e-03 0.0 
2.398918033401e-03 3.248565453411e-03 0.0 
7.231880019802e-05 -6.426957458317e-04 0.0 
8.651280752150e-04 -2.394655180900e-04 0.0 
3.228627765153e-03 5.766211852496e-03 0.0 
2.565863909400e-03 4.692458917594e-03 0.0 
2.429689969022e-03 4.348557588364e-03 0.0 
1.385083228759e-03 5.117250198175e-04 0.0 
1.474029554272e-05 -6.060627405870e-04 0.0 
8.166172879219e-04 4.008459859964e-04 0.0 
3.171544425366e-03 3.343188855071e-03 0.0 
7.980355339283e-04 -2.602154418987e-04 0.0 
2.055534183642e-03 9.909154319025e-03 0.0 
1.977744671251e-03 9.558839187580e-03 0.0 
1.496922190390e-03 5.391386084510e-03 0.0 
9.817035749752e-04 1.950135469713e-03 0.0 
7.680133402540e-04 -1.878057663322e-04 0.0 
1.489561705316e-03 3.566768424918e-04 0.0 
8.581810742952e-04 5.445429415361e-04 0.0 
7.726266425178e-04 5.242762030475e-04 0.0 
7.582592476387e-04 2.931110891315e-03 0.0 
6.126277230684e-04 -2.516183684369e-04 0.0 
5.514139808274e-04 -1.012989019368e-05 0.0 
1.186531261391e-04 -6.410485806110e-04 0.0 
1.476272898166e-03 2.936886539164e-04 0.0 
3.129132522051e-03 3.269592587677e-03 0.0 
9.109686920006e-05 -6.477125672518e-04 0.0 
6.975558533835e-04 2.908445176219e-03 0.0 
7.291870513742e-04 6.353415226277e-04 0.0 
2.648468491483e-03 4.552163014032e-03 0.0 
3.129726073928e-03 4.026444599588e-03 0.0 
1.737775362159e-03 2.814014315873e-04 0.0 
1.381433698797e-03 1.185619673219e-04 0.0 
6.933654040337e-04 2.480960319968e-03 0.0 
1.291757366654e-03 1.397608309362e-04 0.0 
3.065553694545e-03 2.776061258960e-03 0.0 
3.136592804331e-03 3.074663384126e-03 0.0 
-5.364086935493e-04 2.851504899834e-03 0.0 
5.635113019628e-04 5.730085005282e-04 0.0 
2.080525125895e-03 1.574764894610e-03 0.0 
1.886322988622e-03 6.288066493242e-03 0.0 
1.873493257546e-03 1.325951294228e-03 0.0 
2.113159384507e-03 2.550249742639e-03 0.0 
1.591576319334e-03 3.386742767046e-03 0.0 
1.850027455355e-03 1.474797057458e-03 0.0 
2.074907655392e-03 9.042429567199e-03 0.0 
2.076259170640e-03 1.669622483590e-03 0.0 
5.057950713744e-04 -2.083138112996e-05 0.0 
2.855961469263e-03 2.540383444057e-03 0.0 
8.725915713018e-04 -1.861996356093e-04 0.0 
9.018452054564e-04 -1.493816079489e-04 0.0 
8.963727795798e-04 2.060633914039e-03 0.0 
1.430567188201e-03 9.049511012569e-05 0.0 
3.061937848566e-03 3.633122790438e-03 0.0 
2.661700455849e-03 1.516718102788e-03 0.0 
1.161500607514e-03 1.517836735022e-04 0.0 
2.870833497535e-03 2.076871122684e-03 0.0 
1.606362542867e-03 7.407454191025e-04 0.0 
1.950975259062e-03 5.013640734944e-04 0.0 
1.843455290021e-03 9.876778435499e-04 0.0 
2.587308330651e-03 4.099327765227e-03 0.0 
1.755871569783e-03 8.152841544476e-04 0.0 
2.849573125833e-03 4.055555648280e-03 0.0 
1.569143032262e-03 6.037928689941e-04 0.0 
1.703082250865e-03 6.407200041084e-04 0.0 
2.825103407240e-03 2.043782018803e-03 0.0 
1.594695697263e-03 5.873420307813e-03 0.0 
4.409286198363e-04 -1.076406619432e-05 0.0 
4.004427461060e-04 -1.898128645668e-05 0.0 
5.589169954676e-04 2.013599141532e-03 0.0 
2.767359147291e-03 3.637982765916e-03 0.0 
2.467377575297e-04 1.005270183664e-05 0.0 
2.605869166476e-03 8.723551632915e-03 0.0 
6.016289021830e-04 -1.968322696365e-04 0.0 
-3.375202210044e-04 3.004906230336e-03 0.0 
3.410352581976e-04 -9.149564527616e-06 0.0 
1.602900789162e-03 1.011260246776e-03 0.0 
1.479828808925e-04 -2.562275650334e-04 0.0 
2.374384704326e-03 1.308150621108e-03 0.0 
1.693000005453e-03 5.851831537336e-03 0.0 
1.783826592798e-03 6.323792338270e-03 0.0 
3.047076562591e-03 2.943833345827e-03 0.0 
2.141380623346e-03 1.045902348210e-02 0.0 
2.112527850668e-03 1.021274073344e-02 0.0 
3.055723497166e-04 -1.527700758698e-05 0.0 
1.379323686762e-03 1.511704129613e-04 0.0 
1.741734092872e-03 2.945084319188e-04 0.0 
1.547558103396e-03 3.453964446419e-04 0.0 
1.977595772582e-03 5.133000549787e-04 0.0 
1.771416533467e-03 1.094075941745e-03 0.0 
2.053176036490e-03 1.062358323619e-02 0.0 
1.924264854317e-03 7.277899584506e-03 0.0 
2.550281049036e-04 9.569873431026e-03 0.0 
1.649463848373e-03 5.779576969915e-04 0.0 
2.733736041470e-03 1.815261152624e-03 0.0 
1.050013520771e-03 4.506284429057e-04 0.0 
1.295166615605e-04 -3.702418007480e-05 0.0 
2.017202082055e-03 5.572538304108e-04 0.0 
2.059550596707e-04 1.624210186338e-05 0.0 
1.721787297198e-03 5.859309507809e-04 0.0 
1.311795755584e-03 6.228219146362e-04 0.0 
3.018449356119e-03 2.718827488055e-03 0.0 
2.702884955910e-03 2.090289461458e-03 0.0 
1.060704610515e-03 2.404074802863e-04 0.0 
9.150729120692e-04 -2.867233409817e-04 0.0 
2.935086743756e-03 3.674666308477e-03 0.0 
1.883525436466e-03 4.167209371406e-04 0.0 
3.010131483206e-03 4.081375302309e-03 0.0 
2.314200430224e-03 2.666390255291e-03 0.0 
2.522875603605e-03 1.704448384476e-03 0.0 
1.829910672860e-03 3.684240667930e-04 0.0 
7.442197182390e-04 -1.356804158638e-04 0.0 
2.966101150083e-03 4.292619310031e-03 0.0 
-3.255173948440e-04 2.049699901033e-03 0.0 
2.560652859411e-03 1.371892999395e-03 0.0 
1.580876538237e-04 3.008445220272e-03 0.0 
2.096872997306e-04 -6.070804673290e-04 0.0 
6.634857887501e-04 -1.840422542007e-04 0.0 
2.196694593482e-03 2.275018628209e-03 0.0 
1.894736456322e-03 5.794811148468e-03 0.0 
2.095811520329e-03 1.071363262830e-02 0.0 
8.496801849921e-05 2.393168340936e-04 0.0 
-6.537149322613e-04 2.394540286874e-03 0.0 
2.139777897905e-03 1.062718502180e-02 0.0 
1.682602765756e-03 2.639834239862e-04 0.0 
5.180715846807e-04 -2.403454458714e-04 0.0 
2.605523443371e-03 8.694636018257e-03 0.0 
1.501267551731e-03 1.923114302405e-04 0.0 
1.451158284544e-03 1.290828089201e-04 0.0 
2.968680081970e-03 2.846605742039e-03 0.0 
2.392460784813e-03 1.213673741653e-03 0.0 
1.734137305000e-03 2.349440951634e-03 0.0 
7.533632750550e-04 1.840155707025e-03 0.0 
6.754381270359e-04 -2.383033148678e-04 0.0 
4.822690181972e-04 -2.174201565208e-04 0.0 
5.890901927858e-04 -4.523281959018e-04 0.0 
1.969745154101e-03 8.657214192173e-03 0.0 
1.997340865637e-03 5.749220340132e-03 0.0 
4.704366842078e-05 -9.660673645823e-05 0.0 
9.770821004362e-05 -6.483965738859e-04 0.0 
-2.051453959364e-04 7.744615177198e-04 0.0 
4.131799096864e-04 -5.115444406704e-04 0.0 
4.241335180961e-04 -2.257579228817e-04 0.0 
1.869632988782e-03 5.831240157401e-04 0.0 
1.473459988419e-03 2.313920014137e-04 0.0 
1.528065752165e-03 5.883136321059e-04 0.0 
5.603533675729e-04 -1.758773508860e-04 0.0 
2.059229262890e-03 4.697611278895e-03 0.0 
3.875728204154e-04 -2.022098321166e-04 0.0 
1.963416526972e-03 7.194369289420e-04 0.0 
2.808842432091e-03 3.468337433836e-03 0.0 
1.161707976278e-03 7.927252545969e-03 0.0 
2.080355976249e-03 1.085694041139e-03 0.0 
3.317099059323e-04 -2.088487508008e-04 0.0 
5.015579610823e-04 -1.859345783469e-04 0.0 
1.855367339257e-03 1.054766228501e-02 0.0 
1.785409756739e-03 4.062218158627e-04 0.0 
2.941957702576e-04 -1.851251147836e-04 0.0 
4.341887210613e-05 5.806886420685e-03 0.0 
4.839459402919e-05 6.770687297007e-03 0.0 
2.003029027712e-03 1.070040683783e-02 0.0 
4.601431449681e-04 -1.641697455966e-04 0.0 
1.243429926996e-03 -2.543142086245e-05 0.0 
7.162032090020e-04 3.416527371763e-03 0.0 
1.285779596145e-03 5.772885866730e-04 0.0 
4.407397365238e-04 -4.502396166630e-04 0.0 
1.264999367468e-03 -4.408728856490e-05 0.0 
2.659898620321e-03 1.529395076506e-03 0.0 
2.014045828268e-03 1.099302420814e-02 0.0 
2.399500114251e-04 -1.903701190821e-04 0.0 
3.582793433964e-05 -5.551037381450e-04 0.0 
1.933346868574e-03 8.227322075224e-03 0.0 
4.042935044023e-04 -1.721072330054e-04 0.0 
1.611808146468e-03 1.789608188381e-04 0.0 
7.033033527104e-04 -2.037097174431e-04 0.0 
-2.057929954922e-04 1.656365186775e-03 0.0 
5.307732515359e-05 2.981091592052e-03 0.0 
1.520742040045e-03 1.287655455609e-04 0.0 
1.254995574445e-03 3.833073887144e-04 0.0 
2.670658226874e-03 1.931744445248e-03 0.0 
3.636818555128e-04 -1.500455200441e-04 0.0 
3.094470358512e-04 -1.564244831381e-04 0.0 
1.757402633151e-03 5.197825455118e-04 0.0 
2.796819631904e-04 -4.041328831674e-04 0.0 
-1.711659750714e-04 1.895944401762e-03 0.0 
2.693640108746e-04 -1.343340902843e-04 0.0 
1.113067157304e-03 2.733645642460e-04 0.0 
1.033278173872e-03 -2.061004526435e-04 0.0 
2.698804497296e-03 3.086267344153e-03 0.0 
2.507033852851e-03 8.340349223778e-03 0.0 
2.618782271028e-03 3.389123628062e-03 0.0 
3.871044744028e-04 7.446115991993e-05 0.0 
-5.787228825114e-04 8.917537924156e-04 0.0 
7.663564702960e-06 2.601006779668e-04 0.0 
9.672484698102e-06 2.592759328424e-06 0.0 
3.080839643758e-05 8.301286962954e-03 0.0 
1.276626305964e-03 -7.051316764494e-05 0.0 
2.833772209307e-03 2.356361068878e-03 0.0 
1.938612681456e-03 8.005999257948e-04 0.0 
1.929581768772e-04 -6.091271521230e-04 0.0 
-5.148292733814e-04 2.533578440942e-03 0.0 
2.214917081771e-04 2.149759682574e-03 0.0 
2.088635485356e-03 5.187466624323e-03 0.0 
1.889300672105e-03 9.163626338182e-03 0.0 
3.841796939638e-04 2.306016830134e-04 0.0 
3.133308977067e-05 -5.902813870113e-04 0.0 
3.626128642348e-04 1.981260338713e-04 0.0 
1.988473107028e-03 5.250678226146e-03 0.0 
1.051928819611e-03 -2.103546677743e-04 0.0 
2.917863615541e-03 2.437577509087e-03 0.0 
1.199701918592e-03 -1.164060607639e-04 0.0 
1.020940531638e-03 4.098225764983e-03 0.0 
1.047857506406e-03 -2.105300968345e-04 0.0 
2.102382197259e-03 4.153623955455e-03 0.0 
1.288778301072e-04 -2.122272636172e-05 0.0 
1.433969327116e-03 7.731041459701e-05 0.0 
2.500386102152e-03 2.998553330420e-03 0.0 
-4.555692302274e-04 7.199591827265e-04 0.0 
1.688644163047e-03 3.485657789875e-04 0.0 
1.670297255813e-03 3.860471272442e-03 0.0 
8.477902629107e-04 -3.249070581610e-04 0.0 
8.850406195015e-04 -2.928766661905e-04 0.0 
2.877144694577e-03 2.239968153568e-03 0.0 
5.861085340195e-04 -8.978601726138e-06 0.0 
1.333182151390e-03 9.725072479061e-03 0.0 
1.614266103515e-03 1.029859377868e-02 0.0 
7.664303225353e-04 -3.660554453562e-04 0.0 
1.596563158662e-03 1.996321642951e-04 0.0 
2.814869521440e-03 1.880833272391e-03 0.0 
2.538925043620e-03 2.865342378591e-03 0.0 
1.094191543703e-03 1.576211741267e-03 0.0 
1.778365813762e-03 1.099613860786e-02 0.0 
7.978454367345e-05 4.808136018276e-03 0.0 
1.266584404947e-03 1.172392735854e-03 0.0 
1.809213807312e-03 7.304354178621e-04 0.0 
1.813371817732e-04 3.392458270114e-03 0.0 
2.676242589534e-03 8.202726007213e-03 0.0 
1.482061465000e-03 1.011196285437e-04 0.0 
2.338465459608e-03 3.361617237605e-03 0.0 
1.566919552421e-03 1.589059336731e-04 0.0 
3.309313504684e-04 1.668688093458e-03 0.0 
1.538696344082e-03 2.150507685227e-04 0.0 
1.309360347254e-03 4.864624299973e-03 0.0 
2.730520410676e-03 1.679323261096e-03 0.0 
1.532296167584e-03 1.804335579601e-04 0.0 
2.760826559306e-03 2.000206697149e-03 0.0 
3.062114519758e-04 5.999384251828e-03 0.0 
7.097506418006e-04 -3.957053576291e-04 0.0 
4.025659730659e-04 2.830835025820e-03 0.0 
1.455448449008e-03 1.963084651221e-04 0.0 
1.653857166885e-03 5.799424327100e-03 0.0 
-2.261445018718e-04 9.253371062979e-04 0.0 
1.959221479833e-05 1.951209033839e-03 0.0 
2.664987024173e-05 2.909959810674e-03 0.0 
1.069980910111e-04 -4.299912350968e-04 0.0 
1.437419801870e-03 2.237912204969e-04 0.0 
5.041433496878e-04 -4.861258099399e-04 0.0 
5.254224603127e-04 -4.806607107176e-04 0.0 
2.159685814111e-03 2.374990122108e-03 0.0 
2.711928142046e-03 1.831514460524e-03 0.0 
2.393143829206e-03 2.507939499081e-03 0.0 
1.601320036885e-03 2.481330799837e-04 0.0 
5.743739752629e-04 9.630456569964e-03 0.0 
2.762730062056e-04 4.806272128966e-05 0.0 
4.415676978312e-04 -5.103554898715e-04 0.0 
1.432604208631e-03 4.501414822755e-04 0.0 
2.822293301583e-03 1.891180970696e-03 0.0 
1.011720549385e-04 -6.185745158615e-04 0.0 
2.361870660010e-03 3.896864217015e-03 0.0 
1.878640919989e-03 5.201101281622e-04 0.0 
2.095739598361e-04 -3.025450460902e-04 0.0 
1.554513281192e-03 3.377604932280e-04 0.0 
2.506854967913e-05 -1.188687309315e-04 0.0 
2.192288417460e-03 4.078047455965e-03 0.0 
3.929019816766e-04 -4.391875457152e-04 0.0 
9.951408202625e-05 -2.650453263749e-04 0.0 
2.269584361074e-03 2.849916000786e-03 0.0 
1.931201091651e-03 1.015170474473e-03 0.0 
9.023149404523e-04 -2.939418994228e-04 0.0 
7.297572407477e-05 -5.518136380154e-04 0.0 
2.736142355291e-03 1.702347933119e-03 0.0 
2.291544645945e-05 6.310564063752e-03 0.0 
1.910998348505e-04 -1.825773582145e-04 0.0 
9.244362837458e-04 7.439701685167e-04 0.0 
5.947995459744e-04 9.669948951761e-04 0.0 
1.064339331792e-04 7.650762876739e-03 0.0 
3.810584648857e-04 1.464693775767e-03 0.0 
6.538774475073e-04 8.375046053583e-04 0.0 
1.606832879771e-03 2.116243466609e-04 0.0 
1.353545966640e-03 5.100478287667e-06 0.0 
6.853594288975e-04 2.306432183943e-04 0.0 
-5.393343650009e-04 1.062306460751e-03 0.0 
1.659279422794e-05 -5.739589464487e-04 0.0 
7.360492783170e-05 -2.439371505705e-04 0.0 
8.397146467190e-04 -3.299479486230e-04 0.0 
1.318014880742e-03 5.079349734677e-05 0.0 
6.604270521197e-04 7.751472991654e-03 0.0 
9.910502632434e-04 8.852510769591e-03 0.0 
9.937085380580e-04 7.857081392845e-03 0.0 
1.669644970666e-03 3.991126210586e-04 0.0 
1.964214702766e-04 -5.332077945797e-04 0.0 
2.216616988956e-03 1.403619996921e-03 0.0 
9.526488313681e-05 1.561457059126e-05 0.0 
1.239341356535e-04 2.132891560288e-05 0.0 
1.355914738123e-03 -1.146573733321e-05 0.0 
1.283392688352e-03 8.463956804738e-03 0.0 
-3.037630686601e-04 6.855094885010e-04 0.0 
6.868988277208e-04 5.153576884399e-03 0.0 
5.068233661097e-04 5.106045017941e-05 0.0 
7.486855501050e-04 6.359443839131e-03 0.0 
2.706738241841e-03 1.693108088848e-03 0.0 
1.101698386031e-03 -1.529769213739e-04 0.0 
1.420007681689e-03 1.043475659537e-04 0.0 
7.139727982302e-05 2.890965605344e-04 0.0 
6.064714326296e-05 2.633759051571e-03 0.0 
1.190443751579e-03 -1.065463973047e-04 0.0 
1.920205330263e-04 2.100336153602e-03 0.0 
1.614684769804e-04 3.496230220374e-03 0.0 
2.300386433076e-05 5.745714424701e-04 0.0 
2.170442380713e-05 4.725027529920e-06 0.0 
5.628754400732e-05 7.758974666856e-03 0.0 
1.125535885577e-03 -1.672662290241e-04 0.0 
1.233194991699e-03 1.047667458566e-02 0.0 
1.124924843357e-03 -1.692684679429e-04 0.0 
3.636380837420e-05 5.645206477954e-06 0.0 
-8.803926199516e-05 3.575432795611e-03 0.0 
2.607524488511e-04 4.296131081139e-03 0.0 
1.353341865464e-03 4.706180211567e-04 0.0 
9.579874139495e-04 8.739440701574e-03 0.0 
1.148216739455e-04 2.009701493632e-03 0.0 
2.317596108366e-03 2.741121944809e-03 0.0 
1.569801311436e-03 8.312919318341e-04 0.0 
1.883461012637e-03 2.752988291782e-03 0.0 
3.603015464259e-04 7.433590293959e-03 0.0 
7.469026044775e-04 -3.679484407843e-04 0.0 
8.029126077104e-04 -3.307757108188e-04 0.0 
1.001697870213e-04 5.289189077420e-03 0.0 
1.802057769308e-03 1.012282271599e-03 0.0 
1.652367913538e-03 9.151684282643e-03 0.0 
1.969272794972e-04 8.728250701866e-03 0.0 
2.327686022666e-04 7.876035077156e-03 0.0 
4.141162527932e-04 7.552030782662e-03 0.0 
3.943138975655e-04 3.678199071642e-04 0.0 
6.697648287995e-04 -4.015883328786e-04 0.0 
1.703724019765e-04 1.285371107559e-03 0.0 
3.952143428045e-04 6.521105698082e-03 0.0 
5.693878268554e-04 2.381087296344e-04 0.0 
1.194580275652e-03 1.633841960176e-03 0.0 
2.436884439556e-03 3.787930297439e-03 0.0 
5.661662467862e-04 2.025251651307e-03 0.0 
3.169266116619e-04 -4.051121681275e-04 0.0 
3.005987062537e-04 -4.547989302301e-04 0.0 
4.737857148673e-04 7.436597123673e-05 0.0 
-8.978813253992e-05 2.909362906251e-04 0.0 
8.786217161688e-05 -5.664587914854e-04 0.0 
1.844311084291e-04 1.052422329458e-04 0.0 
2.033663378765e-05 -6.423480611523e-04 0.0 
2.418710591026e-04 8.438207600307e-03 0.0 
8.988469023579e-04 2.586104067680e-04 0.0 
1.741078874297e-04 -5.519441117560e-04 0.0 
1.093736323864e-04 -6.258894863202e-04 0.0 
1.051693026543e-04 4.972377807844e-04 0.0 
8.411635198955e-04 9.376085145337e-03 0.0 
2.544669352946e-04 1.391864129219e-03 0.0 
8.955666223185e-04 2.984158190987e-04 0.0 
7.305674986225e-04 9.372517631444e-03 0.0 
-3.699113042938e-04 1.066736791995e-03 0.0 
4.008880206899e-05 1.076579167412e-03 0.0 
1.932507525018e-04 -6.136780880650e-04 0.0 
2.827422830619e-04 1.815377470821e-03 0.0 
2.865090378809e-05 4.403420479744e-06 0.0 
9.908237725403e-04 1.645834366406e-03 0.0 
6.678540165952e-04 3.496013661459e-04 0.0 
1.433169936986e-03 7.800389322921e-03 0.0 
1.918572974362e-04 -4.143687555659e-04 0.0 
2.176013410832e-03 1.295108576878e-03 0.0 
3.009817492836e-04 1.276910367366e-04 0.0 
9.481429021958e-05 4.318978738070e-03 0.0 
2.903672426957e-04 1.119930311961e-04 0.0 
9.647627936605e-05 4.159163459412e-04 0.0 
1.722152804525e-04 2.077805034854e-05 0.0 
7.515783433286e-04 1.440308039613e-04 0.0 
9.278362755503e-05 -6.371127559250e-04 0.0 
5.064436480754e-04 1.298685704817e-04 0.0 
4.668317353853e-04 1.203818800995e-03 0.0 
2.307623470996e-04 9.783928200956e-04 0.0 
5.435702871428e-04 8.631241459579e-03 0.0 
1.825727091423e-03 7.276208898935e-03 0.0 
9.884440893924e-04 3.625991831222e-03 0.0 
7.761686386509e-04 9.557086179396e-04 0.0 
1.513973800654e-04 -4.842373062105e-04 0.0 
1.573757242652e-04 2.056012306450e-03 0.0 
1.977267110213e-03 1.108421116245e-03 0.0 
4.560463330810e-04 9.629751763687e-03 0.0 
6.296492569219e-04 1.654033589953e-03 0.0 
3.227846934882e-06 5.457318501100e-04 0.0 
3.227846934882e-06 2.303498771287e-04 0.0 
1.167494062390e-05 -6.786909264732e-04 0.0 
5.280934515393e-06 -6.759517156525e-04 0.0 
2.445490712545e-05 9.263114602029e-03 0.0 
5.867622291048e-05 9.599581681464e-03 0.0 
3.752529242763e-06 1.861374678221e-06 0.0 
3.752529242763e-06 3.478315144580e-06 0.0 
2.470096464822e-05 -6.702351586733e-04 0.0 
-3.591204272214e-04 4.323655190668e-04 0.0 
1.726667405969e-04 9.241542185770e-06 0.0 
1.426221552727e-03 9.479333448095e-04 0.0 
1.811538541663e-04 -6.143651865260e-04 0.0 
2.862667264684e-04 3.167072945330e-05 0.0 
4.364900294609e-05 -1.978112146497e-04 0.0 
4.526726607171e-05 -3.055386417758e-04 0.0 
2.671822355832e-04 6.136753803627e-03 0.0 
4.486594342266e-04 -1.380104772318e-04 0.0 
2.480162555710e-03 1.568371630538e-03 0.0 
1.650125130786e-04 -6.241486378283e-04 0.0 
2.683910947968e-04 -3.516108457855e-04 0.0 
1.037523152849e-03 1.315785016713e-03 0.0 
1.136442575380e-05 2.410492080422e-03 0.0 
8.738679827429e-05 -2.982323978030e-04 0.0 
1.746962618592e-04 7.114759841168e-03 0.0 
1.382204156608e-03 1.113965771856e-03 0.0 
1.795359293909e-03 2.311510024860e-03 0.0 
2.153727670704e-03 3.039342599995e-03 0.0 
6.245888984030e-04 9.324237275107e-03 0.0 
2.522860326356e-03 1.482918339222e-03 0.0 
7.922380549288e-04 1.679643534905e-03 0.0 
1.267372260800e-04 -5.602433824450e-04 0.0 
8.787637876714e-05 -4.635755846050e-04 0.0 
1.628415250276e-03 1.380563077957e-03 0.0 
1.483783266475e-03 4.999235632163e-04 0.0 
3.529701492090e-04 -1.187150358335e-04 0.0 
1.388871914319e-04 5.394130692539e-03 0.0 
9.535582595432e-05 1.096947249370e-05 0.0 
1.654684538410e-03 1.233418150903e-03 0.0 
1.396926859110e-03 1.021584706442e-03 0.0 
5.250717461720e-05 -1.465179346370e-04 0.0 
-3.803236059372e-04 1.610442041415e-03 0.0 
5.020124212608e-04 8.775208703962e-03 0.0 
1.610697227407e-03 5.103072554567e-03 0.0 
1.509762463510e-03 7.472774146713e-03 0.0 
2.579046761719e-03 1.626975454684e-03 0.0 
2.194498915669e-04 1.756523088640e-03 0.0 
5.964639906326e-04 2.110743661087e-04 0.0 
1.503602151094e-04 -2.437601142746e-04 0.0 
1.679854968686e-04 -4.305187602296e-04 0.0 
6.718544715657e-04 5.905289232082e-03 0.0 
2.274319578730e-04 4.952382146893e-03 0.0 
2.271339812313e-04 -5.085286925964e-04 0.0 
5.292552621716e-04 1.633470363287e-03 0.0 
1.079993441565e-04 -6.268651554398e-04 0.0 
1.021148372151e-03 3.712727743093e-04 0.0 
9.178798226836e-04 7.775467932968e-03 0.0 
7.089979396602e-04 3.631443046954e-04 0.0 
2.047587222382e-03 1.293149410497e-03 0.0 
1.665149020264e-03 7.411180616870e-03 0.0 
4.209231358218e-04 8.981787528500e-05 0.0 
4.081107000740e-04 1.191188235903e-03 0.0 
3.297629148572e-05 1.260110844527e-03 0.0 
-6.289604665424e-05 3.998656056727e-03 0.0 
5.153736629521e-04 1.986153297253e-03 0.0 
7.559397581994e-04 6.277816818183e-04 0.0 
1.040740385945e-03 3.596290051629e-04 0.0 
1.831774303353e-03 1.088499145809e-03 0.0 
5.067631438637e-05 8.383483056319e-06 0.0 
2.086717319264e-03 3.117926178446e-03 0.0 
-6.877144474374e-04 1.791815120574e-03 0.0 
3.729007497654e-04 2.494537293849e-03 0.0 
1.510597616183e-03 2.006461170023e-03 0.0 
1.374106566717e-03 6.873473994952e-03 0.0 
9.035941935446e-05 -8.458750463116e-07 0.0 
1.617368965086e-03 9.568671483271e-04 0.0 
1.791335641957e-04 2.655821200078e-05 0.0 
1.973216772260e-04 3.968046092120e-03 0.0 
6.637558932218e-04 3.105339712225e-04 0.0 
5.228848907604e-04 9.687422639621e-05 0.0 
5.515210684244e-04 1.095732915565e-04 0.0 
1.667567906501e-04 -5.012346273759e-04 0.0 
8.095237712464e-05 1.287629401290e-05 0.0 
1.218316224884e-03 8.808094065599e-03 0.0 
1.392152773317e-04 2.036640729166e-03 0.0 
2.103598012266e-04 -3.935692861030e-04 0.0 
9.084398402558e-05 2.824974545577e-03 0.0 
2.092383211682e-04 5.348008445665e-03 0.0 
1.556648844289e-05 -6.586286424148e-04 0.0 
5.437420535571e-04 4.309652995861e-04 0.0 
2.011693352986e-03 2.636473786557e-03 0.0 
1.848196492397e-04 1.050818460941e-03 0.0 
7.028991227832e-05 1.942712982214e-03 0.0 
8.517845002078e-04 3.903825305664e-04 0.0 
4.334786123728e-04 7.040694925516e-03 0.0 
1.134057584743e-04 -5.670144422955e-04 0.0 
-1.114107617333e-04 1.196616798705e-03 0.0 
1.380289315034e-04 -5.813389047935e-04 0.0 
2.715799481832e-04 -4.453973559352e-04 0.0 
-7.468203276680e-04 2.007821340043e-03 0.0 
2.395791677528e-04 -3.734468382552e-04 0.0 
1.135383236774e-04 8.249584772791e-07 0.0 
9.660216728284e-04 1.715423532821e-03 0.0 
1.765185122278e-03 6.783724382574e-03 0.0 
3.364882841908e-04 -4.280051049570e-04 0.0 
4.603364598728e-04 6.560529199469e-05 0.0 
8.502483930561e-04 2.196147550499e-04 0.0 
8.528718346626e-04 4.594631496689e-04 0.0 
1.208643226865e-03 1.003589395760e-03 0.0 
1.618603474771e-03 1.943536200004e-03 0.0 
2.058479268425e-04 -4.593563565753e-04 0.0 
-3.831821828691e-05 5.282806234668e-04 0.0 
1.585350304137e-04 5.656815722060e-06 0.0 
3.245755571184e-05 -6.552624901801e-04 0.0 
7.405648470628e-06 -6.513499527223e-04 0.0 
-3.154586367059e-04 2.339759132947e-03 0.0 
1.733753554883e-04 -5.726196410490e-04 0.0 
3.181382949906e-04 6.679661430887e-05 0.0 
6.830172041162e-04 6.988383991548e-04 0.0 
1.962510217349e-04 1.752411702398e-03 0.0 
6.799862768890e-04 3.774633937905e-04 0.0 
1.017334142472e-03 2.643962119732e-04 0.0 
3.483778973273e-04 6.488400737171e-03 0.0 
4.807459985793e-05 2.077003795016e-04 0.0 
7.163036339013e-04 3.812656182214e-05 0.0 
7.895388058762e-04 9.693285526143e-03 0.0 
2.837902073894e-04 -1.843557264965e-04 0.0 
1.163330785983e-04 -6.331648619356e-04 0.0 
5.541142691830e-05 8.334084766007e-06 0.0 
1.666808727779e-03 8.552685033437e-03 0.0 
1.020412524736e-04 -6.401765101240e-04 0.0 
1.680675972186e-04 -3.909508077690e-04 0.0 
7.843102810400e-04 8.616992295831e-04 0.0 
3.174032491537e-04 1.864516039590e-03 0.0 
3.971794585116e-04 9.341367728970e-04 0.0 
9.808754847935e-05 -5.297386751096e-04 0.0 
-6.356649932966e-05 9.971731911317e-04 0.0 
2.382449526915e-04 3.345594912157e-05 0.0 
1.089141163784e-05 4.904505550955e-04 0.0 
1.342501394087e-05 4.454134006644e-06 0.0 
5.526330356303e-05 8.726848464381e-03 0.0 
7.658602809282e-04 2.107057346846e-04 0.0 
1.257577513378e-04 -6.323811576976e-04 0.0 
4.914914456384e-04 1.640001736040e-03 0.0 
1.226337192858e-04 -6.166385531580e-04 0.0 
3.812216861044e-04 9.561680334778e-05 0.0 
5.303747649632e-04 1.209810339753e-03 0.0 
-3.039819951130e-04 1.247504669266e-03 0.0 
1.673884385346e-03 1.179429976652e-03 0.0 
1.955294890649e-04 4.436591855715e-03 0.0 
1.210988820437e-04 9.949330211128e-04 0.0 
1.218026182448e-04 4.900883549505e-05 0.0 
8.259020234965e-05 5.790048118782e-03 0.0 
6.311061366681e-04 7.187138545282e-04 0.0 
6.774332187959e-04 1.653642840659e-03 0.0 
1.634040924337e-04 5.092504199448e-03 0.0 
1.028932264271e-03 1.171961684673e-03 0.0 
1.829787528989e-04 -4.609031764444e-04 0.0 
3.981390552388e-04 9.332927255686e-03 0.0 
1.161440969642e-03 6.901918858041e-04 0.0 
1.145563597941e-05 1.043734291729e-03 0.0 
2.293413078446e-05 -6.754776606410e-04 0.0 
1.087153384791e-04 9.315581527585e-03 0.0 
1.208622424647e-05 4.983001339031e-06 0.0 
2.056759478996e-04 -6.073574524895e-04 0.0 
9.677892615668e-04 3.055041731267e-04 0.0 
8.633746055766e-04 1.730424566304e-03 0.0 
1.420005776248e-04 1.290900872632e-03 0.0 
1.310002586388e-04 -6.237814230785e-04 0.0 
2.421744824783e-05 1.909268495060e-03 0.0 
1.854843829950e-05 -2.776613358387e-04 0.0 
7.724607159260e-05 3.445650361251e-03 0.0 
-4.845356740788e-04 5.773397607271e-04 0.0 
3.020617186009e-04 9.271686323175e-04 0.0 
1.490920897732e-04 5.979054549167e-03 0.0 
4.315821607782e-04 -2.115202882843e-04 0.0 
2.829368529433e-04 6.693268338707e-03 0.0 
8.819254804653e-04 5.231987727855e-04 0.0 
3.475881630753e-05 -2.492469160614e-04 0.0 
-6.236590205791e-04 2.128136385355e-03 0.0 
2.112325316633e-04 -4.924150792579e-04 0.0 
2.421627121329e-04 -3.255753660893e-04 0.0 
1.621037800803e-05 -2.220080210960e-04 0.0 
1.118700847169e-03 5.345773330061e-04 0.0 
1.255000025753e-04 -3.415601341455e-04 0.0 
1.611282676684e-04 -3.047850314735e-04 0.0 
1.589036276682e-04 -6.020914408706e-04 0.0 
3.079680537096e-04 3.675669370917e-05 0.0 
1.617044477368e-03 1.453570181469e-03 0.0 
3.679927211708e-04 1.920476323426e-03 0.0 
1.911920068237e-05 9.884529967142e-04 0.0 
2.175870894457e-05 5.958820201095e-06 0.0 
1.053024191317e-04 8.778770373293e-03 0.0 
1.127867061754e-04 6.192891350924e-03 0.0 
1.729407774716e-04 -3.461228636622e-04 0.0 
1.931683381344e-04 -3.255984269157e-04 0.0 
1.181232435295e-04 -3.142075822287e-04 0.0 
1.197902332910e-03 4.040005245692e-04 0.0 
3.362424967903e-04 -2.358823794820e-04 0.0 
1.364303992909e-03 1.211508729884e-03 0.0 
1.879320962644e-04 7.670661846814e-03 0.0 
3.641289305168e-04 1.212496693533e-03 0.0 
1.150735099735e-03 3.664719730678e-04 0.0 
3.328274605282e-04 6.889549475903e-03 0.0 
1.366798348247e-03 1.703017889532e-03 0.0 
1.114489388734e-03 5.589522475406e-04 0.0 
8.418934283857e-04 4.190937588051e-04 0.0 
-4.948321198374e-04 1.977115307509e-03 0.0 
1.413582217926e-03 1.678023846288e-03 0.0 
1.209265929670e-03 1.357303643539e-03 0.0 
1.480581380170e-04 -6.139325541282e-04 0.0 
1.931232244261e-04 -3.679357953055e-04 0.0 
-5.150113105099e-04 1.777436662878e-03 0.0 
1.137082634097e-03 1.389052708392e-03 0.0 
1.800674073467e-04 1.526315887531e-02 0.0 
2.329665523385e-04 1.560452244998e-02 0.0 
3.068738752449e-04 1.526304240284e-02 0.0 
3.605320786199e-04 1.560485318347e-02 0.0 
4.306002687712e-04 1.526767009663e-02 0.0 
4.873123653976e-04 1.561040491779e-02 0.0 
5.525296511982e-04 1.527525059014e-02 0.0 
6.123365005135e-04 1.561842179768e-02 0.0 
6.707267558446e-04 1.528451679248e-02 0.0 
7.328105976098e-04 1.562733285984e-02 0.0 
7.829772628950e-04 1.529435130434e-02 0.0 
8.461408349877e-04 1.563597927799e-02 0.0 
8.870107119636e-04 1.530358730326e-02 0.0 
9.496903242085e-04 1.564314000112e-02 0.0 
9.803788406965e-04 1.531085324133e-02 0.0 
1.040560512056e-03 1.564722233688e-02 0.0 
1.060395378372e-03 1.531428237653e-02 0.0 
1.115553282457e-03 1.564608496848e-02 0.0 
2.494489919192e-05 1.127662638955e-02 0.0 
1.124163439957e-03 1.531150201359e-02 0.0 
1.171104084741e-03 1.563711097546e-02 0.0 
1.168525876106e-03 1.529959397139e-02 0.0 
-5.452405505411e-04 1.141586634903e-02 0.0 
1.203145943760e-03 1.561702853412e-02 0.0 
2.563620285237e-04 1.156235892300e-02 0.0 
1.190126245891e-03 1.527465026477e-02 0.0 
1.207190187969e-03 1.558130383239e-02 0.0 
1.185711541026e-03 1.523092487589e-02 0.0 
1.178996966397e-03 1.552298316587e-02 0.0 
1.152795940827e-03 1.515981497691e-02 0.0 
1.116080104195e-03 1.543173997551e-02 0.0 
1.090397607565e-03 1.505113875574e-02 0.0 
1.018055645154e-03 1.530000713759e-02 0.0 
4.014084400141e-04 1.042944672217e-02 0.0 
9.994417477544e-04 1.489862842408e-02 0.0 
8.796711308256e-04 1.511916923066e-02 0.0 
8.763506280936e-04 1.468491419769e-02 0.0 
6.971364445347e-04 1.486160677918e-02 0.0 
4.773046910553e-04 1.450177018164e-02 0.0 
7.261981674443e-04 1.437916536365e-02 0.0 
2.365854655884e-04 1.401493204516e-02 0.0 
5.612884637511e-04 1.395883843563e-02 0.0 
3.210544139555e-06 1.335671807570e-02 0.0 
-1.784450514636e-04 1.246687919904e-02 0.0 
4.042987247993e-04 1.339006737594e-02 0.0 
2.814288730399e-04 1.261594047323e-02 0.0 
-1.687770097189e-04 1.056868668165e-02 0.0 
2.339492662207e-05 1.542801277151e-02 0.0 
1.181381971016e-04 1.543208684042e-02 0.0 
7.545702782263e-05 1.577333765775e-02 0.0 
6.607609590107e-05 1.508676195418e-02 0.0 
-1.372659668175e-04 9.759021717178e-03 0.0 
1.685782703339e-04 1.457862475226e-02 0.0 
2.068510532645e-04 1.423938003406e-02 0.0 
2.922475131839e-04 1.458243410996e-02 0.0 
3.273396271558e-04 1.424474811660e-02 0.0 
4.120341793682e-04 1.458817332264e-02 0.0 
4.449232518001e-04 1.425213471838e-02 0.0 
5.287066270038e-04 1.459647716473e-02 0.0 
5.591406760305e-04 1.426206540323e-02 0.0 
6.413539555561e-04 1.460693382343e-02 0.0 
6.689018358949e-04 1.427397035169e-02 0.0 
7.484413014686e-04 1.461857176523e-02 0.0 
7.727974423225e-04 1.428686046525e-02 0.0 
8.482032807248e-04 1.463024802963e-02 0.0 
8.692423062774e-04 1.429951283496e-02 0.0 
9.387382540041e-04 1.464056534881e-02 0.0 
9.565538775728e-04 1.431032410296e-02 0.0 
1.018029330581e-03 1.464767203512e-02 0.0 
1.078271317858e-03 1.191261606672e-02 0.0 
1.032990007830e-03 1.431716593931e-02 0.0 
1.083966213122e-03 1.464919332583e-02 0.0 
1.189099293654e-03 1.204110870619e-02 0.0 
1.096839513944e-03 1.431730455287e-02 0.0 
1.134458532144e-03 1.464209623655e-02 0.0 
1.146605202543e-03 1.430711314725e-02 0.0 
1.167652848635e-03 1.462223261273e-02 0.0 
1.181248146803e-03 1.428148880260e-02 0.0 
7.959439297496e-04 1.209113268214e-02 0.0 
1.182242897116e-03 1.458352749814e-02 0.0 
1.200409873421e-03 1.423306422762e-02 0.0 
1.177677491762e-03 1.451729341641e-02 0.0 
1.204439612496e-03 1.415221350792e-02 0.0 
1.153875564931e-03 1.441413384865e-02 0.0 
1.194582230469e-03 1.402906082956e-02 0.0 
1.112490375703e-03 1.426468702314e-02 0.0 
1.175339628438e-03 1.385096840857e-02 0.0 
1.058970497758e-03 1.405065477654e-02 0.0 
1.153820095551e-03 1.359348830747e-02 0.0 
1.268358929393e-03 1.134498313557e-02 0.0 
1.138938222171e-03 1.323018621227e-02 0.0 
1.000261948797e-03 1.374530631309e-02 0.0 
1.142688035604e-03 1.272849014243e-02 0.0 
9.488582135146e-04 1.332111351681e-02 0.0 
9.228315450512e-04 1.274135039203e-02 0.0 
9.860315412846e-04 1.152349975098e-02 0.0 
2.037404790416e-05 1.440415804852e-02 0.0 
1.036281813709e-04 1.440647772563e-02 0.0 
6.094701209189e-05 1.406494881172e-02 0.0 
6.305521718315e-05 1.474568696243e-02 0.0 
9.063235645622e-04 1.114378726603e-02 0.0 
1.525176156221e-04 1.322053685864e-02 0.0 
1.961385513910e-04 1.356077373910e-02 0.0 
2.670747238391e-04 1.322636922065e-02 0.0 
3.128793396846e-04 1.356728952224e-02 0.0 
3.796197152890e-04 1.323437646487e-02 0.0 
4.269690751921e-04 1.357579645497e-02 0.0 
4.895606630334e-04 1.324495779789e-02 0.0 
5.379488886681e-04 1.358688429980e-02 0.0 
5.963913450934e-04 1.325794504223e-02 0.0 
6.451310127946e-04 1.360016267392e-02 0.0 
6.994331458849e-04 1.327262977859e-02 0.0 
7.475601098391e-04 1.361472615639e-02 0.0 
7.978664312293e-04 1.328794789288e-02 0.0 
8.441427892654e-04 1.362934700707e-02 0.0 
8.908397983302e-04 1.330247007321e-02 0.0 
9.337549389109e-04 1.364239465525e-02 0.0 
1.594048635572e-03 1.197219813057e-02 0.0 
9.775433340655e-04 1.331425428085e-02 0.0 
1.015302949976e-03 1.365167763276e-02 0.0 
1.436837147690e-03 1.221696687641e-02 0.0 
1.057309550805e-03 1.332070044021e-02 0.0 
1.087869909481e-03 1.365429997380e-02 0.0 
1.635561180210e-03 1.197832953359e-02 0.0 
1.129785573680e-03 1.331835912804e-02 0.0 
1.150901848541e-03 1.364638061780e-02 0.0 
1.195095220828e-03 1.330256232356e-02 0.0 
1.204393872997e-03 1.362255104288e-02 0.0 
1.253974003326e-03 1.326695708663e-02 0.0 
1.248995253437e-03 1.357543157582e-02 0.0 
1.728983285848e-03 1.153816978472e-02 0.0 
1.307770589516e-03 1.320314001316e-02 0.0 
1.285947330234e-03 1.349569275646e-02 0.0 
1.358653524578e-03 1.310100864400e-02 0.0 
1.317852472378e-03 1.337245637637e-02 0.0 
1.350072740923e-03 1.319065752445e-02 0.0 
1.410493730097e-03 1.294777168583e-02 0.0 
1.389977594616e-03 1.292935905732e-02 0.0 
1.469861109307e-03 1.272621464227e-02 0.0 
1.444174849139e-03 1.256183542675e-02 0.0 
1.541656074829e-03 1.241282627742e-02 0.0 
1.571771797966e-03 1.178293853056e-02 0.0 
1.929211403439e-05 1.338637669556e-02 0.0 
9.719809466283e-05 1.338762847732e-02 0.0 
5.986507822212e-05 1.372558116208e-02 0.0 
5.662513047510e-05 1.304842401080e-02 0.0 
1.543890434482e-03 1.159422011075e-02 0.0 
1.486972046219e-04 1.254421232968e-02 0.0 
1.848334049275e-04 1.220814993689e-02 0.0 
2.595899883758e-04 1.255006994739e-02 0.0 
2.949182726158e-04 1.221541356582e-02 0.0 
3.691433836835e-04 1.255879978171e-02 0.0 
4.036431320583e-04 1.222549998038e-02 0.0 
4.767110515050e-04 1.257023800645e-02 0.0 
5.106053724169e-04 1.223829044823e-02 0.0 
5.818974403706e-04 1.258407098209e-02 0.0 
6.155167307390e-04 1.225329191091e-02 0.0 
6.843127685521e-04 1.259963307572e-02 0.0 
7.180652258598e-04 1.226967233507e-02 0.0 
7.834919245829e-04 1.261589077444e-02 0.0 
8.179806543216e-04 1.228617361961e-02 0.0 
8.790521700328e-04 1.263135380418e-02 0.0 
1.805004793763e-03 1.161830232624e-02 0.0 
9.150957063063e-04 1.230105894182e-02 0.0 
1.803153063227e-03 1.154873710840e-02 0.0 
9.706717297582e-04 1.264403483646e-02 0.0 
1.009365611138e-03 1.231192993733e-02 0.0 
1.058243816274e-03 1.265117218918e-02 0.0 
1.101081780750e-03 1.231549069639e-02 0.0 
1.142063179480e-03 1.264907810166e-02 0.0 
1.190985200969e-03 1.230739456511e-02 0.0 
1.721155709438e-03 1.189758421666e-02 0.0 
1.222900967455e-03 1.263285729726e-02 0.0 
1.280309680534e-03 1.228188627442e-02 0.0 
1.302084064236e-03 1.259599734447e-02 0.0 
1.370839430664e-03 1.223151995802e-02 0.0 
1.381504705834e-03 1.253018813751e-02 0.0 
1.464829578667e-03 1.214664383159e-02 0.0 
1.463801656693e-03 1.242491159478e-02 0.0 
1.565591406463e-03 1.201564450102e-02 0.0 
1.676408279112e-03 1.182306719828e-02 0.0 
1.553084532067e-03 1.226705685970e-02 0.0 
1.913835003192e-03 1.128417531410e-02 0.0 
1.653605845526e-03 1.203933914222e-02 0.0 
1.829985918867e-03 1.156345720451e-02 0.0 
1.822972033181e-05 1.237194436718e-02 0.0 
9.231528996007e-05 1.237323463056e-02 0.0 
5.498227351936e-05 1.203482430475e-02 0.0 
5.556273677253e-05 1.271035469300e-02 0.0 
1.841872615329e-03 1.149519337212e-02 0.0 
1.401169474295e-04 1.119466497681e-02 0.0 
1.791260517767e-04 1.153341234410e-02 0.0 
2.457389657271e-04 1.120080334130e-02 0.0 
2.867746031179e-04 1.154088455252e-02 0.0 
3.510863090018e-04 1.121008400105e-02 0.0 
3.937297268744e-04 1.155131321302e-02 0.0 
4.559150249015e-04 1.122216299245e-02 0.0 
4.997227509972e-04 1.156440220158e-02 0.0 
5.601586955424e-04 1.123647559689e-02 0.0 
6.046606073304e-04 1.157958477235e-02 0.0 
6.639021570847e-04 1.125236168671e-02 0.0 
7.085107378010e-04 1.159610808462e-02 0.0 
7.672252913251e-04 1.126867319250e-02 0.0 
1.827327868790e-03 1.101266401586e-02 0.0 
8.112685091226e-04 1.161252028812e-02 0.0 
8.704202112261e-04 1.128382695212e-02 0.0 
1.788246219152e-03 1.132016930530e-02 0.0 
9.131758926985e-04 1.162718542125e-02 0.0 
9.738957343082e-04 1.129582158884e-02 0.0 
1.799469128946e-03 1.089174689244e-02 0.0 
1.014509429296e-03 1.163759021029e-02 0.0 
1.078203098645e-03 1.130156221317e-02 0.0 
1.115897244963e-03 1.164022044743e-02 0.0 
1.184316061946e-03 1.129708703335e-02 0.0 
1.218422619222e-03 1.163067374577e-02 0.0 
1.923184196650e-03 1.073567819375e-02 0.0 
1.293606693272e-03 1.127744498432e-02 0.0 
1.323577988097e-03 1.160319478083e-02 0.0 
1.433255116105e-03 1.155042820501e-02 0.0 
1.407768057240e-03 1.123621409787e-02 0.0 
1.549846609353e-03 1.146313673878e-02 0.0 
1.528937421961e-03 1.116558929169e-02 0.0 
1.675129964322e-03 1.132950268675e-02 0.0 
1.658357245238e-03 1.105526268769e-02 0.0 
1.884102547011e-03 1.104318348318e-02 0.0 
1.758100035192e-05 1.135989484577e-02 0.0 
8.879366593860e-05 1.136108473546e-02 0.0 
5.433355353946e-05 1.169748416974e-02 0.0 
5.204111275105e-05 1.102349541149e-02 0.0 
1.921811824673e-03 1.105547934234e-02 0.0 
1.375857100270e-04 1.052116274068e-02 0.0 
1.718512560217e-04 1.018620415032e-02 0.0 
2.409954073746e-04 1.052709738365e-02 0.0 
2.754411719905e-04 1.019337879054e-02 0.0 
3.444964362268e-04 1.053628419673e-02 0.0 
3.793441166370e-04 1.020366809548e-02 0.0 
4.481192874390e-04 1.054831767923e-02 0.0 
4.837851194754e-04 1.021649170116e-02 0.0 
5.520168014830e-04 1.056241040969e-02 0.0 
5.889780028073e-04 1.023099985341e-02 0.0 
6.563614466210e-04 1.057784195497e-02 0.0 
6.953796507364e-04 1.024650490239e-02 0.0 
1.735392635167e-03 1.023451892849e-02 0.0 
7.616349147242e-04 1.059358974201e-02 0.0 
1.689066695171e-03 1.007894593510e-02 0.0 
8.034377013043e-04 1.026129624028e-02 0.0 
8.681797800086e-04 1.060768635478e-02 0.0 
9.138712877316e-04 1.027365808731e-02 0.0 
9.768315605588e-04 1.061843485224e-02 0.0 
1.027642722107e-03 1.028118569773e-02 0.0 
1.088400565206e-03 1.062254443723e-02 0.0 
1.145633167550e-03 1.027996371590e-02 0.0 
1.728440327556e-03 1.055568442122e-02 0.0 
1.203854517972e-03 1.061584807778e-02 0.0 
1.269143222630e-03 1.026540135153e-02 0.0 
1.324788840653e-03 1.059341154566e-02 0.0 
1.399768573746e-03 1.023201862277e-02 0.0 
1.539059006779e-03 1.017266283238e-02 0.0 
1.452776495507e-03 1.054907137847e-02 0.0 
1.589732874369e-03 1.047496663846e-02 0.0 
1.816545383083e-03 1.000175747332e-02 0.0 
1.809593075473e-03 1.032292296605e-02 0.0 
1.688431780343e-05 1.034950891060e-02 0.0 
8.556574598759e-05 1.035080034766e-02 0.0 
5.110563358845e-05 1.001359599845e-02 0.0 
5.134443020257e-05 1.068671325981e-02 0.0 
1.863849157780e-03 1.038474543822e-02 0.0 

VECTORS element_materi_displacement float
0.0 0.0 0.0 
0.0 0.0 0.0 
0.0 0.0 0.0 
0.0 0.0 0.0 
0.0 0.0 0.0 
0.0 0.0 0.0 
0.0 0.0 0.0 
0.0 0.0 0.0 
0.0 0.0 0.0 
0.0 0.0 0.0 
0.0 0.0 0.0 
0.0 0.0 0.0 
0.0 0.0 0.0 
0.0 0.0 0.0 
0.0 0.0 0.0 
0.0 0.0 0.0 
0.0 0.0 0.0 
0.0 0.0 0.0 
0.0 0.0 0.0 
0.0 0.0 0.0 
0.0 0.0 0.0 
0.0 0.0 0.0 
0.0 0.0 0.0 
0.0 0.0 0.0 
0.0 0.0 0.0 
0.0 0.0 0.0 
0.0 0.0 0.0 
0.0 0.0 0.0 
0.0 0.0 0.0 
0.0 0.0 0.0 
0.0 0.0 0.0 
0.0 0.0 0.0 
0.0 0.0 0.0 
0.0 0.0 0.0 
0.0 0.0 0.0 
0.0 0.0 0.0 
0.0 0.0 0.0 
0.0 0.0 0.0 
0.0 0.0 0.0 
0.0 0.0 0.0 
0.0 0.0 0.0 
0.0 0.0 0.0 
0.0 0.0 0.0 
0.0 0.0 0.0 
0.0 0.0 0.0 
0.0 0.0 0.0 
0.0 0.0 0.0 
0.0 0.0 0.0 
0.0 0.0 0.0 
0.0 0.0 0.0 
0.0 0.0 0.0 
0.0 0.0 0.0 
0.0 0.0 0.0 
0.0 0.0 0.0 
0.0 0.0 0.0 
0.0 0.0 0.0 
0.0 0.0 0.0 
0.0 0.0 0.0 
0.0 0.0 0.0 
0.0 0.0 0.0 
0.0 0.0 0.0 
0.0 0.0 0.0 
0.0 0.0 0.0 
0.0 0.0 0.0 
0.0 0.0 0.0 
0.0 0.0 0.0 
0.0 0.0 0.0 
0.0 0.0 0.0 
0.0 0.0 0.0 
0.0 0.0 0.0 
0.0 0.0 0.0 
0.0 0.0 0.0 
0.0 0.0 0.0 
0.0 0.0 0.0 
0.0 0.0 0.0 
0.0 0.0 0.0 
0.0 0.0 0.0 
0.0 0.0 0.0 
0.0 0.0 0.0 
0.0 0.0 0.0 
0.0 0.0 0.0 
0.0 0.0 0.0 
0.0 0.0 0.0 
0.0 0.0 0.0 
0.0 0.0 0.0 
0.0 0.0 0.0 
0.0 0.0 0.0 
0.0 0.0 0.0 
0.0 0.0 0.0 
0.0 0.0 0.0 
0.0 0.0 0.0 
0.0 0.0 0.0 
0.0 0.0 0.0 
0.0 0.0 0.0 
0.0 0.0 0.0 
0.0 0.0 0.0 
0.0 0.0 0.0 
0.0 0.0 0.0 
0.0 0.0 0.0 
0.0 0.0 0.0 
0.0 0.0 0.0 
0.0 0.0 0.0 
0.0 0.0 0.0 
0.0 0.0 0.0 
0.0 0.0 0.0 
0.0 0.0 0.0 
0.0 0.0 0.0 
0.0 0.0 0.0 
0.0 0.0 0.0 
0.0 0.0 0.0 
0.0 0.0 0.0 
0.0 0.0 0.0 
0.0 0.0 0.0 
0.0 0.0 0.0 
0.0 0.0 0.0 
0.0 0.0 0.0 
0.0 0.0 0.0 
0.0 0.0 0.0 
0.0 0.0 0.0 
0.0 0.0 0.0 
0.0 0.0 0.0 
0.0 0.0 0.0 
0.0 0.0 0.0 
0.0 0.0 0.0 
0.0 0.0 0.0 
0.0 0.0 0.0 
0.0 0.0 0.0 
0.0 0.0 0.0 
0.0 0.0 0.0 
0.0 0.0 0.0 
0.0 0.0 0.0 
0.0 0.0 0.0 
0.0 0.0 0.0 
0.0 0.0 0.0 
0.0 0.0 0.0 
0.0 0.0 0.0 
0.0 0.0 0.0 
0.0 0.0 0.0 
0.0 0.0 0.0 
0.0 0.0 0.0 
0.0 0.0 0.0 
0.0 0.0 0.0 
0.0 0.0 0.0 
0.0 0.0 0.0 
0.0 0.0 0.0 
0.0 0.0 0.0 
0.0 0.0 0.0 
0.0 0.0 0.0 
0.0 0.0 0.0 
0.0 0.0 0.0 
0.0 0.0 0.0 
0.0 0.0 0.0 
0.0 0.0 0.0 
0.0 0.0 0.0 
0.0 0.0 0.0 
0.0 0.0 0.0 
0.0 0.0 0.0 
0.0 0.0 0.0 
0.0 0.0 0.0 
0.0 0.0 0.0 
0.0 0.0 0.0 
0.0 0.0 0.0 
0.0 0.0 0.0 
0.0 0.0 0.0 
0.0 0.0 0.0 
0.0 0.0 0.0 
0.0 0.0 0.0 
0.0 0.0 0.0 
0.0 0.0 0.0 
0.0 0.0 0.0 
0.0 0.0 0.0 
0.0 0.0 0.0 
0.0 0.0 0.0 
0.0 0.0 0.0 
0.0 0.0 0.0 
0.0 0.0 0.0 
0.0 0.0 0.0 
0.0 0.0 0.0 
0.0 0.0 0.0 
0.0 0.0 0.0 
0.0 0.0 0.0 
0.0 0.0 0.0 
0.0 0.0 0.0 
0.0 0.0 0.0 
0.0 0.0 0.0 
0.0 0.0 0.0 
0.0 0.0 0.0 
0.0 0.0 0.0 
0.0 0.0 0.0 
0.0 0.0 0.0 
0.0 0.0 0.0 
0.0 0.0 0.0 
0.0 0.0 0.0 
0.0 0.0 0.0 
0.0 0.0 0.0 
0.0 0.0 0.0 
0.0 0.0 0.0 
0.0 0.0 0.0 
0.0 0.0 0.0 
0.0 0.0 0.0 
0.0 0.0 0.0 
0.0 0.0 0.0 
0.0 0.0 0.0 
0.0 0.0 0.0 
0.0 0.0 0.0 
0.0 0.0 0.0 
0.0 0.0 0.0 
0.0 0.0 0.0 
0.0 0.0 0.0 
0.0 0.0 0.0 
0.0 0.0 0.0 
0.0 0.0 0.0 
0.0 0.0 0.0 
0.0 0.0 0.0 
0.0 0.0 0.0 
0.0 0.0 0.0 
0.0 0.0 0.0 
0.0 0.0 0.0 
0.0 0.0 0.0 
0.0 0.0 0.0 
0.0 0.0 0.0 
0.0 0.0 0.0 
0.0 0.0 0.0 
0.0 0.0 0.0 
0.0 0.0 0.0 
0.0 0.0 0.0 
0.0 0.0 0.0 
0.0 0.0 0.0 
0.0 0.0 0.0 
0.0 0.0 0.0 
0.0 0.0 0.0 
0.0 0.0 0.0 
0.0 0.0 0.0 
0.0 0.0 0.0 
0.0 0.0 0.0 
0.0 0.0 0.0 
0.0 0.0 0.0 
0.0 0.0 0.0 
0.0 0.0 0.0 
0.0 0.0 0.0 
0.0 0.0 0.0 
0.0 0.0 0.0 
0.0 0.0 0.0 
0.0 0.0 0.0 
0.0 0.0 0.0 
0.0 0.0 0.0 
0.0 0.0 0.0 
0.0 0.0 0.0 
0.0 0.0 0.0 
0.0 0.0 0.0 
0.0 0.0 0.0 
0.0 0.0 0.0 
0.0 0.0 0.0 
0.0 0.0 0.0 
0.0 0.0 0.0 
0.0 0.0 0.0 
0.0 0.0 0.0 
0.0 0.0 0.0 
0.0 0.0 0.0 
0.0 0.0 0.0 
0.0 0.0 0.0 
0.0 0.0 0.0 
0.0 0.0 0.0 
0.0 0.0 0.0 
0.0 0.0 0.0 
0.0 0.0 0.0 
0.0 0.0 0.0 
0.0 0.0 0.0 
0.0 0.0 0.0 
0.0 0.0 0.0 
0.0 0.0 0.0 
0.0 0.0 0.0 
0.0 0.0 0.0 
0.0 0.0 0.0 
0.0 0.0 0.0 
0.0 0.0 0.0 
0.0 0.0 0.0 
0.0 0.0 0.0 
0.0 0.0 0.0 
0.0 0.0 0.0 
0.0 0.0 0.0 
0.0 0.0 0.0 
0.0 0.0 0.0 
0.0 0.0 0.0 
0.0 0.0 0.0 
0.0 0.0 0.0 
0.0 0.0 0.0 
0.0 0.0 0.0 
0.0 0.0 0.0 
0.0 0.0 0.0 
0.0 0.0 0.0 
0.0 0.0 0.0 
0.0 0.0 0.0 
0.0 0.0 0.0 
0.0 0.0 0.0 
0.0 0.0 0.0 
0.0 0.0 0.0 
0.0 0.0 0.0 
0.0 0.0 0.0 
0.0 0.0 0.0 
0.0 0.0 0.0 
0.0 0.0 0.0 
0.0 0.0 0.0 
0.0 0.0 0.0 
0.0 0.0 0.0 
0.0 0.0 0.0 
0.0 0.0 0.0 
0.0 0.0 0.0 
0.0 0.0 0.0 
0.0 0.0 0.0 
0.0 0.0 0.0 
0.0 0.0 0.0 
0.0 0.0 0.0 
0.0 0.0 0.0 
0.0 0.0 0.0 
0.0 0.0 0.0 
0.0 0.0 0.0 
0.0 0.0 0.0 
0.0 0.0 0.0 
0.0 0.0 0.0 
0.0 0.0 0.0 
0.0 0.0 0.0 
0.0 0.0 0.0 
0.0 0.0 0.0 
0.0 0.0 0.0 
0.0 0.0 0.0 
0.0 0.0 0.0 
0.0 0.0 0.0 
0.0 0.0 0.0 
0.0 0.0 0.0 
0.0 0.0 0.0 
0.0 0.0 0.0 
0.0 0.0 0.0 
0.0 0.0 0.0 
0.0 0.0 0.0 
0.0 0.0 0.0 
0.0 0.0 0.0 
0.0 0.0 0.0 
0.0 0.0 0.0 
0.0 0.0 0.0 
0.0 0.0 0.0 
0.0 0.0 0.0 
0.0 0.0 0.0 
0.0 0.0 0.0 
0.0 0.0 0.0 
0.0 0.0 0.0 
0.0 0.0 0.0 
0.0 0.0 0.0 
0.0 0.0 0.0 
0.0 0.0 0.0 
0.0 0.0 0.0 
0.0 0.0 0.0 
0.0 0.0 0.0 
0.0 0.0 0.0 
0.0 0.0 0.0 
0.0 0.0 0.0 
0.0 0.0 0.0 
0.0 0.0 0.0 
0.0 0.0 0.0 
0.0 0.0 0.0 
0.0 0.0 0.0 
0.0 0.0 0.0 
0.0 0.0 0.0 
0.0 0.0 0.0 
0.0 0.0 0.0 
0.0 0.0 0.0 
0.0 0.0 0.0 
0.0 0.0 0.0 
0.0 0.0 0.0 
0.0 0.0 0.0 
0.0 0.0 0.0 
0.0 0.0 0.0 
0.0 0.0 0.0 
0.0 0.0 0.0 
0.0 0.0 0.0 
0.0 0.0 0.0 
0.0 0.0 0.0 
0.0 0.0 0.0 
0.0 0.0 0.0 
0.0 0.0 0.0 
0.0 0.0 0.0 
0.0 0.0 0.0 
0.0 0.0 0.0 
0.0 0.0 0.0 
0.0 0.0 0.0 
0.0 0.0 0.0 
0.0 0.0 0.0 
0.0 0.0 0.0 
0.0 0.0 0.0 
0.0 0.0 0.0 
0.0 0.0 0.0 
0.0 0.0 0.0 
0.0 0.0 0.0 
0.0 0.0 0.0 
0.0 0.0 0.0 
0.0 0.0 0.0 
0.0 0.0 0.0 
0.0 0.0 0.0 
0.0 0.0 0.0 
0.0 0.0 0.0 
0.0 0.0 0.0 
0.0 0.0 0.0 
0.0 0.0 0.0 
0.0 0.0 0.0 
0.0 0.0 0.0 
0.0 0.0 0.0 
0.0 0.0 0.0 
0.0 0.0 0.0 
0.0 0.0 0.0 
0.0 0.0 0.0 
0.0 0.0 0.0 
0.0 0.0 0.0 
0.0 0.0 0.0 
0.0 0.0 0.0 
0.0 0.0 0.0 
0.0 0.0 0.0 
0.0 0.0 0.0 
0.0 0.0 0.0 
0.0 0.0 0.0 
0.0 0.0 0.0 
0.0 0.0 0.0 
0.0 0.0 0.0 
0.0 0.0 0.0 
0.0 0.0 0.0 
0.0 0.0 0.0 
0.0 0.0 0.0 
0.0 0.0 0.0 
0.0 0.0 0.0 
0.0 0.0 0.0 
0.0 0.0 0.0 
0.0 0.0 0.0 
0.0 0.0 0.0 
0.0 0.0 0.0 
0.0 0.0 0.0 
0.0 0.0 0.0 
0.0 0.0 0.0 
0.0 0.0 0.0 
0.0 0.0 0.0 
0.0 0.0 0.0 
0.0 0.0 0.0 
0.0 0.0 0.0 
0.0 0.0 0.0 
0.0 0.0 0.0 
0.0 0.0 0.0 
0.0 0.0 0.0 
0.0 0.0 0.0 
0.0 0.0 0.0 
0.0 0.0 0.0 
0.0 0.0 0.0 
0.0 0.0 0.0 
0.0 0.0 0.0 
0.0 0.0 0.0 
0.0 0.0 0.0 
0.0 0.0 0.0 
0.0 0.0 0.0 
0.0 0.0 0.0 
0.0 0.0 0.0 
0.0 0.0 0.0 
0.0 0.0 0.0 
0.0 0.0 0.0 
0.0 0.0 0.0 
0.0 0.0 0.0 
0.0 0.0 0.0 
0.0 0.0 0.0 
0.0 0.0 0.0 
0.0 0.0 0.0 
0.0 0.0 0.0 
0.0 0.0 0.0 
0.0 0.0 0.0 
0.0 0.0 0.0 
0.0 0.0 0.0 
0.0 0.0 0.0 
0.0 0.0 0.0 
0.0 0.0 0.0 
0.0 0.0 0.0 
0.0 0.0 0.0 
0.0 0.0 0.0 
0.0 0.0 0.0 
0.0 0.0 0.0 
0.0 0.0 0.0 
0.0 0.0 0.0 
0.0 0.0 0.0 
0.0 0.0 0.0 
0.0 0.0 0.0 
0.0 0.0 0.0 
0.0 0.0 0.0 
0.0 0.0 0.0 
0.0 0.0 0.0 
0.0 0.0 0.0 
0.0 0.0 0.0 
0.0 0.0 0.0 
0.0 0.0 0.0 
0.0 0.0 0.0 
0.0 0.0 0.0 
0.0 0.0 0.0 
0.0 0.0 0.0 
0.0 0.0 0.0 
0.0 0.0 0.0 
0.0 0.0 0.0 
0.0 0.0 0.0 
0.0 0.0 0.0 
0.0 0.0 0.0 
0.0 0.0 0.0 
0.0 0.0 0.0 
0.0 0.0 0.0 
0.0 0.0 0.0 
0.0 0.0 0.0 
0.0 0.0 0.0 
0.0 0.0 0.0 
0.0 0.0 0.0 
0.0 0.0 0.0 
0.0 0.0 0.0 
0.0 0.0 0.0 
0.0 0.0 0.0 
0.0 0.0 0.0 
0.0 0.0 0.0 
0.0 0.0 0.0 
0.0 0.0 0.0 
0.0 0.0 0.0 
0.0 0.0 0.0 
0.0 0.0 0.0 
0.0 0.0 0.0 
0.0 0.0 0.0 
0.0 0.0 0.0 
0.0 0.0 0.0 
0.0 0.0 0.0 
0.0 0.0 0.0 
0.0 0.0 0.0 
0.0 0.0 0.0 
0.0 0.0 0.0 
0.0 0.0 0.0 
0.0 0.0 0.0 
0.0 0.0 0.0 
0.0 0.0 0.0 
0.0 0.0 0.0 
0.0 0.0 0.0 
0.0 0.0 0.0 
0.0 0.0 0.0 
0.0 0.0 0.0 
0.0 0.0 0.0 
0.0 0.0 0.0 
0.0 0.0 0.0 
0.0 0.0 0.0 
0.0 0.0 0.0 
0.0 0.0 0.0 
0.0 0.0 0.0 
0.0 0.0 0.0 
0.0 0.0 0.0 
0.0 0.0 0.0 
0.0 0.0 0.0 
0.0 0.0 0.0 
0.0 0.0 0.0 
0.0 0.0 0.0 
0.0 0.0 0.0 
0.0 0.0 0.0 
0.0 0.0 0.0 
0.0 0.0 0.0 
0.0 0.0 0.0 
0.0 0.0 0.0 
0.0 0.0 0.0 
0.0 0.0 0.0 
0.0 0.0 0.0 
0.0 0.0 0.0 
0.0 0.0 0.0 
0.0 0.0 0.0 
0.0 0.0 0.0 
0.0 0.0 0.0 
0.0 0.0 0.0 
0.0 0.0 0.0 
0.0 0.0 0.0 
0.0 0.0 0.0 
0.0 0.0 0.0 
0.0 0.0 0.0 
0.0 0.0 0.0 
0.0 0.0 0.0 
0.0 0.0 0.0 
0.0 0.0 0.0 
0.0 0.0 0.0 
0.0 0.0 0.0 
0.0 0.0 0.0 
0.0 0.0 0.0 
0.0 0.0 0.0 
0.0 0.0 0.0 
0.0 0.0 0.0 
0.0 0.0 0.0 
0.0 0.0 0.0 
0.0 0.0 0.0 
0.0 0.0 0.0 
0.0 0.0 0.0 
0.0 0.0 0.0 
0.0 0.0 0.0 
0.0 0.0 0.0 
0.0 0.0 0.0 
0.0 0.0 0.0 
0.0 0.0 0.0 
0.0 0.0 0.0 
0.0 0.0 0.0 
0.0 0.0 0.0 
0.0 0.0 0.0 
0.0 0.0 0.0 
0.0 0.0 0.0 
0.0 0.0 0.0 
0.0 0.0 0.0 
0.0 0.0 0.0 
0.0 0.0 0.0 
0.0 0.0 0.0 
0.0 0.0 0.0 
0.0 0.0 0.0 
0.0 0.0 0.0 
0.0 0.0 0.0 
0.0 0.0 0.0 
0.0 0.0 0.0 
0.0 0.0 0.0 
0.0 0.0 0.0 
0.0 0.0 0.0 
0.0 0.0 0.0 
0.0 0.0 0.0 
0.0 0.0 0.0 
0.0 0.0 0.0 
0.0 0.0 0.0 
0.0 0.0 0.0 
0.0 0.0 0.0 
0.0 0.0 0.0 
0.0 0.0 0.0 
0.0 0.0 0.0 
0.0 0.0 0.0 
0.0 0.0 0.0 
0.0 0.0 0.0 
0.0 0.0 0.0 
0.0 0.0 0.0 
0.0 0.0 0.0 
0.0 0.0 0.0 
0.0 0.0 0.0 
0.0 0.0 0.0 
0.0 0.0 0.0 
0.0 0.0 0.0 
0.0 0.0 0.0 
0.0 0.0 0.0 
0.0 0.0 0.0 
0.0 0.0 0.0 
0.0 0.0 0.0 
0.0 0.0 0.0 
0.0 0.0 0.0 
0.0 0.0 0.0 
0.0 0.0 0.0 
0.0 0.0 0.0 
0.0 0.0 0.0 
0.0 0.0 0.0 
0.0 0.0 0.0 
0.0 0.0 0.0 
0.0 0.0 0.0 
0.0 0.0 0.0 
0.0 0.0 0.0 
0.0 0.0 0.0 
0.0 0.0 0.0 
0.0 0.0 0.0 
0.0 0.0 0.0 
0.0 0.0 0.0 
0.0 0.0 0.0 
0.0 0.0 0.0 
0.0 0.0 0.0 
0.0 0.0 0.0 
0.0 0.0 0.0 
0.0 0.0 0.0 
0.0 0.0 0.0 
0.0 0.0 0.0 
0.0 0.0 0.0 
0.0 0.0 0.0 
0.0 0.0 0.0 
0.0 0.0 0.0 
0.0 0.0 0.0 
0.0 0.0 0.0 
0.0 0.0 0.0 
0.0 0.0 0.0 
0.0 0.0 0.0 
0.0 0.0 0.0 
0.0 0.0 0.0 
0.0 0.0 0.0 
0.0 0.0 0.0 
0.0 0.0 0.0 
0.0 0.0 0.0 
0.0 0.0 0.0 
0.0 0.0 0.0 
0.0 0.0 0.0 
0.0 0.0 0.0 
0.0 0.0 0.0 
0.0 0.0 0.0 
0.0 0.0 0.0 
0.0 0.0 0.0 
0.0 0.0 0.0 
0.0 0.0 0.0 
0.0 0.0 0.0 
0.0 0.0 0.0 
0.0 0.0 0.0 
0.0 0.0 0.0 
0.0 0.0 0.0 
0.0 0.0 0.0 
0.0 0.0 0.0 
0.0 0.0 0.0 
0.0 0.0 0.0 
0.0 0.0 0.0 
0.0 0.0 0.0 
0.0 0.0 0.0 
0.0 0.0 0.0 
0.0 0.0 0.0 
0.0 0.0 0.0 
0.0 0.0 0.0 
0.0 0.0 0.0 
0.0 0.0 0.0 
0.0 0.0 0.0 
0.0 0.0 0.0 
0.0 0.0 0.0 
0.0 0.0 0.0 
0.0 0.0 0.0 
0.0 0.0 0.0 
0.0 0.0 0.0 
0.0 0.0 0.0 
0.0 0.0 0.0 
0.0 0.0 0.0 
0.0 0.0 0.0 
0.0 0.0 0.0 
0.0 0.0 0.0 
0.0 0.0 0.0 
0.0 0.0 0.0 
0.0 0.0 0.0 
0.0 0.0 0.0 
0.0 0.0 0.0 
0.0 0.0 0.0 
0.0 0.0 0.0 
0.0 0.0 0.0 
0.0 0.0 0.0 
0.0 0.0 0.0 
0.0 0.0 0.0 
0.0 0.0 0.0 
0.0 0.0 0.0 
0.0 0.0 0.0 
0.0 0.0 0.0 
0.0 0.0 0.0 
0.0 0.0 0.0 
0.0 0.0 0.0 
0.0 0.0 0.0 
0.0 0.0 0.0 
0.0 0.0 0.0 
0.0 0.0 0.0 
0.0 0.0 0.0 
0.0 0.0 0.0 
0.0 0.0 0.0 
0.0 0.0 0.0 
0.0 0.0 0.0 
0.0 0.0 0.0 
0.0 0.0 0.0 
0.0 0.0 0.0 
0.0 0.0 0.0 
0.0 0.0 0.0 
0.0 0.0 0.0 
0.0 0.0 0.0 
0.0 0.0 0.0 
0.0 0.0 0.0 
0.0 0.0 0.0 
0.0 0.0 0.0 
0.0 0.0 0.0 
0.0 0.0 0.0 
0.0 0.0 0.0 
0.0 0.0 0.0 
0.0 0.0 0.0 
0.0 0.0 0.0 
0.0 0.0 0.0 
0.0 0.0 0.0 
0.0 0.0 0.0 
0.0 0.0 0.0 
0.0 0.0 0.0 
0.0 0.0 0.0 
0.0 0.0 0.0 
0.0 0.0 0.0 
0.0 0.0 0.0 
0.0 0.0 0.0 
0.0 0.0 0.0 
0.0 0.0 0.0 
0.0 0.0 0.0 
0.0 0.0 0.0 
0.0 0.0 0.0 
0.0 0.0 0.0 
0.0 0.0 0.0 
0.0 0.0 0.0 
0.0 0.0 0.0 
0.0 0.0 0.0 
0.0 0.0 0.0 
0.0 0.0 0.0 
0.0 0.0 0.0 
0.0 0.0 0.0 
0.0 0.0 0.0 
0.0 0.0 0.0 
0.0 0.0 0.0 
0.0 0.0 0.0 
0.0 0.0 0.0 
0.0 0.0 0.0 
0.0 0.0 0.0 
0.0 0.0 0.0 
0.0 0.0 0.0 
0.0 0.0 0.0 
0.0 0.0 0.0 
0.0 0.0 0.0 
0.0 0.0 0.0 
0.0 0.0 0.0 
0.0 0.0 0.0 
0.0 0.0 0.0 
0.0 0.0 0.0 
0.0 0.0 0.0 
0.0 0.0 0.0 
0.0 0.0 0.0 
0.0 0.0 0.0 
0.0 0.0 0.0 
0.0 0.0 0.0 
0.0 0.0 0.0 
0.0 0.0 0.0 
0.0 0.0 0.0 
0.0 0.0 0.0 
0.0 0.0 0.0 
0.0 0.0 0.0 
0.0 0.0 0.0 
0.0 0.0 0.0 
0.0 0.0 0.0 
0.0 0.0 0.0 
0.0 0.0 0.0 
0.0 0.0 0.0 
0.0 0.0 0.0 
0.0 0.0 0.0 
0.0 0.0 0.0 
0.0 0.0 0.0 
0.0 0.0 0.0 
0.0 0.0 0.0 
0.0 0.0 0.0 
0.0 0.0 0.0 
0.0 0.0 0.0 
0.0 0.0 0.0 
0.0 0.0 0.0 
0.0 0.0 0.0 
0.0 0.0 0.0 
0.0 0.0 0.0 
0.0 0.0 0.0 
0.0 0.0 0.0 
0.0 0.0 0.0 
0.0 0.0 0.0 
0.0 0.0 0.0 
0.0 0.0 0.0 
0.0 0.0 0.0 
0.0 0.0 0.0 
0.0 0.0 0.0 
0.0 0.0 0.0 
0.0 0.0 0.0 
0.0 0.0 0.0 
0.0 0.0 0.0 
0.0 0.0 0.0 
0.0 0.0 0.0 
0.0 0.0 0.0 
0.0 0.0 0.0 
0.0 0.0 0.0 
0.0 0.0 0.0 
0.0 0.0 0.0 
0.0 0.0 0.0 
0.0 0.0 0.0 
0.0 0.0 0.0 
0.0 0.0 0.0 
0.0 0.0 0.0 
0.0 0.0 0.0 
0.0 0.0 0.0 
0.0 0.0 0.0 
0.0 0.0 0.0 
0.0 0.0 0.0 
0.0 0.0 0.0 
0.0 0.0 0.0 
0.0 0.0 0.0 
0.0 0.0 0.0 
0.0 0.0 0.0 
0.0 0.0 0.0 
0.0 0.0 0.0 
0.0 0.0 0.0 
0.0 0.0 0.0 
0.0 0.0 0.0 
0.0 0.0 0.0 
0.0 0.0 0.0 
0.0 0.0 0.0 
0.0 0.0 0.0 
0.0 0.0 0.0 
0.0 0.0 0.0 
0.0 0.0 0.0 
0.0 0.0 0.0 
0.0 0.0 0.0 
0.0 0.0 0.0 
0.0 0.0 0.0 
0.0 0.0 0.0 
0.0 0.0 0.0 
0.0 0.0 0.0 
0.0 0.0 0.0 
0.0 0.0 0.0 
0.0 0.0 0.0 
0.0 0.0 0.0 
0.0 0.0 0.0 
0.0 0.0 0.0 
0.0 0.0 0.0 
0.0 0.0 0.0 
0.0 0.0 0.0 
0.0 0.0 0.0 
0.0 0.0 0.0 
0.0 0.0 0.0 
0.0 0.0 0.0 
0.0 0.0 0.0 
0.0 0.0 0.0 
0.0 0.0 0.0 
0.0 0.0 0.0 
0.0 0.0 0.0 
0.0 0.0 0.0 
0.0 0.0 0.0 
0.0 0.0 0.0 
0.0 0.0 0.0 
0.0 0.0 0.0 
0.0 0.0 0.0 
0.0 0.0 0.0 
0.0 0.0 0.0 
0.0 0.0 0.0 
0.0 0.0 0.0 
0.0 0.0 0.0 
0.0 0.0 0.0 
0.0 0.0 0.0 
0.0 0.0 0.0 
0.0 0.0 0.0 
0.0 0.0 0.0 
0.0 0.0 0.0 
0.0 0.0 0.0 
0.0 0.0 0.0 
0.0 0.0 0.0 
0.0 0.0 0.0 
0.0 0.0 0.0 
0.0 0.0 0.0 
0.0 0.0 0.0 
0.0 0.0 0.0 
0.0 0.0 0.0 
0.0 0.0 0.0 
0.0 0.0 0.0 
0.0 0.0 0.0 
0.0 0.0 0.0 
0.0 0.0 0.0 
0.0 0.0 0.0 
0.0 0.0 0.0 
0.0 0.0 0.0 
0.0 0.0 0.0 
0.0 0.0 0.0 
0.0 0.0 0.0 
0.0 0.0 0.0 
0.0 0.0 0.0 
0.0 0.0 0.0 
0.0 0.0 0.0 
0.0 0.0 0.0 
0.0 0.0 0.0 
0.0 0.0 0.0 
0.0 0.0 0.0 
0.0 0.0 0.0 
0.0 0.0 0.0 
0.0 0.0 0.0 
0.0 0.0 0.0 
0.0 0.0 0.0 
0.0 0.0 0.0 
0.0 0.0 0.0 
0.0 0.0 0.0 
0.0 0.0 0.0 
0.0 0.0 0.0 
0.0 0.0 0.0 
0.0 0.0 0.0 
0.0 0.0 0.0 
0.0 0.0 0.0 
0.0 0.0 0.0 
0.0 0.0 0.0 
0.0 0.0 0.0 
0.0 0.0 0.0 
0.0 0.0 0.0 
0.0 0.0 0.0 
0.0 0.0 0.0 
0.0 0.0 0.0 
0.0 0.0 0.0 
0.0 0.0 0.0 
0.0 0.0 0.0 
0.0 0.0 0.0 
0.0 0.0 0.0 
0.0 0.0 0.0 
0.0 0.0 0.0 
0.0 0.0 0.0 
0.0 0.0 0.0 
0.0 0.0 0.0 
0.0 0.0 0.0 
0.0 0.0 0.0 
0.0 0.0 0.0 
0.0 0.0 0.0 
0.0 0.0 0.0 
0.0 0.0 0.0 
0.0 0.0 0.0 
0.0 0.0 0.0 
0.0 0.0 0.0 
0.0 0.0 0.0 
0.0 0.0 0.0 
0.0 0.0 0.0 
0.0 0.0 0.0 
0.0 0.0 0.0 
0.0 0.0 0.0 
0.0 0.0 0.0 
0.0 0.0 0.0 
0.0 0.0 0.0 
0.0 0.0 0.0 
0.0 0.0 0.0 
0.0 0.0 0.0 
0.0 0.0 0.0 
0.0 0.0 0.0 
0.0 0.0 0.0 
0.0 0.0 0.0 
0.0 0.0 0.0 
0.0 0.0 0.0 
0.0 0.0 0.0 
0.0 0.0 0.0 
0.0 0.0 0.0 
0.0 0.0 0.0 
0.0 0.0 0.0 
0.0 0.0 0.0 
0.0 0.0 0.0 
0.0 0.0 0.0 
0.0 0.0 0.0 
0.0 0.0 0.0 
0.0 0.0 0.0 
0.0 0.0 0.0 
0.0 0.0 0.0 
0.0 0.0 0.0 
0.0 0.0 0.0 
0.0 0.0 0.0 
0.0 0.0 0.0 
0.0 0.0 0.0 
0.0 0.0 0.0 
0.0 0.0 0.0 
0.0 0.0 0.0 
0.0 0.0 0.0 
0.0 0.0 0.0 
0.0 0.0 0.0 
0.0 0.0 0.0 
0.0 0.0 0.0 
0.0 0.0 0.0 
0.0 0.0 0.0 
0.0 0.0 0.0 
0.0 0.0 0.0 
0.0 0.0 0.0 
0.0 0.0 0.0 
0.0 0.0 0.0 
0.0 0.0 0.0 
0.0 0.0 0.0 
0.0 0.0 0.0 
0.0 0.0 0.0 
0.0 0.0 0.0 
0.0 0.0 0.0 
0.0 0.0 0.0 
0.0 0.0 0.0 
0.0 0.0 0.0 
0.0 0.0 0.0 
0.0 0.0 0.0 
0.0 0.0 0.0 
0.0 0.0 0.0 
0.0 0.0 0.0 
0.0 0.0 0.0 
0.0 0.0 0.0 
0.0 0.0 0.0 
0.0 0.0 0.0 
0.0 0.0 0.0 
0.0 0.0 0.0 
0.0 0.0 0.0 
0.0 0.0 0.0 
0.0 0.0 0.0 
0.0 0.0 0.0 
0.0 0.0 0.0 
0.0 0.0 0.0 
0.0 0.0 0.0 
0.0 0.0 0.0 
0.0 0.0 0.0 
0.0 0.0 0.0 
0.0 0.0 0.0 
0.0 0.0 0.0 
0.0 0.0 0.0 
0.0 0.0 0.0 
0.0 0.0 0.0 
0.0 0.0 0.0 
0.0 0.0 0.0 
0.0 0.0 0.0 
0.0 0.0 0.0 
0.0 0.0 0.0 
0.0 0.0 0.0 
0.0 0.0 0.0 
0.0 0.0 0.0 
0.0 0.0 0.0 
0.0 0.0 0.0 
0.0 0.0 0.0 
0.0 0.0 0.0 
0.0 0.0 0.0 
0.0 0.0 0.0 
0.0 0.0 0.0 
0.0 0.0 0.0 
0.0 0.0 0.0 
0.0 0.0 0.0 
0.0 0.0 0.0 
0.0 0.0 0.0 
0.0 0.0 0.0 
0.0 0.0 0.0 
0.0 0.0 0.0 
0.0 0.0 0.0 
0.0 0.0 0.0 
0.0 0.0 0.0 
0.0 0.0 0.0 
0.0 0.0 0.0 
0.0 0.0 0.0 
0.0 0.0 0.0 
0.0 0.0 0.0 
0.0 0.0 0.0 
0.0 0.0 0.0 
0.0 0.0 0.0 
0.0 0.0 0.0 
0.0 0.0 0.0 
0.0 0.0 0.0 
0.0 0.0 0.0 
0.0 0.0 0.0 
0.0 0.0 0.0 
0.0 0.0 0.0 
0.0 0.0 0.0 
0.0 0.0 0.0 
0.0 0.0 0.0 
0.0 0.0 0.0 
0.0 0.0 0.0 
0.0 0.0 0.0 
0.0 0.0 0.0 
0.0 0.0 0.0 
0.0 0.0 0.0 
0.0 0.0 0.0 
0.0 0.0 0.0 
0.0 0.0 0.0 
0.0 0.0 0.0 
0.0 0.0 0.0 
0.0 0.0 0.0 
0.0 0.0 0.0 
0.0 0.0 0.0 
0.0 0.0 0.0 
0.0 0.0 0.0 
0.0 0.0 0.0 
0.0 0.0 0.0 
0.0 0.0 0.0 
0.0 0.0 0.0 
0.0 0.0 0.0 
0.0 0.0 0.0 
0.0 0.0 0.0 
0.0 0.0 0.0 
0.0 0.0 0.0 
0.0 0.0 0.0 
0.0 0.0 0.0 
0.0 0.0 0.0 
0.0 0.0 0.0 
0.0 0.0 0.0 
0.0 0.0 0.0 
0.0 0.0 0.0 
0.0 0.0 0.0 
0.0 0.0 0.0 
0.0 0.0 0.0 
0.0 0.0 0.0 
0.0 0.0 0.0 
0.0 0.0 0.0 
0.0 0.0 0.0 
0.0 0.0 0.0 
0.0 0.0 0.0 
0.0 0.0 0.0 
0.0 0.0 0.0 
0.0 0.0 0.0 
0.0 0.0 0.0 
0.0 0.0 0.0 
0.0 0.0 0.0 
0.0 0.0 0.0 
0.0 0.0 0.0 
0.0 0.0 0.0 
0.0 0.0 0.0 
0.0 0.0 0.0 
0.0 0.0 0.0 
0.0 0.0 0.0 
0.0 0.0 0.0 
0.0 0.0 0.0 
0.0 0.0 0.0 
0.0 0.0 0.0 
0.0 0.0 0.0 
0.0 0.0 0.0 
0.0 0.0 0.0 
0.0 0.0 0.0 
0.0 0.0 0.0 
0.0 0.0 0.0 
0.0 0.0 0.0 
0.0 0.0 0.0 
0.0 0.0 0.0 
0.0 0.0 0.0 
0.0 0.0 0.0 
0.0 0.0 0.0 
0.0 0.0 0.0 
0.0 0.0 0.0 
0.0 0.0 0.0 
0.0 0.0 0.0 
0.0 0.0 0.0 
0.0 0.0 0.0 
0.0 0.0 0.0 
0.0 0.0 0.0 
0.0 0.0 0.0 
0.0 0.0 0.0 
0.0 0.0 0.0 
0.0 0.0 0.0 
0.0 0.0 0.0 
0.0 0.0 0.0 
0.0 0.0 0.0 
0.0 0.0 0.0 
0.0 0.0 0.0 
0.0 0.0 0.0 
0.0 0.0 0.0 
0.0 0.0 0.0 
0.0 0.0 0.0 
0.0 0.0 0.0 
0.0 0.0 0.0 
0.0 0.0 0.0 
0.0 0.0 0.0 
0.0 0.0 0.0 
0.0 0.0 0.0 
0.0 0.0 0.0 
0.0 0.0 0.0 
0.0 0.0 0.0 
0.0 0.0 0.0 
0.0 0.0 0.0 
0.0 0.0 0.0 
0.0 0.0 0.0 
0.0 0.0 0.0 
0.0 0.0 0.0 
0.0 0.0 0.0 
0.0 0.0 0.0 
0.0 0.0 0.0 
0.0 0.0 0.0 
0.0 0.0 0.0 
0.0 0.0 0.0 
0.0 0.0 0.0 
0.0 0.0 0.0 
0.0 0.0 0.0 
0.0 0.0 0.0 
0.0 0.0 0.0 
0.0 0.0 0.0 
0.0 0.0 0.0 
0.0 0.0 0.0 
0.0 0.0 0.0 
0.0 0.0 0.0 
0.0 0.0 0.0 
0.0 0.0 0.0 
0.0 0.0 0.0 
0.0 0.0 0.0 
0.0 0.0 0.0 
0.0 0.0 0.0 
0.0 0.0 0.0 
0.0 0.0 0.0 
0.0 0.0 0.0 
0.0 0.0 0.0 
0.0 0.0 0.0 
0.0 0.0 0.0 
0.0 0.0 0.0 
0.0 0.0 0.0 
0.0 0.0 0.0 
0.0 0.0 0.0 
0.0 0.0 0.0 
0.0 0.0 0.0 
0.0 0.0 0.0 
0.0 0.0 0.0 
0.0 0.0 0.0 
0.0 0.0 0.0 
0.0 0.0 0.0 
0.0 0.0 0.0 
0.0 0.0 0.0 
0.0 0.0 0.0 
0.0 0.0 0.0 
0.0 0.0 0.0 
0.0 0.0 0.0 
0.0 0.0 0.0 
0.0 0.0 0.0 
0.0 0.0 0.0 
0.0 0.0 0.0 
0.0 0.0 0.0 
0.0 0.0 0.0 
0.0 0.0 0.0 
0.0 0.0 0.0 
0.0 0.0 0.0 
0.0 0.0 0.0 
0.0 0.0 0.0 
0.0 0.0 0.0 
0.0 0.0 0.0 
0.0 0.0 0.0 
0.0 0.0 0.0 
0.0 0.0 0.0 
0.0 0.0 0.0 
0.0 0.0 0.0 
0.0 0.0 0.0 
0.0 0.0 0.0 
0.0 0.0 0.0 
0.0 0.0 0.0 
0.0 0.0 0.0 
0.0 0.0 0.0 
0.0 0.0 0.0 
0.0 0.0 0.0 
0.0 0.0 0.0 
0.0 0.0 0.0 
0.0 0.0 0.0 
0.0 0.0 0.0 
0.0 0.0 0.0 
0.0 0.0 0.0 
0.0 0.0 0.0 
0.0 0.0 0.0 
0.0 0.0 0.0 
0.0 0.0 0.0 
0.0 0.0 0.0 
0.0 0.0 0.0 
0.0 0.0 0.0 
0.0 0.0 0.0 
0.0 0.0 0.0 
0.0 0.0 0.0 
0.0 0.0 0.0 
0.0 0.0 0.0 
0.0 0.0 0.0 
0.0 0.0 0.0 
0.0 0.0 0.0 
0.0 0.0 0.0 
0.0 0.0 0.0 
0.0 0.0 0.0 
0.0 0.0 0.0 
0.0 0.0 0.0 
0.0 0.0 0.0 
0.0 0.0 0.0 
0.0 0.0 0.0 
0.0 0.0 0.0 
0.0 0.0 0.0 
0.0 0.0 0.0 
0.0 0.0 0.0 
0.0 0.0 0.0 
0.0 0.0 0.0 
0.0 0.0 0.0 
0.0 0.0 0.0 
0.0 0.0 0.0 
0.0 0.0 0.0 
0.0 0.0 0.0 
0.0 0.0 0.0 
0.0 0.0 0.0 
0.0 0.0 0.0 
0.0 0.0 0.0 
0.0 0.0 0.0 
0.0 0.0 0.0 
0.0 0.0 0.0 
0.0 0.0 0.0 
0.0 0.0 0.0 
0.0 0.0 0.0 
0.0 0.0 0.0 
0.0 0.0 0.0 
0.0 0.0 0.0 
0.0 0.0 0.0 
0.0 0.0 0.0 
0.0 0.0 0.0 
0.0 0.0 0.0 
0.0 0.0 0.0 
0.0 0.0 0.0 
0.0 0.0 0.0 
0.0 0.0 0.0 
0.0 0.0 0.0 
0.0 0.0 0.0 
0.0 0.0 0.0 
0.0 0.0 0.0 
0.0 0.0 0.0 
0.0 0.0 0.0 
0.0 0.0 0.0 
0.0 0.0 0.0 
0.0 0.0 0.0 
0.0 0.0 0.0 
0.0 0.0 0.0 
0.0 0.0 0.0 
0.0 0.0 0.0 
0.0 0.0 0.0 
0.0 0.0 0.0 
0.0 0.0 0.0 
0.0 0.0 0.0 
0.0 0.0 0.0 
0.0 0.0 0.0 
0.0 0.0 0.0 
0.0 0.0 0.0 
0.0 0.0 0.0 
0.0 0.0 0.0 
0.0 0.0 0.0 
0.0 0.0 0.0 
0.0 0.0 0.0 
0.0 0.0 0.0 
0.0 0.0 0.0 
0.0 0.0 0.0 
0.0 0.0 0.0 
0.0 0.0 0.0 
0.0 0.0 0.0 
0.0 0.0 0.0 
0.0 0.0 0.0 
0.0 0.0 0.0 
0.0 0.0 0.0 
0.0 0.0 0.0 
0.0 0.0 0.0 
0.0 0.0 0.0 
0.0 0.0 0.0 
0.0 0.0 0.0 
0.0 0.0 0.0 
0.0 0.0 0.0 
0.0 0.0 0.0 
0.0 0.0 0.0 
0.0 0.0 0.0 
0.0 0.0 0.0 
0.0 0.0 0.0 
0.0 0.0 0.0 
0.0 0.0 0.0 
0.0 0.0 0.0 
0.0 0.0 0.0 
0.0 0.0 0.0 
0.0 0.0 0.0 
0.0 0.0 0.0 
0.0 0.0 0.0 
0.0 0.0 0.0 
0.0 0.0 0.0 
0.0 0.0 0.0 
0.0 0.0 0.0 
0.0 0.0 0.0 
0.0 0.0 0.0 
0.0 0.0 0.0 
0.0 0.0 0.0 
0.0 0.0 0.0 
0.0 0.0 0.0 
0.0 0.0 0.0 
0.0 0.0 0.0 
0.0 0.0 0.0 
0.0 0.0 0.0 
0.0 0.0 0.0 
0.0 0.0 0.0 
0.0 0.0 0.0 
0.0 0.0 0.0 
0.0 0.0 0.0 
0.0 0.0 0.0 
0.0 0.0 0.0 
0.0 0.0 0.0 
0.0 0.0 0.0 
0.0 0.0 0.0 
0.0 0.0 0.0 
0.0 0.0 0.0 
0.0 0.0 0.0 
0.0 0.0 0.0 
0.0 0.0 0.0 
0.0 0.0 0.0 
0.0 0.0 0.0 
0.0 0.0 0.0 
0.0 0.0 0.0 
0.0 0.0 0.0 
0.0 0.0 0.0 
0.0 0.0 0.0 
0.0 0.0 0.0 
0.0 0.0 0.0 
0.0 0.0 0.0 
0.0 0.0 0.0 
0.0 0.0 0.0 
0.0 0.0 0.0 
0.0 0.0 0.0 
0.0 0.0 0.0 
0.0 0.0 0.0 
0.0 0.0 0.0 
0.0 0.0 0.0 
0.0 0.0 0.0 
0.0 0.0 0.0 
0.0 0.0 0.0 
0.0 0.0 0.0 
0.0 0.0 0.0 
0.0 0.0 0.0 
0.0 0.0 0.0 
0.0 0.0 0.0 
0.0 0.0 0.0 
0.0 0.0 0.0 
0.0 0.0 0.0 
0.0 0.0 0.0 
0.0 0.0 0.0 
0.0 0.0 0.0 
0.0 0.0 0.0 
0.0 0.0 0.0 
0.0 0.0 0.0 
0.0 0.0 0.0 
0.0 0.0 0.0 
0.0 0.0 0.0 
0.0 0.0 0.0 
0.0 0.0 0.0 
0.0 0.0 0.0 
0.0 0.0 0.0 
0.0 0.0 0.0 
0.0 0.0 0.0 
0.0 0.0 0.0 
0.0 0.0 0.0 
0.0 0.0 0.0 
0.0 0.0 0.0 
0.0 0.0 0.0 
0.0 0.0 0.0 
0.0 0.0 0.0 
0.0 0.0 0.0 
0.0 0.0 0.0 
0.0 0.0 0.0 
0.0 0.0 0.0 
0.0 0.0 0.0 
0.0 0.0 0.0 
0.0 0.0 0.0 
0.0 0.0 0.0 
0.0 0.0 0.0 
0.0 0.0 0.0 
0.0 0.0 0.0 
0.0 0.0 0.0 
0.0 0.0 0.0 
0.0 0.0 0.0 
0.0 0.0 0.0 
0.0 0.0 0.0 
0.0 0.0 0.0 
0.0 0.0 0.0 
0.0 0.0 0.0 
0.0 0.0 0.0 
0.0 0.0 0.0 
0.0 0.0 0.0 
0.0 0.0 0.0 
0.0 0.0 0.0 
0.0 0.0 0.0 
0.0 0.0 0.0 
0.0 0.0 0.0 
0.0 0.0 0.0 
0.0 0.0 0.0 
0.0 0.0 0.0 
0.0 0.0 0.0 
0.0 0.0 0.0 
0.0 0.0 0.0 
0.0 0.0 0.0 
0.0 0.0 0.0 
0.0 0.0 0.0 
0.0 0.0 0.0 
0.0 0.0 0.0 
0.0 0.0 0.0 
0.0 0.0 0.0 
0.0 0.0 0.0 
0.0 0.0 0.0 
0.0 0.0 0.0 
0.0 0.0 0.0 
0.0 0.0 0.0 
0.0 0.0 0.0 
0.0 0.0 0.0 
0.0 0.0 0.0 
0.0 0.0 0.0 
0.0 0.0 0.0 
0.0 0.0 0.0 
0.0 0.0 0.0 
0.0 0.0 0.0 
0.0 0.0 0.0 
0.0 0.0 0.0 
0.0 0.0 0.0 
0.0 0.0 0.0 
0.0 0.0 0.0 
0.0 0.0 0.0 
0.0 0.0 0.0 
0.0 0.0 0.0 
0.0 0.0 0.0 
0.0 0.0 0.0 
0.0 0.0 0.0 
0.0 0.0 0.0 
0.0 0.0 0.0 
0.0 0.0 0.0 
0.0 0.0 0.0 
0.0 0.0 0.0 
0.0 0.0 0.0 
0.0 0.0 0.0 
0.0 0.0 0.0 
0.0 0.0 0.0 
0.0 0.0 0.0 
0.0 0.0 0.0 
0.0 0.0 0.0 
0.0 0.0 0.0 
0.0 0.0 0.0 
0.0 0.0 0.0 
0.0 0.0 0.0 
0.0 0.0 0.0 
0.0 0.0 0.0 
0.0 0.0 0.0 
0.0 0.0 0.0 
0.0 0.0 0.0 
0.0 0.0 0.0 
0.0 0.0 0.0 
0.0 0.0 0.0 
0.0 0.0 0.0 
0.0 0.0 0.0 
0.0 0.0 0.0 
0.0 0.0 0.0 
0.0 0.0 0.0 
0.0 0.0 0.0 
0.0 0.0 0.0 
0.0 0.0 0.0 
0.0 0.0 0.0 
0.0 0.0 0.0 
0.0 0.0 0.0 
0.0 0.0 0.0 
0.0 0.0 0.0 
0.0 0.0 0.0 
0.0 0.0 0.0 
0.0 0.0 0.0 
0.0 0.0 0.0 
0.0 0.0 0.0 
0.0 0.0 0.0 
0.0 0.0 0.0 
0.0 0.0 0.0 
0.0 0.0 0.0 
0.0 0.0 0.0 
0.0 0.0 0.0 
0.0 0.0 0.0 
0.0 0.0 0.0 
0.0 0.0 0.0 
0.0 0.0 0.0 
0.0 0.0 0.0 
0.0 0.0 0.0 
0.0 0.0 0.0 
0.0 0.0 0.0 
0.0 0.0 0.0 
0.0 0.0 0.0 
0.0 0.0 0.0 
0.0 0.0 0.0 
0.0 0.0 0.0 
0.0 0.0 0.0 
0.0 0.0 0.0 
0.0 0.0 0.0 
0.0 0.0 0.0 
0.0 0.0 0.0 
0.0 0.0 0.0 
0.0 0.0 0.0 
0.0 0.0 0.0 
0.0 0.0 0.0 
0.0 0.0 0.0 
0.0 0.0 0.0 
0.0 0.0 0.0 
0.0 0.0 0.0 
0.0 0.0 0.0 
0.0 0.0 0.0 
0.0 0.0 0.0 
0.0 0.0 0.0 
0.0 0.0 0.0 
0.0 0.0 0.0 
0.0 0.0 0.0 
0.0 0.0 0.0 
0.0 0.0 0.0 
0.0 0.0 0.0 
0.0 0.0 0.0 
0.0 0.0 0.0 
0.0 0.0 0.0 
0.0 0.0 0.0 
0.0 0.0 0.0 
0.0 0.0 0.0 
0.0 0.0 0.0 
0.0 0.0 0.0 
0.0 0.0 0.0 
0.0 0.0 0.0 
0.0 0.0 0.0 
0.0 0.0 0.0 
0.0 0.0 0.0 
0.0 0.0 0.0 
0.0 0.0 0.0 
0.0 0.0 0.0 
0.0 0.0 0.0 
0.0 0.0 0.0 
0.0 0.0 0.0 
0.0 0.0 0.0 
0.0 0.0 0.0 
0.0 0.0 0.0 
0.0 0.0 0.0 
0.0 0.0 0.0 
0.0 0.0 0.0 
0.0 0.0 0.0 
0.0 0.0 0.0 
0.0 0.0 0.0 
0.0 0.0 0.0 
0.0 0.0 0.0 
0.0 0.0 0.0 
0.0 0.0 0.0 
0.0 0.0 0.0 
0.0 0.0 0.0 
0.0 0.0 0.0 
0.0 0.0 0.0 
0.0 0.0 0.0 
0.0 0.0 0.0 
0.0 0.0 0.0 
0.0 0.0 0.0 
0.0 0.0 0.0 
0.0 0.0 0.0 
0.0 0.0 0.0 
0.0 0.0 0.0 
0.0 0.0 0.0 
0.0 0.0 0.0 
0.0 0.0 0.0 
0.0 0.0 0.0 
0.0 0.0 0.0 
0.0 0.0 0.0 
0.0 0.0 0.0 
0.0 0.0 0.0 
0.0 0.0 0.0 
0.0 0.0 0.0 
0.0 0.0 0.0 
0.0 0.0 0.0 
0.0 0.0 0.0 
0.0 0.0 0.0 
0.0 0.0 0.0 
0.0 0.0 0.0 
0.0 0.0 0.0 
0.0 0.0 0.0 
0.0 0.0 0.0 
0.0 0.0 0.0 
0.0 0.0 0.0 
0.0 0.0 0.0 
0.0 0.0 0.0 
0.0 0.0 0.0 
0.0 0.0 0.0 
0.0 0.0 0.0 
0.0 0.0 0.0 
0.0 0.0 0.0 
0.0 0.0 0.0 
0.0 0.0 0.0 
0.0 0.0 0.0 
0.0 0.0 0.0 
0.0 0.0 0.0 
0.0 0.0 0.0 
0.0 0.0 0.0 
0.0 0.0 0.0 
0.0 0.0 0.0 
0.0 0.0 0.0 
0.0 0.0 0.0 
0.0 0.0 0.0 
0.0 0.0 0.0 
0.0 0.0 0.0 
0.0 0.0 0.0 
0.0 0.0 0.0 
0.0 0.0 0.0 
0.0 0.0 0.0 
0.0 0.0 0.0 
0.0 0.0 0.0 
0.0 0.0 0.0 
0.0 0.0 0.0 
0.0 0.0 0.0 
0.0 0.0 0.0 
0.0 0.0 0.0 
0.0 0.0 0.0 
0.0 0.0 0.0 
0.0 0.0 0.0 
0.0 0.0 0.0 
0.0 0.0 0.0 
0.0 0.0 0.0 
0.0 0.0 0.0 
0.0 0.0 0.0 
0.0 0.0 0.0 
0.0 0.0 0.0 
0.0 0.0 0.0 
0.0 0.0 0.0 
0.0 0.0 0.0 
0.0 0.0 0.0 
0.0 0.0 0.0 
0.0 0.0 0.0 
0.0 0.0 0.0 
0.0 0.0 0.0 
0.0 0.0 0.0 
0.0 0.0 0.0 
0.0 0.0 0.0 
0.0 0.0 0.0 
0.0 0.0 0.0 
0.0 0.0 0.0 
0.0 0.0 0.0 
0.0 0.0 0.0 
0.0 0.0 0.0 
0.0 0.0 0.0 
0.0 0.0 0.0 
0.0 0.0 0.0 
0.0 0.0 0.0 
0.0 0.0 0.0 
0.0 0.0 0.0 
0.0 0.0 0.0 
0.0 0.0 0.0 
0.0 0.0 0.0 
0.0 0.0 0.0 
0.0 0.0 0.0 
0.0 0.0 0.0 
0.0 0.0 0.0 
0.0 0.0 0.0 
0.0 0.0 0.0 
0.0 0.0 0.0 
0.0 0.0 0.0 
0.0 0.0 0.0 
0.0 0.0 0.0 
0.0 0.0 0.0 
0.0 0.0 0.0 
0.0 0.0 0.0 
0.0 0.0 0.0 
0.0 0.0 0.0 
0.0 0.0 0.0 
0.0 0.0 0.0 
0.0 0.0 0.0 
0.0 0.0 0.0 
0.0 0.0 0.0 
0.0 0.0 0.0 
0.0 0.0 0.0 
0.0 0.0 0.0 
0.0 0.0 0.0 
0.0 0.0 0.0 
0.0 0.0 0.0 
0.0 0.0 0.0 
0.0 0.0 0.0 
0.0 0.0 0.0 
0.0 0.0 0.0 
0.0 0.0 0.0 
0.0 0.0 0.0 
0.0 0.0 0.0 
0.0 0.0 0.0 
0.0 0.0 0.0 
0.0 0.0 0.0 
0.0 0.0 0.0 
0.0 0.0 0.0 
0.0 0.0 0.0 
0.0 0.0 0.0 
0.0 0.0 0.0 
0.0 0.0 0.0 
0.0 0.0 0.0 
0.0 0.0 0.0 
0.0 0.0 0.0 
0.0 0.0 0.0 
0.0 0.0 0.0 
0.0 0.0 0.0 
0.0 0.0 0.0 
0.0 0.0 0.0 
0.0 0.0 0.0 
0.0 0.0 0.0 
0.0 0.0 0.0 
0.0 0.0 0.0 
0.0 0.0 0.0 
0.0 0.0 0.0 
0.0 0.0 0.0 
0.0 0.0 0.0 
0.0 0.0 0.0 
0.0 0.0 0.0 
0.0 0.0 0.0 
0.0 0.0 0.0 
0.0 0.0 0.0 
0.0 0.0 0.0 
0.0 0.0 0.0 
0.0 0.0 0.0 
0.0 0.0 0.0 
0.0 0.0 0.0 
0.0 0.0 0.0 
0.0 0.0 0.0 
0.0 0.0 0.0 
0.0 0.0 0.0 
0.0 0.0 0.0 
0.0 0.0 0.0 
0.0 0.0 0.0 
0.0 0.0 0.0 
0.0 0.0 0.0 
0.0 0.0 0.0 
0.0 0.0 0.0 
0.0 0.0 0.0 
0.0 0.0 0.0 
0.0 0.0 0.0 
0.0 0.0 0.0 
0.0 0.0 0.0 
0.0 0.0 0.0 
0.0 0.0 0.0 
0.0 0.0 0.0 
0.0 0.0 0.0 
0.0 0.0 0.0 
0.0 0.0 0.0 
0.0 0.0 0.0 
0.0 0.0 0.0 
0.0 0.0 0.0 
0.0 0.0 0.0 
0.0 0.0 0.0 
0.0 0.0 0.0 
0.0 0.0 0.0 
0.0 0.0 0.0 
0.0 0.0 0.0 
0.0 0.0 0.0 
0.0 0.0 0.0 
0.0 0.0 0.0 
0.0 0.0 0.0 
0.0 0.0 0.0 
0.0 0.0 0.0 
0.0 0.0 0.0 
0.0 0.0 0.0 
0.0 0.0 0.0 
0.0 0.0 0.0 
0.0 0.0 0.0 
0.0 0.0 0.0 
0.0 0.0 0.0 
0.0 0.0 0.0 
0.0 0.0 0.0 
0.0 0.0 0.0 
0.0 0.0 0.0 
0.0 0.0 0.0 
0.0 0.0 0.0 
0.0 0.0 0.0 
0.0 0.0 0.0 
0.0 0.0 0.0 
0.0 0.0 0.0 
0.0 0.0 0.0 
0.0 0.0 0.0 
0.0 0.0 0.0 
0.0 0.0 0.0 
0.0 0.0 0.0 
0.0 0.0 0.0 
0.0 0.0 0.0 
0.0 0.0 0.0 
0.0 0.0 0.0 
0.0 0.0 0.0 
0.0 0.0 0.0 
0.0 0.0 0.0 
0.0 0.0 0.0 
0.0 0.0 0.0 
0.0 0.0 0.0 
0.0 0.0 0.0 
0.0 0.0 0.0 
0.0 0.0 0.0 
0.0 0.0 0.0 
0.0 0.0 0.0 
0.0 0.0 0.0 
0.0 0.0 0.0 
0.0 0.0 0.0 
0.0 0.0 0.0 
0.0 0.0 0.0 
0.0 0.0 0.0 
0.0 0.0 0.0 
0.0 0.0 0.0 
0.0 0.0 0.0 
0.0 0.0 0.0 
0.0 0.0 0.0 
0.0 0.0 0.0 
0.0 0.0 0.0 
0.0 0.0 0.0 
0.0 0.0 0.0 
0.0 0.0 0.0 
0.0 0.0 0.0 
0.0 0.0 0.0 
0.0 0.0 0.0 
0.0 0.0 0.0 
0.0 0.0 0.0 
0.0 0.0 0.0 
0.0 0.0 0.0 
0.0 0.0 0.0 
0.0 0.0 0.0 
0.0 0.0 0.0 
0.0 0.0 0.0 
0.0 0.0 0.0 
0.0 0.0 0.0 
0.0 0.0 0.0 
0.0 0.0 0.0 
0.0 0.0 0.0 
0.0 0.0 0.0 
0.0 0.0 0.0 
0.0 0.0 0.0 
0.0 0.0 0.0 
0.0 0.0 0.0 
0.0 0.0 0.0 
0.0 0.0 0.0 
0.0 0.0 0.0 
0.0 0.0 0.0 
0.0 0.0 0.0 
0.0 0.0 0.0 
0.0 0.0 0.0 
0.0 0.0 0.0 
0.0 0.0 0.0 
0.0 0.0 0.0 
0.0 0.0 0.0 
0.0 0.0 0.0 
0.0 0.0 0.0 
0.0 0.0 0.0 
0.0 0.0 0.0 
0.0 0.0 0.0 
0.0 0.0 0.0 
0.0 0.0 0.0 
0.0 0.0 0.0 
0.0 0.0 0.0 
0.0 0.0 0.0 
0.0 0.0 0.0 
0.0 0.0 0.0 
0.0 0.0 0.0 
0.0 0.0 0.0 
0.0 0.0 0.0 
0.0 0.0 0.0 
0.0 0.0 0.0 
0.0 0.0 0.0 
0.0 0.0 0.0 
0.0 0.0 0.0 
0.0 0.0 0.0 
0.0 0.0 0.0 
0.0 0.0 0.0 
0.0 0.0 0.0 
0.0 0.0 0.0 
0.0 0.0 0.0 
0.0 0.0 0.0 
0.0 0.0 0.0 
0.0 0.0 0.0 
0.0 0.0 0.0 
0.0 0.0 0.0 
0.0 0.0 0.0 
0.0 0.0 0.0 
0.0 0.0 0.0 
0.0 0.0 0.0 
0.0 0.0 0.0 
0.0 0.0 0.0 
0.0 0.0 0.0 
0.0 0.0 0.0 
0.0 0.0 0.0 
0.0 0.0 0.0 
0.0 0.0 0.0 
0.0 0.0 0.0 
0.0 0.0 0.0 
0.0 0.0 0.0 
0.0 0.0 0.0 
0.0 0.0 0.0 
0.0 0.0 0.0 
0.0 0.0 0.0 
0.0 0.0 0.0 
0.0 0.0 0.0 
0.0 0.0 0.0 
0.0 0.0 0.0 
0.0 0.0 0.0 
0.0 0.0 0.0 
0.0 0.0 0.0 
0.0 0.0 0.0 
0.0 0.0 0.0 
0.0 0.0 0.0 
0.0 0.0 0.0 
0.0 0.0 0.0 
0.0 0.0 0.0 
0.0 0.0 0.0 
0.0 0.0 0.0 
0.0 0.0 0.0 
0.0 0.0 0.0 
0.0 0.0 0.0 
0.0 0.0 0.0 
0.0 0.0 0.0 
0.0 0.0 0.0 
0.0 0.0 0.0 
0.0 0.0 0.0 
0.0 0.0 0.0 
0.0 0.0 0.0 
0.0 0.0 0.0 
0.0 0.0 0.0 
0.0 0.0 0.0 
0.0 0.0 0.0 
0.0 0.0 0.0 
0.0 0.0 0.0 
0.0 0.0 0.0 
0.0 0.0 0.0 
0.0 0.0 0.0 
0.0 0.0 0.0 
0.0 0.0 0.0 
0.0 0.0 0.0 
0.0 0.0 0.0 
0.0 0.0 0.0 
0.0 0.0 0.0 
0.0 0.0 0.0 
0.0 0.0 0.0 
0.0 0.0 0.0 
0.0 0.0 0.0 
0.0 0.0 0.0 
0.0 0.0 0.0 
0.0 0.0 0.0 
0.0 0.0 0.0 
0.0 0.0 0.0 
0.0 0.0 0.0 
0.0 0.0 0.0 
0.0 0.0 0.0 
0.0 0.0 0.0 
0.0 0.0 0.0 
0.0 0.0 0.0 
0.0 0.0 0.0 
0.0 0.0 0.0 
0.0 0.0 0.0 
0.0 0.0 0.0 
0.0 0.0 0.0 
0.0 0.0 0.0 
0.0 0.0 0.0 
0.0 0.0 0.0 
0.0 0.0 0.0 
0.0 0.0 0.0 
0.0 0.0 0.0 
0.0 0.0 0.0 
0.0 0.0 0.0 
0.0 0.0 0.0 
0.0 0.0 0.0 
0.0 0.0 0.0 
0.0 0.0 0.0 
0.0 0.0 0.0 
0.0 0.0 0.0 
0.0 0.0 0.0 
0.0 0.0 0.0 
0.0 0.0 0.0 
0.0 0.0 0.0 
0.0 0.0 0.0 
0.0 0.0 0.0 
0.0 0.0 0.0 
0.0 0.0 0.0 
0.0 0.0 0.0 
0.0 0.0 0.0 
0.0 0.0 0.0 
0.0 0.0 0.0 
0.0 0.0 0.0 
0.0 0.0 0.0 
0.0 0.0 0.0 
0.0 0.0 0.0 
0.0 0.0 0.0 
0.0 0.0 0.0 
0.0 0.0 0.0 
0.0 0.0 0.0 
0.0 0.0 0.0 
0.0 0.0 0.0 
0.0 0.0 0.0 
0.0 0.0 0.0 
0.0 0.0 0.0 
0.0 0.0 0.0 
0.0 0.0 0.0 
0.0 0.0 0.0 
0.0 0.0 0.0 
0.0 0.0 0.0 
0.0 0.0 0.0 
0.0 0.0 0.0 
0.0 0.0 0.0 
0.0 0.0 0.0 
0.0 0.0 0.0 
0.0 0.0 0.0 
0.0 0.0 0.0 
0.0 0.0 0.0 
0.0 0.0 0.0 
0.0 0.0 0.0 
0.0 0.0 0.0 
0.0 0.0 0.0 
0.0 0.0 0.0 
0.0 0.0 0.0 
0.0 0.0 0.0 
0.0 0.0 0.0 
0.0 0.0 0.0 
0.0 0.0 0.0 
0.0 0.0 0.0 
0.0 0.0 0.0 
0.0 0.0 0.0 
0.0 0.0 0.0 
0.0 0.0 0.0 
0.0 0.0 0.0 
0.0 0.0 0.0 
0.0 0.0 0.0 
0.0 0.0 0.0 
0.0 0.0 0.0 
0.0 0.0 0.0 
0.0 0.0 0.0 
0.0 0.0 0.0 
0.0 0.0 0.0 
0.0 0.0 0.0 
0.0 0.0 0.0 
0.0 0.0 0.0 
0.0 0.0 0.0 
0.0 0.0 0.0 
0.0 0.0 0.0 
0.0 0.0 0.0 
0.0 0.0 0.0 
0.0 0.0 0.0 
0.0 0.0 0.0 
0.0 0.0 0.0 
0.0 0.0 0.0 
0.0 0.0 0.0 
0.0 0.0 0.0 
0.0 0.0 0.0 
0.0 0.0 0.0 
0.0 0.0 0.0 
0.0 0.0 0.0 
0.0 0.0 0.0 
0.0 0.0 0.0 
0.0 0.0 0.0 
0.0 0.0 0.0 
0.0 0.0 0.0 
0.0 0.0 0.0 
0.0 0.0 0.0 
0.0 0.0 0.0 
0.0 0.0 0.0 
0.0 0.0 0.0 
0.0 0.0 0.0 

TENSORS element_materi_stress float
-4.532265097210e+01 1.793331065586e+01 0.0 
1.793331065586e+01 -5.613509367227e+01 0.0 
0.0 0.0 -2.609736345817e+01 
-4.879939532397e+01 2.149716304504e+01 0.0 
2.149716304504e+01 -5.431384010573e+01 0.0 
0.0 0.0 -2.799002100433e+01 
-1.342639830234e+02 1.622719582719e+01 0.0 
1.622719582719e+01 -3.074429487202e+02 0.0 
0.0 0.0 -1.321120795231e+02 
-1.257022104936e+02 2.507686375306e+00 0.0 
2.507686375306e+00 -2.869301320885e+02 0.0 
0.0 0.0 -1.233897027746e+02 
-7.605220879643e+01 8.788405629227e-01 0.0 
8.788405629227e-01 -1.484588625300e+02 0.0 
0.0 0.0 -6.695332139793e+01 
-3.699846162175e+01 2.987610312914e+01 0.0 
2.987610312914e+01 -9.412595507250e+01 0.0 
0.0 0.0 -4.012161748233e+01 
-7.531546003751e+01 1.511139952863e-01 0.0 
1.511139952863e-01 -1.485041230673e+02 0.0 
0.0 0.0 -6.674587493146e+01 
-4.923453146761e+01 2.447485257261e+01 0.0 
2.447485257261e+01 -5.880343483502e+01 0.0 
0.0 0.0 -2.858351512853e+01 
-7.629353338329e+01 2.589831855755e+00 0.0 
2.589831855755e+00 -1.492931460422e+02 0.0 
0.0 0.0 -6.727600382764e+01 
-1.250586647839e+02 1.974417801529e+00 0.0 
1.974417801529e+00 -2.853385328335e+02 0.0 
0.0 0.0 -1.227191592852e+02 
-1.148271437679e+02 -1.230119097980e+00 0.0 
-1.230119097980e+00 -2.593671299890e+02 0.0 
0.0 0.0 -1.090783673049e+02 
-3.985906670776e+01 2.048940084169e+01 0.0 
2.048940084169e+01 -3.993881420989e+01 0.0 
0.0 0.0 -2.110015662934e+01 
-1.569697757207e+02 -2.623737235704e-01 0.0 
-2.623737235704e-01 -3.718255411900e+02 0.0 
0.0 0.0 -1.582385950732e+02 
-8.555957930386e+01 3.648465784577e+00 0.0 
3.648465784577e+00 -1.669535560101e+02 0.0 
0.0 0.0 -7.535394059418e+01 
-1.611586563160e+02 1.667578812494e+00 0.0 
1.667578812494e+00 -3.799365636829e+02 0.0 
0.0 0.0 -1.619285659997e+02 
-1.277244702680e+02 1.504714132783e+00 0.0 
1.504714132783e+00 -2.951002711678e+02 0.0 
0.0 0.0 -1.264474224307e+02 
-7.596107696503e+01 2.520676057013e+00 0.0 
2.520676057013e+00 -1.448207997676e+02 0.0 
0.0 0.0 -6.583456301978e+01 
-2.878184105650e+01 1.937001904978e+01 0.0 
1.937001904978e+01 -1.106697350355e+02 0.0 
0.0 0.0 -4.417482961387e+01 
-2.246144753543e+01 -3.551329553717e-01 0.0 
-3.551329553717e-01 -7.716451937094e+01 0.0 
0.0 0.0 -2.948779007191e+01 
-3.253294554064e+01 -1.792854830072e+00 0.0 
-1.792854830072e+00 -7.984035257644e+01 0.0 
0.0 0.0 -3.113187947052e+01 
-1.262598765364e+02 4.028583682827e+00 0.0 
4.028583682827e+00 -2.863417045910e+02 0.0 
0.0 0.0 -1.233804743382e+02 
-4.991726480310e+01 1.269047735999e+01 0.0 
1.269047735999e+01 -6.316021318483e+01 0.0 
0.0 0.0 -2.917942229216e+01 
-5.828346301711e+01 1.566575331167e+01 0.0 
1.566575331167e+01 -7.756262881458e+01 0.0 
0.0 0.0 -3.556560073995e+01 
-1.429525495832e+02 1.117809578262e+01 0.0 
1.117809578262e+01 -3.515814669027e+02 0.0 
0.0 0.0 -1.479602049458e+02 
-9.383049302703e+01 5.743025077407e+00 0.0 
5.743025077407e+00 -1.863863773506e+02 0.0 
0.0 0.0 -8.366506111328e+01 
-1.195643724107e+02 -3.393447317671e-02 0.0 
-3.393447317671e-02 -2.731772250480e+02 0.0 
0.0 0.0 -1.149911939420e+02 
-7.257122760651e+01 5.015189667046e+00 0.0 
5.015189667046e+00 -1.300432748622e+02 0.0 
0.0 0.0 -6.038435074062e+01 
-1.428746627760e+02 2.061862207424e+01 0.0 
2.061862207424e+01 -3.374306053204e+02 0.0 
0.0 0.0 -1.436915804289e+02 
-9.564955868858e+01 8.393575845058e+00 0.0 
8.393575845058e+00 -1.874891032818e+02 0.0 
0.0 0.0 -8.454159859110e+01 
-1.470659516659e+02 9.579927984549e+00 0.0 
9.579927984549e+00 -3.602105233638e+02 0.0 
0.0 0.0 -1.517829425089e+02 
-4.073038319585e+01 -2.210893022405e+01 0.0 
-2.210893022405e+01 -9.892477134953e+01 0.0 
0.0 0.0 -3.832019578590e+01 
-1.562475131720e+01 2.459113114869e-01 0.0 
2.459113114869e-01 -2.490588587719e+01 0.0 
0.0 0.0 -1.175919115832e+01 
-1.357754664708e+02 1.610920211265e+01 0.0 
1.610920211265e+01 -3.079209244844e+02 0.0 
0.0 0.0 -1.327089172866e+02 
-1.337842886858e+02 8.655430119845e-01 0.0 
8.655430119845e-01 -3.223254772577e+02 0.0 
0.0 0.0 -1.364329297831e+02 
-1.545996827665e+02 5.898460784590e+00 0.0 
5.898460784590e+00 -3.707640814927e+02 0.0 
0.0 0.0 -1.572091292778e+02 
-1.641263366143e+02 1.469003728331e+00 0.0 
1.469003728331e+00 -3.884357280615e+02 0.0 
0.0 0.0 -1.653686194027e+02 
-1.645979668936e+02 4.324168614266e+00 0.0 
4.324168614266e+00 -3.883858550840e+02 0.0 
0.0 0.0 -1.654951465933e+02 
-1.469296920434e+02 1.544959364096e+01 0.0 
1.544959364096e+01 -3.546130859279e+02 0.0 
0.0 0.0 -1.500628333914e+02 
-6.755375130549e+01 1.891346750607e+00 0.0 
1.891346750607e+00 -1.296407353830e+02 0.0 
0.0 0.0 -5.875834600655e+01 
-6.721349618233e+01 -8.934471379546e-01 0.0 
-8.934471379546e-01 -1.301505486218e+02 0.0 
0.0 0.0 -5.880921344125e+01 
-6.536742375632e+01 1.189155658942e+01 0.0 
1.189155658942e+01 -9.487239360459e+01 0.0 
0.0 0.0 -4.320208263993e+01 
-1.572189367161e+02 6.938913096814e+00 0.0 
6.938913096814e+00 -3.746800250824e+02 0.0 
0.0 0.0 -1.591696885395e+02 
-4.458037468184e+01 2.667839000029e+01 0.0 
2.667839000029e+01 -4.743424018209e+01 0.0 
0.0 0.0 -2.440892037231e+01 
-7.446358194273e+01 4.787148310751e+00 0.0 
4.787148310751e+00 -1.307989252881e+02 0.0 
0.0 0.0 -6.086818236268e+01 
-1.219437146968e+02 1.049150081869e+00 0.0 
1.049150081869e+00 -2.754747228136e+02 0.0 
0.0 0.0 -1.188255312531e+02 
-4.461407466561e+01 2.804773032392e+01 0.0 
2.804773032392e+01 -4.753455129191e+01 0.0 
0.0 0.0 -2.416243055603e+01 
-3.744043826535e+01 -2.452540415701e+01 0.0 
-2.452540415701e+01 -9.533843701787e+01 0.0 
0.0 0.0 -3.900221488705e+01 
-1.214119788086e+02 7.448264329268e-01 0.0 
7.448264329268e-01 -2.768265042288e+02 0.0 
0.0 0.0 -1.190715449112e+02 
-3.564862461684e+01 -2.650878268030e+01 0.0 
-2.650878268030e+01 -5.764645387957e+01 0.0 
0.0 0.0 -2.832730429942e+01 
-8.315226211678e+01 4.635845616123e+00 0.0 
4.635845616123e+00 -1.581908320522e+02 0.0 
0.0 0.0 -7.200292825069e+01 
-6.198562213587e+01 1.359647725078e+01 0.0 
1.359647725078e+01 -8.661171477971e+01 0.0 
0.0 0.0 -3.839569848646e+01 
-3.642990009935e+01 -5.853260586097e-01 0.0 
-5.853260586097e-01 -9.729885122773e+01 0.0 
0.0 0.0 -3.865796425465e+01 
-4.420775233977e+01 -1.596309186069e+01 0.0 
-1.596309186069e+01 -1.258594708457e+02 0.0 
0.0 0.0 -4.650200440391e+01 
-5.837004102811e+01 9.031281242976e+00 0.0 
9.031281242976e+00 -8.243269123566e+01 0.0 
0.0 0.0 -3.709050789362e+01 
-1.318580247033e+02 1.276029271618e+01 0.0 
1.276029271618e+01 -3.014067532636e+02 0.0 
0.0 0.0 -1.295794333901e+02 
-6.069320999900e+01 -1.820026400862e+00 0.0 
-1.820026400862e+00 -1.302128215102e+02 0.0 
0.0 0.0 -5.294709357101e+01 
-4.674933340274e+01 -2.061309259841e+00 0.0 
-2.061309259841e+00 -1.005816472027e+02 0.0 
0.0 0.0 -4.041397631982e+01 
-1.333242661209e+02 -6.533014810907e-01 0.0 
-6.533014810907e-01 -3.221881303438e+02 0.0 
0.0 0.0 -1.362537189394e+02 
-1.921243227438e+01 -6.667802545795e-01 0.0 
-6.667802545795e-01 -5.930674572157e+01 0.0 
0.0 0.0 -2.175719553880e+01 
-1.282704588392e+02 3.345628880192e+00 0.0 
3.345628880192e+00 -2.953716854017e+02 0.0 
0.0 0.0 -1.266926432723e+02 
-6.108169785126e+01 -2.476108637419e+01 0.0 
-2.476108637419e+01 -9.392249362078e+01 0.0 
0.0 0.0 -4.753115772480e+01 
-1.356833120495e+02 1.749987521647e+01 0.0 
1.749987521647e+01 -3.276662562725e+02 0.0 
0.0 0.0 -1.386048704966e+02 
-6.351692506021e+01 2.623523343230e+01 0.0 
2.623523343230e+01 -1.139433244703e+02 0.0 
0.0 0.0 -5.093134361368e+01 
-3.909588565043e+01 -1.666866371641e+01 0.0 
-1.666866371641e+01 -1.124408427049e+02 0.0 
0.0 0.0 -3.847734937525e+01 
-1.567298198500e+02 2.004116351219e+00 0.0 
2.004116351219e+00 -3.716060986188e+02 0.0 
0.0 0.0 -1.581007755406e+02 
-5.428270000970e+01 1.053354075386e+01 0.0 
1.053354075386e+01 -7.227688899482e+01 0.0 
0.0 0.0 -3.239372355651e+01 
-4.581780481824e+01 -8.217828437998e+00 0.0 
-8.217828437998e+00 -1.194795118995e+02 0.0 
0.0 0.0 -5.082408189800e+01 
-1.371783732872e+02 1.755429998535e+01 0.0 
1.755429998535e+01 -3.101062352430e+02 0.0 
0.0 0.0 -1.337853825591e+02 
-4.195631591337e+01 -1.099994142193e+01 0.0 
-1.099994142193e+01 -7.134350379152e+01 0.0 
0.0 0.0 -2.838726773131e+01 
-1.390370923318e+02 1.921830341316e+01 0.0 
1.921830341316e+01 -3.225424671565e+02 0.0 
0.0 0.0 -1.380738678465e+02 
-1.222998858940e+02 1.074230587843e-01 0.0 
1.074230587843e-01 -2.841289853844e+02 0.0 
0.0 0.0 -1.196622992030e+02 
-1.331930442940e+02 8.614741019543e+00 0.0 
8.614741019543e+00 -3.121171033527e+02 0.0 
0.0 0.0 -1.331930442940e+02 
-1.369553150749e+02 1.915069364667e+01 0.0 
1.915069364667e+01 -3.227912394601e+02 0.0 
0.0 0.0 -1.375239663605e+02 
-1.125033547784e+01 -6.202636828906e-01 0.0 
-6.202636828906e-01 -2.986659764423e+01 0.0 
0.0 0.0 -9.559891738428e+00 
-6.697060983825e+01 -3.172840193153e+00 0.0 
-3.172840193153e+00 -1.351689336772e+02 0.0 
0.0 0.0 -5.523288944335e+01 
-1.284063044786e+02 7.260497918826e+00 0.0 
7.260497918826e+00 -2.908019080273e+02 0.0 
0.0 0.0 -1.253624637518e+02 
-1.346271033083e+02 1.374042758520e+01 0.0 
1.374042758520e+01 -3.036654489511e+02 0.0 
0.0 0.0 -1.310877656778e+02 
-4.345675542919e+01 3.063398758781e+01 0.0 
3.063398758781e+01 -4.933819009635e+01 0.0 
0.0 0.0 -2.377887393072e+01 
-2.026366804639e+01 -2.720687974032e+00 0.0 
-2.720687974032e+00 -5.875252406903e+01 0.0 
0.0 0.0 -2.179274009923e+01 
-4.233801224441e+01 2.996514382345e+01 0.0 
2.996514382345e+01 -4.902503429785e+01 0.0 
0.0 0.0 -2.310216890526e+01 
-4.330151552659e+01 -1.401410028879e+01 0.0 
-1.401410028879e+01 -7.221825451080e+01 0.0 
0.0 0.0 -2.909538203415e+01 
-7.537340948099e+01 2.141880311230e+00 0.0 
2.141880311230e+00 -1.440576527174e+02 0.0 
0.0 0.0 -6.542931865953e+01 
-5.529057189284e+01 1.821728715958e+01 0.0 
1.821728715958e+01 -7.004435496685e+01 0.0 
0.0 0.0 -3.312117656431e+01 
-4.536910671285e+01 1.499466089211e+01 0.0 
1.499466089211e+01 -5.186562923137e+01 0.0 
0.0 0.0 -2.588918971798e+01 
-8.092340219422e+01 2.989025807810e+00 0.0 
2.989025807810e+00 -1.598003185322e+02 0.0 
0.0 0.0 -7.181711621792e+01 
-7.976900207116e+01 8.810496122418e-01 0.0 
8.810496122418e-01 -1.592749738809e+02 0.0 
0.0 0.0 -7.131319278561e+01 
-1.246956155518e+02 5.265312712261e-01 0.0 
5.265312712261e-01 -2.924357021786e+02 0.0 
0.0 0.0 -1.233320515428e+02 
-1.298957428327e+02 -8.078758656595e-01 0.0 
-8.078758656595e-01 -3.138349323008e+02 0.0 
0.0 0.0 -1.327007361806e+02 
-1.184375160777e+02 1.646899433354e+01 0.0 
1.646899433354e+01 -2.545627830456e+02 0.0 
0.0 0.0 -1.115000897370e+02 
-7.684306940987e+01 3.243419349406e+00 0.0 
3.243419349406e+00 -1.480341630464e+02 0.0 
0.0 0.0 -6.706316973689e+01 
-1.834018494900e+01 -3.042807174929e+00 0.0 
-3.042807174929e+00 -2.662863982894e+01 0.0 
0.0 0.0 -1.246851914953e+01 
-8.032519550825e+01 5.815794681531e+00 0.0 
5.815794681531e+00 -1.483345920336e+02 0.0 
0.0 0.0 -6.819793626257e+01 
-1.043014755483e+02 1.277665063643e+00 0.0 
1.277665063643e+00 -2.279566366414e+02 0.0 
0.0 0.0 -9.927743365691e+01 
-1.039336038104e+02 6.696559861850e-01 0.0 
6.696559861850e-01 -2.245725448887e+02 0.0 
0.0 0.0 -9.815184460974e+01 
-1.366873588279e+02 9.475847418744e+00 0.0 
9.475847418744e+00 -3.141636149918e+02 0.0 
0.0 0.0 -1.348552921459e+02 
-1.523276594811e+02 1.793962707991e+01 0.0 
1.793962707991e+01 -3.613926156838e+02 0.0 
0.0 0.0 -1.537160825495e+02 
-7.636546704882e+01 3.194943331375e+00 0.0 
3.194943331375e+00 -1.439574044734e+02 0.0 
0.0 0.0 -6.569686145665e+01 
-1.544560059665e+02 6.637084142505e+00 0.0 
6.637084142505e+00 -3.739117634667e+02 0.0 
0.0 0.0 -1.581103308300e+02 
-8.617660837258e+01 8.911257045310e-01 0.0 
8.911257045310e-01 -1.788709441399e+02 0.0 
0.0 0.0 -7.911426575373e+01 
-6.015621060152e+01 2.538800447093e+01 0.0 
2.538800447093e+01 -9.762386875729e+01 0.0 
0.0 0.0 -4.341820919146e+01 
-7.291438455963e+01 2.218266123287e+00 0.0 
2.218266123287e+00 -1.392938876225e+02 0.0 
0.0 0.0 -6.326248165465e+01 
-1.606701856484e+02 2.586132454175e-01 0.0 
2.586132454175e-01 -3.796017114921e+02 0.0 
0.0 0.0 -1.616815691422e+02 
-1.122132816082e+02 1.772795753550e+01 0.0 
1.772795753550e+01 -2.838337544385e+02 0.0 
0.0 0.0 -1.184141108140e+02 
-1.367283417830e+02 1.916795235732e+01 0.0 
1.916795235732e+01 -3.284887456398e+02 0.0 
0.0 0.0 -1.391651262268e+02 
-5.302987572434e+01 3.009932676371e+01 0.0 
3.009932676371e+01 -1.088350269997e+02 0.0 
0.0 0.0 -4.573575709001e+01 
-5.075632341376e+01 -2.934953019028e+01 0.0 
-2.934953019028e+01 -7.803602968937e+01 0.0 
0.0 0.0 -3.639026505270e+01 
-1.474442526120e+02 1.287109469713e+00 0.0 
1.287109469713e+00 -3.517120563808e+02 0.0 
0.0 0.0 -1.493468926978e+02 
-1.108920534825e+02 9.901830548068e-01 0.0 
9.901830548068e-01 -2.438892791582e+02 0.0 
0.0 0.0 -1.060343997922e+02 
-5.381674493065e+01 -3.712617457067e+01 0.0 
-3.712617457067e+01 -7.190618033440e+01 0.0 
0.0 0.0 -3.887407495150e+01 
-1.602364077846e+02 2.526874256294e+00 0.0 
2.526874256294e+00 -3.777596948973e+02 0.0 
0.0 0.0 -1.609988308046e+02 
-1.131879926455e+02 1.460294865265e+01 0.0 
1.460294865265e+01 -2.438580938372e+02 0.0 
0.0 0.0 -1.067138259448e+02 
-1.150642488888e+01 6.874105741565e-02 0.0 
6.874105741565e-02 -2.152778298424e+01 0.0 
0.0 0.0 -7.744777525080e+00 
-7.020390555950e+01 2.705910646441e+01 0.0 
2.705910646441e+01 -1.633273128837e+02 0.0 
0.0 0.0 -7.054339116991e+01 
-7.752191769566e+01 8.582446164529e+00 0.0 
8.582446164529e+00 -1.312777848394e+02 0.0 
0.0 0.0 -6.109958474850e+01 
-8.193165363968e+01 -3.319886096051e+00 0.0 
-3.319886096051e+00 -1.662725381003e+02 0.0 
0.0 0.0 -6.833783318231e+01 
-5.584055995732e+01 2.637745671908e+01 0.0 
2.637745671908e+01 -9.088057178162e+01 0.0 
0.0 0.0 -4.201796582289e+01 
-6.209334975828e+01 2.706945723001e+01 0.0 
2.706945723001e+01 -1.135883113758e+02 0.0 
0.0 0.0 -4.983706212270e+01 
-1.583033168164e+02 4.170184871060e+00 0.0 
4.170184871060e+00 -3.773868360122e+02 0.0 
0.0 0.0 -1.603070458486e+02 
-8.387548210605e+01 -3.488331072230e-01 0.0 
-3.488331072230e-01 -1.722484216912e+02 0.0 
0.0 0.0 -7.643717113918e+01 
-5.893123792929e+01 2.901547884838e+01 0.0 
2.901547884838e+01 -1.109784221132e+02 0.0 
0.0 0.0 -4.907233094707e+01 
-3.349514412592e+01 -5.500184007264e+00 0.0 
-5.500184007264e+00 -6.298027587465e+01 0.0 
0.0 0.0 -2.395842548425e+01 
-8.076492920925e+01 5.929075545358e+00 0.0 
5.929075545358e+00 -1.485568307729e+02 0.0 
0.0 0.0 -6.839652799465e+01 
-1.108070776934e+02 1.380709004196e+00 0.0 
1.380709004196e+00 -2.452694792851e+02 0.0 
0.0 0.0 -1.064229670935e+02 
-5.744060917058e+01 2.870332205958e+01 0.0 
2.870332205958e+01 -1.103056802506e+02 0.0 
0.0 0.0 -4.794928010002e+01 
-4.491069274375e+01 3.469425575290e+01 0.0 
3.469425575290e+01 -5.471877173087e+01 0.0 
0.0 0.0 -2.713241887572e+01 
-7.207547005782e+01 9.754038999213e+00 0.0 
9.754038999213e+00 -1.132574110711e+02 0.0 
0.0 0.0 -5.255593357121e+01 
-7.871367586954e+01 -3.649365011719e+00 0.0 
-3.649365011719e+00 -1.640226989953e+02 0.0 
0.0 0.0 -6.731685173346e+01 
-6.563050260020e+01 7.004019792702e+00 0.0 
7.004019792702e+00 -1.016836193466e+02 0.0 
0.0 0.0 -4.687530894596e+01 
-1.299860519640e+02 6.634421715244e+00 0.0 
6.634421715244e+00 -2.991378893178e+02 0.0 
0.0 0.0 -1.283371823845e+02 
-4.335969775339e+01 3.415067693982e+01 0.0 
3.415067693982e+01 -7.678882371188e+01 0.0 
0.0 0.0 -3.107819173832e+01 
-1.175887798021e+02 -1.375744354830e+00 0.0 
-1.375744354830e+00 -2.718585765012e+02 0.0 
0.0 0.0 -1.143534329632e+02 
-1.252132671621e+02 7.051682239643e-01 0.0 
7.051682239643e-01 -2.867972980506e+02 0.0 
0.0 0.0 -1.232031695638e+02 
-7.697875969426e+01 1.787650975109e+01 0.0 
1.787650975109e+01 -1.317711867291e+02 0.0 
0.0 0.0 -5.765503198528e+01 
-6.901912926855e+01 1.062696645860e+01 0.0 
1.062696645860e+01 -1.043926009849e+02 0.0 
0.0 0.0 -4.814662533464e+01 
-1.533820467855e+02 4.374073901811e+00 0.0 
4.374073901811e+00 -3.702861035864e+02 0.0 
0.0 0.0 -1.567004451116e+02 
-1.573935729015e+02 1.595402834265e+00 0.0 
1.595402834265e+00 -3.725124619902e+02 0.0 
0.0 0.0 -1.585718104675e+02 
-1.232569612007e+02 -9.502651916191e-01 0.0 
-9.502651916191e-01 -2.923040904731e+02 0.0 
0.0 0.0 -1.231628934092e+02 
-7.964845775039e+01 1.857759270390e+01 0.0 
1.857759270390e+01 -1.397516500226e+02 0.0 
0.0 0.0 -6.163149976430e+01 
-1.531064399744e+02 9.793935308352e+00 0.0 
9.793935308352e+00 -3.719445331082e+02 0.0 
0.0 0.0 -1.571152919248e+02 
-7.291954100799e+01 1.472101448331e+01 0.0 
1.472101448331e+01 -1.178955076372e+02 0.0 
0.0 0.0 -5.175425397231e+01 
-1.277278060858e+02 5.038318519039e+00 0.0 
5.038318519039e+00 -2.932065813868e+02 0.0 
0.0 0.0 -1.258803162418e+02 
-1.396247334513e+02 1.958854168152e+01 0.0 
1.958854168152e+01 -3.220316195022e+02 0.0 
0.0 0.0 -1.380969058861e+02 
-8.648118039333e+01 5.975225340448e+00 0.0 
5.975225340448e+00 -1.666771835684e+02 0.0 
0.0 0.0 -7.554750918852e+01 
-9.611308021712e+01 7.945495216830e-01 0.0 
7.945495216830e-01 -2.034680804152e+02 0.0 
0.0 0.0 -8.947434818971e+01 
-7.294412010496e+01 1.815093526231e+01 0.0 
1.815093526231e+01 -1.182257103004e+02 0.0 
0.0 0.0 -5.192249520154e+01 
-6.249633375981e+01 7.759003201437e+00 0.0 
7.759003201437e+00 -9.273584603128e+01 0.0 
0.0 0.0 -4.231749796989e+01 
-8.361641778570e+01 1.833977719378e+01 0.0 
1.833977719378e+01 -1.529102183986e+02 0.0 
0.0 0.0 -6.622939004118e+01 
-5.794712010571e+01 2.899734664154e+01 0.0 
2.899734664154e+01 -1.282940031143e+02 0.0 
0.0 0.0 -5.343575417628e+01 
-7.297174118160e+01 1.811953784485e+00 0.0 
1.811953784485e+00 -1.419803420989e+02 0.0 
0.0 0.0 -6.408562498415e+01 
-6.511388477031e+01 2.546595526103e+01 0.0 
2.546595526103e+01 -1.598349740277e+02 0.0 
0.0 0.0 -6.640974636132e+01 
-1.338080420705e+01 -6.168213531488e-01 0.0 
-6.168213531488e-01 -2.568280905841e+01 0.0 
0.0 0.0 -1.050439377664e+01 
-7.766174069880e+01 3.664592743968e-01 0.0 
3.664592743968e-01 -1.569041147082e+02 0.0 
0.0 0.0 -6.996975662211e+01 
-1.715637487251e+01 -9.455218488712e-01 0.0 
-9.455218488712e-01 -5.979225382542e+01 0.0 
0.0 0.0 -2.204008275344e+01 
-7.484047001487e+01 9.131110113873e+00 0.0 
9.131110113873e+00 -1.224554530237e+02 0.0 
0.0 0.0 -5.692341476500e+01 
-1.565590331415e+02 9.176076018164e+00 0.0 
9.176076018164e+00 -3.735557818697e+02 0.0 
0.0 0.0 -1.586344445034e+02 
-5.541213207334e+01 3.068959804054e+01 0.0 
3.068959804054e+01 -1.097528573205e+02 0.0 
0.0 0.0 -4.774597577174e+01 
-1.265551202531e+02 -8.650019746557e-01 0.0 
-8.650019746557e-01 -3.025413047235e+02 0.0 
0.0 0.0 -1.277090652431e+02 
-4.617357101367e+01 2.565063329061e+01 0.0 
2.565063329061e+01 -4.887934181607e+01 0.0 
0.0 0.0 -2.527186690343e+01 
-1.124333689045e+02 1.623184817666e+01 0.0 
1.623184817666e+01 -2.837343075119e+02 0.0 
0.0 0.0 -1.184503029249e+02 
-7.201073022545e+01 4.777966047504e-01 0.0 
4.777966047504e-01 -1.432661798064e+02 0.0 
0.0 0.0 -6.418307300956e+01 
-6.557408662096e+01 2.720585618755e+01 0.0 
2.720585618755e+01 -1.601295340241e+02 0.0 
0.0 0.0 -6.713716589312e+01 
-1.380025238494e+02 1.232071000296e+00 0.0 
1.232071000296e+00 -3.319003146804e+02 0.0 
0.0 0.0 -1.405708515589e+02 
-3.837830999139e+01 -9.771065930939e+00 0.0 
-9.771065930939e+00 -6.406836423537e+01 0.0 
0.0 0.0 -2.720921663266e+01 
-1.471322517860e+02 -3.432619788470e-01 0.0 
-3.432619788470e-01 -3.513326327224e+02 0.0 
0.0 0.0 -1.491394653525e+02 
-8.368335842257e+01 9.864999555715e+00 0.0 
9.864999555715e+00 -1.513793281806e+02 0.0 
0.0 0.0 -6.894150300703e+01 
-1.580209519602e+02 1.865745122782e+00 0.0 
1.865745122782e+00 -3.762416745200e+02 0.0 
0.0 0.0 -1.598787879441e+02 
-7.135294303704e+01 1.061661409499e-01 0.0 
1.061661409499e-01 -1.422049329651e+02 0.0 
0.0 0.0 -6.366736280065e+01 
-5.815019377271e+01 2.986103913300e+01 0.0 
2.986103913300e+01 -1.265941022818e+02 0.0 
0.0 0.0 -5.440888703942e+01 
-7.190886563383e+01 6.093360208907e+00 0.0 
6.093360208907e+00 -1.202185386235e+02 0.0 
0.0 0.0 -5.579664868513e+01 
-1.155028869828e+02 -4.655670118264e-02 0.0 
-4.655670118264e-02 -2.605726505878e+02 0.0 
0.0 0.0 -1.094763578624e+02 
-4.458580010120e+01 2.465268326596e+01 0.0 
2.465268326596e+01 -4.808922656966e+01 0.0 
0.0 0.0 -2.455661440705e+01 
-6.065651886656e+01 2.456679190617e+01 0.0 
2.456679190617e+01 -1.563818583754e+02 0.0 
0.0 0.0 -6.306580223909e+01 
-1.002926328035e+02 2.417409156255e+00 0.0 
2.417409156255e+00 -2.143794532288e+02 0.0 
0.0 0.0 -9.400162580970e+01 
-7.187402886969e+01 -7.034707455531e-02 0.0 
-7.034707455531e-02 -1.421169413413e+02 0.0 
0.0 0.0 -6.379729106330e+01 
-6.397696375100e+01 2.847686150737e+01 0.0 
2.847686150737e+01 -1.445979011159e+02 0.0 
0.0 0.0 -6.245191624629e+01 
-6.900883494957e+01 6.511388362868e+00 0.0 
6.511388362868e+00 -1.108164513423e+02 0.0 
0.0 0.0 -5.131871634444e+01 
-1.239099765191e+02 1.730932805001e+01 0.0 
1.730932805001e+01 -2.806718280943e+02 0.0 
0.0 0.0 -1.209745413840e+02 
-8.763195179190e+01 -3.235216550021e+00 0.0 
-3.235216550021e+00 -1.838316683680e+02 0.0 
0.0 0.0 -7.587036971672e+01 
-1.444414779528e+02 1.939913152451e+01 0.0 
1.939913152451e+01 -3.402000576550e+02 0.0 
0.0 0.0 -1.449924606823e+02 
-1.406476033212e+02 2.052688809785e+01 0.0 
2.052688809785e+01 -3.251042291473e+02 0.0 
0.0 0.0 -1.393255497405e+02 
-5.337762651369e+01 2.516859325988e+01 0.0 
2.516859325988e+01 -7.605330441391e+01 0.0 
0.0 0.0 -3.485016349063e+01 
-9.002849381376e+01 -3.144600745038e+00 0.0 
-3.144600745038e+00 -1.845967283529e+02 0.0 
0.0 0.0 -7.666542945718e+01 
-1.322738564523e+02 1.264820279022e+01 0.0 
1.264820279022e+01 -3.318989856384e+02 0.0 
0.0 0.0 -1.388518526272e+02 
-6.933012999069e+01 1.515500562365e+01 0.0 
1.515500562365e+01 -1.057005636519e+02 0.0 
0.0 0.0 -4.729653064925e+01 
-4.849974851648e+01 2.510415243721e+01 0.0 
2.510415243721e+01 -6.831313525119e+01 0.0 
0.0 0.0 -3.316430461833e+01 
-7.943947861790e+01 7.794251468459e+00 0.0 
7.794251468459e+00 -1.405790167480e+02 0.0 
0.0 0.0 -6.456406370240e+01 
-6.386330883590e+01 2.735559374174e+01 0.0 
2.735559374174e+01 -1.471832024542e+02 0.0 
0.0 0.0 -6.113916288874e+01 
-1.264391493157e+02 3.105535224316e+00 0.0 
3.105535224316e+00 -2.917560081684e+02 0.0 
0.0 0.0 -1.250585472452e+02 
-1.131717215715e+02 1.269312263311e+01 0.0 
1.269312263311e+01 -2.412625705578e+02 0.0 
0.0 0.0 -1.059302876388e+02 
-1.426850569687e+02 -6.834405093943e-01 0.0 
-6.834405093943e-01 -3.418428325447e+02 0.0 
0.0 0.0 -1.449583668540e+02 
-4.406445668003e+01 2.977405995316e+01 0.0 
2.977405995316e+01 -4.838556873081e+01 0.0 
0.0 0.0 -2.385085513320e+01 
-5.673302883447e+01 2.287122996838e+01 0.0 
2.287122996838e+01 -1.541620458688e+02 0.0 
0.0 0.0 -6.005586346846e+01 
-1.167798180452e+02 1.399504588447e+01 0.0 
1.399504588447e+01 -2.529623146885e+02 0.0 
0.0 0.0 -1.105226398201e+02 
-8.742395772467e+01 2.806746493588e+01 0.0 
2.806746493588e+01 -7.844554884476e+01 0.0 
0.0 0.0 -5.002881032334e+01 
-6.826402986483e+01 1.146144917416e+01 0.0 
1.146144917416e+01 -1.053268631528e+02 0.0 
0.0 0.0 -4.711161718951e+01 
-1.230566296793e+02 9.435567835298e+00 0.0 
9.435567835298e+00 -3.165132037464e+02 0.0 
0.0 0.0 -1.314709500277e+02 
-1.762326781607e+01 -2.016572391330e-01 0.0 
-2.016572391330e-01 -4.230082706706e+01 0.0 
0.0 0.0 -1.547937465319e+01 
-1.326430540846e+02 1.342386947450e+01 0.0 
1.342386947450e+01 -3.001170779082e+02 0.0 
0.0 0.0 -1.294280395979e+02 
-1.021888505759e+02 8.611974754389e+00 0.0 
8.611974754389e+00 -2.083598603404e+02 0.0 
0.0 0.0 -9.276461327487e+01 
-7.446749056258e+01 -1.035903508099e+01 0.0 
-1.035903508099e+01 -1.799570879917e+02 0.0 
0.0 0.0 -7.406825101400e+01 
-1.212231536947e+02 8.239726184903e+00 0.0 
8.239726184903e+00 -3.156129436034e+02 0.0 
0.0 0.0 -1.306508291894e+02 
-8.748161724648e+01 7.105807131398e+00 0.0 
7.105807131398e+00 -1.647514029691e+02 0.0 
0.0 0.0 -7.526990606467e+01 
-9.261170198078e+01 6.816797224939e+00 0.0 
6.816797224939e+00 -1.793132853441e+02 0.0 
0.0 0.0 -8.117749619746e+01 
-1.484611148004e+02 1.031206613410e+01 0.0 
1.031206613410e+01 -3.605135681601e+02 0.0 
0.0 0.0 -1.522924048882e+02 
-6.104945307390e+01 -1.254562759030e+01 0.0 
-1.254562759030e+01 -1.338237169423e+02 0.0 
0.0 0.0 -5.484802449052e+01 
-8.654457793558e+01 2.043831205549e+01 0.0 
2.043831205549e+01 -1.673918013920e+02 0.0 
0.0 0.0 -7.192590317954e+01 
-8.766479460341e+01 1.196770571763e+01 0.0 
1.196770571763e+01 -1.628949225699e+02 0.0 
0.0 0.0 -7.352523327141e+01 
-1.073439107958e+02 1.043750530473e+01 0.0 
1.043750530473e+01 -2.194934973577e+02 0.0 
0.0 0.0 -9.765122244606e+01 
-8.785080233176e+01 1.206364439949e+01 0.0 
1.206364439949e+01 -1.614436181374e+02 0.0 
0.0 0.0 -7.387263623608e+01 
-8.150691722203e+01 1.063596051366e+01 0.0 
1.063596051366e+01 -1.411890806461e+02 0.0 
0.0 0.0 -6.518206727882e+01 
-9.562367440544e+01 1.726954087821e+01 0.0 
1.726954087821e+01 -2.579215447372e+02 0.0 
0.0 0.0 -1.064195124128e+02 
-1.206892787316e+02 1.874894381232e+01 0.0 
1.874894381232e+01 -2.684388676261e+02 0.0 
0.0 0.0 -1.163384439073e+02 
-6.055545098074e+01 2.659644159091e+01 0.0 
2.659644159091e+01 -9.113629451483e+01 0.0 
0.0 0.0 -4.663133075384e+01 
-5.360989469534e+01 2.336717108559e+01 0.0 
2.336717108559e+01 -7.598825017012e+01 0.0 
0.0 0.0 -3.619459876544e+01 
-6.059865681498e+01 2.329380903973e+01 0.0 
2.329380903973e+01 -9.683194430275e+01 0.0 
0.0 0.0 -4.429969000500e+01 
-8.189517069472e+01 2.042862397783e+01 0.0 
2.042862397783e+01 -1.533073569697e+02 0.0 
0.0 0.0 -6.656973087561e+01 
-1.183820218974e+02 1.454968885314e+01 0.0 
1.454968885314e+01 -2.522530568675e+02 0.0 
0.0 0.0 -1.107905236295e+02 
-3.694546843730e+01 2.299419906510e+01 0.0 
2.299419906510e+01 -1.158211090169e+02 0.0 
0.0 0.0 -4.387342709788e+01 
-1.185390061536e+02 7.583085304085e+00 0.0 
7.583085304085e+00 -3.079690314198e+02 0.0 
0.0 0.0 -1.275524112720e+02 
-7.185387485408e+01 1.572454588926e+00 0.0 
1.572454588926e+00 -1.408432088132e+02 0.0 
0.0 0.0 -6.340912510020e+01 
-6.104207370935e+01 2.602849783031e+01 0.0 
2.602849783031e+01 -1.581239136866e+02 0.0 
0.0 0.0 -6.414841169128e+01 
-1.143954842666e+02 5.726872746553e+00 0.0 
5.726872746553e+00 -2.990477329401e+02 0.0 
0.0 0.0 -1.236329651620e+02 
-1.413338128771e+01 1.882770813842e-01 0.0 
1.882770813842e-01 -2.820874431260e+01 0.0 
0.0 0.0 -1.083681656591e+01 
-1.091865426803e+02 9.503510638065e+00 0.0 
9.503510638065e+00 -2.287621273165e+02 0.0 
0.0 0.0 -1.009846009990e+02 
-1.450165690473e+01 -1.470422713238e-01 0.0 
-1.470422713238e-01 -2.409553033478e+01 0.0 
0.0 0.0 -9.949258428994e+00 
-1.391079562753e+01 -1.222426599281e+00 0.0 
-1.222426599281e+00 -4.274142948786e+01 0.0 
0.0 0.0 -1.498979132150e+01 
-4.244887450618e+01 2.849344986810e+01 0.0 
2.849344986810e+01 -4.776406598319e+01 0.0 
0.0 0.0 -2.331221775563e+01 
-5.362679231648e+01 -1.249773806093e+01 0.0 
-1.249773806093e+01 -1.131468953845e+02 0.0 
0.0 0.0 -4.643733230600e+01 
-1.141886449158e+02 1.125074202219e+01 0.0 
1.125074202219e+01 -2.397661269737e+02 0.0 
0.0 0.0 -1.057864315669e+02 
-5.121895998536e+01 -1.280764081697e+01 0.0 
-1.280764081697e+01 -1.058390682445e+02 0.0 
0.0 0.0 -4.358914079891e+01 
-4.738110705607e+01 3.159197148198e+01 0.0 
3.159197148198e+01 -9.021627618096e+01 0.0 
0.0 0.0 -3.738366321810e+01 
-5.096873444178e+01 -2.091284192671e+01 0.0 
-2.091284192671e+01 -1.108255448750e+02 0.0 
0.0 0.0 -4.270657566510e+01 
-3.904021957121e+01 -9.676640308188e+00 0.0 
-9.676640308188e+00 -7.133521542563e+01 0.0 
0.0 0.0 -2.978763587700e+01 
-1.261535979681e+02 9.887942942249e+00 0.0 
9.887942942249e+00 -3.234276933970e+02 0.0 
0.0 0.0 -1.344743874095e+02 
-8.536495732483e+01 1.279344375091e+01 0.0 
1.279344375091e+01 -1.521799528188e+02 0.0 
0.0 0.0 -6.963370130295e+01 
-1.563710455404e+02 3.886093880381e-01 0.0 
3.886093880381e-01 -3.715797988813e+02 0.0 
0.0 0.0 -1.579852533265e+02 
-6.670949026394e+01 1.254479545333e+01 0.0 
1.254479545333e+01 -1.092901825340e+02 0.0 
0.0 0.0 -5.334160136424e+01 
-5.065647882283e+01 3.084610436033e+01 0.0 
3.084610436033e+01 -1.082843395993e+02 0.0 
0.0 0.0 -4.421548123187e+01 
-6.710101883061e+01 2.479548290890e+01 0.0 
2.479548290890e+01 -1.749948178413e+02 0.0 
0.0 0.0 -7.218259285726e+01 
-6.415270645633e+01 1.312592265912e+01 0.0 
1.312592265912e+01 -9.589361887614e+01 0.0 
0.0 0.0 -4.255757753080e+01 
-1.164107214696e+02 6.530391974158e+00 0.0 
6.530391974158e+00 -3.069557353890e+02 0.0 
0.0 0.0 -1.266099370576e+02 
-1.588270037260e+02 1.518814213499e+00 0.0 
1.518814213499e+00 -3.780313594762e+02 0.0 
0.0 0.0 -1.606575089607e+02 
-1.114443228690e+02 1.379877439171e+01 0.0 
1.379877439171e+01 -2.315052628901e+02 0.0 
0.0 0.0 -1.024848757277e+02 
-4.805629614574e+01 2.128905254635e+01 0.0 
2.128905254635e+01 -1.371395270249e+02 0.0 
0.0 0.0 -5.003156630245e+01 
-1.274668717620e+02 1.098783732119e+01 0.0 
1.098783732119e+01 -3.240013232672e+02 0.0 
0.0 0.0 -1.350404585088e+02 
-1.209717394438e+02 -1.318029402908e+00 0.0 
-1.318029402908e+00 -2.815961084854e+02 0.0 
0.0 0.0 -1.186066707363e+02 
-8.551204708277e+01 1.893656987589e+01 0.0 
1.893656987589e+01 -1.606415774101e+02 0.0 
0.0 0.0 -7.089775263160e+01 
-1.058676292748e+02 9.918224793202e+00 0.0 
9.918224793202e+00 -2.187997218117e+02 0.0 
0.0 0.0 -9.700020532594e+01 
-1.404021453430e+02 1.955399182189e+01 0.0 
1.955399182189e+01 -3.331121973855e+02 0.0 
0.0 0.0 -1.416543028185e+02 
-6.285740186918e+01 2.160288078799e+01 0.0 
2.160288078799e+01 -1.705403865128e+02 0.0 
0.0 0.0 -6.799486060996e+01 
-4.622901354990e+01 3.055946483783e+01 0.0 
3.055946483783e+01 -8.794057250157e+01 0.0 
0.0 0.0 -3.617147943297e+01 
-9.387135837494e+01 1.321114114115e+01 0.0 
1.321114114115e+01 -1.814374493165e+02 0.0 
0.0 0.0 -8.219264230742e+01 
-1.358885509388e+02 8.024626240755e+00 0.0 
8.024626240755e+00 -3.136136818736e+02 0.0 
0.0 0.0 -1.344506698437e+02 
-8.376326986285e+01 2.155583708620e+01 0.0 
2.155583708620e+01 -1.673171464807e+02 0.0 
0.0 0.0 -7.169739180565e+01 
-7.723302157039e+01 1.646835595338e+01 0.0 
1.646835595338e+01 -2.152382098998e+02 0.0 
0.0 0.0 -9.060691430279e+01 
-7.953907142157e+01 9.448480876051e-01 0.0 
9.448480876051e-01 -1.607607220175e+02 0.0 
0.0 0.0 -7.168993803171e+01 
-4.525426686377e+01 -1.515185925785e+01 0.0 
-1.515185925785e+01 -6.947873452650e+01 0.0 
0.0 0.0 -2.800130086880e+01 
-8.560522328334e+01 9.240863476846e+00 0.0 
9.240863476846e+00 -1.599664647014e+02 0.0 
0.0 0.0 -7.283282624725e+01 
-5.181724075196e+01 2.540424843171e+01 0.0 
2.540424843171e+01 -1.411998870585e+02 0.0 
0.0 0.0 -5.464828481434e+01 
-4.049778374999e+01 2.063964674515e+01 0.0 
2.063964674515e+01 -1.283895242586e+02 0.0 
0.0 0.0 -4.807598022411e+01 
-4.119736686459e+01 -1.963468571072e+01 0.0 
-1.963468571072e+01 -1.177255084084e+02 0.0 
0.0 0.0 -4.441877739174e+01 
-1.123019816660e+02 9.128069992778e+00 0.0 
9.128069992778e+00 -2.385727105538e+02 0.0 
0.0 0.0 -1.048624076659e+02 
-9.117836492939e+01 1.394582129092e+01 0.0 
1.394582129092e+01 -1.726788126763e+02 0.0 
0.0 0.0 -7.834748418969e+01 
-6.176061026022e+01 2.989331186230e+01 0.0 
2.989331186230e+01 -1.299459600649e+02 0.0 
0.0 0.0 -5.662631687386e+01 
-1.172119178726e+02 1.080848128337e+01 0.0 
1.080848128337e+01 -2.495732463428e+02 0.0 
0.0 0.0 -1.096355492646e+02 
-1.149342604433e+02 1.513472593659e+01 0.0 
1.513472593659e+01 -2.427160321361e+02 0.0 
0.0 0.0 -1.068950877738e+02 
-8.863624811810e+01 1.766845959748e+01 0.0 
1.766845959748e+01 -1.682382124257e+02 0.0 
0.0 0.0 -7.497910746549e+01 
-1.600489654857e+02 3.098194493714e+00 0.0 
3.098194493714e+00 -3.783532620291e+02 0.0 
0.0 0.0 -1.611206682544e+02 
-8.207969425145e+01 1.584938835978e+01 0.0 
1.584938835978e+01 -2.320546856567e+02 0.0 
0.0 0.0 -9.869000071610e+01 
-9.141800671616e+01 1.659872882481e+01 0.0 
1.659872882481e+01 -1.760862428641e+02 0.0 
0.0 0.0 -7.893801446609e+01 
-7.015271589616e+01 2.500085603445e+01 0.0 
2.500085603445e+01 -1.657966643652e+02 0.0 
0.0 0.0 -6.916232075570e+01 
-8.390339707517e+01 1.547443509018e+01 0.0 
1.547443509018e+01 -2.322546594831e+02 0.0 
0.0 0.0 -9.871674027486e+01 
-4.433039820761e+01 1.849048386310e+01 0.0 
1.849048386310e+01 -1.402598193064e+02 0.0 
0.0 0.0 -5.197011554677e+01 
-7.828439583885e+01 4.629104044360e+00 0.0 
4.629104044360e+00 -1.459222143958e+02 0.0 
0.0 0.0 -6.686198307039e+01 
-6.505743322250e+01 1.818663562727e+01 0.0 
1.818663562727e+01 -1.834283980773e+02 0.0 
0.0 0.0 -7.287668295808e+01 
-5.381462491110e+01 -5.116794613322e+00 0.0 
-5.116794613322e+00 -1.630647123259e+02 0.0 
0.0 0.0 -6.214550338194e+01 
-1.096236266263e+02 1.136475468006e+01 0.0 
1.136475468006e+01 -2.300770142213e+02 0.0 
0.0 0.0 -1.015101922543e+02 
-1.230798582315e+02 5.400255549030e+00 0.0 
5.400255549030e+00 -1.011491347961e+02 0.0 
0.0 0.0 -6.754243908063e+01 
-9.032514679442e+01 1.151098274501e+01 0.0 
1.151098274501e+01 -1.705563522278e+02 0.0 
0.0 0.0 -7.786444970667e+01 
-5.280309634241e+01 2.096695657186e+01 0.0 
2.096695657186e+01 -1.548244201085e+02 0.0 
0.0 0.0 -5.914754898310e+01 
-4.616810054675e+01 2.861342932390e+01 0.0 
2.861342932390e+01 -1.052891410936e+02 0.0 
0.0 0.0 -4.057594464240e+01 
-4.160493933043e+01 1.207252204217e+01 0.0 
1.207252204217e+01 -1.370571159863e+02 0.0 
0.0 0.0 -4.943232861297e+01 
-9.610965812725e+01 1.217271305206e+01 0.0 
1.217271305206e+01 -1.917503739869e+02 0.0 
0.0 0.0 -8.595800963426e+01 
-2.418511179672e+01 -2.519131160437e+00 0.0 
-2.519131160437e+00 -4.200265218817e+01 0.0 
0.0 0.0 -1.601965282936e+01 
-6.499543951099e+01 1.986243300949e+01 0.0 
1.986243300949e+01 -1.027311828354e+02 0.0 
0.0 0.0 -4.640537685520e+01 
-8.854478428627e+01 1.463227431712e+01 0.0 
1.463227431712e+01 -2.479207483623e+02 0.0 
0.0 0.0 -1.060619476864e+02 
-8.961866947174e+01 1.118827334450e+01 0.0 
1.118827334450e+01 -1.712524082657e+02 0.0 
0.0 0.0 -7.738965338231e+01 
-8.630810287541e+01 6.090137330843e+00 0.0 
6.090137330843e+00 -1.644488598751e+02 0.0 
0.0 0.0 -7.482708882516e+01 
-3.453651986033e+01 2.059630542762e+01 0.0 
2.059630542762e+01 -1.209447142045e+02 0.0 
0.0 0.0 -4.915513142922e+01 
-5.061787685503e+01 2.891698124343e-01 0.0 
2.891698124343e-01 -1.625224663139e+02 0.0 
0.0 0.0 -6.028894544752e+01 
-5.371109406793e+01 -1.064629986450e+01 0.0 
-1.064629986450e+01 -1.539735919824e+02 0.0 
0.0 0.0 -5.887552393175e+01 
-5.727567433251e+01 2.283788178293e+01 0.0 
2.283788178293e+01 -8.110746350272e+01 0.0 
0.0 0.0 -3.703234561100e+01 
-1.077611094926e+02 1.242659249675e+01 0.0 
1.242659249675e+01 -2.202716599649e+02 0.0 
0.0 0.0 -9.800983083725e+01 
-6.468613302877e+01 2.305614366693e+01 0.0 
2.305614366693e+01 -1.035595619280e+02 0.0 
0.0 0.0 -4.591367363842e+01 
-6.419239522328e+01 1.893267398394e+01 0.0 
1.893267398394e+01 -1.840890921433e+02 0.0 
0.0 0.0 -7.331907677923e+01 
-6.257169651318e+01 2.267161788441e+01 0.0 
2.267161788441e+01 -1.718295295796e+02 0.0 
0.0 0.0 -6.886603716541e+01 
-3.226215907734e+01 1.585787350609e+01 0.0 
1.585787350609e+01 -1.131705424808e+02 0.0 
0.0 0.0 -4.365614913003e+01 
-7.681379528998e+01 2.552923937642e+01 0.0 
2.552923937642e+01 -1.823464273165e+02 0.0 
0.0 0.0 -7.864310026261e+01 
-4.249604635817e+01 3.133379539198e+01 0.0 
3.133379539198e+01 -7.031271536769e+01 0.0 
0.0 0.0 -2.901214748592e+01 
-1.399800114047e+02 1.420969982884e+01 0.0 
1.420969982884e+01 -3.206836772976e+02 0.0 
0.0 0.0 -1.377991066107e+02 
-1.408496178935e+02 1.658393332213e+01 0.0 
1.658393332213e+01 -3.238731885575e+02 0.0 
0.0 0.0 -1.390168419353e+02 
-8.886725461558e+01 2.187679811989e+01 0.0 
2.187679811989e+01 -1.820879811906e+02 0.0 
0.0 0.0 -7.807901805783e+01 
-4.806854846651e+01 2.234072183234e+01 0.0 
2.234072183234e+01 -1.405845063360e+02 0.0 
0.0 0.0 -5.274663372842e+01 
-4.296946920144e+01 2.724588680514e+01 0.0 
2.724588680514e+01 -1.053060985849e+02 0.0 
0.0 0.0 -3.851778803626e+01 
-9.451606293676e+01 1.584528730739e+01 0.0 
1.584528730739e+01 -1.877706618028e+02 0.0 
0.0 0.0 -8.309436247203e+01 
-4.334893508788e+01 2.291100722286e+01 0.0 
2.291100722286e+01 -1.221149894408e+02 0.0 
0.0 0.0 -4.377162602626e+01 
-4.874453680566e+01 -5.906304185573e+00 0.0 
-5.906304185573e+00 -1.528000086169e+02 0.0 
0.0 0.0 -5.638159585284e+01 
-8.646968488076e+01 1.656540138694e+01 0.0 
1.656540138694e+01 -1.597668137797e+02 0.0 
0.0 0.0 -7.033734520573e+01 
-1.295082689257e+02 5.664700295669e+00 0.0 
5.664700295669e+00 -2.946201066900e+02 0.0 
0.0 0.0 -1.268385126847e+02 
-5.674229528534e+01 2.396470544776e+01 0.0 
2.396470544776e+01 -1.563090079452e+02 0.0 
0.0 0.0 -6.151922247643e+01 
-9.768171801832e+01 1.617620637876e+01 0.0 
1.617620637876e+01 -2.586094543390e+02 0.0 
0.0 0.0 -1.094381721516e+02 
-4.524342262412e+01 3.155577849873e+01 0.0 
3.155577849873e+01 -9.148144025462e+01 0.0 
0.0 0.0 -3.678043303212e+01 
-1.607042684714e+02 1.292513783415e+01 0.0 
1.292513783415e+01 -3.835053885083e+02 0.0 
0.0 0.0 -1.628628970939e+02 
-4.770967501148e+01 2.695566152620e+01 0.0 
2.695566152620e+01 -1.260443430974e+02 0.0 
0.0 0.0 -4.816765606012e+01 
-8.956213852410e+01 1.861507857762e+01 0.0 
1.861507857762e+01 -1.736497859415e+02 0.0 
0.0 0.0 -7.543722925993e+01 
-3.728671701300e+01 1.602758844958e+01 0.0 
1.602758844958e+01 -1.298406319149e+02 0.0 
0.0 0.0 -4.969761774548e+01 
-9.537573831275e+01 6.775098402451e+00 0.0 
6.775098402451e+00 -2.691690261471e+02 0.0 
0.0 0.0 -1.133305939591e+02 
-6.858641895281e+01 2.164682173552e+01 0.0 
2.164682173552e+01 -1.882731994816e+02 0.0 
0.0 0.0 -7.698817157765e+01 
-5.304224632123e+01 -9.093122431219e+00 0.0 
-9.093122431219e+00 -1.555591386190e+02 0.0 
0.0 0.0 -5.807083356731e+01 
-8.867768016600e+01 1.479978818948e+01 0.0 
1.479978818948e+01 -1.639986432444e+02 0.0 
0.0 0.0 -7.428302309944e+01 
-1.444988275243e+02 1.972879434655e+01 0.0 
1.972879434655e+01 -3.340293726895e+02 0.0 
0.0 0.0 -1.431584600641e+02 
-5.828465749522e+01 1.982706822182e+01 0.0 
1.982706822182e+01 -1.691143590175e+02 0.0 
0.0 0.0 -6.596498596002e+01 
-8.706484205261e+01 1.390697393738e+01 0.0 
1.390697393738e+01 -2.453183932843e+02 0.0 
0.0 0.0 -1.040151657255e+02 
-4.171847808041e+01 2.966105981437e+01 0.0 
2.966105981437e+01 -8.891130782453e+01 0.0 
0.0 0.0 -3.374628810127e+01 
-9.654571002352e+01 4.249163599308e+00 0.0 
4.249163599308e+00 -1.976887009108e+02 0.0 
0.0 0.0 -8.787032328030e+01 
-1.119717835251e+02 4.757177763837e+00 0.0 
4.757177763837e+00 -2.978416467414e+02 0.0 
0.0 0.0 -1.225440290799e+02 
-4.967767504950e+01 2.985997328201e+01 0.0 
2.985997328201e+01 -8.909536751835e+01 0.0 
0.0 0.0 -3.802773027124e+01 
-9.420661335135e+01 5.268040491030e+00 0.0 
5.268040491030e+00 -1.892061341833e+02 0.0 
0.0 0.0 -8.462382426038e+01 
-1.476524566321e+02 2.151491674888e+01 0.0 
2.151491674888e+01 -3.442512981175e+02 0.0 
0.0 0.0 -1.471711264249e+02 
-1.221154719031e+02 5.961136427635e+00 0.0 
5.961136427635e+00 -3.164893219657e+02 0.0 
0.0 0.0 -1.311814381606e+02 
-1.435628513320e+02 1.875995643044e+01 0.0 
1.875995643044e+01 -3.306379819077e+02 0.0 
0.0 0.0 -1.418602499719e+02 
-9.512601905424e+01 6.657758087839e+00 0.0 
6.657758087839e+00 -1.883989703243e+02 0.0 
0.0 0.0 -8.465749681355e+01 
-1.143206751679e+02 1.695268597485e+01 0.0 
1.695268597485e+01 -2.450151317085e+02 0.0 
0.0 0.0 -1.074007420629e+02 
-4.635282039095e+01 2.978775947190e+01 0.0 
2.978775947190e+01 -6.875534576405e+01 0.0 
0.0 0.0 -3.067254000208e+01 
-8.287397057276e+01 1.366862909872e+01 0.0 
1.366862909872e+01 -1.437413240508e+02 0.0 
0.0 0.0 -6.557761268060e+01 
-9.129403196262e+01 1.398552258111e+01 0.0 
1.398552258111e+01 -1.750634654729e+02 0.0 
0.0 0.0 -7.824894390093e+01 
-9.402605515784e+01 1.570593686325e+01 0.0 
1.570593686325e+01 -1.843047068299e+02 0.0 
0.0 0.0 -8.288460275316e+01 
-7.962490110230e+01 2.288601061867e+01 0.0 
2.288601061867e+01 -1.612879476755e+02 0.0 
0.0 0.0 -6.841947095104e+01 
-1.499638269758e+02 2.181788142000e+01 0.0 
2.181788142000e+01 -3.518227827102e+02 0.0 
0.0 0.0 -1.501359829058e+02 
-9.196584020652e+01 6.707535708519e+00 0.0 
6.707535708519e+00 -1.791857832964e+02 0.0 
0.0 0.0 -8.094548705089e+01 
-8.416359166810e+01 1.014728032613e+01 0.0 
1.014728032613e+01 -1.509025535526e+02 0.0 
0.0 0.0 -6.957944464380e+01 
-5.896408258436e+01 1.934961330015e+01 0.0 
1.934961330015e+01 -1.680739533637e+02 0.0 
0.0 0.0 -6.513911347544e+01 
-4.656720324769e+01 -1.169840902872e+01 0.0 
-1.169840902872e+01 -9.243782700880e+01 0.0 
0.0 0.0 -3.823299096741e+01 
-7.912114991523e+01 1.141640058164e+01 0.0 
1.141640058164e+01 -1.323069124195e+02 0.0 
0.0 0.0 -6.100926186441e+01 
-5.298600266946e+01 3.076581125445e+01 0.0 
3.076581125445e+01 -1.082263214445e+02 0.0 
0.0 0.0 -4.618650747974e+01 
-7.227519804205e+01 5.878555739745e-01 0.0 
5.878555739745e-01 -1.430776244912e+02 0.0 
0.0 0.0 -6.420584675997e+01 
-5.806868323186e+01 -1.277901029710e+01 0.0 
-1.277901029710e+01 -1.578919220139e+02 0.0 
0.0 0.0 -6.234142261786e+01 
-5.325120782536e+01 2.021947531288e+01 0.0 
2.021947531288e+01 -1.525271413308e+02 0.0 
0.0 0.0 -5.740432245719e+01 
-1.128840614878e+02 1.081677690930e+01 0.0 
1.081677690930e+01 -2.396730822028e+02 0.0 
0.0 0.0 -1.053671431072e+02 
-4.932660896425e+01 2.931581263709e+01 0.0 
2.931581263709e+01 -1.064351535602e+02 0.0 
0.0 0.0 -4.291640270411e+01 
-8.523444037426e+01 1.292126267050e+01 0.0 
1.292126267050e+01 -1.545390475663e+02 0.0 
0.0 0.0 -6.944699108779e+01 
-9.128703954052e+01 1.181538388653e+01 0.0 
1.181538388653e+01 -2.568092946115e+02 0.0 
0.0 0.0 -1.100531393254e+02 
-9.218198656779e+01 -1.539046886653e+00 0.0 
-1.539046886653e+00 -2.409602434007e+02 0.0 
0.0 0.0 -1.007554194687e+02 
-1.538122067711e+02 2.053921871975e+01 0.0 
2.053921871975e+01 -3.633454716612e+02 0.0 
0.0 0.0 -1.547473035297e+02 
-7.305374616061e+01 1.356749638411e+01 0.0 
1.356749638411e+01 -1.150066435026e+02 0.0 
0.0 0.0 -5.228137222545e+01 
-4.758677497236e+01 5.765140214414e+00 0.0 
5.765140214414e+00 -1.574709280113e+02 0.0 
0.0 0.0 -5.815015739586e+01 
-7.390341301985e+01 -1.425998924423e+01 0.0 
-1.425998924423e+01 -1.748105147395e+02 0.0 
0.0 0.0 -7.347618268652e+01 
-4.963500485007e+01 2.698155035798e+01 0.0 
2.698155035798e+01 -7.018371086091e+01 0.0 
0.0 0.0 -3.236167866123e+01 
-4.979075079111e+01 3.064058352674e+01 0.0 
3.064058352674e+01 -8.910369110072e+01 0.0 
0.0 0.0 -3.932473433005e+01 
-1.217688671465e+02 1.576285235291e+01 0.0 
1.576285235291e+01 -2.635569981473e+02 0.0 
0.0 0.0 -1.151977595881e+02 
-9.070483576694e+01 1.914234394051e+01 0.0 
1.914234394051e+01 -1.810973215699e+02 0.0 
0.0 0.0 -7.980004235096e+01 
-6.576171098722e+01 1.737073936099e+01 0.0 
1.737073936099e+01 -9.671509186506e+01 0.0 
0.0 0.0 -4.301077736831e+01 
-7.856403881777e+01 1.157310239146e+01 0.0 
1.157310239146e+01 -1.340341711590e+02 0.0 
0.0 0.0 -6.053981632424e+01 
-1.574515489808e+02 1.676388630012e+01 0.0 
1.676388630012e+01 -3.753553572774e+02 0.0 
0.0 0.0 -1.594420718775e+02 
-1.469940401514e+02 1.680990763246e+01 0.0 
1.680990763246e+01 -3.553460014085e+02 0.0 
0.0 0.0 -1.503020124680e+02 
-1.201136767945e+02 1.342484343343e+01 0.0 
1.342484343343e+01 -2.621332418176e+02 0.0 
0.0 0.0 -1.142740755836e+02 
-1.111719592486e+02 1.180253791835e+01 0.0 
1.180253791835e+01 -2.301740604659e+02 0.0 
0.0 0.0 -1.020038059143e+02 
-9.141056362350e+01 -5.209618547359e+00 0.0 
-5.209618547359e+00 -2.361642192903e+02 0.0 
0.0 0.0 -1.001690507250e+02 
-6.711900219223e+01 2.477082804392e+01 0.0 
2.477082804392e+01 -1.193401675925e+02 0.0 
0.0 0.0 -5.202826495902e+01 
-4.455456881615e+01 1.763929709860e+01 0.0 
1.763929709860e+01 -1.369587665798e+02 0.0 
0.0 0.0 -4.915761908477e+01 
-5.004364294859e+01 1.647978542204e+01 0.0 
1.647978542204e+01 -1.512650343068e+02 0.0 
0.0 0.0 -5.528559219410e+01 
-8.743866413206e+01 2.029355383435e+01 0.0 
2.029355383435e+01 -1.740351600552e+02 0.0 
0.0 0.0 -7.585014293070e+01 
-9.191736058637e+01 8.357090338710e+00 0.0 
8.357090338710e+00 -2.609647470779e+02 0.0 
0.0 0.0 -1.108408962038e+02 
-9.353146610503e+01 -6.387638670890e+00 0.0 
-6.387638670890e+00 -2.044755194345e+02 0.0 
0.0 0.0 -8.483954314241e+01 
-1.196240332221e+02 1.171595713418e+01 0.0 
1.171595713418e+01 -2.603647866056e+02 0.0 
0.0 0.0 -1.135966459483e+02 
-4.928445187014e+01 -6.450473108057e-01 0.0 
-6.450473108057e-01 -1.565638509626e+02 0.0 
0.0 0.0 -5.830813770270e+01 
-7.513421377053e+01 2.414705154463e+01 0.0 
2.414705154463e+01 -1.558408445635e+02 0.0 
0.0 0.0 -6.631990196536e+01 
-8.890245913308e+01 1.511352638810e+01 0.0 
1.511352638810e+01 -1.670910019246e+02 0.0 
0.0 0.0 -7.427083814461e+01 
-6.898186767362e+01 2.543167468362e+01 0.0 
2.543167468362e+01 -1.354340071762e+02 0.0 
0.0 0.0 -5.817630703925e+01 
-1.429059561142e+02 1.776840256089e+01 0.0 
1.776840256089e+01 -3.275523561548e+02 0.0 
0.0 0.0 -1.407374936807e+02 
-1.398120474171e+02 1.510948732174e+01 0.0 
1.510948732174e+01 -3.217401662731e+02 0.0 
0.0 0.0 -1.380656641071e+02 
-1.343491866923e+02 1.579083590897e+01 0.0 
1.579083590897e+01 -3.013422187472e+02 0.0 
0.0 0.0 -1.303074216319e+02 
-9.832417719750e+01 -2.009984504324e+00 0.0 
-2.009984504324e+00 -2.541940342849e+02 0.0 
0.0 0.0 -1.077520379918e+02 
-1.153206492330e+02 8.753514803177e+00 0.0 
8.753514803177e+00 -2.483930356629e+02 0.0 
0.0 0.0 -1.087141054688e+02 
-4.880914025841e+01 3.134483017650e+01 0.0 
3.134483017650e+01 -8.910380996939e+01 0.0 
0.0 0.0 -3.841172034578e+01 
-5.566860217081e+01 1.587043975378e+01 0.0 
1.587043975378e+01 -1.658386695998e+02 0.0 
0.0 0.0 -6.251097941434e+01 
-3.682322551139e+01 1.297441479452e+01 0.0 
1.297441479452e+01 -1.251159396098e+02 0.0 
0.0 0.0 -4.568355736127e+01 
-6.906261442358e+01 2.042049451133e+01 0.0 
2.042049451133e+01 -1.106273100624e+02 0.0 
0.0 0.0 -4.866787780064e+01 
-7.812543456661e+01 4.084009995390e+00 0.0 
4.084009995390e+00 -1.455104749045e+02 0.0 
0.0 0.0 -6.669077284134e+01 
-9.310681150739e+01 4.387459623114e+00 0.0 
4.387459623114e+00 -1.872308427431e+02 0.0 
0.0 0.0 -8.370129627516e+01 
-1.506951435800e+02 1.274765571377e+01 0.0 
1.274765571377e+01 -3.666921740867e+02 0.0 
0.0 0.0 -1.548161953000e+02 
-1.199470154919e+02 1.503037762237e+01 0.0 
1.503037762237e+01 -2.643276281743e+02 0.0 
0.0 0.0 -1.148823930999e+02 
-9.240424668215e+01 1.051672955258e+01 0.0 
1.051672955258e+01 -1.802268464142e+02 0.0 
0.0 0.0 -8.138932792891e+01 
-9.669191994701e+01 1.481389694432e+01 0.0 
1.481389694432e+01 -1.954640411912e+02 0.0 
0.0 0.0 -8.687282027691e+01 
-4.076551112155e+01 1.317282833281e+01 0.0 
1.317282833281e+01 -1.389571752518e+02 0.0 
0.0 0.0 -5.170048417590e+01 
-3.547302703705e+01 -9.389956228894e+00 0.0 
-9.389956228894e+00 -4.707405577967e+01 0.0 
0.0 0.0 -2.000009227690e+01 
-7.202800905228e+01 2.564274492167e+01 0.0 
2.564274492167e+01 -1.781693177091e+02 0.0 
0.0 0.0 -7.612722446433e+01 
-8.108259943736e+01 2.287141778916e+01 0.0 
2.287141778916e+01 -1.758133637766e+02 0.0 
0.0 0.0 -7.420700739475e+01 
-7.127968935976e+01 2.372623921111e+01 0.0 
2.372623921111e+01 -1.786747253960e+02 0.0 
0.0 0.0 -7.454445047500e+01 
-4.313826872009e+01 3.346572253295e+01 0.0 
3.346572253295e+01 -5.487098961007e+01 0.0 
0.0 0.0 -2.572871660540e+01 
-7.840363742759e+01 2.956798810707e-01 0.0 
2.956798810707e-01 -1.596168402918e+02 0.0 
0.0 0.0 -7.100614331582e+01 
-4.311318268536e+01 -9.826327899997e+00 0.0 
-9.826327899997e+00 -8.460813834900e+01 0.0 
0.0 0.0 -3.399795705706e+01 
-5.114086671417e+01 2.870227277039e+01 0.0 
2.870227277039e+01 -1.254128334786e+02 0.0 
0.0 0.0 -4.949039738073e+01 
-1.640227902299e+02 1.304207356224e+01 0.0 
1.304207356224e+01 -3.840531772032e+02 0.0 
0.0 0.0 -1.640227902299e+02 
-1.006627858559e+02 1.587355131170e+01 0.0 
1.587355131170e+01 -2.700347583639e+02 0.0 
0.0 0.0 -1.112516358517e+02 
-8.147068114030e+01 7.416192877129e+00 0.0 
7.416192877129e+00 -1.494847162960e+02 0.0 
0.0 0.0 -6.848992736920e+01 
-1.773583483585e+01 -7.277517330351e-01 0.0 
-7.277517330351e-01 -5.888475971402e+01 0.0 
0.0 0.0 -2.119633942534e+01 
-8.284779437929e+01 2.261478599149e+01 0.0 
2.261478599149e+01 -1.617547683638e+02 0.0 
0.0 0.0 -7.033070087507e+01 
-6.683664325083e+01 2.299825777096e+01 0.0 
2.299825777096e+01 -1.741292051611e+02 0.0 
0.0 0.0 -7.163065031894e+01 
-9.715535780229e+01 1.486906707039e+01 0.0 
1.486906707039e+01 -1.926850905520e+02 0.0 
0.0 0.0 -8.655213450630e+01 
-1.453411078708e+02 2.029712019390e+01 0.0 
2.029712019390e+01 -3.372631090813e+02 0.0 
0.0 0.0 -1.443812650856e+02 
-8.109520451590e+01 1.059714135844e+01 0.0 
1.059714135844e+01 -1.425714124743e+02 0.0 
0.0 0.0 -6.474506897280e+01 
-9.358641201059e+01 1.811462688398e+01 0.0 
1.811462688398e+01 -1.885024249836e+02 0.0 
0.0 0.0 -8.362118115647e+01 
-8.933745841098e+01 -6.561224314128e+00 0.0 
-6.561224314128e+00 -2.035799789893e+02 0.0 
0.0 0.0 -8.300286811558e+01 
-1.160392756285e+02 1.044337287932e+01 0.0 
1.044337287932e+01 -2.493537457493e+02 0.0 
0.0 0.0 -1.092179064134e+02 
-9.731619099214e+01 9.262623273789e-01 0.0 
9.262623273789e-01 -2.594940816323e+02 0.0 
0.0 0.0 -1.078287468866e+02 
-1.469000927869e+02 2.118560785626e+01 0.0 
2.118560785626e+01 -3.407369093704e+02 0.0 
0.0 0.0 -1.458911006472e+02 
-1.398933582040e+02 1.745696951684e+01 0.0 
1.745696951684e+01 -3.277511691427e+02 0.0 
0.0 0.0 -1.398933582040e+02 
-1.357333097177e+02 1.307118110171e+01 0.0 
1.307118110171e+01 -3.180443893413e+02 0.0 
0.0 0.0 -1.357333097177e+02 
-1.369498320254e+02 1.523844086023e+01 0.0 
1.523844086023e+01 -3.208829413926e+02 0.0 
0.0 0.0 -1.369498320254e+02 
-9.965843762579e+01 1.370380188476e+01 0.0 
1.370380188476e+01 -2.036719697153e+02 0.0 
0.0 0.0 -9.059912220234e+01 
-1.178492781603e+02 1.255947585302e+01 0.0 
1.255947585302e+01 -2.505180607500e+02 0.0 
0.0 0.0 -1.101102016731e+02 
-1.236891279679e+02 1.471208680258e+01 0.0 
1.471208680258e+01 -2.741236638347e+02 0.0 
0.0 0.0 -1.189438375408e+02 
-7.138268398341e+01 2.600274117228e+01 0.0 
2.600274117228e+01 -1.359274180264e+02 0.0 
0.0 0.0 -6.008881499679e+01 
-6.858850518145e+01 2.346701790392e+01 0.0 
2.346701790392e+01 -1.190983647867e+02 0.0 
0.0 0.0 -5.324274525206e+01 
-8.989203341477e+01 -6.080652363976e+00 0.0 
-6.080652363976e+00 -1.922694723076e+02 0.0 
0.0 0.0 -7.921535698064e+01 
-1.214934689957e+02 1.398081968197e+01 0.0 
1.398081968197e+01 -2.616375145887e+02 0.0 
0.0 0.0 -1.145392950753e+02 
-1.487414525609e+02 2.180619758631e+01 0.0 
2.180619758631e+01 -3.479272372711e+02 0.0 
0.0 0.0 -1.486006069496e+02 
-1.189849710725e+02 1.000104770717e+01 0.0 
1.000104770717e+01 -2.589025083431e+02 0.0 
0.0 0.0 -1.129662438247e+02 
-9.113853036817e+01 1.591191335758e+01 0.0 
1.591191335758e+01 -2.517775286794e+02 0.0 
0.0 0.0 -1.051434379134e+02 
-1.207849236608e+02 1.206261047569e+01 0.0 
1.206261047569e+01 -2.600698008385e+02 0.0 
0.0 0.0 -1.138564173498e+02 
-1.055029622259e+02 2.036049512687e+01 0.0 
2.036049512687e+01 -2.531252066661e+02 0.0 
0.0 0.0 -1.071884506676e+02 
-8.007334603175e+01 2.584512751680e+01 0.0 
2.584512751680e+01 -1.723584788676e+02 0.0 
0.0 0.0 -7.482394973002e+01 
-6.903623571927e+01 1.706368626826e+01 0.0 
1.706368626826e+01 -1.099836699993e+02 0.0 
0.0 0.0 -4.892102164776e+01 
-4.494051142678e+01 2.934657943017e+01 0.0 
2.934657943017e+01 -1.111357190399e+02 0.0 
0.0 0.0 -4.277683747565e+01 
-1.289159808396e+02 8.497396870587e+00 0.0 
8.497396870587e+00 -2.963193061084e+02 0.0 
0.0 0.0 -1.271705860844e+02 
-6.644166389025e+01 2.841476099708e+01 0.0 
2.841476099708e+01 -1.324867363291e+02 0.0 
0.0 0.0 -5.818492541362e+01 
-1.360596085330e+02 1.928166602413e+01 0.0 
1.928166602413e+01 -3.180480268121e+02 0.0 
0.0 0.0 -1.358322906035e+02 
-8.659092076772e+01 -6.968982810386e+00 0.0 
-6.968982810386e+00 -1.914348999582e+02 0.0 
0.0 0.0 -7.779066709883e+01 
-5.796641554326e+01 -1.620283528762e+01 0.0 
-1.620283528762e+01 -1.453874719260e+02 0.0 
0.0 0.0 -5.768028014682e+01 
-1.547156608805e+02 1.140901358106e+01 0.0 
1.140901358106e+01 -3.697685517545e+02 0.0 
0.0 0.0 -1.569452637905e+02 
-5.452438732774e+01 2.981989770780e+01 0.0 
2.981989770780e+01 -1.257415299547e+02 0.0 
0.0 0.0 -5.152892942675e+01 
-1.413500245998e+02 1.844963077811e+01 0.0 
1.844963077811e+01 -3.311500573995e+02 0.0 
0.0 0.0 -1.413500245998e+02 
-1.324137841304e+02 1.368131801274e+01 0.0 
1.368131801274e+01 -3.031846336884e+02 0.0 
0.0 0.0 -1.302795253456e+02 
-9.484190395829e+01 1.868761538999e+01 0.0 
1.868761538999e+01 -1.940155762612e+02 0.0 
0.0 0.0 -8.432993988944e+01 
-2.373062219354e+01 -5.161109270652e+00 0.0 
-5.161109270652e+00 -2.781855588767e+01 0.0 
0.0 0.0 -1.312245271912e+01 
-1.442653794202e+02 1.989348437772e+01 0.0 
1.989348437772e+01 -3.379525519805e+02 0.0 
0.0 0.0 -1.442653794202e+02 
-1.528461686582e+02 1.410940985775e+01 0.0 
1.410940985775e+01 -3.646150350982e+02 0.0 
0.0 0.0 -1.548383611269e+02 
-5.206072585379e+01 -1.316709691802e+01 0.0 
-1.316709691802e+01 -1.428609787290e+02 0.0 
0.0 0.0 -5.368014277700e+01 
-9.481806175459e+01 1.438043665278e+01 0.0 
1.438043665278e+01 -2.632832138422e+02 0.0 
0.0 0.0 -1.093511739766e+02 
-1.545682512522e+02 1.973442504886e+01 0.0 
1.973442504886e+01 -3.664822592036e+02 0.0 
0.0 0.0 -1.559151531367e+02 
-1.243403010246e+01 -8.623048457467e-01 0.0 
-8.623048457467e-01 -9.094064264108e+00 0.0 
0.0 0.0 -7.028341452759e+00 
-7.340948164147e+01 2.741111837101e+01 0.0 
2.741111837101e+01 -1.526508382680e+02 0.0 
0.0 0.0 -6.673316701439e+01 
-9.723710687992e+01 1.742608690570e+01 0.0 
1.742608690570e+01 -2.008031876540e+02 0.0 
0.0 0.0 -8.797563355783e+01 
-9.211507808885e+01 2.016731722580e+01 0.0 
2.016731722580e+01 -1.877802143443e+02 0.0 
0.0 0.0 -8.059156241649e+01 
-9.213507292232e+01 1.710217355951e+01 0.0 
1.710217355951e+01 -1.804524940567e+02 0.0 
0.0 0.0 -7.928166661846e+01 
-4.766039397415e+01 3.028410371014e+01 0.0 
3.028410371014e+01 -1.089603589473e+02 0.0 
0.0 0.0 -4.298034086977e+01 
-1.476030533057e+02 2.076907067142e+01 0.0 
2.076907067142e+01 -3.457404577133e+02 0.0 
0.0 0.0 -1.476030533057e+02 
-6.160265746958e+01 1.538196694818e+01 0.0 
1.538196694818e+01 -1.805425362578e+02 0.0 
0.0 0.0 -7.007916455321e+01 
-2.841592699685e+01 5.664359290360e+00 0.0 
5.664359290360e+00 -1.181542783425e+02 0.0 
0.0 0.0 -4.683100701945e+01 
-1.576928914852e+02 3.467182877925e+00 0.0 
3.467182877925e+00 -3.774252745352e+02 0.0 
0.0 0.0 -1.601354498061e+02 
-2.052338391202e+01 -2.632123200171e+00 0.0 
-2.632123200171e+00 -2.614193788245e+01 0.0 
0.0 0.0 -1.118299909553e+01 
-7.569924233089e+01 1.286097636349e+01 0.0 
1.286097636349e+01 -1.257191943942e+02 0.0 
0.0 0.0 -5.619098752882e+01 
-4.002359401931e+01 -2.100263808089e+01 0.0 
-2.100263808089e+01 -9.965291770924e+01 0.0 
0.0 0.0 -3.860512933744e+01 
-7.667293743022e+01 8.244074767603e+00 0.0 
8.244074767603e+00 -1.310315452536e+02 0.0 
0.0 0.0 -6.013168336895e+01 
-1.586419090527e+02 1.555119955426e+01 0.0 
1.555119955426e+01 -3.782573008240e+02 0.0 
0.0 0.0 -1.606697629630e+02 
-1.512454457596e+02 2.074773365997e+01 0.0 
2.074773365997e+01 -3.542393734391e+02 0.0 
0.0 0.0 -1.512454457596e+02 
-9.331152316659e+01 1.308132584615e+01 0.0 
1.308132584615e+01 -1.831614478218e+02 0.0 
0.0 0.0 -8.208780044795e+01 
-3.916807134628e+01 -2.267397636261e+01 0.0 
-2.267397636261e+01 -7.105871547954e+01 0.0 
0.0 0.0 -2.672191931919e+01 
-2.859243938168e+01 9.573531984103e+00 0.0 
9.573531984103e+00 -1.228919366253e+02 0.0 
0.0 0.0 -4.780236781183e+01 
-4.902155331161e+01 -2.407980356371e+01 0.0 
-2.407980356371e+01 -8.851764530422e+01 0.0 
0.0 0.0 -3.535898205137e+01 
-1.346983700550e+02 4.374510817291e+00 0.0 
4.374510817291e+00 -3.335365196742e+02 0.0 
0.0 0.0 -1.400704669188e+02 
-7.897220349164e+01 4.456103622877e+00 0.0 
4.456103622877e+00 -1.463342183056e+02 0.0 
0.0 0.0 -6.719192653916e+01 
-8.634082718914e+01 9.801805702450e+00 0.0 
9.801805702450e+00 -1.597476379249e+02 0.0 
0.0 0.0 -7.342653953422e+01 
-1.546625527585e+02 2.000515138735e+01 0.0 
2.000515138735e+01 -3.622126231031e+02 0.0 
0.0 0.0 -1.546625527585e+02 
-7.775132689097e+01 3.967230066224e+00 0.0 
3.967230066224e+00 -1.457183118539e+02 0.0 
0.0 0.0 -6.664089162346e+01 
-1.385219960289e+02 1.285015248708e+01 0.0 
1.285015248708e+01 -3.188438172690e+02 0.0 
0.0 0.0 -1.368097439894e+02 
-1.100026900473e+02 1.825122469823e+01 0.0 
1.825122469823e+01 -2.658311832443e+02 0.0 
0.0 0.0 -1.123501619875e+02 
-8.879912194179e+01 3.385697997951e+00 0.0 
3.385697997951e+00 -1.773594160684e+02 0.0 
0.0 0.0 -7.944756140305e+01 
-5.246905715072e+01 2.949991606542e+01 0.0 
2.949991606542e+01 -8.943279302000e+01 0.0 
0.0 0.0 -4.057138027541e+01 
-9.577694801614e+01 1.357878473266e+01 0.0 
1.357878473266e+01 -2.639552362820e+02 0.0 
0.0 0.0 -1.118255668217e+02 
-3.602996437491e+01 2.170162489453e+01 0.0 
2.170162489453e+01 -1.085259465761e+02 0.0 
0.0 0.0 -3.783029629806e+01 
-1.575727911917e+02 1.859798365990e+01 0.0 
1.859798365990e+01 -3.690031794474e+02 0.0 
0.0 0.0 -1.575727911918e+02 
-1.383836038337e+02 1.627541806173e+01 0.0 
1.627541806173e+01 -3.242284089453e+02 0.0 
0.0 0.0 -1.383836038337e+02 
-1.364630787752e+02 1.421797382889e+01 0.0 
1.421797382889e+01 -3.197471838089e+02 0.0 
0.0 0.0 -1.364630787752e+02 
-1.034925223736e+02 -1.441436740460e+00 0.0 
-1.441436740460e+00 -2.621124168857e+02 0.0 
0.0 0.0 -1.103082743688e+02 
-8.564645729023e+01 -5.506175810001e+00 0.0 
-5.506175810001e+00 -1.800326019526e+02 0.0 
0.0 0.0 -7.353716898046e+01 
-7.664297644634e+01 2.358847229690e+01 0.0 
2.358847229690e+01 -1.706481405890e+02 0.0 
0.0 0.0 -7.211318653121e+01 
-1.013706966290e+02 5.656934065279e-01 0.0 
5.656934065279e-01 -2.679224263994e+02 0.0 
0.0 0.0 -1.103879369085e+02 
-1.601737027509e+02 1.672218537495e+01 0.0 
1.672218537495e+01 -3.750719730854e+02 0.0 
0.0 0.0 -1.601737027509e+02 
-4.678422916452e+01 2.549132096172e+01 0.0 
2.549132096172e+01 -1.216207268928e+02 0.0 
0.0 0.0 -4.509961543437e+01 
-5.439178466028e+01 -3.948662159070e+00 0.0 
-3.948662159070e+00 -1.669081911147e+02 0.0 
0.0 0.0 -6.296185089829e+01 
-5.826141713657e+01 -7.133252759300e+00 0.0 
-7.133252759300e+00 -1.709736046437e+02 0.0 
0.0 0.0 -6.608219127419e+01 
-9.252393854615e+01 3.335488275831e+00 0.0 
3.335488275831e+00 -1.881754811330e+02 0.0 
0.0 0.0 -8.380982590374e+01 
-1.616812195111e+02 1.158023351707e+01 0.0 
1.158023351707e+01 -3.856460457338e+02 0.0 
0.0 0.0 -1.637981795734e+02 
-5.032233870349e+01 -2.446847960652e+01 0.0 
-2.446847960652e+01 -6.363320971300e+01 0.0 
0.0 0.0 -2.845963939351e+01 
-1.627935939500e+02 1.426937823734e+01 0.0 
1.426937823734e+01 -3.811850525500e+02 0.0 
0.0 0.0 -1.627935939500e+02 
-5.695638175903e+01 -1.107492664496e+01 0.0 
-1.107492664496e+01 -1.593384459860e+02 0.0 
0.0 0.0 -6.170529041064e+01 
-1.429948345982e+02 1.930050144980e+01 0.0 
1.930050144980e+01 -3.349879473958e+02 0.0 
0.0 0.0 -1.429948345982e+02 
-1.253229206655e+02 1.696371109540e+01 0.0 
1.696371109540e+01 -2.753648027449e+02 0.0 
0.0 0.0 -1.198063170231e+02 
-1.265709068221e+01 4.275276268501e-01 0.0 
4.275276268501e-01 -9.289664497896e+00 0.0 
0.0 0.0 -5.302019266019e+00 
-7.460930152232e+01 2.753950972057e+01 0.0 
2.753950972057e+01 -1.686172044547e+02 0.0 
0.0 0.0 -7.289807157524e+01 
-1.202246944221e+02 1.040785892448e+01 0.0 
1.040785892448e+01 -2.596238429071e+02 0.0 
0.0 0.0 -1.135545611987e+02 
-1.460175575823e+02 2.048291249576e+01 0.0 
2.048291249576e+01 -3.420409676919e+02 0.0 
0.0 0.0 -1.460175575823e+02 
-1.002571321483e+02 1.635257909281e+01 0.0 
1.635257909281e+01 -2.044252192896e+02 0.0 
0.0 0.0 -9.100470543138e+01 
-1.133322198207e+02 1.759938943139e+01 0.0 
1.759938943139e+01 -2.778647595276e+02 0.0 
0.0 0.0 -1.169590938045e+02 
-4.299219941301e+01 3.114361679036e+01 0.0 
3.114361679036e+01 -9.486963793504e+01 0.0 
0.0 0.0 -3.766865605320e+01 
-1.442166626019e+02 1.269884012937e+01 0.0 
1.269884012937e+01 -3.509421649623e+02 0.0 
0.0 0.0 -1.481476482693e+02 
-6.021447531360e+01 -1.213811242094e+01 0.0 
-1.213811242094e+01 -1.622769892707e+02 0.0 
0.0 0.0 -6.485818123538e+01 
-6.264236354624e+01 -1.074642877052e+01 0.0 
-1.074642877052e+01 -1.731837522197e+02 0.0 
0.0 0.0 -6.991875250634e+01 
-5.060759867041e+01 -2.701129985120e+01 0.0 
-2.701129985120e+01 -4.833711220721e+01 0.0 
0.0 0.0 -2.710749457098e+01 
-1.493830867166e+02 2.085305686819e+01 0.0 
2.085305686819e+01 -3.498938690055e+02 0.0 
0.0 0.0 -1.493830867166e+02 
-3.975448453580e+01 1.918190051213e+01 0.0 
1.918190051213e+01 -1.227468078375e+02 0.0 
0.0 0.0 -4.349494164488e+01 
-1.284916537031e+02 8.702270318043e+00 0.0 
8.702270318043e+00 -3.265176699389e+02 0.0 
0.0 0.0 -1.361027970926e+02 
-8.598056972174e+01 4.593883490013e+00 0.0 
4.593883490013e+00 -1.676954891687e+02 0.0 
0.0 0.0 -7.570281766713e+01 
-6.105877225730e+01 -1.753338908444e+01 0.0 
-1.753338908444e+01 -1.365207921223e+02 0.0 
0.0 0.0 -5.698244772062e+01 
-5.836499564132e+01 -8.284658852345e+00 0.0 
-8.284658852345e+00 -1.684215279219e+02 0.0 
0.0 0.0 -6.591308152809e+01 
-9.653058394031e+01 1.726027604429e+01 0.0 
1.726027604429e+01 -1.963551679748e+02 0.0 
0.0 0.0 -8.746572557454e+01 
-1.561776503327e+02 1.943580101316e+01 0.0 
1.943580101316e+01 -3.657478507763e+02 0.0 
0.0 0.0 -1.561776503327e+02 
-8.771766177030e+01 -5.869737741616e+00 0.0 
-5.869737741616e+00 -1.875111318107e+02 0.0 
0.0 0.0 -7.633879506480e+01 
-1.105711103001e+02 3.948714230294e+00 0.0 
3.948714230294e+00 -2.896348631644e+02 0.0 
0.0 0.0 -1.202423817695e+02 
-9.066509420843e+01 2.259634408296e+01 0.0 
2.259634408296e+01 -1.965677553159e+02 0.0 
0.0 0.0 -8.407230991971e+01 
-9.460167007313e+01 4.848015454104e+00 0.0 
4.848015454104e+00 -2.626718343623e+02 0.0 
0.0 0.0 -1.120432550266e+02 
-5.918004463000e+01 -3.234026564366e+00 0.0 
-3.234026564366e+00 -1.767255822832e+02 0.0 
0.0 0.0 -6.869795978061e+01 
-1.039880388641e+02 1.201743045677e+00 0.0 
1.201743045677e+00 -2.718993596847e+02 0.0 
0.0 0.0 -1.144298369702e+02 
-8.525349939104e+01 2.194532015038e+01 0.0 
2.194532015038e+01 -1.815289337595e+02 0.0 
0.0 0.0 -7.694103537526e+01 
-1.074943642018e+02 2.032954170180e+01 0.0 
2.032954170180e+01 -2.468477081630e+02 0.0 
0.0 0.0 -1.059026217094e+02 
-1.061291981084e+02 1.341733313858e+01 0.0 
1.341733313858e+01 -2.812343891010e+02 0.0 
0.0 0.0 -1.176960462210e+02 
-8.636324841572e+01 2.421013976088e+01 0.0 
2.421013976088e+01 -1.917078729811e+02 0.0 
0.0 0.0 -8.257087302965e+01 
-8.457528066377e+01 -7.576013620386e+00 0.0 
-7.576013620386e+00 -1.955673376726e+02 0.0 
0.0 0.0 -8.010446262031e+01 
-5.006581352896e+01 2.704723394270e+01 0.0 
2.704723394270e+01 -1.223719161444e+02 0.0 
0.0 0.0 -4.742227724979e+01 
-8.332143822855e+01 -6.999224992425e+00 0.0 
-6.999224992425e+00 -1.791442717922e+02 0.0 
0.0 0.0 -7.254909963393e+01 
-1.088199061233e+02 1.973223673434e+01 0.0 
1.973223673434e+01 -2.657046835194e+02 0.0 
0.0 0.0 -1.119573768928e+02 
-8.414969897390e+01 1.266057352671e+01 0.0 
1.266057352671e+01 -2.418905918238e+02 0.0 
0.0 0.0 -1.031348090963e+02 
-1.597296739120e+02 1.436172614622e+01 0.0 
1.436172614622e+01 -3.810325839333e+02 0.0 
0.0 0.0 -1.618286773536e+02 
-1.238056573199e+02 1.162083469556e+01 0.0 
1.162083469556e+01 -2.697502350519e+02 0.0 
0.0 0.0 -1.176667677116e+02 
-5.530269583016e+01 -1.463584785818e+01 0.0 
-1.463584785818e+01 -1.210760200300e+02 0.0 
0.0 0.0 -4.926964508696e+01 
-1.615505527842e+02 1.547393025291e+01 0.0 
1.547393025291e+01 -3.782846231630e+02 0.0 
0.0 0.0 -1.615505527842e+02 
-1.499510694195e+02 1.412980725029e+01 0.0 
1.412980725029e+01 -3.643394650943e+02 0.0 
0.0 0.0 -1.538871603542e+02 
-7.832556267029e+01 2.396820802249e+01 0.0 
2.396820802249e+01 -1.961464069152e+02 0.0 
0.0 0.0 -8.422100388220e+01 
-3.331174415453e+01 -1.404064148937e+01 0.0 
-1.404064148937e+01 -3.510761290171e+01 0.0 
0.0 0.0 -1.427446612104e+01 
-1.624786344748e+02 1.016982965598e+01 0.0 
1.016982965598e+01 -3.874254529719e+02 0.0 
0.0 0.0 -1.645712262340e+02 
-1.242314522578e+02 1.328422501656e+01 0.0 
1.328422501656e+01 -2.706023249329e+02 0.0 
0.0 0.0 -1.180501331572e+02 
-5.575314947535e+01 -1.405004716608e+01 0.0 
-1.405004716608e+01 -1.456285376955e+02 0.0 
0.0 0.0 -5.638089701364e+01 
-1.649541530442e+02 1.175142381088e+01 0.0 
1.175142381088e+01 -3.862263571031e+02 0.0 
0.0 0.0 -1.649541530442e+02 
-1.086135205105e+02 1.588563405835e+00 0.0 
1.588563405835e+00 -2.801419722532e+02 0.0 
0.0 0.0 -1.166101909487e+02 
-7.299136413463e+01 2.048493698656e+01 0.0 
2.048493698656e+01 -1.249377303085e+02 0.0 
0.0 0.0 -5.543967352108e+01 
-8.859638669883e+01 8.856455118536e+00 0.0 
8.856455118536e+00 -1.692916876822e+02 0.0 
0.0 0.0 -7.696642231431e+01 
-8.001761980631e+01 1.392159961355e+01 0.0 
1.392159961355e+01 -2.272996400717e+02 0.0 
0.0 0.0 -9.617295705773e+01 
-9.738329278385e+01 -4.307664396049e+00 0.0 
-4.307664396049e+00 -2.438108557129e+02 0.0 
0.0 0.0 -1.032341262200e+02 
-9.803163255363e+01 7.439111695596e+00 0.0 
7.439111695596e+00 -2.704476796462e+02 0.0 
0.0 0.0 -1.144298767740e+02 
-1.041533227501e+02 1.097091251729e+01 0.0 
1.097091251729e+01 -2.096755915267e+02 0.0 
0.0 0.0 -9.374867428303e+01 
-8.003205461794e+01 1.572437796139e+01 0.0 
1.572437796139e+01 -1.389629626766e+02 0.0 
0.0 0.0 -6.116242356904e+01 
-1.116817533922e+02 1.454090407107e+01 0.0 
1.454090407107e+01 -2.882998042642e+02 0.0 
0.0 0.0 -1.197240938721e+02 
-8.567060399073e+01 8.166077209540e-01 0.0 
8.166077209540e-01 -1.766253577816e+02 0.0 
0.0 0.0 -7.828878853170e+01 
-8.909389687823e+01 -8.107474615943e+00 0.0 
-8.107474615943e+00 -1.965221627903e+02 0.0 
0.0 0.0 -8.222870337560e+01 
-1.001954010474e+02 1.190295055723e+01 0.0 
1.190295055723e+01 -2.740828538924e+02 0.0 
0.0 0.0 -1.153293489450e+02 
-6.628950667730e+01 -1.530414189667e+01 0.0 
-1.530414189667e+01 -1.667135494516e+02 0.0 
0.0 0.0 -6.919808327112e+01 
-1.111601271526e+02 -1.962497743188e+00 0.0 
-1.962497743188e+00 -2.700809837310e+02 0.0 
0.0 0.0 -1.125608636739e+02 
-1.483736672586e+01 -1.433561314651e+00 0.0 
-1.433561314651e+00 -8.985749405197e+00 0.0 
0.0 0.0 -5.974955246771e+00 
-5.339523568047e+01 2.814577262753e+01 0.0 
2.814577262753e+01 -1.240455112604e+02 0.0 
0.0 0.0 -5.015303500373e+01 
-6.212168167844e+01 -1.429353994467e+01 0.0 
-1.429353994467e+01 -1.619475490315e+02 0.0 
0.0 0.0 -6.584949970479e+01 
-9.375455699495e+01 -5.672903605609e+00 0.0 
-5.672903605609e+00 -2.116327780187e+02 0.0 
0.0 0.0 -8.628757120600e+01 
-8.260924263741e+01 2.432216288870e+01 0.0 
2.432216288870e+01 -2.012919554085e+02 0.0 
0.0 0.0 -8.639247791219e+01 
-1.044264882328e+02 1.497745402737e+00 0.0 
1.497745402737e+00 -2.784990290114e+02 0.0 
0.0 0.0 -1.144776551733e+02 
-9.029812456349e+01 4.302083398069e+00 0.0 
4.302083398069e+00 -1.798723389908e+02 0.0 
0.0 0.0 -8.065113906627e+01 
-6.137162097383e+01 -1.650484344726e+01 0.0 
-1.650484344726e+01 -1.484753432100e+02 0.0 
0.0 0.0 -6.073606884356e+01 
-1.658212903877e+02 1.045767526045e+01 0.0 
1.045767526045e+01 -3.882496775713e+02 0.0 
0.0 0.0 -1.658212903877e+02 
-9.537448329220e+01 1.926065288069e+01 0.0 
1.926065288069e+01 -2.013550330250e+02 0.0 
0.0 0.0 -8.842089393231e+01 
-9.783676078467e+01 -4.891441556956e+00 0.0 
-4.891441556956e+00 -2.196220650745e+02 0.0 
0.0 0.0 -9.046972736445e+01 
-9.227708246128e+01 2.010497775274e+01 0.0 
2.010497775274e+01 -1.942983340524e+02 0.0 
0.0 0.0 -8.468874245940e+01 
-9.753969775331e+01 -5.015260443548e+00 0.0 
-5.015260443548e+00 -2.124569475379e+02 0.0 
0.0 0.0 -8.727933822709e+01 
-1.741159058471e+01 -1.361392196720e+00 0.0 
-1.361392196720e+00 -9.368769360594e+00 0.0 
0.0 0.0 -8.608353962840e+00 
-9.361128214404e+01 1.064090244413e+01 0.0 
1.064090244413e+01 -1.799683580973e+02 0.0 
0.0 0.0 -8.167389207241e+01 
-8.473533444817e+01 -3.182724952023e+00 0.0 
-3.182724952023e+00 -1.728509822218e+02 0.0 
0.0 0.0 -7.165422565352e+01 
-7.977829320672e+00 -4.053324266329e-01 0.0 
-4.053324266329e-01 -8.815456513657e+00 0.0 
0.0 0.0 -3.314476199253e+00 
-9.508195375244e+01 -5.071771912788e+00 0.0 
-5.071771912788e+00 -2.076338965124e+02 0.0 
0.0 0.0 -8.551016899887e+01 
-1.133062243867e+02 2.702528717668e+00 0.0 
2.702528717668e+00 -2.970727953305e+02 0.0 
0.0 0.0 -1.227137059151e+02 
-1.139135265414e+02 2.153560234867e+00 0.0 
2.153560234867e+00 -2.527900890288e+02 0.0 
0.0 0.0 -1.096110846711e+02 
-8.864871885376e+01 5.327719533198e+00 0.0 
5.327719533198e+00 -2.539551873132e+02 0.0 
0.0 0.0 -1.080342270162e+02 
-9.195113482053e+01 4.832642973542e+00 0.0 
4.832642973542e+00 -2.607904577574e+02 0.0 
0.0 0.0 -1.105219887223e+02 
-8.030678047792e+01 8.190414533636e+00 0.0 
8.190414533636e+00 -1.408313941778e+02 0.0 
0.0 0.0 -6.543393789472e+01 
-6.955344403479e+01 2.825280126286e+00 0.0 
2.825280126286e+00 -1.267510695623e+02 0.0 
0.0 0.0 -5.849135407913e+01 
-1.308996688861e+02 1.089847054788e+01 0.0 
1.089847054788e+01 -2.993696572578e+02 0.0 
0.0 0.0 -1.286807978432e+02 
-8.898013357697e+01 2.102576668226e+01 0.0 
2.102576668226e+01 -1.876916568046e+02 0.0 
0.0 0.0 -8.090902076306e+01 
-1.270826208803e+01 1.562134666980e-01 0.0 
1.562134666980e-01 -7.169776305502e+00 0.0 
0.0 0.0 -4.886134140270e+00 
-3.463102977438e+01 -6.166695919130e+00 0.0 
-6.166695919130e+00 -7.059093005735e+01 0.0 
0.0 0.0 -2.720583030389e+01 
-2.905066074821e+01 -8.238555020211e+00 0.0 
-8.238555020211e+00 -2.972433294058e+01 0.0 
0.0 0.0 -1.402358152187e+01 
-5.963623652975e+01 -1.395936056916e+01 0.0 
-1.395936056916e+01 -1.269345020852e+02 0.0 
0.0 0.0 -5.289960087441e+01 
-1.242254274053e+02 1.940228910571e+01 0.0 
1.940228910571e+01 -2.809380660428e+02 0.0 
0.0 0.0 -1.211490480344e+02 
-1.149473186489e+02 3.915387999385e+00 0.0 
3.915387999385e+00 -2.535318400905e+02 0.0 
0.0 0.0 -1.101437476218e+02 
-1.285589178629e+02 1.997872687336e+00 0.0 
1.997872687336e+00 -3.220750602472e+02 0.0 
0.0 0.0 -1.347901934330e+02 
-6.675988102945e+01 -9.658692229103e+00 0.0 
-9.658692229103e+00 -1.424193847831e+02 0.0 
0.0 0.0 -5.856480664758e+01 
-1.159078104437e+02 -1.226596369276e+00 0.0 
-1.226596369276e+00 -2.710988228582e+02 0.0 
0.0 0.0 -1.131734302959e+02 
-1.324127590732e+02 6.930012117413e+00 0.0 
6.930012117413e+00 -3.348809690305e+02 0.0 
0.0 0.0 -1.397881184311e+02 
-3.413012664796e+01 4.792415306854e+00 0.0 
4.792415306854e+00 -1.267888380004e+02 0.0 
0.0 0.0 -4.828494068922e+01 
-8.459865182253e+01 -7.433035383188e-01 0.0 
-7.433035383188e-01 -1.732292081816e+02 0.0 
0.0 0.0 -7.200987954734e+01 
-7.038421254631e+01 -2.247472670096e+00 0.0 
-2.247472670096e+00 -1.415486900599e+02 0.0 
0.0 0.0 -5.838586269455e+01 
-1.630008676685e+02 8.746908113397e+00 0.0 
8.746908113397e+00 -3.885787616401e+02 0.0 
0.0 0.0 -1.650738887926e+02 
-1.664594589996e+02 9.184112668918e+00 0.0 
9.184112668918e+00 -3.897387376657e+02 0.0 
0.0 0.0 -1.664594589996e+02 
-9.307499065859e+01 -8.435336705727e-01 0.0 
-8.435336705727e-01 -1.926716751227e+02 0.0 
0.0 0.0 -8.039070932381e+01 
-1.012802528837e+02 -3.855949710114e+00 0.0 
-3.855949710114e+00 -2.204689842172e+02 0.0 
0.0 0.0 -9.095880751962e+01 
-9.669364902704e+01 -1.342752303452e+00 0.0 
-1.342752303452e+00 -2.492334745924e+02 0.0 
0.0 0.0 -1.033187916050e+02 
-1.372823465397e+02 8.626857813127e+00 0.0 
8.626857813127e+00 -3.436829370118e+02 0.0 
0.0 0.0 -1.438895850654e+02 
-4.006239522096e+01 -9.473656829649e+00 0.0 
-9.473656829649e+00 -7.907779105319e+01 0.0 
0.0 0.0 -3.255747553849e+01 
-1.274938569040e+02 5.340778696628e+00 0.0 
5.340778696628e+00 -3.254924905299e+02 0.0 
0.0 0.0 -1.354959042302e+02 
-1.717869367764e+01 -6.423715637299e-01 0.0 
-6.423715637299e-01 -4.308598148666e+01 0.0 
0.0 0.0 -1.528807573115e+01 
-9.383167134361e+01 -4.756284868867e+00 0.0 
-4.756284868867e+00 -2.003843324123e+02 0.0 
0.0 0.0 -8.179167579893e+01 
-1.006322740447e+02 -4.966827236634e+00 0.0 
-4.966827236634e+00 -2.244144034265e+02 0.0 
0.0 0.0 -9.264501523397e+01 
-9.876310901085e+00 -3.450762021042e-01 0.0 
-3.450762021042e-01 -2.544292855994e+01 0.0 
0.0 0.0 -8.011673809123e+00 
-8.889751230246e+01 -2.092155841558e+00 0.0 
-2.092155841558e+00 -1.824306320721e+02 0.0 
0.0 0.0 -7.609516757848e+01 
-1.216544348244e+02 9.733933554555e+00 0.0 
9.733933554555e+00 -2.683710727476e+02 0.0 
0.0 0.0 -1.166076522716e+02 
-1.232167145763e+01 7.954121123067e-02 0.0 
7.954121123067e-02 -7.497085975317e+00 0.0 
0.0 0.0 -4.860176443242e+00 
-7.086528230095e+01 3.418078427020e+00 0.0 
3.418078427020e+00 -1.275560972691e+02 0.0 
0.0 0.0 -5.912641387100e+01 
-7.162420175831e+01 4.045810659669e+00 0.0 
4.045810659669e+00 -1.287485976649e+02 0.0 
0.0 0.0 -5.971183982696e+01 
-1.018827104219e+02 9.786565346378e+00 0.0 
9.786565346378e+00 -2.779823070840e+02 0.0 
0.0 0.0 -1.163915576277e+02 
-6.899430060065e+01 2.501727579074e-01 0.0 
2.501727579074e-01 -1.414804496507e+02 0.0 
0.0 0.0 -5.841337721158e+01 
-5.858078418684e+01 -1.409150896905e+01 0.0 
-1.409150896905e+01 -1.485694291610e+02 0.0 
0.0 0.0 -5.963816747605e+01 
-4.407217857368e+01 3.036215773987e+01 0.0 
3.036215773987e+01 -8.808668715690e+01 0.0 
0.0 0.0 -3.488774113821e+01 
-1.429991947830e+02 2.499942073902e+00 0.0 
2.499942073902e+00 -3.487563408917e+02 0.0 
0.0 0.0 -1.471266607024e+02 
-1.418954603313e+02 1.989033551921e+01 0.0 
1.989033551921e+01 -3.317881177629e+02 0.0 
0.0 0.0 -1.417050734283e+02 
-1.117634945032e+02 5.343634966847e+00 0.0 
5.343634966847e+00 -2.412131839206e+02 0.0 
0.0 0.0 -1.054930035271e+02 
-5.197567134293e+01 2.859958747581e+01 0.0 
2.859958747581e+01 -8.974725266302e+01 0.0 
0.0 0.0 -3.933024370896e+01 
-2.937983950974e+01 -6.864894414637e+00 0.0 
-6.864894414637e+00 -4.915365364471e+01 0.0 
0.0 0.0 -2.079774536162e+01 
-8.002534333357e+01 1.479060703545e+01 0.0 
1.479060703545e+01 -1.352147764222e+02 0.0 
0.0 0.0 -6.131277893989e+01 
-6.804075702985e+01 1.397469317723e+00 0.0 
1.397469317723e+00 -1.269157440264e+02 0.0 
0.0 0.0 -5.808695031687e+01 
-6.751154822519e+01 1.389437008781e+00 0.0 
1.389437008781e+00 -1.268808656152e+02 0.0 
0.0 0.0 -5.791772415213e+01 
-7.518716059152e+00 -3.517231787453e-01 0.0 
-3.517231787453e-01 -9.159875994290e+00 0.0 
0.0 0.0 -3.195402523277e+00 
-1.010979254923e+01 -4.758787127578e-01 0.0 
-4.758787127578e-01 -2.530975249313e+01 0.0 
0.0 0.0 -7.988373815419e+00 
-1.216940211753e+01 -1.956818846131e-01 0.0 
-1.956818846131e-01 -4.169616320784e+01 0.0 
0.0 0.0 -1.396475010374e+01 
-5.185186806467e+01 -1.013535827760e+01 0.0 
-1.013535827760e+01 -1.083828577801e+02 0.0 
0.0 0.0 -4.398667797845e+01 
-1.357857535589e+01 2.959729221781e-02 0.0 
2.959729221781e-02 -2.595792964265e+01 0.0 
0.0 0.0 -9.255949007813e+00 
-9.662186350183e+01 -1.883846393955e+00 0.0 
-1.883846393955e+00 -2.029956095236e+02 0.0 
0.0 0.0 -8.479900570634e+01 
-5.092061400311e+01 -1.397676843487e+01 0.0 
-1.397676843487e+01 -5.984614106454e+01 0.0 
0.0 0.0 -3.379836188545e+01 
-6.100346281774e+01 -1.022054990225e+01 0.0 
-1.022054990225e+01 -1.292539824943e+02 0.0 
0.0 0.0 -5.252629704143e+01 
-9.186142872294e+01 6.773086895934e-01 0.0 
6.773086895934e-01 -1.936234876351e+02 0.0 
0.0 0.0 -8.524547490742e+01 
-6.985189226041e+01 2.538875587308e+00 0.0 
2.538875587308e+00 -1.273503584115e+02 0.0 
0.0 0.0 -5.876067520158e+01 
-1.281660571910e+02 1.904974874686e+01 0.0 
1.904974874686e+01 -2.882385264745e+02 0.0 
0.0 0.0 -1.245213750996e+02 
-1.094108295710e+02 1.261963193546e+00 0.0 
1.261963193546e+00 -2.867831019679e+02 0.0 
0.0 0.0 -1.184581794617e+02 
-8.471908958024e+01 3.141782089895e-01 0.0 
3.141782089895e-01 -1.757845379377e+02 0.0 
0.0 0.0 -7.775108825539e+01 
-7.468789749484e+01 -1.252736459359e+00 0.0 
-1.252736459359e+00 -1.512963414754e+02 0.0 
0.0 0.0 -6.269215849654e+01 
-1.597167832929e+01 -1.335911982148e-01 0.0 
-1.335911982148e-01 -4.279403688480e+01 0.0 
0.0 0.0 -1.439984149833e+01 
-1.323988865633e+02 5.881201403933e+00 0.0 
5.881201403933e+00 -3.102640686477e+02 0.0 
0.0 0.0 -1.323988865633e+02 
-1.350342656466e+02 6.410049444396e+00 0.0 
6.410049444396e+00 -3.115592461943e+02 0.0 
0.0 0.0 -1.335780535523e+02 
-8.436718734324e+01 2.283852691452e+00 0.0 
2.283852691452e+00 -1.667589920484e+02 0.0 
0.0 0.0 -7.493785381750e+01 
-6.822333302986e+01 1.765457049711e+00 0.0 
1.765457049711e+00 -1.265379643584e+02 0.0 
0.0 0.0 -5.802838921647e+01 
-7.489916370998e+01 -1.036958294297e+00 0.0 
-1.036958294297e+00 -1.538586237387e+02 0.0 
0.0 0.0 -6.364652998622e+01 
-1.344849002088e+02 4.646750856502e+00 0.0 
4.646750856502e+00 -3.106179741909e+02 0.0 
0.0 0.0 -1.331308623199e+02 
-5.655591906472e+01 -9.802442059682e+00 0.0 
-9.802442059682e+00 -1.209690133346e+02 0.0 
0.0 0.0 -4.922260063295e+01 
-7.073807456832e+01 3.295384300424e+00 0.0 
3.295384300424e+00 -1.277835820824e+02 0.0 
0.0 0.0 -5.915649699521e+01 
-6.937240602253e+01 2.192852719435e+00 0.0 
2.192852719435e+00 -1.266154311054e+02 0.0 
0.0 0.0 -5.839635113838e+01 
-7.389214766620e+01 9.003627774884e+00 0.0 
9.003627774884e+00 -1.221556761619e+02 0.0 
0.0 0.0 -5.585800192892e+01 
-1.352885031877e+02 1.206027253097e+01 0.0 
1.206027253097e+01 -3.170065074379e+02 0.0 
0.0 0.0 -1.352885031877e+02 
-1.355528786910e+02 5.390835929810e+00 0.0 
5.390835929810e+00 -3.115600684787e+02 0.0 
0.0 0.0 -1.337338841509e+02 
-1.375957488629e+01 -8.209746422379e-02 0.0 
-8.209746422379e-02 -2.572090457690e+01 0.0 
0.0 0.0 -9.212574433389e+00 
-7.609415933044e+00 -1.792837009000e-01 0.0 
-1.792837009000e-01 -9.302292585222e+00 0.0 
0.0 0.0 -3.305008061925e+00 
-3.144224686921e+01 -7.019827521708e+00 0.0 
-7.019827521708e+00 -5.860221153587e+01 0.0 
0.0 0.0 -2.438701751870e+01 
-9.611315527137e+01 -5.089018216938e+00 0.0 
-5.089018216938e+00 -2.234915184158e+02 0.0 
0.0 0.0 -9.129160780641e+01 
-1.522074087772e+02 -6.331914455113e-01 0.0 
-6.331914455113e-01 -3.618674078663e+02 0.0 
0.0 0.0 -1.538224449930e+02 
-1.037520269343e+02 -2.336921170838e+01 0.0 
-2.336921170838e+01 -7.604504086809e+01 0.0 
0.0 0.0 -5.421516217512e+01 
-1.078545991133e+02 1.370357998208e+00 0.0 
1.370357998208e+00 -2.366120469070e+02 0.0 
0.0 0.0 -1.029399938061e+02 
-3.306782480049e+01 -1.236685361965e+01 0.0 
-1.236685361965e+01 -1.188667148142e+01 0.0 
0.0 0.0 -1.348067309587e+01 
-1.009962296264e+02 6.058053543190e+00 0.0 
6.058053543190e+00 -2.788762331407e+02 0.0 
0.0 0.0 -1.161755941996e+02 
-2.392401255605e+01 -6.300612674250e+00 0.0 
-6.300612674250e+00 -1.354868358882e+01 0.0 
0.0 0.0 -1.013276827986e+01 
-5.627698163373e+01 -2.650011828820e+01 0.0 
-2.650011828820e+01 -3.411061892151e+01 0.0 
0.0 0.0 -2.740857369732e+01 
-9.720615550490e+01 4.027530449978e+00 0.0 
4.027530449978e+00 -2.702540696596e+02 0.0 
0.0 0.0 -1.129527656026e+02 
-1.470893226327e+02 3.573672440962e-01 0.0 
3.573672440962e-01 -3.523256806885e+02 0.0 
0.0 0.0 -1.494245009964e+02 
-9.200948191716e+01 1.147503929020e+00 0.0 
1.147503929020e+00 -1.925835989118e+02 0.0 
0.0 0.0 -8.497792424869e+01 
-8.304545766430e+01 1.701094327513e+01 0.0 
1.701094327513e+01 -1.475884793748e+02 0.0 
0.0 0.0 -6.603295700660e+01 
-9.611315807716e+00 -1.076605775875e-01 0.0 
-1.076605775875e-01 -2.535392992109e+01 0.0 
0.0 0.0 -7.992190825048e+00 
-1.190414510655e+02 -5.396550672065e-01 0.0 
-5.396550672065e-01 -2.790664683870e+02 0.0 
0.0 0.0 -1.169166199751e+02 
-1.314071304809e+02 1.939959096768e+00 0.0 
1.939959096768e+00 -3.079499711220e+02 0.0 
0.0 0.0 -1.314071304809e+02 
-1.338653137570e+02 2.750745624762e+00 0.0 
2.750745624762e+00 -3.096778840892e+02 0.0 
0.0 0.0 -1.326629593539e+02 
-6.894176337058e+01 1.966066092828e+00 0.0 
1.966066092828e+00 -1.270038553371e+02 0.0 
0.0 0.0 -5.838368561230e+01 
-1.055716211086e+02 8.095696404403e+00 0.0 
8.095696404403e+00 -2.871393868264e+02 0.0 
0.0 0.0 -1.193837876227e+02 
-1.323384254359e+02 4.797599959379e+00 0.0 
4.797599959379e+00 -3.101229926838e+02 0.0 
0.0 0.0 -1.323384254359e+02 
-1.126206996767e+02 1.909646185828e+01 0.0 
1.909646185828e+01 -2.778741899333e+02 0.0 
0.0 0.0 -1.167484668830e+02 
-1.502816287960e+01 -2.052377701674e-01 0.0 
-2.052377701674e-01 -4.150258851499e+01 0.0 
0.0 0.0 -1.364637168864e+01 
-1.331828776901e+01 6.037619973537e-02 0.0 
6.037619973537e-02 -2.573077351467e+01 0.0 
0.0 0.0 -9.146465775493e+00 
-9.299732723394e+00 2.615499844992e-02 0.0 
2.615499844992e-02 -2.467886394495e+01 0.0 
0.0 0.0 -7.870814948952e+00 
-8.453657856393e+01 -1.168000733898e+00 0.0 
-1.168000733898e+00 -1.720301702004e+02 0.0 
0.0 0.0 -7.168992312526e+01 
-1.664169599236e+02 1.767700309911e+00 0.0 
1.767700309911e+00 -3.922814236405e+02 0.0 
0.0 0.0 -1.672095150692e+02 
-1.258269636841e+02 1.058879796848e+00 0.0 
1.058879796848e+00 -2.874914573326e+02 0.0 
0.0 0.0 -1.235955263050e+02 
-7.284901899643e+00 1.115983362460e-01 0.0 
1.115983362460e-01 -9.249286436959e+00 0.0 
0.0 0.0 -3.148333881503e+00 
-9.735276445026e+01 1.454000142936e-01 0.0 
1.454000142936e-01 -2.032595718138e+02 0.0 
0.0 0.0 -8.506526895521e+01 
-1.682744314171e+02 1.040007182969e+00 0.0 
1.040007182969e+00 -3.939736733066e+02 0.0 
0.0 0.0 -1.682744314171e+02 
-1.658797427749e+02 1.566643654282e+00 0.0 
1.566643654282e+00 -3.917919774278e+02 0.0 
0.0 0.0 -1.669015160608e+02 
-1.635010790889e+02 7.582628639056e+00 0.0 
7.582628639056e+00 -3.894177010312e+02 0.0 
0.0 0.0 -1.654756340360e+02 
-1.004400125940e+02 -5.610007241354e-01 0.0 
-5.610007241354e-01 -2.168064123241e+02 0.0 
0.0 0.0 -9.477392747545e+01 
-1.117058597245e+02 9.486069908997e-01 0.0 
9.486069908997e-01 -2.470014132325e+02 0.0 
0.0 0.0 -1.072121818871e+02 
-1.674921991862e+02 1.495428439721e+00 0.0 
1.495428439721e+00 -3.921484647678e+02 0.0 
0.0 0.0 -1.674921991862e+02 
-1.678510620529e+02 2.073163840925e+00 0.0 
2.073163840925e+00 -3.929858114568e+02 0.0 
0.0 0.0 -1.678510620529e+02 
-1.079429752430e+02 -3.238303315669e-01 0.0 
-3.238303315669e-01 -2.367352779673e+02 0.0 
0.0 0.0 -1.030034759631e+02 
-1.237643618197e+01 -2.719860043860e-01 0.0 
-2.719860043860e-01 -6.450320188874e+00 0.0 
0.0 0.0 -4.615951882813e+00 
-6.621063225166e+01 7.581207481773e-01 0.0 
7.581207481773e-01 -1.258557655069e+02 0.0 
0.0 0.0 -5.721991932757e+01 
-6.821790315485e+01 1.462377290338e+00 0.0 
1.462377290338e+00 -1.270603911178e+02 0.0 
0.0 0.0 -5.818348828180e+01 
-7.409162028540e+00 -5.736262677703e-02 0.0 
-5.736262677703e-02 -9.256478911829e+00 0.0 
0.0 0.0 -3.210830463053e+00 
-1.680481662937e+02 3.958525002879e+00 0.0 
3.958525002879e+00 -3.934457213519e+02 0.0 
0.0 0.0 -1.680481662937e+02 
-1.636375425153e+02 6.285866869130e+00 0.0 
6.285866869130e+00 -3.898003446626e+02 0.0 
0.0 0.0 -1.656313661534e+02 
-1.671428856577e+02 5.717906058538e+00 0.0 
5.717906058538e+00 -3.913333998679e+02 0.0 
0.0 0.0 -1.671428856577e+02 
-1.223793449914e+01 1.276940385303e-01 0.0 
1.276940385303e-01 -7.679233460628e+00 0.0 
0.0 0.0 -4.831452062607e+00 
-1.218304832632e+01 4.323406565381e-02 0.0 
4.323406565381e-02 -7.811857649137e+00 0.0 
0.0 0.0 -4.825066484078e+00 
-1.667908032331e+02 7.961245388653e+00 0.0 
7.961245388653e+00 -3.905118742105e+02 0.0 
0.0 0.0 -1.667908032330e+02 
-1.671090468234e+02 6.866803883717e+00 0.0 
6.866803883717e+00 -3.912544425879e+02 0.0 
0.0 0.0 -1.671090468234e+02 
-9.650101084117e+01 9.881182591499e-01 0.0 
9.881182591499e-01 -2.067648278198e+02 0.0 
0.0 0.0 -9.057975159829e+01 
-6.505276368433e+01 1.727937529896e-01 0.0 
1.727937529896e-01 -1.254375839783e+02 0.0 
0.0 0.0 -5.674710429880e+01 
-1.043837095408e+02 9.854287147746e-01 0.0 
9.854287147746e-01 -2.268569482563e+02 0.0 
0.0 0.0 -9.897219733911e+01 
-8.109821223592e+01 9.313511327720e-01 0.0 
9.313511327720e-01 -1.669663874857e+02 0.0 
0.0 0.0 -7.401937991650e+01 
-6.498964424621e+01 5.738980186281e-02 0.0 
5.738980186281e-02 -1.255549866926e+02 0.0 
0.0 0.0 -5.676338928165e+01 
-1.317551346349e+01 2.762205607624e-02 0.0 
2.762205607624e-02 -7.605886561535e+00 0.0 
0.0 0.0 -5.092407394650e+00 
-1.366551246793e+01 4.179242883909e-01 0.0 
4.179242883909e-01 -7.661709711960e+00 0.0 
0.0 0.0 -5.998166653967e+00 
-1.326690528559e+01 8.157066188780e-01 0.0 
8.157066188780e-01 -6.872217333693e+00 0.0 
0.0 0.0 -5.641736785785e+00 
-1.256436613740e+01 1.135961540107e+00 0.0 
1.135961540107e+00 -7.256260767815e+00 0.0 
0.0 0.0 -5.546188071564e+00 
-1.009114059847e+02 -1.148615971900e+00 0.0 
-1.148615971900e+00 -2.136493528823e+02 0.0 
0.0 0.0 -8.949688085648e+01 
-9.316235217694e+01 -1.124364724613e+00 0.0 
-1.124364724613e+00 -1.927959889629e+02 0.0 
0.0 0.0 -8.061152456608e+01 
-8.156383114437e+00 -2.726193213210e-01 0.0 
-2.726193213210e-01 -9.354103429075e+00 0.0 
0.0 0.0 -4.091085245135e+00 
-1.193801439055e+02 -9.659546042059e-01 0.0 
-9.659546042059e-01 -2.736795169094e+02 0.0 
0.0 0.0 -1.152686145158e+02 
-1.009303217679e+01 -3.251611176005e-01 0.0 
-3.251611176005e-01 -9.526626407147e+00 0.0 
0.0 0.0 -5.389014833523e+00 
-1.337965835509e+02 9.719186912683e+00 0.0 
9.719186912683e+00 -3.135253616188e+02 0.0 
0.0 0.0 -1.337965835509e+02 
-1.318992203177e+02 4.006991840836e+00 0.0 
4.006991840836e+00 -3.090981807414e+02 0.0 
0.0 0.0 -1.318992203177e+02 
-1.325791633532e+02 6.773832861287e+00 0.0 
6.773832861287e+00 -3.106847144908e+02 0.0 
0.0 0.0 -1.325791633532e+02 
-1.949545622453e+01 -1.485468540424e+00 0.0 
-1.485468540424e+00 -6.878762697551e+01 0.0 
0.0 0.0 -2.608492496001e+01 
-6.335228649427e+01 -1.297088631718e+00 0.0 
-1.297088631718e+00 -1.305591315385e+02 0.0 
0.0 0.0 -5.367318774411e+01 
-1.315500427694e+02 3.245964983446e+00 0.0 
3.245964983446e+00 -3.082834331285e+02 0.0 
0.0 0.0 -1.315500427694e+02 
-1.387099264578e+02 -7.502508572429e-01 0.0 
-7.502508572429e-01 -3.332819857104e+02 0.0 
0.0 0.0 -1.411975736504e+02 
-1.323720912318e+02 2.636545894427e+00 0.0 
2.636545894427e+00 -3.102015462076e+02 0.0 
0.0 0.0 -1.323720912318e+02 
-1.478701479671e+02 -7.822927480294e-01 0.0 
-7.822927480294e-01 -3.527933675955e+02 0.0 
0.0 0.0 -1.497990546688e+02 
-1.572361813306e+02 -8.651433597726e-01 0.0 
-8.651433597726e-01 -3.722498426380e+02 0.0 
0.0 0.0 -1.584458071906e+02 
-8.904941675529e+01 1.686040216443e-01 0.0 
1.686040216443e-01 -1.825196745803e+02 0.0 
0.0 0.0 -7.619032693335e+01 
-1.340636442914e+02 3.814432971126e+00 0.0 
3.814432971126e+00 -3.096782514706e+02 0.0 
0.0 0.0 -1.327225687286e+02 
-1.337400432017e+02 2.532493904839e+00 0.0 
2.532493904839e+00 -3.098149128569e+02 0.0 
0.0 0.0 -1.326664868176e+02 
-1.429220952182e+02 1.048476645918e+00 0.0 
1.048476645918e+00 -3.420946879872e+02 0.0 
0.0 0.0 -1.451050349616e+02 
-1.523744962805e+02 1.092587666227e+00 0.0 
1.092587666227e+00 -3.620785061137e+02 0.0 
0.0 0.0 -1.539359007183e+02 
-1.248706434775e+02 4.323580237436e-01 0.0 
4.323580237436e-01 -2.952367128654e+02 0.0 
0.0 0.0 -1.243654247250e+02 
-2.438310310604e+01 -3.984452344985e+00 0.0 
-3.984452344985e+00 -9.900315550546e+00 0.0 
0.0 0.0 -1.086150177986e+01 
-8.959265970311e+01 -4.271828349163e+00 0.0 
-4.271828349163e+00 -1.882632522031e+02 0.0 
0.0 0.0 -7.689257462427e+01 
-1.404701967006e+01 -1.140257341609e-02 0.0 
-1.140257341609e-02 -2.524216876849e+01 0.0 
0.0 0.0 -9.267937142490e+00 
-1.440097103195e+02 3.767772586075e+00 0.0 
3.767772586075e+00 -3.493707632894e+02 0.0 
0.0 0.0 -1.476141420827e+02 
-9.099804487598e+01 -5.934789149659e+00 0.0 
-5.934789149659e+00 -1.996060910807e+02 0.0 
0.0 0.0 -8.129696346288e+01 
-1.334174734987e+02 1.662513071747e-01 0.0 
1.662513071747e-01 -3.249124468827e+02 0.0 
0.0 0.0 -1.370989761144e+02 
-4.578147914820e+01 -8.887133232808e+00 0.0 
-8.887133232808e+00 -9.949947616449e+01 0.0 
0.0 0.0 -3.971088614357e+01 
-1.518393677450e+01 -1.605416968424e+00 0.0 
-1.605416968424e+00 -4.160539808963e+01 0.0 
0.0 0.0 -1.513991667580e+01 
-1.432575580894e+02 2.016022563809e+00 0.0 
2.016022563809e+00 -3.444848834104e+02 0.0 
0.0 0.0 -1.459227324499e+02 
-9.764094557285e+01 -3.583203735945e+00 0.0 
-3.583203735945e+00 -2.085418299710e+02 0.0 
0.0 0.0 -8.611965183512e+01 
-7.989838271777e+01 -2.245419675407e+00 0.0 
-2.245419675407e+00 -1.617721175359e+02 0.0 
0.0 0.0 -6.705018498599e+01 
-1.342339577068e+02 1.653433210493e+00 0.0 
1.653433210493e+00 -3.255963306419e+02 0.0 
0.0 0.0 -1.375490865046e+02 
-1.178204926141e+02 6.412379683708e-01 0.0 
6.412379683708e-01 -2.649851032964e+02 0.0 
0.0 0.0 -1.144416787731e+02 
-7.976125260306e+01 2.032061040898e-01 0.0 
2.032061040898e-01 -1.619974930481e+02 0.0 
0.0 0.0 -6.732845523541e+01 
-1.196528218679e+02 5.291915125071e+00 0.0 
5.291915125071e+00 -3.080574671032e+02 0.0 
0.0 0.0 -1.279130866913e+02 
-1.085257785810e+02 -1.105354157111e+00 0.0 
-1.105354157111e+00 -2.733123655412e+02 0.0 
0.0 0.0 -1.134859735212e+02 
-1.220602311857e+02 -9.626749353775e-01 0.0 
-9.626749353775e-01 -2.944464681424e+02 0.0 
0.0 0.0 -1.238379256539e+02 
-1.254239764822e+02 -7.237036118474e-01 0.0 
-7.237036118474e-01 -3.030672520154e+02 0.0 
0.0 0.0 -1.277577447485e+02 
-6.019702151015e+01 1.536073860524e+01 0.0 
1.536073860524e+01 -1.800802639092e+02 0.0 
0.0 0.0 -7.011686750138e+01 
-7.675447052370e+01 1.618873580035e+01 0.0 
1.618873580035e+01 -1.268530025139e+02 0.0 
0.0 0.0 -5.684902514045e+01 
-7.673200681118e+01 2.295652552171e+01 0.0 
2.295652552171e+01 -1.842458495273e+02 0.0 
0.0 0.0 -7.728003405158e+01 
-1.149202129871e+02 -1.597446926724e+00 0.0 
-1.597446926724e+00 -2.781278247795e+02 0.0 
0.0 0.0 -1.163049980664e+02 
-1.384925913359e+02 1.622598544471e+00 0.0 
1.622598544471e+00 -3.339159007840e+02 0.0 
0.0 0.0 -1.413225476360e+02 
-1.284835063608e+02 -6.847705016545e-01 0.0 
-6.847705016545e-01 -3.118719783275e+02 0.0 
0.0 0.0 -1.317066454065e+02 
-5.203006762561e+01 -1.349687267065e+01 0.0 
-1.349687267065e+01 -1.068446815717e+02 0.0 
0.0 0.0 -4.402984440446e+01 
-1.179355167871e+02 1.658573189008e+00 0.0 
1.658573189008e+00 -2.640188698042e+02 0.0 
0.0 0.0 -1.141863159774e+02 
-1.104753716160e+02 1.391467962622e+00 0.0 
1.391467962622e+00 -2.435953989241e+02 0.0 
0.0 0.0 -1.058212311620e+02 
-7.611565293898e+01 -2.410239868450e-02 0.0 
-2.410239868450e-02 -1.522701416482e+02 0.0 
0.0 0.0 -6.811573837615e+01 
-1.165960018756e+02 -6.767533230474e-01 0.0 
-6.767533230474e-01 -2.893499574831e+02 0.0 
0.0 0.0 -1.209983586119e+02 
-1.185850344568e+02 -1.248604153225e+00 0.0 
-1.248604153225e+00 -2.862760836033e+02 0.0 
0.0 0.0 -1.200751817524e+02 
-1.185810837699e+02 2.472229949976e+00 0.0 
2.472229949976e+00 -2.660422328150e+02 0.0 
0.0 0.0 -1.149869949755e+02 
-1.143627868235e+02 1.162236668139e+00 0.0 
1.162236668139e+00 -2.545061858098e+02 0.0 
0.0 0.0 -1.102606917900e+02 
-1.107913074033e+02 -1.765805848530e+00 0.0 
-1.765805848530e+00 -2.667545669188e+02 0.0 
0.0 0.0 -1.102824894063e+02 
-1.475804170914e+02 1.831649012769e+00 0.0 
1.831649012769e+00 -3.527248556958e+02 0.0 
0.0 0.0 -1.496915818362e+02 
-1.103126115479e+02 3.538986642179e+00 0.0 
3.538986642179e+00 -2.402913713332e+02 0.0 
0.0 0.0 -1.047811948643e+02 
-1.295773559782e+02 8.411601416664e-01 0.0 
8.411601416664e-01 -3.120034101281e+02 0.0 
0.0 0.0 -1.318380040465e+02 
-1.490632509839e+02 3.650411868351e+00 0.0 
3.650411868351e+00 -3.584453702016e+02 0.0 
0.0 0.0 -1.518525863557e+02 
-1.185768286335e+02 3.591162403489e+00 0.0 
3.591162403489e+00 -2.647486869917e+02 0.0 
0.0 0.0 -1.145976546876e+02 
-1.005340333679e+02 3.116299315740e+00 0.0 
3.116299315740e+00 -2.132514770086e+02 0.0 
0.0 0.0 -9.373565311298e+01 
-1.156649016491e+02 3.709453669647e+00 0.0 
3.709453669647e+00 -2.982907612827e+02 0.0 
0.0 0.0 -1.237866988795e+02 
-4.668756774342e+01 -5.071350208606e+00 0.0 
-5.071350208606e+00 -1.008304977679e+02 0.0 
0.0 0.0 -3.933745323226e+01 
-5.082360539154e+01 -1.445628359845e+01 0.0 
-1.445628359845e+01 -1.008189439116e+02 0.0 
0.0 0.0 -4.143295031243e+01 
-2.436182431453e+01 -2.388146232265e+00 0.0 
-2.388146232265e+00 -4.867826353763e+01 0.0 
0.0 0.0 -1.810219307094e+01 
-3.609828273154e+01 -1.423944920475e+01 0.0 
-1.423944920475e+01 -3.460207852465e+01 0.0 
0.0 0.0 -1.775448632104e+01 
-1.150478937459e+02 2.875602914577e+00 0.0 
2.875602914577e+00 -2.550368138888e+02 0.0 
0.0 0.0 -1.106254122904e+02 
-1.422386584365e+02 -6.972132583274e-02 0.0 
-6.972132583274e-02 -3.416005012458e+02 0.0 
0.0 0.0 -1.447517479047e+02 
-2.621753917968e+01 -6.289509593956e+00 0.0 
-6.289509593956e+00 -2.844065026564e+01 0.0 
0.0 0.0 -1.315181730826e+01 
-1.250127665990e+02 1.517947178128e+01 0.0 
1.517947178128e+01 -2.723813767090e+02 0.0 
0.0 0.0 -1.188182429924e+02 
-8.029166396524e+01 4.336258095144e-01 0.0 
4.336258095144e-01 -1.613993317720e+02 0.0 
0.0 0.0 -7.210729872119e+01 
-1.302002424498e+02 1.627693496548e+00 0.0 
1.627693496548e+00 -3.176292581767e+02 0.0 
0.0 0.0 -1.339488501879e+02 
-1.329095938362e+02 -3.660267361506e-01 0.0 
-3.660267361506e-01 -3.222446553998e+02 0.0 
0.0 0.0 -1.361462747708e+02 
-6.222931806605e+01 -1.385604798294e+01 0.0 
-1.385604798294e+01 -1.539805151886e+02 0.0 
0.0 0.0 -6.270652272784e+01 
-1.336806436331e+02 1.197200003305e+00 0.0 
1.197200003305e+00 -3.228936796893e+02 0.0 
0.0 0.0 -1.365722969967e+02 
-7.687436973821e+01 2.123224307122e+00 0.0 
2.123224307122e+00 -1.525271172285e+02 0.0 
0.0 0.0 -6.842044609002e+01 
-1.059330615964e+02 1.461052211940e+01 0.0 
1.461052211940e+01 -2.814025693382e+02 0.0 
0.0 0.0 -1.159342166387e+02 
-1.533594001735e+02 1.711455935062e+00 0.0 
1.711455935062e+00 -3.666099394028e+02 0.0 
0.0 0.0 -1.555908018729e+02 
-4.337675365462e+01 -2.891666849860e+00 0.0 
-2.891666849860e+00 -9.687898396056e+01 0.0 
0.0 0.0 -3.850201328581e+01 
-1.487958364595e+02 4.636590242427e+00 0.0 
4.636590242427e+00 -3.599608848127e+02 0.0 
0.0 0.0 -1.522270163817e+02 
-1.042631551822e+02 2.804012923293e+00 0.0 
2.804012923293e+00 -2.242112582198e+02 0.0 
0.0 0.0 -9.814232402059e+01 
-5.166180579036e+01 -4.251094415169e+00 0.0 
-4.251094415169e+00 -1.093532950958e+02 0.0 
0.0 0.0 -4.357208044267e+01 
-5.713351811454e+01 -1.582118650736e+01 0.0 
-1.582118650736e+01 -1.208985294208e+02 0.0 
0.0 0.0 -5.048502793766e+01 
-1.061641317659e+02 -2.525663259990e+00 0.0 
-2.525663259990e+00 -2.328603140093e+02 0.0 
0.0 0.0 -9.749903633726e+01 
-9.181907417280e+01 1.561877087928e+00 0.0 
1.561877087928e+00 -1.908382542567e+02 0.0 
0.0 0.0 -8.439719852884e+01 
-7.490208005996e+01 -8.035132779524e+00 0.0 
-8.035132779524e+00 -1.584485673244e+02 0.0 
0.0 0.0 -6.422912712919e+01 
-1.079332518863e+02 2.599207299728e+00 0.0 
2.599207299728e+00 -2.350599140570e+02 0.0 
0.0 0.0 -1.024979497830e+02 
-9.663514254492e+01 2.603188727580e+00 0.0 
2.603188727580e+00 -2.035976603568e+02 0.0 
0.0 0.0 -8.966984087053e+01 
-1.016814416765e+02 -4.110582065492e+00 0.0 
-4.110582065492e+00 -2.277541627295e+02 0.0 
0.0 0.0 -9.449441725375e+01 
-1.272951056576e+02 7.140057818746e-01 0.0 
7.140057818746e-01 -3.034401661596e+02 0.0 
0.0 0.0 -1.280131814024e+02 
-1.298647518001e+02 1.156038376326e+00 0.0 
1.156038376326e+00 -3.146876870394e+02 0.0 
0.0 0.0 -1.328503064949e+02 
-1.031088820219e+02 1.011450078835e+00 0.0 
1.011450078835e+00 -2.233565572298e+02 0.0 
0.0 0.0 -9.753963177550e+01 
-3.377187582246e+01 -3.857017568044e+00 0.0 
-3.857017568044e+00 -8.459107551196e+01 0.0 
0.0 0.0 -3.218350897935e+01 
-9.896915534196e+01 -4.147902351835e+00 0.0 
-4.147902351835e+00 -2.159839068311e+02 0.0 
0.0 0.0 -8.963258850063e+01 
-1.266145639031e+02 1.580802565223e+01 0.0 
1.580802565223e+01 -3.138455841403e+02 0.0 
0.0 0.0 -1.317380444130e+02 
-1.078961464517e+02 3.505873618216e+00 0.0 
3.505873618216e+00 -2.334130322729e+02 0.0 
0.0 0.0 -1.019927536174e+02 
-9.180972451170e+01 -4.978777140389e+00 0.0 
-4.978777140389e+00 -1.953929714314e+02 0.0 
0.0 0.0 -8.049706328178e+01 
-1.144657773046e+02 -1.012061400807e+00 0.0 
-1.012061400807e+00 -2.745915688177e+02 0.0 
0.0 0.0 -1.141719781343e+02 
-1.442988927394e+02 5.155348598821e+00 0.0 
5.155348598821e+00 -3.519785242467e+02 0.0 
0.0 0.0 -1.484832250958e+02 
-9.960219010052e+01 1.356127168246e+00 0.0 
1.356127168246e+00 -2.125610566576e+02 0.0 
0.0 0.0 -9.324897402744e+01 
-2.897022028558e+01 -8.196442566906e+00 0.0 
-8.196442566906e+00 -1.205484291714e+02 0.0 
0.0 0.0 -4.716568814527e+01 
-1.850829606962e+01 -1.137715488484e-01 0.0 
-1.137715488484e-01 -4.644470630475e+01 0.0 
0.0 0.0 -1.746389605491e+01 
-3.963956299772e+01 4.574042680111e+00 0.0 
4.574042680111e+00 -1.369784004245e+02 0.0 
0.0 0.0 -5.110514332062e+01 
-1.378309686849e+02 4.251957242240e-02 0.0 
4.251957242240e-02 -3.332937554626e+02 0.0 
0.0 0.0 -1.409374172443e+02 
-9.564488397207e+01 1.500321127685e+00 0.0 
1.500321127685e+00 -2.016805461357e+02 0.0 
0.0 0.0 -8.879762903233e+01 
-1.137280125078e+02 -2.130155018113e-01 0.0 
-2.130155018113e-01 -2.534593857522e+02 0.0 
0.0 0.0 -1.065458923826e+02 
-8.421833797453e+01 1.064983558873e+00 0.0 
1.064983558873e+00 -1.709670019784e+02 0.0 
0.0 0.0 -7.615560198589e+01 
-1.337958250875e+02 8.007646605390e+00 0.0 
8.007646605390e+00 -3.356912929388e+02 0.0 
0.0 0.0 -1.404461354079e+02 
-1.053346216714e+02 -3.369465463488e+00 0.0 
-3.369465463488e+00 -2.359559761990e+02 0.0 
0.0 0.0 -9.839096521879e+01 
-1.285806819032e+02 -3.798250055818e-01 0.0 
-3.798250055818e-01 -3.139586370543e+02 0.0 
0.0 0.0 -1.323617956872e+02 
-4.316777200801e+01 -2.272550396160e+00 0.0 
-2.272550396160e+00 -1.019067148927e+02 0.0 
0.0 0.0 -4.023466046606e+01 
-1.482332458134e+02 2.014707837661e+00 0.0 
2.014707837661e+00 -3.581870325177e+02 0.0 
0.0 0.0 -1.515260834993e+02 
-1.047564594394e+02 -2.832913691875e+00 0.0 
-2.832913691875e+00 -2.285782636264e+02 0.0 
0.0 0.0 -9.499787367904e+01 
-4.843472367665e+01 -1.411139441510e+00 0.0 
-1.411139441510e+00 -1.103033035186e+02 0.0 
0.0 0.0 -4.424031937930e+01 
-1.013385655162e+02 -2.530331828441e+00 0.0 
-2.530331828441e+00 -2.168291001219e+02 0.0 
0.0 0.0 -9.016556047468e+01 
-7.951431891799e+01 -6.739358182055e+00 0.0 
-6.739358182055e+00 -1.668073426330e+02 0.0 
0.0 0.0 -6.732604388097e+01 
-6.083003461260e+01 -8.139472323743e+00 0.0 
-8.139472323743e+00 -1.297989994783e+02 0.0 
0.0 0.0 -5.246407197595e+01 
-1.121267410039e+02 -1.980056530889e+00 0.0 
-1.980056530889e+00 -2.525343270123e+02 0.0 
0.0 0.0 -1.059801749863e+02 
-9.031122750975e+00 -4.250795515204e-01 0.0 
-4.250795515204e-01 -9.395843139031e+00 0.0 
0.0 0.0 -3.896546577862e+00 
-8.995659340918e+00 -3.548511971360e-01 0.0 
-3.548511971360e-01 -9.939047426102e+00 0.0 
0.0 0.0 -4.684604676979e+00 
-1.220103519791e+02 2.086480084964e-02 0.0 
2.086480084964e-02 -2.871313308102e+02 0.0 
0.0 0.0 -1.206437547057e+02 
-3.758956860839e+01 -2.989202635145e+00 0.0 
-2.989202635145e+00 -9.353470626881e+01 0.0 
0.0 0.0 -3.625074261580e+01 
-1.212519825635e+02 2.165506392791e-01 0.0 
2.165506392791e-01 -2.903767679360e+02 0.0 
0.0 0.0 -1.216905530243e+02 
-1.179526784270e+02 -3.550142604146e-01 0.0 
-3.550142604146e-01 -2.824658854396e+02 0.0 
0.0 0.0 -1.179601216555e+02 
-8.191241746053e+01 -8.098110701121e+00 0.0 
-8.098110701121e+00 -1.833585975868e+02 0.0 
0.0 0.0 -7.481747664078e+01 
-5.443563834413e+01 -1.556493153516e+01 0.0 
-1.556493153516e+01 -1.309285004763e+02 0.0 
0.0 0.0 -5.105014865242e+01 
-1.151379270702e+02 5.081887695289e+00 0.0 
5.081887695289e+00 -2.520685429224e+02 0.0 
0.0 0.0 -1.097619409978e+02 
-3.495802496234e+01 2.757387627719e+01 0.0 
2.757387627719e+01 -9.595927870045e+01 0.0 
0.0 0.0 -3.894710423189e+01 
-8.400212524950e+01 -5.552484495645e+00 0.0 
-5.552484495645e+00 -1.753941989065e+02 0.0 
0.0 0.0 -7.143705486148e+01 
-1.384655919027e+02 9.580863787665e+00 0.0 
9.580863787665e+00 -3.440629246609e+02 0.0 
0.0 0.0 -1.443585549691e+02 
-3.298373994765e+01 -4.178613553964e+00 0.0 
-4.178613553964e+00 -7.975415240033e+01 0.0 
0.0 0.0 -3.052551431988e+01 
-8.916406622377e+01 2.727828551189e+00 0.0 
2.727828551189e+00 -1.824853586132e+02 0.0 
0.0 0.0 -8.109482745108e+01 
-8.133050331864e+01 2.334075454170e+00 0.0 
2.334075454170e+00 -1.622045034458e+02 0.0 
0.0 0.0 -7.266050202934e+01 
-3.547141578053e+01 -6.748856121690e+00 0.0 
-6.748856121690e+00 -7.839787648670e+01 0.0 
0.0 0.0 -3.033579436983e+01 
-1.393083471172e+02 5.525051190505e+00 0.0 
5.525051190505e+00 -3.435625689795e+02 0.0 
0.0 0.0 -1.444612748290e+02 
-1.046047618434e+02 4.750855490000e+00 0.0 
4.750855490000e+00 -2.210681481686e+02 0.0 
0.0 0.0 -9.730187300360e+01 
-4.226017515262e+01 -5.752585551765e+00 0.0 
-5.752585551765e+00 -9.250999724385e+01 0.0 
0.0 0.0 -3.594624014532e+01 
-1.185999494577e+02 5.867414708619e+00 0.0 
5.867414708619e+00 -2.611930857060e+02 0.0 
0.0 0.0 -1.135379105491e+02 
-1.170146412218e+02 4.238998692312e+00 0.0 
4.238998692312e+00 -2.601575599999e+02 0.0 
0.0 0.0 -1.127516603665e+02 
-4.634276698254e+01 -4.769023281344e+00 0.0 
-4.769023281344e+00 -1.053001386876e+02 0.0 
0.0 0.0 -4.046931926037e+01 
-5.527082320822e+01 2.777532906797e+01 0.0 
2.777532906797e+01 -9.137319274981e+01 0.0 
0.0 0.0 -4.076213014006e+01 
-4.963780179081e+01 -7.808015573319e+00 0.0 
-7.808015573319e+00 -1.084731065427e+02 0.0 
0.0 0.0 -4.304917404903e+01 
-1.271353212042e+02 9.310720253873e-01 0.0 
9.310720253873e-01 -3.064377115259e+02 0.0 
0.0 0.0 -1.290941877778e+02 
-1.088226245931e+02 -2.649844404316e+00 0.0 
-2.649844404316e+00 -2.442998162247e+02 0.0 
0.0 0.0 -1.022371547765e+02 
-1.222684736600e+02 1.140279199188e+01 0.0 
1.140279199188e+01 -2.693077151831e+02 0.0 
0.0 0.0 -1.170728566529e+02 
-1.137947872307e+02 3.244947221949e+00 0.0 
3.244947221949e+00 -2.511881764876e+02 0.0 
0.0 0.0 -1.090948891155e+02 
-1.243260618942e+02 6.497113043699e-01 0.0 
6.497113043699e-01 -2.983842740486e+02 0.0 
0.0 0.0 -1.254068855082e+02 
-1.205647643716e+02 -5.055590613232e-01 0.0 
-5.055590613232e-01 -2.975145125119e+02 0.0 
0.0 0.0 -1.248241472067e+02 
-4.242761577139e+01 -8.974951532884e+00 0.0 
-8.974951532884e+00 -8.776783264507e+01 0.0 
0.0 0.0 -3.552682613275e+01 
-1.244533429312e+02 -4.311886425477e-01 0.0 
-4.311886425477e-01 -3.057391348288e+02 0.0 
0.0 0.0 -1.286577433280e+02 
-1.031354789129e+02 2.905825085334e+00 0.0 
2.905825085334e+00 -2.201343241557e+02 0.0 
0.0 0.0 -9.658094092059e+01 
-1.109333922304e+02 -1.064109724730e+00 0.0 
-1.064109724730e+00 -2.450792848957e+02 0.0 
0.0 0.0 -1.027388030496e+02 
-9.685279529361e+01 3.260756879109e+00 0.0 
3.260756879109e+00 -2.024879454129e+02 0.0 
0.0 0.0 -8.940222221196e+01 
-1.080746886461e+02 4.532139193743e+00 0.0 
4.532139193743e+00 -2.318577259783e+02 0.0 
0.0 0.0 -1.015797243873e+02 
-7.603290907244e+01 1.694629519827e+01 0.0 
1.694629519827e+01 -2.155011665127e+02 0.0 
0.0 0.0 -9.024823406189e+01 
-1.102796288900e+02 2.453462521829e+00 0.0 
2.453462521829e+00 -2.418616327344e+02 0.0 
0.0 0.0 -1.052423784873e+02 
-9.590558966186e+01 -3.990062399601e+00 0.0 
-3.990062399601e+00 -2.050397990589e+02 0.0 
0.0 0.0 -8.510690183939e+01 
-1.079603579907e+02 -1.879881219046e+00 0.0 
-1.879881219046e+00 -2.367482202145e+02 0.0 
0.0 0.0 -9.888170076451e+01 
-7.500945282782e+01 -6.255390566179e+00 0.0 
-6.255390566179e+00 -1.547643528349e+02 0.0 
0.0 0.0 -6.213256145030e+01 
-7.599333720027e+01 -1.185302535396e+01 0.0 
-1.185302535396e+01 -1.684400384966e+02 0.0 
0.0 0.0 -7.058680317029e+01 
-9.938580433324e+01 2.145908076522e+00 0.0 
2.145908076522e+00 -2.108567252492e+02 0.0 
0.0 0.0 -9.267275887472e+01 
-9.603954082047e+01 -6.121604840996e+00 0.0 
-6.121604840996e+00 -2.326367999318e+02 0.0 
0.0 0.0 -9.837455130765e+01 
-5.401295239431e+01 -6.508194180269e+00 0.0 
-6.508194180269e+00 -1.174224505996e+02 0.0 
0.0 0.0 -4.633874782456e+01 
-2.570715200289e+01 -3.104087088458e+00 0.0 
-3.104087088458e+00 -5.834419603834e+01 0.0 
0.0 0.0 -2.179206870781e+01 
-1.007659464909e+02 3.950468219675e+00 0.0 
3.950468219675e+00 -2.117456799302e+02 0.0 
0.0 0.0 -9.335348792633e+01 
-5.579034404704e+01 -9.047942605554e+00 0.0 
-9.047942605554e+00 -1.167464793919e+02 0.0 
0.0 0.0 -4.709565720340e+01 
-1.483231107507e+02 3.386397845537e+00 0.0 
3.386397845537e+00 -3.595801133649e+02 0.0 
0.0 0.0 -1.519709672347e+02 
-1.031177460490e+02 1.976855329687e+00 0.0 
1.976855329687e+00 -2.217207397606e+02 0.0 
0.0 0.0 -9.705154574287e+01 
-1.288123882434e+02 1.488726050653e-01 0.0 
1.488726050653e-01 -3.167196002348e+02 0.0 
0.0 0.0 -1.332595965435e+02 
-1.537310728717e+02 1.287789184070e+01 0.0 
1.287789184070e+01 -3.671963034126e+02 0.0 
0.0 0.0 -1.558782128853e+02 
-9.342959782521e+01 -3.049270137618e+00 0.0 
-3.049270137618e+00 -1.964625154332e+02 0.0 
0.0 0.0 -8.117403423618e+01 
-4.958446144067e+01 -7.627323109979e+00 0.0 
-7.627323109979e+00 -1.041993932227e+02 0.0 
0.0 0.0 -4.160536549689e+01 
-3.274187482556e+01 -7.177024043594e+00 0.0 
-7.177024043594e+00 -6.636091972821e+01 0.0 
0.0 0.0 -2.702173354912e+01 
-1.230746519578e+02 1.163033098196e+00 0.0 
1.163033098196e+00 -3.015220648308e+02 0.0 
0.0 0.0 -1.263587494643e+02 
-9.198890062960e+01 9.104175289631e-01 0.0 
9.104175289631e-01 -1.926388046313e+02 0.0 
0.0 0.0 -8.498831157827e+01 
-2.238788546672e+01 -4.157576349844e+00 0.0 
-4.157576349844e+00 -4.715277074264e+01 0.0 
0.0 0.0 -1.844643294459e+01 
-7.612868802895e+01 -6.081366779963e+00 0.0 
-6.081366779963e+00 -1.594586023010e+02 0.0 
0.0 0.0 -6.474863374871e+01 
-3.398469202608e+01 -8.723634660717e-01 0.0 
-8.723634660717e-01 -9.011760953590e+01 0.0 
0.0 0.0 -3.540570950670e+01 
-9.322192072855e+01 3.333205338064e+00 0.0 
3.333205338064e+00 -1.917289648559e+02 0.0 
0.0 0.0 -8.508526567532e+01 
-8.066306573707e+01 -4.705049727575e+00 0.0 
-4.705049727575e+00 -1.679093712310e+02 0.0 
0.0 0.0 -6.783972843611e+01 
-1.125800013676e+02 -8.920868364256e-01 0.0 
-8.920868364256e-01 -2.813198174052e+02 0.0 
0.0 0.0 -1.172420291973e+02 
-7.539110020355e+01 -3.811413585008e+00 0.0 
-3.811413585008e+00 -1.558054387958e+02 0.0 
0.0 0.0 -6.310856804046e+01 
-1.114669393052e+02 3.253106467513e+00 0.0 
3.253106467513e+00 -2.443644064535e+02 0.0 
0.0 0.0 -1.063494037276e+02 
-6.561540421559e+01 -8.828791032974e+00 0.0 
-8.828791032974e+00 -1.375715885783e+02 0.0 
0.0 0.0 -5.569937369781e+01 
-1.213233507940e+02 2.328288084147e+00 0.0 
2.328288084147e+00 -3.042816254801e+02 0.0 
0.0 0.0 -1.272395645177e+02 
-5.049247997826e+01 -1.378991348842e+01 0.0 
-1.378991348842e+01 -1.000590286440e+02 0.0 
0.0 0.0 -4.122784749574e+01 
-1.195583071317e+02 7.823903872739e-01 0.0 
7.823903872739e-01 -2.935352875393e+02 0.0 
0.0 0.0 -1.225991455019e+02 
-1.047442287688e+02 -1.700097355457e+00 0.0 
-1.700097355457e+00 -2.255980165390e+02 0.0 
0.0 0.0 -9.428907666648e+01 
-1.241783312036e+02 1.358571438054e-01 0.0 
1.358571438054e-01 -3.086080353097e+02 0.0 
0.0 0.0 -1.294359099540e+02 
-5.648372352633e+01 1.390983440622e+00 0.0 
1.390983440622e+00 -1.758645637579e+02 0.0 
0.0 0.0 -6.672552965137e+01 
-3.825690656938e+01 -3.722120123042e+00 0.0 
-3.722120123042e+00 -8.894601800833e+01 0.0 
0.0 0.0 -3.474815470677e+01 
-8.535670248087e+01 2.202633522018e+00 0.0 
2.202633522018e+00 -1.732924804952e+02 0.0 
0.0 0.0 -7.719475489283e+01 
-1.034691508086e+02 6.724793949061e+00 0.0 
6.724793949061e+00 -2.800667983150e+02 0.0 
0.0 0.0 -1.177184388346e+02 
-7.840944413715e+01 2.501609862057e+01 0.0 
2.501609862057e+01 -1.567758820482e+02 0.0 
0.0 0.0 -6.858145197434e+01 
-9.292212575391e+01 2.698296638708e+00 0.0 
2.698296638708e+00 -1.931220818282e+02 0.0 
0.0 0.0 -8.541326227464e+01 
-5.584542496672e+01 -1.659908602629e+01 0.0 
-1.659908602629e+01 -1.163947780634e+02 0.0 
0.0 0.0 -4.832850244907e+01 
-9.605359266140e+01 3.222779409473e+00 0.0 
3.222779409473e+00 -1.987845612552e+02 0.0 
0.0 0.0 -8.805144617499e+01 
-2.870163110343e+01 -1.527319480510e+00 0.0 
-1.527319480510e+00 -8.112053923032e+01 0.0 
0.0 0.0 -3.124276129339e+01 
-1.394810924724e+02 4.102313525111e+00 0.0 
4.102313525111e+00 -3.417479418137e+02 0.0 
0.0 0.0 -1.439687102858e+02 
-1.073658028043e+02 8.916236953229e+00 0.0 
8.916236953229e+00 -2.880762549893e+02 0.0 
0.0 0.0 -1.200764664720e+02 
-1.114472540061e+02 1.585751823495e+01 0.0 
1.585751823495e+01 -2.884618934689e+02 0.0 
0.0 0.0 -1.195727442425e+02 
-1.220067816066e+02 5.607754680584e+00 0.0 
5.607754680584e+00 -2.726492421088e+02 0.0 
0.0 0.0 -1.179968071146e+02 
-1.024991519831e+02 -3.432746520567e+00 0.0 
-3.432746520567e+00 -2.513812123669e+02 0.0 
0.0 0.0 -1.057300207898e+02 
-3.836851398826e+01 -6.531843468135e+00 0.0 
-6.531843468135e+00 -8.378574223627e+01 0.0 
0.0 0.0 -3.295934550769e+01 
-1.120330578809e+02 -2.255400115422e-01 0.0 
-2.255400115422e-01 -2.777396073768e+02 0.0 
0.0 0.0 -1.149830181267e+02 
-1.431388645254e+02 3.836339017418e+00 0.0 
3.836339017418e+00 -3.511944916134e+02 0.0 
0.0 0.0 -1.479000068416e+02 
-6.405817531573e+01 -1.702008495953e+01 0.0 
-1.702008495953e+01 -1.522531678643e+02 0.0 
0.0 0.0 -6.335014651597e+01 
-1.264988331860e+02 1.460453973311e+00 0.0 
1.460453973311e+00 -3.095605914869e+02 0.0 
0.0 0.0 -1.301493243382e+02 
-1.043114708044e+02 3.771646502117e+00 0.0 
3.771646502117e+00 -2.225291512600e+02 0.0 
0.0 0.0 -9.765218661931e+01 
-5.117475642876e+01 -1.595038362036e+01 0.0 
-1.595038362036e+01 -1.274295798639e+02 0.0 
0.0 0.0 -4.789584991907e+01 
-1.158922756257e+02 3.252129673566e-01 0.0 
3.252129673566e-01 -2.856129118173e+02 0.0 
0.0 0.0 -1.188275485947e+02 
-8.582522832309e+01 3.538987325090e+00 0.0 
3.538987325090e+00 -1.701835587671e+02 0.0 
0.0 0.0 -7.640263612705e+01 
-5.673238218731e+01 -2.736353916368e+00 0.0 
-2.736353916368e+00 -1.227263686023e+02 0.0 
0.0 0.0 -4.927288796967e+01 
-7.145067259051e+01 -7.719510034011e+00 0.0 
-7.719510034011e+00 -1.510017104359e+02 0.0 
0.0 0.0 -6.166003202365e+01 
-8.648268125981e+01 2.168084511084e+01 0.0 
2.168084511084e+01 -1.954529420144e+02 0.0 
0.0 0.0 -8.214878713602e+01 
-1.196265983522e+02 1.085167254778e-01 0.0 
1.085167254778e-01 -3.005166583191e+02 0.0 
0.0 0.0 -1.256429770014e+02 
-7.150945408360e+01 2.266288754167e+01 0.0 
2.266288754167e+01 -1.253321697130e+02 0.0 
0.0 0.0 -5.443980423293e+01 
-8.241166881637e+01 2.209814892787e+01 0.0 
2.209814892787e+01 -1.898607598237e+02 0.0 
0.0 0.0 -7.987945345943e+01 
-9.959394354411e+01 3.069592379389e+00 0.0 
3.069592379389e+00 -2.094158421336e+02 0.0 
0.0 0.0 -9.230293570332e+01 
-8.799721359572e+01 9.452453607975e-01 0.0 
9.452453607975e-01 -1.816925674176e+02 0.0 
0.0 0.0 -8.050693430400e+01 
-8.843984670140e+01 2.442810438660e+00 0.0 
2.442810438660e+00 -1.787317400371e+02 0.0 
0.0 0.0 -7.975147602156e+01 
-1.026451491396e+02 -3.230595525463e+00 0.0 
-3.230595525463e+00 -2.246990422404e+02 0.0 
0.0 0.0 -9.372796863751e+01 
-1.343009480484e+02 5.946215675122e+00 0.0 
5.946215675122e+00 -3.350924499864e+02 0.0 
0.0 0.0 -1.404180194104e+02 
-1.079525032765e+02 -8.335852119164e-01 0.0 
-8.335852119164e-01 -2.699113919488e+02 0.0 
0.0 0.0 -1.124016968245e+02 
-8.532457303759e+01 2.746157560185e+00 0.0 
2.746157560185e+00 -1.717131815118e+02 0.0 
0.0 0.0 -7.671132636481e+01 
-1.292784720773e+02 1.681873145416e+01 0.0 
1.681873145416e+01 -2.853803250288e+02 0.0 
0.0 0.0 -1.239976391318e+02 
-1.169200373609e+02 1.689314941557e+01 0.0 
1.689314941557e+01 -2.955568291127e+02 0.0 
0.0 0.0 -1.233430599421e+02 
-1.151089475670e+02 7.714002818541e-02 0.0 
7.714002818541e-02 -2.924183497630e+02 0.0 
0.0 0.0 -1.218581891990e+02 
-1.067145580559e+02 2.710707694265e+00 0.0 
2.710707694265e+00 -2.309738427425e+02 0.0 
0.0 0.0 -1.009065202395e+02 
-8.080640105288e+01 -9.714436491459e+00 0.0 
-9.714436491459e+00 -1.759659849857e+02 0.0 
0.0 0.0 -7.354130330752e+01 
-7.655850965839e+01 -8.812393791587e+00 0.0 
-8.812393791587e+00 -1.634780587939e+02 0.0 
0.0 0.0 -6.762187999538e+01 
-3.767885238802e+01 -6.548615130506e+00 0.0 
-6.548615130506e+00 -8.722870450702e+01 0.0 
0.0 0.0 -3.350701371436e+01 
-1.129037645565e+02 1.897793752107e+00 0.0 
1.897793752107e+00 -2.881572097836e+02 0.0 
0.0 0.0 -1.194950095103e+02 
-8.123495042714e+01 -7.031282194346e+00 0.0 
-7.031282194346e+00 -1.717173335589e+02 0.0 
0.0 0.0 -7.064521389831e+01 
-9.720812985483e+01 4.119099292158e+00 0.0 
4.119099292158e+00 -2.009519958997e+02 0.0 
0.0 0.0 -8.904803772635e+01 
-9.365440041430e+01 4.274888277946e+00 0.0 
4.274888277946e+00 -1.902559292048e+02 0.0 
0.0 0.0 -8.477309888573e+01 
-7.648194377888e+01 1.162309727744e+01 0.0 
1.162309727744e+01 -2.224828015343e+02 0.0 
0.0 0.0 -9.305844352618e+01 
-6.532128106226e+01 -1.103776219122e+01 0.0 
-1.103776219122e+01 -1.418572912850e+02 0.0 
0.0 0.0 -5.796193478490e+01 
-5.436225696563e+01 1.601403272653e+01 0.0 
1.601403272653e+01 -1.662094772065e+02 0.0 
0.0 0.0 -6.308790357064e+01 
-7.009331258613e+01 -9.499395995628e+00 0.0 
-9.499395995628e+00 -1.501259418688e+02 0.0 
0.0 0.0 -6.108144639319e+01 
-7.385498073242e+01 -9.770836521735e+00 0.0 
-9.770836521735e+00 -1.626312228236e+02 0.0 
0.0 0.0 -6.642106933016e+01 
-4.557913836249e+01 -8.490880126153e+00 0.0 
-8.490880126153e+00 -9.598456077922e+01 0.0 
0.0 0.0 -3.846432274714e+01 
-1.291717421382e+02 6.447896245941e+00 0.0 
6.447896245941e+00 -3.264344976423e+02 0.0 
0.0 0.0 -1.362818719342e+02 
-8.189051186449e+01 -7.605311090507e+00 0.0 
-7.605311090507e+00 -1.998444966661e+02 0.0 
0.0 0.0 -8.238818812700e+01 
-1.115221751233e+02 4.254895017811e+00 0.0 
4.254895017811e+00 -2.426935714232e+02 0.0 
0.0 0.0 -1.058647239640e+02 
-8.377877787121e+01 -6.177920499539e+00 0.0 
-6.177920499539e+00 -2.113074703424e+02 0.0 
0.0 0.0 -8.764520788611e+01 
-1.058406253538e+02 2.447561814526e-01 0.0 
2.447561814526e-01 -2.761400686890e+02 0.0 
0.0 0.0 -1.141942082129e+02 
-9.541547221496e+01 -3.194385765231e+00 0.0 
-3.194385765231e+00 -2.383817672127e+02 0.0 
0.0 0.0 -9.842106514165e+01 
-7.788791974200e+01 2.156740505221e+01 0.0 
2.156740505221e+01 -1.962586874264e+02 0.0 
0.0 0.0 -8.240620669679e+01 
-4.184274015789e+01 -5.856472351061e+00 0.0 
-5.856472351061e+00 -9.633621043609e+01 0.0 
0.0 0.0 -3.690119118913e+01 
-1.378946415125e+02 4.325200083180e+00 0.0 
4.325200083180e+00 -3.426487443887e+02 0.0 
0.0 0.0 -1.437630157704e+02 
-1.444935068587e+02 6.947079825801e+00 0.0 
6.947079825801e+00 -3.543845321439e+02 0.0 
0.0 0.0 -1.492634117008e+02 
-1.040152484680e+02 1.894074467078e+01 0.0 
1.894074467078e+01 -2.405981408789e+02 0.0 
0.0 0.0 -1.029840168041e+02 
-7.700657923342e+01 -9.507484064902e+00 0.0 
-9.507484064902e+00 -1.752007577405e+02 0.0 
0.0 0.0 -7.169690323095e+01 
-1.006519996993e+02 -1.295528889413e+00 0.0 
-1.295528889413e+00 -2.573254582912e+02 0.0 
0.0 0.0 -1.058750960652e+02 
-9.570098215474e+01 2.244246241246e+00 0.0 
2.244246241246e+00 -1.999992448907e+02 0.0 
0.0 0.0 -8.831006811364e+01 
-8.553502652093e+01 -7.748645428590e+00 0.0 
-7.748645428590e+00 -1.841297580834e+02 0.0 
0.0 0.0 -7.648415256839e+01 
-7.039355814761e+01 2.516615513324e+01 0.0 
2.516615513324e+01 -1.512575683934e+02 0.0 
0.0 0.0 -6.400447528095e+01 
-6.557790101692e+01 -6.453068909920e+00 0.0 
-6.453068909920e+00 -1.386210229679e+02 0.0 
0.0 0.0 -5.566165373441e+01 
-5.966145502992e+01 -1.715534848121e+01 0.0 
-1.715534848121e+01 -1.330318611266e+02 0.0 
0.0 0.0 -5.496414383815e+01 
-8.419854061362e+01 -1.020250535399e+01 0.0 
-1.020250535399e+01 -1.886853710688e+02 0.0 
0.0 0.0 -7.939560485042e+01 
-6.032555942335e+01 -7.850709264324e+00 0.0 
-7.850709264324e+00 -1.250933170494e+02 0.0 
0.0 0.0 -5.028028672721e+01 
-5.136809096381e+01 -3.670929881361e+00 0.0 
-3.670929881361e+00 -1.142768356687e+02 0.0 
0.0 0.0 -4.500217877033e+01 
-1.010007645321e+02 -4.892481666581e+00 0.0 
-4.892481666581e+00 -2.401075895657e+02 0.0 
0.0 0.0 -1.008184755074e+02 
-1.104369847013e+02 1.195005634129e-01 0.0 
1.195005634129e-01 -2.842740486633e+02 0.0 
0.0 0.0 -1.180133100094e+02 
-1.233947693830e+02 1.818061360602e+01 0.0 
1.818061360602e+01 -2.854517185932e+02 0.0 
0.0 0.0 -1.222539463929e+02 
-1.300079006716e+01 -3.105213030573e-03 0.0 
-3.105213030573e-03 -8.582493882172e+00 0.0 
0.0 0.0 -5.285410561067e+00 
-7.330194786284e+01 -5.432426333443e+00 0.0 
-5.432426333443e+00 -2.064018139419e+02 0.0 
0.0 0.0 -8.529581220226e+01 
-7.856592414264e+01 -7.002211797472e+00 0.0 
-7.002211797472e+00 -2.038283019773e+02 0.0 
0.0 0.0 -8.444957247066e+01 
-7.966068858596e+01 -8.718794596073e+00 0.0 
-8.718794596073e+00 -1.877236692679e+02 0.0 
0.0 0.0 -7.702628682845e+01 
-9.206446587648e+01 2.354221288150e+00 0.0 
2.354221288150e+00 -1.892637446246e+02 0.0 
0.0 0.0 -8.399846315033e+01 
-8.896942587214e+01 -5.331650186807e+00 0.0 
-5.331650186807e+00 -2.191767792614e+02 0.0 
0.0 0.0 -9.066306174769e+01 
-7.035271252247e+01 -7.440801839131e+00 0.0 
-7.440801839131e+00 -1.460804057404e+02 0.0 
0.0 0.0 -5.888070268731e+01 
-8.679099439151e+01 -9.970346931523e+00 0.0 
-9.970346931523e+00 -2.013408376822e+02 0.0 
0.0 0.0 -8.503534469960e+01 
-1.066958652893e+02 1.739982694513e+00 0.0 
1.739982694513e+00 -2.326089011352e+02 0.0 
0.0 0.0 -1.013914299273e+02 
-7.030251847767e+01 -5.059552309754e+00 0.0 
-5.059552309754e+00 -1.472442650990e+02 0.0 
0.0 0.0 -5.883572943543e+01 
-2.342650791378e+01 -4.610337868106e+00 0.0 
-4.610337868106e+00 -5.473679111646e+01 0.0 
0.0 0.0 -2.093718950596e+01 
-3.498266579075e+01 -6.707415363185e+00 0.0 
-6.707415363185e+00 -7.559144519701e+01 0.0 
0.0 0.0 -2.988363288674e+01 
-5.688677253454e+01 -1.519603104911e+01 0.0 
-1.519603104911e+01 -1.348098501817e+02 0.0 
0.0 0.0 -5.431080616528e+01 
-6.884735329994e+01 -1.139102724235e+01 0.0 
-1.139102724235e+01 -1.546622313763e+02 0.0 
0.0 0.0 -6.331135997785e+01 
-8.003209142075e+01 -4.888448261655e+00 0.0 
-4.888448261655e+00 -2.146935862314e+02 0.0 
0.0 0.0 -8.945707256481e+01 
-8.874003929225e+01 -9.044833399589e+00 0.0 
-9.044833399589e+00 -2.135132589353e+02 0.0 
0.0 0.0 -9.037385961434e+01 
-5.005515049765e+01 -1.441257781277e+01 0.0 
-1.441257781277e+01 -9.497533262725e+01 0.0 
0.0 0.0 -3.869811904080e+01 
-2.869889531699e+01 -4.137841090072e+00 0.0 
-4.137841090072e+00 -7.530335328771e+01 0.0 
0.0 0.0 -2.807905203961e+01 
-9.043250544650e+01 5.578640652139e+00 0.0 
5.578640652139e+00 -1.780377115998e+02 0.0 
0.0 0.0 -8.014106511388e+01 
-5.891085084860e+01 -5.087333943870e+00 0.0 
-5.087333943870e+00 -1.264672727379e+02 0.0 
0.0 0.0 -4.964294197303e+01 
-1.228347010991e+02 3.840385930690e+00 0.0 
3.840385930690e+00 -3.156530861342e+02 0.0 
0.0 0.0 -1.311463361700e+02 
-1.192847266749e+02 1.825629497715e+01 0.0 
1.825629497715e+01 -2.788732541920e+02 0.0 
0.0 0.0 -1.190473942601e+02 
-9.730846000736e+01 1.225798704929e+01 0.0 
1.225798704929e+01 -1.906103601960e+02 0.0 
0.0 0.0 -8.597564606100e+01 
-1.142105501353e+02 5.748315271863e+00 0.0 
5.748315271863e+00 -2.488510931339e+02 0.0 
0.0 0.0 -1.085184929808e+02 
-1.272902654460e+02 1.798410441939e+01 0.0 
1.798410441939e+01 -2.922964178508e+02 0.0 
0.0 0.0 -1.254760049890e+02 
-7.345231675926e+01 1.452933020017e+01 0.0 
1.452933020017e+01 -2.113660553233e+02 0.0 
0.0 0.0 -8.741998345848e+01 
-1.115540277045e+02 1.844768498357e+01 0.0 
1.844768498357e+01 -2.597238183356e+02 0.0 
0.0 0.0 -1.109833538120e+02 
-5.554830381815e+01 -1.773947787636e+01 0.0 
-1.773947787636e+01 -1.136719602371e+02 0.0 
0.0 0.0 -4.615043394001e+01 
-9.194683009796e+01 -7.976946655466e+00 0.0 
-7.976946655466e+00 -2.088299323202e+02 0.0 
0.0 0.0 -8.780885504871e+01 
-7.348104356899e+01 2.334781753110e+01 0.0 
2.334781753110e+01 -1.919794992939e+02 0.0 
0.0 0.0 -8.104525327414e+01 
-4.757996932423e+01 -1.151079308358e+01 0.0 
-1.151079308358e+01 -1.398780867817e+02 0.0 
0.0 0.0 -5.083483804147e+01 
-5.036979866638e+01 -1.719122137045e+01 0.0 
-1.719122137045e+01 -9.198688786910e+01 0.0 
0.0 0.0 -3.703219212757e+01 
-7.871472981318e+01 -8.240755360206e+00 0.0 
-8.240755360206e+00 -1.709390818587e+02 0.0 
0.0 0.0 -6.951924821247e+01 
-8.263814643149e+01 -1.073245243393e+01 0.0 
-1.073245243393e+01 -2.061842486084e+02 0.0 
0.0 0.0 -8.713543490380e+01 
-8.385151766913e+01 -8.641565792242e+00 0.0 
-8.641565792242e+00 -2.176793090721e+02 0.0 
0.0 0.0 -9.197917578932e+01 
-6.506128736929e+01 -6.544891826000e+00 0.0 
-6.544891826000e+00 -1.337077726583e+02 0.0 
0.0 0.0 -5.351636894841e+01 
-9.070421806199e+01 -3.627035591013e+00 0.0 
-3.627035591013e+00 -2.303298866007e+02 0.0 
0.0 0.0 -9.580087611381e+01 
-7.784763123791e+01 -8.890227948610e+00 0.0 
-8.890227948610e+00 -2.118254567543e+02 0.0 
0.0 0.0 -8.881736372292e+01 
-7.507417381755e+01 -2.183847594331e+00 0.0 
-2.183847594331e+00 -2.158751593405e+02 0.0 
0.0 0.0 -8.987378724032e+01 
-7.184551071800e+01 -1.094750024851e+01 0.0 
-1.094750024851e+01 -1.553928662848e+02 0.0 
0.0 0.0 -6.465293938951e+01 
-1.063419913583e+02 1.186154098865e+01 0.0 
1.186154098865e+01 -2.852767974214e+02 0.0 
0.0 0.0 -1.184101560287e+02 
-1.011499594940e+02 4.969456815255e+00 0.0 
4.969456815255e+00 -2.103923421134e+02 0.0 
0.0 0.0 -9.306269048220e+01 
-7.147137854639e+01 -1.709360773272e-01 0.0 
-1.709360773272e-01 -2.102929477905e+02 0.0 
0.0 0.0 -8.636646771577e+01 
-1.327641124016e+02 4.825846103748e+00 0.0 
4.825846103748e+00 -3.341980139373e+02 0.0 
0.0 0.0 -1.396886379017e+02 
-5.730182350462e+01 -1.786848577195e+01 0.0 
-1.786848577195e+01 -1.304127267647e+02 0.0 
0.0 0.0 -5.211165019622e+01 
-1.429644575227e+02 7.869633893516e+00 0.0 
7.869633893516e+00 -3.537181492925e+02 0.0 
0.0 0.0 -1.486047820446e+02 
-8.542004319475e+01 -4.305346715691e+00 0.0 
-4.305346715691e+00 -2.223055879446e+02 0.0 
0.0 0.0 -9.275267082104e+01 
-1.314938433358e+02 1.780779947573e+01 0.0 
1.780779947573e+01 -3.010962319457e+02 0.0 
0.0 0.0 -1.293770225844e+02 
-9.928409025276e+01 1.865877031195e+01 0.0 
1.865877031195e+01 -2.087310161355e+02 0.0 
0.0 0.0 -9.200453191648e+01 
-5.302411279183e+01 -1.598792244287e+01 0.0 
-1.598792244287e+01 -1.159519203966e+02 0.0 
0.0 0.0 -4.605905769292e+01 
-1.007577023979e+02 1.382962132272e+01 0.0 
1.382962132272e+01 -2.015669833133e+02 0.0 
0.0 0.0 -9.029740571336e+01 
-1.183448686559e+02 8.365267533219e+00 0.0 
8.365267533219e+00 -2.584551070171e+02 0.0 
0.0 0.0 -1.126399927019e+02 
-8.680484323644e+01 -1.993504287974e+00 0.0 
-1.993504287974e+00 -2.326878699814e+02 0.0 
0.0 0.0 -9.762624914424e+01 
-5.870884876377e+01 2.694238611293e+01 0.0 
2.694238611293e+01 -1.415928837910e+02 0.0 
0.0 0.0 -5.800536596213e+01 
-1.040619545986e+02 1.528723221217e+01 0.0 
1.528723221217e+01 -2.129136309506e+02 0.0 
0.0 0.0 -9.469267566474e+01 
-8.485416524693e+01 2.379799042310e+01 0.0 
2.379799042310e+01 -1.769068890583e+02 0.0 
0.0 0.0 -7.657015088719e+01 
-4.969289088427e+01 -1.562080094201e+01 0.0 
-1.562080094201e+01 -9.510863671435e+01 0.0 
0.0 0.0 -3.829777868708e+01 
-1.277698239107e+02 7.090540415686e+00 0.0 
7.090540415686e+00 -2.900170755405e+02 0.0 
0.0 0.0 -1.249360698354e+02 
-4.499888832466e+01 -1.312645967244e+01 0.0 
-1.312645967244e+01 -7.944480956308e+01 0.0 
0.0 0.0 -3.308260124564e+01 
-1.370309845401e+02 1.616688517063e+01 0.0 
1.616688517063e+01 -3.364564277122e+02 0.0 
0.0 0.0 -1.416462236757e+02 
-1.171623291314e+02 2.919283768034e+00 0.0 
2.919283768034e+00 -2.618859188783e+02 0.0 
0.0 0.0 -1.133144744029e+02 
-1.117679630878e+02 1.092543192596e+01 0.0 
1.092543192596e+01 -2.957466589557e+02 0.0 
0.0 0.0 -1.223689184943e+02 
-8.799778039026e+01 1.544516264381e+00 0.0 
1.544516264381e+00 -1.798192223601e+02 0.0 
0.0 0.0 -7.994510082511e+01 
-1.122207387288e+02 6.640452695249e+00 0.0 
6.640452695249e+00 -2.402081902948e+02 0.0 
0.0 0.0 -1.053286787071e+02 
-8.008375560554e+01 -4.812019634608e+00 0.0 
-4.812019634608e+00 -2.215998207641e+02 0.0 
0.0 0.0 -9.328905276630e+01 
-8.310286561805e+01 1.166919967716e+01 0.0 
1.166919967716e+01 -2.386952532524e+02 0.0 
0.0 0.0 -1.015006043079e+02 
-1.210996010077e+02 6.434738094376e+00 0.0 
6.434738094376e+00 -2.691221513424e+02 0.0 
0.0 0.0 -1.166665257050e+02 
-1.192327005185e+02 1.066531118022e+00 0.0 
1.066531118022e+00 -3.031554134607e+02 0.0 
0.0 0.0 -1.263164341938e+02 
-1.051200648401e+02 5.896015987891e+00 0.0 
5.896015987891e+00 -2.199750054425e+02 0.0 
0.0 0.0 -9.712852108478e+01 
-1.064493344351e+02 5.350283485654e+00 0.0 
5.350283485654e+00 -2.883576951447e+02 0.0 
0.0 0.0 -1.188054235445e+02 
-5.025123451786e+01 -1.686500551440e+01 0.0 
-1.686500551440e+01 -1.115547079844e+02 0.0 
0.0 0.0 -4.248317431060e+01 
-1.090469662619e+02 6.935619006017e+00 0.0 
6.935619006017e+00 -2.296442828847e+02 0.0 
0.0 0.0 -1.012073747440e+02 
-1.427381874978e+02 2.081435103843e+01 0.0 
2.081435103843e+01 -3.338729995681e+02 0.0 
0.0 0.0 -1.425833561198e+02 
-1.434705823999e+02 5.601946127073e+00 0.0 
5.601946127073e+00 -3.535276775882e+02 0.0 
0.0 0.0 -1.486994779964e+02 
-8.690850688835e+01 -6.663751174544e+00 0.0 
-6.663751174544e+00 -2.075232177960e+02 0.0 
0.0 0.0 -8.540289111969e+01 
-8.944789056455e+01 3.500812224071e+00 0.0 
3.500812224071e+00 -1.806984298830e+02 0.0 
0.0 0.0 -8.064389613427e+01 
-8.420547437061e+01 1.586298267667e+00 0.0 
1.586298267667e+00 -1.691736196181e+02 0.0 
0.0 0.0 -7.561372819660e+01 
-9.021151313800e+01 -7.439599664810e+00 0.0 
-7.439599664810e+00 -2.251551079262e+02 0.0 
0.0 0.0 -9.540951771495e+01 
-1.143386970002e+02 1.135327463970e+00 0.0 
1.135327463970e+00 -2.949923500822e+02 0.0 
0.0 0.0 -1.223993141247e+02 
-1.184996183903e+02 2.408251667627e+00 0.0 
2.408251667627e+00 -3.054779137031e+02 0.0 
0.0 0.0 -1.267932596280e+02 
-2.713241714020e+01 -3.600392754302e+00 0.0 
-3.600392754302e+00 -6.647559445468e+01 0.0 
0.0 0.0 -2.474199335829e+01 
-4.903196503390e+01 1.714034921690e+01 0.0 
1.714034921690e+01 -1.529638239937e+02 0.0 
0.0 0.0 -5.708568360072e+01 
-7.384407379137e+01 3.519192026089e+00 0.0 
3.519192026089e+00 -2.189256936885e+02 0.0 
0.0 0.0 -9.061475760961e+01 
-7.486647266086e+01 -2.854476163604e+00 0.0 
-2.854476163604e+00 -2.129028721743e+02 0.0 
0.0 0.0 -8.903843878257e+01 
-8.119936658206e+01 2.572020881235e+01 0.0 
2.572020881235e+01 -1.872764681244e+02 0.0 
0.0 0.0 -8.069801826573e+01 
-1.257108596540e+02 7.860505113774e+00 0.0 
7.860505113774e+00 -2.803340952561e+02 0.0 
0.0 0.0 -1.214134864730e+02 
-1.231115146831e+02 1.320494771369e+01 0.0 
1.320494771369e+01 -2.712445443779e+02 0.0 
0.0 0.0 -1.179068177183e+02 
-1.183264061511e+02 4.655604837496e+00 0.0 
4.655604837496e+00 -2.625775659877e+02 0.0 
0.0 0.0 -1.138711916417e+02 
-7.569419128361e+01 2.052557371228e+01 0.0 
2.052557371228e+01 -1.320272261714e+02 0.0 
0.0 0.0 -5.686647188589e+01 
-1.116126922571e+02 7.513749541911e+00 0.0 
7.513749541911e+00 -2.380786757260e+02 0.0 
0.0 0.0 -1.045074103949e+02 
-1.171569812198e+02 2.129751631480e+00 0.0 
2.129751631480e+00 -2.962106863424e+02 0.0 
0.0 0.0 -1.233742475512e+02 
-1.207354616233e+02 4.992282868001e+00 0.0 
4.992282868001e+00 -2.701627798693e+02 0.0 
0.0 0.0 -1.168694724478e+02 
-1.058275323189e+02 7.220163124513e+00 0.0 
7.220163124513e+00 -2.191361353462e+02 0.0 
0.0 0.0 -9.708910029952e+01 
-9.422797743452e+01 -7.327518142752e+00 0.0 
-7.327518142752e+00 -2.209252650278e+02 0.0 
0.0 0.0 -9.320167274643e+01 
-7.097311206174e+01 6.850608367269e+00 0.0 
6.850608367269e+00 -2.119650222131e+02 0.0 
0.0 0.0 -8.596561130500e+01 
-1.072191826411e+02 4.969912909444e+00 0.0 
4.969912909444e+00 -2.285382452682e+02 0.0 
0.0 0.0 -1.003272283728e+02 
-1.191007507216e+02 7.344862719595e+00 0.0 
7.344862719595e+00 -2.605121869652e+02 0.0 
0.0 0.0 -1.134838813060e+02 
-1.068732093415e+02 3.745925953242e+00 0.0 
3.745925953242e+00 -2.295902097344e+02 0.0 
0.0 0.0 -1.005390257228e+02 
-1.034209047326e+02 3.970359827271e+00 0.0 
3.970359827271e+00 -2.189309373454e+02 0.0 
0.0 0.0 -9.630555262339e+01 
-1.331668259901e+02 3.078979650500e+00 0.0 
3.078979650500e+00 -3.325862063066e+02 0.0 
0.0 0.0 -1.393259096890e+02 
-1.321674595768e+02 1.671309558948e+01 0.0 
1.671309558948e+01 -3.256087285877e+02 0.0 
0.0 0.0 -1.369328564494e+02 
-1.280604555837e+02 3.421690032802e+00 0.0 
3.421690032802e+00 -3.241785003786e+02 0.0 
0.0 0.0 -1.352716867887e+02 
-1.045379110298e+02 -1.246460137072e+00 0.0 
-1.246460137072e+00 -2.653197712961e+02 0.0 
0.0 0.0 -1.097171615710e+02 
-7.098822933766e+01 9.951177421663e+00 0.0 
9.951177421663e+00 -1.133142690791e+02 0.0 
0.0 0.0 -5.146062241786e+01 
-1.165122118109e+02 1.266018896939e+01 0.0 
1.266018896939e+01 -3.031472145367e+02 0.0 
0.0 0.0 -1.254978279043e+02 
-1.053962837283e+02 8.227107568642e+00 0.0 
8.227107568642e+00 -2.182127251377e+02 0.0 
0.0 0.0 -9.668270265978e+01 
-5.409355884569e+01 -6.546221631369e+00 0.0 
-6.546221631369e+00 -1.128478963718e+02 0.0 
0.0 0.0 -4.476647364902e+01 
-7.617191083868e+01 1.256946496423e+00 0.0 
1.256946496423e+00 -2.202787729240e+02 0.0 
0.0 0.0 -9.220532906847e+01 
-8.441489630587e+01 2.997185164565e+00 0.0 
2.997185164565e+00 -2.411115805031e+02 0.0 
0.0 0.0 -1.025176911941e+02 
-9.070414550803e+01 1.217565719414e+01 0.0 
1.217565719414e+01 -2.571441446905e+02 0.0 
0.0 0.0 -1.082407444448e+02 
-4.504287187462e+01 -8.422836881557e-01 0.0 
-8.422836881557e-01 -1.501643936175e+02 0.0 
0.0 0.0 -5.530507322796e+01 
-7.190172833854e+01 4.202780107993e+00 0.0 
4.202780107993e+00 -2.116244718165e+02 0.0 
0.0 0.0 -8.642577260605e+01 
-1.007169942190e+02 1.292280950018e+01 0.0 
1.292280950018e+01 -2.745205880542e+02 0.0 
0.0 0.0 -1.140771139387e+02 
-8.275371448509e+01 1.414652941775e+01 0.0 
1.414652941775e+01 -1.465629805395e+02 0.0 
0.0 0.0 -6.536720416557e+01 
-9.373262360038e+01 -4.689911174228e+00 0.0 
-4.689911174228e+00 -2.270744691968e+02 0.0 
0.0 0.0 -9.335537862240e+01 
-9.848147047007e+01 6.373237566957e+00 0.0 
6.373237566957e+00 -1.987834356542e+02 0.0 
0.0 0.0 -8.877947183729e+01 
-7.176177725538e+01 5.785004168444e-01 0.0 
5.785004168444e-01 -1.388587004771e+02 0.0 
0.0 0.0 -6.278614331975e+01 
-4.029268860468e+01 2.830849570842e+01 0.0 
2.830849570842e+01 -3.025173615747e+01 0.0 
0.0 0.0 -1.711443307580e+01 
-1.068736460318e+02 -2.583111903727e+00 0.0 
-2.583111903727e+00 -2.590109552083e+02 0.0 
0.0 0.0 -1.078146805553e+02 
-1.158347947208e+02 9.072641553509e+00 0.0 
9.072641553509e+00 -3.051896466637e+02 0.0 
0.0 0.0 -1.259073324153e+02 
-1.261467755395e+02 1.252991385203e+01 0.0 
1.252991385203e+01 -2.803365119581e+02 0.0 
0.0 0.0 -1.215449862493e+02 
-8.006532603675e+01 1.014105474308e+01 0.0 
1.014105474308e+01 -2.341183432198e+02 0.0 
0.0 0.0 -9.931210544233e+01 
-9.959359522412e+01 -2.922214043442e+00 0.0 
-2.922214043442e+00 -2.463319386972e+02 0.0 
0.0 0.0 -1.011124423431e+02 
-9.770578117149e+01 5.133290796413e+00 0.0 
5.133290796413e+00 -1.997969748557e+02 0.0 
0.0 0.0 -8.885082680815e+01 
-3.832698627338e+01 2.620956926870e+01 0.0 
2.620956926870e+01 -2.684061978923e+01 0.0 
0.0 0.0 -1.564399266468e+01 
-1.105797437667e+02 9.939741881181e+00 0.0 
9.939741881181e+00 -2.950302988110e+02 0.0 
0.0 0.0 -1.224212744512e+02 
-8.687083551402e+01 9.931227091643e+00 0.0 
9.931227091643e+00 -2.495657732007e+02 0.0 
0.0 0.0 -1.066686095783e+02 
-8.608916659196e+01 1.581623727037e+01 0.0 
1.581623727037e+01 -1.557318572558e+02 0.0 
0.0 0.0 -7.024922317514e+01 
-1.205656776260e+02 3.550456563718e+00 0.0 
3.550456563718e+00 -3.066006510589e+02 0.0 
0.0 0.0 -1.277498986055e+02 
-5.394450463400e+01 -1.511052832659e+01 0.0 
-1.511052832659e+01 -1.425709090405e+02 0.0 
0.0 0.0 -5.520495598371e+01 
-1.247800776646e+02 4.913007477084e+00 0.0 
4.913007477084e+00 -3.167111820469e+02 0.0 
0.0 0.0 -1.320473779134e+02 
-1.377079309075e+02 6.244654500667e+00 0.0 
6.244654500667e+00 -3.440017259713e+02 0.0 
0.0 0.0 -1.441128970637e+02 
-1.053404900173e+02 1.083962727346e+01 0.0 
1.083962727346e+01 -2.846327167930e+02 0.0 
0.0 0.0 -1.189607697581e+02 
-1.084223065410e+02 5.646040799062e+00 0.0 
5.646040799062e+00 -2.305744252209e+02 0.0 
0.0 0.0 -1.012990195286e+02 
-1.177585343463e+02 1.952223054253e+01 0.0 
1.952223054253e+01 -2.846327277846e+02 0.0 
0.0 0.0 -1.203173786393e+02 
-1.391920511950e+02 7.508992739019e+00 0.0 
7.508992739019e+00 -3.448622989439e+02 0.0 
0.0 0.0 -1.448163050417e+02 
-4.787192094400e+01 2.432661456910e+01 0.0 
2.432661456910e+01 -2.769773526094e+01 0.0 
0.0 0.0 -1.961745888350e+01 
-1.018274304624e+02 6.109880604620e+00 0.0 
6.109880604620e+00 -2.094069742930e+02 0.0 
0.0 0.0 -9.297032142664e+01 
-1.319670389650e+02 1.819103282095e+01 0.0 
1.819103282095e+01 -3.212631219688e+02 0.0 
0.0 0.0 -1.355690482801e+02 
-1.105458282616e+02 4.704261912490e+00 0.0 
4.704261912490e+00 -2.391677519351e+02 0.0 
0.0 0.0 -1.045140740590e+02 
-9.462509056153e+01 1.002561966220e+01 0.0 
1.002561966220e+01 -2.668996738938e+02 0.0 
0.0 0.0 -1.128662376546e+02 
-7.384399193318e+01 8.242700608176e+00 0.0 
8.242700608176e+00 -2.171960338235e+02 0.0 
0.0 0.0 -8.959066140453e+01 
-1.039384065056e+02 -3.802152606478e+00 0.0 
-3.802152606478e+00 -2.393631119206e+02 0.0 
0.0 0.0 -9.931188672297e+01 
-3.262340834067e+01 7.461437055057e+00 0.0 
7.461437055057e+00 -1.294275799084e+02 0.0 
0.0 0.0 -5.058348426595e+01 
-1.139041930066e+02 4.384415348207e+00 0.0 
4.384415348207e+00 -2.498265110461e+02 0.0 
0.0 0.0 -1.087192112158e+02 
-5.897017968506e+01 -5.475635584232e+00 0.0 
-5.475635584232e+00 -1.215504904486e+02 0.0 
0.0 0.0 -4.820112768839e+01 
-3.396801296382e+01 1.323058080954e+01 0.0 
1.323058080954e+01 -2.720885423120e+01 0.0 
0.0 0.0 -1.550389230990e+01 
-1.139821903327e+02 1.993678899575e+01 0.0 
1.993678899575e+01 -2.722626452345e+02 0.0 
0.0 0.0 -1.154734506702e+02 
-1.208893136423e+02 3.737755044917e+00 0.0 
3.737755044917e+00 -2.718315628223e+02 0.0 
0.0 0.0 -1.174162629394e+02 
-5.410551180639e+01 -1.839461251992e+01 0.0 
-1.839461251992e+01 -1.287163769293e+02 0.0 
0.0 0.0 -5.024254140749e+01 
-9.018040178462e+01 2.112915755543e+01 0.0 
2.112915755543e+01 -2.013682445757e+02 0.0 
0.0 0.0 -8.599306221710e+01 
-1.039247303524e+02 5.186210786617e+00 0.0 
5.186210786617e+00 -2.179920093969e+02 0.0 
0.0 0.0 -9.617502192480e+01 
-1.031997675291e+02 -4.590776963049e+00 0.0 
-4.590776963049e+00 -2.361401241677e+02 0.0 
0.0 0.0 -9.788304450993e+01 
-4.891686851038e+01 -7.209154276530e+00 0.0 
-7.209154276530e+00 -1.498581651323e+02 0.0 
0.0 0.0 -5.620429961524e+01 
-5.956527094630e+01 2.866688199583e+01 0.0 
2.866688199583e+01 -1.428741417447e+02 0.0 
0.0 0.0 -5.919470958203e+01 
-4.802974232950e+01 -1.751921262856e+01 0.0 
-1.751921262856e+01 -9.111358465167e+01 0.0 
0.0 0.0 -3.573926820552e+01 
-4.749166176964e+01 -1.540443713934e+01 0.0 
-1.540443713934e+01 -1.262359741848e+02 0.0 
0.0 0.0 -4.636482940470e+01 
-4.708943666938e+01 -1.774897079230e+01 0.0 
-1.774897079230e+01 -1.087895523754e+02 0.0 
0.0 0.0 -3.932518916493e+01 
-8.697881418838e+01 9.601567624592e+00 0.0 
9.601567624592e+00 -2.505681998753e+02 0.0 
0.0 0.0 -1.073546997816e+02 
-1.387999850949e+02 1.174600441749e+01 0.0 
1.174600441749e+01 -3.179504137911e+02 0.0 
0.0 0.0 -1.366251196658e+02 
-3.906773571811e+01 9.309663364431e+00 0.0 
9.309663364431e+00 -4.381613062120e+01 0.0 
0.0 0.0 -2.066536730460e+01 
-1.382480414760e+02 2.776126711297e+00 0.0 
2.776126711297e+00 -3.409181577981e+02 0.0 
0.0 0.0 -1.433498597822e+02 
-6.605785657530e+01 1.487020504305e+01 0.0 
1.487020504305e+01 -1.950514746582e+02 0.0 
0.0 0.0 -7.749575626795e+01 
-1.026118198585e+02 7.542329104139e+00 0.0 
7.542329104139e+00 -2.088378533964e+02 0.0 
0.0 0.0 -9.303490197648e+01 
-3.708126741863e+01 6.112072157179e+00 0.0 
6.112072157179e+00 -1.363766776953e+02 0.0 
0.0 0.0 -5.148981947005e+01 
-1.440839008416e+02 8.969380118395e+00 0.0 
8.969380118395e+00 -3.541074318630e+02 0.0 
0.0 0.0 -1.490573998114e+02 
-5.439002884292e+01 -1.976586964917e+01 0.0 
-1.976586964917e+01 -1.122130401056e+02 0.0 
0.0 0.0 -4.455265285556e+01 
-7.015111818667e+01 -5.339107885985e+00 0.0 
-5.339107885985e+00 -1.429525565474e+02 0.0 
0.0 0.0 -5.763616950674e+01 
-1.108410635613e+02 1.240376526987e+01 0.0 
1.240376526987e+01 -2.920130574805e+02 0.0 
0.0 0.0 -1.215779944643e+02 
-8.485416272938e+01 -5.858096381959e+00 0.0 
-5.858096381959e+00 -2.282856960541e+02 0.0 
0.0 0.0 -9.648647746009e+01 
-1.270946807356e+02 1.724000693826e+01 0.0 
1.724000693826e+01 -3.143164123150e+02 0.0 
0.0 0.0 -1.320233279152e+02 
-6.371652189735e+01 2.716947937287e+01 0.0 
2.716947937287e+01 -1.313236831212e+02 0.0 
0.0 0.0 -5.597553593682e+01 
-1.103898253076e+02 9.967429361966e+00 0.0 
9.967429361966e+00 -2.292493661185e+02 0.0 
0.0 0.0 -1.014917574278e+02 
-1.365817763127e+02 1.471335731378e+01 0.0 
1.471335731378e+01 -3.359476700632e+02 0.0 
0.0 0.0 -1.413588339128e+02 
-9.998367165830e+01 4.133150972517e+00 0.0 
4.133150972517e+00 -2.083090877296e+02 0.0 
0.0 0.0 -9.208782781637e+01 
-1.275723436821e+02 1.468290846997e+01 0.0 
1.468290846997e+01 -2.814035118370e+02 0.0 
0.0 0.0 -1.222927566557e+02 
-1.128390254019e+02 8.034105329893e+00 0.0 
8.034105329893e+00 -2.393811591559e+02 0.0 
0.0 0.0 -1.052660553673e+02 
-1.165582963780e+02 9.187872134004e+00 0.0 
9.187872134004e+00 -2.493898389897e+02 0.0 
0.0 0.0 -1.093844406103e+02 
-4.404871493964e+01 2.425689482827e+01 0.0 
2.425689482827e+01 -1.267660593177e+02 0.0 
0.0 0.0 -4.752769315627e+01 
-1.334492053355e+02 1.815261116130e+00 0.0 
1.815261116130e+00 -3.302124252049e+02 0.0 
0.0 0.0 -1.386984891621e+02 
-1.078336124912e+02 6.332806073917e+00 0.0 
6.332806073917e+00 -2.279625642347e+02 0.0 
0.0 0.0 -1.003388530178e+02 
-8.047998440715e+01 1.901703593821e+01 0.0 
1.901703593821e+01 -2.211254532454e+02 0.0 
0.0 0.0 -9.411127869691e+01 
-4.806355656172e+01 6.462669997769e+00 0.0 
6.462669997769e+00 -6.359489264513e+01 0.0 
0.0 0.0 -2.814636768011e+01 
-1.424669255355e+02 1.739668114578e+01 0.0 
1.739668114578e+01 -3.440612501322e+02 0.0 
0.0 0.0 -1.455584527003e+02 
-4.558701571076e+01 1.211178518162e+01 0.0 
1.211178518162e+01 -1.504003567083e+02 0.0 
0.0 0.0 -5.550678871571e+01 
-6.408412140394e+01 -3.825255529150e+00 0.0 
-3.825255529150e+00 -1.351740253728e+02 0.0 
0.0 0.0 -5.405852118545e+01 
-1.215935161406e+02 1.474449707203e+01 0.0 
1.474449707203e+01 -3.066093761876e+02 0.0 
0.0 0.0 -1.280608676985e+02 
-2.651434849540e+01 6.418685995337e-01 0.0 
6.418685995337e-01 -8.016803188224e+01 0.0 
0.0 0.0 -3.116780582728e+01 
-8.328349509864e+01 2.101743935511e+01 0.0 
2.101743935511e+01 -2.029665594967e+02 0.0 
0.0 0.0 -8.523502613874e+01 
-1.157815512029e+02 1.153871034575e+01 0.0 
1.153871034575e+01 -3.026223903563e+02 0.0 
0.0 0.0 -1.253198413509e+02 
-1.227968253520e+02 9.813185648493e+00 0.0 
9.813185648493e+00 -2.690934030210e+02 0.0 
0.0 0.0 -1.171670685119e+02 
-1.264536215385e+02 1.111310446706e+01 0.0 
1.111310446706e+01 -2.797992339858e+02 0.0 
0.0 0.0 -1.214758566573e+02 
-1.112351382705e+02 1.357902862777e+01 0.0 
1.357902862777e+01 -2.924252122284e+02 0.0 
0.0 0.0 -1.206981051497e+02 
-1.159374071277e+02 7.709413166654e+00 0.0 
7.709413166654e+00 -2.499205682961e+02 0.0 
0.0 0.0 -1.093573926271e+02 
-7.025514741184e+01 1.797146834278e+01 0.0 
1.797146834278e+01 -1.998948397877e+02 0.0 
0.0 0.0 -8.140028815722e+01 
-1.154525257865e+02 2.003884680333e+01 0.0 
2.003884680333e+01 -2.664671714719e+02 0.0 
0.0 0.0 -1.141759091775e+02 
-5.655726413938e+01 4.911684550230e+00 0.0 
4.911684550230e+00 -8.266809283954e+01 0.0 
0.0 0.0 -3.807782890216e+01 
-1.266305129099e+02 1.585307370766e+01 0.0 
1.585307370766e+01 -2.846316754617e+02 0.0 
0.0 0.0 -1.229786565115e+02 
-6.377911815383e+01 4.272000485985e+00 0.0 
4.272000485985e+00 -1.014674736778e+02 0.0 
0.0 0.0 -4.723244228232e+01 
-6.708223757077e+01 4.227820801140e+00 0.0 
4.227820801140e+00 -1.109575324559e+02 0.0 
0.0 0.0 -5.187957580604e+01 
-7.772133952652e+01 1.344134104715e+01 0.0 
1.344134104715e+01 -2.255998228514e+02 0.0 
0.0 0.0 -9.494134461786e+01 
-7.000273632126e+01 4.020276922163e+00 0.0 
4.020276922163e+00 -1.205370731113e+02 0.0 
0.0 0.0 -5.608794597262e+01 
-9.027705514627e+01 1.894703086470e+01 0.0 
1.894703086470e+01 -2.340741528778e+02 0.0 
0.0 0.0 -9.737478439331e+01 
-7.290837767103e+01 2.159155134792e+01 0.0 
2.159155134792e+01 -1.912244220324e+02 0.0 
0.0 0.0 -7.984124534122e+01 
-7.750415528603e+01 5.244071894357e+00 0.0 
5.244071894357e+00 -2.272373712806e+02 0.0 
0.0 0.0 -9.544477465011e+01 
-4.320542787450e+01 -7.809553237304e+00 0.0 
-7.809553237304e+00 -1.393867497723e+02 0.0 
0.0 0.0 -5.080088528885e+01 
-7.413007057069e+01 1.045448690064e+01 0.0 
1.045448690064e+01 -2.189589464198e+02 0.0 
0.0 0.0 -9.035943024301e+01 
-1.174505421080e+02 5.419488592121e+00 0.0 
5.419488592121e+00 -2.594819036606e+02 0.0 
0.0 0.0 -1.126797337306e+02 
-1.274388838609e+02 1.424256457513e+01 0.0 
1.424256457513e+01 -2.844075141607e+02 0.0 
0.0 0.0 -1.231539194065e+02 
-1.241041980147e+02 1.029752435124e+00 0.0 
1.029752435124e+00 -3.113107819811e+02 0.0 
0.0 0.0 -1.302244939987e+02 
-1.315200155940e+02 1.524001053229e+01 0.0 
1.524001053229e+01 -3.250201757320e+02 0.0 
0.0 0.0 -1.365620573978e+02 
-8.051636536757e+01 -2.727719585286e+00 0.0 
-2.727719585286e+00 -2.245491092356e+02 0.0 
0.0 0.0 -9.390435903982e+01 
-1.147411693139e+02 7.174028566613e+00 0.0 
7.174028566613e+00 -2.482690486052e+02 0.0 
0.0 0.0 -1.085030653757e+02 
-7.667040506397e+01 7.027069516327e+00 0.0 
7.027069516327e+00 -2.267705471841e+02 0.0 
0.0 0.0 -9.493858779162e+01 
-1.383051285511e+02 1.609345930405e+00 0.0 
1.609345930405e+00 -3.383783379641e+02 0.0 
0.0 0.0 -1.426050399546e+02 
-1.109776284810e+02 6.072039017259e+00 0.0 
6.072039017259e+00 -2.382584224789e+02 0.0 
0.0 0.0 -1.043708152880e+02 
-1.134949356372e+02 9.573152825722e+00 0.0 
9.573152825722e+00 -2.392458011118e+02 0.0 
0.0 0.0 -1.054222210247e+02 
-1.000633474986e+02 8.929514565565e+00 0.0 
8.929514565565e+00 -2.770241882344e+02 0.0 
0.0 0.0 -1.161632556214e+02 
-7.208900602484e+01 1.413405441746e+01 0.0 
1.413405441746e+01 -2.100290630695e+02 0.0 
0.0 0.0 -8.581568294590e+01 
-1.232583146471e+02 1.990276626117e+01 0.0 
1.990276626117e+01 -2.855588668213e+02 0.0 
0.0 0.0 -1.222451544405e+02 
-9.977475453280e+01 1.624973223455e+01 0.0 
1.624973223455e+01 -2.081810482265e+02 0.0 
0.0 0.0 -9.175497763167e+01 
-4.896515307739e+01 -1.332968488129e+01 0.0 
-1.332968488129e+01 -1.400681869826e+02 0.0 
0.0 0.0 -5.277852066343e+01 
-4.510972267720e+01 5.182708460151e+00 0.0 
5.182708460151e+00 -1.482977743507e+02 0.0 
0.0 0.0 -5.434683957080e+01 
-6.817489964850e+01 2.880058609368e+01 0.0 
2.880058609368e+01 -1.491773816370e+02 0.0 
0.0 0.0 -6.479680854113e+01 
-9.414423850397e+01 2.112052146845e+01 0.0 
2.112052146845e+01 -2.018835374549e+02 0.0 
0.0 0.0 -8.574630987849e+01 
-1.430861819104e+02 1.366848273431e+00 0.0 
1.366848273431e+00 -3.467504965814e+02 0.0 
0.0 0.0 -1.465510035475e+02 
-1.096915028232e+02 8.384687016912e+00 0.0 
8.384687016912e+00 -2.291021660661e+02 0.0 
0.0 0.0 -1.012381006668e+02 
-7.051312685966e+01 1.146513400686e+01 0.0 
1.146513400686e+01 -2.068520734955e+02 0.0 
0.0 0.0 -8.391407549308e+01 
-1.000143298581e+02 2.076212562642e+01 0.0 
2.076212562642e+01 -2.273452908695e+02 0.0 
0.0 0.0 -9.780788621827e+01 
-1.209203155056e+02 1.072717099625e+01 0.0 
1.072717099625e+01 -3.131622050364e+02 0.0 
0.0 0.0 -1.298247561626e+02 
-1.154352335784e+02 6.309060293786e+00 0.0 
6.309060293786e+00 -2.508152672211e+02 0.0 
0.0 0.0 -1.094751502399e+02 
-1.273656029431e+02 1.974604277580e+01 0.0 
1.974604277580e+01 -2.925997202569e+02 0.0 
0.0 0.0 -1.255895969600e+02 
-9.739014018830e+01 5.664601840012e+00 0.0 
5.664601840012e+00 -1.975494484157e+02 0.0 
0.0 0.0 -8.808187658120e+01 
-1.270291460524e+02 7.603091918982e+00 0.0 
7.603091918982e+00 -3.256577298564e+02 0.0 
0.0 0.0 -1.354060627727e+02 
-7.979620285533e+01 8.793957992138e+00 0.0 
8.793957992138e+00 -2.331990478303e+02 0.0 
0.0 0.0 -9.845873445076e+01 
-1.218467137152e+02 1.178971937432e+01 0.0 
1.178971937432e+01 -3.136978456691e+02 0.0 
0.0 0.0 -1.302633678153e+02 
-8.745818081058e+01 2.379077975023e+01 0.0 
2.379077975023e+01 -2.056968707539e+02 0.0 
0.0 0.0 -8.820772605484e+01 
-1.224937961068e+02 8.320700730703e+00 0.0 
8.320700730703e+00 -2.699929845668e+02 0.0 
0.0 0.0 -1.173460342021e+02 
-1.324690456495e+02 1.999600896723e+01 0.0 
1.999600896723e+01 -3.017048477096e+02 0.0 
0.0 0.0 -1.298521680077e+02 
-9.051577105347e+01 7.826955101138e+00 0.0 
7.826955101138e+00 -2.589126224159e+02 0.0 
0.0 0.0 -1.104347710056e+02 
-4.245794667498e+01 5.854666495836e+00 0.0 
5.854666495836e+00 -1.462266274572e+02 0.0 
0.0 0.0 -5.416445296396e+01 
-1.219410189117e+02 1.753379617313e+01 0.0 
1.753379617313e+01 -2.963464569075e+02 0.0 
0.0 0.0 -1.250862427458e+02 
-8.877606138406e+01 1.952931690305e+01 0.0 
1.952931690305e+01 -2.217090801122e+02 0.0 
0.0 0.0 -9.262562706376e+01 
-6.759984369100e+01 1.477767538587e+01 0.0 
1.477767538587e+01 -1.956173983955e+02 0.0 
0.0 0.0 -7.833540780971e+01 
-9.582680002029e+01 1.084606907115e+01 0.0 
1.084606907115e+01 -2.675848524572e+02 0.0 
0.0 0.0 -1.122901341828e+02 
-1.239235442248e+02 6.960577497367e+00 0.0 
6.960577497367e+00 -3.174435934185e+02 0.0 
0.0 0.0 -1.320101412930e+02 
-4.412012991039e+01 -2.140465596308e+00 0.0 
-2.140465596308e+00 -1.445652086691e+02 0.0 
0.0 0.0 -5.371926413882e+01 
-8.327407861236e+01 7.150513286819e+00 0.0 
7.150513286819e+00 -2.423723642731e+02 0.0 
0.0 0.0 -1.032882991029e+02 
-1.030313315536e+02 1.277936175331e+01 0.0 
1.277936175331e+01 -2.119940371352e+02 0.0 
0.0 0.0 -9.410761060663e+01 
-1.439937415963e+02 2.861566599410e+00 0.0 
2.861566599410e+00 -3.474352794754e+02 0.0 
0.0 0.0 -1.470287063215e+02 
-1.064976849081e+02 1.416553373548e+01 0.0 
1.416553373548e+01 -2.237630393864e+02 0.0 
0.0 0.0 -9.867821728834e+01 
-1.182215479143e+02 1.798374610733e+01 0.0 
1.798374610733e+01 -2.845087265165e+02 0.0 
0.0 0.0 -1.204190823292e+02 
-9.938426616515e+01 1.129854648762e+01 0.0 
1.129854648762e+01 -2.005059633538e+02 0.0 
0.0 0.0 -8.956706885570e+01 
-9.130252051970e+01 8.100871961877e+00 0.0 
8.100871961877e+00 -1.784193480944e+02 0.0 
0.0 0.0 -8.051656058424e+01 
-1.024203113409e+02 1.718875600041e+01 0.0 
1.718875600041e+01 -2.210431317585e+02 0.0 
0.0 0.0 -9.663033870658e+01 
-1.263896867403e+02 1.407526185073e+01 0.0 
1.407526185073e+01 -3.176218471692e+02 0.0 
0.0 0.0 -1.328034601728e+02 
-1.301584409725e+02 3.307871556374e+00 0.0 
3.307871556374e+00 -3.230505577221e+02 0.0 
0.0 0.0 -1.355626996084e+02 
-1.046548331718e+02 6.643797568097e+00 0.0 
6.643797568097e+00 -2.178311451675e+02 0.0 
0.0 0.0 -9.634579350180e+01 
-1.249739844776e+02 9.274964813935e+00 0.0 
9.274964813935e+00 -2.788400518379e+02 0.0 
0.0 0.0 -1.207442108946e+02 
-9.558121872278e+01 9.736367648493e+00 0.0 
9.736367648493e+00 -1.893840704008e+02 0.0 
0.0 0.0 -8.508958673706e+01 
-5.873678381919e+01 1.132527172659e+01 0.0 
1.132527172659e+01 -1.775986894072e+02 0.0 
0.0 0.0 -6.786618318639e+01 
-1.266841693567e+02 1.961194019046e+01 0.0 
1.961194019046e+01 -3.035123930482e+02 0.0 
0.0 0.0 -1.286589687215e+02 
-1.223190748179e+02 7.025094588967e+00 0.0 
7.025094588967e+00 -2.711728978854e+02 0.0 
0.0 0.0 -1.176475918110e+02 
-8.406261712082e+01 2.248611926609e+01 0.0 
2.248611926609e+01 -2.142181643926e+02 0.0 
0.0 0.0 -9.173034354312e+01 
-8.829870872887e+01 2.267498868003e+01 0.0 
2.267498868003e+01 -2.189273728329e+02 0.0 
0.0 0.0 -9.352377962958e+01 
-6.472610307009e+01 1.138011072648e+01 0.0 
1.138011072648e+01 -1.916720329549e+02 0.0 
0.0 0.0 -7.508527351286e+01 
-1.084931382704e+02 7.847350888565e+00 0.0 
7.847350888565e+00 -2.280411255431e+02 0.0 
0.0 0.0 -1.005602791441e+02 
-7.607668773863e+01 2.324150497086e+01 0.0 
2.324150497086e+01 -1.408693934112e+02 0.0 
0.0 0.0 -6.206697943821e+01 
-9.529232397624e+01 1.829795098462e+01 0.0 
1.829795098462e+01 -2.475102988709e+02 0.0 
0.0 0.0 -1.051207248977e+02 
-7.349608914631e+01 2.384726402019e+01 0.0 
2.384726402019e+01 -1.406631409022e+02 0.0 
0.0 0.0 -6.038982083989e+01 
-1.162946957705e+02 1.366897537598e+01 0.0 
1.366897537598e+01 -2.993178169287e+02 0.0 
0.0 0.0 -1.242837538097e+02 
-1.355291522073e+02 1.977771971550e+01 0.0 
1.977771971550e+01 -3.217433575268e+02 0.0 
0.0 0.0 -1.367817529202e+02 
-6.806753258785e+01 7.616910540751e+00 0.0 
7.616910540751e+00 -2.020233863984e+02 0.0 
0.0 0.0 -8.066785896420e+01 
-3.318316889441e+01 -5.270850422859e+00 0.0 
-5.270850422859e+00 -1.244311471939e+02 0.0 
0.0 0.0 -4.871718699741e+01 
-1.255226404302e+02 1.094713483291e+01 0.0 
1.094713483291e+01 -2.795062974218e+02 0.0 
0.0 0.0 -1.211086813556e+02 
-8.027489783972e+01 2.060802607321e+01 0.0 
2.060802607321e+01 -1.465004104493e+02 0.0 
0.0 0.0 -6.399897506186e+01 
-8.226433590046e+01 1.638826872849e-01 0.0 
1.638826872849e-01 -2.328002095751e+02 0.0 
0.0 0.0 -9.817913166140e+01 
-1.309526026618e+02 1.776024105253e+01 0.0 
1.776024105253e+01 -3.151980532991e+02 0.0 
0.0 0.0 -1.334451967883e+02 
-1.065478599950e+02 8.724959914459e+00 0.0 
8.724959914459e+00 -2.189909069453e+02 0.0 
0.0 0.0 -9.726163008207e+01 
-1.254017260402e+02 3.429594813960e+00 0.0 
3.429594813960e+00 -3.148553421968e+02 0.0 
0.0 0.0 -1.316771204711e+02 
-6.866230934594e+01 2.031827509971e+01 0.0 
2.031827509971e+01 -1.872396343866e+02 0.0 
0.0 0.0 -7.663382234288e+01 
-2.942711362429e+01 -3.492230966104e+00 0.0 
-3.492230966104e+00 -1.245412156040e+02 0.0 
0.0 0.0 -4.895759441401e+01 
-1.486307157256e+02 2.692414228724e+00 0.0 
2.692414228724e+00 -3.567729620949e+02 0.0 
0.0 0.0 -1.512211033461e+02 
-9.569295965309e+01 2.144203570663e+01 0.0 
2.144203570663e+01 -2.157600804628e+02 0.0 
0.0 0.0 -9.101290892718e+01 
-1.064835047403e+02 1.685009345435e+01 0.0 
1.685009345435e+01 -2.765982648085e+02 0.0 
0.0 0.0 -1.145245308646e+02 
-1.272321312018e+02 1.844340359012e+01 0.0 
1.844340359012e+01 -2.982638905103e+02 0.0 
0.0 0.0 -1.272488065136e+02 
-3.720417529424e+01 -1.606686109107e-01 0.0 
-1.606686109107e-01 -1.236067634458e+02 0.0 
0.0 0.0 -5.009675584670e+01 
-1.235702735326e+02 2.178656768268e+00 0.0 
2.178656768268e+00 -3.138022413040e+02 0.0 
0.0 0.0 -1.308117544510e+02 
-5.139699844632e+01 2.406005914600e+01 0.0 
2.406005914600e+01 -1.378869048710e+02 0.0 
0.0 0.0 -5.230663779859e+01 
-9.951701056064e+01 7.791800795387e+00 0.0 
7.791800795387e+00 -1.987992361304e+02 0.0 
0.0 0.0 -8.909487400733e+01 
-1.090863396687e+02 -2.853908551556e+00 0.0 
-2.853908551556e+00 -2.554631962813e+02 0.0 
0.0 0.0 -1.054814759693e+02 
-6.828264289685e+01 1.063580262226e+01 0.0 
1.063580262226e+01 -2.040364699889e+02 0.0 
0.0 0.0 -8.154080903014e+01 
-1.394007577410e+02 3.008538390211e+00 0.0 
3.008538390211e+00 -3.391515791112e+02 0.0 
0.0 0.0 -1.431657010556e+02 
-9.424671940911e+01 2.065217661450e+01 0.0 
2.065217661450e+01 -2.363487361264e+02 0.0 
0.0 0.0 -1.004307705453e+02 
-6.249130438937e+01 1.096929947336e+01 0.0 
1.096929947336e+01 -1.892550217615e+02 0.0 
0.0 0.0 -7.398342875576e+01 
-9.528335859160e+01 2.078262349640e+01 0.0 
2.078262349640e+01 -2.210031824870e+02 0.0 
0.0 0.0 -9.448596232359e+01 
-3.613275118438e+01 -1.757697391868e+01 0.0 
-1.757697391868e+01 -1.171253934532e+02 0.0 
0.0 0.0 -4.778680881781e+01 
-1.106110338184e+02 2.023243380144e+01 0.0 
2.023243380144e+01 -2.596722217350e+02 0.0 
0.0 0.0 -1.106849766660e+02 
-1.164546034218e+02 1.498160867567e+01 0.0 
1.498160867567e+01 -2.996670159107e+02 0.0 
0.0 0.0 -1.244364857998e+02 
-1.343132864244e+02 1.908920557051e+01 0.0 
1.908920557051e+01 -3.062972319807e+02 0.0 
0.0 0.0 -1.317831555215e+02 
-1.188886998185e+02 2.002214130234e+01 0.0 
2.002214130234e+01 -2.790543694591e+02 0.0 
0.0 0.0 -1.189829207833e+02 
-5.050011434793e+01 5.747134705395e+00 0.0 
5.747134705395e+00 -1.606463489719e+02 0.0 
0.0 0.0 -5.933482768065e+01 
-1.257109400184e+02 2.403703296873e+00 0.0 
2.403703296873e+00 -3.123009303863e+02 0.0 
0.0 0.0 -1.310035611214e+02 
-1.243076677922e+02 6.130267574753e+00 0.0 
6.130267574753e+00 -2.796359805969e+02 0.0 
0.0 0.0 -1.207830945167e+02 
-1.469627711682e+02 1.849123299646e+01 0.0 
1.849123299646e+01 -3.506788650963e+02 0.0 
0.0 0.0 -1.488924908794e+02 
-1.217895953687e+02 1.616459262374e+01 0.0 
1.616459262374e+01 -3.069961151848e+02 0.0 
0.0 0.0 -1.282357131660e+02 
-7.082981013520e+01 1.747009320663e+01 0.0 
1.747009320663e+01 -1.994955334501e+02 0.0 
0.0 0.0 -8.184877657388e+01 
-1.024926659882e+02 2.074784613442e+01 0.0 
2.074784613442e+01 -2.402963352165e+02 0.0 
0.0 0.0 -1.024367003614e+02 
-1.424692098717e+02 5.975579818671e-01 0.0 
5.975579818671e-01 -3.438006214228e+02 0.0 
0.0 0.0 -1.454809493883e+02 
-1.074367565820e+02 -7.403806848266e-01 0.0 
-7.403806848266e-01 -2.336284528851e+02 0.0 
0.0 0.0 -9.792955499810e+01 
-1.147865195760e+02 1.830689446050e+01 0.0 
1.830689446050e+01 -2.722697233584e+02 0.0 
0.0 0.0 -1.157168728803e+02 
-1.006748225401e+02 5.416560040887e+00 0.0 
5.416560040887e+00 -2.076674732716e+02 0.0 
0.0 0.0 -9.210268874350e+01 
-1.348084633562e+02 3.170547407868e+00 0.0 
3.170547407868e+00 -3.310863200412e+02 0.0 
0.0 0.0 -1.393684350192e+02 
-1.297802865712e+02 4.615623322550e+00 0.0 
4.615623322550e+00 -3.251717881464e+02 0.0 
0.0 0.0 -1.360856224153e+02 
-6.478343544174e+01 3.074930856244e-01 0.0 
3.074930856244e-01 -1.256158593029e+02 0.0 
0.0 0.0 -5.671978842339e+01 
-6.466495210428e+01 2.283447478223e-02 0.0 
2.283447478223e-02 -1.255899103741e+02 0.0 
0.0 0.0 -5.667645874351e+01 
-1.078162636466e+02 1.449707405904e+01 0.0 
1.449707405904e+01 -2.220124687008e+02 0.0 
0.0 0.0 -9.854861970422e+01 
-1.069051006918e+02 1.870872012076e+01 0.0 
1.870872012076e+01 -2.533588499652e+02 0.0 
0.0 0.0 -1.076791851971e+02 
-1.126147290663e+02 -1.999969462244e+00 0.0 
-1.999969462244e+00 -2.632998161679e+02 0.0 
0.0 0.0 -1.094115952527e+02 
-1.062043760287e+02 1.859163289136e+01 0.0 
1.859163289136e+01 -2.287082058680e+02 0.0 
0.0 0.0 -1.000737745690e+02 
-8.966191203111e+01 2.088412926620e+01 0.0 
2.088412926620e+01 -2.313670300684e+02 0.0 
0.0 0.0 -9.875763839562e+01 
-1.362647846159e+02 1.082970019643e+01 0.0 
1.082970019643e+01 -3.403085779765e+02 0.0 
0.0 0.0 -1.425720087777e+02 
-7.466708301472e+01 2.031344832917e+01 0.0 
2.031344832917e+01 -2.042108672470e+02 0.0 
0.0 0.0 -8.558662805071e+01 
-1.371742459392e+02 1.069315493676e+01 0.0 
1.069315493676e+01 -3.157749209198e+02 0.0 
0.0 0.0 -1.354847500577e+02 
-8.466694741424e+01 7.324551706950e+00 0.0 
7.324551706950e+00 -1.588775855613e+02 0.0 
0.0 0.0 -7.266335989267e+01 
-8.418856595854e+01 1.977975110351e+01 0.0 
1.977975110351e+01 -2.147163602889e+02 0.0 
0.0 0.0 -9.026762666384e+01 
-1.035055469094e+02 -2.646469905057e+00 0.0 
-2.646469905057e+00 -2.542712952309e+02 0.0 
0.0 0.0 -1.050519633549e+02 
-4.707518293140e+01 1.162370060437e+01 0.0 
1.162370060437e+01 -1.499049384392e+02 0.0 
0.0 0.0 -5.435060401362e+01 
-9.901798951354e+01 -5.840610412801e+00 0.0 
-5.840610412801e+00 -2.284371464894e+02 0.0 
0.0 0.0 -9.566536846197e+01 
-1.006039742685e+02 2.004408623589e+01 0.0 
2.004408623589e+01 -2.346957181391e+02 0.0 
0.0 0.0 -9.949264095290e+01 
-9.699938017894e+01 1.979565078264e+01 0.0 
1.979565078264e+01 -2.077093951068e+02 0.0 
0.0 0.0 -8.937006003491e+01 
-1.014700262037e+02 6.946798114486e+00 0.0 
6.946798114486e+00 -2.078177038320e+02 0.0 
0.0 0.0 -9.238631901071e+01 
-1.094249272987e+02 1.708218885806e+01 0.0 
1.708218885806e+01 -2.409272869775e+02 0.0 
0.0 0.0 -1.047056642828e+02 
-1.133460635450e+02 1.857406937546e+01 0.0 
1.857406937546e+01 -2.486099204421e+02 0.0 
0.0 0.0 -1.081867951961e+02 
-1.833785104251e+01 1.656377358538e-01 0.0 
1.656377358538e-01 -5.923917974358e+01 0.0 
0.0 0.0 -2.154546966871e+01 
-9.171023760162e+01 -5.805269679045e+00 0.0 
-5.805269679045e+00 -2.154618757442e+02 0.0 
0.0 0.0 -8.820271978636e+01 
-7.785136371702e+01 2.212810900476e+01 0.0 
2.212810900476e+01 -1.464745070790e+02 0.0 
0.0 0.0 -6.255717525748e+01 
-1.029410132877e+02 1.508042470354e+01 0.0 
1.508042470354e+01 -2.157609599448e+02 0.0 
0.0 0.0 -9.521059196976e+01 
-1.072973672501e+02 1.662938229594e+01 0.0 
1.662938229594e+01 -2.248016434368e+02 0.0 
0.0 0.0 -9.922970320607e+01 
-1.311375231100e+02 1.344335993904e+01 0.0 
1.344335993904e+01 -3.277926169883e+02 0.0 
0.0 0.0 -1.372790420295e+02 
-3.586102236228e+01 -1.381999997162e+00 0.0 
-1.381999997162e+00 -8.935690297816e+01 0.0 
0.0 0.0 -3.534224392916e+01 
-4.383174987273e+01 -9.416837904454e+00 0.0 
-9.416837904454e+00 -1.371609200903e+02 0.0 
0.0 0.0 -5.115895323666e+01 
-9.201102264363e+01 2.262553283560e+01 0.0 
2.262553283560e+01 -2.105894916619e+02 0.0 
0.0 0.0 -8.980693660774e+01 
-9.655207782181e+01 -6.320333649603e+00 0.0 
-6.320333649603e+00 -2.165361910752e+02 0.0 
0.0 0.0 -9.033213974457e+01 
-7.020139803986e+01 7.200037883130e+00 0.0 
7.200037883130e+00 -1.123692435868e+02 0.0 
0.0 0.0 -5.270461662240e+01 
-7.310538107238e+01 6.807103446563e+00 0.0 
6.807103446563e+00 -1.219937547142e+02 0.0 
0.0 0.0 -5.716834255035e+01 
-1.033945440288e+02 9.092807339446e+00 0.0 
9.092807339446e+00 -2.089971456511e+02 0.0 
0.0 0.0 -9.331750690396e+01 
-3.990224081366e+01 2.486879407955e+01 0.0 
2.486879407955e+01 -1.069906388854e+02 0.0 
0.0 0.0 -3.770123710851e+01 
-1.020365491349e+02 -3.695877384067e+00 0.0 
-3.695877384067e+00 -2.429918309671e+02 0.0 
0.0 0.0 -1.002769779582e+02 
-1.172084007555e+02 1.007138963179e+01 0.0 
1.007138963179e+01 -3.059889212089e+02 0.0 
0.0 0.0 -1.265591965893e+02 
-3.970492066961e+01 -1.635039348755e+00 0.0 
-1.635039348755e+00 -1.395174963668e+02 0.0 
0.0 0.0 -5.213936507091e+01 
-1.430904911693e+02 1.992027248588e+01 0.0 
1.992027248588e+01 -3.358797524576e+02 0.0 
0.0 0.0 -1.432910730881e+02 
-1.193487220085e+02 8.671233996491e+00 0.0 
8.671233996491e+00 -2.592835890224e+02 0.0 
0.0 0.0 -1.131896933093e+02 
-1.043525946798e+02 -3.854702682266e+00 0.0 
-3.854702682266e+00 -2.322709767965e+02 0.0 
0.0 0.0 -9.579527594365e+01 
-1.288934582723e+02 9.650914347586e-01 0.0 
9.650914347586e-01 -3.194727252015e+02 0.0 
0.0 0.0 -1.341098550421e+02 
-1.286618363336e+01 -9.686909921112e-01 0.0 
-9.686909921112e-01 -4.217172472700e+01 0.0 
0.0 0.0 -1.438402065249e+01 
-1.128548903595e+02 8.149469344137e+00 0.0 
8.149469344137e+00 -2.979536583888e+02 0.0 
0.0 0.0 -1.235293569592e+02 
-9.118429391693e+01 2.069136670843e+01 0.0 
2.069136670843e+01 -2.148246626812e+02 0.0 
0.0 0.0 -9.105357712330e+01 
-1.317981230924e+01 -6.064462324350e-01 0.0 
-6.064462324350e-01 -4.205180295269e+01 0.0 
0.0 0.0 -1.425072919397e+01 
-1.177225096877e+02 6.890250099834e+00 0.0 
6.890250099834e+00 -2.583625448251e+02 0.0 
0.0 0.0 -1.124255163538e+02 
-3.839113471302e+01 -3.708853908972e+00 0.0 
-3.708853908972e+00 -1.335199909320e+02 0.0 
0.0 0.0 -5.067593173992e+01 
-1.031999648533e+02 1.759530140129e+01 0.0 
1.759530140129e+01 -2.164209610781e+02 0.0 
0.0 0.0 -9.548627777940e+01 
-9.355415922156e+01 2.055670030906e+01 0.0 
2.055670030906e+01 -2.076527181210e+02 0.0 
0.0 0.0 -8.964475190094e+01 
-8.110526288983e+01 -9.813219706522e-01 0.0 
-9.813219706522e-01 -2.304367608289e+02 0.0 
0.0 0.0 -9.707458639692e+01 
-9.952468471079e+01 1.988354328091e+00 0.0 
1.988354328091e+00 -2.698604763685e+02 0.0 
0.0 0.0 -1.117181389091e+02 
-1.212097124817e+02 8.029355160303e+00 0.0 
8.029355160303e+00 -2.682575753675e+02 0.0 
0.0 0.0 -1.164401863547e+02 
-1.079208459250e+02 3.019303703851e+00 0.0 
3.019303703851e+00 -2.883137478158e+02 0.0 
0.0 0.0 -1.184703781222e+02 
-9.305765340046e+01 2.195028255009e+01 0.0 
2.195028255009e+01 -2.239086187386e+02 0.0 
0.0 0.0 -9.525835971262e+01 
-8.761005495313e+01 2.078376148206e+01 0.0 
2.078376148206e+01 -2.088880214943e+02 0.0 
0.0 0.0 -8.730174105842e+01 
-4.296253702170e+01 3.077972478675e+01 0.0 
3.077972478675e+01 -3.206466381821e+01 0.0 
0.0 0.0 -1.924116937979e+01 
-3.423366052899e+01 -2.964879996966e+00 0.0 
-2.964879996966e+00 -1.299882126520e+02 0.0 
0.0 0.0 -4.962569048480e+01 
-1.224797888932e+02 1.980845399009e+01 0.0 
1.980845399009e+01 -2.912324257756e+02 0.0 
0.0 0.0 -1.237136644006e+02 
-9.685153674967e+01 1.019428643824e+01 0.0 
1.019428643824e+01 -1.893931530086e+02 0.0 
0.0 0.0 -8.547340692747e+01 
-1.263715654117e+02 1.814199680548e+01 0.0 
1.814199680548e+01 -3.029980679814e+02 0.0 
0.0 0.0 -1.284108900179e+02 
-5.553307347206e+01 2.738351728941e+01 0.0 
2.738351728941e+01 -1.417896600293e+02 0.0 
0.0 0.0 -5.669302253087e+01 
-1.164509369227e+02 1.219898901319e+01 0.0 
1.219898901319e+01 -2.507771674804e+02 0.0 
0.0 0.0 -1.097684313209e+02 
-1.272377683367e+02 2.011339270826e+01 0.0 
2.011339270826e+01 -2.984401866647e+02 0.0 
0.0 0.0 -1.273033865004e+02 
-7.491829504703e+01 5.791548547274e+00 0.0 
5.791548547274e+00 -1.300896057018e+02 0.0 
0.0 0.0 -6.032604580447e+01 
-1.227435486720e+02 1.823629492755e+01 0.0 
1.823629492755e+01 -2.909511539224e+02 0.0 
0.0 0.0 -1.237084107783e+02 
-1.301866315973e+02 2.391908874946e+00 0.0 
2.391908874946e+00 -3.203436024945e+02 0.0 
0.0 0.0 -1.347590702275e+02 
-1.021372633756e+02 1.896939315697e+01 0.0 
1.896939315697e+01 -2.473327015573e+02 0.0 
0.0 0.0 -1.043876286605e+02 
-9.804943708614e+01 -4.176464596597e+00 0.0 
-4.176464596597e+00 -2.350293512949e+02 0.0 
0.0 0.0 -9.622506053528e+01 
-1.052678226392e+02 -3.814074466429e+00 0.0 
-3.814074466429e+00 -2.476924090558e+02 0.0 
0.0 0.0 -1.029394398478e+02 
-1.276756743728e+02 1.312752374584e+01 0.0 
1.312752374584e+01 -2.813433587399e+02 0.0 
0.0 0.0 -1.223057099338e+02 
-9.330008001476e+01 9.425963581668e-01 0.0 
9.425963581668e-01 -2.508156069332e+02 0.0 
0.0 0.0 -1.053777921031e+02 
-9.895860046251e+01 2.031589501191e+01 0.0 
2.031589501191e+01 -2.214079074452e+02 0.0 
0.0 0.0 -9.448307029115e+01 
-8.652185556350e+01 1.767106433050e+01 0.0 
1.767106433050e+01 -2.375714383834e+02 0.0 
0.0 0.0 -1.013565459975e+02 
-1.175231020234e+02 4.273302869846e+00 0.0 
4.273302869846e+00 -3.069404894943e+02 0.0 
0.0 0.0 -1.269390774553e+02 
-7.950812660547e+01 1.969455190230e+01 0.0 
1.969455190230e+01 -2.082408377726e+02 0.0 
0.0 0.0 -8.768467807919e+01 
-5.323844113174e+01 6.033811315864e+00 0.0 
6.033811315864e+00 -1.699161778832e+02 0.0 
0.0 0.0 -6.361589200214e+01 
-8.713926224722e+01 5.371815908853e+00 0.0 
5.371815908853e+00 -2.503655259323e+02 0.0 
0.0 0.0 -1.071707052328e+02 
-5.658087756375e+01 1.110405584694e+01 0.0 
1.110405584694e+01 -1.755605071021e+02 0.0 
0.0 0.0 -6.675776647348e+01 
-1.061881859135e+02 1.619825560993e+01 0.0 
1.619825560993e+01 -2.282127392752e+02 0.0 
0.0 0.0 -9.992027755661e+01 
-5.638046088713e+01 6.382686770332e+00 0.0 
6.382686770332e+00 -1.739566706348e+02 0.0 
0.0 0.0 -6.575859185132e+01 
-1.018315750395e+02 1.961390554135e+01 0.0 
1.961390554135e+01 -2.212749952908e+02 0.0 
0.0 0.0 -9.653197109909e+01 
-1.267593861875e+02 1.546763339593e+01 0.0 
1.546763339593e+01 -3.180853133970e+02 0.0 
0.0 0.0 -1.330534098753e+02 
-1.210803509515e+02 1.288586839340e+01 0.0 
1.288586839340e+01 -3.100994526522e+02 0.0 
0.0 0.0 -1.289539410811e+02 
-7.931664816345e+01 2.181369129387e+01 0.0 
2.181369129387e+01 -2.091260580523e+02 0.0 
0.0 0.0 -8.930318003394e+01 
-9.828129429161e+01 7.264716314550e+00 0.0 
7.264716314550e+00 -1.979936532905e+02 0.0 
0.0 0.0 -8.848248427465e+01 
-1.336043096071e+02 8.614122658983e-01 0.0 
8.614122658983e-01 -3.276578293814e+02 0.0 
0.0 0.0 -1.379786416965e+02 
-1.346843338150e+02 2.316051848058e+00 0.0 
2.316051848058e+00 -3.284496995768e+02 0.0 
0.0 0.0 -1.385402100175e+02 
-3.899445456537e+01 2.822499700519e+01 0.0 
2.822499700519e+01 -9.197827778677e+01 0.0 
0.0 0.0 -3.537553794278e+01 
-1.053508442020e+02 1.791051637020e+01 0.0 
1.791051637020e+01 -2.339123977943e+02 0.0 
0.0 0.0 -1.013789725989e+02 
-1.482399611820e+02 9.386704839558e-01 0.0 
9.386704839558e-01 -3.560368822419e+02 0.0 
0.0 0.0 -1.508830530272e+02 
-6.019658951805e+01 1.564941055333e+01 0.0 
1.564941055333e+01 -8.775632596499e+01 0.0 
0.0 0.0 -3.968148767596e+01 
-1.103817871233e+02 -2.603645419807e+00 0.0 
-2.603645419807e+00 -2.517738123063e+02 0.0 
0.0 0.0 -1.045857783778e+02 
-4.515687253950e+01 3.184135062286e+01 0.0 
3.184135062286e+01 -3.040731698849e+01 0.0 
0.0 0.0 -2.022902441129e+01 
-1.382201691193e+02 7.390368410748e-01 0.0 
7.390368410748e-01 -3.358633701184e+02 0.0 
0.0 0.0 -1.418250617713e+02 
-5.065040797796e+01 1.145286449968e+01 0.0 
1.145286449968e+01 -1.625927380287e+02 0.0 
0.0 0.0 -6.064910069338e+01 
-1.090051257871e+02 -1.612191486090e+00 0.0 
-1.612191486090e+00 -2.395840039333e+02 0.0 
0.0 0.0 -1.005644498377e+02 
-1.071218998193e+02 1.548419856961e+01 0.0 
1.548419856961e+01 -2.766366464501e+02 0.0 
0.0 0.0 -1.152748930457e+02 
-1.003143545954e+02 9.505468082496e+00 0.0 
9.505468082496e+00 -1.992743895765e+02 0.0 
0.0 0.0 -8.947662325155e+01 
-9.535667232403e+01 7.775518971282e+00 0.0 
7.775518971282e+00 -1.883068921902e+02 0.0 
0.0 0.0 -8.469906935426e+01 
-9.712263697936e+01 2.109007717241e+01 0.0 
2.109007717241e+01 -2.292063571432e+02 0.0 
0.0 0.0 -9.658950149931e+01 
-6.374381904072e+01 7.985936197636e+00 0.0 
7.985936197636e+00 -9.348833575035e+01 0.0 
0.0 0.0 -4.365162408805e+01 
-6.699539527563e+01 7.321089663113e+00 0.0 
7.321089663113e+00 -1.029914440518e+02 0.0 
0.0 0.0 -4.828727301088e+01 
-1.390231400508e+02 2.148880931021e+00 0.0 
2.148880931021e+00 -3.365346285582e+02 0.0 
0.0 0.0 -1.422673305827e+02 
-1.052738980245e+02 4.256756136335e+00 0.0 
4.256756136335e+00 -2.806080675398e+02 0.0 
0.0 0.0 -1.177964407353e+02 
-8.662929211125e+01 1.394975631297e+00 0.0 
1.394975631297e+00 -2.470071483736e+02 0.0 
0.0 0.0 -1.044654644740e+02 
-1.109398379934e+02 7.278834766770e+00 0.0 
7.278834766770e+00 -2.969837597572e+02 0.0 
0.0 0.0 -1.222978334554e+02 
-7.997627455173e+01 4.485210994584e+00 0.0 
4.485210994584e+00 -2.330347686707e+02 0.0 
0.0 0.0 -9.868840738157e+01 
-5.274528647924e+01 1.132455920701e+01 0.0 
1.132455920701e+01 -1.635146428658e+02 0.0 
0.0 0.0 -6.070819740241e+01 
-6.030263712978e+01 4.535876859724e+00 0.0 
4.535876859724e+00 -9.193066246015e+01 0.0 
0.0 0.0 -4.285140231369e+01 
-8.952233323305e+01 9.022658037743e+00 0.0 
9.022658037743e+00 -1.694699990872e+02 0.0 
0.0 0.0 -7.729769969607e+01 
-6.505532042867e+01 1.707760146411e-01 0.0 
1.707760146411e-01 -1.259169244042e+02 0.0 
0.0 0.0 -5.689167344987e+01 
-1.214990510970e+02 1.415560283959e+01 0.0 
1.415560283959e+01 -3.105346635363e+02 0.0 
0.0 0.0 -1.292101143900e+02 
-7.485016182187e+01 1.908688297221e+01 0.0 
1.908688297221e+01 -2.033103075560e+02 0.0 
0.0 0.0 -8.517098062977e+01 
-1.413556250882e+02 1.595989128161e+01 0.0 
1.595989128161e+01 -3.431868742417e+02 0.0 
0.0 0.0 -1.449627497990e+02 
-1.375951759483e+02 -5.202059295467e-01 0.0 
-5.202059295467e-01 -3.313965424460e+02 0.0 
0.0 0.0 -1.402975155183e+02 
-8.398962340207e+01 6.743274935416e+00 0.0 
6.743274935416e+00 -2.438871815130e+02 0.0 
0.0 0.0 -1.034677189914e+02 
-1.538870142943e+02 3.268029640419e+00 0.0 
3.268029640419e+00 -3.670723084891e+02 0.0 
0.0 0.0 -1.558877968350e+02 
-6.059910989606e+01 2.028447966294e+00 0.0 
2.028447966294e+00 -1.829637455016e+02 0.0 
0.0 0.0 -7.086368508292e+01 
-1.359758723038e+02 1.636579860657e+01 0.0 
1.636579860657e+01 -3.317737367255e+02 0.0 
0.0 0.0 -1.399248827088e+02 
-9.290740469102e+01 2.024296683777e+01 0.0 
2.024296683777e+01 -2.280190223292e+02 0.0 
0.0 0.0 -9.587792810607e+01 
-1.049339754606e+02 1.809011133402e+01 0.0 
1.809011133402e+01 -2.593931620489e+02 0.0 
0.0 0.0 -1.088981412528e+02 
-1.330295919625e+02 1.026789666017e+01 0.0 
1.026789666017e+01 -3.344687625017e+02 0.0 
0.0 0.0 -1.398495063393e+02 
-7.907770321719e+01 -1.230628872700e+01 0.0 
-1.230628872700e+01 -1.813109830601e+02 0.0 
0.0 0.0 -7.636745487088e+01 
-1.019481713193e+02 1.908794699482e+01 0.0 
1.908794699482e+01 -2.274679243104e+02 0.0 
0.0 0.0 -9.800526395376e+01 
-8.208373092817e+01 3.002428504748e+00 0.0 
3.002428504748e+00 -2.377951347171e+02 0.0 
0.0 0.0 -1.003515145005e+02 
-9.745329085570e+01 2.017007741058e+01 0.0 
2.017007741058e+01 -2.142902380793e+02 0.0 
0.0 0.0 -9.312305868050e+01 
-5.480631701030e+01 2.578638209080e+01 0.0 
2.578638209080e+01 -1.392257077718e+02 0.0 
0.0 0.0 -5.494692045950e+01 
-1.082199284282e+02 1.718800184795e+01 0.0 
1.718800184795e+01 -2.712598085318e+02 0.0 
0.0 0.0 -1.134439210880e+02 
-7.732111472226e+01 1.192156643622e+00 0.0 
1.192156643622e+00 -2.244516822395e+02 0.0 
0.0 0.0 -9.431682609116e+01 
-1.073429799801e+02 -2.316078299637e+00 0.0 
-2.316078299637e+00 -2.621980183774e+02 0.0 
0.0 0.0 -1.088478523351e+02 
-9.973799950647e+01 1.858488457150e+01 0.0 
1.858488457150e+01 -2.140895286752e+02 0.0 
0.0 0.0 -9.296612983512e+01 
-4.632472736392e+01 3.742273654807e+01 0.0 
3.742273654807e+01 -5.884495541550e+01 0.0 
0.0 0.0 -3.050730787267e+01 
-9.285830922415e+01 1.541180414802e+01 0.0 
1.541180414802e+01 -2.528423346377e+02 0.0 
0.0 0.0 -1.080925335233e+02 
-4.483925599033e+01 3.228044209866e+01 0.0 
3.228044209866e+01 -5.186052211013e+01 0.0 
0.0 0.0 -2.518509896372e+01 
-2.474063708160e+01 -4.640892839894e+00 0.0 
-4.640892839894e+00 -6.358573850463e+01 0.0 
0.0 0.0 -2.365228842101e+01 
-1.058169433004e+02 -3.210413698196e+00 0.0 
-3.210413698196e+00 -2.507951977259e+02 0.0 
0.0 0.0 -1.040809461341e+02 
-1.199382824732e+02 1.973155702119e+01 0.0 
1.973155702119e+01 -2.734761567404e+02 0.0 
0.0 0.0 -1.176243317641e+02 
-9.894438662854e+01 9.157000385392e+00 0.0 
9.157000385392e+00 -1.985223029504e+02 0.0 
0.0 0.0 -8.884000687367e+01 
-5.643214773229e+01 9.836910216965e+00 0.0 
9.836910216965e+00 -7.491260209065e+01 0.0 
0.0 0.0 -3.407945220927e+01 
-1.346810817508e+02 1.072964955453e+01 0.0 
1.072964955453e+01 -3.155891907520e+02 0.0 
0.0 0.0 -1.346810817508e+02 
-4.621681643868e+01 3.391050450959e+01 0.0 
3.391050450959e+01 -3.182122532599e+01 0.0 
0.0 0.0 -2.383571603755e+01 
-5.978004835410e+01 8.550550209385e+00 0.0 
8.550550209385e+00 -8.409519228769e+01 0.0 
0.0 0.0 -3.888613296506e+01 
-9.003620479283e+01 3.076691117168e+00 0.0 
3.076691117168e+00 -2.511442921812e+02 0.0 
0.0 0.0 -1.068517520308e+02 
-1.077894819004e+02 -2.859000080130e+00 0.0 
-2.859000080130e+00 -2.402381934533e+02 0.0 
0.0 0.0 -9.980066407178e+01 
-7.627537646471e+01 1.231718077073e+01 0.0 
1.231718077073e+01 -1.237825196210e+02 0.0 
0.0 0.0 -5.680176121196e+01 
-6.379671881309e+01 -5.684331078002e+00 0.0 
-5.684331078002e+00 -1.862466519405e+02 0.0 
0.0 0.0 -7.419747109723e+01 
-9.882153225472e+01 9.109699401086e-01 0.0 
9.109699401086e-01 -2.635809694569e+02 0.0 
0.0 0.0 -1.117369741552e+02 
-9.783606152773e+01 2.087192584161e+01 0.0 
2.087192584161e+01 -2.342612808465e+02 0.0 
0.0 0.0 -9.922920271227e+01 
-1.016329975059e+02 1.467865505598e+01 0.0 
1.467865505598e+01 -2.702167101565e+02 0.0 
0.0 0.0 -1.134683754441e+02 
-1.231949233204e+02 1.611069019799e+01 0.0 
1.611069019799e+01 -2.758436501437e+02 0.0 
0.0 0.0 -1.193115720392e+02 
-4.213144522800e+01 2.735801297553e+01 0.0 
2.735801297553e+01 -1.138062110374e+02 0.0 
0.0 0.0 -4.349835641776e+01 
-1.001372795254e+02 -4.436734301933e+00 0.0 
-4.436734301933e+00 -2.313918295466e+02 0.0 
0.0 0.0 -9.538753267890e+01 
-1.076033859414e+02 -3.167315771117e+00 0.0 
-3.167315771117e+00 -2.474792438423e+02 0.0 
0.0 0.0 -1.031629467230e+02 
-6.243186766608e+01 -1.160671742769e+01 0.0 
-1.160671742769e+01 -1.339508534803e+02 0.0 
0.0 0.0 -5.538183412269e+01 
-7.740098306332e+01 5.499106890374e+00 0.0 
5.499106890374e+00 -1.392720446646e+02 0.0 
0.0 0.0 -6.438336499898e+01 
-1.005988337084e+02 1.156809637108e+01 0.0 
1.156809637108e+01 -1.997086235996e+02 0.0 
0.0 0.0 -8.969223719238e+01 
-1.273722121041e+02 8.036710603289e-01 0.0 
8.036710603289e-01 -3.027731319732e+02 0.0 
0.0 0.0 -1.278975132010e+02 
-1.644350697065e+01 -3.643521896188e-01 0.0 
-3.643521896188e-01 -4.275897142652e+01 0.0 
0.0 0.0 -1.472023562561e+01 
-4.897760153338e+01 -7.589887815969e+00 0.0 
-7.589887815969e+00 -1.177589057712e+02 0.0 
0.0 0.0 -5.139934350017e+01 
-4.359588543405e+01 -9.731084679714e+00 0.0 
-9.731084679714e+00 -9.137259461400e+01 0.0 
0.0 0.0 -3.673171299967e+01 
-1.110026083904e+02 -1.962444551688e+00 0.0 
-1.962444551688e+00 -2.483335716394e+02 0.0 
0.0 0.0 -1.036860421251e+02 
-6.610076766443e+01 3.070982145935e+00 0.0 
3.070982145935e+00 -1.970754916272e+02 0.0 
0.0 0.0 -7.811230575952e+01 
-6.348124441377e+01 -6.391178542144e+00 0.0 
-6.391178542144e+00 -1.828096835928e+02 0.0 
0.0 0.0 -7.313686720270e+01 
-5.465797396142e+01 7.641144660213e-01 0.0 
7.641144660213e-01 -1.694803105914e+02 0.0 
0.0 0.0 -6.413246573355e+01 
-1.094978210477e+02 -2.703686292643e+00 0.0 
-2.703686292643e+00 -2.587604348082e+02 0.0 
0.0 0.0 -1.078465700328e+02 
-1.063152751490e+02 1.197949627306e+01 0.0 
1.197949627306e+01 -2.206772014395e+02 0.0 
0.0 0.0 -9.769774297655e+01 
-1.111329383694e+02 -2.547247135539e+00 0.0 
-2.547247135539e+00 -2.556822809588e+02 0.0 
0.0 0.0 -1.069616693997e+02 
-6.513369697139e+01 6.666583489877e+00 0.0 
6.666583489877e+00 -1.973167367828e+02 0.0 
0.0 0.0 -7.763762839724e+01 
-1.044941578721e+02 2.015878468317e+01 0.0 
2.015878468317e+01 -2.339669439766e+02 0.0 
0.0 0.0 -1.011383305546e+02 
-8.144313893129e+01 2.778367897332e+00 0.0 
2.778367897332e+00 -1.574933862001e+02 0.0 
0.0 0.0 -7.128095753941e+01 
-1.170099722719e+02 1.543305950767e+01 0.0 
1.543305950767e+01 -2.953385750107e+02 0.0 
0.0 0.0 -1.233045641848e+02 
-1.140170569798e+02 -1.142870787980e+00 0.0 
-1.142870787980e+00 -2.565232682904e+02 0.0 
0.0 0.0 -1.074925249184e+02 
-1.136140730190e+02 -1.756431467398e+00 0.0 
-1.756431467398e+00 -2.597091036076e+02 0.0 
0.0 0.0 -1.084114525703e+02 
-4.900646347419e+01 1.279197033760e+01 0.0 
1.279197033760e+01 -5.546212189430e+01 0.0 
0.0 0.0 -2.645443414250e+01 
-6.995288673435e+01 -1.979144597014e-01 0.0 
-1.979144597014e-01 -2.050343961268e+02 0.0 
0.0 0.0 -8.341266835259e+01 
-1.144924634497e+02 -1.950953179580e+00 0.0 
-1.950953179580e+00 -2.639102653166e+02 0.0 
0.0 0.0 -1.107247684336e+02 
-9.315980941838e+01 -4.210500434082e-01 0.0 
-4.210500434082e-01 -1.973069600582e+02 0.0 
0.0 0.0 -8.674003084298e+01 
-8.611135659735e+01 -5.281470710271e-01 0.0 
-5.281470710271e-01 -1.789712911141e+02 0.0 
0.0 0.0 -7.912479431345e+01 
-5.243980617689e+01 1.104668995151e+01 0.0 
1.104668995151e+01 -6.532548320677e+01 0.0 
0.0 0.0 -2.938495766217e+01 
-1.131105479338e+02 -2.198676898280e+00 0.0 
-2.198676898280e+00 -2.668762325461e+02 0.0 
0.0 0.0 -1.116149354209e+02 
-6.713447485916e+01 -1.253544775246e+01 0.0 
-1.253544775246e+01 -1.788242985181e+02 0.0 
0.0 0.0 -7.374181760607e+01 
-4.493808119546e+01 3.263546713182e+01 0.0 
3.263546713182e+01 -7.182798515039e+01 0.0 
0.0 0.0 -3.064192789474e+01 
-1.370309859528e+02 1.775267657323e+01 0.0 
1.775267657323e+01 -3.326649652258e+02 0.0 
0.0 0.0 -1.405087853536e+02 
-4.551920677192e+01 -1.218971522866e+01 0.0 
-1.218971522866e+01 -8.559826776023e+01 0.0 
0.0 0.0 -3.555843160544e+01 
-6.545226053812e+01 -1.046932031368e+01 0.0 
-1.046932031368e+01 -1.783829951256e+02 0.0 
0.0 0.0 -7.298282526999e+01 
-8.828499674283e+01 1.713195514450e+01 0.0 
1.713195514450e+01 -2.393016325323e+02 0.0 
0.0 0.0 -1.007016570259e+02 
-5.242690514061e+01 5.593711638141e+00 0.0 
5.593711638141e+00 -7.286981937371e+01 0.0 
0.0 0.0 -3.328333300743e+01 
-1.169269611735e+02 -4.173004156543e-01 0.0 
-4.173004156543e-01 -2.649373294224e+02 0.0 
0.0 0.0 -1.113199315706e+02 
-5.675731553593e+01 4.422251111530e-01 0.0 
4.422251111530e-01 -1.210094586276e+02 0.0 
0.0 0.0 -4.941720614268e+01 
-8.187716664395e+01 7.636945533338e+00 0.0 
7.636945533338e+00 -1.476145319056e+02 0.0 
0.0 0.0 -6.844644161706e+01 
-1.166523862737e+02 -1.007936504535e+00 0.0 
-1.007936504535e+00 -2.677754671047e+02 0.0 
0.0 0.0 -1.121802454588e+02 
-8.581843710246e+01 -2.410562210442e+00 0.0 
-2.410562210442e+00 -2.382794332687e+02 0.0 
0.0 0.0 -1.007021808395e+02 
-1.069447255924e+02 -3.531925251794e+00 0.0 
-3.531925251794e+00 -2.439945731516e+02 0.0 
0.0 0.0 -1.006619094743e+02 
-3.849154310637e+01 3.322294732948e+01 0.0 
3.322294732948e+01 -8.509967858569e+01 0.0 
0.0 0.0 -3.891133213170e+01 
-1.144797707431e+02 1.345219345582e+00 0.0 
1.345219345582e+00 -2.557789043040e+02 0.0 
0.0 0.0 -1.106776025141e+02 
-7.387798266722e+01 -7.051021621230e+00 0.0 
-7.051021621230e+00 -2.051499555779e+02 0.0 
0.0 0.0 -8.563671296371e+01 
-1.312065772840e+02 1.155043473936e+01 0.0 
1.155043473936e+01 -3.315240548273e+02 0.0 
0.0 0.0 -1.384191896334e+02 
-1.034974988368e+02 1.946438402547e+01 0.0 
1.946438402547e+01 -2.591525836981e+02 0.0 
0.0 0.0 -1.083950247605e+02 
-1.166030418012e+02 -1.736785442435e+00 0.0 
-1.736785442435e+00 -2.750527106219e+02 0.0 
0.0 0.0 -1.153716904021e+02 
-1.195284311824e+02 -4.023420232335e-01 0.0 
-4.023420232335e-01 -2.758790454500e+02 0.0 
0.0 0.0 -1.159015816081e+02 
-6.236509453321e+01 2.178915649232e+00 0.0 
2.178915649232e+00 -1.898663195738e+02 0.0 
0.0 0.0 -7.424707957201e+01 
-4.013819568272e+01 -1.096125753298e+01 0.0 
-1.096125753298e+01 -5.927926223172e+01 0.0 
0.0 0.0 -2.568565169847e+01 
-3.740180198417e+01 3.484275378897e+01 0.0 
3.484275378897e+01 -8.298750434758e+01 0.0 
0.0 0.0 -3.727827784490e+01 
-1.199522515192e+02 -1.337286839172e+00 0.0 
-1.337286839172e+00 -2.833454431879e+02 0.0 
0.0 0.0 -1.191637732824e+02 
-1.316444746591e+02 9.367622111707e+00 0.0 
9.367622111707e+00 -3.339217474021e+02 0.0 
0.0 0.0 -1.392698666184e+02 
-6.904747854518e+01 -1.592339478313e+01 0.0 
-1.592339478313e+01 -1.698748957155e+02 0.0 
0.0 0.0 -7.100232444243e+01 
-1.083929600101e+02 1.828489584511e+01 0.0 
1.828489584511e+01 -2.468278547052e+02 0.0 
0.0 0.0 -1.061662444146e+02 
-5.573222966178e+01 1.832469742106e+01 0.0 
1.832469742106e+01 -7.890975035266e+01 0.0 
0.0 0.0 -3.665136734268e+01 
-1.091547639808e+02 1.936435590760e+01 0.0 
1.936435590760e+01 -2.412696649477e+02 0.0 
0.0 0.0 -1.047273286785e+02 
-1.540376831628e+02 7.137509563419e+00 0.0 
7.137509563419e+00 -3.735215156367e+02 0.0 
0.0 0.0 -1.578677596399e+02 
-1.314537119069e+02 -7.737785301819e-01 0.0 
-7.737785301819e-01 -1.028562444584e+02 0.0 
0.0 0.0 -7.056985792003e+01 
-1.319929659945e+02 1.253582915694e+00 0.0 
1.253582915694e+00 -3.093169206538e+02 0.0 
0.0 0.0 -1.319929659945e+02 
-1.679715076685e+02 6.246595158317e-01 0.0 
6.246595158317e-01 -3.932668512264e+02 0.0 
0.0 0.0 -1.679715076685e+02 
-7.335531121947e+01 8.033501037919e-01 0.0 
8.033501037919e-01 -1.470336803474e+02 0.0 
0.0 0.0 -6.571669747006e+01 
-7.659754940773e+01 -1.191567389592e+01 0.0 
-1.191567389592e+01 -1.997563581684e+02 0.0 
0.0 0.0 -8.386187671997e+01 
-1.002827487486e+02 2.027632625319e+01 0.0 
2.027632625319e+01 -2.468984236126e+02 0.0 
0.0 0.0 -1.037543517083e+02 
-6.232607202805e+01 6.966127403456e+00 0.0 
6.966127403456e+00 -1.879339532608e+02 0.0 
0.0 0.0 -7.315449890809e+01 
-2.043865345972e+01 -4.616278155629e-01 0.0 
-4.616278155629e-01 -5.527395278572e+01 0.0 
0.0 0.0 -2.082200797604e+01 
-4.895230732694e+01 3.456283182193e+01 0.0 
3.456283182193e+01 -3.221059457385e+01 0.0 
0.0 0.0 -2.298054639337e+01 
-1.215495187342e+02 4.107992242216e+00 0.0 
4.107992242216e+00 -2.733888915739e+02 0.0 
0.0 0.0 -1.180815230924e+02 
-1.043632450143e+02 1.310286231320e+01 0.0 
1.310286231320e+01 -2.108613211195e+02 0.0 
0.0 0.0 -9.416736984015e+01 
-7.621038680377e+01 6.808335806986e+00 0.0 
6.808335806986e+00 -1.327409579706e+02 0.0 
0.0 0.0 -6.189182395641e+01 
-1.514578784298e+02 2.163942625643e+01 0.0 
2.163942625643e+01 -3.558498835837e+02 0.0 
0.0 0.0 -1.517923286041e+02 
-4.277589462994e+01 5.579723211584e-01 0.0 
5.579723211584e-01 -1.007166629954e+02 0.0 
0.0 0.0 -4.037800172824e+01 
-1.523074089584e+02 2.116656117901e+01 0.0 
2.116656117901e+01 -3.595862445645e+02 0.0 
0.0 0.0 -1.531680960569e+02 
-1.027406959118e+02 1.059239339033e+01 0.0 
1.059239339033e+01 -2.095615881853e+02 0.0 
0.0 0.0 -9.329068522913e+01 
-8.124108464751e+01 -1.208115125226e+01 0.0 
-1.208115125226e+01 -1.941079848252e+02 0.0 
0.0 0.0 -8.202468107651e+01 
-9.833617436104e+01 1.981024847220e+01 0.0 
1.981024847220e+01 -2.417187601083e+02 0.0 
0.0 0.0 -1.018451657628e+02 
-7.114353381068e+01 -1.017861677520e+01 0.0 
-1.017861677520e+01 -1.852765494304e+02 0.0 
0.0 0.0 -7.624393590118e+01 
-4.496898062097e+01 3.135918559283e+01 0.0 
3.135918559283e+01 -6.957656069609e+01 0.0 
0.0 0.0 -3.062249720111e+01 
-6.940563161013e+01 -1.171293593788e+01 0.0 
-1.171293593788e+01 -1.731628356673e+02 0.0 
0.0 0.0 -7.124882253254e+01 
-1.098437612522e+02 1.329451766781e+01 0.0 
1.329451766781e+01 -2.321756576086e+02 0.0 
0.0 0.0 -1.022058256582e+02 
-1.427384624603e+02 1.482389682098e+00 0.0 
1.482389682098e+00 -3.421732725193e+02 0.0 
0.0 0.0 -1.450735204939e+02 
-6.756483397784e+01 -7.399390535536e+00 0.0 
-7.399390535536e+00 -1.897858636698e+02 0.0 
0.0 0.0 -7.770158779818e+01 
-1.125987559998e+02 1.769487673522e+01 0.0 
1.769487673522e+01 -2.535926574493e+02 0.0 
0.0 0.0 -1.094574240347e+02 
-8.146730974104e+01 -2.405468890662e+00 0.0 
-2.405468890662e+00 -1.130892142113e+02 0.0 
0.0 0.0 -5.886821270895e+01 
-6.595380153302e+01 -1.421442912400e+00 0.0 
-1.421442912400e+00 -1.955479610272e+02 0.0 
0.0 0.0 -7.773315860012e+01 
-1.147937537668e+02 1.321428662664e+01 0.0 
1.321428662664e+01 -2.410968041198e+02 0.0 
0.0 0.0 -1.063671673660e+02 
-7.181126404099e+01 -1.121753314860e+01 0.0 
-1.121753314860e+01 -1.673231205195e+02 0.0 
0.0 0.0 -6.868673900690e+01 
-6.703751517810e+01 -1.645290579390e+01 0.0 
-1.645290579390e+01 -1.556203532372e+02 0.0 
0.0 0.0 -6.530185654783e+01 
-9.546436266303e+01 1.987480988444e+01 0.0 
1.987480988444e+01 -2.408533945098e+02 0.0 
0.0 0.0 -1.004953271519e+02 
-4.365450020525e+01 -1.819640209326e+01 0.0 
-1.819640209326e+01 -1.085481795980e+02 0.0 
0.0 0.0 -3.901578729620e+01 
-4.202150948899e+01 1.557203307423e+01 0.0 
1.557203307423e+01 -3.492900334806e+01 0.0 
0.0 0.0 -1.928970734026e+01 
-4.523161249549e+01 1.433340641884e+01 0.0 
1.433340641884e+01 -4.700583471721e+01 0.0 
0.0 0.0 -2.298549541839e+01 
-6.436248965225e+01 -1.285479455146e+01 0.0 
-1.285479455146e+01 -1.472949695328e+02 0.0 
0.0 0.0 -6.035638980816e+01 
-9.303673467226e+01 1.018855257905e+00 0.0 
1.018855257905e+00 -2.550073439008e+02 0.0 
0.0 0.0 -1.082983544308e+02 
-8.510633043638e+01 2.027068761856e+01 0.0 
2.027068761856e+01 -2.261639771549e+02 0.0 
0.0 0.0 -9.658059328844e+01 
-1.122223383873e+02 1.981494005686e+01 0.0 
1.981494005686e+01 -2.537784771282e+02 0.0 
0.0 0.0 -1.094002446546e+02 
-1.298718004111e+02 1.572547479496e+01 0.0 
1.572547479496e+01 -2.943100561518e+02 0.0 
0.0 0.0 -1.268545569689e+02 
-4.323369603619e+01 7.468476130678e+00 0.0 
7.468476130678e+00 -5.334401149140e+01 0.0 
0.0 0.0 -2.375763936560e+01 
-1.007712361307e+02 1.431065695762e+00 0.0 
1.431065695762e+00 -2.171661831980e+02 0.0 
0.0 0.0 -9.498122579863e+01 
-1.337026414071e+02 1.850526463039e+01 0.0 
1.850526463039e+01 -3.103857423014e+02 0.0 
0.0 0.0 -1.328265151126e+02 
-5.930799862433e+01 6.383308193231e+00 0.0 
6.383308193231e+00 -1.833520064487e+02 0.0 
0.0 0.0 -7.051769355252e+01 
-4.253499903519e+01 3.128553854350e+01 0.0 
3.128553854350e+01 -5.147290849885e+01 0.0 
0.0 0.0 -2.366821222000e+01 
-6.213161625714e+01 1.987225855522e+01 0.0 
1.987225855522e+01 -8.921131060167e+01 0.0 
0.0 0.0 -4.048524969722e+01 
-9.223456370031e+01 -2.360379758584e+00 0.0 
-2.360379758584e+00 -2.461067750521e+02 0.0 
0.0 0.0 -1.044723640136e+02 
-1.130810691591e+02 1.632377036529e+01 0.0 
1.632377036529e+01 -2.480895057679e+02 0.0 
0.0 0.0 -1.079511724781e+02 
-8.819756853802e+01 5.196433069492e-01 0.0 
5.196433069492e-01 -2.422736223758e+02 0.0 
0.0 0.0 -1.022975808198e+02 
-3.605950902929e+01 2.716703513498e+01 0.0 
2.716703513498e+01 -9.463522717285e+01 0.0 
0.0 0.0 -3.681709953858e+01 
-9.999278670533e+01 4.585124795549e+00 0.0 
4.585124795549e+00 -2.715560466700e+02 0.0 
0.0 0.0 -1.152143824478e+02 
-4.676461796089e+01 2.990848056929e+01 0.0 
2.990848056929e+01 -6.887990061130e+01 0.0 
0.0 0.0 -3.146313869543e+01 
-8.154236424004e+01 1.765828243146e+01 0.0 
1.765828243146e+01 -2.203678990529e+02 0.0 
0.0 0.0 -9.317495673880e+01 
-9.493753337736e+01 2.777820759360e+00 0.0 
2.777820759360e+00 -2.606112362810e+02 0.0 
0.0 0.0 -1.097069680398e+02 
-9.979432596263e+01 1.789127516648e+01 0.0 
1.789127516648e+01 -2.532196168471e+02 0.0 
0.0 0.0 -1.066062235067e+02 
-9.221998691359e+01 1.872965354201e+00 0.0 
1.872965354201e+00 -1.925460522699e+02 0.0 
0.0 0.0 -8.502981175503e+01 
-6.761707162342e+01 -1.343394234354e+01 0.0 
-1.343394234354e+01 -1.478225064473e+02 0.0 
0.0 0.0 -6.187982385882e+01 
-4.397668904730e+01 3.310799787190e+01 0.0 
3.310799787190e+01 -7.368355312390e+01 0.0 
0.0 0.0 -3.047914066518e+01 
-1.024709533600e+02 3.390815991928e+00 0.0 
3.390815991928e+00 -2.792340030702e+02 0.0 
0.0 0.0 -1.152321894343e+02 
-4.653208925359e+01 2.802755215672e+01 0.0 
2.802755215672e+01 -6.812300378393e+01 0.0 
0.0 0.0 -3.172116431792e+01 
-4.701385800948e+01 1.173174164398e+01 0.0 
1.173174164398e+01 -1.202706541267e+02 0.0 
0.0 0.0 -5.159314196689e+01 
-1.209906382169e+02 -1.828386204901e-01 0.0 
-1.828386204901e-01 -2.746778388419e+02 0.0 
0.0 0.0 -1.183005431176e+02 
-1.146749131463e+02 -3.567295991823e-01 0.0 
-3.567295991823e-01 -2.559587176252e+02 0.0 
0.0 0.0 -1.107900892315e+02 
-2.053573295700e+01 -3.343372488912e+00 0.0 
-3.343372488912e+00 -2.706118465731e+01 0.0 
0.0 0.0 -1.275872086741e+01 
-1.089378146433e+02 6.140874206484e+00 0.0 
6.140874206484e+00 -2.895505390633e+02 0.0 
0.0 0.0 -1.208061542773e+02 
-5.311005363247e+01 -1.139457555548e+01 0.0 
-1.139457555548e+01 -1.125894171175e+02 0.0 
0.0 0.0 -4.611771967187e+01 
-5.699281790599e+01 -1.156688064198e+01 0.0 
-1.156688064198e+01 -1.208469096085e+02 0.0 
0.0 0.0 -4.939741707253e+01 
-1.200055520886e+02 1.770121116416e+01 0.0 
1.770121116416e+01 -2.733194462245e+02 0.0 
0.0 0.0 -1.175974994939e+02 
-9.803959890425e+01 1.894283597832e+01 0.0 
1.894283597832e+01 -2.526785291316e+02 0.0 
0.0 0.0 -1.048154384108e+02 
-1.158985277077e+02 1.809749235542e+01 0.0 
1.809749235542e+01 -2.663019374543e+02 0.0 
0.0 0.0 -1.142601395486e+02 
-6.890180655662e+01 -4.910565754503e+00 0.0 
-4.910565754503e+00 -1.974506679726e+02 0.0 
0.0 0.0 -8.063579241757e+01 
-6.582539670000e+01 5.105249341822e-01 0.0 
5.105249341822e-01 -1.257996903306e+02 0.0 
0.0 0.0 -5.708752610917e+01 
-1.575812802807e+02 6.189546978586e+00 0.0 
6.189546978586e+00 -3.753161968644e+02 0.0 
0.0 0.0 -1.594692431435e+02 
-4.874959577002e+01 -1.096882970700e+01 0.0 
-1.096882970700e+01 -1.001751234734e+02 0.0 
0.0 0.0 -4.107176735387e+01 
-1.266073639302e+02 1.331202436342e+01 0.0 
1.331202436342e+01 -3.207305674785e+02 0.0 
0.0 0.0 -1.338013794226e+02 
-8.570834828563e+01 1.806399682529e+01 0.0 
1.806399682529e+01 -2.261584180920e+02 0.0 
0.0 0.0 -9.545069683340e+01 
-2.864802758696e+01 -2.544831392905e+00 0.0 
-2.544831392905e+00 -7.624885502811e+01 0.0 
0.0 0.0 -2.944769472374e+01 
-1.097589714740e+02 1.531041084763e+01 0.0 
1.531041084763e+01 -2.356779883875e+02 0.0 
0.0 0.0 -1.032310879585e+02 
-6.818664940229e+01 2.890915710580e+00 0.0 
2.890915710580e+00 -2.040389098681e+02 0.0 
0.0 0.0 -8.173065645028e+01 
-3.535793207517e+01 -1.023315968772e+01 0.0 
-1.023315968772e+01 -4.866834009361e+01 0.0 
0.0 0.0 -2.008423572867e+01 
-6.002986406033e+01 -2.533356260335e+00 0.0 
-2.533356260335e+00 -1.812435860574e+02 0.0 
0.0 0.0 -7.032432512125e+01 
-1.248191612281e+02 -8.259217705746e-01 0.0 
-8.259217705746e-01 -2.941128400505e+02 0.0 
0.0 0.0 -1.241054741393e+02 
-1.111584079897e+02 1.580653573363e+01 0.0 
1.580653573363e+01 -2.335686489762e+02 0.0 
0.0 0.0 -1.030181170898e+02 
-4.314861864883e+01 -1.015313574387e+01 0.0 
-1.015313574387e+01 -7.880190218952e+01 0.0 
0.0 0.0 -3.157388383265e+01 
-1.097914506481e+02 -3.165333631155e-01 0.0 
-3.165333631155e-01 -2.403588661017e+02 0.0 
0.0 0.0 -1.010784073059e+02 
-1.166087818853e+02 1.710886338687e+01 0.0 
1.710886338687e+01 -2.608505475406e+02 0.0 
0.0 0.0 -1.128377988278e+02 
-1.221605133092e+02 1.774108929678e+01 0.0 
1.774108929678e+01 -3.026169897145e+02 0.0 
0.0 0.0 -1.270332509071e+02 
-6.691206304129e+01 -1.260380778567e+01 0.0 
-1.260380778567e+01 -1.603295425548e+02 0.0 
0.0 0.0 -6.577898077119e+01 
-5.912692844185e+01 -2.236464209527e+00 0.0 
-2.236464209527e+00 -1.210708826772e+02 0.0 
0.0 0.0 -4.941464469745e+01 
-9.110878330418e+01 1.855069358465e+01 0.0 
1.855069358465e+01 -2.427241703186e+02 0.0 
0.0 0.0 -1.035515535811e+02 
-8.922252735759e+01 9.027453000091e-01 0.0 
9.027453000091e-01 -1.866962924435e+02 0.0 
0.0 0.0 -8.237564594031e+01 
-3.793472869815e+01 -1.445812347424e+01 0.0 
-1.445812347424e+01 -5.245341814530e+01 0.0 
0.0 0.0 -1.946458091531e+01 
-1.416960583904e+02 2.069020122258e+01 0.0 
2.069020122258e+01 -3.300188157255e+02 0.0 
0.0 0.0 -1.411144622348e+02 
-1.328479730824e+02 1.514424231994e+01 0.0 
1.514424231994e+01 -3.057585365432e+02 0.0 
0.0 0.0 -1.311819528877e+02 
-7.829949162368e+01 9.758270794084e-01 0.0 
9.758270794084e-01 -1.589542102717e+02 0.0 
0.0 0.0 -7.077611056860e+01 
-1.295544672863e+02 9.224281562147e+00 0.0 
9.224281562147e+00 -2.912088601480e+02 0.0 
0.0 0.0 -1.258289982303e+02 
-1.355949286659e+02 1.682103502377e+01 0.0 
1.682103502377e+01 -3.129068161033e+02 0.0 
0.0 0.0 -1.341505234307e+02 
-6.952701584057e+01 -3.799150231645e+00 0.0 
-3.799150231645e+00 -2.004688863905e+02 0.0 
0.0 0.0 -8.189747080151e+01 
-7.300204073958e+01 -1.079051628660e+01 0.0 
-1.079051628660e+01 -1.958726265632e+02 0.0 
0.0 0.0 -8.170804804491e+01 
-1.490124555701e+02 1.547753229625e+01 0.0 
1.547753229625e+01 -3.614654279063e+02 0.0 
0.0 0.0 -1.527433650429e+02 
-7.498459132350e+01 5.472473003462e+00 0.0 
5.472473003462e+00 -1.089718954870e+02 0.0 
0.0 0.0 -5.573755822594e+01 
-5.048219135979e+01 -1.331598498328e+00 0.0 
-1.331598498328e+00 -1.099017242590e+02 0.0 
0.0 0.0 -4.451948559039e+01 
-1.107791932386e+02 -1.257517851903e+00 0.0 
-1.257517851903e+00 -2.447134625673e+02 0.0 
0.0 0.0 -1.027245923323e+02 
-7.130330199158e+01 -1.434143501836e+01 0.0 
-1.434143501836e+01 -1.614758421734e+02 0.0 
0.0 0.0 -6.788218382593e+01 
-6.189679088055e+01 -9.251445104297e+00 0.0 
-9.251445104297e+00 -1.749026402293e+02 0.0 
0.0 0.0 -6.983241338972e+01 
-4.182032062296e+01 2.021705272215e+01 0.0 
2.021705272215e+01 -2.231497826116e+01 0.0 
0.0 0.0 -1.600861918793e+01 
-4.457163048044e+01 1.978179884888e+01 0.0 
1.978179884888e+01 -3.314626166257e+01 0.0 
0.0 0.0 -1.966147422791e+01 
-8.258793578885e+01 3.520014713298e+00 0.0 
3.520014713298e+00 -1.603171751117e+02 0.0 
0.0 0.0 -7.247153327016e+01 
-6.477455564341e+01 -1.755382655450e+00 0.0 
-1.755382655450e+00 -1.904785828062e+02 0.0 
0.0 0.0 -7.579070542313e+01 
-6.369276203641e+01 -4.355898479972e+00 0.0 
-4.355898479972e+00 -1.294608578467e+02 0.0 
0.0 0.0 -5.227120522681e+01 
-1.170156298300e+02 1.698707382610e+01 0.0 
1.698707382610e+01 -2.895147699531e+02 0.0 
0.0 0.0 -1.215591199349e+02 
-1.657451350234e+02 4.490872160464e+00 0.0 
4.490872160464e+00 -3.922441972199e+02 0.0 
0.0 0.0 -1.669967996730e+02 
-1.644790712677e+02 5.730398739783e+00 0.0 
5.730398739783e+00 -3.907113464711e+02 0.0 
0.0 0.0 -1.661571253216e+02 
-7.197130678765e+01 -8.184939538686e+00 0.0 
-8.184939538686e+00 -1.966456770767e+02 0.0 
0.0 0.0 -8.073992439931e+01 
-7.648954347693e+01 2.826134090206e+00 0.0 
2.826134090206e+00 -1.439144467162e+02 0.0 
0.0 0.0 -6.572119705793e+01 
-7.888511952414e+01 1.616939318952e+00 0.0 
1.616939318952e+00 -1.088934920384e+02 0.0 
0.0 0.0 -5.731586742588e+01 
-4.252829037526e+01 2.751955190993e+01 0.0 
2.751955190993e+01 -2.729039749417e+01 0.0 
0.0 0.0 -1.752244078398e+01 
-4.868586188625e+01 -2.145983454985e+01 0.0 
-2.145983454985e+01 -1.128712288123e+02 0.0 
0.0 0.0 -4.365217735379e+01 
-4.258326015503e+01 2.588741985713e+01 0.0 
2.588741985713e+01 -2.518367534796e+01 0.0 
0.0 0.0 -1.712830568910e+01 
-9.262444568370e+01 1.841974580837e+01 0.0 
1.841974580837e+01 -2.459342737954e+02 0.0 
0.0 0.0 -1.019030748648e+02 
-6.351762773687e+01 -1.275227202077e+01 0.0 
-1.275227202077e+01 -1.665864510620e+02 0.0 
0.0 0.0 -6.780019469873e+01 
-6.794941450386e+01 -8.824480601541e+00 0.0 
-8.824480601541e+00 -1.883975984437e+02 0.0 
0.0 0.0 -7.746754258041e+01 
-3.918779091246e+01 -2.637020847077e+01 0.0 
-2.637020847077e+01 -9.184561740380e+01 0.0 
0.0 0.0 -3.973619948755e+01 
-1.149203611509e+02 8.213702687964e-01 0.0 
8.213702687964e-01 -2.588655508797e+02 0.0 
0.0 0.0 -1.117357736092e+02 
-7.100152255478e+01 -1.395890464677e+01 0.0 
-1.395890464677e+01 -1.841064710591e+02 0.0 
0.0 0.0 -7.660929272646e+01 
-1.206833225348e+02 2.502505029203e+00 0.0 
2.502505029203e+00 -2.726649779015e+02 0.0 
0.0 0.0 -1.176044901309e+02 
-1.106147432477e+02 1.954321420630e+00 0.0 
1.954321420630e+00 -2.434044856462e+02 0.0 
0.0 0.0 -1.058057686682e+02 
-1.337499280923e+02 1.268029261581e+00 0.0 
1.268029261581e+00 -3.095034376243e+02 0.0 
0.0 0.0 -1.325760097150e+02 
-1.669010043350e+02 6.150664552896e-01 0.0 
6.150664552896e-01 -3.930231176688e+02 0.0 
0.0 0.0 -1.675772366011e+02 
-7.839505426280e+01 -4.632030431026e-01 0.0 
-4.632030431026e-01 -1.594694474151e+02 0.0 
0.0 0.0 -7.095935050336e+01 
-7.559135527950e+01 -1.368025904301e+01 0.0 
-1.368025904301e+01 -1.874523768659e+02 0.0 
0.0 0.0 -7.880788216429e+01 
-3.397546355729e+01 1.005275151897e+01 0.0 
1.005275151897e+01 -3.254630743782e+01 0.0 
0.0 0.0 -1.641856478193e+01 
-7.678049324767e+01 -8.762548666306e+00 0.0 
-8.762548666306e+00 -1.923012585133e+02 0.0 
0.0 0.0 -7.925369044751e+01 
-1.681935256471e+02 3.435260172272e+00 0.0 
3.435260172272e+00 -3.937848931766e+02 0.0 
0.0 0.0 -1.681935256471e+02 
-4.397016242901e+01 2.995780162472e+01 0.0 
2.995780162472e+01 -2.915116556902e+01 0.0 
0.0 0.0 -1.861128999333e+01 
-4.253999069532e+01 2.844130745616e+01 0.0 
2.844130745616e+01 -2.800146774631e+01 0.0 
0.0 0.0 -1.775132712231e+01 
-1.312772378093e+02 1.465472690889e+01 0.0 
1.465472690889e+01 -3.279912837400e+02 0.0 
0.0 0.0 -1.373805564648e+02 
-7.532764704411e+01 2.064032822969e+00 0.0 
2.064032822969e+00 -1.441960200510e+02 0.0 
0.0 0.0 -6.545710012852e+01 
-1.210773127527e+02 1.324381147827e+00 0.0 
1.324381147827e+00 -2.745195803804e+02 0.0 
0.0 0.0 -1.182790679399e+02 
-1.166094212721e+02 1.927936174258e+01 0.0 
1.927936174258e+01 -2.610458414089e+02 0.0 
0.0 0.0 -1.128965788043e+02 
-1.310593389797e+02 1.666786650428e+01 0.0 
1.666786650428e+01 -3.203342631812e+02 0.0 
0.0 0.0 -1.350180806483e+02 
-1.216422071255e+02 1.758620498221e+01 0.0 
1.758620498221e+01 -2.659058678815e+02 0.0 
0.0 0.0 -1.158644225021e+02 
-8.029028913116e+01 1.474131346674e-01 0.0 
1.474131346674e-01 -1.629761817999e+02 0.0 
0.0 0.0 -7.257994127930e+01 
-6.404801108511e+01 -1.575884819313e+01 0.0 
-1.575884819313e+01 -1.413260827972e+02 0.0 
0.0 0.0 -5.932280241713e+01 
-6.076750256934e+01 -1.396442457492e+01 0.0 
-1.396442457492e+01 -1.408690706177e+02 0.0 
0.0 0.0 -5.755482496739e+01 
-9.683559974199e+01 -1.574004338860e-01 0.0 
-1.574004338860e-01 -2.064792947622e+02 0.0 
0.0 0.0 -9.059446835127e+01 
-1.268311874737e+02 1.867597008618e+01 0.0 
1.867597008618e+01 -3.088073061103e+02 0.0 
0.0 0.0 -1.302915480752e+02 
-7.215192702624e+01 4.024596525152e+00 0.0 
4.024596525152e+00 -1.288478869434e+02 0.0 
0.0 0.0 -5.983824486713e+01 
-7.191086677379e+01 2.282480753694e-01 0.0 
2.282480753694e-01 -1.424965317435e+02 0.0 
0.0 0.0 -6.392221955518e+01 
-7.862872727325e+01 7.565149324332e-01 0.0 
7.565149324332e-01 -1.585028699783e+02 0.0 
0.0 0.0 -7.073947917548e+01 
-8.113046598130e+01 1.966015002491e+00 0.0 
1.966015002491e+00 -1.642523717105e+02 0.0 
0.0 0.0 -7.321485130753e+01 
-3.304492507585e+01 -1.330246863709e+01 0.0 
-1.330246863709e+01 -1.147115107498e+02 0.0 
0.0 0.0 -4.408956276310e+01 
-5.786053672634e+01 -1.356324863366e+01 0.0 
-1.356324863366e+01 -1.272443273432e+02 0.0 
0.0 0.0 -5.205209843131e+01 
-1.290250040307e+02 4.446256725565e+00 0.0 
4.446256725565e+00 -2.943919640698e+02 0.0 
0.0 0.0 -1.266250904302e+02 
-8.905310516269e+01 2.233758781864e+00 0.0 
2.233758781864e+00 -1.836657586396e+02 0.0 
0.0 0.0 -8.141565914070e+01 
-1.509613704300e+02 1.681625233145e+01 0.0 
1.681625233145e+01 -3.604218940712e+02 0.0 
0.0 0.0 -1.530149793504e+02 
-1.327149981952e+02 1.786297919679e+01 0.0 
1.786297919679e+01 -2.969189116534e+02 0.0 
0.0 0.0 -1.284901729546e+02 
-1.103026494590e+02 1.772339067148e+01 0.0 
1.772339067148e+01 -2.365503071412e+02 0.0 
0.0 0.0 -1.036558869801e+02 
-1.252998803966e+02 9.195912843710e+00 0.0 
9.195912843710e+00 -2.785941889349e+02 0.0 
0.0 0.0 -1.207682207995e+02 
-8.820163148319e+01 -4.396513311416e+00 0.0 
-4.396513311416e+00 -1.829155754493e+02 0.0 
0.0 0.0 -7.543017330628e+01 
-7.996437553755e+01 -4.923799958131e+00 0.0 
-4.923799958131e+00 -1.664167008323e+02 0.0 
0.0 0.0 -6.781763797462e+01 
-1.482142013143e+02 5.134356477753e+00 0.0 
5.134356477753e+00 -3.603171981001e+02 0.0 
0.0 0.0 -1.521594198243e+02 
-3.573952896405e+01 -2.303906965262e+01 0.0 
-2.303906965262e+01 -9.890372184158e+01 0.0 
0.0 0.0 -4.178735301891e+01 
-5.096819883185e+01 -8.268569643412e-01 0.0 
-8.268569643412e-01 -1.165784136610e+02 0.0 
0.0 0.0 -4.730513986616e+01 
-1.529736160754e+02 2.055158657542e+01 0.0 
2.055158657542e+01 -3.582717708426e+02 0.0 
0.0 0.0 -1.529736160754e+02 
-1.597589307416e+01 7.652124938554e-01 0.0 
7.652124938554e-01 -5.738000383379e+01 0.0 
0.0 0.0 -2.091887054342e+01 
-7.170642229396e+01 2.601039971472e-01 0.0 
2.601039971472e-01 -1.424192000397e+02 0.0 
0.0 0.0 -6.383768670009e+01 
-1.418141509228e+02 1.301098846168e+01 0.0 
1.301098846168e+01 -3.509767259271e+02 0.0 
0.0 0.0 -1.474372630550e+02 
-2.180712613951e+01 -3.391569011841e+00 0.0 
-3.391569011841e+00 -3.981040788454e+01 0.0 
0.0 0.0 -1.593927442980e+01 
-1.429621744256e+01 1.120190449669e-01 0.0 
1.120190449669e-01 -2.392394650390e+01 0.0 
0.0 0.0 -8.992221920481e+00 
-1.358634887217e+02 7.742548138856e+00 0.0 
7.742548138856e+00 -3.128545085482e+02 0.0 
0.0 0.0 -1.342153991810e+02 
-6.674645021312e+01 6.908680711135e-01 0.0 
6.908680711135e-01 -1.256850350648e+02 0.0 
0.0 0.0 -5.732944558338e+01 
-1.281355163941e+02 5.436598837110e+00 0.0 
5.436598837110e+00 -2.910476641206e+02 0.0 
0.0 0.0 -1.253549541544e+02 
-1.434065848416e+02 1.361227482071e+01 0.0 
1.361227482071e+01 -3.490331965134e+02 0.0 
0.0 0.0 -1.473319344065e+02 
-6.638565343030e+01 1.061644919717e+00 0.0 
1.061644919717e+00 -1.253807940240e+02 0.0 
0.0 0.0 -5.712993423630e+01 
-7.530334177171e+01 7.792490914491e+00 0.0 
7.792490914491e+00 -1.078671023038e+02 0.0 
0.0 0.0 -5.601217085654e+01 
-1.264489288134e+02 1.619660625275e+00 0.0 
1.619660625275e+00 -2.919710285799e+02 0.0 
0.0 0.0 -1.251259872180e+02 
-2.156422358902e+01 -2.028538447701e+00 0.0 
-2.028538447701e+00 -6.358101051607e+01 0.0 
0.0 0.0 -2.357489553921e+01 
-1.228983517108e+02 4.884685485483e+00 0.0 
4.884685485483e+00 -2.789876764950e+02 0.0 
0.0 0.0 -1.201658084618e+02 
-1.681191706373e+02 2.471704127763e+00 0.0 
2.471704127763e+00 -3.936113981538e+02 0.0 
0.0 0.0 -1.681191706373e+02 
-1.298428505916e+02 1.544662226816e+01 0.0 
1.544662226816e+01 -2.909309029220e+02 0.0 
0.0 0.0 -1.258321260541e+02 
-3.825456232128e+01 -9.648363655498e+00 0.0 
-9.648363655498e+00 -1.286965394840e+02 0.0 
0.0 0.0 -4.744514297510e+01 
-8.521752320893e+01 5.019615253880e+00 0.0 
5.019615253880e+00 -1.631278688969e+02 0.0 
0.0 0.0 -7.410361763176e+01 
-8.914577672718e+01 -1.953781649231e+00 0.0 
-1.953781649231e+00 -1.854025308566e+02 0.0 
0.0 0.0 -7.692741209161e+01 
-1.170338837458e+02 1.824918035149e+01 0.0 
1.824918035149e+01 -2.896575289521e+02 0.0 
0.0 0.0 -1.216074238094e+02 
-1.564722994308e+02 1.929815335184e+01 0.0 
1.929815335184e+01 -3.702283797855e+02 0.0 
0.0 0.0 -1.576102037649e+02 
-1.046642109699e+02 2.789508265682e-01 0.0 
2.789508265682e-01 -2.279946038289e+02 0.0 
0.0 0.0 -9.939764443964e+01 
-1.568733227243e+02 1.734845907258e+01 0.0 
1.734845907258e+01 -3.733511777561e+02 0.0 
0.0 0.0 -1.586673501441e+02 
-3.063582983248e+01 -1.673013898709e+01 0.0 
-1.673013898709e+01 -1.165259137659e+02 0.0 
0.0 0.0 -4.632221622853e+01 
-1.593370925269e+02 3.765518925236e+00 0.0 
3.765518925236e+00 -3.786497541920e+02 0.0 
0.0 0.0 -1.609960540157e+02 
-4.304646833868e+01 -1.389420437129e+01 0.0 
-1.389420437129e+01 -1.243018447637e+02 0.0 
0.0 0.0 -4.356496806829e+01 
-1.619785203397e+01 -1.436156000487e+00 0.0 
-1.436156000487e+00 -5.734675837994e+01 0.0 
0.0 0.0 -2.093699332932e+01 
-1.525680010592e+02 1.195492433938e+01 0.0 
1.195492433938e+01 -3.698702527898e+02 0.0 
0.0 0.0 -1.563314761547e+02 
-1.337391096817e+02 1.184788310011e+01 0.0 
1.184788310011e+01 -3.015113933104e+02 0.0 
0.0 0.0 -1.301751508976e+02 
-1.308747639142e+02 8.194553085570e+00 0.0 
8.194553085570e+00 -2.995039541894e+02 0.0 
0.0 0.0 -1.287136154311e+02 
-7.187671102145e+01 7.217480188740e-02 0.0 
7.217480188740e-02 -1.411768647170e+02 0.0 
0.0 0.0 -6.351607272153e+01 
-8.718961209660e+01 6.481306632754e+00 0.0 
6.481306632754e+00 -1.672442129061e+02 0.0 
0.0 0.0 -7.593014750081e+01 
-4.437044189498e+01 3.076292296665e+01 0.0 
3.076292296665e+01 -6.901072887050e+01 0.0 
0.0 0.0 -2.986308766213e+01 
-1.391295595755e+02 1.860982010260e+01 0.0 
1.860982010260e+01 -3.163521253953e+02 0.0 
0.0 0.0 -1.362445054912e+02 
-7.610189839747e+01 -3.131920586958e+00 0.0 
-3.131920586958e+00 -1.537789096180e+02 0.0 
0.0 0.0 -6.345320324885e+01 
-3.659643226373e+01 2.988744850662e+01 0.0 
2.988744850662e+01 -7.617221444653e+01 0.0 
0.0 0.0 -2.873444879052e+01 
-1.219134988416e+02 1.650986712973e+01 0.0 
1.650986712973e+01 -3.022793347124e+02 0.0 
0.0 0.0 -1.268578500662e+02 
-6.531715671022e+01 5.062597206059e-01 0.0 
5.062597206059e-01 -1.250906379271e+02 0.0 
0.0 0.0 -5.672233839119e+01 
-1.273782802969e+02 1.053629463181e+01 0.0 
1.053629463181e+01 -2.872879057954e+02 0.0 
0.0 0.0 -1.239998558277e+02 
-1.329155818247e+02 8.364910732422e-01 0.0 
8.364910732422e-01 -3.077027649089e+02 0.0 
0.0 0.0 -1.317855040201e+02 
-1.321926822765e+02 5.650389022927e-01 0.0 
5.650389022927e-01 -3.097829253118e+02 0.0 
0.0 0.0 -1.321926822765e+02 
-1.284843152520e+01 -5.109078434598e-02 0.0 
-5.109078434598e-02 -6.156646347834e+00 0.0 
0.0 0.0 -4.954990282504e+00 
-9.173037018590e+00 1.273858282797e-01 0.0 
1.273858282797e-01 -1.083097536968e+01 0.0 
0.0 0.0 -4.279199950495e+00 
-6.542164680533e+01 6.774870607478e-01 0.0 
6.774870607478e-01 -1.274594020791e+02 0.0 
0.0 0.0 -5.746431466533e+01 
-6.419299320136e+01 -6.006506204126e-02 0.0 
-6.006506204126e-02 -1.250002950691e+02 0.0 
0.0 0.0 -5.635798648115e+01 
-1.681429539969e+02 2.545638750142e-01 0.0 
2.545638750142e-01 -3.936668926594e+02 0.0 
0.0 0.0 -1.681429539969e+02 
-1.662249099874e+02 -6.847136312798e-01 0.0 
-6.847136312798e-01 -3.908885491374e+02 0.0 
0.0 0.0 -1.667340377375e+02 
-1.282959521647e+01 -3.827422151187e-01 0.0 
-3.827422151187e-01 -2.330252079262e+01 0.0 
0.0 0.0 -8.255890218963e+00 
-7.759445924167e+01 -3.979372503495e+00 0.0 
-3.979372503495e+00 -1.132897758310e+02 0.0 
0.0 0.0 -5.776569686902e+01 
-1.517792501091e+02 1.090501701014e+00 0.0 
1.090501701014e+00 -3.618852582266e+02 0.0 
0.0 0.0 -1.536993525007e+02 
-1.350439381403e+02 1.855934374057e+01 0.0 
1.855934374057e+01 -3.218790177002e+02 0.0 
0.0 0.0 -1.366768867522e+02 
-2.392297954605e+01 -1.798948581864e+00 0.0 
-1.798948581864e+00 -7.472832667132e+01 0.0 
0.0 0.0 -2.854760320377e+01 
-1.528595151234e+02 4.065773247432e+00 0.0 
4.065773247432e+00 -3.659519614641e+02 0.0 
0.0 0.0 -1.552434429762e+02 
-1.161382636809e+02 -6.048426327554e-02 0.0 
-6.048426327554e-02 -2.610224500553e+02 0.0 
0.0 0.0 -1.098653418933e+02 
-1.047935816952e+02 2.381318495431e-01 0.0 
2.381318495431e-01 -2.254265231448e+02 0.0 
0.0 0.0 -9.448828732546e+01 
-9.234772125829e+01 6.683082554068e-01 0.0 
6.683082554068e-01 -1.936608523056e+02 0.0 
0.0 0.0 -8.540257206916e+01 
-4.678261664427e+01 -1.981690842830e+01 0.0 
-1.981690842830e+01 -9.107878623214e+01 0.0 
0.0 0.0 -3.495136467605e+01 
-1.073720624610e+02 1.847419002551e+01 0.0 
1.847419002551e+01 -2.711364476581e+02 0.0 
0.0 0.0 -1.131525530357e+02 
-2.046219360845e+01 -5.956242796559e-01 0.0 
-5.956242796559e-01 -5.998873529094e+01 0.0 
0.0 0.0 -2.236055989851e+01 
-9.788520292396e+01 -2.045654637590e+00 0.0 
-2.045654637590e+00 -2.058928073129e+02 0.0 
0.0 0.0 -8.578775421597e+01 
-1.325327177721e+02 1.682954590268e+01 0.0 
1.682954590268e+01 -3.022967589033e+02 0.0 
0.0 0.0 -1.300488430026e+02 
-1.187975291422e+02 9.407157666355e-01 0.0 
9.407157666355e-01 -2.672144748190e+02 0.0 
0.0 0.0 -1.154036011884e+02 
-1.049364412837e+02 -1.175619986274e+00 0.0 
-1.175619986274e+00 -2.243604142862e+02 0.0 
0.0 0.0 -9.423042911891e+01 
-8.411542212447e+01 1.210502666974e+00 0.0 
1.210502666974e+00 -1.729439838075e+02 0.0 
0.0 0.0 -7.671782177958e+01 
-1.354977803482e+02 1.987620869895e+01 0.0 
1.987620869895e+01 -3.169189990398e+02 0.0 
0.0 0.0 -1.353250338164e+02 
-1.248359144260e+02 1.842689502773e+01 0.0 
1.842689502773e+01 -2.770234762392e+02 0.0 
0.0 0.0 -1.201578171996e+02 
-1.175246680792e+02 1.804290798795e+01 0.0 
1.804290798795e+01 -2.567671911726e+02 0.0 
0.0 0.0 -1.118875577755e+02 
-6.575773327013e+01 6.419994057197e-01 0.0 
6.419994057197e-01 -1.255809843545e+02 0.0 
0.0 0.0 -5.700161528740e+01 
-1.017617951930e+02 1.796463181443e+01 0.0 
1.796463181443e+01 -2.645685983862e+02 0.0 
0.0 0.0 -1.094991180738e+02 
-1.274138304060e+02 1.238994235956e+01 0.0 
1.238994235956e+01 -2.874856803008e+02 0.0 
0.0 0.0 -1.240698532120e+02 
-5.613120936822e+01 -3.033073972420e+00 0.0 
-3.033073972420e+00 -1.159065402096e+02 0.0 
0.0 0.0 -4.680143506427e+01 
-1.695437300076e+01 5.348977222447e-01 0.0 
5.348977222447e-01 -2.411750823718e+01 0.0 
0.0 0.0 -1.169786419422e+01 
-1.304959641699e+02 1.986960338026e+01 0.0 
1.986960338026e+01 -3.029408628077e+02 0.0 
0.0 0.0 -1.296310480933e+02 
-1.258835173887e+02 1.217204135303e+01 0.0 
1.217204135303e+01 -3.203122498876e+02 0.0 
0.0 0.0 -1.334587301829e+02 
-4.460103569994e+01 -2.075793603311e+01 0.0 
-2.075793603311e+01 -8.346994365045e+01 0.0 
0.0 0.0 -3.181990195789e+01 
-9.771998027566e+01 1.343253683591e+00 0.0 
1.343253683591e+00 -2.078675765201e+02 0.0 
0.0 0.0 -9.127626703872e+01 
-1.593861372299e+02 1.900022959213e+00 0.0 
1.900022959213e+00 -3.765003342024e+02 0.0 
0.0 0.0 -1.603659414297e+02 
-1.302495723595e+02 1.854278732940e+01 0.0 
1.854278732940e+01 -3.084436232163e+02 0.0 
0.0 0.0 -1.312079586727e+02 
-1.358739936876e+02 2.028224396314e+01 0.0 
2.028224396314e+01 -3.201226757852e+02 0.0 
0.0 0.0 -1.363990008418e+02 
-1.218098928464e+02 6.807769895059e-01 0.0 
6.807769895059e-01 -2.818519227600e+02 0.0 
0.0 0.0 -1.188188391636e+02 
-4.129165862945e+01 3.320150856218e+01 0.0 
3.320150856218e+01 -9.648001853742e+01 0.0 
0.0 0.0 -4.268367900112e+01 
-3.311463613815e+01 1.529729336032e+01 0.0 
1.529729336032e+01 -1.914003977758e+01 0.0 
0.0 0.0 -1.282862053960e+01 
-4.825592079480e+01 2.827655170296e+01 0.0 
2.827655170296e+01 -6.907351313854e+01 0.0 
0.0 0.0 -3.180608658303e+01 
-8.515785899585e+01 5.202061710178e+00 0.0 
5.202061710178e+00 -1.627988949379e+02 0.0 
0.0 0.0 -7.398702618013e+01 
-1.031404149917e+02 1.663032495945e+01 0.0 
1.663032495945e+01 -2.649253409083e+02 0.0 
0.0 0.0 -1.108364505709e+02 
-1.240538275260e+02 4.838039760924e+00 0.0 
4.838039760924e+00 -2.810863492542e+02 0.0 
0.0 0.0 -1.211420530341e+02 
-1.510702692215e+02 1.477030538052e+01 0.0 
1.477030538052e+01 -3.611397095138e+02 0.0 
0.0 0.0 -1.532629936206e+02 
-4.263734192246e+01 -1.555573910957e+01 0.0 
-1.555573910957e+01 -5.256821100097e+01 0.0 
0.0 0.0 -2.345727721583e+01 
-2.951863748110e+01 -6.086157856417e+00 0.0 
-6.086157856417e+00 -4.231911041745e+01 0.0 
0.0 0.0 -1.754057624955e+01 
-3.980896442331e+01 2.561726523187e+01 0.0 
2.561726523187e+01 -2.650273248293e+01 0.0 
0.0 0.0 -1.641578582391e+01 
-9.957045136011e+01 1.926035097857e-01 0.0 
1.926035097857e-01 -2.134529413519e+02 0.0 
0.0 0.0 -9.350701781362e+01 
-6.894818656802e+01 -2.916722677668e+00 0.0 
-2.916722677668e+00 -1.442831656334e+02 0.0 
0.0 0.0 -5.861256172816e+01 
-1.279949955679e+02 1.025977425558e+01 0.0 
1.025977425558e+01 -2.871550692725e+02 0.0 
0.0 0.0 -1.241450194521e+02 
-2.063374182634e+01 -5.707242785996e-01 0.0 
-5.707242785996e-01 -7.144994957488e+01 0.0 
0.0 0.0 -2.706874857439e+01 
-1.409409870171e+02 1.414604841672e+01 0.0 
1.414604841672e+01 -3.442903049718e+02 0.0 
0.0 0.0 -1.451693875967e+02 
-8.095202014583e+01 1.792540302352e+00 0.0 
1.792540302352e+00 -1.590858246636e+02 0.0 
0.0 0.0 -7.161135344282e+01 
-1.473928435129e+02 1.879332505236e+01 0.0 
1.879332505236e+01 -3.482315105340e+02 0.0 
0.0 0.0 -1.482873062141e+02 
-1.220764972832e+02 1.920196930144e+01 0.0 
1.920196930144e+01 -2.968508413107e+02 0.0 
0.0 0.0 -1.252782015782e+02 
-8.638084366720e+01 6.635192760467e+00 0.0 
6.635192760467e+00 -1.636909565318e+02 0.0 
0.0 0.0 -7.462154005968e+01 
-1.540763671150e+02 9.191222933936e+00 0.0 
9.191222933936e+00 -3.731831320576e+02 0.0 
0.0 0.0 -1.577778497518e+02 
-1.325510237159e+02 1.037746751533e+01 0.0 
1.037746751533e+01 -3.005390724462e+02 0.0 
0.0 0.0 -1.295270288486e+02 
-1.286775004487e+02 7.322055847203e-01 0.0 
7.322055847203e-01 -2.937838679661e+02 0.0 
0.0 0.0 -1.263384105244e+02 
-3.901552622367e+01 2.693436548767e+01 0.0 
2.693436548767e+01 -2.805478493005e+01 0.0 
0.0 0.0 -1.588212195015e+01 
-1.237948297583e+02 7.612988087318e+00 0.0 
7.612988087318e+00 -2.777795520418e+02 0.0 
0.0 0.0 -1.200723145400e+02 
-1.404614124914e+02 1.953364048509e+01 0.0 
1.953364048509e+01 -3.275543721890e+02 0.0 
0.0 0.0 -1.400047354041e+02 
-1.400785998606e+02 1.522804838580e+01 0.0 
1.522804838580e+01 -3.445967983006e+02 0.0 
0.0 0.0 -1.450026194484e+02 
-1.260823109119e+02 1.698075497140e+01 0.0 
1.698075497140e+01 -3.079321616727e+02 0.0 
0.0 0.0 -1.298043417754e+02 
-1.678402440094e+02 4.735146221434e+00 0.0 
4.735146221434e+00 -3.929605693553e+02 0.0 
0.0 0.0 -1.678402440094e+02 
-1.165887531775e+02 1.563159704347e+01 0.0 
1.563159704347e+01 -2.558976197508e+02 0.0 
0.0 0.0 -1.113459118785e+02 
-6.066932194494e+01 2.388603062823e+01 0.0 
2.388603062823e+01 -7.541729759952e+01 0.0 
0.0 0.0 -4.137772876386e+01 
-4.034530425765e+01 3.158170943451e+01 0.0 
3.158170943451e+01 -7.164797336765e+01 0.0 
0.0 0.0 -2.721690583316e+01 
-1.282077891481e+02 1.796088482612e+01 0.0 
1.796088482612e+01 -2.858665872393e+02 0.0 
0.0 0.0 -1.238223129162e+02 
-9.030993613631e+01 4.889968541737e+00 0.0 
4.889968541737e+00 -1.777822057217e+02 0.0 
0.0 0.0 -8.002764255740e+01 
-1.519246572740e+02 1.636191581205e+00 0.0 
1.636191581205e+00 -3.610340007271e+02 0.0 
0.0 0.0 -1.534875974003e+02 
-1.316155854670e+02 1.939747880774e+01 0.0 
1.939747880774e+01 -3.158305304659e+02 0.0 
0.0 0.0 -1.338338347798e+02 
-1.601031933304e+02 4.166598422194e+00 0.0 
4.166598422194e+00 -3.790381399387e+02 0.0 
0.0 0.0 -1.613423999807e+02 
-1.075992903722e+02 6.790479570791e-01 0.0 
6.790479570791e-01 -2.345881371322e+02 0.0 
0.0 0.0 -1.022562282513e+02 
-1.486691683515e+02 1.824715851570e+01 0.0 
1.824715851570e+01 -3.519466337853e+02 0.0 
0.0 0.0 -1.497847406410e+02 
-1.492870006488e+02 8.116498538403e+00 0.0 
8.116498538403e+00 -3.623191694175e+02 0.0 
0.0 0.0 -1.530818510199e+02 
-1.482844713934e+02 7.104895456722e+00 0.0 
7.104895456722e+00 -3.617598688172e+02 0.0 
0.0 0.0 -1.526133020632e+02 
-7.135837510324e+01 -1.991395492221e+00 0.0 
-1.991395492221e+00 -1.491885327980e+02 0.0 
0.0 0.0 -6.125097216442e+01 
-1.663399316109e+02 3.754252129160e+00 0.0 
3.754252129160e+00 -3.928718604108e+02 0.0 
0.0 0.0 -1.673635376065e+02 
-7.652938335670e+01 3.003781546795e+00 0.0 
3.003781546795e+00 -1.434660387846e+02 0.0 
0.0 0.0 -6.559862664238e+01 
-1.221347483238e+02 3.028957472667e+00 0.0 
3.028957472667e+00 -2.752696767389e+02 0.0 
0.0 0.0 -1.188213275188e+02 
-3.083082046014e+01 -6.684536368883e+00 0.0 
-6.684536368883e+00 -4.571695662164e+01 0.0 
0.0 0.0 -1.846552436535e+01 
-1.171883359883e+02 1.578874072420e+00 0.0 
1.578874072420e+00 -2.601899346665e+02 0.0 
0.0 0.0 -1.128134811964e+02 
-9.881219572867e+01 1.176311683611e+00 0.0 
1.176311683611e+00 -2.098128764423e+02 0.0 
0.0 0.0 -9.218752165128e+01 
-1.441000009212e+01 1.391028764403e-01 0.0 
1.391028764403e-01 -4.178223139264e+01 0.0 
0.0 0.0 -1.368889214409e+01 
-3.977039896311e+01 -1.309651494041e+01 0.0 
-1.309651494041e+01 -1.270413160383e+02 0.0 
0.0 0.0 -4.939885538380e+01 
-1.200749557826e+02 1.650296898181e+01 0.0 
1.650296898181e+01 -2.680933830447e+02 0.0 
0.0 0.0 -1.160505016482e+02 
-1.277050839714e+02 5.862415787055e+00 0.0 
5.862415787055e+00 -2.940555542449e+02 0.0 
0.0 0.0 -1.261281914649e+02 
-1.226022056502e+02 1.818634156798e+00 0.0 
1.818634156798e+00 -2.778747943520e+02 0.0 
0.0 0.0 -1.197431000007e+02 
-1.454602200016e+02 1.719962686169e+01 0.0 
1.719962686169e+01 -3.500674303571e+02 0.0 
0.0 0.0 -1.482582951076e+02 
-8.413188528817e+01 2.940681395140e-01 0.0 
2.940681395140e-01 -1.723657216491e+02 0.0 
0.0 0.0 -7.654928208118e+01 
-1.571719151337e+01 6.456900657756e-02 0.0 
6.456900657756e-02 -2.321933684073e+01 0.0 
0.0 0.0 -1.053307369838e+01 
-3.605609023714e+01 2.432622478332e+01 0.0 
2.432622478332e+01 -1.109500125574e+02 0.0 
0.0 0.0 -4.599327949764e+01 
-1.338864054762e+01 -1.177625276025e+00 0.0 
-1.177625276025e+00 -2.865167971088e+01 0.0 
0.0 0.0 -1.175057441969e+01 
-3.485695154718e+01 -6.379878090428e+00 0.0 
-6.379878090428e+00 -5.775463430905e+01 0.0 
0.0 0.0 -2.248738811409e+01 
-5.252562153533e+01 4.303185457432e+01 0.0 
4.303185457432e+01 -5.473579577537e+01 0.0 
0.0 0.0 -3.262887640790e+01 
-9.471502756788e+01 -3.127185223042e+00 0.0 
-3.127185223042e+00 -2.000464522255e+02 0.0 
0.0 0.0 -8.329937538018e+01 
-1.516219560818e+02 1.216125603743e-01 0.0 
1.216125603743e-01 -3.608582987268e+02 0.0 
0.0 0.0 -1.533440764426e+02 
-1.294416963213e+02 1.404191867056e+01 0.0 
1.404191867056e+01 -2.910457521547e+02 0.0 
0.0 0.0 -1.257462345428e+02 
-9.337784132703e+01 8.634704049520e+00 0.0 
8.634704049520e+00 -1.796005960512e+02 0.0 
0.0 0.0 -8.149353121347e+01 
-8.506225747878e+01 -3.439176943605e+00 0.0 
-3.439176943605e+00 -1.763903811949e+02 0.0 
0.0 0.0 -7.218852983429e+01 
-1.488651568708e+02 6.175164232931e+00 0.0 
6.175164232931e+00 -3.610954483474e+02 0.0 
0.0 0.0 -1.525881815654e+02 
-1.415238209009e+02 1.028696815200e+01 0.0 
1.028696815200e+01 -3.513064553419e+02 0.0 
0.0 0.0 -1.474490828728e+02 
-1.453346859122e+02 1.949490752678e+01 0.0 
1.949490752678e+01 -3.467498419790e+02 0.0 
0.0 0.0 -1.472253583674e+02 
-1.356402313442e+02 1.939412655599e+01 0.0 
1.939412655599e+01 -3.157593650636e+02 0.0 
0.0 0.0 -1.350198789223e+02 
-1.268931721849e+02 1.702347402678e+01 0.0 
1.702347402678e+01 -2.875026218810e+02 0.0 
0.0 0.0 -1.239187382198e+02 
-2.891909245162e+01 -6.862177747897e+00 0.0 
-6.862177747897e+00 -4.351176901864e+01 0.0 
0.0 0.0 -1.904659171152e+01 
-3.630845389583e+01 -2.050827238857e+01 0.0 
-2.050827238857e+01 -1.094412893628e+02 0.0 
0.0 0.0 -4.548737927379e+01 
-1.519445550360e+02 2.158297395596e+00 0.0 
2.158297395596e+00 -3.624507679151e+02 0.0 
0.0 0.0 -1.539185968853e+02 
-1.172107231490e+01 -3.378393837053e-01 0.0 
-3.378393837053e-01 -4.091863495120e+01 0.0 
0.0 0.0 -1.352802795787e+01 
-1.439736340351e+01 -1.078063124565e+00 0.0 
-1.078063124565e+00 -4.906043220410e+01 0.0 
0.0 0.0 -1.694803014955e+01 
-4.411989281190e+01 3.644024676602e+01 0.0 
3.644024676602e+01 -5.879773992512e+01 0.0 
0.0 0.0 -2.940262693749e+01 
-1.752992639940e+01 2.024753371243e-01 0.0 
2.024753371243e-01 -3.863502612537e+01 0.0 
0.0 0.0 -1.514177258444e+01 
-1.575290537420e+02 8.132292476974e+00 0.0 
8.132292476974e+00 -3.756076142258e+02 0.0 
0.0 0.0 -1.595410003903e+02 
-1.387008549906e+02 1.911809056100e+01 0.0 
1.911809056100e+01 -3.208552069132e+02 0.0 
0.0 0.0 -1.374668185711e+02 
-1.233151861349e+02 3.231113421753e+00 0.0 
3.231113421753e+00 -2.809026239313e+02 0.0 
0.0 0.0 -1.208653430199e+02 
-1.465717367179e+02 1.936736092897e+01 0.0 
1.936736092897e+01 -3.462547396113e+02 0.0 
0.0 0.0 -1.474479428988e+02 
-1.369353162207e+02 1.174755458592e+01 0.0 
1.174755458592e+01 -3.407593705664e+02 0.0 
0.0 0.0 -1.429084060361e+02 
-8.867821748045e+01 1.862815589588e-01 0.0 
1.862815589588e-01 -1.837763617760e+02 0.0 
0.0 0.0 -8.133637377693e+01 
-1.336611832818e+02 7.754943339906e+00 0.0 
7.754943339906e+00 -3.132094276576e+02 0.0 
0.0 0.0 -1.336611832818e+02 
-5.119052282630e+01 -1.850255560803e+01 0.0 
-1.850255560803e+01 -1.289036643466e+02 0.0 
0.0 0.0 -5.039100940479e+01 
-6.660052204530e+01 9.377112538613e-01 0.0 
9.377112538613e-01 -1.250129045067e+02 0.0 
0.0 0.0 -5.708402796561e+01 
-5.041423115321e+01 -2.189899254835e+01 0.0 
-2.189899254835e+01 -7.494783144256e+01 0.0 
0.0 0.0 -3.081271856993e+01 
-9.850989889725e+00 -8.078715669295e-01 0.0 
-8.078715669295e-01 -2.432217805167e+01 0.0 
0.0 0.0 -7.876218296168e+00 
-1.666045533102e+02 2.124787607177e+00 0.0 
2.124787607177e+00 -3.927479605010e+02 0.0 
0.0 0.0 -1.674057541434e+02 
-8.067473981699e+01 5.810525958375e+00 0.0 
5.810525958375e+00 -1.484145549717e+02 0.0 
0.0 0.0 -6.832678843660e+01 
-1.863824253051e+01 -5.311812654657e-01 0.0 
-5.311812654657e-01 -5.743222554076e+01 0.0 
0.0 0.0 -2.088990433359e+01 
-9.207090025439e+01 -2.935110939348e+00 0.0 
-2.935110939348e+00 -1.918387018162e+02 0.0 
0.0 0.0 -7.984623382575e+01 
-1.399327680190e+02 1.912323533736e+01 0.0 
1.912323533736e+01 -3.208137867986e+02 0.0 
0.0 0.0 -1.378239664453e+02 
-1.245571350334e+02 6.262383225909e+00 0.0 
6.262383225909e+00 -2.802842346622e+02 0.0 
0.0 0.0 -1.210524109087e+02 
-1.312507066476e+02 1.187651387635e+01 0.0 
1.187651387635e+01 -3.015982446124e+02 0.0 
0.0 0.0 -1.294546853780e+02 
-6.380917722591e+01 -7.989370984567e-01 0.0 
-7.989370984567e-01 -1.354815324862e+02 0.0 
0.0 0.0 -5.561563374812e+01 
-3.702582168055e+01 2.956832645945e+00 0.0 
2.956832645945e+00 -1.208984012074e+02 0.0 
0.0 0.0 -4.930709980987e+01 
-1.576766300393e+02 4.918846123382e+00 0.0 
4.918846123382e+00 -3.774453272737e+02 0.0 
0.0 0.0 -1.601365871939e+02 
-1.345735340292e+02 6.861602210224e-01 0.0 
6.861602210224e-01 -3.106614252107e+02 0.0 
0.0 0.0 -1.331704877720e+02 
-1.668142950928e+02 4.989135336795e-01 0.0 
4.989135336795e-01 -3.929805267498e+02 0.0 
0.0 0.0 -1.675384465528e+02 
-7.038005141766e+01 -4.219042852805e-01 0.0 
-4.219042852805e-01 -1.394214297836e+02 0.0 
0.0 0.0 -6.254044436036e+01 
-1.454991930687e+02 1.166143555577e+01 0.0 
1.166143555577e+01 -3.541034347366e+02 0.0 
0.0 0.0 -1.494807883416e+02 
-1.752799578600e+01 -8.624115037354e-01 0.0 
-8.624115037354e-01 -5.819721991384e+01 0.0 
0.0 0.0 -2.141908103038e+01 
-1.268077460967e+02 8.726467456303e+00 0.0 
8.726467456303e+00 -2.868248290016e+02 0.0 
0.0 0.0 -1.236897725295e+02 
-1.114560340715e+01 -4.594235801659e-01 0.0 
-4.594235801659e-01 -2.347079573716e+01 0.0 
0.0 0.0 -8.417583988639e+00 
-1.563840630511e+02 1.049793211678e+01 0.0 
1.049793211678e+01 -3.733237312468e+02 0.0 
0.0 0.0 -1.585123382893e+02 
-1.334938348329e+02 1.233820671258e+01 0.0 
1.233820671258e+01 -3.023750440296e+02 0.0 
0.0 0.0 -1.303606636588e+02 
-4.416052576305e+01 1.456282719999e+01 0.0 
1.456282719999e+01 -1.173355837033e+02 0.0 
0.0 0.0 -4.981510704364e+01 
-1.304679447971e+02 1.992538669222e+01 0.0 
1.992538669222e+01 -3.092584314667e+02 0.0 
0.0 0.0 -1.315179128791e+02 
-1.041092755915e+02 1.984213000911e+00 0.0 
1.984213000911e+00 -2.244711126233e+02 0.0 
0.0 0.0 -9.817411646445e+01 
-1.276323974657e+02 4.445291893384e+00 0.0 
4.445291893384e+00 -2.946420543090e+02 0.0 
0.0 0.0 -1.262823355324e+02 
-1.596774984759e+02 1.782190324839e+01 0.0 
1.782190324839e+01 -3.739141631105e+02 0.0 
0.0 0.0 -1.596774984759e+02 
-9.330336165048e+01 1.566750882058e+00 0.0 
1.566750882058e+00 -1.973343917738e+02 0.0 
0.0 0.0 -8.679132602729e+01 
-1.376355729587e+02 1.810377831597e+01 0.0 
1.810377831597e+01 -3.184006305277e+02 0.0 
0.0 0.0 -1.364108610459e+02 
-1.291092395302e+02 1.218731677759e+01 0.0 
1.218731677759e+01 -2.888186766470e+02 0.0 
0.0 0.0 -1.249783748531e+02 
-9.734354579805e+01 8.115406312919e-01 0.0 
8.115406312919e-01 -2.089361934632e+02 0.0 
0.0 0.0 -9.148392177837e+01 
-1.341949911678e+02 1.795281027935e+01 0.0 
1.795281027935e+01 -3.068347548322e+02 0.0 
0.0 0.0 -1.319089238000e+02 
-8.051732160007e+01 -2.045830373942e+00 0.0 
-2.045830373942e+00 -1.639159685373e+02 0.0 
0.0 0.0 -6.781468540459e+01 
-6.456349258903e+01 4.553562064398e-01 0.0 
4.553562064398e-01 -1.247995024518e+02 0.0 
0.0 0.0 -5.640889851226e+01 
-1.392700296781e+02 1.863298038836e+01 0.0 
1.863298038836e+01 -3.328270327811e+02 0.0 
0.0 0.0 -1.412291187378e+02 
-1.282743464908e+02 8.559209198061e-02 0.0 
8.559209198061e-02 -2.955184314005e+02 0.0 
0.0 0.0 -1.267378333674e+02 
-7.637659454121e+00 -2.561388508520e-02 0.0 
-2.561388508520e-02 -8.764149198796e+00 0.0 
0.0 0.0 -2.957303967151e+00 
-6.421549588442e+01 -1.384248750905e-01 0.0 
-1.384248750905e-01 -1.250942676391e+02 0.0 
0.0 0.0 -5.639292905705e+01 
-1.612320241323e+02 7.840321636719e-01 0.0 
7.840321636719e-01 -3.801273647000e+02 0.0 
0.0 0.0 -1.620078166497e+02 
-2.996800453575e+01 -4.534524717686e+00 0.0 
-4.534524717686e+00 -7.374848982087e+01 0.0 
0.0 0.0 -2.784475962658e+01 
-1.407218809117e+02 1.371839013662e+01 0.0 
1.371839013662e+01 -3.485915552166e+02 0.0 
0.0 0.0 -1.463940308385e+02 
-1.305259631744e+02 1.399378084282e+01 0.0 
1.399378084282e+01 -2.897795738779e+02 0.0 
0.0 0.0 -1.256916611157e+02 
-1.288999190274e+02 4.558977912298e+00 0.0 
4.558977912298e+00 -2.939560530288e+02 0.0 
0.0 0.0 -1.264567916169e+02 
-2.268015074532e+01 -2.867090904451e+00 0.0 
-2.867090904451e+00 -7.060599743806e+01 0.0 
0.0 0.0 -2.679804004132e+01 
-4.494198422761e+01 3.602516933186e+01 0.0 
3.602516933186e+01 -8.674592865503e+01 0.0 
0.0 0.0 -3.747461807869e+01 
-1.075163135387e+02 -1.412320396596e+00 0.0 
-1.412320396596e+00 -2.342259215078e+02 0.0 
0.0 0.0 -9.818043402316e+01 
-1.109299724036e+02 5.859021812979e-01 0.0 
5.859021812979e-01 -2.458513584031e+02 0.0 
0.0 0.0 -1.066343992420e+02 
-1.363995252843e+02 -3.297377853241e+00 0.0 
-3.297377853241e+00 -9.585353077562e+01 0.0 
0.0 0.0 -6.990030133079e+01 
-1.303523489755e+02 1.003090303365e+01 0.0 
1.003090303365e+01 -2.999843489197e+02 0.0 
0.0 0.0 -1.287010093686e+02 
-9.058776216679e+01 4.598419635371e-01 0.0 
4.598419635371e-01 -1.911670937049e+02 0.0 
0.0 0.0 -8.412645676150e+01 
-5.172660429019e+01 -2.055292876769e+01 0.0 
-2.055292876769e+01 -9.308739053512e+01 0.0 
0.0 0.0 -3.793032431375e+01 
-8.536331275260e+01 6.163019680900e-01 0.0 
6.163019680900e-01 -1.772827384868e+02 0.0 
0.0 0.0 -7.839381537182e+01 
-1.445716873738e+02 2.089500240366e+01 0.0 
2.089500240366e+01 -3.421081593271e+02 0.0 
0.0 0.0 -1.456039540103e+02 
-1.111343216984e+02 7.970998684824e-01 0.0 
7.970998684824e-01 -2.454000852461e+02 0.0 
0.0 0.0 -1.030875774895e+02 
-5.031559205430e+01 3.574426676589e+01 0.0 
3.574426676589e+01 -3.449757243043e+01 0.0 
0.0 0.0 -2.633441856688e+01 
-7.395884887142e+01 -3.936842373378e+00 0.0 
-3.936842373378e+00 -1.481676974244e+02 0.0 
0.0 0.0 -6.053741904213e+01 
-1.000314774448e+02 -2.704121436827e+00 0.0 
-2.704121436827e+00 -2.154253146683e+02 0.0 
0.0 0.0 -8.994784609623e+01 
-1.142227472452e+02 -1.417678070075e+00 0.0 
-1.417678070075e+00 -2.547768297222e+02 0.0 
0.0 0.0 -1.072547193644e+02 
-1.409116176973e+02 1.861294175818e+01 0.0 
1.861294175818e+01 -3.384988190578e+02 0.0 
0.0 0.0 -1.434231310265e+02 
-9.983688341950e+01 -6.849980445740e-01 0.0 
-6.849980445740e-01 -2.098659863987e+02 0.0 
0.0 0.0 -8.773798004186e+01 
-1.033681826883e+02 -1.769085887092e+00 0.0 
-1.769085887092e+00 -2.226422658866e+02 0.0 
0.0 0.0 -9.330753401224e+01 
-1.495055241978e+01 -1.104488646557e+00 0.0 
-1.104488646557e+00 -3.740182397283e+01 0.0 
0.0 0.0 -1.420179708571e+01 
-1.520336959979e+02 3.150337291999e+00 0.0 
3.150337291999e+00 -3.658953940654e+02 0.0 
0.0 0.0 -1.549787270190e+02 
-1.300797536269e+02 1.858730763917e+01 0.0 
1.858730763917e+01 -3.029572154586e+02 0.0 
0.0 0.0 -1.295110907256e+02 
-4.267662267898e+01 3.152676747149e+01 0.0 
3.152676747149e+01 -1.025529736155e+02 0.0 
0.0 0.0 -4.228562806593e+01 
-1.278552606028e+02 9.840438869790e-01 0.0 
9.840438869790e-01 -2.947744489154e+02 0.0 
0.0 0.0 -1.263889128555e+02 
-1.610761470218e+02 -2.583507809812e-01 0.0 
-2.583507809812e-01 -3.796167032236e+02 0.0 
0.0 0.0 -1.618078550736e+02 
-7.092561431372e+01 7.518425239189e-01 0.0 
7.518425239189e-01 -1.405231602211e+02 0.0 
0.0 0.0 -6.303463236044e+01 
-9.118894306816e+01 3.968227088222e-01 0.0 
3.968227088222e-01 -1.914184409780e+02 0.0 
0.0 0.0 -8.438221521385e+01 
-9.859624915757e+01 -2.435620494347e+00 0.0 
-2.435620494347e+00 -2.095600352365e+02 0.0 
0.0 0.0 -8.762385631797e+01 
-1.025001029052e+02 -1.451312674056e+00 0.0 
-1.451312674056e+00 -2.167843029168e+02 0.0 
0.0 0.0 -9.079263722299e+01 
-1.035541411070e+02 -9.884275735883e-01 0.0 
-9.884275735883e-01 -2.232830388954e+02 0.0 
0.0 0.0 -9.346578156837e+01 
-1.351810644065e+02 1.292880073988e+01 0.0 
1.292880073988e+01 -3.363051796743e+02 0.0 
0.0 0.0 -1.410458732242e+02 
-4.236463061245e+01 -1.560325441552e+01 0.0 
-1.560325441552e+01 -6.881197408975e+01 0.0 
0.0 0.0 -2.580785082781e+01 
-1.350646441628e+02 2.047358776597e+01 0.0 
2.047358776597e+01 -3.122745808777e+02 0.0 
0.0 0.0 -1.338017675121e+02 
-7.743466654323e+01 1.273522880644e-01 0.0 
1.273522880644e-01 -1.572884994782e+02 0.0 
0.0 0.0 -7.001694980642e+01 
-1.321936975604e+02 1.007732966498e+01 0.0 
1.007732966498e+01 -2.990588034699e+02 0.0 
0.0 0.0 -1.289757503091e+02 
-1.361245402452e+02 1.366924129916e+01 0.0 
1.366924129916e+01 -3.365746624167e+02 0.0 
0.0 0.0 -1.414097607986e+02 
-8.687797491447e+01 1.231570217070e+00 0.0 
1.231570217070e+00 -1.782892550620e+02 0.0 
0.0 0.0 -7.915016899293e+01 
-1.294043075120e+02 1.703416117223e+01 0.0 
1.703416117223e+01 -2.936129731763e+02 0.0 
0.0 0.0 -1.265051842065e+02 
-1.400300063359e+02 1.734860178376e+01 0.0 
1.734860178376e+01 -3.374941301196e+02 0.0 
0.0 0.0 -1.428572409367e+02 
-1.460151086368e+02 1.944947666760e+01 0.0 
1.944947666760e+01 -3.495774447184e+02 0.0 
0.0 0.0 -1.482777660066e+02 
-4.891622194135e+01 4.292756716130e+01 0.0 
4.292756716130e+01 -7.105470863647e+01 0.0 
0.0 0.0 -3.721719164638e+01 
-1.303705677147e+02 1.843362895589e+01 0.0 
1.843362895589e+01 -2.942467245098e+02 0.0 
0.0 0.0 -1.269851876674e+02 
-1.343191138761e+02 1.798295745082e+01 0.0 
1.798295745082e+01 -3.068741691333e+02 0.0 
0.0 0.0 -1.319579849028e+02 
-1.745562283654e+01 -5.538875716372e-02 0.0 
-5.538875716372e-02 -3.773302007784e+01 0.0 
0.0 0.0 -1.438620086753e+01 
-9.620518494299e+01 -1.672425834873e+00 0.0 
-1.672425834873e+00 -1.997935921055e+02 0.0 
0.0 0.0 -8.336506978845e+01 
-5.367021589763e+01 4.180485652032e+01 0.0 
4.180485652032e+01 -6.507634869604e+01 0.0 
0.0 0.0 -3.667782219687e+01 
-1.348442290370e+02 1.865157820860e+01 0.0 
1.865157820860e+01 -3.049180450465e+02 0.0 
0.0 0.0 -1.315286822250e+02 
-1.642140491439e+01 3.909051703182e-01 0.0 
3.909051703182e-01 -1.146233452785e+01 0.0 
0.0 0.0 -7.865758303246e+00 
-1.489881649512e+01 -1.779704118792e-01 0.0 
-1.779704118792e-01 -9.830260915113e+00 0.0 
0.0 0.0 -7.018723223071e+00 
-1.632866683970e+01 -4.430733767231e-02 0.0 
-4.430733767231e-02 -9.773583180532e+00 0.0 
0.0 0.0 -6.975145979781e+00 
-1.468143648580e+01 -5.831737024735e-02 0.0 
-5.831737024735e-02 -9.713772175367e+00 0.0 
0.0 0.0 -6.918562598351e+00 
-1.633084920738e+01 -1.008301561676e-01 0.0 
-1.008301561676e-01 -9.723418095207e+00 0.0 
0.0 0.0 -6.926390691632e+00 
-1.451957150977e+01 -1.001962373313e-01 0.0 
-1.001962373313e-01 -9.701888572237e+00 0.0 
0.0 0.0 -6.866438024602e+00 
-1.628857207207e+01 -1.478516262754e-01 0.0 
-1.478516262754e-01 -9.724617368757e+00 0.0 
0.0 0.0 -6.887955986569e+00 
-1.426678453505e+01 -1.533271373437e-01 0.0 
-1.533271373437e-01 -9.689775394241e+00 0.0 
0.0 0.0 -6.786967978789e+00 
-1.620836456215e+01 -1.967290742270e-01 0.0 
-1.967290742270e-01 -9.731998605438e+00 0.0 
0.0 0.0 -6.831759138841e+00 
-1.390996618929e+01 -2.124038222986e-01 0.0 
-2.124038222986e-01 -9.673624013942e+00 0.0 
0.0 0.0 -6.675077060969e+00 
-1.609375021918e+01 -2.454759025452e-01 0.0 
-2.454759025452e-01 -9.745844059200e+00 0.0 
0.0 0.0 -6.757838638973e+00 
-1.344312381608e+01 -2.760258087627e-01 0.0 
-2.760258087627e-01 -9.649349342991e+00 0.0 
0.0 0.0 -6.527741947720e+00 
-1.594802804004e+01 -2.985436534657e-01 0.0 
-2.985436534657e-01 -9.764840027444e+00 0.0 
0.0 0.0 -6.665794508284e+00 
-1.285663587823e+01 -3.473717741560e-01 0.0 
-3.473717741560e-01 -9.619457497538e+00 0.0 
0.0 0.0 -6.342828012730e+00 
-1.577080336464e+01 -3.554249097055e-01 0.0 
-3.554249097055e-01 -9.790551490337e+00 0.0 
0.0 0.0 -6.554846546304e+00 
-1.213868796653e+01 -4.257061759830e-01 0.0 
-4.257061759830e-01 -9.584712838278e+00 0.0 
0.0 0.0 -6.117020241441e+00 
-1.557110600168e+01 -4.137558795910e-01 0.0 
-4.137558795910e-01 -9.824059866062e+00 0.0 
0.0 0.0 -6.424453259627e+00 
-1.128069699568e+01 -5.097441565682e-01 0.0 
-5.097441565682e-01 -9.539718390419e+00 0.0 
0.0 0.0 -5.846124615831e+00 
-2.240416416212e+01 6.457637519709e+00 0.0 
6.457637519709e+00 -1.251688011898e+01 0.0 
0.0 0.0 -6.879779795169e+00 
-1.536621639238e+01 -4.767462332817e-01 0.0 
-4.767462332817e-01 -9.865246572794e+00 0.0 
0.0 0.0 -6.275934733530e+00 
-1.027125770646e+01 -6.027124699964e-01 0.0 
-6.027124699964e-01 -9.485227250147e+00 0.0 
0.0 0.0 -5.526945486983e+00 
-1.517190706344e+01 -5.443142949470e-01 0.0 
-5.443142949470e-01 -9.915906252306e+00 0.0 
0.0 0.0 -6.110232401737e+00 
-1.141208807059e+01 2.333522436741e+00 0.0 
2.333522436741e+00 -5.102299483293e+00 0.0 
0.0 0.0 -1.381862895265e+00 
-9.096319149356e+00 -7.048411587069e-01 0.0 
-7.048411587069e-01 -9.423612100877e+00 0.0 
0.0 0.0 -5.155979375070e+00 
-2.477899618671e+01 5.532291520267e+00 0.0 
5.532291520267e+00 -1.179788765980e+01 0.0 
0.0 0.0 -8.149603598708e+00 
-1.501465960374e+01 -6.087339343212e-01 0.0 
-6.087339343212e-01 -9.980094684368e+00 0.0 
0.0 0.0 -5.931590873264e+00 
-7.751309298193e+00 -8.086789779295e-01 0.0 
-8.086789779295e-01 -9.361260622267e+00 0.0 
0.0 0.0 -4.733770976138e+00 
-1.493128693179e+01 -6.518174402566e-01 0.0 
-6.518174402566e-01 -1.006184332680e+01 0.0 
0.0 0.0 -5.745743761132e+00 
-6.262453000514e+00 -8.906570435633e-01 0.0 
-8.906570435633e-01 -9.321747052863e+00 0.0 
0.0 0.0 -4.275260016013e+00 
-1.497255417977e+01 -6.324780582520e-01 0.0 
-6.324780582520e-01 -1.015959002678e+01 0.0 
0.0 0.0 -5.552161673078e+00 
-4.727547467159e+00 -9.095411012637e-01 0.0 
-9.095411012637e-01 -9.308925096587e+00 0.0 
0.0 0.0 -3.810941769124e+00 
-1.475759486517e+01 -5.984065291719e-01 0.0 
-5.984065291719e-01 -1.020153010493e+01 0.0 
0.0 0.0 -5.205848867412e+00 
-3.229541559110e+00 -8.615127386531e-01 0.0 
-8.615127386531e-01 -9.408985747768e+00 0.0 
0.0 0.0 -3.391558192063e+00 
-3.516515968961e+01 1.138980056182e+01 0.0 
1.138980056182e+01 -1.368795258014e+01 0.0 
0.0 0.0 -1.091351028855e+01 
-1.458641381628e+01 -4.009197146608e-01 0.0 
-4.009197146608e-01 -1.022388978451e+01 0.0 
0.0 0.0 -4.782855957023e+00 
-1.994198046110e+00 -7.611195457959e-01 0.0 
-7.611195457959e-01 -9.309027890337e+00 0.0 
0.0 0.0 -2.676878230686e+00 
-1.466717130328e+01 -1.208723895795e-01 0.0 
-1.208723895795e-01 -1.036984766168e+01 0.0 
0.0 0.0 -4.389518299376e+00 
-1.165544770609e+00 -5.892403507811e-01 0.0 
-5.892403507811e-01 -9.293416076393e+00 0.0 
0.0 0.0 -1.922675504186e+00 
-1.007246825345e+00 -2.862958996105e-01 0.0 
-2.862958996105e-01 -9.150275183735e+00 0.0 
0.0 0.0 -1.140728766381e+00 
-1.510405777846e+01 3.257032540535e-01 0.0 
3.257032540535e-01 -1.057432369164e+01 0.0 
0.0 0.0 -3.960601945893e+00 
-1.818913737463e+00 2.756586975038e-01 0.0 
2.756586975038e-01 -9.278671478316e+00 0.0 
0.0 0.0 -4.892215011645e-01 
-1.603008978007e+01 8.789665177089e-01 0.0 
8.789665177089e-01 -1.087109004311e+01 0.0 
0.0 0.0 -4.529924252753e+00 
-4.261405842102e+00 1.115108086631e+00 0.0 
1.115108086631e+00 -9.060969692936e+00 0.0 
0.0 0.0 -1.056925064765e-01 
-9.000483380755e+00 2.730975819750e+00 0.0 
2.730975819750e+00 -1.019365675004e+01 0.0 
0.0 0.0 -1.196983092982e+00 
-1.770794625774e+01 1.817116463533e+00 0.0 
1.817116463533e+00 -1.117930777582e+01 0.0 
0.0 0.0 -5.512009450016e+00 
-1.942113077201e+01 2.889742146171e+00 0.0 
2.889742146171e+00 -1.154500499776e+01 0.0 
0.0 0.0 -6.310914866854e+00 
-2.610601949299e+01 4.823731093873e+00 0.0 
4.823731093873e+00 1.415788042205e-01 0.0 
0.0 0.0 -4.692373934573e+00 
-1.630789409253e+01 1.486088158180e+00 0.0 
1.486088158180e+00 -9.431720960108e+00 0.0 
0.0 0.0 -7.321884515791e+00 
-1.595685740032e+01 -1.336502029201e+00 0.0 
-1.336502029201e+00 -1.151277524980e+01 0.0 
0.0 0.0 -7.840889795036e+00 
-1.419071691270e+01 2.127934841205e-01 0.0 
2.127934841205e-01 -5.294917283850e+00 0.0 
0.0 0.0 -5.445690258965e+00 
-1.798857130415e+01 -1.116152342910e-01 0.0 
-1.116152342910e-01 -1.549676158195e+01 0.0 
0.0 0.0 -9.645599865830e+00 
-3.957973909163e+01 1.147090606797e+01 0.0 
1.147090606797e+01 -1.157598115481e+01 0.0 
0.0 0.0 -1.204509720602e+01 
-2.301988724615e+01 2.538770146526e-01 0.0 
2.538770146526e-01 -2.763123805593e+01 0.0 
0.0 0.0 -1.479533759062e+01 
-2.399568438202e+01 -2.372225120072e-01 0.0 
-2.372225120072e-01 -2.935656671701e+01 0.0 
0.0 0.0 -1.549096723651e+01 
-2.312952999806e+01 4.034940451125e-02 0.0 
4.034940451125e-02 -2.918425723042e+01 0.0 
0.0 0.0 -1.529413616854e+01 
-2.396840125270e+01 -1.186470916525e-01 0.0 
-1.186470916525e-01 -2.949798023783e+01 0.0 
0.0 0.0 -1.553012692878e+01 
-2.308018180814e+01 -9.044382575241e-02 0.0 
-9.044382575241e-02 -2.927981197091e+01 0.0 
0.0 0.0 -1.530799813371e+01 
-2.400287699806e+01 -2.306424273485e-01 0.0 
-2.306424273485e-01 -2.951813270856e+01 0.0 
0.0 0.0 -1.551542740887e+01 
-2.295015689989e+01 -1.955718275908e-01 0.0 
-1.955718275908e-01 -2.927741523189e+01 0.0 
0.0 0.0 -1.526827163953e+01 
-2.409708891846e+01 -3.573911541003e-01 0.0 
-3.573911541003e-01 -2.954420004846e+01 0.0 
0.0 0.0 -1.550485296921e+01 
-2.274371371712e+01 -2.869317314156e-01 0.0 
-2.869317314156e-01 -2.925485751212e+01 0.0 
0.0 0.0 -1.519957136877e+01 
-2.423509408789e+01 -4.890774824721e-01 0.0 
-4.890774824721e-01 -2.957772876042e+01 0.0 
0.0 0.0 -1.549478398907e+01 
-2.246382495207e+01 -3.728897824112e-01 0.0 
-3.728897824112e-01 -2.921970207654e+01 0.0 
0.0 0.0 -1.510505810858e+01 
-2.439700569271e+01 -6.247090173366e-01 0.0 
-6.247090173366e-01 -2.960876010095e+01 0.0 
0.0 0.0 -1.547487887813e+01 
-2.211081247239e+01 -4.600669016793e-01 0.0 
-4.600669016793e-01 -2.917148984316e+01 0.0 
0.0 0.0 -1.498469069466e+01 
-2.458094340096e+01 -7.718364183987e-01 0.0 
-7.718364183987e-01 -2.964427729845e+01 0.0 
0.0 0.0 -1.544790550963e+01 
-2.168499243013e+01 -5.468849269976e-01 0.0 
-5.468849269976e-01 -2.912248590906e+01 0.0 
0.0 0.0 -1.484224350176e+01 
-2.479445966249e+01 -9.240778135321e-01 0.0 
-9.240778135321e-01 -2.968648741184e+01 0.0 
0.0 0.0 -1.541523728641e+01 
-2.118411256971e+01 -6.295830131887e-01 0.0 
-6.295830131887e-01 -2.907560313504e+01 0.0 
0.0 0.0 -1.467791471143e+01 
-3.168658032272e+01 7.582132770054e+00 0.0 
7.582132770054e+00 -3.388556935254e+01 0.0 
0.0 0.0 -1.484076192922e+01 
-2.505086833157e+01 -1.071212493151e+00 0.0 
-1.071212493151e+00 -2.972670245383e+01 0.0 
0.0 0.0 -1.537317880392e+01 
-2.060793043907e+01 -7.098694433187e-01 0.0 
-7.098694433187e-01 -2.902022119001e+01 0.0 
0.0 0.0 -1.448844548873e+01 
-3.430964105095e+01 5.415525933289e+00 0.0 
5.415525933289e+00 -3.257660222083e+01 0.0 
0.0 0.0 -1.583371957036e+01 
-2.537089789562e+01 -1.216037758360e+00 0.0 
-1.216037758360e+00 -2.976908638724e+01 0.0 
0.0 0.0 -1.532464972953e+01 
-1.996263128788e+01 -7.818964926160e-01 0.0 
-7.818964926160e-01 -2.897035797048e+01 0.0 
0.0 0.0 -1.427989677751e+01 
-2.578330950755e+01 -1.345372236379e+00 0.0 
-1.345372236379e+00 -2.982190368026e+01 0.0 
0.0 0.0 -1.527831822129e+01 
-1.926178805401e+01 -8.328047875367e-01 0.0 
-8.328047875367e-01 -2.893932297152e+01 0.0 
0.0 0.0 -1.406033330766e+01 
-2.632811919004e+01 -1.436589407887e+00 0.0 
-1.436589407887e+00 -2.989713991708e+01 0.0 
0.0 0.0 -1.524595145815e+01 
-2.520895902913e+01 5.681203844737e+00 0.0 
5.681203844737e+00 -2.704998040575e+01 0.0 
0.0 0.0 -1.100932229160e+01 
-1.852753058118e+01 -8.405129603351e-01 0.0 
-8.405129603351e-01 -2.894879319479e+01 0.0 
0.0 0.0 -1.384289713279e+01 
-2.704150584028e+01 -1.453231533346e+00 0.0 
-1.453231533346e+00 -3.002191720206e+01 0.0 
0.0 0.0 -1.524399314413e+01 
-1.778033850362e+01 -7.660610863036e-01 0.0 
-7.660610863036e-01 -2.904527462792e+01 0.0 
0.0 0.0 -1.364768393946e+01 
-2.741924492244e+01 -1.276085126826e+00 0.0 
-1.276085126826e+00 -3.011203496197e+01 0.0 
0.0 0.0 -1.506135986553e+01 
-1.760829171616e+01 -5.674429667199e-01 0.0 
-5.674429667199e-01 -2.914289962559e+01 0.0 
0.0 0.0 -1.332381966685e+01 
-2.785773482044e+01 -9.758253600110e-01 0.0 
-9.758253600110e-01 -3.033538964122e+01 0.0 
0.0 0.0 -1.489025213949e+01 
-1.775223419484e+01 -2.788178899714e-01 0.0 
-2.788178899714e-01 -2.934478720153e+01 0.0 
0.0 0.0 -1.297592577323e+01 
-2.845778040424e+01 -4.504373427009e-01 0.0 
-4.504373427009e-01 -3.046725609301e+01 0.0 
0.0 0.0 -1.461282710747e+01 
-1.823139949481e+01 2.188218126556e-01 0.0 
2.188218126556e-01 -2.949273149326e+01 0.0 
0.0 0.0 -1.258010254657e+01 
-2.930342645181e+01 2.513215540672e-01 0.0 
2.513215540672e-01 -3.080180706626e+01 0.0 
0.0 0.0 -1.445903129517e+01 
-3.758172157015e+01 9.083998984556e+00 0.0 
9.083998984556e+00 -3.557090848770e+01 0.0 
0.0 0.0 -1.713542316356e+01 
-3.047305375662e+01 1.422739180115e+00 0.0 
1.422739180115e+00 -3.107874972869e+01 0.0 
0.0 0.0 -1.409388114821e+01 
-1.916277278359e+01 1.010862516313e+00 0.0 
1.010862516313e+00 -2.988474374011e+01 0.0 
0.0 0.0 -1.222276334554e+01 
-3.137511498860e+01 2.825845468477e+00 0.0 
2.825845468477e+00 -3.174855340836e+01 0.0 
0.0 0.0 -1.437589097480e+01 
-2.096289496123e+01 2.204143896817e+00 0.0 
2.204143896817e+00 -3.021430787740e+01 0.0 
0.0 0.0 -1.185179932038e+01 
-2.360616635588e+01 4.068513281913e+00 0.0 
4.068513281913e+00 -3.144571503940e+01 0.0 
0.0 0.0 -1.184956149110e+01 
-3.211115785131e+01 6.820480788263e+00 0.0 
6.820480788263e+00 -2.505421463030e+01 0.0 
0.0 0.0 -1.328404552367e+01 
-2.345633651016e+01 1.437919516767e+00 0.0 
1.437919516767e+00 -2.989362311624e+01 0.0 
0.0 0.0 -1.560498788792e+01 
-2.380174892634e+01 -1.445497970077e+00 0.0 
-1.445497970077e+00 -2.786044731579e+01 0.0 
0.0 0.0 -1.509865887264e+01 
-2.575488704638e+01 1.323479287410e-01 0.0 
1.323479287410e-01 -3.402088747441e+01 0.0 
0.0 0.0 -1.753273235624e+01 
-2.158136473000e+01 -1.856770767402e-01 0.0 
-1.856770767402e-01 -2.387994624227e+01 0.0 
0.0 0.0 -1.323839329168e+01 
-3.187761367697e+01 9.915193495820e+00 0.0 
9.915193495820e+00 -2.852630375046e+01 0.0 
0.0 0.0 -1.398767334449e+01 
-3.282280079614e+01 2.367381516837e-01 0.0 
2.367381516837e-01 -5.073799306145e+01 0.0 
0.0 0.0 -2.466823815728e+01 
-3.198950723866e+01 -3.237818733038e-01 0.0 
-3.237818733038e-01 -4.890096822790e+01 0.0 
0.0 0.0 -2.386714263997e+01 
-3.208698844009e+01 -5.497270294038e-02 0.0 
-5.497270294038e-02 -4.890410423263e+01 0.0 
0.0 0.0 -2.389732780181e+01 
-3.184034047570e+01 -1.391043638131e-01 0.0 
-1.391043638131e-01 -4.871933333906e+01 0.0 
0.0 0.0 -2.376790214443e+01 
-3.207582873286e+01 -1.317265587268e-01 0.0 
-1.317265587268e-01 -4.881758816247e+01 0.0 
0.0 0.0 -2.386802506860e+01 
-3.174670222564e+01 -2.150033012742e-01 0.0 
-2.150033012742e-01 -4.868187402866e+01 0.0 
0.0 0.0 -2.372857287629e+01 
-3.211488110721e+01 -2.062816399098e-01 0.0 
-2.062816399098e-01 -4.883414387088e+01 0.0 
0.0 0.0 -2.388470749343e+01 
-3.165879352512e+01 -3.185832388715e-01 0.0 
-3.185832388715e-01 -4.864507886778e+01 0.0 
0.0 0.0 -2.369116171787e+01 
-3.220438450008e+01 -2.863206445987e-01 0.0 
-2.863206445987e-01 -4.886029755383e+01 0.0 
0.0 0.0 -2.391940461617e+01 
-3.156033276085e+01 -4.370914804212e-01 0.0 
-4.370914804212e-01 -4.860412212595e+01 0.0 
0.0 0.0 -2.364933646604e+01 
-3.240416899580e+01 -3.836739170120e-01 0.0 
-3.836739170120e-01 -4.888592683517e+01 0.0 
0.0 0.0 -2.395751948245e+01 
-3.143862265556e+01 -5.675505077943e-01 0.0 
-5.675505077943e-01 -4.857650994170e+01 0.0 
0.0 0.0 -2.360453977918e+01 
-3.282720037174e+01 -4.914216060513e-01 0.0 
-4.914216060513e-01 -4.889661812637e+01 0.0 
0.0 0.0 -2.397088380073e+01 
-3.128262123864e+01 -6.932047168900e-01 0.0 
-6.932047168900e-01 -4.853826912523e+01 0.0 
0.0 0.0 -2.354626710916e+01 
-3.336074662838e+01 -5.959529366574e-01 0.0 
-5.959529366574e-01 -4.892195914017e+01 0.0 
0.0 0.0 -2.400341706582e+01 
-3.110304336449e+01 -8.170741377259e-01 0.0 
-8.170741377259e-01 -4.851135470366e+01 0.0 
0.0 0.0 -2.348431942045e+01 
-4.166304540324e+01 6.207513081763e+00 0.0 
6.207513081763e+00 -5.446508281237e+01 0.0 
0.0 0.0 -2.389785837753e+01 
-3.397792088187e+01 -6.901003388099e-01 0.0 
-6.901003388099e-01 -4.896264678332e+01 0.0 
0.0 0.0 -2.404847338374e+01 
-3.090028458554e+01 -9.292740411847e-01 0.0 
-9.292740411847e-01 -4.849689614100e+01 0.0 
0.0 0.0 -2.341915421796e+01 
-3.662957487940e+01 4.698546918456e+00 0.0 
4.698546918456e+00 -4.756954501246e+01 0.0 
0.0 0.0 -2.069341471551e+01 
-3.466272812008e+01 -7.698845697356e-01 0.0 
-7.698845697356e-01 -4.899424762786e+01 0.0 
0.0 0.0 -2.407728727845e+01 
-3.067761246811e+01 -1.013159693822e+00 0.0 
-1.013159693822e+00 -4.849443217047e+01 0.0 
0.0 0.0 -2.335161339157e+01 
-4.441088948627e+01 4.286388848264e+00 0.0 
4.286388848264e+00 -5.266327177601e+01 0.0 
0.0 0.0 -2.458579314901e+01 
-3.547960826616e+01 -8.133460731147e-01 0.0 
-8.133460731147e-01 -4.904405133627e+01 0.0 
0.0 0.0 -2.412269166135e+01 
-3.046273756738e+01 -1.053405410322e+00 0.0 
-1.053405410322e+00 -4.852972986361e+01 0.0 
0.0 0.0 -2.329774022930e+01 
-3.644547047926e+01 -7.940829412045e-01 0.0 
-7.940829412045e-01 -4.912827470912e+01 0.0 
0.0 0.0 -2.419579891761e+01 
-3.028909360430e+01 -1.022517495677e+00 0.0 
-1.022517495677e+00 -4.863013442354e+01 0.0 
0.0 0.0 -2.327576840835e+01 
-3.759280148651e+01 -6.850551204718e-01 0.0 
-6.850551204718e-01 -4.926961719954e+01 0.0 
0.0 0.0 -2.430366593359e+01 
-3.020621893893e+01 -8.756728847549e-01 0.0 
-8.756728847549e-01 -4.887381744910e+01 0.0 
0.0 0.0 -2.332401091641e+01 
-4.606442830314e+01 6.998953212788e+00 0.0 
6.998953212788e+00 -5.579626304202e+01 0.0 
0.0 0.0 -2.519884687176e+01 
-3.860137601222e+01 -4.761622272399e-01 0.0 
-4.761622272399e-01 -4.950019618582e+01 0.0 
0.0 0.0 -2.437191246016e+01 
-3.073957114843e+01 -6.184776980658e-01 0.0 
-6.184776980658e-01 -4.921547859528e+01 0.0 
0.0 0.0 -2.324825016866e+01 
-3.937891608318e+01 -5.789934916898e-02 0.0 
-5.789934916898e-02 -4.973564951651e+01 0.0 
0.0 0.0 -2.427389363343e+01 
-3.154961305474e+01 -1.574073677553e-01 0.0 
-1.574073677553e-01 -4.949353778588e+01 0.0 
0.0 0.0 -2.309924359724e+01 
-3.262520924209e+01 5.486153808322e-01 0.0 
5.486153808322e-01 -5.015020649480e+01 0.0 
0.0 0.0 -2.304409840724e+01 
-4.031294885001e+01 4.731222620315e-01 0.0 
4.731222620315e-01 -5.016022702887e+01 0.0 
0.0 0.0 -2.427802469824e+01 
-3.424413917847e+01 1.653634116787e+00 0.0 
1.653634116787e+00 -5.049352685602e+01 0.0 
0.0 0.0 -2.288802761902e+01 
-4.141606304179e+01 1.470177900230e+00 0.0 
1.470177900230e+00 -5.055869954234e+01 0.0 
0.0 0.0 -2.413285566238e+01 
-3.616466583106e+01 3.219560185688e+00 0.0 
3.219560185688e+00 -5.181253284710e+01 0.0 
0.0 0.0 -2.295097210159e+01 
-4.212468165677e+01 2.441931103650e+00 0.0 
2.441931103650e+00 -5.139502895874e+01 0.0 
0.0 0.0 -2.429237676585e+01 
-4.176705025880e+01 5.606922617187e+00 0.0 
5.606922617187e+00 -4.641907536811e+01 0.0 
0.0 0.0 -2.108947547140e+01 
-3.256574687535e+01 1.447563845668e+00 0.0 
1.447563845668e+00 -4.863207606076e+01 0.0 
0.0 0.0 -2.395934688084e+01 
-3.222925717718e+01 -1.447793910523e+00 0.0 
-1.447793910523e+00 -5.060427609112e+01 0.0 
0.0 0.0 -2.445005998049e+01 
-3.023507164401e+01 1.264008760685e-01 0.0 
1.264008760685e-01 -4.447465153555e+01 0.0 
0.0 0.0 -2.201291695387e+01 
-3.447251071697e+01 -1.783527942256e-01 0.0 
-1.783527942256e-01 -5.459557628418e+01 0.0 
0.0 0.0 -2.632042610035e+01 
-4.042037200038e+01 8.118785821070e+00 0.0 
8.118785821070e+00 -4.827033987557e+01 0.0 
0.0 0.0 -2.111257710475e+01 
-3.971071080507e+01 2.109539900116e-01 0.0 
2.109539900116e-01 -6.680978308228e+01 0.0 
0.0 0.0 -3.155614816620e+01 
-4.044716896643e+01 -2.810420965086e-01 0.0 
-2.810420965086e-01 -6.841833886412e+01 0.0 
0.0 0.0 -3.225965234917e+01 
-4.046604164536e+01 -7.937993376074e-02 0.0 
-7.937993376074e-02 -6.845522837827e+01 0.0 
0.0 0.0 -3.227638100709e+01 
-4.060558276269e+01 -1.159468938014e-01 0.0 
-1.159468938014e-01 -6.851373068377e+01 0.0 
0.0 0.0 -3.233579403394e+01 
-4.049508900501e+01 -1.362259543393e-01 0.0 
-1.362259543393e-01 -6.846252879749e+01 0.0 
0.0 0.0 -3.228728534075e+01 
-4.068358763465e+01 -1.783809178765e-01 0.0 
-1.783809178765e-01 -6.851843645669e+01 0.0 
0.0 0.0 -3.236060722740e+01 
-4.052293464653e+01 -1.712952546107e-01 0.0 
-1.712952546107e-01 -6.845293546262e+01 0.0 
0.0 0.0 -3.229276103274e+01 
-4.082840505447e+01 -2.301556220482e-01 0.0 
-2.301556220482e-01 -6.851870815342e+01 0.0 
0.0 0.0 -3.240413396237e+01 
-4.059000794221e+01 -2.102613114311e-01 0.0 
-2.102613114311e-01 -6.842675225214e+01 0.0 
0.0 0.0 -3.230502805831e+01 
-4.100248290598e+01 -2.859668386484e-01 0.0 
-2.859668386484e-01 -6.851745617862e+01 0.0 
0.0 0.0 -3.245598172538e+01 
-4.066933789578e+01 -2.400588977775e-01 0.0 
-2.400588977775e-01 -6.840072471538e+01 0.0 
0.0 0.0 -3.232101878335e+01 
-4.123182416010e+01 -3.420192416974e-01 0.0 
-3.420192416974e-01 -6.853987186719e+01 0.0 
0.0 0.0 -3.253150880819e+01 
-4.068238064244e+01 -2.551708515415e-01 0.0 
-2.551708515415e-01 -6.836231656334e+01 0.0 
0.0 0.0 -3.231340916174e+01 
-4.149596902566e+01 -3.916470385515e-01 0.0 
-3.916470385515e-01 -6.855513313518e+01 0.0 
0.0 0.0 -3.261533064825e+01 
-4.073677421818e+01 -2.797745211916e-01 0.0 
-2.797745211916e-01 -6.832002851208e+01 0.0 
0.0 0.0 -3.231704081908e+01 
-5.117516947985e+01 5.299669805841e+00 0.0 
5.299669805841e+00 -7.404070770001e+01 0.0 
0.0 0.0 -3.411129451771e+01 
-4.194447603766e+01 -4.690543851980e-01 0.0 
-4.690543851980e-01 -6.860461420656e+01 0.0 
0.0 0.0 -3.276472707327e+01 
-5.334277903149e+01 3.450511059467e+00 0.0 
3.450511059467e+00 -7.236377926565e+01 0.0 
0.0 0.0 -3.451244312881e+01 
-4.080071009425e+01 -3.302940802473e-01 0.0 
-3.302940802473e-01 -6.825392633187e+01 0.0 
0.0 0.0 -3.231639092784e+01 
-4.276852229832e+01 -5.658493409203e-01 0.0 
-5.658493409203e-01 -6.865370667970e+01 0.0 
0.0 0.0 -3.286441909118e+01 
-4.087681152432e+01 -3.332948320238e-01 0.0 
-3.332948320238e-01 -6.831268429003e+01 0.0 
0.0 0.0 -3.235684874431e+01 
-4.381718483301e+01 -5.653297923938e-01 0.0 
-5.653297923938e-01 -6.871672120572e+01 0.0 
0.0 0.0 -3.296338106032e+01 
-4.099601261873e+01 -2.717690665190e-01 0.0 
-2.717690665190e-01 -6.840428856676e+01 0.0 
0.0 0.0 -3.242009035565e+01 
-4.503628140576e+01 -4.923687539951e-01 0.0 
-4.923687539951e-01 -6.883224576467e+01 0.0 
0.0 0.0 -3.311387783596e+01 
-4.681061875790e+01 3.947693694709e+00 0.0 
3.947693694709e+00 -6.738932995952e+01 0.0 
0.0 0.0 -3.113812818459e+01 
-4.118643770286e+01 -1.328726240512e-01 0.0 
-1.328726240512e-01 -6.856172424253e+01 0.0 
0.0 0.0 -3.252444858362e+01 
-4.644375537037e+01 -3.147709200335e-01 0.0 
-3.147709200335e-01 -6.901949089949e+01 0.0 
0.0 0.0 -3.330517666875e+01 
-4.146408518061e+01 1.132045937322e-01 0.0 
1.132045937322e-01 -6.884148443439e+01 0.0 
0.0 0.0 -3.269167088450e+01 
-4.805717606084e+01 1.448637076593e-03 0.0 
1.448637076593e-03 -6.935374211663e+01 0.0 
0.0 0.0 -3.355004468704e+01 
-4.216238879224e+01 4.363533061826e-01 0.0 
4.363533061826e-01 -6.914381232492e+01 0.0 
0.0 0.0 -3.279111672894e+01 
-4.936399891154e+01 3.601795064717e-01 0.0 
3.601795064717e-01 -6.987560312758e+01 0.0 
0.0 0.0 -3.380427653092e+01 
-4.331298894162e+01 9.922716160210e-01 0.0 
9.922716160210e-01 -6.977696786157e+01 0.0 
0.0 0.0 -3.286378780473e+01 
-5.049168086531e+01 1.161466626019e+00 0.0 
1.161466626019e+00 -7.026948870052e+01 0.0 
0.0 0.0 -3.372189189085e+01 
-5.133827406205e+01 1.971160165314e+00 0.0 
1.971160165314e+00 -7.121557079413e+01 0.0 
0.0 0.0 -3.408960680682e+01 
-4.486141841946e+01 1.811859895013e+00 0.0 
1.811859895013e+00 -7.041268719630e+01 0.0 
0.0 0.0 -3.295878465703e+01 
-5.457812316580e+01 5.431686682389e+00 0.0 
5.431686682389e+00 -7.537432687557e+01 0.0 
0.0 0.0 -3.538119776621e+01 
-4.656742433519e+01 3.017596572690e+00 0.0 
3.017596572690e+00 -7.169041581448e+01 0.0 
0.0 0.0 -3.318687504775e+01 
-5.098521571556e+01 4.458289383255e+00 0.0 
4.458289383255e+00 -6.637510526264e+01 0.0 
0.0 0.0 -3.144287009130e+01 
-4.001319715554e+01 1.448232475375e+00 0.0 
1.448232475375e+00 -6.898096244961e+01 0.0 
0.0 0.0 -3.229824788154e+01 
-4.035730586816e+01 -1.457828201688e+00 0.0 
-1.457828201688e+00 -6.696733460359e+01 0.0 
0.0 0.0 -3.179739214153e+01 
-4.238180715427e+01 1.256031477065e-01 0.0 
1.256031477065e-01 -7.311186080139e+01 0.0 
0.0 0.0 -3.424810038670e+01 
-3.807539038127e+01 -1.867280614140e-01 0.0 
-1.867280614140e-01 -6.300229550088e+01 0.0 
0.0 0.0 -2.992330576464e+01 
-4.961072882144e+01 6.360735627186e+00 0.0 
6.360735627186e+00 -6.773254238368e+01 0.0 
0.0 0.0 -3.102238299246e+01 
-4.948117203738e+01 3.000260351084e-01 0.0 
3.000260351084e-01 -8.990748207812e+01 0.0 
0.0 0.0 -4.141659623465e+01 
-4.886673159479e+01 -2.297434954274e-01 0.0 
-2.297434954274e-01 -8.806398499696e+01 0.0 
0.0 0.0 -4.067921497752e+01 
-4.901031373483e+01 4.392821123570e-02 0.0 
4.392821123570e-02 -8.807905047232e+01 0.0 
0.0 0.0 -4.072680926215e+01 
-4.888456639999e+01 -3.671858923025e-02 0.0 
-3.671858923025e-02 -8.783135917079e+01 0.0 
0.0 0.0 -4.061477767123e+01 
-4.909657974850e+01 -4.784126639416e-02 0.0 
-4.784126639416e-02 -8.792368349975e+01 0.0 
0.0 0.0 -4.070607897448e+01 
-4.897513291009e+01 -8.011256755950e-02 0.0 
-8.011256755950e-02 -8.786537543274e+01 0.0 
0.0 0.0 -4.065215250285e+01 
-4.924417434479e+01 -1.413008601583e-02 0.0 
-1.413008601583e-02 -8.795530963279e+01 0.0 
0.0 0.0 -4.075984519327e+01 
-4.909085132517e+01 -7.743338382304e-02 0.0 
-7.743338382304e-02 -8.779774945173e+01 0.0 
0.0 0.0 -4.066658023307e+01 
-4.955585213283e+01 -1.702426620472e-02 0.0 
-1.702426620472e-02 -8.796313010035e+01 0.0 
0.0 0.0 -4.085569466995e+01 
-4.926638124190e+01 -9.694834524380e-02 0.0 
-9.694834524380e-02 -8.779988562908e+01 0.0 
0.0 0.0 -4.071988006129e+01 
-4.980872436228e+01 2.892770961397e-04 0.0 
2.892770961397e-04 -8.796865391270e+01 0.0 
0.0 0.0 -4.093321348249e+01 
-4.947561875744e+01 -9.153184214068e-02 0.0 
-9.153184214068e-02 -8.777539259431e+01 0.0 
0.0 0.0 -4.077530340552e+01 
-5.021305837885e+01 2.756245887734e-02 0.0 
2.756245887734e-02 -8.799409743317e+01 0.0 
0.0 0.0 -4.106214674360e+01 
-5.932510578410e+01 4.711370985061e+00 0.0 
4.711370985061e+00 -9.330080419796e+01 0.0 
0.0 0.0 -4.358574828273e+01 
-4.976136080071e+01 -5.722497814220e-02 0.0 
-5.722497814220e-02 -8.784104727696e+01 0.0 
0.0 0.0 -4.088072242330e+01 
-5.059917159983e+01 1.748896980206e-01 0.0 
1.748896980206e-01 -8.800148838789e+01 0.0 
0.0 0.0 -4.118019799632e+01 
-5.536870275731e+01 3.495359935633e+00 0.0 
3.495359935633e+00 -8.667081315193e+01 0.0 
0.0 0.0 -4.071651124459e+01 
-5.014494864747e+01 5.468041363707e-02 0.0 
5.468041363707e-02 -8.773905029612e+01 0.0 
0.0 0.0 -4.096519968308e+01 
-5.115962767774e+01 2.193651003475e-01 0.0 
2.193651003475e-01 -8.798566943046e+01 0.0 
0.0 0.0 -4.134358913246e+01 
-6.094579333130e+01 3.274302360899e+00 0.0 
3.274302360899e+00 -9.145175690621e+01 0.0 
0.0 0.0 -4.363341841606e+01 
-5.043825465186e+01 1.265367151590e-01 0.0 
1.265367151590e-01 -8.781154861668e+01 0.0 
0.0 0.0 -4.107494098056e+01 
-5.178245216026e+01 3.098159557077e-01 0.0 
3.098159557077e-01 -8.812911020151e+01 0.0 
0.0 0.0 -4.157346870853e+01 
-5.076394346679e+01 2.457657046928e-01 0.0 
2.457657046928e-01 -8.801190860554e+01 0.0 
0.0 0.0 -4.123275562170e+01 
-5.306444919948e+01 5.040142734286e-01 0.0 
5.040142734286e-01 -8.827046937000e+01 0.0 
0.0 0.0 -4.174799642546e+01 
-5.118999382309e+01 4.736023440979e-01 0.0 
4.736023440979e-01 -8.822058203443e+01 0.0 
0.0 0.0 -4.142317275725e+01 
-6.228150857967e+01 4.675891394042e+00 0.0 
4.675891394042e+00 -9.449310967123e+01 0.0 
0.0 0.0 -4.478862138882e+01 
-5.459109035159e+01 7.673135291873e-01 0.0 
7.673135291873e-01 -8.849482840572e+01 0.0 
0.0 0.0 -4.200895692107e+01 
-5.171386562032e+01 7.941411824102e-01 0.0 
7.941411824102e-01 -8.857765284511e+01 0.0 
0.0 0.0 -4.168745553963e+01 
-5.230596083345e+01 1.252697444827e+00 0.0 
1.252697444827e+00 -8.916176695486e+01 0.0 
0.0 0.0 -4.204031833649e+01 
-5.623243764843e+01 1.130872427702e+00 0.0 
1.130872427702e+00 -8.883060566899e+01 0.0 
0.0 0.0 -4.228064085749e+01 
-5.368784246591e+01 1.853611598890e+00 0.0 
1.853611598890e+00 -8.950179978764e+01 0.0 
0.0 0.0 -4.221801691099e+01 
-5.803652898514e+01 1.746886219248e+00 0.0 
1.746886219248e+00 -8.923259436687e+01 0.0 
0.0 0.0 -4.251719943762e+01 
-5.520923701772e+01 2.728772593393e+00 0.0 
2.728772593393e+00 -9.111509312423e+01 0.0 
0.0 0.0 -4.265891386384e+01 
-5.895555466408e+01 2.046460121646e+00 0.0 
2.046460121646e+00 -9.013068628246e+01 0.0 
0.0 0.0 -4.299610068125e+01 
-5.910036378710e+01 4.005654812552e+00 0.0 
4.005654812552e+00 -8.564007632895e+01 0.0 
0.0 0.0 -4.094826671377e+01 
-4.928960191426e+01 1.414602739728e+00 0.0 
1.414602739728e+00 -8.762510495741e+01 0.0 
0.0 0.0 -4.067441206150e+01 
-4.891302677020e+01 -1.500350054060e+00 0.0 
-1.500350054060e+00 -8.981574082086e+01 0.0 
0.0 0.0 -4.121863027732e+01 
-4.686758480814e+01 9.608651683240e-02 0.0 
9.608651683240e-02 -8.357867532709e+01 0.0 
0.0 0.0 -3.873387804057e+01 
-5.123134040675e+01 -2.435231294697e-01 0.0 
-2.435231294697e-01 -9.366457046404e+01 0.0 
0.0 0.0 -4.306877326124e+01 
-5.787320665589e+01 5.244952019114e+00 0.0 
5.244952019114e+00 -8.687367594031e+01 0.0 
0.0 0.0 -4.073132785710e+01 
-5.655788067927e+01 4.753543384151e-01 0.0 
4.753543384151e-01 -1.064198022425e+02 0.0 
0.0 0.0 -4.849330487654e+01 
-5.728761604433e+01 8.278893774250e-02 0.0 
8.278893774250e-02 -1.075835875549e+02 0.0 
0.0 0.0 -4.906136107977e+01 
-5.738827491325e+01 8.982468340877e-02 0.0 
8.982468340877e-02 -1.076276265553e+02 0.0 
0.0 0.0 -4.910477044056e+01 
-5.719424917537e+01 1.329678406376e-01 0.0 
1.329678406376e-01 -1.075744248132e+02 0.0 
0.0 0.0 -4.903060219657e+01 
-5.758215154064e+01 7.428267479900e-02 0.0 
7.428267479900e-02 -1.077233510148e+02 0.0 
0.0 0.0 -4.919165076662e+01 
-5.746358218954e+01 8.911926185553e-02 0.0 
8.911926185553e-02 -1.077294938238e+02 0.0 
0.0 0.0 -4.915792280401e+01 
-5.779312206542e+01 1.952133654509e-01 0.0 
1.952133654509e-01 -1.079028543143e+02 0.0 
0.0 0.0 -4.930879291391e+01 
-5.784782287659e+01 2.564671894790e-01 0.0 
2.564671894790e-01 -1.076621923153e+02 0.0 
0.0 0.0 -4.925300455756e+01 
-5.801774660789e+01 1.988430887451e-01 0.0 
1.988430887451e-01 -1.077075505421e+02 0.0 
0.0 0.0 -4.931758914501e+01 
-5.806659157623e+01 1.971999201257e-01 0.0 
1.971999201257e-01 -1.076958117084e+02 0.0 
0.0 0.0 -4.932872098539e+01 
-5.833280192025e+01 3.050729298111e-01 0.0 
3.050729298111e-01 -1.078581682146e+02 0.0 
0.0 0.0 -4.945729104046e+01 
-5.842648503013e+01 3.499308403701e-01 0.0 
3.499308403701e-01 -1.076927553234e+02 0.0 
0.0 0.0 -4.943577210605e+01 
-6.633052066137e+01 4.744877328113e+00 0.0 
4.744877328113e+00 -1.125205497348e+02 0.0 
0.0 0.0 -5.255154196923e+01 
-5.872308341610e+01 4.190430088694e-01 0.0 
4.190430088694e-01 -1.078508225201e+02 0.0 
0.0 0.0 -4.957217178086e+01 
-6.686358082220e+01 3.218552344453e+00 0.0 
3.218552344453e+00 -1.104148971430e+02 0.0 
0.0 0.0 -5.196581112730e+01 
-5.924825266733e+01 3.791692013929e-01 0.0 
3.791692013929e-01 -1.078576092915e+02 0.0 
0.0 0.0 -4.973175858764e+01 
-5.915315401800e+01 5.817890589572e-01 0.0 
5.817890589572e-01 -1.079607806970e+02 0.0 
0.0 0.0 -4.973418041449e+01 
-5.928327313105e+01 6.769605472324e-01 0.0 
6.769605472324e-01 -1.076815570622e+02 0.0 
0.0 0.0 -4.968944905798e+01 
-5.969485453844e+01 7.635569717616e-01 0.0 
7.635569717616e-01 -1.079011987721e+02 0.0 
0.0 0.0 -4.987881599317e+01 
-5.997275304763e+01 7.849508122962e-01 0.0 
7.849508122962e-01 -1.078217075343e+02 0.0 
0.0 0.0 -4.993833817459e+01 
-6.040007076735e+01 1.086754131478e+00 0.0 
1.086754131478e+00 -1.082368869514e+02 0.0 
0.0 0.0 -5.019108731562e+01 
-6.084322576080e+01 1.134006854008e+00 0.0 
1.134006854008e+00 -1.081072675810e+02 0.0 
0.0 0.0 -5.028514800253e+01 
-6.266888764899e+01 3.555158807955e+00 0.0 
3.555158807955e+00 -1.060389633580e+02 0.0 
0.0 0.0 -4.982073009044e+01 
-6.089061033872e+01 1.517498997360e+00 0.0 
1.517498997360e+00 -1.084944737150e+02 0.0 
0.0 0.0 -5.041552521611e+01 
-6.171424819659e+01 1.580470165216e+00 0.0 
1.580470165216e+00 -1.083625222626e+02 0.0 
0.0 0.0 -5.062303113776e+01 
-6.151871327616e+01 1.933002156044e+00 0.0 
1.933002156044e+00 -1.086752696699e+02 0.0 
0.0 0.0 -5.065819488382e+01 
-6.304664252302e+01 1.936009724615e+00 0.0 
1.936009724615e+00 -1.087707186360e+02 0.0 
0.0 0.0 -5.100777782394e+01 
-6.483313357372e+01 2.453344273800e+00 0.0 
2.453344273800e+00 -1.094187480119e+02 0.0 
0.0 0.0 -5.142546954980e+01 
-6.218200798397e+01 2.408174137823e+00 0.0 
2.408174137823e+00 -1.092199715629e+02 0.0 
0.0 0.0 -5.102059386408e+01 
-6.280027478896e+01 3.059163187815e+00 0.0 
3.059163187815e+00 -1.101420145806e+02 0.0 
0.0 0.0 -5.148268681086e+01 
-6.886733432330e+01 4.418455347616e+00 0.0 
4.418455347616e+00 -1.138228040421e+02 0.0 
0.0 0.0 -5.379228290357e+01 
-6.599390518514e+01 3.882688195308e+00 0.0 
3.882688195308e+00 -1.049973796273e+02 0.0 
0.0 0.0 -4.997669674658e+01 
-5.660497141941e+01 1.301545905430e+00 0.0 
1.301545905430e+00 -1.077012602620e+02 0.0 
0.0 0.0 -4.889186950443e+01 
-5.683023802001e+01 -1.546344347308e+00 0.0 
-1.546344347308e+00 -1.063663807629e+02 0.0 
0.0 0.0 -4.855898563486e+01 
-5.871160449773e+01 -5.806203704156e-02 0.0 
-5.806203704156e-02 -1.122103880940e+02 0.0 
0.0 0.0 -5.087659777752e+01 
-5.482230479261e+01 -2.450554343449e-01 0.0 
-2.450554343449e-01 -1.020434873644e+02 0.0 
0.0 0.0 -4.665973764710e+01 
-6.491934954968e+01 4.906816671684e+00 0.0 
4.906816671684e+00 -1.059687696589e+02 0.0 
0.0 0.0 -4.986134564428e+01 

TENSORS element_materi_strain_total float
-1.109327003131e-03 2.712764649788e-03 0.0 
2.712764649788e-03 4.947328688982e-03 0.0 
0.0 0.0 0.0 
-1.319169293046e-03 2.875264337938e-03 0.0 
2.875264337938e-03 5.081651316555e-03 0.0 
0.0 0.0 0.0 
-3.076811418904e-04 2.841029056852e-03 0.0 
2.841029056852e-03 9.480305820728e-03 0.0 
0.0 0.0 0.0 
-4.445892339903e-04 3.142391921493e-04 0.0 
3.142391921493e-04 1.152069253468e-02 0.0 
0.0 0.0 0.0 
-1.582670685899e-03 3.694867946592e-04 0.0 
3.694867946592e-04 9.306537600339e-03 0.0 
0.0 0.0 0.0 
1.346371898503e-03 3.614127677187e-03 0.0 
3.614127677187e-03 -3.336206746180e-03 0.0 
0.0 0.0 0.0 
-1.474317346603e-03 2.649468297264e-04 0.0 
2.649468297264e-04 9.331210879792e-03 0.0 
0.0 0.0 0.0 
-1.094492004783e-03 3.314465389481e-03 0.0 
3.314465389481e-03 4.341779218522e-03 0.0 
0.0 0.0 0.0 
-1.589044075731e-03 2.266425104841e-04 0.0 
2.266425104841e-04 9.335623712715e-03 0.0 
0.0 0.0 0.0 
-4.255102908688e-04 5.728489992146e-04 0.0 
5.728489992146e-04 1.146855150671e-02 0.0 
0.0 0.0 0.0 
-1.154597607058e-03 -3.297835770565e-04 0.0 
-3.297835770565e-04 4.254600985955e-03 0.0 
0.0 0.0 0.0 
-1.084546648258e-03 2.757805058113e-03 0.0 
2.757805058113e-03 4.658139282905e-03 0.0 
0.0 0.0 0.0 
-3.581426903300e-04 -2.083238899023e-04 0.0 
-2.083238899023e-04 5.716224785167e-03 0.0 
0.0 0.0 0.0 
-1.739350579726e-03 8.457037980818e-04 0.0 
8.457037980818e-04 9.443054381504e-03 0.0 
0.0 0.0 0.0 
-2.039978158267e-04 -3.251550079873e-04 0.0 
-3.251550079873e-04 5.741625207069e-03 0.0 
0.0 0.0 0.0 
-2.655113682624e-04 4.681470950466e-04 0.0 
4.681470950466e-04 1.158938098349e-02 0.0 
0.0 0.0 0.0 
-1.766179736136e-03 4.856889571289e-04 0.0 
4.856889571289e-04 9.173840417153e-03 0.0 
0.0 0.0 0.0 
1.407629472679e-03 1.711588463481e-03 0.0 
1.711588463481e-03 -3.809019719496e-03 0.0 
0.0 0.0 0.0 
2.715581472652e-04 -1.456047485332e-04 0.0 
-1.456047485332e-04 1.309935123171e-03 0.0 
0.0 0.0 0.0 
-2.228330544636e-04 -2.637227115734e-04 0.0 
-2.637227115734e-04 1.559099754775e-03 0.0 
0.0 0.0 0.0 
-5.121170368533e-04 5.513250783904e-04 0.0 
5.513250783904e-04 1.147278674379e-02 0.0 
0.0 0.0 0.0 
-1.413878646674e-03 2.164478341413e-03 0.0 
2.164478341413e-03 5.919124988508e-03 0.0 
0.0 0.0 0.0 
-1.582106298700e-03 2.470701518109e-03 0.0 
2.470701518109e-03 5.835445431869e-03 0.0 
0.0 0.0 0.0 
1.205098652374e-03 4.814699791898e-04 0.0 
4.814699791898e-04 2.787676406255e-03 0.0 
0.0 0.0 0.0 
-1.697808890340e-03 1.251101531671e-03 0.0 
1.251101531671e-03 9.509868877438e-03 0.0 
0.0 0.0 0.0 
-1.126968168314e-03 -3.767620696808e-04 0.0 
-3.767620696808e-04 4.288363381298e-03 0.0 
0.0 0.0 0.0 
-2.077864729411e-03 9.893975380447e-04 0.0 
9.893975380447e-04 8.580956418378e-03 0.0 
0.0 0.0 0.0 
3.815454877965e-04 3.338321815815e-03 0.0 
3.338321815815e-03 6.153560902418e-03 0.0 
0.0 0.0 0.0 
-1.872655842670e-03 1.321836558980e-03 0.0 
1.321836558980e-03 9.504109348950e-03 0.0 
0.0 0.0 0.0 
9.912944682728e-04 4.080539645040e-04 0.0 
4.080539645040e-04 3.214561362540e-03 0.0 
0.0 0.0 0.0 
1.566583353952e-03 -3.197642971423e-03 0.0 
-3.197642971423e-03 -2.667892153814e-03 0.0 
0.0 0.0 0.0 
1.285155437978e-04 -4.503334417191e-04 0.0 
-4.503334417191e-04 3.335466142429e-04 0.0 
0.0 0.0 0.0 
-5.286534586258e-04 2.919907748311e-03 0.0 
2.919907748311e-03 9.618959591811e-03 0.0 
0.0 0.0 0.0 
-8.065100734356e-04 -1.253987382035e-04 0.0 
-1.253987382035e-04 5.050885813437e-03 0.0 
0.0 0.0 0.0 
3.122175240753e-04 -5.564956489438e-04 0.0 
-5.564956489438e-04 4.243824494331e-03 0.0 
0.0 0.0 0.0 
-8.363241559084e-05 -5.746859698352e-04 0.0 
-5.746859698352e-04 5.425043916428e-03 0.0 
0.0 0.0 0.0 
-1.355694593985e-05 -6.724477531753e-04 0.0 
-6.724477531753e-04 5.418948527966e-03 0.0 
0.0 0.0 0.0 
9.034275190256e-04 1.969059290572e-03 0.0 
1.969059290572e-03 3.817977167749e-03 0.0 
0.0 0.0 0.0 
-1.511007693314e-03 6.438067404606e-05 0.0 
6.438067404606e-05 8.950270226098e-03 0.0 
0.0 0.0 0.0 
-1.439324029021e-03 1.472480236325e-04 0.0 
1.472480236325e-04 8.963367802530e-03 0.0 
0.0 0.0 0.0 
-1.871599144962e-03 2.085338677201e-03 0.0 
2.085338677201e-03 6.744298174304e-03 0.0 
0.0 0.0 0.0 
3.365824395094e-04 -2.262693225540e-04 0.0 
-2.262693225540e-04 4.021644469862e-03 0.0 
0.0 0.0 0.0 
-9.402257782328e-04 3.371757392260e-03 0.0 
3.371757392260e-03 3.217694841924e-03 0.0 
0.0 0.0 0.0 
-2.075970803178e-03 9.945056680521e-04 0.0 
9.945056680521e-04 8.587234929385e-03 0.0 
0.0 0.0 0.0 
-6.047141020453e-04 1.092824108767e-04 0.0 
1.092824108767e-04 1.139769915465e-02 0.0 
0.0 0.0 0.0 
-9.421864898779e-04 3.526557986158e-03 0.0 
3.526557986158e-03 3.231799856532e-03 0.0 
0.0 0.0 0.0 
1.554777385556e-03 -3.308383172897e-03 0.0 
-3.308383172897e-03 -3.350432303903e-03 0.0 
0.0 0.0 0.0 
-4.137402818835e-04 1.962266709029e-04 0.0 
1.962266709029e-04 1.140543282859e-02 0.0 
0.0 0.0 0.0 
-3.685691606946e-04 -2.700484097814e-03 0.0 
-2.700484097814e-03 -1.212523241257e-03 0.0 
0.0 0.0 0.0 
-1.883424113666e-03 7.091713831289e-04 0.0 
7.091713831289e-04 9.368933861589e-03 0.0 
0.0 0.0 0.0 
-1.722660820736e-03 2.288373354820e-03 0.0 
2.288373354820e-03 6.266227696017e-03 0.0 
0.0 0.0 0.0 
-2.542066695923e-04 -1.588307031770e-04 0.0 
-1.588307031770e-04 1.895245193773e-03 0.0 
0.0 0.0 0.0 
3.070448218073e-03 -2.764802832868e-03 0.0 
-2.764802832868e-03 -3.623215837588e-03 0.0 
0.0 0.0 0.0 
-1.668418652387e-03 1.828561924139e-03 0.0 
1.828561924139e-03 6.581501547545e-03 0.0 
0.0 0.0 0.0 
-3.603889200293e-04 2.295489105136e-03 0.0 
2.295489105136e-03 1.041910978880e-02 0.0 
0.0 0.0 0.0 
-9.171394708815e-04 -5.034256104166e-04 0.0 
-5.034256104166e-04 2.525585568040e-03 0.0 
0.0 0.0 0.0 
-6.536860210312e-04 -2.946923419604e-04 0.0 
-2.946923419604e-04 2.070311852678e-03 0.0 
0.0 0.0 0.0 
-7.888401865199e-04 -1.736442041667e-04 0.0 
-1.736442041667e-04 5.049554365387e-03 0.0 
0.0 0.0 0.0 
6.403971834259e-04 -4.291060410590e-04 0.0 
-4.291060410590e-04 7.527465341104e-04 0.0 
0.0 0.0 0.0 
-3.089363589126e-04 4.435494406689e-04 0.0 
4.435494406689e-04 1.158973337440e-02 0.0 
0.0 0.0 0.0 
-1.174380144293e-03 -2.145960819097e-03 0.0 
-2.145960819097e-03 -3.128002198888e-03 0.0 
0.0 0.0 0.0 
9.253219820995e-04 2.844897050551e-03 0.0 
2.844897050551e-03 4.423416630292e-03 0.0 
0.0 0.0 0.0 
-6.998501555155e-05 3.670804528627e-03 0.0 
3.670804528627e-03 3.250643766288e-03 0.0 
0.0 0.0 0.0 
3.012181692558e-03 -2.829957621089e-03 0.0 
-2.829957621089e-03 -3.120351475980e-03 0.0 
0.0 0.0 0.0 
-2.951350562328e-04 -4.313211397228e-04 0.0 
-4.313211397228e-04 5.531393992983e-03 0.0 
0.0 0.0 0.0 
-1.566180309896e-03 1.972004178104e-03 0.0 
1.972004178104e-03 6.265809368132e-03 0.0 
0.0 0.0 0.0 
4.338773469124e-04 -7.122117979598e-04 0.0 
-7.122117979598e-04 -4.879901968493e-03 0.0 
0.0 0.0 0.0 
-5.263241714356e-04 3.041645343332e-03 0.0 
3.041645343332e-03 9.337839801547e-03 0.0 
0.0 0.0 0.0 
-1.019255299402e-04 -2.206257784881e-03 0.0 
-2.206257784881e-03 5.268676905674e-04 0.0 
0.0 0.0 0.0 
-7.309341293671e-05 3.272930064985e-03 0.0 
3.272930064985e-03 7.869670523015e-03 0.0 
0.0 0.0 0.0 
-9.803242224564e-04 -5.286452616133e-04 0.0 
-5.286452616133e-04 4.310018493593e-03 0.0 
0.0 0.0 0.0 
0.0 1.588099052359e-03 0.0 
1.588099052359e-03 1.128550749489e-02 0.0 
0.0 0.0 0.0 
3.509350185609e-04 3.107075370804e-03 0.0 
3.107075370804e-03 5.768395902024e-03 0.0 
0.0 0.0 0.0 
1.575153906129e-03 -9.922559594800e-05 0.0 
-9.922559594800e-05 -1.893974657134e-04 0.0 
0.0 0.0 0.0 
-1.120325555805e-03 -5.584435439245e-04 0.0 
-5.584435439245e-04 2.721232277025e-03 0.0 
0.0 0.0 0.0 
-5.381665030936e-04 1.192721857966e-03 0.0 
1.192721857966e-03 1.129535261337e-02 0.0 
0.0 0.0 0.0 
-6.154105219907e-04 2.479206431922e-03 0.0 
2.479206431922e-03 1.028714723895e-02 0.0 
0.0 0.0 0.0 
-7.383800920850e-04 3.722307377975e-03 0.0 
3.722307377975e-03 1.880022021174e-03 0.0 
0.0 0.0 0.0 
1.499575691344e-04 -4.034277761685e-04 0.0 
-4.034277761685e-04 9.745263550818e-04 0.0 
0.0 0.0 0.0 
-6.334332223084e-04 3.705524465719e-03 0.0 
3.705524465719e-03 1.879263679933e-03 0.0 
0.0 0.0 0.0 
-1.626841850781e-04 -2.468734378276e-03 0.0 
-2.468734378276e-03 5.676492041748e-04 0.0 
0.0 0.0 0.0 
-1.695592201909e-03 4.272049510601e-04 0.0 
4.272049510601e-04 9.216564261445e-03 0.0 
0.0 0.0 0.0 
-1.465338805428e-03 2.704862775413e-03 0.0 
2.704862775413e-03 5.408077963319e-03 0.0 
0.0 0.0 0.0 
-1.312313975040e-03 2.245387338195e-03 0.0 
2.245387338195e-03 5.551556539627e-03 0.0 
0.0 0.0 0.0 
-1.633534877007e-03 3.387950157846e-04 0.0 
3.387950157846e-04 9.521481601404e-03 0.0 
0.0 0.0 0.0 
-1.493412404609e-03 3.598946790997e-04 0.0 
3.598946790997e-04 9.521263395473e-03 0.0 
0.0 0.0 0.0 
-9.892663843820e-04 -3.197808090493e-04 0.0 
-3.197808090493e-04 4.563127727543e-03 0.0 
0.0 0.0 0.0 
-8.931753583776e-04 -2.824131487761e-05 0.0 
-2.824131487761e-05 4.960621578758e-03 0.0 
0.0 0.0 0.0 
-1.040949016755e-03 2.740097797664e-03 0.0 
2.740097797664e-03 8.570719556185e-03 0.0 
0.0 0.0 0.0 
-1.697913918399e-03 3.434106260352e-04 0.0 
3.434106260352e-04 9.302161965437e-03 0.0 
0.0 0.0 0.0 
-3.551759857301e-04 -5.573550043899e-04 0.0 
-5.573550043899e-04 5.920697432797e-04 0.0 
0.0 0.0 0.0 
-2.015977410173e-03 1.115245059999e-03 0.0 
1.115245059999e-03 8.931269922874e-03 0.0 
0.0 0.0 0.0 
-9.445077466419e-04 1.403332392842e-04 0.0 
1.403332392842e-04 1.072068667622e-02 0.0 
0.0 0.0 0.0 
-1.055315229755e-03 2.250059153097e-04 0.0 
2.250059153097e-04 1.066858844849e-02 0.0 
0.0 0.0 0.0 
-3.408805252976e-04 1.737489194846e-03 0.0 
1.737489194846e-03 1.122648063405e-02 0.0 
0.0 0.0 0.0 
5.138155564970e-04 2.166274659953e-03 0.0 
2.166274659953e-03 4.499314420792e-03 0.0 
0.0 0.0 0.0 
-1.809891441114e-03 5.011399941825e-04 0.0 
5.011399941825e-04 9.196945824784e-03 0.0 
0.0 0.0 0.0 
5.017428454026e-04 -3.812241293427e-04 0.0 
-3.812241293427e-04 4.151019438013e-03 0.0 
0.0 0.0 0.0 
-1.254652873941e-03 2.910612756355e-05 0.0 
2.910612756355e-05 9.897120291655e-03 0.0 
0.0 0.0 0.0 
-5.552398077552e-04 3.657979539613e-03 0.0 
3.657979539613e-03 4.087053903491e-03 0.0 
0.0 0.0 0.0 
-1.659882476431e-03 2.558557401500e-04 0.0 
2.558557401500e-04 9.139764378845e-03 0.0 
0.0 0.0 0.0 
-2.288347566995e-04 -3.117197389487e-04 0.0 
-3.117197389487e-04 5.740809479367e-03 0.0 
0.0 0.0 0.0 
1.935455819481e-03 2.594058492779e-03 0.0 
2.594058492779e-03 2.383480773493e-03 0.0 
0.0 0.0 0.0 
9.086674819923e-04 2.714646188495e-03 0.0 
2.714646188495e-03 4.444237693642e-03 0.0 
0.0 0.0 0.0 
8.456451805561e-04 3.983770200721e-03 0.0 
3.983770200721e-03 1.636186339897e-03 0.0 
0.0 0.0 0.0 
-4.077059497545e-04 -3.942114071089e-03 0.0 
-3.942114071089e-03 -1.443124956486e-03 0.0 
0.0 0.0 0.0 
-5.495014767332e-04 -2.343230428593e-04 0.0 
-2.343230428593e-04 5.415437412311e-03 0.0 
0.0 0.0 0.0 
-9.139144601962e-04 2.501283764058e-04 0.0 
2.501283764058e-04 1.095179499504e-02 0.0 
0.0 0.0 0.0 
-1.256923736119e-03 -3.527859670531e-03 0.0 
-3.527859670531e-03 -1.897985739539e-03 0.0 
0.0 0.0 0.0 
-8.358890417659e-05 -5.433635047670e-04 0.0 
-5.433635047670e-04 5.362705824146e-03 0.0 
0.0 0.0 0.0 
-9.460678625051e-04 2.744543260313e-03 0.0 
2.744543260313e-03 8.104339595631e-03 0.0 
0.0 0.0 0.0 
2.000726957820e-03 1.042748885120e-04 0.0 
1.042748885120e-04 -5.064819975658e-04 0.0 
0.0 0.0 0.0 
1.810175890690e-03 3.808299591131e-03 0.0 
3.808299591131e-03 5.131364782289e-04 0.0 
0.0 0.0 0.0 
-2.163354486456e-03 1.531031216842e-03 0.0 
1.531031216842e-03 8.162386893559e-03 0.0 
0.0 0.0 0.0 
-1.200854161519e-03 -8.569106973706e-04 0.0 
-8.569106973706e-04 2.975687652435e-03 0.0 
0.0 0.0 0.0 
-3.405863146443e-04 3.495842978083e-03 0.0 
3.495842978083e-03 3.433779529647e-03 0.0 
0.0 0.0 0.0 
2.391939125390e-05 3.819071001097e-03 0.0 
3.819071001097e-03 3.239402275912e-03 0.0 
0.0 0.0 0.0 
1.356417238363e-04 -5.248342744613e-04 0.0 
-5.248342744613e-04 4.640122362029e-03 0.0 
0.0 0.0 0.0 
-1.292996434072e-03 9.867733389240e-05 0.0 
9.867733389240e-05 9.780079149329e-03 0.0 
0.0 0.0 0.0 
2.942222254805e-04 3.829302580554e-03 0.0 
3.829302580554e-03 2.451928909177e-03 0.0 
0.0 0.0 0.0 
-1.230271378386e-04 -1.524837706958e-03 0.0 
-1.524837706958e-03 8.707400936485e-04 0.0 
0.0 0.0 0.0 
-2.043739590126e-03 1.250619482472e-03 0.0 
1.250619482472e-03 8.727936828577e-03 0.0 
0.0 0.0 0.0 
-7.681439814800e-04 1.745582717210e-04 0.0 
1.745582717210e-04 1.097581274953e-02 0.0 
0.0 0.0 0.0 
4.039187232514e-04 3.870038782804e-03 0.0 
3.870038782804e-03 2.449908679110e-03 0.0 
0.0 0.0 0.0 
-8.139551281016e-04 3.794437191169e-03 0.0 
3.794437191169e-03 3.428731214348e-04 0.0 
0.0 0.0 0.0 
-2.063757430305e-03 1.760266900891e-03 0.0 
1.760266900891e-03 7.455125357711e-03 0.0 
0.0 0.0 0.0 
-1.183762075852e-03 -8.493499750523e-04 0.0 
-8.493499750523e-04 2.954935400136e-03 0.0 
0.0 0.0 0.0 
-1.860618009973e-03 1.564009064158e-03 0.0 
1.564009064158e-03 7.242149762127e-03 0.0 
0.0 0.0 0.0 
-2.944553168498e-04 1.377895684012e-03 0.0 
1.377895684012e-03 1.127908672214e-02 0.0 
0.0 0.0 0.0 
5.503198975774e-04 4.426289603481e-03 0.0 
4.426289603481e-03 -9.771960783559e-04 0.0 
0.0 0.0 0.0 
-1.021542187086e-03 -4.833331259202e-04 0.0 
-4.833331259202e-04 4.334066059741e-03 0.0 
0.0 0.0 0.0 
-4.036592899554e-04 3.404144125074e-04 0.0 
3.404144125074e-04 1.152146229502e-02 0.0 
0.0 0.0 0.0 
-1.031031788811e-03 3.057038347237e-03 0.0 
3.057038347237e-03 5.326920683989e-03 0.0 
0.0 0.0 0.0 
-1.985192999541e-03 1.899381976798e-03 0.0 
1.899381976798e-03 7.105801428497e-03 0.0 
0.0 0.0 0.0 
3.836010342064e-04 -4.581613823897e-04 0.0 
-4.581613823897e-04 4.245793451186e-03 0.0 
0.0 0.0 0.0 
-3.555447273268e-04 -2.306836152215e-04 0.0 
-2.306836152215e-04 5.720468165960e-03 0.0 
0.0 0.0 0.0 
-9.147065226857e-04 -3.989411604088e-04 0.0 
-3.989411604088e-04 4.560970386517e-03 0.0 
0.0 0.0 0.0 
-1.223461020501e-03 3.135048019275e-03 0.0 
3.135048019275e-03 5.907385907006e-03 0.0 
0.0 0.0 0.0 
8.325879236522e-04 2.636211516086e-04 0.0 
2.636211516086e-04 3.735573969633e-03 0.0 
0.0 0.0 0.0 
-1.366727235962e-03 2.649341881210e-03 0.0 
2.649341881210e-03 5.926109655248e-03 0.0 
0.0 0.0 0.0 
-2.879816767781e-04 9.312950302115e-04 0.0 
9.312950302115e-04 1.143378213138e-02 0.0 
0.0 0.0 0.0 
-1.540507210746e-04 3.438641307977e-03 0.0 
3.438641307977e-03 8.062701067680e-03 0.0 
0.0 0.0 0.0 
-1.877950710498e-03 8.721076889394e-04 0.0 
8.721076889394e-04 9.449676043247e-03 0.0 
0.0 0.0 0.0 
-1.180145530976e-03 3.201739668492e-04 0.0 
3.201739668492e-04 1.032082695851e-02 0.0 
0.0 0.0 0.0 
-1.372964977995e-03 2.993658728554e-03 0.0 
2.993658728554e-03 5.911642284427e-03 0.0 
0.0 0.0 0.0 
-1.771315592255e-03 1.671500902728e-03 0.0 
1.671500902728e-03 6.867137871190e-03 0.0 
0.0 0.0 0.0 
-8.852806285816e-04 3.194715702533e-03 0.0 
3.194715702533e-03 5.331664012268e-03 0.0 
0.0 0.0 0.0 
1.213341723374e-03 3.989302314120e-03 0.0 
3.989302314120e-03 1.480243599604e-03 0.0 
0.0 0.0 0.0 
-1.543236507252e-03 1.631206544687e-04 0.0 
1.631206544687e-04 9.192966600920e-03 0.0 
0.0 0.0 0.0 
2.225192360821e-03 3.777889029928e-03 0.0 
3.777889029928e-03 5.153052787330e-04 0.0 
0.0 0.0 0.0 
4.404896512122e-05 -4.130905482136e-04 0.0 
-4.130905482136e-04 3.888049382919e-04 0.0 
0.0 0.0 0.0 
-1.362894725537e-03 5.492531707600e-05 0.0 
5.492531707600e-05 9.480499069784e-03 0.0 
0.0 0.0 0.0 
2.779845119523e-04 -1.648013943888e-04 0.0 
-1.648013943888e-04 1.025484851399e-03 0.0 
0.0 0.0 0.0 
-2.115691769339e-03 1.643587386658e-03 0.0 
1.643587386658e-03 7.800548694457e-03 0.0 
0.0 0.0 0.0 
4.544572220233e-04 1.718509660422e-04 0.0 
1.718509660422e-04 3.749710007658e-03 0.0 
0.0 0.0 0.0 
6.450240121794e-04 3.936379212638e-03 0.0 
3.936379212638e-03 1.639962002471e-03 0.0 
0.0 0.0 0.0 
-9.306597622494e-04 -2.052586379737e-04 0.0 
-2.052586379737e-04 4.786872259239e-03 0.0 
0.0 0.0 0.0 
-1.102254241884e-03 3.303740566329e-03 0.0 
3.303740566329e-03 3.857014096417e-03 0.0 
0.0 0.0 0.0 
1.790574797543e-03 2.795247713526e-03 0.0 
2.795247713526e-03 2.365587318996e-03 0.0 
0.0 0.0 0.0 
-1.398357945111e-03 9.044169102022e-05 0.0 
9.044169102022e-05 9.227345234585e-03 0.0 
0.0 0.0 0.0 
2.422807475565e-03 3.828563535278e-03 0.0 
3.828563535278e-03 -3.618989887400e-04 0.0 
0.0 0.0 0.0 
-7.136882042228e-04 -2.580476862155e-04 0.0 
-2.580476862155e-04 5.118356348558e-03 0.0 
0.0 0.0 0.0 
-4.456359052425e-04 -1.697744605862e-03 0.0 
-1.697744605862e-03 9.062898798937e-04 0.0 
0.0 0.0 0.0 
-5.252167900788e-04 -2.336674463094e-04 0.0 
-2.336674463094e-04 5.415300335604e-03 0.0 
0.0 0.0 0.0 
-1.835503862875e-03 2.000623590007e-03 0.0 
2.000623590007e-03 7.806040541910e-03 0.0 
0.0 0.0 0.0 
-2.289571590905e-04 -5.536799343337e-04 0.0 
-5.536799343337e-04 5.434299328088e-03 0.0 
0.0 0.0 0.0 
-1.360960679170e-03 3.982824661787e-05 0.0 
3.982824661787e-05 9.198612551163e-03 0.0 
0.0 0.0 0.0 
1.359342827788e-03 3.958400075233e-03 0.0 
3.958400075233e-03 6.320778391755e-04 0.0 
0.0 0.0 0.0 
-1.987272734756e-03 1.384863742724e-03 0.0 
1.384863742724e-03 7.895790407883e-03 0.0 
0.0 0.0 0.0 
-1.236519743454e-03 -2.412641237796e-04 0.0 
-2.412641237796e-04 4.206226494182e-03 0.0 
0.0 0.0 0.0 
-1.037197719798e-03 3.209102216178e-03 0.0 
3.209102216178e-03 3.829292359098e-03 0.0 
0.0 0.0 0.0 
2.826822366052e-03 3.580479024724e-03 0.0 
3.580479024724e-03 -3.301256969334e-04 0.0 
0.0 0.0 0.0 
-1.152868614561e-03 2.438890592416e-04 0.0 
2.438890592416e-04 1.049946185003e-02 0.0 
0.0 0.0 0.0 
-1.428167351872e-03 1.237930392873e-04 0.0 
1.237930392873e-04 9.197704582923e-03 0.0 
0.0 0.0 0.0 
1.625015431856e-03 3.896718951672e-03 0.0 
3.896718951672e-03 5.175562187525e-04 0.0 
0.0 0.0 0.0 
-1.943179070886e-03 1.460830179842e-03 0.0 
1.460830179842e-03 7.568209578639e-03 0.0 
0.0 0.0 0.0 
-2.698632901836e-04 3.167690412681e-03 0.0 
3.167690412681e-03 7.151074874539e-03 0.0 
0.0 0.0 0.0 
-1.203285444449e-03 -9.423881367799e-04 0.0 
-9.423881367799e-04 3.064042447358e-03 0.0 
0.0 0.0 0.0 
2.759138564929e-04 3.111404128754e-03 0.0 
3.111404128754e-03 5.903864098721e-03 0.0 
0.0 0.0 0.0 
-8.504182212532e-05 3.472820865673e-03 0.0 
3.472820865673e-03 7.657022174663e-03 0.0 
0.0 0.0 0.0 
-8.147174716960e-04 3.510728410374e-03 0.0 
3.510728410374e-03 4.291267833092e-03 0.0 
0.0 0.0 0.0 
-1.307891604709e-03 -7.709456324967e-04 0.0 
-7.709456324967e-04 3.321572857581e-03 0.0 
0.0 0.0 0.0 
1.731291095011e-03 8.806823286780e-04 0.0 
8.806823286780e-04 2.107104238497e-03 0.0 
0.0 0.0 0.0 
-1.672762373734e-03 2.566251989529e-03 0.0 
2.566251989529e-03 6.403356859177e-03 0.0 
0.0 0.0 0.0 
-6.349482534190e-04 3.221518355990e-03 0.0 
3.221518355990e-03 3.710100056866e-03 0.0 
0.0 0.0 0.0 
-1.950819663266e-03 1.658249973295e-03 0.0 
1.658249973295e-03 8.023027953485e-03 0.0 
0.0 0.0 0.0 
1.458337545898e-03 3.932392707917e-03 0.0 
3.932392707917e-03 1.433860558840e-03 0.0 
0.0 0.0 0.0 
-2.722050395236e-04 6.920626969820e-04 0.0 
6.920626969820e-04 1.149721440905e-02 0.0 
0.0 0.0 0.0 
-1.131180073132e-03 2.432773644473e-03 0.0 
2.432773644473e-03 8.856219387109e-03 0.0 
0.0 0.0 0.0 
-6.415049895337e-04 -1.335388689451e-04 0.0 
-1.335388689451e-04 5.332844711055e-03 0.0 
0.0 0.0 0.0 
-8.250003029495e-04 3.684672763056e-03 0.0 
3.684672763056e-03 2.550414102068e-03 0.0 
0.0 0.0 0.0 
3.365741172365e-03 3.271731689569e-03 0.0 
3.271731689569e-03 -1.133303720126e-03 0.0 
0.0 0.0 0.0 
-9.374037871092e-04 2.647092719085e-03 0.0 
2.647092719085e-03 8.592860195398e-03 0.0 
0.0 0.0 0.0 
-3.240912774782e-03 2.432513627776e-03 0.0 
2.432513627776e-03 -2.230553433018e-03 0.0 
0.0 0.0 0.0 
-1.609163194504e-03 2.197114859903e-03 0.0 
2.197114859903e-03 6.410393270633e-03 0.0 
0.0 0.0 0.0 
1.980063935269e-03 1.094726212159e-04 0.0 
1.094726212159e-04 1.273240792402e-03 0.0 
0.0 0.0 0.0 
8.760238522922e-04 -4.828033075126e-04 0.0 
-4.828033075126e-04 3.880116458972e-04 0.0 
0.0 0.0 0.0 
-4.878129533187e-04 2.611234289284e-03 0.0 
2.611234289284e-03 9.963894592731e-03 0.0 
0.0 0.0 0.0 
-1.555968518408e-03 1.734438975073e-03 0.0 
1.734438975073e-03 9.393137078548e-03 0.0 
0.0 0.0 0.0 
1.181373955704e-03 -2.425362305077e-03 0.0 
-2.425362305077e-03 1.891266161211e-04 0.0 
0.0 0.0 0.0 
2.167928604050e-03 3.735769457186e-04 0.0 
3.735769457186e-04 1.255066038080e-03 0.0 
0.0 0.0 0.0 
-2.031710369802e-03 1.320466455806e-03 0.0 
1.320466455806e-03 9.040283446615e-03 0.0 
0.0 0.0 0.0 
-1.908168281610e-03 1.122923769309e-03 0.0 
1.122923769309e-03 9.514022732840e-03 0.0 
0.0 0.0 0.0 
8.784573503680e-04 2.799253278183e-04 0.0 
2.799253278183e-04 3.183008553086e-03 0.0 
0.0 0.0 0.0 
1.513331036576e-04 -2.325502559558e-03 0.0 
-2.325502559558e-03 9.933281095134e-04 0.0 
0.0 0.0 0.0 
-4.550424314730e-04 3.467437198533e-03 0.0 
3.467437198533e-03 4.647411817242e-03 0.0 
0.0 0.0 0.0 
-1.663473411325e-03 2.338187315503e-03 0.0 
2.338187315503e-03 7.515220923584e-03 0.0 
0.0 0.0 0.0 
-1.622701795422e-03 1.728888847687e-03 0.0 
1.728888847687e-03 9.684294156462e-03 0.0 
0.0 0.0 0.0 
-1.998112232499e-03 2.074650070965e-03 0.0 
2.074650070965e-03 8.190566575144e-03 0.0 
0.0 0.0 0.0 
-2.081064955912e-03 1.870310322274e-03 0.0 
1.870310322274e-03 8.024233140985e-03 0.0 
0.0 0.0 0.0 
2.741133421763e-03 2.548555363255e-03 0.0 
2.548555363255e-03 8.174205614544e-04 0.0 
0.0 0.0 0.0 
-5.066713284935e-04 3.093219884609e-03 0.0 
3.093219884609e-03 7.467860035578e-03 0.0 
0.0 0.0 0.0 
-1.206757086332e-03 2.305024937879e-03 0.0 
2.305024937879e-03 -2.883130701477e-03 0.0 
0.0 0.0 0.0 
-8.366893825202e-04 3.185687615272e-03 0.0 
3.185687615272e-03 4.251559931232e-03 0.0 
0.0 0.0 0.0 
-6.212515682943e-04 3.342472175579e-03 0.0 
3.342472175579e-03 4.138905169736e-03 0.0 
0.0 0.0 0.0 
-7.906440674998e-04 3.438462383870e-03 0.0 
3.438462383870e-03 5.298074989673e-03 0.0 
0.0 0.0 0.0 
-1.211708890226e-03 2.419515055641e-03 0.0 
2.419515055641e-03 9.247356632086e-03 0.0 
0.0 0.0 0.0 
3.020127672037e-03 3.149495504042e-03 0.0 
3.149495504042e-03 -4.086277430051e-03 0.0 
0.0 0.0 0.0 
1.986645029057e-03 -2.899962723167e-04 0.0 
-2.899962723167e-04 9.794985968741e-04 0.0 
0.0 0.0 0.0 
-1.472794875326e-03 8.184092237506e-05 0.0 
8.184092237506e-05 9.178794191460e-03 0.0 
0.0 0.0 0.0 
2.978212369523e-03 3.664674256776e-03 0.0 
3.664674256776e-03 -1.186714472211e-03 0.0 
0.0 0.0 0.0 
1.893838514972e-03 -6.931143868569e-04 0.0 
-6.931143868569e-04 8.064971602004e-04 0.0 
0.0 0.0 0.0 
6.059328225794e-04 -4.121879392654e-04 0.0 
-4.121879392654e-04 2.472539231142e-04 0.0 
0.0 0.0 0.0 
-1.355507630692e-03 1.892712497438e-03 0.0 
1.892712497438e-03 9.590899296640e-03 0.0 
0.0 0.0 0.0 
8.739703565468e-04 -4.796504788263e-04 0.0 
-4.796504788263e-04 -3.220441063467e-05 0.0 
0.0 0.0 0.0 
4.857993389134e-04 -4.195399273569e-04 0.0 
-4.195399273569e-04 5.457710325443e-04 0.0 
0.0 0.0 0.0 
-7.192700802983e-04 3.563438312174e-03 0.0 
3.563438312174e-03 2.544212910599e-03 0.0 
0.0 0.0 0.0 
-1.128834511366e-05 -2.193913611089e-03 0.0 
-2.193913611089e-03 1.005297655289e-03 0.0 
0.0 0.0 0.0 
-1.410821178532e-03 1.873605220979e-03 0.0 
1.873605220979e-03 9.889965222148e-03 0.0 
0.0 0.0 0.0 
7.326985242750e-05 -2.242294284975e-03 0.0 
-2.242294284975e-03 7.327058799467e-04 0.0 
0.0 0.0 0.0 
7.919494559145e-04 4.058274398581e-03 0.0 
4.058274398581e-03 3.761806656877e-04 0.0 
0.0 0.0 0.0 
1.544295928787e-03 -3.604067475269e-03 0.0 
-3.604067475269e-03 -1.875469076432e-03 0.0 
0.0 0.0 0.0 
-3.804039007147e-04 -1.644134622900e-03 0.0 
-1.644134622900e-03 1.007535806556e-03 0.0 
0.0 0.0 0.0 
2.012561577836e-03 7.246976838817e-04 0.0 
7.246976838817e-04 1.619588907555e-03 0.0 
0.0 0.0 0.0 
-1.941677236732e-03 2.214533666350e-03 0.0 
2.214533666350e-03 7.797773856321e-03 0.0 
0.0 0.0 0.0 
-2.861610363354e-04 -4.103021933465e-04 0.0 
-4.103021933465e-04 5.532545625431e-03 0.0 
0.0 0.0 0.0 
-1.158550371308e-03 1.087215605955e-03 0.0 
1.087215605955e-03 -4.379404113174e-03 0.0 
0.0 0.0 0.0 
1.391804190678e-03 4.103494350361e-03 0.0 
4.103494350361e-03 4.630744655953e-05 0.0 
0.0 0.0 0.0 
3.135254244996e-03 3.520738899018e-03 0.0 
3.520738899018e-03 -1.138337089123e-03 0.0 
0.0 0.0 0.0 
-1.428628451374e-03 2.381246864811e-03 0.0 
2.381246864811e-03 5.944931193065e-03 0.0 
0.0 0.0 0.0 
2.237454257461e-03 -2.873387617949e-05 0.0 
-2.873387617949e-05 9.612803491372e-04 0.0 
0.0 0.0 0.0 
-1.449800631115e-04 -5.653852812767e-04 0.0 
-5.653852812767e-04 5.355329087907e-03 0.0 
0.0 0.0 0.0 
-1.431285358628e-03 2.301581483307e-03 0.0 
2.301581483307e-03 9.064715002217e-03 0.0 
0.0 0.0 0.0 
3.573293074985e-03 3.013404051101e-03 0.0 
3.013404051101e-03 -1.904548826007e-03 0.0 
0.0 0.0 0.0 
1.876903668032e-03 5.096557125265e-04 0.0 
5.096557125265e-04 1.621070068373e-03 0.0 
0.0 0.0 0.0 
-1.059073785744e-03 -2.482359386597e-04 0.0 
-2.482359386597e-04 4.521422247052e-03 0.0 
0.0 0.0 0.0 
-1.065184304695e-03 3.244319473460e-03 0.0 
3.244319473460e-03 5.946697912532e-03 0.0 
0.0 0.0 0.0 
-1.442403538943e-03 1.969621059226e-03 0.0 
1.969621059226e-03 9.260116614907e-03 0.0 
0.0 0.0 0.0 
5.616638620307e-04 2.892303907751e-03 0.0 
2.892303907751e-03 5.109985762834e-03 0.0 
0.0 0.0 0.0 
3.525425747481e-03 3.159849941048e-03 0.0 
3.159849941048e-03 -1.087404485761e-03 0.0 
0.0 0.0 0.0 
7.040191505803e-04 3.975901793907e-03 0.0 
3.975901793907e-03 1.158601693888e-03 0.0 
0.0 0.0 0.0 
-1.848681300515e-03 2.244160461433e-03 0.0 
2.244160461433e-03 8.353469318981e-03 0.0 
0.0 0.0 0.0 
-2.661383271281e-04 1.581889679048e-03 0.0 
1.581889679048e-03 1.133560612018e-02 0.0 
0.0 0.0 0.0 
-3.048745255102e-04 3.639350403797e-03 0.0 
3.639350403797e-03 4.625151001624e-03 0.0 
0.0 0.0 0.0 
3.874328474977e-03 2.392396333890e-03 0.0 
2.392396333890e-03 -1.341381757031e-03 0.0 
0.0 0.0 0.0 
-1.402198758617e-03 1.309217447836e-04 0.0 
1.309217447836e-04 9.555363202242e-03 0.0 
0.0 0.0 0.0 
-2.922843029707e-04 -2.642569588939e-03 0.0 
-2.642569588939e-03 3.403347712048e-04 0.0 
0.0 0.0 0.0 
-1.870491667992e-03 1.884745437187e-03 0.0 
1.884745437187e-03 8.219745230810e-03 0.0 
0.0 0.0 0.0 
3.169368510990e-03 3.591669255897e-03 0.0 
3.591669255897e-03 -1.989477960833e-03 0.0 
0.0 0.0 0.0 
3.424061828859e-03 2.834505114663e-03 0.0 
2.834505114663e-03 -3.844109108616e-03 0.0 
0.0 0.0 0.0 
2.907220093900e-03 -3.190297649098e-03 0.0 
-3.190297649098e-03 -4.296176184912e-03 0.0 
0.0 0.0 0.0 
-1.250374596697e-03 1.820250635182e-03 0.0 
1.820250635182e-03 9.896171545170e-03 0.0 
0.0 0.0 0.0 
-1.816783052128e-03 2.398260169665e-03 0.0 
2.398260169665e-03 7.936201006338e-03 0.0 
0.0 0.0 0.0 
9.074609708619e-04 3.891447830428e-03 0.0 
3.891447830428e-03 1.497953943156e-03 0.0 
0.0 0.0 0.0 
-1.291851519851e-03 1.791871623750e-03 0.0 
1.791871623750e-03 1.017980238964e-02 0.0 
0.0 0.0 0.0 
-1.245345015566e-03 2.521512290461e-03 0.0 
2.521512290461e-03 8.839341258244e-03 0.0 
0.0 0.0 0.0 
-1.281973571440e-03 3.052271443559e-03 0.0 
3.052271443559e-03 6.544131836794e-03 0.0 
0.0 0.0 0.0 
5.337959520846e-06 -5.731898416558e-04 0.0 
-5.731898416558e-04 5.016699844491e-03 0.0 
0.0 0.0 0.0 
3.868470471849e-03 2.258019838249e-03 0.0 
2.258019838249e-03 -1.731341737855e-03 0.0 
0.0 0.0 0.0 
-1.451441195489e-03 2.868713681268e-03 0.0 
2.868713681268e-03 7.104198167306e-03 0.0 
0.0 0.0 0.0 
1.633133533464e-03 3.782458944293e-03 0.0 
3.782458944293e-03 1.450446343632e-03 0.0 
0.0 0.0 0.0 
3.568171648760e-03 2.330603548102e-03 0.0 
2.330603548102e-03 -8.550732166230e-04 0.0 
0.0 0.0 0.0 
3.886086668695e-03 2.584533447068e-03 0.0 
2.584533447068e-03 -3.653011155447e-03 0.0 
0.0 0.0 0.0 
-1.956398195760e-03 9.148007896824e-04 0.0 
9.148007896824e-04 9.009320244981e-03 0.0 
0.0 0.0 0.0 
4.080051354020e-03 2.599679379239e-03 0.0 
2.599679379239e-03 -1.720555842219e-03 0.0 
0.0 0.0 0.0 
4.047608047918e-03 -1.288256788574e-03 0.0 
-1.288256788574e-03 -3.577262683810e-03 0.0 
0.0 0.0 0.0 
-1.300441254347e-03 2.209788790199e-03 0.0 
2.209788790199e-03 9.080932141896e-03 0.0 
0.0 0.0 0.0 
-4.813242993078e-03 4.680221475826e-04 0.0 
4.680221475826e-04 -2.675337945972e-03 0.0 
0.0 0.0 0.0 
-2.010763387686e-03 1.946345596709e-03 0.0 
1.946345596709e-03 8.557776320830e-03 0.0 
0.0 0.0 0.0 
3.899421745018e-03 2.966175383963e-03 0.0 
2.966175383963e-03 -2.754722479806e-03 0.0 
0.0 0.0 0.0 
1.739692636086e-03 3.927482954272e-03 0.0 
3.927482954272e-03 6.908367932379e-05 0.0 
0.0 0.0 0.0 
3.944409615498e-03 1.516534917953e-03 0.0 
1.516534917953e-03 -3.472195248479e-03 0.0 
0.0 0.0 0.0 
-1.579294455060e-03 2.363987604267e-03 0.0 
2.363987604267e-03 8.107140167496e-03 0.0 
0.0 0.0 0.0 
-1.663844973481e-04 -1.104853283877e-03 0.0 
-1.104853283877e-03 7.380062719060e-04 0.0 
0.0 0.0 0.0 
-9.095866260170e-04 3.109310647311e-03 0.0 
3.109310647311e-03 4.815038495086e-03 0.0 
0.0 0.0 0.0 
3.533215649450e-03 2.214814550381e-03 0.0 
2.214814550381e-03 -1.125027112015e-03 0.0 
0.0 0.0 0.0 
-1.724353473419e-03 2.205928432773e-03 0.0 
2.205928432773e-03 7.968811250361e-03 0.0 
0.0 0.0 0.0 
-1.965488894755e-03 1.121623493831e-03 0.0 
1.121623493831e-03 9.192419016673e-03 0.0 
0.0 0.0 0.0 
2.247486536768e-03 2.291474188594e-03 0.0 
2.291474188594e-03 -4.598905349187e-03 0.0 
0.0 0.0 0.0 
4.455076608242e-03 -3.430823761441e-04 0.0 
-3.430823761441e-04 -3.725321580227e-03 0.0 
0.0 0.0 0.0 
3.546533758944e-03 -2.165865938424e-03 0.0 
-2.165865938424e-03 -3.339104836736e-03 0.0 
0.0 0.0 0.0 
-1.086571855257e-03 3.312034037419e-03 0.0 
3.312034037419e-03 4.937257846863e-03 0.0 
0.0 0.0 0.0 
-1.590092607164e-03 2.061953917797e-03 0.0 
2.061953917797e-03 9.244109955673e-03 0.0 
0.0 0.0 0.0 
-8.592689652254e-04 3.477646491176e-03 0.0 
3.477646491176e-03 4.759629438016e-03 0.0 
0.0 0.0 0.0 
4.198024164458e-03 2.658882900405e-03 0.0 
2.658882900405e-03 -2.470003787940e-03 0.0 
0.0 0.0 0.0 
3.668125146700e-03 3.227785850570e-03 0.0 
3.227785850570e-03 -1.916466595949e-03 0.0 
0.0 0.0 0.0 
2.485849525418e-03 1.805113903780e-03 0.0 
1.805113903780e-03 -3.607362603052e-03 0.0 
0.0 0.0 0.0 
1.910273581124e-03 3.680805122875e-03 0.0 
3.680805122875e-03 6.027867425142e-04 0.0 
0.0 0.0 0.0 
2.783392634518e-04 3.942223789026e-03 0.0 
3.942223789026e-03 7.398883468313e-04 0.0 
0.0 0.0 0.0 
-3.433261774872e-04 2.579078569097e-03 0.0 
2.579078569097e-03 1.050150930561e-02 0.0 
0.0 0.0 0.0 
-3.329183927397e-04 2.952599391733e-03 0.0 
2.952599391733e-03 9.989868593265e-03 0.0 
0.0 0.0 0.0 
1.594003333749e-05 3.646049467117e-03 0.0 
3.646049467117e-03 3.941914353594e-03 0.0 
0.0 0.0 0.0 
3.607562075856e-03 3.200922233669e-03 0.0 
3.200922233669e-03 -2.827776725026e-03 0.0 
0.0 0.0 0.0 
2.201804793742e-03 3.783124645820e-03 0.0 
3.783124645820e-03 -7.714751961545e-04 0.0 
0.0 0.0 0.0 
-1.145359389665e-03 2.956772116197e-03 0.0 
2.956772116197e-03 6.686035005702e-03 0.0 
0.0 0.0 0.0 
3.134617185435e-03 3.203098657260e-03 0.0 
3.203098657260e-03 -1.841974540250e-03 0.0 
0.0 0.0 0.0 
4.023412499029e-03 -1.287106444420e-03 0.0 
-1.287106444420e-03 -3.478391221941e-03 0.0 
0.0 0.0 0.0 
-1.117158278211e-03 3.004830109192e-03 0.0 
3.004830109192e-03 5.989693307435e-03 0.0 
0.0 0.0 0.0 
-5.253099336303e-04 1.024952731301e-03 0.0 
1.024952731301e-03 1.140671698605e-02 0.0 
0.0 0.0 0.0 
3.471974577673e-03 3.382254638439e-03 0.0 
3.382254638439e-03 -1.984256669922e-03 0.0 
0.0 0.0 0.0 
2.446368948883e-03 2.808111878872e-03 0.0 
2.808111878872e-03 7.872866837983e-04 0.0 
0.0 0.0 0.0 
1.066368514382e-03 4.086454761461e-03 0.0 
4.086454761461e-03 -4.459585828382e-04 0.0 
0.0 0.0 0.0 
5.447053210066e-04 7.841694308258e-04 0.0 
7.841694308258e-04 4.322311116910e-03 0.0 
0.0 0.0 0.0 
2.770969583135e-03 3.798026202733e-03 0.0 
3.798026202733e-03 -1.935688086920e-03 0.0 
0.0 0.0 0.0 
-7.378044553694e-04 3.296988827455e-03 0.0 
3.296988827455e-03 5.382775575533e-03 0.0 
0.0 0.0 0.0 
3.243749285849e-03 2.016601651030e-03 0.0 
2.016601651030e-03 -4.499642370686e-03 0.0 
0.0 0.0 0.0 
3.301076251682e-03 2.586014434191e-04 0.0 
2.586014434191e-04 -8.924601527164e-04 0.0 
0.0 0.0 0.0 
3.727266456786e-03 3.052213120052e-03 0.0 
3.052213120052e-03 -1.790426169071e-03 0.0 
0.0 0.0 0.0 
3.683530633626e-03 -1.894866875692e-03 0.0 
-1.894866875692e-03 -2.838856793610e-03 0.0 
0.0 0.0 0.0 
-1.727864760044e-03 2.557888716346e-03 0.0 
2.557888716346e-03 7.487311008751e-03 0.0 
0.0 0.0 0.0 
-1.889587189221e-04 3.443371546335e-03 0.0 
3.443371546335e-03 8.990859299516e-03 0.0 
0.0 0.0 0.0 
4.103286757203e-03 2.782983571751e-03 0.0 
2.782983571751e-03 -2.636876375487e-03 0.0 
0.0 0.0 0.0 
3.676997348263e-03 1.841175934770e-03 0.0 
1.841175934770e-03 -1.073143357505e-03 0.0 
0.0 0.0 0.0 
1.332649120007e-03 3.905261436031e-03 0.0 
3.905261436031e-03 -4.224512194227e-04 0.0 
0.0 0.0 0.0 
-1.506880351242e-03 9.677716749025e-04 0.0 
9.677716749025e-04 9.973227771723e-03 0.0 
0.0 0.0 0.0 
2.209714979310e-03 -4.424794758896e-04 0.0 
-4.424794758896e-04 7.735821033605e-04 0.0 
0.0 0.0 0.0 
3.728333221686e-04 3.940769153416e-03 0.0 
3.940769153416e-03 1.893789854851e-03 0.0 
0.0 0.0 0.0 
-1.682529875206e-03 8.109048073066e-04 0.0 
8.109048073066e-04 9.904122195421e-03 0.0 
0.0 0.0 0.0 
3.674312640145e-06 3.659267382739e-03 0.0 
3.659267382739e-03 7.755006389905e-03 0.0 
0.0 0.0 0.0 
1.862981939679e-03 -2.030003807986e-04 0.0 
-2.030003807986e-04 1.503938993186e-03 0.0 
0.0 0.0 0.0 
-2.561262788151e-04 3.305161098784e-03 0.0 
3.305161098784e-03 9.351036926803e-03 0.0 
0.0 0.0 0.0 
-1.781067210390e-03 1.044818831696e-03 0.0 
1.044818831696e-03 9.742272875736e-03 0.0 
0.0 0.0 0.0 
-9.935322114540e-04 2.842643372255e-03 0.0 
2.842643372255e-03 8.085006663049e-03 0.0 
0.0 0.0 0.0 
-1.792974406603e-04 3.835608653502e-03 0.0 
3.835608653502e-03 2.225337843657e-03 0.0 
0.0 0.0 0.0 
-1.853893455148e-03 2.378157694896e-03 0.0 
2.378157694896e-03 7.358658699600e-03 0.0 
0.0 0.0 0.0 
-1.429683967216e-03 2.663458102464e-03 0.0 
2.663458102464e-03 7.133365444071e-03 0.0 
0.0 0.0 0.0 
-1.581152002660e-03 2.700780320163e-03 0.0 
2.700780320163e-03 7.619880586602e-03 0.0 
0.0 0.0 0.0 
8.127945659275e-05 3.767099924486e-03 0.0 
3.767099924486e-03 3.859940109015e-03 0.0 
0.0 0.0 0.0 
1.479560227717e-04 3.558175304723e-03 0.0 
3.558175304723e-03 6.904317588434e-03 0.0 
0.0 0.0 0.0 
-1.817760417725e-03 1.367024387013e-03 0.0 
1.367024387013e-03 9.257496063427e-03 0.0 
0.0 0.0 0.0 
-2.120065704137e-03 1.753018453327e-03 0.0 
1.753018453327e-03 8.369315799057e-03 0.0 
0.0 0.0 0.0 
3.980548259087e-03 2.714682919606e-03 0.0 
2.714682919606e-03 -1.840530971185e-03 0.0 
0.0 0.0 0.0 
-2.139644254353e-04 -1.970364078392e-03 0.0 
-1.970364078392e-03 1.020373057675e-03 0.0 
0.0 0.0 0.0 
-2.028424438749e-03 2.003694829309e-03 0.0 
2.003694829309e-03 7.625792915252e-03 0.0 
0.0 0.0 0.0 
9.996274886064e-04 4.015287735751e-03 0.0 
4.015287735751e-03 8.359812416454e-04 0.0 
0.0 0.0 0.0 
-1.408116268220e-03 7.198143262148e-05 0.0 
7.198143262148e-05 9.209094069935e-03 0.0 
0.0 0.0 0.0 
3.048542022759e-03 -2.477455040910e-03 0.0 
-2.477455040910e-03 -2.748884332597e-03 0.0 
0.0 0.0 0.0 
3.829293486775e-03 2.827826939612e-03 0.0 
2.827826939612e-03 -1.906963159054e-03 0.0 
0.0 0.0 0.0 
-1.224606533017e-03 2.122767959574e-03 0.0 
2.122767959574e-03 9.443993799321e-03 0.0 
0.0 0.0 0.0 
1.319912638695e-03 3.991250502606e-03 0.0 
3.991250502606e-03 8.377535829389e-04 0.0 
0.0 0.0 0.0 
-1.556011696953e-03 2.492166171532e-03 0.0 
2.492166171532e-03 7.031569743060e-03 0.0 
0.0 0.0 0.0 
3.499335918420e-03 1.716797582694e-03 0.0 
1.716797582694e-03 -1.054115156986e-03 0.0 
0.0 0.0 0.0 
2.014184926230e-03 -1.671222206146e-03 0.0 
-1.671222206146e-03 -1.913520616696e-04 0.0 
0.0 0.0 0.0 
3.894172876344e-04 3.038714265824e-03 0.0 
3.038714265824e-03 5.716257329621e-03 0.0 
0.0 0.0 0.0 
-1.819424047620e-03 2.353453538418e-03 0.0 
2.353453538418e-03 6.818480226451e-03 0.0 
0.0 0.0 0.0 
4.501710070006e-03 5.805297177685e-04 0.0 
5.805297177685e-04 -4.017598904739e-03 0.0 
0.0 0.0 0.0 
1.212229561485e-03 -2.572514022992e-03 0.0 
-2.572514022992e-03 -3.001873858647e-04 0.0 
0.0 0.0 0.0 
-6.008028815052e-04 3.621489392166e-03 0.0 
3.621489392166e-03 3.652498975562e-03 0.0 
0.0 0.0 0.0 
2.659438587336e-04 3.833532185537e-03 0.0 
3.833532185537e-03 1.905912037067e-03 0.0 
0.0 0.0 0.0 
-1.018953504145e-03 2.626658030356e-03 0.0 
2.626658030356e-03 9.017829596790e-03 0.0 
0.0 0.0 0.0 
-9.039349285030e-04 3.309700041292e-03 0.0 
3.309700041292e-03 6.031980113768e-03 0.0 
0.0 0.0 0.0 
-1.512105352772e-03 2.780843601840e-03 0.0 
2.780843601840e-03 5.911886929035e-03 0.0 
0.0 0.0 0.0 
-1.658751828794e-03 2.280141572769e-03 0.0 
2.280141572769e-03 6.943227933013e-03 0.0 
0.0 0.0 0.0 
5.743620586560e-04 1.848622577773e-03 0.0 
1.848622577773e-03 4.595196007901e-03 0.0 
0.0 0.0 0.0 
1.021303638211e-03 1.857769559348e-03 0.0 
1.857769559348e-03 3.854116029135e-03 0.0 
0.0 0.0 0.0 
-8.993558325754e-04 2.555630850636e-03 0.0 
2.555630850636e-03 9.031868886252e-03 0.0 
0.0 0.0 0.0 
-1.515472627597e-03 1.963870227165e-03 0.0 
1.963870227165e-03 9.579728349094e-03 0.0 
0.0 0.0 0.0 
2.110928103890e-03 -1.792701137166e-03 0.0 
-1.792701137166e-03 -7.644303907165e-04 0.0 
0.0 0.0 0.0 
-3.136073007541e-04 3.739546761929e-03 0.0 
3.739546761929e-03 3.966771172720e-03 0.0 
0.0 0.0 0.0 
3.845697830737e-03 2.402503189179e-03 0.0 
2.402503189179e-03 -2.702868270772e-03 0.0 
0.0 0.0 0.0 
4.187813474851e-03 2.226368653920e-03 0.0 
2.226368653920e-03 -2.643210687924e-03 0.0 
0.0 0.0 0.0 
-6.321776417643e-04 3.486041368268e-03 0.0 
3.486041368268e-03 5.354324808915e-03 0.0 
0.0 0.0 0.0 
3.450845733920e-03 2.307532858885e-04 0.0 
2.307532858885e-04 -1.293011546455e-03 0.0 
0.0 0.0 0.0 
-2.175688960629e-04 -1.945780881269e-03 0.0 
-1.945780881269e-03 1.755823877392e-03 0.0 
0.0 0.0 0.0 
-9.874140220624e-04 2.274049186158e-03 0.0 
2.274049186158e-03 9.625285195057e-03 0.0 
0.0 0.0 0.0 
4.263252345266e-03 -5.253392909612e-04 0.0 
-5.253392909612e-04 -3.844167746960e-03 0.0 
0.0 0.0 0.0 
4.992355877633e-04 3.835769933547e-03 0.0 
3.835769933547e-03 3.075565379003e-03 0.0 
0.0 0.0 0.0 
-1.291974888528e-03 2.824123149530e-03 0.0 
2.824123149530e-03 6.588074305890e-03 0.0 
0.0 0.0 0.0 
2.971935769358e-04 3.856499750233e-03 0.0 
3.856499750233e-03 3.129904592145e-03 0.0 
0.0 0.0 0.0 
-3.110812606161e-04 3.150477461351e-03 0.0 
3.150477461351e-03 9.680312341163e-03 0.0 
0.0 0.0 0.0 
-3.165843079588e-04 2.775703022903e-03 0.0 
2.775703022903e-03 1.024269951571e-02 0.0 
0.0 0.0 0.0 
-6.427244825804e-04 2.631442678827e-03 0.0 
2.631442678827e-03 9.961752141210e-03 0.0 
0.0 0.0 0.0 
2.014818804812e-03 -1.617493736473e-03 0.0 
-1.617493736473e-03 -4.112772788079e-04 0.0 
0.0 0.0 0.0 
-1.123640418377e-03 1.754426843540e-03 0.0 
1.754426843540e-03 1.018390235971e-02 0.0 
0.0 0.0 0.0 
5.013737011481e-04 3.969426180108e-03 0.0 
3.969426180108e-03 1.160036117257e-03 0.0 
0.0 0.0 0.0 
4.353414955358e-03 2.111245014141e-03 0.0 
2.111245014141e-03 -2.535229970370e-03 0.0 
0.0 0.0 0.0 
3.429963813842e-03 1.615640447514e-03 0.0 
1.615640447514e-03 -3.636725703826e-03 0.0 
0.0 0.0 0.0 
-1.132641457065e-03 3.224997442442e-03 0.0 
3.224997442442e-03 5.336034278723e-03 0.0 
0.0 0.0 0.0 
-1.919701442377e-03 7.532414305013e-04 0.0 
7.532414305013e-04 9.108433879410e-03 0.0 
0.0 0.0 0.0 
-1.613599797034e-03 9.989285723298e-04 0.0 
9.989285723298e-04 9.746231467631e-03 0.0 
0.0 0.0 0.0 
1.001543443144e-03 8.683638146964e-04 0.0 
8.683638146964e-04 3.594405563058e-03 0.0 
0.0 0.0 0.0 
-7.175875216265e-04 2.828063575188e-03 0.0 
2.828063575188e-03 8.297058808232e-03 0.0 
0.0 0.0 0.0 
-1.751331148907e-03 2.078618141183e-03 0.0 
2.078618141183e-03 8.378163481654e-03 0.0 
0.0 0.0 0.0 
-1.283854442390e-03 2.803532935023e-03 0.0 
2.803532935023e-03 7.264400731322e-03 0.0 
0.0 0.0 0.0 
3.916867842355e-03 1.740903166633e-03 0.0 
1.740903166633e-03 -4.292157965839e-03 0.0 
0.0 0.0 0.0 
-6.921446075254e-04 -1.734656522537e-03 0.0 
-1.734656522537e-03 7.098905823337e-04 0.0 
0.0 0.0 0.0 
2.512991993622e-03 3.678634794952e-03 0.0 
3.678634794952e-03 -3.423524951258e-04 0.0 
0.0 0.0 0.0 
6.400535281696e-04 3.799301957408e-03 0.0 
3.799301957408e-03 3.108006688190e-03 0.0 
0.0 0.0 0.0 
2.329919201091e-03 3.621363978811e-03 0.0 
3.621363978811e-03 6.091361663150e-04 0.0 
0.0 0.0 0.0 
-5.883742140871e-04 3.770575643812e-03 0.0 
3.770575643812e-03 3.423698122538e-04 0.0 
0.0 0.0 0.0 
-1.332510932181e-03 1.229650544822e-04 0.0 
1.229650544822e-04 9.550007809688e-03 0.0 
0.0 0.0 0.0 
-7.537055070173e-05 -1.946440948023e-03 0.0 
-1.946440948023e-03 8.361428851089e-04 0.0 
0.0 0.0 0.0 
2.313652890203e-03 3.973558376557e-03 0.0 
3.973558376557e-03 -1.017080127258e-03 0.0 
0.0 0.0 0.0 
0.0 9.274508285381e-04 0.0 
9.274508285381e-04 4.342646271212e-03 0.0 
0.0 0.0 0.0 
2.785604693521e-03 2.125734465656e-03 0.0 
2.125734465656e-03 7.404203821400e-04 0.0 
0.0 0.0 0.0 
-1.966859063448e-03 1.574197894941e-03 0.0 
1.574197894941e-03 8.390600652821e-03 0.0 
0.0 0.0 0.0 
9.053686748026e-04 -1.086558978075e-04 0.0 
-1.086558978075e-04 7.145585235036e-04 0.0 
0.0 0.0 0.0 
-1.157602022162e-04 3.631921643004e-03 0.0 
3.631921643004e-03 3.879415449284e-03 0.0 
0.0 0.0 0.0 
2.963695747010e-03 3.470306903989e-03 0.0 
3.470306903989e-03 -3.152676181358e-04 0.0 
0.0 0.0 0.0 
-1.634691067515e-03 2.522001872665e-03 0.0 
2.522001872665e-03 8.087297141784e-03 0.0 
0.0 0.0 0.0 
-1.145306560245e-04 3.560498720208e-03 0.0 
3.560498720208e-03 8.586460678347e-03 0.0 
0.0 0.0 0.0 
-1.754294882227e-03 2.133082670064e-03 0.0 
2.133082670064e-03 7.385991958676e-03 0.0 
0.0 0.0 0.0 
-1.118974935957e-03 3.135125756208e-03 0.0 
3.135125756208e-03 6.663008895636e-03 0.0 
0.0 0.0 0.0 
3.144508960351e-05 -2.029077956594e-03 0.0 
-2.029077956594e-03 1.766895256987e-03 0.0 
0.0 0.0 0.0 
-1.130143679133e-03 2.052678614176e-03 0.0 
2.052678614176e-03 9.782055374383e-03 0.0 
0.0 0.0 0.0 
1.916614433664e-03 -1.479113507891e-03 0.0 
-1.479113507891e-03 2.264856341665e-04 0.0 
0.0 0.0 0.0 
-8.176869657095e-05 3.632127851532e-03 0.0 
3.632127851532e-03 8.184562727378e-03 0.0 
0.0 0.0 0.0 
0.0 3.088980759686e-03 0.0 
3.088980759686e-03 9.511701176708e-03 0.0 
0.0 0.0 0.0 
0.0 2.365592354270e-03 0.0 
2.365592354270e-03 1.063425742302e-02 0.0 
0.0 0.0 0.0 
0.0 2.731114977472e-03 0.0 
2.731114977472e-03 1.013252032517e-02 0.0 
0.0 0.0 0.0 
-1.362791655210e-03 2.623589211000e-03 0.0 
2.623589211000e-03 7.782895657207e-03 0.0 
0.0 0.0 0.0 
-1.285679605774e-03 2.101292660001e-03 0.0 
2.101292660001e-03 9.776377645438e-03 0.0 
0.0 0.0 0.0 
-6.968418349377e-04 2.773835160242e-03 0.0 
2.773835160242e-03 8.773048636400e-03 0.0 
0.0 0.0 0.0 
1.062836029662e-04 3.752672642422e-03 0.0 
3.752672642422e-03 3.143270031056e-03 0.0 
0.0 0.0 0.0 
-4.315274602688e-04 3.507081006825e-03 0.0 
3.507081006825e-03 3.996533956905e-03 0.0 
0.0 0.0 0.0 
-5.040405985953e-04 -1.795898622168e-03 0.0 
-1.795898622168e-03 2.045396185167e-03 0.0 
0.0 0.0 0.0 
-1.139169181184e-03 2.330511074602e-03 0.0 
2.330511074602e-03 9.617760788373e-03 0.0 
0.0 0.0 0.0 
7.900133910210e-05 3.631785056372e-03 0.0 
3.631785056372e-03 7.320610378755e-03 0.0 
0.0 0.0 0.0 
-1.009847841598e-03 1.975012681449e-03 0.0 
1.975012681449e-03 1.008923553056e-02 0.0 
0.0 0.0 0.0 
3.230029078080e-03 2.260280801486e-03 0.0 
2.260280801486e-03 -1.323603472148e-04 0.0 
0.0 0.0 0.0 
-1.170838257287e-03 2.018474368708e-03 0.0 
2.018474368708e-03 1.008405366956e-02 0.0 
0.0 0.0 0.0 
8.890152908920e-04 3.385236557933e-03 0.0 
3.385236557933e-03 4.120311633292e-03 0.0 
0.0 0.0 0.0 
8.228179127192e-04 3.807513494639e-03 0.0 
3.807513494639e-03 2.288185988067e-03 0.0 
0.0 0.0 0.0 
-1.144606384576e-03 2.874618187944e-03 0.0 
2.874618187944e-03 5.372760194112e-03 0.0 
0.0 0.0 0.0 
2.191461296009e-03 4.043943984728e-03 0.0 
4.043943984728e-03 -1.818625014359e-03 0.0 
0.0 0.0 0.0 
-3.147797584826e-04 1.642870437752e-03 0.0 
1.642870437752e-03 1.104883610266e-02 0.0 
0.0 0.0 0.0 
5.003231197684e-04 3.861800045166e-03 0.0 
3.861800045166e-03 2.354160659325e-03 0.0 
0.0 0.0 0.0 
2.231888539117e-04 3.173825235996e-03 0.0 
3.173825235996e-03 6.275614470039e-03 0.0 
0.0 0.0 0.0 
-3.086266152155e-04 -1.926968666329e-03 0.0 
-1.926968666329e-03 2.063948504306e-03 0.0 
0.0 0.0 0.0 
2.362222057373e-03 -2.973173459717e-03 0.0 
-2.973173459717e-03 -2.170001686312e-03 0.0 
0.0 0.0 0.0 
5.488784464178e-04 7.098809120620e-04 0.0 
7.098809120620e-04 3.594563948365e-03 0.0 
0.0 0.0 0.0 
1.870944100299e-03 4.024522363940e-03 0.0 
4.024522363940e-03 -1.932572419907e-04 0.0 
0.0 0.0 0.0 
0.0 3.238309099800e-03 0.0 
3.238309099800e-03 9.172492027855e-03 0.0 
0.0 0.0 0.0 
-3.816967238885e-04 2.444987975171e-03 0.0 
2.444987975171e-03 1.021110332850e-02 0.0 
0.0 0.0 0.0 
-5.925208400415e-04 3.357837593951e-03 0.0 
3.357837593951e-03 5.491636372092e-03 0.0 
0.0 0.0 0.0 
-6.406078985589e-04 -9.208634394810e-04 0.0 
-9.208634394810e-04 7.597526868017e-04 0.0 
0.0 0.0 0.0 
0.0 3.429016948271e-03 0.0 
3.429016948271e-03 8.392487777644e-03 0.0 
0.0 0.0 0.0 
5.679650400563e-04 1.326817486113e-03 0.0 
1.326817486113e-03 3.707335357929e-03 0.0 
0.0 0.0 0.0 
2.952958654283e-03 -2.496343017237e-03 0.0 
-2.496343017237e-03 -2.245208442508e-03 0.0 
0.0 0.0 0.0 
3.227827107694e-03 1.768773237404e-03 0.0 
1.768773237404e-03 -1.140914862983e-04 0.0 
0.0 0.0 0.0 
4.171831947157e-04 2.773659714993e-03 0.0 
2.773659714993e-03 5.376622148845e-03 0.0 
0.0 0.0 0.0 
-4.684930163077e-04 -7.473308663138e-05 0.0 
-7.473308663138e-05 3.148954134327e-04 0.0 
0.0 0.0 0.0 
6.725936332934e-04 3.847329710274e-03 0.0 
3.847329710274e-03 2.291341304091e-03 0.0 
0.0 0.0 0.0 
-8.130842975175e-04 3.201391924664e-03 0.0 
3.201391924664e-03 6.187008180626e-03 0.0 
0.0 0.0 0.0 
-3.157269677166e-04 3.512086039686e-03 0.0 
3.512086039686e-03 4.739103064698e-03 0.0 
0.0 0.0 0.0 
-9.628951716532e-04 3.124862638872e-03 0.0 
3.124862638872e-03 6.058175055542e-03 0.0 
0.0 0.0 0.0 
1.781672798177e-03 4.094995210843e-03 0.0 
4.094995210843e-03 -8.160384782023e-04 0.0 
0.0 0.0 0.0 
0.0 3.474599752411e-03 0.0 
3.474599752411e-03 7.536681247899e-03 0.0 
0.0 0.0 0.0 
4.427753371571e-03 2.035897201317e-03 0.0 
2.035897201317e-03 -2.373463210511e-03 0.0 
0.0 0.0 0.0 
2.196997233719e-03 5.292986428160e-04 0.0 
5.292986428160e-04 -4.303754451153e-03 0.0 
0.0 0.0 0.0 
7.336878609809e-05 -6.433183021232e-04 0.0 
-6.433183021232e-04 4.906475752386e-03 0.0 
0.0 0.0 0.0 
-4.803007498020e-04 -7.437357536929e-04 0.0 
-7.437357536929e-04 4.928463436131e-04 0.0 
0.0 0.0 0.0 
-1.525168718916e-03 2.449386973124e-03 0.0 
2.449386973124e-03 6.466191588850e-03 0.0 
0.0 0.0 0.0 
1.714975696094e-03 -3.044147264302e-03 0.0 
-3.044147264302e-03 -2.538205784618e-03 0.0 
0.0 0.0 0.0 
-1.894674115138e-03 1.757471901268e-03 0.0 
1.757471901268e-03 7.656410428762e-03 0.0 
0.0 0.0 0.0 
5.710072037211e-04 1.458174829063e-03 0.0 
1.458174829063e-03 4.437338420876e-03 0.0 
0.0 0.0 0.0 
0.0 3.336973320475e-03 0.0 
3.336973320475e-03 6.680748912590e-03 0.0 
0.0 0.0 0.0 
-1.525290957879e-03 2.519993525617e-03 0.0 
2.519993525617e-03 7.644710362273e-03 0.0 
0.0 0.0 0.0 
5.466810251082e-04 -3.263776456373e-03 0.0 
-3.263776456373e-03 -9.872096812440e-04 0.0 
0.0 0.0 0.0 
1.967395223500e-03 8.820702608714e-04 0.0 
8.820702608714e-04 -4.767516381618e-03 0.0 
0.0 0.0 0.0 
4.837850632455e-04 -3.729031001643e-03 0.0 
-3.729031001643e-03 -1.254368633499e-03 0.0 
0.0 0.0 0.0 
5.488049418481e-04 -7.897401962890e-04 0.0 
-7.897401962890e-04 3.133124328586e-03 0.0 
0.0 0.0 0.0 
-1.992692660643e-03 8.801397804063e-04 0.0 
8.801397804063e-04 8.982180803848e-03 0.0 
0.0 0.0 0.0 
-2.111561767510e-03 1.641686221125e-03 0.0 
1.641686221125e-03 8.696040674750e-03 0.0 
0.0 0.0 0.0 
0.0 3.019832952523e-03 0.0 
3.019832952523e-03 5.895556776511e-03 0.0 
0.0 0.0 0.0 
-1.923414274491e-03 7.202918428663e-04 0.0 
7.202918428663e-04 9.070146121924e-03 0.0 
0.0 0.0 0.0 
-3.097954242555e-04 2.362132538247e-03 0.0 
2.362132538247e-03 1.072466983062e-02 0.0 
0.0 0.0 0.0 
9.628071803602e-04 3.291899903600e-03 0.0 
3.291899903600e-03 3.692165679909e-03 0.0 
0.0 0.0 0.0 
-1.621894713486e-03 8.060380105490e-04 0.0 
8.060380105490e-04 9.675594880705e-03 0.0 
0.0 0.0 0.0 
-3.325356302253e-05 3.740476526215e-03 0.0 
3.740476526215e-03 2.643971551398e-03 0.0 
0.0 0.0 0.0 
3.031982823132e-03 2.103888126551e-03 0.0 
2.103888126551e-03 -1.599239197292e-04 0.0 
0.0 0.0 0.0 
2.973306674225e-03 2.924777589861e-03 0.0 
2.924777589861e-03 -2.714221477080e-03 0.0 
0.0 0.0 0.0 
0.0 2.523227583500e-03 0.0 
2.523227583500e-03 5.226509096688e-03 0.0 
0.0 0.0 0.0 
0.0 2.919478853420e-03 0.0 
2.919478853420e-03 9.837139362864e-03 0.0 
0.0 0.0 0.0 
0.0 2.546124748202e-03 0.0 
2.546124748202e-03 1.040902759883e-02 0.0 
0.0 0.0 0.0 
1.555290800831e-03 -1.676035803495e-03 0.0 
-1.676035803495e-03 2.576874202009e-04 0.0 
0.0 0.0 0.0 
-7.372079032910e-04 -1.592099404609e-03 0.0 
-1.592099404609e-03 2.285236494991e-03 0.0 
0.0 0.0 0.0 
1.084522469178e-03 3.784066540645e-03 0.0 
3.784066540645e-03 2.290242726735e-03 0.0 
0.0 0.0 0.0 
1.499606198853e-03 -1.495502998567e-03 0.0 
-1.495502998567e-03 9.095202913416e-04 0.0 
0.0 0.0 0.0 
0.0 1.951885099923e-03 0.0 
1.951885099923e-03 4.728174608785e-03 0.0 
0.0 0.0 0.0 
2.724067067208e-03 3.611403886360e-03 0.0 
3.611403886360e-03 -9.653679515710e-04 0.0 
0.0 0.0 0.0 
4.197726245086e-03 -1.077809246341e-03 0.0 
-1.077809246341e-03 -3.282982089973e-03 0.0 
0.0 0.0 0.0 
3.768627951772e-03 -1.629307945072e-03 0.0 
-1.629307945072e-03 -2.728086790823e-03 0.0 
0.0 0.0 0.0 
-1.522305284959e-03 7.862504184500e-04 0.0 
7.862504184500e-04 9.906405344605e-03 0.0 
0.0 0.0 0.0 
4.397234691174e-04 4.378446639079e-04 0.0 
4.378446639079e-04 4.338056981777e-03 0.0 
0.0 0.0 0.0 
-9.079814698696e-04 -3.447874096147e-03 0.0 
-3.447874096147e-03 -7.260183449043e-05 0.0 
0.0 0.0 0.0 
0.0 1.252522976672e-03 0.0 
1.252522976672e-03 4.389934629429e-03 0.0 
0.0 0.0 0.0 
3.155730891561e-03 -2.226431563895e-03 0.0 
-2.226431563895e-03 -2.245610612955e-03 0.0 
0.0 0.0 0.0 
0.0 3.358260856965e-03 0.0 
3.358260856965e-03 8.800522088813e-03 0.0 
0.0 0.0 0.0 
-8.278449008052e-04 2.831892960452e-03 0.0 
2.831892960452e-03 8.764094067258e-03 0.0 
0.0 0.0 0.0 
-3.333620809876e-05 -8.835600039612e-05 0.0 
-8.835600039612e-05 1.511665650578e-04 0.0 
0.0 0.0 0.0 
1.259903780211e-03 3.792503189716e-03 0.0 
3.792503189716e-03 1.451065876002e-03 0.0 
0.0 0.0 0.0 
-1.151032096544e-03 1.718128187943e-03 0.0 
1.718128187943e-03 1.044029635873e-02 0.0 
0.0 0.0 0.0 
0.0 3.476784187516e-03 0.0 
3.476784187516e-03 7.973234240220e-03 0.0 
0.0 0.0 0.0 
-1.373128025710e-03 2.771977796556e-03 0.0 
2.771977796556e-03 7.763416766128e-03 0.0 
0.0 0.0 0.0 
1.226186497505e-03 3.108783202921e-03 0.0 
3.108783202921e-03 3.352624475164e-03 0.0 
0.0 0.0 0.0 
1.393111026160e-03 4.084912814206e-03 0.0 
4.084912814206e-03 -1.497973026871e-03 0.0 
0.0 0.0 0.0 
1.087152786944e-03 1.096099291710e-03 0.0 
1.096099291710e-03 2.959476641857e-03 0.0 
0.0 0.0 0.0 
2.609157639959e-03 -2.416169114399e-03 0.0 
-2.416169114399e-03 -1.580458666226e-03 0.0 
0.0 0.0 0.0 
3.198480243858e-03 -2.176601803593e-03 0.0 
-2.176601803593e-03 -2.652458461672e-03 0.0 
0.0 0.0 0.0 
-1.719922891082e-03 -3.314113624942e-03 0.0 
-3.314113624942e-03 -6.711784971603e-05 0.0 
0.0 0.0 0.0 
0.0 3.427491277043e-03 0.0 
3.427491277043e-03 7.105461396723e-03 0.0 
0.0 0.0 0.0 
3.423759796586e-03 2.586610463507e-03 0.0 
2.586610463507e-03 -2.733565005752e-03 0.0 
0.0 0.0 0.0 
1.664907066065e-03 -5.888498976874e-05 0.0 
-5.888498976874e-05 1.763220068863e-03 0.0 
0.0 0.0 0.0 
-1.778926971505e-03 6.519839542376e-04 0.0 
6.519839542376e-04 9.573573278709e-03 0.0 
0.0 0.0 0.0 
8.559031584050e-04 -2.748449036822e-03 0.0 
-2.748449036822e-03 -2.560129851176e-04 0.0 
0.0 0.0 0.0 
3.698442251235e-03 -1.830363702157e-03 0.0 
-1.830363702157e-03 -3.171846339142e-03 0.0 
0.0 0.0 0.0 
-1.290485370534e-03 2.969867745762e-03 0.0 
2.969867745762e-03 7.241937981414e-03 0.0 
0.0 0.0 0.0 
0.0 2.782729277006e-03 0.0 
2.782729277006e-03 5.549970502092e-03 0.0 
0.0 0.0 0.0 
-8.281257297017e-04 -1.518521285639e-03 0.0 
-1.518521285639e-03 2.695665087611e-03 0.0 
0.0 0.0 0.0 
1.706007252051e-03 -1.073768195675e-03 0.0 
-1.073768195675e-03 7.388847333714e-04 0.0 
0.0 0.0 0.0 
5.074862803174e-04 3.724584407078e-03 0.0 
3.724584407078e-03 3.235321245844e-03 0.0 
0.0 0.0 0.0 
2.996478791228e-03 -6.788310902029e-04 0.0 
-6.788310902029e-04 -1.133243790079e-03 0.0 
0.0 0.0 0.0 
4.211060848627e-03 -1.068309180843e-03 0.0 
-1.068309180843e-03 -3.379198406224e-03 0.0 
0.0 0.0 0.0 
1.876153341111e-03 -1.405422569407e-03 0.0 
-1.405422569407e-03 9.361391955509e-05 0.0 
0.0 0.0 0.0 
2.147562814785e-04 3.744132689855e-03 0.0 
3.744132689855e-03 3.927933239191e-03 0.0 
0.0 0.0 0.0 
1.787167420664e-04 3.397548502208e-03 0.0 
3.397548502208e-03 5.405394721115e-03 0.0 
0.0 0.0 0.0 
2.615743545666e-03 1.990579607279e-03 0.0 
1.990579607279e-03 7.092674838665e-04 0.0 
0.0 0.0 0.0 
9.306457450857e-04 3.761703889548e-03 0.0 
3.761703889548e-03 2.371879569804e-03 0.0 
0.0 0.0 0.0 
3.966595336620e-04 -2.209871958478e-03 0.0 
-2.209871958478e-03 1.239998727346e-03 0.0 
0.0 0.0 0.0 
2.265674968511e-03 3.813727692009e-03 0.0 
3.813727692009e-03 -1.649694936436e-04 0.0 
0.0 0.0 0.0 
-5.975125779698e-04 -1.762625617084e-03 0.0 
-1.762625617084e-03 2.310039493340e-03 0.0 
0.0 0.0 0.0 
1.198820686639e-03 3.211247451772e-03 0.0 
3.211247451772e-03 3.704513872535e-03 0.0 
0.0 0.0 0.0 
3.990944853517e-03 1.710644299101e-03 0.0 
1.710644299101e-03 -1.871339366657e-03 0.0 
0.0 0.0 0.0 
5.559561301611e-04 1.111597310264e-03 0.0 
1.111597310264e-03 4.366492890471e-03 0.0 
0.0 0.0 0.0 
-1.042421612830e-03 1.939773061674e-03 0.0 
1.939773061674e-03 1.037143130787e-02 0.0 
0.0 0.0 0.0 
5.946653336109e-04 -2.598614741978e-03 0.0 
-2.598614741978e-03 3.043900646067e-04 0.0 
0.0 0.0 0.0 
0.0 1.591703168424e-03 0.0 
1.591703168424e-03 4.487663773318e-03 0.0 
0.0 0.0 0.0 
1.087584785369e-03 1.218381013658e-03 0.0 
1.218381013658e-03 3.658650503701e-03 0.0 
0.0 0.0 0.0 
2.539433761442e-03 3.500823960157e-03 0.0 
3.500823960157e-03 -1.883623155999e-04 0.0 
0.0 0.0 0.0 
-8.295881777109e-04 -2.288253733030e-03 0.0 
-2.288253733030e-03 8.482051342493e-04 0.0 
0.0 0.0 0.0 
4.543405549682e-04 1.676304554653e-04 0.0 
1.676304554653e-04 4.407957002373e-03 0.0 
0.0 0.0 0.0 
-1.035643760601e-03 2.242174841910e-03 0.0 
2.242174841910e-03 9.958765218644e-03 0.0 
0.0 0.0 0.0 
2.466492339948e-03 -2.695583557285e-03 0.0 
-2.695583557285e-03 -1.582760021398e-03 0.0 
0.0 0.0 0.0 
0.0 6.017700792889e-04 0.0 
6.017700792889e-04 4.301390988035e-03 0.0 
0.0 0.0 0.0 
1.444600522963e-03 -1.407962719271e-03 0.0 
-1.407962719271e-03 7.825951299583e-04 0.0 
0.0 0.0 0.0 
-7.508232756096e-04 3.283214738491e-03 0.0 
3.283214738491e-03 4.680025962314e-03 0.0 
0.0 0.0 0.0 
-1.875696403780e-03 1.786574214978e-03 0.0 
1.786574214978e-03 8.579428865507e-03 0.0 
0.0 0.0 0.0 
4.063995493713e-03 1.830017535343e-03 0.0 
1.830017535343e-03 -1.678117356277e-03 0.0 
0.0 0.0 0.0 
1.650918731203e-03 -1.869875440866e-03 0.0 
-1.869875440866e-03 -1.607003349496e-04 0.0 
0.0 0.0 0.0 
3.058681349774e-03 -1.222960572198e-04 0.0 
-1.222960572198e-04 -8.288700029618e-04 0.0 
0.0 0.0 0.0 
-1.716963984488e-03 1.823031359382e-03 0.0 
1.823031359382e-03 9.381313168320e-03 0.0 
0.0 0.0 0.0 
-1.248102157624e-03 2.844563717315e-03 0.0 
2.844563717315e-03 5.947053955758e-03 0.0 
0.0 0.0 0.0 
2.229103966831e-03 2.271645565372e-03 0.0 
2.271645565372e-03 1.490312949503e-03 0.0 
0.0 0.0 0.0 
-1.339236119124e-03 1.324923291279e-04 0.0 
1.324923291279e-04 9.855037131109e-03 0.0 
0.0 0.0 0.0 
1.070568780122e-04 -2.155593572979e-03 0.0 
-2.155593572979e-03 1.233480798175e-03 0.0 
0.0 0.0 0.0 
3.009009013914e-03 1.630771784457e-03 0.0 
1.630771784457e-03 -4.603190983199e-05 0.0 
0.0 0.0 0.0 
2.028050673199e-03 -2.634060110935e-03 0.0 
-2.634060110935e-03 -1.550402624581e-03 0.0 
0.0 0.0 0.0 
-1.392727150629e-04 -1.318044419260e-03 0.0 
-1.318044419260e-03 3.085507612631e-03 0.0 
0.0 0.0 0.0 
-1.928064577137e-04 -2.230851190824e-04 0.0 
-2.230851190824e-04 1.166210425505e-04 0.0 
0.0 0.0 0.0 
1.772354584176e-03 3.943079086187e-03 0.0 
3.943079086187e-03 6.319632974789e-04 0.0 
0.0 0.0 0.0 
2.562080518514e-03 -2.651999287437e-03 0.0 
-2.651999287437e-03 -2.182252121800e-03 0.0 
0.0 0.0 0.0 
-2.834823987663e-04 -1.819659743177e-03 0.0 
-1.819659743177e-03 2.269462508140e-03 0.0 
0.0 0.0 0.0 
1.934006874043e-03 3.564023355425e-03 0.0 
3.564023355425e-03 7.857030931915e-04 0.0 
0.0 0.0 0.0 
1.841613134583e-03 -1.211906857332e-03 0.0 
-1.211906857332e-03 7.515516917962e-04 0.0 
0.0 0.0 0.0 
-1.677336480773e-03 6.354469730042e-04 0.0 
6.354469730042e-04 9.807964471249e-03 0.0 
0.0 0.0 0.0 
1.872930048857e-03 -2.922466466220e-03 0.0 
-2.922466466220e-03 -1.543915163766e-03 0.0 
0.0 0.0 0.0 
0.0 3.330396431955e-04 0.0 
3.330396431955e-04 4.375032457762e-03 0.0 
0.0 0.0 0.0 
-7.428118294017e-04 3.348628697145e-03 0.0 
3.348628697145e-03 6.166510655252e-03 0.0 
0.0 0.0 0.0 
-5.462691675511e-04 -1.590679845866e-03 0.0 
-1.590679845866e-03 2.733728661338e-03 0.0 
0.0 0.0 0.0 
-4.781428301037e-04 3.501416384782e-03 0.0 
3.501416384782e-03 5.471016057666e-03 0.0 
0.0 0.0 0.0 
-4.991009517077e-04 -1.718172415889e-03 0.0 
-1.718172415889e-03 2.255550896669e-03 0.0 
0.0 0.0 0.0 
-7.629471738952e-04 -1.179873237157e-04 0.0 
-1.179873237157e-04 4.317771808771e-04 0.0 
0.0 0.0 0.0 
-1.953532173817e-03 1.792917838129e-03 0.0 
1.792917838129e-03 8.873280657206e-03 0.0 
0.0 0.0 0.0 
-1.348972925239e-03 -6.136985987187e-04 0.0 
-6.136985987187e-04 3.249305937288e-03 0.0 
0.0 0.0 0.0 
1.274319905307e-03 -1.362780376822e-04 0.0 
-1.362780376822e-04 -4.248492321355e-04 0.0 
0.0 0.0 0.0 
-8.074380205781e-04 -1.450979282519e-03 0.0 
-1.450979282519e-03 2.918749465849e-03 0.0 
0.0 0.0 0.0 
1.661349322671e-03 -8.990268625732e-04 0.0 
-8.990268625732e-04 1.354413975800e-03 0.0 
0.0 0.0 0.0 
-7.859288213680e-04 5.748410992952e-04 0.0 
5.748410992952e-04 1.103851094827e-02 0.0 
0.0 0.0 0.0 
3.460870459256e-03 -3.068235357049e-04 0.0 
-3.068235357049e-04 -1.617779481309e-03 0.0 
0.0 0.0 0.0 
3.294671724313e-03 -2.861363740704e-04 0.0 
-2.861363740704e-04 -1.202953149518e-03 0.0 
0.0 0.0 0.0 
-2.194906273182e-03 1.435209136562e-03 0.0 
1.435209136562e-03 8.477357342666e-03 0.0 
0.0 0.0 0.0 
-1.914404441865e-03 5.343820550503e-04 0.0 
5.343820550503e-04 8.831159849660e-03 0.0 
0.0 0.0 0.0 
-3.417214104490e-04 1.964462364563e-03 0.0 
1.964462364563e-03 1.080003581227e-02 0.0 
0.0 0.0 0.0 
-1.630149471263e-04 3.637907539216e-03 0.0 
3.637907539216e-03 4.722071057753e-03 0.0 
0.0 0.0 0.0 
1.975632299822e-03 -1.595832025338e-04 0.0 
-1.595832025338e-04 -6.978635793921e-04 0.0 
0.0 0.0 0.0 
-1.253040268652e-04 -1.460193059247e-03 0.0 
-1.460193059247e-03 9.733392037283e-04 0.0 
0.0 0.0 0.0 
-8.831623579024e-04 -1.372533010027e-03 0.0 
-1.372533010027e-03 9.140412290720e-04 0.0 
0.0 0.0 0.0 
2.047830584393e-04 -2.414295115576e-03 0.0 
-2.414295115576e-03 6.459828882333e-04 0.0 
0.0 0.0 0.0 
-2.705319090234e-04 3.176333937941e-03 0.0 
3.176333937941e-03 7.150696083604e-03 0.0 
0.0 0.0 0.0 
-8.850889734806e-04 5.517112000597e-04 0.0 
5.517112000597e-04 1.104163466328e-02 0.0 
0.0 0.0 0.0 
6.003174059144e-04 -8.448315011876e-04 0.0 
-8.448315011876e-04 3.138410939069e-03 0.0 
0.0 0.0 0.0 
-1.964510276261e-04 -2.008957425674e-03 0.0 
-2.008957425674e-03 1.334932562440e-03 0.0 
0.0 0.0 0.0 
-3.865266323556e-04 -1.293012824139e-03 0.0 
-1.293012824139e-03 3.083079804687e-03 0.0 
0.0 0.0 0.0 
1.504773008678e-03 -1.726441247825e-05 0.0 
-1.726441247825e-05 2.227171095360e-03 0.0 
0.0 0.0 0.0 
3.090589137502e-03 4.635494291091e-04 0.0 
4.635494291091e-04 -4.242326520197e-03 0.0 
0.0 0.0 0.0 
-1.353104110436e-03 -3.752260942650e-04 0.0 
-3.752260942650e-04 3.245017238497e-03 0.0 
0.0 0.0 0.0 
-1.209285400210e-03 -3.422513967812e-04 0.0 
-3.422513967812e-04 2.865229295335e-03 0.0 
0.0 0.0 0.0 
3.438988593107e-04 -9.470761238546e-05 0.0 
-9.470761238546e-05 4.498225639650e-03 0.0 
0.0 0.0 0.0 
0.0 5.652553953185e-05 0.0 
5.652553953185e-05 4.440820650274e-03 0.0 
0.0 0.0 0.0 
-1.395466325261e-03 -3.917634462727e-04 0.0 
-3.917634462727e-04 3.469870735064e-03 0.0 
0.0 0.0 0.0 
-7.367864252108e-04 -1.476275850676e-03 0.0 
-1.476275850676e-03 2.717377252797e-03 0.0 
0.0 0.0 0.0 
1.552975832163e-03 -1.725437619415e-03 0.0 
-1.725437619415e-03 4.730671393056e-04 0.0 
0.0 0.0 0.0 
1.464029107290e-03 3.020561113971e-04 0.0 
3.020561113971e-04 2.480893659677e-03 0.0 
0.0 0.0 0.0 
-3.409694895758e-04 -1.555506278758e-03 0.0 
-1.555506278758e-03 1.109187086940e-03 0.0 
0.0 0.0 0.0 
1.511698563391e-03 -3.341833050862e-04 0.0 
-3.341833050862e-04 2.050872782954e-03 0.0 
0.0 0.0 0.0 
1.076295279193e-03 -3.953339238569e-04 0.0 
-3.953339238569e-04 2.873592007815e-04 0.0 
0.0 0.0 0.0 
-7.451819571079e-04 -1.553946808443e-03 0.0 
-1.553946808443e-03 2.487549865556e-03 0.0 
0.0 0.0 0.0 
-2.080966483701e-04 -1.829706375906e-03 0.0 
-1.829706375906e-03 1.989117808969e-03 0.0 
0.0 0.0 0.0 
1.245741577676e-03 -2.035865355589e-04 0.0 
-2.035865355589e-04 -1.335678098326e-04 0.0 
0.0 0.0 0.0 
-1.409848050011e-03 -3.670831964044e-04 0.0 
-3.670831964044e-04 3.427583208154e-03 0.0 
0.0 0.0 0.0 
-8.628343268243e-04 1.912930581831e-03 0.0 
1.912930581831e-03 1.037474255451e-02 0.0 
0.0 0.0 0.0 
2.206236516599e-03 -1.023067742254e-04 0.0 
-1.023067742254e-04 -7.825724640893e-04 0.0 
0.0 0.0 0.0 
-1.983251993492e-03 6.734106220891e-04 0.0 
6.734106220891e-04 8.773131255941e-03 0.0 
0.0 0.0 0.0 
-2.014035831687e-03 7.997996963905e-04 0.0 
7.997996963905e-04 8.649775316482e-03 0.0 
0.0 0.0 0.0 
3.014408208339e-03 4.354877510816e-04 0.0 
4.354877510816e-04 -3.695212833336e-04 0.0 
0.0 0.0 0.0 
-1.173093875352e-03 -8.553580187653e-05 0.0 
-8.553580187653e-05 2.874682292663e-03 0.0 
0.0 0.0 0.0 
1.926148866505e-03 -2.672783025827e-03 0.0 
-2.672783025827e-03 -9.295707907890e-04 0.0 
0.0 0.0 0.0 
1.008598038774e-03 3.962624374959e-03 0.0 
3.962624374959e-03 3.876689813203e-04 0.0 
0.0 0.0 0.0 
2.491369770792e-04 -6.565183792548e-04 0.0 
-6.565183792548e-04 4.110521151626e-03 0.0 
0.0 0.0 0.0 
7.044274778800e-05 3.288313960018e-03 0.0 
3.288313960018e-03 6.926472564048e-03 0.0 
0.0 0.0 0.0 
-1.127587908090e-03 8.146509596416e-04 0.0 
8.146509596416e-04 1.078390011492e-02 0.0 
0.0 0.0 0.0 
8.671028777352e-05 3.834190754726e-03 0.0 
3.834190754726e-03 2.631732985653e-03 0.0 
0.0 0.0 0.0 
-4.322051145925e-04 -1.200375987066e-03 0.0 
-1.200375987066e-03 8.701295074396e-04 0.0 
0.0 0.0 0.0 
-1.735966718603e-03 2.558665784862e-03 0.0 
2.558665784862e-03 6.907520776446e-03 0.0 
0.0 0.0 0.0 
-1.696442238209e-03 2.610605236107e-04 0.0 
2.610605236107e-04 8.907983799068e-03 0.0 
0.0 0.0 0.0 
-1.659584014159e-03 2.358176750776e-04 0.0 
2.358176750776e-04 8.865460798216e-03 0.0 
0.0 0.0 0.0 
1.481044584349e-03 -1.216078857082e-04 0.0 
-1.216078857082e-04 -5.180832748923e-04 0.0 
0.0 0.0 0.0 
1.076622763976e-03 -2.737537040356e-04 0.0 
-2.737537040356e-04 -5.802999532212e-05 0.0 
0.0 0.0 0.0 
8.312833585682e-04 -1.755163182551e-04 0.0 
-1.755163182551e-04 4.086695922656e-04 0.0 
0.0 0.0 0.0 
-3.762343409036e-04 -1.737135709822e-03 0.0 
-1.737135709822e-03 1.454072368071e-03 0.0 
0.0 0.0 0.0 
1.871387280561e-03 -1.746805121992e-04 0.0 
-1.746805121992e-04 -3.755702558987e-04 0.0 
0.0 0.0 0.0 
-1.406213435881e-03 -3.533897347202e-04 0.0 
-3.533897347202e-04 3.653754993102e-03 0.0 
0.0 0.0 0.0 
-1.483928516864e-03 -1.211319931022e-03 0.0 
-1.211319931022e-03 -1.764916879056e-03 0.0 
0.0 0.0 0.0 
-3.634562407686e-04 -1.899890717358e-03 0.0 
-1.899890717358e-03 1.600973774400e-03 0.0 
0.0 0.0 0.0 
-1.181280255971e-03 1.775997349332e-04 0.0 
1.775997349332e-04 1.016428881466e-02 0.0 
0.0 0.0 0.0 
-1.883658929506e-03 5.054255368972e-04 0.0 
5.054255368972e-04 8.785912044882e-03 0.0 
0.0 0.0 0.0 
-4.017804954823e-04 3.129124417293e-03 0.0 
3.129124417293e-03 7.750389459865e-03 0.0 
0.0 0.0 0.0 
1.427141924899e-03 -1.202700014355e-03 0.0 
-1.202700014355e-03 1.421617651553e-03 0.0 
0.0 0.0 0.0 
-1.258518133147e-03 1.262654165620e-04 0.0 
1.262654165620e-04 9.849377062094e-03 0.0 
0.0 0.0 0.0 
-1.285981018980e-03 -1.300632656776e-04 0.0 
-1.300632656776e-04 3.041526284221e-03 0.0 
0.0 0.0 0.0 
1.370057632386e-03 -2.188198839628e-04 0.0 
-2.188198839628e-04 1.809607070609e-04 0.0 
0.0 0.0 0.0 
0.0 1.080267102071e-03 0.0 
1.080267102071e-03 1.157263453696e-02 0.0 
0.0 0.0 0.0 
-2.854243868392e-04 1.200914933211e-03 0.0 
1.200914933211e-03 1.152978884404e-02 0.0 
0.0 0.0 0.0 
-1.617118354283e-03 6.298086221852e-04 0.0 
6.298086221852e-04 9.575005164576e-03 0.0 
0.0 0.0 0.0 
-1.777200960856e-03 3.283593814674e-04 0.0 
3.283593814674e-04 8.889650139457e-03 0.0 
0.0 0.0 0.0 
-1.240123204516e-03 -3.350406919344e-04 0.0 
-3.350406919344e-04 3.005856988111e-03 0.0 
0.0 0.0 0.0 
-2.527093001242e-04 8.563236339501e-04 0.0 
8.563236339501e-04 1.166779435329e-02 0.0 
0.0 0.0 0.0 
-1.853293901295e-04 -1.890199163458e-03 0.0 
-1.890199163458e-03 1.257270096710e-03 0.0 
0.0 0.0 0.0 
-1.954001315532e-03 6.397766617424e-04 0.0 
6.397766617424e-04 8.723764317319e-03 0.0 
0.0 0.0 0.0 
-1.848145912211e-03 4.254227511709e-04 0.0 
4.254227511709e-04 8.868459338075e-03 0.0 
0.0 0.0 0.0 
-1.826395083203e-03 1.884301547428e-03 0.0 
1.884301547428e-03 7.289276000732e-03 0.0 
0.0 0.0 0.0 
0.0 2.182690046478e-03 0.0 
2.182690046478e-03 1.082783195141e-02 0.0 
0.0 0.0 0.0 
-2.825632845975e-04 1.029148297149e-03 0.0 
1.029148297149e-03 1.160757350623e-02 0.0 
0.0 0.0 0.0 
1.716680692572e-03 -2.305488471409e-04 0.0 
-2.305488471409e-04 -3.228798634198e-04 0.0 
0.0 0.0 0.0 
1.716560459848e-03 -1.022319981083e-04 0.0 
-1.022319981083e-04 -6.192802570789e-04 0.0 
0.0 0.0 0.0 
-3.816010921052e-04 -1.170686257214e-03 0.0 
-1.170686257214e-03 9.512822948352e-04 0.0 
0.0 0.0 0.0 
4.759661063636e-05 -1.886437371923e-03 0.0 
-1.886437371923e-03 1.996142877146e-03 0.0 
0.0 0.0 0.0 
-4.715925249533e-04 -1.079289060812e-04 0.0 
-1.079289060812e-04 5.620093765911e-03 0.0 
0.0 0.0 0.0 
-4.293194945795e-03 -2.025331681393e-03 0.0 
-2.025331681393e-03 -1.652686563575e-03 0.0 
0.0 0.0 0.0 
-9.118418692556e-04 6.491706954588e-05 0.0 
6.491706954588e-05 1.085202390375e-02 0.0 
0.0 0.0 0.0 
-1.673954018213e-03 -1.130305687511e-03 0.0 
-1.130305687511e-03 7.875073964285e-04 0.0 
0.0 0.0 0.0 
2.957132827391e-03 -4.636207842445e-05 0.0 
-4.636207842445e-05 -3.894127468240e-04 0.0 
0.0 0.0 0.0 
-8.927230166496e-04 -7.210767853488e-04 0.0 
-7.210767853488e-04 5.538398251681e-05 0.0 
0.0 0.0 0.0 
-2.501928687822e-03 -2.296676918311e-03 0.0 
-2.296676918311e-03 -3.275228594473e-04 0.0 
0.0 0.0 0.0 
2.907299515474e-03 -5.651408646038e-04 0.0 
-5.651408646038e-04 -6.093885654600e-04 0.0 
0.0 0.0 0.0 
-3.945149198689e-04 -4.361803196141e-04 0.0 
-4.361803196141e-04 5.220333327244e-03 0.0 
0.0 0.0 0.0 
-1.263379223573e-03 1.299895506077e-04 0.0 
1.299895506077e-04 1.013697723921e-02 0.0 
0.0 0.0 0.0 
-1.439739522668e-03 2.923561575683e-03 0.0 
2.923561575683e-03 6.477688913376e-03 0.0 
0.0 0.0 0.0 
1.370680566233e-03 -1.500220575677e-04 0.0 
-1.500220575677e-04 -1.864889927693e-04 0.0 
0.0 0.0 0.0 
-5.678778205043e-04 -1.075983172648e-03 0.0 
-1.075983172648e-03 3.534953837273e-03 0.0 
0.0 0.0 0.0 
0.0 3.433676839291e-04 0.0 
3.433676839291e-04 1.176774103460e-02 0.0 
0.0 0.0 0.0 
-2.335834262494e-04 3.895987009784e-04 0.0 
3.895987009784e-04 1.177065175389e-02 0.0 
0.0 0.0 0.0 
-1.801794520176e-03 3.962908671379e-04 0.0 
3.962908671379e-04 8.819382999099e-03 0.0 
0.0 0.0 0.0 
2.876445602307e-03 4.481198702280e-04 0.0 
4.481198702280e-04 -3.694880736782e-05 0.0 
0.0 0.0 0.0 
0.0 9.119400529155e-04 0.0 
9.119400529155e-04 1.164485918620e-02 0.0 
0.0 0.0 0.0 
1.420966070981e-03 2.996735023712e-03 0.0 
2.996735023712e-03 3.367869936590e-03 0.0 
0.0 0.0 0.0 
1.443876835828e-03 -1.149718796174e-04 0.0 
-1.149718796174e-04 1.297934575817e-04 0.0 
0.0 0.0 0.0 
1.985732094355e-03 -1.189715880812e-04 0.0 
-1.189715880812e-04 -4.267231490414e-04 0.0 
0.0 0.0 0.0 
1.459582918302e-03 -4.371738511180e-05 0.0 
-4.371738511180e-05 -1.989493487652e-04 0.0 
0.0 0.0 0.0 
-1.401345947446e-03 -1.232938190384e-04 0.0 
-1.232938190384e-04 3.323532560434e-03 0.0 
0.0 0.0 0.0 
-1.631445677203e-04 -4.333513529059e-04 0.0 
-4.333513529059e-04 5.873354429584e-03 0.0 
0.0 0.0 0.0 
-4.034399316755e-04 -1.102813334460e-05 0.0 
-1.102813334460e-05 1.154273711223e-02 0.0 
0.0 0.0 0.0 
1.987620729864e-03 -7.301856653471e-05 0.0 
-7.301856653471e-05 -7.448623141092e-04 0.0 
0.0 0.0 0.0 
-1.428066170356e-03 -1.458867753595e-04 0.0 
-1.458867753595e-04 3.653455741103e-03 0.0 
0.0 0.0 0.0 
0.0 -3.238426069398e-04 0.0 
-3.238426069398e-04 5.946795436189e-03 0.0 
0.0 0.0 0.0 
-1.575458414756e-04 -5.079972095618e-04 0.0 
-5.079972095618e-04 5.772880370071e-03 0.0 
0.0 0.0 0.0 
3.338094501764e-04 -3.044223413558e-04 0.0 
-3.044223413558e-04 4.624508696006e-03 0.0 
0.0 0.0 0.0 
-1.049824720079e-03 8.595794384712e-05 0.0 
8.595794384712e-05 1.054817087624e-02 0.0 
0.0 0.0 0.0 
-8.189301414532e-04 -1.636602923255e-05 0.0 
-1.636602923255e-05 1.100344690033e-02 0.0 
0.0 0.0 0.0 
0.0 -4.175894010553e-04 0.0 
-4.175894010553e-04 5.824695704362e-03 0.0 
0.0 0.0 0.0 
0.0 -5.066696414447e-04 0.0 
-5.066696414447e-04 5.718832145960e-03 0.0 
0.0 0.0 0.0 
-8.971739585308e-04 9.593688560043e-05 0.0 
9.593688560043e-05 1.085311345868e-02 0.0 
0.0 0.0 0.0 
2.722249737120e-03 -1.999379451645e-06 0.0 
-1.999379451645e-06 -1.042165675540e-03 0.0 
0.0 0.0 0.0 
-1.543273372591e-03 1.401940318357e-04 0.0 
1.401940318357e-04 8.867270340879e-03 0.0 
0.0 0.0 0.0 
-1.731262614969e-03 3.126392269540e-04 0.0 
3.126392269540e-04 8.859982462232e-03 0.0 
0.0 0.0 0.0 
1.872107690390e-03 -8.054637802506e-05 0.0 
-8.054637802506e-05 -6.869135126952e-04 0.0 
0.0 0.0 0.0 
0.0 -5.932715958770e-04 0.0 
-5.932715958770e-04 5.266628361565e-03 0.0 
0.0 0.0 0.0 
2.212312592005e-04 -4.698087234196e-04 0.0 
-4.698087234196e-04 4.776600655462e-03 0.0 
0.0 0.0 0.0 
0.0 -4.588402251163e-04 0.0 
-4.588402251163e-04 4.855610924697e-03 0.0 
0.0 0.0 0.0 
2.560135600099e-03 -6.382185175965e-05 0.0 
-6.382185175965e-05 -9.314891629006e-04 0.0 
0.0 0.0 0.0 
2.401604314910e-03 -8.462466508680e-05 0.0 
-8.462466508680e-05 -8.680090730064e-04 0.0 
0.0 0.0 0.0 
0.0 -1.463390902048e-04 0.0 
-1.463390902048e-04 4.553239697518e-03 0.0 
0.0 0.0 0.0 
0.0 -3.313604883408e-04 0.0 
-3.313604883408e-04 4.690080184135e-03 0.0 
0.0 0.0 0.0 
-1.119799799372e-03 -2.196342566451e-05 0.0 
-2.196342566451e-05 1.038270017370e-02 0.0 
0.0 0.0 0.0 
-1.429560793499e-03 5.927240840545e-05 0.0 
5.927240840545e-05 8.854246654557e-03 0.0 
0.0 0.0 0.0 
-9.800145067695e-04 -1.869723722335e-05 0.0 
-1.869723722335e-05 1.070316105371e-02 0.0 
0.0 0.0 0.0 
-1.303620272337e-03 -2.574263118861e-05 0.0 
-2.574263118861e-05 9.677430383897e-03 0.0 
0.0 0.0 0.0 
-1.382873542248e-03 2.282485170405e-05 0.0 
2.282485170405e-05 8.844739745455e-03 0.0 
0.0 0.0 0.0 
1.653715383600e-03 -1.872003644764e-04 0.0 
-1.872003644764e-04 -5.629943016817e-04 0.0 
0.0 0.0 0.0 
8.708734572975e-04 -1.574329813371e-04 0.0 
-1.574329813371e-04 -1.783492713683e-04 0.0 
0.0 0.0 0.0 
5.807484929408e-04 -1.512765853252e-04 0.0 
-1.512765853252e-04 -5.655313101505e-05 0.0 
0.0 0.0 0.0 
2.302120087450e-04 -1.169684996764e-04 0.0 
-1.169684996764e-04 1.234197296562e-04 0.0 
0.0 0.0 0.0 
-1.419613113036e-03 -9.686205517372e-05 0.0 
-9.686205517372e-05 3.792966605328e-03 0.0 
0.0 0.0 0.0 
-1.436116081153e-03 -1.134142971408e-04 0.0 
-1.134142971408e-04 3.564684493341e-03 0.0 
0.0 0.0 0.0 
1.279581693092e-04 -1.640009354385e-04 0.0 
-1.640009354385e-04 7.687317809824e-05 0.0 
0.0 0.0 0.0 
-1.166324178856e-03 -5.742656771102e-05 0.0 
-5.742656771102e-05 4.448583614997e-03 0.0 
0.0 0.0 0.0 
-1.739552008723e-04 -1.605932998980e-04 0.0 
-1.605932998980e-04 2.120165308694e-04 0.0 
0.0 0.0 0.0 
0.0 1.793595991923e-03 0.0 
1.793595991923e-03 1.116189439747e-02 0.0 
0.0 0.0 0.0 
0.0 7.643858183192e-04 0.0 
7.643858183192e-04 1.169001214494e-02 0.0 
0.0 0.0 0.0 
0.0 1.255227046009e-03 0.0 
1.255227046009e-03 1.148386004222e-02 0.0 
0.0 0.0 0.0 
3.134757809977e-04 -1.230042455586e-04 0.0 
-1.230042455586e-04 1.142104452542e-03 0.0 
0.0 0.0 0.0 
-1.068091570488e-03 -1.301625700912e-04 0.0 
-1.301625700912e-04 2.695666770317e-03 0.0 
0.0 0.0 0.0 
0.0 6.068501022883e-04 0.0 
6.068501022883e-04 1.171290792243e-02 0.0 
0.0 0.0 0.0 
-7.424795719247e-04 -1.541041090177e-05 0.0 
-1.541041090177e-05 5.228111577670e-03 0.0 
0.0 0.0 0.0 
0.0 4.786947808801e-04 0.0 
4.786947808801e-04 1.177567388642e-02 0.0 
0.0 0.0 0.0 
-5.729677973348e-04 -3.388608509937e-06 0.0 
-3.388608509937e-06 5.502203646068e-03 0.0 
0.0 0.0 0.0 
-3.753396749332e-04 2.405058660680e-06 0.0 
2.405058660680e-06 5.764700870864e-03 0.0 
0.0 0.0 0.0 
-1.418667214086e-03 -1.382950173614e-04 0.0 
-1.382950173614e-04 3.427498045736e-03 0.0 
0.0 0.0 0.0 
-2.776082039450e-04 6.921542350083e-04 0.0 
6.921542350083e-04 1.170197604059e-02 0.0 
0.0 0.0 0.0 
-2.257591958182e-04 5.859650517754e-04 0.0 
5.859650517754e-04 1.173667487391e-02 0.0 
0.0 0.0 0.0 
-6.500368345740e-04 -1.211748686064e-04 0.0 
-1.211748686064e-04 5.332101072614e-03 0.0 
0.0 0.0 0.0 
-4.719936323195e-04 -1.222330479612e-04 0.0 
-1.222330479612e-04 5.620903754534e-03 0.0 
0.0 0.0 0.0 
-8.086974965503e-04 -6.589336558714e-04 0.0 
-6.589336558714e-04 4.286584707863e-03 0.0 
0.0 0.0 0.0 
-1.171872114936e-03 -3.453192032320e-04 0.0 
-3.453192032320e-04 5.829154983692e-04 0.0 
0.0 0.0 0.0 
-9.409589901629e-04 -1.346687993747e-03 0.0 
-1.346687993747e-03 2.671970603331e-03 0.0 
0.0 0.0 0.0 
1.490541396298e-03 -3.080693520030e-04 0.0 
-3.080693520030e-04 -2.144831749438e-04 0.0 
0.0 0.0 0.0 
1.115089280157e-04 -7.219660322661e-04 0.0 
-7.219660322661e-04 4.117495415480e-03 0.0 
0.0 0.0 0.0 
-5.811678419467e-04 -1.693721360508e-03 0.0 
-1.693721360508e-03 2.507774419375e-03 0.0 
0.0 0.0 0.0 
-3.915501319240e-04 -6.313808277255e-04 0.0 
-6.313808277255e-04 4.583816601909e-03 0.0 
0.0 0.0 0.0 
-1.501101414644e-04 -1.668533965617e-03 0.0 
-1.668533965617e-03 1.174017996201e-03 0.0 
0.0 0.0 0.0 
3.143258057849e-04 -5.896634926114e-04 0.0 
-5.896634926114e-04 5.621637733366e-04 0.0 
0.0 0.0 0.0 
-4.270116085783e-04 -5.572526472312e-04 0.0 
-5.572526472312e-04 4.923698183608e-03 0.0 
0.0 0.0 0.0 
-9.509761743192e-04 -1.301123127439e-03 0.0 
-1.301123127439e-03 2.895612797963e-03 0.0 
0.0 0.0 0.0 
-1.340240814910e-03 -3.654172080843e-04 0.0 
-3.654172080843e-04 3.167013597776e-03 0.0 
0.0 0.0 0.0 
-5.252008234337e-04 -6.334158827324e-04 0.0 
-6.334158827324e-04 4.584981645098e-03 0.0 
0.0 0.0 0.0 
-6.104872409126e-04 2.948190692679e-04 0.0 
2.948190692679e-04 1.124134497291e-02 0.0 
0.0 0.0 0.0 
-1.343257305759e-03 -1.168331960660e-04 0.0 
-1.168331960660e-04 3.171717271236e-03 0.0 
0.0 0.0 0.0 
1.517155593252e-03 -7.656086565316e-04 0.0 
-7.656086565316e-04 1.406911909710e-03 0.0 
0.0 0.0 0.0 
4.423718759330e-04 -1.457842024332e-03 0.0 
-1.457842024332e-03 2.374963719308e-03 0.0 
0.0 0.0 0.0 
-6.591635105972e-04 -7.072255739527e-04 0.0 
-7.072255739527e-04 4.293141096564e-03 0.0 
0.0 0.0 0.0 
-7.511562629816e-04 -5.180804683710e-04 0.0 
-5.180804683710e-04 4.585750190195e-03 0.0 
0.0 0.0 0.0 
4.558185358227e-03 2.070509772986e-03 0.0 
2.070509772986e-03 -3.088850316904e-03 0.0 
0.0 0.0 0.0 
-1.574790883474e-03 2.758845121674e-03 0.0 
2.758845121674e-03 6.422419610934e-03 0.0 
0.0 0.0 0.0 
1.712911717361e-03 3.658315770717e-03 0.0 
3.658315770717e-03 1.536028670226e-03 0.0 
0.0 0.0 0.0 
-3.537752121089e-04 -1.112820348840e-03 0.0 
-1.112820348840e-03 3.539359514107e-03 0.0 
0.0 0.0 0.0 
-5.827889194495e-04 -4.924070109527e-04 0.0 
-4.924070109527e-04 4.904227695169e-03 0.0 
0.0 0.0 0.0 
-7.973400882229e-04 -3.430564297009e-04 0.0 
-3.430564297009e-04 4.830647290660e-03 0.0 
0.0 0.0 0.0 
8.882933539667e-05 -2.339266839994e-03 0.0 
-2.339266839994e-03 7.492448987909e-04 0.0 
0.0 0.0 0.0 
-6.581150207089e-04 5.059272213095e-04 0.0 
5.059272213095e-04 1.120024433419e-02 0.0 
0.0 0.0 0.0 
-8.581643796403e-04 4.452070119949e-04 0.0 
4.452070119949e-04 1.092974267278e-02 0.0 
0.0 0.0 0.0 
-1.409220805442e-03 2.012806958022e-04 0.0 
2.012806958022e-04 9.401191399098e-03 0.0 
0.0 0.0 0.0 
-9.158758933769e-05 -1.112501521726e-03 0.0 
-1.112501521726e-03 3.418789322242e-03 0.0 
0.0 0.0 0.0 
-5.266202590399e-04 -9.069359412665e-04 0.0 
-9.069359412665e-04 3.940819894476e-03 0.0 
0.0 0.0 0.0 
-6.860042948234e-04 2.735719038470e-04 0.0 
2.735719038470e-04 1.124883366145e-02 0.0 
0.0 0.0 0.0 
-7.581185369036e-04 3.826810196571e-04 0.0 
3.826810196571e-04 1.109452528398e-02 0.0 
0.0 0.0 0.0 
4.409957480718e-04 -1.658271886643e-03 0.0 
-1.658271886643e-03 1.790952989941e-03 0.0 
0.0 0.0 0.0 
-4.534253086855e-04 -4.451020071934e-04 0.0 
-4.451020071934e-04 5.221254485527e-03 0.0 
0.0 0.0 0.0 
-9.933745077831e-04 8.250618706141e-04 0.0 
8.250618706141e-04 1.078220829944e-02 0.0 
0.0 0.0 0.0 
-8.485741118835e-04 -2.882398915499e-04 0.0 
-2.882398915499e-04 4.830698881731e-03 0.0 
0.0 0.0 0.0 
-2.015519200937e-05 -6.828076836544e-04 0.0 
-6.828076836544e-04 4.572402718552e-03 0.0 
0.0 0.0 0.0 
-7.383970411995e-04 4.859612894217e-04 0.0 
4.859612894217e-04 1.120410134858e-02 0.0 
0.0 0.0 0.0 
-1.229877749218e-03 3.961060713868e-04 0.0 
3.961060713868e-04 1.046234188081e-02 0.0 
0.0 0.0 0.0 
1.318565280973e-03 -1.080609931871e-03 0.0 
-1.080609931871e-03 1.383845368718e-03 0.0 
0.0 0.0 0.0 
-6.018722039939e-04 -8.197271660244e-04 0.0 
-8.197271660244e-04 1.930864860313e-03 0.0 
0.0 0.0 0.0 
1.763682647529e-04 -2.489905325384e-03 0.0 
-2.489905325384e-03 4.925165198997e-04 0.0 
0.0 0.0 0.0 
-9.917986922192e-05 -9.972726535936e-04 0.0 
-9.972726535936e-04 8.409267853127e-04 0.0 
0.0 0.0 0.0 
-1.179429012025e-03 -1.847835676044e-03 0.0 
-1.847835676044e-03 4.544411160183e-04 0.0 
0.0 0.0 0.0 
-8.096365014502e-04 3.549345876596e-04 0.0 
3.549345876596e-04 1.109734614992e-02 0.0 
0.0 0.0 0.0 
-5.263007493647e-04 -3.581128565167e-04 0.0 
-3.581128565167e-04 5.175502998390e-03 0.0 
0.0 0.0 0.0 
-7.712918374895e-04 -1.117207083648e-03 0.0 
-1.117207083648e-03 5.733980375906e-04 0.0 
0.0 0.0 0.0 
-9.785477483928e-04 2.537049633144e-03 0.0 
2.537049633144e-03 9.441129498130e-03 0.0 
0.0 0.0 0.0 
-1.408743237067e-03 2.673973426766e-04 0.0 
2.673973426766e-04 9.579506279007e-03 0.0 
0.0 0.0 0.0 
-4.323936834189e-04 -7.884400741283e-04 0.0 
-7.884400741283e-04 4.211644928049e-03 0.0 
0.0 0.0 0.0 
-6.355567899533e-04 -4.305228172307e-04 0.0 
-4.305228172307e-04 4.874332253261e-03 0.0 
0.0 0.0 0.0 
1.450898745773e-03 -2.556502864085e-03 0.0 
-2.556502864085e-03 -3.354512465619e-04 0.0 
0.0 0.0 0.0 
-7.382338185894e-04 -4.120978981109e-04 0.0 
-4.120978981109e-04 4.872213595188e-03 0.0 
0.0 0.0 0.0 
-1.480170643271e-03 1.531454625284e-04 0.0 
1.531454625284e-04 9.400131416732e-03 0.0 
0.0 0.0 0.0 
2.733315348733e-03 1.725087689390e-03 0.0 
1.725087689390e-03 7.476924291832e-04 0.0 
0.0 0.0 0.0 
-6.143872951381e-05 -5.740976178880e-04 0.0 
-5.740976178880e-04 4.970958786543e-03 0.0 
0.0 0.0 0.0 
-5.441495285723e-04 -4.626188871805e-04 0.0 
-4.626188871805e-04 1.955968453609e-03 0.0 
0.0 0.0 0.0 
2.443158502792e-04 -6.611799244706e-04 0.0 
-6.611799244706e-04 4.156295704136e-03 0.0 
0.0 0.0 0.0 
-1.113740889519e-03 3.548027701062e-04 0.0 
3.548027701062e-04 1.064100646858e-02 0.0 
0.0 0.0 0.0 
-7.575779946623e-04 -6.872797344992e-04 0.0 
-6.872797344992e-04 2.190849901006e-03 0.0 
0.0 0.0 0.0 
3.949010659039e-04 -2.580772939411e-03 0.0 
-2.580772939411e-03 3.028782613721e-04 0.0 
0.0 0.0 0.0 
-1.206603868256e-03 -6.642150613104e-04 0.0 
-6.642150613104e-04 3.838507271338e-03 0.0 
0.0 0.0 0.0 
-1.332666827756e-03 4.684153392310e-04 0.0 
4.684153392310e-04 1.008391925769e-02 0.0 
0.0 0.0 0.0 
-5.992574527089e-04 -1.776286981987e-03 0.0 
-1.776286981987e-03 2.126607287570e-03 0.0 
0.0 0.0 0.0 
-9.964649975203e-04 3.053103823982e-04 0.0 
3.053103823982e-04 1.081658928149e-02 0.0 
0.0 0.0 0.0 
-1.248485523804e-03 2.853046219053e-04 0.0 
2.853046219053e-04 1.031958090538e-02 0.0 
0.0 0.0 0.0 
-7.583674160636e-04 -1.345904991970e-03 0.0 
-1.345904991970e-03 3.149689559487e-03 0.0 
0.0 0.0 0.0 
-8.554068252433e-04 -4.661884138147e-04 0.0 
-4.661884138147e-04 4.582186522623e-03 0.0 
0.0 0.0 0.0 
-6.965693737861e-04 -5.745396476050e-04 0.0 
-5.745396476050e-04 4.583717171850e-03 0.0 
0.0 0.0 0.0 
-1.027279059037e-03 3.813601718804e-04 0.0 
3.813601718804e-04 1.063679488803e-02 0.0 
0.0 0.0 0.0 
-1.450099426884e-04 -7.813458605844e-04 0.0 
-7.813458605844e-04 1.386934450015e-03 0.0 
0.0 0.0 0.0 
-9.862743310652e-04 -1.195022426977e-03 0.0 
-1.195022426977e-03 3.279294948765e-03 0.0 
0.0 0.0 0.0 
1.533635904496e-03 2.455441731597e-03 0.0 
2.455441731597e-03 2.987205259420e-03 0.0 
0.0 0.0 0.0 
-1.075097007405e-03 4.754174453373e-04 0.0 
4.754174453373e-04 1.076330145954e-02 0.0 
0.0 0.0 0.0 
-1.020782363955e-03 -1.267165592202e-03 0.0 
-1.267165592202e-03 3.057205585410e-03 0.0 
0.0 0.0 0.0 
1.374159380605e-04 -1.487815190187e-03 0.0 
-1.487815190187e-03 2.381731917442e-03 0.0 
0.0 0.0 0.0 
4.349159186583e-04 -6.479705977321e-04 0.0 
-6.479705977321e-04 3.688296687917e-03 0.0 
0.0 0.0 0.0 
-1.133444632221e-03 4.198268726870e-04 0.0 
4.198268726870e-04 1.045924796091e-02 0.0 
0.0 0.0 0.0 
1.809227918479e-03 -7.787923416136e-04 0.0 
-7.787923416136e-04 -4.590044059155e-03 0.0 
0.0 0.0 0.0 
2.484399919347e-04 -6.753096642406e-04 0.0 
-6.753096642406e-04 6.870086525308e-04 0.0 
0.0 0.0 0.0 
3.712462613883e-03 4.036458383804e-04 0.0 
4.036458383804e-04 -4.070050247402e-03 0.0 
0.0 0.0 0.0 
-4.836135296353e-04 -4.948137676879e-04 0.0 
-4.948137676879e-04 4.904025793919e-03 0.0 
0.0 0.0 0.0 
-1.235532910885e-03 4.487669398852e-04 0.0 
4.487669398852e-04 1.027495899436e-02 0.0 
0.0 0.0 0.0 
-1.222596699854e-03 -4.591733444407e-04 0.0 
-4.591733444407e-04 4.043296198481e-03 0.0 
0.0 0.0 0.0 
-1.420971446053e-03 3.644152924221e-04 0.0 
3.644152924221e-04 9.745670205734e-03 0.0 
0.0 0.0 0.0 
1.340669145728e-03 -2.064967716278e-04 0.0 
-2.064967716278e-04 2.255445080489e-03 0.0 
0.0 0.0 0.0 
-9.223711282157e-04 -1.091189745720e-03 0.0 
-1.091189745720e-03 3.511268937269e-03 0.0 
0.0 0.0 0.0 
-5.630960476619e-04 -5.941627195374e-04 0.0 
-5.941627195374e-04 4.585939890446e-03 0.0 
0.0 0.0 0.0 
-4.354296223347e-04 -5.556990100257e-04 0.0 
-5.556990100257e-04 1.887040254578e-03 0.0 
0.0 0.0 0.0 
5.926501123721e-05 -6.250506668887e-04 0.0 
-6.250506668887e-04 4.574767711653e-03 0.0 
0.0 0.0 0.0 
-9.258056392234e-04 -1.222560654582e-03 0.0 
-1.222560654582e-03 3.131298446780e-03 0.0 
0.0 0.0 0.0 
-6.137784099767e-04 -4.176107758484e-04 0.0 
-4.176107758484e-04 2.148050862199e-03 0.0 
0.0 0.0 0.0 
-1.108667241755e-03 -1.038135605014e-03 0.0 
-1.038135605014e-03 3.254475760046e-03 0.0 
0.0 0.0 0.0 
-8.242155070627e-04 -1.550946738145e-03 0.0 
-1.550946738145e-03 2.490995906154e-03 0.0 
0.0 0.0 0.0 
-3.762710986875e-04 -1.698938477339e-03 0.0 
-1.698938477339e-03 1.569663394157e-03 0.0 
0.0 0.0 0.0 
-1.116526703670e-03 -5.846349838944e-04 0.0 
-5.846349838944e-04 4.066570311762e-03 0.0 
0.0 0.0 0.0 
9.775128290876e-04 -1.303132246619e-04 0.0 
-1.303132246619e-04 -2.847376596139e-04 0.0 
0.0 0.0 0.0 
5.725640250429e-04 -1.899155373978e-04 0.0 
-1.899155373978e-04 -1.164204189212e-04 0.0 
0.0 0.0 0.0 
-7.066072189460e-04 -8.644157770621e-04 0.0 
-8.644157770621e-04 3.935350914674e-03 0.0 
0.0 0.0 0.0 
-2.476449485663e-04 -6.604633378269e-04 0.0 
-6.604633378269e-04 1.631969808645e-03 0.0 
0.0 0.0 0.0 
-3.294994188344e-04 -1.109523309362e-03 0.0 
-1.109523309362e-03 3.419735267674e-03 0.0 
0.0 0.0 0.0 
-1.194353299743e-04 -1.301372544321e-03 0.0 
-1.301372544321e-03 2.926357425702e-03 0.0 
0.0 0.0 0.0 
7.312765079037e-06 -2.138122533458e-03 0.0 
-2.138122533458e-03 1.593003188739e-03 0.0 
0.0 0.0 0.0 
1.681294879083e-03 -2.892428619082e-03 0.0 
-2.892428619082e-03 -8.281255139757e-04 0.0 
0.0 0.0 0.0 
-9.735740871364e-04 7.610262719226e-04 0.0 
7.610262719226e-04 1.095918984215e-02 0.0 
0.0 0.0 0.0 
1.699887236606e-03 3.323395627859e-03 0.0 
3.323395627859e-03 -3.113604350957e-03 0.0 
0.0 0.0 0.0 
-1.014675005508e-03 -1.308280343774e-03 0.0 
-1.308280343774e-03 2.812119231565e-03 0.0 
0.0 0.0 0.0 
1.298547224279e-03 1.400944495098e-04 0.0 
1.400944495098e-04 2.466389914613e-03 0.0 
0.0 0.0 0.0 
-2.396726725926e-04 -6.391404117766e-04 0.0 
-6.391404117766e-04 1.491283880512e-03 0.0 
0.0 0.0 0.0 
-1.444814428073e-03 3.376971870640e-04 0.0 
3.376971870640e-04 9.945834079080e-03 0.0 
0.0 0.0 0.0 
-1.517797857639e-03 2.376188972524e-04 0.0 
2.376188972524e-04 9.583975976630e-03 0.0 
0.0 0.0 0.0 
-1.158084274521e-04 -1.361960880502e-03 0.0 
-1.361960880502e-03 1.074933993592e-03 0.0 
0.0 0.0 0.0 
6.803595511660e-04 -6.126259546482e-04 0.0 
-6.126259546482e-04 3.160213448780e-03 0.0 
0.0 0.0 0.0 
-1.307001541583e-03 7.033310748671e-04 0.0 
7.033310748671e-04 1.050857911176e-02 0.0 
0.0 0.0 0.0 
-4.732048714438e-04 -9.341587583706e-04 0.0 
-9.341587583706e-04 1.689264727630e-03 0.0 
0.0 0.0 0.0 
-9.132425944853e-04 9.224198183335e-04 0.0 
9.224198183335e-04 1.103268208837e-02 0.0 
0.0 0.0 0.0 
-7.741260175722e-04 9.352674250724e-04 0.0 
9.352674250724e-04 1.102982990110e-02 0.0 
0.0 0.0 0.0 
-4.107246264662e-04 -1.006778000643e-03 0.0 
-1.006778000643e-03 1.719763286610e-03 0.0 
0.0 0.0 0.0 
-2.559621940467e-04 3.785510211007e-03 0.0 
3.785510211007e-03 3.405763807829e-03 0.0 
0.0 0.0 0.0 
-2.856172024094e-04 -1.522793918458e-03 0.0 
-1.522793918458e-03 1.420075415593e-03 0.0 
0.0 0.0 0.0 
-6.131204056807e-04 -7.452259659784e-04 0.0 
-7.452259659784e-04 4.251239881011e-03 0.0 
0.0 0.0 0.0 
-1.040181340481e-03 -8.337293375377e-04 0.0 
-8.337293375377e-04 3.813474588361e-03 0.0 
0.0 0.0 0.0 
-8.690285978360e-04 2.208463194756e-03 0.0 
2.208463194756e-03 9.963342295499e-03 0.0 
0.0 0.0 0.0 
-8.535840786060e-04 7.710551766647e-04 0.0 
7.710551766647e-04 1.095759912071e-02 0.0 
0.0 0.0 0.0 
-4.937259446857e-04 -9.222805000335e-04 0.0 
-9.222805000335e-04 3.861583896191e-03 0.0 
0.0 0.0 0.0 
-2.994488389603e-04 -9.361192970061e-04 0.0 
-9.361192970061e-04 3.862564177453e-03 0.0 
0.0 0.0 0.0 
-3.610889967328e-04 -1.472535031499e-03 0.0 
-1.472535031499e-03 1.268613086476e-03 0.0 
0.0 0.0 0.0 
-4.634958258370e-04 -7.661146086572e-04 0.0 
-7.661146086572e-04 4.253560805337e-03 0.0 
0.0 0.0 0.0 
-1.173712969671e-03 7.109038078869e-04 0.0 
7.109038078869e-04 1.050724049950e-02 0.0 
0.0 0.0 0.0 
-1.156102555841e-03 -7.059466229528e-04 0.0 
-7.059466229528e-04 3.794375021099e-03 0.0 
0.0 0.0 0.0 
-1.342062156144e-03 4.290685516163e-04 0.0 
4.290685516163e-04 1.027761175061e-02 0.0 
0.0 0.0 0.0 
-1.170429707161e-03 6.611831975741e-04 0.0 
6.611831975741e-04 1.069252165866e-02 0.0 
0.0 0.0 0.0 
4.076266307922e-03 2.366835928775e-03 0.0 
2.366835928775e-03 -2.079195350064e-03 0.0 
0.0 0.0 0.0 
-9.188877824221e-04 6.287730488822e-04 0.0 
6.287730488822e-04 1.086864956029e-02 0.0 
0.0 0.0 0.0 
-1.168950038150e-03 -1.014236930354e-03 0.0 
-1.014236930354e-03 3.366821907429e-03 0.0 
0.0 0.0 0.0 
-1.065030322599e-03 -9.611537796568e-04 0.0 
-9.611537796568e-04 3.491705347865e-03 0.0 
0.0 0.0 0.0 
-9.767040494462e-04 -1.306247365875e-03 0.0 
-1.306247365875e-03 2.601810652623e-03 0.0 
0.0 0.0 0.0 
4.293610267099e-04 -2.432026387558e-03 0.0 
-2.432026387558e-03 6.264646161871e-04 0.0 
0.0 0.0 0.0 
-1.208013089434e-03 5.710788383646e-04 0.0 
5.710788383646e-04 1.039947454830e-02 0.0 
0.0 0.0 0.0 
1.262360649051e-03 -2.057673904210e-03 0.0 
-2.057673904210e-03 1.466021918148e-04 0.0 
0.0 0.0 0.0 
-4.496833412854e-04 -1.355368020233e-03 0.0 
-1.355368020233e-03 1.700418110943e-03 0.0 
0.0 0.0 0.0 
-3.593741518748e-05 -9.796352100665e-04 0.0 
-9.796352100665e-04 9.259690401198e-04 0.0 
0.0 0.0 0.0 
-1.328645149199e-03 5.582932478582e-04 0.0 
5.582932478582e-04 1.040137751139e-02 0.0 
0.0 0.0 0.0 
-5.219764118873e-04 -1.586554609327e-03 0.0 
-1.586554609327e-03 1.736667956549e-03 0.0 
0.0 0.0 0.0 
3.433490866562e-04 -5.650157250403e-04 0.0 
-5.650157250403e-04 4.146411731280e-03 0.0 
0.0 0.0 0.0 
-1.093844636551e-03 5.392390094927e-04 0.0 
5.392390094927e-04 1.058323634063e-02 0.0 
0.0 0.0 0.0 
-2.471845366259e-04 -7.795964610405e-04 0.0 
-7.795964610405e-04 4.209236415620e-03 0.0 
0.0 0.0 0.0 
5.599105124330e-04 1.001767001209e-03 0.0 
1.001767001209e-03 3.593754941886e-03 0.0 
0.0 0.0 0.0 
-1.110105991226e-03 -1.088497090370e-03 0.0 
-1.088497090370e-03 3.020735622717e-03 0.0 
0.0 0.0 0.0 
-5.605371163575e-04 -1.253420333321e-03 0.0 
-1.253420333321e-03 1.758722581052e-03 0.0 
0.0 0.0 0.0 
-3.248159530393e-04 -1.141334263738e-03 0.0 
-1.141334263738e-03 1.066847630925e-03 0.0 
0.0 0.0 0.0 
-7.420867132479e-05 -1.102404186441e-03 0.0 
-1.102404186441e-03 3.300996381017e-03 0.0 
0.0 0.0 0.0 
-1.260217246617e-03 3.462016977143e-04 0.0 
3.462016977143e-04 1.013680376819e-02 0.0 
0.0 0.0 0.0 
-1.084959779527e-04 -8.570083299342e-04 0.0 
-8.570083299342e-04 7.366899144863e-04 0.0 
0.0 0.0 0.0 
-6.805199765700e-04 -1.580748087518e-03 0.0 
-1.580748087518e-03 2.097055178025e-03 0.0 
0.0 0.0 0.0 
-1.772254462818e-04 -2.926596011384e-04 0.0 
-2.926596011384e-04 1.672684971984e-03 0.0 
0.0 0.0 0.0 
-1.449332170894e-03 4.548140426070e-04 0.0 
4.548140426070e-04 1.008588445514e-02 0.0 
0.0 0.0 0.0 
-8.980671874936e-04 -1.350093555002e-03 0.0 
-1.350093555002e-03 2.460693933537e-03 0.0 
0.0 0.0 0.0 
1.549904487854e-04 -1.290476924942e-03 0.0 
-1.290476924942e-03 2.922909912157e-03 0.0 
0.0 0.0 0.0 
-9.961642900425e-04 -1.060305780322e-03 0.0 
-1.060305780322e-03 2.576203170620e-03 0.0 
0.0 0.0 0.0 
-9.432253274201e-04 4.213946411300e-04 0.0 
4.213946411300e-04 1.093321016030e-02 0.0 
0.0 0.0 0.0 
-5.753409495345e-04 -1.716379600972e-03 0.0 
-1.716379600972e-03 1.942430907061e-03 0.0 
0.0 0.0 0.0 
4.055673423213e-04 -1.155121738806e-03 0.0 
-1.155121738806e-03 2.669259229693e-03 0.0 
0.0 0.0 0.0 
1.475020047668e-04 -2.400273485059e-03 0.0 
-2.400273485059e-03 4.786538045991e-04 0.0 
0.0 0.0 0.0 
1.599308756952e-04 -1.260670583289e-03 0.0 
-1.260670583289e-03 2.776961477886e-03 0.0 
0.0 0.0 0.0 
-1.226908937736e-03 -7.694651836471e-04 0.0 
-7.694651836471e-04 3.566488771074e-03 0.0 
0.0 0.0 0.0 
-5.679127816727e-05 -9.274355439836e-04 0.0 
-9.274355439836e-04 3.776194373882e-03 0.0 
0.0 0.0 0.0 
4.597081542222e-03 -2.438385946272e-04 0.0 
-2.438385946272e-04 -3.495985672911e-03 0.0 
0.0 0.0 0.0 
-3.932369220482e-04 -5.671305177166e-04 0.0 
-5.671305177166e-04 1.745401268581e-03 0.0 
0.0 0.0 0.0 
-1.437903454288e-03 2.390804795056e-04 0.0 
2.390804795056e-04 9.792495932776e-03 0.0 
0.0 0.0 0.0 
2.676240049598e-03 -3.905408529999e-04 0.0 
-3.905408529999e-04 -3.367002360897e-04 0.0 
0.0 0.0 0.0 
2.713349797041e-04 3.764036213491e-03 0.0 
3.764036213491e-03 3.086683194084e-03 0.0 
0.0 0.0 0.0 
-1.349709164303e-03 3.168479578427e-04 0.0 
3.168479578427e-04 1.013778753664e-02 0.0 
0.0 0.0 0.0 
5.661823243410e-04 -2.756514578460e-03 0.0 
-2.756514578460e-03 -9.758033300977e-05 0.0 
0.0 0.0 0.0 
-1.410493936445e-03 7.653766832765e-04 0.0 
7.653766832765e-04 1.011349337720e-02 0.0 
0.0 0.0 0.0 
-1.050615991416e-05 -4.048763495948e-04 0.0 
-4.048763495948e-04 1.394683761507e-03 0.0 
0.0 0.0 0.0 
3.082929261322e-04 -7.712986276676e-04 0.0 
-7.712986276676e-04 3.660521923146e-03 0.0 
0.0 0.0 0.0 
2.697200424534e-03 1.290023991273e-04 0.0 
1.290023991273e-04 1.190737855339e-05 0.0 
0.0 0.0 0.0 
2.363631226653e-03 2.052507788727e-03 0.0 
2.052507788727e-03 1.520087865948e-03 0.0 
0.0 0.0 0.0 
-7.411703901531e-04 8.584414224442e-04 0.0 
8.584414224442e-04 1.120835785866e-02 0.0 
0.0 0.0 0.0 
1.200949663712e-03 -1.869499410768e-03 0.0 
-1.869499410768e-03 4.967371464135e-04 0.0 
0.0 0.0 0.0 
-3.724475795038e-04 -1.025285508931e-03 0.0 
-1.025285508931e-03 1.442837920309e-03 0.0 
0.0 0.0 0.0 
7.612964899804e-04 -1.545030951216e-03 0.0 
-1.545030951216e-03 1.588650975978e-03 0.0 
0.0 0.0 0.0 
5.535715720235e-04 -5.382766117576e-04 0.0 
-5.382766117576e-04 3.670597084352e-03 0.0 
0.0 0.0 0.0 
1.425487894558e-03 -2.773097798413e-03 0.0 
-2.773097798413e-03 -9.122672809327e-04 0.0 
0.0 0.0 0.0 
-2.723020215161e-04 -9.445776761337e-04 0.0 
-9.445776761337e-04 3.780058910108e-03 0.0 
0.0 0.0 0.0 
-1.203879874900e-03 5.202011372903e-04 0.0 
5.202011372903e-04 1.058583758633e-02 0.0 
0.0 0.0 0.0 
2.163872082302e-03 -2.938017742318e-03 0.0 
-2.938017742318e-03 -1.434182129424e-03 0.0 
0.0 0.0 0.0 
4.366687151560e-04 -1.411409771748e-03 0.0 
-1.411409771748e-03 2.205927250699e-03 0.0 
0.0 0.0 0.0 
-1.639570313446e-03 4.882822752022e-04 0.0 
4.882822752022e-04 9.680758705012e-03 0.0 
0.0 0.0 0.0 
-7.713347036615e-04 -6.939700923979e-04 0.0 
-6.939700923979e-04 2.278709145194e-03 0.0 
0.0 0.0 0.0 
-4.428959819301e-04 -1.801388035914e-03 0.0 
-1.801388035914e-03 1.719633478101e-03 0.0 
0.0 0.0 0.0 
7.406861933474e-04 3.750021532037e-03 0.0 
3.750021532037e-03 3.230495578772e-03 0.0 
0.0 0.0 0.0 
1.719111153606e-04 -1.074837584363e-03 0.0 
-1.074837584363e-03 3.295297531445e-03 0.0 
0.0 0.0 0.0 
-6.427910461847e-04 3.566161651603e-03 0.0 
3.566161651603e-03 4.639709643547e-03 0.0 
0.0 0.0 0.0 
1.190385673599e-03 3.719897943109e-03 0.0 
3.719897943109e-03 2.376676573871e-03 0.0 
0.0 0.0 0.0 
-1.295002937045e-03 7.400267749226e-04 0.0 
7.400267749226e-04 1.031468589195e-02 0.0 
0.0 0.0 0.0 
-1.341418623902e-03 3.609402129461e-04 0.0 
3.609402129461e-04 9.942788960856e-03 0.0 
0.0 0.0 0.0 
-1.519645371476e-03 6.228509699011e-04 0.0 
6.228509699011e-04 9.808939859355e-03 0.0 
0.0 0.0 0.0 
-1.116473622352e-03 -9.335092782322e-04 0.0 
-9.335092782322e-04 3.601026747108e-03 0.0 
0.0 0.0 0.0 
9.706089451795e-04 -5.774874503628e-04 0.0 
-5.774874503628e-04 2.630097977114e-03 0.0 
0.0 0.0 0.0 
1.134660233789e-03 -1.642507128266e-03 0.0 
-1.642507128266e-03 9.335225281339e-04 0.0 
0.0 0.0 0.0 
-1.538838755647e-03 3.521653189263e-04 0.0 
3.521653189263e-04 9.747456440225e-03 0.0 
0.0 0.0 0.0 
-8.041436384122e-04 2.759391178441e-03 0.0 
2.759391178441e-03 9.242337632418e-03 0.0 
0.0 0.0 0.0 
1.977300720691e-03 2.310355244408e-03 0.0 
2.310355244408e-03 2.297459530103e-03 0.0 
0.0 0.0 0.0 
4.410290603418e-04 -1.215866020811e-03 0.0 
-1.215866020811e-03 2.768396168175e-03 0.0 
0.0 0.0 0.0 
-1.047815714708e-03 6.732809972117e-04 0.0 
6.732809972117e-04 1.069068743944e-02 0.0 
0.0 0.0 0.0 
9.354443922049e-05 -2.241877160879e-03 0.0 
-2.241877160879e-03 1.108013165496e-03 0.0 
0.0 0.0 0.0 
-2.113242003833e-04 -2.056510789004e-03 0.0 
-2.056510789004e-03 1.448184135940e-03 0.0 
0.0 0.0 0.0 
-1.418687784046e-04 -1.257508813174e-03 0.0 
-1.257508813174e-03 1.234244237083e-03 0.0 
0.0 0.0 0.0 
1.059544632917e-03 -1.350880948038e-03 0.0 
-1.350880948038e-03 1.446182486057e-03 0.0 
0.0 0.0 0.0 
-4.870183704246e-04 -1.831988306738e-03 0.0 
-1.831988306738e-03 1.871354412957e-03 0.0 
0.0 0.0 0.0 
-1.448742383741e-03 5.886878499684e-04 0.0 
5.886878499684e-04 1.021018104320e-02 0.0 
0.0 0.0 0.0 
-1.563755640790e-03 6.152930644332e-04 0.0 
6.152930644332e-04 1.001205466486e-02 0.0 
0.0 0.0 0.0 
4.371343223518e-03 1.279329070060e-03 0.0 
1.279329070060e-03 -2.257022157817e-03 0.0 
0.0 0.0 0.0 
-9.190437121309e-05 -2.160630856273e-03 0.0 
-2.160630856273e-03 1.356204696511e-03 0.0 
0.0 0.0 0.0 
4.440355535693e-03 2.194755521766e-03 0.0 
2.194755521766e-03 -3.268516663658e-03 0.0 
0.0 0.0 0.0 
-3.521101633348e-04 -1.980889335560e-03 0.0 
-1.980889335560e-03 1.746899027003e-03 0.0 
0.0 0.0 0.0 
-4.051225402990e-05 -2.187917096323e-03 0.0 
-2.187917096323e-03 1.467436183974e-03 0.0 
0.0 0.0 0.0 
-4.389080874466e-04 -1.383117997748e-03 0.0 
-1.383117997748e-03 1.506600489421e-03 0.0 
0.0 0.0 0.0 
1.292179747665e-03 -5.133771895637e-04 0.0 
-5.133771895637e-04 2.078046336789e-03 0.0 
0.0 0.0 0.0 
1.242232631595e-03 -2.275911563549e-03 0.0 
-2.275911563549e-03 2.895925302429e-04 0.0 
0.0 0.0 0.0 
-1.029203211372e-03 6.094515161355e-04 0.0 
6.094515161355e-04 1.087130155939e-02 0.0 
0.0 0.0 0.0 
1.684871829354e-03 -2.106242310477e-03 0.0 
-2.106242310477e-03 -1.190497660025e-04 0.0 
0.0 0.0 0.0 
1.115557112541e-03 -1.439028451100e-03 0.0 
-1.439028451100e-03 1.570419360781e-03 0.0 
0.0 0.0 0.0 
1.174431065821e-03 -1.908385814384e-03 0.0 
-1.908385814384e-03 7.731086478981e-04 0.0 
0.0 0.0 0.0 
2.335668137708e-03 3.477310868326e-03 0.0 
3.477310868326e-03 7.965030070132e-04 0.0 
0.0 0.0 0.0 
-2.688917912655e-04 -1.141424751607e-03 0.0 
-1.141424751607e-03 1.465521739766e-03 0.0 
0.0 0.0 0.0 
8.407084188886e-04 -4.990139057129e-04 0.0 
-4.990139057129e-04 3.137855564630e-03 0.0 
0.0 0.0 0.0 
7.480629514252e-04 -4.349620872424e-04 0.0 
-4.349620872424e-04 3.316707471538e-03 0.0 
0.0 0.0 0.0 
2.743279447694e-04 3.498684466309e-03 0.0 
3.498684466309e-03 4.598109748058e-03 0.0 
0.0 0.0 0.0 
3.475175735144e-04 -2.321267969063e-03 0.0 
-2.321267969063e-03 1.118753209035e-03 0.0 
0.0 0.0 0.0 
1.137794949661e-03 -1.695697169298e-03 0.0 
-1.695697169298e-03 1.141228663052e-03 0.0 
0.0 0.0 0.0 
-1.317508868781e-03 5.955855143534e-04 0.0 
5.955855143534e-04 1.020894034852e-02 0.0 
0.0 0.0 0.0 
-2.199558813230e-04 -2.028057228149e-03 0.0 
-2.028057228149e-03 1.577469999921e-03 0.0 
0.0 0.0 0.0 
9.367608708144e-04 3.856964872772e-03 0.0 
3.856964872772e-03 2.288284741315e-03 0.0 
0.0 0.0 0.0 
-5.891416135514e-04 -1.501509956339e-03 0.0 
-1.501509956339e-03 1.909342327010e-03 0.0 
0.0 0.0 0.0 
1.164801886044e-03 -2.952577274593e-03 0.0 
-2.952577274593e-03 -8.157758486602e-04 0.0 
0.0 0.0 0.0 
4.624609783546e-04 -2.342992817977e-03 0.0 
-2.342992817977e-03 7.110620933213e-04 0.0 
0.0 0.0 0.0 
-6.976281584152e-04 -1.419641363623e-03 0.0 
-1.419641363623e-03 2.040699117342e-03 0.0 
0.0 0.0 0.0 
-5.860516937087e-04 -8.526491944074e-04 0.0 
-8.526491944074e-04 1.999374219141e-03 0.0 
0.0 0.0 0.0 
8.322500454194e-04 -1.994135133452e-03 0.0 
-1.994135133452e-03 7.882630973441e-04 0.0 
0.0 0.0 0.0 
7.603709071036e-04 -1.339158917098e-03 0.0 
-1.339158917098e-03 2.192949346762e-03 0.0 
0.0 0.0 0.0 
1.038765686843e-04 3.243139729254e-03 0.0 
3.243139729254e-03 6.110843798958e-03 0.0 
0.0 0.0 0.0 
1.227536940076e-03 -1.875639462623e-04 0.0 
-1.875639462623e-04 -3.746725511610e-04 0.0 
0.0 0.0 0.0 
3.079854131890e-03 -1.551220727437e-03 0.0 
-1.551220727437e-03 -1.579109857926e-03 0.0 
0.0 0.0 0.0 
2.120130532001e-03 -2.036455680592e-03 0.0 
-2.036455680592e-03 -6.714226998727e-04 0.0 
0.0 0.0 0.0 
7.909034163329e-04 -2.352742088034e-03 0.0 
-2.352742088034e-03 7.107584728925e-04 0.0 
0.0 0.0 0.0 
-1.421566041466e-03 6.115973003695e-04 0.0 
6.115973003695e-04 1.001201107101e-02 0.0 
0.0 0.0 0.0 
1.222974164787e-03 -2.097108603220e-03 0.0 
-2.097108603220e-03 4.836167147961e-04 0.0 
0.0 0.0 0.0 
-7.838792611704e-04 -1.516568951172e-03 0.0 
-1.516568951172e-03 2.279752950106e-03 0.0 
0.0 0.0 0.0 
8.699708691458e-04 -2.340655126924e-03 0.0 
-2.340655126924e-03 3.017018478497e-04 0.0 
0.0 0.0 0.0 
-9.769051327814e-04 4.983009823745e-04 0.0 
4.983009823745e-04 1.076031699856e-02 0.0 
0.0 0.0 0.0 
-7.956483511763e-04 -1.297162330201e-03 0.0 
-1.297162330201e-03 2.245781152201e-03 0.0 
0.0 0.0 0.0 
-6.107504479103e-05 -8.353198925106e-04 0.0 
-8.353198925106e-04 8.758667205127e-04 0.0 
0.0 0.0 0.0 
-3.105752336016e-04 -1.082142658768e-03 0.0 
-1.082142658768e-03 1.221730525283e-03 0.0 
0.0 0.0 0.0 
1.227708215568e-03 -2.716883668364e-03 0.0 
-2.716883668364e-03 -2.624956336127e-04 0.0 
0.0 0.0 0.0 
2.759909589400e-04 -2.356259569706e-03 0.0 
-2.356259569706e-03 1.027269148753e-03 0.0 
0.0 0.0 0.0 
2.534199414756e-03 -1.696331758963e-03 0.0 
-1.696331758963e-03 -1.028471758265e-03 0.0 
0.0 0.0 0.0 
1.294410623434e-03 -2.242425760089e-03 0.0 
-2.242425760089e-03 -9.410141247246e-05 0.0 
0.0 0.0 0.0 
2.365287747548e-04 -2.549987144022e-03 0.0 
-2.549987144022e-03 1.902496029984e-04 0.0 
0.0 0.0 0.0 
-1.072261241364e-05 -8.345186923611e-04 0.0 
-8.345186923611e-04 1.183738067932e-03 0.0 
0.0 0.0 0.0 
-1.803845057148e-03 8.317187726832e-04 0.0 
8.317187726832e-04 9.675775030557e-03 0.0 
0.0 0.0 0.0 
-6.386390883782e-04 -1.181843224797e-03 0.0 
-1.181843224797e-03 2.004124012164e-03 0.0 
0.0 0.0 0.0 
1.433495159975e-03 -6.338288324216e-04 0.0 
-6.338288324216e-04 1.972437133347e-03 0.0 
0.0 0.0 0.0 
3.426691265678e-04 3.264792010790e-03 0.0 
3.264792010790e-03 5.351045805656e-03 0.0 
0.0 0.0 0.0 
-1.823312917944e-03 2.069128620025e-03 0.0 
2.069128620025e-03 8.718709152020e-03 0.0 
0.0 0.0 0.0 
-1.005931049195e-03 1.221885765943e-03 0.0 
1.221885765943e-03 1.069403656223e-02 0.0 
0.0 0.0 0.0 
-6.264210061402e-05 3.216623454822e-03 0.0 
3.216623454822e-03 6.808963356101e-03 0.0 
0.0 0.0 0.0 
4.287549773398e-03 1.894416117059e-03 0.0 
1.894416117059e-03 -2.009629211565e-03 0.0 
0.0 0.0 0.0 
3.276981470997e-04 3.355197798185e-03 0.0 
3.355197798185e-03 4.954595823629e-03 0.0 
0.0 0.0 0.0 
7.985369884245e-04 -3.037532971133e-03 0.0 
-3.037532971133e-03 -5.708268134875e-04 0.0 
0.0 0.0 0.0 
4.749468588114e-04 -2.202301049898e-03 0.0 
-2.202301049898e-03 8.666238390744e-04 0.0 
0.0 0.0 0.0 
3.158680833856e-03 3.356617687165e-03 0.0 
3.356617687165e-03 -1.061351280074e-03 0.0 
0.0 0.0 0.0 
3.447693034927e-03 -2.172209325498e-03 0.0 
-2.172209325498e-03 -2.895194939250e-03 0.0 
0.0 0.0 0.0 
2.886158076338e-04 -2.860881484329e-03 0.0 
-2.860881484329e-03 -1.529344903803e-04 0.0 
0.0 0.0 0.0 
-3.298024385602e-04 -1.990254700146e-03 0.0 
-1.990254700146e-03 1.894619030934e-03 0.0 
0.0 0.0 0.0 
1.718976899974e-03 -2.254175248127e-03 0.0 
-2.254175248127e-03 -6.309057573630e-04 0.0 
0.0 0.0 0.0 
2.143847396500e-03 -1.989902083147e-03 0.0 
-1.989902083147e-03 -9.789853172854e-04 0.0 
0.0 0.0 0.0 
-8.735926452326e-04 -1.238770904532e-03 0.0 
-1.238770904532e-03 2.339520374655e-03 0.0 
0.0 0.0 0.0 
1.632243025008e-03 -1.919087378115e-03 0.0 
-1.919087378115e-03 1.232516787528e-04 0.0 
0.0 0.0 0.0 
2.569665465959e-03 -1.838106809669e-03 0.0 
-1.838106809669e-03 -1.525677284532e-03 0.0 
0.0 0.0 0.0 
3.537116947877e-03 -1.084600992467e-03 0.0 
-1.084600992467e-03 -1.933317413980e-03 0.0 
0.0 0.0 0.0 
7.556190414149e-05 -2.259404494562e-03 0.0 
-2.259404494562e-03 1.013978350489e-03 0.0 
0.0 0.0 0.0 
2.856526451173e-03 9.337186610246e-04 0.0 
9.337186610246e-04 1.948994637484e-04 0.0 
0.0 0.0 0.0 
-1.437947964882e-03 7.418500537260e-04 0.0 
7.418500537260e-04 1.031495191743e-02 0.0 
0.0 0.0 0.0 
4.122963245782e-03 -6.741705853434e-04 0.0 
-6.741705853434e-04 -2.597719460373e-03 0.0 
0.0 0.0 0.0 
1.168198290248e-03 -4.242579818451e-04 0.0 
-4.242579818451e-04 2.605757590755e-03 0.0 
0.0 0.0 0.0 
1.586915148765e-03 -3.156823022471e-03 0.0 
-3.156823022471e-03 -1.398130740109e-03 0.0 
0.0 0.0 0.0 
1.132527959704e-03 1.284890030511e-04 0.0 
1.284890030511e-04 2.978016464958e-03 0.0 
0.0 0.0 0.0 
2.104892842883e-03 -1.851786034690e-03 0.0 
-1.851786034690e-03 -4.908527978260e-04 0.0 
0.0 0.0 0.0 
-1.435169782107e-04 3.255326834736e-03 0.0 
3.255326834736e-03 7.483978152794e-03 0.0 
0.0 0.0 0.0 
-9.433765338102e-04 3.182813289201e-03 0.0 
3.182813289201e-03 6.811884324684e-03 0.0 
0.0 0.0 0.0 
8.721001441119e-04 -2.818642266812e-03 0.0 
-2.818642266812e-03 -8.984898170550e-05 0.0 
0.0 0.0 0.0 
-1.646708884509e-03 2.335101502187e-03 0.0 
2.335101502187e-03 8.505790054239e-03 0.0 
0.0 0.0 0.0 
-9.808276420188e-04 1.688011715013e-03 0.0 
1.688011715013e-03 1.044342167331e-02 0.0 
0.0 0.0 0.0 
2.494027819435e-03 -1.523179595375e-03 0.0 
-1.523179595375e-03 -8.081013625344e-04 0.0 
0.0 0.0 0.0 
2.059802222643e-03 3.871785119651e-03 0.0 
3.871785119651e-03 5.188863195311e-04 0.0 
0.0 0.0 0.0 
-1.428817772413e-03 2.578200003950e-03 0.0 
2.578200003950e-03 8.238644467354e-03 0.0 
0.0 0.0 0.0 
4.036520419339e-04 3.749108183597e-03 0.0 
3.749108183597e-03 3.116924502045e-03 0.0 
0.0 0.0 0.0 
3.095415317504e-04 -2.711126542405e-03 0.0 
-2.711126542405e-03 2.160530082038e-04 0.0 
0.0 0.0 0.0 
-4.802201761894e-04 1.490144052877e-03 0.0 
1.490144052877e-03 1.111857253292e-02 0.0 
0.0 0.0 0.0 
-2.103446924645e-04 -2.238157845348e-03 0.0 
-2.238157845348e-03 6.880191679492e-04 0.0 
0.0 0.0 0.0 
1.455112577118e-03 1.790621965721e-03 0.0 
1.790621965721e-03 3.083934909717e-03 0.0 
0.0 0.0 0.0 
-7.117328373756e-04 7.111728282554e-04 0.0 
7.111728282554e-04 1.112810761439e-02 0.0 
0.0 0.0 0.0 
2.607589679408e-03 6.051216158539e-04 0.0 
6.051216158539e-04 4.787376744699e-04 0.0 
0.0 0.0 0.0 
-1.425322004078e-03 4.822800432625e-04 0.0 
4.822800432625e-04 9.882268413809e-03 0.0 
0.0 0.0 0.0 
-1.227150721971e-03 1.042091769936e-03 0.0 
1.042091769936e-03 1.065675959510e-02 0.0 
0.0 0.0 0.0 
3.033175984869e-03 -1.432457251565e-03 0.0 
-1.432457251565e-03 -1.873472983929e-03 0.0 
0.0 0.0 0.0 
4.070472772137e-03 1.273279108547e-03 0.0 
1.273279108547e-03 -1.809938683957e-03 0.0 
0.0 0.0 0.0 
-7.622295322520e-04 1.351541012664e-03 0.0 
1.351541012664e-03 1.090999194446e-02 0.0 
0.0 0.0 0.0 
7.023180749692e-04 -1.072629853570e-03 0.0 
-1.072629853570e-03 2.654614842185e-03 0.0 
0.0 0.0 0.0 
-1.414805987513e-03 9.108578319132e-04 0.0 
9.108578319132e-04 1.039673401251e-02 0.0 
0.0 0.0 0.0 
2.587948592887e-03 -2.816103816110e-04 0.0 
-2.816103816110e-04 1.745494454866e-04 0.0 
0.0 0.0 0.0 
1.280801579531e-03 -3.028490600420e-03 0.0 
-3.028490600420e-03 -5.752346848258e-04 0.0 
0.0 0.0 0.0 
-1.377383027645e-03 1.096116490125e-03 0.0 
1.096116490125e-03 1.045370085711e-02 0.0 
0.0 0.0 0.0 
2.344354757229e-04 3.431661195773e-03 0.0 
3.431661195773e-03 6.673375038662e-03 0.0 
0.0 0.0 0.0 
8.455638774951e-04 -2.733294414411e-04 0.0 
-2.733294414411e-04 3.279629525708e-03 0.0 
0.0 0.0 0.0 
8.064239880492e-04 -2.195252035214e-03 0.0 
-2.195252035214e-03 8.636235251076e-04 0.0 
0.0 0.0 0.0 
-1.550277017280e-03 4.713598486259e-04 0.0 
4.713598486259e-04 9.883555057371e-03 0.0 
0.0 0.0 0.0 
-1.509452804819e-03 4.862244148125e-04 0.0 
4.862244148125e-04 9.680567376239e-03 0.0 
0.0 0.0 0.0 
1.714639084222e-03 -2.056034042600e-03 0.0 
-2.056034042600e-03 -4.571961787856e-04 0.0 
0.0 0.0 0.0 
1.047067112983e-03 -1.151458392792e-03 0.0 
-1.151458392792e-03 2.057095561424e-03 0.0 
0.0 0.0 0.0 
1.273387503317e-03 -9.106604085671e-04 0.0 
-9.106604085671e-04 1.978645700633e-03 0.0 
0.0 0.0 0.0 
-8.207444498920e-06 -9.277326098729e-04 0.0 
-9.277326098729e-04 1.031327416683e-03 0.0 
0.0 0.0 0.0 
4.203755170411e-03 2.401657529283e-03 0.0 
2.401657529283e-03 -3.448206777267e-03 0.0 
0.0 0.0 0.0 
4.359249116932e-03 -4.653559218907e-05 0.0 
-4.653559218907e-05 -2.691534127965e-03 0.0 
0.0 0.0 0.0 
3.676854092259e-03 -1.176559860976e-03 0.0 
-1.176559860976e-03 -2.510308685891e-03 0.0 
0.0 0.0 0.0 
1.375124877648e-03 3.732511752569e-03 0.0 
3.732511752569e-03 1.526908968017e-03 0.0 
0.0 0.0 0.0 
-7.410598088107e-04 1.280633266581e-03 0.0 
1.280633266581e-03 1.111253500610e-02 0.0 
0.0 0.0 0.0 
-8.333454668946e-04 2.501522716233e-03 0.0 
2.501522716233e-03 9.444757805096e-03 0.0 
0.0 0.0 0.0 
-8.162727094436e-04 6.906692816682e-04 0.0 
6.906692816682e-04 1.112987193485e-02 0.0 
0.0 0.0 0.0 
-9.570885739281e-04 3.357723335545e-03 0.0 
3.357723335545e-03 5.299703234546e-03 0.0 
0.0 0.0 0.0 
-1.219733157191e-03 1.532482332171e-03 0.0 
1.532482332171e-03 1.023684264705e-02 0.0 
0.0 0.0 0.0 
7.132511103476e-04 -1.261989095796e-03 0.0 
-1.261989095796e-03 2.075826095990e-03 0.0 
0.0 0.0 0.0 
-7.029607841185e-04 1.101451072454e-03 0.0 
1.101451072454e-03 1.107968005763e-02 0.0 
0.0 0.0 0.0 
-1.517497099191e-03 1.146896107593e-03 0.0 
1.146896107593e-03 1.023895580575e-02 0.0 
0.0 0.0 0.0 
8.657961150045e-04 -2.169706482207e-03 0.0 
-2.169706482207e-03 4.970182328796e-04 0.0 
0.0 0.0 0.0 
4.629246607964e-03 5.746382814938e-04 0.0 
5.746382814938e-04 -2.910211366346e-03 0.0 
0.0 0.0 0.0 
-1.215820852670e-03 1.081356353420e-03 0.0 
1.081356353420e-03 1.045487250761e-02 0.0 
0.0 0.0 0.0 
-1.001072493021e-03 1.166777579223e-03 0.0 
1.166777579223e-03 1.089526278018e-02 0.0 
0.0 0.0 0.0 
-1.130478691357e-03 8.651272702437e-04 0.0 
8.651272702437e-04 1.059295221884e-02 0.0 
0.0 0.0 0.0 
-1.261721182391e-03 9.029988099323e-04 0.0 
9.029988099323e-04 1.039713031182e-02 0.0 
0.0 0.0 0.0 
7.537739236667e-04 -6.789371960486e-04 0.0 
-6.789371960486e-04 3.113721457838e-03 0.0 
0.0 0.0 0.0 
1.544168388679e-03 2.041014435804e-03 0.0 
2.041014435804e-03 3.008177831300e-03 0.0 
0.0 0.0 0.0 
1.079322999824e-03 -6.717703322945e-04 0.0 
-6.717703322945e-04 2.552310641447e-03 0.0 
0.0 0.0 0.0 
7.691624269011e-04 -1.598991137373e-03 0.0 
-1.598991137373e-03 1.779530097880e-03 0.0 
0.0 0.0 0.0 
-1.735114862949e-03 2.016021975299e-03 0.0 
2.016021975299e-03 6.897555214045e-03 0.0 
0.0 0.0 0.0 
2.421703480132e-03 1.038965173751e-03 0.0 
1.038965173751e-03 1.018711031441e-03 0.0 
0.0 0.0 0.0 
-1.461478123079e-03 1.661761313108e-03 0.0 
1.661761313108e-03 9.693099586562e-03 0.0 
0.0 0.0 0.0 
-7.101647214909e-04 -1.115750091327e-03 0.0 
-1.115750091327e-03 2.039845807151e-03 0.0 
0.0 0.0 0.0 
4.037616735355e-03 -5.818098684011e-04 0.0 
-5.818098684011e-04 -2.603223848088e-03 0.0 
0.0 0.0 0.0 
3.558870990794e-03 -4.003539881714e-04 0.0 
-4.003539881714e-04 -1.664657813961e-03 0.0 
0.0 0.0 0.0 
3.599100390014e-03 1.285356221823e-03 0.0 
1.285356221823e-03 -9.924298330228e-04 0.0 
0.0 0.0 0.0 
4.203980691761e-03 -4.205149635977e-04 0.0 
-4.205149635977e-04 -4.024432636966e-03 0.0 
0.0 0.0 0.0 
4.423925364352e-03 -3.751255365714e-05 0.0 
-3.751255365714e-05 -2.805612773692e-03 0.0 
0.0 0.0 0.0 
3.058852148233e-03 1.313544101592e-03 0.0 
1.313544101592e-03 7.315065881919e-07 0.0 
0.0 0.0 0.0 
-1.423545866468e-03 2.659845813978e-03 0.0 
2.659845813978e-03 6.515124578593e-03 0.0 
0.0 0.0 0.0 
7.862113425965e-04 -2.021230680135e-03 0.0 
-2.021230680135e-03 1.102326374691e-03 0.0 
0.0 0.0 0.0 
-1.672186165478e-03 9.953803655403e-04 0.0 
9.953803655403e-04 9.971111833900e-03 0.0 
0.0 0.0 0.0 
-1.548597285799e-03 2.614734449131e-04 0.0 
2.614734449131e-04 9.139887564883e-03 0.0 
0.0 0.0 0.0 
-1.338257326704e-03 3.299515536537e-03 0.0 
3.299515536537e-03 1.634689704359e-03 0.0 
0.0 0.0 0.0 
7.945136074177e-04 -1.792981001582e-03 0.0 
-1.792981001582e-03 1.158096214096e-03 0.0 
0.0 0.0 0.0 
2.448928540338e-03 5.952634462760e-04 0.0 
5.952634462760e-04 7.893039108562e-04 0.0 
0.0 0.0 0.0 
-7.434629082720e-04 2.418620713153e-03 0.0 
2.418620713153e-03 9.794578102267e-03 0.0 
0.0 0.0 0.0 
4.286341206390e-03 1.182432834866e-03 0.0 
1.182432834866e-03 -2.358380335660e-03 0.0 
0.0 0.0 0.0 
7.683993084509e-04 -1.827112529207e-03 0.0 
-1.827112529207e-03 1.412944035641e-03 0.0 
0.0 0.0 0.0 
-1.563616791283e-03 7.752174917256e-04 0.0 
7.752174917256e-04 1.011287025705e-02 0.0 
0.0 0.0 0.0 
-1.250131136078e-03 3.225261631101e-03 0.0 
3.225261631101e-03 2.875238093539e-03 0.0 
0.0 0.0 0.0 
2.695299672881e-03 8.968869885518e-04 0.0 
8.968869885518e-04 4.342881112276e-04 0.0 
0.0 0.0 0.0 
3.868167834491e-03 7.256365866928e-04 0.0 
7.256365866928e-04 -1.716117109014e-03 0.0 
0.0 0.0 0.0 
-1.607799892648e-03 2.731900727551e-03 0.0 
2.731900727551e-03 6.996939470622e-03 0.0 
0.0 0.0 0.0 
9.636580645715e-04 -1.051310464184e-03 0.0 
-1.051310464184e-03 2.001641554532e-03 0.0 
0.0 0.0 0.0 
2.811705318604e-03 -2.794197275310e-03 0.0 
-2.794197275310e-03 -2.812706636110e-03 0.0 
0.0 0.0 0.0 
1.162298877385e-03 -8.001115340554e-04 0.0 
-8.001115340554e-04 1.999287522956e-03 0.0 
0.0 0.0 0.0 
1.178399637857e-03 -1.613736236853e-04 0.0 
-1.613736236853e-04 2.736864124332e-03 0.0 
0.0 0.0 0.0 
2.886811396712e-03 1.237414554874e-03 0.0 
1.237414554874e-03 1.491823444557e-04 0.0 
0.0 0.0 0.0 
-1.273714628079e-03 8.657338061738e-04 0.0 
8.657338061738e-04 1.059339099221e-02 0.0 
0.0 0.0 0.0 
1.046325171860e-03 3.079005561763e-03 0.0 
3.079005561763e-03 4.207845664948e-03 0.0 
0.0 0.0 0.0 
1.027596306106e-03 -3.149437474287e-04 0.0 
-3.149437474287e-04 2.756940968319e-03 0.0 
0.0 0.0 0.0 
-1.903463041740e-03 3.008295665867e-03 0.0 
3.008295665867e-03 4.231175159095e-03 0.0 
0.0 0.0 0.0 
-1.548464497969e-03 9.536080936981e-04 0.0 
9.536080936981e-04 1.018992396943e-02 0.0 
0.0 0.0 0.0 
1.256860832965e-03 2.521481134866e-03 0.0 
2.521481134866e-03 3.713385285951e-03 0.0 
0.0 0.0 0.0 
-1.075243900767e-03 1.037318826117e-03 0.0 
1.037318826117e-03 1.065679321810e-02 0.0 
0.0 0.0 0.0 
3.350943915513e-03 1.188910057279e-03 0.0 
1.188910057279e-03 -7.394720931007e-04 0.0 
0.0 0.0 0.0 
4.493638725452e-03 6.448222323919e-04 0.0 
6.448222323919e-04 -2.611464656385e-03 0.0 
0.0 0.0 0.0 
-4.915157422068e-04 -1.454683269661e-03 0.0 
-1.454683269661e-03 2.979358273768e-03 0.0 
0.0 0.0 0.0 
2.896815079416e-03 8.243049141854e-04 0.0 
8.243049141854e-04 -4.901811089480e-03 0.0 
0.0 0.0 0.0 
-9.299119012715e-04 9.850115007325e-04 0.0 
9.850115007325e-04 1.084691677488e-02 0.0 
0.0 0.0 0.0 
-8.697344199350e-04 -9.541077858089e-04 0.0 
-9.541077858089e-04 2.312676247934e-03 0.0 
0.0 0.0 0.0 
-1.228798334022e-03 1.984154479543e-03 0.0 
1.984154479543e-03 5.184311389065e-03 0.0 
0.0 0.0 0.0 
8.179056710576e-04 3.237954625600e-03 0.0 
3.237954625600e-03 4.541443690277e-03 0.0 
0.0 0.0 0.0 
-6.322164480790e-04 8.659655466016e-04 0.0 
8.659655466016e-04 1.120694869761e-02 0.0 
0.0 0.0 0.0 
2.030639899421e-03 -3.265790734145e-03 0.0 
-3.265790734145e-03 -2.105151009807e-03 0.0 
0.0 0.0 0.0 
3.275944342354e-04 3.705071680152e-03 0.0 
3.705071680152e-03 4.075712415755e-03 0.0 
0.0 0.0 0.0 
-1.349714843037e-03 1.121786795940e-03 0.0 
1.121786795940e-03 1.024128404472e-02 0.0 
0.0 0.0 0.0 
1.119321088725e-04 -1.881082734351e-03 0.0 
-1.881082734351e-03 1.704375464170e-03 0.0 
0.0 0.0 0.0 
3.871982343488e-03 -1.524590066462e-03 0.0 
-1.524590066462e-03 -3.848156748051e-03 0.0 
0.0 0.0 0.0 
2.204060503205e-03 3.922864887531e-03 0.0 
3.922864887531e-03 -3.325513000391e-04 0.0 
0.0 0.0 0.0 
5.105421597096e-04 -2.938360300662e-03 0.0 
-2.938360300662e-03 -1.415525088654e-04 0.0 
0.0 0.0 0.0 
2.609006840348e-03 -2.721654966399e-03 0.0 
-2.721654966399e-03 -2.174801989083e-03 0.0 
0.0 0.0 0.0 
1.768445547332e-03 -3.199168214358e-03 0.0 
-3.199168214358e-03 -1.160772139050e-03 0.0 
0.0 0.0 0.0 
3.903093081024e-03 1.160079262264e-03 0.0 
1.160079262264e-03 -1.781036146067e-03 0.0 
0.0 0.0 0.0 
-3.328629510064e-04 2.160749653509e-03 0.0 
2.160749653509e-03 1.091897719127e-02 0.0 
0.0 0.0 0.0 
-1.312744440464e-03 1.672281304473e-03 0.0 
1.672281304473e-03 5.819376001914e-03 0.0 
0.0 0.0 0.0 
4.697168471437e-04 -6.733894602870e-04 0.0 
-6.733894602870e-04 3.643591012880e-03 0.0 
0.0 0.0 0.0 
4.531756807318e-03 1.964941005614e-03 0.0 
1.964941005614e-03 -2.802831270934e-03 0.0 
0.0 0.0 0.0 
-1.646761336197e-03 1.202096003610e-03 0.0 
1.202096003610e-03 1.001157575820e-02 0.0 
0.0 0.0 0.0 
3.542603380805e-03 6.916829154267e-04 0.0 
6.916829154267e-04 -4.530490547696e-03 0.0 
0.0 0.0 0.0 
1.007084360012e-03 -4.379879790910e-05 0.0 
-4.379879790910e-05 2.968281660614e-03 0.0 
0.0 0.0 0.0 
1.084102391603e-03 -3.367599621209e-03 0.0 
-3.367599621209e-03 -1.143305023704e-03 0.0 
0.0 0.0 0.0 
-1.050128106671e-03 -1.033525937390e-03 0.0 
-1.033525937390e-03 2.651513868571e-03 0.0 
0.0 0.0 0.0 
2.564894548815e-03 1.620123618305e-03 0.0 
1.620123618305e-03 8.040201527435e-04 0.0 
0.0 0.0 0.0 
2.536469233383e-03 -1.643019895202e-03 0.0 
-1.643019895202e-03 -1.258874856443e-03 0.0 
0.0 0.0 0.0 
1.605203095174e-03 2.290071968453e-03 0.0 
2.290071968453e-03 3.008424767817e-03 0.0 
0.0 0.0 0.0 
7.102256917102e-04 3.901933463855e-03 0.0 
3.901933463855e-03 2.348293164087e-03 0.0 
0.0 0.0 0.0 
-1.512973312599e-03 1.644160544797e-03 0.0 
1.644160544797e-03 9.969856982372e-03 0.0 
0.0 0.0 0.0 
1.397665531649e-03 1.950708386260e-03 0.0 
1.950708386260e-03 3.059785970735e-03 0.0 
0.0 0.0 0.0 
-1.387369571784e-03 9.352873260241e-04 0.0 
9.352873260241e-04 1.019145616549e-02 0.0 
0.0 0.0 0.0 
-8.809247205673e-04 2.467244148888e-03 0.0 
2.467244148888e-03 9.788056116619e-03 0.0 
0.0 0.0 0.0 
-1.322526300661e-03 1.293119938044e-03 0.0 
1.293119938044e-03 1.048305781770e-02 0.0 
0.0 0.0 0.0 
-1.247453760048e-03 1.499496634599e-03 0.0 
1.499496634599e-03 1.048035517384e-02 0.0 
0.0 0.0 0.0 
3.158354874387e-03 3.418482083288e-03 0.0 
3.418482083288e-03 -2.873667176099e-03 0.0 
0.0 0.0 0.0 
3.292014146992e-04 -7.918682144560e-04 0.0 
-7.918682144560e-04 3.654066926359e-03 0.0 
0.0 0.0 0.0 
-1.295101132919e-03 1.322110389599e-03 0.0 
1.322110389599e-03 1.025744755662e-02 0.0 
0.0 0.0 0.0 
3.560972363876e-03 2.762119890964e-03 0.0 
2.762119890964e-03 -1.391294359877e-03 0.0 
0.0 0.0 0.0 
-1.563912470066e-03 1.448734917225e-03 0.0 
1.448734917225e-03 6.438903903769e-03 0.0 
0.0 0.0 0.0 
1.102724622397e-03 2.091181880549e-03 0.0 
2.091181880549e-03 3.725868517240e-03 0.0 
0.0 0.0 0.0 
4.335926577999e-03 1.605016798605e-03 0.0 
1.605016798605e-03 -4.031564398100e-03 0.0 
0.0 0.0 0.0 
-8.344682384002e-04 -9.864820149313e-04 0.0 
-9.864820149313e-04 2.302813248647e-03 0.0 
0.0 0.0 0.0 
1.862464019867e-03 2.209088563029e-03 0.0 
2.209088563029e-03 2.245538937858e-03 0.0 
0.0 0.0 0.0 
2.462211097476e-05 4.845132752903e-05 0.0 
4.845132752903e-05 1.512123883737e-03 0.0 
0.0 0.0 0.0 
1.725052250922e-03 3.562131543724e-03 0.0 
3.562131543724e-03 1.698685703893e-03 0.0 
0.0 0.0 0.0 
2.441055816808e-03 1.283684457051e-03 0.0 
1.283684457051e-03 9.859461129704e-04 0.0 
0.0 0.0 0.0 
-9.840439984997e-04 1.631689066091e-03 0.0 
1.631689066091e-03 1.068232658290e-02 0.0 
0.0 0.0 0.0 
-8.727831901153e-04 1.867548829755e-03 0.0 
1.867548829755e-03 1.062951584665e-02 0.0 
0.0 0.0 0.0 
2.607395834699e-03 1.358270331201e-03 0.0 
1.358270331201e-03 8.419150140926e-04 0.0 
0.0 0.0 0.0 
-1.164555488682e-03 1.233093678492e-03 0.0 
1.233093678492e-03 1.069326406896e-02 0.0 
0.0 0.0 0.0 
4.188831074890e-03 2.485911160929e-03 0.0 
2.485911160929e-03 -2.281345806073e-03 0.0 
0.0 0.0 0.0 
1.998361631572e-04 3.291221847225e-03 0.0 
3.291221847225e-03 5.740836227386e-03 0.0 
0.0 0.0 0.0 
-1.796089176884e-03 1.245241852934e-03 0.0 
1.245241852934e-03 7.063862002643e-03 0.0 
0.0 0.0 0.0 
-5.252092208429e-04 2.930344193328e-03 0.0 
2.930344193328e-03 8.503976470069e-03 0.0 
0.0 0.0 0.0 
-1.949234934408e-03 1.109584110582e-03 0.0 
1.109584110582e-03 7.677900492266e-03 0.0 
0.0 0.0 0.0 
-2.004547184290e-03 1.062303198715e-03 0.0 
1.062303198715e-03 7.978278618232e-03 0.0 
0.0 0.0 0.0 
4.273171763379e-03 1.774946849405e-03 0.0 
1.774946849405e-03 -2.329171989122e-03 0.0 
0.0 0.0 0.0 
-2.027267897469e-03 1.030104163442e-03 0.0 
1.030104163442e-03 8.260633555755e-03 0.0 
0.0 0.0 0.0 
2.158541943127e-03 3.266898228777e-03 0.0 
3.266898228777e-03 1.437629633021e-03 0.0 
0.0 0.0 0.0 
2.974029953180e-03 3.333462916897e-03 0.0 
3.333462916897e-03 -1.655595174593e-04 0.0 
0.0 0.0 0.0 
4.231002661122e-03 5.006729179779e-05 0.0 
5.006729179779e-05 -2.538299716191e-03 0.0 
0.0 0.0 0.0 
3.762796088946e-03 -1.443214575804e-03 0.0 
-1.443214575804e-03 -3.706611732341e-03 0.0 
0.0 0.0 0.0 
4.539932985978e-03 1.210795348490e-03 0.0 
1.210795348490e-03 -2.697638840757e-03 0.0 
0.0 0.0 0.0 
-8.521193218316e-04 1.167733919146e-03 0.0 
1.167733919146e-03 1.089462158417e-02 0.0 
0.0 0.0 0.0 
-6.476277853003e-04 2.734959564717e-03 0.0 
2.734959564717e-03 9.243468666271e-03 0.0 
0.0 0.0 0.0 
3.982147996031e-04 -9.774444430771e-04 0.0 
-9.774444430771e-04 3.205382077448e-03 0.0 
0.0 0.0 0.0 
1.484871797597e-03 2.193431436075e-03 0.0 
2.193431436075e-03 2.985817231118e-03 0.0 
0.0 0.0 0.0 
2.935575527130e-03 -1.314183367789e-03 0.0 
-1.314183367789e-03 -1.312642326266e-03 0.0 
0.0 0.0 0.0 
-1.078335681593e-03 1.477473309961e-03 0.0 
1.477473309961e-03 1.048239594462e-02 0.0 
0.0 0.0 0.0 
4.419469828210e-03 5.876728692103e-04 0.0 
5.876728692103e-04 -2.619703561621e-03 0.0 
0.0 0.0 0.0 
1.096475664122e-04 -7.224473488209e-04 0.0 
-7.224473488209e-04 4.127631884635e-03 0.0 
0.0 0.0 0.0 
-1.154613197879e-03 1.275146639463e-03 0.0 
1.275146639463e-03 1.048459134479e-02 0.0 
0.0 0.0 0.0 
-1.388994307409e-03 1.569436026003e-03 0.0 
1.569436026003e-03 1.023290219903e-02 0.0 
0.0 0.0 0.0 
3.144562744510e-03 7.826903608929e-04 0.0 
7.826903608929e-04 -4.231841260224e-04 0.0 
0.0 0.0 0.0 
4.462031013481e-03 1.851710680437e-03 0.0 
1.851710680437e-03 -2.580344242744e-03 0.0 
0.0 0.0 0.0 
1.888468009652e-04 3.233995366061e-03 0.0 
3.233995366061e-03 6.111362617659e-03 0.0 
0.0 0.0 0.0 
-1.004064767499e-03 3.044594459299e-03 0.0 
3.044594459299e-03 6.830870551623e-03 0.0 
0.0 0.0 0.0 
3.324565662616e-03 -2.474350376240e-03 0.0 
-2.474350376240e-03 -3.539301565151e-03 0.0 
0.0 0.0 0.0 
4.233182407390e-03 4.434815432335e-04 0.0 
4.434815432335e-04 -3.844907142656e-03 0.0 
0.0 0.0 0.0 
1.108883038794e-03 3.854475106872e-03 0.0 
3.854475106872e-03 1.447702435002e-03 0.0 
0.0 0.0 0.0 
1.317975215120e-04 3.640511197547e-03 0.0 
3.640511197547e-03 4.085686794494e-03 0.0 
0.0 0.0 0.0 
-6.052150081415e-05 -6.399394274707e-04 0.0 
-6.399394274707e-04 4.560839954994e-03 0.0 
0.0 0.0 0.0 
-1.463762801461e-03 1.353940281574e-03 0.0 
1.353940281574e-03 1.025426155797e-02 0.0 
0.0 0.0 0.0 
4.546914757392e-03 1.285413516994e-03 0.0 
1.285413516994e-03 -2.494185301133e-03 0.0 
0.0 0.0 0.0 
9.976215741236e-05 3.539500782934e-03 0.0 
3.539500782934e-03 5.110660496630e-03 0.0 
0.0 0.0 0.0 
2.258398236322e-03 9.979572116823e-04 0.0 
9.979572116823e-04 1.271259709594e-03 0.0 
0.0 0.0 0.0 
-1.071202456836e-03 9.855076185207e-04 0.0 
9.855076185207e-04 1.084738586955e-02 0.0 
0.0 0.0 0.0 
-4.975033797427e-05 3.253834602381e-03 0.0 
3.253834602381e-03 6.804921796804e-03 0.0 
0.0 0.0 0.0 
-1.586459427397e-03 1.203512155623e-03 0.0 
1.203512155623e-03 9.773770494446e-03 0.0 
0.0 0.0 0.0 
1.823142911535e-03 1.545002256820e-04 0.0 
1.545002256820e-04 1.729751614727e-03 0.0 
0.0 0.0 0.0 
4.259639762161e-03 6.722698806823e-04 0.0 
6.722698806823e-04 -2.281405230022e-03 0.0 
0.0 0.0 0.0 
2.184741278265e-03 7.468129610409e-04 0.0 
7.468129610409e-04 1.294595894087e-03 0.0 
0.0 0.0 0.0 
1.442739241772e-03 3.669875580526e-03 0.0 
3.669875580526e-03 1.684162321161e-03 0.0 
0.0 0.0 0.0 
-9.169036668748e-04 1.362170913079e-03 0.0 
1.362170913079e-03 1.090930880079e-02 0.0 
0.0 0.0 0.0 
-2.110663748421e-04 3.252722209573e-03 0.0 
3.252722209573e-03 7.484200849736e-03 0.0 
0.0 0.0 0.0 
3.616603382665e-03 6.629154319085e-04 0.0 
6.629154319085e-04 -1.361698001462e-03 0.0 
0.0 0.0 0.0 
4.160389962232e-03 6.371348784216e-04 0.0 
6.371348784216e-04 -4.336216789883e-03 0.0 
0.0 0.0 0.0 
1.066764519067e-03 2.994480734707e-03 0.0 
2.994480734707e-03 3.921940322801e-03 0.0 
0.0 0.0 0.0 
1.712377901209e-03 3.497652443858e-03 0.0 
3.497652443858e-03 1.951710154300e-03 0.0 
0.0 0.0 0.0 
4.411367652505e-03 1.945374382312e-03 0.0 
1.945374382312e-03 -2.198408752676e-03 0.0 
0.0 0.0 0.0 
3.312806992595e-03 8.173576493447e-04 0.0 
8.173576493447e-04 -6.837086870143e-04 0.0 
0.0 0.0 0.0 
1.633640212886e-03 -4.216027135023e-04 0.0 
-4.216027135023e-04 1.533271078950e-03 0.0 
0.0 0.0 0.0 
3.952633305474e-03 -6.384778448090e-04 0.0 
-6.384778448090e-04 -4.128243013606e-03 0.0 
0.0 0.0 0.0 
4.086135637013e-03 5.970850457258e-04 0.0 
5.970850457258e-04 -2.129805455742e-03 0.0 
0.0 0.0 0.0 
-1.378174672685e-03 2.453216470466e-03 0.0 
2.453216470466e-03 8.255188192822e-03 0.0 
0.0 0.0 0.0 
-1.815443285199e-04 -6.867040223310e-04 0.0 
-6.867040223310e-04 4.567977213888e-03 0.0 
0.0 0.0 0.0 
-1.159404777875e-03 2.681051587241e-03 0.0 
2.681051587241e-03 7.939997196539e-03 0.0 
0.0 0.0 0.0 
8.811204457799e-04 3.167469755324e-03 0.0 
3.167469755324e-03 4.195851255241e-03 0.0 
0.0 0.0 0.0 
-1.559840622772e-03 2.201909260540e-03 0.0 
2.201909260540e-03 8.522961408270e-03 0.0 
0.0 0.0 0.0 
-1.799534319469e-03 1.664519783695e-03 0.0 
1.664519783695e-03 8.892489662334e-03 0.0 
0.0 0.0 0.0 
-6.898950078300e-04 3.218027568140e-03 0.0 
3.218027568140e-03 6.361952648321e-03 0.0 
0.0 0.0 0.0 
1.815251976302e-03 1.933394158261e-03 0.0 
1.933394158261e-03 2.292149281597e-03 0.0 
0.0 0.0 0.0 
3.687393082648e-04 -9.343355495436e-04 0.0 
-9.343355495436e-04 3.154099507450e-03 0.0 
0.0 0.0 0.0 
-1.422723381245e-03 1.373308041405e-03 0.0 
1.373308041405e-03 1.001314905126e-02 0.0 
0.0 0.0 0.0 
-7.264378263893e-04 1.842692484196e-03 0.0 
1.842692484196e-03 1.063205728084e-02 0.0 
0.0 0.0 0.0 
-1.703539053513e-03 1.935620937508e-03 0.0 
1.935620937508e-03 8.736372376538e-03 0.0 
0.0 0.0 0.0 
4.652422746039e-03 1.338628741930e-03 0.0 
1.338628741930e-03 -2.971944485467e-03 0.0 
0.0 0.0 0.0 
8.563045244161e-04 3.016759068799e-03 0.0 
3.016759068799e-03 4.725635364506e-03 0.0 
0.0 0.0 0.0 
-8.315146688829e-04 1.100372468895e-03 0.0 
1.100372468895e-03 1.108023292337e-02 0.0 
0.0 0.0 0.0 
2.485337434709e-03 3.346206770060e-03 0.0 
3.346206770060e-03 9.248564357867e-05 0.0 
0.0 0.0 0.0 
1.924892064417e-03 3.492889389937e-03 0.0 
3.492889389937e-03 1.065008414601e-03 0.0 
0.0 0.0 0.0 
4.659933438490e-03 1.310264012188e-03 0.0 
1.310264012188e-03 -2.701148700245e-03 0.0 
0.0 0.0 0.0 
-1.347930504575e-03 1.592626269131e-03 0.0 
1.592626269131e-03 9.975962633313e-03 0.0 
0.0 0.0 0.0 
-2.611316734280e-04 3.594422313911e-03 0.0 
3.594422313911e-03 3.894686584248e-03 0.0 
0.0 0.0 0.0 
2.208241974545e-03 3.160918106341e-03 0.0 
3.160918106341e-03 1.020812375156e-03 0.0 
0.0 0.0 0.0 
-8.532345648216e-05 3.767957092671e-03 0.0 
3.767957092671e-03 3.870275544348e-03 0.0 
0.0 0.0 0.0 
2.217521759307e-03 1.942201312714e-03 0.0 
1.942201312714e-03 1.511799591591e-03 0.0 
0.0 0.0 0.0 
6.071254257471e-04 3.031176162177e-03 0.0 
3.031176162177e-03 5.245272436683e-03 0.0 
0.0 0.0 0.0 
4.632022931078e-03 6.027550471545e-04 0.0 
6.027550471545e-04 -2.833648080183e-03 0.0 
0.0 0.0 0.0 
2.802468658811e-03 -7.609650547756e-04 0.0 
-7.609650547756e-04 -4.644829866021e-03 0.0 
0.0 0.0 0.0 
-7.356463172561e-04 2.147473478394e-03 0.0 
2.147473478394e-03 1.027172705222e-02 0.0 
0.0 0.0 0.0 
-6.057749387207e-04 3.394509924479e-03 0.0 
3.394509924479e-03 4.627310677984e-03 0.0 
0.0 0.0 0.0 
3.298846132682e-03 -8.811602538894e-04 0.0 
-8.811602538894e-04 -1.537417306238e-03 0.0 
0.0 0.0 0.0 
8.933558844078e-04 2.966679882233e-03 0.0 
2.966679882233e-03 4.484806108166e-03 0.0 
0.0 0.0 0.0 
-1.591842708636e-03 1.418851908112e-03 0.0 
1.418851908112e-03 1.000833285554e-02 0.0 
0.0 0.0 0.0 
6.445068448722e-04 -9.978717386704e-04 0.0 
-9.978717386704e-04 2.594144632236e-03 0.0 
0.0 0.0 0.0 
3.572172047380e-03 3.031201979542e-03 0.0 
3.031201979542e-03 -1.014762016742e-03 0.0 
0.0 0.0 0.0 
2.552300644945e-03 -4.147195668880e-04 0.0 
-4.147195668880e-04 -5.012089920178e-03 0.0 
0.0 0.0 0.0 
-2.691299431780e-04 -6.130710674525e-04 0.0 
-6.130710674525e-04 4.975209074443e-03 0.0 
0.0 0.0 0.0 
5.932034732015e-04 3.684377031597e-03 0.0 
3.684377031597e-03 3.439072471220e-03 0.0 
0.0 0.0 0.0 
2.348130301699e-03 2.383543360615e-03 0.0 
2.383543360615e-03 1.558425372431e-03 0.0 
0.0 0.0 0.0 
3.229573812724e-04 3.247628228365e-03 0.0 
3.247628228365e-03 5.785849748714e-03 0.0 
0.0 0.0 0.0 
1.117356981214e-03 -1.392461294559e-05 0.0 
-1.392461294559e-05 -4.764522997184e-03 0.0 
0.0 0.0 0.0 
9.192210643911e-04 -8.878739418821e-04 0.0 
-8.878739418821e-04 2.575484923673e-03 0.0 
0.0 0.0 0.0 
3.120038157185e-03 3.424222370201e-03 0.0 
3.424222370201e-03 -1.099312688066e-03 0.0 
0.0 0.0 0.0 
-1.771273174724e-03 1.255712464296e-03 0.0 
1.255712464296e-03 9.768462386193e-03 0.0 
0.0 0.0 0.0 
1.210607994142e-04 -1.702702965317e-03 0.0 
-1.702702965317e-03 2.021982264731e-03 0.0 
0.0 0.0 0.0 
4.685994492480e-03 1.247124289758e-03 0.0 
1.247124289758e-03 -2.940821603653e-03 0.0 
0.0 0.0 0.0 
-4.497466439313e-05 -7.714210356613e-04 0.0 
-7.714210356613e-04 4.136102973080e-03 0.0 
0.0 0.0 0.0 
1.874686815857e-03 3.435512465205e-03 0.0 
3.435512465205e-03 1.413609123821e-03 0.0 
0.0 0.0 0.0 
4.776259610462e-03 1.326452361315e-03 0.0 
1.326452361315e-03 -3.270750197574e-03 0.0 
0.0 0.0 0.0 
4.347483676370e-04 3.639838620953e-03 0.0 
3.639838620953e-03 4.292813087814e-03 0.0 
0.0 0.0 0.0 
2.298478103236e-03 -2.279513644016e-03 0.0 
-2.279513644016e-03 -4.675418287210e-03 0.0 
0.0 0.0 0.0 
5.207693425668e-04 3.341433857802e-03 0.0 
3.341433857802e-03 4.955575314664e-03 0.0 
0.0 0.0 0.0 
2.297201472157e-03 1.718244720760e-03 0.0 
1.718244720760e-03 1.544880481014e-03 0.0 
0.0 0.0 0.0 
-3.018905911305e-04 3.169411589822e-03 0.0 
3.169411589822e-03 8.042452814065e-03 0.0 
0.0 0.0 0.0 
4.746201696537e-04 3.238624085239e-03 0.0 
3.238624085239e-03 5.354031844637e-03 0.0 
0.0 0.0 0.0 
4.508724719922e-03 4.680043129034e-04 0.0 
4.680043129034e-04 -3.579957414463e-03 0.0 
0.0 0.0 0.0 
1.510668166176e-04 -1.034048608303e-03 0.0 
-1.034048608303e-03 3.215819296590e-03 0.0 
0.0 0.0 0.0 
-5.916689609125e-04 1.292200152410e-03 0.0 
1.292200152410e-03 1.111202255183e-02 0.0 
0.0 0.0 0.0 
7.293360143541e-04 2.375497269848e-03 0.0 
2.375497269848e-03 4.403283429087e-03 0.0 
0.0 0.0 0.0 
1.955251424796e-03 2.029132370959e-03 0.0 
2.029132370959e-03 2.271888302486e-03 0.0 
0.0 0.0 0.0 
4.019676159838e-03 2.492893905364e-03 0.0 
2.492893905364e-03 -1.584930533436e-03 0.0 
0.0 0.0 0.0 
5.213327430869e-04 3.498579907422e-03 0.0 
3.498579907422e-03 4.597023884251e-03 0.0 
0.0 0.0 0.0 
-3.259390057342e-04 -5.373940552854e-04 0.0 
-5.373940552854e-04 4.919513035530e-03 0.0 
0.0 0.0 0.0 
-1.280652119213e-03 -5.167084563834e-04 0.0 
-5.167084563834e-04 3.812215482039e-03 0.0 
0.0 0.0 0.0 
6.279922287464e-04 3.278982201103e-03 0.0 
3.278982201103e-03 4.536541032837e-03 0.0 
0.0 0.0 0.0 
-1.474582338332e-03 1.160925840160e-03 0.0 
1.160925840160e-03 1.001569600224e-02 0.0 
0.0 0.0 0.0 
1.394920208504e-04 -8.564265368337e-04 0.0 
-8.564265368337e-04 3.665092481849e-03 0.0 
0.0 0.0 0.0 
8.378042589601e-04 -8.025058728790e-04 0.0 
-8.025058728790e-04 2.573989835354e-03 0.0 
0.0 0.0 0.0 
-1.407289476180e-03 4.328343916780e-05 0.0 
4.328343916780e-05 8.864854096481e-03 0.0 
0.0 0.0 0.0 
-1.388431157268e-03 3.214889899976e-05 0.0 
3.214889899976e-05 8.857554928551e-03 0.0 
0.0 0.0 0.0 
-1.451163636287e-03 2.426642720126e-03 0.0 
2.426642720126e-03 8.667433570901e-03 0.0 
0.0 0.0 0.0 
6.390624803732e-04 3.422349692989e-03 0.0 
3.422349692989e-03 4.116106206428e-03 0.0 
0.0 0.0 0.0 
-1.580544847455e-04 -1.505602781974e-03 0.0 
-1.505602781974e-03 2.578784408351e-03 0.0 
0.0 0.0 0.0 
-7.602866831046e-04 3.135258430073e-03 0.0 
3.135258430073e-03 6.991550724805e-03 0.0 
0.0 0.0 0.0 
2.383583623644e-03 3.264373581001e-03 0.0 
3.264373581001e-03 4.794856567008e-04 0.0 
0.0 0.0 0.0 
1.504047837058e-03 8.093928487200e-04 0.0 
8.093928487200e-04 2.375448815773e-03 0.0 
0.0 0.0 0.0 
3.694163731748e-03 2.904676291729e-03 0.0 
2.904676291729e-03 -1.644664580236e-03 0.0 
0.0 0.0 0.0 
-3.100600096019e-04 1.942937787541e-03 0.0 
1.942937787541e-03 1.109235097353e-02 0.0 
0.0 0.0 0.0 
-1.952968460484e-03 1.501583115895e-03 0.0 
1.501583115895e-03 8.702034721003e-03 0.0 
0.0 0.0 0.0 
2.236273586923e-03 3.364969756579e-03 0.0 
3.364969756579e-03 1.082723199075e-03 0.0 
0.0 0.0 0.0 
4.194252594056e-04 -1.690294280421e-03 0.0 
-1.690294280421e-03 2.018041357660e-03 0.0 
0.0 0.0 0.0 
4.320489930663e-03 1.445746824550e-03 0.0 
1.445746824550e-03 -3.299556927141e-03 0.0 
0.0 0.0 0.0 
4.644253852901e-04 -2.047014964400e-03 0.0 
-2.047014964400e-03 1.108251088344e-03 0.0 
0.0 0.0 0.0 
6.327173396414e-04 3.594760222736e-03 0.0 
3.594760222736e-03 3.731532535008e-03 0.0 
0.0 0.0 0.0 
-1.837665141736e-04 3.524989662070e-03 0.0 
3.524989662070e-03 4.895284153871e-03 0.0 
0.0 0.0 0.0 
-1.539554632602e-03 1.429453081357e-03 0.0 
1.429453081357e-03 9.757166899409e-03 0.0 
0.0 0.0 0.0 
-5.249865711289e-04 3.169998418039e-03 0.0 
3.169998418039e-03 6.576552300956e-03 0.0 
0.0 0.0 0.0 
-6.140071080327e-04 3.101978369865e-03 0.0 
3.101978369865e-03 7.202308861075e-03 0.0 
0.0 0.0 0.0 
8.291251512533e-04 -1.589747891481e-04 0.0 
-1.589747891481e-04 7.302166264360e-04 0.0 
0.0 0.0 0.0 
4.006744518372e-04 -2.061067863388e-03 0.0 
-2.061067863388e-03 1.440413281323e-03 0.0 
0.0 0.0 0.0 
-4.607884835913e-04 3.618988800437e-03 0.0 
3.618988800437e-03 4.600642033880e-03 0.0 
0.0 0.0 0.0 
-1.108179523185e-03 2.849939796775e-03 0.0 
2.849939796775e-03 7.411122276168e-03 0.0 
0.0 0.0 0.0 
-1.177819940943e-03 2.803042349504e-03 0.0 
2.803042349504e-03 7.915939337056e-03 0.0 
0.0 0.0 0.0 
1.698525339124e-03 1.645225885840e-03 0.0 
1.645225885840e-03 2.386851774638e-03 0.0 
0.0 0.0 0.0 
-3.076217541652e-04 -1.374842635574e-04 0.0 
-1.374842635574e-04 1.786697045705e-03 0.0 
0.0 0.0 0.0 
3.576334069412e-03 -1.712771378797e-03 0.0 
-1.712771378797e-03 -4.096293575377e-03 0.0 
0.0 0.0 0.0 
9.998109419165e-04 3.711658244591e-03 0.0 
3.711658244591e-03 2.557303385545e-03 0.0 
0.0 0.0 0.0 
1.097176674112e-04 -2.029900866541e-03 0.0 
-2.029900866541e-03 1.437367682329e-03 0.0 
0.0 0.0 0.0 
-2.165097715245e-03 1.270085530431e-03 0.0 
1.270085530431e-03 7.937213570320e-03 0.0 
0.0 0.0 0.0 
-2.196060389063e-03 1.203290698147e-03 0.0 
1.203290698147e-03 8.237397815209e-03 0.0 
0.0 0.0 0.0 
-1.704130293712e-03 1.494542215944e-03 0.0 
1.494542215944e-03 9.750099544058e-03 0.0 
0.0 0.0 0.0 
2.624933118578e-03 3.439563879663e-03 0.0 
3.439563879663e-03 -1.719455780546e-03 0.0 
0.0 0.0 0.0 
7.761118289129e-05 -1.716620147361e-03 0.0 
-1.716620147361e-03 2.268508792770e-03 0.0 
0.0 0.0 0.0 
2.312724667956e-03 3.344786629191e-04 0.0 
3.344786629191e-04 8.296636889591e-04 0.0 
0.0 0.0 0.0 
3.797507726428e-03 -4.158637323437e-04 0.0 
-4.158637323437e-04 -4.377130296585e-03 0.0 
0.0 0.0 0.0 
1.533518283816e-04 3.206419722586e-03 0.0 
3.206419722586e-03 6.416883075508e-03 0.0 
0.0 0.0 0.0 
-1.083684248023e-03 1.427831818793e-03 0.0 
1.427831818793e-03 1.070318699276e-02 0.0 
0.0 0.0 0.0 
-4.785842395962e-04 -1.605916881093e-03 0.0 
-1.605916881093e-03 2.501159107968e-03 0.0 
0.0 0.0 0.0 
1.440305211686e-04 -8.715994948468e-04 0.0 
-8.715994948468e-04 3.708714973609e-03 0.0 
0.0 0.0 0.0 
6.494550257805e-04 -3.084341050329e-04 0.0 
-3.084341050329e-04 4.747586796885e-04 0.0 
0.0 0.0 0.0 
2.345822918872e-03 -1.164572220319e-04 0.0 
-1.164572220319e-04 4.669587116723e-04 0.0 
0.0 0.0 0.0 
8.150264873394e-04 3.687925296103e-03 0.0 
3.687925296103e-03 3.437368946635e-03 0.0 
0.0 0.0 0.0 
8.156302455971e-04 -2.336807822077e-04 0.0 
-2.336807822077e-04 4.199392870265e-04 0.0 
0.0 0.0 0.0 
-9.236262108147e-04 1.417922390883e-03 0.0 
1.417922390883e-03 1.070375208355e-02 0.0 
0.0 0.0 0.0 
3.355921612281e-03 -6.999050926370e-04 0.0 
-6.999050926370e-04 -4.301057475576e-03 0.0 
0.0 0.0 0.0 
-1.075611771705e-03 2.980779551578e-03 0.0 
2.980779551578e-03 7.390942806528e-03 0.0 
0.0 0.0 0.0 
-3.072257706649e-05 3.613710752101e-03 0.0 
3.613710752101e-03 4.882639126289e-03 0.0 
0.0 0.0 0.0 
3.454226410210e-03 -9.580408451373e-04 0.0 
-9.580408451373e-04 -2.099609821353e-03 0.0 
0.0 0.0 0.0 
2.263801351970e-03 -1.156064313231e-03 0.0 
-1.156064313231e-03 5.540830050865e-05 0.0 
0.0 0.0 0.0 
-8.349189462298e-04 1.622953455011e-03 0.0 
1.622953455011e-03 1.068272294181e-02 0.0 
0.0 0.0 0.0 
2.077043532627e-03 -8.455517166122e-04 0.0 
-8.455517166122e-04 7.030341481644e-04 0.0 
0.0 0.0 0.0 
1.468827209559e-03 3.608087798965e-03 0.0 
3.608087798965e-03 1.936377944748e-03 0.0 
0.0 0.0 0.0 
1.247127642780e-03 3.658498661535e-03 0.0 
3.658498661535e-03 2.563793469135e-03 0.0 
0.0 0.0 0.0 
-1.553186011434e-03 3.326375337739e-03 0.0 
3.326375337739e-03 1.018952734847e-03 0.0 
0.0 0.0 0.0 
3.203217301870e-03 -4.671678544750e-04 0.0 
-4.671678544750e-04 -4.614209932117e-03 0.0 
0.0 0.0 0.0 
7.048975083110e-04 3.155925980451e-03 0.0 
3.155925980451e-03 4.989578308893e-03 0.0 
0.0 0.0 0.0 
-1.887551465974e-03 1.680289079186e-03 0.0 
1.680289079186e-03 9.183601503892e-03 0.0 
0.0 0.0 0.0 
7.676990145857e-04 3.113519468261e-03 0.0 
3.113519468261e-03 4.708804095914e-03 0.0 
0.0 0.0 0.0 
2.709760268272e-03 3.809749077912e-03 0.0 
3.809749077912e-03 -1.155349212076e-03 0.0 
0.0 0.0 0.0 
-1.070161756127e-03 2.349442683768e-03 0.0 
2.349442683768e-03 9.259775857701e-03 0.0 
0.0 0.0 0.0 
3.887232587223e-04 3.206820436556e-03 0.0 
3.206820436556e-03 5.788735167676e-03 0.0 
0.0 0.0 0.0 
-2.023585336285e-03 1.322479307969e-03 0.0 
1.322479307969e-03 8.193226219413e-03 0.0 
0.0 0.0 0.0 
5.682102939317e-04 3.183042569637e-03 0.0 
3.183042569637e-03 4.985890541775e-03 0.0 
0.0 0.0 0.0 
-5.906496611541e-05 -9.106085599381e-04 0.0 
-9.106085599381e-04 3.716155685225e-03 0.0 
0.0 0.0 0.0 
1.001497400070e-03 3.484929913649e-03 0.0 
3.484929913649e-03 3.228298999911e-03 0.0 
0.0 0.0 0.0 
4.022224869922e-04 -1.890385834897e-03 0.0 
-1.890385834897e-03 1.704101134907e-03 0.0 
0.0 0.0 0.0 
4.499692778086e-04 -1.871187371422e-03 0.0 
-1.871187371422e-03 1.421538603018e-03 0.0 
0.0 0.0 0.0 
-9.154591776195e-04 2.192795869034e-03 0.0 
2.192795869034e-03 1.026210979399e-02 0.0 
0.0 0.0 0.0 
2.364668099437e-03 -1.364040657128e-03 0.0 
-1.364040657128e-03 -4.497731967520e-04 0.0 
0.0 0.0 0.0 
2.280355512825e-04 3.608106330543e-03 0.0 
3.608106330543e-03 4.298111141978e-03 0.0 
0.0 0.0 0.0 
3.340043875336e-03 2.666539764154e-03 0.0 
2.666539764154e-03 -8.963375425221e-04 0.0 
0.0 0.0 0.0 
1.807523308731e-03 -5.593949770789e-04 0.0 
-5.593949770789e-04 1.375157571875e-03 0.0 
0.0 0.0 0.0 
2.884062458770e-03 3.178731280024e-03 0.0 
3.178731280024e-03 1.147944310294e-04 0.0 
0.0 0.0 0.0 
4.703671308088e-03 5.598216616742e-04 0.0 
5.598216616742e-04 -3.736335384192e-03 0.0 
0.0 0.0 0.0 
3.678532902372e-03 8.535576903551e-05 0.0 
8.535576903551e-05 -1.684466556902e-03 0.0 
0.0 0.0 0.0 
4.739231778047e-03 1.377683309543e-03 0.0 
1.377683309543e-03 -3.510340429316e-03 0.0 
0.0 0.0 0.0 
-8.252975689708e-04 3.037570902433e-03 0.0 
3.037570902433e-03 7.005810437614e-03 0.0 
0.0 0.0 0.0 
4.672426402835e-03 5.045605100272e-04 0.0 
5.045605100272e-04 -3.374311032709e-03 0.0 
0.0 0.0 0.0 
-5.644904261841e-04 3.325010653391e-03 0.0 
3.325010653391e-03 6.346846903504e-03 0.0 
0.0 0.0 0.0 
1.864380399278e-03 1.741057216817e-03 0.0 
1.741057216817e-03 2.321450801272e-03 0.0 
0.0 0.0 0.0 
2.137793248349e-03 1.624212581107e-03 0.0 
1.624212581107e-03 1.611988363584e-03 0.0 
0.0 0.0 0.0 
3.105859255041e-03 3.189948073464e-03 0.0 
3.189948073464e-03 -8.658434462351e-04 0.0 
0.0 0.0 0.0 
-1.635913599246e-03 1.495231686958e-03 0.0 
1.495231686958e-03 9.477801610304e-03 0.0 
0.0 0.0 0.0 
-6.172030666884e-05 -7.608731267918e-04 0.0 
-7.608731267918e-04 4.164979945993e-03 0.0 
0.0 0.0 0.0 
-2.283899467216e-04 -7.898240691038e-04 0.0 
-7.898240691038e-04 4.170705061246e-03 0.0 
0.0 0.0 0.0 
1.507640925369e-03 3.546006927439e-03 0.0 
3.546006927439e-03 -1.406664827869e-03 0.0 
0.0 0.0 0.0 
-3.432503472011e-04 3.326062737441e-03 0.0 
3.326062737441e-03 5.879533493975e-03 0.0 
0.0 0.0 0.0 
-1.894262608448e-04 -5.565884277436e-04 0.0 
-5.565884277436e-04 4.961337929705e-03 0.0 
0.0 0.0 0.0 
-1.253740741086e-03 2.618899185800e-03 0.0 
2.618899185800e-03 5.493110756959e-03 0.0 
0.0 0.0 0.0 
-4.387193555286e-04 -1.462129552415e-03 0.0 
-1.462129552415e-03 2.776391601023e-03 0.0 
0.0 0.0 0.0 
-1.744800556022e-03 3.352841294971e-03 0.0 
3.352841294971e-03 1.637182008877e-03 0.0 
0.0 0.0 0.0 
-2.186869493762e-04 -6.483552662150e-04 0.0 
-6.483552662150e-04 4.569318131176e-03 0.0 
0.0 0.0 0.0 
4.559708282841e-03 1.471686073894e-03 0.0 
1.471686073894e-03 -3.735175672235e-03 0.0 
0.0 0.0 0.0 
-1.252390930838e-03 -4.167082252676e-04 0.0 
-4.167082252676e-04 4.034702363604e-03 0.0 
0.0 0.0 0.0 
2.170012656195e-03 2.613342503890e-03 0.0 
2.613342503890e-03 1.531620315246e-03 0.0 
0.0 0.0 0.0 
-1.806914305367e-03 1.572832294763e-03 0.0 
1.572832294763e-03 9.468445523769e-03 0.0 
0.0 0.0 0.0 
-1.742099922664e-03 1.576221607469e-03 0.0 
1.576221607469e-03 9.196536790237e-03 0.0 
0.0 0.0 0.0 
1.029974003984e-03 3.642243066935e-03 0.0 
3.642243066935e-03 2.836987737109e-03 0.0 
0.0 0.0 0.0 
-2.051660660888e-03 1.450905230946e-03 0.0 
1.450905230946e-03 7.320572355410e-03 0.0 
0.0 0.0 0.0 
-2.114367209868e-03 1.353167192007e-03 0.0 
1.353167192007e-03 7.640449181293e-03 0.0 
0.0 0.0 0.0 
-3.503374454212e-04 -6.729406784453e-04 0.0 
-6.729406784453e-04 4.574240498438e-03 0.0 
0.0 0.0 0.0 
2.119497327040e-03 -1.024366526889e-03 0.0 
-1.024366526889e-03 8.933164278835e-05 0.0 
0.0 0.0 0.0 
3.218161691889e-03 -7.810448295775e-04 0.0 
-7.810448295775e-04 -1.599516193871e-03 0.0 
0.0 0.0 0.0 
2.569255312613e-03 1.777939368019e-04 0.0 
1.777939368019e-04 4.294255388000e-04 0.0 
0.0 0.0 0.0 
4.083652527859e-03 4.620176472820e-05 0.0 
4.620176472820e-05 -2.230351863723e-03 0.0 
0.0 0.0 0.0 
4.534631461260e-03 1.354810266476e-03 0.0 
1.354810266476e-03 -3.137422262058e-03 0.0 
0.0 0.0 0.0 
-1.889193211217e-03 1.164385003361e-03 0.0 
1.164385003361e-03 7.383920085518e-03 0.0 
0.0 0.0 0.0 
-2.036662689998e-03 1.519280014563e-03 0.0 
1.519280014563e-03 8.972006523241e-03 0.0 
0.0 0.0 0.0 
-1.404722581173e-03 3.744472046984e-05 0.0 
3.744472046984e-05 8.856815213056e-03 0.0 
0.0 0.0 0.0 
2.169619539886e-03 1.410566564704e-03 0.0 
1.410566564704e-03 1.642090827769e-03 0.0 
0.0 0.0 0.0 
3.498925723412e-03 2.906205835626e-03 0.0 
2.906205835626e-03 -8.267868349247e-04 0.0 
0.0 0.0 0.0 
1.097960958642e-03 2.209397617935e-03 0.0 
2.209397617935e-03 3.702572895534e-03 0.0 
0.0 0.0 0.0 
-6.672817946934e-04 -2.764374357920e-04 0.0 
-2.764374357920e-04 5.120579182020e-03 0.0 
0.0 0.0 0.0 
3.944469173404e-03 1.513451597608e-04 0.0 
1.513451597608e-04 -2.058695223895e-03 0.0 
0.0 0.0 0.0 
-1.101115272473e-04 -6.280808622694e-04 0.0 
-6.280808622694e-04 4.976855284370e-03 0.0 
0.0 0.0 0.0 
4.581335312520e-03 -2.553611130404e-04 0.0 
-2.553611130404e-04 -3.382370609202e-03 0.0 
0.0 0.0 0.0 
1.168826537911e-03 2.444454090207e-03 0.0 
2.444454090207e-03 3.678033956590e-03 0.0 
0.0 0.0 0.0 
1.290065360695e-03 3.572686174952e-03 0.0 
3.572686174952e-03 2.845981503912e-03 0.0 
0.0 0.0 0.0 
1.337304600374e-03 3.278940781209e-03 0.0 
3.278940781209e-03 2.813731713605e-03 0.0 
0.0 0.0 0.0 
1.600796476576e-03 3.048226575775e-04 0.0 
3.048226575775e-04 2.056294606131e-03 0.0 
0.0 0.0 0.0 
8.392793336738e-04 -2.494206706516e-03 0.0 
-2.494206706516e-03 2.014100838112e-04 0.0 
0.0 0.0 0.0 
-8.979397857012e-05 3.489328485696e-03 0.0 
3.489328485696e-03 5.116998538666e-03 0.0 
0.0 0.0 0.0 
3.769669879366e-03 -4.122197485186e-04 0.0 
-4.122197485186e-04 -2.158701616779e-03 0.0 
0.0 0.0 0.0 
-3.274876791888e-04 3.488730169458e-03 0.0 
3.488730169458e-03 5.638585622988e-03 0.0 
0.0 0.0 0.0 
2.619651173853e-03 3.684574376176e-03 0.0 
3.684574376176e-03 -2.999334149623e-04 0.0 
0.0 0.0 0.0 
1.608866702408e-03 3.053035257635e-03 0.0 
3.053035257635e-03 2.517711224881e-03 0.0 
0.0 0.0 0.0 
3.892608838779e-03 -5.399284618572e-04 0.0 
-5.399284618572e-04 -2.169239039071e-03 0.0 
0.0 0.0 0.0 
1.187424597582e-04 -1.515206496183e-03 0.0 
-1.515206496183e-03 2.578472658540e-03 0.0 
0.0 0.0 0.0 
-4.581475405454e-04 3.384507748970e-03 0.0 
3.384507748970e-03 5.653092951337e-03 0.0 
0.0 0.0 0.0 
-9.199514868334e-04 4.140959431504e-03 0.0 
4.140959431504e-03 -6.535762226568e-04 0.0 
0.0 0.0 0.0 
2.967540248752e-03 2.602942831997e-03 0.0 
2.602942831997e-03 -1.774618713720e-04 0.0 
0.0 0.0 0.0 
-7.934172244016e-04 3.759769237087e-03 0.0 
3.759769237087e-03 1.172350282536e-03 0.0 
0.0 0.0 0.0 
-2.737623915616e-05 -7.772566816370e-04 0.0 
-7.772566816370e-04 1.029811095498e-03 0.0 
0.0 0.0 0.0 
-1.961711851062e-04 -1.512484619710e-03 0.0 
-1.512484619710e-03 2.783350580687e-03 0.0 
0.0 0.0 0.0 
-6.296652445825e-05 3.234350887080e-03 0.0 
3.234350887080e-03 6.463787604602e-03 0.0 
0.0 0.0 0.0 
-1.644808193149e-03 1.821308119780e-03 0.0 
1.821308119780e-03 9.076577718546e-03 0.0 
0.0 0.0 0.0 
-1.863110802766e-03 1.717579306495e-03 0.0 
1.717579306495e-03 6.660677096746e-03 0.0 
0.0 0.0 0.0 
0.0 1.979038324081e-03 0.0 
1.979038324081e-03 1.101580290520e-02 0.0 
0.0 0.0 0.0 
-2.006866009882e-03 3.647403556836e-03 0.0 
3.647403556836e-03 3.387596311479e-04 0.0 
0.0 0.0 0.0 
-1.948435531594e-03 1.577391607880e-03 0.0 
1.577391607880e-03 7.009875396970e-03 0.0 
0.0 0.0 0.0 
3.076589777672e-03 -7.492915474203e-04 0.0 
-7.492915474203e-04 -1.200041701927e-03 0.0 
0.0 0.0 0.0 
-6.975730119302e-04 -1.365180873275e-03 0.0 
-1.365180873275e-03 2.966106809273e-03 0.0 
0.0 0.0 0.0 
-1.937720674014e-03 2.167583870924e-03 0.0 
2.167583870924e-03 7.231405612412e-03 0.0 
0.0 0.0 0.0 
3.782437137472e-03 -1.465148297792e-03 0.0 
-1.465148297792e-03 -2.576811797534e-03 0.0 
0.0 0.0 0.0 
2.341076821321e-03 -1.308661934525e-03 0.0 
-1.308661934525e-03 -5.765074369105e-04 0.0 
0.0 0.0 0.0 
8.848987241385e-04 3.573210225019e-03 0.0 
3.573210225019e-03 3.733346000351e-03 0.0 
0.0 0.0 0.0 
2.593804288288e-03 2.397770474967e-03 0.0 
2.397770474967e-03 7.046656433838e-04 0.0 
0.0 0.0 0.0 
-5.220076391987e-04 2.987018616167e-03 0.0 
2.987018616167e-03 8.014458877156e-03 0.0 
0.0 0.0 0.0 
2.554784026016e-03 3.781799003680e-03 0.0 
3.781799003680e-03 -2.884509000374e-03 0.0 
0.0 0.0 0.0 
-2.470521938113e-04 -1.680547136099e-03 0.0 
-1.680547136099e-03 2.511314963794e-03 0.0 
0.0 0.0 0.0 
-6.873299396403e-04 -1.214521235424e-03 0.0 
-1.214521235424e-03 3.393189624944e-03 0.0 
0.0 0.0 0.0 
3.204364136922e-05 -2.203709350050e-03 0.0 
-2.203709350050e-03 9.823622451466e-04 0.0 
0.0 0.0 0.0 
-2.036714402246e-03 1.276101985600e-03 0.0 
1.276101985600e-03 8.506980684828e-03 0.0 
0.0 0.0 0.0 
-1.778881159208e-03 1.931759945638e-03 0.0 
1.931759945638e-03 9.061751346872e-03 0.0 
0.0 0.0 0.0 
-9.511183670001e-04 -1.304712819390e-04 0.0 
-1.304712819390e-04 4.785007765343e-03 0.0 
0.0 0.0 0.0 
1.246405241214e-03 -3.036241703263e-04 0.0 
-3.036241703263e-04 2.137569303473e-04 0.0 
0.0 0.0 0.0 
2.098843037883e-04 -6.577902773840e-04 0.0 
-6.577902773840e-04 -4.556556262520e-03 0.0 
0.0 0.0 0.0 
-9.362378712130e-05 -1.811628764236e-03 0.0 
-1.811628764236e-03 9.919417560920e-04 0.0 
0.0 0.0 0.0 
-8.671897345256e-04 -1.116759621170e-03 0.0 
-1.116759621170e-03 3.378415803855e-03 0.0 
0.0 0.0 0.0 
4.518894507486e-03 -1.505676503984e-04 0.0 
-1.505676503984e-04 -3.049259485211e-03 0.0 
0.0 0.0 0.0 
3.793778927983e-03 -1.594380207745e-03 0.0 
-1.594380207745e-03 -2.991485233449e-03 0.0 
0.0 0.0 0.0 
4.460065236102e-03 -3.802893102030e-04 0.0 
-3.802893102030e-04 -3.594409880716e-03 0.0 
0.0 0.0 0.0 
-4.234804381512e-04 -1.292508554510e-03 0.0 
-1.292508554510e-03 3.246854826035e-03 0.0 
0.0 0.0 0.0 
-1.354238403305e-03 2.313662373791e-03 0.0 
2.313662373791e-03 8.688528282113e-03 0.0 
0.0 0.0 0.0 
-8.372632546805e-04 -9.703149070448e-04 0.0 
-9.703149070448e-04 3.749705215073e-03 0.0 
0.0 0.0 0.0 
4.739305407465e-03 5.715964940829e-04 0.0 
5.715964940829e-04 -3.168734264636e-03 0.0 
0.0 0.0 0.0 
-1.840605927099e-04 3.392715943837e-03 0.0 
3.392715943837e-03 5.870185549642e-03 0.0 
0.0 0.0 0.0 
-1.723756769491e-03 6.665905775298e-04 0.0 
6.665905775298e-04 9.368365702394e-03 0.0 
0.0 0.0 0.0 
1.851114163596e-03 2.496298863210e-03 0.0 
2.496298863210e-03 2.275104391484e-03 0.0 
0.0 0.0 0.0 
-9.896352971908e-04 -8.671632084422e-04 0.0 
-8.671632084422e-04 3.733521921721e-03 0.0 
0.0 0.0 0.0 
-6.386387203265e-04 -1.228182274671e-03 0.0 
-1.228182274671e-03 3.237234180024e-03 0.0 
0.0 0.0 0.0 
-1.691846312923e-03 1.996967116519e-03 0.0 
1.996967116519e-03 6.056708201831e-03 0.0 
0.0 0.0 0.0 
4.171609648818e-03 -7.195139744463e-04 0.0 
-7.195139744463e-04 -2.834444823780e-03 0.0 
0.0 0.0 0.0 
-9.466549171286e-04 -7.267681189801e-04 0.0 
-7.267681189801e-04 4.057820340678e-03 0.0 
0.0 0.0 0.0 
-1.174886434606e-03 7.137665147982e-05 0.0 
7.137665147982e-05 1.022550991724e-02 0.0 
0.0 0.0 0.0 
-1.271184165180e-03 6.025642037678e-05 0.0 
6.025642037678e-05 9.899106493589e-03 0.0 
0.0 0.0 0.0 
-1.762849105594e-03 1.862288624942e-03 0.0 
1.862288624942e-03 6.362810360780e-03 0.0 
0.0 0.0 0.0 
-6.065405480639e-04 -1.064347537207e-03 0.0 
-1.064347537207e-03 3.655248550270e-03 0.0 
0.0 0.0 0.0 
2.670206587497e-03 -2.361849776327e-03 0.0 
-2.361849776327e-03 -2.089718868296e-03 0.0 
0.0 0.0 0.0 
1.289824725916e-04 4.019197311757e-03 0.0 
4.019197311757e-03 7.409521848079e-04 0.0 
0.0 0.0 0.0 
1.211153325594e-03 2.302160181250e-03 0.0 
2.302160181250e-03 3.709642456987e-03 0.0 
0.0 0.0 0.0 
-1.978997087474e-04 -2.091515997371e-03 0.0 
-2.091515997371e-03 8.611457750654e-04 0.0 
0.0 0.0 0.0 
2.617622054199e-03 -2.181727891881e-03 0.0 
-2.181727891881e-03 -1.421585881906e-03 0.0 
0.0 0.0 0.0 
3.019031749053e-03 2.727084067005e-03 0.0 
2.727084067005e-03 7.741429922459e-05 0.0 
0.0 0.0 0.0 
-1.699304100799e-03 1.338455257303e-03 0.0 
1.338455257303e-03 6.772441505135e-03 0.0 
0.0 0.0 0.0 
-1.072845289321e-03 -6.232840948071e-04 0.0 
-6.232840948071e-04 4.034036583931e-03 0.0 
0.0 0.0 0.0 
-8.981663854041e-04 -5.848928648521e-05 0.0 
-5.848928648521e-05 2.501224621581e-03 0.0 
0.0 0.0 0.0 
-2.163546741010e-03 1.305094711090e-03 0.0 
1.305094711090e-03 8.765782132753e-03 0.0 
0.0 0.0 0.0 
-7.908011514628e-04 -9.937919102450e-04 0.0 
-9.937919102450e-04 3.644329333815e-03 0.0 
0.0 0.0 0.0 
2.896518662394e-03 -1.234464026217e-03 0.0 
-1.234464026217e-03 -1.475219329164e-03 0.0 
0.0 0.0 0.0 
-1.888370407802e-04 -1.683775886766e-03 0.0 
-1.683775886766e-03 2.264943690762e-03 0.0 
0.0 0.0 0.0 
3.638171552844e-05 2.879322101888e-03 0.0 
2.879322101888e-03 -2.413553151808e-03 0.0 
0.0 0.0 0.0 
-7.623491158132e-04 7.291756360888e-05 0.0 
7.291756360888e-05 1.112963613593e-02 0.0 
0.0 0.0 0.0 
3.190597027982e-03 -1.699897061885e-03 0.0 
-1.699897061885e-03 -2.256691345290e-03 0.0 
0.0 0.0 0.0 
1.816197027056e-03 1.104555230456e-03 0.0 
1.104555230456e-03 2.118731845837e-03 0.0 
0.0 0.0 0.0 
1.613474705982e-03 3.167853886514e-03 0.0 
3.167853886514e-03 2.831938055698e-03 0.0 
0.0 0.0 0.0 
-7.480921203958e-04 -8.392212968140e-04 0.0 
-8.392212968140e-04 4.011386332286e-03 0.0 
0.0 0.0 0.0 
-9.020173412928e-04 -7.619616580341e-04 0.0 
-7.619616580341e-04 3.999236038811e-03 0.0 
0.0 0.0 0.0 
4.611877204630e-03 -1.954528377098e-04 0.0 
-1.954528377098e-04 -3.271818025687e-03 0.0 
0.0 0.0 0.0 
-6.350755196155e-04 -1.869765971529e-03 0.0 
-1.869765971529e-03 8.506714686516e-04 0.0 
0.0 0.0 0.0 
6.106758056099e-04 3.836936551542e-03 0.0 
3.836936551542e-03 -2.608716352437e-03 0.0 
0.0 0.0 0.0 
-8.533670625921e-04 -6.200771388323e-04 0.0 
-6.200771388323e-04 4.325130317033e-03 0.0 
0.0 0.0 0.0 
1.731569192013e-03 5.149190837440e-04 0.0 
5.149190837440e-04 2.063805206570e-03 0.0 
0.0 0.0 0.0 
1.571064329479e-03 -2.580980618268e-03 0.0 
-2.580980618268e-03 -8.325033115579e-04 0.0 
0.0 0.0 0.0 
1.768916846112e-06 3.369495849676e-03 0.0 
3.369495849676e-03 5.410075534485e-03 0.0 
0.0 0.0 0.0 
-1.073029668394e-03 2.805476185323e-03 0.0 
2.805476185323e-03 5.045835147591e-03 0.0 
0.0 0.0 0.0 
-4.285065690188e-04 3.241558225465e-03 0.0 
3.241558225465e-03 6.566068650234e-03 0.0 
0.0 0.0 0.0 
6.247445211258e-04 -2.086354353838e-04 0.0 
-2.086354353838e-04 3.989362502796e-03 0.0 
0.0 0.0 0.0 
-5.276600678860e-03 -6.706080594910e-05 0.0 
-6.706080594910e-05 -2.558198624279e-03 0.0 
0.0 0.0 0.0 
0.0 2.059668637153e-04 0.0 
2.059668637153e-04 1.179460451491e-02 0.0 
0.0 0.0 0.0 
0.0 -2.070040231869e-04 0.0 
-2.070040231869e-04 5.990697435498e-03 0.0 
0.0 0.0 0.0 
-1.353711707682e-03 -2.423334029393e-05 0.0 
-2.423334029393e-05 9.289934110242e-03 0.0 
0.0 0.0 0.0 
2.115256149732e-03 -2.194311855503e-03 0.0 
-2.194311855503e-03 -1.125890944817e-03 0.0 
0.0 0.0 0.0 
1.300124352789e-03 3.399610275847e-03 0.0 
3.399610275847e-03 3.240358867433e-03 0.0 
0.0 0.0 0.0 
4.702277983325e-03 5.515454451574e-04 0.0 
5.515454451574e-04 -3.146583662375e-03 0.0 
0.0 0.0 0.0 
3.092684410095e-04 -6.214917633085e-04 0.0 
-6.214917633085e-04 7.923616389758e-04 0.0 
0.0 0.0 0.0 
-2.055906713576e-03 3.559893611903e-03 0.0 
3.559893611903e-03 1.020255123247e-03 0.0 
0.0 0.0 0.0 
-6.660373318392e-04 6.242142498301e-04 0.0 
6.242142498301e-04 1.129149462860e-02 0.0 
0.0 0.0 0.0 
-1.635323348341e-03 2.187641127811e-03 0.0 
2.187641127811e-03 8.890337104882e-03 0.0 
0.0 0.0 0.0 
-2.225581265699e-03 1.167427173013e-03 0.0 
1.167427173013e-03 8.514137657911e-03 0.0 
0.0 0.0 0.0 
2.381511037786e-04 3.444365698634e-03 0.0 
3.444365698634e-03 6.494643492053e-03 0.0 
0.0 0.0 0.0 
-5.076543617131e-04 -2.226927714841e-05 0.0 
-2.226927714841e-05 2.048595114406e-03 0.0 
0.0 0.0 0.0 
2.795326656637e-04 3.259466001410e-03 0.0 
3.259466001410e-03 6.087576517556e-03 0.0 
0.0 0.0 0.0 
-1.517539958433e-03 2.077887988435e-03 0.0 
2.077887988435e-03 8.908211701630e-03 0.0 
0.0 0.0 0.0 
1.270425354411e-03 -2.432071899709e-03 0.0 
-2.432071899709e-03 -2.279715176308e-04 0.0 
0.0 0.0 0.0 
1.426268479146e-03 3.490754263699e-03 0.0 
3.490754263699e-03 2.311886665313e-03 0.0 
0.0 0.0 0.0 
2.065414807710e-03 -2.217972872533e-03 0.0 
-2.217972872533e-03 -7.736673934363e-04 0.0 
0.0 0.0 0.0 
-6.584140632593e-06 3.882648546298e-03 0.0 
3.882648546298e-03 1.483637212537e-03 0.0 
0.0 0.0 0.0 
1.557895403730e-03 -2.418208993024e-03 0.0 
-2.418208993024e-03 -3.247492372626e-04 0.0 
0.0 0.0 0.0 
-1.161609245527e-03 2.538706932741e-03 0.0 
2.538706932741e-03 8.418341203244e-03 0.0 
0.0 0.0 0.0 
-5.909041196562e-04 -3.604530013958e-04 0.0 
-3.604530013958e-04 5.176309537628e-03 0.0 
0.0 0.0 0.0 
3.226518719597e-03 -1.808651186275e-03 0.0 
-1.808651186275e-03 -1.952379215358e-03 0.0 
0.0 0.0 0.0 
-2.185507410076e-04 3.251120803758e-03 0.0 
3.251120803758e-03 6.148410821755e-03 0.0 
0.0 0.0 0.0 
-1.958588409448e-03 -2.084739705241e-04 0.0 
-2.084739705241e-04 -4.264732010062e-03 0.0 
0.0 0.0 0.0 
4.265423019438e-03 -8.178027690355e-04 0.0 
-8.178027690355e-04 -2.848587820318e-03 0.0 
0.0 0.0 0.0 
-1.374889450560e-03 2.197080816669e-03 0.0 
2.197080816669e-03 9.431847530180e-03 0.0 
0.0 0.0 0.0 
7.081773359803e-04 -2.446816835683e-03 0.0 
-2.446816835683e-03 6.269871441147e-04 0.0 
0.0 0.0 0.0 
1.066778221920e-03 -2.678436481286e-03 0.0 
-2.678436481286e-03 -3.166659819205e-04 0.0 
0.0 0.0 0.0 
1.716081233353e-03 3.373644888342e-03 0.0 
3.373644888342e-03 2.329135452506e-03 0.0 
0.0 0.0 0.0 
2.146646337673e-03 -3.011970757692e-03 0.0 
-3.011970757692e-03 -1.952782913971e-03 0.0 
0.0 0.0 0.0 
-1.617366343367e-03 2.251055135909e-03 0.0 
2.251055135909e-03 5.629264338463e-03 0.0 
0.0 0.0 0.0 
-1.599298158476e-03 2.189102575171e-03 0.0 
2.189102575171e-03 5.753905148117e-03 0.0 
0.0 0.0 0.0 
5.897842514972e-04 -2.486409692183e-03 0.0 
-2.486409692183e-03 5.939964506718e-04 0.0 
0.0 0.0 0.0 
2.792738498437e-03 -1.094177767852e-03 0.0 
-1.094177767852e-03 -1.132862022871e-03 0.0 
0.0 0.0 0.0 
2.986400053313e-03 3.049359737714e-03 0.0 
3.049359737714e-03 -4.870114311643e-04 0.0 
0.0 0.0 0.0 
-1.056334185994e-04 3.288840098115e-03 0.0 
3.288840098115e-03 6.143738282094e-03 0.0 
0.0 0.0 0.0 
-4.375828128869e-04 2.878240586888e-03 0.0 
2.878240586888e-03 8.983658808858e-03 0.0 
0.0 0.0 0.0 
-1.435139292462e-03 1.535221954930e-03 0.0 
1.535221954930e-03 6.150334572274e-03 0.0 
0.0 0.0 0.0 
-1.056182997926e-03 4.613627680870e-05 0.0 
4.613627680870e-05 1.055123179373e-02 0.0 
0.0 0.0 0.0 
7.199074652187e-06 3.237802932457e-03 0.0 
3.237802932457e-03 7.163080219082e-03 0.0 
0.0 0.0 0.0 
4.792006232061e-03 5.476764029478e-04 0.0 
5.476764029478e-04 -3.509763423078e-03 0.0 
0.0 0.0 0.0 
-5.705378205487e-04 3.783449995061e-03 0.0 
3.783449995061e-03 1.173136088246e-03 0.0 
0.0 0.0 0.0 
-1.323447474367e-03 3.023076171093e-03 0.0 
3.023076171093e-03 5.421886611508e-03 0.0 
0.0 0.0 0.0 
2.478415051554e-03 -1.459783033778e-03 0.0 
-1.459783033778e-03 -1.002505810466e-03 0.0 
0.0 0.0 0.0 
-6.486088643964e-04 3.039777224457e-03 0.0 
3.039777224457e-03 7.210322795558e-03 0.0 
0.0 0.0 0.0 
2.823267157387e-03 -1.145370830005e-03 0.0 
-1.145370830005e-03 -1.052196459256e-03 0.0 
0.0 0.0 0.0 
1.701324111012e-03 3.373168506885e-03 0.0 
3.373168506885e-03 -2.356681339650e-03 0.0 
0.0 0.0 0.0 
2.545192219111e-03 -9.140783941816e-04 0.0 
-9.140783941816e-04 -5.545574785732e-04 0.0 
0.0 0.0 0.0 
-2.379247225163e-04 3.758260571819e-03 0.0 
3.758260571819e-03 2.221384269157e-03 0.0 
0.0 0.0 0.0 
3.303158398952e-03 2.788689453767e-03 0.0 
2.788689453767e-03 -4.514035162418e-04 0.0 
0.0 0.0 0.0 
2.661940563795e-03 -1.011781238592e-03 0.0 
-1.011781238592e-03 -6.241770966103e-04 0.0 
0.0 0.0 0.0 
1.747270910966e-03 3.259605446654e-03 0.0 
3.259605446654e-03 1.923311335980e-03 0.0 
0.0 0.0 0.0 
-1.259250031398e-03 1.965985949968e-04 0.0 
1.965985949968e-04 1.014228402332e-02 0.0 
0.0 0.0 0.0 
3.479492110676e-04 -2.455345832928e-03 0.0 
-2.455345832928e-03 5.908808225652e-04 0.0 
0.0 0.0 0.0 
3.168075075661e-04 4.103553080096e-03 0.0 
4.103553080096e-03 -3.783637021615e-05 0.0 
0.0 0.0 0.0 
2.497162554333e-03 -7.410639429431e-04 0.0 
-7.410639429431e-04 4.479975338101e-05 0.0 
0.0 0.0 0.0 
-3.623151426083e-04 3.567778431694e-03 0.0 
3.567778431694e-03 2.920267329696e-03 0.0 
0.0 0.0 0.0 
3.968712763094e-04 1.016750942478e-03 0.0 
1.016750942478e-03 -4.731967837966e-03 0.0 
0.0 0.0 0.0 
-4.929506283423e-04 1.202075611427e-04 0.0 
1.202075611427e-04 1.139382417916e-02 0.0 
0.0 0.0 0.0 
-7.145040332847e-04 1.049429407424e-04 0.0 
1.049429407424e-04 1.113088488601e-02 0.0 
0.0 0.0 0.0 
-4.780276344828e-04 -6.455274059924e-04 0.0 
-6.455274059924e-04 6.141010481311e-04 0.0 
0.0 0.0 0.0 
2.281620433568e-03 -5.793545559960e-04 0.0 
-5.793545559960e-04 2.107384354360e-04 0.0 
0.0 0.0 0.0 
-3.245779952377e-05 -2.067376929773e-03 0.0 
-2.067376929773e-03 9.789556667315e-04 0.0 
0.0 0.0 0.0 
-1.846183894431e-04 -2.062282631367e-03 0.0 
-2.062282631367e-03 1.287066014484e-03 0.0 
0.0 0.0 0.0 
-1.256932731337e-04 3.216117686095e-03 0.0 
3.216117686095e-03 6.465017166595e-03 0.0 
0.0 0.0 0.0 
2.059746928299e-03 3.079284733207e-03 0.0 
3.079284733207e-03 1.946349772491e-03 0.0 
0.0 0.0 0.0 
7.314763572452e-05 3.285124143578e-03 0.0 
3.285124143578e-03 5.742131958079e-03 0.0 
0.0 0.0 0.0 
3.768721360180e-03 -1.413569540348e-03 0.0 
-1.413569540348e-03 -2.734783979754e-03 0.0 
0.0 0.0 0.0 
-1.493078366485e-03 1.113616606514e-04 0.0 
1.113616606514e-04 8.863730041025e-03 0.0 
0.0 0.0 0.0 
2.476183129854e-04 -3.688770424070e-04 0.0 
-3.688770424070e-04 4.213436504950e-03 0.0 
0.0 0.0 0.0 
-2.701555791162e-04 -1.854204884953e-03 0.0 
-1.854204884953e-03 1.201011667133e-03 0.0 
0.0 0.0 0.0 
1.966915259385e-03 1.144091360225e-03 0.0 
1.144091360225e-03 1.801362151651e-03 0.0 
0.0 0.0 0.0 
2.696211289634e-03 3.093650202777e-03 0.0 
3.093650202777e-03 5.053489705471e-04 0.0 
0.0 0.0 0.0 
-7.583585296489e-05 -3.649161387506e-04 0.0 
-3.649161387506e-04 1.430179524868e-03 0.0 
0.0 0.0 0.0 
-9.107390537129e-04 2.875659516894e-03 0.0 
2.875659516894e-03 7.581505796040e-03 0.0 
0.0 0.0 0.0 
4.524059221952e-03 -1.105390830653e-04 0.0 
-1.105390830653e-04 -2.942129495419e-03 0.0 
0.0 0.0 0.0 
-5.425187189307e-04 -1.915726815122e-03 0.0 
-1.915726815122e-03 8.637969129448e-04 0.0 
0.0 0.0 0.0 
4.263991140791e-03 -9.330145426620e-04 0.0 
-9.330145426620e-04 -3.090221867114e-03 0.0 
0.0 0.0 0.0 
-1.027208470776e-03 -4.317227818124e-05 0.0 
-4.317227818124e-05 4.697910121452e-03 0.0 
0.0 0.0 0.0 
-1.232115248795e-03 2.648882605064e-03 0.0 
2.648882605064e-03 8.393535039243e-03 0.0 
0.0 0.0 0.0 
-7.085867153578e-05 -2.084477424359e-03 0.0 
-2.084477424359e-03 6.629629337715e-04 0.0 
0.0 0.0 0.0 
-1.347771824439e-03 -2.905139123955e-04 0.0 
-2.905139123955e-04 4.008597270410e-03 0.0 
0.0 0.0 0.0 
-3.861052105262e-04 3.152295646207e-03 0.0 
3.152295646207e-03 6.834687968478e-03 0.0 
0.0 0.0 0.0 
1.610689012197e-03 2.538953480834e-03 0.0 
2.538953480834e-03 3.062054527935e-03 0.0 
0.0 0.0 0.0 
1.078003444140e-03 -2.514173580581e-03 0.0 
-2.514173580581e-03 1.349937849480e-04 0.0 
0.0 0.0 0.0 
-9.739425793946e-04 -3.152815143262e-04 0.0 
-3.152815143262e-04 2.495551013878e-03 0.0 
0.0 0.0 0.0 
2.757832348784e-03 2.981539710787e-03 0.0 
2.981539710787e-03 4.351860300478e-05 0.0 
0.0 0.0 0.0 
-1.222081511952e-03 -2.310980304502e-05 0.0 
-2.310980304502e-05 1.003785578086e-02 0.0 
0.0 0.0 0.0 
-3.103345335157e-04 -2.674752872089e-03 0.0 
-2.674752872089e-03 6.546118331212e-04 0.0 
0.0 0.0 0.0 
6.710853004721e-05 3.477550686307e-03 0.0 
3.477550686307e-03 7.169081126417e-03 0.0 
0.0 0.0 0.0 
-2.916996288710e-04 2.709336446041e-03 0.0 
2.709336446041e-03 9.777943725306e-03 0.0 
0.0 0.0 0.0 
-1.322446841803e-03 1.167242901934e-05 0.0 
1.167242901934e-05 9.525682357180e-03 0.0 
0.0 0.0 0.0 
-6.493315650077e-04 1.498207879436e-03 0.0 
1.498207879436e-03 1.111828064716e-02 0.0 
0.0 0.0 0.0 
-2.069634701158e-04 3.027821391442e-03 0.0 
3.027821391442e-03 9.109552978694e-03 0.0 
0.0 0.0 0.0 
3.749343474326e-03 -1.294647410904e-03 0.0 
-1.294647410904e-03 -2.334508787832e-03 0.0 
0.0 0.0 0.0 
2.654290374616e-03 -2.110795729069e-03 0.0 
-2.110795729069e-03 -1.892350669783e-03 0.0 
0.0 0.0 0.0 
1.013151395133e-03 1.559734248712e-03 0.0 
1.559734248712e-03 3.818987354811e-03 0.0 
0.0 0.0 0.0 
-1.668076201789e-03 4.742809936333e-04 0.0 
4.742809936333e-04 -4.136445337545e-03 0.0 
0.0 0.0 0.0 
-7.489831203846e-04 -1.314344074105e-04 0.0 
-1.314344074105e-04 2.284301542199e-03 0.0 
0.0 0.0 0.0 
-1.258650823259e-03 -1.926642279065e-04 0.0 
-1.926642279065e-04 4.112672979465e-03 0.0 
0.0 0.0 0.0 
7.544280541136e-04 -2.579488751072e-03 0.0 
-2.579488751072e-03 1.493332321341e-04 0.0 
0.0 0.0 0.0 
3.223660270526e-03 -1.987172841404e-03 0.0 
-1.987172841404e-03 -2.140724716682e-03 0.0 
0.0 0.0 0.0 
-1.760276940806e-03 2.659397838844e-03 0.0 
2.659397838844e-03 4.988801822391e-03 0.0 
0.0 0.0 0.0 
-1.695893287425e-03 2.678105210595e-03 0.0 
2.678105210595e-03 5.076988164683e-03 0.0 
0.0 0.0 0.0 
-1.743936525492e-03 5.145058818659e-04 0.0 
5.145058818659e-04 9.481245183077e-03 0.0 
0.0 0.0 0.0 
4.264356952611e-03 -9.194589874902e-04 0.0 
-9.194589874902e-04 -3.148885618590e-03 0.0 
0.0 0.0 0.0 
-1.017331091299e-03 -7.753453932632e-04 0.0 
-7.753453932632e-04 2.553199514403e-03 0.0 
0.0 0.0 0.0 
1.413962378228e-03 2.914265423825e-03 0.0 
2.914265423825e-03 3.147751620868e-03 0.0 
0.0 0.0 0.0 
7.583010291912e-05 -6.428175779833e-04 0.0 
-6.428175779833e-04 5.165767129151e-03 0.0 
0.0 0.0 0.0 
1.492023392571e-04 -5.889820091311e-04 0.0 
-5.889820091311e-04 4.943544743755e-03 0.0 
0.0 0.0 0.0 
2.579246514232e-03 -1.929747380509e-03 0.0 
-1.929747380509e-03 -1.178542018478e-03 0.0 
0.0 0.0 0.0 
-1.815295240649e-03 6.242129167351e-04 0.0 
6.242129167351e-04 9.131064276037e-03 0.0 
0.0 0.0 0.0 
-1.869335181849e-03 1.401347409758e-04 0.0 
1.401347409758e-04 -3.618748036915e-03 0.0 
0.0 0.0 0.0 
-1.556390231619e-03 3.301239417654e-03 0.0 
3.301239417654e-03 3.516538888336e-03 0.0 
0.0 0.0 0.0 
1.825489125222e-03 -3.499336094896e-03 0.0 
-3.499336094896e-03 -2.606393068044e-03 0.0 
0.0 0.0 0.0 
-1.656935749175e-03 3.156617403043e-03 0.0 
3.156617403043e-03 4.246612384257e-03 0.0 
0.0 0.0 0.0 
2.518807706297e-03 2.947859877514e-03 0.0 
2.947859877514e-03 1.044647840789e-03 0.0 
0.0 0.0 0.0 
2.022125994294e-03 -2.410237045641e-03 0.0 
-2.410237045641e-03 -8.556223223919e-04 0.0 
0.0 0.0 0.0 
3.272887477873e-03 -1.957882782115e-03 0.0 
-1.957882782115e-03 -2.495159787579e-03 0.0 
0.0 0.0 0.0 
1.043776946317e-03 -3.453374268467e-03 0.0 
-3.453374268467e-03 -3.312154132984e-03 0.0 
0.0 0.0 0.0 
-6.178208156374e-04 1.802113226456e-04 0.0 
1.802113226456e-04 1.118494414101e-02 0.0 
0.0 0.0 0.0 
2.115090468387e-03 -2.388054551911e-03 0.0 
-2.388054551911e-03 -1.389133206670e-03 0.0 
0.0 0.0 0.0 
-5.577128655393e-04 6.437541374643e-04 0.0 
6.437541374643e-04 1.128780880195e-02 0.0 
0.0 0.0 0.0 
-8.623219549909e-04 2.366282353058e-04 0.0 
2.366282353058e-04 1.094727936966e-02 0.0 
0.0 0.0 0.0 
-2.349984634639e-04 2.872036157027e-04 0.0 
2.872036157027e-04 1.178096746796e-02 0.0 
0.0 0.0 0.0 
-1.902262285735e-04 -2.684204307275e-04 0.0 
-2.684204307275e-04 5.974334660182e-03 0.0 
0.0 0.0 0.0 
-1.335554526862e-03 4.867077770454e-05 0.0 
4.867077770454e-05 9.534361626349e-03 0.0 
0.0 0.0 0.0 
1.672453904958e-03 -2.450885548771e-03 0.0 
-2.450885548771e-03 -7.313091595922e-04 0.0 
0.0 0.0 0.0 
-1.201872502136e-03 1.723212974591e-03 0.0 
1.723212974591e-03 5.576250804231e-03 0.0 
0.0 0.0 0.0 
1.671551595004e-03 -2.291867015648e-03 0.0 
-2.291867015648e-03 -2.542796632422e-04 0.0 
0.0 0.0 0.0 
0.0 -6.008579551800e-04 0.0 
-6.008579551800e-04 5.404913818910e-03 0.0 
0.0 0.0 0.0 
-1.636339814139e-03 3.383649775985e-03 0.0 
3.383649775985e-03 2.305316710465e-03 0.0 
0.0 0.0 0.0 
-1.536318855922e-03 3.330274959016e-03 0.0 
3.330274959016e-03 2.885648482976e-03 0.0 
0.0 0.0 0.0 
1.736186786050e-03 1.491357894709e-03 0.0 
1.491357894709e-03 2.399139249431e-03 0.0 
0.0 0.0 0.0 
-1.683987942873e-03 4.015919589257e-04 0.0 
4.015919589257e-04 9.184148713773e-03 0.0 
0.0 0.0 0.0 
-5.195349763139e-04 4.331912106117e-04 0.0 
4.331912106117e-04 1.135500277760e-02 0.0 
0.0 0.0 0.0 
-3.313565373240e-04 3.186912489459e-03 0.0 
3.186912489459e-03 6.832457553841e-03 0.0 
0.0 0.0 0.0 
1.205527665074e-03 2.632551541265e-03 0.0 
2.632551541265e-03 3.686230554277e-03 0.0 
0.0 0.0 0.0 
-8.278707776850e-04 2.906977469019e-03 0.0 
2.906977469019e-03 8.279891689358e-03 0.0 
0.0 0.0 0.0 
-1.347381108174e-03 1.869435932716e-04 0.0 
1.869435932716e-04 9.609362443490e-03 0.0 
0.0 0.0 0.0 
5.984437327675e-04 -2.621110090089e-03 0.0 
-2.621110090089e-03 1.865209143170e-04 0.0 
0.0 0.0 0.0 
8.810378903650e-04 -2.579363958200e-03 0.0 
-2.579363958200e-03 1.798349221458e-04 0.0 
0.0 0.0 0.0 
-1.103914874643e-03 1.356254824936e-04 0.0 
1.356254824936e-04 1.038671600823e-02 0.0 
0.0 0.0 0.0 
1.244301864333e-03 2.697179269302e-03 0.0 
2.697179269302e-03 3.791903103438e-03 0.0 
0.0 0.0 0.0 
-2.015384259637e-03 8.255953147494e-04 0.0 
8.255953147494e-04 8.681543699514e-03 0.0 
0.0 0.0 0.0 
-1.388445538549e-03 5.111479346425e-05 0.0 
5.111479346425e-05 9.195020074869e-03 0.0 
0.0 0.0 0.0 
-1.375053718731e-03 8.405299892187e-05 0.0 
8.405299892187e-05 9.516845667895e-03 0.0 
0.0 0.0 0.0 
-1.431534097143e-03 1.532000041115e-04 0.0 
1.532000041115e-04 9.624051343402e-03 0.0 
0.0 0.0 0.0 
2.661841163678e-03 -1.797527888467e-03 0.0 
-1.797527888467e-03 -4.063648050163e-03 0.0 
0.0 0.0 0.0 
3.845071144311e-04 -2.467571883703e-03 0.0 
-2.467571883703e-03 6.526719306388e-04 0.0 
0.0 0.0 0.0 
-4.629711478485e-04 9.131302767393e-04 0.0 
9.131302767393e-04 1.145656254702e-02 0.0 
0.0 0.0 0.0 
-1.356008860073e-03 2.232274379087e-04 0.0 
2.232274379087e-04 9.983388891169e-03 0.0 
0.0 0.0 0.0 
5.633577139477e-04 2.266167710009e-03 0.0 
2.266167710009e-03 4.473651867452e-03 0.0 
0.0 0.0 0.0 
-6.317110920483e-04 3.003930474045e-03 0.0 
3.003930474045e-03 8.933793448965e-03 0.0 
0.0 0.0 0.0 
-9.028082689998e-04 2.977075402810e-03 0.0 
2.977075402810e-03 7.562585174877e-03 0.0 
0.0 0.0 0.0 
-8.187371110402e-04 1.555795025425e-03 0.0 
1.555795025425e-03 1.089461536196e-02 0.0 
0.0 0.0 0.0 
-1.168951747212e-03 -1.048520668520e-03 0.0 
-1.048520668520e-03 3.126049491857e-03 0.0 
0.0 0.0 0.0 
-1.119409298189e-03 -1.110788520745e-03 0.0 
-1.110788520745e-03 2.868691009146e-03 0.0 
0.0 0.0 0.0 
5.151642342829e-04 -3.837100722142e-04 0.0 
-3.837100722142e-04 3.727415426846e-03 0.0 
0.0 0.0 0.0 
5.241447514208e-04 -1.996719369894e-03 0.0 
-1.996719369894e-03 -3.741624557709e-03 0.0 
0.0 0.0 0.0 
-6.988945286818e-04 -2.078508131534e-04 0.0 
-2.078508131534e-04 2.342915020282e-03 0.0 
0.0 0.0 0.0 
0.0 3.197303353791e-03 0.0 
3.197303353791e-03 6.277572770815e-03 0.0 
0.0 0.0 0.0 
5.776207160870e-04 4.412427764093e-05 0.0 
4.412427764093e-05 8.230156350324e-04 0.0 
0.0 0.0 0.0 
-1.370030732868e-03 6.528153934684e-05 0.0 
6.528153934684e-05 9.205546248004e-03 0.0 
0.0 0.0 0.0 
1.396607602504e-03 9.811520620414e-04 0.0 
9.811520620414e-04 2.996720294336e-03 0.0 
0.0 0.0 0.0 
-2.168810729539e-04 -8.347969907232e-04 0.0 
-8.347969907232e-04 6.208818245361e-04 0.0 
0.0 0.0 0.0 
1.284336382822e-03 -4.034614219077e-04 0.0 
-4.034614219077e-04 -1.660371208909e-04 0.0 
0.0 0.0 0.0 
-2.918377543325e-04 1.347820321039e-03 0.0 
1.347820321039e-03 1.145890117597e-02 0.0 
0.0 0.0 0.0 
-1.608078125268e-03 2.054989361530e-04 0.0 
2.054989361530e-04 8.882479736205e-03 0.0 
0.0 0.0 0.0 
-4.835424164887e-04 1.208110554665e-03 0.0 
1.208110554665e-03 1.129721816946e-02 0.0 
0.0 0.0 0.0 
1.039325474322e-03 1.358522343373e-03 0.0 
1.358522343373e-03 3.061261666779e-03 0.0 
0.0 0.0 0.0 
-1.591768209245e-03 1.455828284256e-04 0.0 
1.455828284256e-04 8.885825871972e-03 0.0 
0.0 0.0 0.0 
-1.671901479314e-03 6.753492125892e-04 0.0 
6.753492125892e-04 -3.574528109401e-03 0.0 
0.0 0.0 0.0 
-2.529193480951e-04 2.169476312957e-04 0.0 
2.169476312957e-04 1.159847053775e-02 0.0 
0.0 0.0 0.0 
1.670899318373e-04 -5.262902180499e-04 0.0 
-5.262902180499e-04 1.017001533269e-03 0.0 
0.0 0.0 0.0 
-5.142985613860e-04 1.016895057265e-03 0.0 
1.016895057265e-03 1.122933308555e-02 0.0 
0.0 0.0 0.0 
0.0 -5.562774460058e-04 0.0 
-5.562774460058e-04 5.616457622666e-03 0.0 
0.0 0.0 0.0 
-6.766033830479e-04 2.620008330817e-03 0.0 
2.620008330817e-03 9.615887823963e-03 0.0 
0.0 0.0 0.0 
3.424098987816e-03 -1.546159428868e-03 0.0 
-1.546159428868e-03 -4.091279910323e-03 0.0 
0.0 0.0 0.0 
-1.876373175866e-03 9.625100986433e-04 0.0 
9.625100986433e-04 9.266163015291e-03 0.0 
0.0 0.0 0.0 
-1.320115249838e-03 -6.426832084313e-04 0.0 
-6.426832084313e-04 3.246269888759e-03 0.0 
0.0 0.0 0.0 
1.539143298161e-03 2.745236471175e-03 0.0 
2.745236471175e-03 3.160220867315e-03 0.0 
0.0 0.0 0.0 
4.129143632869e-04 2.484224685661e-03 0.0 
2.484224685661e-03 5.133907642725e-03 0.0 
0.0 0.0 0.0 
-9.799298899795e-04 1.632051586164e-04 0.0 
1.632051586164e-04 1.071887196910e-02 0.0 
0.0 0.0 0.0 
4.726421565391e-04 2.159804440989e-03 0.0 
2.159804440989e-03 4.818784821326e-03 0.0 
0.0 0.0 0.0 
1.726829053786e-03 -1.638751614901e-03 0.0 
-1.638751614901e-03 -4.567795290214e-03 0.0 
0.0 0.0 0.0 
-8.570291156196e-06 -6.582517618754e-04 0.0 
-6.582517618754e-04 5.065570734466e-03 0.0 
0.0 0.0 0.0 
3.166806514426e-03 -2.485346059588e-03 0.0 
-2.485346059588e-03 -2.846203948692e-03 0.0 
0.0 0.0 0.0 
3.789309691322e-04 -2.448828897956e-04 0.0 
-2.448828897956e-04 9.153402105935e-04 0.0 
0.0 0.0 0.0 
8.643024653836e-04 5.583199955900e-04 0.0 
5.583199955900e-04 3.666004164823e-03 0.0 
0.0 0.0 0.0 
-6.133960111340e-04 2.112393021707e-03 0.0 
2.112393021707e-03 1.071975127437e-02 0.0 
0.0 0.0 0.0 
-3.941416621022e-04 1.369742456406e-03 0.0 
1.369742456406e-03 1.127903366718e-02 0.0 
0.0 0.0 0.0 
-1.446852532509e-03 1.907165780489e-04 0.0 
1.907165780489e-04 9.188772985808e-03 0.0 
0.0 0.0 0.0 
-1.871425683469e-03 1.377368579680e-03 0.0 
1.377368579680e-03 9.016535078403e-03 0.0 
0.0 0.0 0.0 
3.634236467809e-05 3.884947247830e-03 0.0 
3.884947247830e-03 1.483723245828e-03 0.0 
0.0 0.0 0.0 
-4.045980567857e-04 3.200527763363e-03 0.0 
3.200527763363e-03 8.991722943142e-03 0.0 
0.0 0.0 0.0 
-1.257816650766e-03 -5.881616219018e-04 0.0 
-5.881616219018e-04 2.995459069273e-03 0.0 
0.0 0.0 0.0 
1.036573401944e-03 3.754716769472e-03 0.0 
3.754716769472e-03 -1.154475123753e-03 0.0 
0.0 0.0 0.0 
1.517466108914e-03 2.692785018972e-03 0.0 
2.692785018972e-03 3.042149451571e-03 0.0 
0.0 0.0 0.0 
-1.460389525365e-03 7.622983442921e-05 0.0 
7.622983442921e-05 8.842928977519e-03 0.0 
0.0 0.0 0.0 
-5.726521830781e-04 2.043452894494e-03 0.0 
2.043452894494e-03 1.051491794218e-02 0.0 
0.0 0.0 0.0 
-1.990235717912e-04 -1.102083754814e-05 0.0 
-1.102083754814e-05 1.179711757291e-02 0.0 
0.0 0.0 0.0 
0.0 9.951178589538e-05 0.0 
9.951178589538e-05 1.181915924801e-02 0.0 
0.0 0.0 0.0 
2.751170553143e-03 8.023615998485e-05 0.0 
8.023615998485e-05 -9.824667148054e-04 0.0 
0.0 0.0 0.0 
2.228924399095e-03 -1.365615679763e-04 0.0 
-1.365615679763e-04 -8.938160166789e-04 0.0 
0.0 0.0 0.0 
-1.374754229473e-03 -2.248593854064e-05 0.0 
-2.248593854064e-05 8.887308335022e-03 0.0 
0.0 0.0 0.0 
-1.389225680098e-03 1.071024931237e-05 0.0 
1.071024931237e-05 8.835387409940e-03 0.0 
0.0 0.0 0.0 
0.0 -9.828459938450e-05 0.0 
-9.828459938450e-05 6.033869208085e-03 0.0 
0.0 0.0 0.0 
-1.965691987686e-04 5.908971546069e-06 0.0 
5.908971546069e-06 6.022051264993e-03 0.0 
0.0 0.0 0.0 
2.109884861952e-03 -5.751300733379e-05 0.0 
-5.751300733379e-05 -5.795711345481e-04 0.0 
0.0 0.0 0.0 
-1.718492738963e-03 -3.448789503029e-04 0.0 
-3.448789503029e-04 -4.378384009130e-03 0.0 
0.0 0.0 0.0 
-2.457232970043e-04 -4.770466084856e-04 0.0 
-4.770466084856e-04 5.236175438564e-03 0.0 
0.0 0.0 0.0 
6.360068951139e-04 3.190730792171e-03 0.0 
3.190730792171e-03 5.276027051444e-03 0.0 
0.0 0.0 0.0 
1.894383077832e-04 -5.498980467589e-04 0.0 
-5.498980467589e-04 1.180558126598e-03 0.0 
0.0 0.0 0.0 
9.566252363258e-05 -6.352260748763e-04 0.0 
-6.352260748763e-04 4.527138084863e-03 0.0 
0.0 0.0 0.0 
-1.194178773286e-03 -1.223618896744e-04 0.0 
-1.223618896744e-04 4.312958770247e-03 0.0 
0.0 0.0 0.0 
-1.389374746724e-03 -1.449810356375e-04 0.0 
-1.449810356375e-04 3.868146616512e-03 0.0 
0.0 0.0 0.0 
-1.274763375636e-03 2.136065491382e-04 0.0 
2.136065491382e-04 1.015383744041e-02 0.0 
0.0 0.0 0.0 
7.391366181735e-04 -3.172221493959e-03 0.0 
-3.172221493959e-03 -6.880977393215e-04 0.0 
0.0 0.0 0.0 
1.825783918407e-03 2.879356542460e-03 0.0 
2.879356542460e-03 2.539186017601e-03 0.0 
0.0 0.0 0.0 
4.625483954415e-04 -5.976514670361e-04 0.0 
-5.976514670361e-04 8.228508284864e-04 0.0 
0.0 0.0 0.0 
-1.239120125001e-03 -8.083002008064e-04 0.0 
-8.083002008064e-04 3.347419321496e-03 0.0 
0.0 0.0 0.0 
-3.216000196292e-04 3.035397181544e-03 0.0 
3.035397181544e-03 8.685474272968e-03 0.0 
0.0 0.0 0.0 
-6.303091996441e-04 -1.527223312094e-05 0.0 
-1.527223312094e-05 1.128481822885e-02 0.0 
0.0 0.0 0.0 
-1.360914708873e-03 -2.513856452865e-04 0.0 
-2.513856452865e-04 3.923200771540e-03 0.0 
0.0 0.0 0.0 
-1.327401834618e-03 6.220794697730e-05 0.0 
6.220794697730e-05 9.790373076471e-03 0.0 
0.0 0.0 0.0 
2.066056457375e-04 3.392106335032e-03 0.0 
3.392106335032e-03 6.514416035768e-03 0.0 
0.0 0.0 0.0 
-6.160193986010e-04 3.035178670598e-03 0.0 
3.035178670598e-03 8.007934894838e-03 0.0 
0.0 0.0 0.0 
-7.531357195343e-04 2.995163026366e-03 0.0 
2.995163026366e-03 7.770141497335e-03 0.0 
0.0 0.0 0.0 
-1.520534212689e-03 1.219267215498e-04 0.0 
1.219267215498e-04 8.880602278622e-03 0.0 
0.0 0.0 0.0 
2.264246013285e-03 2.738238456024e-03 0.0 
2.738238456024e-03 1.696060342964e-03 0.0 
0.0 0.0 0.0 
-5.608290323207e-04 2.331051810759e-03 0.0 
2.331051810759e-03 1.011089153063e-02 0.0 
0.0 0.0 0.0 
-8.981702884661e-04 -5.183147049540e-04 0.0 
-5.183147049540e-04 2.397129281069e-03 0.0 
0.0 0.0 0.0 
-1.611629316115e-04 -6.030776246563e-04 0.0 
-6.030776246563e-04 4.468333465426e-04 0.0 
0.0 0.0 0.0 
1.139942230410e-04 3.227430938777e-03 0.0 
3.227430938777e-03 6.486408957671e-03 0.0 
0.0 0.0 0.0 
1.999230124677e-03 1.335452618525e-03 0.0 
1.335452618525e-03 1.788552946534e-03 0.0 
0.0 0.0 0.0 
7.093602513986e-04 -3.243769720877e-03 0.0 
-3.243769720877e-03 -8.496674379282e-04 0.0 
0.0 0.0 0.0 
-1.177066456183e-03 1.077149058035e-04 0.0 
1.077149058035e-04 1.040425895638e-02 0.0 
0.0 0.0 0.0 
-1.448117319640e-04 -4.699036528381e-04 0.0 
-4.699036528381e-04 5.494689286672e-03 0.0 
0.0 0.0 0.0 
4.807412907550e-04 3.144588621396e-03 0.0 
3.144588621396e-03 5.437424324119e-03 0.0 
0.0 0.0 0.0 
3.890484393629e-04 3.318629527529e-03 0.0 
3.318629527529e-03 6.036007419267e-03 0.0 
0.0 0.0 0.0 
-1.079619889396e-03 -1.411372361770e-04 0.0 
-1.411372361770e-04 4.519295038520e-03 0.0 
0.0 0.0 0.0 
1.206417655448e-04 2.877464075389e-03 0.0 
2.877464075389e-03 -3.490463688896e-03 0.0 
0.0 0.0 0.0 
-1.321462649592e-03 2.177799102948e-03 0.0 
2.177799102948e-03 4.945057786647e-03 0.0 
0.0 0.0 0.0 
-4.163669486039e-04 3.687938324130e-03 0.0 
3.687938324130e-03 2.924980404491e-03 0.0 
0.0 0.0 0.0 
-1.842173900072e-03 9.935344941040e-04 0.0 
9.935344941040e-04 9.289622331903e-03 0.0 
0.0 0.0 0.0 
2.013562755504e-03 2.951924855673e-03 0.0 
2.951924855673e-03 1.671225775068e-03 0.0 
0.0 0.0 0.0 
-5.496120888661e-04 7.556986829645e-04 0.0 
7.556986829645e-04 1.134057337507e-02 0.0 
0.0 0.0 0.0 
6.004386379233e-04 1.643458809645e-03 0.0 
1.643458809645e-03 3.820150111612e-03 0.0 
0.0 0.0 0.0 
-8.940882298983e-04 -2.337628194458e-03 0.0 
-2.337628194458e-03 4.617519634620e-04 0.0 
0.0 0.0 0.0 
-5.116491858913e-04 -1.315750174853e-03 0.0 
-1.315750174853e-03 6.888690413498e-04 0.0 
0.0 0.0 0.0 
-1.381940954024e-03 3.158434979709e-03 0.0 
3.158434979709e-03 3.503779185191e-03 0.0 
0.0 0.0 0.0 
-1.076305185570e-03 2.851635936637e-04 0.0 
2.851635936637e-04 1.049068039175e-02 0.0 
0.0 0.0 0.0 
-1.000841949241e-03 -8.034010745103e-04 0.0 
-8.034010745103e-04 2.589987155819e-03 0.0 
0.0 0.0 0.0 
-6.796714754777e-04 1.742583057757e-03 0.0 
1.742583057757e-03 1.084216337111e-02 0.0 
0.0 0.0 0.0 
3.738348615219e-04 -2.551759799553e-04 0.0 
-2.551759799553e-04 1.115955507577e-03 0.0 
0.0 0.0 0.0 
1.168252707562e-03 1.629310447744e-03 0.0 
1.629310447744e-03 3.111962421281e-03 0.0 
0.0 0.0 0.0 
-1.588301135488e-03 4.918337228257e-04 0.0 
4.918337228257e-04 9.484351599457e-03 0.0 
0.0 0.0 0.0 
3.838328019536e-04 2.788900244193e-03 0.0 
2.788900244193e-03 5.161789416078e-03 0.0 
0.0 0.0 0.0 
1.191385130494e-03 2.899915782586e-03 0.0 
2.899915782586e-03 3.938533683302e-03 0.0 
0.0 0.0 0.0 
-1.933268396982e-03 1.151701674033e-03 0.0 
1.151701674033e-03 9.213090784317e-03 0.0 
0.0 0.0 0.0 
7.134412384453e-04 1.855287348206e-05 0.0 
1.855287348206e-05 3.839649343791e-03 0.0 
0.0 0.0 0.0 
-5.412861889387e-04 1.970688044897e-03 0.0 
1.970688044897e-03 1.085947027337e-02 0.0 
0.0 0.0 0.0 
-4.138005938139e-04 1.952949164078e-04 0.0 
1.952949164078e-04 1.161246511049e-02 0.0 
0.0 0.0 0.0 
-1.278007534472e-03 3.272867150391e-03 0.0 
3.272867150391e-03 2.299365871596e-03 0.0 
0.0 0.0 0.0 
-6.526926869351e-04 1.549028602836e-03 0.0 
1.549028602836e-03 1.089488972047e-02 0.0 
0.0 0.0 0.0 
8.082533413445e-06 3.311526071282e-03 0.0 
3.311526071282e-03 7.391762860675e-03 0.0 
0.0 0.0 0.0 
1.404638941316e-03 1.561711956173e-03 0.0 
1.561711956173e-03 3.129750042702e-03 0.0 
0.0 0.0 0.0 
1.201655106812e-03 2.836991095781e-03 0.0 
2.836991095781e-03 3.760188922514e-03 0.0 
0.0 0.0 0.0 
0.0 -5.462212402170e-04 0.0 
-5.462212402170e-04 5.080412366062e-03 0.0 
0.0 0.0 0.0 
-7.118768182511e-04 2.929049243619e-03 0.0 
2.929049243619e-03 7.778990250379e-03 0.0 
0.0 0.0 0.0 
-1.671938075693e-03 2.070122654446e-03 0.0 
2.070122654446e-03 -2.471918785302e-03 0.0 
0.0 0.0 0.0 
6.321074692657e-04 4.098296909371e-03 0.0 
4.098296909371e-03 -3.812459380126e-05 0.0 
0.0 0.0 0.0 
-6.419205182268e-04 2.995906832449e-03 0.0 
2.995906832449e-03 8.492642630004e-03 0.0 
0.0 0.0 0.0 
-1.720280651019e-03 1.044696687847e-03 0.0 
1.044696687847e-03 9.528030760350e-03 0.0 
0.0 0.0 0.0 
-4.234644353255e-04 -3.349956160178e-04 0.0 
-3.349956160178e-04 5.471010788256e-03 0.0 
0.0 0.0 0.0 
9.159191455099e-04 2.864179619126e-03 0.0 
2.864179619126e-03 4.500041552455e-03 0.0 
0.0 0.0 0.0 
7.816042342879e-05 -5.734819163244e-04 0.0 
-5.734819163244e-04 4.826919807955e-03 0.0 
0.0 0.0 0.0 
-9.355260041136e-04 3.368745225637e-04 0.0 
3.368745225637e-04 1.081258278677e-02 0.0 
0.0 0.0 0.0 
3.950055559638e-04 2.586857436798e-03 0.0 
2.586857436798e-03 4.834484456833e-03 0.0 
0.0 0.0 0.0 
6.952600745234e-04 -1.872982745968e-04 0.0 
-1.872982745968e-04 3.442514142176e-03 0.0 
0.0 0.0 0.0 
7.712254704006e-04 -6.079497479073e-05 0.0 
-6.079497479073e-05 3.430871236479e-03 0.0 
0.0 0.0 0.0 
-1.125293216162e-03 -5.641191355203e-04 0.0 
-5.641191355203e-04 2.812371720597e-03 0.0 
0.0 0.0 0.0 
1.484036841948e-05 -6.652355482451e-04 0.0 
-6.652355482451e-04 5.345661296464e-03 0.0 
0.0 0.0 0.0 
-1.840383373361e-03 5.872754190896e-04 0.0 
5.872754190896e-04 9.091808540473e-03 0.0 
0.0 0.0 0.0 
-5.920962640841e-04 4.017914693138e-04 0.0 
4.017914693138e-04 1.135914201509e-02 0.0 
0.0 0.0 0.0 
-4.153073316127e-04 -1.496604007504e-03 0.0 
-1.496604007504e-03 8.733837156776e-04 0.0 
0.0 0.0 0.0 
-7.702722357801e-04 1.845360008235e-04 0.0 
1.845360008235e-04 1.118888802083e-02 0.0 
0.0 0.0 0.0 
-1.187150208519e-03 1.949347129744e-04 0.0 
1.949347129744e-04 1.041877145917e-02 0.0 
0.0 0.0 0.0 
1.356816041955e-03 9.255817743149e-05 0.0 
9.255817743149e-05 2.032683688864e-04 0.0 
0.0 0.0 0.0 
2.956653538092e-03 -1.976171660909e-03 0.0 
-1.976171660909e-03 -4.383185792050e-03 0.0 
0.0 0.0 0.0 
-4.854617100040e-04 3.066067813416e-03 0.0 
3.066067813416e-03 7.468552838774e-03 0.0 
0.0 0.0 0.0 
-3.023395269685e-04 1.071382109159e-03 0.0 
1.071382109159e-03 1.138414519520e-02 0.0 
0.0 0.0 0.0 
-5.511716041714e-04 1.910721689880e-04 0.0 
1.910721689880e-04 1.141195564299e-02 0.0 
0.0 0.0 0.0 
8.530191146174e-04 2.552602319825e-03 0.0 
2.552602319825e-03 4.406385686668e-03 0.0 
0.0 0.0 0.0 
-1.345469821519e-03 2.720400037076e-04 0.0 
2.720400037076e-04 9.787069257350e-03 0.0 
0.0 0.0 0.0 
6.064440052094e-04 -3.908206688933e-04 0.0 
-3.908206688933e-04 1.171828084263e-04 0.0 
0.0 0.0 0.0 
8.612230692437e-04 2.108272814554e-03 0.0 
2.108272814554e-03 -3.990328027117e-03 0.0 
0.0 0.0 0.0 
1.679517013178e-04 -5.411315025838e-04 0.0 
-5.411315025838e-04 2.863146295184e-04 0.0 
0.0 0.0 0.0 
-3.022689798371e-04 -1.637810967277e-03 0.0 
-1.637810967277e-03 8.469344111088e-04 0.0 
0.0 0.0 0.0 
-1.700631370112e-03 4.323463368359e-03 0.0 
4.323463368359e-03 -1.549295166719e-03 0.0 
0.0 0.0 0.0 
-1.312389115777e-03 -8.053521283227e-04 0.0 
-8.053521283227e-04 3.430230385744e-03 0.0 
0.0 0.0 0.0 
-3.939820296500e-04 -3.196432328770e-04 0.0 
-3.196432328770e-04 5.470681074702e-03 0.0 
0.0 0.0 0.0 
-5.844542329548e-04 2.654326415388e-03 0.0 
2.654326415388e-03 9.620290308659e-03 0.0 
0.0 0.0 0.0 
-1.957808104789e-03 1.432650196779e-03 0.0 
1.432650196779e-03 9.262163162617e-03 0.0 
0.0 0.0 0.0 
-1.069842599644e-03 -1.118910586419e-03 0.0 
-1.118910586419e-03 2.785219777492e-03 0.0 
0.0 0.0 0.0 
4.914296665559e-04 -4.995699751954e-04 0.0 
-4.995699751954e-04 3.767737054663e-03 0.0 
0.0 0.0 0.0 
1.377210401953e-03 6.711198030138e-04 0.0 
6.711198030138e-04 2.832230868381e-03 0.0 
0.0 0.0 0.0 
6.190192105564e-04 3.021770289676e-03 0.0 
3.021770289676e-03 5.318841471808e-03 0.0 
0.0 0.0 0.0 
5.966601764684e-05 3.214950597445e-03 0.0 
3.214950597445e-03 6.820429716450e-03 0.0 
0.0 0.0 0.0 
-3.403870000366e-04 3.121010548959e-03 0.0 
3.121010548959e-03 7.750858917764e-03 0.0 
0.0 0.0 0.0 
-4.730916677330e-04 -1.219228237796e-03 0.0 
-1.219228237796e-03 8.138706141394e-04 0.0 
0.0 0.0 0.0 
7.955068660901e-04 -1.777383607009e-03 0.0 
-1.777383607009e-03 -4.015210084354e-03 0.0 
0.0 0.0 0.0 
-3.177929851624e-04 -5.186725872424e-04 0.0 
-5.186725872424e-04 5.251498411541e-03 0.0 
0.0 0.0 0.0 
9.145087183302e-04 -9.171721683847e-05 0.0 
-9.171721683847e-05 3.463648491953e-04 0.0 
0.0 0.0 0.0 
9.524068098952e-04 -7.699284066810e-05 0.0 
-7.699284066810e-05 4.748384652093e-04 0.0 
0.0 0.0 0.0 
-6.993562615358e-04 3.857074482303e-03 0.0 
3.857074482303e-03 -6.005075566289e-04 0.0 
0.0 0.0 0.0 
2.013644252068e-04 -6.554723266103e-04 0.0 
-6.554723266103e-04 6.263065732652e-04 0.0 
0.0 0.0 0.0 
3.485449198282e-04 -4.836592779411e-05 0.0 
-4.836592779411e-05 3.911713855587e-03 0.0 
0.0 0.0 0.0 
-1.695520101408e-04 3.233017144759e-03 0.0 
3.233017144759e-03 8.385025261329e-03 0.0 
0.0 0.0 0.0 
-4.859911487890e-04 7.727599987652e-04 0.0 
7.727599987652e-04 1.134150373741e-02 0.0 
0.0 0.0 0.0 
2.820233451271e-04 2.974507216337e-03 0.0 
2.974507216337e-03 5.564342685126e-03 0.0 
0.0 0.0 0.0 
1.466854699197e-03 6.637547282241e-04 0.0 
6.637547282241e-04 2.393958695867e-03 0.0 
0.0 0.0 0.0 
-1.285526239436e-03 2.698703804706e-04 0.0 
2.698703804706e-04 9.987549745485e-03 0.0 
0.0 0.0 0.0 
0.0 1.428958552554e-03 0.0 
1.428958552554e-03 1.141637352327e-02 0.0 
0.0 0.0 0.0 
2.356604347548e-03 -3.143709384359e-03 0.0 
-3.143709384359e-03 -2.868477676936e-03 0.0 
0.0 0.0 0.0 
-1.591806260004e-03 1.801176079033e-04 0.0 
1.801176079033e-04 8.835198069646e-03 0.0 
0.0 0.0 0.0 
-3.595054630581e-04 -3.357960028945e-03 0.0 
-3.357960028945e-03 -4.699013153486e-05 0.0 
0.0 0.0 0.0 
8.482220807908e-04 -3.345418049909e-04 0.0 
-3.345418049909e-04 3.151924825806e-06 0.0 
0.0 0.0 0.0 
-9.972847327300e-05 -5.869106301229e-04 0.0 
-5.869106301229e-04 5.659420657557e-03 0.0 
0.0 0.0 0.0 
-2.059956696536e-03 1.056451459463e-03 0.0 
1.056451459463e-03 8.883829538254e-03 0.0 
0.0 0.0 0.0 
8.146677393288e-04 -2.845119220010e-04 0.0 
-2.845119220010e-04 6.662678184937e-04 0.0 
0.0 0.0 0.0 
-1.363930632841e-03 -5.821028218823e-04 0.0 
-5.821028218823e-04 3.496699087902e-03 0.0 
0.0 0.0 0.0 
-2.594060991200e-04 3.343474872873e-03 0.0 
3.343474872873e-03 8.573083015422e-03 0.0 
0.0 0.0 0.0 
-6.552795008943e-04 1.015891625249e-03 0.0 
1.015891625249e-03 1.123305708389e-02 0.0 
0.0 0.0 0.0 
-3.252845773581e-04 2.147173027051e-03 0.0 
2.147173027051e-03 1.062987374324e-02 0.0 
0.0 0.0 0.0 
-1.031495237725e-03 -2.757551982634e-04 0.0 
-2.757551982634e-04 2.723265623024e-03 0.0 
0.0 0.0 0.0 
1.064377437874e-03 2.562588293152e-04 0.0 
2.562588293152e-04 -4.532057570108e-03 0.0 
0.0 0.0 0.0 
1.556799418432e-04 -6.301272818712e-04 0.0 
-6.301272818712e-04 4.670518104930e-03 0.0 
0.0 0.0 0.0 
-2.169235307983e-04 1.517203433580e-04 0.0 
1.517203433580e-04 1.181000217381e-02 0.0 
0.0 0.0 0.0 
-2.127269840264e-04 -1.583344632336e-04 0.0 
-1.583344632336e-04 6.018409668549e-03 0.0 
0.0 0.0 0.0 
-1.366981748527e-03 3.395438280921e-05 0.0 
3.395438280921e-05 9.137689398481e-03 0.0 
0.0 0.0 0.0 
9.970725521331e-04 8.097580940973e-04 0.0 
8.097580940973e-04 2.951569550425e-03 0.0 
0.0 0.0 0.0 
3.592263337924e-04 -2.410968935917e-04 0.0 
-2.410968935917e-04 9.144696013283e-04 0.0 
0.0 0.0 0.0 
-5.690843293988e-04 1.743694646925e-03 0.0 
1.743694646925e-03 1.084207286178e-02 0.0 
0.0 0.0 0.0 
6.930713656399e-04 -3.634929622595e-04 0.0 
-3.634929622595e-04 6.600701831139e-05 0.0 
0.0 0.0 0.0 
4.398545478337e-04 4.271831975553e-04 0.0 
4.271831975553e-04 3.714119185913e-03 0.0 
0.0 0.0 0.0 
-5.498486391438e-04 2.337601666818e-03 0.0 
2.337601666818e-03 1.046871834276e-02 0.0 
0.0 0.0 0.0 
4.900637109853e-04 1.262111690665e-03 0.0 
1.262111690665e-03 -4.667670333914e-03 0.0 
0.0 0.0 0.0 
5.564826747053e-04 3.154057615638e-03 0.0 
3.154057615638e-03 5.431492758025e-03 0.0 
0.0 0.0 0.0 
-1.042136488555e-03 2.039993589057e-04 0.0 
2.039993589057e-04 1.066658804328e-02 0.0 
0.0 0.0 0.0 
-2.494449504656e-04 8.029604252848e-04 0.0 
8.029604252848e-04 1.150146965280e-02 0.0 
0.0 0.0 0.0 
0.0 2.241609226509e-03 0.0 
2.241609226509e-03 5.007728199476e-03 0.0 
0.0 0.0 0.0 
-1.180871474197e-03 2.396745279664e-05 0.0 
2.396745279664e-05 1.022494106659e-02 0.0 
0.0 0.0 0.0 
-1.663263289029e-04 3.164298441559e-03 0.0 
3.164298441559e-03 8.780042054111e-03 0.0 
0.0 0.0 0.0 
-7.280086440703e-04 2.075389301390e-03 0.0 
2.075389301390e-03 1.050850610958e-02 0.0 
0.0 0.0 0.0 
-1.067092244212e-03 1.581984113967e-04 0.0 
1.581984113967e-04 1.042502135149e-02 0.0 
0.0 0.0 0.0 
-2.887181324019e-04 3.103370627082e-03 0.0 
3.103370627082e-03 8.412535454544e-03 0.0 
0.0 0.0 0.0 
-1.262293748529e-03 -5.972018139320e-04 0.0 
-5.972018139320e-04 3.055872941968e-03 0.0 
0.0 0.0 0.0 
-1.440906604508e-03 5.624324258993e-05 0.0 
5.624324258993e-05 8.855018209780e-03 0.0 
0.0 0.0 0.0 
6.236444330072e-04 3.014597749184e-03 0.0 
3.014597749184e-03 5.127726329378e-03 0.0 
0.0 0.0 0.0 
-2.744594515119e-04 1.213984901089e-04 0.0 
1.213984901089e-04 1.163662598245e-02 0.0 
0.0 0.0 0.0 
2.124442599173e-03 -2.182470177257e-05 0.0 
-2.182470177257e-05 -8.237873539647e-04 0.0 
0.0 0.0 0.0 
-1.379111594873e-03 2.309323969392e-05 0.0 
2.309323969392e-05 8.843097357565e-03 0.0 
0.0 0.0 0.0 
-2.646233259130e-04 -1.175575931067e-04 0.0 
-1.175575931067e-04 5.855380329993e-03 0.0 
0.0 0.0 0.0 
-1.418350192545e-04 -7.617840201603e-04 0.0 
-7.617840201603e-04 1.288334115853e-03 0.0 
0.0 0.0 0.0 
1.439661181110e-03 1.276011975939e-03 0.0 
1.276011975939e-03 3.049167580824e-03 0.0 
0.0 0.0 0.0 
-7.854107197770e-04 2.396526048429e-03 0.0 
2.396526048429e-03 1.009251525094e-02 0.0 
0.0 0.0 0.0 
-4.663303389341e-04 7.168198572041e-04 0.0 
7.168198572041e-04 1.150060819545e-02 0.0 
0.0 0.0 0.0 
1.499095516870e-04 -5.015988607213e-04 0.0 
-5.015988607213e-04 1.197028067707e-03 0.0 
0.0 0.0 0.0 
5.958361805882e-04 4.502087428264e-03 0.0 
4.502087428264e-03 -2.083726987208e-03 0.0 
0.0 0.0 0.0 
-1.340949676456e-03 -5.690816504424e-05 0.0 
-5.690816504424e-05 4.005203210592e-03 0.0 
0.0 0.0 0.0 
-8.285611156400e-04 1.801555766556e-04 0.0 
1.801555766556e-04 1.098158721629e-02 0.0 
0.0 0.0 0.0 
-5.763266075974e-03 -2.857727472809e-04 0.0 
-2.857727472809e-04 -2.054813307457e-03 0.0 
0.0 0.0 0.0 
-2.993090755052e-04 1.808727620645e-03 0.0 
1.808727620645e-03 1.096571668655e-02 0.0 
0.0 0.0 0.0 
-1.170655532043e-03 1.185376154715e-04 0.0 
1.185376154715e-04 1.012342864715e-02 0.0 
0.0 0.0 0.0 
3.603008606166e-04 -3.247649220904e-03 0.0 
-3.247649220904e-03 -6.956320339405e-04 0.0 
0.0 0.0 0.0 
-1.278064006441e-03 1.712196013726e-04 0.0 
1.712196013726e-04 9.878417555313e-03 0.0 
0.0 0.0 0.0 
4.487707669514e-04 3.194776246971e-03 0.0 
3.194776246971e-03 5.807434195655e-03 0.0 
0.0 0.0 0.0 
-1.311360731172e-03 -1.138369213637e-04 0.0 
-1.138369213637e-04 4.101671266580e-03 0.0 
0.0 0.0 0.0 
-2.350343452651e-03 4.280819547770e-03 0.0 
4.280819547770e-03 3.362417408317e-04 0.0 
0.0 0.0 0.0 
-1.197464360540e-03 -7.622902023265e-04 0.0 
-7.622902023265e-04 2.872939122692e-03 0.0 
0.0 0.0 0.0 
-1.258453231865e-03 -7.557687392795e-04 0.0 
-7.557687392795e-04 3.665446264951e-03 0.0 
0.0 0.0 0.0 
-1.275898348254e-03 -3.705027959206e-05 0.0 
-3.705027959206e-05 4.223901235369e-03 0.0 
0.0 0.0 0.0 
8.827128347035e-04 2.566244351511e-03 0.0 
2.566244351511e-03 4.343693806840e-03 0.0 
0.0 0.0 0.0 
-1.370498808064e-03 -3.784349145800e-04 0.0 
-3.784349145800e-04 3.660675026226e-03 0.0 
0.0 0.0 0.0 
-1.318493093308e-03 -4.861347086053e-04 0.0 
-4.861347086053e-04 3.861571386427e-03 0.0 
0.0 0.0 0.0 
2.678776971066e-04 -6.411912269320e-04 0.0 
-6.411912269320e-04 4.530667694675e-04 0.0 
0.0 0.0 0.0 
1.452986466921e-04 -5.925553214211e-04 0.0 
-5.925553214211e-04 4.535923655953e-03 0.0 
0.0 0.0 0.0 
1.095743972599e-04 3.274821924331e-03 0.0 
3.274821924331e-03 6.491428471065e-03 0.0 
0.0 0.0 0.0 
1.455779405706e-03 3.886518855143e-03 0.0 
3.886518855143e-03 -2.624073597797e-03 0.0 
0.0 0.0 0.0 
-2.244107453359e-04 1.100471638299e-04 0.0 
1.100471638299e-04 1.162912937896e-02 0.0 
0.0 0.0 0.0 
-2.288057009467e-04 -1.004177995159e-04 0.0 
-1.004177995159e-04 5.849496954283e-03 0.0 
0.0 0.0 0.0 
-1.380089704538e-03 2.779968938519e-06 0.0 
2.779968938519e-06 9.154806072166e-03 0.0 
0.0 0.0 0.0 
-1.233000093953e-03 9.911027492614e-05 0.0 
9.911027492614e-05 1.011782988994e-02 0.0 
0.0 0.0 0.0 
-1.365732167119e-03 -5.662561225479e-04 0.0 
-5.662561225479e-04 3.681610749067e-03 0.0 
0.0 0.0 0.0 
-1.333339415047e-03 -5.685398512950e-04 0.0 
-5.685398512950e-04 3.578623465913e-03 0.0 
0.0 0.0 0.0 
-1.372506941394e-03 -3.711174150188e-04 0.0 
-3.711174150188e-04 3.789086024170e-03 0.0 
0.0 0.0 0.0 
1.539062850429e-03 1.397481234017e-03 0.0 
1.397481234017e-03 2.562138424816e-03 0.0 
0.0 0.0 0.0 
6.167073214747e-05 -2.875051013885e-03 0.0 
-2.875051013885e-03 4.365717536690e-04 0.0 
0.0 0.0 0.0 
-8.013940202778e-06 3.357226175253e-03 0.0 
3.357226175253e-03 7.107184649348e-03 0.0 
0.0 0.0 0.0 
-1.321443549561e-03 8.645105029013e-05 0.0 
8.645105029013e-05 9.502435525710e-03 0.0 
0.0 0.0 0.0 
-5.780383362682e-04 1.725036364421e-03 0.0 
1.725036364421e-03 1.102365600892e-02 0.0 
0.0 0.0 0.0 
1.446450178933e-03 1.233191532846e-03 0.0 
1.233191532846e-03 2.542048536320e-03 0.0 
0.0 0.0 0.0 
-1.359551770791e-03 1.800389221400e-04 0.0 
1.800389221400e-04 9.878841413280e-03 0.0 
0.0 0.0 0.0 
-3.889225335175e-04 3.065442517185e-03 0.0 
3.065442517185e-03 8.232906018261e-03 0.0 
0.0 0.0 0.0 
8.197889906869e-04 2.612778947682e-03 0.0 
2.612778947682e-03 4.329159289926e-03 0.0 
0.0 0.0 0.0 
7.122500107224e-04 2.825903893273e-03 0.0 
2.825903893273e-03 4.987113207207e-03 0.0 
0.0 0.0 0.0 
-8.845708516207e-04 4.225722388692e-03 0.0 
4.225722388692e-03 -1.999472436457e-03 0.0 
0.0 0.0 0.0 
-4.634484576581e-04 3.091795374464e-03 0.0 
3.091795374464e-03 8.230211951642e-03 0.0 
0.0 0.0 0.0 
-2.780287067733e-04 3.275394875580e-03 0.0 
3.275394875580e-03 8.079688973623e-03 0.0 
0.0 0.0 0.0 
7.257366407534e-04 -5.263511960333e-04 0.0 
-5.263511960333e-04 3.561425466756e-04 0.0 
0.0 0.0 0.0 
-1.349495162746e-03 -5.870576736729e-04 0.0 
-5.870576736729e-04 3.477152030779e-03 0.0 
0.0 0.0 0.0 
-1.472674120733e-03 3.623087565094e-03 0.0 
3.623087565094e-03 -1.547866520332e-03 0.0 
0.0 0.0 0.0 
-4.708388438718e-04 3.174181744684e-03 0.0 
3.174181744684e-03 8.608432519685e-03 0.0 
0.0 0.0 0.0 
-1.178340162150e-03 -2.107244647601e-05 0.0 
-2.107244647601e-05 6.245832747795e-03 0.0 
0.0 0.0 0.0 
-1.082417764710e-03 -3.103102663430e-05 0.0 
-3.103102663430e-05 6.177121297434e-03 0.0 
0.0 0.0 0.0 
-1.144212679210e-03 -4.210775649834e-05 0.0 
-4.210775649834e-05 6.176274918116e-03 0.0 
0.0 0.0 0.0 
-1.069375419033e-03 -7.146915041735e-05 0.0 
-7.146915041735e-05 6.165773774578e-03 0.0 
0.0 0.0 0.0 
-1.140021160852e-03 -6.407467818857e-05 0.0 
-6.407467818857e-05 6.167038749064e-03 0.0 
0.0 0.0 0.0 
-1.058458006900e-03 -9.732609205371e-05 0.0 
-9.732609205371e-05 6.159763729973e-03 0.0 
0.0 0.0 0.0 
-1.135425006718e-03 -8.589631987359e-05 0.0 
-8.589631987359e-05 6.162333497534e-03 0.0 
0.0 0.0 0.0 
-1.042741862888e-03 -1.215114384107e-04 0.0 
-1.215114384107e-04 6.152191655542e-03 0.0 
0.0 0.0 0.0 
-1.128375378427e-03 -1.064582290597e-04 0.0 
-1.064582290597e-04 6.156475830490e-03 0.0 
0.0 0.0 0.0 
-1.020993873928e-03 -1.447734958048e-04 0.0 
-1.447734958048e-04 6.141915232391e-03 0.0 
0.0 0.0 0.0 
-1.118737759957e-03 -1.253265458125e-04 0.0 
-1.253265458125e-04 6.148651289240e-03 0.0 
0.0 0.0 0.0 
-9.929152948134e-04 -1.669916218742e-04 0.0 
-1.669916218742e-04 6.128858436417e-03 0.0 
0.0 0.0 0.0 
-1.106774594025e-03 -1.424395881247e-04 0.0 
-1.424395881247e-04 6.138967422899e-03 0.0 
0.0 0.0 0.0 
-9.582375559697e-04 -1.878640382103e-04 0.0 
-1.878640382103e-04 6.112651919377e-03 0.0 
0.0 0.0 0.0 
-1.092560105290e-03 -1.569608101567e-04 0.0 
-1.569608101567e-04 6.127463554067e-03 0.0 
0.0 0.0 0.0 
-9.167842847906e-04 -2.063160613545e-04 0.0 
-2.063160613545e-04 6.093138495851e-03 0.0 
0.0 0.0 0.0 
-1.076681591632e-03 -1.679270252988e-04 0.0 
-1.679270252988e-04 6.114281125202e-03 0.0 
0.0 0.0 0.0 
-8.689123317865e-04 -2.213248177326e-04 0.0 
-2.213248177326e-04 6.070606516404e-03 0.0 
0.0 0.0 0.0 
-1.102321342310e-03 1.272198483594e-03 0.0 
1.272198483594e-03 5.476863492661e-03 0.0 
0.0 0.0 0.0 
-1.060292451119e-03 -1.747004261085e-04 0.0 
-1.747004261085e-04 6.099922420103e-03 0.0 
0.0 0.0 0.0 
-8.150844494436e-04 -2.318520840506e-04 0.0 
-2.318520840506e-04 6.044935906171e-03 0.0 
0.0 0.0 0.0 
-1.044364279707e-03 -1.761934386868e-04 0.0 
-1.761934386868e-04 6.084666250486e-03 0.0 
0.0 0.0 0.0 
-5.935991107212e-04 9.359029868127e-04 0.0 
9.359029868127e-04 5.218270917654e-03 0.0 
0.0 0.0 0.0 
-7.553030124362e-04 -2.361943113046e-04 0.0 
-2.361943113046e-04 6.015445033370e-03 0.0 
0.0 0.0 0.0 
-1.261637523876e-03 1.076392876585e-03 0.0 
1.076392876585e-03 5.712498145062e-03 0.0 
0.0 0.0 0.0 
-1.030172184868e-03 -1.706226230349e-04 0.0 
-1.706226230349e-04 6.068362001555e-03 0.0 
0.0 0.0 0.0 
-6.903481368787e-04 -2.318296746354e-04 0.0 
-2.318296746354e-04 5.981290272065e-03 0.0 
0.0 0.0 0.0 
-1.019536775726e-03 -1.548907406834e-04 0.0 
-1.548907406834e-04 6.051069026778e-03 0.0 
0.0 0.0 0.0 
-6.233619502403e-04 -2.145680488122e-04 0.0 
-2.145680488122e-04 5.942376670367e-03 0.0 
0.0 0.0 0.0 
-1.014996995268e-03 -1.248211342529e-04 0.0 
-1.248211342529e-04 6.033281441056e-03 0.0 
0.0 0.0 0.0 
-5.621731031858e-04 -1.784547435394e-04 0.0 
-1.784547435394e-04 5.899916267801e-03 0.0 
0.0 0.0 0.0 
-9.945663637739e-04 -8.258696827639e-05 0.0 
-8.258696827639e-05 6.008416274179e-03 0.0 
0.0 0.0 0.0 
-5.126022065003e-04 -1.197351904296e-04 0.0 
-1.197351904296e-04 5.851876270207e-03 0.0 
0.0 0.0 0.0 
-1.789118418216e-03 1.799188351055e-03 0.0 
1.799188351055e-03 5.890133193036e-03 0.0 
0.0 0.0 0.0 
-9.738363934256e-04 -1.647308527165e-05 0.0 
-1.647308527165e-05 5.979512267677e-03 0.0 
0.0 0.0 0.0 
-4.340765518785e-04 -3.645952548339e-05 0.0 
-3.645952548339e-05 5.790186084191e-03 0.0 
0.0 0.0 0.0 
-9.602826080871e-04 7.169862901727e-05 0.0 
7.169862901727e-05 5.941997475440e-03 0.0 
0.0 0.0 0.0 
-3.598086715880e-04 7.216142151380e-05 0.0 
7.216142151380e-05 5.718952239293e-03 0.0 
0.0 0.0 0.0 
-3.089819252580e-04 2.094804747324e-04 0.0 
2.094804747324e-04 5.637080035554e-03 0.0 
0.0 0.0 0.0 
-9.579148322991e-04 1.801673727809e-04 0.0 
1.801673727809e-04 5.895060108560e-03 0.0 
0.0 0.0 0.0 
-2.954664994650e-04 3.857123018308e-04 0.0 
3.857123018308e-04 5.549368674021e-03 0.0 
0.0 0.0 0.0 
-9.715264732977e-04 3.190909215641e-04 0.0 
3.190909215641e-04 5.840661152239e-03 0.0 
0.0 0.0 0.0 
-3.409195275792e-04 5.959736678418e-04 0.0 
5.959736678418e-04 5.441300693766e-03 0.0 
0.0 0.0 0.0 
-4.946921910026e-04 8.952255003116e-04 0.0 
8.952255003116e-04 5.363781552110e-03 0.0 
0.0 0.0 0.0 
-1.010181348690e-03 4.792707545146e-04 0.0 
4.792707545146e-04 5.765830627059e-03 0.0 
0.0 0.0 0.0 
-1.032771205180e-03 7.171196738063e-04 0.0 
7.171196738063e-04 5.696102524270e-03 0.0 
0.0 0.0 0.0 
-1.598659335039e-03 1.111760629845e-03 0.0 
1.111760629845e-03 6.033375792244e-03 0.0 
0.0 0.0 0.0 
-1.155468146478e-03 -5.921249543075e-05 0.0 
-5.921249543075e-05 6.180522454488e-03 0.0 
0.0 0.0 0.0 
-1.193410680115e-03 4.538966196398e-05 0.0 
4.538966196398e-05 6.248729526856e-03 0.0 
0.0 0.0 0.0 
-1.161026135541e-03 -1.304449563640e-05 0.0 
-1.304449563640e-05 6.095512723251e-03 0.0 
0.0 0.0 0.0 
-1.188572347599e-03 1.239855551312e-06 0.0 
1.239855551312e-06 6.330479326101e-03 0.0 
0.0 0.0 0.0 
-1.983036619395e-03 1.835257208330e-03 0.0 
1.835257208330e-03 5.405973534848e-03 0.0 
0.0 0.0 0.0 
-1.178340162150e-03 -3.323367624210e-05 0.0 
-3.323367624210e-05 6.604287907867e-03 0.0 
0.0 0.0 0.0 
-1.230576386292e-03 -3.601944625527e-05 0.0 
-3.601944625527e-05 6.646751297720e-03 0.0 
0.0 0.0 0.0 
-1.144212679210e-03 -3.390970322042e-05 0.0 
-3.390970322042e-05 6.646404583378e-03 0.0 
0.0 0.0 0.0 
-1.228462526598e-03 -7.328164251269e-05 0.0 
-7.328164251269e-05 6.646415252558e-03 0.0 
0.0 0.0 0.0 
-1.140021160852e-03 -6.085627840795e-05 0.0 
-6.085627840795e-05 6.644418384514e-03 0.0 
0.0 0.0 0.0 
-1.228495583415e-03 -1.017166698578e-04 0.0 
-1.017166698578e-04 6.643560316861e-03 0.0 
0.0 0.0 0.0 
-1.135425006718e-03 -8.653321997440e-05 0.0 
-8.653321997440e-05 6.640215969612e-03 0.0 
0.0 0.0 0.0 
-1.231517126807e-03 -1.289934897310e-04 0.0 
-1.289934897310e-04 6.640863756171e-03 0.0 
0.0 0.0 0.0 
-1.128375378427e-03 -1.095658812337e-04 0.0 
-1.095658812337e-04 6.635421769588e-03 0.0 
0.0 0.0 0.0 
-1.236623304168e-03 -1.551230659599e-04 0.0 
-1.551230659599e-04 6.638042866662e-03 0.0 
0.0 0.0 0.0 
-1.118737759957e-03 -1.301244892765e-04 0.0 
-1.301244892765e-04 6.629515884665e-03 0.0 
0.0 0.0 0.0 
-1.242842359552e-03 -1.794857286002e-04 0.0 
-1.794857286002e-04 6.635023904188e-03 0.0 
0.0 0.0 0.0 
-1.106774594025e-03 -1.481990805851e-04 0.0 
-1.481990805851e-04 6.622350973275e-03 0.0 
0.0 0.0 0.0 
-1.249896249028e-03 -2.019400652264e-04 0.0 
-2.019400652264e-04 6.631230551511e-03 0.0 
0.0 0.0 0.0 
-1.092560105290e-03 -1.624846960865e-04 0.0 
-1.624846960865e-04 6.612748195720e-03 0.0 
0.0 0.0 0.0 
-1.258343956451e-03 -2.203881941937e-04 0.0 
-2.203881941937e-04 6.626857167705e-03 0.0 
0.0 0.0 0.0 
-1.076681591632e-03 -1.715615922732e-04 0.0 
-1.715615922732e-04 6.600797111989e-03 0.0 
0.0 0.0 0.0 
-1.288516414843e-03 1.350596805020e-03 0.0 
1.350596805020e-03 5.896644821100e-03 0.0 
0.0 0.0 0.0 
-1.269223415955e-03 -2.329610715704e-04 0.0 
-2.329610715704e-04 6.622620896932e-03 0.0 
0.0 0.0 0.0 
-1.060292451119e-03 -1.742841319525e-04 0.0 
-1.742841319525e-04 6.587235319963e-03 0.0 
0.0 0.0 0.0 
-1.466388707183e-03 1.075531004682e-03 0.0 
1.075531004682e-03 6.184862593867e-03 0.0 
0.0 0.0 0.0 
-1.283629099170e-03 -2.386727115528e-04 0.0 
-2.386727115528e-04 6.618547308438e-03 0.0 
0.0 0.0 0.0 
-1.044364279707e-03 -1.686503782728e-04 0.0 
-1.686503782728e-04 6.571376399006e-03 0.0 
0.0 0.0 0.0 
-1.302828381352e-03 -2.351639176343e-04 0.0 
-2.351639176343e-04 6.614254541942e-03 0.0 
0.0 0.0 0.0 
-1.030172184868e-03 -1.514832654193e-04 0.0 
-1.514832654193e-04 6.552040018191e-03 0.0 
0.0 0.0 0.0 
-1.328416840783e-03 -2.187790858159e-04 0.0 
-2.187790858159e-04 6.608976842219e-03 0.0 
0.0 0.0 0.0 
-1.032771205180e-03 1.214464827958e-03 0.0 
1.214464827958e-03 5.698458562156e-03 0.0 
0.0 0.0 0.0 
-1.019536775726e-03 -1.179673461384e-04 0.0 
-1.179673461384e-04 6.527326761138e-03 0.0 
0.0 0.0 0.0 
-1.361712178047e-03 -1.833098492260e-04 0.0 
-1.833098492260e-04 6.602005061215e-03 0.0 
0.0 0.0 0.0 
-1.014996995268e-03 -6.227970044215e-05 0.0 
-6.227970044215e-05 6.496219140905e-03 0.0 
0.0 0.0 0.0 
-1.372436574941e-03 -1.190159009237e-04 0.0 
-1.190159009237e-04 6.582082936915e-03 0.0 
0.0 0.0 0.0 
-9.945663637739e-04 2.098445929250e-05 0.0 
2.098445929250e-05 6.450598393182e-03 0.0 
0.0 0.0 0.0 
-1.379921179901e-03 -2.835099768192e-05 0.0 
-2.835099768192e-05 6.550151074336e-03 0.0 
0.0 0.0 0.0 
-9.738363934256e-04 1.281925883980e-04 0.0 
1.281925883980e-04 6.392121838045e-03 0.0 
0.0 0.0 0.0 
-1.390985632341e-03 9.222723937117e-05 0.0 
9.222723937117e-05 6.512569361092e-03 0.0 
0.0 0.0 0.0 
-9.602826080871e-04 2.726605963739e-04 0.0 
2.726605963739e-04 6.320380824077e-03 0.0 
0.0 0.0 0.0 
-1.404814126579e-03 2.546577435446e-04 0.0 
2.546577435446e-04 6.463167856987e-03 0.0 
0.0 0.0 0.0 
-1.543483184141e-03 1.585783022492e-03 0.0 
1.585783022492e-03 6.079043329244e-03 0.0 
0.0 0.0 0.0 
-1.419610558377e-03 4.522549077918e-04 0.0 
4.522549077918e-04 6.387579364832e-03 0.0 
0.0 0.0 0.0 
-9.579148322991e-04 4.581740281764e-04 0.0 
4.581740281764e-04 6.235465428497e-03 0.0 
0.0 0.0 0.0 
-1.392213787504e-03 7.275217150226e-04 0.0 
7.275217150226e-04 6.279147867453e-03 0.0 
0.0 0.0 0.0 
-9.715264732977e-04 6.963383669835e-04 0.0 
6.963383669835e-04 6.109499855677e-03 0.0 
0.0 0.0 0.0 
-1.010181348690e-03 1.001010997309e-03 0.0 
1.001010997309e-03 5.969113247922e-03 0.0 
0.0 0.0 0.0 
-1.446216013701e-03 1.267101348774e-03 0.0 
1.267101348774e-03 6.041639056451e-03 0.0 
0.0 0.0 0.0 
-1.234551855633e-03 -6.331987687383e-05 0.0 
-6.331987687383e-05 6.672546889690e-03 0.0 
0.0 0.0 0.0 
-1.195016188048e-03 3.611724961177e-05 0.0 
3.611724961177e-05 6.601280531142e-03 0.0 
0.0 0.0 0.0 
-1.239996141561e-03 -1.990038744430e-05 0.0 
-1.990038744430e-05 6.762708215418e-03 0.0 
0.0 0.0 0.0 
-1.188572347599e-03 -5.057848917707e-06 0.0 
-5.057848917707e-06 6.514553836992e-03 0.0 
0.0 0.0 0.0 
-1.261637523876e-03 1.691523783540e-03 0.0 
1.691523783540e-03 5.615654529995e-03 0.0 
0.0 0.0 0.0 
-1.290058941479e-03 -3.250266915293e-05 0.0 
-3.250266915293e-05 7.163952407443e-03 0.0 
0.0 0.0 0.0 
-1.230576386292e-03 -3.782339924023e-05 0.0 
-3.782339924023e-05 7.120378788551e-03 0.0 
0.0 0.0 0.0 
-1.295859198185e-03 -3.790663443613e-05 0.0 
-3.790663443613e-05 7.120533672061e-03 0.0 
0.0 0.0 0.0 
-1.228462526598e-03 -6.663350844940e-05 0.0 
-6.663350844940e-05 7.116012111857e-03 0.0 
0.0 0.0 0.0 
-1.303387300799e-03 -5.634551124007e-05 0.0 
-5.634551124007e-05 7.117976763292e-03 0.0 
0.0 0.0 0.0 
-1.228495583415e-03 -8.830503281451e-05 0.0 
-8.830503281451e-05 7.114841611041e-03 0.0 
0.0 0.0 0.0 
-1.315478472686e-03 -7.513052665175e-05 0.0 
-7.513052665175e-05 7.118346341163e-03 0.0 
0.0 0.0 0.0 
-1.231517126807e-03 -1.097938769470e-04 0.0 
-1.097938769470e-04 7.114724298736e-03 0.0 
0.0 0.0 0.0 
-1.333243956170e-03 -9.300832541256e-05 0.0 
-9.300832541256e-05 7.120510168324e-03 0.0 
0.0 0.0 0.0 
-1.236623304168e-03 -1.306753117687e-04 0.0 
-1.306753117687e-04 7.114735624051e-03 0.0 
0.0 0.0 0.0 
-1.355371380990e-03 -1.098676497657e-04 0.0 
-1.098676497657e-04 7.123649754373e-03 0.0 
0.0 0.0 0.0 
-1.242842359552e-03 -1.500645553238e-04 0.0 
-1.500645553238e-04 7.113384583317e-03 0.0 
0.0 0.0 0.0 
-1.377349909680e-03 -1.248113986769e-04 0.0 
-1.248113986769e-04 7.126342481855e-03 0.0 
0.0 0.0 0.0 
-1.249896249028e-03 -1.658013184897e-04 0.0 
-1.658013184897e-04 7.110356010725e-03 0.0 
0.0 0.0 0.0 
-1.404834386794e-03 -1.349718541767e-04 0.0 
-1.349718541767e-04 7.128885321945e-03 0.0 
0.0 0.0 0.0 
-1.258343956451e-03 -1.761529590460e-04 0.0 
-1.761529590460e-04 7.104730219750e-03 0.0 
0.0 0.0 0.0 
-1.561831219564e-03 1.197520792620e-03 0.0 
1.197520792620e-03 6.469448371342e-03 0.0 
0.0 0.0 0.0 
-1.436382933695e-03 -1.379853339226e-04 0.0 
-1.379853339226e-04 7.130918874256e-03 0.0 
0.0 0.0 0.0 
-1.269223415955e-03 -1.783262692203e-04 0.0 
-1.783262692203e-04 7.097403048449e-03 0.0 
0.0 0.0 0.0 
-1.392213787504e-03 1.110386526699e-03 0.0 
1.110386526699e-03 6.301585357373e-03 0.0 
0.0 0.0 0.0 
-1.471407751309e-03 -1.325323329187e-04 0.0 
-1.325323329187e-04 7.132936537529e-03 0.0 
0.0 0.0 0.0 
-1.283629099170e-03 -1.697057958887e-04 0.0 
-1.697057958887e-04 7.088136904773e-03 0.0 
0.0 0.0 0.0 
-1.724667171099e-03 9.735705185444e-04 0.0 
9.735705185444e-04 6.734107633304e-03 0.0 
0.0 0.0 0.0 
-1.512944116651e-03 -1.165062496947e-04 0.0 
-1.165062496947e-04 7.134738603340e-03 0.0 
0.0 0.0 0.0 
-1.302828381352e-03 -1.471412321609e-04 0.0 
-1.471412321609e-04 7.074670868459e-03 0.0 
0.0 0.0 0.0 
-1.560943893048e-03 -8.609569026317e-05 0.0 
-8.609569026317e-05 7.134528589612e-03 0.0 
0.0 0.0 0.0 
-1.328416840783e-03 -1.054086941573e-04 0.0 
-1.054086941573e-04 7.054656006642e-03 0.0 
0.0 0.0 0.0 
-1.615593592721e-03 -3.687714061748e-05 0.0 
-3.687714061748e-05 7.129534560828e-03 0.0 
0.0 0.0 0.0 
-1.361712178047e-03 -3.645351213147e-05 0.0 
-3.645351213147e-05 7.021718946056e-03 0.0 
0.0 0.0 0.0 
-1.728307280470e-03 1.381055693649e-03 0.0 
1.381055693649e-03 6.605754556451e-03 0.0 
0.0 0.0 0.0 
-1.656594538666e-03 3.901661573241e-05 0.0 
3.901661573241e-05 7.110671124699e-03 0.0 
0.0 0.0 0.0 
-1.372436574941e-03 6.063926297277e-05 0.0 
6.063926297277e-05 6.972643611027e-03 0.0 
0.0 0.0 0.0 
-1.677695911494e-03 1.400219171091e-04 0.0 
1.400219171091e-04 7.075107695800e-03 0.0 
0.0 0.0 0.0 
-1.379921179901e-03 1.920040738652e-04 0.0 
1.920040738652e-04 6.905530204279e-03 0.0 
0.0 0.0 0.0 
-1.390985632341e-03 3.632490231055e-04 0.0 
3.632490231055e-04 6.825252860491e-03 0.0 
0.0 0.0 0.0 
-1.697111854550e-03 2.777050083145e-04 0.0 
2.777050083145e-04 7.024841459754e-03 0.0 
0.0 0.0 0.0 
-1.404814126579e-03 5.869521385420e-04 0.0 
5.869521385420e-04 6.703696093804e-03 0.0 
0.0 0.0 0.0 
-1.713875589936e-03 4.451391535774e-04 0.0 
4.451391535774e-04 6.953181469961e-03 0.0 
0.0 0.0 0.0 
-1.419610558377e-03 8.753715580475e-04 0.0 
8.753715580475e-04 6.571990222597e-03 0.0 
0.0 0.0 0.0 
-1.683780865607e-03 6.830832644809e-04 0.0 
6.830832644809e-04 6.846704871788e-03 0.0 
0.0 0.0 0.0 
-1.668136304434e-03 1.171384353991e-03 0.0 
1.171384353991e-03 6.544244657204e-03 0.0 
0.0 0.0 0.0 
-1.243251300550e-03 -6.247426528710e-05 0.0 
-6.247426528710e-05 7.093522700020e-03 0.0 
0.0 0.0 0.0 
-1.284281586830e-03 3.757292044603e-05 0.0 
3.757292044603e-05 7.167452576074e-03 0.0 
0.0 0.0 0.0 
-1.239996141561e-03 -1.882431150869e-05 0.0 
-1.882431150869e-05 7.005310854638e-03 0.0 
0.0 0.0 0.0 
-1.288672270056e-03 -3.495426225751e-06 0.0 
-3.495426225751e-06 7.251709745326e-03 0.0 
0.0 0.0 0.0 
-1.466388707183e-03 1.512553055317e-03 0.0 
1.512553055317e-03 6.152639056560e-03 0.0 
0.0 0.0 0.0 
-1.290058941479e-03 -3.138152932067e-05 0.0 
-3.138152932067e-05 7.526804629350e-03 0.0 
0.0 0.0 0.0 
-1.340269063161e-03 -2.863645048658e-05 0.0 
-2.863645048658e-05 7.577334913953e-03 0.0 
0.0 0.0 0.0 
-1.295859198185e-03 -3.185926501692e-05 0.0 
-3.185926501692e-05 7.577546170743e-03 0.0 
0.0 0.0 0.0 
-1.349632169866e-03 -5.363869154607e-05 0.0 
-5.363869154607e-05 7.583263730560e-03 0.0 
0.0 0.0 0.0 
-1.303387300799e-03 -4.292168417258e-05 0.0 
-4.292168417258e-05 7.581396052065e-03 0.0 
0.0 0.0 0.0 
-1.364818546527e-03 -6.756859642445e-05 0.0 
-6.756859642445e-05 7.586790919052e-03 0.0 
0.0 0.0 0.0 
-1.315478472686e-03 -5.376734656840e-05 0.0 
-5.376734656840e-05 7.583537268343e-03 0.0 
0.0 0.0 0.0 
-1.384984022885e-03 -7.964017239715e-05 0.0 
-7.964017239715e-05 7.591475010014e-03 0.0 
0.0 0.0 0.0 
-1.333243956170e-03 -6.219656205491e-05 0.0 
-6.219656205491e-05 7.586305668886e-03 0.0 
0.0 0.0 0.0 
-1.413092931990e-03 -8.914755506751e-05 0.0 
-8.914755506751e-05 7.598179865796e-03 0.0 
0.0 0.0 0.0 
-1.355371380990e-03 -6.735093459619e-05 0.0 
-6.735093459619e-05 7.590342144757e-03 0.0 
0.0 0.0 0.0 
-1.446533644762e-03 -9.609549756323e-05 0.0 
-9.609549756323e-05 7.604960931642e-03 0.0 
0.0 0.0 0.0 
-1.377349909680e-03 -6.776506215531e-05 0.0 
-6.776506215531e-05 7.592926527363e-03 0.0 
0.0 0.0 0.0 
-1.489099913676e-03 -1.001035249084e-04 0.0 
-1.001035249084e-04 7.612704989517e-03 0.0 
0.0 0.0 0.0 
-1.404834386794e-03 -6.457679390722e-05 0.0 
-6.457679390722e-05 7.595123676042e-03 0.0 
0.0 0.0 0.0 
-1.822593070779e-03 1.049842476844e-03 0.0 
1.049842476844e-03 7.076701390092e-03 0.0 
0.0 0.0 0.0 
-1.539763032639e-03 -1.009294537507e-04 0.0 
-1.009294537507e-04 7.619818571197e-03 0.0 
0.0 0.0 0.0 
-1.926841433352e-03 8.435663162146e-04 0.0 
8.435663162146e-04 7.283460228067e-03 0.0 
0.0 0.0 0.0 
-1.436382933695e-03 -5.471095835531e-05 0.0 
-5.471095835531e-05 7.593786630762e-03 0.0 
0.0 0.0 0.0 
-1.588373387330e-03 -9.168025697328e-05 0.0 
-9.168025697328e-05 7.623827313007e-03 0.0 
0.0 0.0 0.0 
-1.471407751309e-03 -3.291722089945e-05 0.0 
-3.291722089945e-05 7.587135442721e-03 0.0 
0.0 0.0 0.0 
-1.641568710457e-03 -6.754702159023e-05 0.0 
-6.754702159023e-05 7.626363085874e-03 0.0 
0.0 0.0 0.0 
-1.512944116651e-03 3.340209286429e-06 0.0 
3.340209286429e-06 7.577647873988e-03 0.0 
0.0 0.0 0.0 
-1.701401495011e-03 -2.875550435072e-05 0.0 
-2.875550435072e-05 7.625057990296e-03 0.0 
0.0 0.0 0.0 
-1.683780865607e-03 9.984926121669e-04 0.0 
9.984926121669e-04 6.902349348145e-03 0.0 
0.0 0.0 0.0 
-1.560943893048e-03 5.897988010512e-05 0.0 
5.897988010512e-05 7.559775575450e-03 0.0 
0.0 0.0 0.0 
-1.767137882167e-03 3.157824069318e-05 0.0 
3.157824069318e-05 7.616730498540e-03 0.0 
0.0 0.0 0.0 
-1.615593592721e-03 1.391261137162e-04 0.0 
1.391261137162e-04 7.530817515508e-03 0.0 
0.0 0.0 0.0 
-1.835438268679e-03 1.151097790102e-04 0.0 
1.151097790102e-04 7.592480655986e-03 0.0 
0.0 0.0 0.0 
-1.656594538666e-03 2.463885705050e-04 0.0 
2.463885705050e-04 7.478677145020e-03 0.0 
0.0 0.0 0.0 
-1.878436640094e-03 2.341246117733e-04 0.0 
2.341246117733e-04 7.550004267481e-03 0.0 
0.0 0.0 0.0 
-1.677695911494e-03 3.864648178425e-04 0.0 
3.864648178425e-04 7.407519947979e-03 0.0 
0.0 0.0 0.0 
-1.899548797891e-03 3.805875955645e-04 0.0 
3.805875955645e-04 7.480334320353e-03 0.0 
0.0 0.0 0.0 
-1.887308825875e-03 5.915384972309e-04 0.0 
5.915384972309e-04 7.384310974050e-03 0.0 
0.0 0.0 0.0 
-1.697111854550e-03 5.698752088703e-04 0.0 
5.698752088703e-04 7.296514318786e-03 0.0 
0.0 0.0 0.0 
-1.929750920599e-03 1.182274962713e-03 0.0 
1.182274962713e-03 7.175700255342e-03 0.0 
0.0 0.0 0.0 
-1.713875589936e-03 8.023985671170e-04 0.0 
8.023985671170e-04 7.173753536418e-03 0.0 
0.0 0.0 0.0 
-1.878411654068e-03 1.022848908208e-03 0.0 
1.022848908208e-03 7.066038196521e-03 0.0 
0.0 0.0 0.0 
-1.331094584165e-03 -6.047070722734e-05 0.0 
-6.047070722734e-05 7.590428524795e-03 0.0 
0.0 0.0 0.0 
-1.293813696201e-03 4.011821465896e-05 0.0 
4.011821465896e-05 7.523231988873e-03 0.0 
0.0 0.0 0.0 
-1.335175452457e-03 -1.582393880482e-05 0.0 
-1.582393880482e-05 7.681369098639e-03 0.0 
0.0 0.0 0.0 
-1.288672270056e-03 -2.033581719567e-06 0.0 
-2.033581719567e-06 7.436148417705e-03 0.0 
0.0 0.0 0.0 
-1.724667171099e-03 1.318288798649e-03 0.0 
1.318288798649e-03 6.769009037347e-03 0.0 
0.0 0.0 0.0 
-1.376442943560e-03 -2.092377397557e-05 0.0 
-2.092377397557e-05 8.072183583564e-03 0.0 
0.0 0.0 0.0 
-1.340269063161e-03 -1.569222541067e-05 0.0 
-1.569222541067e-05 8.030292663832e-03 0.0 
0.0 0.0 0.0 
-1.384273207847e-03 -1.639570003288e-05 0.0 
-1.639570003288e-05 8.030362165588e-03 0.0 
0.0 0.0 0.0 
-1.349632169866e-03 -3.180069789568e-05 0.0 
-3.180069789568e-05 8.029656021984e-03 0.0 
0.0 0.0 0.0 
-1.404282259869e-03 -1.806153712211e-05 0.0 
-1.806153712211e-05 8.032506056244e-03 0.0 
0.0 0.0 0.0 
-1.364818546527e-03 -3.617385475716e-05 0.0 
-3.617385475716e-05 8.033744625418e-03 0.0 
0.0 0.0 0.0 
-1.430364203240e-03 -2.068583763327e-05 0.0 
-2.068583763327e-05 8.038296071059e-03 0.0 
0.0 0.0 0.0 
-1.384984022885e-03 -3.857868790096e-05 0.0 
-3.857868790096e-05 8.035804694799e-03 0.0 
0.0 0.0 0.0 
-1.459794289942e-03 -1.696039533216e-05 0.0 
-1.696039533216e-05 8.043780885234e-03 0.0 
0.0 0.0 0.0 
-1.413092931990e-03 -3.564722752840e-05 0.0 
-3.564722752840e-05 8.042886303799e-03 0.0 
0.0 0.0 0.0 
-1.501004578671e-03 -1.330214371495e-05 0.0 
-1.330214371495e-05 8.053510536901e-03 0.0 
0.0 0.0 0.0 
-1.446533644762e-03 -3.004669482753e-05 0.0 
-3.004669482753e-05 8.045754209058e-03 0.0 
0.0 0.0 0.0 
-1.545794557502e-03 9.846666591210e-08 0.0 
9.846666591210e-08 8.062374348832e-03 0.0 
0.0 0.0 0.0 
-1.999904024012e-03 9.137309660810e-04 0.0 
9.137309660810e-04 7.666931358470e-03 0.0 
0.0 0.0 0.0 
-1.489099913676e-03 -1.519654270300e-05 0.0 
-1.519654270300e-05 8.052613100844e-03 0.0 
0.0 0.0 0.0 
-1.603573492605e-03 1.653283233423e-05 0.0 
1.653283233423e-05 8.073882209018e-03 0.0 
0.0 0.0 0.0 
-1.887308825875e-03 8.737332604669e-04 0.0 
8.737332604669e-04 7.497211562667e-03 0.0 
0.0 0.0 0.0 
-1.539763032639e-03 7.761723610148e-06 0.0 
7.761723610148e-06 8.052281298411e-03 0.0 
0.0 0.0 0.0 
-1.664442798170e-03 4.574476802790e-05 0.0 
4.574476802790e-05 8.081126180906e-03 0.0 
0.0 0.0 0.0 
-2.053490930078e-03 7.684650045248e-04 0.0 
7.684650045248e-04 7.825594046543e-03 0.0 
0.0 0.0 0.0 
-1.588373387330e-03 4.228784060860e-05 0.0 
4.228784060860e-05 8.048103451570e-03 0.0 
0.0 0.0 0.0 
-1.737336900721e-03 8.461046979048e-05 0.0 
8.461046979048e-05 8.085885232844e-03 0.0 
0.0 0.0 0.0 
-1.641568710457e-03 8.842654716124e-05 0.0 
8.842654716124e-05 8.036897587794e-03 0.0 
0.0 0.0 0.0 
-1.798916319647e-03 1.332435037265e-04 0.0 
1.332435037265e-04 8.082366570662e-03 0.0 
0.0 0.0 0.0 
-1.701401495011e-03 1.538618249056e-04 0.0 
1.538618249056e-04 8.014856031192e-03 0.0 
0.0 0.0 0.0 
-2.084966669909e-03 1.032804700061e-03 0.0 
1.032804700061e-03 7.752958665578e-03 0.0 
0.0 0.0 0.0 
-1.868245378879e-03 2.030814144033e-04 0.0 
2.030814144033e-04 8.070382591988e-03 0.0 
0.0 0.0 0.0 
-1.767137882167e-03 2.441872692628e-04 0.0 
2.441872692628e-04 7.981033485752e-03 0.0 
0.0 0.0 0.0 
-1.835438268679e-03 3.617676240121e-04 0.0 
3.617676240121e-04 7.931488272496e-03 0.0 
0.0 0.0 0.0 
-1.936344547325e-03 2.951683748878e-04 0.0 
2.951683748878e-04 8.044755997657e-03 0.0 
0.0 0.0 0.0 
-1.878436640094e-03 5.126469771415e-04 0.0 
5.126469771415e-04 7.838114751584e-03 0.0 
0.0 0.0 0.0 
-2.001879684276e-03 4.058570872896e-04 0.0 
4.058570872896e-04 7.996017413051e-03 0.0 
0.0 0.0 0.0 
-1.899548797891e-03 7.091844906985e-04 0.0 
7.091844906985e-04 7.735709630560e-03 0.0 
0.0 0.0 0.0 
-2.001472821565e-03 5.694748913791e-04 0.0 
5.694748913791e-04 7.912204382503e-03 0.0 
0.0 0.0 0.0 
-2.046380225718e-03 9.042073779235e-04 0.0 
9.042073779235e-04 7.630140172110e-03 0.0 
0.0 0.0 0.0 
-1.331122960380e-03 -5.731076239397e-05 0.0 
-5.731076239397e-05 8.002382429096e-03 0.0 
0.0 0.0 0.0 
-1.372128679833e-03 4.591527371616e-05 0.0 
4.591527371616e-05 8.076111560187e-03 0.0 
0.0 0.0 0.0 
-1.335175452457e-03 -1.186786494540e-05 0.0 
-1.186786494540e-05 7.917987361618e-03 0.0 
0.0 0.0 0.0 
-1.369195982524e-03 3.343175236298e-06 0.0 
3.343175236298e-06 8.155988793423e-03 0.0 
0.0 0.0 0.0 
-1.926841433352e-03 1.132247319176e-03 0.0 
1.132247319176e-03 7.372215532766e-03 0.0 
0.0 0.0 0.0 
-1.376442943560e-03 -1.371521181693e-05 0.0 
-1.371521181693e-05 8.433691539717e-03 0.0 
0.0 0.0 0.0 
-1.382873542248e-03 -3.121864879435e-07 0.0 
-3.121864879435e-07 8.464617072739e-03 0.0 
0.0 0.0 0.0 
-1.384273207847e-03 6.145106762383e-06 0.0 
6.145106762383e-06 8.463862234315e-03 0.0 
0.0 0.0 0.0 
-1.404722581173e-03 2.004815226882e-06 0.0 
2.004815226882e-06 8.473312159239e-03 0.0 
0.0 0.0 0.0 
-1.404282259869e-03 1.334060658906e-05 0.0 
1.334060658906e-05 8.471308297363e-03 0.0 
0.0 0.0 0.0 
-1.429560793499e-03 7.648356720428e-06 0.0 
7.648356720428e-06 8.480943669801e-03 0.0 
0.0 0.0 0.0 
-1.430364203240e-03 2.087735985769e-05 0.0 
2.087735985769e-05 8.477842083041e-03 0.0 
0.0 0.0 0.0 
-1.460389525365e-03 1.188835340644e-05 0.0 
1.188835340644e-05 8.484351577149e-03 0.0 
0.0 0.0 0.0 
-1.459794289942e-03 3.660818519766e-05 0.0 
3.660818519766e-05 8.477068165653e-03 0.0 
0.0 0.0 0.0 
-1.493078366485e-03 3.289515005209e-05 0.0 
3.289515005209e-05 8.493525862106e-03 0.0 
0.0 0.0 0.0 
-1.501004578671e-03 5.424748140716e-05 0.0 
5.424748140716e-05 8.486236582220e-03 0.0 
0.0 0.0 0.0 
-1.543273372591e-03 4.597869048082e-05 0.0 
4.597869048082e-05 8.499759463393e-03 0.0 
0.0 0.0 0.0 
-2.100714578462e-03 8.447866539769e-04 0.0 
8.447866539769e-04 8.222084309989e-03 0.0 
0.0 0.0 0.0 
-1.545794557502e-03 8.297062800604e-05 0.0 
8.297062800604e-05 8.484634355963e-03 0.0 
0.0 0.0 0.0 
-2.077864729411e-03 7.117527378547e-04 0.0 
7.117527378547e-04 8.335019758429e-03 0.0 
0.0 0.0 0.0 
-1.591806260004e-03 8.109956133441e-05 0.0 
8.109956133441e-05 8.508679221904e-03 0.0 
0.0 0.0 0.0 
-1.603573492605e-03 1.183415078807e-04 0.0 
1.183415078807e-04 8.491805073097e-03 0.0 
0.0 0.0 0.0 
-1.659584014159e-03 1.118059902518e-04 0.0 
1.118059902518e-04 8.512476522938e-03 0.0 
0.0 0.0 0.0 
-1.664442798170e-03 1.675658760076e-04 0.0 
1.675658760076e-04 8.483297034567e-03 0.0 
0.0 0.0 0.0 
-1.731262614969e-03 1.664762459318e-04 0.0 
1.664762459318e-04 8.515053036477e-03 0.0 
0.0 0.0 0.0 
-1.737336900721e-03 2.324958167070e-04 0.0 
2.324958167070e-04 8.476743452108e-03 0.0 
0.0 0.0 0.0 
-1.801794520176e-03 2.343193430325e-04 0.0 
2.343193430325e-04 8.508707185567e-03 0.0 
0.0 0.0 0.0 
-2.001472821565e-03 8.253551146357e-04 0.0 
8.253551146357e-04 8.047808843235e-03 0.0 
0.0 0.0 0.0 
-1.798916319647e-03 3.167068892220e-04 0.0 
3.167068892220e-04 8.455096331943e-03 0.0 
0.0 0.0 0.0 
-1.883658929506e-03 3.183970211319e-04 0.0 
3.183970211319e-04 8.492764031356e-03 0.0 
0.0 0.0 0.0 
-1.868245378879e-03 4.173999870089e-04 0.0 
4.173999870089e-04 8.420959557809e-03 0.0 
0.0 0.0 0.0 
-1.954001315532e-03 4.213776233192e-04 0.0 
4.213776233192e-04 8.458587959821e-03 0.0 
0.0 0.0 0.0 
-2.014035831687e-03 5.557110473134e-04 0.0 
5.557110473134e-04 8.404448787015e-03 0.0 
0.0 0.0 0.0 
-1.936344547325e-03 5.432006448640e-04 0.0 
5.432006448640e-04 8.362847869122e-03 0.0 
0.0 0.0 0.0 
-2.001879684276e-03 6.924819107951e-04 0.0 
6.924819107951e-04 8.289752881387e-03 0.0 
0.0 0.0 0.0 
-2.161718467178e-03 9.395253045362e-04 0.0 
9.395253045362e-04 8.291410760881e-03 0.0 
0.0 0.0 0.0 
-2.125555759079e-03 8.345236798712e-04 0.0 
8.345236798712e-04 8.144322406106e-03 0.0 
0.0 0.0 0.0 
-1.390509305810e-03 -4.670225680753e-05 0.0 
-4.670225680753e-05 8.468874615159e-03 0.0 
0.0 0.0 0.0 
-1.368539219261e-03 5.995670837625e-05 0.0 
5.995670837625e-05 8.429351060224e-03 0.0 
0.0 0.0 0.0 
-1.389225680098e-03 4.097460007113e-06 0.0 
4.097460007113e-06 8.566276601435e-03 0.0 
0.0 0.0 0.0 
-1.369195982524e-03 1.147655850552e-05 0.0 
1.147655850552e-05 8.335861232266e-03 0.0 
0.0 0.0 0.0 
-2.053490930078e-03 1.021325979522e-03 0.0 
1.021325979522e-03 7.965470388676e-03 0.0 
0.0 0.0 0.0 

TENSORS element_materi_strain_plasti float
-1.278716781713e-04 2.317088785895e-03 0.0 
2.317088785895e-03 1.725589617193e-03 0.0 
0.0 0.0 -6.847362595807e-04 
-1.156199042648e-04 2.024353748068e-03 0.0 
2.024353748068e-03 1.515455915080e-03 0.0 
0.0 0.0 -5.999297189210e-04 
-1.399419419615e-03 2.869344170324e-03 0.0 
2.869344170324e-03 7.127002349296e-03 0.0 
0.0 0.0 -1.278236581085e-03 
-1.499770292198e-03 1.938127459123e-04 0.0 
1.938127459123e-04 8.462485561252e-03 0.0 
0.0 0.0 -1.255598393855e-03 
-1.590286579790e-03 5.866412250785e-04 0.0 
5.866412250785e-04 5.570411940462e-03 0.0 
0.0 0.0 -7.961861350945e-04 
9.753052699299e-04 2.049730811989e-03 0.0 
2.049730811989e-03 -7.410546550660e-04 0.0 
0.0 0.0 -1.003931206560e-04 
-1.532722360608e-03 5.037005669365e-04 0.0 
5.037005669365e-04 5.548158926813e-03 0.0 
0.0 0.0 -8.011023898636e-04 
6.217083316277e-05 2.386622999709e-03 0.0 
2.386622999709e-03 1.415043626867e-03 0.0 
0.0 0.0 -6.330919114413e-04 
-1.605315258057e-03 4.380832637376e-06 0.0 
4.380832637376e-06 5.621376957900e-03 0.0 
0.0 0.0 -7.977904104816e-04 
-1.475813289088e-03 8.034655794974e-04 0.0 
8.034655794974e-04 8.366055234102e-03 0.0 
0.0 0.0 -1.253060141438e-03 
-1.723349006480e-03 -4.463465104632e-04 0.0 
-4.463465104632e-04 5.097851564140e-03 0.0 
0.0 0.0 -1.066978692879e-03 
5.108532101028e-06 1.964113970332e-03 0.0 
1.964113970332e-03 1.245831196254e-03 0.0 
0.0 0.0 -5.361170264378e-04 
-1.727294747470e-03 -3.711696677191e-04 0.0 
-3.711696677191e-04 6.945132129710e-03 0.0 
0.0 0.0 -1.259187713256e-03 
-1.707478703098e-03 1.059006860170e-03 0.0 
1.059006860170e-03 5.791719022601e-03 0.0 
0.0 0.0 -8.526168115438e-04 
-1.560262196776e-03 -9.393570101401e-04 0.0 
-9.393570101401e-04 6.928774089182e-03 0.0 
0.0 0.0 -1.289538875031e-03 
-1.440818830272e-03 6.754770737443e-04 0.0 
6.754770737443e-04 8.548838696717e-03 0.0 
0.0 0.0 -1.285984941237e-03 
-1.662616207287e-03 5.344607310422e-04 0.0 
5.344607310422e-04 5.529033418926e-03 0.0 
0.0 0.0 -7.740676797406e-04 
7.357046437425e-05 6.570695833459e-05 0.0 
6.570695833459e-05 -7.357046437425e-05 0.0 
0.0 0.0 0.0 
-6.149932217399e-04 -2.296531181353e-04 0.0 
-2.296531181353e-04 1.902161440616e-03 0.0 
0.0 0.0 -2.776016825098e-04 
-5.498585393581e-04 -2.166839192677e-04 0.0 
-2.166839192677e-04 1.738279106343e-03 0.0 
0.0 0.0 -4.484512109716e-04 
-1.512957112042e-03 4.043623184242e-04 0.0 
4.043623184242e-04 8.437324312554e-03 0.0 
0.0 0.0 -1.250388265701e-03 
-3.873012428043e-04 2.129273940428e-03 0.0 
2.129273940428e-03 2.185606563766e-03 0.0 
0.0 0.0 -7.707022804121e-04 
-4.415956435739e-04 2.226005795527e-03 0.0 
2.226005795527e-03 2.374460708771e-03 0.0 
0.0 0.0 -8.283707422273e-04 
-4.392711161920e-04 -9.745966439417e-04 0.0 
-9.745966439417e-04 3.836297522503e-03 0.0 
0.0 0.0 -1.210372970477e-03 
-1.729903628601e-03 1.506745383258e-03 0.0 
1.506745383258e-03 5.975665893657e-03 0.0 
0.0 0.0 -9.130988374533e-04 
-1.810671457854e-03 -7.476421640110e-04 0.0 
-7.476421640110e-04 5.330964071115e-03 0.0 
0.0 0.0 -1.080045423496e-03 
-1.736477005164e-03 1.109495533801e-03 0.0 
1.109495533801e-03 4.957414051106e-03 0.0 
0.0 0.0 -7.148082707961e-04 
-9.553018808659e-04 3.102749138761e-03 0.0 
3.102749138761e-03 5.566273317297e-03 0.0 
0.0 0.0 -1.266047838742e-03 
-1.821356794347e-03 1.188786638151e-03 0.0 
1.188786638151e-03 6.013421513739e-03 0.0 
0.0 0.0 -9.113908267906e-04 
-6.554257296263e-04 -8.444129216472e-04 0.0 
-8.444129216472e-04 4.294151155513e-03 0.0 
0.0 0.0 -1.237914324842e-03 
1.345111965206e-03 -2.563071370678e-03 0.0 
-2.563071370678e-03 -3.409519374557e-04 0.0 
0.0 0.0 -4.303542976074e-04 
3.575551772738e-04 -9.432915107626e-04 0.0 
-9.432915107626e-04 3.359353657627e-04 0.0 
0.0 0.0 -1.059755802940e-04 
-1.524187206040e-03 3.047553797097e-03 0.0 
3.047553797097e-03 7.492448074924e-03 0.0 
0.0 0.0 -1.261301343383e-03 
-2.126259398598e-03 -4.008249318176e-04 0.0 
-4.008249318176e-04 6.245433906960e-03 0.0 
0.0 0.0 -1.090200430068e-03 
-1.168924377092e-03 -2.135391167217e-03 0.0 
-2.135391167217e-03 5.528728836968e-03 0.0 
0.0 0.0 -1.254989870190e-03 
-1.506183274607e-03 -1.403999252581e-03 0.0 
-1.403999252581e-03 6.695784423920e-03 0.0 
0.0 0.0 -1.314886350686e-03 
-1.405965625827e-03 -2.094418066157e-03 0.0 
-2.094418066157e-03 6.677666447639e-03 0.0 
0.0 0.0 -1.314653105918e-03 
-6.328504155879e-04 1.260189016710e-03 0.0 
1.260189016710e-03 4.185986138576e-03 0.0 
0.0 0.0 -1.264739017786e-03 
-1.486815579568e-03 -1.990720886798e-04 0.0 
-1.990720886798e-04 5.107008468447e-03 0.0 
0.0 0.0 -7.380763454961e-04 
-1.448070308282e-03 4.493602178438e-04 0.0 
4.493602178438e-04 5.173305882684e-03 0.0 
0.0 0.0 -7.371174501546e-04 
-8.280494050984e-04 2.109474212237e-03 0.0 
2.109474212237e-03 3.158688487348e-03 0.0 
0.0 0.0 -8.774464902234e-04 
-1.113239206738e-03 -1.655283581889e-03 0.0 
-1.655283581889e-03 5.115282801902e-03 0.0 
0.0 0.0 -1.280756488215e-03 
3.008174076713e-04 2.119260517804e-03 0.0 
2.119260517804e-03 8.825314744810e-04 0.0 
0.0 0.0 -5.071495209224e-04 
-1.653413400617e-03 1.159238962241e-03 0.0 
1.159238962241e-03 4.683778627350e-03 0.0 
0.0 0.0 -7.557105610435e-04 
-1.547330050851e-03 3.671214089611e-05 0.0 
3.671214089611e-05 8.340609894927e-03 0.0 
0.0 0.0 -1.212858513926e-03 
3.049695683184e-04 2.191509382836e-03 0.0 
2.191509382836e-03 9.207765491606e-04 0.0 
0.0 0.0 -5.253197646338e-04 
1.207574275293e-03 -2.365696291912e-03 0.0 
-2.365696291912e-03 -7.132596237324e-04 0.0 
0.0 0.0 -2.118491363831e-04 
-1.445646034229e-03 2.633500934319e-04 0.0 
2.633500934319e-04 8.137788974429e-03 0.0 
0.0 0.0 -1.234743356787e-03 
1.908988241954e-04 -8.061125310431e-04 0.0 
-8.061125310431e-04 -1.579045808257e-05 0.0 
0.0 0.0 -7.504644261978e-05 
-1.740092141895e-03 6.147961927965e-04 0.0 
6.147961927965e-04 5.664008038323e-03 0.0 
0.0 0.0 -8.229436299569e-04 
-6.078592580179e-04 2.220023986171e-03 0.0 
2.220023986171e-03 2.788765867991e-03 0.0 
0.0 0.0 -9.296584868968e-04 
-8.623973456416e-04 -2.162048895284e-04 0.0 
-2.162048895284e-04 2.432076766193e-03 0.0 
0.0 0.0 -4.150917825895e-04 
2.292279279293e-03 -2.762669743217e-03 0.0 
-2.762669743217e-03 -9.405005062222e-04 0.0 
0.0 0.0 -5.793337598876e-04 
-6.898259874441e-04 2.091701766161e-03 0.0 
2.091701766161e-03 2.855891423984e-03 0.0 
0.0 0.0 -8.656335400463e-04 
-1.445100174427e-03 2.379194139466e-03 0.0 
2.379194139466e-03 7.706829156199e-03 0.0 
0.0 0.0 -1.282189168212e-03 
-9.586804568965e-04 -6.913799780171e-04 0.0 
-6.913799780171e-04 2.989840683449e-03 0.0 
0.0 0.0 -7.128710764410e-04 
-6.997308059935e-04 -2.320910788817e-04 0.0 
-2.320910788817e-04 2.233925226019e-03 0.0 
0.0 0.0 -5.951090654820e-04 
-2.130460140960e-03 -2.340494849444e-04 0.0 
-2.340494849444e-04 6.282260078053e-03 0.0 
0.0 0.0 -1.087734043503e-03 
1.076454852669e-04 -7.426368379909e-04 0.0 
-7.426368379909e-04 1.194913348537e-03 0.0 
0.0 0.0 -3.122055485762e-04 
-1.457512378927e-03 3.071898754378e-04 0.0 
3.071898754378e-04 8.560769857503e-03 0.0 
0.0 0.0 -1.285320035817e-03 
0.0 0.0 0.0 
0.0 0.0 0.0 
0.0 0.0 0.0 
-5.387044635242e-04 2.656482396914e-03 0.0 
2.656482396914e-03 4.203857407929e-03 0.0 
0.0 0.0 -1.210824713543e-03 
3.439414593790e-04 2.794168595655e-03 0.0 
2.794168595655e-03 1.235314347192e-03 0.0 
0.0 0.0 -6.768239171020e-04 
2.349935129578e-03 -2.770680198001e-03 0.0 
-2.770680198001e-03 -6.796113691984e-04 0.0 
0.0 0.0 -7.158530401625e-04 
-1.671429738175e-03 -1.210022446990e-03 0.0 
-1.210022446990e-03 6.777156017205e-03 0.0 
0.0 0.0 -1.257478522087e-03 
-5.278364963199e-04 2.118194625541e-03 0.0 
2.118194625541e-03 2.531471725177e-03 0.0 
0.0 0.0 -8.587008123673e-04 
0.0 0.0 0.0 
0.0 0.0 0.0 
0.0 0.0 0.0 
-1.493925828084e-03 3.040545355870e-03 0.0 
3.040545355870e-03 7.302395090943e-03 0.0 
0.0 0.0 -1.261660853087e-03 
4.867824217369e-04 -2.505859056628e-03 0.0 
-2.505859056628e-03 8.835287678333e-04 0.0 
0.0 0.0 -5.872762241015e-04 
-1.271990412820e-03 3.214687538356e-03 0.0 
3.214687538356e-03 6.250345422673e-03 0.0 
0.0 0.0 -1.282376455277e-03 
-1.831786578585e-03 -1.075910520083e-03 0.0 
-1.075910520083e-03 5.407233681497e-03 0.0 
0.0 0.0 -1.080053202689e-03 
-1.338499280800e-03 1.682976327997e-03 0.0 
1.682976327997e-03 8.399936015446e-03 0.0 
0.0 0.0 -1.338499280800e-03 
-9.312572041143e-04 2.894697176184e-03 0.0 
2.894697176184e-03 4.910832013066e-03 0.0 
0.0 0.0 -1.232909111256e-03 
1.433784453303e-03 -9.093882019497e-05 0.0 
-9.093882019497e-05 -5.456392549777e-05 0.0 
0.0 0.0 -2.878745769087e-04 
-9.147252279940e-04 -5.669281210358e-04 0.0 
-5.669281210358e-04 2.973437083954e-03 0.0 
0.0 0.0 -8.116687730804e-04 
-1.536993954654e-03 1.126957410002e-03 0.0 
1.126957410002e-03 8.303326713538e-03 0.0 
0.0 0.0 -1.262626981217e-03 
-1.574019976009e-03 2.576738749078e-03 0.0 
2.576738749078e-03 7.875617774672e-03 0.0 
0.0 0.0 -1.265352048664e-03 
4.720058723338e-04 2.134723574062e-03 0.0 
2.134723574062e-03 6.830651359346e-04 0.0 
0.0 0.0 -4.950304321150e-04 
-3.200456338227e-04 -3.352696368382e-04 0.0 
-3.352696368382e-04 1.110105412521e-03 0.0 
0.0 0.0 -3.374836250442e-04 
5.206675697946e-04 2.217090668705e-03 0.0 
2.217090668705e-03 6.763455683265e-04 0.0 
0.0 0.0 -5.130056306233e-04 
4.804782057485e-04 -2.508358039830e-03 0.0 
-2.508358039830e-03 8.916054330170e-04 0.0 
0.0 0.0 -5.880358451852e-04 
-1.625607394925e-03 4.831506481737e-04 0.0 
4.831506481737e-04 5.291976980867e-03 0.0 
0.0 0.0 -7.918363975426e-04 
-2.908848742719e-04 2.252062443166e-03 0.0 
2.252062443166e-03 2.033636756898e-03 0.0 
0.0 0.0 -7.468936639825e-04 
-2.599695243754e-04 1.891700121758e-03 0.0 
1.891700121758e-03 1.743771242898e-03 0.0 
0.0 0.0 -6.359150222241e-04 
-1.678000531135e-03 1.594922248822e-04 0.0 
1.594922248822e-04 5.821879659601e-03 0.0 
0.0 0.0 -8.336771054075e-04 
-1.596383286677e-03 5.670740920774e-04 0.0 
5.670740920774e-04 5.789976808295e-03 0.0 
0.0 0.0 -8.358076868167e-04 
-1.951624680642e-03 -7.308270384445e-04 0.0 
-7.308270384445e-04 5.657668243585e-03 0.0 
0.0 0.0 -1.080533843704e-03 
-2.196082702137e-03 8.354918695911e-05 0.0 
8.354918695911e-05 6.184278536814e-03 0.0 
0.0 0.0 -1.059807920279e-03 
-1.525646772161e-03 2.625569910847e-03 0.0 
2.625569910847e-03 6.112973773832e-03 0.0 
0.0 0.0 -1.085941371602e-03 
-1.648645582224e-03 1.246285648401e-04 0.0 
1.246285648401e-04 5.489793155500e-03 0.0 
0.0 0.0 -7.983229688164e-04 
-1.123057724715e-05 -5.872900984588e-04 0.0 
-5.872900984588e-04 3.960725969021e-04 0.0 
0.0 0.0 -1.649322941379e-04 
-1.757846623502e-03 1.222419041867e-03 0.0 
1.222419041867e-03 5.122536551657e-03 0.0 
0.0 0.0 -7.928983479555e-04 
-1.578530100158e-03 5.920453420347e-05 0.0 
5.920453420347e-05 7.247400490716e-03 0.0 
0.0 0.0 -1.069439317440e-03 
-1.600676841679e-03 3.339381263473e-04 0.0 
3.339381263473e-04 7.321452075562e-03 0.0 
0.0 0.0 -1.046447409317e-03 
-1.502072334268e-03 1.832498170444e-03 0.0 
1.832498170444e-03 8.633609047693e-03 0.0 
0.0 0.0 -1.319970921405e-03 
-9.007094055422e-04 1.223013959388e-03 0.0 
1.223013959388e-03 4.725884480151e-03 0.0 
0.0 0.0 -1.294194962782e-03 
-1.674253522828e-03 4.484898109266e-04 0.0 
4.484898109266e-04 5.280548957068e-03 0.0 
0.0 0.0 -7.889745663688e-04 
-1.078149223136e-03 -1.912876176720e-03 0.0 
-1.912876176720e-03 5.515902141362e-03 0.0 
0.0 0.0 -1.263183913703e-03 
-1.546584036688e-03 -9.624953365827e-05 0.0 
-9.624953365827e-05 6.233353762451e-03 0.0 
0.0 0.0 -9.040008563810e-04 
1.411194399049e-04 2.915371637598e-03 0.0 
2.915371637598e-03 1.618838156256e-03 0.0 
0.0 0.0 -7.542675412120e-04 
-1.587713497171e-03 1.272120189302e-04 0.0 
1.272120189302e-04 5.375209747655e-03 0.0 
0.0 0.0 -7.643292725053e-04 
-1.604005809179e-03 -6.682657737697e-04 0.0 
-6.682657737697e-04 6.948639054056e-03 0.0 
0.0 0.0 -1.287517816355e-03 
3.542986660605e-04 2.115271012738e-03 0.0 
2.115271012738e-03 2.453989176071e-03 0.0 
0.0 0.0 -1.043751955586e-03 
-5.121197440995e-04 2.106847301720e-03 0.0 
2.106847301720e-03 4.264562002622e-03 0.0 
0.0 0.0 -1.209599240962e-03 
8.414669120651e-04 2.750323762399e-03 0.0 
2.750323762399e-03 6.433152604662e-04 0.0 
0.0 0.0 -6.363352167991e-04 
5.516999887664e-04 -2.796976242529e-03 0.0 
-2.796976242529e-03 1.148224010342e-04 0.0 
0.0 0.0 -2.856524527717e-04 
-1.904299824368e-03 -6.917450604687e-04 0.0 
-6.917450604687e-04 6.641778035438e-03 0.0 
0.0 0.0 -1.189902873528e-03 
-1.601708388107e-03 3.286250233117e-04 0.0 
3.286250233117e-04 7.722816405099e-03 0.0 
0.0 0.0 -1.108790581071e-03 
3.810766207412e-05 -6.205157488134e-04 0.0 
-6.205157488134e-04 -3.810766207413e-05 0.0 
0.0 0.0 0.0 
-1.434793545909e-03 -1.524718547292e-03 0.0 
-1.524718547292e-03 6.503522325473e-03 0.0 
0.0 0.0 -1.285127980003e-03 
-1.436465131336e-03 2.957908754166e-03 0.0 
2.957908754166e-03 5.615958785865e-03 0.0 
0.0 0.0 -1.051491716222e-03 
2.107685358584e-03 1.966346604052e-04 0.0 
1.966346604052e-04 -5.019158565474e-04 0.0 
0.0 0.0 -2.190510374322e-04 
1.208695653732e-03 2.926354061763e-03 0.0 
2.926354061763e-03 1.261066979529e-04 0.0 
0.0 0.0 -5.720581507223e-04 
-1.531499204645e-03 1.574438431832e-03 0.0 
1.574438431832e-03 4.499656748010e-03 0.0 
0.0 0.0 -7.914135736088e-04 
-9.815222315618e-04 -1.138374471426e-03 0.0 
-1.138374471426e-03 3.347141370850e-03 0.0 
0.0 0.0 -9.587991763485e-04 
2.655737035557e-04 2.419593458192e-03 0.0 
2.419593458192e-03 1.115288623384e-03 0.0 
0.0 0.0 -5.917981401168e-04 
3.744529332960e-04 2.946102748991e-03 0.0 
2.946102748991e-03 1.286129190467e-03 0.0 
0.0 0.0 -7.116780530414e-04 
-1.321847859093e-03 -1.772500593240e-03 0.0 
-1.772500593240e-03 5.826707907603e-03 0.0 
0.0 0.0 -1.283833066805e-03 
-1.525040410968e-03 2.578190730368e-04 0.0 
2.578190730368e-04 6.156621214154e-03 0.0 
0.0 0.0 -8.766975940251e-04 
5.363756903500e-04 2.629255494055e-03 0.0 
2.629255494055e-03 8.922896369145e-04 0.0 
0.0 0.0 -6.122851402562e-04 
1.683483209039e-04 -2.096310185990e-03 0.0 
-2.096310185990e-03 1.080312045122e-03 0.0 
0.0 0.0 -5.351401568681e-04 
-1.746303579404e-03 1.473532537081e-03 0.0 
1.473532537081e-03 5.178940412439e-03 0.0 
0.0 0.0 -7.744920945421e-04 
-1.517476482960e-03 1.097936493812e-04 0.0 
1.097936493812e-04 7.545801257606e-03 0.0 
0.0 0.0 -1.129288753466e-03 
5.838877050126e-04 2.764835075281e-03 0.0 
2.764835075281e-03 9.155423273699e-04 0.0 
0.0 0.0 -6.426128710211e-04 
3.893622582553e-04 1.575203385168e-03 0.0 
1.575203385168e-03 3.980592224466e-04 0.0 
0.0 0.0 -3.374663488723e-04 
-1.195366450636e-03 1.829833708586e-03 0.0 
1.829833708586e-03 3.827762851113e-03 0.0 
0.0 0.0 -8.233021825037e-04 
-1.094193203907e-03 -1.066143348073e-03 0.0 
-1.066143348073e-03 3.532112380788e-03 0.0 
0.0 0.0 -8.981558865158e-04 
-1.046482062160e-03 1.913988030913e-03 0.0 
1.913988030913e-03 3.510208918747e-03 0.0 
0.0 0.0 -8.113141688877e-04 
-1.442225258082e-03 1.605824937381e-03 0.0 
1.605824937381e-03 8.359073722744e-03 0.0 
0.0 0.0 -1.290671971449e-03 
1.101065632512e-03 2.933128537393e-03 0.0 
2.933128537393e-03 9.745442457705e-05 0.0 
0.0 0.0 -5.136514530381e-04 
-1.801548102835e-03 -7.282038970032e-04 0.0 
-7.282038970032e-04 5.288878918754e-03 0.0 
0.0 0.0 -1.060402641786e-03 
-1.486141105577e-03 5.585996661944e-04 0.0 
5.585996661944e-04 8.452622925900e-03 0.0 
0.0 0.0 -1.256690274141e-03 
-3.198454740031e-04 3.015481670953e-03 0.0 
3.015481670953e-03 2.568097898378e-03 0.0 
0.0 0.0 -9.635367533037e-04 
-1.021958554670e-03 1.956756434106e-03 0.0 
1.956756434106e-03 3.500404682426e-03 0.0 
0.0 0.0 -8.457158960689e-04 
-1.158957625686e-03 -1.674495574427e-03 0.0 
-1.674495574427e-03 5.533719249484e-03 0.0 
0.0 0.0 -1.254964138299e-03 
-1.718729624033e-03 -7.379037217155e-04 0.0 
-7.379037217155e-04 6.953664324138e-03 0.0 
0.0 0.0 -1.261070974318e-03 
-1.967620110819e-03 -6.331696876036e-04 0.0 
-6.331696876036e-04 5.669647458342e-03 0.0 
0.0 0.0 -1.061066130071e-03 
-6.061740370739e-04 3.049979969874e-03 0.0 
3.049979969874e-03 3.089302566165e-03 0.0 
0.0 0.0 -9.441827087005e-04 
-7.851765230129e-04 -1.170373150230e-03 0.0 
-1.170373150230e-03 4.916146318737e-03 0.0 
0.0 0.0 -1.270330610962e-03 
-5.043578746139e-04 2.747041251980e-03 0.0 
2.747041251980e-03 2.809200300211e-03 0.0 
0.0 0.0 -9.719555150774e-04 
-1.411040385942e-03 9.892815171228e-04 0.0 
9.892815171228e-04 8.317615504874e-03 0.0 
0.0 0.0 -1.283174495648e-03 
-1.289076372121e-03 3.481935391156e-03 0.0 
3.481935391156e-03 6.606253020577e-03 0.0 
0.0 0.0 -1.267437373369e-03 
-1.784736589840e-03 7.085096522011e-04 0.0 
7.085096522011e-04 5.733057783552e-03 0.0 
0.0 0.0 -8.543707170918e-04 
-1.586571893561e-03 5.026260166066e-04 0.0 
5.026260166066e-04 6.801986481939e-03 0.0 
0.0 0.0 -9.817831382938e-04 
-5.156399995053e-04 2.841155344974e-03 0.0 
2.841155344974e-03 2.858892473080e-03 0.0 
0.0 0.0 -9.645491798066e-04 
-8.623176927628e-04 1.998107917208e-03 0.0 
1.998107917208e-03 3.164246376073e-03 0.0 
0.0 0.0 -8.398345356346e-04 
-3.881715109885e-04 3.210536691478e-03 0.0 
3.210536691478e-03 2.805390491743e-03 0.0 
0.0 0.0 -1.009766620266e-03 
9.302504035183e-04 2.952397877038e-03 0.0 
2.952397877038e-03 6.425944529841e-04 0.0 
0.0 0.0 -6.740763670724e-04 
-1.542505755946e-03 1.216931962656e-05 0.0 
1.216931962656e-05 5.518918282905e-03 0.0 
0.0 0.0 -7.693993191400e-04 
1.440386328935e-03 3.141679147944e-03 0.0 
3.141679147944e-03 1.287757348394e-04 0.0 
0.0 0.0 -6.724980273319e-04 
1.173568897977e-04 -7.192653952147e-04 0.0 
-7.192653952147e-04 2.932653952173e-04 0.0 
0.0 0.0 -1.759809792922e-04 
-1.513364044801e-03 4.633102658988e-05 0.0 
4.633102658988e-05 5.921965621168e-03 0.0 
0.0 0.0 -8.171079392438e-04 
-4.255541535768e-04 -1.657123349734e-04 0.0 
-1.657123349734e-04 1.278602330907e-03 0.0 
0.0 0.0 -2.802839825148e-04 
-1.368206188634e-03 1.704449020245e-03 0.0 
1.704449020245e-03 4.168743630605e-03 0.0 
0.0 0.0 -8.053258742841e-04 
-1.010207907769e-03 -1.246817911064e-03 0.0 
-1.246817911064e-03 4.735746548095e-03 0.0 
0.0 0.0 -1.284796145094e-03 
7.390568671829e-04 2.553228098249e-03 0.0 
2.553228098249e-03 5.918003010214e-04 0.0 
0.0 0.0 -5.703673578019e-04 
-2.093082199977e-03 -2.605836003403e-04 0.0 
-2.605836003403e-04 5.949086090445e-03 0.0 
0.0 0.0 -1.062413871926e-03 
1.655520854684e-04 2.161371362285e-03 0.0 
2.161371362285e-03 1.103022204114e-03 0.0 
0.0 0.0 -5.436746955351e-04 
2.242015872536e-04 2.776975076431e-03 0.0 
2.776975076431e-03 2.408189383906e-03 0.0 
0.0 0.0 -1.044905595188e-03 
-1.509926535812e-03 9.806530388370e-05 0.0 
9.806530388370e-05 5.368363465218e-03 0.0 
0.0 0.0 -7.899655494116e-04 
1.682599579449e-03 2.941445331381e-03 0.0 
2.941445331381e-03 -2.715371857708e-04 0.0 
0.0 0.0 -6.047410258623e-04 
-2.057240178145e-03 -7.296543458156e-04 0.0 
-7.296543458156e-04 6.353419805029e-03 0.0 
0.0 0.0 -1.120963572432e-03 
7.939550842650e-05 -1.701837783695e-03 0.0 
-1.701837783695e-03 9.541700722220e-04 0.0 
0.0 0.0 -4.429566774208e-04 
-1.888286542342e-03 -4.078361496187e-04 0.0 
-4.078361496187e-04 6.637817436663e-03 0.0 
0.0 0.0 -1.189111243166e-03 
-1.407485654430e-03 2.291313923690e-03 0.0 
2.291313923690e-03 4.423118315057e-03 0.0 
0.0 0.0 -8.496092609019e-04 
-1.655956820216e-03 -1.430755689950e-03 0.0 
-1.430755689950e-03 6.808595235967e-03 0.0 
0.0 0.0 -1.265987209193e-03 
-1.479137566383e-03 6.125436213776e-05 0.0 
6.125436213776e-05 5.372221524286e-03 0.0 
0.0 0.0 -7.842605076999e-04 
1.138347058752e-03 2.740886700746e-03 0.0 
2.740886700746e-03 1.338850972854e-04 0.0 
0.0 0.0 -5.452423525874e-04 
-1.371065394049e-03 1.713545049238e-03 0.0 
1.713545049238e-03 4.152463321133e-03 0.0 
0.0 0.0 -7.801847948469e-04 
-1.782923268792e-03 -4.744584193542e-04 0.0 
-4.744584193542e-04 5.239530130494e-03 0.0 
0.0 0.0 -1.068702715777e-03 
1.574789883305e-04 2.145072666255e-03 0.0 
2.145072666255e-03 1.105288466408e-03 0.0 
0.0 0.0 -5.411860520308e-04 
1.917158204157e-03 2.902714119045e-03 0.0 
2.902714119045e-03 -2.818191306246e-04 0.0 
0.0 0.0 -7.008596029424e-04 
-1.624113157274e-03 6.876053139899e-05 0.0 
6.876053139899e-05 7.048361475913e-03 0.0 
0.0 0.0 -1.016465148841e-03 
-1.496185645618e-03 2.597795714976e-04 0.0 
2.597795714976e-04 5.580042956141e-03 0.0 
0.0 0.0 -7.680022369673e-04 
1.209193990119e-03 2.857448575399e-03 0.0 
2.857448575399e-03 6.945453600021e-05 0.0 
0.0 0.0 -5.479922254795e-04 
-1.208481437465e-03 1.793019710120e-03 0.0 
1.793019710120e-03 3.824789842828e-03 0.0 
0.0 0.0 -7.984459790235e-04 
-1.152184433486e-03 3.335097296693e-03 0.0 
3.335097296693e-03 5.424015752646e-03 0.0 
0.0 0.0 -1.136725521675e-03 
-1.147448492341e-03 -1.324005404889e-03 0.0 
-1.324005404889e-03 3.757906895843e-03 0.0 
0.0 0.0 -9.635001610743e-04 
-1.057040178935e-03 2.860292126594e-03 0.0 
2.860292126594e-03 5.175691718835e-03 0.0 
0.0 0.0 -1.285202198870e-03 
-1.235950081423e-03 3.387647794385e-03 0.0 
3.387647794385e-03 6.387700415222e-03 0.0 
0.0 0.0 -1.265486236287e-03 
9.281696803103e-05 2.658900655702e-03 0.0 
2.658900655702e-03 1.536267417270e-03 0.0 
0.0 0.0 -6.981790222718e-04 
-1.143109251794e-03 -9.968271358534e-04 0.0 
-9.968271358534e-04 3.727905850470e-03 0.0 
0.0 0.0 -9.933498913217e-04 
8.375618411632e-06 -4.309904929494e-04 0.0 
-4.309904929494e-04 3.045007785971e-03 0.0 
0.0 0.0 -1.152822474774e-03 
-6.877546197814e-04 2.505636337626e-03 0.0 
2.505636337626e-03 3.038701524841e-03 0.0 
0.0 0.0 -9.245708556394e-04 
1.703115487888e-04 2.091650289530e-03 0.0 
2.091650289530e-03 1.051916456575e-03 0.0 
0.0 0.0 -5.238120022987e-04 
-1.475392442541e-03 1.965496358724e-03 0.0 
1.965496358724e-03 4.467421796523e-03 0.0 
0.0 0.0 -8.137754052845e-04 
9.749921592096e-04 3.123149167265e-03 0.0 
3.123149167265e-03 7.036965901566e-04 0.0 
0.0 0.0 -7.194380354427e-04 
-1.431612767918e-03 8.458326217491e-04 0.0 
8.458326217491e-04 8.384155646033e-03 0.0 
0.0 0.0 -1.279059907835e-03 
-1.564281029058e-03 2.665406032541e-03 0.0 
2.665406032541e-03 6.081997352065e-03 0.0 
0.0 0.0 -1.060691896764e-03 
-1.994493389840e-03 -1.486147162618e-04 0.0 
-1.486147162618e-04 6.559276794178e-03 0.0 
0.0 0.0 -1.155968210243e-03 
4.093528604226e-04 2.208508467563e-03 0.0 
2.208508467563e-03 7.981291822907e-04 0.0 
0.0 0.0 -5.174923040200e-04 
2.334418016396e-03 2.579116851284e-03 0.0 
2.579116851284e-03 -5.999483228990e-04 0.0 
0.0 0.0 -7.433441543560e-04 
-1.484568773685e-03 2.868377484862e-03 0.0 
2.868377484862e-03 6.031945958818e-03 0.0 
0.0 0.0 -1.089453766084e-03 
0.0 0.0 0.0 
0.0 0.0 0.0 
0.0 0.0 0.0 
-6.877179378264e-04 2.407578529618e-03 0.0 
2.407578529618e-03 2.994584755227e-03 0.0 
0.0 0.0 -9.117638418509e-04 
1.701472924961e-04 -1.416553182353e-03 0.0 
-1.416553182353e-03 2.527445138619e-03 0.0 
0.0 0.0 -1.080675545910e-03 
7.614101656211e-04 -9.306526935755e-04 0.0 
-9.306526935755e-04 6.714955075901e-04 0.0 
0.0 0.0 -3.004177607877e-04 
-1.466695883915e-03 2.895664536321e-03 0.0 
2.895664536321e-03 7.498365973997e-03 0.0 
0.0 0.0 -1.257517519450e-03 
-1.714163728762e-03 1.976135659385e-03 0.0 
1.976135659385e-03 6.108584287411e-03 0.0 
0.0 0.0 -9.749624431058e-04 
4.925108656531e-04 -3.055158529449e-03 0.0 
-3.055158529449e-03 1.195571453177e-03 0.0 
0.0 0.0 -7.234638509273e-04 
2.687278214663e-04 -6.810653139458e-04 0.0 
-6.810653139458e-04 2.481884598028e-03 0.0 
0.0 0.0 -1.082135573043e-03 
-1.799351909415e-03 1.409259675503e-03 0.0 
1.409259675503e-03 5.578155389814e-03 0.0 
0.0 0.0 -8.259898420369e-04 
-1.801064707900e-03 1.064269352962e-03 0.0 
1.064269352962e-03 5.991738140388e-03 0.0 
0.0 0.0 -8.838609275114e-04 
-6.913788155709e-04 -1.227574140941e-03 0.0 
-1.227574140941e-03 4.246435019945e-03 0.0 
0.0 0.0 -1.237791025003e-03 
1.617016974439e-05 -2.476429670131e-03 0.0 
-2.476429670131e-03 1.553276678470e-03 0.0 
0.0 0.0 -6.726200778060e-04 
-1.931314796257e-04 3.392233640780e-03 0.0 
3.392233640780e-03 2.538226820427e-03 0.0 
0.0 0.0 -1.005040860343e-03 
-1.319730188756e-03 2.601972306617e-03 0.0 
2.601972306617e-03 4.340655659079e-03 0.0 
0.0 0.0 -8.816854262052e-04 
-1.791217628275e-03 1.648610109221e-03 0.0 
1.648610109221e-03 6.470941124492e-03 0.0 
0.0 0.0 -1.008548823165e-03 
-1.624650418518e-03 2.058268446018e-03 0.0 
2.058268446018e-03 4.841940123608e-03 0.0 
0.0 0.0 -8.379792476443e-04 
-1.489577849007e-03 1.897054155513e-03 0.0 
1.897054155513e-03 4.494677002446e-03 0.0 
0.0 0.0 -8.233332215064e-04 
9.144592983676e-04 2.103723640953e-03 0.0 
2.103723640953e-03 1.164621970286e-03 0.0 
0.0 0.0 -8.910348294228e-04 
-1.234709836901e-03 2.936622841749e-03 0.0 
2.936622841749e-03 5.525011386670e-03 0.0 
0.0 0.0 -1.105110859848e-03 
0.0 0.0 0.0 
0.0 0.0 0.0 
0.0 0.0 0.0 
5.533753092925e-05 2.321065575708e-03 0.0 
2.321065575708e-03 1.385026181291e-03 0.0 
0.0 0.0 -6.172987338087e-04 
9.775337925356e-05 2.647350784272e-03 0.0 
2.647350784272e-03 1.520581698043e-03 0.0 
0.0 0.0 -6.935721759841e-04 
-4.200121646643e-04 3.335963278249e-03 0.0 
3.335963278249e-03 2.868206010904e-03 0.0 
0.0 0.0 -9.575728814879e-04 
-1.648855317221e-03 2.317084043405e-03 0.0 
2.317084043405e-03 6.523041636329e-03 0.0 
0.0 0.0 -1.095076276885e-03 
2.058287304795e-03 2.313329836799e-03 0.0 
2.313329836799e-03 -1.214980310369e-03 0.0 
0.0 0.0 -3.614172833254e-04 
1.621278099486e-04 -1.894393997341e-03 0.0 
-1.894393997341e-03 2.355296152545e-03 0.0 
0.0 0.0 -1.043355442177e-03 
-1.517251520276e-03 -1.088769506638e-04 0.0 
-1.088769506638e-04 5.367725382565e-03 0.0 
0.0 0.0 -7.763349569542e-04 
2.071225716726e-03 2.817742222964e-03 0.0 
2.817742222964e-03 -5.830940965428e-04 0.0 
0.0 0.0 -6.377706943641e-04 
8.701785889744e-05 -2.378886716450e-03 0.0 
-2.378886716450e-03 2.268431335651e-03 0.0 
0.0 0.0 -1.006238978475e-03 
6.688501451719e-04 -8.570105726374e-04 0.0 
-8.570105726374e-04 2.508766139633e-04 0.0 
0.0 0.0 -2.227849532966e-04 
-1.684683593515e-03 2.138149817611e-03 0.0 
2.138149817611e-03 6.451465524737e-03 0.0 
0.0 0.0 -1.040010908530e-03 
1.085799585697e-03 -9.338136306232e-04 0.0 
-9.338136306232e-04 4.841625588175e-05 0.0 
0.0 0.0 -1.827119720807e-04 
1.032861128012e-04 -6.271925775052e-04 0.0 
-6.271925775052e-04 6.433353347809e-04 0.0 
0.0 0.0 -2.890002659678e-04 
4.284292636794e-04 2.188011980544e-03 0.0 
2.188011980544e-03 7.634628543711e-04 0.0 
0.0 0.0 -5.108109077359e-04 
5.217682496463e-06 -2.221552624950e-03 0.0 
-2.221552624950e-03 1.410136832977e-03 0.0 
0.0 0.0 -6.065805066316e-04 
-1.756426844714e-03 1.797081824779e-03 0.0 
1.797081824779e-03 6.815040634103e-03 0.0 
0.0 0.0 -1.073797489760e-03 
1.622101319788e-04 -2.264597495009e-03 0.0 
-2.264597495009e-03 1.173181540105e-03 0.0 
0.0 0.0 -5.723107166073e-04 
1.082074594484e-03 2.640607073619e-03 0.0 
2.640607073619e-03 2.626720583109e-04 0.0 
0.0 0.0 -5.763199940550e-04 
1.605964786137e-03 -3.583242349909e-03 0.0 
-3.583242349909e-03 -7.906667844752e-05 0.0 
0.0 0.0 -6.543849032956e-04 
-3.494454807525e-05 -1.610984925714e-03 0.0 
-1.610984925714e-03 1.099950761190e-03 0.0 
0.0 0.0 -4.564312341920e-04 
1.739023189569e-04 -2.645147422265e-04 0.0 
-2.645147422265e-04 2.696870324371e-03 0.0 
0.0 0.0 -1.117524173959e-03 
-1.429083730494e-03 2.211537082543e-03 0.0 
2.211537082543e-03 4.453302943283e-03 0.0 
0.0 0.0 -8.507820156577e-04 
-1.682802659426e-03 -8.879633472863e-04 0.0 
-8.879633472863e-04 6.796328964063e-03 0.0 
0.0 0.0 -1.256743614961e-03 
0.0 0.0 0.0 
0.0 0.0 0.0 
0.0 0.0 0.0 
1.341168508293e-03 2.860330611598e-03 0.0 
2.860330611598e-03 7.949426344501e-05 0.0 
0.0 0.0 -6.088554736019e-04 
2.068683241690e-03 2.743594093827e-03 0.0 
2.743594093827e-03 -6.076247593681e-04 0.0 
0.0 0.0 -6.261679209952e-04 
-4.650783933680e-04 2.487333802040e-03 0.0 
2.487333802040e-03 2.583809885183e-03 0.0 
0.0 0.0 -9.080277822064e-04 
3.082871487027e-04 -1.189402361213e-03 0.0 
-1.189402361213e-03 2.304624928689e-03 0.0 
0.0 0.0 -1.045235091131e-03 
-1.579554839483e-03 -1.394031692893e-03 0.0 
-1.394031692893e-03 6.678028948098e-03 0.0 
0.0 0.0 -1.275930989368e-03 
-1.684299046229e-03 2.211375405385e-03 0.0 
2.211375405385e-03 6.180161065170e-03 0.0 
0.0 0.0 -1.029499106509e-03 
2.603806802799e-03 2.336705660835e-03 0.0 
2.336705660835e-03 -7.411156882784e-04 0.0 
0.0 0.0 -7.982961919374e-04 
1.043592575535e-04 -8.852470439530e-04 0.0 
-8.852470439530e-04 2.718008520162e-03 0.0 
0.0 0.0 -1.116166892424e-03 
-1.922924089839e-03 -2.680134474821e-04 0.0 
-2.680134474821e-04 5.558845052998e-03 0.0 
0.0 0.0 -1.068822925414e-03 
-7.222094777076e-04 3.206300168432e-03 0.0 
3.206300168432e-03 3.349356457826e-03 0.0 
0.0 0.0 -9.235973587808e-04 
-1.677093997722e-03 2.220083154297e-03 0.0 
2.220083154297e-03 6.117933896180e-03 0.0 
0.0 0.0 -1.003200534345e-03 
-7.865873312168e-04 2.395249233040e-03 0.0 
2.395249233040e-03 4.693437656803e-03 0.0 
0.0 0.0 -1.239730878702e-03 
2.351260119446e-03 2.575200545511e-03 0.0 
2.575200545511e-03 -6.504486438349e-04 0.0 
0.0 0.0 -7.289192038335e-04 
9.551102574568e-04 2.654829682591e-03 0.0 
2.654829682591e-03 4.928673923672e-04 0.0 
0.0 0.0 -6.205618499245e-04 
-1.702788092325e-03 2.198389791733e-03 0.0 
2.198389791733e-03 5.173682012494e-03 0.0 
0.0 0.0 -8.662621843288e-04 
-1.465090691244e-03 1.772844143032e-03 0.0 
1.772844143032e-03 8.679771669805e-03 0.0 
0.0 0.0 -1.323568725688e-03 
-2.196076664333e-04 3.542355712652e-03 0.0 
3.542355712652e-03 2.609169075547e-03 0.0 
0.0 0.0 -9.604425725471e-04 
2.156116458846e-03 1.930277635860e-03 0.0 
1.930277635860e-03 -8.514533959833e-04 0.0 
0.0 0.0 -5.591413126556e-04 
-1.551301896676e-03 9.806982104899e-05 0.0 
9.806982104899e-05 6.010438701821e-03 0.0 
0.0 0.0 -8.293613651800e-04 
5.856186318512e-04 -2.658816906517e-03 0.0 
-2.658816906517e-03 8.548743103245e-04 0.0 
0.0 0.0 -6.173541180753e-04 
-1.598852307231e-03 2.167741205054e-03 0.0 
2.167741205054e-03 4.803959338789e-03 0.0 
0.0 0.0 -8.353017157004e-04 
2.274495282906e-03 2.779935450298e-03 0.0 
2.779935450298e-03 -7.589577722122e-04 0.0 
0.0 0.0 -6.495160760114e-04 
2.298330951285e-03 2.091471460167e-03 0.0 
2.091471460167e-03 -1.204105301713e-03 0.0 
0.0 0.0 -4.689538498166e-04 
2.194832401766e-03 -2.977249775004e-03 0.0 
-2.977249775004e-03 -1.184035248941e-03 0.0 
0.0 0.0 -4.331987797821e-04 
-1.681597496447e-03 2.058302471615e-03 0.0 
2.058302471615e-03 6.767260745606e-03 0.0 
0.0 0.0 -1.075985979751e-03 
-1.563333733845e-03 2.379244648904e-03 0.0 
2.379244648904e-03 4.793451180047e-03 0.0 
0.0 0.0 -8.585603458244e-04 
7.771067329277e-04 2.601388271392e-03 0.0 
2.601388271392e-03 5.653213737160e-04 0.0 
0.0 0.0 -5.753263314187e-04 
-1.744996038836e-03 1.710273158382e-03 0.0 
1.710273158382e-03 7.117718959599e-03 0.0 
0.0 0.0 -1.109763131677e-03 
-1.606390224900e-03 2.419672085247e-03 0.0 
2.419672085247e-03 6.148327333334e-03 0.0 
0.0 0.0 -1.057773507355e-03 
-9.992751282894e-04 3.042009890222e-03 0.0 
3.042009890222e-03 3.819168416919e-03 0.0 
0.0 0.0 -9.009204134090e-04 
-1.375955048470e-03 -1.683400062222e-03 0.0 
-1.683400062222e-03 6.152421885777e-03 0.0 
0.0 0.0 -1.288412101370e-03 
1.944327134549e-03 1.768812360803e-03 0.0 
1.768812360803e-03 -8.136324325899e-04 0.0 
0.0 0.0 -4.845834436969e-04 
-1.254552424136e-03 2.860314366234e-03 0.0 
2.860314366234e-03 4.275922517579e-03 0.0 
0.0 0.0 -8.847105569873e-04 
9.718205800213e-04 3.231436175948e-03 0.0 
3.231436175948e-03 7.715228841926e-04 0.0 
0.0 0.0 -7.471471989488e-04 
1.727666947234e-03 1.978971680572e-03 0.0 
1.978971680572e-03 -4.287431573860e-04 0.0 
0.0 0.0 -5.566816242204e-04 
2.636933750934e-03 1.964049691199e-03 0.0 
1.964049691199e-03 -1.267164226969e-03 0.0 
0.0 0.0 -5.870440816995e-04 
-1.756261579278e-03 1.027223545009e-03 0.0 
1.027223545009e-03 5.150592098184e-03 0.0 
0.0 0.0 -7.898058234521e-04 
2.669142654027e-03 2.047008583083e-03 0.0 
2.047008583083e-03 -9.582484116816e-04 0.0 
0.0 0.0 -7.332403895767e-04 
2.689606729154e-03 -1.689602510838e-03 0.0 
-1.689602510838e-03 -1.205625742808e-03 0.0 
0.0 0.0 -6.359918512911e-04 
-1.629595190705e-03 2.449686769187e-03 0.0 
2.449686769187e-03 6.117601231972e-03 0.0 
0.0 0.0 -1.032318248600e-03 
0.0 0.0 0.0 
0.0 0.0 0.0 
0.0 0.0 0.0 
-1.769475386321e-03 1.897454184282e-03 0.0 
1.897454184282e-03 5.196794091963e-03 0.0 
0.0 0.0 -8.386390795737e-04 
2.679831450569e-03 2.298078295471e-03 0.0 
2.298078295471e-03 -1.117110075304e-03 0.0 
0.0 0.0 -6.697377322564e-04 
1.525405513799e-03 2.895304825734e-03 0.0 
2.895304825734e-03 1.054559655311e-04 0.0 
0.0 0.0 -6.989406339984e-04 
2.631491351563e-03 9.404993485972e-04 0.0 
9.404993485972e-04 -1.150887457296e-03 0.0 
0.0 0.0 -6.345445261146e-04 
-1.595995973144e-03 2.618038279511e-03 0.0 
2.618038279511e-03 5.071323653385e-03 0.0 
0.0 0.0 -8.965110541436e-04 
1.511841627677e-04 -1.773057166612e-03 0.0 
-1.773057166612e-03 8.535234281834e-04 0.0 
0.0 0.0 -3.901044503889e-04 
-9.397222903951e-05 2.775799572976e-03 0.0 
2.775799572976e-03 1.950195750929e-03 0.0 
0.0 0.0 -7.955243665241e-04 
1.510533742235e-03 1.893368219128e-03 0.0 
1.893368219128e-03 -3.333023352098e-04 0.0 
0.0 0.0 -5.045277458680e-04 
-1.529633938128e-03 2.472556152499e-03 0.0 
2.472556152499e-03 4.747231259560e-03 0.0 
0.0 0.0 -8.651285257930e-04 
-1.800570073848e-03 1.187623183650e-03 0.0 
1.187623183650e-03 5.684872286068e-03 0.0 
0.0 0.0 -8.301023967811e-04 
9.558821828944e-04 1.012922103067e-03 0.0 
1.012922103067e-03 -8.983468077863e-04 0.0 
0.0 0.0 -2.465801790350e-05 
2.929345942082e-03 -7.362875197769e-04 0.0 
-7.362875197769e-04 -1.325012703078e-03 0.0 
0.0 0.0 -6.875713881444e-04 
2.465820499106e-03 -2.486373233668e-03 0.0 
-2.486373233668e-03 -9.885187097241e-04 0.0 
0.0 0.0 -6.331293383067e-04 
-1.000270138248e-04 2.665501899130e-03 0.0 
2.665501899130e-03 1.891739969722e-03 0.0 
0.0 0.0 -7.678769810987e-04 
-1.745645462288e-03 1.969965136157e-03 0.0 
1.969965136157e-03 6.177510406470e-03 0.0 
0.0 0.0 -1.000663671924e-03 
-6.743676206496e-05 2.958894746749e-03 0.0 
2.958894746749e-03 2.016036742517e-03 0.0 
0.0 0.0 -8.351142773366e-04 
2.740866472437e-03 2.036102310260e-03 0.0 
2.036102310260e-03 -1.186449683482e-03 0.0 
0.0 0.0 -6.661786238380e-04 
2.465496107494e-03 2.525824601176e-03 0.0 
2.525824601176e-03 -9.322172367962e-04 0.0 
0.0 0.0 -6.571195160133e-04 
1.273787981714e-03 8.615297331710e-04 0.0 
8.615297331710e-04 -7.497623681705e-04 0.0 
0.0 0.0 -2.245824058045e-04 
1.142131131016e-03 2.936542087170e-03 0.0 
2.936542087170e-03 2.802751358821e-04 0.0 
0.0 0.0 -6.096026858133e-04 
8.727535464249e-04 2.453256376776e-03 0.0 
2.453256376776e-03 4.670237874706e-04 0.0 
0.0 0.0 -5.741902859552e-04 
-1.475760748405e-03 2.695142501196e-03 0.0 
2.695142501196e-03 8.197923622284e-03 0.0 
0.0 0.0 -1.321446319728e-03 
-1.492107186378e-03 3.030650340964e-03 0.0 
3.030650340964e-03 7.905007360297e-03 0.0 
0.0 0.0 -1.318029376683e-03 
-1.178085073701e-05 3.500120593452e-03 0.0 
3.500120593452e-03 2.258084084144e-03 0.0 
0.0 0.0 -9.627013857460e-04 
2.548877331085e-03 2.529452683065e-03 0.0 
2.529452683065e-03 -1.024625724028e-03 0.0 
0.0 0.0 -6.532506887387e-04 
1.850654072594e-03 2.843628912083e-03 0.0 
2.843628912083e-03 -1.310735320691e-04 0.0 
0.0 0.0 -7.369630887965e-04 
-1.088841516862e-03 3.167027765780e-03 0.0 
3.167027765780e-03 4.070335559596e-03 0.0 
0.0 0.0 -9.333628341409e-04 
2.340427504556e-03 2.434956062557e-03 0.0 
2.434956062557e-03 -5.727957500432e-04 0.0 
0.0 0.0 -7.575564662197e-04 
2.682095355776e-03 -1.550453496673e-03 0.0 
-1.550453496673e-03 -1.096738406614e-03 0.0 
0.0 0.0 -6.794386924979e-04 
-6.843102871119e-04 3.138323977980e-03 0.0 
3.138323977980e-03 3.288670793621e-03 0.0 
0.0 0.0 -9.652881140700e-04 
-1.560571318974e-03 1.068024078019e-03 0.0 
1.068024078019e-03 8.561491499252e-03 0.0 
0.0 0.0 -1.266640259566e-03 
2.402271625794e-03 2.610626999267e-03 0.0 
2.610626999267e-03 -8.722989033853e-04 0.0 
0.0 0.0 -6.557025953181e-04 
6.813860835502e-04 2.812347985425e-03 0.0 
2.812347985425e-03 1.059490988612e-03 0.0 
0.0 0.0 -7.460901737839e-04 
1.236363456041e-03 2.703241249809e-03 0.0 
2.703241249809e-03 7.838624202409e-05 0.0 
0.0 0.0 -5.634641563138e-04 
-9.652389989341e-04 -6.720183629338e-04 0.0 
-6.720183629338e-04 5.271242622276e-03 0.0 
0.0 0.0 -1.322863172658e-03 
2.098067576592e-03 2.923737740925e-03 0.0 
2.923737740925e-03 -6.205768400508e-04 0.0 
0.0 0.0 -6.332103156605e-04 
-5.055876985533e-04 3.367364034790e-03 0.0 
3.367364034790e-03 3.063510178626e-03 0.0 
0.0 0.0 -9.919420460789e-04 
1.879903345484e-03 1.255087970799e-03 0.0 
1.255087970799e-03 -1.207356077200e-03 0.0 
0.0 0.0 -2.882345435504e-04 
1.114970489587e-03 -6.571475029199e-04 0.0 
-6.571475029199e-04 3.550721468189e-04 0.0 
0.0 0.0 -6.300182727452e-04 
2.369471702773e-03 2.352310472614e-03 0.0 
2.352310472614e-03 -9.003050297678e-04 0.0 
0.0 0.0 -6.296428598595e-04 
2.511210871122e-03 -2.213592529972e-03 0.0 
-2.213592529972e-03 -7.926901794877e-04 0.0 
0.0 0.0 -7.365088678434e-04 
-1.351376459572e-03 2.550480813182e-03 0.0 
2.550480813182e-03 4.385207787700e-03 0.0 
0.0 0.0 -8.710486452961e-04 
-1.397658873592e-03 3.467085405935e-03 0.0 
3.467085405935e-03 7.331557043367e-03 0.0 
0.0 0.0 -1.324865334549e-03 
2.762976518654e-03 2.129275318385e-03 0.0 
2.129275318385e-03 -1.188719051590e-03 0.0 
0.0 0.0 -6.746817715991e-04 
1.650992187785e-03 1.271809720393e-03 0.0 
1.271809720393e-03 -3.513789338484e-04 0.0 
0.0 0.0 -5.569771088299e-04 
1.383242402169e-03 2.669272504238e-03 0.0 
2.669272504238e-03 1.108605796806e-04 0.0 
0.0 0.0 -6.403298493639e-04 
-1.712702943967e-03 1.199021659258e-03 0.0 
1.199021659258e-03 6.429834953111e-03 0.0 
0.0 0.0 -9.576894438039e-04 
2.851085176734e-04 -1.709536430844e-03 0.0 
-1.709536430844e-03 2.195876444368e-03 0.0 
0.0 0.0 -1.008345180213e-03 
7.579314461175e-04 2.705809604616e-03 0.0 
2.705809604616e-03 6.993839864940e-04 0.0 
0.0 0.0 -6.245637568335e-04 
-1.777734376668e-03 7.086825961679e-04 0.0 
7.086825961679e-04 6.354608604567e-03 0.0 
0.0 0.0 -9.257128893455e-04 
-1.277191206466e-03 3.589282529004e-03 0.0 
3.589282529004e-03 6.665823351058e-03 0.0 
0.0 0.0 -1.322580803729e-03 
1.403185707495e-06 -1.439264409054e-03 0.0 
-1.439264409054e-03 2.848558759865e-03 0.0 
0.0 0.0 -1.075861678316e-03 
-1.430658668499e-03 3.358596416292e-03 0.0 
3.358596416292e-03 7.549163922134e-03 0.0 
0.0 0.0 -1.322091174222e-03 
-1.793445118784e-03 9.356262614995e-04 0.0 
9.356262614995e-04 6.204769543778e-03 0.0 
0.0 0.0 -9.196498359204e-04 
-1.442068331431e-03 2.746821175537e-03 0.0 
2.746821175537e-03 5.682562585269e-03 0.0 
0.0 0.0 -1.048263655743e-03 
5.998084775859e-04 2.508005665207e-03 0.0 
2.508005665207e-03 7.531788584781e-04 0.0 
0.0 0.0 -5.798517154560e-04 
-1.223045542115e-03 2.387086346015e-03 0.0 
2.387086346015e-03 4.064515837256e-03 0.0 
0.0 0.0 -8.681697709544e-04 
-1.209389184573e-03 2.902758957536e-03 0.0 
2.902758957536e-03 4.217242041572e-03 0.0 
0.0 0.0 -9.102795160361e-04 
-1.488840206319e-03 2.679198250696e-03 0.0 
2.679198250696e-03 4.716368235080e-03 0.0 
0.0 0.0 -8.732807453983e-04 
1.119499660130e-04 3.567291341735e-03 0.0 
3.567291341735e-03 2.082472498151e-03 0.0 
0.0 0.0 -9.404667703562e-04 
-1.189299144518e-03 3.334584496646e-03 0.0 
3.334584496646e-03 6.217817091132e-03 0.0 
0.0 0.0 -1.322334986692e-03 
-1.743738005580e-03 1.571409251216e-03 0.0 
1.571409251216e-03 5.783273679231e-03 0.0 
0.0 0.0 -8.810748613436e-04 
-1.668503733379e-03 1.747174983457e-03 0.0 
1.747174983457e-03 4.858766838357e-03 0.0 
0.0 0.0 -8.123974380148e-04 
2.689502468919e-03 2.075432867186e-03 0.0 
2.075432867186e-03 -9.257907609435e-04 0.0 
0.0 0.0 -7.558764462751e-04 
-2.431074983303e-05 -1.913003925140e-03 0.0 
-1.913003925140e-03 1.267148434552e-03 0.0 
0.0 0.0 -5.326447220222e-04 
-1.300250353668e-03 2.028546891134e-03 0.0 
2.028546891134e-03 4.120204910714e-03 0.0 
0.0 0.0 -8.415228793236e-04 
1.029960534553e-03 2.697834854064e-03 0.0 
2.697834854064e-03 2.742713854926e-04 0.0 
0.0 0.0 -5.589565371624e-04 
-1.478386704748e-03 4.206789908739e-05 0.0 
4.206789908739e-05 5.616715806328e-03 0.0 
0.0 0.0 -7.696142143080e-04 
2.082223251132e-03 -2.739881630323e-03 0.0 
-2.739881630323e-03 -6.915223042800e-04 0.0 
0.0 0.0 -5.960146915079e-04 
2.687145576905e-03 2.150944824992e-03 0.0 
2.150944824992e-03 -8.619858571997e-04 0.0 
0.0 0.0 -7.822113084450e-04 
-1.642192723937e-03 2.370627921536e-03 0.0 
2.370627921536e-03 6.463774212935e-03 0.0 
0.0 0.0 -1.069052450572e-03 
1.210732016110e-03 2.901093481449e-03 0.0 
2.901093481449e-03 3.403089247521e-04 0.0 
0.0 0.0 -6.647318317980e-04 
-1.090838761359e-03 2.744646813510e-03 0.0 
2.744646813510e-03 3.916911857046e-03 0.0 
0.0 0.0 -9.030726692333e-04 
1.373131851669e-03 1.385595291722e-03 0.0 
1.385595291722e-03 -2.069114301952e-04 0.0 
0.0 0.0 -4.998087520603e-04 
5.484712090762e-04 -3.075676285272e-03 0.0 
-3.075676285272e-03 1.137788810983e-03 0.0 
0.0 0.0 -7.226828657397e-04 
-1.016387097360e-03 2.517297286892e-03 0.0 
2.517297286892e-03 5.594754578216e-03 0.0 
0.0 0.0 -1.324762665914e-03 
-9.072903591933e-04 2.355207703591e-03 0.0 
2.355207703591e-03 3.405907050817e-03 0.0 
0.0 0.0 -8.881387192877e-04 
2.946142820410e-03 1.617684650386e-04 0.0 
1.617684650386e-04 -1.452636572549e-03 0.0 
0.0 0.0 -6.400741062262e-04 
6.309307785542e-04 -2.673296576986e-03 0.0 
-2.673296576986e-03 8.118285156915e-04 0.0 
0.0 0.0 -6.183254118196e-04 
2.654857369397e-04 2.566176722282e-03 0.0 
2.566176722282e-03 1.206224560431e-03 0.0 
0.0 0.0 -6.307329845874e-04 
6.292944620548e-04 2.356029893105e-03 0.0 
2.356029893105e-03 6.393485700988e-04 0.0 
0.0 0.0 -5.437041566372e-04 
-1.573343830476e-03 2.521088319541e-03 0.0 
2.521088319541e-03 6.487888532466e-03 0.0 
0.0 0.0 -1.123886314723e-03 
-8.643744592464e-04 3.301393799564e-03 0.0 
3.301393799564e-03 3.642299074364e-03 0.0 
0.0 0.0 -9.055216267950e-04 
-4.630807398905e-04 2.550759047776e-03 0.0 
2.550759047776e-03 2.616100997212e-03 0.0 
0.0 0.0 -9.227229674235e-04 
-9.883417377340e-04 2.554278731018e-03 0.0 
2.554278731018e-03 3.636783780997e-03 0.0 
0.0 0.0 -8.916891917129e-04 
-9.188251607234e-04 7.915048635257e-04 0.0 
7.915048635257e-04 5.164894119245e-03 0.0 
0.0 0.0 -1.320675234999e-03 
-5.234519663279e-04 8.018217957374e-04 0.0 
8.018217957374e-04 4.358356351167e-03 0.0 
0.0 0.0 -1.258064670439e-03 
-1.519847497081e-03 2.784288839478e-03 0.0 
2.784288839478e-03 6.420730520918e-03 0.0 
0.0 0.0 -1.126590436115e-03 
-1.758421539440e-03 1.881967215149e-03 0.0 
1.881967215149e-03 6.509172932200e-03 0.0 
0.0 0.0 -1.037522200811e-03 
7.328240466091e-04 -2.682401726123e-03 0.0 
-2.682401726123e-03 7.115913620792e-04 0.0 
0.0 0.0 -6.190351751521e-04 
1.760096404851e-04 3.185483329578e-03 0.0 
3.185483329578e-03 1.733233248228e-03 0.0 
0.0 0.0 -8.182469523055e-04 
2.700024770010e-03 1.747528214601e-03 0.0 
1.747528214601e-03 -9.576266826323e-04 0.0 
0.0 0.0 -7.467420374474e-04 
2.935361494200e-03 1.596241168019e-03 0.0 
1.596241168019e-03 -1.073012164550e-03 0.0 
0.0 0.0 -7.981497127072e-04 
-5.548455542571e-04 3.454533405249e-03 0.0 
3.454533405249e-03 3.132006875912e-03 0.0 
0.0 0.0 -9.270064166112e-04 
1.279127165458e-03 -9.870557535994e-04 0.0 
-9.870557535994e-04 -3.854326390960e-05 0.0 
0.0 0.0 -5.316788149495e-04 
-4.227815079073e-04 -2.784371059583e-03 0.0 
-2.784371059583e-03 2.659310912429e-03 0.0 
0.0 0.0 -9.585126019377e-04 
-1.599277265462e-03 2.517332469059e-03 0.0 
2.517332469059e-03 6.812542085539e-03 0.0 
0.0 0.0 -1.134236807130e-03 
2.838543821024e-03 -9.388703813827e-04 0.0 
-9.388703813827e-04 -1.339013732820e-03 0.0 
0.0 0.0 -6.426557520871e-04 
4.165970448057e-04 3.486050932692e-03 0.0 
3.486050932692e-03 1.558675942698e-03 0.0 
0.0 0.0 -8.465455660731e-04 
-9.570428297717e-04 3.028568391790e-03 0.0 
3.028568391790e-03 3.758744006407e-03 0.0 
0.0 0.0 -9.331417602438e-04 
4.382192218767e-04 3.304842555304e-03 0.0 
3.304842555304e-03 1.417845423766e-03 0.0 
0.0 0.0 -7.954562767040e-04 
-1.443236035943e-03 3.221098478814e-03 0.0 
3.221098478814e-03 7.736365815094e-03 0.0 
0.0 0.0 -1.320088186226e-03 
-1.483693740833e-03 2.932428243371e-03 0.0 
2.932428243371e-03 8.049345893719e-03 0.0 
0.0 0.0 -1.318462653075e-03 
-1.548932721531e-03 2.525807133433e-03 0.0 
2.525807133433e-03 7.540510939249e-03 0.0 
0.0 0.0 -1.256494544188e-03 
5.199835747165e-04 -2.886590158864e-03 0.0 
-2.886590158864e-03 1.061442334883e-03 0.0 
0.0 0.0 -6.777539612569e-04 
-1.663138327388e-03 1.991577787862e-03 0.0 
1.991577787862e-03 7.067165816428e-03 0.0 
0.0 0.0 -1.112065035246e-03 
8.530770766536e-04 2.505748462956e-03 0.0 
2.505748462956e-03 4.288710739428e-04 0.0 
0.0 0.0 -5.494063502556e-04 
2.976026969438e-03 1.471613804293e-03 0.0 
1.471613804293e-03 -1.145802400427e-03 0.0 
0.0 0.0 -7.843819581477e-04 
2.176227096681e-03 9.823823306462e-04 0.0 
9.823823306462e-04 -1.042597419614e-03 0.0 
0.0 0.0 -4.858412901716e-04 
-2.813268701102e-04 2.910442502919e-03 0.0 
2.910442502919e-03 2.419195128745e-03 0.0 
0.0 0.0 -9.162292537005e-04 
-1.720195429854e-03 7.985877951349e-04 0.0 
7.985877951349e-04 5.205169340213e-03 0.0 
0.0 0.0 -7.914980036671e-04 
-1.719905413863e-03 1.237364143320e-03 0.0 
1.237364143320e-03 6.165155044144e-03 0.0 
0.0 0.0 -9.214502702889e-04 
-6.210179595173e-04 -4.728660276610e-04 0.0 
-4.728660276610e-04 4.588006840987e-03 0.0 
0.0 0.0 -1.265403586923e-03 
-1.395878555712e-03 3.050861695832e-03 0.0 
3.050861695832e-03 5.954496201824e-03 0.0 
0.0 0.0 -1.117224974728e-03 
-1.665465805844e-03 2.334336493253e-03 0.0 
2.334336493253e-03 5.128095132681e-03 0.0 
0.0 0.0 -8.687609488834e-04 
-1.346991783092e-03 3.039323733030e-03 0.0 
3.039323733030e-03 4.548648496957e-03 0.0 
0.0 0.0 -9.141259787764e-04 
2.498396854009e-03 1.198516088911e-03 0.0 
1.198516088911e-03 -1.399925765526e-03 0.0 
0.0 0.0 -4.707733236356e-04 
1.968831457284e-04 -1.841720632066e-03 0.0 
-1.841720632066e-03 8.576900148433e-04 0.0 
0.0 0.0 -4.519599259593e-04 
1.596184388708e-03 2.912527136814e-03 0.0 
2.912527136814e-03 -2.859190939001e-04 0.0 
0.0 0.0 -5.615422692032e-04 
3.342051080177e-04 3.634224831363e-03 0.0 
3.634224831363e-03 1.769838707620e-03 0.0 
0.0 0.0 -9.017330638447e-04 
1.350991084574e-03 3.130179827696e-03 0.0 
3.130179827696e-03 2.729672728852e-04 0.0 
0.0 0.0 -6.959821531966e-04 
5.181840272175e-04 1.740426048580e-03 0.0 
1.740426048580e-03 4.204450595975e-04 0.0 
0.0 0.0 -4.022696086350e-04 
-1.537623298193e-03 1.946789295788e-04 0.0 
1.946789295788e-04 5.729068901156e-03 0.0 
0.0 0.0 -8.462285223656e-04 
1.561759615532e-04 -2.189651726713e-03 0.0 
-2.189651726713e-03 1.146850025796e-03 0.0 
0.0 0.0 -5.584397088639e-04 
1.820241129970e-03 2.972056139581e-03 0.0 
2.972056139581e-03 -3.351854464419e-04 0.0 
0.0 0.0 -6.364524357979e-04 
-1.341153861134e-03 -4.057244270456e-04 0.0 
-4.057244270456e-04 4.982459086358e-03 0.0 
0.0 0.0 -1.341153861134e-03 
9.256271036625e-04 1.500053370618e-03 0.0 
1.500053370618e-03 1.273019829082e-03 0.0 
0.0 0.0 -9.422772568906e-04 
-1.647307264160e-03 1.862922357847e-03 0.0 
1.862922357847e-03 4.824359254377e-03 0.0 
0.0 0.0 -8.054468608743e-04 
2.951539872400e-04 -9.116816188897e-05 0.0 
-9.116816188897e-05 1.187821972232e-03 0.0 
0.0 0.0 -3.103042898065e-04 
7.971140923123e-05 3.343947047482e-03 0.0 
3.343947047482e-03 1.995422628245e-03 0.0 
0.0 0.0 -8.893431589182e-04 
1.873943254827e-03 2.954249127679e-03 0.0 
2.954249127679e-03 -3.006422023954e-04 0.0 
0.0 0.0 -6.742718796133e-04 
-1.609808059559e-03 2.466698786463e-03 0.0 
2.466698786463e-03 5.115271177997e-03 0.0 
0.0 0.0 -8.940630110298e-04 
-1.355176868643e-03 3.602829940139e-03 0.0 
3.602829940139e-03 7.115897601981e-03 0.0 
0.0 0.0 -1.323832587333e-03 
-1.204260933556e-03 2.429327504665e-03 0.0 
2.429327504665e-03 4.034179858945e-03 0.0 
0.0 0.0 -8.669777983973e-04 
-1.147063666963e-03 3.130382852526e-03 0.0 
3.130382852526e-03 4.139734973133e-03 0.0 
0.0 0.0 -8.917420716958e-04 
-4.014841504774e-04 -2.920877032072e-03 0.0 
-2.920877032072e-03 2.692647303736e-03 0.0 
0.0 0.0 -9.819270656821e-04 
-1.644216929044e-03 2.295172595936e-03 0.0 
2.295172595936e-03 6.800207970354e-03 0.0 
0.0 0.0 -1.105258581891e-03 
2.154052283226e-04 -3.118779152528e-03 0.0 
-3.118779152528e-03 1.628210503259e-03 0.0 
0.0 0.0 -7.901210278208e-04 
-1.316497550801e-03 3.592083674646e-03 0.0 
3.592083674646e-03 6.907418394644e-03 0.0 
0.0 0.0 -1.322174839672e-03 
-1.340103718614e-03 3.152086803121e-03 0.0 
3.152086803121e-03 7.377926064128e-03 0.0 
0.0 0.0 -1.340103718614e-03 
-1.341028575724e-03 2.465513317577e-03 0.0 
2.465513317577e-03 8.006817596930e-03 0.0 
0.0 0.0 -1.341028575724e-03 
-1.338044909071e-03 2.820900205836e-03 0.0 
2.820900205836e-03 7.687427743330e-03 0.0 
0.0 0.0 -1.338044909071e-03 
-1.502118998928e-03 2.871852761975e-03 0.0 
2.871852761975e-03 4.986656915824e-03 0.0 
0.0 0.0 -9.244680137507e-04 
-1.717961893973e-03 2.025609505479e-03 0.0 
2.025609505479e-03 6.849693926195e-03 0.0 
0.0 0.0 -1.103002250422e-03 
-1.441498127645e-03 2.997575274703e-03 0.0 
2.997575274703e-03 6.385826432379e-03 0.0 
0.0 0.0 -1.155914796392e-03 
3.567381933022e-04 2.998203481649e-03 0.0 
2.998203481649e-03 1.342739046541e-03 0.0 
0.0 0.0 -7.283473885043e-04 
1.335922643098e-04 2.946545576970e-03 0.0 
2.946545576970e-03 1.651048719616e-03 0.0 
0.0 0.0 -7.648461359682e-04 
-5.579616973433e-04 -2.537817501247e-03 0.0 
-2.537817501247e-03 2.842838828880e-03 0.0 
0.0 0.0 -9.792330563728e-04 
-1.668326353393e-03 2.237680070997e-03 0.0 
2.237680070997e-03 6.867008378533e-03 0.0 
0.0 0.0 -1.131852245309e-03 
-1.231232325275e-03 3.483829197783e-03 0.0 
3.483829197783e-03 6.428087696954e-03 0.0 
0.0 0.0 -1.322440284024e-03 
-1.629405615007e-03 2.216510426988e-03 0.0 
2.216510426988e-03 7.107180567101e-03 0.0 
0.0 0.0 -1.141180801552e-03 
1.287843860462e-03 1.762496620991e-03 0.0 
1.762496620991e-03 4.118181214961e-04 0.0 
0.0 0.0 -7.284265636965e-04 
-1.709232452093e-03 1.946096254963e-03 0.0 
1.946096254963e-03 7.158440520652e-03 0.0 
0.0 0.0 -1.138864741757e-03 
-2.474149681312e-04 3.241320627208e-03 0.0 
3.241320627208e-03 3.249866169459e-03 0.0 
0.0 0.0 -9.903545940741e-04 
5.390850837396e-04 3.135204886366e-03 0.0 
3.135204886366e-03 1.184502769340e-03 0.0 
0.0 0.0 -7.386805084625e-04 
-2.903565977667e-04 2.791530756056e-03 0.0 
2.791530756056e-03 2.364850385229e-03 0.0 
0.0 0.0 -8.890687660554e-04 
1.802555558832e-03 3.001147534895e-03 0.0 
3.001147534895e-03 -4.575658841899e-04 0.0 
0.0 0.0 -5.764241462752e-04 
-1.445725615323e-03 1.812858751269e-03 0.0 
1.812858751269e-03 8.104070872614e-03 0.0 
0.0 0.0 -1.282213402295e-03 
5.637528850199e-04 2.798374850836e-03 0.0 
2.798374850836e-03 9.579403324455e-04 0.0 
0.0 0.0 -6.521542360566e-04 
-9.878773185600e-04 3.005495027809e-03 0.0 
3.005495027809e-03 5.183572772416e-03 0.0 
0.0 0.0 -1.230767059693e-03 
-5.402829230253e-04 -2.645980312191e-03 0.0 
-2.645980312191e-03 2.860421160958e-03 0.0 
0.0 0.0 -9.943449591140e-04 
1.769669881029e-03 -3.137855469582e-03 0.0 
-3.137855469582e-03 -3.291852005029e-04 0.0 
0.0 0.0 -6.173505773685e-04 
-9.286667060019e-04 -5.578005299265e-04 0.0 
-5.578005299265e-04 4.405534968834e-03 0.0 
0.0 0.0 -1.284312900220e-03 
1.520178245233e-03 2.880262458528e-03 0.0 
2.880262458528e-03 -9.597643010145e-05 0.0 
0.0 0.0 -6.103722064851e-04 
-1.341987455608e-03 3.278682198062e-03 0.0 
3.278682198062e-03 7.180670491988e-03 0.0 
0.0 0.0 -1.341987455608e-03 
-1.479381738464e-03 2.518547494800e-03 0.0 
2.518547494800e-03 7.585721855360e-03 0.0 
0.0 0.0 -1.282654109251e-03 
-6.562251040144e-04 3.476488520305e-03 0.0 
3.476488520305e-03 3.368345711390e-03 0.0 
0.0 0.0 -9.747411499392e-04 
2.825665296399e-05 -9.471346053823e-04 0.0 
-9.471346053823e-04 5.562669983103e-04 0.0 
0.0 0.0 -2.505101362604e-04 
-1.340954708392e-03 3.409829937737e-03 0.0 
3.409829937737e-03 6.752010148723e-03 0.0 
0.0 0.0 -1.340954708392e-03 
-8.893530910468e-04 2.080039302171e-04 0.0 
2.080039302171e-04 4.249386795326e-03 0.0 
0.0 0.0 -1.284661450484e-03 
2.094151919582e-03 -2.710389235349e-03 0.0 
-2.710389235349e-03 -4.177516275291e-04 0.0 
0.0 0.0 -7.184572680229e-04 
1.187697048236e-03 1.044937454993e-03 0.0 
1.044937454993e-03 6.336881744863e-04 0.0 
0.0 0.0 -7.805936668811e-04 
-1.022563228378e-03 2.126685754851e-03 0.0 
2.126685754851e-03 5.450229037892e-03 0.0 
0.0 0.0 -1.323014926434e-03 
0.0 0.0 0.0 
0.0 0.0 0.0 
0.0 0.0 0.0 
5.629949439262e-04 2.943398902906e-03 0.0 
2.943398902906e-03 1.042834511407e-03 0.0 
0.0 0.0 -6.882126237144e-04 
-9.611236283513e-04 3.382262119005e-03 0.0 
3.382262119005e-03 3.900518768528e-03 0.0 
0.0 0.0 -9.507003520820e-04 
-3.264045535916e-04 3.528503760233e-03 0.0 
3.528503760233e-03 2.824189618732e-03 0.0 
0.0 0.0 -1.009382277479e-03 
-8.072349097140e-04 3.285348527428e-03 0.0 
3.285348527428e-03 3.572080463846e-03 0.0 
0.0 0.0 -9.583016177293e-04 
1.577973122007e-03 2.940745778594e-03 0.0 
2.940745778594e-03 -1.562631387263e-04 0.0 
0.0 0.0 -6.093042785491e-04 
-1.341360672448e-03 3.349227255108e-03 0.0 
3.349227255108e-03 6.276206882279e-03 0.0 
0.0 0.0 -1.341360672448e-03 
2.936452016240e-03 1.405586798284e-03 0.0 
1.405586798284e-03 -1.170886952934e-03 0.0 
0.0 0.0 -7.566707414170e-04 
6.010236317608e-04 7.677500863631e-05 0.0 
7.677500863631e-05 -6.010236317608e-04 0.0 
0.0 0.0 0.0 
-1.410674428243e-03 -1.887614969753e-03 0.0 
-1.887614969753e-03 6.271959657533e-03 0.0 
0.0 0.0 -1.272354826527e-03 
6.614899321087e-05 -1.031236819356e-03 0.0 
-1.031236819356e-03 5.476349804252e-04 0.0 
0.0 0.0 -2.630502744155e-04 
-7.579795143834e-04 2.669538043242e-03 0.0 
2.669538043242e-03 3.232540244350e-03 0.0 
0.0 0.0 -9.235262116470e-04 
1.408180871100e-03 -2.447837261249e-03 0.0 
-2.447837261249e-03 -4.054811993359e-04 0.0 
0.0 0.0 -4.297284307560e-04 
-1.289231145457e-03 2.085970842819e-03 0.0 
2.085970842819e-03 4.096251684655e-03 0.0 
0.0 0.0 -8.281323822960e-04 
-9.265632325981e-04 2.208084020548e-04 0.0 
2.208084020548e-04 5.136068338207e-03 0.0 
0.0 0.0 -1.321823097425e-03 
-1.341255375116e-03 3.077672806554e-03 0.0 
3.077672806554e-03 5.842647393183e-03 0.0 
0.0 0.0 -1.341255375116e-03 
-1.444220396543e-03 2.772557237900e-03 0.0 
2.772557237900e-03 4.661509496866e-03 0.0 
0.0 0.0 -8.916520742786e-04 
1.049542071535e-03 -2.597397009894e-03 0.0 
-2.597397009894e-03 2.940040078369e-04 0.0 
0.0 0.0 -5.758054625880e-04 
3.025347595527e-04 1.047283111649e-04 0.0 
1.047283111649e-04 -3.025347595527e-04 0.0 
0.0 0.0 0.0 
1.083086267670e-03 -3.284229385575e-03 0.0 
-3.284229385575e-03 2.814197768567e-04 0.0 
0.0 0.0 -5.847883047970e-04 
-1.038610003698e-03 -2.337728934242e-03 0.0 
-2.337728934242e-03 4.541183857773e-03 0.0 
0.0 0.0 -1.121833217354e-03 
-1.742165347554e-03 9.878882661806e-04 0.0 
9.878882661806e-04 5.401825771171e-03 0.0 
0.0 0.0 -7.704300227928e-04 
-1.803256776378e-03 1.584392787159e-03 0.0 
1.584392787159e-03 5.170803389825e-03 0.0 
0.0 0.0 -8.109332722942e-04 
-1.342502730507e-03 2.572106331239e-03 0.0 
2.572106331239e-03 5.434857979280e-03 0.0 
0.0 0.0 -1.342502730507e-03 
-1.732554351108e-03 7.529304742537e-04 0.0 
7.529304742537e-04 5.461566678014e-03 0.0 
0.0 0.0 -7.720444664677e-04 
-1.484252812585e-03 2.496905312066e-03 0.0 
2.496905312066e-03 8.327686936920e-03 0.0 
0.0 0.0 -1.322852565091e-03 
-2.616390310425e-04 3.420254192840e-03 0.0 
3.420254192840e-03 3.046539849901e-03 0.0 
0.0 0.0 -1.020998643257e-03 
-1.702171015059e-03 1.025221701453e-03 0.0 
1.025221701453e-03 6.037527275999e-03 0.0 
0.0 0.0 -8.907448815977e-04 
4.435059004645e-04 2.367634267758e-03 0.0 
2.367634267758e-03 8.500300084059e-04 0.0 
0.0 0.0 -5.543725323730e-04 
9.902971440261e-04 1.854120232773e-03 0.0 
1.854120232773e-03 5.282487487715e-04 0.0 
0.0 0.0 -6.508053826275e-04 
2.181030243503e-03 2.087940198003e-03 0.0 
2.087940198003e-03 -6.964523607222e-04 0.0 
0.0 0.0 -6.362476640488e-04 
-1.340754991027e-03 1.822804665951e-03 0.0 
1.822804665951e-03 5.126572871134e-03 0.0 
0.0 0.0 -1.340754991027e-03 
-1.339984467612e-03 3.017885242806e-03 0.0 
3.017885242806e-03 7.530573259310e-03 0.0 
0.0 0.0 -1.339984467612e-03 
-1.340417744004e-03 2.627800699396e-03 0.0 
2.627800699396e-03 7.874468285687e-03 0.0 
0.0 0.0 -1.340417744004e-03 
1.663950741528e-04 -3.102222571978e-03 0.0 
-3.102222571978e-03 1.696065106834e-03 0.0 
0.0 0.0 -7.981972204229e-04 
-6.783966376360e-04 -2.229795002151e-03 0.0 
-2.229795002151e-03 2.989937542639e-03 0.0 
0.0 0.0 -9.906603878584e-04 
6.633751209167e-04 3.479464549828e-03 0.0 
3.479464549828e-03 1.235326207863e-03 0.0 
0.0 0.0 -8.137291409057e-04 
-1.800452847873e-04 -3.089059520932e-03 0.0 
-3.089059520932e-03 2.334973482046e-03 0.0 
0.0 0.0 -8.981573260837e-04 
-1.339627896631e-03 1.005258068188e-03 0.0 
1.005258068188e-03 4.944567484942e-03 0.0 
0.0 0.0 -1.339627896631e-03 
2.106481318219e-03 2.804312139354e-03 0.0 
2.804312139354e-03 -3.247815718152e-04 0.0 
0.0 0.0 -7.635856056017e-04 
2.753925008266e-03 -1.471183718442e-03 0.0 
-1.471183718442e-03 -1.118113294929e-03 0.0 
0.0 0.0 -7.010621628588e-04 
2.411027346534e-03 -2.022185411865e-03 0.0 
-2.022185411865e-03 -8.248269265831e-04 0.0 
0.0 0.0 -6.798001799788e-04 
-1.695040583491e-03 9.943495357559e-04 0.0 
9.943495357559e-04 6.306677945551e-03 0.0 
0.0 0.0 -9.279583942086e-04 
-1.067283559268e-03 -1.131551148477e-03 0.0 
-1.131551148477e-03 5.382018527302e-03 0.0 
0.0 0.0 -1.323537156312e-03 
4.718253126561e-04 -2.654545060497e-03 0.0 
-2.654545060497e-03 7.297491663584e-04 0.0 
0.0 0.0 -5.149604910062e-04 
-1.340775759057e-03 3.168705887179e-05 0.0 
3.168705887179e-05 4.893000414627e-03 0.0 
0.0 0.0 -1.340775759057e-03 
2.068072739009e-03 -2.533209175997e-03 0.0 
-2.533209175997e-03 -4.905385770438e-04 0.0 
0.0 0.0 -6.760860694135e-04 
-1.342877878941e-03 3.371101462632e-03 0.0 
3.371101462632e-03 6.986301559429e-03 0.0 
0.0 0.0 -1.342877878941e-03 
-1.502505102679e-03 2.723409331035e-03 0.0 
2.723409331035e-03 6.453774250835e-03 0.0 
0.0 0.0 -1.152765850879e-03 
4.995410750134e-04 -2.508167894462e-04 0.0 
-2.508167894462e-04 1.439641133543e-04 0.0 
0.0 0.0 -1.045622396246e-04 
7.611624550475e-04 2.811491361200e-03 0.0 
2.811491361200e-03 7.486160262995e-04 0.0 
0.0 0.0 -6.470479205773e-04 
-1.718973478826e-03 1.632227495642e-03 0.0 
1.632227495642e-03 7.402026443868e-03 0.0 
0.0 0.0 -1.146019594970e-03 
-1.341220131281e-03 3.403196875767e-03 0.0 
3.403196875767e-03 6.531514611794e-03 0.0 
0.0 0.0 -1.341220131281e-03 
-1.493257815958e-03 2.709508550359e-03 0.0 
2.709508550359e-03 5.031766487179e-03 0.0 
0.0 0.0 -9.220067723808e-04 
-1.371432860580e-04 3.167005571068e-03 0.0 
3.167005571068e-03 2.958438968348e-03 0.0 
0.0 0.0 -1.049000704964e-03 
1.363417131051e-03 2.771598718083e-03 0.0 
2.771598718083e-03 -2.175926074803e-04 0.0 
0.0 0.0 -4.910676529589e-04 
-4.822149847462e-04 -8.933705669700e-06 0.0 
-8.933705669700e-06 3.680115228026e-03 0.0 
0.0 0.0 -1.228682347183e-03 
1.589016691459e-03 -2.728398742501e-03 0.0 
-2.728398742501e-03 -1.477483424757e-04 0.0 
0.0 0.0 -6.176864352786e-04 
2.014961445712e-03 -2.490489286961e-03 0.0 
-2.490489286961e-03 -7.248651286365e-04 0.0 
0.0 0.0 -5.528984216039e-04 
6.740675851827e-05 -1.946268609011e-03 0.0 
-1.946268609011e-03 5.144006658537e-04 0.0 
0.0 0.0 -2.493460390166e-04 
-1.341079611575e-03 3.240452696934e-03 0.0 
3.240452696934e-03 6.054614633037e-03 0.0 
0.0 0.0 -1.341079611575e-03 
2.419438568119e-03 1.848358171578e-03 0.0 
1.848358171578e-03 -8.324259170898e-04 0.0 
0.0 0.0 -6.801482790127e-04 
-1.052268534161e-04 -1.626163501332e-03 0.0 
-1.626163501332e-03 3.065488155398e-03 0.0 
0.0 0.0 -1.110501492391e-03 
-1.743720672030e-03 5.076947702062e-04 0.0 
5.076947702062e-04 5.915487175230e-03 0.0 
0.0 0.0 -8.555322119248e-04 
6.419311454372e-04 -2.457777299007e-03 0.0 
-2.457777299007e-03 6.816602911272e-04 0.0 
0.0 0.0 -5.672534728133e-04 
2.432948694747e-03 -2.224719869907e-03 0.0 
-2.224719869907e-03 -1.006521097821e-03 0.0 
0.0 0.0 -6.113261129685e-04 
-1.391571865871e-03 2.947954310513e-03 0.0 
2.947954310513e-03 4.611783904251e-03 0.0 
0.0 0.0 -8.867075537039e-04 
-1.342259935407e-03 2.196586378398e-03 0.0 
2.196586378398e-03 5.267748778168e-03 0.0 
0.0 0.0 -1.342259935407e-03 
-8.685003091139e-04 -2.019621362732e-03 0.0 
-2.019621362732e-03 3.358195832711e-03 0.0 
0.0 0.0 -1.026543027222e-03 
-6.279763244927e-05 -2.831980191268e-03 0.0 
-2.831980191268e-03 2.234263021353e-03 0.0 
0.0 0.0 -9.306280238158e-04 
1.626113199364e-04 3.532469173109e-03 0.0 
3.532469173109e-03 1.975304410449e-03 0.0 
0.0 0.0 -9.162495987365e-04 
9.545056478258e-04 -2.197984859117e-03 0.0 
-2.197984859117e-03 2.830222850847e-04 0.0 
0.0 0.0 -5.303691141045e-04 
2.741947853495e-03 -1.576053757195e-03 0.0 
-1.576053757195e-03 -1.238751484203e-03 0.0 
0.0 0.0 -6.442270154112e-04 
2.055993336022e-04 -3.019147266732e-03 0.0 
-3.019147266732e-03 1.580796400243e-03 0.0 
0.0 0.0 -7.655981716482e-04 
-1.735594457478e-05 3.684409886977e-03 0.0 
3.684409886977e-03 2.338058889169e-03 0.0 
0.0 0.0 -9.525257740877e-04 
-6.815819430517e-04 3.271309776104e-03 0.0 
3.271309776104e-03 3.991806398053e-03 0.0 
0.0 0.0 -9.982497011217e-04 
7.359468455794e-04 1.655488137203e-03 0.0 
1.655488137203e-03 1.311171725172e-03 0.0 
0.0 0.0 -8.773365303219e-04 
4.616179257589e-04 3.326983553877e-03 0.0 
3.326983553877e-03 1.399682897410e-03 0.0 
0.0 0.0 -7.977003527865e-04 
-1.068767707281e-04 -3.106568222755e-03 0.0 
-3.106568222755e-03 2.185893574205e-03 0.0 
0.0 0.0 -8.910072014901e-04 
1.770168940932e-03 2.939268167283e-03 0.0 
2.939268167283e-03 -7.940642901587e-05 0.0 
0.0 0.0 -7.246125051071e-04 
-6.590777518814e-04 -2.312052235482e-03 0.0 
-2.312052235482e-03 2.981136073476e-03 0.0 
0.0 0.0 -9.951678521122e-04 
-9.129757635955e-05 3.002240536259e-03 0.0 
3.002240536259e-03 3.121089298537e-03 0.0 
0.0 0.0 -1.018204129641e-03 
1.890566440799e-03 1.226789186906e-03 0.0 
1.226789186906e-03 -8.288946358717e-04 0.0 
0.0 0.0 -4.550022021117e-04 
-9.478871216341e-04 -2.661712448175e-04 0.0 
-2.661712448175e-04 5.203816778040e-03 0.0 
0.0 0.0 -1.321929620191e-03 
-1.684709762555e-03 1.865268109453e-03 0.0 
1.865268109453e-03 7.458111656375e-03 0.0 
0.0 0.0 -1.174325249119e-03 
4.942655387039e-04 -2.660349188538e-03 0.0 
-2.660349188538e-03 9.600175774831e-04 0.0 
0.0 0.0 -6.232641926516e-04 
-1.341047338368e-03 5.012584263436e-04 0.0 
5.012584263436e-04 4.843287135669e-03 0.0 
0.0 0.0 -1.341047338368e-03 
-5.199572059754e-04 -1.240456273397e-05 0.0 
-1.240456273397e-05 4.514719369705e-03 0.0 
0.0 0.0 -1.266414110344e-03 
1.456677627038e-03 2.847158529750e-03 0.0 
2.847158529750e-03 -1.224358696167e-04 0.0 
0.0 0.0 -5.718178960378e-04 
3.073160228107e-04 -2.142796274570e-03 0.0 
-2.142796274570e-03 8.896681783000e-04 0.0 
0.0 0.0 -5.129932290474e-04 
-1.050487114865e-03 -1.427509562772e-03 0.0 
-1.427509562772e-03 5.540080609798e-03 0.0 
0.0 0.0 -1.323469717371e-03 
-1.667087300368e-03 2.181750680949e-03 0.0 
2.181750680949e-03 7.186411773731e-03 0.0 
0.0 0.0 -1.167157861819e-03 
1.716323073858e-03 -2.955825605783e-03 0.0 
-2.955825605783e-03 -9.287262183541e-05 0.0 
0.0 0.0 -6.957644794382e-04 
-1.341709311524e-03 -8.333733019742e-04 0.0 
-8.333733019742e-04 5.041051645130e-03 0.0 
0.0 0.0 -1.341709311524e-03 
-1.554347035982e-04 -3.091276428888e-03 0.0 
-3.091276428888e-03 2.271745765848e-03 0.0 
0.0 0.0 -9.069904552498e-04 
-8.856300375339e-05 3.015707065978e-03 0.0 
3.015707065978e-03 2.092630915718e-03 0.0 
0.0 0.0 -8.588862479847e-04 
-1.708652242928e-03 2.038029542744e-03 0.0 
2.038029542744e-03 5.155213329433e-03 0.0 
0.0 0.0 -8.408860858065e-04 
2.150251675539e-03 1.246957804337e-03 0.0 
1.246957804337e-03 -9.518176328647e-04 0.0 
0.0 0.0 -5.136145897175e-04 
4.280369650893e-04 -2.993089053083e-03 0.0 
-2.993089053083e-03 1.242185283195e-03 0.0 
0.0 0.0 -7.158095349792e-04 
1.005063584136e-03 -1.534038141676e-03 0.0 
-1.534038141676e-03 4.706218155617e-04 0.0 
0.0 0.0 -6.324365998706e-04 
-1.787330646013e-03 1.744437882435e-03 0.0 
1.744437882435e-03 6.165539261386e-03 0.0 
0.0 0.0 -9.721028620036e-04 
-5.830614128886e-04 2.963568587990e-03 0.0 
2.963568587990e-03 3.036456168777e-03 0.0 
0.0 0.0 -9.703272795031e-04 
5.013338592635e-04 2.022867758426e-03 0.0 
2.022867758426e-03 1.903789761340e-03 0.0 
0.0 0.0 -1.030767265973e-03 
-1.583428582628e-03 1.234393199571e-04 0.0 
1.234393199571e-04 6.348909220080e-03 0.0 
0.0 0.0 -8.839498032872e-04 
-1.538973880155e-04 -2.905891545860e-03 0.0 
-2.905891545860e-03 2.151085361499e-03 0.0 
0.0 0.0 -8.559377029216e-04 
9.606550472545e-04 1.198365472328e-03 0.0 
1.198365472328e-03 7.584169667693e-04 0.0 
0.0 0.0 -7.367451488674e-04 
1.240241290569e-03 -2.615402293113e-03 0.0 
-2.615402293113e-03 9.801779930624e-06 0.0 
0.0 0.0 -5.357327444998e-04 
-1.264139912559e-03 -2.295922563033e-03 0.0 
-2.295922563033e-03 4.258611210865e-03 0.0 
0.0 0.0 -1.003470032316e-03 
4.779492527782e-04 -1.976862769587e-04 0.0 
-1.976862769587e-04 3.079286874380e-05 0.0 
0.0 0.0 -9.731995102935e-05 
1.375001823881e-03 3.007557583602e-03 0.0 
3.007557583602e-03 2.077996425490e-04 0.0 
0.0 0.0 -6.783434856127e-04 
1.686675147585e-03 -2.826451651131e-03 0.0 
-2.826451651131e-03 -3.979102607463e-04 0.0 
0.0 0.0 -5.523278086452e-04 
-6.775751599431e-04 -2.656016194715e-03 0.0 
-2.656016194715e-03 3.173617743200e-03 0.0 
0.0 0.0 -1.041231529553e-03 
9.547448531119e-04 2.912205143476e-03 0.0 
2.912205143476e-03 5.651456179382e-04 0.0 
0.0 0.0 -6.513816304500e-04 
3.545197186364e-05 -2.683422917804e-03 0.0 
-2.683422917804e-03 2.222563700784e-03 0.0 
0.0 0.0 -9.350600278798e-04 
-1.737561363205e-03 5.251994903431e-04 0.0 
5.251994903431e-04 6.205644374021e-03 0.0 
0.0 0.0 -8.962969588583e-04 
1.356254452431e-03 -2.984093401581e-03 0.0 
-2.984093401581e-03 -2.215529665071e-05 0.0 
0.0 0.0 -5.717567810488e-04 
-1.341827844788e-03 -1.146584425421e-03 0.0 
-1.146584425421e-03 5.213236186647e-03 0.0 
0.0 0.0 -1.341827844788e-03 
-1.032358392854e-03 3.358744228303e-03 0.0 
3.358744228303e-03 3.981695232776e-03 0.0 
0.0 0.0 -8.921909746423e-04 
-9.403772787457e-04 -2.333509821859e-03 0.0 
-2.333509821859e-03 3.602948163807e-03 0.0 
0.0 0.0 -1.032584340947e-03 
-7.230784000767e-04 3.517969959091e-03 0.0 
3.517969959091e-03 3.446928309249e-03 0.0 
0.0 0.0 -9.025917034692e-04 
-6.743760556383e-04 -2.567033021564e-03 0.0 
-2.567033021564e-03 3.158224002336e-03 0.0 
0.0 0.0 -1.064506262870e-03 
0.0 0.0 0.0 
0.0 0.0 0.0 
0.0 0.0 0.0 
-1.792312889487e-03 1.741412585942e-03 0.0 
1.741412585942e-03 5.511837739733e-03 0.0 
0.0 0.0 -8.733545218784e-04 
-1.159018419121e-03 -6.757248724201e-04 0.0 
-6.757248724201e-04 3.679422689167e-03 0.0 
0.0 0.0 -9.437415894182e-04 
1.526598219851e-03 -2.022984547481e-04 0.0 
-2.022984547481e-04 -5.806947110268e-04 0.0 
0.0 0.0 -1.518789559795e-04 
-1.008983259281e-03 -2.022851433489e-03 0.0 
-2.022851433489e-03 3.664714944016e-03 0.0 
0.0 0.0 -1.031099917346e-03 
-1.552203916554e-04 -2.266492036209e-03 0.0 
-2.266492036209e-03 2.794636645768e-03 0.0 
0.0 0.0 -1.001254648526e-03 
-1.559997350991e-03 7.763984245468e-04 0.0 
7.763984245468e-04 7.736769108545e-03 0.0 
0.0 0.0 -1.146946825052e-03 
1.304436411006e-03 -1.537118457164e-03 0.0 
-1.537118457164e-03 -1.929375046108e-04 0.0 
0.0 0.0 -4.763566741695e-04 
1.141009119650e-03 -1.409930863555e-03 0.0 
-1.409930863555e-03 1.287642799873e-04 0.0 
0.0 0.0 -5.441885998444e-04 
-1.689284059370e-03 1.450746420627e-03 0.0 
1.450746420627e-03 4.831311448006e-03 0.0 
0.0 0.0 -7.833574767318e-04 
-1.686952509024e-03 5.790488882109e-04 0.0 
5.790488882109e-04 4.855993105087e-03 0.0 
0.0 0.0 -7.312625299844e-04 
-1.435530838734e-03 2.039856500826e-03 0.0 
2.039856500826e-03 7.934174766789e-03 0.0 
0.0 0.0 -1.286111585339e-03 
-3.846383815358e-04 3.631348853507e-03 0.0 
3.631348853507e-03 2.894402056622e-03 0.0 
0.0 0.0 -9.211198782815e-04 
2.563042352686e-03 -3.462434059620e-04 0.0 
-3.462434059620e-04 -8.334153675030e-04 0.0 
0.0 0.0 -9.050770260813e-05 
-2.801224181592e-06 -1.851492159178e-03 0.0 
-1.851492159178e-03 1.218501688618e-03 0.0 
0.0 0.0 -5.210144847585e-04 
8.331805258011e-05 -1.317049816552e-03 0.0 
-1.317049816552e-03 7.003703442878e-04 0.0 
0.0 0.0 -3.358664558005e-04 
1.821034446314e-04 -2.408967732496e-03 0.0 
-2.408967732496e-03 1.233113086777e-03 0.0 
0.0 0.0 -6.065213706036e-04 
-1.138435434649e-03 2.989604430891e-03 0.0 
2.989604430891e-03 5.462421315605e-03 0.0 
0.0 0.0 -1.134523071099e-03 
-1.613429135808e-03 4.247551468927e-04 0.0 
4.247551468927e-04 7.790174225159e-03 0.0 
0.0 0.0 -1.144649651339e-03 
-1.027154245499e-03 -2.035960934847e-03 0.0 
-2.035960934847e-03 4.492443968240e-03 0.0 
0.0 0.0 -1.087427768671e-03 
-2.215897922679e-04 -2.343741531637e-03 0.0 
-2.343741531637e-03 1.937473062545e-03 0.0 
0.0 0.0 -7.353785444044e-04 
-1.224434476437e-03 -2.373415610936e-03 0.0 
-2.373415610936e-03 4.259607832395e-03 0.0 
0.0 0.0 -1.074887456883e-03 
-2.765309671832e-04 -1.235730925308e-03 0.0 
-1.235730925308e-03 3.492398506195e-03 0.0 
0.0 0.0 -1.142106164841e-03 
1.609002123108e-03 9.641353836346e-05 0.0 
9.641353836346e-05 -1.014383706755e-03 0.0 
0.0 0.0 -2.548364641514e-04 
-1.185520630974e-03 -6.216129085547e-04 0.0 
-6.216129085547e-04 3.715832065426e-03 0.0 
0.0 0.0 -9.234434510542e-04 
-9.870309350746e-04 -2.949408640791e-04 0.0 
-2.949408640791e-04 3.127712701104e-03 0.0 
0.0 0.0 -8.176025220169e-04 
-1.158159835052e-03 -1.705545964426e-03 0.0 
-1.705545964426e-03 5.701758529228e-03 0.0 
0.0 0.0 -1.322396863610e-03 
-1.341641872583e-03 -1.478861783549e-03 0.0 
-1.478861783549e-03 5.355371918508e-03 0.0 
0.0 0.0 -1.341641872583e-03 
-1.283076775259e-03 -6.373143896461e-04 0.0 
-6.373143896461e-04 4.006265140635e-03 0.0 
0.0 0.0 -9.869148323457e-04 
-9.252167440016e-04 -2.284187084932e-03 0.0 
-2.284187084932e-03 3.604049524323e-03 0.0 
0.0 0.0 -1.082955583678e-03 
1.424947381447e-04 -3.218131506232e-03 0.0 
-3.218131506232e-03 1.808876759913e-03 0.0 
0.0 0.0 -8.363020705961e-04 
-2.858765317583e-04 -8.912097981478e-04 0.0 
-8.912097981478e-04 3.661087959600e-03 0.0 
0.0 0.0 -1.177278300149e-03 
-1.642185562706e-04 -1.468912040377e-03 0.0 
-1.468912040377e-03 1.269461247680e-03 0.0 
0.0 0.0 -4.736754391754e-04 
-2.865195494759e-04 -1.594101584254e-03 0.0 
-1.594101584254e-03 3.398007437901e-03 0.0 
0.0 0.0 -1.104707344597e-03 
9.194713961983e-04 -6.793234433339e-04 0.0 
-6.793234433339e-04 6.261768049846e-04 0.0 
0.0 0.0 -3.206774383567e-04 
-7.790564292393e-04 -2.283470906283e-03 0.0 
-2.283470906283e-03 3.292851518803e-03 0.0 
0.0 0.0 -1.077340752670e-03 
-5.608514076299e-04 -2.798496030794e-03 0.0 
-2.798496030794e-03 2.999147072071e-03 0.0 
0.0 0.0 -1.044983856189e-03 
1.138912068891e-03 -3.473598627530e-04 0.0 
-3.473598627530e-04 -1.413469007123e-04 0.0 
0.0 0.0 -2.684313900889e-04 
-1.253955737825e-03 -3.715260469387e-04 0.0 
-3.715260469387e-04 3.888476539148e-03 0.0 
0.0 0.0 -9.536442305595e-04 
-1.602308644549e-03 2.138646014206e-03 0.0 
2.138646014206e-03 7.398169050205e-03 0.0 
0.0 0.0 -1.176862138969e-03 
2.761299412783e-03 -2.184006917307e-04 0.0 
-2.184006917307e-04 -8.957163604378e-04 0.0 
0.0 0.0 -9.160000506328e-05 
-1.698158774402e-03 7.543543168281e-04 0.0 
7.543543168281e-04 4.798515189366e-03 0.0 
0.0 0.0 -7.322753781719e-04 
-1.694678419912e-03 8.983255451051e-04 0.0 
8.983255451051e-04 4.996965617242e-03 0.0 
0.0 0.0 -7.130472889423e-04 
9.905782610910e-04 -8.253624912090e-04 0.0 
-8.253624912090e-04 7.976802919736e-04 0.0 
0.0 0.0 -7.663965227419e-04 
-1.039035016572e-03 -2.144348817903e-04 0.0 
-2.144348817903e-04 3.210973696896e-03 0.0 
0.0 0.0 -7.829545016062e-04 
1.212299874062e-03 -2.903037830351e-03 0.0 
-2.903037830351e-03 2.395213764874e-04 0.0 
0.0 0.0 -6.222091073784e-04 
1.174115903652e-03 2.662474741674e-03 0.0 
2.662474741674e-03 2.969730930284e-04 0.0 
0.0 0.0 -6.304667128631e-04 
-1.289472189001e-03 -1.746360051319e-03 0.0 
-1.746360051319e-03 5.399223758463e-03 0.0 
0.0 0.0 -1.180895453064e-03 
-1.199251439186e-03 3.128969763373e-03 0.0 
3.128969763373e-03 5.740281679720e-03 0.0 
0.0 0.0 -1.286194385238e-03 
-1.685234284086e-03 7.030718583631e-04 0.0 
7.030718583631e-04 7.477737434154e-03 0.0 
0.0 0.0 -1.101088927253e-03 
5.511702260285e-04 2.711119680311e-03 0.0 
2.711119680311e-03 9.222763951361e-04 0.0 
0.0 0.0 -6.314771233563e-04 
-3.649363196540e-05 -1.210836942261e-03 0.0 
-1.210836942261e-03 8.486569891216e-04 0.0 
0.0 0.0 -3.480700102098e-04 
-1.004741383637e-03 2.553626350246e-03 0.0 
2.553626350246e-03 3.669626505377e-03 0.0 
0.0 0.0 -8.905302458185e-04 
-1.568290103670e-03 2.798930321494e-04 0.0 
2.798930321494e-04 4.936656992355e-03 0.0 
0.0 0.0 -7.345111139194e-04 
-1.542599483069e-03 2.307996019665e-04 0.0 
2.307996019665e-04 5.186209951631e-03 0.0 
0.0 0.0 -7.144802219086e-04 
1.697260921232e-03 -1.822504204338e-04 0.0 
-1.822504204338e-04 -6.526688675189e-04 0.0 
0.0 0.0 -1.584708362264e-04 
9.885439547911e-04 -4.650217645265e-04 0.0 
-4.650217645265e-04 -7.811083121429e-05 0.0 
0.0 0.0 -2.719350994485e-04 
3.764836072069e-04 -3.171144431772e-04 0.0 
-3.171144431772e-04 5.254813268562e-04 0.0 
0.0 0.0 -2.992029258896e-04 
-3.222613347251e-04 -1.717475984859e-03 0.0 
-1.717475984859e-03 1.786840537745e-03 0.0 
0.0 0.0 -6.276768012942e-04 
1.995445303676e-03 -3.544912217161e-04 0.0 
-3.544912217161e-04 -1.783707534186e-04 0.0 
0.0 0.0 -2.505695937184e-04 
-1.385796394707e-03 -3.802460944882e-04 0.0 
-3.802460944882e-04 4.246303149623e-03 0.0 
0.0 0.0 -1.004230634435e-03 
0.0 0.0 0.0 
0.0 0.0 0.0 
0.0 0.0 0.0 
-3.537348662354e-04 -2.028219451660e-03 0.0 
-2.028219451660e-03 2.045322960423e-03 0.0 
0.0 0.0 -7.249663260806e-04 
-1.566153664312e-03 2.377992970035e-04 0.0 
2.377992970035e-04 6.488131571459e-03 0.0 
0.0 0.0 -9.582560723523e-04 
-1.634454558496e-03 5.707793053276e-04 0.0 
5.707793053276e-04 5.108535752511e-03 0.0 
0.0 0.0 -7.120344407548e-04 
-1.255391157734e-03 2.956292385131e-03 0.0 
2.956292385131e-03 5.913112370001e-03 0.0 
0.0 0.0 -1.169483110168e-03 
-3.211066572615e-04 -2.624140315591e-03 0.0 
-2.624140315591e-03 2.858415319154e-03 0.0 
0.0 0.0 -9.641449249716e-04 
-1.553469395463e-03 1.980732768992e-04 0.0 
1.980732768992e-04 6.108450087988e-03 0.0 
0.0 0.0 -8.988447104697e-04 
-1.086829048493e-03 -4.298554506639e-05 0.0 
-4.298554506639e-05 3.376551179836e-03 0.0 
0.0 0.0 -8.404787427002e-04 
1.157325761144e-03 -4.144839602351e-04 0.0 
-4.144839602351e-04 5.556060787113e-04 0.0 
0.0 0.0 -3.489577299251e-04 
-1.340974968048e-03 1.141125960794e-03 0.0 
1.141125960794e-03 8.560634098268e-03 0.0 
0.0 0.0 -1.340974968048e-03 
-1.479514720207e-03 1.290754629394e-03 0.0 
1.290754629394e-03 8.817356864728e-03 0.0 
0.0 0.0 -1.320295381545e-03 
-1.658748233041e-03 8.637494445187e-04 0.0 
8.637494445187e-04 5.855760830743e-03 0.0 
0.0 0.0 -8.588387843224e-04 
-1.626246500550e-03 3.507062076516e-04 0.0 
3.507062076516e-04 4.917310602464e-03 0.0 
0.0 0.0 -7.326073368542e-04 
-1.101733211462e-03 -4.903419461906e-04 0.0 
-4.903419461906e-04 3.425201513199e-03 0.0 
0.0 0.0 -8.368382630048e-04 
-1.457935752510e-03 9.072104527732e-04 0.0 
9.072104527732e-04 8.880607743519e-03 0.0 
0.0 0.0 -1.322576402756e-03 
-2.087604691238e-04 -2.081308369903e-03 0.0 
-2.081308369903e-03 1.746392936312e-03 0.0 
0.0 0.0 -6.589853430805e-04 
-1.662826015092e-03 7.083533780780e-04 0.0 
7.083533780780e-04 5.042251775661e-03 0.0 
0.0 0.0 -7.125614225629e-04 
-1.628165374516e-03 4.707510309731e-04 0.0 
4.707510309731e-04 4.889560536843e-03 0.0 
0.0 0.0 -7.312775522649e-04 
-1.109436790681e-03 2.207974280543e-03 0.0 
2.207974280543e-03 3.753226225228e-03 0.0 
0.0 0.0 -8.460010047089e-04 
-1.341823989366e-03 2.274932854254e-03 0.0 
2.274932854254e-03 8.137856468635e-03 0.0 
0.0 0.0 -1.341823989366e-03 
-1.447499776368e-03 1.123885033130e-03 0.0 
1.123885033130e-03 8.849685221172e-03 0.0 
0.0 0.0 -1.322582685247e-03 
1.858413942133e-03 -4.468674671497e-04 0.0 
-4.468674671497e-04 -1.442261551490e-04 0.0 
0.0 0.0 -2.523401230232e-04 
1.933225188622e-03 -1.733881547272e-04 0.0 
-1.733881547272e-04 -7.561870514403e-04 0.0 
0.0 0.0 -1.563839533901e-04 
-1.406822219416e-04 -1.124602410666e-03 0.0 
-1.124602410666e-03 1.005262349108e-03 0.0 
0.0 0.0 -3.705343402142e-04 
-5.636260726475e-04 -2.890778252910e-03 0.0 
-2.890778252910e-03 3.024028366260e-03 0.0 
0.0 0.0 -1.029090130247e-03 
-1.836231348186e-03 -1.061046282737e-04 0.0 
-1.061046282737e-04 6.851957631603e-03 0.0 
0.0 0.0 -1.224669017856e-03 
0.0 0.0 0.0 
0.0 0.0 0.0 
0.0 0.0 0.0 
-1.578428037932e-03 -1.076945805976e-04 0.0 
-1.076945805976e-04 7.488341038297e-03 0.0 
0.0 0.0 -1.092518628634e-03 
-1.550925910831e-05 -1.170234142814e-04 0.0 
-1.170234142814e-04 1.067621659097e-04 0.0 
0.0 0.0 -3.910838862915e-05 
8.665365973905e-04 -1.142786771002e-03 0.0 
-1.142786771002e-03 9.419164366956e-04 0.0 
0.0 0.0 -7.750513003226e-04 
2.093383490481e-04 -3.500473738276e-04 0.0 
-3.500473738276e-04 8.081195732961e-06 0.0 
0.0 0.0 -9.317980490615e-05 
0.0 0.0 0.0 
0.0 0.0 0.0 
0.0 0.0 0.0 
8.379829542950e-04 -1.828387007204e-03 0.0 
-1.828387007204e-03 8.061078686980e-04 0.0 
0.0 0.0 -7.046103527113e-04 
-1.789860880868e-03 -9.343042948716e-04 0.0 
-9.343042948716e-04 6.450275194502e-03 0.0 
0.0 0.0 -1.192963836147e-03 
-1.590104708056e-03 6.107842018535e-05 0.0 
6.107842018535e-05 6.703688956183e-03 0.0 
0.0 0.0 -9.361271490834e-04 
-8.759783829009e-04 2.898559650342e-03 0.0 
2.898559650342e-03 3.532916901786e-03 0.0 
0.0 0.0 -9.106555839008e-04 
1.248462822196e-03 -2.813829483536e-04 0.0 
-2.813829483536e-04 -1.929931588244e-04 0.0 
0.0 0.0 -2.625419092021e-04 
-1.459678414727e-03 -2.058426133646e-03 0.0 
-2.058426133646e-03 4.704925736718e-03 0.0 
0.0 0.0 -1.075952622059e-03 
-1.337797817327e-03 3.504757910850e-04 0.0 
3.504757910850e-04 8.685617780919e-03 0.0 
0.0 0.0 -1.337797817327e-03 
-1.451734133111e-03 3.024014936646e-04 0.0 
3.024014936646e-04 8.945645325804e-03 0.0 
0.0 0.0 -1.322354755130e-03 
-1.599337559302e-03 4.517969448523e-04 0.0 
4.517969448523e-04 5.137060814106e-03 0.0 
0.0 0.0 -7.125764448434e-04 
8.243811469618e-04 -5.070143029738e-04 0.0 
-5.070143029738e-04 1.170642242664e-03 0.0 
0.0 0.0 -8.550100241253e-04 
-1.341607717199e-03 9.922961128721e-04 0.0 
9.922961128721e-04 8.617013640237e-03 0.0 
0.0 0.0 -1.341607717199e-03 
1.651597580356e-05 2.683416658655e-03 0.0 
2.683416658655e-03 3.024822145470e-03 0.0 
0.0 0.0 -1.046710270629e-03 
1.210451057929e-03 -1.943692124057e-04 0.0 
-1.943692124057e-04 4.706046126820e-04 0.0 
0.0 0.0 -3.531810144492e-04 
2.099767295814e-03 -2.484083841165e-04 0.0 
-2.484083841165e-04 -2.289154150212e-04 0.0 
0.0 0.0 -2.475227046456e-04 
1.335233375907e-03 -9.196830328825e-05 0.0 
-9.196830328825e-05 -2.038367509550e-04 0.0 
0.0 0.0 -2.481890828467e-04 
-1.206645058523e-03 -4.413417753443e-05 0.0 
-4.413417753443e-05 3.734312456454e-03 0.0 
0.0 0.0 -9.186759157619e-04 
-1.554661254855e-03 -1.173104092863e-03 0.0 
-1.173104092863e-03 7.206653129246e-03 0.0 
0.0 0.0 -1.322828574513e-03 
-1.468378470940e-03 -2.055954314762e-04 0.0 
-2.055954314762e-04 8.477100898234e-03 0.0 
0.0 0.0 -1.258329778789e-03 
2.187416576026e-03 -1.653808446854e-04 0.0 
-1.653808446854e-04 -8.676741714944e-04 0.0 
0.0 0.0 -1.587067154099e-04 
-1.371588137901e-03 -3.169762198632e-04 0.0 
-3.169762198632e-04 4.214800910036e-03 0.0 
0.0 0.0 -1.008438243783e-03 
-1.344798314370e-03 -8.279531255943e-04 0.0 
-8.279531255943e-04 7.026886665436e-03 0.0 
0.0 0.0 -1.344798314369e-03 
-1.564884777426e-03 -1.287545985866e-03 0.0 
-1.287545985866e-03 7.147060172158e-03 0.0 
0.0 0.0 -1.318785251170e-03 
-1.158469832793e-03 -1.923166980148e-03 0.0 
-1.923166980148e-03 5.883371209853e-03 0.0 
0.0 0.0 -1.321151187552e-03 
-1.585912391543e-03 2.691560132111e-04 0.0 
2.691560132111e-04 7.090908885405e-03 0.0 
0.0 0.0 -1.027148381742e-03 
-1.555187588006e-03 -1.971572702211e-04 0.0 
-1.971572702211e-04 7.705246922455e-03 0.0 
0.0 0.0 -1.125709525796e-03 
-1.338030260144e-03 -1.094386398329e-03 0.0 
-1.094386398329e-03 6.909148412757e-03 0.0 
0.0 0.0 -1.338030260144e-03 
-1.340754991027e-03 -1.372687681983e-03 0.0 
-1.372687681983e-03 6.806607219922e-03 0.0 
0.0 0.0 -1.340754991027e-03 
-1.561602649575e-03 2.480043620058e-04 0.0 
2.480043620058e-04 7.494608831512e-03 0.0 
0.0 0.0 -1.092518628634e-03 
3.307271248664e-03 4.314548185695e-05 0.0 
4.314548185695e-05 -1.214475185733e-03 0.0 
0.0 0.0 -8.755379438333e-05 
-1.478032168390e-03 1.489804673206e-04 0.0 
1.489804673206e-04 5.167022187345e-03 0.0 
0.0 0.0 -7.139539158865e-04 
-1.574977551316e-03 3.717997235828e-04 0.0 
3.717997235828e-04 5.188881553203e-03 0.0 
0.0 0.0 -7.133642253441e-04 
2.078295521971e-03 -1.511499007421e-04 0.0 
-1.511499007421e-04 -8.199563945998e-04 0.0 
0.0 0.0 -1.576675707606e-04 
-1.342313591240e-03 -1.872687525586e-03 0.0 
-1.872687525586e-03 6.355359522584e-03 0.0 
0.0 0.0 -1.342313591240e-03 
-1.269922737054e-03 -2.029167704155e-03 0.0 
-2.029167704155e-03 6.094262192879e-03 0.0 
0.0 0.0 -1.318355947622e-03 
-1.337959751097e-03 -1.908784167046e-03 0.0 
-1.908784167046e-03 5.900685640896e-03 0.0 
0.0 0.0 -1.337959751097e-03 
3.106621107953e-03 -1.497773368645e-04 0.0 
-1.497773368645e-04 -1.029211139497e-03 0.0 
0.0 0.0 -9.540963664561e-05 
2.941822019467e-03 -1.767432348869e-04 0.0 
-1.767432348869e-04 -9.568393427299e-04 0.0 
0.0 0.0 -9.747405510327e-05 
-1.340754991027e-03 -1.672627381109e-03 0.0 
-1.672627381109e-03 5.518495974516e-03 0.0 
0.0 0.0 -1.340754991027e-03 
-1.340396196526e-03 -1.852966983193e-03 0.0 
-1.852966983193e-03 5.697134399037e-03 0.0 
0.0 0.0 -1.340396196526e-03 
-1.600296610560e-03 -2.152006829150e-04 0.0 
-2.152006829150e-04 6.887323541576e-03 0.0 
0.0 0.0 -9.936726122374e-04 
-1.422222177314e-03 8.859389962602e-05 0.0 
8.859389962602e-05 5.179295465595e-03 0.0 
0.0 0.0 -7.124851972278e-04 
-1.571159218797e-03 -2.082021183410e-04 0.0 
-2.082021183410e-04 7.291178693471e-03 0.0 
0.0 0.0 -1.060142436171e-03 
-1.552782223510e-03 -2.129194587244e-04 0.0 
-2.129194587244e-04 6.002253842572e-03 0.0 
0.0 0.0 -8.626607521899e-04 
-1.382122713210e-03 3.570213775188e-05 0.0 
3.570213775188e-05 5.182667103943e-03 0.0 
0.0 0.0 -7.121912678902e-04 
2.259827960221e-03 -3.791885520061e-04 0.0 
-3.791885520061e-04 -6.773411335669e-04 0.0 
0.0 0.0 -9.442328267794e-05 
1.489465085535e-03 -3.873061726619e-04 0.0 
-3.873061726619e-04 -3.302723319640e-04 0.0 
0.0 0.0 -4.591167563965e-05 
1.195706273835e-03 -4.439423179226e-04 0.0 
-4.439423179226e-04 -2.457069974477e-04 0.0 
0.0 0.0 -4.589015575604e-05 
7.928883186884e-04 -4.308369996379e-04 0.0 
-4.308369996379e-04 -1.962835067220e-05 0.0 
0.0 0.0 -4.556578909549e-05 
-1.455576565641e-03 5.369324781880e-06 0.0 
5.369324781880e-06 4.421569252006e-03 0.0 
0.0 0.0 -1.025222297049e-03 
-1.326853145310e-03 -3.193870868211e-05 0.0 
-3.193870868211e-05 4.074529080795e-03 0.0 
0.0 0.0 -9.784754570978e-04 
3.643447720584e-04 -2.807478551813e-04 0.0 
-2.807478551813e-04 -8.302826669459e-05 0.0 
0.0 0.0 -1.159392125903e-04 
-1.882114812679e-03 5.257899597366e-05 0.0 
5.257899597366e-05 5.463849854237e-03 0.0 
0.0 0.0 -1.072123180932e-03 
1.624781745822e-04 -2.648253394118e-04 0.0 
-2.648253394118e-04 3.767456551543e-06 0.0 
0.0 0.0 -7.124812762874e-05 
-1.341471640605e-03 1.902532918980e-03 0.0 
1.902532918980e-03 8.304452194875e-03 0.0 
0.0 0.0 -1.341471640605e-03 
-1.340968685557e-03 8.342263842268e-04 0.0 
8.342263842268e-04 8.620360450522e-03 0.0 
0.0 0.0 -1.340968685557e-03 
-1.339320413496e-03 1.336323062728e-03 0.0 
1.336323062728e-03 8.515855351859e-03 0.0 
0.0 0.0 -1.339320413496e-03 
-5.175251243654e-04 1.147272255642e-05 0.0 
1.147272255642e-05 1.550881351190e-03 0.0 
0.0 0.0 -2.599136149544e-04 
-9.633323041400e-04 -3.549644401783e-05 0.0 
-3.549644401783e-05 2.981977788141e-03 0.0 
0.0 0.0 -7.340959586659e-04 
-1.337132911908e-03 6.510662741128e-04 0.0 
6.510662741128e-04 8.656607653519e-03 0.0 
0.0 0.0 -1.337132911908e-03 
-2.083032595708e-03 9.922266011855e-05 0.0 
9.922266011855e-05 6.472696883650e-03 0.0 
0.0 0.0 -1.124956933753e-03 
-1.344556937803e-03 5.003882733929e-04 0.0 
5.003882733929e-04 8.710429521741e-03 0.0 
0.0 0.0 -1.344556937803e-03 
-1.932677962729e-03 1.288201926386e-04 0.0 
1.288201926386e-04 6.746175248938e-03 0.0 
0.0 0.0 -1.192538251246e-03 
-1.740079752366e-03 1.547682996820e-04 0.0 
1.547682996820e-04 7.002368902305e-03 0.0 
0.0 0.0 -1.259905836238e-03 
-1.256318881540e-03 -3.058147318078e-04 0.0 
-3.058147318078e-04 3.889569585195e-03 0.0 
0.0 0.0 -9.521061186879e-04 
-1.479483252636e-03 7.231400883548e-04 0.0 
7.231400883548e-04 8.931379513718e-03 0.0 
0.0 0.0 -1.318101597465e-03 
-1.454407492241e-03 7.329644933787e-04 0.0 
7.329644933787e-04 8.932547234701e-03 0.0 
0.0 0.0 -1.321689849711e-03 
-1.996720130669e-03 -4.240856891719e-04 0.0 
-4.240856891719e-04 6.546271744836e-03 0.0 
0.0 0.0 -1.157495185000e-03 
-1.833092771074e-03 -4.338479580684e-04 0.0 
-4.338479580684e-04 6.845712330688e-03 0.0 
0.0 0.0 -1.225777420818e-03 
-1.841879665554e-03 -1.392809369192e-03 0.0 
-1.392809369192e-03 5.462425115064e-03 0.0 
0.0 0.0 -1.076967794221e-03 
0.0 0.0 0.0 
0.0 0.0 0.0 
0.0 0.0 0.0 
-8.795889895974e-04 -1.952925740306e-03 0.0 
-1.952925740306e-03 3.376145193665e-03 0.0 
0.0 0.0 -1.039304039601e-03 
1.660434101197e-03 -6.141622579472e-04 0.0 
-6.141622579472e-04 -6.719522836332e-05 0.0 
0.0 0.0 -2.442944474907e-04 
-1.378694188408e-03 -2.097012646119e-03 0.0 
-2.097012646119e-03 5.460269496084e-03 0.0 
0.0 0.0 -1.177819030284e-03 
-7.813950936845e-04 -2.358745935075e-03 0.0 
-2.358745935075e-03 3.287112188259e-03 0.0 
0.0 0.0 -1.040987640873e-03 
-1.809630590335e-03 -1.291578548695e-03 0.0 
-1.291578548695e-03 5.821414157847e-03 0.0 
0.0 0.0 -1.099016898379e-03 
-2.060296257065e-04 -1.796631504213e-03 0.0 
-1.796631504213e-03 1.564117229874e-03 0.0 
0.0 0.0 -5.820375446434e-04 
4.475341314438e-05 -9.010547106959e-04 0.0 
-9.010547106959e-04 6.723802247933e-04 0.0 
0.0 0.0 -2.733874678612e-04 
-1.819661686397e-03 -1.463949205523e-03 0.0 
-1.463949205523e-03 6.215728401457e-03 0.0 
0.0 0.0 -1.161668299909e-03 
-1.009350816753e-03 -1.981157607315e-03 0.0 
-1.981157607315e-03 3.679610224835e-03 0.0 
0.0 0.0 -1.056886766371e-03 
-1.124597673924e-03 -3.416283390981e-04 0.0 
-3.416283390981e-04 3.530274889455e-03 0.0 
0.0 0.0 -8.978673291013e-04 
-1.908614693689e-03 -1.553426855284e-03 0.0 
-1.553426855284e-03 5.883638228136e-03 0.0 
0.0 0.0 -1.096102707776e-03 
-1.506564574904e-03 4.784902240182e-04 0.0 
4.784902240182e-04 7.990398295391e-03 0.0 
0.0 0.0 -1.188907866872e-03 
-1.145966443117e-03 -2.688887835076e-04 0.0 
-2.688887835076e-04 3.559257817850e-03 0.0 
0.0 0.0 -8.802182425544e-04 
-2.343808151550e-04 -2.448482601409e-03 0.0 
-2.448482601409e-03 2.867036480139e-03 0.0 
0.0 0.0 -1.035646790376e-03 
-9.500506080825e-04 -2.724089328098e-03 0.0 
-2.724089328098e-03 3.674446532369e-03 0.0 
0.0 0.0 -9.625389225288e-04 
-1.856114660532e-03 -1.247587492440e-03 0.0 
-1.247587492440e-03 5.444374226428e-03 0.0 
0.0 0.0 -1.042884296030e-03 
-2.003615679542e-03 -9.107189773551e-04 0.0 
-9.107189773551e-04 5.760788445208e-03 0.0 
0.0 0.0 -1.050199500156e-03 
3.015162384708e-03 1.478491521065e-03 0.0 
1.478491521065e-03 -1.420788746949e-03 0.0 
0.0 0.0 -6.833029876111e-04 
-7.703338813803e-04 2.711642704622e-03 0.0 
2.711642704622e-03 3.268676482316e-03 0.0 
0.0 0.0 -9.206815977879e-04 
8.952220710028e-04 3.337500451005e-03 0.0 
3.337500451005e-03 9.018971507738e-04 0.0 
0.0 0.0 -7.701939521900e-04 
-1.492273682533e-03 -1.948749897048e-03 0.0 
-1.948749897048e-03 4.700056634630e-03 0.0 
0.0 0.0 -1.018483763552e-03 
-1.953152701418e-03 -1.266064436280e-03 0.0 
-1.266064436280e-03 6.190905664489e-03 0.0 
0.0 0.0 -1.125100902632e-03 
-2.130434678919e-03 -5.674193057818e-04 0.0 
-5.674193057818e-04 6.039060582820e-03 0.0 
0.0 0.0 -1.053755873404e-03 
1.981272582958e-04 -2.339075750409e-03 0.0 
-2.339075750409e-03 1.164667172993e-03 0.0 
0.0 0.0 -5.840547562666e-04 
-1.516698384373e-03 7.243684231909e-04 0.0 
7.243684231909e-04 7.963201592157e-03 0.0 
0.0 0.0 -1.183514100502e-03 
-1.571889609711e-03 6.492262438020e-04 0.0 
6.492262438020e-04 7.577660240319e-03 0.0 
0.0 0.0 -1.117084069417e-03 
-1.526943038589e-03 4.067391407097e-04 0.0 
4.067391407097e-04 5.686565415721e-03 0.0 
0.0 0.0 -8.110481619253e-04 
-1.474195239190e-03 -2.107699134124e-03 0.0 
-2.107699134124e-03 4.674985602820e-03 0.0 
0.0 0.0 -1.001070066037e-03 
-1.687869148980e-03 -1.597447162641e-03 0.0 
-1.597447162641e-03 5.094192157887e-03 0.0 
0.0 0.0 -1.032102790996e-03 
-1.559878786953e-03 1.186239496982e-04 0.0 
1.186239496982e-04 8.091883647163e-03 0.0 
0.0 0.0 -1.185362187646e-03 
-1.553576411269e-03 5.639076835034e-04 0.0 
5.639076835034e-04 7.828849217298e-03 0.0 
0.0 0.0 -1.150972777267e-03 
-5.736846005059e-04 -3.010470759541e-03 0.0 
-3.010470759541e-03 3.112745496219e-03 0.0 
0.0 0.0 -1.058777908313e-03 
-1.827264969184e-03 -1.207689843267e-03 0.0 
-1.207689843267e-03 6.491929530035e-03 0.0 
0.0 0.0 -1.190872049285e-03 
-1.617401302618e-03 1.036699389917e-03 0.0 
1.036699389917e-03 7.425262889637e-03 0.0 
0.0 0.0 -1.103416240745e-03 
-2.113993614968e-03 -7.222808743220e-04 0.0 
-7.222808743220e-04 6.023476369147e-03 0.0 
0.0 0.0 -1.069496670503e-03 
-1.471914821471e-03 -1.998353424490e-03 0.0 
-1.998353424490e-03 5.883536090439e-03 0.0 
0.0 0.0 -1.210017230578e-03 
-1.575272729869e-03 3.494544289054e-04 0.0 
3.494544289054e-04 8.019533452472e-03 0.0 
0.0 0.0 -1.181737430652e-03 
-1.652502708926e-03 2.520535947120e-04 0.0 
2.520535947120e-04 7.001595806507e-03 0.0 
0.0 0.0 -1.011817915138e-03 
-3.838894113269e-04 -2.804191833148e-03 0.0 
-2.804191833148e-03 2.874279057775e-03 0.0 
0.0 0.0 -9.985655989919e-04 
-6.304965187655e-04 -7.604202958905e-04 0.0 
-7.604202958905e-04 2.203620271365e-03 0.0 
0.0 0.0 -6.656342390725e-04 
4.047615641515e-04 -2.474054827037e-03 0.0 
-2.474054827037e-03 9.613198754716e-04 0.0 
0.0 0.0 -5.854634741242e-04 
2.836227978939e-05 -1.580599960261e-03 0.0 
-1.580599960261e-03 9.832792497712e-04 0.0 
0.0 0.0 -4.149592254337e-04 
1.034548557929e-04 -1.227500156599e-03 0.0 
-1.227500156599e-03 6.126727267546e-04 0.0 
0.0 0.0 -3.069118210918e-04 
-1.577352812428e-03 2.114313367924e-04 0.0 
2.114313367924e-04 7.845695102100e-03 0.0 
0.0 0.0 -1.150998037120e-03 
-1.900941556448e-03 -7.041406832224e-04 0.0 
-7.041406832224e-04 6.386638876857e-03 0.0 
0.0 0.0 -1.156839719840e-03 
6.843292428348e-05 -1.144232504345e-03 0.0 
-1.144232504345e-03 6.143886100226e-04 0.0 
0.0 0.0 -2.926378004169e-04 
-1.601987702258e-03 2.442990824200e-03 0.0 
2.442990824200e-03 6.852419756780e-03 0.0 
0.0 0.0 -1.160298666437e-03 
-1.543111448516e-03 4.596328783708e-04 0.0 
4.596328783708e-04 5.853297686999e-03 0.0 
0.0 0.0 -8.436798659344e-04 
-1.824750470194e-03 -1.859013687658e-03 0.0 
-1.859013687658e-03 5.532595994557e-03 0.0 
0.0 0.0 -1.067477449466e-03 
-2.006499161308e-03 -7.976010001953e-04 0.0 
-7.976010001953e-04 6.083504909474e-03 0.0 
0.0 0.0 -1.090430023688e-03 
7.833829666557e-04 -2.711290744461e-03 0.0 
-2.711290744461e-03 6.776524641225e-04 0.0 
0.0 0.0 -6.261580417621e-04 
-2.076799610215e-03 -1.031710463461e-03 0.0 
-1.031710463461e-03 6.135351760274e-03 0.0 
0.0 0.0 -1.087955833448e-03 
-1.557514890525e-03 -6.173462151110e-05 0.0 
-6.173462151110e-05 5.695796094032e-03 0.0 
0.0 0.0 -8.100176300978e-04 
8.750615862245e-04 9.176848780839e-04 0.0 
9.176848780839e-04 1.438408062181e-03 0.0 
0.0 0.0 -9.914869921737e-04 
-1.497791782641e-03 -1.444847597853e-03 0.0 
-1.444847597853e-03 6.204442023908e-03 0.0 
0.0 0.0 -1.242964905849e-03 
-6.875629852487e-04 -4.240155203853e-04 0.0 
-4.240155203853e-04 2.190912803371e-03 0.0 
0.0 0.0 -5.658909553065e-04 
-1.268098618658e-03 -2.126035490962e-03 0.0 
-2.126035490962e-03 5.495926708526e-03 0.0 
0.0 0.0 -1.215045542354e-03 
-1.631557581403e-03 2.235766335083e-04 0.0 
2.235766335083e-04 7.237605270102e-03 0.0 
0.0 0.0 -1.048288725887e-03 
-7.383595785151e-04 -6.377031037024e-04 0.0 
-6.377031037024e-04 2.446869421887e-03 0.0 
0.0 0.0 -6.818911139857e-04 
3.993077738021e-04 -2.419206884214e-03 0.0 
-2.419206884214e-03 9.348823657586e-04 0.0 
0.0 0.0 -5.717957740974e-04 
-1.500476059484e-03 -8.906484908892e-04 0.0 
-8.906484908892e-04 4.589149281530e-03 0.0 
0.0 0.0 -1.044847128380e-03 
-1.630418366467e-03 6.661053165545e-04 0.0 
6.661053165545e-04 6.481746764143e-03 0.0 
0.0 0.0 -9.409807611877e-04 
-5.756498552716e-04 -2.159817615522e-03 0.0 
-2.159817615522e-03 2.678873720584e-03 0.0 
0.0 0.0 -9.013816565627e-04 
-1.610525300296e-03 1.600914995101e-04 0.0 
1.600914995101e-04 7.460282061065e-03 0.0 
0.0 0.0 -1.085119818393e-03 
-1.626505474320e-03 1.193898643633e-04 0.0 
1.193898643633e-04 6.796479922044e-03 0.0 
0.0 0.0 -9.816794289629e-04 
-1.168002604940e-03 -1.979309092588e-03 0.0 
-1.979309092588e-03 4.001814082530e-03 0.0 
0.0 0.0 -1.032510638845e-03 
-1.993224441762e-03 -1.056137829821e-03 0.0 
-1.056137829821e-03 5.774090597717e-03 0.0 
0.0 0.0 -1.075584385303e-03 
-2.021709392423e-03 -1.349459280440e-03 0.0 
-1.349459280440e-03 5.860171390496e-03 0.0 
0.0 0.0 -1.066391945090e-03 
-1.595291763312e-03 5.874023300959e-04 0.0 
5.874023300959e-04 7.178060268656e-03 0.0 
0.0 0.0 -1.050681058959e-03 
-5.082515002275e-04 -8.941420093747e-04 0.0 
-8.941420093747e-04 1.798316205834e-03 0.0 
0.0 0.0 -5.009000172756e-04 
-1.206852124203e-03 -1.671075112969e-03 0.0 
-1.671075112969e-03 4.019505130445e-03 0.0 
0.0 0.0 -1.029746919386e-03 
-5.152753143586e-05 2.170825683475e-03 0.0 
2.170825683475e-03 3.140726951459e-03 0.0 
0.0 0.0 -1.141128458404e-03 
-1.641668485544e-03 3.431501301840e-04 0.0 
3.431501301840e-04 7.404941610079e-03 0.0 
0.0 0.0 -1.078198857115e-03 
-1.057951637287e-03 -1.671343146736e-03 0.0 
-1.671343146736e-03 3.677031607098e-03 0.0 
0.0 0.0 -1.017599913258e-03 
-8.954401304147e-04 -2.800206404235e-03 0.0 
-2.800206404235e-03 3.674164100142e-03 0.0 
0.0 0.0 -1.058318663232e-03 
-1.115312546428e-03 -2.189534952593e-03 0.0 
-2.189534952593e-03 5.045014028914e-03 0.0 
0.0 0.0 -1.187586327529e-03 
-1.596801678993e-03 6.045917028781e-04 0.0 
6.045917028781e-04 6.950727632054e-03 0.0 
0.0 0.0 -1.013969106439e-03 
2.322873706387e-04 -1.368679716301e-04 0.0 
-1.368679716301e-04 -2.322873706387e-04 0.0 
0.0 0.0 0.0 
4.726741315202e-05 -1.330898926681e-03 0.0 
-1.330898926681e-03 8.674614564573e-04 0.0 
0.0 0.0 -2.916872467244e-04 
2.273358372470e-03 1.445761220817e-05 0.0 
1.445761220817e-05 -1.234043607805e-03 0.0 
0.0 0.0 -4.454206134279e-04 
-1.880676767284e-03 -9.969975945957e-04 0.0 
-9.969975945957e-04 6.131847364448e-03 0.0 
0.0 0.0 -1.127837695838e-03 
-1.619604464873e-03 6.374782176385e-04 0.0 
6.374782176385e-04 6.719807393941e-03 0.0 
0.0 0.0 -9.775003154318e-04 
-1.665473239862e-03 -8.814240019008e-04 0.0 
-8.814240019008e-04 4.990171794499e-03 0.0 
0.0 0.0 -1.065326950858e-03 
-1.596762474986e-03 5.442334346395e-04 0.0 
5.442334346395e-04 6.065464133813e-03 0.0 
0.0 0.0 -8.745614812816e-04 
-3.748877525410e-04 -1.800985621523e-03 0.0 
-1.800985621523e-03 3.574605346147e-03 0.0 
0.0 0.0 -1.139196670502e-03 
-1.359206623324e-03 -1.598338811102e-03 0.0 
-1.598338811102e-03 4.356288718259e-03 0.0 
0.0 0.0 -1.038619054332e-03 
-1.952425401121e-03 -1.122489104774e-03 0.0 
-1.122489104774e-03 5.808139918506e-03 0.0 
0.0 0.0 -1.061632825506e-03 
-7.352512267089e-04 -7.174892847169e-04 0.0 
-7.174892847169e-04 2.324934696345e-03 0.0 
0.0 0.0 -5.540246046759e-04 
-1.437645385880e-03 -1.599317358972e-03 0.0 
-1.599317358972e-03 5.870614125847e-03 0.0 
0.0 0.0 -1.211531131004e-03 
-1.154210490817e-03 -1.954082935906e-03 0.0 
-1.954082935906e-03 4.005717739264e-03 0.0 
0.0 0.0 -1.074148950826e-03 
-8.379192553434e-04 -5.906240485017e-04 0.0 
-5.906240485017e-04 2.576604047046e-03 0.0 
0.0 0.0 -5.876558844704e-04 
-1.197102623790e-03 -1.637680359765e-03 0.0 
-1.637680359765e-03 4.017415051808e-03 0.0 
0.0 0.0 -1.056762485630e-03 
-7.509293429896e-04 -1.933738058068e-03 0.0 
-1.933738058068e-03 3.044668356527e-03 0.0 
0.0 0.0 -9.830310058020e-04 
-3.848069222800e-04 -1.987035085230e-03 0.0 
-1.987035085230e-03 2.096507399408e-03 0.0 
0.0 0.0 -7.335859187690e-04 
-1.641529108376e-03 -8.260601691015e-04 0.0 
-8.260601691015e-04 4.922455749525e-03 0.0 
0.0 0.0 -1.057704792895e-03 
1.274028603033e-03 -1.869459937269e-04 0.0 
-1.869459937269e-04 -4.728594485301e-04 0.0 
0.0 0.0 -1.484808277242e-04 
8.391344234421e-04 -3.183235339587e-04 0.0 
-3.183235339587e-04 -2.967630892776e-04 0.0 
0.0 0.0 -1.070543391422e-04 
-1.665019363331e-03 -1.732448119605e-03 0.0 
-1.732448119605e-03 5.107282910853e-03 0.0 
0.0 0.0 -1.076850574752e-03 
-6.443609575616e-04 -8.027982188953e-04 0.0 
-8.027982188953e-04 2.093114862673e-03 0.0 
0.0 0.0 -5.127475950200e-04 
-1.433152566994e-03 -2.256582062865e-03 0.0 
-2.256582062865e-03 4.678524487026e-03 0.0 
0.0 0.0 -1.065643708224e-03 
-1.181624258185e-03 -2.541209283503e-03 0.0 
-2.541209283503e-03 4.198630913141e-03 0.0 
0.0 0.0 -1.061543848411e-03 
-2.864899867882e-04 -2.872572545388e-03 0.0 
-2.872572545388e-03 2.406784440249e-03 0.0 
0.0 0.0 -9.086976229117e-04 
1.281208818910e-03 -3.086935772070e-03 0.0 
-3.086935772070e-03 3.369465702636e-04 0.0 
0.0 0.0 -6.934951667886e-04 
-1.645375116221e-03 6.411920099951e-04 0.0 
6.411920099951e-04 7.711017833911e-03 0.0 
0.0 0.0 -1.137719822027e-03 
1.154207816654e-03 1.867319367673e-03 0.0 
1.867319367673e-03 -6.876363112737e-04 0.0 
0.0 0.0 -1.999592165914e-04 
-9.249733248304e-04 -1.654130041636e-03 0.0 
-1.654130041636e-03 3.362873241434e-03 0.0 
0.0 0.0 -9.992710862841e-04 
-3.877098979375e-04 -1.380494157509e-03 0.0 
-1.380494157509e-03 3.663297430763e-03 0.0 
0.0 0.0 -1.175533656463e-03 
-5.174404311479e-04 -5.539878075327e-04 0.0 
-5.539878075327e-04 1.742776399261e-03 0.0 
0.0 0.0 -4.908139796285e-04 
-1.654366313170e-03 2.025707585884e-04 0.0 
2.025707585884e-04 6.355277344232e-03 0.0 
0.0 0.0 -9.088859120638e-04 
-1.608026372927e-03 7.066471578212e-05 0.0 
7.066471578212e-05 5.908321987661e-03 0.0 
0.0 0.0 -8.416286270284e-04 
-1.832935889570e-04 -1.554120033244e-03 0.0 
-1.554120033244e-03 1.379295739965e-03 0.0 
0.0 0.0 -5.125723504322e-04 
-9.249495539582e-04 -2.182927448984e-03 0.0 
-2.182927448984e-03 4.540217093715e-03 0.0 
0.0 0.0 -1.158722036769e-03 
-1.708983070523e-03 5.831805314674e-04 0.0 
5.831805314674e-04 7.093076428562e-03 0.0 
0.0 0.0 -1.034898561726e-03 
-5.347835094169e-04 -8.712026877687e-04 0.0 
-8.712026877687e-04 1.955284966163e-03 0.0 
0.0 0.0 -6.087863386054e-04 
-1.641053002078e-03 8.278210871732e-04 0.0 
8.278210871732e-04 7.844844353227e-03 0.0 
0.0 0.0 -1.166520446339e-03 
-1.573669309360e-03 1.135775076811e-03 0.0 
1.135775076811e-03 7.785651679837e-03 0.0 
0.0 0.0 -1.169001632583e-03 
-5.801197933913e-04 -1.186925299187e-03 0.0 
-1.186925299187e-03 2.194197512368e-03 0.0 
0.0 0.0 -6.784273028471e-04 
3.325860372313e-04 2.756630050232e-03 0.0 
2.756630050232e-03 1.228114910237e-03 0.0 
0.0 0.0 -6.688718346291e-04 
-3.593200341485e-04 -1.692198470874e-03 0.0 
-1.692198470874e-03 1.863660251544e-03 0.0 
0.0 0.0 -6.447172360267e-04 
-1.851327153153e-03 -1.651837749691e-03 0.0 
-1.651837749691e-03 5.510234686298e-03 0.0 
0.0 0.0 -1.068438311093e-03 
-1.517049278155e-03 -1.208152311661e-03 0.0 
-1.208152311661e-03 4.665351215207e-03 0.0 
0.0 0.0 -1.047608655120e-03 
-1.588271255534e-03 2.440442444252e-03 0.0 
2.440442444252e-03 7.130284191767e-03 0.0 
0.0 0.0 -1.169529464977e-03 
-1.586290284398e-03 9.796528348583e-04 0.0 
9.796528348583e-04 7.658587432112e-03 0.0 
0.0 0.0 -1.140030709108e-03 
-1.655646109898e-03 -1.957177626158e-03 0.0 
-1.957177626158e-03 5.116194479746e-03 0.0 
0.0 0.0 -1.068248785331e-03 
-1.685997880852e-03 -1.784608356716e-03 0.0 
-1.784608356716e-03 5.105111501202e-03 0.0 
0.0 0.0 -1.017402529519e-03 
-2.876771207717e-04 -1.389411797297e-03 0.0 
-1.389411797297e-03 1.511875759344e-03 0.0 
0.0 0.0 -5.246565593881e-04 
-1.860731135260e-03 -1.457489852606e-03 0.0 
-1.457489852606e-03 5.487326218288e-03 0.0 
0.0 0.0 -1.032853941699e-03 
-1.642797758815e-03 9.181312676492e-04 0.0 
9.181312676492e-04 7.041840567815e-03 0.0 
0.0 0.0 -1.037144748481e-03 
-1.515109443870e-03 -1.227447560286e-03 0.0 
-1.227447560286e-03 4.684685552436e-03 0.0 
0.0 0.0 -1.069204617036e-03 
-1.671620005891e-03 2.929392441870e-04 0.0 
2.929392441870e-04 6.771202525829e-03 0.0 
0.0 0.0 -9.752741834902e-04 
-1.678948556331e-03 5.367956015661e-04 0.0 
5.367956015661e-04 7.330127940856e-03 0.0 
0.0 0.0 -1.071415751597e-03 
2.313268375330e-03 1.796314023182e-03 0.0 
1.796314023182e-03 -1.074261141593e-03 0.0 
0.0 0.0 -5.310031001729e-04 
-1.592584348350e-03 8.322792606474e-04 0.0 
8.322792606474e-04 7.512035850087e-03 0.0 
0.0 0.0 -1.110258267496e-03 
-1.248028584087e-03 -1.336863044777e-03 0.0 
-1.336863044777e-03 4.037984938667e-03 0.0 
0.0 0.0 -1.014964823884e-03 
-1.349668852610e-03 -1.596461481346e-03 0.0 
-1.596461481346e-03 4.366516516387e-03 0.0 
0.0 0.0 -1.071455489612e-03 
-8.215746796524e-04 -1.528227033612e-03 0.0 
-1.528227033612e-03 3.070718427055e-03 0.0 
0.0 0.0 -9.608678829247e-04 
1.835549677296e-04 -2.809528380429e-03 0.0 
-2.809528380429e-03 1.483313829287e-03 0.0 
0.0 0.0 -7.143723415785e-04 
-1.633555633710e-03 7.702002767988e-04 0.0 
7.702002767988e-04 6.885994191198e-03 0.0 
0.0 0.0 -1.007339817349e-03 
3.076530191659e-04 -3.054269635980e-03 0.0 
-3.054269635980e-03 1.447807107602e-03 0.0 
0.0 0.0 -7.523400543292e-04 
-5.051265774841e-04 -1.582649049219e-03 0.0 
-1.582649049219e-03 2.186388830496e-03 0.0 
0.0 0.0 -7.205409655765e-04 
-1.167533049478e-04 -1.421228658134e-03 0.0 
-1.421228658134e-03 1.178987498042e-03 0.0 
0.0 0.0 -4.201231086673e-04 
-1.691347074083e-03 4.318386709728e-04 0.0 
4.318386709728e-04 6.937090811669e-03 0.0 
0.0 0.0 -1.005115000480e-03 
-4.635122803593e-04 -1.604799167025e-03 0.0 
-1.604799167025e-03 2.085354868508e-03 0.0 
0.0 0.0 -6.950753949209e-04 
-1.191515342284e-03 -1.717007076640e-03 0.0 
-1.717007076640e-03 5.423834924642e-03 0.0 
0.0 0.0 -1.218716866995e-03 
-1.611990725284e-03 7.358230951730e-04 0.0 
7.358230951730e-04 7.120198208464e-03 0.0 
0.0 0.0 -1.043883448597e-03 
-1.702982719558e-03 -1.584997506959e-03 0.0 
-1.584997506959e-03 5.470541578607e-03 0.0 
0.0 0.0 -1.070373463590e-03 
-9.109045738307e-04 -2.286339166372e-04 0.0 
-2.286339166372e-04 4.268441463060e-03 0.0 
0.0 0.0 -1.284729618418e-03 
-1.071268175159e-03 -1.648454023553e-03 0.0 
-1.648454023553e-03 3.707169372543e-03 0.0 
0.0 0.0 -1.023311028316e-03 
-5.174967158518e-04 -1.184771327579e-03 0.0 
-1.184771327579e-03 2.030619627748e-03 0.0 
0.0 0.0 -6.484812479557e-04 
-2.326317737538e-04 -1.038651026586e-03 0.0 
-1.038651026586e-03 1.174275035768e-03 0.0 
0.0 0.0 -4.035613980062e-04 
-1.410090236189e-03 -2.406400776569e-03 0.0 
-2.406400776569e-03 4.648410275236e-03 0.0 
0.0 0.0 -1.051259780966e-03 
-1.600848466290e-03 5.345976904083e-04 0.0 
5.345976904083e-04 6.550294708413e-03 0.0 
0.0 0.0 -9.473489374553e-04 
-8.717253142324e-05 -9.933700925620e-04 0.0 
-9.933700925620e-04 8.344671106644e-04 0.0 
0.0 0.0 -3.202691053891e-04 
-6.027995719924e-04 -2.107392599842e-03 0.0 
-2.107392599842e-03 2.722751826872e-03 0.0 
0.0 0.0 -9.085509663768e-04 
-7.199860598078e-04 -4.341095348245e-04 0.0 
-4.341095348245e-04 2.121552428607e-03 0.0 
0.0 0.0 -4.196057652059e-04 
-1.682938822042e-03 3.318724932828e-04 0.0 
3.318724932828e-04 6.532037136807e-03 0.0 
0.0 0.0 -9.387834224271e-04 
-7.776326742692e-04 -1.884645157224e-03 0.0 
-1.884645157224e-03 3.094899202807e-03 0.0 
0.0 0.0 -9.909213861921e-04 
-1.231039957355e-03 -2.426325464904e-03 0.0 
-2.426325464904e-03 4.199347214172e-03 0.0 
0.0 0.0 -9.819879942351e-04 
-8.554599545912e-04 -1.459966539243e-03 0.0 
-1.459966539243e-03 3.093994812612e-03 0.0 
0.0 0.0 -9.237817853494e-04 
-1.614515104562e-03 2.789174945577e-04 0.0 
2.789174945577e-04 7.633843682432e-03 0.0 
0.0 0.0 -1.114809527198e-03 
-5.165996464755e-04 -1.902435422896e-03 0.0 
-1.902435422896e-03 2.384778332934e-03 0.0 
0.0 0.0 -8.006480084822e-04 
-1.128557246388e-03 -2.713813412197e-03 0.0 
-2.713813412197e-03 4.096504171839e-03 0.0 
0.0 0.0 -1.021386065992e-03 
3.769531236008e-04 -2.410295298791e-03 0.0 
-2.410295298791e-03 9.611755011410e-04 0.0 
0.0 0.0 -5.734836963179e-04 
-1.146759310470e-03 -2.656955500371e-03 0.0 
-2.656955500371e-03 4.139056916818e-03 0.0 
0.0 0.0 -1.043150860743e-03 
-1.375457983811e-03 -1.244246825682e-03 0.0 
-1.244246825682e-03 4.353109699875e-03 0.0 
0.0 0.0 -1.054662228279e-03 
-1.554003148348e-03 -1.878419659560e-03 0.0 
-1.878419659560e-03 5.069341272683e-03 0.0 
0.0 0.0 -1.041555045145e-03 
3.002499616426e-03 -7.287809856288e-04 0.0 
-7.287809856288e-04 -1.352929250409e-03 0.0 
0.0 0.0 -7.069587282928e-04 
-6.177242885591e-04 -4.890935474393e-04 0.0 
-4.890935474393e-04 2.000133674606e-03 0.0 
0.0 0.0 -5.285791946032e-04 
-1.609261505607e-03 9.637114852810e-05 0.0 
9.637114852810e-05 6.165456359686e-03 0.0 
0.0 0.0 -8.787268422831e-04 
6.987156508361e-04 -1.946712657170e-03 0.0 
-1.946712657170e-03 1.033985256572e-03 0.0 
0.0 0.0 -7.425861031749e-04 
3.405430775163e-04 3.191948666083e-03 0.0 
3.191948666083e-03 1.485409776068e-03 0.0 
0.0 0.0 -7.825512229649e-04 
-1.644262011324e-03 1.659911649759e-04 0.0 
1.659911649759e-04 6.584724351472e-03 0.0 
0.0 0.0 -9.453210152248e-04 
6.455202986104e-04 -2.635854245695e-03 0.0 
-2.635854245695e-03 6.894465372206e-04 0.0 
0.0 0.0 -5.721286439276e-04 
-1.681255032869e-03 9.721382689111e-04 0.0 
9.721382689111e-04 6.557103597372e-03 0.0 
0.0 0.0 -9.642804585795e-04 
-6.124308423891e-04 -5.450173225678e-04 0.0 
-5.450173225678e-04 1.850421424375e-03 0.0 
0.0 0.0 -3.816933993452e-04 
-1.231036729784e-03 -2.253664933021e-03 0.0 
-2.253664933021e-03 5.042416419642e-03 0.0 
0.0 0.0 -1.150402778756e-03 
7.350617248358e-04 -1.287476273638e-03 0.0 
-1.287476273638e-03 1.272883254993e-03 0.0 
0.0 0.0 -8.605478484982e-04 
6.223710608225e-04 1.356379083397e-03 0.0 
1.356379083397e-03 1.985099964088e-03 0.0 
0.0 0.0 -1.037051012011e-03 
-1.598102879926e-03 7.448720335872e-04 0.0 
7.448720335872e-04 8.095744984387e-03 0.0 
0.0 0.0 -1.204463612412e-03 
8.919152436734e-05 -3.143989424638e-03 0.0 
-3.143989424638e-03 1.851557330956e-03 0.0 
0.0 0.0 -8.317495094241e-04 
-4.309306607764e-04 -9.183848167176e-04 0.0 
-9.183848167176e-04 1.661245254261e-03 0.0 
0.0 0.0 -5.272776829218e-04 
-5.215676815475e-04 -3.050968300431e-03 0.0 
-3.050968300431e-03 3.002352665044e-03 0.0 
0.0 0.0 -1.027200950222e-03 
-1.049023862644e-03 -1.741518653201e-03 0.0 
-1.741518653201e-03 4.976635689622e-03 0.0 
0.0 0.0 -1.189963100592e-03 
9.320234363391e-04 -2.596047537173e-03 0.0 
-2.596047537173e-03 3.625727901238e-04 0.0 
0.0 0.0 -5.548269541984e-04 
-1.645253786717e-03 -2.142300707641e-03 0.0 
-2.142300707641e-03 5.116342603387e-03 0.0 
0.0 0.0 -1.056575865346e-03 
-1.668373394945e-03 3.866502142135e-04 0.0 
3.866502142135e-04 7.172333763355e-03 0.0 
0.0 0.0 -1.041631482750e-03 
1.707610751817e-03 -3.111302323773e-03 0.0 
-3.111302323773e-03 2.006678016111e-05 0.0 
0.0 0.0 -7.404332279907e-04 
-8.518987020310e-04 -2.879189791171e-03 0.0 
-2.879189791171e-03 3.589652711545e-03 0.0 
0.0 0.0 -1.034177093206e-03 
-1.689258382171e-03 3.631400807220e-04 0.0 
3.631400807220e-04 6.026727173804e-03 0.0 
0.0 0.0 -8.663127257150e-04 
-8.305596344540e-04 -9.136388392921e-04 0.0 
-9.136388392921e-04 2.720781083117e-03 0.0 
0.0 0.0 -7.057144296542e-04 
-4.174774710502e-04 -2.264727665933e-03 0.0 
-2.264727665933e-03 2.338052704739e-03 0.0 
0.0 0.0 -8.231036715810e-04 
1.803968687695e-04 3.742029911528e-03 0.0 
3.742029911528e-03 2.055326787370e-03 0.0 
0.0 0.0 -9.358934819731e-04 
-1.362318107691e-03 -2.168484734475e-03 0.0 
-2.168484734475e-03 4.618346883937e-03 0.0 
0.0 0.0 -1.012809740122e-03 
-6.445707195621e-05 3.204089462648e-03 0.0 
3.204089462648e-03 2.166873657449e-03 0.0 
0.0 0.0 -9.010356794969e-04 
5.513709198924e-04 3.609450072054e-03 0.0 
3.609450072054e-03 1.451733722049e-03 0.0 
0.0 0.0 -8.584734179747e-04 
-1.663785911262e-03 9.479908707512e-04 0.0 
9.479908707512e-04 6.801753296704e-03 0.0 
0.0 0.0 -1.000670320419e-03 
-1.603261119446e-03 5.580378966873e-04 0.0 
5.580378966873e-04 6.304876685805e-03 0.0 
0.0 0.0 -9.110000341593e-04 
-1.665053571431e-03 8.222814637678e-04 0.0 
8.222814637678e-04 6.156291516455e-03 0.0 
0.0 0.0 -8.984003255416e-04 
-1.378097458895e-03 -1.307048665384e-03 0.0 
-1.307048665384e-03 4.348190678149e-03 0.0 
0.0 0.0 -1.034446146726e-03 
-6.901682956972e-04 -2.185652284413e-03 0.0 
-2.185652284413e-03 4.019713840668e-03 0.0 
0.0 0.0 -1.130631056169e-03 
-1.834308716731e-04 -3.140526153133e-03 0.0 
-3.140526153133e-03 2.359250978041e-03 0.0 
0.0 0.0 -9.324943313007e-04 
-1.664409897791e-03 2.283299940873e-04 0.0 
2.283299940873e-04 6.118881933301e-03 0.0 
0.0 0.0 -8.720525204519e-04 
-1.540055594527e-03 2.603535571495e-03 0.0 
2.603535571495e-03 6.865325717395e-03 0.0 
0.0 0.0 -1.193584144721e-03 
3.472050528190e-04 1.692564590117e-03 0.0 
1.692564590117e-03 2.541247573186e-03 0.0 
0.0 0.0 -1.073433710836e-03 
-1.128039575521e-03 -2.445102979842e-03 0.0 
-2.445102979842e-03 4.119062361786e-03 0.0 
0.0 0.0 -9.841343610905e-04 
-1.618130106290e-03 8.767059940841e-04 0.0 
8.767059940841e-04 7.278368023729e-03 0.0 
0.0 0.0 -1.073677668998e-03 
-6.910390954277e-05 -2.799918663238e-03 0.0 
-2.799918663238e-03 1.917780934052e-03 0.0 
0.0 0.0 -7.922901533612e-04 
-2.515921695526e-04 -2.585539987467e-03 0.0 
-2.585539987467e-03 2.152735873912e-03 0.0 
0.0 0.0 -8.147758732969e-04 
-3.310614028043e-04 -1.379924337061e-03 0.0 
-1.379924337061e-03 1.616149347076e-03 0.0 
0.0 0.0 -5.507519761165e-04 
-5.011752582021e-04 -3.030712813107e-03 0.0 
-3.030712813107e-03 2.924383664169e-03 0.0 
0.0 0.0 -9.894786617912e-04 
-4.694395913292e-04 -2.445221033123e-03 0.0 
-2.445221033123e-03 2.569902493715e-03 0.0 
0.0 0.0 -9.001983867369e-04 
-1.710187933828e-03 4.633984892961e-04 0.0 
4.633984892961e-04 6.694041267773e-03 0.0 
0.0 0.0 -9.686535345556e-04 
-1.726289188827e-03 4.896054940225e-04 0.0 
4.896054940225e-04 6.449117765340e-03 0.0 
0.0 0.0 -9.322463471790e-04 
2.416944889244e-03 5.439879453653e-04 0.0 
5.439879453653e-04 -1.208818724836e-03 0.0 
0.0 0.0 -5.177683561747e-04 
-1.928901237433e-04 -2.408049599402e-03 0.0 
-2.408049599402e-03 1.916746904624e-03 0.0 
0.0 0.0 -7.387957632348e-04 
2.990366271950e-03 1.613745370932e-03 0.0 
1.613745370932e-03 -1.371577636674e-03 0.0 
0.0 0.0 -6.937665579755e-04 
-3.910486537430e-04 -2.315216698545e-03 0.0 
-2.315216698545e-03 2.304304739270e-03 0.0 
0.0 0.0 -8.199668937971e-04 
-2.230223782308e-04 -2.682222528879e-03 0.0 
-2.682222528879e-03 2.152181418268e-03 0.0 
0.0 0.0 -8.267824457303e-04 
-4.073029906979e-04 -1.294483440297e-03 0.0 
-1.294483440297e-03 1.772331589387e-03 0.0 
0.0 0.0 -5.850122565809e-04 
-4.258807302887e-04 -2.144389728424e-03 0.0 
-2.144389728424e-03 3.478718025925e-03 0.0 
0.0 0.0 -1.101849228969e-03 
4.193172772845e-04 -3.233569204744e-03 0.0 
-3.233569204744e-03 1.400177349689e-03 0.0 
0.0 0.0 -7.797834115600e-04 
-1.646879822787e-03 4.813878958504e-04 0.0 
4.813878958504e-04 7.564621706005e-03 0.0 
0.0 0.0 -1.107989045227e-03 
6.164328486864e-04 -3.141645067701e-03 0.0 
-3.141645067701e-03 1.094713369857e-03 0.0 
0.0 0.0 -7.333483793757e-04 
-5.352671715167e-04 -2.920481306985e-03 0.0 
-2.920481306985e-03 2.976534494236e-03 0.0 
0.0 0.0 -9.268471029391e-04 
3.090740504692e-05 -3.263078096127e-03 0.0 
-3.263078096127e-03 2.029516789361e-03 0.0 
0.0 0.0 -8.830389404604e-04 
1.224821345307e-03 3.216271527602e-03 0.0 
3.216271527602e-03 4.534564749945e-04 0.0 
0.0 0.0 -7.192619229864e-04 
-4.591680976874e-04 -1.267727629031e-03 0.0 
-1.267727629031e-03 1.902437159688e-03 0.0 
0.0 0.0 -6.185438837147e-04 
-8.295759423418e-04 -1.747729159177e-03 0.0 
-1.747729159177e-03 4.457598420488e-03 0.0 
0.0 0.0 -1.161691925552e-03 
-8.640451209017e-04 -2.074084677624e-03 0.0 
-2.074084677624e-03 4.658509439049e-03 0.0 
0.0 0.0 -1.198716319349e-03 
-6.013355258858e-04 3.714306523016e-03 0.0 
3.714306523016e-03 3.360817493125e-03 0.0 
0.0 0.0 -9.650368815299e-04 
-1.923559704036e-05 -2.994572033542e-03 0.0 
-2.994572033542e-03 1.948727475502e-03 0.0 
0.0 0.0 -8.269250907692e-04 
-2.503696762219e-04 -3.166835997765e-03 0.0 
-3.166835997765e-03 2.485701371906e-03 0.0 
0.0 0.0 -9.354962741733e-04 
-1.647815013080e-03 8.021683468908e-04 0.0 
8.021683468908e-04 6.643407279142e-03 0.0 
0.0 0.0 -9.708520278613e-04 
-3.181114656463e-04 -2.713015915343e-03 0.0 
-2.713015915343e-03 2.377429006136e-03 0.0 
0.0 0.0 -8.825646602100e-04 
7.116670481849e-04 3.351796189116e-03 0.0 
3.351796189116e-03 1.105566406541e-03 0.0 
0.0 0.0 -7.788143377395e-04 
-5.501781971430e-04 -1.884487968291e-03 0.0 
-1.884487968291e-03 2.464549120431e-03 0.0 
0.0 0.0 -8.204446814089e-04 
9.957483789486e-04 -2.931560812442e-03 0.0 
-2.931560812442e-03 3.486105119444e-04 0.0 
0.0 0.0 -5.761538103827e-04 
1.170702144068e-04 -2.917551374595e-03 0.0 
-2.917551374595e-03 1.660101911363e-03 0.0 
0.0 0.0 -7.616451967584e-04 
-5.960830469200e-04 -1.478493121431e-03 0.0 
-1.478493121431e-03 2.390521820873e-03 0.0 
0.0 0.0 -7.690451888369e-04 
-7.193147455851e-04 -1.069003876046e-03 0.0 
-1.069003876046e-03 2.479314286133e-03 0.0 
0.0 0.0 -6.849754419779e-04 
-1.850126680382e-05 -3.140240111362e-03 0.0 
-3.140240111362e-03 2.040450553655e-03 0.0 
0.0 0.0 -8.665496943648e-04 
-8.517286139436e-04 -2.699031265188e-03 0.0 
-2.699031265188e-03 3.572094775893e-03 0.0 
0.0 0.0 -9.554846610150e-04 
-9.258628841067e-04 3.334973100130e-03 0.0 
3.334973100130e-03 4.800766489173e-03 0.0 
0.0 0.0 -1.128610778606e-03 
1.795476015728e-03 -3.745896555992e-04 0.0 
-3.745896555992e-04 -4.681407310308e-04 0.0 
0.0 0.0 -1.007271482096e-04 
1.477477984761e-03 -2.160820890410e-03 0.0 
-2.160820890410e-03 -1.640262078733e-04 0.0 
0.0 0.0 -5.629079043802e-04 
9.457248714060e-04 -2.859194649623e-03 0.0 
-2.859194649623e-03 6.047505636496e-04 0.0 
0.0 0.0 -6.644894721667e-04 
2.064739481844e-04 -3.194226446081e-03 0.0 
-3.194226446081e-03 1.689929388459e-03 0.0 
0.0 0.0 -8.127442871328e-04 
-1.656928892650e-03 8.151295774597e-04 0.0 
8.151295774597e-04 6.399838907814e-03 0.0 
0.0 0.0 -9.344164207832e-04 
2.545948249673e-04 -3.270064507394e-03 0.0 
-3.270064507394e-03 1.662466157556e-03 0.0 
0.0 0.0 -8.215975639385e-04 
-6.717590179400e-04 -1.743398916895e-03 0.0 
-1.743398916895e-03 2.730040439290e-03 0.0 
0.0 0.0 -8.821206091502e-04 
2.940147133768e-04 -2.953116785718e-03 0.0 
-2.953116785718e-03 1.404914365559e-03 0.0 
0.0 0.0 -7.281124624012e-04 
-1.597640344519e-03 6.950049643667e-04 0.0 
6.950049643667e-04 7.352823299798e-03 0.0 
0.0 0.0 -1.080452943103e-03 
-7.063133806754e-04 -1.717335593378e-03 0.0 
-1.717335593378e-03 2.816704678048e-03 0.0 
0.0 0.0 -9.044534131596e-04 
-1.993759384210e-04 -8.715145545495e-04 0.0 
-8.715145545495e-04 1.025473523807e-03 0.0 
0.0 0.0 -3.540418223084e-04 
-3.396899465816e-04 -1.001666654583e-03 0.0 
-1.001666654583e-03 1.438762041900e-03 0.0 
0.0 0.0 -4.710308979937e-04 
8.199892085620e-04 -2.799788621547e-03 0.0 
-2.799788621547e-03 6.522727846800e-04 0.0 
0.0 0.0 -6.309694256751e-04 
9.078868863826e-06 -2.738074417405e-03 0.0 
-2.738074417405e-03 1.733216879781e-03 0.0 
0.0 0.0 -7.466981779906e-04 
1.103409613190e-03 -2.545332485906e-03 0.0 
-2.545332485906e-03 3.291592924430e-04 0.0 
0.0 0.0 -6.139581024141e-04 
4.609298661722e-04 -2.917080397583e-03 0.0 
-2.917080397583e-03 1.153463791195e-03 0.0 
0.0 0.0 -6.918829960147e-04 
6.174604848126e-04 -2.601794133831e-03 0.0 
-2.601794133831e-03 7.903429974379e-04 0.0 
0.0 0.0 -6.033443495359e-04 
-4.149645807323e-04 -9.518115957764e-04 0.0 
-9.518115957764e-04 1.570452979312e-03 0.0 
0.0 0.0 -4.579617190245e-04 
-1.800428115941e-03 6.964731656622e-04 0.0 
6.964731656622e-04 6.067707299324e-03 0.0 
0.0 0.0 -8.885078876198e-04 
-6.431842488821e-04 -1.481881899324e-03 0.0 
-1.481881899324e-03 2.527966751562e-03 0.0 
0.0 0.0 -8.077639297199e-04 
-3.542476587942e-04 -1.933324559496e-03 0.0 
-1.933324559496e-03 3.366073220136e-03 0.0 
0.0 0.0 -1.067401112627e-03 
-7.301428169590e-04 3.365159558875e-03 0.0 
3.365159558875e-03 4.241956460408e-03 0.0 
0.0 0.0 -1.093380752811e-03 
-1.742519381031e-03 2.013539484841e-03 0.0 
2.013539484841e-03 5.514346305573e-03 0.0 
0.0 0.0 -9.013836717722e-04 
-1.638703746775e-03 1.447396884762e-03 0.0 
1.447396884762e-03 7.437681461836e-03 0.0 
0.0 0.0 -1.126084317643e-03 
-1.069717058735e-03 3.316002143618e-03 0.0 
3.316002143618e-03 5.313047036020e-03 0.0 
0.0 0.0 -1.164310864388e-03 
2.494431731371e-03 1.270414999422e-03 0.0 
1.270414999422e-03 -1.135062232485e-03 0.0 
0.0 0.0 -5.825869280942e-04 
-6.518857880869e-04 3.512796865886e-03 0.0 
3.512796865886e-03 3.785510000148e-03 0.0 
0.0 0.0 -1.029042339204e-03 
9.845026743479e-04 -3.000223110364e-03 0.0 
-3.000223110364e-03 4.820355227438e-04 0.0 
0.0 0.0 -6.285163701822e-04 
9.169108146703e-06 -3.021931346183e-03 0.0 
-3.021931346183e-03 1.914436153364e-03 0.0 
0.0 0.0 -8.244022549332e-04 
1.935620549985e-03 2.666280335606e-03 0.0 
2.666280335606e-03 -6.114645168814e-04 0.0 
0.0 0.0 -5.674954427585e-04 
2.434658683002e-03 -2.349214516508e-03 0.0 
-2.349214516508e-03 -7.291186468832e-04 0.0 
0.0 0.0 -7.309457297651e-04 
8.115117363057e-04 -2.741951264447e-03 0.0 
-2.741951264447e-03 6.655581968644e-04 0.0 
0.0 0.0 -6.330299713586e-04 
-4.450599208505e-04 -2.552111804523e-03 0.0 
-2.552111804523e-03 2.573524769895e-03 0.0 
0.0 0.0 -9.121992210190e-04 
7.181167573208e-04 -2.648058741041e-03 0.0 
-2.648058741041e-03 7.077719066917e-04 0.0 
0.0 0.0 -6.110951417196e-04 
8.603807904587e-04 -2.481932762305e-03 0.0 
-2.481932762305e-03 4.907815371097e-04 0.0 
0.0 0.0 -5.790695689579e-04 
-7.220048660239e-04 -1.343093892557e-03 0.0 
-1.343093892557e-03 2.702939106315e-03 0.0 
0.0 0.0 -8.489718172674e-04 
4.166245934909e-04 -3.209488587121e-03 0.0 
-3.209488587121e-03 1.389160896237e-03 0.0 
0.0 0.0 -7.739080670262e-04 
1.094305293400e-03 -2.135240774913e-03 0.0 
-2.135240774913e-03 1.298780956037e-04 0.0 
0.0 0.0 -5.246500238586e-04 
1.735397459642e-03 -1.790668401916e-03 0.0 
-1.790668401916e-03 -5.241960348096e-04 0.0 
0.0 0.0 -5.190863249281e-04 
-2.953118235533e-05 -2.621242279383e-03 0.0 
-2.621242279383e-03 1.729246141722e-03 0.0 
0.0 0.0 -7.284492682998e-04 
9.068086297483e-04 -1.885631159827e-04 0.0 
-1.885631159827e-04 1.202081875786e-03 0.0 
0.0 0.0 -9.038102166577e-04 
-1.735518635242e-03 6.223275928078e-04 0.0 
6.223275928078e-04 6.851645939463e-03 0.0 
0.0 0.0 -9.984673180475e-04 
2.290762220203e-03 -1.318712250617e-03 0.0 
-1.318712250617e-03 -1.027744525883e-03 0.0 
0.0 0.0 -5.412932975660e-04 
-5.654229652914e-04 -1.684995955007e-03 0.0 
-1.684995955007e-03 3.940963543082e-03 0.0 
0.0 0.0 -1.133495712197e-03 
1.398246767020e-03 -3.216441844472e-03 0.0 
-3.216441844472e-03 9.154783719246e-05 0.0 
0.0 0.0 -6.384834018056e-04 
-5.648051924757e-04 -1.107091868774e-03 0.0 
-1.107091868774e-03 4.182104582450e-03 0.0 
0.0 0.0 -1.208505026952e-03 
7.869283801720e-04 -2.957311971993e-03 0.0 
-2.957311971993e-03 8.055017795032e-04 0.0 
0.0 0.0 -6.824700684322e-04 
-1.163518298392e-03 3.423968427013e-03 0.0 
3.423968427013e-03 5.864548636599e-03 0.0 
0.0 0.0 -1.203459118631e-03 
-1.226888468028e-03 3.131439724330e-03 0.0 
3.131439724330e-03 4.473148429932e-03 0.0 
0.0 0.0 -9.144069900286e-04 
8.146311757364e-04 -2.866044643526e-03 0.0 
-2.866044643526e-03 7.279520038073e-04 0.0 
0.0 0.0 -6.611070769473e-04 
-1.669436221743e-03 2.273068641771e-03 0.0 
2.273068641771e-03 5.485810747731e-03 0.0 
0.0 0.0 -9.292863832265e-04 
-1.634774651159e-03 1.926043724267e-03 0.0 
1.926043724267e-03 7.350223961808e-03 0.0 
0.0 0.0 -1.148369591821e-03 
9.266283371582e-04 -2.700818447501e-03 0.0 
-2.700818447501e-03 5.423083712425e-04 0.0 
0.0 0.0 -6.295443036003e-04 
1.446287545932e-03 3.073556646394e-03 0.0 
3.073556646394e-03 1.275065551695e-04 0.0 
0.0 0.0 -6.744831861864e-04 
-1.574055992192e-03 2.506613091125e-03 0.0 
2.506613091125e-03 5.429733742182e-03 0.0 
0.0 0.0 -9.572423940436e-04 
2.774777350088e-04 3.373231360524e-03 0.0 
3.373231360524e-03 1.692140773898e-03 0.0 
0.0 0.0 -8.441222181028e-04 
6.686313295052e-04 -2.714647588195e-03 0.0 
-2.714647588195e-03 7.978373867195e-04 0.0 
0.0 0.0 -6.284865926677e-04 
-1.493705396886e-03 1.751261100369e-03 0.0 
1.751261100369e-03 8.145178326217e-03 0.0 
0.0 0.0 -1.259077240559e-03 
2.909241618845e-04 -2.201062680806e-03 0.0 
-2.201062680806e-03 9.491865650592e-04 0.0 
0.0 0.0 -5.314760258330e-04 
-1.393014638960e-04 7.789838351986e-04 0.0 
7.789838351986e-04 3.592179503210e-03 0.0 
0.0 0.0 -1.194426649262e-03 
-1.554233915862e-03 9.163364700516e-04 0.0 
9.163364700516e-04 7.887220632938e-03 0.0 
0.0 0.0 -1.175981821618e-03 
7.026255322913e-04 -6.834983021250e-04 0.0 
-6.834983021250e-04 1.598542050998e-03 0.0 
0.0 0.0 -9.862146785524e-04 
-1.631602720906e-03 6.968439340323e-04 0.0 
6.968439340323e-04 6.226177705545e-03 0.0 
0.0 0.0 -9.041796124736e-04 
-1.724067531766e-03 9.331717393615e-04 0.0 
9.331717393615e-04 7.373782435820e-03 0.0 
0.0 0.0 -1.094228678348e-03 
1.385482593825e-03 -2.030831099799e-03 0.0 
-2.030831099799e-03 -2.112692183438e-04 0.0 
0.0 0.0 -5.032343037776e-04 
1.999660538583e-03 5.238969397191e-04 0.0 
5.238969397191e-04 -8.881969286874e-04 0.0 
0.0 0.0 -4.763415470983e-04 
-1.569811974871e-03 1.587727422304e-03 0.0 
1.587727422304e-03 7.784527269149e-03 0.0 
0.0 0.0 -1.191782302182e-03 
-9.330696091187e-04 -2.330125100931e-03 0.0 
-2.330125100931e-03 4.026828994110e-03 0.0 
0.0 0.0 -1.021464098896e-03 
-1.750430558126e-03 7.997395592586e-04 0.0 
7.997395592586e-04 6.994945578504e-03 0.0 
0.0 0.0 -1.028225029406e-03 
5.898974709842e-04 -1.490603234069e-03 0.0 
-1.490603234069e-03 1.573546015772e-03 0.0 
0.0 0.0 -9.271900657525e-04 
1.226199290364e-03 -3.133713578343e-03 0.0 
-3.133713578343e-03 4.720804484946e-04 0.0 
0.0 0.0 -7.278341737966e-04 
-1.755813224466e-03 9.900590192067e-04 0.0 
9.900590192067e-04 7.121505765451e-03 0.0 
0.0 0.0 -1.057861461704e-03 
-1.020230912339e-03 3.255501544884e-03 0.0 
3.255501544884e-03 5.845285965923e-03 0.0 
0.0 0.0 -1.268085107495e-03 
-8.098027228146e-04 -1.517662878241e-03 0.0 
-1.517662878241e-03 4.547334409745e-03 0.0 
0.0 0.0 -1.202195648613e-03 
7.610076650519e-05 -3.235453866840e-03 0.0 
-3.235453866840e-03 1.932455716982e-03 0.0 
0.0 0.0 -8.608099214947e-04 
-1.689275270792e-03 3.359122450795e-04 0.0 
3.359122450795e-04 6.273459191033e-03 0.0 
0.0 0.0 -9.020111041354e-04 
-1.632588233776e-03 6.974904632293e-04 0.0 
6.974904632293e-04 5.987209936235e-03 0.0 
0.0 0.0 -8.677534307045e-04 
6.088392128265e-04 -2.822537476632e-03 0.0 
-2.822537476632e-03 9.202084504230e-04 0.0 
0.0 0.0 -6.553061413927e-04 
-6.443122983676e-04 -2.499706879338e-03 0.0 
-2.499706879338e-03 3.462729029903e-03 0.0 
0.0 0.0 -9.927925938929e-04 
-4.755079025855e-04 -2.238751106190e-03 0.0 
-2.238751106190e-03 3.389731406328e-03 0.0 
0.0 0.0 -1.030113165296e-03 
-2.437047899643e-04 -1.231397142334e-03 0.0 
-1.231397142334e-03 1.345917923955e-03 0.0 
0.0 0.0 -4.426674065645e-04 
2.847402133071e-03 1.832321194303e-03 0.0 
1.832321194303e-03 -1.311219245011e-03 0.0 
0.0 0.0 -6.583640948828e-04 
2.391065633377e-03 -7.030644689003e-04 0.0 
-7.030644689003e-04 -1.190042454993e-03 0.0 
0.0 0.0 -5.147242193072e-04 
1.968235762107e-03 -1.858343853594e-03 0.0 
-1.858343853594e-03 -8.473461408074e-04 0.0 
0.0 0.0 -4.803812662710e-04 
7.235144373202e-04 3.006853977664e-03 0.0 
3.006853977664e-03 8.982936940798e-04 0.0 
0.0 0.0 -6.950606277428e-04 
-1.594047644543e-03 1.198778980109e-03 0.0 
1.198778980109e-03 8.076345274144e-03 0.0 
0.0 0.0 -1.225426844749e-03 
-1.544957883650e-03 2.714187828761e-03 0.0 
2.714187828761e-03 6.803087963728e-03 0.0 
0.0 0.0 -1.162686153705e-03 
-1.603786220280e-03 5.743670581703e-04 0.0 
5.743670581703e-04 7.933574954986e-03 0.0 
0.0 0.0 -1.173632101657e-03 
-3.176362262569e-04 3.157680560962e-03 0.0 
3.157680560962e-03 2.644961507973e-03 0.0 
0.0 0.0 -9.922833334649e-04 
-1.686655624371e-03 1.762581410411e-03 0.0 
1.762581410411e-03 7.001695775819e-03 0.0 
0.0 0.0 -1.082713561900e-03 
-8.312311815285e-04 -2.893135141048e-03 0.0 
-2.893135141048e-03 3.527094208899e-03 0.0 
0.0 0.0 -1.005652543148e-03 
-1.566323459329e-03 1.337573114455e-03 0.0 
1.337573114455e-03 7.933955714899e-03 0.0 
0.0 0.0 -1.198415070424e-03 
-1.781797660459e-03 1.042297273604e-03 0.0 
1.042297273604e-03 6.860193468522e-03 0.0 
0.0 0.0 -1.021631336281e-03 
1.651541321597e-04 -3.069309819670e-03 0.0 
-3.069309819670e-03 1.677218775847e-03 0.0 
0.0 0.0 -7.895883891459e-04 
2.729895556258e-03 -3.816222067232e-05 0.0 
-3.816222067232e-05 -1.329892949249e-03 0.0 
0.0 0.0 -6.000011172896e-04 
-1.678629276342e-03 1.301261135869e-03 0.0 
1.301261135869e-03 7.071604861536e-03 0.0 
0.0 0.0 -1.060111126929e-03 
-1.674561038714e-03 1.060445620383e-03 0.0 
1.060445620383e-03 7.740408073351e-03 0.0 
0.0 0.0 -1.160283895044e-03 
-1.648358362413e-03 1.080960708592e-03 0.0 
1.080960708592e-03 7.188263314287e-03 0.0 
0.0 0.0 -1.066842251349e-03 
-1.675485628863e-03 1.117801916471e-03 0.0 
1.117801916471e-03 6.945334177936e-03 0.0 
0.0 0.0 -1.030428295937e-03 
-9.047694827226e-04 -1.891564198184e-03 0.0 
-1.891564198184e-03 4.463027696646e-03 0.0 
0.0 0.0 -1.124756152480e-03 
-3.636288725448e-05 1.185092302766e-03 0.0 
1.185092302766e-03 3.361330425582e-03 0.0 
0.0 0.0 -1.167530213646e-03 
-6.417903686716e-04 -1.936633603608e-03 0.0 
-1.936633603608e-03 3.924941189051e-03 0.0 
0.0 0.0 -1.096139997395e-03 
-6.252750457425e-04 -2.981929184320e-03 0.0 
-2.981929184320e-03 3.101913023538e-03 0.0 
0.0 0.0 -9.455690924112e-04 
-9.133871784712e-04 2.307173197510e-03 0.0 
2.307173197510e-03 3.388339270904e-03 0.0 
0.0 0.0 -8.706649152390e-04 
5.857890875911e-04 -1.165024071921e-04 0.0 
-1.165024071921e-04 1.961403903997e-03 0.0 
0.0 0.0 -1.057160997780e-03 
-1.717096850446e-03 1.897490647652e-03 0.0 
1.897490647652e-03 6.421227655064e-03 0.0 
0.0 0.0 -1.010795753303e-03 
-6.313703935137e-04 -1.096821766549e-03 0.0 
-1.096821766549e-03 2.333660856895e-03 0.0 
0.0 0.0 -7.295530557346e-04 
2.168606455157e-03 -1.381490462849e-03 0.0 
-1.381490462849e-03 -1.049895932277e-03 0.0 
0.0 0.0 -4.794473669488e-04 
1.521212506514e-03 -1.320220071534e-03 0.0 
-1.320220071534e-03 -4.274634539344e-04 0.0 
0.0 0.0 -4.687495939627e-04 
1.466355838383e-03 4.602651966615e-04 0.0 
4.602651966615e-04 -3.624189179882e-05 0.0 
0.0 0.0 -6.129059771076e-04 
2.718390450017e-03 -6.950340879152e-04 0.0 
-6.950340879152e-04 -1.327258381844e-03 0.0 
0.0 0.0 -5.961994577885e-04 
2.586833026508e-03 -8.035069926998e-04 0.0 
-8.035069926998e-04 -1.237368745637e-03 0.0 
0.0 0.0 -5.783418346592e-04 
1.064335855090e-03 3.871345564871e-04 0.0 
3.871345564871e-04 8.878223967010e-04 0.0 
0.0 0.0 -8.366392507678e-04 
-8.479776809358e-04 2.867626528881e-03 0.0 
2.867626528881e-03 3.485177703647e-03 0.0 
0.0 0.0 -9.312627088267e-04 
-1.048673303190e-04 -3.229543423404e-03 0.0 
-3.229543423404e-03 2.260338218225e-03 0.0 
0.0 0.0 -9.237732376742e-04 
-1.787010102696e-03 8.860662194747e-04 0.0 
8.860662194747e-04 6.472161902549e-03 0.0 
0.0 0.0 -9.556638187253e-04 
-1.534511977861e-03 4.226734842399e-04 0.0 
4.226734842399e-04 5.386267654424e-03 0.0 
0.0 0.0 -7.638029664831e-04 
2.694004404959e-04 1.692225150283e-03 0.0 
1.692225150283e-03 6.665564429896e-04 0.0 
0.0 0.0 -4.011243786367e-04 
-2.485044760616e-04 -3.138222606519e-03 0.0 
-3.138222606519e-03 2.491915244985e-03 0.0 
0.0 0.0 -9.614617581102e-04 
5.241395104488e-04 -3.820643100564e-04 0.0 
-3.820643100564e-04 1.948070463321e-03 0.0 
0.0 0.0 -1.051835763028e-03 
-1.541512456067e-03 2.665389691955e-03 0.0 
2.665389691955e-03 7.146978989113e-03 0.0 
0.0 0.0 -1.196871286280e-03 
2.182111420875e-03 6.070828475979e-04 0.0 
6.070828475979e-04 -1.164368423359e-03 0.0 
0.0 0.0 -4.361755703639e-04 
-3.379696423289e-04 -3.147707957552e-03 0.0 
-3.147707957552e-03 2.662191701970e-03 0.0 
0.0 0.0 -9.747355338013e-04 
-1.758283285419e-03 6.606645787396e-04 0.0 
6.606645787396e-04 6.605527542412e-03 0.0 
0.0 0.0 -9.620958722924e-04 
2.572595780151e-04 1.907531255629e-03 0.0 
1.907531255629e-03 8.125007966372e-04 0.0 
0.0 0.0 -4.584687319938e-04 
7.215561543483e-04 7.088538436549e-05 0.0 
7.088538436549e-05 1.489224739350e-03 0.0 
0.0 0.0 -9.474775258706e-04 
1.699588376700e-03 -2.701395224992e-04 0.0 
-2.701395224992e-04 -6.431195081869e-04 0.0 
0.0 0.0 -4.527723722201e-04 
-1.123050040693e-03 2.722320328238e-03 0.0 
2.722320328238e-03 3.963607121214e-03 0.0 
0.0 0.0 -8.880452441695e-04 
-6.861996964778e-04 -2.718033399413e-03 0.0 
-2.718033399413e-03 3.467552900927e-03 0.0 
0.0 0.0 -1.027225276160e-03 
2.084513055480e-03 -2.969236307345e-03 0.0 
-2.969236307345e-03 -6.426223811324e-04 0.0 
0.0 0.0 -6.179531461491e-04 
-5.320903479306e-04 -2.451811030805e-03 0.0 
-2.451811030805e-03 3.446359028726e-03 0.0 
0.0 0.0 -1.064556537081e-03 
-5.475761825290e-04 -1.405154027486e-03 0.0 
-1.405154027486e-03 4.014926747039e-03 0.0 
0.0 0.0 -1.170878753521e-03 
8.694157167214e-04 5.959603823475e-04 0.0 
5.959603823475e-04 1.083517633446e-03 0.0 
0.0 0.0 -8.369714357860e-04 
-1.720938074938e-03 7.528205405103e-04 0.0 
7.528205405103e-04 7.239876321155e-03 0.0 
0.0 0.0 -1.064574987933e-03 
-2.581275539260e-04 2.774157829489e-03 0.0 
2.774157829489e-03 3.637568838645e-03 0.0 
0.0 0.0 -1.082686220397e-03 
-6.278749381159e-04 -1.931446236287e-03 0.0 
-1.931446236287e-03 4.088424354687e-03 0.0 
0.0 0.0 -1.168035910845e-03 
7.662032872175e-05 1.799978139758e-03 0.0 
1.799978139758e-03 1.016865245771e-03 0.0 
0.0 0.0 -4.686366747828e-04 
-1.772766923136e-03 8.481702159287e-04 0.0 
8.481702159287e-04 6.740907635403e-03 0.0 
0.0 0.0 -9.919185416031e-04 
-2.292199257427e-04 1.889849914101e-03 0.0 
1.889849914101e-03 3.718845686110e-03 0.0 
0.0 0.0 -1.173906618061e-03 
-1.648981142695e-03 1.259232254070e-03 0.0 
1.259232254070e-03 7.322595481216e-03 0.0 
0.0 0.0 -1.096489272820e-03 
1.160861635041e-03 6.400460397782e-04 0.0 
6.400460397782e-04 2.605650516831e-04 0.0 
0.0 0.0 -6.091828657388e-04 
2.574979574883e-03 -1.390903072999e-04 0.0 
-1.390903072999e-04 -1.282434716650e-03 0.0 
0.0 0.0 -5.539477963855e-04 
-1.116067155649e-03 -2.250326754200e-03 0.0 
-2.250326754200e-03 3.947993630682e-03 0.0 
0.0 0.0 -1.025516461270e-03 
1.249937303602e-03 3.552940721610e-04 0.0 
3.552940721610e-04 -1.039148958258e-03 0.0 
0.0 0.0 -9.033786229012e-05 
-1.613458135025e-03 1.210057674443e-03 0.0 
1.210057674443e-03 7.562124248112e-03 0.0 
0.0 0.0 -1.132911322290e-03 
-7.377235371559e-04 -9.591054036843e-04 0.0 
-9.591054036843e-04 2.612387194917e-03 0.0 
0.0 0.0 -8.013069569330e-04 
-1.500810255742e-04 1.675008285432e-03 0.0 
1.675008285432e-03 1.366929482546e-03 0.0 
0.0 0.0 -5.215064815592e-04 
-3.658200529699e-04 3.020199158602e-03 0.0 
3.020199158602e-03 3.713742958922e-03 0.0 
0.0 0.0 -1.054483161448e-03 
-1.538001914897e-03 1.084053552084e-03 0.0 
1.084053552084e-03 8.041309965801e-03 0.0 
0.0 0.0 -1.206783194404e-03 
1.727844094968e-03 -3.343181964838e-03 0.0 
-3.343181964838e-03 -2.401420928011e-04 0.0 
0.0 0.0 -6.375865723574e-04 
-2.167964077171e-04 3.747756050696e-03 0.0 
3.747756050696e-03 2.648111889763e-03 0.0 
0.0 0.0 -9.072936044704e-04 
-1.701887886532e-03 1.344630388867e-03 0.0 
1.344630388867e-03 6.812020791196e-03 0.0 
0.0 0.0 -1.023814440555e-03 
-4.458873681724e-04 -2.966430795108e-03 0.0 
-2.966430795108e-03 2.822625691825e-03 0.0 
0.0 0.0 -1.018602138708e-03 
2.635787731545e-03 -1.799593391660e-03 0.0 
-1.799593391660e-03 -1.225014149329e-03 0.0 
0.0 0.0 -6.046172495213e-04 
1.631098457746e-03 2.876803562451e-03 0.0 
2.876803562451e-03 -2.192512757881e-04 0.0 
0.0 0.0 -6.050773636963e-04 
9.159182720240e-04 -2.840057079041e-03 0.0 
-2.840057079041e-03 6.236111220924e-04 0.0 
0.0 0.0 -6.597983117642e-04 
1.988952410622e-03 -2.773207495313e-03 0.0 
-2.773207495313e-03 -3.142881963505e-04 0.0 
0.0 0.0 -7.177132346876e-04 
1.648220485470e-03 -3.321848158051e-03 0.0 
-3.321848158051e-03 2.024080431041e-04 0.0 
0.0 0.0 -7.931265122463e-04 
1.705098340266e-03 6.558868029328e-04 0.0 
6.558868029328e-04 -6.969008095806e-04 0.0 
0.0 0.0 -4.320846560080e-04 
-1.468520801646e-03 2.285525207987e-03 0.0 
2.285525207987e-03 8.442456052557e-03 0.0 
0.0 0.0 -1.324146187826e-03 
-3.956257745020e-04 1.730887625779e-03 0.0 
1.730887625779e-03 1.977050055323e-03 0.0 
0.0 0.0 -6.777532632091e-04 
-1.125863067977e-03 -1.827974217199e-03 0.0 
-1.827974217199e-03 4.964930907455e-03 0.0 
0.0 0.0 -1.153422328581e-03 
2.868285214674e-03 1.352379803766e-03 0.0 
1.352379803766e-03 -1.299848991907e-03 0.0 
0.0 0.0 -6.721869526143e-04 
-1.802402553613e-03 1.096854962503e-03 0.0 
1.096854962503e-03 6.595527473872e-03 0.0 
0.0 0.0 -9.856407671940e-04 
1.971085959338e-03 3.239399902758e-04 0.0 
3.239399902758e-04 -1.217941390756e-03 0.0 
0.0 0.0 -3.227762436777e-04 
-6.307118357170e-04 -1.642290149673e-03 0.0 
-1.642290149673e-03 4.191316448183e-03 0.0 
0.0 0.0 -1.206759618350e-03 
1.281188306004e-03 -3.309115169896e-03 0.0 
-3.309115169896e-03 2.482805933930e-04 0.0 
0.0 0.0 -6.554866711701e-04 
-8.580919722625e-04 -1.141606507875e-03 0.0 
-1.141606507875e-03 3.004910753851e-03 0.0 
0.0 0.0 -8.925927511852e-04 
6.775973206905e-04 1.090261256499e-03 0.0 
1.090261256499e-03 1.554850184539e-03 0.0 
0.0 0.0 -9.567632165269e-04 
9.810193940895e-04 -2.270636417532e-03 0.0 
-2.270636417532e-03 2.960510298287e-04 0.0 
0.0 0.0 -5.473158959649e-04 
3.899080625908e-05 1.591876067608e-03 0.0 
1.591876067608e-03 3.206945282166e-03 0.0 
0.0 0.0 -1.139062866688e-03 
6.623861865506e-04 3.094490503078e-03 0.0 
3.094490503078e-03 1.014638708619e-03 0.0 
0.0 0.0 -7.187249550728e-04 
-1.786253758345e-03 1.560633333520e-03 0.0 
1.560633333520e-03 6.766601134335e-03 0.0 
0.0 0.0 -1.044446328659e-03 
-2.152386475275e-04 1.351101504798e-03 0.0 
1.351101504798e-03 3.486323150058e-03 0.0 
0.0 0.0 -1.198892520503e-03 
-1.697142570711e-03 1.154161816812e-03 0.0 
1.154161816812e-03 6.693519511439e-03 0.0 
0.0 0.0 -9.940794652285e-04 
-1.618144651602e-03 2.389450829648e-03 0.0 
2.389450829648e-03 7.197343605865e-03 0.0 
0.0 0.0 -1.194784139986e-03 
-1.753520328123e-03 1.193661618907e-03 0.0 
1.193661618907e-03 7.230580119665e-03 0.0 
0.0 0.0 -1.087318097122e-03 
-1.742396685637e-03 1.406428765971e-03 0.0 
1.406428765971e-03 7.327343743658e-03 0.0 
0.0 0.0 -1.116677092124e-03 
2.275785242891e-03 2.632435729676e-03 0.0 
2.632435729676e-03 -9.199828087608e-04 0.0 
0.0 0.0 -5.810581860557e-04 
-1.241644556097e-03 -1.898381689041e-03 0.0 
-1.898381689041e-03 4.975895501890e-03 0.0 
0.0 0.0 -1.115908039155e-03 
-1.698919862003e-03 1.546534393052e-03 0.0 
1.546534393052e-03 6.917732160494e-03 0.0 
0.0 0.0 -1.053364550114e-03 
1.868987763194e-03 2.227953552638e-03 0.0 
2.227953552638e-03 -6.775743179747e-04 0.0 
0.0 0.0 -5.106057622367e-04 
-6.587012442941e-04 1.777273701504e-03 0.0 
1.777273701504e-03 2.655555522869e-03 0.0 
0.0 0.0 -8.209451439681e-04 
-3.975005523331e-04 1.166939029163e-03 0.0 
1.166939029163e-03 4.024011475053e-03 0.0 
0.0 0.0 -1.232292820449e-03 
2.869313435600e-03 1.110657499061e-03 0.0 
1.110657499061e-03 -1.453214644336e-03 0.0 
0.0 0.0 -6.068994819702e-04 
-7.856974671747e-04 -1.309919738143e-03 0.0 
-1.309919738143e-03 2.807619278170e-03 0.0 
0.0 0.0 -8.201145810434e-04 
1.968962910781e-04 1.862464300239e-03 0.0 
1.862464300239e-03 2.595514694035e-03 0.0 
0.0 0.0 -1.105063927110e-03 
-7.017846764740e-04 -1.435456886112e-05 0.0 
-1.435456886112e-05 1.960630528106e-03 0.0 
0.0 0.0 -3.231071520192e-04 
7.474966936510e-04 3.481240265895e-03 0.0 
3.481240265895e-03 1.138823329650e-03 0.0 
0.0 0.0 -8.084228671290e-04 
5.678040040528e-04 5.673257875062e-04 0.0 
5.673257875062e-04 1.874262662432e-03 0.0 
0.0 0.0 -1.046599999922e-03 
-1.677286885825e-03 1.562425953110e-03 0.0 
1.562425953110e-03 7.659770185164e-03 0.0 
0.0 0.0 -1.181155146799e-03 
-1.652320647354e-03 1.808826218554e-03 0.0 
1.808826218554e-03 7.744329424571e-03 0.0 
0.0 0.0 -1.210943746944e-03 
7.584470326040e-04 3.628423669224e-04 0.0 
3.628423669224e-04 1.668047544981e-03 0.0 
0.0 0.0 -1.028825005900e-03 
-1.718024774256e-03 1.129889074764e-03 0.0 
1.129889074764e-03 7.489751701523e-03 0.0 
0.0 0.0 -1.123737208958e-03 
2.593889195352e-03 1.856767809109e-03 0.0 
1.856767809109e-03 -1.126153271608e-03 0.0 
0.0 0.0 -6.290296816045e-04 
-7.519765885532e-04 3.109043581873e-03 0.0 
3.109043581873e-03 4.411738950076e-03 0.0 
0.0 0.0 -1.062452857821e-03 
-9.715076255527e-04 1.639125050494e-03 0.0 
1.639125050494e-03 3.248586274010e-03 0.0 
0.0 0.0 -7.769695025612e-04 
-1.390466882155e-03 3.112822277327e-03 0.0 
3.112822277327e-03 6.316045090648e-03 0.0 
0.0 0.0 -1.181751882508e-03 
-1.269001708520e-03 1.478688136927e-03 0.0 
1.478688136927e-03 3.854232216412e-03 0.0 
0.0 0.0 -7.538120163098e-04 
-1.420223830458e-03 1.391784125232e-03 0.0 
1.391784125232e-03 4.161040048690e-03 0.0 
0.0 0.0 -7.332406657775e-04 
2.298674918512e-03 1.220061250636e-03 0.0 
1.220061250636e-03 -1.173783310071e-03 0.0 
0.0 0.0 -4.820964036177e-04 
-1.557422700527e-03 1.363360327043e-03 0.0 
1.363360327043e-03 4.471575651466e-03 0.0 
0.0 0.0 -7.361032999402e-04 
6.913968744153e-04 3.249644441005e-03 0.0 
3.249644441005e-03 1.296623038176e-03 0.0 
0.0 0.0 -8.520085339679e-04 
1.718973007646e-03 2.924390266821e-03 0.0 
2.924390266821e-03 -1.924867080382e-04 0.0 
0.0 0.0 -6.542084141176e-04 
2.210348991445e-03 -8.088378780929e-04 0.0 
-8.088378780929e-04 -1.123482344713e-03 0.0 
0.0 0.0 -4.657999914567e-04 
2.497491272241e-03 -1.532773257142e-03 0.0 
-1.532773257142e-03 -1.081083643723e-03 0.0 
0.0 0.0 -6.070318407937e-04 
2.586887755130e-03 6.094796342036e-04 0.0 
6.094796342036e-04 -1.311719394663e-03 0.0 
0.0 0.0 -5.465007259145e-04 
-1.601167176657e-03 1.396089815657e-03 0.0 
1.396089815657e-03 7.688892179250e-03 0.0 
0.0 0.0 -1.162517914204e-03 
-1.471528092625e-03 3.001207936412e-03 0.0 
3.001207936412e-03 6.831752371077e-03 0.0 
0.0 0.0 -1.195263893373e-03 
-1.182311321110e-03 -2.133379308242e-03 0.0 
-2.133379308242e-03 4.544787139884e-03 0.0 
0.0 0.0 -1.050100468764e-03 
-1.223721568856e-04 1.745261046552e-03 0.0 
1.745261046552e-03 3.281782845900e-03 0.0 
0.0 0.0 -1.170266998156e-03 
1.214604030940e-03 -2.155562007462e-03 0.0 
-2.155562007462e-03 9.364629533618e-05 0.0 
0.0 0.0 -5.606787112612e-04 
-1.656719624483e-03 1.711448335042e-03 0.0 
1.711448335042e-03 7.275839845738e-03 0.0 
0.0 0.0 -1.119019617531e-03 
2.359890878457e-03 -4.267964440931e-05 0.0 
-4.267964440931e-05 -1.248439169515e-03 0.0 
0.0 0.0 -4.763364466896e-04 
-1.407406798469e-03 -1.723847992245e-03 0.0 
-1.723847992245e-03 5.419782439974e-03 0.0 
0.0 0.0 -1.144395376583e-03 
-1.671654625585e-03 1.497806515934e-03 0.0 
1.497806515934e-03 7.180003972529e-03 0.0 
0.0 0.0 -1.089631904438e-03 
-1.769810542863e-03 1.479525562214e-03 0.0 
1.479525562214e-03 7.051291447038e-03 0.0 
0.0 0.0 -1.080451501872e-03 
1.020279383885e-03 1.759819708792e-05 0.0 
1.759819708792e-05 6.806225927368e-04 0.0 
0.0 0.0 -7.289579899807e-04 
2.670406423032e-03 1.253518595181e-03 0.0 
1.253518595181e-03 -1.265788156022e-03 0.0 
0.0 0.0 -6.019792572901e-04 
-8.493845713370e-04 3.018177913519e-03 0.0 
3.018177913519e-03 4.847344094450e-03 0.0 
0.0 0.0 -1.126038590206e-03 
-1.241437732375e-03 3.272568664608e-03 0.0 
3.272568664608e-03 4.414773958175e-03 0.0 
0.0 0.0 -9.324202963083e-04 
2.392506853527e-03 -2.638222039722e-03 0.0 
-2.638222039722e-03 -9.888506330534e-04 0.0 
0.0 0.0 -6.015669516317e-04 
2.802892214258e-03 -1.137304662585e-05 0.0 
-1.137304662585e-05 -1.333498735436e-03 0.0 
0.0 0.0 -6.297400623524e-04 
7.949185057269e-04 2.716848624173e-03 0.0 
2.716848624173e-03 6.207904953631e-04 0.0 
0.0 0.0 -6.067324290386e-04 
-1.563287978713e-04 3.620132007229e-03 0.0 
3.620132007229e-03 2.581411168791e-03 0.0 
0.0 0.0 -1.015946800258e-03 
-1.534351365184e-03 -1.516799222336e-03 0.0 
-1.516799222336e-03 5.828494836448e-03 0.0 
0.0 0.0 -1.173545322487e-03 
-1.782237154873e-03 1.254534813549e-03 0.0 
1.254534813549e-03 6.967044995053e-03 0.0 
0.0 0.0 -1.051102540299e-03 
2.754613032243e-03 5.835371394657e-04 0.0 
5.835371394657e-04 -1.282545286099e-03 0.0 
0.0 0.0 -6.308861769187e-04 
-6.435068013720e-04 3.480233123954e-03 0.0 
3.480233123954e-03 3.600985193807e-03 0.0 
0.0 0.0 -9.344940742331e-04 
3.980809440766e-04 1.365381173478e-04 0.0 
1.365381173478e-04 2.266784517746e-03 0.0 
0.0 0.0 -1.088599101970e-03 
-1.685240832100e-03 8.774447861184e-04 0.0 
8.774447861184e-04 7.615424303421e-03 0.0 
0.0 0.0 -1.130578931274e-03 
-1.056611405718e-03 3.085021790290e-03 0.0 
3.085021790290e-03 5.374856941272e-03 0.0 
0.0 0.0 -1.160781586281e-03 
-1.731537587415e-03 1.425159992310e-03 0.0 
1.425159992310e-03 6.282505969900e-03 0.0 
0.0 0.0 -9.517943393003e-04 
-1.629224858150e-05 -1.008868814593e-03 0.0 
-1.008868814593e-03 2.976796140904e-03 0.0 
0.0 0.0 -1.113435711030e-03 
2.175710495241e-03 -1.797462906061e-04 0.0 
-1.797462906061e-04 -1.087187483949e-03 0.0 
0.0 0.0 -4.665098619825e-04 
3.691792219411e-04 -5.499254361333e-04 0.0 
-5.499254361333e-04 2.333255494325e-03 0.0 
0.0 0.0 -1.086118700983e-03 
6.267430188437e-04 3.216016004345e-03 0.0 
3.216016004345e-03 1.125673463038e-03 0.0 
0.0 0.0 -7.510356350921e-04 
-1.659468944553e-03 1.282087032836e-03 0.0 
1.282087032836e-03 7.843512833905e-03 0.0 
0.0 0.0 -1.188704642750e-03 
-1.184759635984e-03 3.039469531493e-03 0.0 
3.039469531493e-03 5.917915895918e-03 0.0 
0.0 0.0 -1.200489323427e-03 
1.397717749359e-03 -3.084135371350e-05 0.0 
-3.084135371350e-05 -2.483823730722e-04 0.0 
0.0 0.0 -4.925723041230e-04 
2.632145634489e-03 2.594608975648e-04 0.0 
2.594608975648e-04 -1.433557919304e-03 0.0 
0.0 0.0 -5.136804493649e-04 
-3.195071874590e-04 2.949770132737e-03 0.0 
2.949770132737e-03 3.519559910753e-03 0.0 
0.0 0.0 -1.113685640909e-03 
5.151939740245e-04 3.610223291188e-03 0.0 
3.610223291188e-03 1.499767463066e-03 0.0 
0.0 0.0 -8.635549016102e-04 
2.789061016644e-03 1.329285031073e-03 0.0 
1.329285031073e-03 -1.174648499198e-03 0.0 
0.0 0.0 -6.918910789057e-04 
1.203480951529e-03 -2.452700069764e-04 0.0 
-2.452700069764e-04 3.890277914199e-04 0.0 
0.0 0.0 -6.825037469782e-04 
-1.401752245562e-04 -2.049705526548e-03 0.0 
-2.049705526548e-03 2.929158581755e-03 0.0 
0.0 0.0 -1.072977024862e-03 
2.580288745065e-03 -9.059416529247e-04 0.0 
-9.059416529247e-04 -1.319309692526e-03 0.0 
0.0 0.0 -5.404195939453e-04 
1.923073746863e-03 -4.525221159699e-05 0.0 
-4.525221159699e-05 -9.232494801660e-04 0.0 
0.0 0.0 -4.284961142987e-04 
-1.564398244357e-03 2.691343570358e-03 0.0 
2.691343570358e-03 5.384100406286e-03 0.0 
0.0 0.0 -9.596127204057e-04 
-1.615413359891e-03 -1.869412921893e-03 0.0 
-1.869412921893e-03 5.891470981236e-03 0.0 
0.0 0.0 -1.170838755190e-03 
-1.469366754309e-03 2.906743993666e-03 0.0 
2.906743993666e-03 5.300260062947e-03 0.0 
0.0 0.0 -9.876491701490e-04 
-3.947067001148e-04 3.217756852044e-03 0.0 
3.217756852044e-03 3.568382132428e-03 0.0 
0.0 0.0 -1.085374163265e-03 
-1.640677092253e-03 2.445403796559e-03 0.0 
2.445403796559e-03 5.441088956569e-03 0.0 
0.0 0.0 -9.316602363005e-04 
-1.740388366318e-03 1.924888427331e-03 0.0 
1.924888427331e-03 5.465143202308e-03 0.0 
0.0 0.0 -8.756372412555e-04 
-1.133390563237e-03 3.456670762875e-03 0.0 
3.456670762875e-03 4.264491800942e-03 0.0 
0.0 0.0 -9.452931837154e-04 
1.258865816682e-04 1.427076262396e-03 0.0 
1.427076262396e-03 2.787339061218e-03 0.0 
0.0 0.0 -1.133505030480e-03 
-1.184151913809e-03 -2.442035502192e-03 0.0 
-2.442035502192e-03 4.566403913145e-03 0.0 
0.0 0.0 -1.084522140297e-03 
-1.719906891250e-03 1.595024504340e-03 0.0 
1.595024504340e-03 6.646342255881e-03 0.0 
0.0 0.0 -1.017300281410e-03 
-1.572744207127e-03 2.077724400643e-03 0.0 
2.077724400643e-03 7.699948884985e-03 0.0 
0.0 0.0 -1.212886757924e-03 
-1.697994519952e-03 2.183604815945e-03 0.0 
2.183604815945e-03 5.469670954577e-03 0.0 
0.0 0.0 -9.037302385344e-04 
3.109518991990e-03 7.142103845853e-04 0.0 
7.142103845853e-04 -1.355577660133e-03 0.0 
0.0 0.0 -7.516891422245e-04 
-4.615783183021e-04 2.634115171252e-03 0.0 
2.634115171252e-03 4.171995570701e-03 0.0 
0.0 0.0 -1.146733564437e-03 
-1.623397737588e-03 9.830618757014e-04 0.0 
9.830618757014e-04 7.977997106224e-03 0.0 
0.0 0.0 -1.196744929305e-03 
1.210285564886e-03 2.794819533997e-03 0.0 
2.794819533997e-03 2.142507881916e-04 0.0 
0.0 0.0 -6.105155798904e-04 
7.664634744893e-04 3.055447408668e-03 0.0 
3.055447408668e-03 8.799111198642e-04 0.0 
0.0 0.0 -7.055891118657e-04 
3.026285545234e-03 6.479754984524e-04 0.0 
6.479754984524e-04 -1.309294928286e-03 0.0 
0.0 0.0 -7.358531215491e-04 
-1.707025994169e-03 1.825045050910e-03 0.0 
1.825045050910e-03 6.718430060264e-03 0.0 
0.0 0.0 -1.046609947212e-03 
1.285120213061e-04 3.160317099540e-03 0.0 
3.160317099540e-03 1.795393702842e-03 0.0 
0.0 0.0 -8.245310246350e-04 
6.213466678406e-04 3.150191375349e-03 0.0 
3.150191375349e-03 1.093887972575e-03 0.0 
0.0 0.0 -7.351005601782e-04 
1.723951590445e-04 3.402388421843e-03 0.0 
3.402388421843e-03 1.876640106691e-03 0.0 
0.0 0.0 -8.781579710297e-04 
4.568820957443e-04 1.515113560259e-03 0.0 
1.515113560259e-03 2.072520192967e-03 0.0 
0.0 0.0 -1.068254633495e-03 
-7.126619732765e-04 2.634214240334e-03 0.0 
2.634214240334e-03 4.664743447894e-03 0.0 
0.0 0.0 -1.211228670573e-03 
2.874495408011e-03 -1.147543994212e-04 0.0 
-1.147543994212e-04 -1.321663854737e-03 0.0 
0.0 0.0 -6.654992371173e-04 
1.333222057608e-03 -6.083160362555e-04 0.0 
-6.083160362555e-04 -1.046303648964e-03 0.0 
0.0 0.0 -1.229650322759e-04 
-1.560287505520e-03 2.397443585750e-03 0.0 
2.397443585750e-03 7.445606798374e-03 0.0 
0.0 0.0 -1.207184308065e-03 
-1.227743039735e-04 3.216961996269e-03 0.0 
3.216961996269e-03 2.287126095753e-03 0.0 
0.0 0.0 -9.275793393341e-04 
1.407399929741e-03 -1.790726840241e-03 0.0 
-1.790726840241e-03 -2.123508212015e-04 0.0 
0.0 0.0 -5.121639036598e-04 
-5.005943122338e-04 2.854917982027e-03 0.0 
2.854917982027e-03 4.092431792890e-03 0.0 
0.0 0.0 -1.177925372349e-03 
-1.802105864534e-03 1.325377431051e-03 0.0 
1.325377431051e-03 6.693893706785e-03 0.0 
0.0 0.0 -1.015069748350e-03 
-9.552400268193e-04 -2.590206578427e-03 0.0 
-2.590206578427e-03 4.033946220946e-03 0.0 
0.0 0.0 -1.055879354346e-03 
2.213755167184e-03 2.540569608467e-03 0.0 
2.540569608467e-03 -6.561328527755e-04 0.0 
0.0 0.0 -6.675524204610e-04 
8.596589765025e-04 -2.241190996513e-04 0.0 
-2.241190996513e-04 -8.596589765025e-04 0.0 
0.0 0.0 0.0 
-1.695761363760e-03 -1.692827267884e-03 0.0 
-1.692827267884e-03 6.306533924159e-03 0.0 
0.0 0.0 -1.202131160132e-03 
-2.109701725836e-06 3.652134540712e-03 0.0 
3.652134540712e-03 2.337584034461e-03 0.0 
0.0 0.0 -1.000917571172e-03 
6.440987285096e-04 1.846403855810e-03 0.0 
1.846403855810e-03 1.851485320469e-03 0.0 
0.0 0.0 -1.007142642412e-03 
-8.363103258721e-04 3.298399834443e-03 0.0 
3.298399834443e-03 4.744308506763e-03 0.0 
0.0 0.0 -1.157822513452e-03 
0.0 0.0 0.0 
0.0 0.0 0.0 
0.0 0.0 0.0 
-7.671375815713e-04 -2.153381723597e-03 0.0 
-2.153381723597e-03 3.958636255064e-03 0.0 
0.0 0.0 -1.058763633038e-03 
2.277342632696e-03 2.678034488429e-03 0.0 
2.678034488429e-03 -4.950023667951e-04 0.0 
0.0 0.0 -7.638601139576e-04 
-1.817865112225e-03 1.160846124058e-03 0.0 
1.160846124058e-03 6.325027627169e-03 0.0 
0.0 0.0 -9.498437721210e-04 
-6.483445776371e-04 -2.910728448364e-03 0.0 
-2.910728448364e-03 3.240421631363e-03 0.0 
0.0 0.0 -1.081826897668e-03 
2.882336660409e-03 6.507094583248e-04 0.0 
6.507094583248e-04 -1.354897536976e-03 0.0 
0.0 0.0 -6.546167671857e-04 
-1.512905320875e-03 -2.064322058959e-03 0.0 
-2.064322058959e-03 5.485314435598e-03 0.0 
0.0 0.0 -1.141635569211e-03 
5.629634582603e-04 3.291314317230e-03 0.0 
3.291314317230e-03 1.247171813043e-03 0.0 
0.0 0.0 -7.757722591300e-04 
3.097498388755e-03 7.515594805802e-04 0.0 
7.515594805802e-04 -1.504351798864e-03 0.0 
0.0 0.0 -6.827771099535e-04 
-3.950988348044e-04 3.677355835862e-03 0.0 
3.677355835862e-03 3.018937195948e-03 0.0 
0.0 0.0 -8.989548790023e-04 
1.227636575782e-03 -1.512351808794e-03 0.0 
-1.512351808794e-03 -1.085715777594e-03 0.0 
0.0 0.0 -6.082319922330e-05 
-5.120566939223e-04 3.175912523353e-03 0.0 
3.175912523353e-03 3.844622698218e-03 0.0 
0.0 0.0 -1.026417656363e-03 
5.399418997976e-04 8.396772710701e-04 0.0 
8.396772710701e-04 2.161243029461e-03 0.0 
0.0 0.0 -1.065496432940e-03 
-1.316213487934e-03 3.030027547422e-03 0.0 
3.030027547422e-03 6.243260056489e-03 0.0 
0.0 0.0 -1.233600908384e-03 
-6.242951805065e-04 3.006743678072e-03 0.0 
3.006743678072e-03 4.303063931573e-03 0.0 
0.0 0.0 -1.090749533212e-03 
3.026627229701e-03 -6.016138979488e-05 0.0 
-6.016138979488e-05 -1.354975115356e-03 0.0 
0.0 0.0 -7.164223347191e-04 
-1.354858739815e-03 -2.484739121398e-03 0.0 
-2.484739121398e-03 4.613680447839e-03 0.0 
0.0 0.0 -1.047231727503e-03 
-1.514361396418e-03 1.521820591863e-03 0.0 
1.521820591863e-03 8.031763007479e-03 0.0 
0.0 0.0 -1.228155452712e-03 
-7.050516080877e-04 1.545847486976e-03 0.0 
1.545847486976e-03 4.498069063216e-03 0.0 
0.0 0.0 -1.267145247477e-03 
2.943450069451e-04 1.256402020470e-03 0.0 
1.256402020470e-03 2.679722888331e-03 0.0 
0.0 0.0 -1.102242875413e-03 
2.428652697383e-03 1.957638321578e-03 0.0 
1.957638321578e-03 -9.445444981417e-04 0.0 
0.0 0.0 -6.360463711034e-04 
-4.362885790870e-04 3.400866484877e-03 0.0 
3.400866484877e-03 3.416922100764e-03 0.0 
0.0 0.0 -9.624716764950e-04 
-1.751273191057e-03 -1.178364827428e-03 0.0 
-1.178364827428e-03 6.153449964232e-03 0.0 
0.0 0.0 -1.164316760544e-03 
-1.510592316959e-03 -9.050842607301e-04 0.0 
-9.050842607301e-04 4.622892738446e-03 0.0 
0.0 0.0 -1.053897668350e-03 
-5.098353463404e-04 3.384769362386e-03 0.0 
3.384769362386e-03 3.650364032255e-03 0.0 
0.0 0.0 -1.057196955382e-03 
-1.719373888211e-03 1.382981273232e-03 0.0 
1.382981273232e-03 6.550039956498e-03 0.0 
0.0 0.0 -9.877098122506e-04 
-1.368682583039e-03 -2.262414624365e-03 0.0 
-2.262414624365e-03 5.045630347078e-03 0.0 
0.0 0.0 -1.112977059762e-03 
-8.018931633473e-04 -2.405053121667e-03 0.0 
-2.405053121667e-03 4.002834443873e-03 0.0 
0.0 0.0 -1.093234982489e-03 
-1.439791436846e-03 3.326807682738e-05 0.0 
3.326807682738e-05 4.943594407769e-03 0.0 
0.0 0.0 -7.313513689239e-04 
-1.427152505588e-03 6.033982237060e-05 0.0 
6.033982237060e-05 4.941916582327e-03 0.0 
0.0 0.0 -7.310574395863e-04 
-1.640756721107e-03 2.340459270020e-03 0.0 
2.340459270020e-03 5.815255979654e-03 0.0 
0.0 0.0 -9.927888931628e-04 
-4.210846566685e-04 3.601854565047e-03 0.0 
3.601854565047e-03 3.185506434217e-03 0.0 
0.0 0.0 -9.930598132463e-04 
-9.560102716365e-04 -2.664544190492e-03 0.0 
-2.664544190492e-03 3.772312719303e-03 0.0 
0.0 0.0 -1.075560717398e-03 
-1.206510850392e-03 3.047967158976e-03 0.0 
3.047967158976e-03 4.800933324251e-03 0.0 
0.0 0.0 -9.775429604617e-04 
9.349897265997e-04 2.908831422528e-03 0.0 
2.908831422528e-03 6.057047016784e-04 0.0 
0.0 0.0 -6.602976121192e-04 
-2.228664070200e-04 -2.583623366081e-04 0.0 
-2.583623366081e-04 3.335250712245e-03 0.0 
0.0 0.0 -1.180288150054e-03 
2.187201504106e-03 2.288354873068e-03 0.0 
2.288354873068e-03 -8.791309691096e-04 0.0 
0.0 0.0 -5.606016578557e-04 
-1.487430872272e-03 2.032395386043e-03 0.0 
2.032395386043e-03 8.531052034659e-03 0.0 
0.0 0.0 -1.323793839065e-03 
-1.724651487443e-03 1.733577269253e-03 0.0 
1.733577269253e-03 5.152685708698e-03 0.0 
0.0 0.0 -8.119939454945e-04 
9.559001502051e-04 3.301449321883e-03 0.0 
3.301449321883e-03 8.023167039533e-04 0.0 
0.0 0.0 -7.535215089251e-04 
-6.923989162598e-04 -2.921867110632e-03 0.0 
-2.921867110632e-03 3.238107663680e-03 0.0 
0.0 0.0 -9.778014170610e-04 
2.952487269304e-03 8.767188776773e-04 0.0 
8.767188776773e-04 -1.231732878316e-03 0.0 
0.0 0.0 -7.374661675664e-04 
-1.449260709310e-04 -3.081657457247e-03 0.0 
-3.081657457247e-03 2.244720614764e-03 0.0 
0.0 0.0 -8.999119473571e-04 
-2.467797576170e-04 3.715212164584e-03 0.0 
3.715212164584e-03 2.738719973416e-03 0.0 
0.0 0.0 -9.758126512751e-04 
-5.058945486498e-04 3.618733188483e-03 0.0 
3.618733188483e-03 3.154888480052e-03 0.0 
0.0 0.0 -9.833357802921e-04 
-1.733759676165e-03 1.654794489536e-03 0.0 
1.654794489536e-03 6.367451579884e-03 0.0 
0.0 0.0 -9.814596669550e-04 
-1.124005872780e-03 3.379084100680e-03 0.0 
3.379084100680e-03 4.616783585522e-03 0.0 
0.0 0.0 -1.008022096355e-03 
-1.207720735867e-03 2.984451381318e-03 0.0 
2.984451381318e-03 5.147076662744e-03 0.0 
0.0 0.0 -1.040850218070e-03 
2.462504755941e-04 -3.466601191775e-04 0.0 
-3.466601191775e-04 1.225957598323e-03 0.0 
0.0 0.0 -3.048810613884e-04 
-2.528363505661e-04 -3.115888982409e-03 0.0 
-3.115888982409e-03 2.486992936593e-03 0.0 
0.0 0.0 -9.574956797260e-04 
-1.072167557266e-04 3.402438706717e-03 0.0 
3.402438706717e-03 2.375040834749e-03 0.0 
0.0 0.0 -9.719246052952e-04 
-1.390405142798e-03 3.085939311603e-03 0.0 
3.085939311603e-03 4.874750960273e-03 0.0 
0.0 0.0 -9.521954671713e-04 
-1.463685875107e-03 2.723658434378e-03 0.0 
2.723658434378e-03 5.354618705334e-03 0.0 
0.0 0.0 -9.850634846466e-04 
6.151608619473e-06 9.602693822456e-04 0.0 
9.602693822456e-04 3.003172333009e-03 0.0 
0.0 0.0 -1.160108757481e-03 
-7.116028528234e-04 -3.542186094007e-05 0.0 
-3.542186094007e-05 2.109496799795e-03 0.0 
0.0 0.0 -4.489418961951e-04 
2.420991236615e-03 -1.793290854156e-03 0.0 
-1.793290854156e-03 -1.206914640352e-03 0.0 
0.0 0.0 -5.203185412556e-04 
3.220195077698e-04 3.501557464345e-03 0.0 
3.501557464345e-03 1.705209014718e-03 0.0 
0.0 0.0 -8.688122239235e-04 
-2.823129498517e-04 -2.964277233818e-03 0.0 
-2.964277233818e-03 2.454860756862e-03 0.0 
0.0 0.0 -9.310919172903e-04 
-1.415275034250e-03 1.292164494452e-03 0.0 
1.292164494452e-03 4.167269738145e-03 0.0 
0.0 0.0 -7.665650418521e-04 
-1.567864091306e-03 1.226683465556e-03 0.0 
1.226683465556e-03 4.493286725470e-03 0.0 
0.0 0.0 -7.530137074853e-04 
-1.810136366687e-03 1.412997826384e-03 0.0 
1.412997826384e-03 6.411444835685e-03 0.0 
0.0 0.0 -9.793492904611e-04 
2.087664328359e-03 2.568536785539e-03 0.0 
2.568536785539e-03 -3.889452908062e-04 0.0 
0.0 0.0 -7.280224446656e-04 
-7.741376345699e-04 -2.792621548151e-03 0.0 
-2.792621548151e-03 3.378364177398e-03 0.0 
0.0 0.0 -1.004244986112e-03 
4.531124457367e-04 -1.076750210340e-03 0.0 
-1.076750210340e-03 2.037967656610e-03 0.0 
0.0 0.0 -1.049209916622e-03 
2.297209205504e-03 -5.483206442365e-04 0.0 
-5.483206442365e-04 -1.311033635610e-03 0.0 
0.0 0.0 -4.226466728115e-04 
-1.149618319309e-03 2.959992214286e-03 0.0 
2.959992214286e-03 5.456359281312e-03 0.0 
0.0 0.0 -1.285586381397e-03 
-1.702357103576e-03 1.352649744862e-03 0.0 
1.352649744862e-03 7.576949821791e-03 0.0 
0.0 0.0 -1.152455342817e-03 
-8.320143767109e-04 -2.543685297260e-03 0.0 
-2.543685297260e-03 3.497707295059e-03 0.0 
0.0 0.0 -1.095064427584e-03 
-1.386779618523e-03 -1.910481505052e-03 0.0 
-1.910481505052e-03 5.018049845752e-03 0.0 
0.0 0.0 -1.078722419643e-03 
2.229975894309e-04 -4.489617714331e-04 0.0 
-4.489617714331e-04 5.979694486616e-04 0.0 
0.0 0.0 -2.949115613585e-04 
4.540170595140e-04 -1.645489130381e-03 0.0 
-1.645489130381e-03 1.801582255490e-03 0.0 
0.0 0.0 -9.666854207159e-04 
-6.035540888641e-05 3.789347029411e-03 0.0 
3.789347029411e-03 2.399475313532e-03 0.0 
0.0 0.0 -8.867106850074e-04 
4.160484422948e-04 -3.622442174599e-04 0.0 
-3.622442174599e-04 5.441875866839e-04 0.0 
0.0 0.0 -3.067690066256e-04 
-1.619412582140e-03 1.641534764462e-03 0.0 
1.641534764462e-03 7.530266774085e-03 0.0 
0.0 0.0 -1.154859126927e-03 
1.948099663815e-03 -7.569421743857e-04 0.0 
-7.569421743857e-04 -1.147440738389e-03 0.0 
0.0 0.0 -3.431395394681e-04 
-1.356737557429e-03 2.911706860265e-03 0.0 
2.911706860265e-03 4.923580709307e-03 0.0 
0.0 0.0 -9.496453321265e-04 
-5.843331771905e-04 3.664260117298e-03 0.0 
3.664260117298e-03 3.237703376181e-03 0.0 
0.0 0.0 -8.924259012440e-04 
1.585702125321e-03 -1.745985882028e-03 0.0 
-1.745985882028e-03 -4.551642142343e-04 0.0 
0.0 0.0 -4.845162476086e-04 
3.886198775371e-04 -2.656776709997e-03 0.0 
-2.656776709997e-03 1.521016158266e-03 0.0 
0.0 0.0 -8.184154439158e-04 
-1.604458387616e-03 1.854152015569e-03 0.0 
1.854152015569e-03 7.626319442818e-03 0.0 
0.0 0.0 -1.182898372388e-03 
1.911502030331e-04 -2.214449408558e-03 0.0 
-2.214449408558e-03 2.167051973238e-03 0.0 
0.0 0.0 -9.716005391690e-04 
4.578213256305e-04 3.411459955915e-03 0.0 
3.411459955915e-03 1.456160682634e-03 0.0 
0.0 0.0 -8.202780035418e-04 
3.627077773465e-04 3.714478666179e-03 0.0 
3.714478666179e-03 1.773296424289e-03 0.0 
0.0 0.0 -9.111404029742e-04 
1.874131474266e-04 1.317598379107e-03 0.0 
1.317598379107e-03 5.481764939296e-04 0.0 
0.0 0.0 -3.152527034384e-04 
1.643748758810e-03 -4.204231761426e-04 0.0 
-4.204231761426e-04 -1.117599327178e-03 0.0 
0.0 0.0 -2.254926135565e-04 
-5.203694144565e-04 2.878386602619e-03 0.0 
2.878386602619e-03 4.197902991695e-03 0.0 
0.0 0.0 -1.118331045454e-03 
-1.809983628728e-03 1.593568509076e-03 0.0 
1.593568509076e-03 5.817131701425e-03 0.0 
0.0 0.0 -9.085367473448e-04 
-5.577334774044e-04 3.082426156906e-03 0.0 
3.082426156906e-03 4.104685153811e-03 0.0 
0.0 0.0 -1.148691026115e-03 
1.974680470733e-03 2.873021825660e-03 0.0 
2.873021825660e-03 -4.940617528099e-04 0.0 
0.0 0.0 -6.345508791099e-04 
-1.588961869452e-03 2.584393938582e-03 0.0 
2.584393938582e-03 6.455891274831e-03 0.0 
0.0 0.0 -1.097950598811e-03 
-7.723714131083e-04 2.927319470345e-03 0.0 
2.927319470345e-03 4.791549148204e-03 0.0 
0.0 0.0 -1.155407764312e-03 
-1.528620740983e-03 1.641090201076e-03 0.0 
1.641090201076e-03 4.483124494598e-03 0.0 
0.0 0.0 -7.696970057192e-04 
-6.364037100851e-04 3.205127351833e-03 0.0 
3.205127351833e-03 4.133031580390e-03 0.0 
0.0 0.0 -1.120992621467e-03 
-1.531289715330e-03 -2.235814658200e-03 0.0 
-2.235814658200e-03 5.083560864057e-03 0.0 
0.0 0.0 -1.075946734593e-03 
-1.542078502361e-04 3.681831680089e-03 0.0 
3.681831680089e-03 2.560354402538e-03 0.0 
0.0 0.0 -9.606735922745e-04 
-4.462082875552e-04 -3.056851139717e-03 0.0 
-3.056851139717e-03 2.847631123845e-03 0.0 
0.0 0.0 -1.006543408955e-03 
-3.390473984761e-04 -3.081268501996e-03 0.0 
-3.081268501996e-03 2.650937052075e-03 0.0 
0.0 0.0 -9.908098515424e-04 
-1.654766843293e-03 2.110154288789e-03 0.0 
2.110154288789e-03 7.526175185133e-03 0.0 
0.0 0.0 -1.204704583718e-03 
6.478121330843e-04 -2.891464683005e-03 0.0 
-2.891464683005e-03 9.158033438756e-04 0.0 
0.0 0.0 -6.701209186971e-04 
-3.674328541615e-04 3.694790859021e-03 0.0 
3.694790859021e-03 2.941360548218e-03 0.0 
0.0 0.0 -9.833476869619e-04 
1.512914527637e-03 2.270095044354e-03 0.0 
2.270095044354e-03 -2.495167818894e-04 0.0 
0.0 0.0 -5.414561767490e-04 
-4.689248235341e-05 -1.859495784931e-03 0.0 
-1.859495784931e-03 2.784842397476e-03 0.0 
0.0 0.0 -1.038364586984e-03 
1.508518420493e-03 2.943740230317e-03 0.0 
2.943740230317e-03 4.760392635737e-05 0.0 
0.0 0.0 -6.669095772216e-04 
3.102345530720e-03 7.378269526544e-05 0.0 
7.378269526544e-05 -1.464469892876e-03 0.0 
0.0 0.0 -7.019467019332e-04 
1.507578771505e-03 -7.604032194635e-04 0.0 
-7.604032194635e-04 -4.928220476776e-04 0.0 
0.0 0.0 -4.348957387830e-04 
3.148975456484e-03 8.306636056168e-04 0.0 
8.306636056168e-04 -1.496370463473e-03 0.0 
0.0 0.0 -7.082592827190e-04 
-1.261991141926e-03 3.267444165813e-03 0.0 
3.267444165813e-03 4.752384958846e-03 0.0 
0.0 0.0 -9.799122972177e-04 
3.123536661893e-03 -9.721135346994e-05 0.0 
-9.721135346994e-05 -1.405927083563e-03 0.0 
0.0 0.0 -7.361183907127e-04 
-1.047249439091e-03 3.250277679615e-03 0.0 
3.250277679615e-03 4.315763371752e-03 0.0 
0.0 0.0 -9.420580210740e-04 
1.883489007768e-04 8.010579783403e-04 0.0 
8.010579783403e-04 2.876523535355e-03 0.0 
0.0 0.0 -1.130549445556e-03 
3.588863471818e-04 1.014874640691e-03 0.0 
1.014874640691e-03 2.306525440664e-03 0.0 
0.0 0.0 -1.096529089934e-03 
1.700464822711e-03 2.598856322658e-03 0.0 
2.598856322658e-03 -4.407098144151e-04 0.0 
0.0 0.0 -5.398950035552e-04 
-1.732708782740e-03 1.731245879395e-03 0.0 
1.731245879395e-03 6.071080868846e-03 0.0 
0.0 0.0 -9.460253849645e-04 
-1.548270655095e-03 -1.671057713006e-03 0.0 
-1.671057713006e-03 5.446327602559e-03 0.0 
0.0 0.0 -1.107441567342e-03 
-1.667313564664e-03 -1.981097125204e-03 0.0 
-1.981097125204e-03 5.509726630970e-03 0.0 
0.0 0.0 -1.104747680386e-03 
1.318532451431e-03 2.199681040646e-03 0.0 
2.199681040646e-03 -1.454539841179e-04 0.0 
0.0 0.0 -5.027479145627e-04 
-9.715008187727e-04 3.547635970715e-03 0.0 
3.547635970715e-03 4.097719530490e-03 0.0 
0.0 0.0 -9.724793438395e-04 
-1.624312607657e-03 -1.275879739373e-03 0.0 
-1.275879739373e-03 6.206545711786e-03 0.0 
0.0 0.0 -1.205818386895e-03 
-2.985133365854e-04 2.525233875689e-03 0.0 
2.525233875689e-03 2.218258876373e-03 0.0 
0.0 0.0 -8.227480884806e-04 
-1.021411894397e-03 -2.472960565398e-03 0.0 
-2.472960565398e-03 3.861949643739e-03 0.0 
0.0 0.0 -1.085013296808e-03 
1.242793848756e-04 1.186515148645e-03 0.0 
1.186515148645e-03 5.554989300674e-04 0.0 
0.0 0.0 -2.913335635470e-04 
-1.667346094177e-03 -1.424810251550e-03 0.0 
-1.424810251550e-03 5.825346578498e-03 0.0 
0.0 0.0 -1.136235114959e-03 
3.019668846566e-03 9.582089678435e-04 0.0 
9.582089678435e-04 -1.448201355488e-03 0.0 
0.0 0.0 -6.734860676048e-04 
-1.578302787965e-03 -5.539699262797e-04 0.0 
-5.539699262797e-04 4.756261434844e-03 0.0 
0.0 0.0 -1.057437106069e-03 
4.911868189057e-04 2.542757255714e-03 0.0 
2.542757255714e-03 1.777357060087e-03 0.0 
0.0 0.0 -9.722330909969e-04 
-1.811529723315e-03 1.498050121893e-03 0.0 
1.498050121893e-03 6.116522056800e-03 0.0 
0.0 0.0 -9.438854677472e-04 
-1.729248363348e-03 1.804686593249e-03 0.0 
1.804686593249e-03 5.771244996451e-03 0.0 
0.0 0.0 -9.108073647308e-04 
1.218753398279e-04 3.628872757319e-03 0.0 
3.628872757319e-03 2.104833384723e-03 0.0 
0.0 0.0 -9.543037390934e-04 
-1.106695794268e-03 1.517581520969e-03 0.0 
1.517581520969e-03 3.539684992285e-03 0.0 
0.0 0.0 -7.963586959451e-04 
-1.268797780777e-03 1.437345509075e-03 0.0 
1.437345509075e-03 3.867869279896e-03 0.0 
0.0 0.0 -7.758011671882e-04 
-1.764900971931e-03 -1.718354051601e-03 0.0 
-1.718354051601e-03 5.889801463908e-03 0.0 
0.0 0.0 -1.133400347077e-03 
2.569249843707e-04 -2.786570784076e-03 0.0 
-2.786570784076e-03 1.556740733674e-03 0.0 
0.0 0.0 -7.772853077335e-04 
1.174175751745e-03 -1.803885435246e-03 0.0 
-1.803885435246e-03 -1.174563587325e-05 0.0 
0.0 0.0 -4.981843353734e-04 
5.912929398665e-04 -9.060768193030e-04 0.0 
-9.060768193030e-04 1.727113514221e-03 0.0 
0.0 0.0 -9.936027660373e-04 
2.016096735556e-03 -6.850330429382e-04 0.0 
-6.850330429382e-04 -9.758089702167e-04 0.0 
0.0 0.0 -4.458376137168e-04 
3.081197548797e-03 7.466969370712e-04 0.0 
7.466969370712e-04 -1.300129295292e-03 0.0 
0.0 0.0 -7.633149657881e-04 
-1.128831614242e-03 1.542551351037e-03 0.0 
1.542551351037e-03 3.551129300523e-03 0.0 
0.0 0.0 -7.520787537531e-04 
-1.821423928511e-03 1.474632635918e-03 0.0 
1.474632635918e-03 5.487726439764e-03 0.0 
0.0 0.0 -8.442294783838e-04 
-1.409406014707e-03 4.528826506854e-05 0.0 
4.528826506854e-05 5.214877225355e-03 0.0 
0.0 0.0 -7.121995050294e-04 
4.077287179479e-04 3.674953038794e-04 0.0 
3.674953038794e-04 2.393170375530e-03 0.0 
0.0 0.0 -1.093598669875e-03 
1.997342351340e-03 2.504018622736e-03 0.0 
2.504018622736e-03 -5.807467309884e-04 0.0 
0.0 0.0 -6.071124087219e-04 
-4.482284720357e-04 1.652414080391e-03 0.0 
1.652414080391e-03 3.958656300163e-03 0.0 
0.0 0.0 -1.233571955743e-03 
-2.022662331208e-03 -4.627058437959e-04 0.0 
-4.627058437959e-04 6.332672682848e-03 0.0 
0.0 0.0 -1.121177773779e-03 
1.798099945912e-03 -8.661440026173e-04 0.0 
-8.661440026173e-04 -7.288088564904e-04 0.0 
0.0 0.0 -4.582676097521e-04 
-1.524985310237e-03 -1.822620195545e-03 0.0 
-1.822620195545e-03 6.245562815238e-03 0.0 
0.0 0.0 -1.241472629463e-03 
3.003131752772e-03 -8.623198735716e-04 0.0 
-8.623198735716e-04 -1.396381984480e-03 0.0 
0.0 0.0 -6.886070435535e-04 
-3.779034990216e-04 2.052169755275e-03 0.0 
2.052169755275e-03 3.788846745744e-03 0.0 
0.0 0.0 -1.204482468497e-03 
1.415534273829e-04 3.636591431357e-03 0.0 
3.636591431357e-03 2.169944347150e-03 0.0 
0.0 0.0 -8.910665706739e-04 
8.940143763447e-06 3.422262264522e-03 0.0 
3.422262264522e-03 2.416052284656e-03 0.0 
0.0 0.0 -9.848034212815e-04 
-1.370477965762e-04 -1.170123439274e-03 0.0 
-1.170123439274e-03 3.214973093205e-03 0.0 
0.0 0.0 -1.146785027167e-03 
3.884013163081e-04 -2.855323367017e-03 0.0 
-2.855323367017e-03 1.211719834243e-03 0.0 
0.0 0.0 -6.857662073788e-04 
-7.129927410741e-04 3.670079492291e-03 0.0 
3.670079492291e-03 3.538541594785e-03 0.0 
0.0 0.0 -9.649174008510e-04 
1.717035050200e-03 -1.344860437860e-03 0.0 
-1.344860437860e-03 -6.217055712217e-04 0.0 
0.0 0.0 -4.694269195620e-04 
-8.587679122771e-04 3.481313587749e-03 0.0 
3.481313587749e-03 3.794469535060e-03 0.0 
0.0 0.0 -9.065670216064e-04 
1.889810402813e-03 2.899509189946e-03 0.0 
2.899509189946e-03 -2.152817456685e-04 0.0 
0.0 0.0 -7.176551387762e-04 
1.428912843794e-04 3.126816861625e-03 0.0 
3.126816861625e-03 2.356543378173e-03 0.0 
0.0 0.0 -1.013229387512e-03 
1.943775632291e-03 -1.286497408609e-03 0.0 
-1.286497408609e-03 -8.334086717492e-04 0.0 
0.0 0.0 -4.758715545177e-04 
-1.000337791729e-03 -2.628959420428e-03 0.0 
-2.628959420428e-03 3.773462867951e-03 0.0 
0.0 0.0 -9.886579807222e-04 
-8.325357311160e-04 3.547635505547e-03 0.0 
3.547635505547e-03 3.716995785029e-03 0.0 
0.0 0.0 -9.612835620876e-04 
2.687167972919e-04 1.795311194676e-03 0.0 
1.795311194676e-03 1.563575924244e-04 0.0 
0.0 0.0 -1.821747384498e-04 
1.057813883420e-03 2.534506278338e-03 0.0 
2.534506278338e-03 3.175156107454e-04 0.0 
0.0 0.0 -5.894269260710e-04 
4.651919044669e-04 1.924261843739e-03 0.0 
1.924261843739e-03 5.725607713308e-04 0.0 
0.0 0.0 -4.447511467704e-04 
-3.371303889653e-04 -7.500919376923e-04 0.0 
-7.500919376923e-04 1.299829984783e-03 0.0 
0.0 0.0 -4.040777003935e-04 
-1.056371726126e-03 -2.468497531733e-03 0.0 
-2.468497531733e-03 3.865104933196e-03 0.0 
0.0 0.0 -1.010653628765e-03 
-9.607789536056e-04 3.048565223821e-03 0.0 
3.048565223821e-03 4.940644900743e-03 0.0 
0.0 0.0 -1.098354823938e-03 
-1.707850550320e-03 2.055402839425e-03 0.0 
2.055402839425e-03 5.786469608898e-03 0.0 
0.0 0.0 -9.387552692591e-04 
-7.756723233026e-04 1.730094175383e-03 0.0 
1.730094175383e-03 2.916527936956e-03 0.0 
0.0 0.0 -8.497951325312e-04 
-1.342322198460e-03 2.098270725376e-03 0.0 
2.098270725376e-03 8.248661573518e-03 0.0 
0.0 0.0 -1.342322198460e-03 
-1.015516083591e-04 1.416986332010e-03 0.0 
1.416986332010e-03 1.817738637010e-04 0.0 
0.0 0.0 -3.438096657507e-05 
-9.510393810217e-04 1.672687846132e-03 0.0 
1.672687846132e-03 3.246503304730e-03 0.0 
0.0 0.0 -8.134098498104e-04 
1.098475143763e-03 -2.031876221816e-03 0.0 
-2.031876221816e-03 1.166483383452e-04 0.0 
0.0 0.0 -5.207672066180e-04 
-1.089976521784e-03 -2.234801732660e-03 0.0 
-2.234801732660e-03 3.943897982090e-03 0.0 
0.0 0.0 -1.084767721667e-03 
-1.111038172895e-03 2.200189741588e-03 0.0 
2.200189741588e-03 3.768833115442e-03 0.0 
0.0 0.0 -8.610308207870e-04 
2.262464148868e-03 -1.945012542063e-03 0.0 
-1.945012542063e-03 -8.191237484730e-04 0.0 
0.0 0.0 -6.185744573122e-04 
5.761048584873e-04 -2.775225325336e-03 0.0 
-2.775225325336e-03 9.303736926873e-04 0.0 
0.0 0.0 -6.456336647891e-04 
-1.625181255020e-04 3.528619970826e-03 0.0 
3.528619970826e-03 2.809301514261e-03 0.0 
0.0 0.0 -9.266779469803e-04 
7.488835648315e-04 2.251240740231e-03 0.0 
2.251240740231e-03 1.162555029076e-03 0.0 
0.0 0.0 -8.191879688175e-04 
-1.329752805185e-03 3.181517598016e-03 0.0 
3.181517598016e-03 5.907007101231e-03 0.0 
0.0 0.0 -1.144302277022e-03 
1.946489244002e-03 2.821542424935e-03 0.0 
2.821542424935e-03 -8.035545710095e-04 0.0 
0.0 0.0 -4.898291455683e-04 
-8.586335344055e-04 -2.592060326530e-03 0.0 
-2.592060326530e-03 3.501562453949e-03 0.0 
0.0 0.0 -1.023226067289e-03 
-1.335563518602e-03 -1.880041070522e-03 0.0 
-1.880041070522e-03 4.351195601973e-03 0.0 
0.0 0.0 -1.033071644556e-03 
-2.022124363338e-05 -2.395587679301e-03 0.0 
-2.395587679301e-03 1.567846091858e-03 0.0 
0.0 0.0 -6.632677920962e-04 
-1.674900766220e-03 1.599025443535e-03 0.0 
1.599025443535e-03 4.804084785627e-03 0.0 
0.0 0.0 -7.663799295492e-04 
-1.769874274313e-03 1.858383186956e-03 0.0 
1.858383186956e-03 5.835930784600e-03 0.0 
0.0 0.0 -9.362314798257e-04 
-2.069835677089e-03 -4.002455476683e-04 0.0 
-4.002455476683e-04 5.909495734486e-03 0.0 
0.0 0.0 -1.073191215027e-03 
1.059197299257e-03 -5.440939611188e-04 0.0 
-5.440939611188e-04 5.670737881280e-04 0.0 
0.0 0.0 -3.365581251930e-04 
0.0 0.0 0.0 
0.0 0.0 0.0 
0.0 0.0 0.0 
-4.602170046064e-05 -1.936536183988e-03 0.0 
-1.936536183988e-03 1.323038368316e-03 0.0 
0.0 0.0 -5.472928576524e-04 
-1.313750205869e-03 -1.893362186714e-03 0.0 
-1.893362186714e-03 4.351424993746e-03 0.0 
0.0 0.0 -1.080662880999e-03 
2.816321063082e-03 -8.334388727588e-04 0.0 
-8.334388727588e-04 -1.272649618703e-03 0.0 
0.0 0.0 -6.615734761625e-04 
2.373065583622e-03 -2.080956134851e-03 0.0 
-2.080956134851e-03 -1.010649277428e-03 0.0 
0.0 0.0 -5.838927026542e-04 
2.954183213689e-03 -8.930251278497e-04 0.0 
-8.930251278497e-04 -1.356411275311e-03 0.0 
0.0 0.0 -6.847594021618e-04 
-1.301232695251e-03 -2.116378151629e-03 0.0 
-2.116378151629e-03 4.314126103213e-03 0.0 
0.0 0.0 -1.020860678390e-03 
-1.603005468093e-03 2.550878726920e-03 0.0 
2.550878726920e-03 5.754736739264e-03 0.0 
0.0 0.0 -9.956198530692e-04 
-1.518941795168e-03 -1.499106977263e-03 0.0 
-1.499106977263e-03 4.706029179031e-03 0.0 
0.0 0.0 -1.043188517862e-03 
2.974270505683e-03 -1.234815007946e-05 0.0 
-1.234815007946e-05 -1.384428534307e-03 0.0 
0.0 0.0 -6.813608448753e-04 
-8.631645989931e-04 3.291242542591e-03 0.0 
3.291242542591e-03 4.149472146392e-03 0.0 
0.0 0.0 -9.699423737970e-04 
-1.666656418554e-03 8.515973861887e-04 0.0 
8.515973861887e-04 5.656067677278e-03 0.0 
0.0 0.0 -8.236220363599e-04 
2.293852952879e-04 2.317534078424e-03 0.0 
2.317534078424e-03 2.464619361077e-03 0.0 
0.0 0.0 -1.076197569190e-03 
-1.503911657480e-03 -1.536228813635e-03 0.0 
-1.536228813635e-03 4.713514709764e-03 0.0 
0.0 0.0 -1.079735805607e-03 
-1.269594224654e-03 -2.151916428327e-03 0.0 
-2.151916428327e-03 4.311241093571e-03 0.0 
0.0 0.0 -1.081849276551e-03 
-4.912617181252e-04 1.776659374520e-03 0.0 
1.776659374520e-03 2.250419150674e-03 0.0 
0.0 0.0 -7.539246139495e-04 
2.432965561316e-03 -1.404722775878e-03 0.0 
-1.404722775878e-03 -1.097996306609e-03 0.0 
0.0 0.0 -5.721296805885e-04 
-1.672927313923e-03 -1.115371020166e-03 0.0 
-1.115371020166e-03 5.017856732658e-03 0.0 
0.0 0.0 -1.052805964859e-03 
-1.580075754320e-03 2.157353104837e-04 0.0 
2.157353104837e-04 6.692661968395e-03 0.0 
0.0 0.0 -9.615701295831e-04 
-1.562907036777e-03 2.120583330649e-04 0.0 
2.120583330649e-04 6.337987109484e-03 0.0 
0.0 0.0 -8.972249362023e-04 
-6.223529423683e-04 1.809817658288e-03 0.0 
1.809817658288e-03 2.623397927817e-03 0.0 
0.0 0.0 -8.575907080495e-04 
-1.509705893005e-03 -1.747591078712e-03 0.0 
-1.747591078712e-03 4.715855182949e-03 0.0 
0.0 0.0 -1.032785096058e-03 
1.569414128809e-03 -2.550888608895e-03 0.0 
-2.550888608895e-03 -3.370499251341e-04 0.0 
0.0 0.0 -5.281560872893e-04 
8.209882341614e-04 2.381580320664e-03 0.0 
2.381580320664e-03 4.553315452112e-04 0.0 
0.0 0.0 -5.469941911596e-04 
-2.931643961127e-04 1.527189756473e-03 0.0 
1.527189756473e-03 3.869126548266e-03 0.0 
0.0 0.0 -1.202908440308e-03 
1.382596818972e-04 -2.070148021774e-03 0.0 
-2.070148021774e-03 1.091658495820e-03 0.0 
0.0 0.0 -5.271077904503e-04 
1.398235426833e-03 -2.548773596058e-03 0.0 
-2.548773596058e-03 -7.584749764510e-05 0.0 
0.0 0.0 -5.667376839375e-04 
1.254646909069e-03 2.484629242297e-03 0.0 
2.484629242297e-03 3.513264158718e-04 0.0 
0.0 0.0 -6.882742821176e-04 
-8.245697505670e-04 1.707333830662e-03 0.0 
1.707333830662e-03 2.953610139157e-03 0.0 
0.0 0.0 -7.843752346430e-04 
-1.666758732331e-03 -1.174236117568e-03 0.0 
-1.174236117568e-03 5.037001804565e-03 0.0 
0.0 0.0 -1.079856008588e-03 
-9.244628747481e-04 -1.936309255703e-04 0.0 
-1.936309255703e-04 2.822852214519e-03 0.0 
0.0 0.0 -6.624393034254e-04 
-1.781970376818e-03 1.286452196401e-03 0.0 
1.286452196401e-03 5.020731578576e-03 0.0 
0.0 0.0 -7.824198048058e-04 
-1.484587749919e-03 -1.812874826371e-03 0.0 
-1.812874826371e-03 4.718401123365e-03 0.0 
0.0 0.0 -1.081372135754e-03 
1.084769609676e-03 -2.051097269290e-03 0.0 
-2.051097269290e-03 1.328211131767e-04 0.0 
0.0 0.0 -5.218245955084e-04 
-7.383188819978e-04 -2.755351396555e-03 0.0 
-2.755351396555e-03 3.375108004806e-03 0.0 
0.0 0.0 -1.093992571453e-03 
0.0 0.0 0.0 
0.0 0.0 0.0 
0.0 0.0 0.0 
-1.585395185030e-03 -8.733622601649e-05 0.0 
-8.733622601649e-05 7.915806537563e-03 0.0 
0.0 0.0 -1.152567315725e-03 
1.675271907871e-03 -2.177617042757e-03 0.0 
-2.177617042757e-03 -5.173898653476e-04 0.0 
0.0 0.0 -4.962351610816e-04 
3.706447397786e-05 2.070351060898e-04 0.0 
2.070351060898e-04 3.044600736775e-03 0.0 
0.0 0.0 -1.154039482800e-03 
2.069033457779e-04 2.961881208612e-03 0.0 
2.961881208612e-03 2.494592241471e-03 0.0 
0.0 0.0 -9.821191134873e-04 
-1.685773855788e-03 -1.377399783606e-03 0.0 
-1.377399783606e-03 5.070521373149e-03 0.0 
0.0 0.0 -1.044398856648e-03 
-1.669266621470e-03 -1.454184032041e-03 0.0 
-1.454184032041e-03 5.079788696568e-03 0.0 
0.0 0.0 -1.081576243284e-03 
2.914990553637e-03 -7.685843879532e-04 0.0 
-7.685843879532e-04 -1.358389786941e-03 0.0 
0.0 0.0 -6.671146142982e-04 
1.578300081431e-04 -1.839580637340e-03 0.0 
-1.839580637340e-03 9.146826550122e-04 0.0 
0.0 0.0 -4.596482842094e-04 
5.655633450819e-04 1.634462446329e-03 0.0 
1.634462446329e-03 -4.353216112412e-04 0.0 
0.0 0.0 -5.581788593170e-05 
-1.838374468884e-03 -1.008357892208e-03 0.0 
-1.008357892208e-03 5.389548205880e-03 0.0 
0.0 0.0 -1.053342186814e-03 
-7.735429255109e-05 -5.938829985412e-04 0.0 
-5.938829985412e-04 3.207515001155e-03 0.0 
0.0 0.0 -1.148056181429e-03 
8.407270435530e-04 -2.401906140793e-03 0.0 
-2.401906140793e-03 4.680800088293e-04 0.0 
0.0 0.0 -5.609173081639e-04 
-8.059519139880e-04 3.569609752867e-03 0.0 
3.569609752867e-03 3.937575205409e-03 0.0 
0.0 0.0 -1.000702849114e-03 
-1.423128099077e-04 2.434671484328e-03 0.0 
2.434671484328e-03 1.829214520191e-03 0.0 
0.0 0.0 -7.229578758357e-04 
-1.050409536978e-03 3.126628093613e-03 0.0 
3.126628093613e-03 4.667808075339e-03 0.0 
0.0 0.0 -1.005614027492e-03 
-9.737300203529e-04 -1.654439195094e-03 0.0 
-1.654439195094e-03 5.294537233988e-03 0.0 
0.0 0.0 -1.266534580134e-03 
0.0 0.0 0.0 
0.0 0.0 0.0 
0.0 0.0 0.0 
-1.341620833825e-03 1.946460220436e-04 0.0 
1.946460220436e-04 8.726655578502e-03 0.0 
0.0 0.0 -1.341620833825e-03 
-1.340051318819e-03 -5.222823624513e-04 0.0 
-5.222823624513e-04 7.102242080382e-03 0.0 
0.0 0.0 -1.340051318819e-03 
-1.487218295656e-03 -1.877140319118e-04 0.0 
-1.877140319118e-04 5.546795712007e-03 0.0 
0.0 0.0 -7.955197795907e-04 
9.332368058577e-04 -2.323240235713e-03 0.0 
-2.323240235713e-03 3.557999178189e-04 0.0 
0.0 0.0 -5.524443101471e-04 
4.489255113101e-05 3.284657334475e-03 0.0 
3.284657334475e-03 2.631811467132e-03 0.0 
0.0 0.0 -9.543595451430e-04 
3.058132153657e-03 -1.043711929510e-04 0.0 
-1.043711929510e-04 -1.411540431284e-03 0.0 
0.0 0.0 -7.056821667315e-04 
-3.299569164523e-05 -1.162968038586e-03 0.0 
-1.162968038586e-03 1.091173189700e-03 0.0 
0.0 0.0 -3.090400745732e-04 
1.030310979761e-05 1.128896374671e-03 0.0 
1.128896374671e-03 4.206078466741e-04 0.0 
0.0 0.0 -1.846761242021e-04 
-1.574977123889e-03 5.363765110094e-04 0.0 
5.363765110094e-04 8.165141429638e-03 0.0 
0.0 0.0 -1.209499414335e-03 
-1.716498366635e-03 2.104119454666e-03 0.0 
2.104119454666e-03 5.843034081691e-03 0.0 
0.0 0.0 -9.648175333861e-04 
-1.733356707705e-03 1.154742806149e-03 0.0 
1.154742806149e-03 4.860119042041e-03 0.0 
0.0 0.0 -7.487175554447e-04 
-1.114495707937e-03 3.137897512820e-03 0.0 
3.137897512820e-03 5.995042437661e-03 0.0 
0.0 0.0 -1.323661129950e-03 
-8.127251142362e-04 -1.412537566310e-04 0.0 
-1.412537566310e-04 2.411308652960e-03 0.0 
0.0 0.0 -5.128881373376e-04 
-1.119968701545e-03 2.850061398458e-03 0.0 
2.850061398458e-03 5.775097260118e-03 0.0 
0.0 0.0 -1.324908485340e-03 
-1.665581242751e-03 2.319761122546e-03 0.0 
2.319761122546e-03 5.793099015745e-03 0.0 
0.0 0.0 -9.670422101491e-04 
5.568715715285e-04 -2.770077582360e-03 0.0 
-2.770077582360e-03 9.496266440003e-04 0.0 
0.0 0.0 -6.456420923695e-04 
2.161043505782e-04 3.547732125549e-03 0.0 
3.547732125549e-03 1.898015910390e-03 0.0 
0.0 0.0 -9.060515404150e-04 
9.950905598312e-04 -2.671652170698e-03 0.0 
-2.671652170698e-03 4.709180402517e-04 0.0 
0.0 0.0 -6.282894000355e-04 
6.980021611784e-04 2.329704923171e-03 0.0 
2.329704923171e-03 5.591408928334e-04 0.0 
0.0 0.0 -5.387755945765e-04 
7.505691487916e-04 -2.806175756815e-03 0.0 
-2.806175756815e-03 7.604579484207e-04 0.0 
0.0 0.0 -6.475830416624e-04 
-1.523404584578e-03 2.773030803061e-03 0.0 
2.773030803061e-03 5.696563371559e-03 0.0 
0.0 0.0 -1.023749757194e-03 
-1.948666597127e-03 -9.778535476886e-04 0.0 
-9.778535476886e-04 6.429483775968e-03 0.0 
0.0 0.0 -1.155390781228e-03 
1.789573321784e-03 -2.334741346390e-03 0.0 
-2.334741346390e-03 -4.865776105569e-04 0.0 
0.0 0.0 -5.584267333832e-04 
-9.825735489597e-04 3.435129640079e-03 0.0 
3.435129640079e-03 4.478995622056e-03 0.0 
0.0 0.0 -1.036271578259e-03 
0.0 0.0 0.0 
0.0 0.0 0.0 
0.0 0.0 0.0 
2.596759179503e-03 -1.389222099922e-03 0.0 
-1.389222099922e-03 -1.085257982110e-03 0.0 
0.0 0.0 -6.477862274541e-04 
-1.710970656604e-03 2.103685284721e-03 0.0 
2.103685284721e-03 6.525687664567e-03 0.0 
0.0 0.0 -1.066385360782e-03 
2.404574348015e-04 -2.949261258943e-03 0.0 
-2.949261258943e-03 1.482737397066e-03 0.0 
0.0 0.0 -7.385120708004e-04 
6.388802882870e-04 -2.505035958296e-03 0.0 
-2.505035958296e-03 7.105369687538e-04 0.0 
0.0 0.0 -5.783216815889e-04 
3.613031293431e-04 3.302322730047e-03 0.0 
3.302322730047e-03 1.977511413847e-03 0.0 
0.0 0.0 -9.187611816440e-04 
1.834377336541e-03 -2.869898485884e-03 0.0 
-2.869898485884e-03 -1.676988345135e-04 0.0 
0.0 0.0 -7.142907865831e-04 
-2.603602936992e-04 1.802957872284e-03 0.0 
1.802957872284e-03 1.690888390106e-03 0.0 
0.0 0.0 -6.130834698885e-04 
-3.766094290651e-04 1.893748037744e-03 0.0 
1.893748037744e-03 2.022328291586e-03 0.0 
0.0 0.0 -7.053080839374e-04 
2.569187355972e-04 -2.744654995445e-03 0.0 
-2.744654995445e-03 1.329889881086e-03 0.0 
0.0 0.0 -6.800608357214e-04 
9.113223760588e-04 -2.364957113740e-03 0.0 
-2.364957113740e-03 3.924099138829e-04 0.0 
0.0 0.0 -5.587424099750e-04 
1.417197887517e-03 2.585133621544e-03 0.0 
2.585133621544e-03 -7.607709962934e-05 0.0 
0.0 0.0 -5.747660519518e-04 
-8.949493316928e-04 3.143090586373e-03 0.0 
3.143090586373e-03 4.528621917534e-03 0.0 
0.0 0.0 -1.033897369924e-03 
-1.400349245868e-03 3.030732209316e-03 0.0 
3.030732209316e-03 6.703483299750e-03 0.0 
0.0 0.0 -1.224260864640e-03 
-5.253406665386e-04 1.775908047208e-03 0.0 
1.775908047208e-03 2.340968666104e-03 0.0 
0.0 0.0 -7.781262855279e-04 
-1.583002963210e-03 -1.557788336479e-04 0.0 
-1.557788336479e-04 7.086569384723e-03 0.0 
0.0 0.0 -1.028620860735e-03 
-1.145284533028e-03 3.268026662313e-03 0.0 
3.268026662313e-03 5.700409497196e-03 0.0 
0.0 0.0 -1.228414553209e-03 
3.124385303303e-03 -1.108728093105e-05 0.0 
-1.108728093105e-05 -1.500119221682e-03 0.0 
0.0 0.0 -6.961140349804e-04 
5.697530012785e-04 2.144073309248e-03 0.0 
2.144073309248e-03 5.848519704173e-04 0.0 
0.0 0.0 -4.948307021553e-04 
-2.816210062748e-04 2.601627525948e-03 0.0 
2.601627525948e-03 2.228068929511e-03 0.0 
0.0 0.0 -8.341919671012e-04 
8.341721467740e-04 -2.510433576068e-03 0.0 
-2.510433576068e-03 5.276394565767e-04 0.0 
0.0 0.0 -5.836335442932e-04 
-1.247042165843e-03 3.250100918931e-03 0.0 
3.250100918931e-03 5.099970820779e-03 0.0 
0.0 0.0 -1.043024347135e-03 
1.027519968218e-03 -2.380813166548e-03 0.0 
-2.380813166548e-03 3.112209895361e-04 0.0 
0.0 0.0 -5.737461247516e-04 
1.268606586028e-03 2.037384257040e-03 0.0 
2.037384257040e-03 -4.121339973903e-04 0.0 
0.0 0.0 -3.670596808449e-04 
5.930292221715e-04 -2.622911752925e-03 0.0 
-2.622911752925e-03 8.838728538733e-04 0.0 
0.0 0.0 -6.329580325906e-04 
5.486710723125e-04 2.332384511628e-03 0.0 
2.332384511628e-03 7.102378801027e-04 0.0 
0.0 0.0 -5.395324081779e-04 
1.682768200706e-03 2.516609952748e-03 0.0 
2.516609952748e-03 -2.542264434373e-04 0.0 
0.0 0.0 -6.122321816867e-04 
7.358023053180e-04 -2.505051408807e-03 0.0 
-2.505051408807e-03 7.718123993888e-04 0.0 
0.0 0.0 -6.461205877315e-04 
2.812366509539e-04 3.418056531118e-03 0.0 
3.418056531118e-03 1.761992896829e-03 0.0 
0.0 0.0 -8.756698061928e-04 
-1.585509504414e-03 6.854986193214e-05 0.0 
6.854986193214e-05 6.515313053331e-03 0.0 
0.0 0.0 -9.494079867578e-04 
1.950119496099e-04 -2.582141659643e-03 0.0 
-2.582141659643e-03 1.322040652856e-03 0.0 
0.0 0.0 -6.501654010570e-04 
9.460441418101e-04 2.468386529063e-03 0.0 
2.468386529063e-03 3.152412733386e-04 0.0 
0.0 0.0 -5.405508922066e-04 
5.243693270813e-04 -2.069869324487e-03 0.0 
-2.069869324487e-03 1.498209352589e-03 0.0 
0.0 0.0 -8.668194341442e-04 
3.838921855015e-04 2.277447822888e-03 0.0 
2.277447822888e-03 8.700555358996e-04 0.0 
0.0 0.0 -5.374061663147e-04 
0.0 0.0 0.0 
0.0 0.0 0.0 
0.0 0.0 0.0 
-1.483198277618e-03 2.721071498371e-04 0.0 
2.721071498371e-04 8.165740664983e-03 0.0 
0.0 0.0 -1.223389224544e-03 
-1.535254932215e-03 2.717190120097e-04 0.0 
2.717190120097e-04 7.854733745092e-03 0.0 
0.0 0.0 -1.157435638217e-03 
1.714590457335e-06 -7.115369139069e-04 0.0 
-7.115369139069e-04 4.515715516867e-04 0.0 
0.0 0.0 -1.942654894903e-04 
3.878432463794e-04 -2.223127307783e-03 0.0 
-2.223127307783e-03 1.630928175518e-03 0.0 
0.0 0.0 -8.651877522419e-04 
-2.798740380973e-05 -2.159694096595e-03 0.0 
-2.159694096595e-03 1.431561792510e-03 0.0 
0.0 0.0 -6.015318808715e-04 
-1.829025907462e-04 -2.119639284792e-03 0.0 
-2.119639284792e-03 1.714857895665e-03 0.0 
0.0 0.0 -6.565522735366e-04 
-1.017733219917e-03 3.364025437069e-03 0.0 
3.364025437069e-03 4.897256146699e-03 0.0 
0.0 0.0 -1.100737838324e-03 
5.257552207879e-04 2.875144563505e-03 0.0 
2.875144563505e-03 1.853285664374e-03 0.0 
0.0 0.0 -9.467522836136e-04 
-8.497134643687e-04 3.433349612216e-03 0.0 
3.433349612216e-03 4.357788075562e-03 0.0 
0.0 0.0 -1.064854740548e-03 
2.203223739880e-03 -1.975974349915e-03 0.0 
-1.975974349915e-03 -9.232686555068e-04 0.0 
0.0 0.0 -5.485521790173e-04 
-1.446388010227e-03 1.342323327112e-04 0.0 
1.342323327112e-04 5.217166277606e-03 0.0 
0.0 0.0 -7.105917616147e-04 
-1.197543499266e-03 -1.810608894436e-03 0.0 
-1.810608894436e-03 5.325302062837e-03 0.0 
0.0 0.0 -1.281538364137e-03 
-1.726353625323e-04 -1.807145954026e-03 0.0 
-1.807145954026e-03 1.497715714659e-03 0.0 
0.0 0.0 -5.678915794828e-04 
2.222123337372e-04 -1.923483587620e-05 0.0 
-1.923483587620e-05 2.651456288210e-03 0.0 
0.0 0.0 -1.121221582973e-03 
1.156875498320e-03 3.056207622502e-03 0.0 
3.056207622502e-03 4.647886417546e-04 0.0 
0.0 0.0 -6.949989171746e-04 
-5.424671300971e-04 -2.887281693977e-04 0.0 
-2.887281693977e-04 1.675559050033e-03 0.0 
0.0 0.0 -3.973267919445e-04 
-1.360155763593e-03 3.097514486866e-03 0.0 
3.097514486866e-03 5.194571229381e-03 0.0 
0.0 0.0 -1.015166614560e-03 
2.718308302872e-03 -7.221702226311e-04 0.0 
-7.221702226311e-04 -1.243788694723e-03 0.0 
0.0 0.0 -6.319369749211e-04 
2.871950510200e-04 -2.057705951039e-03 0.0 
-2.057705951039e-03 8.654869691646e-04 0.0 
0.0 0.0 -4.940065800791e-04 
2.698077562336e-03 -1.426914000199e-03 0.0 
-1.426914000199e-03 -1.126048004927e-03 0.0 
0.0 0.0 -6.737269531753e-04 
-2.035172389928e-03 5.681521720379e-05 0.0 
5.681521720379e-05 5.818689376235e-03 0.0 
0.0 0.0 -1.069816800183e-03 
-1.547603731344e-03 2.557965682965e-03 0.0 
2.557965682965e-03 5.760856088478e-03 0.0 
0.0 0.0 -1.020980360542e-03 
3.535477644423e-04 -2.409077986448e-03 0.0 
-2.409077986448e-03 9.968391477695e-04 0.0 
0.0 0.0 -5.787372480908e-04 
-1.638049386592e-03 -5.261620418510e-04 0.0 
-5.261620418510e-04 4.881654597217e-03 0.0 
0.0 0.0 -1.045407985144e-03 
-1.131069213092e-03 3.339054972024e-03 0.0 
3.339054972024e-03 5.004170711216e-03 0.0 
0.0 0.0 -1.071782534217e-03 
7.849170986353e-05 2.002784816892e-03 0.0 
2.002784816892e-03 3.087471277383e-03 0.0 
0.0 0.0 -1.109893377180e-03 
5.081300325286e-04 -2.843687144981e-03 0.0 
-2.843687144981e-03 1.050709009186e-03 0.0 
0.0 0.0 -6.680738750205e-04 
-8.485846460072e-04 -2.429092323345e-04 0.0 
-2.429092323345e-04 2.701937249489e-03 0.0 
0.0 0.0 -7.163733244607e-04 
1.054276666128e-03 2.747625866901e-03 0.0 
2.747625866901e-03 4.044819373952e-04 0.0 
0.0 0.0 -6.251822586527e-04 
-1.556582639800e-03 -2.026954580916e-04 0.0 
-2.026954580916e-04 6.435079901625e-03 0.0 
0.0 0.0 -9.278975173457e-04 
6.306613738133e-04 -2.843431008643e-03 0.0 
-2.843431008643e-03 9.087558385051e-04 0.0 
0.0 0.0 -6.597502338507e-04 
-1.151665732863e-03 3.368799827368e-03 0.0 
3.368799827368e-03 6.118948746046e-03 0.0 
0.0 0.0 -1.269179263065e-03 
-1.428509069589e-03 2.793670889960e-03 0.0 
2.793670889960e-03 7.317810969107e-03 0.0 
0.0 0.0 -1.281197857596e-03 
-1.509195270466e-03 -1.457985023921e-04 0.0 
-1.457985023921e-04 5.771603983327e-03 0.0 
0.0 0.0 -8.387747867703e-04 
-1.581495188537e-03 1.397540288099e-03 0.0 
1.397540288099e-03 8.227342162666e-03 0.0 
0.0 0.0 -1.255037608383e-03 
-1.367281596907e-03 3.139996712098e-03 0.0 
3.139996712098e-03 6.951432883282e-03 0.0 
0.0 0.0 -1.285499913836e-03 
2.109542503114e-03 -1.930775448323e-03 0.0 
-1.930775448323e-03 -7.849211290522e-04 0.0 
0.0 0.0 -5.676948745980e-04 
1.380801218232e-03 -2.351235301793e-03 0.0 
-2.351235301793e-03 -1.698746639676e-04 0.0 
0.0 0.0 -5.189685232560e-04 
-5.757297583633e-04 4.366962327414e-04 0.0 
4.366962327414e-04 4.537400147680e-03 0.0 
0.0 0.0 -1.265535665854e-03 
0.0 0.0 0.0 
0.0 0.0 0.0 
0.0 0.0 0.0 
-8.394320087675e-04 -3.205840844428e-05 0.0 
-3.205840844428e-05 2.565992005118e-03 0.0 
0.0 0.0 -6.072167217314e-04 
-1.628413269992e-03 -1.673586948164e-04 0.0 
-1.673586948164e-04 4.868895534125e-03 0.0 
0.0 0.0 -1.067827858613e-03 
4.161330338528e-04 -2.673128765629e-03 0.0 
-2.673128765629e-03 1.065048131365e-03 0.0 
0.0 0.0 -6.347919279505e-04 
1.927385449734e-03 -2.370761864729e-03 0.0 
-2.370761864729e-03 -5.075034197406e-04 0.0 
0.0 0.0 -6.085208699972e-04 
-3.171269370445e-05 1.814506539183e-03 0.0 
1.814506539183e-03 1.218095740662e-03 0.0 
0.0 0.0 -5.084498772674e-04 
-1.067456340534e-04 1.927365287384e-03 0.0 
1.927365287384e-03 1.436121596143e-03 0.0 
0.0 0.0 -5.697325551813e-04 
-1.696184299969e-03 4.188758800933e-04 0.0 
4.188758800933e-04 5.835163577314e-03 0.0 
0.0 0.0 -8.290026594306e-04 
2.687649412673e-03 -1.534651648036e-03 0.0 
-1.534651648036e-03 -1.236375441606e-03 0.0 
0.0 0.0 -6.219745590288e-04 
-8.374689021838e-04 -7.956683833314e-04 0.0 
-7.956683833314e-04 2.821114433129e-03 0.0 
0.0 0.0 -8.100060677168e-04 
-5.763887782378e-05 2.884104717794e-03 0.0 
2.884104717794e-03 2.960925031656e-03 0.0 
0.0 0.0 -1.077832113627e-03 
-1.357626258592e-03 -2.064052997114e-03 0.0 
-2.064052997114e-03 6.484172296954e-03 0.0 
0.0 0.0 -1.324978758543e-03 
-1.316853930481e-03 -2.171233133158e-03 0.0 
-2.171233133158e-03 6.262828385778e-03 0.0 
0.0 0.0 -1.320624918399e-03 
1.210545566472e-03 -2.440771907645e-03 0.0 
-2.440771907645e-03 2.098806390541e-04 0.0 
0.0 0.0 -6.087540880828e-04 
-1.669792706879e-03 7.585625911679e-04 0.0 
7.585625911679e-04 5.225921064138e-03 0.0 
0.0 0.0 -7.877541558771e-04 
0.0 0.0 0.0 
0.0 0.0 0.0 
0.0 0.0 0.0 
1.526705898496e-04 1.832423170921e-03 0.0 
1.832423170921e-03 9.162592996274e-04 0.0 
0.0 0.0 -4.581128097759e-04 
1.694782762505e-03 -3.278967534484e-03 0.0 
-3.278967534484e-03 -3.718783773796e-04 0.0 
0.0 0.0 -5.669590221966e-04 
7.211551457005e-05 1.826082030850e-03 0.0 
1.826082030850e-03 1.040988995356e-03 0.0 
0.0 0.0 -4.770447899684e-04 
8.520859723696e-04 2.702963814911e-03 0.0 
2.702963814911e-03 1.160586394610e-03 0.0 
0.0 0.0 -8.625738715628e-04 
1.049602008115e-03 -2.610080274348e-03 0.0 
-2.610080274348e-03 3.535904184599e-04 0.0 
0.0 0.0 -6.013681828177e-04 
1.924226435236e-03 -2.386188926630e-03 0.0 
-2.386188926630e-03 -7.021276801158e-04 0.0 
0.0 0.0 -5.237566093371e-04 
8.906199206854e-04 -2.335912402002e-03 0.0 
-2.335912402002e-03 -6.441539282859e-04 0.0 
0.0 0.0 -1.056282824569e-04 
-1.518150307999e-03 2.180517986998e-04 0.0 
2.180517986998e-04 7.814279060755e-03 0.0 
0.0 0.0 -1.176327079312e-03 
1.081599261770e-03 -2.356565631716e-03 0.0 
-2.356565631716e-03 1.958644745057e-04 0.0 
0.0 0.0 -5.474844584040e-04 
-1.503838573524e-03 8.537407365334e-04 0.0 
8.537407365334e-04 8.091641180223e-03 0.0 
0.0 0.0 -1.212957849656e-03 
-1.563004608103e-03 1.345074243690e-04 0.0 
1.345074243690e-04 7.574721874408e-03 0.0 
0.0 0.0 -1.117460450001e-03 
-1.452677521913e-03 3.546154927313e-04 0.0 
3.546154927313e-04 8.989483437301e-03 0.0 
0.0 0.0 -1.319418651152e-03 
-1.573682658163e-03 -6.434523803718e-04 0.0 
-6.434523803718e-04 7.311749488072e-03 0.0 
0.0 0.0 -1.324849633189e-03 
-1.522640732825e-03 1.776300828802e-04 0.0 
1.776300828802e-04 5.910709247101e-03 0.0 
0.0 0.0 -8.315138651140e-04 
8.069897163257e-04 -2.530526196753e-03 0.0 
-2.530526196753e-03 5.619735093356e-04 0.0 
0.0 0.0 -5.866985252834e-04 
-2.779641202251e-04 1.703949019227e-03 0.0 
1.703949019227e-03 1.672572981451e-03 0.0 
0.0 0.0 -5.976895119538e-04 
7.490285409449e-04 -3.064892262470e-03 0.0 
-3.064892262470e-03 9.033898181147e-04 0.0 
0.0 0.0 -7.081792967398e-04 
-1.343328350294e-03 -1.797161006887e-03 0.0 
-1.797161006887e-03 6.496235434020e-03 0.0 
0.0 0.0 -1.343328350294e-03 
1.770851489837e-04 1.574613937019e-03 0.0 
1.574613937019e-03 7.197174740553e-04 0.0 
0.0 0.0 -3.843439813024e-04 
1.884365055557e-04 1.730723292298e-03 0.0 
1.730723292298e-03 7.999529513160e-04 0.0 
0.0 0.0 -4.235954815164e-04 
5.120454739847e-05 4.425631252095e-04 0.0 
4.425631252095e-04 3.081010907522e-03 0.0 
0.0 0.0 -1.156027955174e-03 
-1.600063486753e-03 4.454182285367e-04 0.0 
4.454182285367e-04 5.553533901810e-03 0.0 
0.0 0.0 -7.715229432315e-04 
-1.496300168116e-03 6.368230222668e-04 0.0 
6.368230222668e-04 8.172597464420e-03 0.0 
0.0 0.0 -1.219279742240e-03 
-1.079188820050e-03 3.032068943539e-03 0.0 
3.032068943539e-03 5.044159493797e-03 0.0 
0.0 0.0 -1.069611963270e-03 
-3.125996649261e-04 2.376006221788e-03 0.0 
2.376006221788e-03 3.643123644996e-03 0.0 
0.0 0.0 -1.175036385391e-03 
-1.440706362563e-03 2.765679407787e-03 0.0 
2.765679407787e-03 6.040073424197e-03 0.0 
0.0 0.0 -1.113576918908e-03 
-1.533426048517e-03 3.483355765343e-04 0.0 
3.483355765343e-04 5.830518730214e-03 0.0 
0.0 0.0 -8.542750875040e-04 
4.145616627609e-04 -2.510686493370e-03 0.0 
-2.510686493370e-03 9.700386978898e-04 0.0 
0.0 0.0 -5.934001545646e-04 
5.188237827814e-04 -2.738227656747e-03 0.0 
-2.738227656747e-03 9.760172721955e-04 0.0 
0.0 0.0 -6.406461664186e-04 
-1.559322814184e-03 2.985337068608e-04 0.0 
2.985337068608e-04 6.828450389527e-03 0.0 
0.0 0.0 -9.963059934037e-04 
-1.981024320875e-04 2.157190390334e-03 0.0 
2.157190390334e-03 3.614846179737e-03 0.0 
0.0 0.0 -1.142506377625e-03 
-1.686833987170e-03 9.535938984725e-04 0.0 
9.535938984725e-04 4.721621554871e-03 0.0 
0.0 0.0 -7.386355146563e-04 
-1.463703012742e-03 6.266658719779e-05 0.0 
6.266658719779e-05 5.604963867248e-03 0.0 
0.0 0.0 -7.676068998053e-04 
-1.515549186513e-03 3.697674288865e-05 0.0 
3.697674288865e-05 5.930448629907e-03 0.0 
0.0 0.0 -8.242303029217e-04 
-1.592254304502e-03 -3.437592554212e-05 0.0 
-3.437592554212e-05 6.006274404460e-03 0.0 
0.0 0.0 -8.467401457521e-04 
1.475757754276e-03 -1.289294546505e-03 0.0 
-1.289294546505e-03 -9.417009757612e-04 0.0 
0.0 0.0 -2.288814765064e-04 
2.490964718879e-04 -2.584180670905e-03 0.0 
-2.584180670905e-03 1.241456993708e-03 0.0 
0.0 0.0 -6.388086281126e-04 
-1.524289002589e-03 1.055576054381e-03 0.0 
1.055576054381e-03 8.572679794113e-03 0.0 
0.0 0.0 -1.269310366786e-03 
-1.609154575879e-03 5.927002029432e-05 0.0 
5.927002029432e-05 6.380922986421e-03 0.0 
0.0 0.0 -9.150577043801e-04 
-9.099437829954e-04 1.617518349232e-03 0.0 
1.617518349232e-03 4.661075676102e-03 0.0 
0.0 0.0 -1.295322057178e-03 
-1.481137119135e-03 2.911611220647e-03 0.0 
2.911611220647e-03 6.859531798370e-03 0.0 
0.0 0.0 -1.215577547940e-03 
-1.339321083005e-03 2.882096422564e-03 0.0 
2.882096422564e-03 5.250850385045e-03 0.0 
0.0 0.0 -1.012565562176e-03 
-1.640900346179e-03 1.517631824607e-03 0.0 
1.517631824607e-03 7.910833663920e-03 0.0 
0.0 0.0 -1.214907066889e-03 
-1.059540956040e-03 -1.334979029727e-03 0.0 
-1.334979029727e-03 3.594823103032e-03 0.0 
0.0 0.0 -9.974489174931e-04 
-1.013156646554e-03 -1.368118382081e-03 0.0 
-1.368118382081e-03 3.447232281497e-03 0.0 
0.0 0.0 -9.464646038184e-04 
-1.053605941392e-03 -1.657375267239e-03 0.0 
-1.657375267239e-03 4.938505543447e-03 0.0 
0.0 0.0 -1.226851238141e-03 
0.0 0.0 0.0 
0.0 0.0 0.0 
0.0 0.0 0.0 
-9.591830860426e-04 -2.723797524876e-04 0.0 
-2.723797524876e-04 2.822378765221e-03 0.0 
0.0 0.0 -5.777536677209e-04 
-1.342405754833e-03 2.832331701177e-03 0.0 
2.832331701177e-03 5.623065616304e-03 0.0 
0.0 0.0 -1.342405754833e-03 
-1.232108481340e-04 -4.438827698639e-05 0.0 
-4.438827698639e-05 1.111663342237e-03 0.0 
0.0 0.0 -2.724401835525e-04 
-1.475085458698e-03 8.547838585484e-05 0.0 
8.547838585484e-05 5.344445388578e-03 0.0 
0.0 0.0 -7.870118106326e-04 
-3.041907190684e-04 -2.929338759418e-04 0.0 
-2.929338759418e-04 3.995006628254e-03 0.0 
0.0 0.0 -1.213461936786e-03 
-7.635875139995e-06 -1.081722019394e-03 0.0 
-1.081722019394e-03 7.060070926500e-04 0.0 
0.0 0.0 -2.993019503614e-04 
1.505773719545e-03 -8.263394782763e-04 0.0 
-8.263394782763e-04 -6.336254798977e-05 0.0 
0.0 0.0 -2.382422751898e-04 
-1.473393185853e-03 1.353598964677e-03 0.0 
1.353598964677e-03 8.746165970417e-03 0.0 
0.0 0.0 -1.324389858384e-03 
-1.521392000938e-03 2.912474066464e-04 0.0 
2.912474066464e-04 4.940937614450e-03 0.0 
0.0 0.0 -7.294542769151e-04 
-1.503978704987e-03 1.473877310897e-03 0.0 
1.473877310897e-03 8.344062810088e-03 0.0 
0.0 0.0 -1.261418349269e-03 
-5.327298325037e-04 3.575837178235e-04 0.0 
3.575837178235e-04 3.642687559217e-03 0.0 
0.0 0.0 -1.231858344535e-03 
-1.518533849991e-03 1.071472041001e-04 0.0 
1.071472041001e-04 4.942575461076e-03 0.0 
0.0 0.0 -7.289279708929e-04 
0.0 0.0 0.0 
0.0 0.0 0.0 
0.0 0.0 0.0 
-1.422405127371e-03 1.531540875437e-04 0.0 
1.531540875437e-04 8.427070743481e-03 0.0 
0.0 0.0 -1.284140717545e-03 
-3.551011727049e-04 -7.009671051649e-04 0.0 
-7.009671051649e-04 1.319322733909e-03 0.0 
0.0 0.0 -3.479328688591e-04 
-1.509662464093e-03 1.187111297047e-03 0.0 
1.187111297047e-03 8.089981201651e-03 0.0 
0.0 0.0 -1.232184317627e-03 
-1.343095105526e-03 -1.540983607491e-03 0.0 
-1.540983607491e-03 6.702452530061e-03 0.0 
0.0 0.0 -1.343095105526e-03 
-1.554707611052e-03 2.562602135152e-03 0.0 
2.562602135152e-03 7.111310188225e-03 0.0 
0.0 0.0 -1.225700354592e-03 
2.173759747286e-03 -1.419935824116e-03 0.0 
-1.419935824116e-03 -1.114841162711e-03 0.0 
0.0 0.0 -4.538222505322e-04 
-1.741082427331e-03 1.054953553281e-03 0.0 
1.054953553281e-03 5.737463170789e-03 0.0 
0.0 0.0 -8.279144014868e-04 
-1.224194647146e-03 -9.467109309958e-04 0.0 
-9.467109309958e-04 3.877522353974e-03 0.0 
0.0 0.0 -9.630043323905e-04 
6.517046530340e-05 2.327281681424e-03 0.0 
2.327281681424e-03 2.984838930141e-03 0.0 
0.0 0.0 -1.077599360682e-03 
-1.012701747737e-03 1.623436123670e-03 0.0 
1.623436123670e-03 5.329514602195e-03 0.0 
0.0 0.0 -1.326997735404e-03 
-1.585109039191e-03 2.780588406276e-04 0.0 
2.780588406276e-04 7.347999637207e-03 0.0 
0.0 0.0 -1.061614915164e-03 
-1.008710860855e-03 1.312542642731e-03 0.0 
1.312542642731e-03 5.209194240256e-03 0.0 
0.0 0.0 -1.325870641008e-03 
3.673422327950e-04 -3.776124720398e-04 0.0 
-3.776124720398e-04 -3.673422327950e-04 0.0 
0.0 0.0 0.0 
-1.430003464036e-03 -1.969193470792e-03 0.0 
-1.969193470792e-03 6.388366935774e-03 0.0 
0.0 0.0 -1.277656510522e-03 
2.370305391374e-03 -2.562363361486e-03 0.0 
-2.562363361486e-03 -6.166549384612e-04 0.0 
0.0 0.0 -7.515644798196e-04 
-3.100324176095e-04 -2.408320728402e-04 0.0 
-2.408320728402e-04 1.151728361162e-03 0.0 
0.0 0.0 -2.782378078114e-04 
-7.322007537650e-04 -9.555468943118e-04 0.0 
-9.555468943118e-04 4.734669521016e-03 0.0 
0.0 0.0 -1.270335377537e-03 
-1.575122942683e-03 2.171152972729e-03 0.0 
2.171152972729e-03 8.127111917130e-03 0.0 
0.0 0.0 -1.270603359501e-03 
-1.496692965649e-03 1.319095711312e-03 0.0 
1.319095711312e-03 8.369617950368e-03 0.0 
0.0 0.0 -1.289850838753e-03 
-1.498527200318e-03 3.689228571039e-04 0.0 
3.689228571039e-04 5.398355138859e-03 0.0 
0.0 0.0 -7.762633204683e-04 
-1.744558354744e-03 1.631310676350e-03 0.0 
1.631310676350e-03 5.391746306119e-03 0.0 
0.0 0.0 -8.489529362435e-04 
7.301121496963e-04 2.437654514774e-03 0.0 
2.437654514774e-03 5.848010967936e-04 0.0 
0.0 0.0 -5.635342484957e-04 
-1.427601509624e-03 3.175353375607e-03 0.0 
3.175353375607e-03 7.125136039489e-03 0.0 
0.0 0.0 -1.273041473476e-03 
-1.038080719471e-03 -6.334570087308e-04 0.0 
-6.334570087308e-04 3.329140480764e-03 0.0 
0.0 0.0 -8.764843149172e-04 
1.193441318594e-03 2.328942464463e-03 0.0 
2.328942464463e-03 3.040131158427e-05 0.0 
0.0 0.0 -5.245039843621e-04 
-2.118585962265e-05 2.523859735457e-03 0.0 
2.523859735457e-03 3.050030047244e-03 0.0 
0.0 0.0 -1.110141529071e-03 
-1.425138137322e-03 6.470798395339e-05 0.0 
6.470798395339e-05 5.179988142805e-03 0.0 
0.0 0.0 -7.096328662732e-04 
-1.517585115342e-03 2.260614719474e-03 0.0 
2.260614719474e-03 7.684999531697e-03 0.0 
0.0 0.0 -1.237729719596e-03 
-1.422593477448e-03 -1.670334611249e-04 0.0 
-1.670334611249e-04 8.888807101193e-03 0.0 
0.0 0.0 -1.321509982054e-03 
-1.343732204276e-03 1.010834953933e-04 0.0 
1.010834953933e-04 8.744729451207e-03 0.0 
0.0 0.0 -1.343732204276e-03 
3.369232126492e-03 1.693280559230e-04 0.0 
1.693280559230e-04 -1.155841201236e-03 0.0 
0.0 0.0 -6.603666768414e-05 
2.499766675984e-03 -2.952033461878e-04 0.0 
-2.952033461878e-04 -9.796559826583e-04 0.0 
0.0 0.0 -1.532902690118e-04 
-1.416942128620e-03 -1.624029676109e-04 0.0 
-1.624029676109e-04 5.054688992973e-03 0.0 
0.0 0.0 -7.318233512793e-04 
-1.419792893404e-03 3.183177604522e-05 0.0 
3.183177604522e-05 5.196638347434e-03 0.0 
0.0 0.0 -7.096011290571e-04 
-1.343732204276e-03 -2.406936037715e-04 0.0 
-2.406936037715e-04 7.113693032304e-03 0.0 
0.0 0.0 -1.343732204276e-03 
-1.562203585825e-03 1.305016391806e-04 0.0 
1.305016391806e-04 7.294302504235e-03 0.0 
0.0 0.0 -1.321509982054e-03 
2.262811037578e-03 -4.868403071367e-05 0.0 
-4.868403071367e-05 -4.447467837794e-04 0.0 
0.0 0.0 -2.434615908245e-04 
0.0 0.0 0.0 
0.0 0.0 0.0 
0.0 0.0 0.0 
-1.642313907969e-03 -1.143113511814e-03 0.0 
-1.143113511814e-03 6.403076283141e-03 0.0 
0.0 0.0 -1.230181737024e-03 
-7.148794360532e-04 3.164508669310e-03 0.0 
3.164508669310e-03 4.742447412984e-03 0.0 
0.0 0.0 -1.209364118140e-03 
-5.258157990741e-04 -7.879783393280e-04 0.0 
-7.879783393280e-04 1.688623542397e-03 0.0 
0.0 0.0 -3.144533898553e-04 
-1.351136438279e-03 -1.975186179308e-03 0.0 
-1.975186179308e-03 5.772523348463e-03 0.0 
0.0 0.0 -1.240191881334e-03 
-1.731554632553e-03 -2.342398403810e-04 0.0 
-2.342398403810e-04 5.123990276158e-03 0.0 
0.0 0.0 -1.081029080859e-03 
-1.535845139517e-03 -3.312382585291e-04 0.0 
-3.312382585291e-04 4.629162629476e-03 0.0 
0.0 0.0 -1.039595904837e-03 
-1.612928706957e-03 3.113730006726e-04 0.0 
3.113730006726e-04 6.721792739589e-03 0.0 
0.0 0.0 -9.400782610458e-04 
1.101421061084e-03 -2.909512193680e-03 0.0 
-2.909512193680e-03 4.457906368086e-04 0.0 
0.0 0.0 -6.630907276683e-04 
3.131506035800e-04 2.556520147165e-03 0.0 
2.556520147165e-03 2.414585707981e-03 0.0 
0.0 0.0 -1.011657465016e-03 
-1.177300482134e-05 -1.092061392265e-03 0.0 
-1.092061392265e-03 1.284900459222e-03 0.0 
0.0 0.0 -3.097963217911e-04 
-1.220126007134e-03 -1.262020264430e-03 0.0 
-1.262020264430e-03 3.977099482089e-03 0.0 
0.0 0.0 -1.029451436826e-03 
-1.346849968967e-03 3.153673073291e-03 0.0 
3.153673073291e-03 6.593026306646e-03 0.0 
0.0 0.0 -1.240519096027e-03 
-1.527894889398e-03 -1.936018657920e-04 0.0 
-1.936018657920e-04 8.104261702945e-03 0.0 
0.0 0.0 -1.191726112421e-03 
-1.479396360357e-03 -2.989971596189e-04 0.0 
-2.989971596189e-04 4.503238817139e-03 0.0 
0.0 0.0 -1.046336039097e-03 
-1.560842421660e-03 -8.540456832086e-05 0.0 
-8.540456832086e-05 6.232717148515e-03 0.0 
0.0 0.0 -8.745659502648e-04 
-9.955423334814e-04 3.339003162247e-03 0.0 
3.339003162247e-03 5.559555520798e-03 0.0 
0.0 0.0 -1.217119345309e-03 
-1.351529115626e-03 2.876362203055e-03 0.0 
2.876362203055e-03 5.976398005188e-03 0.0 
0.0 0.0 -1.140944809983e-03 
-1.341013158963e-03 2.862888668155e-03 0.0 
2.862888668155e-03 5.603065071307e-03 0.0 
0.0 0.0 -1.076426999079e-03 
-1.492882998354e-03 1.325735461083e-04 0.0 
1.325735461083e-04 4.933841446090e-03 0.0 
0.0 0.0 -7.312123441678e-04 
6.172998628868e-04 2.362607397547e-03 0.0 
2.362607397547e-03 1.812787626421e-03 0.0 
0.0 0.0 -9.763781674015e-04 
-1.502422605285e-03 2.514513612527e-03 0.0 
2.514513612527e-03 7.380594194812e-03 0.0 
0.0 0.0 -1.231404929774e-03 
-8.003792871297e-04 -5.108965880218e-04 0.0 
-5.108965880218e-04 2.603757424793e-03 0.0 
0.0 0.0 -7.107894383394e-04 
1.779720377328e-04 -1.298870854502e-03 0.0 
-1.298870854502e-03 4.337348693579e-04 0.0 
0.0 0.0 -1.164291272224e-04 
-9.970216092610e-04 3.010797291644e-03 0.0 
3.010797291644e-03 5.249606407737e-03 0.0 
0.0 0.0 -1.185975225609e-03 
2.191734593223e-04 5.610847358595e-04 0.0 
5.610847358595e-04 2.599656196276e-03 0.0 
0.0 0.0 -1.123538223191e-03 
1.172927684885e-03 -2.889497196016e-03 0.0 
-2.889497196016e-03 3.300442381492e-04 0.0 
0.0 0.0 -6.441308241577e-04 
-1.607945126080e-03 -1.740082688204e-05 0.0 
-1.740082688204e-05 7.004832338719e-03 0.0 
0.0 0.0 -9.893338170986e-04 
-1.512467681835e-03 -1.269144618606e-03 0.0 
-1.269144618606e-03 6.614649124568e-03 0.0 
0.0 0.0 -1.282739585886e-03 
-7.843923001707e-04 3.075094105696e-03 0.0 
3.075094105696e-03 4.595487038338e-03 0.0 
0.0 0.0 -1.182073443778e-03 
-8.715817867822e-04 3.121670101447e-03 0.0 
3.121670101447e-03 5.293578095492e-03 0.0 
0.0 0.0 -1.215129606110e-03 
-1.899421587696e-03 -4.002758172017e-04 0.0 
-4.002758172017e-04 5.518204821451e-03 0.0 
0.0 0.0 -1.079026350805e-03 
0.0 0.0 0.0 
0.0 0.0 0.0 
0.0 0.0 0.0 
-4.777114925537e-05 1.704067356774e-03 0.0 
1.704067356774e-03 1.178107469511e-03 0.0 
0.0 0.0 -4.844298515380e-04 
4.263341666864e-04 2.474607686413e-03 0.0 
2.474607686413e-03 9.338852604604e-04 0.0 
0.0 0.0 -5.829511830629e-04 
-1.721178049984e-03 1.085378291777e-03 0.0 
1.085378291777e-03 5.473315709064e-03 0.0 
0.0 0.0 -8.471429939415e-04 
4.228609678746e-04 3.021260051708e-03 0.0 
3.021260051708e-03 1.732467119469e-03 0.0 
0.0 0.0 -9.237120374330e-04 
-1.533799557255e-03 6.728038073689e-04 0.0 
6.728038073689e-04 8.237501439824e-03 0.0 
0.0 0.0 -1.236541257690e-03 
-8.719226860915e-04 7.267313533335e-04 0.0 
7.267313533335e-04 4.230245890387e-03 0.0 
0.0 0.0 -1.282325209426e-03 
2.964520960670e-04 -1.978928276592e-03 0.0 
-1.978928276592e-03 8.042557840210e-04 0.0 
0.0 0.0 -4.717319486092e-04 
1.319048487483e-04 -1.576566321261e-03 0.0 
-1.576566321261e-03 7.886992305850e-04 0.0 
0.0 0.0 -3.945446054286e-04 
1.817673251283e-04 1.876543985894e-03 0.0 
1.876543985894e-03 9.002005847285e-04 0.0 
0.0 0.0 -4.637005327958e-04 
-1.570049742763e-03 5.369425789645e-04 0.0 
5.369425789645e-04 6.963270594615e-03 0.0 
0.0 0.0 -1.019242131223e-03 
-9.308723645065e-04 -1.101236884891e-03 0.0 
-1.101236884891e-03 3.096386949501e-03 0.0 
0.0 0.0 -8.257845680531e-04 
-1.587305306336e-03 1.706805244546e-03 0.0 
1.706805244546e-03 7.938189703079e-03 0.0 
0.0 0.0 -1.241298427557e-03 
-4.566804084497e-04 -4.114264182866e-04 0.0 
-4.114264182866e-04 1.625098335496e-03 0.0 
0.0 0.0 -2.728146851408e-04 
-4.193612778590e-04 8.066391699243e-04 0.0 
8.066391699243e-04 3.619638834416e-03 0.0 
0.0 0.0 -1.221152601860e-03 
-1.613149922033e-03 6.729604599103e-04 0.0 
6.729604599103e-04 5.730913827298e-03 0.0 
0.0 0.0 -8.343732341398e-04 
-9.805029045403e-04 2.320290812643e-03 0.0 
2.320290812643e-03 4.821535310315e-03 0.0 
0.0 0.0 -1.286815605725e-03 
-1.972178768770e-04 2.471490219589e-03 0.0 
2.471490219589e-03 3.599121568157e-03 0.0 
0.0 0.0 -1.111121968474e-03 
-1.760642934702e-03 1.153303269584e-03 0.0 
1.153303269584e-03 5.427908306702e-03 0.0 
0.0 0.0 -8.465141837044e-04 
-8.764965121591e-04 -1.556039561585e-03 0.0 
-1.556039561585e-03 5.086777567782e-03 0.0 
0.0 0.0 -1.269142588751e-03 
-1.551933899349e-03 2.142615053803e-03 0.0 
2.142615053803e-03 8.208999000424e-03 0.0 
0.0 0.0 -1.272727265576e-03 
-1.482418812719e-03 2.636741981307e-04 0.0 
2.636741981307e-04 8.672320582664e-03 0.0 
0.0 0.0 -1.271339345674e-03 
2.794840770511e-04 1.877110949586e-03 0.0 
1.877110949586e-03 7.644572491491e-04 0.0 
0.0 0.0 -4.474034255144e-04 
-1.548384254494e-03 1.778472603870e-03 0.0 
1.778472603870e-03 7.853183226647e-03 0.0 
0.0 0.0 -1.218309553141e-03 
-1.238984078820e-03 3.237221125149e-03 0.0 
3.237221125149e-03 5.979697278194e-03 0.0 
0.0 0.0 -1.286645293131e-03 
-2.338452424877e-04 4.838955254747e-04 0.0 
4.838955254747e-04 3.810277403162e-03 0.0 
0.0 0.0 -1.211735819529e-03 
-2.641749654371e-04 2.730651329854e-03 0.0 
2.730651329854e-03 3.539043083142e-03 0.0 
0.0 0.0 -1.143254064081e-03 
-1.342665167303e-03 -1.913201158816e-03 0.0 
-1.913201158816e-03 6.140194887135e-03 0.0 
0.0 0.0 -1.342665167303e-03 
-1.336562494305e-03 3.148621666370e-03 0.0 
3.148621666370e-03 5.546558025077e-03 0.0 
0.0 0.0 -1.079065255302e-03 
0.0 0.0 0.0 
0.0 0.0 0.0 
0.0 0.0 0.0 
1.128782554056e-03 2.722430850094e-03 0.0 
2.722430850094e-03 3.671628183846e-04 0.0 
0.0 0.0 -6.411194453319e-04 
-1.438782275937e-03 2.878593628370e-03 0.0 
2.878593628370e-03 6.406037302073e-03 0.0 
0.0 0.0 -1.176936364471e-03 
-1.717609899646e-03 1.241798828460e-03 0.0 
1.241798828460e-03 5.908300544731e-03 0.0 
0.0 0.0 -8.884613587993e-04 
-1.780913372705e-03 -9.535977727778e-04 0.0 
-9.535977727778e-04 6.697114639858e-03 0.0 
0.0 0.0 -1.221994126432e-03 
-4.533386727007e-04 2.366129578243e-03 0.0 
2.366129578243e-03 4.141621556580e-03 0.0 
0.0 0.0 -1.177009544428e-03 
-1.321487320261e-03 -1.869174225829e-03 0.0 
-1.869174225829e-03 5.949052928407e-03 0.0 
0.0 0.0 -1.292249833993e-03 
-1.557982079132e-03 5.560473992337e-04 0.0 
5.560473992337e-04 7.430714466144e-03 0.0 
0.0 0.0 -1.085521458831e-03 
-9.906508321286e-04 2.010874064209e-03 0.0 
2.010874064209e-03 4.656220140669e-03 0.0 
0.0 0.0 -1.288973456333e-03 
-8.669493969727e-04 -1.781456295850e-03 0.0 
-1.781456295850e-03 4.656567585957e-03 0.0 
0.0 0.0 -1.233322439334e-03 
-8.389834207113e-04 -1.353105162080e-03 0.0 
-1.353105162080e-03 4.612963758963e-03 0.0 
0.0 0.0 -1.235043566395e-03 
-1.060688043098e-03 -7.830630523890e-04 0.0 
-7.830630523890e-04 3.332470677800e-03 0.0 
0.0 0.0 -8.113697483009e-04 
-1.399514092732e-03 -1.981208132211e-03 0.0 
-1.981208132211e-03 6.677395424695e-03 0.0 
0.0 0.0 -1.325641941534e-03 
-1.659266455691e-03 6.538953700681e-04 0.0 
6.538953700681e-04 5.459969626810e-03 0.0 
0.0 0.0 -7.662153309038e-04 
-1.522339522893e-03 2.785636433653e-04 0.0 
2.785636433653e-04 8.220976080768e-03 0.0 
0.0 0.0 -1.217406395242e-03 
2.069000998586e-04 -1.834555044401e-03 0.0 
-1.834555044401e-03 8.418202147660e-04 0.0 
0.0 0.0 -4.494515634106e-04 
-1.554320641115e-03 9.540049576088e-05 0.0 
9.540049576088e-05 8.023345832809e-03 0.0 
0.0 0.0 -1.163202487293e-03 
-1.605625159736e-03 1.859754007895e-04 0.0 
1.859754007895e-04 7.063048343461e-03 0.0 
0.0 0.0 -9.926133712568e-04 
1.071864880333e-03 1.610051896133e-04 0.0 
1.610051896133e-04 5.200375252643e-04 0.0 
0.0 0.0 -3.474471837849e-04 
1.832184275694e-03 -1.682280732148e-03 0.0 
-1.682280732148e-03 -1.155510517394e-03 0.0 
0.0 0.0 -2.900030392716e-04 
-1.244256880666e-03 3.271621003319e-03 0.0 
3.271621003319e-03 5.486132487448e-03 0.0 
0.0 0.0 -1.107581195644e-03 
-1.451044372397e-03 1.126612148562e-03 0.0 
1.126612148562e-03 8.289352558878e-03 0.0 
0.0 0.0 -1.285368862661e-03 
-1.527299749628e-03 6.691441746447e-05 0.0 
6.691441746447e-05 8.328526928916e-03 0.0 
0.0 0.0 -1.223917301752e-03 
-6.542601835067e-04 2.123935983624e-03 0.0 
2.123935983624e-03 4.536265029875e-03 0.0 
0.0 0.0 -1.264779455601e-03 
-1.569067467187e-03 4.931081965661e-04 0.0 
4.931081965661e-04 6.107235089411e-03 0.0 
0.0 0.0 -8.807565902733e-04 
9.036251718301e-04 -7.928332989266e-04 0.0 
-7.928332989266e-04 8.196583140466e-05 0.0 
0.0 0.0 -1.521090440113e-04 
0.0 0.0 0.0 
0.0 0.0 0.0 
0.0 0.0 0.0 
1.535104090838e-04 -8.781412906566e-04 0.0 
-8.781412906566e-04 3.080308650687e-04 0.0 
0.0 0.0 -1.564070233212e-04 
2.353484151011e-04 -2.169776398881e-03 0.0 
-2.169776398881e-03 1.011611602068e-03 0.0 
0.0 0.0 -5.344114359296e-04 
2.375320759924e-05 1.188071943835e-03 0.0 
1.188071943835e-03 -2.375320759924e-05 0.0 
0.0 0.0 0.0 
-1.313634282752e-03 -1.068658817985e-03 0.0 
-1.068658817985e-03 4.125079470398e-03 0.0 
0.0 0.0 -9.906016899089e-04 
-1.765538454854e-03 -6.603659762189e-04 0.0 
-6.603659762189e-04 6.689629757519e-03 0.0 
0.0 0.0 -1.222305993939e-03 
-1.487013992754e-03 2.874720261212e-03 0.0 
2.874720261212e-03 7.173251573241e-03 0.0 
0.0 0.0 -1.222833113937e-03 
-1.810465878115e-03 1.368618358307e-03 0.0 
1.368618358307e-03 5.754603684206e-03 0.0 
0.0 0.0 -8.826313165011e-04 
-9.427899726930e-04 -1.641697169279e-03 0.0 
-1.641697169279e-03 3.388954329502e-03 0.0 
0.0 0.0 -9.886704355714e-04 
-1.052300381815e-03 -2.069501750766e-03 0.0 
-2.069501750766e-03 5.090082794775e-03 0.0 
0.0 0.0 -1.221067908166e-03 
-3.450149565899e-04 -4.408348736528e-04 0.0 
-4.408348736528e-04 3.924699322023e-03 0.0 
0.0 0.0 -1.208702654310e-03 
-8.170914780341e-04 2.664423274710e-03 0.0 
2.664423274710e-03 5.146096323449e-03 0.0 
0.0 0.0 -1.272252409145e-03 
-1.123992376730e-03 3.068252591852e-03 0.0 
3.068252591852e-03 5.507273388894e-03 0.0 
0.0 0.0 -1.237422270938e-03 
-1.253834785736e-03 3.291285599942e-03 0.0 
3.291285599942e-03 5.877546624236e-03 0.0 
0.0 0.0 -1.171232062679e-03 
5.704301253037e-05 -1.249012332624e-03 0.0 
-1.249012332624e-03 7.024151054082e-04 0.0 
0.0 0.0 -3.254820505451e-04 
0.0 0.0 0.0 
0.0 0.0 0.0 
0.0 0.0 0.0 
-1.712539485778e-03 -1.411450056388e-03 0.0 
-1.411450056388e-03 6.539673002672e-03 0.0 
0.0 0.0 -1.223662873675e-03 
4.574946163465e-04 -1.248756071680e-04 0.0 
-1.248756071680e-04 4.764925333501e-04 0.0 
0.0 0.0 -3.004112795925e-04 
4.253951230566e-04 3.287859358848e-05 0.0 
3.287859358848e-05 7.852927410903e-04 0.0 
0.0 0.0 -3.059539021820e-04 
3.569372191111e-04 1.397839525162e-03 0.0 
1.397839525162e-03 1.545362028711e-04 0.0 
0.0 0.0 -2.192028951352e-04 
1.631271963867e-04 -1.346040378322e-03 0.0 
-1.346040378322e-03 7.094587977712e-04 0.0 
0.0 0.0 -2.452105594499e-04 
-1.114394941751e-03 -1.506329218264e-03 0.0 
-1.506329218264e-03 4.944157592562e-03 0.0 
0.0 0.0 -1.288571152055e-03 
-1.352715823829e-03 3.152231925611e-03 0.0 
3.152231925611e-03 6.563761337094e-03 0.0 
0.0 0.0 -1.290113636706e-03 
-1.510579169811e-03 9.854603377599e-04 0.0 
9.854603377599e-04 8.241359475843e-03 0.0 
0.0 0.0 -1.236907757659e-03 
-1.086519748050e-03 2.592005204986e-03 0.0 
2.592005204986e-03 5.044458595201e-03 0.0 
0.0 0.0 -1.292605224168e-03 
-2.276922230483e-04 -7.087333384445e-04 0.0 
-7.087333384445e-04 3.411401019740e-03 0.0 
0.0 0.0 -1.176879138244e-03 
-1.566246162816e-03 5.074519573883e-04 0.0 
5.074519573883e-04 6.374166084480e-03 0.0 
0.0 0.0 -9.170130443517e-04 
-1.345069444888e-03 1.513726926191e-03 0.0 
1.513726926191e-03 8.492915807412e-03 0.0 
0.0 0.0 -1.345069444888e-03 
1.877003485193e-03 -3.080309129991e-03 0.0 
-3.080309129991e-03 -5.962554255729e-04 0.0 
0.0 0.0 -5.488920255517e-04 
-1.475350828104e-03 1.976985984706e-04 0.0 
1.976985984706e-04 5.152730599786e-03 0.0 
0.0 0.0 -7.083073883397e-04 
7.042658253586e-04 -2.920094682842e-03 0.0 
-2.920094682842e-03 7.774626018425e-04 0.0 
0.0 0.0 -6.350264688005e-04 
7.675081391674e-04 -5.290525383807e-04 0.0 
-5.290525383807e-04 -3.861513785839e-05 0.0 
0.0 0.0 -2.518608130650e-04 
-1.493015975364e-03 -1.542117778823e-03 0.0 
-1.542117778823e-03 7.001843856807e-03 0.0 
0.0 0.0 -1.323850096553e-03 
-1.762927026530e-03 1.105745086140e-03 0.0 
1.105745086140e-03 5.347670343178e-03 0.0 
0.0 0.0 -7.731261162940e-04 
3.059071642176e-04 -4.769524246547e-04 0.0 
-4.769524246547e-04 1.116375202047e-03 0.0 
0.0 0.0 -3.136165521777e-04 
-1.289952526759e-03 -6.554530809443e-04 0.0 
-6.554530809443e-04 4.022238421528e-03 0.0 
0.0 0.0 -9.854929843998e-04 
-1.353447502636e-03 3.372255620603e-03 0.0 
3.372255620603e-03 6.903608554072e-03 0.0 
0.0 0.0 -1.276804206569e-03 
-1.580153705301e-03 9.463034913401e-04 0.0 
9.463034913401e-04 8.179177676168e-03 0.0 
0.0 0.0 -1.228616961883e-03 
-1.459295938370e-03 2.235750315535e-03 0.0 
2.235750315535e-03 7.840317348904e-03 0.0 
0.0 0.0 -1.289666537713e-03 
-1.042366719392e-03 -4.130279661277e-04 0.0 
-4.130279661277e-04 3.166645294064e-03 0.0 
0.0 0.0 -7.209785830746e-04 
0.0 0.0 0.0 
0.0 0.0 0.0 
0.0 0.0 0.0 
-1.330660736049e-03 -2.112854558462e-03 0.0 
-2.112854558462e-03 6.026587435622e-03 0.0 
0.0 0.0 -1.273144391159e-03 
-1.420679226607e-03 1.845062484055e-04 0.0 
1.845062484055e-04 8.984274218415e-03 0.0 
0.0 0.0 -1.325353038101e-03 
-1.599270300318e-03 -4.031472723049e-04 0.0 
-4.031472723049e-04 7.370420628954e-03 0.0 
0.0 0.0 -1.323783523096e-03 
-1.454892267765e-03 1.410388417337e-04 0.0 
1.410388417337e-04 5.404570969644e-03 0.0 
0.0 0.0 -7.673431308700e-04 
-5.798667066363e-04 -4.017993081382e-04 0.0 
-4.017993081382e-04 3.786051546347e-03 0.0 
0.0 0.0 -1.231867668451e-03 
-2.703199839151e-04 -3.327091265360e-04 0.0 
-3.327091265360e-04 1.134795808800e-03 0.0 
0.0 0.0 -2.923189298614e-04 
-1.540435464510e-03 1.974801601423e-03 0.0 
1.974801601423e-03 7.945053936292e-03 0.0 
0.0 0.0 -1.241575510934e-03 
7.093719106213e-04 -6.473525039570e-04 0.0 
-6.473525039570e-04 -6.146240833120e-06 0.0 
0.0 0.0 -2.201278046225e-04 
-1.035309467581e-03 -9.652751717972e-04 0.0 
-9.652751717972e-04 4.607784315543e-03 0.0 
0.0 0.0 -1.290713494763e-03 
-1.546892534215e-03 2.536580836788e-03 0.0 
2.536580836788e-03 7.963102419275e-03 0.0 
0.0 0.0 -1.268585396830e-03 
0.0 0.0 0.0 
0.0 0.0 0.0 
0.0 0.0 0.0 
-7.125328406643e-04 2.854381537959e-03 0.0 
2.854381537959e-03 4.690081759982e-03 0.0 
0.0 0.0 -1.178018281593e-03 
-1.581615712652e-03 6.406846432010e-05 0.0 
6.406846432010e-05 7.204958832163e-03 0.0 
0.0 0.0 -1.053859681778e-03 
-1.422126824857e-03 8.354035890497e-04 0.0 
8.354035890497e-04 8.383690559568e-03 0.0 
0.0 0.0 -1.289687241943e-03 
-1.346242744377e-03 1.394088556631e-03 0.0 
1.394088556631e-03 5.074174046536e-03 0.0 
0.0 0.0 -1.346242744377e-03 
-1.579226085277e-03 -2.236352472968e-04 0.0 
-2.236352472968e-04 6.673772320033e-03 0.0 
0.0 0.0 -9.627310317561e-04 
-1.352695242601e-03 3.190608641684e-03 0.0 
3.190608641684e-03 6.804006829943e-03 0.0 
0.0 0.0 -1.292510612804e-03 
-1.606507542629e-03 2.038310361331e-03 0.0 
2.038310361331e-03 7.743565210436e-03 0.0 
0.0 0.0 -1.236507170568e-03 
-1.568883613753e-03 1.757297800362e-04 0.0 
1.757297800362e-04 6.816128580048e-03 0.0 
0.0 0.0 -1.009625451247e-03 
-1.338198193755e-03 3.094920805743e-03 0.0 
3.094920805743e-03 6.452958212167e-03 0.0 
0.0 0.0 -1.247605899893e-03 
-1.069270980668e-03 -8.397930297141e-04 0.0 
-8.397930297141e-04 3.454365731416e-03 0.0 
0.0 0.0 -9.078723690805e-04 
-1.462959848022e-03 3.355807606363e-05 0.0 
3.355807606363e-05 4.925884328863e-03 0.0 
0.0 0.0 -7.287847301676e-04 
-7.853622933110e-04 2.799478897718e-03 0.0 
2.799478897718e-03 4.730479437110e-03 0.0 
0.0 0.0 -1.239219007812e-03 
-1.427801408329e-03 2.279610176079e-04 0.0 
2.279610176079e-04 8.599854493521e-03 0.0 
0.0 0.0 -1.286506427510e-03 
2.364174244584e-03 -3.920966346370e-05 0.0 
-3.920966346370e-05 -9.416422440926e-04 0.0 
0.0 0.0 -1.658991634594e-04 
-1.429614866782e-03 7.018012440351e-05 0.0 
7.018012440351e-05 4.945453144079e-03 0.0 
0.0 0.0 -7.284590636140e-04 
-1.619941162379e-03 -3.710140945832e-04 0.0 
-3.710140945832e-04 7.072586371596e-03 0.0 
0.0 0.0 -1.288082484959e-03 
-4.257310582937e-04 -7.375837559217e-04 0.0 
-7.375837559217e-04 1.550072552707e-03 0.0 
0.0 0.0 -4.679105978332e-04 
-2.651775118790e-04 1.741696615314e-04 0.0 
1.741696615314e-04 3.934086569527e-03 0.0 
0.0 0.0 -1.213252366005e-03 
-1.592381110183e-03 2.367463417435e-03 0.0 
2.367463417435e-03 7.496929060090e-03 0.0 
0.0 0.0 -1.225943235494e-03 
-1.523630465134e-03 6.434168762766e-04 0.0 
6.434168762766e-04 8.597347826225e-03 0.0 
0.0 0.0 -1.269037835114e-03 
-5.242932188711e-04 -5.062352980044e-04 0.0 
-5.062352980044e-04 1.580681758625e-03 0.0 
0.0 0.0 -3.173190315717e-04 
9.435665947915e-04 2.759812172338e-03 0.0 
2.759812172338e-03 -2.448701844830e-04 0.0 
0.0 0.0 -2.994413187036e-04 
-1.588603004087e-03 1.309858719882e-04 0.0 
1.309858719882e-04 4.764403352260e-03 0.0 
0.0 0.0 -1.056762885644e-03 
-1.577119311605e-03 2.587547752196e-04 0.0 
2.587547752196e-04 7.701946830658e-03 0.0 
0.0 0.0 -1.120841203304e-03 
0.0 0.0 0.0 
0.0 0.0 0.0 
0.0 0.0 0.0 
-1.448426484907e-03 1.878765382125e-03 0.0 
1.878765382125e-03 8.065670326291e-03 0.0 
0.0 0.0 -1.292233508669e-03 
-1.560868544091e-03 1.573692905966e-04 0.0 
1.573692905966e-04 6.444251121821e-03 0.0 
0.0 0.0 -9.501928138396e-04 
9.548640501235e-04 -2.932790788742e-03 0.0 
-2.932790788742e-03 4.477362362625e-04 0.0 
0.0 0.0 -6.011144084512e-04 
-1.577095330701e-03 2.356135282763e-04 0.0 
2.356135282763e-04 6.152695530289e-03 0.0 
0.0 0.0 -9.030544305944e-04 
-9.123359041244e-04 2.767752077309e-03 0.0 
2.767752077309e-03 5.381455446983e-03 0.0 
0.0 0.0 -1.271643562581e-03 
-1.672772992247e-03 -3.658378199310e-04 0.0 
-3.658378199310e-04 4.968645958279e-03 0.0 
0.0 0.0 -1.058796759180e-03 
-2.719750837415e-04 2.365966189451e-03 0.0 
2.365966189451e-03 2.719750837415e-04 0.0 
0.0 0.0 0.0 
-9.352736057356e-04 -8.421943932676e-04 0.0 
-8.421943932676e-04 3.140704490616e-03 0.0 
0.0 0.0 -9.009998304000e-04 
-1.402484368002e-03 -1.042823096176e-03 0.0 
-1.042823096176e-03 4.352884265014e-03 0.0 
0.0 0.0 -1.017945853013e-03 
-1.735012846972e-03 1.716303062956e-04 0.0 
1.716303062956e-04 5.112807218002e-03 0.0 
0.0 0.0 -1.063010248388e-03 
-5.677318458841e-04 1.906245464939e-03 0.0 
1.906245464939e-03 4.337997414081e-03 0.0 
0.0 0.0 -1.232780192057e-03 
-1.357670205510e-03 -6.381368347671e-04 0.0 
-6.381368347671e-04 4.227863364473e-03 0.0 
0.0 0.0 -1.035743023508e-03 
-1.479273144233e-03 -6.656278634480e-04 0.0 
-6.656278634480e-04 4.508927527854e-03 0.0 
0.0 0.0 -1.032702936181e-03 
1.040523643933e-04 -1.090937755128e-03 0.0 
-1.090937755128e-03 5.650850241542e-04 0.0 
0.0 0.0 -2.287174616664e-04 
-1.350567245042e-03 -1.731169106789e-03 0.0 
-1.731169106789e-03 5.793216621325e-03 0.0 
0.0 0.0 -1.240629869904e-03 
-1.027503594671e-03 3.327843857872e-03 0.0 
3.327843857872e-03 5.261023074075e-03 0.0 
0.0 0.0 -1.186362110037e-03 
1.189612951575e-03 2.308398015229e-03 0.0 
2.308398015229e-03 -4.894900924091e-04 0.0 
0.0 0.0 -3.000526539282e-04 
-1.387676757457e-03 4.952672058335e-05 0.0 
4.952672058335e-05 8.504316401028e-03 0.0 
0.0 0.0 -1.290349483557e-03 
-1.582576424774e-03 -1.560547969950e-04 0.0 
-1.560547969950e-04 7.007946096611e-03 0.0 
0.0 0.0 -1.290356026000e-03 
-1.460183445125e-03 -1.247594329356e-04 0.0 
-1.247594329356e-04 5.521441348557e-03 0.0 
0.0 0.0 -7.639788432047e-04 
-1.578918019610e-03 1.294379469898e-04 0.0 
1.294379469898e-04 6.639288700401e-03 0.0 
0.0 0.0 -9.358343396975e-04 
-1.420511664925e-03 -7.103380260756e-04 0.0 
-7.103380260756e-04 4.349288440906e-03 0.0 
0.0 0.0 -1.005720210571e-03 
-1.359175063422e-03 -8.855188390870e-04 0.0 
-8.855188390870e-04 4.258136974865e-03 0.0 
0.0 0.0 -1.040482674164e-03 
-1.527056262754e-03 -5.709073839489e-04 0.0 
-5.709073839489e-04 4.609671028000e-03 0.0 
0.0 0.0 -1.028873814706e-03 
-1.501496450629e-04 5.539703397871e-04 0.0 
5.539703397871e-04 3.298271412421e-03 0.0 
0.0 0.0 -1.180929064624e-03 
7.927858436439e-04 -3.045537929079e-03 0.0 
-3.045537929079e-03 8.494276970912e-04 0.0 
0.0 0.0 -7.038058031722e-04 
-1.116381248406e-03 3.165697137737e-03 0.0 
3.165697137737e-03 5.872062490069e-03 0.0 
0.0 0.0 -1.217816617926e-03 
-1.516247589342e-03 1.508277039824e-04 0.0 
1.508277039824e-04 5.685216966324e-03 0.0 
0.0 0.0 -8.376728236383e-04 
-1.571303365585e-03 1.703335586913e-03 0.0 
1.703335586913e-03 8.300700874157e-03 0.0 
0.0 0.0 -1.272153791098e-03 
-1.928595014899e-04 9.704790717136e-05 0.0 
9.704790717136e-05 3.265405422004e-03 0.0 
0.0 0.0 -1.181257232468e-03 
-1.580055462922e-03 1.466056733213e-04 0.0 
1.466056733213e-04 6.354105997974e-03 0.0 
0.0 0.0 -8.902468719968e-04 
-1.338698042931e-03 3.178297097849e-03 0.0 
3.178297097849e-03 6.247787653213e-03 0.0 
0.0 0.0 -1.201032862555e-03 
-6.620052052400e-04 2.218466919512e-03 0.0 
2.218466919512e-03 4.229615591751e-03 0.0 
0.0 0.0 -1.236767197193e-03 
-7.541183664370e-04 2.280565164163e-03 0.0 
2.280565164163e-03 4.995952357256e-03 0.0 
0.0 0.0 -1.270271405117e-03 
1.293451072768e-04 1.010666469426e-03 0.0 
1.010666469426e-03 -1.293451072768e-04 0.0 
0.0 0.0 0.0 
-1.368734881355e-03 2.988428396573e-03 0.0 
2.988428396573e-03 6.291274088760e-03 0.0 
0.0 0.0 -1.198686027802e-03 
-1.300476394130e-03 3.433743793017e-03 0.0 
3.433743793017e-03 6.406654162985e-03 0.0 
0.0 0.0 -1.227078865044e-03 
7.248957313196e-04 -1.043101674158e-03 0.0 
-1.043101674158e-03 5.245352296454e-04 0.0 
0.0 0.0 -2.668574800815e-04 
-1.256459332456e-03 -8.842282026345e-04 0.0 
-8.842282026345e-04 4.000740750754e-03 0.0 
0.0 0.0 -1.019774149770e-03 
0.0 0.0 0.0 
0.0 0.0 0.0 
0.0 0.0 0.0 
-1.414281382184e-03 3.115423266543e-03 0.0 
3.115423266543e-03 6.751118296047e-03 0.0 
0.0 0.0 -1.230789928679e-03 
-7.812528022569e-04 -1.099017891405e-04 0.0 
-1.099017891405e-04 2.168689563076e-03 0.0 
0.0 0.0 -3.444020130729e-04 
-7.150319033539e-04 -3.121384854287e-05 0.0 
-3.121384854287e-05 2.349676786299e-03 0.0 
0.0 0.0 -3.155555555556e-04 
-7.017205842140e-04 -7.653557446682e-05 0.0 
-7.653557446682e-05 2.006215318206e-03 0.0 
0.0 0.0 -3.681463795304e-04 
-7.121485710088e-04 -1.328299566585e-04 0.0 
-1.328299566585e-04 2.336914160142e-03 0.0 
0.0 0.0 -3.155555555556e-04 
-6.954051672081e-04 -1.106721293081e-04 0.0 
-1.106721293081e-04 1.994566268542e-03 0.0 
0.0 0.0 -3.704370777208e-04 
-7.107419937415e-04 -1.772848363033e-04 0.0 
-1.772848363033e-04 2.334391666324e-03 0.0 
0.0 0.0 -3.155555555556e-04 
-6.928827801307e-04 -1.461650245261e-04 0.0 
-1.461650245261e-04 1.991555205390e-03 0.0 
0.0 0.0 -3.721778341564e-04 
-7.100466502334e-04 -2.164461730152e-04 0.0 
-2.164461730152e-04 2.332657187103e-03 0.0 
0.0 0.0 -3.155555555556e-04 
-6.902040069466e-04 -1.788167519200e-04 0.0 
-1.788167519200e-04 1.988917707943e-03 0.0 
0.0 0.0 -3.744677652069e-04 
-7.095257050295e-04 -2.527303290778e-04 0.0 
-2.527303290778e-04 2.330678190538e-03 0.0 
0.0 0.0 -3.155555555556e-04 
-6.870058437527e-04 -2.081039351838e-04 0.0 
-2.081039351838e-04 1.985786893802e-03 0.0 
0.0 0.0 -3.773804207472e-04 
-7.091377551114e-04 -2.861387702296e-04 0.0 
-2.861387702296e-04 2.328286632896e-03 0.0 
0.0 0.0 -3.155555555556e-04 
-6.832965265146e-04 -2.331316096487e-04 0.0 
-2.331316096487e-04 1.982124751540e-03 0.0 
0.0 0.0 -3.809821719086e-04 
-7.092630965154e-04 -3.155169689002e-04 0.0 
-3.155169689002e-04 2.325515363616e-03 0.0 
0.0 0.0 -3.155555555556e-04 
-6.791922861579e-04 -2.523146359644e-04 0.0 
-2.523146359644e-04 1.978098432982e-03 0.0 
0.0 0.0 -3.853484384570e-04 
-7.104619708388e-04 -3.388430522053e-04 0.0 
-3.388430522053e-04 2.322560743132e-03 0.0 
0.0 0.0 -3.155555555556e-04 
-6.746892318115e-04 -2.641363648019e-04 0.0 
-2.641363648019e-04 1.973751708825e-03 0.0 
0.0 0.0 -3.907175444907e-04 
-7.134716144215e-04 -3.542939816601e-04 0.0 
-3.542939816601e-04 2.319606865757e-03 0.0 
0.0 0.0 -3.155555555556e-04 
-2.948862268374e-04 1.425073130439e-03 0.0 
1.425073130439e-03 1.550246462717e-03 0.0 
0.0 0.0 -5.380115296628e-04 
-6.698127621974e-04 -2.667648384482e-04 0.0 
-2.667648384482e-04 1.969206946882e-03 0.0 
0.0 0.0 -3.973447215126e-04 
-7.194662793108e-04 -3.592340066351e-04 0.0 
-3.592340066351e-04 2.316875881201e-03 0.0 
0.0 0.0 -3.155555555556e-04 
-6.645376930034e-04 -2.580390662495e-04 0.0 
-2.580390662495e-04 1.964528322448e-03 0.0 
0.0 0.0 -4.055185506436e-04 
-2.384968950829e-04 1.467328751257e-03 0.0 
1.467328751257e-03 1.438259482937e-03 0.0 
0.0 0.0 -5.141839662233e-04 
-7.293624542203e-04 -3.502161551000e-04 0.0 
-3.502161551000e-04 2.314195425162e-03 0.0 
0.0 0.0 -3.155555555556e-04 
-3.197653810432e-04 1.193855222990e-03 0.0 
1.193855222990e-03 1.484896437785e-03 0.0 
0.0 0.0 -4.993418814610e-04 
-6.585397002155e-04 -2.357313641208e-04 0.0 
-2.357313641208e-04 1.959221082084e-03 0.0 
0.0 0.0 -4.155668053223e-04 
-7.443837045228e-04 -3.234883264296e-04 0.0 
-3.234883264296e-04 2.311228263619e-03 0.0 
0.0 0.0 -3.155555555556e-04 
-6.513804998095e-04 -1.967997917224e-04 0.0 
-1.967997917224e-04 1.952762412484e-03 0.0 
0.0 0.0 -4.279241322075e-04 
-7.666941138057e-04 -2.747555434067e-04 0.0 
-2.747555434067e-04 2.308627769116e-03 0.0 
0.0 0.0 -3.155555555556e-04 
-6.421728617253e-04 -1.400127384089e-04 0.0 
-1.400127384089e-04 1.944537570229e-03 0.0 
0.0 0.0 -4.436098837037e-04 
-7.982894982451e-04 -1.992556961930e-04 0.0 
-1.992556961930e-04 2.305297045070e-03 0.0 
0.0 0.0 -3.155555555556e-04 
-6.299853966539e-04 -6.145013816298e-05 0.0 
-6.145013816298e-05 1.933693850967e-03 0.0 
0.0 0.0 -4.632370193522e-04 
-8.421992035785e-04 -9.014150615937e-05 0.0 
-9.014150615937e-05 2.302275547257e-03 0.0 
0.0 0.0 -3.155555555556e-04 
-2.461574377786e-04 1.624144604727e-03 0.0 
1.624144604727e-03 1.550137584529e-03 0.0 
0.0 0.0 -5.588486343218e-04 
-6.126548316156e-04 3.654657999790e-05 0.0 
3.654657999790e-05 1.918163968956e-03 0.0 
0.0 0.0 -4.884601193253e-04 
-8.297370267805e-04 5.900833697116e-05 0.0 
5.900833697116e-05 2.272921973566e-03 0.0 
0.0 0.0 -3.364948589054e-04 
-5.887696182011e-04 1.643484722283e-04 0.0 
1.643484722283e-04 1.896631305277e-03 0.0 
0.0 0.0 -5.192169371186e-04 
-7.953164073812e-04 2.464578371630e-04 0.0 
2.464578371630e-04 2.232304461113e-03 0.0 
0.0 0.0 -3.698897388832e-04 
-7.365411047928e-04 4.685855720639e-04 0.0 
4.685855720639e-04 2.159694424858e-03 0.0 
0.0 0.0 -4.159907446451e-04 
-5.527872709303e-04 3.038795148593e-04 0.0 
3.038795148593e-04 1.863166271294e-03 0.0 
0.0 0.0 -5.606386107870e-04 
-6.584523321126e-04 7.236437627609e-04 0.0 
7.236437627609e-04 2.077339623358e-03 0.0 
0.0 0.0 -4.782258264602e-04 
-5.219852183216e-04 4.858276467253e-04 0.0 
4.858276467253e-04 1.798644652234e-03 0.0 
0.0 0.0 -5.471397573912e-04 
-5.290479376496e-04 9.986619340008e-04 0.0 
9.986619340008e-04 1.913578928546e-03 0.0 
0.0 0.0 -5.482902324912e-04 
-4.113616513683e-04 1.317081858533e-03 0.0 
1.317081858533e-03 1.794964894860e-03 0.0 
0.0 0.0 -5.929728186394e-04 
-4.745890538018e-04 6.435746553500e-04 0.0 
6.435746553500e-04 1.691163142403e-03 0.0 
0.0 0.0 -5.213888951147e-04 
-4.062586621164e-04 9.333507089429e-04 0.0 
9.333507089429e-04 1.595573055787e-03 0.0 
0.0 0.0 -5.097061687162e-04 
-2.364054573878e-04 1.387407870084e-03 0.0 
1.387407870084e-03 1.388128066904e-03 0.0 
0.0 0.0 -4.935954040782e-04 
-7.033473164944e-04 -3.760136049461e-04 0.0 
-3.760136049461e-04 2.136708279662e-03 0.0 
0.0 0.0 -3.266666666667e-04 
-8.166934876578e-04 3.224396756561e-04 0.0 
3.224396756561e-04 2.340292932936e-03 0.0 
0.0 0.0 -3.266666666667e-04 
-7.075682699953e-04 -6.297319518701e-05 0.0 
-6.297319518701e-05 2.166890176519e-03 0.0 
0.0 0.0 -3.044444444444e-04 
-8.144037118333e-04 2.182635171307e-05 0.0 
2.182635171307e-05 2.299802230387e-03 0.0 
0.0 0.0 -3.488888888889e-04 
-9.458669161434e-05 1.682224031544e-03 0.0 
1.682224031544e-03 1.256319996994e-03 0.0 
0.0 0.0 -4.978857023056e-04 
-8.477680808939e-04 -1.104727016907e-04 0.0 
-1.104727016907e-04 2.712288170416e-03 0.0 
0.0 0.0 -3.822222222222e-04 
-9.055925510058e-04 -3.092032376263e-05 0.0 
-3.092032376263e-05 2.525233824261e-03 0.0 
0.0 0.0 -4.120916506577e-04 
-8.473674362076e-04 -7.481330322279e-05 0.0 
-7.481330322279e-05 2.845770630963e-03 0.0 
0.0 0.0 -3.822222222222e-04 
-9.089090308611e-04 -1.259977891390e-04 0.0 
-1.259977891390e-04 2.534087815895e-03 0.0 
0.0 0.0 -4.117636123367e-04 
-8.486541312913e-04 -1.060356270188e-04 0.0 
-1.060356270188e-04 2.850864472627e-03 0.0 
0.0 0.0 -3.822222222222e-04 
-9.067527636706e-04 -1.634553189751e-04 0.0 
-1.634553189751e-04 2.532180853737e-03 0.0 
0.0 0.0 -4.138361446519e-04 
-8.518838397089e-04 -1.391673231664e-04 0.0 
-1.391673231664e-04 2.849897303172e-03 0.0 
0.0 0.0 -3.822222222222e-04 
-9.038033703738e-04 -1.960391794180e-04 0.0 
-1.960391794180e-04 2.529549366092e-03 0.0 
0.0 0.0 -4.169466925021e-04 
-8.567719304589e-04 -1.693969290221e-04 0.0 
-1.693969290221e-04 2.849102124234e-03 0.0 
0.0 0.0 -3.822222222222e-04 
-9.001783977425e-04 -2.254727016246e-04 0.0 
-2.254727016246e-04 2.526405000261e-03 0.0 
0.0 0.0 -4.210486354725e-04 
-8.632001890766e-04 -1.956147496017e-04 0.0 
-1.956147496017e-04 2.848340584109e-03 0.0 
0.0 0.0 -3.822222222222e-04 
-8.958258707308e-04 -2.506885608621e-04 0.0 
-2.506885608621e-04 2.522614663946e-03 0.0 
0.0 0.0 -4.262345017756e-04 
-8.713995955112e-04 -2.166532315458e-04 0.0 
-2.166532315458e-04 2.847429121701e-03 0.0 
0.0 0.0 -3.822222222222e-04 
-8.907881229033e-04 -2.700951512637e-04 0.0 
-2.700951512637e-04 2.518049837640e-03 0.0 
0.0 0.0 -4.324218244576e-04 
-8.817440870532e-04 -2.301760048267e-04 0.0 
-2.301760048267e-04 2.845924759909e-03 0.0 
0.0 0.0 -3.822222222222e-04 
-8.851922506948e-04 -2.806029007086e-04 0.0 
-2.806029007086e-04 2.512873500627e-03 0.0 
0.0 0.0 -4.397142335037e-04 
-8.950333328024e-04 -2.339954622603e-04 0.0 
-2.339954622603e-04 2.844152330925e-03 0.0 
0.0 0.0 -3.822222222222e-04 
-5.153963270574e-04 1.386957263231e-03 0.0 
1.386957263231e-03 2.118048286245e-03 0.0 
0.0 0.0 -6.868508396518e-04 
-8.789409301159e-04 -2.802453109947e-04 0.0 
-2.802453109947e-04 2.507031228923e-03 0.0 
0.0 0.0 -4.484506065581e-04 
-9.121593109776e-04 -2.255242270632e-04 0.0 
-2.255242270632e-04 2.842211436296e-03 0.0 
0.0 0.0 -3.822222222222e-04 
-5.250635173879e-04 1.212370847594e-03 0.0 
1.212370847594e-03 2.064879973941e-03 0.0 
0.0 0.0 -6.599213385227e-04 
-8.718884062418e-04 -2.665655449899e-04 0.0 
-2.665655449899e-04 2.500353226196e-03 0.0 
0.0 0.0 -4.589341481330e-04 
-9.340828443643e-04 -2.017720311588e-04 0.0 
-2.017720311588e-04 2.840105257953e-03 0.0 
0.0 0.0 -3.822222222222e-04 
-8.637232966567e-04 -2.371299809629e-04 0.0 
-2.371299809629e-04 2.492260010494e-03 0.0 
0.0 0.0 -4.713274934483e-04 
-9.616016624064e-04 -1.586137009988e-04 0.0 
-1.586137009988e-04 2.837108011281e-03 0.0 
0.0 0.0 -3.822222222222e-04 
-8.538485000622e-04 -1.885493409314e-04 0.0 
-1.885493409314e-04 2.481749201505e-03 0.0 
0.0 0.0 -4.858861960434e-04 
-4.559297430570e-04 1.444187656161e-03 0.0 
1.444187656161e-03 1.981448427249e-03 0.0 
0.0 0.0 -6.537937217965e-04 
-9.957574324210e-04 -9.024577915214e-05 0.0 
-9.024577915214e-05 2.832059975401e-03 0.0 
0.0 0.0 -3.822222222222e-04 
-8.420411067301e-04 -1.147262326721e-04 0.0 
-1.147262326721e-04 2.468867339442e-03 0.0 
0.0 0.0 -5.027800290162e-04 
-1.039055821930e-03 8.224520741657e-06 0.0 
8.224520741657e-06 2.826232556126e-03 0.0 
0.0 0.0 -3.822222222222e-04 
-8.257325877732e-04 -1.684371319750e-05 0.0 
-1.684371319750e-05 2.451050949731e-03 0.0 
0.0 0.0 -5.243127177637e-04 
-1.025570190768e-03 1.403256994831e-04 0.0 
1.403256994831e-04 2.797038362784e-03 0.0 
0.0 0.0 -4.023247379336e-04 
-8.050294719308e-04 1.124410670381e-04 0.0 
1.124410670381e-04 2.428661755662e-03 0.0 
0.0 0.0 -5.489567910448e-04 
-9.923239288200e-04 3.047136110578e-04 0.0 
3.047136110578e-04 2.756100007675e-03 0.0 
0.0 0.0 -4.324342652679e-04 
-7.731797138455e-04 2.625302848105e-04 0.0 
2.625302848105e-04 2.393418728170e-03 0.0 
0.0 0.0 -5.820900338912e-04 
-9.418682114520e-04 5.073920785542e-04 0.0 
5.073920785542e-04 2.692555105023e-03 0.0 
0.0 0.0 -4.713646722125e-04 
-7.342469081316e-04 4.657530843841e-04 0.0 
4.657530843841e-04 2.352483617576e-03 0.0 
0.0 0.0 -6.159470284615e-04 
-4.680647983613e-04 1.597006220995e-03 0.0 
1.597006220995e-03 2.093451131542e-03 0.0 
0.0 0.0 -6.965941427916e-04 
-6.693040365848e-04 6.579016910303e-04 0.0 
6.579016910303e-04 2.279268426426e-03 0.0 
0.0 0.0 -6.692217709364e-04 
-8.781023439948e-04 7.411318868586e-04 0.0 
7.411318868586e-04 2.622293177478e-03 0.0 
0.0 0.0 -5.216549963272e-04 
-6.008061203709e-04 9.652302155092e-04 0.0 
9.652302155092e-04 2.191809086520e-03 0.0 
0.0 0.0 -6.818584140638e-04 
-7.708778420605e-04 1.010625125185e-03 0.0 
1.010625125185e-03 2.489715384094e-03 0.0 
0.0 0.0 -5.889796576362e-04 
-6.578980111303e-04 1.296813025753e-03 0.0 
1.296813025753e-03 2.378601915831e-03 0.0 
0.0 0.0 -6.666224173880e-04 
-4.259182236764e-04 1.351986027582e-03 0.0 
1.351986027582e-03 1.852483873207e-03 0.0 
0.0 0.0 -6.113852783704e-04 
-9.474349750393e-04 -3.758791366539e-04 0.0 
-3.758791366539e-04 2.750895276144e-03 0.0 
0.0 0.0 -3.933333333333e-04 
-8.340817167273e-04 3.227874807035e-04 0.0 
3.227874807035e-04 2.547302196216e-03 0.0 
0.0 0.0 -3.933333333333e-04 
-9.429649573043e-04 -6.274108253705e-05 0.0 
-6.274108253705e-05 2.720570547882e-03 0.0 
0.0 0.0 -4.155555555556e-04 
-8.366259340555e-04 2.206832879955e-05 0.0 
2.206832879955e-05 2.587932870487e-03 0.0 
0.0 0.0 -3.711111111111e-04 
-3.311872650881e-04 1.664414027805e-03 0.0 
1.664414027805e-03 1.777880150707e-03 0.0 
0.0 0.0 -6.200112366940e-04 
-1.054441290555e-03 -1.060399512644e-04 0.0 
-1.060399512644e-04 3.174442276916e-03 0.0 
0.0 0.0 -4.711111111111e-04 
-9.755270099610e-04 -1.952460710779e-05 0.0 
-1.952460710779e-05 3.352199228394e-03 0.0 
0.0 0.0 -4.488888888889e-04 
-1.057199720646e-03 -6.628466702925e-05 0.0 
-6.628466702925e-05 3.038898740510e-03 0.0 
0.0 0.0 -4.711111111111e-04 
-9.777400934430e-04 -1.091555938379e-04 0.0 
-1.091555938379e-04 3.340691704280e-03 0.0 
0.0 0.0 -4.488888888889e-04 
-1.063155427674e-03 -8.985841896749e-05 0.0 
-8.985841896749e-05 3.031383342538e-03 0.0 
0.0 0.0 -4.711111111111e-04 
-9.824799286931e-04 -1.393428267415e-04 0.0 
-1.393428267415e-04 3.339683266468e-03 0.0 
0.0 0.0 -4.488888888889e-04 
-1.073307870603e-03 -1.145055690525e-04 0.0 
-1.145055690525e-04 3.031741938321e-03 0.0 
0.0 0.0 -4.711111111111e-04 
-9.898779257340e-04 -1.643666591562e-04 0.0 
-1.643666591562e-04 3.339619340617e-03 0.0 
0.0 0.0 -4.488888888889e-04 
-1.086323477342e-03 -1.363877390947e-04 0.0 
-1.363877390947e-04 3.033165334032e-03 0.0 
0.0 0.0 -4.711111111111e-04 
-9.998925141734e-04 -1.855881002644e-04 0.0 
-1.855881002644e-04 3.339705936799e-03 0.0 
0.0 0.0 -4.488888888889e-04 
-1.096406818734e-03 -1.532318205826e-04 0.0 
-1.532318205826e-04 3.033255551597e-03 0.0 
0.0 0.0 -4.730783955673e-04 
-1.012777399154e-03 -2.017536892965e-04 0.0 
-2.017536892965e-04 3.339844219624e-03 0.0 
0.0 0.0 -4.488888888889e-04 
-1.090664367884e-03 -1.644430523049e-04 0.0 
-1.644430523049e-04 3.027933117942e-03 0.0 
0.0 0.0 -4.808618943584e-04 
-1.028301113362e-03 -2.114471527184e-04 0.0 
-2.114471527184e-04 3.338551741007e-03 0.0 
0.0 0.0 -4.488888888889e-04 
-1.083736580133e-03 -1.666451993329e-04 0.0 
-1.666451993329e-04 3.020843768517e-03 0.0 
0.0 0.0 -4.898707554272e-04 
-1.046943436856e-03 -2.106797342195e-04 0.0 
-2.106797342195e-04 3.335962166517e-03 0.0 
0.0 0.0 -4.488888888889e-04 
-7.831296468648e-04 1.319072651067e-03 0.0 
1.319072651067e-03 2.747172324488e-03 0.0 
0.0 0.0 -7.609479695289e-04 
-1.075855056023e-03 -1.563532757849e-04 0.0 
-1.563532757849e-04 3.012345218943e-03 0.0 
0.0 0.0 -5.000242388326e-04 
-1.069747672987e-03 -1.955783713019e-04 0.0 
-1.955783713019e-04 3.333029570668e-03 0.0 
0.0 0.0 -4.488888888889e-04 
-7.248550649329e-04 1.406358254198e-03 0.0 
1.406358254198e-03 2.595476185353e-03 0.0 
0.0 0.0 -7.137751583000e-04 
-1.066434352541e-03 -1.316180070833e-04 0.0 
-1.316180070833e-04 3.002197182527e-03 0.0 
0.0 0.0 -5.124314741735e-04 
-1.097598068092e-03 -1.637972448482e-04 0.0 
-1.637972448482e-04 3.329403421166e-03 0.0 
0.0 0.0 -4.488888888889e-04 
-7.533669482919e-04 1.204166970056e-03 0.0 
1.204166970056e-03 2.642836543444e-03 0.0 
0.0 0.0 -7.468747930895e-04 
-1.055416203304e-03 -9.203251338284e-05 0.0 
-9.203251338284e-05 2.990073804986e-03 0.0 
0.0 0.0 -5.267381924031e-04 
-1.130750834273e-03 -1.116921931994e-04 0.0 
-1.116921931994e-04 3.323665525655e-03 0.0 
0.0 0.0 -4.488888888889e-04 
-1.042171778077e-03 -3.455033738422e-05 0.0 
-3.455033738422e-05 2.974699293394e-03 0.0 
0.0 0.0 -5.428660870381e-04 
-1.169484212689e-03 -3.358102239734e-05 0.0 
-3.358102239734e-05 3.314256616847e-03 0.0 
0.0 0.0 -4.488888888889e-04 
-1.025316934061e-03 4.498860631349e-05 0.0 
4.498860631349e-05 2.954024136839e-03 0.0 
0.0 0.0 -5.614484225926e-04 
-1.214143038317e-03 7.887627576123e-05 0.0 
7.887627576123e-05 3.298257734444e-03 0.0 
0.0 0.0 -4.488888888889e-04 
-7.199346667002e-04 1.548959497082e-03 0.0 
1.548959497082e-03 2.702620874801e-03 0.0 
0.0 0.0 -7.999777769487e-04 
-1.005056088549e-03 1.605680175197e-04 0.0 
1.605680175197e-04 2.928996212084e-03 0.0 
0.0 0.0 -5.816817243943e-04 
-1.194628629214e-03 2.284813269436e-04 0.0 
2.284813269436e-04 3.262807979926e-03 0.0 
0.0 0.0 -4.714398725188e-04 
-9.770701467258e-04 2.900797214075e-04 0.0 
2.900797214075e-04 2.895539247012e-03 0.0 
0.0 0.0 -6.084761808760e-04 
-1.150691492803e-03 4.112920914748e-04 0.0 
4.112920914748e-04 3.201011145854e-03 0.0 
0.0 0.0 -5.031356658855e-04 
-1.102080003132e-03 6.314047135334e-04 0.0 
6.314047135334e-04 3.144102696047e-03 0.0 
0.0 0.0 -5.414573098104e-04 
-9.427914102034e-04 4.734021578769e-04 0.0 
4.734021578769e-04 2.854814901825e-03 0.0 
0.0 0.0 -6.353729821390e-04 
-1.011724826405e-03 8.872743635075e-04 0.0 
8.872743635075e-04 3.016176770478e-03 0.0 
0.0 0.0 -5.911070349773e-04 
-8.910802690226e-04 6.354474711150e-04 0.0 
6.354474711150e-04 2.790560843145e-03 0.0 
0.0 0.0 -6.750826519681e-04 
-9.261251575016e-04 1.192686017243e-03 0.0 
1.192686017243e-03 2.932735209306e-03 0.0 
0.0 0.0 -6.517013890130e-04 
-8.336613140921e-04 9.428984709957e-04 0.0 
9.428984709957e-04 2.722476745029e-03 0.0 
0.0 0.0 -6.953468723645e-04 
-6.543021565792e-04 1.370902121002e-03 0.0 
1.370902121002e-03 2.495211230633e-03 0.0 
0.0 0.0 -7.782223337189e-04 
-9.573633010252e-04 -3.758595971567e-04 0.0 
-3.758595971567e-04 3.138492562280e-03 0.0 
0.0 0.0 -4.600000000000e-04 
-1.070084496450e-03 3.260967853827e-04 0.0 
3.260967853827e-04 3.340817972329e-03 0.0 
0.0 0.0 -4.600000000000e-04 
-9.651871795266e-04 -5.955810820259e-05 0.0 
-5.955810820259e-05 3.169772296161e-03 0.0 
0.0 0.0 -4.377777777778e-04 
-1.064380492171e-03 2.392363188093e-05 0.0 
2.392363188093e-05 3.297778316814e-03 0.0 
0.0 0.0 -4.822222222222e-04 
-5.704666912088e-04 1.617849901649e-03 0.0 
1.617849901649e-03 2.384447177274e-03 0.0 
0.0 0.0 -7.774202083136e-04 
-1.098885735000e-03 -9.932841691003e-05 0.0 
-9.932841691003e-05 3.711008544298e-03 0.0 
0.0 0.0 -5.155555555556e-04 
-1.168462067443e-03 -8.558937578339e-06 0.0 
-8.558937578339e-06 3.528865523027e-03 0.0 
0.0 0.0 -5.377777777778e-04 
-1.101644165090e-03 -4.995934151532e-05 0.0 
-4.995934151532e-05 3.841935165134e-03 0.0 
0.0 0.0 -5.155555555556e-04 
-1.170694924485e-03 -8.717992149991e-05 0.0 
-8.717992149991e-05 3.536462684656e-03 0.0 
0.0 0.0 -5.377777777778e-04 
-1.107599872119e-03 -6.223086959302e-05 0.0 
-6.223086959302e-05 3.845472707205e-03 0.0 
0.0 0.0 -5.155555555556e-04 
-1.181271355677e-03 -1.042178337503e-04 0.0 
-1.042178337503e-04 3.538247230035e-03 0.0 
0.0 0.0 -5.377777777778e-04 
-1.117752315047e-03 -7.784351567095e-05 0.0 
-7.784351567095e-05 3.846307941154e-03 0.0 
0.0 0.0 -5.155555555556e-04 
-1.192658306015e-03 -1.193867036393e-04 0.0 
-1.193867036393e-04 3.539182551016e-03 0.0 
0.0 0.0 -5.377777777778e-04 
-1.130767921787e-03 -8.794783012842e-05 0.0 
-8.794783012842e-05 3.845743987908e-03 0.0 
0.0 0.0 -5.155555555556e-04 
-1.210173940783e-03 -1.287275247693e-04 0.0 
-1.287275247693e-04 3.541285429521e-03 0.0 
0.0 0.0 -5.377777777778e-04 
-1.147405946802e-03 -9.309166024428e-05 0.0 
-9.309166024428e-05 3.846138881089e-03 0.0 
0.0 0.0 -5.155555555556e-04 
-1.230284092040e-03 -1.329076598989e-04 0.0 
-1.329076598989e-04 3.543463507866e-03 0.0 
0.0 0.0 -5.377777777778e-04 
-1.167594603574e-03 -9.130051004344e-05 0.0 
-9.130051004344e-05 3.846054057724e-03 0.0 
0.0 0.0 -5.155555555556e-04 
-1.257222365411e-03 -1.323215631345e-04 0.0 
-1.323215631345e-04 3.545265649495e-03 0.0 
0.0 0.0 -5.377777777778e-04 
-1.190679714427e-03 -8.065933747456e-05 0.0 
-8.065933747456e-05 3.844271498324e-03 0.0 
0.0 0.0 -5.155555555556e-04 
-1.072061725773e-03 1.181075520675e-03 0.0 
1.181075520675e-03 3.333527226650e-03 0.0 
0.0 0.0 -7.283378183804e-04 
-1.281962566836e-03 -1.205561474005e-04 0.0 
-1.205561474005e-04 3.543719900527e-03 0.0 
0.0 0.0 -5.377777777778e-04 
-1.019291723586e-03 1.089044048788e-03 0.0 
1.089044048788e-03 3.195052180348e-03 0.0 
0.0 0.0 -7.244127351333e-04 
-1.216630828162e-03 -5.217094280109e-05 0.0 
-5.217094280109e-05 3.837261921334e-03 0.0 
0.0 0.0 -5.155555555556e-04 
-1.278612193971e-03 -8.527996152039e-05 0.0 
-8.527996152039e-05 3.532526708308e-03 0.0 
0.0 0.0 -5.485944179258e-04 
-1.248566532597e-03 -8.063337581444e-06 0.0 
-8.063337581444e-06 3.832196745573e-03 0.0 
0.0 0.0 -5.155555555556e-04 
-1.265136211354e-03 -3.710354583219e-05 0.0 
-3.710354583219e-05 3.516310959499e-03 0.0 
0.0 0.0 -5.642304945314e-04 
-1.285253076073e-03 5.378705676948e-05 0.0 
5.378705676948e-05 3.825167274507e-03 0.0 
0.0 0.0 -5.155555555556e-04 
-1.249016317751e-03 2.783290865771e-05 0.0 
2.783290865771e-05 3.495315634217e-03 0.0 
0.0 0.0 -5.808897987891e-04 
-1.009506465037e-03 1.312718317251e-03 0.0 
1.312718317251e-03 3.173615454217e-03 0.0 
0.0 0.0 -6.840081157839e-04 
-1.325793724936e-03 1.409910150458e-04 0.0 
1.409910150458e-04 3.811895021444e-03 0.0 
0.0 0.0 -5.155555555556e-04 
-1.228491986619e-03 1.177167741922e-04 0.0 
1.177167741922e-04 3.467495695501e-03 0.0 
0.0 0.0 -6.000309252581e-04 
-1.370873242614e-03 2.586300978522e-04 0.0 
2.586300978522e-04 3.792690245387e-03 0.0 
0.0 0.0 -5.155555555556e-04 
-1.200813378474e-03 2.299684609271e-04 0.0 
2.299684609271e-04 3.428363493249e-03 0.0 
0.0 0.0 -6.226598288582e-04 
-1.373356089150e-03 4.171425679384e-04 0.0 
4.171425679384e-04 3.744750078480e-03 0.0 
0.0 0.0 -5.289384626357e-04 
-1.172212083606e-03 4.058181090915e-04 0.0 
4.058181090915e-04 3.389456744915e-03 0.0 
0.0 0.0 -6.422847164987e-04 
-1.331867317601e-03 6.009358889080e-04 0.0 
6.009358889080e-04 3.691337826045e-03 0.0 
0.0 0.0 -5.597688379707e-04 
-1.124375463142e-03 5.598543092856e-04 0.0 
5.598543092856e-04 3.325139889709e-03 0.0 
0.0 0.0 -6.782083763712e-04 
-1.081971884868e-03 8.414092324740e-04 0.0 
8.414092324740e-04 3.267902520726e-03 0.0 
0.0 0.0 -6.895475544463e-04 
-1.262668952542e-03 8.256947026051e-04 0.0 
8.256947026051e-04 3.589844959231e-03 0.0 
0.0 0.0 -5.971186907353e-04 
-1.015537556123e-03 1.423057567146e-03 0.0 
1.423057567146e-03 3.272421342693e-03 0.0 
0.0 0.0 -7.495201701545e-04 
-1.195815340391e-03 1.081747061634e-03 0.0 
1.081747061634e-03 3.513584158614e-03 0.0 
0.0 0.0 -6.415873553655e-04 
-9.227522449622e-04 1.272927656652e-03 0.0 
1.272927656652e-03 3.024546989958e-03 0.0 
0.0 0.0 -7.380105449967e-04 
-1.189132313752e-03 -3.719683768529e-04 0.0 
-3.719683768529e-04 3.742930454027e-03 0.0 
0.0 0.0 -5.266666666667e-04 
-1.078621173226e-03 3.329266509439e-04 0.0 
3.329266509439e-04 3.544627002251e-03 0.0 
0.0 0.0 -5.266666666667e-04 
-1.179143088157e-03 -5.341908987877e-05 0.0 
-5.341908987877e-05 3.711783890135e-03 0.0 
0.0 0.0 -5.488888888889e-04 
-1.086602714393e-03 2.829903387263e-05 0.0 
2.829903387263e-05 3.587438639290e-03 0.0 
0.0 0.0 -5.044444444444e-04 
-8.701615349701e-04 1.534050088586e-03 0.0 
1.534050088586e-03 2.982960737759e-03 0.0 
0.0 0.0 -7.564843357160e-04 
-1.281957485101e-03 -9.385206070326e-05 0.0 
-9.385206070326e-05 4.159171467776e-03 0.0 
0.0 0.0 -6.044444444444e-04 
-1.212906511887e-03 8.437755052735e-06 0.0 
8.437755052735e-06 4.332528287739e-03 0.0 
0.0 0.0 -5.822222222222e-04 
-1.270813931325e-03 -4.040562334661e-05 0.0 
-4.040562334661e-05 4.018667514915e-03 0.0 
0.0 0.0 -6.044444444444e-04 
-1.215139368930e-03 -5.723684032478e-05 0.0 
-5.723684032478e-05 4.317315307501e-03 0.0 
0.0 0.0 -5.822222222222e-04 
-1.281549970565e-03 -2.783058806924e-05 0.0 
-2.783058806924e-05 4.009142892880e-03 0.0 
0.0 0.0 -6.044444444444e-04 
-1.225715800122e-03 -5.846153113734e-05 0.0 
-5.846153113734e-05 4.321112834897e-03 0.0 
0.0 0.0 -5.822222222222e-04 
-1.299500121220e-03 -3.892246035712e-05 0.0 
-3.892246035712e-05 4.013014100261e-03 0.0 
0.0 0.0 -6.044444444444e-04 
-1.237102750459e-03 -6.373558927260e-05 0.0 
-6.373558927260e-05 4.316061582639e-03 0.0 
0.0 0.0 -5.822222222222e-04 
-1.310225087603e-03 -3.096991785550e-05 0.0 
-3.096991785550e-05 4.010869733645e-03 0.0 
0.0 0.0 -6.044444444444e-04 
-1.254618385227e-03 -5.449007521454e-05 0.0 
-5.449007521454e-05 4.318709008563e-03 0.0 
0.0 0.0 -5.822222222222e-04 
-1.336238080201e-03 -2.665442879324e-05 0.0 
-2.665442879324e-05 4.014359818630e-03 0.0 
0.0 0.0 -6.044444444444e-04 
-1.274728536484e-03 -4.422787035067e-05 0.0 
-4.422787035067e-05 4.314650827642e-03 0.0 
0.0 0.0 -5.822222222222e-04 
-1.357159993559e-03 -4.580559540248e-06 0.0 
-4.580559540248e-06 4.014254519705e-03 0.0 
0.0 0.0 -6.044444444444e-04 
-1.347537318405e-03 1.010824294751e-03 0.0 
1.010824294751e-03 3.920037731601e-03 0.0 
0.0 0.0 -7.117109445114e-04 
-1.301666809856e-03 -2.047408919469e-05 0.0 
-2.047408919469e-05 4.318063477050e-03 0.0 
0.0 0.0 -5.822222222222e-04 
-1.391706891411e-03 2.751450344882e-06 0.0 
2.751450344882e-06 4.016171820733e-03 0.0 
0.0 0.0 -6.044444444444e-04 
-1.286495538148e-03 1.141604132091e-03 0.0 
1.141604132091e-03 3.755942445139e-03 0.0 
0.0 0.0 -6.690433100420e-04 
-1.326407011280e-03 6.045508856538e-06 0.0 
6.045508856538e-06 4.301570573764e-03 0.0 
0.0 0.0 -5.822222222222e-04 
-1.418163902024e-03 5.346625199558e-05 0.0 
5.346625199558e-05 4.007884251177e-03 0.0 
0.0 0.0 -6.044444444444e-04 
-1.269919325548e-03 9.693842664938e-04 0.0 
9.693842664938e-04 3.741904716454e-03 0.0 
0.0 0.0 -7.168342214570e-04 
-1.359108424707e-03 6.264265058965e-05 0.0 
6.264265058965e-05 4.294165002256e-03 0.0 
0.0 0.0 -5.822222222222e-04 
-1.457002779349e-03 1.155195072583e-04 0.0 
1.155195072583e-04 4.005151940014e-03 0.0 
0.0 0.0 -6.044444444444e-04 
-1.397754652771e-03 1.342537055091e-04 0.0 
1.342537055091e-04 4.286646401950e-03 0.0 
0.0 0.0 -5.822222222222e-04 
-1.439433466702e-03 1.791245333921e-04 0.0 
1.791245333921e-04 3.981926727275e-03 0.0 
0.0 0.0 -6.212763874705e-04 
-1.437165891528e-03 2.256325768342e-04 0.0 
2.256325768342e-04 4.266187057435e-03 0.0 
0.0 0.0 -5.822222222222e-04 
-1.294521127295e-03 1.255121558487e-03 0.0 
1.255121558487e-03 3.846810996671e-03 0.0 
0.0 0.0 -7.256046805931e-04 
-1.416692839753e-03 2.731618170809e-04 0.0 
2.731618170809e-04 3.949147984694e-03 0.0 
0.0 0.0 -6.388990248527e-04 
-1.480404564063e-03 3.507234002411e-04 0.0 
3.507234002411e-04 4.240406141116e-03 0.0 
0.0 0.0 -5.822222222222e-04 
-1.527971474499e-03 5.064010242542e-04 0.0 
5.064010242542e-04 4.210902708310e-03 0.0 
0.0 0.0 -5.822222222222e-04 
-1.387518079071e-03 3.943188623073e-04 0.0 
3.943188623073e-04 3.907645916582e-03 0.0 
0.0 0.0 -6.603292536270e-04 
-1.489199031895e-03 7.040012771420e-04 0.0 
7.040012771420e-04 4.109006438777e-03 0.0 
0.0 0.0 -6.048139398938e-04 
-1.345551405801e-03 5.089205632429e-04 0.0 
5.089205632429e-04 3.844893580165e-03 0.0 
0.0 0.0 -6.886802823100e-04 
-1.449968692027e-03 9.453817318756e-04 0.0 
9.453817318756e-04 4.074908376766e-03 0.0 
0.0 0.0 -6.381145674715e-04 
-1.311416027678e-03 7.842300283395e-04 0.0 
7.842300283395e-04 3.792994805538e-03 0.0 
0.0 0.0 -6.930958846255e-04 
-1.191921020040e-03 1.114101255005e-03 0.0 
1.114101255005e-03 3.585331380848e-03 0.0 
0.0 0.0 -7.187225406772e-04 
-1.177806506474e-03 -3.598193330075e-04 0.0 
-3.598193330075e-04 4.111442480075e-03 0.0 
0.0 0.0 -5.933333333333e-04 
-1.298614317116e-03 3.518912234694e-04 0.0 
3.518912234694e-04 4.327861140627e-03 0.0 
0.0 0.0 -5.933333333333e-04 
-1.201365310379e-03 -4.039072614176e-05 0.0 
-4.039072614176e-05 4.155647570895e-03 0.0 
0.0 0.0 -5.711111111111e-04 
-1.277329052135e-03 4.889702624734e-05 0.0 
4.889702624734e-05 4.269846773222e-03 0.0 
0.0 0.0 -6.155555555555e-04 
-1.165172176686e-03 1.355369621706e-03 0.0 
1.355369621706e-03 3.569481016305e-03 0.0 
0.0 0.0 -7.239602392282e-04 
-1.326401929546e-03 -1.098251756258e-04 0.0 
-1.098251756258e-04 4.716210200324e-03 0.0 
0.0 0.0 -6.488888888889e-04 
-1.341042556431e-03 -1.497445551792e-05 0.0 
-1.497445551792e-05 4.487654478362e-03 0.0 
0.0 0.0 -6.711111111111e-04 
-1.315258375770e-03 -3.279398266088e-06 0.0 
-3.279398266088e-06 4.798065319814e-03 0.0 
0.0 0.0 -6.488888888889e-04 
-1.368317620788e-03 -1.903812859008e-05 0.0 
-1.903812859008e-05 4.498221230458e-03 0.0 
0.0 0.0 -6.711111111111e-04 
-1.325994415009e-03 1.380554954630e-05 0.0 
1.380554954630e-05 4.806277874424e-03 0.0 
0.0 0.0 -6.488888888889e-04 
-1.380848091197e-03 -1.506252807686e-07 0.0 
-1.506252807686e-07 4.508257602630e-03 0.0 
0.0 0.0 -6.711111111111e-04 
-1.343944565664e-03 7.917736370567e-06 0.0 
7.917736370567e-06 4.818216293294e-03 0.0 
0.0 0.0 -6.488888888889e-04 
-1.386616382160e-03 -2.067760603014e-05 0.0 
-2.067760603014e-05 4.497592293928e-03 0.0 
0.0 0.0 -6.711111111111e-04 
-1.354669532048e-03 3.875023501283e-05 0.0 
3.875023501283e-05 4.799753708961e-03 0.0 
0.0 0.0 -6.488888888889e-04 
-1.406907359723e-03 3.160898061574e-05 0.0 
3.160898061574e-05 4.503118169212e-03 0.0 
0.0 0.0 -6.711111111111e-04 
-1.380682524645e-03 5.561565498039e-05 0.0 
5.561565498039e-05 4.809868159536e-03 0.0 
0.0 0.0 -6.488888888889e-04 
-1.435189363615e-03 3.130270196416e-05 0.0 
3.130270196416e-05 4.499809120004e-03 0.0 
0.0 0.0 -6.711111111111e-04 
-1.611535782568e-03 8.671279044143e-04 0.0 
8.671279044143e-04 4.506015908724e-03 0.0 
0.0 0.0 -7.049993574243e-04 
-1.401604438003e-03 9.330713447470e-05 0.0 
9.330713447470e-05 4.797672975585e-03 0.0 
0.0 0.0 -6.488888888889e-04 
-1.512351284449e-03 8.656230693377e-04 0.0 
8.656230693377e-04 4.297202840087e-03 0.0 
0.0 0.0 -7.256265952625e-04 
-1.438154550875e-03 9.647646109404e-05 0.0 
9.647646109404e-05 4.497364060681e-03 0.0 
0.0 0.0 -6.711111111111e-04 
-1.436151335856e-03 1.358395788754e-04 0.0 
1.358395788754e-04 4.800332653133e-03 0.0 
0.0 0.0 -6.488888888889e-04 
-1.499230372271e-03 1.062721523167e-04 0.0 
1.062721523167e-04 4.489570327750e-03 0.0 
0.0 0.0 -6.711111111111e-04 
-1.462608346469e-03 2.027818769099e-04 0.0 
2.027818769099e-04 4.774125764298e-03 0.0 
0.0 0.0 -6.488888888889e-04 
-1.532724437083e-03 1.968943510655e-04 0.0 
1.968943510655e-04 4.482722825432e-03 0.0 
0.0 0.0 -6.711111111111e-04 
-1.501447223794e-03 2.766209172912e-04 0.0 
2.766209172912e-04 4.769601642763e-03 0.0 
0.0 0.0 -6.488888888889e-04 
-1.557872225570e-03 2.720774980370e-04 0.0 
2.720774980370e-04 4.471068660141e-03 0.0 
0.0 0.0 -6.711111111111e-04 
-1.549932705829e-03 1.034482702559e-03 0.0 
1.034482702559e-03 4.338594692453e-03 0.0 
0.0 0.0 -6.619668726724e-04 
-1.539964497909e-03 3.703806189017e-04 0.0 
3.703806189017e-04 4.750827424066e-03 0.0 
0.0 0.0 -6.488888888889e-04 
-1.593531228853e-03 3.628458802930e-04 0.0 
3.628458802930e-04 4.447964373288e-03 0.0 
0.0 0.0 -6.711111111111e-04 
-1.575889340432e-03 4.997462669703e-04 0.0 
4.997462669703e-04 4.711328261492e-03 0.0 
0.0 0.0 -6.488888888889e-04 
-1.590906187641e-03 5.071802277050e-04 0.0 
5.071802277050e-04 4.406658573059e-03 0.0 
0.0 0.0 -6.802731460288e-04 
-1.553155722451e-03 6.861757538348e-04 0.0 
6.861757538348e-04 4.351637703117e-03 0.0 
0.0 0.0 -7.011174395038e-04 
-1.617910879156e-03 6.689844391721e-04 0.0 
6.689844391721e-04 4.669016158580e-03 0.0 
0.0 0.0 -6.488888888889e-04 
-1.669910948397e-03 8.547088690357e-04 0.0 
8.547088690357e-04 4.635783510319e-03 0.0 
0.0 0.0 -6.488888888889e-04 
-1.565389776433e-03 1.113185015486e-03 0.0 
1.113185015486e-03 4.431052665958e-03 0.0 
0.0 0.0 -7.101757656324e-04 
-1.445746577220e-03 9.960480725557e-04 0.0 
9.960480725557e-04 4.140494100543e-03 0.0 
0.0 0.0 -7.083488828164e-04 
-1.382040473179e-03 -3.190058038896e-04 0.0 
-3.190058038896e-04 4.672355147485e-03 0.0 
0.0 0.0 -6.600000000000e-04 
-1.311697345882e-03 3.879464369525e-04 0.0 
3.879464369525e-04 4.545991971317e-03 0.0 
0.0 0.0 -6.600000000000e-04 
-1.392413986569e-03 1.825900643476e-05 0.0 
1.825900643476e-05 4.677427317752e-03 0.0 
0.0 0.0 -6.822222222222e-04 
-1.299551274357e-03 6.542939229750e-05 0.0 
6.542939229750e-05 4.553563985542e-03 0.0 
0.0 0.0 -6.377777777778e-04 
-1.453247710607e-03 1.192137069286e-03 0.0 
1.192137069286e-03 4.178885573169e-03 0.0 
0.0 0.0 -7.047837856643e-04 

SCALARS element_materi_plasti_kappa_shear float
LOOKUP_TABLE default
2.638449368411e-03
2.307880314974e-03
5.668059790692e-03
5.685840565928e-03
3.968724762264e-03
2.227775623383e-03
3.926609063437e-03
2.603981897009e-03
3.959861142706e-03
5.676159459017e-03
3.789460879762e-03
2.166184027025e-03
4.891618303360e-03
4.239593676265e-03
4.915486508882e-03
5.763080812267e-03
3.957109970888e-03
9.864085158712e-05
1.385502992053e-03
1.310811347843e-03
5.684919687706e-03
2.668003560693e-03
2.830444855211e-03
2.887992383095e-03
4.492952651090e-03
3.999825579596e-03
3.772973464484e-03
4.950933107395e-03
4.446798420902e-03
3.154878546999e-03
2.756846244610e-03
9.905717093618e-04
5.968283596401e-03
4.581378283716e-03
4.439297578914e-03
4.887177070447e-03
5.091662130986e-03
3.236750732307e-03
3.615750744496e-03
3.662711387174e-03
3.132788783305e-03
4.003574433579e-03
2.231218125306e-03
3.619781891395e-03
5.614862315127e-03
2.308537538977e-03
2.567928975722e-03
5.479464518158e-03
8.195853011298e-04
4.082692105509e-03
3.028705324844e-03
1.800022130003e-03
3.293726347817e-03
2.963783223813e-03
5.752538416863e-03
2.317662380795e-03
1.680471960424e-03
4.591779384906e-03
1.282089538117e-03
5.743217870912e-03
0.0
3.970806248155e-03
2.953445704213e-03
3.287038662097e-03
4.914099357777e-03
2.824966036789e-03
0.0
5.862902570517e-03
2.620748184046e-03
5.405750626230e-03
4.123083578977e-03
5.868967824668e-03
4.513723255217e-03
9.779064778028e-04
2.287061364591e-03
5.715984257660e-03
5.955190373470e-03
2.225229681788e-03
8.958780141002e-04
2.309523210765e-03
2.623606725785e-03
3.807044789785e-03
2.701030844542e-03
2.283651859930e-03
4.111166650998e-03
4.102179279090e-03
4.228241446566e-03
4.546798255785e-03
5.028716670228e-03
3.901152697752e-03
6.549433232100e-04
3.920650833441e-03
4.955587413478e-03
5.010029682247e-03
6.082587846612e-03
3.583046306489e-03
3.812238424463e-03
4.309414704673e-03
4.319293153851e-03
3.152072117772e-03
3.806820599516e-03
4.894923453038e-03
2.752080048091e-03
3.649256563451e-03
2.864912835823e-03
2.832888651383e-03
4.791522079347e-03
5.257296183678e-03
6.216847982975e-04
4.789762209254e-03
4.946970942302e-03
1.455853485302e-03
3.116660414769e-03
3.646713869330e-03
2.740266031466e-03
2.565730635348e-03
3.111248311779e-03
4.481696809263e-03
4.267994674223e-03
2.744319843462e-03
2.256121814009e-03
4.028535080126e-03
5.125478964429e-03
2.884095006377e-03
1.634010763882e-03
3.343960081378e-03
2.825136596843e-03
3.200895695618e-03
5.840634446843e-03
3.049581698772e-03
3.964814282569e-03
5.700506446746e-03
3.554006587530e-03
3.223480759992e-03
4.236959910874e-03
4.935732901856e-03
4.220142662913e-03
3.782725374417e-03
3.633905000164e-03
3.434454553281e-03
5.667308756995e-03
5.731127569311e-03
4.159105326719e-03
4.705255006089e-03
3.527054415499e-03
3.060528253236e-03
3.807578355912e-03
3.078773552032e-03
3.873095872756e-03
3.370616847933e-03
7.627933793163e-04
4.106841682748e-03
9.591787070335e-04
3.491582586837e-03
3.620903548599e-03
2.658320563693e-03
4.383820681644e-03
2.313821533157e-03
3.280595579104e-03
3.781797064791e-03
3.239934934191e-03
4.666843953081e-03
1.844128017672e-03
4.751176865938e-03
3.949884846235e-03
4.988018486650e-03
3.771577015596e-03
2.896598297230e-03
3.483459645253e-03
3.893786270809e-03
2.298745108616e-03
3.272701774280e-03
4.841674106423e-03
3.900979634001e-03
3.037833255544e-03
3.320787467051e-03
5.050201609921e-03
3.079663805871e-03
4.649906474496e-03
5.561012058297e-03
2.890227526471e-03
2.943961554453e-03
2.210045688094e-03
3.349611072643e-03
2.235768342795e-03
3.804052174663e-03
3.255583921612e-03
5.686869579948e-03
5.039238049397e-03
4.717478710770e-03
2.309621426061e-03
3.143595662693e-03
5.111000880600e-03
0.0
3.256985193650e-03
2.315875762829e-03
1.186781807755e-03
5.879212306885e-03
4.749545806609e-03
3.205712272384e-03
1.923895110586e-03
4.248611553850e-03
4.390119912627e-03
3.260852054243e-03
2.726046229142e-03
3.866905638561e-03
4.085059299403e-03
4.849847065370e-03
4.084848891733e-03
3.788784052669e-03
2.384045379571e-03
4.854751456170e-03
0.0
2.534886222220e-03
2.875294506275e-03
3.926615174907e-03
5.120800106263e-03
2.883704576323e-03
2.560806566150e-03
3.780927287153e-03
3.250336732161e-03
2.904934106925e-03
9.744138873205e-04
5.002746784696e-03
1.187677453753e-03
9.712234474307e-04
2.285555067131e-03
2.450408811608e-03
5.091607850684e-03
2.428262004319e-03
2.774880105580e-03
3.779138720656e-03
1.803156298713e-03
1.957999132830e-03
3.924614645831e-03
4.859013116494e-03
0.0
3.040676180201e-03
3.206874618957e-03
3.130650380996e-03
2.062644621155e-03
4.885442700903e-03
4.892149880117e-03
3.059373875750e-03
2.149562808967e-03
4.104130610049e-03
4.011618650566e-03
4.856263363195e-03
4.079661242982e-03
3.170623979729e-03
2.775910294641e-03
4.348640566437e-03
6.080884502444e-03
4.012120085899e-03
2.651654117440e-03
4.174160396721e-03
2.772644652466e-03
4.114504492513e-03
3.290795862291e-03
2.811701725688e-03
3.471873507376e-03
5.142731837040e-03
4.219310466071e-03
2.711805464269e-03
5.231202940207e-03
4.958047196859e-03
4.103438709337e-03
4.637764333399e-03
2.438306330947e-03
4.211956383520e-03
3.365372856234e-03
2.450675261700e-03
2.887962119562e-03
3.878533253387e-03
2.940597055344e-03
2.728683675051e-03
4.958207544710e-03
0.0
4.231308200600e-03
3.120397780434e-03
3.113605546756e-03
2.278736831083e-03
4.503373325418e-03
1.884659263120e-03
3.120901491325e-03
2.297614029118e-03
4.243041167150e-03
4.240307436026e-03
1.373936041198e-03
2.435310679187e-03
3.155120820171e-03
3.003223930663e-03
4.798301013803e-03
3.306297059748e-03
2.985321424422e-03
3.188763902837e-03
1.370686704752e-03
3.117506418936e-03
2.564683140303e-03
6.161779301333e-03
6.171298087031e-03
3.871585823704e-03
3.224089549692e-03
3.155590452933e-03
4.317766949050e-03
3.003359536048e-03
2.608662778043e-03
3.938150114373e-03
5.859163444552e-03
3.214653691530e-03
2.969191311487e-03
2.861811173678e-03
3.768586856653e-03
3.337633072254e-03
4.030230270756e-03
2.035757012657e-03
1.094219009940e-03
3.031075150381e-03
2.930652641428e-03
4.078338297131e-03
6.100030670434e-03
3.051206385844e-03
1.821620188347e-03
2.861790791984e-03
4.656042724998e-03
2.349687270255e-03
2.816498775574e-03
4.525435709533e-03
5.833892866330e-03
2.486522419677e-03
6.151276113808e-03
4.485990906698e-03
4.856089461195e-03
2.611916462935e-03
3.799226166888e-03
4.210806094155e-03
4.343507042611e-03
3.883342781648e-03
5.453648402860e-03
4.408884898377e-03
3.954238356753e-03
2.946932738359e-03
2.126147916000e-03
3.626304909236e-03
2.828752624356e-03
3.908082809323e-03
3.189022324685e-03
2.979438473071e-03
5.107150669262e-03
3.057133034874e-03
3.948493172095e-03
1.767047002602e-03
3.219295742043e-03
4.649421512783e-03
3.423567528206e-03
2.373751734207e-03
2.784414744251e-03
2.725624955031e-03
2.452240531365e-03
5.184269692729e-03
4.210892199139e-03
3.195156139090e-03
3.675464466287e-03
3.719198240263e-03
3.156300643646e-03
5.270722120896e-03
4.951030620452e-03
2.791959147438e-03
3.435291521076e-03
2.714045320190e-03
2.771808396209e-03
4.119259232477e-03
1.360400106286e-03
3.400766620885e-03
5.356429761657e-03
2.456112603846e-03
3.687823897699e-03
4.067889866897e-03
3.485977458347e-03
6.171877983723e-03
6.194847258957e-03
5.749913356992e-03
3.020677987419e-03
5.279204517925e-03
2.613300540084e-03
2.741755212613e-03
2.004260055719e-03
3.406978849626e-03
3.842950909138e-03
4.513278632072e-03
3.244307823644e-03
5.163355495152e-03
4.386423237292e-03
4.476099206042e-03
2.391474383936e-03
1.955161698588e-03
3.217570021580e-03
3.872368428504e-03
3.338770506916e-03
1.812371568338e-03
4.015486225801e-03
2.355558185554e-03
3.278219706871e-03
3.673414290175e-03
1.915648292058e-03
3.981389866812e-03
1.053059668761e-03
3.652003582868e-03
3.330842304649e-03
4.441446771420e-03
6.067281547840e-03
3.807583682193e-03
4.322942112553e-03
3.526145110671e-03
5.255189385440e-03
3.347041718801e-03
5.955073764805e-03
5.938883086238e-03
5.933478345373e-03
5.925413924026e-03
4.598269985990e-03
5.190485547386e-03
5.356291838170e-03
3.172127365247e-03
3.189545386338e-03
3.291257441844e-03
5.278332870253e-03
5.650465782490e-03
5.386391458906e-03
2.086314033400e-03
5.331196890249e-03
3.953887606243e-03
3.284431480345e-03
3.285128967487e-03
3.301125392640e-03
5.759722545495e-03
2.921518703947e-03
4.716770599090e-03
3.382244159206e-03
3.419989620685e-03
3.235774226863e-03
3.108654577361e-03
5.912838273886e-03
5.757913193712e-03
4.236288878953e-03
1.032336198831e-03
5.784372647958e-03
3.094301216638e-03
3.133163714027e-03
1.473651489525e-03
4.377992282328e-03
0.0
3.076087156915e-03
4.393331777553e-03
4.078214650418e-03
4.173061940919e-03
3.172673925433e-03
5.528089032988e-03
2.695300704482e-03
6.061028079687e-04
4.784301089445e-03
1.109397696731e-03
3.558631343330e-03
2.671343080510e-03
3.641731318210e-03
3.626491229388e-03
5.164773912347e-03
4.369311817321e-03
2.723039152115e-03
3.202065681838e-04
3.393270163090e-03
4.000013488580e-03
3.998607249003e-03
4.091967694103e-03
4.682585152391e-03
3.977798602140e-03
6.148717226547e-03
4.046693637694e-03
4.375476627736e-03
2.475463655856e-03
2.038113747758e-03
2.665603733635e-03
4.155084444683e-03
5.944456476497e-03
5.933805245862e-03
3.347496143322e-03
3.141954240646e-03
3.636565096111e-03
3.524861024850e-03
3.764870203374e-03
3.214228737877e-03
2.609429685079e-03
2.752166065871e-03
4.525635562498e-03
3.964553113648e-03
2.737089484301e-03
3.599211839311e-03
2.982464518279e-03
5.872767812274e-03
5.256518196814e-03
6.948896764315e-04
2.926992632798e-03
5.363068251323e-03
5.678180438031e-03
4.516604651069e-03
3.800290162266e-03
2.959233318371e-03
2.645089123398e-03
2.991327947613e-03
2.961565605678e-03
1.984606166548e-03
5.360282778703e-03
2.617597906633e-03
2.719354908298e-03
4.219904639673e-03
2.558238552366e-03
2.945805251787e-03
4.447306010212e-03
4.403301426083e-03
3.203880338452e-03
3.270240138625e-03
3.822758874253e-03
2.320351021533e-03
2.695647363228e-03
3.241179321446e-03
4.055854335950e-03
4.302137120783e-03
2.006945487216e-03
3.504931263533e-03
3.493889225164e-03
3.226663955409e-03
3.195012242961e-03
3.705694372684e-03
2.015330950654e-03
3.674094389629e-03
5.465741692551e-03
2.782005441388e-03
3.605540778520e-03
3.144508273297e-03
3.122849437202e-03
2.256333325417e-03
4.140151503650e-03
5.431033007288e-03
3.225301536712e-03
3.778146397866e-03
3.509424093333e-03
3.382045560242e-03
4.257156002915e-03
2.174643724136e-03
3.150567633663e-03
1.746587665763e-03
4.710220312248e-03
3.696882214136e-03
2.499260062840e-03
4.393497597306e-03
3.304371545067e-03
1.515148851358e-03
2.794723090240e-03
3.870525163770e-03
5.202539231559e-04
3.198860063348e-03
3.122843769625e-03
3.536839909767e-03
3.054969112373e-03
3.133169061378e-03
4.394974799046e-03
3.171453652514e-03
3.954441890249e-03
4.408365611267e-03
3.531054572272e-03
4.293331672903e-03
3.469160005882e-03
0.0
4.342827187450e-03
2.815733446127e-03
1.169868182888e-03
3.377528405656e-03
3.017950135559e-03
5.309388747160e-03
1.836141118027e-03
1.645439494872e-03
3.818624685672e-03
3.581263554169e-03
5.741565943865e-03
4.177684629919e-03
1.850928756814e-03
2.067405024286e-03
1.416744999512e-03
2.579714406710e-03
4.842819569639e-03
5.316030625827e-03
3.796388360631e-03
2.739477237490e-03
3.923275296672e-03
2.756654641123e-03
1.368956117904e-03
2.826459377296e-03
2.346887089609e-03
4.356557030682e-03
4.139689611657e-03
3.039564492647e-03
3.507425817395e-03
3.484969287982e-03
2.724837710706e-03
1.738579034053e-03
2.880004918018e-03
1.059860394561e-03
3.342988300000e-03
3.564932177344e-03
9.012381607526e-04
2.910014888118e-03
5.510045432400e-03
1.959702749170e-03
3.585704259986e-03
3.723526099815e-03
1.268716263999e-03
2.392889037010e-03
3.063515298584e-03
2.813209111348e-03
4.210048530920e-03
5.103573185464e-03
5.177892081959e-03
2.829945348819e-03
1.363451425510e-03
3.691969532227e-03
3.550626997966e-03
3.676511325993e-03
1.285478420515e-03
8.537344141222e-04
7.845181071081e-04
2.162938812804e-03
1.377340432524e-03
3.170219899797e-03
0.0
2.524870915773e-03
4.491269867148e-03
3.700282617022e-03
5.066161758073e-03
3.327949804502e-03
4.251884330892e-03
2.509212341416e-03
1.018037242248e-03
5.829475890603e-03
6.039028528119e-03
4.216434674855e-03
3.565489033799e-03
2.587498848121e-03
5.999263223227e-03
2.442752516004e-03
3.696609549568e-03
3.563907472710e-03
3.514699694935e-03
5.927065042664e-03
6.015277257663e-03
1.330400211541e-03
1.449907591737e-03
1.344592241943e-03
3.643608196866e-03
4.850396606121e-03
0.0
5.101358492196e-03
1.409139728971e-04
1.499124232117e-03
3.824208957472e-04
0.0
2.029814193675e-03
4.688865864911e-03
4.611649624508e-03
3.864254668426e-03
9.306078872588e-04
4.020589784949e-03
5.797624803762e-03
5.973591106953e-03
3.688007304244e-03
1.196237126604e-03
5.834612071299e-03
3.414725027011e-03
9.671159728271e-04
1.409744689688e-03
9.368666534769e-04
2.773625038877e-03
5.128733981852e-03
5.686078140094e-03
1.614169892137e-03
3.141780048589e-03
4.903795419048e-03
5.124707089311e-03
4.540751789241e-03
4.863760003676e-03
5.230664655895e-03
4.885659315087e-03
4.900079095049e-03
5.104618843216e-03
2.371313285604e-03
3.639130252575e-03
3.700407251155e-03
1.543007074285e-03
4.822691056273e-03
4.723797952646e-03
4.594502443142e-03
2.187658065542e-03
2.078158679153e-03
4.298928970353e-03
4.465695048772e-03
4.739825188448e-03
3.625004239622e-03
4.980074041723e-03
4.182381661481e-03
3.612530889479e-03
1.648586597975e-03
1.078919747717e-03
9.715320649564e-04
8.189522588763e-04
3.276017880373e-03
3.023112973762e-03
3.897742298982e-04
4.028126407989e-03
2.904706458492e-04
5.885086834910e-03
5.811364703112e-03
5.844706076157e-03
1.127270833140e-03
2.214903500655e-03
5.806505327904e-03
4.688671280238e-03
5.826774921974e-03
4.813055851057e-03
4.917144813202e-03
2.903322035183e-03
6.008349193016e-03
6.003877113261e-03
4.727827648335e-03
4.864305038441e-03
4.249335747199e-03
0.0
3.175859147544e-03
1.259325279811e-03
4.420798695160e-03
3.384638883793e-03
4.409067033902e-03
2.131043982543e-03
1.108023222196e-03
4.695482135487e-03
3.365831542969e-03
2.646631452456e-03
4.556588175848e-03
5.414895944389e-03
2.656831201839e-03
3.200576911771e-03
3.816886599349e-03
4.190899904542e-03
4.331300515814e-03
2.822232598008e-03
3.605666078604e-03
3.473782743791e-03
3.959311659394e-03
4.657481856823e-03
4.474738788930e-03
2.497721918515e-03
5.428170056435e-03
5.196932708230e-03
3.994972095663e-03
4.018877418988e-03
4.067532001752e-03
5.468828346424e-03
5.334434594670e-03
3.777218885507e-03
4.785229386991e-03
5.183640898652e-03
4.486085823949e-03
4.626918442455e-03
5.440760853048e-03
4.828731435924e-03
3.492214324912e-03
1.813629337524e-03
2.595415623828e-03
1.751915947168e-03
1.311389193297e-03
5.325791288567e-03
4.638904880307e-03
1.232072997821e-03
5.349220756651e-03
4.109200150890e-03
4.453473742339e-03
4.501290464753e-03
2.822661026846e-03
4.600361826760e-03
3.989940508894e-03
1.568365711787e-03
4.607579259789e-03
1.682217231393e-03
4.433060704539e-03
4.965853579252e-03
1.931234771425e-03
2.536905363929e-03
3.506959235330e-03
4.546823231474e-03
2.929878446617e-03
5.094658413771e-03
4.689487714454e-03
3.549548679273e-03
4.373859018118e-03
4.508144441649e-03
4.950601638813e-03
1.602271484754e-03
3.405781233643e-03
3.108775469077e-03
5.079843116042e-03
3.194307102305e-03
3.880531337843e-03
4.194530845224e-03
4.813687637528e-03
2.696113206384e-04
1.541456333067e-03
1.874707634932e-03
4.535680067079e-03
4.684102630711e-03
3.785681380179e-03
4.265606377495e-03
3.105476038775e-03
3.587079011170e-03
4.392674845493e-03
1.860767443432e-03
4.452816754116e-03
3.543702289538e-03
1.992785431315e-03
3.392397121739e-03
2.975423009005e-03
2.515877789845e-03
3.725661475431e-03
9.890849693237e-04
7.121019429699e-04
4.132428392348e-03
1.740140079302e-03
4.103577769620e-03
3.987009557526e-03
3.370047699069e-03
3.248806400505e-03
5.300420175180e-03
2.104285098992e-03
2.995450123017e-03
2.940527097191e-03
1.410651741479e-03
4.429529881649e-03
4.136718757980e-03
1.859816294009e-03
3.894261520894e-03
4.933477745413e-03
1.699722713993e-03
5.408694418047e-03
5.411197824938e-03
2.017061567542e-03
2.915404601559e-03
2.179306637539e-03
4.367605250964e-03
3.647788208579e-03
5.489535749250e-03
5.304729192866e-03
4.231498250214e-03
4.146491013704e-03
1.780674243216e-03
4.280532226645e-03
4.934868325194e-03
3.669316609231e-03
4.695546322833e-03
5.063717161736e-03
2.645489529404e-03
5.190164349716e-03
3.272404207533e-03
3.596661715041e-03
2.751844944681e-03
3.019000093276e-03
4.810385432176e-03
3.246422704326e-03
2.264566458407e-03
1.689403800147e-03
4.815225778648e-03
2.226110953632e-03
4.194754128453e-03
4.940895878954e-03
4.276223362944e-03
3.112253213804e-03
3.202020562987e-03
1.919623832173e-03
1.352217145348e-03
4.164633130640e-03
4.560658305418e-03
1.177128837243e-03
2.915068821861e-03
1.620327168500e-03
4.555465457416e-03
2.973416926450e-03
3.909810264466e-03
2.724408296497e-03
5.208767427969e-03
2.593619795372e-03
4.035142549939e-03
2.532928249258e-03
4.024142569854e-03
3.450900747862e-03
4.136123601672e-03
2.485244761370e-03
1.564757219021e-03
4.294495704809e-03
2.163488820880e-03
3.387401299419e-03
4.565662359773e-03
2.738581822716e-03
4.665942928302e-03
1.465348703278e-03
4.246327033609e-03
1.699623542301e-03
2.032350589391e-03
5.536974569683e-03
3.426908671018e-03
1.540384123315e-03
3.758577465195e-03
3.927524684088e-03
2.715033437352e-03
4.314845763778e-03
4.948351979472e-03
3.360890771607e-03
3.891846381777e-03
4.252820554628e-03
2.212724349773e-03
2.843833598180e-03
4.035789724436e-03
3.996131275531e-03
3.575096828484e-03
3.792627721388e-03
4.802343365754e-03
4.415034608388e-03
4.389129640424e-03
3.467263775260e-03
3.595494986516e-03
3.583279255749e-03
4.289394557029e-03
5.421975200704e-03
2.486182053314e-03
3.861488826342e-03
5.063142224082e-03
3.131891392016e-03
3.028041098227e-03
1.823938140991e-03
3.705908196928e-03
3.091369410019e-03
4.675935954995e-03
4.534875968551e-03
2.056161555857e-03
2.786655864968e-03
2.873165513745e-03
2.868546210609e-03
3.110365765296e-03
1.843618803568e-03
3.272992134604e-03
3.412916071715e-03
5.192089283469e-03
3.281566540745e-03
3.626240938450e-03
3.586985508785e-03
3.409305181201e-03
1.897398460282e-03
3.604818096321e-03
3.888630237913e-03
4.421922450971e-03
3.317485446496e-03
3.647674555787e-03
4.673336337087e-03
3.224252799485e-03
3.496064654626e-03
2.622358304585e-03
3.055333394029e-03
3.164663825952e-03
2.311141121049e-03
2.125313783725e-03
3.477924834306e-03
3.736945563828e-03
4.738585916755e-03
1.315321289851e-03
2.446620192041e-03
2.982448329977e-03
3.433203482513e-03
4.531582693643e-03
3.499304588405e-03
2.673974497719e-03
3.139905464341e-03
5.072747806473e-03
2.707809154280e-03
1.166214898562e-03
1.463299212712e-03
2.914504388254e-03
3.018723201689e-03
2.686713935682e-03
3.062407380188e-03
2.712109552951e-03
1.499659389839e-03
4.359635542217e-03
2.393958649680e-03
3.066798902882e-03
4.495652146628e-03
4.450791082476e-03
5.300178894970e-03
4.977951589195e-03
2.397146190700e-03
4.416844529747e-03
3.119400395624e-03
3.332129797491e-03
3.122426360325e-03
2.988793531740e-03
2.855846187293e-03
3.177000482072e-03
2.756193394154e-03
2.592075865469e-03
2.421633066575e-03
3.387402253471e-03
2.293172573691e-03
2.277057048855e-03
2.911114260278e-03
1.155684839829e-03
4.799837983891e-03
2.295247612437e-03
3.251041652365e-03
3.393599796704e-03
3.145369302234e-03
3.078086569887e-03
5.318104494318e-03
4.480500477960e-03
2.985180505105e-03
4.544225245269e-03
5.407567982517e-03
2.819844426375e-03
3.291868619470e-03
4.617460502529e-03
3.604719748764e-03
2.828319211558e-03
5.770682299556e-03
2.324148480044e-03
2.632797394299e-03
5.423157329672e-03
1.479799231385e-03
4.397525855562e-03
5.165585481732e-03
2.315901153844e-03
1.693562376470e-03
5.527898528543e-03
3.711930513200e-03
4.919552001560e-03
1.951673982838e-03
3.287761322063e-03
5.034502267977e-03
5.186304779390e-03
3.552693579741e-03
3.534005249318e-03
4.400555289825e-03
4.253543167516e-03
2.943285220908e-03
3.519756308427e-03
3.287722794547e-03
1.604761110599e-03
2.916005013921e-03
2.089170602373e-03
2.495795305072e-03
3.131259226377e-03
5.609482615871e-03
5.438909998859e-03
5.417054799902e-03
3.703317504642e-03
5.161557093516e-03
3.868518273720e-03
5.545650970965e-03
4.897334775276e-03
3.311771604762e-03
2.197730088428e-03
5.053606803532e-03
5.398699092692e-03
5.059342313408e-03
4.930251969398e-03
3.686756924755e-03
2.638215958256e-03
3.385656639266e-03
3.735595459470e-03
3.380928897864e-03
1.515738106098e-03
4.891642251277e-03
2.057605305164e-03
2.303129579541e-03
1.798145096306e-03
1.202338881616e-03
2.291547627481e-03
2.255519192117e-03
1.119365171026e-03
3.821601090175e-03
3.628201443265e-03
4.633003595104e-03
3.816334825167e-03
1.776186669795e-03
3.629386261877e-03
1.548469868944e-03
5.595449219484e-03
1.931840670526e-03
3.698695061029e-03
4.663243438870e-03
2.011134684472e-03
1.247841792706e-03
1.362382450494e-03
3.956724378172e-03
3.694573121702e-03
3.378959753737e-03
3.476784983087e-03
3.160808567775e-03
1.209468731440e-03
5.051259765074e-03
3.748618971867e-03
3.477272273897e-03
1.950538792296e-03
4.782003339930e-03
3.210604208947e-03
5.183136400848e-03
1.092245890419e-03
2.105066893939e-03
3.669072015162e-03
1.206486766565e-03
5.304264296023e-03
2.175618363556e-03
1.951041802013e-03
3.970362899570e-03
5.544534571255e-03
3.589900622387e-03
4.195224401096e-03
4.919263556773e-03
3.618574329088e-03
2.771490720799e-03
3.147261186436e-03
2.962169357454e-03
3.142630492045e-03
3.544072557654e-03
1.522290315328e-03
6.123405621243e-03
2.263220382989e-03
3.970342460405e-03
2.658927723359e-03
4.758938700212e-03
1.696532885482e-03
3.388847263524e-03
3.457624531915e-03
2.514428578240e-03
1.677345446119e-03
2.396212171814e-03
2.754267880200e-03
3.227262210638e-03
4.988779509347e-03
2.815825285194e-03
4.795644255112e-03
5.516289922385e-03
5.146103467286e-03
5.257081820144e-03
3.182071023712e-03
4.029201795451e-03
5.042361025696e-03
2.756595180964e-03
2.647290714061e-03
3.056301189697e-03
2.572569436643e-03
2.462008023465e-03
2.644345930535e-03
1.440401882729e-03
3.630426804566e-03
1.569273956402e-03
5.480811851792e-03
5.602378623592e-03
1.419199509514e-03
5.275547562051e-03
2.804242796237e-03
4.372719245337e-03
2.891727352859e-03
5.381895938702e-03
3.185020396507e-03
3.346610583280e-03
2.289654001474e-03
3.542499471540e-03
3.433320806316e-03
3.266208049096e-03
2.035076047681e-03
2.493404353718e-03
2.201070291381e-03
5.424319885087e-03
5.590129291020e-03
3.903582702292e-03
2.909258766392e-03
2.335058945798e-03
5.293513921390e-03
1.953817967391e-03
4.234737884749e-03
5.172652995614e-03
5.124227989435e-03
9.277188622566e-04
2.506898590902e-03
4.525242961084e-03
4.563239763712e-03
3.241690536946e-03
2.241320889606e-03
2.833288907621e-03
4.078547169666e-03
4.419169055791e-03
5.013620306272e-03
2.282293485652e-03
4.307804809555e-03
1.686847443505e-03
5.290274890223e-03
4.851002717086e-03
4.643175649224e-03
2.345179317856e-03
1.807172178817e-03
1.801948734361e-03
3.359707236442e-03
5.507142592636e-03
5.108003363980e-03
1.046447068849e-03
2.179901417413e-03
3.852336584430e-03
3.800392508022e-03
2.586138136504e-03
9.771895354137e-04
2.930181311238e-03
2.283701537404e-03
1.568412579387e-03
4.696631355627e-03
4.607881037575e-03
4.766072203044e-03
4.081754060291e-03
4.603369163212e-03
4.379957173958e-03
4.618906992019e-03
2.458376662123e-03
4.098638148539e-03
4.907202475208e-03
5.648784616652e-03
4.495095601971e-03
2.548434779706e-03
3.912793135380e-03
5.512760513766e-03
3.001262042829e-03
3.180884923332e-03
2.468543689254e-03
5.028337068141e-03
3.427253910037e-03
3.290153938343e-03
3.675470650321e-03
2.182285102727e-03
4.189801390205e-03
2.291578316535e-03
1.349449754861e-03
5.636015473331e-03
3.625895958899e-03
2.103450277768e-03
4.046287823861e-03
4.878000002137e-03
3.895798009600e-03
3.114017949884e-03
8.889497729122e-04
4.793301523209e-03
4.034143798685e-03
2.338495865229e-03
4.679004096828e-03
0.0
3.545292720195e-03
3.183419108901e-03
4.620052298240e-03
3.760015126243e-03
2.393922234819e-03
4.445933361572e-03
3.448409215898e-03
2.584776922099e-03
4.250432662385e-03
1.906468634271e-03
4.153126910283e-03
1.818802017300e-03
5.293743423829e-03
4.239353654533e-03
2.394815569185e-03
4.179465517636e-03
5.639919064862e-03
3.534684727708e-03
2.288195308190e-03
2.779857412875e-03
4.157293753941e-03
4.559059439739e-03
3.534808419225e-03
4.252606570727e-03
4.782120039691e-03
4.278791894662e-03
3.738223600894e-03
3.499074933205e-03
3.494139593801e-03
4.747419654542e-03
4.255099070675e-03
3.839964885527e-03
4.569340265878e-03
3.056246348132e-03
2.393304954355e-03
2.930480403413e-03
6.086851266750e-03
4.117844399000e-03
3.455995573439e-03
3.753400023371e-03
2.472071372363e-03
3.491628202087e-03
4.204348122107e-03
4.268597776756e-03
4.772004198945e-03
4.710233733702e-03
4.692963440339e-03
1.106720622824e-03
3.608330547153e-03
3.820362875112e-03
4.664326353529e-03
4.680096484355e-03
2.352584026882e-03
1.558884795758e-03
2.654480659437e-03
3.731003145245e-03
3.466490700851e-03
3.315280051285e-03
3.510786059953e-03
4.741445271794e-03
3.000739119005e-03
3.725942709322e-03
1.882186228005e-03
1.989209782105e-03
4.859365221654e-03
5.378791863780e-03
3.622412790060e-03
4.086298431898e-03
8.788451117360e-04
2.150327118180e-03
4.157073371539e-03
8.318441689136e-04
5.408814910997e-03
1.796994317519e-03
4.563827465076e-03
4.326693611244e-03
2.179157756358e-03
2.902957421488e-03
5.531946144864e-03
2.724274636976e-03
3.597238446451e-03
3.949741788311e-03
1.387126890400e-03
1.483538630366e-03
4.094562523505e-03
4.462003929120e-03
4.216899447097e-03
3.250175486718e-03
5.197689124532e-03
4.432557972304e-03
3.662154238880e-03
4.324815174578e-03
4.318493610634e-03
4.118093824424e-03
3.698739609380e-03
3.642170033284e-03
5.589231027012e-03
3.013506558343e-03
4.255186571382e-03
2.631728022376e-03
2.719221655027e-03
3.230635052549e-03
2.472264286779e-03
1.402294089302e-03
2.643957478186e-03
4.711133417206e-03
2.471516709082e-03
4.468472658716e-03
2.193648896864e-03
1.986292001410e-03
2.990854761195e-03
4.632153164590e-03
4.258818863725e-03
4.455822626565e-03
2.409857783535e-03
4.599243387348e-03
4.586353591898e-03
3.003262797050e-03
3.764237663719e-03
1.259809435264e-03
4.417137978971e-03
2.598861938414e-03
3.559924899756e-03
2.891071441809e-03
4.599295072823e-03
4.492928374407e-03
3.946747793921e-03
3.008453656814e-03
3.177730900320e-03
4.583213391973e-03
3.022048143241e-03
1.998492614778e-03
1.639620437187e-03
1.813972294795e-03
2.527763030566e-03
3.023198208948e-03
4.233192300425e-03
3.640278608643e-03
1.787168974819e-03
3.020737013717e-03
3.250114505745e-03
4.609207531696e-03
1.720484110792e-03
4.768807741004e-03
2.542365269620e-03
3.372604860332e-03
3.955992186008e-03
3.843149938690e-03
2.565660421796e-03
3.009689123218e-03
4.457896627465e-03
1.960918397589e-03
4.405903501378e-03
3.240600366134e-03
3.564971743916e-03
2.068612722327e-03
3.806478467456e-03
4.436879848710e-03
1.816133218611e-03
2.713220334332e-03
2.003794310319e-03
1.222241799405e-03
3.754040591865e-03
4.602132618812e-03
4.606753680845e-03
2.762317310720e-03
5.921576080326e-03
1.430277348459e-03
2.912859680010e-03
2.189495913324e-03
3.665001844436e-03
3.520328983887e-03
2.638881836419e-03
2.895778659108e-03
4.043104173156e-03
2.482129023893e-03
5.209900433282e-03
3.214049017557e-03
3.647482495706e-03
3.710983494359e-03
2.656638786889e-03
3.855170451250e-03
4.566671673770e-03
4.366198307929e-03
1.028648459849e-03
0.0
2.165054714133e-03
3.723014921691e-03
2.395137752120e-03
2.817631679997e-03
2.513976997857e-03
3.806732758052e-03
4.815158278389e-03
3.775227130307e-03
2.362468453277e-03
4.403407743042e-03
4.096150277746e-03
2.928708125507e-03
3.798202669823e-03
3.830814983830e-03
2.434166470534e-03
2.429201062824e-03
3.861528244714e-03
4.613156150105e-03
4.387204249011e-03
2.657070979426e-03
3.880643775732e-03
2.837716406776e-03
2.485420115051e-03
3.105685387870e-03
2.225639351650e-03
2.780093807568e-03
2.725707991279e-03
2.761000011738e-03
3.893879650775e-03
2.100922071665e-03
3.891918480221e-03
3.915697350990e-03
2.204461836540e-03
3.709703770702e-03
0.0
5.365652246451e-03
2.578069340872e-03
2.173697461019e-03
3.448943280228e-03
3.975644968851e-03
4.011347503912e-03
2.443864926480e-03
1.964861984032e-03
1.711666579155e-03
4.092079591951e-03
2.346058795579e-03
2.509223878502e-03
4.534649018568e-03
2.777991002642e-03
4.537667482143e-03
4.058891197805e-03
0.0
5.816180050420e-03
4.902062641942e-03
3.881412651745e-03
2.440978645024e-03
3.770170632493e-03
2.426839343308e-03
1.518214254580e-03
1.183275839579e-03
5.546974744787e-03
4.665874526858e-03
3.739497969649e-03
5.215858982210e-03
1.786753972791e-03
4.945218504881e-03
4.727704294311e-03
2.892091425302e-03
3.818142524302e-03
2.797163094051e-03
2.426438530921e-03
2.920765910813e-03
4.893505897122e-03
4.727405870860e-03
2.743689612102e-03
4.673515583297e-03
0.0
2.485522009972e-03
5.040677103797e-03
3.152365298128e-03
2.607652291814e-03
3.607194230213e-03
3.172614263735e-03
2.188759691854e-03
2.409032827129e-03
2.923122928886e-03
2.479690312005e-03
2.876821812237e-03
4.465612370866e-03
5.532694685970e-03
2.480976938953e-03
4.855765288150e-03
5.147151796070e-03
2.491148219769e-03
2.231684133508e-03
3.071159247528e-03
2.618928641937e-03
4.855263855775e-03
2.512300808846e-03
2.262013899534e-03
2.743671721340e-03
2.429414246353e-03
2.905151765398e-03
2.632275217683e-03
3.664855587076e-03
4.505149016415e-03
2.765225984554e-03
2.582205512883e-03
2.386883807025e-03
2.387003191431e-03
0.0
5.504082384171e-03
5.322543550804e-03
7.848135277644e-04
2.549500333694e-03
2.400638059405e-03
2.463285382783e-03
4.810923744731e-03
3.198165242386e-03
4.606096513073e-03
2.664651155853e-03
3.655834997024e-03
4.200689173686e-03
2.113752298900e-03
1.912300493824e-03
3.255578082472e-03
1.273953511854e-03
4.816843425833e-03
2.290848895150e-03
2.168710725122e-03
2.559244781557e-03
4.283416494899e-03
4.812195502839e-03
2.539570789041e-03
3.643462494389e-03
4.855540140174e-03
2.948190669232e-03
2.976334480875e-03
2.027418807040e-03
2.926129920543e-03
4.448255544290e-03
2.964508539853e-03
5.409142776678e-03
5.734258886474e-03
4.026664295728e-03
5.743896818908e-03
5.718569705541e-03
2.582070465025e-03
2.595631204153e-03
3.199953522585e-03
0.0
1.902903777885e-03
3.604210869196e-03
2.807391870645e-03
2.804874001204e-03
2.021751019950e-03
2.194943763957e-03
4.142001498770e-03
2.644769460266e-03
2.249798190126e-03
3.567736017229e-03
4.967219196927e-03
4.886134841971e-03
2.605300666506e-03
3.828525680062e-03
0.0
1.957535475967e-03
3.521502279004e-03
1.981252673420e-03
2.924275991023e-03
2.745952613107e-03
2.849229022871e-03
2.462891224688e-03
5.296655538006e-03
2.503533226713e-03
5.524289484905e-03
5.153625615526e-03
6.001172921191e-03
5.100455085510e-03
4.110540018138e-03
2.637651237191e-03
2.100855566225e-03
3.191285649529e-03
4.869911819268e-03
1.668585154639e-03
1.835666317314e-03
2.227285640186e-03
3.938213713365e-03
5.540832376998e-03
4.655361428653e-03
3.499491474384e-03
5.052024159388e-03
4.084593475503e-03
2.632811007746e-03
2.862235179152e-03
4.698107313135e-03
3.316215251475e-03
3.587892556505e-03
3.896233695222e-03
4.114095616366e-03
4.188562373750e-03
1.799506149793e-03
2.750045215379e-03
5.853261315327e-03
4.426727944562e-03
3.704988570506e-03
5.563415471233e-03
4.701176930839e-03
5.605287308872e-03
2.984653430048e-03
2.899269361477e-03
3.882189993689e-03
0.0
2.099672330588e-03
4.918810832529e-03
9.297763855901e-04
3.755397294441e-03
2.797405890751e-03
1.199320246670e-03
1.287155906031e-03
6.012085979982e-03
3.536739645719e-03
5.807206894269e-03
2.659927490576e-03
3.526193540084e-03
0.0
5.649183673557e-03
1.226889212049e-03
5.591486415216e-03
4.894034742833e-03
5.539486036354e-03
2.262943268428e-03
4.213950339262e-03
3.025007021002e-03
3.131326445098e-03
4.091554630855e-03
5.020955983920e-03
3.911662398283e-03
5.268125805587e-04
4.885085777727e-03
3.118765135349e-03
9.712620635747e-04
3.457233058136e-03
5.927711436663e-03
5.789822867449e-03
3.808569037443e-03
4.215889140078e-03
2.538577934307e-03
5.833806765854e-03
2.555830622428e-03
2.490656388983e-03
3.320251670345e-03
3.625198829927e-03
5.701509361268e-03
5.926679449314e-03
5.825453120953e-03
2.375146025770e-03
1.855020722498e-03
3.558870854792e-03
3.632521599668e-03
4.888825416704e-03
5.046946971520e-03
1.549964253441e-03
0.0
4.672705056340e-03
4.574124372469e-03
1.492817307624e-03
4.534041151919e-03
3.791507055834e-03
3.441092852532e-03
4.640515334488e-03
3.044493888229e-03
3.085586377938e-03
1.541679909506e-03
3.205964040354e-03
5.539122948349e-03
5.470096428524e-03
3.349468659420e-03
4.316012489498e-03
5.096328403816e-03
5.066889044332e-03
4.866255092984e-03
3.513811278074e-03
2.745903881908e-03
5.643353601341e-03
2.006177374357e-03
1.336548591570e-03
4.740994586223e-03
1.967258917603e-03
3.030928276529e-03
4.804010908766e-03
4.798192704978e-03
4.457553134226e-03
4.812474116929e-03
4.086135366692e-03
0.0
1.909648872290e-03
2.592269180864e-03
4.073105943506e-03
3.300295154597e-03
5.598216389854e-03
3.155889343856e-03
2.080876808324e-03
1.684831239890e-03
1.996726710914e-03
4.805748266782e-03
2.545899529970e-03
5.665640345273e-03
1.260613380941e-03
2.717034335033e-03
4.089865816188e-03
4.150741350700e-03
3.513862819322e-03
4.079622705219e-03
3.886731369533e-03
5.955413447924e-03
5.808855366257e-03
1.973720843828e-03
5.623880488313e-03
5.288178170346e-03
2.706065533822e-03
3.694588255657e-03
4.724906017287e-03
5.013738577708e-03
0.0
2.864341795003e-03
5.304542939534e-03
4.364446428508e-03
4.836626331640e-03
3.730875922936e-03
4.587318565965e-03
5.089225402943e-03
3.906899070662e-03
3.750017617315e-03
3.537069004234e-03
2.588839608145e-03
5.047138554197e-03
3.933020823055e-03
5.546377694027e-03
1.946527573604e-03
5.421130664064e-03
4.841192871563e-03
9.322091538505e-04
2.293274876912e-03
5.049998438284e-03
5.689077263393e-03
5.605137768792e-03
3.830427027326e-03
4.275713481985e-03
1.034452648196e-03
0.0
9.165803274728e-04
2.306330849804e-03
1.188314790681e-03
3.232809435929e-03
4.778427176324e-03
5.703044928894e-03
4.347082166528e-03
3.002796748421e-03
4.148995897399e-03
2.783709893463e-03
4.463871432644e-03
4.932249577077e-03
5.252682971647e-03
1.354054557860e-03
0.0
4.840119537013e-03
7.233031137748e-04
8.681517225348e-04
1.435436843906e-03
1.472272678795e-03
3.855676984439e-03
5.537407312308e-03
5.639733232520e-03
4.436603250530e-03
2.523558595448e-03
4.438054910322e-03
5.878210086007e-03
3.406643456978e-03
3.631025882734e-03
3.027978513677e-03
7.658097359086e-04
5.095377053932e-03
4.007087122991e-03
1.117452099742e-03
3.054154399225e-03
5.821463871987e-03
5.616162225123e-03
5.771476761292e-03
2.378943900085e-03
0.0
4.729401298327e-03
5.982820025955e-03
5.116893597155e-03
3.780141864939e-03
2.757852932878e-03
1.016540728646e-03
5.742488357776e-03
8.130160899770e-04
3.471132188594e-03
5.976997195660e-03
0.0
4.334445045259e-03
4.928068088589e-03
5.685262055675e-03
3.960311455775e-03
4.602685966077e-03
5.674047741207e-03
5.673486810091e-03
4.691284669015e-03
5.438753250395e-03
2.700307817537e-03
3.496149835990e-03
4.345309502369e-03
5.753633298066e-03
1.736380299792e-03
3.496568385412e-03
4.939582600280e-03
1.368820282863e-03
2.744988563961e-03
5.663738979535e-03
5.807014388648e-03
1.265820552801e-03
2.857699370651e-03
3.526860356291e-03
5.236929301907e-03
0.0
5.763265201970e-03
4.458722862593e-03
3.044071100787e-03
4.287981028573e-03
4.654162068594e-03
3.688235848984e-03
2.381643933806e-03
2.490177180056e-03
3.382376733098e-03
3.778484931935e-03
3.590372836895e-03
3.200278276933e-03
3.401617339723e-03
1.200485253478e-03
4.444142389629e-03
4.959617724818e-03
2.494216693804e-03
5.683473093287e-03
4.880068419397e-03
3.847676400356e-03
4.572298701193e-03
3.295609289569e-03
3.277091984412e-03
3.455826167072e-03
2.410347476307e-03
3.171270214627e-03
5.151777217512e-03
3.979240728433e-03
5.867901631608e-03
2.336872728529e-03
4.397657744471e-03
5.380026001316e-03
3.734283041451e-03
4.159349955921e-03
1.018917914231e-03
5.297615537063e-03
5.603907969465e-03
1.200386500765e-03
3.098141903975e-03
0.0
5.607338238193e-03
1.595885243391e-03
1.666399810320e-03
1.478565083579e-03
1.663105926442e-03
1.472428907928e-03
1.665323346302e-03
1.473345293829e-03
1.668721779825e-03
1.475060790659e-03
1.672515119995e-03
1.476713251565e-03
1.676405268876e-03
1.477962616502e-03
1.680151147762e-03
1.478478685457e-03
1.683435136354e-03
1.477847663574e-03
1.685977886182e-03
1.826172981962e-03
1.475703873381e-03
1.687528137387e-03
1.471717033979e-03
1.808216096976e-03
1.687502052684e-03
1.621624466811e-03
1.465420332610e-03
1.685651184651e-03
1.456682442406e-03
1.683271242531e-03
1.446338352429e-03
1.681882221415e-03
1.435745486961e-03
1.686558014631e-03
1.983235935084e-03
1.427137084354e-03
1.668318955175e-03
1.424806453412e-03
1.657474958136e-03
1.655421471966e-03
1.429789018552e-03
1.692626940467e-03
1.432063270095e-03
1.732606417606e-03
1.871333468443e-03
1.418519729700e-03
1.509806472248e-03
1.724124311218e-03
1.587678473644e-03
1.729314272462e-03
1.557578715406e-03
1.679950678048e-03
1.916772580957e-03
1.938210228367e-03
1.855070982470e-03
2.012839987660e-03
1.865237882432e-03
2.017602022539e-03
1.866750885935e-03
2.020171921487e-03
1.868036742157e-03
2.023706536869e-03
1.869204362041e-03
2.027847855192e-03
1.869894456575e-03
2.032291853640e-03
1.869637544109e-03
2.036494374470e-03
1.867953593694e-03
2.040526920442e-03
2.096576136937e-03
1.864413530055e-03
2.044434416743e-03
1.956595450656e-03
1.858595784876e-03
2.048442989312e-03
1.850082569554e-03
2.052677629743e-03
1.838558006539e-03
2.059066600854e-03
2.057874607925e-03
1.825142622328e-03
2.068271119575e-03
1.811199211737e-03
2.055676819201e-03
1.801129383856e-03
2.044831352514e-03
1.794948757603e-03
2.040648389966e-03
1.809928005653e-03
2.224878849609e-03
1.825042548851e-03
2.063972402928e-03
1.899703936827e-03
2.092490428407e-03
2.182664400219e-03
1.926281506436e-03
2.029719175036e-03
1.866391534843e-03
1.981521245243e-03
1.857559797512e-03
2.117510806444e-03
2.294241220172e-03
2.361395076424e-03
2.216154836749e-03
2.357998710852e-03
2.214786627200e-03
2.360635211121e-03
2.219711824722e-03
2.364744831697e-03
2.226366150586e-03
2.369804074944e-03
2.231513212677e-03
2.375640653335e-03
2.228923351831e-03
2.381109275559e-03
2.224559756434e-03
2.386033807545e-03
2.422469400763e-03
2.218422108439e-03
2.391036236924e-03
2.374971160047e-03
2.210476424915e-03
2.396373502810e-03
2.299438040081e-03
2.200919367465e-03
2.401866583409e-03
2.189558096147e-03
2.408015076602e-03
2.176427520762e-03
2.416119866827e-03
2.529299764460e-03
2.165470136003e-03
2.403108141081e-03
2.157002805424e-03
2.383705627598e-03
2.391643415084e-03
2.161881467416e-03
2.385265248373e-03
2.161580518042e-03
2.461344384578e-03
2.224151981452e-03
2.306743514097e-03
2.266428057819e-03
2.412209071277e-03
2.251360739942e-03
2.368514859645e-03
2.397094801283e-03
2.626734283379e-03
2.549531866633e-03
2.701394005823e-03
2.556134915907e-03
2.705711491278e-03
2.561480290484e-03
2.710065989537e-03
2.566655120162e-03
2.714513451666e-03
2.574446997273e-03
2.720634103997e-03
2.582981102361e-03
2.727498271816e-03
2.593510788275e-03
2.734155989720e-03
2.720163723611e-03
2.600860379507e-03
2.592487705640e-03
2.738512044037e-03
2.594197665573e-03
2.746355183321e-03
2.582395027498e-03
2.755844196279e-03
2.568241209878e-03
2.671612935326e-03
2.765816059205e-03
2.551965904305e-03
2.779576565079e-03
2.532839083947e-03
2.775383251297e-03
2.527604753952e-03
2.770901703469e-03
2.513452816674e-03
2.549007397530e-03
2.757146576703e-03
2.792368389522e-03
2.792016082909e-03
2.565612625475e-03
2.702582909373e-03
2.546878826374e-03
2.661103818204e-03
2.547347738664e-03
2.675904247711e-03
2.966754512287e-03
3.036028368872e-03
2.881134676313e-03
3.028579513069e-03
2.879228433618e-03
3.034375088800e-03
2.887788164751e-03
3.035458784700e-03
2.890186158662e-03
3.042779342889e-03
2.901207661542e-03
3.047179815419e-03
2.908355221936e-03
3.047821965847e-03
3.058166228224e-03
2.921616972915e-03
2.977904379741e-03
3.057220798405e-03
2.926740671622e-03
2.913842577925e-03
3.065010864165e-03
2.940817269049e-03
3.076565577618e-03
2.928097216781e-03
3.084144842026e-03
3.085339738652e-03
2.912475768239e-03
3.096508582135e-03
3.118274552756e-03
2.897323094266e-03
3.090734832649e-03
2.871686253460e-03
3.129388617912e-03
2.894029482055e-03
2.858270663078e-03
2.922028373713e-03
3.085335394846e-03
2.928220263468e-03
3.030143154684e-03
2.945827770339e-03
3.312321515307e-03
3.189480759148e-03
3.353757832105e-03
3.204854301679e-03
3.362122923095e-03
3.214839365167e-03
3.375029482880e-03
3.210761067781e-03
3.368277685235e-03
3.220984354806e-03
3.383169786334e-03
3.228836678226e-03
3.413512167486e-03
3.384151656869e-03
3.268396400584e-03
3.229750214111e-03
3.398976425987e-03
3.246842334506e-03
3.396439375541e-03
3.258900424221e-03
3.412527509879e-03
3.266513004898e-03
3.338906532064e-03
3.424132635284e-03
3.274787641877e-03
3.430715204795e-03
3.271602579017e-03
3.264657004864e-03
3.450357719823e-03
3.490825941533e-03
3.429189117639e-03
3.194103659451e-03
3.322189248393e-03
3.233743975656e-03
3.318513455877e-03
3.206052030725e-03
3.282745160465e-03

SCALARS element_materi_plasti_phimob float
LOOKUP_TABLE default
8.225096406551e+00
8.864731775449e+00
1.968785199451e+01
1.924473163812e+01
1.408289566031e+01
2.503371690066e+01
1.416377646302e+01
1.123268322852e+01
1.416524039349e+01
1.921645482933e+01
1.933480658672e+01
8.126476978252e+00
2.068547054304e+01
1.500734220768e+01
2.063948312948e+01
1.945077021127e+01
1.370546794151e+01
2.728510558182e+01
1.496426308646e+01
9.972594706597e+00
1.919300886669e+01
6.824047239175e+00
1.002119497509e+01
2.158466833197e+01
1.593270387634e+01
1.955370410225e+01
1.233898278598e+01
2.083577356243e+01
1.592758294718e+01
2.152163018017e+01
1.865147868100e+01
-2.316775144404e+01
1.961881852624e+01
2.059847778267e+01
2.102450033774e+01
2.080738734025e+01
2.074815222263e+01
2.127899084290e+01
1.277838874815e+01
1.287516732786e+01
1.068849495964e+01
2.091517412744e+01
1.545333624906e+01
1.233360670055e+01
1.898688047495e+01
1.739131117055e+01
2.114762463445e+01
1.907860616410e+01
1.802783736796e+01
1.442600032713e+01
1.090412395882e+01
1.372877027857e+01
2.050481135998e+01
8.781121203496e+00
1.954590229366e+01
1.531123278386e+01
1.268503261479e+01
2.067144371132e+01
7.596397296941e+00
1.943449931127e+01
1.127718918231e+01
2.114816385746e+01
1.487405664175e+01
2.023725712329e+01
2.071147833788e+01
7.883470145117e+00
1.640890312393e+01
1.964576423468e+01
9.478928480194e+00
2.019325280401e+01
1.971648935254e+01
1.989559453217e+01
2.058664211315e+01
-1.303813513434e+01
1.558237678403e+01
1.926919821749e+01
1.948771572552e+01
2.121740027843e+01
6.591229636855e+00
2.065741493526e+01
1.038794612232e+01
1.367617207753e+01
9.794090077088e+00
5.233590091297e+00
1.477273509136e+01
1.481638959076e+01
1.980631821838e+01
2.056342681612e+01
1.846632491487e+01
1.398213971925e+01
-1.918607422864e+01
1.372357617927e+01
1.781716024715e+01
1.764711043346e+01
1.970506238227e+01
2.100159825355e+01
1.357625831924e+01
2.129712767322e+01
1.595571343265e+01
1.427968953012e+01
1.338885312082e+01
2.068799129337e+01
2.184998304746e+01
2.111212563478e+01
1.940962712479e+01
1.619385851731e+01
2.067256901245e+01
1.821195493016e+01
2.282670127084e+01
2.062449505233e+01
1.824543067142e+01
-2.650432935326e+01
1.990243081348e+01
1.259378595469e+01
1.719789122258e+01
1.346160269783e+01
1.538493584629e+01
2.091346065533e+01
1.561012366257e+01
1.684578956282e+01
6.672880443400e+00
1.370666735279e+01
1.829023583411e+01
1.711589031081e+01
2.558124059180e+01
1.150072603809e+01
1.713207411284e+01
1.022228301330e+01
1.950006376023e+01
2.386394244176e+01
1.955079982623e+01
1.926522175007e+01
1.501644579392e+01
1.102965559214e+01
2.116872821115e+01
2.067292877699e+01
1.982767426066e+01
1.527892633357e+01
2.142426792394e+01
1.375852006807e+01
1.938923305413e+01
2.006496139154e+01
1.494633784561e+01
1.692837678708e+01
1.430300266332e+01
9.546150916509e+00
1.620496809302e+01
1.975044272474e+01
1.369413995218e+01
2.069109052581e+01
-2.076681476714e+01
1.479376136105e+01
9.814722902198e+00
1.207783860165e+01
2.097489569974e+01
1.893722097221e+01
2.015235417020e+01
1.350792331699e+01
2.169907776064e+01
1.393804633992e+01
2.105761786509e+01
2.066678528172e+01
6.272575934946e+00
2.069288564037e+01
1.430242017220e+01
2.085715444238e+01
1.388807300684e+01
1.981061482763e+01
1.168450183167e+01
1.938035374285e+01
1.255612947540e+01
2.154237856402e+01
1.731328201075e+01
1.382027982361e+01
1.974777260819e+01
1.096797873054e+01
1.928419696483e+01
1.782000893618e+01
2.072516402107e+01
2.019891735392e+01
1.281997731431e+01
1.769804478986e+01
2.193492095905e+01
1.261599048844e+01
1.218320809014e+01
1.341229732673e+01
1.978819913879e+01
1.939852495663e+01
1.806633763990e+01
2.067809100289e+01
1.992087921847e+01
2.225352203736e+01
1.843637624526e+01
1.140848027862e+01
1.190497929039e+01
2.227406396873e+01
-3.107945185319e+00
1.946193716084e+01
1.686840780844e+01
1.808661089476e+01
2.252933691831e+01
1.471010997373e+01
1.550095905200e+01
2.132679185979e+01
1.588733392196e+01
1.706512108099e+01
1.514923622119e+01
1.721553769671e+01
1.477171628177e+01
1.352024452129e+01
2.303216458141e+01
1.900694521562e+01
1.219120333965e+01
1.141028227380e+01
1.315498338241e+01
1.633803047360e+01
1.831005654045e+01
2.479625325690e+01
2.236562025254e+01
1.368209839495e+01
2.207213315139e+01
2.235671282845e+01
-1.687339004245e+01
1.759999335904e+01
-2.321724741705e+01
-1.072742526419e+00
1.862032204542e+01
1.434509826060e+01
1.788510303346e+01
1.365577858701e+01
2.052295104369e+01
1.668269207604e+01
8.041134014952e+00
2.228727751425e+01
1.442826829713e+01
2.076279203037e+01
1.035890743870e+01
2.077308638384e+01
2.206413903014e+01
1.155048545721e+01
2.269036948975e+01
2.086282509310e+01
1.769742345879e+01
2.255308042276e+01
2.211550027571e+01
1.967594352951e+01
1.609095881057e+01
1.727132006392e+01
2.085906462732e+01
2.221793848002e+01
1.995861027468e+01
1.580367764442e+01
1.971644000560e+01
1.719200606089e+01
2.299741536928e+01
1.498374513594e+01
1.060198959847e+01
1.466988312133e+01
2.292450925702e+01
2.440571905638e+01
2.144032140857e+01
1.791082199521e+01
1.550940418980e+01
1.896840222073e+01
1.817383131288e+01
1.808382642389e+01
1.602364453504e+01
2.070200512821e+01
2.360707215651e+01
1.606905895581e+01
1.973893886762e+01
2.308151251223e+01
2.411903129595e+01
1.363095183502e+01
2.276978925379e+01
2.220192333479e+01
1.768384923015e+01
8.117964924290e+00
1.515154676335e+01
2.350004930310e+01
2.099844607577e+01
2.338897120259e+01
1.633348027391e+01
-3.545969883836e+00
1.306071315784e+01
2.357021317050e+01
1.540424464042e+01
1.476072119639e+01
2.627310252325e+01
2.331432984054e+01
2.101988563664e+01
1.252973192245e+01
1.728509961664e+01
1.419428588955e+01
2.329306610612e+01
2.274486207597e+01
2.416322978867e+01
2.009987782940e+01
2.107840300056e+01
1.981180730948e+01
1.990975441225e+01
1.763530923036e+01
2.350127451869e+01
2.174424676748e+01
1.669366046344e+01
2.253575581332e+01
2.246055152060e+01
1.593440885935e+01
1.934421275329e+01
2.288863219508e+01
2.251522728541e+01
2.160587034798e+01
2.114536616975e+01
2.284054401849e+01
1.687306231997e+01
2.505262951562e+01
2.375751562609e+01
2.282120734046e+01
2.142251704284e+01
1.529148762663e+01
2.022671173324e+01
2.336112166096e+01
2.362330717418e+01
2.150813684408e+01
1.651688629559e+01
2.274497023192e+01
1.806577994501e+01
1.610726710119e+01
2.061257550836e+01
2.238015120596e+01
2.005575305991e+01
1.599585129274e+01
1.829293512819e+01
1.774095146220e+01
1.418355368527e+01
1.595197180507e+01
1.619580968865e+01
1.733065734262e+01
2.083609780562e+01
1.554480233171e+01
1.400510616489e+01
2.283852915640e+01
1.196272867941e+01
1.312433356701e+01
1.974124514173e+01
1.388780043381e+01
2.029464800158e+01
2.273501586267e+01
1.796130542274e+01
2.016149272311e+01
1.496464604821e+01
2.366528289524e+01
2.127035675053e+01
2.102206901208e+01
1.263089385213e+01
2.389425442494e+01
1.786684351070e+01
1.381484842255e+01
1.863402310516e+01
1.864862744588e+01
1.678439982768e+01
1.261504152684e+01
1.371062132850e+01
2.117904947184e+01
2.137781122968e+01
1.863687324112e+01
1.758936284200e+01
2.094728037799e+01
1.544733732711e+01
2.313713674069e+01
2.305931375635e+01
1.691081395748e+01
2.380349582340e+01
1.842127274180e+01
1.855299607003e+01
2.275557169438e+01
1.716382927176e+01
1.587265657799e+01
1.639915469691e+01
1.994347540505e+01
1.987015351489e+01
1.945022603601e+01
2.128525500231e+01
1.820641657475e+01
1.959904508849e+01
2.314512435057e+01
2.347565697909e+01
1.423847249840e+01
1.358622504062e+01
1.603644409764e+01
2.149523603369e+01
1.878180136887e+01
1.571616334329e+01
1.675935614248e+01
2.443783759824e+01
1.843383450318e+00
2.105450955922e+01
1.786020048704e+01
2.095581824134e+01
2.450701112648e+01
1.498510388776e+01
1.116153817461e+01
2.196861163708e+01
2.067452251289e+01
2.297625236079e+01
1.393265909779e+01
8.643805845897e+00
1.677537385189e+01
2.163702035859e+01
1.642975021764e+01
2.037761677622e+01
1.397334868090e+01
1.677386810703e+01
1.881670214985e+01
1.823475712645e+01
2.212726518660e+01
2.044089394503e+01
2.039309403368e+01
2.010798383673e+01
2.022696639283e+01
1.691718115362e+01
1.821410789334e+01
1.896928785749e+01
1.588341901686e+01
1.469485803729e+01
1.820189859587e+01
1.853760883380e+01
2.073549597156e+01
1.849607195634e+01
2.340755139179e+01
1.847070919499e+01
2.040165924213e+01
1.781097036220e+01
1.332551506822e+01
2.294339836151e+01
1.946945128006e+01
1.708821909957e+01
2.034779638401e+01
1.851928136274e+01
1.858100692557e+01
2.103521562348e+01
2.110273098893e+01
2.047088286760e+01
1.959439468508e+01
1.744590345740e+01
-1.417348032538e+01
2.059809012093e+01
2.102326666311e+01
1.989533874431e+01
2.360837502908e+01
2.109916484985e+01
-4.774087958286e+01
1.743562416005e+01
1.736679145137e+01
1.766633920385e+01
1.671801328790e+01
2.186696435790e+01
2.069959819454e+01
2.316978255003e+01
2.563111521029e+01
2.100763786451e+01
-1.884520893197e+01
1.359192880967e+01
1.857893185598e+01
1.287770240727e+01
2.116270553569e+01
2.075606635059e+01
1.610949261012e+01
1.428866361689e+01
2.734124241432e+01
1.526336013138e+01
2.143381847787e+01
1.359970270665e+01
1.446312619890e+01
2.077340324146e+01
1.364608943020e+01
1.980860739601e+01
2.055482798383e+01
1.561220190951e+01
1.674991655161e+01
2.339232566492e+01
2.318813286312e+01
2.075738652202e+01
2.030550049158e+01
2.017168225928e+01
2.093373673559e+01
1.795745880692e+01
1.805839787520e+01
2.206929860802e+01
2.072641857215e+01
2.186220424826e+01
2.261556424662e+01
2.197809289835e+01
1.614544495780e+01
2.111541788088e+01
1.284221064383e+01
2.068874939100e+01
2.076952405449e+01
2.054480742965e+01
1.897104298341e+01
-4.679553264217e+01
1.936551384451e+01
1.845616167706e+01
2.065870537230e+01
1.702694756278e+01
2.100899082410e+01
2.279106990273e+01
2.135878180836e+01
2.017956918634e+01
2.102504543662e+01
1.466374868908e+01
2.073227895533e+01
2.313346220190e+01
2.207318852303e+01
1.505277595371e+01
1.605387111581e+01
2.157644400627e+01
1.684279521496e+01
2.077125874006e+01
1.831868374808e+01
2.223949531132e+01
1.809480840462e+01
2.320552928747e+01
2.242504556603e+01
2.188167528813e+01
1.787601022483e+01
1.925314458764e+01
2.269790512307e+01
1.833256904494e+01
1.847562711029e+01
2.119013787706e+01
1.815846719029e+01
2.092348546936e+01
2.394814141636e+01
2.115779287239e+01
1.871294702769e+01
1.537521682808e+01
2.070591033820e+01
2.148066928518e+01
2.119385933707e+01
3.728751690579e+00
2.108998162018e+01
1.875438587024e+01
1.907513101007e+01
2.065747569578e+01
2.169064181122e+01
1.470352703991e+01
1.508016747971e+01
2.346528805805e+01
2.033178225640e+01
2.325668453676e+01
1.686289052086e+01
1.498236050204e+01
2.221450371728e+01
1.581625728168e+01
1.800970106521e+01
2.328480540701e+01
1.920730607011e+01
2.006363631920e+01
-4.031478214063e+01
2.053408124342e+01
1.971759289570e+01
1.903578565987e+01
2.066619397727e+01
2.247366905945e+01
1.569835850858e+01
1.793102080406e+01
2.064314615767e+01
1.740627230382e+01
1.899253665907e+01
1.745071151207e+01
1.886926029214e+01
-3.573032037049e+01
1.559608442224e+01
1.728084495639e+01
-5.765325595435e+01
1.867364264235e+01
2.235740359911e+01
1.845894573740e+01
2.378945737272e+01
2.367460455698e+01
1.317925150075e+01
1.216747114124e+01
1.949871707716e+01
1.759186014128e+01
-4.659873782756e+01
8.583233137275e+00
-6.866086174488e+00
1.519504246038e+01
1.932522853188e+01
1.843475313553e+01
2.156835578862e+01
1.615312223099e+01
1.972466022605e+01
2.201021309836e+01
2.412553231520e+01
1.721174290041e+01
1.577191464071e+01
2.106585188911e+01
2.062899100858e+01
1.785669805952e+01
1.896735280122e+01
2.110775093987e+01
2.188567526910e+01
9.674052571943e+00
2.210929199362e+01
-2.125443579348e+00
1.866689934761e+01
1.906192509550e+01
-1.904484588893e+01
1.750396896971e+01
1.875716595519e+01
-4.773118210073e+01
1.214103926228e+01
1.223627900718e+01
2.319409019421e+01
1.572971809224e+01
1.853655192781e+01
2.081158558222e+01
2.120221278369e+01
2.050358433363e+01
1.803619327476e+01
1.628836576125e+01
4.023048857180e-01
1.401968193814e+01
1.234347852533e+01
1.240187882966e+01
-5.678446340972e+01
-1.925473953965e+01
-4.994106605799e-01
1.390407793372e+01
-1.926449000480e+01
1.816356739560e+01
3.484702847818e+00
1.561476326540e+01
1.659156954935e+01
1.220834070435e+01
1.937159257602e+01
2.218644349009e+01
1.583279757377e+01
1.623175562358e+01
-1.596520644235e+00
1.981135663745e+01
1.967724843195e+01
1.508492002578e+01
1.227431343259e+01
1.640907958040e+01
1.966327328818e+01
1.492786522335e+01
1.218350759148e+01
1.215575883742e+01
1.241616572730e+01
2.005900941362e+01
1.964190695663e+01
-1.964552549584e+01
-5.652389121701e+01
4.060666900783e+00
1.929629737076e+01
2.068635394881e+01
1.125406742476e+01
1.804075427103e+01
3.334169369028e+00
2.338196067156e+01
-1.841613506798e+01
1.874006092717e+01
2.335890070949e+01
2.078079715851e+01
1.650416424471e+01
1.511541637314e+01
-1.920297398230e+01
1.976682652742e+01
1.973353565598e+01
1.965606470360e+01
1.225672625788e+01
2.320145879050e+01
1.979131387132e+01
2.126933854484e+01
-2.203025439971e+00
-1.956982599205e+01
-2.035025909538e+01
1.710356006548e+01
2.073838585553e+01
1.925702565954e+01
-5.669300597593e+01
1.812234489652e+01
2.057830964856e+01
2.078385380302e+01
2.103052761918e+01
1.744609402226e+01
1.831588683649e+01
2.056534523780e+01
2.057386992801e+01
1.803937010053e+01
-4.742749415858e+01
1.241011396276e+01
1.234316422199e+01
-5.670269302325e+01
2.058863488728e+01
2.101926873183e+01
2.058937248087e+01
-4.795951981114e+01
-4.812876309626e+01
2.061377643079e+01
2.060317983509e+01
1.711794381153e+01
1.248997147147e+01
1.774709207878e+01
1.540927456118e+01
1.251397885875e+01
-4.535644834250e+01
-4.433408374479e+01
-4.507071485208e+01
-4.665609850569e+01
1.840131459257e+01
1.781140623699e+01
-5.645569995083e+01
1.954854928192e+01
-5.423380643448e+01
1.994314704903e+01
1.976760553301e+01
1.983427173015e+01
1.321067442092e+01
1.508212011337e+01
1.974861221422e+01
2.065709458743e+01
1.976682126785e+01
2.068672168444e+01
2.067604283347e+01
1.748131067693e+01
1.964859460062e+01
1.966759584845e+01
2.065850965181e+01
2.067636974414e+01
1.987605764464e+01
-1.991195262232e+01
1.824274601180e+01
-2.055379979221e+01
2.108664998337e+01
1.871145310735e+01
2.089525540371e+01
1.315486085091e+01
-3.364112189111e+00
2.080285770155e+01
1.861759847440e+01
1.677527452707e+01
2.080782304605e+01
1.877862630972e+01
1.670963786580e+01
2.209863722375e+01
2.099261707617e+01
2.026373431806e+01
2.042499835360e+01
2.361964364498e+01
1.402416805740e+01
1.986754909547e+01
2.009860811825e+01
2.075346874480e+01
2.065370616908e+01
1.383441685762e+01
1.872819431789e+01
1.822664388046e+01
1.448045200525e+01
2.088706162987e+01
2.016234118669e+01
1.878224374701e+01
1.851024246447e+01
1.989016891028e+01
2.073363695157e+01
1.807396951642e+01
2.045577578772e+01
2.095387075913e+01
1.872805635991e+01
1.722810812233e+01
2.198315460497e+01
1.348294370073e+01
1.349168318330e+01
6.930680919396e-01
1.587569361549e+00
1.849586801921e+01
2.073547118301e+01
-1.093546430495e+01
1.882248367411e+01
1.496843738411e+01
2.085409873442e+01
2.075349977916e+01
1.814618562550e+01
2.066937138863e+01
1.444062991433e+01
2.282180937654e+01
2.087094292646e+01
1.245829105764e+01
2.112830992579e+01
1.760939430273e+01
1.396457202075e+01
1.493892315750e+01
1.890068013920e+01
1.639303605913e+01
1.727082788063e+01
1.795514675162e+01
1.690312182737e+01
1.901371194885e+01
2.009297532115e+01
2.064854279232e+01
1.763818708879e+01
1.147984990392e+01
1.871026418781e+01
2.157759058900e+01
1.787247363968e+01
1.828856223817e+01
1.988194316475e+01
2.126336783745e+01
1.724748045577e+01
2.624869515051e+01
-9.099553903993e-01
2.343498436437e+01
2.081578126480e+01
1.684700346980e+01
1.923275407692e+01
1.546799149685e+01
2.184353379338e+01
1.907580415808e+01
2.082643673835e+01
1.323235857847e+01
2.106204895868e+01
1.898306558919e+01
1.383592662400e+01
1.867115414565e+01
1.772061593133e+01
1.564037696634e+01
1.925894803130e+01
-5.554806491375e+01
-5.458024218643e+01
1.982029188492e+01
1.251388208418e+01
2.002271027189e+01
1.990184649708e+01
1.816276867794e+01
1.704742414258e+01
1.835845867675e+01
2.484699056150e+01
1.784344586294e+01
2.172634307133e+01
1.046508057257e+01
1.599014864774e+01
1.495519192332e+01
1.027460632834e+01
2.145655276797e+01
1.741341354088e+01
1.249103093134e+01
1.857719262688e+01
1.861922280415e+01
1.431880171941e+01
1.470911305642e+01
1.417543278339e+01
2.040899581814e+01
1.916421182150e+01
1.878618312765e+01
1.839249036848e+01
2.019216321864e+01
2.086708389552e+01
1.131960694955e+01
2.087008114549e+01
1.745195871152e+01
1.913331660876e+01
1.681525079690e+01
1.778122496654e+01
2.344765469919e+01
1.815330732626e+01
1.839607757773e+01
1.904639790692e+01
1.725152208114e+01
1.708748349360e+01
1.715895629154e+01
1.933788962431e+01
1.508021149016e+01
4.962344608169e+00
1.712148644897e+01
1.471416276434e+01
2.116601731660e+01
1.754351757629e+01
2.103332659298e+01
2.103883769551e+01
1.823056598918e+01
1.357879827141e+01
6.665777774823e+00
2.074669428456e+01
1.650921355400e+01
-5.299556249504e-01
1.721745218475e+01
1.250524233259e+01
1.635300140523e+01
1.769743920963e+01
2.093273207411e+01
1.703739823776e+01
1.820537779188e+01
1.617176580336e+01
2.136914520080e+01
1.325207604312e+01
2.068513693558e+01
1.876815467228e+01
2.119328874919e+01
2.328736053074e+01
1.167729453890e+01
1.557106005736e+01
2.293866048515e+01
1.667502157724e+01
1.647516736018e+01
1.485502222339e+01
1.662363254734e+01
1.218707289495e+01
2.125749433355e+01
2.291245352648e+01
2.235258377583e+01
1.887991227725e+01
1.996716437417e+01
1.091997424593e+01
2.067880124650e+01
2.138656205147e+01
1.775544335123e+01
2.082779346892e+01
1.751336185922e+01
1.765643520522e+01
2.065865426380e+01
1.527157521748e+01
1.501553656216e+01
1.670740751190e+01
1.841261408130e+01
2.134847537850e+01
1.550081336292e+01
1.880924328156e+01
1.705537206261e+01
1.601944098442e+01
1.574807694876e+01
1.880223919063e+01
2.166127900245e+01
2.075662394428e+01
1.544265128684e+01
1.914293156640e+01
2.191848752517e+01
2.150586516403e+01
1.781684360069e+01
1.736829025331e+01
1.706073574338e+01
1.197400091860e+01
2.156214004056e+01
1.748986026487e+01
1.668959448006e+01
1.621779934687e+01
2.374419400696e+01
1.634363851830e+01
2.376470390222e+01
1.682058529012e+01
1.735426568403e+01
1.260084659419e+01
2.188791324723e+01
1.874153784704e+01
1.812126938832e+01
1.978768972711e+01
2.189848545746e+01
2.014224573203e+01
2.093747250112e+01
1.333138111305e+01
2.161888789340e+01
2.144924218045e+01
1.921374128250e+01
1.782470548509e+01
2.107084554698e+01
1.673002129665e+01
1.776018342849e+01
1.749589189141e+01
1.631394750107e+01
1.605635879100e+01
1.767480580701e+01
1.540267403423e+01
1.469907074426e+01
1.900820669031e+01
2.170324248249e+01
1.970332863498e+01
-4.595048551997e+01
2.221919829025e+01
2.028502799659e+01
1.819721482742e+01
1.625860171456e+01
1.939844576812e+01
1.672536216173e+01
1.797261710723e+01
1.790539825947e+01
1.690946945748e+01
3.392130961681e+00
9.278157352374e+00
1.664091044757e+01
1.699548827731e+01
2.130124826079e+01
1.885646217272e+01
1.311316064341e+01
1.001721727728e+01
1.555982862526e+01
1.590058965871e+01
2.212984221417e+01
1.989664408909e+01
1.615630548114e+01
1.826642501964e+01
1.958038544873e+01
2.346758792116e+01
1.958091858888e+01
1.533132518874e+01
1.825121019172e+01
2.202641247244e+01
2.097890671326e+01
1.368620040770e+01
1.776263714698e+01
1.965451422805e+01
2.076171169963e+01
1.606504713060e+01
2.035897568344e+01
2.173838557002e+01
2.290397788973e+01
1.663753039068e+01
2.297827677087e+01
1.701596693255e+01
2.325777388734e+01
2.185368407392e+01
1.672078895841e+01
2.167708153503e+01
2.076604694347e+01
1.964092978119e+01
1.746844302581e+01
1.568667540605e+01
1.669834259022e+01
1.849247461962e+01
2.168639212577e+01
2.069845034227e+01
1.721683556829e+01
1.739206806473e+01
1.359783238539e+01
1.927391264835e+01
1.049076506938e+01
2.157784364500e+01
1.868360015041e+01
2.275241449954e+01
1.587057858490e+01
1.796567844573e+01
2.221677618869e+01
2.380488894986e+01
1.878694333932e+01
2.168264393144e+01
1.732282170570e+01
2.305609989360e+01
1.636434440486e+01
1.761475271959e+01
2.057923883358e+01
2.153715311168e+01
1.870800464555e+01
1.582995072807e+01
1.531309987026e+01
1.994171611610e+01
2.192446196037e+01
2.206003580756e+01
7.743091169093e+00
2.395812335937e+01
2.372332477673e+01
2.257062508457e+01
1.949845464135e+01
1.900427529404e+01
1.885090795067e+01
1.865010539477e+01
1.571321951669e+01
1.790640439308e+01
2.145278726129e+01
1.884488503767e+01
1.723923569837e+01
1.847783914986e+01
2.380671641745e+01
1.765984502238e+01
1.852780321111e+01
1.773388463486e+01
1.736569260777e+01
2.162254195753e+01
2.158563647531e+01
2.186110612352e+01
2.104259027863e+01
1.200411848860e+01
2.250482103566e+01
1.723425928670e+01
1.454466629209e+01
2.314953917151e+01
2.339930208858e+01
2.387312689127e+01
2.342611877494e+01
2.336328795853e+01
2.325487348565e+01
1.488156937061e+01
1.922341365301e+01
1.646914370005e+01
1.344916897902e+01
2.555958871541e+01
1.981021964868e+01
2.271068159246e+01
1.904143642077e+01
2.403879492754e+01
2.006379235203e+01
1.658228840718e+01
2.369880783452e+01
2.290800832641e+01
2.393313321364e+01
1.514858071150e+01
2.175245111611e+01
1.942152325647e+01
2.185349430052e+01
2.179020783868e+01
2.310042013678e+01
1.769558120630e+01
2.086967328244e+01
2.161725940342e+01
1.872324255573e+01
1.691546920492e+01
2.132416496313e+01
1.800670538990e+01
2.381746723812e+01
2.366489154760e+01
1.927626582725e+01
2.597636697772e+01
1.832436572106e+01
1.528892324263e+01
-1.202108970460e+00
2.047711289023e+01
1.890177759590e+01
1.736174702472e+01
1.815522255469e+01
1.728310652938e+01
1.923429628857e+01
2.189672438644e+01
2.118533463111e+01
1.413909017080e+01
1.886326676680e+01
1.734490492825e+01
2.400261521080e+01
1.974850146320e+01
3.072986350740e-01
2.139708498797e+01
2.368876240087e+01
1.684313397815e+01
2.482152078889e+01
2.153646705094e+01
1.601488347474e+01
1.645657337759e+01
2.265585950997e+01
2.175177495071e+01
2.159752329446e+01
1.733068758106e+01
1.755051230466e+01
2.155759051290e+01
1.696216931191e+01
1.903857828116e+01
1.789812648816e+01
1.817989179112e+01
2.360715456944e+01
2.135720355065e+01
1.759845244493e+01
2.305078685879e+01
4.811823516680e+00
2.128602733020e+01
2.415621650870e+01
1.608795847501e+01
2.187057132620e+01
1.325946503127e+01
2.016756296672e+01
2.256539812185e+01
1.871848190683e+01
1.897769297754e+01
2.266236849957e+01
1.822638003487e+01
2.332912695665e+01
1.957788114098e+01
7.432827331929e+00
1.925010962020e+01
9.702894073469e+00
1.058713570209e+01
2.389707750563e+01
1.153165801933e+01
2.187868182371e+01
2.180128590095e+01
2.373005638167e+01
2.244531019886e+01
2.393589765499e+01
1.856751842721e+01
1.916181538081e+01
2.146006627844e+01
2.159017468846e+01
2.243138779190e+01
1.821714611760e+01
2.398481159609e+01
2.116682624418e+01
1.794167228406e+01
1.787160123996e+01
2.349736142786e+01
2.368607814152e+01
1.986156389066e+01
1.735417462460e+01
2.071438206932e+01
2.317996948917e+01
1.907792095583e+01
1.831706868507e+01
2.101712783889e+01
1.756112800291e+01
2.353377232320e+01
1.880657731161e+01
2.244159094246e+01
1.828797826902e+01
1.971124060739e+01
1.645858513326e+01
2.225482417006e+01
2.393613695729e+01
2.233927191552e+01
1.978368260100e+01
1.875809174766e+01
1.965364838507e+01
2.392373215776e+01
2.409876502073e+01
2.099815617178e+01
2.085168963680e+01
2.322953868907e+01
2.362500007655e+01
2.212467536470e+01
2.271597735556e+01
2.397611032673e+01
1.715030556555e+01
2.092357540268e+01
1.763237256563e+01
2.065528494886e+01
1.664436371524e+01
1.558128815472e+01
1.788376722473e+01
2.187813674668e+01
2.135936033662e+01
1.723853168142e+01
1.900218887156e+01
1.611747527346e+01
2.329050687077e+01
2.084621436288e+01
1.880743126885e+01
2.160179051183e+01
2.103516039724e+01
2.329990216319e+01
1.757814322792e+01
1.583530583280e+01
2.206050583462e+01
1.645576878355e+01
2.223714796438e+01
2.079224691157e+01
2.340500439150e+01
2.414839245042e+01
1.901965587743e+01
1.597359466046e+01
2.296203413618e+01
2.096395343492e+01
1.720516270300e+01
2.154463169893e+01
2.242395611114e+01
2.641799127211e+01
2.088622572015e+01
1.880052190098e+01
2.235039395773e+01
2.018327917476e+01
2.131553994686e+01
2.180017480443e+01
2.208810770206e+01
1.641637776627e+01
1.971767833029e+01
2.381652982552e+01
2.104418624748e+01
2.128906165314e+01
2.369721448334e+01
1.921297294222e+01
2.335281694681e+01
1.993568629138e+01
2.229849527208e+01
1.969756309114e+01
2.012615456175e+01
2.319712341599e+01
2.124127831955e+01
1.904449286064e+01
2.108834628390e+01
2.193558116436e+01
2.302073780332e+01
1.972182856149e+01
2.087906319527e+01
1.888527204686e+01
2.018032464533e+01
1.688158735703e+01
2.119073937195e+01
2.163298351125e+01
1.254802727442e+01
1.255846494405e+01
1.744714306074e+01
1.995633457318e+01
1.970377402642e+01
1.807681753084e+01
2.193151557656e+01
2.184670645659e+01
2.280923421120e+01
1.974849206686e+01
1.442971608419e+01
2.127056557721e+01
2.005291669199e+01
2.328538095083e+01
1.881993324583e+01
1.945345553827e+01
1.807819120016e+01
1.685430861461e+01
1.842688453500e+01
1.858128525334e+01
8.314374538813e+00
1.904403917583e+01
1.663027186684e+01
1.746302881634e+01
1.771560789473e+01
2.182735459524e+01
1.139381891757e+01
2.185153006452e+01
1.900760222642e+01
1.862413507925e+01
1.088566961203e+01
1.165236717556e+01
1.682729366400e+01
2.230867606977e+01
1.948440813204e+01
2.252794924066e+01
2.383508260728e+01
2.063394697560e+01
1.847039268138e+01
1.926345765174e+01
2.126743530864e+01
-6.543315939960e-01
2.263847179892e+01
1.949071747056e+01
-1.137689213048e+00
1.851078368289e+01
2.324726294556e+01
1.757857413292e+01
1.801807868683e+01
2.300001721927e+01
2.272752006232e+01
1.875791772962e+01
2.268518633093e+01
2.028310372756e+01
1.970245944646e+01
2.889258280228e+01
2.472508479744e+01
2.055401303613e+01
1.602724830150e+01
2.077037495757e+01
2.214711814546e+01
1.831221872323e+01
2.030668580326e+01
1.241485188069e+01
2.036894996186e+01
2.110546813404e+01
2.042462786758e+01
1.950659550580e+01
1.941039000951e+01
1.900118537066e+01
2.214961851873e+01
1.859433641138e+01
2.317619335672e+01
2.241853165107e+01
2.177956623277e+01
2.373986564466e+01
2.378690729685e+01
2.377315875034e+01
1.796665389958e+01
2.318671405485e+01
1.803332582834e+01
2.190770664025e+01
2.221100474259e+01
2.224103006728e+01
1.644842692680e+01
2.110268546428e+01
2.097838363276e+01
2.228199727474e+01
1.838313007592e+01
2.088563377589e+01
1.101456834164e+01
1.949744117589e+01
3.186240796487e+01
2.096616784430e+01
2.403817143243e+01
1.898638998093e+01
2.212416389869e+01
1.643004963719e+01
1.599712931731e+01
1.977854228430e+01
9.193034463653e+00
1.002921890364e+01
2.088448396391e+01
2.252552941633e+01
2.347137558742e+01
2.293843574821e+01
2.370775643516e+01
2.328992451083e+01
8.513329350990e+00
1.501773963362e+01
1.255655447600e+01
2.221884326333e+01
2.246460722891e+01
2.134921459400e+01
2.069519061877e+01
2.394008252837e+01
2.082940132435e+01
2.290543253261e+01
2.138815710231e+01
2.060987309054e+01
2.101207556228e+01
2.193755936847e+01
1.746822808102e+01
1.843863255200e+01
2.365567117105e+01
1.799556987531e+01
2.146642966384e+01
2.143840372336e+01
2.335003528883e+01
2.005834062524e+01
1.794804302756e+01
2.801661688815e+01
2.304396988730e+01
2.266191767944e+01
7.003810212618e+00
1.950392838502e+01
1.932935262393e+01
1.647866881525e+01
7.798484862225e+00
1.999779774896e+01
3.499586537224e+01
8.340734561963e+00
2.305697610017e+01
1.925894398023e+01
1.281869515905e+01
2.238854136872e+01
2.221112500092e+01
2.016984644546e+01
2.269059432498e+01
1.910207729702e+01
2.371053104484e+01
1.925881082969e+01
1.932819141898e+01
1.563301787539e+01
1.306589384128e+01
1.650242307825e+01
2.001441894089e+01
-1.933155347386e+00
1.436774456872e+01
1.208140995719e+01
1.930083944680e+01
2.316724253732e+01
2.198242175581e+01
2.289393214675e+01
1.954974107906e+01
1.740296410441e+01
1.939959894333e+01
2.367303058646e+01
1.852608360689e+01
1.449022213501e+01
2.179885458097e+01
1.937049319166e+01
1.952572623802e+01
5.697057600756e+00
2.300494928216e+01
1.947787471834e+01
1.674558727486e+01
1.596892243403e+01
7.115030559458e+00
1.960909507643e+01
2.056055494552e+01
2.143284139872e+01
2.133510605250e+01
1.111684932246e+01
2.085884266119e+01
2.285014766473e+01
5.964567006861e+00
1.945706515206e+01
1.445586918876e+01
1.356455218202e+01
1.958043945432e+01
2.265809213210e+01
1.951188301512e+01
2.601170194006e+01
1.856476409344e+01
2.192733598719e+01
2.206689084540e+01
2.143419584088e+01
1.967424720705e+01
1.964676884924e+01
2.336604754104e+01
5.560646366607e+00
2.816400748892e+01
1.974052764164e+01
2.212590364626e+01
1.889037672436e+01
1.885417207139e+01
1.047816734954e+01
1.853637574976e+01
2.134295844313e+01
8.902232835959e+00
1.974722993671e+01
2.057217763098e+01
1.421469008632e+01
2.062972562929e+01
2.094416959490e+01
2.325679098538e+01
3.718800032824e+00
3.499586537224e+01
1.893110238361e+01
1.698933478565e+01
1.252096823275e+01
2.089031577913e+01
1.272522447330e+01
2.101274247980e+01
1.695374117980e+01
1.841007735224e+01
2.079167593788e+01
2.001060278787e+01
2.000316742539e+01
1.874735770372e+01
1.783296336514e+01
2.069863231958e+01
2.172139581748e+01
1.883738208843e+01
8.254371019971e+00
2.295830209206e+01
1.795927358407e+01
1.749057763540e+01
1.719917821608e+01
2.141492447578e+01
1.750928029195e+01
4.068820818386e+00
5.237685536158e+00
1.667629262728e+01
2.269906905143e+01
2.248623850946e+01
1.893331781861e+01
1.943827428113e+01
2.530371089326e+00
1.744468245418e+01
2.006193622163e+01
2.361625347042e+01
2.213197721316e+01
1.232360650748e+01
2.188341008870e+01
1.850756199768e+01
2.247998060286e+01
2.364318913120e+01
2.282966670371e+01
1.771964644443e+01
2.249889840603e+01
2.285986770504e+01
2.154515824651e+01
1.648685185460e+01
1.626109822526e+01
2.240074815784e+01
2.302259725378e+01
1.579137537791e+01
1.674422731032e+01
1.901118697480e+01
1.855902816629e+01
-1.809453101339e+01
2.263156698076e+01
1.421825240277e+01
1.496907530008e+01
1.922933491543e+01
2.200280251370e+01
1.930988855876e+01
2.232391676973e+01
1.244761330364e+01
2.089478007668e+01
1.292947808373e+01
2.207800412952e+01
2.207824289557e+01
1.006588773386e+01
1.808272822758e+01
2.347921110207e+01
3.227527954073e+00
2.284525328882e+01
1.981751945371e+01
1.788927998292e+01
1.039956209709e+01
1.895504443754e+01
1.888992998849e+01
2.154738907295e+01
1.744879555660e+01
1.449494466886e+01
2.261972637359e+01
1.630297345626e+01
8.719356756526e+00
2.043589156151e+01
1.968783395978e+01
1.493326001268e+01
1.923738667868e+01
1.984511528132e+01
2.252957098324e+01
2.109255617294e+01
2.146208831010e+01
8.482250507135e+00
1.357408809928e+01
1.909287573801e+01
1.684436107223e+01
2.144822538213e+01
1.428022353351e+01
8.517713776623e+00
1.466693270100e+01
2.259083549278e+01
1.547447945560e+01
2.132952703674e+01
2.085455329045e+01
2.094949706226e+01
2.135226064845e+01
1.355072249719e+01
7.576598798941e+00
2.547054227026e+01
1.750806380234e+01
2.359887108301e+01
2.257545732202e+01
1.980169721125e+01
2.146734815683e+01
2.077551022182e+01
1.868272530802e+01
2.026414780312e+01
1.894633228282e+01
1.820866826497e+01
1.965295432577e+01
2.071597215407e+01
1.497197630405e+01
1.927710702904e+01
-2.916694006883e+00
1.920450942434e+01
2.058741494823e+01
2.903768956309e+01
2.694860566036e+01
2.186533366431e+01
1.369585016438e+01
1.899998937934e+01
1.895791661033e+01
2.133750078694e+01
1.880687825517e+01
1.511795730499e+01
1.602975944107e+01
1.646490737906e+01
1.707074914079e+01
2.123807515485e+01
1.221198182179e+01
1.386020216954e+01
1.485491209704e+01
1.516375886288e+01
2.325058275161e+01
1.558301021897e+01
1.935628363905e+01
1.608927097167e+01
2.110719221185e+01
1.941610020570e+01
1.816656942406e+01
1.897067527613e+01
1.782123453891e+01
1.743258939708e+01
2.125990673893e+01
2.196537625500e+01
1.419846113904e+01
2.077312951863e+01
9.276353839258e+00
1.387389652846e+01
2.178893741751e+01
-5.471288964138e+00
-2.275471697177e+01
1.968800721510e+01
1.232091839539e+01
1.928100782935e+01
2.137561421764e+01
1.232472378761e+01
8.309164333038e+00
1.940232015963e+01
8.468735232580e+00
1.909469600549e+01
2.058047640248e+01
1.930316169524e+01
2.285059180265e+01
1.471217032081e+01
1.773947260886e+01
2.141807843696e+01
2.105392781557e+01
1.779076678807e+01
2.114418515048e+01
2.633855280006e+01
2.084124194965e+01
2.017493418924e+01
9.095732688453e+00
2.140680071246e+01
1.942967099514e+01
1.947583378558e+01
1.371054142312e+01
1.494577747774e+01
1.958867593952e+01
1.977911967305e+01
1.648685182027e+01
2.300710086497e+01
2.149756326156e+01
1.240998715361e+01
1.922445665372e+01
1.963279156885e+01
1.975107456408e+01
-4.623436708142e+01
-5.198902732948e+01
1.272638882616e+01
1.253371590063e+01
2.057494467723e+01
2.066396944705e+01
-2.330627982858e+01
8.827580303196e+00
2.075933659386e+01
2.082549459745e+01
1.268621613832e+01
2.091712268142e+01
1.934369457804e+01
1.869090097677e+01
1.655277067710e+01
1.506729995646e+01
2.170917019995e+01
6.972633579063e+00
1.831356997224e+01
1.960764718741e+01
1.881800151706e+01
1.861710768743e+01
1.565038287858e+01
2.038712634427e+01
1.910499506435e+01
1.867157049762e+01
1.242589424514e+01
2.229328474025e+01
1.925697059577e+01
1.428534044580e+01
-2.446262711058e+01
2.007645329246e+01
2.214008888588e+01
1.474753982423e+01
1.709353451688e+01
2.066050887837e+01
2.053985670633e+01
2.061938206391e+01
1.965734815665e+01
2.547595030433e+01
4.072229002356e+00
1.549952539446e+01
1.469133702191e+01
2.190856590266e+01
1.911232616748e+01
2.106979641448e+01
7.033159907471e+00
-2.539693952569e+00
2.231784305013e+01
1.730426454324e+01
1.630352795094e+01
1.917853163469e+01
1.361212195227e+01
2.144247231216e+01
1.468561372145e+01
2.083558612361e+01
2.112153527549e+01
1.469989024544e+01
2.134749832864e+01
1.944202651521e+01
1.934108021806e+01
2.433527842246e+01
1.901046885465e+01
2.038295747357e+01
2.165987340551e+01
2.121075476903e+01
2.059159787160e+01
1.862742319012e+01
9.450524486128e+00
2.245027625873e+01
1.925078740360e+01
1.553539266007e+01
2.066992267473e+01
2.098562722094e+01
2.075307427005e+01
1.794698387999e+01
2.088903931813e+01
2.128246430563e+01
2.138923031157e+01
1.633453036666e+01
2.080353101482e+01
1.349832499041e+01
1.897153776155e+01
-1.608765823502e-01
1.859706167689e+01
1.713277704298e+01
-1.951036614277e+00
2.232520065914e+01
1.897389807445e+01
1.942961470794e+01
1.905144937559e+01
2.123988886622e+01
1.559606810552e+01
-2.531462494732e+01
2.499650936051e+01
-1.682960342163e+01
4.928183502525e+00
3.499586537224e+01
1.815875987070e+01
2.070296815557e+01
1.930603548330e+01
1.551199866484e+01
1.773416053635e+01
2.122532577762e+01
2.178886110140e+01
2.110214663547e+01
2.023133982527e+01
1.937296839742e+01
-2.447383055230e+00
2.266635601396e+01
2.078054633216e+01
-8.612492502807e-01
4.353079115625e+00
2.765664641603e+01
-6.725688174445e+00
2.095503126790e+01
2.010278348764e+01
1.914147181505e+01
2.084511719104e+01
2.178923113843e+01
1.612261146324e+01
1.988639313175e+01
1.867046892344e+01
1.224562489775e+01
1.355953472515e+01
-2.094600296509e+01
2.074504611164e+01
1.369614693186e+01
6.809962705623e+00
1.790005295909e+01
1.989854733055e+01
1.905784498442e+01
1.957575277187e+01
1.546585383651e+01
2.078161376539e+01
2.102471060333e+01
1.964871500604e+01
2.072588072035e+01
1.367097945161e+01
2.135950419399e+01
8.371932681866e+00
1.921782164995e+01
-2.310923472174e+01
2.101369212718e+01
1.948309312687e+01
1.812779618056e+01
2.065458600486e+01
1.763184478795e+01
1.944844155857e+01
2.075947535099e+01
1.673885332484e+01
2.002620310334e+01
1.920683252115e+01
1.719205451562e+01
1.970110220698e+01
1.691824598407e+01
1.246092058568e+01
2.098933252587e+01
1.943347260038e+01
-5.827013245583e+01
1.254420956301e+01
2.064000449086e+01
9.461371208688e+00
2.181327864835e+01
1.919118478412e+01
1.934693824162e+01
1.168235298023e+01
2.524568030519e+01
1.890025561687e+01
1.831023047972e+01
1.039111332357e+01
1.954352919035e+01
1.652017928479e+01
1.434838332993e+01
1.589873078514e+01
2.093423323076e+01
1.908849139145e+01
3.499586537224e+01
1.642215632163e+01
1.853573035960e+01
1.922421419632e+01
2.116414416026e+01
1.834254137024e+01
1.862854513546e+01
-7.236206981893e+00
2.104095574005e+01
2.007673238838e+01
2.422719292731e+01
1.942938876370e+01
2.062556742145e+01
1.374147538438e+01
1.648682320599e+01
1.833709250249e+01
1.849166340759e+01
1.867094393611e+01
2.177718448491e+01
1.182432406423e+01
2.009634824792e+01
1.485479035157e+01
1.940216499815e+01
2.165354728157e+01
1.584519838799e+01
1.946379474277e+01
2.117825895789e+01
2.120729887900e+01
3.176499300000e+01
1.946119331153e+01
1.969617495901e+01
-7.080313021147e+00
1.809138691340e+01
2.937068762976e+01
1.960913476938e+01
-3.812561548481e+01
-4.158711677825e+01
-3.790518358099e+01
-4.212226350304e+01
-3.786728923088e+01
-4.252149157020e+01
-3.794608056582e+01
-4.314940791571e+01
-3.810814225203e+01
-4.404455709661e+01
-3.834561789678e+01
-4.523036715948e+01
-3.864993016744e+01
-4.673961280218e+01
-3.902234772489e+01
-4.860490748272e+01
-3.944075950947e+01
-5.081434555828e+01
-1.769076862243e+01
-3.986007908871e+01
-5.318011941228e+01
-4.023808418492e+01
-4.652360542929e+01
-5.496233428397e+01
-1.672648060914e+01
-4.050957952506e+01
-5.573610674783e+01
-4.059184481290e+01
-5.603014553708e+01
-4.038138336336e+01
-5.614673494106e+01
-4.077659307563e+01
-5.578968735920e+01
1.546863738252e+00
-4.111652649993e+01
-5.587771612810e+01
-4.075714353841e+01
-5.579857297176e+01
-5.635918113882e+01
-3.922958503097e+01
-5.575392678462e+01
-3.675514630613e+01
8.999999999681e+01
-4.575760474696e+01
-3.234854924742e+01
-2.785820835263e+01
-4.308820719301e+00
-3.740017885019e+01
-3.841756808332e+01
-4.257946317615e+01
-3.553639672883e+01
7.232182780732e+00
-2.094113956638e+01
-1.887384637588e+01
-1.899373253404e+01
-1.870931506327e+01
-1.886272009327e+01
-1.865894861377e+01
-1.882961899675e+01
-1.859352849696e+01
-1.880151339955e+01
-1.850718079782e+01
-1.877043583602e+01
-1.840509341245e+01
-1.873677743517e+01
-1.827440812249e+01
-1.868612901259e+01
-1.811206505676e+01
-1.861563392378e+01
-4.463009718811e+00
-1.792954000880e+01
-1.853840251780e+01
-7.008743174733e+00
-1.771770123421e+01
-1.843997354364e+01
-1.747426779852e+01
-1.830993442864e+01
-1.720201043354e+01
-1.146490421177e+01
-1.813081585114e+01
-1.690480802546e+01
-1.785461741705e+01
-1.675265487592e+01
-1.748406217862e+01
-1.654439744239e+01
-1.692813493895e+01
-1.648122444223e+01
-1.637939022602e+01
-1.596368065933e+01
-1.287363020156e+00
-1.374227404276e+01
-1.535220085970e+01
-1.113373757741e+01
-1.394194083814e+01
-1.046146444173e+01
-7.822111906015e+00
-1.776332922918e+01
-2.012995653929e+01
-1.414611750781e+01
-2.603598653254e+01
-3.870345259579e+00
-2.954815664159e+00
-3.854508351525e+00
-3.878475908974e+00
-3.936697301488e+00
-3.927758750982e+00
-3.938016210653e+00
-3.924869807434e+00
-3.938798593863e+00
-3.926281643133e+00
-3.938203473938e+00
-3.929225866382e+00
-3.922500732569e+00
-3.925026247803e+00
-3.904632162327e+00
-3.921138591300e+00
-3.873498626578e+00
2.200141040440e+00
-3.912703839336e+00
-3.829472515379e+00
-1.127222157200e+00
-3.899650150005e+00
-3.775499705547e+00
-7.174836462370e-02
-3.885356676932e+00
-3.703985090243e+00
-3.868016280158e+00
-3.608573394597e+00
-3.837512075965e+00
-3.455959265392e+00
2.907786160970e+00
-3.715099229254e+00
-3.137408409207e+00
-3.472577322917e+00
-2.817272407849e+00
-2.234072150539e+00
-3.118445119960e+00
-1.725273694345e+00
-2.535316696881e+00
-3.808924710521e-01
-1.712602796560e+00
-7.427409437589e-01
-4.039962279605e+00
-2.818464273563e+00
-6.349445335337e+00
-1.215516285006e+00
1.742335474027e+00
3.087886237876e+00
3.541265972658e+00
3.549633060964e+00
3.545010837932e+00
3.547125428472e+00
3.532656080645e+00
3.538736458335e+00
3.506450191732e+00
3.517206570274e+00
3.474491336688e+00
3.493439411864e+00
3.441058717302e+00
3.477332753480e+00
3.398779017889e+00
3.452287387905e+00
5.910625751666e+00
3.335815938994e+00
4.564203137700e+00
3.417208235608e+00
3.303963797789e+00
3.424439195984e+00
3.278219273501e+00
3.434779731887e+00
3.248061715055e+00
4.077844176358e+00
3.455284502044e+00
3.230401047233e+00
3.504466984265e+00
3.260233113799e+00
3.610304592214e+00
3.389412381269e+00
3.920623982483e+00
3.679149203142e+00
4.018558166961e+00
4.246630039852e+00
5.880643028731e+00
4.889766491271e+00
3.583677126149e+00
3.860080925317e+00
3.069362739455e+00
4.792209862076e+00
1.909897041133e+00
5.030377811109e+00
8.231405233724e+00
7.888669783829e+00
7.869066024112e+00
7.828856284325e+00
7.817722917768e+00
7.822825972597e+00
7.802034102384e+00
7.788029183328e+00
7.754694504671e+00
7.760794857648e+00
7.716151742871e+00
7.721720001746e+00
7.658709580376e+00
8.655922932886e+00
7.692563253635e+00
7.600198675673e+00
7.462111760178e+00
7.607182144795e+00
7.508764537648e+00
7.827774776930e+00
7.578918906105e+00
7.447165238807e+00
7.577230335841e+00
7.415033513178e+00
7.563192938378e+00
8.505813884676e+00
7.373786493271e+00
7.572618605313e+00
7.631608752949e+00
7.376127328176e+00
7.694801368858e+00
7.436771257974e+00
8.137345044080e+00
7.558561110840e+00
7.003510960701e+00
7.735346101632e+00
8.319531338473e+00
7.079086422025e+00
8.813986917676e+00
7.751937321251e+00
1.057878607842e+01
1.068463562351e+01
1.067862889025e+01
1.069590477086e+01
1.066897944973e+01
1.068633513746e+01
1.067204615722e+01
1.062213185683e+01
1.060676184479e+01
1.059799610532e+01
1.059076275026e+01
1.054882133888e+01
1.078575201322e+01
1.053678793111e+01
1.033438102927e+01
1.046636708596e+01
1.049885071192e+01
1.043231544687e+01
1.041638576920e+01
1.036483303297e+01
1.038461159018e+01
1.030265887401e+01
9.941573942239e+00
1.037157289814e+01
1.023930615256e+01
1.032886511016e+01
1.020379733662e+01
1.023559279489e+01
1.034979493069e+01
1.045112082212e+01
1.062170006700e+01
9.567095183672e+00
1.080969083932e+01
1.054535596144e+01
1.128480167674e+01
1.000751488493e+01
9.992887200878e+00


