# vtk DataFile Version 2.0
Calculation C:\Users\NickSteudtner\Documents\GitHub\TOCHNOG\standsicherheit_phiC at time 1.135702073735e+01 
ASCII
DATASET UNSTRUCTURED_GRID
Field FieldData 1
Time 1 1 double
1.135702073735e+01

POINTS 1028 float
0.0 0.0 0.0 
5.000000000000e+01 -1.000000000000e+01 0.0 
0.0 -2.000000000000e+01 0.0 
5.000000000000e+01 -2.000000000000e+01 0.0 
0.0 -9.999999999991e-01 0.0 
0.0 -1.999999999998e+00 0.0 
0.0 -2.999999999997e+00 0.0 
0.0 -3.999999999994e+00 0.0 
0.0 -4.999999999991e+00 0.0 
0.0 -5.999999999988e+00 0.0 
0.0 -6.999999999985e+00 0.0 
0.0 -7.999999999982e+00 0.0 
0.0 -8.999999999983e+00 0.0 
0.0 -9.999999999985e+00 0.0 
0.0 -1.099999999999e+01 0.0 
0.0 -1.199999999999e+01 0.0 
0.0 -1.299999999999e+01 0.0 
0.0 -1.399999999999e+01 0.0 
0.0 -1.499999999999e+01 0.0 
0.0 -1.599999999999e+01 0.0 
0.0 -1.700000000000e+01 0.0 
0.0 -1.800000000000e+01 0.0 
0.0 -1.900000000000e+01 0.0 
4.900000000001e+01 -2.000000000000e+01 0.0 
4.800000000001e+01 -2.000000000000e+01 0.0 
4.700000000002e+01 -2.000000000000e+01 0.0 
4.600000000003e+01 -2.000000000000e+01 0.0 
4.500000000004e+01 -2.000000000000e+01 0.0 
4.400000000004e+01 -2.000000000000e+01 0.0 
4.300000000005e+01 -2.000000000000e+01 0.0 
4.200000000006e+01 -2.000000000000e+01 0.0 
4.100000000006e+01 -2.000000000000e+01 0.0 
4.000000000007e+01 -2.000000000000e+01 0.0 
3.900000000008e+01 -2.000000000000e+01 0.0 
3.800000000009e+01 -2.000000000000e+01 0.0 
3.700000000009e+01 -2.000000000000e+01 0.0 
3.600000000010e+01 -2.000000000000e+01 0.0 
3.500000000011e+01 -2.000000000000e+01 0.0 
3.400000000011e+01 -2.000000000000e+01 0.0 
3.300000000012e+01 -2.000000000000e+01 0.0 
3.200000000013e+01 -2.000000000000e+01 0.0 
3.100000000013e+01 -2.000000000000e+01 0.0 
3.000000000013e+01 -2.000000000000e+01 0.0 
2.900000000013e+01 -2.000000000000e+01 0.0 
2.800000000013e+01 -2.000000000000e+01 0.0 
2.700000000013e+01 -2.000000000000e+01 0.0 
2.600000000013e+01 -2.000000000000e+01 0.0 
2.500000000013e+01 -2.000000000000e+01 0.0 
2.400000000013e+01 -2.000000000000e+01 0.0 
2.300000000013e+01 -2.000000000000e+01 0.0 
2.200000000013e+01 -2.000000000000e+01 0.0 
2.100000000013e+01 -2.000000000000e+01 0.0 
2.000000000013e+01 -2.000000000000e+01 0.0 
1.900000000013e+01 -2.000000000000e+01 0.0 
1.800000000013e+01 -2.000000000000e+01 0.0 
1.700000000012e+01 -2.000000000000e+01 0.0 
1.600000000011e+01 -2.000000000000e+01 0.0 
1.500000000011e+01 -2.000000000000e+01 0.0 
1.400000000010e+01 -2.000000000000e+01 0.0 
1.300000000009e+01 -2.000000000000e+01 0.0 
1.200000000009e+01 -2.000000000000e+01 0.0 
1.100000000008e+01 -2.000000000000e+01 0.0 
1.000000000007e+01 -2.000000000000e+01 0.0 
9.000000000064e+00 -2.000000000000e+01 0.0 
8.000000000057e+00 -2.000000000000e+01 0.0 
7.000000000050e+00 -2.000000000000e+01 0.0 
6.000000000043e+00 -2.000000000000e+01 0.0 
5.000000000036e+00 -2.000000000000e+01 0.0 
4.000000000028e+00 -2.000000000000e+01 0.0 
3.000000000021e+00 -2.000000000000e+01 0.0 
2.000000000014e+00 -2.000000000000e+01 0.0 
1.000000000007e+00 -2.000000000000e+01 0.0 
5.000000000000e+01 -1.100000000000e+01 0.0 
5.000000000000e+01 -1.200000000000e+01 0.0 
5.000000000000e+01 -1.300000000000e+01 0.0 
5.000000000000e+01 -1.400000000000e+01 0.0 
5.000000000000e+01 -1.500000000000e+01 0.0 
5.000000000000e+01 -1.600000000000e+01 0.0 
5.000000000000e+01 -1.700000000000e+01 0.0 
5.000000000000e+01 -1.800000000000e+01 0.0 
5.000000000000e+01 -1.900000000000e+01 0.0 
2.000000000000e+01 0.0 0.0 
3.500000000000e+01 -1.000000000000e+01 0.0 
2.150000000000e+01 -1.000000000000e+00 0.0 
2.300000000000e+01 -2.000000000000e+00 0.0 
2.450000000000e+01 -3.000000000000e+00 0.0 
2.600000000000e+01 -4.000000000000e+00 0.0 
2.750000000000e+01 -5.000000000000e+00 0.0 
2.900000000000e+01 -6.000000000000e+00 0.0 
3.050000000000e+01 -7.000000000000e+00 0.0 
3.200000000000e+01 -8.000000000000e+00 0.0 
3.350000000000e+01 -9.000000000000e+00 0.0 
4.900000000000e+01 -1.000000000000e+01 0.0 
4.800000000000e+01 -1.000000000000e+01 0.0 
4.700000000000e+01 -1.000000000000e+01 0.0 
4.600000000000e+01 -1.000000000000e+01 0.0 
4.500000000000e+01 -1.000000000000e+01 0.0 
4.400000000000e+01 -1.000000000000e+01 0.0 
4.300000000000e+01 -1.000000000000e+01 0.0 
4.200000000000e+01 -1.000000000000e+01 0.0 
4.100000000000e+01 -1.000000000000e+01 0.0 
4.000000000000e+01 -1.000000000000e+01 0.0 
3.900000000000e+01 -1.000000000000e+01 0.0 
3.800000000000e+01 -1.000000000000e+01 0.0 
3.700000000000e+01 -1.000000000000e+01 0.0 
3.600000000000e+01 -1.000000000000e+01 0.0 
1.900000000000e+01 0.0 0.0 
1.800000000000e+01 0.0 0.0 
1.700000000000e+01 0.0 0.0 
1.600000000000e+01 0.0 0.0 
1.500000000000e+01 0.0 0.0 
1.400000000000e+01 0.0 0.0 
1.300000000000e+01 0.0 0.0 
1.200000000000e+01 0.0 0.0 
1.100000000000e+01 0.0 0.0 
1.000000000000e+01 0.0 0.0 
9.000000000000e+00 0.0 0.0 
8.000000000000e+00 0.0 0.0 
7.000000000000e+00 0.0 0.0 
6.000000000000e+00 0.0 0.0 
5.000000000000e+00 0.0 0.0 
4.000000000000e+00 0.0 0.0 
3.000000000000e+00 0.0 0.0 
2.000000000000e+00 0.0 0.0 
1.000000000000e+00 0.0 0.0 
2.075000000000e+01 -5.000000000006e-01 0.0 
2.225000000000e+01 -1.500000000000e+00 0.0 
2.375000000000e+01 -2.500000000000e+00 0.0 
2.525000000000e+01 -3.500000000000e+00 0.0 
2.675000000000e+01 -4.500000000000e+00 0.0 
2.825000000000e+01 -5.500000000000e+00 0.0 
2.975000000000e+01 -6.500000000000e+00 0.0 
3.125000000000e+01 -7.500000000000e+00 0.0 
3.275000000000e+01 -8.500000000000e+00 0.0 
3.425000000000e+01 -9.500000000000e+00 0.0 
2.226951693683e+01 -2.403913980114e+00 0.0 
1.650149491944e+01 -1.913490915758e+01 0.0 
1.050042386896e+01 -8.504605092970e-01 0.0 
1.553146524712e+01 -8.281255032105e-01 0.0 
1.150000000008e+01 -1.913397459621e+01 0.0 
2.530060260647e+01 -4.428336431260e+00 0.0 
8.651114563942e-01 -1.052096295641e+01 0.0 
2.050000000013e+01 -1.913397459622e+01 0.0 
2.819198729811e+01 -6.399519052838e+00 0.0 
2.445670302931e+01 -1.915649188023e+01 0.0 
3.117591465718e+01 -8.394293040695e+00 0.0 
7.465053044742e+00 -1.920411160581e+01 0.0 
6.398295709691e+00 -8.230098819370e-01 0.0 
2.849659607461e+01 -1.914296187762e+01 0.0 
3.418732642882e+01 -1.040265792588e+01 0.0 
8.386450935063e-01 -6.533605142809e+00 0.0 
9.178661865596e-01 -1.329769195597e+01 0.0 
3.149448624493e+01 -1.910466733764e+01 0.0 
3.552916747426e+01 -1.914628590759e+01 0.0 
4.449210346537e+01 -1.914359085008e+01 0.0 
4.140975975145e+01 -1.906941860733e+01 0.0 
3.847475958753e+01 -1.916622382724e+01 0.0 
3.653774794640e+01 -1.088712800241e+01 0.0 
4.047886341787e+01 -1.090139014048e+01 0.0 
4.348006339825e+01 -1.092792621489e+01 0.0 
4.919519968029e+01 -1.451526755068e+01 0.0 
4.500000000032e+00 -1.913397459621e+01 0.0 
1.856136921614e+01 -8.212235170404e-01 0.0 
3.499895312306e+00 -8.661165539723e-01 0.0 
9.076088696565e-01 -1.642306201891e+01 0.0 
4.655174095477e+01 -1.086183387525e+01 0.0 
9.430688970604e-01 -3.496112672958e+00 0.0 
3.353992337063e+01 -1.901202090820e+01 0.0 
2.249746016977e+01 -1.921262287282e+01 0.0 
2.650122741777e+01 -1.916123026018e+01 0.0 
1.863571384842e+01 -1.908325534840e+01 0.0 
1.450089971693e+01 -1.917691901860e+01 0.0 
1.350044695317e+01 -8.659695299584e-01 0.0 
3.849987469880e+01 -1.084154983397e+01 0.0 
9.454419857884e+00 -1.900818879936e+01 0.0 
4.917398660523e+01 -1.645692866081e+01 0.0 
8.500000000000e+00 -8.660254037844e-01 0.0 
8.660319230785e-01 -8.500111697188e+00 0.0 
4.649022621545e+01 -1.930506220113e+01 0.0 
2.667688107845e+01 -5.420288124331e+00 0.0 
2.379251615665e+01 -3.412225477429e+00 0.0 
2.966631491830e+01 -7.389030232731e+00 0.0 
3.267915035995e+01 -9.396934932445e+00 0.0 
2.074836922338e+01 -1.320054020319e+00 0.0 
4.915985743621e+01 -1.261973384855e+01 0.0 
2.527129768623e+00 -1.931592414663e+01 0.0 
1.538676247410e+00 -8.436956619311e-01 0.0 
4.908096641539e+01 -1.842484004551e+01 0.0 
3.478612492673e+01 -1.090889364140e+01 0.0 
3.409757055860e+01 -1.131991530427e+01 0.0 
3.501895309466e+01 -1.177687842717e+01 0.0 
3.407758073088e+01 -1.224293381580e+01 0.0 
3.484541875390e+01 -1.277051428430e+01 0.0 
3.400322025842e+01 -1.319022775640e+01 0.0 
3.321672625034e+01 -1.266779191233e+01 0.0 
3.315244139236e+01 -1.360984106532e+01 0.0 
3.236335186892e+01 -1.308463225210e+01 0.0 
3.478337442841e+01 -1.372341158982e+01 0.0 
3.230105923633e+01 -1.403023731610e+01 0.0 
3.150954055289e+01 -1.350301767700e+01 0.0 
3.144604792090e+01 -1.444931742516e+01 0.0 
3.065653897123e+01 -1.392357262981e+01 0.0 
3.071897610812e+01 -1.297447031198e+01 0.0 
2.986790411740e+01 -1.339226181535e+01 0.0 
2.993181466745e+01 -1.244703272398e+01 0.0 
2.908023061869e+01 -1.286254537734e+01 0.0 
2.901619051372e+01 -1.380881655279e+01 0.0 
2.822986160390e+01 -1.327695262116e+01 0.0 
2.829453476870e+01 -1.233265343811e+01 0.0 
2.744542905518e+01 -1.274510491105e+01 0.0 
2.751120089246e+01 -1.180368086886e+01 0.0 
2.666218649885e+01 -1.221619339205e+01 0.0 
2.672371209234e+01 -1.127125228527e+01 0.0 
2.587763216302e+01 -1.168539979114e+01 0.0 
2.581165585299e+01 -1.262994410089e+01 0.0 
2.502890882577e+01 -1.209827323619e+01 0.0 
2.509631327757e+01 -1.115492410304e+01 0.0 
2.424662989877e+01 -1.156630981079e+01 0.0 
2.431704046904e+01 -1.062389179334e+01 0.0 
2.346445438728e+01 -1.103427680694e+01 0.0 
2.339382552877e+01 -1.197964871788e+01 0.0 
2.260936050780e+01 -1.144513277642e+01 0.0 
2.268075012022e+01 -1.049911928216e+01 0.0 
2.182525737661e+01 -1.090920811464e+01 0.0 
2.189682319817e+01 -9.961716944568e+00 0.0 
2.104174127792e+01 -1.037266986667e+01 0.0 
2.111304367575e+01 -9.424179358711e+00 0.0 
2.025306185381e+01 -9.832727364719e+00 0.0 
2.018141124247e+01 -1.079140628871e+01 0.0 
1.938594498257e+01 -1.025147354112e+01 0.0 
1.946106490453e+01 -9.288010758448e+00 0.0 
1.858929958352e+01 -9.706319802516e+00 0.0 
1.851540991219e+01 -1.067205988724e+01 0.0 
1.771485303178e+01 -1.012504443115e+01 0.0 
1.764134552256e+01 -1.109360378538e+01 0.0 
1.683745148095e+01 -1.054496365337e+01 0.0 
1.691852964353e+01 -9.582555261178e+00 0.0 
1.603603813062e+01 -1.000160132379e+01 0.0 
1.595824239350e+01 -1.096750698862e+01 0.0 
1.515080624291e+01 -1.041639501931e+01 0.0 
1.523171602559e+01 -9.451711491453e+00 0.0 
1.434621060709e+01 -9.871956467464e+00 0.0 
1.426777178765e+01 -1.083749501371e+01 0.0 
1.345775282374e+01 -1.028803175500e+01 0.0 
1.354103873368e+01 -9.324918457162e+00 0.0 
1.265072018622e+01 -9.742612837270e+00 0.0 
1.257285762070e+01 -1.071557782384e+01 0.0 
1.175874815690e+01 -1.015972324288e+01 0.0 
1.184203019714e+01 -9.193604071377e+00 0.0 
1.094927709905e+01 -9.612103238656e+00 0.0 
1.086938022910e+01 -1.058685085646e+01 0.0 
1.005424098961e+01 -1.002939116380e+01 0.0 
9.977974613295e+00 -1.101324897989e+01 0.0 
1.012915646404e+01 -9.051815821181e+00 0.0 
9.237127782494e+00 -9.471239055559e+00 0.0 
9.308426593771e+00 -8.483376461131e+00 0.0 
8.418806073345e+00 -8.910712374517e+00 0.0 
2.253688464062e+01 -1.239459402279e+01 0.0 
8.495126726666e+00 -7.921646665254e+00 0.0 
9.389727383206e+00 -7.512103628377e+00 0.0 
7.601560812974e+00 -8.349460349344e+00 0.0 
7.525680547759e+00 -9.339736686940e+00 0.0 
7.677888324502e+00 -7.359727833346e+00 0.0 
6.782001206724e+00 -7.788454494773e+00 0.0 
6.858778622885e+00 -6.797338062822e+00 0.0 
2.196596590865e+01 -8.979025665442e+00 0.0 
2.816540108272e+01 -1.422634142353e+01 0.0 
5.961601194403e+00 -7.226824010712e+00 0.0 
6.038171749656e+00 -6.234825887079e+00 0.0 
6.936257279557e+00 -5.805287640737e+00 0.0 
6.115068918323e+00 -5.242109758768e+00 0.0 
3.564391741903e+01 -1.329240553876e+01 0.0 
3.558115605778e+01 -1.425902892003e+01 0.0 
3.645445282201e+01 -1.381970786460e+01 0.0 
3.639744204358e+01 -1.479198128612e+01 0.0 
3.727266909778e+01 -1.435399586226e+01 0.0 
5.216667013081e+00 -5.671788584287e+00 0.0 
3.220697293295e+01 -1.499594545107e+01 0.0 
3.551112158269e+01 -1.523479869250e+01 0.0 
2.836056961467e+01 -1.139032434851e+01 0.0 
2.516730388602e+01 -1.021382726837e+01 0.0 
1.844436907403e+01 -1.164097215196e+01 0.0 
5.885434318740e+00 -8.218694781467e+00 0.0 
5.064071066867e+00 -7.656614643901e+00 0.0 
4.988089103470e+00 -8.649722082718e+00 0.0 
1.079421050408e+01 -1.157014985435e+01 0.0 
9.902420005256e+00 -1.199903342656e+01 0.0 
1.071994252214e+01 -1.255727909771e+01 0.0 
9.826974788171e+00 -1.298659581767e+01 0.0 
1.064607883789e+01 -1.354595476388e+01 0.0 
9.751541265343e+00 -1.397556905071e+01 0.0 
8.932296185869e+00 -1.341553353988e+01 0.0 
8.856399248106e+00 -1.440570715508e+01 0.0 
8.036186803543e+00 -1.384470558472e+01 0.0 
1.057112875118e+01 -1.453516759081e+01 0.0 
1.146582585687e+01 -1.410539926903e+01 0.0 
7.959894480382e+00 -1.483563350928e+01 0.0 
7.138792279156e+00 -1.427465094140e+01 0.0 
7.062506792418e+00 -1.526615385482e+01 0.0 
6.240693558277e+00 -1.470508863040e+01 0.0 
6.316957575451e+00 -1.371212581281e+01 0.0 
5.418183007107e+00 -1.414253605022e+01 0.0 
5.494748364428e+00 -1.314886770603e+01 0.0 
1.756825565873e+01 -1.206433872514e+01 0.0 
1.837565773345e+01 -1.261356468266e+01 0.0 
1.749574831391e+01 -1.303769280014e+01 0.0 
1.830539187332e+01 -1.358828364284e+01 0.0 
1.742278925170e+01 -1.401367746928e+01 0.0 
1.823303007798e+01 -1.456432294258e+01 0.0 
1.734941694138e+01 -1.499213734361e+01 0.0 
1.653760041637e+01 -1.443920312098e+01 0.0 
3.056237977307e+01 -1.487132260174e+01 0.0 
1.866469084762e+01 -8.742953000418e+00 0.0 
1.953669694916e+01 -8.326038909849e+00 0.0 
1.874194303780e+01 -7.780688158966e+00 0.0 
1.961032016741e+01 -7.366854697285e+00 0.0 
1.881715755159e+01 -6.821102209649e+00 0.0 
1.968369797150e+01 -6.407747217358e+00 0.0 
1.889237123259e+01 -5.858375520026e+00 0.0 
1.802038875366e+01 -6.276202618170e+00 0.0 
1.809793837984e+01 -5.307629520489e+00 0.0 
1.721985207997e+01 -5.728242054488e+00 0.0 
1.729850893523e+01 -4.756990819347e+00 0.0 
1.641745664240e+01 -5.174636548624e+00 0.0 
2.495978509456e+01 -1.304406404294e+01 0.0 
1.911567814831e+01 -1.413854250293e+01 0.0 
1.904387332608e+01 -1.511463127723e+01 0.0 
1.992115934240e+01 -1.468788025898e+01 0.0 
7.013706899628e+00 -4.812582868662e+00 0.0 
5.342091874585e+00 -1.513658157269e+01 0.0 
1.139098043784e+01 -1.509488509480e+01 0.0 
1.228151810610e+01 -1.465617481983e+01 0.0 
1.646373110164e+01 -1.541993323337e+01 0.0 
5.293328636712e+00 -4.678385108584e+00 0.0 
1.975965862987e+01 -5.448124345648e+00 0.0 
2.054318374236e+01 -5.992561293251e+00 0.0 
3.721453439063e+01 -1.533216152738e+01 0.0 
3.809302733893e+01 -1.489235527381e+01 0.0 
1.220852788900e+01 -1.565304565230e+01 0.0 
4.394120899730e+00 -5.108397613210e+00 0.0 
8.779354620288e+00 -1.539524721159e+01 0.0 
1.817791047702e+01 -4.338570146253e+00 0.0 
4.518860013839e+00 -1.457343189307e+01 0.0 
4.442712140414e+00 -1.556841391069e+01 0.0 
8.115343466391e+00 -1.285760324283e+01 0.0 
1.985334703171e+01 -1.566478400426e+01 0.0 
2.071953850276e+01 -1.522074243119e+01 0.0 
1.634012953883e+01 -6.154777738301e+00 0.0 
1.553479994708e+01 -5.593730508879e+00 0.0 
1.561265946942e+01 -4.617761762647e+00 0.0 
1.470674212978e+01 -5.064576488228e+00 0.0 
1.464498299883e+01 -6.026514471420e+00 0.0 
1.383271561817e+01 -5.467796261169e+00 0.0 
1.389241253067e+01 -4.504338666645e+00 0.0 
1.301868735463e+01 -4.907185188626e+00 0.0 
1.294514184846e+01 -5.888160903592e+00 0.0 
1.212955968622e+01 -5.328262335277e+00 0.0 
1.220721122383e+01 -4.341264976687e+00 0.0 
1.131324345897e+01 -4.766773516508e+00 0.0 
5.266597955397e+00 -1.613148974258e+01 0.0 
1.737805990867e+01 -3.786677807525e+00 0.0 
3.078438094513e+01 -1.203225297748e+01 0.0 
1.131569882285e+01 -1.608511932110e+01 0.0 
1.728478341782e+01 -1.596017432313e+01 0.0 
3.803465906019e+01 -1.587509751228e+01 0.0 
3.891681276677e+01 -1.543395196905e+01 0.0 
3.897340985302e+01 -1.444710288980e+01 0.0 
3.980095968193e+01 -1.499059496613e+01 0.0 
3.974334598189e+01 -1.597921884150e+01 0.0 
4.062964983717e+01 -1.553518690417e+01 0.0 
4.068729602479e+01 -1.454434445295e+01 0.0 
4.151772679790e+01 -1.508974196007e+01 0.0 
4.157505195739e+01 -1.409694289912e+01 0.0 
4.240699932656e+01 -1.464347955968e+01 0.0 
4.234898051011e+01 -1.563721375790e+01 0.0 
4.323934606035e+01 -1.519082036405e+01 0.0 
4.329740528208e+01 -1.419587509788e+01 0.0 
4.413056841369e+01 -1.474359631875e+01 0.0 
4.418850110108e+01 -1.374786684042e+01 0.0 
4.502219770667e+01 -1.429605103525e+01 0.0 
4.496411937907e+01 -1.529215882720e+01 0.0 
4.490027319897e+00 -4.154167794594e+00 0.0 
1.565080385988e+01 -1.486411982419e+01 0.0 
1.557610691279e+01 -1.584855627870e+01 0.0 
4.195350646612e+00 -8.089117689096e+00 0.0 
4.124027797830e+00 -9.082831955007e+00 0.0 
4.917944318925e+00 -9.643530901533e+00 0.0 
4.020105689502e+00 -1.007439673661e+01 0.0 
4.587185899277e+01 -1.484039992728e+01 0.0 
4.580078661551e+01 -1.584043391042e+01 0.0 
2.061956522375e+01 -5.046701343981e+00 0.0 
2.139572955529e+01 -5.579553449826e+00 0.0 
3.715344357292e+01 -1.631485124583e+01 0.0 
3.618886196443e+00 -1.500471207167e+01 0.0 
3.695606940204e+00 -1.400939692294e+01 0.0 
2.438890661143e+01 -9.686110599723e+00 0.0 
2.523267572778e+01 -9.276766000622e+00 0.0 
2.446094171539e+01 -8.751904591412e+00 0.0 
2.529089822738e+01 -8.321495612547e+00 0.0 
2.606882688827e+01 -8.864724051119e+00 0.0 
2.452116646430e+01 -7.792756462004e+00 0.0 
1.235543269617e+01 -1.365845617339e+01 0.0 
4.318116874181e+01 -1.618567469992e+01 0.0 
7.835066111909e+00 -5.376366223896e+00 0.0 
7.905687335704e+00 -4.382539065697e+00 0.0 
3.542640009567e+00 -1.600035116542e+01 0.0 
1.572431503071e+01 -1.388358386695e+01 0.0 
2.574684696680e+01 -1.357896141127e+01 0.0 
2.488842657651e+01 -1.399674354505e+01 0.0 
2.568301775611e+01 -1.453552048595e+01 0.0 
2.481535572009e+01 -1.495542756508e+01 0.0 
2.561729699688e+01 -1.549784648532e+01 0.0 
2.474623061296e+01 -1.592058894178e+01 0.0 
2.394234041695e+01 -1.537572575827e+01 0.0 
2.065825452567e+01 -1.621899055217e+01 0.0 
2.387180528935e+01 -1.634552264687e+01 0.0 
4.585364400844e+01 -1.383912334080e+01 0.0 
1.998744432052e+01 -1.370317155541e+01 0.0 
1.205356951443e+01 -6.313580285498e+00 0.0 
5.396543905849e+00 -3.731818611283e+00 0.0 
1.139652573295e+01 -3.745819399350e+00 0.0 
3.574124306703e+00 -4.551456826011e+00 0.0 
3.494140761930e+00 -5.539787055649e+00 0.0 
1.213651452413e+01 -1.664505033022e+01 0.0 
2.555045568519e+01 -1.646529356744e+01 0.0 
2.641671114986e+01 -1.603899382371e+01 0.0 
2.612920721894e+01 -7.906435260873e+00 0.0 
2.690339829698e+01 -8.456969591431e+00 0.0 
1.978024383368e+01 -1.664410216353e+01 0.0 
3.732829979082e+01 -1.336926601859e+01 0.0 
4.074336584605e+01 -1.355133328401e+01 0.0 
4.163204691081e+01 -1.310280943992e+01 0.0 
3.773826114429e+00 -3.493444309145e+00 0.0 
1.228783001032e+01 -3.374822835872e+00 0.0 
4.057110462520e+01 -1.652588478000e+01 0.0 
2.132535497898e+01 -6.523623360525e+00 0.0 
2.216932532211e+01 -6.110044769206e+00 0.0 
1.825781152128e+01 -3.370146817147e+00 0.0 
1.745679445888e+01 -2.812942552063e+00 0.0 
4.666517057280e+01 -1.539981381543e+01 0.0 
4.660575894464e+01 -1.639014410186e+01 0.0 
4.838230979954e+00 -1.063643436446e+01 0.0 
3.938942630206e+00 -1.106778981745e+01 0.0 
1.302967218620e+01 -1.621373452436e+01 0.0 
1.049548003190e+01 -4.204825123240e+00 0.0 
4.573571907195e+01 -1.683820511148e+01 0.0 
1.483686335807e+01 -1.430849689310e+01 0.0 
1.490982658890e+01 -1.332679386284e+01 0.0 
3.190805600162e+00 -9.510968358545e+00 0.0 
2.146625721848e+01 -4.642437303115e+00 0.0 
2.069866208266e+01 -4.111852942193e+00 0.0 
1.286859345584e+01 -6.873252723348e+00 0.0 
1.041794493184e+01 -5.194814260291e+00 0.0 
2.671081808965e+00 -4.976806516331e+00 0.0 
1.295786792925e+01 -1.720506531799e+01 0.0 
3.968438206511e+01 -1.696869067241e+01 0.0 
2.308550456051e+01 -1.579963151273e+01 0.0 
2.315593682844e+01 -1.482967445235e+01 0.0 
2.299471449450e+01 -1.677069968132e+01 0.0 
1.057344714696e+01 -3.214252277840e+00 0.0 
1.124057603753e+01 -1.707713739755e+01 0.0 
2.718402535754e+00 -1.543629882103e+01 0.0 
2.638549692805e+01 -1.696744916809e+01 0.0 
2.723416349007e+01 -1.658104204545e+01 0.0 
2.210193351704e+01 -7.046769643417e+00 0.0 
2.295180925161e+01 -6.657397605239e+00 0.0 
2.301355235833e+01 -5.709111896800e+00 0.0 
2.379052718281e+01 -6.254965406962e+00 0.0 
3.243528601237e+01 -1.214181853533e+01 0.0 
2.287977995457e+01 -7.583722368300e+00 0.0 
2.999876029544e+01 -1.150837653096e+01 0.0 
3.084435366963e+01 -1.109693775882e+01 0.0 
3.006650579669e+01 -1.057778994262e+01 0.0 
2.683802665066e+01 -9.386863216633e+00 0.0 
2.768641973621e+01 -8.988883915666e+00 0.0 
2.040296980397e+01 -7.903629133404e+00 0.0 
1.925235024054e+01 -1.218872783130e+01 0.0 
5.735667000424e+00 -1.020577277283e+01 0.0 
6.396559909872e+00 -1.272326295703e+01 0.0 
1.161199420714e+01 -1.212812778229e+01 0.0 
4.229046132615e+01 -1.663084237572e+01 0.0 
4.312275399692e+01 -1.718087491556e+01 0.0 
4.335502068163e+01 -1.320039231514e+01 0.0 
4.424630298089e+01 -1.275160688731e+01 0.0 
7.090116643816e+00 -3.818998061530e+00 0.0 
7.989472176569e+00 -3.389238711200e+00 0.0 
9.085824861778e+00 -1.144036167408e+01 0.0 
1.041972423731e+01 -1.651614080893e+01 0.0 
3.797525112640e+01 -1.686052038746e+01 0.0 
3.709114253394e+01 -1.730125999865e+01 0.0 
3.626966748340e+01 -1.675477052919e+01 0.0 
1.385164591440e+01 -1.677597757552e+01 0.0 
1.787152588784e+01 -8.198993896093e+00 0.0 
1.668849729812e+01 -1.248560611628e+01 0.0 
1.659546177905e+01 -3.232482605530e+00 0.0 
2.332214717345e+01 -1.292598167641e+01 0.0 
7.168238450786e+00 -2.824711686516e+00 0.0 
2.894878403906e+01 -1.475427524446e+01 0.0 
2.646763248247e+00 -1.643270107952e+01 0.0 
3.467431944285e+00 -1.699648837348e+01 0.0 
2.059475877282e+01 -1.719473628526e+01 0.0 
3.333868355437e+01 -1.080596971682e+01 0.0 
2.246451062637e+01 -1.334557761546e+01 0.0 
2.167821896388e+01 -1.280847834858e+01 0.0 
3.089653185767e+01 -1.017198487212e+01 0.0 
3.012604365669e+01 -9.657298805968e+00 0.0 
2.929627299435e+01 -1.006100135274e+01 0.0 
2.936201435219e+01 -9.136748899251e+00 0.0 
1.198219052702e+01 -7.291887238230e+00 0.0 
1.116702076035e+01 -6.731976101053e+00 0.0 
2.551388807505e+01 -1.746927036981e+01 0.0 
2.378639090370e+01 -1.728678807149e+01 0.0 
2.718543627188e+01 -1.748668016909e+01 0.0 
2.804681050301e+01 -1.712626668293e+01 0.0 
1.970737034667e+01 -1.762317646822e+01 0.0 
1.889535776135e+01 -1.707158098231e+01 0.0 
2.593777711283e+00 -5.971157087874e+00 0.0 
2.773468281110e+01 -8.067164273938e+00 0.0 
4.051205884347e+01 -1.751819982458e+01 0.0 
3.166903145421e+01 -1.068032992414e+01 0.0 
1.033042452886e+01 -1.748285844336e+01 0.0 
9.519274604626e+00 -1.694349240233e+01 0.0 
1.668308673328e+01 -2.255861778986e+00 0.0 
1.570531902832e+01 -2.676795860126e+00 0.0 
4.655826903379e+01 -1.736656245706e+01 0.0 
2.384148070773e+01 -5.328744256413e+00 0.0 
2.460255123641e+01 -5.852182672816e+00 0.0 
2.306638135119e+01 -4.798935440613e+00 0.0 
8.467720450578e-01 -1.849576263072e+01 0.0 
4.849657322345e+01 -1.084860705506e+01 0.0 
2.565860899507e+00 -1.742859793981e+01 0.0 
2.764418872564e+01 -9.927142821799e+00 0.0 
4.565165880064e+01 -1.785336695404e+01 0.0 
2.162231831329e+01 -1.376528337468e+01 0.0 
2.360646352969e+01 -9.136041963102e+00 0.0 
1.392738739903e+01 -1.578285505772e+01 0.0 
4.756405947478e+01 -1.683706841809e+01 0.0 
4.740895034054e+01 -1.793766756892e+01 0.0 
4.080779328826e+01 -1.257387192544e+01 0.0 
4.168907939671e+01 -1.210739129181e+01 0.0 
3.991197722154e+01 -1.300815793917e+01 0.0 
1.905536506762e+01 -3.940076697685e+00 0.0 
1.923879596617e+01 -2.875000734166e+00 0.0 
4.401386745746e+01 -1.673483229438e+01 0.0 
4.247233362525e+00 -7.094581653070e+00 0.0 
3.286051630211e+00 -7.635300020553e+00 0.0 
9.609533347623e+00 -4.594311677967e+00 0.0 
9.523554636369e+00 -5.595597029530e+00 0.0 
5.660336628893e+00 -1.119290329628e+01 0.0 
6.558070063295e+00 -1.076385809362e+01 0.0 
2.809866407414e+01 -1.518037766799e+01 0.0 
2.888868674504e+01 -1.570360690070e+01 0.0 
2.654431550819e+01 -1.411217777162e+01 0.0 
1.402158265969e+01 -1.375404617952e+01 0.0 
1.409592494026e+01 -1.277071998942e+01 0.0 
1.499355196178e+01 -1.235270737023e+01 0.0 
4.221535326155e+01 -1.759335617494e+01 0.0 
4.305583287033e+01 -1.822663146802e+01 0.0 
1.280748808359e+01 -7.834332838285e+00 0.0 
1.368988389326e+01 -7.420529606172e+00 0.0 
1.110091796060e+01 -7.683966794328e+00 0.0 
3.963446145980e+01 -1.794331310122e+01 0.0 
3.423932362213e+00 -1.796415590455e+01 0.0 
4.280814572302e+00 -1.752272834860e+01 0.0 
8.050136380041e+00 -2.421582378631e+00 0.0 
8.888674091650e+00 -2.984264211327e+00 0.0 
2.152839430898e+01 -3.732609965436e+00 0.0 
2.077799585292e+01 -3.183896021866e+00 0.0 
3.618719395821e+01 -1.770276572576e+01 0.0 
3.538165138340e+01 -1.718709995539e+01 0.0 
3.702925326420e+01 -1.828844288807e+01 0.0 
1.756739438711e+00 -5.353284859169e+00 0.0 
2.233710191104e+01 -1.527265621324e+01 0.0 
1.389483555057e+01 -1.771797164730e+01 0.0 
1.475634224300e+01 -1.728357428390e+01 0.0 
1.298797563052e+01 -1.825968924755e+01 0.0 
2.145331271866e+01 -1.673705379077e+01 0.0 
2.133282821169e+01 -1.769400773673e+01 0.0 
2.292139194136e+01 -1.774915400288e+01 0.0 
1.750750053243e+01 -1.861475593469e+00 0.0 
4.830478841772e+01 -1.752611802221e+01 0.0 
4.341203507805e+01 -1.220326745522e+01 0.0 
1.685254151866e+01 -1.443085301632e+00 0.0 
4.431538535165e+01 -1.171841387375e+01 0.0 
4.511308610496e+01 -1.229557320599e+01 0.0 
4.510133242889e+01 -1.123680627466e+01 0.0 
1.846818030617e+00 -4.410877617069e+00 0.0 
3.995468694584e+01 -1.186571542989e+01 0.0 
3.901387459804e+01 -1.242507616755e+01 0.0 
8.966735877533e+00 -1.837818700423e+00 0.0 
4.049310011091e+01 -1.848269508791e+01 0.0 
7.278862053803e+00 -1.918523922691e+00 0.0 
6.429715522129e+00 -2.316676521184e+00 0.0 
9.443505505022e+00 -1.792198868094e+01 0.0 
8.620386951051e+00 -1.737590365556e+01 0.0 
8.571868171503e+00 -1.834436667826e+01 0.0 
7.758629848526e+00 -1.775677907213e+01 0.0 
7.806648388584e+00 -1.680761266021e+01 0.0 
6.908555145436e+00 -1.723746463044e+01 0.0 
4.251709122090e+01 -1.156937480156e+01 0.0 
6.931136405615e+00 -1.832465719263e+01 0.0 
6.015545461353e+00 -1.768865355295e+01 0.0 
5.960535926343e+00 -1.872011001764e+01 0.0 
3.023253444786e+01 -8.761960642196e+00 0.0 
2.454622702599e+01 -6.749421992767e+00 0.0 
2.537499741604e+01 -6.347634963783e+00 0.0 
2.544077378460e+01 -5.431358513649e+00 0.0 
2.801367161747e+01 -1.820907270221e+01 0.0 
2.884507806914e+01 -1.762032095326e+01 0.0 
1.821474531936e+00 -1.588901260460e+01 0.0 
1.821006262604e+00 -1.489370287756e+01 0.0 
4.599962488908e+01 -1.176478780598e+01 0.0 
4.705457470007e+01 -1.172182804229e+01 0.0 
4.667668314802e+01 -1.263464558483e+01 0.0 
4.759648056504e+01 -1.252380987933e+01 0.0 
4.728041618103e+01 -1.341928568376e+01 0.0 
4.825209352360e+01 -1.330491640804e+01 0.0 
4.778118233428e+01 -1.420151961695e+01 0.0 
2.388192727579e+01 -1.826934810142e+01 0.0 
2.381714684947e+01 -4.385917965223e+00 0.0 
3.172733219247e+01 -9.758744265248e+00 0.0 
1.882012070658e+01 -1.805540597212e+01 0.0 
1.805667505243e+01 -1.742221226236e+01 0.0 
2.852599958080e+01 -8.597196079481e+00 0.0 
2.856486123437e+01 -7.661382718527e+00 0.0 
1.111792842875e+01 -1.818223852980e+01 0.0 
2.203322722466e+01 -7.986646678802e+00 0.0 
3.955703676900e+01 -1.903246763601e+01 0.0 
1.944842206513e+01 -8.038750575182e-01 0.0 
1.909882767783e+01 -1.746322740933e+00 0.0 
2.281147422941e+01 -8.525912918334e+00 0.0 
2.850633001468e+01 -9.533271335986e+00 0.0 
2.532883344309e+01 -7.308951659710e+00 0.0 
2.620475466461e+01 -6.979208585400e+00 0.0 
1.396278270396e+01 -1.475095389807e+01 0.0 
9.791001166724e+00 -2.554159793552e+00 0.0 
2.229293380421e+01 -4.269762271052e+00 0.0 
4.677238984118e+01 -1.430071795514e+01 0.0 
2.228658385918e+01 -3.344747535984e+00 0.0 
8.940223674553e-01 -1.543595733415e+01 0.0 
2.118566862474e+01 -8.435876987696e+00 0.0 
2.678325936437e+01 -1.032621195706e+01 0.0 
2.223400220487e+01 -5.179046761770e+00 0.0 
2.375370625384e+01 -7.251580562134e+00 0.0 
3.156971327386e+01 -1.255534750737e+01 0.0 
3.328226391312e+01 -1.172914813316e+01 0.0 
3.250948774219e+01 -1.120157009348e+01 0.0 
2.032993445717e+01 -8.867880112202e+00 0.0 
2.697226974856e+01 -7.536633082045e+00 0.0 
2.707377810386e+01 -6.590835263295e+00 0.0 
2.914099246827e+01 -1.191678458549e+01 0.0 
3.544824072239e+01 -1.621126558525e+01 0.0 
3.456511855436e+01 -1.665054783843e+01 0.0 
3.448395810225e+01 -1.759117813016e+01 0.0 
3.368378673938e+01 -1.708037781328e+01 0.0 
3.375560452567e+01 -1.610973066913e+01 0.0 
3.288001547988e+01 -1.654324255651e+01 0.0 
3.282475929147e+01 -1.749725654692e+01 0.0 
3.199880906313e+01 -1.697294088625e+01 0.0 
3.197001272932e+01 -1.811667776864e+01 0.0 
3.111884713021e+01 -1.742166785755e+01 0.0 
3.120418962865e+01 -1.642155709385e+01 0.0 
3.034666704371e+01 -1.683123833816e+01 0.0 
3.026224379976e+01 -1.772592851714e+01 0.0 
3.046632362943e+01 -1.582232843075e+01 0.0 
1.961344017324e+01 -1.857459447985e+01 0.0 
2.274975894774e+01 -9.532738811922e+00 0.0 
1.833923246887e+01 -2.396746883672e+00 0.0 
1.988859500848e+01 -2.249244376594e+00 0.0 
2.758045562861e+01 -1.086434261689e+01 0.0 
3.247300178163e+01 -1.909930104252e+01 0.0 
3.461947482503e+01 -1.911879848019e+01 0.0 
2.047161538662e+01 -6.941478180358e+00 0.0 
2.750230940214e+01 -1.915490590764e+01 0.0 
3.165081350803e+01 -1.161860780120e+01 0.0 
1.897456727641e+01 -4.889634688522e+00 0.0 
2.549338539756e+01 -1.914858252089e+01 0.0 
3.462873135081e+01 -1.567482276144e+01 0.0 
3.384432415243e+01 -1.512280684518e+01 0.0 
3.471433767690e+01 -1.469086942990e+01 0.0 
3.651470373046e+01 -1.918207952149e+01 0.0 
3.901742690249e+01 -1.345028556517e+01 0.0 
2.153224102692e+01 -1.920169709333e+01 0.0 
1.918382939341e+01 -1.316226275662e+01 0.0 
2.005389162382e+01 -1.271962165174e+01 0.0 
2.011472087878e+01 -1.175029352900e+01 0.0 
3.210679478412e+01 -1.598038618242e+01 0.0 
1.752175226543e+01 -1.914713022656e+01 0.0 
1.696897240059e+01 -1.832772588765e+01 0.0 
1.599682523337e+01 -1.832599992024e+01 0.0 
1.644507199462e+01 -1.743697981535e+01 0.0 
1.549987712903e+01 -1.915192375101e+01 0.0 
3.050250861901e+01 -1.918943550234e+01 0.0 
2.949944061527e+01 -1.922950455235e+01 0.0 
1.375892575273e+01 -6.447160534926e+00 0.0 
1.457223670180e+01 -7.006709243857e+00 0.0 
1.450818793236e+01 -7.965943451779e+00 0.0 
1.538804712402e+01 -7.553409623699e+00 0.0 
1.545817644768e+01 -6.580929593419e+00 0.0 
1.626506893751e+01 -7.129032608911e+00 0.0 
1.619833811522e+01 -8.086588580887e+00 0.0 
1.714448609609e+01 -6.697429609777e+00 0.0 
2.887616543568e+01 -1.668015232137e+01 0.0 
1.349814589130e+01 -1.918225301544e+01 0.0 
1.153887772210e+01 -1.311384581217e+01 0.0 
1.242708159886e+01 -1.267046795531e+01 0.0 
1.249799674267e+01 -1.169005616014e+01 0.0 
6.631723893693e+00 -9.774184881867e+00 0.0 
7.451471631867e+00 -1.033148796006e+01 0.0 
7.377795355458e+00 -1.132196345268e+01 0.0 
5.810931797536e+00 -9.211654212252e+00 0.0 
2.402683899133e+01 -1.441378562320e+01 0.0 
1.249768692036e+01 -1.917388426624e+01 0.0 
1.580373499437e+01 -1.290751860664e+01 0.0 
8.344650507834e+00 -9.898403995170e+00 0.0 
3.750622115305e+01 -1.086526401533e+01 0.0 
3.699391251667e+01 -1.171695900794e+01 0.0 
3.606517829518e+01 -1.173717504500e+01 0.0 
3.650257641795e+01 -1.270047380221e+01 0.0 
3.808951488918e+01 -1.183518714175e+01 0.0 
4.760380962420e+00 -1.162484888315e+01 0.0 
3.861210370848e+00 -1.205657631736e+01 0.0 
3.038284309476e+00 -1.149851280664e+01 0.0 
2.961598794889e+00 -1.248856794980e+01 0.0 
2.138953225512e+00 -1.193212674534e+01 0.0 
2.227383593457e+00 -1.096258903918e+01 0.0 
2.043265419276e+00 -1.292158472959e+01 0.0 
1.252449446028e+00 -1.225502002753e+01 0.0 
3.949985210740e+01 -1.086594001795e+01 0.0 
1.453499444792e+01 -8.768805922472e-01 0.0 
1.403518950933e+01 -1.749965556633e+00 0.0 
1.300715031023e+01 -1.714737233040e+00 0.0 
1.350929389899e+01 -2.527443911291e+00 0.0 
1.449600910711e+01 -2.595486162864e+00 0.0 
1.395693872901e+01 -3.484211041558e+00 0.0 
1.495105865208e+01 -3.364609636216e+00 0.0 
1.508822528740e+01 -1.766586020494e+00 0.0 
1.250223858430e+01 -8.634590186802e-01 0.0 
1.200279523409e+01 -1.709044504992e+00 0.0 
1.150086239419e+01 -8.592789190668e-01 0.0 
1.101482754194e+01 -1.677730591922e+00 0.0 
1.148018564526e+01 -2.659323866909e+00 0.0 
8.800552119754e+00 -3.989875954728e+00 0.0 
3.452790439430e+00 -1.901136170646e+01 0.0 
8.658451825200e-01 -9.503462241795e+00 0.0 
1.694787786797e+00 -9.000589234502e+00 0.0 
1.703436717094e+00 -8.038819004041e+00 0.0 
2.594197971110e+00 -8.563955242845e+00 0.0 
1.630513735412e+00 -9.907244747511e+00 0.0 
8.566859292791e-01 -7.512203837972e+00 0.0 
1.685461277022e+00 -7.164280248030e+00 0.0 
2.506394468801e+00 -8.623386730818e-01 0.0 
2.007475081581e+00 -1.727729545205e+00 0.0 
9.211534699767e-01 -1.628791366312e+00 0.0 
1.500000000020e+00 -2.598063549486e+00 0.0 
2.482078929963e+00 -2.553580088725e+00 0.0 
2.999795253092e+00 -1.732169015019e+00 0.0 
3.999712607169e+00 -1.728832897453e+00 0.0 
4.499752199340e+00 -8.656478679175e-01 0.0 
4.964377774841e+00 -1.730129617941e+00 0.0 
4.425017908337e+00 -2.597541756243e+00 0.0 
5.446573195014e+00 -8.410144840023e-01 0.0 
4.915722346614e+01 -1.550640962770e+01 0.0 
4.826794919243e+01 -1.600000000000e+01 0.0 
1.053139533193e+01 -1.911782884365e+01 0.0 
4.156049861949e+01 -1.095160998589e+01 0.0 
9.494526624416e+00 -8.650570090219e-01 0.0 
4.555762166964e+01 -1.897098103585e+01 0.0 
4.250656411371e+01 -1.914387356218e+01 0.0 
4.350906466345e+01 -1.917234727395e+01 0.0 
8.759665722424e-01 -1.746422130609e+01 0.0 
1.698936011838e+00 -1.795012186674e+01 0.0 
4.742476811029e+01 -1.900090177972e+01 0.0 
7.749196752349e+00 -6.368049313489e+00 0.0 
3.361572113416e+01 -1.798765193915e+01 0.0 
4.484660149212e+01 -1.728661231383e+01 0.0 
1.984038172228e+01 -4.502575320116e+00 0.0 
1.035080352627e+01 -6.166639575753e+00 0.0 
2.753558010652e+00 -1.444909521181e+01 0.0 
7.217069543032e+00 -1.328635391078e+01 0.0 
4.364336727739e+00 -1.655585677381e+01 0.0 
4.595208426108e+00 -1.357919665443e+01 0.0 
6.164967006980e+00 -1.569873454630e+01 0.0 
1.487855768353e+01 -1.826523774028e+01 0.0 
2.791876456372e+00 -4.019632415181e+00 0.0 
4.246464893515e+01 -1.364898659620e+01 0.0 
4.503855590351e+01 -1.329552780944e+01 0.0 
4.407239109604e+01 -1.573900004093e+01 0.0 
5.141054449252e+00 -6.664290382472e+00 0.0 
3.141083947149e+00 -1.055790764912e+01 0.0 
6.196463198741e+00 -4.256497932609e+00 0.0 
2.599618716181e+01 -1.836893455464e+01 0.0 
2.923057372337e+01 -1.098461757645e+01 0.0 
1.168343877486e+01 -1.114079645041e+01 0.0 
6.706222096238e+00 -8.780364234441e+00 0.0 
8.567858614669e+00 -6.943121440850e+00 0.0 
1.123755132901e+01 -5.753525820030e+00 0.0 
2.353456234423e+01 -1.008536320953e+01 0.0 
9.162073319168e+00 -1.045593739109e+01 0.0 
9.676343469685e+00 -1.496493008366e+01 0.0 
4.490637882905e+01 -1.628778970202e+01 0.0 
7.398129387772e+00 -9.639977982323e-01 0.0 
1.049641705805e+01 -1.552503975272e+01 0.0 
9.010356286268e+00 -1.242805042052e+01 0.0 
3.985573925497e+01 -1.399863651620e+01 0.0 
1.816196318262e+01 -1.554066497931e+01 0.0 
1.306332244168e+01 -3.963646550326e+00 0.0 
4.145850903932e+01 -1.608094559275e+01 0.0 
3.794664933633e+01 -1.779020121986e+01 0.0 
3.819614412903e+01 -1.290749321016e+01 0.0 
6.270014188119e+00 -3.255093186826e+00 0.0 
4.251165370388e+01 -1.263870364997e+01 0.0 
1.207347709171e+01 -1.763942826023e+01 0.0 
3.633240829927e+01 -1.577330481104e+01 0.0 
4.319052668832e+00 -6.101812561904e+00 0.0 
1.676492415806e+01 -1.151547901392e+01 0.0 
2.594059220037e+01 -1.074225223009e+01 0.0 
3.340750911501e+01 -9.898764354137e+00 0.0 
4.397619591281e+01 -1.769773736461e+01 0.0 
2.175611595028e+01 -1.185718747128e+01 0.0 
1.641818733106e+01 -1.640685203215e+01 0.0 
1.661211421753e+01 -1.346121366338e+01 0.0 
3.428853504935e+00 -6.551993389271e+00 0.0 
8.700728832502e+00 -1.638460872825e+01 0.0 
1.931369795309e+01 -1.121629383702e+01 0.0 
4.139798872363e+01 -1.706922153459e+01 0.0 
2.647837478700e+01 -1.507353829290e+01 0.0 
1.779469616424e+01 -9.161615782908e+00 0.0 
3.885879219319e+01 -1.642026488918e+01 0.0 
1.338194936770e+01 -1.125916521471e+01 0.0 
1.897071181111e+01 -1.609204322578e+01 0.0 
2.844308548793e+01 -1.046221003096e+01 0.0 
2.659854702194e+01 -1.316109415760e+01 0.0 
2.979604503271e+01 -1.433296157755e+01 0.0 
2.417694041347e+01 -1.251231397779e+01 0.0 
1.807401327411e+00 -1.388891148480e+01 0.0 
9.599810618782e+00 -1.595439365034e+01 0.0 
1.652144692160e+01 -4.205392788472e+00 0.0 
2.367839450246e+01 -8.188385218643e+00 0.0 
3.814894930468e+01 -1.390748338767e+01 0.0 
2.466448215774e+01 -1.685878545680e+01 0.0 
4.134044524611e+01 -1.806610045954e+01 0.0 
2.600511411958e+01 -9.801774120648e+00 0.0 
7.882158050716e+00 -1.582364037353e+01 0.0 
3.881607873422e+01 -1.737970515013e+01 0.0 
8.270182347708e+00 -1.088622154920e+01 0.0 
8.672520392520e-01 -4.532984309881e+00 0.0 
1.993447205337e+01 -3.579061902667e+00 0.0 
1.794616079549e+01 -7.238038888498e+00 0.0 
2.097277068165e+01 -1.132450168636e+01 0.0 
8.194803300681e+00 -1.187214224265e+01 0.0 
3.522279404911e+01 -1.823342818178e+01 0.0 
6.984481050295e+00 -1.625271465557e+01 0.0 
1.309433007797e+01 -1.521718594215e+01 0.0 
2.150246167611e+01 -1.885399038185e+00 0.0 
3.250689370209e+01 -1.028789870535e+01 0.0 
6.085886272238e+00 -1.668342132851e+01 0.0 
1.588455661727e+01 -1.193498985921e+01 0.0 
1.809323400821e+01 -1.651110084195e+01 0.0 
1.348885082381e+00 -1.136065576512e+01 0.0 
2.497670221995e+01 -1.834631276173e+01 0.0 
2.937062818424e+01 -8.233711194470e+00 0.0 
5.185823744469e+00 -1.711566910207e+01 0.0 
1.477497877209e+01 -1.530177014512e+01 0.0 
2.125346158933e+01 -7.473003997367e+00 0.0 
4.751561118290e+01 -1.084897772632e+01 0.0 
5.056026576843e+00 -1.825750475525e+01 0.0 
1.473948554523e+01 -1.634577436309e+01 0.0 
2.410566630936e+01 -1.345970002612e+01 0.0 
1.507337507513e+01 -1.138527895328e+01 0.0 
3.189857338687e+01 -8.887781229006e+00 0.0 
7.298712468334e+00 -1.230231046246e+01 0.0 
2.738235495295e+01 -1.368931690364e+01 0.0 
3.750141041969e+01 -1.920449893070e+01 0.0 
1.557271965640e+01 -1.683317951731e+01 0.0 
3.393731848929e+01 -1.413034777044e+01 0.0 
6.482156824153e+00 -1.174575135362e+01 0.0 
2.077971718439e+01 -1.421279621836e+01 0.0 
3.455084320178e+00 -2.562590040585e+00 0.0 
3.099056096250e+01 -9.270280416035e+00 0.0 
5.580176125418e+00 -1.217387969259e+01 0.0 
1.707247630389e+01 -7.660651981710e+00 0.0 
1.418658814174e+01 -1.180390575393e+01 0.0 
2.049103025389e+01 -1.811296706038e+01 0.0 
4.680386172316e+00 -1.260396879301e+01 0.0 
1.699679896554e+01 -8.624561788199e+00 0.0 
3.779470168555e+00 -1.303424899720e+01 0.0 
3.036589870126e+01 -7.879832518349e+00 0.0 
3.306993001774e+01 -1.457671062095e+01 0.0 
2.840150110165e+00 -1.346530088269e+01 0.0 
2.732011135052e+01 -1.464591214560e+01 0.0 
5.423639259568e+00 -2.659711955016e+00 0.0 
2.324455961696e+01 -1.387269388211e+01 0.0 
1.752768355571e+00 -1.693128613594e+01 0.0 
1.020244783051e+01 -8.076834012808e+00 0.0 
1.330873875224e+01 -1.222417528206e+01 0.0 
3.297727364880e+01 -1.555480372087e+01 0.0 
2.890929955439e+01 -6.868664170731e+00 0.0 
1.323294664622e+01 -1.320754260334e+01 0.0 
2.726532861246e+01 -1.560593120806e+01 0.0 
2.240020643398e+01 -1.429299177247e+01 0.0 
2.090445823633e+01 -1.228128621332e+01 0.0 
1.315809881502e+01 -1.420739326938e+01 0.0 
2.781328038068e+01 -7.181956082300e+00 0.0 
8.614200829057e+00 -5.936933226306e+00 0.0 
8.714765730069e+00 -4.979270529687e+00 0.0 
1.611881701099e+01 -9.041973294003e+00 0.0 
2.806830314340e+01 -1.614622947108e+01 0.0 
2.084435391396e+00 -3.385085422913e+00 0.0 
3.133211811152e+01 -1.542347619750e+01 0.0 
9.693114650768e+00 -3.590281506442e+00 0.0 
1.531883592202e+01 -8.504584946143e+00 0.0 
2.151589117094e+01 -1.578915763018e+01 0.0 
4.918943882696e+01 -1.355538828056e+01 0.0 
1.443236615188e+01 -8.918701794549e+00 0.0 
8.276250966452e-01 -5.537685192197e+00 0.0 
1.362790867918e+01 -8.374718262212e+00 0.0 
2.083767477370e+01 -1.324843956035e+01 0.0 
1.273834678703e+01 -8.790890389337e+00 0.0 
1.192275845670e+01 -8.242261327467e+00 0.0 
4.477236023583e+01 -1.824312396664e+01 0.0 
1.102989384254e+01 -8.649855800911e+00 0.0 
4.849096516045e+01 -1.917293752213e+01 0.0 
1.588996752238e+00 -1.910230934687e+01 0.0 
4.904245197583e+01 -1.159839008158e+01 0.0 
2.753852929608e+01 -5.782128488093e+00 0.0 
1.756133602833e+01 -8.306130313187e-01 0.0 
2.615423700951e+01 -6.153865090092e+00 0.0 
1.028818761294e+01 -7.122020845892e+00 0.0 
2.970818901196e+01 -1.527821347593e+01 0.0 
4.801461623449e+01 -1.164472570985e+01 0.0 
9.455722100419e+00 -6.546069291118e+00 0.0 
3.089099236677e+01 -1.835339328261e+01 0.0 
2.350000000013e+01 -1.920825896750e+01 0.0 
4.830620531887e+01 -1.506626155470e+01 0.0 
1.725381944701e+01 -1.688794487850e+01 0.0 
2.156246225273e+01 -1.475893794002e+01 0.0 
4.919319648787e+01 -1.742767505896e+01 0.0 
4.437935623576e+01 -1.077662927266e+01 0.0 
1.001520521978e+01 -1.652692675208e+00 0.0 
9.067160240050e-01 -1.441937727541e+01 0.0 
2.603365149390e+01 -4.755996613848e+00 0.0 
2.458344439002e+01 -4.873645517696e+00 0.0 
2.304312390142e+01 -3.836552768096e+00 0.0 
2.546923202198e+00 -6.902480355749e+00 0.0 
1.251534969393e+01 -2.490989965776e+00 0.0 
2.454061833377e+01 -3.933354231935e+00 0.0 
1.788186558740e+01 -1.827424884923e+01 0.0 
4.090785243552e+01 -1.166553231904e+01 0.0 
2.230128851568e+01 -1.623015738726e+01 0.0 
2.302362347568e+01 -2.916239960270e+00 0.0 
3.878119254461e+01 -1.830091164002e+01 0.0 
2.210081359958e+01 -1.829238229150e+01 0.0 
8.443704882233e+00 -1.921993252862e+01 0.0 
2.218405824691e+01 -1.724557581508e+01 0.0 
2.151157503963e+01 -2.790636689331e+00 0.0 
3.741658958955e+01 -1.250400191722e+01 0.0 
2.697247663737e+01 -1.838290202309e+01 0.0 
4.743362342862e+01 -1.585850773010e+01 0.0 
6.671345075358e+00 -1.924977576322e+01 0.0 
3.900825404537e+01 -1.157220003875e+01 0.0 
4.649692961375e+01 -1.836335837481e+01 0.0 
1.578831424832e+01 -3.678284023361e+00 0.0 
4.814208768888e+01 -1.841249298770e+01 0.0 
2.964123298315e+01 -1.625739458193e+01 0.0 
4.580760351902e+01 -1.284294554687e+01 0.0 
3.561520879615e+01 -1.245548941949e+01 0.0 
2.555418095658e+00 -1.841101588290e+01 0.0 
3.288468366144e+01 -1.834258164109e+01 0.0 
2.065894391445e+01 -2.240688571739e+00 0.0 
4.739171429915e+01 -1.496536413446e+01 0.0 
3.478086729185e+00 -8.576434653209e+00 0.0 
1.606010630246e+01 -1.588421807951e+00 0.0 
1.018329200594e+01 -1.834320874317e+01 0.0 
2.957213339430e+01 -1.720496954591e+01 0.0 
4.142712790164e+00 -1.837794506222e+01 0.0 
6.698721532573e-01 -2.499999999997e+00 0.0 
8.037039123140e+00 -1.571229354954e+00 0.0 
1.203541361428e+01 -1.847784298001e+01 0.0 
2.899968332038e+01 -1.848264722179e+01 0.0 
1.469229460948e+01 -4.219485753730e+00 0.0 
4.049590781957e+01 -1.932812501995e+01 0.0 
1.996211678340e+01 -1.506329754720e+00 0.0 
4.250588298353e+01 -1.067383247529e+01 0.0 
5.831497011152e+00 -1.635396227234e+00 0.0 
5.317606125670e+00 -1.923927974868e+01 0.0 
4.208546426993e+01 -1.842830665025e+01 0.0 
2.327553405011e+00 -9.459409929662e+00 0.0 
3.568351902251e+01 -1.096637218582e+01 0.0 
1.682104374890e+00 -6.231413350963e+00 0.0 
2.451812238018e+01 -1.766524914339e+01 0.0 
1.058003429638e+01 -2.391839617098e+00 0.0 
4.399988753123e+01 -1.851998776342e+01 0.0 
1.400000000010e+01 -1.852293523028e+01 0.0 
3.604719565984e+01 -1.850662876800e+01 0.0 
1.951297136734e+01 -1.938092349694e+01 0.0 
1.821365318472e+01 -1.531276353287e+00 0.0 
2.298031859732e+01 -1.854635324722e+01 0.0 
1.552168066204e+01 -1.764280741977e+01 0.0 
4.572957713638e+01 -1.073347898229e+01 0.0 
3.429637429624e+01 -1.838861552790e+01 0.0 
2.427434426052e+00 -7.705577451869e+00 0.0 
4.662792031485e+00 -3.359424455416e+00 0.0 
4.926794919243e+01 -1.926794919243e+01 0.0 
7.320508075690e-01 -7.320508075688e-01 0.0 
4.926794919243e+01 -1.073205080757e+01 0.0 
7.320508075705e-01 -1.926794919243e+01 0.0 
2.917460242467e+00 -3.202866455310e+00 0.0 
4.838200575963e+01 -1.232674147454e+01 0.0 
2.998445708009e+01 -1.854403752148e+01 0.0 
5.949940090766e-01 -1.152762038165e+01 0.0 
4.844763495759e+01 -1.678092548787e+01 0.0 
1.301685480160e+01 -3.170056592566e+00 0.0 
1.650046335855e+01 -6.731535384067e-01 0.0 
4.854881540991e+01 -1.405224059779e+01 0.0 
2.119545114693e+01 -1.846813384545e+01 0.0 
3.797852849897e+01 -1.857978513215e+01 0.0 
4.649823708745e+01 -1.338351810816e+01 0.0 
2.012685900976e+01 -2.889659035009e+00 0.0 
2.953271913273e+01 -1.791558075192e+01 0.0 
2.408509097292e+00 -1.021949208421e+01 0.0 
2.642589566221e+01 -1.773216561448e+01 0.0 
1.730010270775e+01 -1.763165076721e+01 0.0 
2.017406551304e+01 -8.513536440582e-01 0.0 
5.254761581934e-01 -1.249999999999e+01 0.0 
6.640448215642e+00 -1.545337834885e+00 0.0 
7.843361506349e+00 -1.852719839527e+01 0.0 
1.588442191088e+00 -1.066158564320e+01 0.0 

CELLS 1919 7676 
3 179 649 925 
3 649 179 927 
3 659 152 670 
3 772 537 961 
3 539 599 765 
3 629 542 668 
3 159 581 583 
3 179 606 927 
3 581 159 599 
3 532 767 961 
3 151 726 727 
3 606 179 941 
3 771 923 967 
3 588 719 809 
3 923 185 967 
3 178 772 961 
3 587 158 728 
3 542 629 667 
3 166 586 908 
3 586 166 846 
3 767 532 920 
3 897 143 903 
3 624 897 903 
3 574 573 783 
3 273 429 718 
3 726 151 835 
3 105 82 988 
3 618 144 860 
3 271 273 718 
3 783 573 993 
3 523 733 735 
3 176 589 766 
3 659 670 968 
3 19 164 639 
3 174 593 595 
3 602 66 959 
3 66 602 985 
3 621 170 665 
3 585 96 938 
3 96 585 999 
3 861 603 887 
3 139 625 764 
3 942 140 946 
3 82 188 988 
3 580 187 937 
3 619 942 946 
3 733 523 736 
3 187 580 963 
3 729 730 736 
3 719 588 960 
3 181 624 861 
3 571 586 846 
3 349 962 980 
3 181 861 887 
3 671 153 851 
3 944 516 989 
3 571 846 915 
3 164 609 639 
3 432 760 878 
3 767 178 961 
3 138 972 1013 
3 952 578 954 
3 398 426 632 
3 962 735 980 
3 743 562 967 
3 624 181 897 
3 972 582 1013 
3 152 659 932 
3 459 420 741 
3 148 607 673 
3 835 778 889 
3 33 32 627 
3 618 860 990 
3 4 5 753 
3 750 944 989 
3 590 155 841 
3 671 851 1000 
3 638 943 950 
3 760 432 1002 
3 943 180 950 
3 420 433 741 
3 158 587 948 
3 143 649 903 
3 649 143 925 
3 599 539 811 
3 581 599 811 
3 610 835 940 
3 18 19 639 
3 664 661 909 
3 539 765 948 
3 766 589 939 
3 190 717 988 
3 763 934 958 
3 958 934 970 
3 156 33 627 
3 665 170 995 
3 587 728 960 
3 764 625 973 
3 184 616 913 
3 632 426 633 
3 765 599 983 
3 185 743 967 
3 346 912 936 
3 577 952 954 
3 467 465 643 
3 730 733 736 
3 770 771 893 
3 536 763 958 
3 138 729 736 
3 866 161 985 
3 311 664 909 
3 4 753 1004 
3 534 630 666 
3 501 817 855 
3 545 747 971 
3 605 632 633 
3 400 398 632 
3 174 595 953 
3 616 184 1008 
3 604 400 632 
3 635 565 910 
3 188 190 988 
3 763 536 1011 
3 400 604 643 
3 955 854 969 
3 620 870 879 
3 747 545 1001 
3 870 145 879 
3 155 590 981 
3 567 955 969 
3 726 835 889 
3 537 772 963 
3 474 531 631 
3 145 603 879 
3 593 174 973 
3 771 528 923 
3 610 778 835 
3 631 531 831 
3 575 703 993 
3 507 623 631 
3 557 768 769 
3 607 148 979 
3 809 719 956 
3 416 388 637 
3 623 474 631 
3 603 145 887 
3 531 669 831 
3 643 469 838 
3 159 583 938 
3 630 265 666 
3 589 176 977 
3 924 930 1008 
3 754 166 908 
3 182 620 855 
3 703 575 712 
3 604 467 643 
3 639 610 940 
3 606 140 942 
3 912 572 936 
3 165 611 612 
3 626 265 630 
3 609 164 893 
3 459 635 910 
3 771 530 893 
3 646 519 674 
3 161 866 975 
3 924 529 930 
3 465 469 643 
3 817 182 855 
3 151 727 1024 
3 140 606 941 
3 265 626 640 
3 388 439 637 
3 611 165 999 
3 469 630 838 
3 620 182 870 
3 513 702 907 
3 747 448 971 
3 144 618 933 
3 673 607 957 
3 605 633 927 
3 448 747 987 
3 690 820 874 
3 623 507 861 
3 606 605 927 
3 646 501 855 
3 630 534 838 
3 154 767 920 
3 277 686 896 
3 164 770 893 
3 619 180 943 
3 475 640 864 
3 661 686 909 
3 81 106 628 
3 507 603 861 
3 863 535 867 
3 759 891 984 
3 774 167 1000 
3 272 197 679 
3 894 253 921 
3 383 863 867 
3 717 190 966 
3 718 429 956 
3 573 575 993 
3 904 795 931 
3 641 212 669 
3 471 361 674 
3 278 272 679 
3 468 646 674 
3 519 646 855 
3 417 877 917 
3 702 551 907 
3 628 162 629 
3 633 649 927 
3 633 426 648 
3 531 641 669 
3 686 656 896 
3 542 541 847 
3 535 634 853 
3 585 611 999 
3 640 626 864 
3 331 853 902 
3 591 801 1025 
3 677 278 679 
3 801 147 1025 
3 759 760 891 
3 180 619 946 
3 904 547 905 
3 651 278 677 
3 547 546 905 
3 527 636 642 
3 353 734 806 
3 565 742 910 
3 820 383 874 
3 519 471 674 
3 562 743 975 
3 106 162 628 
3 436 466 642 
3 226 265 640 
3 624 623 861 
3 634 535 863 
3 602 866 985 
3 888 277 896 
3 335 317 672 
3 383 867 874 
3 835 151 940 
3 669 279 831 
3 678 679 875 
3 578 952 997 
3 226 640 647 
3 466 527 642 
3 196 468 644 
3 627 32 981 
3 212 641 816 
3 685 228 824 
3 612 611 613 
3 741 433 945 
3 468 645 646 
3 435 335 672 
3 541 675 776 
3 523 735 962 
3 278 651 813 
3 361 644 674 
3 400 643 838 
3 651 490 813 
3 686 277 909 
3 279 650 792 
3 146 600 959 
3 476 685 824 
3 204 470 650 
3 534 666 797 
3 476 684 685 
3 318 334 675 
3 716 157 717 
3 230 227 647 
3 347 698 699 
3 678 888 896 
3 106 107 162 
3 468 194 645 
3 317 315 672 
3 391 436 642 
3 320 318 675 
3 199 196 644 
3 589 635 939 
3 427 517 648 
3 476 683 684 
3 644 468 674 
3 716 717 718 
3 437 542 667 
3 347 699 701 
3 348 351 698 
3 633 648 649 
3 678 875 888 
3 426 427 648 
3 313 230 647 
3 640 475 647 
3 437 541 542 
3 666 222 797 
3 566 636 638 
3 37 153 671 
3 39 167 670 
3 213 212 816 
3 334 317 335 
3 390 391 449 
3 205 204 650 
3 334 335 390 
3 347 348 698 
3 279 792 831 
3 768 557 986 
3 672 475 864 
3 877 533 917 
3 566 449 636 
3 171 57 691 
3 390 335 391 
3 210 279 669 
3 437 341 541 
3 713 406 821 
3 227 226 647 
3 351 695 698 
3 470 361 471 
3 42 692 693 
3 315 313 475 
3 476 304 683 
3 450 449 566 
3 681 366 804 
3 853 634 902 
3 466 467 525 
3 540 681 804 
3 169 45 673 
3 443 535 853 
3 41 152 692 
3 809 429 839 
3 664 311 929 
3 527 525 619 
3 472 471 504 
3 204 361 470 
3 204 202 361 
3 280 816 842 
3 144 47 676 
3 271 718 966 
3 645 501 646 
3 475 313 647 
3 546 742 905 
3 504 519 620 
3 466 465 467 
3 165 612 865 
3 351 694 695 
3 315 475 672 
3 655 677 678 
3 436 465 466 
3 470 471 472 
3 304 306 683 
3 479 706 793 
3 50 168 682 
3 507 505 603 
3 319 321 701 
3 560 894 921 
3 526 605 606 
3 525 467 526 
3 661 658 686 
3 210 208 279 
3 517 623 624 
3 472 504 505 
3 54 170 687 
3 170 621 947 
3 658 656 686 
3 678 677 679 
3 706 246 793 
3 398 399 426 
3 318 317 334 
3 316 315 317 
3 212 210 669 
3 493 713 821 
3 261 707 708 
3 654 652 655 
3 321 347 701 
3 395 280 396 
3 650 470 792 
3 397 396 398 
3 152 40 670 
3 167 38 671 
3 167 774 968 
3 479 705 706 
3 490 392 813 
3 466 525 527 
3 314 313 315 
3 541 341 675 
3 427 474 517 
3 715 716 719 
3 681 809 839 
3 691 689 783 
3 662 661 664 
3 196 194 468 
3 203 202 204 
3 341 320 675 
3 738 740 741 
3 265 224 666 
3 218 216 280 
3 224 222 666 
3 135 854 955 
3 612 613 614 
3 742 546 910 
3 391 435 436 
3 57 56 691 
3 325 327 417 
3 189 501 645 
3 166 754 976 
3 816 641 842 
3 226 224 265 
3 202 199 644 
3 148 43 693 
3 504 471 519 
3 208 205 650 
3 261 708 714 
3 652 651 677 
3 479 704 705 
3 44 148 673 
3 41 40 152 
3 37 36 153 
3 39 38 167 
3 201 199 202 
3 655 652 677 
3 660 658 661 
3 398 396 399 
3 426 399 427 
3 710 707 794 
3 654 655 656 
3 46 169 676 
3 569 490 651 
3 683 417 684 
3 569 651 652 
3 410 408 711 
3 218 280 395 
3 517 474 623 
3 390 449 450 
3 156 627 951 
3 397 398 400 
3 791 510 860 
3 707 261 794 
3 352 355 694 
3 171 691 783 
3 436 464 465 
3 42 41 692 
3 167 671 1000 
3 209 208 210 
3 738 739 740 
3 44 43 148 
3 136 687 688 
3 351 352 694 
3 306 325 683 
3 142 51 682 
3 114 137 739 
3 395 396 397 
3 207 205 208 
3 211 210 212 
3 279 208 650 
3 449 391 642 
3 46 45 169 
3 312 230 313 
3 438 437 667 
3 600 146 1026 
3 739 137 740 
3 506 505 507 
3 733 734 735 
3 620 519 855 
3 136 55 687 
3 48 47 144 
3 361 202 644 
3 730 732 733 
3 579 438 667 
3 733 732 734 
3 823 521 836 
3 715 157 716 
3 191 189 645 
3 50 49 168 
3 173 715 719 
3 153 36 680 
3 413 410 711 
3 540 588 681 
3 526 604 605 
3 325 417 683 
3 541 776 847 
3 52 51 142 
3 40 39 670 
3 38 37 671 
3 479 287 704 
3 282 284 710 
3 218 395 797 
3 287 289 704 
3 54 53 170 
3 391 335 435 
3 698 697 699 
3 695 696 697 
3 430 540 804 
3 58 171 703 
3 730 731 732 
3 56 55 136 
3 694 559 695 
3 43 42 693 
3 660 661 662 
3 113 114 739 
3 395 534 797 
3 489 392 490 
3 45 44 673 
3 201 202 203 
3 456 413 457 
3 450 566 567 
3 689 688 690 
3 451 558 559 
3 695 559 696 
3 729 172 730 
3 47 46 676 
3 675 334 776 
3 443 491 535 
3 540 587 588 
3 777 509 796 
3 695 697 698 
3 203 204 205 
3 51 50 682 
3 284 386 710 
3 295 331 401 
3 215 213 216 
3 554 447 555 
3 699 697 700 
3 704 401 705 
3 216 213 816 
3 552 409 826 
3 325 326 327 
3 217 216 218 
3 254 256 714 
3 436 435 464 
3 282 710 794 
3 457 413 711 
3 281 304 476 
3 56 136 691 
3 568 490 569 
3 452 777 796 
3 55 54 687 
3 136 688 689 
3 223 222 224 
3 730 172 731 
3 59 703 712 
3 653 652 654 
3 355 451 694 
3 58 57 171 
3 289 295 704 
3 427 473 474 
3 194 191 645 
3 281 476 824 
3 285 479 793 
3 447 406 713 
3 679 197 875 
3 506 631 831 
3 327 345 346 
3 614 613 615 
3 256 261 714 
3 306 308 325 
3 451 508 558 
3 478 300 779 
3 112 113 737 
3 465 464 469 
3 451 559 694 
3 707 549 708 
3 221 219 222 
3 295 401 704 
3 430 538 540 
3 355 418 451 
3 59 58 703 
3 207 208 209 
3 477 548 549 
3 209 210 211 
3 477 549 707 
3 737 113 739 
3 193 191 194 
3 746 745 747 
3 147 119 761 
3 386 441 477 
3 295 330 331 
3 775 445 800 
3 555 713 857 
3 555 447 713 
3 189 149 501 
3 173 103 715 
3 570 680 873 
3 211 212 213 
3 119 120 761 
3 565 485 742 
3 731 737 738 
3 547 904 931 
3 463 513 907 
3 543 775 800 
3 340 823 836 
3 264 262 773 
3 302 300 478 
3 443 454 491 
3 360 341 437 
3 177 745 746 
3 150 749 750 
3 139 60 712 
3 60 59 712 
3 745 744 748 
3 477 441 548 
3 285 287 479 
3 491 573 574 
3 485 404 742 
3 338 423 443 
3 759 757 760 
3 386 477 710 
3 708 549 709 
3 163 756 757 
3 177 744 745 
3 489 490 568 
3 120 121 758 
3 104 157 715 
3 104 105 157 
3 406 310 821 
3 150 10 749 
3 451 418 508 
3 636 449 642 
3 596 594 597 
3 676 169 791 
3 480 374 807 
3 526 467 604 
3 589 565 635 
3 472 505 506 
3 100 158 765 
3 99 100 765 
3 120 758 761 
3 758 757 759 
3 752 754 755 
3 328 269 403 
3 163 751 756 
3 744 141 748 
3 138 110 729 
3 269 264 773 
3 617 615 637 
3 102 103 173 
3 513 608 702 
3 289 294 295 
3 614 615 616 
3 10 11 749 
3 752 755 756 
3 30 29 768 
3 155 30 768 
3 540 538 587 
3 158 101 728 
3 749 746 750 
3 28 154 769 
3 403 269 773 
3 103 104 715 
3 102 173 728 
3 504 620 879 
3 36 35 680 
3 768 29 769 
3 163 757 758 
3 121 163 758 
3 564 485 565 
3 708 709 845 
3 770 528 771 
3 109 110 138 
3 175 762 763 
3 111 172 729 
3 446 406 447 
3 111 112 172 
3 110 111 729 
3 553 447 554 
3 499 562 563 
3 616 615 617 
3 792 506 831 
3 751 752 756 
3 301 302 781 
3 25 24 772 
3 178 25 772 
3 101 102 728 
3 382 310 406 
3 29 28 769 
3 456 457 572 
3 752 753 754 
3 751 186 752 
3 752 186 753 
3 11 12 177 
3 185 69 743 
3 80 79 187 
3 123 186 751 
3 13 141 744 
3 70 69 185 
3 68 161 743 
3 61 139 764 
3 76 160 762 
3 78 77 175 
3 69 68 743 
3 68 67 161 
3 175 77 762 
3 123 124 186 
3 97 98 159 
3 100 101 158 
3 163 122 751 
3 65 64 146 
3 174 62 764 
3 63 62 174 
3 122 123 751 
3 121 122 163 
3 61 60 139 
3 62 61 764 
3 76 75 160 
3 94 95 165 
3 77 76 762 
3 74 73 184 
3 92 93 529 
3 118 119 147 
3 116 117 176 
3 115 116 766 
3 114 115 137 
3 13 14 141 
3 12 13 744 
3 116 176 766 
3 16 17 151 
3 137 115 766 
3 34 33 156 
3 28 27 154 
3 31 30 155 
3 6 7 166 
3 9 10 150 
3 27 26 767 
3 19 20 164 
3 26 25 178 
3 20 21 770 
3 21 22 528 
3 177 12 744 
3 154 27 767 
3 26 178 767 
3 164 20 770 
3 21 528 770 
3 393 394 778 
3 172 112 737 
3 284 385 386 
3 758 759 761 
3 596 597 598 
3 477 707 710 
3 359 343 780 
3 328 403 404 
3 891 592 984 
3 499 563 780 
3 386 387 441 
3 177 746 749 
3 343 405 780 
3 536 537 580 
3 11 177 749 
3 331 330 338 
3 293 291 344 
3 393 342 394 
3 461 393 778 
3 312 313 314 
3 506 507 631 
3 222 219 797 
3 301 300 302 
3 405 498 499 
3 609 461 610 
3 452 546 547 
3 524 445 532 
3 440 389 445 
3 585 584 611 
3 299 297 300 
3 342 301 781 
3 536 524 537 
3 440 524 536 
3 344 291 803 
3 499 530 562 
3 402 374 480 
3 609 610 639 
3 600 598 601 
3 532 445 775 
3 379 377 380 
3 295 294 330 
3 339 421 422 
3 358 444 452 
3 564 565 589 
3 731 172 737 
3 440 445 524 
3 499 498 530 
3 738 737 739 
3 657 656 658 
3 583 483 584 
3 329 343 359 
3 405 461 498 
3 508 509 560 
3 498 461 609 
3 583 584 585 
3 325 308 326 
3 600 601 602 
3 571 453 586 
3 595 594 596 
3 388 380 389 
3 422 453 516 
3 452 547 777 
3 724 722 725 
3 376 378 482 
3 263 267 282 
3 439 389 440 
3 379 388 416 
3 548 441 720 
3 610 461 778 
3 405 393 461 
3 388 389 439 
3 381 333 419 
3 441 387 442 
3 414 500 576 
3 380 787 800 
3 386 385 387 
3 293 344 779 
3 593 521 594 
3 379 380 388 
3 522 438 579 
3 496 591 592 
3 322 320 341 
3 405 499 780 
3 378 377 379 
3 726 724 727 
3 482 483 581 
3 443 423 454 
3 720 442 721 
3 343 393 405 
3 422 421 453 
3 596 598 600 
3 441 442 720 
3 516 453 571 
3 442 387 789 
3 282 283 284 
3 268 264 269 
3 723 724 726 
3 118 147 801 
3 176 117 801 
3 394 342 781 
3 339 381 421 
3 299 300 301 
3 300 297 779 
3 256 260 261 
3 355 356 418 
3 402 480 481 
3 668 542 1018 
3 284 384 385 
3 491 454 573 
3 421 381 432 
3 482 378 483 
3 581 483 583 
3 484 404 485 
3 520 487 521 
3 373 371 374 
3 339 333 381 
3 556 480 825 
3 481 480 556 
3 276 333 339 
3 605 604 632 
3 270 269 328 
3 343 342 393 
3 721 722 723 
3 569 652 653 
3 402 481 543 
3 329 301 342 
3 299 301 329 
3 328 404 484 
3 329 342 343 
3 373 374 375 
3 723 722 724 
3 376 377 378 
3 375 374 402 
3 228 229 824 
3 787 543 800 
3 387 448 789 
3 721 442 722 
3 384 283 544 
3 258 255 259 
3 376 375 377 
3 250 252 285 
3 268 270 276 
3 496 485 564 
3 373 375 376 
3 268 269 270 
3 593 594 595 
3 380 377 787 
3 329 359 782 
3 136 689 691 
3 387 385 448 
3 276 270 333 
3 484 485 496 
3 298 297 299 
3 379 416 786 
3 496 564 591 
3 282 267 283 
3 586 453 784 
3 376 482 785 
3 284 283 384 
3 297 293 779 
3 384 544 545 
3 445 389 800 
3 267 264 268 
3 292 296 340 
3 452 444 546 
3 296 293 297 
3 725 722 789 
3 298 299 782 
3 699 700 881 
3 453 421 784 
3 584 483 786 
3 446 447 553 
3 396 280 842 
3 378 379 786 
3 358 452 796 
3 370 372 430 
3 421 432 784 
3 597 594 823 
3 382 406 446 
3 327 326 345 
3 481 556 557 
3 285 286 287 
3 419 333 790 
3 290 288 291 
3 520 521 593 
3 508 418 509 
3 299 329 782 
3 377 375 787 
3 352 354 355 
3 292 291 293 
3 538 431 539 
3 422 516 822 
3 263 264 267 
3 215 216 217 
3 296 297 298 
3 427 399 473 
3 217 218 219 
3 372 371 373 
3 483 378 786 
3 430 431 538 
3 722 442 789 
3 460 362 487 
3 287 288 289 
3 482 581 811 
3 659 658 660 
3 346 345 414 
3 292 293 296 
3 375 402 787 
3 256 258 260 
3 260 262 263 
3 328 484 790 
3 289 290 294 
3 263 282 794 
3 372 373 785 
3 430 372 431 
3 232 234 281 
3 773 262 795 
3 314 315 316 
3 263 262 264 
3 260 258 262 
3 270 328 790 
3 338 362 423 
3 251 249 253 
3 402 543 787 
3 247 249 250 
3 289 288 290 
3 285 252 286 
3 221 222 223 
3 333 270 790 
3 460 487 520 
3 460 520 625 
3 407 409 552 
3 256 255 258 
3 287 286 288 
3 373 376 785 
3 261 260 794 
3 395 397 534 
3 267 268 788 
3 418 356 796 
3 254 255 256 
3 268 276 788 
3 339 422 814 
3 286 252 486 
3 290 291 292 
3 425 462 463 
3 117 118 801 
3 243 241 244 
3 247 245 248 
3 254 253 255 
3 431 372 785 
3 250 251 252 
3 283 267 788 
3 251 253 254 
3 389 380 800 
3 544 283 788 
3 496 592 810 
3 790 484 810 
3 509 418 796 
3 258 259 795 
3 243 245 246 
3 250 249 251 
3 358 420 444 
3 419 790 810 
3 681 588 809 
3 788 276 814 
3 338 330 362 
3 411 424 425 
3 195 194 196 
3 434 368 455 
3 463 512 513 
3 229 232 824 
3 409 411 826 
3 356 357 358 
3 254 714 798 
3 225 224 226 
3 348 350 351 
3 420 357 433 
3 260 263 794 
3 247 248 249 
3 246 245 247 
3 544 788 814 
3 250 285 793 
3 243 244 245 
3 239 241 242 
3 262 258 795 
3 309 307 310 
3 370 371 372 
3 239 237 240 
3 423 362 460 
3 355 354 356 
3 573 454 575 
3 246 247 793 
3 513 607 608 
3 206 205 207 
3 356 358 796 
3 198 196 199 
3 488 392 489 
3 246 706 829 
3 469 626 630 
3 200 199 201 
3 280 216 816 
3 358 357 420 
3 590 561 627 
3 444 420 459 
3 621 515 622 
3 775 543 818 
3 332 310 382 
3 785 482 811 
3 369 368 434 
3 242 241 243 
3 281 303 304 
3 518 455 561 
3 292 340 799 
3 367 369 370 
3 446 553 634 
3 356 354 357 
3 367 365 368 
3 676 791 860 
3 460 625 812 
3 251 254 798 
3 431 785 811 
3 539 431 811 
3 247 250 793 
3 294 290 799 
3 330 294 802 
3 484 496 810 
3 316 317 318 
3 235 237 238 
3 239 240 241 
3 219 218 797 
3 518 561 590 
3 654 656 657 
3 543 481 818 
3 474 473 531 
3 364 336 392 
3 290 292 799 
3 556 825 841 
3 337 365 366 
3 252 251 798 
3 235 233 236 
3 367 368 369 
3 434 455 518 
3 374 371 807 
3 370 369 371 
3 521 487 836 
3 514 428 515 
3 487 362 802 
3 291 288 803 
3 603 505 879 
3 309 332 363 
3 274 272 278 
3 276 339 814 
3 238 237 239 
3 555 857 869 
3 304 305 306 
3 321 323 347 
3 235 236 237 
3 306 307 308 
3 472 506 792 
3 486 252 798 
3 366 681 839 
3 599 159 983 
3 84 126 135 
3 288 286 803 
3 332 382 383 
3 653 654 774 
3 281 234 303 
3 286 486 803 
3 370 430 804 
3 85 127 180 
3 309 310 332 
3 305 303 493 
3 470 472 792 
3 294 799 802 
3 351 350 352 
3 362 330 802 
3 454 423 812 
3 308 307 309 
3 371 369 807 
3 415 413 456 
3 423 460 812 
3 86 128 140 
3 366 367 804 
3 576 500 577 
3 369 434 807 
3 306 305 307 
3 234 233 235 
3 876 548 880 
3 360 437 438 
3 480 807 825 
3 814 422 822 
3 87 129 179 
3 412 410 413 
3 481 557 818 
3 352 353 354 
3 214 213 215 
3 366 365 367 
3 845 709 850 
3 347 323 348 
3 469 464 626 
3 433 357 806 
3 352 350 353 
3 354 353 806 
3 304 303 305 
3 680 35 873 
3 88 130 143 
3 594 521 823 
3 231 230 312 
3 275 337 839 
3 322 341 360 
3 575 454 812 
3 357 354 806 
3 545 544 822 
3 326 308 805 
3 243 246 829 
3 414 428 500 
3 397 400 838 
3 274 278 813 
3 514 515 621 
3 367 370 804 
3 654 657 774 
3 365 364 828 
3 364 392 488 
3 334 390 776 
3 597 823 843 
3 337 364 365 
3 228 685 849 
3 89 131 181 
3 514 621 665 
3 319 318 320 
3 544 814 822 
3 414 345 428 
3 166 7 846 
3 220 219 221 
3 309 363 805 
3 488 489 808 
3 489 568 570 
3 308 309 805 
3 455 368 828 
3 229 227 230 
3 411 425 826 
3 90 132 145 
3 660 662 663 
3 91 133 182 
3 134 91 817 
3 232 281 824 
3 82 134 149 
3 502 257 503 
3 223 224 225 
3 235 238 815 
3 348 323 349 
3 232 233 234 
3 434 518 825 
3 657 658 659 
3 340 296 843 
3 500 428 514 
3 242 243 829 
3 364 488 828 
3 234 235 815 
3 598 597 852 
3 368 365 828 
3 392 336 813 
3 310 307 821 
3 229 231 232 
3 425 424 462 
3 203 205 206 
3 348 349 350 
3 319 320 321 
3 534 397 838 
3 211 213 214 
3 601 598 856 
3 337 336 364 
3 232 231 233 
3 407 552 832 
3 363 332 820 
3 807 434 825 
3 463 462 512 
3 429 275 839 
3 535 491 867 
3 303 234 815 
3 332 383 820 
3 217 219 220 
3 561 455 844 
3 513 512 607 
3 305 493 821 
3 321 320 322 
3 415 456 458 
3 220 257 495 
3 229 230 231 
3 307 305 821 
3 338 443 853 
3 321 322 323 
3 493 303 815 
3 198 199 200 
3 601 856 862 
3 200 201 311 
3 412 413 415 
3 195 196 198 
3 192 191 193 
3 206 207 266 
3 515 428 830 
3 823 340 843 
3 275 336 337 
3 489 570 808 
3 193 194 195 
3 312 314 492 
3 415 458 511 
3 825 518 841 
3 221 223 819 
3 220 221 257 
3 231 312 827 
3 336 274 813 
3 473 399 842 
3 502 503 533 
3 399 396 842 
3 345 326 830 
3 511 578 618 
3 236 233 827 
3 360 438 494 
3 568 569 851 
3 531 473 641 
3 869 242 882 
3 511 458 578 
3 275 274 336 
3 799 340 836 
3 225 226 227 
3 494 438 522 
3 862 563 866 
3 214 215 324 
3 327 346 877 
3 462 424 510 
3 522 579 582 
3 802 799 836 
3 435 672 864 
3 273 275 429 
3 344 850 871 
3 233 231 827 
3 598 852 856 
3 495 257 502 
3 312 492 827 
3 214 324 407 
3 494 522 523 
3 409 410 411 
3 326 805 830 
3 608 607 979 
3 411 412 424 
3 319 701 848 
3 296 298 843 
3 518 590 841 
3 665 142 883 
3 428 345 830 
3 228 227 229 
3 407 408 409 
3 780 563 862 
3 724 725 859 
3 411 410 412 
3 337 366 839 
3 597 843 852 
3 487 802 836 
3 94 165 865 
3 529 93 865 
3 198 200 277 
3 409 408 410 
3 478 779 871 
3 206 266 497 
3 503 257 819 
3 690 874 998 
3 225 227 228 
3 34 156 873 
3 190 189 191 
3 257 221 819 
3 344 803 850 
3 316 318 319 
3 486 798 845 
3 407 324 408 
3 209 211 832 
3 273 274 275 
3 497 266 550 
3 497 550 551 
3 755 754 908 
3 798 714 845 
3 641 473 842 
3 201 203 833 
3 311 201 833 
3 622 515 858 
3 7 8 846 
3 349 323 837 
3 215 217 834 
3 714 708 845 
3 91 182 817 
3 149 134 817 
3 273 272 274 
3 390 450 776 
3 850 709 871 
3 383 382 863 
3 323 322 837 
3 144 676 860 
3 828 488 844 
3 549 548 876 
3 843 298 852 
3 760 757 878 
3 446 634 863 
3 324 215 834 
3 756 755 878 
3 455 828 844 
3 322 360 837 
3 203 206 833 
3 211 214 832 
3 239 242 869 
3 705 401 898 
3 488 808 844 
3 401 331 902 
3 220 495 834 
3 217 220 834 
3 126 83 854 
3 360 494 837 
3 412 415 840 
3 192 193 197 
3 415 511 840 
3 464 435 864 
3 656 655 896 
3 510 424 840 
3 501 149 817 
3 424 412 840 
3 298 782 852 
3 711 408 868 
3 486 845 850 
3 803 486 850 
3 569 653 851 
3 706 705 895 
3 214 407 832 
3 685 684 901 
3 331 338 853 
3 819 223 849 
3 848 701 881 
3 713 493 857 
3 492 314 848 
3 206 497 833 
3 492 848 881 
3 266 207 872 
3 515 830 858 
3 830 805 858 
3 223 225 849 
3 271 272 273 
3 852 782 856 
3 782 359 856 
3 450 567 847 
3 266 872 890 
3 601 862 866 
3 517 624 903 
3 478 876 880 
3 135 126 854 
3 856 359 862 
3 316 319 848 
3 727 724 859 
3 877 346 936 
3 271 197 272 
3 192 197 271 
3 324 834 868 
3 90 145 870 
3 182 133 870 
3 359 780 862 
3 898 401 902 
3 555 869 882 
3 382 446 863 
3 815 238 857 
3 314 316 848 
3 133 90 870 
3 190 191 192 
3 93 94 865 
3 805 363 858 
3 225 228 849 
3 514 665 883 
3 498 609 893 
3 493 815 857 
3 602 601 866 
3 881 700 885 
3 577 500 883 
3 834 495 868 
3 457 711 892 
3 491 574 867 
3 255 253 894 
3 832 552 872 
3 857 238 869 
3 209 832 872 
3 626 464 864 
3 572 457 900 
3 238 239 869 
3 779 344 871 
3 207 209 872 
3 969 183 982 
3 684 417 917 
3 638 135 955 
3 419 810 891 
3 478 871 876 
3 425 463 899 
3 197 193 875 
3 89 181 887 
3 35 34 873 
3 83 125 183 
3 145 132 887 
3 554 555 882 
3 548 720 880 
3 505 504 879 
3 911 696 914 
3 895 705 898 
3 408 324 868 
3 417 327 877 
3 662 964 974 
3 776 450 847 
3 709 549 876 
3 880 720 884 
3 773 795 904 
3 188 149 189 
3 193 195 875 
3 18 639 940 
3 757 756 878 
3 582 579 926 
3 742 404 905 
3 720 721 884 
3 236 885 906 
3 697 696 911 
3 701 699 881 
3 302 478 880 
3 198 277 888 
3 884 721 886 
3 236 827 885 
3 872 552 890 
3 588 587 960 
3 346 414 912 
3 721 723 886 
3 302 880 884 
3 88 143 897 
3 240 237 906 
3 886 723 889 
3 160 75 913 
3 74 184 913 
3 181 131 897 
3 781 302 884 
3 559 558 916 
3 638 636 943 
3 500 514 883 
3 546 444 910 
3 916 558 918 
3 901 684 917 
3 132 89 887 
3 723 726 889 
3 9 150 915 
3 188 189 190 
3 781 884 886 
3 242 829 882 
3 871 709 876 
3 629 668 982 
3 937 175 1011 
3 244 241 914 
3 820 690 935 
3 457 892 900 
3 394 781 886 
3 394 886 889 
3 885 700 906 
3 459 741 991 
3 668 969 982 
3 778 394 889 
3 867 574 874 
3 508 560 919 
3 552 826 890 
3 649 648 903 
3 550 266 890 
3 625 139 978 
3 107 108 926 
3 24 23 922 
3 71 70 923 
3 73 72 924 
3 248 245 918 
3 711 868 892 
3 827 492 885 
3 810 592 891 
3 83 183 854 
3 775 818 920 
3 195 198 888 
3 82 149 188 
3 48 144 933 
3 846 8 915 
3 168 49 933 
3 875 195 888 
3 253 249 921 
3 868 495 892 
3 248 918 919 
3 527 619 943 
3 919 560 921 
3 277 200 909 
3 530 498 893 
3 244 914 916 
3 550 890 899 
3 926 108 1013 
3 240 906 911 
3 655 678 896 
3 259 255 894 
3 560 509 928 
3 495 502 892 
3 734 353 980 
3 87 179 925 
3 143 130 925 
3 259 928 931 
3 554 882 895 
3 819 849 901 
3 890 826 899 
3 659 660 932 
3 131 88 897 
3 762 160 934 
3 607 512 957 
3 492 881 885 
3 135 638 950 
3 648 517 903 
3 829 706 895 
3 497 551 929 
3 882 829 895 
3 542 847 1018 
3 553 554 898 
3 619 525 942 
3 849 685 901 
3 554 895 898 
3 892 502 900 
3 416 637 1017 
3 795 259 931 
3 566 638 955 
3 553 898 902 
3 526 606 942 
3 926 579 996 
3 187 79 937 
3 78 175 937 
3 740 137 939 
3 634 553 902 
3 403 904 905 
3 403 773 904 
3 899 463 907 
3 502 533 900 
3 826 425 899 
3 240 911 914 
3 96 97 938 
3 174 764 973 
3 404 403 905 
3 363 820 935 
3 503 819 901 
3 586 784 908 
3 311 833 929 
3 237 236 906 
3 738 741 945 
3 700 697 911 
3 17 18 940 
3 200 311 909 
3 444 459 910 
3 727 859 1010 
3 551 550 907 
3 414 576 912 
3 894 560 928 
3 915 150 989 
3 503 901 917 
3 75 74 913 
3 732 731 945 
3 791 169 957 
3 670 167 968 
3 184 924 1008 
3 627 561 951 
3 692 152 932 
3 241 240 914 
3 244 916 918 
3 688 687 947 
3 162 107 926 
3 8 9 915 
3 727 1010 1024 
3 259 894 928 
3 696 559 916 
3 86 140 941 
3 179 129 941 
3 587 538 948 
3 906 700 911 
3 822 516 944 
3 456 572 949 
3 146 64 953 
3 63 174 953 
3 245 244 918 
3 173 719 960 
3 582 926 1013 
3 85 180 946 
3 735 734 980 
3 140 128 946 
3 533 503 917 
3 558 508 919 
3 914 696 916 
3 736 523 972 
3 580 937 1011 
3 918 558 919 
3 532 775 920 
3 440 536 958 
3 772 24 922 
3 70 185 923 
3 184 73 924 
3 248 919 921 
3 130 87 925 
3 249 248 921 
3 66 65 959 
3 84 135 950 
3 180 127 950 
3 622 858 935 
3 765 158 948 
3 537 524 961 
3 550 899 907 
3 576 577 954 
3 662 664 964 
3 613 611 965 
3 928 777 931 
3 509 777 928 
3 934 160 1014 
3 949 576 954 
3 157 105 988 
3 529 865 930 
3 612 614 930 
3 611 584 965 
3 494 523 962 
3 777 547 931 
3 557 769 992 
3 786 416 965 
3 142 665 995 
3 660 663 932 
3 833 497 929 
3 844 808 951 
3 448 385 971 
3 384 545 971 
3 625 520 973 
3 138 736 972 
3 571 915 989 
3 49 48 933 
3 6 166 976 
3 865 612 930 
3 689 690 998 
3 564 589 977 
3 147 761 984 
3 31 155 981 
3 99 765 983 
3 841 155 986 
3 688 947 1022 
3 159 98 983 
3 162 926 996 
3 772 922 963 
3 419 891 1002 
3 557 556 986 
3 67 66 985 
3 657 659 968 
3 349 837 962 
3 719 716 956 
3 747 745 987 
3 572 912 949 
3 52 142 995 
3 763 762 934 
3 170 53 995 
3 523 522 972 
3 600 602 959 
3 350 349 980 
3 755 908 1007 
3 171 783 993 
3 680 570 994 
3 590 627 981 
3 583 585 938 
3 190 192 966 
3 636 527 943 
3 692 932 1009 
3 750 746 1001 
3 567 969 1018 
3 912 576 949 
3 95 96 999 
3 570 568 994 
3 3 80 1003 
3 23 3 1003 
3 124 0 1004 
3 0 4 1004 
3 72 1 1005 
3 1 92 1005 
3 2 71 1006 
3 22 2 1006 
3 753 186 1004 
3 109 138 1013 
3 866 563 975 
3 511 618 990 
3 432 381 1002 
3 596 600 1026 
3 16 151 1024 
3 141 14 1010 
3 637 615 1017 
3 806 734 1012 
3 572 900 936 
3 891 760 1002 
3 789 448 1020 
3 932 663 1009 
3 79 78 937 
3 859 141 1010 
3 614 616 1008 
3 510 791 1021 
3 964 702 974 
3 929 551 964 
3 97 159 938 
3 533 877 936 
3 851 653 1000 
3 516 571 989 
3 137 766 939 
3 462 510 1021 
3 858 363 935 
3 734 732 1012 
3 617 934 1014 
3 743 161 975 
3 510 840 990 
3 860 510 990 
3 151 17 940 
3 628 629 982 
3 129 86 941 
3 525 526 942 
3 716 718 956 
3 900 533 936 
3 818 557 992 
3 687 170 947 
3 731 738 945 
3 740 939 991 
3 128 85 946 
3 637 439 970 
3 545 822 944 
3 808 570 1016 
3 908 784 1007 
3 621 622 947 
3 538 539 948 
3 682 168 952 
3 458 456 949 
3 718 717 966 
3 712 575 978 
3 570 873 1016 
3 922 187 963 
3 127 84 950 
3 561 844 951 
3 169 673 957 
3 947 622 1022 
3 458 949 954 
3 64 63 953 
3 664 929 964 
3 81 628 1023 
3 567 566 955 
3 663 662 974 
3 429 809 956 
3 530 771 967 
3 578 458 954 
3 146 953 1026 
3 439 440 958 
3 142 682 1015 
3 812 625 978 
3 575 812 978 
3 944 750 1001 
3 65 146 959 
3 728 173 960 
3 524 532 961 
3 741 740 991 
3 536 580 1011 
3 617 637 970 
3 753 5 976 
3 837 494 962 
3 551 702 964 
3 155 768 986 
3 580 537 963 
3 883 142 1015 
3 584 786 965 
3 176 801 977 
3 667 629 996 
3 801 591 977 
3 635 459 991 
3 125 81 1023 
3 448 987 1020 
3 562 530 967 
3 774 657 968 
3 192 271 966 
3 385 384 971 
3 520 593 973 
3 574 783 998 
3 952 168 997 
3 791 957 1021 
3 702 608 974 
3 939 635 991 
3 522 582 972 
3 563 562 975 
3 754 753 976 
3 5 6 976 
3 854 183 969 
3 591 564 977 
3 139 712 978 
3 148 693 979 
3 920 818 992 
3 168 933 997 
3 874 574 998 
3 965 416 1017 
3 32 31 981 
3 353 350 980 
3 98 99 983 
3 732 945 1012 
3 761 759 984 
3 161 67 985 
3 717 157 988 
3 878 755 1007 
3 745 748 987 
3 979 693 1009 
3 556 841 986 
3 153 680 994 
3 150 750 989 
3 579 667 996 
3 953 595 1026 
3 922 23 1003 
3 71 923 1006 
3 924 72 1005 
3 783 689 998 
3 432 878 1007 
3 951 808 1016 
3 147 984 1025 
3 703 171 993 
3 851 153 994 
3 629 162 996 
3 840 511 990 
3 439 958 970 
3 769 154 992 
3 53 52 995 
3 160 913 1014 
3 693 692 1009 
3 568 851 994 
3 934 617 970 
3 979 1009 1019 
3 746 747 1001 
3 165 95 999 
3 618 578 997 
3 80 187 1003 
3 186 124 1004 
3 92 529 1005 
3 528 22 1006 
3 381 419 1002 
3 690 688 1022 
3 653 774 1000 
3 154 920 992 
3 784 432 1007 
3 969 668 1018 
3 14 15 1010 
3 175 763 1011 
3 108 109 1013 
3 873 156 1016 
3 616 617 1014 
3 433 806 1012 
3 615 613 1017 
3 933 618 997 
3 1010 15 1024 
3 183 125 1023 
3 545 944 1001 
3 725 789 1020 
3 15 16 1024 
3 577 883 1015 
3 748 141 1027 
3 859 725 1027 
3 592 591 1025 
3 595 596 1026 
3 512 462 1021 
3 847 567 1018 
3 187 922 1003 
3 923 528 1006 
3 529 924 1005 
3 913 616 1014 
3 1020 748 1027 
3 725 1020 1027 
3 141 859 1027 
3 622 935 1022 
3 945 433 1012 
3 957 512 1021 
3 930 614 1008 
3 156 951 1016 
3 935 690 1022 
3 613 965 1017 
3 663 974 1019 
3 952 577 1015 
3 682 952 1015 
3 982 183 1023 
3 974 608 1019 
3 608 979 1019 
3 984 592 1025 
3 987 748 1020 
3 628 982 1023 
3 1009 663 1019 

CELL_TYPES 1919
5
5
5
5
5
5
5
5
5
5
5
5
5
5
5
5
5
5
5
5
5
5
5
5
5
5
5
5
5
5
5
5
5
5
5
5
5
5
5
5
5
5
5
5
5
5
5
5
5
5
5
5
5
5
5
5
5
5
5
5
5
5
5
5
5
5
5
5
5
5
5
5
5
5
5
5
5
5
5
5
5
5
5
5
5
5
5
5
5
5
5
5
5
5
5
5
5
5
5
5
5
5
5
5
5
5
5
5
5
5
5
5
5
5
5
5
5
5
5
5
5
5
5
5
5
5
5
5
5
5
5
5
5
5
5
5
5
5
5
5
5
5
5
5
5
5
5
5
5
5
5
5
5
5
5
5
5
5
5
5
5
5
5
5
5
5
5
5
5
5
5
5
5
5
5
5
5
5
5
5
5
5
5
5
5
5
5
5
5
5
5
5
5
5
5
5
5
5
5
5
5
5
5
5
5
5
5
5
5
5
5
5
5
5
5
5
5
5
5
5
5
5
5
5
5
5
5
5
5
5
5
5
5
5
5
5
5
5
5
5
5
5
5
5
5
5
5
5
5
5
5
5
5
5
5
5
5
5
5
5
5
5
5
5
5
5
5
5
5
5
5
5
5
5
5
5
5
5
5
5
5
5
5
5
5
5
5
5
5
5
5
5
5
5
5
5
5
5
5
5
5
5
5
5
5
5
5
5
5
5
5
5
5
5
5
5
5
5
5
5
5
5
5
5
5
5
5
5
5
5
5
5
5
5
5
5
5
5
5
5
5
5
5
5
5
5
5
5
5
5
5
5
5
5
5
5
5
5
5
5
5
5
5
5
5
5
5
5
5
5
5
5
5
5
5
5
5
5
5
5
5
5
5
5
5
5
5
5
5
5
5
5
5
5
5
5
5
5
5
5
5
5
5
5
5
5
5
5
5
5
5
5
5
5
5
5
5
5
5
5
5
5
5
5
5
5
5
5
5
5
5
5
5
5
5
5
5
5
5
5
5
5
5
5
5
5
5
5
5
5
5
5
5
5
5
5
5
5
5
5
5
5
5
5
5
5
5
5
5
5
5
5
5
5
5
5
5
5
5
5
5
5
5
5
5
5
5
5
5
5
5
5
5
5
5
5
5
5
5
5
5
5
5
5
5
5
5
5
5
5
5
5
5
5
5
5
5
5
5
5
5
5
5
5
5
5
5
5
5
5
5
5
5
5
5
5
5
5
5
5
5
5
5
5
5
5
5
5
5
5
5
5
5
5
5
5
5
5
5
5
5
5
5
5
5
5
5
5
5
5
5
5
5
5
5
5
5
5
5
5
5
5
5
5
5
5
5
5
5
5
5
5
5
5
5
5
5
5
5
5
5
5
5
5
5
5
5
5
5
5
5
5
5
5
5
5
5
5
5
5
5
5
5
5
5
5
5
5
5
5
5
5
5
5
5
5
5
5
5
5
5
5
5
5
5
5
5
5
5
5
5
5
5
5
5
5
5
5
5
5
5
5
5
5
5
5
5
5
5
5
5
5
5
5
5
5
5
5
5
5
5
5
5
5
5
5
5
5
5
5
5
5
5
5
5
5
5
5
5
5
5
5
5
5
5
5
5
5
5
5
5
5
5
5
5
5
5
5
5
5
5
5
5
5
5
5
5
5
5
5
5
5
5
5
5
5
5
5
5
5
5
5
5
5
5
5
5
5
5
5
5
5
5
5
5
5
5
5
5
5
5
5
5
5
5
5
5
5
5
5
5
5
5
5
5
5
5
5
5
5
5
5
5
5
5
5
5
5
5
5
5
5
5
5
5
5
5
5
5
5
5
5
5
5
5
5
5
5
5
5
5
5
5
5
5
5
5
5
5
5
5
5
5
5
5
5
5
5
5
5
5
5
5
5
5
5
5
5
5
5
5
5
5
5
5
5
5
5
5
5
5
5
5
5
5
5
5
5
5
5
5
5
5
5
5
5
5
5
5
5
5
5
5
5
5
5
5
5
5
5
5
5
5
5
5
5
5
5
5
5
5
5
5
5
5
5
5
5
5
5
5
5
5
5
5
5
5
5
5
5
5
5
5
5
5
5
5
5
5
5
5
5
5
5
5
5
5
5
5
5
5
5
5
5
5
5
5
5
5
5
5
5
5
5
5
5
5
5
5
5
5
5
5
5
5
5
5
5
5
5
5
5
5
5
5
5
5
5
5
5
5
5
5
5
5
5
5
5
5
5
5
5
5
5
5
5
5
5
5
5
5
5
5
5
5
5
5
5
5
5
5
5
5
5
5
5
5
5
5
5
5
5
5
5
5
5
5
5
5
5
5
5
5
5
5
5
5
5
5
5
5
5
5
5
5
5
5
5
5
5
5
5
5
5
5
5
5
5
5
5
5
5
5
5
5
5
5
5
5
5
5
5
5
5
5
5
5
5
5
5
5
5
5
5
5
5
5
5
5
5
5
5
5
5
5
5
5
5
5
5
5
5
5
5
5
5
5
5
5
5
5
5
5
5
5
5
5
5
5
5
5
5
5
5
5
5
5
5
5
5
5
5
5
5
5
5
5
5
5
5
5
5
5
5
5
5
5
5
5
5
5
5
5
5
5
5
5
5
5
5
5
5
5
5
5
5
5
5
5
5
5
5
5
5
5
5
5
5
5
5
5
5
5
5
5
5
5
5
5
5
5
5
5
5
5
5
5
5
5
5
5
5
5
5
5
5
5
5
5
5
5
5
5
5
5
5
5
5
5
5
5
5
5
5
5
5
5
5
5
5
5
5
5
5
5
5
5
5
5
5
5
5
5
5
5
5
5
5
5
5
5
5
5
5
5
5
5
5
5
5
5
5
5
5
5
5
5
5
5
5
5
5
5
5
5
5
5
5
5
5
5
5
5
5
5
5
5
5
5
5
5
5
5
5
5
5
5
5
5
5
5
5
5
5
5
5
5
5
5
5
5
5
5
5
5
5
5
5
5
5
5
5
5
5
5
5
5
5
5
5
5
5
5
5
5
5
5
5
5
5
5
5
5
5
5
5
5
5
5
5
5
5
5
5
5
5
5
5
5
5
5
5
5
5
5
5
5
5
5
5
5
5
5
5
5
5
5
5
5
5
5
5
5
5
5
5
5
5
5
5
5
5
5
5
5
5
5
5
5
5
5
5
5
5
5
5
5
5
5
5
5
5
5
5
5
5
5
5
5
5
5
5
5
5
5
5
5
5
5
5
5
5
5
5
5
5
5
5
5
5
5
5
5
5
5
5
5
5
5
5
5
5
5
5
5
5
5
5
5
5
5
5
5
5
5
5
5
5
5
5
5
5
5
5
5
5
5
5
5
5
5
5
5
5
5
5
5
5
5
5
5
5
5
5
5
5
5
5
5
5
5
5
5
5
5
5
5
5
5
5
5
5
5
5
5
5
5
5
5
5
5
5
5
5
5
5
5
5
5
5
5
5
5
5
5
5
5
5
5
5
5
5
5
5
5
5
5
5
5
5
5
5
5
5
5
5
5
5
5
5
5
5
5
5
5
5
5
5
5
5
5
5
5
5
5
5
5
5
5
5
5
5
5
5
5
5
5
5
5
5
5
5
5
5
5
5
5
5
5
5
5
5
5
5
5
5
5
5
5
5
5
5
5
5
5
5
5
5
5
5
5
5
5
5
5
5
5
5
5
5
5
5
5
5
5
5
5
5
5
5
5
5
5
5
5
5
5
5
5
5
5
5
5
5
5
5
5
5
5
5
5
5
5
5
5
5
5
5
5
5
5
5
5
5
5
5
5
5
5
5
5
5
5
5
5
5
5
5
5
5
5
5
5
5
5
5
5
5
5
5
5
5
5
5
5
5
5
5
5
5
5
5
5
5
5
5
5
5
5
5
5
5
5
5
5
5
5
5
5
5
5
5
5
5
5
5
5
5
5
5
5
5
5
5
5
5
5
5
5
5
5
5
5
5
5
5
5
5
5
5
5
5
5
5
5
5
5
5
5
5
5
5
5
5
5
5
5
5
5
5
5
5
5
5
5
5
5
5
5
5
5
5
5
5
5
5
5
5
5
5
5
5
5
5
5
5
5
5
5
5
5
5
5
5
5
5
5
5
5
5
5
5
5
5
5
5
5
5
5
5
5
5
5
5
5
5
5
5
5
5
5
5
5
5
5
5
5
5
5
5
5
5
5
5
5
5
5
5
5
5
5
5
5
5
5
5
5
5
5
5
5
5
5
5
5
5
5
5
5
5
5
5
5
5
5
5
5
5
5
5
5
5
5
5
5
5
5
5
5
5
5
5
5
5
5
5
5
5
5
5
5
5
5
5
5
5
5
5
5
5
5
5
5
5
5
5
5
5
5

POINT_DATA 1028

VECTORS coord float
0.0 0.0 0.0 
5.000000000000e+01 -1.000000000000e+01 0.0 
0.0 -2.000000000000e+01 0.0 
5.000000000000e+01 -2.000000000000e+01 0.0 
0.0 -9.999999999991e-01 0.0 
0.0 -1.999999999998e+00 0.0 
0.0 -2.999999999997e+00 0.0 
0.0 -3.999999999994e+00 0.0 
0.0 -4.999999999991e+00 0.0 
0.0 -5.999999999988e+00 0.0 
0.0 -6.999999999985e+00 0.0 
0.0 -7.999999999982e+00 0.0 
0.0 -8.999999999983e+00 0.0 
0.0 -9.999999999985e+00 0.0 
0.0 -1.099999999999e+01 0.0 
0.0 -1.199999999999e+01 0.0 
0.0 -1.299999999999e+01 0.0 
0.0 -1.399999999999e+01 0.0 
0.0 -1.499999999999e+01 0.0 
0.0 -1.599999999999e+01 0.0 
0.0 -1.700000000000e+01 0.0 
0.0 -1.800000000000e+01 0.0 
0.0 -1.900000000000e+01 0.0 
4.900000000001e+01 -2.000000000000e+01 0.0 
4.800000000001e+01 -2.000000000000e+01 0.0 
4.700000000002e+01 -2.000000000000e+01 0.0 
4.600000000003e+01 -2.000000000000e+01 0.0 
4.500000000004e+01 -2.000000000000e+01 0.0 
4.400000000004e+01 -2.000000000000e+01 0.0 
4.300000000005e+01 -2.000000000000e+01 0.0 
4.200000000006e+01 -2.000000000000e+01 0.0 
4.100000000006e+01 -2.000000000000e+01 0.0 
4.000000000007e+01 -2.000000000000e+01 0.0 
3.900000000008e+01 -2.000000000000e+01 0.0 
3.800000000009e+01 -2.000000000000e+01 0.0 
3.700000000009e+01 -2.000000000000e+01 0.0 
3.600000000010e+01 -2.000000000000e+01 0.0 
3.500000000011e+01 -2.000000000000e+01 0.0 
3.400000000011e+01 -2.000000000000e+01 0.0 
3.300000000012e+01 -2.000000000000e+01 0.0 
3.200000000013e+01 -2.000000000000e+01 0.0 
3.100000000013e+01 -2.000000000000e+01 0.0 
3.000000000013e+01 -2.000000000000e+01 0.0 
2.900000000013e+01 -2.000000000000e+01 0.0 
2.800000000013e+01 -2.000000000000e+01 0.0 
2.700000000013e+01 -2.000000000000e+01 0.0 
2.600000000013e+01 -2.000000000000e+01 0.0 
2.500000000013e+01 -2.000000000000e+01 0.0 
2.400000000013e+01 -2.000000000000e+01 0.0 
2.300000000013e+01 -2.000000000000e+01 0.0 
2.200000000013e+01 -2.000000000000e+01 0.0 
2.100000000013e+01 -2.000000000000e+01 0.0 
2.000000000013e+01 -2.000000000000e+01 0.0 
1.900000000013e+01 -2.000000000000e+01 0.0 
1.800000000013e+01 -2.000000000000e+01 0.0 
1.700000000012e+01 -2.000000000000e+01 0.0 
1.600000000011e+01 -2.000000000000e+01 0.0 
1.500000000011e+01 -2.000000000000e+01 0.0 
1.400000000010e+01 -2.000000000000e+01 0.0 
1.300000000009e+01 -2.000000000000e+01 0.0 
1.200000000009e+01 -2.000000000000e+01 0.0 
1.100000000008e+01 -2.000000000000e+01 0.0 
1.000000000007e+01 -2.000000000000e+01 0.0 
9.000000000064e+00 -2.000000000000e+01 0.0 
8.000000000057e+00 -2.000000000000e+01 0.0 
7.000000000050e+00 -2.000000000000e+01 0.0 
6.000000000043e+00 -2.000000000000e+01 0.0 
5.000000000036e+00 -2.000000000000e+01 0.0 
4.000000000028e+00 -2.000000000000e+01 0.0 
3.000000000021e+00 -2.000000000000e+01 0.0 
2.000000000014e+00 -2.000000000000e+01 0.0 
1.000000000007e+00 -2.000000000000e+01 0.0 
5.000000000000e+01 -1.100000000000e+01 0.0 
5.000000000000e+01 -1.200000000000e+01 0.0 
5.000000000000e+01 -1.300000000000e+01 0.0 
5.000000000000e+01 -1.400000000000e+01 0.0 
5.000000000000e+01 -1.500000000000e+01 0.0 
5.000000000000e+01 -1.600000000000e+01 0.0 
5.000000000000e+01 -1.700000000000e+01 0.0 
5.000000000000e+01 -1.800000000000e+01 0.0 
5.000000000000e+01 -1.900000000000e+01 0.0 
2.000000000000e+01 0.0 0.0 
3.500000000000e+01 -1.000000000000e+01 0.0 
2.150000000000e+01 -1.000000000000e+00 0.0 
2.300000000000e+01 -2.000000000000e+00 0.0 
2.450000000000e+01 -3.000000000000e+00 0.0 
2.600000000000e+01 -4.000000000000e+00 0.0 
2.750000000000e+01 -5.000000000000e+00 0.0 
2.900000000000e+01 -6.000000000000e+00 0.0 
3.050000000000e+01 -7.000000000000e+00 0.0 
3.200000000000e+01 -8.000000000000e+00 0.0 
3.350000000000e+01 -9.000000000000e+00 0.0 
4.900000000000e+01 -1.000000000000e+01 0.0 
4.800000000000e+01 -1.000000000000e+01 0.0 
4.700000000000e+01 -1.000000000000e+01 0.0 
4.600000000000e+01 -1.000000000000e+01 0.0 
4.500000000000e+01 -1.000000000000e+01 0.0 
4.400000000000e+01 -1.000000000000e+01 0.0 
4.300000000000e+01 -1.000000000000e+01 0.0 
4.200000000000e+01 -1.000000000000e+01 0.0 
4.100000000000e+01 -1.000000000000e+01 0.0 
4.000000000000e+01 -1.000000000000e+01 0.0 
3.900000000000e+01 -1.000000000000e+01 0.0 
3.800000000000e+01 -1.000000000000e+01 0.0 
3.700000000000e+01 -1.000000000000e+01 0.0 
3.600000000000e+01 -1.000000000000e+01 0.0 
1.900000000000e+01 0.0 0.0 
1.800000000000e+01 0.0 0.0 
1.700000000000e+01 0.0 0.0 
1.600000000000e+01 0.0 0.0 
1.500000000000e+01 0.0 0.0 
1.400000000000e+01 0.0 0.0 
1.300000000000e+01 0.0 0.0 
1.200000000000e+01 0.0 0.0 
1.100000000000e+01 0.0 0.0 
1.000000000000e+01 0.0 0.0 
9.000000000000e+00 0.0 0.0 
8.000000000000e+00 0.0 0.0 
7.000000000000e+00 0.0 0.0 
6.000000000000e+00 0.0 0.0 
5.000000000000e+00 0.0 0.0 
4.000000000000e+00 0.0 0.0 
3.000000000000e+00 0.0 0.0 
2.000000000000e+00 0.0 0.0 
1.000000000000e+00 0.0 0.0 
2.075000000000e+01 -5.000000000006e-01 0.0 
2.225000000000e+01 -1.500000000000e+00 0.0 
2.375000000000e+01 -2.500000000000e+00 0.0 
2.525000000000e+01 -3.500000000000e+00 0.0 
2.675000000000e+01 -4.500000000000e+00 0.0 
2.825000000000e+01 -5.500000000000e+00 0.0 
2.975000000000e+01 -6.500000000000e+00 0.0 
3.125000000000e+01 -7.500000000000e+00 0.0 
3.275000000000e+01 -8.500000000000e+00 0.0 
3.425000000000e+01 -9.500000000000e+00 0.0 
2.226951693683e+01 -2.403913980114e+00 0.0 
1.650149491944e+01 -1.913490915758e+01 0.0 
1.050042386896e+01 -8.504605092970e-01 0.0 
1.553146524712e+01 -8.281255032105e-01 0.0 
1.150000000008e+01 -1.913397459621e+01 0.0 
2.530060260647e+01 -4.428336431260e+00 0.0 
8.651114563942e-01 -1.052096295641e+01 0.0 
2.050000000013e+01 -1.913397459622e+01 0.0 
2.819198729811e+01 -6.399519052838e+00 0.0 
2.445670302931e+01 -1.915649188023e+01 0.0 
3.117591465718e+01 -8.394293040695e+00 0.0 
7.465053044742e+00 -1.920411160581e+01 0.0 
6.398295709691e+00 -8.230098819370e-01 0.0 
2.849659607461e+01 -1.914296187762e+01 0.0 
3.418732642882e+01 -1.040265792588e+01 0.0 
8.386450935063e-01 -6.533605142809e+00 0.0 
9.178661865596e-01 -1.329769195597e+01 0.0 
3.149448624493e+01 -1.910466733764e+01 0.0 
3.552916747426e+01 -1.914628590759e+01 0.0 
4.449210346537e+01 -1.914359085008e+01 0.0 
4.140975975145e+01 -1.906941860733e+01 0.0 
3.847475958753e+01 -1.916622382724e+01 0.0 
3.653774794640e+01 -1.088712800241e+01 0.0 
4.047886341787e+01 -1.090139014048e+01 0.0 
4.348006339825e+01 -1.092792621489e+01 0.0 
4.919519968029e+01 -1.451526755068e+01 0.0 
4.500000000032e+00 -1.913397459621e+01 0.0 
1.856136921614e+01 -8.212235170404e-01 0.0 
3.499895312306e+00 -8.661165539723e-01 0.0 
9.076088696565e-01 -1.642306201891e+01 0.0 
4.655174095477e+01 -1.086183387525e+01 0.0 
9.430688970604e-01 -3.496112672958e+00 0.0 
3.353992337063e+01 -1.901202090820e+01 0.0 
2.249746016977e+01 -1.921262287282e+01 0.0 
2.650122741777e+01 -1.916123026018e+01 0.0 
1.863571384842e+01 -1.908325534840e+01 0.0 
1.450089971693e+01 -1.917691901860e+01 0.0 
1.350044695317e+01 -8.659695299584e-01 0.0 
3.849987469880e+01 -1.084154983397e+01 0.0 
9.454419857884e+00 -1.900818879936e+01 0.0 
4.917398660523e+01 -1.645692866081e+01 0.0 
8.500000000000e+00 -8.660254037844e-01 0.0 
8.660319230785e-01 -8.500111697188e+00 0.0 
4.649022621545e+01 -1.930506220113e+01 0.0 
2.667688107845e+01 -5.420288124331e+00 0.0 
2.379251615665e+01 -3.412225477429e+00 0.0 
2.966631491830e+01 -7.389030232731e+00 0.0 
3.267915035995e+01 -9.396934932445e+00 0.0 
2.074836922338e+01 -1.320054020319e+00 0.0 
4.915985743621e+01 -1.261973384855e+01 0.0 
2.527129768623e+00 -1.931592414663e+01 0.0 
1.538676247410e+00 -8.436956619311e-01 0.0 
4.908096641539e+01 -1.842484004551e+01 0.0 
3.478612492673e+01 -1.090889364140e+01 0.0 
3.409757055860e+01 -1.131991530427e+01 0.0 
3.501895309466e+01 -1.177687842717e+01 0.0 
3.407758073088e+01 -1.224293381580e+01 0.0 
3.484541875390e+01 -1.277051428430e+01 0.0 
3.400322025842e+01 -1.319022775640e+01 0.0 
3.321672625034e+01 -1.266779191233e+01 0.0 
3.315244139236e+01 -1.360984106532e+01 0.0 
3.236335186892e+01 -1.308463225210e+01 0.0 
3.478337442841e+01 -1.372341158982e+01 0.0 
3.230105923633e+01 -1.403023731610e+01 0.0 
3.150954055289e+01 -1.350301767700e+01 0.0 
3.144604792090e+01 -1.444931742516e+01 0.0 
3.065653897123e+01 -1.392357262981e+01 0.0 
3.071897610812e+01 -1.297447031198e+01 0.0 
2.986790411740e+01 -1.339226181535e+01 0.0 
2.993181466745e+01 -1.244703272398e+01 0.0 
2.908023061869e+01 -1.286254537734e+01 0.0 
2.901619051372e+01 -1.380881655279e+01 0.0 
2.822986160390e+01 -1.327695262116e+01 0.0 
2.829453476870e+01 -1.233265343811e+01 0.0 
2.744542905518e+01 -1.274510491105e+01 0.0 
2.751120089246e+01 -1.180368086886e+01 0.0 
2.666218649885e+01 -1.221619339205e+01 0.0 
2.672371209234e+01 -1.127125228527e+01 0.0 
2.587763216302e+01 -1.168539979114e+01 0.0 
2.581165585299e+01 -1.262994410089e+01 0.0 
2.502890882577e+01 -1.209827323619e+01 0.0 
2.509631327757e+01 -1.115492410304e+01 0.0 
2.424662989877e+01 -1.156630981079e+01 0.0 
2.431704046904e+01 -1.062389179334e+01 0.0 
2.346445438728e+01 -1.103427680694e+01 0.0 
2.339382552877e+01 -1.197964871788e+01 0.0 
2.260936050780e+01 -1.144513277642e+01 0.0 
2.268075012022e+01 -1.049911928216e+01 0.0 
2.182525737661e+01 -1.090920811464e+01 0.0 
2.189682319817e+01 -9.961716944568e+00 0.0 
2.104174127792e+01 -1.037266986667e+01 0.0 
2.111304367575e+01 -9.424179358711e+00 0.0 
2.025306185381e+01 -9.832727364719e+00 0.0 
2.018141124247e+01 -1.079140628871e+01 0.0 
1.938594498257e+01 -1.025147354112e+01 0.0 
1.946106490453e+01 -9.288010758448e+00 0.0 
1.858929958352e+01 -9.706319802516e+00 0.0 
1.851540991219e+01 -1.067205988724e+01 0.0 
1.771485303178e+01 -1.012504443115e+01 0.0 
1.764134552256e+01 -1.109360378538e+01 0.0 
1.683745148095e+01 -1.054496365337e+01 0.0 
1.691852964353e+01 -9.582555261178e+00 0.0 
1.603603813062e+01 -1.000160132379e+01 0.0 
1.595824239350e+01 -1.096750698862e+01 0.0 
1.515080624291e+01 -1.041639501931e+01 0.0 
1.523171602559e+01 -9.451711491453e+00 0.0 
1.434621060709e+01 -9.871956467464e+00 0.0 
1.426777178765e+01 -1.083749501371e+01 0.0 
1.345775282374e+01 -1.028803175500e+01 0.0 
1.354103873368e+01 -9.324918457162e+00 0.0 
1.265072018622e+01 -9.742612837270e+00 0.0 
1.257285762070e+01 -1.071557782384e+01 0.0 
1.175874815690e+01 -1.015972324288e+01 0.0 
1.184203019714e+01 -9.193604071377e+00 0.0 
1.094927709905e+01 -9.612103238656e+00 0.0 
1.086938022910e+01 -1.058685085646e+01 0.0 
1.005424098961e+01 -1.002939116380e+01 0.0 
9.977974613295e+00 -1.101324897989e+01 0.0 
1.012915646404e+01 -9.051815821181e+00 0.0 
9.237127782494e+00 -9.471239055559e+00 0.0 
9.308426593771e+00 -8.483376461131e+00 0.0 
8.418806073345e+00 -8.910712374517e+00 0.0 
2.253688464062e+01 -1.239459402279e+01 0.0 
8.495126726666e+00 -7.921646665254e+00 0.0 
9.389727383206e+00 -7.512103628377e+00 0.0 
7.601560812974e+00 -8.349460349344e+00 0.0 
7.525680547759e+00 -9.339736686940e+00 0.0 
7.677888324502e+00 -7.359727833346e+00 0.0 
6.782001206724e+00 -7.788454494773e+00 0.0 
6.858778622885e+00 -6.797338062822e+00 0.0 
2.196596590865e+01 -8.979025665442e+00 0.0 
2.816540108272e+01 -1.422634142353e+01 0.0 
5.961601194403e+00 -7.226824010712e+00 0.0 
6.038171749656e+00 -6.234825887079e+00 0.0 
6.936257279557e+00 -5.805287640737e+00 0.0 
6.115068918323e+00 -5.242109758768e+00 0.0 
3.564391741903e+01 -1.329240553876e+01 0.0 
3.558115605778e+01 -1.425902892003e+01 0.0 
3.645445282201e+01 -1.381970786460e+01 0.0 
3.639744204358e+01 -1.479198128612e+01 0.0 
3.727266909778e+01 -1.435399586226e+01 0.0 
5.216667013081e+00 -5.671788584287e+00 0.0 
3.220697293295e+01 -1.499594545107e+01 0.0 
3.551112158269e+01 -1.523479869250e+01 0.0 
2.836056961467e+01 -1.139032434851e+01 0.0 
2.516730388602e+01 -1.021382726837e+01 0.0 
1.844436907403e+01 -1.164097215196e+01 0.0 
5.885434318740e+00 -8.218694781467e+00 0.0 
5.064071066867e+00 -7.656614643901e+00 0.0 
4.988089103470e+00 -8.649722082718e+00 0.0 
1.079421050408e+01 -1.157014985435e+01 0.0 
9.902420005256e+00 -1.199903342656e+01 0.0 
1.071994252214e+01 -1.255727909771e+01 0.0 
9.826974788171e+00 -1.298659581767e+01 0.0 
1.064607883789e+01 -1.354595476388e+01 0.0 
9.751541265343e+00 -1.397556905071e+01 0.0 
8.932296185869e+00 -1.341553353988e+01 0.0 
8.856399248106e+00 -1.440570715508e+01 0.0 
8.036186803543e+00 -1.384470558472e+01 0.0 
1.057112875118e+01 -1.453516759081e+01 0.0 
1.146582585687e+01 -1.410539926903e+01 0.0 
7.959894480382e+00 -1.483563350928e+01 0.0 
7.138792279156e+00 -1.427465094140e+01 0.0 
7.062506792418e+00 -1.526615385482e+01 0.0 
6.240693558277e+00 -1.470508863040e+01 0.0 
6.316957575451e+00 -1.371212581281e+01 0.0 
5.418183007107e+00 -1.414253605022e+01 0.0 
5.494748364428e+00 -1.314886770603e+01 0.0 
1.756825565873e+01 -1.206433872514e+01 0.0 
1.837565773345e+01 -1.261356468266e+01 0.0 
1.749574831391e+01 -1.303769280014e+01 0.0 
1.830539187332e+01 -1.358828364284e+01 0.0 
1.742278925170e+01 -1.401367746928e+01 0.0 
1.823303007798e+01 -1.456432294258e+01 0.0 
1.734941694138e+01 -1.499213734361e+01 0.0 
1.653760041637e+01 -1.443920312098e+01 0.0 
3.056237977307e+01 -1.487132260174e+01 0.0 
1.866469084762e+01 -8.742953000418e+00 0.0 
1.953669694916e+01 -8.326038909849e+00 0.0 
1.874194303780e+01 -7.780688158966e+00 0.0 
1.961032016741e+01 -7.366854697285e+00 0.0 
1.881715755159e+01 -6.821102209649e+00 0.0 
1.968369797150e+01 -6.407747217358e+00 0.0 
1.889237123259e+01 -5.858375520026e+00 0.0 
1.802038875366e+01 -6.276202618170e+00 0.0 
1.809793837984e+01 -5.307629520489e+00 0.0 
1.721985207997e+01 -5.728242054488e+00 0.0 
1.729850893523e+01 -4.756990819347e+00 0.0 
1.641745664240e+01 -5.174636548624e+00 0.0 
2.495978509456e+01 -1.304406404294e+01 0.0 
1.911567814831e+01 -1.413854250293e+01 0.0 
1.904387332608e+01 -1.511463127723e+01 0.0 
1.992115934240e+01 -1.468788025898e+01 0.0 
7.013706899628e+00 -4.812582868662e+00 0.0 
5.342091874585e+00 -1.513658157269e+01 0.0 
1.139098043784e+01 -1.509488509480e+01 0.0 
1.228151810610e+01 -1.465617481983e+01 0.0 
1.646373110164e+01 -1.541993323337e+01 0.0 
5.293328636712e+00 -4.678385108584e+00 0.0 
1.975965862987e+01 -5.448124345648e+00 0.0 
2.054318374236e+01 -5.992561293251e+00 0.0 
3.721453439063e+01 -1.533216152738e+01 0.0 
3.809302733893e+01 -1.489235527381e+01 0.0 
1.220852788900e+01 -1.565304565230e+01 0.0 
4.394120899730e+00 -5.108397613210e+00 0.0 
8.779354620288e+00 -1.539524721159e+01 0.0 
1.817791047702e+01 -4.338570146253e+00 0.0 
4.518860013839e+00 -1.457343189307e+01 0.0 
4.442712140414e+00 -1.556841391069e+01 0.0 
8.115343466391e+00 -1.285760324283e+01 0.0 
1.985334703171e+01 -1.566478400426e+01 0.0 
2.071953850276e+01 -1.522074243119e+01 0.0 
1.634012953883e+01 -6.154777738301e+00 0.0 
1.553479994708e+01 -5.593730508879e+00 0.0 
1.561265946942e+01 -4.617761762647e+00 0.0 
1.470674212978e+01 -5.064576488228e+00 0.0 
1.464498299883e+01 -6.026514471420e+00 0.0 
1.383271561817e+01 -5.467796261169e+00 0.0 
1.389241253067e+01 -4.504338666645e+00 0.0 
1.301868735463e+01 -4.907185188626e+00 0.0 
1.294514184846e+01 -5.888160903592e+00 0.0 
1.212955968622e+01 -5.328262335277e+00 0.0 
1.220721122383e+01 -4.341264976687e+00 0.0 
1.131324345897e+01 -4.766773516508e+00 0.0 
5.266597955397e+00 -1.613148974258e+01 0.0 
1.737805990867e+01 -3.786677807525e+00 0.0 
3.078438094513e+01 -1.203225297748e+01 0.0 
1.131569882285e+01 -1.608511932110e+01 0.0 
1.728478341782e+01 -1.596017432313e+01 0.0 
3.803465906019e+01 -1.587509751228e+01 0.0 
3.891681276677e+01 -1.543395196905e+01 0.0 
3.897340985302e+01 -1.444710288980e+01 0.0 
3.980095968193e+01 -1.499059496613e+01 0.0 
3.974334598189e+01 -1.597921884150e+01 0.0 
4.062964983717e+01 -1.553518690417e+01 0.0 
4.068729602479e+01 -1.454434445295e+01 0.0 
4.151772679790e+01 -1.508974196007e+01 0.0 
4.157505195739e+01 -1.409694289912e+01 0.0 
4.240699932656e+01 -1.464347955968e+01 0.0 
4.234898051011e+01 -1.563721375790e+01 0.0 
4.323934606035e+01 -1.519082036405e+01 0.0 
4.329740528208e+01 -1.419587509788e+01 0.0 
4.413056841369e+01 -1.474359631875e+01 0.0 
4.418850110108e+01 -1.374786684042e+01 0.0 
4.502219770667e+01 -1.429605103525e+01 0.0 
4.496411937907e+01 -1.529215882720e+01 0.0 
4.490027319897e+00 -4.154167794594e+00 0.0 
1.565080385988e+01 -1.486411982419e+01 0.0 
1.557610691279e+01 -1.584855627870e+01 0.0 
4.195350646612e+00 -8.089117689096e+00 0.0 
4.124027797830e+00 -9.082831955007e+00 0.0 
4.917944318925e+00 -9.643530901533e+00 0.0 
4.020105689502e+00 -1.007439673661e+01 0.0 
4.587185899277e+01 -1.484039992728e+01 0.0 
4.580078661551e+01 -1.584043391042e+01 0.0 
2.061956522375e+01 -5.046701343981e+00 0.0 
2.139572955529e+01 -5.579553449826e+00 0.0 
3.715344357292e+01 -1.631485124583e+01 0.0 
3.618886196443e+00 -1.500471207167e+01 0.0 
3.695606940204e+00 -1.400939692294e+01 0.0 
2.438890661143e+01 -9.686110599723e+00 0.0 
2.523267572778e+01 -9.276766000622e+00 0.0 
2.446094171539e+01 -8.751904591412e+00 0.0 
2.529089822738e+01 -8.321495612547e+00 0.0 
2.606882688827e+01 -8.864724051119e+00 0.0 
2.452116646430e+01 -7.792756462004e+00 0.0 
1.235543269617e+01 -1.365845617339e+01 0.0 
4.318116874181e+01 -1.618567469992e+01 0.0 
7.835066111909e+00 -5.376366223896e+00 0.0 
7.905687335704e+00 -4.382539065697e+00 0.0 
3.542640009567e+00 -1.600035116542e+01 0.0 
1.572431503071e+01 -1.388358386695e+01 0.0 
2.574684696680e+01 -1.357896141127e+01 0.0 
2.488842657651e+01 -1.399674354505e+01 0.0 
2.568301775611e+01 -1.453552048595e+01 0.0 
2.481535572009e+01 -1.495542756508e+01 0.0 
2.561729699688e+01 -1.549784648532e+01 0.0 
2.474623061296e+01 -1.592058894178e+01 0.0 
2.394234041695e+01 -1.537572575827e+01 0.0 
2.065825452567e+01 -1.621899055217e+01 0.0 
2.387180528935e+01 -1.634552264687e+01 0.0 
4.585364400844e+01 -1.383912334080e+01 0.0 
1.998744432052e+01 -1.370317155541e+01 0.0 
1.205356951443e+01 -6.313580285498e+00 0.0 
5.396543905849e+00 -3.731818611283e+00 0.0 
1.139652573295e+01 -3.745819399350e+00 0.0 
3.574124306703e+00 -4.551456826011e+00 0.0 
3.494140761930e+00 -5.539787055649e+00 0.0 
1.213651452413e+01 -1.664505033022e+01 0.0 
2.555045568519e+01 -1.646529356744e+01 0.0 
2.641671114986e+01 -1.603899382371e+01 0.0 
2.612920721894e+01 -7.906435260873e+00 0.0 
2.690339829698e+01 -8.456969591431e+00 0.0 
1.978024383368e+01 -1.664410216353e+01 0.0 
3.732829979082e+01 -1.336926601859e+01 0.0 
4.074336584605e+01 -1.355133328401e+01 0.0 
4.163204691081e+01 -1.310280943992e+01 0.0 
3.773826114429e+00 -3.493444309145e+00 0.0 
1.228783001032e+01 -3.374822835872e+00 0.0 
4.057110462520e+01 -1.652588478000e+01 0.0 
2.132535497898e+01 -6.523623360525e+00 0.0 
2.216932532211e+01 -6.110044769206e+00 0.0 
1.825781152128e+01 -3.370146817147e+00 0.0 
1.745679445888e+01 -2.812942552063e+00 0.0 
4.666517057280e+01 -1.539981381543e+01 0.0 
4.660575894464e+01 -1.639014410186e+01 0.0 
4.838230979954e+00 -1.063643436446e+01 0.0 
3.938942630206e+00 -1.106778981745e+01 0.0 
1.302967218620e+01 -1.621373452436e+01 0.0 
1.049548003190e+01 -4.204825123240e+00 0.0 
4.573571907195e+01 -1.683820511148e+01 0.0 
1.483686335807e+01 -1.430849689310e+01 0.0 
1.490982658890e+01 -1.332679386284e+01 0.0 
3.190805600162e+00 -9.510968358545e+00 0.0 
2.146625721848e+01 -4.642437303115e+00 0.0 
2.069866208266e+01 -4.111852942193e+00 0.0 
1.286859345584e+01 -6.873252723348e+00 0.0 
1.041794493184e+01 -5.194814260291e+00 0.0 
2.671081808965e+00 -4.976806516331e+00 0.0 
1.295786792925e+01 -1.720506531799e+01 0.0 
3.968438206511e+01 -1.696869067241e+01 0.0 
2.308550456051e+01 -1.579963151273e+01 0.0 
2.315593682844e+01 -1.482967445235e+01 0.0 
2.299471449450e+01 -1.677069968132e+01 0.0 
1.057344714696e+01 -3.214252277840e+00 0.0 
1.124057603753e+01 -1.707713739755e+01 0.0 
2.718402535754e+00 -1.543629882103e+01 0.0 
2.638549692805e+01 -1.696744916809e+01 0.0 
2.723416349007e+01 -1.658104204545e+01 0.0 
2.210193351704e+01 -7.046769643417e+00 0.0 
2.295180925161e+01 -6.657397605239e+00 0.0 
2.301355235833e+01 -5.709111896800e+00 0.0 
2.379052718281e+01 -6.254965406962e+00 0.0 
3.243528601237e+01 -1.214181853533e+01 0.0 
2.287977995457e+01 -7.583722368300e+00 0.0 
2.999876029544e+01 -1.150837653096e+01 0.0 
3.084435366963e+01 -1.109693775882e+01 0.0 
3.006650579669e+01 -1.057778994262e+01 0.0 
2.683802665066e+01 -9.386863216633e+00 0.0 
2.768641973621e+01 -8.988883915666e+00 0.0 
2.040296980397e+01 -7.903629133404e+00 0.0 
1.925235024054e+01 -1.218872783130e+01 0.0 
5.735667000424e+00 -1.020577277283e+01 0.0 
6.396559909872e+00 -1.272326295703e+01 0.0 
1.161199420714e+01 -1.212812778229e+01 0.0 
4.229046132615e+01 -1.663084237572e+01 0.0 
4.312275399692e+01 -1.718087491556e+01 0.0 
4.335502068163e+01 -1.320039231514e+01 0.0 
4.424630298089e+01 -1.275160688731e+01 0.0 
7.090116643816e+00 -3.818998061530e+00 0.0 
7.989472176569e+00 -3.389238711200e+00 0.0 
9.085824861778e+00 -1.144036167408e+01 0.0 
1.041972423731e+01 -1.651614080893e+01 0.0 
3.797525112640e+01 -1.686052038746e+01 0.0 
3.709114253394e+01 -1.730125999865e+01 0.0 
3.626966748340e+01 -1.675477052919e+01 0.0 
1.385164591440e+01 -1.677597757552e+01 0.0 
1.787152588784e+01 -8.198993896093e+00 0.0 
1.668849729812e+01 -1.248560611628e+01 0.0 
1.659546177905e+01 -3.232482605530e+00 0.0 
2.332214717345e+01 -1.292598167641e+01 0.0 
7.168238450786e+00 -2.824711686516e+00 0.0 
2.894878403906e+01 -1.475427524446e+01 0.0 
2.646763248247e+00 -1.643270107952e+01 0.0 
3.467431944285e+00 -1.699648837348e+01 0.0 
2.059475877282e+01 -1.719473628526e+01 0.0 
3.333868355437e+01 -1.080596971682e+01 0.0 
2.246451062637e+01 -1.334557761546e+01 0.0 
2.167821896388e+01 -1.280847834858e+01 0.0 
3.089653185767e+01 -1.017198487212e+01 0.0 
3.012604365669e+01 -9.657298805968e+00 0.0 
2.929627299435e+01 -1.006100135274e+01 0.0 
2.936201435219e+01 -9.136748899251e+00 0.0 
1.198219052702e+01 -7.291887238230e+00 0.0 
1.116702076035e+01 -6.731976101053e+00 0.0 
2.551388807505e+01 -1.746927036981e+01 0.0 
2.378639090370e+01 -1.728678807149e+01 0.0 
2.718543627188e+01 -1.748668016909e+01 0.0 
2.804681050301e+01 -1.712626668293e+01 0.0 
1.970737034667e+01 -1.762317646822e+01 0.0 
1.889535776135e+01 -1.707158098231e+01 0.0 
2.593777711283e+00 -5.971157087874e+00 0.0 
2.773468281110e+01 -8.067164273938e+00 0.0 
4.051205884347e+01 -1.751819982458e+01 0.0 
3.166903145421e+01 -1.068032992414e+01 0.0 
1.033042452886e+01 -1.748285844336e+01 0.0 
9.519274604626e+00 -1.694349240233e+01 0.0 
1.668308673328e+01 -2.255861778986e+00 0.0 
1.570531902832e+01 -2.676795860126e+00 0.0 
4.655826903379e+01 -1.736656245706e+01 0.0 
2.384148070773e+01 -5.328744256413e+00 0.0 
2.460255123641e+01 -5.852182672816e+00 0.0 
2.306638135119e+01 -4.798935440613e+00 0.0 
8.467720450578e-01 -1.849576263072e+01 0.0 
4.849657322345e+01 -1.084860705506e+01 0.0 
2.565860899507e+00 -1.742859793981e+01 0.0 
2.764418872564e+01 -9.927142821799e+00 0.0 
4.565165880064e+01 -1.785336695404e+01 0.0 
2.162231831329e+01 -1.376528337468e+01 0.0 
2.360646352969e+01 -9.136041963102e+00 0.0 
1.392738739903e+01 -1.578285505772e+01 0.0 
4.756405947478e+01 -1.683706841809e+01 0.0 
4.740895034054e+01 -1.793766756892e+01 0.0 
4.080779328826e+01 -1.257387192544e+01 0.0 
4.168907939671e+01 -1.210739129181e+01 0.0 
3.991197722154e+01 -1.300815793917e+01 0.0 
1.905536506762e+01 -3.940076697685e+00 0.0 
1.923879596617e+01 -2.875000734166e+00 0.0 
4.401386745746e+01 -1.673483229438e+01 0.0 
4.247233362525e+00 -7.094581653070e+00 0.0 
3.286051630211e+00 -7.635300020553e+00 0.0 
9.609533347623e+00 -4.594311677967e+00 0.0 
9.523554636369e+00 -5.595597029530e+00 0.0 
5.660336628893e+00 -1.119290329628e+01 0.0 
6.558070063295e+00 -1.076385809362e+01 0.0 
2.809866407414e+01 -1.518037766799e+01 0.0 
2.888868674504e+01 -1.570360690070e+01 0.0 
2.654431550819e+01 -1.411217777162e+01 0.0 
1.402158265969e+01 -1.375404617952e+01 0.0 
1.409592494026e+01 -1.277071998942e+01 0.0 
1.499355196178e+01 -1.235270737023e+01 0.0 
4.221535326155e+01 -1.759335617494e+01 0.0 
4.305583287033e+01 -1.822663146802e+01 0.0 
1.280748808359e+01 -7.834332838285e+00 0.0 
1.368988389326e+01 -7.420529606172e+00 0.0 
1.110091796060e+01 -7.683966794328e+00 0.0 
3.963446145980e+01 -1.794331310122e+01 0.0 
3.423932362213e+00 -1.796415590455e+01 0.0 
4.280814572302e+00 -1.752272834860e+01 0.0 
8.050136380041e+00 -2.421582378631e+00 0.0 
8.888674091650e+00 -2.984264211327e+00 0.0 
2.152839430898e+01 -3.732609965436e+00 0.0 
2.077799585292e+01 -3.183896021866e+00 0.0 
3.618719395821e+01 -1.770276572576e+01 0.0 
3.538165138340e+01 -1.718709995539e+01 0.0 
3.702925326420e+01 -1.828844288807e+01 0.0 
1.756739438711e+00 -5.353284859169e+00 0.0 
2.233710191104e+01 -1.527265621324e+01 0.0 
1.389483555057e+01 -1.771797164730e+01 0.0 
1.475634224300e+01 -1.728357428390e+01 0.0 
1.298797563052e+01 -1.825968924755e+01 0.0 
2.145331271866e+01 -1.673705379077e+01 0.0 
2.133282821169e+01 -1.769400773673e+01 0.0 
2.292139194136e+01 -1.774915400288e+01 0.0 
1.750750053243e+01 -1.861475593469e+00 0.0 
4.830478841772e+01 -1.752611802221e+01 0.0 
4.341203507805e+01 -1.220326745522e+01 0.0 
1.685254151866e+01 -1.443085301632e+00 0.0 
4.431538535165e+01 -1.171841387375e+01 0.0 
4.511308610496e+01 -1.229557320599e+01 0.0 
4.510133242889e+01 -1.123680627466e+01 0.0 
1.846818030617e+00 -4.410877617069e+00 0.0 
3.995468694584e+01 -1.186571542989e+01 0.0 
3.901387459804e+01 -1.242507616755e+01 0.0 
8.966735877533e+00 -1.837818700423e+00 0.0 
4.049310011091e+01 -1.848269508791e+01 0.0 
7.278862053803e+00 -1.918523922691e+00 0.0 
6.429715522129e+00 -2.316676521184e+00 0.0 
9.443505505022e+00 -1.792198868094e+01 0.0 
8.620386951051e+00 -1.737590365556e+01 0.0 
8.571868171503e+00 -1.834436667826e+01 0.0 
7.758629848526e+00 -1.775677907213e+01 0.0 
7.806648388584e+00 -1.680761266021e+01 0.0 
6.908555145436e+00 -1.723746463044e+01 0.0 
4.251709122090e+01 -1.156937480156e+01 0.0 
6.931136405615e+00 -1.832465719263e+01 0.0 
6.015545461353e+00 -1.768865355295e+01 0.0 
5.960535926343e+00 -1.872011001764e+01 0.0 
3.023253444786e+01 -8.761960642196e+00 0.0 
2.454622702599e+01 -6.749421992767e+00 0.0 
2.537499741604e+01 -6.347634963783e+00 0.0 
2.544077378460e+01 -5.431358513649e+00 0.0 
2.801367161747e+01 -1.820907270221e+01 0.0 
2.884507806914e+01 -1.762032095326e+01 0.0 
1.821474531936e+00 -1.588901260460e+01 0.0 
1.821006262604e+00 -1.489370287756e+01 0.0 
4.599962488908e+01 -1.176478780598e+01 0.0 
4.705457470007e+01 -1.172182804229e+01 0.0 
4.667668314802e+01 -1.263464558483e+01 0.0 
4.759648056504e+01 -1.252380987933e+01 0.0 
4.728041618103e+01 -1.341928568376e+01 0.0 
4.825209352360e+01 -1.330491640804e+01 0.0 
4.778118233428e+01 -1.420151961695e+01 0.0 
2.388192727579e+01 -1.826934810142e+01 0.0 
2.381714684947e+01 -4.385917965223e+00 0.0 
3.172733219247e+01 -9.758744265248e+00 0.0 
1.882012070658e+01 -1.805540597212e+01 0.0 
1.805667505243e+01 -1.742221226236e+01 0.0 
2.852599958080e+01 -8.597196079481e+00 0.0 
2.856486123437e+01 -7.661382718527e+00 0.0 
1.111792842875e+01 -1.818223852980e+01 0.0 
2.203322722466e+01 -7.986646678802e+00 0.0 
3.955703676900e+01 -1.903246763601e+01 0.0 
1.944842206513e+01 -8.038750575182e-01 0.0 
1.909882767783e+01 -1.746322740933e+00 0.0 
2.281147422941e+01 -8.525912918334e+00 0.0 
2.850633001468e+01 -9.533271335986e+00 0.0 
2.532883344309e+01 -7.308951659710e+00 0.0 
2.620475466461e+01 -6.979208585400e+00 0.0 
1.396278270396e+01 -1.475095389807e+01 0.0 
9.791001166724e+00 -2.554159793552e+00 0.0 
2.229293380421e+01 -4.269762271052e+00 0.0 
4.677238984118e+01 -1.430071795514e+01 0.0 
2.228658385918e+01 -3.344747535984e+00 0.0 
8.940223674553e-01 -1.543595733415e+01 0.0 
2.118566862474e+01 -8.435876987696e+00 0.0 
2.678325936437e+01 -1.032621195706e+01 0.0 
2.223400220487e+01 -5.179046761770e+00 0.0 
2.375370625384e+01 -7.251580562134e+00 0.0 
3.156971327386e+01 -1.255534750737e+01 0.0 
3.328226391312e+01 -1.172914813316e+01 0.0 
3.250948774219e+01 -1.120157009348e+01 0.0 
2.032993445717e+01 -8.867880112202e+00 0.0 
2.697226974856e+01 -7.536633082045e+00 0.0 
2.707377810386e+01 -6.590835263295e+00 0.0 
2.914099246827e+01 -1.191678458549e+01 0.0 
3.544824072239e+01 -1.621126558525e+01 0.0 
3.456511855436e+01 -1.665054783843e+01 0.0 
3.448395810225e+01 -1.759117813016e+01 0.0 
3.368378673938e+01 -1.708037781328e+01 0.0 
3.375560452567e+01 -1.610973066913e+01 0.0 
3.288001547988e+01 -1.654324255651e+01 0.0 
3.282475929147e+01 -1.749725654692e+01 0.0 
3.199880906313e+01 -1.697294088625e+01 0.0 
3.197001272932e+01 -1.811667776864e+01 0.0 
3.111884713021e+01 -1.742166785755e+01 0.0 
3.120418962865e+01 -1.642155709385e+01 0.0 
3.034666704371e+01 -1.683123833816e+01 0.0 
3.026224379976e+01 -1.772592851714e+01 0.0 
3.046632362943e+01 -1.582232843075e+01 0.0 
1.961344017324e+01 -1.857459447985e+01 0.0 
2.274975894774e+01 -9.532738811922e+00 0.0 
1.833923246887e+01 -2.396746883672e+00 0.0 
1.988859500848e+01 -2.249244376594e+00 0.0 
2.758045562861e+01 -1.086434261689e+01 0.0 
3.247300178163e+01 -1.909930104252e+01 0.0 
3.461947482503e+01 -1.911879848019e+01 0.0 
2.047161538662e+01 -6.941478180358e+00 0.0 
2.750230940214e+01 -1.915490590764e+01 0.0 
3.165081350803e+01 -1.161860780120e+01 0.0 
1.897456727641e+01 -4.889634688522e+00 0.0 
2.549338539756e+01 -1.914858252089e+01 0.0 
3.462873135081e+01 -1.567482276144e+01 0.0 
3.384432415243e+01 -1.512280684518e+01 0.0 
3.471433767690e+01 -1.469086942990e+01 0.0 
3.651470373046e+01 -1.918207952149e+01 0.0 
3.901742690249e+01 -1.345028556517e+01 0.0 
2.153224102692e+01 -1.920169709333e+01 0.0 
1.918382939341e+01 -1.316226275662e+01 0.0 
2.005389162382e+01 -1.271962165174e+01 0.0 
2.011472087878e+01 -1.175029352900e+01 0.0 
3.210679478412e+01 -1.598038618242e+01 0.0 
1.752175226543e+01 -1.914713022656e+01 0.0 
1.696897240059e+01 -1.832772588765e+01 0.0 
1.599682523337e+01 -1.832599992024e+01 0.0 
1.644507199462e+01 -1.743697981535e+01 0.0 
1.549987712903e+01 -1.915192375101e+01 0.0 
3.050250861901e+01 -1.918943550234e+01 0.0 
2.949944061527e+01 -1.922950455235e+01 0.0 
1.375892575273e+01 -6.447160534926e+00 0.0 
1.457223670180e+01 -7.006709243857e+00 0.0 
1.450818793236e+01 -7.965943451779e+00 0.0 
1.538804712402e+01 -7.553409623699e+00 0.0 
1.545817644768e+01 -6.580929593419e+00 0.0 
1.626506893751e+01 -7.129032608911e+00 0.0 
1.619833811522e+01 -8.086588580887e+00 0.0 
1.714448609609e+01 -6.697429609777e+00 0.0 
2.887616543568e+01 -1.668015232137e+01 0.0 
1.349814589130e+01 -1.918225301544e+01 0.0 
1.153887772210e+01 -1.311384581217e+01 0.0 
1.242708159886e+01 -1.267046795531e+01 0.0 
1.249799674267e+01 -1.169005616014e+01 0.0 
6.631723893693e+00 -9.774184881867e+00 0.0 
7.451471631867e+00 -1.033148796006e+01 0.0 
7.377795355458e+00 -1.132196345268e+01 0.0 
5.810931797536e+00 -9.211654212252e+00 0.0 
2.402683899133e+01 -1.441378562320e+01 0.0 
1.249768692036e+01 -1.917388426624e+01 0.0 
1.580373499437e+01 -1.290751860664e+01 0.0 
8.344650507834e+00 -9.898403995170e+00 0.0 
3.750622115305e+01 -1.086526401533e+01 0.0 
3.699391251667e+01 -1.171695900794e+01 0.0 
3.606517829518e+01 -1.173717504500e+01 0.0 
3.650257641795e+01 -1.270047380221e+01 0.0 
3.808951488918e+01 -1.183518714175e+01 0.0 
4.760380962420e+00 -1.162484888315e+01 0.0 
3.861210370848e+00 -1.205657631736e+01 0.0 
3.038284309476e+00 -1.149851280664e+01 0.0 
2.961598794889e+00 -1.248856794980e+01 0.0 
2.138953225512e+00 -1.193212674534e+01 0.0 
2.227383593457e+00 -1.096258903918e+01 0.0 
2.043265419276e+00 -1.292158472959e+01 0.0 
1.252449446028e+00 -1.225502002753e+01 0.0 
3.949985210740e+01 -1.086594001795e+01 0.0 
1.453499444792e+01 -8.768805922472e-01 0.0 
1.403518950933e+01 -1.749965556633e+00 0.0 
1.300715031023e+01 -1.714737233040e+00 0.0 
1.350929389899e+01 -2.527443911291e+00 0.0 
1.449600910711e+01 -2.595486162864e+00 0.0 
1.395693872901e+01 -3.484211041558e+00 0.0 
1.495105865208e+01 -3.364609636216e+00 0.0 
1.508822528740e+01 -1.766586020494e+00 0.0 
1.250223858430e+01 -8.634590186802e-01 0.0 
1.200279523409e+01 -1.709044504992e+00 0.0 
1.150086239419e+01 -8.592789190668e-01 0.0 
1.101482754194e+01 -1.677730591922e+00 0.0 
1.148018564526e+01 -2.659323866909e+00 0.0 
8.800552119754e+00 -3.989875954728e+00 0.0 
3.452790439430e+00 -1.901136170646e+01 0.0 
8.658451825200e-01 -9.503462241795e+00 0.0 
1.694787786797e+00 -9.000589234502e+00 0.0 
1.703436717094e+00 -8.038819004041e+00 0.0 
2.594197971110e+00 -8.563955242845e+00 0.0 
1.630513735412e+00 -9.907244747511e+00 0.0 
8.566859292791e-01 -7.512203837972e+00 0.0 
1.685461277022e+00 -7.164280248030e+00 0.0 
2.506394468801e+00 -8.623386730818e-01 0.0 
2.007475081581e+00 -1.727729545205e+00 0.0 
9.211534699767e-01 -1.628791366312e+00 0.0 
1.500000000020e+00 -2.598063549486e+00 0.0 
2.482078929963e+00 -2.553580088725e+00 0.0 
2.999795253092e+00 -1.732169015019e+00 0.0 
3.999712607169e+00 -1.728832897453e+00 0.0 
4.499752199340e+00 -8.656478679175e-01 0.0 
4.964377774841e+00 -1.730129617941e+00 0.0 
4.425017908337e+00 -2.597541756243e+00 0.0 
5.446573195014e+00 -8.410144840023e-01 0.0 
4.915722346614e+01 -1.550640962770e+01 0.0 
4.826794919243e+01 -1.600000000000e+01 0.0 
1.053139533193e+01 -1.911782884365e+01 0.0 
4.156049861949e+01 -1.095160998589e+01 0.0 
9.494526624416e+00 -8.650570090219e-01 0.0 
4.555762166964e+01 -1.897098103585e+01 0.0 
4.250656411371e+01 -1.914387356218e+01 0.0 
4.350906466345e+01 -1.917234727395e+01 0.0 
8.759665722424e-01 -1.746422130609e+01 0.0 
1.698936011838e+00 -1.795012186674e+01 0.0 
4.742476811029e+01 -1.900090177972e+01 0.0 
7.749196752349e+00 -6.368049313489e+00 0.0 
3.361572113416e+01 -1.798765193915e+01 0.0 
4.484660149212e+01 -1.728661231383e+01 0.0 
1.984038172228e+01 -4.502575320116e+00 0.0 
1.035080352627e+01 -6.166639575753e+00 0.0 
2.753558010652e+00 -1.444909521181e+01 0.0 
7.217069543032e+00 -1.328635391078e+01 0.0 
4.364336727739e+00 -1.655585677381e+01 0.0 
4.595208426108e+00 -1.357919665443e+01 0.0 
6.164967006980e+00 -1.569873454630e+01 0.0 
1.487855768353e+01 -1.826523774028e+01 0.0 
2.791876456372e+00 -4.019632415181e+00 0.0 
4.246464893515e+01 -1.364898659620e+01 0.0 
4.503855590351e+01 -1.329552780944e+01 0.0 
4.407239109604e+01 -1.573900004093e+01 0.0 
5.141054449252e+00 -6.664290382472e+00 0.0 
3.141083947149e+00 -1.055790764912e+01 0.0 
6.196463198741e+00 -4.256497932609e+00 0.0 
2.599618716181e+01 -1.836893455464e+01 0.0 
2.923057372337e+01 -1.098461757645e+01 0.0 
1.168343877486e+01 -1.114079645041e+01 0.0 
6.706222096238e+00 -8.780364234441e+00 0.0 
8.567858614669e+00 -6.943121440850e+00 0.0 
1.123755132901e+01 -5.753525820030e+00 0.0 
2.353456234423e+01 -1.008536320953e+01 0.0 
9.162073319168e+00 -1.045593739109e+01 0.0 
9.676343469685e+00 -1.496493008366e+01 0.0 
4.490637882905e+01 -1.628778970202e+01 0.0 
7.398129387772e+00 -9.639977982323e-01 0.0 
1.049641705805e+01 -1.552503975272e+01 0.0 
9.010356286268e+00 -1.242805042052e+01 0.0 
3.985573925497e+01 -1.399863651620e+01 0.0 
1.816196318262e+01 -1.554066497931e+01 0.0 
1.306332244168e+01 -3.963646550326e+00 0.0 
4.145850903932e+01 -1.608094559275e+01 0.0 
3.794664933633e+01 -1.779020121986e+01 0.0 
3.819614412903e+01 -1.290749321016e+01 0.0 
6.270014188119e+00 -3.255093186826e+00 0.0 
4.251165370388e+01 -1.263870364997e+01 0.0 
1.207347709171e+01 -1.763942826023e+01 0.0 
3.633240829927e+01 -1.577330481104e+01 0.0 
4.319052668832e+00 -6.101812561904e+00 0.0 
1.676492415806e+01 -1.151547901392e+01 0.0 
2.594059220037e+01 -1.074225223009e+01 0.0 
3.340750911501e+01 -9.898764354137e+00 0.0 
4.397619591281e+01 -1.769773736461e+01 0.0 
2.175611595028e+01 -1.185718747128e+01 0.0 
1.641818733106e+01 -1.640685203215e+01 0.0 
1.661211421753e+01 -1.346121366338e+01 0.0 
3.428853504935e+00 -6.551993389271e+00 0.0 
8.700728832502e+00 -1.638460872825e+01 0.0 
1.931369795309e+01 -1.121629383702e+01 0.0 
4.139798872363e+01 -1.706922153459e+01 0.0 
2.647837478700e+01 -1.507353829290e+01 0.0 
1.779469616424e+01 -9.161615782908e+00 0.0 
3.885879219319e+01 -1.642026488918e+01 0.0 
1.338194936770e+01 -1.125916521471e+01 0.0 
1.897071181111e+01 -1.609204322578e+01 0.0 
2.844308548793e+01 -1.046221003096e+01 0.0 
2.659854702194e+01 -1.316109415760e+01 0.0 
2.979604503271e+01 -1.433296157755e+01 0.0 
2.417694041347e+01 -1.251231397779e+01 0.0 
1.807401327411e+00 -1.388891148480e+01 0.0 
9.599810618782e+00 -1.595439365034e+01 0.0 
1.652144692160e+01 -4.205392788472e+00 0.0 
2.367839450246e+01 -8.188385218643e+00 0.0 
3.814894930468e+01 -1.390748338767e+01 0.0 
2.466448215774e+01 -1.685878545680e+01 0.0 
4.134044524611e+01 -1.806610045954e+01 0.0 
2.600511411958e+01 -9.801774120648e+00 0.0 
7.882158050716e+00 -1.582364037353e+01 0.0 
3.881607873422e+01 -1.737970515013e+01 0.0 
8.270182347708e+00 -1.088622154920e+01 0.0 
8.672520392520e-01 -4.532984309881e+00 0.0 
1.993447205337e+01 -3.579061902667e+00 0.0 
1.794616079549e+01 -7.238038888498e+00 0.0 
2.097277068165e+01 -1.132450168636e+01 0.0 
8.194803300681e+00 -1.187214224265e+01 0.0 
3.522279404911e+01 -1.823342818178e+01 0.0 
6.984481050295e+00 -1.625271465557e+01 0.0 
1.309433007797e+01 -1.521718594215e+01 0.0 
2.150246167611e+01 -1.885399038185e+00 0.0 
3.250689370209e+01 -1.028789870535e+01 0.0 
6.085886272238e+00 -1.668342132851e+01 0.0 
1.588455661727e+01 -1.193498985921e+01 0.0 
1.809323400821e+01 -1.651110084195e+01 0.0 
1.348885082381e+00 -1.136065576512e+01 0.0 
2.497670221995e+01 -1.834631276173e+01 0.0 
2.937062818424e+01 -8.233711194470e+00 0.0 
5.185823744469e+00 -1.711566910207e+01 0.0 
1.477497877209e+01 -1.530177014512e+01 0.0 
2.125346158933e+01 -7.473003997367e+00 0.0 
4.751561118290e+01 -1.084897772632e+01 0.0 
5.056026576843e+00 -1.825750475525e+01 0.0 
1.473948554523e+01 -1.634577436309e+01 0.0 
2.410566630936e+01 -1.345970002612e+01 0.0 
1.507337507513e+01 -1.138527895328e+01 0.0 
3.189857338687e+01 -8.887781229006e+00 0.0 
7.298712468334e+00 -1.230231046246e+01 0.0 
2.738235495295e+01 -1.368931690364e+01 0.0 
3.750141041969e+01 -1.920449893070e+01 0.0 
1.557271965640e+01 -1.683317951731e+01 0.0 
3.393731848929e+01 -1.413034777044e+01 0.0 
6.482156824153e+00 -1.174575135362e+01 0.0 
2.077971718439e+01 -1.421279621836e+01 0.0 
3.455084320178e+00 -2.562590040585e+00 0.0 
3.099056096250e+01 -9.270280416035e+00 0.0 
5.580176125418e+00 -1.217387969259e+01 0.0 
1.707247630389e+01 -7.660651981710e+00 0.0 
1.418658814174e+01 -1.180390575393e+01 0.0 
2.049103025389e+01 -1.811296706038e+01 0.0 
4.680386172316e+00 -1.260396879301e+01 0.0 
1.699679896554e+01 -8.624561788199e+00 0.0 
3.779470168555e+00 -1.303424899720e+01 0.0 
3.036589870126e+01 -7.879832518349e+00 0.0 
3.306993001774e+01 -1.457671062095e+01 0.0 
2.840150110165e+00 -1.346530088269e+01 0.0 
2.732011135052e+01 -1.464591214560e+01 0.0 
5.423639259568e+00 -2.659711955016e+00 0.0 
2.324455961696e+01 -1.387269388211e+01 0.0 
1.752768355571e+00 -1.693128613594e+01 0.0 
1.020244783051e+01 -8.076834012808e+00 0.0 
1.330873875224e+01 -1.222417528206e+01 0.0 
3.297727364880e+01 -1.555480372087e+01 0.0 
2.890929955439e+01 -6.868664170731e+00 0.0 
1.323294664622e+01 -1.320754260334e+01 0.0 
2.726532861246e+01 -1.560593120806e+01 0.0 
2.240020643398e+01 -1.429299177247e+01 0.0 
2.090445823633e+01 -1.228128621332e+01 0.0 
1.315809881502e+01 -1.420739326938e+01 0.0 
2.781328038068e+01 -7.181956082300e+00 0.0 
8.614200829057e+00 -5.936933226306e+00 0.0 
8.714765730069e+00 -4.979270529687e+00 0.0 
1.611881701099e+01 -9.041973294003e+00 0.0 
2.806830314340e+01 -1.614622947108e+01 0.0 
2.084435391396e+00 -3.385085422913e+00 0.0 
3.133211811152e+01 -1.542347619750e+01 0.0 
9.693114650768e+00 -3.590281506442e+00 0.0 
1.531883592202e+01 -8.504584946143e+00 0.0 
2.151589117094e+01 -1.578915763018e+01 0.0 
4.918943882696e+01 -1.355538828056e+01 0.0 
1.443236615188e+01 -8.918701794549e+00 0.0 
8.276250966452e-01 -5.537685192197e+00 0.0 
1.362790867918e+01 -8.374718262212e+00 0.0 
2.083767477370e+01 -1.324843956035e+01 0.0 
1.273834678703e+01 -8.790890389337e+00 0.0 
1.192275845670e+01 -8.242261327467e+00 0.0 
4.477236023583e+01 -1.824312396664e+01 0.0 
1.102989384254e+01 -8.649855800911e+00 0.0 
4.849096516045e+01 -1.917293752213e+01 0.0 
1.588996752238e+00 -1.910230934687e+01 0.0 
4.904245197583e+01 -1.159839008158e+01 0.0 
2.753852929608e+01 -5.782128488093e+00 0.0 
1.756133602833e+01 -8.306130313187e-01 0.0 
2.615423700951e+01 -6.153865090092e+00 0.0 
1.028818761294e+01 -7.122020845892e+00 0.0 
2.970818901196e+01 -1.527821347593e+01 0.0 
4.801461623449e+01 -1.164472570985e+01 0.0 
9.455722100419e+00 -6.546069291118e+00 0.0 
3.089099236677e+01 -1.835339328261e+01 0.0 
2.350000000013e+01 -1.920825896750e+01 0.0 
4.830620531887e+01 -1.506626155470e+01 0.0 
1.725381944701e+01 -1.688794487850e+01 0.0 
2.156246225273e+01 -1.475893794002e+01 0.0 
4.919319648787e+01 -1.742767505896e+01 0.0 
4.437935623576e+01 -1.077662927266e+01 0.0 
1.001520521978e+01 -1.652692675208e+00 0.0 
9.067160240050e-01 -1.441937727541e+01 0.0 
2.603365149390e+01 -4.755996613848e+00 0.0 
2.458344439002e+01 -4.873645517696e+00 0.0 
2.304312390142e+01 -3.836552768096e+00 0.0 
2.546923202198e+00 -6.902480355749e+00 0.0 
1.251534969393e+01 -2.490989965776e+00 0.0 
2.454061833377e+01 -3.933354231935e+00 0.0 
1.788186558740e+01 -1.827424884923e+01 0.0 
4.090785243552e+01 -1.166553231904e+01 0.0 
2.230128851568e+01 -1.623015738726e+01 0.0 
2.302362347568e+01 -2.916239960270e+00 0.0 
3.878119254461e+01 -1.830091164002e+01 0.0 
2.210081359958e+01 -1.829238229150e+01 0.0 
8.443704882233e+00 -1.921993252862e+01 0.0 
2.218405824691e+01 -1.724557581508e+01 0.0 
2.151157503963e+01 -2.790636689331e+00 0.0 
3.741658958955e+01 -1.250400191722e+01 0.0 
2.697247663737e+01 -1.838290202309e+01 0.0 
4.743362342862e+01 -1.585850773010e+01 0.0 
6.671345075358e+00 -1.924977576322e+01 0.0 
3.900825404537e+01 -1.157220003875e+01 0.0 
4.649692961375e+01 -1.836335837481e+01 0.0 
1.578831424832e+01 -3.678284023361e+00 0.0 
4.814208768888e+01 -1.841249298770e+01 0.0 
2.964123298315e+01 -1.625739458193e+01 0.0 
4.580760351902e+01 -1.284294554687e+01 0.0 
3.561520879615e+01 -1.245548941949e+01 0.0 
2.555418095658e+00 -1.841101588290e+01 0.0 
3.288468366144e+01 -1.834258164109e+01 0.0 
2.065894391445e+01 -2.240688571739e+00 0.0 
4.739171429915e+01 -1.496536413446e+01 0.0 
3.478086729185e+00 -8.576434653209e+00 0.0 
1.606010630246e+01 -1.588421807951e+00 0.0 
1.018329200594e+01 -1.834320874317e+01 0.0 
2.957213339430e+01 -1.720496954591e+01 0.0 
4.142712790164e+00 -1.837794506222e+01 0.0 
6.698721532573e-01 -2.499999999997e+00 0.0 
8.037039123140e+00 -1.571229354954e+00 0.0 
1.203541361428e+01 -1.847784298001e+01 0.0 
2.899968332038e+01 -1.848264722179e+01 0.0 
1.469229460948e+01 -4.219485753730e+00 0.0 
4.049590781957e+01 -1.932812501995e+01 0.0 
1.996211678340e+01 -1.506329754720e+00 0.0 
4.250588298353e+01 -1.067383247529e+01 0.0 
5.831497011152e+00 -1.635396227234e+00 0.0 
5.317606125670e+00 -1.923927974868e+01 0.0 
4.208546426993e+01 -1.842830665025e+01 0.0 
2.327553405011e+00 -9.459409929662e+00 0.0 
3.568351902251e+01 -1.096637218582e+01 0.0 
1.682104374890e+00 -6.231413350963e+00 0.0 
2.451812238018e+01 -1.766524914339e+01 0.0 
1.058003429638e+01 -2.391839617098e+00 0.0 
4.399988753123e+01 -1.851998776342e+01 0.0 
1.400000000010e+01 -1.852293523028e+01 0.0 
3.604719565984e+01 -1.850662876800e+01 0.0 
1.951297136734e+01 -1.938092349694e+01 0.0 
1.821365318472e+01 -1.531276353287e+00 0.0 
2.298031859732e+01 -1.854635324722e+01 0.0 
1.552168066204e+01 -1.764280741977e+01 0.0 
4.572957713638e+01 -1.073347898229e+01 0.0 
3.429637429624e+01 -1.838861552790e+01 0.0 
2.427434426052e+00 -7.705577451869e+00 0.0 
4.662792031485e+00 -3.359424455416e+00 0.0 
4.926794919243e+01 -1.926794919243e+01 0.0 
7.320508075690e-01 -7.320508075688e-01 0.0 
4.926794919243e+01 -1.073205080757e+01 0.0 
7.320508075705e-01 -1.926794919243e+01 0.0 
2.917460242467e+00 -3.202866455310e+00 0.0 
4.838200575963e+01 -1.232674147454e+01 0.0 
2.998445708009e+01 -1.854403752148e+01 0.0 
5.949940090766e-01 -1.152762038165e+01 0.0 
4.844763495759e+01 -1.678092548787e+01 0.0 
1.301685480160e+01 -3.170056592566e+00 0.0 
1.650046335855e+01 -6.731535384067e-01 0.0 
4.854881540991e+01 -1.405224059779e+01 0.0 
2.119545114693e+01 -1.846813384545e+01 0.0 
3.797852849897e+01 -1.857978513215e+01 0.0 
4.649823708745e+01 -1.338351810816e+01 0.0 
2.012685900976e+01 -2.889659035009e+00 0.0 
2.953271913273e+01 -1.791558075192e+01 0.0 
2.408509097292e+00 -1.021949208421e+01 0.0 
2.642589566221e+01 -1.773216561448e+01 0.0 
1.730010270775e+01 -1.763165076721e+01 0.0 
2.017406551304e+01 -8.513536440582e-01 0.0 
5.254761581934e-01 -1.249999999999e+01 0.0 
6.640448215642e+00 -1.545337834885e+00 0.0 
7.843361506349e+00 -1.852719839527e+01 0.0 
1.588442191088e+00 -1.066158564320e+01 0.0 

SCALARS node_number int
LOOKUP_TABLE default
1
2
3
4
5
6
7
8
9
10
11
12
13
14
15
16
17
18
19
20
21
22
23
24
25
26
27
28
29
30
31
32
33
34
35
36
37
38
39
40
41
42
43
44
45
46
47
48
49
50
51
52
53
54
55
56
57
58
59
60
61
62
63
64
65
66
67
68
69
70
71
72
73
74
75
76
77
78
79
80
81
82
84
85
86
87
88
89
90
91
92
93
104
105
106
107
108
109
110
111
112
113
114
115
116
117
118
119
120
121
122
123
124
125
126
127
128
129
130
131
132
133
134
135
136
362
363
364
365
366
367
368
369
370
371
372
373
374
375
376
377
378
379
380
381
382
383
384
385
386
387
388
389
390
391
392
393
394
395
396
397
398
399
400
401
402
403
404
405
406
407
408
409
410
411
412
413
414
415
416
417
418
419
420
421
422
423
424
425
426
427
428
429
430
431
432
433
434
435
436
437
438
439
440
441
442
443
444
445
446
447
448
449
450
451
452
453
454
455
456
457
458
459
460
461
462
463
464
465
466
467
468
469
470
471
472
473
474
475
476
477
478
479
480
481
482
483
484
485
486
487
488
489
490
491
492
493
494
495
496
497
498
499
500
501
502
503
504
505
506
507
508
509
510
511
512
513
514
515
516
517
518
519
520
521
522
523
524
525
526
527
528
529
530
531
532
533
534
535
536
537
538
539
540
541
542
543
544
545
546
547
548
549
550
551
552
553
554
555
556
557
558
559
560
561
562
563
564
565
566
567
568
569
570
571
572
573
574
575
576
577
578
579
580
581
582
583
584
585
586
587
588
589
590
591
592
593
594
595
596
597
598
599
600
601
602
603
604
605
606
607
608
609
610
611
612
613
614
615
616
617
618
619
620
621
622
623
624
625
626
627
628
629
630
631
632
633
634
635
636
637
638
639
640
641
642
643
644
645
646
647
648
649
650
651
652
653
654
655
656
657
658
659
660
661
662
663
664
665
666
667
668
669
670
671
672
673
674
675
676
677
678
679
680
681
682
683
684
685
686
687
688
689
690
691
692
693
694
695
696
697
698
699
700
701
702
703
704
705
706
707
708
709
710
711
712
713
714
715
716
717
718
719
720
721
722
723
724
725
726
727
728
729
730
731
732
733
734
735
736
737
738
739
740
741
742
743
744
745
746
747
748
749
750
751
752
753
754
755
756
757
758
759
760
761
762
763
764
765
766
767
768
769
770
771
772
773
774
775
776
777
778
779
780
781
782
783
784
785
786
787
788
789
790
791
792
793
794
795
796
797
798
799
800
801
802
803
804
805
806
807
808
809
810
811
812
813
814
815
816
817
818
819
820
821
822
823
824
825
826
827
828
829
830
831
832
833
834
835
836
837
838
839
840
841
842
843
844
845
846
847
848
849
850
851
852
853
854
855
856
857
858
859
860
861
862
863
864
865
866
867
868
869
870
871
872
873
874
875
876
877
878
879
880
881
882
883
884
885
886
887
888
889
890
891
892
893
894
895
896
897
898
899
900
901
902
903
904
905
906
907
908
909
910
911
912
913
914
915
916
917
918
919
920
921
922
923
924
925
926
927
928
929
930
931
932
933
934
935
936
937
938
939
940
941
942
943
944
945
946
947
948
949
950
951
952
953
954
955
956
957
958
959
960
961
962
963
964
965
966
967
968
969
970
971
972
973
974
975
976
977
978
979
980
981
982
983
984
985
986
987
988
989
990
991
992
993
994
995
996
997
998
999
1000
1001
1002
1003
1004
1005
1006
1007
1008
1009
1010
1011
1012
1013
1014
1015
1016
1017
1018
1019
1020
1021
1022
1023
1024
1025
1026
1027
1028
1029
1030
1031
1032
1033
1034
1035
1036
1037
1038
1039
1040
1041
1042
1043
1044
1045
1046
1047
1048
1049
1050
1051
1052
1053
1054
1055
1056
1057
1058
1059
1060
1061
1062
1063
1064
1065
1066
1067
1068
1069
1070
1071
1072
1073
1074
1075
1076
1077
1078
1079
1080
1081
1082
1083
1084
1085
1086
1087
1088
1089
1090
1091
1092
1093
1094
1095
1096
1097
1098
1099
1100
1101
1102
1103
1104
1105
1106
1107
1108
1109
1110
1111
1112
1113
1114
1115
1116
1117
1118
1119
1120
1121
1122
1123
1124
1125
1126
1127
1128
1129
1130
1131
1132
1133
1134
1135
1136
1137
1138
1139
1140
1141
1142
1143
1144
1145
1146
1147
1148
1149
1150
1151
1152
1153
1154
1155
1156
1157
1158
1159
1160
1161
1162
1163
1164
1165
1166
1167
1168
1169
1170
1171
1172
1173
1174
1175
1176
1177
1178
1179
1180
1181
1182
1183
1184
1185
1186
1187
1188
1189
1190
1191
1192
1193
1194
1195
1196
1197
1198
1199
1200
1201
1202
1203
1204
1205
1206
1207
1208
1209
1210
1211
1212
1213
1214
1215
1216
1217
1218
1219
1220
1221
1222
1223
1224
1225
1226
1227
1228
1229
1230
1231
1232
1233
1234
1235
1236
1237
1238
1239
1240
1241
1242
1243
1244
1245
1246
1247
1248
1249
1250
1251
1252
1253
1254
1255
1256
1257
1258
1259
1260
1261
1262
1263
1264

VECTORS node_mesh_deformation float
0.0 6.549314279513e-02 0.0 
0.000000000000e+00 1.649916032927e-01 0.0 
0.0 0.000000000000e+00 0.0 
0.000000000000e+00 0.000000000000e+00 0.0 
0.0 6.668510534734e-02 0.0 
0.0 6.716176359218e-02 0.0 
0.0 6.712368010925e-02 0.0 
0.0 6.641137674238e-02 0.0 
0.0 6.473292264257e-02 0.0 
0.0 6.247233601328e-02 0.0 
0.0 5.973915573226e-02 0.0 
0.0 5.661028908217e-02 0.0 
0.0 5.316348498500e-02 0.0 
0.0 4.945109655734e-02 0.0 
0.0 4.549713911207e-02 0.0 
0.0 4.133057913347e-02 0.0 
0.0 3.695418636964e-02 0.0 
0.0 3.236764779374e-02 0.0 
0.0 2.755431384709e-02 0.0 
0.0 2.250611439652e-02 0.0 
0.0 1.722205555050e-02 0.0 
0.0 1.170085685165e-02 0.0 
0.0 5.959536910744e-03 0.0 
0.000000000000e+00 0.000000000000e+00 0.0 
0.000000000000e+00 0.000000000000e+00 0.0 
0.000000000000e+00 0.000000000000e+00 0.0 
0.000000000000e+00 0.000000000000e+00 0.0 
0.000000000000e+00 0.000000000000e+00 0.0 
0.000000000000e+00 0.000000000000e+00 0.0 
0.000000000000e+00 0.000000000000e+00 0.0 
0.000000000000e+00 0.000000000000e+00 0.0 
0.000000000000e+00 0.000000000000e+00 0.0 
0.000000000000e+00 0.000000000000e+00 0.0 
0.000000000000e+00 0.000000000000e+00 0.0 
0.000000000000e+00 0.000000000000e+00 0.0 
0.000000000000e+00 0.000000000000e+00 0.0 
0.000000000000e+00 0.000000000000e+00 0.0 
0.000000000000e+00 0.000000000000e+00 0.0 
0.000000000000e+00 0.000000000000e+00 0.0 
0.000000000000e+00 0.000000000000e+00 0.0 
0.000000000000e+00 0.000000000000e+00 0.0 
0.000000000000e+00 0.000000000000e+00 0.0 
0.000000000000e+00 0.000000000000e+00 0.0 
0.000000000000e+00 0.000000000000e+00 0.0 
0.000000000000e+00 0.000000000000e+00 0.0 
0.000000000000e+00 0.000000000000e+00 0.0 
0.000000000000e+00 0.000000000000e+00 0.0 
0.000000000000e+00 0.000000000000e+00 0.0 
0.000000000000e+00 0.000000000000e+00 0.0 
0.000000000000e+00 0.000000000000e+00 0.0 
0.000000000000e+00 0.000000000000e+00 0.0 
0.000000000000e+00 0.000000000000e+00 0.0 
0.000000000000e+00 0.000000000000e+00 0.0 
0.000000000000e+00 0.000000000000e+00 0.0 
0.000000000000e+00 0.000000000000e+00 0.0 
0.000000000000e+00 0.000000000000e+00 0.0 
0.000000000000e+00 0.000000000000e+00 0.0 
0.000000000000e+00 0.000000000000e+00 0.0 
0.000000000000e+00 0.000000000000e+00 0.0 
0.000000000000e+00 0.000000000000e+00 0.0 
0.000000000000e+00 0.000000000000e+00 0.0 
0.000000000000e+00 0.000000000000e+00 0.0 
0.000000000000e+00 0.000000000000e+00 0.0 
0.000000000000e+00 0.000000000000e+00 0.0 
0.000000000000e+00 0.000000000000e+00 0.0 
0.000000000000e+00 0.000000000000e+00 0.0 
0.000000000000e+00 0.000000000000e+00 0.0 
0.000000000000e+00 0.000000000000e+00 0.0 
0.000000000000e+00 0.000000000000e+00 0.0 
0.000000000000e+00 0.000000000000e+00 0.0 
0.000000000000e+00 0.000000000000e+00 0.0 
0.000000000000e+00 0.000000000000e+00 0.0 
0.000000000000e+00 1.499095780388e-01 0.0 
0.000000000000e+00 1.344117067626e-01 0.0 
0.000000000000e+00 1.185338050059e-01 0.0 
0.000000000000e+00 1.023134884202e-01 0.0 
0.000000000000e+00 8.578736687962e-02 0.0 
0.000000000000e+00 6.899629461358e-02 0.0 
0.000000000000e+00 5.198231632216e-02 0.0 
0.000000000000e+00 3.478721781768e-02 0.0 
0.000000000000e+00 1.745702197534e-02 0.0 
2.265440888846e-02 -5.624152526819e-02 0.0 
4.084745532342e-02 1.462104671700e-01 0.0 
3.152485575412e-02 -2.289107302426e-03 0.0 
3.527159464092e-02 3.309161690222e-02 0.0 
3.975556557480e-02 6.254870818320e-02 0.0 
4.464381352854e-02 8.735863461966e-02 0.0 
4.886191978058e-02 1.074718507906e-01 0.0 
5.194780185339e-02 1.237204668586e-01 0.0 
5.352011504899e-02 1.357784512924e-01 0.0 
5.291616374810e-02 1.437724017518e-01 0.0 
4.927287353505e-02 1.479961934292e-01 0.0 
2.344948680339e-03 1.650556381592e-01 0.0 
4.628582061613e-03 1.650197186005e-01 0.0 
6.935494419039e-03 1.650104444633e-01 0.0 
9.268564608050e-03 1.649961741054e-01 0.0 
1.163141421768e-02 1.649123834530e-01 0.0 
1.400807401340e-02 1.647630701050e-01 0.0 
1.642261741782e-02 1.644990505391e-01 0.0 
1.886450393468e-02 1.640553675428e-01 0.0 
2.135185007747e-02 1.633739409417e-01 0.0 
2.390326025553e-02 1.623856544515e-01 0.0 
2.652274232269e-02 1.609198313915e-01 0.0 
2.929101582868e-02 1.588261260723e-01 0.0 
3.233656929782e-02 1.559433792555e-01 0.0 
3.593680753335e-02 1.522678688592e-01 0.0 
2.474230584271e-02 -7.145341895396e-02 0.0 
2.772752597928e-02 -7.357683074753e-02 0.0 
3.101749436985e-02 -7.126167590307e-02 0.0 
3.522444253086e-02 -6.279869260051e-02 0.0 
3.775718469723e-02 -4.486713347836e-02 0.0 
3.800605337947e-02 -2.274490968648e-02 0.0 
3.614618113291e-02 -7.389592909292e-03 0.0 
3.314036457303e-02 4.314272827800e-03 0.0 
3.146679598179e-02 1.434049342044e-02 0.0 
2.900202654052e-02 2.310515377863e-02 0.0 
2.682507483182e-02 3.131420490488e-02 0.0 
2.478915954870e-02 3.840276735509e-02 0.0 
2.248822146836e-02 4.477318445005e-02 0.0 
1.982399902247e-02 5.037309181206e-02 0.0 
1.684914200552e-02 5.510856970322e-02 0.0 
1.368475996459e-02 5.890457686335e-02 0.0 
1.037864115671e-02 6.183182546198e-02 0.0 
7.014034434214e-03 6.389983027930e-02 0.0 
3.530061714614e-03 6.507769235316e-02 0.0 
2.929467199086e-02 -2.454521969442e-02 0.0 
3.332650992656e-02 1.638935911276e-02 0.0 
3.741515431221e-02 4.826792415287e-02 0.0 
4.212223314696e-02 7.610914876606e-02 0.0 
4.712531419711e-02 9.817705749382e-02 0.0 
5.072841634294e-02 1.163119902900e-01 0.0 
5.296836705529e-02 1.302222086127e-01 0.0 
5.350903943917e-02 1.402146005892e-01 0.0 
5.153313578206e-02 1.463520256139e-01 0.0 
4.584364082721e-02 1.483584037924e-01 0.0 
3.984870899848e-02 1.379211009202e-02 0.0 
3.339339992809e-03 4.334622381414e-03 0.0 
2.292179948251e-02 1.936787938077e-02 0.0 
2.524465923536e-02 -5.251648485691e-02 0.0 
-7.402568158277e-05 3.677093518238e-03 0.0 
4.867557910150e-02 7.265902124594e-02 0.0 
-1.401708071354e-03 4.719781052903e-02 0.0 
6.206868561009e-03 5.633006410992e-03 0.0 
5.530088047738e-02 1.087153341452e-01 0.0 
8.139861298382e-03 7.116090623011e-03 0.0 
5.543637594854e-02 1.299237567772e-01 0.0 
-1.182965170304e-03 3.988568493028e-03 0.0 
1.657303218275e-02 4.895533748744e-02 0.0 
9.842873714934e-03 8.887632491231e-03 0.0 
4.494097719986e-02 1.340858036116e-01 0.0 
-8.108551947648e-04 6.077202998636e-02 0.0 
-1.299073416210e-03 3.545759994774e-02 0.0 
1.054650710676e-02 1.091399757830e-02 0.0 
7.882343248923e-03 1.265211663285e-02 0.0 
2.384994283616e-03 1.477918152826e-02 0.0 
4.404486476240e-03 1.567976181897e-02 0.0 
5.789424754184e-03 1.343115481903e-02 0.0 
3.571414252455e-02 1.407764483983e-01 0.0 
2.322172543628e-02 1.492729093072e-01 0.0 
1.535627499418e-02 1.506410959588e-01 0.0 
1.539892867861e-03 9.382923401432e-02 0.0 
-1.105962463023e-03 4.829109143419e-03 0.0 
2.795341841379e-02 -6.912873692603e-02 0.0 
9.639749821834e-03 6.145076049243e-02 0.0 
-8.440050987308e-04 2.022524203995e-02 0.0 
7.944371880058e-03 1.520208427848e-01 0.0 
8.410148447990e-04 6.655593830484e-02 0.0 
1.044118540656e-02 1.346766693613e-02 0.0 
6.726439281394e-03 5.835733546231e-03 0.0 
8.888330589741e-03 7.869267501203e-03 0.0 
5.201880571281e-03 5.233238681956e-03 0.0 
1.766067649376e-03 3.689095575631e-03 0.0 
2.457221527374e-02 -1.408720219377e-02 0.0 
2.900375938210e-02 1.472234803181e-01 0.0 
-1.069087435758e-03 4.482222727024e-03 0.0 
1.182047377981e-03 6.123467321712e-02 0.0 
1.994187995852e-02 3.545074639994e-02 0.0 
-1.287661488138e-03 5.464627080018e-02 0.0 
1.197640211686e-03 1.207831752266e-02 0.0 
5.270197939764e-02 9.134406158839e-02 0.0 
4.395361577844e-02 4.560313472984e-02 0.0 
5.645604842751e-02 1.211959512018e-01 0.0 
5.169500738361e-02 1.343837847177e-01 0.0 
3.649190629840e-02 -2.655833552227e-02 0.0 
1.838494212137e-03 1.246211471093e-01 0.0 
-5.575710454080e-04 4.003484748878e-03 0.0 
4.378258053107e-03 6.558889645208e-02 0.0 
6.563570101790e-04 2.741275829468e-02 0.0 
4.308512258633e-02 1.311215068515e-01 0.0 
4.620312396695e-02 1.207484922086e-01 0.0 
4.261685044045e-02 1.198084494927e-01 0.0 
4.576967988601e-02 1.078409756311e-01 0.0 
4.235746951881e-02 1.044944192188e-01 0.0 
4.429770158714e-02 9.443258401222e-02 0.0 
4.792402449923e-02 9.713535316281e-02 0.0 
4.560826615843e-02 8.457408994068e-02 0.0 
4.934877959379e-02 8.694107923724e-02 0.0 
4.043491667750e-02 9.049999437596e-02 0.0 
4.623790146246e-02 7.507169545504e-02 0.0 
5.006730930026e-02 7.716774976545e-02 0.0 
4.620271484617e-02 6.601393857306e-02 0.0 
5.008206300923e-02 6.787160485003e-02 0.0 
5.361249010048e-02 7.828635713772e-02 0.0 
5.366484244505e-02 6.879292817769e-02 0.0 
5.678465647294e-02 7.837274247119e-02 0.0 
5.686876903008e-02 6.867056814173e-02 0.0 
5.303129682762e-02 5.988023960199e-02 0.0 
5.623491475264e-02 5.961778395057e-02 0.0 
5.955458782815e-02 6.749242982158e-02 0.0 
5.890638762120e-02 5.830408787348e-02 0.0 
6.166396405377e-02 6.522824415356e-02 0.0 
6.096103370366e-02 5.590633398206e-02 0.0 
6.316899257482e-02 6.185967610911e-02 0.0 
6.238811968238e-02 5.250303227256e-02 0.0 
5.958670694587e-02 4.732953768305e-02 0.0 
6.092961297513e-02 4.402904597018e-02 0.0 
6.314890307845e-02 4.822072928791e-02 0.0 
6.138635548169e-02 3.958802670614e-02 0.0 
6.298626031278e-02 4.259956155572e-02 0.0 
6.073610371121e-02 3.380893729536e-02 0.0 
5.820698260627e-02 3.215218819333e-02 0.0 
5.701772472359e-02 2.658001579112e-02 0.0 
5.891965758462e-02 2.683389739457e-02 0.0 
5.459689991283e-02 2.001321551747e-02 0.0 
5.595807034855e-02 1.882282411135e-02 0.0 
5.091286942888e-02 1.253752941983e-02 0.0 
5.182454271525e-02 9.923199412281e-03 0.0 
4.591226974627e-02 4.372537581737e-03 0.0 
4.406504856409e-02 8.649645606843e-03 0.0 
3.833168308734e-02 1.557561254447e-03 0.0 
3.973687996642e-02 -3.934778553573e-03 0.0 
3.166256217701e-02 -5.183521553759e-03 0.0 
2.983914127613e-02 1.134852314006e-03 0.0 
2.319690916082e-02 -4.105713562625e-03 0.0 
2.166432280871e-02 2.067204321573e-03 0.0 
1.550709885107e-02 -1.885444420051e-03 0.0 
1.663284093596e-02 -7.884434416225e-03 0.0 
9.787203906768e-03 -4.252446822294e-03 0.0 
9.254575184457e-03 6.995505342982e-04 0.0 
4.487969120206e-03 -5.039800193227e-04 0.0 
4.933009751504e-03 -4.847350657666e-03 0.0 
7.026055236423e-04 -4.285681852778e-05 0.0 
6.166366689850e-04 3.158527482924e-03 0.0 
-2.274450534482e-03 4.410274725883e-03 0.0 
-2.156574386415e-03 1.751213833957e-03 0.0 
-4.433289825590e-03 6.746133317574e-03 0.0 
-4.381132022715e-03 8.652814464073e-03 0.0 
-6.196675505947e-03 1.155170311596e-02 0.0 
-6.064742076980e-03 1.008781490606e-02 0.0 
-7.483516872311e-03 1.525952884864e-02 0.0 
-7.477879984085e-03 1.604392802527e-02 0.0 
-8.449506753864e-03 1.998266201356e-02 0.0 
-8.268126759804e-03 2.004509651930e-02 0.0 
-8.238907064291e-03 1.971212015902e-02 0.0 
-8.909704069088e-03 2.447165124162e-02 0.0 
-8.434498856046e-03 2.471566417420e-02 0.0 
-8.871501659355e-03 2.935979920039e-02 0.0 
5.333894193901e-02 2.643647250726e-02 0.0 
-8.083629061870e-03 3.003705678296e-02 0.0 
-7.423736978136e-03 2.477956914010e-02 0.0 
-8.362752815677e-03 3.447829896868e-02 0.0 
-8.914276937405e-03 3.324654626052e-02 0.0 
-7.249717121192e-03 3.554111324231e-02 0.0 
-7.449939891212e-03 3.967709027389e-02 0.0 
-6.024863305035e-03 4.104037452157e-02 0.0 
5.593520203028e-02 1.769092975946e-02 0.0 
5.173065036973e-02 5.159746141157e-02 0.0 
-6.217808829605e-03 4.478641541246e-02 0.0 
-4.527277154658e-03 4.635883125220e-02 0.0 
-3.885766554237e-03 4.219382286964e-02 0.0 
-2.121917421259e-03 4.765594867363e-02 0.0 
3.862127631008e-02 1.002756297901e-01 0.0 
3.637629461156e-02 8.562968245322e-02 0.0 
3.478360714110e-02 9.511767825208e-02 0.0 
3.218426222039e-02 7.998595090804e-02 0.0 
3.083613378882e-02 8.900956904580e-02 0.0 
-2.891614876186e-03 5.133936247604e-02 0.0 
4.198965751826e-02 6.282832856634e-02 0.0 
3.298818756753e-02 7.088635870907e-02 0.0 
6.163524070035e-02 7.528932870296e-02 0.0 
6.420490292894e-02 5.228281309721e-02 0.0 
2.758448123453e-02 6.963960514359e-03 0.0 
-7.277124251800e-03 4.296750657400e-02 0.0 
-6.035266156728e-03 4.767452402797e-02 0.0 
-6.760081219643e-03 4.541484965774e-02 0.0 
-7.104082977378e-03 1.654767695688e-02 0.0 
-7.718842919761e-03 1.979574187313e-02 0.0 
-6.397971370838e-03 1.668186756430e-02 0.0 
-6.880617803983e-03 1.915467472514e-02 0.0 
-5.460892856929e-03 1.634941273566e-02 0.0 
-5.888790286120e-03 1.806299144672e-02 0.0 
-7.000960199001e-03 2.107742936553e-02 0.0 
-6.004234187463e-03 1.928595232380e-02 0.0 
-6.832725233940e-03 2.243850316460e-02 0.0 
-4.459660994014e-03 1.548576934318e-02 0.0 
-3.702269515959e-03 1.408874268785e-02 0.0 
-5.856274819000e-03 2.000791334455e-02 0.0 
-6.429861246884e-03 2.323374220254e-02 0.0 
-5.491857227114e-03 2.021662462699e-02 0.0 
-5.835940199789e-03 2.347679758581e-02 0.0 
-6.674289835702e-03 2.668579105069e-02 0.0 
-5.867345519069e-03 2.690131020711e-02 0.0 
-6.598596247328e-03 3.029018717717e-02 0.0 
2.027377033829e-02 7.313402628080e-03 0.0 
2.530790347706e-02 1.161004723060e-02 0.0 
1.893621053148e-02 1.134707554485e-02 0.0 
2.288356157745e-02 1.468508577809e-02 0.0 
1.751008382637e-02 1.372740745986e-02 0.0 
2.043071468000e-02 1.602508509465e-02 0.0 
1.586618131650e-02 1.456833240997e-02 0.0 
1.302455267278e-02 1.283243053165e-02 0.0 
4.552195847355e-02 5.729251147646e-02 0.0 
3.277111713741e-02 -1.155092830010e-02 0.0 
4.007801520230e-02 -9.220207777091e-03 0.0 
3.306140480050e-02 -1.778337203021e-02 0.0 
3.941602091857e-02 -1.425397933528e-02 0.0 
3.258620668756e-02 -2.373469105169e-02 0.0 
3.821726941833e-02 -1.916554988130e-02 0.0 
3.174737628981e-02 -2.959606933835e-02 0.0 
2.594043903531e-02 -3.079529861742e-02 0.0 
2.560809725962e-02 -3.730003701803e-02 0.0 
1.988301591694e-02 -3.474584266619e-02 0.0 
2.031252010039e-02 -4.154882592996e-02 0.0 
1.471759936010e-02 -3.532107130293e-02 0.0 
5.717056368680e-02 3.984417003488e-02 0.0 
2.580088575698e-02 1.755191071982e-02 0.0 
2.234761506300e-02 1.774159639957e-02 0.0 
2.761442244304e-02 1.971915184897e-02 0.0 
-9.637621164575e-04 4.313234143515e-02 0.0 
-5.083845596515e-03 2.319174990870e-02 0.0 
-2.763506256438e-03 1.340529453176e-02 0.0 
-1.668413523539e-03 1.247414735142e-02 0.0 
1.189832743311e-02 1.327315521026e-02 0.0 
-3.133108186670e-04 5.266234346826e-02 0.0 
3.682280736134e-02 -2.399575358327e-02 0.0 
4.277734140786e-02 -1.098406196162e-02 0.0 
2.795242873859e-02 7.344881282425e-02 0.0 
2.688385266198e-02 8.212777068745e-02 0.0 
-8.537263135704e-04 1.191896327764e-02 0.0 
-1.266272904020e-03 5.585379969773e-02 0.0 
-5.012592917341e-03 1.704496318328e-02 0.0 
2.525971902703e-02 -4.389444447018e-02 0.0 
-4.937828061639e-03 2.656976134147e-02 0.0 
-4.211118039966e-03 2.241733146430e-02 0.0 
-7.743391495143e-03 2.446263345003e-02 0.0 
2.323731627745e-02 1.875040952982e-02 0.0 
2.843587789529e-02 2.111180701885e-02 0.0 
1.365858061620e-02 -2.854488532186e-02 0.0 
8.954062169714e-03 -2.632412385921e-02 0.0 
1.060189894784e-02 -3.252429083872e-02 0.0 
5.418902760548e-03 -2.113427895849e-02 0.0 
3.945399664277e-03 -1.660174716083e-02 0.0 
1.772533162756e-03 -1.158922258046e-02 0.0 
3.832328761467e-03 -1.490497388377e-02 0.0 
1.078446557559e-03 -5.404545095693e-03 0.0 
-1.027176355555e-03 -2.876823346628e-03 0.0 
-1.256468461198e-03 3.440468824228e-03 0.0 
1.608125536404e-03 1.889598059034e-03 0.0 
-4.018036052091e-04 1.050416681682e-02 0.0 
-4.248613140781e-03 1.913929122274e-02 0.0 
2.092698022572e-02 -4.837617336249e-02 0.0 
5.596242282242e-02 8.863783985846e-02 0.0 
-1.893681437355e-03 1.208272582502e-02 0.0 
1.385414659710e-02 1.411075633109e-02 0.0 
2.375348424793e-02 6.621258970440e-02 0.0 
2.297940906155e-02 7.460952783336e-02 0.0 
2.540438082642e-02 9.078335848524e-02 0.0 
2.180917161309e-02 8.295338146746e-02 0.0 
1.918276279994e-02 6.657101657646e-02 0.0 
1.832396585761e-02 7.471432460687e-02 0.0 
2.034307997382e-02 9.118362460355e-02 0.0 
1.715639715938e-02 8.275986701624e-02 0.0 
1.866808869467e-02 9.923442488579e-02 0.0 
1.575678455362e-02 9.066543780038e-02 0.0 
1.410928712838e-02 7.404089023075e-02 0.0 
1.296737489975e-02 8.187214434654e-02 0.0 
1.418972297749e-02 9.843073762715e-02 0.0 
1.162635012889e-02 8.958903210157e-02 0.0 
1.250218823791e-02 1.060395830367e-01 0.0 
1.012916154241e-02 9.718442242343e-02 0.0 
9.211928093926e-03 8.059092977946e-02 0.0 
1.269940725303e-03 5.697217022853e-02 0.0 
9.198160690396e-03 1.214503574210e-02 0.0 
8.427736186031e-03 1.222978107253e-02 0.0 
-5.536020877927e-03 4.961273573959e-02 0.0 
-5.990321086584e-03 4.694239246868e-02 0.0 
-7.071272478098e-03 4.287973978362e-02 0.0 
-6.061545430465e-03 4.408678013098e-02 0.0 
7.859854617912e-03 8.827042629983e-02 0.0 
6.987475555718e-03 7.148373760124e-02 0.0 
4.093336839425e-02 -1.441079427832e-02 0.0 
4.607175537996e-02 8.580004616165e-04 0.0 
2.403715700001e-02 5.784108646384e-02 0.0 
-3.925234568050e-03 2.573556736412e-02 0.0 
-4.519226124475e-03 2.997957250625e-02 0.0 
6.342866508748e-02 4.542704836878e-02 0.0 
6.400644510143e-02 5.622200013234e-02 0.0 
6.266078783784e-02 4.818804874045e-02 0.0 
6.242208459570e-02 6.019503217872e-02 0.0 
6.344353995878e-02 6.733563579747e-02 0.0 
6.054863658671e-02 5.089756149704e-02 0.0 
-2.554245672304e-03 1.228910322070e-02 0.0 
1.125258234436e-02 6.510908266130e-02 0.0 
-2.877460451879e-03 3.719151535826e-02 0.0 
5.699387983480e-04 3.785376965328e-02 0.0 
-3.288746427729e-03 2.120769649893e-02 0.0 
9.449035934873e-03 1.092952638228e-02 0.0 
5.532426947618e-02 4.212495354319e-02 0.0 
5.182798738960e-02 3.571844293368e-02 0.0 
4.963748221041e-02 3.690417925090e-02 0.0 
4.510124170604e-02 3.160999377919e-02 0.0 
4.263086119628e-02 3.163531459897e-02 0.0 
3.661129390463e-02 2.775234526222e-02 0.0 
3.880480377110e-02 2.803479369265e-02 0.0 
2.312895288451e-02 1.899004662013e-02 0.0 
3.086044258775e-02 2.416737094120e-02 0.0 
8.646407937235e-03 1.048042525504e-01 0.0 
3.204550698877e-02 1.910821154820e-02 0.0 
-3.311759020807e-03 5.191037129491e-03 0.0 
2.825957573881e-03 5.340163494959e-02 0.0 
3.662822242456e-03 9.805986584154e-03 0.0 
1.616509746909e-04 5.972727286514e-02 0.0 
-1.790837562586e-03 5.816862763069e-02 0.0 
-1.819046700540e-04 1.057382194941e-02 0.0 
3.370501850625e-02 2.663756186370e-02 0.0 
3.947237560185e-02 3.083456162010e-02 0.0 
6.125734083052e-02 7.230027840202e-02 0.0 
6.211009200283e-02 7.930980809171e-02 0.0 
1.874335343916e-02 1.635340781838e-02 0.0 
3.266335159627e-02 1.046874474810e-01 0.0 
2.164942106899e-02 1.075166817177e-01 0.0 
1.956801306345e-02 1.154980709814e-01 0.0 
2.911696054395e-03 6.044683176028e-02 0.0 
5.728526816412e-03 7.076318333170e-04 0.0 
1.556533867728e-02 5.814114646190e-02 0.0 
4.831839131720e-02 2.797678354018e-03 0.0 
5.051990681200e-02 1.497341418409e-02 0.0 
2.551049309323e-02 -5.079953768795e-02 0.0 
2.218941222250e-02 -5.564318670002e-02 0.0 
5.861992043634e-03 7.899099266701e-02 0.0 
5.040940233364e-03 6.224681597941e-02 0.0 
-7.016085190004e-03 4.012014534600e-02 0.0 
-5.888004210578e-03 4.090410296599e-02 0.0 
1.239248488572e-03 1.102068498382e-02 0.0 
1.463706346907e-03 1.788124824345e-02 0.0 
5.798734369002e-03 5.452820512630e-02 0.0 
5.908128214577e-03 1.097080847897e-02 0.0 
5.447240794631e-03 9.255665454694e-03 0.0 
-4.893692617248e-03 4.789536741343e-02 0.0 
4.477795004236e-02 -1.174472719131e-03 0.0 
4.045049386089e-02 -1.807175429687e-02 0.0 
-2.564538367352e-03 -1.935538456834e-04 0.0 
-2.116257863658e-03 1.812307713828e-02 0.0 
-5.465732935548e-04 6.156779416117e-02 0.0 
1.462970835062e-03 9.406859180075e-03 0.0 
1.573318761317e-02 5.012905135589e-02 0.0 
3.291236895697e-02 2.483465269891e-02 0.0 
4.031241839727e-02 2.756194302374e-02 0.0 
2.563936645268e-02 2.081255203022e-02 0.0 
6.224071383576e-03 1.776344234752e-02 0.0 
-1.181609604313e-03 1.010687758356e-02 0.0 
-2.877761331670e-03 2.446831431285e-02 0.0 
3.055741461296e-02 2.502993188132e-02 0.0 
3.563553953465e-02 2.918003916979e-02 0.0 
5.301890358203e-02 1.562261203387e-02 0.0 
5.445547488412e-02 2.813725652031e-02 0.0 
5.200963147090e-02 2.858572430800e-02 0.0 
5.502079465471e-02 4.148861283644e-02 0.0 
5.131262996314e-02 9.886443500907e-02 0.0 
5.696775351910e-02 2.751850975322e-02 0.0 
5.865870680654e-02 8.788807404632e-02 0.0 
5.710596209965e-02 9.890254275528e-02 0.0 
5.930243514442e-02 9.734013396024e-02 0.0 
6.378448760584e-02 7.347905726525e-02 0.0 
6.237480707206e-02 8.546043136563e-02 0.0 
4.587028740917e-02 -3.492786920130e-03 0.0 
3.273730176067e-02 1.209677430910e-02 0.0 
-7.936439855825e-03 3.860455615644e-02 0.0 
-7.448909865035e-03 2.954363992324e-02 0.0 
-5.462489194679e-03 1.368216425880e-02 0.0 
1.188078835438e-02 5.725698703365e-02 0.0 
9.028419987338e-03 4.819550801174e-02 0.0 
1.496084539755e-02 1.147300970588e-01 0.0 
1.301498864287e-02 1.221960774529e-01 0.0 
2.814240109519e-03 4.381409987187e-02 0.0 
4.906526314747e-03 3.824342305807e-02 0.0 
-8.591302354295e-03 2.342485208474e-02 0.0 
-2.602416066182e-03 1.208287273242e-02 0.0 
1.964734791878e-02 5.026470325488e-02 0.0 
1.907644241357e-02 4.222256064518e-02 0.0 
2.374610606367e-02 4.956036906834e-02 0.0 
3.198533198336e-03 1.039973129179e-02 0.0 
2.560658012228e-02 -1.755248126266e-02 0.0 
1.417535112200e-02 7.892875165837e-03 0.0 
1.771646814517e-02 -4.920387236752e-02 0.0 
5.388439878580e-02 3.060371414943e-02 0.0 
7.417169791930e-03 4.418840415611e-02 0.0 
4.814149780367e-02 5.099670106305e-02 0.0 
-2.355173138873e-03 1.961327729785e-02 0.0 
-2.619155215150e-03 1.637289004309e-02 0.0 
1.787228330943e-02 1.558443629182e-02 0.0 
4.882396944526e-02 1.221850228148e-01 0.0 
4.784824804137e-02 2.637021613028e-02 0.0 
4.679651653488e-02 2.270934428929e-02 0.0 
5.708939605006e-02 1.089965186429e-01 0.0 
5.873936652418e-02 1.066104460580e-01 0.0 
6.091955239886e-02 9.466247197116e-02 0.0 
5.980181550230e-02 1.031508759236e-01 0.0 
-4.739047095518e-03 6.963093155077e-03 0.0 
-5.083816474372e-03 1.236553490283e-02 0.0 
2.445871080790e-02 2.050093946546e-02 0.0 
2.325345393810e-02 1.927111516645e-02 0.0 
2.650957225354e-02 2.248070725948e-02 0.0 
3.111863154405e-02 2.658268900698e-02 0.0 
1.396318231981e-02 1.278117033124e-02 0.0 
1.480289229446e-02 1.386150764057e-02 0.0 
-1.872564651957e-03 5.963047032911e-02 0.0 
6.038627792130e-02 9.187553412716e-02 0.0 
1.205268627753e-02 4.148846733417e-02 0.0 
5.487621233916e-02 1.102550529561e-01 0.0 
-1.851676165675e-03 9.589013165446e-03 0.0 
-2.992465544363e-03 1.179470433816e-02 0.0 
2.036471495384e-02 -5.658717707730e-02 0.0 
1.525214363764e-02 -4.477149145494e-02 0.0 
3.979913166624e-03 4.555743800741e-02 0.0 
5.231538625375e-02 4.310876263209e-02 0.0 
5.472706695084e-02 5.563621733727e-02 0.0 
4.952828840945e-02 2.928947105810e-02 0.0 
-3.987531185242e-04 8.844955248293e-03 0.0 
3.453540917221e-03 1.522532620605e-01 0.0 
-1.790081087190e-03 1.448164642628e-02 0.0 
6.343594134359e-02 7.889065644345e-02 0.0 
4.297523582110e-03 3.711649382405e-02 0.0 
4.060747371555e-02 2.385868078639e-02 0.0 
6.156668382442e-02 3.701313290592e-02 0.0 
3.341441591573e-03 1.138588232287e-02 0.0 
3.233236129525e-03 5.469568709416e-02 0.0 
2.403120623562e-03 3.579088458094e-02 0.0 
2.223491066093e-02 1.233677298609e-01 0.0 
1.993294282314e-02 1.314673854748e-01 0.0 
2.465026313350e-02 1.154255596458e-01 0.0 
3.005269311633e-02 -4.164122412478e-02 0.0 
3.117638507784e-02 -4.871368122658e-02 0.0 
8.635767869897e-03 5.600412048426e-02 0.0 
-4.643035401456e-03 5.209000681535e-02 0.0 
-4.175059345477e-03 5.355094434372e-02 0.0 
-1.985037974279e-04 2.501315077235e-02 0.0 
-3.510110179095e-03 2.497408571808e-02 0.0 
-7.710757345587e-03 3.606878701444e-02 0.0 
-8.498510467708e-03 3.430007571303e-02 0.0 
4.612860155639e-02 4.341291968046e-02 0.0 
4.213914161589e-02 4.201814800763e-02 0.0 
5.284686611846e-02 4.362683737833e-02 0.0 
2.381409781453e-03 1.019323894693e-02 0.0 
1.468006271576e-03 8.298885442537e-03 0.0 
4.725729319787e-03 6.585369381581e-03 0.0 
9.172577114484e-03 4.089567352195e-02 0.0 
6.154807177566e-03 3.032611027306e-02 0.0 
-3.614485040545e-03 2.291373824476e-03 0.0 
-9.376252931421e-04 -4.558477610034e-03 0.0 
-6.359052518702e-03 1.333582946456e-02 0.0 
1.152913795133e-02 3.394054225677e-02 0.0 
-1.906085706608e-03 1.137335497359e-02 0.0 
-2.658095920931e-03 1.332441980317e-02 0.0 
9.979060518763e-03 3.851347893289e-02 0.0 
7.171027050978e-03 3.198460539947e-02 0.0 
4.313098513532e-02 -2.443935553561e-03 0.0 
3.939939411774e-02 -2.080416322333e-02 0.0 
1.813936269641e-02 3.492348865844e-02 0.0 
2.287208217699e-02 4.160446676690e-02 0.0 
1.307600673711e-02 2.666135437305e-02 0.0 
-7.169789158115e-04 6.266324682235e-02 0.0 
3.414975267641e-02 2.466003168054e-02 0.0 
2.946289349405e-03 8.458104480056e-03 0.0 
4.914728388925e-03 9.833824934805e-03 0.0 
1.376576095941e-03 6.726753159523e-03 0.0 
2.233911537359e-02 1.865348402125e-02 0.0 
1.632580846652e-02 1.427274657865e-02 0.0 
1.829444877039e-02 1.568244415054e-02 0.0 
2.424679819204e-02 -6.284008932317e-02 0.0 
1.803461168443e-03 4.290428749471e-02 0.0 
1.533126600859e-02 1.307310090050e-01 0.0 
2.394513969665e-02 -6.312598937592e-02 0.0 
1.318367173760e-02 1.385786368733e-01 0.0 
1.109712733400e-02 1.296101725951e-01 0.0 
1.135978464086e-02 1.461635407004e-01 0.0 
3.192929477391e-04 6.427152632266e-02 0.0 
2.498926465164e-02 1.337082165849e-01 0.0 
2.781387369454e-02 1.234377536609e-01 0.0 
1.393252282510e-02 3.204523609662e-02 0.0 
7.867435328251e-03 2.530731802222e-02 0.0 
1.214729104837e-02 4.387558622806e-02 0.0 
9.364863138571e-03 4.895070572722e-02 0.0 
-2.088537150575e-03 8.658731247998e-03 0.0 
-3.063410888458e-03 1.112847754909e-02 0.0 
-2.063185125433e-03 7.478522207823e-03 0.0 
-2.929621308989e-03 1.029131880198e-02 0.0 
-3.915701904950e-03 1.389496754014e-02 0.0 
-3.565310398114e-03 1.301521419176e-02 0.0 
1.777922764217e-02 1.403729127829e-01 0.0 
-2.357518561601e-03 8.271868042666e-03 0.0 
-3.024111919324e-03 1.162692621957e-02 0.0 
-1.821614906047e-03 6.699770312412e-03 0.0 
5.757689558247e-02 1.159960201750e-01 0.0 
5.752592190836e-02 5.312588347841e-02 0.0 
5.686758461680e-02 6.759439004265e-02 0.0 
5.347224507840e-02 7.151736211850e-02 0.0 
1.982836519268e-02 1.741831572510e-02 0.0 
2.659194832512e-02 2.368577517917e-02 0.0 
-1.836974811187e-03 2.271788534191e-02 0.0 
-2.140909470629e-03 2.760087835124e-02 0.0 
9.132773767959e-03 1.380506820397e-01 0.0 
6.684422651460e-03 1.387573440208e-01 0.0 
7.342577137180e-03 1.243462923609e-01 0.0 
5.302669942672e-03 1.261369923911e-01 0.0 
5.745823535214e-03 1.117459065295e-01 0.0 
3.699258639749e-03 1.136196557788e-01 0.0 
4.404348997447e-03 9.897965015702e-02 0.0 
1.540119491314e-02 1.331864105583e-02 0.0 
4.877273396999e-02 4.392872822074e-02 0.0 
5.440278830952e-02 1.210550169648e-01 0.0 
1.039749355812e-02 1.016666091784e-02 0.0 
1.163098524419e-02 1.190958214213e-02 0.0 
6.039240520780e-02 9.789292681698e-02 0.0 
5.862134751017e-02 1.050276684219e-01 0.0 
-6.603910294256e-04 7.107197844299e-03 0.0 
5.486216471856e-02 1.654472236900e-02 0.0 
5.901093318265e-03 1.587888850224e-02 0.0 
3.107798535561e-02 -6.232722034908e-02 0.0 
3.033232675616e-02 -5.884623235707e-02 0.0 
5.862761922651e-02 2.722127369219e-02 0.0 
6.196133748817e-02 9.074592413829e-02 0.0 
5.974396740959e-02 6.399199174077e-02 0.0 
5.872939050727e-02 7.717637083152e-02 0.0 
3.012491593882e-03 1.127101066105e-02 0.0 
9.908936869275e-03 2.506920587853e-02 0.0 
4.644516583823e-02 1.408794572092e-02 0.0 
6.417381427227e-03 9.730219779520e-02 0.0 
4.351028488311e-02 1.347918015013e-02 0.0 
-9.925368158882e-04 2.528257450371e-02 0.0 
5.144622710223e-02 7.433615040542e-03 0.0 
6.413423480096e-02 6.771927680801e-02 0.0 
4.858515691072e-02 1.426205597081e-02 0.0 
5.791898361406e-02 4.030059754061e-02 0.0 
5.285167545519e-02 8.831399519432e-02 0.0 
4.908611202362e-02 1.097460457693e-01 0.0 
5.198057584658e-02 1.108215504736e-01 0.0 
4.648437021910e-02 3.494750854696e-04 0.0 
5.984602543930e-02 8.503874948636e-02 0.0 
5.720146250059e-02 9.129646702173e-02 0.0 
5.949462586061e-02 7.736926881655e-02 0.0 
2.847697344826e-02 5.621524235984e-02 0.0 
2.777941277931e-02 4.790597585271e-02 0.0 
2.151159448453e-02 3.431856138927e-02 0.0 
2.644825916756e-02 4.009602803087e-02 0.0 
3.266393358908e-02 5.353916825242e-02 0.0 
3.149192595578e-02 4.545038351883e-02 0.0 
2.450322050661e-02 3.287856904209e-02 0.0 
2.967773218395e-02 3.786436182810e-02 0.0 
2.012998855791e-02 2.361906679661e-02 0.0 
2.700183665763e-02 3.053517352798e-02 0.0 
3.476301426080e-02 4.236787230182e-02 0.0 
3.255678535149e-02 3.536775059786e-02 0.0 
2.497400882572e-02 2.536115883706e-02 0.0 
3.983381211918e-02 4.668256678737e-02 0.0 
8.850989291787e-03 8.313678341505e-03 0.0 
5.933402744954e-02 2.712271282685e-02 0.0 
2.667001126339e-02 -5.847772517938e-02 0.0 
3.411372239600e-02 -4.391391551550e-02 0.0 
6.318893313352e-02 7.209980016892e-02 0.0 
1.011947530954e-02 1.164505549686e-02 0.0 
8.738499842849e-03 1.257718884812e-02 0.0 
4.450582666467e-02 -7.327396301215e-03 0.0 
9.334407140841e-03 8.392081487042e-03 0.0 
5.435033517658e-02 9.949147566760e-02 0.0 
3.077222197700e-02 -3.553952078367e-02 0.0 
8.611910464754e-03 7.581675930929e-03 0.0 
3.316035380185e-02 6.201512555226e-02 0.0 
3.774961894507e-02 6.730719802771e-02 0.0 
3.737978880362e-02 7.636465977471e-02 0.0 
6.972117620883e-03 1.250601469467e-02 0.0 
2.698261828257e-02 1.070092537872e-01 0.0 
6.280421762966e-03 5.549916341575e-03 0.0 
2.925937908812e-02 1.569145207206e-02 0.0 
3.664465414846e-02 1.677628182470e-02 0.0 
4.092313357969e-02 1.296596572798e-02 0.0 
3.646954107699e-02 5.038177449637e-02 0.0 
4.040862749250e-03 4.501985360736e-03 0.0 
6.643296765709e-03 7.902873704158e-03 0.0 
5.231366647003e-03 7.452876136146e-03 0.0 
8.286052970252e-03 1.055397036221e-02 0.0 
2.562732834372e-03 4.043189335057e-03 0.0 
9.775028489766e-03 9.277651406503e-03 0.0 
9.139063730977e-03 8.410813682431e-03 0.0 
2.336179404026e-04 -8.038062726453e-03 0.0 
2.724566821358e-03 -1.203351811095e-02 0.0 
1.780232083838e-03 -7.761553869034e-03 0.0 
6.584019731335e-03 -1.476893999885e-02 0.0 
7.674935790503e-03 -2.034875243411e-02 0.0 
1.265775663999e-02 -2.195046748748e-02 0.0 
1.168342057377e-02 -1.569524561791e-02 0.0 
1.943302132266e-02 -2.793320984540e-02 0.0 
3.479992324358e-02 3.278634595782e-02 0.0 
1.132644585317e-03 3.559405843177e-03 0.0 
-4.656593016582e-03 1.415962934360e-02 0.0 
-3.404119053849e-03 1.149655484406e-02 0.0 
-4.045384941797e-03 1.027291742334e-02 0.0 
-8.587586616245e-03 3.632023515843e-02 0.0 
-9.000247462738e-03 3.179770414007e-02 0.0 
-8.698926797622e-03 3.009528585748e-02 0.0 
-7.818592236765e-03 4.090488448386e-02 0.0 
4.689022682924e-02 3.080077487851e-02 0.0 
4.630580782319e-04 3.498809333919e-03 0.0 
9.297896921471e-03 8.553740513033e-03 0.0 
-9.155327119707e-03 2.852019385019e-02 0.0 
3.226477871166e-02 1.444029442959e-01 0.0 
3.487401089248e-02 1.295966761402e-01 0.0 
3.845866959148e-02 1.256026195703e-01 0.0 
3.648054322864e-02 1.125467275747e-01 0.0 
3.101717719012e-02 1.308968673568e-01 0.0 
-6.701206828297e-03 3.711238164292e-02 0.0 
-5.534685048839e-03 3.747693194724e-02 0.0 
-4.614018640739e-03 4.100514771134e-02 0.0 
-4.268048247615e-03 3.721869454144e-02 0.0 
-3.259146750949e-03 4.047449192612e-02 0.0 
-3.509691024942e-03 4.422668572876e-02 0.0 
-2.925733413239e-03 3.641469869880e-02 0.0 
-1.899375900773e-03 3.984400392320e-02 0.0 
2.601111868912e-02 1.486357921286e-01 0.0 
2.403740279169e-02 -3.321577732175e-02 0.0 
1.581155304994e-02 -2.265677152535e-02 0.0 
1.618242032037e-02 -7.374935214408e-03 0.0 
1.048424344281e-02 -1.406313822198e-02 0.0 
1.149679228221e-02 -2.817780771521e-02 0.0 
6.608707404732e-03 -1.823181091758e-02 0.0 
1.003239035766e-02 -3.125077764849e-02 0.0 
1.693332786287e-02 -4.077235019037e-02 0.0 
2.441217141027e-02 -7.537710405593e-04 0.0 
1.634392629845e-02 4.464198916768e-03 0.0 
2.377480665677e-02 9.811632150570e-03 0.0 
1.629620292856e-02 1.449458763053e-02 0.0 
9.467983341791e-03 9.423931027694e-03 0.0 
2.244131901106e-03 3.180686599544e-02 0.0 
-1.039788318101e-03 5.646989879200e-03 0.0 
-1.374893406995e-03 5.107070262908e-02 0.0 
-2.603604059419e-03 5.214931040175e-02 0.0 
-2.375125274295e-03 5.537832665339e-02 0.0 
-3.799058096014e-03 5.225705852980e-02 0.0 
-2.596481280297e-03 4.893182565235e-02 0.0 
-1.103686292367e-03 5.788813444822e-02 0.0 
-1.985180387313e-03 5.810384745380e-02 0.0 
7.014735422462e-03 6.396700975633e-02 0.0 
4.381584547914e-03 6.545256025746e-02 0.0 
2.064680838872e-03 6.678891321024e-02 0.0 
2.344285073618e-03 6.633848537107e-02 0.0 
3.857553386018e-03 6.453169244101e-02 0.0 
6.375161002611e-03 6.333537811168e-02 0.0 
8.290999822161e-03 6.029572623159e-02 0.0 
1.214963214517e-02 5.803234657020e-02 0.0 
9.975077108360e-03 5.651533895191e-02 0.0 
6.211401908138e-03 5.862161051329e-02 0.0 
1.445141899664e-02 5.393359624263e-02 0.0 
1.429290260511e-03 7.730541171081e-02 0.0 
2.727620795611e-03 6.895473593437e-02 0.0 
-5.899935286848e-04 3.828632312334e-03 0.0 
2.031676181826e-02 1.494223645933e-01 0.0 
2.114210161475e-02 2.790998792433e-02 0.0 
2.255499950785e-03 1.780942432518e-02 0.0 
3.451319550543e-03 1.457711214532e-02 0.0 
2.777802042928e-03 1.420508738548e-02 0.0 
-6.299370187118e-04 1.463937833135e-02 0.0 
-1.017899856172e-03 1.184451683857e-02 0.0 
1.228145189629e-03 1.738169610965e-02 0.0 
-5.443462674542e-03 3.647762890217e-02 0.0 
1.954857760287e-02 2.757344892019e-02 0.0 
6.299048622701e-03 4.673325209662e-02 0.0 
3.553981871416e-02 -2.867657182714e-02 0.0 
-4.648945112779e-03 1.842652037511e-02 0.0 
-3.324986969740e-03 2.903631265576e-02 0.0 
-7.314284193182e-03 2.587203377758e-02 0.0 
-3.461194238650e-03 1.798093978289e-02 0.0 
-5.606646809047e-03 3.041267769219e-02 0.0 
-4.943802594251e-03 1.991478896587e-02 0.0 
3.839961679583e-03 7.204815882062e-03 0.0 
1.219917667182e-03 6.279209271060e-02 0.0 
1.685466222800e-02 1.070803943797e-01 0.0 
1.082501668417e-02 1.135630520282e-01 0.0 
1.034737235830e-02 7.289568930371e-02 0.0 
-4.774764147103e-03 4.965770374169e-02 0.0 
-4.876891238459e-03 4.433203816240e-02 0.0 
1.017952270140e-03 4.861294980186e-02 0.0 
1.650198720263e-02 1.430965697690e-02 0.0 
6.081045157874e-02 8.615442531070e-02 0.0 
-5.998916601104e-03 1.278140849006e-02 0.0 
-8.265920292073e-03 3.810900094338e-02 0.0 
-6.679925653103e-03 3.059673008638e-02 0.0 
-3.143410770660e-03 1.139121405875e-02 0.0 
6.170492631469e-02 3.547775031712e-02 0.0 
-8.948599270552e-03 2.407492355991e-02 0.0 
-4.879223052834e-03 1.648017522819e-02 0.0 
7.941475292967e-03 6.377720978442e-02 0.0 
1.761777779952e-02 4.303057854186e-02 0.0 
-3.491020849324e-03 1.406467262140e-02 0.0 
-7.902845528390e-03 2.243830996658e-02 0.0 
2.362855655573e-02 9.928518456355e-02 0.0 
1.781444812868e-02 1.583118864168e-02 0.0 
3.721618184295e-03 -7.347251660429e-03 0.0 
1.500361456560e-02 6.614610075337e-02 0.0 
1.483768785894e-02 3.528474813201e-02 0.0 
3.025224430526e-02 1.141537503129e-01 0.0 
5.036447865536e-03 4.927715671211e-02 0.0 
1.749408711652e-02 1.234532071703e-01 0.0 
1.890208871735e-04 8.442315805389e-03 0.0 
2.850648951405e-02 6.474560755136e-02 0.0 
-3.251291716957e-03 5.416370625829e-02 0.0 
1.471928352485e-02 3.470383958517e-03 0.0 
6.402291134780e-02 5.749185764603e-02 0.0 
4.874670699712e-02 1.347201460287e-01 0.0 
6.536491948616e-03 3.954652210837e-02 0.0 
5.161685446988e-02 2.136214646912e-02 0.0 
1.032463443665e-02 1.253585332431e-02 0.0 
1.370907912640e-02 1.110125942516e-02 0.0 
-3.236604952580e-03 5.604706366743e-02 0.0 
-4.040926683556e-03 1.433840939012e-02 0.0 
3.588173169323e-02 7.072110223021e-03 0.0 
1.219544042980e-02 4.947968494485e-02 0.0 
4.681829218479e-02 3.725690266246e-02 0.0 
2.462034102270e-02 -1.072930022238e-02 0.0 
1.965237737548e-02 5.840521482174e-02 0.0 
-2.107225843412e-03 6.707433599727e-03 0.0 
1.875827885864e-02 1.643707977251e-02 0.0 
6.242545509383e-02 8.310677791252e-02 0.0 
5.756477583186e-02 4.979762585863e-02 0.0 
4.947953849955e-02 5.917417857003e-02 0.0 
5.820864217073e-02 3.658111207065e-02 0.0 
-2.385600932781e-03 3.229674287290e-02 0.0 
-3.910555635501e-03 1.439637506570e-02 0.0 
1.617885158657e-02 -4.227358471293e-02 0.0 
6.028579476381e-02 3.855201336370e-02 0.0 
2.904376475847e-02 9.806074769233e-02 0.0 
2.840066197620e-02 2.300393247609e-02 0.0 
8.676536523311e-03 3.262146767324e-02 0.0 
6.440777038560e-02 6.241989888417e-02 0.0 
-4.893548438395e-03 1.716366048156e-02 0.0 
1.553716171161e-02 4.265826660869e-02 0.0 
-9.012033191235e-03 2.745713474521e-02 0.0 
6.613440966663e-05 6.524878535995e-02 0.0 
3.603179007321e-02 -3.366671649836e-02 0.0 
2.602133370172e-02 -2.426697541868e-02 0.0 
4.853807922014e-02 1.540392828463e-02 0.0 
-8.508558419942e-03 2.611715323627e-02 0.0 
1.570606466347e-02 2.591142708667e-02 0.0 
-4.553838903536e-03 1.681768446996e-02 0.0 
7.520786131110e-04 1.164371813450e-02 0.0 
3.822621948999e-02 -5.058903391282e-03 0.0 
5.192143998629e-02 1.219586845885e-01 0.0 
-4.030901216489e-03 1.601329967165e-02 0.0 
9.110993036838e-03 4.997069131610e-03 0.0 
1.483260596543e-02 1.434540238356e-02 0.0 
-2.139144433559e-03 4.351675669338e-02 0.0 
1.578751668907e-02 1.372217507671e-02 0.0 
5.849757192215e-02 1.106435626976e-01 0.0 
-3.372937233255e-03 1.478813030762e-02 0.0 
5.949038739798e-03 1.169260765287e-02 0.0 
5.018086532547e-02 5.009097357817e-03 0.0 
5.708811805697e-03 1.522257274258e-01 0.0 
-2.222781445675e-03 9.311951726563e-03 0.0 
5.569299727567e-03 1.129112963284e-02 0.0 
5.332183083151e-02 3.367924145062e-02 0.0 
4.412970855984e-03 3.307791406330e-03 0.0 
5.400291191609e-02 1.324438401785e-01 0.0 
-8.103325972525e-03 2.814443858239e-02 0.0 
5.493075735575e-02 5.126440344058e-02 0.0 
6.126377256102e-03 1.252046949748e-02 0.0 
7.347456206826e-03 1.120010563516e-02 0.0 
4.164954636710e-02 8.124458051155e-02 0.0 
-8.087608838853e-03 3.204396808497e-02 0.0 
3.381494819920e-02 2.172756647142e-02 0.0 
5.142153341030e-03 6.201729742224e-02 0.0 
5.623731863494e-02 1.190978521317e-01 0.0 
-7.234885491785e-03 3.330184471815e-02 0.0 
1.875677449948e-02 -2.111799318715e-02 0.0 
8.290316840647e-04 5.914690811203e-03 0.0 
1.259056289547e-02 1.128273751260e-02 0.0 
-6.208600239843e-03 3.388343915778e-02 0.0 
1.778985337802e-02 -1.433166417637e-02 0.0 
-5.062921645046e-03 3.385236605750e-02 0.0 
5.632580849422e-02 1.255559503297e-01 0.0 
4.211185901054e-02 7.164626492423e-02 0.0 
-3.799937053397e-03 3.329811582381e-02 0.0 
4.975631503108e-02 4.401369327707e-02 0.0 
6.983552025634e-03 5.419286691987e-02 0.0 
4.788417862308e-02 2.910421364163e-02 0.0 
-1.434578217959e-03 1.735913925043e-02 0.0 
-7.597768772889e-03 1.933032964781e-02 0.0 
-1.665011471749e-03 8.633332468422e-03 0.0 
3.743015253659e-02 5.859457937128e-02 0.0 
5.605362481564e-02 1.153785660580e-01 0.0 
-8.405753087857e-04 1.023632351749e-02 0.0 
4.339930527516e-02 3.666385264163e-02 0.0 
4.099589209974e-02 2.618856472779e-02 0.0 
4.457591023850e-02 1.826720802760e-02 0.0 
4.212528175174e-05 1.133886414327e-02 0.0 
5.832754560880e-02 9.829650367054e-02 0.0 
-4.504283456859e-03 3.128743786959e-02 0.0 
-1.636774106515e-03 3.150937208396e-02 0.0 
1.068449681176e-02 -9.725063088831e-03 0.0 
3.932681750485e-02 3.512453481451e-02 0.0 
1.907451831629e-03 6.498294010786e-02 0.0 
4.116582309822e-02 5.433137172911e-02 0.0 
4.176760319188e-03 2.511443227163e-02 0.0 
5.684113335679e-03 -9.608973600706e-03 0.0 
2.813178853966e-02 2.170810522621e-02 0.0 
1.681391074143e-03 1.095642131893e-01 0.0 
1.114938000416e-03 -3.716191858373e-03 0.0 
-4.351190113809e-04 6.327553001282e-02 0.0 
-1.719234634828e-03 -1.322498095060e-03 0.0 
3.915012352503e-02 2.073470859048e-02 0.0 
-4.203961749521e-03 4.623530185508e-03 0.0 
-5.629430487550e-03 8.516504061470e-03 0.0 
4.400889892061e-03 3.029789243532e-02 0.0 
-7.143289299558e-03 1.431636135960e-02 0.0 
6.111839318734e-04 1.440745354132e-02 0.0 
-4.669979003638e-04 5.304591735129e-03 0.0 
2.164364592062e-03 1.406973953332e-01 0.0 
5.347831652732e-02 1.029249405669e-01 0.0 
2.733714527480e-02 -6.958851169347e-02 0.0 
5.613338162527e-02 7.982572315004e-02 0.0 
-6.413141005790e-03 1.878988794529e-02 0.0 
4.422035535807e-02 4.939577704844e-02 0.0 
4.499016652211e-03 1.399713210412e-01 0.0 
-5.795191088204e-03 2.487641986158e-02 0.0 
1.859661535093e-02 1.924912136004e-02 0.0 
7.219303835495e-03 6.249264365906e-03 0.0 
3.060567495069e-03 8.465447188899e-02 0.0 
1.152562321273e-02 1.258094270836e-02 0.0 
3.435195132463e-02 2.356589122452e-02 0.0 
8.940183804853e-04 4.463535574510e-02 0.0 
1.313087278619e-02 1.531150006736e-01 0.0 
1.592920335017e-02 2.364543142490e-02 0.0 
-1.147080436593e-03 3.024697460557e-02 0.0 
4.993990853426e-02 8.395821542297e-02 0.0 
5.110415597168e-02 5.745724918965e-02 0.0 
4.602467449700e-02 2.926213517635e-02 0.0 
-2.747179184297e-03 5.734601352430e-02 0.0 
1.063197259409e-02 -1.663846972364e-03 0.0 
4.639044412052e-02 5.932021445443e-02 0.0 
8.100882003234e-03 8.617606956513e-03 0.0 
2.217437609492e-02 1.378301731777e-01 0.0 
2.770427238313e-02 2.185745566700e-02 0.0 
4.181914129929e-02 3.028202137897e-02 0.0 
1.078903676616e-02 2.757979140966e-02 0.0 
1.338522777588e-02 1.168709415322e-02 0.0 
-1.046196107611e-03 3.733030363048e-03 0.0 
2.064125308935e-02 1.746862968879e-02 0.0 
4.084148632288e-02 -4.429470485670e-03 0.0 
3.321706673189e-02 1.185756725579e-01 0.0 
1.714048117497e-02 1.496542060062e-02 0.0 
4.165796307973e-03 7.131619114598e-02 0.0 
-1.134683334411e-03 3.886252385545e-03 0.0 
2.786723683035e-02 1.368760701381e-01 0.0 
2.672128996380e-03 2.837703439960e-02 0.0 
1.320768030342e-02 -3.960065283005e-02 0.0 
1.357071324598e-03 2.760182821638e-02 0.0 
3.757984639917e-02 3.930756494215e-02 0.0 
9.263385258180e-03 1.209508121643e-01 0.0 
3.992651988607e-02 1.126732267723e-01 0.0 
-1.205351613072e-03 9.135300478793e-03 0.0 
1.717455481012e-02 2.188290376943e-02 0.0 
3.817104471187e-02 -2.680905701931e-02 0.0 
4.797147847420e-03 8.630671109056e-02 0.0 
-4.958357233081e-03 5.021086503935e-02 0.0 
2.079659919363e-02 -5.544558576521e-02 0.0 
-1.264404734778e-03 6.837798650832e-03 0.0 
3.002536217074e-02 2.942564666461e-02 0.0 
-1.822582977160e-03 8.958425920909e-03 0.0 
1.089893723010e-03 6.702690482047e-02 0.0 
1.485801488909e-02 3.883463351877e-02 0.0 
2.886168239886e-04 5.961494495796e-03 0.0 
1.740353077918e-02 1.571060248533e-02 0.0 
6.924425033025e-03 -2.448452676737e-02 0.0 
3.662078159692e-03 1.119390824514e-02 0.0 
3.499071683666e-02 -4.842868176907e-02 0.0 
1.779185055504e-02 1.541502496860e-01 0.0 
1.172453680377e-02 5.234136334302e-02 0.0 
-1.069878299589e-03 4.142922809162e-03 0.0 
6.439226919525e-03 2.667611264024e-02 0.0 
-3.614310999962e-03 4.964115759718e-02 0.0 
3.941045147607e-02 1.354052894855e-01 0.0 
-1.408851651044e-03 6.069540507756e-02 0.0 
2.126695117114e-02 1.794867834218e-02 0.0 
1.113712778260e-02 1.824032600384e-02 0.0 
4.392618512796e-03 2.545472610421e-02 0.0 
2.351173915502e-03 6.031044871399e-03 0.0 
1.261179665934e-02 2.256873014146e-02 0.0 
3.989966175059e-03 3.800421190675e-03 0.0 
2.705018593246e-02 -6.547709654708e-02 0.0 
1.230697397153e-02 1.066528138745e-02 0.0 
5.948282262366e-03 9.363997305137e-03 0.0 
9.892780250787e-03 1.539320819901e-01 0.0 
1.539791443703e-02 2.275228369231e-02 0.0 
-3.166637757372e-03 5.523827459602e-02 0.0 
3.848143759469e-03 5.710582862520e-02 0.0 
2.596830825823e-04 1.277640790317e-02 0.0 
2.145711967837e-03 6.614977420240e-02 0.0 
1.677880741191e-03 1.540066030829e-01 0.0 
-1.813115927273e-04 4.363315874901e-03 0.0 
3.031927755804e-03 6.316541233472e-02 0.0 
3.585457768189e-03 1.292651213775e-01 0.0 
1.699209485986e-02 1.597864384602e-02 0.0 
-9.343879523740e-04 4.321740240686e-02 0.0 
2.062219507643e-03 5.568879715628e-02 0.0 
7.092095625557e-03 -7.644337952711e-03 0.0 
2.772327338679e-02 -6.530400570159e-02 0.0 
2.906184648793e-03 1.014463903337e-01 0.0 
1.120085392745e-02 9.914919937323e-03 0.0 
1.000638425798e-02 2.265629054888e-02 0.0 
7.463016401417e-03 1.122835960649e-01 0.0 
3.621125757202e-02 -3.478898603120e-02 0.0 
2.355893399072e-02 2.196068538164e-02 0.0 
-3.813547255025e-03 4.678313933867e-02 0.0 
2.312260553026e-02 1.964521983361e-02 0.0 
9.408494256107e-03 1.053117703806e-02 0.0 
3.339774237146e-02 -4.691496808390e-02 0.0 
-8.003763571615e-04 3.909134816942e-02 0.0 
1.333779575146e-02 4.779605794913e-02 0.0 
-2.003395190892e-03 6.987976041998e-03 0.0 
-2.537729964525e-03 4.608714432310e-02 0.0 

VECTORS node_bounda_dof_materi_velocity_x float
1.000000000000e+00 0.0 0.0 
1.000000000000e+00 0.0 0.0 
1.000000000000e+00 0.0 0.0 
1.000000000000e+00 0.0 0.0 
1.000000000000e+00 0.0 0.0 
1.000000000000e+00 0.0 0.0 
1.000000000000e+00 0.0 0.0 
1.000000000000e+00 0.0 0.0 
1.000000000000e+00 0.0 0.0 
1.000000000000e+00 0.0 0.0 
1.000000000000e+00 0.0 0.0 
1.000000000000e+00 0.0 0.0 
1.000000000000e+00 0.0 0.0 
1.000000000000e+00 0.0 0.0 
1.000000000000e+00 0.0 0.0 
1.000000000000e+00 0.0 0.0 
1.000000000000e+00 0.0 0.0 
1.000000000000e+00 0.0 0.0 
1.000000000000e+00 0.0 0.0 
1.000000000000e+00 0.0 0.0 
1.000000000000e+00 0.0 0.0 
1.000000000000e+00 0.0 0.0 
1.000000000000e+00 0.0 0.0 
1.000000000000e+00 0.0 0.0 
1.000000000000e+00 0.0 0.0 
1.000000000000e+00 0.0 0.0 
1.000000000000e+00 0.0 0.0 
1.000000000000e+00 0.0 0.0 
1.000000000000e+00 0.0 0.0 
1.000000000000e+00 0.0 0.0 
1.000000000000e+00 0.0 0.0 
1.000000000000e+00 0.0 0.0 
1.000000000000e+00 0.0 0.0 
1.000000000000e+00 0.0 0.0 
1.000000000000e+00 0.0 0.0 
1.000000000000e+00 0.0 0.0 
1.000000000000e+00 0.0 0.0 
1.000000000000e+00 0.0 0.0 
1.000000000000e+00 0.0 0.0 
1.000000000000e+00 0.0 0.0 
1.000000000000e+00 0.0 0.0 
1.000000000000e+00 0.0 0.0 
1.000000000000e+00 0.0 0.0 
1.000000000000e+00 0.0 0.0 
1.000000000000e+00 0.0 0.0 
1.000000000000e+00 0.0 0.0 
1.000000000000e+00 0.0 0.0 
1.000000000000e+00 0.0 0.0 
1.000000000000e+00 0.0 0.0 
1.000000000000e+00 0.0 0.0 
1.000000000000e+00 0.0 0.0 
1.000000000000e+00 0.0 0.0 
1.000000000000e+00 0.0 0.0 
1.000000000000e+00 0.0 0.0 
1.000000000000e+00 0.0 0.0 
1.000000000000e+00 0.0 0.0 
1.000000000000e+00 0.0 0.0 
1.000000000000e+00 0.0 0.0 
1.000000000000e+00 0.0 0.0 
1.000000000000e+00 0.0 0.0 
1.000000000000e+00 0.0 0.0 
1.000000000000e+00 0.0 0.0 
1.000000000000e+00 0.0 0.0 
1.000000000000e+00 0.0 0.0 
1.000000000000e+00 0.0 0.0 
1.000000000000e+00 0.0 0.0 
1.000000000000e+00 0.0 0.0 
1.000000000000e+00 0.0 0.0 
1.000000000000e+00 0.0 0.0 
1.000000000000e+00 0.0 0.0 
1.000000000000e+00 0.0 0.0 
1.000000000000e+00 0.0 0.0 
1.000000000000e+00 0.0 0.0 
1.000000000000e+00 0.0 0.0 
1.000000000000e+00 0.0 0.0 
1.000000000000e+00 0.0 0.0 
1.000000000000e+00 0.0 0.0 
1.000000000000e+00 0.0 0.0 
1.000000000000e+00 0.0 0.0 
1.000000000000e+00 0.0 0.0 
1.000000000000e+00 0.0 0.0 
0.0 0.0 0.0 
0.0 0.0 0.0 
0.0 0.0 0.0 
0.0 0.0 0.0 
0.0 0.0 0.0 
0.0 0.0 0.0 
0.0 0.0 0.0 
0.0 0.0 0.0 
0.0 0.0 0.0 
0.0 0.0 0.0 
0.0 0.0 0.0 
0.0 0.0 0.0 
0.0 0.0 0.0 
0.0 0.0 0.0 
0.0 0.0 0.0 
0.0 0.0 0.0 
0.0 0.0 0.0 
0.0 0.0 0.0 
0.0 0.0 0.0 
0.0 0.0 0.0 
0.0 0.0 0.0 
0.0 0.0 0.0 
0.0 0.0 0.0 
0.0 0.0 0.0 
0.0 0.0 0.0 
0.0 0.0 0.0 
0.0 0.0 0.0 
0.0 0.0 0.0 
0.0 0.0 0.0 
0.0 0.0 0.0 
0.0 0.0 0.0 
0.0 0.0 0.0 
0.0 0.0 0.0 
0.0 0.0 0.0 
0.0 0.0 0.0 
0.0 0.0 0.0 
0.0 0.0 0.0 
0.0 0.0 0.0 
0.0 0.0 0.0 
0.0 0.0 0.0 
0.0 0.0 0.0 
0.0 0.0 0.0 
0.0 0.0 0.0 
0.0 0.0 0.0 
0.0 0.0 0.0 
0.0 0.0 0.0 
0.0 0.0 0.0 
0.0 0.0 0.0 
0.0 0.0 0.0 
0.0 0.0 0.0 
0.0 0.0 0.0 
0.0 0.0 0.0 
0.0 0.0 0.0 
0.0 0.0 0.0 
0.0 0.0 0.0 
0.0 0.0 0.0 
0.0 0.0 0.0 
0.0 0.0 0.0 
0.0 0.0 0.0 
0.0 0.0 0.0 
0.0 0.0 0.0 
0.0 0.0 0.0 
0.0 0.0 0.0 
0.0 0.0 0.0 
0.0 0.0 0.0 
0.0 0.0 0.0 
0.0 0.0 0.0 
0.0 0.0 0.0 
0.0 0.0 0.0 
0.0 0.0 0.0 
0.0 0.0 0.0 
0.0 0.0 0.0 
0.0 0.0 0.0 
0.0 0.0 0.0 
0.0 0.0 0.0 
0.0 0.0 0.0 
0.0 0.0 0.0 
0.0 0.0 0.0 
0.0 0.0 0.0 
0.0 0.0 0.0 
0.0 0.0 0.0 
0.0 0.0 0.0 
0.0 0.0 0.0 
0.0 0.0 0.0 
0.0 0.0 0.0 
0.0 0.0 0.0 
0.0 0.0 0.0 
0.0 0.0 0.0 
0.0 0.0 0.0 
0.0 0.0 0.0 
0.0 0.0 0.0 
0.0 0.0 0.0 
0.0 0.0 0.0 
0.0 0.0 0.0 
0.0 0.0 0.0 
0.0 0.0 0.0 
0.0 0.0 0.0 
0.0 0.0 0.0 
0.0 0.0 0.0 
0.0 0.0 0.0 
0.0 0.0 0.0 
0.0 0.0 0.0 
0.0 0.0 0.0 
0.0 0.0 0.0 
0.0 0.0 0.0 
0.0 0.0 0.0 
0.0 0.0 0.0 
0.0 0.0 0.0 
0.0 0.0 0.0 
0.0 0.0 0.0 
0.0 0.0 0.0 
0.0 0.0 0.0 
0.0 0.0 0.0 
0.0 0.0 0.0 
0.0 0.0 0.0 
0.0 0.0 0.0 
0.0 0.0 0.0 
0.0 0.0 0.0 
0.0 0.0 0.0 
0.0 0.0 0.0 
0.0 0.0 0.0 
0.0 0.0 0.0 
0.0 0.0 0.0 
0.0 0.0 0.0 
0.0 0.0 0.0 
0.0 0.0 0.0 
0.0 0.0 0.0 
0.0 0.0 0.0 
0.0 0.0 0.0 
0.0 0.0 0.0 
0.0 0.0 0.0 
0.0 0.0 0.0 
0.0 0.0 0.0 
0.0 0.0 0.0 
0.0 0.0 0.0 
0.0 0.0 0.0 
0.0 0.0 0.0 
0.0 0.0 0.0 
0.0 0.0 0.0 
0.0 0.0 0.0 
0.0 0.0 0.0 
0.0 0.0 0.0 
0.0 0.0 0.0 
0.0 0.0 0.0 
0.0 0.0 0.0 
0.0 0.0 0.0 
0.0 0.0 0.0 
0.0 0.0 0.0 
0.0 0.0 0.0 
0.0 0.0 0.0 
0.0 0.0 0.0 
0.0 0.0 0.0 
0.0 0.0 0.0 
0.0 0.0 0.0 
0.0 0.0 0.0 
0.0 0.0 0.0 
0.0 0.0 0.0 
0.0 0.0 0.0 
0.0 0.0 0.0 
0.0 0.0 0.0 
0.0 0.0 0.0 
0.0 0.0 0.0 
0.0 0.0 0.0 
0.0 0.0 0.0 
0.0 0.0 0.0 
0.0 0.0 0.0 
0.0 0.0 0.0 
0.0 0.0 0.0 
0.0 0.0 0.0 
0.0 0.0 0.0 
0.0 0.0 0.0 
0.0 0.0 0.0 
0.0 0.0 0.0 
0.0 0.0 0.0 
0.0 0.0 0.0 
0.0 0.0 0.0 
0.0 0.0 0.0 
0.0 0.0 0.0 
0.0 0.0 0.0 
0.0 0.0 0.0 
0.0 0.0 0.0 
0.0 0.0 0.0 
0.0 0.0 0.0 
0.0 0.0 0.0 
0.0 0.0 0.0 
0.0 0.0 0.0 
0.0 0.0 0.0 
0.0 0.0 0.0 
0.0 0.0 0.0 
0.0 0.0 0.0 
0.0 0.0 0.0 
0.0 0.0 0.0 
0.0 0.0 0.0 
0.0 0.0 0.0 
0.0 0.0 0.0 
0.0 0.0 0.0 
0.0 0.0 0.0 
0.0 0.0 0.0 
0.0 0.0 0.0 
0.0 0.0 0.0 
0.0 0.0 0.0 
0.0 0.0 0.0 
0.0 0.0 0.0 
0.0 0.0 0.0 
0.0 0.0 0.0 
0.0 0.0 0.0 
0.0 0.0 0.0 
0.0 0.0 0.0 
0.0 0.0 0.0 
0.0 0.0 0.0 
0.0 0.0 0.0 
0.0 0.0 0.0 
0.0 0.0 0.0 
0.0 0.0 0.0 
0.0 0.0 0.0 
0.0 0.0 0.0 
0.0 0.0 0.0 
0.0 0.0 0.0 
0.0 0.0 0.0 
0.0 0.0 0.0 
0.0 0.0 0.0 
0.0 0.0 0.0 
0.0 0.0 0.0 
0.0 0.0 0.0 
0.0 0.0 0.0 
0.0 0.0 0.0 
0.0 0.0 0.0 
0.0 0.0 0.0 
0.0 0.0 0.0 
0.0 0.0 0.0 
0.0 0.0 0.0 
0.0 0.0 0.0 
0.0 0.0 0.0 
0.0 0.0 0.0 
0.0 0.0 0.0 
0.0 0.0 0.0 
0.0 0.0 0.0 
0.0 0.0 0.0 
0.0 0.0 0.0 
0.0 0.0 0.0 
0.0 0.0 0.0 
0.0 0.0 0.0 
0.0 0.0 0.0 
0.0 0.0 0.0 
0.0 0.0 0.0 
0.0 0.0 0.0 
0.0 0.0 0.0 
0.0 0.0 0.0 
0.0 0.0 0.0 
0.0 0.0 0.0 
0.0 0.0 0.0 
0.0 0.0 0.0 
0.0 0.0 0.0 
0.0 0.0 0.0 
0.0 0.0 0.0 
0.0 0.0 0.0 
0.0 0.0 0.0 
0.0 0.0 0.0 
0.0 0.0 0.0 
0.0 0.0 0.0 
0.0 0.0 0.0 
0.0 0.0 0.0 
0.0 0.0 0.0 
0.0 0.0 0.0 
0.0 0.0 0.0 
0.0 0.0 0.0 
0.0 0.0 0.0 
0.0 0.0 0.0 
0.0 0.0 0.0 
0.0 0.0 0.0 
0.0 0.0 0.0 
0.0 0.0 0.0 
0.0 0.0 0.0 
0.0 0.0 0.0 
0.0 0.0 0.0 
0.0 0.0 0.0 
0.0 0.0 0.0 
0.0 0.0 0.0 
0.0 0.0 0.0 
0.0 0.0 0.0 
0.0 0.0 0.0 
0.0 0.0 0.0 
0.0 0.0 0.0 
0.0 0.0 0.0 
0.0 0.0 0.0 
0.0 0.0 0.0 
0.0 0.0 0.0 
0.0 0.0 0.0 
0.0 0.0 0.0 
0.0 0.0 0.0 
0.0 0.0 0.0 
0.0 0.0 0.0 
0.0 0.0 0.0 
0.0 0.0 0.0 
0.0 0.0 0.0 
0.0 0.0 0.0 
0.0 0.0 0.0 
0.0 0.0 0.0 
0.0 0.0 0.0 
0.0 0.0 0.0 
0.0 0.0 0.0 
0.0 0.0 0.0 
0.0 0.0 0.0 
0.0 0.0 0.0 
0.0 0.0 0.0 
0.0 0.0 0.0 
0.0 0.0 0.0 
0.0 0.0 0.0 
0.0 0.0 0.0 
0.0 0.0 0.0 
0.0 0.0 0.0 
0.0 0.0 0.0 
0.0 0.0 0.0 
0.0 0.0 0.0 
0.0 0.0 0.0 
0.0 0.0 0.0 
0.0 0.0 0.0 
0.0 0.0 0.0 
0.0 0.0 0.0 
0.0 0.0 0.0 
0.0 0.0 0.0 
0.0 0.0 0.0 
0.0 0.0 0.0 
0.0 0.0 0.0 
0.0 0.0 0.0 
0.0 0.0 0.0 
0.0 0.0 0.0 
0.0 0.0 0.0 
0.0 0.0 0.0 
0.0 0.0 0.0 
0.0 0.0 0.0 
0.0 0.0 0.0 
0.0 0.0 0.0 
0.0 0.0 0.0 
0.0 0.0 0.0 
0.0 0.0 0.0 
0.0 0.0 0.0 
0.0 0.0 0.0 
0.0 0.0 0.0 
0.0 0.0 0.0 
0.0 0.0 0.0 
0.0 0.0 0.0 
0.0 0.0 0.0 
0.0 0.0 0.0 
0.0 0.0 0.0 
0.0 0.0 0.0 
0.0 0.0 0.0 
0.0 0.0 0.0 
0.0 0.0 0.0 
0.0 0.0 0.0 
0.0 0.0 0.0 
0.0 0.0 0.0 
0.0 0.0 0.0 
0.0 0.0 0.0 
0.0 0.0 0.0 
0.0 0.0 0.0 
0.0 0.0 0.0 
0.0 0.0 0.0 
0.0 0.0 0.0 
0.0 0.0 0.0 
0.0 0.0 0.0 
0.0 0.0 0.0 
0.0 0.0 0.0 
0.0 0.0 0.0 
0.0 0.0 0.0 
0.0 0.0 0.0 
0.0 0.0 0.0 
0.0 0.0 0.0 
0.0 0.0 0.0 
0.0 0.0 0.0 
0.0 0.0 0.0 
0.0 0.0 0.0 
0.0 0.0 0.0 
0.0 0.0 0.0 
0.0 0.0 0.0 
0.0 0.0 0.0 
0.0 0.0 0.0 
0.0 0.0 0.0 
0.0 0.0 0.0 
0.0 0.0 0.0 
0.0 0.0 0.0 
0.0 0.0 0.0 
0.0 0.0 0.0 
0.0 0.0 0.0 
0.0 0.0 0.0 
0.0 0.0 0.0 
0.0 0.0 0.0 
0.0 0.0 0.0 
0.0 0.0 0.0 
0.0 0.0 0.0 
0.0 0.0 0.0 
0.0 0.0 0.0 
0.0 0.0 0.0 
0.0 0.0 0.0 
0.0 0.0 0.0 
0.0 0.0 0.0 
0.0 0.0 0.0 
0.0 0.0 0.0 
0.0 0.0 0.0 
0.0 0.0 0.0 
0.0 0.0 0.0 
0.0 0.0 0.0 
0.0 0.0 0.0 
0.0 0.0 0.0 
0.0 0.0 0.0 
0.0 0.0 0.0 
0.0 0.0 0.0 
0.0 0.0 0.0 
0.0 0.0 0.0 
0.0 0.0 0.0 
0.0 0.0 0.0 
0.0 0.0 0.0 
0.0 0.0 0.0 
0.0 0.0 0.0 
0.0 0.0 0.0 
0.0 0.0 0.0 
0.0 0.0 0.0 
0.0 0.0 0.0 
0.0 0.0 0.0 
0.0 0.0 0.0 
0.0 0.0 0.0 
0.0 0.0 0.0 
0.0 0.0 0.0 
0.0 0.0 0.0 
0.0 0.0 0.0 
0.0 0.0 0.0 
0.0 0.0 0.0 
0.0 0.0 0.0 
0.0 0.0 0.0 
0.0 0.0 0.0 
0.0 0.0 0.0 
0.0 0.0 0.0 
0.0 0.0 0.0 
0.0 0.0 0.0 
0.0 0.0 0.0 
0.0 0.0 0.0 
0.0 0.0 0.0 
0.0 0.0 0.0 
0.0 0.0 0.0 
0.0 0.0 0.0 
0.0 0.0 0.0 
0.0 0.0 0.0 
0.0 0.0 0.0 
0.0 0.0 0.0 
0.0 0.0 0.0 
0.0 0.0 0.0 
0.0 0.0 0.0 
0.0 0.0 0.0 
0.0 0.0 0.0 
0.0 0.0 0.0 
0.0 0.0 0.0 
0.0 0.0 0.0 
0.0 0.0 0.0 
0.0 0.0 0.0 
0.0 0.0 0.0 
0.0 0.0 0.0 
0.0 0.0 0.0 
0.0 0.0 0.0 
0.0 0.0 0.0 
0.0 0.0 0.0 
0.0 0.0 0.0 
0.0 0.0 0.0 
0.0 0.0 0.0 
0.0 0.0 0.0 
0.0 0.0 0.0 
0.0 0.0 0.0 
0.0 0.0 0.0 
0.0 0.0 0.0 
0.0 0.0 0.0 
0.0 0.0 0.0 
0.0 0.0 0.0 
0.0 0.0 0.0 
0.0 0.0 0.0 
0.0 0.0 0.0 
0.0 0.0 0.0 
0.0 0.0 0.0 
0.0 0.0 0.0 
0.0 0.0 0.0 
0.0 0.0 0.0 
0.0 0.0 0.0 
0.0 0.0 0.0 
0.0 0.0 0.0 
0.0 0.0 0.0 
0.0 0.0 0.0 
0.0 0.0 0.0 
0.0 0.0 0.0 
0.0 0.0 0.0 
0.0 0.0 0.0 
0.0 0.0 0.0 
0.0 0.0 0.0 
0.0 0.0 0.0 
0.0 0.0 0.0 
0.0 0.0 0.0 
0.0 0.0 0.0 
0.0 0.0 0.0 
0.0 0.0 0.0 
0.0 0.0 0.0 
0.0 0.0 0.0 
0.0 0.0 0.0 
0.0 0.0 0.0 
0.0 0.0 0.0 
0.0 0.0 0.0 
0.0 0.0 0.0 
0.0 0.0 0.0 
0.0 0.0 0.0 
0.0 0.0 0.0 
0.0 0.0 0.0 
0.0 0.0 0.0 
0.0 0.0 0.0 
0.0 0.0 0.0 
0.0 0.0 0.0 
0.0 0.0 0.0 
0.0 0.0 0.0 
0.0 0.0 0.0 
0.0 0.0 0.0 
0.0 0.0 0.0 
0.0 0.0 0.0 
0.0 0.0 0.0 
0.0 0.0 0.0 
0.0 0.0 0.0 
0.0 0.0 0.0 
0.0 0.0 0.0 
0.0 0.0 0.0 
0.0 0.0 0.0 
0.0 0.0 0.0 
0.0 0.0 0.0 
0.0 0.0 0.0 
0.0 0.0 0.0 
0.0 0.0 0.0 
0.0 0.0 0.0 
0.0 0.0 0.0 
0.0 0.0 0.0 
0.0 0.0 0.0 
0.0 0.0 0.0 
0.0 0.0 0.0 
0.0 0.0 0.0 
0.0 0.0 0.0 
0.0 0.0 0.0 
0.0 0.0 0.0 
0.0 0.0 0.0 
0.0 0.0 0.0 
0.0 0.0 0.0 
0.0 0.0 0.0 
0.0 0.0 0.0 
0.0 0.0 0.0 
0.0 0.0 0.0 
0.0 0.0 0.0 
0.0 0.0 0.0 
0.0 0.0 0.0 
0.0 0.0 0.0 
0.0 0.0 0.0 
0.0 0.0 0.0 
0.0 0.0 0.0 
0.0 0.0 0.0 
0.0 0.0 0.0 
0.0 0.0 0.0 
0.0 0.0 0.0 
0.0 0.0 0.0 
0.0 0.0 0.0 
0.0 0.0 0.0 
0.0 0.0 0.0 
0.0 0.0 0.0 
0.0 0.0 0.0 
0.0 0.0 0.0 
0.0 0.0 0.0 
0.0 0.0 0.0 
0.0 0.0 0.0 
0.0 0.0 0.0 
0.0 0.0 0.0 
0.0 0.0 0.0 
0.0 0.0 0.0 
0.0 0.0 0.0 
0.0 0.0 0.0 
0.0 0.0 0.0 
0.0 0.0 0.0 
0.0 0.0 0.0 
0.0 0.0 0.0 
0.0 0.0 0.0 
0.0 0.0 0.0 
0.0 0.0 0.0 
0.0 0.0 0.0 
0.0 0.0 0.0 
0.0 0.0 0.0 
0.0 0.0 0.0 
0.0 0.0 0.0 
0.0 0.0 0.0 
0.0 0.0 0.0 
0.0 0.0 0.0 
0.0 0.0 0.0 
0.0 0.0 0.0 
0.0 0.0 0.0 
0.0 0.0 0.0 
0.0 0.0 0.0 
0.0 0.0 0.0 
0.0 0.0 0.0 
0.0 0.0 0.0 
0.0 0.0 0.0 
0.0 0.0 0.0 
0.0 0.0 0.0 
0.0 0.0 0.0 
0.0 0.0 0.0 
0.0 0.0 0.0 
0.0 0.0 0.0 
0.0 0.0 0.0 
0.0 0.0 0.0 
0.0 0.0 0.0 
0.0 0.0 0.0 
0.0 0.0 0.0 
0.0 0.0 0.0 
0.0 0.0 0.0 
0.0 0.0 0.0 
0.0 0.0 0.0 
0.0 0.0 0.0 
0.0 0.0 0.0 
0.0 0.0 0.0 
0.0 0.0 0.0 
0.0 0.0 0.0 
0.0 0.0 0.0 
0.0 0.0 0.0 
0.0 0.0 0.0 
0.0 0.0 0.0 
0.0 0.0 0.0 
0.0 0.0 0.0 
0.0 0.0 0.0 
0.0 0.0 0.0 
0.0 0.0 0.0 
0.0 0.0 0.0 
0.0 0.0 0.0 
0.0 0.0 0.0 
0.0 0.0 0.0 
0.0 0.0 0.0 
0.0 0.0 0.0 
0.0 0.0 0.0 
0.0 0.0 0.0 
0.0 0.0 0.0 
0.0 0.0 0.0 
0.0 0.0 0.0 
0.0 0.0 0.0 
0.0 0.0 0.0 
0.0 0.0 0.0 
0.0 0.0 0.0 
0.0 0.0 0.0 
0.0 0.0 0.0 
0.0 0.0 0.0 
0.0 0.0 0.0 
0.0 0.0 0.0 
0.0 0.0 0.0 
0.0 0.0 0.0 
0.0 0.0 0.0 
0.0 0.0 0.0 
0.0 0.0 0.0 
0.0 0.0 0.0 
0.0 0.0 0.0 
0.0 0.0 0.0 
0.0 0.0 0.0 
0.0 0.0 0.0 
0.0 0.0 0.0 
0.0 0.0 0.0 
0.0 0.0 0.0 
0.0 0.0 0.0 
0.0 0.0 0.0 
0.0 0.0 0.0 
0.0 0.0 0.0 
0.0 0.0 0.0 
0.0 0.0 0.0 
0.0 0.0 0.0 
0.0 0.0 0.0 
0.0 0.0 0.0 
0.0 0.0 0.0 
0.0 0.0 0.0 
0.0 0.0 0.0 
0.0 0.0 0.0 
0.0 0.0 0.0 
0.0 0.0 0.0 
0.0 0.0 0.0 
0.0 0.0 0.0 
0.0 0.0 0.0 
0.0 0.0 0.0 
0.0 0.0 0.0 
0.0 0.0 0.0 
0.0 0.0 0.0 
0.0 0.0 0.0 
0.0 0.0 0.0 
0.0 0.0 0.0 
0.0 0.0 0.0 
0.0 0.0 0.0 
0.0 0.0 0.0 
0.0 0.0 0.0 
0.0 0.0 0.0 
0.0 0.0 0.0 
0.0 0.0 0.0 
0.0 0.0 0.0 
0.0 0.0 0.0 
0.0 0.0 0.0 
0.0 0.0 0.0 
0.0 0.0 0.0 
0.0 0.0 0.0 
0.0 0.0 0.0 
0.0 0.0 0.0 
0.0 0.0 0.0 
0.0 0.0 0.0 
0.0 0.0 0.0 
0.0 0.0 0.0 
0.0 0.0 0.0 
0.0 0.0 0.0 
0.0 0.0 0.0 
0.0 0.0 0.0 
0.0 0.0 0.0 
0.0 0.0 0.0 
0.0 0.0 0.0 
0.0 0.0 0.0 
0.0 0.0 0.0 
0.0 0.0 0.0 
0.0 0.0 0.0 
0.0 0.0 0.0 
0.0 0.0 0.0 
0.0 0.0 0.0 
0.0 0.0 0.0 
0.0 0.0 0.0 
0.0 0.0 0.0 
0.0 0.0 0.0 
0.0 0.0 0.0 
0.0 0.0 0.0 
0.0 0.0 0.0 
0.0 0.0 0.0 
0.0 0.0 0.0 
0.0 0.0 0.0 
0.0 0.0 0.0 
0.0 0.0 0.0 
0.0 0.0 0.0 
0.0 0.0 0.0 
0.0 0.0 0.0 
0.0 0.0 0.0 
0.0 0.0 0.0 
0.0 0.0 0.0 
0.0 0.0 0.0 
0.0 0.0 0.0 
0.0 0.0 0.0 
0.0 0.0 0.0 
0.0 0.0 0.0 
0.0 0.0 0.0 
0.0 0.0 0.0 
0.0 0.0 0.0 
0.0 0.0 0.0 
0.0 0.0 0.0 
0.0 0.0 0.0 
0.0 0.0 0.0 
0.0 0.0 0.0 
0.0 0.0 0.0 
0.0 0.0 0.0 
0.0 0.0 0.0 
0.0 0.0 0.0 
0.0 0.0 0.0 
0.0 0.0 0.0 
0.0 0.0 0.0 
0.0 0.0 0.0 
0.0 0.0 0.0 
0.0 0.0 0.0 
0.0 0.0 0.0 
0.0 0.0 0.0 
0.0 0.0 0.0 
0.0 0.0 0.0 
0.0 0.0 0.0 
0.0 0.0 0.0 
0.0 0.0 0.0 
0.0 0.0 0.0 
0.0 0.0 0.0 
0.0 0.0 0.0 
0.0 0.0 0.0 
0.0 0.0 0.0 
0.0 0.0 0.0 
0.0 0.0 0.0 
0.0 0.0 0.0 
0.0 0.0 0.0 
0.0 0.0 0.0 
0.0 0.0 0.0 
0.0 0.0 0.0 
0.0 0.0 0.0 
0.0 0.0 0.0 
0.0 0.0 0.0 
0.0 0.0 0.0 
0.0 0.0 0.0 
0.0 0.0 0.0 
0.0 0.0 0.0 
0.0 0.0 0.0 
0.0 0.0 0.0 
0.0 0.0 0.0 
0.0 0.0 0.0 
0.0 0.0 0.0 
0.0 0.0 0.0 
0.0 0.0 0.0 
0.0 0.0 0.0 
0.0 0.0 0.0 
0.0 0.0 0.0 
0.0 0.0 0.0 
0.0 0.0 0.0 
0.0 0.0 0.0 
0.0 0.0 0.0 
0.0 0.0 0.0 
0.0 0.0 0.0 
0.0 0.0 0.0 
0.0 0.0 0.0 
0.0 0.0 0.0 
0.0 0.0 0.0 
0.0 0.0 0.0 
0.0 0.0 0.0 
0.0 0.0 0.0 
0.0 0.0 0.0 
0.0 0.0 0.0 
0.0 0.0 0.0 
0.0 0.0 0.0 
0.0 0.0 0.0 
0.0 0.0 0.0 
0.0 0.0 0.0 
0.0 0.0 0.0 
0.0 0.0 0.0 
0.0 0.0 0.0 
0.0 0.0 0.0 
0.0 0.0 0.0 
0.0 0.0 0.0 
0.0 0.0 0.0 
0.0 0.0 0.0 
0.0 0.0 0.0 
0.0 0.0 0.0 
0.0 0.0 0.0 
0.0 0.0 0.0 
0.0 0.0 0.0 
0.0 0.0 0.0 
0.0 0.0 0.0 
0.0 0.0 0.0 
0.0 0.0 0.0 
0.0 0.0 0.0 
0.0 0.0 0.0 
0.0 0.0 0.0 
0.0 0.0 0.0 
0.0 0.0 0.0 
0.0 0.0 0.0 
0.0 0.0 0.0 
0.0 0.0 0.0 
0.0 0.0 0.0 
0.0 0.0 0.0 
0.0 0.0 0.0 
0.0 0.0 0.0 
0.0 0.0 0.0 
0.0 0.0 0.0 
0.0 0.0 0.0 
0.0 0.0 0.0 
0.0 0.0 0.0 
0.0 0.0 0.0 
0.0 0.0 0.0 
0.0 0.0 0.0 
0.0 0.0 0.0 
0.0 0.0 0.0 
0.0 0.0 0.0 
0.0 0.0 0.0 
0.0 0.0 0.0 
0.0 0.0 0.0 
0.0 0.0 0.0 
0.0 0.0 0.0 
0.0 0.0 0.0 
0.0 0.0 0.0 
0.0 0.0 0.0 
0.0 0.0 0.0 
0.0 0.0 0.0 
0.0 0.0 0.0 
0.0 0.0 0.0 
0.0 0.0 0.0 
0.0 0.0 0.0 
0.0 0.0 0.0 
0.0 0.0 0.0 
0.0 0.0 0.0 
0.0 0.0 0.0 
0.0 0.0 0.0 
0.0 0.0 0.0 
0.0 0.0 0.0 
0.0 0.0 0.0 
0.0 0.0 0.0 
0.0 0.0 0.0 
0.0 0.0 0.0 
0.0 0.0 0.0 
0.0 0.0 0.0 
0.0 0.0 0.0 
0.0 0.0 0.0 
0.0 0.0 0.0 
0.0 0.0 0.0 
0.0 0.0 0.0 
0.0 0.0 0.0 
0.0 0.0 0.0 
0.0 0.0 0.0 
0.0 0.0 0.0 
0.0 0.0 0.0 
0.0 0.0 0.0 
0.0 0.0 0.0 
0.0 0.0 0.0 
0.0 0.0 0.0 
0.0 0.0 0.0 
0.0 0.0 0.0 
0.0 0.0 0.0 
0.0 0.0 0.0 
0.0 0.0 0.0 
0.0 0.0 0.0 
0.0 0.0 0.0 
0.0 0.0 0.0 
0.0 0.0 0.0 
0.0 0.0 0.0 
0.0 0.0 0.0 
0.0 0.0 0.0 
0.0 0.0 0.0 
0.0 0.0 0.0 
0.0 0.0 0.0 
0.0 0.0 0.0 
0.0 0.0 0.0 
0.0 0.0 0.0 
0.0 0.0 0.0 
0.0 0.0 0.0 
0.0 0.0 0.0 
0.0 0.0 0.0 
0.0 0.0 0.0 
0.0 0.0 0.0 
0.0 0.0 0.0 
0.0 0.0 0.0 
0.0 0.0 0.0 
0.0 0.0 0.0 
0.0 0.0 0.0 
0.0 0.0 0.0 
0.0 0.0 0.0 
0.0 0.0 0.0 
0.0 0.0 0.0 
0.0 0.0 0.0 
0.0 0.0 0.0 
0.0 0.0 0.0 
0.0 0.0 0.0 
0.0 0.0 0.0 
0.0 0.0 0.0 
0.0 0.0 0.0 
0.0 0.0 0.0 
0.0 0.0 0.0 
0.0 0.0 0.0 
0.0 0.0 0.0 
0.0 0.0 0.0 
0.0 0.0 0.0 
0.0 0.0 0.0 
0.0 0.0 0.0 
0.0 0.0 0.0 
0.0 0.0 0.0 
0.0 0.0 0.0 
0.0 0.0 0.0 

VECTORS node_bounda_dof_materi_velocity_y float
0.0 0.0 0.0 
0.0 0.0 0.0 
0.0 1.000000000000e+00 0.0 
0.0 1.000000000000e+00 0.0 
0.0 0.0 0.0 
0.0 0.0 0.0 
0.0 0.0 0.0 
0.0 0.0 0.0 
0.0 0.0 0.0 
0.0 0.0 0.0 
0.0 0.0 0.0 
0.0 0.0 0.0 
0.0 0.0 0.0 
0.0 0.0 0.0 
0.0 0.0 0.0 
0.0 0.0 0.0 
0.0 0.0 0.0 
0.0 0.0 0.0 
0.0 0.0 0.0 
0.0 0.0 0.0 
0.0 0.0 0.0 
0.0 0.0 0.0 
0.0 0.0 0.0 
0.0 1.000000000000e+00 0.0 
0.0 1.000000000000e+00 0.0 
0.0 1.000000000000e+00 0.0 
0.0 1.000000000000e+00 0.0 
0.0 1.000000000000e+00 0.0 
0.0 1.000000000000e+00 0.0 
0.0 1.000000000000e+00 0.0 
0.0 1.000000000000e+00 0.0 
0.0 1.000000000000e+00 0.0 
0.0 1.000000000000e+00 0.0 
0.0 1.000000000000e+00 0.0 
0.0 1.000000000000e+00 0.0 
0.0 1.000000000000e+00 0.0 
0.0 1.000000000000e+00 0.0 
0.0 1.000000000000e+00 0.0 
0.0 1.000000000000e+00 0.0 
0.0 1.000000000000e+00 0.0 
0.0 1.000000000000e+00 0.0 
0.0 1.000000000000e+00 0.0 
0.0 1.000000000000e+00 0.0 
0.0 1.000000000000e+00 0.0 
0.0 1.000000000000e+00 0.0 
0.0 1.000000000000e+00 0.0 
0.0 1.000000000000e+00 0.0 
0.0 1.000000000000e+00 0.0 
0.0 1.000000000000e+00 0.0 
0.0 1.000000000000e+00 0.0 
0.0 1.000000000000e+00 0.0 
0.0 1.000000000000e+00 0.0 
0.0 1.000000000000e+00 0.0 
0.0 1.000000000000e+00 0.0 
0.0 1.000000000000e+00 0.0 
0.0 1.000000000000e+00 0.0 
0.0 1.000000000000e+00 0.0 
0.0 1.000000000000e+00 0.0 
0.0 1.000000000000e+00 0.0 
0.0 1.000000000000e+00 0.0 
0.0 1.000000000000e+00 0.0 
0.0 1.000000000000e+00 0.0 
0.0 1.000000000000e+00 0.0 
0.0 1.000000000000e+00 0.0 
0.0 1.000000000000e+00 0.0 
0.0 1.000000000000e+00 0.0 
0.0 1.000000000000e+00 0.0 
0.0 1.000000000000e+00 0.0 
0.0 1.000000000000e+00 0.0 
0.0 1.000000000000e+00 0.0 
0.0 1.000000000000e+00 0.0 
0.0 1.000000000000e+00 0.0 
0.0 0.0 0.0 
0.0 0.0 0.0 
0.0 0.0 0.0 
0.0 0.0 0.0 
0.0 0.0 0.0 
0.0 0.0 0.0 
0.0 0.0 0.0 
0.0 0.0 0.0 
0.0 0.0 0.0 
0.0 0.0 0.0 
0.0 0.0 0.0 
0.0 0.0 0.0 
0.0 0.0 0.0 
0.0 0.0 0.0 
0.0 0.0 0.0 
0.0 0.0 0.0 
0.0 0.0 0.0 
0.0 0.0 0.0 
0.0 0.0 0.0 
0.0 0.0 0.0 
0.0 0.0 0.0 
0.0 0.0 0.0 
0.0 0.0 0.0 
0.0 0.0 0.0 
0.0 0.0 0.0 
0.0 0.0 0.0 
0.0 0.0 0.0 
0.0 0.0 0.0 
0.0 0.0 0.0 
0.0 0.0 0.0 
0.0 0.0 0.0 
0.0 0.0 0.0 
0.0 0.0 0.0 
0.0 0.0 0.0 
0.0 0.0 0.0 
0.0 0.0 0.0 
0.0 0.0 0.0 
0.0 0.0 0.0 
0.0 0.0 0.0 
0.0 0.0 0.0 
0.0 0.0 0.0 
0.0 0.0 0.0 
0.0 0.0 0.0 
0.0 0.0 0.0 
0.0 0.0 0.0 
0.0 0.0 0.0 
0.0 0.0 0.0 
0.0 0.0 0.0 
0.0 0.0 0.0 
0.0 0.0 0.0 
0.0 0.0 0.0 
0.0 0.0 0.0 
0.0 0.0 0.0 
0.0 0.0 0.0 
0.0 0.0 0.0 
0.0 0.0 0.0 
0.0 0.0 0.0 
0.0 0.0 0.0 
0.0 0.0 0.0 
0.0 0.0 0.0 
0.0 0.0 0.0 
0.0 0.0 0.0 
0.0 0.0 0.0 
0.0 0.0 0.0 
0.0 0.0 0.0 
0.0 0.0 0.0 
0.0 0.0 0.0 
0.0 0.0 0.0 
0.0 0.0 0.0 
0.0 0.0 0.0 
0.0 0.0 0.0 
0.0 0.0 0.0 
0.0 0.0 0.0 
0.0 0.0 0.0 
0.0 0.0 0.0 
0.0 0.0 0.0 
0.0 0.0 0.0 
0.0 0.0 0.0 
0.0 0.0 0.0 
0.0 0.0 0.0 
0.0 0.0 0.0 
0.0 0.0 0.0 
0.0 0.0 0.0 
0.0 0.0 0.0 
0.0 0.0 0.0 
0.0 0.0 0.0 
0.0 0.0 0.0 
0.0 0.0 0.0 
0.0 0.0 0.0 
0.0 0.0 0.0 
0.0 0.0 0.0 
0.0 0.0 0.0 
0.0 0.0 0.0 
0.0 0.0 0.0 
0.0 0.0 0.0 
0.0 0.0 0.0 
0.0 0.0 0.0 
0.0 0.0 0.0 
0.0 0.0 0.0 
0.0 0.0 0.0 
0.0 0.0 0.0 
0.0 0.0 0.0 
0.0 0.0 0.0 
0.0 0.0 0.0 
0.0 0.0 0.0 
0.0 0.0 0.0 
0.0 0.0 0.0 
0.0 0.0 0.0 
0.0 0.0 0.0 
0.0 0.0 0.0 
0.0 0.0 0.0 
0.0 0.0 0.0 
0.0 0.0 0.0 
0.0 0.0 0.0 
0.0 0.0 0.0 
0.0 0.0 0.0 
0.0 0.0 0.0 
0.0 0.0 0.0 
0.0 0.0 0.0 
0.0 0.0 0.0 
0.0 0.0 0.0 
0.0 0.0 0.0 
0.0 0.0 0.0 
0.0 0.0 0.0 
0.0 0.0 0.0 
0.0 0.0 0.0 
0.0 0.0 0.0 
0.0 0.0 0.0 
0.0 0.0 0.0 
0.0 0.0 0.0 
0.0 0.0 0.0 
0.0 0.0 0.0 
0.0 0.0 0.0 
0.0 0.0 0.0 
0.0 0.0 0.0 
0.0 0.0 0.0 
0.0 0.0 0.0 
0.0 0.0 0.0 
0.0 0.0 0.0 
0.0 0.0 0.0 
0.0 0.0 0.0 
0.0 0.0 0.0 
0.0 0.0 0.0 
0.0 0.0 0.0 
0.0 0.0 0.0 
0.0 0.0 0.0 
0.0 0.0 0.0 
0.0 0.0 0.0 
0.0 0.0 0.0 
0.0 0.0 0.0 
0.0 0.0 0.0 
0.0 0.0 0.0 
0.0 0.0 0.0 
0.0 0.0 0.0 
0.0 0.0 0.0 
0.0 0.0 0.0 
0.0 0.0 0.0 
0.0 0.0 0.0 
0.0 0.0 0.0 
0.0 0.0 0.0 
0.0 0.0 0.0 
0.0 0.0 0.0 
0.0 0.0 0.0 
0.0 0.0 0.0 
0.0 0.0 0.0 
0.0 0.0 0.0 
0.0 0.0 0.0 
0.0 0.0 0.0 
0.0 0.0 0.0 
0.0 0.0 0.0 
0.0 0.0 0.0 
0.0 0.0 0.0 
0.0 0.0 0.0 
0.0 0.0 0.0 
0.0 0.0 0.0 
0.0 0.0 0.0 
0.0 0.0 0.0 
0.0 0.0 0.0 
0.0 0.0 0.0 
0.0 0.0 0.0 
0.0 0.0 0.0 
0.0 0.0 0.0 
0.0 0.0 0.0 
0.0 0.0 0.0 
0.0 0.0 0.0 
0.0 0.0 0.0 
0.0 0.0 0.0 
0.0 0.0 0.0 
0.0 0.0 0.0 
0.0 0.0 0.0 
0.0 0.0 0.0 
0.0 0.0 0.0 
0.0 0.0 0.0 
0.0 0.0 0.0 
0.0 0.0 0.0 
0.0 0.0 0.0 
0.0 0.0 0.0 
0.0 0.0 0.0 
0.0 0.0 0.0 
0.0 0.0 0.0 
0.0 0.0 0.0 
0.0 0.0 0.0 
0.0 0.0 0.0 
0.0 0.0 0.0 
0.0 0.0 0.0 
0.0 0.0 0.0 
0.0 0.0 0.0 
0.0 0.0 0.0 
0.0 0.0 0.0 
0.0 0.0 0.0 
0.0 0.0 0.0 
0.0 0.0 0.0 
0.0 0.0 0.0 
0.0 0.0 0.0 
0.0 0.0 0.0 
0.0 0.0 0.0 
0.0 0.0 0.0 
0.0 0.0 0.0 
0.0 0.0 0.0 
0.0 0.0 0.0 
0.0 0.0 0.0 
0.0 0.0 0.0 
0.0 0.0 0.0 
0.0 0.0 0.0 
0.0 0.0 0.0 
0.0 0.0 0.0 
0.0 0.0 0.0 
0.0 0.0 0.0 
0.0 0.0 0.0 
0.0 0.0 0.0 
0.0 0.0 0.0 
0.0 0.0 0.0 
0.0 0.0 0.0 
0.0 0.0 0.0 
0.0 0.0 0.0 
0.0 0.0 0.0 
0.0 0.0 0.0 
0.0 0.0 0.0 
0.0 0.0 0.0 
0.0 0.0 0.0 
0.0 0.0 0.0 
0.0 0.0 0.0 
0.0 0.0 0.0 
0.0 0.0 0.0 
0.0 0.0 0.0 
0.0 0.0 0.0 
0.0 0.0 0.0 
0.0 0.0 0.0 
0.0 0.0 0.0 
0.0 0.0 0.0 
0.0 0.0 0.0 
0.0 0.0 0.0 
0.0 0.0 0.0 
0.0 0.0 0.0 
0.0 0.0 0.0 
0.0 0.0 0.0 
0.0 0.0 0.0 
0.0 0.0 0.0 
0.0 0.0 0.0 
0.0 0.0 0.0 
0.0 0.0 0.0 
0.0 0.0 0.0 
0.0 0.0 0.0 
0.0 0.0 0.0 
0.0 0.0 0.0 
0.0 0.0 0.0 
0.0 0.0 0.0 
0.0 0.0 0.0 
0.0 0.0 0.0 
0.0 0.0 0.0 
0.0 0.0 0.0 
0.0 0.0 0.0 
0.0 0.0 0.0 
0.0 0.0 0.0 
0.0 0.0 0.0 
0.0 0.0 0.0 
0.0 0.0 0.0 
0.0 0.0 0.0 
0.0 0.0 0.0 
0.0 0.0 0.0 
0.0 0.0 0.0 
0.0 0.0 0.0 
0.0 0.0 0.0 
0.0 0.0 0.0 
0.0 0.0 0.0 
0.0 0.0 0.0 
0.0 0.0 0.0 
0.0 0.0 0.0 
0.0 0.0 0.0 
0.0 0.0 0.0 
0.0 0.0 0.0 
0.0 0.0 0.0 
0.0 0.0 0.0 
0.0 0.0 0.0 
0.0 0.0 0.0 
0.0 0.0 0.0 
0.0 0.0 0.0 
0.0 0.0 0.0 
0.0 0.0 0.0 
0.0 0.0 0.0 
0.0 0.0 0.0 
0.0 0.0 0.0 
0.0 0.0 0.0 
0.0 0.0 0.0 
0.0 0.0 0.0 
0.0 0.0 0.0 
0.0 0.0 0.0 
0.0 0.0 0.0 
0.0 0.0 0.0 
0.0 0.0 0.0 
0.0 0.0 0.0 
0.0 0.0 0.0 
0.0 0.0 0.0 
0.0 0.0 0.0 
0.0 0.0 0.0 
0.0 0.0 0.0 
0.0 0.0 0.0 
0.0 0.0 0.0 
0.0 0.0 0.0 
0.0 0.0 0.0 
0.0 0.0 0.0 
0.0 0.0 0.0 
0.0 0.0 0.0 
0.0 0.0 0.0 
0.0 0.0 0.0 
0.0 0.0 0.0 
0.0 0.0 0.0 
0.0 0.0 0.0 
0.0 0.0 0.0 
0.0 0.0 0.0 
0.0 0.0 0.0 
0.0 0.0 0.0 
0.0 0.0 0.0 
0.0 0.0 0.0 
0.0 0.0 0.0 
0.0 0.0 0.0 
0.0 0.0 0.0 
0.0 0.0 0.0 
0.0 0.0 0.0 
0.0 0.0 0.0 
0.0 0.0 0.0 
0.0 0.0 0.0 
0.0 0.0 0.0 
0.0 0.0 0.0 
0.0 0.0 0.0 
0.0 0.0 0.0 
0.0 0.0 0.0 
0.0 0.0 0.0 
0.0 0.0 0.0 
0.0 0.0 0.0 
0.0 0.0 0.0 
0.0 0.0 0.0 
0.0 0.0 0.0 
0.0 0.0 0.0 
0.0 0.0 0.0 
0.0 0.0 0.0 
0.0 0.0 0.0 
0.0 0.0 0.0 
0.0 0.0 0.0 
0.0 0.0 0.0 
0.0 0.0 0.0 
0.0 0.0 0.0 
0.0 0.0 0.0 
0.0 0.0 0.0 
0.0 0.0 0.0 
0.0 0.0 0.0 
0.0 0.0 0.0 
0.0 0.0 0.0 
0.0 0.0 0.0 
0.0 0.0 0.0 
0.0 0.0 0.0 
0.0 0.0 0.0 
0.0 0.0 0.0 
0.0 0.0 0.0 
0.0 0.0 0.0 
0.0 0.0 0.0 
0.0 0.0 0.0 
0.0 0.0 0.0 
0.0 0.0 0.0 
0.0 0.0 0.0 
0.0 0.0 0.0 
0.0 0.0 0.0 
0.0 0.0 0.0 
0.0 0.0 0.0 
0.0 0.0 0.0 
0.0 0.0 0.0 
0.0 0.0 0.0 
0.0 0.0 0.0 
0.0 0.0 0.0 
0.0 0.0 0.0 
0.0 0.0 0.0 
0.0 0.0 0.0 
0.0 0.0 0.0 
0.0 0.0 0.0 
0.0 0.0 0.0 
0.0 0.0 0.0 
0.0 0.0 0.0 
0.0 0.0 0.0 
0.0 0.0 0.0 
0.0 0.0 0.0 
0.0 0.0 0.0 
0.0 0.0 0.0 
0.0 0.0 0.0 
0.0 0.0 0.0 
0.0 0.0 0.0 
0.0 0.0 0.0 
0.0 0.0 0.0 
0.0 0.0 0.0 
0.0 0.0 0.0 
0.0 0.0 0.0 
0.0 0.0 0.0 
0.0 0.0 0.0 
0.0 0.0 0.0 
0.0 0.0 0.0 
0.0 0.0 0.0 
0.0 0.0 0.0 
0.0 0.0 0.0 
0.0 0.0 0.0 
0.0 0.0 0.0 
0.0 0.0 0.0 
0.0 0.0 0.0 
0.0 0.0 0.0 
0.0 0.0 0.0 
0.0 0.0 0.0 
0.0 0.0 0.0 
0.0 0.0 0.0 
0.0 0.0 0.0 
0.0 0.0 0.0 
0.0 0.0 0.0 
0.0 0.0 0.0 
0.0 0.0 0.0 
0.0 0.0 0.0 
0.0 0.0 0.0 
0.0 0.0 0.0 
0.0 0.0 0.0 
0.0 0.0 0.0 
0.0 0.0 0.0 
0.0 0.0 0.0 
0.0 0.0 0.0 
0.0 0.0 0.0 
0.0 0.0 0.0 
0.0 0.0 0.0 
0.0 0.0 0.0 
0.0 0.0 0.0 
0.0 0.0 0.0 
0.0 0.0 0.0 
0.0 0.0 0.0 
0.0 0.0 0.0 
0.0 0.0 0.0 
0.0 0.0 0.0 
0.0 0.0 0.0 
0.0 0.0 0.0 
0.0 0.0 0.0 
0.0 0.0 0.0 
0.0 0.0 0.0 
0.0 0.0 0.0 
0.0 0.0 0.0 
0.0 0.0 0.0 
0.0 0.0 0.0 
0.0 0.0 0.0 
0.0 0.0 0.0 
0.0 0.0 0.0 
0.0 0.0 0.0 
0.0 0.0 0.0 
0.0 0.0 0.0 
0.0 0.0 0.0 
0.0 0.0 0.0 
0.0 0.0 0.0 
0.0 0.0 0.0 
0.0 0.0 0.0 
0.0 0.0 0.0 
0.0 0.0 0.0 
0.0 0.0 0.0 
0.0 0.0 0.0 
0.0 0.0 0.0 
0.0 0.0 0.0 
0.0 0.0 0.0 
0.0 0.0 0.0 
0.0 0.0 0.0 
0.0 0.0 0.0 
0.0 0.0 0.0 
0.0 0.0 0.0 
0.0 0.0 0.0 
0.0 0.0 0.0 
0.0 0.0 0.0 
0.0 0.0 0.0 
0.0 0.0 0.0 
0.0 0.0 0.0 
0.0 0.0 0.0 
0.0 0.0 0.0 
0.0 0.0 0.0 
0.0 0.0 0.0 
0.0 0.0 0.0 
0.0 0.0 0.0 
0.0 0.0 0.0 
0.0 0.0 0.0 
0.0 0.0 0.0 
0.0 0.0 0.0 
0.0 0.0 0.0 
0.0 0.0 0.0 
0.0 0.0 0.0 
0.0 0.0 0.0 
0.0 0.0 0.0 
0.0 0.0 0.0 
0.0 0.0 0.0 
0.0 0.0 0.0 
0.0 0.0 0.0 
0.0 0.0 0.0 
0.0 0.0 0.0 
0.0 0.0 0.0 
0.0 0.0 0.0 
0.0 0.0 0.0 
0.0 0.0 0.0 
0.0 0.0 0.0 
0.0 0.0 0.0 
0.0 0.0 0.0 
0.0 0.0 0.0 
0.0 0.0 0.0 
0.0 0.0 0.0 
0.0 0.0 0.0 
0.0 0.0 0.0 
0.0 0.0 0.0 
0.0 0.0 0.0 
0.0 0.0 0.0 
0.0 0.0 0.0 
0.0 0.0 0.0 
0.0 0.0 0.0 
0.0 0.0 0.0 
0.0 0.0 0.0 
0.0 0.0 0.0 
0.0 0.0 0.0 
0.0 0.0 0.0 
0.0 0.0 0.0 
0.0 0.0 0.0 
0.0 0.0 0.0 
0.0 0.0 0.0 
0.0 0.0 0.0 
0.0 0.0 0.0 
0.0 0.0 0.0 
0.0 0.0 0.0 
0.0 0.0 0.0 
0.0 0.0 0.0 
0.0 0.0 0.0 
0.0 0.0 0.0 
0.0 0.0 0.0 
0.0 0.0 0.0 
0.0 0.0 0.0 
0.0 0.0 0.0 
0.0 0.0 0.0 
0.0 0.0 0.0 
0.0 0.0 0.0 
0.0 0.0 0.0 
0.0 0.0 0.0 
0.0 0.0 0.0 
0.0 0.0 0.0 
0.0 0.0 0.0 
0.0 0.0 0.0 
0.0 0.0 0.0 
0.0 0.0 0.0 
0.0 0.0 0.0 
0.0 0.0 0.0 
0.0 0.0 0.0 
0.0 0.0 0.0 
0.0 0.0 0.0 
0.0 0.0 0.0 
0.0 0.0 0.0 
0.0 0.0 0.0 
0.0 0.0 0.0 
0.0 0.0 0.0 
0.0 0.0 0.0 
0.0 0.0 0.0 
0.0 0.0 0.0 
0.0 0.0 0.0 
0.0 0.0 0.0 
0.0 0.0 0.0 
0.0 0.0 0.0 
0.0 0.0 0.0 
0.0 0.0 0.0 
0.0 0.0 0.0 
0.0 0.0 0.0 
0.0 0.0 0.0 
0.0 0.0 0.0 
0.0 0.0 0.0 
0.0 0.0 0.0 
0.0 0.0 0.0 
0.0 0.0 0.0 
0.0 0.0 0.0 
0.0 0.0 0.0 
0.0 0.0 0.0 
0.0 0.0 0.0 
0.0 0.0 0.0 
0.0 0.0 0.0 
0.0 0.0 0.0 
0.0 0.0 0.0 
0.0 0.0 0.0 
0.0 0.0 0.0 
0.0 0.0 0.0 
0.0 0.0 0.0 
0.0 0.0 0.0 
0.0 0.0 0.0 
0.0 0.0 0.0 
0.0 0.0 0.0 
0.0 0.0 0.0 
0.0 0.0 0.0 
0.0 0.0 0.0 
0.0 0.0 0.0 
0.0 0.0 0.0 
0.0 0.0 0.0 
0.0 0.0 0.0 
0.0 0.0 0.0 
0.0 0.0 0.0 
0.0 0.0 0.0 
0.0 0.0 0.0 
0.0 0.0 0.0 
0.0 0.0 0.0 
0.0 0.0 0.0 
0.0 0.0 0.0 
0.0 0.0 0.0 
0.0 0.0 0.0 
0.0 0.0 0.0 
0.0 0.0 0.0 
0.0 0.0 0.0 
0.0 0.0 0.0 
0.0 0.0 0.0 
0.0 0.0 0.0 
0.0 0.0 0.0 
0.0 0.0 0.0 
0.0 0.0 0.0 
0.0 0.0 0.0 
0.0 0.0 0.0 
0.0 0.0 0.0 
0.0 0.0 0.0 
0.0 0.0 0.0 
0.0 0.0 0.0 
0.0 0.0 0.0 
0.0 0.0 0.0 
0.0 0.0 0.0 
0.0 0.0 0.0 
0.0 0.0 0.0 
0.0 0.0 0.0 
0.0 0.0 0.0 
0.0 0.0 0.0 
0.0 0.0 0.0 
0.0 0.0 0.0 
0.0 0.0 0.0 
0.0 0.0 0.0 
0.0 0.0 0.0 
0.0 0.0 0.0 
0.0 0.0 0.0 
0.0 0.0 0.0 
0.0 0.0 0.0 
0.0 0.0 0.0 
0.0 0.0 0.0 
0.0 0.0 0.0 
0.0 0.0 0.0 
0.0 0.0 0.0 
0.0 0.0 0.0 
0.0 0.0 0.0 
0.0 0.0 0.0 
0.0 0.0 0.0 
0.0 0.0 0.0 
0.0 0.0 0.0 
0.0 0.0 0.0 
0.0 0.0 0.0 
0.0 0.0 0.0 
0.0 0.0 0.0 
0.0 0.0 0.0 
0.0 0.0 0.0 
0.0 0.0 0.0 
0.0 0.0 0.0 
0.0 0.0 0.0 
0.0 0.0 0.0 
0.0 0.0 0.0 
0.0 0.0 0.0 
0.0 0.0 0.0 
0.0 0.0 0.0 
0.0 0.0 0.0 
0.0 0.0 0.0 
0.0 0.0 0.0 
0.0 0.0 0.0 
0.0 0.0 0.0 
0.0 0.0 0.0 
0.0 0.0 0.0 
0.0 0.0 0.0 
0.0 0.0 0.0 
0.0 0.0 0.0 
0.0 0.0 0.0 
0.0 0.0 0.0 
0.0 0.0 0.0 
0.0 0.0 0.0 
0.0 0.0 0.0 
0.0 0.0 0.0 
0.0 0.0 0.0 
0.0 0.0 0.0 
0.0 0.0 0.0 
0.0 0.0 0.0 
0.0 0.0 0.0 
0.0 0.0 0.0 
0.0 0.0 0.0 
0.0 0.0 0.0 
0.0 0.0 0.0 
0.0 0.0 0.0 
0.0 0.0 0.0 
0.0 0.0 0.0 
0.0 0.0 0.0 
0.0 0.0 0.0 
0.0 0.0 0.0 
0.0 0.0 0.0 
0.0 0.0 0.0 
0.0 0.0 0.0 
0.0 0.0 0.0 
0.0 0.0 0.0 
0.0 0.0 0.0 
0.0 0.0 0.0 
0.0 0.0 0.0 
0.0 0.0 0.0 
0.0 0.0 0.0 
0.0 0.0 0.0 
0.0 0.0 0.0 
0.0 0.0 0.0 
0.0 0.0 0.0 
0.0 0.0 0.0 
0.0 0.0 0.0 
0.0 0.0 0.0 
0.0 0.0 0.0 
0.0 0.0 0.0 
0.0 0.0 0.0 
0.0 0.0 0.0 
0.0 0.0 0.0 
0.0 0.0 0.0 
0.0 0.0 0.0 
0.0 0.0 0.0 
0.0 0.0 0.0 
0.0 0.0 0.0 
0.0 0.0 0.0 
0.0 0.0 0.0 
0.0 0.0 0.0 
0.0 0.0 0.0 
0.0 0.0 0.0 
0.0 0.0 0.0 
0.0 0.0 0.0 
0.0 0.0 0.0 
0.0 0.0 0.0 
0.0 0.0 0.0 
0.0 0.0 0.0 
0.0 0.0 0.0 
0.0 0.0 0.0 
0.0 0.0 0.0 
0.0 0.0 0.0 
0.0 0.0 0.0 
0.0 0.0 0.0 
0.0 0.0 0.0 
0.0 0.0 0.0 
0.0 0.0 0.0 
0.0 0.0 0.0 
0.0 0.0 0.0 
0.0 0.0 0.0 
0.0 0.0 0.0 
0.0 0.0 0.0 
0.0 0.0 0.0 
0.0 0.0 0.0 
0.0 0.0 0.0 
0.0 0.0 0.0 
0.0 0.0 0.0 
0.0 0.0 0.0 
0.0 0.0 0.0 
0.0 0.0 0.0 
0.0 0.0 0.0 
0.0 0.0 0.0 
0.0 0.0 0.0 
0.0 0.0 0.0 
0.0 0.0 0.0 
0.0 0.0 0.0 
0.0 0.0 0.0 
0.0 0.0 0.0 
0.0 0.0 0.0 
0.0 0.0 0.0 
0.0 0.0 0.0 
0.0 0.0 0.0 
0.0 0.0 0.0 
0.0 0.0 0.0 
0.0 0.0 0.0 
0.0 0.0 0.0 
0.0 0.0 0.0 
0.0 0.0 0.0 
0.0 0.0 0.0 
0.0 0.0 0.0 
0.0 0.0 0.0 
0.0 0.0 0.0 
0.0 0.0 0.0 
0.0 0.0 0.0 
0.0 0.0 0.0 
0.0 0.0 0.0 
0.0 0.0 0.0 
0.0 0.0 0.0 
0.0 0.0 0.0 
0.0 0.0 0.0 
0.0 0.0 0.0 
0.0 0.0 0.0 
0.0 0.0 0.0 
0.0 0.0 0.0 
0.0 0.0 0.0 
0.0 0.0 0.0 
0.0 0.0 0.0 
0.0 0.0 0.0 
0.0 0.0 0.0 
0.0 0.0 0.0 
0.0 0.0 0.0 
0.0 0.0 0.0 
0.0 0.0 0.0 
0.0 0.0 0.0 
0.0 0.0 0.0 
0.0 0.0 0.0 
0.0 0.0 0.0 
0.0 0.0 0.0 
0.0 0.0 0.0 
0.0 0.0 0.0 
0.0 0.0 0.0 
0.0 0.0 0.0 
0.0 0.0 0.0 
0.0 0.0 0.0 
0.0 0.0 0.0 
0.0 0.0 0.0 
0.0 0.0 0.0 
0.0 0.0 0.0 
0.0 0.0 0.0 
0.0 0.0 0.0 
0.0 0.0 0.0 
0.0 0.0 0.0 
0.0 0.0 0.0 
0.0 0.0 0.0 
0.0 0.0 0.0 
0.0 0.0 0.0 
0.0 0.0 0.0 
0.0 0.0 0.0 
0.0 0.0 0.0 
0.0 0.0 0.0 
0.0 0.0 0.0 
0.0 0.0 0.0 
0.0 0.0 0.0 
0.0 0.0 0.0 
0.0 0.0 0.0 
0.0 0.0 0.0 
0.0 0.0 0.0 
0.0 0.0 0.0 
0.0 0.0 0.0 
0.0 0.0 0.0 
0.0 0.0 0.0 
0.0 0.0 0.0 
0.0 0.0 0.0 
0.0 0.0 0.0 
0.0 0.0 0.0 
0.0 0.0 0.0 
0.0 0.0 0.0 
0.0 0.0 0.0 
0.0 0.0 0.0 
0.0 0.0 0.0 
0.0 0.0 0.0 
0.0 0.0 0.0 
0.0 0.0 0.0 
0.0 0.0 0.0 
0.0 0.0 0.0 
0.0 0.0 0.0 
0.0 0.0 0.0 
0.0 0.0 0.0 
0.0 0.0 0.0 
0.0 0.0 0.0 
0.0 0.0 0.0 
0.0 0.0 0.0 
0.0 0.0 0.0 
0.0 0.0 0.0 
0.0 0.0 0.0 
0.0 0.0 0.0 
0.0 0.0 0.0 
0.0 0.0 0.0 
0.0 0.0 0.0 
0.0 0.0 0.0 
0.0 0.0 0.0 
0.0 0.0 0.0 
0.0 0.0 0.0 
0.0 0.0 0.0 
0.0 0.0 0.0 
0.0 0.0 0.0 
0.0 0.0 0.0 
0.0 0.0 0.0 
0.0 0.0 0.0 
0.0 0.0 0.0 
0.0 0.0 0.0 
0.0 0.0 0.0 
0.0 0.0 0.0 
0.0 0.0 0.0 
0.0 0.0 0.0 
0.0 0.0 0.0 
0.0 0.0 0.0 
0.0 0.0 0.0 
0.0 0.0 0.0 
0.0 0.0 0.0 
0.0 0.0 0.0 
0.0 0.0 0.0 
0.0 0.0 0.0 
0.0 0.0 0.0 
0.0 0.0 0.0 
0.0 0.0 0.0 
0.0 0.0 0.0 
0.0 0.0 0.0 
0.0 0.0 0.0 
0.0 0.0 0.0 
0.0 0.0 0.0 
0.0 0.0 0.0 
0.0 0.0 0.0 
0.0 0.0 0.0 
0.0 0.0 0.0 
0.0 0.0 0.0 
0.0 0.0 0.0 
0.0 0.0 0.0 
0.0 0.0 0.0 
0.0 0.0 0.0 
0.0 0.0 0.0 
0.0 0.0 0.0 
0.0 0.0 0.0 
0.0 0.0 0.0 
0.0 0.0 0.0 
0.0 0.0 0.0 
0.0 0.0 0.0 
0.0 0.0 0.0 
0.0 0.0 0.0 
0.0 0.0 0.0 
0.0 0.0 0.0 
0.0 0.0 0.0 
0.0 0.0 0.0 
0.0 0.0 0.0 
0.0 0.0 0.0 
0.0 0.0 0.0 
0.0 0.0 0.0 
0.0 0.0 0.0 
0.0 0.0 0.0 
0.0 0.0 0.0 
0.0 0.0 0.0 
0.0 0.0 0.0 
0.0 0.0 0.0 
0.0 0.0 0.0 
0.0 0.0 0.0 
0.0 0.0 0.0 
0.0 0.0 0.0 
0.0 0.0 0.0 
0.0 0.0 0.0 
0.0 0.0 0.0 
0.0 0.0 0.0 
0.0 0.0 0.0 
0.0 0.0 0.0 
0.0 0.0 0.0 
0.0 0.0 0.0 
0.0 0.0 0.0 
0.0 0.0 0.0 
0.0 0.0 0.0 
0.0 0.0 0.0 

SCALARS node_boundary float
LOOKUP_TABLE default
1.000000000000e+00 
1.000000000000e+00 
1.000000000000e+00 
1.000000000000e+00 
1.000000000000e+00 
1.000000000000e+00 
1.000000000000e+00 
1.000000000000e+00 
1.000000000000e+00 
1.000000000000e+00 
1.000000000000e+00 
1.000000000000e+00 
1.000000000000e+00 
1.000000000000e+00 
1.000000000000e+00 
1.000000000000e+00 
1.000000000000e+00 
1.000000000000e+00 
1.000000000000e+00 
1.000000000000e+00 
1.000000000000e+00 
1.000000000000e+00 
1.000000000000e+00 
1.000000000000e+00 
1.000000000000e+00 
1.000000000000e+00 
1.000000000000e+00 
1.000000000000e+00 
1.000000000000e+00 
1.000000000000e+00 
1.000000000000e+00 
1.000000000000e+00 
1.000000000000e+00 
1.000000000000e+00 
1.000000000000e+00 
1.000000000000e+00 
1.000000000000e+00 
1.000000000000e+00 
1.000000000000e+00 
1.000000000000e+00 
1.000000000000e+00 
1.000000000000e+00 
1.000000000000e+00 
1.000000000000e+00 
1.000000000000e+00 
1.000000000000e+00 
1.000000000000e+00 
1.000000000000e+00 
1.000000000000e+00 
1.000000000000e+00 
1.000000000000e+00 
1.000000000000e+00 
1.000000000000e+00 
1.000000000000e+00 
1.000000000000e+00 
1.000000000000e+00 
1.000000000000e+00 
1.000000000000e+00 
1.000000000000e+00 
1.000000000000e+00 
1.000000000000e+00 
1.000000000000e+00 
1.000000000000e+00 
1.000000000000e+00 
1.000000000000e+00 
1.000000000000e+00 
1.000000000000e+00 
1.000000000000e+00 
1.000000000000e+00 
1.000000000000e+00 
1.000000000000e+00 
1.000000000000e+00 
1.000000000000e+00 
1.000000000000e+00 
1.000000000000e+00 
1.000000000000e+00 
1.000000000000e+00 
1.000000000000e+00 
1.000000000000e+00 
1.000000000000e+00 
1.000000000000e+00 
1.000000000000e+00 
1.000000000000e+00 
1.000000000000e+00 
1.000000000000e+00 
1.000000000000e+00 
1.000000000000e+00 
1.000000000000e+00 
1.000000000000e+00 
1.000000000000e+00 
1.000000000000e+00 
1.000000000000e+00 
1.000000000000e+00 
1.000000000000e+00 
1.000000000000e+00 
1.000000000000e+00 
1.000000000000e+00 
1.000000000000e+00 
1.000000000000e+00 
1.000000000000e+00 
1.000000000000e+00 
1.000000000000e+00 
1.000000000000e+00 
1.000000000000e+00 
1.000000000000e+00 
1.000000000000e+00 
1.000000000000e+00 
1.000000000000e+00 
1.000000000000e+00 
1.000000000000e+00 
1.000000000000e+00 
1.000000000000e+00 
1.000000000000e+00 
1.000000000000e+00 
1.000000000000e+00 
1.000000000000e+00 
1.000000000000e+00 
1.000000000000e+00 
1.000000000000e+00 
1.000000000000e+00 
1.000000000000e+00 
1.000000000000e+00 
1.000000000000e+00 
1.000000000000e+00 
1.000000000000e+00 
1.000000000000e+00 
1.000000000000e+00 
1.000000000000e+00 
1.000000000000e+00 
1.000000000000e+00 
1.000000000000e+00 
1.000000000000e+00 
1.000000000000e+00 
1.000000000000e+00 
1.000000000000e+00 
0.0
0.0
0.0
0.0
0.0
0.0
0.0
0.0
0.0
0.0
0.0
0.0
0.0
0.0
0.0
0.0
0.0
0.0
0.0
0.0
0.0
0.0
0.0
0.0
0.0
0.0
0.0
0.0
0.0
0.0
0.0
0.0
0.0
0.0
0.0
0.0
0.0
0.0
0.0
0.0
0.0
0.0
0.0
0.0
0.0
0.0
0.0
0.0
0.0
0.0
0.0
0.0
0.0
0.0
0.0
0.0
0.0
0.0
0.0
0.0
0.0
0.0
0.0
0.0
0.0
0.0
0.0
0.0
0.0
0.0
0.0
0.0
0.0
0.0
0.0
0.0
0.0
0.0
0.0
0.0
0.0
0.0
0.0
0.0
0.0
0.0
0.0
0.0
0.0
0.0
0.0
0.0
0.0
0.0
0.0
0.0
0.0
0.0
0.0
0.0
0.0
0.0
0.0
0.0
0.0
0.0
0.0
0.0
0.0
0.0
0.0
0.0
0.0
0.0
0.0
0.0
0.0
0.0
0.0
0.0
0.0
0.0
0.0
0.0
0.0
0.0
0.0
0.0
0.0
0.0
0.0
0.0
0.0
0.0
0.0
0.0
0.0
0.0
0.0
0.0
0.0
0.0
0.0
0.0
0.0
0.0
0.0
0.0
0.0
0.0
0.0
0.0
0.0
0.0
0.0
0.0
0.0
0.0
0.0
0.0
0.0
0.0
0.0
0.0
0.0
0.0
0.0
0.0
0.0
0.0
0.0
0.0
0.0
0.0
0.0
0.0
0.0
0.0
0.0
0.0
0.0
0.0
0.0
0.0
0.0
0.0
0.0
0.0
0.0
0.0
0.0
0.0
0.0
0.0
0.0
0.0
0.0
0.0
0.0
0.0
0.0
0.0
0.0
0.0
0.0
0.0
0.0
0.0
0.0
0.0
0.0
0.0
0.0
0.0
0.0
0.0
0.0
0.0
0.0
0.0
0.0
0.0
0.0
0.0
0.0
0.0
0.0
0.0
0.0
0.0
0.0
0.0
0.0
0.0
0.0
0.0
0.0
0.0
0.0
0.0
0.0
0.0
0.0
0.0
0.0
0.0
0.0
0.0
0.0
0.0
0.0
0.0
0.0
0.0
0.0
0.0
0.0
0.0
0.0
0.0
0.0
0.0
0.0
0.0
0.0
0.0
0.0
0.0
0.0
0.0
0.0
0.0
0.0
0.0
0.0
0.0
0.0
0.0
0.0
0.0
0.0
0.0
0.0
0.0
0.0
0.0
0.0
0.0
0.0
0.0
0.0
0.0
0.0
0.0
0.0
0.0
0.0
0.0
0.0
0.0
0.0
0.0
0.0
0.0
0.0
0.0
0.0
0.0
0.0
0.0
0.0
0.0
0.0
0.0
0.0
0.0
0.0
0.0
0.0
0.0
0.0
0.0
0.0
0.0
0.0
0.0
0.0
0.0
0.0
0.0
0.0
0.0
0.0
0.0
0.0
0.0
0.0
0.0
0.0
0.0
0.0
0.0
0.0
0.0
0.0
0.0
0.0
0.0
0.0
0.0
0.0
0.0
0.0
0.0
0.0
0.0
0.0
0.0
0.0
0.0
0.0
0.0
0.0
0.0
0.0
0.0
0.0
0.0
0.0
0.0
0.0
0.0
0.0
0.0
0.0
0.0
0.0
0.0
0.0
0.0
0.0
0.0
0.0
0.0
0.0
0.0
0.0
0.0
0.0
0.0
0.0
0.0
0.0
0.0
0.0
0.0
0.0
0.0
0.0
0.0
0.0
0.0
0.0
0.0
0.0
0.0
0.0
0.0
0.0
0.0
0.0
0.0
0.0
0.0
0.0
0.0
0.0
0.0
0.0
0.0
0.0
0.0
0.0
0.0
0.0
0.0
0.0
0.0
0.0
0.0
0.0
0.0
0.0
0.0
0.0
0.0
0.0
0.0
0.0
0.0
0.0
0.0
0.0
0.0
0.0
0.0
0.0
0.0
0.0
0.0
0.0
0.0
0.0
0.0
0.0
0.0
0.0
0.0
0.0
0.0
0.0
0.0
0.0
0.0
0.0
0.0
0.0
0.0
0.0
0.0
0.0
0.0
0.0
0.0
0.0
0.0
0.0
0.0
0.0
0.0
0.0
0.0
0.0
0.0
0.0
0.0
0.0
0.0
0.0
0.0
0.0
0.0
0.0
0.0
0.0
0.0
0.0
0.0
0.0
0.0
0.0
0.0
0.0
0.0
0.0
0.0
0.0
0.0
0.0
0.0
0.0
0.0
0.0
0.0
0.0
0.0
0.0
0.0
0.0
0.0
0.0
0.0
0.0
0.0
0.0
0.0
0.0
0.0
0.0
0.0
0.0
0.0
0.0
0.0
0.0
0.0
0.0
0.0
0.0
0.0
0.0
0.0
0.0
0.0
0.0
0.0
0.0
0.0
0.0
0.0
0.0
0.0
0.0
0.0
0.0
0.0
0.0
0.0
0.0
0.0
0.0
0.0
0.0
0.0
0.0
0.0
0.0
0.0
0.0
0.0
0.0
0.0
0.0
0.0
0.0
0.0
0.0
0.0
0.0
0.0
0.0
0.0
0.0
0.0
0.0
0.0
0.0
0.0
0.0
0.0
0.0
0.0
0.0
0.0
0.0
0.0
0.0
0.0
0.0
0.0
0.0
0.0
0.0
0.0
0.0
0.0
0.0
0.0
0.0
0.0
0.0
0.0
0.0
0.0
0.0
0.0
0.0
0.0
0.0
0.0
0.0
0.0
0.0
0.0
0.0
0.0
0.0
0.0
0.0
0.0
0.0
0.0
0.0
0.0
0.0
0.0
0.0
0.0
0.0
0.0
0.0
0.0
0.0
0.0
0.0
0.0
0.0
0.0
0.0
0.0
0.0
0.0
0.0
0.0
0.0
0.0
0.0
0.0
0.0
0.0
0.0
0.0
0.0
0.0
0.0
0.0
0.0
0.0
0.0
0.0
0.0
0.0
0.0
0.0
0.0
0.0
0.0
0.0
0.0
0.0
0.0
0.0
0.0
0.0
0.0
0.0
0.0
0.0
0.0
0.0
0.0
0.0
0.0
0.0
0.0
0.0
0.0
0.0
0.0
0.0
0.0
0.0
0.0
0.0
0.0
0.0
0.0
0.0
0.0
0.0
0.0
0.0
0.0
0.0
0.0
0.0
0.0
0.0
0.0
0.0
0.0
0.0
0.0
0.0
0.0
0.0
0.0
0.0
0.0
0.0
0.0
0.0
0.0
0.0
0.0
0.0
0.0
0.0
0.0
0.0
0.0
0.0
0.0
0.0
0.0
0.0
0.0
0.0
0.0
0.0
0.0
0.0
0.0
0.0
0.0
0.0
0.0
0.0
0.0
0.0
0.0
0.0
0.0
0.0
0.0
0.0
0.0
0.0
0.0
0.0
0.0
0.0
0.0
0.0
0.0
0.0
0.0
0.0
0.0
0.0
0.0
0.0
0.0
0.0
0.0
0.0
0.0
0.0
0.0
0.0
0.0
0.0
0.0
0.0
0.0
0.0
0.0
0.0
0.0
0.0
0.0
0.0
0.0
0.0
0.0
0.0
0.0
0.0
0.0
0.0
0.0
0.0
0.0
0.0
0.0
0.0
0.0
0.0
0.0
0.0
0.0
0.0
0.0
0.0
0.0
0.0
0.0
0.0
0.0
0.0
0.0
0.0
0.0
0.0
0.0
0.0
0.0
0.0
0.0
0.0
0.0
0.0
0.0
0.0
0.0
0.0
0.0
0.0
0.0
0.0
0.0
0.0
0.0
0.0
0.0
0.0
0.0
0.0
0.0
0.0
0.0
0.0
0.0
0.0
0.0
0.0
0.0
0.0
0.0
0.0
0.0
0.0
0.0
0.0
0.0
0.0
0.0
0.0
0.0
0.0
0.0
0.0
0.0
0.0
0.0
0.0
0.0
0.0
0.0
0.0
0.0
0.0
0.0

VECTORS node_force_edge float
0.0 0.0 0.0 
0.0 0.0 0.0 
0.0 0.0 0.0 
0.0 0.0 0.0 
0.0 0.0 0.0 
0.0 0.0 0.0 
0.0 0.0 0.0 
0.0 0.0 0.0 
0.0 0.0 0.0 
0.0 0.0 0.0 
0.0 0.0 0.0 
0.0 0.0 0.0 
0.0 0.0 0.0 
0.0 0.0 0.0 
0.0 0.0 0.0 
0.0 0.0 0.0 
0.0 0.0 0.0 
0.0 0.0 0.0 
0.0 0.0 0.0 
0.0 0.0 0.0 
0.0 0.0 0.0 
0.0 0.0 0.0 
0.0 0.0 0.0 
0.0 0.0 0.0 
0.0 0.0 0.0 
0.0 0.0 0.0 
0.0 0.0 0.0 
0.0 0.0 0.0 
0.0 0.0 0.0 
0.0 0.0 0.0 
0.0 0.0 0.0 
0.0 0.0 0.0 
0.0 0.0 0.0 
0.0 0.0 0.0 
0.0 0.0 0.0 
0.0 0.0 0.0 
0.0 0.0 0.0 
0.0 0.0 0.0 
0.0 0.0 0.0 
0.0 0.0 0.0 
0.0 0.0 0.0 
0.0 0.0 0.0 
0.0 0.0 0.0 
0.0 0.0 0.0 
0.0 0.0 0.0 
0.0 0.0 0.0 
0.0 0.0 0.0 
0.0 0.0 0.0 
0.0 0.0 0.0 
0.0 0.0 0.0 
0.0 0.0 0.0 
0.0 0.0 0.0 
0.0 0.0 0.0 
0.0 0.0 0.0 
0.0 0.0 0.0 
0.0 0.0 0.0 
0.0 0.0 0.0 
0.0 0.0 0.0 
0.0 0.0 0.0 
0.0 0.0 0.0 
0.0 0.0 0.0 
0.0 0.0 0.0 
0.0 0.0 0.0 
0.0 0.0 0.0 
0.0 0.0 0.0 
0.0 0.0 0.0 
0.0 0.0 0.0 
0.0 0.0 0.0 
0.0 0.0 0.0 
0.0 0.0 0.0 
0.0 0.0 0.0 
0.0 0.0 0.0 
0.0 0.0 0.0 
0.0 0.0 0.0 
0.0 0.0 0.0 
0.0 0.0 0.0 
0.0 0.0 0.0 
0.0 0.0 0.0 
0.0 0.0 0.0 
0.0 0.0 0.0 
0.0 0.0 0.0 
0.0 -1.000000000000e+02 0.0 
0.0 0.0 0.0 
0.0 0.0 0.0 
0.0 0.0 0.0 
0.0 0.0 0.0 
0.0 0.0 0.0 
0.0 0.0 0.0 
0.0 0.0 0.0 
0.0 0.0 0.0 
0.0 0.0 0.0 
0.0 0.0 0.0 
0.0 0.0 0.0 
0.0 0.0 0.0 
0.0 0.0 0.0 
0.0 0.0 0.0 
0.0 0.0 0.0 
0.0 0.0 0.0 
0.0 0.0 0.0 
0.0 0.0 0.0 
0.0 0.0 0.0 
0.0 0.0 0.0 
0.0 0.0 0.0 
0.0 0.0 0.0 
0.0 0.0 0.0 
0.0 0.0 0.0 
0.0 -1.000000000000e+02 0.0 
0.0 -1.000000000000e+02 0.0 
0.0 -1.000000000000e+02 0.0 
0.0 -1.000000000000e+02 0.0 
0.0 -1.000000000000e+02 0.0 
0.0 0.0 0.0 
0.0 0.0 0.0 
0.0 0.0 0.0 
0.0 0.0 0.0 
0.0 0.0 0.0 
0.0 0.0 0.0 
0.0 0.0 0.0 
0.0 0.0 0.0 
0.0 0.0 0.0 
0.0 0.0 0.0 
0.0 0.0 0.0 
0.0 0.0 0.0 
0.0 0.0 0.0 
0.0 0.0 0.0 
0.0 0.0 0.0 
0.0 0.0 0.0 
0.0 0.0 0.0 
0.0 0.0 0.0 
0.0 0.0 0.0 
0.0 0.0 0.0 
0.0 0.0 0.0 
0.0 0.0 0.0 
0.0 0.0 0.0 
0.0 0.0 0.0 
0.0 0.0 0.0 
0.0 0.0 0.0 
0.0 0.0 0.0 
0.0 0.0 0.0 
0.0 0.0 0.0 
0.0 0.0 0.0 
0.0 0.0 0.0 
0.0 0.0 0.0 
0.0 0.0 0.0 
0.0 0.0 0.0 
0.0 0.0 0.0 
0.0 0.0 0.0 
0.0 0.0 0.0 
0.0 0.0 0.0 
0.0 0.0 0.0 
0.0 0.0 0.0 
0.0 0.0 0.0 
0.0 0.0 0.0 
0.0 0.0 0.0 
0.0 0.0 0.0 
0.0 0.0 0.0 
0.0 0.0 0.0 
0.0 0.0 0.0 
0.0 0.0 0.0 
0.0 0.0 0.0 
0.0 0.0 0.0 
0.0 0.0 0.0 
0.0 0.0 0.0 
0.0 0.0 0.0 
0.0 0.0 0.0 
0.0 0.0 0.0 
0.0 0.0 0.0 
0.0 0.0 0.0 
0.0 0.0 0.0 
0.0 0.0 0.0 
0.0 0.0 0.0 
0.0 0.0 0.0 
0.0 0.0 0.0 
0.0 0.0 0.0 
0.0 0.0 0.0 
0.0 0.0 0.0 
0.0 0.0 0.0 
0.0 0.0 0.0 
0.0 0.0 0.0 
0.0 0.0 0.0 
0.0 0.0 0.0 
0.0 0.0 0.0 
0.0 0.0 0.0 
0.0 0.0 0.0 
0.0 0.0 0.0 
0.0 0.0 0.0 
0.0 0.0 0.0 
0.0 0.0 0.0 
0.0 0.0 0.0 
0.0 0.0 0.0 
0.0 0.0 0.0 
0.0 0.0 0.0 
0.0 0.0 0.0 
0.0 0.0 0.0 
0.0 0.0 0.0 
0.0 0.0 0.0 
0.0 0.0 0.0 
0.0 0.0 0.0 
0.0 0.0 0.0 
0.0 0.0 0.0 
0.0 0.0 0.0 
0.0 0.0 0.0 
0.0 0.0 0.0 
0.0 0.0 0.0 
0.0 0.0 0.0 
0.0 0.0 0.0 
0.0 0.0 0.0 
0.0 0.0 0.0 
0.0 0.0 0.0 
0.0 0.0 0.0 
0.0 0.0 0.0 
0.0 0.0 0.0 
0.0 0.0 0.0 
0.0 0.0 0.0 
0.0 0.0 0.0 
0.0 0.0 0.0 
0.0 0.0 0.0 
0.0 0.0 0.0 
0.0 0.0 0.0 
0.0 0.0 0.0 
0.0 0.0 0.0 
0.0 0.0 0.0 
0.0 0.0 0.0 
0.0 0.0 0.0 
0.0 0.0 0.0 
0.0 0.0 0.0 
0.0 0.0 0.0 
0.0 0.0 0.0 
0.0 0.0 0.0 
0.0 0.0 0.0 
0.0 0.0 0.0 
0.0 0.0 0.0 
0.0 0.0 0.0 
0.0 0.0 0.0 
0.0 0.0 0.0 
0.0 0.0 0.0 
0.0 0.0 0.0 
0.0 0.0 0.0 
0.0 0.0 0.0 
0.0 0.0 0.0 
0.0 0.0 0.0 
0.0 0.0 0.0 
0.0 0.0 0.0 
0.0 0.0 0.0 
0.0 0.0 0.0 
0.0 0.0 0.0 
0.0 0.0 0.0 
0.0 0.0 0.0 
0.0 0.0 0.0 
0.0 0.0 0.0 
0.0 0.0 0.0 
0.0 0.0 0.0 
0.0 0.0 0.0 
0.0 0.0 0.0 
0.0 0.0 0.0 
0.0 0.0 0.0 
0.0 0.0 0.0 
0.0 0.0 0.0 
0.0 0.0 0.0 
0.0 0.0 0.0 
0.0 0.0 0.0 
0.0 0.0 0.0 
0.0 0.0 0.0 
0.0 0.0 0.0 
0.0 0.0 0.0 
0.0 0.0 0.0 
0.0 0.0 0.0 
0.0 0.0 0.0 
0.0 0.0 0.0 
0.0 0.0 0.0 
0.0 0.0 0.0 
0.0 0.0 0.0 
0.0 0.0 0.0 
0.0 0.0 0.0 
0.0 0.0 0.0 
0.0 0.0 0.0 
0.0 0.0 0.0 
0.0 0.0 0.0 
0.0 0.0 0.0 
0.0 0.0 0.0 
0.0 0.0 0.0 
0.0 0.0 0.0 
0.0 0.0 0.0 
0.0 0.0 0.0 
0.0 0.0 0.0 
0.0 0.0 0.0 
0.0 0.0 0.0 
0.0 0.0 0.0 
0.0 0.0 0.0 
0.0 0.0 0.0 
0.0 0.0 0.0 
0.0 0.0 0.0 
0.0 0.0 0.0 
0.0 0.0 0.0 
0.0 0.0 0.0 
0.0 0.0 0.0 
0.0 0.0 0.0 
0.0 0.0 0.0 
0.0 0.0 0.0 
0.0 0.0 0.0 
0.0 0.0 0.0 
0.0 0.0 0.0 
0.0 0.0 0.0 
0.0 0.0 0.0 
0.0 0.0 0.0 
0.0 0.0 0.0 
0.0 0.0 0.0 
0.0 0.0 0.0 
0.0 0.0 0.0 
0.0 0.0 0.0 
0.0 0.0 0.0 
0.0 0.0 0.0 
0.0 0.0 0.0 
0.0 0.0 0.0 
0.0 0.0 0.0 
0.0 0.0 0.0 
0.0 0.0 0.0 
0.0 0.0 0.0 
0.0 0.0 0.0 
0.0 0.0 0.0 
0.0 0.0 0.0 
0.0 0.0 0.0 
0.0 0.0 0.0 
0.0 0.0 0.0 
0.0 0.0 0.0 
0.0 0.0 0.0 
0.0 0.0 0.0 
0.0 0.0 0.0 
0.0 0.0 0.0 
0.0 0.0 0.0 
0.0 0.0 0.0 
0.0 0.0 0.0 
0.0 0.0 0.0 
0.0 0.0 0.0 
0.0 0.0 0.0 
0.0 0.0 0.0 
0.0 0.0 0.0 
0.0 0.0 0.0 
0.0 0.0 0.0 
0.0 0.0 0.0 
0.0 0.0 0.0 
0.0 0.0 0.0 
0.0 0.0 0.0 
0.0 0.0 0.0 
0.0 0.0 0.0 
0.0 0.0 0.0 
0.0 0.0 0.0 
0.0 0.0 0.0 
0.0 0.0 0.0 
0.0 0.0 0.0 
0.0 0.0 0.0 
0.0 0.0 0.0 
0.0 0.0 0.0 
0.0 0.0 0.0 
0.0 0.0 0.0 
0.0 0.0 0.0 
0.0 0.0 0.0 
0.0 0.0 0.0 
0.0 0.0 0.0 
0.0 0.0 0.0 
0.0 0.0 0.0 
0.0 0.0 0.0 
0.0 0.0 0.0 
0.0 0.0 0.0 
0.0 0.0 0.0 
0.0 0.0 0.0 
0.0 0.0 0.0 
0.0 0.0 0.0 
0.0 0.0 0.0 
0.0 0.0 0.0 
0.0 0.0 0.0 
0.0 0.0 0.0 
0.0 0.0 0.0 
0.0 0.0 0.0 
0.0 0.0 0.0 
0.0 0.0 0.0 
0.0 0.0 0.0 
0.0 0.0 0.0 
0.0 0.0 0.0 
0.0 0.0 0.0 
0.0 0.0 0.0 
0.0 0.0 0.0 
0.0 0.0 0.0 
0.0 0.0 0.0 
0.0 0.0 0.0 
0.0 0.0 0.0 
0.0 0.0 0.0 
0.0 0.0 0.0 
0.0 0.0 0.0 
0.0 0.0 0.0 
0.0 0.0 0.0 
0.0 0.0 0.0 
0.0 0.0 0.0 
0.0 0.0 0.0 
0.0 0.0 0.0 
0.0 0.0 0.0 
0.0 0.0 0.0 
0.0 0.0 0.0 
0.0 0.0 0.0 
0.0 0.0 0.0 
0.0 0.0 0.0 
0.0 0.0 0.0 
0.0 0.0 0.0 
0.0 0.0 0.0 
0.0 0.0 0.0 
0.0 0.0 0.0 
0.0 0.0 0.0 
0.0 0.0 0.0 
0.0 0.0 0.0 
0.0 0.0 0.0 
0.0 0.0 0.0 
0.0 0.0 0.0 
0.0 0.0 0.0 
0.0 0.0 0.0 
0.0 0.0 0.0 
0.0 0.0 0.0 
0.0 0.0 0.0 
0.0 0.0 0.0 
0.0 0.0 0.0 
0.0 0.0 0.0 
0.0 0.0 0.0 
0.0 0.0 0.0 
0.0 0.0 0.0 
0.0 0.0 0.0 
0.0 0.0 0.0 
0.0 0.0 0.0 
0.0 0.0 0.0 
0.0 0.0 0.0 
0.0 0.0 0.0 
0.0 0.0 0.0 
0.0 0.0 0.0 
0.0 0.0 0.0 
0.0 0.0 0.0 
0.0 0.0 0.0 
0.0 0.0 0.0 
0.0 0.0 0.0 
0.0 0.0 0.0 
0.0 0.0 0.0 
0.0 0.0 0.0 
0.0 0.0 0.0 
0.0 0.0 0.0 
0.0 0.0 0.0 
0.0 0.0 0.0 
0.0 0.0 0.0 
0.0 0.0 0.0 
0.0 0.0 0.0 
0.0 0.0 0.0 
0.0 0.0 0.0 
0.0 0.0 0.0 
0.0 0.0 0.0 
0.0 0.0 0.0 
0.0 0.0 0.0 
0.0 0.0 0.0 
0.0 0.0 0.0 
0.0 0.0 0.0 
0.0 0.0 0.0 
0.0 0.0 0.0 
0.0 0.0 0.0 
0.0 0.0 0.0 
0.0 0.0 0.0 
0.0 0.0 0.0 
0.0 0.0 0.0 
0.0 0.0 0.0 
0.0 0.0 0.0 
0.0 0.0 0.0 
0.0 0.0 0.0 
0.0 0.0 0.0 
0.0 0.0 0.0 
0.0 0.0 0.0 
0.0 0.0 0.0 
0.0 0.0 0.0 
0.0 0.0 0.0 
0.0 0.0 0.0 
0.0 0.0 0.0 
0.0 0.0 0.0 
0.0 0.0 0.0 
0.0 0.0 0.0 
0.0 0.0 0.0 
0.0 0.0 0.0 
0.0 0.0 0.0 
0.0 0.0 0.0 
0.0 0.0 0.0 
0.0 0.0 0.0 
0.0 0.0 0.0 
0.0 0.0 0.0 
0.0 0.0 0.0 
0.0 0.0 0.0 
0.0 0.0 0.0 
0.0 0.0 0.0 
0.0 0.0 0.0 
0.0 0.0 0.0 
0.0 0.0 0.0 
0.0 0.0 0.0 
0.0 0.0 0.0 
0.0 0.0 0.0 
0.0 0.0 0.0 
0.0 0.0 0.0 
0.0 0.0 0.0 
0.0 0.0 0.0 
0.0 0.0 0.0 
0.0 0.0 0.0 
0.0 0.0 0.0 
0.0 0.0 0.0 
0.0 0.0 0.0 
0.0 0.0 0.0 
0.0 0.0 0.0 
0.0 0.0 0.0 
0.0 0.0 0.0 
0.0 0.0 0.0 
0.0 0.0 0.0 
0.0 0.0 0.0 
0.0 0.0 0.0 
0.0 0.0 0.0 
0.0 0.0 0.0 
0.0 0.0 0.0 
0.0 0.0 0.0 
0.0 0.0 0.0 
0.0 0.0 0.0 
0.0 0.0 0.0 
0.0 0.0 0.0 
0.0 0.0 0.0 
0.0 0.0 0.0 
0.0 0.0 0.0 
0.0 0.0 0.0 
0.0 0.0 0.0 
0.0 0.0 0.0 
0.0 0.0 0.0 
0.0 0.0 0.0 
0.0 0.0 0.0 
0.0 0.0 0.0 
0.0 0.0 0.0 
0.0 0.0 0.0 
0.0 0.0 0.0 
0.0 0.0 0.0 
0.0 0.0 0.0 
0.0 0.0 0.0 
0.0 0.0 0.0 
0.0 0.0 0.0 
0.0 0.0 0.0 
0.0 0.0 0.0 
0.0 0.0 0.0 
0.0 0.0 0.0 
0.0 0.0 0.0 
0.0 0.0 0.0 
0.0 0.0 0.0 
0.0 0.0 0.0 
0.0 0.0 0.0 
0.0 0.0 0.0 
0.0 0.0 0.0 
0.0 0.0 0.0 
0.0 0.0 0.0 
0.0 0.0 0.0 
0.0 0.0 0.0 
0.0 0.0 0.0 
0.0 0.0 0.0 
0.0 0.0 0.0 
0.0 0.0 0.0 
0.0 0.0 0.0 
0.0 0.0 0.0 
0.0 0.0 0.0 
0.0 0.0 0.0 
0.0 0.0 0.0 
0.0 0.0 0.0 
0.0 0.0 0.0 
0.0 0.0 0.0 
0.0 0.0 0.0 
0.0 0.0 0.0 
0.0 0.0 0.0 
0.0 0.0 0.0 
0.0 0.0 0.0 
0.0 0.0 0.0 
0.0 0.0 0.0 
0.0 0.0 0.0 
0.0 0.0 0.0 
0.0 0.0 0.0 
0.0 0.0 0.0 
0.0 0.0 0.0 
0.0 0.0 0.0 
0.0 0.0 0.0 
0.0 0.0 0.0 
0.0 0.0 0.0 
0.0 0.0 0.0 
0.0 0.0 0.0 
0.0 0.0 0.0 
0.0 0.0 0.0 
0.0 0.0 0.0 
0.0 0.0 0.0 
0.0 0.0 0.0 
0.0 0.0 0.0 
0.0 0.0 0.0 
0.0 0.0 0.0 
0.0 0.0 0.0 
0.0 0.0 0.0 
0.0 0.0 0.0 
0.0 0.0 0.0 
0.0 0.0 0.0 
0.0 0.0 0.0 
0.0 0.0 0.0 
0.0 0.0 0.0 
0.0 0.0 0.0 
0.0 0.0 0.0 
0.0 0.0 0.0 
0.0 0.0 0.0 
0.0 0.0 0.0 
0.0 0.0 0.0 
0.0 0.0 0.0 
0.0 0.0 0.0 
0.0 0.0 0.0 
0.0 0.0 0.0 
0.0 0.0 0.0 
0.0 0.0 0.0 
0.0 0.0 0.0 
0.0 0.0 0.0 
0.0 0.0 0.0 
0.0 0.0 0.0 
0.0 0.0 0.0 
0.0 0.0 0.0 
0.0 0.0 0.0 
0.0 0.0 0.0 
0.0 0.0 0.0 
0.0 0.0 0.0 
0.0 0.0 0.0 
0.0 0.0 0.0 
0.0 0.0 0.0 
0.0 0.0 0.0 
0.0 0.0 0.0 
0.0 0.0 0.0 
0.0 0.0 0.0 
0.0 0.0 0.0 
0.0 0.0 0.0 
0.0 0.0 0.0 
0.0 0.0 0.0 
0.0 0.0 0.0 
0.0 0.0 0.0 
0.0 0.0 0.0 
0.0 0.0 0.0 
0.0 0.0 0.0 
0.0 0.0 0.0 
0.0 0.0 0.0 
0.0 0.0 0.0 
0.0 0.0 0.0 
0.0 0.0 0.0 
0.0 0.0 0.0 
0.0 0.0 0.0 
0.0 0.0 0.0 
0.0 0.0 0.0 
0.0 0.0 0.0 
0.0 0.0 0.0 
0.0 0.0 0.0 
0.0 0.0 0.0 
0.0 0.0 0.0 
0.0 0.0 0.0 
0.0 0.0 0.0 
0.0 0.0 0.0 
0.0 0.0 0.0 
0.0 0.0 0.0 
0.0 0.0 0.0 
0.0 0.0 0.0 
0.0 0.0 0.0 
0.0 0.0 0.0 
0.0 0.0 0.0 
0.0 0.0 0.0 
0.0 0.0 0.0 
0.0 0.0 0.0 
0.0 0.0 0.0 
0.0 0.0 0.0 
0.0 0.0 0.0 
0.0 0.0 0.0 
0.0 0.0 0.0 
0.0 0.0 0.0 
0.0 0.0 0.0 
0.0 0.0 0.0 
0.0 0.0 0.0 
0.0 0.0 0.0 
0.0 0.0 0.0 
0.0 0.0 0.0 
0.0 0.0 0.0 
0.0 0.0 0.0 
0.0 0.0 0.0 
0.0 0.0 0.0 
0.0 0.0 0.0 
0.0 0.0 0.0 
0.0 0.0 0.0 
0.0 0.0 0.0 
0.0 0.0 0.0 
0.0 0.0 0.0 
0.0 0.0 0.0 
0.0 0.0 0.0 
0.0 0.0 0.0 
0.0 0.0 0.0 
0.0 0.0 0.0 
0.0 0.0 0.0 
0.0 0.0 0.0 
0.0 0.0 0.0 
0.0 0.0 0.0 
0.0 0.0 0.0 
0.0 0.0 0.0 
0.0 0.0 0.0 
0.0 0.0 0.0 
0.0 0.0 0.0 
0.0 0.0 0.0 
0.0 0.0 0.0 
0.0 0.0 0.0 
0.0 0.0 0.0 
0.0 0.0 0.0 
0.0 0.0 0.0 
0.0 0.0 0.0 
0.0 0.0 0.0 
0.0 0.0 0.0 
0.0 0.0 0.0 
0.0 0.0 0.0 
0.0 0.0 0.0 
0.0 0.0 0.0 
0.0 0.0 0.0 
0.0 0.0 0.0 
0.0 0.0 0.0 
0.0 0.0 0.0 
0.0 0.0 0.0 
0.0 0.0 0.0 
0.0 0.0 0.0 
0.0 0.0 0.0 
0.0 0.0 0.0 
0.0 0.0 0.0 
0.0 0.0 0.0 
0.0 0.0 0.0 
0.0 0.0 0.0 
0.0 0.0 0.0 
0.0 0.0 0.0 
0.0 0.0 0.0 
0.0 0.0 0.0 
0.0 0.0 0.0 
0.0 0.0 0.0 
0.0 0.0 0.0 
0.0 0.0 0.0 
0.0 0.0 0.0 
0.0 0.0 0.0 
0.0 0.0 0.0 
0.0 0.0 0.0 
0.0 0.0 0.0 
0.0 0.0 0.0 
0.0 0.0 0.0 
0.0 0.0 0.0 
0.0 0.0 0.0 
0.0 0.0 0.0 
0.0 0.0 0.0 
0.0 0.0 0.0 
0.0 0.0 0.0 
0.0 0.0 0.0 
0.0 0.0 0.0 
0.0 0.0 0.0 
0.0 0.0 0.0 
0.0 0.0 0.0 
0.0 0.0 0.0 
0.0 0.0 0.0 
0.0 0.0 0.0 
0.0 0.0 0.0 
0.0 0.0 0.0 
0.0 0.0 0.0 
0.0 0.0 0.0 
0.0 0.0 0.0 
0.0 0.0 0.0 
0.0 0.0 0.0 
0.0 0.0 0.0 
0.0 0.0 0.0 
0.0 0.0 0.0 
0.0 0.0 0.0 
0.0 0.0 0.0 
0.0 0.0 0.0 
0.0 0.0 0.0 
0.0 0.0 0.0 
0.0 0.0 0.0 
0.0 0.0 0.0 
0.0 0.0 0.0 
0.0 0.0 0.0 
0.0 0.0 0.0 
0.0 0.0 0.0 
0.0 0.0 0.0 
0.0 0.0 0.0 
0.0 0.0 0.0 
0.0 0.0 0.0 
0.0 0.0 0.0 
0.0 0.0 0.0 
0.0 0.0 0.0 
0.0 0.0 0.0 
0.0 0.0 0.0 
0.0 0.0 0.0 
0.0 0.0 0.0 
0.0 0.0 0.0 
0.0 0.0 0.0 
0.0 0.0 0.0 
0.0 0.0 0.0 
0.0 0.0 0.0 
0.0 0.0 0.0 
0.0 0.0 0.0 
0.0 0.0 0.0 
0.0 0.0 0.0 
0.0 0.0 0.0 
0.0 0.0 0.0 
0.0 0.0 0.0 
0.0 0.0 0.0 
0.0 0.0 0.0 
0.0 0.0 0.0 
0.0 0.0 0.0 
0.0 0.0 0.0 
0.0 0.0 0.0 
0.0 0.0 0.0 
0.0 0.0 0.0 
0.0 0.0 0.0 
0.0 0.0 0.0 
0.0 0.0 0.0 
0.0 0.0 0.0 
0.0 0.0 0.0 
0.0 0.0 0.0 
0.0 0.0 0.0 
0.0 0.0 0.0 
0.0 0.0 0.0 
0.0 0.0 0.0 
0.0 0.0 0.0 
0.0 0.0 0.0 
0.0 0.0 0.0 
0.0 0.0 0.0 
0.0 0.0 0.0 
0.0 0.0 0.0 
0.0 0.0 0.0 
0.0 0.0 0.0 
0.0 0.0 0.0 
0.0 0.0 0.0 
0.0 0.0 0.0 
0.0 0.0 0.0 
0.0 0.0 0.0 
0.0 0.0 0.0 
0.0 0.0 0.0 
0.0 0.0 0.0 
0.0 0.0 0.0 
0.0 0.0 0.0 
0.0 0.0 0.0 
0.0 0.0 0.0 
0.0 0.0 0.0 
0.0 0.0 0.0 
0.0 0.0 0.0 
0.0 0.0 0.0 
0.0 0.0 0.0 
0.0 0.0 0.0 
0.0 0.0 0.0 
0.0 0.0 0.0 
0.0 0.0 0.0 
0.0 0.0 0.0 
0.0 0.0 0.0 
0.0 0.0 0.0 
0.0 0.0 0.0 
0.0 0.0 0.0 
0.0 0.0 0.0 
0.0 0.0 0.0 
0.0 0.0 0.0 
0.0 0.0 0.0 
0.0 0.0 0.0 
0.0 0.0 0.0 
0.0 0.0 0.0 
0.0 0.0 0.0 
0.0 0.0 0.0 
0.0 0.0 0.0 
0.0 0.0 0.0 
0.0 0.0 0.0 
0.0 0.0 0.0 
0.0 0.0 0.0 
0.0 0.0 0.0 
0.0 0.0 0.0 
0.0 0.0 0.0 
0.0 0.0 0.0 
0.0 0.0 0.0 
0.0 0.0 0.0 
0.0 0.0 0.0 
0.0 0.0 0.0 
0.0 0.0 0.0 
0.0 0.0 0.0 
0.0 0.0 0.0 
0.0 0.0 0.0 
0.0 0.0 0.0 
0.0 0.0 0.0 
0.0 0.0 0.0 
0.0 0.0 0.0 
0.0 0.0 0.0 
0.0 0.0 0.0 
0.0 0.0 0.0 
0.0 0.0 0.0 
0.0 0.0 0.0 
0.0 0.0 0.0 
0.0 0.0 0.0 
0.0 0.0 0.0 
0.0 0.0 0.0 
0.0 0.0 0.0 
0.0 0.0 0.0 
0.0 0.0 0.0 
0.0 0.0 0.0 
0.0 0.0 0.0 
0.0 0.0 0.0 
0.0 0.0 0.0 
0.0 0.0 0.0 
0.0 0.0 0.0 
0.0 0.0 0.0 
0.0 0.0 0.0 
0.0 0.0 0.0 
0.0 0.0 0.0 
0.0 0.0 0.0 
0.0 0.0 0.0 
0.0 0.0 0.0 
0.0 0.0 0.0 
0.0 0.0 0.0 
0.0 0.0 0.0 
0.0 0.0 0.0 
0.0 0.0 0.0 
0.0 0.0 0.0 
0.0 0.0 0.0 
0.0 0.0 0.0 
0.0 0.0 0.0 
0.0 0.0 0.0 
0.0 0.0 0.0 
0.0 0.0 0.0 
0.0 0.0 0.0 
0.0 0.0 0.0 
0.0 0.0 0.0 
0.0 0.0 0.0 
0.0 0.0 0.0 
0.0 0.0 0.0 
0.0 0.0 0.0 
0.0 0.0 0.0 
0.0 0.0 0.0 
0.0 0.0 0.0 
0.0 0.0 0.0 
0.0 0.0 0.0 
0.0 0.0 0.0 
0.0 0.0 0.0 
0.0 0.0 0.0 
0.0 0.0 0.0 
0.0 0.0 0.0 
0.0 0.0 0.0 
0.0 0.0 0.0 
0.0 0.0 0.0 
0.0 0.0 0.0 
0.0 0.0 0.0 
0.0 0.0 0.0 
0.0 0.0 0.0 
0.0 0.0 0.0 
0.0 0.0 0.0 
0.0 0.0 0.0 
0.0 0.0 0.0 
0.0 0.0 0.0 
0.0 0.0 0.0 
0.0 0.0 0.0 
0.0 0.0 0.0 
0.0 0.0 0.0 
0.0 0.0 0.0 
0.0 0.0 0.0 
0.0 0.0 0.0 
0.0 0.0 0.0 
0.0 0.0 0.0 
0.0 0.0 0.0 
0.0 0.0 0.0 
0.0 0.0 0.0 
0.0 0.0 0.0 
0.0 0.0 0.0 
0.0 0.0 0.0 
0.0 0.0 0.0 
0.0 0.0 0.0 
0.0 0.0 0.0 
0.0 0.0 0.0 
0.0 0.0 0.0 
0.0 0.0 0.0 
0.0 0.0 0.0 
0.0 0.0 0.0 
0.0 0.0 0.0 
0.0 0.0 0.0 
0.0 0.0 0.0 
0.0 0.0 0.0 
0.0 0.0 0.0 
0.0 0.0 0.0 
0.0 0.0 0.0 
0.0 0.0 0.0 
0.0 0.0 0.0 
0.0 0.0 0.0 
0.0 0.0 0.0 
0.0 0.0 0.0 
0.0 0.0 0.0 
0.0 0.0 0.0 
0.0 0.0 0.0 
0.0 0.0 0.0 
0.0 0.0 0.0 
0.0 0.0 0.0 
0.0 0.0 0.0 
0.0 0.0 0.0 
0.0 0.0 0.0 
0.0 0.0 0.0 
0.0 0.0 0.0 
0.0 0.0 0.0 
0.0 0.0 0.0 
0.0 0.0 0.0 
0.0 0.0 0.0 
0.0 0.0 0.0 
0.0 0.0 0.0 
0.0 0.0 0.0 
0.0 0.0 0.0 
0.0 0.0 0.0 
0.0 0.0 0.0 
0.0 0.0 0.0 
0.0 0.0 0.0 
0.0 0.0 0.0 
0.0 0.0 0.0 
0.0 0.0 0.0 
0.0 0.0 0.0 
0.0 0.0 0.0 
0.0 0.0 0.0 
0.0 0.0 0.0 
0.0 0.0 0.0 
0.0 0.0 0.0 
0.0 0.0 0.0 
0.0 0.0 0.0 
0.0 0.0 0.0 
0.0 0.0 0.0 
0.0 0.0 0.0 
0.0 0.0 0.0 
0.0 0.0 0.0 
0.0 0.0 0.0 
0.0 0.0 0.0 
0.0 0.0 0.0 
0.0 0.0 0.0 
0.0 0.0 0.0 
0.0 0.0 0.0 
0.0 0.0 0.0 

VECTORS node_force_gravity float
0.0 -1.962000000000e+01 0.0 
0.0 -1.962000000000e+01 0.0 
0.0 -1.962000000000e+01 0.0 
0.0 -1.962000000000e+01 0.0 
0.0 -1.962000000000e+01 0.0 
0.0 -1.962000000000e+01 0.0 
0.0 -1.962000000000e+01 0.0 
0.0 -1.962000000000e+01 0.0 
0.0 -1.962000000000e+01 0.0 
0.0 -1.962000000000e+01 0.0 
0.0 -1.962000000000e+01 0.0 
0.0 -1.962000000000e+01 0.0 
0.0 -1.962000000000e+01 0.0 
0.0 -1.962000000000e+01 0.0 
0.0 -1.962000000000e+01 0.0 
0.0 -1.962000000000e+01 0.0 
0.0 -1.962000000000e+01 0.0 
0.0 -1.962000000000e+01 0.0 
0.0 -1.962000000000e+01 0.0 
0.0 -1.962000000000e+01 0.0 
0.0 -1.962000000000e+01 0.0 
0.0 -1.962000000000e+01 0.0 
0.0 -1.962000000000e+01 0.0 
0.0 -1.962000000000e+01 0.0 
0.0 -1.962000000000e+01 0.0 
0.0 -1.962000000000e+01 0.0 
0.0 -1.962000000000e+01 0.0 
0.0 -1.962000000000e+01 0.0 
0.0 -1.962000000000e+01 0.0 
0.0 -1.962000000000e+01 0.0 
0.0 -1.962000000000e+01 0.0 
0.0 -1.962000000000e+01 0.0 
0.0 -1.962000000000e+01 0.0 
0.0 -1.962000000000e+01 0.0 
0.0 -1.962000000000e+01 0.0 
0.0 -1.962000000000e+01 0.0 
0.0 -1.962000000000e+01 0.0 
0.0 -1.962000000000e+01 0.0 
0.0 -1.962000000000e+01 0.0 
0.0 -1.962000000000e+01 0.0 
0.0 -1.962000000000e+01 0.0 
0.0 -1.962000000000e+01 0.0 
0.0 -1.962000000000e+01 0.0 
0.0 -1.962000000000e+01 0.0 
0.0 -1.962000000000e+01 0.0 
0.0 -1.962000000000e+01 0.0 
0.0 -1.962000000000e+01 0.0 
0.0 -1.962000000000e+01 0.0 
0.0 -1.962000000000e+01 0.0 
0.0 -1.962000000000e+01 0.0 
0.0 -1.962000000000e+01 0.0 
0.0 -1.962000000000e+01 0.0 
0.0 -1.962000000000e+01 0.0 
0.0 -1.962000000000e+01 0.0 
0.0 -1.962000000000e+01 0.0 
0.0 -1.962000000000e+01 0.0 
0.0 -1.962000000000e+01 0.0 
0.0 -1.962000000000e+01 0.0 
0.0 -1.962000000000e+01 0.0 
0.0 -1.962000000000e+01 0.0 
0.0 -1.962000000000e+01 0.0 
0.0 -1.962000000000e+01 0.0 
0.0 -1.962000000000e+01 0.0 
0.0 -1.962000000000e+01 0.0 
0.0 -1.962000000000e+01 0.0 
0.0 -1.962000000000e+01 0.0 
0.0 -1.962000000000e+01 0.0 
0.0 -1.962000000000e+01 0.0 
0.0 -1.962000000000e+01 0.0 
0.0 -1.962000000000e+01 0.0 
0.0 -1.962000000000e+01 0.0 
0.0 -1.962000000000e+01 0.0 
0.0 -1.962000000000e+01 0.0 
0.0 -1.962000000000e+01 0.0 
0.0 -1.962000000000e+01 0.0 
0.0 -1.962000000000e+01 0.0 
0.0 -1.962000000000e+01 0.0 
0.0 -1.962000000000e+01 0.0 
0.0 -1.962000000000e+01 0.0 
0.0 -1.962000000000e+01 0.0 
0.0 -1.962000000000e+01 0.0 
0.0 -1.962000000000e+01 0.0 
0.0 -1.962000000000e+01 0.0 
0.0 -1.962000000000e+01 0.0 
0.0 -1.962000000000e+01 0.0 
0.0 -1.962000000000e+01 0.0 
0.0 -1.962000000000e+01 0.0 
0.0 -1.962000000000e+01 0.0 
0.0 -1.962000000000e+01 0.0 
0.0 -1.962000000000e+01 0.0 
0.0 -1.962000000000e+01 0.0 
0.0 -1.962000000000e+01 0.0 
0.0 -1.962000000000e+01 0.0 
0.0 -1.962000000000e+01 0.0 
0.0 -1.962000000000e+01 0.0 
0.0 -1.962000000000e+01 0.0 
0.0 -1.962000000000e+01 0.0 
0.0 -1.962000000000e+01 0.0 
0.0 -1.962000000000e+01 0.0 
0.0 -1.962000000000e+01 0.0 
0.0 -1.962000000000e+01 0.0 
0.0 -1.962000000000e+01 0.0 
0.0 -1.962000000000e+01 0.0 
0.0 -1.962000000000e+01 0.0 
0.0 -1.962000000000e+01 0.0 
0.0 -1.962000000000e+01 0.0 
0.0 -1.962000000000e+01 0.0 
0.0 -1.962000000000e+01 0.0 
0.0 -1.962000000000e+01 0.0 
0.0 -1.962000000000e+01 0.0 
0.0 -1.962000000000e+01 0.0 
0.0 -1.962000000000e+01 0.0 
0.0 -1.962000000000e+01 0.0 
0.0 -1.962000000000e+01 0.0 
0.0 -1.962000000000e+01 0.0 
0.0 -1.962000000000e+01 0.0 
0.0 -1.962000000000e+01 0.0 
0.0 -1.962000000000e+01 0.0 
0.0 -1.962000000000e+01 0.0 
0.0 -1.962000000000e+01 0.0 
0.0 -1.962000000000e+01 0.0 
0.0 -1.962000000000e+01 0.0 
0.0 -1.962000000000e+01 0.0 
0.0 -1.962000000000e+01 0.0 
0.0 -1.962000000000e+01 0.0 
0.0 -1.962000000000e+01 0.0 
0.0 -1.962000000000e+01 0.0 
0.0 -1.962000000000e+01 0.0 
0.0 -1.962000000000e+01 0.0 
0.0 -1.962000000000e+01 0.0 
0.0 -1.962000000000e+01 0.0 
0.0 -1.962000000000e+01 0.0 
0.0 -1.962000000000e+01 0.0 
0.0 -1.962000000000e+01 0.0 
0.0 -1.962000000000e+01 0.0 
0.0 -1.962000000000e+01 0.0 
0.0 -1.962000000000e+01 0.0 
0.0 -1.962000000000e+01 0.0 
0.0 -1.962000000000e+01 0.0 
0.0 -1.962000000000e+01 0.0 
0.0 -1.962000000000e+01 0.0 
0.0 -1.962000000000e+01 0.0 
0.0 -1.962000000000e+01 0.0 
0.0 -1.962000000000e+01 0.0 
0.0 -1.962000000000e+01 0.0 
0.0 -1.962000000000e+01 0.0 
0.0 -1.962000000000e+01 0.0 
0.0 -1.962000000000e+01 0.0 
0.0 -1.962000000000e+01 0.0 
0.0 -1.962000000000e+01 0.0 
0.0 -1.962000000000e+01 0.0 
0.0 -1.962000000000e+01 0.0 
0.0 -1.962000000000e+01 0.0 
0.0 -1.962000000000e+01 0.0 
0.0 -1.962000000000e+01 0.0 
0.0 -1.962000000000e+01 0.0 
0.0 -1.962000000000e+01 0.0 
0.0 -1.962000000000e+01 0.0 
0.0 -1.962000000000e+01 0.0 
0.0 -1.962000000000e+01 0.0 
0.0 -1.962000000000e+01 0.0 
0.0 -1.962000000000e+01 0.0 
0.0 -1.962000000000e+01 0.0 
0.0 -1.962000000000e+01 0.0 
0.0 -1.962000000000e+01 0.0 
0.0 -1.962000000000e+01 0.0 
0.0 -1.962000000000e+01 0.0 
0.0 -1.962000000000e+01 0.0 
0.0 -1.962000000000e+01 0.0 
0.0 -1.962000000000e+01 0.0 
0.0 -1.962000000000e+01 0.0 
0.0 -1.962000000000e+01 0.0 
0.0 -1.962000000000e+01 0.0 
0.0 -1.962000000000e+01 0.0 
0.0 -1.962000000000e+01 0.0 
0.0 -1.962000000000e+01 0.0 
0.0 -1.962000000000e+01 0.0 
0.0 -1.962000000000e+01 0.0 
0.0 -1.962000000000e+01 0.0 
0.0 -1.962000000000e+01 0.0 
0.0 -1.962000000000e+01 0.0 
0.0 -1.962000000000e+01 0.0 
0.0 -1.962000000000e+01 0.0 
0.0 -1.962000000000e+01 0.0 
0.0 -1.962000000000e+01 0.0 
0.0 -1.962000000000e+01 0.0 
0.0 -1.962000000000e+01 0.0 
0.0 -1.962000000000e+01 0.0 
0.0 -1.962000000000e+01 0.0 
0.0 -1.962000000000e+01 0.0 
0.0 -1.962000000000e+01 0.0 
0.0 -1.962000000000e+01 0.0 
0.0 -1.962000000000e+01 0.0 
0.0 -1.962000000000e+01 0.0 
0.0 -1.962000000000e+01 0.0 
0.0 -1.962000000000e+01 0.0 
0.0 -1.962000000000e+01 0.0 
0.0 -1.962000000000e+01 0.0 
0.0 -1.962000000000e+01 0.0 
0.0 -1.962000000000e+01 0.0 
0.0 -1.962000000000e+01 0.0 
0.0 -1.962000000000e+01 0.0 
0.0 -1.962000000000e+01 0.0 
0.0 -1.962000000000e+01 0.0 
0.0 -1.962000000000e+01 0.0 
0.0 -1.962000000000e+01 0.0 
0.0 -1.962000000000e+01 0.0 
0.0 -1.962000000000e+01 0.0 
0.0 -1.962000000000e+01 0.0 
0.0 -1.962000000000e+01 0.0 
0.0 -1.962000000000e+01 0.0 
0.0 -1.962000000000e+01 0.0 
0.0 -1.962000000000e+01 0.0 
0.0 -1.962000000000e+01 0.0 
0.0 -1.962000000000e+01 0.0 
0.0 -1.962000000000e+01 0.0 
0.0 -1.962000000000e+01 0.0 
0.0 -1.962000000000e+01 0.0 
0.0 -1.962000000000e+01 0.0 
0.0 -1.962000000000e+01 0.0 
0.0 -1.962000000000e+01 0.0 
0.0 -1.962000000000e+01 0.0 
0.0 -1.962000000000e+01 0.0 
0.0 -1.962000000000e+01 0.0 
0.0 -1.962000000000e+01 0.0 
0.0 -1.962000000000e+01 0.0 
0.0 -1.962000000000e+01 0.0 
0.0 -1.962000000000e+01 0.0 
0.0 -1.962000000000e+01 0.0 
0.0 -1.962000000000e+01 0.0 
0.0 -1.962000000000e+01 0.0 
0.0 -1.962000000000e+01 0.0 
0.0 -1.962000000000e+01 0.0 
0.0 -1.962000000000e+01 0.0 
0.0 -1.962000000000e+01 0.0 
0.0 -1.962000000000e+01 0.0 
0.0 -1.962000000000e+01 0.0 
0.0 -1.962000000000e+01 0.0 
0.0 -1.962000000000e+01 0.0 
0.0 -1.962000000000e+01 0.0 
0.0 -1.962000000000e+01 0.0 
0.0 -1.962000000000e+01 0.0 
0.0 -1.962000000000e+01 0.0 
0.0 -1.962000000000e+01 0.0 
0.0 -1.962000000000e+01 0.0 
0.0 -1.962000000000e+01 0.0 
0.0 -1.962000000000e+01 0.0 
0.0 -1.962000000000e+01 0.0 
0.0 -1.962000000000e+01 0.0 
0.0 -1.962000000000e+01 0.0 
0.0 -1.962000000000e+01 0.0 
0.0 -1.962000000000e+01 0.0 
0.0 -1.962000000000e+01 0.0 
0.0 -1.962000000000e+01 0.0 
0.0 -1.962000000000e+01 0.0 
0.0 -1.962000000000e+01 0.0 
0.0 -1.962000000000e+01 0.0 
0.0 -1.962000000000e+01 0.0 
0.0 -1.962000000000e+01 0.0 
0.0 -1.962000000000e+01 0.0 
0.0 -1.962000000000e+01 0.0 
0.0 -1.962000000000e+01 0.0 
0.0 -1.962000000000e+01 0.0 
0.0 -1.962000000000e+01 0.0 
0.0 -1.962000000000e+01 0.0 
0.0 -1.962000000000e+01 0.0 
0.0 -1.962000000000e+01 0.0 
0.0 -1.962000000000e+01 0.0 
0.0 -1.962000000000e+01 0.0 
0.0 -1.962000000000e+01 0.0 
0.0 -1.962000000000e+01 0.0 
0.0 -1.962000000000e+01 0.0 
0.0 -1.962000000000e+01 0.0 
0.0 -1.962000000000e+01 0.0 
0.0 -1.962000000000e+01 0.0 
0.0 -1.962000000000e+01 0.0 
0.0 -1.962000000000e+01 0.0 
0.0 -1.962000000000e+01 0.0 
0.0 -1.962000000000e+01 0.0 
0.0 -1.962000000000e+01 0.0 
0.0 -1.962000000000e+01 0.0 
0.0 -1.962000000000e+01 0.0 
0.0 -1.962000000000e+01 0.0 
0.0 -1.962000000000e+01 0.0 
0.0 -1.962000000000e+01 0.0 
0.0 -1.962000000000e+01 0.0 
0.0 -1.962000000000e+01 0.0 
0.0 -1.962000000000e+01 0.0 
0.0 -1.962000000000e+01 0.0 
0.0 -1.962000000000e+01 0.0 
0.0 -1.962000000000e+01 0.0 
0.0 -1.962000000000e+01 0.0 
0.0 -1.962000000000e+01 0.0 
0.0 -1.962000000000e+01 0.0 
0.0 -1.962000000000e+01 0.0 
0.0 -1.962000000000e+01 0.0 
0.0 -1.962000000000e+01 0.0 
0.0 -1.962000000000e+01 0.0 
0.0 -1.962000000000e+01 0.0 
0.0 -1.962000000000e+01 0.0 
0.0 -1.962000000000e+01 0.0 
0.0 -1.962000000000e+01 0.0 
0.0 -1.962000000000e+01 0.0 
0.0 -1.962000000000e+01 0.0 
0.0 -1.962000000000e+01 0.0 
0.0 -1.962000000000e+01 0.0 
0.0 -1.962000000000e+01 0.0 
0.0 -1.962000000000e+01 0.0 
0.0 -1.962000000000e+01 0.0 
0.0 -1.962000000000e+01 0.0 
0.0 -1.962000000000e+01 0.0 
0.0 -1.962000000000e+01 0.0 
0.0 -1.962000000000e+01 0.0 
0.0 -1.962000000000e+01 0.0 
0.0 -1.962000000000e+01 0.0 
0.0 -1.962000000000e+01 0.0 
0.0 -1.962000000000e+01 0.0 
0.0 -1.962000000000e+01 0.0 
0.0 -1.962000000000e+01 0.0 
0.0 -1.962000000000e+01 0.0 
0.0 -1.962000000000e+01 0.0 
0.0 -1.962000000000e+01 0.0 
0.0 -1.962000000000e+01 0.0 
0.0 -1.962000000000e+01 0.0 
0.0 -1.962000000000e+01 0.0 
0.0 -1.962000000000e+01 0.0 
0.0 -1.962000000000e+01 0.0 
0.0 -1.962000000000e+01 0.0 
0.0 -1.962000000000e+01 0.0 
0.0 -1.962000000000e+01 0.0 
0.0 -1.962000000000e+01 0.0 
0.0 -1.962000000000e+01 0.0 
0.0 -1.962000000000e+01 0.0 
0.0 -1.962000000000e+01 0.0 
0.0 -1.962000000000e+01 0.0 
0.0 -1.962000000000e+01 0.0 
0.0 -1.962000000000e+01 0.0 
0.0 -1.962000000000e+01 0.0 
0.0 -1.962000000000e+01 0.0 
0.0 -1.962000000000e+01 0.0 
0.0 -1.962000000000e+01 0.0 
0.0 -1.962000000000e+01 0.0 
0.0 -1.962000000000e+01 0.0 
0.0 -1.962000000000e+01 0.0 
0.0 -1.962000000000e+01 0.0 
0.0 -1.962000000000e+01 0.0 
0.0 -1.962000000000e+01 0.0 
0.0 -1.962000000000e+01 0.0 
0.0 -1.962000000000e+01 0.0 
0.0 -1.962000000000e+01 0.0 
0.0 -1.962000000000e+01 0.0 
0.0 -1.962000000000e+01 0.0 
0.0 -1.962000000000e+01 0.0 
0.0 -1.962000000000e+01 0.0 
0.0 -1.962000000000e+01 0.0 
0.0 -1.962000000000e+01 0.0 
0.0 -1.962000000000e+01 0.0 
0.0 -1.962000000000e+01 0.0 
0.0 -1.962000000000e+01 0.0 
0.0 -1.962000000000e+01 0.0 
0.0 -1.962000000000e+01 0.0 
0.0 -1.962000000000e+01 0.0 
0.0 -1.962000000000e+01 0.0 
0.0 -1.962000000000e+01 0.0 
0.0 -1.962000000000e+01 0.0 
0.0 -1.962000000000e+01 0.0 
0.0 -1.962000000000e+01 0.0 
0.0 -1.962000000000e+01 0.0 
0.0 -1.962000000000e+01 0.0 
0.0 -1.962000000000e+01 0.0 
0.0 -1.962000000000e+01 0.0 
0.0 -1.962000000000e+01 0.0 
0.0 -1.962000000000e+01 0.0 
0.0 -1.962000000000e+01 0.0 
0.0 -1.962000000000e+01 0.0 
0.0 -1.962000000000e+01 0.0 
0.0 -1.962000000000e+01 0.0 
0.0 -1.962000000000e+01 0.0 
0.0 -1.962000000000e+01 0.0 
0.0 -1.962000000000e+01 0.0 
0.0 -1.962000000000e+01 0.0 
0.0 -1.962000000000e+01 0.0 
0.0 -1.962000000000e+01 0.0 
0.0 -1.962000000000e+01 0.0 
0.0 -1.962000000000e+01 0.0 
0.0 -1.962000000000e+01 0.0 
0.0 -1.962000000000e+01 0.0 
0.0 -1.962000000000e+01 0.0 
0.0 -1.962000000000e+01 0.0 
0.0 -1.962000000000e+01 0.0 
0.0 -1.962000000000e+01 0.0 
0.0 -1.962000000000e+01 0.0 
0.0 -1.962000000000e+01 0.0 
0.0 -1.962000000000e+01 0.0 
0.0 -1.962000000000e+01 0.0 
0.0 -1.962000000000e+01 0.0 
0.0 -1.962000000000e+01 0.0 
0.0 -1.962000000000e+01 0.0 
0.0 -1.962000000000e+01 0.0 
0.0 -1.962000000000e+01 0.0 
0.0 -1.962000000000e+01 0.0 
0.0 -1.962000000000e+01 0.0 
0.0 -1.962000000000e+01 0.0 
0.0 -1.962000000000e+01 0.0 
0.0 -1.962000000000e+01 0.0 
0.0 -1.962000000000e+01 0.0 
0.0 -1.962000000000e+01 0.0 
0.0 -1.962000000000e+01 0.0 
0.0 -1.962000000000e+01 0.0 
0.0 -1.962000000000e+01 0.0 
0.0 -1.962000000000e+01 0.0 
0.0 -1.962000000000e+01 0.0 
0.0 -1.962000000000e+01 0.0 
0.0 -1.962000000000e+01 0.0 
0.0 -1.962000000000e+01 0.0 
0.0 -1.962000000000e+01 0.0 
0.0 -1.962000000000e+01 0.0 
0.0 -1.962000000000e+01 0.0 
0.0 -1.962000000000e+01 0.0 
0.0 -1.962000000000e+01 0.0 
0.0 -1.962000000000e+01 0.0 
0.0 -1.962000000000e+01 0.0 
0.0 -1.962000000000e+01 0.0 
0.0 -1.962000000000e+01 0.0 
0.0 -1.962000000000e+01 0.0 
0.0 -1.962000000000e+01 0.0 
0.0 -1.962000000000e+01 0.0 
0.0 -1.962000000000e+01 0.0 
0.0 -1.962000000000e+01 0.0 
0.0 -1.962000000000e+01 0.0 
0.0 -1.962000000000e+01 0.0 
0.0 -1.962000000000e+01 0.0 
0.0 -1.962000000000e+01 0.0 
0.0 -1.962000000000e+01 0.0 
0.0 -1.962000000000e+01 0.0 
0.0 -1.962000000000e+01 0.0 
0.0 -1.962000000000e+01 0.0 
0.0 -1.962000000000e+01 0.0 
0.0 -1.962000000000e+01 0.0 
0.0 -1.962000000000e+01 0.0 
0.0 -1.962000000000e+01 0.0 
0.0 -1.962000000000e+01 0.0 
0.0 -1.962000000000e+01 0.0 
0.0 -1.962000000000e+01 0.0 
0.0 -1.962000000000e+01 0.0 
0.0 -1.962000000000e+01 0.0 
0.0 -1.962000000000e+01 0.0 
0.0 -1.962000000000e+01 0.0 
0.0 -1.962000000000e+01 0.0 
0.0 -1.962000000000e+01 0.0 
0.0 -1.962000000000e+01 0.0 
0.0 -1.962000000000e+01 0.0 
0.0 -1.962000000000e+01 0.0 
0.0 -1.962000000000e+01 0.0 
0.0 -1.962000000000e+01 0.0 
0.0 -1.962000000000e+01 0.0 
0.0 -1.962000000000e+01 0.0 
0.0 -1.962000000000e+01 0.0 
0.0 -1.962000000000e+01 0.0 
0.0 -1.962000000000e+01 0.0 
0.0 -1.962000000000e+01 0.0 
0.0 -1.962000000000e+01 0.0 
0.0 -1.962000000000e+01 0.0 
0.0 -1.962000000000e+01 0.0 
0.0 -1.962000000000e+01 0.0 
0.0 -1.962000000000e+01 0.0 
0.0 -1.962000000000e+01 0.0 
0.0 -1.962000000000e+01 0.0 
0.0 -1.962000000000e+01 0.0 
0.0 -1.962000000000e+01 0.0 
0.0 -1.962000000000e+01 0.0 
0.0 -1.962000000000e+01 0.0 
0.0 -1.962000000000e+01 0.0 
0.0 -1.962000000000e+01 0.0 
0.0 -1.962000000000e+01 0.0 
0.0 -1.962000000000e+01 0.0 
0.0 -1.962000000000e+01 0.0 
0.0 -1.962000000000e+01 0.0 
0.0 -1.962000000000e+01 0.0 
0.0 -1.962000000000e+01 0.0 
0.0 -1.962000000000e+01 0.0 
0.0 -1.962000000000e+01 0.0 
0.0 -1.962000000000e+01 0.0 
0.0 -1.962000000000e+01 0.0 
0.0 -1.962000000000e+01 0.0 
0.0 -1.962000000000e+01 0.0 
0.0 -1.962000000000e+01 0.0 
0.0 -1.962000000000e+01 0.0 
0.0 -1.962000000000e+01 0.0 
0.0 -1.962000000000e+01 0.0 
0.0 -1.962000000000e+01 0.0 
0.0 -1.962000000000e+01 0.0 
0.0 -1.962000000000e+01 0.0 
0.0 -1.962000000000e+01 0.0 
0.0 -1.962000000000e+01 0.0 
0.0 -1.962000000000e+01 0.0 
0.0 -1.962000000000e+01 0.0 
0.0 -1.962000000000e+01 0.0 
0.0 -1.962000000000e+01 0.0 
0.0 -1.962000000000e+01 0.0 
0.0 -1.962000000000e+01 0.0 
0.0 -1.962000000000e+01 0.0 
0.0 -1.962000000000e+01 0.0 
0.0 -1.962000000000e+01 0.0 
0.0 -1.962000000000e+01 0.0 
0.0 -1.962000000000e+01 0.0 
0.0 -1.962000000000e+01 0.0 
0.0 -1.962000000000e+01 0.0 
0.0 -1.962000000000e+01 0.0 
0.0 -1.962000000000e+01 0.0 
0.0 -1.962000000000e+01 0.0 
0.0 -1.962000000000e+01 0.0 
0.0 -1.962000000000e+01 0.0 
0.0 -1.962000000000e+01 0.0 
0.0 -1.962000000000e+01 0.0 
0.0 -1.962000000000e+01 0.0 
0.0 -1.962000000000e+01 0.0 
0.0 -1.962000000000e+01 0.0 
0.0 -1.962000000000e+01 0.0 
0.0 -1.962000000000e+01 0.0 
0.0 -1.962000000000e+01 0.0 
0.0 -1.962000000000e+01 0.0 
0.0 -1.962000000000e+01 0.0 
0.0 -1.962000000000e+01 0.0 
0.0 -1.962000000000e+01 0.0 
0.0 -1.962000000000e+01 0.0 
0.0 -1.962000000000e+01 0.0 
0.0 -1.962000000000e+01 0.0 
0.0 -1.962000000000e+01 0.0 
0.0 -1.962000000000e+01 0.0 
0.0 -1.962000000000e+01 0.0 
0.0 -1.962000000000e+01 0.0 
0.0 -1.962000000000e+01 0.0 
0.0 -1.962000000000e+01 0.0 
0.0 -1.962000000000e+01 0.0 
0.0 -1.962000000000e+01 0.0 
0.0 -1.962000000000e+01 0.0 
0.0 -1.962000000000e+01 0.0 
0.0 -1.962000000000e+01 0.0 
0.0 -1.962000000000e+01 0.0 
0.0 -1.962000000000e+01 0.0 
0.0 -1.962000000000e+01 0.0 
0.0 -1.962000000000e+01 0.0 
0.0 -1.962000000000e+01 0.0 
0.0 -1.962000000000e+01 0.0 
0.0 -1.962000000000e+01 0.0 
0.0 -1.962000000000e+01 0.0 
0.0 -1.962000000000e+01 0.0 
0.0 -1.962000000000e+01 0.0 
0.0 -1.962000000000e+01 0.0 
0.0 -1.962000000000e+01 0.0 
0.0 -1.962000000000e+01 0.0 
0.0 -1.962000000000e+01 0.0 
0.0 -1.962000000000e+01 0.0 
0.0 -1.962000000000e+01 0.0 
0.0 -1.962000000000e+01 0.0 
0.0 -1.962000000000e+01 0.0 
0.0 -1.962000000000e+01 0.0 
0.0 -1.962000000000e+01 0.0 
0.0 -1.962000000000e+01 0.0 
0.0 -1.962000000000e+01 0.0 
0.0 -1.962000000000e+01 0.0 
0.0 -1.962000000000e+01 0.0 
0.0 -1.962000000000e+01 0.0 
0.0 -1.962000000000e+01 0.0 
0.0 -1.962000000000e+01 0.0 
0.0 -1.962000000000e+01 0.0 
0.0 -1.962000000000e+01 0.0 
0.0 -1.962000000000e+01 0.0 
0.0 -1.962000000000e+01 0.0 
0.0 -1.962000000000e+01 0.0 
0.0 -1.962000000000e+01 0.0 
0.0 -1.962000000000e+01 0.0 
0.0 -1.962000000000e+01 0.0 
0.0 -1.962000000000e+01 0.0 
0.0 -1.962000000000e+01 0.0 
0.0 -1.962000000000e+01 0.0 
0.0 -1.962000000000e+01 0.0 
0.0 -1.962000000000e+01 0.0 
0.0 -1.962000000000e+01 0.0 
0.0 -1.962000000000e+01 0.0 
0.0 -1.962000000000e+01 0.0 
0.0 -1.962000000000e+01 0.0 
0.0 -1.962000000000e+01 0.0 
0.0 -1.962000000000e+01 0.0 
0.0 -1.962000000000e+01 0.0 
0.0 -1.962000000000e+01 0.0 
0.0 -1.962000000000e+01 0.0 
0.0 -1.962000000000e+01 0.0 
0.0 -1.962000000000e+01 0.0 
0.0 -1.962000000000e+01 0.0 
0.0 -1.962000000000e+01 0.0 
0.0 -1.962000000000e+01 0.0 
0.0 -1.962000000000e+01 0.0 
0.0 -1.962000000000e+01 0.0 
0.0 -1.962000000000e+01 0.0 
0.0 -1.962000000000e+01 0.0 
0.0 -1.962000000000e+01 0.0 
0.0 -1.962000000000e+01 0.0 
0.0 -1.962000000000e+01 0.0 
0.0 -1.962000000000e+01 0.0 
0.0 -1.962000000000e+01 0.0 
0.0 -1.962000000000e+01 0.0 
0.0 -1.962000000000e+01 0.0 
0.0 -1.962000000000e+01 0.0 
0.0 -1.962000000000e+01 0.0 
0.0 -1.962000000000e+01 0.0 
0.0 -1.962000000000e+01 0.0 
0.0 -1.962000000000e+01 0.0 
0.0 -1.962000000000e+01 0.0 
0.0 -1.962000000000e+01 0.0 
0.0 -1.962000000000e+01 0.0 
0.0 -1.962000000000e+01 0.0 
0.0 -1.962000000000e+01 0.0 
0.0 -1.962000000000e+01 0.0 
0.0 -1.962000000000e+01 0.0 
0.0 -1.962000000000e+01 0.0 
0.0 -1.962000000000e+01 0.0 
0.0 -1.962000000000e+01 0.0 
0.0 -1.962000000000e+01 0.0 
0.0 -1.962000000000e+01 0.0 
0.0 -1.962000000000e+01 0.0 
0.0 -1.962000000000e+01 0.0 
0.0 -1.962000000000e+01 0.0 
0.0 -1.962000000000e+01 0.0 
0.0 -1.962000000000e+01 0.0 
0.0 -1.962000000000e+01 0.0 
0.0 -1.962000000000e+01 0.0 
0.0 -1.962000000000e+01 0.0 
0.0 -1.962000000000e+01 0.0 
0.0 -1.962000000000e+01 0.0 
0.0 -1.962000000000e+01 0.0 
0.0 -1.962000000000e+01 0.0 
0.0 -1.962000000000e+01 0.0 
0.0 -1.962000000000e+01 0.0 
0.0 -1.962000000000e+01 0.0 
0.0 -1.962000000000e+01 0.0 
0.0 -1.962000000000e+01 0.0 
0.0 -1.962000000000e+01 0.0 
0.0 -1.962000000000e+01 0.0 
0.0 -1.962000000000e+01 0.0 
0.0 -1.962000000000e+01 0.0 
0.0 -1.962000000000e+01 0.0 
0.0 -1.962000000000e+01 0.0 
0.0 -1.962000000000e+01 0.0 
0.0 -1.962000000000e+01 0.0 
0.0 -1.962000000000e+01 0.0 
0.0 -1.962000000000e+01 0.0 
0.0 -1.962000000000e+01 0.0 
0.0 -1.962000000000e+01 0.0 
0.0 -1.962000000000e+01 0.0 
0.0 -1.962000000000e+01 0.0 
0.0 -1.962000000000e+01 0.0 
0.0 -1.962000000000e+01 0.0 
0.0 -1.962000000000e+01 0.0 
0.0 -1.962000000000e+01 0.0 
0.0 -1.962000000000e+01 0.0 
0.0 -1.962000000000e+01 0.0 
0.0 -1.962000000000e+01 0.0 
0.0 -1.962000000000e+01 0.0 
0.0 -1.962000000000e+01 0.0 
0.0 -1.962000000000e+01 0.0 
0.0 -1.962000000000e+01 0.0 
0.0 -1.962000000000e+01 0.0 
0.0 -1.962000000000e+01 0.0 
0.0 -1.962000000000e+01 0.0 
0.0 -1.962000000000e+01 0.0 
0.0 -1.962000000000e+01 0.0 
0.0 -1.962000000000e+01 0.0 
0.0 -1.962000000000e+01 0.0 
0.0 -1.962000000000e+01 0.0 
0.0 -1.962000000000e+01 0.0 
0.0 -1.962000000000e+01 0.0 
0.0 -1.962000000000e+01 0.0 
0.0 -1.962000000000e+01 0.0 
0.0 -1.962000000000e+01 0.0 
0.0 -1.962000000000e+01 0.0 
0.0 -1.962000000000e+01 0.0 
0.0 -1.962000000000e+01 0.0 
0.0 -1.962000000000e+01 0.0 
0.0 -1.962000000000e+01 0.0 
0.0 -1.962000000000e+01 0.0 
0.0 -1.962000000000e+01 0.0 
0.0 -1.962000000000e+01 0.0 
0.0 -1.962000000000e+01 0.0 
0.0 -1.962000000000e+01 0.0 
0.0 -1.962000000000e+01 0.0 
0.0 -1.962000000000e+01 0.0 
0.0 -1.962000000000e+01 0.0 
0.0 -1.962000000000e+01 0.0 
0.0 -1.962000000000e+01 0.0 
0.0 -1.962000000000e+01 0.0 
0.0 -1.962000000000e+01 0.0 
0.0 -1.962000000000e+01 0.0 
0.0 -1.962000000000e+01 0.0 
0.0 -1.962000000000e+01 0.0 
0.0 -1.962000000000e+01 0.0 
0.0 -1.962000000000e+01 0.0 
0.0 -1.962000000000e+01 0.0 
0.0 -1.962000000000e+01 0.0 
0.0 -1.962000000000e+01 0.0 
0.0 -1.962000000000e+01 0.0 
0.0 -1.962000000000e+01 0.0 
0.0 -1.962000000000e+01 0.0 
0.0 -1.962000000000e+01 0.0 
0.0 -1.962000000000e+01 0.0 
0.0 -1.962000000000e+01 0.0 
0.0 -1.962000000000e+01 0.0 
0.0 -1.962000000000e+01 0.0 
0.0 -1.962000000000e+01 0.0 
0.0 -1.962000000000e+01 0.0 
0.0 -1.962000000000e+01 0.0 
0.0 -1.962000000000e+01 0.0 
0.0 -1.962000000000e+01 0.0 
0.0 -1.962000000000e+01 0.0 
0.0 -1.962000000000e+01 0.0 
0.0 -1.962000000000e+01 0.0 
0.0 -1.962000000000e+01 0.0 
0.0 -1.962000000000e+01 0.0 
0.0 -1.962000000000e+01 0.0 
0.0 -1.962000000000e+01 0.0 
0.0 -1.962000000000e+01 0.0 
0.0 -1.962000000000e+01 0.0 
0.0 -1.962000000000e+01 0.0 
0.0 -1.962000000000e+01 0.0 
0.0 -1.962000000000e+01 0.0 
0.0 -1.962000000000e+01 0.0 
0.0 -1.962000000000e+01 0.0 
0.0 -1.962000000000e+01 0.0 
0.0 -1.962000000000e+01 0.0 
0.0 -1.962000000000e+01 0.0 
0.0 -1.962000000000e+01 0.0 
0.0 -1.962000000000e+01 0.0 
0.0 -1.962000000000e+01 0.0 
0.0 -1.962000000000e+01 0.0 
0.0 -1.962000000000e+01 0.0 
0.0 -1.962000000000e+01 0.0 
0.0 -1.962000000000e+01 0.0 
0.0 -1.962000000000e+01 0.0 
0.0 -1.962000000000e+01 0.0 
0.0 -1.962000000000e+01 0.0 
0.0 -1.962000000000e+01 0.0 
0.0 -1.962000000000e+01 0.0 
0.0 -1.962000000000e+01 0.0 
0.0 -1.962000000000e+01 0.0 
0.0 -1.962000000000e+01 0.0 
0.0 -1.962000000000e+01 0.0 
0.0 -1.962000000000e+01 0.0 
0.0 -1.962000000000e+01 0.0 
0.0 -1.962000000000e+01 0.0 
0.0 -1.962000000000e+01 0.0 
0.0 -1.962000000000e+01 0.0 
0.0 -1.962000000000e+01 0.0 
0.0 -1.962000000000e+01 0.0 
0.0 -1.962000000000e+01 0.0 
0.0 -1.962000000000e+01 0.0 
0.0 -1.962000000000e+01 0.0 
0.0 -1.962000000000e+01 0.0 
0.0 -1.962000000000e+01 0.0 
0.0 -1.962000000000e+01 0.0 
0.0 -1.962000000000e+01 0.0 
0.0 -1.962000000000e+01 0.0 
0.0 -1.962000000000e+01 0.0 
0.0 -1.962000000000e+01 0.0 
0.0 -1.962000000000e+01 0.0 
0.0 -1.962000000000e+01 0.0 
0.0 -1.962000000000e+01 0.0 
0.0 -1.962000000000e+01 0.0 
0.0 -1.962000000000e+01 0.0 
0.0 -1.962000000000e+01 0.0 
0.0 -1.962000000000e+01 0.0 
0.0 -1.962000000000e+01 0.0 
0.0 -1.962000000000e+01 0.0 
0.0 -1.962000000000e+01 0.0 
0.0 -1.962000000000e+01 0.0 
0.0 -1.962000000000e+01 0.0 
0.0 -1.962000000000e+01 0.0 
0.0 -1.962000000000e+01 0.0 
0.0 -1.962000000000e+01 0.0 
0.0 -1.962000000000e+01 0.0 
0.0 -1.962000000000e+01 0.0 
0.0 -1.962000000000e+01 0.0 
0.0 -1.962000000000e+01 0.0 
0.0 -1.962000000000e+01 0.0 
0.0 -1.962000000000e+01 0.0 
0.0 -1.962000000000e+01 0.0 
0.0 -1.962000000000e+01 0.0 
0.0 -1.962000000000e+01 0.0 
0.0 -1.962000000000e+01 0.0 
0.0 -1.962000000000e+01 0.0 
0.0 -1.962000000000e+01 0.0 
0.0 -1.962000000000e+01 0.0 
0.0 -1.962000000000e+01 0.0 
0.0 -1.962000000000e+01 0.0 
0.0 -1.962000000000e+01 0.0 
0.0 -1.962000000000e+01 0.0 
0.0 -1.962000000000e+01 0.0 
0.0 -1.962000000000e+01 0.0 
0.0 -1.962000000000e+01 0.0 
0.0 -1.962000000000e+01 0.0 
0.0 -1.962000000000e+01 0.0 
0.0 -1.962000000000e+01 0.0 
0.0 -1.962000000000e+01 0.0 
0.0 -1.962000000000e+01 0.0 
0.0 -1.962000000000e+01 0.0 
0.0 -1.962000000000e+01 0.0 
0.0 -1.962000000000e+01 0.0 
0.0 -1.962000000000e+01 0.0 
0.0 -1.962000000000e+01 0.0 
0.0 -1.962000000000e+01 0.0 
0.0 -1.962000000000e+01 0.0 
0.0 -1.962000000000e+01 0.0 
0.0 -1.962000000000e+01 0.0 
0.0 -1.962000000000e+01 0.0 
0.0 -1.962000000000e+01 0.0 
0.0 -1.962000000000e+01 0.0 
0.0 -1.962000000000e+01 0.0 
0.0 -1.962000000000e+01 0.0 
0.0 -1.962000000000e+01 0.0 
0.0 -1.962000000000e+01 0.0 
0.0 -1.962000000000e+01 0.0 
0.0 -1.962000000000e+01 0.0 
0.0 -1.962000000000e+01 0.0 
0.0 -1.962000000000e+01 0.0 
0.0 -1.962000000000e+01 0.0 
0.0 -1.962000000000e+01 0.0 
0.0 -1.962000000000e+01 0.0 
0.0 -1.962000000000e+01 0.0 
0.0 -1.962000000000e+01 0.0 
0.0 -1.962000000000e+01 0.0 
0.0 -1.962000000000e+01 0.0 
0.0 -1.962000000000e+01 0.0 
0.0 -1.962000000000e+01 0.0 
0.0 -1.962000000000e+01 0.0 
0.0 -1.962000000000e+01 0.0 
0.0 -1.962000000000e+01 0.0 
0.0 -1.962000000000e+01 0.0 
0.0 -1.962000000000e+01 0.0 
0.0 -1.962000000000e+01 0.0 
0.0 -1.962000000000e+01 0.0 
0.0 -1.962000000000e+01 0.0 
0.0 -1.962000000000e+01 0.0 
0.0 -1.962000000000e+01 0.0 
0.0 -1.962000000000e+01 0.0 
0.0 -1.962000000000e+01 0.0 
0.0 -1.962000000000e+01 0.0 
0.0 -1.962000000000e+01 0.0 
0.0 -1.962000000000e+01 0.0 
0.0 -1.962000000000e+01 0.0 
0.0 -1.962000000000e+01 0.0 
0.0 -1.962000000000e+01 0.0 
0.0 -1.962000000000e+01 0.0 
0.0 -1.962000000000e+01 0.0 
0.0 -1.962000000000e+01 0.0 
0.0 -1.962000000000e+01 0.0 
0.0 -1.962000000000e+01 0.0 
0.0 -1.962000000000e+01 0.0 
0.0 -1.962000000000e+01 0.0 
0.0 -1.962000000000e+01 0.0 
0.0 -1.962000000000e+01 0.0 
0.0 -1.962000000000e+01 0.0 
0.0 -1.962000000000e+01 0.0 
0.0 -1.962000000000e+01 0.0 
0.0 -1.962000000000e+01 0.0 
0.0 -1.962000000000e+01 0.0 
0.0 -1.962000000000e+01 0.0 
0.0 -1.962000000000e+01 0.0 
0.0 -1.962000000000e+01 0.0 
0.0 -1.962000000000e+01 0.0 
0.0 -1.962000000000e+01 0.0 
0.0 -1.962000000000e+01 0.0 
0.0 -1.962000000000e+01 0.0 
0.0 -1.962000000000e+01 0.0 
0.0 -1.962000000000e+01 0.0 
0.0 -1.962000000000e+01 0.0 
0.0 -1.962000000000e+01 0.0 
0.0 -1.962000000000e+01 0.0 
0.0 -1.962000000000e+01 0.0 
0.0 -1.962000000000e+01 0.0 
0.0 -1.962000000000e+01 0.0 
0.0 -1.962000000000e+01 0.0 
0.0 -1.962000000000e+01 0.0 
0.0 -1.962000000000e+01 0.0 
0.0 -1.962000000000e+01 0.0 
0.0 -1.962000000000e+01 0.0 
0.0 -1.962000000000e+01 0.0 
0.0 -1.962000000000e+01 0.0 
0.0 -1.962000000000e+01 0.0 
0.0 -1.962000000000e+01 0.0 
0.0 -1.962000000000e+01 0.0 
0.0 -1.962000000000e+01 0.0 
0.0 -1.962000000000e+01 0.0 
0.0 -1.962000000000e+01 0.0 
0.0 -1.962000000000e+01 0.0 
0.0 -1.962000000000e+01 0.0 
0.0 -1.962000000000e+01 0.0 
0.0 -1.962000000000e+01 0.0 
0.0 -1.962000000000e+01 0.0 
0.0 -1.962000000000e+01 0.0 
0.0 -1.962000000000e+01 0.0 
0.0 -1.962000000000e+01 0.0 
0.0 -1.962000000000e+01 0.0 
0.0 -1.962000000000e+01 0.0 
0.0 -1.962000000000e+01 0.0 
0.0 -1.962000000000e+01 0.0 
0.0 -1.962000000000e+01 0.0 
0.0 -1.962000000000e+01 0.0 
0.0 -1.962000000000e+01 0.0 
0.0 -1.962000000000e+01 0.0 
0.0 -1.962000000000e+01 0.0 
0.0 -1.962000000000e+01 0.0 
0.0 -1.962000000000e+01 0.0 
0.0 -1.962000000000e+01 0.0 
0.0 -1.962000000000e+01 0.0 
0.0 -1.962000000000e+01 0.0 
0.0 -1.962000000000e+01 0.0 
0.0 -1.962000000000e+01 0.0 
0.0 -1.962000000000e+01 0.0 
0.0 -1.962000000000e+01 0.0 
0.0 -1.962000000000e+01 0.0 
0.0 -1.962000000000e+01 0.0 
0.0 -1.962000000000e+01 0.0 
0.0 -1.962000000000e+01 0.0 
0.0 -1.962000000000e+01 0.0 
0.0 -1.962000000000e+01 0.0 
0.0 -1.962000000000e+01 0.0 
0.0 -1.962000000000e+01 0.0 
0.0 -1.962000000000e+01 0.0 
0.0 -1.962000000000e+01 0.0 
0.0 -1.962000000000e+01 0.0 
0.0 -1.962000000000e+01 0.0 
0.0 -1.962000000000e+01 0.0 
0.0 -1.962000000000e+01 0.0 
0.0 -1.962000000000e+01 0.0 
0.0 -1.962000000000e+01 0.0 
0.0 -1.962000000000e+01 0.0 
0.0 -1.962000000000e+01 0.0 
0.0 -1.962000000000e+01 0.0 
0.0 -1.962000000000e+01 0.0 
0.0 -1.962000000000e+01 0.0 
0.0 -1.962000000000e+01 0.0 
0.0 -1.962000000000e+01 0.0 
0.0 -1.962000000000e+01 0.0 
0.0 -1.962000000000e+01 0.0 
0.0 -1.962000000000e+01 0.0 
0.0 -1.962000000000e+01 0.0 
0.0 -1.962000000000e+01 0.0 
0.0 -1.962000000000e+01 0.0 
0.0 -1.962000000000e+01 0.0 
0.0 -1.962000000000e+01 0.0 
0.0 -1.962000000000e+01 0.0 
0.0 -1.962000000000e+01 0.0 
0.0 -1.962000000000e+01 0.0 
0.0 -1.962000000000e+01 0.0 
0.0 -1.962000000000e+01 0.0 
0.0 -1.962000000000e+01 0.0 
0.0 -1.962000000000e+01 0.0 
0.0 -1.962000000000e+01 0.0 
0.0 -1.962000000000e+01 0.0 
0.0 -1.962000000000e+01 0.0 
0.0 -1.962000000000e+01 0.0 
0.0 -1.962000000000e+01 0.0 
0.0 -1.962000000000e+01 0.0 
0.0 -1.962000000000e+01 0.0 
0.0 -1.962000000000e+01 0.0 
0.0 -1.962000000000e+01 0.0 
0.0 -1.962000000000e+01 0.0 
0.0 -1.962000000000e+01 0.0 
0.0 -1.962000000000e+01 0.0 
0.0 -1.962000000000e+01 0.0 
0.0 -1.962000000000e+01 0.0 
0.0 -1.962000000000e+01 0.0 
0.0 -1.962000000000e+01 0.0 
0.0 -1.962000000000e+01 0.0 
0.0 -1.962000000000e+01 0.0 
0.0 -1.962000000000e+01 0.0 
0.0 -1.962000000000e+01 0.0 
0.0 -1.962000000000e+01 0.0 
0.0 -1.962000000000e+01 0.0 
0.0 -1.962000000000e+01 0.0 
0.0 -1.962000000000e+01 0.0 
0.0 -1.962000000000e+01 0.0 
0.0 -1.962000000000e+01 0.0 
0.0 -1.962000000000e+01 0.0 
0.0 -1.962000000000e+01 0.0 
0.0 -1.962000000000e+01 0.0 
0.0 -1.962000000000e+01 0.0 
0.0 -1.962000000000e+01 0.0 
0.0 -1.962000000000e+01 0.0 
0.0 -1.962000000000e+01 0.0 
0.0 -1.962000000000e+01 0.0 
0.0 -1.962000000000e+01 0.0 
0.0 -1.962000000000e+01 0.0 
0.0 -1.962000000000e+01 0.0 
0.0 -1.962000000000e+01 0.0 
0.0 -1.962000000000e+01 0.0 
0.0 -1.962000000000e+01 0.0 
0.0 -1.962000000000e+01 0.0 
0.0 -1.962000000000e+01 0.0 
0.0 -1.962000000000e+01 0.0 
0.0 -1.962000000000e+01 0.0 
0.0 -1.962000000000e+01 0.0 
0.0 -1.962000000000e+01 0.0 
0.0 -1.962000000000e+01 0.0 
0.0 -1.962000000000e+01 0.0 
0.0 -1.962000000000e+01 0.0 
0.0 -1.962000000000e+01 0.0 
0.0 -1.962000000000e+01 0.0 
0.0 -1.962000000000e+01 0.0 
0.0 -1.962000000000e+01 0.0 
0.0 -1.962000000000e+01 0.0 
0.0 -1.962000000000e+01 0.0 
0.0 -1.962000000000e+01 0.0 
0.0 -1.962000000000e+01 0.0 
0.0 -1.962000000000e+01 0.0 
0.0 -1.962000000000e+01 0.0 
0.0 -1.962000000000e+01 0.0 
0.0 -1.962000000000e+01 0.0 
0.0 -1.962000000000e+01 0.0 
0.0 -1.962000000000e+01 0.0 
0.0 -1.962000000000e+01 0.0 
0.0 -1.962000000000e+01 0.0 
0.0 -1.962000000000e+01 0.0 
0.0 -1.962000000000e+01 0.0 
0.0 -1.962000000000e+01 0.0 
0.0 -1.962000000000e+01 0.0 
0.0 -1.962000000000e+01 0.0 
0.0 -1.962000000000e+01 0.0 

VECTORS node_rhside_materi_fixed float
1.333533541437e-01 0.0 0.0 
1.472757453816e+01 0.0 0.0 
-8.453711121390e+01 -2.015417330498e+02 0.0 
4.276482229861e+01 -1.030063415626e+02 0.0 
5.755900997489e-01 0.0 0.0 
-4.361007535561e+00 0.0 0.0 
-1.134951337486e+01 0.0 0.0 
-2.112800243600e+01 0.0 0.0 
-3.711825726140e+01 0.0 0.0 
-5.319986200834e+01 0.0 0.0 
-6.728806623125e+01 0.0 0.0 
-7.964561972949e+01 0.0 0.0 
-9.017732651324e+01 0.0 0.0 
-9.936161269960e+01 0.0 0.0 
-1.074912354248e+02 0.0 0.0 
-1.144756395612e+02 0.0 0.0 
-1.204630557236e+02 0.0 0.0 
-1.261949771972e+02 0.0 0.0 
-1.312734828527e+02 0.0 0.0 
-1.378157193561e+02 0.0 0.0 
-1.463939543508e+02 0.0 0.0 
-1.549866546587e+02 0.0 0.0 
-1.640097346874e+02 0.0 0.0 
1.749621409018e+00 -2.046134628317e+02 0.0 
3.102740977152e+00 -2.063860267218e+02 0.0 
7.602668589132e+00 -2.056973077591e+02 0.0 
6.653310092063e+00 -2.063050726455e+02 0.0 
1.115878897258e+01 -2.082442186621e+02 0.0 
1.314502560305e+01 -2.084132406452e+02 0.0 
1.549685728769e+01 -2.108864070452e+02 0.0 
1.844197035257e+01 -2.134544843579e+02 0.0 
2.344362494014e+01 -2.152330184335e+02 0.0 
2.344969339195e+01 -2.186198275390e+02 0.0 
2.957737691531e+01 -2.242958289314e+02 0.0 
3.274063605654e+01 -2.280588652903e+02 0.0 
3.603913047939e+01 -2.352566340292e+02 0.0 
3.949437866311e+01 -2.415514918590e+02 0.0 
4.336952692647e+01 -2.490812964604e+02 0.0 
4.600891117642e+01 -2.581257998058e+02 0.0 
4.986419682802e+01 -2.675014937524e+02 0.0 
5.137729456660e+01 -2.768323623025e+02 0.0 
5.176674279577e+01 -2.855357278423e+02 0.0 
4.894395941886e+01 -2.910406616039e+02 0.0 
4.714807963728e+01 -2.977143012579e+02 0.0 
4.505071031821e+01 -3.037379845376e+02 0.0 
4.398261302624e+01 -3.098634232503e+02 0.0 
4.189809005460e+01 -3.161797926101e+02 0.0 
4.035143400920e+01 -3.225089397620e+02 0.0 
3.901025384695e+01 -3.282880943216e+02 0.0 
3.702584293609e+01 -3.345743219825e+02 0.0 
3.523119113355e+01 -3.405788948685e+02 0.0 
3.361114503360e+01 -3.467273165180e+02 0.0 
3.154381189490e+01 -3.527844809458e+02 0.0 
2.979676458127e+01 -3.588367924881e+02 0.0 
2.752761601144e+01 -3.655545787073e+02 0.0 
2.521985620013e+01 -3.715140043036e+02 0.0 
2.296285298671e+01 -3.779969590164e+02 0.0 
2.051398009826e+01 -3.845162088051e+02 0.0 
1.767377693693e+01 -3.910441284085e+02 0.0 
1.474539039128e+01 -3.964322520626e+02 0.0 
1.145717630385e+01 -4.008384516116e+02 0.0 
8.512996930115e+00 -4.034922488313e+02 0.0 
6.068394805732e+00 -4.052696307769e+02 0.0 
3.937883572293e+00 -4.056239912227e+02 0.0 
2.745428397429e+00 -4.053873945468e+02 0.0 
1.777252906548e+00 -4.049251114036e+02 0.0 
9.178034881365e-01 -4.051401446208e+02 0.0 
3.752627394604e-01 -4.038021002962e+02 0.0 
-1.745824081817e-02 -4.040546989702e+02 0.0 
5.075559560404e-01 -4.029709579138e+02 0.0 
-2.070081227919e-01 -4.029143724340e+02 0.0 
3.460463189895e-02 -4.025418953185e+02 0.0 
3.367202081546e+01 0.0 0.0 
4.181372516523e+01 0.0 0.0 
4.926493293552e+01 0.0 0.0 
5.613039630176e+01 0.0 0.0 
6.265542649136e+01 0.0 0.0 
6.908138970350e+01 0.0 0.0 
7.443837838479e+01 0.0 0.0 
7.877742834330e+01 0.0 0.0 
8.439951434254e+01 0.0 0.0 
0.0 0.0 0.0 
0.0 0.0 0.0 
0.0 0.0 0.0 
0.0 0.0 0.0 
0.0 0.0 0.0 
0.0 0.0 0.0 
0.0 0.0 0.0 
0.0 0.0 0.0 
0.0 0.0 0.0 
0.0 0.0 0.0 
0.0 0.0 0.0 
0.0 0.0 0.0 
0.0 0.0 0.0 
0.0 0.0 0.0 
0.0 0.0 0.0 
0.0 0.0 0.0 
0.0 0.0 0.0 
0.0 0.0 0.0 
0.0 0.0 0.0 
0.0 0.0 0.0 
0.0 0.0 0.0 
0.0 0.0 0.0 
0.0 0.0 0.0 
0.0 0.0 0.0 
0.0 0.0 0.0 
0.0 0.0 0.0 
0.0 0.0 0.0 
0.0 0.0 0.0 
0.0 0.0 0.0 
0.0 0.0 0.0 
0.0 0.0 0.0 
0.0 0.0 0.0 
0.0 0.0 0.0 
0.0 0.0 0.0 
0.0 0.0 0.0 
0.0 0.0 0.0 
0.0 0.0 0.0 
0.0 0.0 0.0 
0.0 0.0 0.0 
0.0 0.0 0.0 
0.0 0.0 0.0 
0.0 0.0 0.0 
0.0 0.0 0.0 
0.0 0.0 0.0 
0.0 0.0 0.0 
0.0 0.0 0.0 
0.0 0.0 0.0 
0.0 0.0 0.0 
0.0 0.0 0.0 
0.0 0.0 0.0 
0.0 0.0 0.0 
0.0 0.0 0.0 
0.0 0.0 0.0 
0.0 0.0 0.0 
0.0 0.0 0.0 
0.0 0.0 0.0 
0.0 0.0 0.0 
0.0 0.0 0.0 
0.0 0.0 0.0 
0.0 0.0 0.0 
0.0 0.0 0.0 
0.0 0.0 0.0 
0.0 0.0 0.0 
0.0 0.0 0.0 
0.0 0.0 0.0 
0.0 0.0 0.0 
0.0 0.0 0.0 
0.0 0.0 0.0 
0.0 0.0 0.0 
0.0 0.0 0.0 
0.0 0.0 0.0 
0.0 0.0 0.0 
0.0 0.0 0.0 
0.0 0.0 0.0 
0.0 0.0 0.0 
0.0 0.0 0.0 
0.0 0.0 0.0 
0.0 0.0 0.0 
0.0 0.0 0.0 
0.0 0.0 0.0 
0.0 0.0 0.0 
0.0 0.0 0.0 
0.0 0.0 0.0 
0.0 0.0 0.0 
0.0 0.0 0.0 
0.0 0.0 0.0 
0.0 0.0 0.0 
0.0 0.0 0.0 
0.0 0.0 0.0 
0.0 0.0 0.0 
0.0 0.0 0.0 
0.0 0.0 0.0 
0.0 0.0 0.0 
0.0 0.0 0.0 
0.0 0.0 0.0 
0.0 0.0 0.0 
0.0 0.0 0.0 
0.0 0.0 0.0 
0.0 0.0 0.0 
0.0 0.0 0.0 
0.0 0.0 0.0 
0.0 0.0 0.0 
0.0 0.0 0.0 
0.0 0.0 0.0 
0.0 0.0 0.0 
0.0 0.0 0.0 
0.0 0.0 0.0 
0.0 0.0 0.0 
0.0 0.0 0.0 
0.0 0.0 0.0 
0.0 0.0 0.0 
0.0 0.0 0.0 
0.0 0.0 0.0 
0.0 0.0 0.0 
0.0 0.0 0.0 
0.0 0.0 0.0 
0.0 0.0 0.0 
0.0 0.0 0.0 
0.0 0.0 0.0 
0.0 0.0 0.0 
0.0 0.0 0.0 
0.0 0.0 0.0 
0.0 0.0 0.0 
0.0 0.0 0.0 
0.0 0.0 0.0 
0.0 0.0 0.0 
0.0 0.0 0.0 
0.0 0.0 0.0 
0.0 0.0 0.0 
0.0 0.0 0.0 
0.0 0.0 0.0 
0.0 0.0 0.0 
0.0 0.0 0.0 
0.0 0.0 0.0 
0.0 0.0 0.0 
0.0 0.0 0.0 
0.0 0.0 0.0 
0.0 0.0 0.0 
0.0 0.0 0.0 
0.0 0.0 0.0 
0.0 0.0 0.0 
0.0 0.0 0.0 
0.0 0.0 0.0 
0.0 0.0 0.0 
0.0 0.0 0.0 
0.0 0.0 0.0 
0.0 0.0 0.0 
0.0 0.0 0.0 
0.0 0.0 0.0 
0.0 0.0 0.0 
0.0 0.0 0.0 
0.0 0.0 0.0 
0.0 0.0 0.0 
0.0 0.0 0.0 
0.0 0.0 0.0 
0.0 0.0 0.0 
0.0 0.0 0.0 
0.0 0.0 0.0 
0.0 0.0 0.0 
0.0 0.0 0.0 
0.0 0.0 0.0 
0.0 0.0 0.0 
0.0 0.0 0.0 
0.0 0.0 0.0 
0.0 0.0 0.0 
0.0 0.0 0.0 
0.0 0.0 0.0 
0.0 0.0 0.0 
0.0 0.0 0.0 
0.0 0.0 0.0 
0.0 0.0 0.0 
0.0 0.0 0.0 
0.0 0.0 0.0 
0.0 0.0 0.0 
0.0 0.0 0.0 
0.0 0.0 0.0 
0.0 0.0 0.0 
0.0 0.0 0.0 
0.0 0.0 0.0 
0.0 0.0 0.0 
0.0 0.0 0.0 
0.0 0.0 0.0 
0.0 0.0 0.0 
0.0 0.0 0.0 
0.0 0.0 0.0 
0.0 0.0 0.0 
0.0 0.0 0.0 
0.0 0.0 0.0 
0.0 0.0 0.0 
0.0 0.0 0.0 
0.0 0.0 0.0 
0.0 0.0 0.0 
0.0 0.0 0.0 
0.0 0.0 0.0 
0.0 0.0 0.0 
0.0 0.0 0.0 
0.0 0.0 0.0 
0.0 0.0 0.0 
0.0 0.0 0.0 
0.0 0.0 0.0 
0.0 0.0 0.0 
0.0 0.0 0.0 
0.0 0.0 0.0 
0.0 0.0 0.0 
0.0 0.0 0.0 
0.0 0.0 0.0 
0.0 0.0 0.0 
0.0 0.0 0.0 
0.0 0.0 0.0 
0.0 0.0 0.0 
0.0 0.0 0.0 
0.0 0.0 0.0 
0.0 0.0 0.0 
0.0 0.0 0.0 
0.0 0.0 0.0 
0.0 0.0 0.0 
0.0 0.0 0.0 
0.0 0.0 0.0 
0.0 0.0 0.0 
0.0 0.0 0.0 
0.0 0.0 0.0 
0.0 0.0 0.0 
0.0 0.0 0.0 
0.0 0.0 0.0 
0.0 0.0 0.0 
0.0 0.0 0.0 
0.0 0.0 0.0 
0.0 0.0 0.0 
0.0 0.0 0.0 
0.0 0.0 0.0 
0.0 0.0 0.0 
0.0 0.0 0.0 
0.0 0.0 0.0 
0.0 0.0 0.0 
0.0 0.0 0.0 
0.0 0.0 0.0 
0.0 0.0 0.0 
0.0 0.0 0.0 
0.0 0.0 0.0 
0.0 0.0 0.0 
0.0 0.0 0.0 
0.0 0.0 0.0 
0.0 0.0 0.0 
0.0 0.0 0.0 
0.0 0.0 0.0 
0.0 0.0 0.0 
0.0 0.0 0.0 
0.0 0.0 0.0 
0.0 0.0 0.0 
0.0 0.0 0.0 
0.0 0.0 0.0 
0.0 0.0 0.0 
0.0 0.0 0.0 
0.0 0.0 0.0 
0.0 0.0 0.0 
0.0 0.0 0.0 
0.0 0.0 0.0 
0.0 0.0 0.0 
0.0 0.0 0.0 
0.0 0.0 0.0 
0.0 0.0 0.0 
0.0 0.0 0.0 
0.0 0.0 0.0 
0.0 0.0 0.0 
0.0 0.0 0.0 
0.0 0.0 0.0 
0.0 0.0 0.0 
0.0 0.0 0.0 
0.0 0.0 0.0 
0.0 0.0 0.0 
0.0 0.0 0.0 
0.0 0.0 0.0 
0.0 0.0 0.0 
0.0 0.0 0.0 
0.0 0.0 0.0 
0.0 0.0 0.0 
0.0 0.0 0.0 
0.0 0.0 0.0 
0.0 0.0 0.0 
0.0 0.0 0.0 
0.0 0.0 0.0 
0.0 0.0 0.0 
0.0 0.0 0.0 
0.0 0.0 0.0 
0.0 0.0 0.0 
0.0 0.0 0.0 
0.0 0.0 0.0 
0.0 0.0 0.0 
0.0 0.0 0.0 
0.0 0.0 0.0 
0.0 0.0 0.0 
0.0 0.0 0.0 
0.0 0.0 0.0 
0.0 0.0 0.0 
0.0 0.0 0.0 
0.0 0.0 0.0 
0.0 0.0 0.0 
0.0 0.0 0.0 
0.0 0.0 0.0 
0.0 0.0 0.0 
0.0 0.0 0.0 
0.0 0.0 0.0 
0.0 0.0 0.0 
0.0 0.0 0.0 
0.0 0.0 0.0 
0.0 0.0 0.0 
0.0 0.0 0.0 
0.0 0.0 0.0 
0.0 0.0 0.0 
0.0 0.0 0.0 
0.0 0.0 0.0 
0.0 0.0 0.0 
0.0 0.0 0.0 
0.0 0.0 0.0 
0.0 0.0 0.0 
0.0 0.0 0.0 
0.0 0.0 0.0 
0.0 0.0 0.0 
0.0 0.0 0.0 
0.0 0.0 0.0 
0.0 0.0 0.0 
0.0 0.0 0.0 
0.0 0.0 0.0 
0.0 0.0 0.0 
0.0 0.0 0.0 
0.0 0.0 0.0 
0.0 0.0 0.0 
0.0 0.0 0.0 
0.0 0.0 0.0 
0.0 0.0 0.0 
0.0 0.0 0.0 
0.0 0.0 0.0 
0.0 0.0 0.0 
0.0 0.0 0.0 
0.0 0.0 0.0 
0.0 0.0 0.0 
0.0 0.0 0.0 
0.0 0.0 0.0 
0.0 0.0 0.0 
0.0 0.0 0.0 
0.0 0.0 0.0 
0.0 0.0 0.0 
0.0 0.0 0.0 
0.0 0.0 0.0 
0.0 0.0 0.0 
0.0 0.0 0.0 
0.0 0.0 0.0 
0.0 0.0 0.0 
0.0 0.0 0.0 
0.0 0.0 0.0 
0.0 0.0 0.0 
0.0 0.0 0.0 
0.0 0.0 0.0 
0.0 0.0 0.0 
0.0 0.0 0.0 
0.0 0.0 0.0 
0.0 0.0 0.0 
0.0 0.0 0.0 
0.0 0.0 0.0 
0.0 0.0 0.0 
0.0 0.0 0.0 
0.0 0.0 0.0 
0.0 0.0 0.0 
0.0 0.0 0.0 
0.0 0.0 0.0 
0.0 0.0 0.0 
0.0 0.0 0.0 
0.0 0.0 0.0 
0.0 0.0 0.0 
0.0 0.0 0.0 
0.0 0.0 0.0 
0.0 0.0 0.0 
0.0 0.0 0.0 
0.0 0.0 0.0 
0.0 0.0 0.0 
0.0 0.0 0.0 
0.0 0.0 0.0 
0.0 0.0 0.0 
0.0 0.0 0.0 
0.0 0.0 0.0 
0.0 0.0 0.0 
0.0 0.0 0.0 
0.0 0.0 0.0 
0.0 0.0 0.0 
0.0 0.0 0.0 
0.0 0.0 0.0 
0.0 0.0 0.0 
0.0 0.0 0.0 
0.0 0.0 0.0 
0.0 0.0 0.0 
0.0 0.0 0.0 
0.0 0.0 0.0 
0.0 0.0 0.0 
0.0 0.0 0.0 
0.0 0.0 0.0 
0.0 0.0 0.0 
0.0 0.0 0.0 
0.0 0.0 0.0 
0.0 0.0 0.0 
0.0 0.0 0.0 
0.0 0.0 0.0 
0.0 0.0 0.0 
0.0 0.0 0.0 
0.0 0.0 0.0 
0.0 0.0 0.0 
0.0 0.0 0.0 
0.0 0.0 0.0 
0.0 0.0 0.0 
0.0 0.0 0.0 
0.0 0.0 0.0 
0.0 0.0 0.0 
0.0 0.0 0.0 
0.0 0.0 0.0 
0.0 0.0 0.0 
0.0 0.0 0.0 
0.0 0.0 0.0 
0.0 0.0 0.0 
0.0 0.0 0.0 
0.0 0.0 0.0 
0.0 0.0 0.0 
0.0 0.0 0.0 
0.0 0.0 0.0 
0.0 0.0 0.0 
0.0 0.0 0.0 
0.0 0.0 0.0 
0.0 0.0 0.0 
0.0 0.0 0.0 
0.0 0.0 0.0 
0.0 0.0 0.0 
0.0 0.0 0.0 
0.0 0.0 0.0 
0.0 0.0 0.0 
0.0 0.0 0.0 
0.0 0.0 0.0 
0.0 0.0 0.0 
0.0 0.0 0.0 
0.0 0.0 0.0 
0.0 0.0 0.0 
0.0 0.0 0.0 
0.0 0.0 0.0 
0.0 0.0 0.0 
0.0 0.0 0.0 
0.0 0.0 0.0 
0.0 0.0 0.0 
0.0 0.0 0.0 
0.0 0.0 0.0 
0.0 0.0 0.0 
0.0 0.0 0.0 
0.0 0.0 0.0 
0.0 0.0 0.0 
0.0 0.0 0.0 
0.0 0.0 0.0 
0.0 0.0 0.0 
0.0 0.0 0.0 
0.0 0.0 0.0 
0.0 0.0 0.0 
0.0 0.0 0.0 
0.0 0.0 0.0 
0.0 0.0 0.0 
0.0 0.0 0.0 
0.0 0.0 0.0 
0.0 0.0 0.0 
0.0 0.0 0.0 
0.0 0.0 0.0 
0.0 0.0 0.0 
0.0 0.0 0.0 
0.0 0.0 0.0 
0.0 0.0 0.0 
0.0 0.0 0.0 
0.0 0.0 0.0 
0.0 0.0 0.0 
0.0 0.0 0.0 
0.0 0.0 0.0 
0.0 0.0 0.0 
0.0 0.0 0.0 
0.0 0.0 0.0 
0.0 0.0 0.0 
0.0 0.0 0.0 
0.0 0.0 0.0 
0.0 0.0 0.0 
0.0 0.0 0.0 
0.0 0.0 0.0 
0.0 0.0 0.0 
0.0 0.0 0.0 
0.0 0.0 0.0 
0.0 0.0 0.0 
0.0 0.0 0.0 
0.0 0.0 0.0 
0.0 0.0 0.0 
0.0 0.0 0.0 
0.0 0.0 0.0 
0.0 0.0 0.0 
0.0 0.0 0.0 
0.0 0.0 0.0 
0.0 0.0 0.0 
0.0 0.0 0.0 
0.0 0.0 0.0 
0.0 0.0 0.0 
0.0 0.0 0.0 
0.0 0.0 0.0 
0.0 0.0 0.0 
0.0 0.0 0.0 
0.0 0.0 0.0 
0.0 0.0 0.0 
0.0 0.0 0.0 
0.0 0.0 0.0 
0.0 0.0 0.0 
0.0 0.0 0.0 
0.0 0.0 0.0 
0.0 0.0 0.0 
0.0 0.0 0.0 
0.0 0.0 0.0 
0.0 0.0 0.0 
0.0 0.0 0.0 
0.0 0.0 0.0 
0.0 0.0 0.0 
0.0 0.0 0.0 
0.0 0.0 0.0 
0.0 0.0 0.0 
0.0 0.0 0.0 
0.0 0.0 0.0 
0.0 0.0 0.0 
0.0 0.0 0.0 
0.0 0.0 0.0 
0.0 0.0 0.0 
0.0 0.0 0.0 
0.0 0.0 0.0 
0.0 0.0 0.0 
0.0 0.0 0.0 
0.0 0.0 0.0 
0.0 0.0 0.0 
0.0 0.0 0.0 
0.0 0.0 0.0 
0.0 0.0 0.0 
0.0 0.0 0.0 
0.0 0.0 0.0 
0.0 0.0 0.0 
0.0 0.0 0.0 
0.0 0.0 0.0 
0.0 0.0 0.0 
0.0 0.0 0.0 
0.0 0.0 0.0 
0.0 0.0 0.0 
0.0 0.0 0.0 
0.0 0.0 0.0 
0.0 0.0 0.0 
0.0 0.0 0.0 
0.0 0.0 0.0 
0.0 0.0 0.0 
0.0 0.0 0.0 
0.0 0.0 0.0 
0.0 0.0 0.0 
0.0 0.0 0.0 
0.0 0.0 0.0 
0.0 0.0 0.0 
0.0 0.0 0.0 
0.0 0.0 0.0 
0.0 0.0 0.0 
0.0 0.0 0.0 
0.0 0.0 0.0 
0.0 0.0 0.0 
0.0 0.0 0.0 
0.0 0.0 0.0 
0.0 0.0 0.0 
0.0 0.0 0.0 
0.0 0.0 0.0 
0.0 0.0 0.0 
0.0 0.0 0.0 
0.0 0.0 0.0 
0.0 0.0 0.0 
0.0 0.0 0.0 
0.0 0.0 0.0 
0.0 0.0 0.0 
0.0 0.0 0.0 
0.0 0.0 0.0 
0.0 0.0 0.0 
0.0 0.0 0.0 
0.0 0.0 0.0 
0.0 0.0 0.0 
0.0 0.0 0.0 
0.0 0.0 0.0 
0.0 0.0 0.0 
0.0 0.0 0.0 
0.0 0.0 0.0 
0.0 0.0 0.0 
0.0 0.0 0.0 
0.0 0.0 0.0 
0.0 0.0 0.0 
0.0 0.0 0.0 
0.0 0.0 0.0 
0.0 0.0 0.0 
0.0 0.0 0.0 
0.0 0.0 0.0 
0.0 0.0 0.0 
0.0 0.0 0.0 
0.0 0.0 0.0 
0.0 0.0 0.0 
0.0 0.0 0.0 
0.0 0.0 0.0 
0.0 0.0 0.0 
0.0 0.0 0.0 
0.0 0.0 0.0 
0.0 0.0 0.0 
0.0 0.0 0.0 
0.0 0.0 0.0 
0.0 0.0 0.0 
0.0 0.0 0.0 
0.0 0.0 0.0 
0.0 0.0 0.0 
0.0 0.0 0.0 
0.0 0.0 0.0 
0.0 0.0 0.0 
0.0 0.0 0.0 
0.0 0.0 0.0 
0.0 0.0 0.0 
0.0 0.0 0.0 
0.0 0.0 0.0 
0.0 0.0 0.0 
0.0 0.0 0.0 
0.0 0.0 0.0 
0.0 0.0 0.0 
0.0 0.0 0.0 
0.0 0.0 0.0 
0.0 0.0 0.0 
0.0 0.0 0.0 
0.0 0.0 0.0 
0.0 0.0 0.0 
0.0 0.0 0.0 
0.0 0.0 0.0 
0.0 0.0 0.0 
0.0 0.0 0.0 
0.0 0.0 0.0 
0.0 0.0 0.0 
0.0 0.0 0.0 
0.0 0.0 0.0 
0.0 0.0 0.0 
0.0 0.0 0.0 
0.0 0.0 0.0 
0.0 0.0 0.0 
0.0 0.0 0.0 
0.0 0.0 0.0 
0.0 0.0 0.0 
0.0 0.0 0.0 
0.0 0.0 0.0 
0.0 0.0 0.0 
0.0 0.0 0.0 
0.0 0.0 0.0 
0.0 0.0 0.0 
0.0 0.0 0.0 
0.0 0.0 0.0 
0.0 0.0 0.0 
0.0 0.0 0.0 
0.0 0.0 0.0 
0.0 0.0 0.0 
0.0 0.0 0.0 
0.0 0.0 0.0 
0.0 0.0 0.0 
0.0 0.0 0.0 
0.0 0.0 0.0 
0.0 0.0 0.0 
0.0 0.0 0.0 
0.0 0.0 0.0 
0.0 0.0 0.0 
0.0 0.0 0.0 
0.0 0.0 0.0 
0.0 0.0 0.0 
0.0 0.0 0.0 
0.0 0.0 0.0 
0.0 0.0 0.0 
0.0 0.0 0.0 
0.0 0.0 0.0 
0.0 0.0 0.0 
0.0 0.0 0.0 
0.0 0.0 0.0 
0.0 0.0 0.0 
0.0 0.0 0.0 
0.0 0.0 0.0 
0.0 0.0 0.0 
0.0 0.0 0.0 
0.0 0.0 0.0 
0.0 0.0 0.0 
0.0 0.0 0.0 
0.0 0.0 0.0 
0.0 0.0 0.0 
0.0 0.0 0.0 
0.0 0.0 0.0 
0.0 0.0 0.0 
0.0 0.0 0.0 
0.0 0.0 0.0 
0.0 0.0 0.0 
0.0 0.0 0.0 
0.0 0.0 0.0 
0.0 0.0 0.0 
0.0 0.0 0.0 
0.0 0.0 0.0 
0.0 0.0 0.0 
0.0 0.0 0.0 
0.0 0.0 0.0 
0.0 0.0 0.0 
0.0 0.0 0.0 
0.0 0.0 0.0 
0.0 0.0 0.0 
0.0 0.0 0.0 
0.0 0.0 0.0 
0.0 0.0 0.0 
0.0 0.0 0.0 
0.0 0.0 0.0 
0.0 0.0 0.0 
0.0 0.0 0.0 
0.0 0.0 0.0 
0.0 0.0 0.0 
0.0 0.0 0.0 
0.0 0.0 0.0 
0.0 0.0 0.0 
0.0 0.0 0.0 
0.0 0.0 0.0 
0.0 0.0 0.0 
0.0 0.0 0.0 
0.0 0.0 0.0 
0.0 0.0 0.0 
0.0 0.0 0.0 
0.0 0.0 0.0 
0.0 0.0 0.0 
0.0 0.0 0.0 
0.0 0.0 0.0 
0.0 0.0 0.0 
0.0 0.0 0.0 
0.0 0.0 0.0 
0.0 0.0 0.0 
0.0 0.0 0.0 
0.0 0.0 0.0 
0.0 0.0 0.0 
0.0 0.0 0.0 
0.0 0.0 0.0 
0.0 0.0 0.0 
0.0 0.0 0.0 
0.0 0.0 0.0 
0.0 0.0 0.0 
0.0 0.0 0.0 
0.0 0.0 0.0 
0.0 0.0 0.0 
0.0 0.0 0.0 
0.0 0.0 0.0 
0.0 0.0 0.0 
0.0 0.0 0.0 
0.0 0.0 0.0 
0.0 0.0 0.0 
0.0 0.0 0.0 
0.0 0.0 0.0 
0.0 0.0 0.0 
0.0 0.0 0.0 
0.0 0.0 0.0 
0.0 0.0 0.0 
0.0 0.0 0.0 
0.0 0.0 0.0 
0.0 0.0 0.0 
0.0 0.0 0.0 
0.0 0.0 0.0 
0.0 0.0 0.0 
0.0 0.0 0.0 
0.0 0.0 0.0 
0.0 0.0 0.0 
0.0 0.0 0.0 
0.0 0.0 0.0 
0.0 0.0 0.0 
0.0 0.0 0.0 
0.0 0.0 0.0 
0.0 0.0 0.0 
0.0 0.0 0.0 
0.0 0.0 0.0 
0.0 0.0 0.0 
0.0 0.0 0.0 
0.0 0.0 0.0 
0.0 0.0 0.0 
0.0 0.0 0.0 
0.0 0.0 0.0 
0.0 0.0 0.0 
0.0 0.0 0.0 
0.0 0.0 0.0 
0.0 0.0 0.0 
0.0 0.0 0.0 
0.0 0.0 0.0 
0.0 0.0 0.0 
0.0 0.0 0.0 
0.0 0.0 0.0 
0.0 0.0 0.0 
0.0 0.0 0.0 
0.0 0.0 0.0 
0.0 0.0 0.0 
0.0 0.0 0.0 
0.0 0.0 0.0 
0.0 0.0 0.0 
0.0 0.0 0.0 
0.0 0.0 0.0 
0.0 0.0 0.0 
0.0 0.0 0.0 
0.0 0.0 0.0 
0.0 0.0 0.0 
0.0 0.0 0.0 
0.0 0.0 0.0 
0.0 0.0 0.0 
0.0 0.0 0.0 
0.0 0.0 0.0 
0.0 0.0 0.0 
0.0 0.0 0.0 
0.0 0.0 0.0 
0.0 0.0 0.0 
0.0 0.0 0.0 
0.0 0.0 0.0 
0.0 0.0 0.0 
0.0 0.0 0.0 
0.0 0.0 0.0 
0.0 0.0 0.0 
0.0 0.0 0.0 
0.0 0.0 0.0 
0.0 0.0 0.0 
0.0 0.0 0.0 
0.0 0.0 0.0 
0.0 0.0 0.0 
0.0 0.0 0.0 
0.0 0.0 0.0 
0.0 0.0 0.0 
0.0 0.0 0.0 
0.0 0.0 0.0 
0.0 0.0 0.0 
0.0 0.0 0.0 
0.0 0.0 0.0 
0.0 0.0 0.0 
0.0 0.0 0.0 
0.0 0.0 0.0 
0.0 0.0 0.0 
0.0 0.0 0.0 
0.0 0.0 0.0 
0.0 0.0 0.0 
0.0 0.0 0.0 
0.0 0.0 0.0 
0.0 0.0 0.0 
0.0 0.0 0.0 
0.0 0.0 0.0 
0.0 0.0 0.0 
0.0 0.0 0.0 
0.0 0.0 0.0 
0.0 0.0 0.0 
0.0 0.0 0.0 
0.0 0.0 0.0 
0.0 0.0 0.0 
0.0 0.0 0.0 
0.0 0.0 0.0 
0.0 0.0 0.0 
0.0 0.0 0.0 
0.0 0.0 0.0 
0.0 0.0 0.0 
0.0 0.0 0.0 
0.0 0.0 0.0 
0.0 0.0 0.0 
0.0 0.0 0.0 
0.0 0.0 0.0 
0.0 0.0 0.0 
0.0 0.0 0.0 
0.0 0.0 0.0 
0.0 0.0 0.0 
0.0 0.0 0.0 
0.0 0.0 0.0 
0.0 0.0 0.0 
0.0 0.0 0.0 
0.0 0.0 0.0 
0.0 0.0 0.0 
0.0 0.0 0.0 
0.0 0.0 0.0 
0.0 0.0 0.0 
0.0 0.0 0.0 
0.0 0.0 0.0 
0.0 0.0 0.0 
0.0 0.0 0.0 
0.0 0.0 0.0 
0.0 0.0 0.0 
0.0 0.0 0.0 
0.0 0.0 0.0 
0.0 0.0 0.0 
0.0 0.0 0.0 
0.0 0.0 0.0 
0.0 0.0 0.0 
0.0 0.0 0.0 
0.0 0.0 0.0 
0.0 0.0 0.0 
0.0 0.0 0.0 
0.0 0.0 0.0 
0.0 0.0 0.0 
0.0 0.0 0.0 
0.0 0.0 0.0 
0.0 0.0 0.0 
0.0 0.0 0.0 
0.0 0.0 0.0 
0.0 0.0 0.0 
0.0 0.0 0.0 
0.0 0.0 0.0 
0.0 0.0 0.0 
0.0 0.0 0.0 
0.0 0.0 0.0 
0.0 0.0 0.0 
0.0 0.0 0.0 
0.0 0.0 0.0 
0.0 0.0 0.0 
0.0 0.0 0.0 
0.0 0.0 0.0 
0.0 0.0 0.0 
0.0 0.0 0.0 
0.0 0.0 0.0 
0.0 0.0 0.0 
0.0 0.0 0.0 
0.0 0.0 0.0 
0.0 0.0 0.0 
0.0 0.0 0.0 
0.0 0.0 0.0 
0.0 0.0 0.0 
0.0 0.0 0.0 
0.0 0.0 0.0 
0.0 0.0 0.0 
0.0 0.0 0.0 
0.0 0.0 0.0 
0.0 0.0 0.0 
0.0 0.0 0.0 
0.0 0.0 0.0 
0.0 0.0 0.0 
0.0 0.0 0.0 
0.0 0.0 0.0 
0.0 0.0 0.0 
0.0 0.0 0.0 
0.0 0.0 0.0 
0.0 0.0 0.0 
0.0 0.0 0.0 
0.0 0.0 0.0 
0.0 0.0 0.0 
0.0 0.0 0.0 
0.0 0.0 0.0 
0.0 0.0 0.0 
0.0 0.0 0.0 
0.0 0.0 0.0 
0.0 0.0 0.0 
0.0 0.0 0.0 
0.0 0.0 0.0 
0.0 0.0 0.0 
0.0 0.0 0.0 
0.0 0.0 0.0 
0.0 0.0 0.0 
0.0 0.0 0.0 
0.0 0.0 0.0 

VECTORS node_materi_velocity float
0.0 2.429028069407e-03 0.0 
0.0 8.428637906541e-03 0.0 
0.0 0.0 0.0 
0.0 0.0 0.0 
0.0 7.600533672391e-03 0.0 
0.0 9.194561602849e-03 0.0 
0.0 2.138369206691e-02 0.0 
0.0 4.088374622249e-02 0.0 
0.0 4.305434164226e-02 0.0 
0.0 4.202121886024e-02 0.0 
0.0 3.965269743225e-02 0.0 
0.0 3.639459380000e-02 0.0 
0.0 3.250762109129e-02 0.0 
0.0 2.817806043237e-02 0.0 
0.0 2.358091432503e-02 0.0 
0.0 1.894311442331e-02 0.0 
0.0 1.444753089489e-02 0.0 
0.0 1.020717099296e-02 0.0 
0.0 6.431435876136e-03 0.0 
0.0 3.282967423761e-03 0.0 
0.0 9.026781187353e-04 0.0 
0.0 -5.159273850699e-04 0.0 
0.0 -7.848060389532e-04 0.0 
0.0 0.0 0.0 
0.0 0.0 0.0 
0.0 0.0 0.0 
0.0 0.0 0.0 
0.0 0.0 0.0 
0.0 0.0 0.0 
0.0 0.0 0.0 
0.0 0.0 0.0 
0.0 0.0 0.0 
0.0 0.0 0.0 
0.0 0.0 0.0 
0.0 0.0 0.0 
0.0 0.0 0.0 
0.0 0.0 0.0 
0.0 0.0 0.0 
0.0 0.0 0.0 
0.0 0.0 0.0 
0.0 0.0 0.0 
0.0 0.0 0.0 
0.0 0.0 0.0 
0.0 0.0 0.0 
0.0 0.0 0.0 
0.0 0.0 0.0 
0.0 0.0 0.0 
0.0 0.0 0.0 
0.0 0.0 0.0 
0.0 0.0 0.0 
0.0 0.0 0.0 
0.0 0.0 0.0 
0.0 0.0 0.0 
0.0 0.0 0.0 
0.0 0.0 0.0 
0.0 0.0 0.0 
0.0 0.0 0.0 
0.0 0.0 0.0 
0.0 0.0 0.0 
0.0 0.0 0.0 
0.0 0.0 0.0 
0.0 0.0 0.0 
0.0 0.0 0.0 
0.0 0.0 0.0 
0.0 0.0 0.0 
0.0 0.0 0.0 
0.0 0.0 0.0 
0.0 0.0 0.0 
0.0 0.0 0.0 
0.0 0.0 0.0 
0.0 0.0 0.0 
0.0 0.0 0.0 
0.0 6.540000883731e-03 0.0 
0.0 4.748334683015e-03 0.0 
0.0 3.114166371517e-03 0.0 
0.0 1.665572963407e-03 0.0 
0.0 4.704898723096e-04 0.0 
0.0 -4.284834489536e-04 0.0 
0.0 -9.727664491213e-04 0.0 
0.0 -1.108916278151e-03 0.0 
0.0 -7.812580050497e-04 0.0 
5.334446963437e-01 -7.995932360730e-01 0.0 
8.749153492787e-02 2.453214399846e-02 0.0 
6.531960904958e-01 -4.278464782099e-01 0.0 
6.676757158185e-01 -3.238538315674e-01 0.0 
6.554072123859e-01 -2.363179970519e-01 0.0 
6.168078201780e-01 -1.414196900779e-01 0.0 
5.598669405370e-01 -7.672099424428e-02 0.0 
4.792073804384e-01 -3.405450154074e-02 0.0 
3.797229038438e-01 -8.370925969720e-04 0.0 
2.673228732916e-01 1.782363438540e-02 0.0 
1.654553242829e-01 3.245389627709e-02 0.0 
4.535268750465e-03 8.525471265504e-03 0.0 
9.085480839150e-03 8.757311522679e-03 0.0 
1.367446539212e-02 9.164074914759e-03 0.0 
1.831549232541e-02 9.761557465306e-03 0.0 
2.302549635102e-02 1.050245599636e-02 0.0 
2.777197109289e-02 1.139315540723e-02 0.0 
3.256307826182e-02 1.244010421118e-02 0.0 
3.738969156261e-02 1.358256474140e-02 0.0 
4.220326912701e-02 1.480436144956e-02 0.0 
4.699120713953e-02 1.602163717188e-02 0.0 
5.175170206653e-02 1.705624097442e-02 0.0 
5.673107886332e-02 1.810460880295e-02 0.0 
6.236714444903e-02 1.961860065836e-02 0.0 
6.997274467921e-02 3.195081034719e-02 0.0 
5.220569181276e-01 -9.494066206918e-01 0.0 
5.076954874545e-01 -8.518909508951e-01 0.0 
4.892080724618e-01 -7.514530459538e-01 0.0 
4.632778275769e-01 -6.098209484369e-01 0.0 
4.192932628441e-01 -4.477087662189e-01 0.0 
3.923476182193e-01 -2.629040706740e-01 0.0 
2.277693359388e-01 -1.501590941327e-01 0.0 
2.279654834455e-01 -1.097882890526e-01 0.0 
1.916828944472e-01 -8.123946693114e-02 0.0 
1.329293181225e-01 -5.411884285736e-02 0.0 
1.024436417839e-01 -3.299971098028e-02 0.0 
8.926871189512e-02 -1.453527045435e-02 0.0 
7.913240609990e-02 -4.741401421206e-03 0.0 
6.428778530683e-02 3.144385254261e-03 0.0 
5.692845261402e-02 8.514766903511e-03 0.0 
4.521483474625e-02 1.208632487699e-02 0.0 
1.804303831037e-02 9.662157541669e-03 0.0 
1.322515894349e-02 1.089598466185e-03 0.0 
9.561652978280e-03 -3.190964366714e-04 0.0 
6.206288254980e-01 -5.780754741245e-01 0.0 
6.660437849173e-01 -3.752854318811e-01 0.0 
6.558206248318e-01 -2.327937634783e-01 0.0 
6.382967543764e-01 -1.745145651185e-01 0.0 
5.956699859515e-01 -1.004969982309e-01 0.0 
5.262987897317e-01 -4.817286569900e-02 0.0 
4.325083776691e-01 -1.998620752719e-02 0.0 
3.230225700511e-01 1.417241907113e-02 0.0 
2.123759871744e-01 2.430499285312e-02 0.0 
1.258639849318e-01 3.298630523962e-02 0.0 
6.732969031705e-01 -3.821217227342e-01 0.0 
-7.766109755475e-03 3.961023027915e-03 0.0 
1.369106653644e-01 -4.828381339169e-02 0.0 
3.089093447191e-01 -5.123193210515e-01 0.0 
-7.340775138849e-03 -3.331228354009e-03 0.0 
6.046647616974e-01 -1.793665313027e-01 0.0 
-5.386920700861e-03 2.536048852812e-02 0.0 
-6.220656659369e-03 2.814987723559e-03 0.0 
4.532400391788e-01 -6.093009517305e-02 0.0 
-3.073884428272e-03 1.052969944631e-03 0.0 
2.396912009308e-01 1.454260137606e-03 0.0 
-9.344322150752e-03 -3.520987213071e-03 0.0 
6.454814800775e-02 4.699206732010e-03 0.0 
1.504590649012e-02 -2.538118003693e-03 0.0 
8.726433145971e-02 1.430875718956e-02 0.0 
-4.937916515615e-04 4.018136250565e-02 0.0 
-6.432914601702e-03 1.277625982298e-02 0.0 
4.866445800868e-02 -1.394581755520e-02 0.0 
2.218325081003e-02 -3.952596730078e-03 0.0 
3.708441044224e-03 -6.935258533618e-04 0.0 
7.405188505402e-03 -8.533498682935e-04 0.0 
1.141958845457e-02 -1.082388866164e-03 0.0 
5.886837894981e-02 1.984310240469e-02 0.0 
4.362446783183e-02 1.359064281427e-02 0.0 
2.924892244191e-02 1.002458018824e-02 0.0 
2.606487032442e-03 1.036577538811e-03 0.0 
-6.723277837359e-03 -1.964232452675e-03 0.0 
4.680543311963e-01 -8.862637769159e-01 0.0 
3.612908359780e-02 1.811176252889e-02 0.0 
-4.742229825885e-03 1.961571180639e-03 0.0 
1.520149341506e-02 7.720815250280e-03 0.0 
1.606346085754e-02 3.375319357218e-02 0.0 
3.731661512302e-02 -7.476286696222e-03 0.0 
-4.561559088609e-03 4.347243456022e-03 0.0 
5.302317398177e-03 -1.451098484243e-04 0.0 
-6.990618543998e-03 2.088692540255e-03 0.0 
-7.454953363352e-03 4.073095399684e-03 0.0 
2.214332800019e-01 -1.626098563435e-01 0.0 
5.285922515126e-02 1.595033628302e-02 0.0 
-1.185543255055e-02 -5.850144415381e-03 0.0 
1.906157669033e-03 -7.208739156540e-04 0.0 
8.035604301867e-02 -1.841614766194e-02 0.0 
-3.571376297128e-03 3.393573311631e-02 0.0 
1.824222966193e-03 -6.002736755634e-04 0.0 
5.406579680537e-01 -1.139776176289e-01 0.0 
6.502981098692e-01 -2.378467800897e-01 0.0 
3.505825895153e-01 -3.290117697120e-02 0.0 
1.492261973060e-01 1.077420215416e-02 0.0 
6.745312986451e-01 -5.836994382762e-01 0.0 
3.301161486208e-03 3.755378738727e-03 0.0 
-3.168396035932e-03 -9.725296859735e-04 0.0 
1.499020196557e-02 3.337212383026e-04 0.0 
1.005911257043e-03 -1.076155235580e-03 0.0 
7.865292555322e-02 1.325041091196e-02 0.0 
8.475969219136e-02 1.032063769282e-02 0.0 
7.726459067904e-02 1.021301306380e-02 0.0 
8.661121092249e-02 5.957746476277e-03 0.0 
7.980603380309e-02 6.439881125495e-03 0.0 
8.700855731215e-02 2.229503858685e-03 0.0 
9.497764413940e-02 -7.646357609158e-05 0.0 
9.404330466303e-02 -3.174219411782e-03 0.0 
1.027656389452e-01 -6.716198539521e-03 0.0 
7.905794911088e-02 3.382517203259e-03 0.0 
1.007366086600e-01 -9.332087989380e-03 0.0 
1.103549104126e-01 -1.383142681238e-02 0.0 
1.073266518768e-01 -1.639557073887e-02 0.0 
1.178548787858e-01 -2.215314716575e-02 0.0 
1.200598807368e-01 -1.909215274162e-02 0.0 
1.282850840573e-01 -2.875492927234e-02 0.0 
1.297784230507e-01 -2.548375715393e-02 0.0 
1.386476276216e-01 -3.612630315213e-02 0.0 
1.365130898065e-01 -3.946763621032e-02 0.0 
1.478946887249e-01 -4.785506530992e-02 0.0 
1.486540718376e-01 -4.407189304437e-02 0.0 
1.583047557661e-01 -5.752977023738e-02 0.0 
1.585583967239e-01 -5.326288899445e-02 0.0 
1.685204173892e-01 -6.816215079416e-02 0.0 
1.686401351645e-01 -6.309920922142e-02 0.0 
1.788038557688e-01 -7.738886274917e-02 0.0 
1.794236725633e-01 -8.307018642272e-02 0.0 
1.881413504023e-01 -9.131402129653e-02 0.0 
1.880917654496e-01 -8.795872249972e-02 0.0 
1.876479470397e-01 -1.197898464712e-01 0.0 
1.871854153339e-01 -1.250358341301e-01 0.0 
1.878657664517e-01 -1.410150976038e-01 0.0 
1.755121699901e-01 -1.298610761050e-01 0.0 
1.789920955019e-01 -1.414757082647e-01 0.0 
1.931072007959e-01 -1.510340925803e-01 0.0 
1.795296037558e-01 -1.585523962966e-01 0.0 
1.924471697376e-01 -1.746577082638e-01 0.0 
1.759093252553e-01 -1.778575902724e-01 0.0 
1.894112160512e-01 -1.973205205324e-01 0.0 
1.694281652598e-01 -1.969469891671e-01 0.0 
1.478268760019e-01 -1.664319406086e-01 0.0 
1.325833204954e-01 -1.805798577836e-01 0.0 
1.554956264792e-01 -2.211241391358e-01 0.0 
1.082314401763e-01 -1.989215832688e-01 0.0 
7.525996483322e-02 -1.436404333016e-01 0.0 
4.735565645773e-02 -1.583455938165e-01 0.0 
2.405098062916e-02 -1.091276356951e-01 0.0 
-1.390815853981e-03 -1.242037969679e-01 0.0 
1.558051697156e-02 -1.708583029614e-01 0.0 
-2.735058808615e-02 -1.353407912272e-01 0.0 
-3.019639307092e-02 -1.054443688028e-01 0.0 
-5.151368803463e-02 -1.149312390392e-01 0.0 
-4.671242122790e-02 -1.369720065215e-01 0.0 
-6.364488199746e-02 -1.140830061665e-01 0.0 
-6.912354866942e-02 -9.847839133428e-02 0.0 
-7.561983844515e-02 -9.383762989223e-02 0.0 
-7.043742502849e-02 -1.070694962909e-01 0.0 
-7.279588653003e-02 -8.550913878576e-02 0.0 
-7.475281114753e-02 -7.806083312690e-02 0.0 
-6.995447565093e-02 -6.732027945955e-02 0.0 
-6.466651515107e-02 -7.277409359443e-02 0.0 
-6.274194350386e-02 -5.472456652191e-02 0.0 
-6.722200444861e-02 -5.055647819677e-02 0.0 
-6.023334817122e-02 -3.912457640670e-02 0.0 
-6.441361598677e-02 -3.613954085283e-02 0.0 
-5.402562498197e-02 -4.142828379564e-02 0.0 
-5.187070233257e-02 -2.747000457065e-02 0.0 
-4.393062161352e-02 -2.808990878990e-02 0.0 
-4.248336039258e-02 -1.603549285930e-02 0.0 
1.646091294218e-01 -1.296425796555e-01 0.0 
-3.309946077062e-02 -1.554069693470e-02 0.0 
-3.333207881666e-02 -2.829955360991e-02 0.0 
-3.260493460281e-02 -5.325259264470e-03 0.0 
-4.052401634613e-02 -6.348296107237e-03 0.0 
-2.206891716759e-02 -4.204309739299e-03 0.0 
-2.280374547384e-02 4.326883269984e-03 0.0 
-1.155015211274e-02 5.534867930943e-03 0.0 
1.976777882788e-01 -1.879876559941e-01 0.0 
1.448486740551e-01 -5.164651683293e-02 0.0 
-1.363927218820e-02 1.271696094521e-02 0.0 
-2.182121115291e-03 1.360275699654e-02 0.0 
2.278895163499e-03 6.291225576282e-03 0.0 
1.154174142653e-02 1.368074579130e-02 0.0 
7.267761170174e-02 7.122892827468e-03 0.0 
7.083227945875e-02 4.087932216245e-03 0.0 
6.527322397545e-02 7.183930275211e-03 0.0 
6.223306454230e-02 4.158713000480e-03 0.0 
5.750066196340e-02 6.498225010956e-03 0.0 
5.700471578227e-03 2.022662348878e-02 0.0 
9.693538510681e-02 -1.166478883169e-02 0.0 
6.679306061914e-02 1.367903212071e-03 0.0 
1.487771946557e-01 -3.971256757691e-02 0.0 
1.874963105201e-01 -8.549876601489e-02 0.0 
4.351439477223e-02 -9.591879665740e-02 0.0 
-2.279052909357e-02 1.123471044748e-02 0.0 
-1.474846415496e-02 1.863455887383e-02 0.0 
-2.187775866957e-02 1.670318139032e-02 0.0 
-7.006984151255e-02 -4.552438067901e-02 0.0 
-6.707601248908e-02 -3.261565575789e-02 0.0 
-7.244232613157e-02 -3.997294605430e-02 0.0 
-6.803318083512e-02 -2.920535463064e-02 0.0 
-7.281898621056e-02 -3.483826723154e-02 0.0 
-6.636226238051e-02 -2.615663476399e-02 0.0 
-6.207859016585e-02 -2.112774057756e-02 0.0 
-5.882405188512e-02 -1.967118345494e-02 0.0 
-5.515600033542e-02 -1.491641558648e-02 0.0 
-6.919488805745e-02 -2.966013678415e-02 0.0 
-7.573142757075e-02 -3.883234995324e-02 0.0 
-5.085324405313e-02 -1.450772943796e-02 0.0 
-4.779545583036e-02 -1.004045482807e-02 0.0 
-4.299582938666e-02 -1.027071604579e-02 0.0 
-4.040053093497e-02 -6.227783149361e-03 0.0 
-4.360723534560e-02 -5.018153733803e-03 0.0 
-3.660619210984e-02 -1.728431723615e-03 0.0 
-3.853703527788e-02 3.367041977599e-04 0.0 
1.482018711388e-02 -7.764649572827e-02 0.0 
2.973201992748e-02 -6.792858796073e-02 0.0 
5.792335962173e-03 -5.130774785331e-02 0.0 
1.630960742265e-02 -4.412212455667e-02 0.0 
-1.786442505174e-03 -3.060810751907e-02 0.0 
5.095941600362e-03 -2.537659393152e-02 0.0 
-7.067537620925e-03 -1.567536890769e-02 0.0 
-1.389232515880e-02 -2.259447264828e-02 0.0 
1.142315683453e-01 -2.501420613049e-02 0.0 
1.307148439452e-01 -2.500777671851e-01 0.0 
1.696726338768e-01 -2.572428503278e-01 0.0 
1.456579069915e-01 -2.961778759737e-01 0.0 
1.774259640732e-01 -2.897031512494e-01 0.0 
1.562938454888e-01 -3.370515777218e-01 0.0 
1.855687519153e-01 -3.207308185878e-01 0.0 
1.695746252090e-01 -3.759276471314e-01 0.0 
1.332190608887e-01 -3.732327485420e-01 0.0 
1.511276226575e-01 -4.190076824358e-01 0.0 
1.090171582450e-01 -3.912364338213e-01 0.0 
1.296490274037e-01 -4.433868576919e-01 0.0 
8.326741428277e-02 -3.867339878402e-01 0.0 
1.737801318671e-01 -8.730263494863e-02 0.0 
2.289574403039e-02 -3.941111732261e-02 0.0 
9.251718028293e-03 -2.206594277014e-02 0.0 
2.655922259387e-02 -3.583925661799e-02 0.0 
1.830515173332e-02 6.444160848730e-03 0.0 
-3.318599908616e-02 -3.365209761680e-03 0.0 
-6.974064461123e-02 -3.025700948855e-02 0.0 
-7.530656507101e-02 -3.933234744778e-02 0.0 
-1.325448849355e-02 -1.111796206861e-02 0.0 
1.913294360452e-02 1.948327085989e-02 0.0 
2.160237571918e-01 -3.607680480084e-01 0.0 
2.211509947490e-01 -2.943013472549e-01 0.0 
5.349807293424e-02 3.593190024421e-03 0.0 
4.966221227932e-02 5.211196174551e-03 0.0 
-6.719862428023e-02 -2.568170126862e-02 0.0 
1.203921100625e-02 2.588888173329e-02 0.0 
-5.242913656950e-02 -1.809613211400e-02 0.0 
1.861047435618e-01 -4.791530158544e-01 0.0 
-2.965981008772e-02 5.718729570140e-04 0.0 
-2.626597874909e-02 -1.380342871417e-03 0.0 
-5.695077231507e-02 -1.524115199254e-02 0.0 
1.110891618971e-02 -2.000899520343e-02 0.0 
2.833909085896e-02 -3.243323257553e-02 0.0 
5.972037403448e-02 -3.302964475319e-01 0.0 
3.249762105694e-02 -2.989170147137e-01 0.0 
5.922246597603e-02 -3.530252891659e-01 0.0 
1.100537167379e-02 -2.411020643810e-01 0.0 
-1.247489135281e-02 -2.056355743083e-01 0.0 
-1.939565654349e-02 -1.610648677053e-01 0.0 
8.482336640093e-03 -1.783161358792e-01 0.0 
-2.756251479846e-03 -1.300554195677e-01 0.0 
-2.702038901092e-02 -1.207347841378e-01 0.0 
-1.011247818736e-02 -9.346145091785e-02 0.0 
1.860961694008e-02 -9.707292567122e-02 0.0 
9.289569026887e-03 -6.645540248394e-02 0.0 
-2.843110078106e-02 -4.372589911960e-03 0.0 
1.614270045417e-01 -5.066491354755e-01 0.0 
1.207442690395e-01 -1.528123174263e-02 0.0 
-5.952524247681e-02 -2.256862554467e-02 0.0 
-9.711794722699e-03 -6.044941720266e-03 0.0 
4.481904069075e-02 2.597953389489e-03 0.0 
4.191805832733e-02 3.732352193459e-03 0.0 
4.572868570708e-02 6.353849983970e-03 0.0 
3.884211681320e-02 4.550475582367e-03 0.0 
3.442229082907e-02 2.298820108183e-03 0.0 
3.217663975674e-02 2.912911576101e-03 0.0 
3.572619137867e-02 5.069690231529e-03 0.0 
2.975146922548e-02 3.327701810930e-03 0.0 
3.263396890303e-02 5.360325381928e-03 0.0 
2.720633058326e-02 3.595413157949e-03 0.0 
2.408981323994e-02 1.845393529768e-03 0.0 
2.206437268779e-02 2.106272406387e-03 0.0 
2.455967568127e-02 3.787800249309e-03 0.0 
1.983263165271e-02 2.322655677918e-03 0.0 
2.180122481197e-02 3.957046975226e-03 0.0 
1.740123345603e-02 2.541904500167e-03 0.0 
1.546677392542e-02 1.131868771089e-03 0.0 
2.523081108725e-02 2.451688986608e-02 0.0 
-2.114804357661e-02 -1.979656462178e-02 0.0 
-1.853149197753e-02 -7.596359409962e-03 0.0 
-1.487729403249e-02 2.313371826336e-02 0.0 
-2.012525477964e-02 2.059314545702e-02 0.0 
-2.713318663829e-02 1.421900523328e-02 0.0 
-2.367115869802e-02 1.776784256110e-02 0.0 
1.328862730714e-02 1.376500050449e-03 0.0 
1.154034429023e-02 2.163277924066e-04 0.0 
3.106340800083e-01 -3.551101117854e-01 0.0 
3.023789760224e-01 -2.698144270523e-01 0.0 
4.739881726961e-02 1.148155910330e-03 0.0 
-2.289112700942e-02 1.997195051744e-03 0.0 
-2.518851055938e-02 4.734132667397e-03 0.0 
1.851129819697e-01 -1.294527781304e-01 0.0 
1.833776611818e-01 -8.321602204467e-02 0.0 
1.800560987404e-01 -1.321098873902e-01 0.0 
1.826538907982e-01 -8.404797665497e-02 0.0 
1.732959775324e-01 -5.927387224165e-02 0.0 
1.932315540372e-01 -1.377917402073e-01 0.0 
-7.993747584767e-02 -5.353146506494e-02 0.0 
1.886946298424e-02 6.786562493193e-04 0.0 
7.656498666270e-03 -2.265524473748e-03 0.0 
2.625126346526e-02 -1.891574222495e-03 0.0 
-1.973731648726e-02 -1.407012172162e-04 0.0 
-2.603710495575e-02 -3.416782729056e-02 0.0 
1.656635339859e-01 -8.037009673173e-02 0.0 
1.633574986535e-01 -8.497394792801e-02 0.0 
1.560660235489e-01 -7.905242470070e-02 0.0 
1.339430582394e-01 -6.956652158302e-02 0.0 
1.278147337442e-01 -6.542881711901e-02 0.0 
6.828564256357e-02 -2.982528379119e-02 0.0 
7.179017356940e-02 -3.684756836469e-02 0.0 
1.189987111335e-02 -1.698534079847e-02 0.0 
5.021121948845e-02 -2.368272458202e-02 0.0 
1.501232146608e-02 2.843894980296e-03 0.0 
4.569672697625e-02 -5.647795278247e-02 0.0 
-3.097865212502e-02 -8.908297759701e-02 0.0 
3.312197575673e-02 1.800332610998e-02 0.0 
4.168865504054e-02 -6.715638296710e-02 0.0 
1.669941294613e-02 3.048244373077e-02 0.0 
6.471899847324e-03 3.105233562870e-02 0.0 
-5.443022432169e-02 -1.352988388591e-02 0.0 
6.189904621620e-02 -2.770741078074e-02 0.0 
1.201708626507e-01 -6.022849695040e-02 0.0 
2.213226236808e-01 -7.129077180605e-02 0.0 
1.827070284228e-01 -5.464251375179e-02 0.0 
-2.442786447949e-03 -7.171406149521e-03 0.0 
5.952203751458e-02 9.846530405421e-03 0.0 
3.821286182903e-02 7.351521619962e-03 0.0 
3.470515775648e-02 7.472629142001e-03 0.0 
3.334172934528e-02 2.687581156573e-02 0.0 
5.653742254239e-02 -1.003170833171e-01 0.0 
2.737410241973e-02 1.063182870636e-03 0.0 
2.194497841155e-01 -2.311286296006e-01 0.0 
2.746671411449e-01 -2.423211382991e-01 0.0 
2.655052436817e-01 -5.809369518997e-01 0.0 
2.277546878352e-01 -6.025814682923e-01 0.0 
9.755260103580e-03 4.553011201051e-04 0.0 
8.184963579925e-03 -4.521752399666e-04 0.0 
-3.061828972779e-02 1.148956638224e-02 0.0 
-2.588957680181e-02 1.448321060012e-02 0.0 
-4.874435917695e-02 -1.077370235636e-02 0.0 
2.853085661464e-02 -4.251590609804e-02 0.0 
9.359102916339e-03 -6.011701506693e-04 0.0 
-3.499395047607e-02 -3.364536987445e-02 0.0 
-4.308571444153e-02 -4.979009515176e-02 0.0 
-1.704334800163e-02 2.365244317087e-02 0.0 
4.556475273383e-01 -3.365594294518e-01 0.0 
4.655438348034e-01 -4.446110565603e-01 0.0 
-4.404546470487e-02 -1.110736804061e-01 0.0 
2.557421406029e-03 -4.357687393101e-02 0.0 
1.041398378841e-02 3.525050157312e-02 0.0 
-3.737239431096e-02 2.487169338754e-03 0.0 
2.846559663436e-02 4.695813751273e-04 0.0 
5.225785163333e-02 -3.206498004992e-02 0.0 
7.289417561020e-02 -4.768510580516e-02 0.0 
2.754393549379e-02 -1.515921780356e-02 0.0 
5.923634994849e-02 -4.186563047091e-02 0.0 
-4.321199367207e-02 -1.669443416614e-02 0.0 
-1.643381579169e-02 2.665602458914e-03 0.0 
5.731866519699e-02 -2.603599091223e-02 0.0 
1.126797638615e-01 -5.168591966011e-02 0.0 
2.050645645616e-01 -2.093144140804e-01 0.0 
2.528602113261e-01 -1.871410261726e-01 0.0 
3.864042490391e-01 -2.419014746038e-01 0.0 
3.492730971661e-01 -1.746226876974e-01 0.0 
1.027844467592e-01 -3.612874314387e-03 0.0 
2.007135012505e-01 -1.615627334424e-01 0.0 
1.301523939716e-01 -2.188398930942e-02 0.0 
1.206389305151e-01 -1.027179395435e-02 0.0 
1.302090940900e-01 -1.826970408828e-02 0.0 
1.661407297204e-01 -5.398586078146e-02 0.0 
1.590854228754e-01 -4.056801675765e-02 0.0 
1.923872488888e-01 -2.440385627300e-01 0.0 
5.637552760314e-02 -8.630946462007e-02 0.0 
-3.465905666272e-02 7.142549108270e-03 0.0 
-4.500700866336e-02 -3.532411935849e-03 0.0 
-7.470927415990e-02 -5.470230231768e-02 0.0 
2.008887833930e-02 3.941845881979e-04 0.0 
1.492538143291e-02 -3.650079729760e-04 0.0 
2.645967546404e-02 5.618936070733e-03 0.0 
2.330394751067e-02 5.736598336422e-03 0.0 
3.528848389316e-02 5.776142264278e-03 0.0 
4.571345536919e-02 -2.869309067393e-03 0.0 
-6.093679979767e-02 -2.456060121848e-02 0.0 
-4.925204796280e-02 -2.038386932268e-02 0.0 
3.795210479424e-02 4.702280856010e-04 0.0 
3.893799750291e-02 -6.927781489018e-04 0.0 
4.954701373631e-02 -6.418398966498e-04 0.0 
-3.218309623081e-02 2.557456794482e-03 0.0 
9.902938338762e-02 -2.746223118065e-01 0.0 
-1.004613760208e-02 -6.269051321504e-02 0.0 
1.436201965742e-01 -5.052765118873e-01 0.0 
1.648272999942e-01 -1.181671342649e-01 0.0 
5.118681477607e-02 3.769965222828e-03 0.0 
1.329978353847e-01 -4.231616375186e-02 0.0 
-1.372932790852e-02 4.286877272382e-04 0.0 
-1.582360901971e-02 -1.534874894344e-03 0.0 
-2.398114793856e-03 -3.505270756512e-03 0.0 
8.938244729854e-02 8.391752121418e-03 0.0 
1.307111736116e-01 -1.022762144388e-01 0.0 
1.269098241600e-01 -1.093346994838e-01 0.0 
1.207381374251e-01 -3.018191412854e-03 0.0 
1.313944808097e-01 -1.602162345246e-02 0.0 
1.379466099856e-01 -2.634263522195e-02 0.0 
1.521605550932e-01 -2.805318119974e-02 0.0 
-4.582176478550e-02 -8.410225033509e-02 0.0 
-3.287295549387e-02 -6.414956047825e-02 0.0 
3.734028486192e-02 -1.692690104437e-02 0.0 
2.499993779801e-02 -8.746917570912e-03 0.0 
5.247309041903e-02 -1.937936035032e-02 0.0 
1.029079431562e-01 -4.473915711380e-02 0.0 
-1.236784853368e-02 1.576529314196e-03 0.0 
-9.671739730214e-03 -5.591702905661e-05 0.0 
2.162494309507e-03 3.532955496401e-02 0.0 
2.370691038664e-01 -5.046408481136e-02 0.0 
2.121588685404e-02 -2.955119912352e-04 0.0 
1.097735235364e-01 -1.551589219589e-03 0.0 
-3.409105610311e-02 -1.569054485728e-02 0.0 
-3.995553835441e-02 -1.679071494319e-02 0.0 
2.130017209971e-01 -5.828246402755e-01 0.0 
1.434744931835e-01 -4.493374270252e-01 0.0 
6.303868067210e-03 -9.698262423471e-04 0.0 
4.893022377567e-01 -2.098053033979e-01 0.0 
4.426551592526e-01 -2.057796177047e-01 0.0 
5.206299172394e-01 -2.880511424785e-01 0.0 
-2.203260998730e-03 -9.760525008857e-04 0.0 
6.588464292670e-03 6.992203868290e-03 0.0 
-1.045371533633e-02 -9.971635487573e-04 0.0 
1.579328036833e-01 -4.383375887524e-02 0.0 
6.784012848511e-03 -9.945227029190e-04 0.0 
7.205464516243e-02 -6.579144264332e-02 0.0 
1.920908021903e-01 -1.422494641769e-01 0.0 
-3.835081688011e-02 -1.292314740950e-02 0.0 
5.168120275129e-03 -8.643678693082e-04 0.0 
3.737614183032e-03 -1.102974580782e-03 0.0 
3.980641536749e-02 9.556468773515e-03 0.0 
3.618393900774e-02 9.560225936320e-03 0.0 
4.379009446086e-02 9.509356783148e-03 0.0 
2.989633776397e-01 -5.141985018680e-01 0.0 
4.610075598201e-01 -6.535778134369e-01 0.0 
1.419957041014e-02 -1.788987181181e-04 0.0 
-7.743850902296e-03 2.508371453529e-02 0.0 
-9.135654823468e-03 2.924125989720e-02 0.0 
2.020046682316e-02 -2.539365800606e-02 0.0 
-2.074001562521e-03 -2.656379769872e-02 0.0 
-3.769084503448e-02 4.839918489361e-03 0.0 
-4.227490398732e-02 -3.707548474316e-04 0.0 
1.404421774518e-01 -5.378645991064e-02 0.0 
1.272816692727e-01 -4.468915500636e-02 0.0 
1.574709004121e-01 -7.321446750557e-02 0.0 
-5.249485435382e-02 -5.003392084085e-02 0.0 
-6.169536431080e-02 -6.554223317699e-02 0.0 
-4.932888452201e-02 -6.860860256292e-02 0.0 
1.534718374403e-02 -5.763645018259e-04 0.0 
1.000532580497e-02 -9.051837533976e-04 0.0 
-5.585153099678e-02 -1.024900307233e-01 0.0 
-5.336948635540e-02 -1.284793468470e-01 0.0 
-4.589886009978e-02 -6.179599608697e-02 0.0 
2.102073921886e-02 -7.180908079137e-04 0.0 
-1.146344913679e-02 -2.086488128219e-03 0.0 
-1.670121414083e-02 -3.093016669992e-03 0.0 
6.294732994690e-02 -5.769247105644e-03 0.0 
5.846960235394e-02 -1.301257189790e-02 0.0 
5.717590543546e-01 -3.820757658802e-01 0.0 
5.723411854513e-01 -5.042636974335e-01 0.0 
3.973627359677e-02 -2.145054824483e-03 0.0 
5.138356974134e-02 -2.758583226414e-03 0.0 
2.791990147822e-02 -1.686246861076e-03 0.0 
4.982512585545e-03 3.896629047096e-02 0.0 
5.270052340022e-02 -4.013298335289e-02 0.0 
-2.037754116328e-02 1.143712406632e-02 0.0 
-2.346060966563e-02 9.144723940165e-03 0.0 
-1.837636855225e-02 7.026838776704e-03 0.0 
1.313442834836e-02 -1.248080941281e-02 0.0 
-2.765829634493e-03 1.654279403048e-04 0.0 
9.827145125734e-03 -3.750260271980e-03 0.0 
3.293053692659e-01 -7.247797197795e-01 0.0 
2.822016433925e-03 -1.120176901434e-03 0.0 
2.788502433662e-02 7.532407403545e-03 0.0 
3.213248630757e-01 -6.841914684744e-01 0.0 
2.441453235317e-02 7.664591548043e-03 0.0 
2.016178270896e-02 5.949914536664e-03 0.0 
2.141898765431e-02 7.966683891810e-03 0.0 
1.311179706698e-02 3.752670445599e-02 0.0 
4.520492085272e-02 1.218222126555e-02 0.0 
4.956734167762e-02 1.196164990381e-02 0.0 
8.171068578224e-02 -1.700120040086e-02 0.0 
1.379009189864e-02 -9.723673383337e-04 0.0 
6.329747038187e-02 -2.219990307274e-06 0.0 
5.375631964115e-02 9.042366699730e-03 0.0 
-2.642307315574e-02 -1.209973451351e-02 0.0 
-3.201087095957e-02 -1.279055670371e-02 0.0 
-2.024950447074e-02 -8.624907059490e-03 0.0 
-2.571027066317e-02 -9.364816853026e-03 0.0 
-3.534346758539e-02 -1.193039715101e-02 0.0 
-2.819435366766e-02 -8.455254351125e-03 0.0 
3.296103146312e-02 9.747545780389e-03 0.0 
-1.818081917517e-02 -6.078403949007e-03 0.0 
-2.152752916737e-02 -5.825519416543e-03 0.0 
-1.256471560348e-02 -3.777029970617e-03 0.0 
1.946052751438e-01 -1.662371000238e-02 0.0 
3.063695852292e-01 -1.709924863915e-01 0.0 
4.047891957076e-01 -1.425265520023e-01 0.0 
5.224604164358e-01 -1.632366510033e-01 0.0 
3.833748185254e-02 -1.034284718377e-02 0.0 
9.657518596627e-02 -3.547337045675e-02 0.0 
-1.038497654536e-02 2.656857572246e-03 0.0 
-1.168632678703e-02 5.642368358369e-03 0.0 
1.690294582257e-02 6.340884344172e-03 0.0 
1.239898530582e-02 5.866878076258e-03 0.0 
1.319788648215e-02 4.433293294942e-03 0.0 
9.569561382304e-03 4.240160978343e-03 0.0 
1.009106591655e-02 2.902570594698e-03 0.0 
6.521938212567e-03 2.804309139673e-03 0.0 
7.546223497768e-03 1.625210730453e-03 0.0 
7.182503850880e-03 1.671314403921e-03 0.0 
5.912957825404e-01 -2.314621914178e-01 0.0 
1.272316251862e-01 -9.216785816642e-04 0.0 
-1.385687033021e-02 4.446305413994e-03 0.0 
-1.188570283097e-02 3.858869174470e-03 0.0 
1.895402154247e-01 -3.073899448504e-02 0.0 
3.090861398720e-01 -4.625126113657e-02 0.0 
-2.161872490658e-02 -1.031276700033e-02 0.0 
1.981560112459e-01 -1.994367944076e-01 0.0 
1.082738553596e-02 -1.073983610297e-03 0.0 
5.969654576630e-01 -8.594220113674e-01 0.0 
5.065632261295e-01 -7.690025952200e-01 0.0 
2.023740748536e-01 -1.570259108253e-01 0.0 
1.474361999306e-01 -2.661337511429e-02 0.0 
2.644394930746e-01 -1.085886648556e-01 0.0 
3.433629926571e-01 -1.005510405671e-01 0.0 
-4.561250299855e-02 -3.174961232731e-02 0.0 
7.514820108786e-02 -2.541770936788e-02 0.0 
5.476974110801e-01 -3.438988020065e-01 0.0 
1.098276239505e-02 1.792459825102e-03 0.0 
6.289739285467e-01 -3.696051707060e-01 0.0 
-5.426276969298e-03 4.713930042806e-03 0.0 
1.969888894654e-01 -2.112871877064e-01 0.0 
1.681298464120e-01 -5.813052112719e-02 0.0 
4.198405932495e-01 -3.007014734774e-01 0.0 
2.251675553364e-01 -1.377082033382e-01 0.0 
1.115961566049e-01 -1.069258693040e-02 0.0 
9.398401847556e-02 3.752928548250e-03 0.0 
1.004553219566e-01 -3.874617381886e-04 0.0 
1.843696106024e-01 -2.224945261857e-01 0.0 
2.891888767033e-01 -7.340018438193e-02 0.0 
4.214661666336e-01 -9.180353640105e-02 0.0 
1.393112891088e-01 -3.270726062317e-02 0.0 
6.038435519300e-02 -9.216711289806e-04 0.0 
6.333540478452e-02 -3.614891360102e-03 0.0 
5.319435892043e-02 -5.018304653682e-03 0.0 
6.604150696500e-02 -6.477694814246e-03 0.0 
7.501320423081e-02 -5.216115768769e-03 0.0 
7.863985101586e-02 -9.261591373405e-03 0.0 
6.844642975579e-02 -9.705789485120e-03 0.0 
8.211414875083e-02 -1.455015590314e-02 0.0 
6.796016267275e-02 -1.373114281728e-02 0.0 
8.522699701731e-02 -2.239131286715e-02 0.0 
9.558355726971e-02 -2.110438550261e-02 0.0 
1.009170647363e-01 -3.112621990212e-02 0.0 
9.111955992319e-02 -3.593134587979e-02 0.0 
1.088678691451e-01 -2.761518483334e-02 0.0 
-1.069911277146e-02 4.335463412522e-03 0.0 
2.001638081715e-01 -1.546765188433e-01 0.0 
3.841300568735e-01 -7.241233539154e-01 0.0 
5.576649853603e-01 -6.554294744374e-01 0.0 
1.584482647069e-01 -4.857478633978e-02 0.0 
4.354790342185e-02 -8.989053437996e-03 0.0 
2.771136437737e-02 -5.992893132948e-03 0.0 
1.982398467862e-01 -2.651636126724e-01 0.0 
9.905887716303e-03 -6.069595090282e-04 0.0 
1.108037517889e-01 -6.643713770698e-03 0.0 
2.061033600531e-01 -4.267462482724e-01 0.0 
-2.660658371695e-03 -1.501737010270e-03 0.0 
7.107802316789e-02 -1.762568717507e-03 0.0 
8.133840029859e-02 -3.283461787087e-03 0.0 
7.617890426493e-02 6.381495047701e-04 0.0 
1.690195941505e-02 -1.901804583096e-03 0.0 
4.810301463879e-02 9.166447200237e-03 0.0 
-5.598131612773e-03 3.588171175162e-03 0.0 
3.946644747105e-02 -6.141008690166e-02 0.0 
6.469622335586e-02 -7.917007841673e-02 0.0 
1.099655448398e-01 -1.241993341854e-01 0.0 
9.079120933690e-02 -1.346014465063e-02 0.0 
-7.068232345016e-03 2.737516248305e-03 0.0 
-1.292622960616e-02 5.869212955036e-03 0.0 
-1.430461156938e-02 8.726920737162e-03 0.0 
-1.461198927644e-02 5.620332129636e-03 0.0 
-7.518389024816e-03 4.558902031096e-03 0.0 
3.472125455536e-02 -1.166022335180e-02 0.0 
1.876451609305e-02 -7.595269659669e-03 0.0 
-3.914687617147e-02 -1.434254594290e-01 0.0 
-3.248235339645e-02 -1.736336676618e-01 0.0 
-4.803983923463e-02 -1.488446630345e-01 0.0 
-1.571940842064e-02 -2.023200243854e-01 0.0 
7.426856631241e-03 -2.471331932600e-01 0.0 
3.441073773717e-02 -2.744790978307e-01 0.0 
9.413405049239e-03 -2.219870219083e-01 0.0 
8.861306448141e-02 -3.392512500236e-01 0.0 
1.208424890346e-01 -4.602788925456e-02 0.0 
-6.751941736190e-03 3.944001324417e-03 0.0 
-7.767138832986e-02 -4.726046065085e-02 0.0 
-8.025679438869e-02 -6.716692582645e-02 0.0 
-7.670658093313e-02 -7.227547336315e-02 0.0 
-3.796716284439e-02 1.273353041900e-03 0.0 
-4.613849851307e-02 -7.253762274749e-03 0.0 
-4.964441432693e-02 -8.060976350406e-03 0.0 
-2.974048905286e-02 9.321559409305e-03 0.0 
1.363213980229e-01 -7.931778400575e-02 0.0 
-5.814324237862e-03 7.892098668538e-04 0.0 
-2.959735179880e-02 -5.309118590109e-02 0.0 
-4.929193061699e-02 -1.617479429254e-02 0.0 
5.678104711848e-02 1.717893050095e-02 0.0 
6.099662361804e-02 1.627575349971e-02 0.0 
6.863630048948e-02 1.332859789577e-02 0.0 
6.645617483251e-02 1.105539176156e-02 0.0 
5.501070489374e-02 1.450208656864e-02 0.0 
-3.249572362988e-02 8.596848469031e-03 0.0 
-2.680492329657e-02 1.107551457544e-02 0.0 
-2.053860948256e-02 1.624527793809e-02 0.0 
-2.075369584910e-02 1.243509415040e-02 0.0 
-1.475413740217e-02 1.687327861616e-02 0.0 
-1.445817312757e-02 2.089888226766e-02 0.0 
-1.435189263201e-02 1.283365646221e-02 0.0 
-8.716525654248e-03 1.696115178264e-02 0.0 
4.835865397878e-02 1.484417101179e-02 0.0 
2.545912144547e-01 -3.394296260535e-01 0.0 
1.564405261004e-01 -2.288538259223e-01 0.0 
1.503835945243e-01 -1.358516945527e-01 0.0 
1.009822664995e-01 -1.650611844400e-01 0.0 
1.147060829511e-01 -2.833340557598e-01 0.0 
4.992901630783e-02 -1.958520590033e-01 0.0 
8.143856387095e-02 -3.244723170102e-01 0.0 
1.932632769160e-01 -4.011289495998e-01 0.0 
1.993799211506e-01 -1.252637978910e-01 0.0 
1.360088395855e-01 -9.576655354563e-02 0.0 
1.817928969294e-01 -8.195774639247e-02 0.0 
1.205389655245e-01 -5.451877539809e-02 0.0 
8.356492585007e-02 -6.922791899407e-02 0.0 
3.512994302483e-02 -1.194485209244e-02 0.0 
-6.069068666533e-03 -1.700541949796e-03 0.0 
-4.617667909672e-03 2.984887470868e-02 0.0 
-8.068596054292e-03 3.045313607787e-02 0.0 
-5.857946396617e-03 3.394646114818e-02 0.0 
-1.089887666696e-02 2.942398567484e-02 0.0 
-9.331531631959e-03 2.684230350272e-02 0.0 
-2.212723733877e-03 3.742888532503e-02 0.0 
-3.186819064906e-03 3.660081942847e-02 0.0 
2.564872711197e-02 9.579123892625e-03 0.0 
3.248549875983e-02 9.803871632441e-03 0.0 
1.998402391989e-03 7.402747344821e-03 0.0 
1.789115156536e-02 3.030651199689e-02 0.0 
3.348736991979e-02 1.948565967109e-02 0.0 
3.723910185574e-02 1.731439898329e-02 0.0 
4.147753659772e-02 1.830378831491e-02 0.0 
4.651565834222e-02 1.466174482541e-02 0.0 
4.731376367775e-02 1.629815566462e-02 0.0 
4.314761264761e-02 2.059939423427e-02 0.0 
5.565574199790e-02 9.455153985990e-03 0.0 
2.364892620673e-03 -1.616262436804e-05 0.0 
4.451355756786e-03 -3.886760203072e-04 0.0 
-9.355087226176e-03 -5.188730835878e-03 0.0 
3.836215176507e-02 1.215071421246e-02 0.0 
1.014382536314e-01 -3.204340245087e-02 0.0 
3.467893176132e-03 -8.539187717978e-04 0.0 
5.620502371466e-03 -7.384397290605e-04 0.0 
4.391998823543e-03 -6.911974584793e-04 0.0 
-3.544358608925e-03 -3.095548395276e-05 0.0 
-5.772820243068e-03 -8.979351121930e-04 0.0 
1.869409136946e-03 -8.319508911169e-04 0.0 
-8.579110410911e-03 -3.031384461570e-03 0.0 
5.488680957329e-02 -7.236265483165e-03 0.0 
1.014664284298e-02 -7.391522084043e-04 0.0 
3.103303604157e-01 -4.328048881961e-01 0.0 
-1.782937486859e-02 -4.436615169819e-02 0.0 
-1.827972507757e-02 5.602424054498e-03 0.0 
-5.048663305620e-02 -9.452675990032e-03 0.0 
-2.187033156111e-02 -2.638359571167e-03 0.0 
-3.188342187486e-02 3.033375785934e-03 0.0 
-3.549404658245e-02 -6.898299311368e-03 0.0 
-1.677839654109e-02 8.224987616696e-03 0.0 
1.972655178042e-02 3.475317400500e-02 0.0 
2.955528822218e-02 5.515980075355e-03 0.0 
1.908845373412e-02 4.190683921861e-03 0.0 
1.731842171341e-02 9.098239778175e-04 0.0 
-5.556181341152e-03 1.986657294836e-02 0.0 
-1.964429758192e-02 1.972914550835e-02 0.0 
2.668692851150e-02 1.294189425747e-02 0.0 
1.682954177961e-02 -9.805135903193e-03 0.0 
1.388536808855e-01 -2.898462607510e-02 0.0 
-7.229779150033e-02 -6.130407624399e-02 0.0 
-3.153694694683e-02 2.867500380072e-03 0.0 
-2.083519011699e-02 -1.466299324403e-02 0.0 
-1.486151082009e-02 -6.565787702326e-02 0.0 
1.913724892426e-01 -1.443087661484e-01 0.0 
-5.737754280762e-02 -2.623805155367e-02 0.0 
-6.110743742911e-02 -2.323699080647e-02 0.0 
1.305803212138e-02 9.468914851861e-06 0.0 
7.310924179997e-02 -4.640091558168e-03 0.0 
-6.149807182883e-02 -2.474219918870e-02 0.0 
-6.261057379792e-02 -2.277056660284e-02 0.0 
4.188456994229e-02 7.030653061597e-03 0.0 
-3.446153518191e-03 -1.134603287499e-02 0.0 
2.980077714594e-02 -1.368896385037e-01 0.0 
2.589197787835e-02 1.520754817527e-03 0.0 
2.932441664150e-02 -8.919583064708e-04 0.0 
5.401685511947e-02 1.135211485985e-02 0.0 
4.162616312609e-02 1.168626593509e-02 0.0 
3.136744151064e-02 7.544974247308e-03 0.0 
-3.195285110834e-02 -5.232126606475e-03 0.0 
5.708850065310e-02 1.509311292214e-03 0.0 
1.179681666124e-03 2.597367119277e-02 0.0 
-5.902317007785e-03 -9.106402056359e-02 0.0 
1.789908778390e-01 -7.211293017787e-02 0.0 
1.172886891658e-01 1.779464860562e-02 0.0 
1.055588757454e-02 -8.147711842045e-04 0.0 
1.633125482320e-01 -1.409250933084e-01 0.0 
-1.369183801252e-02 -2.178146196981e-03 0.0 
-1.306866803291e-02 -3.956748829574e-02 0.0 
-2.214732408538e-03 3.057846977858e-02 0.0 
-4.320944046289e-02 -1.595644776478e-02 0.0 
9.551561516062e-02 -1.321310101311e-01 0.0 
2.095087564989e-02 1.122701173949e-04 0.0 
1.484358775010e-01 -7.234753140484e-02 0.0 
7.563269087765e-02 -2.173473792780e-01 0.0 
3.639110179625e-02 1.467831432942e-03 0.0 
-7.947428961393e-02 -8.573802095926e-02 0.0 
-1.994372119051e-03 -8.654124282008e-03 0.0 
1.481069740455e-01 -3.417900508072e-02 0.0 
1.690769199452e-01 -7.406183168980e-02 0.0 
1.254709008903e-01 -3.164709723045e-02 0.0 
1.758372396634e-01 -1.083690332634e-01 0.0 
-1.240383369174e-02 9.294018687419e-03 0.0 
-5.208188922554e-02 -2.031530565001e-02 0.0 
1.090437802326e-01 -4.442646541222e-01 0.0 
1.919085438462e-01 -1.339825074260e-01 0.0 
5.266332194718e-02 8.180840192967e-03 0.0 
4.636592264115e-02 -1.852616323512e-02 0.0 
1.479720619934e-02 -7.412963472499e-04 0.0 
1.772651623824e-01 -6.632112540992e-02 0.0 
-4.407803388913e-02 -1.362771702938e-02 0.0 
2.920320278839e-02 -2.174850492524e-04 0.0 
-5.389871602311e-02 -1.598803846475e-02 0.0 
6.389783564164e-03 4.206484433554e-02 0.0 
4.641224049344e-01 -5.336914092218e-01 0.0 
1.175174449229e-01 -3.266018463089e-01 0.0 
1.575162682682e-01 -1.539716086509e-01 0.0 
-5.647236224315e-02 -1.563032767209e-02 0.0 
3.881296260198e-02 -4.309341057110e-03 0.0 
-3.632157985140e-02 -9.812800512422e-03 0.0 
-5.751304529593e-02 -2.775497757660e-02 0.0 
6.779302288768e-01 -4.375190999135e-01 0.0 
1.061074853738e-01 2.078557098347e-03 0.0 
-2.916606469364e-02 -6.793908194852e-03 0.0 
-3.053320036613e-02 -7.722045683230e-02 0.0 
-8.524190724983e-03 -2.132278465241e-03 0.0 
-9.004637592254e-03 2.089305089986e-02 0.0 
8.773178328157e-03 -2.342937090164e-03 0.0 
2.465189811290e-01 -3.493667792384e-02 0.0 
-2.256137475829e-02 -4.575944608115e-03 0.0 
-2.903459702425e-02 -1.730368802006e-02 0.0 
2.022555314683e-01 -2.201916531799e-01 0.0 
1.091779682041e-02 7.294504606176e-03 0.0 
-1.445056416703e-02 -3.711824292454e-03 0.0 
-2.454486507400e-02 -1.919341200870e-03 0.0 
1.661020146417e-01 -9.985956364385e-02 0.0 
-5.284323983934e-02 -9.153323976700e-02 0.0 
1.900224816312e-01 3.941898059732e-03 0.0 
-5.108512552781e-02 -8.771273322600e-03 0.0 
1.580218652277e-01 -6.159225428943e-02 0.0 
1.316742335731e-02 -1.306287374747e-03 0.0 
-1.775899899446e-02 1.926493895665e-03 0.0 
8.523147503298e-02 -7.137945933167e-04 0.0 
-4.460481884945e-02 -1.996838692564e-03 0.0 
4.971498426027e-02 -5.233957762358e-02 0.0 
3.746196104159e-02 2.069508568383e-02 0.0 
1.536380316941e-01 -5.450956175456e-04 0.0 
-3.894905237389e-02 2.535163191301e-03 0.0 
6.583199359389e-02 -2.844095453655e-01 0.0 
-6.929063522120e-02 -8.257456415244e-02 0.0 
-1.102764013771e-02 5.789381020362e-03 0.0 
-3.288069585954e-02 5.725950300531e-03 0.0 
4.061163220928e-02 -2.268066529289e-01 0.0 
-2.653376778210e-02 7.785695400140e-03 0.0 
2.957475012914e-01 -1.620976396495e-02 0.0 
9.117468925730e-02 -5.797298511366e-03 0.0 
-1.979150462269e-02 8.940515996890e-03 0.0 
1.508401084638e-01 -6.262488462350e-02 0.0 
4.657706373385e-02 1.681336232089e-02 0.0 
1.342858193975e-01 -9.283807557308e-02 0.0 
-8.198012638062e-03 3.947570259634e-04 0.0 
-4.515213665926e-02 -4.311582591827e-02 0.0 
-7.929328859590e-02 -7.852207720961e-02 0.0 
8.615652749217e-02 -7.861807994278e-03 0.0 
4.068066825712e-01 -4.505308930756e-02 0.0 
-6.966445630558e-02 -6.455263040750e-02 0.0 
1.407951219433e-01 -6.335891623473e-02 0.0 
7.304979102911e-02 -5.801665019659e-02 0.0 
1.202922399890e-01 -1.167742605832e-01 0.0 
-6.430780890821e-02 -4.624268617168e-02 0.0 
3.596336080820e-01 -6.549144924944e-02 0.0 
-4.741398343010e-03 -1.308487364025e-02 0.0 
1.354092611094e-02 -1.236863741755e-02 0.0 
-1.315462394140e-02 -1.739758404318e-01 0.0 
1.327494048192e-01 -5.481701243973e-02 0.0 
1.919298337818e-02 3.496105899569e-02 0.0 
1.027049589386e-01 -1.889435381901e-02 0.0 
4.621460018990e-02 -2.462741468999e-02 0.0 
-3.468653802227e-02 -1.656557590031e-01 0.0 
2.880549513612e-02 -2.666706876056e-02 0.0 
2.940157207716e-03 2.318305755159e-03 0.0 
-5.864896534617e-02 -1.296625985039e-01 0.0 
1.745525126391e-03 4.196043593104e-02 0.0 
-6.346318819852e-02 -1.169004343965e-01 0.0 
6.941569620535e-02 -7.220538925526e-02 0.0 
-6.440481814936e-02 -9.426820752695e-02 0.0 
-5.634855956178e-02 -7.893840933976e-02 0.0 
6.959761165989e-03 -9.984248049185e-04 0.0 
-5.584063804490e-02 -5.846883857718e-02 0.0 
9.313068242882e-04 -7.286993527117e-04 0.0 
-2.586310983543e-03 -1.089867515622e-03 0.0 
4.029880315468e-03 5.513710736292e-03 0.0 
5.120177884183e-01 -8.199310639001e-02 0.0 
4.273837985948e-01 -8.020916293567e-01 0.0 
4.553341067625e-01 -1.244804753605e-01 0.0 
-3.339753439299e-02 -4.441193242401e-02 0.0 
1.210659015329e-01 -3.428996923045e-02 0.0 
8.359064193672e-03 5.656732890405e-03 0.0 
-1.935189145567e-02 -2.767350445973e-02 0.0 
7.619887253869e-02 -2.430943163459e-02 0.0 
-3.226010969909e-03 4.786324108931e-03 0.0 
5.119119060212e-03 4.584758465535e-04 0.0 
-1.163717917307e-02 8.535601111716e-04 0.0 
5.126819133368e-02 -4.675984623379e-02 0.0 
1.404262949789e-03 -1.084897229155e-03 0.0 
2.520745657532e-02 9.474068915657e-03 0.0 
1.017481184757e-01 -3.149851158628e-02 0.0 
-6.047392342457e-03 8.243141716421e-03 0.0 
5.878158366579e-01 -1.448434551807e-01 0.0 
5.618421884238e-01 -2.299041086876e-01 0.0 
6.134916119625e-01 -3.208926912076e-01 0.0 
-3.400820277833e-03 3.417282717105e-02 0.0 
1.003919303658e-01 -1.120993834482e-01 0.0 
6.300128104415e-01 -2.392001820703e-01 0.0 
-1.218605212334e-02 4.723775437700e-03 0.0 
4.064747673719e-02 1.144064651322e-02 0.0 
3.042040091899e-02 -2.219170185797e-02 0.0 
6.618436776723e-01 -3.334247354285e-01 0.0 
2.056486345315e-02 -1.143501196279e-03 0.0 
-7.171585141807e-03 3.177595699629e-03 0.0 
-9.478281650390e-03 -4.005977812809e-03 0.0 
1.168304087181e-02 -8.925175771401e-03 0.0 
6.412126902902e-01 -4.169463525466e-01 0.0 
5.925471630510e-02 1.317964773722e-02 0.0 
2.564412805229e-02 -7.770254721595e-03 0.0 
6.829896788639e-03 -1.645182930844e-04 0.0 
-8.144122232934e-03 -2.848707488873e-03 0.0 
5.030555124119e-02 1.395795445281e-02 0.0 
4.136673310120e-03 -1.050361621601e-03 0.0 
9.537284371221e-02 -4.137858190125e-01 0.0 
2.093214766222e-03 -1.054174213093e-03 0.0 
1.148993402107e-01 -3.601735143656e-02 0.0 
1.655135251987e-02 4.530545169676e-03 0.0 
7.324042449447e-02 9.699693741487e-03 0.0 
-6.942860401369e-03 -1.552380063320e-03 0.0 
5.541676901140e-02 -9.247082181194e-03 0.0 
6.340435890427e-01 -5.680172822729e-01 0.0 
8.057104510427e-03 7.790278765691e-04 0.0 
-1.464175218083e-02 2.546796782625e-02 0.0 
2.494907269074e-01 -5.452372079262e-01 0.0 
-2.032833489160e-02 -1.022257078229e-02 0.0 
1.067098674641e-01 -3.727911259336e-02 0.0 
-1.124407371236e-02 -2.643885727242e-03 0.0 
6.750693155642e-03 1.608943833553e-02 0.0 
7.310062450003e-02 -1.027970239807e-02 0.0 
-1.561210892203e-02 -3.034848655144e-03 0.0 
4.512222803186e-02 -1.465704834848e-02 0.0 
3.642770869859e-02 -2.666157334910e-01 0.0 
6.414803248541e-03 -7.226546727124e-04 0.0 
6.321829500130e-01 -7.226530084662e-01 0.0 
3.416968056669e-02 1.160371234202e-02 0.0 
5.591381214809e-02 1.118894624182e-02 0.0 
-6.941352408113e-03 -2.146313748894e-03 0.0 
1.069224107084e-02 -8.947964005984e-04 0.0 
-1.229265780706e-02 2.688236583883e-02 0.0 
6.878816812724e-02 1.462612509929e-02 0.0 
3.112919274958e-04 3.858814107855e-02 0.0 
2.293383488188e-02 -6.352495379358e-03 0.0 
8.719617632912e-02 -4.154557838441e-02 0.0 
6.993462045151e-03 -9.058649448072e-04 0.0 
-1.426470894954e-02 7.541373382234e-03 0.0 
2.966029476873e-02 -2.828435565094e-03 0.0 
-4.500507106116e-03 1.879461858924e-03 0.0 
4.185087236012e-01 -8.241937316642e-01 0.0 
-1.801657140141e-03 4.491929875274e-03 0.0 
-1.941418538552e-02 8.779322549923e-03 0.0 
1.901241197499e-02 8.497781847236e-03 0.0 
4.287403940816e-02 -6.153845903717e-03 0.0 
-6.942006688525e-03 3.256987421640e-02 0.0 
3.688943669908e-02 2.221585284506e-02 0.0 
3.918249680108e-04 -6.338387185805e-04 0.0 
7.286968594149e-03 4.023989071921e-03 0.0 
3.221408760191e-03 7.090894402326e-03 0.0 
-1.008930335383e-03 -7.744799238926e-04 0.0 
3.044892949811e-02 2.506440540156e-02 0.0 
6.514153979261e-03 4.378181371770e-03 0.0 
6.049348347959e-02 -2.727079072283e-02 0.0 
-4.013046573027e-03 2.091965332630e-02 0.0 
3.286573511840e-03 -8.598613320900e-04 0.0 
6.742371013186e-02 -1.366066825118e-01 0.0 
3.904118146152e-01 -6.741978085938e-01 0.0 
5.000932967564e-03 1.695523999807e-03 0.0 
-1.025984775596e-02 5.171550048450e-03 0.0 
2.018147595726e-02 -1.356619329413e-03 0.0 
1.311756639265e-02 3.286827665643e-03 0.0 
5.474759791739e-01 -5.760995641336e-01 0.0 
9.037722825617e-02 -3.451143637016e-02 0.0 
-1.442148863184e-02 2.359522154284e-02 0.0 
3.719574293711e-02 -1.720960097730e-02 0.0 
-1.301949119832e-02 5.041832877042e-03 0.0 
6.423990059834e-01 -7.209813009774e-01 0.0 
-3.691205021001e-03 1.650135192443e-02 0.0 
6.224723511805e-02 4.917513736043e-03 0.0 
-1.732701520259e-02 -6.643281503185e-03 0.0 
-1.001063812553e-02 2.359747784498e-02 0.0 

VECTORS node_materi_displacement float
0.0 6.549314279513e-02 0.0 
0.0 1.649916032927e-01 0.0 
0.0 0.0 0.0 
0.0 0.0 0.0 
0.0 6.668510534734e-02 0.0 
0.0 6.716176359218e-02 0.0 
0.0 6.712368010925e-02 0.0 
0.0 6.641137674238e-02 0.0 
0.0 6.473292264257e-02 0.0 
0.0 6.247233601328e-02 0.0 
0.0 5.973915573226e-02 0.0 
0.0 5.661028908217e-02 0.0 
0.0 5.316348498500e-02 0.0 
0.0 4.945109655734e-02 0.0 
0.0 4.549713911207e-02 0.0 
0.0 4.133057913347e-02 0.0 
0.0 3.695418636964e-02 0.0 
0.0 3.236764779374e-02 0.0 
0.0 2.755431384709e-02 0.0 
0.0 2.250611439652e-02 0.0 
0.0 1.722205555051e-02 0.0 
0.0 1.170085685165e-02 0.0 
0.0 5.959536910743e-03 0.0 
0.0 0.0 0.0 
0.0 0.0 0.0 
0.0 0.0 0.0 
0.0 0.0 0.0 
0.0 0.0 0.0 
0.0 0.0 0.0 
0.0 0.0 0.0 
0.0 0.0 0.0 
0.0 0.0 0.0 
0.0 0.0 0.0 
0.0 0.0 0.0 
0.0 0.0 0.0 
0.0 0.0 0.0 
0.0 0.0 0.0 
0.0 0.0 0.0 
0.0 0.0 0.0 
0.0 0.0 0.0 
0.0 0.0 0.0 
0.0 0.0 0.0 
0.0 0.0 0.0 
0.0 0.0 0.0 
0.0 0.0 0.0 
0.0 0.0 0.0 
0.0 0.0 0.0 
0.0 0.0 0.0 
0.0 0.0 0.0 
0.0 0.0 0.0 
0.0 0.0 0.0 
0.0 0.0 0.0 
0.0 0.0 0.0 
0.0 0.0 0.0 
0.0 0.0 0.0 
0.0 0.0 0.0 
0.0 0.0 0.0 
0.0 0.0 0.0 
0.0 0.0 0.0 
0.0 0.0 0.0 
0.0 0.0 0.0 
0.0 0.0 0.0 
0.0 0.0 0.0 
0.0 0.0 0.0 
0.0 0.0 0.0 
0.0 0.0 0.0 
0.0 0.0 0.0 
0.0 0.0 0.0 
0.0 0.0 0.0 
0.0 0.0 0.0 
0.0 0.0 0.0 
0.0 0.0 0.0 
0.0 1.499095780388e-01 0.0 
0.0 1.344117067626e-01 0.0 
0.0 1.185338050059e-01 0.0 
0.0 1.023134884202e-01 0.0 
0.0 8.578736687962e-02 0.0 
0.0 6.899629461358e-02 0.0 
0.0 5.198231632216e-02 0.0 
0.0 3.478721781768e-02 0.0 
0.0 1.745702197534e-02 0.0 
2.265440888846e-02 -5.624152526819e-02 0.0 
4.084745532342e-02 1.462104671700e-01 0.0 
3.152485575412e-02 -2.289107302426e-03 0.0 
3.527159464092e-02 3.309161690222e-02 0.0 
3.975556557480e-02 6.254870818320e-02 0.0 
4.464381352854e-02 8.735863461966e-02 0.0 
4.886191978058e-02 1.074718507906e-01 0.0 
5.194780185339e-02 1.237204668586e-01 0.0 
5.352011504899e-02 1.357784512924e-01 0.0 
5.291616374810e-02 1.437724017518e-01 0.0 
4.927287353504e-02 1.479961934292e-01 0.0 
2.344948680337e-03 1.650556381592e-01 0.0 
4.628582061612e-03 1.650197186005e-01 0.0 
6.935494419039e-03 1.650104444633e-01 0.0 
9.268564608047e-03 1.649961741054e-01 0.0 
1.163141421768e-02 1.649123834530e-01 0.0 
1.400807401340e-02 1.647630701050e-01 0.0 
1.642261741781e-02 1.644990505391e-01 0.0 
1.886450393468e-02 1.640553675428e-01 0.0 
2.135185007747e-02 1.633739409417e-01 0.0 
2.390326025553e-02 1.623856544515e-01 0.0 
2.652274232269e-02 1.609198313915e-01 0.0 
2.929101582868e-02 1.588261260723e-01 0.0 
3.233656929782e-02 1.559433792555e-01 0.0 
3.593680753334e-02 1.522678688592e-01 0.0 
2.474230584271e-02 -7.145341895396e-02 0.0 
2.772752597928e-02 -7.357683074753e-02 0.0 
3.101749436985e-02 -7.126167590307e-02 0.0 
3.522444253086e-02 -6.279869260051e-02 0.0 
3.775718469723e-02 -4.486713347836e-02 0.0 
3.800605337947e-02 -2.274490968648e-02 0.0 
3.614618113291e-02 -7.389592909292e-03 0.0 
3.314036457303e-02 4.314272827800e-03 0.0 
3.146679598179e-02 1.434049342044e-02 0.0 
2.900202654053e-02 2.310515377863e-02 0.0 
2.682507483182e-02 3.131420490488e-02 0.0 
2.478915954870e-02 3.840276735509e-02 0.0 
2.248822146836e-02 4.477318445005e-02 0.0 
1.982399902247e-02 5.037309181206e-02 0.0 
1.684914200552e-02 5.510856970322e-02 0.0 
1.368475996459e-02 5.890457686335e-02 0.0 
1.037864115671e-02 6.183182546198e-02 0.0 
7.014034434214e-03 6.389983027930e-02 0.0 
3.530061714614e-03 6.507769235316e-02 0.0 
2.929467199087e-02 -2.454521969442e-02 0.0 
3.332650992656e-02 1.638935911276e-02 0.0 
3.741515431221e-02 4.826792415287e-02 0.0 
4.212223314696e-02 7.610914876606e-02 0.0 
4.712531419711e-02 9.817705749382e-02 0.0 
5.072841634294e-02 1.163119902900e-01 0.0 
5.296836705529e-02 1.302222086127e-01 0.0 
5.350903943917e-02 1.402146005892e-01 0.0 
5.153313578206e-02 1.463520256139e-01 0.0 
4.584364082722e-02 1.483584037924e-01 0.0 
3.984870899849e-02 1.379211009202e-02 0.0 
3.339339992809e-03 4.334622381414e-03 0.0 
2.292179948251e-02 1.936787938077e-02 0.0 
2.524465923536e-02 -5.251648485691e-02 0.0 
-7.402568158224e-05 3.677093518239e-03 0.0 
4.867557910150e-02 7.265902124594e-02 0.0 
-1.401708071354e-03 4.719781052903e-02 0.0 
6.206868561008e-03 5.633006410991e-03 0.0 
5.530088047738e-02 1.087153341452e-01 0.0 
8.139861298380e-03 7.116090623011e-03 0.0 
5.543637594854e-02 1.299237567772e-01 0.0 
-1.182965170304e-03 3.988568493029e-03 0.0 
1.657303218275e-02 4.895533748744e-02 0.0 
9.842873714935e-03 8.887632491231e-03 0.0 
4.494097719985e-02 1.340858036116e-01 0.0 
-8.108551947648e-04 6.077202998636e-02 0.0 
-1.299073416210e-03 3.545759994774e-02 0.0 
1.054650710676e-02 1.091399757830e-02 0.0 
7.882343248923e-03 1.265211663285e-02 0.0 
2.384994283615e-03 1.477918152826e-02 0.0 
4.404486476241e-03 1.567976181897e-02 0.0 
5.789424754187e-03 1.343115481903e-02 0.0 
3.571414252455e-02 1.407764483983e-01 0.0 
2.322172543628e-02 1.492729093072e-01 0.0 
1.535627499418e-02 1.506410959588e-01 0.0 
1.539892867862e-03 9.382923401432e-02 0.0 
-1.105962463023e-03 4.829109143420e-03 0.0 
2.795341841379e-02 -6.912873692603e-02 0.0 
9.639749821834e-03 6.145076049243e-02 0.0 
-8.440050987309e-04 2.022524203995e-02 0.0 
7.944371880061e-03 1.520208427848e-01 0.0 
8.410148447990e-04 6.655593830484e-02 0.0 
1.044118540656e-02 1.346766693612e-02 0.0 
6.726439281396e-03 5.835733546233e-03 0.0 
8.888330589740e-03 7.869267501202e-03 0.0 
5.201880571280e-03 5.233238681958e-03 0.0 
1.766067649375e-03 3.689095575631e-03 0.0 
2.457221527374e-02 -1.408720219377e-02 0.0 
2.900375938210e-02 1.472234803181e-01 0.0 
-1.069087435757e-03 4.482222727025e-03 0.0 
1.182047377983e-03 6.123467321712e-02 0.0 
1.994187995852e-02 3.545074639994e-02 0.0 
-1.287661488138e-03 5.464627080018e-02 0.0 
1.197640211683e-03 1.207831752267e-02 0.0 
5.270197939764e-02 9.134406158839e-02 0.0 
4.395361577844e-02 4.560313472984e-02 0.0 
5.645604842751e-02 1.211959512018e-01 0.0 
5.169500738361e-02 1.343837847177e-01 0.0 
3.649190629840e-02 -2.655833552227e-02 0.0 
1.838494212139e-03 1.246211471093e-01 0.0 
-5.575710454080e-04 4.003484748880e-03 0.0 
4.378258053107e-03 6.558889645208e-02 0.0 
6.563570101822e-04 2.741275829468e-02 0.0 
4.308512258633e-02 1.311215068515e-01 0.0 
4.620312396694e-02 1.207484922086e-01 0.0 
4.261685044044e-02 1.198084494927e-01 0.0 
4.576967988601e-02 1.078409756311e-01 0.0 
4.235746951881e-02 1.044944192188e-01 0.0 
4.429770158714e-02 9.443258401222e-02 0.0 
4.792402449923e-02 9.713535316281e-02 0.0 
4.560826615843e-02 8.457408994068e-02 0.0 
4.934877959379e-02 8.694107923724e-02 0.0 
4.043491667750e-02 9.049999437596e-02 0.0 
4.623790146246e-02 7.507169545504e-02 0.0 
5.006730930026e-02 7.716774976544e-02 0.0 
4.620271484617e-02 6.601393857305e-02 0.0 
5.008206300923e-02 6.787160485003e-02 0.0 
5.361249010048e-02 7.828635713772e-02 0.0 
5.366484244505e-02 6.879292817769e-02 0.0 
5.678465647294e-02 7.837274247119e-02 0.0 
5.686876903008e-02 6.867056814173e-02 0.0 
5.303129682762e-02 5.988023960199e-02 0.0 
5.623491475264e-02 5.961778395057e-02 0.0 
5.955458782815e-02 6.749242982158e-02 0.0 
5.890638762120e-02 5.830408787347e-02 0.0 
6.166396405377e-02 6.522824415356e-02 0.0 
6.096103370366e-02 5.590633398206e-02 0.0 
6.316899257482e-02 6.185967610911e-02 0.0 
6.238811968238e-02 5.250303227256e-02 0.0 
5.958670694587e-02 4.732953768305e-02 0.0 
6.092961297513e-02 4.402904597018e-02 0.0 
6.314890307845e-02 4.822072928791e-02 0.0 
6.138635548169e-02 3.958802670614e-02 0.0 
6.298626031278e-02 4.259956155572e-02 0.0 
6.073610371121e-02 3.380893729536e-02 0.0 
5.820698260627e-02 3.215218819333e-02 0.0 
5.701772472359e-02 2.658001579112e-02 0.0 
5.891965758462e-02 2.683389739457e-02 0.0 
5.459689991283e-02 2.001321551747e-02 0.0 
5.595807034854e-02 1.882282411135e-02 0.0 
5.091286942888e-02 1.253752941983e-02 0.0 
5.182454271525e-02 9.923199412281e-03 0.0 
4.591226974627e-02 4.372537581737e-03 0.0 
4.406504856409e-02 8.649645606843e-03 0.0 
3.833168308734e-02 1.557561254448e-03 0.0 
3.973687996642e-02 -3.934778553572e-03 0.0 
3.166256217701e-02 -5.183521553759e-03 0.0 
2.983914127613e-02 1.134852314007e-03 0.0 
2.319690916082e-02 -4.105713562625e-03 0.0 
2.166432280871e-02 2.067204321573e-03 0.0 
1.550709885108e-02 -1.885444420050e-03 0.0 
1.663284093596e-02 -7.884434416224e-03 0.0 
9.787203906768e-03 -4.252446822294e-03 0.0 
9.254575184457e-03 6.995505342986e-04 0.0 
4.487969120206e-03 -5.039800193232e-04 0.0 
4.933009751504e-03 -4.847350657666e-03 0.0 
7.026055236429e-04 -4.285681852742e-05 0.0 
6.166366689857e-04 3.158527482925e-03 0.0 
-2.274450534483e-03 4.410274725884e-03 0.0 
-2.156574386416e-03 1.751213833957e-03 0.0 
-4.433289825591e-03 6.746133317573e-03 0.0 
-4.381132022714e-03 8.652814464073e-03 0.0 
-6.196675505947e-03 1.155170311596e-02 0.0 
-6.064742076980e-03 1.008781490606e-02 0.0 
-7.483516872310e-03 1.525952884864e-02 0.0 
-7.477879984085e-03 1.604392802527e-02 0.0 
-8.449506753864e-03 1.998266201356e-02 0.0 
-8.268126759803e-03 2.004509651930e-02 0.0 
-8.238907064291e-03 1.971212015902e-02 0.0 
-8.909704069088e-03 2.447165124162e-02 0.0 
-8.434498856046e-03 2.471566417419e-02 0.0 
-8.871501659355e-03 2.935979920039e-02 0.0 
5.333894193901e-02 2.643647250725e-02 0.0 
-8.083629061871e-03 3.003705678296e-02 0.0 
-7.423736978136e-03 2.477956914010e-02 0.0 
-8.362752815677e-03 3.447829896868e-02 0.0 
-8.914276937405e-03 3.324654626052e-02 0.0 
-7.249717121193e-03 3.554111324231e-02 0.0 
-7.449939891213e-03 3.967709027389e-02 0.0 
-6.024863305035e-03 4.104037452157e-02 0.0 
5.593520203028e-02 1.769092975946e-02 0.0 
5.173065036973e-02 5.159746141157e-02 0.0 
-6.217808829605e-03 4.478641541246e-02 0.0 
-4.527277154658e-03 4.635883125220e-02 0.0 
-3.885766554238e-03 4.219382286964e-02 0.0 
-2.121917421259e-03 4.765594867363e-02 0.0 
3.862127631008e-02 1.002756297901e-01 0.0 
3.637629461155e-02 8.562968245322e-02 0.0 
3.478360714110e-02 9.511767825208e-02 0.0 
3.218426222039e-02 7.998595090805e-02 0.0 
3.083613378882e-02 8.900956904580e-02 0.0 
-2.891614876186e-03 5.133936247604e-02 0.0 
4.198965751826e-02 6.282832856634e-02 0.0 
3.298818756752e-02 7.088635870907e-02 0.0 
6.163524070035e-02 7.528932870296e-02 0.0 
6.420490292894e-02 5.228281309721e-02 0.0 
2.758448123453e-02 6.963960514358e-03 0.0 
-7.277124251800e-03 4.296750657400e-02 0.0 
-6.035266156728e-03 4.767452402797e-02 0.0 
-6.760081219643e-03 4.541484965774e-02 0.0 
-7.104082977377e-03 1.654767695688e-02 0.0 
-7.718842919762e-03 1.979574187313e-02 0.0 
-6.397971370838e-03 1.668186756430e-02 0.0 
-6.880617803983e-03 1.915467472514e-02 0.0 
-5.460892856930e-03 1.634941273566e-02 0.0 
-5.888790286119e-03 1.806299144672e-02 0.0 
-7.000960199001e-03 2.107742936553e-02 0.0 
-6.004234187463e-03 1.928595232380e-02 0.0 
-6.832725233939e-03 2.243850316460e-02 0.0 
-4.459660994013e-03 1.548576934318e-02 0.0 
-3.702269515959e-03 1.408874268785e-02 0.0 
-5.856274819000e-03 2.000791334455e-02 0.0 
-6.429861246884e-03 2.323374220254e-02 0.0 
-5.491857227115e-03 2.021662462699e-02 0.0 
-5.835940199790e-03 2.347679758582e-02 0.0 
-6.674289835702e-03 2.668579105069e-02 0.0 
-5.867345519069e-03 2.690131020711e-02 0.0 
-6.598596247328e-03 3.029018717716e-02 0.0 
2.027377033829e-02 7.313402628081e-03 0.0 
2.530790347706e-02 1.161004723060e-02 0.0 
1.893621053148e-02 1.134707554485e-02 0.0 
2.288356157746e-02 1.468508577809e-02 0.0 
1.751008382637e-02 1.372740745987e-02 0.0 
2.043071468000e-02 1.602508509465e-02 0.0 
1.586618131650e-02 1.456833240997e-02 0.0 
1.302455267278e-02 1.283243053165e-02 0.0 
4.552195847355e-02 5.729251147646e-02 0.0 
3.277111713741e-02 -1.155092830010e-02 0.0 
4.007801520230e-02 -9.220207777091e-03 0.0 
3.306140480050e-02 -1.778337203021e-02 0.0 
3.941602091857e-02 -1.425397933528e-02 0.0 
3.258620668756e-02 -2.373469105169e-02 0.0 
3.821726941833e-02 -1.916554988130e-02 0.0 
3.174737628982e-02 -2.959606933835e-02 0.0 
2.594043903531e-02 -3.079529861742e-02 0.0 
2.560809725962e-02 -3.730003701803e-02 0.0 
1.988301591694e-02 -3.474584266619e-02 0.0 
2.031252010039e-02 -4.154882592996e-02 0.0 
1.471759936010e-02 -3.532107130292e-02 0.0 
5.717056368680e-02 3.984417003488e-02 0.0 
2.580088575698e-02 1.755191071982e-02 0.0 
2.234761506300e-02 1.774159639957e-02 0.0 
2.761442244304e-02 1.971915184897e-02 0.0 
-9.637621164575e-04 4.313234143515e-02 0.0 
-5.083845596515e-03 2.319174990870e-02 0.0 
-2.763506256438e-03 1.340529453177e-02 0.0 
-1.668413523540e-03 1.247414735142e-02 0.0 
1.189832743311e-02 1.327315521026e-02 0.0 
-3.133108186667e-04 5.266234346826e-02 0.0 
3.682280736134e-02 -2.399575358327e-02 0.0 
4.277734140786e-02 -1.098406196162e-02 0.0 
2.795242873859e-02 7.344881282425e-02 0.0 
2.688385266198e-02 8.212777068745e-02 0.0 
-8.537263135706e-04 1.191896327764e-02 0.0 
-1.266272904020e-03 5.585379969773e-02 0.0 
-5.012592917341e-03 1.704496318328e-02 0.0 
2.525971902703e-02 -4.389444447018e-02 0.0 
-4.937828061639e-03 2.656976134147e-02 0.0 
-4.211118039966e-03 2.241733146430e-02 0.0 
-7.743391495144e-03 2.446263345003e-02 0.0 
2.323731627745e-02 1.875040952982e-02 0.0 
2.843587789529e-02 2.111180701885e-02 0.0 
1.365858061620e-02 -2.854488532186e-02 0.0 
8.954062169715e-03 -2.632412385921e-02 0.0 
1.060189894784e-02 -3.252429083872e-02 0.0 
5.418902760547e-03 -2.113427895849e-02 0.0 
3.945399664277e-03 -1.660174716083e-02 0.0 
1.772533162755e-03 -1.158922258046e-02 0.0 
3.832328761467e-03 -1.490497388377e-02 0.0 
1.078446557558e-03 -5.404545095693e-03 0.0 
-1.027176355555e-03 -2.876823346628e-03 0.0 
-1.256468461199e-03 3.440468824228e-03 0.0 
1.608125536404e-03 1.889598059034e-03 0.0 
-4.018036052088e-04 1.050416681682e-02 0.0 
-4.248613140781e-03 1.913929122274e-02 0.0 
2.092698022572e-02 -4.837617336249e-02 0.0 
5.596242282242e-02 8.863783985846e-02 0.0 
-1.893681437356e-03 1.208272582502e-02 0.0 
1.385414659710e-02 1.411075633109e-02 0.0 
2.375348424794e-02 6.621258970440e-02 0.0 
2.297940906155e-02 7.460952783336e-02 0.0 
2.540438082642e-02 9.078335848524e-02 0.0 
2.180917161309e-02 8.295338146746e-02 0.0 
1.918276279995e-02 6.657101657646e-02 0.0 
1.832396585761e-02 7.471432460687e-02 0.0 
2.034307997382e-02 9.118362460355e-02 0.0 
1.715639715938e-02 8.275986701624e-02 0.0 
1.866808869467e-02 9.923442488579e-02 0.0 
1.575678455362e-02 9.066543780038e-02 0.0 
1.410928712838e-02 7.404089023075e-02 0.0 
1.296737489975e-02 8.187214434654e-02 0.0 
1.418972297749e-02 9.843073762715e-02 0.0 
1.162635012889e-02 8.958903210157e-02 0.0 
1.250218823791e-02 1.060395830367e-01 0.0 
1.012916154241e-02 9.718442242343e-02 0.0 
9.211928093924e-03 8.059092977946e-02 0.0 
1.269940725302e-03 5.697217022853e-02 0.0 
9.198160690395e-03 1.214503574210e-02 0.0 
8.427736186030e-03 1.222978107253e-02 0.0 
-5.536020877927e-03 4.961273573959e-02 0.0 
-5.990321086584e-03 4.694239246868e-02 0.0 
-7.071272478098e-03 4.287973978362e-02 0.0 
-6.061545430465e-03 4.408678013098e-02 0.0 
7.859854617911e-03 8.827042629983e-02 0.0 
6.987475555720e-03 7.148373760124e-02 0.0 
4.093336839425e-02 -1.441079427832e-02 0.0 
4.607175537996e-02 8.580004616166e-04 0.0 
2.403715700001e-02 5.784108646384e-02 0.0 
-3.925234568050e-03 2.573556736412e-02 0.0 
-4.519226124475e-03 2.997957250625e-02 0.0 
6.342866508748e-02 4.542704836878e-02 0.0 
6.400644510144e-02 5.622200013234e-02 0.0 
6.266078783784e-02 4.818804874045e-02 0.0 
6.242208459570e-02 6.019503217872e-02 0.0 
6.344353995878e-02 6.733563579747e-02 0.0 
6.054863658671e-02 5.089756149704e-02 0.0 
-2.554245672304e-03 1.228910322070e-02 0.0 
1.125258234436e-02 6.510908266131e-02 0.0 
-2.877460451879e-03 3.719151535826e-02 0.0 
5.699387983478e-04 3.785376965328e-02 0.0 
-3.288746427729e-03 2.120769649893e-02 0.0 
9.449035934873e-03 1.092952638228e-02 0.0 
5.532426947618e-02 4.212495354319e-02 0.0 
5.182798738960e-02 3.571844293368e-02 0.0 
4.963748221041e-02 3.690417925090e-02 0.0 
4.510124170604e-02 3.160999377919e-02 0.0 
4.263086119628e-02 3.163531459897e-02 0.0 
3.661129390463e-02 2.775234526222e-02 0.0 
3.880480377110e-02 2.803479369265e-02 0.0 
2.312895288451e-02 1.899004662012e-02 0.0 
3.086044258775e-02 2.416737094120e-02 0.0 
8.646407937232e-03 1.048042525504e-01 0.0 
3.204550698877e-02 1.910821154820e-02 0.0 
-3.311759020807e-03 5.191037129491e-03 0.0 
2.825957573881e-03 5.340163494959e-02 0.0 
3.662822242455e-03 9.805986584154e-03 0.0 
1.616509746910e-04 5.972727286514e-02 0.0 
-1.790837562586e-03 5.816862763069e-02 0.0 
-1.819046700532e-04 1.057382194941e-02 0.0 
3.370501850625e-02 2.663756186371e-02 0.0 
3.947237560185e-02 3.083456162010e-02 0.0 
6.125734083052e-02 7.230027840202e-02 0.0 
6.211009200283e-02 7.930980809171e-02 0.0 
1.874335343916e-02 1.635340781837e-02 0.0 
3.266335159627e-02 1.046874474810e-01 0.0 
2.164942106898e-02 1.075166817177e-01 0.0 
1.956801306345e-02 1.154980709814e-01 0.0 
2.911696054395e-03 6.044683176028e-02 0.0 
5.728526816412e-03 7.076318333171e-04 0.0 
1.556533867729e-02 5.814114646190e-02 0.0 
4.831839131720e-02 2.797678354018e-03 0.0 
5.051990681200e-02 1.497341418409e-02 0.0 
2.551049309323e-02 -5.079953768795e-02 0.0 
2.218941222250e-02 -5.564318670002e-02 0.0 
5.861992043634e-03 7.899099266701e-02 0.0 
5.040940233363e-03 6.224681597941e-02 0.0 
-7.016085190004e-03 4.012014534600e-02 0.0 
-5.888004210578e-03 4.090410296599e-02 0.0 
1.239248488571e-03 1.102068498382e-02 0.0 
1.463706346907e-03 1.788124824345e-02 0.0 
5.798734368999e-03 5.452820512630e-02 0.0 
5.908128214576e-03 1.097080847897e-02 0.0 
5.447240794630e-03 9.255665454693e-03 0.0 
-4.893692617249e-03 4.789536741343e-02 0.0 
4.477795004236e-02 -1.174472719131e-03 0.0 
4.045049386089e-02 -1.807175429687e-02 0.0 
-2.564538367351e-03 -1.935538456833e-04 0.0 
-2.116257863659e-03 1.812307713828e-02 0.0 
-5.465732935550e-04 6.156779416117e-02 0.0 
1.462970835062e-03 9.406859180076e-03 0.0 
1.573318761317e-02 5.012905135589e-02 0.0 
3.291236895697e-02 2.483465269891e-02 0.0 
4.031241839727e-02 2.756194302374e-02 0.0 
2.563936645268e-02 2.081255203022e-02 0.0 
6.224071383575e-03 1.776344234752e-02 0.0 
-1.181609604313e-03 1.010687758356e-02 0.0 
-2.877761331669e-03 2.446831431285e-02 0.0 
3.055741461296e-02 2.502993188132e-02 0.0 
3.563553953464e-02 2.918003916979e-02 0.0 
5.301890358203e-02 1.562261203387e-02 0.0 
5.445547488412e-02 2.813725652031e-02 0.0 
5.200963147090e-02 2.858572430800e-02 0.0 
5.502079465471e-02 4.148861283644e-02 0.0 
5.131262996314e-02 9.886443500907e-02 0.0 
5.696775351909e-02 2.751850975322e-02 0.0 
5.865870680654e-02 8.788807404632e-02 0.0 
5.710596209965e-02 9.890254275528e-02 0.0 
5.930243514442e-02 9.734013396024e-02 0.0 
6.378448760584e-02 7.347905726525e-02 0.0 
6.237480707206e-02 8.546043136563e-02 0.0 
4.587028740917e-02 -3.492786920129e-03 0.0 
3.273730176067e-02 1.209677430910e-02 0.0 
-7.936439855824e-03 3.860455615644e-02 0.0 
-7.448909865035e-03 2.954363992324e-02 0.0 
-5.462489194679e-03 1.368216425880e-02 0.0 
1.188078835438e-02 5.725698703365e-02 0.0 
9.028419987336e-03 4.819550801175e-02 0.0 
1.496084539756e-02 1.147300970588e-01 0.0 
1.301498864287e-02 1.221960774529e-01 0.0 
2.814240109519e-03 4.381409987187e-02 0.0 
4.906526314747e-03 3.824342305807e-02 0.0 
-8.591302354296e-03 2.342485208474e-02 0.0 
-2.602416066182e-03 1.208287273242e-02 0.0 
1.964734791879e-02 5.026470325488e-02 0.0 
1.907644241357e-02 4.222256064518e-02 0.0 
2.374610606367e-02 4.956036906834e-02 0.0 
3.198533198337e-03 1.039973129179e-02 0.0 
2.560658012228e-02 -1.755248126266e-02 0.0 
1.417535112199e-02 7.892875165837e-03 0.0 
1.771646814518e-02 -4.920387236752e-02 0.0 
5.388439878580e-02 3.060371414943e-02 0.0 
7.417169791930e-03 4.418840415611e-02 0.0 
4.814149780367e-02 5.099670106305e-02 0.0 
-2.355173138873e-03 1.961327729785e-02 0.0 
-2.619155215150e-03 1.637289004309e-02 0.0 
1.787228330942e-02 1.558443629182e-02 0.0 
4.882396944526e-02 1.221850228148e-01 0.0 
4.784824804137e-02 2.637021613028e-02 0.0 
4.679651653488e-02 2.270934428929e-02 0.0 
5.708939605006e-02 1.089965186429e-01 0.0 
5.873936652418e-02 1.066104460580e-01 0.0 
6.091955239886e-02 9.466247197116e-02 0.0 
5.980181550230e-02 1.031508759236e-01 0.0 
-4.739047095518e-03 6.963093155078e-03 0.0 
-5.083816474372e-03 1.236553490283e-02 0.0 
2.445871080790e-02 2.050093946546e-02 0.0 
2.325345393810e-02 1.927111516645e-02 0.0 
2.650957225354e-02 2.248070725948e-02 0.0 
3.111863154405e-02 2.658268900698e-02 0.0 
1.396318231981e-02 1.278117033125e-02 0.0 
1.480289229446e-02 1.386150764057e-02 0.0 
-1.872564651957e-03 5.963047032911e-02 0.0 
6.038627792130e-02 9.187553412716e-02 0.0 
1.205268627754e-02 4.148846733417e-02 0.0 
5.487621233916e-02 1.102550529561e-01 0.0 
-1.851676165674e-03 9.589013165445e-03 0.0 
-2.992465544363e-03 1.179470433817e-02 0.0 
2.036471495384e-02 -5.658717707730e-02 0.0 
1.525214363764e-02 -4.477149145494e-02 0.0 
3.979913166621e-03 4.555743800741e-02 0.0 
5.231538625374e-02 4.310876263209e-02 0.0 
5.472706695084e-02 5.563621733727e-02 0.0 
4.952828840945e-02 2.928947105810e-02 0.0 
-3.987531185242e-04 8.844955248293e-03 0.0 
3.453540917223e-03 1.522532620605e-01 0.0 
-1.790081087190e-03 1.448164642628e-02 0.0 
6.343594134359e-02 7.889065644345e-02 0.0 
4.297523582113e-03 3.711649382405e-02 0.0 
4.060747371555e-02 2.385868078639e-02 0.0 
6.156668382442e-02 3.701313290592e-02 0.0 
3.341441591573e-03 1.138588232287e-02 0.0 
3.233236129521e-03 5.469568709416e-02 0.0 
2.403120623560e-03 3.579088458094e-02 0.0 
2.223491066094e-02 1.233677298609e-01 0.0 
1.993294282314e-02 1.314673854748e-01 0.0 
2.465026313350e-02 1.154255596458e-01 0.0 
3.005269311633e-02 -4.164122412478e-02 0.0 
3.117638507784e-02 -4.871368122658e-02 0.0 
8.635767869897e-03 5.600412048426e-02 0.0 
-4.643035401456e-03 5.209000681535e-02 0.0 
-4.175059345477e-03 5.355094434372e-02 0.0 
-1.985037974278e-04 2.501315077235e-02 0.0 
-3.510110179094e-03 2.497408571808e-02 0.0 
-7.710757345588e-03 3.606878701444e-02 0.0 
-8.498510467708e-03 3.430007571303e-02 0.0 
4.612860155639e-02 4.341291968046e-02 0.0 
4.213914161589e-02 4.201814800763e-02 0.0 
5.284686611846e-02 4.362683737833e-02 0.0 
2.381409781452e-03 1.019323894693e-02 0.0 
1.468006271577e-03 8.298885442538e-03 0.0 
4.725729319788e-03 6.585369381581e-03 0.0 
9.172577114483e-03 4.089567352195e-02 0.0 
6.154807177563e-03 3.032611027306e-02 0.0 
-3.614485040545e-03 2.291373824476e-03 0.0 
-9.376252931419e-04 -4.558477610034e-03 0.0 
-6.359052518701e-03 1.333582946456e-02 0.0 
1.152913795133e-02 3.394054225677e-02 0.0 
-1.906085706608e-03 1.137335497359e-02 0.0 
-2.658095920931e-03 1.332441980317e-02 0.0 
9.979060518762e-03 3.851347893289e-02 0.0 
7.171027050979e-03 3.198460539947e-02 0.0 
4.313098513532e-02 -2.443935553561e-03 0.0 
3.939939411774e-02 -2.080416322333e-02 0.0 
1.813936269641e-02 3.492348865844e-02 0.0 
2.287208217699e-02 4.160446676690e-02 0.0 
1.307600673711e-02 2.666135437306e-02 0.0 
-7.169789158116e-04 6.266324682235e-02 0.0 
3.414975267641e-02 2.466003168054e-02 0.0 
2.946289349404e-03 8.458104480056e-03 0.0 
4.914728388926e-03 9.833824934807e-03 0.0 
1.376576095942e-03 6.726753159522e-03 0.0 
2.233911537359e-02 1.865348402125e-02 0.0 
1.632580846652e-02 1.427274657865e-02 0.0 
1.829444877039e-02 1.568244415054e-02 0.0 
2.424679819204e-02 -6.284008932317e-02 0.0 
1.803461168439e-03 4.290428749471e-02 0.0 
1.533126600860e-02 1.307310090050e-01 0.0 
2.394513969665e-02 -6.312598937592e-02 0.0 
1.318367173760e-02 1.385786368733e-01 0.0 
1.109712733400e-02 1.296101725951e-01 0.0 
1.135978464086e-02 1.461635407004e-01 0.0 
3.192929477392e-04 6.427152632266e-02 0.0 
2.498926465164e-02 1.337082165849e-01 0.0 
2.781387369454e-02 1.234377536609e-01 0.0 
1.393252282511e-02 3.204523609662e-02 0.0 
7.867435328250e-03 2.530731802222e-02 0.0 
1.214729104837e-02 4.387558622806e-02 0.0 
9.364863138571e-03 4.895070572722e-02 0.0 
-2.088537150574e-03 8.658731247997e-03 0.0 
-3.063410888459e-03 1.112847754909e-02 0.0 
-2.063185125434e-03 7.478522207821e-03 0.0 
-2.929621308989e-03 1.029131880198e-02 0.0 
-3.915701904950e-03 1.389496754014e-02 0.0 
-3.565310398114e-03 1.301521419176e-02 0.0 
1.777922764217e-02 1.403729127829e-01 0.0 
-2.357518561601e-03 8.271868042665e-03 0.0 
-3.024111919324e-03 1.162692621957e-02 0.0 
-1.821614906047e-03 6.699770312413e-03 0.0 
5.757689558248e-02 1.159960201750e-01 0.0 
5.752592190836e-02 5.312588347841e-02 0.0 
5.686758461680e-02 6.759439004265e-02 0.0 
5.347224507839e-02 7.151736211850e-02 0.0 
1.982836519268e-02 1.741831572510e-02 0.0 
2.659194832512e-02 2.368577517917e-02 0.0 
-1.836974811187e-03 2.271788534191e-02 0.0 
-2.140909470629e-03 2.760087835124e-02 0.0 
9.132773767960e-03 1.380506820397e-01 0.0 
6.684422651457e-03 1.387573440208e-01 0.0 
7.342577137181e-03 1.243462923609e-01 0.0 
5.302669942669e-03 1.261369923911e-01 0.0 
5.745823535215e-03 1.117459065295e-01 0.0 
3.699258639746e-03 1.136196557788e-01 0.0 
4.404348997449e-03 9.897965015702e-02 0.0 
1.540119491314e-02 1.331864105583e-02 0.0 
4.877273396999e-02 4.392872822074e-02 0.0 
5.440278830952e-02 1.210550169648e-01 0.0 
1.039749355812e-02 1.016666091784e-02 0.0 
1.163098524418e-02 1.190958214214e-02 0.0 
6.039240520780e-02 9.789292681698e-02 0.0 
5.862134751017e-02 1.050276684219e-01 0.0 
-6.603910294252e-04 7.107197844300e-03 0.0 
5.486216471856e-02 1.654472236900e-02 0.0 
5.901093318262e-03 1.587888850224e-02 0.0 
3.107798535561e-02 -6.232722034908e-02 0.0 
3.033232675616e-02 -5.884623235707e-02 0.0 
5.862761922651e-02 2.722127369219e-02 0.0 
6.196133748817e-02 9.074592413829e-02 0.0 
5.974396740959e-02 6.399199174077e-02 0.0 
5.872939050727e-02 7.717637083152e-02 0.0 
3.012491593882e-03 1.127101066105e-02 0.0 
9.908936869276e-03 2.506920587853e-02 0.0 
4.644516583822e-02 1.408794572092e-02 0.0 
6.417381427229e-03 9.730219779520e-02 0.0 
4.351028488311e-02 1.347918015013e-02 0.0 
-9.925368158881e-04 2.528257450371e-02 0.0 
5.144622710223e-02 7.433615040541e-03 0.0 
6.413423480096e-02 6.771927680801e-02 0.0 
4.858515691072e-02 1.426205597081e-02 0.0 
5.791898361406e-02 4.030059754061e-02 0.0 
5.285167545519e-02 8.831399519432e-02 0.0 
4.908611202362e-02 1.097460457693e-01 0.0 
5.198057584658e-02 1.108215504736e-01 0.0 
4.648437021910e-02 3.494750854702e-04 0.0 
5.984602543930e-02 8.503874948636e-02 0.0 
5.720146250059e-02 9.129646702173e-02 0.0 
5.949462586061e-02 7.736926881655e-02 0.0 
2.847697344826e-02 5.621524235984e-02 0.0 
2.777941277931e-02 4.790597585271e-02 0.0 
2.151159448453e-02 3.431856138927e-02 0.0 
2.644825916756e-02 4.009602803087e-02 0.0 
3.266393358908e-02 5.353916825242e-02 0.0 
3.149192595578e-02 4.545038351883e-02 0.0 
2.450322050661e-02 3.287856904209e-02 0.0 
2.967773218395e-02 3.786436182810e-02 0.0 
2.012998855791e-02 2.361906679660e-02 0.0 
2.700183665762e-02 3.053517352798e-02 0.0 
3.476301426080e-02 4.236787230182e-02 0.0 
3.255678535149e-02 3.536775059786e-02 0.0 
2.497400882572e-02 2.536115883706e-02 0.0 
3.983381211918e-02 4.668256678737e-02 0.0 
8.850989291785e-03 8.313678341506e-03 0.0 
5.933402744954e-02 2.712271282685e-02 0.0 
2.667001126339e-02 -5.847772517938e-02 0.0 
3.411372239600e-02 -4.391391551550e-02 0.0 
6.318893313352e-02 7.209980016892e-02 0.0 
1.011947530955e-02 1.164505549686e-02 0.0 
8.738499842846e-03 1.257718884812e-02 0.0 
4.450582666467e-02 -7.327396301215e-03 0.0 
9.334407140842e-03 8.392081487043e-03 0.0 
5.435033517658e-02 9.949147566760e-02 0.0 
3.077222197700e-02 -3.553952078367e-02 0.0 
8.611910464754e-03 7.581675930928e-03 0.0 
3.316035380185e-02 6.201512555226e-02 0.0 
3.774961894507e-02 6.730719802771e-02 0.0 
3.737978880362e-02 7.636465977471e-02 0.0 
6.972117620884e-03 1.250601469467e-02 0.0 
2.698261828256e-02 1.070092537872e-01 0.0 
6.280421762967e-03 5.549916341576e-03 0.0 
2.925937908812e-02 1.569145207206e-02 0.0 
3.664465414846e-02 1.677628182470e-02 0.0 
4.092313357969e-02 1.296596572798e-02 0.0 
3.646954107699e-02 5.038177449637e-02 0.0 
4.040862749251e-03 4.501985360736e-03 0.0 
6.643296765711e-03 7.902873704156e-03 0.0 
5.231366647003e-03 7.452876136147e-03 0.0 
8.286052970252e-03 1.055397036221e-02 0.0 
2.562732834372e-03 4.043189335056e-03 0.0 
9.775028489768e-03 9.277651406504e-03 0.0 
9.139063730979e-03 8.410813682430e-03 0.0 
2.336179404019e-04 -8.038062726453e-03 0.0 
2.724566821359e-03 -1.203351811095e-02 0.0 
1.780232083839e-03 -7.761553869034e-03 0.0 
6.584019731336e-03 -1.476893999885e-02 0.0 
7.674935790502e-03 -2.034875243411e-02 0.0 
1.265775663999e-02 -2.195046748748e-02 0.0 
1.168342057377e-02 -1.569524561791e-02 0.0 
1.943302132266e-02 -2.793320984540e-02 0.0 
3.479992324358e-02 3.278634595782e-02 0.0 
1.132644585317e-03 3.559405843178e-03 0.0 
-4.656593016582e-03 1.415962934360e-02 0.0 
-3.404119053849e-03 1.149655484406e-02 0.0 
-4.045384941797e-03 1.027291742334e-02 0.0 
-8.587586616245e-03 3.632023515843e-02 0.0 
-9.000247462737e-03 3.179770414007e-02 0.0 
-8.698926797622e-03 3.009528585748e-02 0.0 
-7.818592236764e-03 4.090488448386e-02 0.0 
4.689022682924e-02 3.080077487851e-02 0.0 
4.630580782324e-04 3.498809333918e-03 0.0 
9.297896921470e-03 8.553740513034e-03 0.0 
-9.155327119707e-03 2.852019385019e-02 0.0 
3.226477871166e-02 1.444029442959e-01 0.0 
3.487401089248e-02 1.295966761402e-01 0.0 
3.845866959148e-02 1.256026195703e-01 0.0 
3.648054322864e-02 1.125467275747e-01 0.0 
3.101717719012e-02 1.308968673568e-01 0.0 
-6.701206828298e-03 3.711238164292e-02 0.0 
-5.534685048839e-03 3.747693194724e-02 0.0 
-4.614018640739e-03 4.100514771134e-02 0.0 
-4.268048247614e-03 3.721869454144e-02 0.0 
-3.259146750949e-03 4.047449192612e-02 0.0 
-3.509691024942e-03 4.422668572876e-02 0.0 
-2.925733413239e-03 3.641469869880e-02 0.0 
-1.899375900773e-03 3.984400392320e-02 0.0 
2.601111868912e-02 1.486357921286e-01 0.0 
2.403740279169e-02 -3.321577732175e-02 0.0 
1.581155304994e-02 -2.265677152535e-02 0.0 
1.618242032037e-02 -7.374935214408e-03 0.0 
1.048424344281e-02 -1.406313822198e-02 0.0 
1.149679228221e-02 -2.817780771521e-02 0.0 
6.608707404731e-03 -1.823181091758e-02 0.0 
1.003239035766e-02 -3.125077764849e-02 0.0 
1.693332786287e-02 -4.077235019037e-02 0.0 
2.441217141026e-02 -7.537710405593e-04 0.0 
1.634392629845e-02 4.464198916768e-03 0.0 
2.377480665677e-02 9.811632150570e-03 0.0 
1.629620292856e-02 1.449458763053e-02 0.0 
9.467983341792e-03 9.423931027694e-03 0.0 
2.244131901107e-03 3.180686599544e-02 0.0 
-1.039788318101e-03 5.646989879199e-03 0.0 
-1.374893406995e-03 5.107070262909e-02 0.0 
-2.603604059419e-03 5.214931040175e-02 0.0 
-2.375125274295e-03 5.537832665339e-02 0.0 
-3.799058096014e-03 5.225705852980e-02 0.0 
-2.596481280297e-03 4.893182565235e-02 0.0 
-1.103686292367e-03 5.788813444822e-02 0.0 
-1.985180387313e-03 5.810384745380e-02 0.0 
7.014735422462e-03 6.396700975633e-02 0.0 
4.381584547914e-03 6.545256025746e-02 0.0 
2.064680838872e-03 6.678891321024e-02 0.0 
2.344285073618e-03 6.633848537107e-02 0.0 
3.857553386019e-03 6.453169244101e-02 0.0 
6.375161002611e-03 6.333537811168e-02 0.0 
8.290999822162e-03 6.029572623159e-02 0.0 
1.214963214517e-02 5.803234657020e-02 0.0 
9.975077108361e-03 5.651533895191e-02 0.0 
6.211401908138e-03 5.862161051329e-02 0.0 
1.445141899664e-02 5.393359624263e-02 0.0 
1.429290260514e-03 7.730541171081e-02 0.0 
2.727620795610e-03 6.895473593437e-02 0.0 
-5.899935286855e-04 3.828632312333e-03 0.0 
2.031676181826e-02 1.494223645933e-01 0.0 
2.114210161475e-02 2.790998792433e-02 0.0 
2.255499950783e-03 1.780942432517e-02 0.0 
3.451319550544e-03 1.457711214532e-02 0.0 
2.777802042931e-03 1.420508738548e-02 0.0 
-6.299370187118e-04 1.463937833135e-02 0.0 
-1.017899856172e-03 1.184451683857e-02 0.0 
1.228145189631e-03 1.738169610965e-02 0.0 
-5.443462674542e-03 3.647762890217e-02 0.0 
1.954857760287e-02 2.757344892019e-02 0.0 
6.299048622703e-03 4.673325209662e-02 0.0 
3.553981871416e-02 -2.867657182714e-02 0.0 
-4.648945112779e-03 1.842652037511e-02 0.0 
-3.324986969740e-03 2.903631265576e-02 0.0 
-7.314284193182e-03 2.587203377758e-02 0.0 
-3.461194238649e-03 1.798093978289e-02 0.0 
-5.606646809048e-03 3.041267769219e-02 0.0 
-4.943802594250e-03 1.991478896587e-02 0.0 
3.839961679584e-03 7.204815882062e-03 0.0 
1.219917667182e-03 6.279209271060e-02 0.0 
1.685466222800e-02 1.070803943796e-01 0.0 
1.082501668417e-02 1.135630520282e-01 0.0 
1.034737235830e-02 7.289568930371e-02 0.0 
-4.774764147103e-03 4.965770374169e-02 0.0 
-4.876891238459e-03 4.433203816240e-02 0.0 
1.017952270140e-03 4.861294980186e-02 0.0 
1.650198720263e-02 1.430965697690e-02 0.0 
6.081045157874e-02 8.615442531070e-02 0.0 
-5.998916601104e-03 1.278140849006e-02 0.0 
-8.265920292073e-03 3.810900094338e-02 0.0 
-6.679925653103e-03 3.059673008638e-02 0.0 
-3.143410770660e-03 1.139121405875e-02 0.0 
6.170492631468e-02 3.547775031712e-02 0.0 
-8.948599270551e-03 2.407492355991e-02 0.0 
-4.879223052833e-03 1.648017522819e-02 0.0 
7.941475292966e-03 6.377720978442e-02 0.0 
1.761777779952e-02 4.303057854186e-02 0.0 
-3.491020849324e-03 1.406467262140e-02 0.0 
-7.902845528389e-03 2.243830996658e-02 0.0 
2.362855655573e-02 9.928518456355e-02 0.0 
1.781444812868e-02 1.583118864168e-02 0.0 
3.721618184295e-03 -7.347251660429e-03 0.0 
1.500361456560e-02 6.614610075337e-02 0.0 
1.483768785894e-02 3.528474813201e-02 0.0 
3.025224430526e-02 1.141537503129e-01 0.0 
5.036447865537e-03 4.927715671212e-02 0.0 
1.749408711653e-02 1.234532071703e-01 0.0 
1.890208871743e-04 8.442315805391e-03 0.0 
2.850648951405e-02 6.474560755136e-02 0.0 
-3.251291716957e-03 5.416370625829e-02 0.0 
1.471928352485e-02 3.470383958517e-03 0.0 
6.402291134780e-02 5.749185764603e-02 0.0 
4.874670699712e-02 1.347201460287e-01 0.0 
6.536491948619e-03 3.954652210837e-02 0.0 
5.161685446988e-02 2.136214646912e-02 0.0 
1.032463443665e-02 1.253585332431e-02 0.0 
1.370907912640e-02 1.110125942516e-02 0.0 
-3.236604952580e-03 5.604706366743e-02 0.0 
-4.040926683556e-03 1.433840939012e-02 0.0 
3.588173169324e-02 7.072110223021e-03 0.0 
1.219544042980e-02 4.947968494485e-02 0.0 
4.681829218479e-02 3.725690266246e-02 0.0 
2.462034102270e-02 -1.072930022238e-02 0.0 
1.965237737548e-02 5.840521482174e-02 0.0 
-2.107225843411e-03 6.707433599727e-03 0.0 
1.875827885864e-02 1.643707977251e-02 0.0 
6.242545509383e-02 8.310677791252e-02 0.0 
5.756477583186e-02 4.979762585863e-02 0.0 
4.947953849955e-02 5.917417857003e-02 0.0 
5.820864217073e-02 3.658111207065e-02 0.0 
-2.385600932781e-03 3.229674287290e-02 0.0 
-3.910555635502e-03 1.439637506570e-02 0.0 
1.617885158657e-02 -4.227358471293e-02 0.0 
6.028579476381e-02 3.855201336370e-02 0.0 
2.904376475847e-02 9.806074769233e-02 0.0 
2.840066197620e-02 2.300393247609e-02 0.0 
8.676536523314e-03 3.262146767324e-02 0.0 
6.440777038560e-02 6.241989888417e-02 0.0 
-4.893548438396e-03 1.716366048156e-02 0.0 
1.553716171161e-02 4.265826660869e-02 0.0 
-9.012033191235e-03 2.745713474521e-02 0.0 
6.613440966662e-05 6.524878535995e-02 0.0 
3.603179007322e-02 -3.366671649836e-02 0.0 
2.602133370172e-02 -2.426697541868e-02 0.0 
4.853807922015e-02 1.540392828463e-02 0.0 
-8.508558419942e-03 2.611715323626e-02 0.0 
1.570606466347e-02 2.591142708667e-02 0.0 
-4.553838903537e-03 1.681768446996e-02 0.0 
7.520786131109e-04 1.164371813450e-02 0.0 
3.822621948999e-02 -5.058903391282e-03 0.0 
5.192143998630e-02 1.219586845885e-01 0.0 
-4.030901216489e-03 1.601329967165e-02 0.0 
9.110993036838e-03 4.997069131610e-03 0.0 
1.483260596543e-02 1.434540238356e-02 0.0 
-2.139144433559e-03 4.351675669338e-02 0.0 
1.578751668907e-02 1.372217507671e-02 0.0 
5.849757192215e-02 1.106435626976e-01 0.0 
-3.372937233255e-03 1.478813030762e-02 0.0 
5.949038739798e-03 1.169260765287e-02 0.0 
5.018086532547e-02 5.009097357817e-03 0.0 
5.708811805700e-03 1.522257274258e-01 0.0 
-2.222781445675e-03 9.311951726564e-03 0.0 
5.569299727567e-03 1.129112963284e-02 0.0 
5.332183083151e-02 3.367924145062e-02 0.0 
4.412970855984e-03 3.307791406329e-03 0.0 
5.400291191609e-02 1.324438401785e-01 0.0 
-8.103325972524e-03 2.814443858239e-02 0.0 
5.493075735575e-02 5.126440344058e-02 0.0 
6.126377256103e-03 1.252046949748e-02 0.0 
7.347456206826e-03 1.120010563516e-02 0.0 
4.164954636710e-02 8.124458051155e-02 0.0 
-8.087608838853e-03 3.204396808497e-02 0.0 
3.381494819920e-02 2.172756647142e-02 0.0 
5.142153341030e-03 6.201729742224e-02 0.0 
5.623731863494e-02 1.190978521317e-01 0.0 
-7.234885491785e-03 3.330184471815e-02 0.0 
1.875677449948e-02 -2.111799318715e-02 0.0 
8.290316840642e-04 5.914690811203e-03 0.0 
1.259056289547e-02 1.128273751260e-02 0.0 
-6.208600239843e-03 3.388343915778e-02 0.0 
1.778985337802e-02 -1.433166417637e-02 0.0 
-5.062921645046e-03 3.385236605750e-02 0.0 
5.632580849422e-02 1.255559503297e-01 0.0 
4.211185901054e-02 7.164626492423e-02 0.0 
-3.799937053397e-03 3.329811582381e-02 0.0 
4.975631503108e-02 4.401369327707e-02 0.0 
6.983552025634e-03 5.419286691987e-02 0.0 
4.788417862308e-02 2.910421364163e-02 0.0 
-1.434578217959e-03 1.735913925044e-02 0.0 
-7.597768772889e-03 1.933032964781e-02 0.0 
-1.665011471749e-03 8.633332468422e-03 0.0 
3.743015253659e-02 5.859457937128e-02 0.0 
5.605362481564e-02 1.153785660580e-01 0.0 
-8.405753087860e-04 1.023632351749e-02 0.0 
4.339930527516e-02 3.666385264163e-02 0.0 
4.099589209975e-02 2.618856472779e-02 0.0 
4.457591023850e-02 1.826720802760e-02 0.0 
4.212528175133e-05 1.133886414327e-02 0.0 
5.832754560880e-02 9.829650367054e-02 0.0 
-4.504283456860e-03 3.128743786959e-02 0.0 
-1.636774106515e-03 3.150937208396e-02 0.0 
1.068449681176e-02 -9.725063088832e-03 0.0 
3.932681750485e-02 3.512453481451e-02 0.0 
1.907451831629e-03 6.498294010786e-02 0.0 
4.116582309822e-02 5.433137172911e-02 0.0 
4.176760319188e-03 2.511443227163e-02 0.0 
5.684113335679e-03 -9.608973600706e-03 0.0 
2.813178853966e-02 2.170810522621e-02 0.0 
1.681391074140e-03 1.095642131893e-01 0.0 
1.114938000417e-03 -3.716191858374e-03 0.0 
-4.351190113809e-04 6.327553001282e-02 0.0 
-1.719234634829e-03 -1.322498095061e-03 0.0 
3.915012352503e-02 2.073470859048e-02 0.0 
-4.203961749521e-03 4.623530185509e-03 0.0 
-5.629430487550e-03 8.516504061469e-03 0.0 
4.400889892058e-03 3.029789243532e-02 0.0 
-7.143289299558e-03 1.431636135960e-02 0.0 
6.111839318747e-04 1.440745354132e-02 0.0 
-4.669979003639e-04 5.304591735129e-03 0.0 
2.164364592064e-03 1.406973953332e-01 0.0 
5.347831652732e-02 1.029249405669e-01 0.0 
2.733714527480e-02 -6.958851169347e-02 0.0 
5.613338162527e-02 7.982572315004e-02 0.0 
-6.413141005790e-03 1.878988794529e-02 0.0 
4.422035535807e-02 4.939577704844e-02 0.0 
4.499016652211e-03 1.399713210412e-01 0.0 
-5.795191088204e-03 2.487641986158e-02 0.0 
1.859661535093e-02 1.924912136004e-02 0.0 
7.219303835496e-03 6.249264365907e-03 0.0 
3.060567495067e-03 8.465447188899e-02 0.0 
1.152562321272e-02 1.258094270836e-02 0.0 
3.435195132463e-02 2.356589122452e-02 0.0 
8.940183804874e-04 4.463535574510e-02 0.0 
1.313087278619e-02 1.531150006736e-01 0.0 
1.592920335017e-02 2.364543142490e-02 0.0 
-1.147080436593e-03 3.024697460557e-02 0.0 
4.993990853426e-02 8.395821542297e-02 0.0 
5.110415597168e-02 5.745724918965e-02 0.0 
4.602467449700e-02 2.926213517635e-02 0.0 
-2.747179184297e-03 5.734601352430e-02 0.0 
1.063197259409e-02 -1.663846972364e-03 0.0 
4.639044412052e-02 5.932021445443e-02 0.0 
8.100882003233e-03 8.617606956513e-03 0.0 
2.217437609492e-02 1.378301731777e-01 0.0 
2.770427238313e-02 2.185745566700e-02 0.0 
4.181914129929e-02 3.028202137897e-02 0.0 
1.078903676616e-02 2.757979140966e-02 0.0 
1.338522777588e-02 1.168709415322e-02 0.0 
-1.046196107610e-03 3.733030363048e-03 0.0 
2.064125308935e-02 1.746862968879e-02 0.0 
4.084148632288e-02 -4.429470485670e-03 0.0 
3.321706673189e-02 1.185756725579e-01 0.0 
1.714048117496e-02 1.496542060062e-02 0.0 
4.165796307971e-03 7.131619114598e-02 0.0 
-1.134683334411e-03 3.886252385543e-03 0.0 
2.786723683036e-02 1.368760701381e-01 0.0 
2.672128996378e-03 2.837703439960e-02 0.0 
1.320768030342e-02 -3.960065283005e-02 0.0 
1.357071324596e-03 2.760182821638e-02 0.0 
3.757984639917e-02 3.930756494214e-02 0.0 
9.263385258182e-03 1.209508121643e-01 0.0 
3.992651988607e-02 1.126732267723e-01 0.0 
-1.205351613072e-03 9.135300478792e-03 0.0 
1.717455481012e-02 2.188290376943e-02 0.0 
3.817104471187e-02 -2.680905701931e-02 0.0 
4.797147847422e-03 8.630671109056e-02 0.0 
-4.958357233081e-03 5.021086503935e-02 0.0 
2.079659919363e-02 -5.544558576521e-02 0.0 
-1.264404734777e-03 6.837798650832e-03 0.0 
3.002536217074e-02 2.942564666460e-02 0.0 
-1.822582977159e-03 8.958425920909e-03 0.0 
1.089893723010e-03 6.702690482047e-02 0.0 
1.485801488910e-02 3.883463351877e-02 0.0 
2.886168239883e-04 5.961494495798e-03 0.0 
1.740353077918e-02 1.571060248534e-02 0.0 
6.924425033026e-03 -2.448452676737e-02 0.0 
3.662078159693e-03 1.119390824514e-02 0.0 
3.499071683666e-02 -4.842868176907e-02 0.0 
1.779185055504e-02 1.541502496860e-01 0.0 
1.172453680377e-02 5.234136334302e-02 0.0 
-1.069878299589e-03 4.142922809163e-03 0.0 
6.439226919528e-03 2.667611264024e-02 0.0 
-3.614310999962e-03 4.964115759718e-02 0.0 
3.941045147606e-02 1.354052894855e-01 0.0 
-1.408851651044e-03 6.069540507756e-02 0.0 
2.126695117114e-02 1.794867834218e-02 0.0 
1.113712778260e-02 1.824032600384e-02 0.0 
4.392618512794e-03 2.545472610421e-02 0.0 
2.351173915501e-03 6.031044871398e-03 0.0 
1.261179665934e-02 2.256873014146e-02 0.0 
3.989966175060e-03 3.800421190677e-03 0.0 
2.705018593246e-02 -6.547709654708e-02 0.0 
1.230697397153e-02 1.066528138745e-02 0.0 
5.948282262366e-03 9.363997305138e-03 0.0 
9.892780250788e-03 1.539320819901e-01 0.0 
1.539791443703e-02 2.275228369231e-02 0.0 
-3.166637757372e-03 5.523827459602e-02 0.0 
3.848143759469e-03 5.710582862520e-02 0.0 
2.596830825820e-04 1.277640790317e-02 0.0 
2.145711967837e-03 6.614977420240e-02 0.0 
1.677880741188e-03 1.540066030829e-01 0.0 
-1.813115927273e-04 4.363315874902e-03 0.0 
3.031927755804e-03 6.316541233472e-02 0.0 
3.585457768188e-03 1.292651213775e-01 0.0 
1.699209485986e-02 1.597864384602e-02 0.0 
-9.343879523740e-04 4.321740240686e-02 0.0 
2.062219507640e-03 5.568879715628e-02 0.0 
7.092095625558e-03 -7.644337952711e-03 0.0 
2.772327338679e-02 -6.530400570159e-02 0.0 
2.906184648793e-03 1.014463903337e-01 0.0 
1.120085392745e-02 9.914919937322e-03 0.0 
1.000638425798e-02 2.265629054888e-02 0.0 
7.463016401416e-03 1.122835960649e-01 0.0 
3.621125757202e-02 -3.478898603120e-02 0.0 
2.355893399072e-02 2.196068538164e-02 0.0 
-3.813547255025e-03 4.678313933867e-02 0.0 
2.312260553026e-02 1.964521983361e-02 0.0 
9.408494256108e-03 1.053117703807e-02 0.0 
3.339774237146e-02 -4.691496808390e-02 0.0 
-8.003763571615e-04 3.909134816942e-02 0.0 
1.333779575146e-02 4.779605794913e-02 0.0 
-2.003395190892e-03 6.987976041999e-03 0.0 
-2.537729964525e-03 4.608714432310e-02 0.0 

TENSORS node_materi_stress float
5.118815510192e-01 3.867399105235e-02 0.0 
3.867399105235e-02 -8.426828050867e+00 0.0 
0.0 0.0 -9.264098457043e-01 
-2.993738862809e+01 1.246770623850e-01 0.0 
1.246770623850e-01 -8.847512139254e+00 0.0 
0.0 0.0 -1.123547023020e+01 
-1.682883055466e+02 -3.940986287288e-01 0.0 
-3.940986287288e-01 -3.938717647775e+02 0.0 
0.0 0.0 -1.682480210972e+02 
-8.525948116685e+01 1.225407299988e+00 0.0 
1.225407299988e+00 -1.953942344083e+02 0.0 
0.0 0.0 -8.379611467254e+01 
1.846871828369e-01 -1.887408890038e-01 0.0 
-1.887408890038e-01 -2.075339094184e+01 0.0 
0.0 0.0 -3.807181739654e+00 
-4.470804763833e+00 -4.996403831026e-01 0.0 
-4.996403831026e-01 -4.040892093614e+01 0.0 
0.0 0.0 -1.078615969924e+01 
-1.175566905938e+01 -3.784341758275e-01 0.0 
-3.784341758275e-01 -5.807424998509e+01 0.0 
0.0 0.0 -1.975657335944e+01 
-2.174059136224e+01 -5.774092270376e-01 0.0 
-5.774092270376e-01 -7.825482459775e+01 0.0 
0.0 0.0 -2.884527746834e+01 
-3.743037021457e+01 -6.899360538771e-01 0.0 
-6.899360538771e-01 -9.867501925997e+01 0.0 
0.0 0.0 -3.800208739983e+01 
-5.349917602619e+01 -7.334279940488e-01 0.0 
-7.334279940488e-01 -1.189296019395e+02 0.0 
0.0 0.0 -4.772571576725e+01 
-6.745326687022e+01 -7.885570157490e-01 0.0 
-7.885570157490e-01 -1.394018347794e+02 0.0 
0.0 0.0 -5.727906425352e+01 
-7.963273224757e+01 -7.944446510395e-01 0.0 
-7.944446510395e-01 -1.600209948842e+02 0.0 
0.0 0.0 -6.670199042002e+01 
-9.013669541067e+01 -7.914273756340e-01 0.0 
-7.914273756340e-01 -1.807345207025e+02 0.0 
0.0 0.0 -7.601587158485e+01 
-9.936463914721e+01 -8.140341241610e-01 0.0 
-8.140341241610e-01 -2.016504024769e+02 0.0 
0.0 0.0 -8.524926031939e+01 
-1.073461291425e+02 -8.898927595154e-01 0.0 
-8.898927595154e-01 -2.230629124655e+02 0.0 
0.0 0.0 -9.452560334208e+01 
-1.144083958168e+02 -7.832620006567e-01 0.0 
-7.832620006567e-01 -2.436950892145e+02 0.0 
0.0 0.0 -1.035443339059e+02 
-1.203148773972e+02 -9.551678392104e-01 0.0 
-9.551678392104e-01 -2.623248022635e+02 0.0 
0.0 0.0 -1.116661340042e+02 
-1.258094989024e+02 -5.315439881819e-01 0.0 
-5.315439881819e-01 -2.827509212565e+02 0.0 
0.0 0.0 -1.204004208839e+02 
-1.310704068347e+02 -4.386391952712e-01 0.0 
-4.386391952712e-01 -3.034957132919e+02 0.0 
0.0 0.0 -1.293236084960e+02 
-1.375803165858e+02 -3.871764544906e-01 0.0 
-3.871764544906e-01 -3.234486535226e+02 0.0 
0.0 0.0 -1.379025355794e+02 
-1.462026727302e+02 -3.090110428664e-01 0.0 
-3.090110428664e-01 -3.434141346920e+02 0.0 
0.0 0.0 -1.464850422267e+02 
-1.549469447163e+02 -3.333940266672e-01 0.0 
-3.333940266672e-01 -3.634566812754e+02 0.0 
0.0 0.0 -1.551210877975e+02 
-1.633832004952e+02 -4.040357875704e-01 0.0 
-4.040357875704e-01 -3.825798249555e+02 0.0 
0.0 0.0 -1.633889076352e+02 
-8.537411519706e+01 2.201914823490e+00 0.0 
2.201914823490e+00 -1.967426174544e+02 0.0 
0.0 0.0 -8.423501979543e+01 
-8.492364660561e+01 3.991785016507e+00 0.0 
3.991785016507e+00 -1.958218340493e+02 0.0 
0.0 0.0 -8.382364419648e+01 
-8.522634931398e+01 6.201069149769e+00 0.0 
6.201069149769e+00 -1.963862806763e+02 0.0 
0.0 0.0 -8.408378899708e+01 
-8.535841581815e+01 7.903555882798e+00 0.0 
7.903555882798e+00 -1.969138343751e+02 0.0 
0.0 0.0 -8.428167505797e+01 
-8.585608669733e+01 1.016816658533e+01 0.0 
1.016816658533e+01 -1.970347926765e+02 0.0 
0.0 0.0 -8.446726381214e+01 
-8.653307146533e+01 1.260373561373e+01 0.0 
1.260373561373e+01 -1.987064633531e+02 0.0 
0.0 0.0 -8.517186044552e+01 
-8.786808062829e+01 1.528727838384e+01 0.0 
1.528727838384e+01 -2.006960900082e+02 0.0 
0.0 0.0 -8.616925119094e+01 
-8.844825589604e+01 1.829011982718e+01 0.0 
1.829011982718e+01 -2.024155486879e+02 0.0 
0.0 0.0 -8.685914137517e+01 
-9.017273410744e+01 2.141701059929e+01 0.0 
2.141701059929e+01 -2.059207207741e+02 0.0 
0.0 0.0 -8.842803646445e+01 
-9.127386551222e+01 2.430597177328e+01 0.0 
2.430597177328e+01 -2.091671526234e+02 0.0 
0.0 0.0 -8.973230544068e+01 
-9.338164405944e+01 2.765066509900e+01 0.0 
2.765066509900e+01 -2.125785342176e+02 0.0 
0.0 0.0 -9.138805348312e+01 
-9.553587728485e+01 3.120207832929e+01 0.0 
3.120207832929e+01 -2.182277062086e+02 0.0 
0.0 0.0 -9.372907504803e+01 
-9.880919965025e+01 3.472872182705e+01 0.0 
3.472872182705e+01 -2.251170538626e+02 0.0 
0.0 0.0 -9.677787605387e+01 
-1.011385757276e+02 3.807890356087e+01 0.0 
3.807890356087e+01 -2.314906016554e+02 0.0 
0.0 0.0 -9.938875321488e+01 
-1.051583796318e+02 4.111102149305e+01 0.0 
4.111102149305e+01 -2.388514022582e+02 0.0 
0.0 0.0 -1.028029345670e+02 
-1.086569101615e+02 4.352101684531e+01 0.0 
4.352101684531e+01 -2.463548372212e+02 0.0 
0.0 0.0 -1.061035242148e+02 
-1.134676571038e+02 4.605744254186e+01 0.0 
4.605744254186e+01 -2.555944954742e+02 0.0 
0.0 0.0 -1.103186457734e+02 
-1.189585415026e+02 4.818631542669e+01 0.0 
4.818631542669e+01 -2.664653338981e+02 0.0 
0.0 0.0 -1.152271626202e+02 
-1.232355097174e+02 4.915500863304e+01 0.0 
4.915500863304e+01 -2.765400885022e+02 0.0 
0.0 0.0 -1.195326794659e+02 
-1.252004505015e+02 4.821416239929e+01 0.0 
4.821416239929e+01 -2.844974185026e+02 0.0 
0.0 0.0 -1.225093607012e+02 
-1.264349753415e+02 4.665450954189e+01 0.0 
4.665450954189e+01 -2.914636526534e+02 0.0 
0.0 0.0 -1.249695883985e+02 
-1.273767858402e+02 4.478332750186e+01 0.0 
4.478332750186e+01 -2.974395843344e+02 0.0 
0.0 0.0 -1.270449110524e+02 
-1.291294284691e+02 4.293135286837e+01 0.0 
4.293135286837e+01 -3.035388652465e+02 0.0 
0.0 0.0 -1.294004881147e+02 
-1.311939623697e+02 4.087512742859e+01 0.0 
4.087512742859e+01 -3.095435929711e+02 0.0 
0.0 0.0 -1.318212666022e+02 
-1.333195551377e+02 3.918125728397e+01 0.0 
3.918125728397e+01 -3.153502862016e+02 0.0 
0.0 0.0 -1.342009524018e+02 
-1.358421510609e+02 3.766935572874e+01 0.0 
3.766935572874e+01 -3.214287851296e+02 0.0 
0.0 0.0 -1.367812808572e+02 
-1.385950763314e+02 3.580356448461e+01 0.0 
3.580356448461e+01 -3.279042991566e+02 0.0 
0.0 0.0 -1.395498126464e+02 
-1.411500721741e+02 3.402633275865e+01 0.0 
3.402633275865e+01 -3.338430723585e+02 0.0 
0.0 0.0 -1.420979433598e+02 
-1.435425055124e+02 3.219247616512e+01 0.0 
3.219247616512e+01 -3.396290973380e+02 0.0 
0.0 0.0 -1.445514808551e+02 
-1.466676202189e+02 3.057931823479e+01 0.0 
3.057931823479e+01 -3.463147349164e+02 0.0 
0.0 0.0 -1.474947065406e+02 
-1.487983994928e+02 2.823572088523e+01 0.0 
2.823572088523e+01 -3.525233032992e+02 0.0 
0.0 0.0 -1.499965108376e+02 
-1.509308704412e+02 2.617995171008e+01 0.0 
2.617995171008e+01 -3.579247428191e+02 0.0 
0.0 0.0 -1.522566839781e+02 
-1.537644101371e+02 2.376122230830e+01 0.0 
2.376122230830e+01 -3.645230144931e+02 0.0 
0.0 0.0 -1.550862273891e+02 
-1.565729305446e+02 2.148956636654e+01 0.0 
2.148956636654e+01 -3.710650090858e+02 0.0 
0.0 0.0 -1.578913818891e+02 
-1.593369152084e+02 1.905243178418e+01 0.0 
1.905243178418e+01 -3.779278467872e+02 0.0 
0.0 0.0 -1.607794285987e+02 
-1.622371275368e+02 1.637515297098e+01 0.0 
1.637515297098e+01 -3.845793328666e+02 0.0 
0.0 0.0 -1.636449381210e+02 
-1.644046994189e+02 1.359128282654e+01 0.0 
1.359128282654e+01 -3.901293106127e+02 0.0 
0.0 0.0 -1.659602030095e+02 
-1.662685257000e+02 1.068014660246e+01 0.0 
1.068014660246e+01 -3.942075675528e+02 0.0 
0.0 0.0 -1.677428279759e+02 
-1.673522996727e+02 8.116053549906e+00 0.0 
8.116053549906e+00 -3.964825655810e+02 0.0 
0.0 0.0 -1.687504595761e+02 
-1.680321442023e+02 5.780885509394e+00 0.0 
5.780885509394e+00 -3.973386239493e+02 0.0 
0.0 0.0 -1.692112304455e+02 
-1.687234223647e+02 4.165212542988e+00 0.0 
4.165212542988e+00 -3.978543295861e+02 0.0 
0.0 0.0 -1.695733255852e+02 
-1.693189082048e+02 2.755098886650e+00 0.0 
2.755098886650e+00 -3.983292852236e+02 0.0 
0.0 0.0 -1.698944580285e+02 
-1.695256406913e+02 1.896197345745e+00 0.0 
1.896197345745e+00 -3.981676939129e+02 0.0 
0.0 0.0 -1.699080003812e+02 
-1.680391616012e+02 1.102858387876e+00 0.0 
1.102858387876e+00 -3.950284434149e+02 0.0 
0.0 0.0 -1.685202815048e+02 
-1.690898042975e+02 5.565725116961e-01 0.0 
5.565725116961e-01 -3.963781453589e+02 0.0 
0.0 0.0 -1.692403848969e+02 
-1.684594869597e+02 2.765337692253e-01 0.0 
2.765337692253e-01 -3.950061495317e+02 0.0 
0.0 0.0 -1.686396909474e+02 
-1.685844691111e+02 2.864359321447e-01 0.0 
2.864359321447e-01 -3.950291665093e+02 0.0 
0.0 0.0 -1.686840906861e+02 
-1.688073927587e+02 -3.446613229812e-02 0.0 
-3.446613229812e-02 -3.953301761842e+02 0.0 
0.0 0.0 -1.688412706829e+02 
-1.686732129587e+02 5.415718099377e-03 0.0 
5.415718099377e-03 -3.950175945180e+02 0.0 
0.0 0.0 -1.687072422430e+02 
-3.442739681579e+01 2.397567026762e-01 0.0 
2.397567026762e-01 -2.053191814269e+01 0.0 
0.0 0.0 -1.608779448755e+01 
-4.201349731091e+01 3.869760440684e-01 0.0 
3.869760440684e-01 -4.026350301158e+01 0.0 
0.0 0.0 -2.428310009675e+01 
-4.944750612417e+01 4.526819443742e-01 0.0 
4.526819443742e-01 -6.002934013639e+01 0.0 
0.0 0.0 -3.244305387817e+01 
-5.624708423158e+01 5.719371455029e-01 0.0 
5.719371455029e-01 -7.957647783520e+01 0.0 
0.0 0.0 -4.034706862003e+01 
-6.274057442691e+01 6.133457081303e-01 0.0 
6.133457081303e-01 -9.981211033025e+01 0.0 
0.0 0.0 -4.836580542715e+01 
-6.904305179715e+01 7.557283863629e-01 0.0 
7.557283863629e-01 -1.204199765904e+02 0.0 
0.0 0.0 -5.643890851625e+01 
-7.440801117122e+01 7.860580615821e-01 0.0 
7.860580615821e-01 -1.410045303055e+02 0.0 
0.0 0.0 -6.422376244302e+01 
-7.902950673036e+01 9.805311281751e-01 0.0 
9.805311281751e-01 -1.615578823699e+02 0.0 
0.0 0.0 -7.177621673008e+01 
-8.402398797050e+01 1.078477659939e+00 0.0 
1.078477659939e+00 -1.832371352084e+02 0.0 
0.0 0.0 -7.977833695367e+01 
-4.732505884510e+01 2.779750883922e+01 0.0 
2.779750883922e+01 -7.521091974706e+01 0.0 
0.0 0.0 -3.718417773355e+01 
-6.162153336393e+01 1.794537819616e+01 0.0 
1.794537819616e+01 -2.377162328619e+01 0.0 
0.0 0.0 -2.487341046013e+01 
-2.711799481420e+01 1.836981843499e+01 0.0 
1.836981843499e+01 -2.072004462391e+01 0.0 
0.0 0.0 -1.294774131780e+01 
-2.772825879566e+01 1.838055584579e+01 0.0 
1.838055584579e+01 -2.048145448036e+01 0.0 
0.0 0.0 -1.059192259785e+01 
-2.771834890568e+01 1.857572294131e+01 0.0 
1.857572294131e+01 -2.113966662854e+01 0.0 
0.0 0.0 -1.105501200063e+01 
-2.580648279402e+01 1.804130342176e+01 0.0 
1.804130342176e+01 -2.011688107886e+01 0.0 
0.0 0.0 -1.073261226506e+01 
-2.644709523367e+01 1.811039246836e+01 0.0 
1.811039246836e+01 -2.009415535318e+01 0.0 
0.0 0.0 -1.056818155069e+01 
-2.743509687958e+01 1.841200870159e+01 0.0 
1.841200870159e+01 -2.069512776558e+01 0.0 
0.0 0.0 -9.671865074242e+00 
-2.807075076465e+01 1.871526521527e+01 0.0 
1.871526521527e+01 -2.145421558804e+01 0.0 
0.0 0.0 -9.863881850335e+00 
-2.945885396675e+01 1.885904467184e+01 0.0 
1.885904467184e+01 -2.142325979361e+01 0.0 
0.0 0.0 -1.192250476008e+01 
-3.568009425255e+01 1.934194222291e+01 0.0 
1.934194222291e+01 -2.163780068594e+01 0.0 
0.0 0.0 -1.521521303664e+01 
-2.929030041329e+01 -1.285494769042e-02 0.0 
-1.285494769042e-02 -7.381557609983e+00 0.0 
0.0 0.0 -1.060155740698e+01 
-2.943422196679e+01 1.111501056400e-01 0.0 
1.111501056400e-01 -8.136678132477e+00 0.0 
0.0 0.0 -1.087127002978e+01 
-2.955020413822e+01 -1.790893751486e-02 0.0 
-1.790893751486e-02 -8.175644633624e+00 0.0 
0.0 0.0 -1.091775463155e+01 
-2.959475669078e+01 4.672736488383e-02 0.0 
4.672736488383e-02 -7.528711922639e+00 0.0 
0.0 0.0 -1.073704058403e+01 
-3.106974982928e+01 8.859598006629e-02 0.0 
8.859598006629e-02 -1.012307119274e+01 0.0 
0.0 0.0 -1.195784630660e+01 
-3.033686165156e+01 6.233617286138e-03 0.0 
6.233617286138e-03 -8.119999733862e+00 0.0 
0.0 0.0 -1.113705841563e+01 
-3.066564541148e+01 1.626295468818e-01 0.0 
1.626295468818e-01 -7.766871811812e+00 0.0 
0.0 0.0 -1.112975516699e+01 
-3.098568981789e+01 1.299250676168e-02 0.0 
1.299250676168e-02 -8.076409599220e+00 0.0 
0.0 0.0 -1.131862982513e+01 
-3.201089216255e+01 2.776903046579e-01 0.0 
2.776903046579e-01 -9.044025464846e+00 0.0 
0.0 0.0 -1.191647528822e+01 
-3.288775201990e+01 3.605071082165e-01 0.0 
3.605071082165e-01 -8.763198009336e+00 0.0 
0.0 0.0 -1.209528500877e+01 
-3.449637266082e+01 9.087142779641e-01 0.0 
9.087142779641e-01 -8.715703595014e+00 0.0 
0.0 0.0 -1.256362287675e+01 
-3.757386031854e+01 1.933285693037e+00 0.0 
1.933285693037e+00 -9.140815853934e+00 0.0 
0.0 0.0 -1.361440285174e+01 
-4.350580170087e+01 3.828689960974e+00 0.0 
3.828689960974e+00 -9.704769944705e+00 0.0 
0.0 0.0 -1.556317149367e+01 
-5.277868453780e+01 8.581014594795e+00 0.0 
8.581014594795e+00 -1.311917273413e+01 0.0 
0.0 0.0 -1.934879074033e+01 
-6.396272798929e+01 1.318012159333e+01 0.0 
1.318012159333e+01 -9.367481029018e+01 0.0 
0.0 0.0 -4.765239450041e+01 
-7.815398061747e+01 6.782080963462e-01 0.0 
6.782080963462e-01 -1.085677609452e+02 0.0 
0.0 0.0 -5.638359725733e+01 
-8.455195973159e+01 -1.393823073200e+00 0.0 
-1.393823073200e+00 -1.042445835040e+02 0.0 
0.0 0.0 -5.697313331952e+01 
-7.369664873212e+01 -1.069685135084e+01 0.0 
-1.069685135084e+01 -9.332926769412e+01 0.0 
0.0 0.0 -5.044139249268e+01 
-4.096963497242e+01 -2.161422738393e+01 0.0 
-2.161422738393e+01 -5.931016615296e+01 0.0 
0.0 0.0 -3.046283058105e+01 
-1.102275716351e+01 -1.068371649067e+01 0.0 
-1.068371649067e+01 -2.021624179445e+01 0.0 
0.0 0.0 -6.880038167199e+00 
3.290059507802e-02 -1.608838588400e-01 0.0 
-1.608838588400e-01 -8.786238181106e+00 0.0 
0.0 0.0 -6.950135316884e-01 
9.652607683409e-01 -4.568903871443e-02 0.0 
-4.568903871443e-02 -7.650731781516e+00 0.0 
0.0 0.0 -1.022191747348e-01 
9.972819361315e-01 8.510736798456e-02 0.0 
8.510736798456e-02 -8.149860445176e+00 0.0 
0.0 0.0 6.061339404566e-01 
9.971494610307e-01 3.091713059317e-02 0.0 
3.091713059317e-02 -7.735597590379e+00 0.0 
0.0 0.0 1.000000000000e+00 
9.967802879205e-01 3.456868920590e-02 0.0 
3.456868920590e-02 -8.236813744362e+00 0.0 
0.0 0.0 5.697042568863e-01 
9.969507224623e-01 5.391419563815e-02 0.0 
5.391419563815e-02 -8.745008776055e+00 0.0 
0.0 0.0 -5.660612229832e-02 
9.996250829201e-01 1.580071916804e-02 0.0 
1.580071916804e-02 -8.485189750293e+00 0.0 
0.0 0.0 1.599316914993e-01 
9.980999163556e-01 5.026909100561e-02 0.0 
5.026909100561e-02 -7.800243423712e+00 0.0 
0.0 0.0 3.279625391305e-01 
9.976380232004e-01 4.192862641505e-02 0.0 
4.192862641505e-02 -7.886615473311e+00 0.0 
0.0 0.0 3.275612524116e-01 
9.990009468205e-01 5.351950151344e-03 0.0 
5.351950151344e-03 -8.148230483295e+00 0.0 
0.0 0.0 6.991805733564e-02 
9.610570680965e-01 1.063732109447e-01 0.0 
1.063732109447e-01 -8.338144087468e+00 0.0 
0.0 0.0 -2.258253695611e-01 
7.140575407711e-01 2.290081861924e-01 0.0 
2.290081861924e-01 -7.832122541497e+00 0.0 
0.0 0.0 -3.673163325186e-01 
4.317542570755e-01 4.239384793940e-02 0.0 
4.239384793940e-02 -7.043584956069e+00 0.0 
0.0 0.0 -3.510536177649e-01 
-2.381692721350e+01 1.890608260503e+01 0.0 
1.890608260503e+01 -2.720493487092e+01 0.0 
0.0 0.0 -1.349222969495e+01 
-2.762130908399e+01 1.824225713121e+01 0.0 
1.824225713121e+01 -2.007718816152e+01 0.0 
0.0 0.0 -1.105750994961e+01 
-2.759266104891e+01 1.845122974993e+01 0.0 
1.845122974993e+01 -2.076964528563e+01 0.0 
0.0 0.0 -1.065656824695e+01 
-2.733690432157e+01 1.858214152324e+01 0.0 
1.858214152324e+01 -2.130857699418e+01 0.0 
0.0 0.0 -1.134933233215e+01 
-2.745875854852e+01 1.841668251737e+01 0.0 
1.841668251737e+01 -2.071984783989e+01 0.0 
0.0 0.0 -1.133663408361e+01 
-2.722700719882e+01 1.836497912373e+01 0.0 
1.836497912373e+01 -2.062889039832e+01 0.0 
0.0 0.0 -1.021560332607e+01 
-2.763475950949e+01 1.859550447744e+01 0.0 
1.859550447744e+01 -2.122903384458e+01 0.0 
0.0 0.0 -9.155314963708e+00 
-2.846496969638e+01 1.875393083490e+01 0.0 
1.875393083490e+01 -2.142668258937e+01 0.0 
0.0 0.0 -1.087686176377e+01 
-3.146285912333e+01 1.908809859366e+01 0.0 
1.908809859366e+01 -2.156039696430e+01 0.0 
0.0 0.0 -1.328400962036e+01 
-4.706882583581e+01 1.924299260577e+01 0.0 
1.924299260577e+01 -2.234543700468e+01 0.0 
0.0 0.0 -1.950169543725e+01 
-3.338431061582e+01 2.233207771666e+01 0.0 
2.233207771666e+01 -3.456503800139e+01 0.0 
0.0 0.0 -1.674358948411e+01 
-1.480156364792e+02 2.181826571089e+01 0.0 
2.181826571089e+01 -3.600908774392e+02 0.0 
0.0 0.0 -1.520319541755e+02 
3.367313805561e-01 3.158420286796e-01 0.0 
3.158420286796e-01 -1.632683616690e+01 0.0 
0.0 0.0 -1.766741648862e+00 
-4.157044854709e+01 -1.928435714029e+01 0.0 
-1.928435714029e+01 -8.637932102279e+01 0.0 
0.0 0.0 -3.920597736749e+01 
-1.597322519926e+02 8.670933203795e+00 0.0 
8.670933203795e+00 -3.877665003852e+02 0.0 
0.0 0.0 -1.638496257133e+02 
-3.233052488615e+01 2.190012988685e+01 0.0 
2.190012988685e+01 -3.228381129611e+01 0.0 
0.0 0.0 -1.618887618074e+01 
-1.038134739350e+02 -9.594142500724e-01 0.0 
-9.594142500724e-01 -2.132521716863e+02 0.0 
0.0 0.0 -9.026674512303e+01 
-1.377534920761e+02 3.032720367178e+01 0.0 
3.032720367178e+01 -3.340900936631e+02 0.0 
0.0 0.0 -1.411530757218e+02 
-3.398430675086e+01 2.225980632790e+01 0.0 
2.225980632790e+01 -3.238049085041e+01 0.0 
0.0 0.0 -1.553010153475e+01 
-1.290725637139e+02 3.782370920480e+01 0.0 
3.782370920480e+01 -3.108934769232e+02 0.0 
0.0 0.0 -1.315898121912e+02 
-3.796025635890e+01 2.349336137245e+01 0.0 
2.349336137245e+01 -3.435178485930e+01 0.0 
0.0 0.0 -1.787157617960e+01 
-1.647911275595e+02 1.950959290307e+00 0.0 
1.950959290307e+00 -3.906193826715e+02 0.0 
0.0 0.0 -1.662231530693e+02 
6.929223745706e-01 1.002989204791e-01 0.0 
1.002989204791e-01 -1.623844635362e+01 0.0 
0.0 0.0 -2.288544913293e+00 
-1.232588423354e+02 4.508196746876e+01 0.0 
4.508196746876e+01 -2.859408775420e+02 0.0 
0.0 0.0 -1.223599159632e+02 
-6.412516537119e+01 2.433283827950e+01 0.0 
2.433283827950e+01 -3.690709066912e+01 0.0 
0.0 0.0 -2.932111735206e+01 
-6.143907456007e+01 -8.290466191699e-01 0.0 
-8.290466191699e-01 -1.302355832770e+02 0.0 
0.0 0.0 -5.297699776328e+01 
-1.220816486222e+02 -7.528571827854e-01 0.0 
-7.528571827854e-01 -2.695400994027e+02 0.0 
0.0 0.0 -1.146675174584e+02 
-1.185217629057e+02 4.809408037227e+01 0.0 
4.809408037227e+01 -2.631391893298e+02 0.0 
0.0 0.0 -1.140982856707e+02 
-1.039178388051e+02 3.857581067300e+01 0.0 
3.857581067300e+01 -2.265475440746e+02 0.0 
0.0 0.0 -9.873961486392e+01 
-8.646261007040e+01 1.120563393379e+01 0.0 
1.120563393379e+01 -1.898805469654e+02 0.0 
0.0 0.0 -8.250294711075e+01 
-9.019404314929e+01 1.907147559922e+01 0.0 
1.907147559922e+01 -1.936305560672e+02 0.0 
0.0 0.0 -8.474737976493e+01 
-9.606115557758e+01 2.894045596444e+01 0.0 
2.894045596444e+01 -2.075659903372e+02 0.0 
0.0 0.0 -9.068814377442e+01 
-5.380632838008e+01 8.589726524403e+00 0.0 
8.589726524403e+00 -2.133829855916e+01 0.0 
0.0 0.0 -2.213310486114e+01 
-3.849555670048e+01 1.087814192579e+00 0.0 
1.087814192579e+00 -1.776688506947e+01 0.0 
0.0 0.0 -1.647873253098e+01 
-3.599766052084e+01 5.822854834203e-01 0.0 
5.822854834203e-01 -1.883841107717e+01 0.0 
0.0 0.0 -1.605082147940e+01 
-5.969888957623e+01 7.822558376241e-01 0.0 
7.822558376241e-01 -8.974854502161e+01 0.0 
0.0 0.0 -4.443423037935e+01 
-1.648325975440e+02 4.121169942902e-01 0.0 
4.121169942902e-01 -3.876431170829e+02 0.0 
0.0 0.0 -1.653427143881e+02 
-4.631085185415e+01 7.971804570605e+00 0.0 
7.971804570605e+00 -1.075553560265e+02 0.0 
0.0 0.0 -4.697939100132e+01 
4.509982662364e-01 5.420462055093e-02 0.0 
5.420462055093e-02 -1.721738352537e+01 0.0 
0.0 0.0 -2.409267848080e+00 
-1.414967308246e+02 -1.663658070399e-01 0.0 
-1.663658070399e-01 -3.328111815876e+02 0.0 
0.0 0.0 -1.418923737236e+02 
-3.316467694551e+01 6.254053867149e-02 0.0 
6.254053867149e-02 -1.649338807395e+01 0.0 
0.0 0.0 -1.449741950584e+01 
-1.667151267953e+01 -5.048388127783e-02 0.0 
-5.048388127783e-02 -6.808467186429e+01 0.0 
0.0 0.0 -2.426410370956e+01 
-1.099471359616e+02 4.356732327253e+01 0.0 
4.356732327253e+01 -2.399910280582e+02 0.0 
0.0 0.0 -1.045814492059e+02 
-1.341214627525e+02 3.409553283054e+01 0.0 
3.409553283054e+01 -3.235681630077e+02 0.0 
0.0 0.0 -1.369068877281e+02 
-1.258282174771e+02 4.150124438258e+01 0.0 
4.150124438258e+01 -2.987485162731e+02 0.0 
0.0 0.0 -1.269730201250e+02 
-1.415907519308e+02 2.652245333811e+01 0.0 
2.652245333811e+01 -3.452141933137e+02 0.0 
0.0 0.0 -1.456414835734e+02 
-1.538343357160e+02 1.701398137524e+01 0.0 
1.701398137524e+01 -3.739598034403e+02 0.0 
0.0 0.0 -1.579382417469e+02 
-1.395140495029e+01 -1.147182664680e+01 0.0 
-1.147182664680e+01 -2.676855828694e+01 0.0 
0.0 0.0 -8.970375029101e+00 
-4.286641855909e+01 2.811464036624e+00 0.0 
2.811464036624e+00 -1.786539842621e+01 0.0 
0.0 0.0 -1.781954509559e+01 
-1.609289722663e+02 4.163199418900e+00 0.0 
4.163199418900e+00 -3.873126353908e+02 0.0 
0.0 0.0 -1.640724822971e+02 
-7.159449190400e+01 1.227424618499e+00 0.0 
1.227424618499e+00 -1.302049719588e+02 0.0 
0.0 0.0 -6.013983915884e+01 
7.384711576416e-01 2.635412544464e-01 0.0 
2.635412544464e-01 -1.704835260710e+01 0.0 
0.0 0.0 -3.037087839119e+00 
-8.512267114144e+01 -1.001870864427e+00 0.0 
-1.001870864427e+00 -1.706128181711e+02 0.0 
0.0 0.0 -7.141191517555e+01 
-8.573879358590e+01 6.859231349890e+00 0.0 
6.859231349890e+00 -1.913904162442e+02 0.0 
0.0 0.0 -8.273876294904e+01 
-3.441585627470e+01 2.283419263694e+01 0.0 
2.283419263694e+01 -3.495728209252e+01 0.0 
0.0 0.0 -1.734772726125e+01 
-3.297351355656e+01 2.210578424484e+01 0.0 
2.210578424484e+01 -3.310688871282e+01 0.0 
0.0 0.0 -1.604359950085e+01 
-3.545317104795e+01 2.292783200196e+01 0.0 
2.292783200196e+01 -3.404723890728e+01 0.0 
0.0 0.0 -1.526216690473e+01 
-4.508965844014e+01 2.451674901181e+01 0.0 
2.451674901181e+01 -3.440661806326e+01 0.0 
0.0 0.0 -2.154010058404e+01 
-3.428798636441e+01 2.363590363349e+01 0.0 
2.363590363349e+01 -4.422899560746e+01 0.0 
0.0 0.0 -2.212974299916e+01 
-4.652921177643e+01 2.965393498295e-01 0.0 
2.965393498295e-01 -5.166047620321e+01 0.0 
0.0 0.0 -2.905690639389e+01 
-1.662435638753e+02 9.248047651118e-02 0.0 
9.248047651118e-02 -3.898182849623e+02 0.0 
0.0 0.0 -1.664185546513e+02 
4.070904864103e-01 8.871344413995e-03 0.0 
8.871344413995e-03 -1.619913824664e+01 0.0 
0.0 0.0 -2.145348688027e+00 
-8.111491497161e+01 1.660368568942e+00 0.0 
1.660368568942e+00 -1.710890830578e+02 0.0 
0.0 0.0 -7.526119940881e+01 
-6.558845301877e+01 2.153244209192e+01 0.0 
2.153244209192e+01 -3.748615526729e+01 0.0 
0.0 0.0 -3.033763037588e+01 
-7.255115690762e+01 2.772240311642e+01 0.0 
2.772240311642e+01 -5.839424516018e+01 0.0 
0.0 0.0 -3.869631768186e+01 
-7.272223895399e+01 2.364713605761e+01 0.0 
2.364713605761e+01 -5.838064988141e+01 0.0 
0.0 0.0 -3.893071408665e+01 
-7.731149443622e+01 3.015061847666e+01 0.0 
3.015061847666e+01 -8.212995690392e+01 0.0 
0.0 0.0 -4.743243540204e+01 
-7.844024667782e+01 2.734188242661e+01 0.0 
2.734188242661e+01 -8.481612374036e+01 0.0 
0.0 0.0 -4.857691112545e+01 
-8.219397455000e+01 3.184309635970e+01 0.0 
3.184309635970e+01 -1.052092689718e+02 0.0 
0.0 0.0 -5.582097305654e+01 
-8.061393374621e+01 3.380819344187e+01 0.0 
3.380819344187e+01 -1.033358505087e+02 0.0 
0.0 0.0 -5.478493527646e+01 
-8.559832772122e+01 3.504670383032e+01 0.0 
3.504670383032e+01 -1.253707119186e+02 0.0 
0.0 0.0 -6.289071189194e+01 
-8.356883966673e+01 3.637642138202e+01 0.0 
3.637642138202e+01 -1.235778497962e+02 0.0 
0.0 0.0 -6.174400683887e+01 
-8.422999722086e+01 2.965208535598e+01 0.0 
2.965208535598e+01 -1.088185877580e+02 0.0 
0.0 0.0 -5.751457549366e+01 
-8.879002793537e+01 3.748501207356e+01 0.0 
3.748501207356e+01 -1.450662538409e+02 0.0 
0.0 0.0 -6.975688453289e+01 
-8.659345419642e+01 3.840030156179e+01 0.0 
3.840030156179e+01 -1.431693406196e+02 0.0 
0.0 0.0 -6.852883844481e+01 
-9.201558508784e+01 3.950117229831e+01 0.0 
3.950117229831e+01 -1.644015560395e+02 0.0 
0.0 0.0 -7.652514233820e+01 
-8.974797397647e+01 4.015124569557e+01 0.0 
4.015124569557e+01 -1.624055426581e+02 0.0 
0.0 0.0 -7.524605499037e+01 
-8.464435451902e+01 3.913556946035e+01 0.0 
3.913556946035e+01 -1.416775627732e+02 0.0 
0.0 0.0 -6.732279439494e+01 
-8.754785355919e+01 4.062073414132e+01 0.0 
4.062073414132e+01 -1.608590424659e+02 0.0 
0.0 0.0 -7.402111359741e+01 
-8.311664105150e+01 3.963719111472e+01 0.0 
3.963719111472e+01 -1.405324170411e+02 0.0 
0.0 0.0 -6.603608166189e+01 
-8.572909799478e+01 4.080807651364e+01 0.0 
4.080807651364e+01 -1.597488500516e+02 0.0 
0.0 0.0 -7.273249393221e+01 
-9.073782701182e+01 4.176195688004e+01 0.0 
4.176195688004e+01 -1.797468009736e+02 0.0 
0.0 0.0 -8.070531215908e+01 
-8.861665490959e+01 4.166174889426e+01 0.0 
4.166174889426e+01 -1.786329211597e+02 0.0 
0.0 0.0 -7.943733305282e+01 
-8.393927435055e+01 4.070013437453e+01 0.0 
4.070013437453e+01 -1.589403020733e+02 0.0 
0.0 0.0 -7.126347322570e+01 
-8.663924505902e+01 4.128926825133e+01 0.0 
4.128926825133e+01 -1.776489936976e+02 0.0 
0.0 0.0 -7.798083015963e+01 
-8.207973788555e+01 4.051562583046e+01 0.0 
4.051562583046e+01 -1.582690099208e+02 0.0 
0.0 0.0 -6.963009613526e+01 
-8.458895696005e+01 4.067646386446e+01 0.0 
4.067646386446e+01 -1.764673977042e+02 0.0 
0.0 0.0 -7.622101791238e+01 
-7.999069576308e+01 4.016729878063e+01 0.0 
4.016729878063e+01 -1.575479195652e+02 0.0 
0.0 0.0 -6.806977753341e+01 
-8.232945061088e+01 3.973322837500e+01 0.0 
3.973322837500e+01 -1.751136941432e+02 0.0 
0.0 0.0 -7.472879956904e+01 
-8.695411486284e+01 3.975283263357e+01 0.0 
3.975283263357e+01 -1.927269920392e+02 0.0 
0.0 0.0 -8.228754022215e+01 
-8.396160029697e+01 3.803934928287e+01 0.0 
3.803934928287e+01 -1.893063066184e+02 0.0 
0.0 0.0 -8.028932088753e+01 
-7.946209980812e+01 3.866367117488e+01 0.0 
3.866367117488e+01 -1.723483180856e+02 0.0 
0.0 0.0 -7.332753374862e+01 
-8.087204501187e+01 3.622302854915e+01 0.0 
3.622302854915e+01 -1.852137008853e+02 0.0 
0.0 0.0 -7.858500254541e+01 
-7.663892601329e+01 3.724020986793e+01 0.0 
3.724020986793e+01 -1.688971806762e+02 0.0 
0.0 0.0 -7.227099891405e+01 
-7.770950683461e+01 3.393540725691e+01 0.0 
3.393540725691e+01 -1.818746741777e+02 0.0 
0.0 0.0 -7.757242242291e+01 
-8.163142075697e+01 3.235045301910e+01 0.0 
3.235045301910e+01 -1.968064064307e+02 0.0 
0.0 0.0 -8.336102420908e+01 
-7.824512094698e+01 2.942599816622e+01 0.0 
2.942599816622e+01 -1.933448196216e+02 0.0 
0.0 0.0 -8.230074314467e+01 
-7.441835018264e+01 3.116477922775e+01 0.0 
3.116477922775e+01 -1.790635914218e+02 0.0 
0.0 0.0 -7.649518126970e+01 
-7.477897084835e+01 2.613908516131e+01 0.0 
2.613908516131e+01 -1.898801051440e+02 0.0 
0.0 0.0 -8.090097429888e+01 
-7.107164667215e+01 2.818479362173e+01 0.0 
2.818479362173e+01 -1.760848100364e+02 0.0 
0.0 0.0 -7.478942986784e+01 
-7.127115936588e+01 2.265932686126e+01 0.0 
2.265932686126e+01 -1.860301055594e+02 0.0 
0.0 0.0 -7.857174381533e+01 
-6.754453577567e+01 2.487481595250e+01 0.0 
2.487481595250e+01 -1.726911914824e+02 0.0 
0.0 0.0 -7.174919774944e+01 
-6.783708615049e+01 1.869108691943e+01 0.0 
1.869108691943e+01 -1.823124542496e+02 0.0 
0.0 0.0 -7.523722333776e+01 
-7.259107552231e+01 1.744443785280e+01 0.0 
1.744443785280e+01 -1.956829591718e+02 0.0 
0.0 0.0 -8.276228706425e+01 
-6.964969297376e+01 1.325856462806e+01 0.0 
1.325856462806e+01 -1.920367039860e+02 0.0 
0.0 0.0 -7.957582677411e+01 
-6.460452138968e+01 1.402799023420e+01 0.0 
1.402799023420e+01 -1.788745554517e+02 0.0 
0.0 0.0 -7.195866549433e+01 
-6.699200277345e+01 8.546299851442e+00 0.0 
8.546299851442e+00 -1.884423188674e+02 0.0 
0.0 0.0 -7.636844275152e+01 
-7.330458135645e+01 9.514189538095e+00 0.0 
9.514189538095e+00 -2.033347315198e+02 0.0 
0.0 0.0 -8.525945893296e+01 
-7.116019453405e+01 4.961525650531e+00 0.0 
4.961525650531e+00 -1.998847692975e+02 0.0 
0.0 0.0 -8.231110976034e+01 
-7.807757749871e+01 6.914325737864e+00 0.0 
6.914325737864e+00 -2.159706431531e+02 0.0 
0.0 0.0 -9.181511032610e+01 
-7.623933143554e+01 2.490800848540e+00 0.0 
2.490800848540e+00 -2.125763521047e+02 0.0 
0.0 0.0 -8.921856896584e+01 
-6.962645935521e+01 -9.842458558037e-03 0.0 
-9.842458558037e-03 -1.968345762752e+02 0.0 
0.0 0.0 -7.997457431623e+01 
-7.497092286165e+01 -2.284653521622e+00 0.0 
-2.284653521622e+00 -2.095375785266e+02 0.0 
0.0 0.0 -8.705896805698e+01 
-8.144634586935e+01 4.821813702848e-01 0.0 
4.821813702848e-01 -2.252237540603e+02 0.0 
0.0 0.0 -9.584006401386e+01 
-8.043528981203e+01 -4.210301752892e+00 0.0 
-4.210301752892e+00 -2.223509785249e+02 0.0 
0.0 0.0 -9.380269427829e+01 
-7.428888757755e+01 -7.299603318227e+00 0.0 
-7.299603318227e+00 -2.066601812825e+02 0.0 
0.0 0.0 -8.534683210203e+01 
-7.980380278929e+01 -9.016936351603e+00 0.0 
-9.016936351603e+00 -2.192874852928e+02 0.0 
0.0 0.0 -9.177610605188e+01 
-8.616284947262e+01 -5.900684811750e+00 0.0 
-5.900684811750e+00 -2.357163747850e+02 0.0 
0.0 0.0 -9.964747574984e+01 
-8.543690452390e+01 -1.026532810715e+01 0.0 
-1.026532810715e+01 -2.308940954362e+02 0.0 
0.0 0.0 -9.690808442046e+01 
-7.887647809268e+01 -1.321570704979e+01 0.0 
-1.321570704979e+01 -2.140228517000e+02 0.0 
0.0 0.0 -8.902401695017e+01 
-8.446409936238e+01 -1.333182043305e+01 0.0 
-1.333182043305e+01 -2.202692423984e+02 0.0 
0.0 0.0 -9.230609797542e+01 
-9.161781544213e+01 -1.017154316586e+01 0.0 
-1.017154316586e+01 -2.380219911767e+02 0.0 
0.0 0.0 -1.004275835473e+02 
-9.035325095474e+01 -1.215516774981e+01 0.0 
-1.215516774981e+01 -2.243246333684e+02 0.0 
0.0 0.0 -9.475233114536e+01 
-8.310109703412e+01 -1.501493378400e+01 0.0 
-1.501493378400e+01 -2.054586722946e+02 0.0 
0.0 0.0 -8.638752477233e+01 
-8.855449989998e+01 -1.320339318855e+01 0.0 
-1.320339318855e+01 -2.101233342622e+02 0.0 
0.0 0.0 -8.879047202894e+01 
-9.572800081126e+01 -1.067711217279e+01 0.0 
-1.067711217279e+01 -2.296725474817e+02 0.0 
0.0 0.0 -9.713653598263e+01 
-9.365433516077e+01 -1.132515487427e+01 0.0 
-1.132515487427e+01 -2.158091788022e+02 0.0 
0.0 0.0 -9.119065830908e+01 
-1.005755447517e+02 -9.211171623605e+00 0.0 
-9.211171623605e+00 -2.356141212018e+02 0.0 
0.0 0.0 -9.927817689804e+01 
-8.603141444253e+01 -1.342399417902e+01 0.0 
-1.342399417902e+01 -1.955853927586e+02 0.0 
0.0 0.0 -8.259939995828e+01 
-9.086715799104e+01 -1.132834050898e+01 0.0 
-1.132834050898e+01 -2.017738785350e+02 0.0 
0.0 0.0 -8.506699146658e+01 
-8.260340499842e+01 -1.287214484205e+01 0.0 
-1.287214484205e+01 -1.810103194765e+02 0.0 
0.0 0.0 -7.622248001654e+01 
-8.728643504625e+01 -1.077410225096e+01 0.0 
-1.077410225096e+01 -1.878208506441e+02 0.0 
0.0 0.0 -7.885159499067e+01 
-8.251255140977e+01 2.791123649903e+01 0.0 
2.791123649903e+01 -2.074928632883e+02 0.0 
0.0 0.0 -8.786874110976e+01 
-7.821660476655e+01 -1.175790147406e+01 0.0 
-1.175790147406e+01 -1.667836822955e+02 0.0 
0.0 0.0 -6.983611932244e+01 
-7.370631884827e+01 -1.406064115273e+01 0.0 
-1.406064115273e+01 -1.600725503329e+02 0.0 
0.0 0.0 -6.723653437797e+01 
-8.284346780631e+01 -9.778288671523e+00 0.0 
-9.778288671523e+00 -1.741833869507e+02 0.0 
0.0 0.0 -7.261467296769e+01 
-9.175529133204e+01 -8.988260334532e+00 0.0 
-8.988260334532e+00 -1.951164688126e+02 0.0 
0.0 0.0 -8.144699138437e+01 
-7.284741229476e+01 -1.027271596028e+01 0.0 
-1.027271596028e+01 -1.530023482646e+02 0.0 
0.0 0.0 -6.345536217664e+01 
-7.751475602431e+01 -8.525464706358e+00 0.0 
-8.525464706358e+00 -1.609033335617e+02 0.0 
0.0 0.0 -6.638500403570e+01 
-6.653258941885e+01 -8.607026648932e+00 0.0 
-8.607026648932e+00 -1.397295359358e+02 0.0 
0.0 0.0 -5.708175679514e+01 
-6.750356296693e+01 3.022623301799e+01 0.0 
3.022623301799e+01 -1.613726186874e+02 0.0 
0.0 0.0 -6.804089142547e+01 
-9.423403958281e+01 4.268019359582e+01 0.0 
4.268019359582e+01 -1.985004641006e+02 0.0 
0.0 0.0 -8.741890206782e+01 
-7.131909804886e+01 -7.153123465371e+00 0.0 
-7.153123465371e+00 -1.479766093545e+02 0.0 
0.0 0.0 -6.017483160208e+01 
-5.936466249210e+01 -6.903668814611e+00 0.0 
-6.903668814611e+00 -1.269185595235e+02 0.0 
0.0 0.0 -5.077129577647e+01 
-5.469449617801e+01 -8.098374311753e+00 0.0 
-8.098374311753e+00 -1.184677286010e+02 0.0 
0.0 0.0 -4.754138710961e+01 
-4.647706027605e+01 -6.098980723778e+00 0.0 
-6.098980723778e+00 -1.059063655267e+02 0.0 
0.0 0.0 -4.117695553424e+01 
-8.040695780734e+01 2.520371156392e+01 0.0 
2.520371156392e+01 -9.023389651921e+01 0.0 
0.0 0.0 -5.079225629797e+01 
-8.549772115511e+01 2.739576632126e+01 0.0 
2.739576632126e+01 -1.137010082174e+02 0.0 
0.0 0.0 -5.935961881176e+01 
-8.083560596299e+01 2.261744283898e+01 0.0 
2.261744283898e+01 -9.526995473028e+01 0.0 
0.0 0.0 -5.243166820798e+01 
-8.648916014016e+01 2.540946981528e+01 0.0 
2.540946981528e+01 -1.194080034486e+02 0.0 
0.0 0.0 -6.136914907664e+01 
-8.186176892668e+01 2.071636381311e+01 0.0 
2.071636381311e+01 -1.028398158063e+02 0.0 
0.0 0.0 -5.501047541989e+01 
-5.135785479568e+01 -5.217747532802e+00 0.0 
-5.217747532802e+00 -1.144983162637e+02 0.0 
0.0 0.0 -4.454400954280e+01 
-9.418160479655e+01 3.866805322453e+01 0.0 
3.866805322453e+01 -1.669851607992e+02 0.0 
0.0 0.0 -7.795002967872e+01 
-9.056428343537e+01 2.958966645953e+01 0.0 
2.958966645953e+01 -1.370333118314e+02 0.0 
0.0 0.0 -6.787927858002e+01 
-7.963735232969e+01 4.002698199261e+01 0.0 
4.002698199261e+01 -1.392257605729e+02 0.0 
0.0 0.0 -6.293781283554e+01 
-7.474397294823e+01 3.890562906684e+01 0.0 
3.890562906684e+01 -1.545518348058e+02 0.0 
0.0 0.0 -6.636762735754e+01 
-8.032660233077e+01 1.105925156267e+01 0.0 
1.105925156267e+01 -2.195795609850e+02 0.0 
0.0 0.0 -9.441063067810e+01 
-8.210106549097e+01 -7.074117623072e+00 0.0 
-7.074117623072e+00 -1.688734593958e+02 0.0 
0.0 0.0 -6.931373938554e+01 
-7.608103759771e+01 -5.936666292009e+00 0.0 
-5.936666292009e+00 -1.562318903530e+02 0.0 
0.0 0.0 -6.327602350744e+01 
-8.651325923616e+01 -5.841119697609e+00 0.0 
-5.841119697609e+00 -1.769460417290e+02 0.0 
0.0 0.0 -7.261364189396e+01 
-1.021255922945e+02 -8.176709130940e+00 0.0 
-8.176709130940e+00 -2.489800583152e+02 0.0 
0.0 0.0 -1.049194676471e+02 
-1.064578382240e+02 -7.161107787178e+00 0.0 
-7.161107787178e+00 -2.550391478112e+02 0.0 
0.0 0.0 -1.068157149929e+02 
-1.074294230631e+02 -5.788563905484e+00 0.0 
-5.788563905484e+00 -2.679571052260e+02 0.0 
0.0 0.0 -1.120922494067e+02 
-1.113815516497e+02 -5.207579027860e+00 0.0 
-5.207579027860e+00 -2.740957243350e+02 0.0 
0.0 0.0 -1.143073098839e+02 
-1.125030650485e+02 -3.733745919523e+00 0.0 
-3.733745919523e+00 -2.866075898726e+02 0.0 
0.0 0.0 -1.192336612405e+02 
-1.164935141449e+02 -3.437445862656e+00 0.0 
-3.437445862656e+00 -2.929557706905e+02 0.0 
0.0 0.0 -1.220667659573e+02 
-1.150519449773e+02 -4.583962812119e+00 0.0 
-4.583962812119e+00 -2.806528762321e+02 0.0 
0.0 0.0 -1.171681672259e+02 
-1.204468224864e+02 -2.983832549414e+00 0.0 
-2.983832549414e+00 -2.997976909915e+02 0.0 
0.0 0.0 -1.254230225900e+02 
-1.186495214520e+02 -3.871619531163e+00 0.0 
-3.871619531163e+00 -2.875939570715e+02 0.0 
0.0 0.0 -1.205577848254e+02 
-1.190011462001e+02 -2.222760670785e+00 0.0 
-2.222760670785e+00 -3.051791785152e+02 0.0 
0.0 0.0 -1.267835502826e+02 
-1.145666320566e+02 -2.227357716325e+00 0.0 
-2.227357716325e+00 -2.993164201599e+02 0.0 
0.0 0.0 -1.239256044733e+02 
-1.244940907810e+02 -2.419005449789e+00 0.0 
-2.419005449789e+00 -3.069366821049e+02 0.0 
0.0 0.0 -1.288674216551e+02 
-1.222154314527e+02 -3.107065787613e+00 0.0 
-3.107065787613e+00 -2.947853419208e+02 0.0 
0.0 0.0 -1.239955667443e+02 
-1.286630582559e+02 -1.841410436302e+00 0.0 
-1.841410436302e+00 -3.142333767137e+02 0.0 
0.0 0.0 -1.323655528955e+02 
-1.257911379100e+02 -2.361953430228e+00 0.0 
-2.361953430228e+00 -3.021633338656e+02 0.0 
0.0 0.0 -1.275076905634e+02 
-1.204790570216e+02 -3.595112448296e+00 0.0 
-3.595112448296e+00 -2.824815785404e+02 0.0 
0.0 0.0 -1.190384587727e+02 
-1.237545057798e+02 -2.744271343286e+00 0.0 
-2.744271343286e+00 -2.899814493654e+02 0.0 
0.0 0.0 -1.225687455355e+02 
-1.185566764443e+02 -3.845465380140e+00 0.0 
-3.845465380140e+00 -2.702039322652e+02 0.0 
0.0 0.0 -1.140196434989e+02 
-8.510216861790e+01 8.758530480123e+00 0.0 
8.758530480123e+00 -2.322336263447e+02 0.0 
0.0 0.0 -1.005342253756e+02 
-8.747085486076e+01 1.261670304040e+01 0.0 
1.261670304040e+01 -2.360653881077e+02 0.0 
0.0 0.0 -1.020917358332e+02 
-9.240038037865e+01 1.073450932149e+01 0.0 
1.073450932149e+01 -2.490214890521e+02 0.0 
0.0 0.0 -1.072592574349e+02 
-9.473705294119e+01 1.432284788301e+01 0.0 
1.432284788301e+01 -2.527340438834e+02 0.0 
0.0 0.0 -1.076399636808e+02 
-9.982590413120e+01 1.272191886302e+01 0.0 
1.272191886302e+01 -2.660314065782e+02 0.0 
0.0 0.0 -1.122757945504e+02 
-1.022095300083e+02 1.613178413121e+01 0.0 
1.613178413121e+01 -2.698090825373e+02 0.0 
0.0 0.0 -1.127015512545e+02 
-1.073571714881e+02 1.475729549616e+01 0.0 
1.475729549616e+01 -2.832112120864e+02 0.0 
0.0 0.0 -1.176088896842e+02 
-1.050979889075e+02 1.130176398041e+01 0.0 
1.130176398041e+01 -2.794939746770e+02 0.0 
0.0 0.0 -1.168470633209e+02 
-9.535514302563e+01 4.130006341026e+01 0.0 
4.130006341026e+01 -1.833980558534e+02 0.0 
0.0 0.0 -8.322595966370e+01 
-6.174925879202e+01 8.616648269183e+00 0.0 
8.616648269183e+00 -1.755507532319e+02 0.0 
0.0 0.0 -6.922719528098e+01 
-6.060882954710e+01 1.582249146713e+01 0.0 
1.582249146713e+01 -1.670878491625e+02 0.0 
0.0 0.0 -6.583162035625e+01 
-5.762981767610e+01 9.710763529872e+00 0.0 
9.710763529872e+00 -1.646902131571e+02 0.0 
0.0 0.0 -6.351600491142e+01 
-5.752875132307e+01 1.833177284257e+01 0.0 
1.833177284257e+01 -1.561917451151e+02 0.0 
0.0 0.0 -6.047340942879e+01 
-5.451790962097e+01 1.171202535078e+01 0.0 
1.171202535078e+01 -1.553716790383e+02 0.0 
0.0 0.0 -5.897675365138e+01 
-5.502362163535e+01 2.118977667720e+01 0.0 
2.118977667720e+01 -1.452111698496e+02 0.0 
0.0 0.0 -5.566483495593e+01 
-5.214691813763e+01 1.433782062453e+01 0.0 
1.433782062453e+01 -1.467215607859e+02 0.0 
0.0 0.0 -5.559128905395e+01 
-5.209072994222e+01 3.325072222140e+00 0.0 
3.325072222140e+00 -1.536152212635e+02 0.0 
0.0 0.0 -5.797705655035e+01 
-4.954106742699e+01 5.064337718611e+00 0.0 
5.064337718611e+00 -1.466746147864e+02 0.0 
0.0 0.0 -5.591993678944e+01 
-5.040917527081e+01 -5.641847068056e+00 0.0 
-5.641847068056e+00 -1.489070961551e+02 0.0 
0.0 0.0 -5.661600154205e+01 
-4.752087803907e+01 -4.733255323591e+00 0.0 
-4.733255323591e+00 -1.419789052538e+02 0.0 
0.0 0.0 -5.513662957544e+01 
-4.923259374259e+01 -1.390800604852e+01 0.0 
-1.390800604852e+01 -1.402947776946e+02 0.0 
0.0 0.0 -5.380577307620e+01 
-8.838707584170e+01 3.704410391514e+01 0.0 
3.704410391514e+01 -2.052971786533e+02 0.0 
0.0 0.0 -8.704218027007e+01 
-9.726078811899e+01 1.771003610251e+01 0.0 
1.771003610251e+01 -2.565570752291e+02 0.0 
0.0 0.0 -1.078345998870e+02 
-1.047499125866e+02 1.936571856250e+01 0.0 
1.936571856250e+01 -2.736846521970e+02 0.0 
0.0 0.0 -1.136540786964e+02 
-9.989508551411e+01 2.086808619577e+01 0.0 
2.086808619577e+01 -2.604223254582e+02 0.0 
0.0 0.0 -1.084906286858e+02 
-4.201371479915e+01 -6.814791215124e+00 0.0 
-6.814791215124e+00 -9.732758225619e+01 0.0 
0.0 0.0 -3.782854121361e+01 
-1.294214504389e+02 -1.710791337947e+00 0.0 
-1.710791337947e+00 -3.097050552022e+02 0.0 
0.0 0.0 -1.310922259929e+02 
-1.216584073972e+02 -5.172155557060e-01 0.0 
-5.172155557060e-01 -3.173221644064e+02 0.0 
0.0 0.0 -1.312941715411e+02 
-1.168054136724e+02 1.654286981215e-01 0.0 
1.654286981215e-01 -3.092110188071e+02 0.0 
0.0 0.0 -1.275016946989e+02 
-1.125873074717e+02 1.341499901230e+01 0.0 
1.341499901230e+01 -2.966310512079e+02 0.0 
0.0 0.0 -1.226409731971e+02 
-3.763210104785e+01 -4.144982397298e+00 0.0 
-4.144982397298e+00 -9.386126102565e+01 0.0 
0.0 0.0 -3.518084917436e+01 
-5.302961633133e+01 2.416785312235e+01 0.0 
2.416785312235e+01 -1.337148240828e+02 0.0 
0.0 0.0 -5.145794037854e+01 
-5.620862168203e+01 2.866384522385e+01 0.0 
2.866384522385e+01 -1.310412052655e+02 0.0 
0.0 0.0 -5.152806658799e+01 
-8.726168639196e+01 2.362253717134e+01 0.0 
2.362253717134e+01 -1.262098329080e+02 0.0 
0.0 0.0 -6.364145578999e+01 
-8.255989579277e+01 1.918415993095e+01 0.0 
1.918415993095e+01 -1.108315971218e+02 0.0 
0.0 0.0 -5.761744787437e+01 
-1.241454056891e+02 2.217616170022e+00 0.0 
2.217616170022e+00 -3.265437006248e+02 0.0 
0.0 0.0 -1.348067318942e+02 
-4.242094870515e+01 -3.483828394320e+00 0.0 
-3.483828394320e+00 -1.025055916411e+02 0.0 
0.0 0.0 -3.889127336747e+01 
-1.277374487354e+02 -1.647554984084e+00 0.0 
-1.647554984084e+00 -3.189481543831e+02 0.0 
0.0 0.0 -1.335986928748e+02 
-4.765414176709e+01 7.563458929616e+00 0.0 
7.563458929616e+00 -1.406782549272e+02 0.0 
0.0 0.0 -5.517077578836e+01 
-1.269170484546e+02 -2.001458047135e+00 0.0 
-2.001458047135e+00 -2.976486972172e+02 0.0 
0.0 0.0 -1.261397361587e+02 
-1.331640186430e+02 -1.178433866099e+00 0.0 
-1.178433866099e+00 -3.173569411207e+02 0.0 
0.0 0.0 -1.346600009222e+02 
-1.137526352229e+02 -5.394766964346e+00 0.0 
-5.394766964346e+00 -2.681732428449e+02 0.0 
0.0 0.0 -1.121159484898e+02 
-1.074215039090e+02 2.240066489808e+01 0.0 
2.240066489808e+01 -2.776998550034e+02 0.0 
0.0 0.0 -1.151580121029e+02 
-1.026903015263e+02 2.385558336916e+01 0.0 
2.385558336916e+01 -2.644969159014e+02 0.0 
0.0 0.0 -1.098689911850e+02 
-5.310602991995e+01 -1.307514072471e+01 0.0 
-1.307514072471e+01 -1.510749401992e+02 0.0 
0.0 0.0 -5.779014218398e+01 
-5.248629520520e+01 -1.928091650652e+01 0.0 
-1.928091650652e+01 -1.420485686841e+02 0.0 
0.0 0.0 -5.431867778596e+01 
-4.812520172663e+01 -2.051608743393e+01 0.0 
-2.051608743393e+01 -1.280690214827e+02 0.0 
0.0 0.0 -4.871743811404e+01 
-5.187351676688e+01 -2.325924735167e+01 0.0 
-2.325924735167e+01 -1.331896349759e+02 0.0 
0.0 0.0 -5.066661848040e+01 
-5.671895672774e+01 -2.075926122153e+01 0.0 
-2.075926122153e+01 -1.509799793119e+02 0.0 
0.0 0.0 -5.825387443510e+01 
-5.590808404082e+01 -2.268584039978e+01 0.0 
-2.268584039978e+01 -1.437483005214e+02 0.0 
0.0 0.0 -5.524443863966e+01 
-5.053133790592e+01 -2.480715033607e+01 0.0 
-2.480715033607e+01 -1.242283132203e+02 0.0 
0.0 0.0 -4.677623439369e+01 
-5.422533206331e+01 -2.271903066112e+01 0.0 
-2.271903066112e+01 -1.283858642473e+02 0.0 
0.0 0.0 -4.921376307916e+01 
-6.006468732062e+01 -2.125006503066e+01 0.0 
-2.125006503066e+01 -1.483774963734e+02 0.0 
0.0 0.0 -5.852852602650e+01 
-5.724885021458e+01 -2.017206934737e+01 0.0 
-2.017206934737e+01 -1.283710501434e+02 0.0 
0.0 0.0 -5.120035929618e+01 
-5.107954791840e+01 -1.996992463524e+01 0.0 
-1.996992463524e+01 -1.065769189658e+02 0.0 
0.0 0.0 -4.180964925524e+01 
-5.253338396475e+01 -1.707013302512e+01 0.0 
-1.707013302512e+01 -1.085589618065e+02 0.0 
0.0 0.0 -4.389329107008e+01 
-1.372419229263e+02 -8.877172571326e-01 0.0 
-8.877172571326e-01 -3.291857570891e+02 0.0 
0.0 0.0 -1.395283040046e+02 
-4.505227173963e+01 -2.859187053761e+00 0.0 
-2.859187053761e+00 -1.362804705618e+02 0.0 
0.0 0.0 -5.478723765203e+01 
-8.074832045892e+01 3.810020876006e+01 0.0 
3.810020876006e+01 -1.209751124657e+02 0.0 
0.0 0.0 -5.933382205776e+01 
-1.290498283989e+02 1.268857637637e+00 0.0 
1.268857637637e+00 -3.348972488034e+02 0.0 
0.0 0.0 -1.387841231607e+02 
-1.148509420868e+02 1.675115515200e+01 0.0 
1.675115515200e+01 -3.002675363124e+02 0.0 
0.0 0.0 -1.241686533336e+02 
-8.776749445445e+01 2.211605023460e+01 0.0 
2.211605023460e+01 -1.338823882113e+02 0.0 
0.0 0.0 -6.609496479971e+01 
-8.314334043086e+01 1.797502332947e+01 0.0 
1.797502332947e+01 -1.195938212936e+02 0.0 
0.0 0.0 -6.042114851735e+01 
-7.710623942637e+01 1.475635677300e+01 0.0 
1.475635677300e+01 -9.681082789215e+01 0.0 
0.0 0.0 -5.177512019556e+01 
-7.801265995784e+01 1.400384975919e+01 0.0 
1.400384975919e+01 -1.065824273398e+02 0.0 
0.0 0.0 -5.497852618929e+01 
-8.359399590959e+01 1.700957578686e+01 0.0 
1.700957578686e+01 -1.289919440317e+02 0.0 
0.0 0.0 -6.337578198237e+01 
-7.884723355659e+01 1.338596322432e+01 0.0 
1.338596322432e+01 -1.166036702976e+02 0.0 
0.0 0.0 -5.823527115625e+01 
-7.251360492472e+01 1.049479217540e+01 0.0 
1.049479217540e+01 -9.467128286158e+01 0.0 
0.0 0.0 -4.975546633589e+01 
-7.386309506904e+01 1.019203979784e+01 0.0 
1.019203979784e+01 -1.050984064479e+02 0.0 
0.0 0.0 -5.328845045509e+01 
-6.691623347186e+01 7.552133311051e+00 0.0 
7.552133311051e+00 -8.366398697232e+01 0.0 
0.0 0.0 -4.477406613325e+01 
-6.878366047936e+01 7.509452945885e+00 0.0 
7.509452945885e+00 -9.437813364657e+01 0.0 
0.0 0.0 -4.854853823778e+01 
-7.515138038383e+01 9.876631432797e+00 0.0 
9.876631432797e+00 -1.156681310026e+02 0.0 
0.0 0.0 -5.684585341592e+01 
-7.056906487101e+01 7.412141238997e+00 0.0 
7.412141238997e+00 -1.052413417653e+02 0.0 
0.0 0.0 -5.234312199090e+01 
-6.373785929808e+01 5.342591118692e+00 0.0 
5.342591118692e+00 -8.434647085736e+01 0.0 
0.0 0.0 -4.402529904663e+01 
-6.601104378506e+01 5.389718739869e+00 0.0 
5.389718739869e+00 -9.528748758233e+01 0.0 
0.0 0.0 -4.798955941022e+01 
-5.884773598957e+01 3.684997550602e+00 0.0 
3.684997550602e+00 -7.469607357664e+01 0.0 
0.0 0.0 -3.966314286986e+01 
-6.159501082075e+01 3.807231828453e+00 0.0 
3.807231828453e+00 -8.559709392600e+01 0.0 
0.0 0.0 -4.375763142403e+01 
-6.822068940848e+01 5.232501444084e+00 0.0 
5.232501444084e+00 -1.063401852169e+02 0.0 
0.0 0.0 -5.196826238760e+01 
-2.795555050467e+01 -2.244221556374e+00 0.0 
-2.244221556374e+00 -8.259620825580e+01 0.0 
0.0 0.0 -3.008043453342e+01 
-1.104117414772e+02 9.893326723314e+00 0.0 
9.893326723314e+00 -2.929084585047e+02 0.0 
0.0 0.0 -1.213709967258e+02 
-1.178241277409e+02 1.195559031881e+01 0.0 
1.195559031881e+01 -3.099870274700e+02 0.0 
0.0 0.0 -1.279433465633e+02 
-8.095744266910e+01 -4.840286218336e+00 0.0 
-4.840286218336e+00 -1.650408493939e+02 0.0 
0.0 0.0 -6.738152667695e+01 
-9.079242628338e+01 -4.720329564897e+00 0.0 
-4.720329564897e+00 -1.848497349964e+02 0.0 
0.0 0.0 -7.661670886447e+01 
-9.554330393307e+01 -5.599369678745e+00 0.0 
-5.599369678745e+00 -1.974501039301e+02 0.0 
0.0 0.0 -8.191957574318e+01 
-9.944671905453e+01 -4.496407459736e+00 0.0 
-4.496407459736e+00 -2.055900513206e+02 0.0 
0.0 0.0 -8.609314607664e+01 
-6.419769469007e+01 3.682394742424e+00 0.0 
3.682394742424e+00 -9.657141329853e+01 0.0 
0.0 0.0 -4.783073239658e+01 
-7.030254294161e+01 4.866425915139e+00 0.0 
4.866425915139e+00 -1.174803652497e+02 0.0 
0.0 0.0 -5.593487245740e+01 
-5.302007587852e+01 2.986004781744e+01 0.0 
2.986004781744e+01 -1.161443871747e+02 0.0 
0.0 0.0 -4.576260881745e+01 
-5.477524928648e+01 3.211988053992e+01 0.0 
3.211988053992e+01 -1.123098402426e+02 0.0 
0.0 0.0 -4.551083876063e+01 
-9.188414622111e+01 2.624110583389e+01 0.0 
2.624110583389e+01 -1.493510245081e+02 0.0 
0.0 0.0 -7.197055121875e+01 
-1.300281414374e+02 -1.354833504986e+00 0.0 
-1.354833504986e+00 -3.055439880300e+02 0.0 
0.0 0.0 -1.297610326200e+02 
-1.247442539519e+02 -2.102836181942e+00 0.0 
-2.102836181942e+00 -2.856861738444e+02 0.0 
0.0 0.0 -1.212039869572e+02 
-7.230487214261e+01 3.775513174323e+01 0.0 
3.775513174323e+01 -1.519157812129e+02 0.0 
0.0 0.0 -6.566652372136e+01 
-7.013745599051e+01 3.885585141488e+01 0.0 
3.885585141488e+01 -1.361319106522e+02 0.0 
0.0 0.0 -5.935709173096e+01 
-6.835395298308e+01 3.799033463457e+01 0.0 
3.799033463457e+01 -1.344851753200e+02 0.0 
0.0 0.0 -5.899119797075e+01 
-6.528424157047e+01 3.833584953221e+01 0.0 
3.833584953221e+01 -1.170151907399e+02 0.0 
0.0 0.0 -5.205150984086e+01 
-6.756617019460e+01 3.891917913312e+01 0.0 
3.891917913312e+01 -1.193376523851e+02 0.0 
0.0 0.0 -5.264373122252e+01 
-6.380947854212e+01 3.745713791061e+01 0.0 
3.745713791061e+01 -1.156235458840e+02 0.0 
0.0 0.0 -5.182017658547e+01 
-1.098431395848e+02 -1.945609509462e+00 0.0 
-1.945609509462e+00 -2.915884116566e+02 0.0 
0.0 0.0 -1.210925735036e+02 
-7.641495245384e+01 9.499234659407e+00 0.0 
9.499234659407e+00 -1.265026868725e+02 0.0 
0.0 0.0 -6.047529179790e+01 
-5.059350918061e+01 -9.238724214267e+00 0.0 
-9.238724214267e+00 -1.100824282528e+02 0.0 
0.0 0.0 -4.434539948566e+01 
-3.844564712036e+01 -7.314840936680e+00 0.0 
-7.314840936680e+00 -8.886410479477e+01 0.0 
0.0 0.0 -3.456304858614e+01 
-1.370292431610e+02 -7.552737889194e-01 0.0 
-7.552737889194e-01 -3.252353307698e+02 0.0 
0.0 0.0 -1.382601346531e+02 
-1.029981647901e+02 7.690634765791e+00 0.0 
7.690634765791e+00 -2.757819760697e+02 0.0 
0.0 0.0 -1.162196239007e+02 
-9.157305390368e+01 3.918223753649e+01 0.0 
3.918223753649e+01 -2.091297873574e+02 0.0 
0.0 0.0 -8.949016090324e+01 
-9.279479901090e+01 3.576564610094e+01 0.0 
3.576564610094e+01 -2.206944362828e+02 0.0 
0.0 0.0 -9.352166598999e+01 
-9.611258100061e+01 3.811954167073e+01 0.0 
3.811954167073e+01 -2.248526124072e+02 0.0 
0.0 0.0 -9.588955802233e+01 
-9.743447541018e+01 3.454222122086e+01 0.0 
3.454222122086e+01 -2.358846793666e+02 0.0 
0.0 0.0 -9.959574643304e+01 
-1.008083577775e+02 3.699813617868e+01 0.0 
3.699813617868e+01 -2.403460356823e+02 0.0 
0.0 0.0 -1.019463180379e+02 
-1.034468778248e+02 3.444269940210e+01 0.0 
3.444269940210e+01 -2.522426968478e+02 0.0 
0.0 0.0 -1.063068724018e+02 
-1.002337964286e+02 3.210930572805e+01 0.0 
3.210930572805e+01 -2.475657863089e+02 0.0 
0.0 0.0 -1.039398748212e+02 
-1.102286842453e+02 2.526830718799e+01 0.0 
2.526830718799e+01 -2.819073381351e+02 0.0 
0.0 0.0 -1.172408067141e+02 
-1.071761578619e+02 3.284535327037e+01 0.0 
3.284535327037e+01 -2.646127017489e+02 0.0 
0.0 0.0 -1.111366578832e+02 
-5.736568269027e+01 2.497596250445e+00 0.0 
2.497596250445e+00 -7.582584729983e+01 0.0 
0.0 0.0 -3.955745899703e+01 
-9.259745310798e+01 1.954778360876e+01 0.0 
1.954778360876e+01 -2.435168013877e+02 0.0 
0.0 0.0 -1.029790520982e+02 
-6.320009591729e+01 -1.974814896432e+01 0.0 
-1.974814896432e+01 -1.486079047956e+02 0.0 
0.0 0.0 -6.073085054218e+01 
-2.328885755457e+01 -2.626509110351e+00 0.0 
-2.626509110351e+00 -7.367974820244e+01 0.0 
0.0 0.0 -2.605417873543e+01 
-4.317386223122e+01 -1.439291416024e+01 0.0 
-1.439291416024e+01 -8.493954801188e+01 0.0 
0.0 0.0 -3.326031397290e+01 
-3.265452693506e+01 -1.936593716417e+00 0.0 
-1.936593716417e+00 -9.047352869073e+01 0.0 
0.0 0.0 -3.365430706600e+01 
-4.787191184944e+01 -2.996610874989e+00 0.0 
-2.996610874989e+00 -1.108830091982e+02 0.0 
0.0 0.0 -4.293494103316e+01 
-1.316216903099e+02 4.349665214618e+00 0.0 
4.349665214618e+00 -3.435560010648e+02 0.0 
0.0 0.0 -1.421533074124e+02 
-1.065696360673e+02 3.671339797547e+01 0.0 
3.671339797547e+01 -2.566081856542e+02 0.0 
0.0 0.0 -1.085533465164e+02 
-1.041418916061e+02 3.940919970177e+01 0.0 
3.940919970177e+01 -2.446101320378e+02 0.0 
0.0 0.0 -1.042256070932e+02 
-6.183854014409e+01 3.744970609028e+01 0.0 
3.744970609028e+01 -9.985139731364e+01 0.0 
0.0 0.0 -4.505950244476e+01 
-6.408412357506e+01 3.819659116834e+01 0.0 
3.819659116834e+01 -9.997486001557e+01 0.0 
0.0 0.0 -4.499656212739e+01 
-1.150535170889e+02 2.402713723449e+01 0.0 
2.402713723449e+01 -2.951519308308e+02 0.0 
0.0 0.0 -1.226616343759e+02 
-7.550426743365e+01 1.731390008977e+01 0.0 
1.731390008977e+01 -7.905987786734e+01 0.0 
0.0 0.0 -4.596924359029e+01 
-6.497327282216e+01 7.542088474851e+00 0.0 
7.542088474851e+00 -7.310954571509e+01 0.0 
0.0 0.0 -4.102484556118e+01 
-5.870172971154e+01 4.983175097330e+00 0.0 
4.983175097330e+00 -6.258504005760e+01 0.0 
0.0 0.0 -3.598603093074e+01 
-1.756291866795e+01 -6.868578450099e-01 0.0 
-6.868578450099e-01 -6.883301417209e+01 0.0 
0.0 0.0 -2.416956623182e+01 
-4.285046460178e+01 -1.806164194568e+01 0.0 
-1.806164194568e+01 -8.294997735150e+01 0.0 
0.0 0.0 -3.162068309199e+01 
-8.401084109026e+01 1.612773087717e+01 0.0 
1.612773087717e+01 -1.387846634179e+02 0.0 
0.0 0.0 -6.643865135245e+01 
-5.852393005410e+01 3.154043375774e+01 0.0 
3.154043375774e+01 -1.289606043182e+02 0.0 
0.0 0.0 -5.233772531884e+01 
-5.698217633789e+01 3.361360310392e+01 0.0 
3.361360310392e+01 -1.126254135325e+02 0.0 
0.0 0.0 -4.713632391361e+01 
-4.570005651441e+01 1.010073263182e+01 0.0 
1.010073263182e+01 -1.341341873621e+02 0.0 
0.0 0.0 -5.510592273679e+01 
-4.318802037508e+01 -5.076271064279e-01 0.0 
-5.076271064279e-01 -1.321221086250e+02 0.0 
0.0 0.0 -5.487558359055e+01 
-6.675439970089e+01 3.269290435732e+00 0.0 
3.269290435732e+00 -1.073948715089e+02 0.0 
0.0 0.0 -5.184478136295e+01 
-7.251238878264e+01 4.266991884400e+00 0.0 
4.266991884400e+00 -1.282526981609e+02 0.0 
0.0 0.0 -5.982952608307e+01 
-1.034706097765e+02 -5.150741072207e+00 0.0 
-5.150741072207e+00 -2.179235592328e+02 0.0 
0.0 0.0 -9.128527270624e+01 
-1.070157517666e+02 -4.056937263437e+00 0.0 
-4.056937263437e+00 -2.259320989407e+02 0.0 
0.0 0.0 -9.519385717476e+01 
-1.263060238445e+02 5.701725223849e+00 0.0 
5.701725223849e+00 -3.323199203362e+02 0.0 
0.0 0.0 -1.371877832542e+02 
-4.464268063609e+01 -1.244110520253e+01 0.0 
-1.244110520253e+01 -9.014379183019e+01 0.0 
0.0 0.0 -3.612810227990e+01 
-7.586924425309e+01 6.128000462894e+00 0.0 
6.128000462894e+00 -1.386185673713e+02 0.0 
0.0 0.0 -6.394634348732e+01 
-1.083063673053e+02 6.302169878047e+00 0.0 
6.302169878047e+00 -2.889337774820e+02 0.0 
0.0 0.0 -1.203197467256e+02 
-1.010681922718e+02 4.032843546218e+00 0.0 
4.032843546218e+00 -2.719944019019e+02 0.0 
0.0 0.0 -1.154242791320e+02 
-9.471360975772e+01 -3.730398818030e+00 0.0 
-3.730398818030e+00 -1.928991454211e+02 0.0 
0.0 0.0 -8.076370166385e+01 
-5.095252016235e+01 3.181113154086e+01 0.0 
3.181113154086e+01 -9.535950151244e+01 0.0 
0.0 0.0 -3.915087466021e+01 
-5.013540471531e+01 3.045667681895e+01 0.0 
3.045667681895e+01 -1.009245716380e+02 0.0 
0.0 0.0 -4.086058898736e+01 
-6.573921598770e+01 -1.967220485523e+01 0.0 
-1.967220485523e+01 -1.672554466105e+02 0.0 
0.0 0.0 -6.777808423060e+01 
-5.388105761127e+01 -1.520262955806e+01 0.0 
-1.520262955806e+01 -1.123831256592e+02 0.0 
0.0 0.0 -4.628890258478e+01 
-3.820251830117e+01 -1.716764882215e+00 0.0 
-1.716764882215e+00 -9.866869828532e+01 0.0 
0.0 0.0 -3.769242567032e+01 
-1.340296203823e+02 7.989149225368e+00 0.0 
7.989149225368e+00 -3.494564632309e+02 0.0 
0.0 0.0 -1.446458250840e+02 
-8.807398874972e+01 1.971695428512e+01 0.0 
1.971695428512e+01 -1.514161203656e+02 0.0 
0.0 0.0 -7.144703273459e+01 
-1.040869425717e+02 3.051496864877e+01 0.0 
3.051496864877e+01 -2.599862235031e+02 0.0 
0.0 0.0 -1.088219498224e+02 
-9.708162343496e+01 2.976928481178e+01 0.0 
2.976928481178e+01 -2.428964054372e+02 0.0 
0.0 0.0 -1.015934086616e+02 
-1.112895691785e+02 3.134713046720e+01 0.0 
3.134713046720e+01 -2.774057495384e+02 0.0 
0.0 0.0 -1.162085956151e+02 
-3.315258213569e+01 -8.788861510824e+00 0.0 
-8.788861510824e+00 -6.761738611886e+01 0.0 
0.0 0.0 -2.559350419741e+01 
-1.374154990699e+02 3.421318630006e+00 0.0 
3.421318630006e+00 -3.526406822875e+02 0.0 
0.0 0.0 -1.466168544072e+02 
-1.331953520537e+02 -8.358784484125e-01 0.0 
-8.358784484125e-01 -3.136930893646e+02 0.0 
0.0 0.0 -1.334477909087e+02 
-1.095400850509e+02 3.910703292606e+01 0.0 
3.910703292606e+01 -2.601832272183e+02 0.0 
0.0 0.0 -1.105169936808e+02 
-1.074954112828e+02 4.164180269991e+01 0.0 
4.164180269991e+01 -2.491407816710e+02 0.0 
0.0 0.0 -1.065908578861e+02 
-6.099764726333e+01 3.339920026005e+01 0.0 
3.339920026005e+01 -1.299252731054e+02 0.0 
0.0 0.0 -5.440309690918e+01 
-5.921267966343e+01 3.499591333644e+01 0.0 
3.499591333644e+01 -1.134041372529e+02 0.0 
0.0 0.0 -4.920880071685e+01 
-5.431483963094e+01 3.380726439445e+01 0.0 
3.380726439445e+01 -9.496466737654e+01 0.0 
0.0 0.0 -4.143354815115e+01 
-5.615567653352e+01 3.473620654973e+01 0.0 
3.473620654973e+01 -9.600944209096e+01 0.0 
0.0 0.0 -4.299306246110e+01 
-7.914984724283e+01 3.516303423595e+01 0.0 
3.516303423595e+01 -1.021247368928e+02 0.0 
0.0 0.0 -5.374470190873e+01 
-6.339783008873e+01 3.504612657587e+01 0.0 
3.504612657587e+01 -1.310572590397e+02 0.0 
0.0 0.0 -5.662436259044e+01 
-7.917113640770e+01 3.885678365187e+01 0.0 
3.885678365187e+01 -1.200761798993e+02 0.0 
0.0 0.0 -5.780739837414e+01 
-7.693508528248e+01 3.742648741985e+01 0.0 
3.742648741985e+01 -1.001130884362e+02 0.0 
0.0 0.0 -5.110790633736e+01 
-7.465710657678e+01 3.835290565261e+01 0.0 
3.835290565261e+01 -9.987671346913e+01 0.0 
0.0 0.0 -4.950750885086e+01 
-7.005986345496e+01 3.931839482229e+01 0.0 
3.931839482229e+01 -1.192908220306e+02 0.0 
0.0 0.0 -5.250641574877e+01 
-6.664370397462e+01 3.872003497191e+01 0.0 
3.872003497191e+01 -9.995688036134e+01 0.0 
0.0 0.0 -4.501159802792e+01 
-6.091702498529e+01 2.349093347771e+01 0.0 
2.349093347771e+01 -1.571565697531e+02 0.0 
0.0 0.0 -6.265218563984e+01 
-8.286766639658e+01 1.491378565755e+01 0.0 
1.491378565755e+01 -2.233226534341e+02 0.0 
0.0 0.0 -9.636409495230e+01 
-9.978443525678e+01 -6.281922109205e+00 0.0 
-6.281922109205e+00 -2.101684268212e+02 0.0 
0.0 0.0 -8.736660394059e+01 
-1.153393637728e+02 -4.823110046634e+00 0.0 
-4.823110046634e+00 -2.627675946435e+02 0.0 
0.0 0.0 -1.104825371995e+02 
-1.030133248087e+02 -6.527461136788e+00 0.0 
-6.527461136788e+00 -2.618785261957e+02 0.0 
0.0 0.0 -1.102406084523e+02 
-8.039461048232e+01 1.219495519971e+01 0.0 
1.219495519971e+01 -1.371479315491e+02 0.0 
0.0 0.0 -6.486276260942e+01 
-8.124924228551e+01 1.151874572198e+01 0.0 
1.151874572198e+01 -1.480782807512e+02 0.0 
0.0 0.0 -6.839825691101e+01 
-5.600245792028e+01 3.432154406032e+00 0.0 
3.432154406032e+00 -6.380265040994e+01 0.0 
0.0 0.0 -3.554153249906e+01 
-5.104467643480e+01 2.181642586625e+00 0.0 
2.181642586625e+00 -5.435027426104e+01 0.0 
0.0 0.0 -3.121848520875e+01 
-2.889972130384e+01 -4.717758310470e+00 0.0 
-4.717758310470e+00 -7.643905565617e+01 0.0 
0.0 0.0 -2.815827135410e+01 
-2.583417910070e+01 -4.557351757662e+00 0.0 
-4.557351757662e+00 -6.807643210020e+01 0.0 
0.0 0.0 -2.481833472292e+01 
-1.048293331484e+02 -7.947729226985e+00 0.0 
-7.947729226985e+00 -2.419282213317e+02 0.0 
0.0 0.0 -1.013132037189e+02 
-1.342608302759e+02 9.154407548488e-01 0.0 
9.154407548488e-01 -3.420755239059e+02 0.0 
0.0 0.0 -1.425009062545e+02 
-9.183410436725e+01 2.472491103177e+01 0.0 
2.472491103177e+01 -1.565072946427e+02 0.0 
0.0 0.0 -7.410241970297e+01 
-9.554221410529e+01 2.876710218137e+01 0.0 
2.876710218137e+01 -1.720716350776e+02 0.0 
0.0 0.0 -7.988415475487e+01 
-9.559813200214e+01 3.022554803905e+01 0.0 
3.022554803905e+01 -1.656205753712e+02 0.0 
0.0 0.0 -7.796561221199e+01 
-1.284338636313e+02 9.250934519973e+00 0.0 
9.250934519973e+00 -3.365595932782e+02 0.0 
0.0 0.0 -1.390980370728e+02 
-5.958018213674e+01 2.382693048757e+00 0.0 
2.382693048757e+00 -1.723400068295e+02 0.0 
0.0 0.0 -6.707506651480e+01 
-9.029104365713e+01 6.928965613077e+00 0.0 
6.928965613077e+00 -2.454002186817e+02 0.0 
0.0 0.0 -1.061971214294e+02 
-4.298468126133e+01 -1.271617736725e+01 0.0 
-1.271617736725e+01 -1.248995652725e+02 0.0 
0.0 0.0 -5.127968307220e+01 
-8.596277777301e+01 3.087363582213e+01 0.0 
3.087363582213e+01 -2.116152698656e+02 0.0 
0.0 0.0 -8.926164462363e+01 
-1.582191504793e+01 -2.066840855059e+00 0.0 
-2.066840855059e+00 -5.630056891523e+01 0.0 
0.0 0.0 -1.889967528553e+01 
-9.657937486494e+01 4.284325757964e+01 0.0 
4.284325757964e+01 -1.998466393150e+02 0.0 
0.0 0.0 -8.852780425397e+01 
-1.411746196766e+02 -4.492953670527e-01 0.0 
-4.492953670527e-01 -3.333929888212e+02 0.0 
0.0 0.0 -1.419702825493e+02 
-1.457174477474e+02 -3.384338431622e-01 0.0 
-3.384338431622e-01 -3.446906089948e+02 0.0 
0.0 0.0 -1.467224170227e+02 
-1.177201705258e+02 2.671170661493e+01 0.0 
2.671170661493e+01 -2.991719091352e+02 0.0 
0.0 0.0 -1.246676238983e+02 
-7.450154330883e+01 3.128915058783e+01 0.0 
3.128915058783e+01 -5.999561025211e+01 0.0 
0.0 0.0 -3.921535596400e+01 
-8.754248982665e+01 2.704947469778e+01 0.0 
2.704947469778e+01 -2.220344322175e+02 0.0 
0.0 0.0 -9.345699904291e+01 
-8.442236312536e+01 2.403420915966e+01 0.0 
2.403420915966e+01 -2.181282614899e+02 0.0 
0.0 0.0 -9.250287225641e+01 
-7.113206316578e+01 3.722353674724e+01 0.0 
3.722353674724e+01 -8.032915371484e+01 0.0 
0.0 0.0 -4.267292370272e+01 
-6.723052903121e+01 3.698572135328e+01 0.0 
3.698572135328e+01 -8.004810162104e+01 0.0 
0.0 0.0 -4.053093477254e+01 
-7.217167255007e+01 3.875119117588e+01 0.0 
3.875119117588e+01 -1.000209176967e+02 0.0 
0.0 0.0 -4.784975585525e+01 
-6.363819988737e+01 3.656832148829e+01 0.0 
3.656832148829e+01 -7.992054439150e+01 0.0 
0.0 0.0 -3.835544099806e+01 
-6.918401815091e+01 -1.902598690827e+01 0.0 
-1.902598690827e+01 -1.680325728973e+02 0.0 
0.0 0.0 -6.969583888793e+01 
-6.609614013495e+01 -1.848074373372e+01 0.0 
-1.848074373372e+01 -1.506886196303e+02 0.0 
0.0 0.0 -6.276527178043e+01 
-1.137423553636e+02 3.746496923883e+01 0.0 
3.746496923883e+01 -2.744947139988e+02 0.0 
0.0 0.0 -1.160711208087e+02 
-1.140719626611e+02 3.364392951130e+01 0.0 
3.364392951130e+01 -2.813723078501e+02 0.0 
0.0 0.0 -1.182332811534e+02 
-1.124724136906e+02 4.112627283166e+01 0.0 
4.112627283166e+01 -2.642319925480e+02 0.0 
0.0 0.0 -1.126113218716e+02 
-1.108045423894e+02 4.368543717770e+01 0.0 
4.368543717770e+01 -2.538461645366e+02 0.0 
0.0 0.0 -1.089952120778e+02 
-1.227350493492e+02 2.572309227989e+01 0.0 
2.572309227989e+01 -3.126568359343e+02 0.0 
0.0 0.0 -1.302175655851e+02 
-1.199433109072e+02 2.288333534097e+01 0.0 
2.288333534097e+01 -3.082707669797e+02 0.0 
0.0 0.0 -1.280642233661e+02 
-5.313665685239e+01 -2.417802113250e+00 0.0 
-2.417802113250e+00 -1.184294675282e+02 0.0 
0.0 0.0 -4.688854359774e+01 
-5.796908633188e+01 3.546053017081e+01 0.0 
3.546053017081e+01 -7.969283612796e+01 0.0 
0.0 0.0 -3.641675369155e+01 
-8.820520508335e+01 1.866088861798e+01 0.0 
1.866088861798e+01 -1.609546285877e+02 0.0 
0.0 0.0 -7.434795010132e+01 
-7.497313588447e+01 3.637841497165e+01 0.0 
3.637841497165e+01 -8.055766908690e+01 0.0 
0.0 0.0 -4.469465129272e+01 
-1.433399701133e+02 2.809032760498e+00 0.0 
2.809032760498e+00 -3.600298834326e+02 0.0 
0.0 0.0 -1.506109560638e+02 
-1.397183403604e+02 9.245942790014e-01 0.0 
9.245942790014e-01 -3.494917483576e+02 0.0 
0.0 0.0 -1.463630266154e+02 
-4.108011097590e+01 -9.971454429081e+00 0.0 
-9.971454429081e+00 -1.225631819101e+02 0.0 
0.0 0.0 -5.120568420748e+01 
-4.073728575635e+01 -2.099864782479e+01 0.0 
-2.099864782479e+01 -1.051750515571e+02 0.0 
0.0 0.0 -4.327455606800e+01 
-7.777200296239e+01 5.276684118577e+00 0.0 
5.276684118577e+00 -1.497814334047e+02 0.0 
0.0 0.0 -6.786603091012e+01 
-4.916560236306e+01 3.176661359789e+01 0.0 
3.176661359789e+01 -7.561589119237e+01 0.0 
0.0 0.0 -3.420231210383e+01 
-5.044442308700e+01 3.229122986602e+01 0.0 
3.229122986602e+01 -7.568789270445e+01 0.0 
0.0 0.0 -3.497611977935e+01 
-4.793418180137e+01 3.121331740451e+01 0.0 
3.121331740451e+01 -7.508338327778e+01 0.0 
0.0 0.0 -3.312369427975e+01 
-1.590010638373e+02 -4.072817767364e-02 0.0 
-4.072817767364e-02 -3.726956650309e+02 0.0 
0.0 0.0 -1.591090186605e+02 
-3.266555232506e+01 1.952531742378e-01 0.0 
1.952531742378e-01 -1.587784552113e+01 0.0 
0.0 0.0 -1.416301935386e+01 
-1.499659889996e+02 -1.863182447592e-01 0.0 
-1.863182447592e-01 -3.529842956786e+02 0.0 
0.0 0.0 -1.504850854035e+02 
-7.256963666964e+01 3.941035479651e+01 0.0 
3.941035479651e+01 -1.192412365738e+02 0.0 
0.0 0.0 -5.298298138594e+01 
-8.087914890785e+01 7.317057781582e+00 0.0 
7.317057781582e+00 -1.604160002902e+02 0.0 
0.0 0.0 -7.198854475942e+01 
-9.108416817009e+01 2.462427366758e+01 0.0 
2.462427366758e+01 -2.343765277359e+02 0.0 
0.0 0.0 -9.843536565679e+01 
-6.969855203271e+01 3.588336682827e+01 0.0 
3.588336682827e+01 -1.499218261187e+02 0.0 
0.0 0.0 -6.483896729078e+01 
-1.210666024349e+02 7.094793444657e+00 0.0 
7.094793444657e+00 -3.194260104176e+02 0.0 
0.0 0.0 -1.317477838557e+02 
-7.450267508131e+01 3.425633683425e+00 0.0 
3.425633683425e+00 -1.382897234278e+02 0.0 
0.0 0.0 -6.343771955274e+01 
-7.967373093173e+01 4.144854811112e+00 0.0 
4.144854811112e+00 -1.615219729132e+02 0.0 
0.0 0.0 -7.195871115349e+01 
-5.595440622434e+01 4.688983025146e+00 0.0 
4.688983025146e+00 -5.192247951293e+01 0.0 
0.0 0.0 -3.196306572118e+01 
-4.929244272883e+01 2.808087975261e+00 0.0 
2.808087975261e+00 -4.149349969590e+01 0.0 
0.0 0.0 -2.683578272742e+01 
-6.258254377023e+01 7.479265747881e+00 0.0 
7.479265747881e+00 -6.204269205987e+01 0.0 
0.0 0.0 -3.698757074903e+01 
-4.799025742358e+01 1.958329175566e+01 0.0 
1.958329175566e+01 -1.284067796730e+02 0.0 
0.0 0.0 -5.068649850406e+01 
-4.516083230073e+01 2.168474780351e+01 0.0 
2.168474780351e+01 -1.155491191071e+02 0.0 
0.0 0.0 -4.835367039453e+01 
-7.759841390487e+01 8.922669601918e+00 0.0 
8.922669601918e+00 -1.373639305443e+02 0.0 
0.0 0.0 -6.408870333474e+01 
-6.952881018159e+01 -4.744949297025e+00 0.0 
-4.744949297025e+00 -1.439080596188e+02 0.0 
0.0 0.0 -5.776331354572e+01 
-7.556479836022e+01 -3.865359043202e+00 0.0 
-3.865359043202e+00 -1.541198601032e+02 0.0 
0.0 0.0 -6.294441391705e+01 
-4.581712807097e+01 -1.122937721780e+01 0.0 
-1.122937721780e+01 -9.584606411100e+01 0.0 
0.0 0.0 -3.872192078247e+01 
-5.563231596985e+01 -1.354652534547e+01 0.0 
-1.354652534547e+01 -1.175341039910e+02 0.0 
0.0 0.0 -4.857806101297e+01 
-1.069180138278e+02 -5.630293737729e+00 0.0 
-5.630293737729e+00 -2.304379496226e+02 0.0 
0.0 0.0 -9.651543055006e+01 
-1.033611812197e+02 -6.764070974329e+00 0.0 
-6.764070974329e+00 -2.229583455312e+02 0.0 
0.0 0.0 -9.290449325841e+01 
-1.001116259225e+02 4.365840687018e+01 0.0 
4.365840687018e+01 -2.182004302448e+02 0.0 
0.0 0.0 -9.509361685019e+01 
-1.024695435807e+02 4.411390162313e+01 0.0 
4.411390162313e+01 -2.200248708859e+02 0.0 
0.0 0.0 -9.634832433999e+01 
-9.454575971413e+01 4.119426107877e+01 0.0 
4.119426107877e+01 -2.125335444402e+02 0.0 
0.0 0.0 -9.165386379045e+01 
-1.063956238111e+02 2.622320255987e+00 0.0 
2.622320255987e+00 -2.849683229682e+02 0.0 
0.0 0.0 -1.193201423550e+02 
-9.936879675021e+01 3.484643226868e-01 0.0 
3.484643226868e-01 -2.682205873510e+02 0.0 
0.0 0.0 -1.140685994177e+02 
-9.385372508833e+01 1.653955052492e+00 0.0 
1.653955052492e+00 -2.549475388777e+02 0.0 
0.0 0.0 -1.093979880614e+02 
-8.433516689973e+01 1.432244180182e+01 0.0 
1.432244180182e+01 -1.585210485061e+02 0.0 
0.0 0.0 -7.245686462175e+01 
-8.553704064691e+01 1.340123758733e+01 0.0 
1.340123758733e+01 -1.720363852957e+02 0.0 
0.0 0.0 -7.687202778279e+01 
-7.144255756821e+01 -1.812187205340e+01 0.0 
-1.812187205340e+01 -1.852989442916e+02 0.0 
0.0 0.0 -7.636248525088e+01 
-6.709697651210e+01 -1.791097716897e+01 0.0 
-1.791097716897e+01 -1.804474205892e+02 0.0 
0.0 0.0 -7.284231944127e+01 
-7.324650328255e+01 -1.750452129390e+01 0.0 
-1.750452129390e+01 -1.705949867535e+02 0.0 
0.0 0.0 -7.158919146736e+01 
-9.162623028443e+01 2.226550325597e+01 0.0 
2.226550325597e+01 -1.739096145814e+02 0.0 
0.0 0.0 -7.926075345976e+01 
-1.543789527460e+02 -1.224744663962e-01 0.0 
-1.224744663962e-01 -3.638802180433e+02 0.0 
0.0 0.0 -1.550777512368e+02 
-1.501539075573e+02 -7.638903561078e-02 0.0 
-7.638903561078e-02 -3.559230056608e+02 0.0 
0.0 0.0 -1.514230739654e+02 
-1.268910832035e+01 -1.547309432726e+00 0.0 
-1.547309432726e+00 -4.841328053993e+01 0.0 
0.0 0.0 -1.557589134796e+01 
-2.296517580278e+01 -3.997490928792e+00 0.0 
-3.997490928792e+00 -5.969670674533e+01 0.0 
0.0 0.0 -2.115382998846e+01 
-4.549707846447e+01 3.004674818259e+01 0.0 
3.004674818259e+01 -7.620312472407e+01 0.0 
0.0 0.0 -3.161005110233e+01 
-4.531447166765e+01 2.948835675531e+01 0.0 
2.948835675531e+01 -8.280753172400e+01 0.0 
0.0 0.0 -3.421443183170e+01 
-9.869774216509e+01 3.259114508405e+01 0.0 
3.259114508405e+01 -1.879462116796e+02 0.0 
0.0 0.0 -8.559318615341e+01 
-9.927812350592e+01 3.406469802901e+01 0.0 
3.406469802901e+01 -1.830645264852e+02 0.0 
0.0 0.0 -8.430279499735e+01 
-9.874691459196e+01 3.151733442054e+01 0.0 
3.151733442054e+01 -1.964862448225e+02 0.0 
0.0 0.0 -8.816994782435e+01 
-4.228483842026e+01 -1.235982453240e+00 0.0 
-1.235982453240e+00 -1.048922347409e+02 0.0 
0.0 0.0 -4.082470370266e+01 
-1.011242361923e+02 2.820538291078e+01 0.0 
2.820538291078e+01 -2.554822192207e+02 0.0 
0.0 0.0 -1.065819366239e+02 
-1.365196914152e+02 1.165394082702e+01 0.0 
1.165394082702e+01 -3.528201460846e+02 0.0 
0.0 0.0 -1.464019512499e+02 
-1.301869149905e+02 1.286178060146e+01 0.0 
1.286178060146e+01 -3.392974943337e+02 0.0 
0.0 0.0 -1.404453227973e+02 
-1.451830482609e+02 1.075943740431e+01 0.0 
1.075943740431e+01 -3.672919161793e+02 0.0 
0.0 0.0 -1.533424893321e+02 
-1.129287894448e+02 2.780360608170e+01 0.0 
2.780360608170e+01 -2.859564905157e+02 0.0 
0.0 0.0 -1.192655839882e+02 
-1.203578165181e+02 2.909951033636e+01 0.0 
2.909951033636e+01 -3.032363640213e+02 0.0 
0.0 0.0 -1.266782541618e+02 
-1.185518902886e+02 3.235712575230e+01 0.0 
3.235712575230e+01 -2.946991420497e+02 0.0 
0.0 0.0 -1.235753097015e+02 
-4.166063192575e+01 1.040019754993e+00 0.0 
1.040019754993e+00 -1.288464819971e+02 0.0 
0.0 0.0 -5.302490669701e+01 
-7.748369927284e+01 2.692493103497e+00 0.0 
2.692493103497e+00 -1.537887466381e+02 0.0 
0.0 0.0 -6.898173377328e+01 
-4.706097396447e+01 1.810638592495e+00 0.0 
1.810638592495e+00 -4.261829222470e+01 0.0 
0.0 0.0 -2.650377985675e+01 
-3.949629230866e+01 -4.918518861034e+00 0.0 
-4.918518861034e+00 -1.180598589077e+02 0.0 
0.0 0.0 -4.870914389881e+01 
-4.210491883482e+01 1.000295672497e+00 0.0 
1.000295672497e+00 -3.360250736398e+01 0.0 
0.0 0.0 -2.231222785964e+01 
-4.619673495065e+01 1.317129878476e+00 0.0 
1.317129878476e+00 -4.501050121290e+01 0.0 
0.0 0.0 -2.696217084906e+01 
-3.703969239658e+01 5.182137744406e-01 0.0 
5.182137744406e-01 -2.353466696618e+01 0.0 
0.0 0.0 -1.777230780883e+01 
-2.709559573230e+01 -6.755703025966e-01 0.0 
-6.755703025966e-01 -8.550199030407e+01 0.0 
0.0 0.0 -3.180230412266e+01 
-5.109368843344e+01 4.067331696932e+00 0.0 
4.067331696932e+00 -3.756341968202e+01 0.0 
0.0 0.0 -2.619713243464e+01 
-6.045877012587e+01 7.802163258480e+00 0.0 
7.802163258480e+00 -5.162024391804e+01 0.0 
0.0 0.0 -3.322370421318e+01 
-6.779746684216e+00 -1.062387159601e+00 0.0 
-1.062387159601e+00 -3.658654537704e+01 0.0 
0.0 0.0 -1.074136323189e+01 
-9.060203039866e+01 2.072357181638e+01 0.0 
2.072357181638e+01 -1.827491721385e+02 0.0 
0.0 0.0 -8.160536076115e+01 
-4.866408816026e+00 8.692571080253e-02 0.0 
8.692571080253e-02 -3.784413053642e+01 0.0 
0.0 0.0 -1.108370508028e+01 
-7.930549270946e+00 -1.348614535315e-01 0.0 
-1.348614535315e-01 -4.538804194684e+01 0.0 
0.0 0.0 -1.399611563527e+01 
-1.492087711397e+02 2.519847504296e+00 0.0 
2.519847504296e+00 -3.677971527629e+02 0.0 
0.0 0.0 -1.547017771708e+02 
-1.449613290090e+02 9.742286656526e-01 0.0 
9.742286656526e-01 -3.567305912111e+02 0.0 
0.0 0.0 -1.501075760660e+02 
-1.544683933890e+02 2.231246555605e+00 0.0 
2.231246555605e+00 -3.747012766912e+02 0.0 
0.0 0.0 -1.583509010241e+02 
-1.498450631958e+02 9.185573409448e-01 0.0 
9.185573409448e-01 -3.634476174744e+02 0.0 
0.0 0.0 -1.535878042011e+02 
-1.409553017043e+02 -8.491433690464e-02 0.0 
-8.491433690464e-02 -3.451727762613e+02 0.0 
0.0 0.0 -1.454384233897e+02 
-1.459631526650e+02 1.129556251129e-01 0.0 
1.129556251129e-01 -3.528428109762e+02 0.0 
0.0 0.0 -1.492417890924e+02 
-4.294886588711e+01 1.485153763813e+00 0.0 
1.485153763813e+00 -3.142375942049e+01 0.0 
0.0 0.0 -2.191178759228e+01 
-1.562994678805e+02 9.947389258337e-01 0.0 
9.947389258337e-01 -3.737751980206e+02 0.0 
0.0 0.0 -1.586223997703e+02 
-1.509290351196e+02 2.261681744535e-01 0.0 
2.261681744535e-01 -3.607749551584e+02 0.0 
0.0 0.0 -1.531111970834e+02 
-1.610269926924e+02 7.417484235243e-01 0.0 
7.417484235243e-01 -3.817832847227e+02 0.0 
0.0 0.0 -1.624430832245e+02 
-5.307064077127e+01 3.160031789043e+01 0.0 
3.160031789043e+01 -5.838612764404e+01 0.0 
0.0 0.0 -2.911512472898e+01 
-5.768341065634e+01 3.551815644699e+01 0.0 
3.551815644699e+01 -9.586859543042e+01 0.0 
0.0 0.0 -4.364967220029e+01 
-5.131049297772e+01 3.271266245759e+01 0.0 
3.271266245759e+01 -7.606385840025e+01 0.0 
0.0 0.0 -3.543376616779e+01 
-4.185524666766e+01 2.771316852928e+01 0.0 
2.771316852928e+01 -5.339063206594e+01 0.0 
0.0 0.0 -2.553150031933e+01 
-1.168258846756e+02 4.330828642659e+01 0.0 
4.330828642659e+01 -2.717485207520e+02 0.0 
0.0 0.0 -1.161723216283e+02 
-1.134696164414e+02 4.550368454411e+01 0.0 
4.550368454411e+01 -2.571869800268e+02 0.0 
0.0 0.0 -1.107969789405e+02 
-1.368935350292e+02 -4.566240838713e-01 0.0 
-4.566240838713e-01 -3.225723524974e+02 0.0 
0.0 0.0 -1.374003952937e+02 
-1.303535022800e+02 -7.695024711621e-01 0.0 
-7.695024711621e-01 -3.025730513786e+02 0.0 
0.0 0.0 -1.287819237564e+02 
-4.115783704323e+01 6.520752641772e-01 0.0 
6.520752641772e-01 -3.473359186728e+01 0.0 
0.0 0.0 -2.236742867315e+01 
-4.015308065929e+01 5.021303990803e-01 0.0 
5.021303990803e-01 -3.366553887632e+01 0.0 
0.0 0.0 -2.174558586068e+01 
-4.747568354630e+01 8.935619595445e-01 0.0 
8.935619595445e-01 -5.164661929549e+01 0.0 
0.0 0.0 -2.933669085254e+01 
-4.597215618308e+01 7.217293749447e-01 0.0 
7.217293749447e-01 -4.914416600207e+01 0.0 
0.0 0.0 -2.813489665554e+01 
-5.292402782840e+01 1.166848436260e+00 0.0 
1.166848436260e+00 -6.737303478338e+01 0.0 
0.0 0.0 -3.568911878353e+01 
-5.154410772836e+01 8.567503894367e-01 0.0 
8.567503894367e-01 -6.459424664560e+01 0.0 
0.0 0.0 -3.444150631219e+01 
-5.832495410900e+01 1.595787525948e+00 0.0 
1.595787525948e+00 -8.334031992735e+01 0.0 
0.0 0.0 -4.209958221090e+01 
-1.217494885899e+02 3.502141896176e+01 0.0 
3.502141896176e+01 -2.987084494041e+02 0.0 
0.0 0.0 -1.257373813982e+02 
-4.117995005096e+01 2.762719616739e+01 0.0 
2.762719616739e+01 -5.493694871432e+01 0.0 
0.0 0.0 -2.517685862507e+01 
-6.189063443806e+01 3.305690428503e+01 0.0 
3.305690428503e+01 -5.887487252824e+01 0.0 
0.0 0.0 -3.364743109841e+01 
-1.282672989447e+02 2.468318205341e+01 0.0 
2.468318205341e+01 -3.259357047932e+02 0.0 
0.0 0.0 -1.358609011214e+02 
-1.243028286602e+02 2.168096976722e+01 0.0 
2.168096976722e+01 -3.199818259800e+02 0.0 
0.0 0.0 -1.328853963920e+02 
-6.046868596729e+01 3.611084719873e+01 0.0 
3.611084719873e+01 -7.975407035595e+01 0.0 
0.0 0.0 -3.671600596215e+01 
-4.806394718505e+01 3.010227281249e+01 0.0 
3.010227281249e+01 -5.761300891920e+01 0.0 
0.0 0.0 -2.622994465329e+01 
-1.486481165675e+02 5.741297738603e+00 0.0 
5.741297738603e+00 -3.718716564673e+02 0.0 
0.0 0.0 -1.557559319105e+02 
-6.400823512906e+01 3.194567266705e+01 0.0 
3.194567266705e+01 -1.457912830324e+02 0.0 
0.0 0.0 -6.108886032075e+01 
-9.371212082025e+01 2.489332063516e+01 0.0 
2.489332063516e+01 -1.993420066715e+02 0.0 
0.0 0.0 -8.751623824753e+01 
-3.826476407657e+01 2.043941712715e+01 0.0 
2.043941712715e+01 -8.474778548647e+01 0.0 
0.0 0.0 -3.771897096106e+01 
-3.909787254186e+01 1.927043864778e+01 0.0 
1.927043864778e+01 -1.045347260232e+02 0.0 
0.0 0.0 -4.461711109860e+01 
-6.679193923562e+01 3.395853681746e+01 0.0 
3.395853681746e+01 -1.475815578818e+02 0.0 
0.0 0.0 -6.338783355893e+01 
-6.948357734470e+01 3.884007293684e+01 0.0 
3.884007293684e+01 -1.000684950262e+02 0.0 
0.0 0.0 -4.605787213782e+01 
-5.944068664245e+01 3.639175592293e+01 0.0 
3.639175592293e+01 -9.675667336749e+01 0.0 
0.0 0.0 -4.415587508781e+01 
-5.389645876467e+01 3.384108528678e+01 0.0 
3.384108528678e+01 -7.898290154626e+01 0.0 
0.0 0.0 -3.653210228216e+01 
-1.135986952316e+02 4.867667389540e+00 0.0 
4.867667389540e+00 -3.019501680460e+02 0.0 
0.0 0.0 -1.247829515117e+02 
-2.049000859311e+01 -3.927456509776e+00 0.0 
-3.927456509776e+00 -5.201824965372e+01 0.0 
0.0 0.0 -1.790469089497e+01 
-4.697906586276e+01 3.075999564448e+01 0.0 
3.075999564448e+01 -7.538049664708e+01 0.0 
0.0 0.0 -3.233084662397e+01 
-5.993559997666e+01 2.173096808212e+00 0.0 
2.173096808212e+00 -8.571751892073e+01 0.0 
0.0 0.0 -4.329593566922e+01 
-3.961298497399e+01 2.709878039360e+01 0.0 
2.709878039360e+01 -5.521391864043e+01 0.0 
0.0 0.0 -2.403875287423e+01 
-1.336771207634e+02 -3.173495802699e-01 0.0 
-3.173495802699e-01 -3.127628628163e+02 0.0 
0.0 0.0 -1.332618876711e+02 
-6.419380840672e+01 2.730900090079e+01 0.0 
2.730900090079e+01 -1.587331722831e+02 0.0 
0.0 0.0 -6.508064102113e+01 
-7.528681932217e+01 3.975526331379e+01 0.0 
3.975526331379e+01 -1.384432513952e+02 0.0 
0.0 0.0 -6.016951413291e+01 
-5.261715447374e+01 3.284276407616e+01 0.0 
3.284276407616e+01 -9.486810861729e+01 0.0 
0.0 0.0 -4.006745494938e+01 
-6.161291683391e+01 3.627881528502e+01 0.0 
3.627881528502e+01 -1.149651445938e+02 0.0 
0.0 0.0 -5.108367171326e+01 
-8.187282375670e+01 3.731895458811e+01 0.0 
3.731895458811e+01 -1.221867012730e+02 0.0 
0.0 0.0 -6.059528586233e+01 
-7.639644379514e+01 3.217387866018e+01 0.0 
3.217387866018e+01 -8.094749852634e+01 0.0 
0.0 0.0 -4.657388754107e+01 
-7.730090845707e+01 3.436740999029e+01 0.0 
3.436740999029e+01 -8.101548608039e+01 0.0 
0.0 0.0 -4.627153687155e+01 
-6.404381247024e+01 2.086931657419e+01 0.0 
2.086931657419e+01 -1.697020354412e+02 0.0 
0.0 0.0 -6.856454542487e+01 
-5.574310460747e+01 3.459408590109e+01 0.0 
3.459408590109e+01 -7.931793457777e+01 0.0 
0.0 0.0 -3.642771412402e+01 
-4.406336720834e+01 2.850707782845e+01 0.0 
2.850707782845e+01 -5.463189149673e+01 0.0 
0.0 0.0 -2.590099058095e+01 
-8.150437582688e+01 3.992081794290e+01 0.0 
3.992081794290e+01 -1.397116337206e+02 0.0 
0.0 0.0 -6.452889959006e+01 
-9.515871020287e+01 3.170038967773e+01 0.0 
3.170038967773e+01 -1.601032696025e+02 0.0 
0.0 0.0 -7.617859394160e+01 
-9.859471155397e+01 3.519885140268e+01 0.0 
3.519885140268e+01 -1.779597358256e+02 0.0 
0.0 0.0 -8.256633421386e+01 
-1.025194531731e+02 3.740021096384e+01 0.0 
3.740021096384e+01 -1.999959939211e+02 0.0 
0.0 0.0 -9.035463412827e+01 
-1.022376304002e+02 3.837326733603e+01 0.0 
3.837326733603e+01 -1.962858162221e+02 0.0 
0.0 0.0 -8.915703398670e+01 
-9.766970847832e+01 3.648068783056e+01 0.0 
3.648068783056e+01 -1.740070162376e+02 0.0 
0.0 0.0 -8.110301741478e+01 
-1.012038917607e+02 3.932400987478e+01 0.0 
3.932400987478e+01 -1.927053065617e+02 0.0 
0.0 0.0 -8.777275949671e+01 
-1.057008790434e+02 4.114733947691e+01 0.0 
4.114733947691e+01 -2.143881823622e+02 0.0 
0.0 0.0 -9.562671842169e+01 
-1.051574792762e+02 4.193416044837e+01 0.0 
4.193416044837e+01 -2.121491321160e+02 0.0 
0.0 0.0 -9.479198341765e+01 
-1.110250907053e+02 4.459999406328e+01 0.0 
4.459999406328e+01 -2.371124543886e+02 0.0 
0.0 0.0 -1.040412635282e+02 
-1.091111578372e+02 4.440948851196e+01 0.0 
4.440948851196e+01 -2.308478379812e+02 0.0 
0.0 0.0 -1.015876987455e+02 
-1.031571756961e+02 4.234883843879e+01 0.0 
4.234883843879e+01 -2.084588120612e+02 0.0 
0.0 0.0 -9.308479632718e+01 
-1.067712950094e+02 4.423725271899e+01 0.0 
4.423725271899e+01 -2.263294926178e+02 0.0 
0.0 0.0 -9.953023628815e+01 
-1.129278230119e+02 4.653051800225e+01 0.0 
4.653051800225e+01 -2.473538220082e+02 0.0 
0.0 0.0 -1.076844935060e+02 
-1.010790256289e+02 4.271052234389e+01 0.0 
4.271052234389e+01 -2.048969746911e+02 0.0 
0.0 0.0 -9.139280009601e+01 
-1.328785147642e+02 2.739975444783e+01 0.0 
2.739975444783e+01 -3.299323105505e+02 0.0 
0.0 0.0 -1.384432475944e+02 
-7.060698079099e+01 3.273177121099e+01 0.0 
3.273177121099e+01 -1.638237204849e+02 0.0 
0.0 0.0 -7.021384488294e+01 
-4.351974378419e+01 1.083549419315e+01 0.0 
1.083549419315e+01 -1.277914187169e+02 0.0 
0.0 0.0 -5.370808208803e+01 
-4.322744951234e+01 2.638163300092e+01 0.0 
2.638163300092e+01 -9.609081854810e+01 0.0 
0.0 0.0 -4.207946069622e+01 
-7.752824255189e+01 3.998505623749e+01 0.0 
3.998505623749e+01 -1.387952803574e+02 0.0 
0.0 0.0 -6.122350254312e+01 
-1.144845180850e+02 4.655273980253e+01 0.0 
4.655273980253e+01 -2.532967340267e+02 0.0 
0.0 0.0 -1.099343756335e+02 
-1.073569378220e+02 4.130879843621e+01 0.0 
4.130879843621e+01 -2.337029181423e+02 0.0 
0.0 0.0 -1.019179567893e+02 
-5.830427922416e+01 2.614657234312e+01 0.0 
2.614657234312e+01 -1.443310421326e+02 0.0 
0.0 0.0 -5.693582572226e+01 
-1.241961105900e+02 4.330591114151e+01 0.0 
4.330591114151e+01 -2.918558104014e+02 0.0 
0.0 0.0 -1.244155762974e+02 
-7.866836653107e+01 3.624445457972e+01 0.0 
3.624445457972e+01 -1.012422080799e+02 0.0 
0.0 0.0 -5.273204146158e+01 
-5.040517596598e+01 1.732887481846e+01 0.0 
1.732887481846e+01 -1.382334013860e+02 0.0 
0.0 0.0 -5.316933823122e+01 
-1.272227675725e+02 3.961007439996e+01 0.0 
3.961007439996e+01 -3.048350080432e+02 0.0 
0.0 0.0 -1.292173326847e+02 
-9.421832528087e+01 3.325229915155e+01 0.0 
3.325229915155e+01 -1.552945871325e+02 0.0 
0.0 0.0 -7.445387372401e+01 
-9.276152475573e+01 3.481738040260e+01 0.0 
3.481738040260e+01 -1.511011719502e+02 0.0 
0.0 0.0 -7.275880901179e+01 
-8.932182028882e+01 3.143259938740e+01 0.0 
3.143259938740e+01 -1.321238886645e+02 0.0 
0.0 0.0 -6.603371268600e+01 
-1.015010464943e+02 3.556418686030e+01 0.0 
3.556418686030e+01 -2.197668119521e+02 0.0 
0.0 0.0 -9.598035753394e+01 
-6.948080287179e+01 1.122664540151e+01 0.0 
1.122664540151e+01 -7.400441190025e+01 0.0 
0.0 0.0 -4.264556443161e+01 
-1.363523938325e+02 3.254859577141e+01 0.0 
3.254859577141e+01 -3.289022715012e+02 0.0 
0.0 0.0 -1.391763996001e+02 
-8.997705224485e+01 1.625683308462e+01 0.0 
1.625683308462e+01 -2.397663008337e+02 0.0 
0.0 0.0 -1.027800134444e+02 
-8.552679980243e+01 1.844728467509e+01 0.0 
1.844728467509e+01 -2.269885061272e+02 0.0 
0.0 0.0 -9.745405808222e+01 
-7.850243457279e+01 1.742115837563e+01 0.0 
1.742115837563e+01 -2.104856321038e+02 0.0 
0.0 0.0 -9.028719298270e+01 
-9.957861801690e+01 4.009474990297e+01 0.0 
4.009474990297e+01 -1.893754077649e+02 0.0 
0.0 0.0 -8.628620773454e+01 
-1.452851643890e+02 2.411402460803e+01 0.0 
2.411402460803e+01 -3.536380303672e+02 0.0 
0.0 0.0 -1.492769584269e+02 
-1.357609927518e+02 2.094255955944e+01 0.0 
2.094255955944e+01 -3.432281557488e+02 0.0 
0.0 0.0 -1.432967445502e+02 
-1.380855947198e+02 1.870417965825e+01 0.0 
1.870417965825e+01 -3.493597950534e+02 0.0 
0.0 0.0 -1.458336169320e+02 
-1.279289359384e+02 1.776200472110e+01 0.0 
1.776200472110e+01 -3.308426329754e+02 0.0 
0.0 0.0 -1.372314706741e+02 
-1.505980438464e+02 1.940741615158e+01 0.0 
1.940741615158e+01 -3.667998276908e+02 0.0 
0.0 0.0 -1.548193614611e+02 
-1.213982206485e+02 4.834539369635e+01 0.0 
4.834539369635e+01 -2.731771926913e+02 0.0 
0.0 0.0 -1.179726240019e+02 
-1.225142565263e+02 4.682258499529e+01 0.0 
4.682258499529e+01 -2.800557091696e+02 0.0 
0.0 0.0 -1.203709897088e+02 
-6.144193916287e+01 -2.033232576571e+01 0.0 
-2.033232576571e+01 -1.625622501961e+02 0.0 
0.0 0.0 -6.400841510661e+01 
-6.219560903803e+01 -1.777727997056e+01 0.0 
-1.777727997056e+01 -1.692308916512e+02 0.0 
0.0 0.0 -6.679798823880e+01 
-6.793740946489e+01 -1.476024039943e+01 0.0 
-1.476024039943e+01 -1.866582953054e+02 0.0 
0.0 0.0 -7.542415708799e+01 
-6.265469692293e+01 -1.378756494349e+01 0.0 
-1.378756494349e+01 -1.743900716070e+02 0.0 
0.0 0.0 -6.892656688538e+01 
-5.731562018700e+01 -1.687221268725e+01 0.0 
-1.687221268725e+01 -1.578727000790e+02 0.0 
0.0 0.0 -6.114140495710e+01 
-5.766441171882e+01 -1.116686160874e+01 0.0 
-1.116686160874e+01 -1.640596211336e+02 0.0 
0.0 0.0 -6.349032625806e+01 
-6.291071598675e+01 -8.452438166957e+00 0.0 
-8.452438166957e+00 -1.785779423894e+02 0.0 
0.0 0.0 -7.052607300461e+01 
-5.392560036474e+01 -5.569043199384e+00 0.0 
-5.569043199384e+00 -1.577224990038e+02 0.0 
0.0 0.0 -6.000854834397e+01 
-1.082296299830e+02 4.510525432378e+01 0.0 
4.510525432378e+01 -2.395613879118e+02 0.0 
0.0 0.0 -1.039373053684e+02 
-1.561396427826e+02 1.422672847990e+01 0.0 
1.422672847990e+01 -3.801428512478e+02 0.0 
0.0 0.0 -1.604847482091e+02 
-1.082708669689e+02 -4.070502311471e+00 0.0 
-4.070502311471e+00 -2.807401563409e+02 0.0 
0.0 0.0 -1.170799100289e+02 
-1.035726848592e+02 -4.262588211510e+00 0.0 
-4.262588211510e+00 -2.738262145057e+02 0.0 
0.0 0.0 -1.149709626924e+02 
-9.802327573545e+01 -7.072070425527e+00 0.0 
-7.072070425527e+00 -2.558067328735e+02 0.0 
0.0 0.0 -1.080819066596e+02 
-9.591543330561e+01 -7.516188938827e+00 0.0 
-7.516188938827e+00 -2.025910968051e+02 0.0 
0.0 0.0 -8.412774430706e+01 
-9.956470373936e+01 -8.025453789137e+00 0.0 
-8.025453789137e+00 -2.156602320013e+02 0.0 
0.0 0.0 -8.993136936324e+01 
-1.062951876083e+02 -6.979112408896e+00 0.0 
-6.979112408896e+00 -2.358043575653e+02 0.0 
0.0 0.0 -9.841314329038e+01 
-9.155474711564e+01 -6.752859051241e+00 0.0 
-6.752859051241e+00 -1.896648123531e+02 0.0 
0.0 0.0 -7.830295074692e+01 
-9.400798851678e+01 3.208844130400e+01 0.0 
3.208844130400e+01 -2.310655737528e+02 0.0 
0.0 0.0 -9.711317521098e+01 
-1.583171714935e+02 1.154404031662e+01 0.0 
1.154404031662e+01 -3.848736918335e+02 0.0 
0.0 0.0 -1.625572589981e+02 
-9.565427791872e+01 5.379228962996e+00 0.0 
5.379228962996e+00 -2.587245137610e+02 0.0 
0.0 0.0 -1.110971952596e+02 
-9.540560236647e+01 -9.523979959203e+00 0.0 
-9.523979959203e+00 -2.085367439962e+02 0.0 
0.0 0.0 -8.747699902068e+01 
-4.751696865088e+01 4.962137934375e+00 0.0 
4.962137934375e+00 -1.928158531565e+01 0.0 
0.0 0.0 -1.963956618996e+01 
-6.162434637629e+01 1.145517569469e+01 0.0 
1.145517569469e+01 -4.040165576328e+01 0.0 
0.0 0.0 -3.020780064187e+01 
-6.880393035856e+01 1.745982238218e+01 0.0 
1.745982238218e+01 -4.713096127031e+01 0.0 
0.0 0.0 -3.438046748866e+01 
-7.352079559935e+01 1.894811720291e+01 0.0 
1.894811720291e+01 -6.736879833569e+01 0.0 
0.0 0.0 -4.186687818051e+01 
-5.772184534278e+01 8.096629953993e+00 0.0 
8.096629953993e+00 -3.988796224928e+01 0.0 
0.0 0.0 -2.888294227762e+01 
-1.103101180906e+02 -4.556068868662e+00 0.0 
-4.556068868662e+00 -2.381429583259e+02 0.0 
0.0 0.0 -1.002993705781e+02 
-1.135689125624e+02 -3.516777110718e+00 0.0 
-3.516777110718e+00 -2.460431741279e+02 0.0 
0.0 0.0 -1.040346351315e+02 
-1.104015406028e+02 -3.045147872179e+00 0.0 
-3.045147872179e+00 -2.341381004052e+02 0.0 
0.0 0.0 -9.906312007708e+01 
-1.166914105274e+02 -2.520770200048e+00 0.0 
-2.520770200048e+00 -2.541179129059e+02 0.0 
0.0 0.0 -1.077615134562e+02 
-1.134454681064e+02 -1.994148665455e+00 0.0 
-1.994148665455e+00 -2.419761526893e+02 0.0 
0.0 0.0 -1.026758084191e+02 
-1.071821892557e+02 -2.365313088496e+00 0.0 
-2.365313088496e+00 -2.233492380450e+02 0.0 
0.0 0.0 -9.456119839275e+01 
-1.195717303547e+02 -1.559441897364e+00 0.0 
-1.559441897364e+00 -2.619708049343e+02 0.0 
0.0 0.0 -1.113361268921e+02 
-1.158299068284e+02 -1.170090397643e+00 0.0 
-1.170090397643e+00 -2.487215368870e+02 0.0 
0.0 0.0 -1.056923120257e+02 
-4.049779816116e+01 1.876584900066e+00 0.0 
1.876584900066e+00 -1.756091583817e+01 0.0 
0.0 0.0 -1.701761419980e+01 
-2.748555332868e+01 -2.096278026661e+01 0.0 
-2.096278026661e+01 -4.995766478490e+01 0.0 
0.0 0.0 -2.272739716683e+01 
-3.375511593900e+01 -2.444006429970e+01 0.0 
-2.444006429970e+01 -6.043595806668e+01 0.0 
0.0 0.0 -2.445581192239e+01 
-2.499016887639e+01 -1.554354648281e+01 0.0 
-1.554354648281e+01 -4.494146788013e+01 0.0 
0.0 0.0 -1.567963159916e+01 
-3.992593670386e+01 -2.438384269367e+01 0.0 
-2.438384269367e+01 -7.510779467878e+01 0.0 
0.0 0.0 -2.800594031694e+01 
-4.041709325674e+01 -2.593002529073e+01 0.0 
-2.593002529073e+01 -8.655681059083e+01 0.0 
0.0 0.0 -3.439184488811e+01 
-4.553412701122e+01 -2.607543896775e+01 0.0 
-2.607543896775e+01 -1.020823424858e+02 0.0 
0.0 0.0 -3.864198022352e+01 
-4.341369086940e+01 -2.479643123568e+01 0.0 
-2.479643123568e+01 -1.036952422331e+02 0.0 
0.0 0.0 -3.974650414354e+01 
-3.672876046504e+01 -2.380302028701e+01 0.0 
-2.380302028701e+01 -8.072406604608e+01 0.0 
0.0 0.0 -3.527545533937e+01 
-4.909251754500e+00 -3.265106309136e+00 0.0 
-3.265106309136e+00 -1.833072067711e+01 0.0 
0.0 0.0 -4.975434934502e+00 
-1.661597222242e+01 -6.425365029854e+00 0.0 
-6.425365029854e+00 -3.771169623040e+01 0.0 
0.0 0.0 -1.226681320807e+01 
-9.211224825835e-01 -4.672389508580e-01 0.0 
-4.672389508580e-01 -1.823228328123e+01 0.0 
0.0 0.0 -3.131093971482e+00 
-1.001567694998e+01 -2.748202181289e+00 0.0 
-2.748202181289e+00 -3.526222286134e+01 0.0 
0.0 0.0 -1.014610970331e+01 
-2.953574042624e+01 -9.840735232410e+00 0.0 
-9.840735232410e+00 -5.856407025566e+01 0.0 
0.0 0.0 -2.127167182877e+01 
-3.608208346714e+01 -7.493547099740e+00 0.0 
-7.493547099740e+00 -8.107030405625e+01 0.0 
0.0 0.0 -3.140969609219e+01 
-1.636528454857e+02 5.815405219535e-02 0.0 
5.815405219535e-02 -3.845333876254e+02 0.0 
0.0 0.0 -1.640558699333e+02 
-9.479144816027e+01 -1.036895467836e+00 0.0 
-1.036895467836e+00 -1.911501065455e+02 0.0 
0.0 0.0 -8.056619765956e+01 
-9.008693954938e+01 -2.084558096126e+00 0.0 
-2.084558096126e+00 -1.814610678882e+02 0.0 
0.0 0.0 -7.607099541047e+01 
-8.030279541461e+01 -2.042572065278e+00 0.0 
-2.042572065278e+00 -1.615976110349e+02 0.0 
0.0 0.0 -6.716707861279e+01 
-8.561862908003e+01 -3.032537338178e+00 0.0 
-3.032537338178e+00 -1.729444963046e+02 0.0 
0.0 0.0 -7.192716765005e+01 
-9.832102404655e+01 -1.989646049994e+00 0.0 
-1.989646049994e+00 -1.996231784251e+02 0.0 
0.0 0.0 -8.418715296861e+01 
-7.408900412901e+01 -9.896958571630e-01 0.0 
-9.896958571630e-01 -1.502786566034e+02 0.0 
0.0 0.0 -6.220078006238e+01 
-6.936478293400e+01 -1.896460369205e+00 0.0 
-1.896460369205e+00 -1.431704274013e+02 0.0 
0.0 0.0 -5.873064535488e+01 
4.020245466039e-01 2.004655796720e-01 0.0 
2.004655796720e-01 -1.730792991742e+01 0.0 
0.0 0.0 -2.562817490911e+00 
-2.239376116856e+00 5.144205011234e-02 0.0 
5.144205011234e-02 -3.348757662899e+01 0.0 
0.0 0.0 -7.897187724777e+00 
-1.974325433726e+00 -1.599733687587e-01 0.0 
-1.599733687587e-01 -3.180831997616e+01 0.0 
0.0 0.0 -7.364502241112e+00 
-8.253552753437e+00 -8.086435182800e-02 0.0 
-8.086435182800e-02 -4.974638077229e+01 0.0 
0.0 0.0 -1.534437308968e+01 
-8.292022678951e+00 7.448044304448e-02 0.0 
7.448044304448e-02 -4.983053593822e+01 0.0 
0.0 0.0 -1.534863201946e+01 
-2.515679713001e+00 1.625981599717e-01 0.0 
1.625981599717e-01 -3.425320091906e+01 0.0 
0.0 0.0 -8.318060896522e+00 
-2.501585742340e+00 1.534803012452e-02 0.0 
1.534803012452e-02 -3.392993382521e+01 0.0 
0.0 0.0 -8.294065253707e+00 
5.609767629563e-01 8.199454260016e-02 0.0 
8.199454260016e-02 -1.697189916651e+01 0.0 
0.0 0.0 -2.235692545692e+00 
-2.546343830146e+00 5.034920332399e-02 0.0 
5.034920332399e-02 -3.373748206764e+01 0.0 
0.0 0.0 -8.373898325822e+00 
-8.960808544223e+00 -2.042712496682e-01 0.0 
-2.042712496682e-01 -5.058849222982e+01 0.0 
0.0 0.0 -1.579646538995e+01 
6.488836638412e-01 7.053785839249e-02 0.0 
7.053785839249e-02 -1.643111354775e+01 0.0 
0.0 0.0 -2.033603991734e+00 
-6.610009183687e+01 1.007561861240e+00 0.0 
1.007561861240e+00 -1.102731853454e+02 0.0 
0.0 0.0 -5.251198315467e+01 
-6.929120029481e+01 2.104333267302e+00 0.0 
2.104333267302e+00 -1.214567080144e+02 0.0 
0.0 0.0 -5.682437249276e+01 
-1.609918936141e+02 6.427492857707e+00 0.0 
6.427492857707e+00 -3.889796755339e+02 0.0 
0.0 0.0 -1.645914707444e+02 
-3.802345394978e+01 1.073122187051e+00 0.0 
1.073122187051e+00 -1.937654679463e+01 0.0 
0.0 0.0 -1.682000022332e+01 
4.580294909153e-01 8.543221730383e-03 0.0 
8.543221730383e-03 -1.688299360659e+01 0.0 
0.0 0.0 -2.165976039030e+00 
-8.514730728760e+01 8.555216283308e+00 0.0 
8.555216283308e+00 -1.854108929472e+02 0.0 
0.0 0.0 -8.076746007043e+01 
-8.899583879142e+01 1.614043787085e+01 0.0 
1.614043787085e+01 -1.930284389992e+02 0.0 
0.0 0.0 -8.420728333720e+01 
-8.766812079172e+01 1.351141826371e+01 0.0 
1.351141826371e+01 -1.915929049088e+02 0.0 
0.0 0.0 -8.337830771016e+01 
-1.503425455824e+02 -1.119049529750e-01 0.0 
-1.119049529750e-01 -3.529785418376e+02 0.0 
0.0 0.0 -1.505963262260e+02 
-1.546549339029e+02 -9.368856414860e-02 0.0 
-9.368856414860e-02 -3.629774199389e+02 0.0 
0.0 0.0 -1.548897061526e+02 
-8.400910470364e+01 4.736298243042e+00 0.0 
4.736298243042e+00 -1.848733146043e+02 0.0 
0.0 0.0 -8.026472579239e+01 
-6.201241581114e+01 -1.018226956293e+01 0.0 
-1.018226956293e+01 -1.315165779368e+02 0.0 
0.0 0.0 -5.398304661478e+01 
-1.068182563517e+02 4.070446636885e+01 0.0 
4.070446636885e+01 -2.179644091806e+02 0.0 
0.0 0.0 -9.703479965969e+01 
-7.886587070777e+01 8.191224065531e+00 0.0 
8.191224065531e+00 -1.484440806218e+02 0.0 
0.0 0.0 -6.779298539887e+01 
-5.031730859139e+01 2.615638644226e+01 0.0 
2.615638644226e+01 -1.206275432131e+02 0.0 
0.0 0.0 -4.682538193854e+01 
-6.181279311218e+01 -1.651025733688e+01 0.0 
-1.651025733688e+01 -1.337703628068e+02 0.0 
0.0 0.0 -5.574746159019e+01 
-1.276624710730e+02 -1.356915066203e+00 0.0 
-1.356915066203e+00 -2.938585511343e+02 0.0 
0.0 0.0 -1.249127857414e+02 
-1.171457961150e+02 -4.494530082461e+00 0.0 
-4.494530082461e+00 -2.752233479422e+02 0.0 
0.0 0.0 -1.155728640968e+02 
-1.414551846782e+02 -5.652521698306e-01 0.0 
-5.652521698306e-01 -3.367707356311e+02 0.0 
0.0 0.0 -1.430677760928e+02 
-1.216998066980e+02 -2.925111870257e+00 0.0 
-2.925111870257e+00 -2.778698195068e+02 0.0 
0.0 0.0 -1.175955704847e+02 
-1.329264045218e+02 -1.317960830489e+00 0.0 
-1.317960830489e+00 -3.216517452049e+02 0.0 
0.0 0.0 -1.359286944074e+02 
-1.400391444551e+02 1.563031908818e+01 0.0 
1.563031908818e+01 -3.558050007483e+02 0.0 
0.0 0.0 -1.483532435610e+02 
-2.317775535751e+01 -7.686551414501e-01 0.0 
-7.686551414501e-01 -7.956434708306e+01 0.0 
0.0 0.0 -2.903810960623e+01 
-6.132137531504e+01 5.189729105201e+00 0.0 
5.189729105201e+00 -7.337606199151e+01 0.0 
0.0 0.0 -4.000923119197e+01 
-5.426074629608e+01 2.409359303003e+00 0.0 
2.409359303003e+00 -6.522014356875e+01 0.0 
0.0 0.0 -3.544426695945e+01 
-7.229605354071e+01 7.168396874774e+00 0.0 
7.168396874774e+00 -1.162142665457e+02 0.0 
0.0 0.0 -5.615309602594e+01 
-6.432675110093e+01 -5.754197773221e+00 0.0 
-5.754197773221e+00 -1.353912887437e+02 0.0 
0.0 0.0 -5.399778157546e+01 
-1.034553832287e+02 -3.392176169207e+00 0.0 
-3.392176169207e+00 -2.145580509898e+02 0.0 
0.0 0.0 -9.043983358412e+01 
-3.277329216484e+01 -4.597936721100e+00 0.0 
-4.597936721100e+00 -8.513640141535e+01 0.0 
0.0 0.0 -3.160295996579e+01 
-1.197911987432e+02 3.937260755611e+01 0.0 
3.937260755611e+01 -2.873746123114e+02 0.0 
0.0 0.0 -1.217497433164e+02 
-7.714593470403e+01 3.926846302730e+01 0.0 
3.926846302730e+01 -1.197017514327e+02 0.0 
0.0 0.0 -5.621661455955e+01 
-9.718879526995e+01 -9.307160009559e+00 0.0 
-9.307160009559e+00 -2.431672043245e+02 0.0 
0.0 0.0 -1.028252008100e+02 
-8.732180311432e+01 -8.128893096519e+00 0.0 
-8.128893096519e+00 -1.818657692036e+02 0.0 
0.0 0.0 -7.537736559090e+01 
-6.838780177823e+01 -1.226412290986e+01 0.0 
-1.226412290986e+01 -1.454241331557e+02 0.0 
0.0 0.0 -6.058513308790e+01 
-5.939190774313e+01 -1.830884290318e+01 0.0 
-1.830884290318e+01 -1.301248558383e+02 0.0 
0.0 0.0 -5.352924013337e+01 
-7.372081308836e+01 3.515061627942e+01 0.0 
3.515061627942e+01 -1.662890670930e+02 0.0 
0.0 0.0 -7.138137344851e+01 
-9.833106873189e+01 -9.633621814898e+00 0.0 
-9.633621814898e+00 -2.220676985516e+02 0.0 
0.0 0.0 -9.343597423044e+01 
-1.233068235869e+02 -2.039930577159e+00 0.0 
-2.039930577159e+00 -3.118503712286e+02 0.0 
0.0 0.0 -1.301078163251e+02 
-7.397315205131e+01 6.762824365440e+00 0.0 
6.762824365440e+00 -1.273046962004e+02 0.0 
0.0 0.0 -5.998335447551e+01 
3.127341858807e-01 1.567959824278e-01 0.0 
1.567959824278e-01 -1.891385829981e+01 0.0 
0.0 0.0 -3.646055198684e+00 
-1.263475987650e+02 -7.807095673083e-01 0.0 
-7.807095673083e-01 -3.236931161069e+02 0.0 
0.0 0.0 -1.346122144616e+02 
-1.102498221458e+02 -6.273250914505e+00 0.0 
-6.273250914505e+00 -2.614094964223e+02 0.0 
0.0 0.0 -1.091532868013e+02 
-7.109077842174e+01 1.080718534039e+01 0.0 
1.080718534039e+01 -8.436533376116e+01 0.0 
0.0 0.0 -4.623683365487e+01 
-1.097609530812e+02 1.798113207882e+01 0.0 
1.798113207882e+01 -2.870183997219e+02 0.0 
0.0 0.0 -1.188538753468e+02 
-4.937163296145e+01 -2.375247665072e+01 0.0 
-2.375247665072e+01 -1.077239966788e+02 0.0 
0.0 0.0 -4.102483160591e+01 
-7.967495786083e+01 1.277217376958e+01 0.0 
1.277217376958e+01 -1.268450187350e+02 0.0 
0.0 0.0 -6.155599297874e+01 
-9.466993290069e+01 2.707200490679e+01 0.0 
2.707200490679e+01 -1.781715473065e+02 0.0 
0.0 0.0 -8.145244406217e+01 
-6.795386332441e+01 1.213249977214e+01 0.0 
1.213249977214e+01 -6.385056686993e+01 0.0 
0.0 0.0 -3.914132905830e+01 
-1.894501769773e+01 -2.345772465794e+00 0.0 
-2.345772465794e+00 -6.469366405570e+01 0.0 
0.0 0.0 -2.225829928818e+01 
-5.269394229346e+01 3.082335183636e+00 0.0 
3.082335183636e+00 -5.252899950120e+01 0.0 
0.0 0.0 -3.116688253840e+01 
-1.407006246579e+02 6.632340755097e+00 0.0 
6.632340755097e+00 -3.604238986544e+02 0.0 
0.0 0.0 -1.499373569937e+02 
-9.139199343921e+01 2.783594728349e+01 0.0 
2.783594728349e+01 -1.427005488994e+02 0.0 
0.0 0.0 -6.982776270157e+01 
-5.657410136767e+01 -4.332272362253e+00 0.0 
-4.332272362253e+00 -1.230981352096e+02 0.0 
0.0 0.0 -4.827398722356e+01 
-8.308211926036e+01 4.710552892698e+00 0.0 
4.710552892698e+00 -2.286479755919e+02 0.0 
0.0 0.0 -9.818118115758e+01 
-7.761313378964e+01 3.954329637256e+01 0.0 
3.954329637256e+01 -1.568220408417e+02 0.0 
0.0 0.0 -6.719878615844e+01 
-5.301160378552e+01 2.503029948986e+01 0.0 
2.503029948986e+01 -3.447305232431e+01 0.0 
0.0 0.0 -2.465897145338e+01 
-8.171610934130e+01 1.039713039108e+01 0.0 
1.039713039108e+01 -1.582935595610e+02 0.0 
0.0 0.0 -7.160290067070e+01 
-7.910761828926e+01 2.459033810969e+01 0.0 
2.459033810969e+01 -2.036374780012e+02 0.0 
0.0 0.0 -8.678042394405e+01 
-1.199829071753e+02 1.545770814124e+01 0.0 
1.545770814124e+01 -3.135066368534e+02 0.0 
0.0 0.0 -1.296468632086e+02 
-9.764304585747e+01 9.115171035713e+00 0.0 
9.115171035713e+00 -2.623803438819e+02 0.0 
0.0 0.0 -1.118879114564e+02 
-6.199627049875e+01 -3.596684622114e+00 0.0 
-3.596684622114e+00 -1.315581793986e+02 0.0 
0.0 0.0 -5.247210312749e+01 
-1.360779796069e+02 -3.523303566735e-01 0.0 
-3.523303566735e-01 -3.380444378963e+02 0.0 
0.0 0.0 -1.418367252510e+02 
-7.577172295089e+01 1.364712299441e+01 0.0 
1.364712299441e+01 -2.068347321339e+02 0.0 
0.0 0.0 -8.811535149613e+01 
-8.445302555798e+01 1.524361479899e+01 0.0 
1.524361479899e+01 -1.488379886636e+02 0.0 
0.0 0.0 -6.958730426647e+01 
-9.941964235941e+01 4.042603786656e+01 0.0 
4.042603786656e+01 -2.289074900826e+02 0.0 
0.0 0.0 -9.809813973261e+01 
-6.487371169050e+01 3.291494094123e+00 0.0 
3.291494094123e+00 -1.850693806377e+02 0.0 
0.0 0.0 -7.383126297196e+01 
-8.790788038798e+01 2.083943774730e+01 0.0 
2.083943774730e+01 -1.421967086954e+02 0.0 
0.0 0.0 -6.863137672502e+01 
-9.211867174810e+01 -6.952014172403e+00 0.0 
-6.952014172403e+00 -2.477981307383e+02 0.0 
0.0 0.0 -1.046928203000e+02 
-1.123293986585e+02 2.109820707819e+01 0.0 
2.109820707819e+01 -2.909635294007e+02 0.0 
0.0 0.0 -1.205878784177e+02 
-7.494096047323e+01 3.938144032282e+01 0.0 
3.938144032282e+01 -1.194895671251e+02 0.0 
0.0 0.0 -5.448042857703e+01 
-8.954142183398e+01 4.130037965861e+01 0.0 
4.130037965861e+01 -1.951216167303e+02 0.0 
0.0 0.0 -8.439785645778e+01 
-9.304854798567e+01 4.162255845362e+01 0.0 
4.162255845362e+01 -1.812650064046e+02 0.0 
0.0 0.0 -8.189406631707e+01 
-8.501070820365e+01 3.484305822409e+01 0.0 
3.484305822409e+01 -2.008405674364e+02 0.0 
0.0 0.0 -8.493692801162e+01 
-1.252275014390e+02 -1.202780189195e+00 0.0 
-1.202780189195e+00 -2.823425386812e+02 0.0 
0.0 0.0 -1.200952002167e+02 
-1.311402488877e+02 -6.404641232994e-01 0.0 
-6.404641232994e-01 -3.307934422289e+02 0.0 
0.0 0.0 -1.381801073350e+02 
-4.600651855265e+01 -1.380122444328e+01 0.0 
-1.380122444328e+01 -1.319287757838e+02 0.0 
0.0 0.0 -5.194903298452e+01 
-6.616122506404e+01 3.653384809790e+01 0.0 
3.653384809790e+01 -1.331185895246e+02 0.0 
0.0 0.0 -5.835678235347e+01 
-7.608824199344e+01 1.581155036993e+01 0.0 
1.581155036993e+01 -8.748929622924e+01 0.0 
0.0 0.0 -4.867326146680e+01 
-1.102018786927e+02 3.516634884941e+01 0.0 
3.516634884941e+01 -2.689417407741e+02 0.0 
0.0 0.0 -1.133430858400e+02 
-8.822807695359e+01 1.738074265756e+01 0.0 
1.738074265756e+01 -1.707891939896e+02 0.0 
0.0 0.0 -7.730518128297e+01 
-7.278446657826e+01 3.928204696294e+01 0.0 
3.928204696294e+01 -1.381939283079e+02 0.0 
0.0 0.0 -5.987785570348e+01 
-1.323263956072e+02 -1.203163436931e+00 0.0 
-1.203163436931e+00 -3.261824728710e+02 0.0 
0.0 0.0 -1.371526605434e+02 
-9.142372117581e+01 2.337877391504e+01 0.0 
2.337877391504e+01 -1.642954989753e+02 0.0 
0.0 0.0 -7.631576604532e+01 
-1.025325852858e+02 -8.201495869048e+00 0.0 
-8.201495869048e+00 -2.287797002344e+02 0.0 
0.0 0.0 -9.567339886295e+01 
-3.076756712915e+01 -3.557515168884e-01 0.0 
-3.557515168884e-01 -9.034021089973e+01 0.0 
0.0 0.0 -3.407301732729e+01 
-4.786791309744e+01 2.747421134838e+01 0.0 
2.747421134838e+01 -1.072563046339e+02 0.0 
0.0 0.0 -4.347612907026e+01 
-5.533792108428e+01 2.379663585397e+00 0.0 
2.379663585397e+00 -1.619017656829e+02 0.0 
0.0 0.0 -6.166183502032e+01 
-7.579237047666e+01 2.116001459423e+01 0.0 
2.116001459423e+01 -1.996608834859e+02 0.0 
0.0 0.0 -8.518334667451e+01 
-1.085890094192e+02 -6.847690383531e+00 0.0 
-6.847690383531e+00 -2.486196993272e+02 0.0 
0.0 0.0 -1.038355894882e+02 
-1.030358190357e+02 3.697173354740e+01 0.0 
3.697173354740e+01 -2.084472830520e+02 0.0 
0.0 0.0 -9.304493062630e+01 
-1.369753403669e+02 -7.936120099925e-01 0.0 
-7.936120099925e-01 -3.335135873740e+02 0.0 
0.0 0.0 -1.407466783223e+02 
-1.189464693627e+02 3.524340356378e+00 0.0 
3.524340356378e+00 -3.149902794418e+02 0.0 
0.0 0.0 -1.297810246413e+02 
-3.374244856296e+01 2.264033241687e+01 0.0 
2.264033241687e+01 -3.656067036008e+01 0.0 
0.0 0.0 -1.859448705357e+01 
-6.824276974619e+01 3.278090230544e+01 0.0 
3.278090230544e+01 -5.907266026674e+01 0.0 
0.0 0.0 -3.637877247457e+01 
-1.416033203089e+02 -4.577904970971e-01 0.0 
-4.577904970971e-01 -3.410000347208e+02 0.0 
0.0 0.0 -1.443810065089e+02 
-8.837529216979e+01 3.014204638016e+00 0.0 
3.014204638016e+00 -2.416642725644e+02 0.0 
0.0 0.0 -1.040634858928e+02 
-1.172493182425e+02 1.984001498930e+01 0.0 
1.984001498930e+01 -3.040371324469e+02 0.0 
0.0 0.0 -1.259859352068e+02 
-1.095325317566e+02 -1.477754259672e+00 0.0 
-1.477754259672e+00 -2.294125806712e+02 0.0 
0.0 0.0 -9.734876953099e+01 
-1.207670520936e+02 3.743878865195e+01 0.0 
3.743878865195e+01 -2.930367832502e+02 0.0 
0.0 0.0 -1.237411506031e+02 
-5.015785388373e+01 3.078267203727e+01 0.0 
3.078267203727e+01 -5.809373009434e+01 0.0 
0.0 0.0 -2.716908766503e+01 
-1.461662437246e+02 -2.493674514416e-01 0.0 
-2.493674514416e-01 -3.488985200965e+02 0.0 
0.0 0.0 -1.481194291463e+02 
-1.156688726033e+02 8.476578156348e+00 0.0 
8.476578156348e+00 -3.060571420651e+02 0.0 
0.0 0.0 -1.262857288113e+02 
-6.111190072311e+01 2.954677518609e+01 0.0 
2.954677518609e+01 -1.440919755276e+02 0.0 
0.0 0.0 -5.865195793288e+01 
-3.304713201183e+01 1.575561336413e-01 0.0 
1.575561336413e-01 -1.668397894918e+01 0.0 
0.0 0.0 -1.451933328830e+01 
-1.564728426553e+02 2.295643375701e-01 0.0 
2.295643375701e-01 -3.707693972664e+02 0.0 
0.0 0.0 -1.577726719765e+02 
-1.231149655721e+02 1.061773577731e+01 0.0 
1.061773577731e+01 -3.232865202369e+02 0.0 
0.0 0.0 -1.335204457427e+02 
-8.939254596095e+01 3.341892877220e+01 0.0 
3.341892877220e+01 -2.160992167539e+02 0.0 
0.0 0.0 -9.112521679198e+01 
-8.696209396205e+01 -1.209567977030e+00 0.0 
-1.209567977030e+00 -2.384190635287e+02 0.0 
0.0 0.0 -1.017274921788e+02 
-4.052548673440e+01 2.387912545331e+01 0.0 
2.387912545331e+01 -3.416923920386e+01 0.0 
0.0 0.0 -1.940223167339e+01 
-1.120447419074e+02 -5.822108096576e+00 0.0 
-5.822108096576e+00 -2.556042941970e+02 0.0 
0.0 0.0 -1.069589253812e+02 
-9.187601172982e+01 4.228885343514e+01 0.0 
4.228885343514e+01 -1.971070792548e+02 0.0 
0.0 0.0 -8.609464506965e+01 
-9.864648290614e+01 3.226854396088e+01 0.0 
3.226854396088e+01 -2.136234800550e+02 0.0 
0.0 0.0 -9.328098888835e+01 
-1.250374753589e+02 1.402946944853e+01 0.0 
1.402946944853e+01 -3.265029881622e+02 0.0 
0.0 0.0 -1.350621390563e+02 
-8.761875768313e+01 3.334028111747e+01 0.0 
3.334028111747e+01 -1.280395930923e+02 0.0 
0.0 0.0 -6.429750523264e+01 
-1.097631729272e+02 -5.875631032133e+00 0.0 
-5.875631032133e+00 -2.429887445238e+02 0.0 
0.0 0.0 -1.017380682152e+02 
-9.531020630856e+01 2.262868483508e+01 0.0 
2.262868483508e+01 -2.472877721334e+02 0.0 
0.0 0.0 -1.034739867700e+02 
-8.479819790171e+00 1.494439480164e-01 0.0 
1.494439480164e-01 -5.020978857674e+01 0.0 
0.0 0.0 -1.552106704989e+01 
-5.680217994811e+01 3.245111092475e+01 0.0 
3.245111092475e+01 -5.850306474890e+01 0.0 
0.0 0.0 -3.121793472788e+01 
-1.130705616993e+02 -4.822150015445e+00 0.0 
-4.822150015445e+00 -2.504153153662e+02 0.0 
0.0 0.0 -1.053915367623e+02 
-5.826613162146e+01 -4.455129210930e+00 0.0 
-4.455129210930e+00 -1.687605056697e+02 0.0 
0.0 0.0 -6.523357502410e+01 
-9.267926688769e+01 -2.601291342499e+00 0.0 
-2.601291342499e+00 -2.519988390394e+02 0.0 
0.0 0.0 -1.072444446812e+02 
-1.257385491154e+02 2.833275559849e+01 0.0 
2.833275559849e+01 -3.162985758417e+02 0.0 
0.0 0.0 -1.322111374872e+02 
-1.162780956874e+02 -3.806963790370e+00 0.0 
-3.806963790370e+00 -2.580931641719e+02 0.0 
0.0 0.0 -1.090323345928e+02 
-6.354014161848e+01 -2.495633774962e+00 0.0 
-2.495633774962e+00 -1.819845609500e+02 0.0 
0.0 0.0 -7.202917633697e+01 
-1.193731014778e+02 -2.846366897229e+00 0.0 
-2.846366897229e+00 -2.659382540386e+02 0.0 
0.0 0.0 -1.126696855684e+02 
-3.649855287783e+01 2.321358563312e+01 0.0 
2.321358563312e+01 -3.438476328153e+01 0.0 
0.0 0.0 -1.656859040893e+01 
-9.093267682253e+01 3.630326007652e+01 0.0 
3.630326007652e+01 -1.476753522123e+02 0.0 
0.0 0.0 -7.118240871046e+01 
-1.223484514033e+02 -1.941515628351e+00 0.0 
-1.941515628351e+00 -2.738947837302e+02 0.0 
0.0 0.0 -1.163181808027e+02 
-9.743187272685e+01 4.268699612405e+01 0.0 
4.268699612405e+01 -2.157744299727e+02 0.0 
0.0 0.0 -9.356189080987e+01 
-1.031169370894e+01 -3.453892164262e-01 0.0 
-3.453892164262e-01 -5.238759167682e+01 0.0 
0.0 0.0 -1.668387055510e+01 
-9.073625147282e+01 2.968181881492e+01 0.0 
2.968181881492e+01 -2.263789284566e+02 0.0 
0.0 0.0 -9.495634165978e+01 
-1.456351225864e+02 -2.565402944559e-01 0.0 
-2.565402944559e-01 -3.426243111072e+02 0.0 
0.0 0.0 -1.460778301081e+02 
-7.784365467813e+01 -1.523053056403e+01 0.0 
-1.523053056403e+01 -1.750650365931e+02 0.0 
0.0 0.0 -7.378178973164e+01 
-9.828639264128e+01 -3.732567795659e+00 0.0 
-3.732567795659e+00 -2.644806635303e+02 0.0 
0.0 0.0 -1.118656107840e+02 
-9.612800207842e+01 3.769111022493e+01 0.0 
3.769111022493e+01 -1.702976494068e+02 0.0 
0.0 0.0 -7.952769544556e+01 
-3.464302043168e+01 2.260775294204e+01 0.0 
2.260775294204e+01 -3.332850626622e+01 0.0 
0.0 0.0 -1.513268391399e+01 
-1.046787310640e+02 -1.038264432153e+00 0.0 
-1.038264432153e+00 -2.809430006460e+02 0.0 
0.0 0.0 -1.179304257423e+02 
-1.026259959112e+02 4.246190308084e+01 0.0 
4.246190308084e+01 -2.331679446780e+02 0.0 
0.0 0.0 -1.003381821768e+02 
-9.401873172018e+01 2.735610239349e+01 0.0 
2.735610239349e+01 -2.383777187269e+02 0.0 
0.0 0.0 -9.963872921159e+01 
-8.142501125065e+01 2.083974650850e+01 0.0 
2.083974650850e+01 -2.143441613739e+02 0.0 
0.0 0.0 -9.167207499289e+01 
-1.116462386655e+02 1.230104901995e+00 0.0 
1.230104901995e+00 -2.976683520199e+02 0.0 
0.0 0.0 -1.232630774951e+02 
-4.659607042065e+01 2.960560686154e+01 0.0 
2.960560686154e+01 -5.733946729573e+01 0.0 
0.0 0.0 -2.655156274851e+01 
-5.822833875841e+01 -1.185056643636e+01 0.0 
-1.185056643636e+01 -1.238336312179e+02 0.0 
0.0 0.0 -5.105860329541e+01 
-4.752628030585e+01 -1.027747288756e+01 0.0 
-1.027747288756e+01 -1.024063477569e+02 0.0 
0.0 0.0 -4.138842829035e+01 
-6.874725017741e+01 -5.341470614331e+00 0.0 
-5.341470614331e+00 -1.939369393855e+02 0.0 
0.0 0.0 -7.834091506814e+01 
-1.056962573644e+02 4.411389370050e+01 0.0 
4.411389370050e+01 -2.367457705400e+02 0.0 
0.0 0.0 -1.023326083713e+02 
-1.542457836359e+01 -1.717467981970e-01 0.0 
-1.717467981970e-01 -6.595860584096e+01 0.0 
0.0 0.0 -2.326891124059e+01 
-9.761354953523e+01 4.082497038061e+01 0.0 
4.082497038061e+01 -1.862224286764e+02 0.0 
0.0 0.0 -8.475079346348e+01 
-3.434305796085e+01 -7.600461645597e+00 0.0 
-7.600461645597e+00 -7.380965492123e+01 0.0 
0.0 0.0 -2.828906333135e+01 
-6.837594469516e+01 -1.052451215209e+01 0.0 
-1.052451215209e+01 -1.907776945373e+02 0.0 
0.0 0.0 -7.701338885922e+01 
-1.055362232019e+02 2.662272232368e+01 0.0 
2.662272232368e+01 -2.686355778419e+02 0.0 
0.0 0.0 -1.118515403131e+02 
-5.357828677244e+01 6.403405556678e-01 0.0 
6.403405556678e-01 -7.098996063388e+01 0.0 
0.0 0.0 -3.697047422190e+01 
-7.376860106680e+01 -1.188363730173e+01 0.0 
-1.188363730173e+01 -2.031154244186e+02 0.0 
0.0 0.0 -8.369876743767e+01 
-4.693463342619e+01 -6.373324427124e-01 0.0 
-6.373324427124e-01 -1.102397927912e+02 0.0 
0.0 0.0 -4.355780434143e+01 
-7.291043480265e+01 -1.559980663842e+01 0.0 
-1.559980663842e+01 -1.973168520281e+02 0.0 
0.0 0.0 -8.118226659500e+01 
-8.831406589150e+01 2.166136644607e+01 0.0 
2.166136644607e+01 -2.307642221448e+02 0.0 
0.0 0.0 -9.796547011722e+01 
-7.768382084429e+01 -1.610902321873e+01 0.0 
-1.610902321873e+01 -2.027838287872e+02 0.0 
0.0 0.0 -8.437083416999e+01 
-7.584999882608e+01 -1.751840172005e+01 0.0 
-1.751840172005e+01 -1.869072004822e+02 0.0 
0.0 0.0 -7.813756540322e+01 
-8.313763886447e+01 9.572536412098e+00 0.0 
9.572536412098e+00 -1.698861458672e+02 0.0 
0.0 0.0 -7.550713541951e+01 
-8.100866550707e+01 -1.561462359303e+01 0.0 
-1.561462359303e+01 -1.903518221638e+02 0.0 
0.0 0.0 -8.022898827300e+01 
-8.491221540759e+01 2.822205493537e+00 0.0 
2.822205493537e+00 -1.883513123466e+02 0.0 
0.0 0.0 -8.157905832624e+01 
-1.642894396339e+02 1.647204337079e-02 0.0 
1.647204337079e-02 -3.850093635649e+02 0.0 
0.0 0.0 -1.643896409596e+02 
-3.893671790655e+01 2.648826831579e-01 0.0 
2.648826831579e-01 -3.159608208787e+01 0.0 
0.0 0.0 -2.075983999833e+01 
-3.141421520750e+01 2.108515321872e+01 0.0 
2.108515321872e+01 -2.915961232226e+01 0.0 
0.0 0.0 -1.424407970427e+01 
-4.952462103129e+01 2.401548259197e+00 0.0 
2.401548259197e+00 -1.153986051381e+02 0.0 
0.0 0.0 -5.035671641400e+01 
-4.579501822787e+01 2.969013604899e+01 0.0 
2.969013604899e+01 -6.047643750766e+01 0.0 
0.0 0.0 -2.881836764453e+01 
-6.969366324770e+01 -1.639614311704e+01 0.0 
-1.639614311704e+01 -1.545470423872e+02 0.0 
0.0 0.0 -6.490438085854e+01 
-9.882776653958e+01 4.286633638432e+01 0.0 
4.286633638432e+01 -2.019024539651e+02 0.0 
0.0 0.0 -8.981906615140e+01 
-3.937579386542e+01 3.040248921720e-01 0.0 
3.040248921720e-01 -3.230987225970e+01 0.0 
0.0 0.0 -2.110569983754e+01 
-6.475969677101e+01 -1.443386804784e+01 0.0 
-1.443386804784e+01 -1.389117079401e+02 0.0 
0.0 0.0 -5.804354953479e+01 
-1.150021073490e+02 4.692156949932e+01 0.0 
4.692156949932e+01 -2.534781523959e+02 0.0 
0.0 0.0 -1.101440779235e+02 
-1.317856987305e+02 3.612883762570e+01 0.0 
3.612883762570e+01 -3.176506361440e+02 0.0 
0.0 0.0 -1.344309004624e+02 
-6.329699911363e+01 1.596208916910e+00 0.0 
1.596208916910e+00 -1.002096364301e+02 0.0 
0.0 0.0 -4.865199066313e+01 
-1.219241721397e+02 1.864735428101e+01 0.0 
1.864735428101e+01 -3.163167456379e+02 0.0 
0.0 0.0 -1.310722753333e+02 
-9.818549163355e+01 2.554704608737e+01 0.0 
2.554704608737e+01 -2.512901779847e+02 0.0 
0.0 0.0 -1.046700430464e+02 
-7.607396773366e+01 1.385295153725e+00 0.0 
1.385295153725e+00 -1.491729880901e+02 0.0 
0.0 0.0 -6.717408674713e+01 
-3.371911891807e+01 5.050013838054e-01 0.0 
5.050013838054e-01 -1.526362807285e+01 0.0 
0.0 0.0 -1.429482409728e+01 
-6.822750011386e+00 -1.470273230656e+00 0.0 
-1.470273230656e+00 -3.302985024582e+01 0.0 
0.0 0.0 -9.000877468413e+00 
-1.281395702972e+02 -5.111037276653e-01 0.0 
-5.111037276653e-01 -2.923064369295e+02 0.0 
0.0 0.0 -1.244686669258e+02 
-3.083240334017e+01 2.102629069126e+01 0.0 
2.102629069126e+01 -2.968753980474e+01 0.0 
0.0 0.0 -1.499223346995e+01 
-4.186048480775e+01 2.776644002216e+01 0.0 
2.776644002216e+01 -5.418700530480e+01 0.0 
0.0 0.0 -2.561092164541e+01 
-4.051883485458e+01 2.737420226325e+01 0.0 
2.737420226325e+01 -5.462178221727e+01 0.0 
0.0 0.0 -2.445371378073e+01 
-6.616913487000e+01 -2.747701259534e+00 0.0 
-2.747701259534e+00 -1.379786074732e+02 0.0 
0.0 0.0 -5.594781283361e+01 
-3.461706187599e+01 -1.591495093286e+01 0.0 
-1.591495093286e+01 -6.164583861388e+01 0.0 
0.0 0.0 -2.243894880349e+01 
-3.293242049273e+01 2.212769690792e+01 0.0 
2.212769690792e+01 -3.302620302633e+01 0.0 
0.0 0.0 -1.636559547307e+01 
-1.330366924318e+02 2.311987585141e+01 0.0 
2.311987585141e+01 -3.362753247487e+02 0.0 
0.0 0.0 -1.403936051542e+02 
-4.688527320027e+01 2.746643152741e+00 0.0 
2.746643152741e+00 -3.350645081982e+01 0.0 
0.0 0.0 -2.371751720603e+01 
-1.082799038445e+02 2.909423773664e+01 0.0 
2.909423773664e+01 -2.726266344582e+02 0.0 
0.0 0.0 -1.138719614908e+02 
-3.296703128858e+01 2.209355432384e+01 0.0 
2.209355432384e+01 -3.325918759264e+01 0.0 
0.0 0.0 -1.588858149157e+01 
-9.419672170586e+01 2.596085351136e+01 0.0 
2.596085351136e+01 -1.863998199720e+02 0.0 
0.0 0.0 -8.377896250337e+01 
-1.247529849833e+02 3.161236501370e+01 0.0 
3.161236501370e+01 -3.098596111248e+02 0.0 
0.0 0.0 -1.299837788324e+02 
-1.639832926970e+02 3.013414726409e+00 0.0 
3.013414726409e+00 -3.907530685997e+02 0.0 
0.0 0.0 -1.660209083890e+02 
-1.158104184450e+02 3.012276824152e+01 0.0 
3.012276824152e+01 -2.905247867800e+02 0.0 
0.0 0.0 -1.215005615675e+02 
-3.849422406731e+01 2.677244674591e+01 0.0 
2.677244674591e+01 -5.633714285883e+01 0.0 
0.0 0.0 -2.404579508307e+01 
-6.792699829430e+01 1.377286116909e+01 0.0 
1.377286116909e+01 -5.715419240452e+01 0.0 
0.0 0.0 -3.712435720965e+01 
-1.187284121169e+02 4.134360123718e+01 0.0 
4.134360123718e+01 -2.809542696545e+02 0.0 
0.0 0.0 -1.195048045314e+02 
-6.891705669181e+01 2.789187842930e+00 0.0 
2.789187842930e+00 -1.165884176735e+02 0.0 
0.0 0.0 -5.525164230960e+01 
-1.655353005029e+02 1.187605644374e+00 0.0 
1.187605644374e+00 -3.909236261657e+02 0.0 
0.0 0.0 -1.665376780006e+02 
-5.091395846985e+01 4.582909810659e+00 0.0 
4.582909810659e+00 -3.202046524999e+01 0.0 
0.0 0.0 -2.448032711595e+01 
-8.191774125862e+01 6.101864256106e+00 0.0 
6.101864256106e+00 -1.714157692855e+02 0.0 
0.0 0.0 -7.560005316322e+01 
-4.452532072845e+01 -2.098083959653e+01 0.0 
-2.098083959653e+01 -1.170036990694e+02 0.0 
0.0 0.0 -4.541168401587e+01 
-8.111448832930e+01 3.051791221631e+00 0.0 
3.051791221631e+00 -1.710741149867e+02 0.0 
0.0 0.0 -7.525658099481e+01 
-1.047377631188e+02 4.432031397876e+01 0.0 
4.432031397876e+01 -2.227697362224e+02 0.0 
0.0 0.0 -9.785224980234e+01 
-5.022282463314e+01 1.438066037364e+00 0.0 
1.438066037364e+00 -5.660265495665e+01 0.0 
0.0 0.0 -3.164764387694e+01 
-7.503866279577e+01 2.264291031384e+01 0.0 
2.264291031384e+01 -6.907370447730e+01 0.0 
0.0 0.0 -4.283371018192e+01 
-1.586453132945e+02 -4.269845391619e-02 0.0 
-4.269845391619e-02 -3.725130376648e+02 0.0 
0.0 0.0 -1.589475052878e+02 
-1.094315815032e+02 4.328855591228e+01 0.0 
4.328855591228e+01 -2.324166022515e+02 0.0 
0.0 0.0 -1.021544551264e+02 
-3.730695202928e+01 2.599263323507e+01 0.0 
2.599263323507e+01 -6.428869411537e+01 0.0 
0.0 0.0 -2.816362811825e+01 
-6.382793086409e+01 2.122514035592e+00 0.0 
2.122514035592e+00 -9.919912618587e+01 0.0 
0.0 0.0 -4.850811711499e+01 
-8.585892119755e+01 -4.068144168353e+00 0.0 
-4.068144168353e+00 -1.739204059460e+02 0.0 
0.0 0.0 -7.194558291337e+01 
-3.660277003785e+01 -1.668366617278e+01 0.0 
-1.668366617278e+01 -1.024172458804e+02 0.0 
0.0 0.0 -4.304292000563e+01 
-1.522720732469e+02 4.194174589191e+00 0.0 
4.194174589191e+00 -3.753748579626e+02 0.0 
0.0 0.0 -1.578940793629e+02 
-1.100450589355e+02 4.562001774369e+01 0.0 
4.562001774369e+01 -2.422807509455e+02 0.0 
0.0 0.0 -1.052977429643e+02 
-1.576982010900e+02 -1.164823678812e-02 0.0 
-1.164823678812e-02 -3.721984563414e+02 0.0 
0.0 0.0 -1.585689972294e+02 
-8.117590829976e+00 -1.196663175217e-02 0.0 
-1.196663175217e-02 -4.939725414403e+01 0.0 
0.0 0.0 -1.517451198728e+01 
-2.385236678667e+00 -6.195055115154e-02 0.0 
-6.195055115154e-02 -3.134397718457e+01 0.0 
0.0 0.0 -8.623205035148e+00 
-1.499637473332e+02 8.684672296520e+00 0.0 
8.684672296520e+00 -3.749811965432e+02 0.0 
0.0 0.0 -1.570834831629e+02 
-1.179045157652e+02 4.560773069037e+01 0.0 
4.560773069037e+01 -2.697247316261e+02 0.0 
0.0 0.0 -1.158887742174e+02 
-4.718233472564e+01 -2.472192527222e+01 0.0 
-2.472192527222e+01 -1.158092843758e+02 0.0 
0.0 0.0 -4.335772393158e+01 
-9.257458826737e+01 2.249423808966e+01 0.0 
2.249423808966e+01 -2.026446674478e+02 0.0 
0.0 0.0 -8.816577671454e+01 
-3.929643160383e+01 2.559794329245e+01 0.0 
2.559794329245e+01 -7.943718101689e+01 0.0 
0.0 0.0 -3.655071641141e+01 
-3.404163775302e+01 3.493804031704e-01 0.0 
3.493804031704e-01 -1.319547851124e+01 0.0 
0.0 0.0 -1.377113487928e+01 
-2.393087588014e+00 1.558996061379e-01 0.0 
1.558996061379e-01 -3.216747943309e+01 0.0 
0.0 0.0 -8.093880910914e+00 
-1.654908514033e+02 8.302280777705e-01 0.0 
8.302280777705e-01 -3.895672703640e+02 0.0 
0.0 0.0 -1.661174365302e+02 
-8.734705387666e+01 1.591677394435e+01 0.0 
1.591677394435e+01 -1.774755390632e+02 0.0 
0.0 0.0 -7.904677788196e+01 
-9.436506706459e+01 -2.843885776895e+00 0.0 
-2.843885776895e+00 -1.908756788309e+02 0.0 
0.0 0.0 -8.016232455750e+01 
-6.257929181012e+01 1.520390943115e+01 0.0 
1.520390943115e+01 -2.930977823829e+01 0.0 
0.0 0.0 -2.710467615947e+01 
-5.677101363617e+01 -1.647456893070e+00 0.0 
-1.647456893070e+00 -1.241701889825e+02 0.0 
0.0 0.0 -4.989591062101e+01 
-1.160741914843e+02 3.568735729458e+01 0.0 
3.568735729458e+01 -2.835627791471e+02 0.0 
0.0 0.0 -1.194910911894e+02 
-2.057952818056e+01 -5.436098616118e+00 0.0 
-5.436098616118e+00 -4.851534605307e+01 0.0 
0.0 0.0 -1.660288288461e+01 
-8.518933329873e+01 1.165790156584e+01 0.0 
1.165790156584e+01 -1.767966503430e+02 0.0 
0.0 0.0 -7.819579509251e+01 
-1.457394508668e+02 1.407290744111e+01 0.0 
1.407290744111e+01 -3.660884039081e+02 0.0 
0.0 0.0 -1.531483564325e+02 
-1.015599096109e+02 3.503542486563e+01 0.0 
3.503542486563e+01 -2.079130082016e+02 0.0 
0.0 0.0 -9.244187534377e+01 
-1.433321279382e+02 2.917852296891e+01 0.0 
2.917852296891e+01 -3.445928441827e+02 0.0 
0.0 0.0 -1.459774916363e+02 
-4.232772952663e+01 1.030358146710e+01 0.0 
1.030358146710e+01 -1.236439922977e+02 0.0 
0.0 0.0 -5.132279290057e+01 
-1.254133379033e+02 3.367651293786e+01 0.0 
3.367651293786e+01 -3.089148220197e+02 0.0 
0.0 0.0 -1.298984479769e+02 
-1.315754741539e+02 1.568229978772e+01 0.0 
1.568229978772e+01 -3.402078244719e+02 0.0 
0.0 0.0 -1.411349895877e+02 
-3.298191196394e+01 2.331765479358e-02 0.0 
2.331765479358e-02 -1.502123730951e+01 0.0 
0.0 0.0 -1.400094478203e+01 
-1.056451741337e+02 3.955105236189e+01 0.0 
3.955105236189e+01 -2.195981883953e+02 0.0 
0.0 0.0 -9.717300875869e+01 
-7.585481072355e+01 -2.860222674399e+00 0.0 
-2.860222674399e+00 -1.542892481557e+02 0.0 
0.0 0.0 -6.353440834959e+01 
-1.655022945074e+01 -8.696617532297e-01 0.0 
-8.696617532297e-01 -6.578281913624e+01 0.0 
0.0 0.0 -2.270521690792e+01 
-8.494879248055e+01 1.497874823132e+00 0.0 
1.497874823132e+00 -1.902822648820e+02 0.0 
0.0 0.0 -8.216931720876e+01 
3.220939657145e-01 -3.153130742587e-02 0.0 
-3.153130742587e-02 -1.404079586133e+01 0.0 
0.0 0.0 -1.962759309270e+00 
-3.193803481152e+01 6.882031149880e-02 0.0 
6.882031149880e-02 -1.388080738820e+01 0.0 
0.0 0.0 -1.334565265991e+01 
-1.661486267911e+02 -1.733717257727e-01 0.0 
-1.733717257727e-01 -3.890603255843e+02 0.0 
0.0 0.0 -1.661626857126e+02 
-1.374051076943e+01 -1.549244968573e-01 0.0 
-1.549244968573e-01 -6.287730652895e+01 0.0 
0.0 0.0 -2.176529062513e+01 
-4.471509828676e+01 5.348733559143e-01 0.0 
5.348733559143e-01 -4.603581651975e+01 0.0 
0.0 0.0 -2.682527444195e+01 
-1.177049743114e+02 4.739150214827e+01 0.0 
4.739150214827e+01 -2.646928003108e+02 0.0 
0.0 0.0 -1.143193323867e+02 
-1.114205546896e+02 -6.889131870525e-01 0.0 
-6.889131870525e-01 -2.345196739495e+02 0.0 
0.0 0.0 -9.957519444312e+01 
-7.331950057549e+01 2.406549295233e+00 0.0 
2.406549295233e+00 -1.372231263759e+02 0.0 
0.0 0.0 -6.276278808542e+01 
-4.381729766457e+01 -2.299081244767e+01 0.0 
-2.299081244767e+01 -8.562188882688e+01 0.0 
0.0 0.0 -3.225908535552e+01 
-5.130713156807e+01 -5.750155001546e+00 0.0 
-5.750155001546e+00 -1.070763059651e+02 0.0 
0.0 0.0 -4.826055417767e+01 
-5.733413652293e+01 1.164155816352e+00 0.0 
1.164155816352e+00 -8.147641654086e+01 0.0 
0.0 0.0 -4.124316591914e+01 
-1.280954294236e+02 3.025093680031e+01 0.0 
3.025093680031e+01 -3.185461965195e+02 0.0 
0.0 0.0 -1.335924877829e+02 
-9.689670680034e+01 2.923795019412e+01 0.0 
2.923795019412e+01 -1.967372750303e+02 0.0 
0.0 0.0 -8.769019454920e+01 
-5.382688156019e+01 1.524687287731e+00 0.0 
1.524687287731e+00 -6.757778847298e+01 0.0 
0.0 0.0 -3.602140100995e+01 
-4.244687084847e+01 2.663695709186e+01 0.0 
2.663695709186e+01 -9.131573556512e+01 0.0 
0.0 0.0 -3.790266992006e+01 
-1.151581826605e+02 4.695872466336e+01 0.0 
4.695872466336e+01 -2.581374814314e+02 0.0 
0.0 0.0 -1.115886992276e+02 
-1.008940291586e+02 -2.669090528543e+00 0.0 
-2.669090528543e+00 -2.066002154188e+02 0.0 
0.0 0.0 -8.717924240647e+01 
-1.145920485097e+02 3.972245662455e+01 0.0 
3.972245662455e+01 -2.727790588154e+02 0.0 
0.0 0.0 -1.158113321975e+02 
-1.278094374255e+02 2.047859310025e+01 0.0 
2.047859310025e+01 -3.287838460855e+02 0.0 
0.0 0.0 -1.365779850533e+02 
-3.542275336382e+01 2.445112151306e+01 0.0 
2.445112151306e+01 -6.310382740367e+01 0.0 
0.0 0.0 -2.895081780886e+01 
-1.171563394540e+02 -5.714410984582e-01 0.0 
-5.714410984582e-01 -2.523363230449e+02 0.0 
0.0 0.0 -1.072737430766e+02 
-1.715531300970e+00 3.960814620116e-01 0.0 
3.960814620116e-01 -3.023509521617e+01 0.0 
0.0 0.0 -7.753053100892e+00 
-1.576787930518e+02 1.876964249579e+00 0.0 
1.876964249579e+00 -3.786847970841e+02 0.0 
0.0 0.0 -1.605090770408e+02 
-1.043701609112e+02 -1.817138598732e+00 0.0 
-1.817138598732e+00 -2.150851139644e+02 0.0 
0.0 0.0 -9.102266897869e+01 

TENSORS node_materi_strain_total float
3.230579385942e-03 -2.786828839568e-05 0.0 
-2.786828839568e-05 -1.252194088718e-03 0.0 
0.0 0.0 0.0 
-2.318488198660e-03 -2.183745248472e-05 0.0 
-2.183745248472e-05 1.507592473377e-02 0.0 
0.0 0.0 0.0 
-1.238381208328e-04 -6.170320563754e-05 0.0 
-6.170320563754e-05 5.959968620292e-03 0.0 
0.0 0.0 0.0 
-1.773668438703e-04 8.971447456603e-05 0.0 
8.971447456603e-05 1.745495987008e-02 0.0 
0.0 0.0 0.0 
2.620955827228e-03 -4.777626919037e-05 0.0 
-4.777626919037e-05 -8.244815678719e-04 0.0 
0.0 0.0 0.0 
1.964808551977e-03 -3.074592661670e-05 0.0 
-3.074592661670e-05 -2.051921272000e-04 0.0 
0.0 0.0 0.0 
1.238181787506e-03 -3.920887953088e-05 0.0 
-3.920887953088e-05 3.699866026986e-04 0.0 
0.0 0.0 0.0 
4.935168240544e-04 -6.132032434376e-05 0.0 
-6.132032434376e-05 1.230339534539e-03 0.0 
0.0 0.0 0.0 
-2.153555841313e-04 -9.458346233857e-05 0.0 
-9.458346233857e-05 1.973904399118e-03 0.0 
0.0 0.0 0.0 
-7.415249570528e-04 -1.070947224896e-04 0.0 
-1.070947224896e-04 2.500917852714e-03 0.0 
0.0 0.0 0.0 
-1.125653282191e-03 -1.171610865107e-04 0.0 
-1.171610865107e-04 2.933859647405e-03 0.0 
0.0 0.0 0.0 
-1.387353508094e-03 -1.281866207748e-04 0.0 
-1.281866207748e-04 3.284556278997e-03 0.0 
0.0 0.0 0.0 
-1.537324596180e-03 -1.322383088923e-04 0.0 
-1.322383088923e-04 3.574294928638e-03 0.0 
0.0 0.0 0.0 
-1.603960115386e-03 -1.278072247212e-04 0.0 
-1.278072247212e-04 3.824283538846e-03 0.0 
0.0 0.0 0.0 
-1.597260109939e-03 -1.096045494512e-04 0.0 
-1.096045494512e-04 4.048362107419e-03 0.0 
0.0 0.0 0.0 
-1.547491682310e-03 -7.841964699812e-05 0.0 
-7.841964699812e-05 4.267062828076e-03 0.0 
0.0 0.0 0.0 
-1.460397688073e-03 -8.445296908352e-05 0.0 
-8.445296908352e-05 4.476222339678e-03 0.0 
0.0 0.0 0.0 
-1.334034247732e-03 -9.454741297981e-05 0.0 
-9.454741297981e-05 4.682369725402e-03 0.0 
0.0 0.0 0.0 
-1.184147467242e-03 -8.132892084108e-05 0.0 
-8.132892084108e-05 4.915649296089e-03 0.0 
0.0 0.0 0.0 
-1.015544158006e-03 -6.989747351251e-05 0.0 
-6.989747351251e-05 5.151309487123e-03 0.0 
0.0 0.0 0.0 
-8.213414166728e-04 -5.945476311755e-05 0.0 
-5.945476311755e-05 5.391148338806e-03 0.0 
0.0 0.0 0.0 
-5.941172589193e-04 -5.393739326915e-05 0.0 
-5.393739326915e-05 5.627367764638e-03 0.0 
0.0 0.0 0.0 
-3.504141136412e-04 -4.930712754287e-05 0.0 
-4.930712754287e-05 5.837531840127e-03 0.0 
0.0 0.0 0.0 
-1.304969976432e-04 2.708719123429e-04 0.0 
2.708719123429e-04 1.743785630788e-02 0.0 
0.0 0.0 0.0 
-1.397531657119e-04 4.959109190739e-04 0.0 
4.959109190739e-04 1.740864988908e-02 0.0 
0.0 0.0 0.0 
-1.421483534585e-04 7.296369193370e-04 0.0 
7.296369193370e-04 1.738965931184e-02 0.0 
0.0 0.0 0.0 
-1.375567467262e-04 9.990446833232e-04 0.0 
9.990446833232e-04 1.734084625980e-02 0.0 
0.0 0.0 0.0 
-1.741585351066e-04 1.249313228511e-03 0.0 
1.249313228511e-03 1.728254494735e-02 0.0 
0.0 0.0 0.0 
-1.630914049680e-04 1.547945911502e-03 0.0 
1.547945911502e-03 1.721037478516e-02 0.0 
0.0 0.0 0.0 
-1.888709149442e-04 1.867781977732e-03 0.0 
1.867781977732e-03 1.709422335137e-02 0.0 
0.0 0.0 0.0 
-1.907963713626e-04 2.213177660508e-03 0.0 
2.213177660508e-03 1.693915036560e-02 0.0 
0.0 0.0 0.0 
-2.008749048822e-04 2.556749077538e-03 0.0 
2.556749077538e-03 1.676325174798e-02 0.0 
0.0 0.0 0.0 
-1.807758613855e-04 2.934775453221e-03 0.0 
2.934775453221e-03 1.652649584814e-02 0.0 
0.0 0.0 0.0 
-2.334783209017e-04 3.299392211483e-03 0.0 
3.299392211483e-03 1.626255268880e-02 0.0 
0.0 0.0 0.0 
-2.111352049269e-04 3.709713293605e-03 0.0 
3.709713293605e-03 1.592691639838e-02 0.0 
0.0 0.0 0.0 
-2.241729162931e-04 4.119610689614e-03 0.0 
4.119610689614e-03 1.551229370786e-02 0.0 
0.0 0.0 0.0 
-2.000917144406e-04 4.509519838502e-03 0.0 
4.509519838502e-03 1.504989109101e-02 0.0 
0.0 0.0 0.0 
-2.166631845617e-04 4.884315302378e-03 0.0 
4.884315302378e-03 1.453012142192e-02 0.0 
0.0 0.0 0.0 
-1.858680041944e-04 5.223676513221e-03 0.0 
5.223676513221e-03 1.393044913529e-02 0.0 
0.0 0.0 0.0 
-1.964521451283e-04 5.552429766134e-03 0.0 
5.552429766134e-03 1.328421522254e-02 0.0 
0.0 0.0 0.0 
-1.664870135242e-04 5.865025162226e-03 0.0 
5.865025162226e-03 1.256385483401e-02 0.0 
0.0 0.0 0.0 
-8.007171416731e-05 6.064846550236e-03 0.0 
6.064846550236e-03 1.182443292995e-02 0.0 
0.0 0.0 0.0 
5.205019939725e-05 6.050139506363e-03 0.0 
6.050139506363e-03 1.118307864950e-02 0.0 
0.0 0.0 0.0 
1.015784448618e-04 5.908605910110e-03 0.0 
5.908605910110e-03 1.063866160936e-02 0.0 
0.0 0.0 0.0 
1.253477562414e-04 5.695578550873e-03 0.0 
5.695578550873e-03 1.015085672932e-02 0.0 
0.0 0.0 0.0 
1.257437993985e-04 5.487450571949e-03 0.0 
5.487450571949e-03 9.656154334067e-03 0.0 
0.0 0.0 0.0 
1.347405060437e-04 5.244510263587e-03 0.0 
5.244510263587e-03 9.143172616702e-03 0.0 
0.0 0.0 0.0 
1.266182298261e-04 5.007056115806e-03 0.0 
5.007056115806e-03 8.674658799376e-03 0.0 
0.0 0.0 0.0 
1.511130563465e-04 4.772661166583e-03 0.0 
4.772661166583e-03 8.171638658298e-03 0.0 
0.0 0.0 0.0 
1.510570752323e-04 4.478725493812e-03 0.0 
4.478725493812e-03 7.652763984193e-03 0.0 
0.0 0.0 0.0 
1.849406922786e-04 4.163280505171e-03 0.0 
4.163280505171e-03 7.178994147199e-03 0.0 
0.0 0.0 0.0 
1.875950957226e-04 3.814360734177e-03 0.0 
3.814360734177e-03 6.722929447267e-03 0.0 
0.0 0.0 0.0 
1.764461437700e-04 3.456929138057e-03 0.0 
3.456929138057e-03 6.330996911151e-03 0.0 
0.0 0.0 0.0 
2.095562432693e-04 3.065744021312e-03 0.0 
3.065744021312e-03 5.898449226642e-03 0.0 
0.0 0.0 0.0 
2.488538646220e-04 2.651932707883e-03 0.0 
2.651932707883e-03 5.485986673724e-03 0.0 
0.0 0.0 0.0 
2.463107834490e-04 2.184931581265e-03 0.0 
2.184931581265e-03 5.143279323117e-03 0.0 
0.0 0.0 0.0 
2.389466160456e-04 1.755727649602e-03 0.0 
1.755727649602e-03 4.889387524409e-03 0.0 
0.0 0.0 0.0 
2.442258850670e-04 1.332691405970e-03 0.0 
1.332691405970e-03 4.625444486391e-03 0.0 
0.0 0.0 0.0 
2.074281163135e-04 9.005951115060e-04 0.0 
9.005951115060e-04 4.417468033990e-03 0.0 
0.0 0.0 0.0 
2.258045120169e-04 5.024185496764e-04 0.0 
5.024185496764e-04 4.293957608166e-03 0.0 
0.0 0.0 0.0 
1.825185400908e-04 1.161068506990e-04 0.0 
1.161068506990e-04 4.240635437774e-03 0.0 
0.0 0.0 0.0 
1.754009765518e-04 -2.047355830831e-04 0.0 
-2.047355830831e-04 4.293629091200e-03 0.0 
0.0 0.0 0.0 
1.183318779328e-04 -4.641430649181e-04 0.0 
-4.641430649181e-04 4.430975485083e-03 0.0 
0.0 0.0 0.0 
7.491527508881e-05 -6.378846561110e-04 0.0 
-6.378846561110e-04 4.642715196257e-03 0.0 
0.0 0.0 0.0 
3.899848470697e-05 -7.362150434096e-04 0.0 
-7.362150434096e-04 4.895358958381e-03 0.0 
0.0 0.0 0.0 
8.513789400514e-06 -7.775056741496e-04 0.0 
-7.775056741496e-04 5.099814808671e-03 0.0 
0.0 0.0 0.0 
-2.895530264052e-05 -7.589891813569e-04 0.0 
-7.589891813569e-04 5.271530870184e-03 0.0 
0.0 0.0 0.0 
-4.333830765120e-05 -6.943952270358e-04 0.0 
-6.943952270358e-04 5.507629530052e-03 0.0 
0.0 0.0 0.0 
-6.641549648382e-05 -6.018037510302e-04 0.0 
-6.018037510302e-04 5.644507868567e-03 0.0 
0.0 0.0 0.0 
-6.864369027644e-05 -4.910828220119e-04 0.0 
-4.910828220119e-04 5.777389526589e-03 0.0 
0.0 0.0 0.0 
-8.000825489459e-05 -3.352683762021e-04 0.0 
-3.352683762021e-04 5.883184177607e-03 0.0 
0.0 0.0 0.0 
-8.887972109828e-05 -1.938845108527e-04 0.0 
-1.938845108527e-04 5.937200932270e-03 0.0 
0.0 0.0 0.0 
-2.277554345215e-03 -1.406744539956e-05 0.0 
-1.406744539956e-05 1.531206372955e-02 0.0 
0.0 0.0 0.0 
-2.227616710259e-03 -3.629310806732e-06 0.0 
-3.629310806732e-06 1.570685853345e-02 0.0 
0.0 0.0 0.0 
-2.135215426103e-03 5.306337887251e-06 0.0 
5.306337887251e-06 1.606395043562e-02 0.0 
0.0 0.0 0.0 
-1.995939601505e-03 1.587441418977e-05 0.0 
1.587441418977e-05 1.637979421466e-02 0.0 
0.0 0.0 0.0 
-1.804614910229e-03 2.744883003047e-05 0.0 
2.744883003047e-05 1.666228662258e-02 0.0 
0.0 0.0 0.0 
-1.562218706271e-03 3.927062239207e-05 0.0 
3.927062239207e-05 1.690438167219e-02 0.0 
0.0 0.0 0.0 
-1.263790267505e-03 4.828501133655e-05 0.0 
4.828501133655e-05 1.710314686544e-02 0.0 
0.0 0.0 0.0 
-8.972939740915e-04 6.379767320332e-05 0.0 
6.379767320332e-05 1.726403394012e-02 0.0 
0.0 0.0 0.0 
-5.187654775801e-04 6.935675136246e-05 0.0 
6.935675136246e-05 1.738510719455e-02 0.0 
0.0 0.0 0.0 
2.753138337378e-04 7.133273716950e-03 0.0 
7.133273716950e-03 -4.082908236124e-03 0.0 
0.0 0.0 0.0 
-4.787694651104e-03 2.901601433912e-03 0.0 
2.901601433912e-03 1.520865877417e-02 0.0 
0.0 0.0 0.0 
-2.967888097912e-03 1.088420137264e-02 0.0 
1.088420137264e-02 2.936808652013e-03 0.0 
0.0 0.0 0.0 
-2.156853693067e-03 8.319909262221e-03 0.0 
8.319909262221e-03 3.583011797315e-03 0.0 
0.0 0.0 0.0 
-1.696458874993e-03 7.073270422453e-03 0.0 
7.073270422453e-03 4.231189067942e-03 0.0 
0.0 0.0 0.0 
-1.411040178637e-03 5.432954167742e-03 0.0 
5.432954167742e-03 5.097174456875e-03 0.0 
0.0 0.0 0.0 
-1.581299309203e-03 5.165798257657e-03 0.0 
5.165798257657e-03 6.446633707029e-03 0.0 
0.0 0.0 0.0 
-1.758504652595e-03 4.913444855480e-03 0.0 
4.913444855480e-03 7.899857170562e-03 0.0 
0.0 0.0 0.0 
-1.967070276146e-03 4.871674091957e-03 0.0 
4.871674091957e-03 9.421346714213e-03 0.0 
0.0 0.0 0.0 
-2.399338382086e-03 5.056210868210e-03 0.0 
5.056210868210e-03 1.116410050119e-02 0.0 
0.0 0.0 0.0 
-3.431320250143e-03 5.352299475661e-03 0.0 
5.352299475661e-03 1.334570732595e-02 0.0 
0.0 0.0 0.0 
-2.313450731491e-03 2.183824423360e-05 0.0 
2.183824423360e-05 1.507515966351e-02 0.0 
0.0 0.0 0.0 
-2.296533508207e-03 3.318804668731e-05 0.0 
3.318804668731e-05 1.506224326000e-02 0.0 
0.0 0.0 0.0 
-2.319940143140e-03 2.630626566904e-05 0.0 
2.630626566904e-05 1.506507356491e-02 0.0 
0.0 0.0 0.0 
-2.354141185582e-03 3.519303156377e-05 0.0 
3.519303156377e-05 1.506399083353e-02 0.0 
0.0 0.0 0.0 
-2.384113374930e-03 6.383187400098e-05 0.0 
6.383187400098e-05 1.511567885180e-02 0.0 
0.0 0.0 0.0 
-2.417831332215e-03 6.983797118813e-05 0.0 
6.983797118813e-05 1.508102582389e-02 0.0 
0.0 0.0 0.0 
-2.466686344978e-03 8.973227237832e-05 0.0 
8.973227237832e-05 1.507110925741e-02 0.0 
0.0 0.0 0.0 
-2.500178674355e-03 1.210836184333e-04 0.0 
1.210836184333e-04 1.507141394830e-02 0.0 
0.0 0.0 0.0 
-2.582686654736e-03 1.711485526868e-04 0.0 
1.711485526868e-04 1.509718776923e-02 0.0 
0.0 0.0 0.0 
-2.682685009007e-03 2.269610953932e-04 0.0 
2.269610953932e-04 1.509642256274e-02 0.0 
0.0 0.0 0.0 
-2.802861332770e-03 3.276431176157e-04 0.0 
3.276431176157e-04 1.509268474893e-02 0.0 
0.0 0.0 0.0 
-3.019277876893e-03 4.772483553326e-04 0.0 
4.772483553326e-04 1.510397691964e-02 0.0 
0.0 0.0 0.0 
-3.387620991200e-03 7.253253366197e-04 0.0 
7.253253366197e-04 1.517709808016e-02 0.0 
0.0 0.0 0.0 
-4.209878081557e-03 1.397481493438e-03 0.0 
1.397481493438e-03 1.550648923952e-02 0.0 
0.0 0.0 0.0 
-4.787467628150e-04 1.320875955983e-03 0.0 
1.320875955983e-03 -4.610442893642e-03 0.0 
0.0 0.0 0.0 
-1.886766557878e-03 5.877803501668e-05 0.0 
5.877803501668e-05 -4.204496036230e-03 0.0 
0.0 0.0 0.0 
-2.390164955713e-03 -1.207979996773e-04 0.0 
-1.207979996773e-04 -3.807244713674e-03 0.0 
0.0 0.0 0.0 
-2.015455540752e-03 -9.270604504064e-04 0.0 
-9.270604504064e-04 -3.427813961295e-03 0.0 
0.0 0.0 0.0 
-7.745760715876e-04 -2.434320876417e-03 0.0 
-2.434320876417e-03 -2.307744514253e-03 0.0 
0.0 0.0 0.0 
4.199329597307e-04 -1.671069889033e-03 0.0 
-1.671069889033e-03 -6.770474053364e-04 0.0 
0.0 0.0 0.0 
1.686638749826e-03 -1.070029082156e-04 0.0 
-1.070029082156e-04 -6.876223154832e-04 0.0 
0.0 0.0 0.0 
1.786573978548e-03 9.974074832783e-07 0.0 
9.974074832783e-07 -5.933350438685e-04 0.0 
0.0 0.0 0.0 
1.691562377117e-03 -5.354746454060e-05 0.0 
-5.354746454060e-05 -5.450764542494e-04 0.0 
0.0 0.0 0.0 
2.097713734725e-03 -1.537332435961e-04 0.0 
-1.537332435961e-04 -7.059280464492e-04 0.0 
0.0 0.0 0.0 
1.804209786445e-03 -1.729284633790e-04 0.0 
-1.729284633790e-04 -6.135222543810e-04 0.0 
0.0 0.0 0.0 
1.956575919044e-03 -1.721754489769e-04 0.0 
-1.721754489769e-04 -6.808689673842e-04 0.0 
0.0 0.0 0.0 
2.277063322440e-03 -1.544614985845e-04 0.0 
-1.544614985845e-04 -8.299680722488e-04 0.0 
0.0 0.0 0.0 
2.591346903156e-03 -1.496063890714e-04 0.0 
-1.496063890714e-04 -9.687681681451e-04 0.0 
0.0 0.0 0.0 
2.821339103790e-03 -1.201709304112e-04 0.0 
-1.201709304112e-04 -1.063527271192e-03 0.0 
0.0 0.0 0.0 
2.993077410211e-03 -9.307659675540e-05 0.0 
-9.307659675540e-05 -1.133119601236e-03 0.0 
0.0 0.0 0.0 
3.107324912076e-03 -6.870605964752e-05 0.0 
-6.870605964752e-05 -1.188643781400e-03 0.0 
0.0 0.0 0.0 
3.201388152043e-03 -2.185160090029e-05 0.0 
-2.185160090029e-05 -1.241501462660e-03 0.0 
0.0 0.0 0.0 
3.299152422038e-03 3.427536466125e-05 0.0 
3.427536466125e-05 -1.274001422168e-03 0.0 
0.0 0.0 0.0 
-1.378419480689e-03 1.317922005090e-02 0.0 
1.317922005090e-02 6.979010791384e-04 0.0 
0.0 0.0 0.0 
-2.567016937159e-03 9.395571216203e-03 0.0 
9.395571216203e-03 3.353676414347e-03 0.0 
0.0 0.0 0.0 
-1.851708952599e-03 7.519564357672e-03 0.0 
7.519564357672e-03 3.850308981151e-03 0.0 
0.0 0.0 0.0 
-1.558348959685e-03 6.395808094593e-03 0.0 
6.395808094593e-03 4.640983714815e-03 0.0 
0.0 0.0 0.0 
-1.618655452414e-03 5.535299161520e-03 0.0 
5.535299161520e-03 5.810702705889e-03 0.0 
0.0 0.0 0.0 
-1.694519585074e-03 5.170868639940e-03 0.0 
5.170868639940e-03 7.173040840869e-03 0.0 
0.0 0.0 0.0 
-1.825322745663e-03 4.860440959623e-03 0.0 
4.860440959623e-03 8.628555054098e-03 0.0 
0.0 0.0 0.0 
-2.132488826131e-03 4.899660708998e-03 0.0 
4.899660708998e-03 1.025628619005e-02 0.0 
0.0 0.0 0.0 
-2.790934402618e-03 5.239727589364e-03 0.0 
5.239727589364e-03 1.216890188143e-02 0.0 
0.0 0.0 0.0 
-4.565175771653e-03 4.945357537407e-03 0.0 
4.945357537407e-03 1.475524687548e-02 0.0 
0.0 0.0 0.0 
-1.088815107457e-03 9.476133202433e-03 0.0 
9.476133202433e-03 1.933594862216e-03 0.0 
0.0 0.0 0.0 
7.288963123078e-04 1.887023833857e-03 0.0 
1.887023833857e-03 4.579910707457e-03 0.0 
0.0 0.0 0.0 
1.369151134631e-03 -2.589677413535e-04 0.0 
-2.589677413535e-04 -2.839556686944e-04 0.0 
0.0 0.0 0.0 
5.749005688057e-04 -2.632625322374e-03 0.0 
-2.632625322374e-03 -4.156604224175e-03 0.0 
0.0 0.0 0.0 
5.170751282791e-04 -9.163514908192e-05 0.0 
-9.163514908192e-05 3.903857031493e-03 0.0 
0.0 0.0 0.0 
-9.282282742439e-04 6.318225457737e-03 0.0 
6.318225457737e-03 4.164987611599e-03 0.0 
0.0 0.0 0.0 
-1.591833988796e-03 -2.639444226087e-04 0.0 
-2.639444226087e-04 3.919769784077e-03 0.0 
0.0 0.0 0.0 
6.476393677073e-04 3.547722110733e-03 0.0 
3.547722110733e-03 6.040093196527e-03 0.0 
0.0 0.0 0.0 
-1.461197183780e-03 5.242140083593e-03 0.0 
5.242140083593e-03 7.000808513770e-03 0.0 
0.0 0.0 0.0 
4.487911782884e-04 4.842721163753e-03 0.0 
4.842721163753e-03 8.017742628661e-03 0.0 
0.0 0.0 0.0 
-2.209442797742e-03 5.058065960642e-03 0.0 
5.058065960642e-03 1.031165326412e-02 0.0 
0.0 0.0 0.0 
6.383892979367e-05 -7.774283542330e-04 0.0 
-7.774283542330e-04 4.827939511287e-03 0.0 
0.0 0.0 0.0 
2.001892315885e-03 -2.566861818734e-04 0.0 
-2.566861818734e-04 -6.104577107263e-04 0.0 
0.0 0.0 0.0 
3.204025577476e-04 5.840060224490e-03 0.0 
5.840060224490e-03 1.002344351989e-02 0.0 
0.0 0.0 0.0 
-4.476252302202e-03 3.786103932622e-03 0.0 
3.786103932622e-03 1.437088020506e-02 0.0 
0.0 0.0 0.0 
-9.617747061693e-04 -1.880540664880e-04 0.0 
-1.880540664880e-04 2.731295887636e-03 0.0 
0.0 0.0 0.0 
-1.390590960731e-03 -2.451331370023e-04 0.0 
-2.451331370023e-04 4.501346345069e-03 0.0 
0.0 0.0 0.0 
-3.583355855959e-04 5.820170042966e-03 0.0 
5.820170042966e-03 1.215890045197e-02 0.0 
0.0 0.0 0.0 
-6.005266187292e-04 4.578888934834e-03 0.0 
4.578888934834e-03 1.484120580328e-02 0.0 
0.0 0.0 0.0 
-4.825584694937e-04 1.370257441964e-03 0.0 
1.370257441964e-03 1.722553886742e-02 0.0 
0.0 0.0 0.0 
-6.352411302140e-04 2.318143251716e-03 0.0 
2.318143251716e-03 1.686714559351e-02 0.0 
0.0 0.0 0.0 
-6.264265579111e-04 3.438371699899e-03 0.0 
3.438371699899e-03 1.612146576360e-02 0.0 
0.0 0.0 0.0 
-3.809841859248e-03 1.256793111869e-03 0.0 
1.256793111869e-03 1.541746150987e-02 0.0 
0.0 0.0 0.0 
-2.764773352668e-03 2.997296109515e-04 0.0 
2.997296109515e-04 1.531971498041e-02 0.0 
0.0 0.0 0.0 
-2.499913914871e-03 1.455808433942e-04 0.0 
1.455808433942e-04 1.532671528534e-02 0.0 
0.0 0.0 0.0 
-1.909235065335e-03 8.352969481873e-05 0.0 
8.352969481873e-05 1.653282150135e-02 0.0 
0.0 0.0 0.0 
-1.532279865049e-04 -6.665307190382e-04 0.0 
-6.665307190382e-04 5.441250021207e-03 0.0 
0.0 0.0 0.0 
1.499344873116e-03 1.355541557879e-03 0.0 
1.355541557879e-03 -5.981063630361e-03 0.0 
0.0 0.0 0.0 
2.588786914420e-03 -1.320405454805e-04 0.0 
-1.320405454805e-04 -8.358079111989e-04 0.0 
0.0 0.0 0.0 
-9.075255252345e-04 -1.675855789345e-04 0.0 
-1.675855789345e-04 5.237339395577e-03 0.0 
0.0 0.0 0.0 
-2.336040486664e-03 5.169791560034e-05 0.0 
5.169791560034e-05 1.524980648876e-02 0.0 
0.0 0.0 0.0 
8.545547691787e-04 -5.931109005187e-05 0.0 
-5.931109005187e-05 8.085118621610e-04 0.0 
0.0 0.0 0.0 
-6.099002559948e-04 5.184884940162e-03 0.0 
5.184884940162e-03 1.365311628783e-02 0.0 
0.0 0.0 0.0 
4.995864323018e-04 4.251948264508e-03 0.0 
4.251948264508e-03 7.069762241103e-03 0.0 
0.0 0.0 0.0 
3.930557985886e-04 5.386773007772e-03 0.0 
5.386773007772e-03 9.004845882027e-03 0.0 
0.0 0.0 0.0 
7.638347292061e-04 2.807259886894e-03 0.0 
2.807259886894e-03 5.216474046464e-03 0.0 
0.0 0.0 0.0 
6.495156253316e-04 1.048247935069e-03 0.0 
1.048247935069e-03 4.116614883623e-03 0.0 
0.0 0.0 0.0 
2.418561424805e-04 -1.744351603335e-03 0.0 
-1.744351603335e-03 -2.313896939239e-04 0.0 
0.0 0.0 0.0 
-3.089161946747e-03 5.591575215076e-04 0.0 
5.591575215076e-04 1.531765694984e-02 0.0 
0.0 0.0 0.0 
3.124741469717e-04 -6.036309003866e-04 0.0 
-6.036309003866e-04 4.192133265429e-03 0.0 
0.0 0.0 0.0 
-1.434636031923e-03 1.385676396366e-04 0.0 
1.385676396366e-04 1.700484800232e-02 0.0 
0.0 0.0 0.0 
1.404997111403e-03 -2.639579734320e-04 0.0 
-2.639579734320e-04 -3.431769151466e-04 0.0 
0.0 0.0 0.0 
-1.462773706741e-03 -2.496292238704e-04 0.0 
-2.496292238704e-04 3.415203901542e-03 0.0 
0.0 0.0 0.0 
-3.778273057260e-04 8.463088379523e-04 0.0 
8.463088379523e-04 1.734424109686e-02 0.0 
0.0 0.0 0.0 
-1.122000079462e-03 5.566151368923e-03 0.0 
5.566151368923e-03 5.410770654172e-03 0.0 
0.0 0.0 0.0 
-9.488198710784e-04 7.560567279210e-03 0.0 
7.560567279210e-03 3.050583066057e-03 0.0 
0.0 0.0 0.0 
-1.717541518991e-03 5.072265205716e-03 0.0 
5.072265205716e-03 8.534089567252e-03 0.0 
0.0 0.0 0.0 
-3.147166218156e-03 5.090427003569e-03 0.0 
5.090427003569e-03 1.237958890237e-02 0.0 
0.0 0.0 0.0 
-3.449408497591e-04 1.265761577406e-02 0.0 
1.265761577406e-02 -6.787318730515e-04 0.0 
0.0 0.0 0.0 
-2.182312619912e-03 4.174507650248e-05 0.0 
4.174507650248e-05 1.592181532130e-02 0.0 
0.0 0.0 0.0 
-1.984095367267e-04 -4.171982636429e-04 0.0 
-4.171982636429e-04 5.771256855925e-03 0.0 
0.0 0.0 0.0 
2.829997302856e-03 -4.238063797245e-05 0.0 
-4.238063797245e-05 -9.557628404162e-04 0.0 
0.0 0.0 0.0 
-7.165982556359e-04 2.087368870948e-04 0.0 
2.087368870948e-04 1.731724404673e-02 0.0 
0.0 0.0 0.0 
-4.151902345130e-03 2.703185429684e-03 0.0 
2.703185429684e-03 1.464520882276e-02 0.0 
0.0 0.0 0.0 
-3.860892639672e-03 3.195701309658e-03 0.0 
3.195701309658e-03 1.385908610880e-02 0.0 
0.0 0.0 0.0 
-3.885045937604e-03 2.780217317781e-03 0.0 
2.780217317781e-03 1.460556753466e-02 0.0 
0.0 0.0 0.0 
-3.511793640621e-03 3.487798038673e-03 0.0 
3.487798038673e-03 1.376986371006e-02 0.0 
0.0 0.0 0.0 
-3.485701320422e-03 3.186105243659e-03 0.0 
3.186105243659e-03 1.442572282549e-02 0.0 
0.0 0.0 0.0 
-3.132686584604e-03 3.706173381564e-03 0.0 
3.706173381564e-03 1.370528451483e-02 0.0 
0.0 0.0 0.0 
-3.096790813897e-03 3.947408190546e-03 0.0 
3.947408190546e-03 1.297067421392e-02 0.0 
0.0 0.0 0.0 
-2.739373289699e-03 4.114448653754e-03 0.0 
4.114448653754e-03 1.296594754408e-02 0.0 
0.0 0.0 0.0 
-2.661988526363e-03 4.309521227081e-03 0.0 
4.309521227081e-03 1.218247519530e-02 0.0 
0.0 0.0 0.0 
-3.133845964073e-03 3.459204197973e-03 0.0 
3.459204197973e-03 1.434901794893e-02 0.0 
0.0 0.0 0.0 
-2.326370177321e-03 4.449140501399e-03 0.0 
4.449140501399e-03 1.221935892412e-02 0.0 
0.0 0.0 0.0 
-2.224705017360e-03 4.613660729622e-03 0.0 
4.613660729622e-03 1.140606759748e-02 0.0 
0.0 0.0 0.0 
-1.905432160367e-03 4.738114633453e-03 0.0 
4.738114633453e-03 1.146656011057e-02 0.0 
0.0 0.0 0.0 
-1.784210524987e-03 4.880134305542e-03 0.0 
4.880134305542e-03 1.062926791942e-02 0.0 
0.0 0.0 0.0 
-2.078808654884e-03 4.770010963266e-03 0.0 
4.770010963266e-03 1.054773891162e-02 0.0 
0.0 0.0 0.0 
-1.616200879530e-03 5.017713744779e-03 0.0 
5.017713744779e-03 9.740672336415e-03 0.0 
0.0 0.0 0.0 
-1.876601779734e-03 4.901604678592e-03 0.0 
4.901604678592e-03 9.638640160981e-03 0.0 
0.0 0.0 0.0 
-1.384303482171e-03 5.122669584246e-03 0.0 
5.122669584246e-03 8.792653546369e-03 0.0 
0.0 0.0 0.0 
-1.157440496159e-03 5.210019374342e-03 0.0 
5.210019374342e-03 8.938072900963e-03 0.0 
0.0 0.0 0.0 
-9.001434174286e-04 5.287937405809e-03 0.0 
5.287937405809e-03 7.953127325126e-03 0.0 
0.0 0.0 0.0 
-1.081099825530e-03 5.188563316387e-03 0.0 
5.188563316387e-03 7.785902312676e-03 0.0 
0.0 0.0 0.0 
-5.817542741059e-04 5.328476997572e-03 0.0 
5.328476997572e-03 6.922747512007e-03 0.0 
0.0 0.0 0.0 
-7.321907099196e-04 5.231875361909e-03 0.0 
5.231875361909e-03 6.745681835063e-03 0.0 
0.0 0.0 0.0 
-2.178673037805e-04 5.323705858740e-03 0.0 
5.323705858740e-03 5.876669693393e-03 0.0 
0.0 0.0 0.0 
-3.505987624332e-04 5.235257224811e-03 0.0 
5.235257224811e-03 5.688292568416e-03 0.0 
0.0 0.0 0.0 
1.837414844140e-04 5.253663079709e-03 0.0 
5.253663079709e-03 4.822026396004e-03 0.0 
0.0 0.0 0.0 
3.969891349598e-04 5.374673959988e-03 0.0 
5.374673959988e-03 4.980319817798e-03 0.0 
0.0 0.0 0.0 
9.523899274378e-04 5.310076782320e-03 0.0 
5.310076782320e-03 3.856451916216e-03 0.0 
0.0 0.0 0.0 
7.480741227762e-04 5.244558426843e-03 0.0 
5.244558426843e-03 3.693728242936e-03 0.0 
0.0 0.0 0.0 
1.746367301101e-03 5.314283733249e-03 0.0 
5.314283733249e-03 2.549245276449e-03 0.0 
0.0 0.0 0.0 
1.576349939848e-03 5.350811062076e-03 0.0 
5.350811062076e-03 2.348505823361e-03 0.0 
0.0 0.0 0.0 
2.699483484313e-03 5.259978768020e-03 0.0 
5.259978768020e-03 1.086516572912e-03 0.0 
0.0 0.0 0.0 
3.064350458804e-03 5.269053556638e-03 0.0 
5.269053556638e-03 1.147730056865e-03 0.0 
0.0 0.0 0.0 
4.082808042984e-03 5.049529143409e-03 0.0 
5.049529143409e-03 -3.672136638067e-04 0.0 
0.0 0.0 0.0 
3.699418176428e-03 5.104832499842e-03 0.0 
5.104832499842e-03 -4.099198279738e-04 0.0 
0.0 0.0 0.0 
5.175494357318e-03 4.763178518467e-03 0.0 
4.763178518467e-03 -1.917203181705e-03 0.0 
0.0 0.0 0.0 
4.764915260513e-03 4.914875986235e-03 0.0 
4.914875986235e-03 -1.902783253811e-03 0.0 
0.0 0.0 0.0 
6.348351004289e-03 4.418910117391e-03 0.0 
4.418910117391e-03 -3.440564939985e-03 0.0 
0.0 0.0 0.0 
5.934738498955e-03 4.642932065134e-03 0.0 
4.642932065134e-03 -3.347814631715e-03 0.0 
0.0 0.0 0.0 
7.505138438159e-03 3.901303688850e-03 0.0 
3.901303688850e-03 -4.837050406470e-03 0.0 
0.0 0.0 0.0 
7.748704613019e-03 3.752069728788e-03 0.0 
3.752069728788e-03 -4.842338545547e-03 0.0 
0.0 0.0 0.0 
8.647081004232e-03 2.997764889242e-03 0.0 
2.997764889242e-03 -5.996622455598e-03 0.0 
0.0 0.0 0.0 
8.416820478664e-03 3.114392968789e-03 0.0 
3.114392968789e-03 -5.999317873266e-03 0.0 
0.0 0.0 0.0 
9.123794892305e-03 2.005145555004e-03 0.0 
2.005145555004e-03 -6.731985131099e-03 0.0 
0.0 0.0 0.0 
8.885067722630e-03 2.069863249129e-03 0.0 
2.069863249129e-03 -6.404940668551e-03 0.0 
0.0 0.0 0.0 
8.830726870618e-03 1.018562794173e-03 0.0 
1.018562794173e-03 -6.640788254692e-03 0.0 
0.0 0.0 0.0 
8.169912244528e-03 1.203507987978e-03 0.0 
1.203507987978e-03 -5.960224254104e-03 0.0 
0.0 0.0 0.0 
7.711417245030e-03 2.119211885367e-04 0.0 
2.119211885367e-04 -5.833771753340e-03 0.0 
0.0 0.0 0.0 
8.189855165255e-03 -1.015797200951e-04 0.0 
-1.015797200951e-04 -6.357617938188e-03 0.0 
0.0 0.0 0.0 
6.751821318688e-03 -7.543640500974e-04 0.0 
-7.543640500974e-04 -5.255140829166e-03 0.0 
0.0 0.0 0.0 
6.305758228346e-03 -4.147895143435e-04 0.0 
-4.147895143435e-04 -4.707859706951e-03 0.0 
0.0 0.0 0.0 
5.231717657850e-03 -1.212354076920e-03 0.0 
-1.212354076920e-03 -4.032211131479e-03 0.0 
0.0 0.0 0.0 
5.536756207012e-03 -1.603007033482e-03 0.0 
-1.603007033482e-03 -4.471308507642e-03 0.0 
0.0 0.0 0.0 
4.089336598855e-03 -1.863777568335e-03 0.0 
-1.863777568335e-03 -3.286273316589e-03 0.0 
0.0 0.0 0.0 
3.897209977605e-03 -1.524836610360e-03 0.0 
-1.524836610360e-03 -2.888732245362e-03 0.0 
0.0 0.0 0.0 
2.970101006750e-03 -2.023355689420e-03 0.0 
-2.023355689420e-03 -2.276954475298e-03 0.0 
0.0 0.0 0.0 
3.086511128031e-03 -2.316334844679e-03 0.0 
-2.316334844679e-03 -2.593467462964e-03 0.0 
0.0 0.0 0.0 
2.298226212724e-03 -2.388242683241e-03 0.0 
-2.388242683241e-03 -1.704386716864e-03 0.0 
0.0 0.0 0.0 
2.273943848484e-03 -2.184736558654e-03 0.0 
-2.184736558654e-03 -1.498143145162e-03 0.0 
0.0 0.0 0.0 
1.791620555339e-03 -2.462671260758e-03 0.0 
-2.462671260758e-03 -9.963907214039e-04 0.0 
0.0 0.0 0.0 
1.768054303609e-03 -2.642757949305e-03 0.0 
-2.642757949305e-03 -1.122293041167e-03 0.0 
0.0 0.0 0.0 
1.302222281129e-03 -2.625571014332e-03 0.0 
-2.625571014332e-03 -4.553122958947e-04 0.0 
0.0 0.0 0.0 
1.304315976083e-03 -2.459940194343e-03 0.0 
-2.459940194343e-03 -2.947349341578e-04 0.0 
0.0 0.0 0.0 
8.434623936904e-04 -2.538062970932e-03 0.0 
-2.538062970932e-03 2.103755581996e-04 0.0 
0.0 0.0 0.0 
8.328662300393e-04 -2.383843673541e-03 0.0 
-2.383843673541e-03 4.216963109103e-04 0.0 
0.0 0.0 0.0 
8.247424120493e-04 -2.668535488463e-03 0.0 
-2.668535488463e-03 9.184261552016e-05 0.0 
0.0 0.0 0.0 
4.097644518976e-04 -2.517526847626e-03 0.0 
-2.517526847626e-03 7.050978364710e-04 0.0 
0.0 0.0 0.0 
3.897677480387e-04 -2.592291124695e-03 0.0 
-2.592291124695e-03 6.109753239671e-04 0.0 
0.0 0.0 0.0 
2.197545026726e-05 -2.400178393865e-03 0.0 
-2.400178393865e-03 1.163055097777e-03 0.0 
0.0 0.0 0.0 
4.494553628928e-03 5.072045465068e-03 0.0 
5.072045465068e-03 -3.263464014396e-04 0.0 
0.0 0.0 0.0 
2.156763603637e-05 -2.406147986325e-03 0.0 
-2.406147986325e-03 1.066058546785e-03 0.0 
0.0 0.0 0.0 
3.502446368331e-04 -2.593321356361e-03 0.0 
-2.593321356361e-03 5.634786481660e-04 0.0 
0.0 0.0 0.0 
-2.958405283608e-04 -2.197900138602e-03 0.0 
-2.197900138602e-03 1.553575142315e-03 0.0 
0.0 0.0 0.0 
-3.168964636460e-04 -2.182541596529e-03 0.0 
-2.182541596529e-03 1.698623979041e-03 0.0 
0.0 0.0 0.0 
-2.548985954257e-04 -2.136636435334e-03 0.0 
-2.136636435334e-03 1.428099210524e-03 0.0 
0.0 0.0 0.0 
-5.276854988133e-04 -1.932426508310e-03 0.0 
-1.932426508310e-03 1.856737336997e-03 0.0 
0.0 0.0 0.0 
-4.270068255451e-04 -1.816056964233e-03 0.0 
-1.816056964233e-03 1.685484151854e-03 0.0 
0.0 0.0 0.0 
4.452111812676e-03 5.182968357027e-03 0.0 
5.182968357027e-03 -1.939761162063e-03 0.0 
0.0 0.0 0.0 
-7.043214926844e-04 5.349638758844e-03 0.0 
5.349638758844e-03 8.137947883149e-03 0.0 
0.0 0.0 0.0 
-6.655387864394e-04 -1.625125716114e-03 0.0 
-1.625125716114e-03 2.062906134155e-03 0.0 
0.0 0.0 0.0 
-4.909195341323e-04 -1.468309615107e-03 0.0 
-1.468309615107e-03 1.828532854910e-03 0.0 
0.0 0.0 0.0 
-2.878342670454e-04 -1.627778817815e-03 0.0 
-1.627778817815e-03 1.502436995911e-03 0.0 
0.0 0.0 0.0 
-2.592683628654e-04 -1.247464086396e-03 0.0 
-1.247464086396e-03 1.559452907327e-03 0.0 
0.0 0.0 0.0 
-3.428812851707e-03 2.947888072390e-03 0.0 
2.947888072390e-03 1.493031783222e-02 0.0 
0.0 0.0 0.0 
-3.050849856004e-03 3.221343934837e-03 0.0 
3.221343934837e-03 1.489203643597e-02 0.0 
0.0 0.0 0.0 
-3.289101702437e-03 2.681463074444e-03 0.0 
2.681463074444e-03 1.539075537164e-02 0.0 
0.0 0.0 0.0 
-2.923508921406e-03 3.008515615579e-03 0.0 
3.008515615579e-03 1.536784583129e-02 0.0 
0.0 0.0 0.0 
-3.111523622234e-03 2.483589655786e-03 0.0 
2.483589655786e-03 1.576250194453e-02 0.0 
0.0 0.0 0.0 
-4.437947694778e-04 -1.119833324784e-03 0.0 
-1.119833324784e-03 1.855617057386e-03 0.0 
0.0 0.0 0.0 
-1.983738853531e-03 4.597966473057e-03 0.0 
4.597966473057e-03 1.225674930919e-02 0.0 
0.0 0.0 0.0 
-2.659982235559e-03 3.489460110193e-03 0.0 
3.489460110193e-03 1.486710558200e-02 0.0 
0.0 0.0 0.0 
-1.270196886786e-03 5.080733472561e-03 0.0 
5.080733472561e-03 7.658919942440e-03 0.0 
0.0 0.0 0.0 
6.498607647218e-04 5.247680468220e-03 0.0 
5.247680468220e-03 3.483989787377e-03 0.0 
0.0 0.0 0.0 
8.079985408121e-03 2.134399757096e-03 0.0 
2.134399757096e-03 -5.537514408355e-03 0.0 
0.0 0.0 0.0 
-7.844520117457e-04 -1.712091572682e-03 0.0 
-1.712091572682e-03 2.272210861037e-03 0.0 
0.0 0.0 0.0 
-8.932784551425e-04 -1.424072525226e-03 0.0 
-1.424072525226e-03 2.431520082837e-03 0.0 
0.0 0.0 0.0 
-1.013015227237e-03 -1.479134987303e-03 0.0 
-1.479134987303e-03 2.664088810003e-03 0.0 
0.0 0.0 0.0 
1.276811934245e-03 -2.282151983280e-03 0.0 
-2.282151983280e-03 -3.031861512204e-05 0.0 
0.0 0.0 0.0 
8.173135830305e-04 -2.203968857719e-03 0.0 
-2.203968857719e-03 7.223352700637e-04 0.0 
0.0 0.0 0.0 
1.240216989111e-03 -2.073405969698e-03 0.0 
-2.073405969698e-03 3.361611726191e-04 0.0 
0.0 0.0 0.0 
8.143414780281e-04 -1.984570478177e-03 0.0 
-1.984570478177e-03 1.098021041905e-03 0.0 
0.0 0.0 0.0 
1.206927145851e-03 -1.814941024578e-03 0.0 
-1.814941024578e-03 7.911428034948e-04 0.0 
0.0 0.0 0.0 
8.183775417305e-04 -1.722414950272e-03 0.0 
-1.722414950272e-03 1.528932698987e-03 0.0 
0.0 0.0 0.0 
4.516631575221e-04 -1.842749996113e-03 0.0 
-1.842749996113e-03 1.798097632887e-03 0.0 
0.0 0.0 0.0 
4.808996581124e-04 -1.588631961814e-03 0.0 
-1.588631961814e-03 2.197811604118e-03 0.0 
0.0 0.0 0.0 
1.422294275573e-04 -1.663196148419e-03 0.0 
-1.663196148419e-03 2.432980899123e-03 0.0 
0.0 0.0 0.0 
1.172829853302e-03 -1.518933953700e-03 0.0 
-1.518933953700e-03 1.299500451098e-03 0.0 
0.0 0.0 0.0 
1.593385418609e-03 -1.551496312324e-03 0.0 
-1.551496312324e-03 5.202121114763e-04 0.0 
0.0 0.0 0.0 
1.883501629581e-04 -1.426520060359e-03 0.0 
-1.426520060359e-03 2.806232421974e-03 0.0 
0.0 0.0 0.0 
-1.214224111551e-04 -1.461535276089e-03 0.0 
-1.461535276089e-03 3.008224564894e-03 0.0 
0.0 0.0 0.0 
-6.108615088881e-05 -1.249950609084e-03 0.0 
-1.249950609084e-03 3.361318996613e-03 0.0 
0.0 0.0 0.0 
-3.460964138802e-04 -1.252703522076e-03 0.0 
-1.252703522076e-03 3.528649019726e-03 0.0 
0.0 0.0 0.0 
-4.323053916447e-04 -1.438541291478e-03 0.0 
-1.438541291478e-03 3.218795466525e-03 0.0 
0.0 0.0 0.0 
-6.255631552258e-04 -1.204752786341e-03 0.0 
-1.204752786341e-03 3.693910759860e-03 0.0 
0.0 0.0 0.0 
-7.185596041177e-04 -1.366313441304e-03 0.0 
-1.366313441304e-03 3.415507256910e-03 0.0 
0.0 0.0 0.0 
7.195162702313e-03 1.328117326293e-03 0.0 
1.328117326293e-03 -4.871323546360e-03 0.0 
0.0 0.0 0.0 
6.900815841306e-03 2.170880462807e-03 0.0 
2.170880462807e-03 -4.122294101259e-03 0.0 
0.0 0.0 0.0 
6.082021621616e-03 1.443465585458e-03 0.0 
1.443465585458e-03 -3.410578627922e-03 0.0 
0.0 0.0 0.0 
5.660130549567e-03 2.164241355637e-03 0.0 
2.164241355637e-03 -2.396463309961e-03 0.0 
0.0 0.0 0.0 
4.982963316064e-03 1.538736452569e-03 0.0 
1.538736452569e-03 -1.763371012479e-03 0.0 
0.0 0.0 0.0 
4.526777436973e-03 2.139978337536e-03 0.0 
2.139978337536e-03 -7.156096318390e-04 0.0 
0.0 0.0 0.0 
4.041206763520e-03 1.636118081058e-03 0.0 
1.636118081058e-03 -2.914950121781e-04 0.0 
0.0 0.0 0.0 
4.381763664817e-03 1.026855066806e-03 0.0 
1.026855066806e-03 -1.198860641869e-03 0.0 
0.0 0.0 0.0 
-1.486317655577e-03 4.995223206187e-03 0.0 
4.995223206187e-03 1.070999124412e-02 0.0 
0.0 0.0 0.0 
8.881984971756e-03 2.016790369145e-03 0.0 
2.016790369145e-03 -6.778096998986e-03 0.0 
0.0 0.0 0.0 
7.914545220410e-03 3.326135383754e-03 0.0 
3.326135383754e-03 -5.901352474678e-03 0.0 
0.0 0.0 0.0 
8.310665451006e-03 2.119382724636e-03 0.0 
2.119382724636e-03 -6.658010225729e-03 0.0 
0.0 0.0 0.0 
7.346264588014e-03 3.654628703281e-03 0.0 
3.654628703281e-03 -5.824118095157e-03 0.0 
0.0 0.0 0.0 
7.614900083612e-03 2.363331193063e-03 0.0 
2.363331193063e-03 -6.547662940312e-03 0.0 
0.0 0.0 0.0 
6.797916710745e-03 4.137317828156e-03 0.0 
4.137317828156e-03 -5.828099192786e-03 0.0 
0.0 0.0 0.0 
6.942679948524e-03 2.740666133157e-03 0.0 
2.740666133157e-03 -6.596859789041e-03 0.0 
0.0 0.0 0.0 
7.418522628422e-03 7.441428280322e-04 0.0 
7.441428280322e-04 -6.866414263902e-03 0.0 
0.0 0.0 0.0 
6.598909261249e-03 9.630962375889e-04 0.0 
9.630962375889e-04 -6.927220403263e-03 0.0 
0.0 0.0 0.0 
6.886057348592e-03 -9.459099909333e-04 0.0 
-9.459099909333e-04 -6.809278176303e-03 0.0 
0.0 0.0 0.0 
5.985336129558e-03 -8.017226421195e-04 0.0 
-8.017226421195e-04 -6.859815031504e-03 0.0 
0.0 0.0 0.0 
6.178613545212e-03 -2.505693258906e-03 0.0 
-2.505693258906e-03 -6.415424170964e-03 0.0 
0.0 0.0 0.0 
1.372007176172e-03 5.421554115228e-03 0.0 
5.421554115228e-03 3.893739915709e-03 0.0 
0.0 0.0 0.0 
5.073769281865e-03 2.746596208935e-03 0.0 
2.746596208935e-03 -1.198159202121e-03 0.0 
0.0 0.0 0.0 
3.972811121097e-03 2.647604264664e-03 0.0 
2.647604264664e-03 4.329359697991e-04 0.0 
0.0 0.0 0.0 
4.442883070410e-03 3.218645921416e-03 0.0 
3.218645921416e-03 3.930544877356e-05 0.0 
0.0 0.0 0.0 
-9.584839988077e-05 -1.363125699861e-03 0.0 
-1.363125699861e-03 1.286566252331e-03 0.0 
0.0 0.0 0.0 
-5.322711299124e-04 -1.047067560767e-03 0.0 
-1.047067560767e-03 3.995452673185e-03 0.0 
0.0 0.0 0.0 
1.512133113376e-03 -1.223413112099e-03 0.0 
-1.223413112099e-03 1.114848248245e-03 0.0 
0.0 0.0 0.0 
2.074482708138e-03 -1.150277980759e-03 0.0 
-1.150277980759e-03 2.834402031567e-04 0.0 
0.0 0.0 0.0 
3.629847216499e-03 1.211274034105e-03 0.0 
1.211274034105e-03 8.102609006068e-05 0.0 
0.0 0.0 0.0 
-1.204974630410e-04 -8.861612885706e-04 0.0 
-8.861612885706e-04 1.498814676981e-03 0.0 
0.0 0.0 0.0 
6.256716141223e-03 4.798990543184e-03 0.0 
4.798990543184e-03 -5.906220466816e-03 0.0 
0.0 0.0 0.0 
5.725168264666e-03 5.794376777120e-03 0.0 
5.794376777120e-03 -4.755830249581e-03 0.0 
0.0 0.0 0.0 
-2.742835734007e-03 2.817460619222e-03 0.0 
2.817460619222e-03 1.576143471234e-02 0.0 
0.0 0.0 0.0 
-2.892993606739e-03 2.322479462372e-03 0.0 
2.322479462372e-03 1.607000212122e-02 0.0 
0.0 0.0 0.0 
1.882927512633e-03 -8.062220027161e-04 0.0 
-8.062220027161e-04 1.018838636646e-03 0.0 
0.0 0.0 0.0 
-2.826255200945e-04 -7.841961395357e-04 0.0 
-7.841961395357e-04 1.775116908268e-03 0.0 
0.0 0.0 0.0 
4.930237477826e-04 -1.329914835024e-03 0.0 
-1.329914835024e-03 2.625629177570e-03 0.0 
0.0 0.0 0.0 
5.795272431037e-03 1.329015198670e-03 0.0 
1.329015198670e-03 -7.154569304722e-03 0.0 
0.0 0.0 0.0 
-7.765885441919e-04 -9.771253643468e-04 0.0 
-9.771253643468e-04 4.113051917450e-03 0.0 
0.0 0.0 0.0 
-6.673410874405e-04 -8.467839182875e-04 0.0 
-8.467839182875e-04 4.402926289926e-03 0.0 
0.0 0.0 0.0 
8.609801061267e-05 -1.883906592851e-03 0.0 
-1.883906592851e-03 2.092170440273e-03 0.0 
0.0 0.0 0.0 
3.406676675610e-03 3.077903596966e-03 0.0 
3.077903596966e-03 1.590439790663e-03 0.0 
0.0 0.0 0.0 
3.824444965362e-03 3.610556306060e-03 0.0 
3.610556306060e-03 1.249885525097e-03 0.0 
0.0 0.0 0.0 
6.765762877543e-03 -2.373454743437e-03 0.0 
-2.373454743437e-03 -6.334714183673e-03 0.0 
0.0 0.0 0.0 
5.654616786459e-03 -3.525564203372e-03 0.0 
-3.525564203372e-03 -5.460280830066e-03 0.0 
0.0 0.0 0.0 
5.285575465081e-03 -3.820852211226e-03 0.0 
-3.820852211226e-03 -5.549594603294e-03 0.0 
0.0 0.0 0.0 
4.165700556841e-03 -4.080189989844e-03 0.0 
-4.080189989844e-03 -4.162696079422e-03 0.0 
0.0 0.0 0.0 
4.380125607442e-03 -3.588300809301e-03 0.0 
-3.588300809301e-03 -4.147479012964e-03 0.0 
0.0 0.0 0.0 
2.894477258662e-03 -3.652293969700e-03 0.0 
-3.652293969700e-03 -2.955936089316e-03 0.0 
0.0 0.0 0.0 
2.569791093858e-03 -4.004377776870e-03 0.0 
-4.004377776870e-03 -2.759648058991e-03 0.0 
0.0 0.0 0.0 
1.762707397209e-03 -3.588616243911e-03 0.0 
-3.588616243911e-03 -1.772640233275e-03 0.0 
0.0 0.0 0.0 
2.064632251094e-03 -3.382710170763e-03 0.0 
-3.382710170763e-03 -2.022769475736e-03 0.0 
0.0 0.0 0.0 
1.246818637944e-03 -3.267822656873e-03 0.0 
-3.267822656873e-03 -1.006083760979e-03 0.0 
0.0 0.0 0.0 
8.334593991079e-04 -3.209035784244e-03 0.0 
-3.209035784244e-03 -6.432266530151e-04 0.0 
0.0 0.0 0.0 
5.536176215531e-04 -2.837129741231e-03 0.0 
-2.837129741231e-03 -1.215848658268e-04 0.0 
0.0 0.0 0.0 
-4.394592160458e-04 -8.985897599237e-04 0.0 
-8.985897599237e-04 4.317510692410e-03 0.0 
0.0 0.0 0.0 
5.128145154781e-03 -5.201381608209e-04 0.0 
-5.201381608209e-04 -7.083852923282e-03 0.0 
0.0 0.0 0.0 
-2.370987097529e-03 4.625869110441e-03 0.0 
4.625869110441e-03 1.048656287812e-02 0.0 
0.0 0.0 0.0 
1.407717758982e-03 -9.180996015509e-04 0.0 
-9.180996015509e-04 1.739162422582e-03 0.0 
0.0 0.0 0.0 
3.232426654066e-03 1.747364691421e-03 0.0 
1.747364691421e-03 1.013283822277e-03 0.0 
0.0 0.0 0.0 
-2.513328206811e-03 2.656323465076e-03 0.0 
2.656323465076e-03 1.608891881561e-02 0.0 
0.0 0.0 0.0 
-2.640918598663e-03 2.192417789351e-03 0.0 
2.192417789351e-03 1.632382524953e-02 0.0 
0.0 0.0 0.0 
-2.951549001968e-03 1.837481506191e-03 0.0 
1.837481506191e-03 1.625076236835e-02 0.0 
0.0 0.0 0.0 
-2.696401655589e-03 1.750168823792e-03 0.0 
1.750168823792e-03 1.645076941020e-02 0.0 
0.0 0.0 0.0 
-2.358118287220e-03 2.082461932352e-03 0.0 
2.082461932352e-03 1.653284861756e-02 0.0 
0.0 0.0 0.0 
-2.423782544922e-03 1.673785741570e-03 0.0 
1.673785741570e-03 1.662556246365e-02 0.0 
0.0 0.0 0.0 
-2.692461889655e-03 1.353451466285e-03 0.0 
1.353451466285e-03 1.648298698444e-02 0.0 
0.0 0.0 0.0 
-2.442667191180e-03 1.308733629197e-03 0.0 
1.308733629197e-03 1.664018610960e-02 0.0 
0.0 0.0 0.0 
-2.648193035198e-03 1.013734078062e-03 0.0 
1.013734078062e-03 1.643883725534e-02 0.0 
0.0 0.0 0.0 
-2.428307688948e-03 9.963782700623e-04 0.0 
9.963782700623e-04 1.659041645807e-02 0.0 
0.0 0.0 0.0 
-2.180965146158e-03 1.260878003972e-03 0.0 
1.260878003972e-03 1.678266916106e-02 0.0 
0.0 0.0 0.0 
-2.195719725363e-03 9.690790761535e-04 0.0 
9.690790761535e-04 1.672787059851e-02 0.0 
0.0 0.0 0.0 
-2.394980172205e-03 7.376182593438e-04 0.0 
7.376182593438e-04 1.649021705772e-02 0.0 
0.0 0.0 0.0 
-2.195228607632e-03 7.233710110155e-04 0.0 
7.233710110155e-04 1.663341158640e-02 0.0 
0.0 0.0 0.0 
-2.356759746977e-03 5.296266709382e-04 0.0 
5.296266709382e-04 1.635766369995e-02 0.0 
0.0 0.0 0.0 
-2.189720895395e-03 5.228019447140e-04 0.0 
5.228019447140e-04 1.650900389575e-02 0.0 
0.0 0.0 0.0 
-1.984468763207e-03 6.913334685558e-04 0.0 
6.913334685558e-04 1.676450765061e-02 0.0 
0.0 0.0 0.0 
1.533179049612e-04 -5.819413251148e-04 0.0 
-5.819413251148e-04 1.323388313931e-03 0.0 
0.0 0.0 0.0 
3.871938823926e-03 6.042809720335e-04 0.0 
6.042809720335e-04 -7.084136501347e-04 0.0 
0.0 0.0 0.0 
3.222908231931e-03 8.370661639992e-04 0.0 
8.370661639992e-04 4.726955430615e-04 0.0 
0.0 0.0 0.0 
-1.097514398061e-03 -1.214223499179e-03 0.0 
-1.214223499179e-03 2.773684684337e-03 0.0 
0.0 0.0 0.0 
-1.206980115485e-03 -1.234389324894e-03 0.0 
-1.234389324894e-03 3.024902274147e-03 0.0 
0.0 0.0 0.0 
-1.073165947258e-03 -1.479559555230e-03 0.0 
-1.479559555230e-03 2.894599015397e-03 0.0 
0.0 0.0 0.0 
-1.255856662156e-03 -1.218569754437e-03 0.0 
-1.218569754437e-03 3.269521754619e-03 0.0 
0.0 0.0 0.0 
-2.013132555682e-03 4.946698009143e-04 0.0 
4.946698009143e-04 1.664803324751e-02 0.0 
0.0 0.0 0.0 
-1.766028702106e-03 6.379418431321e-04 0.0 
6.379418431321e-04 1.688445409530e-02 0.0 
0.0 0.0 0.0 
5.522316652961e-03 6.957388008193e-03 0.0 
6.957388008193e-03 -4.979095025751e-03 0.0 
0.0 0.0 0.0 
4.573923397497e-03 7.166769743438e-03 0.0 
7.166769743438e-03 -3.383274865568e-03 0.0 
0.0 0.0 0.0 
-2.314087055589e-03 3.124094567801e-03 0.0 
3.124094567801e-03 1.574834172821e-02 0.0 
0.0 0.0 0.0 
-8.832423108805e-04 -7.569940682564e-04 0.0 
-7.569940682564e-04 4.472508338810e-03 0.0 
0.0 0.0 0.0 
-1.003557920168e-03 -8.666446931926e-04 0.0 
-8.666446931926e-04 4.212791247773e-03 0.0 
0.0 0.0 0.0 
1.488006423533e-03 5.465805988714e-03 0.0 
5.465805988714e-03 2.112994253920e-03 0.0 
0.0 0.0 0.0 
4.778637836807e-04 5.242212311653e-03 0.0 
5.242212311653e-03 3.380247544137e-03 0.0 
0.0 0.0 0.0 
1.275073793091e-03 5.585999381225e-03 0.0 
5.585999381225e-03 2.007370542155e-03 0.0 
0.0 0.0 0.0 
3.124798596775e-04 5.326142397285e-03 0.0 
5.326142397285e-03 3.285106886850e-03 0.0 
0.0 0.0 0.0 
-2.962641416283e-04 4.990030022801e-03 0.0 
4.990030022801e-03 4.451785446576e-03 0.0 
0.0 0.0 0.0 
1.089710252063e-03 5.855488052949e-03 0.0 
5.855488052949e-03 1.903416180055e-03 0.0 
0.0 0.0 0.0 
2.174278600489e-03 -1.519399321733e-03 0.0 
-1.519399321733e-03 -3.549076807782e-04 0.0 
0.0 0.0 0.0 
-1.907899915339e-03 1.202636481005e-03 0.0 
1.202636481005e-03 1.690553828588e-02 0.0 
0.0 0.0 0.0 
-1.124864008517e-04 -1.774180698102e-03 0.0 
-1.774180698102e-03 1.204216999659e-03 0.0 
0.0 0.0 0.0 
2.154985637957e-05 -1.463349340608e-03 0.0 
-1.463349340608e-03 1.057893853749e-03 0.0 
0.0 0.0 0.0 
-7.525864068042e-04 -6.559602510038e-04 0.0 
-6.559602510038e-04 4.749335961038e-03 0.0 
0.0 0.0 0.0 
4.497663755542e-03 3.335477750497e-04 0.0 
3.335477750497e-04 -1.883484310631e-03 0.0 
0.0 0.0 0.0 
7.940973612907e-04 5.483010792336e-03 0.0 
5.483010792336e-03 5.063529656698e-03 0.0 
0.0 0.0 0.0 
1.892576399183e-03 5.439836115554e-03 0.0 
5.439836115554e-03 3.931709790694e-03 0.0 
0.0 0.0 0.0 
1.283659828868e-03 5.490752436950e-03 0.0 
5.490752436950e-03 5.156067292534e-03 0.0 
0.0 0.0 0.0 
2.535886385479e-03 5.447262317382e-03 0.0 
5.447262317382e-03 3.911458540667e-03 0.0 
0.0 0.0 0.0 
1.946378670484e-03 5.542914172055e-03 0.0 
5.542914172055e-03 5.118546536277e-03 0.0 
0.0 0.0 0.0 
2.606681083824e-03 5.340235961615e-03 0.0 
5.340235961615e-03 4.383741898559e-03 0.0 
0.0 0.0 0.0 
3.153652237766e-03 5.180767156488e-03 0.0 
5.180767156488e-03 3.239667759147e-03 0.0 
0.0 0.0 0.0 
2.878901555263e-03 3.455224012922e-03 0.0 
3.455224012922e-03 2.702327236271e-03 0.0 
0.0 0.0 0.0 
2.436631572024e-03 4.867326907779e-03 0.0 
4.867326907779e-03 4.445454103975e-03 0.0 
0.0 0.0 0.0 
-2.190470359594e-03 3.657821259547e-04 0.0 
3.657821259547e-04 1.636194411367e-02 0.0 
0.0 0.0 0.0 
5.594780935723e-03 3.447226694890e-03 0.0 
3.447226694890e-03 -1.666160299197e-03 0.0 
0.0 0.0 0.0 
1.493821303278e-03 -3.153294908171e-03 0.0 
-3.153294908171e-03 -1.217766721838e-03 0.0 
0.0 0.0 0.0 
2.786530397757e-04 -6.403792246177e-04 0.0 
-6.403792246177e-04 1.088249373264e-03 0.0 
0.0 0.0 0.0 
2.953987090585e-04 -2.520191957532e-03 0.0 
-2.520191957532e-03 2.007760746789e-04 0.0 
0.0 0.0 0.0 
-1.738759744948e-05 -4.902386618430e-04 0.0 
-4.902386618430e-04 1.576756370595e-03 0.0 
0.0 0.0 0.0 
-4.775638798915e-04 -6.811530094434e-04 0.0 
-6.811530094434e-04 2.061430509041e-03 0.0 
0.0 0.0 0.0 
1.637730724228e-03 -5.005294809010e-04 0.0 
-5.005294809010e-04 1.796765582452e-03 0.0 
0.0 0.0 0.0 
2.086324433952e-03 5.480051057404e-03 0.0 
5.480051057404e-03 5.537214802340e-03 0.0 
0.0 0.0 0.0 
1.381181096236e-03 5.616877585662e-03 0.0 
5.616877585662e-03 6.302376725846e-03 0.0 
0.0 0.0 0.0 
-3.492010754219e-04 5.155158557532e-03 0.0 
5.155158557532e-03 4.282421521246e-03 0.0 
0.0 0.0 0.0 
-7.907155046813e-04 5.032317118319e-03 0.0 
5.032317118319e-03 5.364751915337e-03 0.0 
0.0 0.0 0.0 
2.532879175117e-03 3.010959111357e-03 0.0 
3.010959111357e-03 2.943181548909e-03 0.0 
0.0 0.0 0.0 
-3.407154897001e-03 2.111741836326e-03 0.0 
2.111741836326e-03 1.574913414851e-02 0.0 
0.0 0.0 0.0 
-2.855897807382e-03 1.025667570449e-03 0.0 
1.025667570449e-03 1.627570260906e-02 0.0 
0.0 0.0 0.0 
-2.745069425267e-03 7.255051187920e-04 0.0 
7.255051187920e-04 1.616618745026e-02 0.0 
0.0 0.0 0.0 
5.923878432999e-04 -3.317865832215e-04 0.0 
-3.317865832215e-04 9.267903906943e-04 0.0 
0.0 0.0 0.0 
4.174714687691e-04 -2.959301635930e-03 0.0 
-2.959301635930e-03 -1.559364959923e-04 0.0 
0.0 0.0 0.0 
-2.056679520506e-03 1.978885101051e-03 0.0 
1.978885101051e-03 1.671023663192e-02 0.0 
0.0 0.0 0.0 
4.813456562678e-03 6.119098037044e-03 0.0 
6.119098037044e-03 -3.322747701794e-03 0.0 
0.0 0.0 0.0 
3.507857322416e-03 6.776332886993e-03 0.0 
6.776332886993e-03 -1.889701356605e-03 0.0 
0.0 0.0 0.0 
5.245378984687e-03 1.877530140159e-03 0.0 
1.877530140159e-03 -7.727881478257e-03 0.0 
0.0 0.0 0.0 
4.368498478473e-03 -1.217572955553e-04 0.0 
-1.217572955553e-04 -7.455861235577e-03 0.0 
0.0 0.0 0.0 
-1.830281665522e-03 4.477812380571e-04 0.0 
4.477812380571e-04 1.677867516583e-02 0.0 
0.0 0.0 0.0 
-1.553710468948e-03 5.594069289155e-04 0.0 
5.594069289155e-04 1.699301100587e-02 0.0 
0.0 0.0 0.0 
-1.083607090014e-03 -1.437452831858e-03 0.0 
-1.437452831858e-03 3.122483323314e-03 0.0 
0.0 0.0 0.0 
-1.247890719151e-03 -1.165325176704e-03 0.0 
-1.165325176704e-03 3.501944162100e-03 0.0 
0.0 0.0 0.0 
2.168821918175e-03 -2.995322865095e-04 0.0 
-2.995322865095e-04 1.150567893301e-03 0.0 
0.0 0.0 0.0 
1.923231033210e-04 -2.258765196610e-03 0.0 
-2.258765196610e-03 4.760291675993e-04 0.0 
0.0 0.0 0.0 
-1.453424066699e-03 7.802430694337e-04 0.0 
7.802430694337e-04 1.706640110292e-02 0.0 
0.0 0.0 0.0 
3.872155235966e-03 -5.634254948684e-05 0.0 
-5.634254948684e-05 -1.237618710159e-03 0.0 
0.0 0.0 0.0 
4.295687667121e-03 -4.054856822407e-04 0.0 
-4.054856822407e-04 -2.231659592229e-03 0.0 
0.0 0.0 0.0 
-1.379067434871e-03 -9.641446395542e-04 0.0 
-9.641446395542e-04 3.369595264618e-03 0.0 
0.0 0.0 0.0 
4.076474178800e-03 8.419929982878e-03 0.0 
8.419929982878e-03 -3.227647819863e-03 0.0 
0.0 0.0 0.0 
4.955114990100e-03 8.314503188280e-03 0.0 
8.314503188280e-03 -4.923233135910e-03 0.0 
0.0 0.0 0.0 
2.242749895427e-03 -3.122691881158e-03 0.0 
-3.122691881158e-03 -2.138090744813e-03 0.0 
0.0 0.0 0.0 
3.468675801288e-04 -2.562464244588e-03 0.0 
-2.562464244588e-03 2.958913489462e-04 0.0 
0.0 0.0 0.0 
-2.107340073293e-04 -4.232058764228e-04 0.0 
-4.232058764228e-04 1.860321029713e-03 0.0 
0.0 0.0 0.0 
1.728427281943e-03 -1.504033205553e-05 0.0 
-1.504033205553e-05 2.091576084771e-03 0.0 
0.0 0.0 0.0 
-1.930091449279e-03 2.387892771336e-03 0.0 
2.387892771336e-03 1.656642390913e-02 0.0 
0.0 0.0 0.0 
2.965231128338e-03 4.664700271189e-03 0.0 
4.664700271189e-03 3.324711021352e-03 0.0 
0.0 0.0 0.0 
3.783887891367e-03 5.023605238322e-03 0.0 
5.023605238322e-03 2.002432710513e-03 0.0 
0.0 0.0 0.0 
2.185225400381e-03 4.409416789415e-03 0.0 
4.409416789415e-03 4.576222629000e-03 0.0 
0.0 0.0 0.0 
1.346022745694e-04 -1.830634209588e-03 0.0 
-1.830634209588e-03 6.042923497437e-04 0.0 
0.0 0.0 0.0 
1.232096893826e-03 -6.319499846286e-04 0.0 
-6.319499846286e-04 2.404480921355e-03 0.0 
0.0 0.0 0.0 
-9.461161997408e-04 -5.485300369503e-04 0.0 
-5.485300369503e-04 4.774733742836e-03 0.0 
0.0 0.0 0.0 
1.569419843112e-03 5.625158565135e-03 0.0 
5.625158565135e-03 6.659017529111e-03 0.0 
0.0 0.0 0.0 
8.569118328814e-04 5.663846920838e-03 0.0 
5.663846920838e-03 7.435306530111e-03 0.0 
0.0 0.0 0.0 
3.775472989723e-03 5.986615627323e-03 0.0 
5.986615627323e-03 -1.912208926625e-03 0.0 
0.0 0.0 0.0 
2.566943473117e-03 6.363086068098e-03 0.0 
6.363086068098e-03 -5.587847706394e-04 0.0 
0.0 0.0 0.0 
2.294684366520e-03 7.182765264678e-03 0.0 
7.182765264678e-03 -4.758044086990e-04 0.0 
0.0 0.0 0.0 
1.592622477485e-03 6.709316941916e-03 0.0 
6.709316941916e-03 6.696444548295e-04 0.0 
0.0 0.0 0.0 
-2.998244970030e-03 4.141525156519e-03 0.0 
4.141525156519e-03 1.216453104468e-02 0.0 
0.0 0.0 0.0 
2.833483475614e-03 5.825911179084e-03 0.0 
5.825911179084e-03 -5.935117798019e-04 0.0 
0.0 0.0 0.0 
-2.117515847598e-03 4.768345389036e-03 0.0 
4.768345389036e-03 9.562450755444e-03 0.0 
0.0 0.0 0.0 
-2.634455390262e-03 4.487383148598e-03 0.0 
4.487383148598e-03 1.044372496090e-02 0.0 
0.0 0.0 0.0 
-2.330502688873e-03 4.643050581385e-03 0.0 
4.643050581385e-03 9.488283464488e-03 0.0 
0.0 0.0 0.0 
-7.039479862282e-04 5.004027125608e-03 0.0 
5.004027125608e-03 5.491298534497e-03 0.0 
0.0 0.0 0.0 
-1.215208924120e-03 4.920169206982e-03 0.0 
4.920169206982e-03 6.422995495431e-03 0.0 
0.0 0.0 0.0 
6.620786086819e-03 4.549610931304e-03 0.0 
4.549610931304e-03 -4.728878020464e-03 0.0 
0.0 0.0 0.0 
7.552246746196e-03 2.965476447779e-03 0.0 
2.965476447779e-03 -4.606670584263e-03 0.0 
0.0 0.0 0.0 
-8.728671077708e-04 -1.698583099731e-03 0.0 
-1.698583099731e-03 2.690911845081e-03 0.0 
0.0 0.0 0.0 
-5.131174973257e-04 -1.617312755143e-03 0.0 
-1.617312755143e-03 2.932010371309e-03 0.0 
0.0 0.0 0.0 
1.719973494161e-03 -2.098587359185e-03 0.0 
-2.098587359185e-03 -4.475230851874e-04 0.0 
0.0 0.0 0.0 
-1.840348942010e-03 1.519780875367e-03 0.0 
1.519780875367e-03 1.691459467793e-02 0.0 
0.0 0.0 0.0 
-1.532684507939e-03 1.428284009697e-03 0.0 
1.428284009697e-03 1.702585157747e-02 0.0 
0.0 0.0 0.0 
-2.510122684084e-03 5.199497094549e-04 0.0 
5.199497094549e-04 1.619266927376e-02 0.0 
0.0 0.0 0.0 
-2.444320984908e-03 3.500349268906e-04 0.0 
3.500349268906e-04 1.602715376159e-02 0.0 
0.0 0.0 0.0 
1.502713319667e-04 -1.041803302833e-03 0.0 
-1.041803302833e-03 1.021359205603e-03 0.0 
0.0 0.0 0.0 
2.221435624591e-04 -1.099887679679e-03 0.0 
-1.099887679679e-03 8.511826177184e-04 0.0 
0.0 0.0 0.0 
4.070693956600e-04 -2.250242248945e-03 0.0 
-2.250242248945e-03 1.124310981174e-03 0.0 
0.0 0.0 0.0 
1.042811475502e-03 -9.497917859159e-04 0.0 
-9.497917859159e-04 2.376999602947e-03 0.0 
0.0 0.0 0.0 
-2.056315700040e-03 2.960588000988e-03 0.0 
2.960588000988e-03 1.608232738684e-02 0.0 
0.0 0.0 0.0 
-1.820727066605e-03 3.421973339587e-03 0.0 
3.421973339587e-03 1.571738264446e-02 0.0 
0.0 0.0 0.0 
-2.058704367752e-03 3.582422746095e-03 0.0 
3.582422746095e-03 1.532213582871e-02 0.0 
0.0 0.0 0.0 
2.228463102680e-03 2.249509763849e-04 0.0 
2.249509763849e-04 1.544090769664e-03 0.0 
0.0 0.0 0.0 
8.775643735414e-03 6.712327830131e-04 0.0 
6.712327830131e-04 -7.050279700514e-03 0.0 
0.0 0.0 0.0 
6.167578412074e-03 6.320060832301e-04 0.0 
6.320060832301e-04 -4.010458979969e-03 0.0 
0.0 0.0 0.0 
4.526728854622e-03 -2.291471834714e-03 0.0 
-2.291471834714e-03 -6.714363993310e-03 0.0 
0.0 0.0 0.0 
3.517359526629e-03 5.293441264687e-03 0.0 
5.293441264687e-03 1.176990725674e-03 0.0 
0.0 0.0 0.0 
5.000690809760e-04 -7.530479075089e-04 0.0 
-7.530479075089e-04 6.663759317882e-04 0.0 
0.0 0.0 0.0 
-9.185818476836e-04 5.280677669259e-03 0.0 
5.280677669259e-03 9.094841707549e-03 0.0 
0.0 0.0 0.0 
-7.930137048798e-04 -4.756119296982e-04 0.0 
-4.756119296982e-04 5.042546815527e-03 0.0 
0.0 0.0 0.0 
-6.156153391363e-04 -5.770931045540e-04 0.0 
-5.770931045540e-04 5.036303376232e-03 0.0 
0.0 0.0 0.0 
2.063239209626e-03 3.364594193673e-03 0.0 
3.364594193673e-03 3.976404546867e-03 0.0 
0.0 0.0 0.0 
-3.912906245707e-03 3.773226109743e-03 0.0 
3.773226109743e-03 1.308208813686e-02 0.0 
0.0 0.0 0.0 
4.819801424724e-03 5.068530073089e-03 0.0 
5.068530073089e-03 -1.386147001659e-04 0.0 
0.0 0.0 0.0 
5.702728998659e-03 4.736626000703e-03 0.0 
4.736626000703e-03 -1.585713319179e-03 0.0 
0.0 0.0 0.0 
-2.755524519122e-03 4.445320398217e-03 0.0 
4.445320398217e-03 1.030751701570e-02 0.0 
0.0 0.0 0.0 
-2.350325595319e-03 4.649947736166e-03 0.0 
4.649947736166e-03 9.329731330808e-03 0.0 
0.0 0.0 0.0 
-1.990080884992e-03 4.747150057353e-03 0.0 
4.747150057353e-03 8.492075049315e-03 0.0 
0.0 0.0 0.0 
-1.930305629278e-03 4.823022876050e-03 0.0 
4.823022876050e-03 8.310220798905e-03 0.0 
0.0 0.0 0.0 
1.637605956895e-03 -2.968732600403e-03 0.0 
-2.968732600403e-03 -1.274404986901e-03 0.0 
0.0 0.0 0.0 
1.033525837695e-03 -2.919011775025e-03 0.0 
-2.919011775025e-03 -5.149633153585e-04 0.0 
0.0 0.0 0.0 
1.451181752158e-03 5.235054727642e-03 0.0 
5.235054727642e-03 6.722073858963e-03 0.0 
0.0 0.0 0.0 
1.752653133965e-03 4.674561280433e-03 0.0 
4.674561280433e-03 5.603582201383e-03 0.0 
0.0 0.0 0.0 
1.154679420940e-03 5.721894720198e-03 0.0 
5.721894720198e-03 7.738848377292e-03 0.0 
0.0 0.0 0.0 
4.434099121311e-04 5.714819278084e-03 0.0 
5.714819278084e-03 8.510352269207e-03 0.0 
0.0 0.0 0.0 
1.818777640647e-03 3.007787312360e-03 0.0 
3.007787312360e-03 4.096688313683e-03 0.0 
0.0 0.0 0.0 
2.274648847732e-03 2.626181209985e-03 0.0 
2.626181209985e-03 3.099853344648e-03 0.0 
0.0 0.0 0.0 
-6.739096660557e-04 -5.545354282206e-04 0.0 
-5.545354282206e-04 2.343325245438e-03 0.0 
0.0 0.0 0.0 
-1.091269869188e-03 5.180345810359e-03 0.0 
5.180345810359e-03 6.207740660253e-03 0.0 
0.0 0.0 0.0 
-1.603034703542e-03 2.262937372393e-03 0.0 
2.262937372393e-03 1.674886980523e-02 0.0 
0.0 0.0 0.0 
-3.134007230507e-03 4.239946120518e-03 0.0 
4.239946120518e-03 1.126696692148e-02 0.0 
0.0 0.0 0.0 
8.607374032917e-04 -7.126452405061e-04 0.0 
-7.126452405061e-04 2.980313691544e-03 0.0 
0.0 0.0 0.0 
7.054985830774e-04 -9.341391961868e-04 0.0 
-9.341391961868e-04 2.988673042409e-03 0.0 
0.0 0.0 0.0 
3.626107397634e-03 -1.746102688670e-03 0.0 
-1.746102688670e-03 -6.926159224569e-03 0.0 
0.0 0.0 0.0 
3.815465628100e-03 -4.165216709134e-03 0.0 
-4.165216709134e-03 -5.751050493559e-03 0.0 
0.0 0.0 0.0 
-1.211619718866e-03 6.684557951781e-04 0.0 
6.684557951781e-04 1.715877652783e-02 0.0 
0.0 0.0 0.0 
1.146331450610e-03 7.259383108408e-03 0.0 
7.259383108408e-03 1.046516352715e-03 0.0 
0.0 0.0 0.0 
7.413078196678e-04 6.913110964278e-03 0.0 
6.913110964278e-03 1.963181477003e-03 0.0 
0.0 0.0 0.0 
1.655642288037e-03 7.780729592913e-03 0.0 
7.780729592913e-03 5.132093233310e-05 0.0 
0.0 0.0 0.0 
-4.541088024316e-04 -1.410428503945e-04 0.0 
-1.410428503945e-04 5.714540697828e-03 0.0 
0.0 0.0 0.0 
-2.295946205509e-03 3.070390851111e-05 0.0 
3.070390851111e-05 1.523711837811e-02 0.0 
0.0 0.0 0.0 
-6.175279081285e-04 -4.254379122786e-04 0.0 
-4.254379122786e-04 5.310703244716e-03 0.0 
0.0 0.0 0.0 
-1.094125471321e-03 4.997781096346e-03 0.0 
4.997781096346e-03 6.537372622011e-03 0.0 
0.0 0.0 0.0 
-1.071828264297e-03 9.186412685635e-04 0.0 
9.186412685635e-04 1.720389225682e-02 0.0 
0.0 0.0 0.0 
5.223831084856e-03 4.569394698449e-03 0.0 
4.569394698449e-03 -6.287008907152e-04 0.0 
0.0 0.0 0.0 
2.354454071125e-03 5.544790931414e-03 0.0 
5.544790931414e-03 7.043619170553e-04 0.0 
0.0 0.0 0.0 
2.798844706168e-03 -4.661740944901e-05 0.0 
-4.661740944901e-05 4.538497191465e-04 0.0 
0.0 0.0 0.0 
-1.360754925304e-03 4.275559989951e-04 0.0 
4.275559989951e-04 1.707953223279e-02 0.0 
0.0 0.0 0.0 
-9.596681992590e-04 5.303260857593e-04 0.0 
5.303260857593e-04 1.724369990651e-02 0.0 
0.0 0.0 0.0 
-2.892038024248e-03 7.118957637922e-04 0.0 
7.118957637922e-04 1.598612529334e-02 0.0 
0.0 0.0 0.0 
-2.755461138664e-03 4.603970427445e-04 0.0 
4.603970427445e-04 1.581294687793e-02 0.0 
0.0 0.0 0.0 
-3.044879682377e-03 1.033611159687e-03 0.0 
1.033611159687e-03 1.608970346801e-02 0.0 
0.0 0.0 0.0 
6.189033745321e-03 4.205974835059e-03 0.0 
4.205974835059e-03 -7.504136721840e-03 0.0 
0.0 0.0 0.0 
5.559215144888e-03 5.351018947562e-03 0.0 
5.351018947562e-03 -7.819437008021e-03 0.0 
0.0 0.0 0.0 
-1.628285271252e-03 1.124029587705e-03 0.0 
1.124029587705e-03 1.701644650043e-02 0.0 
0.0 0.0 0.0 
-9.194030566837e-04 -1.119574714476e-03 0.0 
-1.119574714476e-03 2.503380646707e-03 0.0 
0.0 0.0 0.0 
-1.139765419948e-03 -9.148292499482e-04 0.0 
-9.148292499482e-04 2.862596971953e-03 0.0 
0.0 0.0 0.0 
1.109915013339e-04 -2.072110377029e-03 0.0 
-2.072110377029e-03 7.220190619920e-04 0.0 
0.0 0.0 0.0 
1.846536563058e-04 -2.360497293106e-03 0.0 
-2.360497293106e-03 6.479337174665e-04 0.0 
0.0 0.0 0.0 
-8.545998020461e-04 -1.623443772561e-03 0.0 
-1.623443772561e-03 2.918537512371e-03 0.0 
0.0 0.0 0.0 
-6.132848447488e-04 -1.877119542169e-03 0.0 
-1.877119542169e-03 2.428742923849e-03 0.0 
0.0 0.0 0.0 
-4.728932048455e-04 5.404744352378e-03 0.0 
5.404744352378e-03 8.333127372361e-03 0.0 
0.0 0.0 0.0 
-6.906783070881e-04 5.376933122796e-03 0.0 
5.376933122796e-03 9.283414848702e-03 0.0 
0.0 0.0 0.0 
2.913482288365e-04 5.500608175880e-03 0.0 
5.500608175880e-03 6.202980292539e-03 0.0 
0.0 0.0 0.0 
3.552637650764e-03 -7.495846417127e-04 0.0 
-7.495846417127e-04 -1.441063901061e-03 0.0 
0.0 0.0 0.0 
3.683988419845e-03 -1.083703319524e-03 0.0 
-1.083703319524e-03 -2.102213703056e-03 0.0 
0.0 0.0 0.0 
4.660640636653e-03 -6.640688468871e-04 0.0 
-6.640688468871e-04 -3.026281935915e-03 0.0 
0.0 0.0 0.0 
-1.407746660561e-03 1.756232964526e-03 0.0 
1.756232964526e-03 1.698080142801e-02 0.0 
0.0 0.0 0.0 
-1.033306355777e-03 1.647277900874e-03 0.0 
1.647277900874e-03 1.707771131761e-02 0.0 
0.0 0.0 0.0 
2.313939465795e-03 -2.854738006847e-03 0.0 
-2.854738006847e-03 -2.086641516504e-03 0.0 
0.0 0.0 0.0 
3.202179608386e-03 -2.930977095914e-03 0.0 
-2.930977095914e-03 -3.047384162606e-03 0.0 
0.0 0.0 0.0 
1.165032912415e-03 -2.845507872332e-03 0.0 
-2.845507872332e-03 -5.568944032460e-04 0.0 
0.0 0.0 0.0 
-1.423103860158e-03 2.679332567816e-03 0.0 
2.679332567816e-03 1.656156933236e-02 0.0 
0.0 0.0 0.0 
-4.570056804995e-04 -5.365974508395e-04 0.0 
-5.365974508395e-04 5.317347697989e-03 0.0 
0.0 0.0 0.0 
-4.294198860261e-04 -6.586211467452e-04 0.0 
-6.586211467452e-04 5.016286272097e-03 0.0 
0.0 0.0 0.0 
5.684618344326e-04 -7.630637774479e-04 0.0 
-7.630637774479e-04 5.004173597950e-04 0.0 
0.0 0.0 0.0 
2.810064337932e-04 -1.136018095835e-03 0.0 
-1.136018095835e-03 7.145231096275e-04 0.0 
0.0 0.0 0.0 
3.015630794525e-03 9.472403417391e-03 0.0 
9.472403417391e-03 -2.361828160641e-03 0.0 
0.0 0.0 0.0 
3.894342799952e-03 9.644269861690e-03 0.0 
9.644269861690e-03 -4.137881458671e-03 0.0 
0.0 0.0 0.0 
-1.532422668460e-03 3.866991658015e-03 0.0 
3.866991658015e-03 1.526349017728e-02 0.0 
0.0 0.0 0.0 
-1.763009184879e-03 4.033600088364e-03 0.0 
4.033600088364e-03 1.481512443906e-02 0.0 
0.0 0.0 0.0 
-1.225276466691e-03 3.746330538630e-03 0.0 
3.746330538630e-03 1.563591597008e-02 0.0 
0.0 0.0 0.0 
-3.590253374411e-04 -2.943028024313e-04 0.0 
-2.943028024313e-04 2.094805854994e-03 0.0 
0.0 0.0 0.0 
3.570511238457e-03 4.478985889490e-03 0.0 
4.478985889490e-03 2.139999724830e-03 0.0 
0.0 0.0 0.0 
1.629821052005e-03 4.813658094271e-04 0.0 
4.813658094271e-04 2.585370572254e-03 0.0 
0.0 0.0 0.0 
2.115428650699e-03 7.531320968988e-04 0.0 
7.531320968988e-04 2.153917005756e-03 0.0 
0.0 0.0 0.0 
1.190458797500e-03 2.687940861917e-04 0.0 
2.687940861917e-04 3.093350829430e-03 0.0 
0.0 0.0 0.0 
2.377356466962e-03 3.757920217381e-03 0.0 
3.757920217381e-03 3.763635705901e-03 0.0 
0.0 0.0 0.0 
1.573272418611e-03 3.651349554440e-03 0.0 
3.651349554440e-03 4.961128111491e-03 0.0 
0.0 0.0 0.0 
1.427458395163e-03 4.263511179394e-03 0.0 
4.263511179394e-03 5.761904994449e-03 0.0 
0.0 0.0 0.0 
3.213224466038e-03 1.889951370195e-04 0.0 
1.889951370195e-04 -7.176454327740e-03 0.0 
0.0 0.0 0.0 
-1.053396135426e-03 3.299259998257e-04 0.0 
3.299259998257e-04 1.720911579678e-02 0.0 
0.0 0.0 0.0 
-2.545069578523e-03 3.167873143629e-04 0.0 
3.167873143629e-04 1.581897298990e-02 0.0 
0.0 0.0 0.0 
2.341233856273e-03 -7.875381687049e-04 0.0 
-7.875381687049e-04 -6.303189956523e-03 0.0 
0.0 0.0 0.0 
-2.455419363900e-03 1.994719346421e-04 0.0 
1.994719346421e-04 1.562686315174e-02 0.0 
0.0 0.0 0.0 
-2.388192791914e-03 2.274629908947e-04 0.0 
2.274629908947e-04 1.584051042814e-02 0.0 
0.0 0.0 0.0 
-2.400884109682e-03 1.161900733517e-04 0.0 
1.161900733517e-04 1.540605662197e-02 0.0 
0.0 0.0 0.0 
2.264409107356e-04 -2.089366919390e-04 0.0 
-2.089366919390e-04 1.471258741090e-03 0.0 
0.0 0.0 0.0 
-3.015689007460e-03 6.459319854829e-04 0.0 
6.459319854829e-04 1.573543786481e-02 0.0 
0.0 0.0 0.0 
-3.231468980363e-03 1.072419988775e-03 0.0 
1.072419988775e-03 1.589364337804e-02 0.0 
0.0 0.0 0.0 
7.121371864619e-04 -6.557620335584e-04 0.0 
-6.557620335584e-04 2.593138790275e-04 0.0 
0.0 0.0 0.0 
-1.033414249717e-03 2.506354451673e-03 0.0 
2.506354451673e-03 1.673197561507e-02 0.0 
0.0 0.0 0.0 
9.583239882820e-04 -5.338428664794e-04 0.0 
-5.338428664794e-04 1.892690051195e-04 0.0 
0.0 0.0 0.0 
9.281103133788e-04 -5.450708077060e-04 0.0 
-5.450708077060e-04 3.591848649208e-04 0.0 
0.0 0.0 0.0 
5.746028686666e-04 -7.422339808646e-04 0.0 
-7.422339808646e-04 3.548409196880e-03 0.0 
0.0 0.0 0.0 
4.268032121365e-04 -9.039482424546e-04 0.0 
-9.039482424546e-04 3.555391505684e-03 0.0 
0.0 0.0 0.0 
3.122748999023e-04 -7.728717979566e-04 0.0 
-7.728717979566e-04 4.053640265245e-03 0.0 
0.0 0.0 0.0 
1.894540275704e-04 -8.599817665738e-04 0.0 
-8.599817665738e-04 4.051708644632e-03 0.0 
0.0 0.0 0.0 
2.161139948661e-04 -1.005832737208e-03 0.0 
-1.005832737208e-03 3.625820466060e-03 0.0 
0.0 0.0 0.0 
3.486120348173e-06 -9.068482377503e-04 0.0 
-9.068482377503e-04 4.136781881143e-03 0.0 
0.0 0.0 0.0 
-2.623316377869e-03 2.843361493509e-04 0.0 
2.843361493509e-04 1.560353458212e-02 0.0 
0.0 0.0 0.0 
2.532179495047e-05 -8.107830833365e-04 0.0 
-8.107830833365e-04 4.570709526168e-03 0.0 
0.0 0.0 0.0 
-1.482312992406e-04 -8.077248500049e-04 0.0 
-8.077248500049e-04 4.603349914420e-03 0.0 
0.0 0.0 0.0 
-9.009212138581e-05 -7.798076596130e-04 0.0 
-7.798076596130e-04 5.016474950138e-03 0.0 
0.0 0.0 0.0 
-2.028502630160e-03 4.990049572262e-03 0.0 
4.990049572262e-03 9.152371875884e-03 0.0 
0.0 0.0 0.0 
1.020886830137e-03 6.415658956239e-03 0.0 
6.415658956239e-03 1.774483297574e-03 0.0 
0.0 0.0 0.0 
2.629998619755e-04 6.144836927645e-03 0.0 
6.144836927645e-03 3.027445077403e-03 0.0 
0.0 0.0 0.0 
-1.822509852259e-04 6.300448019242e-03 0.0 
6.300448019242e-03 3.487539242512e-03 0.0 
0.0 0.0 0.0 
7.053542977607e-04 5.799699938944e-03 0.0 
5.799699938944e-03 8.919866264330e-03 0.0 
0.0 0.0 0.0 
7.424896726279e-05 5.763900446623e-03 0.0 
5.763900446623e-03 9.492210409237e-03 0.0 
0.0 0.0 0.0 
-9.544899082955e-04 -3.518924471123e-04 0.0 
-3.518924471123e-04 5.027877876199e-03 0.0 
0.0 0.0 0.0 
-1.110724964082e-03 -3.975584088602e-04 0.0 
-3.975584088602e-04 4.780355608816e-03 0.0 
0.0 0.0 0.0 
-2.350153699639e-03 1.327800850955e-04 0.0 
1.327800850955e-04 1.562590120525e-02 0.0 
0.0 0.0 0.0 
-2.298893101849e-03 8.979605811549e-05 0.0 
8.979605811549e-05 1.559514500539e-02 0.0 
0.0 0.0 0.0 
-2.264681789911e-03 1.730039405536e-04 0.0 
1.730039405536e-04 1.594069990403e-02 0.0 
0.0 0.0 0.0 
-2.229507219195e-03 1.140991629107e-04 0.0 
1.140991629107e-04 1.589114674584e-02 0.0 
0.0 0.0 0.0 
-2.154170444102e-03 1.984082680587e-04 0.0 
1.984082680587e-04 1.620872962689e-02 0.0 
0.0 0.0 0.0 
-2.130734616465e-03 1.186891222556e-04 0.0 
1.186891222556e-04 1.615238994980e-02 0.0 
0.0 0.0 0.0 
-2.016770921360e-03 2.050141990596e-04 0.0 
2.050141990596e-04 1.645016312457e-02 0.0 
0.0 0.0 0.0 
1.040417642700e-03 4.604505851954e-03 0.0 
4.604505851954e-03 6.801607393951e-03 0.0 
0.0 0.0 0.0 
3.971373940307e-04 7.534740351828e-03 0.0 
7.534740351828e-03 1.744754010698e-03 0.0 
0.0 0.0 0.0 
-2.950097759653e-03 4.625595845761e-03 0.0 
4.625595845761e-03 1.115487723880e-02 0.0 
0.0 0.0 0.0 
1.574913637340e-03 2.671908297151e-03 0.0 
2.671908297151e-03 4.177101455321e-03 0.0 
0.0 0.0 0.0 
2.049709003159e-03 2.273070384456e-03 0.0 
2.273070384456e-03 3.196583242547e-03 0.0 
0.0 0.0 0.0 
-1.509498636431e-03 4.981327641627e-03 0.0 
4.981327641627e-03 7.260041534001e-03 0.0 
0.0 0.0 0.0 
-1.304930007181e-03 5.263467551250e-03 0.0 
5.263467551250e-03 7.176450561633e-03 0.0 
0.0 0.0 0.0 
8.891590909377e-04 -3.776478678442e-04 0.0 
-3.776478678442e-04 3.227373577492e-03 0.0 
0.0 0.0 0.0 
4.179090290528e-03 5.535591897277e-03 0.0 
5.535591897277e-03 -1.993257152082e-03 0.0 
0.0 0.0 0.0 
-7.162712688968e-04 2.983783585466e-03 0.0 
2.983783585466e-03 1.646384935018e-02 0.0 
0.0 0.0 0.0 
2.705143692754e-03 4.572522141318e-03 0.0 
4.572522141318e-03 -6.121764408442e-03 0.0 
0.0 0.0 0.0 
4.525418830095e-03 4.835736892588e-03 0.0 
4.835736892588e-03 -7.667664967513e-03 0.0 
0.0 0.0 0.0 
3.205928646438e-03 5.542998543783e-03 0.0 
5.542998543783e-03 -6.463410873626e-04 0.0 
0.0 0.0 0.0 
-1.619758225973e-03 4.824159403428e-03 0.0 
4.824159403428e-03 7.468511614403e-03 0.0 
0.0 0.0 0.0 
2.955697306303e-04 5.724762335997e-03 0.0 
5.724762335997e-03 3.079104477836e-03 0.0 
0.0 0.0 0.0 
-2.832511601014e-04 5.521596960372e-03 0.0 
5.521596960372e-03 4.122660120958e-03 0.0 
0.0 0.0 0.0 
3.259802205680e-03 -3.701235097880e-04 0.0 
-3.701235097880e-04 -5.609519848813e-04 0.0 
0.0 0.0 0.0 
3.144375610162e-04 -1.190448798353e-03 0.0 
-1.190448798353e-03 6.282425692451e-04 0.0 
0.0 0.0 0.0 
2.211910326021e-03 8.521450865905e-03 0.0 
8.521450865905e-03 -1.024788250508e-03 0.0 
0.0 0.0 0.0 
-2.055405057013e-03 3.249083915237e-04 0.0 
3.249083915237e-04 1.649276037493e-02 0.0 
0.0 0.0 0.0 
1.017746728697e-03 9.209795420425e-03 0.0 
9.209795420425e-03 5.423399743406e-05 0.0 
0.0 0.0 0.0 
-1.083798465069e-03 -1.887065679679e-04 0.0 
-1.887065679679e-04 4.994797210656e-03 0.0 
0.0 0.0 0.0 
5.572640269602e-03 4.996530724449e-03 0.0 
4.996530724449e-03 -3.342492646194e-03 0.0 
0.0 0.0 0.0 
-5.220210402803e-04 5.131614519041e-03 0.0 
5.131614519041e-03 5.566676518690e-03 0.0 
0.0 0.0 0.0 
3.109377300023e-03 7.781349478444e-03 0.0 
7.781349478444e-03 -1.750151744474e-03 0.0 
0.0 0.0 0.0 
1.783278784203e-03 6.071101055288e-03 0.0 
6.071101055288e-03 6.570088264533e-04 0.0 
0.0 0.0 0.0 
-2.539653783870e-03 4.476599805721e-03 0.0 
4.476599805721e-03 1.135134015669e-02 0.0 
0.0 0.0 0.0 
-3.460028751709e-03 3.729879072261e-03 0.0 
3.729879072261e-03 1.301229100902e-02 0.0 
0.0 0.0 0.0 
-3.404556556754e-03 3.989096288530e-03 0.0 
3.989096288530e-03 1.217916568775e-02 0.0 
0.0 0.0 0.0 
7.062793409193e-03 4.165653739727e-03 0.0 
4.165653739727e-03 -4.738070885028e-03 0.0 
0.0 0.0 0.0 
-6.852778118549e-04 5.355331209473e-03 0.0 
5.355331209473e-03 5.180071221166e-03 0.0 
0.0 0.0 0.0 
-7.572689411761e-04 5.527811949876e-03 0.0 
5.527811949876e-03 5.305258474436e-03 0.0 
0.0 0.0 0.0 
-1.596513144113e-03 5.002608537883e-03 0.0 
5.002608537883e-03 8.670796120435e-03 0.0 
0.0 0.0 0.0 
-2.231780850935e-03 3.749320166458e-03 0.0 
3.749320166458e-03 1.484548803720e-02 0.0 
0.0 0.0 0.0 
-1.907125600889e-03 4.167767450785e-03 0.0 
4.167767450785e-03 1.428428459035e-02 0.0 
0.0 0.0 0.0 
-1.446089352001e-03 4.431327794858e-03 0.0 
4.431327794858e-03 1.425207089521e-02 0.0 
0.0 0.0 0.0 
-1.575604591889e-03 4.551165800070e-03 0.0 
4.551165800070e-03 1.367544082555e-02 0.0 
0.0 0.0 0.0 
-1.989981733807e-03 4.314937044513e-03 0.0 
4.314937044513e-03 1.366987235618e-02 0.0 
0.0 0.0 0.0 
-1.630445170509e-03 4.664799651266e-03 0.0 
4.664799651266e-03 1.301993605650e-02 0.0 
0.0 0.0 0.0 
-1.225889522535e-03 4.898199405948e-03 0.0 
4.898199405948e-03 1.306585545304e-02 0.0 
0.0 0.0 0.0 
-1.263796739883e-03 4.996851136011e-03 0.0 
4.996851136011e-03 1.235262692209e-02 0.0 
0.0 0.0 0.0 
-8.544314452971e-04 5.305012902794e-03 0.0 
5.305012902794e-03 1.246247244638e-02 0.0 
0.0 0.0 0.0 
-9.240592854348e-04 5.297129494747e-03 0.0 
5.297129494747e-03 1.167044756766e-02 0.0 
0.0 0.0 0.0 
-1.239315226632e-03 5.069139499430e-03 0.0 
5.069139499430e-03 1.158417266837e-02 0.0 
0.0 0.0 0.0 
-8.961473751277e-04 5.309968897177e-03 0.0 
5.309968897177e-03 1.091227263977e-02 0.0 
0.0 0.0 0.0 
-6.387470882827e-04 5.568042595473e-03 0.0 
5.568042595473e-03 1.097672439565e-02 0.0 
0.0 0.0 0.0 
-1.186433505355e-03 5.142867154015e-03 0.0 
5.142867154015e-03 1.079805775028e-02 0.0 
0.0 0.0 0.0 
1.094638536632e-03 3.083770162890e-03 0.0 
3.083770162890e-03 5.089984488774e-03 0.0 
0.0 0.0 0.0 
3.438274835834e-03 5.288247859383e-03 0.0 
5.288247859383e-03 -5.374534203742e-04 0.0 
0.0 0.0 0.0 
4.447138394650e-03 2.071639306513e-03 0.0 
2.071639306513e-03 -7.907368416210e-03 0.0 
0.0 0.0 0.0 
5.216769267795e-03 8.724766051726e-03 0.0 
8.724766051726e-03 -7.478343059481e-03 0.0 
0.0 0.0 0.0 
-9.079160844654e-04 5.129282475498e-03 0.0 
5.129282475498e-03 6.620976071267e-03 0.0 
0.0 0.0 0.0 
-4.801472528859e-04 5.566068719471e-03 0.0 
5.566068719471e-03 1.289178578495e-02 0.0 
0.0 0.0 0.0 
-6.192434303096e-04 4.900997385434e-03 0.0 
4.900997385434e-03 1.432139560852e-02 0.0 
0.0 0.0 0.0 
6.209047892495e-03 5.079424044634e-03 0.0 
5.079424044634e-03 -4.764653382144e-03 0.0 
0.0 0.0 0.0 
3.859154120786e-04 5.632095367061e-03 0.0 
5.632095367061e-03 9.499605060659e-03 0.0 
0.0 0.0 0.0 
-2.869510313047e-03 4.309093776932e-03 0.0 
4.309093776932e-03 1.132215992577e-02 0.0 
0.0 0.0 0.0 
6.335810946163e-03 3.281116619366e-03 0.0 
3.281116619366e-03 -6.822190544189e-03 0.0 
0.0 0.0 0.0 
4.132759728577e-04 5.105932053859e-03 0.0 
5.105932053859e-03 8.525645462827e-03 0.0 
0.0 0.0 0.0 
-2.342129075367e-03 3.924249999842e-03 0.0 
3.924249999842e-03 1.429553309599e-02 0.0 
0.0 0.0 0.0 
-2.392698215085e-03 4.100507591646e-03 0.0 
4.100507591646e-03 1.367027435913e-02 0.0 
0.0 0.0 0.0 
-2.747729885872e-03 3.691607266749e-03 0.0 
3.691607266749e-03 1.431426905417e-02 0.0 
0.0 0.0 0.0 
-6.333502263257e-04 4.207573124842e-03 0.0 
4.207573124842e-03 1.534225105686e-02 0.0 
0.0 0.0 0.0 
-3.152417794284e-03 1.452378391909e-03 0.0 
1.452378391909e-03 1.611619384589e-02 0.0 
0.0 0.0 0.0 
5.352002631734e-04 3.942642017980e-03 0.0 
3.942642017980e-03 6.623542632299e-03 0.0 
0.0 0.0 0.0 
6.303447570214e-03 2.892065516578e-03 0.0 
2.892065516578e-03 -2.973304908706e-03 0.0 
0.0 0.0 0.0 
6.793922679909e-03 3.660269839911e-03 0.0 
3.660269839911e-03 -3.354938742586e-03 0.0 
0.0 0.0 0.0 
7.593592957915e-03 3.699832302739e-03 0.0 
3.699832302739e-03 -4.446085033537e-03 0.0 
0.0 0.0 0.0 
-1.625977970221e-03 4.772871392013e-03 0.0 
4.772871392013e-03 1.229269301485e-02 0.0 
0.0 0.0 0.0 
7.280599381751e-04 2.330299066714e-03 0.0 
2.330299066714e-03 4.873079494889e-03 0.0 
0.0 0.0 0.0 
1.401242843893e-03 1.920010449440e-03 0.0 
1.920010449440e-03 3.852682933258e-03 0.0 
0.0 0.0 0.0 
1.393314082928e-03 1.510689276988e-03 0.0 
1.510689276988e-03 3.588008729630e-03 0.0 
0.0 0.0 0.0 
2.102831355889e-03 1.556351916014e-03 0.0 
1.556351916014e-03 2.682039574434e-03 0.0 
0.0 0.0 0.0 
7.167681163626e-04 1.465041524052e-03 0.0 
1.465041524052e-03 4.315859658960e-03 0.0 
0.0 0.0 0.0 
-8.822143964476e-05 6.001880587239e-03 0.0 
6.001880587239e-03 1.136427766566e-02 0.0 
0.0 0.0 0.0 
1.991492545383e-04 5.993487875531e-03 0.0 
5.993487875531e-03 1.064836269953e-02 0.0 
0.0 0.0 0.0 
3.109094324914e-03 -3.296699368193e-03 0.0 
-3.296699368193e-03 -3.055570119097e-03 0.0 
0.0 0.0 0.0 
4.468322436198e-03 -3.066682246776e-03 0.0 
-3.066682246776e-03 -4.096435692742e-03 0.0 
0.0 0.0 0.0 
4.445608424421e-03 -2.613807729954e-03 0.0 
-2.613807729954e-03 -3.958382232954e-03 0.0 
0.0 0.0 0.0 
5.908928427941e-03 -2.519632733653e-03 0.0 
-2.519632733653e-03 -5.151383812729e-03 0.0 
0.0 0.0 0.0 
5.856894592031e-03 -3.048763633291e-03 0.0 
-3.048763633291e-03 -5.320241943328e-03 0.0 
0.0 0.0 0.0 
7.131383375570e-03 -2.041217879102e-03 0.0 
-2.041217879102e-03 -6.235238316907e-03 0.0 
0.0 0.0 0.0 
7.253225051516e-03 -1.619729334522e-03 0.0 
-1.619729334522e-03 -6.059084946278e-03 0.0 
0.0 0.0 0.0 
7.626679084541e-03 -9.298694931064e-04 0.0 
-9.298694931064e-04 -6.821444163773e-03 0.0 
0.0 0.0 0.0 
-4.262999197748e-04 5.500660942036e-03 0.0 
5.500660942036e-03 9.482956935421e-03 0.0 
0.0 0.0 0.0 
6.339728956325e-04 6.423071874443e-04 0.0 
6.423071874443e-04 3.963041416008e-03 0.0 
0.0 0.0 0.0 
1.660366373304e-03 -1.861435855233e-03 0.0 
-1.861435855233e-03 -1.548302149734e-05 0.0 
0.0 0.0 0.0 
2.193990266245e-03 -1.816579333378e-03 0.0 
-1.816579333378e-03 -8.381716358252e-04 0.0 
0.0 0.0 0.0 
2.223858382786e-03 -2.008528176615e-03 0.0 
-2.008528176615e-03 -1.205073998192e-03 0.0 
0.0 0.0 0.0 
-6.175257776776e-04 -1.947233376729e-03 0.0 
-1.947233376729e-03 2.213014945183e-03 0.0 
0.0 0.0 0.0 
-3.218546705237e-04 -2.113440645383e-03 0.0 
-2.113440645383e-03 1.888757321469e-03 0.0 
0.0 0.0 0.0 
-3.043296991226e-04 -2.004501271275e-03 0.0 
-2.004501271275e-03 2.121402580412e-03 0.0 
0.0 0.0 0.0 
-8.508982189209e-04 -1.730373029688e-03 0.0 
-1.730373029688e-03 2.475965516969e-03 0.0 
0.0 0.0 0.0 
3.192055795270e-03 5.347172034547e-03 0.0 
5.347172034547e-03 2.657794108437e-03 0.0 
0.0 0.0 0.0 
5.805792762800e-04 2.570581606357e-04 0.0 
2.570581606357e-04 3.883267407341e-03 0.0 
0.0 0.0 0.0 
5.168904891469e-03 5.113239711446e-05 0.0 
5.113239711446e-05 -3.091476025024e-03 0.0 
0.0 0.0 0.0 
2.179159678967e-05 -2.328364460056e-03 0.0 
-2.328364460056e-03 1.308541464894e-03 0.0 
0.0 0.0 0.0 
-3.371504980511e-03 8.118155475364e-04 0.0 
8.118155475364e-04 1.533541290753e-02 0.0 
0.0 0.0 0.0 
-3.660193841271e-03 1.504586446460e-03 0.0 
1.504586446460e-03 1.554482411701e-02 0.0 
0.0 0.0 0.0 
-3.946560688233e-03 2.105315756602e-03 0.0 
2.105315756602e-03 1.526993202538e-02 0.0 
0.0 0.0 0.0 
-3.638377962124e-03 2.267706969771e-03 0.0 
2.267706969771e-03 1.543385062191e-02 0.0 
0.0 0.0 0.0 
-3.411770193825e-03 1.112232723561e-03 0.0 
1.112232723561e-03 1.566340717906e-02 0.0 
0.0 0.0 0.0 
-1.047086296771e-03 -1.356520621075e-03 0.0 
-1.356520621075e-03 3.352422293723e-03 0.0 
0.0 0.0 0.0 
-1.193180378856e-03 -1.082424898072e-03 0.0 
-1.082424898072e-03 3.726286358461e-03 0.0 
0.0 0.0 0.0 
-1.368268914172e-03 -8.867465935261e-04 0.0 
-8.867465935261e-04 3.820922885584e-03 0.0 
0.0 0.0 0.0 
-1.295652694510e-03 -8.090914167055e-04 0.0 
-8.090914167055e-04 4.041614214010e-03 0.0 
0.0 0.0 0.0 
-1.443881288391e-03 -6.132124184384e-04 0.0 
-6.132124184384e-04 4.077294759800e-03 0.0 
0.0 0.0 0.0 
-1.490972616046e-03 -6.744895823373e-04 0.0 
-6.744895823373e-04 3.871343959800e-03 0.0 
0.0 0.0 0.0 
-1.363588156295e-03 -5.354777027755e-04 0.0 
-5.354777027755e-04 4.303866542624e-03 0.0 
0.0 0.0 0.0 
-1.486063157956e-03 -3.555511340179e-04 0.0 
-3.555511340179e-04 4.260412799343e-03 0.0 
0.0 0.0 0.0 
-2.925643728184e-03 4.051456992985e-04 0.0 
4.051456992985e-04 1.532183864299e-02 0.0 
0.0 0.0 0.0 
2.404099952430e-04 -3.416480396912e-03 0.0 
-3.416480396912e-03 -1.859904294704e-03 0.0 
0.0 0.0 0.0 
5.384991567530e-04 -4.190480470461e-03 0.0 
-4.190480470461e-03 -1.361926296848e-03 0.0 
0.0 0.0 0.0 
-1.249218543390e-05 -2.383503652899e-03 0.0 
-2.383503652899e-03 1.716270468039e-04 0.0 
0.0 0.0 0.0 
6.346039104138e-04 -3.832678449732e-03 0.0 
-3.832678449732e-03 -9.450077028691e-04 0.0 
0.0 0.0 0.0 
2.281511887032e-03 -4.904331332927e-03 0.0 
-4.904331332927e-03 -3.256876514164e-03 0.0 
0.0 0.0 0.0 
2.026379693150e-03 -4.274134340266e-03 0.0 
-4.274134340266e-03 -2.470363211482e-03 0.0 
0.0 0.0 0.0 
3.764325884109e-03 -4.826419672293e-03 0.0 
-4.826419672293e-03 -4.495267339293e-03 0.0 
0.0 0.0 0.0 
2.058027019998e-03 -4.762486988854e-03 0.0 
-4.762486988854e-03 -4.129357305351e-03 0.0 
0.0 0.0 0.0 
7.722649825132e-04 -5.784708197476e-04 0.0 
-5.784708197476e-04 -8.107073498094e-05 0.0 
0.0 0.0 0.0 
1.659480137181e-04 -1.330762618085e-03 0.0 
-1.330762618085e-03 3.928942173966e-04 0.0 
0.0 0.0 0.0 
8.708173768644e-04 -3.150302309467e-04 0.0 
-3.150302309467e-04 -1.378444740056e-04 0.0 
0.0 0.0 0.0 
4.828584464108e-04 -8.996930092530e-04 0.0 
-8.996930092530e-04 2.906361783753e-04 0.0 
0.0 0.0 0.0 
1.479835937104e-04 -1.941906310701e-03 0.0 
-1.941906310701e-03 4.657679829138e-04 0.0 
0.0 0.0 0.0 
9.062269907053e-05 -1.563655828737e-03 0.0 
-1.563655828737e-03 8.878512968402e-04 0.0 
0.0 0.0 0.0 
-2.313795796675e-04 -5.371337438367e-04 0.0 
-5.371337438367e-04 5.587762603686e-03 0.0 
0.0 0.0 0.0 
-1.565151636000e-03 -2.601822898313e-04 0.0 
-2.601822898313e-04 3.677507918369e-03 0.0 
0.0 0.0 0.0 
-1.487961378192e-03 -5.063568874559e-04 0.0 
-5.063568874559e-04 3.488097322606e-03 0.0 
0.0 0.0 0.0 
-1.353757842664e-03 -4.772360877164e-04 0.0 
-4.772360877164e-04 3.223666277894e-03 0.0 
0.0 0.0 0.0 
-1.356641012559e-03 -7.619327021687e-04 0.0 
-7.619327021687e-04 3.237674445497e-03 0.0 
0.0 0.0 0.0 
-1.550867337519e-03 -4.979123767125e-04 0.0 
-4.979123767125e-04 3.722744550339e-03 0.0 
0.0 0.0 0.0 
-1.268518207051e-03 -2.235420042651e-04 0.0 
-2.235420042651e-04 3.107235998754e-03 0.0 
0.0 0.0 0.0 
-1.133239032206e-03 -4.295064785439e-04 0.0 
-4.295064785439e-04 2.923256611763e-03 0.0 
0.0 0.0 0.0 
2.698671502586e-03 -9.272411608522e-05 0.0 
-9.272411608522e-05 -8.883530040744e-04 0.0 
0.0 0.0 0.0 
2.121509834138e-03 -1.249466449453e-04 0.0 
-1.249466449453e-04 -3.485638734107e-04 0.0 
0.0 0.0 0.0 
2.268443222103e-03 -2.817251531024e-05 0.0 
-2.817251531024e-05 -4.550611700383e-04 0.0 
0.0 0.0 0.0 
1.528371547983e-03 -1.123944269136e-04 0.0 
-1.123944269136e-04 1.646675546479e-04 0.0 
0.0 0.0 0.0 
1.428830922579e-03 -1.742854316133e-04 0.0 
-1.742854316133e-04 2.323086310250e-04 0.0 
0.0 0.0 0.0 
1.973431417360e-03 -1.779103995532e-04 0.0 
-1.779103995532e-04 -2.730325942043e-04 0.0 
0.0 0.0 0.0 
1.839004006607e-03 -2.432527842365e-04 0.0 
-2.432527842365e-04 -2.114565149289e-04 0.0 
0.0 0.0 0.0 
2.431688410714e-03 -1.685572746166e-04 0.0 
-1.685572746166e-04 -7.660745905940e-04 0.0 
0.0 0.0 0.0 
1.663100721807e-03 -3.162401891490e-04 0.0 
-3.162401891490e-04 -1.312524930588e-04 0.0 
0.0 0.0 0.0 
1.118852662711e-03 -3.447456818967e-04 0.0 
-3.447456818967e-04 4.057311028685e-04 0.0 
0.0 0.0 0.0 
2.245363528777e-03 -2.202022652689e-04 0.0 
-2.202022652689e-04 -7.015230352579e-04 0.0 
0.0 0.0 0.0 
-1.694744493986e-03 1.142840015790e-04 0.0 
1.142840015790e-04 1.679327920776e-02 0.0 
0.0 0.0 0.0 
-1.556438069656e-03 2.596040700117e-04 0.0 
2.596040700117e-04 1.692006646257e-02 0.0 
0.0 0.0 0.0 
4.199069183335e-04 -3.749564790438e-04 0.0 
-3.749564790438e-04 4.024122947651e-03 0.0 
0.0 0.0 0.0 
-2.659087485040e-03 2.419924998883e-04 0.0 
2.419924998883e-04 1.534263030058e-02 0.0 
0.0 0.0 0.0 
1.424096184971e-03 -3.047635491061e-04 0.0 
-3.047635491061e-04 -3.304727237607e-04 0.0 
0.0 0.0 0.0 
-5.373248295193e-04 1.060596452955e-03 0.0 
1.060596452955e-03 1.728357544454e-02 0.0 
0.0 0.0 0.0 
-5.602762875696e-04 1.960478229392e-03 0.0 
1.960478229392e-03 1.703260799015e-02 0.0 
0.0 0.0 0.0 
-5.010438920496e-04 1.662960646133e-03 0.0 
1.662960646133e-03 1.714580777572e-02 0.0 
0.0 0.0 0.0 
-7.031997555814e-04 -1.493299175583e-04 0.0 
-1.493299175583e-04 5.486888848218e-03 0.0 
0.0 0.0 0.0 
-5.646229901238e-04 -2.804827589407e-04 0.0 
-2.804827589407e-04 5.547492718051e-03 0.0 
0.0 0.0 0.0 
-4.715641643152e-04 5.953746346976e-04 0.0 
5.953746346976e-04 1.735576451870e-02 0.0 
0.0 0.0 0.0 
-1.962375042370e-04 -1.997175521845e-03 0.0 
-1.997175521845e-03 1.318176718030e-03 0.0 
0.0 0.0 0.0 
-1.164605742760e-03 4.837595074468e-03 0.0 
4.837595074468e-03 1.367536615689e-02 0.0 
0.0 0.0 0.0 
-1.344646032986e-03 1.031327895508e-03 0.0 
1.031327895508e-03 1.711278873503e-02 0.0 
0.0 0.0 0.0 
6.146862705884e-03 5.961309783006e-03 0.0 
5.961309783006e-03 -6.354819804426e-03 0.0 
0.0 0.0 0.0 
5.331970620991e-04 -2.711757985261e-03 0.0 
-2.711757985261e-03 1.435998403407e-04 0.0 
0.0 0.0 0.0 
-1.084854019719e-03 -6.240246620927e-04 0.0 
-6.240246620927e-04 4.524435250141e-03 0.0 
0.0 0.0 0.0 
-1.961629558416e-04 -1.669289884363e-03 0.0 
-1.669289884363e-03 2.685809218058e-03 0.0 
0.0 0.0 0.0 
-5.523112759310e-04 -7.325444449791e-04 0.0 
-7.325444449791e-04 4.707189758902e-03 0.0 
0.0 0.0 0.0 
-8.805625300638e-04 -1.114025287471e-03 0.0 
-1.114025287471e-03 3.840897950400e-03 0.0 
0.0 0.0 0.0 
-2.718804154670e-04 -1.072030552857e-03 0.0 
-1.072030552857e-03 3.866686078660e-03 0.0 
0.0 0.0 0.0 
1.382673216603e-03 1.026983895781e-03 0.0 
1.026983895781e-03 3.283718681626e-03 0.0 
0.0 0.0 0.0 
3.829961889489e-04 -2.895862300834e-04 0.0 
-2.895862300834e-04 1.222700245594e-03 0.0 
0.0 0.0 0.0 
-2.580361245844e-03 7.368869462876e-04 0.0 
7.368869462876e-04 1.633379253061e-02 0.0 
0.0 0.0 0.0 
-2.323702212834e-03 3.677591493819e-04 0.0 
3.677591493819e-04 1.620416834621e-02 0.0 
0.0 0.0 0.0 
-1.953054336783e-03 9.259274449931e-04 0.0 
9.259274449931e-04 1.685327221233e-02 0.0 
0.0 0.0 0.0 
-7.046312118809e-04 -1.302754756335e-03 0.0 
-1.302754756335e-03 2.165935862902e-03 0.0 
0.0 0.0 0.0 
-1.396858311094e-03 -9.465454560157e-04 0.0 
-9.465454560157e-04 3.607774993682e-03 0.0 
0.0 0.0 0.0 
3.648133226064e-05 -9.663210552841e-04 0.0 
-9.663210552841e-04 1.244726080628e-03 0.0 
0.0 0.0 0.0 
8.491089645863e-04 5.244822544126e-03 0.0 
5.244822544126e-03 7.971121158303e-03 0.0 
0.0 0.0 0.0 
-1.806927833368e-03 4.878050859654e-03 0.0 
4.878050859654e-03 8.581735441754e-03 0.0 
0.0 0.0 0.0 
1.770311190135e-03 -2.284995959180e-03 0.0 
-2.284995959180e-03 -7.777924103973e-04 0.0 
0.0 0.0 0.0 
-5.895554544480e-04 -1.971687301857e-03 0.0 
-1.971687301857e-03 2.025480768187e-03 0.0 
0.0 0.0 0.0 
2.003786666671e-05 -2.331351094293e-03 0.0 
-2.331351094293e-03 1.000352933504e-03 0.0 
0.0 0.0 0.0 
8.323958685530e-04 -2.949380952505e-03 0.0 
-2.949380952505e-03 -3.719317066987e-04 0.0 
0.0 0.0 0.0 
2.509629788307e-03 5.366008946060e-03 0.0 
5.366008946060e-03 8.960534331013e-04 0.0 
0.0 0.0 0.0 
4.097210907623e-04 -2.397729298604e-03 0.0 
-2.397729298604e-03 8.760658049063e-04 0.0 
0.0 0.0 0.0 
8.135172215743e-04 -1.442176385250e-03 0.0 
-1.442176385250e-03 1.991827505170e-03 0.0 
0.0 0.0 0.0 
-1.703202239648e-03 8.653202301044e-04 0.0 
8.653202301044e-04 1.696631917957e-02 0.0 
0.0 0.0 0.0 
1.630113913691e-03 -2.971541345774e-04 0.0 
-2.971541345774e-04 -4.151596996447e-04 0.0 
0.0 0.0 0.0 
1.127169115515e-03 -1.226300161273e-03 0.0 
-1.226300161273e-03 1.828076108134e-03 0.0 
0.0 0.0 0.0 
4.203461837811e-04 -2.067137255970e-03 0.0 
-2.067137255970e-03 1.436885572853e-03 0.0 
0.0 0.0 0.0 
-2.929711225947e-03 1.400376929722e-03 0.0 
1.400376929722e-03 1.630943677133e-02 0.0 
0.0 0.0 0.0 
3.564761921274e-03 2.152846645766e-03 0.0 
2.152846645766e-03 7.573745986784e-04 0.0 
0.0 0.0 0.0 
1.199040298426e-03 -3.633261788006e-03 0.0 
-3.633261788006e-03 -1.359473714733e-03 0.0 
0.0 0.0 0.0 
-2.138597812838e-03 1.597220711872e-03 0.0 
1.597220711872e-03 1.677842123500e-02 0.0 
0.0 0.0 0.0 
-1.536917251855e-03 3.237368845246e-03 0.0 
3.237368845246e-03 1.604204668068e-02 0.0 
0.0 0.0 0.0 
-3.363510796380e-03 1.541381556195e-03 0.0 
1.541381556195e-03 1.591545031896e-02 0.0 
0.0 0.0 0.0 
4.323107852630e-04 -7.007544406623e-04 0.0 
-7.007544406623e-04 8.525845699191e-04 0.0 
0.0 0.0 0.0 
-2.645141592287e-03 4.908976286975e-04 0.0 
4.908976286975e-04 1.600767080887e-02 0.0 
0.0 0.0 0.0 
1.298564222571e-03 -2.269793706968e-04 0.0 
-2.269793706968e-04 2.585314613201e-03 0.0 
0.0 0.0 0.0 
-2.516150036200e-03 3.297895211611e-03 0.0 
3.297895211611e-03 1.534752104704e-02 0.0 
0.0 0.0 0.0 
-6.437781384329e-04 -9.804491527539e-04 0.0 
-9.804491527539e-04 2.164829330121e-03 0.0 
0.0 0.0 0.0 
7.016033671465e-03 4.485680427016e-04 0.0 
4.485680427016e-04 -5.054878306892e-03 0.0 
0.0 0.0 0.0 
6.041875354880e-05 5.179244395885e-03 0.0 
5.179244395885e-03 4.628753444689e-03 0.0 
0.0 0.0 0.0 
-3.901131651224e-03 4.819434463794e-03 0.0 
4.819434463794e-03 1.355745028128e-02 0.0 
0.0 0.0 0.0 
-1.222483477223e-03 1.298534445264e-03 0.0 
1.298534445264e-03 1.711630048986e-02 0.0 
0.0 0.0 0.0 
5.534946138801e-03 4.718587924483e-03 0.0 
4.718587924483e-03 -1.858689681102e-03 0.0 
0.0 0.0 0.0 
2.908224129658e-03 1.383427842664e-03 0.0 
1.383427842664e-03 1.323417147410e-03 0.0 
0.0 0.0 0.0 
5.236539720950e-03 8.266433297108e-04 0.0 
8.266433297108e-04 -2.610629256008e-03 0.0 
0.0 0.0 0.0 
-8.462435927018e-04 -8.301439803513e-04 0.0 
-8.301439803513e-04 2.470950903149e-03 0.0 
0.0 0.0 0.0 
4.766005818075e-04 -1.096847481790e-03 0.0 
-1.096847481790e-03 3.077415301996e-03 0.0 
0.0 0.0 0.0 
8.416131401112e-03 2.967344977347e-03 0.0 
2.967344977347e-03 -5.637662471529e-03 0.0 
0.0 0.0 0.0 
-1.745521133421e-03 1.873783978708e-03 0.0 
1.873783978708e-03 1.686008710205e-02 0.0 
0.0 0.0 0.0 
7.252397997729e-04 5.507001636998e-03 0.0 
5.507001636998e-03 6.345916172742e-03 0.0 
0.0 0.0 0.0 
9.025576766725e-03 8.180790841284e-04 0.0 
8.180790841284e-04 -6.969055234916e-03 0.0 
0.0 0.0 0.0 
-2.236408274185e-03 2.516667109264e-03 0.0 
2.516667109264e-03 1.635461962997e-02 0.0 
0.0 0.0 0.0 
2.881367454204e-03 -1.789423249820e-03 0.0 
-1.789423249820e-03 -1.968067808611e-03 0.0 
0.0 0.0 0.0 
3.037772810374e-03 2.610389786809e-03 0.0 
2.610389786809e-03 1.864876949808e-03 0.0 
0.0 0.0 0.0 
-1.462594004912e-03 4.951997248485e-03 0.0 
4.951997248485e-03 7.569565699197e-03 0.0 
0.0 0.0 0.0 
-3.294986627389e-05 5.437154918481e-03 0.0 
5.437154918481e-03 6.052090325296e-03 0.0 
0.0 0.0 0.0 
-1.346346378939e-03 5.104651706104e-03 0.0 
5.104651706104e-03 9.853591785546e-03 0.0 
0.0 0.0 0.0 
2.132277970458e-03 5.372133442985e-03 0.0 
5.372133442985e-03 2.596887525457e-03 0.0 
0.0 0.0 0.0 
-1.254007914828e-03 -4.528881792825e-04 0.0 
-4.528881792825e-04 4.543889717447e-03 0.0 
0.0 0.0 0.0 
7.846361662149e-04 -1.173331514933e-03 0.0 
-1.173331514933e-03 2.473278302501e-03 0.0 
0.0 0.0 0.0 
5.387662360340e-03 -2.458819636306e-03 0.0 
-2.458819636306e-03 -6.529237973151e-03 0.0 
0.0 0.0 0.0 
2.033082419357e-03 5.723689582823e-03 0.0 
5.723689582823e-03 6.742520521507e-04 0.0 
0.0 0.0 0.0 
-3.181259282459e-03 1.950672103089e-03 0.0 
1.950672103089e-03 1.601875760430e-02 0.0 
0.0 0.0 0.0 
1.961687364757e-03 5.065204340461e-03 0.0 
5.065204340461e-03 5.492275036614e-03 0.0 
0.0 0.0 0.0 
-1.271522827031e-03 2.122130513177e-03 0.0 
2.122130513177e-03 1.689038080804e-02 0.0 
0.0 0.0 0.0 
-1.111711005115e-04 5.082357267770e-03 0.0 
5.082357267770e-03 4.518446758635e-03 0.0 
0.0 0.0 0.0 
2.134484816004e-04 -1.198560143725e-03 0.0 
-1.198560143725e-03 3.206901792835e-03 0.0 
0.0 0.0 0.0 
-1.753164030250e-03 2.811704404820e-03 0.0 
2.811704404820e-03 1.634691368473e-02 0.0 
0.0 0.0 0.0 
2.336019710893e-05 -2.217119963751e-03 0.0 
-2.217119963751e-03 1.519730760795e-03 0.0 
0.0 0.0 0.0 
4.604419012588e-05 -1.013639966162e-04 0.0 
-1.013639966162e-04 1.689440182546e-03 0.0 
0.0 0.0 0.0 
5.713347945897e-03 7.263262486191e-03 0.0 
7.263262486191e-03 -6.597767759769e-03 0.0 
0.0 0.0 0.0 
8.180238045403e-03 6.358988796246e-04 0.0 
6.358988796246e-04 -6.940772000164e-03 0.0 
0.0 0.0 0.0 
6.648740470564e-03 4.295319504349e-03 0.0 
4.295319504349e-03 -3.404127345002e-03 0.0 
0.0 0.0 0.0 
4.367102554642e-05 -2.070947128570e-03 0.0 
-2.070947128570e-03 1.784571953153e-03 0.0 
0.0 0.0 0.0 
-1.179315506270e-03 4.386569448422e-03 0.0 
4.386569448422e-03 1.470672144033e-02 0.0 
0.0 0.0 0.0 
-2.218670456631e-05 -1.057774586852e-03 0.0 
-1.057774586852e-03 3.739255834666e-03 0.0 
0.0 0.0 0.0 
2.562891220967e-03 -6.172928822847e-04 0.0 
-6.172928822847e-04 2.126176042093e-04 0.0 
0.0 0.0 0.0 
-1.087304037577e-03 1.098110589808e-02 0.0 
1.098110589808e-02 1.109959606584e-03 0.0 
0.0 0.0 0.0 
-3.491339169261e-03 4.345511051746e-03 0.0 
4.345511051746e-03 1.218703359441e-02 0.0 
0.0 0.0 0.0 
-2.111265877210e-04 -9.169667841607e-04 0.0 
-9.169667841607e-04 4.224500421532e-03 0.0 
0.0 0.0 0.0 
5.801532921912e-03 -1.577393042653e-04 0.0 
-1.577393042653e-04 -4.034569156975e-03 0.0 
0.0 0.0 0.0 
2.753270096580e-03 2.206064952108e-03 0.0 
2.206064952108e-03 2.042272027484e-03 0.0 
0.0 0.0 0.0 
-1.547261844440e-03 -4.214677554946e-04 0.0 
-4.214677554946e-04 4.062311369672e-03 0.0 
0.0 0.0 0.0 
9.290388694350e-04 4.949034774287e-03 0.0 
4.949034774287e-03 7.446079937634e-03 0.0 
0.0 0.0 0.0 
-1.634543387740e-03 5.142131703967e-03 0.0 
5.142131703967e-03 8.148290662976e-03 0.0 
0.0 0.0 0.0 
-3.484351073978e-04 -7.849159341023e-04 0.0 
-7.849159341023e-04 4.661064779482e-03 0.0 
0.0 0.0 0.0 
3.376165692181e-03 2.562421624669e-04 0.0 
2.562421624669e-04 -1.724648965405e-04 0.0 
0.0 0.0 0.0 
5.248426401881e-03 5.475270768613e-03 0.0 
5.475270768613e-03 -3.390514699390e-03 0.0 
0.0 0.0 0.0 
-2.304856538546e-03 4.108061794946e-05 0.0 
4.108061794946e-05 1.524077914499e-02 0.0 
0.0 0.0 0.0 
-2.374950259429e-04 -7.146720415594e-04 0.0 
-7.146720415594e-04 5.057183789104e-03 0.0 
0.0 0.0 0.0 
2.757469226918e-03 5.154991865218e-04 0.0 
5.154991865218e-04 9.759436801888e-04 0.0 
0.0 0.0 0.0 
2.627360146074e-03 5.387534055963e-03 0.0 
5.387534055963e-03 2.618880032795e-03 0.0 
0.0 0.0 0.0 
4.954743052217e-03 -8.827586279009e-04 0.0 
-8.827586279009e-04 -3.553427291717e-03 0.0 
0.0 0.0 0.0 
-2.607983690117e-03 5.095776705947e-03 0.0 
5.095776705947e-03 1.131318368107e-02 0.0 
0.0 0.0 0.0 
-2.605347825270e-04 -1.856307913013e-03 0.0 
-1.856307913013e-03 2.388702193179e-03 0.0 
0.0 0.0 0.0 
-4.086951448457e-04 5.412647745023e-03 0.0 
5.412647745023e-03 7.113898904432e-03 0.0 
0.0 0.0 0.0 
-6.138145666135e-04 3.836392831290e-03 0.0 
3.836392831290e-03 1.575860042278e-02 0.0 
0.0 0.0 0.0 
2.513353662091e-03 1.028947260246e-03 0.0 
1.028947260246e-03 1.675382402376e-03 0.0 
0.0 0.0 0.0 
-2.777071903359e-03 3.903493806999e-03 0.0 
3.903493806999e-03 1.368375694522e-02 0.0 
0.0 0.0 0.0 
-5.770675943909e-04 -1.766128178758e-03 0.0 
-1.766128178758e-03 2.668761353482e-03 0.0 
0.0 0.0 0.0 
4.884222275375e-03 3.869446049037e-03 0.0 
3.869446049037e-03 -3.541393203419e-04 0.0 
0.0 0.0 0.0 
1.293893007437e-03 -2.292589872211e-04 0.0 
-2.292589872211e-04 3.093669966319e-04 0.0 
0.0 0.0 0.0 
-2.464237935219e-03 4.808507888488e-03 0.0 
4.808507888488e-03 1.016199533679e-02 0.0 
0.0 0.0 0.0 
-7.993099830571e-04 -1.510121726567e-03 0.0 
-1.510121726567e-03 3.158528205415e-03 0.0 
0.0 0.0 0.0 
8.148185038275e-03 -7.498976537079e-04 0.0 
-7.498976537079e-04 -6.832599958320e-03 0.0 
0.0 0.0 0.0 
3.765176508381e-03 -1.276469887373e-03 0.0 
-1.276469887373e-03 -2.517014875421e-03 0.0 
0.0 0.0 0.0 
1.384869996566e-03 3.384744292252e-03 0.0 
3.384744292252e-03 5.046449253577e-03 0.0 
0.0 0.0 0.0 
-9.745016007747e-04 -1.245344575824e-03 0.0 
-1.245344575824e-03 3.588750670043e-03 0.0 
0.0 0.0 0.0 
8.347305498979e-03 -4.541334961568e-04 0.0 
-4.541334961568e-04 -6.706441588309e-03 0.0 
0.0 0.0 0.0 
-1.106351290436e-03 -9.796155855166e-04 0.0 
-9.796155855166e-04 3.961031982745e-03 0.0 
0.0 0.0 0.0 
-1.930605501268e-03 5.047736828642e-03 0.0 
5.047736828642e-03 9.392625736546e-03 0.0 
0.0 0.0 0.0 
-2.387467261890e-03 4.280098091204e-03 0.0 
4.280098091204e-03 1.297821010837e-02 0.0 
0.0 0.0 0.0 
-1.201394380389e-03 -7.146199777128e-04 0.0 
-7.146199777128e-04 4.284679225939e-03 0.0 
0.0 0.0 0.0 
-1.459001398717e-04 5.450367458178e-03 0.0 
5.450367458178e-03 7.301290960322e-03 0.0 
0.0 0.0 0.0 
9.020288173552e-04 -4.701552716131e-04 0.0 
-4.701552716131e-04 5.219691174177e-04 0.0 
0.0 0.0 0.0 
3.968231031278e-03 5.244828678953e-03 0.0 
5.244828678953e-03 1.290739504093e-03 0.0 
0.0 0.0 0.0 
-7.754877495590e-04 -3.071009641570e-04 0.0 
-3.071009641570e-04 5.287580128641e-03 0.0 
0.0 0.0 0.0 
7.722211722369e-04 -2.740800619133e-03 0.0 
-2.740800619133e-03 4.052350147116e-05 0.0 
0.0 0.0 0.0 
2.850208696955e-03 -1.615305593825e-03 0.0 
-1.615305593825e-03 -1.643894231507e-03 0.0 
0.0 0.0 0.0 
-2.012866845001e-03 4.460865508979e-03 0.0 
4.460865508979e-03 1.299181750033e-02 0.0 
0.0 0.0 0.0 
-1.560025768448e-03 5.082928534144e-03 0.0 
5.082928534144e-03 7.738199062156e-03 0.0 
0.0 0.0 0.0 
2.880475966539e-03 -1.373087318156e-03 0.0 
-1.373087318156e-03 -1.240806382503e-03 0.0 
0.0 0.0 0.0 
2.195461572562e-04 5.489707407352e-03 0.0 
5.489707407352e-03 7.476672824277e-03 0.0 
0.0 0.0 0.0 
4.494406952923e-03 4.852357544603e-03 0.0 
4.852357544603e-03 6.996630188688e-04 0.0 
0.0 0.0 0.0 
6.640087496766e-03 4.283360088213e-03 0.0 
4.283360088213e-03 -3.038925283257e-03 0.0 
0.0 0.0 0.0 
2.819675890688e-03 -9.959441655084e-04 0.0 
-9.959441655084e-04 -6.081650614113e-04 0.0 
0.0 0.0 0.0 
-1.019127898279e-03 5.402067439935e-03 0.0 
5.402067439935e-03 6.254264533835e-03 0.0 
0.0 0.0 0.0 
8.531919910922e-06 -2.175538348507e-03 0.0 
-2.175538348507e-03 9.758127422231e-04 0.0 
0.0 0.0 0.0 
2.217363550759e-05 -1.915925173564e-03 0.0 
-1.915925173564e-03 9.489872630239e-04 0.0 
0.0 0.0 0.0 
7.105468972186e-03 -1.171127282579e-03 0.0 
-1.171127282579e-03 -5.709724811591e-03 0.0 
0.0 0.0 0.0 
-1.771436296270e-04 5.490994176281e-03 0.0 
5.490994176281e-03 8.536668441451e-03 0.0 
0.0 0.0 0.0 
8.772853798618e-04 -1.559661249802e-04 0.0 
-1.559661249802e-04 7.633485244890e-04 0.0 
0.0 0.0 0.0 
-1.580553649386e-03 4.888374493082e-03 0.0 
4.888374493082e-03 1.152214028453e-02 0.0 
0.0 0.0 0.0 
1.352530496156e-04 -1.665207561813e-03 0.0 
-1.665207561813e-03 7.445582617616e-04 0.0 
0.0 0.0 0.0 
5.796634951351e-03 -2.042198950433e-03 0.0 
-2.042198950433e-03 -4.869618355603e-03 0.0 
0.0 0.0 0.0 
3.254416501933e-03 3.943650867405e-03 0.0 
3.943650867405e-03 2.411101202453e-03 0.0 
0.0 0.0 0.0 
-2.075182881298e-03 5.838379411552e-05 0.0 
5.838379411552e-05 1.624860569695e-02 0.0 
0.0 0.0 0.0 
4.302507126350e-03 -2.233777810902e-03 0.0 
-2.233777810902e-03 -3.670668894672e-03 0.0 
0.0 0.0 0.0 
-5.280482399525e-04 -1.480957412308e-04 0.0 
-1.480957412308e-04 2.266193479652e-03 0.0 
0.0 0.0 0.0 
3.187918303198e-03 -2.620429729513e-03 0.0 
-2.620429729513e-03 -2.890628347155e-03 0.0 
0.0 0.0 0.0 
5.982831675520e-03 4.184867444536e-03 0.0 
4.184867444536e-03 -1.993978063771e-03 0.0 
0.0 0.0 0.0 
2.316572372037e-03 -2.620468582592e-03 0.0 
-2.620468582592e-03 -1.911952256340e-03 0.0 
0.0 0.0 0.0 
1.714408879144e-03 -2.799670329998e-03 0.0 
-2.799670329998e-03 -1.220407306051e-03 0.0 
0.0 0.0 0.0 
-9.279343288992e-04 1.185385605861e-03 0.0 
1.185385605861e-03 1.719496647698e-02 0.0 
0.0 0.0 0.0 
1.251893446481e-03 -2.761611286799e-03 0.0 
-2.761611286799e-03 -5.323594030526e-04 0.0 
0.0 0.0 0.0 
-4.014163153894e-04 3.446013735597e-04 0.0 
3.446013735597e-04 1.739227630813e-02 0.0 
0.0 0.0 0.0 
-2.788914860509e-04 -2.680986523149e-04 0.0 
-2.680986523149e-04 5.799194764067e-03 0.0 
0.0 0.0 0.0 
-2.265062671646e-03 2.066952392860e-05 0.0 
2.066952392860e-05 1.554680554381e-02 0.0 
0.0 0.0 0.0 
-1.369460570514e-03 5.345710325157e-03 0.0 
5.345710325157e-03 6.405048724261e-03 0.0 
0.0 0.0 0.0 
5.115254007175e-04 2.561885656762e-04 0.0 
2.561885656762e-04 -5.313925402209e-03 0.0 
0.0 0.0 0.0 
-3.799536985402e-04 5.648748747949e-03 0.0 
5.648748747949e-03 4.160964208167e-03 0.0 
0.0 0.0 0.0 
6.763858891187e-04 -2.755617488016e-03 0.0 
-2.755617488016e-03 5.157676954322e-05 0.0 
0.0 0.0 0.0 
-1.079362460833e-03 5.214086098177e-03 0.0 
5.214086098177e-03 9.976231754949e-03 0.0 
0.0 0.0 0.0 
-2.274274244840e-03 6.331005804252e-05 0.0 
6.331005804252e-05 1.556725938553e-02 0.0 
0.0 0.0 0.0 
2.771737232100e-04 -2.526523665979e-03 0.0 
-2.526523665979e-03 5.799184002843e-04 0.0 
0.0 0.0 0.0 
-5.378073692130e-04 5.638007999214e-03 0.0 
5.638007999214e-03 1.160220109555e-02 0.0 
0.0 0.0 0.0 
4.545322123504e-04 4.560605118967e-03 0.0 
4.560605118967e-03 7.543748247966e-03 0.0 
0.0 0.0 0.0 
-1.823817313403e-03 2.077870580997e-04 0.0 
2.077870580997e-04 1.668104140469e-02 0.0 
0.0 0.0 0.0 
2.467829458604e-03 1.863195465632e-03 0.0 
1.863195465632e-03 2.237527016694e-03 0.0 
0.0 0.0 0.0 
4.220494946174e-03 4.216551669177e-03 0.0 
4.216551669177e-03 9.201092302672e-04 0.0 
0.0 0.0 0.0 
-1.118476311993e-03 1.631965807923e-04 0.0 
1.631965807923e-04 1.717937621433e-02 0.0 
0.0 0.0 0.0 
-2.431754175174e-03 8.864938328348e-05 0.0 
8.864938328348e-05 1.523594889938e-02 0.0 
0.0 0.0 0.0 
7.306439785488e-04 -7.108472701722e-04 0.0 
-7.108472701722e-04 2.449495411129e-04 0.0 
0.0 0.0 0.0 
-1.241187561877e-03 -2.112231758921e-04 0.0 
-2.112231758921e-04 4.758485959408e-03 0.0 
0.0 0.0 0.0 
-1.134935400043e-03 5.679965698822e-03 0.0 
5.679965698822e-03 4.898317841740e-03 0.0 
0.0 0.0 0.0 
1.414253968906e-04 7.173028882228e-03 0.0 
7.173028882228e-03 2.546011786968e-03 0.0 
0.0 0.0 0.0 
6.654264530243e-04 8.219135136561e-03 0.0 
8.219135136561e-03 9.560933413327e-04 0.0 
0.0 0.0 0.0 
-1.013349332557e-03 -6.365066769039e-04 0.0 
-6.365066769039e-04 2.728981780205e-03 0.0 
0.0 0.0 0.0 
9.100586277401e-05 -2.671338643741e-03 0.0 
-2.671338643741e-03 2.214236082887e-04 0.0 
0.0 0.0 0.0 
-9.400542619672e-04 7.113841866073e-03 0.0 
7.113841866073e-03 3.594128119759e-03 0.0 
0.0 0.0 0.0 
1.388804919463e-03 2.312281724225e-03 0.0 
2.312281724225e-03 4.109320167787e-03 0.0 
0.0 0.0 0.0 
-2.839590682717e-03 4.525457847263e-04 0.0 
4.525457847263e-04 1.565539834421e-02 0.0 
0.0 0.0 0.0 
2.699782663970e-03 4.194978697298e-03 0.0 
4.194978697298e-03 3.514871757694e-03 0.0 
0.0 0.0 0.0 
-9.956352400564e-04 8.335572528824e-03 0.0 
8.335572528824e-03 2.529498666232e-03 0.0 
0.0 0.0 0.0 
-1.210213681197e-03 3.098660692333e-03 0.0 
3.098660692333e-03 1.627951598516e-02 0.0 
0.0 0.0 0.0 
1.090750229869e-03 3.966830445307e-03 0.0 
3.966830445307e-03 6.026372473554e-03 0.0 
0.0 0.0 0.0 
1.509858373804e-04 -7.307554459294e-04 0.0 
-7.307554459294e-04 4.578961073127e-03 0.0 
0.0 0.0 0.0 
1.876241828856e-03 4.010057005410e-03 0.0 
4.010057005410e-03 4.788382527126e-03 0.0 
0.0 0.0 0.0 
1.595126456811e-03 1.064173530318e-02 0.0 
1.064173530318e-02 -1.142925519674e-03 0.0 
0.0 0.0 0.0 
-3.562346482511e-03 1.709138935856e-03 0.0 
1.709138935856e-03 1.573109046954e-02 0.0 
0.0 0.0 0.0 
8.027679196652e-04 5.535299318796e-03 0.0 
5.535299318796e-03 8.446948659373e-03 0.0 
0.0 0.0 0.0 
-1.684669051690e-03 3.647621940360e-04 0.0 
3.647621940360e-04 1.687803425549e-02 0.0 
0.0 0.0 0.0 
-1.413907868275e-05 -7.805703699569e-04 0.0 
-7.805703699569e-04 5.028382692195e-03 0.0 
0.0 0.0 0.0 
-3.175025022614e-03 7.299196520385e-04 0.0 
7.299196520385e-04 1.562778498228e-02 0.0 
0.0 0.0 0.0 
-7.768504402118e-04 7.701058972145e-04 0.0 
7.701058972145e-04 1.727677426813e-02 0.0 
0.0 0.0 0.0 
4.775593933918e-03 -4.003206800257e-03 0.0 
-4.003206800257e-03 -5.741013754038e-03 0.0 
0.0 0.0 0.0 
-7.263012690482e-04 3.950578188179e-04 0.0 
3.950578188179e-04 1.731113987363e-02 0.0 
0.0 0.0 0.0 
-8.270650476516e-04 5.349984757052e-03 0.0 
5.349984757052e-03 1.013145092653e-02 0.0 
0.0 0.0 0.0 
-2.300868095132e-03 2.513320147851e-04 0.0 
2.513320147851e-04 1.604231162519e-02 0.0 
0.0 0.0 0.0 
-3.705814681746e-03 2.675775683629e-03 0.0 
2.675775683629e-03 1.496479475914e-02 0.0 
0.0 0.0 0.0 
-4.023802392553e-04 -4.039320866407e-04 0.0 
-4.039320866407e-04 5.564115251812e-03 0.0 
0.0 0.0 0.0 
-8.898489634410e-04 5.132110267416e-03 0.0 
5.132110267416e-03 1.318408979646e-02 0.0 
0.0 0.0 0.0 
3.163862673333e-03 1.145209824905e-02 0.0 
1.145209824905e-02 -3.813634928417e-03 0.0 
0.0 0.0 0.0 
-1.888729796742e-03 3.136166514638e-04 0.0 
3.136166514638e-04 1.667489075786e-02 0.0 
0.0 0.0 0.0 
-1.263737652273e-03 -1.033289940331e-03 0.0 
-1.033289940331e-03 3.073280291623e-03 0.0 
0.0 0.0 0.0 
2.821112593459e-03 -2.861153370983e-03 0.0 
-2.861153370983e-03 -5.944932934384e-03 0.0 
0.0 0.0 0.0 
6.286503082799e-04 -5.489906352955e-04 0.0 
-5.489906352955e-04 3.578997121249e-03 0.0 
0.0 0.0 0.0 
-5.764007897285e-04 5.492904190146e-03 0.0 
5.492904190146e-03 1.030006186979e-02 0.0 
0.0 0.0 0.0 
-3.138841081460e-04 -6.152522362594e-04 0.0 
-6.152522362594e-04 5.297326790442e-03 0.0 
0.0 0.0 0.0 
1.606010999441e-03 -9.229707163792e-06 0.0 
-9.229707163792e-06 8.827356769892e-05 0.0 
0.0 0.0 0.0 
1.012422593907e-03 -4.871692860179e-04 0.0 
-4.871692860179e-04 3.568752751488e-05 0.0 
0.0 0.0 0.0 
9.414557788529e-04 -3.246534425544e-05 0.0 
-3.246534425544e-05 3.307185702897e-03 0.0 
0.0 0.0 0.0 
3.484753609488e-04 5.931403233855e-03 0.0 
5.931403233855e-03 9.858707549227e-03 0.0 
0.0 0.0 0.0 
3.922295128660e-03 -4.531592226562e-03 0.0 
-4.531592226562e-03 -4.134110087293e-03 0.0 
0.0 0.0 0.0 
-5.118811425563e-04 2.706009702696e-03 0.0 
2.706009702696e-03 1.666728084359e-02 0.0 
0.0 0.0 0.0 
4.050877492969e-03 1.009556556081e-02 0.0 
1.009556556081e-02 -6.511583885406e-03 0.0 
0.0 0.0 0.0 
-2.545312971510e-03 1.448775061802e-04 0.0 
1.448775061802e-04 1.520826901776e-02 0.0 
0.0 0.0 0.0 
1.517531646067e-03 -3.930994335654e-04 0.0 
-3.930994335654e-04 -1.072026938463e-04 0.0 
0.0 0.0 0.0 
-8.844951861953e-05 -7.376738691921e-04 0.0 
-7.376738691921e-04 5.319824265983e-03 0.0 
0.0 0.0 0.0 
-9.855936158224e-04 1.959646574430e-03 0.0 
1.959646574430e-03 1.698349434965e-02 0.0 
0.0 0.0 0.0 
-1.485929749238e-03 -7.016579175055e-04 0.0 
-7.016579175055e-04 3.533185216562e-03 0.0 
0.0 0.0 0.0 
-4.257288188026e-03 2.025920660435e-03 0.0 
2.025920660435e-03 1.524347769334e-02 0.0 
0.0 0.0 0.0 
-8.080896880380e-04 -3.675730672347e-04 0.0 
-3.675730672347e-04 2.555319830115e-03 0.0 
0.0 0.0 0.0 
1.421847747227e-03 4.906450308980e-03 0.0 
4.906450308980e-03 6.404110837262e-03 0.0 
0.0 0.0 0.0 
2.458702724652e-04 -1.338077620181e-03 0.0 
-1.338077620181e-03 5.685030502172e-04 0.0 
0.0 0.0 0.0 
-8.486947566292e-04 1.429617535523e-03 0.0 
1.429617535523e-03 1.715859818315e-02 0.0 
0.0 0.0 0.0 
1.123623857733e-03 7.033337503371e-04 0.0 
7.033337503371e-04 3.418204017628e-03 0.0 
0.0 0.0 0.0 
-1.070692014295e-03 4.160644408940e-03 0.0 
4.160644408940e-03 1.516631255359e-02 0.0 
0.0 0.0 0.0 
5.113287736787e-04 3.245865287137e-03 0.0 
3.245865287137e-03 5.888130182451e-03 0.0 
0.0 0.0 0.0 
2.861748990886e-03 1.648385403838e-03 0.0 
1.648385403838e-03 -7.022907940043e-03 0.0 
0.0 0.0 0.0 
8.736015919378e-04 4.277176932009e-03 0.0 
4.277176932009e-03 6.721648252250e-03 0.0 
0.0 0.0 0.0 
1.919686684645e-03 1.183041714957e-03 0.0 
1.183041714957e-03 2.697313249778e-03 0.0 
0.0 0.0 0.0 
-2.370963799566e-03 7.187375328491e-05 0.0 
7.187375328491e-05 1.522593959301e-02 0.0 
0.0 0.0 0.0 
-1.004660226743e-03 4.715050652380e-03 0.0 
4.715050652380e-03 1.414663802932e-02 0.0 
0.0 0.0 0.0 
-1.228293086476e-03 -6.643510483320e-04 0.0 
-6.643510483320e-04 3.023707914580e-03 0.0 
0.0 0.0 0.0 
5.848645959167e-04 -4.407292844080e-04 0.0 
-4.407292844080e-04 8.820794947248e-04 0.0 
0.0 0.0 0.0 
-3.278942446123e-04 1.694202200913e-04 0.0 
1.694202200913e-04 1.741680404745e-02 0.0 
0.0 0.0 0.0 
2.979760084292e-03 -3.312279129933e-06 0.0 
-3.312279129933e-06 -1.069210408818e-03 0.0 
0.0 0.0 0.0 
-2.307383803206e-03 1.553261160159e-06 0.0 
1.553261160159e-06 1.519488726789e-02 0.0 
0.0 0.0 0.0 
-2.268334515712e-04 -1.190663624144e-04 0.0 
-1.190663624144e-04 5.896227421604e-03 0.0 
0.0 0.0 0.0 
9.025460540434e-04 -2.124608559064e-04 0.0 
-2.124608559064e-04 6.660860059814e-04 0.0 
0.0 0.0 0.0 
-2.226425528542e-03 6.873316413552e-05 0.0 
6.873316413552e-05 1.582753813633e-02 0.0 
0.0 0.0 0.0 
-1.242836468769e-04 5.870000697111e-03 0.0 
5.870000697111e-03 1.075446891003e-02 0.0 
0.0 0.0 0.0 
-1.564656674743e-03 -1.895898181077e-04 0.0 
-1.895898181077e-04 4.162551671254e-03 0.0 
0.0 0.0 0.0 
-1.316962100395e-03 2.680340548914e-04 0.0 
2.680340548914e-04 1.707857506818e-02 0.0 
0.0 0.0 0.0 
5.929748060177e-04 -3.462280357834e-03 0.0 
-3.462280357834e-03 -6.589274815166e-04 0.0 
0.0 0.0 0.0 
2.498427227984e-04 -7.338911722828e-04 0.0 
-7.338911722828e-04 -4.965124722871e-03 0.0 
0.0 0.0 0.0 
-2.004927304351e-03 1.353239911107e-04 0.0 
1.353239911107e-04 1.642088497511e-02 0.0 
0.0 0.0 0.0 
1.030504999967e-03 3.682570148391e-03 0.0 
3.682570148391e-03 5.776090572996e-03 0.0 
0.0 0.0 0.0 
-1.073780931802e-03 3.474587970371e-03 0.0 
3.474587970371e-03 1.599027693708e-02 0.0 
0.0 0.0 0.0 
-2.207548562300e-03 2.590989670958e-04 0.0 
2.590989670958e-04 1.622150276629e-02 0.0 
0.0 0.0 0.0 
5.120019150513e-03 8.602937772524e-03 0.0 
8.602937772524e-03 -6.210087561670e-03 0.0 
0.0 0.0 0.0 
-2.311203077794e-04 5.778870855193e-03 0.0 
5.778870855193e-03 1.026766540827e-02 0.0 
0.0 0.0 0.0 
-1.500017302592e-03 -7.191201163394e-04 0.0 
-7.191201163394e-04 3.676837764996e-03 0.0 
0.0 0.0 0.0 
1.180217302458e-03 5.482283773879e-03 0.0 
5.482283773879e-03 7.546820296867e-03 0.0 
0.0 0.0 0.0 
1.880852397540e-03 1.980597899919e-03 0.0 
1.980597899919e-03 3.246872248807e-03 0.0 
0.0 0.0 0.0 
1.361656162260e-03 1.090311180683e-02 0.0 
1.090311180683e-02 -3.742789381593e-03 0.0 
0.0 0.0 0.0 
-1.498753755591e-03 -1.565513420184e-04 0.0 
-1.565513420184e-04 4.343395298682e-03 0.0 
0.0 0.0 0.0 
1.407880350104e-03 -4.228998685244e-04 0.0 
-4.228998685244e-04 -1.167883577563e-04 0.0 
0.0 0.0 0.0 
1.561002060531e-04 -7.949296690505e-04 0.0 
-7.949296690505e-04 4.399437176012e-03 0.0 
0.0 0.0 0.0 
-1.556815370495e-03 -5.045382399561e-04 0.0 
-5.045382399561e-04 3.868503994552e-03 0.0 
0.0 0.0 0.0 

TENSORS node_materi_strain_plasti float
2.982010284441e-03 -6.244006857376e-05 0.0 
-6.244006857376e-05 -1.082000813575e-03 0.0 
0.0 0.0 -1.239171804515e-04 
-1.418367511012e-03 -6.528559578284e-05 0.0 
-6.528559578284e-05 5.125663670203e-03 0.0 
0.0 0.0 -7.207122401682e-04 
-1.452967895051e-03 -5.509598229541e-05 0.0 
-5.509598229541e-05 7.203997768270e-03 0.0 
0.0 0.0 -1.332621093165e-03 
-1.383162840862e-03 -3.297498286580e-05 0.0 
-3.297498286580e-05 8.816768276200e-03 0.0 
0.0 0.0 -1.332621093165e-03 
2.045419418092e-03 -6.283745095342e-05 0.0 
-6.283745095342e-05 -5.215467359862e-04 0.0 
0.0 0.0 -2.295744358533e-04 
1.103719236617e-03 2.511247983773e-05 0.0 
2.511247983773e-05 2.902176958995e-04 0.0 
0.0 0.0 -3.137585542919e-04 
2.653341812710e-04 -1.282250191834e-05 0.0 
-1.282250191834e-05 8.121646804208e-04 0.0 
0.0 0.0 -2.794359002296e-04 
-4.662101928636e-04 -2.255638266768e-05 0.0 
-2.255638266768e-05 1.696242201340e-03 0.0 
0.0 0.0 -3.439875543896e-04 
-7.879199919424e-04 -6.957800867177e-05 0.0 
-6.957800867177e-05 2.362265819291e-03 0.0 
0.0 0.0 -5.230155850880e-04 
-9.090757292185e-04 -8.706192601079e-05 0.0 
-8.706192601079e-05 2.790274002592e-03 0.0 
0.0 0.0 -6.679173279409e-04 
-1.029732123068e-03 -9.763895695819e-05 0.0 
-9.763895695819e-05 3.189834221624e-03 0.0 
0.0 0.0 -7.858430676574e-04 
-1.146480183378e-03 -1.186695020361e-04 0.0 
-1.186695020361e-04 3.556707151380e-03 0.0 
0.0 0.0 -8.797909670055e-04 
-1.263272361791e-03 -1.272958726748e-04 0.0 
-1.272958726748e-04 3.899470374148e-03 0.0 
0.0 0.0 -9.497524971825e-04 
-1.384672616284e-03 -1.145152012545e-04 0.0 
-1.145152012545e-04 4.236966414279e-03 0.0 
0.0 0.0 -1.004045332643e-03 
-1.526674903082e-03 -6.496102058636e-05 0.0 
-6.496102058636e-05 4.605045077914e-03 0.0 
0.0 0.0 -1.040527029177e-03 
-1.665462947768e-03 -2.107388054909e-05 0.0 
-2.107388054909e-05 4.948618842847e-03 0.0 
0.0 0.0 -1.059523297737e-03 
-1.782894097401e-03 -3.343512703910e-06 0.0 
-3.343512703910e-06 5.233549116132e-03 0.0 
0.0 0.0 -1.072054170059e-03 
-1.938902930101e-03 -9.696053467476e-05 0.0 
-9.696053467476e-05 5.600248017308e-03 0.0 
0.0 0.0 -1.073655443973e-03 
-2.100363589718e-03 -8.662704783515e-05 0.0 
-8.662704783515e-05 5.970821215845e-03 0.0 
0.0 0.0 -1.067605311830e-03 
-2.135124898814e-03 -7.268436157999e-05 0.0 
-7.268436157999e-05 6.300803109141e-03 0.0 
0.0 0.0 -1.091655094700e-03 
-2.004143563035e-03 -6.534761213826e-05 0.0 
-6.534761213826e-05 6.588381292475e-03 0.0 
0.0 0.0 -1.158330123333e-03 
-1.835283495390e-03 -5.008648858264e-05 0.0 
-5.008648858264e-05 6.864752160643e-03 0.0 
0.0 0.0 -1.226073836101e-03 
-1.640741500190e-03 -2.858138524020e-05 0.0 
-2.858138524020e-05 7.123085926045e-03 0.0 
0.0 0.0 -1.289832767750e-03 
-1.368677421570e-03 1.600785886141e-04 0.0 
1.600785886141e-04 8.818553082708e-03 0.0 
0.0 0.0 -1.336902025401e-03 
-1.377365391022e-03 2.999124352866e-04 0.0 
2.999124352866e-04 8.800585598907e-03 0.0 
0.0 0.0 -1.332945767435e-03 
-1.378029629414e-03 3.844218527142e-04 0.0 
3.844218527142e-04 8.780564209488e-03 0.0 
0.0 0.0 -1.334903170087e-03 
-1.378699113984e-03 6.281396802948e-04 0.0 
6.281396802948e-04 8.766528136653e-03 0.0 
0.0 0.0 -1.334459899807e-03 
-1.385861616700e-03 7.361442488981e-04 0.0 
7.361442488981e-04 8.736115872586e-03 0.0 
0.0 0.0 -1.332067731643e-03 
-1.380170718422e-03 9.112443166240e-04 0.0 
9.112443166240e-04 8.705993944759e-03 0.0 
0.0 0.0 -1.335050935171e-03 
-1.376694153872e-03 1.085769035599e-03 0.0 
1.085769035599e-03 8.675777653225e-03 0.0 
0.0 0.0 -1.335055123498e-03 
-1.386603367251e-03 1.256067884305e-03 0.0 
1.256067884305e-03 8.631282104952e-03 0.0 
0.0 0.0 -1.333530254363e-03 
-1.385927681412e-03 1.401216317866e-03 0.0 
1.401216317866e-03 8.584979043230e-03 0.0 
0.0 0.0 -1.336259905589e-03 
-1.382886472311e-03 1.656515799073e-03 0.0 
1.656515799073e-03 8.524207830888e-03 0.0 
0.0 0.0 -1.335712483792e-03 
-1.394014418558e-03 1.806002472474e-03 0.0 
1.806002472474e-03 8.445999086005e-03 0.0 
0.0 0.0 -1.333313947604e-03 
-1.390408237112e-03 2.011066343467e-03 0.0 
2.011066343467e-03 8.361388601017e-03 0.0 
0.0 0.0 -1.335862559377e-03 
-1.384222329824e-03 2.219576262539e-03 0.0 
2.219576262539e-03 8.276324698237e-03 0.0 
0.0 0.0 -1.336097458551e-03 
-1.383675473403e-03 2.418696393120e-03 0.0 
2.418696393120e-03 8.152094015006e-03 0.0 
0.0 0.0 -1.335235043394e-03 
-1.346822158765e-03 2.642720212626e-03 0.0 
2.642720212626e-03 7.987489637687e-03 0.0 
0.0 0.0 -1.334297546486e-03 
-1.296882990864e-03 2.903710106589e-03 0.0 
2.903710106589e-03 7.779911500473e-03 0.0 
0.0 0.0 -1.332308435384e-03 
-1.255557414283e-03 3.121569491678e-03 0.0 
3.121569491678e-03 7.573181347576e-03 0.0 
0.0 0.0 -1.332019584455e-03 
-1.176492967870e-03 3.377755650491e-03 0.0 
3.377755650491e-03 7.350339939991e-03 0.0 
0.0 0.0 -1.333392124151e-03 
-1.093887208517e-03 3.609491604080e-03 0.0 
3.609491604080e-03 7.092224087027e-03 0.0 
0.0 0.0 -1.334727449481e-03 
-1.051298907609e-03 3.743157530182e-03 0.0 
3.743157530182e-03 6.856633869823e-03 0.0 
0.0 0.0 -1.336576889699e-03 
-1.107309744963e-03 3.730430166292e-03 0.0 
3.730430166292e-03 6.712376363016e-03 0.0 
0.0 0.0 -1.335888391555e-03 
-1.180672988592e-03 3.628713668090e-03 0.0 
3.628713668090e-03 6.578096576821e-03 0.0 
0.0 0.0 -1.334783226448e-03 
-1.232801905707e-03 3.533466646712e-03 0.0 
3.533466646712e-03 6.404059517352e-03 0.0 
0.0 0.0 -1.335053869153e-03 
-1.254586050126e-03 3.403998439552e-03 0.0 
3.403998439552e-03 6.202998251117e-03 0.0 
0.0 0.0 -1.334960189349e-03 
-1.284659524189e-03 3.222694302391e-03 0.0 
3.222694302391e-03 6.032474519570e-03 0.0 
0.0 0.0 -1.334889991128e-03 
-1.266052279295e-03 3.015967340183e-03 0.0 
3.015967340183e-03 5.820251815716e-03 0.0 
0.0 0.0 -1.335774086633e-03 
-1.268292395628e-03 2.751499810292e-03 0.0 
2.751499810292e-03 5.611006951901e-03 0.0 
0.0 0.0 -1.336605656894e-03 
-1.233716587758e-03 2.428663332176e-03 0.0 
2.428663332176e-03 5.432453778555e-03 0.0 
0.0 0.0 -1.336508443943e-03 
-1.235192718271e-03 2.048692266400e-03 0.0 
2.048692266400e-03 5.281516895731e-03 0.0 
0.0 0.0 -1.335343284290e-03 
-1.233233161047e-03 1.613443115418e-03 0.0 
1.613443115418e-03 5.176753839955e-03 0.0 
0.0 0.0 -1.337998490269e-03 
-1.231527167288e-03 1.237296422517e-03 0.0 
1.237296422517e-03 5.075978590578e-03 0.0 
0.0 0.0 -1.337247094005e-03 
-1.199833465241e-03 7.660071193524e-04 0.0 
7.660071193524e-04 4.984249579952e-03 0.0 
0.0 0.0 -1.333783489999e-03 
-1.202795443341e-03 2.512512957567e-04 0.0 
2.512512957567e-04 4.957451962835e-03 0.0 
0.0 0.0 -1.334548731617e-03 
-1.209938913942e-03 -2.134028709971e-04 0.0 
-2.134028709971e-04 5.026425426342e-03 0.0 
0.0 0.0 -1.334619746794e-03 
-1.216034057197e-03 -6.370386973179e-04 0.0 
-6.370386973179e-04 5.098251117921e-03 0.0 
0.0 0.0 -1.335242115105e-03 
-1.250273571860e-03 -1.037169625291e-03 0.0 
-1.037169625291e-03 5.212102119693e-03 0.0 
0.0 0.0 -1.335691437541e-03 
-1.244652277412e-03 -1.350985257247e-03 0.0 
-1.350985257247e-03 5.369562904984e-03 0.0 
0.0 0.0 -1.335646478247e-03 
-1.280185566221e-03 -1.619011709695e-03 0.0 
-1.619011709695e-03 5.525208807417e-03 0.0 
0.0 0.0 -1.334931242407e-03 
-1.279873673449e-03 -1.816253781483e-03 0.0 
-1.816253781483e-03 5.699667194469e-03 0.0 
0.0 0.0 -1.334100791702e-03 
-1.316092894892e-03 -1.930306284798e-03 0.0 
-1.930306284798e-03 5.897360744271e-03 0.0 
0.0 0.0 -1.332237298415e-03 
-1.332492949627e-03 -1.997739486340e-03 0.0 
-1.997739486340e-03 6.101236304603e-03 0.0 
0.0 0.0 -1.333749945600e-03 
-1.347535005711e-03 -1.949980560505e-03 0.0 
-1.949980560505e-03 6.326575568891e-03 0.0 
0.0 0.0 -1.336652505695e-03 
-1.361718678089e-03 -1.883685554895e-03 0.0 
-1.883685554895e-03 6.509663460433e-03 0.0 
0.0 0.0 -1.337094627689e-03 
-1.399643089063e-03 -1.709140483279e-03 0.0 
-1.709140483279e-03 6.643034708910e-03 0.0 
0.0 0.0 -1.328990728106e-03 
-1.392288690639e-03 -1.485263022766e-03 0.0 
-1.485263022766e-03 6.836967868930e-03 0.0 
0.0 0.0 -1.335900064369e-03 
-1.414556676199e-03 -1.251540022059e-03 0.0 
-1.251540022059e-03 6.954271934946e-03 0.0 
0.0 0.0 -1.332523500780e-03 
-1.412496609790e-03 -1.031814538929e-03 0.0 
-1.031814538929e-03 7.047562735813e-03 0.0 
0.0 0.0 -1.335219049675e-03 
-1.419510763784e-03 -6.645626228058e-04 0.0 
-6.645626228058e-04 7.146959411296e-03 0.0 
0.0 0.0 -1.336566422126e-03 
-1.427684607805e-03 -3.887077461759e-04 0.0 
-3.887077461759e-04 7.195451913880e-03 0.0 
0.0 0.0 -1.335855682064e-03 
-1.453017564014e-03 -6.969271926299e-05 0.0 
-6.969271926299e-05 5.335351891541e-03 0.0 
0.0 0.0 -7.648954205800e-04 
-1.520880417330e-03 -7.433446925198e-05 0.0 
-7.433446925198e-05 5.819919600560e-03 0.0 
0.0 0.0 -8.298981322982e-04 
-1.557423966696e-03 -6.785219458369e-05 0.0 
-6.785219458369e-05 6.258440284560e-03 0.0 
0.0 0.0 -8.959277352460e-04 
-1.578985001560e-03 -6.738694350763e-05 0.0 
-6.738694350763e-05 6.671688470532e-03 0.0 
0.0 0.0 -9.610467530554e-04 
-1.585789406967e-03 -5.141559601497e-05 0.0 
-5.141559601497e-05 7.089803706817e-03 0.0 
0.0 0.0 -1.026987810050e-03 
-1.562649818793e-03 -5.245167551875e-05 0.0 
-5.245167551875e-05 7.497011482479e-03 0.0 
0.0 0.0 -1.092790196867e-03 
-1.539445803207e-03 -3.968004133447e-05 0.0 
-3.968004133447e-05 7.888080790164e-03 0.0 
0.0 0.0 -1.158290425478e-03 
-1.493157212652e-03 -4.236338247705e-05 0.0 
-4.236338247705e-05 8.249034422054e-03 0.0 
0.0 0.0 -1.224481705251e-03 
-1.439591118906e-03 -4.822262499776e-05 0.0 
-4.822262499776e-05 8.655254164316e-03 0.0 
0.0 0.0 -1.288782062784e-03 
1.154190196738e-03 9.448312568436e-03 0.0 
9.448312568436e-03 -1.154190196738e-03 0.0 
0.0 0.0 0.0 
-2.341692254581e-03 2.692670647158e-03 0.0 
2.692670647158e-03 5.414746644068e-03 0.0 
0.0 0.0 -7.388349218061e-04 
-1.917902726295e-03 1.858430088322e-02 0.0 
1.858430088322e-02 2.333477010685e-03 0.0 
0.0 0.0 -1.781032647385e-04 
-1.082661817741e-03 1.345385551117e-02 0.0 
1.345385551117e-02 2.041562095315e-03 0.0 
0.0 0.0 -4.109572618178e-04 
-7.123970347436e-04 1.092674886841e-02 0.0 
1.092674886841e-02 1.785949759406e-03 0.0 
0.0 0.0 -4.600940248552e-04 
-5.918102006563e-04 7.738749075713e-03 0.0 
7.738749075713e-03 1.728545181225e-03 0.0 
0.0 0.0 -4.871721345294e-04 
-7.825532778126e-04 7.192461820799e-03 0.0 
7.192461820799e-03 2.129881749347e-03 0.0 
0.0 0.0 -5.774264878005e-04 
-9.556259503609e-04 6.635474869351e-03 0.0 
6.635474869351e-03 2.674362521339e-03 0.0 
0.0 0.0 -7.366013875622e-04 
-1.207513473953e-03 6.499368879933e-03 0.0 
6.499368879933e-03 3.296430234225e-03 0.0 
0.0 0.0 -8.183718370474e-04 
-1.654657101594e-03 6.843520659968e-03 0.0 
6.843520659968e-03 4.032112279179e-03 0.0 
0.0 0.0 -7.751356507531e-04 
-2.408903119411e-03 7.351995632685e-03 0.0 
7.351995632685e-03 5.101583596084e-03 0.0 
0.0 0.0 -7.512059079798e-04 
-1.410510157798e-03 4.590467940020e-05 0.0 
4.590467940020e-05 5.108252865152e-03 0.0 
0.0 0.0 -7.167504868538e-04 
-1.406227077835e-03 4.711007506367e-05 0.0 
4.711007506367e-05 5.113153637208e-03 0.0 
0.0 0.0 -7.184827375020e-04 
-1.423806542956e-03 5.571674717398e-05 0.0 
5.571674717398e-05 5.112589032906e-03 0.0 
0.0 0.0 -7.186786903937e-04 
-1.436773387553e-03 6.228665321435e-05 0.0 
6.228665321435e-05 5.095055979088e-03 0.0 
0.0 0.0 -7.169675978895e-04 
-1.451603008850e-03 1.123071114571e-04 0.0 
1.123071114571e-04 5.169367192885e-03 0.0 
0.0 0.0 -7.238546058846e-04 
-1.472434392324e-03 1.385954487133e-04 0.0 
1.385954487133e-04 5.106009970347e-03 0.0 
0.0 0.0 -7.185860072230e-04 
-1.490638948828e-03 1.512754232971e-04 0.0 
1.512754232971e-04 5.087442749402e-03 0.0 
0.0 0.0 -7.170630917064e-04 
-1.513114104037e-03 2.399152023612e-04 0.0 
2.399152023612e-04 5.093292721956e-03 0.0 
0.0 0.0 -7.174139623878e-04 
-1.561955712685e-03 2.941641192329e-04 0.0 
2.941641192329e-04 5.103916165730e-03 0.0 
0.0 0.0 -7.207851870574e-04 
-1.600187203723e-03 3.914342920289e-04 0.0 
3.914342920289e-04 5.081084323258e-03 0.0 
0.0 0.0 -7.195160023472e-04 
-1.620652497438e-03 4.977757603843e-04 0.0 
4.977757603843e-04 5.045052367820e-03 0.0 
0.0 0.0 -7.186294792877e-04 
-1.661411027538e-03 6.193938572055e-04 0.0 
6.193938572055e-04 5.002260211086e-03 0.0 
0.0 0.0 -7.186194644340e-04 
-1.685221069802e-03 7.870110800037e-04 0.0 
7.870110800037e-04 4.945910860756e-03 0.0 
0.0 0.0 -7.192946965590e-04 
-2.034784310573e-03 1.307587123778e-03 0.0 
1.307587123778e-03 5.220788247564e-03 0.0 
0.0 0.0 -7.221636914649e-04 
9.348154728884e-04 3.571975024551e-04 0.0 
3.571975024551e-04 -9.348154728884e-04 0.0 
0.0 0.0 0.0 
0.0 0.0 0.0 
0.0 0.0 0.0 
0.0 0.0 0.0 
0.0 0.0 0.0 
0.0 0.0 0.0 
0.0 0.0 0.0 
0.0 0.0 0.0 
0.0 0.0 0.0 
0.0 0.0 0.0 
1.360136423309e-04 -1.122175672953e-03 0.0 
-1.122175672953e-03 -1.360136423309e-04 0.0 
0.0 0.0 0.0 
5.870378362548e-04 -1.490295586350e-03 0.0 
-1.490295586350e-03 -4.883388433333e-05 0.0 
0.0 0.0 -1.919307698233e-04 
1.469199178882e-03 -1.861192808990e-04 0.0 
-1.861192808990e-04 -4.738116537112e-04 0.0 
0.0 0.0 -1.543536799582e-04 
1.541642198012e-03 9.914248343725e-06 0.0 
9.914248343725e-06 -4.233340358725e-04 0.0 
0.0 0.0 -1.524168521367e-04 
1.448872911601e-03 -1.218468728652e-04 0.0 
-1.218468728652e-04 -3.242967292184e-04 0.0 
0.0 0.0 -2.087899725575e-04 
1.871110077837e-03 -3.128254564951e-04 0.0 
-3.128254564951e-04 -5.060895920398e-04 0.0 
0.0 0.0 -2.268507035991e-04 
1.558769912126e-03 -3.518488328871e-04 0.0 
-3.518488328871e-04 -3.921109624428e-04 0.0 
0.0 0.0 -2.084266182962e-04 
1.686968784735e-03 -3.536960251977e-04 0.0 
-3.536960251977e-04 -4.586218581363e-04 0.0 
0.0 0.0 -1.782988744300e-04 
2.017442301215e-03 -3.116617884914e-04 0.0 
-3.116617884914e-04 -6.117362500352e-04 0.0 
0.0 0.0 -1.868475939684e-04 
2.350709078212e-03 -3.079260872505e-04 0.0 
-3.079260872505e-04 -7.673616703902e-04 0.0 
0.0 0.0 -1.825592522512e-04 
2.578364931130e-03 -2.476094894010e-04 0.0 
-2.476094894010e-04 -8.652233345239e-04 0.0 
0.0 0.0 -1.849008525248e-04 
2.739255329358e-03 -1.870808648704e-04 0.0 
-1.870808648704e-04 -9.277066245841e-04 0.0 
0.0 0.0 -1.733015637650e-04 
2.846368307625e-03 -1.558501425255e-04 0.0 
-1.558501425255e-04 -9.765572923942e-04 0.0 
0.0 0.0 -1.580934598545e-04 
2.964520955770e-03 -8.339795407393e-05 0.0 
-8.339795407393e-05 -1.066269294102e-03 0.0 
0.0 0.0 -1.431481272542e-04 
3.099131641282e-03 6.120246234633e-05 0.0 
6.120246234633e-05 -1.129636568948e-03 0.0 
0.0 0.0 -1.321774316029e-04 
-6.552551453935e-04 2.308138578360e-02 0.0 
2.308138578360e-02 1.055754972345e-03 0.0 
0.0 0.0 -1.716427829793e-04 
-1.467391227386e-03 1.562915119633e-02 0.0 
1.562915119633e-02 2.251166173981e-03 0.0 
0.0 0.0 -3.359035485407e-04 
-8.270701227703e-04 1.184091555869e-02 0.0 
1.184091555869e-02 1.861100508678e-03 0.0 
0.0 0.0 -4.431558796749e-04 
-6.425533864503e-04 9.570711658491e-03 0.0 
9.570711658491e-03 1.738739384542e-03 0.0 
0.0 0.0 -4.697939991823e-04 
-7.466276282152e-04 7.878373353361e-03 0.0 
7.878373353361e-03 1.972147874654e-03 0.0 
0.0 0.0 -5.252229627595e-04 
-8.804482024697e-04 7.158474231768e-03 0.0 
7.158474231768e-03 2.421032203992e-03 0.0 
0.0 0.0 -6.602502863668e-04 
-1.042658264211e-03 6.497661143157e-03 0.0 
6.497661143157e-03 2.980500685407e-03 0.0 
0.0 0.0 -8.188873791818e-04 
-1.399771000976e-03 6.548640073279e-03 0.0 
6.548640073279e-03 3.633631987895e-03 0.0 
0.0 0.0 -7.915848623382e-04 
-1.975998091444e-03 7.170851422493e-03 0.0 
7.170851422493e-03 4.511531322542e-03 0.0 
0.0 0.0 -7.605639790837e-04 
-2.916810361512e-03 6.555263023146e-03 0.0 
6.555263023146e-03 5.776940962624e-03 0.0 
0.0 0.0 -7.407858910677e-04 
-4.972817288370e-05 1.508137293398e-02 0.0 
1.508137293398e-02 9.903155988464e-04 0.0 
0.0 0.0 -4.031088968411e-04 
-9.225734973571e-04 -7.785055507497e-06 0.0 
-7.785055507497e-06 4.710905526494e-03 0.0 
0.0 0.0 -1.303388942653e-03 
9.284890364780e-04 -5.726814343447e-04 0.0 
-5.726814343447e-04 -1.288509347859e-05 0.0 
0.0 0.0 -2.583611022702e-04 
7.798214043712e-04 -1.922628740431e-03 0.0 
-1.922628740431e-03 -7.798214043712e-04 0.0 
0.0 0.0 0.0 
-1.143124804619e-03 -1.686232053488e-03 0.0 
-1.686232053488e-03 5.409600557008e-03 0.0 
0.0 0.0 -1.303360877099e-03 
-3.697565485881e-05 8.840428401752e-03 0.0 
8.840428401752e-03 1.221586281167e-03 0.0 
0.0 0.0 -5.076902684178e-04 
-1.444704152341e-03 -3.615903752048e-04 0.0 
-3.615903752048e-04 4.407515592965e-03 0.0 
0.0 0.0 -1.026919993916e-03 
-9.479894819801e-04 1.838728918359e-03 0.0 
1.838728918359e-03 4.893992345869e-03 0.0 
0.0 0.0 -1.300998267065e-03 
-5.769155530032e-04 6.625913737017e-03 0.0 
6.625913737017e-03 2.245442136003e-03 0.0 
0.0 0.0 -7.150828212858e-04 
-1.073385008199e-03 3.129332732007e-03 0.0 
3.129332732007e-03 5.647855113655e-03 0.0 
0.0 0.0 -1.304014651794e-03 
-1.282357623687e-03 6.043949283391e-03 0.0 
6.043949283391e-03 3.657296529993e-03 0.0 
0.0 0.0 -8.139337748180e-04 
-1.367928456590e-03 -1.893022985453e-03 0.0 
-1.893022985453e-03 6.315060285992e-03 0.0 
0.0 0.0 -1.307658508868e-03 
1.529937102685e-03 -5.307575099632e-04 0.0 
-5.307575099632e-04 -3.328949517208e-04 0.0 
0.0 0.0 -2.135613815849e-04 
-9.061720901196e-04 3.865912754395e-03 0.0 
3.865912754395e-03 6.284384454967e-03 0.0 
0.0 0.0 -1.304481600125e-03 
-2.219446303023e-03 3.354515896798e-03 0.0 
3.354515896798e-03 5.251455149872e-03 0.0 
0.0 0.0 -7.595448291451e-04 
-9.674687493222e-04 -2.324067189866e-04 0.0 
-2.324067189866e-04 3.002016490702e-03 0.0 
0.0 0.0 -7.390740322083e-04 
-1.821851265128e-03 -3.597710289885e-04 0.0 
-3.597710289885e-04 5.333319395799e-03 0.0 
0.0 0.0 -1.073818338595e-03 
-1.276247629736e-03 3.304032821404e-03 0.0 
3.304032821404e-03 7.204524439272e-03 0.0 
0.0 0.0 -1.301280071178e-03 
-1.456041971043e-03 2.471304019682e-03 0.0 
2.471304019682e-03 8.004433020508e-03 0.0 
0.0 0.0 -1.304294760550e-03 
-1.442626291436e-03 7.982050020717e-04 0.0 
7.982050020717e-04 8.632923623264e-03 0.0 
0.0 0.0 -1.303238611779e-03 
-1.460924372811e-03 1.330564066234e-03 0.0 
1.330564066234e-03 8.482170570322e-03 0.0 
0.0 0.0 -1.297727402575e-03 
-1.466071718827e-03 1.860397699296e-03 0.0 
1.860397699296e-03 8.323259225048e-03 0.0 
0.0 0.0 -1.305306183856e-03 
-1.817715844992e-03 1.024700292841e-03 0.0 
1.024700292841e-03 5.163743418186e-03 0.0 
0.0 0.0 -7.528866907182e-04 
-1.609633540750e-03 4.109047618561e-04 0.0 
4.109047618561e-04 5.236232241604e-03 0.0 
0.0 0.0 -7.529849494387e-04 
-1.529214909887e-03 1.902322029956e-04 0.0 
1.902322029956e-04 5.302594416650e-03 0.0 
0.0 0.0 -7.580270452736e-04 
-1.581306103182e-03 3.146837778263e-05 0.0 
3.146837778263e-05 6.876614414943e-03 0.0 
0.0 0.0 -9.950081682429e-04 
-1.500312298629e-03 -1.404495050420e-03 0.0 
-1.404495050420e-03 6.813712989149e-03 0.0 
0.0 0.0 -1.302874185639e-03 
1.441404813694e-03 1.329303656853e-03 0.0 
1.329303656853e-03 -1.441404813694e-03 0.0 
0.0 0.0 0.0 
2.108503349829e-03 -2.734765585233e-04 0.0 
-2.734765585233e-04 -5.347235390368e-04 0.0 
0.0 0.0 -2.323938346839e-04 
-2.064700972320e-03 -3.063344179821e-04 0.0 
-3.063344179821e-04 6.409893202118e-03 0.0 
0.0 0.0 -1.122886395833e-03 
-1.468245391393e-03 9.255547116428e-05 0.0 
9.255547116428e-05 5.268982738319e-03 0.0 
0.0 0.0 -7.500338828344e-04 
-1.137700890896e-04 -1.098716406823e-04 0.0 
-1.098716406823e-04 1.269808302693e-03 0.0 
0.0 0.0 -3.103003023327e-04 
-1.438074208977e-03 2.818100513086e-03 0.0 
2.818100513086e-03 7.630477849731e-03 0.0 
0.0 0.0 -1.293200138473e-03 
-1.049124919045e-03 2.594004171723e-03 0.0 
2.594004171723e-03 5.291429483469e-03 0.0 
0.0 0.0 -1.307307853467e-03 
-1.010893881175e-03 3.579996989229e-03 0.0 
3.579996989229e-03 5.972453911041e-03 0.0 
0.0 0.0 -1.304733450272e-03 
-8.851569131084e-04 1.017294528516e-03 0.0 
1.017294528516e-03 4.688446957818e-03 0.0 
0.0 0.0 -1.297928233296e-03 
-1.011734799512e-03 -8.525942349034e-04 0.0 
-8.525942349034e-04 4.907050266684e-03 0.0 
0.0 0.0 -1.305578568836e-03 
3.993715025457e-04 -1.500253254559e-03 0.0 
-1.500253254559e-03 2.855503414201e-04 0.0 
0.0 0.0 -2.741738997709e-04 
-1.668530992619e-03 6.309946100002e-04 0.0 
6.309946100002e-04 5.166924460567e-03 0.0 
0.0 0.0 -7.500980793755e-04 
-1.253144254253e-03 -1.928883033382e-03 0.0 
-1.928883033382e-03 5.781747753778e-03 0.0 
0.0 0.0 -1.293180865221e-03 
-1.565497950727e-03 6.438167873332e-05 0.0 
6.438167873332e-05 7.693447317596e-03 0.0 
0.0 0.0 -1.123598490052e-03 
8.960111210505e-04 -5.735964309680e-04 0.0 
-5.735964309680e-04 -6.523320116044e-05 0.0 
0.0 0.0 -1.817708772996e-04 
-1.195500737651e-03 -3.256008312402e-04 0.0 
-3.256008312402e-04 3.719620558921e-03 0.0 
0.0 0.0 -9.209925479532e-04 
-1.429805954471e-03 5.036842419237e-04 0.0 
5.036842419237e-04 8.739646127293e-03 0.0 
0.0 0.0 -1.311981303940e-03 
-2.367904349169e-04 7.174376014109e-03 0.0 
7.174376014109e-03 1.622856242587e-03 0.0 
0.0 0.0 -5.940282032871e-04 
3.819170280535e-05 1.128946528931e-02 0.0 
1.128946528931e-02 1.082386133842e-03 0.0 
0.0 0.0 -4.802476442776e-04 
-8.313751305549e-04 6.170372864425e-03 0.0 
6.170372864425e-03 2.912935489396e-03 0.0 
0.0 0.0 -8.637206373099e-04 
-1.886227016212e-03 5.931284178424e-03 0.0 
5.931284178424e-03 4.575317097099e-03 0.0 
0.0 0.0 -7.800224789174e-04 
5.252765574423e-04 2.121834158498e-02 0.0 
2.121834158498e-02 -9.711684927149e-05 0.0 
0.0 0.0 -1.834970177875e-04 
-1.536524951872e-03 3.208999903453e-05 0.0 
3.208999903453e-05 6.068754859848e-03 0.0 
0.0 0.0 -8.684787984471e-04 
-1.527482046669e-03 -8.504264765478e-04 0.0 
-8.504264765478e-04 7.084540485198e-03 0.0 
0.0 0.0 -1.313906642692e-03 
2.380545995603e-03 -8.629897564333e-05 0.0 
-8.629897564333e-05 -6.864962938687e-04 0.0 
0.0 0.0 -2.282399121358e-04 
-1.463207116020e-03 1.296765555730e-04 0.0 
1.296765555730e-04 8.413961701398e-03 0.0 
0.0 0.0 -1.253930875827e-03 
-1.862375038490e-03 1.674080896768e-03 0.0 
1.674080896768e-03 5.053916961544e-03 0.0 
0.0 0.0 -7.655439890770e-04 
-1.720228455065e-03 1.586186079137e-03 0.0 
1.586186079137e-03 4.967329360851e-03 0.0 
0.0 0.0 -7.934218816250e-04 
-1.768015179977e-03 1.461597718910e-03 0.0 
1.461597718910e-03 5.276074626724e-03 0.0 
0.0 0.0 -8.115680642089e-04 
-1.765114281844e-03 1.749488874724e-03 0.0 
1.749488874724e-03 5.323901634960e-03 0.0 
0.0 0.0 -8.428390908522e-04 
-1.776011419960e-03 1.632950866705e-03 0.0 
1.632950866705e-03 5.614599388379e-03 0.0 
0.0 0.0 -8.784658474099e-04 
-1.753067371520e-03 1.892876727445e-03 0.0 
1.892876727445e-03 5.647697331923e-03 0.0 
0.0 0.0 -9.060409163497e-04 
-1.729403370927e-03 2.034729517834e-03 0.0 
2.034729517834e-03 5.329326258993e-03 0.0 
0.0 0.0 -8.711257577414e-04 
-1.705524146156e-03 2.154135310252e-03 0.0 
2.154135310252e-03 5.649528349792e-03 0.0 
0.0 0.0 -9.341442283280e-04 
-1.669480427723e-03 2.313796081278e-03 0.0 
2.313796081278e-03 5.302391134739e-03 0.0 
0.0 0.0 -8.989774131092e-04 
-1.760017773414e-03 1.778713600910e-03 0.0 
1.778713600910e-03 5.960915318729e-03 0.0 
0.0 0.0 -9.415083590319e-04 
-1.639128685698e-03 2.400878910049e-03 0.0 
2.400878910049e-03 5.620671151866e-03 0.0 
0.0 0.0 -9.622976032585e-04 
-1.585968914987e-03 2.571269188534e-03 0.0 
2.571269188534e-03 5.245482773901e-03 0.0 
0.0 0.0 -9.268639294333e-04 
-1.553264337981e-03 2.629359401866e-03 0.0 
2.629359401866e-03 5.564461608518e-03 0.0 
0.0 0.0 -9.903372159162e-04 
-1.482148429882e-03 2.800719357184e-03 0.0 
2.800719357184e-03 5.162964478957e-03 0.0 
0.0 0.0 -9.547708836903e-04 
-1.480872876733e-03 2.756523220070e-03 0.0 
2.756523220070e-03 4.843370134984e-03 0.0 
0.0 0.0 -9.032660992691e-04 
-1.370066982921e-03 2.994500238396e-03 0.0 
2.994500238396e-03 4.734217419357e-03 0.0 
0.0 0.0 -9.261835667445e-04 
-1.296697830142e-03 2.932762897298e-03 0.0 
2.932762897298e-03 4.406716792506e-03 0.0 
0.0 0.0 -9.004111975071e-04 
-1.176154479742e-03 3.171939239460e-03 0.0 
3.171939239460e-03 4.268382598936e-03 0.0 
0.0 0.0 -9.182233496599e-04 
-1.237826052231e-03 3.181299556145e-03 0.0 
3.181299556145e-03 4.604885530242e-03 0.0 
0.0 0.0 -9.498701766430e-04 
-1.038924370446e-03 3.354505003279e-03 0.0 
3.354505003279e-03 4.108768898160e-03 0.0 
0.0 0.0 -9.343221806050e-04 
-9.113966935237e-04 3.322436674522e-03 0.0 
3.322436674522e-03 3.767445704006e-03 0.0 
0.0 0.0 -9.288662988139e-04 
-7.681433481646e-04 3.500147498246e-03 0.0 
3.500147498246e-03 3.577220508926e-03 0.0 
0.0 0.0 -9.367850320061e-04 
-6.050859616232e-04 3.441042246538e-03 0.0 
3.441042246538e-03 3.246213294712e-03 0.0 
0.0 0.0 -9.518642033955e-04 
-4.467796431526e-04 3.596824647640e-03 0.0 
3.596824647640e-03 3.023253834938e-03 0.0 
0.0 0.0 -9.541337235040e-04 
-2.817347476968e-04 3.508182660979e-03 0.0 
3.508182660979e-03 2.709346421897e-03 0.0 
0.0 0.0 -9.642822318347e-04 
-1.035082655572e-04 3.620233241084e-03 0.0 
3.620233241084e-03 2.448688838297e-03 0.0 
0.0 0.0 -9.459728402633e-04 
-1.483888033654e-04 3.858856930156e-03 0.0 
3.858856930156e-03 2.655556876681e-03 0.0 
0.0 0.0 -9.498144071847e-04 
3.513412820420e-04 4.026666355608e-03 0.0 
4.026666355608e-03 1.899788322698e-03 0.0 
0.0 0.0 -9.193128608805e-04 
3.883657663436e-04 3.787413850041e-03 0.0 
3.787413850041e-03 1.716518480128e-03 0.0 
0.0 0.0 -8.913707482552e-04 
1.090735062407e-03 4.349909184646e-03 0.0 
4.349909184646e-03 9.118946588023e-04 0.0 
0.0 0.0 -8.538425857873e-04 
1.154007436497e-03 4.246652413710e-03 0.0 
4.246652413710e-03 7.147503291712e-04 0.0 
0.0 0.0 -8.008961852862e-04 
1.955602778231e-03 4.637820278177e-03 0.0 
4.637820278177e-03 -1.921596163389e-04 0.0 
0.0 0.0 -7.557613550964e-04 
2.104448005919e-03 4.930695256633e-03 0.0 
4.930695256633e-03 -2.127715481648e-04 0.0 
0.0 0.0 -8.100034870355e-04 
3.023205348977e-03 4.998551938006e-03 0.0 
4.998551938006e-03 -1.370935996270e-03 0.0 
0.0 0.0 -7.081154368744e-04 
2.849719442104e-03 4.807769933541e-03 0.0 
4.807769933541e-03 -1.287070459620e-03 0.0 
0.0 0.0 -6.697067067790e-04 
4.017819325971e-03 4.995582275640e-03 0.0 
4.995582275640e-03 -2.554582728378e-03 0.0 
0.0 0.0 -6.271013989681e-04 
3.821821041065e-03 4.944387744704e-03 0.0 
4.944387744704e-03 -2.373086241927e-03 0.0 
0.0 0.0 -6.208863424878e-04 
5.116156127425e-03 4.910203578831e-03 0.0 
4.910203578831e-03 -3.717375158965e-03 0.0 
0.0 0.0 -5.994775579116e-04 
4.921326173308e-03 4.974229365168e-03 0.0 
4.974229365168e-03 -3.406973501494e-03 0.0 
0.0 0.0 -6.490082879202e-04 
6.221107651853e-03 4.562818978333e-03 0.0 
4.562818978333e-03 -4.721508003896e-03 0.0 
0.0 0.0 -6.426855634101e-04 
6.299781177260e-03 4.480436896424e-03 0.0 
4.480436896424e-03 -4.975804827858e-03 0.0 
0.0 0.0 -5.674184354577e-04 
7.174726672007e-03 3.697378576288e-03 0.0 
3.697378576288e-03 -5.746518065329e-03 0.0 
0.0 0.0 -6.120894028618e-04 
7.087928411602e-03 3.797267630317e-03 0.0 
3.797267630317e-03 -5.474351618508e-03 0.0 
0.0 0.0 -6.915329113260e-04 
7.646601201795e-03 2.528932469090e-03 0.0 
2.528932469090e-03 -6.095940452837e-03 0.0 
0.0 0.0 -6.645688924106e-04 
7.288675357997e-03 2.490600311656e-03 0.0 
2.490600311656e-03 -5.981301750438e-03 0.0 
0.0 0.0 -5.603029746683e-04 
7.255738914204e-03 1.177127808920e-03 0.0 
1.177127808920e-03 -5.835729872777e-03 0.0 
0.0 0.0 -6.085753034686e-04 
6.479786273236e-03 1.208532848060e-03 0.0 
1.208532848060e-03 -5.314193423093e-03 0.0 
0.0 0.0 -4.995397929185e-04 
6.055024758106e-03 -7.896436673538e-06 0.0 
-7.896436673538e-06 -4.814799211411e-03 0.0 
0.0 0.0 -5.315252342980e-04 
6.656566287795e-03 -2.014534140401e-04 0.0 
-2.014534140401e-04 -5.171511043619e-03 0.0 
0.0 0.0 -6.364522475042e-04 
5.151211839428e-03 -1.112721489780e-03 0.0 
-1.112721489780e-03 -3.860927749543e-03 0.0 
0.0 0.0 -5.529788956651e-04 
4.583118044904e-03 -9.131571328698e-04 0.0 
-9.131571328698e-04 -3.474353952761e-03 0.0 
0.0 0.0 -4.751846109182e-04 
3.576443261134e-03 -1.694922516672e-03 0.0 
-1.694922516672e-03 -2.417322571974e-03 0.0 
0.0 0.0 -4.967660096401e-04 
4.018761427308e-03 -1.940749491805e-03 0.0 
-1.940749491805e-03 -2.712935722949e-03 0.0 
0.0 0.0 -5.596395875825e-04 
2.530147010258e-03 -2.164619502393e-03 0.0 
-2.164619502393e-03 -1.313103741077e-03 0.0 
0.0 0.0 -5.215899725061e-04 
2.211625019122e-03 -2.026887853350e-03 0.0 
-2.026887853350e-03 -1.005484540943e-03 0.0 
0.0 0.0 -5.169173477906e-04 
1.423807925439e-03 -2.267387840266e-03 0.0 
-2.267387840266e-03 -1.355182259055e-04 0.0 
0.0 0.0 -5.521241569428e-04 
1.662067354709e-03 -2.341947134059e-03 0.0 
-2.341947134059e-03 -3.904230748034e-04 0.0 
0.0 0.0 -5.449904056737e-04 
1.028025405321e-03 -2.465636491421e-03 0.0 
-2.465636491421e-03 3.499500924225e-04 0.0 
0.0 0.0 -5.905609276045e-04 
8.985317602796e-04 -2.606405635227e-03 0.0 
-2.606405635227e-03 5.292322287011e-04 0.0 
0.0 0.0 -6.118988524203e-04 
7.560704768117e-04 -2.818446778216e-03 0.0 
-2.818446778216e-03 7.706212678723e-04 0.0 
0.0 0.0 -6.542964620075e-04 
8.580312086144e-04 -2.682927376050e-03 0.0 
-2.682927376050e-03 6.007672926437e-04 0.0 
0.0 0.0 -6.251993576820e-04 
5.867828103229e-04 -2.962553875983e-03 0.0 
-2.962553875983e-03 1.034857146591e-03 0.0 
0.0 0.0 -6.949885529632e-04 
4.441790608849e-04 -3.069180945402e-03 0.0 
-3.069180945402e-03 1.277969962145e-03 0.0 
0.0 0.0 -7.380638670128e-04 
2.783519300776e-04 -3.113099096991e-03 0.0 
-3.113099096991e-03 1.538449359472e-03 0.0 
0.0 0.0 -7.786291240925e-04 
1.058234640361e-04 -3.171084265656e-03 0.0 
-3.171084265656e-03 1.852966267041e-03 0.0 
0.0 0.0 -8.394813133188e-04 
3.929316153892e-04 -3.010245319228e-03 0.0 
-3.010245319228e-03 1.308656505855e-03 0.0 
0.0 0.0 -7.292520519616e-04 
9.932532998196e-05 -3.071474673695e-03 0.0 
-3.071474673695e-03 1.797955184989e-03 0.0 
0.0 0.0 -8.131202207017e-04 
1.861203807317e-04 -2.953410476768e-03 0.0 
-2.953410476768e-03 1.579421639320e-03 0.0 
0.0 0.0 -7.566608657364e-04 
-8.642223961803e-05 -2.932845730897e-03 0.0 
-2.932845730897e-03 2.045062282812e-03 0.0 
0.0 0.0 -8.394171613687e-04 
3.261893200326e-03 5.306143270303e-03 0.0 
5.306143270303e-03 -1.468826117363e-03 0.0 
0.0 0.0 -7.684573212697e-04 
-2.470987176264e-05 -2.774259717146e-03 0.0 
-2.774259717146e-03 1.827411113102e-03 0.0 
0.0 0.0 -7.725862462883e-04 
2.168591650758e-04 -2.749464912916e-03 0.0 
-2.749464912916e-03 1.402707795240e-03 0.0 
0.0 0.0 -6.941001258497e-04 
-2.655633051019e-04 -2.700896907473e-03 0.0 
-2.700896907473e-03 2.263406073752e-03 0.0 
0.0 0.0 -8.562183294215e-04 
-3.538412369767e-04 -2.807118068406e-03 0.0 
-2.807118068406e-03 2.524613030834e-03 0.0 
0.0 0.0 -9.303307687962e-04 
-2.182790499822e-04 -2.492668770886e-03 0.0 
-2.492668770886e-03 2.032114690057e-03 0.0 
0.0 0.0 -7.773581314605e-04 
-4.250446102995e-04 -2.387105800852e-03 0.0 
-2.387105800852e-03 2.436232383686e-03 0.0 
0.0 0.0 -8.619376171656e-04 
-3.808762253420e-04 -2.140229309317e-03 0.0 
-2.140229309317e-03 2.184406533220e-03 0.0 
0.0 0.0 -7.729415605190e-04 
3.765529891945e-03 5.126722990937e-03 0.0 
5.126722990937e-03 -2.272165165187e-03 0.0 
0.0 0.0 -6.400134543247e-04 
-1.088844513542e-03 3.301377294412e-03 0.0 
3.301377294412e-03 4.460583281383e-03 0.0 
0.0 0.0 -9.751682721562e-04 
-5.557439599788e-04 -2.010376698230e-03 0.0 
-2.010376698230e-03 2.553174357475e-03 0.0 
0.0 0.0 -8.560415989269e-04 
-5.027177784437e-04 -1.739983302349e-03 0.0 
-1.739983302349e-03 2.268016728775e-03 0.0 
0.0 0.0 -7.565566929991e-04 
-3.487326511453e-04 -1.851839421592e-03 0.0 
-1.851839421592e-03 1.937346492323e-03 0.0 
0.0 0.0 -6.808345033620e-04 
-4.519877827048e-04 -1.437771514004e-03 0.0 
-1.437771514004e-03 1.973465387895e-03 0.0 
0.0 0.0 -6.520618307959e-04 
-1.774841257907e-03 1.527132807035e-03 0.0 
1.527132807035e-03 5.918357799879e-03 0.0 
0.0 0.0 -9.126358703463e-04 
-1.762808846704e-03 1.694088373988e-03 0.0 
1.694088373988e-03 6.266633471383e-03 0.0 
0.0 0.0 -9.772611937912e-04 
-1.774288393461e-03 1.442569390130e-03 0.0 
1.442569390130e-03 6.194015386497e-03 0.0 
0.0 0.0 -9.468612964576e-04 
-1.759396418391e-03 1.612723129842e-03 0.0 
1.612723129842e-03 6.563174828670e-03 0.0 
0.0 0.0 -1.012955122490e-03 
-1.767929614200e-03 1.376342917300e-03 0.0 
1.376342917300e-03 6.485124768915e-03 0.0 
0.0 0.0 -9.835180958883e-04 
-5.788967960072e-04 -1.335257077215e-03 0.0 
-1.335257077215e-03 2.277225899990e-03 0.0 
0.0 0.0 -7.256352817785e-04 
-1.603689512328e-03 2.493470387195e-03 0.0 
2.493470387195e-03 5.946173640174e-03 0.0 
0.0 0.0 -1.026687169009e-03 
-1.736212695290e-03 1.850044700733e-03 0.0 
1.850044700733e-03 6.615422803056e-03 0.0 
0.0 0.0 -1.042264213861e-03 
-7.638319934371e-04 3.223456733069e-03 0.0 
3.223456733069e-03 3.455847564200e-03 0.0 
0.0 0.0 -9.409285294771e-04 
5.334608242813e-04 3.751718564855e-03 0.0 
3.751718564855e-03 1.432022256198e-03 0.0 
0.0 0.0 -8.423498916340e-04 
6.379203173171e-03 2.351862576662e-03 0.0 
2.351862576662e-03 -5.258814801861e-03 0.0 
0.0 0.0 -4.801664448473e-04 
-6.227154585167e-04 -2.198002757365e-03 0.0 
-2.198002757365e-03 2.831211668969e-03 0.0 
0.0 0.0 -9.464983759081e-04 
-7.218347779198e-04 -1.819122893170e-03 0.0 
-1.819122893170e-03 2.913297155100e-03 0.0 
0.0 0.0 -9.383242106009e-04 
-8.133368797394e-04 -1.945809227020e-03 0.0 
-1.945809227020e-03 3.204453228297e-03 0.0 
0.0 0.0 -1.004955155493e-03 
2.358180408842e-04 -3.147007717197e-03 0.0 
-3.147007717197e-03 1.628184027877e-03 0.0 
0.0 0.0 -7.988580294692e-04 
-1.225410220003e-04 -3.166679032327e-03 0.0 
-3.166679032327e-03 2.260222165472e-03 0.0 
0.0 0.0 -9.088386183890e-04 
-3.596074933626e-05 -3.143460862446e-03 0.0 
-3.143460862446e-03 2.089404171616e-03 0.0 
0.0 0.0 -8.720661220001e-04 
-3.940691537939e-04 -3.066493924859e-03 0.0 
-3.066493924859e-03 2.736277962959e-03 0.0 
0.0 0.0 -9.548449181928e-04 
-3.127433245065e-04 -2.982699423106e-03 0.0 
-2.982699423106e-03 2.620883950583e-03 0.0 
0.0 0.0 -9.363521337227e-04 
-6.475470341843e-04 -2.849005951016e-03 0.0 
-2.849005951016e-03 3.244198139691e-03 0.0 
0.0 0.0 -9.829094188347e-04 
-7.290342086422e-04 -2.890946438125e-03 0.0 
-2.890946438125e-03 3.342200867435e-03 0.0 
0.0 0.0 -9.972914379494e-04 
-9.540874880885e-04 -2.660066281729e-03 0.0 
-2.660066281729e-03 3.821872870679e-03 0.0 
0.0 0.0 -1.003716470558e-03 
-1.033871380646e-03 -2.655311578103e-03 0.0 
-2.655311578103e-03 3.899288306138e-03 0.0 
0.0 0.0 -1.010717982506e-03 
-5.020318707035e-04 -2.652589391131e-03 0.0 
-2.652589391131e-03 3.162848563043e-03 0.0 
0.0 0.0 -1.000386703517e-03 
-1.738328040713e-04 -2.716917287151e-03 0.0 
-2.716917287151e-03 2.542650585114e-03 0.0 
0.0 0.0 -9.561072799058e-04 
-1.217140716833e-03 -2.433745842754e-03 0.0 
-2.433745842754e-03 4.355239653684e-03 0.0 
0.0 0.0 -1.026468870702e-03 
-1.301004518180e-03 -2.384512482324e-03 0.0 
-2.384512482324e-03 4.413129634354e-03 0.0 
0.0 0.0 -1.025303715086e-03 
-1.433223260983e-03 -2.180723409209e-03 0.0 
-2.180723409209e-03 4.841898264917e-03 0.0 
0.0 0.0 -1.051254241329e-03 
-1.533782143048e-03 -2.096001782913e-03 0.0 
-2.096001782913e-03 4.882119290392e-03 0.0 
0.0 0.0 -1.038917832539e-03 
-1.344970022650e-03 -2.253929758585e-03 0.0 
-2.253929758585e-03 4.461736113479e-03 0.0 
0.0 0.0 -1.037516479237e-03 
-1.569102967331e-03 -1.933831873179e-03 0.0 
-1.933831873179e-03 4.899834166201e-03 0.0 
0.0 0.0 -1.046305699947e-03 
-1.376153231101e-03 -2.066079550050e-03 0.0 
-2.066079550050e-03 4.500968763913e-03 0.0 
0.0 0.0 -1.050803148915e-03 
5.408987762983e-03 1.138089369365e-03 0.0 
1.138089369365e-03 -4.361951048883e-03 0.0 
0.0 0.0 -4.487300203286e-04 
5.128152783163e-03 2.154865731944e-03 0.0 
2.154865731944e-03 -3.948606021912e-03 0.0 
0.0 0.0 -5.055200405360e-04 
4.247248623045e-03 1.026282888525e-03 0.0 
1.026282888525e-03 -2.970906764421e-03 0.0 
0.0 0.0 -5.470036536960e-04 
3.862565675232e-03 1.845855744887e-03 0.0 
1.845855744887e-03 -2.277502918012e-03 0.0 
0.0 0.0 -6.793126102372e-04 
3.137628562081e-03 8.723403022149e-04 0.0 
8.723403022149e-04 -1.349491976449e-03 0.0 
0.0 0.0 -7.663442509849e-04 
2.719563753964e-03 1.483780758996e-03 0.0 
1.483780758996e-03 -6.201345294300e-04 0.0 
0.0 0.0 -8.979051750036e-04 
2.182583656211e-03 7.143049427809e-04 0.0 
7.143049427809e-04 9.880950796585e-05 0.0 
0.0 0.0 -9.701408636527e-04 
2.498866056001e-03 9.473771034088e-05 0.0 
9.473771034088e-05 -4.813622390288e-04 0.0 
0.0 0.0 -8.646444929881e-04 
-1.453224264520e-03 2.831768754596e-03 0.0 
2.831768754596e-03 5.484804576212e-03 0.0 
0.0 0.0 -1.018102500310e-03 
7.520150466817e-03 2.540028371632e-03 0.0 
2.540028371632e-03 -5.854741556396e-03 0.0 
0.0 0.0 -7.137466758949e-04 
6.741721262136e-03 3.909705579872e-03 0.0 
3.909705579872e-03 -5.061296389791e-03 0.0 
0.0 0.0 -7.201820881480e-04 
7.069743408200e-03 2.555566437427e-03 0.0 
2.555566437427e-03 -5.364576504797e-03 0.0 
0.0 0.0 -7.307858157443e-04 
6.357239378663e-03 4.131750113850e-03 0.0 
4.131750113850e-03 -4.644989196001e-03 0.0 
0.0 0.0 -7.338215068551e-04 
6.507709006556e-03 2.696577991991e-03 0.0 
2.696577991991e-03 -4.825940508463e-03 0.0 
0.0 0.0 -7.207579277541e-04 
6.021588146632e-03 4.601741032265e-03 0.0 
4.601741032265e-03 -4.339822412977e-03 0.0 
0.0 0.0 -7.207567429950e-04 
5.982324404162e-03 2.996110024730e-03 0.0 
2.996110024730e-03 -4.438023141509e-03 0.0 
0.0 0.0 -6.618433982802e-04 
6.241026285645e-03 9.119398042269e-04 0.0 
9.119398042269e-04 -4.683880866585e-03 0.0 
0.0 0.0 -6.673480367399e-04 
5.495897507026e-03 1.048373937285e-03 0.0 
1.048373937285e-03 -4.212152551578e-03 0.0 
0.0 0.0 -5.501764094776e-04 
5.754337501457e-03 -9.138998234036e-04 0.0 
-9.138998234036e-04 -4.368816059660e-03 0.0 
0.0 0.0 -5.937949036274e-04 
4.893957144291e-03 -7.830143614833e-04 0.0 
-7.830143614833e-04 -3.887480378242e-03 0.0 
0.0 0.0 -4.313471854492e-04 
5.233732443613e-03 -2.600665469403e-03 0.0 
-2.600665469403e-03 -3.953808360679e-03 0.0 
0.0 0.0 -5.485388926860e-04 
5.480018802919e-04 4.422130218499e-03 0.0 
4.422130218499e-03 1.895975607647e-03 0.0 
0.0 0.0 -9.405629120884e-04 
3.327498099014e-03 2.423452826767e-03 0.0 
2.423452826767e-03 -1.391125052107e-03 0.0 
0.0 0.0 -8.298741629604e-04 
2.201718588662e-03 1.938483978495e-03 0.0 
1.938483978495e-03 2.034637392162e-04 0.0 
0.0 0.0 -9.993981362447e-04 
2.745642216127e-03 2.820156902233e-03 0.0 
2.820156902233e-03 -4.680784174775e-04 0.0 
0.0 0.0 -9.522937794042e-04 
-3.189420848090e-04 -1.545020922433e-03 0.0 
-1.545020922433e-03 1.685829119162e-03 0.0 
0.0 0.0 -5.858087290083e-04 
-1.729227017080e-03 -1.797597956290e-03 0.0 
-1.797597956290e-03 5.304685395965e-03 0.0 
0.0 0.0 -1.052155339158e-03 
-3.558894212413e-04 -2.357175527876e-03 0.0 
-2.357175527876e-03 3.123019306479e-03 0.0 
0.0 0.0 -1.032922975483e-03 
1.501827579541e-04 -2.329230269192e-03 0.0 
-2.329230269192e-03 2.332340341037e-03 0.0 
0.0 0.0 -9.972889278909e-04 
1.722295058937e-03 9.728157274541e-05 0.0 
9.728157274541e-05 7.608135444690e-04 0.0 
0.0 0.0 -1.036234461364e-03 
-5.051250462252e-04 -1.053858961610e-03 0.0 
-1.053858961610e-03 1.923683454344e-03 0.0 
0.0 0.0 -5.970694122200e-04 
5.725294767269e-03 5.408886545160e-03 0.0 
5.408886545160e-03 -4.167483757590e-03 0.0 
0.0 0.0 -6.676332898623e-04 
5.421580482122e-03 6.620353715438e-03 0.0 
6.620353715438e-03 -3.766696737167e-03 0.0 
0.0 0.0 -7.092358906949e-04 
-1.744623678677e-03 1.540348128746e-03 0.0 
1.540348128746e-03 6.846449706807e-03 0.0 
0.0 0.0 -1.048874596840e-03 
-1.750773001735e-03 1.319704536713e-03 0.0 
1.319704536713e-03 6.756146718387e-03 0.0 
0.0 0.0 -1.019458214591e-03 
-1.112117732076e-04 -1.996830808236e-03 0.0 
-1.996830808236e-03 3.000501720326e-03 0.0 
0.0 0.0 -1.070157681403e-03 
-6.234076530390e-04 -9.645286907226e-04 0.0 
-9.645286907226e-04 2.209865459266e-03 0.0 
0.0 0.0 -6.466873288763e-04 
-1.068414060457e-03 -2.374253472806e-03 0.0 
-2.374253472806e-03 4.293485734694e-03 0.0 
0.0 0.0 -1.053463316161e-03 
4.765850402758e-03 1.347030849539e-03 0.0 
1.347030849539e-03 -3.883896105519e-03 0.0 
0.0 0.0 -3.779804131024e-04 
-1.762784595192e-03 -1.607331333857e-03 0.0 
-1.607331333857e-03 5.293267446583e-03 0.0 
0.0 0.0 -1.053563116650e-03 
-1.867913240625e-03 -1.489305966451e-03 0.0 
-1.489305966451e-03 5.673891533939e-03 0.0 
0.0 0.0 -1.070920355653e-03 
-7.933761041048e-04 -2.832720245216e-03 0.0 
-2.832720245216e-03 3.452224715287e-03 0.0 
0.0 0.0 -1.021320298254e-03 
1.666710394664e-03 2.273025278264e-03 0.0 
2.273025278264e-03 1.032777678773e-03 0.0 
0.0 0.0 -1.069468904140e-03 
2.168370822443e-03 3.086144828132e-03 0.0 
3.086144828132e-03 4.249619564028e-04 0.0 
0.0 0.0 -1.033921039166e-03 
5.718727416106e-03 -2.480551761257e-03 0.0 
-2.480551761257e-03 -4.222876263922e-03 0.0 
0.0 0.0 -6.410790652217e-04 
4.853021995707e-03 -3.709102878947e-03 0.0 
-3.709102878947e-03 -3.353182628062e-03 0.0 
0.0 0.0 -6.427883004194e-04 
4.648642007518e-03 -4.085582600570e-03 0.0 
-4.085582600570e-03 -3.282227298216e-03 0.0 
0.0 0.0 -5.856063039867e-04 
3.608859147068e-03 -4.128777105399e-03 0.0 
-4.128777105399e-03 -2.065500870777e-03 0.0 
0.0 0.0 -6.614392612675e-04 
3.574931232539e-03 -3.578329673537e-03 0.0 
-3.578329673537e-03 -2.006538827474e-03 0.0 
0.0 0.0 -6.721681735992e-04 
2.277077522333e-03 -3.372375603438e-03 0.0 
-3.372375603438e-03 -7.022742897760e-04 0.0 
0.0 0.0 -6.749156710960e-04 
2.217567725797e-03 -3.708849495488e-03 0.0 
-3.708849495488e-03 -6.363478234057e-04 0.0 
0.0 0.0 -6.776656724536e-04 
1.498218282607e-03 -3.239267173229e-03 0.0 
-3.239267173229e-03 1.323736015907e-04 0.0 
0.0 0.0 -6.988250932278e-04 
1.538218957511e-03 -3.082075736210e-03 0.0 
-3.082075736210e-03 7.246781046838e-07 0.0 
0.0 0.0 -6.595472724067e-04 
1.116756184221e-03 -3.039153293536e-03 0.0 
-3.039153293536e-03 4.098621490743e-04 0.0 
0.0 0.0 -6.542649999838e-04 
9.813252680918e-04 -2.956617965048e-03 0.0 
-2.956617965048e-03 5.482338783846e-04 0.0 
0.0 0.0 -6.555253484899e-04 
6.892512545273e-04 -2.715436424775e-03 0.0 
-2.715436424775e-03 7.414890539001e-04 0.0 
0.0 0.0 -6.131744178975e-04 
-1.739487401810e-03 -1.643308528611e-03 0.0 
-1.643308528611e-03 5.674904400731e-03 0.0 
0.0 0.0 -1.101875158976e-03 
4.057856816469e-03 -5.446838989900e-04 0.0 
-5.446838989900e-04 -3.529143800473e-03 0.0 
0.0 0.0 -2.265912925700e-04 
-1.396148361601e-03 2.647702035806e-03 0.0 
2.647702035806e-03 4.519072400057e-03 0.0 
0.0 0.0 -8.810844588398e-04 
-5.349333944456e-04 -2.056134526959e-03 0.0 
-2.056134526959e-03 3.696128141265e-03 0.0 
0.0 0.0 -1.099012274073e-03 
1.336438583392e-03 5.911958231604e-04 0.0 
5.911958231604e-04 1.354815165094e-03 0.0 
0.0 0.0 -1.088453095952e-03 
-1.720074879915e-03 1.479198222822e-03 0.0 
1.479198222822e-03 7.120039440071e-03 0.0 
0.0 0.0 -1.085032576515e-03 
-1.727265597861e-03 1.269164868262e-03 0.0 
1.269164868262e-03 7.020339379643e-03 0.0 
0.0 0.0 -1.055603631703e-03 
-1.745923234167e-03 1.117194505061e-03 0.0 
1.117194505061e-03 6.644193117880e-03 0.0 
0.0 0.0 -9.897378988699e-04 
-1.726111739886e-03 1.073003689324e-03 0.0 
1.073003689324e-03 6.905750690588e-03 0.0 
0.0 0.0 -1.026001677571e-03 
-1.697815529865e-03 1.216597394983e-03 0.0 
1.216597394983e-03 7.279055033116e-03 0.0 
0.0 0.0 -1.091942449670e-03 
-1.699755368788e-03 1.027337857590e-03 0.0 
1.027337857590e-03 7.158023142695e-03 0.0 
0.0 0.0 -1.062342898562e-03 
-1.716352618538e-03 8.878056221667e-04 0.0 
8.878056221667e-04 6.774679391188e-03 0.0 
0.0 0.0 -9.962627399151e-04 
-1.692178280540e-03 8.508470267666e-04 0.0 
8.508470267666e-04 7.019991579685e-03 0.0 
0.0 0.0 -1.032646955902e-03 
-1.695660932446e-03 7.184317155414e-04 0.0 
7.184317155414e-04 6.625583462411e-03 0.0 
0.0 0.0 -9.664557332607e-04 
-1.677486126932e-03 6.911180295046e-04 0.0 
6.911180295046e-04 6.868534941944e-03 0.0 
0.0 0.0 -1.002889032254e-03 
-1.663620555798e-03 8.098065595925e-04 0.0 
8.098065595925e-04 7.259384762552e-03 0.0 
0.0 0.0 -1.069134413525e-03 
-1.655525420696e-03 6.533870042141e-04 0.0 
6.533870042141e-04 7.107625883104e-03 0.0 
0.0 0.0 -1.039387411609e-03 
-1.659615819212e-03 5.491873914478e-04 0.0 
5.491873914478e-04 6.708579784798e-03 0.0 
0.0 0.0 -9.730575354659e-04 
-1.642941155605e-03 5.125241071205e-04 0.0 
5.125241071205e-04 6.945188648216e-03 0.0 
0.0 0.0 -1.009574527126e-03 
-1.637255380195e-03 4.205204331053e-04 0.0 
4.205204331053e-04 6.536272510904e-03 0.0 
0.0 0.0 -9.431603702596e-04 
-1.623420800787e-03 3.856837058294e-04 0.0 
3.856837058294e-04 6.767271635738e-03 0.0 
0.0 0.0 -9.796061197752e-04 
-1.622026920778e-03 4.757000201370e-04 0.0 
4.757000201370e-04 7.177981971167e-03 0.0 
0.0 0.0 -1.046101832713e-03 
-5.134406972338e-04 -7.748842471248e-04 0.0 
-7.748842471248e-04 1.792074909452e-03 0.0 
0.0 0.0 -4.826019863697e-04 
1.956066536230e-03 -5.062813546408e-04 0.0 
-5.062813546408e-04 3.082388775940e-04 0.0 
0.0 0.0 -9.660701661439e-04 
1.262077430646e-03 -3.981699939281e-04 0.0 
-3.981699939281e-04 1.422835508174e-03 0.0 
0.0 0.0 -1.083831836676e-03 
-8.892645420983e-04 -1.589464053846e-03 0.0 
-1.589464053846e-03 3.243112049151e-03 0.0 
0.0 0.0 -9.683295300233e-04 
-9.893521759344e-04 -1.650588191873e-03 0.0 
-1.650588191873e-03 3.517832807879e-03 0.0 
0.0 0.0 -1.010934236754e-03 
-9.339052402119e-04 -1.988561699477e-03 0.0 
-1.988561699477e-03 3.508091553521e-03 0.0 
0.0 0.0 -1.041462402745e-03 
-1.131758993546e-03 -1.657762215853e-03 0.0 
-1.657762215853e-03 3.856452720899e-03 0.0 
0.0 0.0 -1.033211989474e-03 
-1.610140258144e-03 3.510578464752e-04 0.0 
3.510578464752e-04 7.002203508451e-03 0.0 
0.0 0.0 -1.015477767897e-03 
-1.603569950634e-03 4.323698609735e-04 0.0 
4.323698609735e-04 7.406712470395e-03 0.0 
0.0 0.0 -1.082739357160e-03 
5.482424690309e-03 8.739034394696e-03 0.0 
8.739034394696e-03 -3.921722327325e-03 0.0 
0.0 0.0 -6.688724412789e-04 
4.697096250003e-03 8.766093526624e-03 0.0 
8.766093526624e-03 -3.111029888401e-03 0.0 
0.0 0.0 -6.797427264007e-04 
-1.702624885041e-03 1.699730791061e-03 0.0 
1.699730791061e-03 7.199957864770e-03 0.0 
0.0 0.0 -1.114382729655e-03 
-1.921178658721e-03 -1.279150328982e-03 0.0 
-1.279150328982e-03 5.641022297000e-03 0.0 
0.0 0.0 -1.061085778683e-03 
-1.759404772593e-03 -1.368797781515e-03 0.0 
-1.368797781515e-03 5.258990087990e-03 0.0 
0.0 0.0 -1.062669991958e-03 
1.311158270462e-03 4.387389141934e-03 0.0 
4.387389141934e-03 4.439089896657e-04 0.0 
0.0 0.0 -7.521716829121e-04 
6.256168446759e-04 3.749410378060e-03 0.0 
3.749410378060e-03 1.209655229931e-03 0.0 
0.0 0.0 -7.865451748317e-04 
1.379830084439e-03 4.587007425791e-03 0.0 
4.587007425791e-03 2.690956937989e-04 0.0 
0.0 0.0 -7.066824763876e-04 
7.288654722909e-04 4.007404208986e-03 0.0 
4.007404208986e-03 9.755205147089e-04 0.0 
0.0 0.0 -7.304511372856e-04 
1.778197106291e-04 3.234068995862e-03 0.0 
3.234068995862e-03 1.733633404014e-03 0.0 
0.0 0.0 -8.191941919899e-04 
1.476652823829e-03 5.218405534725e-03 0.0 
5.218405534725e-03 4.498445995253e-05 0.0 
0.0 0.0 -6.521302644778e-04 
3.328964085009e-04 -2.701559661825e-03 0.0 
-2.701559661825e-03 1.716667045752e-03 0.0 
0.0 0.0 -8.664312523603e-04 
-1.632170864774e-03 7.587389543785e-04 0.0 
7.587389543785e-04 7.494664304375e-03 0.0 
0.0 0.0 -1.105708206284e-03 
-1.867627977739e-04 -1.946982532398e-03 0.0 
-1.946982532398e-03 1.623581017794e-03 0.0 
0.0 0.0 -6.157792371515e-04 
-1.766459924498e-04 -1.658792918857e-03 0.0 
-1.658792918857e-03 1.424250676640e-03 0.0 
0.0 0.0 -5.346877217957e-04 
-1.953846352874e-03 -1.181006378595e-03 0.0 
-1.181006378595e-03 5.993034579258e-03 0.0 
0.0 0.0 -1.094582683422e-03 
2.598560537899e-03 -6.659478093044e-04 0.0 
-6.659478093044e-04 -8.409925391146e-04 0.0 
0.0 0.0 -7.532434280506e-04 
2.126177974556e-05 4.174433745013e-03 0.0 
4.174433745013e-03 2.709954912313e-03 0.0 
0.0 0.0 -9.533529749162e-04 
8.614062152700e-04 4.680293573612e-03 0.0 
4.680293573612e-03 1.853989894299e-03 0.0 
0.0 0.0 -9.681750457242e-04 
3.072754756590e-04 4.374117650973e-03 0.0 
4.374117650973e-03 2.739549847312e-03 0.0 
0.0 0.0 -9.957130113267e-04 
1.324824426202e-03 4.907206289815e-03 0.0 
4.907206289815e-03 1.737307472781e-03 0.0 
0.0 0.0 -1.023751803962e-03 
7.878820987787e-04 4.672818073139e-03 0.0 
4.672818073139e-03 2.621628510940e-03 0.0 
0.0 0.0 -1.059873349132e-03 
1.270960307116e-03 4.710404026866e-03 0.0 
4.710404026866e-03 2.148215896682e-03 0.0 
0.0 0.0 -1.087854580038e-03 
1.780667606574e-03 4.795921320113e-03 0.0 
4.795921320113e-03 1.308837034477e-03 0.0 
0.0 0.0 -1.051791170495e-03 
1.163720956396e-03 2.530608113259e-03 0.0 
2.530608113259e-03 1.815606837467e-03 0.0 
0.0 0.0 -1.107463318235e-03 
9.774712934088e-04 4.041459248694e-03 0.0 
4.041459248694e-03 2.470540697653e-03 0.0 
0.0 0.0 -1.115916943430e-03 
-1.595806012880e-03 2.986475684988e-04 0.0 
2.986475684988e-04 6.569860539438e-03 0.0 
0.0 0.0 -9.487150400336e-04 
3.924849201980e-03 3.506170897594e-03 0.0 
3.506170897594e-03 -2.127731841275e-03 0.0 
0.0 0.0 -7.701931545877e-04 
1.099587361542e-03 -2.883577329194e-03 0.0 
-2.883577329194e-03 3.196281228081e-04 0.0 
0.0 0.0 -6.082352075787e-04 
-4.120182269500e-04 -8.254968701079e-04 0.0 
-8.254968701079e-04 1.533206618467e-03 0.0 
0.0 0.0 -4.510100977180e-04 
5.592980566656e-04 -2.545612127290e-03 0.0 
-2.545612127290e-03 8.296765578219e-04 0.0 
0.0 0.0 -5.952748347803e-04 
-6.262840441887e-04 -6.448010795071e-04 0.0 
-6.448010795071e-04 2.035833554771e-03 0.0 
0.0 0.0 -5.222488353909e-04 
-7.319508735308e-04 -8.428934672220e-04 0.0 
-8.428934672220e-04 2.464651158961e-03 0.0 
0.0 0.0 -6.822577977165e-04 
-4.113700280954e-04 -1.755000932336e-03 0.0 
-1.755000932336e-03 3.689283917519e-03 0.0 
0.0 0.0 -1.136360603439e-03 
7.903375657818e-04 4.596446465726e-03 0.0 
4.596446465726e-03 2.978386718205e-03 0.0 
0.0 0.0 -1.124065295910e-03 
2.783103300351e-04 4.402827223016e-03 0.0 
4.402827223016e-03 3.477086285212e-03 0.0 
0.0 0.0 -1.095615423988e-03 
3.478370252022e-04 3.819034726083e-03 0.0 
3.819034726083e-03 1.418835030318e-03 0.0 
0.0 0.0 -7.571451666514e-04 
1.826716061448e-05 3.443891767459e-03 0.0 
3.443891767459e-03 1.954035713112e-03 0.0 
0.0 0.0 -8.452726601685e-04 
7.372303583254e-04 1.857214435403e-03 0.0 
1.857214435403e-03 2.331106114848e-03 0.0 
0.0 0.0 -1.136278651916e-03 
-1.765237675762e-03 1.222407657091e-03 0.0 
1.222407657091e-03 6.114667953270e-03 0.0 
0.0 0.0 -9.177848451843e-04 
-1.710580504207e-03 7.440398052567e-04 0.0 
7.440398052567e-04 6.380060456859e-03 0.0 
0.0 0.0 -9.302130594432e-04 
-1.676565589941e-03 5.872598873801e-04 0.0 
5.872598873801e-04 6.215440748447e-03 0.0 
0.0 0.0 -9.001900590098e-04 
-3.296579794571e-04 -5.445178066412e-04 0.0 
-5.445178066412e-04 1.421031875252e-03 0.0 
0.0 0.0 -3.494697005546e-04 
7.568627899495e-04 -2.787918667943e-03 0.0 
-2.787918667943e-03 7.221354992753e-04 0.0 
0.0 0.0 -6.338564096678e-04 
-1.662120244785e-03 1.162296850059e-03 0.0 
1.162296850059e-03 7.529797322482e-03 0.0 
0.0 0.0 -1.128363834889e-03 
4.654164703803e-03 6.771187556079e-03 0.0 
6.771187556079e-03 -3.031495631075e-03 0.0 
0.0 0.0 -6.954296025976e-04 
3.703837018056e-03 7.726307902639e-03 0.0 
7.726307902639e-03 -2.170072817638e-03 0.0 
0.0 0.0 -6.573275144647e-04 
4.283095696464e-03 2.004266624137e-03 0.0 
2.004266624137e-03 -3.939843193359e-03 0.0 
0.0 0.0 -1.471082156167e-04 
3.320025850705e-03 -1.555258926632e-04 0.0 
-1.555258926632e-04 -3.237074725041e-03 0.0 
0.0 0.0 -3.555048242768e-05 
-1.589929625905e-03 3.288854672539e-04 0.0 
3.288854672539e-04 7.214274616426e-03 0.0 
0.0 0.0 -1.051814883004e-03 
-1.572388470156e-03 3.792019312018e-04 0.0 
3.792019312018e-04 7.619653826889e-03 0.0 
0.0 0.0 -1.117859435171e-03 
-1.078769339999e-03 -1.982110544533e-03 0.0 
-1.982110544533e-03 3.829235274235e-03 0.0 
0.0 0.0 -1.051224796075e-03 
-1.274189695606e-03 -1.627447894412e-03 0.0 
-1.627447894412e-03 4.185605639052e-03 0.0 
0.0 0.0 -1.050863174419e-03 
1.181777067513e-04 -1.587363611820e-03 0.0 
-1.587363611820e-03 2.902868897548e-03 0.0 
0.0 0.0 -1.107558395918e-03 
3.636511301315e-04 -2.361072158115e-03 0.0 
-2.361072158115e-03 9.584204304499e-04 0.0 
0.0 0.0 -5.666020973920e-04 
-1.569287665322e-03 4.982993919659e-04 0.0 
4.982993919659e-04 7.796117196338e-03 0.0 
0.0 0.0 -1.149181664990e-03 
1.953385102123e-03 -1.205061211169e-03 0.0 
-1.205061211169e-03 9.437292740583e-05 0.0 
0.0 0.0 -8.776105840836e-04 
2.396619794237e-03 -1.509997579159e-03 0.0 
-1.509997579159e-03 -8.685812114478e-04 0.0 
0.0 0.0 -6.548736783380e-04 
-1.171879392758e-03 -1.281686817317e-03 0.0 
-1.281686817317e-03 3.846852730435e-03 0.0 
0.0 0.0 -1.001803992689e-03 
4.473124750291e-03 1.132593049867e-02 0.0 
1.132593049867e-02 -3.012087771117e-03 0.0 
0.0 0.0 -6.261587053603e-04 
5.187528827623e-03 1.134984906128e-02 0.0 
1.134984906128e-02 -3.854253934636e-03 0.0 
0.0 0.0 -5.714035255658e-04 
1.466801754994e-03 -2.835534920743e-03 0.0 
-2.835534920743e-03 -6.856056088169e-05 0.0 
0.0 0.0 -5.992462260482e-04 
4.198225928608e-04 -2.489806032447e-03 0.0 
-2.489806032447e-03 9.452515050113e-04 0.0 
0.0 0.0 -5.850317562309e-04 
-7.228005656972e-04 -5.488391732617e-04 0.0 
-5.488391732617e-04 2.276834511977e-03 0.0 
0.0 0.0 -5.562745863746e-04 
-3.654737739745e-04 -1.414866529841e-03 0.0 
-1.414866529841e-03 3.754878312707e-03 0.0 
0.0 0.0 -1.173829981771e-03 
-1.646663843551e-03 1.358180133252e-03 0.0 
1.358180133252e-03 7.637691352308e-03 0.0 
0.0 0.0 -1.157575248917e-03 
1.474691013442e-03 4.040139309925e-03 0.0 
4.040139309925e-03 1.649861929339e-03 0.0 
0.0 0.0 -1.080172819833e-03 
2.377188667136e-03 4.887201109268e-03 0.0 
4.887201109268e-03 3.758693668574e-04 0.0 
0.0 0.0 -1.015677837919e-03 
6.139547500967e-04 3.385330964516e-03 0.0 
3.385330964516e-03 2.863938941439e-03 0.0 
0.0 0.0 -1.144955025780e-03 
2.673047132891e-04 -2.137865757300e-03 0.0 
-2.137865757300e-03 9.516698016607e-04 0.0 
0.0 0.0 -5.224176492642e-04 
-7.311483308604e-04 -1.856928531792e-03 0.0 
-1.856928531792e-03 4.285424001286e-03 0.0 
0.0 0.0 -1.165794428787e-03 
-2.038713827362e-03 -9.521744761757e-04 0.0 
-9.521744761757e-04 5.942161280998e-03 0.0 
0.0 0.0 -1.070719593515e-03 
3.271559611625e-04 4.471764756419e-03 0.0 
4.471764756419e-03 3.770379225922e-03 0.0 
0.0 0.0 -1.157598467365e-03 
-1.959133665143e-04 4.109781373692e-03 0.0 
4.109781373692e-03 4.299222345311e-03 0.0 
0.0 0.0 -1.131219827106e-03 
3.685232090618e-03 6.184036542905e-03 0.0 
6.184036542905e-03 -2.141105365534e-03 0.0 
0.0 0.0 -6.617685964645e-04 
2.818282710080e-03 6.660213824546e-03 0.0 
6.660213824546e-03 -1.381734298241e-03 0.0 
0.0 0.0 -6.156636050741e-04 
2.806550328172e-03 8.505604700985e-03 0.0 
8.505604700985e-03 -1.396020850560e-03 0.0 
0.0 0.0 -6.045126332627e-04 
2.139148338997e-03 7.397691415212e-03 0.0 
7.397691415212e-03 -7.526022812118e-04 0.0 
0.0 0.0 -5.942340247651e-04 
-1.648477658061e-03 2.188124378807e-03 0.0 
2.188124378807e-03 4.981950326516e-03 0.0 
0.0 0.0 -8.520119503206e-04 
2.799648162027e-03 5.577160418350e-03 0.0 
5.577160418350e-03 -1.350953447336e-03 0.0 
0.0 0.0 -6.208691634391e-04 
-1.164374950017e-03 2.801514945082e-03 0.0 
2.801514945082e-03 4.086272555253e-03 0.0 
0.0 0.0 -8.983830653277e-04 
-1.269722602642e-03 2.487508477755e-03 0.0 
2.487508477755e-03 4.199128990551e-03 0.0 
0.0 0.0 -8.736227209573e-04 
-1.046332524412e-03 2.638264182984e-03 0.0 
2.638264182984e-03 3.789437134256e-03 0.0 
0.0 0.0 -8.954616384525e-04 
-9.535589006009e-05 3.192865815352e-03 0.0 
3.192865815352e-03 2.227004452414e-03 0.0 
0.0 0.0 -9.127067050351e-04 
-2.711853311252e-04 3.128865685501e-03 0.0 
3.128865685501e-03 2.460395354080e-03 0.0 
0.0 0.0 -9.307589223859e-04 
5.758916198090e-03 5.027460059805e-03 0.0 
5.027460059805e-03 -4.098774501199e-03 0.0 
0.0 0.0 -7.114892986678e-04 
5.870658485627e-03 3.345896714915e-03 0.0 
3.345896714915e-03 -4.676230318899e-03 0.0 
0.0 0.0 -5.118977857407e-04 
-8.515674767651e-04 -2.308299700533e-03 0.0 
-2.308299700533e-03 3.434983390257e-03 0.0 
0.0 0.0 -1.054912416397e-03 
-1.137266829401e-03 -2.398619768870e-03 0.0 
-2.398619768870e-03 4.055285407119e-03 0.0 
0.0 0.0 -1.045074301760e-03 
3.367977982503e-04 -3.065748121326e-03 0.0 
-3.065748121326e-03 1.429094799845e-03 0.0 
0.0 0.0 -7.568111134693e-04 
-1.629365191565e-03 9.257695161170e-04 0.0 
9.257695161170e-04 7.634439739813e-03 0.0 
0.0 0.0 -1.135109731873e-03 
-1.590870954180e-03 8.599854275843e-04 0.0 
8.599854275843e-04 7.870981141839e-03 0.0 
0.0 0.0 -1.171938512032e-03 
-1.643416432560e-03 4.449926551975e-04 0.0 
4.449926551975e-04 6.296597502974e-03 0.0 
0.0 0.0 -9.065739516476e-04 
-1.602464872442e-03 3.219184720994e-04 0.0 
3.219184720994e-04 6.108782366366e-03 0.0 
0.0 0.0 -8.764137937918e-04 
-2.696764371388e-04 -1.265861831851e-03 0.0 
-1.265861831851e-03 1.411045974668e-03 0.0 
0.0 0.0 -4.842067647502e-04 
-1.400634450087e-04 -1.409834388031e-03 0.0 
-1.409834388031e-03 1.204297259864e-03 0.0 
0.0 0.0 -4.502468535423e-04 
-2.319199994023e-04 -3.122878098546e-03 0.0 
-3.122878098546e-03 2.451044877423e-03 0.0 
0.0 0.0 -9.437206122825e-04 
-7.988578011231e-04 -2.058259969339e-03 0.0 
-2.058259969339e-03 4.234722114073e-03 0.0 
0.0 0.0 -1.127529358476e-03 
-1.669665556383e-03 1.635524756470e-03 0.0 
1.635524756470e-03 7.469407833496e-03 0.0 
0.0 0.0 -1.150095860580e-03 
-1.643068085807e-03 1.857648967737e-03 0.0 
1.857648967737e-03 7.542411325100e-03 0.0 
0.0 0.0 -1.179372829571e-03 
-1.673921977860e-03 1.925750498755e-03 0.0 
1.925750498755e-03 7.258395415596e-03 0.0 
0.0 0.0 -1.143369325255e-03 
1.599613457371e-04 -1.153593364026e-03 0.0 
-1.153593364026e-03 2.984264819365e-03 0.0 
0.0 0.0 -1.144273392007e-03 
7.412647068096e-03 9.294654375751e-04 0.0 
9.294654375751e-04 -5.747953685249e-03 0.0 
0.0 0.0 -7.134400212203e-04 
4.322604512793e-03 6.299146019356e-05 0.0 
6.299146019356e-05 -3.234227808410e-03 0.0 
0.0 0.0 -4.664471590211e-04 
3.653134470874e-03 -2.378806259105e-03 0.0 
-2.378806259105e-03 -3.292181274994e-03 0.0 
0.0 0.0 -1.546942268056e-04 
2.368876990072e-03 5.235452320204e-03 0.0 
5.235452320204e-03 -2.849584408474e-04 0.0 
0.0 0.0 -8.625807428358e-04 
-1.387284875597e-04 -1.147843400141e-03 0.0 
-1.147843400141e-03 1.071097091449e-03 0.0 
0.0 0.0 -3.720583479433e-04 
-1.231098641636e-03 3.135190691380e-03 0.0 
3.135190691380e-03 4.944666622865e-03 0.0 
0.0 0.0 -1.010319580236e-03 
-1.984786992954e-03 -8.733459957740e-04 0.0 
-8.733459957740e-04 6.259759611652e-03 0.0 
0.0 0.0 -1.122815839103e-03 
-1.861926426933e-03 -1.095524342960e-03 0.0 
-1.095524342960e-03 6.311220838631e-03 0.0 
0.0 0.0 -1.159213750608e-03 
2.891672756549e-04 2.099159240757e-03 0.0 
2.099159240757e-03 3.039345617129e-03 0.0 
0.0 0.0 -1.171959308352e-03 
-1.650784635861e-03 2.122999450929e-03 0.0 
2.122999450929e-03 4.721456824994e-03 0.0 
0.0 0.0 -7.960146267056e-04 
3.456533188527e-03 5.448484531895e-03 0.0 
5.448484531895e-03 -1.410787388453e-03 0.0 
0.0 0.0 -8.506774374544e-04 
4.264057915025e-03 5.307322413731e-03 0.0 
5.307322413731e-03 -2.541217233048e-03 0.0 
0.0 0.0 -7.383602922759e-04 
-1.151631009971e-03 2.438561093580e-03 0.0 
2.438561093580e-03 3.891859376293e-03 0.0 
0.0 0.0 -8.625652443140e-04 
-9.239574436503e-04 2.889037104430e-03 0.0 
2.889037104430e-03 3.493832713913e-03 0.0 
0.0 0.0 -8.875966840820e-04 
-8.066787093543e-04 2.777426977554e-03 0.0 
2.777426977554e-03 3.370899001042e-03 0.0 
0.0 0.0 -9.244972712473e-04 
-6.625726490861e-04 3.307536694130e-03 0.0 
3.307536694130e-03 3.068268677517e-03 0.0 
0.0 0.0 -9.234394568817e-04 
1.009712769882e-03 -2.639627470040e-03 0.0 
-2.639627470040e-03 3.518698063256e-04 0.0 
0.0 0.0 -5.835353898034e-04 
7.225051380104e-04 -2.634694636205e-03 0.0 
-2.634694636205e-03 6.767854285005e-04 0.0 
0.0 0.0 -5.996959570761e-04 
5.731327668990e-05 3.976181453886e-03 0.0 
3.976181453886e-03 4.110195352240e-03 0.0 
0.0 0.0 -1.192042136895e-03 
2.133453591025e-04 3.517508112241e-03 0.0 
3.517508112241e-03 3.587722104286e-03 0.0 
0.0 0.0 -1.178660172201e-03 
-5.038846395386e-05 4.315235482908e-03 0.0 
4.315235482908e-03 4.523564706955e-03 0.0 
0.0 0.0 -1.193029175878e-03 
-5.679466290969e-04 3.857496112033e-03 0.0 
3.857496112033e-03 5.056455793732e-03 0.0 
0.0 0.0 -1.168165168231e-03 
-3.061759125891e-05 1.556905296204e-03 0.0 
1.556905296204e-03 3.442011530071e-03 0.0 
0.0 0.0 -1.200910491468e-03 
4.066676651448e-04 1.285917627536e-03 0.0 
1.285917627536e-03 2.766057684991e-03 0.0 
0.0 0.0 -1.164168769488e-03 
-8.338945190871e-04 -6.899851568111e-04 0.0 
-6.899851568111e-04 2.693161182237e-03 0.0 
0.0 0.0 -7.014880017679e-04 
-8.681527523987e-05 4.214199724443e-03 0.0 
4.214199724443e-03 2.101448489962e-03 0.0 
0.0 0.0 -8.634142348809e-04 
-1.596224494799e-03 1.291320717670e-03 0.0 
1.291320717670e-03 7.883322151599e-03 0.0 
0.0 0.0 -1.194151889699e-03 
-1.353264825569e-03 2.174300312617e-03 0.0 
2.174300312617e-03 4.270239000318e-03 0.0 
0.0 0.0 -8.433929263471e-04 
-9.622501338421e-04 -1.912189492832e-03 0.0 
-1.912189492832e-03 4.776924830183e-03 0.0 
0.0 0.0 -1.192835421428e-03 
-1.026421419571e-03 -2.028541400734e-03 0.0 
-2.028541400734e-03 4.755168212354e-03 0.0 
0.0 0.0 -1.156047193884e-03 
2.738420517693e-03 -1.763819942966e-03 0.0 
-1.763819942966e-03 -2.714767051328e-03 0.0 
0.0 0.0 -1.013719987055e-05 
3.385463843192e-03 -4.690667795304e-03 0.0 
-4.690667795304e-03 -2.895218785872e-03 0.0 
0.0 0.0 -2.101050245656e-04 
-1.537691014338e-03 4.222863431362e-04 0.0 
4.222863431362e-04 8.020533850651e-03 0.0 
0.0 0.0 -1.184588873336e-03 
1.873148344672e-03 9.012553193183e-03 0.0 
9.012553193183e-03 -5.431446228410e-04 0.0 
0.0 0.0 -5.700015950705e-04 
1.501786748609e-03 8.229075418447e-03 0.0 
8.229075418447e-03 -1.482029139244e-04 0.0 
0.0 0.0 -5.801073577219e-04 
2.367809581117e-03 1.015115083571e-02 0.0 
1.015115083571e-02 -1.034523566154e-03 0.0 
0.0 0.0 -5.714082921272e-04 
-1.721775180469e-03 -2.750261499923e-04 0.0 
-2.750261499923e-04 6.955705942823e-03 0.0 
0.0 0.0 -1.258310293365e-03 
-1.440319018305e-03 2.756393348766e-05 0.0 
2.756393348766e-05 5.261443928406e-03 0.0 
0.0 0.0 -7.479256703001e-04 
-1.851935248777e-03 -8.185806621322e-04 0.0 
-8.185806621322e-04 6.555435669483e-03 0.0 
0.0 0.0 -1.189418985649e-03 
-3.624356194934e-04 3.164434027964e-03 0.0 
3.164434027964e-03 2.710514095153e-03 0.0 
0.0 0.0 -9.658202727595e-04 
-1.517819935298e-03 5.689925216528e-04 0.0 
5.689925216528e-04 8.183121975380e-03 0.0 
0.0 0.0 -1.216510697198e-03 
3.721626120347e-03 4.870581961184e-03 0.0 
4.870581961184e-03 -1.649419363451e-03 0.0 
0.0 0.0 -8.651011823288e-04 
2.097078403348e-03 4.869798279260e-03 0.0 
4.869798279260e-03 -5.138191529428e-04 0.0 
0.0 0.0 -6.785396787449e-04 
7.949648228661e-04 -1.322999015972e-03 0.0 
-1.322999015972e-03 1.971477778947e-03 0.0 
0.0 0.0 -1.078177493492e-03 
-1.550932841916e-03 2.613354928632e-04 0.0 
2.613354928632e-04 7.825402361396e-03 0.0 
0.0 0.0 -1.149140729088e-03 
-1.512659112896e-03 3.422106709257e-04 0.0 
3.422106709257e-04 8.249752470507e-03 0.0 
0.0 0.0 -1.221625961084e-03 
-1.676659295308e-03 6.110344698925e-04 0.0 
6.110344698925e-04 5.968416883272e-03 0.0 
0.0 0.0 -8.638707813346e-04 
-1.641988205188e-03 4.340588364437e-04 0.0 
4.340588364437e-04 5.771155948817e-03 0.0 
0.0 0.0 -8.327709333130e-04 
-1.719162707249e-03 7.708162564075e-04 0.0 
7.708162564075e-04 6.112617701018e-03 0.0 
0.0 0.0 -8.925140200429e-04 
5.544480012227e-03 5.017512432471e-03 0.0 
5.017512432471e-03 -4.585761164614e-03 0.0 
0.0 0.0 -4.108795061196e-04 
5.099921120788e-03 6.943348275850e-03 0.0 
6.943348275850e-03 -4.673897879080e-03 0.0 
0.0 0.0 -1.825813893037e-04 
-1.599533954581e-03 7.014631110784e-04 0.0 
7.014631110784e-04 7.724369133548e-03 0.0 
0.0 0.0 -1.142090266074e-03 
-7.915237200633e-04 -1.416691550801e-03 0.0 
-1.416691550801e-03 2.916147842675e-03 0.0 
0.0 0.0 -8.917970384883e-04 
-9.526528541598e-04 -1.159662932408e-03 0.0 
-1.159662932408e-03 3.237497577102e-03 0.0 
0.0 0.0 -9.066540859529e-04 
1.679025679155e-04 -2.197795369639e-03 0.0 
-2.197795369639e-03 1.134113528401e-03 0.0 
0.0 0.0 -5.580068984213e-04 
1.993437938488e-04 -2.372930192997e-03 0.0 
-2.372930192997e-03 1.192906332053e-03 0.0 
0.0 0.0 -5.966786253865e-04 
-1.011942446972e-03 -2.270969963916e-03 0.0 
-2.270969963916e-03 3.766401779748e-03 0.0 
0.0 0.0 -1.058899862332e-03 
-7.573046355122e-04 -2.581800115454e-03 0.0 
-2.581800115454e-03 3.322201121737e-03 0.0 
0.0 0.0 -1.050266080739e-03 
-1.076691154853e-03 3.242031513923e-03 0.0 
3.242031513923e-03 4.807362225344e-03 0.0 
0.0 0.0 -1.038692069610e-03 
-1.234301998555e-03 3.107456630916e-03 0.0 
3.107456630916e-03 5.310904523361e-03 0.0 
0.0 0.0 -1.074129358999e-03 
-4.302446712183e-04 3.860877764774e-03 0.0 
3.860877764774e-03 3.475355422420e-03 0.0 
0.0 0.0 -9.722238801078e-04 
1.642620753525e-03 -1.953704794463e-03 0.0 
-1.953704794463e-03 2.004604789370e-04 0.0 
0.0 0.0 -7.898919567692e-04 
1.811077571372e-03 -2.227807121647e-03 0.0 
-2.227807121647e-03 -4.135790199208e-04 0.0 
0.0 0.0 -5.989279506218e-04 
2.807035258308e-03 -1.614823236206e-03 0.0 
-1.614823236206e-03 -1.625351443391e-03 0.0 
0.0 0.0 -5.064359206787e-04 
-1.578160803348e-03 1.029909350069e-03 0.0 
1.029909350069e-03 7.988225935028e-03 0.0 
0.0 0.0 -1.199867006878e-03 
-1.525066789097e-03 9.716746199443e-04 0.0 
9.716746199443e-04 8.273760627129e-03 0.0 
0.0 0.0 -1.242728214876e-03 
1.321351467926e-03 -2.568351524438e-03 0.0 
-2.568351524438e-03 -2.315153931452e-07 0.0 
0.0 0.0 -5.661942653711e-04 
2.114970605821e-03 -2.757384815872e-03 0.0 
-2.757384815872e-03 -7.399856143988e-04 0.0 
0.0 0.0 -5.892792820380e-04 
6.921033763950e-04 -2.656898720389e-03 0.0 
-2.656898720389e-03 7.465441525006e-04 0.0 
0.0 0.0 -6.165632266696e-04 
-1.574485567314e-03 1.499311237931e-03 0.0 
1.499311237931e-03 7.988348182121e-03 0.0 
0.0 0.0 -1.223056365294e-03 
-1.741572698048e-03 -1.051965994170e-03 0.0 
-1.051965994170e-03 6.624165410999e-03 0.0 
0.0 0.0 -1.224004481682e-03 
-1.735235085971e-03 -1.304001527318e-03 0.0 
-1.304001527318e-03 6.344789461694e-03 0.0 
0.0 0.0 -1.195820777905e-03 
-2.679240954609e-05 -1.257927253223e-03 0.0 
-1.257927253223e-03 9.029103496679e-04 0.0 
0.0 0.0 -3.450663815859e-04 
-3.035170911773e-06 -1.579137764012e-03 0.0 
-1.579137764012e-03 1.039327180488e-03 0.0 
0.0 0.0 -4.410249086127e-04 
3.644052785556e-03 1.373670381647e-02 0.0 
1.373670381647e-02 -2.302105231394e-03 0.0 
0.0 0.0 -5.751203803551e-04 
4.360822401704e-03 1.417722455246e-02 0.0 
1.417722455246e-02 -3.204600083411e-03 0.0 
0.0 0.0 -4.955238506970e-04 
-1.603953202991e-03 2.084851501461e-03 0.0 
2.084851501461e-03 7.579130278610e-03 0.0 
0.0 0.0 -1.207258722210e-03 
-1.637778905667e-03 2.162652518366e-03 0.0 
2.162652518366e-03 7.304299819900e-03 0.0 
0.0 0.0 -1.172631524865e-03 
-1.556077565275e-03 2.029656444368e-03 0.0 
2.029656444368e-03 7.905393318382e-03 0.0 
0.0 0.0 -1.247471551777e-03 
-8.078621275666e-04 -3.743686463011e-04 0.0 
-3.743686463011e-04 2.476609172107e-03 0.0 
0.0 0.0 -5.753817989848e-04 
2.052188168943e-03 4.069038741111e-03 0.0 
4.069038741111e-03 7.568444336938e-04 0.0 
0.0 0.0 -1.045322365442e-03 
-4.345406843194e-04 -1.057284791163e-03 0.0 
-1.057284791163e-03 3.911025082188e-03 0.0 
0.0 0.0 -1.207899217314e-03 
4.835426215232e-05 -7.231111104556e-04 0.0 
-7.231111104556e-04 3.242265238099e-03 0.0 
0.0 0.0 -1.178012378629e-03 
-7.613168450715e-04 -1.327380977696e-03 0.0 
-1.327380977696e-03 4.557563993177e-03 0.0 
0.0 0.0 -1.244624083072e-03 
6.860654822507e-04 2.696548713935e-03 0.0 
2.696548713935e-03 2.567417864912e-03 0.0 
0.0 0.0 -1.142102124289e-03 
-1.799275275357e-04 2.258783983911e-03 0.0 
2.258783983911e-03 3.733496060934e-03 0.0 
0.0 0.0 -1.205428683694e-03 
-2.172276518547e-04 2.918453895056e-03 0.0 
2.918453895056e-03 4.008781360678e-03 0.0 
0.0 0.0 -1.209323031234e-03 
2.228320652529e-03 1.977201831735e-04 0.0 
1.977201831735e-04 -2.228320652529e-03 0.0 
0.0 0.0 0.0 
-1.516551893121e-03 1.931531950452e-04 0.0 
1.931531950452e-04 8.105824831205e-03 0.0 
0.0 0.0 -1.199992767657e-03 
-1.600603275175e-03 3.197306060267e-04 0.0 
3.197306060267e-04 5.842030124630e-03 0.0 
0.0 0.0 -8.371571859873e-04 
1.542786718461e-03 -7.225330681639e-04 0.0 
-7.225330681639e-04 -1.542786718461e-03 0.0 
0.0 0.0 0.0 
-1.547068004807e-03 2.255592860515e-04 0.0 
2.255592860515e-04 5.653808019545e-03 0.0 
0.0 0.0 -8.070151920887e-04 
-1.566358775821e-03 2.266234695202e-04 0.0 
2.266234695202e-04 5.919104175052e-03 0.0 
0.0 0.0 -8.451615393777e-04 
-1.505853756260e-03 1.425564258005e-04 0.0 
1.425564258005e-04 5.404792730384e-03 0.0 
0.0 0.0 -7.748096441827e-04 
-6.021351811841e-04 -3.007745314280e-04 0.0 
-3.007745314280e-04 1.949347900063e-03 0.0 
0.0 0.0 -4.206613647546e-04 
-1.675398106948e-03 5.868598101642e-04 0.0 
5.868598101642e-04 5.623434088204e-03 0.0 
0.0 0.0 -8.174106193842e-04 
-1.726757844430e-03 7.924650127462e-04 0.0 
7.924650127462e-04 5.855419414792e-03 0.0 
0.0 0.0 -8.556612431672e-04 
9.472164225976e-05 -1.127376959453e-03 0.0 
-1.127376959453e-03 6.282279255788e-04 0.0 
0.0 0.0 -2.740754434037e-04 
-1.513004436039e-03 1.420623121839e-03 0.0 
1.420623121839e-03 8.214217499082e-03 0.0 
0.0 0.0 -1.259301554906e-03 
1.753122537387e-04 -1.082752856165e-03 0.0 
-1.082752856165e-03 5.888568904019e-04 0.0 
0.0 0.0 -2.441793916413e-04 
1.151393029351e-04 -1.066765630133e-03 0.0 
-1.066765630133e-03 7.906450204817e-04 0.0 
0.0 0.0 -2.872885922025e-04 
-1.122672355991e-03 -1.921241529141e-03 0.0 
-1.921241529141e-03 5.266335920734e-03 0.0 
0.0 0.0 -1.221214701962e-03 
-1.203549749022e-03 -1.976762786956e-03 0.0 
-1.976762786956e-03 5.228557791274e-03 0.0 
0.0 0.0 -1.184344882880e-03 
-1.271935696370e-03 -1.932492998885e-03 0.0 
-1.932492998885e-03 5.682500405781e-03 0.0 
0.0 0.0 -1.247726601234e-03 
-1.345935677545e-03 -1.879180138911e-03 0.0 
-1.879180138911e-03 5.631962343118e-03 0.0 
0.0 0.0 -1.211018817991e-03 
-1.319489507466e-03 -1.996946989352e-03 0.0 
-1.996946989352e-03 5.223869660522e-03 0.0 
0.0 0.0 -1.147066289601e-03 
-1.457152980048e-03 -1.833275450520e-03 0.0 
-1.833275450520e-03 5.658001904065e-03 0.0 
0.0 0.0 -1.176490610025e-03 
-1.598701855115e-03 3.112456463076e-04 0.0 
3.112456463076e-04 5.594187128056e-03 0.0 
0.0 0.0 -7.985989294648e-04 
-1.425017338431e-03 -1.793987580484e-03 0.0 
-1.793987580484e-03 6.077694866820e-03 0.0 
0.0 0.0 -1.249018369598e-03 
-1.544794874514e-03 -1.654652183582e-03 0.0 
-1.654652183582e-03 6.043342076509e-03 0.0 
0.0 0.0 -1.207442871744e-03 
-1.490747382805e-03 -1.688185045970e-03 0.0 
-1.688185045970e-03 6.481641932430e-03 0.0 
0.0 0.0 -1.277927415301e-03 
-8.246186395456e-04 4.502710710183e-03 0.0 
4.502710710183e-03 3.223193555341e-03 0.0 
0.0 0.0 -8.722607330507e-04 
1.623813019755e-03 6.674837461668e-03 0.0 
6.674837461668e-03 -1.927070188628e-04 0.0 
0.0 0.0 -6.133311432396e-04 
1.027688432790e-03 6.619479029309e-03 0.0 
6.619479029309e-03 3.986652124284e-04 0.0 
0.0 0.0 -6.112944193795e-04 
6.687564356329e-04 7.797280160077e-03 0.0 
7.797280160077e-03 6.465838439157e-04 0.0 
0.0 0.0 -5.637172626637e-04 
-4.781841384146e-04 4.092630230613e-03 0.0 
4.092630230613e-03 5.387275584554e-03 0.0 
0.0 0.0 -1.240180566941e-03 
-8.947124647744e-04 3.640495572266e-03 0.0 
3.640495572266e-03 5.717750287073e-03 0.0 
0.0 0.0 -1.200590015451e-03 
-2.088598425736e-03 -6.246367196868e-04 0.0 
-6.246367196868e-04 6.194373546362e-03 0.0 
0.0 0.0 -1.090180627845e-03 
-2.041663287848e-03 -6.617363893855e-04 0.0 
-6.617363893855e-04 5.852171557009e-03 0.0 
0.0 0.0 -1.067141795818e-03 
-1.532469855713e-03 1.525337910669e-04 0.0 
1.525337910669e-04 5.692847008020e-03 0.0 
0.0 0.0 -8.108182148135e-04 
-1.511312180107e-03 9.255618039040e-05 0.0 
9.255618039040e-05 5.666580148835e-03 0.0 
0.0 0.0 -8.077352941366e-04 
-1.560488436606e-03 1.911238081195e-04 0.0 
1.911238081195e-04 6.070956180256e-03 0.0 
0.0 0.0 -8.678526801547e-04 
-1.544526745633e-03 1.030985674976e-04 0.0 
1.030985674976e-04 6.005801825662e-03 0.0 
0.0 0.0 -8.609153521579e-04 
-1.580530064686e-03 1.945628071657e-04 0.0 
1.945628071657e-04 6.420611350931e-03 0.0 
0.0 0.0 -9.200517378055e-04 
-1.559403933791e-03 8.887484367551e-05 0.0 
8.887484367551e-05 6.359767284502e-03 0.0 
0.0 0.0 -9.108947733944e-04 
-1.583263469338e-03 1.334252269549e-04 0.0 
1.334252269549e-04 6.753346818615e-03 0.0 
0.0 0.0 -9.726914458129e-04 
-5.502875208752e-04 3.138632417203e-03 0.0 
3.138632417203e-03 4.707870938516e-03 0.0 
0.0 0.0 -1.245087786853e-03 
1.248774868508e-03 1.028076670131e-02 0.0 
1.028076670131e-02 2.517349474470e-07 0.0 
0.0 0.0 -5.352971157667e-04 
-1.326141853908e-03 3.521328282117e-03 0.0 
3.521328282117e-03 4.046142983675e-03 0.0 
0.0 0.0 -8.237883836899e-04 
-3.114599313543e-04 1.065398371711e-03 0.0 
1.065398371711e-03 3.801258452846e-03 0.0 
0.0 0.0 -1.228261380050e-03 
1.184896584080e-04 7.881060092601e-04 0.0 
7.881060092601e-04 3.134718495001e-03 0.0 
0.0 0.0 -1.187396807988e-03 
-3.810822136865e-04 3.703441768807e-03 0.0 
3.703441768807e-03 2.605296770492e-03 0.0 
0.0 0.0 -9.301491777014e-04 
-2.910212676961e-04 5.309207815001e-03 0.0 
5.309207815001e-03 2.342505299855e-03 0.0 
0.0 0.0 -8.783714799336e-04 
-9.656459474725e-04 -1.750454010380e-03 0.0 
-1.750454010380e-03 4.960948450778e-03 0.0 
0.0 0.0 -1.238794375355e-03 
3.775338271944e-03 5.533933865598e-03 0.0 
5.533933865598e-03 -2.242887767344e-03 0.0 
0.0 0.0 -6.567645019713e-04 
-1.474754496101e-03 1.652724927503e-03 0.0 
1.652724927503e-03 8.365646577830e-03 0.0 
0.0 0.0 -1.295459716840e-03 
2.752445762765e-03 5.602211980598e-03 0.0 
5.602211980598e-03 -2.752445762765e-03 0.0 
0.0 0.0 0.0 
4.032742947465e-03 6.331264419561e-03 0.0 
6.331264419561e-03 -3.999278573913e-03 0.0 
0.0 0.0 -1.434187437942e-05 
2.869082696581e-03 5.199850705874e-03 0.0 
5.199850705874e-03 -1.394722998960e-03 0.0 
0.0 0.0 -6.318684418375e-04 
-5.454026137392e-04 2.916039497805e-03 0.0 
2.916039497805e-03 2.933938148650e-03 0.0 
0.0 0.0 -9.558721723632e-04 
9.509659609726e-04 5.141620312020e-03 0.0 
5.141620312020e-03 6.107047270554e-04 0.0 
0.0 0.0 -6.692874377263e-04 
5.344943026343e-04 5.177405804370e-03 0.0 
5.177405804370e-03 1.068891706335e-03 0.0 
0.0 0.0 -6.871654324154e-04 
1.314500169364e-03 -1.583976033763e-03 0.0 
-1.583976033763e-03 1.027022368234e-03 0.0 
0.0 0.0 -9.759998253719e-04 
1.091376312940e-04 -1.700138468344e-03 0.0 
-1.700138468344e-03 9.084482070208e-04 0.0 
0.0 0.0 -4.293607968937e-04 
2.905594395242e-03 1.171116915343e-02 0.0 
1.171116915343e-02 -1.561995110692e-03 0.0 
0.0 0.0 -5.758282648071e-04 
-1.592993118431e-03 2.731466696240e-04 0.0 
2.731466696240e-04 6.800272037187e-03 0.0 
0.0 0.0 -9.796923013958e-04 
1.851455568950e-03 1.372246890596e-02 0.0 
1.372246890596e-02 -6.473203715869e-04 0.0 
0.0 0.0 -5.160579417270e-04 
-2.121618955622e-03 -3.224058753556e-04 0.0 
-3.224058753556e-04 6.099005119318e-03 0.0 
0.0 0.0 -1.073807358551e-03 
4.813417927603e-03 5.259501292760e-03 0.0 
5.259501292760e-03 -3.221236391629e-03 0.0 
0.0 0.0 -6.823635154174e-04 
-1.638384935320e-04 3.372316730358e-03 0.0 
3.372316730358e-03 2.445531910937e-03 0.0 
0.0 0.0 -9.519839029876e-04 
3.572943101636e-03 9.869953183687e-03 0.0 
9.869953183687e-03 -2.116768512695e-03 0.0 
0.0 0.0 -6.240748238320e-04 
2.088486611876e-03 5.853874127838e-03 0.0 
5.853874127838e-03 -6.713908631593e-04 0.0 
0.0 0.0 -6.073267494501e-04 
-1.574296698924e-03 2.484580816168e-03 0.0 
2.484580816168e-03 4.927078130058e-03 0.0 
0.0 0.0 -8.786961992330e-04 
-1.699341285066e-03 1.882952510091e-03 0.0 
1.882952510091e-03 5.001649373791e-03 0.0 
0.0 0.0 -8.239340753773e-04 
-1.544077067517e-03 2.021174845409e-03 0.0 
2.021174845409e-03 4.648313902463e-03 0.0 
0.0 0.0 -8.287327148421e-04 
5.975833713225e-03 4.713959273261e-03 0.0 
4.713959273261e-03 -4.353787086793e-03 0.0 
0.0 0.0 -6.951628398994e-04 
2.138497560635e-04 4.714354196090e-03 0.0 
4.714354196090e-03 1.594187105446e-03 0.0 
0.0 0.0 -7.748729406467e-04 
1.345739490854e-04 6.114397076153e-03 0.0 
6.114397076153e-03 1.457295469398e-03 0.0 
0.0 0.0 -6.822297507788e-04 
-1.042335079289e-03 3.085608632330e-03 0.0 
3.085608632330e-03 3.939330989580e-03 0.0 
0.0 0.0 -9.170298757010e-04 
-1.694312562690e-03 2.003906122110e-03 0.0 
2.003906122110e-03 6.960974899569e-03 0.0 
0.0 0.0 -1.107475121065e-03 
-1.654341182746e-03 2.234400658440e-03 0.0 
2.234400658440e-03 6.989596744706e-03 0.0 
0.0 0.0 -1.136341617999e-03 
-1.591073595122e-03 2.379952355984e-03 0.0 
2.379952355984e-03 7.311228899108e-03 0.0 
0.0 0.0 -1.199268560344e-03 
-1.606550985090e-03 2.450965261895e-03 0.0 
2.450965261895e-03 7.002228799418e-03 0.0 
0.0 0.0 -1.164598082371e-03 
-1.654615127137e-03 2.306554865062e-03 0.0 
2.306554865062e-03 6.662432923767e-03 0.0 
0.0 0.0 -1.100413285504e-03 
-1.595489437176e-03 2.513437590904e-03 0.0 
2.513437590904e-03 6.653696588520e-03 0.0 
0.0 0.0 -1.129075729544e-03 
-1.546389988990e-03 2.664193302564e-03 0.0 
2.664193302564e-03 6.994860909819e-03 0.0 
0.0 0.0 -1.193594387005e-03 
-1.524710140769e-03 2.725114460972e-03 0.0 
2.725114460972e-03 6.640657221836e-03 0.0 
0.0 0.0 -1.159256375294e-03 
-1.483453285402e-03 2.879360167952e-03 0.0 
2.879360167952e-03 7.061959584516e-03 0.0 
0.0 0.0 -1.234286862126e-03 
-1.459335345335e-03 2.896614314087e-03 0.0 
2.896614314087e-03 6.597331098230e-03 0.0 
0.0 0.0 -1.187309181180e-03 
-1.487240193726e-03 2.797813669470e-03 0.0 
2.797813669470e-03 6.237817525026e-03 0.0 
0.0 0.0 -1.120864512401e-03 
-1.416348664038e-03 2.952147323061e-03 0.0 
2.952147323061e-03 6.179572228468e-03 0.0 
0.0 0.0 -1.147759711419e-03 
-1.392093144802e-03 3.070795403890e-03 0.0 
3.070795403890e-03 6.519314940750e-03 0.0 
0.0 0.0 -1.207767947030e-03 
-1.429554607918e-03 2.882577101757e-03 0.0 
2.882577101757e-03 5.825437132677e-03 0.0 
0.0 0.0 -1.082593982084e-03 
-6.521826522208e-04 1.418249554823e-03 0.0 
1.418249554823e-03 4.328749135001e-03 0.0 
0.0 0.0 -1.264544343569e-03 
2.829208200329e-03 4.902988708861e-03 0.0 
4.902988708861e-03 -1.328551900523e-03 0.0 
0.0 0.0 -6.431384142027e-04 
3.560039405333e-03 2.265126286214e-03 0.0 
2.265126286214e-03 -3.550450176149e-03 0.0 
0.0 0.0 -4.109669650582e-06 
5.185139323482e-03 1.287671571663e-02 0.0 
1.287671571663e-02 -4.879187270603e-03 0.0 
0.0 0.0 -1.311223083766e-04 
-4.639929809661e-04 3.327821869830e-03 0.0 
3.327821869830e-03 2.959449472573e-03 0.0 
0.0 0.0 -9.691543639280e-04 
-1.385607875855e-03 3.062995873169e-03 0.0 
3.062995873169e-03 7.465901949664e-03 0.0 
0.0 0.0 -1.299806302097e-03 
-1.449618747961e-03 2.641803041926e-03 0.0 
2.641803041926e-03 7.864874158924e-03 0.0 
0.0 0.0 -1.301753673823e-03 
5.607759859673e-03 5.626775549793e-03 0.0 
5.626775549793e-03 -3.928022741590e-03 0.0 
0.0 0.0 -7.198873363210e-04 
-9.365189091249e-04 3.757832802927e-03 0.0 
3.757832802927e-03 6.109963244454e-03 0.0 
0.0 0.0 -1.303413959896e-03 
-1.478986277362e-03 2.335815426712e-03 0.0 
2.335815426712e-03 4.599949913439e-03 0.0 
0.0 0.0 -8.572908036711e-04 
5.541699324767e-03 3.558561603533e-03 0.0 
3.558561603533e-03 -4.247747244037e-03 0.0 
0.0 0.0 -5.545508917418e-04 
-1.063873129606e-03 3.346117878391e-03 0.0 
3.346117878391e-03 5.832495562252e-03 0.0 
0.0 0.0 -1.304286792737e-03 
-1.700650587437e-03 2.084768146748e-03 0.0 
2.084768146748e-03 6.648225866754e-03 0.0 
0.0 0.0 -1.071440646998e-03 
-1.693986595116e-03 2.166002580174e-03 0.0 
2.166002580174e-03 6.318613390721e-03 0.0 
0.0 0.0 -1.034857077839e-03 
-1.735485188954e-03 1.934897306350e-03 0.0 
1.934897306350e-03 6.303939504401e-03 0.0 
0.0 0.0 -1.006057961993e-03 
-1.460757887231e-03 2.250687193900e-03 0.0 
2.250687193900e-03 8.134933915156e-03 0.0 
0.0 0.0 -1.305867370806e-03 
-1.749991994699e-03 9.588049142227e-04 0.0 
9.588049142227e-04 6.254499179949e-03 0.0 
0.0 0.0 -9.232948652302e-04 
-1.015563235842e-03 2.243527435583e-03 0.0 
2.243527435583e-03 5.128889542219e-03 0.0 
0.0 0.0 -1.306016332489e-03 
4.573667729591e-03 2.966279965155e-03 0.0 
2.966279965155e-03 -3.126558032939e-03 0.0 
0.0 0.0 -6.201898699939e-04 
5.158761409206e-03 4.123010336139e-03 0.0 
4.123010336139e-03 -3.755341785259e-03 0.0 
0.0 0.0 -6.014655531204e-04 
6.028130478849e-03 4.379997153701e-03 0.0 
4.379997153701e-03 -4.758524728365e-03 0.0 
0.0 0.0 -5.441167502075e-04 
-1.566214445404e-03 2.595986134179e-03 0.0 
2.595986134179e-03 6.282321888988e-03 0.0 
0.0 0.0 -1.092245366321e-03 
-9.205735445318e-04 4.808338680360e-04 0.0 
4.808338680360e-04 4.693547071086e-03 0.0 
0.0 0.0 -1.302677999426e-03 
-5.002563593678e-04 2.099772419095e-04 0.0 
2.099772419095e-04 4.049128573529e-03 0.0 
0.0 0.0 -1.248400714067e-03 
-5.266077201398e-04 -2.206792534525e-04 0.0 
-2.206792534525e-04 4.095639207907e-03 0.0 
0.0 0.0 -1.248426544684e-03 
1.074968230691e-04 3.395634703592e-05 0.0 
3.395634703592e-05 3.160732327072e-03 0.0 
0.0 0.0 -1.189114855724e-03 
-9.524782035086e-04 -4.338690848369e-04 0.0 
-4.338690848369e-04 4.786583626593e-03 0.0 
0.0 0.0 -1.303398793257e-03 
-1.098002391024e-03 3.623892933777e-03 0.0 
3.623892933777e-03 6.868683034920e-03 0.0 
0.0 0.0 -1.306665994082e-03 
-9.236016640930e-04 3.871061018543e-03 0.0 
3.871061018543e-03 6.515361786700e-03 0.0 
0.0 0.0 -1.308500709484e-03 
2.243999594057e-03 -3.069128936997e-03 0.0 
-3.069128936997e-03 -7.444436906811e-04 0.0 
0.0 0.0 -6.426668157327e-04 
3.427343848245e-03 -3.051969298655e-03 0.0 
-3.051969298655e-03 -1.929097159178e-03 0.0 
0.0 0.0 -6.421057238860e-04 
3.202183090271e-03 -2.669173790672e-03 0.0 
-2.669173790672e-03 -1.814844052150e-03 0.0 
0.0 0.0 -5.945738734806e-04 
4.716360510020e-03 -2.649420877101e-03 0.0 
-2.649420877101e-03 -3.202013516169e-03 0.0 
0.0 0.0 -6.490058545078e-04 
4.859083740995e-03 -3.173010400792e-03 0.0 
-3.173010400792e-03 -3.304517119864e-03 0.0 
0.0 0.0 -6.662428376277e-04 
5.949709024143e-03 -2.146846412688e-03 0.0 
-2.146846412688e-03 -4.370598255414e-03 0.0 
0.0 0.0 -6.767617580267e-04 
5.926125957675e-03 -1.774369386772e-03 0.0 
-1.774369386772e-03 -4.369555824546e-03 0.0 
0.0 0.0 -6.671014856266e-04 
6.420585312129e-03 -8.944381649862e-04 0.0 
-8.944381649862e-04 -4.836473767856e-03 0.0 
0.0 0.0 -6.789049475453e-04 
-1.192811379844e-03 3.183077801283e-03 0.0 
3.183077801283e-03 5.644529782517e-03 0.0 
0.0 0.0 -1.138512926666e-03 
-1.048382069547e-03 -1.181351894960e-03 0.0 
-1.181351894960e-03 5.065835417687e-03 0.0 
0.0 0.0 -1.305779161548e-03 
4.789526992596e-05 -3.017317976477e-03 0.0 
-3.017317976477e-03 1.955725826502e-03 0.0 
0.0 0.0 -8.490207048509e-04 
4.781989893457e-04 -2.894310043428e-03 0.0 
-2.894310043428e-03 1.220328917149e-03 0.0 
0.0 0.0 -7.279405313547e-04 
7.016485745697e-04 -2.791230812805e-03 0.0 
-2.791230812805e-03 8.160956132734e-04 0.0 
0.0 0.0 -6.504617947899e-04 
-6.090620729236e-04 -2.591660670729e-03 0.0 
-2.591660670729e-03 2.996920806010e-03 0.0 
0.0 0.0 -1.013136008453e-03 
-4.847718747428e-04 -2.835802633982e-03 0.0 
-2.835802633982e-03 2.833935359093e-03 0.0 
0.0 0.0 -9.978061834832e-04 
-6.569091499039e-04 -2.799289725008e-03 0.0 
-2.799289725008e-03 3.183472627718e-03 0.0 
0.0 0.0 -1.035689958333e-03 
-7.207313198164e-04 -2.290250490495e-03 0.0 
-2.290250490495e-03 3.125345330795e-03 0.0 
0.0 0.0 -1.018322119518e-03 
1.934707294161e-03 5.132347576401e-03 0.0 
5.132347576401e-03 7.861238293974e-04 0.0 
0.0 0.0 -9.882323209451e-04 
-1.091898030697e-03 -1.486850666943e-03 0.0 
-1.486850666943e-03 5.227315460995e-03 0.0 
0.0 0.0 -1.305003056577e-03 
3.288922938537e-03 -8.301348926904e-04 0.0 
-8.301348926904e-04 -2.025199443952e-03 0.0 
0.0 0.0 -5.415957833937e-04 
-1.980397502487e-04 -3.005905727183e-03 0.0 
-3.005905727183e-03 2.314319347710e-03 0.0 
0.0 0.0 -9.069769703405e-04 
-1.707142071172e-03 7.635271864477e-04 0.0 
7.635271864477e-04 5.127553643252e-03 0.0 
0.0 0.0 -7.516786372745e-04 
-1.746908817975e-03 1.023609105839e-03 0.0 
1.023609105839e-03 5.442206395915e-03 0.0 
0.0 0.0 -8.094822736869e-04 
-1.772933357879e-03 1.184262300292e-03 0.0 
1.184262300292e-03 5.385289162601e-03 0.0 
0.0 0.0 -8.097394517040e-04 
-1.768350599280e-03 1.251073624371e-03 0.0 
1.251073624371e-03 5.764313646979e-03 0.0 
0.0 0.0 -8.733121467894e-04 
-1.727990335715e-03 8.210495884293e-04 0.0 
8.210495884293e-04 5.545557871090e-03 0.0 
0.0 0.0 -8.155917408702e-04 
-1.236784994223e-03 -1.923322638249e-03 0.0 
-1.923322638249e-03 4.168389852977e-03 0.0 
0.0 0.0 -1.057296815204e-03 
-1.427088068768e-03 -1.555275096953e-03 0.0 
-1.555275096953e-03 4.526520888732e-03 0.0 
0.0 0.0 -1.060211733922e-03 
-1.439309846138e-03 -1.245667555875e-03 0.0 
-1.245667555875e-03 4.501167157264e-03 0.0 
0.0 0.0 -1.053704044192e-03 
-1.586214255689e-03 -1.181249332069e-03 0.0 
-1.181249332069e-03 4.840144294026e-03 0.0 
0.0 0.0 -1.064485974018e-03 
-1.568580492753e-03 -8.807724015312e-04 0.0 
-8.807724015312e-04 4.760936091880e-03 0.0 
0.0 0.0 -1.058069710598e-03 
-1.437909822652e-03 -9.389915626686e-04 0.0 
-9.389915626686e-04 4.447516747931e-03 0.0 
0.0 0.0 -1.040756414728e-03 
-1.718221607956e-03 -8.006521433412e-04 0.0 
-8.006521433412e-04 5.111220650433e-03 0.0 
0.0 0.0 -1.068385751750e-03 
-1.669418493281e-03 -5.082865991109e-04 0.0 
-5.082865991109e-04 4.972394175886e-03 0.0 
0.0 0.0 -1.061946884890e-03 
-1.641647603362e-03 4.850166825857e-04 0.0 
4.850166825857e-04 5.202247326036e-03 0.0 
0.0 0.0 -7.509531518293e-04 
5.609953604389e-04 -3.199412214279e-03 0.0 
-3.199412214279e-03 -3.468229664983e-04 0.0 
0.0 0.0 -9.178816883165e-05 
9.754714853508e-04 -4.144683128974e-03 0.0 
-4.144683128974e-03 -1.145476620537e-04 0.0 
0.0 0.0 -3.689673528416e-04 
3.273853486919e-04 -2.072792582111e-03 0.0 
-2.072792582111e-03 7.623646099660e-04 0.0 
0.0 0.0 -4.670356965677e-04 
1.065259966414e-03 -3.438824165896e-03 0.0 
-3.438824165896e-03 3.403640611643e-04 0.0 
0.0 0.0 -6.024102975334e-04 
2.384003731495e-03 -5.314124948796e-03 0.0 
-5.314124948796e-03 -1.404712254033e-03 0.0 
0.0 0.0 -4.196963474839e-04 
2.015502938638e-03 -4.028525926120e-03 0.0 
-4.028525926120e-03 -5.963786054868e-04 0.0 
0.0 0.0 -6.081961427792e-04 
3.566930019582e-03 -5.354791263735e-03 0.0 
-5.354791263735e-03 -2.364753020014e-03 0.0 
0.0 0.0 -5.152187141009e-04 
2.070950745185e-03 -5.399117127961e-03 0.0 
-5.399117127961e-03 -1.807215511872e-03 0.0 
0.0 0.0 -1.130293857052e-04 
5.760963780395e-04 -5.909898792449e-04 0.0 
-5.909898792449e-04 1.406783807991e-04 0.0 
0.0 0.0 -1.904327288735e-04 
1.600896537738e-04 -1.547795297662e-03 0.0 
-1.547795297662e-03 7.330764534416e-04 0.0 
0.0 0.0 -3.827854745209e-04 
4.480799870780e-04 -5.490723770780e-04 0.0 
-5.490723770780e-04 2.003046056671e-04 0.0 
0.0 0.0 -2.312065274152e-04 
1.301381705361e-04 -1.323030973749e-03 0.0 
-1.323030973749e-03 6.664994052751e-04 0.0 
0.0 0.0 -3.414161039191e-04 
3.430982234410e-04 -2.178085181117e-03 0.0 
-2.178085181117e-03 8.728126235658e-04 0.0 
0.0 0.0 -5.211046487172e-04 
-1.935346954464e-05 -1.828430160185e-03 0.0 
-1.828430160185e-03 1.220825087692e-03 0.0 
0.0 0.0 -5.149164077774e-04 
-1.561183168720e-03 -1.084347523387e-03 0.0 
-1.084347523387e-03 6.914233553436e-03 0.0 
0.0 0.0 -1.294874803588e-03 
-1.312931512090e-03 -3.406360319044e-04 0.0 
-3.406360319044e-04 4.053324067572e-03 0.0 
0.0 0.0 -9.806349194848e-04 
-1.232619789514e-03 -6.513903715833e-04 0.0 
-6.513903715833e-04 3.864959534980e-03 0.0 
0.0 0.0 -9.593735700280e-04 
-1.113036939270e-03 -6.004263507847e-04 0.0 
-6.004263507847e-04 3.522372894904e-03 0.0 
0.0 0.0 -8.977078860960e-04 
-1.116965318077e-03 -9.982255990531e-04 0.0 
-9.982255990531e-04 3.625196753216e-03 0.0 
0.0 0.0 -9.469176294500e-04 
-1.332244483269e-03 -6.509527714259e-04 0.0 
-6.509527714259e-04 4.142116544653e-03 0.0 
0.0 0.0 -1.006312639172e-03 
-1.080865388107e-03 -2.755367266220e-04 0.0 
-2.755367266220e-04 3.371661966390e-03 0.0 
0.0 0.0 -8.426599334973e-04 
-1.024104142748e-03 -5.302931597588e-04 0.0 
-5.302931597588e-04 3.225767958481e-03 0.0 
0.0 0.0 -8.124903673991e-04 
2.216997682458e-03 -2.201955993136e-04 0.0 
-2.201955993136e-04 -5.821081657641e-04 0.0 
0.0 0.0 -2.247208435434e-04 
1.329018680851e-03 -2.588099119102e-04 0.0 
-2.588099119102e-04 8.398345567158e-05 0.0 
0.0 0.0 -3.021474805997e-04 
1.508022382252e-03 -2.861631336895e-05 0.0 
-2.861631336895e-05 -4.148833368213e-05 0.0 
0.0 0.0 -2.932721832112e-04 
6.057896932355e-04 -2.107723661770e-04 0.0 
-2.107723661770e-04 6.150836342795e-04 0.0 
0.0 0.0 -3.080440922735e-04 
5.086472657649e-04 -3.614808066877e-04 0.0 
-3.614808066877e-04 7.099059320071e-04 0.0 
0.0 0.0 -3.086108473030e-04 
1.174920422329e-03 -3.840044801681e-04 0.0 
-3.840044801681e-04 1.866709673418e-04 0.0 
0.0 0.0 -2.956379591255e-04 
1.046180159377e-03 -4.891658936945e-04 0.0 
-4.891658936945e-04 2.229985748563e-04 0.0 
0.0 0.0 -2.908089562448e-04 
1.952634146665e-03 -3.513269366172e-04 0.0 
-3.513269366172e-04 -4.731646669979e-04 0.0 
0.0 0.0 -2.366762572998e-04 
8.756772652683e-04 -6.412075735407e-04 0.0 
-6.412075735407e-04 2.901786788228e-04 0.0 
0.0 0.0 -2.823687335802e-04 
2.157499425651e-04 -6.540843471842e-04 0.0 
-6.540843471842e-04 8.640805163950e-04 0.0 
0.0 0.0 -3.106791268491e-04 
1.776682659309e-03 -4.526310926592e-04 0.0 
-4.526310926592e-04 -4.195963805475e-04 0.0 
0.0 0.0 -2.361986059850e-04 
-1.577535716708e-03 5.392394720966e-05 0.0 
5.392394720966e-05 7.299934411769e-03 0.0 
0.0 0.0 -1.060427308513e-03 
-1.573061893325e-03 1.544570403577e-04 0.0 
1.544570403577e-04 7.509050943264e-03 0.0 
0.0 0.0 -1.097082233180e-03 
-1.192953449252e-03 -1.864011720090e-03 0.0 
-1.864011720090e-03 5.605209134645e-03 0.0 
0.0 0.0 -1.300897016293e-03 
-1.579855819088e-03 2.979771540211e-04 0.0 
2.979771540211e-04 5.293250471981e-03 0.0 
0.0 0.0 -7.584009903415e-04 
9.547876532886e-04 -6.110079233122e-04 0.0 
-6.110079233122e-04 -4.821249888310e-05 0.0 
0.0 0.0 -2.418947190875e-04 
-1.449845600680e-03 6.382887501364e-04 0.0 
6.382887501364e-04 8.609834207447e-03 0.0 
0.0 0.0 -1.292107529982e-03 
-1.448440923656e-03 1.123280561170e-03 0.0 
1.123280561170e-03 8.566022624529e-03 0.0 
0.0 0.0 -1.303172775453e-03 
-1.434083243244e-03 9.839421265548e-04 0.0 
9.839421265548e-04 8.603548743914e-03 0.0 
0.0 0.0 -1.304823151597e-03 
-1.916252571144e-03 -2.792629766010e-04 0.0 
-2.792629766010e-04 6.698528630947e-03 0.0 
0.0 0.0 -1.191058493115e-03 
-1.809292576517e-03 -5.447261667623e-04 0.0 
-5.447261667623e-04 6.787910699568e-03 0.0 
0.0 0.0 -1.224322658093e-03 
-1.441620689681e-03 3.697909072679e-04 0.0 
3.697909072679e-04 8.644537781625e-03 0.0 
0.0 0.0 -1.294569364341e-03 
-1.966831809583e-04 -2.229424319449e-03 0.0 
-2.229424319449e-03 1.821439975238e-03 0.0 
0.0 0.0 -6.963243404055e-04 
-1.542446802675e-03 2.619749311667e-03 0.0 
2.619749311667e-03 7.342230023592e-03 0.0 
0.0 0.0 -1.225740639889e-03 
-1.563624804990e-03 6.428436196565e-04 0.0 
6.428436196565e-04 7.948413338163e-03 0.0 
0.0 0.0 -1.178628832109e-03 
5.852119754270e-03 7.388845916020e-03 0.0 
7.388845916020e-03 -4.458241032927e-03 0.0 
0.0 0.0 -5.973765948613e-04 
4.529977292289e-04 -2.561738032130e-03 0.0 
-2.561738032130e-03 9.606788663604e-04 0.0 
0.0 0.0 -6.058613981097e-04 
-1.912750157524e-03 -1.012850712710e-03 0.0 
-1.012850712710e-03 5.577288917285e-03 0.0 
0.0 0.0 -1.066202199875e-03 
-1.088098720313e-03 -2.559527887766e-03 0.0 
-2.559527887766e-03 3.979421504262e-03 0.0 
0.0 0.0 -1.028256539386e-03 
-1.822459650115e-03 -1.367111847188e-03 0.0 
-1.367111847188e-03 6.015979930005e-03 0.0 
0.0 0.0 -1.130390451587e-03 
-1.582105737625e-03 -1.721031184097e-03 0.0 
-1.721031184097e-03 4.901863080820e-03 0.0 
0.0 0.0 -1.057243679378e-03 
-1.608185598285e-03 -1.915614561762e-03 0.0 
-1.915614561762e-03 5.282640092044e-03 0.0 
0.0 0.0 -1.076106726067e-03 
-5.820119653561e-04 -6.552875170563e-04 0.0 
-6.552875170563e-04 4.191718672341e-03 0.0 
0.0 0.0 -1.244129926109e-03 
-5.111243239092e-04 -4.459389023154e-04 0.0 
-4.459389023154e-04 1.741101777837e-03 0.0 
0.0 0.0 -3.862231446352e-04 
-1.669791442216e-03 5.742208476735e-04 0.0 
5.742208476735e-04 6.461493581352e-03 0.0 
0.0 0.0 -9.364826870394e-04 
-1.605975857622e-03 3.178960195767e-04 0.0 
3.178960195767e-04 6.348918363535e-03 0.0 
0.0 0.0 -9.130351872960e-04 
-1.629937813867e-03 6.093327650254e-04 0.0 
6.093327650254e-04 7.342083193620e-03 0.0 
0.0 0.0 -1.075939795031e-03 
-6.482537929307e-04 -1.608115231979e-03 0.0 
-1.608115231979e-03 2.605453652753e-03 0.0 
0.0 0.0 -8.387999399238e-04 
-1.303549504287e-03 -1.305113709369e-03 0.0 
-1.305113709369e-03 4.181114019267e-03 0.0 
0.0 0.0 -1.034705495726e-03 
-3.971862798800e-04 -1.135666412244e-03 0.0 
-1.135666412244e-03 1.660229728604e-03 0.0 
0.0 0.0 -5.350964027253e-04 
-5.720928037110e-04 3.665059778526e-03 0.0 
3.665059778526e-03 5.151485797151e-03 0.0 
0.0 0.0 -1.251461238623e-03 
-9.146057249504e-04 2.949568127909e-03 0.0 
2.949568127909e-03 3.641380823932e-03 0.0 
0.0 0.0 -9.215523041033e-04 
5.869540678773e-04 -2.956750850037e-03 0.0 
-2.956750850037e-03 1.034406097070e-03 0.0 
0.0 0.0 -6.948686421203e-04 
-4.983222250127e-04 -2.534366466985e-03 0.0 
-2.534366466985e-03 2.700875388843e-03 0.0 
0.0 0.0 -9.439513559275e-04 
-3.730260252318e-06 -2.536920884211e-03 0.0 
-2.536920884211e-03 1.637062224885e-03 0.0 
0.0 0.0 -6.999994134141e-04 
7.353476243331e-04 -2.725229135126e-03 0.0 
-2.725229135126e-03 6.766599510438e-04 0.0 
0.0 0.0 -6.051461037329e-04 
1.998584302732e-03 4.639244403689e-03 0.0 
4.639244403689e-03 -3.330581536624e-04 0.0 
0.0 0.0 -7.137969210297e-04 
-4.203429083409e-05 -3.125630815959e-03 0.0 
-3.125630815959e-03 2.086027069296e-03 0.0 
0.0 0.0 -8.759969050552e-04 
-8.028650656472e-04 -2.530764803792e-03 0.0 
-2.530764803792e-03 3.746131268308e-03 0.0 
0.0 0.0 -1.026962916580e-03 
-1.603305794962e-03 5.584175701992e-04 0.0 
5.584175701992e-04 7.571764629350e-03 0.0 
0.0 0.0 -1.112552678551e-03 
1.093951658681e-03 -6.214862394423e-04 0.0 
-6.214862394423e-04 -1.185127836525e-04 0.0 
0.0 0.0 -1.930671750143e-04 
-6.507698434307e-04 -2.317277330880e-03 0.0 
-2.317277330880e-03 3.698342537328e-03 0.0 
0.0 0.0 -1.061672265243e-03 
-4.694800132291e-04 -3.046911020093e-03 0.0 
-3.046911020093e-03 2.876301697078e-03 0.0 
0.0 0.0 -9.848592602066e-04 
-1.735611780566e-03 9.275084004437e-04 0.0 
9.275084004437e-04 6.521846032081e-03 0.0 
0.0 0.0 -9.599091010803e-04 
1.728739922411e-03 1.188963731202e-03 0.0 
1.188963731202e-03 8.160108375692e-04 0.0 
0.0 0.0 -1.047968735850e-03 
1.251262826807e-03 -3.149427623220e-03 0.0 
-3.149427623220e-03 3.147933255355e-04 0.0 
0.0 0.0 -6.711669224326e-04 
-1.667035138543e-03 9.805979703494e-04 0.0 
9.805979703494e-04 7.401003517057e-03 0.0 
0.0 0.0 -1.098747615487e-03 
-1.603855099599e-03 1.782256839983e-03 0.0 
1.782256839983e-03 7.796685969376e-03 0.0 
0.0 0.0 -1.212453547082e-03 
-1.753933973529e-03 9.797964852189e-04 0.0 
9.797964852189e-04 5.978451539688e-03 0.0 
0.0 0.0 -8.875094802107e-04 
-2.613102227183e-04 -9.949083205869e-04 0.0 
-9.949083205869e-04 1.295268273910e-03 0.0 
0.0 0.0 -4.064699368096e-04 
-1.648709990180e-03 4.475238255647e-04 0.0 
4.475238255647e-04 6.036264205668e-03 0.0 
0.0 0.0 -8.692469099983e-04 
-7.046585693772e-04 -1.603564472277e-03 0.0 
-1.603564472277e-03 4.336264370663e-03 0.0 
0.0 0.0 -1.202705989510e-03 
-1.725470359675e-03 1.770892894084e-03 0.0 
1.770892894084e-03 6.914744693878e-03 0.0 
0.0 0.0 -1.078220320736e-03 
-7.065492097226e-04 -1.209971096051e-03 0.0 
-1.209971096051e-03 2.577314578998e-03 0.0 
0.0 0.0 -7.821142971127e-04 
5.250573700723e-03 8.064025066897e-05 0.0 
8.064025066897e-05 -4.184532952652e-03 0.0 
0.0 0.0 -4.568746063161e-04 
3.806190162657e-05 3.504317420526e-03 0.0 
3.504317420526e-03 2.161228531317e-03 0.0 
0.0 0.0 -9.249336466263e-04 
-2.209589313986e-03 5.300283682679e-03 0.0 
5.300283682679e-03 5.063304777379e-03 0.0 
0.0 0.0 -7.656857982150e-04 
-1.552562983666e-03 7.948996227407e-04 0.0 
7.948996227407e-04 8.084351316505e-03 0.0 
0.0 0.0 -1.206557591227e-03 
4.209801440839e-03 5.174850576621e-03 0.0 
5.174850576621e-03 -2.669408955785e-03 0.0 
0.0 0.0 -6.601682078804e-04 
9.506270205280e-04 8.751960751330e-05 0.0 
8.751960751330e-05 1.923837989222e-03 0.0 
0.0 0.0 -1.120054252910e-03 
3.363296760456e-03 7.332367989810e-05 0.0 
7.332367989810e-05 -1.873024895977e-03 0.0 
0.0 0.0 -6.386879419198e-04 
-8.300689796229e-04 -1.036862626203e-03 0.0 
-1.036862626203e-03 2.843866615447e-03 0.0 
0.0 0.0 -8.092532257643e-04 
-1.141410086144e-03 -2.132624368424e-03 0.0 
-2.132624368424e-03 4.763879094691e-03 0.0 
0.0 0.0 -1.118919378802e-03 
6.820845964198e-03 3.569188635664e-03 0.0 
3.569188635664e-03 -5.594669272771e-03 0.0 
0.0 0.0 -5.255042963258e-04 
-1.621773390463e-03 1.105341392258e-03 0.0 
1.105341392258e-03 7.770539650855e-03 0.0 
0.0 0.0 -1.164614768973e-03 
-1.917632821925e-04 4.006823377124e-03 0.0 
4.006823377124e-03 3.587926868366e-03 0.0 
0.0 0.0 -1.031533309622e-03 
7.561624114429e-03 1.065632525276e-03 0.0 
1.065632525276e-03 -5.957150518213e-03 0.0 
0.0 0.0 -6.876315412354e-04 
-1.686948173027e-03 1.421165008995e-03 0.0 
1.421165008995e-03 7.380565372555e-03 0.0 
0.0 0.0 -1.121170216299e-03 
1.222150717141e-03 -2.373830709757e-03 0.0 
-2.373830709757e-03 1.065827399511e-04 0.0 
0.0 0.0 -5.694571958966e-04 
1.222608313269e-03 1.563757013399e-03 0.0 
1.563757013399e-03 1.585419183416e-03 0.0 
0.0 0.0 -1.099429584637e-03 
-6.433175181119e-04 3.077878174349e-03 0.0 
3.077878174349e-03 3.183682229986e-03 0.0 
0.0 0.0 -9.539696108702e-04 
-5.313555112010e-04 3.715577362803e-03 0.0 
3.715577362803e-03 3.297192293431e-03 0.0 
0.0 0.0 -9.441813108648e-04 
-1.362049427310e-03 2.994726613582e-03 0.0 
2.994726613582e-03 5.058459491364e-03 0.0 
0.0 0.0 -9.824247929831e-04 
1.249953649565e-03 4.704803460460e-03 0.0 
4.704803460460e-03 9.091365397885e-04 0.0 
0.0 0.0 -8.887186042024e-04 
-1.881029170096e-03 -6.972944591045e-04 0.0 
-6.972944591045e-04 5.485539571048e-03 0.0 
0.0 0.0 -1.071820694527e-03 
-9.158007506096e-04 -2.235649248494e-03 0.0 
-2.235649248494e-03 4.248678740424e-03 0.0 
0.0 0.0 -1.090315851396e-03 
4.496740666762e-03 -2.525427035778e-03 0.0 
-2.525427035778e-03 -3.619631855747e-03 0.0 
0.0 0.0 -3.759037761492e-04 
2.069085730352e-03 5.114845495343e-03 0.0 
5.114845495343e-03 -5.748617078705e-04 0.0 
0.0 0.0 -6.403817239208e-04 
-1.758945777430e-03 1.160675475390e-03 0.0 
1.160675475390e-03 6.378359981790e-03 0.0 
0.0 0.0 -9.536514739466e-04 
5.388637148639e-04 4.034908213690e-03 0.0 
4.034908213690e-03 3.215958704558e-03 0.0 
0.0 0.0 -1.150585697120e-03 
-1.554201493046e-03 1.231598965710e-03 0.0 
1.231598965710e-03 8.128380504732e-03 0.0 
0.0 0.0 -1.229329624135e-03 
1.262393831026e-04 3.355826395296e-03 0.0 
3.355826395296e-03 1.929806354253e-03 0.0 
0.0 0.0 -8.811624588665e-04 
-1.286404788732e-03 -2.188571958382e-03 0.0 
-2.188571958382e-03 4.794074532598e-03 0.0 
0.0 0.0 -1.081576975854e-03 
-1.629163603093e-03 1.571087997701e-03 0.0 
1.571087997701e-03 7.723510960528e-03 0.0 
0.0 0.0 -1.185355684152e-03 
-3.559661832873e-04 -3.012647310201e-03 0.0 
-3.012647310201e-03 2.646809915025e-03 0.0 
0.0 0.0 -9.737892037141e-04 
-6.976930344785e-04 -1.410643969718e-04 0.0 
-1.410643969718e-04 2.122295991960e-03 0.0 
0.0 0.0 -4.572648740992e-04 
5.651076837873e-03 9.764328338664e-03 0.0 
9.764328338664e-03 -4.617661260320e-03 0.0 
0.0 0.0 -4.428923903797e-04 
6.915574213700e-03 8.593227377805e-04 0.0 
8.593227377805e-04 -5.243527869014e-03 0.0 
0.0 0.0 -7.165912905795e-04 
5.249602369188e-03 4.922903145697e-03 0.0 
4.922903145697e-03 -3.884010874876e-03 0.0 
0.0 0.0 -5.852534975623e-04 
-5.576706971117e-04 -2.954961257328e-03 0.0 
-2.954961257328e-03 3.029681223364e-03 0.0 
0.0 0.0 -1.013304783341e-03 
-1.555713883054e-03 2.364705081961e-03 0.0 
2.364705081961e-03 7.663070105557e-03 0.0 
0.0 0.0 -1.242275372262e-03 
-1.459222448555e-03 -1.977989758638e-03 0.0 
-1.977989758638e-03 5.249777589170e-03 0.0 
0.0 0.0 -1.110186454522e-03 
5.830392816436e-04 -1.845471426342e-03 0.0 
-1.845471426342e-03 2.038752941186e-03 0.0 
0.0 0.0 -1.040857148505e-03 
-6.618091406776e-05 1.803788751056e-02 0.0 
1.803788751056e-02 7.468147311128e-04 0.0 
0.0 0.0 -2.917002073050e-04 
-1.536820281025e-03 3.008999037216e-03 0.0 
3.008999037216e-03 4.429193940865e-03 0.0 
0.0 0.0 -8.070275419711e-04 
-1.590933393314e-03 -1.754583215491e-03 0.0 
-1.754583215491e-03 5.664446844218e-03 0.0 
0.0 0.0 -1.139074001596e-03 
3.982967107593e-03 -8.379407457866e-04 0.0 
-8.379407457866e-04 -2.912148271503e-03 0.0 
0.0 0.0 -4.589223583244e-04 
8.693712694682e-04 9.731939727376e-04 0.0 
9.731939727376e-04 2.045887458799e-03 0.0 
0.0 0.0 -1.126725356868e-03 
-1.535445043143e-03 -5.867914393128e-04 0.0 
-5.867914393128e-04 4.647107690583e-03 0.0 
0.0 0.0 -1.044109258258e-03 
-5.784705188430e-04 3.408679515571e-03 0.0 
3.408679515571e-03 4.968476189432e-03 0.0 
0.0 0.0 -1.249754184115e-03 
-5.450338149304e-04 4.948600254807e-03 0.0 
4.948600254807e-03 2.787393205437e-03 0.0 
0.0 0.0 -9.028501661439e-04 
-1.686501264746e-03 -1.526608176621e-03 0.0 
-1.526608176621e-03 6.045524770636e-03 0.0 
0.0 0.0 -1.168790087466e-03 
1.419780768573e-03 -9.567892221665e-04 0.0 
-9.567892221665e-04 1.101253031333e-03 0.0 
0.0 0.0 -1.036257385577e-03 
4.769474181054e-03 5.829100504971e-03 0.0 
5.829100504971e-03 -3.154463901544e-03 0.0 
0.0 0.0 -6.921472626470e-04 
-1.448920855555e-03 5.485150606776e-05 0.0 
5.485150606776e-05 5.277752212934e-03 0.0 
0.0 0.0 -7.498068730476e-04 
-1.593954056461e-03 -1.469135234964e-03 0.0 
-1.469135234964e-03 6.450266463409e-03 0.0 
0.0 0.0 -1.243807156011e-03 
7.411184569627e-04 -8.094091616898e-04 0.0 
-8.094091616898e-04 2.165408630684e-03 0.0 
0.0 0.0 -1.114542488500e-03 
1.545006518288e-03 4.982453791413e-03 0.0 
4.982453791413e-03 8.519869349413e-04 0.0 
0.0 0.0 -9.321888224300e-04 
3.190256447648e-03 -1.555858806450e-03 0.0 
-1.555858806450e-03 -2.059012676382e-03 0.0 
0.0 0.0 -4.848187591141e-04 
-1.570185076046e-03 6.052504999989e-03 0.0 
6.052504999989e-03 4.097983417020e-03 0.0 
0.0 0.0 -7.928834912169e-04 
-8.622534806161e-04 -2.703450422620e-03 0.0 
-2.703450422620e-03 3.567462389003e-03 0.0 
0.0 0.0 -1.042489463686e-03 
-8.605179881733e-04 3.495227561288e-03 0.0 
3.495227561288e-03 3.914976441871e-03 0.0 
0.0 0.0 -9.528746205426e-04 
-1.455694182561e-03 2.079571376027e-03 0.0 
2.079571376027e-03 8.238502292373e-03 0.0 
0.0 0.0 -1.306889097489e-03 
4.959266398341e-04 -3.738801839187e-04 0.0 
-3.738801839187e-04 2.532869632824e-03 0.0 
0.0 0.0 -1.148622835147e-03 
-1.725562695568e-03 2.028005553636e-03 0.0 
2.028005553636e-03 5.979413828880e-03 0.0 
0.0 0.0 -9.696660045843e-04 
-9.371362615476e-04 -2.513813645279e-03 0.0 
-2.513813645279e-03 3.674904326905e-03 0.0 
0.0 0.0 -1.055577742195e-03 
3.274683489908e-03 3.816586726661e-03 0.0 
3.816586726661e-03 -1.120414764574e-03 0.0 
0.0 0.0 -9.020111454724e-04 
3.742549576297e-04 -4.844215920984e-04 0.0 
-4.844215920984e-04 7.918769056055e-04 0.0 
0.0 0.0 -3.093966206321e-04 
-1.089941514164e-03 3.992156550019e-03 0.0 
3.992156550019e-03 3.648459156555e-03 0.0 
0.0 0.0 -8.430048313659e-04 
-1.188974335056e-03 -2.184404117123e-03 0.0 
-2.184404117123e-03 4.121734009211e-03 0.0 
0.0 0.0 -1.055179846540e-03 
6.841922559774e-03 -7.275729108545e-04 0.0 
-7.275729108545e-04 -5.202948664694e-03 0.0 
0.0 0.0 -7.024173836058e-04 
1.971956336961e-03 -2.102049275380e-03 0.0 
-2.102049275380e-03 -7.331785574494e-04 0.0 
0.0 0.0 -5.309047626477e-04 
-4.103656222633e-04 1.858477614099e-03 0.0 
1.858477614099e-03 4.067469138379e-03 0.0 
0.0 0.0 -1.234277959947e-03 
-1.405357231203e-03 -1.830815427985e-03 0.0 
-1.830815427985e-03 4.525691195773e-03 0.0 
0.0 0.0 -1.058821591963e-03 
6.928180459943e-03 -4.756904713202e-04 0.0 
-4.756904713202e-04 -5.333560167487e-03 0.0 
0.0 0.0 -6.834086967669e-04 
-1.589234832291e-03 -1.465860908847e-03 0.0 
-1.465860908847e-03 4.884351969089e-03 0.0 
0.0 0.0 -1.063846254002e-03 
-1.041757884446e-03 6.071785480875e-03 0.0 
6.071785480875e-03 3.269090072454e-03 0.0 
0.0 0.0 -8.384157971481e-04 
-1.674104129450e-03 2.267631102477e-03 0.0 
2.267631102477e-03 5.977690423385e-03 0.0 
0.0 0.0 -9.983267706061e-04 
-1.746776969671e-03 -1.092710579845e-03 0.0 
-1.092710579845e-03 5.203384673320e-03 0.0 
0.0 0.0 -1.068006041337e-03 
-8.136529641373e-04 3.501655588187e-03 0.0 
3.501655588187e-03 4.195593422110e-03 0.0 
0.0 0.0 -1.003151257071e-03 
3.068028208312e-05 -8.804430790457e-04 0.0 
-8.804430790457e-04 9.914464133751e-04 0.0 
0.0 0.0 -3.190932086048e-04 
2.665529113715e-03 5.344808763319e-03 0.0 
5.344808763319e-03 -2.823030494024e-04 0.0 
0.0 0.0 -9.369607680273e-04 
-1.969274810505e-03 -5.697349439415e-04 0.0 
-5.697349439415e-04 6.492408088354e-03 0.0 
0.0 0.0 -1.155419075730e-03 
4.460939102830e-04 -2.841642607167e-03 0.0 
-2.841642607167e-03 1.136269056788e-03 0.0 
0.0 0.0 -6.781555573162e-04 
1.060343582879e-03 -2.583632769736e-03 0.0 
-2.583632769736e-03 3.699886811024e-04 0.0 
0.0 0.0 -6.129995417062e-04 
-1.637827184878e-03 2.388605245637e-03 0.0 
2.388605245637e-03 6.314063370822e-03 0.0 
0.0 0.0 -1.063653581392e-03 
-6.770325106701e-04 6.247179891667e-03 0.0 
6.247179891667e-03 2.562138516100e-03 0.0 
0.0 0.0 -8.079025737556e-04 
1.000790349268e-03 -2.566208801405e-03 0.0 
-2.566208801405e-03 7.053556116394e-04 0.0 
0.0 0.0 -7.312054118175e-04 
-6.494647047988e-04 3.619351614025e-03 0.0 
3.619351614025e-03 4.393219507765e-03 0.0 
0.0 0.0 -1.067288052377e-03 
3.048483821458e-03 4.962990674335e-03 0.0 
4.962990674335e-03 -6.307729745164e-04 0.0 
0.0 0.0 -9.588566822092e-04 
5.129190327717e-03 4.954497448286e-03 0.0 
4.954497448286e-03 -3.675947601144e-03 0.0 
0.0 0.0 -6.228183113887e-04 
8.969703267962e-04 -2.205106514029e-03 0.0 
-2.205106514029e-03 1.277971698616e-03 0.0 
0.0 0.0 -9.159128653295e-04 
-6.958133636708e-05 5.672496357204e-03 0.0 
5.672496357204e-03 1.907417576716e-03 0.0 
0.0 0.0 -7.876441030066e-04 
-4.603323552835e-06 -2.296978514711e-03 0.0 
-2.296978514711e-03 1.485132063043e-03 0.0 
0.0 0.0 -6.345123169243e-04 
-1.725456702673e-05 -2.050421713285e-03 0.0 
-2.050421713285e-03 1.350463780520e-03 0.0 
0.0 0.0 -5.713753772113e-04 
5.640265426247e-03 -1.416399658673e-03 0.0 
-1.416399658673e-03 -4.161509385849e-03 0.0 
0.0 0.0 -6.337525887422e-04 
-9.887093482993e-04 3.335580111141e-03 0.0 
3.335580111141e-03 5.089328323055e-03 0.0 
0.0 0.0 -1.103081964739e-03 
-1.044144713629e-04 -2.821628049395e-04 0.0 
-2.821628049395e-04 1.230352848139e-03 0.0 
0.0 0.0 -3.018576685516e-04 
-1.520679869667e-03 2.700420786858e-03 0.0 
2.700420786858e-03 5.894437551981e-03 0.0 
0.0 0.0 -1.054898413167e-03 
1.434637815246e-04 -2.013001771722e-03 0.0 
-2.013001771722e-03 1.061630091320e-03 0.0 
0.0 0.0 -5.164688026476e-04 
4.432305277360e-03 -2.260149127836e-03 0.0 
-2.260149127836e-03 -2.995552524555e-03 0.0 
0.0 0.0 -6.157511797736e-04 
1.630007454476e-03 3.272696532037e-03 0.0 
3.272696532037e-03 1.266575885518e-03 0.0 
0.0 0.0 -1.077081564483e-03 
-1.567382262079e-03 5.775225248615e-06 0.0 
5.775225248615e-06 6.502023960398e-03 0.0 
0.0 0.0 -9.315431351609e-04 
2.889686038420e-03 -2.407725156172e-03 0.0 
-2.407725156172e-03 -1.601203810469e-03 0.0 
0.0 0.0 -5.522066691216e-04 
-8.473530892992e-04 -1.857205257249e-04 0.0 
-1.857205257249e-04 2.593065685554e-03 0.0 
0.0 0.0 -6.119633700263e-04 
1.920265129993e-03 -2.536892975034e-03 0.0 
-2.536892975034e-03 -6.351559327488e-04 0.0 
0.0 0.0 -5.507610845334e-04 
4.412612919022e-03 4.615098038421e-03 0.0 
4.615098038421e-03 -2.700497563951e-03 0.0 
0.0 0.0 -7.337637236018e-04 
1.166584806499e-03 -2.448706473937e-03 0.0 
-2.448706473937e-03 1.644568183363e-04 0.0 
0.0 0.0 -5.704464106438e-04 
9.207629563978e-04 -2.562817695187e-03 0.0 
-2.562817695187e-03 4.684807333005e-04 0.0 
0.0 0.0 -5.953901527278e-04 
-1.509599202053e-03 7.115315669588e-04 0.0 
7.115315669588e-04 8.319494978419e-03 0.0 
0.0 0.0 -1.242975171717e-03 
6.644834369663e-04 -2.816687817472e-03 0.0 
-2.816687817472e-03 8.638079814567e-04 0.0 
0.0 0.0 -6.549820364670e-04 
-1.417913046649e-03 2.000204615730e-04 0.0 
2.000204615730e-04 8.717353493565e-03 0.0 
0.0 0.0 -1.305370344976e-03 
-1.585981038622e-03 -5.390524588140e-04 0.0 
-5.390524588140e-04 7.088561262435e-03 0.0 
0.0 0.0 -1.298405437673e-03 
-1.489518803289e-03 -4.573950556845e-06 0.0 
-4.573950556845e-06 5.635615486584e-03 0.0 
0.0 0.0 -7.997855503562e-04 
-5.287286297505e-04 7.036660759069e-03 0.0 
7.036660759069e-03 2.039203725290e-03 0.0 
0.0 0.0 -6.473464695169e-04 
4.394104675497e-04 9.610876642483e-05 0.0 
9.610876642483e-05 -4.394104675497e-04 0.0 
0.0 0.0 0.0 
4.768937409346e-04 6.151207247407e-03 0.0 
6.151207247407e-03 9.568515738114e-04 0.0 
0.0 0.0 -6.144622777483e-04 
4.589079226346e-04 -2.669236835745e-03 0.0 
-2.669236835745e-03 1.017039993413e-03 0.0 
0.0 0.0 -6.325491068774e-04 
-1.344360499523e-03 2.998007223071e-03 0.0 
2.998007223071e-03 5.396263019476e-03 0.0 
0.0 0.0 -1.045752072333e-03 
-1.493847809746e-03 7.392246810856e-05 0.0 
7.392246810856e-05 5.643210332918e-03 0.0 
0.0 0.0 -8.029817139903e-04 
2.189770723719e-04 -2.551176870332e-03 0.0 
-2.551176870332e-03 1.274969331798e-03 0.0 
0.0 0.0 -6.402627446442e-04 
-1.366871443833e-03 3.142943951880e-03 0.0 
3.142943951880e-03 6.869848135483e-03 0.0 
0.0 0.0 -1.250093291501e-03 
-1.081456330366e-03 2.858878382813e-03 0.0 
2.858878382813e-03 5.475130510313e-03 0.0 
0.0 0.0 -1.306737725957e-03 
-1.583352928322e-03 1.388979039351e-04 0.0 
1.388979039351e-04 7.093261842357e-03 0.0 
0.0 0.0 -1.028769680629e-03 
5.221582582886e-04 4.941828558898e-04 0.0 
4.941828558898e-04 2.499016180226e-03 0.0 
0.0 0.0 -1.152835590205e-03 
2.663060771787e-03 4.004948683210e-03 0.0 
4.004948683210e-03 -1.593316750374e-04 0.0 
0.0 0.0 -9.954397186036e-04 
-1.532870607185e-03 8.627533493903e-05 0.0 
8.627533493903e-05 8.032571934377e-03 0.0 
0.0 0.0 -1.185717314024e-03 
-1.493423908883e-03 8.976519337403e-05 0.0 
8.976519337403e-05 5.235057922781e-03 0.0 
0.0 0.0 -7.451086181774e-04 
2.327672454161e-04 -1.166847180364e-03 0.0 
-1.166847180364e-03 5.608964934082e-04 0.0 
0.0 0.0 -3.091056868569e-04 
-1.995343437528e-03 -3.338550389889e-04 0.0 
-3.338550389889e-04 5.735331553200e-03 0.0 
0.0 0.0 -1.072300834510e-03 
-2.901037504489e-04 7.715374344493e-03 0.0 
7.715374344493e-03 1.522064252928e-03 0.0 
0.0 0.0 -5.279830724910e-04 
1.010381914519e-03 9.533208160614e-03 0.0 
9.533208160614e-03 2.480756505109e-04 0.0 
0.0 0.0 -5.393389564412e-04 
1.528598212593e-03 1.169340854749e-02 0.0 
1.169340854749e-02 -2.939411677631e-04 0.0 
0.0 0.0 -5.291387334984e-04 
-9.396181000691e-04 -7.967451354887e-04 0.0 
-7.967451354887e-04 3.058992386408e-03 0.0 
0.0 0.0 -8.121166773320e-04 
5.494964702923e-04 -2.584085792452e-03 0.0 
-2.584085792452e-03 8.433772001581e-04 0.0 
0.0 0.0 -5.969458587645e-04 
5.380852097575e-06 1.039221626811e-02 0.0 
1.039221626811e-02 1.138784052393e-03 0.0 
0.0 0.0 -4.903563876387e-04 
-4.939062350797e-04 6.171183008716e-04 0.0 
6.171183008716e-04 4.000833805479e-03 0.0 
0.0 0.0 -1.245112051941e-03 
-1.636730137181e-03 4.290067563108e-04 0.0 
4.290067563108e-04 5.580276288558e-03 0.0 
0.0 0.0 -8.050116406322e-04 
1.104728432362e-03 3.346956186913e-03 0.0 
3.346956186913e-03 2.074547449894e-03 0.0 
0.0 0.0 -1.110409235593e-03 
2.479546681309e-05 1.284159564152e-02 0.0 
1.284159564152e-02 1.047841620553e-03 0.0 
0.0 0.0 -4.597016088712e-04 
-1.554707372438e-03 1.697440109364e-03 0.0 
1.697440109364e-03 8.056864122716e-03 0.0 
0.0 0.0 -1.247366155457e-03 
-6.091940156839e-04 2.454184288240e-03 0.0 
2.454184288240e-03 4.509755038117e-03 0.0 
0.0 0.0 -1.246608778627e-03 
-1.331856878630e-03 -1.983836111103e-03 0.0 
-1.983836111103e-03 6.114923973583e-03 0.0 
0.0 0.0 -1.306249356034e-03 
2.067243705666e-04 2.798834182290e-03 0.0 
2.798834182290e-03 3.314611284805e-03 0.0 
0.0 0.0 -1.176371721005e-03 
2.367355486302e-03 1.664291317040e-02 0.0 
1.664291317040e-02 -1.247429804970e-03 0.0 
0.0 0.0 -4.799681491424e-04 
-1.753134334940e-03 1.030981935736e-03 0.0 
1.030981935736e-03 5.768775069705e-03 0.0 
0.0 0.0 -8.603500797662e-04 
-5.153467953489e-04 3.904374423147e-03 0.0 
3.904374423147e-03 5.274319089408e-03 0.0 
0.0 0.0 -1.250827372426e-03 
-1.580586288305e-03 2.460651619642e-04 0.0 
2.460651619642e-04 7.417010690682e-03 0.0 
0.0 0.0 -1.080253149739e-03 
-1.410996846028e-03 -1.766992384939e-03 0.0 
-1.766992384939e-03 6.482040820837e-03 0.0 
0.0 0.0 -1.309985050881e-03 
-1.682012249170e-03 6.654682702296e-04 0.0 
6.654682702296e-04 5.457303072723e-03 0.0 
0.0 0.0 -7.979019438933e-04 
-1.482092413582e-03 4.825553233706e-04 0.0 
4.825553233706e-04 8.388620482460e-03 0.0 
0.0 0.0 -1.252774941638e-03 
4.248593724651e-03 -4.369734737115e-03 0.0 
-4.369734737115e-03 -3.198168923374e-03 0.0 
0.0 0.0 -4.501820576904e-04 
-1.472782165905e-03 2.611384925530e-04 0.0 
2.611384925530e-04 8.403666031078e-03 0.0 
0.0 0.0 -1.254166199180e-03 
-1.340636802885e-03 3.017781757784e-03 0.0 
3.017781757784e-03 5.759872352408e-03 0.0 
0.0 0.0 -1.110316242656e-03 
-1.575034003637e-03 2.533992497604e-04 0.0 
2.533992497604e-04 6.175537215493e-03 0.0 
0.0 0.0 -8.840149073763e-04 
-1.771751416511e-03 1.426780246192e-03 0.0 
1.426780246192e-03 5.587137473215e-03 0.0 
0.0 0.0 -8.570326279659e-04 
-1.684907386527e-03 -8.004631079360e-04 0.0 
-8.004631079360e-04 6.831074281255e-03 0.0 
0.0 0.0 -1.256337174517e-03 
-1.508670120193e-03 2.760870843371e-03 0.0 
2.760870843371e-03 7.327066348949e-03 0.0 
0.0 0.0 -1.249505442739e-03 
3.651675704028e-03 1.839880673736e-02 0.0 
1.839880673736e-02 -2.940922829197e-03 0.0 
0.0 0.0 -3.046083749275e-04 
-1.585370214117e-03 2.593308700915e-04 0.0 
2.593308700915e-04 7.073771685170e-03 0.0 
0.0 0.0 -1.024357608964e-03 
-1.028891659838e-03 -1.361434891480e-03 0.0 
-1.361434891480e-03 3.507211596145e-03 0.0 
0.0 0.0 -9.709766588611e-04 
2.245361549176e-03 -2.830471272017e-03 0.0 
-2.830471272017e-03 -2.204283883776e-03 0.0 
0.0 0.0 -1.760471374282e-05 
-1.108111334259e-03 -1.824971532717e-03 0.0 
-1.824971532717e-03 5.280702358381e-03 0.0 
0.0 0.0 -1.249521112489e-03 
-1.337155806312e-03 3.078338638051e-03 0.0 
3.078338638051e-03 6.107942284300e-03 0.0 
0.0 0.0 -1.172189067419e-03 
-1.641216111045e-03 -1.228485444809e-03 0.0 
-1.228485444809e-03 6.632464522082e-03 0.0 
0.0 0.0 -1.251863004148e-03 
6.870997980249e-04 -1.638519815721e-05 0.0 
-1.638519815721e-05 5.545013765784e-04 0.0 
0.0 0.0 -3.073113677837e-04 
2.659967583917e-04 -9.636004765028e-04 0.0 
-9.636004765028e-04 4.197455964224e-04 0.0 
0.0 0.0 -2.058019112872e-04 
-9.341108583894e-04 -1.570273886574e-03 0.0 
-1.570273886574e-03 4.919000747850e-03 0.0 
0.0 0.0 -1.258522865334e-03 
-7.339338532371e-04 3.957466481379e-03 0.0 
3.957466481379e-03 5.938328448067e-03 0.0 
0.0 0.0 -1.257106814994e-03 
3.607612545111e-03 -4.778050739271e-03 0.0 
-4.778050739271e-03 -2.099931889589e-03 0.0 
0.0 0.0 -6.461488523668e-04 
-1.444494309143e-03 1.513018136519e-03 0.0 
1.513018136519e-03 8.529509024149e-03 0.0 
0.0 0.0 -1.314710167832e-03 
4.249174038915e-03 1.575415428427e-02 0.0 
1.575415428427e-02 -4.156621351656e-03 0.0 
0.0 0.0 -3.966543739692e-05 
-1.527500430813e-03 2.291957424775e-04 0.0 
2.291957424775e-04 5.159544215479e-03 0.0 
0.0 0.0 -7.389643750272e-04 
7.620505081904e-04 -8.132214655281e-04 0.0 
-8.132214655281e-04 2.904531156157e-04 0.0 
0.0 0.0 -2.614123832254e-04 
-1.451285018422e-03 -1.619253938531e-03 0.0 
-1.619253938531e-03 6.712702821616e-03 0.0 
0.0 0.0 -1.308531455474e-03 
-1.521082113150e-03 1.160385665173e-03 0.0 
1.160385665173e-03 8.292813149207e-03 0.0 
0.0 0.0 -1.254845750201e-03 
-1.245470008181e-03 -9.103756336826e-04 0.0 
-9.103756336826e-04 3.950697369425e-03 0.0 
0.0 0.0 -9.904446095582e-04 
-1.941099982517e-03 1.416497019471e-03 0.0 
1.416497019471e-03 5.219126635552e-03 0.0 
0.0 0.0 -7.582784842146e-04 
-9.206532372436e-04 -4.495869396707e-04 0.0 
-4.495869396707e-04 2.876332750162e-03 0.0 
0.0 0.0 -7.084058105195e-04 
-7.778247272838e-05 3.627092020232e-03 0.0 
3.627092020232e-03 4.121339023144e-03 0.0 
0.0 0.0 -1.203498912175e-03 
1.578052768763e-04 -1.733898146901e-03 0.0 
-1.733898146901e-03 8.518457615679e-04 0.0 
0.0 0.0 -4.327075879046e-04 
-1.502885003929e-03 8.385321329672e-04 0.0 
8.385321329672e-04 8.406515819115e-03 0.0 
0.0 0.0 -1.260296891839e-03 
-7.798982579111e-04 -1.032636455785e-03 0.0 
-1.032636455785e-03 4.559837266151e-03 0.0 
0.0 0.0 -1.261416966621e-03 
-1.541080814648e-03 2.248481841172e-03 0.0 
2.248481841172e-03 7.871819285488e-03 0.0 
0.0 0.0 -1.260618436842e-03 
-1.035661708301e-03 1.434119926330e-03 0.0 
1.434119926330e-03 4.999968609048e-03 0.0 
0.0 0.0 -1.317725628150e-03 
2.082176831811e-03 1.510816686711e-03 0.0 
1.510816686711e-03 -2.082176831811e-03 0.0 
0.0 0.0 0.0 
-7.781981642572e-04 2.717091621455e-03 0.0 
2.717091621455e-03 4.899804305219e-03 0.0 
0.0 0.0 -1.263090216482e-03 
-1.110445625249e-04 -3.521818666227e-04 0.0 
-3.521818666227e-04 3.465600205774e-03 0.0 
0.0 0.0 -1.202239909569e-03 
-1.469921091904e-03 1.397057797389e-04 0.0 
1.397057797389e-04 5.245389338611e-03 0.0 
0.0 0.0 -7.439744481034e-04 
-1.522980262771e-03 2.574585562032e-03 0.0 
2.574585562032e-03 7.567445771786e-03 0.0 
0.0 0.0 -1.252574368527e-03 
-1.039501310576e-03 -8.329301664350e-04 0.0 
-8.329301664350e-04 3.357758752277e-03 0.0 
0.0 0.0 -8.789764298429e-04 
-3.040830110492e-04 -7.307171982561e-04 0.0 
-7.307171982561e-04 1.366994617457e-03 0.0 
0.0 0.0 -3.555153606766e-04 
-1.400496614823e-03 7.920880417302e-05 0.0 
7.920880417302e-05 8.744396333073e-03 0.0 
0.0 0.0 -1.313490227100e-03 
2.591081702747e-03 -1.159131639382e-06 0.0 
-1.159131639382e-06 -8.258515174702e-04 0.0 
0.0 0.0 -1.906577643802e-04 
-1.436285120339e-03 -8.822331672807e-06 0.0 
-8.822331672807e-06 5.224558560537e-03 0.0 
0.0 0.0 -7.402411036050e-04 
-1.541544735514e-03 -2.080816256948e-04 0.0 
-2.080816256948e-04 7.171789726740e-03 0.0 
0.0 0.0 -1.313492844077e-03 
-8.779626809729e-05 -3.980681323576e-04 0.0 
-3.980681323576e-04 1.158448388398e-03 0.0 
0.0 0.0 -2.948614013126e-04 
-1.524937947447e-03 4.475494657923e-05 0.0 
4.475494657923e-05 5.953624986698e-03 0.0 
0.0 0.0 -8.489638187885e-04 
-1.091073216309e-03 3.525474355187e-03 0.0 
3.525474355187e-03 6.490536622741e-03 0.0 
0.0 0.0 -1.260211869575e-03 
-1.590513358799e-03 -2.597680171264e-04 0.0 
-2.597680171264e-04 4.769333481416e-03 0.0 
0.0 0.0 -1.052454572086e-03 
-1.550492385742e-03 1.189328986090e-04 0.0 
1.189328986090e-04 7.800235903878e-03 0.0 
0.0 0.0 -1.148445367820e-03 
9.452528930191e-04 -2.939486558072e-03 0.0 
-2.939486558072e-03 5.700922820308e-04 0.0 
0.0 0.0 -6.494336464500e-04 
5.138794299670e-04 -4.710888109644e-04 0.0 
-4.710888109644e-04 -5.138794299670e-04 0.0 
0.0 0.0 0.0 
-1.577256117848e-03 6.886097405366e-05 0.0 
6.886097405366e-05 6.718118974100e-03 0.0 
0.0 0.0 -9.668795991591e-04 
-7.046210657706e-04 2.121644584729e-03 0.0 
2.121644584729e-03 4.530077885858e-03 0.0 
0.0 0.0 -1.258714341260e-03 
-1.539880904137e-03 1.881264573762e-03 0.0 
1.881264573762e-03 8.091722768049e-03 0.0 
0.0 0.0 -1.263997700767e-03 
-1.584367033562e-03 2.539188043181e-04 0.0 
2.539188043181e-04 6.423614681133e-03 0.0 
0.0 0.0 -9.199601189493e-04 
5.175646526756e-03 1.258880298246e-02 0.0 
1.258880298246e-02 -4.386505328021e-03 0.0 
0.0 0.0 -3.382033708860e-04 
-1.142803793721e-03 3.418229435403e-03 0.0 
3.418229435403e-03 6.220684497484e-03 0.0 
0.0 0.0 -1.221038716794e-03 
-1.328731786449e-03 -9.755978743980e-04 0.0 
-9.755978743980e-04 4.177204897338e-03 0.0 
0.0 0.0 -1.017329335709e-03 
-1.343930644511e-04 4.079341732836e-03 0.0 
4.079341732836e-03 4.572209008256e-03 0.0 
0.0 0.0 -1.208939113964e-03 
-8.289496229987e-05 4.115729957935e-04 0.0 
4.115729957935e-04 3.398088288881e-03 0.0 
0.0 0.0 -1.203806565432e-03 
1.826447767218e-03 1.756802921806e-02 0.0 
1.756802921806e-02 -1.602192322116e-03 0.0 
0.0 0.0 -9.610947647254e-05 
-1.710135402111e-03 -2.140528936374e-04 0.0 
-2.140528936374e-04 5.062773823412e-03 0.0 
0.0 0.0 -1.067873332563e-03 
6.600777021521e-04 -9.144538571308e-04 0.0 
-9.144538571308e-04 2.757948784946e-04 0.0 
0.0 0.0 -2.245507586255e-04 
-1.352905233575e-03 -1.915199808028e-03 0.0 
-1.915199808028e-03 5.962667998270e-03 0.0 
0.0 0.0 -1.263714160583e-03 
-1.428737268169e-03 -6.941057894653e-04 0.0 
-6.941057894653e-04 4.390777467220e-03 0.0 
0.0 0.0 -1.028704531826e-03 

SCALARS node_materi_plasti_kappa_shear float
LOOKUP_TABLE default
2.150747912249e-03
3.595696227230e-03
4.967886194113e-03
5.876066285134e-03
1.453369920611e-03
1.053360439815e-03
1.313872268614e-03
1.553716885129e-03
1.749514182145e-03
2.072909783402e-03
2.372334959694e-03
2.646556194044e-03
2.900020015941e-03
3.146970300908e-03
3.414657029732e-03
3.664527045737e-03
3.866039465253e-03
4.132559423194e-03
4.398804352872e-03
4.605615939913e-03
4.743184926544e-03
4.864835234233e-03
4.967891461668e-03
5.874817732443e-03
5.871659258458e-03
5.865996944230e-03
5.879052454380e-03
5.875406408010e-03
5.881746665879e-03
5.893121739855e-03
5.904403498293e-03
5.911667380715e-03
5.942687471040e-03
5.945547502064e-03
5.964504727329e-03
5.990682248078e-03
6.011317128069e-03
6.070375241788e-03
6.160471254930e-03
6.226666401321e-03
6.335318989521e-03
6.444614327321e-03
6.444980435557e-03
6.268141847104e-03
6.026970318093e-03
5.802634971968e-03
5.580975916113e-03
5.334038485110e-03
5.099814575695e-03
4.848871496601e-03
4.578436030419e-03
4.312126051031e-03
4.068983510438e-03
3.878948019144e-03
3.696536407386e-03
3.610414615740e-03
3.648906839705e-03
3.740049181565e-03
3.899047133921e-03
4.078094335186e-03
4.265058537564e-03
4.435125269456e-03
4.594665148187e-03
4.735181100800e-03
4.838272090162e-03
4.913247143246e-03
4.935696440884e-03
4.963163630605e-03
4.970148499816e-03
4.972729571996e-03
4.968771048834e-03
4.969260551934e-03
3.740141790492e-03
4.058111443788e-03
4.339280484927e-03
4.600412294281e-03
4.861219744616e-03
5.105119180278e-03
5.341101545075e-03
5.553418984263e-03
5.788796962491e-03
9.652040188182e-03
5.317025340615e-03
1.874301732899e-02
1.362072706150e-02
1.108958946836e-02
7.956632713820e-03
7.573984752534e-03
7.291589311971e-03
7.506720342566e-03
8.284483434803e-03
9.338856577516e-03
3.580540291520e-03
3.582316363975e-03
3.588119260490e-03
3.582117635180e-03
3.639873989655e-03
3.602925509225e-03
3.598783225131e-03
3.614758951482e-03
3.642515191705e-03
3.651301196399e-03
3.650732464659e-03
3.659385240253e-03
3.668613303123e-03
4.158096513274e-03
1.001368881128e-03
0.0
0.0
0.0
1.145180916009e-03
1.751475205245e-03
1.253760940427e-03
1.323840469840e-03
1.275231644599e-03
1.559828685117e-03
1.220528814150e-03
1.270401054087e-03
1.498595901480e-03
1.732516901269e-03
1.877492341559e-03
1.974796415675e-03
2.039514044389e-03
2.131195261371e-03
2.225275525388e-03
2.317082146618e-02
1.580249837562e-02
1.200042753793e-02
9.750027454356e-03
8.162786253980e-03
7.666502517987e-03
7.326063327333e-03
7.755100899974e-03
8.863583991323e-03
8.895948339201e-03
1.521648486489e-02
3.375143360345e-03
1.275291619792e-03
2.113389805194e-03
4.185730067683e-03
9.016108482453e-03
3.290669112102e-03
3.943090107724e-03
7.155336943577e-03
5.128343287124e-03
7.326722023698e-03
4.807738799368e-03
1.284986086036e-03
6.364144058724e-03
5.731186241477e-03
2.243660734344e-03
3.956138881533e-03
6.139406609891e-03
5.961613002782e-03
5.833020523938e-03
5.849817635203e-03
5.907569221224e-03
3.914370440200e-03
3.753148626160e-03
3.750719424971e-03
4.728883318265e-03
4.949356106529e-03
2.025135484665e-03
1.534899429071e-03
4.662329876841e-03
3.701848086155e-03
1.435972119932e-03
5.954690326693e-03
4.568627777448e-03
5.786818937518e-03
3.503959695460e-03
3.612570973627e-03
1.672615980855e-03
3.764133124860e-03
4.509011244357e-03
5.226961181745e-03
9.916644539670e-04
2.786147332295e-03
5.862108365073e-03
7.471308289722e-03
1.142274443699e-02
7.039763561612e-03
7.731100854379e-03
2.139667715376e-02
4.215679675405e-03
4.988678889666e-03
1.694199168177e-03
5.647207016452e-03
4.197908594041e-03
3.959485929510e-03
4.093805969592e-03
4.237157459642e-03
4.355175514086e-03
4.475551541186e-03
4.360600218784e-03
4.584917723766e-03
4.472803770017e-03
4.603457862675e-03
4.678779703983e-03
4.566901197709e-03
4.755547519284e-03
4.640471696753e-03
4.457539912409e-03
4.538567241607e-03
4.334573614265e-03
4.420847848507e-03
4.584491396975e-03
4.467742894371e-03
4.290813753397e-03
4.341561214995e-03
4.161369484108e-03
4.203844918485e-03
4.020961676830e-03
4.034625045676e-03
4.419506101662e-03
4.461331300385e-03
4.100849959115e-03
4.800394333486e-03
4.609560442219e-03
5.240682143802e-03
5.739926036447e-03
6.066120891180e-03
5.677885879244e-03
6.481290432500e-03
6.212534962080e-03
6.999259652963e-03
6.804477295680e-03
7.438894046397e-03
7.571106770618e-03
7.717589564404e-03
7.607369525636e-03
7.556884626518e-03
7.303038900556e-03
6.869649776931e-03
6.226462089063e-03
5.716078964680e-03
6.189640081982e-03
5.003592138117e-03
4.560564636664e-03
3.905683808898e-03
4.272478047289e-03
3.273990770894e-03
3.052607475684e-03
2.632906579164e-03
2.780282340592e-03
2.603796756336e-03
2.727482019444e-03
2.938942653524e-03
2.800953391655e-03
3.099410076939e-03
3.236731448007e-03
3.326718393122e-03
3.458435113975e-03
3.182252973246e-03
3.349632840797e-03
3.182734544931e-03
3.297058188961e-03
6.663326423648e-03
3.084763359842e-03
2.947638229530e-03
3.173599872694e-03
3.367971322397e-03
2.907366739478e-03
2.989778207621e-03
2.681037591212e-03
6.249420910486e-03
4.583977419968e-03
2.763122244056e-03
2.422279070482e-03
2.341976270933e-03
2.055104190934e-03
4.487857016271e-03
4.743988105411e-03
4.617567667593e-03
4.883368050274e-03
4.763228887328e-03
2.160659489003e-03
4.890919826071e-03
4.994559216403e-03
4.077898647515e-03
4.025180606257e-03
6.498185537365e-03
3.041451028518e-03
2.832922892333e-03
3.077663964186e-03
3.380542676541e-03
3.577929148801e-03
3.502531489785e-03
3.663458989421e-03
3.546277218969e-03
3.702657791091e-03
3.786178392521e-03
3.850978684801e-03
3.897450996605e-03
3.504687425170e-03
3.291824593051e-03
3.999992240266e-03
4.016767369501e-03
4.146857594669e-03
4.147424783067e-03
3.977096144328e-03
4.088166746606e-03
3.903561376438e-03
5.233570863238e-03
5.334879700813e-03
4.129791743754e-03
4.203462020956e-03
3.286590773610e-03
3.408288272896e-03
2.885013241239e-03
2.911658302366e-03
4.813044669928e-03
7.398220843845e-03
7.331114460251e-03
6.978233503741e-03
7.124390905539e-03
6.542562373890e-03
7.165518803747e-03
6.267673880531e-03
5.818595820514e-03
5.229522804102e-03
5.401287820119e-03
4.682627963699e-03
5.489426336557e-03
5.119219720452e-03
4.362232093034e-03
3.587018995228e-03
4.515596153422e-03
1.986920103444e-03
4.283844059938e-03
3.257008008793e-03
3.159995070808e-03
2.771122225987e-03
1.779410363677e-03
7.543447098904e-03
8.263866954199e-03
5.018824155785e-03
4.900262887059e-03
3.148710035196e-03
1.908912131209e-03
3.906913380700e-03
4.768461740833e-03
4.211749337744e-03
4.409990212532e-03
3.799088406628e-03
3.779576649772e-03
4.656002678626e-03
5.796018025515e-03
5.750974963327e-03
5.882013254586e-03
5.211254075075e-03
4.771650843760e-03
3.866608816361e-03
4.140970315163e-03
3.438974933722e-03
3.303340296455e-03
3.181680302338e-03
3.085186834318e-03
2.829834518631e-03
4.432489689449e-03
4.021397793881e-03
4.217722169449e-03
3.341461549787e-03
2.737027260613e-03
5.152372939051e-03
5.035369681437e-03
4.778294671962e-03
4.917428704148e-03
5.167012334313e-03
5.050565403691e-03
4.795745429522e-03
4.929418857156e-03
4.668419815856e-03
4.805864584515e-03
5.058823087727e-03
4.939281816885e-03
4.682797093272e-03
4.818002280012e-03
4.556116505805e-03
4.690388347301e-03
4.950293242362e-03
1.565030814763e-03
2.926686893911e-03
2.854755664817e-03
2.891197733424e-03
3.092514519054e-03
3.276732472821e-03
3.305456961863e-03
4.827759947093e-03
5.081593595751e-03
1.010406573077e-02
9.764164521110e-03
5.265451275810e-03
4.339993450944e-03
4.108622684801e-03
4.731829053834e-03
3.996858350229e-03
4.903384669028e-03
4.244600122071e-03
3.501419066084e-03
5.510757634012e-03
3.212764131031e-03
5.184623155998e-03
2.285735175407e-03
1.964820094476e-03
4.525309975275e-03
3.125890945380e-03
4.998266546054e-03
5.743692143946e-03
5.549193255971e-03
6.449187372463e-03
6.325110745959e-03
6.549187225397e-03
6.540361191904e-03
3.994407982590e-03
5.774259711283e-03
4.554222149543e-03
5.572767199717e-03
3.028107761873e-03
1.410044382037e-03
2.660796390280e-03
1.642549087339e-03
2.019881341573e-03
3.251492266973e-03
6.566315820911e-03
6.189819307871e-03
4.087536494217e-03
3.815006466310e-03
3.355890100763e-03
4.499456307731e-03
4.528967056282e-03
4.393751219098e-03
1.312116992429e-03
2.904934706402e-03
5.293699107592e-03
7.979013713650e-03
8.435482909583e-03
4.775745440030e-03
3.449724053330e-03
4.951662652887e-03
5.199111337285e-03
3.458302994746e-03
3.498814191065e-03
3.130518419885e-03
2.488302007795e-03
5.318301846902e-03
3.163957303903e-03
3.390545386613e-03
3.131639576739e-03
1.207478557841e-02
1.236914579165e-02
3.061527549215e-03
2.613926403272e-03
1.775348210848e-03
3.182170282600e-03
5.403046930315e-03
5.688417394290e-03
6.610008783479e-03
5.006779140063e-03
2.266631384107e-03
3.561658471126e-03
4.464949176004e-03
6.566038626892e-03
6.045074438808e-03
7.036609364302e-03
7.164501557695e-03
8.918142782540e-03
7.714372705208e-03
4.234794425954e-03
6.174195339649e-03
4.079034698662e-03
3.940552543924e-03
3.815579800974e-03
3.588995439569e-03
3.652718017694e-03
7.278485854643e-03
6.634972787349e-03
3.435465997500e-03
3.826462726601e-03
3.261674752205e-03
5.297684949133e-03
5.419151855637e-03
4.414057560104e-03
4.275097580202e-03
1.647451024479e-03
1.675335589964e-03
3.606226530559e-03
3.650868628108e-03
5.391618930748e-03
5.502109459713e-03
5.372609048885e-03
3.042784865756e-03
6.896516604403e-03
4.190880549167e-03
4.350527619601e-03
6.371738241307e-03
1.421863687494e-03
4.706685273957e-03
4.622442071867e-03
4.666940698600e-03
3.611741309333e-03
4.231968355152e-03
7.143234909909e-03
7.259404649965e-03
3.794674999482e-03
3.991477775142e-03
3.706500821150e-03
4.181786981774e-03
2.775184890772e-03
2.746720812631e-03
5.989954700832e-03
5.259722837676e-03
6.564384413232e-03
5.963473029860e-03
3.214087506422e-03
2.980079376080e-03
2.118397082965e-03
4.715477576493e-03
5.518846616804e-03
3.806825895703e-03
3.891070071718e-03
3.945571653991e-03
3.380329663171e-03
5.756073168575e-03
5.440739059520e-03
9.242583192776e-03
8.447946310412e-03
1.042739228584e-02
4.897871729883e-03
3.686454329978e-03
4.752961752010e-03
3.733356492718e-03
5.550112872523e-03
6.791830868706e-03
5.365268359268e-03
3.131565490805e-03
5.310812901883e-03
5.569340241546e-03
4.247537830652e-03
4.096212274891e-03
4.376310335557e-03
7.326549293485e-03
8.664324486705e-03
5.307204263575e-03
2.597022010623e-03
2.677083653507e-03
2.361042937549e-03
2.540509620077e-03
3.590752619766e-03
3.561980325172e-03
4.719804589627e-03
4.862462070621e-03
4.867060190911e-03
3.344959079968e-03
3.356408972907e-03
3.577539481806e-03
5.518361070662e-03
5.664420780412e-03
2.775557848670e-03
3.302333806783e-03
2.770175388850e-03
5.630497223971e-03
4.810959073252e-03
4.708255592783e-03
1.439105625328e-03
1.764440458605e-03
1.418409099733e-02
1.480643186978e-02
5.598196232206e-03
5.483018715217e-03
5.749000539319e-03
1.876891076347e-03
5.697464082364e-03
3.089938655743e-03
2.948011857503e-03
3.506171246091e-03
4.190029404253e-03
3.821737023018e-03
4.570915190183e-03
2.345956559769e-03
5.472024458089e-03
4.113394862956e-03
1.786130173301e-03
3.974022231900e-03
4.142147385999e-03
3.808811843470e-03
1.572893259037e-03
4.035840610883e-03
4.228908811524e-03
1.236550392111e-03
5.727754258707e-03
1.214096492890e-03
1.289503683769e-03
4.190343840825e-03
4.208177283858e-03
4.453725484854e-03
4.415818037714e-03
4.236650972425e-03
4.433395698974e-03
3.960847876624e-03
4.646929544122e-03
4.602784854752e-03
4.854292446809e-03
5.561380042278e-03
6.946195157960e-03
6.850146475103e-03
7.988921565673e-03
6.485603250067e-03
5.898008913488e-03
4.571502884887e-03
4.361148070354e-03
3.986570332512e-03
3.958169901241e-03
4.225562744729e-03
4.178369498049e-03
4.446132963819e-03
4.399693690965e-03
4.649688467266e-03
4.957270054305e-03
1.042846602337e-02
5.071788087782e-03
3.021157057858e-03
2.798459795770e-03
4.375435618684e-03
5.964287443857e-03
3.920773109245e-03
6.541784534391e-03
5.870937815019e-03
6.473451826662e-03
7.609988743484e-03
5.901676711157e-03
3.628386676105e-03
5.385992663850e-03
5.449002683106e-03
3.227393261860e-03
1.834790987996e-03
1.204965812717e-02
4.690114924130e-03
1.389603929967e-02
4.492676789655e-03
6.877363331230e-03
3.817317219374e-03
1.041920920375e-02
6.223979947092e-03
4.354187352303e-03
4.105094102283e-03
3.949385469094e-03
7.265318442666e-03
5.084320390361e-03
6.463497388099e-03
4.199509327046e-03
5.239720060421e-03
5.342311723545e-03
5.568723597319e-03
5.436074129988e-03
5.195127512815e-03
5.275945829576e-03
5.522846822361e-03
5.362101483362e-03
5.654790167380e-03
5.418798555266e-03
5.183358795616e-03
5.228039527145e-03
5.478404891695e-03
5.010149217662e-03
3.409671939166e-03
5.673516326791e-03
4.367392984152e-03
1.389805116967e-02
3.960367887197e-03
6.027506601757e-03
5.985574308895e-03
7.595948538996e-03
6.113717812861e-03
4.084459886071e-03
6.290800201173e-03
5.436626143667e-03
5.099701809653e-03
4.951938385870e-03
4.853275658762e-03
5.939990338712e-03
4.510478805277e-03
4.277254296985e-03
5.458818397673e-03
6.737404718214e-03
7.425624776012e-03
5.114013007791e-03
3.400229055209e-03
2.962073461874e-03
2.996052123861e-03
2.800395451512e-03
3.451405133462e-03
6.356244550426e-03
6.517522076412e-03
3.603578400735e-03
4.321404604138e-03
3.950246470636e-03
5.048471256290e-03
5.425369533995e-03
5.849911381004e-03
5.724219780698e-03
5.967534801860e-03
5.147796445433e-03
3.797514540817e-03
3.350528560522e-03
3.122899075397e-03
2.914035417259e-03
3.410817836896e-03
3.523130452731e-03
3.651707279838e-03
3.259955241283e-03
6.630884821326e-03
3.999951674760e-03
3.603795009442e-03
3.455226154399e-03
3.780489020667e-03
4.041242521720e-03
4.062468817485e-03
4.304541709678e-03
4.049230948442e-03
3.629888373411e-03
3.687995609435e-03
3.556481715217e-03
3.766062809759e-03
3.630392003192e-03
3.425625743275e-03
3.859887208052e-03
3.712754465682e-03
3.753295504860e-03
3.280607988840e-03
4.287700951856e-03
2.174769883867e-03
3.592294826825e-03
5.771886225159e-03
4.392861321741e-03
6.250360541655e-03
5.822364958885e-03
1.088953928467e-03
1.647650571366e-03
9.338022575270e-04
1.437501694826e-03
2.293180220520e-03
2.042650195457e-03
4.943618431220e-03
3.031335723016e-03
2.945155604069e-03
2.688743593994e-03
2.875725181900e-03
3.142994710358e-03
2.523324995075e-03
2.457510238830e-03
1.583933798607e-03
1.091504215853e-03
1.167996388537e-03
1.178270399509e-03
1.115207764120e-03
1.020308395367e-03
1.023722505257e-03
1.458662211190e-03
1.022810477527e-03
1.150437881650e-03
1.387455782275e-03
4.987755442147e-03
5.116267723268e-03
4.373987183766e-03
3.768398534654e-03
1.211349747589e-03
5.801414033109e-03
5.849888523554e-03
5.842497446698e-03
4.794097655679e-03
4.842845514710e-03
5.795857190058e-03
2.602280117318e-03
5.684608119029e-03
5.426766964233e-03
9.191746197600e-03
2.687040126660e-03
4.231633519162e-03
3.882386612765e-03
4.556515040672e-03
3.998756045771e-03
4.293387971553e-03
3.108161576447e-03
1.476396372318e-03
4.539066931421e-03
4.423048734156e-03
5.069081138623e-03
2.521812465648e-03
3.361884437641e-03
1.678049688451e-03
5.766473864307e-03
3.958676471230e-03
3.095099427902e-03
3.226856089265e-03
2.810734054587e-03
2.838974017310e-03
5.166420407667e-03
3.484344474013e-03
3.705978157807e-03
5.196157012198e-03
1.119049403284e-03
3.521375643282e-03
3.706077620756e-03
4.658000838490e-03
2.982248755391e-03
3.305261692782e-03
5.177694957922e-03
5.612493104205e-03
4.353675085413e-03
1.412398444283e-03
4.259060800004e-03
3.493526301891e-03
5.132413977016e-03
2.272689532028e-03
5.032367245270e-03
3.849369706618e-03
7.394735342022e-03
5.528278511332e-03
6.905613248687e-03
2.744541399835e-03
3.372444081371e-03
2.360079505855e-03
4.023485214536e-03
7.461414677582e-03
5.414327495685e-03
5.334759914007e-03
7.078138603127e-03
5.279237453520e-03
2.694004874170e-03
3.144565621471e-03
3.850201562972e-03
4.476766259849e-03
4.689567346140e-03
5.389101814229e-03
4.106706360112e-03
3.777078850776e-03
4.946265528839e-03
5.545569153500e-03
4.636084587167e-03
5.894951689775e-03
5.639613987774e-03
3.653258613691e-03
4.095996415080e-03
5.509310551577e-03
3.587895264238e-03
1.621598754105e-03
1.117520277652e-02
6.413832367753e-03
7.233544486117e-03
3.699806971782e-03
5.746687556824e-03
4.270512341207e-03
3.185530096324e-03
1.818007156478e-02
4.834344285035e-03
4.434127154033e-03
4.109827748763e-03
2.807580191908e-03
3.490851329931e-03
5.378478931603e-03
5.792631280000e-03
4.591157827228e-03
3.060052230045e-03
7.267330589415e-03
3.698867822439e-03
4.783484472751e-03
2.979871458465e-03
6.024607051783e-03
3.652359126402e-03
7.583278393831e-03
3.766024258519e-03
4.498755303490e-03
5.932012927013e-03
2.820337207268e-03
4.710985723029e-03
3.694491554536e-03
5.630069381611e-03
1.093264381705e-03
5.287521727347e-03
3.741140459926e-03
6.326553502129e-03
3.104464011737e-03
3.560247869823e-03
3.806063609485e-03
6.408715241954e-03
3.889607978100e-03
7.132947620186e-03
4.809565923032e-03
3.991122142150e-03
4.723987613053e-03
1.259629837161e-03
6.893596298347e-03
4.710605835282e-03
2.989317964917e-03
2.964088030257e-03
5.041460301469e-03
6.937373753792e-03
3.252439556108e-03
5.126667846633e-03
6.748357884895e-03
7.339920981679e-03
3.265286944670e-03
6.165028998153e-03
2.546121946090e-03
2.280710634061e-03
5.419705784156e-03
5.062831393647e-03
1.406065415602e-03
4.958406181659e-03
2.170695742773e-03
4.674657984232e-03
4.804054627191e-03
4.490482294088e-03
3.617023135788e-03
1.933023820066e-03
3.048044152037e-03
6.784642983186e-03
2.620450107336e-03
2.685714993396e-03
5.648300186419e-03
2.938653539912e-03
5.823614188445e-03
4.963188208301e-03
3.932121989893e-03
7.455957398602e-03
4.725824521216e-04
6.396227070001e-03
2.801591293186e-03
4.851561224056e-03
3.937231005468e-03
2.729494295403e-03
5.760806590796e-03
4.833930472443e-03
4.862248751244e-03
2.697019259117e-03
5.691363728291e-03
5.428982077181e-03
3.693412385959e-03
1.398910886002e-03
4.241990484630e-03
7.944557472576e-03
9.687805727610e-03
1.184976539368e-02
2.413239708947e-03
2.697664909012e-03
1.053856723774e-02
2.968065816378e-03
3.975655703172e-03
4.898320503264e-03
1.297454485445e-02
5.723862858496e-03
4.165808374764e-03
4.729446121624e-03
4.353708043327e-03
1.685398823448e-02
4.240145590125e-03
6.173587738993e-03
5.065638731077e-03
4.865415511008e-03
3.950525462167e-03
5.659251463191e-03
5.874429737340e-03
5.648629554702e-03
5.043134290997e-03
4.301884988432e-03
4.260018092810e-03
4.871863521837e-03
5.738997361023e-03
1.882957797296e-02
4.855264715639e-03
2.941329875457e-03
3.707598520748e-03
4.155649936064e-03
5.267857448111e-03
4.831609780295e-03
1.163752246123e-03
1.077083856090e-03
3.817677234666e-03
6.484816372257e-03
5.744471061394e-03
5.920327576545e-03
1.647312764378e-02
3.663422898644e-03
1.067531605950e-03
4.951255767582e-03
5.712619248511e-03
3.070814862917e-03
4.155014849621e-03
2.186156026243e-03
5.483052058434e-03
1.851321241038e-03
5.716697476405e-03
3.395600169627e-03
5.810236312995e-03
3.850312672382e-03
2.648215401936e-03
4.519441667628e-03
2.886316048965e-03
3.693193394849e-03
5.779881690989e-03
2.632058365002e-03
1.328840242382e-03
5.834411797515e-03
1.847336165607e-03
3.663155821034e-03
4.974463401012e-03
1.289977845976e-03
4.139350774126e-03
6.094998355784e-03
3.542221846802e-03
5.289169342972e-03
3.063748398770e-03
7.405074772813e-04
4.627165150353e-03
3.869413082916e-03
5.798941796910e-03
4.453871606854e-03
1.357964324078e-02
5.796247842993e-03
3.248665564557e-03
6.259704617256e-03
2.779078866348e-03
1.786038765983e-02
3.751244995352e-03
1.076421882551e-03
4.615840899057e-03
3.326084611542e-03

SCALARS node_materi_plasti_phimob float
LOOKUP_TABLE default
-4.269348229729e+01
2.728287276804e+00
2.167848756077e+01
1.954178787424e+01
-4.729919006116e-01
2.391198496978e+01
2.429869091018e+01
2.304525451252e+01
1.919532000577e+01
1.848294383713e+01
1.892820391541e+01
1.932897023895e+01
1.968431135500e+01
2.001674424982e+01
2.033785762989e+01
2.057521290084e+01
2.075899984747e+01
2.096905023548e+01
2.116266352853e+01
2.135024902832e+01
2.146998885741e+01
2.156210639559e+01
2.163039960390e+01
1.962548894042e+01
1.964773605325e+01
1.971811691774e+01
1.981532666709e+01
1.990023678442e+01
2.009416775402e+01
2.030538224721e+01
2.062180547993e+01
2.096446330138e+01
2.139769258708e+01
2.179301911684e+01
2.246338593653e+01
2.298298071763e+01
2.363231371755e+01
2.390075889678e+01
2.415905916241e+01
2.428216559011e+01
2.429869091018e+01
2.429869091018e+01
2.429869091018e+01
2.429869091018e+01
2.426575774513e+01
2.411471559896e+01
2.389757291458e+01
2.372353093622e+01
2.353684759558e+01
2.332060028051e+01
2.313243244840e+01
2.297753682605e+01
2.279618351824e+01
2.271757428294e+01
2.262026786018e+01
2.248724207389e+01
2.238336753346e+01
2.232186472059e+01
2.223214394439e+01
2.219846576199e+01
2.212295090949e+01
2.206663000333e+01
2.198924016946e+01
2.190262016339e+01
2.183478255661e+01
2.178796146046e+01
2.179434036985e+01
2.172610001862e+01
2.172585973121e+01
2.170841986542e+01
2.169547259729e+01
2.169399118191e+01
-4.101011135627e-01
-2.216599532403e-01
4.915602853398e+00
9.540684176298e+00
1.262592973488e+01
1.478724855233e+01
1.645071108905e+01
1.778557440733e+01
1.887515329697e+01
2.318898778725e+01
2.429869091018e+01
2.429869091018e+01
2.429869091018e+01
2.429869091018e+01
2.429869091018e+01
2.429869091018e+01
2.429869091018e+01
2.429869091018e+01
2.429869091018e+01
2.429869091018e+01
4.093348639408e+00
3.025145500690e+00
3.130044186571e+00
4.292076265292e+00
2.543505999968e+00
4.359307427474e+00
5.431400905466e+00
5.377050694025e+00
5.108544011461e+00
6.679993216656e+00
8.820688953467e+00
1.196308833952e+01
1.760515531130e+01
2.282779709811e+01
1.833737100035e+01
1.330858862185e+01
1.253712277813e+01
1.573138789815e+01
2.104875346363e+01
5.441453237189e+00
1.011090534579e+01
5.859502147093e+00
-4.358277085434e+01
-4.580998135715e+01
-4.301103797089e+01
-4.037423963654e+01
-4.171327801695e+01
-4.527320331528e+01
-4.484796652997e+01
-4.346289417004e+01
-4.245677313612e+01
-4.531272555775e+01
-4.971645357984e+01
2.429869091018e+01
2.429869091018e+01
2.429869091018e+01
2.429869091018e+01
2.429869091018e+01
2.429869091018e+01
2.429869091018e+01
2.429869091018e+01
2.429869091018e+01
2.429869091018e+01
2.429869091018e+01
2.303780391338e+01
-1.490513254745e+01
2.238451255823e+01
2.266132587050e+01
2.429869091018e+01
2.020169457909e+01
2.346112974893e+01
2.429869091018e+01
2.405271453491e+01
2.429869091018e+01
2.198691342525e+01
-1.368844124122e+01
2.429869091018e+01
2.262991000810e+01
1.876026390905e+01
2.085495289204e+01
2.412928957854e+01
2.259225936270e+01
1.931900641732e+01
1.961335497645e+01
2.085483227909e+01
1.673080446310e+01
5.286442744430e+00
2.809674045213e+00
1.123800860451e+01
2.176365284121e+01
2.105421515810e+01
-1.212173041301e+01
2.143149027151e+01
1.483546126416e+00
2.363652712718e+01
2.334318984407e+01
2.366275014151e+01
2.422316983709e+01
2.333086970973e+01
2.285857654829e+01
2.744082724601e+00
9.317904600599e+00
2.237740397707e+01
1.564848386078e+01
-1.089639596602e+01
1.954264960456e+01
1.933525584238e+01
2.429869091018e+01
2.429869091018e+01
2.429869091018e+01
2.429869091018e+01
2.429869091018e+01
2.345805095116e+00
2.169961749577e+01
-1.530847331609e+01
1.830884409830e+01
2.000084425858e+01
1.798379534666e+01
1.535004835385e+01
1.649111988945e+01
1.544880470663e+01
1.689195670619e+01
1.746327266459e+01
1.800945295215e+01
1.846881023584e+01
1.641061846427e+01
1.904953171519e+01
1.966258588182e+01
2.032807280933e+01
2.098706044200e+01
2.038963357835e+01
2.162126661687e+01
2.094935812952e+01
2.209512810563e+01
2.267494761000e+01
2.311530214670e+01
2.248725226856e+01
2.345108644169e+01
2.289081704329e+01
2.372855728733e+01
2.330583357236e+01
2.395785083962e+01
2.422224347834e+01
2.428591861459e+01
2.421630677918e+01
2.429869091018e+01
2.429869091018e+01
2.429869091018e+01
2.429869091018e+01
2.429869091018e+01
2.429869091018e+01
2.429869091018e+01
2.429869091018e+01
2.429869091018e+01
2.429869091018e+01
2.429869091018e+01
2.429869091018e+01
2.429869091018e+01
2.429869091018e+01
2.429869091018e+01
2.429869091018e+01
2.429869091018e+01
2.429869091018e+01
2.429869091018e+01
2.429869091018e+01
2.429869091018e+01
2.429869091018e+01
2.429869091018e+01
2.429869091018e+01
2.429869091018e+01
2.429869091018e+01
2.412974616207e+01
2.420972749301e+01
2.333815597492e+01
2.324494333582e+01
2.207893871132e+01
2.200474437349e+01
2.091278173623e+01
2.119438961062e+01
2.047830916729e+01
2.085877743071e+01
2.021162236783e+01
2.025535363625e+01
1.993079355361e+01
2.007558367207e+01
2.429869091018e+01
1.969183176025e+01
1.955223783960e+01
1.990916698010e+01
2.031465118054e+01
1.946854180363e+01
1.976476882136e+01
1.929342561262e+01
2.429869091018e+01
2.357115528888e+01
1.965092181962e+01
1.915892453062e+01
1.871045794090e+01
1.854500880998e+01
1.490708213611e+01
1.604489130236e+01
1.432547733259e+01
1.586784871129e+01
1.416936323849e+01
1.905676492900e+01
1.979252888909e+01
1.724894253838e+01
2.201120648899e+01
2.417443368101e+01
2.429869091018e+01
2.007111864216e+01
1.999112862704e+01
2.026019164103e+01
2.169665906683e+01
2.139897334456e+01
2.240282187503e+01
2.213658753408e+01
2.308197966490e+01
2.281387478685e+01
2.203149244152e+01
2.261263367592e+01
2.192174127121e+01
2.340203511793e+01
2.381320100772e+01
2.243055787649e+01
2.184513391124e+01
2.224969731678e+01
2.178558990710e+01
2.132358147495e+01
2.130774317155e+01
2.107829401739e+01
2.429869091018e+01
2.429869091018e+01
2.429869091018e+01
2.429869091018e+01
2.429869091018e+01
2.429869091018e+01
2.429869091018e+01
2.429869091018e+01
2.163644603800e+01
2.429869091018e+01
2.429869091018e+01
2.429869091018e+01
2.429869091018e+01
2.429869091018e+01
2.429869091018e+01
2.429869091018e+01
2.429869091018e+01
2.429869091018e+01
2.429869091018e+01
2.429869091018e+01
2.429869091018e+01
2.429869091018e+01
2.429869091018e+01
2.429869091018e+01
2.429869091018e+01
1.793598909608e+01
2.172931955385e+01
2.392102157590e+01
2.422238176544e+01
2.429869091018e+01
1.854913450854e+01
2.429869091018e+01
2.429869091018e+01
1.589137972067e+01
1.432590919789e+01
2.421155911002e+01
1.897482383705e+01
2.284432933190e+01
2.429869091018e+01
2.130402272927e+01
2.165873543849e+01
2.141202132932e+01
2.429869091018e+01
2.429869091018e+01
2.429869091018e+01
2.429869091018e+01
2.429869091018e+01
2.429869091018e+01
2.429869091018e+01
2.402686418077e+01
2.408700421855e+01
2.237504941320e+01
2.261434931595e+01
2.053874754553e+01
1.998204068360e+01
1.894385100273e+01
2.190477014137e+01
2.429869091018e+01
1.977235974382e+01
2.393239026702e+01
2.429869091018e+01
1.612440459418e+01
1.475675835904e+01
1.252598757159e+01
1.325701371193e+01
1.537784318226e+01
1.413428367501e+01
1.164219593188e+01
1.281937918294e+01
9.882316771121e+00
1.142374118769e+01
1.396314849312e+01
1.284857698321e+01
9.917879927889e+00
1.164291988024e+01
8.198134484509e+00
1.026529282500e+01
1.310761181191e+01
1.993565938912e+01
2.429869091018e+01
2.429869091018e+01
2.004412064131e+01
2.018532975057e+01
2.044719186826e+01
2.035783167623e+01
1.196701260278e+01
1.436670917704e+01
2.429869091018e+01
2.429869091018e+01
1.734594678427e+01
2.132495726816e+01
2.109400837492e+01
2.428347361816e+01
2.415901720701e+01
2.423376110598e+01
2.429869091018e+01
2.400540642866e+01
2.423373019334e+01
2.413623306304e+01
1.503334491535e+01
1.821535206766e+01
1.719497360271e+01
2.160737489411e+01
2.429869091018e+01
2.429869091018e+01
2.429869091018e+01
2.429869091018e+01
2.429869091018e+01
2.429869091018e+01
2.429869091018e+01
2.429869091018e+01
2.429869091018e+01
2.429869091018e+01
8.547576866386e+00
2.429869091018e+01
2.102089388085e+01
2.007883388212e+01
1.782492592226e+01
1.946475436322e+01
1.888824561657e+01
2.416222881475e+01
2.429869091018e+01
2.429869091018e+01
2.429869091018e+01
2.409831153739e+01
2.429869091018e+01
1.225450879887e+01
8.404821929540e+00
6.063447859473e+00
2.304134927852e+01
1.912704998664e+01
1.607443414744e+01
2.429869091018e+01
2.429869091018e+01
2.429869091018e+01
2.429869091018e+01
1.334353684823e+01
1.537965890453e+01
2.057468595538e+01
2.054540292282e+01
2.429869091018e+01
1.735576397137e+01
1.616743765275e+01
2.429869091018e+01
2.429869091018e+01
2.009831269052e+01
2.429869091018e+01
2.429869091018e+01
2.301092686175e+01
1.844178124524e+01
1.894893909496e+01
2.423009504492e+01
1.705526467796e+01
2.429869091018e+01
2.429869091018e+01
2.429869091018e+01
1.545398270460e+01
2.378995178649e+01
2.137800596696e+01
2.429869091018e+01
2.429869091018e+01
2.429869091018e+01
2.429869091018e+01
2.429869091018e+01
2.429869091018e+01
1.812275243079e+01
2.428429651688e+01
2.057263578914e+01
2.005013251418e+01
2.123597898377e+01
2.342334113010e+01
2.369335980134e+01
2.429869091018e+01
2.429869091018e+01
2.064917248232e+01
2.109276889539e+01
2.283226942889e+01
1.591230134177e+01
1.675854478468e+01
5.759749854138e+00
3.464432142264e+00
1.715979516769e+01
1.604027807855e+01
2.096899061438e+01
2.352237600314e+01
1.759897444336e+01
1.858993905182e+01
1.840983309427e+01
2.429869091018e+01
2.429869091018e+01
2.429869091018e+01
2.429869091018e+01
2.429869091018e+01
1.852685155194e+01
2.312688943460e+01
2.153872740130e+01
2.165874356701e+01
2.429869091018e+01
2.064032271695e+01
2.429869091018e+01
2.429869091018e+01
2.245263228074e+01
2.310285983458e+01
2.214955393024e+01
2.362842824084e+01
2.175706156268e+01
2.012313170156e+01
2.429869091018e+01
2.429869091018e+01
2.429869091018e+01
2.429869091018e+01
2.429869091018e+01
2.429869091018e+01
1.879358412157e+01
2.429869091018e+01
1.761904402579e+01
2.103752755690e+01
2.329229054865e+01
2.311029025517e+01
2.429869091018e+01
2.429869091018e+01
1.698600045986e+01
2.429869091018e+01
2.429869091018e+01
2.429869091018e+01
2.159766934106e+01
1.280897018273e+00
2.158587115905e+01
2.269484037926e+01
1.762076556989e+01
2.429869091018e+01
2.423001740286e+01
2.429869091018e+01
1.619448773866e+01
1.775094399550e+01
5.119406600026e+00
3.268709816394e+00
7.417266438396e+00
2.429869091018e+01
2.429869091018e+01
1.599361352386e+01
1.973940082423e+01
1.966846169550e+01
1.740745703994e+01
1.841409442186e+01
2.077864329926e+01
2.080799091964e+01
2.394923412493e+01
2.363198256841e+01
2.429869091018e+01
2.429869091018e+01
2.429869091018e+01
2.429869091018e+01
1.748245613973e+01
1.828155227745e+01
2.334637383143e+01
2.414963407325e+01
2.054807666197e+01
1.843563578503e+01
2.168844388576e+01
2.178410077631e+01
1.715984402337e+01
1.466948838557e+01
2.429869091018e+01
2.429869091018e+01
1.946894536320e+01
1.933790545758e+01
1.985784699792e+01
1.901831618204e+01
2.429869091018e+01
2.411926581833e+01
2.428475853240e+01
2.364530419658e+01
2.429869091018e+01
2.429869091018e+01
2.429869091018e+01
2.429869091018e+01
1.731858429684e+01
2.009420657070e+00
2.331445925646e+01
6.621659889275e-01
1.463654784667e+00
3.329188068365e-01
2.145476877993e+01
5.095005634480e+00
7.472987210193e+00
1.618772137000e+01
1.893277160035e+01
2.089012695789e+01
2.179396076802e+01
2.286177048922e+01
2.274383027834e+01
2.249211085801e+01
2.241773287052e+01
2.254238962944e+01
2.226477812051e+01
1.768160029991e+00
2.211851825873e+01
2.202912098722e+01
2.194257808827e+01
2.429869091018e+01
2.429869091018e+01
2.429869091018e+01
2.429869091018e+01
2.429869091018e+01
2.429869091018e+01
2.140772983584e+01
2.119135866502e+01
-1.497722389213e-01
-7.418865894490e-01
2.164431926706e+00
1.658150856033e+00
6.773216455459e+00
6.113630750683e+00
1.010562386235e+01
2.425349056068e+01
2.429869091018e+01
2.383803049548e+01
2.419458250455e+01
2.429869091018e+01
2.410554162720e+01
2.429869091018e+01
2.329350308438e+01
2.429869091018e+01
2.008678203055e+01
2.374383934871e+01
2.429869091018e+01
2.425229790789e+01
2.295105433726e+01
2.429869091018e+01
2.429869091018e+01
2.429869091018e+01
1.347721970995e+01
2.429869091018e+01
1.038123988971e+01
2.429869091018e+01
2.126171876847e+01
2.429869091018e+01
2.310946906667e+01
2.429869091018e+01
2.427135627580e+01
1.911339742607e+01
1.749197106157e+01
1.904560338599e+01
2.429869091018e+01
2.429869091018e+01
2.429869091018e+01
2.147008425229e+01
1.834198663385e+01
1.928307849025e+01
2.040051909125e+01
2.035074525450e+01
1.931975313540e+01
2.044721822731e+01
2.169323761428e+01
2.182260691397e+01
2.309613079894e+01
2.300782163248e+01
2.209546047568e+01
2.314908002446e+01
2.387018946958e+01
2.239492041015e+01
2.382468996535e+01
2.428134574730e+01
2.429869091018e+01
2.429869091018e+01
2.257152661090e+01
2.397303062084e+01
2.295983260757e+01
2.429869091018e+01
2.428222432766e+01
1.885680588183e+01
2.429869091018e+01
2.416521932052e+01
1.838073682946e+01
1.850954230235e+01
1.740376271494e+01
2.193561669399e+01
9.822134646433e+00
2.350942401881e+01
2.429869091018e+01
2.429869091018e+01
2.429869091018e+01
2.073593597409e+01
2.315636049817e+01
2.389934261865e+01
2.383165713047e+01
2.424711041483e+01
2.297812062902e+01
2.429869091018e+01
2.429869091018e+01
2.408152390523e+01
2.429869091018e+01
2.429869091018e+01
2.429869091018e+01
2.429869091018e+01
2.429869091018e+01
2.429869091018e+01
2.429869091018e+01
2.404112171456e+01
2.283181665682e+01
2.346884868215e+01
2.388375864872e+01
2.343297139576e+01
2.055549020160e+01
2.069021915951e+01
2.096001609186e+01
2.042431898367e+01
2.429869091018e+01
2.274266144893e+01
2.429869091018e+01
2.045331409818e+01
1.247890314814e+01
1.064618567482e+01
1.327896383587e+01
1.281492644772e+01
8.391646855103e+00
2.073839749040e+01
2.073830073461e+01
2.055611819923e+01
2.076220748718e+01
2.058801526353e+01
2.037231754621e+01
2.079704299689e+01
2.063685932236e+01
7.240207148625e+00
2.147344780609e+01
2.353141078932e+01
1.615531936478e+01
2.237988996413e+01
2.429869091018e+01
2.370709092553e+01
2.429869091018e+01
2.429869091018e+01
8.041625295097e+00
9.299237262871e+00
-1.181244089232e+01
1.101848512996e+01
1.471094838802e+01
1.648508685999e+01
2.172450548878e+01
1.987523887122e+01
1.979208675232e+01
1.945832058964e+01
1.977744480327e+01
2.004461919835e+01
1.917530808331e+01
1.913325863600e+01
-1.196537424130e+01
2.060279386703e+01
1.829619617191e+01
2.429869091018e+01
2.429869091018e+01
2.101774286378e+01
2.060860975169e+01
-1.244997391998e+01
2.014348755967e+01
2.374248113534e+01
-1.373777228703e+01
1.380389890947e+01
1.491147616548e+01
2.251001045617e+01
3.969340901073e+00
-1.238912531291e+01
1.904649116099e+01
1.952829570126e+01
1.941801977106e+01
2.152096972793e+01
2.157385406733e+01
1.902192501255e+01
1.893132930845e+01
2.163084279085e+01
1.685782655462e+01
2.429869091018e+01
1.913786189529e+01
2.112036342627e+01
2.135562210651e+01
2.176879258070e+01
2.108144733924e+01
2.207224357690e+01
2.384307967403e+01
2.230786521798e+01
7.931152725092e+00
6.088013774691e+00
1.410598604695e+01
1.957526788816e+01
2.034362234714e+01
1.813639917461e+01
2.429869091018e+01
2.132940457437e+01
2.232733483778e+01
2.018522655257e+01
1.921988222997e+01
1.950980875696e+01
2.428931973358e+01
2.059857553821e+01
2.310955152466e+01
1.521229292618e+01
-6.756722871564e+00
2.352347768720e+01
2.138828098629e+01
1.055709008908e+01
2.429869091018e+01
2.180608666600e+01
1.503501603309e+01
1.882345348245e+01
9.872699502916e+00
1.980943188220e+01
3.810708327410e+00
2.383378158658e+01
1.722146987691e+01
1.933176041548e+01
2.429869091018e+01
2.371988581936e+01
2.429869091018e+01
1.749810122952e+01
2.429869091018e+01
2.429869091018e+01
2.429869091018e+01
1.933584506596e+01
2.285590469430e+01
2.429869091018e+01
1.678053078247e+01
2.429869091018e+01
2.429869091018e+01
1.653204650629e+01
2.408572630544e+01
2.429869091018e+01
2.199475621682e+01
2.414627817692e+01
2.215011666766e+01
2.429869091018e+01
2.099357084510e+01
2.318809789035e+01
2.429869091018e+01
2.418322474762e+01
1.213394272322e+01
2.429869091018e+01
1.818752123745e+01
2.365002543150e+01
2.257470258190e+01
1.797200219517e+01
2.082572462267e+01
2.064975357259e+01
2.429869091018e+01
2.429869091018e+01
2.429869091018e+01
2.110966159036e+01
2.088929321023e+01
2.231683671932e+01
2.429869091018e+01
2.429869091018e+01
2.271642722719e+01
2.208918432753e+01
2.429869091018e+01
2.429869091018e+01
2.040541861743e+01
2.429025724523e+01
2.429869091018e+01
2.191737848445e+01
2.429869091018e+01
2.429869091018e+01
9.692013255150e-01
2.186469524631e+01
2.429869091018e+01
2.429869091018e+01
2.429869091018e+01
2.429869091018e+01
2.113742102115e+01
2.396278594361e+01
2.139158309491e+01
2.429869091018e+01
1.767507618821e+01
2.096486094448e+01
2.429869091018e+01
2.422083143142e+01
2.426158710549e+01
2.092071141593e+01
2.429869091018e+01
2.429869091018e+01
2.420159584189e+01
2.091247018629e+01
2.429869091018e+01
2.092554484469e+01
2.429869091018e+01
1.870625188258e+01
2.094867243555e+01
2.419111122354e+01
2.296277633074e+01
2.429869091018e+01
2.150576948946e+01
1.991872675950e+01
2.421089843905e+01
1.947537287491e+01
2.429869091018e+01
2.429869091018e+01
2.429869091018e+01
2.429869091018e+01
2.429869091018e+01
2.429869091018e+01
2.429869091018e+01
1.860645797858e+01
1.774031924831e+01
2.429869091018e+01
2.420340459154e+01
2.392316083285e+01
2.116272400423e+01
1.584101270526e+01
2.429869091018e+01
2.429869091018e+01
7.764161924097e+00
2.429869091018e+01
1.842107282102e+01
2.417483794019e+01
2.429869091018e+01
2.341955715187e+01
2.203107885531e+01
1.819665921296e+01
2.070539574720e+01
1.914009191355e+01
2.165885555172e+01
-1.008479535061e+00
2.429869091018e+01
1.988425835416e+01
2.429869091018e+01
1.959451916371e+01
2.273959570966e+01
-9.759368877731e-01
1.907767581638e+01
2.395330489361e+01
2.385910027044e+01
1.261155218622e+01
2.429869091018e+01
2.429869091018e+01
1.704815333186e+01
2.215063346224e+00
1.168729314079e+01
2.106102347497e+01
2.429869091018e+01
2.429869091018e+01
2.429869091018e+01
1.921144509889e+01
1.750382505336e+01
2.429869091018e+01
2.399482298461e+01
3.606901641252e+00
2.429869091018e+01
2.429869091018e+01
1.922440246466e+01
2.417894461771e+01
2.212835526398e+01
2.429869091018e+01
2.429869091018e+01
1.069904821536e+01
2.429869091018e+01
1.434347026892e+01
2.189028104887e+01
6.238407991256e+00
1.832020330739e+01
2.429869091018e+01
1.833046431031e+01
2.336157473964e+01
3.695945538710e+00
1.404300383412e+01
2.164098939981e+01
2.281043910898e+01
2.429869091018e+01
1.241874488573e+01
1.995274086822e+01
2.429869091018e+01
2.291980382438e+01
2.394311306545e+01
2.177079158587e+01
2.429869091018e+01
1.838582029645e+01
2.334198079538e+01
2.429869091018e+01
2.429869091018e+01
2.020433082799e+01
2.429869091018e+01
4.429694145806e+00
1.828996456254e+01
2.180024196686e+01
1.861933267916e+01
1.997172254099e+01
1.913691452464e+01
1.875172569670e+01
2.429869091018e+01
1.227777446960e+01
1.857103022975e+01
2.354813895521e+01
2.069945831135e+01
2.314970105530e+01
2.384520855094e+01
2.417432195827e+01
2.419786094998e+01
1.778084512974e+00
2.178959740696e+01
1.946011679136e+01
2.263018851656e+01
1.924972536040e+01
-2.212962845141e+01
1.579523066622e+00
2.166286261805e+01
2.429869091018e+01
7.845701099100e-01
2.429393388732e+01
2.046345422676e+01
1.622696434899e+01
2.104207632031e+01
1.993698152883e+01
9.864572339425e+00
2.408005019914e+01
1.986804039837e+01
6.787526408968e+00
2.429869091018e+01
2.427524696637e+01
2.016985442004e+01
2.429869091018e+01
2.424468644452e+01
2.429869091018e+01
2.067290378437e+01
1.776807522007e+01
2.225629268581e+01
2.024464117031e+01

SCALARS node_materi_stress_average_a_sig float
LOOKUP_TABLE default
-2.947118781851e+00
-1.667345699918e+01
-2.434693638071e+02
-1.214832767492e+02
-8.125295166220e+00
-1.855529513307e+01
-2.986216413463e+01
-4.294689780944e+01
-5.803582562479e+01
-7.338483124430e+01
-8.804472196771e+01
-1.021185725172e+02
-1.156290292327e+02
-1.287547673145e+02
-1.416448816500e+02
-1.538826063124e+02
-1.647686045550e+02
-1.763202803476e+02
-1.879632428742e+02
-1.996438352293e+02
-2.120339498829e+02
-2.245082379297e+02
-2.364506443620e+02
-1.221172508156e+02
-1.215230416171e+02
-1.218988063291e+02
-1.221846417504e+02
-1.224527143953e+02
-1.234704650880e+02
-1.249111406091e+02
-1.259076486530e+02
-1.281738304487e+02
-1.300577745254e+02
-1.324494105867e+02
-1.358308861805e+02
-1.402347098556e+02
-1.440059768659e+02
-1.489375721523e+02
-1.537050905325e+02
-1.597935994505e+02
-1.668836793403e+02
-1.731027592285e+02
-1.774024099018e+02
-1.809560721311e+02
-1.839537604090e+02
-1.873562606101e+02
-1.908529406477e+02
-1.942902645804e+02
-1.980174056826e+02
-2.020163960448e+02
-2.056970292975e+02
-2.092410279018e+02
-2.134923538919e+02
-2.171060712099e+02
-2.203707657461e+02
-2.244578840064e+02
-2.285097738398e+02
-2.326813968647e+02
-2.368204661748e+02
-2.401647376804e+02
-2.427396404096e+02
-2.441951082766e+02
-2.448606661990e+02
-2.453836925120e+02
-2.458475504857e+02
-2.458671116618e+02
-2.438626288403e+02
-2.449027781844e+02
-2.440351091463e+02
-2.440992421022e+02
-2.443262798753e+02
-2.441326832399e+02
-2.368236981535e+01
-3.552003347308e+01
-4.730663337958e+01
-5.872354356227e+01
-7.030616339477e+01
-8.196731230126e+01
-9.321210130659e+01
-1.041212019435e+02
-1.156798200442e+02
-5.324005210857e+01
-3.675552237008e+01
-2.026192691864e+01
-1.960054529129e+01
-1.997100917828e+01
-1.888532537931e+01
-1.903647737918e+01
-1.926736323980e+01
-1.979628273434e+01
-2.093487284015e+01
-2.417770265838e+01
-1.575780514342e+01
-1.614739004302e+01
-1.621453446780e+01
-1.595350306581e+01
-1.771688910954e+01
-1.653130660035e+01
-1.652075746343e+01
-1.679357641408e+01
-1.765713097187e+01
-1.791541167934e+01
-1.859189971086e+01
-2.010969300807e+01
-2.292458104641e+01
-2.841554933742e+01
-6.842997759329e+01
-8.103511294001e+01
-8.192322551838e+01
-7.248910297297e+01
-4.358087723548e+01
-1.270634570839e+01
-3.149450372572e+00
-2.262563395970e+00
-2.182148189529e+00
-1.912816043116e+00
-2.223443066518e+00
-2.601554725297e+00
-2.441877658625e+00
-2.158060322742e+00
-2.187138732566e+00
-2.359770493046e+00
-2.534304129644e+00
-2.495127111081e+00
-2.320961438919e+00
-2.150469725979e+01
-1.958533573171e+01
-1.967295819383e+01
-1.999827121597e+01
-1.983841349067e+01
-1.935716697440e+01
-1.933970277259e+01
-2.025617134984e+01
-2.210242190266e+01
-2.963865275925e+01
-2.823097936711e+01
-2.200461560313e+02
-5.918948811735e+00
-5.571858231246e+01
-2.371161260304e+02
-2.693440412100e+01
-1.357774635814e+02
-2.043322204870e+02
-2.729829971201e+01
-1.905186176094e+02
-3.006120579927e+01
-2.405445544334e+02
-5.944689630781e+00
-1.771865452802e+02
-4.345112446412e+01
-8.155055186678e+01
-1.687630884944e+02
-1.652530793021e+02
-1.430683325812e+02
-1.196153680489e+02
-1.228573263271e+02
-1.314384298964e+02
-3.242591060013e+01
-2.424705810031e+01
-2.362896435913e+01
-6.462722165906e+01
-2.392728096717e+02
-6.694853296065e+01
-6.391884369070e+00
-2.054000953786e+02
-2.138516150843e+01
-3.634009608446e+01
-1.515065377419e+02
-1.981988378294e+02
-1.838499179584e+02
-2.108154762726e+02
-2.285774603011e+02
-1.656344608878e+01
-2.618378736030e+01
-2.374380299848e+02
-8.731310100721e+01
-6.448989762859e+00
-1.090491348294e+02
-1.199559909264e+02
-2.890695520949e+01
-2.737466725674e+01
-2.825419228665e+01
-3.367879236248e+01
-3.354890832368e+01
-4.241553145784e+01
-2.408268011630e+02
-5.979132149418e+00
-1.091550658127e+02
-4.447074622065e+01
-5.654723991656e+01
-5.667786764068e+01
-6.895796224739e+01
-7.061109384788e+01
-8.107473885944e+01
-7.957823984377e+01
-9.128658384391e+01
-8.963023210059e+01
-8.352105349084e+01
-1.012043887697e+02
-9.943054442029e+01
-1.109807611552e+02
-1.091331905416e+02
-9.788157056237e+01
-1.074760032075e+02
-9.656171325149e+01
-1.060701473262e+02
-1.170633133815e+02
-1.155623030407e+02
-1.047143498832e+02
-1.140896896388e+02
-1.033262813139e+02
-1.124257908589e+02
-1.018694642872e+02
-1.107239814410e+02
-1.206562157081e+02
-1.178524092676e+02
-1.083793172141e+02
-1.148902494809e+02
-1.059357018679e+02
-1.123855344784e+02
-1.205996171322e+02
-1.179635612377e+02
-1.099923742914e+02
-1.151866834304e+02
-1.073152955255e+02
-1.119576695802e+02
-1.039949750025e+02
-1.084622545793e+02
-1.170121072528e+02
-1.137540745780e+02
-1.051459141119e+02
-1.106009214641e+02
-1.206329239364e+02
-1.177853578640e+02
-1.286211103260e+02
-1.260114175020e+02
-1.154785366489e+02
-1.238558231484e+02
-1.341700546478e+02
-1.321963208718e+02
-1.220986336540e+02
-1.302891313780e+02
-1.405089000025e+02
-1.377463614602e+02
-1.273077822476e+02
-1.323464799121e+02
-1.433557967220e+02
-1.364767384895e+02
-1.249824313670e+02
-1.291561020637e+02
-1.408456947585e+02
-1.335513907573e+02
-1.451559476172e+02
-1.214054023865e+02
-1.259026759976e+02
-1.132787348305e+02
-1.179862935603e+02
-1.259580519360e+02
-1.049454687948e+02
-1.003384678531e+02
-1.098805092416e+02
-1.227729171763e+02
-9.643504091201e+01
-1.016010312072e+02
-8.778129404995e+01
-9.897235769328e+01
-1.267178019171e+02
-9.315684633516e+01
-7.901817259735e+01
-7.356787062955e+01
-6.452012711232e+01
-7.381103687484e+01
-8.618611606142e+01
-7.617907630042e+01
-8.908877088848e+01
-7.990402005096e+01
-7.013339353407e+01
-1.130389317581e+02
-9.849229128226e+01
-9.393364191270e+01
-9.855447837052e+01
-1.314389313313e+02
-1.067627547574e+02
-9.852965048604e+01
-1.120243142864e+02
-1.520083727523e+02
-1.561042336760e+02
-1.624929258986e+02
-1.665948619562e+02
-1.727814387206e+02
-1.771720169309e+02
-1.709576628118e+02
-1.818891786893e+02
-1.756004211163e+02
-1.836546249993e+02
-1.792695522300e+02
-1.867660648470e+02
-1.803321133726e+02
-1.917539959550e+02
-1.851540541130e+02
-1.739996981116e+02
-1.787682335602e+02
-1.675934174028e+02
-1.392900067794e+02
-1.418759929339e+02
-1.495603756219e+02
-1.517036868351e+02
-1.593777017533e+02
-1.615733879334e+02
-1.693924244196e+02
-1.671463423018e+02
-1.206597195142e+02
-1.021757357683e+02
-9.784276635529e+01
-9.527867858153e+01
-9.139796862233e+01
-8.962211410354e+01
-8.529987548030e+01
-8.481992265916e+01
-8.789433591871e+01
-8.404520633428e+01
-8.531075765599e+01
-8.154547095609e+01
-8.111104817112e+01
-1.269088115883e+02
-1.538841544117e+02
-1.640295478267e+02
-1.562693465527e+02
-5.905661275632e+01
-1.900729105447e+02
-1.900915811149e+02
-1.845060423928e+02
-1.772864439589e+02
-5.555807041596e+01
-7.940079359755e+01
-7.959263117850e+01
-9.237099169666e+01
-8.366964692965e+01
-1.951652794027e+02
-6.127260457124e+01
-1.934280986644e+02
-8.116772416088e+01
-1.835684939435e+02
-1.950603202287e+02
-1.646806088526e+02
-1.667597903384e+02
-1.590187362042e+02
-8.732370410105e+01
-8.295118055841e+01
-7.497055377447e+01
-7.857659007439e+01
-8.865093682491e+01
-8.496694106728e+01
-7.384529517331e+01
-7.727498646325e+01
-8.899023657350e+01
-7.894008655140e+01
-6.648870537981e+01
-6.832854561379e+01
-2.019853280067e+02
-7.870665998449e+01
-8.701908499412e+01
-2.009104001210e+02
-1.797623772443e+02
-9.591494915514e+01
-8.771943674728e+01
-7.523072917136e+01
-7.985787116231e+01
-9.198724064120e+01
-8.456205833681e+01
-7.231345137406e+01
-7.741665065735e+01
-6.511809552581e+01
-7.057011078790e+01
-8.255512160077e+01
-7.605117620907e+01
-6.403654306735e+01
-6.976269692587e+01
-5.773565081203e+01
-6.364991205693e+01
-7.550971233765e+01
-4.687739776463e+01
-1.748970655692e+02
-1.852515005914e+02
-1.044599395800e+02
-1.174196233814e+02
-1.249709945355e+02
-1.303766388173e+02
-6.953328012839e+01
-8.123926021624e+01
-7.164235729021e+01
-7.086530942990e+01
-1.044019073160e+02
-1.884443873624e+02
-1.772114715845e+02
-9.662905902562e+01
-8.854215279122e+01
-8.727677542459e+01
-7.811698071707e+01
-7.984918460074e+01
-7.708440033719e+01
-1.741747082484e+02
-8.779764370808e+01
-6.834044563968e+01
-5.395760016709e+01
-2.001749028613e+02
-1.649999215868e+02
-1.300643340548e+02
-1.356703004279e+02
-1.389515838100e+02
-1.443049670700e+02
-1.477002371659e+02
-1.539988156915e+02
-1.505798191862e+02
-1.697922763648e+02
-1.609751724980e+02
-5.758299632904e+01
-1.463644355313e+02
-9.084628375168e+01
-4.100759483081e+01
-5.379124140533e+01
-5.226078756393e+01
-6.722995402694e+01
-2.057769995957e+02
-1.572437227460e+02
-1.509925435790e+02
-6.891647996749e+01
-6.968518190601e+01
-1.776223607652e+02
-6.684446296376e+01
-5.970255469948e+01
-5.242426689996e+01
-3.685516635729e+01
-5.247370834843e+01
-9.641138528687e+01
-7.994075323038e+01
-7.224797126133e+01
-7.831338887110e+01
-7.672857086353e+01
-7.533135085760e+01
-8.686487100888e+01
-1.375598139052e+02
-1.427139026274e+02
-1.986045758117e+02
-5.697152491539e+01
-9.281138503724e+01
-1.725199638377e+02
-1.628289577686e+02
-1.227921522809e+02
-6.182096544500e+01
-6.397352178022e+01
-1.002575822763e+02
-7.085102861841e+01
-5.818788075227e+01
-2.093773028990e+02
-1.036457139500e+02
-1.576317052991e+02
-1.471904791779e+02
-1.683013047773e+02
-4.212115748399e+01
-2.122243452549e+02
-1.934454107757e+02
-1.600801019833e+02
-1.544090169466e+02
-8.177533909264e+01
-7.394187254439e+01
-6.357101838621e+01
-6.505272702852e+01
-7.833976201478e+01
-8.369315057296e+01
-8.568490489370e+01
-7.605202668535e+01
-7.468044296559e+01
-8.061903374478e+01
-7.053739412129e+01
-9.357526012609e+01
-1.341848049276e+02
-1.324398220062e+02
-1.628631652053e+02
-1.583774864856e+02
-9.413510154694e+01
-9.924192664923e+01
-5.178221360976e+01
-4.553781196820e+01
-4.449901610470e+01
-3.957631530794e+01
-1.493569193997e+02
-2.062790868121e+02
-1.074812729043e+02
-1.158326679793e+02
-1.130614398618e+02
-2.013638313274e+02
-9.966508516035e+01
-1.472961279227e+02
-7.305464320202e+01
-1.289465640874e+02
-3.034071974957e+01
-1.283179394780e+02
-2.055126303490e+02
-2.123768245883e+02
-1.805199011864e+02
-5.790416984165e+01
-1.343446403623e+02
-1.316844989572e+02
-6.471138019445e+01
-6.260318847493e+01
-7.334744870066e+01
-6.063806175898e+01
-1.023041433121e+02
-9.318334384857e+01
-1.681027300570e+02
-1.712258505549e+02
-1.631052427034e+02
-1.578819730013e+02
-1.885364836229e+02
-1.854261004177e+02
-7.281822265944e+01
-5.802622538379e+01
-1.078359279241e+02
-6.674181875469e+01
-2.179936032033e+02
-2.118577051112e+02
-7.161632569782e+01
-6.306229779381e+01
-9.847315575906e+01
-5.299460188642e+01
-5.370281185694e+01
-5.204708645296e+01
-2.302685825096e+02
-2.090213906668e+01
-2.178117900273e+02
-8.159795154314e+01
-1.044278979858e+02
-1.412986871876e+02
-9.481978181405e+01
-1.907467989027e+02
-9.207670602062e+01
-1.043848049995e+02
-4.661331715282e+01
-3.920724171738e+01
-5.387093552638e+01
-7.569451186689e+01
-6.968787393411e+01
-9.301701592796e+01
-9.040006111537e+01
-9.754302412681e+01
-6.012837098815e+01
-7.391482699127e+01
-1.446237980002e+02
-1.397413400031e+02
-1.378018910058e+02
-1.396142462689e+02
-1.329110559816e+02
-1.702280297115e+02
-1.605526611730e+02
-1.527330840091e+02
-1.051043600092e+02
-1.114818179085e+02
-1.110346623702e+02
-1.067955721809e+02
-1.051435605011e+02
-1.149321994419e+02
-2.244456406754e+02
-2.191666623945e+02
-2.555942673608e+01
-3.460523751219e+01
-5.110341809696e+01
-5.411214507445e+01
-1.240790466660e+02
-1.222151483295e+02
-1.278010357463e+02
-6.266725895459e+01
-1.543961306790e+02
-2.119139295832e+02
-2.033099107071e+02
-2.219391512574e+02
-1.727169546496e+02
-1.834241449004e+02
-1.789421140133e+02
-7.451067353996e+01
-1.000847265614e+02
-3.872768201531e+01
-6.875509837172e+01
-3.267321801948e+01
-3.938980233754e+01
-2.611555572386e+01
-4.813329671968e+01
-3.828474685003e+01
-4.843423941903e+01
-1.803588509772e+01
-1.183188544328e+02
-1.793141481091e+01
-2.243823561768e+01
-2.239025670245e+02
-2.172664987620e+02
-2.291735237014e+02
-2.222934949571e+02
-2.105221671184e+02
-2.160159175778e+02
-3.209480429996e+01
-2.295656885571e+02
-2.216050624538e+02
-2.350844535465e+02
-4.685729771477e+01
-6.573389276235e+01
-5.426937251525e+01
-4.025912635098e+01
-1.682489090186e+02
-1.604845251362e+02
-1.989554276068e+02
-1.872361591383e+02
-3.275295252788e+01
-3.185473513210e+01
-4.281966456477e+01
-4.108373961356e+01
-5.199539379844e+01
-5.019328689538e+01
-6.125495208242e+01
-1.820651064641e+02
-4.043125246345e+01
-5.147097935490e+01
-1.966879682864e+02
-1.923900170107e+02
-5.897958742846e+01
-4.396896691918e+01
-2.254252349818e+02
-9.029612616074e+01
-1.268567885798e+02
-5.357717350803e+01
-6.274990322121e+01
-9.258711022547e+01
-7.186998150292e+01
-6.678441169925e+01
-5.647048753103e+01
-1.801106049298e+02
-3.013764971393e+01
-5.156346971127e+01
-6.298301818887e+01
-3.962188549622e+01
-1.932339570836e+02
-9.600254057031e+01
-9.129986161678e+01
-6.251757268014e+01
-7.588724438032e+01
-8.821827029735e+01
-6.797260995418e+01
-6.819597713634e+01
-1.007701311121e+02
-5.716291776975e+01
-4.153208309534e+01
-9.524830304586e+01
-1.104801912490e+02
-1.197069271978e+02
-1.309566937408e+02
-1.292268268697e+02
-1.175932473769e+02
-1.272273192730e+02
-1.385719266091e+02
-1.373661982699e+02
-1.507262695407e+02
-1.471822315213e+02
-1.349002613615e+02
-1.442103413051e+02
-1.559887128420e+02
-1.324562668053e+02
-2.004180243030e+02
-1.015481820529e+02
-7.500641486305e+01
-6.046590958555e+01
-9.251567515081e+01
-1.592385425818e+02
-1.476592709179e+02
-8.652371569302e+01
-1.801558324296e+02
-7.754753869084e+01
-8.060263852773e+01
-1.870917027668e+02
-1.079889287125e+02
-1.055405019059e+02
-9.582647387978e+01
-1.390827386601e+02
-6.204359306788e+01
-2.014770216446e+02
-1.441744555077e+02
-1.366564546706e+02
-1.264250865531e+02
-1.250800778388e+02
-2.160667177277e+02
-2.074286310169e+02
-2.110930022351e+02
-1.986676798627e+02
-2.240724109994e+02
-1.708493457806e+02
-1.743136518016e+02
-9.600420148851e+01
-9.940816297600e+01
-1.100066206194e+02
-1.019904451385e+02
-9.210990840771e+01
-9.507145303683e+01
-1.040049104603e+02
-9.055221590416e+01
-1.505761077544e+02
-2.322557474132e+02
-1.686969777795e+02
-1.641232873524e+02
-1.539706384228e+02
-1.275447581393e+02
-1.350521017013e+02
-1.468375628213e+02
-1.198408367386e+02
-1.407289124935e+02
-2.352493741084e+02
-1.551586623131e+02
-1.304731151278e+02
-2.881270671883e+01
-4.407793426048e+01
-5.010511970585e+01
-6.091882403852e+01
-4.216424995656e+01
-1.495841489982e+02
-1.545489072739e+02
-1.478675870284e+02
-1.595236122965e+02
-1.526991430716e+02
-1.416975418978e+02
-1.642928873937e+02
-1.567479185804e+02
-2.502544273304e+01
-3.339020509347e+01
-3.954896197602e+01
-2.853708945189e+01
-4.767989056652e+01
-5.378858291189e+01
-6.208614990684e+01
-6.228514574869e+01
-5.090942728350e+01
-9.405135788704e+00
-2.219816055363e+01
-7.428166578432e+00
-1.847466983821e+01
-3.645716083689e+01
-4.952069453852e+01
-2.374140343481e+02
-1.221692507884e+02
-1.158730009493e+02
-1.030224950208e+02
-1.101634310116e+02
-1.273771184801e+02
-9.552281359828e+01
-9.042195189673e+01
-6.489574287241e+00
-1.454138015687e+01
-1.371571588367e+01
-2.444810220514e+01
-2.449039687888e+01
-1.502898050953e+01
-1.490852827375e+01
-6.215538316414e+00
-1.488590807454e+01
-2.511525538800e+01
-5.938611291880e+00
-7.629508677896e+01
-8.252409360065e+01
-2.381876799641e+02
-2.474000032258e+01
-6.196980051567e+00
-1.171085534351e+02
-1.220771870426e+02
-1.208797778036e+02
-2.179724712153e+02
-2.241740199981e+02
-1.163823817001e+02
-8.250401345423e+01
-1.406058217307e+02
-9.836764557615e+01
-7.259007791434e+01
-8.377687250307e+01
-1.821446026496e+02
-1.693140027180e+02
-2.070978988007e+02
-1.723883988965e+02
-1.968356147114e+02
-2.147324629215e+02
-4.392673734893e+01
-5.823555616617e+01
-5.164171894143e+01
-8.155447203746e+01
-8.457194047337e+01
-1.361510892676e+02
-4.983755118199e+01
-1.763051847903e+02
-8.435476689877e+01
-1.477270668015e+02
-1.148549793029e+02
-9.146568934061e+01
-8.101533457159e+01
-1.037970845433e+02
-1.379449138380e+02
-1.884216703802e+02
-8.708706757574e+01
-7.415726437538e+00
-1.948843097778e+02
-1.602708684565e+02
-6.723098194592e+01
-1.718777427166e+02
-6.604015374872e+01
-8.935865652484e+01
-1.180979747565e+02
-5.698191975088e+01
-3.529899368054e+01
-4.546327477769e+01
-2.170206267686e+02
-1.013067683467e+02
-7.598207460027e+01
-1.366370920033e+02
-1.005446535966e+02
-3.738120918774e+01
-1.038708565244e+02
-1.231751734115e+02
-1.877121357457e+02
-1.573037670653e+02
-8.200885100829e+01
-2.053197142514e+02
-1.235739355270e+02
-1.009594394960e+02
-1.421417573915e+02
-1.079247851001e+02
-9.957865526948e+01
-1.482032075955e+02
-1.746269354923e+02
-8.297031872512e+01
-1.230202983407e+02
-1.187358735691e+02
-1.235960678839e+02
-1.758884134456e+02
-2.000379328172e+02
-7.662810910699e+01
-8.587886564737e+01
-7.075026656316e+01
-1.641622351023e+02
-1.121074840754e+02
-9.028541686320e+01
-1.985538430072e+02
-1.106783287321e+02
-1.423285614611e+02
-5.172693178539e+01
-6.620011560052e+01
-9.296717392915e+01
-1.202122002123e+02
-1.536814327448e+02
-1.348426775713e+02
-2.037452020210e+02
-1.879059244819e+02
-2.963253532554e+01
-5.456473416250e+01
-2.089947871795e+02
-1.447010168757e+02
-1.824241286320e+02
-1.454312939863e+02
-1.791816619823e+02
-4.514022388103e+01
-2.143947309891e+02
-1.826705811599e+02
-8.795194472787e+01
-2.141681474977e+01
-2.283383039661e+02
-1.933073105172e+02
-1.322056598356e+02
-1.423695498899e+02
-3.136565253722e+01
-1.582026538286e+02
-1.250259120181e+02
-1.351836506165e+02
-1.955342008592e+02
-9.331861866937e+01
-1.514966618887e+02
-1.486906550707e+02
-2.473689180560e+01
-4.884105980830e+01
-1.562924712759e+02
-9.742007077176e+01
-1.506408502028e+02
-1.914160874814e+02
-1.611345314840e+02
-1.058512929685e+02
-1.659936803616e+02
-2.915063552277e+01
-1.032634792484e+02
-1.708538053121e+02
-1.355893978365e+02
-2.646105198029e+01
-1.373571738631e+02
-2.114457546006e+02
-1.088968270009e+02
-1.582108889852e+02
-1.153177823103e+02
-2.770140353730e+01
-1.678507191507e+02
-1.453773742553e+02
-1.440117265529e+02
-1.291470825391e+02
-1.775258893935e+02
-4.349570015496e+01
-7.770685775723e+01
-6.377368545104e+01
-1.136750348770e+02
-1.482582120919e+02
-3.488403181505e+01
-1.228622572250e+02
-4.548059207114e+01
-1.120556760306e+02
-1.620077804523e+02
-5.384624054274e+01
-1.201942643077e+02
-6.691074351961e+01
-1.171365178086e+02
-1.390145860512e+02
-1.216128279338e+02
-1.136315882372e+02
-1.095103067171e+02
-1.171964919813e+02
-1.182808620268e+02
-2.378961480528e+02
-3.043087999758e+01
-2.493930241134e+01
-7.175998086112e+01
-4.502994112669e+01
-9.638169549781e+01
-1.301830955520e+02
-3.093045532088e+01
-8.723831808196e+01
-1.595414458895e+02
-1.946224117790e+02
-7.071954206897e+01
-1.897710643703e+02
-1.513819042216e+02
-9.747368085697e+01
-2.109252369607e+01
-1.628449257521e+01
-1.816382247175e+02
-2.517072553829e+01
-4.055280391932e+01
-3.986477695086e+01
-8.669851839226e+01
-3.956728309779e+01
-2.744140633071e+01
-2.032352074449e+02
-3.470308040871e+01
-1.649261665978e+02
-2.737160012426e+01
-1.214585013938e+02
-1.881987916468e+02
-2.402524232286e+02
-1.759452555975e+02
-3.962572066973e+01
-5.406851596949e+01
-1.730624954343e+02
-8.025237222498e+01
-2.409988682231e+02
-3.580491694526e+01
-1.096445212358e+02
-6.898023460457e+01
-1.091483947703e+02
-1.417865830478e+02
-4.615770782224e+01
-6.231535915166e+01
-2.300352854157e+02
-1.480008796270e+02
-4.325309142097e+01
-7.051172472165e+01
-1.105749700190e+02
-6.068764530795e+01
-2.285136701908e+02
-1.525411842817e+02
-2.294885515536e+02
-2.422978565376e+01
-1.411747296613e+01
-2.273428090131e+02
-1.678393405362e+02
-6.878311434435e+01
-1.277950108099e+02
-5.176144301071e+01
-2.033608371451e+01
-1.421814931067e+01
-2.403918527659e+02
-1.146231236073e+02
-1.218010234843e+02
-3.966458206929e+01
-7.694570441323e+01
-1.730426872736e+02
-2.856591903941e+01
-1.133939262447e+02
-2.216587370691e+02
-1.339715977188e+02
-2.113008212524e+02
-7.243150490828e+01
-1.880755359666e+02
-2.043060960712e+02
-2.066803135183e+01
-1.408054570959e+02
-9.789282240963e+01
-3.501275516497e+01
-1.191334581904e+02
-5.227153734961e+00
-1.972149828654e+01
-2.404572126960e+02
-3.279436930784e+01
-3.919206308282e+01
-1.655723690030e+02
-1.485051410274e+02
-9.110180501227e+01
-5.389942394899e+01
-6.888133057029e+01
-6.001790632764e+01
-1.934113712420e+02
-1.271080587933e+02
-5.247535701438e+01
-5.722175877788e+01
-1.616281211065e+02
-1.315578289946e+02
-1.677274798409e+02
-1.977237561881e+02
-4.249246619212e+01
-1.589221351918e+02
-1.323455987268e+01
-2.322908890589e+02
-1.368259812848e+02

SCALARS node_materi_stress_size_dev_sd_sig float
LOOKUP_TABLE default
6.788089048880e+00
1.633340393324e+01
1.842054145929e+02
9.054456615374e+01
1.572392951431e+01
2.714429177776e+01
3.501680084917e+01
4.354169985539e+01
4.978384821168e+01
5.593953397588e+01
6.331927351372e+01
7.151153823437e+01
8.036814715188e+01
8.984212654110e+01
1.001354601126e+02
1.102708667186e+02
1.196454873338e+02
1.304086505065e+02
1.415045513124e+02
1.516304760684e+02
1.609079248596e+02
1.701770910796e+02
1.789718766665e+02
9.145361472298e+01
9.117532304964e+01
9.165225033337e+01
9.220732303901e+01
9.247419769332e+01
9.385796664632e+01
9.530940459693e+01
9.721372208016e+01
9.992881017935e+01
1.028114258533e+02
1.056509367839e+02
1.101481982486e+02
1.149858681032e+02
1.199244599489e+02
1.245381528030e+02
1.291022116256e+02
1.342171810224e+02
1.397338987851e+02
1.445275297453e+02
1.478406006302e+02
1.505730660841e+02
1.527406175932e+02
1.547056407667e+02
1.564383433284e+02
1.582846282103e+02
1.602621432840e+02
1.622833708214e+02
1.641588998507e+02
1.660565958818e+02
1.683247123711e+02
1.705929943560e+02
1.724914593443e+02
1.748068252071e+02
1.772215131587e+02
1.799217262001e+02
1.824453514454e+02
1.846746204426e+02
1.861263476140e+02
1.868687308096e+02
1.869273222305e+02
1.868314799852e+02
1.867923068855e+02
1.865488280833e+02
1.851464381927e+02
1.855203794038e+02
1.849014649243e+02
1.848511081266e+02
1.849412555392e+02
1.847955229836e+02
1.353416018616e+01
1.382872909914e+01
1.969229394481e+01
2.791642480883e+01
3.754957702362e+01
4.794252341197e+01
5.898533410992e+01
7.054563330298e+01
8.280896843156e+01
4.817572280074e+01
3.965044664078e+01
2.784983498144e+01
2.869983757867e+01
2.882701865168e+01
2.769229385290e+01
2.799501035250e+01
2.896252921019e+01
2.950238048037e+01
2.941847525523e+01
3.110150788215e+01
1.672952994526e+01
1.638821402626e+01
1.644750295389e+01
1.686050871071e+01
1.640570731348e+01
1.704234211218e+01
1.748782924104e+01
1.753226904616e+01
1.770099992325e+01
1.849507489973e+01
1.970997601219e+01
2.179397593894e+01
2.611241339727e+01
3.251177061299e+01
3.789982937336e+01
3.708051762767e+01
3.363845793341e+01
3.392222615678e+01
3.688715108059e+01
1.792937436953e+01
6.926525963115e+00
6.642474653128e+00
7.315146564132e+00
7.131556157069e+00
7.371195786330e+00
7.561338902880e+00
7.425326482870e+00
6.926827645647e+00
6.996718526297e+00
7.119765331987e+00
7.159176828691e+00
6.588994958415e+00
5.810744176802e+00
2.858178916017e+01
2.833906296235e+01
2.874222437693e+01
2.865254871886e+01
2.845127814862e+01
2.866469549796e+01
2.945649108008e+01
2.932824165694e+01
2.990630346631e+01
3.464600066561e+01
3.458439877099e+01
1.742955100755e+02
1.284126125284e+01
4.644017194201e+01
1.849382315486e+02
3.365162737928e+01
9.537868460014e+01
1.646235573251e+02
3.464130194927e+01
1.568425782694e+02
3.651393153075e+01
1.838268721892e+02
1.278306827584e+01
1.476699996431e+02
4.305893036522e+01
5.993768792313e+01
1.235420056084e+02
1.378709560193e+02
1.159429233162e+02
8.754864351524e+01
9.086006001443e+01
1.018952540542e+02
2.887154410011e+01
1.754211835711e+01
1.529837925278e+01
3.262437876524e+01
1.817170657159e+02
5.099699920357e+01
1.341206864651e+01
1.560465025409e+02
1.449604234951e+01
3.924800572872e+01
1.247191891861e+02
1.609505873168e+02
1.524725998308e+02
1.688478841709e+02
1.796981098726e+02
2.078045753182e+01
2.081525851136e+01
1.836660047610e+02
5.318069732276e+01
1.325843391621e+01
7.603374622453e+01
8.805063249102e+01
3.526146485696e+01
3.420423852914e+01
3.613237286008e+01
3.847372346422e+01
3.690961553025e+01
1.676365425197e+01
1.824766444870e+02
1.264635984036e+01
7.600250245010e+01
4.027131906907e+01
4.599190669188e+01
4.115406255673e+01
5.024689879268e+01
4.736814104213e+01
5.700391645360e+01
5.887437953250e+01
6.676041107558e+01
6.792135783326e+01
5.545536106586e+01
7.666275070388e+01
7.734309879137e+01
8.672562552834e+01
8.709944396482e+01
7.804061261374e+01
8.755682584500e+01
7.866524506470e+01
8.796112076074e+01
9.711991138332e+01
9.736727849540e+01
8.834036834697e+01
9.750266210938e+01
8.881769982886e+01
9.744820028087e+01
8.915163207480e+01
9.698142335071e+01
1.047031951073e+02
1.027580467685e+02
9.563798929585e+01
1.002243114335e+02
9.343140572736e+01
9.770539356493e+01
1.039510052279e+02
1.013089529368e+02
9.539860112248e+01
9.876185437802e+01
9.321773076004e+01
9.635158593456e+01
9.124202850922e+01
9.437622827104e+01
9.971959691358e+01
9.794436297539e+01
9.259848577865e+01
9.632736900887e+01
1.025274725155e+02
1.011032885981e+02
1.078651335353e+02
1.064747403627e+02
9.990870688231e+01
1.053353905807e+02
1.119831184768e+02
1.109801355091e+02
1.043728436508e+02
1.100696997559e+02
1.172912981303e+02
1.152878936563e+02
1.080742846531e+02
1.094615986914e+02
1.169968339168e+02
1.090002344552e+02
1.008510525848e+02
1.009070168999e+02
1.098376441910e+02
1.020248433408e+02
1.115551643781e+02
9.284558717869e+01
9.438295728021e+01
8.504759647085e+01
8.708061705473e+01
1.074444359809e+02
7.776605773549e+01
7.595112395065e+01
8.028595209077e+01
8.980585931114e+01
7.109819323162e+01
7.404355058608e+01
6.512104641870e+01
8.756759414337e+01
1.067499263965e+02
6.835379517036e+01
5.978222865926e+01
5.639810889069e+01
5.155261178650e+01
4.597319767307e+01
5.457343820255e+01
4.442051035254e+01
5.464131756335e+01
4.480968122140e+01
5.504574075632e+01
8.653012271674e+01
6.508853080588e+01
8.013001874219e+01
8.812453359031e+01
1.095305889290e+02
7.725576729775e+01
7.174116624883e+01
8.054243031453e+01
1.193435449261e+02
1.215927745376e+02
1.294678554728e+02
1.318831714343e+02
1.395891156533e+02
1.419435771284e+02
1.345132870739e+02
1.445123306402e+02
1.372793784724e+02
1.489714398719e+02
1.472093515265e+02
1.472505757694e+02
1.402505060387e+02
1.500514374626e+02
1.433505781183e+02
1.329637728885e+02
1.362656747632e+02
1.258302196709e+02
1.150229217464e+02
1.171866490528e+02
1.232056091321e+02
1.257148760636e+02
1.321503441318e+02
1.347143591197e+02
1.411388643947e+02
1.387712717509e+02
9.689735440042e+01
9.084213121417e+01
8.778760438605e+01
8.621405427742e+01
8.350924203393e+01
8.227266650801e+01
7.926073200541e+01
7.851622284716e+01
8.073592005296e+01
7.717061762629e+01
7.841979742770e+01
7.451246351562e+01
7.517574748254e+01
1.093733961183e+02
1.284359237477e+02
1.372081159029e+02
1.310712029643e+02
4.794414726817e+01
1.465435921919e+02
1.559756102287e+02
1.529191180361e+02
1.475641061145e+02
4.730822013504e+01
7.479589689991e+01
7.499746333979e+01
5.579074236340e+01
4.640888003340e+01
1.611120787694e+02
5.080100647244e+01
1.538035518046e+02
7.385740737122e+01
1.397488924618e+02
1.497951655317e+02
1.269867486352e+02
1.396246872049e+02
1.336129263833e+02
8.030703094910e+01
7.735591910471e+01
7.121211953462e+01
7.454254145514e+01
8.179508631408e+01
7.881869861146e+01
7.103177161015e+01
7.045104230588e+01
7.870565648785e+01
6.706151748329e+01
5.701893188458e+01
5.520719215978e+01
1.558015198617e+02
7.096372438410e+01
6.972847258101e+01
1.642538026240e+02
1.496223656822e+02
5.809800572736e+01
4.927795161511e+01
3.814294066227e+01
4.157889043391e+01
5.326407357332e+01
4.594335496510e+01
3.505790502669e+01
3.960849348878e+01
2.958263606645e+01
3.417231016213e+01
4.480344789377e+01
3.942170493814e+01
2.949777662484e+01
3.460863321211e+01
2.535087041922e+01
3.017605455082e+01
4.015726486818e+01
4.388713662581e+01
1.454160986926e+02
1.538684472953e+02
7.512708858781e+01
8.345818374002e+01
8.964006255276e+01
9.281799634942e+01
3.546335795473e+01
4.605112073573e+01
6.913918079602e+01
6.843070805142e+01
6.786826657763e+01
1.434300579933e+02
1.329106923117e+02
8.635893848408e+01
8.046639102776e+01
7.920423709009e+01
7.277659945130e+01
7.402535533966e+01
7.145519330901e+01
1.440479513792e+02
5.054332654942e+01
5.295108267355e+01
4.407093349964e+01
1.531733148003e+02
1.364356647284e+02
1.115781499994e+02
1.157682277944e+02
1.182146516091e+02
1.223475835334e+02
1.249529415912e+02
1.298248017356e+02
1.271939435086e+02
1.419726742746e+02
1.351909148093e+02
2.588908663758e+01
1.223764428886e+02
7.607650530763e+01
4.023462451345e+01
4.380384323625e+01
4.688625541922e+01
5.374504658638e+01
1.690203435184e+02
1.323165124576e+02
1.274855005468e+02
6.619050303762e+01
6.690533278254e+01
1.479977977248e+02
3.548979615679e+01
2.588727280734e+01
2.150645299422e+01
3.945429722749e+01
4.592063016171e+01
5.803309729747e+01
7.492096628298e+01
6.894726824739e+01
7.015858518638e+01
6.834823316010e+01
4.092223007409e+01
5.182924171897e+01
9.906966655624e+01
1.024241103073e+02
1.641460195282e+02
4.468120587016e+01
5.739015151367e+01
1.431078591264e+02
1.342058775104e+02
8.658878362320e+01
6.148809397289e+01
6.281957941189e+01
8.665529711225e+01
5.548362755660e+01
4.963939506867e+01
1.720966636828e+02
6.586927963320e+01
1.326205408874e+02
1.245874601278e+02
1.408298739172e+02
3.403152237050e+01
1.721652254982e+02
1.472775799547e+02
1.344996310274e+02
1.301139863516e+02
7.569928283254e+01
6.953684060538e+01
6.202554217545e+01
6.274800878695e+01
6.036701253998e+01
7.644893761978e+01
7.086637861272e+01
6.327248648644e+01
6.488774882684e+01
7.408910122162e+01
6.731058962926e+01
8.467011103922e+01
1.115986238790e+02
9.601369885490e+01
1.225955206983e+02
1.272007474186e+02
5.650848016899e+01
6.265318141579e+01
2.120425555356e+01
1.795960176373e+01
3.968675535730e+01
3.550267406471e+01
1.139591299322e+02
1.664230572387e+02
7.060577159702e+01
8.075835484686e+01
7.827077662729e+01
1.662674440495e+02
8.922952122296e+01
1.210749425746e+02
6.625443213808e+01
1.102858849153e+02
3.200235334060e+01
1.066678756012e+02
1.566231125882e+02
1.620528937493e+02
1.502285345071e+02
5.086394186620e+01
1.140836897452e+02
1.113405579966e+02
5.951484655140e+01
5.957187949735e+01
6.607797192238e+01
5.959710082025e+01
8.487901401122e+01
7.515921922163e+01
1.406728146621e+02
1.430763759457e+02
1.368308429521e+02
1.327861467415e+02
1.563973841353e+02
1.540015806293e+02
5.614080050600e+01
5.874787615581e+01
7.088627389082e+01
5.823648381288e+01
1.740794999434e+02
1.686371265986e+02
6.436999813862e+01
5.954268498770e+01
6.366757388312e+01
5.383093535730e+01
5.413036971919e+01
5.342493887881e+01
1.744368650773e+02
1.446075375723e+01
1.655524496515e+02
7.364574682104e+01
6.963189994312e+01
1.193103363555e+02
8.450676151419e+01
1.580987831087e+02
5.734240158475e+01
7.043510732374e+01
1.934027250683e+01
1.660608227968e+01
2.322921784083e+01
7.027460605264e+01
6.403463434246e+01
5.657258575912e+01
6.639955872572e+01
7.007800372766e+01
4.680811053290e+01
5.697244898489e+01
1.056579869797e+02
1.026342120710e+02
1.162780755604e+02
1.166602336800e+02
1.136121772751e+02
1.408732659585e+02
1.322756910593e+02
1.256899970818e+02
6.899873640728e+01
7.679199833901e+01
9.456047108375e+01
9.378167651484e+01
8.390484890865e+01
7.928089948941e+01
1.707725862318e+02
1.674940691416e+02
2.814965437828e+01
3.127256140289e+01
5.335758452484e+01
5.509872623652e+01
9.126199822608e+01
8.936950133291e+01
9.549401954954e+01
5.175465362817e+01
1.301290760833e+02
1.735001469060e+02
1.676973542329e+02
1.787622964483e+02
1.442253349090e+02
1.524663528312e+02
1.490171763756e+02
6.704704895638e+01
6.615756499069e+01
1.551003580649e+01
6.113314232108e+01
1.411282604275e+01
1.535715709673e+01
1.400516424850e+01
4.589791098416e+01
1.854146957206e+01
2.253547975216e+01
2.294112096188e+01
8.441742503436e+01
2.478138151768e+01
2.843364800201e+01
1.763129703901e+02
1.708522455116e+02
1.782834377909e+02
1.729029236472e+02
1.649431521001e+02
1.675941478153e+02
1.504546931276e+01
1.766330969747e+02
1.704548965933e+02
1.796744935719e+02
4.983437001996e+01
6.311657658374e+01
5.457812033877e+01
4.390815904590e+01
1.407823972029e+02
1.348027792094e+02
1.514009961787e+02
1.412668300242e+02
1.353789222688e+01
1.322273487429e+01
1.682204293926e+01
1.604934299759e+01
2.249337410954e+01
2.141959366213e+01
2.946811211361e+01
1.512265036132e+02
4.438689265221e+01
5.163897327063e+01
1.621875964362e+02
1.593626797861e+02
5.947646749673e+01
4.826898914812e+01
1.796135213947e+02
8.163872875818e+01
9.560182826510e+01
4.788631398138e+01
5.811099494385e+01
8.275712853187e+01
6.696430848657e+01
6.413296527296e+01
5.658101909642e+01
1.495902766774e+02
2.742868468702e+01
5.339022368957e+01
3.038371601530e+01
4.421123609158e+01
1.463933966724e+02
8.599217713878e+01
8.129561599556e+01
6.169179480718e+01
7.055749999834e+01
6.886622544430e+01
5.260732807351e+01
5.558919322789e+01
8.949126445314e+01
5.758741935591e+01
4.525097131822e+01
7.935306212892e+01
7.670480217040e+01
8.772945508635e+01
1.001058461107e+02
9.887329453807e+01
8.702113979477e+01
9.805102442745e+01
1.098139718014e+02
1.093590424663e+02
1.232743495654e+02
1.203021492517e+02
1.084152444025e+02
1.185555483325e+02
1.298664668907e+02
1.075489337873e+02
1.633337127681e+02
8.921983524769e+01
6.682890044957e+01
5.741377244734e+01
8.089026211559e+01
1.327218223626e+02
1.205524315613e+02
7.987961760191e+01
1.498871428126e+02
6.169135669445e+01
7.474193831377e+01
1.547098382103e+02
7.591762343639e+01
7.575101489153e+01
6.498798401582e+01
1.109492735526e+02
2.875294638335e+01
1.627224665779e+02
1.196546216863e+02
1.139804967937e+02
1.061870837772e+02
9.749028772438e+01
1.719294584050e+02
1.690202406681e+02
1.714825576899e+02
1.639499116963e+02
1.769714061018e+02
1.427827157592e+02
1.454616092729e+02
8.645843575443e+01
8.919346653722e+01
9.631704904395e+01
9.089785992938e+01
8.404628837188e+01
8.605474561297e+01
9.226911666344e+01
8.275445613316e+01
1.263160721664e+02
1.822639097516e+02
1.374861752728e+02
1.347345465139e+02
1.253255823353e+02
9.289989461253e+01
9.960784300613e+01
1.095496014684e+02
8.655685195386e+01
1.196044554941e+02
1.840018303897e+02
1.275380038878e+02
9.671472996494e+01
2.396004638032e+01
2.786062290613e+01
3.486325602711e+01
3.579735727259e+01
2.355258429163e+01
1.088835025349e+02
1.123698712568e+02
1.060505915052e+02
1.160805869098e+02
1.096427047829e+02
1.004556287261e+02
1.197924858364e+02
1.128842032079e+02
1.913847966402e+01
3.608209277444e+01
4.350025197721e+01
3.049921595955e+01
4.887352669839e+01
5.452998578704e+01
6.150732484520e+01
6.171421448555e+01
4.967486914201e+01
1.186689205002e+01
2.128456970181e+01
1.334061535525e+01
2.092478534099e+01
3.099839868114e+01
4.020309551818e+01
1.801839175432e+02
8.509328335296e+01
8.099139396952e+01
7.239602235850e+01
7.761645355498e+01
8.909006849809e+01
6.760123849692e+01
6.509483901950e+01
1.341755360945e+01
2.354672482118e+01
2.248536569053e+01
3.138721542761e+01
3.143394556344e+01
2.390068337002e+01
2.365370339499e+01
1.332190203864e+01
2.345331594489e+01
3.157174763206e+01
1.299025506194e+01
4.273307248337e+01
4.858178704366e+01
1.849228019972e+02
1.643917145240e+01
1.321851644592e+01
8.458007659236e+01
8.990891408705e+01
8.874028179263e+01
1.653481657142e+02
1.699988848986e+02
8.419255943337e+01
6.199144963205e+01
1.110769632081e+02
6.290445706179e+01
6.953996683779e+01
6.567035044085e+01
1.368483549436e+02
1.298723325717e+02
1.588222470658e+02
1.292866198695e+02
1.528940174135e+02
1.742853042139e+02
4.385672558178e+01
2.499645364652e+01
2.156850469677e+01
4.511121145795e+01
6.319394454921e+01
9.658775002235e+01
4.372619494772e+01
1.469930236261e+02
7.195246049563e+01
1.176960524581e+02
8.330162990295e+01
6.854581481943e+01
6.561425539638e+01
9.127836525188e+01
1.039834538549e+02
1.512726534252e+02
5.114210870885e+01
1.435951709283e+01
1.578699902865e+02
1.241887339865e+02
3.135010069191e+01
1.434365336403e+02
6.139632711042e+01
5.097299596279e+01
8.346489731222e+01
2.793284154412e+01
3.622932767894e+01
1.804426307778e+01
1.760039263233e+02
6.597238474280e+01
5.832553356853e+01
1.133903589391e+02
8.906340644179e+01
4.083691626088e+01
6.863005933464e+01
1.046426257308e+02
1.557593087698e+02
1.297276426875e+02
6.126933228378e+01
1.626056833231e+02
1.041499442741e+02
6.335427076864e+01
1.206724525892e+02
9.480885855355e+01
6.147197609242e+01
1.226965308465e+02
1.456903378783e+02
7.288069444020e+01
1.059366368286e+02
9.691194278741e+01
1.066684077000e+02
1.304407328551e+02
1.602220492140e+02
7.061055114856e+01
7.776429800807e+01
3.600129858884e+01
1.376459043605e+02
7.634886949563e+01
8.131596972673e+01
1.563590175286e+02
7.429307310223e+01
1.066243517259e+02
4.735181205332e+01
6.362172937616e+01
8.461257856648e+01
1.020182707316e+02
1.167261364056e+02
1.044518262672e+02
1.589594976423e+02
1.559140329069e+02
3.481232907208e+01
5.183931297406e+01
1.616859764550e+02
1.193483975636e+02
1.516904765397e+02
1.032369813399e+02
1.491718183197e+02
4.910272361554e+01
1.647389928379e+02
1.517775631981e+02
8.047735143726e+01
1.432790678059e+01
1.744444745064e+02
1.600671798774e+02
1.131032449281e+02
1.181109571844e+02
3.708519063335e+01
1.196300379083e+02
1.067096450901e+02
1.064242565643e+02
1.617811294267e+02
6.560036734070e+01
1.125053288081e+02
1.250580891029e+02
3.159330551467e+01
5.072925695744e+01
1.156055995313e+02
8.773913302228e+01
1.246184917534e+02
1.581767717723e+02
1.189819362449e+02
9.350347571839e+01
1.225644655382e+02
3.629651440553e+01
7.608884031091e+01
1.263007755229e+02
1.153096124538e+02
3.207521001108e+01
1.168684495631e+02
1.606609789326e+02
8.390193941075e+01
1.306137786766e+02
8.667873642974e+01
3.549709888675e+01
1.388335546353e+02
1.231641987553e+02
1.219422633082e+02
1.086687838788e+02
1.473832377757e+02
4.734289695573e+01
5.914468063878e+01
4.968715535077e+01
9.882328568034e+01
1.250711809422e+02
3.846127272213e+01
9.714859056903e+01
3.657407774484e+01
9.774746917227e+01
1.359842309505e+02
2.407468584959e+01
1.031776330622e+02
5.312836943471e+01
1.008178978567e+02
1.166704674687e+02
1.021002272331e+02
9.311486617559e+01
7.536738105947e+01
9.227941476502e+01
8.594350858431e+01
1.801761716495e+02
1.293739984633e+01
3.260813813651e+01
5.355721569148e+01
4.759204834214e+01
7.499297966660e+01
1.069164322644e+02
1.303599696228e+01
6.666659763060e+01
1.328579122123e+02
1.591163107544e+02
3.764083421255e+01
1.573467689869e+02
1.276668421345e+02
6.366058104270e+01
1.549598992376e+01
2.067138194777e+01
1.355671051956e+02
3.225318136094e+01
4.419062916073e+01
4.420850329186e+01
6.333884069611e+01
3.622041504331e+01
3.410695995996e+01
1.662697465551e+02
1.689995383665e+01
1.382304997434e+02
3.426488783510e+01
8.791051684244e+01
1.556097565699e+02
1.843797810531e+02
1.467094224869e+02
4.423588822387e+01
2.946297434160e+01
1.444985831615e+02
4.570988089050e+01
1.836286272913e+02
2.031889932779e+01
7.627550533860e+01
6.587991946789e+01
7.607875284847e+01
1.174295203784e+02
1.844722523523e+01
4.015588510670e+01
1.744990376342e+02
1.202634515113e+02
4.535172567975e+01
3.688914450716e+01
7.841464445010e+01
5.647536228865e+01
1.800091619557e+02
1.274889221847e+02
1.747843093677e+02
3.122503098195e+01
2.155440724612e+01
1.813059088769e+02
1.404745926520e+02
6.743034927937e+01
9.708453508327e+01
4.963062148358e+01
1.679801002240e+01
2.235096886927e+01
1.827061375137e+02
8.041625376349e+01
8.528772676565e+01
3.538890850719e+01
5.808863626749e+01
1.444820009715e+02
2.576778313113e+01
7.953694902858e+01
1.780826560431e+02
1.034288622279e+02
1.683936354056e+02
6.470596156119e+01
1.555039315716e+02
1.680520184181e+02
1.509864462265e+01
1.117000538826e+02
6.973588144009e+01
3.795589300259e+01
8.718703481489e+01
1.091479257651e+01
1.496724138781e+01
1.820010658059e+02
3.727896480376e+01
1.519376580282e+01
1.386900504411e+02
1.056828050969e+02
5.707950135391e+01
5.131689017071e+01
4.752950241798e+01
2.868573993941e+01
1.591648011520e+02
9.499703694169e+01
2.247870248493e+01
5.632919959505e+01
1.356012507151e+02
9.249505617429e+01
1.403931686888e+02
1.632247224239e+02
4.305693878920e+01
1.146246120335e+02
2.126186489326e+01
1.793260039806e+02
9.634531398814e+01

SCALARS node_materi_strain_total_average_a_ept float
LOOKUP_TABLE default
6.594617657414e-04
4.252478845038e-03
1.945376833153e-03
5.759197675403e-03
5.988247531186e-04
5.865388082591e-04
5.360561300682e-04
5.746187861977e-04
5.861829383290e-04
5.864642985537e-04
6.027354550712e-04
6.324009236346e-04
6.789901108195e-04
7.401078078202e-04
8.170339991599e-04
9.065237152553e-04
1.005274883869e-03
1.116111825890e-03
1.243833942949e-03
1.378588443039e-03
1.523268974044e-03
1.677750168573e-03
1.829039242162e-03
5.769119770078e-03
5.756298907790e-03
5.749170319459e-03
5.734429837692e-03
5.702795470748e-03
5.682427793398e-03
5.635117478810e-03
5.582784664746e-03
5.520792281033e-03
5.448573328919e-03
5.343024789299e-03
5.238593731151e-03
5.096040263855e-03
4.949933125522e-03
4.771152745785e-03
4.581527043699e-03
4.362587692472e-03
4.132455940163e-03
3.914787071927e-03
3.745042949631e-03
3.580080018075e-03
3.425401495188e-03
3.260632711155e-03
3.092637707582e-03
2.933759009734e-03
2.774250571548e-03
2.601273686475e-03
2.454644946492e-03
2.303508180996e-03
2.169147684974e-03
2.036001823304e-03
1.911613512782e-03
1.796530035522e-03
1.709444713485e-03
1.623223457153e-03
1.541632050101e-03
1.506587373394e-03
1.474384659288e-03
1.489676689250e-03
1.516435787672e-03
1.572543490449e-03
1.644785814363e-03
1.702776199357e-03
1.747525189181e-03
1.821430407467e-03
1.859364124028e-03
1.902915278771e-03
1.934391974238e-03
1.949440403724e-03
4.344836461444e-03
4.493080607730e-03
4.642911669840e-03
4.794618204385e-03
4.952557237451e-03
5.114054321974e-03
5.279785532645e-03
5.455579988677e-03
5.622113905657e-03
-1.269198134129e-03
3.473654707690e-03
-1.035981529939e-05
4.753860347496e-04
8.449100643163e-04
1.228711426079e-03
1.621778132609e-03
2.047117505989e-03
2.484758812689e-03
2.921587373035e-03
3.304795691935e-03
4.253902977340e-03
4.255236583932e-03
4.248377807255e-03
4.236616549315e-03
4.243855158958e-03
4.221064830558e-03
4.201474304143e-03
4.190411757981e-03
4.171500371496e-03
4.137912517910e-03
4.096607805387e-03
4.028233014249e-03
3.929825696320e-03
3.765537052655e-03
-1.696396552152e-03
-2.030420864703e-03
-2.065803223129e-03
-1.814423167349e-03
-1.027440195280e-03
-8.570481520188e-05
3.330054781144e-04
3.977463115599e-04
3.821619742891e-04
4.639285627587e-04
3.968958440213e-04
4.252356505533e-04
4.823650833971e-04
5.408595783371e-04
5.859372775327e-04
6.199859363252e-04
6.395603768921e-04
6.532955631277e-04
6.750503332899e-04
-2.268394671837e-04
2.622198257295e-04
6.662000095172e-04
1.027544918377e-03
1.397349084492e-03
1.826173751932e-03
2.267744102812e-03
2.707932454641e-03
3.125989159604e-03
3.396690367942e-03
2.815932515862e-04
1.769602339922e-03
3.617318219789e-04
-1.193901218457e-03
1.473644053257e-03
1.078919779118e-03
7.759785984272e-04
2.229244188078e-03
1.846537109997e-03
2.822177935650e-03
2.700736822127e-03
1.630592813693e-03
4.638115350528e-04
3.447948692544e-03
3.298209300953e-03
5.898403938222e-04
1.036918461446e-03
3.933521622126e-03
4.746893061516e-03
5.580993465977e-03
5.410634821098e-03
5.165013068562e-03
3.869206550207e-03
4.184980542581e-03
4.275600456824e-03
4.874528812004e-03
1.762674011567e-03
-1.493906252415e-03
5.843263344072e-04
1.443271290114e-03
4.304588667367e-03
5.543555437799e-04
4.347738677279e-03
2.523116224468e-03
3.132633893538e-03
1.993436258557e-03
1.588710169652e-03
3.488816185529e-06
4.076165001030e-03
1.501535804134e-03
5.190070656800e-03
3.539400654187e-04
6.508100649339e-04
5.655471263713e-03
1.429590191570e-03
7.005877316596e-04
2.272182682754e-03
3.077474228070e-03
-3.412242409369e-04
4.579834233796e-03
1.857615773066e-03
6.247448208134e-04
5.533548597031e-03
3.497768825875e-03
3.332731156375e-03
3.573507199018e-03
3.419356689813e-03
3.646673835023e-03
3.524199310076e-03
3.291294466673e-03
3.408858084792e-03
3.173495556313e-03
3.738390661619e-03
3.297662915600e-03
3.060454193375e-03
3.187042650066e-03
2.948352464810e-03
2.822976752246e-03
2.708157152295e-03
2.587346127082e-03
2.469450021399e-03
2.593544134935e-03
2.350994635899e-03
2.234934162382e-03
2.113664412634e-03
2.004497041714e-03
1.886267463204e-03
1.779231268661e-03
1.668589293473e-03
1.792436317586e-03
1.602947281218e-03
1.480600788571e-03
1.431870859183e-03
1.308285254403e-03
1.262000019075e-03
1.404026838556e-03
1.238531459726e-03
1.096499449485e-03
1.086097058538e-03
9.540440022337e-04
9.692620214347e-04
8.623079557467e-04
8.893626772296e-04
9.687886891572e-04
8.834861828779e-04
8.058342017995e-04
7.972699204018e-04
8.267090180264e-04
7.299795386418e-04
7.365626634748e-04
6.258818305635e-04
6.107457423556e-04
4.988934965073e-04
5.326328404652e-04
3.998355087903e-04
3.551492331234e-04
2.676877607554e-04
3.361592440809e-04
2.310488438175e-04
1.643478883558e-04
1.979464986198e-04
2.586002344404e-04
2.650766113116e-04
2.152537541472e-04
2.823033284114e-04
3.365270139751e-04
3.512793172967e-04
4.181875136499e-04
3.055283425232e-04
3.716207627895e-04
3.335810240019e-04
3.950101826815e-04
1.389402409163e-03
3.625420609406e-04
3.045744283330e-04
4.192448713182e-04
4.605758384651e-04
3.910668716995e-04
4.430172793947e-04
4.194924421028e-04
8.374502168712e-04
2.477875463488e-03
4.657891159051e-04
4.458711069260e-04
4.048675762886e-04
4.333948481540e-04
3.833834993504e-03
3.947062193322e-03
4.033884556400e-03
4.148112303295e-03
4.216992774099e-03
4.706074293028e-04
3.424336818554e-03
4.069041115480e-03
2.129574351885e-03
1.377950184033e-03
8.474903332553e-04
4.959196164304e-04
5.127472092315e-04
5.503578609223e-04
4.154977730410e-04
5.132162843647e-04
5.254593872434e-04
6.374541733111e-04
6.660233164486e-04
7.824367469059e-04
7.499202634697e-04
8.929037540767e-04
8.584034422266e-04
8.241101014666e-04
7.045325100284e-04
9.981941949774e-04
9.622673845797e-04
1.100077615241e-03
1.060850868615e-03
9.288300249602e-04
1.022782534878e-03
8.989825509307e-04
7.746130519844e-04
9.261739133492e-04
8.904809978979e-04
1.087889079869e-03
1.073197434528e-03
1.270389268378e-03
1.249903917114e-03
1.060967674316e-03
3.074557862848e-03
7.012959909233e-04
6.710642485774e-04
5.508850750924e-04
5.073821642859e-04
3.557457144334e-04
3.232725059863e-04
1.152733864942e-04
1.840361215065e-04
-1.094370473381e-04
2.559305742956e-05
-2.914929673153e-04
-7.893687525083e-05
1.755249030627e-03
1.291870026582e-03
1.468582363632e-03
1.494062839728e-03
3.969059508169e-04
1.154393847758e-03
8.756604538736e-04
7.859743037651e-04
1.236957768853e-03
4.594390713135e-04
1.168318914688e-04
3.231126716949e-04
4.339532992779e-03
4.392336171495e-03
9.672553830930e-04
4.974971293912e-04
1.039550975118e-03
-4.530989578951e-04
1.112154457753e-03
1.245195067495e-03
7.260894836285e-04
1.665705488758e-03
1.691443496819e-03
1.436828979569e-04
6.477865213116e-05
-8.800637940462e-05
1.001492472748e-06
7.754886482617e-05
-2.048627688460e-05
-6.328565504450e-05
-3.310945355359e-06
1.395425845265e-05
8.024495898846e-05
6.341091536428e-05
1.440109185754e-04
1.292683825455e-03
-6.519025895005e-04
2.705191926864e-03
1.048960060522e-03
1.415236825448e-03
4.525196869601e-03
4.560968883624e-03
4.433071122129e-03
4.584789251538e-03
4.724910110113e-03
4.733926639576e-03
4.596841698262e-03
4.732506306140e-03
4.596881406715e-03
4.720702923040e-03
4.867234671634e-03
4.844050291051e-03
4.698412295173e-03
4.812727659588e-03
4.666967984325e-03
4.773094333453e-03
4.926679629136e-03
4.922354062976e-04
1.054508391264e-03
1.231867924997e-03
5.587234287587e-04
6.059740528872e-04
6.071443560466e-04
6.712216974877e-04
4.878300230608e-03
5.039475131063e-03
1.810738757368e-04
3.968828439763e-04
4.478084890872e-03
1.196422009310e-03
1.069744442535e-03
1.200333559151e-03
1.286037109273e-03
1.094148111749e-03
1.199195582176e-03
1.385173768316e-03
9.977088107061e-04
6.064569732370e-04
4.999212790181e-03
3.639101996026e-04
3.598145700429e-04
1.332249851411e-03
8.713931483036e-04
1.952542339329e-03
1.941428729959e-03
2.146575707134e-03
2.149114975382e-03
2.354975068920e-03
2.330140994128e-03
2.131106665638e-03
1.860409597178e-03
2.294028558667e-03
4.723824584691e-03
1.309540212175e-03
9.201819381340e-05
4.556341376800e-04
1.653915945791e-04
5.197895910485e-04
5.279555430498e-04
1.144832102227e-03
2.541179745431e-03
2.561185940694e-03
1.311073481941e-03
1.524678803552e-03
1.825353574675e-03
4.113993083835e-03
4.473268267225e-03
4.473706008330e-03
5.063927446647e-04
8.717832425896e-05
4.884519037138e-03
4.969029536282e-04
5.393853219369e-04
-8.275008311900e-04
-1.029120919034e-03
4.982797833436e-03
5.146433512309e-03
6.796254110999e-04
7.513511476498e-04
1.106463270492e-03
2.227840903068e-04
5.204325678741e-03
8.781788419357e-04
6.880093582975e-04
6.635092765823e-04
2.829421196457e-04
1.062728473009e-05
3.488638353809e-05
2.142529763583e-04
5.498623407947e-04
1.273334455571e-03
4.878777486618e-03
2.096647383230e-03
1.928773533960e-03
2.253816009793e-03
2.462982081044e-04
1.212192605060e-03
1.276205847698e-03
2.742812457408e-03
2.764072787664e-03
6.210880210326e-04
6.693862341592e-04
6.062933192737e-04
7.540889774383e-04
3.055428691552e-03
7.466572319373e-04
2.481644969282e-03
2.603089856880e-03
2.385926925205e-03
1.595783516090e-03
1.735928857104e-03
6.306360221182e-04
9.818587206446e-04
6.060149124366e-04
8.062976246610e-04
4.241501363247e-04
5.024748578639e-03
5.164389023176e-03
4.560848863227e-03
4.527610925559e-03
3.905435125234e-04
3.577753933925e-04
5.104601256113e-04
1.139937026150e-03
4.675337228934e-03
4.632218525951e-03
4.421143820320e-03
1.257517957448e-03
5.751213449666e-04
7.190398107018e-04
-7.292117128960e-04
1.564783417434e-03
3.888150042547e-04
2.725419953288e-03
1.416511036882e-03
1.473562679032e-03
2.013214585497e-03
3.056393963718e-03
1.560395574853e-03
1.372338559827e-03
2.517330832193e-03
2.326468578496e-03
2.167331388108e-03
2.126638389876e-03
1.210669899980e-04
1.728541741121e-04
2.724418537040e-03
2.452078445116e-03
2.964509266077e-03
2.984587393779e-03
1.971821984777e-03
1.791500730793e-03
5.564718597942e-04
1.705490263688e-03
5.048611700564e-03
2.710986563658e-03
1.280350364945e-03
1.231390541829e-03
-1.100017275645e-03
-6.451949551529e-04
5.315718936321e-03
7.309492677751e-04
9.014964322235e-04
5.689877401234e-04
1.753477298466e-03
4.313724057534e-03
1.564391778863e-03
1.814415716897e-03
5.377354664175e-03
1.531710064714e-03
1.019605329393e-03
1.084231475105e-03
5.239592435828e-03
5.428010569083e-03
4.364695756364e-03
4.352495246422e-03
4.348274595212e-03
-4.383676588395e-04
-7.534072877109e-04
5.129387076392e-03
5.279925300079e-04
5.742771840017e-04
2.776701877753e-04
2.775291245908e-04
6.879792367750e-04
6.051526930333e-04
2.620078055838e-03
2.864245513871e-03
2.164776173792e-03
7.038579165674e-04
5.272582389299e-04
5.447862335792e-04
5.191018255815e-03
5.348134987276e-03
7.576598309718e-05
5.159848192658e-05
2.027128363895e-04
5.046155157401e-03
1.620114005830e-03
1.528955462024e-03
3.562930647425e-04
3.318431811402e-04
2.179342112948e-04
-8.117955290621e-05
4.577022502940e-03
4.350705084726e-03
4.803546501130e-03
5.785935058509e-04
1.903503654429e-03
1.405063874753e-03
1.423115218818e-03
1.427936542310e-03
2.046997390954e-03
2.178133510034e-03
2.396454463204e-03
-1.321076620567e-03
5.385239887119e-03
4.424634470458e-03
-1.320652033417e-03
4.390481262615e-03
4.484105878742e-03
4.335057504097e-03
5.658998839419e-04
4.239916285783e-03
4.220724799227e-03
3.238170218298e-04
5.232853788450e-03
3.825309978005e-04
4.290983927666e-04
1.374337355182e-03
1.327398239274e-03
1.455305055049e-03
1.413720890734e-03
1.280644820309e-03
1.380089333830e-03
4.326739401416e-03
1.532010440373e-03
1.485039538393e-03
1.642127609584e-03
2.374623081908e-03
9.317900425706e-04
1.096814979793e-03
1.101762752429e-03
3.208406854030e-03
3.188819792166e-03
1.357795989301e-03
1.223210214911e-03
4.425249168537e-03
4.432083967847e-03
4.558672704707e-03
4.553879842215e-03
4.684853060929e-03
4.673885111110e-03
4.811130734404e-03
2.614008345550e-03
7.139638015762e-04
2.734926493049e-03
1.917338364220e-03
1.748764081902e-03
1.916847632524e-03
1.957173518151e-03
1.372177556143e-03
7.286110461488e-04
5.249192693762e-03
-1.138873571896e-03
-1.047415379139e-03
8.531958530250e-04
1.949584462810e-03
1.124891402822e-03
1.279802986952e-03
8.996167402662e-04
3.142267100871e-04
3.957073585045e-04
4.812451772639e-03
3.573269087105e-04
1.303666248529e-03
7.433825411359e-04
1.681551826137e-03
4.530751851828e-04
8.134292035522e-04
2.937228790939e-03
3.184087419104e-03
2.924869710333e-03
7.749075080549e-04
1.498264469771e-03
1.515996511087e-03
2.358094325441e-03
4.204569062088e-03
4.125719663154e-03
4.268660514403e-03
4.033278744553e-03
3.893296874126e-03
3.796496961997e-03
3.946655310169e-03
3.696276727403e-03
3.869347000360e-03
3.582129427409e-03
3.448285813912e-03
3.338708421549e-03
3.445992435790e-03
3.203874748309e-03
2.061541008469e-03
9.669404718201e-04
-1.153410007187e-03
-7.538579305620e-04
1.904353328934e-03
4.137212844021e-03
4.567384059402e-03
4.814648367836e-04
3.295173490913e-03
2.817549870907e-03
-1.621265326751e-04
2.979640478561e-03
3.984468006874e-03
3.759192048016e-03
3.855513056100e-03
4.902966943513e-03
4.321258683868e-03
2.386247631824e-03
1.110047553836e-03
1.146327979108e-03
1.049169308126e-03
3.555571681542e-03
1.867046477688e-03
1.751308592384e-03
1.660440937520e-03
1.594956976774e-03
1.677542591774e-03
3.758685408673e-03
3.615837318024e-03
1.784140193915e-05
1.239622478184e-04
1.624087304891e-04
2.525148717374e-04
1.788842162344e-04
2.987150195542e-04
3.980467017460e-04
2.684116402562e-04
3.018885671882e-03
1.532338103880e-03
5.482944506023e-04
4.519395434732e-04
3.395947948648e-04
5.318297225018e-04
5.223008836483e-04
6.056909604300e-04
5.416890993493e-04
1.949949967902e-03
1.487948894540e-03
6.924762888151e-04
4.434443538944e-04
3.987969309008e-03
3.961543425246e-03
3.774457112382e-03
3.931824219930e-03
4.083878995079e-03
7.684453323174e-04
8.443686598683e-04
8.175513238042e-04
9.153205065000e-04
8.778044904697e-04
7.934571145845e-04
9.800927954431e-04
9.247832137957e-04
4.132064971601e-03
-5.398314331536e-04
-2.744757133650e-04
5.304495379001e-05
-1.034679308184e-04
-3.251215423772e-04
-1.479945061104e-04
-2.436471517280e-04
-6.904434284509e-04
2.303980825107e-04
1.862807437049e-04
2.443243009529e-04
2.578315415954e-04
2.045838588747e-04
3.261579986369e-04
1.785461008006e-03
7.041187607897e-04
6.667119814715e-04
6.233028117431e-04
6.270111443127e-04
7.239590709400e-04
6.129059305677e-04
5.966725265190e-04
6.034394995039e-04
5.909819869089e-04
6.044606840217e-04
5.643463675438e-04
5.537131845346e-04
5.667996077185e-04
5.425158305594e-04
5.552046067067e-04
5.106160762494e-04
5.081945885264e-04
5.146134978397e-04
5.032844904592e-03
5.121209464306e-03
1.481343288661e-03
4.227847605181e-03
3.645411537369e-04
5.582083538342e-03
5.490777234195e-03
5.548254627889e-03
1.594563030879e-03
1.660956575976e-03
5.628066784795e-03
3.739797379310e-04
4.170253471377e-03
5.256047567348e-03
-6.931903284715e-05
2.255989674799e-04
1.146527076808e-03
8.298820874054e-04
1.384959494324e-03
9.867784734454e-04
1.198268554398e-03
1.555463966076e-03
5.352321448475e-04
4.584477094922e-03
4.626822044457e-03
4.966739291849e-03
4.871015503403e-04
7.369722275293e-04
4.270691376295e-04
2.940076707630e-03
2.258269202795e-03
3.308395932460e-04
4.786417712462e-04
3.401302667235e-04
1.534880539514e-04
1.135227740470e-03
4.285956318895e-04
9.351149089148e-04
5.087705646640e-03
4.049847380154e-04
9.850817412162e-04
6.190772522112e-04
4.459908515127e-03
1.440712173317e-03
-5.347780543554e-05
4.879941140720e-03
4.835043142941e-03
4.183979840861e-03
4.282984517274e-04
4.454176405527e-03
1.294626278591e-03
4.277123670281e-03
5.070170638959e-04
6.537184548579e-04
1.563057399413e-03
3.218772876686e-03
5.297939004211e-03
1.225418819233e-03
1.410547092356e-03
8.753034883141e-04
5.415691034824e-04
1.184671961268e-03
9.261563098611e-04
5.038188656211e-03
2.357051990838e-03
6.855071772696e-04
4.706070451929e-03
3.044332151976e-04
1.634216586728e-03
2.035657231428e-03
2.006380153007e-03
2.835748468869e-03
1.576388498638e-03
1.096627267540e-03
1.085971489572e-03
-3.805252042702e-04
9.024448238359e-04
4.279166107280e-03
2.484654133790e-03
5.206285993671e-03
1.469091886041e-03
1.140116758145e-03
4.864583218160e-03
5.143636526347e-04
5.784947908908e-04
-2.948066046240e-04
4.131553484129e-04
1.081537708521e-03
6.094143262332e-04
4.509135311352e-03
1.239023043367e-03
9.251696083922e-04
7.551856335818e-06
2.898564808382e-03
1.337791277937e-03
5.889879216456e-04
1.598514041355e-03
8.383498417443e-04
2.791706269023e-03
2.171249091745e-03
1.437543224028e-03
1.067900265213e-03
6.193039008303e-04
4.311974202148e-03
1.606562921054e-03
1.244470969036e-03
1.748746726290e-03
4.671052534999e-04
2.901733330317e-03
7.093891368839e-04
2.235067919862e-03
5.048261952054e-03
1.396245354822e-03
3.635561680620e-03
6.972312530303e-04
1.510027651678e-03
5.344200013564e-04
2.565919133857e-03
7.864060741192e-04
4.385283599851e-04
4.160538776532e-04
2.143773083381e-03
8.714163564228e-04
5.469546368901e-04
9.515602307694e-04
2.487340078426e-03
3.530247615495e-03
1.027761615183e-03
2.385130273483e-03
4.746659782577e-04
1.752990178457e-03
1.504030793027e-03
2.709148912360e-04
4.021048218159e-04
3.659650218444e-03
2.059391097903e-03
5.465565280119e-04
2.565406327178e-03
1.731356657264e-03
1.200387404503e-03
7.371702764256e-04
1.745045545185e-03
3.281148873780e-04
3.237202995105e-04
4.652480535317e-04
2.786508270608e-03
5.468779681169e-04
3.313862211715e-03
2.932704371257e-04
3.090055319161e-04
1.888505901462e-03
4.724474271883e-03
2.106127438927e-04
5.793817465664e-04
9.909665201441e-05
1.329617870583e-03
1.348733718990e-04
1.646671910310e-04
5.422344049361e-03
2.398446811427e-04
5.663619997581e-03
1.840101092672e-03
4.427247624055e-03
1.678529384583e-03
-1.600800000497e-03
1.260336836542e-03
2.426542195540e-04
2.965623098038e-03
4.430995046896e-03
2.856973744981e-04
3.688131242114e-03
2.666093486772e-03
4.952408030431e-03
1.568452158432e-03
1.713534725481e-03
5.353633300778e-03
4.268064908069e-03
3.251978398872e-04
1.172432799177e-03
1.254460813899e-03
8.958123946196e-04
5.405065981190e-04
5.718774825494e-04
1.041431570209e-04
8.846912859306e-04
1.832708362417e-03
4.271935887165e-03
2.071551473888e-03
5.112878087253e-04
5.023100767988e-03
2.372374234474e-03
1.576648970169e-03
2.221541451994e-03
1.507336457125e-04
4.056247995677e-03
3.083238859679e-03
5.064455067935e-03
1.671414537837e-03
4.150919986555e-03
5.499974609308e-03
-3.218066067068e-04
5.528279534861e-03
3.101461959626e-03
4.580481176685e-03
3.752993359131e-03
1.720578337519e-03
4.098080277672e-03
-2.165907516944e-04
4.928720320373e-03
6.031808797835e-04
-1.041273446975e-03
1.402549143176e-03
3.241220360021e-03
1.661147560765e-03
5.647615223801e-04
3.493700404740e-04
1.416213827250e-03
3.402394303392e-03
-7.060498621086e-05
5.385133233677e-03
-8.202354641458e-04
4.220985348749e-03
4.701096507403e-04
1.743791582454e-03
5.332633577942e-03
6.824184891080e-04
3.662063168439e-03
5.824100473590e-04
2.608652861496e-03
2.714577742275e-04
5.436634475506e-03
1.513942625120e-03
4.698540179766e-03
2.133152985377e-03
-1.387052983052e-03
2.531749948063e-03
1.538999978141e-03
4.284991931148e-03
4.380659267525e-03
5.984716093679e-04
4.889813635472e-04
5.696303267614e-03
6.368498918247e-04
4.295834488228e-03
1.889797990011e-03
5.228773533416e-04
4.533704202595e-03
3.543395087716e-03
8.659649988368e-04
5.253870989263e-03
-2.198422516630e-05
-1.571760666691e-03
4.805319223587e-03
2.268865190988e-03
4.972165335094e-03
4.671318067998e-03
-3.633561370524e-04
3.345515033498e-03
7.256068208013e-04
2.909012533108e-03
1.709241548782e-03
-7.937110731109e-04
9.482138476972e-04
4.303639974493e-04
1.518512460688e-03
7.705628746858e-04

SCALARS node_materi_strain_total_size_dev_sd_ept float
LOOKUP_TABLE default
3.271317322771e-03
1.335698764213e-02
4.918404552017e-03
1.432543565984e-02
2.545185885744e-03
1.694810832575e-03
9.005500395897e-04
8.799172358097e-04
1.711647555897e-03
2.407398348153e-03
2.968536861210e-03
3.397959761559e-03
3.713602345407e-03
3.948065768073e-03
4.118478876814e-03
4.260222908332e-03
4.376283774291e-03
4.470458055100e-03
4.575770249931e-03
4.677132924854e-03
4.773374777828e-03
4.856081226275e-03
4.916124161683e-03
1.429665613008e-02
1.428872093085e-02
1.429427574653e-02
1.428527195166e-02
1.429239761534e-02
1.428796399983e-02
1.428151659460e-02
1.425710613129e-02
1.423669376483e-02
1.418882323840e-02
1.416521684675e-02
1.410342499668e-02
1.402551300062e-02
1.391780453418e-02
1.380553323296e-02
1.362697260946e-02
1.345627756909e-02
1.324551358879e-02
1.293876653683e-02
1.249785154790e-02
1.202346737898e-02
1.152105499717e-02
1.102661228821e-02
1.048486110263e-02
9.979285223591e-03
9.448052923137e-03
8.854699574787e-03
8.256035593105e-03
7.642854052903e-03
7.063835234777e-03
6.418510702125e-03
5.767206736172e-03
5.136076588376e-03
4.621878549133e-03
4.135450709555e-03
3.748240284560e-03
3.490629151812e-03
3.394382589589e-03
3.448541674077e-03
3.630381695879e-03
3.867238197079e-03
4.115109265634e-03
4.303356057629e-03
4.447524302263e-03
4.620325153508e-03
4.713545456324e-03
4.796040731663e-03
4.859778824872e-03
4.892083733856e-03
1.352827164161e-02
1.382405105238e-02
1.406910866070e-02
1.425892163609e-02
1.439814112214e-02
1.448244028279e-02
1.450830988136e-02
1.447653569088e-02
1.441166875140e-02
1.066210736686e-02
1.532530823374e-02
1.594881067301e-02
1.246008812208e-02
1.089502746812e-02
9.081685333758e-03
9.462560118768e-03
1.006041213739e-02
1.102612702745e-02
1.248669223715e-02
1.464278178308e-02
1.335388989633e-02
1.333515376421e-02
1.334892526923e-02
1.336493615007e-02
1.342180959934e-02
1.341047493659e-02
1.342690658899e-02
1.344429552582e-02
1.350739377163e-02
1.355857056294e-02
1.362032591655e-02
1.374851650255e-02
1.401933970600e-02
1.481696268340e-02
4.042465205066e-03
2.979388865848e-03
2.726638272433e-03
2.766669018292e-03
3.822380021378e-03
2.489507999940e-03
1.734299864654e-03
1.751938543349e-03
1.651085386888e-03
2.073720329736e-03
1.794104814110e-03
1.951559523224e-03
2.285509322537e-03
2.611659899178e-03
2.844285362014e-03
3.017722856100e-03
3.138577825459e-03
3.242033572982e-03
3.338076852223e-03
1.869803251815e-02
1.393499051648e-02
1.140218988597e-02
1.012977581239e-02
9.581525537883e-03
9.889132661426e-03
1.046917132078e-02
1.165133342565e-02
1.347091509821e-02
1.590153282426e-02
1.357499996655e-02
4.385671270979e-03
1.302606809545e-03
5.214700485949e-03
3.001562930310e-03
9.724015206392e-03
4.028825581835e-03
6.867768048869e-03
9.791699774431e-03
9.353899829454e-03
1.185318332319e-02
4.067599568950e-03
1.966378303574e-03
1.153774822430e-02
1.491957253877e-02
2.722495437009e-03
4.369261145890e-03
1.301146595107e-02
1.396264618393e-02
1.439669401850e-02
1.441619924027e-02
1.427959342899e-02
1.450723248136e-02
1.378314652127e-02
1.365129593791e-02
1.434260179789e-02
4.604144653984e-03
5.916153763741e-03
2.531985420328e-03
4.696850042885e-03
1.350668640575e-02
6.848800543372e-04
1.355865522679e-02
8.203103460926e-03
1.048027689336e-02
5.624508579896e-03
3.463240694048e-03
2.489482697412e-03
1.396257450784e-02
3.411236230776e-03
1.450692723632e-02
1.362099185775e-03
3.557708937393e-03
1.436818932063e-02
9.293450437076e-03
1.109316013805e-02
1.057108981204e-02
1.365910787278e-02
1.790700514784e-02
1.397660659718e-02
4.831425435900e-03
2.784787479296e-03
1.444393008786e-02
1.447866351575e-02
1.393142069515e-02
1.433755699241e-02
1.382733925846e-02
1.416543101368e-02
1.370620475576e-02
1.328513108536e-02
1.321424976524e-02
1.274478752566e-02
1.406132283163e-02
1.271576545105e-02
1.222784860470e-02
1.222867165666e-02
1.173532354093e-02
1.171215853374e-02
1.121808182413e-02
1.115317870829e-02
1.064969434450e-02
1.073955333836e-02
1.016885092343e-02
1.003227980576e-02
9.573164243344e-03
9.419731476532e-03
8.977326225543e-03
8.820342200496e-03
8.374668967557e-03
8.549674985365e-03
8.028996130597e-03
7.914385214634e-03
7.738275709270e-03
7.754217295035e-03
7.682743681844e-03
7.766563248509e-03
7.949702887581e-03
7.897178336861e-03
8.502842384665e-03
8.479764949361e-03
9.400753918303e-03
9.344083430202e-03
1.038227348132e-02
1.043221288587e-02
1.124113143438e-02
1.114833901351e-02
1.160592764314e-02
1.124660027484e-02
1.107059780039e-02
1.017551121689e-02
9.613193318551e-03
1.031477771304e-02
8.578755290335e-03
7.837061777789e-03
6.788931858080e-03
7.443731539478e-03
5.852745472575e-03
5.276766420772e-03
4.694018263706e-03
5.186753123587e-03
4.413234141152e-03
4.093993029688e-03
4.015146489425e-03
4.267891084829e-03
3.930808180409e-03
3.681164092099e-03
3.642666948488e-03
3.422319807647e-03
3.827630561375e-03
3.595364619626e-03
3.692062756175e-03
3.522327865541e-03
8.122037154108e-03
3.510232472990e-03
3.689514068290e-03
3.411062677992e-03
3.446205467332e-03
3.282692685620e-03
3.256635843132e-03
3.015194143491e-03
8.672158113244e-03
1.027326305399e-02
3.054457771757e-03
2.701850756452e-03
2.673525759822e-03
2.246765111139e-03
1.442069221797e-02
1.432119574873e-02
1.460333371236e-02
1.453270158243e-02
1.473517552625e-02
2.341774488315e-03
1.269911283915e-02
1.424035500971e-02
9.914378411867e-03
7.870232799360e-03
1.014430062003e-02
3.301971148324e-03
3.158713713546e-03
3.404492375419e-03
3.395539439504e-03
3.180338712050e-03
3.069339414514e-03
2.920068277934e-03
2.709214045097e-03
2.665367091407e-03
2.922579100198e-03
2.778005040749e-03
3.043271054788e-03
2.375095707669e-03
2.476828854485e-03
2.998526338483e-03
3.249377417751e-03
3.285793311584e-03
3.511903353487e-03
3.478240741487e-03
3.714957896723e-03
3.673027863468e-03
8.787939151471e-03
8.453793086371e-03
7.100095080561e-03
6.602839357030e-03
5.405512212306e-03
5.032013414101e-03
4.133195711786e-03
4.401025459090e-03
1.176685362472e-02
1.146698280070e-02
1.087388424535e-02
1.102131587305e-02
1.066903308268e-02
1.056643728413e-02
1.068174583531e-02
1.032966610254e-02
1.015815003073e-02
9.661840677496e-03
9.776071884888e-03
9.160345233125e-03
9.584948458865e-03
8.160111199781e-03
6.104057435211e-03
4.849750093157e-03
5.810632213742e-03
2.215414178717e-03
3.800234217229e-03
2.054888990545e-03
2.275264578600e-03
3.395074674881e-03
1.788372431153e-03
1.095671522259e-02
1.105585239121e-02
1.467404173875e-02
1.481635416561e-02
1.754048771361e-03
1.928298268395e-03
2.726233526537e-03
9.364278471172e-03
3.964740998377e-03
4.075985498220e-03
3.146614101706e-03
4.975761396859e-03
5.803264899053e-03
9.854379311594e-03
9.307844800369e-03
9.376027737245e-03
8.244816400405e-03
7.881677893488e-03
6.617612876606e-03
6.802760558255e-03
5.657357242551e-03
5.589201617316e-03
4.889250793654e-03
4.657483611745e-03
4.044461429368e-03
3.928849154287e-03
8.703160427183e-03
1.168044180602e-02
1.841525821732e-03
3.401941664953e-03
1.475974308404e-02
1.485421831925e-02
1.485244885241e-02
1.486484781141e-02
1.485243326937e-02
1.485452732969e-02
1.480570876058e-02
1.480196393660e-02
1.469386450935e-02
1.470608811124e-02
1.478256742836e-02
1.470124480165e-02
1.457827547218e-02
1.459619465153e-02
1.443422033040e-02
1.447554636027e-02
1.459884243578e-02
1.313501935875e-03
3.590001016784e-03
2.731197964225e-03
3.303032906960e-03
3.542972638876e-03
3.578087304413e-03
3.726279277125e-03
1.450191955228e-02
1.458864826752e-02
1.232880777037e-02
1.160258390177e-02
1.458511113968e-02
4.199434603149e-03
4.101685644698e-03
7.880772556445e-03
7.852027302360e-03
8.029361591938e-03
7.956817608826e-03
7.996927300881e-03
8.390332153826e-03
2.892615652143e-03
1.474291661337e-02
2.713104157890e-03
2.239193339794e-03
4.319545933608e-03
4.660581786221e-03
8.657913902355e-03
8.180243559493e-03
8.643273415192e-03
8.198748419846e-03
8.648582593973e-03
8.170651650870e-03
7.777970135256e-03
5.392997404776e-03
7.569232258214e-03
1.434696527429e-02
7.259457344138e-03
4.855470459879e-03
1.208014037738e-03
3.570468218095e-03
1.468532333659e-03
2.137589923540e-03
1.574695646466e-03
8.700726009863e-03
9.222105018447e-03
8.152033731416e-03
8.548701007703e-03
4.818069848847e-03
1.475764279297e-02
1.466725088976e-02
1.448763617138e-02
8.128515382511e-04
4.206035042911e-03
1.482289893235e-02
1.040941882664e-02
1.033637264352e-02
9.603651327102e-03
8.457306060482e-03
1.451861097431e-02
1.457206154947e-02
3.697428243968e-03
3.852690495628e-03
1.591933184632e-03
3.212278648970e-03
1.460606138927e-02
3.770681765099e-03
4.726732879562e-03
3.714083376674e-03
1.298405272954e-02
1.367673121743e-02
5.394452438990e-03
3.633538468832e-03
1.719407979987e-03
1.580652366364e-03
1.477052160970e-02
7.083598344854e-03
7.592118378927e-03
7.025943113077e-03
2.627497252702e-03
1.920958117136e-03
4.405551552775e-03
9.355284620643e-03
9.861851238226e-03
9.403862058973e-03
9.302415495057e-03
1.037176094524e-02
9.555563151807e-03
1.277743386655e-02
8.636600946349e-03
1.108705948630e-02
1.166004849466e-02
1.102255240000e-02
8.549321740306e-03
9.061312649031e-03
1.031513013079e-02
9.641255430186e-03
3.559706507132e-03
3.484397781658e-03
3.380386594196e-03
1.477719764805e-02
1.470700486895e-02
1.437497556310e-02
1.419829671458e-02
1.667000791285e-03
1.676113280932e-03
3.282567960245e-03
2.154860201562e-03
1.465685902389e-02
1.447061235403e-02
1.435388718957e-02
1.645422665642e-03
1.125287430127e-02
7.305519374381e-03
8.630202496455e-03
7.902690973512e-03
1.172500297493e-03
1.081884050276e-02
4.526483401651e-03
4.460408718803e-03
5.527263195370e-03
1.367119978913e-02
8.205192926582e-03
8.617245333370e-03
1.159088891043e-02
1.093501608902e-02
1.034672179332e-02
1.028305287115e-02
4.678529277229e-03
4.276094791079e-03
8.935123521869e-03
7.754798947858e-03
1.001689929988e-02
1.054598222667e-02
5.149769942378e-03
4.352970138753e-03
2.373049458816e-03
9.201781802648e-03
1.472653016861e-02
1.227487216615e-02
2.391855740636e-03
2.574132646414e-03
7.974206646549e-03
9.004531671126e-03
1.456072447186e-02
1.030551784261e-02
9.876625828291e-03
1.108386440168e-02
4.865997169561e-03
1.347658655497e-02
4.648111400542e-03
9.165897115877e-03
1.456237269885e-02
7.899620539399e-03
8.025597021171e-03
2.125366779574e-03
1.454536685138e-02
1.450650698199e-02
1.441464428448e-02
1.418566675608e-02
1.461383174125e-02
1.137629802063e-02
1.214958468757e-02
1.469033063332e-02
2.963576115153e-03
3.190292917158e-03
2.981545114348e-03
3.371460035586e-03
3.619308650476e-03
3.496203182950e-03
1.036787035800e-02
1.094851315475e-02
9.220437151315e-03
3.786212595009e-03
4.416547876884e-03
5.556217440452e-03
1.468530097249e-02
1.457173123934e-02
5.098060944384e-03
6.059188950875e-03
4.211648808278e-03
1.463821723256e-02
4.602673810532e-03
4.382006232021e-03
1.165017083199e-03
1.685295946576e-03
1.392776465882e-02
1.477471085268e-02
1.422611315911e-02
1.408368093481e-02
1.431191736585e-02
1.919903046261e-03
6.825012823097e-03
1.970093973900e-03
2.042802481040e-03
2.239085464522e-03
5.957357741686e-03
6.286484599250e-03
7.373144499194e-03
7.527417631479e-03
1.450788014599e-02
1.407784867898e-02
6.420252872902e-03
1.387366343722e-02
1.401453166055e-02
1.366600361197e-02
1.158645250208e-03
1.426892325704e-02
1.455702261356e-02
1.058233603053e-03
1.454105573731e-02
1.041726519852e-03
1.015987499820e-03
2.890811192786e-03
3.028408217823e-03
3.372008042032e-03
3.454786936489e-03
3.208819850662e-03
3.611617951799e-03
1.394100974901e-02
3.894303174397e-03
3.987682851923e-03
4.277801798729e-03
1.098933205427e-02
9.160112582745e-03
9.007975636019e-03
9.377941799143e-03
1.079133698851e-02
1.122706342187e-02
4.572464725505e-03
4.462385615329e-03
1.381950727701e-02
1.376878640269e-02
1.403388995542e-02
1.397540052107e-02
1.419854054098e-02
1.413974183696e-02
1.432893424464e-02
8.321548017179e-03
1.073393106353e-02
1.238899382895e-02
4.814369971363e-03
3.946976301815e-03
9.674250607481e-03
9.854992733274e-03
2.417264194314e-03
9.007263894624e-03
1.437759496986e-02
9.094977751392e-03
1.107925842740e-02
8.364303408484e-03
9.671849441113e-03
8.444993277320e-03
8.552130531159e-03
2.964292417490e-03
1.741172338567e-03
1.227612459321e-02
1.438637860850e-02
1.304976496123e-02
4.592951291206e-03
9.513115284573e-03
8.685878133059e-03
1.154184674840e-02
8.680050613889e-03
1.222704859829e-02
1.336788217991e-02
1.288736870462e-02
1.025847277488e-02
8.827655351109e-03
9.107024616819e-03
1.054048942910e-02
1.415799990312e-02
1.383306897064e-02
1.377757756303e-02
1.349534807216e-02
1.351256893715e-02
1.313231245421e-02
1.317102252182e-02
1.277240117168e-02
1.293885844043e-02
1.243693853232e-02
1.230647325628e-02
1.195120880448e-02
1.213581811780e-02
1.183678168085e-02
5.777161800409e-03
8.076930062977e-03
9.321793286133e-03
1.528654560340e-02
9.295215348519e-03
1.330568802201e-02
1.381819068863e-02
1.059055568261e-02
1.101171732544e-02
1.223708344962e-02
1.039891252337e-02
9.917849551206e-03
1.389314058567e-02
1.355858238383e-02
1.396815319674e-02
1.410942552535e-02
1.476036646482e-02
7.626537563424e-03
7.848914736420e-03
8.959126432971e-03
1.007499754647e-02
1.270387494501e-02
4.967894409929e-03
3.870178572937e-03
3.332912036018e-03
2.971200984419e-03
3.871775693557e-03
1.260224515900e-02
1.208504215563e-02
6.382669878315e-03
7.450481250720e-03
7.001219613507e-03
8.599883562945e-03
9.005670951829e-03
9.889402135073e-03
9.700180758009e-03
1.030589707209e-02
1.110323076224e-02
3.144607407876e-03
2.963960642479e-03
3.391651201926e-03
3.757678331926e-03
3.466075636709e-03
3.433054431883e-03
3.395354406891e-03
3.458689552831e-03
7.939185891833e-03
2.984463119318e-03
5.902665550640e-03
3.459102350572e-03
1.414737877544e-02
1.457685348777e-02
1.465848882784e-02
1.467476759363e-02
1.447143464332e-02
3.774108722978e-03
3.938692861899e-03
4.004882028246e-03
4.099900524646e-03
4.141203026060e-03
4.028827771472e-03
4.251395883002e-03
4.248136317315e-03
1.387171704991e-02
5.097790072922e-03
6.085972968624e-03
3.373922038709e-03
5.535566189791e-03
7.974983430296e-03
6.832250775053e-03
8.988222277850e-03
8.075858791772e-03
1.054975268246e-03
1.902540762843e-03
8.925967754676e-04
1.317985348069e-03
2.766816858966e-03
2.316763773057e-03
4.721232859036e-03
3.823846766456e-03
3.682408449806e-03
3.393327857614e-03
3.507800537655e-03
3.897114284473e-03
3.199536686731e-03
3.021681194443e-03
2.645142108364e-03
1.898879920322e-03
2.063585361946e-03
1.197012756391e-03
1.111971697719e-03
1.751712645136e-03
1.631570761223e-03
2.373193091361e-03
1.483563483745e-03
9.377435468399e-04
2.199156398291e-03
1.445420089852e-02
1.449708860348e-02
3.173001453457e-03
1.374627532881e-02
1.387210527867e-03
1.441462652671e-02
1.441057564200e-02
1.440177965521e-02
4.797618596676e-03
4.793170713849e-03
1.439195850114e-02
3.055149196846e-03
1.352788069963e-02
1.462548384188e-02
1.221587774762e-02
3.854801950820e-03
4.299146789895e-03
3.280090800593e-03
4.216821966460e-03
3.884430054721e-03
3.607788327820e-03
2.746922095559e-03
9.746701975529e-04
1.454251548508e-02
1.428365186697e-02
1.468183882191e-02
2.805408964169e-03
3.889699982578e-03
1.694420999109e-03
9.661466371757e-03
1.045000442053e-02
3.721963366444e-03
3.396756654992e-03
3.394766201430e-03
4.261248213178e-03
7.798912192065e-03
3.447099011993e-03
2.483065213375e-03
1.464923876291e-02
1.585620444222e-03
2.169985836946e-03
3.104460339756e-03
1.479292719059e-02
4.040258221874e-03
5.447794896253e-03
1.482395936106e-02
1.450991260629e-02
1.472580782199e-02
1.159994803815e-03
1.429003839664e-02
1.856067982366e-03
1.444812369393e-02
2.500459656363e-03
8.596330978960e-03
8.230960369273e-03
1.464225689216e-02
1.461609108638e-02
8.609038636493e-03
2.840425395400e-03
5.771043507075e-03
2.705570800894e-03
2.809526452040e-03
1.084672677825e-02
1.477096743978e-02
9.207805201886e-03
1.139989093566e-02
1.478854403219e-02
4.278037130727e-03
4.280433133051e-03
9.800528480857e-03
9.147540995219e-03
1.126483242634e-02
7.845703762297e-03
4.361411575270e-03
2.438887232804e-03
9.127707485101e-03
8.225938539435e-03
1.481207147545e-02
8.173455445674e-03
1.464897158256e-02
8.100292464462e-03
3.050126806024e-03
1.466676599643e-02
3.368628689837e-03
1.368542600069e-03
1.346930270084e-02
1.074184589268e-02
9.443738701909e-03
3.263447681527e-03
1.397016534870e-02
3.408044350378e-03
2.192692921567e-03
1.560715998497e-02
1.316340137588e-02
3.768763444965e-03
6.996039993248e-03
3.717401644103e-03
4.140431335720e-03
9.050538015790e-03
1.038298809984e-02
4.108470078626e-03
2.852775154813e-03
9.891821755230e-03
1.348398024635e-02
4.348550420564e-03
2.107476559441e-03
7.914433336225e-03
6.170922772790e-03
1.270682554545e-02
3.340035304282e-03
9.715014912397e-03
1.420180373436e-02
2.322243415554e-03
1.363011130160e-02
3.497901856446e-03
6.861903294262e-03
1.009045195318e-03
1.165462530711e-02
3.649771032719e-03
1.065950811355e-02
4.821967055234e-03
6.042368221574e-03
3.827852082826e-03
1.068498311702e-02
4.014558545918e-03
1.115111510180e-02
1.316755376690e-02
4.201702766568e-03
9.781442027225e-03
9.231881352045e-04
7.950496715983e-03
4.686382505917e-03
3.924507501054e-03
3.944545261533e-03
1.313234472255e-02
1.006292477403e-02
3.565292095227e-03
9.822356285665e-03
7.667279964618e-03
9.257288283826e-03
2.945163218352e-03
9.454287911796e-03
3.177300642878e-03
2.815709953092e-03
9.229428893971e-03
1.048399909415e-02
7.097569554477e-04
1.225174390320e-02
2.420840802810e-03
8.085101083999e-03
6.067127531618e-03
1.419043399560e-02
6.467753175555e-03
2.109806366307e-03
5.676477679385e-03
8.336234364974e-03
4.764578437886e-03
4.474768581669e-03
1.453040836878e-02
4.114737065827e-03
1.437567862812e-02
4.867676864127e-03
1.371251112699e-02
9.570837293080e-03
4.576357137879e-03
8.746963242460e-03
3.933239161795e-03
1.134367003883e-02
1.373385427064e-02
3.596512939494e-03
1.255657752930e-02
8.797091100041e-03
1.442535153683e-02
3.264900848972e-03
6.738634192305e-03
1.450693124214e-02
1.354304804986e-02
1.134542938324e-03
4.488782646102e-03
9.224131445277e-03
1.034405260591e-02
1.164426165457e-02
2.881556586436e-03
3.781120652530e-03
1.061446725622e-02
4.408188410794e-03
1.410021486587e-02
6.478029478196e-03
1.206519565238e-02
1.449123976965e-02
7.217611120891e-03
3.821023730678e-03
6.618479110108e-03
1.517483462140e-02
1.471870878233e-02
1.023500705846e-02
1.452673871364e-02
4.257056840793e-03
1.427177643249e-02
1.447506095999e-02
9.354474183011e-03
1.445093750494e-02
1.147683795346e-02
1.413625369057e-02
1.448250041242e-02
4.750414845780e-03
1.330061579950e-02
1.693263748899e-02
1.445472728385e-02
3.476489505956e-03
7.511361388573e-03
2.811720246081e-03
1.162974535446e-02
4.543020067160e-03
1.276858330664e-03
1.065252392257e-03
2.410174151520e-03
1.153038495785e-02
8.575019901645e-03
1.434246388219e-02
1.614412780224e-02
1.357799291795e-02
1.400157059963e-03
4.502693834111e-03
1.455266167626e-02
3.778749485976e-03
1.478055154584e-02
2.536786137579e-03
8.412228399528e-03
1.934808356060e-03
1.451049288397e-02
2.657054608406e-03
1.412644690626e-02
6.507825451540e-03
7.561312331001e-03
7.956314887263e-03
2.579594606743e-03
1.350472398650e-02
1.371238812747e-02
3.234151092352e-03
8.895544464230e-04
1.435849475172e-02
2.967401160359e-03
1.344790102855e-02
4.912361498322e-03
7.268679369087e-04
1.392170827150e-02
1.212109393111e-02
4.194900402430e-03
1.451710435752e-02
4.975854216161e-03
4.287281495918e-03
1.429785101003e-02
6.790033939049e-03
1.438124475779e-02
1.423660948836e-02
1.457411325653e-02
1.177674206803e-02
3.901786714627e-03
9.647342560288e-03
3.627781857758e-03
1.586594914277e-02
4.296863237641e-03
1.340826494149e-03
3.704807797671e-03
4.014575132352e-03


CELL_DATA 1919

SCALARS element_number int
LOOKUP_TABLE default
407
408
409
410
411
412
413
414
415
416
417
418
419
420
421
422
423
424
425
426
427
428
429
430
431
432
433
434
435
436
437
438
439
440
441
442
443
444
445
446
447
448
449
450
451
452
453
454
455
456
457
458
459
460
461
462
463
464
465
466
467
468
469
470
471
472
473
474
475
476
477
478
479
480
481
482
483
484
485
486
487
488
489
490
491
492
493
494
495
496
497
498
499
500
501
502
503
504
505
506
507
508
509
510
511
512
513
514
515
516
517
518
519
520
521
522
523
524
525
526
527
528
529
530
531
532
533
534
535
536
537
538
539
540
541
542
543
544
545
546
547
548
549
550
551
552
553
554
555
556
557
558
559
560
561
562
563
564
565
566
567
568
569
570
571
572
573
574
575
576
577
578
579
580
581
582
583
584
585
586
587
588
589
590
591
592
593
594
595
596
597
598
599
600
601
602
603
604
605
606
607
608
609
610
611
612
613
614
615
616
617
618
619
620
621
622
623
624
625
626
627
628
629
630
631
632
633
634
635
636
637
638
639
640
641
642
643
644
645
646
647
648
649
650
651
652
653
654
655
656
657
658
659
660
661
662
663
664
665
666
667
668
669
670
671
672
673
674
675
676
677
678
679
680
681
682
683
684
685
686
687
688
689
690
691
692
693
694
695
696
697
698
699
700
701
702
703
704
705
706
707
708
709
710
711
712
713
714
715
716
717
718
719
720
721
722
723
724
725
726
727
728
729
730
731
732
733
734
735
736
737
738
739
740
741
742
743
744
745
746
747
748
749
750
751
752
753
754
755
756
757
758
759
760
761
762
763
764
765
766
767
768
769
770
771
772
773
774
775
776
777
778
779
780
781
782
783
784
785
786
787
788
789
790
791
792
793
794
795
796
797
798
799
800
801
802
803
804
805
806
807
808
809
810
811
812
813
814
815
816
817
818
819
820
821
822
823
824
825
826
827
828
829
830
831
832
833
834
835
836
837
838
839
840
841
842
843
844
845
846
847
848
849
850
851
852
853
854
855
856
857
858
859
860
861
862
863
864
865
866
867
868
869
870
871
872
873
874
875
876
877
878
879
880
881
882
883
884
885
886
887
888
889
890
891
892
893
894
895
896
897
898
899
900
901
902
903
904
905
906
907
908
909
910
911
912
913
914
915
916
917
918
919
920
921
922
923
924
925
926
927
928
929
930
931
932
933
934
935
936
937
938
939
940
941
942
943
944
945
946
947
948
949
950
951
952
953
954
955
956
957
958
959
960
961
962
963
964
965
966
967
968
969
970
971
972
973
974
975
976
977
978
979
980
981
982
983
984
985
986
987
988
989
990
991
992
993
994
995
996
997
998
999
1000
1001
1002
1003
1004
1005
1006
1007
1008
1009
1010
1011
1012
1013
1014
1015
1016
1017
1018
1019
1020
1021
1022
1023
1024
1025
1026
1027
1028
1029
1030
1031
1032
1033
1034
1035
1036
1037
1038
1039
1040
1041
1042
1043
1044
1045
1046
1047
1048
1049
1050
1051
1052
1053
1054
1055
1056
1057
1058
1059
1060
1061
1062
1063
1064
1065
1066
1067
1068
1069
1070
1071
1072
1073
1074
1075
1076
1077
1078
1079
1080
1081
1082
1083
1084
1085
1086
1087
1088
1089
1090
1091
1092
1093
1094
1095
1096
1097
1098
1099
1100
1101
1102
1103
1104
1105
1106
1107
1108
1109
1110
1111
1112
1113
1114
1115
1116
1117
1118
1119
1120
1121
1122
1123
1124
1125
1126
1127
1128
1129
1130
1131
1132
1133
1134
1135
1136
1137
1138
1139
1140
1141
1142
1143
1144
1145
1146
1147
1148
1149
1150
1151
1152
1153
1154
1155
1156
1157
1158
1159
1160
1161
1162
1163
1164
1165
1166
1167
1168
1169
1170
1171
1172
1173
1174
1175
1176
1177
1178
1179
1180
1181
1182
1183
1184
1185
1186
1187
1188
1189
1190
1191
1192
1193
1194
1195
1196
1197
1198
1199
1200
1201
1202
1203
1204
1205
1206
1207
1208
1209
1210
1211
1212
1213
1214
1215
1216
1217
1218
1219
1220
1221
1222
1223
1224
1225
1226
1227
1228
1229
1230
1231
1232
1233
1234
1235
1236
1237
1238
1239
1240
1241
1242
1243
1244
1245
1246
1247
1248
1249
1250
1251
1252
1253
1254
1255
1256
1257
1258
1259
1260
1261
1262
1263
1264
1265
1266
1267
1268
1269
1270
1271
1272
1273
1274
1275
1276
1277
1278
1279
1280
1281
1282
1283
1284
1285
1286
1287
1288
1289
1290
1291
1292
1293
1294
1295
1296
1297
1298
1299
1300
1301
1302
1303
1304
1305
1306
1307
1308
1309
1310
1311
1312
1313
1314
1315
1316
1317
1318
1319
1320
1321
1322
1323
1324
1325
1326
1327
1328
1329
1330
1331
1332
1333
1334
1335
1336
1337
1338
1339
1340
1341
1342
1343
1344
1345
1346
1347
1348
1349
1350
1351
1352
1353
1354
1355
1356
1357
1358
1359
1360
1361
1362
1363
1364
1365
1366
1367
1368
1369
1370
1371
1372
1373
1374
1375
1376
1377
1378
1379
1380
1381
1382
1383
1384
1385
1386
1387
1388
1389
1390
1391
1392
1393
1394
1395
1396
1397
1398
1399
1400
1401
1402
1403
1404
1405
1406
1407
1408
1409
1410
1411
1412
1413
1414
1415
1416
1417
1418
1419
1420
1421
1422
1423
1424
1425
1426
1427
1428
1429
1430
1431
1432
1433
1434
1435
1436
1437
1438
1439
1440
1441
1442
1443
1444
1445
1446
1447
1448
1449
1450
1451
1452
1453
1454
1455
1456
1457
1458
1459
1460
1461
1462
1463
1464
1465
1466
1467
1468
1469
1470
1471
1472
1473
1474
1475
1476
1477
1478
1479
1480
1481
1482
1483
1484
1485
1486
1487
1488
1489
1490
1491
1492
1493
1494
1495
1496
1497
1498
1499
1500
1501
1502
1503
1504
1505
1506
1507
1508
1509
1510
1511
1512
1513
1514
1515
1516
1517
1518
1519
1520
1521
1522
1523
1524
1525
1526
1527
1528
1529
1530
1531
1532
1533
1534
1535
1536
1537
1538
1539
1540
1541
1542
1543
1544
1545
1546
1547
1548
1549
1550
1551
1552
1553
1554
1555
1556
1557
1558
1559
1560
1561
1562
1563
1564
1565
1566
1567
1568
1569
1570
1571
1572
1573
1574
1575
1576
1577
1578
1579
1580
1581
1582
1583
1584
1585
1586
1587
1588
1589
1590
1591
1592
1593
1594
1595
1596
1597
1598
1599
1600
1601
1602
1603
1604
1605
1606
1607
1608
1609
1610
1611
1612
1613
1614
1615
1616
1617
1618
1619
1620
1621
1622
1623
1624
1625
1626
1627
1628
1629
1630
1631
1632
1633
1634
1635
1636
1637
1638
1639
1640
1641
1642
1643
1644
1645
1646
1647
1648
1649
1650
1651
1652
1653
1654
1655
1656
1657
1658
1659
1660
1661
1662
1663
1664
1665
1666
1667
1668
1669
1670
1671
1672
1673
1674
1675
1676
1677
1678
1679
1680
1681
1682
1683
1684
1685
1686
1687
1688
1689
1690
1691
1692
1693
1694
1695
1696
1697
1698
1699
1700
1701
1702
1703
1704
1705
1706
1707
1708
1709
1710
1711
1712
1713
1714
1715
1716
1717
1718
1719
1720
1721
1722
1723
1724
1725
1726
1727
1728
1729
1730
1731
1732
1733
1734
1735
1736
1737
1738
1739
1740
1741
1742
1743
1744
1745
1746
1747
1748
1749
1750
1751
1752
1753
1754
1755
1756
1757
1758
1759
1760
1761
1762
1763
1764
1765
1766
1767
1768
1769
1770
1771
1772
1773
1774
1775
1776
1777
1778
1779
1780
1781
1782
1783
1784
1785
1786
1787
1788
1789
1790
1791
1792
1793
1794
1795
1796
1797
1798
1799
1800
1801
1802
1803
1804
1805
1806
1807
1808
1809
1810
1811
1812
1813
1814
1815
1816
1817
1818
1819
1820
1821
1822
1823
1824
1825
1826
1827
1828
1829
1830
1831
1832
1833
1834
1835
1836
1837
1838
1839
1840
1841
1842
1843
1844
1845
1846
1847
1848
1849
1850
1851
1852
1853
1854
1855
1856
1857
1858
1859
1860
1861
1862
1863
1864
1865
1866
1867
1868
1869
1870
1871
1872
1873
1874
1875
1876
1877
1878
1879
1880
1881
1882
1883
1884
1885
1886
1887
1888
1889
1890
1891
1892
1893
1894
1895
1896
1897
1898
1899
1900
1901
1902
1903
1904
1905
1906
1907
1908
1909
1910
1911
1912
1913
1914
1915
1916
1917
1918
1919
1920
1921
1922
1923
1924
1925
1926
1927
1928
1929
1930
1931
1932
1933
1934
1935
1936
1937
1938
1939
1940
1941
1942
1943
1944
1945
1946
1947
1948
1949
1950
1951
1952
1953
1954
1955
1956
1957
1958
1959
1960
1961
1962
1963
1964
1965
1966
1967
1968
1969
1970
1971
1972
1973
1974
1975
1976
1977
1978
1979
1980
1981
1982
1983
1984
1985
1986
1987
1988
1989
1990
1991
1992
1993
1994
1995
1996
1997
1998
1999
2000
2001
2002
2003
2004
2005
2006
2007
2008
2009
2010
2011
2012
2013
2014
2015
2016
2017
2018
2019
2020
2021
2022
2023
2024
2025
2026
2027
2028
2029
2030
2031
2032
2033
2034
2035
2036
2037
2038
2039
2040
2041
2042
2043
2044
2045
2046
2047
2048
2049
2050
2051
2052
2053
2054
2055
2056
2057
2058
2059
2060
2061
2062
2063
2064
2065
2066
2067
2068
2069
2070
2071
2072
2073
2074
2075
2076
2077
2078
2079
2080
2081
2082
2083
2084
2085
2086
2087
2088
2089
2090
2091
2092
2093
2094
2095
2096
2097
2098
2099
2100
2101
2102
2103
2104
2105
2106
2107
2108
2109
2110
2111
2112
2113
2114
2115
2116
2117
2118
2119
2120
2121
2122
2123
2124
2125
2126
2127
2128
2129
2130
2131
2132
2133
2134
2135
2136
2137
2138
2139
2140
2141
2142
2143
2144
2145
2146
2147
2148
2149
2150
2151
2152
2153
2154
2155
2156
2157
2158
2159
2160
2161
2162
2163
2164
2165
2166
2167
2168
2169
2170
2171
2172
2173
2174
2175
2176
2177
2178
2179
2180
2181
2182
2183
2184
2185
2186
2187
2188
2189
2190
2191
2192
2193
2194
2195
2196
2197
2198
2199
2200
2201
2202
2203
2204
2205
2206
2207
2208
2209
2210
2211
2212
2213
2214
2215
2216
2217
2218
2219
2220
2221
2222
2223
2224
2225
2226
2227
2228
2229
2230
2231
2232
2233
2234
2235
2236
2237
2238
2239
2240
2241
2242
2243
2244
2245
2246
2247
2248
2249
2250
2251
2252
2253
2254
2255
2256
2257
2258
2259
2260
2261
2262
2263
2264
2265
2266
2267
2268
2269
2270
2271
2272
2273
2274
2275
2276
2277
2278
2279
2280
2281
2282
2283
2284
2285
2286
2287
2288
2289
2290
2291
2292
2293
2294
2295
2296
2297
2298
2299
2300
2301
2302
2303
2304
2305
2306
2307
2308
2309
2310
2311
2312
2313
2314
2315
2316
2317
2318
2319
2320
2321
2322
2323
2324
2325

SCALARS element_group int
LOOKUP_TABLE default
0
0
0
0
0
0
0
0
0
0
0
0
0
0
0
0
0
0
0
0
0
0
0
0
0
0
0
0
0
0
0
0
0
0
0
0
0
0
0
0
0
0
0
0
0
0
0
0
0
0
0
0
0
0
0
0
0
0
0
0
0
0
0
0
0
0
0
0
0
0
0
0
0
0
0
0
0
0
0
0
0
0
0
0
0
0
0
0
0
0
0
0
0
0
0
0
0
0
0
0
0
0
0
0
0
0
0
0
0
0
0
0
0
0
0
0
0
0
0
0
0
0
0
0
0
0
0
0
0
0
0
0
0
0
0
0
0
0
0
0
0
0
0
0
0
0
0
0
0
0
0
0
0
0
0
0
0
0
0
0
0
0
0
0
0
0
0
0
0
0
0
0
0
0
0
0
0
0
0
0
0
0
0
0
0
0
0
0
0
0
0
0
0
0
0
0
0
0
0
0
0
0
0
0
0
0
0
0
0
0
0
0
0
0
0
0
0
0
0
0
0
0
0
0
0
0
0
0
0
0
0
0
0
0
0
0
0
0
0
0
0
0
0
0
0
0
0
0
0
0
0
0
0
0
0
0
0
0
0
0
0
0
0
0
0
0
0
0
0
0
0
0
0
0
0
0
0
0
0
0
0
0
0
0
0
0
0
0
0
0
0
0
0
0
0
0
0
0
0
0
0
0
0
0
0
0
0
0
0
0
0
0
0
0
0
0
0
0
0
0
0
0
0
0
0
0
0
0
0
0
0
0
0
0
0
0
0
0
0
0
0
0
0
0
0
0
0
0
0
0
0
0
0
0
0
0
0
0
0
0
0
0
0
0
0
0
0
0
0
0
0
0
0
0
0
0
0
0
0
0
0
0
0
0
0
0
0
0
0
0
0
0
0
0
0
0
0
0
0
0
0
0
0
0
0
0
0
0
0
0
0
0
0
0
0
0
0
0
0
0
0
0
0
0
0
0
0
0
0
0
0
0
0
0
0
0
0
0
0
0
0
0
0
0
0
0
0
0
0
0
0
0
0
0
0
0
0
0
0
0
0
0
0
0
0
0
0
0
0
0
0
0
0
0
0
0
0
0
0
0
0
0
0
0
0
0
0
0
0
0
0
0
0
0
0
0
0
0
0
0
0
0
0
0
0
0
0
0
0
0
0
0
0
0
0
0
0
0
0
0
0
0
0
0
0
0
0
0
0
0
0
0
0
0
0
0
0
0
0
0
0
0
0
0
0
0
0
0
0
0
0
0
0
0
0
0
0
0
0
0
0
0
0
0
0
0
0
0
0
0
0
0
0
0
0
0
0
0
0
0
0
0
0
0
0
0
0
0
0
0
0
0
0
0
0
0
0
0
0
0
0
0
0
0
0
0
0
0
0
0
0
0
0
0
0
0
0
0
0
0
0
0
0
0
0
0
0
0
0
0
0
0
0
0
0
0
0
0
0
0
0
0
0
0
0
0
0
0
0
0
0
0
0
0
0
0
0
0
0
0
0
0
0
0
0
0
0
0
0
0
0
0
0
0
0
0
0
0
0
0
0
0
0
0
0
0
0
0
0
0
0
0
0
0
0
0
0
0
0
0
0
0
0
0
0
0
0
0
0
0
0
0
0
0
0
0
0
0
0
0
0
0
0
0
0
0
0
0
0
0
0
0
0
0
0
0
0
0
0
0
0
0
0
0
0
0
0
0
0
0
0
0
0
0
0
0
0
0
0
0
0
0
0
0
0
0
0
0
0
0
0
0
0
0
0
0
0
0
0
0
0
0
0
0
0
0
0
0
0
0
0
0
0
0
0
0
0
0
0
0
0
0
0
0
0
0
0
0
0
0
0
0
0
0
0
0
0
0
0
0
0
0
0
0
0
0
0
0
0
0
0
0
0
0
0
0
0
0
0
0
0
0
0
0
0
0
0
0
0
0
0
0
0
0
0
0
0
0
0
0
0
0
0
0
0
0
0
0
0
0
0
0
0
0
0
0
0
0
0
0
0
0
0
0
0
0
0
0
0
0
0
0
0
0
0
0
0
0
0
0
0
0
0
0
0
0
0
0
0
0
0
0
0
0
0
0
0
0
0
0
0
0
0
0
0
0
0
0
0
0
0
0
0
0
0
0
0
0
0
0
0
0
0
0
0
0
0
0
0
0
0
0
0
0
0
0
0
0
0
0
0
0
0
0
0
0
0
0
0
0
0
0
0
0
0
0
0
0
0
0
0
0
0
0
0
0
0
0
0
0
0
0
0
0
0
0
0
0
0
0
0
0
0
0
0
0
0
0
0
0
0
0
0
0
0
0
0
0
0
0
0
0
0
0
0
0
0
0
0
0
0
0
0
0
0
0
0
0
0
0
0
0
0
0
0
0
0
0
0
0
0
0
0
0
0
0
0
0
0
0
0
0
0
0
0
0
0
0
0
0
0
0
0
0
0
0
0
0
0
0
0
0
0
0
0
0
0
0
0
0
0
0
0
0
0
0
0
0
0
0
0
0
0
0
0
0
0
0
0
0
0
0
0
0
0
0
0
0
0
0
0
0
0
0
0
0
0
0
0
0
0
0
0
0
0
0
0
0
0
0
0
0
0
0
0
0
0
0
0
0
0
0
0
0
0
0
0
0
0
0
0
0
0
0
0
0
0
0
0
0
0
0
0
0
0
0
0
0
0
0
0
0
0
0
0
0
0
0
0
0
0
0
0
0
0
0
0
0
0
0
0
0
0
0
0
0
0
0
0
0
0
0
0
0
0
0
0
0
0
0
0
0
0
0
0
0
0
0
0
0
0
0
0
0
0
0
0
0
0
0
0
0
0
0
0
0
0
0
0
0
0
0
0
0
0
0
0
0
0
0
0
0
0
0
0
0
0
0
0
0
0
0
0
0
0
0
0
0
0
0
0
0
0
0
0
0
0
0
0
0
0
0
0
0
0
0
0
0
0
0
0
0
0
0
0
0
0
0
0
0
0
0
0
0
0
0
0
0
0
0
0
0
0
0
0
0
0
0
0
0
0
0
0
0
0
0
0
0
0
0
0
0
0
0
0
0
0
0
0
0
0
0
0
0
0
0
0
0
0
0
0
0
0
0
0
0
0
0
0
0
0
0
0
0
0
0
0
0
0
0
0
0
0
0
0
0
0
0
0
0
0
0
0
0
0
0
0
0
0
0
0
0
0
0
0
0
0
0
0
0
0
0
0
0
0
0
0
0
0
0
0
0
0
0
0
0
0
0
0
0
0
0
0
0
0
0
0
0
0
0
0
0
0
0
0
0
0
0
0
0
0
0
0
0
0
0
0
0
0
0
0
0
0
0
0
0
0
0
0
0
0
0
0
0
0
0
0
0
0
0
0
0
0
0
0
0
0
0
0
0
0
0
0
0
0
0
0
0
0
0
0
0
0
0
0
0
0
0
0
0
0
0
0
0
0
0
0
0
0
0
0
0
0
0
0
0
0
0
0
0
0
0
0
0
0
0
0
0
0
0
0
0
0
0
0
0
0
0
0
0
0
0
0
0
0
0
0
0
0
0
0
0
0
0
0
0
0
0
0
0
0
0
0
0
0
0
0
0
0
0
0
0
0
0
0
0
0
0
0
0
0
0
0
0
0
0
0
0
0
0
0
0
0
0
0
0
0
0
0
0
0
0
0
0
0
0
0
0
0
0
0
0
0
0
0
0
0
0
0
0
0
0
0
0
0
0
0
0
0
0
0
0
0
0
0
0
0
0
0
0
0
0
0
0
0
0
0
0
0
0
0
0
0
0
0
0
0
0
0
0
0
0
0
0
0
0
0
0
0
0
0
0
0
0
0
0
0
0
0
0
0
0
0
0
0
0
0
0
0
0
0
0
0
0
0
0
0
0
0
0
0
0
0
0
0
0
0
0
0
0
0
0
0
0
0
0
0
0
0
0
0
0
0
0
0
0
0
0
0
0
0
0
0
0
0
0
0
0
0
0
0
0
0
0
0
0
0
0
0
0
0
0
0
0
0
0
0
0
0
0
0
0
0
0
0
0
0
0
0
0
0
0
0
0
0
0
0
0
0
0
0
0
0
0
0
0
0
0
0
0
0
0
0
0
0
0
0
0
0
0
0
0
0
0
0
0
0
0
0
0
0
0
0
0
0
0
0
0
0
0
0
0
0
0
0
0
0
0
0
0
0
0
0
0
0
0
0
0
0
0
0
0
0
0
0
0
0
0
0
0
0
0
0
0
0
0
0
0
0
0
0
0
0
0
0
0
0
0
0
0
0
0
0
0
0
0
0
0
0
0
0
0
0
0
0
0
0
0
0
0
0
0
0
0
0
0
0
0
0
0
0
0
0
0
0
0
0
0
0


VECTORS element_materi_velocity float
4.913806410352e-01 -9.592475347332e-02 0.0 
4.724860804833e-01 -1.100872097968e-01 0.0 
5.339084136776e-02 -1.222200460349e-02 0.0 
3.247898876699e-03 -9.950956978335e-04 0.0 
3.583570741198e-02 1.048616197639e-02 0.0 
5.084119237700e-01 -6.926699610314e-01 0.0 
2.718282637723e-02 8.407193046608e-03 0.0 
5.061508304173e-01 -1.338982479976e-01 0.0 
3.003165941388e-02 9.101511124057e-03 0.0 
4.796193111588e-03 -9.662676987727e-04 0.0 
-9.833777629319e-03 1.419035602261e-02 0.0 
5.503114070491e-01 -1.406859079377e-01 0.0 
-5.100663875994e-03 -1.180060897045e-03 0.0 
5.286496723028e-02 1.260528377743e-02 0.0 
-4.232522473615e-03 -1.204925754972e-03 0.0 
2.610101804420e-03 -8.275287294273e-04 0.0 
4.572934755445e-02 1.353901169721e-02 0.0 
4.505669476077e-01 -7.155679208574e-01 0.0 
1.612274710090e-02 3.541365234129e-02 0.0 
1.185501382956e-02 3.778158078790e-02 0.0 
5.737222396877e-03 -9.489554265451e-04 0.0 
4.065601099440e-01 -5.715821124335e-02 0.0 
3.585088101750e-01 -5.226526656452e-02 0.0 
-2.020551579000e-02 9.602278541061e-03 0.0 
6.375047877418e-02 9.361950814064e-03 0.0 
-1.106288030848e-02 1.163464499087e-02 0.0 
7.541748257811e-02 2.370302648165e-02 0.0 
4.293932583588e-03 1.271157527958e-04 0.0 
6.813567016990e-02 8.454071621413e-03 0.0 
-1.714021555130e-02 9.067828355084e-03 0.0 
1.132063800019e-01 -3.523812665984e-01 0.0 
8.783499414410e-02 -2.248691683789e-02 0.0 
5.564161170200e-02 -1.065575947882e-02 0.0 
-3.389502265061e-03 3.319489549069e-03 0.0 
-1.950933672567e-02 -8.858261996128e-03 0.0 
-6.902945945471e-03 -2.208579153163e-03 0.0 
-6.502022670531e-03 -1.974447906504e-03 0.0 
-1.051553388189e-02 3.623487122257e-03 0.0 
2.321731352688e-02 9.314402934610e-03 0.0 
2.115229866011e-02 8.988973911803e-03 0.0 
2.456239191881e-01 -2.259005063039e-02 0.0 
-1.277152909053e-02 -6.277575396738e-03 0.0 
5.988399201876e-01 -2.161569406869e-01 0.0 
7.831087620278e-02 1.746956000324e-02 0.0 
1.744063546919e-03 -1.093743122056e-03 0.0 
5.943835938019e-01 -2.335221607252e-01 0.0 
1.504812843502e-01 -3.779334774616e-01 0.0 
1.973714152397e-03 -1.083502116702e-03 0.0 
2.014316724904e-01 -3.231374671919e-01 0.0 
5.162786593752e-02 1.347389697509e-02 0.0 
3.020625701721e-01 -3.802970534387e-02 0.0 
8.161364405561e-03 3.951927975416e-02 0.0 
6.367433946228e-02 -3.444756138898e-01 0.0 
2.976163573119e-01 -2.801587295333e-02 0.0 
2.956919259646e-02 -4.751610306712e-03 0.0 
-3.090113469436e-04 3.603017440454e-02 0.0 
4.372607092033e-03 4.099719024584e-02 0.0 
-6.851161113514e-03 3.110786265231e-03 0.0 
3.798376767816e-02 2.272343049461e-02 0.0 
3.142929817482e-03 -8.348513563209e-04 0.0 
3.162706287472e-01 -5.772514458572e-01 0.0 
4.779533618579e-03 -3.165946781251e-03 0.0 
2.228053358512e-01 -8.797580443886e-02 0.0 
7.107970542725e-02 -3.349579565046e-01 0.0 
-8.158459401566e-03 -1.779803380445e-03 0.0 
3.554918039862e-01 -4.140184247178e-02 0.0 
3.204091348661e-01 -6.345421616648e-01 0.0 
6.427449774004e-02 -1.732879733569e-02 0.0 
6.149664361303e-02 -5.941664414403e-02 0.0 
2.109642535299e-02 -4.495974898830e-03 0.0 
-1.682502113067e-02 7.945652912936e-03 0.0 
3.609128511988e-03 -3.579945367657e-04 0.0 
1.296317235364e-02 -2.341372688534e-03 0.0 
6.661341306631e-04 8.065947540020e-03 0.0 
-2.092115805081e-03 3.645392922602e-02 0.0 
1.199749553446e-02 -8.556711846257e-04 0.0 
3.646612212917e-02 -5.485360031258e-03 0.0 
6.347697393938e-01 -3.413075324474e-01 0.0 
3.779292623066e-02 2.323035288169e-02 0.0 
6.418777998347e-01 -2.973880689086e-01 0.0 
6.059700114433e-02 -7.890046175942e-02 0.0 
4.315895514058e-02 1.240450353102e-02 0.0 
4.114466046315e-01 -7.274169360785e-02 0.0 
4.622413314102e-01 -7.824224598804e-02 0.0 
3.350413732717e-02 8.950915321339e-03 0.0 
3.073783243680e-02 8.274975810414e-03 0.0 
-1.004585094041e-02 7.726509587403e-03 0.0 
-1.808758989766e-03 4.809444447568e-03 0.0 
1.023854617845e-01 -2.253797471832e-02 0.0 
3.839785583667e-02 1.105052888733e-02 0.0 
9.496568596311e-02 -2.684770481267e-02 0.0 
7.156301976525e-02 1.272257868629e-02 0.0 
5.466790535212e-03 -3.157282227934e-05 0.0 
6.668706786426e-03 3.576618100128e-04 0.0 
7.415657996845e-03 -7.187908254872e-04 0.0 
-7.396746140525e-03 2.767872603901e-03 0.0 
4.795637535757e-02 1.366144891005e-02 0.0 
-1.710071567479e-02 -8.574689539498e-03 0.0 
4.254418968830e-03 2.959331211186e-03 0.0 
2.763750364708e-01 -9.347682574291e-02 0.0 
3.516428793163e-02 1.116732411162e-02 0.0 
-5.393441701278e-03 -1.408483899697e-03 0.0 
3.613759244292e-02 -3.528671585663e-02 0.0 
5.818753651705e-04 -1.860717377156e-03 0.0 
2.757669546095e-01 -1.664906390694e-01 0.0 
1.548032953225e-01 -3.044389437606e-01 0.0 
-5.838397163352e-03 -1.780445233941e-04 0.0 
5.483124273518e-03 -4.725207275666e-04 0.0 
2.522546120299e-01 -4.176259655683e-01 0.0 
-9.371731470834e-03 -2.607456831341e-03 0.0 
1.086014654763e-01 -2.384124826095e-02 0.0 
3.095123662046e-03 6.342423363044e-03 0.0 
1.982095617385e-01 -1.513172979485e-01 0.0 
1.042595406127e-01 9.421652608460e-03 0.0 
-1.155876122375e-02 2.804440446610e-02 0.0 
3.375305604798e-01 -1.172220858083e-01 0.0 
2.134416459700e-01 -1.101427939059e-01 0.0 
-1.386107289056e-02 -6.160343095893e-03 0.0 
5.445751226012e-03 3.645956416723e-03 0.0 
2.546802107803e-01 -1.391242971514e-01 0.0 
5.994413454390e-02 -2.101923198526e-02 0.0 
7.490189478650e-02 1.269651635835e-02 0.0 
4.302016514585e-03 -7.043017405685e-04 0.0 
2.415895648676e-01 -1.488308099790e-01 0.0 
6.510621694032e-01 -4.741609115777e-01 0.0 
1.569640461705e-01 8.250412868408e-04 0.0 
-8.992179392983e-03 3.041170659615e-02 0.0 
1.944505714187e-01 1.617020859931e-03 0.0 
9.203361217526e-03 -8.494572931132e-04 0.0 
6.158658215947e-01 -4.964091107510e-01 0.0 
-1.551574364881e-02 1.035606371551e-02 0.0 
2.566746028733e-03 -9.963665616638e-04 0.0 
1.548181421631e-01 -3.700505024906e-02 0.0 
1.959781692563e-01 -5.238181827441e-03 0.0 
-1.953561353263e-02 -9.390816570394e-03 0.0 
-3.520797408447e-03 -9.879517095668e-04 0.0 
-1.412329518545e-02 6.846270366762e-03 0.0 
1.511586592198e-01 -3.487537969008e-02 0.0 
-1.313100641266e-02 6.170737827785e-03 0.0 
1.630456568162e-01 -2.846851693303e-02 0.0 
6.672608999992e-03 -7.782736469792e-04 0.0 
3.283520545817e-02 -9.179337845314e-03 0.0 
5.609409210610e-02 1.301128305524e-02 0.0 
1.309457038942e-02 2.004284951949e-03 0.0 
1.653539460769e-01 -3.264012878566e-02 0.0 
2.433479924553e-01 -1.045973794324e-02 0.0 
1.548293474786e-01 -4.219585009858e-02 0.0 
2.059298668110e-01 -1.444178147356e-01 0.0 
2.629030379013e-02 9.054413550645e-03 0.0 
2.000718904346e-01 -1.665633618876e-01 0.0 
7.838911776698e-02 -1.523235015362e-02 0.0 
6.301032829467e-03 5.182874999489e-03 0.0 
1.771586526703e-02 3.300692152159e-02 0.0 
1.275217692887e-01 3.977026890281e-03 0.0 
-1.031421150877e-02 3.920016655992e-03 0.0 
2.936034125772e-01 -1.611077924757e-01 0.0 
-7.719998699594e-03 6.199813372532e-03 0.0 
5.629891221856e-01 -1.908357636646e-01 0.0 
4.425806995667e-02 -3.785329944908e-02 0.0 
1.483447484782e-02 6.642859223570e-03 0.0 
1.994026247927e-01 -1.814834537424e-01 0.0 
-7.775073003102e-03 1.671061926283e-03 0.0 
6.019971707542e-02 -3.063691817626e-02 0.0 
-8.141516072486e-03 -5.001138783289e-04 0.0 
1.070108657606e-01 -2.860921576159e-03 0.0 
-1.080597190558e-02 -2.773314157457e-03 0.0 
6.325802933936e-03 6.054215831663e-03 0.0 
2.262470893043e-01 -1.621373209844e-01 0.0 
1.242074572819e-01 1.021580261937e-02 0.0 
-6.280215092317e-03 1.541292117669e-02 0.0 
5.716470049303e-01 -1.624822124956e-01 0.0 
1.976075629967e-01 -1.995705460361e-01 0.0 
1.134221660192e-02 1.208086998552e-03 0.0 
1.703895040421e-02 7.519827147230e-03 0.0 
1.983320399834e-01 -1.508570505646e-01 0.0 
1.554934347078e-01 4.598140544076e-03 0.0 
1.188332790034e-01 -4.852801960270e-02 0.0 
-1.419465894980e-02 2.618146555732e-02 0.0 
2.942028175665e-04 2.503536152494e-03 0.0 
2.462916587371e-02 -6.240020471464e-03 0.0 
4.011620983757e-01 -1.225193559766e-01 0.0 
-1.341162749188e-02 2.665293156151e-02 0.0 
-1.535427542780e-02 1.789559942773e-03 0.0 
1.960732505490e-01 -3.124295120288e-02 0.0 
4.608612396353e-01 -1.434145594554e-01 0.0 
9.864841820963e-02 3.360949160525e-03 0.0 
1.954578069634e-01 -1.444192941427e-01 0.0 
4.712031795448e-03 -8.486231433594e-04 0.0 
9.129437397863e-02 -1.099558049220e-02 0.0 
-5.494867024291e-03 7.751242408833e-04 0.0 
6.183618347907e-01 -2.634005542384e-01 0.0 
1.972105566075e-01 -2.251724678721e-01 0.0 
9.635990851506e-02 -1.781962799075e-02 0.0 
5.508223573781e-01 -8.694739560441e-01 0.0 
1.977616037887e-01 -2.653785637532e-02 0.0 
-3.064342632612e-02 -1.071539221014e-02 0.0 
4.993487985323e-02 1.476682140911e-02 0.0 
4.502582136816e-02 -6.955466027702e-03 0.0 
7.535637761152e-02 2.702866308092e-03 0.0 
-5.167279989538e-02 -4.767098276370e-02 0.0 
-2.403698469193e-02 -8.939796210297e-03 0.0 
7.304710522100e-02 1.108043490035e-02 0.0 
6.174430955073e-02 1.136052330140e-02 0.0 
-1.767287288835e-02 8.668445408420e-03 0.0 
-1.497615997189e-02 -1.847379044800e-02 0.0 
1.650727487611e-01 -5.660150556280e-02 0.0 
1.173956504479e-01 -1.073224648923e-02 0.0 
7.126808144761e-02 2.031328311029e-03 0.0 
1.046811735016e-01 -3.548016607758e-03 0.0 
1.054454436223e-01 4.650204685643e-05 0.0 
5.494246914729e-02 -6.034097322044e-02 0.0 
1.269578543755e-01 -4.851135223355e-02 0.0 
5.238610049963e-01 -8.382294611678e-01 0.0 
4.067210886844e-01 -1.056116841095e-01 0.0 
2.846248310137e-01 -8.174733225170e-02 0.0 
1.615036382674e-01 -5.017968878073e-02 0.0 
8.519586261498e-02 -1.019451467277e-02 0.0 
4.080311141314e-01 -5.671559081756e-01 0.0 
-4.715878839153e-02 -2.414257910447e-02 0.0 
1.911144848396e-02 7.601783361073e-03 0.0 
1.991334773932e-01 -2.103052117646e-01 0.0 
-6.570913975838e-02 -3.777667039869e-02 0.0 
6.621798243330e-02 9.173406252231e-05 0.0 
7.134999601732e-02 8.116133311125e-05 0.0 
6.663487497526e-02 1.658876303295e-03 0.0 
4.567948001974e-02 1.790363740659e-02 0.0 
6.238689009504e-01 -2.361697178593e-01 0.0 
2.241842068470e-03 -1.733910291884e-02 0.0 
6.608514632668e-02 -4.387788781390e-04 0.0 
1.055579712386e-02 -2.144203104078e-02 0.0 
4.960559738563e-01 -3.108838059874e-01 0.0 
2.940404336462e-02 -1.703526111287e-01 0.0 
4.660471518956e-02 -1.652827956011e-02 0.0 
-1.666077632817e-02 -2.616003903759e-03 0.0 
1.137387352802e-01 -6.155698981547e-03 0.0 
-9.592197171895e-03 -2.143638601752e-03 0.0 
5.290255689956e-01 -8.983641363250e-01 0.0 
3.603039944778e-01 -2.616413621268e-01 0.0 
1.946926312651e-01 -1.988651214110e-01 0.0 
2.483817788086e-01 -3.730897784849e-02 0.0 
-3.766597230097e-02 -2.065881591896e-02 0.0 
-1.131887739287e-02 -3.211722670655e-03 0.0 
9.142220061876e-02 -8.441298445777e-03 0.0 
2.016531978168e-01 -2.933985928384e-01 0.0 
-2.027845201533e-02 -2.529735571723e-03 0.0 
-8.294713545299e-03 1.010447340894e-02 0.0 
1.517774778027e-01 -4.082211966580e-02 0.0 
8.091625986550e-02 -1.119702291878e-03 0.0 
2.846342812621e-04 1.306421767641e-03 0.0 
1.902565720396e-01 -2.103674114749e-01 0.0 
4.422915865093e-01 -2.768846968532e-01 0.0 
1.057154141031e-01 -7.007219928101e-03 0.0 
5.747396261502e-03 -5.988794276698e-04 0.0 
1.719202864718e-01 -6.444755350883e-02 0.0 
1.177693453341e-01 -1.409207616417e-01 0.0 
1.416660587018e-02 5.547018571791e-03 0.0 
8.016475958608e-02 -9.388146191979e-02 0.0 
9.907459573044e-02 -8.246916810855e-05 0.0 
2.129468752169e-01 -2.635311965093e-01 0.0 
2.717990327028e-01 -4.579165461122e-01 0.0 
1.067619669222e-01 -3.958651876826e-01 0.0 
6.142197215508e-02 6.518477917681e-04 0.0 
1.143813924778e-01 -1.087251081457e-02 0.0 
2.034358844066e-01 -1.364941503239e-01 0.0 
5.567328986080e-02 -1.806657780531e-05 0.0 
9.681051779409e-02 -1.467309576711e-02 0.0 
1.423140548833e-01 -3.380148475840e-02 0.0 
-1.188975451962e-02 -4.149366216984e-03 0.0 
8.728556253452e-02 -1.142132696455e-01 0.0 
1.330807020437e-01 -2.669166902884e-02 0.0 
1.945423665348e-01 -1.470782497228e-01 0.0 
7.701243193294e-02 -9.655962574075e-02 0.0 
1.972339141513e-01 -3.878139811374e-01 0.0 
6.283376768577e-02 1.648248460006e-02 0.0 
1.697644674471e-01 -2.135218848295e-01 0.0 
3.385265613430e-02 -2.839695795409e-01 0.0 
8.622320568268e-02 -5.647522764244e-03 0.0 
4.992689122594e-01 -8.958537828343e-01 0.0 
9.724870312472e-02 2.119688592380e-05 0.0 
1.870781875916e-01 -2.918658608365e-01 0.0 
3.322955701389e-01 -2.709456796096e-01 0.0 
1.756018693065e-01 -4.072271926132e-01 0.0 
1.082389019876e-01 -1.041340409410e-02 0.0 
8.620233511527e-02 -2.463914045167e-02 0.0 
2.363216696642e-01 -5.950226098169e-02 0.0 
5.351273281002e-02 -7.562987664615e-02 0.0 
1.083947850510e-01 -6.983058338494e-03 0.0 
6.536303298001e-02 1.355324771901e-02 0.0 
3.702142867918e-01 -6.528793730840e-01 0.0 
6.091472541769e-02 -3.146755984621e-01 0.0 
9.149862111790e-03 -2.505619274273e-01 0.0 
3.513393453313e-01 -8.858492045003e-02 0.0 
8.591485486296e-02 -3.264851630590e-03 0.0 
2.310728429356e-01 -6.644448997992e-02 0.0 
1.698459569861e-01 -2.336205052164e-01 0.0 
1.912485829855e-01 -2.259400922074e-01 0.0 
3.418253937138e-01 -5.829044224015e-01 0.0 
1.948811660700e-01 -1.500064591907e-01 0.0 
5.828101313271e-01 -3.651932461976e-01 0.0 
1.663153839580e-02 -3.315163287675e-03 0.0 
2.695483951496e-02 -5.488446711406e-03 0.0 
1.754782895908e-01 -7.086700071615e-02 0.0 
2.075811679521e-01 -3.252667379504e-01 0.0 
3.562201944563e-01 -3.204946560965e-01 0.0 
1.359124465937e-01 -3.143910697641e-02 0.0 
2.492696106497e-01 -3.367265023496e-01 0.0 
3.321495057422e-02 -2.921155518352e-01 0.0 
1.452459498622e-01 -3.429206624424e-02 0.0 
8.772689749091e-03 -8.461399610188e-04 0.0 
1.976275423811e-01 -2.431312761941e-01 0.0 
6.372844187602e-02 -6.344546984072e-02 0.0 
5.250346642577e-01 -3.541779991128e-01 0.0 
-4.991114129389e-03 2.877332476927e-03 0.0 
2.780546835932e-01 -3.064086286975e-01 0.0 
1.552612853622e-01 -4.718341430371e-02 0.0 
2.501911216277e-01 -5.247628232074e-01 0.0 
-2.290104159582e-02 -4.227550049580e-02 0.0 
1.810696639711e-01 -2.055873452951e-01 0.0 
-1.251012937267e-02 -2.088008117434e-01 0.0 
1.238451978421e-01 -1.581233833547e-02 0.0 
1.782859021614e-02 -6.418497670488e-03 0.0 
1.798286156130e-01 -2.636615214357e-01 0.0 
4.185799833389e-02 -7.188271316082e-02 0.0 
4.976501388321e-01 -3.877487506308e-01 0.0 
4.523875676272e-02 7.516983415268e-03 0.0 
-5.581111906756e-02 -3.524909202520e-02 0.0 
4.083265279873e-01 -2.087764885664e-01 0.0 
4.459255968065e-02 8.568819014994e-03 0.0 
5.069401704827e-03 -2.506897858175e-04 0.0 
-4.820274045100e-02 -1.715060911415e-02 0.0 
2.779523752135e-02 -8.535346968998e-03 0.0 
5.540073819374e-02 9.793161819414e-03 0.0 
1.147217796745e-01 -2.897312006476e-02 0.0 
5.337426458455e-01 -2.431062124314e-01 0.0 
1.238620540101e-01 -1.051989648516e-02 0.0 
1.268916953539e-01 -2.088299273533e-02 0.0 
1.235275242757e-01 -1.995238054606e-02 0.0 
1.812507835805e-01 -7.464427386756e-02 0.0 
-1.911514266656e-03 -1.495890218799e-04 0.0 
7.079140367624e-02 9.292659443505e-03 0.0 
9.460726257689e-02 3.919072977160e-03 0.0 
1.821431644560e-01 -2.412586464145e-01 0.0 
2.295711198631e-02 -1.656904917202e-02 0.0 
1.192477620493e-01 -1.830486404702e-03 0.0 
3.295125191771e-01 -2.012217294913e-01 0.0 
1.283942518043e-02 6.960732644238e-03 0.0 
-2.803470697358e-02 -1.742315671330e-01 0.0 
1.893510199161e-01 -2.663017755506e-01 0.0 
7.580987589910e-02 -3.420715424454e-03 0.0 
3.046438671700e-01 -2.237878796918e-01 0.0 
1.270001395256e-01 -1.680849578402e-02 0.0 
2.850269160706e-02 -5.782026647302e-02 0.0 
-7.457121553112e-02 -6.276061730827e-02 0.0 
-3.386563567127e-03 2.645138210395e-03 0.0 
1.593867703489e-01 -2.023283821820e-02 0.0 
1.102830945384e-01 -3.679068107957e-01 0.0 
-4.896387826798e-02 -5.446022019414e-02 0.0 
4.566349237987e-01 -1.705142735701e-01 0.0 
4.270768313918e-01 -1.967358696000e-01 0.0 
8.949630511915e-02 -1.637156201880e-02 0.0 
1.519965544057e-01 -4.568244987191e-02 0.0 
2.452318197210e-01 -4.248478014433e-02 0.0 
1.274472374416e-01 -1.243650631786e-02 0.0 
-4.686283629671e-03 1.608736262853e-03 0.0 
-1.101118033252e-02 3.752924463983e-03 0.0 
8.384840303453e-02 -1.242396397573e-02 0.0 
7.619844257714e-02 -1.469293666608e-03 0.0 
-7.458572786033e-02 -7.054679424468e-02 0.0 
1.924241640038e-01 -7.153754023423e-02 0.0 
1.903890447720e-01 -3.524755045759e-01 0.0 
1.730961871591e-01 -3.158285158530e-01 0.0 
1.618822655318e-01 -5.497896151855e-02 0.0 
-1.757071914460e-02 -5.178306247062e-02 0.0 
-4.154322590120e-02 -4.109568446696e-03 0.0 
6.813003866011e-02 -5.102900647706e-03 0.0 
8.578353225362e-02 -3.535947104589e-01 0.0 
1.853289845572e-01 -9.938918872998e-02 0.0 
1.361057879886e-01 -2.785862533590e-02 0.0 
1.820292169068e-01 -9.979129536327e-02 0.0 
3.073745381018e-02 -7.644956997731e-03 0.0 
2.167599316680e-02 -4.489726609723e-03 0.0 
4.920673123590e-02 -7.986544786860e-03 0.0 
-7.722421649391e-02 -6.471490050243e-02 0.0 
5.134477721968e-02 6.718757686316e-04 0.0 
4.654454680117e-01 -2.465859734934e-01 0.0 
1.642521683139e-01 -2.810412925170e-01 0.0 
2.303904937515e-01 -4.733659219983e-01 0.0 
1.929538517215e-01 -4.855820510693e-02 0.0 
5.759612521009e-02 1.598559018977e-02 0.0 
5.159439723515e-02 9.566467417686e-03 0.0 
-1.286713237843e-02 7.170270128318e-03 0.0 
1.017894970504e-01 -2.661526341269e-02 0.0 
1.001759099479e-01 -3.468512143333e-03 0.0 
1.260411292816e-01 -2.444361305596e-02 0.0 
1.811119087575e-01 -4.416356488542e-01 0.0 
1.133709103200e-01 -7.317108264593e-02 0.0 
1.967629220626e-01 -1.724406277004e-01 0.0 
1.875911637678e-01 -9.949777421491e-02 0.0 
1.952393929017e-01 -1.601227732291e-01 0.0 
6.641466074458e-01 -4.121957250648e-01 0.0 
1.172214439009e-02 4.846777449847e-03 0.0 
3.384833667930e-02 -2.065530826283e-02 0.0 
2.654986337609e-01 -2.477547316507e-01 0.0 
-2.506129674939e-03 1.519634010365e-03 0.0 
3.171723120017e-02 -4.390944224102e-02 0.0 
8.937538598849e-02 7.488439454164e-03 0.0 
1.356843519285e-02 2.671638130154e-02 0.0 
1.747952955445e-01 -6.552152557166e-02 0.0 
1.931787246892e-01 -1.866552949301e-01 0.0 
1.140036492514e-01 -1.453872216146e-02 0.0 
1.127014086106e-02 -3.377795887787e-03 0.0 
1.170501971589e-01 -4.947191528932e-03 0.0 
1.422043295227e-01 -3.763515227323e-02 0.0 
-4.531814849206e-02 -9.925617558177e-03 0.0 
6.493259438181e-02 -2.099710402197e-03 0.0 
-7.754581895948e-02 -5.637656293166e-02 0.0 
8.317264735476e-03 -1.048359170907e-03 0.0 
1.622148600289e-02 -4.648605851732e-03 0.0 
7.394416936678e-03 -1.317532243359e-03 0.0 
1.243887170767e-02 -2.492095565407e-03 0.0 
1.160898899784e-01 -1.835890890658e-02 0.0 
6.980887739441e-02 -3.531191948793e-03 0.0 
8.764156767928e-02 -1.934861809097e-02 0.0 
1.797758431708e-01 -7.551262364710e-02 0.0 
1.924418765453e-01 -6.173571926650e-02 0.0 
-3.308153294803e-02 4.487470943759e-03 0.0 
7.323152073722e-02 -6.985133985473e-03 0.0 
8.805530088272e-04 -5.489489528982e-04 0.0 
5.377164622355e-02 -1.440698084015e-03 0.0 
4.995313260106e-02 -6.568603936695e-02 0.0 
5.836777657295e-02 -2.431715238499e-03 0.0 
1.445406516386e-01 -7.795275117226e-02 0.0 
1.865982359412e-01 -1.133291260918e-01 0.0 
1.952315807222e-01 -4.059036535135e-02 0.0 
4.106084807167e-01 -3.787601992659e-01 0.0 
1.427061248123e-02 -1.099957890914e-03 0.0 
1.853138478586e-01 -1.179832014175e-01 0.0 
2.098100165656e-02 -9.691658012574e-03 0.0 
-3.667604204578e-02 -7.358142284218e-04 0.0 
-2.852097390863e-02 -1.417417037574e-01 0.0 
-1.058391297642e-02 5.618995015825e-03 0.0 
2.441973056775e-01 -2.129255261840e-01 0.0 
1.157375151845e-02 -3.886741117265e-03 0.0 
3.596733963618e-02 -6.541008577629e-03 0.0 
1.551724081092e-01 -5.162151742540e-02 0.0 
1.461135673465e-01 -7.741435844540e-02 0.0 
5.015302163375e-03 -8.460393345643e-04 0.0 
-9.253523902215e-03 4.189250743752e-03 0.0 
-2.367247468926e-02 -1.700419671475e-01 0.0 
2.622393297470e-02 -4.831444292698e-02 0.0 
-3.939596090714e-03 2.134386299574e-03 0.0 
1.701288189137e-01 -7.049367557177e-02 0.0 
1.828489139639e-01 -1.149262291884e-01 0.0 
1.450654627280e-01 -4.268442050214e-02 0.0 
1.652396497592e-01 -6.150808300334e-02 0.0 
1.455808518674e-01 -3.883057374815e-02 0.0 
3.926223655367e-01 -3.023584433272e-01 0.0 
1.767439132726e-03 -4.836994947477e-05 0.0 
1.519610347671e-01 -2.428149188829e-01 0.0 
2.924633294635e-01 -6.358805913691e-01 0.0 
-1.495071884284e-02 -5.414224221755e-03 0.0 
1.464141759394e-01 -6.158677839408e-02 0.0 
1.405005486295e-01 -2.347247995805e-02 0.0 
8.202455437664e-02 -2.678861439244e-01 0.0 
1.143708780321e-01 -1.315702343021e-04 0.0 
-4.944780700164e-03 2.232846425406e-03 0.0 
-1.024628142757e-03 3.509899815435e-04 0.0 
1.174667687937e-01 -1.502199047155e-02 0.0 
1.240429585170e-01 -2.257496887074e-01 0.0 
3.137300379915e-01 -6.838281806624e-01 0.0 
8.853912191949e-02 -2.147490997343e-01 0.0 
-4.508228934761e-02 -1.768748945266e-02 0.0 
5.888201656211e-02 1.776592880178e-02 0.0 
8.845164052980e-02 6.677104239117e-03 0.0 
-1.520519696203e-03 1.449081152007e-03 0.0 
5.488365905449e-02 1.587711778420e-02 0.0 
1.302840340836e-02 -1.951467104391e-03 0.0 
1.140182099439e-01 -6.191062465115e-02 0.0 
4.715348359242e-02 1.021248462906e-02 0.0 
3.846046467298e-01 -1.730995520328e-01 0.0 
3.601963949256e-02 -5.243305233558e-02 0.0 
3.578053809966e-01 -4.935649330953e-01 0.0 
-2.073552219790e-03 9.383292411862e-04 0.0 
1.451596780728e-02 -2.996351145999e-03 0.0 
9.237121459124e-03 -1.997631044316e-03 0.0 
-7.494099620711e-02 -4.731190300761e-02 0.0 
-2.480292560533e-02 1.241981708237e-02 0.0 
1.878902955154e-01 -1.329324594696e-01 0.0 
-7.431090022399e-02 -4.069055797890e-02 0.0 
-2.330206181333e-03 6.962308467517e-04 0.0 
2.476599182956e-01 -2.650814679693e-01 0.0 
8.706061982588e-03 -2.413107718254e-01 0.0 
-3.208053368391e-02 -1.749327850272e-01 0.0 
4.129584207739e-02 7.963843821569e-03 0.0 
-4.735631699847e-03 2.672365574700e-03 0.0 
1.359354623747e-01 -1.765889016383e-01 0.0 
-2.588703251825e-03 1.320341009305e-03 0.0 
-4.166623864111e-02 -1.485128246459e-01 0.0 
6.254838697682e-03 -2.531756553223e-03 0.0 
9.390920634112e-02 -2.487397275729e-02 0.0 
2.004804249407e-01 -9.099516745875e-02 0.0 
1.895254244676e-01 -1.386703361519e-01 0.0 
4.529460950295e-02 -6.215404507381e-05 0.0 
3.301962572101e-03 -2.023198363427e-04 0.0 
1.220666145267e-01 -2.333340972657e-02 0.0 
6.564740027098e-02 -3.886588473992e-02 0.0 
5.365480248698e-01 -4.436501732914e-01 0.0 
-1.394761015066e-02 6.738821940611e-03 0.0 
-5.108882735235e-02 -1.140143526588e-01 0.0 
-4.463055966216e-02 -1.503192258478e-01 0.0 
2.108216735190e-01 -2.436311027731e-01 0.0 
-8.868861238984e-04 -5.005790034234e-04 0.0 
2.441524925535e-01 -4.067730614923e-01 0.0 
-3.975942409596e-02 -7.046464323794e-03 0.0 
4.618745233040e-02 1.121774265084e-02 0.0 
-2.185461372752e-02 -5.805786306657e-02 0.0 
-1.359163506195e-02 -2.076956284357e-01 0.0 
1.322370449099e-01 -3.012166319280e-02 0.0 
-1.866043870924e-03 1.196057058387e-03 0.0 
-2.625047812024e-02 1.341458201097e-02 0.0 
-7.699182282981e-02 -4.389872082199e-02 0.0 
1.850123238736e-01 -8.555386884847e-02 0.0 
-5.136998775812e-02 -6.131364363056e-02 0.0 
9.368244788588e-03 -2.329287147081e-01 0.0 
-7.928855285541e-02 -5.598628384741e-02 0.0 
1.819621663524e-01 -7.915350514225e-02 0.0 
1.539909338206e-01 -7.487147453703e-02 0.0 
1.956889488418e-02 -3.243877223691e-02 0.0 
1.876417092744e-01 -1.109281343670e-01 0.0 
-4.788199778071e-02 -1.989343057416e-02 0.0 
2.330604966073e-01 -2.275880606600e-01 0.0 
-2.802265503109e-02 7.807923412285e-03 0.0 
9.366858240082e-02 -5.461681939187e-02 0.0 
4.320731410095e-02 -8.338561641274e-02 0.0 
-5.094832926764e-03 2.839975019670e-03 0.0 
4.688895235814e-02 -1.848492649182e-03 0.0 
-1.004448809422e-02 -5.120030088415e-02 0.0 
-2.356077448339e-03 9.125054161016e-04 0.0 
-1.166565031034e-02 6.185718906704e-03 0.0 
1.883613247631e-01 -1.614147323802e-01 0.0 
1.760858002089e-01 -1.757717922728e-01 0.0 
-4.188755324684e-03 1.577737063757e-03 0.0 
6.085709022332e-02 -5.036963609343e-03 0.0 
-3.673757662909e-02 -1.250779746576e-01 0.0 
-2.484984454451e-03 1.357698466561e-03 0.0 
-7.540726737039e-02 -4.031035927854e-02 0.0 
1.693110603395e-01 -4.973213043030e-02 0.0 
9.185762451248e-02 3.211403816145e-03 0.0 
6.513517917866e-02 -1.047864238029e-01 0.0 
-7.235896905759e-02 -5.384358641356e-02 0.0 
-3.290672373203e-02 -4.568303611447e-02 0.0 
8.015610946960e-02 1.102290704904e-03 0.0 
1.444965946539e-01 -2.904500513899e-02 0.0 
2.200240988085e-02 -2.942716146565e-02 0.0 
1.095283792700e-02 3.858674955994e-03 0.0 
-4.409976911856e-02 -1.285286108636e-02 0.0 
1.476709768447e-02 -3.630327860360e-02 0.0 
-4.857292016239e-02 -9.922198715484e-02 0.0 
-4.636695902172e-02 -6.001080553228e-03 0.0 
2.183715801783e-01 -1.284037270254e-01 0.0 
2.195460923794e-01 -1.860060578984e-01 0.0 
-4.552060907725e-02 -1.276594955607e-01 0.0 
-4.212685511493e-02 -2.117054693427e-03 0.0 
1.866550209165e-01 -1.445082994829e-01 0.0 
-7.778009724943e-02 -4.654142522301e-02 0.0 
4.060312388579e-02 8.805782392208e-03 0.0 
-3.401483528027e-02 -1.069638140470e-01 0.0 
-2.250647245397e-03 1.314667108139e-03 0.0 
1.516178387762e-01 -4.981890953056e-02 0.0 
-3.820826856151e-02 3.870570916733e-03 0.0 
1.617945232931e-01 -5.965160334199e-02 0.0 
-3.830037449814e-02 2.681715767579e-03 0.0 
2.030461005085e-01 -1.056699444454e-01 0.0 
8.953247079135e-02 2.703595586290e-03 0.0 
-8.275139705955e-03 3.127452763363e-02 0.0 
6.149722510416e-02 5.766248657420e-03 0.0 
-3.080351100960e-02 1.095037357460e-02 0.0 
-7.359287908433e-02 -3.614056896319e-02 0.0 
1.085459262690e-02 -4.436178147406e-04 0.0 
-3.648647889565e-02 -6.630674843210e-02 0.0 
-4.067065025411e-02 -5.716329453859e-02 0.0 
8.713549031653e-02 1.100704900127e-02 0.0 
5.545711704435e-02 1.707795852897e-02 0.0 
1.932976141686e-02 -1.631446272973e-03 0.0 
1.719881361075e-01 -6.955007425492e-02 0.0 
5.895732663958e-02 7.038102047920e-03 0.0 
4.643766691599e-02 -9.275577685912e-03 0.0 
1.619241184201e-01 -1.189606819964e-01 0.0 
-8.722430453733e-03 -2.244072526623e-02 0.0 
1.161123706123e-01 -5.041402973788e-02 0.0 
1.246808179150e-02 -3.028606705568e-04 0.0 
-4.924015541931e-02 -1.812262850960e-02 0.0 
-1.406605989708e-02 -5.669420899754e-04 0.0 
-4.238375976228e-02 -2.737953823964e-03 0.0 
-3.943328323958e-02 -1.909692074374e-03 0.0 
2.043456639284e-01 -5.222463677432e-01 0.0 
-5.832639582679e-03 3.277844344745e-02 0.0 
-1.964444816781e-03 3.807035575305e-02 0.0 
-4.385033125570e-03 -8.473394957184e-04 0.0 
-1.938108079287e-03 2.630699556179e-04 0.0 
-7.339265198641e-03 2.904810476309e-02 0.0 
-3.432273047500e-02 7.824011326622e-03 0.0 
-7.240714726800e-02 -4.673320968366e-02 0.0 
-2.534041568657e-02 7.713101600323e-03 0.0 
3.569822061976e-02 -5.568578460777e-03 0.0 
-5.679106925962e-02 -1.666176250363e-02 0.0 
4.397963764103e-02 1.840044607126e-02 0.0 
-3.051091078462e-02 1.022770458362e-02 0.0 
-4.601927227577e-02 -5.228497824196e-03 0.0 
3.828190735042e-02 1.790998327570e-02 0.0 
-5.419213420364e-03 3.141258130095e-02 0.0 
4.274042827867e-02 -1.159890956678e-03 0.0 
4.955298190083e-02 1.175427886864e-02 0.0 
5.933885683911e-02 1.888021118800e-02 0.0 
6.373608935935e-02 2.380417113674e-02 0.0 
-1.766603271582e-02 -3.210992941153e-02 0.0 
-9.021717951460e-04 3.908764842098e-02 0.0 
-4.028196053846e-02 -9.475296944607e-02 0.0 
4.743951772226e-01 -3.270532349786e-01 0.0 
-3.102153640271e-02 -1.136192356925e-02 0.0 
6.490400268698e-03 -3.817327587296e-03 0.0 
2.335688981920e-02 1.253444311831e-03 0.0 
3.660992805493e-01 -1.837982639312e-01 0.0 
7.177616307468e-02 -1.847716055555e-02 0.0 
1.331833949618e-01 -2.021132092090e-02 0.0 
4.139662957464e-02 1.351523949210e-02 0.0 
3.931837081823e-02 1.351254680114e-02 0.0 
5.303328431805e-02 1.087722190497e-02 0.0 
4.510231953923e-02 1.642122960164e-02 0.0 
2.795467341499e-02 1.986534776681e-02 0.0 
9.413515187695e-03 3.489953983755e-03 0.0 
3.300563752184e-02 1.500176180160e-02 0.0 
-6.445373414164e-03 2.735055557984e-02 0.0 
3.275979406727e-01 -4.331525711080e-01 0.0 
-5.950122453384e-03 2.931569681885e-03 0.0 
9.540017269790e-03 2.106747050085e-03 0.0 
5.378066869370e-02 1.703706202013e-02 0.0 
1.067752060524e-01 -4.208013894170e-02 0.0 
-7.258176727959e-02 -3.444358465631e-02 0.0 
8.727521837142e-03 3.315680237571e-03 0.0 
-7.375745779588e-04 3.782539218576e-02 0.0 
3.440399017845e-02 1.553464342894e-02 0.0 
1.873500790489e-03 -2.461465763535e-04 0.0 
4.341896958956e-03 -5.305965324513e-04 0.0 
4.293381022703e-02 1.041601560741e-02 0.0 
4.632477631671e-02 1.481881699931e-02 0.0 
-3.752496398466e-03 3.599205530056e-02 0.0 
2.700146622589e-03 -4.615744372804e-04 0.0 
4.520944729529e-04 3.314388803212e-04 0.0 
5.862642347694e-02 1.830071332075e-02 0.0 
5.098986039886e-02 1.595024942307e-02 0.0 
1.338692647685e-01 -1.494988537355e-03 0.0 
5.633986471684e-03 -6.339348610321e-04 0.0 
3.337500398336e-03 -4.765457291799e-04 0.0 
4.137409284592e-02 1.702576522307e-02 0.0 
4.261985889543e-02 1.495327741043e-02 0.0 
5.571012922334e-02 -7.217042690312e-03 0.0 
-4.989387628770e-02 -1.043425902997e-02 0.0 
-3.840146616908e-03 -6.349810323438e-04 0.0 
3.971601450467e-01 -5.232830119025e-01 0.0 
2.907468682164e-03 -3.752375201097e-04 0.0 
2.894573708920e-01 -2.549811843570e-01 0.0 
-3.470558995779e-02 -3.920109743892e-02 0.0 
2.805167447200e-01 -1.918910070500e-01 0.0 
3.554106985060e-01 -3.500141543155e-01 0.0 
-5.242531103538e-02 -5.512208305653e-02 0.0 
-1.466275743245e-02 -2.238126564185e-03 0.0 
8.053075875630e-03 2.444030154942e-03 0.0 
1.416357549722e-01 -2.983542212592e-02 0.0 
3.179110924251e-02 1.223246483612e-02 0.0 
-3.567554975419e-02 5.472160866929e-04 0.0 
6.231363789820e-04 -2.773169637056e-04 0.0 
1.231210701046e-03 -4.774081888934e-04 0.0 
4.903385439495e-02 1.597401638603e-02 0.0 
-2.035915789705e-02 -2.551962152021e-02 0.0 
1.463999607848e-03 -2.303991528264e-04 0.0 
5.928418354792e-02 -3.996102306932e-02 0.0 
1.745835090573e-02 1.583771032472e-02 0.0 
2.437480927912e-02 6.572238921123e-03 0.0 
1.649136770580e-02 5.846780071855e-03 0.0 
-1.190458765709e-03 3.427931600253e-02 0.0 
-3.079154900822e-03 -8.910238785898e-04 0.0 
3.353037523476e-04 -9.887765062601e-04 0.0 
1.795469600701e-02 3.667481199038e-03 0.0 
-3.334862870178e-03 2.779580788973e-02 0.0 
-1.056132011977e-03 -3.241765619912e-04 0.0 
-4.264115501297e-03 -1.221591467490e-03 0.0 
-5.565287455008e-03 -2.839986396629e-03 0.0 
1.657126551038e-03 4.969682622508e-04 0.0 
6.353858896776e-04 -7.073746045763e-04 0.0 
-2.023022888844e-03 -5.668473165986e-04 0.0 
-2.241092612453e-03 -6.547441508916e-04 0.0 
1.423683429902e-03 -3.885066629919e-04 0.0 
1.259233796245e-02 3.680744226055e-04 0.0 
2.986132393221e-02 1.128594660221e-02 0.0 
4.427298136612e-02 1.480554714524e-02 0.0 
2.660694967338e-02 1.245101465440e-02 0.0 
-3.114774050251e-03 -1.173662404357e-03 0.0 
-7.070173258907e-03 -3.679625083753e-03 0.0 
-3.951810850182e-03 -1.950048138460e-03 0.0 
1.897230812195e-02 6.776959966826e-03 0.0 
3.312898555148e-02 1.328674831585e-02 0.0 
-2.446925046283e-03 -1.110409451336e-03 0.0 
-3.118362408725e-03 -1.729576945293e-03 0.0 
8.688290108141e-04 1.057546791509e-03 0.0 
1.573048371086e-02 8.882149210115e-03 0.0 
7.882975402243e-04 8.614599662666e-06 0.0 
1.100387162069e-03 3.872626597753e-03 0.0 
6.736404627428e-03 8.091662218824e-03 0.0 
6.932277980483e-02 1.034063521688e-03 0.0 
9.068946556589e-02 -2.198370969886e-02 0.0 
1.122704045126e-01 -3.972065209617e-02 0.0 
1.538409593114e-01 -6.121404106006e-02 0.0 
-1.795640233620e-03 2.570648776184e-02 0.0 
-1.539222636557e-03 3.017818541078e-02 0.0 
9.474597947799e-02 -2.781975369770e-02 0.0 
-2.144304867234e-03 1.247698723695e-02 0.0 
1.237594123728e-01 -4.481535289997e-02 0.0 
3.806529484857e-03 -3.607962887215e-04 0.0 
1.236147014741e-03 -2.311752844539e-04 0.0 
2.468396168467e-03 -2.844499560978e-04 0.0 
5.354486952512e-03 3.200687728719e-02 0.0 
-1.645972171872e-04 4.061842626604e-02 0.0 
1.155964392044e-03 -2.846395905993e-04 0.0 
-1.580743275295e-03 2.049072241045e-03 0.0 
6.080743220642e-04 -2.000912251878e-04 0.0 
-1.181452869642e-03 1.185984165709e-04 0.0 
-7.344203329101e-04 -7.589286416363e-04 0.0 
-2.729681402267e-03 3.209740963876e-02 0.0 
2.392111406785e-03 -5.158148750532e-04 0.0 
1.764038714108e-03 -4.847308157871e-04 0.0 
-2.762196144937e-03 9.444312718073e-04 0.0 
-1.915873202552e-03 -5.076451233028e-04 0.0 
-2.211978754879e-02 4.111250591213e-03 0.0 
2.161941790304e-01 -1.460109161224e-01 0.0 
-2.304540002917e-02 1.717177736021e-02 0.0 
4.982838800596e-02 1.347168482534e-02 0.0 
-2.974936397207e-02 -9.916822785055e-03 0.0 
-3.412223618666e-02 5.912487186491e-03 0.0 
-2.552247036376e-02 -2.797097451514e-03 0.0 
1.740430462162e-02 7.623540508290e-04 0.0 
5.208239850770e-02 1.234822508748e-02 0.0 
-1.813171824055e-02 -2.422083711834e-03 0.0 
-2.714087835470e-02 1.449213805887e-02 0.0 
-3.880682142540e-03 3.510369319651e-02 0.0 
-2.262454226582e-02 -1.386467886600e-03 0.0 
3.909250297362e-03 -1.029173117175e-03 0.0 
-1.928033343668e-03 3.591973741378e-02 0.0 
-7.074861132082e-02 -3.175701940165e-02 0.0 
-5.806178760545e-02 -1.709510271886e-02 0.0 
-2.591314921884e-02 2.434400225385e-03 0.0 
-1.920155595956e-02 3.421740521719e-03 0.0 
1.486817949379e-01 -2.678328311622e-01 0.0 
1.458477883364e-01 -2.700306384533e-02 0.0 
1.907818188301e-01 -1.454526521108e-01 0.0 
-3.958348757777e-02 -2.136627086553e-03 0.0 
-1.643008447183e-02 -4.156294614406e-04 0.0 
-1.283503970802e-02 3.654942796510e-03 0.0 
6.894628888888e-03 -3.184477654527e-02 0.0 
7.482327944020e-03 -8.551730319785e-04 0.0 
9.694803595498e-03 -2.790058660764e-04 0.0 
1.949457206195e-02 6.752494257549e-03 0.0 
-4.393440737031e-02 -7.095463903746e-03 0.0 
-3.271647469080e-02 6.256056731110e-04 0.0 
5.069867508457e-03 -9.790562308124e-04 0.0 
6.552317307421e-03 -7.621231172073e-04 0.0 
-6.054664542628e-02 -1.971315305764e-02 0.0 
-1.258025783094e-02 -1.539508857107e-03 0.0 
2.101605152116e-02 9.727447890951e-04 0.0 
-9.165860100561e-03 4.337718657807e-03 0.0 
-2.263423400340e-02 -6.786392572225e-03 0.0 
8.763252869275e-03 -7.782816873309e-04 0.0 
1.756687967805e-02 1.998809649725e-03 0.0 
-7.155565341315e-02 -3.291649874198e-02 0.0 
1.173684126657e-02 2.914122036426e-02 0.0 
1.345928234919e-02 -5.084939417100e-02 0.0 
6.770920602769e-02 -1.192767313480e-02 0.0 
1.903989318923e-01 -1.412417829291e-01 0.0 
7.949311521158e-03 -6.743905443277e-04 0.0 
-1.333555075485e-02 -7.011169052876e-04 0.0 
1.723938858885e-01 -1.009960326097e-01 0.0 
7.640014317416e-02 -1.117251225389e-02 0.0 
2.262675419093e-02 6.450368140376e-03 0.0 
-2.929435953877e-02 -3.039380848352e-03 0.0 
-1.663348672916e-02 9.845296563121e-04 0.0 
-4.153119345972e-02 -7.001593563343e-02 0.0 
-1.351604008186e-02 1.917049252799e-03 0.0 
2.199843423881e-02 7.193729992172e-03 0.0 
1.241446788635e-02 -2.895121800809e-02 0.0 
-1.742435464867e-02 -5.226984445389e-03 0.0 
9.502764480310e-03 3.724783216669e-02 0.0 
-2.599021536449e-02 -1.026009353874e-02 0.0 
1.343191517426e-02 9.082322046484e-04 0.0 
6.349459315081e-03 3.387746405528e-02 0.0 
-5.781985008360e-03 -3.816894110931e-02 0.0 
-1.658364000410e-02 1.800581294064e-02 0.0 
2.427352531909e-02 4.454594431756e-03 0.0 
-1.974451558520e-02 9.426184887557e-03 0.0 
9.826855991245e-03 7.315122418171e-05 0.0 
1.523406074308e-02 2.254099843638e-03 0.0 
-3.360161946405e-02 8.308777780210e-03 0.0 
-1.546662255210e-02 4.636798290594e-03 0.0 
-1.968741976279e-02 1.507365431147e-03 0.0 
1.152807723365e-02 6.827096543204e-04 0.0 
2.582857681616e-02 2.066782894532e-02 0.0 
-2.672634174254e-02 1.458020651449e-02 0.0 
7.545394889286e-03 -1.099047365593e-02 0.0 
1.528107592007e-02 6.837205545861e-04 0.0 
-2.364320003865e-02 1.752666441713e-02 0.0 
-5.419780190223e-02 -1.320341452302e-02 0.0 
-3.279649415657e-02 -1.389366872014e-02 0.0 
1.538554489620e-02 1.683424440569e-03 0.0 
2.566872593661e-01 -6.367286094491e-01 0.0 
5.608020159969e-02 4.270037310750e-03 0.0 
1.556271312077e-01 -4.471825186607e-01 0.0 
-1.914375235603e-02 -1.437978560909e-03 0.0 
1.967836330690e-02 2.940535717771e-03 0.0 
-1.260751856281e-02 1.555602895367e-02 0.0 
2.588288243711e-02 6.295980603567e-03 0.0 
-4.684899260320e-02 -7.272138967838e-03 0.0 
-2.839674124275e-02 1.138519121486e-02 0.0 
-2.296480741526e-02 1.587169877037e-04 0.0 
1.119509886062e-02 3.226176031086e-02 0.0 
-2.402848116867e-02 -7.966158384386e-03 0.0 
-2.966786338649e-02 1.152320848380e-02 0.0 
5.852996894488e-03 3.651544900270e-02 0.0 
-2.306834436059e-02 1.732673288986e-02 0.0 
-1.980558397270e-02 1.552415023721e-02 0.0 
-3.817792688177e-03 8.476283501253e-03 0.0 
-1.661990862776e-02 1.404734307626e-02 0.0 
7.226326530254e-02 -1.560762082455e-03 0.0 
8.091133223792e-02 -1.253050322482e-02 0.0 
-2.891058084065e-02 2.779793803449e-03 0.0 
1.798981167988e-02 2.696273844338e-02 0.0 
-4.020465279680e-02 -4.324789535593e-03 0.0 
-4.729644141072e-02 -8.170428183970e-03 0.0 
-3.853743711384e-02 -9.236349410337e-03 0.0 
-2.270383977443e-02 -1.010930708842e-01 0.0 
1.796124091881e-02 2.359442881804e-04 0.0 
5.220495081181e-01 -6.283689506693e-01 0.0 
-1.896010249390e-02 2.014334837023e-02 0.0 
-2.997767723502e-02 5.493916733186e-03 0.0 
2.509065112622e-02 2.729171505419e-02 0.0 
2.385494926223e-02 5.104193794127e-03 0.0 
2.520116806682e-02 6.977865762670e-03 0.0 
3.575106757587e-02 3.384196581300e-04 0.0 
-4.109954747344e-02 -1.762170970772e-02 0.0 
2.701587101623e-02 2.922836166215e-03 0.0 
1.880098856600e-02 2.329634748642e-02 0.0 
1.879564591107e-02 -2.330326541105e-05 0.0 
1.678714783874e-02 -1.823959622014e-04 0.0 
1.229087539633e-02 2.186625869399e-02 0.0 
3.251994246705e-01 -1.407025677498e-01 0.0 
1.070859610778e-02 8.805377405439e-03 0.0 
-2.627230528208e-02 3.962417124471e-04 0.0 
-2.269907620941e-02 1.325196222131e-02 0.0 
5.597111114876e-02 -3.797259746733e-03 0.0 
1.599813827576e-02 4.491651940839e-05 0.0 
-3.315066709457e-02 -1.507256176094e-03 0.0 
-3.673090737699e-02 -3.773808211552e-03 0.0 
2.661496636391e-02 3.442909630171e-03 0.0 
-2.970392930766e-02 -1.391226558694e-03 0.0 
2.445350550366e-02 2.515693031368e-03 0.0 
-1.868214757794e-02 1.518455023489e-02 0.0 
2.206451071532e-02 3.355834300818e-03 0.0 
2.167454963732e-02 1.543440728492e-03 0.0 
1.253086038860e-01 -1.597142695078e-01 0.0 
1.485867474831e-02 2.467980581838e-04 0.0 
-2.011960142719e-02 2.038314374677e-02 0.0 
-2.441103652698e-02 1.393466770455e-02 0.0 
-1.245653636325e-02 2.228399722416e-02 0.0 
-3.678738706693e-02 -2.397671977817e-02 0.0 
2.215222667392e-02 2.738909444538e-03 0.0 
-6.723515398264e-02 -4.407346657621e-02 0.0 
5.020030629822e-03 1.583670875887e-02 0.0 
5.328253336405e-02 -1.622863650070e-03 0.0 
2.461012631744e-02 3.163161937881e-03 0.0 
3.879505158246e-03 1.119157612137e-02 0.0 
-2.622781619535e-02 -1.117173275891e-02 0.0 
1.753927576385e-02 1.454782808942e-03 0.0 
-3.237038214989e-02 -4.878699661669e-03 0.0 
-9.863036783224e-03 5.748948598724e-03 0.0 
-2.027992049310e-02 2.067114372966e-02 0.0 
1.212505220309e-02 1.779688004666e-02 0.0 
4.406291801280e-02 2.225599473238e-03 0.0 
-4.373060538400e-02 -8.846318007743e-03 0.0 
1.716733621875e-02 3.192161134108e-03 0.0 
5.914387170161e-02 -6.671672910411e-04 0.0 
-1.705942181224e-02 1.419541008884e-02 0.0 
1.441744421193e-02 3.584346001137e-02 0.0 
2.685821312250e-02 4.974238798465e-03 0.0 
-1.716783895234e-02 1.949048617584e-02 0.0 
-5.114602974066e-02 -1.146984880153e-02 0.0 
-1.058559991942e-02 2.581956423195e-02 0.0 
1.131915977598e-02 -1.251244811369e-04 0.0 
-9.123848472076e-03 1.061819529090e-02 0.0 
-5.403547750258e-02 -1.742501500230e-02 0.0 
1.709624828128e-02 -3.716214601170e-02 0.0 
-5.126823340630e-02 -1.315486661750e-02 0.0 
-1.821369339735e-02 1.895776857137e-02 0.0 
-3.963013563469e-02 -7.798932835507e-03 0.0 
3.655204546010e-02 -2.602918883682e-01 0.0 
1.561331617165e-02 3.349537310296e-02 0.0 
2.085139465125e-02 5.292398931649e-03 0.0 
-4.352483975714e-02 -4.448979528902e-02 0.0 
1.827130446948e-01 -7.834530448982e-02 0.0 
1.943030400071e-02 3.563211799085e-03 0.0 
-1.004840129057e-03 -5.856338447940e-02 0.0 
3.552434070358e-02 5.927179077807e-03 0.0 
2.325589802394e-02 3.070380976717e-02 0.0 
-3.685459300261e-02 -1.355913387317e-02 0.0 
-2.739303300281e-02 -2.920325392893e-02 0.0 
1.563995227062e-02 -2.597139819719e-02 0.0 
1.342596366064e-02 -6.155187427332e-04 0.0 
-6.986272671107e-02 -3.937099416373e-02 0.0 
2.631394929092e-02 1.680949707578e-02 0.0 
-6.549134446049e-02 -2.549657665740e-02 0.0 
-3.348988920442e-02 -1.486033143800e-02 0.0 
-3.655779080146e-02 -7.911159613678e-02 0.0 
-3.636019220119e-02 -5.497097407470e-03 0.0 
1.973847535130e-02 1.779584020708e-03 0.0 
-1.639076567808e-02 -1.372850238036e-01 0.0 
-5.868621412880e-02 -1.857177987299e-02 0.0 
3.689850404390e-02 8.863107950612e-03 0.0 
2.139887249431e-03 3.232012012376e-02 0.0 
-1.599772325826e-02 7.526237382045e-03 0.0 
1.879603542972e-01 -9.968753008915e-02 0.0 
-4.721484309005e-02 -1.160630010394e-02 0.0 
1.740479118918e-01 -5.596741559163e-02 0.0 
1.875663762751e-01 -1.286135927351e-01 0.0 
2.986392290392e-02 4.094480116935e-03 0.0 
2.139787535226e-02 4.628109744503e-03 0.0 
3.757481165100e-02 8.126873178493e-03 0.0 
-2.202416128876e-02 1.681921134885e-02 0.0 
-5.066309470389e-02 -1.988230967783e-02 0.0 
-7.109816439241e-02 -3.467218930549e-02 0.0 
2.857071377043e-02 6.898772573862e-03 0.0 
7.843376948030e-02 -1.689087052919e-02 0.0 
1.711595938734e-02 -2.314252285914e-02 0.0 
-5.494443209123e-02 -1.636510949312e-02 0.0 
1.941741912848e-02 1.231584211175e-03 0.0 
-3.606258525534e-02 -1.230048301949e-02 0.0 
-2.582586574808e-02 -1.734228577928e-03 0.0 
2.676018804599e-02 8.387399123493e-03 0.0 
-6.945871221617e-02 -3.021834625989e-02 0.0 
-2.571040717141e-02 6.143031365845e-03 0.0 
2.979852923616e-02 4.823906205077e-03 0.0 
3.518399616285e-02 6.728158714630e-03 0.0 
4.760844674487e-02 -1.162289552180e-01 0.0 
-1.716107256516e-02 -7.299562481634e-03 0.0 
1.597925721845e-01 -3.076442016483e-01 0.0 
-1.880760491806e-02 1.885813820543e-03 0.0 
-2.925777084701e-02 -8.356755312822e-03 0.0 
1.884460722378e-02 1.102226696584e-02 0.0 
-6.038469702624e-02 -2.059340356640e-02 0.0 
-5.900030555235e-02 -4.509247557475e-02 0.0 
1.679581836926e-02 4.698605030062e-04 0.0 
-6.663947453447e-02 -5.753377472608e-02 0.0 
-6.907147647540e-02 -3.006675220873e-02 0.0 
-6.718648999613e-02 -3.809319242991e-02 0.0 
1.838763000179e-01 -1.503540657139e-01 0.0 
1.912053784752e-02 1.536863696956e-02 0.0 
-4.218503257932e-02 -1.758961611537e-02 0.0 
-3.297392489392e-02 -1.423258200791e-02 0.0 
1.597334859823e-01 -7.754566297933e-02 0.0 
-3.983781425891e-02 -1.988869952797e-02 0.0 
-6.918383981859e-02 -3.393131881428e-02 0.0 
2.710709816224e-02 4.299731160871e-03 0.0 
-3.488863263192e-02 -2.935351663879e-03 0.0 
1.857532943001e-01 -1.346040432325e-01 0.0 
-7.125858214879e-03 1.539543029670e-02 0.0 
-1.865088037749e-02 -8.273410184604e-02 0.0 
-4.609489477956e-02 -2.386513540662e-02 0.0 
-6.792769594052e-04 1.789865114456e-02 0.0 
6.563597506567e-03 2.763829618492e-02 0.0 
-6.414214275784e-02 -3.110526594307e-02 0.0 
-6.242163481049e-02 -2.231851959883e-02 0.0 
9.672309723641e-02 -4.598346917425e-02 0.0 
8.050345326500e-02 -7.972254477907e-03 0.0 
-6.990071515703e-02 -1.049967107832e-01 0.0 
-6.913895911067e-02 -7.520117061325e-02 0.0 
-4.994231630935e-02 -3.232939905206e-02 0.0 
3.229813829390e-02 6.116311533094e-03 0.0 
-6.395632286886e-02 -4.194019848544e-02 0.0 
-1.131463922810e-02 1.707269758913e-02 0.0 
-5.537655849525e-02 -3.600762159100e-02 0.0 
1.335505011235e-02 4.525551594492e-04 0.0 
-9.349498799468e-03 2.119494878583e-02 0.0 
4.885643251444e-02 8.166199285884e-03 0.0 
3.453385851025e-02 1.013476748561e-02 0.0 
-2.623770614632e-02 -7.296347169951e-02 0.0 
-2.908890990142e-02 -1.950108126288e-02 0.0 
-7.438951204090e-02 -8.580253393496e-02 0.0 
-6.339909870790e-02 -4.813520704180e-02 0.0 
2.650302689402e-02 -5.870923051636e-02 0.0 
3.381168913144e-02 1.421049543418e-02 0.0 
5.056240381196e-02 1.082673732130e-02 0.0 
4.413239677331e-04 2.202228920997e-02 0.0 
-6.548817045609e-02 -2.616911210061e-02 0.0 
1.032948808704e-01 -5.112157495005e-02 0.0 
9.726219591589e-02 -3.322293842465e-03 0.0 
3.008732996105e-02 1.277194784649e-03 0.0 
8.935359914561e-02 -3.860147904141e-02 0.0 
1.011196334964e-01 -1.521171004054e-01 0.0 
1.441055449314e-01 -7.227625774152e-02 0.0 
5.928902593204e-03 -8.566325969100e-02 0.0 
-5.284672525239e-02 -2.329428347229e-02 0.0 
1.859225703480e-01 -1.832786063562e-01 0.0 
1.034270045931e-02 -2.485515511343e-01 0.0 
3.894523150767e-02 -8.818213065180e-02 0.0 
-2.898187567450e-02 6.230414618619e-04 0.0 
-6.578764476862e-02 -6.493964652530e-02 0.0 
-7.250105777616e-02 -7.696341712407e-02 0.0 
-4.040116859108e-03 2.364131955881e-02 0.0 
-6.986321248716e-02 -5.246164503993e-02 0.0 
-7.295105000122e-02 -9.547208832295e-02 0.0 
-6.142737290050e-02 -1.091642121800e-01 0.0 
-2.533452268507e-02 -1.146933330601e-02 0.0 
-7.582101761633e-03 -2.295931635835e-02 0.0 
3.270387650239e-02 4.585905808129e-03 0.0 
-4.185889911622e-02 -1.290813455960e-01 0.0 
-5.238915349019e-02 -1.759764786557e-02 0.0 
-1.329637289271e-02 -1.147505515411e-01 0.0 
-2.537543467550e-02 6.983710727260e-03 0.0 
-7.233502609960e-02 -6.889506294348e-02 0.0 
7.927353699168e-02 -3.018512491811e-02 0.0 
1.410184687177e-01 -4.114966822413e-02 0.0 
-5.228139993520e-03 -7.519157680835e-02 0.0 
1.046190526726e-01 -9.959904447093e-03 0.0 
4.142963985559e-02 3.085352823431e-04 0.0 
-7.697789389820e-02 -7.869144248310e-02 0.0 
2.004145291167e-01 -1.726751462251e-01 0.0 
1.118454803584e-01 -1.746004823900e-02 0.0 
1.848596512696e-01 -8.185680623082e-02 0.0 
2.319594700250e-02 -7.689490370742e-02 0.0 
1.521273888449e-02 -9.214805855148e-04 0.0 
4.315195386789e-02 -5.051263984535e-02 0.0 
-1.180477096380e-02 2.749752519802e-03 0.0 
1.163403360922e-02 -5.776073702423e-04 0.0 
-1.609828574299e-02 -1.783633311289e-02 0.0 
2.912746839895e-02 6.226630131132e-03 0.0 
3.132434433518e-02 2.091638184973e-03 0.0 
-6.946275637068e-02 -1.021330091310e-01 0.0 
2.935553393786e-02 -8.049796011547e-02 0.0 
2.356740756909e-02 -1.813404746739e-04 0.0 
-5.745354196125e-02 -2.033476879180e-02 0.0 
3.558164931620e-02 4.177692463332e-03 0.0 
-4.436710260948e-02 -3.847630101420e-02 0.0 
1.913629090960e-03 -1.068632653856e-01 0.0 
3.839415532320e-02 3.527215961337e-03 0.0 
7.647353912025e-03 -4.549936667876e-03 0.0 
-3.226118989566e-02 -1.074644259098e-02 0.0 
-5.649386443714e-02 -3.094421084367e-02 0.0 
3.187596249644e-02 6.844527821555e-03 0.0 
3.408551275829e-02 8.192609775210e-03 0.0 
-6.982475719995e-02 -5.972694463344e-02 0.0 
-6.555486262236e-02 -2.635125411820e-02 0.0 
-6.681120149917e-02 -2.821978182047e-02 0.0 
4.270048726511e-02 7.077457807400e-03 0.0 
1.704790742043e-01 -3.445700144803e-01 0.0 
-1.964593233702e-02 -1.216629856660e-01 0.0 
-5.395699708666e-02 -1.219954172424e-01 0.0 
1.888078903428e-01 -1.367865659608e-01 0.0 
1.867557265718e-02 -6.619900458275e-04 0.0 
7.104259591222e-02 -8.481691890924e-03 0.0 
1.322694647253e-02 -4.528926250995e-04 0.0 
1.610529854264e-01 -4.612921213812e-02 0.0 
4.857197696487e-02 2.446433108080e-03 0.0 
-6.209791723158e-02 -2.302160300847e-02 0.0 
1.703175519775e-02 -4.017969105603e-04 0.0 
4.576965210458e-02 5.099132783993e-03 0.0 
-6.067483565520e-02 -3.383405627107e-02 0.0 
2.051511919177e-02 -1.511358979153e-01 0.0 
3.514701579967e-02 3.254069088884e-03 0.0 
2.568519530271e-02 4.124174181762e-04 0.0 
2.657775344792e-02 2.231283386075e-03 0.0 
3.255143345363e-02 3.770101206186e-03 0.0 
-4.709649184758e-02 -1.916329663863e-02 0.0 
-8.160791570613e-03 -1.883597954794e-03 0.0 
-5.675845408948e-02 -2.256489801868e-02 0.0 
-6.424078159963e-02 -2.436788727034e-02 0.0 
1.598792625492e-01 -1.106347635746e-02 0.0 
-1.001127361239e-02 -1.094609089885e-02 0.0 
6.661946820673e-02 3.204849476265e-03 0.0 
6.306454750201e-03 2.402972547161e-02 0.0 
-3.635355639723e-02 -1.185721330231e-01 0.0 
-4.423510824250e-02 -7.912076638741e-02 0.0 
1.727798777077e-02 -5.445282012357e-02 0.0 
8.400164885407e-02 -3.694222897311e-01 0.0 
-4.386962322858e-03 -1.434676303855e-01 0.0 
6.539702172613e-03 -3.336894200242e-02 0.0 
1.356697949870e-01 -2.453232179511e-02 0.0 
-6.090931953069e-02 -2.897939787500e-02 0.0 
4.883167409768e-02 7.900379125725e-03 0.0 
3.212654482391e-02 1.045861277022e-02 0.0 
6.690054679688e-01 -3.604203287276e-01 0.0 
-6.590658904071e-02 -2.819719233046e-02 0.0 
-1.764467468256e-02 -1.283696203345e-02 0.0 
5.804089181958e-02 -6.244088317031e-03 0.0 
2.746185417176e-02 -9.423097602692e-02 0.0 
-6.354112869489e-02 -2.664894119307e-02 0.0 
3.860787438333e-02 6.483954971030e-03 0.0 
6.538419823623e-01 -2.356528468733e-01 0.0 
-1.140478375776e-02 -1.646260120819e-02 0.0 
3.522128491325e-03 -6.388158559887e-02 0.0 
1.330717229824e-01 -2.304610649093e-02 0.0 
-6.393346577180e-02 -2.587977559311e-02 0.0 
-6.955058740837e-03 -2.026008354649e-01 0.0 
-6.358798630562e-02 -2.585594474064e-02 0.0 
-4.125182324700e-02 -5.424947051210e-03 0.0 
-1.252679508579e-03 -2.388669011943e-02 0.0 
2.927336228686e-02 2.587122734852e-03 0.0 
5.808641489706e-02 -3.086509099888e-02 0.0 
-4.319835636736e-02 -1.181881488617e-02 0.0 
6.199231120839e-01 -1.651002621664e-01 0.0 
4.215179082086e-02 5.978326209312e-03 0.0 
2.656827973339e-03 -5.273550743005e-03 0.0 
2.848090668494e-02 1.832283088088e-03 0.0 
6.771833626550e-03 -4.201265997635e-02 0.0 
2.333860707764e-02 -1.305590088265e-01 0.0 
-4.041490541927e-02 1.792747662699e-03 0.0 
2.182289786862e-01 -5.633891852225e-01 0.0 
2.231057728918e-02 6.757365077066e-04 0.0 
1.812283034970e-03 2.920149220002e-02 0.0 
5.653982981807e-01 -9.706520336803e-02 0.0 
9.133962479079e-02 -4.541312457963e-02 0.0 
1.182886493747e-02 -6.949876368594e-04 0.0 
-4.556523794415e-03 -1.564788077174e-01 0.0 
1.821229595781e-01 -8.392435682281e-02 0.0 
4.216295361587e-02 4.878892586599e-03 0.0 
-5.333849753107e-02 -1.322644749575e-02 0.0 
5.849513645806e-02 -3.386491500286e-01 0.0 
2.013113590193e-01 -1.901046473101e-01 0.0 
3.498260554280e-02 -1.114265491640e-01 0.0 
3.068392346325e-05 -1.934943559885e-01 0.0 
1.184228743540e-02 -1.484203979836e-01 0.0 
1.678151433451e-02 -6.562761051411e-02 0.0 
1.002312759079e-02 -1.069363985948e-03 0.0 
4.862487364497e-01 -4.771915413760e-02 0.0 
-3.839194992562e-02 -1.517923980390e-02 0.0 
1.314806368669e-01 -2.233744965299e-01 0.0 
5.327539872997e-02 6.630087126158e-03 0.0 
1.590602585024e-01 -4.763963363406e-01 0.0 
-2.923387132385e-02 1.427293836327e-03 0.0 
1.521804753539e-02 -1.213393279142e-01 0.0 
-6.364746044767e-03 2.830114807036e-02 0.0 
3.633835370155e-03 -1.959618985888e-02 0.0 
-7.661564640220e-02 -8.587882799280e-02 0.0 
2.352989957181e-03 -9.220672568167e-03 0.0 
1.883987322079e-01 -1.346280450078e-01 0.0 
6.203820860485e-02 2.345309168255e-03 0.0 
-1.196548619803e-02 1.988972566378e-03 0.0 
3.881762604472e-02 5.550272958498e-03 0.0 
6.312491543136e-02 -7.806583260844e-03 0.0 
4.104273360478e-02 2.599379005297e-03 0.0 
4.338998758487e-02 1.405445795140e-03 0.0 
2.789960658720e-01 -3.828943493300e-01 0.0 
-4.087698064580e-02 -1.383818731506e-02 0.0 
4.546643709913e-02 3.847167252500e-03 0.0 
1.384362297033e-01 -1.482009611483e-01 0.0 
3.876046236761e-01 -1.790815903179e-02 0.0 
-1.230794387845e-02 3.452766046904e-03 0.0 
1.513071029184e-01 -3.893893593697e-01 0.0 
-2.926300548236e-03 2.721195183555e-02 0.0 
6.855333618370e-03 -1.472191405047e-02 0.0 
7.484414807233e-03 3.890059471007e-02 0.0 
1.807900106479e-01 -1.374506273245e-01 0.0 
-6.741828620605e-03 -1.102211450098e-02 0.0 
3.540483964622e-02 -3.715027899239e-04 0.0 
3.553139085930e-02 -1.508026611487e-03 0.0 
-1.805916512918e-03 -1.746599857140e-02 0.0 
3.309299641990e-02 1.412077638751e-03 0.0 
1.525023707448e-01 -1.995503286955e-01 0.0 
1.321404912986e-01 -6.600161515808e-02 0.0 
2.766788814245e-01 1.115010453138e-02 0.0 
9.242120722562e-02 -2.981629288302e-02 0.0 
1.756858362544e-01 2.251103042812e-02 0.0 
1.362026661268e-01 2.774495004078e-02 0.0 
7.142999158869e-02 -1.238967466967e-01 0.0 
1.002066171065e-01 2.394240214255e-02 0.0 
1.407433757311e-01 -1.137511645260e-01 0.0 
1.826286995829e-01 -1.703558982776e-01 0.0 
-1.249650864423e-02 -1.069040621114e-01 0.0 
5.832916710525e-02 -3.462254305733e-01 0.0 
4.888886730670e-02 -1.370378876044e-01 0.0 
2.318028830789e-02 2.933136655987e-04 0.0 
7.284024705979e-02 -1.266236273518e-02 0.0 
-4.912013817058e-02 -1.541052619378e-02 0.0 
-5.736249925160e-03 -3.033382530612e-03 0.0 
-7.473922557617e-02 -9.268468072859e-02 0.0 
3.972074909375e-02 1.512004302677e-03 0.0 
5.585949255797e-03 -1.081318177422e-01 0.0 
-3.328646703482e-02 -1.006615067152e-02 0.0 
3.757715031755e-02 2.499667911528e-03 0.0 
5.266179695232e-02 2.083552408989e-03 0.0 
-9.582478565629e-03 -3.092335615436e-02 0.0 
1.053582418350e-01 -1.743806247847e-01 0.0 
7.979619135463e-02 -3.799063288112e-02 0.0 
1.344819338285e-01 -3.478295621160e-02 0.0 
3.424181956892e-02 -2.976814560869e-01 0.0 
1.311212805971e-01 -3.944922882664e-01 0.0 
1.880184815923e-01 -1.361139529977e-01 0.0 
1.755826485738e-01 -7.620706665535e-02 0.0 
-2.629598250956e-02 -7.024893987507e-03 0.0 
4.932644196810e-02 3.800779862820e-03 0.0 
7.694902048910e-02 -1.669692034623e-01 0.0 
1.640704514477e-01 -7.588213197570e-02 0.0 
-1.221937374292e-02 -6.447016661951e-03 0.0 
2.473898531599e-02 8.987359351861e-04 0.0 
7.415717315919e-02 -3.236709030755e-02 0.0 
5.656200714172e-02 8.175198536448e-03 0.0 
-3.169292606164e-02 -4.095010605297e-03 0.0 
1.098961691175e-02 -9.261271732899e-02 0.0 
-1.515927282787e-02 -6.964155891849e-03 0.0 
1.836752944938e-01 -1.302220067267e-01 0.0 
2.622984621387e-02 -1.553314940129e-04 0.0 
6.457283847594e-02 -2.482045488263e-02 0.0 
-5.774156557607e-03 -5.118858312136e-02 0.0 
1.299312694354e-01 -4.178769913163e-01 0.0 
4.333766887186e-02 -2.363564081183e-02 0.0 
1.683161998020e-01 -1.258902633418e-01 0.0 
1.321034623836e-01 -2.002085267294e-01 0.0 
-3.020924858639e-03 -4.049444788938e-02 0.0 
-5.781867625104e-02 -2.140346040053e-02 0.0 
1.073111999772e-01 -4.071190931178e-01 0.0 
-3.760891653274e-04 -7.713367650230e-02 0.0 
1.061393903165e-01 -1.318636184688e-02 0.0 
-2.441832287310e-02 -5.731790739837e-03 0.0 
1.131376996693e-01 -2.118764134504e-02 0.0 
6.342901187381e-02 -3.011852557930e-02 0.0 
9.918185075609e-02 -6.407501980228e-03 0.0 
8.447526734591e-02 4.875710486819e-03 0.0 
1.430854841955e-01 -4.632307278439e-02 0.0 
-4.702966099072e-03 -5.293815820195e-03 0.0 
-4.657220364050e-02 -1.589343230272e-02 0.0 
5.355364905899e-02 5.100870403310e-03 0.0 
3.206077187421e-02 -1.090327772150e-03 0.0 
9.200983537152e-02 -3.403930430629e-04 0.0 
1.251340447748e-01 -2.736259849884e-01 0.0 
3.425169759342e-02 -1.586295331883e-02 0.0 
1.898798956776e-02 -3.081794070301e-04 0.0 
1.739447491632e-01 -1.469843992899e-01 0.0 
1.730377983046e-01 -1.336597880084e-01 0.0 
1.048596583331e-01 -2.221155765773e-01 0.0 
5.760654604321e-02 3.087071439038e-03 0.0 
1.722339565451e-01 -5.986028614434e-02 0.0 
1.098918809780e-01 -9.246745218864e-02 0.0 
1.779796003655e-01 -6.960367323208e-02 0.0 
6.122087366317e-03 -1.690968741853e-02 0.0 
1.400319559154e-02 -3.608621146324e-03 0.0 
4.618962143565e-02 -1.821837586853e-01 0.0 
1.776006296504e-01 -5.381690385517e-01 0.0 
4.331093531336e-02 -3.070993036002e-03 0.0 
1.640677932719e-01 -5.198338026129e-02 0.0 
-6.375247457666e-02 -9.086206508458e-02 0.0 
2.079033947251e-02 -9.218798548816e-03 0.0 
5.774393314665e-02 4.750042678619e-03 0.0 
-5.520615440805e-02 -2.054947619016e-02 0.0 
1.782495688554e-01 -1.907083666573e-01 0.0 
1.947922018022e-01 -5.635608734850e-01 0.0 
-1.790438435538e-02 -3.793595190187e-03 0.0 
1.804483849443e-01 -8.722894755596e-02 0.0 
3.487109923770e-02 -4.020402227236e-02 0.0 
5.218599875837e-02 -2.355676757911e-02 0.0 
2.878773177796e-01 -6.639319428431e-01 0.0 
-5.822913282783e-02 -2.276483188173e-02 0.0 
2.066483874567e-01 -2.388279651510e-01 0.0 
6.076530781781e-02 7.842895230530e-03 0.0 
-5.483608669534e-02 -1.321425099574e-02 0.0 
7.707326250391e-02 -1.915381854544e-01 0.0 
-3.122733273757e-02 -8.353987686133e-03 0.0 
1.533825343425e-01 -1.166953094531e-01 0.0 
1.017923060702e-01 -2.473491527565e-01 0.0 
1.729557794721e-01 -8.358097270103e-02 0.0 
1.666988035849e-01 -5.124795263960e-01 0.0 
1.392746051775e-01 -7.134925446758e-02 0.0 
1.270397463684e-03 -1.402203330905e-02 0.0 
6.001163195022e-02 -2.015775532967e-02 0.0 
8.599980750799e-02 -4.098717056365e-02 0.0 
1.131165234310e-01 -3.463619482915e-01 0.0 
-4.597570244297e-02 -1.280205417104e-02 0.0 
1.660106165067e-02 -6.697252256063e-04 0.0 
-9.315803189515e-03 4.313277385481e-03 0.0 
2.223919207570e-03 -1.194484187832e-02 0.0 
1.499461205857e-01 -1.813195958531e-01 0.0 
1.616956853961e-01 -8.146548978681e-02 0.0 
-2.037764015341e-02 -3.435773616424e-03 0.0 
-1.273898270733e-02 1.955507059456e-02 0.0 
1.100144781824e-01 -5.494020749774e-02 0.0 
4.935140664453e-02 6.581962117163e-03 0.0 
-3.858102710864e-02 -1.179030489761e-02 0.0 
-5.427733633905e-02 -2.181379138713e-02 0.0 
1.326458520920e-02 8.059798257072e-03 0.0 
8.863913984076e-03 7.681339999048e-03 0.0 
1.016662152145e-01 -1.246414918665e-02 0.0 
1.511221934806e-01 -7.786429807058e-02 0.0 
-4.885958908246e-02 -7.252120416160e-03 0.0 
1.381198664154e-01 -4.447677226504e-02 0.0 
1.516105006046e-01 -1.266341241492e-01 0.0 
-1.726172455214e-02 5.442049525074e-03 0.0 
1.643881221723e-01 -1.804121733494e-01 0.0 
8.195670603962e-03 -7.962254136373e-04 0.0 
8.287849793096e-02 8.830465744302e-03 0.0 
1.689712577186e-01 -1.373477937428e-01 0.0 
-5.867790278538e-02 -1.788068208915e-02 0.0 
1.530291771955e-01 -3.620706577984e-01 0.0 
-5.740435287614e-02 -2.226223041230e-02 0.0 
1.676003881689e-01 -8.421555986946e-02 0.0 
1.653006977002e-01 -6.658458424045e-02 0.0 
6.166898349372e-02 5.946956095549e-03 0.0 
1.394295622972e-01 -4.924971349848e-02 0.0 
1.335738940364e-01 -4.693059288962e-02 0.0 
2.352383495444e-02 2.825107688789e-02 0.0 
-5.352272981591e-02 -1.946696143699e-02 0.0 
1.705119128382e-01 -5.947916910619e-02 0.0 
1.238702879111e-01 -2.751839122285e-02 0.0 
1.191857826738e-01 -2.627148350890e-02 0.0 
-1.002721109539e-02 5.568912267241e-04 0.0 
2.129927854721e-03 4.200097740010e-02 0.0 
8.384455349714e-02 -3.946746437094e-01 0.0 
1.838755123685e-01 -1.064909670104e-01 0.0 
-4.977638171772e-02 -1.313886501068e-02 0.0 
1.439900702516e-01 2.034091567896e-02 0.0 
1.101390018524e-01 2.169657034493e-02 0.0 
6.611285599217e-02 5.143525163979e-03 0.0 
3.621694250758e-01 -4.108420188473e-01 0.0 
-5.240063403263e-02 -1.082085911503e-02 0.0 
-2.290471085946e-02 -1.489887068393e-02 0.0 
1.073200739730e-01 -4.247951665514e-01 0.0 
1.012878509397e-03 -9.305680519345e-04 0.0 
3.451546979296e-02 5.735248230968e-04 0.0 
-4.152352262375e-02 8.241083164551e-04 0.0 
-4.113181437573e-02 -1.123707786253e-02 0.0 
4.069570342897e-02 1.986608941100e-02 0.0 
-3.654701683296e-02 -2.756622340727e-02 0.0 
1.792529073110e-01 -9.566189650284e-02 0.0 
3.606281093904e-02 1.916504811274e-02 0.0 
3.135330040634e-02 5.733092529389e-04 0.0 
1.333732707260e-01 -4.647668824299e-01 0.0 
1.300896915847e-01 -3.328988757104e-02 0.0 
1.723403366326e-01 -7.509805630223e-02 0.0 
-5.782682551446e-02 -1.016476233802e-01 0.0 
-7.661957551398e-02 -6.175034043296e-02 0.0 
3.215990807471e-02 -2.130717567074e-04 0.0 
-7.318394994230e-02 -4.636883289480e-02 0.0 
1.720589032159e-01 -1.187990812111e-01 0.0 
1.796657855644e-01 -1.193399852798e-01 0.0 
6.657233680967e-01 -4.135503366682e-01 0.0 
1.380303271162e-01 -4.853967671617e-01 0.0 
5.495426156439e-02 -2.401139053611e-02 0.0 
8.195751340871e-02 4.017300729146e-03 0.0 
4.052569330920e-02 -1.698526846269e-02 0.0 
2.089232933818e-01 -2.202115656203e-01 0.0 
7.993652757961e-02 -7.446505045484e-03 0.0 
4.853508457309e-02 -2.105349168674e-02 0.0 
9.797848930803e-02 1.349838597220e-02 0.0 
5.885020380697e-02 -2.535295260235e-02 0.0 
-3.827048527350e-02 -8.993938623194e-03 0.0 
1.552603037727e-01 -8.805043185920e-02 0.0 
-5.710262602131e-02 -1.872632245177e-02 0.0 
-6.000657861292e-02 -2.098716516447e-02 0.0 
4.779696375458e-02 -4.028742979069e-03 0.0 
-7.875222130590e-02 -7.265482546640e-02 0.0 
1.713880421648e-01 -7.916737161475e-02 0.0 
9.831800272823e-02 -1.067145577285e-01 0.0 
-6.667274488239e-02 -3.092300876434e-02 0.0 
1.667861400853e-01 -1.511496994186e-01 0.0 
9.065416766606e-02 -3.167542138993e-01 0.0 
-2.339222992234e-02 -6.433405198281e-02 0.0 
1.207349117673e-01 -2.991340113630e-01 0.0 
1.316606086938e-01 -3.781029906421e-02 0.0 
9.412627396813e-02 -2.952112344936e-01 0.0 
1.502550760026e-01 -5.369794547743e-02 0.0 
-6.730100858083e-03 -3.614106592102e-03 0.0 
-4.654905454075e-03 -7.377478540746e-03 0.0 
1.709850657597e-01 -1.634605317400e-01 0.0 
6.959437171198e-02 6.131585106308e-03 0.0 
-3.366056370916e-02 -7.835002672881e-03 0.0 
-3.103040401905e-02 -6.021599139393e-03 0.0 
5.006691417297e-01 -4.941887210719e-01 0.0 
1.512368825822e-01 -5.862121858195e-02 0.0 
-1.951315603089e-02 -4.704429439037e-03 0.0 
3.019296172735e-01 -5.406893173246e-02 0.0 
-4.285362662890e-02 -9.980291457040e-04 0.0 
6.724236389882e-01 -3.983087515096e-01 0.0 
-2.671951341100e-02 -5.247480904976e-03 0.0 
1.356767837668e-01 -3.456287241909e-01 0.0 
-1.082510021622e-02 1.824249376622e-02 0.0 
4.310742215097e-02 -4.384421881097e-02 0.0 
7.418928009046e-02 4.864447415657e-03 0.0 
7.718053153857e-02 5.648430385407e-03 0.0 
1.719064620574e-01 -9.851041061861e-02 0.0 
2.323455186179e-01 7.739930860912e-03 0.0 
1.838748887039e-01 1.300703102234e-02 0.0 
-2.428760236682e-02 -3.862298030414e-03 0.0 
-7.130324702049e-02 -5.477559388137e-02 0.0 
-5.715425319419e-02 -8.090546882746e-02 0.0 
-2.839219702564e-02 -2.358187417210e-02 0.0 
-2.221063681495e-02 -9.124294873290e-02 0.0 
1.398230658011e-01 -3.199437666681e-01 0.0 
2.232404473657e-01 1.535684176608e-02 0.0 
8.122727846821e-02 7.536880221859e-03 0.0 
1.122591435056e-02 8.405297014538e-03 0.0 
-7.227379655291e-03 -6.507751020165e-03 0.0 
1.604174898418e-01 -1.660870465107e-01 0.0 
-1.136486714762e-02 3.900457915693e-03 0.0 
-1.077077236398e-02 1.160100775149e-03 0.0 
-1.549388499200e-02 -7.699166353697e-02 0.0 
-1.618093631262e-02 -4.438124559871e-03 0.0 
3.861901028413e-02 -2.444010734009e-01 0.0 
-5.397194855354e-03 8.165127347184e-04 0.0 
1.689221847664e-01 -1.087985770574e-01 0.0 
1.145004643435e-01 -7.328032179466e-02 0.0 
-2.672952365681e-02 3.260946511259e-03 0.0 
-4.770279441825e-02 -3.754467283460e-02 0.0 
1.615232285283e-01 -6.962285116160e-02 0.0 
-3.785761109213e-02 -9.139935513404e-02 0.0 
1.618011803130e-01 -6.439461873887e-02 0.0 
2.018253690919e-01 -2.096476205560e-01 0.0 
6.621483001317e-02 -4.861157978488e-02 0.0 
-4.485110698163e-02 -1.039696158697e-01 0.0 
-5.284084363303e-02 -1.115503376839e-02 0.0 
1.547404365729e-01 -5.565902994558e-02 0.0 
6.469192792336e-01 -6.247899096718e-01 0.0 
5.993621551249e-02 -6.928447348482e-02 0.0 
6.478278406691e-01 -3.895577486623e-01 0.0 
4.044173420556e-02 1.550098478865e-02 0.0 
-4.689898434687e-02 -4.766841317004e-03 0.0 
1.245485828185e-01 -5.842444428175e-02 0.0 
8.376599381867e-02 1.632742156209e-03 0.0 
3.420176648835e-01 -1.664934451104e-02 0.0 
4.389141119105e-03 -4.354291249158e-04 0.0 
6.494520715463e-01 -5.298737968702e-01 0.0 
2.861537574244e-01 -1.943615854059e-04 0.0 
-6.010496135134e-02 -7.224179996412e-02 0.0 
-3.637854034608e-02 5.323976716564e-03 0.0 
1.352568833097e-01 -6.528303494288e-03 0.0 
-4.712511420102e-02 -1.480543401805e-01 0.0 
-7.640484643005e-02 -7.008054448118e-02 0.0 
1.677465483874e-01 -9.071204884016e-02 0.0 
4.065697794346e-02 -4.821892900801e-02 0.0 
1.075087574704e-01 -3.480756131068e-02 0.0 
4.133322000512e-01 -4.703691179927e-01 0.0 
-4.550804572123e-02 -3.476189963467e-03 0.0 
-3.477515728777e-02 5.619320653621e-03 0.0 
-1.138523295697e-02 -1.025975044862e-02 0.0 
8.355898306809e-02 1.262660193145e-02 0.0 
8.876111233605e-02 -5.528367154713e-04 0.0 
-3.824556437252e-03 6.462835878455e-03 0.0 
3.872619983168e-02 1.877109099401e-02 0.0 
3.593380103121e-01 -7.370209392035e-01 0.0 
2.497404420034e-02 -8.735021244164e-03 0.0 
-3.072711426200e-02 8.466104448334e-03 0.0 
1.434584174648e-02 -1.905469321074e-01 0.0 
-3.281526189251e-02 -1.722734821410e-01 0.0 
6.295193193749e-02 -2.993799644066e-01 0.0 
-4.083103210504e-02 -2.201815155961e-04 0.0 
9.628222767470e-02 -8.931391777478e-03 0.0 
-2.873979564607e-02 8.195720092037e-03 0.0 
4.394161335283e-02 -2.050041117228e-01 0.0 
1.554442913678e-01 -6.581053547283e-02 0.0 
4.835927125718e-02 1.270060854072e-02 0.0 
2.301481903614e-02 -2.536188071152e-02 0.0 
-2.469746230926e-02 1.043210137533e-02 0.0 
-3.678892783710e-02 2.865939229864e-03 0.0 
4.464180340628e-01 -4.667922867378e-02 0.0 
-2.907254441848e-02 -1.487628793935e-01 0.0 
-2.235965608463e-02 9.720435182478e-03 0.0 
1.848881413386e-03 1.673485419126e-03 0.0 
2.080439564641e-03 3.062616955134e-03 0.0 
3.966325499185e-01 -3.264682460198e-02 0.0 
-3.443371767076e-02 3.032010094742e-03 0.0 
-5.756140185023e-02 -1.159566039889e-01 0.0 
5.967209838631e-01 -3.447988879734e-01 0.0 
-8.597867821749e-03 1.286879859349e-03 0.0 
3.164864120923e-02 -3.084565959803e-02 0.0 
-6.123984578155e-02 -1.045528908822e-01 0.0 
8.480138651675e-02 -8.938324275174e-02 0.0 
3.328309917287e-01 -9.581458302653e-04 0.0 
-1.829903103460e-02 1.140308886984e-02 0.0 
4.172444916097e-04 4.138767243231e-02 0.0 
8.022573614121e-02 1.126135388953e-02 0.0 
-3.043262850550e-02 5.515007162202e-03 0.0 
-7.262949116819e-02 -8.893032548200e-02 0.0 
-4.844478623473e-02 -6.276362788523e-03 0.0 
5.654703871676e-01 -7.156950260412e-01 0.0 
2.198998043554e-03 -8.885441589662e-04 0.0 
-6.424375745737e-02 -1.169383669871e-01 0.0 
-1.331366882068e-02 1.431915347942e-03 0.0 
9.340992867895e-02 -6.617994385827e-02 0.0 
-2.786856673878e-02 5.184401284491e-03 0.0 
-2.383792765472e-02 7.153448021476e-03 0.0 
1.229013777237e-02 -2.075898384230e-01 0.0 
7.666581737589e-02 -5.087970928313e-02 0.0 
6.079638414720e-01 -6.486999217255e-01 0.0 
-2.108658008655e-02 6.425690906262e-03 0.0 
-2.192149124470e-02 3.050625544986e-03 0.0 
-4.935639481569e-02 -7.494555192060e-02 0.0 
1.522489621256e-01 -6.939562784464e-02 0.0 
3.567628838063e-01 -7.689839001081e-02 0.0 
1.453769866569e-01 -5.601928712236e-02 0.0 
-1.485720298915e-02 -5.559614669826e-03 0.0 
4.747624528370e-01 -8.018118754019e-01 0.0 
3.104356080961e-04 -2.428997842372e-04 0.0 
-8.621036611811e-04 -3.632891718739e-04 0.0 
1.343293438489e-03 5.600682101013e-03 0.0 
-6.728907327682e-02 -8.418381330238e-02 0.0 
1.455697440207e-01 -9.067180774089e-02 0.0 
7.175790215818e-02 -2.395921146711e-01 0.0 
4.731984883370e-02 1.251399831857e-02 0.0 
6.685525393392e-01 -4.830216721332e-01 0.0 
9.220763861168e-03 -8.507827325091e-04 0.0 
9.531820086011e-02 -6.101201970843e-03 0.0 
8.446959731360e-02 1.736377070000e-02 0.0 
-2.099965132727e-03 1.946431351187e-03 0.0 
2.711769563518e-03 4.235987396961e-02 0.0 
-2.595856686172e-03 3.044522521651e-03 0.0 
9.014982298444e-02 -3.228437505488e-03 0.0 
-5.753606884358e-02 -5.154056296491e-02 0.0 
1.550717113445e-01 -1.036215911606e-01 0.0 
-6.180663095407e-02 -8.199357015371e-02 0.0 
5.751391039141e-01 -2.801353417013e-01 0.0 
-5.269601923549e-02 -6.640108133464e-02 0.0 
1.023223319741e-01 -1.565157112986e-02 0.0 
-1.079368529430e-02 -5.790626518524e-05 0.0 
-6.418319285773e-02 -1.178775097304e-01 0.0 
1.440258026196e-01 -5.992342025629e-02 0.0 
4.356678952239e-01 -7.425808279681e-01 0.0 
-3.151786106386e-02 -1.588678686521e-01 0.0 
8.083604400719e-02 -5.453795183378e-03 0.0 
-4.080494569648e-02 -3.316842943936e-02 0.0 
-3.738978332888e-02 -5.678582966308e-02 0.0 
1.432747643344e-01 -1.044271414256e-01 0.0 
3.161302054884e-02 -2.135946427912e-01 0.0 
5.375142323364e-01 -9.089723942106e-02 0.0 
4.971855391096e-01 -6.369868908735e-02 0.0 
-2.869383488844e-02 -3.346166349788e-02 0.0 
-7.009309604263e-02 -7.554629151301e-02 0.0 
1.470403521631e-01 -1.372236541808e-01 0.0 
1.466903693027e-01 -6.611044408769e-02 0.0 
7.646201074292e-02 -2.014396243967e-02 0.0 
4.395074802263e-01 -3.303126612516e-02 0.0 
3.363499571109e-03 4.929635869988e-04 0.0 
3.881823344129e-02 -1.249748741856e-02 0.0 
6.849100306359e-02 -2.619461700337e-01 0.0 
6.547048364631e-01 -3.617172096229e-01 0.0 
2.952971962172e-01 -6.311857281425e-02 0.0 
-7.849138638099e-02 -7.884519051067e-02 0.0 
1.271151353968e-01 -4.043176266289e-02 0.0 
-7.601940447701e-02 -8.227822077377e-02 0.0 
4.908686479761e-01 -5.877895955974e-01 0.0 
-6.128489165673e-02 -6.004292814178e-02 0.0 
5.474800695736e-01 -2.237238678344e-01 0.0 
1.292580176990e-01 -1.316484011399e-01 0.0 
-7.021770307076e-02 -6.953898026470e-02 0.0 
1.126822613461e-01 -8.437698006949e-02 0.0 
1.303755008459e-02 2.641060823681e-03 0.0 
-2.450638679644e-02 -2.354535043789e-02 0.0 
6.139818910638e-01 -3.895424297109e-01 0.0 
-6.215570652254e-02 -5.360974580668e-02 0.0 
5.089859213707e-01 -1.996401257985e-01 0.0 
3.917326304873e-01 -7.836883602668e-01 0.0 
8.033914022772e-04 -1.089989580962e-03 0.0 
1.103473539607e-03 -9.261791979766e-04 0.0 
1.197325831215e-01 -4.476703345868e-02 0.0 
-5.413838875353e-02 -4.267540644662e-02 0.0 
5.485342144733e-03 -9.239678510516e-03 0.0 
-1.888003362550e-03 -6.127260858522e-03 0.0 
1.287414302080e-01 -5.662061611152e-02 0.0 
9.193853660104e-02 -7.536143575957e-02 0.0 
1.364672873650e-01 -6.531164819666e-02 0.0 
-4.668264153211e-02 -1.440967880095e-01 0.0 
2.533497467308e-02 1.045656010642e-02 0.0 
-1.384628488944e-02 -7.087148677849e-03 0.0 
1.581622941416e-02 -5.508578704599e-03 0.0 
-1.168027063610e-02 -2.456509268692e-03 0.0 
1.368382041270e-01 -1.223446844585e-01 0.0 
1.734377740852e-02 3.574697915223e-02 0.0 
1.202561235895e-01 -3.031709086380e-02 0.0 
-8.308231685332e-03 -1.600583115402e-01 0.0 
1.066552319338e-01 -9.236461866263e-02 0.0 
-1.366418046456e-02 -1.966542684323e-01 0.0 
-2.015797447486e-03 8.293916195174e-03 0.0 
1.080877263869e-01 -2.010137689612e-02 0.0 
4.466060225101e-02 -3.633631708631e-02 0.0 
-7.244736606509e-03 1.959128533627e-02 0.0 
1.334910838479e-01 -5.109754245224e-02 0.0 
1.794659819928e-02 -1.871107299061e-02 0.0 
-4.148284371734e-02 -4.977458480975e-02 0.0 
5.210084674416e-04 4.024331317174e-02 0.0 
1.055392534515e-01 -9.943811644076e-02 0.0 
9.800524025719e-04 2.366015030028e-03 0.0 
1.172525971299e-01 -1.376707541469e-01 0.0 
1.592532907669e-02 -5.906833491070e-03 0.0 
4.542709585209e-02 -8.570807438471e-03 0.0 
4.615065260312e-03 4.549090282263e-03 0.0 
1.747099606932e-02 -9.785252048301e-04 0.0 
5.319486170091e-02 -1.663849084719e-02 0.0 
-5.633542285718e-02 -1.269058703973e-01 0.0 
-6.610181045879e-02 -1.060793794048e-01 0.0 
-1.072683802484e-02 4.443501547014e-03 0.0 
4.677112057485e-01 -8.467487857226e-01 0.0 
5.818417087968e-04 4.234533214451e-02 0.0 
-5.473592416092e-03 1.812738567779e-02 0.0 
-3.729391662297e-02 -3.860910398406e-02 0.0 
-5.495750459618e-02 -1.314081480927e-01 0.0 
6.030961395111e-01 -1.552098921871e-01 0.0 
5.747145968877e-01 -1.197726903469e-01 0.0 
4.188627098580e-02 1.105977885076e-02 0.0 
-1.280925230481e-02 -1.872062071144e-01 0.0 
-1.151019458955e-03 3.336028397121e-02 0.0 
4.512625865085e-02 -3.146322175359e-02 0.0 
-6.274201267047e-03 -2.508988341960e-03 0.0 
-7.111238066978e-03 -3.285374076063e-03 0.0 
-6.921270990263e-02 -9.561561420119e-02 0.0 
5.272516042873e-02 1.480345910149e-02 0.0 
3.797068254285e-01 -7.201603021416e-01 0.0 
6.452393775655e-01 -2.377883197373e-01 0.0 
5.593176295912e-02 -2.623133698348e-01 0.0 
6.243247755051e-01 -1.976937594972e-01 0.0 
8.946005517592e-02 -8.244384379413e-02 0.0 
-5.267395178135e-02 -8.851023013272e-02 0.0 
-5.671733092644e-02 -1.318025653116e-01 0.0 
1.954094990023e-01 -4.652345281837e-01 0.0 
2.504284298518e-03 -1.021645154226e-03 0.0 
-5.886830290264e-02 -9.189888253001e-02 0.0 
7.963472285825e-03 -9.106999054139e-04 0.0 
6.727660214564e-03 -4.936871341197e-04 0.0 
9.335719870781e-04 -5.202167479429e-04 0.0 
-1.918235673159e-03 -6.874657338651e-04 0.0 
2.443680600559e-03 4.672474719345e-03 0.0 
-5.895190425258e-02 -7.006044717046e-02 0.0 
5.327278395623e-01 -6.896232211110e-02 0.0 
-6.108303223328e-02 -6.198916623117e-02 0.0 
-2.714707410978e-03 -9.495691629577e-04 0.0 
6.676054322204e-01 -3.464667632434e-01 0.0 
6.559874707911e-01 -2.680217596655e-01 0.0 
-1.068235757634e-02 8.600502734668e-04 0.0 
4.087803211136e-02 1.239400117999e-02 0.0 
4.726051853454e-03 -1.041054148244e-03 0.0 
1.379955680714e-01 -5.732079619503e-02 0.0 
7.350546528561e-03 -7.080185747968e-03 0.0 
1.082280913640e-01 -3.158625205734e-02 0.0 
1.555072827487e-02 5.101574269597e-03 0.0 
-2.352626690575e-02 -3.881719619398e-02 0.0 
-2.803328825182e-02 -5.097588153348e-02 0.0 
4.242179686739e-03 1.063525795057e-03 0.0 
1.841262337972e-02 -1.453256234739e-02 0.0 
6.587643058542e-02 2.214001261705e-02 0.0 
8.621775102249e-03 6.647813788290e-03 0.0 
1.010920362727e-02 5.254590648335e-03 0.0 
1.787202701713e-02 5.607114683504e-03 0.0 
1.274891778233e-01 -4.561332526416e-01 0.0 
-1.308508929559e-02 -3.286781795221e-02 0.0 
7.130262224554e-03 -8.340820522280e-04 0.0 
1.688404257336e-02 3.855041357278e-03 0.0 
-7.140092178982e-03 3.009970998335e-03 0.0 
8.418180982640e-02 -2.754403012718e-02 0.0 
1.265115459360e-01 -3.608441007092e-02 0.0 
2.636416096101e-02 -7.509815173342e-04 0.0 
-1.727011832070e-02 2.323785215138e-02 0.0 
-1.288490034560e-02 2.594764866227e-02 0.0 
-2.534603863377e-02 -1.207529421330e-02 0.0 
2.505544495142e-01 -4.862284928592e-01 0.0 
2.346443213144e-03 3.983828916018e-02 0.0 
-1.075336989970e-03 1.595441369644e-03 0.0 
7.604718004393e-03 2.374210799154e-02 0.0 
1.055861543997e-02 6.272705190946e-03 0.0 
-1.611026207711e-02 7.708858472240e-03 0.0 
7.258621340972e-02 -1.101671663486e-02 0.0 
5.870590071792e-02 8.447768986608e-03 0.0 
4.606663917981e-03 -5.253348470020e-04 0.0 
3.664050796479e-02 1.244566376529e-02 0.0 
1.096487859186e-02 -8.298142053806e-04 0.0 
-1.271059097594e-02 5.211607089926e-03 0.0 
3.199389375680e-02 1.135613224715e-02 0.0 
4.379822844641e-01 -8.375163793122e-01 0.0 
1.631310242485e-03 -8.716081523071e-04 0.0 
3.886282539655e-02 1.901084709198e-02 0.0 
1.201491687328e-02 -7.921148852740e-04 0.0 
-2.313784136038e-03 -7.154379162981e-04 0.0 
6.394112047998e-02 -1.089467149453e-02 0.0 
8.787969664029e-02 -4.036919207669e-01 0.0 
5.842068160563e-02 1.465249593519e-02 0.0 
-1.042004350944e-02 2.891982919718e-02 0.0 
3.730880648511e-02 -2.966391799047e-02 0.0 
-3.573721255162e-03 1.564816527494e-03 0.0 
3.978455812557e-03 1.787906729276e-05 0.0 
-3.830375216704e-03 1.322718133060e-03 0.0 
2.019889803627e-01 -5.257997584090e-01 0.0 
-1.296321900386e-02 -4.234713802832e-03 0.0 
3.555184878280e-02 -2.869143623460e-01 0.0 
2.770976093203e-02 2.650370802278e-02 0.0 
-1.283268628466e-02 6.613152132871e-03 0.0 
2.482738522067e-02 -2.138829003089e-03 0.0 
1.034409356105e-02 -9.230018737811e-04 0.0 
2.368032552760e-02 8.368448118503e-03 0.0 
7.677034965887e-02 8.784195976929e-03 0.0 
5.606063134273e-01 -3.176142118975e-01 0.0 
5.713787019122e-02 -2.108014856974e-02 0.0 
-5.328924050016e-03 3.437238493102e-02 0.0 
5.846202512226e-01 -5.494601812800e-01 0.0 
2.412010813449e-02 -2.044652667711e-02 0.0 
2.011780021714e-02 9.587265102969e-03 0.0 
3.243882328124e-02 -2.219912416884e-03 0.0 
1.306083226703e-04 -4.716989078767e-04 0.0 
1.306083226703e-04 -2.112795728602e-04 0.0 
5.616207190810e-03 2.044640234886e-03 0.0 
2.428989531383e-03 4.684516937906e-03 0.0 
1.073802920064e-03 7.353177730866e-03 0.0 
2.585559170219e-03 8.015001191457e-03 0.0 
-3.363101117944e-04 -2.581599746309e-04 0.0 
-3.363101117944e-04 -5.197619876153e-04 0.0 
8.091857650569e-03 3.920152551681e-03 0.0 
3.875329956370e-01 -5.987793593607e-01 0.0 
-1.413195067341e-02 -3.149575563229e-03 0.0 
1.837209217692e-02 -4.476032848783e-03 0.0 
3.182065904387e-02 2.453618475896e-02 0.0 
-2.040603501364e-02 -7.362167435073e-03 0.0 
-3.374706540901e-03 1.457504754743e-02 0.0 
-3.133322424629e-03 2.328701872649e-02 0.0 
1.139713156808e-02 2.660619361815e-03 0.0 
4.905116786188e-02 -1.564494600062e-01 0.0 
5.900616858767e-02 -4.830315992776e-02 0.0 
4.220470436018e-02 1.987620313341e-02 0.0 
-1.703637807180e-02 2.232560340736e-02 0.0 
7.593730531383e-02 -2.917052274574e-02 0.0 
4.680876499297e-04 -1.055526652142e-03 0.0 
-6.134868288714e-03 2.239106425143e-02 0.0 
7.535217858044e-03 3.807550496595e-03 0.0 
3.045518985955e-02 -1.464721264162e-02 0.0 
1.141505655698e-01 -3.977478442816e-02 0.0 
1.210823036721e-01 -3.833215855779e-02 0.0 
2.740945003670e-02 1.029726817037e-02 0.0 
5.767927358546e-02 -5.496362216690e-02 0.0 
4.496045364352e-02 -5.160497204836e-03 0.0 
2.485432940849e-03 3.762799550451e-02 0.0 
1.133656791572e-01 -3.727524247628e-02 0.0 
4.395156433201e-02 -2.005749764463e-02 0.0 
-9.957721540252e-03 -2.441220024778e-03 0.0 
7.277833097973e-02 -1.658399753183e-01 0.0 
5.888758508514e-03 1.259736858938e-03 0.0 
-8.012140072083e-03 -2.102886709904e-03 0.0 
3.554668079498e-02 -1.393518655295e-02 0.0 
2.301576602398e-02 -8.540777837962e-03 0.0 
-4.160102314720e-03 1.040885751079e-02 0.0 
5.785705446019e-01 -7.836925383512e-01 0.0 
6.000978809291e-01 -1.289200478299e-01 0.0 
4.979331951444e-01 -2.151630099301e-01 0.0 
6.223583825188e-02 1.350359766616e-02 0.0 
6.545754250841e-02 -5.685597969123e-02 0.0 
9.184891808219e-03 -8.752732941364e-04 0.0 
-8.748301004119e-03 3.183328075420e-03 0.0 
1.289281214919e-01 -1.145725438488e-01 0.0 
1.031610867764e-01 -4.252095512292e-02 0.0 
6.412389257346e-01 -2.166775814136e-01 0.0 
9.598375669685e-03 1.008929607259e-03 0.0 
-4.917069169946e-03 3.133085228228e-02 0.0 
2.580859802566e-02 -1.311608165653e-03 0.0 
2.312282155223e-02 3.159287946741e-02 0.0 
-1.264287509484e-02 4.342983342055e-03 0.0 
3.887927703747e-02 1.018578040769e-02 0.0 
-5.777091947730e-03 3.704336776938e-03 0.0 
3.674072934870e-02 -2.313863323715e-02 0.0 
6.944429993882e-02 1.136122779960e-02 0.0 
-1.326760057071e-02 1.593733329471e-03 0.0 
2.042293359760e-02 -1.449717855079e-03 0.0 
1.343477615851e-03 -9.530096004614e-04 0.0 
6.617800061075e-01 -2.966907768247e-01 0.0 
2.359626848680e-02 -6.930256844819e-04 0.0 
1.361744438892e-02 -2.840774693016e-03 0.0 
-1.236374871754e-02 4.541492496404e-03 0.0 
2.321579242820e-02 -1.542536514431e-02 0.0 
-3.159427216797e-03 -1.335325937603e-03 0.0 
1.149443702962e-01 -3.264083516678e-02 0.0 
5.909363866633e-01 -7.933321828059e-01 0.0 
5.951043100320e-01 -4.344286052868e-01 0.0 
9.958216404122e-02 -3.477889279175e-02 0.0 
5.759786964638e-02 1.145943100083e-02 0.0 
-7.723131993588e-03 -1.149159574757e-03 0.0 
1.635137383045e-02 -9.278217948979e-03 0.0 
-1.204987300124e-02 -4.723415509688e-03 0.0 
8.256706824048e-03 -5.379747098196e-05 0.0 
-7.359545342700e-03 3.858236315724e-03 0.0 
-2.306122831231e-02 -6.193247420648e-03 0.0 
-2.198044286087e-02 -4.133788283051e-04 0.0 
-4.509882010421e-03 3.444784027197e-02 0.0 
-5.829481461229e-03 -2.123231567315e-03 0.0 
5.050781012375e-02 1.491748724921e-02 0.0 
5.741518075280e-03 -1.004903522289e-03 0.0 
9.710002256788e-02 -5.509742425885e-02 0.0 
3.758903406965e-03 -9.481353676107e-04 0.0 
8.862030134414e-03 1.398899477375e-03 0.0 
2.916365182544e-03 1.089558242773e-02 0.0 
1.160122735063e-01 -4.544423283406e-01 0.0 
1.210078328393e-01 -4.224479856583e-02 0.0 
7.905977315903e-03 -8.288619993175e-04 0.0 
2.884281794393e-03 -1.092441898436e-03 0.0 
-9.169381517680e-03 4.591972930790e-03 0.0 
1.860052965432e-02 4.890381209400e-03 0.0 
7.552196977289e-02 -1.111198053939e-02 0.0 
4.364006688681e-01 -7.724398935998e-01 0.0 
6.983577889396e-02 -4.974004648848e-03 0.0 
7.386024245516e-02 -3.627630607440e-02 0.0 
5.988241759417e-01 -6.995500037250e-01 0.0 
-1.458583148018e-02 2.471001018418e-02 0.0 
-9.620008291497e-03 -1.545343913432e-03 0.0 
5.958333611349e-02 -8.729712383160e-03 0.0 
7.524135666643e-02 7.754155898150e-03 0.0 
-1.654810033099e-02 2.306494384888e-02 0.0 
-2.694748805015e-02 -1.267095005103e-02 0.0 
-1.988439719741e-02 8.716344702261e-03 0.0 
-4.511600456852e-03 4.005589676975e-03 0.0 
2.655647092300e-02 -1.159499720070e-02 0.0 
1.080425141550e-01 -3.959345743489e-02 0.0 
8.803083196423e-02 -3.282059977952e-02 0.0 
2.612724369934e-01 -6.040844388920e-01 0.0 
-1.313624566333e-02 -2.607796841817e-03 0.0 
8.880082370998e-03 1.793289922575e-02 0.0 
2.250231051881e-03 1.555589733510e-02 0.0 
6.621683721882e-01 -5.297452734875e-01 0.0 
6.644847494293e-02 -5.350389831339e-03 0.0 
-9.589069432912e-03 -1.858955714100e-03 0.0 
2.631088353834e-02 -8.263478670615e-03 0.0 
8.169703595227e-03 -9.063536446434e-04 0.0 
-3.196409066220e-03 4.541832480076e-03 0.0 
-2.021126468187e-02 6.616846795251e-03 0.0 
1.489374679287e-02 3.553755938539e-03 0.0 
2.138267749514e-03 -2.408848909041e-04 0.0 
1.863847233749e-02 -2.286779779171e-01 0.0 
3.470748346371e-02 1.254212709820e-02 0.0 
8.959930233238e-02 -1.379224168000e-01 0.0 
5.296110594125e-02 1.231408529748e-02 0.0 
-4.554876748491e-03 -1.370182067190e-03 0.0 
6.543094918884e-02 1.593260846658e-02 0.0 
3.379942015316e-02 2.174838358549e-02 0.0 
-9.897595164438e-03 2.805926847314e-02 0.0 
4.146007586817e-02 -1.650770291033e-02 0.0 
1.361221033807e-02 -7.374857498914e-04 0.0 
2.291516833127e-02 -2.894278959423e-03 0.0 
-1.123106262990e-03 3.845677433756e-02 0.0 
3.773147165802e-01 -7.576989351197e-01 0.0 
-1.568493377457e-02 -6.424722125162e-03 0.0 
4.410439307663e-04 -4.541793570974e-04 0.0 
-1.198413772976e-03 -6.214491465048e-04 0.0 
2.417096358553e-03 6.381535340783e-03 0.0 
-1.683239783200e-02 8.577076967927e-03 0.0 
3.375087329499e-02 2.421176755037e-02 0.0 
2.335691868397e-02 -1.130692944054e-03 0.0 
6.090306509130e-02 6.935222236626e-03 0.0 
-9.490534683027e-03 5.186156702112e-03 0.0 
3.021883606025e-02 -3.696791117427e-03 0.0 
4.643754269757e-01 -8.264867012667e-01 0.0 
3.143323177368e-02 -1.120852539513e-02 0.0 
8.214087134215e-03 3.566035678633e-04 0.0 
5.031300637639e-03 -7.635294188828e-04 0.0 
-1.500169035372e-03 6.264872863081e-04 0.0 
3.515859069241e-03 1.683469097926e-03 0.0 
3.799308470933e-02 -1.550876124477e-02 0.0 
3.606984365583e-02 -3.094277148896e-03 0.0 
6.907482356135e-03 9.542381511920e-04 0.0 
6.533097992254e-02 -2.547975848049e-02 0.0 
-7.899609917366e-03 3.198010701314e-02 0.0 
1.750979923849e-02 8.660051520941e-03 0.0 
5.069330612158e-03 8.043280024048e-04 0.0 
4.659120750179e-04 -8.304173197368e-04 0.0 
1.061294117933e-02 1.346204624517e-03 0.0 
4.781713934442e-03 7.536189845373e-03 0.0 
-1.070730444705e-03 -8.451128212438e-04 0.0 
3.174740784769e-02 2.157868960704e-02 0.0 
-1.351923669364e-02 5.510459320571e-03 0.0 
5.031840263396e-02 -6.136138680188e-03 0.0 
5.887221418455e-03 -8.659385343625e-04 0.0 
2.783907020794e-02 2.889779699076e-02 0.0 
5.797281845256e-01 -5.998487736146e-01 0.0 
-1.337682191009e-03 2.114789402488e-02 0.0 
3.214695645886e-03 -6.564704226837e-04 0.0 
4.476325715513e-01 -6.784906009948e-01 0.0 
1.492282925638e-02 -1.248431856775e-03 0.0 
6.356364892633e-03 2.041681289978e-03 0.0 
5.125396994006e-02 -1.246044681109e-01 0.0 
1.213550626378e-02 3.540897185094e-03 0.0 
7.182785802768e-04 3.649856129375e-03 0.0 
-2.568083864676e-03 1.878803989135e-02 0.0 
6.458530433755e-01 -6.275854044594e-01 0.0 
-6.492827263275e-03 3.199465376155e-02 0.0 
-1.617465311378e-02 2.140774977295e-02 0.0 
-1.230401673667e-03 1.663066574754e-02 0.0 
-8.017772509388e-03 3.708786336372e-03 0.0 
-8.243030152784e-03 2.526675662527e-02 0.0 
-1.115781628179e-02 2.179647033750e-02 0.0 
5.976700838036e-02 4.652553481822e-03 0.0 
-2.109559677883e-02 -8.211001805234e-03 0.0 
4.899583285104e-02 -2.087498407995e-02 0.0 
5.279798565199e-01 -5.380182235963e-01 0.0 
7.763476831139e-04 -8.128977689574e-04 0.0 
-1.932834105886e-03 -9.467999801334e-04 0.0 
4.613251122776e-03 6.532269668970e-03 0.0 
4.821009462616e-03 2.272712964880e-03 0.0 
-1.125455279645e-02 2.467833429685e-02 0.0 
-1.296343329498e-02 2.269719388516e-02 0.0 
-8.134065472883e-03 2.328367242432e-02 0.0 
-1.218079106745e-02 3.251420720895e-03 0.0 
7.478435434667e-02 -1.163410497590e-01 0.0 
3.843765380281e-02 -1.478640534974e-02 0.0 
8.147593185079e-03 4.758358413506e-03 0.0 
1.738864262166e-02 -1.194169797286e-03 0.0 
-1.308955321594e-02 3.838575039283e-03 0.0 
1.428893513156e-02 4.083555376754e-03 0.0 
9.606888521450e-02 -3.590729828110e-02 0.0 
-6.732420844085e-03 2.838191229461e-03 0.0 
-7.676521503512e-03 3.979105641080e-03 0.0 
6.497044182138e-01 -6.757779159066e-01 0.0 
9.788742722886e-02 -3.575463980675e-02 0.0 
7.735821408477e-02 -2.821395172513e-02 0.0 
5.730578896910e-02 8.382942225866e-03 0.0 
-1.201522602362e-02 2.577329696146e-02 0.0 
6.238491378865e-01 -7.676854402704e-01 0.0 
8.066342388632e-02 -3.257119099093e-02 0.0 

VECTORS element_materi_displacement float
0.0 0.0 0.0 
0.0 0.0 0.0 
0.0 0.0 0.0 
0.0 0.0 0.0 
0.0 0.0 0.0 
0.0 0.0 0.0 
0.0 0.0 0.0 
0.0 0.0 0.0 
0.0 0.0 0.0 
0.0 0.0 0.0 
0.0 0.0 0.0 
0.0 0.0 0.0 
0.0 0.0 0.0 
0.0 0.0 0.0 
0.0 0.0 0.0 
0.0 0.0 0.0 
0.0 0.0 0.0 
0.0 0.0 0.0 
0.0 0.0 0.0 
0.0 0.0 0.0 
0.0 0.0 0.0 
0.0 0.0 0.0 
0.0 0.0 0.0 
0.0 0.0 0.0 
0.0 0.0 0.0 
0.0 0.0 0.0 
0.0 0.0 0.0 
0.0 0.0 0.0 
0.0 0.0 0.0 
0.0 0.0 0.0 
0.0 0.0 0.0 
0.0 0.0 0.0 
0.0 0.0 0.0 
0.0 0.0 0.0 
0.0 0.0 0.0 
0.0 0.0 0.0 
0.0 0.0 0.0 
0.0 0.0 0.0 
0.0 0.0 0.0 
0.0 0.0 0.0 
0.0 0.0 0.0 
0.0 0.0 0.0 
0.0 0.0 0.0 
0.0 0.0 0.0 
0.0 0.0 0.0 
0.0 0.0 0.0 
0.0 0.0 0.0 
0.0 0.0 0.0 
0.0 0.0 0.0 
0.0 0.0 0.0 
0.0 0.0 0.0 
0.0 0.0 0.0 
0.0 0.0 0.0 
0.0 0.0 0.0 
0.0 0.0 0.0 
0.0 0.0 0.0 
0.0 0.0 0.0 
0.0 0.0 0.0 
0.0 0.0 0.0 
0.0 0.0 0.0 
0.0 0.0 0.0 
0.0 0.0 0.0 
0.0 0.0 0.0 
0.0 0.0 0.0 
0.0 0.0 0.0 
0.0 0.0 0.0 
0.0 0.0 0.0 
0.0 0.0 0.0 
0.0 0.0 0.0 
0.0 0.0 0.0 
0.0 0.0 0.0 
0.0 0.0 0.0 
0.0 0.0 0.0 
0.0 0.0 0.0 
0.0 0.0 0.0 
0.0 0.0 0.0 
0.0 0.0 0.0 
0.0 0.0 0.0 
0.0 0.0 0.0 
0.0 0.0 0.0 
0.0 0.0 0.0 
0.0 0.0 0.0 
0.0 0.0 0.0 
0.0 0.0 0.0 
0.0 0.0 0.0 
0.0 0.0 0.0 
0.0 0.0 0.0 
0.0 0.0 0.0 
0.0 0.0 0.0 
0.0 0.0 0.0 
0.0 0.0 0.0 
0.0 0.0 0.0 
0.0 0.0 0.0 
0.0 0.0 0.0 
0.0 0.0 0.0 
0.0 0.0 0.0 
0.0 0.0 0.0 
0.0 0.0 0.0 
0.0 0.0 0.0 
0.0 0.0 0.0 
0.0 0.0 0.0 
0.0 0.0 0.0 
0.0 0.0 0.0 
0.0 0.0 0.0 
0.0 0.0 0.0 
0.0 0.0 0.0 
0.0 0.0 0.0 
0.0 0.0 0.0 
0.0 0.0 0.0 
0.0 0.0 0.0 
0.0 0.0 0.0 
0.0 0.0 0.0 
0.0 0.0 0.0 
0.0 0.0 0.0 
0.0 0.0 0.0 
0.0 0.0 0.0 
0.0 0.0 0.0 
0.0 0.0 0.0 
0.0 0.0 0.0 
0.0 0.0 0.0 
0.0 0.0 0.0 
0.0 0.0 0.0 
0.0 0.0 0.0 
0.0 0.0 0.0 
0.0 0.0 0.0 
0.0 0.0 0.0 
0.0 0.0 0.0 
0.0 0.0 0.0 
0.0 0.0 0.0 
0.0 0.0 0.0 
0.0 0.0 0.0 
0.0 0.0 0.0 
0.0 0.0 0.0 
0.0 0.0 0.0 
0.0 0.0 0.0 
0.0 0.0 0.0 
0.0 0.0 0.0 
0.0 0.0 0.0 
0.0 0.0 0.0 
0.0 0.0 0.0 
0.0 0.0 0.0 
0.0 0.0 0.0 
0.0 0.0 0.0 
0.0 0.0 0.0 
0.0 0.0 0.0 
0.0 0.0 0.0 
0.0 0.0 0.0 
0.0 0.0 0.0 
0.0 0.0 0.0 
0.0 0.0 0.0 
0.0 0.0 0.0 
0.0 0.0 0.0 
0.0 0.0 0.0 
0.0 0.0 0.0 
0.0 0.0 0.0 
0.0 0.0 0.0 
0.0 0.0 0.0 
0.0 0.0 0.0 
0.0 0.0 0.0 
0.0 0.0 0.0 
0.0 0.0 0.0 
0.0 0.0 0.0 
0.0 0.0 0.0 
0.0 0.0 0.0 
0.0 0.0 0.0 
0.0 0.0 0.0 
0.0 0.0 0.0 
0.0 0.0 0.0 
0.0 0.0 0.0 
0.0 0.0 0.0 
0.0 0.0 0.0 
0.0 0.0 0.0 
0.0 0.0 0.0 
0.0 0.0 0.0 
0.0 0.0 0.0 
0.0 0.0 0.0 
0.0 0.0 0.0 
0.0 0.0 0.0 
0.0 0.0 0.0 
0.0 0.0 0.0 
0.0 0.0 0.0 
0.0 0.0 0.0 
0.0 0.0 0.0 
0.0 0.0 0.0 
0.0 0.0 0.0 
0.0 0.0 0.0 
0.0 0.0 0.0 
0.0 0.0 0.0 
0.0 0.0 0.0 
0.0 0.0 0.0 
0.0 0.0 0.0 
0.0 0.0 0.0 
0.0 0.0 0.0 
0.0 0.0 0.0 
0.0 0.0 0.0 
0.0 0.0 0.0 
0.0 0.0 0.0 
0.0 0.0 0.0 
0.0 0.0 0.0 
0.0 0.0 0.0 
0.0 0.0 0.0 
0.0 0.0 0.0 
0.0 0.0 0.0 
0.0 0.0 0.0 
0.0 0.0 0.0 
0.0 0.0 0.0 
0.0 0.0 0.0 
0.0 0.0 0.0 
0.0 0.0 0.0 
0.0 0.0 0.0 
0.0 0.0 0.0 
0.0 0.0 0.0 
0.0 0.0 0.0 
0.0 0.0 0.0 
0.0 0.0 0.0 
0.0 0.0 0.0 
0.0 0.0 0.0 
0.0 0.0 0.0 
0.0 0.0 0.0 
0.0 0.0 0.0 
0.0 0.0 0.0 
0.0 0.0 0.0 
0.0 0.0 0.0 
0.0 0.0 0.0 
0.0 0.0 0.0 
0.0 0.0 0.0 
0.0 0.0 0.0 
0.0 0.0 0.0 
0.0 0.0 0.0 
0.0 0.0 0.0 
0.0 0.0 0.0 
0.0 0.0 0.0 
0.0 0.0 0.0 
0.0 0.0 0.0 
0.0 0.0 0.0 
0.0 0.0 0.0 
0.0 0.0 0.0 
0.0 0.0 0.0 
0.0 0.0 0.0 
0.0 0.0 0.0 
0.0 0.0 0.0 
0.0 0.0 0.0 
0.0 0.0 0.0 
0.0 0.0 0.0 
0.0 0.0 0.0 
0.0 0.0 0.0 
0.0 0.0 0.0 
0.0 0.0 0.0 
0.0 0.0 0.0 
0.0 0.0 0.0 
0.0 0.0 0.0 
0.0 0.0 0.0 
0.0 0.0 0.0 
0.0 0.0 0.0 
0.0 0.0 0.0 
0.0 0.0 0.0 
0.0 0.0 0.0 
0.0 0.0 0.0 
0.0 0.0 0.0 
0.0 0.0 0.0 
0.0 0.0 0.0 
0.0 0.0 0.0 
0.0 0.0 0.0 
0.0 0.0 0.0 
0.0 0.0 0.0 
0.0 0.0 0.0 
0.0 0.0 0.0 
0.0 0.0 0.0 
0.0 0.0 0.0 
0.0 0.0 0.0 
0.0 0.0 0.0 
0.0 0.0 0.0 
0.0 0.0 0.0 
0.0 0.0 0.0 
0.0 0.0 0.0 
0.0 0.0 0.0 
0.0 0.0 0.0 
0.0 0.0 0.0 
0.0 0.0 0.0 
0.0 0.0 0.0 
0.0 0.0 0.0 
0.0 0.0 0.0 
0.0 0.0 0.0 
0.0 0.0 0.0 
0.0 0.0 0.0 
0.0 0.0 0.0 
0.0 0.0 0.0 
0.0 0.0 0.0 
0.0 0.0 0.0 
0.0 0.0 0.0 
0.0 0.0 0.0 
0.0 0.0 0.0 
0.0 0.0 0.0 
0.0 0.0 0.0 
0.0 0.0 0.0 
0.0 0.0 0.0 
0.0 0.0 0.0 
0.0 0.0 0.0 
0.0 0.0 0.0 
0.0 0.0 0.0 
0.0 0.0 0.0 
0.0 0.0 0.0 
0.0 0.0 0.0 
0.0 0.0 0.0 
0.0 0.0 0.0 
0.0 0.0 0.0 
0.0 0.0 0.0 
0.0 0.0 0.0 
0.0 0.0 0.0 
0.0 0.0 0.0 
0.0 0.0 0.0 
0.0 0.0 0.0 
0.0 0.0 0.0 
0.0 0.0 0.0 
0.0 0.0 0.0 
0.0 0.0 0.0 
0.0 0.0 0.0 
0.0 0.0 0.0 
0.0 0.0 0.0 
0.0 0.0 0.0 
0.0 0.0 0.0 
0.0 0.0 0.0 
0.0 0.0 0.0 
0.0 0.0 0.0 
0.0 0.0 0.0 
0.0 0.0 0.0 
0.0 0.0 0.0 
0.0 0.0 0.0 
0.0 0.0 0.0 
0.0 0.0 0.0 
0.0 0.0 0.0 
0.0 0.0 0.0 
0.0 0.0 0.0 
0.0 0.0 0.0 
0.0 0.0 0.0 
0.0 0.0 0.0 
0.0 0.0 0.0 
0.0 0.0 0.0 
0.0 0.0 0.0 
0.0 0.0 0.0 
0.0 0.0 0.0 
0.0 0.0 0.0 
0.0 0.0 0.0 
0.0 0.0 0.0 
0.0 0.0 0.0 
0.0 0.0 0.0 
0.0 0.0 0.0 
0.0 0.0 0.0 
0.0 0.0 0.0 
0.0 0.0 0.0 
0.0 0.0 0.0 
0.0 0.0 0.0 
0.0 0.0 0.0 
0.0 0.0 0.0 
0.0 0.0 0.0 
0.0 0.0 0.0 
0.0 0.0 0.0 
0.0 0.0 0.0 
0.0 0.0 0.0 
0.0 0.0 0.0 
0.0 0.0 0.0 
0.0 0.0 0.0 
0.0 0.0 0.0 
0.0 0.0 0.0 
0.0 0.0 0.0 
0.0 0.0 0.0 
0.0 0.0 0.0 
0.0 0.0 0.0 
0.0 0.0 0.0 
0.0 0.0 0.0 
0.0 0.0 0.0 
0.0 0.0 0.0 
0.0 0.0 0.0 
0.0 0.0 0.0 
0.0 0.0 0.0 
0.0 0.0 0.0 
0.0 0.0 0.0 
0.0 0.0 0.0 
0.0 0.0 0.0 
0.0 0.0 0.0 
0.0 0.0 0.0 
0.0 0.0 0.0 
0.0 0.0 0.0 
0.0 0.0 0.0 
0.0 0.0 0.0 
0.0 0.0 0.0 
0.0 0.0 0.0 
0.0 0.0 0.0 
0.0 0.0 0.0 
0.0 0.0 0.0 
0.0 0.0 0.0 
0.0 0.0 0.0 
0.0 0.0 0.0 
0.0 0.0 0.0 
0.0 0.0 0.0 
0.0 0.0 0.0 
0.0 0.0 0.0 
0.0 0.0 0.0 
0.0 0.0 0.0 
0.0 0.0 0.0 
0.0 0.0 0.0 
0.0 0.0 0.0 
0.0 0.0 0.0 
0.0 0.0 0.0 
0.0 0.0 0.0 
0.0 0.0 0.0 
0.0 0.0 0.0 
0.0 0.0 0.0 
0.0 0.0 0.0 
0.0 0.0 0.0 
0.0 0.0 0.0 
0.0 0.0 0.0 
0.0 0.0 0.0 
0.0 0.0 0.0 
0.0 0.0 0.0 
0.0 0.0 0.0 
0.0 0.0 0.0 
0.0 0.0 0.0 
0.0 0.0 0.0 
0.0 0.0 0.0 
0.0 0.0 0.0 
0.0 0.0 0.0 
0.0 0.0 0.0 
0.0 0.0 0.0 
0.0 0.0 0.0 
0.0 0.0 0.0 
0.0 0.0 0.0 
0.0 0.0 0.0 
0.0 0.0 0.0 
0.0 0.0 0.0 
0.0 0.0 0.0 
0.0 0.0 0.0 
0.0 0.0 0.0 
0.0 0.0 0.0 
0.0 0.0 0.0 
0.0 0.0 0.0 
0.0 0.0 0.0 
0.0 0.0 0.0 
0.0 0.0 0.0 
0.0 0.0 0.0 
0.0 0.0 0.0 
0.0 0.0 0.0 
0.0 0.0 0.0 
0.0 0.0 0.0 
0.0 0.0 0.0 
0.0 0.0 0.0 
0.0 0.0 0.0 
0.0 0.0 0.0 
0.0 0.0 0.0 
0.0 0.0 0.0 
0.0 0.0 0.0 
0.0 0.0 0.0 
0.0 0.0 0.0 
0.0 0.0 0.0 
0.0 0.0 0.0 
0.0 0.0 0.0 
0.0 0.0 0.0 
0.0 0.0 0.0 
0.0 0.0 0.0 
0.0 0.0 0.0 
0.0 0.0 0.0 
0.0 0.0 0.0 
0.0 0.0 0.0 
0.0 0.0 0.0 
0.0 0.0 0.0 
0.0 0.0 0.0 
0.0 0.0 0.0 
0.0 0.0 0.0 
0.0 0.0 0.0 
0.0 0.0 0.0 
0.0 0.0 0.0 
0.0 0.0 0.0 
0.0 0.0 0.0 
0.0 0.0 0.0 
0.0 0.0 0.0 
0.0 0.0 0.0 
0.0 0.0 0.0 
0.0 0.0 0.0 
0.0 0.0 0.0 
0.0 0.0 0.0 
0.0 0.0 0.0 
0.0 0.0 0.0 
0.0 0.0 0.0 
0.0 0.0 0.0 
0.0 0.0 0.0 
0.0 0.0 0.0 
0.0 0.0 0.0 
0.0 0.0 0.0 
0.0 0.0 0.0 
0.0 0.0 0.0 
0.0 0.0 0.0 
0.0 0.0 0.0 
0.0 0.0 0.0 
0.0 0.0 0.0 
0.0 0.0 0.0 
0.0 0.0 0.0 
0.0 0.0 0.0 
0.0 0.0 0.0 
0.0 0.0 0.0 
0.0 0.0 0.0 
0.0 0.0 0.0 
0.0 0.0 0.0 
0.0 0.0 0.0 
0.0 0.0 0.0 
0.0 0.0 0.0 
0.0 0.0 0.0 
0.0 0.0 0.0 
0.0 0.0 0.0 
0.0 0.0 0.0 
0.0 0.0 0.0 
0.0 0.0 0.0 
0.0 0.0 0.0 
0.0 0.0 0.0 
0.0 0.0 0.0 
0.0 0.0 0.0 
0.0 0.0 0.0 
0.0 0.0 0.0 
0.0 0.0 0.0 
0.0 0.0 0.0 
0.0 0.0 0.0 
0.0 0.0 0.0 
0.0 0.0 0.0 
0.0 0.0 0.0 
0.0 0.0 0.0 
0.0 0.0 0.0 
0.0 0.0 0.0 
0.0 0.0 0.0 
0.0 0.0 0.0 
0.0 0.0 0.0 
0.0 0.0 0.0 
0.0 0.0 0.0 
0.0 0.0 0.0 
0.0 0.0 0.0 
0.0 0.0 0.0 
0.0 0.0 0.0 
0.0 0.0 0.0 
0.0 0.0 0.0 
0.0 0.0 0.0 
0.0 0.0 0.0 
0.0 0.0 0.0 
0.0 0.0 0.0 
0.0 0.0 0.0 
0.0 0.0 0.0 
0.0 0.0 0.0 
0.0 0.0 0.0 
0.0 0.0 0.0 
0.0 0.0 0.0 
0.0 0.0 0.0 
0.0 0.0 0.0 
0.0 0.0 0.0 
0.0 0.0 0.0 
0.0 0.0 0.0 
0.0 0.0 0.0 
0.0 0.0 0.0 
0.0 0.0 0.0 
0.0 0.0 0.0 
0.0 0.0 0.0 
0.0 0.0 0.0 
0.0 0.0 0.0 
0.0 0.0 0.0 
0.0 0.0 0.0 
0.0 0.0 0.0 
0.0 0.0 0.0 
0.0 0.0 0.0 
0.0 0.0 0.0 
0.0 0.0 0.0 
0.0 0.0 0.0 
0.0 0.0 0.0 
0.0 0.0 0.0 
0.0 0.0 0.0 
0.0 0.0 0.0 
0.0 0.0 0.0 
0.0 0.0 0.0 
0.0 0.0 0.0 
0.0 0.0 0.0 
0.0 0.0 0.0 
0.0 0.0 0.0 
0.0 0.0 0.0 
0.0 0.0 0.0 
0.0 0.0 0.0 
0.0 0.0 0.0 
0.0 0.0 0.0 
0.0 0.0 0.0 
0.0 0.0 0.0 
0.0 0.0 0.0 
0.0 0.0 0.0 
0.0 0.0 0.0 
0.0 0.0 0.0 
0.0 0.0 0.0 
0.0 0.0 0.0 
0.0 0.0 0.0 
0.0 0.0 0.0 
0.0 0.0 0.0 
0.0 0.0 0.0 
0.0 0.0 0.0 
0.0 0.0 0.0 
0.0 0.0 0.0 
0.0 0.0 0.0 
0.0 0.0 0.0 
0.0 0.0 0.0 
0.0 0.0 0.0 
0.0 0.0 0.0 
0.0 0.0 0.0 
0.0 0.0 0.0 
0.0 0.0 0.0 
0.0 0.0 0.0 
0.0 0.0 0.0 
0.0 0.0 0.0 
0.0 0.0 0.0 
0.0 0.0 0.0 
0.0 0.0 0.0 
0.0 0.0 0.0 
0.0 0.0 0.0 
0.0 0.0 0.0 
0.0 0.0 0.0 
0.0 0.0 0.0 
0.0 0.0 0.0 
0.0 0.0 0.0 
0.0 0.0 0.0 
0.0 0.0 0.0 
0.0 0.0 0.0 
0.0 0.0 0.0 
0.0 0.0 0.0 
0.0 0.0 0.0 
0.0 0.0 0.0 
0.0 0.0 0.0 
0.0 0.0 0.0 
0.0 0.0 0.0 
0.0 0.0 0.0 
0.0 0.0 0.0 
0.0 0.0 0.0 
0.0 0.0 0.0 
0.0 0.0 0.0 
0.0 0.0 0.0 
0.0 0.0 0.0 
0.0 0.0 0.0 
0.0 0.0 0.0 
0.0 0.0 0.0 
0.0 0.0 0.0 
0.0 0.0 0.0 
0.0 0.0 0.0 
0.0 0.0 0.0 
0.0 0.0 0.0 
0.0 0.0 0.0 
0.0 0.0 0.0 
0.0 0.0 0.0 
0.0 0.0 0.0 
0.0 0.0 0.0 
0.0 0.0 0.0 
0.0 0.0 0.0 
0.0 0.0 0.0 
0.0 0.0 0.0 
0.0 0.0 0.0 
0.0 0.0 0.0 
0.0 0.0 0.0 
0.0 0.0 0.0 
0.0 0.0 0.0 
0.0 0.0 0.0 
0.0 0.0 0.0 
0.0 0.0 0.0 
0.0 0.0 0.0 
0.0 0.0 0.0 
0.0 0.0 0.0 
0.0 0.0 0.0 
0.0 0.0 0.0 
0.0 0.0 0.0 
0.0 0.0 0.0 
0.0 0.0 0.0 
0.0 0.0 0.0 
0.0 0.0 0.0 
0.0 0.0 0.0 
0.0 0.0 0.0 
0.0 0.0 0.0 
0.0 0.0 0.0 
0.0 0.0 0.0 
0.0 0.0 0.0 
0.0 0.0 0.0 
0.0 0.0 0.0 
0.0 0.0 0.0 
0.0 0.0 0.0 
0.0 0.0 0.0 
0.0 0.0 0.0 
0.0 0.0 0.0 
0.0 0.0 0.0 
0.0 0.0 0.0 
0.0 0.0 0.0 
0.0 0.0 0.0 
0.0 0.0 0.0 
0.0 0.0 0.0 
0.0 0.0 0.0 
0.0 0.0 0.0 
0.0 0.0 0.0 
0.0 0.0 0.0 
0.0 0.0 0.0 
0.0 0.0 0.0 
0.0 0.0 0.0 
0.0 0.0 0.0 
0.0 0.0 0.0 
0.0 0.0 0.0 
0.0 0.0 0.0 
0.0 0.0 0.0 
0.0 0.0 0.0 
0.0 0.0 0.0 
0.0 0.0 0.0 
0.0 0.0 0.0 
0.0 0.0 0.0 
0.0 0.0 0.0 
0.0 0.0 0.0 
0.0 0.0 0.0 
0.0 0.0 0.0 
0.0 0.0 0.0 
0.0 0.0 0.0 
0.0 0.0 0.0 
0.0 0.0 0.0 
0.0 0.0 0.0 
0.0 0.0 0.0 
0.0 0.0 0.0 
0.0 0.0 0.0 
0.0 0.0 0.0 
0.0 0.0 0.0 
0.0 0.0 0.0 
0.0 0.0 0.0 
0.0 0.0 0.0 
0.0 0.0 0.0 
0.0 0.0 0.0 
0.0 0.0 0.0 
0.0 0.0 0.0 
0.0 0.0 0.0 
0.0 0.0 0.0 
0.0 0.0 0.0 
0.0 0.0 0.0 
0.0 0.0 0.0 
0.0 0.0 0.0 
0.0 0.0 0.0 
0.0 0.0 0.0 
0.0 0.0 0.0 
0.0 0.0 0.0 
0.0 0.0 0.0 
0.0 0.0 0.0 
0.0 0.0 0.0 
0.0 0.0 0.0 
0.0 0.0 0.0 
0.0 0.0 0.0 
0.0 0.0 0.0 
0.0 0.0 0.0 
0.0 0.0 0.0 
0.0 0.0 0.0 
0.0 0.0 0.0 
0.0 0.0 0.0 
0.0 0.0 0.0 
0.0 0.0 0.0 
0.0 0.0 0.0 
0.0 0.0 0.0 
0.0 0.0 0.0 
0.0 0.0 0.0 
0.0 0.0 0.0 
0.0 0.0 0.0 
0.0 0.0 0.0 
0.0 0.0 0.0 
0.0 0.0 0.0 
0.0 0.0 0.0 
0.0 0.0 0.0 
0.0 0.0 0.0 
0.0 0.0 0.0 
0.0 0.0 0.0 
0.0 0.0 0.0 
0.0 0.0 0.0 
0.0 0.0 0.0 
0.0 0.0 0.0 
0.0 0.0 0.0 
0.0 0.0 0.0 
0.0 0.0 0.0 
0.0 0.0 0.0 
0.0 0.0 0.0 
0.0 0.0 0.0 
0.0 0.0 0.0 
0.0 0.0 0.0 
0.0 0.0 0.0 
0.0 0.0 0.0 
0.0 0.0 0.0 
0.0 0.0 0.0 
0.0 0.0 0.0 
0.0 0.0 0.0 
0.0 0.0 0.0 
0.0 0.0 0.0 
0.0 0.0 0.0 
0.0 0.0 0.0 
0.0 0.0 0.0 
0.0 0.0 0.0 
0.0 0.0 0.0 
0.0 0.0 0.0 
0.0 0.0 0.0 
0.0 0.0 0.0 
0.0 0.0 0.0 
0.0 0.0 0.0 
0.0 0.0 0.0 
0.0 0.0 0.0 
0.0 0.0 0.0 
0.0 0.0 0.0 
0.0 0.0 0.0 
0.0 0.0 0.0 
0.0 0.0 0.0 
0.0 0.0 0.0 
0.0 0.0 0.0 
0.0 0.0 0.0 
0.0 0.0 0.0 
0.0 0.0 0.0 
0.0 0.0 0.0 
0.0 0.0 0.0 
0.0 0.0 0.0 
0.0 0.0 0.0 
0.0 0.0 0.0 
0.0 0.0 0.0 
0.0 0.0 0.0 
0.0 0.0 0.0 
0.0 0.0 0.0 
0.0 0.0 0.0 
0.0 0.0 0.0 
0.0 0.0 0.0 
0.0 0.0 0.0 
0.0 0.0 0.0 
0.0 0.0 0.0 
0.0 0.0 0.0 
0.0 0.0 0.0 
0.0 0.0 0.0 
0.0 0.0 0.0 
0.0 0.0 0.0 
0.0 0.0 0.0 
0.0 0.0 0.0 
0.0 0.0 0.0 
0.0 0.0 0.0 
0.0 0.0 0.0 
0.0 0.0 0.0 
0.0 0.0 0.0 
0.0 0.0 0.0 
0.0 0.0 0.0 
0.0 0.0 0.0 
0.0 0.0 0.0 
0.0 0.0 0.0 
0.0 0.0 0.0 
0.0 0.0 0.0 
0.0 0.0 0.0 
0.0 0.0 0.0 
0.0 0.0 0.0 
0.0 0.0 0.0 
0.0 0.0 0.0 
0.0 0.0 0.0 
0.0 0.0 0.0 
0.0 0.0 0.0 
0.0 0.0 0.0 
0.0 0.0 0.0 
0.0 0.0 0.0 
0.0 0.0 0.0 
0.0 0.0 0.0 
0.0 0.0 0.0 
0.0 0.0 0.0 
0.0 0.0 0.0 
0.0 0.0 0.0 
0.0 0.0 0.0 
0.0 0.0 0.0 
0.0 0.0 0.0 
0.0 0.0 0.0 
0.0 0.0 0.0 
0.0 0.0 0.0 
0.0 0.0 0.0 
0.0 0.0 0.0 
0.0 0.0 0.0 
0.0 0.0 0.0 
0.0 0.0 0.0 
0.0 0.0 0.0 
0.0 0.0 0.0 
0.0 0.0 0.0 
0.0 0.0 0.0 
0.0 0.0 0.0 
0.0 0.0 0.0 
0.0 0.0 0.0 
0.0 0.0 0.0 
0.0 0.0 0.0 
0.0 0.0 0.0 
0.0 0.0 0.0 
0.0 0.0 0.0 
0.0 0.0 0.0 
0.0 0.0 0.0 
0.0 0.0 0.0 
0.0 0.0 0.0 
0.0 0.0 0.0 
0.0 0.0 0.0 
0.0 0.0 0.0 
0.0 0.0 0.0 
0.0 0.0 0.0 
0.0 0.0 0.0 
0.0 0.0 0.0 
0.0 0.0 0.0 
0.0 0.0 0.0 
0.0 0.0 0.0 
0.0 0.0 0.0 
0.0 0.0 0.0 
0.0 0.0 0.0 
0.0 0.0 0.0 
0.0 0.0 0.0 
0.0 0.0 0.0 
0.0 0.0 0.0 
0.0 0.0 0.0 
0.0 0.0 0.0 
0.0 0.0 0.0 
0.0 0.0 0.0 
0.0 0.0 0.0 
0.0 0.0 0.0 
0.0 0.0 0.0 
0.0 0.0 0.0 
0.0 0.0 0.0 
0.0 0.0 0.0 
0.0 0.0 0.0 
0.0 0.0 0.0 
0.0 0.0 0.0 
0.0 0.0 0.0 
0.0 0.0 0.0 
0.0 0.0 0.0 
0.0 0.0 0.0 
0.0 0.0 0.0 
0.0 0.0 0.0 
0.0 0.0 0.0 
0.0 0.0 0.0 
0.0 0.0 0.0 
0.0 0.0 0.0 
0.0 0.0 0.0 
0.0 0.0 0.0 
0.0 0.0 0.0 
0.0 0.0 0.0 
0.0 0.0 0.0 
0.0 0.0 0.0 
0.0 0.0 0.0 
0.0 0.0 0.0 
0.0 0.0 0.0 
0.0 0.0 0.0 
0.0 0.0 0.0 
0.0 0.0 0.0 
0.0 0.0 0.0 
0.0 0.0 0.0 
0.0 0.0 0.0 
0.0 0.0 0.0 
0.0 0.0 0.0 
0.0 0.0 0.0 
0.0 0.0 0.0 
0.0 0.0 0.0 
0.0 0.0 0.0 
0.0 0.0 0.0 
0.0 0.0 0.0 
0.0 0.0 0.0 
0.0 0.0 0.0 
0.0 0.0 0.0 
0.0 0.0 0.0 
0.0 0.0 0.0 
0.0 0.0 0.0 
0.0 0.0 0.0 
0.0 0.0 0.0 
0.0 0.0 0.0 
0.0 0.0 0.0 
0.0 0.0 0.0 
0.0 0.0 0.0 
0.0 0.0 0.0 
0.0 0.0 0.0 
0.0 0.0 0.0 
0.0 0.0 0.0 
0.0 0.0 0.0 
0.0 0.0 0.0 
0.0 0.0 0.0 
0.0 0.0 0.0 
0.0 0.0 0.0 
0.0 0.0 0.0 
0.0 0.0 0.0 
0.0 0.0 0.0 
0.0 0.0 0.0 
0.0 0.0 0.0 
0.0 0.0 0.0 
0.0 0.0 0.0 
0.0 0.0 0.0 
0.0 0.0 0.0 
0.0 0.0 0.0 
0.0 0.0 0.0 
0.0 0.0 0.0 
0.0 0.0 0.0 
0.0 0.0 0.0 
0.0 0.0 0.0 
0.0 0.0 0.0 
0.0 0.0 0.0 
0.0 0.0 0.0 
0.0 0.0 0.0 
0.0 0.0 0.0 
0.0 0.0 0.0 
0.0 0.0 0.0 
0.0 0.0 0.0 
0.0 0.0 0.0 
0.0 0.0 0.0 
0.0 0.0 0.0 
0.0 0.0 0.0 
0.0 0.0 0.0 
0.0 0.0 0.0 
0.0 0.0 0.0 
0.0 0.0 0.0 
0.0 0.0 0.0 
0.0 0.0 0.0 
0.0 0.0 0.0 
0.0 0.0 0.0 
0.0 0.0 0.0 
0.0 0.0 0.0 
0.0 0.0 0.0 
0.0 0.0 0.0 
0.0 0.0 0.0 
0.0 0.0 0.0 
0.0 0.0 0.0 
0.0 0.0 0.0 
0.0 0.0 0.0 
0.0 0.0 0.0 
0.0 0.0 0.0 
0.0 0.0 0.0 
0.0 0.0 0.0 
0.0 0.0 0.0 
0.0 0.0 0.0 
0.0 0.0 0.0 
0.0 0.0 0.0 
0.0 0.0 0.0 
0.0 0.0 0.0 
0.0 0.0 0.0 
0.0 0.0 0.0 
0.0 0.0 0.0 
0.0 0.0 0.0 
0.0 0.0 0.0 
0.0 0.0 0.0 
0.0 0.0 0.0 
0.0 0.0 0.0 
0.0 0.0 0.0 
0.0 0.0 0.0 
0.0 0.0 0.0 
0.0 0.0 0.0 
0.0 0.0 0.0 
0.0 0.0 0.0 
0.0 0.0 0.0 
0.0 0.0 0.0 
0.0 0.0 0.0 
0.0 0.0 0.0 
0.0 0.0 0.0 
0.0 0.0 0.0 
0.0 0.0 0.0 
0.0 0.0 0.0 
0.0 0.0 0.0 
0.0 0.0 0.0 
0.0 0.0 0.0 
0.0 0.0 0.0 
0.0 0.0 0.0 
0.0 0.0 0.0 
0.0 0.0 0.0 
0.0 0.0 0.0 
0.0 0.0 0.0 
0.0 0.0 0.0 
0.0 0.0 0.0 
0.0 0.0 0.0 
0.0 0.0 0.0 
0.0 0.0 0.0 
0.0 0.0 0.0 
0.0 0.0 0.0 
0.0 0.0 0.0 
0.0 0.0 0.0 
0.0 0.0 0.0 
0.0 0.0 0.0 
0.0 0.0 0.0 
0.0 0.0 0.0 
0.0 0.0 0.0 
0.0 0.0 0.0 
0.0 0.0 0.0 
0.0 0.0 0.0 
0.0 0.0 0.0 
0.0 0.0 0.0 
0.0 0.0 0.0 
0.0 0.0 0.0 
0.0 0.0 0.0 
0.0 0.0 0.0 
0.0 0.0 0.0 
0.0 0.0 0.0 
0.0 0.0 0.0 
0.0 0.0 0.0 
0.0 0.0 0.0 
0.0 0.0 0.0 
0.0 0.0 0.0 
0.0 0.0 0.0 
0.0 0.0 0.0 
0.0 0.0 0.0 
0.0 0.0 0.0 
0.0 0.0 0.0 
0.0 0.0 0.0 
0.0 0.0 0.0 
0.0 0.0 0.0 
0.0 0.0 0.0 
0.0 0.0 0.0 
0.0 0.0 0.0 
0.0 0.0 0.0 
0.0 0.0 0.0 
0.0 0.0 0.0 
0.0 0.0 0.0 
0.0 0.0 0.0 
0.0 0.0 0.0 
0.0 0.0 0.0 
0.0 0.0 0.0 
0.0 0.0 0.0 
0.0 0.0 0.0 
0.0 0.0 0.0 
0.0 0.0 0.0 
0.0 0.0 0.0 
0.0 0.0 0.0 
0.0 0.0 0.0 
0.0 0.0 0.0 
0.0 0.0 0.0 
0.0 0.0 0.0 
0.0 0.0 0.0 
0.0 0.0 0.0 
0.0 0.0 0.0 
0.0 0.0 0.0 
0.0 0.0 0.0 
0.0 0.0 0.0 
0.0 0.0 0.0 
0.0 0.0 0.0 
0.0 0.0 0.0 
0.0 0.0 0.0 
0.0 0.0 0.0 
0.0 0.0 0.0 
0.0 0.0 0.0 
0.0 0.0 0.0 
0.0 0.0 0.0 
0.0 0.0 0.0 
0.0 0.0 0.0 
0.0 0.0 0.0 
0.0 0.0 0.0 
0.0 0.0 0.0 
0.0 0.0 0.0 
0.0 0.0 0.0 
0.0 0.0 0.0 
0.0 0.0 0.0 
0.0 0.0 0.0 
0.0 0.0 0.0 
0.0 0.0 0.0 
0.0 0.0 0.0 
0.0 0.0 0.0 
0.0 0.0 0.0 
0.0 0.0 0.0 
0.0 0.0 0.0 
0.0 0.0 0.0 
0.0 0.0 0.0 
0.0 0.0 0.0 
0.0 0.0 0.0 
0.0 0.0 0.0 
0.0 0.0 0.0 
0.0 0.0 0.0 
0.0 0.0 0.0 
0.0 0.0 0.0 
0.0 0.0 0.0 
0.0 0.0 0.0 
0.0 0.0 0.0 
0.0 0.0 0.0 
0.0 0.0 0.0 
0.0 0.0 0.0 
0.0 0.0 0.0 
0.0 0.0 0.0 
0.0 0.0 0.0 
0.0 0.0 0.0 
0.0 0.0 0.0 
0.0 0.0 0.0 
0.0 0.0 0.0 
0.0 0.0 0.0 
0.0 0.0 0.0 
0.0 0.0 0.0 
0.0 0.0 0.0 
0.0 0.0 0.0 
0.0 0.0 0.0 
0.0 0.0 0.0 
0.0 0.0 0.0 
0.0 0.0 0.0 
0.0 0.0 0.0 
0.0 0.0 0.0 
0.0 0.0 0.0 
0.0 0.0 0.0 
0.0 0.0 0.0 
0.0 0.0 0.0 
0.0 0.0 0.0 
0.0 0.0 0.0 
0.0 0.0 0.0 
0.0 0.0 0.0 
0.0 0.0 0.0 
0.0 0.0 0.0 
0.0 0.0 0.0 
0.0 0.0 0.0 
0.0 0.0 0.0 
0.0 0.0 0.0 
0.0 0.0 0.0 
0.0 0.0 0.0 
0.0 0.0 0.0 
0.0 0.0 0.0 
0.0 0.0 0.0 
0.0 0.0 0.0 
0.0 0.0 0.0 
0.0 0.0 0.0 
0.0 0.0 0.0 
0.0 0.0 0.0 
0.0 0.0 0.0 
0.0 0.0 0.0 
0.0 0.0 0.0 
0.0 0.0 0.0 
0.0 0.0 0.0 
0.0 0.0 0.0 
0.0 0.0 0.0 
0.0 0.0 0.0 
0.0 0.0 0.0 
0.0 0.0 0.0 
0.0 0.0 0.0 
0.0 0.0 0.0 
0.0 0.0 0.0 
0.0 0.0 0.0 
0.0 0.0 0.0 
0.0 0.0 0.0 
0.0 0.0 0.0 
0.0 0.0 0.0 
0.0 0.0 0.0 
0.0 0.0 0.0 
0.0 0.0 0.0 
0.0 0.0 0.0 
0.0 0.0 0.0 
0.0 0.0 0.0 
0.0 0.0 0.0 
0.0 0.0 0.0 
0.0 0.0 0.0 
0.0 0.0 0.0 
0.0 0.0 0.0 
0.0 0.0 0.0 
0.0 0.0 0.0 
0.0 0.0 0.0 
0.0 0.0 0.0 
0.0 0.0 0.0 
0.0 0.0 0.0 
0.0 0.0 0.0 
0.0 0.0 0.0 
0.0 0.0 0.0 
0.0 0.0 0.0 
0.0 0.0 0.0 
0.0 0.0 0.0 
0.0 0.0 0.0 
0.0 0.0 0.0 
0.0 0.0 0.0 
0.0 0.0 0.0 
0.0 0.0 0.0 
0.0 0.0 0.0 
0.0 0.0 0.0 
0.0 0.0 0.0 
0.0 0.0 0.0 
0.0 0.0 0.0 
0.0 0.0 0.0 
0.0 0.0 0.0 
0.0 0.0 0.0 
0.0 0.0 0.0 
0.0 0.0 0.0 
0.0 0.0 0.0 
0.0 0.0 0.0 
0.0 0.0 0.0 
0.0 0.0 0.0 
0.0 0.0 0.0 
0.0 0.0 0.0 
0.0 0.0 0.0 
0.0 0.0 0.0 
0.0 0.0 0.0 
0.0 0.0 0.0 
0.0 0.0 0.0 
0.0 0.0 0.0 
0.0 0.0 0.0 
0.0 0.0 0.0 
0.0 0.0 0.0 
0.0 0.0 0.0 
0.0 0.0 0.0 
0.0 0.0 0.0 
0.0 0.0 0.0 
0.0 0.0 0.0 
0.0 0.0 0.0 
0.0 0.0 0.0 
0.0 0.0 0.0 
0.0 0.0 0.0 
0.0 0.0 0.0 
0.0 0.0 0.0 
0.0 0.0 0.0 
0.0 0.0 0.0 
0.0 0.0 0.0 
0.0 0.0 0.0 
0.0 0.0 0.0 
0.0 0.0 0.0 
0.0 0.0 0.0 
0.0 0.0 0.0 
0.0 0.0 0.0 
0.0 0.0 0.0 
0.0 0.0 0.0 
0.0 0.0 0.0 
0.0 0.0 0.0 
0.0 0.0 0.0 
0.0 0.0 0.0 
0.0 0.0 0.0 
0.0 0.0 0.0 
0.0 0.0 0.0 
0.0 0.0 0.0 
0.0 0.0 0.0 
0.0 0.0 0.0 
0.0 0.0 0.0 
0.0 0.0 0.0 
0.0 0.0 0.0 
0.0 0.0 0.0 
0.0 0.0 0.0 
0.0 0.0 0.0 
0.0 0.0 0.0 
0.0 0.0 0.0 
0.0 0.0 0.0 
0.0 0.0 0.0 
0.0 0.0 0.0 
0.0 0.0 0.0 
0.0 0.0 0.0 
0.0 0.0 0.0 
0.0 0.0 0.0 
0.0 0.0 0.0 
0.0 0.0 0.0 
0.0 0.0 0.0 
0.0 0.0 0.0 
0.0 0.0 0.0 
0.0 0.0 0.0 
0.0 0.0 0.0 
0.0 0.0 0.0 
0.0 0.0 0.0 
0.0 0.0 0.0 
0.0 0.0 0.0 
0.0 0.0 0.0 
0.0 0.0 0.0 
0.0 0.0 0.0 
0.0 0.0 0.0 
0.0 0.0 0.0 
0.0 0.0 0.0 
0.0 0.0 0.0 
0.0 0.0 0.0 
0.0 0.0 0.0 
0.0 0.0 0.0 
0.0 0.0 0.0 
0.0 0.0 0.0 
0.0 0.0 0.0 
0.0 0.0 0.0 
0.0 0.0 0.0 
0.0 0.0 0.0 
0.0 0.0 0.0 
0.0 0.0 0.0 
0.0 0.0 0.0 
0.0 0.0 0.0 
0.0 0.0 0.0 
0.0 0.0 0.0 
0.0 0.0 0.0 
0.0 0.0 0.0 
0.0 0.0 0.0 
0.0 0.0 0.0 
0.0 0.0 0.0 
0.0 0.0 0.0 
0.0 0.0 0.0 
0.0 0.0 0.0 
0.0 0.0 0.0 
0.0 0.0 0.0 
0.0 0.0 0.0 
0.0 0.0 0.0 
0.0 0.0 0.0 
0.0 0.0 0.0 
0.0 0.0 0.0 
0.0 0.0 0.0 
0.0 0.0 0.0 
0.0 0.0 0.0 
0.0 0.0 0.0 
0.0 0.0 0.0 
0.0 0.0 0.0 
0.0 0.0 0.0 
0.0 0.0 0.0 
0.0 0.0 0.0 
0.0 0.0 0.0 
0.0 0.0 0.0 
0.0 0.0 0.0 
0.0 0.0 0.0 
0.0 0.0 0.0 
0.0 0.0 0.0 
0.0 0.0 0.0 
0.0 0.0 0.0 
0.0 0.0 0.0 
0.0 0.0 0.0 
0.0 0.0 0.0 
0.0 0.0 0.0 
0.0 0.0 0.0 
0.0 0.0 0.0 
0.0 0.0 0.0 
0.0 0.0 0.0 
0.0 0.0 0.0 
0.0 0.0 0.0 
0.0 0.0 0.0 
0.0 0.0 0.0 
0.0 0.0 0.0 
0.0 0.0 0.0 
0.0 0.0 0.0 
0.0 0.0 0.0 
0.0 0.0 0.0 
0.0 0.0 0.0 
0.0 0.0 0.0 
0.0 0.0 0.0 
0.0 0.0 0.0 
0.0 0.0 0.0 
0.0 0.0 0.0 
0.0 0.0 0.0 
0.0 0.0 0.0 
0.0 0.0 0.0 
0.0 0.0 0.0 
0.0 0.0 0.0 
0.0 0.0 0.0 
0.0 0.0 0.0 
0.0 0.0 0.0 
0.0 0.0 0.0 
0.0 0.0 0.0 
0.0 0.0 0.0 
0.0 0.0 0.0 
0.0 0.0 0.0 
0.0 0.0 0.0 
0.0 0.0 0.0 
0.0 0.0 0.0 
0.0 0.0 0.0 
0.0 0.0 0.0 
0.0 0.0 0.0 
0.0 0.0 0.0 
0.0 0.0 0.0 
0.0 0.0 0.0 
0.0 0.0 0.0 
0.0 0.0 0.0 
0.0 0.0 0.0 
0.0 0.0 0.0 
0.0 0.0 0.0 
0.0 0.0 0.0 
0.0 0.0 0.0 
0.0 0.0 0.0 
0.0 0.0 0.0 
0.0 0.0 0.0 
0.0 0.0 0.0 
0.0 0.0 0.0 
0.0 0.0 0.0 
0.0 0.0 0.0 
0.0 0.0 0.0 
0.0 0.0 0.0 
0.0 0.0 0.0 
0.0 0.0 0.0 
0.0 0.0 0.0 
0.0 0.0 0.0 
0.0 0.0 0.0 
0.0 0.0 0.0 
0.0 0.0 0.0 
0.0 0.0 0.0 
0.0 0.0 0.0 
0.0 0.0 0.0 
0.0 0.0 0.0 
0.0 0.0 0.0 
0.0 0.0 0.0 
0.0 0.0 0.0 
0.0 0.0 0.0 
0.0 0.0 0.0 
0.0 0.0 0.0 
0.0 0.0 0.0 
0.0 0.0 0.0 
0.0 0.0 0.0 
0.0 0.0 0.0 
0.0 0.0 0.0 
0.0 0.0 0.0 
0.0 0.0 0.0 
0.0 0.0 0.0 
0.0 0.0 0.0 
0.0 0.0 0.0 
0.0 0.0 0.0 
0.0 0.0 0.0 
0.0 0.0 0.0 
0.0 0.0 0.0 
0.0 0.0 0.0 
0.0 0.0 0.0 
0.0 0.0 0.0 
0.0 0.0 0.0 
0.0 0.0 0.0 
0.0 0.0 0.0 
0.0 0.0 0.0 
0.0 0.0 0.0 
0.0 0.0 0.0 
0.0 0.0 0.0 
0.0 0.0 0.0 
0.0 0.0 0.0 
0.0 0.0 0.0 
0.0 0.0 0.0 
0.0 0.0 0.0 
0.0 0.0 0.0 
0.0 0.0 0.0 
0.0 0.0 0.0 
0.0 0.0 0.0 
0.0 0.0 0.0 
0.0 0.0 0.0 
0.0 0.0 0.0 
0.0 0.0 0.0 
0.0 0.0 0.0 
0.0 0.0 0.0 
0.0 0.0 0.0 
0.0 0.0 0.0 
0.0 0.0 0.0 
0.0 0.0 0.0 
0.0 0.0 0.0 
0.0 0.0 0.0 
0.0 0.0 0.0 
0.0 0.0 0.0 
0.0 0.0 0.0 
0.0 0.0 0.0 
0.0 0.0 0.0 
0.0 0.0 0.0 
0.0 0.0 0.0 
0.0 0.0 0.0 
0.0 0.0 0.0 
0.0 0.0 0.0 
0.0 0.0 0.0 
0.0 0.0 0.0 
0.0 0.0 0.0 
0.0 0.0 0.0 
0.0 0.0 0.0 
0.0 0.0 0.0 
0.0 0.0 0.0 
0.0 0.0 0.0 
0.0 0.0 0.0 
0.0 0.0 0.0 
0.0 0.0 0.0 
0.0 0.0 0.0 
0.0 0.0 0.0 
0.0 0.0 0.0 
0.0 0.0 0.0 
0.0 0.0 0.0 
0.0 0.0 0.0 
0.0 0.0 0.0 
0.0 0.0 0.0 
0.0 0.0 0.0 
0.0 0.0 0.0 
0.0 0.0 0.0 
0.0 0.0 0.0 
0.0 0.0 0.0 
0.0 0.0 0.0 
0.0 0.0 0.0 
0.0 0.0 0.0 
0.0 0.0 0.0 
0.0 0.0 0.0 
0.0 0.0 0.0 
0.0 0.0 0.0 
0.0 0.0 0.0 
0.0 0.0 0.0 
0.0 0.0 0.0 
0.0 0.0 0.0 
0.0 0.0 0.0 
0.0 0.0 0.0 
0.0 0.0 0.0 
0.0 0.0 0.0 
0.0 0.0 0.0 
0.0 0.0 0.0 
0.0 0.0 0.0 
0.0 0.0 0.0 
0.0 0.0 0.0 
0.0 0.0 0.0 
0.0 0.0 0.0 
0.0 0.0 0.0 
0.0 0.0 0.0 
0.0 0.0 0.0 
0.0 0.0 0.0 
0.0 0.0 0.0 
0.0 0.0 0.0 
0.0 0.0 0.0 
0.0 0.0 0.0 
0.0 0.0 0.0 
0.0 0.0 0.0 
0.0 0.0 0.0 
0.0 0.0 0.0 
0.0 0.0 0.0 
0.0 0.0 0.0 
0.0 0.0 0.0 
0.0 0.0 0.0 
0.0 0.0 0.0 
0.0 0.0 0.0 
0.0 0.0 0.0 
0.0 0.0 0.0 
0.0 0.0 0.0 
0.0 0.0 0.0 
0.0 0.0 0.0 
0.0 0.0 0.0 
0.0 0.0 0.0 
0.0 0.0 0.0 
0.0 0.0 0.0 
0.0 0.0 0.0 
0.0 0.0 0.0 
0.0 0.0 0.0 
0.0 0.0 0.0 
0.0 0.0 0.0 
0.0 0.0 0.0 
0.0 0.0 0.0 
0.0 0.0 0.0 
0.0 0.0 0.0 
0.0 0.0 0.0 
0.0 0.0 0.0 
0.0 0.0 0.0 
0.0 0.0 0.0 
0.0 0.0 0.0 
0.0 0.0 0.0 
0.0 0.0 0.0 
0.0 0.0 0.0 
0.0 0.0 0.0 
0.0 0.0 0.0 
0.0 0.0 0.0 
0.0 0.0 0.0 
0.0 0.0 0.0 
0.0 0.0 0.0 
0.0 0.0 0.0 
0.0 0.0 0.0 
0.0 0.0 0.0 
0.0 0.0 0.0 
0.0 0.0 0.0 
0.0 0.0 0.0 
0.0 0.0 0.0 
0.0 0.0 0.0 
0.0 0.0 0.0 
0.0 0.0 0.0 
0.0 0.0 0.0 
0.0 0.0 0.0 
0.0 0.0 0.0 
0.0 0.0 0.0 
0.0 0.0 0.0 
0.0 0.0 0.0 
0.0 0.0 0.0 
0.0 0.0 0.0 
0.0 0.0 0.0 
0.0 0.0 0.0 
0.0 0.0 0.0 
0.0 0.0 0.0 
0.0 0.0 0.0 
0.0 0.0 0.0 
0.0 0.0 0.0 
0.0 0.0 0.0 
0.0 0.0 0.0 
0.0 0.0 0.0 
0.0 0.0 0.0 
0.0 0.0 0.0 
0.0 0.0 0.0 
0.0 0.0 0.0 
0.0 0.0 0.0 
0.0 0.0 0.0 
0.0 0.0 0.0 
0.0 0.0 0.0 
0.0 0.0 0.0 
0.0 0.0 0.0 
0.0 0.0 0.0 
0.0 0.0 0.0 
0.0 0.0 0.0 
0.0 0.0 0.0 
0.0 0.0 0.0 
0.0 0.0 0.0 
0.0 0.0 0.0 
0.0 0.0 0.0 
0.0 0.0 0.0 
0.0 0.0 0.0 
0.0 0.0 0.0 
0.0 0.0 0.0 
0.0 0.0 0.0 
0.0 0.0 0.0 
0.0 0.0 0.0 
0.0 0.0 0.0 
0.0 0.0 0.0 
0.0 0.0 0.0 
0.0 0.0 0.0 
0.0 0.0 0.0 
0.0 0.0 0.0 
0.0 0.0 0.0 
0.0 0.0 0.0 
0.0 0.0 0.0 
0.0 0.0 0.0 
0.0 0.0 0.0 
0.0 0.0 0.0 
0.0 0.0 0.0 
0.0 0.0 0.0 
0.0 0.0 0.0 
0.0 0.0 0.0 
0.0 0.0 0.0 
0.0 0.0 0.0 
0.0 0.0 0.0 
0.0 0.0 0.0 
0.0 0.0 0.0 
0.0 0.0 0.0 
0.0 0.0 0.0 
0.0 0.0 0.0 
0.0 0.0 0.0 
0.0 0.0 0.0 
0.0 0.0 0.0 
0.0 0.0 0.0 
0.0 0.0 0.0 
0.0 0.0 0.0 
0.0 0.0 0.0 
0.0 0.0 0.0 
0.0 0.0 0.0 
0.0 0.0 0.0 
0.0 0.0 0.0 
0.0 0.0 0.0 
0.0 0.0 0.0 
0.0 0.0 0.0 
0.0 0.0 0.0 
0.0 0.0 0.0 
0.0 0.0 0.0 
0.0 0.0 0.0 
0.0 0.0 0.0 
0.0 0.0 0.0 
0.0 0.0 0.0 
0.0 0.0 0.0 
0.0 0.0 0.0 
0.0 0.0 0.0 
0.0 0.0 0.0 
0.0 0.0 0.0 
0.0 0.0 0.0 
0.0 0.0 0.0 
0.0 0.0 0.0 
0.0 0.0 0.0 
0.0 0.0 0.0 
0.0 0.0 0.0 
0.0 0.0 0.0 
0.0 0.0 0.0 
0.0 0.0 0.0 
0.0 0.0 0.0 
0.0 0.0 0.0 
0.0 0.0 0.0 
0.0 0.0 0.0 
0.0 0.0 0.0 
0.0 0.0 0.0 
0.0 0.0 0.0 
0.0 0.0 0.0 
0.0 0.0 0.0 
0.0 0.0 0.0 
0.0 0.0 0.0 
0.0 0.0 0.0 
0.0 0.0 0.0 
0.0 0.0 0.0 
0.0 0.0 0.0 
0.0 0.0 0.0 
0.0 0.0 0.0 
0.0 0.0 0.0 
0.0 0.0 0.0 
0.0 0.0 0.0 
0.0 0.0 0.0 
0.0 0.0 0.0 
0.0 0.0 0.0 
0.0 0.0 0.0 
0.0 0.0 0.0 
0.0 0.0 0.0 
0.0 0.0 0.0 
0.0 0.0 0.0 
0.0 0.0 0.0 
0.0 0.0 0.0 
0.0 0.0 0.0 
0.0 0.0 0.0 
0.0 0.0 0.0 
0.0 0.0 0.0 
0.0 0.0 0.0 
0.0 0.0 0.0 
0.0 0.0 0.0 
0.0 0.0 0.0 
0.0 0.0 0.0 
0.0 0.0 0.0 
0.0 0.0 0.0 
0.0 0.0 0.0 
0.0 0.0 0.0 
0.0 0.0 0.0 
0.0 0.0 0.0 
0.0 0.0 0.0 
0.0 0.0 0.0 
0.0 0.0 0.0 
0.0 0.0 0.0 
0.0 0.0 0.0 
0.0 0.0 0.0 
0.0 0.0 0.0 
0.0 0.0 0.0 
0.0 0.0 0.0 
0.0 0.0 0.0 
0.0 0.0 0.0 
0.0 0.0 0.0 
0.0 0.0 0.0 
0.0 0.0 0.0 
0.0 0.0 0.0 
0.0 0.0 0.0 
0.0 0.0 0.0 
0.0 0.0 0.0 
0.0 0.0 0.0 
0.0 0.0 0.0 
0.0 0.0 0.0 
0.0 0.0 0.0 
0.0 0.0 0.0 
0.0 0.0 0.0 
0.0 0.0 0.0 
0.0 0.0 0.0 
0.0 0.0 0.0 
0.0 0.0 0.0 
0.0 0.0 0.0 
0.0 0.0 0.0 
0.0 0.0 0.0 
0.0 0.0 0.0 
0.0 0.0 0.0 
0.0 0.0 0.0 
0.0 0.0 0.0 
0.0 0.0 0.0 
0.0 0.0 0.0 
0.0 0.0 0.0 
0.0 0.0 0.0 
0.0 0.0 0.0 
0.0 0.0 0.0 
0.0 0.0 0.0 
0.0 0.0 0.0 
0.0 0.0 0.0 
0.0 0.0 0.0 
0.0 0.0 0.0 
0.0 0.0 0.0 
0.0 0.0 0.0 
0.0 0.0 0.0 
0.0 0.0 0.0 
0.0 0.0 0.0 
0.0 0.0 0.0 
0.0 0.0 0.0 
0.0 0.0 0.0 
0.0 0.0 0.0 
0.0 0.0 0.0 
0.0 0.0 0.0 
0.0 0.0 0.0 
0.0 0.0 0.0 
0.0 0.0 0.0 
0.0 0.0 0.0 
0.0 0.0 0.0 
0.0 0.0 0.0 
0.0 0.0 0.0 
0.0 0.0 0.0 
0.0 0.0 0.0 
0.0 0.0 0.0 
0.0 0.0 0.0 
0.0 0.0 0.0 
0.0 0.0 0.0 
0.0 0.0 0.0 
0.0 0.0 0.0 
0.0 0.0 0.0 
0.0 0.0 0.0 
0.0 0.0 0.0 
0.0 0.0 0.0 
0.0 0.0 0.0 
0.0 0.0 0.0 
0.0 0.0 0.0 
0.0 0.0 0.0 
0.0 0.0 0.0 
0.0 0.0 0.0 
0.0 0.0 0.0 
0.0 0.0 0.0 
0.0 0.0 0.0 
0.0 0.0 0.0 
0.0 0.0 0.0 
0.0 0.0 0.0 
0.0 0.0 0.0 
0.0 0.0 0.0 
0.0 0.0 0.0 
0.0 0.0 0.0 
0.0 0.0 0.0 
0.0 0.0 0.0 
0.0 0.0 0.0 
0.0 0.0 0.0 
0.0 0.0 0.0 
0.0 0.0 0.0 
0.0 0.0 0.0 
0.0 0.0 0.0 
0.0 0.0 0.0 
0.0 0.0 0.0 
0.0 0.0 0.0 
0.0 0.0 0.0 
0.0 0.0 0.0 
0.0 0.0 0.0 
0.0 0.0 0.0 
0.0 0.0 0.0 
0.0 0.0 0.0 
0.0 0.0 0.0 
0.0 0.0 0.0 
0.0 0.0 0.0 
0.0 0.0 0.0 
0.0 0.0 0.0 
0.0 0.0 0.0 
0.0 0.0 0.0 
0.0 0.0 0.0 
0.0 0.0 0.0 
0.0 0.0 0.0 
0.0 0.0 0.0 
0.0 0.0 0.0 
0.0 0.0 0.0 
0.0 0.0 0.0 
0.0 0.0 0.0 
0.0 0.0 0.0 
0.0 0.0 0.0 
0.0 0.0 0.0 
0.0 0.0 0.0 
0.0 0.0 0.0 
0.0 0.0 0.0 
0.0 0.0 0.0 
0.0 0.0 0.0 
0.0 0.0 0.0 
0.0 0.0 0.0 
0.0 0.0 0.0 
0.0 0.0 0.0 
0.0 0.0 0.0 
0.0 0.0 0.0 
0.0 0.0 0.0 
0.0 0.0 0.0 
0.0 0.0 0.0 
0.0 0.0 0.0 
0.0 0.0 0.0 
0.0 0.0 0.0 
0.0 0.0 0.0 
0.0 0.0 0.0 
0.0 0.0 0.0 
0.0 0.0 0.0 

TENSORS element_materi_stress float
-3.828289062060e+01 2.546667838768e+01 0.0 
2.546667838768e+01 -4.322396951364e+01 0.0 
0.0 0.0 -2.011209810513e+01 
-4.059045225628e+01 2.665804203147e+01 0.0 
2.665804203147e+01 -4.708288362222e+01 0.0 
0.0 0.0 -2.335805113897e+01 
-1.115459498349e+02 4.468435559053e+01 0.0 
4.468435559053e+01 -2.473873489829e+02 0.0 
0.0 0.0 -1.072799896453e+02 
-8.283999040354e+01 5.460303364598e+00 0.0 
5.460303364598e+00 -1.730495211189e+02 0.0 
0.0 0.0 -7.636685345674e+01 
-4.264550347021e+01 4.028110443090e-01 0.0 
4.028110443090e-01 -3.034516950671e+01 0.0 
0.0 0.0 -2.149720189308e+01 
-4.442159949906e+01 2.622541916246e+01 0.0 
2.622541916246e+01 -1.019926826470e+02 0.0 
0.0 0.0 -4.470857711786e+01 
-4.098083671860e+01 -2.065905046519e-01 0.0 
-2.065905046519e-01 -3.054563796506e+01 0.0 
0.0 0.0 -2.105794240510e+01 
-4.294862147945e+01 2.793069153707e+01 0.0 
2.793069153707e+01 -5.155471277487e+01 0.0 
0.0 0.0 -2.452312551403e+01 
-4.297370288689e+01 2.473641686775e+00 0.0 
2.473641686775e+00 -3.180406482438e+01 0.0 
0.0 0.0 -2.203333031338e+01 
-8.204235512337e+01 6.744520277152e+00 0.0 
6.744520277152e+00 -1.712985758858e+02 0.0 
0.0 0.0 -7.560227930276e+01 
-1.185383464664e+02 -1.737846306327e+00 0.0 
-1.737846306327e+00 -2.584529984154e+02 0.0 
0.0 0.0 -1.099174886424e+02 
-3.420502506726e+01 2.379442060329e+01 0.0 
2.379442060329e+01 -3.923798540785e+01 0.0 
0.0 0.0 -1.919369549657e+01 
-1.591450943287e+02 -9.645295684546e-01 0.0 
-9.645295684546e-01 -3.732566240061e+02 0.0 
0.0 0.0 -1.593205155004e+02 
-6.019491444392e+01 7.834211216994e+00 0.0 
7.834211216994e+00 -5.104586419695e+01 0.0 
0.0 0.0 -3.297223359226e+01 
-1.628280119690e+02 7.883333635629e-01 0.0 
7.883333635629e-01 -3.817657689955e+02 0.0 
0.0 0.0 -1.629781342893e+02 
-8.253370041673e+01 5.397639842536e+00 0.0 
5.397639842536e+00 -1.814798914353e+02 0.0 
0.0 0.0 -7.880407755562e+01 
-4.344330513538e+01 2.297366075358e+00 0.0 
2.297366075358e+00 -2.690343928495e+01 0.0 
0.0 0.0 -2.070402332610e+01 
-4.245197274259e+01 1.611791049199e+01 0.0 
1.611791049199e+01 -1.209744299883e+02 0.0 
0.0 0.0 -5.136727760554e+01 
-1.832918959648e+01 6.256012232475e-01 0.0 
6.256012232475e-01 -7.389955655142e+01 0.0 
0.0 0.0 -2.726862384437e+01 
-2.651041595909e+01 -1.232321151374e+00 0.0 
-1.232321151374e+00 -8.077378067361e+01 0.0 
0.0 0.0 -2.960514902521e+01 
-8.523167172497e+01 9.258279320192e+00 0.0 
9.258279320192e+00 -1.732530913826e+02 0.0 
0.0 0.0 -7.714542893228e+01 
-3.897637998088e+01 2.564619760092e+01 0.0 
2.564619760092e+01 -4.325481623004e+01 0.0 
0.0 0.0 -1.992553775905e+01 
-4.258818753997e+01 2.712006265137e+01 0.0 
2.712006265137e+01 -4.676359616448e+01 0.0 
0.0 0.0 -2.161730830178e+01 
-1.350614899743e+02 1.444823977905e+01 0.0 
1.444823977905e+01 -3.495295548306e+02 0.0 
0.0 0.0 -1.449773134415e+02 
-7.443989550023e+01 1.812119205695e+01 0.0 
1.812119205695e+01 -8.026544170729e+01 0.0 
0.0 0.0 -4.601160116225e+01 
-1.234377414882e+02 -5.745375711527e-01 0.0 
-5.745375711527e-01 -2.728494170818e+02 0.0 
0.0 0.0 -1.160548622753e+02 
-6.533422474314e+01 1.396914332865e+01 0.0 
1.396914332865e+01 -2.039964729785e+01 0.0 
0.0 0.0 -2.532016161230e+01 
-1.226624075086e+02 3.649729741521e+01 0.0 
3.649729741521e+01 -2.995768621035e+02 0.0 
0.0 0.0 -1.262717808836e+02 
-8.031557533798e+01 2.393502508285e+01 0.0 
2.393502508285e+01 -8.348950154579e+01 0.0 
0.0 0.0 -4.874152306513e+01 
-1.395791550440e+02 1.271893166143e+01 0.0 
1.271893166143e+01 -3.593527507287e+02 0.0 
0.0 0.0 -1.492795717318e+02 
-4.072530259435e+01 -2.503300557465e+01 0.0 
-2.503300557465e+01 -9.388441699570e+01 0.0 
0.0 0.0 -3.680656529931e+01 
9.825741972752e-01 6.748848226595e-01 0.0 
6.748848226595e-01 -2.513764949877e+01 0.0 
0.0 0.0 -6.558468384828e+00 
-1.137797468474e+02 4.611542858524e+01 0.0 
4.611542858524e+01 -2.454486947831e+02 0.0 
0.0 0.0 -1.073685324891e+02 
-1.372103633148e+02 6.392142163733e-01 0.0 
6.392142163733e-01 -3.226270199335e+02 0.0 
0.0 0.0 -1.375512149745e+02 
-1.558444312188e+02 4.005818044157e+00 0.0 
4.005818044157e+00 -3.779544615201e+02 0.0 
0.0 0.0 -1.597396678217e+02 
-1.660467345365e+02 -4.680694903136e-01 0.0 
-4.680694903136e-01 -3.924271281239e+02 0.0 
0.0 0.0 -1.671421587981e+02 
-1.663772384634e+02 2.460557226220e+00 0.0 
2.460557226220e+00 -3.923104075913e+02 0.0 
0.0 0.0 -1.672062938164e+02 
-1.332419381971e+02 2.479226127667e+01 0.0 
2.479226127667e+01 -3.346955271788e+02 0.0 
0.0 0.0 -1.399812396128e+02 
-3.256858040431e+01 1.467648567517e+00 0.0 
1.467648567517e+00 -1.225595102185e+01 0.0 
0.0 0.0 -1.304735942785e+01 
-3.196721549250e+01 -1.245150068644e+00 0.0 
-1.245150068644e+00 -1.263839316693e+01 0.0 
0.0 0.0 -1.298168259783e+01 
-4.387062290730e+01 2.742463819234e+01 0.0 
2.742463819234e+01 -4.675580434698e+01 0.0 
0.0 0.0 -2.231806560794e+01 
-1.573462046390e+02 6.653635166401e+00 0.0 
6.653635166401e+00 -3.822600251539e+02 0.0 
0.0 0.0 -1.614818689379e+02 
-3.853792393300e+01 2.568174526661e+01 0.0 
2.568174526661e+01 -4.418539976724e+01 0.0 
0.0 0.0 -2.162153302320e+01 
-5.584262345008e+01 1.500717210858e+01 0.0 
1.500717210858e+01 -1.823590824840e+01 0.0 
0.0 0.0 -2.151298970296e+01 
-8.040727930104e+01 2.056243193903e+00 0.0 
2.056243193903e+00 -1.609166083956e+02 0.0 
0.0 0.0 -7.199716630898e+01 
-3.642060552029e+01 2.500133920396e+01 0.0 
2.500133920396e+01 -4.343239121262e+01 0.0 
0.0 0.0 -2.047374178865e+01 
-3.893459281518e+01 -2.376488798150e+01 0.0 
-2.376488798150e+01 -9.281123592275e+01 0.0 
0.0 0.0 -3.869230092346e+01 
-7.729877457820e+01 2.315262062007e+00 0.0 
2.315262062007e+00 -1.614269833609e+02 0.0 
0.0 0.0 -7.121772738173e+01 
-2.520192756051e+01 -2.075185302809e+01 0.0 
-2.075185302809e+01 -5.198187283316e+01 0.0 
0.0 0.0 -2.349392086860e+01 
-5.919200499851e+01 8.187335679475e+00 0.0 
8.187335679475e+00 -4.241649727529e+01 0.0 
0.0 0.0 -3.008255068214e+01 
-4.324762846802e+01 2.738467173264e+01 0.0 
2.738467173264e+01 -4.737826170884e+01 0.0 
0.0 0.0 -2.100426446485e+01 
-2.943614271489e+01 4.563156176461e-01 0.0 
4.563156176461e-01 -9.548162998442e+01 0.0 
0.0 0.0 -3.601467066632e+01 
-4.919636439067e+01 -2.414440961411e+01 0.0 
-2.414440961411e+01 -1.236874585554e+02 0.0 
0.0 0.0 -4.734698433210e+01 
-4.176657759564e+01 2.671433713244e+01 0.0 
2.671433713244e+01 -4.554805891014e+01 0.0 
0.0 0.0 -2.104407916622e+01 
-1.014351466402e+02 3.742319121317e+01 0.0 
3.742319121317e+01 -2.177746841933e+02 0.0 
0.0 0.0 -9.536294925003e+01 
-5.789011300797e+01 -1.300582493155e+00 0.0 
-1.300582493155e+00 -1.286374039526e+02 0.0 
0.0 0.0 -5.163353920643e+01 
-4.229803577201e+01 -1.788887182151e+00 0.0 
-1.788887182151e+00 -9.973872954812e+01 0.0 
0.0 0.0 -3.882571173422e+01 
-1.367918637146e+02 -1.121472714570e+00 0.0 
-1.121472714570e+00 -3.225169735479e+02 0.0 
0.0 0.0 -1.373926511788e+02 
-1.170328215676e+01 3.770654479847e-01 0.0 
3.770654479847e-01 -5.802125977586e+01 0.0 
0.0 0.0 -1.911880471980e+01 
-8.410243592308e+01 7.599609529394e+00 0.0 
7.599609529394e+00 -1.821969268474e+02 0.0 
0.0 0.0 -7.948980883114e+01 
-3.512876708769e+01 -2.041389211787e+01 0.0 
-2.041389211787e+01 -9.184191110019e+01 0.0 
0.0 0.0 -3.912110373955e+01 
-1.193712110037e+02 3.026237499492e+01 0.0 
3.026237499492e+01 -2.994447879473e+02 0.0 
0.0 0.0 -1.252447996853e+02 
-6.574382278096e+01 3.907969341345e+01 0.0 
3.907969341345e+01 -1.114984472173e+02 0.0 
0.0 0.0 -5.086594975399e+01 
-4.077210658104e+01 -2.316845398006e+01 0.0 
-2.316845398006e+01 -1.009502274897e+02 0.0 
0.0 0.0 -3.553303108990e+01 
-1.589621197333e+02 8.027187273962e-01 0.0 
8.027187273962e-01 -3.737098826303e+02 0.0 
0.0 0.0 -1.594016007091e+02 
-3.990849949286e+01 2.599982500505e+01 0.0 
2.599982500505e+01 -4.399893295130e+01 0.0 
0.0 0.0 -1.959807658840e+01 
-3.579075445345e+01 -8.422145758900e+00 0.0 
-8.422145758900e+00 -1.127065185686e+02 0.0 
0.0 0.0 -4.578406878926e+01 
-1.177560943157e+02 4.854060261940e+01 0.0 
4.854060261940e+01 -2.546324966753e+02 0.0 
0.0 0.0 -1.113165772973e+02 
-3.470101138113e+01 -9.243724562601e+00 0.0 
-9.243724562601e+00 -7.075092117185e+01 0.0 
0.0 0.0 -2.603290158574e+01 
-1.218826871217e+02 4.402201220044e+01 0.0 
4.402201220044e+01 -2.843605853819e+02 0.0 
0.0 0.0 -1.214729817511e+02 
-1.262172238256e+02 -7.926986651430e-01 0.0 
-7.926986651430e-01 -2.842303035361e+02 0.0 
0.0 0.0 -1.208678960280e+02 
-8.883142665957e+01 2.547773601156e+01 0.0 
2.547773601156e+01 -2.086066622057e+02 0.0 
0.0 0.0 -8.883142665957e+01 
-1.201368610055e+02 3.655644939778e+01 0.0 
3.655644939778e+01 -2.928960991178e+02 0.0 
0.0 0.0 -1.235098880370e+02 
-2.830366034403e-01 -7.023517463131e-01 0.0 
-7.023517463131e-01 -2.990139448594e+01 0.0 
0.0 0.0 -6.280141128619e+00 
-6.553894579120e+01 -3.122324052964e+00 0.0 
-3.122324052964e+00 -1.337208346132e+02 0.0 
0.0 0.0 -5.436896051002e+01 
-9.120514131445e+01 1.946597198845e+01 0.0 
1.946597198845e+01 -1.823468480550e+02 0.0 
0.0 0.0 -8.166559681082e+01 
-1.092645769076e+02 4.068835111300e+01 0.0 
4.068835111300e+01 -2.253614847325e+02 0.0 
0.0 0.0 -9.998781849204e+01 
-3.143529133927e+01 2.295145244725e+01 0.0 
2.295145244725e+01 -3.862607203266e+01 0.0 
0.0 0.0 -1.695879928464e+01 
-1.367917774014e+01 -1.523921300115e+00 0.0 
-1.523921300115e+00 -5.913861061996e+01 0.0 
0.0 0.0 -1.993321897264e+01 
-3.979632055540e+01 2.653477778012e+01 0.0 
2.653477778012e+01 -4.776749195452e+01 0.0 
0.0 0.0 -2.196239869556e+01 
-3.909200496492e+01 -1.471601194338e+01 0.0 
-1.471601194338e+01 -7.237406872445e+01 0.0 
0.0 0.0 -2.787927312974e+01 
-4.472213269295e+01 1.817172339537e+00 0.0 
1.817172339537e+00 -2.624444465244e+01 0.0 
0.0 0.0 -2.088997320362e+01 
-4.255409923868e+01 2.723091247731e+01 0.0 
2.723091247731e+01 -4.748861827221e+01 0.0 
0.0 0.0 -2.253351375967e+01 
-3.614944626808e+01 2.422382074293e+01 0.0 
2.422382074293e+01 -3.892927453936e+01 0.0 
0.0 0.0 -1.924238517695e+01 
-4.963529581193e+01 3.444683783969e+00 0.0 
3.444683783969e+00 -4.256421481541e+01 0.0 
0.0 0.0 -2.725985318820e+01 
-4.633483103169e+01 8.335660580228e-01 0.0 
8.335660580228e-01 -4.111186348579e+01 0.0 
0.0 0.0 -2.583400835524e+01 
-1.284938758276e+02 -1.247513714508e-02 0.0 
-1.247513714508e-02 -2.923502149912e+02 0.0 
0.0 0.0 -1.244458834693e+02 
-1.335199317881e+02 -9.397971537434e-01 0.0 
-9.397971537434e-01 -3.139445648453e+02 0.0 
0.0 0.0 -1.338208826306e+02 
-1.021676327944e+02 4.328616282605e+01 0.0 
4.328616282605e+01 -1.987236144172e+02 0.0 
0.0 0.0 -8.986737416346e+01 
-4.573836802309e+01 3.312243425896e+00 0.0 
3.312243425896e+00 -3.070955193360e+01 0.0 
0.0 0.0 -2.253437598701e+01 
-2.071484528929e+00 -2.243828209953e+00 0.0 
-2.243828209953e+00 -2.767018111325e+01 0.0 
0.0 0.0 -7.900371408803e+00 
-6.529174787331e+01 1.742461648023e+01 0.0 
1.742461648023e+01 -3.898061614964e+01 0.0 
0.0 0.0 -3.088170920689e+01 
-6.586167413385e+01 2.226716235495e+00 0.0 
2.226716235495e+00 -1.110598441775e+02 0.0 
0.0 0.0 -5.267645549342e+01 
-6.664500612073e+01 1.917522671207e+00 0.0 
1.917522671207e+00 -1.077532232048e+02 0.0 
0.0 0.0 -5.191946879766e+01 
-1.003269021016e+02 2.839106565655e+01 0.0 
2.839106565655e+01 -2.154935324739e+02 0.0 
0.0 0.0 -9.434613037265e+01 
-1.406100897197e+02 2.873857028502e+01 0.0 
2.873857028502e+01 -3.387963942398e+02 0.0 
0.0 0.0 -1.434219451879e+02 
-4.835248393571e+01 3.605765301800e+00 0.0 
3.605765301800e+00 -2.623100274476e+01 0.0 
0.0 0.0 -2.197504600414e+01 
-1.533443696648e+02 5.889713072453e+00 0.0 
5.889713072453e+00 -3.804434523430e+02 0.0 
0.0 0.0 -1.597363466024e+02 
-5.016208640580e+01 9.826210536017e-01 0.0 
9.826210536017e-01 -6.132987913184e+01 0.0 
0.0 0.0 -3.304758966129e+01 
-5.580450402685e+01 3.486784502841e+01 0.0 
3.486784502841e+01 -8.778162312722e+01 0.0 
0.0 0.0 -3.916002353004e+01 
-3.912085567444e+01 1.918150598189e+00 0.0 
1.918150598189e+00 -2.177940268269e+01 0.0 
0.0 0.0 -1.787007750714e+01 
-1.624511555104e+02 -7.495865737986e-01 0.0 
-7.495865737986e-01 -3.814671397299e+02 0.0 
0.0 0.0 -1.627754885721e+02 
-1.017592724148e+02 2.617085785113e+01 0.0 
2.617085785113e+01 -2.596687311855e+02 0.0 
0.0 0.0 -1.080284010801e+02 
-1.198785499014e+02 3.106916216023e+01 0.0 
3.106916216023e+01 -2.997597420003e+02 0.0 
0.0 0.0 -1.254914875705e+02 
-5.393373313807e+01 3.319701630330e+01 0.0 
3.319701630330e+01 -1.010171821228e+02 0.0 
0.0 0.0 -4.366156085106e+01 
-4.424078240205e+01 -2.932137350692e+01 0.0 
-2.932137350692e+01 -8.063761713319e+01 0.0 
0.0 0.0 -3.521607898233e+01 
-1.502430250111e+02 7.214762388534e-01 0.0 
7.214762388534e-01 -3.527879607302e+02 0.0 
0.0 0.0 -1.505092957224e+02 
-7.244439208269e+01 2.668345730796e+00 0.0 
2.668345730796e+00 -1.278566950548e+02 0.0 
0.0 0.0 -5.969032614124e+01 
-3.931772190702e+01 -2.719753680903e+01 0.0 
-2.719753680903e+01 -7.181597631232e+01 0.0 
0.0 0.0 -3.449730683779e+01 
-1.620187097297e+02 8.883767281232e-01 0.0 
8.883767281232e-01 -3.808672326042e+02 0.0 
0.0 0.0 -1.624657827002e+02 
-9.683007326413e+01 4.054251212418e+01 0.0 
4.054251212418e+01 -1.929882193043e+02 0.0 
0.0 0.0 -8.654548777052e+01 
-1.629001319040e-01 1.406243247976e-01 0.0 
1.406243247976e-01 -2.158399614875e+01 0.0 
0.0 0.0 -4.358584047339e+00 
-7.184130388658e+01 3.529715377692e+01 0.0 
3.529715377692e+01 -1.597942466244e+02 0.0 
0.0 0.0 -6.997469079026e+01 
-6.049815845327e+01 2.964560251758e+01 0.0 
2.964560251758e+01 -4.536054544472e+01 0.0 
0.0 0.0 -3.021728515737e+01 
-8.305577238289e+01 -3.269736508584e+00 0.0 
-3.269736508584e+00 -1.649439496781e+02 0.0 
0.0 0.0 -6.827649227860e+01 
-5.835675882403e+01 3.601668095094e+01 0.0 
3.601668095094e+01 -8.967577144329e+01 0.0 
0.0 0.0 -4.241138538141e+01 
-5.906622910855e+01 3.612003309183e+01 0.0 
3.612003309183e+01 -1.006663124194e+02 0.0 
0.0 0.0 -4.505232624087e+01 
-1.593780763189e+02 2.410425003183e+00 0.0 
2.410425003183e+00 -3.834341858546e+02 0.0 
0.0 0.0 -1.624436786520e+02 
-4.807907464335e+01 -1.889543935509e-01 0.0 
-1.889543935509e-01 -5.458420421890e+01 0.0 
0.0 0.0 -3.039898365867e+01 
-6.596597259398e+01 3.925104515494e+01 0.0 
3.925104515494e+01 -1.104156561292e+02 0.0 
0.0 0.0 -5.101392155126e+01 
-2.398139793696e+01 -2.389732038496e+00 0.0 
-2.389732038496e+00 -6.151164805974e+01 0.0 
0.0 0.0 -2.066371328310e+01 
-7.240869605660e+01 2.113980330188e+01 0.0 
2.113980330188e+01 -4.877016871926e+01 0.0 
0.0 0.0 -3.595365943276e+01 
-7.063819507141e+01 2.731011678394e+00 0.0 
2.731011678394e+00 -1.287945719325e+02 0.0 
0.0 0.0 -5.942983010118e+01 
-5.676706645699e+01 3.470183036195e+01 0.0 
3.470183036195e+01 -1.028825576448e+02 0.0 
0.0 0.0 -4.552028050418e+01 
-2.553824783587e+01 2.084696326645e+01 0.0 
2.084696326645e+01 -3.618607468041e+01 0.0 
0.0 0.0 -1.576087628822e+01 
-4.734313513322e+01 2.766494320671e+01 0.0 
2.766494320671e+01 -4.445059141813e+01 0.0 
0.0 0.0 -2.449418719795e+01 
-7.859220155408e+01 -3.735351158973e+00 0.0 
-3.735351158973e+00 -1.625205752002e+02 0.0 
0.0 0.0 -6.682977230030e+01 
-4.836542477020e+01 2.843532523887e+01 0.0 
2.843532523887e+01 -4.702726119064e+01 0.0 
0.0 0.0 -2.529887815018e+01 
-8.919614809985e+01 2.047539465287e+01 0.0 
2.047539465287e+01 -1.923935419955e+02 0.0 
0.0 0.0 -8.407690702859e+01 
-5.159629398238e+01 3.296394482751e+01 0.0 
3.296394482751e+01 -8.015048365975e+01 0.0 
0.0 0.0 -3.455766859138e+01 
-1.213948710492e+02 -2.215464463387e+00 0.0 
-2.215464463387e+00 -2.712914546301e+02 0.0 
0.0 0.0 -1.153251237760e+02 
-8.142425935241e+01 3.347311556157e+00 0.0 
3.347311556157e+00 -1.725328579919e+02 0.0 
0.0 0.0 -7.578713520329e+01 
-7.046948445235e+01 3.854990515471e+01 0.0 
3.854990515471e+01 -1.093619431694e+02 0.0 
0.0 0.0 -4.897947634478e+01 
-4.505839571343e+01 2.752157061897e+01 0.0 
2.752157061897e+01 -4.586939315035e+01 0.0 
0.0 0.0 -2.340144291774e+01 
-1.528482078221e+02 2.700664443618e+00 0.0 
2.700664443618e+00 -3.767080841942e+02 0.0 
0.0 0.0 -1.584668876049e+02 
-1.595390331352e+02 1.041774679764e+00 0.0 
1.041774679764e+00 -3.739716217451e+02 0.0 
0.0 0.0 -1.596531964641e+02 
-1.270382716396e+02 -1.790468973705e+00 0.0 
-1.790468973705e+00 -2.922229946091e+02 0.0 
0.0 0.0 -1.242729577816e+02 
-7.186640019911e+01 3.963113328327e+01 0.0 
3.963113328327e+01 -1.098141808375e+02 0.0 
0.0 0.0 -5.031564174338e+01 
-1.470511075021e+02 1.350781309049e+01 0.0 
1.350781309049e+01 -3.721446310358e+02 0.0 
0.0 0.0 -1.553587215614e+02 
-6.816925162014e+01 3.854278964403e+01 0.0 
3.854278964403e+01 -9.152309748353e+01 0.0 
0.0 0.0 -4.241744410984e+01 
-8.454387359737e+01 1.395604380263e+01 0.0 
1.395604380263e+01 -1.812784626860e+02 0.0 
0.0 0.0 -7.934670088502e+01 
-1.191125728936e+02 4.428926989876e+01 0.0 
4.428926989876e+01 -2.761155706441e+02 0.0 
0.0 0.0 -1.181684430613e+02 
-6.613193807095e+01 1.260549735488e+01 0.0 
1.260549735488e+01 -5.218082700711e+01 0.0 
0.0 0.0 -3.509382952342e+01 
-6.007732448171e+01 2.178453927332e+00 0.0 
2.178453927332e+00 -8.592000703512e+01 0.0 
0.0 0.0 -4.339919945505e+01 
-6.488756654670e+01 3.869002196295e+01 0.0 
3.869002196295e+01 -8.985349105843e+01 0.0 
0.0 0.0 -4.099386336148e+01 
-4.445397102613e+01 2.753106390273e+01 0.0 
2.753106390273e+01 -4.660776883387e+01 0.0 
0.0 0.0 -2.306636599056e+01 
-7.589564316051e+01 3.930539543682e+01 0.0 
3.930539543682e+01 -1.289089064563e+02 0.0 
0.0 0.0 -5.671276407094e+01 
-6.102984177163e+01 3.517471599366e+01 0.0 
3.517471599366e+01 -1.213998091658e+02 0.0 
0.0 0.0 -5.229231249152e+01 
-3.823818741730e+01 1.483326777975e+00 0.0 
1.483326777975e+00 -2.437991783021e+01 0.0 
0.0 0.0 -1.838543157425e+01 
-6.485946464341e+01 3.139890087088e+01 0.0 
3.139890087088e+01 -1.506383021642e+02 0.0 
0.0 0.0 -6.357441876420e+01 
5.463966499001e-01 1.869323369787e-01 0.0 
1.869323369787e-01 -2.618135278948e+01 0.0 
0.0 0.0 -6.475796638879e+00 
-4.231159809276e+01 3.785281480932e-01 0.0 
3.785281480932e-01 -3.928073665372e+01 0.0 
0.0 0.0 -2.407770042394e+01 
-1.239414372814e+01 -5.543449253351e-01 0.0 
-5.543449253351e-01 -5.966658765124e+01 0.0 
0.0 0.0 -2.057371355788e+01 
-5.220739991933e+01 2.852063281721e+01 0.0 
2.852063281721e+01 -4.474338039916e+01 0.0 
0.0 0.0 -2.681987194897e+01 
-1.544233536457e+02 1.138835105494e+01 0.0 
1.138835105494e+01 -3.770400069465e+02 0.0 
0.0 0.0 -1.590390081777e+02 
-6.400317209014e+01 3.824796474052e+01 0.0 
3.824796474052e+01 -1.097486665287e+02 0.0 
0.0 0.0 -5.032203053924e+01 
-1.302785642732e+02 -1.357652398058e+00 0.0 
-1.357652398058e+00 -3.024716570006e+02 0.0 
0.0 0.0 -1.288052041323e+02 
-3.626287866848e+01 2.451583457116e+01 0.0 
2.451583457116e+01 -4.048175478545e+01 0.0 
0.0 0.0 -1.977938309068e+01 
-1.019988502377e+02 2.596530377253e+01 0.0 
2.596530377253e+01 -2.605136551212e+02 0.0 
0.0 0.0 -1.083537516077e+02 
-3.690330181553e+01 2.789414124404e-01 0.0 
2.789414124404e-01 -2.570408063968e+01 0.0 
0.0 0.0 -1.838221473656e+01 
-7.004142462315e+01 3.364154353616e+01 0.0 
3.364154353616e+01 -1.598886371149e+02 0.0 
0.0 0.0 -6.840509822102e+01 
-1.413086994123e+02 6.607620062848e-01 0.0 
6.607620062848e-01 -3.326243752641e+02 0.0 
0.0 0.0 -1.417799224029e+02 
-3.129147857000e+01 -8.331238414241e+00 0.0 
-8.331238414241e+00 -6.316941656221e+01 0.0 
0.0 0.0 -2.481348290429e+01 
-1.498934823322e+02 -1.080024728233e+00 0.0 
-1.080024728233e+00 -3.523666681606e+02 0.0 
0.0 0.0 -1.502780451478e+02 
-7.799778910306e+01 3.475677806271e+01 0.0 
3.475677806271e+01 -9.098391930300e+01 0.0 
0.0 0.0 -4.911720954790e+01 
-1.603950056702e+02 1.726244120008e-01 0.0 
1.726244120008e-01 -3.792482444016e+02 0.0 
0.0 0.0 -1.614929750215e+02 
-3.595224585845e+01 7.841984762039e-02 0.0 
7.841984762039e-02 -2.447515844221e+01 0.0 
0.0 0.0 -1.772822129020e+01 
-6.599682890789e+01 3.771911226168e+01 0.0 
3.771911226168e+01 -1.271505845881e+02 0.0 
0.0 0.0 -5.692982227188e+01 
-6.664880875915e+01 3.197953543453e+01 0.0 
3.197953543453e+01 -5.069446789023e+01 0.0 
0.0 0.0 -3.336141040276e+01 
-1.191727157365e+02 -3.222247291033e-01 0.0 
-3.222247291033e-01 -2.598670068964e+02 0.0 
0.0 0.0 -1.103656133811e+02 
-3.840281139547e+01 2.593404354017e+01 0.0 
2.593404354017e+01 -4.621694050099e+01 0.0 
0.0 0.0 -2.214003197473e+01 
-6.100782844779e+01 2.867791006363e+01 0.0 
2.867791006363e+01 -1.466706584654e+02 0.0 
0.0 0.0 -6.025783514048e+01 
-6.458644308794e+01 3.932905175308e+00 0.0 
3.932905175308e+00 -9.760232796873e+01 0.0 
0.0 0.0 -4.825663131700e+01 
-3.665121178958e+01 -3.206522671165e-01 0.0 
-3.206522671165e-01 -2.444029252514e+01 0.0 
0.0 0.0 -1.792745129442e+01 
-6.849574190949e+01 3.644359111642e+01 0.0 
3.644359111642e+01 -1.435087062669e+02 0.0 
0.0 0.0 -6.348079123916e+01 
-5.510885742132e+01 2.992555997973e+01 0.0 
2.992555997973e+01 -4.839963364904e+01 0.0 
0.0 0.0 -2.842367777799e+01 
-1.086999034504e+02 4.419795769150e+01 0.0 
4.419795769150e+01 -2.466860384072e+02 0.0 
0.0 0.0 -1.062157825573e+02 
-8.875897325242e+01 -3.539982923678e+00 0.0 
-3.539982923678e+00 -1.824764334994e+02 0.0 
0.0 0.0 -7.580190569431e+01 
-1.276098397511e+02 3.553682420081e+01 0.0 
3.553682420081e+01 -3.096116968700e+02 0.0 
0.0 0.0 -1.307664609864e+02 
-1.190089735287e+02 4.233816333554e+01 0.0 
4.233816333554e+01 -2.798330017051e+02 0.0 
0.0 0.0 -1.192525925702e+02 
-4.790891488031e+01 3.107293927456e+01 0.0 
3.107293927456e+01 -6.784859749599e+01 0.0 
0.0 0.0 -3.074813792524e+01 
-9.205191570926e+01 -3.391450523498e+00 0.0 
-3.391450523498e+00 -1.831501035647e+02 0.0 
0.0 0.0 -7.683846858937e+01 
-1.241481241886e+02 1.676768656134e+01 0.0 
1.676768656134e+01 -3.229506484856e+02 0.0 
0.0 0.0 -1.337296318023e+02 
-5.485769006571e+01 3.339263471105e+01 0.0 
3.339263471105e+01 -6.745130468760e+01 0.0 
0.0 0.0 -3.148002098247e+01 
-4.697074291653e+01 3.064488386061e+01 0.0 
3.064488386061e+01 -6.650511858305e+01 0.0 
0.0 0.0 -3.216319793790e+01 
-7.994096403003e+01 3.367595738801e+01 0.0 
3.367595738801e+01 -7.174828310751e+01 0.0 
0.0 0.0 -4.406528923388e+01 
-6.486056565567e+01 3.450390179729e+01 0.0 
3.450390179729e+01 -1.383372372454e+02 0.0 
0.0 0.0 -5.878455037203e+01 
-8.174064645878e+01 9.267787079670e+00 0.0 
9.267787079670e+00 -1.783171954744e+02 0.0 
0.0 0.0 -7.761735257996e+01 
-9.537828952115e+01 3.773734086689e+01 0.0 
3.773734086689e+01 -1.769558337942e+02 0.0 
0.0 0.0 -8.130023699461e+01 
-1.457186334358e+02 -1.122072923495e+00 0.0 
-1.122072923495e+00 -3.425310269567e+02 0.0 
0.0 0.0 -1.460748981177e+02 
-3.494527580080e+01 2.433642611809e+01 0.0 
2.433642611809e+01 -4.158142832074e+01 0.0 
0.0 0.0 -1.907385874641e+01 
-5.722325064498e+01 2.575426944748e+01 0.0 
2.575426944748e+01 -1.429318057606e+02 0.0 
0.0 0.0 -5.683385797915e+01 
-9.887411259067e+01 4.003119178323e+01 0.0 
4.003119178323e+01 -1.961561247327e+02 0.0 
0.0 0.0 -8.810907119700e+01 
-6.965112566575e+01 3.557185493390e+01 0.0 
3.557185493390e+01 -8.132236970209e+01 0.0 
0.0 0.0 -4.556000696286e+01 
-6.066713925826e+01 3.555821008405e+01 0.0 
3.555821008405e+01 -7.118789844024e+01 0.0 
0.0 0.0 -3.459086059376e+01 
-1.205511137634e+02 9.639258842096e+00 0.0 
9.639258842096e+00 -3.174964628239e+02 0.0 
0.0 0.0 -1.310142729762e+02 
-5.765781521108e+00 5.979279593831e-01 0.0 
5.979279593831e-01 -4.173449257870e+01 0.0 
0.0 0.0 -1.175222841819e+01 
-1.071374558595e+02 4.062593410315e+01 0.0 
4.062593410315e+01 -2.276468382700e+02 0.0 
0.0 0.0 -1.000352882389e+02 
-8.497644583056e+01 2.837927484659e+01 0.0 
2.837927484659e+01 -1.191359906640e+02 0.0 
0.0 0.0 -6.083373094836e+01 
-8.015064180698e+01 -1.371075077220e+01 0.0 
-1.371075077220e+01 -1.845086581397e+02 0.0 
0.0 0.0 -7.713866743172e+01 
-1.185099774192e+02 9.444783989489e+00 0.0 
9.444783989489e+00 -3.126425292583e+02 0.0 
0.0 0.0 -1.289457520032e+02 
-7.648796923243e+01 2.319901854194e+01 0.0 
2.319901854194e+01 -6.371121950121e+01 0.0 
0.0 0.0 -4.165975662009e+01 
-7.690604332245e+01 1.834023849429e+01 0.0 
1.834023849429e+01 -7.024228089782e+01 0.0 
0.0 0.0 -4.374449726608e+01 
-1.433894010043e+02 1.282719371728e+01 0.0 
1.282719371728e+01 -3.608915244421e+02 0.0 
0.0 0.0 -1.508842776339e+02 
-6.340548768181e+01 -1.300620750113e+01 0.0 
-1.300620750113e+01 -1.346596319569e+02 0.0 
0.0 0.0 -5.580560937728e+01 
-7.859335142698e+01 4.006465593050e+01 0.0 
4.006465593050e+01 -1.480300101205e+02 0.0 
0.0 0.0 -6.373199784549e+01 
-7.922457784298e+01 3.634537737366e+01 0.0 
3.634537737366e+01 -1.102005843217e+02 0.0 
0.0 0.0 -5.518486676884e+01 
-9.013346472699e+01 3.067474913586e+01 0.0 
3.067474913586e+01 -1.265709031605e+02 0.0 
0.0 0.0 -6.461131036625e+01 
-7.850966639676e+01 3.579897099840e+01 0.0 
3.579897099840e+01 -9.232294270516e+01 0.0 
0.0 0.0 -5.033409282592e+01 
-7.374130795041e+01 3.621113430982e+01 0.0 
3.621113430982e+01 -6.881784736964e+01 0.0 
0.0 0.0 -4.114101451441e+01 
-9.137557595590e+01 2.207846196509e+01 0.0 
2.207846196509e+01 -2.380725687613e+02 0.0 
0.0 0.0 -9.919039008519e+01 
-1.063880623327e+02 4.564849234794e+01 0.0 
4.564849234794e+01 -2.302817814912e+02 0.0 
0.0 0.0 -1.006009531472e+02 
-3.128741003375e+01 1.646206007675e+01 0.0 
1.646206007675e+01 -9.049386562540e+01 0.0 
0.0 0.0 -3.765818980291e+01 
-5.055635960679e+01 3.214412354121e+01 0.0 
3.214412354121e+01 -6.939087506219e+01 0.0 
0.0 0.0 -3.329932570649e+01 
-6.125653198153e+01 3.729589233477e+01 0.0 
3.729589233477e+01 -9.145879710693e+01 0.0 
0.0 0.0 -4.288510839622e+01 
-7.437601640253e+01 3.994262981302e+01 0.0 
3.994262981302e+01 -1.291090878999e+02 0.0 
0.0 0.0 -5.705450386699e+01 
-1.003825241300e+02 4.016397104495e+01 0.0 
4.016397104495e+01 -1.827692990797e+02 0.0 
0.0 0.0 -8.454554696292e+01 
-5.142015481273e+01 2.518328424439e+01 0.0 
2.518328424439e+01 -1.275386561927e+02 0.0 
0.0 0.0 -5.173109716325e+01 
-1.188853605414e+02 5.860758773591e+00 0.0 
5.860758773591e+00 -3.145045713414e+02 0.0 
0.0 0.0 -1.296169795648e+02 
-3.705989989277e+01 1.360715892513e+00 0.0 
1.360715892513e+00 -2.329589310076e+01 0.0 
0.0 0.0 -1.770673789806e+01 
-6.773508971054e+01 3.131192155735e+01 0.0 
3.131192155735e+01 -1.596005299794e+02 0.0 
0.0 0.0 -6.659930137947e+01 
-1.174365295425e+02 1.909789944242e+00 0.0 
1.909789944242e+00 -3.115619932826e+02 0.0 
0.0 0.0 -1.282995568475e+02 
-1.508589581553e+00 1.211183349516e+00 0.0 
1.211183349516e+00 -2.868571815496e+01 0.0 
0.0 0.0 -7.192471206774e+00 
-9.005575225374e+01 3.040202810717e+01 0.0 
3.040202810717e+01 -1.424362057800e+02 0.0 
0.0 0.0 -6.934758741013e+01 
1.952203069817e-01 1.177049534204e-01 0.0 
1.177049534204e-01 -2.386857519451e+01 0.0 
0.0 0.0 -5.472108723399e+00 
-5.416651422502e+00 -4.242091665905e-01 0.0 
-4.242091665905e-01 -4.287022741592e+01 0.0 
0.0 0.0 -1.248018743841e+01 
-3.833198200616e+01 2.588489278331e+01 0.0 
2.588489278331e+01 -4.599851060918e+01 0.0 
0.0 0.0 -2.154748339343e+01 
-5.408726919164e+01 -1.210928524100e+01 0.0 
-1.210928524100e+01 -1.134278113150e+02 0.0 
0.0 0.0 -4.665975014768e+01 
-9.487414545682e+01 3.251149000790e+01 0.0 
3.251149000790e+01 -1.496589878720e+02 0.0 
0.0 0.0 -7.295993999865e+01 
-4.921845993432e+01 -1.154230305963e+01 0.0 
-1.154230305963e+01 -1.057210836222e+02 0.0 
0.0 0.0 -4.295359539691e+01 
-5.515596346223e+01 3.451201268345e+01 0.0 
3.451201268345e+01 -9.098216324194e+01 0.0 
0.0 0.0 -3.994588625824e+01 
-5.122446636889e+01 -2.658565490035e+01 0.0 
-2.658565490035e+01 -1.225194096360e+02 0.0 
0.0 0.0 -4.629145467154e+01 
-3.315992321366e+01 -7.924461692284e+00 0.0 
-7.924461692284e+00 -7.111767190544e+01 0.0 
0.0 0.0 -2.795828391368e+01 
-1.210317538575e+02 1.264397730841e+01 0.0 
1.264397730841e+01 -3.174946556748e+02 0.0 
0.0 0.0 -1.311579228597e+02 
-7.662783982492e+01 3.725340809756e+01 0.0 
3.725340809756e+01 -9.045371794359e+01 0.0 
0.0 0.0 -4.849469559040e+01 
-1.585882776596e+02 -9.494641894225e-01 0.0 
-9.494641894225e-01 -3.736878992950e+02 0.0 
0.0 0.0 -1.592828530864e+02 
-2.490945799488e+01 5.077835547373e+00 0.0 
5.077835547373e+00 -8.833295679153e+01 0.0 
0.0 0.0 -3.451442396077e+01 
-6.215918636124e+01 3.701232334655e+01 0.0 
3.701232334655e+01 -1.123933660035e+02 0.0 
0.0 0.0 -4.889900141465e+01 
-7.084336294168e+01 2.907298287496e+01 0.0 
2.907298287496e+01 -1.739321509406e+02 0.0 
0.0 0.0 -7.298649602038e+01 
-5.653746500745e+01 3.422154037110e+01 0.0 
3.422154037110e+01 -7.024105247223e+01 0.0 
0.0 0.0 -3.257723517497e+01 
-1.159747433440e+02 6.038534166152e+00 0.0 
6.038534166152e+00 -3.074733764013e+02 0.0 
0.0 0.0 -1.266344359236e+02 
-1.608744916033e+02 -3.157866937792e-01 0.0 
-3.157866937792e-01 -3.813906654492e+02 0.0 
0.0 0.0 -1.622795471157e+02 
-9.494359500809e+01 3.869915277845e+01 0.0 
3.869915277845e+01 -1.600102504311e+02 0.0 
0.0 0.0 -7.608615363176e+01 
-5.206979896388e+01 2.372376349544e+01 0.0 
2.372376349544e+01 -1.329434363471e+02 0.0 
0.0 0.0 -4.997678994455e+01 
-1.222221867039e+02 1.320724144378e+01 0.0 
1.320724144378e+01 -3.201217179722e+02 0.0 
0.0 0.0 -1.323031714028e+02 
-1.247830248037e+02 -1.831036324640e+00 0.0 
-1.831036324640e+00 -2.811108472388e+02 0.0 
0.0 0.0 -1.196044779703e+02 
-7.666966212476e+01 4.026473931985e+01 0.0 
4.026473931985e+01 -1.295397179536e+02 0.0 
0.0 0.0 -5.891447930726e+01 
-8.859146424352e+01 3.201552577463e+01 0.0 
3.201552577463e+01 -1.381224054916e+02 0.0 
0.0 0.0 -6.761416092054e+01 
-1.226107462138e+02 3.342182736159e+01 0.0 
3.342182736159e+01 -3.037473427335e+02 0.0 
0.0 0.0 -1.275074266842e+02 
-6.063272580428e+01 2.330420234403e+01 0.0 
2.330420234403e+01 -1.572876969493e+02 0.0 
0.0 0.0 -6.335165092144e+01 
-4.648515828376e+01 3.057896582107e+01 0.0 
3.057896582107e+01 -7.908910582463e+01 0.0 
0.0 0.0 -3.359288285004e+01 
-8.171849536904e+01 3.740632820865e+01 0.0 
3.740632820865e+01 -1.134870332585e+02 0.0 
0.0 0.0 -5.816165858826e+01 
-9.671259095919e+01 2.472782447551e+01 0.0 
2.472782447551e+01 -2.115804448560e+02 0.0 
0.0 0.0 -9.208791074456e+01 
-7.683929855449e+01 3.963665760265e+01 0.0 
3.963665760265e+01 -1.481135584455e+02 0.0 
0.0 0.0 -6.385912400260e+01 
-7.250927254791e+01 1.541390714940e+01 0.0 
1.541390714940e+01 -1.975065850522e+02 0.0 
0.0 0.0 -8.387030214178e+01 
-4.445553624695e+01 9.993931485979e-01 0.0 
9.993931485979e-01 -4.318549003900e+01 0.0 
0.0 0.0 -2.589230788578e+01 
-3.694388943256e+01 -1.486545356177e+01 0.0 
-1.486545356177e+01 -7.025182963033e+01 0.0 
0.0 0.0 -2.574011617059e+01 
-7.611379273072e+01 3.290950400852e+01 0.0 
3.290950400852e+01 -9.076706698140e+01 0.0 
0.0 0.0 -4.922557776545e+01 
-6.341495988735e+01 3.163776850348e+01 0.0 
3.163776850348e+01 -1.453887009667e+02 0.0 
0.0 0.0 -5.938424472741e+01 
-5.556119650066e+01 2.547251296575e+01 0.0 
2.547251296575e+01 -1.388449123627e+02 0.0 
0.0 0.0 -5.573162048052e+01 
-4.639459978061e+01 -2.423823231636e+01 0.0 
-2.423823231636e+01 -1.151030410789e+02 0.0 
0.0 0.0 -4.519120706770e+01 
-9.097702506296e+01 2.878804493604e+01 0.0 
2.878804493604e+01 -1.473157151864e+02 0.0 
0.0 0.0 -7.108782207481e+01 
-8.052693939525e+01 3.797476752684e+01 0.0 
3.797476752684e+01 -1.124113492426e+02 0.0 
0.0 0.0 -5.707181749936e+01 
-6.794685863872e+01 3.863225204904e+01 0.0 
3.863225204904e+01 -1.275920675125e+02 0.0 
0.0 0.0 -5.777602362168e+01 
-9.586477299989e+01 3.083850090200e+01 0.0 
3.083850090200e+01 -1.553494277274e+02 0.0 
0.0 0.0 -7.496426021819e+01 
-9.836183373377e+01 4.095595650906e+01 0.0 
4.095595650906e+01 -1.791491368952e+02 0.0 
0.0 0.0 -8.285329118870e+01 
-7.882758515464e+01 4.041105220743e+01 0.0 
4.041105220743e+01 -1.299792528949e+02 0.0 
0.0 0.0 -6.055882071721e+01 
-1.618785097233e+02 1.217594996468e+00 0.0 
1.217594996468e+00 -3.830117658288e+02 0.0 
0.0 0.0 -1.630670826657e+02 
-8.044689922086e+01 1.508499651227e+01 0.0 
1.508499651227e+01 -2.173258855496e+02 0.0 
0.0 0.0 -9.378152217480e+01 
-8.085340947139e+01 4.024690534139e+01 0.0 
4.024690534139e+01 -1.306139163677e+02 0.0 
0.0 0.0 -6.212693734372e+01 
-6.836914334949e+01 3.355578871955e+01 0.0 
3.355578871955e+01 -1.543952621996e+02 0.0 
0.0 0.0 -6.520682834200e+01 
-8.085001052909e+01 1.717075032758e+01 0.0 
1.717075032758e+01 -2.166094171043e+02 0.0 
0.0 0.0 -9.310715159740e+01 
-5.555320237221e+01 2.174824889658e+01 0.0 
2.174824889658e+01 -1.464255624965e+02 0.0 
0.0 0.0 -5.718667975320e+01 
-5.877520843066e+01 1.059509664829e+01 0.0 
1.059509664829e+01 -2.811363541643e+01 0.0 
0.0 0.0 -2.566665315413e+01 
-6.105018646118e+01 1.643859097630e+01 0.0 
1.643859097630e+01 -1.679935421016e+02 0.0 
0.0 0.0 -6.704405213696e+01 
-5.919088675591e+01 -1.561790572598e+01 0.0 
-1.561790572598e+01 -1.642009000211e+02 0.0 
0.0 0.0 -6.409923824395e+01 
-9.213069103988e+01 3.522619766984e+01 0.0 
3.522619766984e+01 -1.578817807897e+02 0.0 
0.0 0.0 -7.460374154889e+01 
-9.732760030726e+01 -1.109325701274e+00 0.0 
-1.109325701274e+00 -1.113691043769e+02 0.0 
0.0 0.0 -6.288275257760e+01 
-7.901770756265e+01 3.517964423703e+01 0.0 
3.517964423703e+01 -9.282432655836e+01 0.0 
0.0 0.0 -5.115261023630e+01 
-6.063599696763e+01 2.384747755267e+01 0.0 
2.384747755267e+01 -1.563130110311e+02 0.0 
0.0 0.0 -6.194399644745e+01 
-4.653335041249e+01 2.933740974092e+01 0.0 
2.933740974092e+01 -9.395786496080e+01 0.0 
0.0 0.0 -3.728613676228e+01 
-4.821602054598e+01 9.885188044474e+00 0.0 
9.885188044474e+00 -1.421064853717e+02 0.0 
0.0 0.0 -5.293046379327e+01 
-8.336073795402e+01 3.654981506172e+01 0.0 
3.654981506172e+01 -1.321852013578e+02 0.0 
0.0 0.0 -6.426378179355e+01 
-8.156396739495e+00 1.009122030763e+00 0.0 
1.009122030763e+00 -4.017529982347e+01 0.0 
0.0 0.0 -1.066283260278e+01 
-6.368666823224e+01 3.831444496468e+01 0.0 
3.831444496468e+01 -9.192835821300e+01 0.0 
0.0 0.0 -4.277189808485e+01 
-8.692234427745e+01 1.600503109917e+01 0.0 
1.600503109917e+01 -2.325314871045e+02 0.0 
0.0 0.0 -1.009584373064e+02 
-7.912338662345e+01 3.533742541918e+01 0.0 
3.533742541918e+01 -1.110807349632e+02 0.0 
0.0 0.0 -5.618956653705e+01 
-7.136434643894e+01 1.775009315220e+01 0.0 
1.775009315220e+01 -5.647538198030e+01 0.0 
0.0 0.0 -3.795191852577e+01 
-4.597793584062e+01 1.706059108354e+01 0.0 
1.706059108354e+01 -1.287561958543e+02 0.0 
0.0 0.0 -5.493100071826e+01 
-5.244457860426e+01 -8.890156596335e+00 0.0 
-8.890156596335e+00 -1.530989885956e+02 0.0 
0.0 0.0 -5.800991265678e+01 
-5.998455933362e+01 -2.067408003564e+01 0.0 
-2.067408003564e+01 -1.598627318450e+02 0.0 
0.0 0.0 -6.252430547023e+01 
-4.949568326854e+01 3.164903059077e+01 0.0 
3.164903059077e+01 -6.774174504196e+01 0.0 
0.0 0.0 -3.068863275358e+01 
-9.160143672096e+01 3.602683414141e+01 0.0 
3.602683414141e+01 -1.404686903415e+02 0.0 
0.0 0.0 -6.922103811873e+01 
-5.824416641100e+01 3.595340380051e+01 0.0 
3.595340380051e+01 -8.832350484294e+01 0.0 
0.0 0.0 -3.941026652758e+01 
-6.666555018196e+01 1.825644757105e+01 0.0 
1.825644757105e+01 -1.801170597506e+02 0.0 
0.0 0.0 -7.286941354904e+01 
-6.772059289108e+01 2.573271911731e+01 0.0 
2.573271911731e+01 -1.719761916032e+02 0.0 
0.0 0.0 -7.045470468584e+01 
-4.375485568216e+01 1.563698420478e+01 0.0 
1.563698420478e+01 -1.250343979589e+02 0.0 
0.0 0.0 -5.066311475492e+01 
-7.634357439550e+01 3.446824351315e+01 0.0 
3.446824351315e+01 -1.767152489020e+02 0.0 
0.0 0.0 -7.681268046992e+01 
-3.768402343267e+01 2.663831956540e+01 0.0 
2.663831956540e+01 -5.823381591141e+01 0.0 
0.0 0.0 -2.394487077139e+01 
-1.115915180335e+02 4.304523675853e+01 0.0 
4.304523675853e+01 -2.426491141932e+02 0.0 
0.0 0.0 -1.058721896680e+02 
-1.174497769410e+02 4.892634897481e+01 0.0 
4.892634897481e+01 -2.594105580280e+02 0.0 
0.0 0.0 -1.126581004907e+02 
-8.103026921948e+01 4.029124409744e+01 0.0 
4.029124409744e+01 -1.661499879866e+02 0.0 
0.0 0.0 -7.094652447781e+01 
-5.915609346374e+01 2.705927981287e+01 0.0 
2.705927981287e+01 -1.453742775956e+02 0.0 
0.0 0.0 -5.750982860547e+01 
-4.322460061985e+01 2.753734927621e+01 0.0 
2.753734927621e+01 -9.082125102116e+01 0.0 
0.0 0.0 -3.424887319266e+01 
-8.391661415323e+01 3.943053057413e+01 0.0 
3.943053057413e+01 -1.493785817741e+02 0.0 
0.0 0.0 -6.839690382835e+01 
-4.906031293620e+01 2.579345580123e+01 0.0 
2.579345580123e+01 -1.186994384849e+02 0.0 
0.0 0.0 -4.446037409400e+01 
-5.046633874140e+01 -1.578105944270e+01 0.0 
-1.578105944270e+01 -1.420171669482e+02 0.0 
0.0 0.0 -5.366328393293e+01 
-7.806095336744e+01 3.905100876102e+01 0.0 
3.905100876102e+01 -1.291430099088e+02 0.0 
0.0 0.0 -5.862758459048e+01 
-9.105627198872e+01 1.568776287513e+01 0.0 
1.568776287513e+01 -1.853178244901e+02 0.0 
0.0 0.0 -8.251222894366e+01 
-6.496643096452e+01 2.857472844354e+01 0.0 
2.857472844354e+01 -1.584475496689e+02 0.0 
0.0 0.0 -6.462802569731e+01 
-9.217954059964e+01 2.221564898008e+01 0.0 
2.221564898008e+01 -2.399433669776e+02 0.0 
0.0 0.0 -1.021876927175e+02 
-5.519509345611e+01 3.441330219048e+01 0.0 
3.441330219048e+01 -9.416868749992e+01 0.0 
0.0 0.0 -4.057210845530e+01 
-1.542737291766e+02 2.019616624047e+01 0.0 
2.019616624047e+01 -3.757305019816e+02 0.0 
0.0 0.0 -1.586012693474e+02 
-6.314853578650e+01 3.466247238160e+01 0.0 
3.466247238160e+01 -1.327765872327e+02 0.0 
0.0 0.0 -5.481898753321e+01 
-8.067857172604e+01 3.988098270310e+01 0.0 
3.988098270310e+01 -1.484311537627e+02 0.0 
0.0 0.0 -6.520656956685e+01 
-5.006830410018e+01 1.603451474094e+01 0.0 
1.603451474094e+01 -1.406901737796e+02 0.0 
0.0 0.0 -5.678695643103e+01 
-9.776112468514e+01 6.486463850125e+00 0.0 
6.486463850125e+00 -2.635746739331e+02 0.0 
0.0 0.0 -1.123679042066e+02 
-7.078027451895e+01 2.286812919158e+01 0.0 
2.286812919158e+01 -1.847067185976e+02 0.0 
0.0 0.0 -7.657638398228e+01 
-5.418250845136e+01 -1.838807679653e+01 0.0 
-1.838807679653e+01 -1.481186029494e+02 0.0 
0.0 0.0 -5.618075150548e+01 
-7.868363234361e+01 3.903694550905e+01 0.0 
3.903694550905e+01 -1.106178138635e+02 0.0 
0.0 0.0 -5.527055993844e+01 
-1.239763205849e+02 4.812188725240e+01 0.0 
4.812188725240e+01 -2.812404955723e+02 0.0 
0.0 0.0 -1.211650448472e+02 
-6.341570696439e+01 2.100258376688e+01 0.0 
2.100258376688e+01 -1.682989833077e+02 0.0 
0.0 0.0 -6.725968808783e+01 
-8.624142296696e+01 1.540329147460e+01 0.0 
1.540329147460e+01 -2.313095478516e+02 0.0 
0.0 0.0 -9.956548636999e+01 
-4.106983458704e+01 2.796217823979e+01 0.0 
2.796217823979e+01 -7.483485262662e+01 0.0 
0.0 0.0 -2.932875849389e+01 
-7.028869387409e+01 1.098979346582e+01 0.0 
1.098979346582e+01 -8.352999059413e+01 0.0 
0.0 0.0 -4.574560534047e+01 
-1.133653446377e+02 2.758424540557e+00 0.0 
2.758424540557e+00 -3.017241193530e+02 0.0 
0.0 0.0 -1.241268391972e+02 
-4.875659567255e+01 3.162918038765e+01 0.0 
3.162918038765e+01 -8.154951314452e+01 0.0 
0.0 0.0 -3.548765014601e+01 
-7.036608398609e+01 1.095272440053e+01 0.0 
1.095272440053e+01 -7.494008032661e+01 0.0 
0.0 0.0 -4.319184929381e+01 
-1.266726475400e+02 4.289109125691e+01 0.0 
4.289109125691e+01 -2.996134407161e+02 0.0 
0.0 0.0 -1.274858264768e+02 
-1.211188148016e+02 4.740730268794e+00 0.0 
4.740730268794e+00 -3.200738749768e+02 0.0 
0.0 0.0 -1.319578069335e+02 
-1.249456466343e+02 5.091384040604e+01 0.0 
5.091384040604e+01 -2.770711681762e+02 0.0 
0.0 0.0 -1.202050444432e+02 
-7.604836838241e+01 1.640590704905e+01 0.0 
1.640590704905e+01 -7.740897946426e+01 0.0 
0.0 0.0 -4.563720435400e+01 
-9.940157626215e+01 4.329213353783e+01 0.0 
4.329213353783e+01 -1.948657665812e+02 0.0 
0.0 0.0 -8.788020285300e+01 
-4.273450549724e+01 2.880542400576e+01 0.0 
2.880542400576e+01 -6.217486108658e+01 0.0 
0.0 0.0 -2.761290013072e+01 
-7.423523211298e+01 3.867764355347e+01 0.0 
3.867764355347e+01 -8.977847577258e+01 0.0 
0.0 0.0 -4.679713665920e+01 
-8.146800503673e+01 3.808107837298e+01 0.0 
3.808107837298e+01 -1.299959587963e+02 0.0 
0.0 0.0 -6.178088382017e+01 
-8.264067765949e+01 3.981135644200e+01 0.0 
3.981135644200e+01 -1.318634848349e+02 0.0 
0.0 0.0 -6.373662290517e+01 
-7.432049543814e+01 3.861884362790e+01 0.0 
3.861884362790e+01 -1.474120275258e+02 0.0 
0.0 0.0 -6.266537320688e+01 
-1.300933642254e+02 3.996679706971e+01 0.0 
3.996679706971e+01 -3.136984891669e+02 0.0 
0.0 0.0 -1.327375560177e+02 
-7.638452998089e+01 2.223159899024e+01 0.0 
2.223159899024e+01 -7.867360316385e+01 0.0 
0.0 0.0 -4.611743994342e+01 
-7.750193053143e+01 3.285211517427e+01 0.0 
3.285211517427e+01 -7.145285701563e+01 0.0 
0.0 0.0 -4.374603734172e+01 
-5.741354496397e+01 1.861581024489e+01 0.0 
1.861581024489e+01 -1.561310036448e+02 0.0 
0.0 0.0 -6.109106727365e+01 
-4.439682804073e+01 -1.057619964494e+01 0.0 
-1.057619964494e+01 -9.240009720540e+01 0.0 
0.0 0.0 -3.757055946430e+01 
-6.974562096273e+01 3.760228038952e+01 0.0 
3.760228038952e+01 -7.016622172320e+01 0.0 
0.0 0.0 -3.955439596976e+01 
-6.312545309455e+01 3.768955770564e+01 0.0 
3.768955770564e+01 -1.108973912131e+02 0.0 
0.0 0.0 -5.002966353787e+01 
-3.689770988113e+01 4.202445048426e-01 0.0 
4.202445048426e-01 -2.542693531330e+01 0.0 
0.0 0.0 -1.829739355833e+01 
-6.403172533416e+01 -2.027852164620e+01 0.0 
-2.027852164620e+01 -1.709009610991e+02 0.0 
0.0 0.0 -6.803304697409e+01 
-5.476262348282e+01 2.126548984616e+01 0.0 
2.126548984616e+01 -1.451538845337e+02 0.0 
0.0 0.0 -5.564577011528e+01 
-9.364488469351e+01 3.379978143233e+01 0.0 
3.379978143233e+01 -1.614251127941e+02 0.0 
0.0 0.0 -7.612099924628e+01 
-4.998237859756e+01 3.128278980666e+01 0.0 
3.128278980666e+01 -9.620509894020e+01 0.0 
0.0 0.0 -4.004411720811e+01 
-7.753295146963e+01 3.745121238055e+01 0.0 
3.745121238055e+01 -1.097750679231e+02 0.0 
0.0 0.0 -5.370735052345e+01 
-9.076151610658e+01 1.331075933879e+01 0.0 
1.331075933879e+01 -2.437409861881e+02 0.0 
0.0 0.0 -1.059749897682e+02 
-9.776583982114e+01 -6.523172804628e+00 0.0 
-6.523172804628e+00 -2.510353507128e+02 0.0 
0.0 0.0 -1.054531076384e+02 
-1.378639088645e+02 3.491726630795e+01 0.0 
3.491726630795e+01 -3.324944992076e+02 0.0 
0.0 0.0 -1.407075224216e+02 
-5.919992185457e+01 3.477052910487e+01 0.0 
3.477052910487e+01 -6.842687463982e+01 0.0 
0.0 0.0 -3.415129427481e+01 
-5.183717550083e+01 -7.721644902269e-01 0.0 
-7.721644902269e-01 -1.542703790628e+02 0.0 
0.0 0.0 -5.846511286984e+01 
-7.911671980083e+01 -1.746606388273e+01 0.0 
-1.746606388273e+01 -1.810304802981e+02 0.0 
0.0 0.0 -7.690616438842e+01 
-4.562857751424e+01 2.999267909710e+01 0.0 
2.999267909710e+01 -6.392621868893e+01 0.0 
0.0 0.0 -2.928250280889e+01 
-5.674881614007e+01 3.529421329909e+01 0.0 
3.529421329909e+01 -8.910665144687e+01 0.0 
0.0 0.0 -4.141304203859e+01 
-1.038021396379e+02 4.243689733517e+01 0.0 
4.243689733517e+01 -2.017653136812e+02 0.0 
0.0 0.0 -9.127023599574e+01 
-8.112910677402e+01 4.085623831399e+01 0.0 
4.085623831399e+01 -1.493861289207e+02 0.0 
0.0 0.0 -6.741396585833e+01 
-5.241972458909e+01 3.260281239099e+01 0.0 
3.260281239099e+01 -6.722163937247e+01 0.0 
0.0 0.0 -3.016014570110e+01 
-7.263291761438e+01 3.697802789131e+01 0.0 
3.697802789131e+01 -8.997523771917e+01 0.0 
0.0 0.0 -4.554279993127e+01 
-1.463968723858e+02 2.716058919315e+01 0.0 
2.716058919315e+01 -3.561841709357e+02 0.0 
0.0 0.0 -1.503743129965e+02 
-1.335567973450e+02 2.636620428606e+01 0.0 
2.636620428606e+01 -3.356401682677e+02 0.0 
0.0 0.0 -1.403590896838e+02 
-1.006728084879e+02 3.924314187849e+01 0.0 
3.924314187849e+01 -1.994567384063e+02 0.0 
0.0 0.0 -8.963886406827e+01 
-9.366450655542e+01 3.433866369860e+01 0.0 
3.433866369860e+01 -1.449421905018e+02 0.0 
0.0 0.0 -7.118200911716e+01 
-9.757056548193e+01 -1.046585438339e+01 0.0 
-1.046585438339e+01 -2.485508846510e+02 0.0 
0.0 0.0 -1.057330508907e+02 
-6.323501751838e+01 3.786709314929e+01 0.0 
3.786709314929e+01 -1.091753299092e+02 0.0 
0.0 0.0 -4.781361825187e+01 
-4.939638845684e+01 1.864754822201e+01 0.0 
1.864754822201e+01 -1.352685940772e+02 0.0 
0.0 0.0 -5.010311322618e+01 
-5.222582096675e+01 1.565447104628e+01 0.0 
1.565447104628e+01 -1.466304903160e+02 0.0 
0.0 0.0 -5.454988240231e+01 
-7.895621047054e+01 4.045193422167e+01 0.0 
4.045193422167e+01 -1.487528059516e+02 0.0 
0.0 0.0 -6.572070060115e+01 
-9.561143204131e+01 7.988500895678e+00 0.0 
7.988500895678e+00 -2.579470495423e+02 0.0 
0.0 0.0 -1.110438083796e+02 
-9.744338928080e+01 -8.089061358387e+00 0.0 
-8.089061358387e+00 -2.057040206723e+02 0.0 
0.0 0.0 -8.638167046649e+01 
-9.831147684819e+01 3.574586745019e+01 0.0 
3.574586745019e+01 -1.842640440154e+02 0.0 
0.0 0.0 -8.437265625908e+01 
-5.320711620256e+01 -1.081790620885e+01 0.0 
-1.081790620885e+01 -1.536616574663e+02 0.0 
0.0 0.0 -5.861427895353e+01 
-7.002961536704e+01 3.820417633505e+01 0.0 
3.820417633505e+01 -1.416898124132e+02 0.0 
0.0 0.0 -6.054321279921e+01 
-7.988901664849e+01 3.863902675053e+01 0.0 
3.863902675053e+01 -1.293826505329e+02 0.0 
0.0 0.0 -6.025429998174e+01 
-6.585146092677e+01 3.818896942536e+01 0.0 
3.818896942536e+01 -1.227458458167e+02 0.0 
0.0 0.0 -5.343073660733e+01 
-1.226155168003e+02 5.101703973376e+01 0.0 
5.101703973376e+01 -2.698404063429e+02 0.0 
0.0 0.0 -1.173367769430e+02 
-1.131411900906e+02 4.572018481831e+01 0.0 
4.572018481831e+01 -2.502381772052e+02 0.0 
0.0 0.0 -1.086138101887e+02 
-1.115352438724e+02 4.376814085923e+01 0.0 
4.376814085923e+01 -2.301777683879e+02 0.0 
0.0 0.0 -1.021139036781e+02 
-1.038857332712e+02 -7.282837554140e+00 0.0 
-7.282837554140e+00 -2.663761874663e+02 0.0 
0.0 0.0 -1.130751507683e+02 
-9.130736920281e+01 2.722708410844e+01 0.0 
2.722708410844e+01 -1.527507211940e+02 0.0 
0.0 0.0 -7.281742711905e+01 
-5.538026577597e+01 3.465076929912e+01 0.0 
3.465076929912e+01 -8.965352913328e+01 0.0 
0.0 0.0 -4.054797375022e+01 
-5.504273308564e+01 1.296763602032e+01 0.0 
1.296763602032e+01 -1.564312551758e+02 0.0 
0.0 0.0 -5.950099436159e+01 
-4.627553475393e+01 1.274753793252e+01 0.0 
1.274753793252e+01 -1.348394844416e+02 0.0 
0.0 0.0 -5.143631358357e+01 
-6.112459063031e+01 3.717110814512e+01 0.0 
3.717110814512e+01 -8.880928343869e+01 0.0 
0.0 0.0 -3.974106267554e+01 
-5.573218289211e+01 6.859901118157e+00 0.0 
6.859901118157e+00 -2.801135942884e+01 0.0 
0.0 0.0 -2.472306269628e+01 
-6.868292798421e+01 1.151018046040e+01 0.0 
1.151018046040e+01 -7.360497881771e+01 0.0 
0.0 0.0 -4.228637204058e+01 
-1.407858726335e+02 1.908885028458e+01 0.0 
1.908885028458e+01 -3.579291045166e+02 0.0 
0.0 0.0 -1.492144931450e+02 
-1.019477705129e+02 4.180065194090e+01 0.0 
4.180065194090e+01 -2.143310699096e+02 0.0 
0.0 0.0 -9.448365212676e+01 
-8.041603477437e+01 3.434633254392e+01 0.0 
3.434633254392e+01 -1.122663168902e+02 0.0 
0.0 0.0 -5.740470549937e+01 
-8.479156179096e+01 3.906039955861e+01 0.0 
3.906039955861e+01 -1.501712676799e+02 0.0 
0.0 0.0 -6.971488077672e+01 
-5.056130205842e+01 1.264330725788e+01 0.0 
1.264330725788e+01 -1.456124054718e+02 0.0 
0.0 0.0 -5.663579052294e+01 
-1.903243515418e+01 -7.002973445585e+00 0.0 
-7.002973445585e+00 -4.582922473715e+01 0.0 
0.0 0.0 -1.469446539929e+01 
-7.368233162652e+01 3.198074276366e+01 0.0 
3.198074276366e+01 -1.753363347301e+02 0.0 
0.0 0.0 -7.577362634292e+01 
-7.464206005014e+01 3.787916431415e+01 0.0 
3.787916431415e+01 -1.601727169940e+02 0.0 
0.0 0.0 -6.758265154383e+01 
-6.854606684444e+01 2.968979762180e+01 0.0 
2.968979762180e+01 -1.660629282892e+02 0.0 
0.0 0.0 -6.994082458835e+01 
-4.319663782819e+01 2.851729737492e+01 0.0 
2.851729737492e+01 -5.601203402868e+01 0.0 
0.0 0.0 -2.608854066341e+01 
-4.297386674326e+01 3.436580162239e-01 0.0 
3.436580162239e-01 -4.193711817400e+01 0.0 
0.0 0.0 -2.507329547518e+01 
-3.781411129488e+01 -7.536617527532e+00 0.0 
-7.536617527532e+00 -8.370562116979e+01 0.0 
0.0 0.0 -3.213748048616e+01 
-6.421446026397e+01 3.593662989625e+01 0.0 
3.593662989625e+01 -1.304390465084e+02 0.0 
0.0 0.0 -5.492033935458e+01 
-1.603463161376e+02 1.977428840167e+01 0.0 
1.977428840167e+01 -3.754747376544e+02 0.0 
0.0 0.0 -1.603463161376e+02 
-9.614278986642e+01 2.036947634939e+01 0.0 
2.036947634939e+01 -2.516364182620e+02 0.0 
0.0 0.0 -1.043761350243e+02 
-7.212867781828e+01 2.891440027737e+01 0.0 
2.891440027737e+01 -6.868345640081e+01 0.0 
0.0 0.0 -4.144694840403e+01 
-1.181262596213e+01 -6.562578168564e-02 0.0 
-6.562578168564e-02 -5.829362991133e+01 0.0 
0.0 0.0 -1.924203782242e+01 
-7.606673573854e+01 4.012476462154e+01 0.0 
4.012476462154e+01 -1.476007343001e+02 0.0 
0.0 0.0 -6.405017306375e+01 
-6.458696551905e+01 2.658531799863e+01 0.0 
2.658531799863e+01 -1.617696287092e+02 0.0 
0.0 0.0 -6.724787406385e+01 
-8.456129272301e+01 3.929366397647e+01 0.0 
3.929366397647e+01 -1.331944050810e+02 0.0 
0.0 0.0 -6.492670934119e+01 
-1.244489222034e+02 4.610710857841e+01 0.0 
4.610710857841e+01 -2.871214209880e+02 0.0 
0.0 0.0 -1.230711029574e+02 
-7.530627810075e+01 3.579433760481e+01 0.0 
3.579433760481e+01 -8.985287079279e+01 0.0 
0.0 0.0 -4.719282854379e+01 
-8.308139470232e+01 4.109952213366e+01 0.0 
4.109952213366e+01 -1.500401007577e+02 0.0 
0.0 0.0 -6.893097869622e+01 
-9.419756859417e+01 -8.759735045131e+00 0.0 
-8.759735045131e+00 -2.051039743520e+02 0.0 
0.0 0.0 -8.491809977934e+01 
-9.479113885124e+01 3.254843003083e+01 0.0 
3.254843003083e+01 -1.655970918569e+02 0.0 
0.0 0.0 -7.771646921244e+01 
-1.022052020025e+02 -4.046027604565e+00 0.0 
-4.046027604565e+00 -2.698071144784e+02 0.0 
0.0 0.0 -1.123893600436e+02 
-1.250056860060e+02 4.415937355865e+01 0.0 
4.415937355865e+01 -2.926708517782e+02 0.0 
0.0 0.0 -1.249029613353e+02 
-1.199481487989e+02 4.778606318737e+01 0.0 
4.778606318737e+01 -2.704412245622e+02 0.0 
0.0 0.0 -1.167168120083e+02 
-9.969531592968e+01 3.893509729485e+01 0.0 
3.893509729485e+01 -2.333373157282e+02 0.0 
0.0 0.0 -9.950978949738e+01 
-1.086412354618e+02 4.349013529183e+01 0.0 
4.349013529183e+01 -2.482585576054e+02 0.0 
0.0 0.0 -1.066699379202e+02 
-8.639455956651e+01 3.834084938593e+01 0.0 
3.834084938593e+01 -1.515494831211e+02 0.0 
0.0 0.0 -7.098321280628e+01 
-9.827952387447e+01 3.591340163246e+01 0.0 
3.591340163246e+01 -1.677079339901e+02 0.0 
0.0 0.0 -7.939623735937e+01 
-1.042696669609e+02 4.179596561080e+01 0.0 
4.179596561080e+01 -2.187648517007e+02 0.0 
0.0 0.0 -9.651035559849e+01 
-6.848428840674e+01 3.915002498673e+01 0.0 
3.915002498673e+01 -1.286813798365e+02 0.0 
0.0 0.0 -5.704548486683e+01 
-6.674719814581e+01 3.963430881521e+01 0.0 
3.963430881521e+01 -1.108706816782e+02 0.0 
0.0 0.0 -5.022204820883e+01 
-9.288694286780e+01 -7.078590939707e+00 0.0 
-7.078590939707e+00 -1.924850586521e+02 0.0 
0.0 0.0 -8.017850571989e+01 
-1.018494526824e+02 3.910507747890e+01 0.0 
3.910507747890e+01 -1.864762742801e+02 0.0 
0.0 0.0 -8.609771808875e+01 
-1.281350581636e+02 4.115243328879e+01 0.0 
4.115243328879e+01 -3.065881780406e+02 0.0 
0.0 0.0 -1.300169708613e+02 
-9.520100732464e+01 3.105150156843e+01 0.0 
3.105150156843e+01 -1.701571417072e+02 0.0 
0.0 0.0 -7.920744470954e+01 
-8.866835388861e+01 1.888904618404e+01 0.0 
1.888904618404e+01 -2.344445700131e+02 0.0 
0.0 0.0 -9.920249736965e+01 
-9.924417152165e+01 3.446437062116e+01 0.0 
3.446437062116e+01 -1.725412532649e+02 0.0 
0.0 0.0 -8.113562743597e+01 
-9.298340229140e+01 3.403483663695e+01 0.0 
3.403483663695e+01 -2.248924448815e+02 0.0 
0.0 0.0 -9.496275415188e+01 
-7.733046241438e+01 3.911493207840e+01 0.0 
3.911493207840e+01 -1.645566193599e+02 0.0 
0.0 0.0 -7.166052679250e+01 
-6.594041797465e+01 3.921528411224e+01 0.0 
3.921528411224e+01 -9.223383706149e+01 0.0 
0.0 0.0 -4.266732644304e+01 
-6.085632398835e+01 3.533808667372e+01 0.0 
3.533808667372e+01 -1.195460662541e+02 0.0 
0.0 0.0 -5.007468540837e+01 
-9.034835943089e+01 2.563323617909e+01 0.0 
2.563323617909e+01 -1.938640470011e+02 0.0 
0.0 0.0 -8.486372192961e+01 
-6.932463068139e+01 3.960928312662e+01 0.0 
3.960928312662e+01 -1.293238292402e+02 0.0 
0.0 0.0 -5.810094332427e+01 
-1.188527408571e+02 3.837154965082e+01 0.0 
3.837154965082e+01 -2.866111454505e+02 0.0 
0.0 0.0 -1.212391658923e+02 
-9.069491379677e+01 -8.456327164278e+00 0.0 
-8.456327164278e+00 -1.920156363103e+02 0.0 
0.0 0.0 -7.919608591317e+01 
-6.232200609097e+01 -2.237000386511e+01 0.0 
-2.237000386511e+01 -1.608235813119e+02 0.0 
0.0 0.0 -6.361779012691e+01 
-1.493578791806e+02 1.605741778330e+01 0.0 
1.605741778330e+01 -3.649378641215e+02 0.0 
0.0 0.0 -1.538887229906e+02 
-6.529394576406e+01 3.699776101758e+01 0.0 
3.699776101758e+01 -1.287604508733e+02 0.0 
0.0 0.0 -5.566547323321e+01 
-1.248127337190e+02 4.876512230570e+01 0.0 
4.876512230570e+01 -2.821078727682e+02 0.0 
0.0 0.0 -1.216761819462e+02 
-1.045208903281e+02 3.962309628845e+01 0.0 
3.962309628845e+01 -2.256262716763e+02 0.0 
0.0 0.0 -9.864414860134e+01 
-8.507217000477e+01 4.040490473004e+01 0.0 
4.040490473004e+01 -1.677547678118e+02 0.0 
0.0 0.0 -7.352077716856e+01 
-8.062252549722e+00 -1.472972831203e+00 0.0 
-1.472972831203e+00 -2.865461486940e+01 0.0 
0.0 0.0 -8.672759520491e+00 
-1.280437066204e+02 4.610094240747e+01 0.0 
4.610094240747e+01 -2.971256498049e+02 0.0 
0.0 0.0 -1.271508069276e+02 
-1.444504055901e+02 2.121352978237e+01 0.0 
2.121352978237e+01 -3.513166103988e+02 0.0 
0.0 0.0 -1.483301047967e+02 
-5.435290024456e+01 -2.091012815740e+01 0.0 
-2.091012815740e+01 -1.446702022041e+02 0.0 
0.0 0.0 -5.491056213675e+01 
-9.364204649415e+01 1.716612098852e+01 0.0 
1.716612098852e+01 -2.481531197244e+02 0.0 
0.0 0.0 -1.044593411632e+02 
-1.400702429754e+02 3.302992919293e+01 0.0 
3.302992919293e+01 -3.382536537033e+02 0.0 
0.0 0.0 -1.430971690036e+02 
9.997610301525e-01 -4.970726153666e-02 0.0 
-4.970726153666e-02 -9.339429326138e+00 0.0 
0.0 0.0 -1.815981786302e-01 
-7.298658984504e+01 3.941428677196e+01 0.0 
3.941428677196e+01 -1.470979170088e+02 0.0 
0.0 0.0 -6.494042309769e+01 
-8.644739444648e+01 4.044742333374e+01 0.0 
4.044742333374e+01 -1.683912138665e+02 0.0 
0.0 0.0 -7.501512769154e+01 
-8.324664189361e+01 4.041947970064e+01 0.0 
4.041947970064e+01 -1.670229241716e+02 0.0 
0.0 0.0 -7.170384450610e+01 
-8.245823483120e+01 3.969787065027e+01 0.0 
3.969787065027e+01 -1.488752999965e+02 0.0 
0.0 0.0 -6.690545697308e+01 
-6.112851958154e+01 3.613909059606e+01 0.0 
3.613909059606e+01 -1.147995007666e+02 0.0 
0.0 0.0 -4.877252109777e+01 
-1.316346729728e+02 4.181330080875e+01 0.0 
4.181330080875e+01 -3.084809036033e+02 0.0 
0.0 0.0 -1.316346729728e+02 
-5.893832055059e+01 1.128503892361e+01 0.0 
1.128503892361e+01 -1.673727714158e+02 0.0 
0.0 0.0 -6.532893402489e+01 
-4.409637764927e+01 4.680673286619e+00 0.0 
4.680673286619e+00 -1.349066391206e+02 0.0 
0.0 0.0 -5.656085044860e+01 
-1.593270906804e+02 1.381942233090e+00 0.0 
1.381942233090e+00 -3.824914111276e+02 0.0 
0.0 0.0 -1.621455505424e+02 
9.953096959715e-01 3.484953235972e-01 0.0 
3.484953235972e-01 -2.489362860750e+01 0.0 
0.0 0.0 -3.682178802408e+00 
-7.036413948715e+01 3.783581959338e+01 0.0 
3.783581959338e+01 -9.069336194281e+01 0.0 
0.0 0.0 -4.408270694027e+01 
-3.894327098781e+01 -2.410470246254e+01 0.0 
-2.410470246254e+01 -9.147167384441e+01 0.0 
0.0 0.0 -3.582665926854e+01 
-7.641997936493e+01 3.665255136548e+01 0.0 
3.665255136548e+01 -7.307143738916e+01 0.0 
0.0 0.0 -4.266776359003e+01 
-1.491651224924e+02 2.475414205145e+01 0.0 
2.475414205145e+01 -3.626034583356e+02 0.0 
0.0 0.0 -1.531305742484e+02 
-1.360531452150e+02 3.791732659399e+01 0.0 
3.791732659399e+01 -3.187906721683e+02 0.0 
0.0 0.0 -1.360531452150e+02 
-8.194609047542e+01 3.735172733582e+01 0.0 
3.735172733582e+01 -1.307614837350e+02 0.0 
0.0 0.0 -6.295818141456e+01 
-3.155735383450e+01 -2.352958362282e+01 0.0 
-2.352958362282e+01 -6.261748962074e+01 0.0 
0.0 0.0 -2.190633630802e+01 
-4.154834915327e+01 6.711390354587e+00 0.0 
6.711390354587e+00 -1.278499752791e+02 0.0 
0.0 0.0 -5.317655233946e+01 
-4.810125690652e+01 -2.982659859593e+01 0.0 
-2.982659859593e+01 -9.791843002821e+01 0.0 
0.0 0.0 -3.790312854704e+01 
-1.368766962312e+02 6.751761264043e-01 0.0 
6.751761264043e-01 -3.410899458400e+02 0.0 
0.0 0.0 -1.429899926214e+02 
-5.520450106429e+01 8.518129571282e+00 0.0 
8.518129571282e+00 -3.134255716842e+01 0.0 
0.0 0.0 -2.556411746981e+01 
-7.616714373059e+01 3.181560087761e+01 0.0 
3.181560087761e+01 -7.056000817619e+01 0.0 
0.0 0.0 -4.361814557203e+01 
-1.415428464906e+02 3.444655845264e+01 0.0 
3.444655845264e+01 -3.315999751448e+02 0.0 
0.0 0.0 -1.415428464906e+02 
-4.998393548134e+01 6.001182980571e+00 0.0 
6.001182980571e+00 -2.930230360917e+01 0.0 
0.0 0.0 -2.338587172715e+01 
-1.070469357910e+02 3.924814994632e+01 0.0 
3.924814994632e+01 -2.342297131599e+02 0.0 
0.0 0.0 -1.019829946853e+02 
-9.785655855373e+01 3.224954092690e+01 0.0 
3.224954092690e+01 -2.411328306653e+02 0.0 
0.0 0.0 -1.012968167657e+02 
-6.169738963752e+01 7.275056429204e+00 0.0 
7.275056429204e+00 -6.100673101043e+01 0.0 
0.0 0.0 -3.641123619438e+01 
-5.729113121088e+01 3.553355366431e+01 0.0 
3.553355366431e+01 -8.792521432170e+01 0.0 
0.0 0.0 -4.156572888397e+01 
-9.362662973535e+01 1.676674942257e+01 0.0 
1.676674942257e+01 -2.484180941207e+02 0.0 
0.0 0.0 -1.065193286890e+02 
-4.086149869183e+01 2.242491644556e+01 0.0 
2.242491644556e+01 -1.034930533026e+02 0.0 
0.0 0.0 -3.776988861109e+01 
-1.465138123946e+02 3.083232578708e+01 0.0 
3.083232578708e+01 -3.431988955875e+02 0.0 
0.0 0.0 -1.465138123946e+02 
-1.143119589086e+02 4.575584335895e+01 0.0 
4.575584335895e+01 -2.591143707892e+02 0.0 
0.0 0.0 -1.116278989093e+02 
-1.041883049322e+02 4.135273042578e+01 0.0 
4.135273042578e+01 -2.405677768530e+02 0.0 
0.0 0.0 -1.030268245356e+02 
-1.090409522176e+02 -6.183216261489e+00 0.0 
-6.183216261489e+00 -2.727540568162e+02 0.0 
0.0 0.0 -1.151652953012e+02 
-8.760764846309e+01 -5.907836828298e+00 0.0 
-5.907836828298e+00 -1.795221761793e+02 0.0 
0.0 0.0 -7.397239860032e+01 
-7.121049456026e+01 3.587428254986e+01 0.0 
3.587428254986e+01 -1.561589924520e+02 0.0 
0.0 0.0 -6.613669752430e+01 
-1.063740909376e+02 -3.909958880372e+00 0.0 
-3.909958880372e+00 -2.761743124618e+02 0.0 
0.0 0.0 -1.143645210198e+02 
-1.516901002814e+02 2.693675768716e+01 0.0 
2.693675768716e+01 -3.552769006567e+02 0.0 
0.0 0.0 -1.516901002814e+02 
-5.040202905453e+01 2.910633134848e+01 0.0 
2.910633134848e+01 -1.110647909659e+02 0.0 
0.0 0.0 -4.301817462330e+01 
-5.499049069575e+01 -1.354813222559e+01 0.0 
-1.354813222559e+01 -1.557716225192e+02 0.0 
0.0 0.0 -5.980049213027e+01 
-6.016248763156e+01 -1.522077893527e+01 0.0 
-1.522077893527e+01 -1.670345639848e+02 0.0 
0.0 0.0 -6.547080022500e+01 
-6.418598997422e+01 7.447689198896e+00 0.0 
7.447689198896e+00 -7.173836582060e+01 0.0 
0.0 0.0 -4.037730673845e+01 
-1.573061148444e+02 1.733286478088e+01 0.0 
1.733286478088e+01 -3.824590404790e+02 0.0 
0.0 0.0 -1.615295465970e+02 
-4.311158755654e+01 -2.905452637318e+01 0.0 
-2.905452637318e+01 -7.425429094258e+01 0.0 
0.0 0.0 -2.948273841830e+01 
-1.574224692624e+02 2.208701662353e+01 0.0 
2.208701662353e+01 -3.686524282790e+02 0.0 
0.0 0.0 -1.574224692624e+02 
-6.026281190215e+01 -1.815314725329e+01 0.0 
-1.815314725329e+01 -1.640161609735e+02 0.0 
0.0 0.0 -6.410053394982e+01 
-1.268122972007e+02 4.775547763979e+01 0.0 
4.775547763979e+01 -2.901438871671e+02 0.0 
0.0 0.0 -1.246868553103e+02 
-1.078817316799e+02 4.474216113659e+01 0.0 
4.474216113659e+01 -2.210118979256e+02 0.0 
0.0 0.0 -9.826808888162e+01 
9.993558343880e-01 8.111726550935e-02 0.0 
8.111726550935e-02 -9.214781170452e+00 0.0 
0.0 0.0 1.000000000000e+00 
-7.494537663236e+01 3.764227187168e+01 0.0 
3.764227187168e+01 -1.621216031463e+02 0.0 
0.0 0.0 -7.105021371572e+01 
-9.647160744942e+01 2.927894747550e+01 0.0 
2.927894747550e+01 -1.621408081681e+02 0.0 
0.0 0.0 -7.718372468526e+01 
-1.290809648943e+02 4.408966653946e+01 0.0 
4.408966653946e+01 -3.025222514200e+02 0.0 
0.0 0.0 -1.290809648943e+02 
-8.753194489873e+01 4.095542006328e+01 0.0 
4.095542006328e+01 -1.525252521870e+02 0.0 
0.0 0.0 -7.161715912572e+01 
-1.012598154803e+02 3.020057638737e+01 0.0 
3.020057638737e+01 -2.531712711642e+02 0.0 
0.0 0.0 -1.059293259934e+02 
-5.712113282969e+01 3.498128090998e+01 0.0 
3.498128090998e+01 -1.019266835006e+02 0.0 
0.0 0.0 -4.402444974786e+01 
-1.342142684777e+02 1.833979721146e+01 0.0 
1.833979721146e+01 -3.418350242878e+02 0.0 
0.0 0.0 -1.424147878296e+02 
-6.540686181236e+01 -1.786126553253e+01 0.0 
-1.786126553253e+01 -1.739940587783e+02 0.0 
0.0 0.0 -6.993101803730e+01 
-6.945518376500e+01 -1.739913329499e+01 0.0 
-1.739913329499e+01 -1.880498847089e+02 0.0 
0.0 0.0 -7.642243831871e+01 
-4.028621219871e+01 -2.782666788843e+01 0.0 
-2.782666788843e+01 -6.235781267331e+01 0.0 
0.0 0.0 -2.821728876930e+01 
-1.338121559726e+02 3.965964818821e+01 0.0 
3.965964818821e+01 -3.135616972695e+02 0.0 
0.0 0.0 -1.338121559726e+02 
-4.626379956467e+01 2.147645381352e+01 0.0 
2.147645381352e+01 -1.215715581716e+02 0.0 
0.0 0.0 -4.509516125380e+01 
-1.260104016902e+02 8.349437337427e+00 0.0 
8.349437337427e+00 -3.310360691602e+02 0.0 
0.0 0.0 -1.367139412551e+02 
-6.052841554945e+01 7.755928297512e+00 0.0 
7.755928297512e+00 -5.168924529741e+01 0.0 
0.0 0.0 -3.326529825406e+01 
-6.375132751389e+01 -1.930557928062e+01 0.0 
-1.930557928062e+01 -1.406845375984e+02 0.0 
0.0 0.0 -5.903933794044e+01 
-6.507893714396e+01 -1.722402189707e+01 0.0 
-1.722402189707e+01 -1.772651761913e+02 0.0 
0.0 0.0 -7.058035845971e+01 
-8.502957819716e+01 4.119287639922e+01 0.0 
4.119287639922e+01 -1.511712927936e+02 0.0 
0.0 0.0 -7.046026129723e+01 
-1.440434611671e+02 3.271517351534e+01 0.0 
3.271517351534e+01 -3.374347427232e+02 0.0 
0.0 0.0 -1.440434611671e+02 
-9.073158694171e+01 -6.703837579219e+00 0.0 
-6.703837579219e+00 -1.870390597040e+02 0.0 
0.0 0.0 -7.710135098421e+01 
-1.153130084585e+02 -1.118565106001e+00 0.0 
-1.118565106001e+00 -3.044560063888e+02 0.0 
0.0 0.0 -1.261112941844e+02 
-8.349809835058e+01 3.967488196454e+01 0.0 
3.967488196454e+01 -1.830747054037e+02 0.0 
0.0 0.0 -7.787429618871e+01 
-9.980171964585e+01 2.090022706429e+00 0.0 
2.090022706429e+00 -2.692423232194e+02 0.0 
0.0 0.0 -1.155744165555e+02 
-6.483647710738e+01 -1.243038243559e+01 0.0 
-1.243038243559e+01 -1.809982496697e+02 0.0 
0.0 0.0 -7.167668973980e+01 
-1.093930815730e+02 -3.893532346861e+00 0.0 
-3.893532346861e+00 -2.857596584627e+02 0.0 
0.0 0.0 -1.202094394163e+02 
-7.889656634379e+01 3.873921992527e+01 0.0 
3.873921992527e+01 -1.659101773400e+02 0.0 
0.0 0.0 -7.034832853525e+01 
-9.586153980069e+01 4.050927542674e+01 0.0 
4.050927542674e+01 -2.185165417746e+02 0.0 
0.0 0.0 -9.391342447258e+01 
-1.008427153845e+02 1.815305083314e+01 0.0 
1.815305083314e+01 -2.650896208031e+02 0.0 
0.0 0.0 -1.112666709145e+02 
-8.174498919862e+01 3.854816430812e+01 0.0 
3.854816430812e+01 -1.811876368362e+02 0.0 
0.0 0.0 -7.802932442103e+01 
-8.974412101821e+01 -1.006275533311e+01 0.0 
-1.006275533311e+01 -1.978644024311e+02 0.0 
0.0 0.0 -8.234423415420e+01 
-5.370973662805e+01 3.111470481557e+01 0.0 
3.111470481557e+01 -1.139966539087e+02 0.0 
0.0 0.0 -4.600287550881e+01 
-8.646359306418e+01 -7.854729339829e+00 0.0 
-7.854729339829e+00 -1.790370055740e+02 0.0 
0.0 0.0 -7.345956621914e+01 
-9.575956316306e+01 3.144138278720e+01 0.0 
3.144138278720e+01 -2.369104448301e+02 0.0 
0.0 0.0 -9.940100239794e+01 
-8.395329476109e+01 1.216810846933e+01 0.0 
1.216810846933e+01 -2.278462691716e+02 0.0 
0.0 0.0 -9.886259103679e+01 
-1.519500062338e+02 2.260739407444e+01 0.0 
2.260739407444e+01 -3.690678613242e+02 0.0 
0.0 0.0 -1.559053602674e+02 
-9.998916074413e+01 3.304230590908e+01 0.0 
3.304230590908e+01 -1.781580280055e+02 0.0 
0.0 0.0 -8.304415662488e+01 
-5.774357411988e+01 -1.624296060551e+01 0.0 
-1.624296060551e+01 -1.231218961895e+02 0.0 
0.0 0.0 -5.061567142173e+01 
-1.547056386563e+02 2.444250824993e+01 0.0 
2.444250824993e+01 -3.623131568648e+02 0.0 
0.0 0.0 -1.547056386563e+02 
-1.382313555805e+02 2.152713160854e+01 0.0 
2.152713160854e+01 -3.512460097510e+02 0.0 
0.0 0.0 -1.464432095995e+02 
-7.724035282001e+01 2.983519605255e+01 0.0 
2.983519605255e+01 -1.900549001602e+02 0.0 
0.0 0.0 -8.206798890062e+01 
-1.813283208167e+01 -1.615638137879e+01 0.0 
-1.615638137879e+01 -3.076666519709e+01 0.0 
0.0 0.0 -8.418508187793e+00 
-1.589611230164e+02 1.440240517269e+01 0.0 
1.440240517269e+01 -3.877976562773e+02 0.0 
0.0 0.0 -1.636276337881e+02 
-1.025774997246e+02 3.770062146363e+01 0.0 
3.770062146363e+01 -1.900701520553e+02 0.0 
0.0 0.0 -8.739429553396e+01 
-5.994081076155e+01 -2.004268595843e+01 0.0 
-2.004268595843e+01 -1.562456518474e+02 0.0 
0.0 0.0 -6.082232964506e+01 
-1.633907003110e+02 1.718684071040e+01 0.0 
1.718684071040e+01 -3.825783007256e+02 0.0 
0.0 0.0 -1.633907003110e+02 
-1.136754991723e+02 -3.201230929863e+00 0.0 
-3.201230929863e+00 -2.909005827390e+02 0.0 
0.0 0.0 -1.213563676930e+02 
-6.816026049588e+01 3.926178955564e+01 0.0 
3.926178955564e+01 -1.100516096206e+02 0.0 
0.0 0.0 -4.952450622308e+01 
-7.744941039718e+01 3.137200738625e+01 0.0 
3.137200738625e+01 -9.139727602567e+01 0.0 
0.0 0.0 -5.025400592686e+01 
-7.879202662407e+01 1.365053606238e+01 0.0 
1.365053606238e+01 -2.143133138227e+02 0.0 
0.0 0.0 -9.190938122835e+01 
-1.032678983897e+02 -9.204266889934e+00 0.0 
-9.204266889934e+00 -2.540317043224e+02 0.0 
0.0 0.0 -1.080657624846e+02 
-1.010368122671e+02 6.392972782797e+00 0.0 
6.392972782797e+00 -2.714784440411e+02 0.0 
0.0 0.0 -1.156406600065e+02 
-8.850928812268e+01 3.278535476154e+01 0.0 
3.278535476154e+01 -1.215356363893e+02 0.0 
0.0 0.0 -6.261347735358e+01 
-7.293770421151e+01 3.831664178374e+01 0.0 
3.831664178374e+01 -1.096175284535e+02 0.0 
0.0 0.0 -5.023048818020e+01 
-1.034632502236e+02 2.123864850173e+01 0.0 
2.123864850173e+01 -2.689988392275e+02 0.0 
0.0 0.0 -1.114682534105e+02 
-5.038392489573e+01 1.084644704456e+00 0.0 
1.084644704456e+00 -5.910609394614e+01 0.0 
0.0 0.0 -3.244700565256e+01 
-9.325339390999e+01 -1.002701830024e+01 0.0 
-1.002701830024e+01 -1.985132738824e+02 0.0 
0.0 0.0 -8.407388581277e+01 
-9.814090828834e+01 1.486244027674e+01 0.0 
1.486244027674e+01 -2.607685096829e+02 0.0 
0.0 0.0 -1.107186978545e+02 
-7.198337565390e+01 -2.009967942668e+01 0.0 
-2.009967942668e+01 -1.788126824524e+02 0.0 
0.0 0.0 -7.453598386434e+01 
-1.155419210647e+02 -4.730425196149e+00 0.0 
-4.730425196149e+00 -2.720481246320e+02 0.0 
0.0 0.0 -1.144655441178e+02 
8.994783514741e-01 -2.669858632085e-02 0.0 
-2.669858632085e-02 -2.722918279860e+00 0.0 
0.0 0.0 8.692272749666e-01 
-5.694373847847e+01 3.308924292378e+01 0.0 
3.308924292378e+01 -1.163941157798e+02 0.0 
0.0 0.0 -4.892216719895e+01 
-6.774138064384e+01 -2.023946771381e+01 0.0 
-2.023946771381e+01 -1.787169437403e+02 0.0 
0.0 0.0 -7.256622780705e+01 
-9.832541884772e+01 -7.640667492842e+00 0.0 
-7.640667492842e+00 -2.125320734895e+02 0.0 
0.0 0.0 -8.792861840305e+01 
-8.025474260554e+01 3.292122967171e+01 0.0 
3.292122967171e+01 -1.919187473812e+02 0.0 
0.0 0.0 -8.287416549445e+01 
-1.089363759105e+02 -3.189047845676e+00 0.0 
-3.189047845676e+00 -2.890452130870e+02 0.0 
0.0 0.0 -1.189944766992e+02 
-6.385958592070e+01 7.583440588816e+00 0.0 
7.583440588816e+00 -6.403258064485e+01 0.0 
0.0 0.0 -3.796764996966e+01 
-6.587178092551e+01 -2.105581605226e+01 0.0 
-2.105581605226e+01 -1.595457495954e+02 0.0 
0.0 0.0 -6.540723874468e+01 
-1.660145674550e+02 1.460575342166e+01 0.0 
1.460575342166e+01 -3.887006573950e+02 0.0 
0.0 0.0 -1.660145674550e+02 
-8.544734534451e+01 4.169484708550e+01 0.0 
4.169484708550e+01 -1.691943010867e+02 0.0 
0.0 0.0 -7.579453296649e+01 
-1.021409665492e+02 -6.653128657464e+00 0.0 
-6.653128657464e+00 -2.200099716063e+02 0.0 
0.0 0.0 -9.187736105333e+01 
-8.339572644434e+01 4.108021531332e+01 0.0 
4.108021531332e+01 -1.682662789067e+02 0.0 
0.0 0.0 -7.421471911060e+01 
-1.012676573550e+02 -6.542478133018e+00 0.0 
-6.542478133018e+00 -2.130927179225e+02 0.0 
0.0 0.0 -8.858845722296e+01 
9.969481191607e-01 -1.914857953318e-01 0.0 
-1.914857953318e-01 -1.101449589424e+01 0.0 
0.0 0.0 -2.175884799171e+00 
-8.099299978787e+01 3.317031298896e+01 0.0 
3.317031298896e+01 -9.484546871061e+01 0.0 
0.0 0.0 -5.235154054955e+01 
-8.573857799786e+01 -3.406048847515e+00 0.0 
-3.406048847515e+00 -1.712748818058e+02 0.0 
0.0 0.0 -7.148236859362e+01 
9.989066726782e-01 -1.044217963203e-01 0.0 
-1.044217963203e-01 -8.973144665648e+00 0.0 
0.0 0.0 8.742741519127e-01 
-9.877804474585e+01 -6.305632652763e+00 0.0 
-6.305632652763e+00 -2.073561143310e+02 0.0 
0.0 0.0 -8.653566164247e+01 
-1.160596785896e+02 -1.471694415302e+00 0.0 
-1.471694415302e+00 -3.073981983701e+02 0.0 
0.0 0.0 -1.266373630879e+02 
-7.496843496179e+01 6.461913987829e+00 0.0 
6.461913987829e+00 -1.369412408117e+02 0.0 
0.0 0.0 -6.317290273203e+01 
-9.444680656924e+01 3.592865749034e+00 0.0 
3.592865749034e+00 -2.562154679144e+02 0.0 
0.0 0.0 -1.104517375112e+02 
-9.527950145477e+01 3.361507801264e+00 0.0 
3.361507801264e+00 -2.582481463474e+02 0.0 
0.0 0.0 -1.107578052896e+02 
-7.288295622715e+01 2.905207758513e+01 0.0 
2.905207758513e+01 -4.974169558907e+01 0.0 
0.0 0.0 -3.587988104288e+01 
-4.079268328353e+01 1.787353729267e+00 0.0 
1.787353729267e+00 -8.504081129104e+00 0.0 
0.0 0.0 -1.438902932379e+01 
-9.621611810955e+01 3.207237343508e+01 0.0 
3.207237343508e+01 -2.049355294194e+02 0.0 
0.0 0.0 -8.994549425868e+01 
-8.127840301336e+01 4.013982113090e+01 0.0 
4.013982113090e+01 -1.672182307157e+02 0.0 
0.0 0.0 -7.245647376731e+01 
9.961462409943e-01 1.755389479317e-01 0.0 
1.755389479317e-01 -6.995809337145e+00 0.0 
0.0 0.0 1.302505412038e-01 
-2.688178347193e+01 -3.500920956992e+00 0.0 
-3.500920956992e+00 -6.981365665340e+01 0.0 
0.0 0.0 -2.464787439197e+01 
-1.444780489185e+01 -4.972166609934e+00 0.0 
-4.972166609934e+00 -2.552773512636e+01 0.0 
0.0 0.0 -8.383745420695e+00 
-6.008223649838e+01 -1.369782171519e+01 0.0 
-1.369782171519e+01 -1.276412713840e+02 0.0 
0.0 0.0 -5.324543165465e+01 
-1.077875834843e+02 4.407198255064e+01 0.0 
4.407198255064e+01 -2.443432377026e+02 0.0 
0.0 0.0 -1.052392463561e+02 
-7.838302467879e+01 8.570729137426e+00 0.0 
8.570729137426e+00 -1.387557857060e+02 0.0 
0.0 0.0 -6.474164311544e+01 
-1.303681795139e+02 -1.677159514432e+00 0.0 
-1.677159514432e+00 -3.277944891238e+02 0.0 
0.0 0.0 -1.370488005913e+02 
-6.728656515231e+01 -9.219381919725e+00 0.0 
-9.219381919725e+00 -1.422320360847e+02 0.0 
0.0 0.0 -5.866660727492e+01 
-1.202177018293e+02 -3.693960071418e+00 0.0 
-3.693960071418e+00 -2.731048510058e+02 0.0 
0.0 0.0 -1.150682061559e+02 
-1.289376197666e+02 6.662420857075e+00 0.0 
6.662420857075e+00 -3.384913034020e+02 0.0 
0.0 0.0 -1.398286769506e+02 
-4.484725902203e+01 2.187244746347e+00 0.0 
2.187244746347e+00 -1.373496484914e+02 0.0 
0.0 0.0 -5.466832354872e+01 
-8.523590823593e+01 -6.231107913595e-01 0.0 
-6.231107913595e-01 -1.715051067432e+02 0.0 
0.0 0.0 -7.168382603983e+01 
-6.924216984470e+01 -2.290078682445e+00 0.0 
-2.290078682445e+00 -1.400065320916e+02 0.0 
0.0 0.0 -5.758060249358e+01 
-1.611170579170e+02 1.111811596019e+01 0.0 
1.111811596019e+01 -3.920161578979e+02 0.0 
0.0 0.0 -1.655399647445e+02 
-1.682384077853e+02 1.176568988527e+01 0.0 
1.176568988527e+01 -3.938896181658e+02 0.0 
0.0 0.0 -1.682384077853e+02 
-9.484360486606e+01 -8.711583070993e-01 0.0 
-8.711583070993e-01 -1.910897166610e+02 0.0 
0.0 0.0 -8.044670604753e+01 
-1.048812315336e+02 -5.218133591591e+00 0.0 
-5.218133591591e+00 -2.206461830581e+02 0.0 
0.0 0.0 -9.209226076686e+01 
-1.019143231502e+02 -5.925245705971e+00 0.0 
-5.925245705971e+00 -2.572667433782e+02 0.0 
0.0 0.0 -1.072949744777e+02 
-1.311269035449e+02 1.005425522751e+01 0.0 
1.005425522751e+01 -3.428422758390e+02 0.0 
0.0 0.0 -1.417907538152e+02 
-3.506869250430e+01 -7.829586642535e+00 0.0 
-7.829586642535e+00 -7.874982764271e+01 0.0 
0.0 0.0 -3.096097570035e+01 
-1.262914253479e+02 3.445586289963e+00 0.0 
3.445586289963e+00 -3.326682711940e+02 0.0 
0.0 0.0 -1.372879089626e+02 
-5.985307415976e+00 6.465249052212e-02 0.0 
6.465249052212e-02 -4.288492486934e+01 0.0 
0.0 0.0 -1.186974286746e+01 
-9.676443367152e+01 -5.682151075660e+00 0.0 
-5.682151075660e+00 -2.001885002252e+02 0.0 
0.0 0.0 -8.261275484115e+01 
-1.050235345436e+02 -7.166428975722e+00 0.0 
-7.166428975722e+00 -2.261317834055e+02 0.0 
0.0 0.0 -9.447760737736e+01 
9.859753399636e-01 -1.319989298074e-01 0.0 
-1.319989298074e-01 -2.553425693025e+01 0.0 
0.0 0.0 -4.780386447900e+00 
-9.024951491307e+01 -2.319306135502e+00 0.0 
-2.319306135502e+00 -1.807649232267e+02 0.0 
0.0 0.0 -7.600105570803e+01 
-9.475487429196e+01 2.991494827085e+01 0.0 
2.991494827085e+01 -1.751673254247e+02 0.0 
0.0 0.0 -8.057665991500e+01 
9.988586606942e-01 9.738531993657e-02 0.0 
9.738531993657e-02 -7.309448812611e+00 0.0 
0.0 0.0 -4.148048981399e-02 
-4.513090612928e+01 3.862601883342e+00 0.0 
3.862601883342e+00 -8.516170479753e+00 0.0 
0.0 0.0 -1.569412298271e+01 
-4.712889591860e+01 4.879809675947e+00 0.0 
4.879809675947e+00 -1.058509927578e+01 0.0 
0.0 0.0 -1.691419855831e+01 
-1.024246933474e+02 1.034481222769e+01 0.0 
1.034481222769e+01 -2.735028314830e+02 0.0 
0.0 0.0 -1.152103098251e+02 
-6.739686911561e+01 5.182465488582e-01 0.0 
5.182465488582e-01 -1.397268847546e+02 0.0 
0.0 0.0 -5.740807829722e+01 
-6.349108612905e+01 -1.873431444767e+01 0.0 
-1.873431444767e+01 -1.562175932493e+02 0.0 
0.0 0.0 -6.340570728518e+01 
-4.424074874121e+01 2.947678226891e+01 0.0 
2.947678226891e+01 -7.798665090627e+01 0.0 
0.0 0.0 -3.190830131328e+01 
-1.441526215690e+02 -1.787657950683e-01 0.0 
-1.787657950683e-01 -3.538217484269e+02 0.0 
0.0 0.0 -1.489923109988e+02 
-1.243819369247e+02 4.033650554455e+01 0.0 
4.033650554455e+01 -2.979896811835e+02 0.0 
0.0 0.0 -1.263114854325e+02 
-8.051827324242e+01 1.229219805807e+01 0.0 
1.229219805807e+01 -1.275959107942e+02 0.0 
0.0 0.0 -6.203425521100e+01 
-5.036628906573e+01 3.235930686220e+01 0.0 
3.235930686220e+01 -8.373724808974e+01 0.0 
0.0 0.0 -3.704442765381e+01 
-1.838763971994e+01 -4.927894715986e+00 0.0 
-4.927894715986e+00 -4.899419640417e+01 0.0 
0.0 0.0 -1.745224825252e+01 
-7.165888498613e+01 3.922058299768e+01 0.0 
3.922058299768e+01 -8.993996328095e+01 0.0 
0.0 0.0 -4.522039749329e+01 
-3.441556277697e+01 3.112678573051e-01 0.0 
3.112678573051e-01 -9.500749545961e+00 0.0 
0.0 0.0 -1.277489369688e+01 
-3.059875588029e+01 4.228986824084e-01 0.0 
4.228986824084e-01 -8.914011863247e+00 0.0 
0.0 0.0 -1.145383032306e+01 
9.979091679126e-01 -1.471383886231e-01 0.0 
-1.471383886231e-01 -9.354588270176e+00 0.0 
0.0 0.0 8.939137058449e-01 
9.543795039623e-01 1.102262741445e-02 0.0 
1.102262741445e-02 -2.540822410521e+01 0.0 
0.0 0.0 -4.698663683085e+00 
-4.572478384750e+00 -2.301688473448e-01 0.0 
-2.301688473448e-01 -4.092398077572e+01 0.0 
0.0 0.0 -1.145401825427e+01 
-5.036930487320e+01 -9.031417125390e+00 0.0 
-9.031417125390e+00 -1.080951519946e+02 0.0 
0.0 0.0 -4.345559728535e+01 
-7.541259668848e-01 3.342570830284e-01 0.0 
3.342570830284e-01 -2.600777569168e+01 0.0 
0.0 0.0 -5.423568005819e+00 
-9.886716886208e+01 -2.187614448380e+00 0.0 
-2.187614448380e+00 -2.014343894974e+02 0.0 
0.0 0.0 -8.500423130655e+01 
-2.612678139284e+01 -1.909915848864e+01 0.0 
-1.909915848864e+01 -6.703127413560e+01 0.0 
0.0 0.0 -2.851575202368e+01 
-6.157685983410e+01 -9.758222653333e+00 0.0 
-9.758222653333e+00 -1.291194247196e+02 0.0 
0.0 0.0 -5.265794881390e+01 
-5.554426604818e+01 1.317264632388e+00 0.0 
1.317264632388e+00 -7.601124608712e+01 0.0 
0.0 0.0 -3.906665364059e+01 
-3.367129461736e+01 1.268845026208e+00 0.0 
1.268845026208e+00 -8.905326354113e+00 0.0 
0.0 0.0 -1.237298629144e+01 
-1.106598743737e+02 4.582037394573e+01 0.0 
4.582037394573e+01 -2.482665162923e+02 0.0 
0.0 0.0 -1.072779171998e+02 
-1.137002829894e+02 -3.164094149224e+00 0.0 
-3.164094149224e+00 -2.950962583610e+02 0.0 
0.0 0.0 -1.222389624051e+02 
-4.872963821455e+01 5.745723258609e-01 0.0 
5.745723258609e-01 -5.803144457694e+01 0.0 
0.0 0.0 -3.162832483745e+01 
-7.397931276247e+01 -1.424846733779e+00 0.0 
-1.424846733779e+00 -1.495529859437e+02 0.0 
0.0 0.0 -6.195657641733e+01 
-5.470091965840e+00 4.268179812227e-01 0.0 
4.268179812227e-01 -4.306533419861e+01 0.0 
0.0 0.0 -1.133075478344e+01 
-8.519919060797e+01 1.667419583577e+01 0.0 
1.667419583577e+01 -2.001314447519e+02 0.0 
0.0 0.0 -8.519919060797e+01 
-9.399919146237e+01 1.859967314667e+01 0.0 
1.859967314667e+01 -2.047736348702e+02 0.0 
0.0 0.0 -8.923184789977e+01 
-5.485779755337e+01 3.860755572332e+00 0.0 
3.860755572332e+00 -4.884914925933e+01 0.0 
0.0 0.0 -3.071208404381e+01 
-3.595440512877e+01 4.472552486168e-01 0.0 
4.472552486168e-01 -8.937575373360e+00 0.0 
0.0 0.0 -1.306759415064e+01 
-7.412572685427e+01 -7.404589582965e-01 0.0 
-7.404589582965e-01 -1.520550212034e+02 0.0 
0.0 0.0 -6.287341816890e+01 
-9.129274313869e+01 1.291930856072e+01 0.0 
1.291930856072e+01 -2.007376237922e+02 0.0 
0.0 0.0 -8.720911007926e+01 
-5.522499951685e+01 -8.565439849713e+00 0.0 
-8.565439849713e+00 -1.204593411251e+02 0.0 
0.0 0.0 -4.867042310575e+01 
-3.825760305472e+01 2.743658323634e+00 0.0 
2.743658323634e+00 -1.001304007859e+01 0.0 
0.0 0.0 -1.408119293999e+01 
-3.812733026453e+01 9.219361059113e-01 0.0 
9.219361059113e-01 -8.607080761611e+00 0.0 
0.0 0.0 -1.362032330784e+01 
-7.051881382680e+01 3.797545795151e+01 0.0 
3.797545795151e+01 -7.241797059078e+01 0.0 
0.0 0.0 -3.992469010578e+01 
-9.667347546200e+01 3.605346344144e+01 0.0 
3.605346344144e+01 -2.269047760780e+02 0.0 
0.0 0.0 -9.667347546200e+01 
-9.382064211622e+01 1.554949552705e+01 0.0 
1.554949552705e+01 -2.032598705643e+02 0.0 
0.0 0.0 -8.872415380416e+01 
-5.236989540793e-01 2.604098439417e-01 0.0 
2.604098439417e-01 -2.530437523619e+01 0.0 
0.0 0.0 -5.116852851513e+00 
9.984061343287e-01 -1.290370693483e-01 0.0 
-1.290370693483e-01 -9.446655302306e+00 0.0 
0.0 0.0 5.505378176294e-01 
-2.232593666918e+01 -5.396913093941e+00 0.0 
-5.396913093941e+00 -5.824002086620e+01 0.0 
0.0 0.0 -2.154346725779e+01 
-1.011783209323e+02 -7.710162580704e+00 0.0 
-7.710162580704e+00 -2.254048612492e+02 0.0 
0.0 0.0 -9.338516035471e+01 
-1.546809049163e+02 -1.035066483177e+00 0.0 
-1.035066483177e+00 -3.629379068195e+02 0.0 
0.0 0.0 -1.548856435207e+02 
-7.355496237488e+01 -2.565887834764e+01 0.0 
-2.565887834764e+01 -7.329494584862e+01 0.0 
0.0 0.0 -4.433101430145e+01 
-6.912159241349e+01 1.994885912161e+00 0.0 
1.994885912161e+00 -1.201977153216e+02 0.0 
0.0 0.0 -5.639579232052e+01 
-1.075351576349e+01 -1.081682006997e+01 0.0 
-1.081682006997e+01 -8.954774280361e+00 0.0 
0.0 0.0 -3.098389083586e+00 
-1.031771109345e+02 5.416468247348e+00 0.0 
5.416468247348e+00 -2.768520480703e+02 0.0 
0.0 0.0 -1.162226030709e+02 
9.124054224766e-01 -1.149684086541e+00 0.0 
-1.149684086541e+00 -1.408967262833e+01 0.0 
0.0 0.0 1.000000000000e+00 
-2.322716114953e+01 -2.008464531550e+01 0.0 
-2.008464531550e+01 -3.760427847467e+01 0.0 
0.0 0.0 -1.854172541801e+01 
-1.007697631746e+02 2.154178804850e+00 0.0 
2.154178804850e+00 -2.715593863355e+02 0.0 
0.0 0.0 -1.144134429063e+02 
-1.497292008962e+02 -1.000683217652e+00 0.0 
-1.000683217652e+00 -3.540512605472e+02 0.0 
0.0 0.0 -1.507341384330e+02 
-5.629118328134e+01 1.654148623283e+00 0.0 
1.654148623283e+00 -7.528076431511e+01 0.0 
0.0 0.0 -3.907158427894e+01 
-7.421539977602e+01 3.971972335220e+01 0.0 
3.971972335220e+01 -1.099140591408e+02 0.0 
0.0 0.0 -5.208161356992e+01 
8.617213066438e-01 1.458726632688e-01 0.0 
1.458726632688e-01 -2.579122380328e+01 0.0 
0.0 0.0 -4.981467855395e+00 
-1.231661910456e+02 -2.612189540300e+00 0.0 
-2.612189540300e+00 -2.805550357802e+02 0.0 
0.0 0.0 -1.186006121871e+02 
-8.268906013984e+01 5.069872584314e+00 0.0 
5.069872584314e+00 -1.942744736596e+02 0.0 
0.0 0.0 -8.268906013984e+01 
-8.912059065646e+01 6.477627413104e+00 0.0 
6.477627413104e+00 -1.978557750294e+02 0.0 
0.0 0.0 -8.569290970576e+01 
-3.169049310056e+01 5.353617017728e-01 0.0 
5.353617017728e-01 -8.634703669318e+00 0.0 
0.0 0.0 -1.169755903096e+01 
-1.057856035390e+02 8.699854439146e+00 0.0 
8.699854439146e+00 -2.822275860503e+02 0.0 
0.0 0.0 -1.179744421190e+02 
-8.458440916069e+01 1.363814378871e+01 0.0 
1.363814378871e+01 -1.986969547083e+02 0.0 
0.0 0.0 -8.458440916069e+01 
-9.997184441786e+01 3.014468337403e+01 0.0 
3.014468337403e+01 -2.499134490146e+02 0.0 
0.0 0.0 -1.045655880297e+02 
-4.689909255099e+00 -1.032246857541e-01 0.0 
-1.032246857541e-01 -4.120959192652e+01 0.0 
0.0 0.0 -1.045699662475e+01 
-5.654933844348e-01 8.066026664769e-02 0.0 
8.066026664769e-02 -2.546431658797e+01 0.0 
0.0 0.0 -5.240690382111e+00 
9.999949823442e-01 -1.130507736621e-02 0.0 
-1.130507736621e-02 -2.447101248183e+01 0.0 
0.0 0.0 -3.919198448699e+00 
-8.519637463169e+01 -1.345724254083e+00 0.0 
-1.345724254083e+00 -1.702809915361e+02 0.0 
0.0 0.0 -7.136310834630e+01 
-1.681936512129e+02 5.389440803883e-01 0.0 
5.389440803883e-01 -3.947814019139e+02 0.0 
0.0 0.0 -1.684925159380e+02 
-8.201778054170e+01 1.260819239613e+00 0.0 
1.260819239613e+00 -1.733184217532e+02 0.0 
0.0 0.0 -7.620086068847e+01 
9.866121654485e-01 3.705914321182e-01 0.0 
3.705914321182e-01 -9.258418494127e+00 0.0 
0.0 0.0 6.469942507307e-01 
-9.957468872006e+01 1.852639567817e-01 0.0 
1.852639567817e-01 -2.016890393166e+02 0.0 
0.0 0.0 -8.526068648698e+01 
-1.690913248086e+02 7.431442691982e-02 0.0 
7.431442691982e-02 -3.958797578868e+02 0.0 
0.0 0.0 -1.690913248086e+02 
-1.678244338954e+02 3.182761175019e-02 0.0 
3.182761175019e-02 -3.947257189664e+02 0.0 
0.0 0.0 -1.683650458586e+02 
-1.624682938731e+02 8.359777476893e+00 0.0 
8.359777476893e+00 -3.944076180716e+02 0.0 
0.0 0.0 -1.666627735834e+02 
-6.270476454730e+01 -2.344263093454e-01 0.0 
-2.344263093454e-01 -9.973039637695e+01 0.0 
0.0 0.0 -4.833054827727e+01 
-7.205129161236e+01 1.049770833621e+00 0.0 
1.049770833621e+00 -1.309319050675e+02 0.0 
0.0 0.0 -6.049495900397e+01 
-1.684684313117e+02 2.460492891260e-01 0.0 
2.460492891260e-01 -3.944263397273e+02 0.0 
0.0 0.0 -1.684684313117e+02 
-1.690855956720e+02 5.517244067998e-01 0.0 
5.517244067998e-01 -3.958663899013e+02 0.0 
0.0 0.0 -1.690855956720e+02 
-6.892200927485e+01 1.614105139631e-01 0.0 
1.614105139631e-01 -1.202046277101e+02 0.0 
0.0 0.0 -5.633799109548e+01 
2.718222966657e-01 -1.108971088407e-02 0.0 
-1.108971088407e-02 -6.234754859733e+00 0.0 
0.0 0.0 -7.568047404806e-01 
-3.011816477633e+01 8.677107545208e-02 0.0 
8.677107545208e-02 -8.129622225268e+00 0.0 
0.0 0.0 -1.107433610048e+01 
-3.101835783038e+01 9.890437426007e-02 0.0 
9.890437426007e-02 -8.717314985331e+00 0.0 
0.0 0.0 -1.152070184471e+01 
9.996949986518e-01 -5.611080437462e-02 0.0 
-5.611080437462e-02 -9.322650656806e+00 0.0 
0.0 0.0 6.139655549312e-01 
-1.702562927016e+02 2.228896032575e+00 0.0 
2.228896032575e+00 -3.985980163037e+02 0.0 
0.0 0.0 -1.702562927016e+02 
-1.639040626397e+02 5.717427080583e+00 0.0 
5.717427080583e+00 -3.955670085912e+02 0.0 
0.0 0.0 -1.674413213693e+02 
-1.700538762200e+02 4.793480236695e+00 0.0 
4.793480236695e+00 -3.981257111800e+02 0.0 
0.0 0.0 -1.700538762200e+02 
8.837381601991e-01 3.275228373431e-01 0.0 
3.275228373431e-01 -8.003194270630e+00 0.0 
0.0 0.0 -9.921385078059e-01 
9.997380454386e-01 4.770759986573e-02 0.0 
4.770759986573e-02 -7.688587334967e+00 0.0 
0.0 0.0 -2.993031558085e-01 
-1.694501113978e+02 9.156633961921e+00 0.0 
9.156633961921e+00 -3.967169265948e+02 0.0 
0.0 0.0 -1.694501113978e+02 
-1.701384937471e+02 6.831749210904e+00 0.0 
6.831749210904e+00 -3.983231520766e+02 0.0 
0.0 0.0 -1.701384937471e+02 
-5.936110422917e+01 1.018459622232e+00 0.0 
1.018459622232e+00 -8.958253762035e+01 0.0 
0.0 0.0 -4.428309255486e+01 
-2.955303742746e+01 -1.814926225637e-01 0.0 
-1.814926225637e-01 -7.854528013217e+00 0.0 
0.0 0.0 -1.082226963220e+01 
-6.615585450425e+01 1.056003811505e+00 0.0 
1.056003811505e+00 -1.101233969935e+02 0.0 
0.0 0.0 -5.248377544932e+01 
-4.530425827213e+01 8.883738874234e-01 0.0 
8.883738874234e-01 -4.942054942272e+01 0.0 
0.0 0.0 -2.801744230846e+01 
-2.934860380252e+01 2.803312959468e-01 0.0 
2.803312959468e-01 -7.747949797354e+00 0.0 
0.0 0.0 -1.072896607996e+01 
9.992468353942e-01 7.969012140537e-02 0.0 
7.969012140537e-02 -7.431776268343e+00 0.0 
0.0 0.0 -2.063707572506e-02 
9.922916571972e-01 2.603396267650e-01 0.0 
2.603396267650e-01 -7.792644930089e+00 0.0 
0.0 0.0 -2.908872293412e-01 
9.999795543047e-01 -1.296833404822e-02 0.0 
-1.296833404822e-02 -7.225579315468e+00 0.0 
0.0 0.0 1.000000000000e+00 
9.927289438539e-01 2.239120999810e-01 0.0 
2.239120999810e-01 -5.895370838940e+00 0.0 
0.0 0.0 1.000000000000e+00 
-1.035697999922e+02 -1.320855144744e+00 0.0 
-1.320855144744e+00 -2.121349694359e+02 0.0 
0.0 0.0 -8.984008402481e+01 
-9.494942872941e+01 -1.306511184520e+00 0.0 
-1.306511184520e+00 -1.911271986781e+02 0.0 
0.0 0.0 -8.064701044637e+01 
9.980696522595e-01 -1.436652250990e-01 0.0 
-1.436652250990e-01 -9.692216987529e+00 0.0 
0.0 0.0 1.000000000000e+00 
-1.232140821243e+02 -1.128063281093e+00 0.0 
-1.128063281093e+00 -2.730486504170e+02 0.0 
0.0 0.0 -1.162295360337e+02 
9.987398849333e-01 -1.181923741533e-01 0.0 
-1.181923741533e-01 -1.008584261673e+01 0.0 
0.0 0.0 1.000000000000e+00 
-9.098660341714e+01 2.908319362888e+01 0.0 
2.908319362888e+01 -2.136354079733e+02 0.0 
0.0 0.0 -9.098660341714e+01 
-8.372206209662e+01 1.125375449176e+01 0.0 
1.125375449176e+01 -1.966848115588e+02 0.0 
0.0 0.0 -8.372206209662e+01 
-8.614638561779e+01 1.959649049910e+01 0.0 
1.959649049910e+01 -2.023415664415e+02 0.0 
0.0 0.0 -8.614638561779e+01 
-1.592603722041e+01 -1.152594675949e+00 0.0 
-1.152594675949e+00 -6.807315297800e+01 0.0 
0.0 0.0 -2.479975705953e+01 
-6.098361873257e+01 -1.459070862327e+00 0.0 
-1.459070862327e+00 -1.289256336399e+02 0.0 
0.0 0.0 -5.247253804601e+01 
-8.313800652122e+01 8.889387683980e+00 0.0 
8.889387683980e+00 -1.953220152162e+02 0.0 
0.0 0.0 -8.313800652122e+01 
-1.420106546545e+02 -8.609464261016e-01 0.0 
-8.609464261016e-01 -3.337743757891e+02 0.0 
0.0 0.0 -1.423355091331e+02 
-8.386939714565e+01 7.055707451887e+00 0.0 
7.055707451887e+00 -1.970285933399e+02 0.0 
0.0 0.0 -8.386939714565e+01 
-1.506571931205e+02 -8.724077017667e-01 0.0 
-8.724077017667e-01 -3.536747102529e+02 0.0 
0.0 0.0 -1.508995710120e+02 
-1.593682944333e+02 -9.580945307020e-01 0.0 
-9.580945307020e-01 -3.735490053407e+02 0.0 
0.0 0.0 -1.594751899322e+02 
-9.026428287091e+01 2.779533117014e-01 0.0 
2.779533117014e-01 -1.807953718932e+02 0.0 
0.0 0.0 -7.603749596189e+01 
-9.070819147416e+01 1.036135758024e+01 0.0 
1.036135758024e+01 -1.990975512545e+02 0.0 
0.0 0.0 -8.654172281860e+01 
-8.906784378759e+01 7.765572512528e+00 0.0 
7.765572512528e+00 -1.983908945692e+02 0.0 
0.0 0.0 -8.583762150703e+01 
-1.459401704154e+02 8.063209992690e-01 0.0 
8.063209992690e-01 -3.427933180341e+02 0.0 
0.0 0.0 -1.462200465349e+02 
-1.548153465952e+02 8.303201524671e-01 0.0 
8.303201524671e-01 -3.631463282326e+02 0.0 
0.0 0.0 -1.549885024483e+02 
-1.287712454446e+02 -8.694652035531e-01 0.0 
-8.694652035531e-01 -2.959775963085e+02 0.0 
0.0 0.0 -1.257578703481e+02 
-1.713181988717e+00 6.937310963418e-01 0.0 
6.937310963418e-01 -9.546123635124e+00 0.0 
0.0 0.0 -3.954267870032e+00 
-9.164504563309e+01 -4.704876118903e+00 0.0 
-4.704876118903e+00 -1.874640606574e+02 0.0 
0.0 0.0 -7.726853293956e+01 
-5.999393508092e-02 3.993249222796e-01 0.0 
3.993249222796e-01 -2.500810327255e+01 0.0 
0.0 0.0 -5.001609773215e+00 
-1.464460361048e+02 1.120298542227e+00 0.0 
1.120298542227e+00 -3.549878210038e+02 0.0 
0.0 0.0 -1.500301571326e+02 
-9.487427768554e+01 -7.290008544731e+00 0.0 
-7.290008544731e+00 -1.997170737841e+02 0.0 
0.0 0.0 -8.249312811679e+01 
-1.365201286445e+02 -1.654851792406e+00 0.0 
-1.654851792406e+00 -3.266152104823e+02 0.0 
0.0 0.0 -1.385406017380e+02 
-4.218719332491e+01 -6.914025145917e+00 0.0 
-6.914025145917e+00 -9.875974243526e+01 0.0 
0.0 0.0 -3.841068027782e+01 
-5.291033152659e+00 -8.643471156196e-01 0.0 
-8.643471156196e-01 -4.153680541662e+01 0.0 
0.0 0.0 -1.215146778734e+01 
-1.463114791327e+02 4.768958775646e-01 0.0 
4.768958775646e-01 -3.467155316538e+02 0.0 
0.0 0.0 -1.475081032359e+02 
-1.005681625768e+02 -4.432037627079e+00 0.0 
-4.432037627079e+00 -2.080271491949e+02 0.0 
0.0 0.0 -8.684341270348e+01 
-8.006743684847e+01 -2.388274352059e+00 0.0 
-2.388274352059e+00 -1.601015084547e+02 0.0 
0.0 0.0 -6.659971850083e+01 
-1.377079604100e+02 2.401466514519e-02 0.0 
2.401466514519e-02 -3.274999156727e+02 0.0 
0.0 0.0 -1.391623628248e+02 
-7.612610903968e+01 2.778976129145e+00 0.0 
2.778976129145e+00 -1.494012398077e+02 0.0 
0.0 0.0 -6.725820465422e+01 
-7.972250934855e+01 3.872370347429e-01 0.0 
3.872370347429e-01 -1.602290071726e+02 0.0 
0.0 0.0 -6.678628649642e+01 
-1.225823626356e+02 7.955398040662e-01 0.0 
7.955398040662e-01 -3.216710357980e+02 0.0 
0.0 0.0 -1.328760195301e+02 
-1.131247390364e+02 -4.733672134289e+00 0.0 
-4.733672134289e+00 -2.771925064966e+02 0.0 
0.0 0.0 -1.160297039444e+02 
-1.258234811199e+02 -2.546012979273e+00 0.0 
-2.546012979273e+00 -2.950669969469e+02 0.0 
0.0 0.0 -1.251530592755e+02 
-1.290793463917e+02 -1.918505627835e+00 0.0 
-1.918505627835e+00 -3.034664491596e+02 0.0 
0.0 0.0 -1.289741148645e+02 
-6.217712153607e+01 1.280743227602e+01 0.0 
1.280743227602e+01 -1.741760216803e+02 0.0 
0.0 0.0 -6.893962484049e+01 
-6.857105703840e+01 3.930994579234e+01 0.0 
3.930994579234e+01 -9.024072915501e+01 0.0 
0.0 0.0 -4.341031908720e+01 
-7.211125665960e+01 3.244849263540e+01 0.0 
3.244849263540e+01 -1.695562878238e+02 0.0 
0.0 0.0 -7.148694049504e+01 
-1.190303094690e+02 -3.970985270867e+00 0.0 
-3.970985270867e+00 -2.795437518632e+02 0.0 
0.0 0.0 -1.179628051361e+02 
-1.418213805069e+02 3.821684218583e-01 0.0 
3.821684218583e-01 -3.354511696211e+02 0.0 
0.0 0.0 -1.427817650384e+02 
-1.320472707338e+02 -1.517082857969e+00 0.0 
-1.517082857969e+00 -3.121612383766e+02 0.0 
0.0 0.0 -1.328625527331e+02 
-5.243240828686e+01 -1.352934850960e+01 0.0 
-1.352934850960e+01 -1.074225646000e+02 0.0 
0.0 0.0 -4.432391151131e+01 
-7.740220107556e+01 5.533500039204e+00 0.0 
5.533500039204e+00 -1.486912496827e+02 0.0 
0.0 0.0 -6.742803522749e+01 
-7.176126626085e+01 4.423051167828e+00 0.0 
4.423051167828e+00 -1.271867547611e+02 0.0 
0.0 0.0 -5.928440630659e+01 
-4.112738776019e+01 -1.483992360486e-01 0.0 
-1.483992360486e-01 -3.449803729641e+01 0.0 
0.0 0.0 -2.228762751698e+01 
-1.204904229743e+02 -3.491492909353e+00 0.0 
-3.491492909353e+00 -2.917107217260e+02 0.0 
0.0 0.0 -1.228749142144e+02 
-1.224930779936e+02 -3.222029768922e+00 0.0 
-3.222029768922e+00 -2.872482319595e+02 0.0 
0.0 0.0 -1.215392393202e+02 
-7.833757278954e+01 4.935485473956e+00 0.0 
4.935485473956e+00 -1.511886446139e+02 0.0 
0.0 0.0 -6.845786522103e+01 
-7.442634907406e+01 3.911803575330e+00 0.0 
3.911803575330e+00 -1.385956513578e+02 0.0 
0.0 0.0 -6.350660012955e+01 
-1.157291591345e+02 -5.554060096932e+00 0.0 
-5.554060096932e+00 -2.717163726735e+02 0.0 
0.0 0.0 -1.132523866521e+02 
-1.504361968479e+02 6.342405994250e-01 0.0 
6.342405994250e-01 -3.545632586043e+02 0.0 
0.0 0.0 -1.510998366357e+02 
-7.557487624106e+01 9.816719154497e+00 0.0 
9.816719154497e+00 -1.250741615872e+02 0.0 
0.0 0.0 -5.979471134848e+01 
-1.331944591936e+02 2.745003910741e-01 0.0 
2.745003910741e-01 -3.123151725766e+02 0.0 
0.0 0.0 -1.330166637456e+02 
-1.514787610635e+02 1.404926515223e+00 0.0 
1.404926515223e+00 -3.631535560381e+02 0.0 
0.0 0.0 -1.539896951305e+02 
-7.985831870077e+01 7.872140792367e+00 0.0 
7.872140792367e+00 -1.502850017969e+02 0.0 
0.0 0.0 -6.864299614930e+01 
-6.670496448877e+01 5.533662929523e+00 0.0 
5.533662929523e+00 -9.677711736455e+01 0.0 
0.0 0.0 -4.864462455599e+01 
-1.197149472196e+02 -1.219513851886e+00 0.0 
-1.219513851886e+00 -3.090022620136e+02 0.0 
0.0 0.0 -1.282151627700e+02 
-4.281972370885e+01 -4.013713666287e+00 0.0 
-4.013713666287e+00 -1.003863143339e+02 0.0 
0.0 0.0 -3.804384499169e+01 
-5.094779308614e+01 -1.525697820029e+01 0.0 
-1.525697820029e+01 -1.017602563497e+02 0.0 
0.0 0.0 -4.175260035222e+01 
-1.305437380500e+01 1.549769249453e-01 0.0 
1.549769249453e-01 -4.850304658302e+01 0.0 
0.0 0.0 -1.465739283169e+01 
-1.373509309161e+01 -1.357513755339e+01 0.0 
-1.357513755339e+01 -3.489630130742e+01 0.0 
0.0 0.0 -1.113379626389e+01 
-7.647792915020e+01 5.870203100012e+00 0.0 
5.870203100012e+00 -1.397433543483e+02 0.0 
0.0 0.0 -6.446638504956e+01 
-1.451430482165e+02 -1.128072299541e+00 0.0 
-1.128072299541e+00 -3.427016973809e+02 0.0 
0.0 0.0 -1.459534236792e+02 
-1.455857025452e+00 -1.518880406183e+00 0.0 
-1.518880406183e+00 -2.627674981965e+01 0.0 
0.0 0.0 -5.074142528190e+00 
-1.054895604615e+02 4.164853841569e+01 0.0 
4.164853841569e+01 -2.045652421106e+02 0.0 
0.0 0.0 -9.261644077163e+01 
-4.575924404067e+01 4.723851384596e-01 0.0 
4.723851384596e-01 -4.337835500779e+01 0.0 
0.0 0.0 -2.634127971454e+01 
-1.338091423713e+02 -4.146746606055e-01 0.0 
-4.146746606055e-01 -3.200370598393e+02 0.0 
0.0 0.0 -1.357538606632e+02 
-1.362266638395e+02 -1.502490628583e+00 0.0 
-1.502490628583e+00 -3.229933714069e+02 0.0 
0.0 0.0 -1.373660105739e+02 
-6.735668944984e+01 -1.749267214133e+01 0.0 
-1.749267214133e+01 -1.594440888585e+02 0.0 
0.0 0.0 -6.588380624395e+01 
-1.372097301699e+02 2.720046640949e-01 0.0 
2.720046640949e-01 -3.237758589862e+02 0.0 
0.0 0.0 -1.378956767468e+02 
-4.261866423929e+01 2.032365694177e+00 0.0 
2.032365694177e+00 -3.506783267527e+01 0.0 
0.0 0.0 -2.290594907437e+01 
-1.011696389452e+02 1.894237874471e+01 0.0 
1.894237874471e+01 -2.652766887816e+02 0.0 
0.0 0.0 -1.096674256763e+02 
-1.552364799776e+02 -2.917024844456e-01 0.0 
-2.917024844456e-01 -3.703198744464e+02 0.0 
0.0 0.0 -1.572669063272e+02 
-3.851013733692e+01 -2.472119416059e+00 0.0 
-2.472119416059e+00 -9.578690863362e+01 0.0 
0.0 0.0 -3.671440579242e+01 
-1.505545174326e+02 2.122030206270e+00 0.0 
2.122030206270e+00 -3.665153843934e+02 0.0 
0.0 0.0 -1.547209705478e+02 
-6.892986771769e+01 5.194516323190e+00 0.0 
5.194516323190e+00 -1.079040967398e+02 0.0 
0.0 0.0 -5.265018933726e+01 
-4.817258411573e+01 -3.695261788372e+00 0.0 
-3.695261788372e+00 -1.084518604655e+02 0.0 
0.0 0.0 -4.225488355121e+01 
-5.765140825557e+01 -1.593944907999e+01 0.0 
-1.593944907999e+01 -1.224222686454e+02 0.0 
0.0 0.0 -5.109751674735e+01 
-1.096614195595e+02 -3.291507406727e+00 0.0 
-3.291507406727e+00 -2.318321338005e+02 0.0 
0.0 0.0 -9.823976861271e+01 
-5.812555393337e+01 3.234825038721e+00 0.0 
3.234825038721e+00 -7.302825742187e+01 0.0 
0.0 0.0 -3.894614340657e+01 
-7.698175095165e+01 -8.308039282694e+00 0.0 
-8.308039282694e+00 -1.581863646728e+02 0.0 
0.0 0.0 -6.477436760122e+01 
-7.106051797331e+01 4.870406946425e+00 0.0 
4.870406946425e+00 -1.189226348694e+02 0.0 
0.0 0.0 -5.659494585283e+01 
-6.210083525617e+01 4.126251072679e+00 0.0 
4.126251072679e+00 -8.668542523766e+01 0.0 
0.0 0.0 -4.423587814815e+01 
-1.057678026085e+02 -5.671358002518e+00 0.0 
-5.671358002518e+00 -2.277284385511e+02 0.0 
0.0 0.0 -9.571260827984e+01 
-1.310685720126e+02 -2.138358511691e-01 0.0 
-2.138358511691e-01 -3.039170307174e+02 0.0 
0.0 0.0 -1.292882806763e+02 
-1.335405291745e+02 -1.353603890136e-01 0.0 
-1.353603890136e-01 -3.158445875411e+02 0.0 
0.0 0.0 -1.343001098577e+02 
-6.582899206305e+01 3.155432838966e+00 0.0 
3.155432838966e+00 -1.061730148679e+02 0.0 
0.0 0.0 -5.120060207928e+01 
-2.816535391112e+01 -1.972896350498e+00 0.0 
-1.972896350498e+00 -8.402839678131e+01 0.0 
0.0 0.0 -3.033274878675e+01 
-1.025362061855e+02 -5.254818137009e+00 0.0 
-5.254818137009e+00 -2.153803492835e+02 0.0 
0.0 0.0 -9.052163648942e+01 
-1.136530772547e+02 2.557379043305e+01 0.0 
2.557379043305e+01 -2.902167230625e+02 0.0 
0.0 0.0 -1.207609400951e+02 
-7.305423886592e+01 7.035325428437e+00 0.0 
7.035325428437e+00 -1.176971391752e+02 0.0 
0.0 0.0 -5.682541341235e+01 
-9.477255002945e+01 -5.767683018846e+00 0.0 
-5.767683018846e+00 -1.946257394684e+02 0.0 
0.0 0.0 -8.115574134821e+01 
-1.190522137698e+02 -4.433091506275e+00 0.0 
-4.433091506275e+00 -2.785140326940e+02 0.0 
0.0 0.0 -1.167246482368e+02 
-1.457311229136e+02 2.262275053852e+00 0.0 
2.262275053852e+00 -3.594992301126e+02 0.0 
0.0 0.0 -1.511691059079e+02 
-6.366270553383e+01 3.506809117066e+00 0.0 
3.506809117066e+00 -9.514360794195e+01 0.0 
0.0 0.0 -4.724189404274e+01 
-4.234345290810e+01 -6.011194627417e+00 0.0 
-6.011194627417e+00 -1.301277066871e+02 0.0 
0.0 0.0 -5.405144118673e+01 
-8.180532676110e+00 1.588880071710e+00 0.0 
1.588880071710e+00 -4.662166094879e+01 0.0 
0.0 0.0 -1.441865343007e+01 
-4.708576290889e+01 -6.039724049467e-01 0.0 
-6.039724049467e-01 -1.428812724464e+02 0.0 
0.0 0.0 -5.510986490052e+01 
-1.408633808843e+02 -1.395152440628e+00 0.0 
-1.395152440628e+00 -3.346607361614e+02 0.0 
0.0 0.0 -1.422572351137e+02 
-6.086987913812e+01 3.472726896385e+00 0.0 
3.472726896385e+00 -8.404172130245e+01 0.0 
0.0 0.0 -4.307348013217e+01 
-1.173786159758e+02 -7.266048977082e-01 0.0 
-7.266048977082e-01 -2.527448631771e+02 0.0 
0.0 0.0 -1.074267166505e+02 
-5.042550996968e+01 1.569980134514e+00 0.0 
1.569980134514e+00 -5.290324655381e+01 0.0 
0.0 0.0 -3.059862695704e+01 
-1.311067699772e+02 6.607931636717e+00 0.0 
6.607931636717e+00 -3.437157151674e+02 0.0 
0.0 0.0 -1.420467455434e+02 
-1.092615008051e+02 -4.718131937389e+00 0.0 
-4.718131937389e+00 -2.355974308500e+02 0.0 
0.0 0.0 -9.946146535418e+01 
-1.320155441507e+02 -1.904822362296e+00 0.0 
-1.904822362296e+00 -3.149622042155e+02 0.0 
0.0 0.0 -1.336933245098e+02 
-3.810347687502e+01 -1.072054581110e+00 0.0 
-1.072054581110e+00 -1.009893066966e+02 0.0 
0.0 0.0 -3.844014946736e+01 
-1.499473629156e+02 -3.233611797258e-01 0.0 
-3.233611797258e-01 -3.626003636772e+02 0.0 
0.0 0.0 -1.533643179779e+02 
-1.082922110087e+02 -4.022466422280e+00 0.0 
-4.022466422280e+00 -2.284031209782e+02 0.0 
0.0 0.0 -9.600605635537e+01 
-4.394527757588e+01 -6.528835065747e-01 0.0 
-6.528835065747e-01 -1.090232288842e+02 0.0 
0.0 0.0 -4.250946315877e+01 
-1.043409640524e+02 -3.272910083159e+00 0.0 
-3.272910083159e+00 -2.160719282844e+02 0.0 
0.0 0.0 -9.083912848431e+01 
-8.153916576385e+01 -7.089275737724e+00 0.0 
-7.089275737724e+00 -1.662279205515e+02 0.0 
0.0 0.0 -6.775967131029e+01 
-5.975660686500e+01 -7.074750719349e+00 0.0 
-7.074750719349e+00 -1.291016525090e+02 0.0 
0.0 0.0 -5.193283956088e+01 
-1.159004294187e+02 -2.819399203447e+00 0.0 
-2.819399203447e+00 -2.517812416693e+02 0.0 
0.0 0.0 -1.068863559079e+02 
9.996943221974e-01 -5.711498894237e-02 0.0 
-5.711498894237e-02 -9.671765939971e+00 0.0 
0.0 0.0 3.790123115731e-01 
9.986264190209e-01 -1.234240648916e-01 0.0 
-1.234240648916e-01 -1.009035435551e+01 0.0 
0.0 0.0 -3.509762036952e-04 
-1.260016273402e+02 -1.664916207424e+00 0.0 
-1.664916207424e+00 -2.882020182985e+02 0.0 
0.0 0.0 -1.221623435605e+02 
-3.216479415708e+01 -1.281294567388e+00 0.0 
-1.281294567388e+00 -9.270021794109e+01 0.0 
0.0 0.0 -3.437296378209e+01 
-1.253377539676e+02 -2.330970824201e+00 0.0 
-2.330970824201e+00 -2.928774030296e+02 0.0 
0.0 0.0 -1.236664749736e+02 
-1.222562328244e+02 -3.352840417790e+00 0.0 
-3.352840417790e+00 -2.856046189856e+02 0.0 
0.0 0.0 -1.201928080385e+02 
-8.627877446707e+01 -9.758645765862e+00 0.0 
-9.758645765862e+00 -1.844950193026e+02 0.0 
0.0 0.0 -7.646831025750e+01 
-5.805800559008e+01 -2.000332235579e+01 0.0 
-2.000332235579e+01 -1.372918099822e+02 0.0 
0.0 0.0 -5.404585167797e+01 
-8.132106984797e+01 1.174128840122e+01 0.0 
1.174128840122e+01 -1.384023013430e+02 0.0 
0.0 0.0 -6.551701135728e+01 
-5.166436525317e+01 2.801682508640e+01 0.0 
2.801682508640e+01 -1.197235394190e+02 0.0 
0.0 0.0 -5.108828453469e+01 
-8.604714607122e+01 -5.979165484989e+00 0.0 
-5.979165484989e+00 -1.745065227736e+02 0.0 
0.0 0.0 -7.178425826812e+01 
-1.330470862354e+02 1.059141035547e+01 0.0 
1.059141035547e+01 -3.472916333065e+02 0.0 
0.0 0.0 -1.437016158626e+02 
-2.747138967273e+01 -2.661733823951e+00 0.0 
-2.661733823951e+00 -7.956951115075e+01 0.0 
0.0 0.0 -2.881641686253e+01 
-5.662961272089e+01 3.896298255612e+00 0.0 
3.896298255612e+00 -6.537647983995e+01 0.0 
0.0 0.0 -3.620182776825e+01 
-4.813617400266e+01 2.578185131892e+00 0.0 
2.578185131892e+00 -4.479140616966e+01 0.0 
0.0 0.0 -2.747827405170e+01 
-2.913275643023e+01 -4.330998262731e+00 0.0 
-4.330998262731e+00 -7.768839171971e+01 0.0 
0.0 0.0 -2.822135113464e+01 
-1.403826307601e+02 2.210309575949e+00 0.0 
2.210309575949e+00 -3.521515012060e+02 0.0 
0.0 0.0 -1.473602395898e+02 
-7.468323766645e+01 9.974963376565e+00 0.0 
9.974963376565e+00 -1.061945360312e+02 0.0 
0.0 0.0 -5.386333210928e+01 
-3.790724457510e+01 -4.417994383045e+00 0.0 
-4.417994383045e+00 -9.201832504489e+01 0.0 
0.0 0.0 -3.449285931238e+01 
-8.521042257210e+01 1.445698057767e+01 0.0 
1.445698057767e+01 -1.490330670418e+02 0.0 
0.0 0.0 -6.987304688416e+01 
-8.005577202181e+01 1.225155491078e+01 0.0 
1.225155491078e+01 -1.463566298707e+02 0.0 
0.0 0.0 -6.752372056776e+01 
-4.230722441108e+01 -3.170605355689e+00 0.0 
-3.170605355689e+00 -1.044372959723e+02 0.0 
0.0 0.0 -3.899980367432e+01 
-5.170683252032e+01 3.301523789799e+01 0.0 
3.301523789799e+01 -8.050222986852e+01 0.0 
0.0 0.0 -3.643164406930e+01 
-4.660844946135e+01 -6.074871865510e+00 0.0 
-6.074871865510e+00 -1.076708199999e+02 0.0 
0.0 0.0 -4.189968238737e+01 
-1.309387023430e+02 -7.548344679480e-01 0.0 
-7.548344679480e-01 -3.079460940083e+02 0.0 
0.0 0.0 -1.306877168641e+02 
-1.126544261433e+02 -3.754828298328e+00 0.0 
-3.754828298328e+00 -2.437058098272e+02 0.0 
0.0 0.0 -1.032084933223e+02 
-9.836445850368e+01 3.482041721781e+01 0.0 
3.482041721781e+01 -1.875779397707e+02 0.0 
0.0 0.0 -8.538271948232e+01 
-7.688367458543e+01 9.306904896862e+00 0.0 
9.306904896862e+00 -1.361041989374e+02 0.0 
0.0 0.0 -6.349636205685e+01 
-1.282527679924e+02 -1.455520280760e+00 0.0 
-1.455520280760e+00 -3.003476795841e+02 0.0 
0.0 0.0 -1.271739189983e+02 
-1.242469342108e+02 -2.873932374667e+00 0.0 
-2.873932374667e+00 -2.993165939758e+02 0.0 
0.0 0.0 -1.264694225976e+02 
-3.824431251103e+01 -7.432666606534e+00 0.0 
-7.432666606534e+00 -8.734990232599e+01 0.0 
0.0 0.0 -3.414645605892e+01 
-1.279926339388e+02 -2.365434578487e+00 0.0 
-2.365434578487e+00 -3.070811625061e+02 0.0 
0.0 0.0 -1.301221389335e+02 
-6.977041957485e+01 7.426776870346e+00 0.0 
7.426776870346e+00 -1.036770400905e+02 0.0 
0.0 0.0 -5.163423789959e+01 
-1.145217392363e+02 -1.828324503944e+00 0.0 
-1.828324503944e+00 -2.444577436064e+02 0.0 
0.0 0.0 -1.036288447645e+02 
-6.443444330512e+01 5.574539446109e+00 0.0 
5.574539446109e+00 -8.590942319475e+01 0.0 
0.0 0.0 -4.470315994996e+01 
-7.599446157548e+01 9.660306385308e+00 0.0 
9.660306385308e+00 -1.169613730784e+02 0.0 
0.0 0.0 -5.748675039617e+01 
-7.507436732846e+01 1.506498997433e+01 0.0 
1.506498997433e+01 -2.041257177774e+02 0.0 
0.0 0.0 -8.654803691810e+01 
-7.319860016660e+01 6.953829424524e+00 0.0 
6.953829424524e+00 -1.257383212495e+02 0.0 
0.0 0.0 -5.928107642483e+01 
-9.883600614019e+01 -4.746698729255e+00 0.0 
-4.746698729255e+00 -2.039607904007e+02 0.0 
0.0 0.0 -8.566232418544e+01 
-1.115185735265e+02 -2.874065251315e+00 0.0 
-2.874065251315e+00 -2.363133730743e+02 0.0 
0.0 0.0 -9.981871128321e+01 
-7.581956846453e+01 -6.247765429404e+00 0.0 
-6.247765429404e+00 -1.538755244562e+02 0.0 
0.0 0.0 -6.210894762770e+01 
-7.958061474802e+01 -1.335553444730e+01 0.0 
-1.335553444730e+01 -1.707442047206e+02 0.0 
0.0 0.0 -7.235423630184e+01 
-6.524912603972e+01 5.206345890073e+00 0.0 
5.206345890073e+00 -9.362061107150e+01 0.0 
0.0 0.0 -4.726092113336e+01 
-1.019262842173e+02 -1.047267057660e+01 0.0 
-1.047267057660e+01 -2.404705132322e+02 0.0 
0.0 0.0 -1.024906883168e+02 
-5.138645558634e+01 -5.057919907553e+00 0.0 
-5.057919907553e+00 -1.165227348592e+02 0.0 
0.0 0.0 -4.528088406005e+01 
-1.633856313241e+01 -7.246667126041e-01 0.0 
-7.246667126041e-01 -5.801043044748e+01 0.0 
0.0 0.0 -1.888136236940e+01 
-6.956926442202e+01 7.530042179637e+00 0.0 
7.530042179637e+00 -9.584805981474e+01 0.0 
0.0 0.0 -4.922519727103e+01 
-5.463075651757e+01 -8.085543657225e+00 0.0 
-8.085543657225e+00 -1.163599812580e+02 0.0 
0.0 0.0 -4.663183150438e+01 
-1.485587374269e+02 1.015262083721e+00 0.0 
1.015262083721e+00 -3.655055510649e+02 0.0 
0.0 0.0 -1.538192865475e+02 
-6.748506157922e+01 5.176740341986e+00 0.0 
5.176740341986e+00 -1.046872626468e+02 0.0 
0.0 0.0 -5.125169726780e+01 
-1.319921968712e+02 -2.111448141255e+00 0.0 
-2.111448141255e+00 -3.188981582673e+02 0.0 
0.0 0.0 -1.348671065416e+02 
-1.468744597162e+02 1.872038012501e+01 0.0 
1.872038012501e+01 -3.576588965464e+02 0.0 
0.0 0.0 -1.509600068788e+02 
-9.562642534287e+01 -3.504297163069e+00 0.0 
-3.504297163069e+00 -1.954743512916e+02 0.0 
0.0 0.0 -8.153663324897e+01 
-4.673911459289e+01 -6.388999777509e+00 0.0 
-6.388999777509e+00 -1.037612338942e+02 0.0 
0.0 0.0 -4.062031364400e+01 
-2.525734239614e+01 -5.561024877169e+00 0.0 
-5.561024877169e+00 -6.595626527169e+01 0.0 
0.0 0.0 -2.465497748334e+01 
-1.269723400462e+02 -1.836313104400e+00 0.0 
-1.836313104400e+00 -3.051688175723e+02 0.0 
0.0 0.0 -1.286220817133e+02 
-5.674856284748e+01 2.113848052545e+00 0.0 
2.113848052545e+00 -7.483550450318e+01 0.0 
0.0 0.0 -3.907522020520e+01 
-1.143894252896e+01 -2.896173019170e+00 0.0 
-2.896173019170e+00 -4.691621962068e+01 0.0 
0.0 0.0 -1.509078472667e+01 
-7.682415069226e+01 -5.884454645466e+00 0.0 
-5.884454645466e+00 -1.587131885945e+02 0.0 
0.0 0.0 -6.473364843573e+01 
-2.737256867433e+01 2.539858211012e-01 0.0 
2.539858211012e-01 -8.917370067344e+01 0.0 
0.0 0.0 -3.313889984244e+01 
-6.207884453296e+01 5.453886647652e+00 0.0 
5.453886647652e+00 -7.507917602997e+01 0.0 
0.0 0.0 -4.074740616888e+01 
-8.150896254401e+01 -4.661726436519e+00 0.0 
-4.661726436519e+00 -1.669165105080e+02 0.0 
0.0 0.0 -6.779563926130e+01 
-1.167832387222e+02 -4.139188805195e+00 0.0 
-4.139188805195e+00 -2.843595104381e+02 0.0 
0.0 0.0 -1.194149083135e+02 
-7.529213423126e+01 -3.452003164487e+00 0.0 
-3.452003164487e+00 -1.545815210824e+02 0.0 
0.0 0.0 -6.271170293476e+01 
-7.474731536937e+01 6.607193690121e+00 0.0 
6.607193690121e+00 -1.288638028271e+02 0.0 
0.0 0.0 -6.068333545894e+01 
-6.626363547868e+01 -8.473412797388e+00 0.0 
-8.473412797388e+00 -1.372207081604e+02 0.0 
0.0 0.0 -5.578857895136e+01 
-1.250715661034e+02 -1.606960998904e+00 0.0 
-1.606960998904e+00 -3.100354425437e+02 0.0 
0.0 0.0 -1.300901742295e+02 
-4.816187114000e+01 -1.282295608110e+01 0.0 
-1.282295608110e+01 -1.003571978547e+02 0.0 
0.0 0.0 -4.061811560749e+01 
-1.236806203549e+02 -2.714803162170e+00 0.0 
-2.714803162170e+00 -2.979284363365e+02 0.0 
0.0 0.0 -1.251537841080e+02 
-1.079080301293e+02 -2.322930023287e+00 0.0 
-2.322930023287e+00 -2.246931509493e+02 0.0 
0.0 0.0 -9.496675739770e+01 
-1.274643490121e+02 -2.595273376838e+00 0.0 
-2.595273376838e+00 -3.113567898493e+02 0.0 
0.0 0.0 -1.312463416584e+02 
-5.625696841154e+01 -7.336527954599e+00 0.0 
-7.336527954599e+00 -1.631880867444e+02 0.0 
0.0 0.0 -6.285456001290e+01 
-3.311106522912e+01 -2.662255822275e+00 0.0 
-2.662255822275e+00 -8.858718435845e+01 0.0 
0.0 0.0 -3.309675220973e+01 
-5.177370869515e+01 2.731504095012e+00 0.0 
2.731504095012e+00 -5.593078550041e+01 0.0 
0.0 0.0 -3.191134825867e+01 
-1.063442461542e+02 4.781910934619e+00 0.0 
4.781910934619e+00 -2.845860633976e+02 0.0 
0.0 0.0 -1.199367469630e+02 
-7.361576697630e+01 3.976760968500e+01 0.0 
3.976760968500e+01 -1.477340730894e+02 0.0 
0.0 0.0 -6.443080613846e+01 
-5.948311766015e+01 4.090092902523e+00 0.0 
4.090092902523e+00 -7.609918720622e+01 0.0 
0.0 0.0 -4.027469145991e+01 
-5.634929077917e+01 -1.742408487184e+01 0.0 
-1.742408487184e+01 -1.192145703159e+02 0.0 
0.0 0.0 -4.932559986856e+01 
-6.614006546863e+01 7.464428025701e+00 0.0 
7.464428025701e+00 -8.229605760678e+01 0.0 
0.0 0.0 -4.413083692262e+01 
-2.225671196755e+01 7.149016251170e-02 0.0 
7.149016251170e-02 -8.060863766357e+01 0.0 
0.0 0.0 -2.915571508260e+01 
-1.417507757453e+02 9.386972068882e-01 0.0 
9.386972068882e-01 -3.482440626040e+02 0.0 
0.0 0.0 -1.465984515048e+02 
-1.078036439672e+02 8.803237047635e+00 0.0 
8.803237047635e+00 -2.870562728406e+02 0.0 
0.0 0.0 -1.199018241763e+02 
-1.037888366220e+02 2.206254318245e+01 0.0 
2.206254318245e+01 -2.690557399049e+02 0.0 
0.0 0.0 -1.114533729580e+02 
-8.560375676656e+01 1.373845429870e+01 0.0 
1.373845429870e+01 -1.604396741384e+02 0.0 
0.0 0.0 -7.341302927149e+01 
-1.081585279665e+02 -7.863919403565e+00 0.0 
-7.863919403565e+00 -2.596330712477e+02 0.0 
0.0 0.0 -1.099033912491e+02 
-3.335435817674e+01 -4.991993051546e+00 0.0 
-4.991993051546e+00 -8.336334942797e+01 0.0 
0.0 0.0 -3.132838092175e+01 
-1.168693242110e+02 -4.503562107996e+00 0.0 
-4.503562107996e+00 -2.843082310316e+02 0.0 
0.0 0.0 -1.184044851222e+02 
-1.427606135413e+02 1.154059440218e+00 0.0 
1.154059440218e+00 -3.579949179961e+02 0.0 
0.0 0.0 -1.498266594612e+02 
-6.848819298972e+01 -2.042253466500e+01 0.0 
-2.042253466500e+01 -1.599567462395e+02 0.0 
0.0 0.0 -6.699022533072e+01 
-1.302350272492e+02 -1.043737991908e+00 0.0 
-1.043737991908e+00 -3.125496770406e+02 0.0 
0.0 0.0 -1.321669082232e+02 
-7.132278815943e+01 7.374296935137e+00 0.0 
7.374296935137e+00 -1.066887899140e+02 0.0 
0.0 0.0 -5.300347342202e+01 
-5.421844600933e+01 -2.204108131551e+01 0.0 
-2.204108131551e+01 -1.365539387629e+02 0.0 
0.0 0.0 -5.154626446293e+01 
-1.203295199766e+02 -3.618043789134e+00 0.0 
-3.618043789134e+00 -2.909244468118e+02 0.0 
0.0 0.0 -1.217521823983e+02 
-5.645356067157e+01 5.135206041868e+00 0.0 
5.135206041868e+00 -5.340732089089e+01 0.0 
0.0 0.0 -3.255826446874e+01 
-5.359249925493e+01 -1.904604533684e+00 0.0 
-1.904604533684e+00 -1.215097842584e+02 0.0 
0.0 0.0 -4.796594778678e+01 
-7.204441607641e+01 -7.380778100139e+00 0.0 
-7.380778100139e+00 -1.505185967121e+02 0.0 
0.0 0.0 -6.169322095227e+01 
-7.946544746219e+01 3.729154817663e+01 0.0 
3.729154817663e+01 -1.779989124873e+02 0.0 
0.0 0.0 -7.480740813860e+01 
-1.231097337944e+02 -3.107756326768e+00 0.0 
-3.107756326768e+00 -3.039399464663e+02 0.0 
0.0 0.0 -1.277149040782e+02 
-6.654185753510e+01 3.884449172884e+01 0.0 
3.884449172884e+01 -1.098657223000e+02 0.0 
0.0 0.0 -4.830959104446e+01 
-7.556051692337e+01 3.511009757020e+01 0.0 
3.511009757020e+01 -1.725201103805e+02 0.0 
0.0 0.0 -7.262191305855e+01 
-6.801200728768e+01 7.459845776817e+00 0.0 
7.459845776817e+00 -9.292612302745e+01 0.0 
0.0 0.0 -4.788143909454e+01 
-5.354380917978e+01 1.841502764263e+00 0.0 
1.841502764263e+00 -6.372137249461e+01 0.0 
0.0 0.0 -3.477955450232e+01 
-5.800920455353e+01 4.505615209984e+00 0.0 
4.505615209984e+00 -6.096535534418e+01 0.0 
0.0 0.0 -3.529236796931e+01 
-1.061450550217e+02 -4.199231749470e+00 0.0 
-4.199231749470e+00 -2.238263911735e+02 0.0 
0.0 0.0 -9.451614508208e+01 
-1.349596166525e+02 2.215345074257e+00 0.0 
2.215345074257e+00 -3.446555660027e+02 0.0 
0.0 0.0 -1.434845547966e+02 
-1.132023943640e+02 -5.333916365362e+00 0.0 
-5.333916365362e+00 -2.782625131742e+02 0.0 
0.0 0.0 -1.164820005184e+02 
-5.351478917731e+01 3.615049048417e+00 0.0 
3.615049048417e+00 -5.455353434950e+01 0.0 
0.0 0.0 -3.202049705804e+01 
-1.105478132672e+02 4.487721792180e+01 0.0 
4.487721792180e+01 -2.252276065843e+02 0.0 
0.0 0.0 -1.003326259555e+02 
-1.066032906179e+02 2.488779647741e+01 0.0 
2.488779647741e+01 -2.732837592195e+02 0.0 
0.0 0.0 -1.135661149512e+02 
-1.189267968519e+02 -3.590917789912e+00 0.0 
-3.590917789912e+00 -2.966448096522e+02 0.0 
0.0 0.0 -1.242714819512e+02 
-7.150832945455e+01 7.275079173481e+00 0.0 
7.275079173481e+00 -1.146521766228e+02 0.0 
0.0 0.0 -5.544815182321e+01 
-8.413149861500e+01 -1.095745694318e+01 0.0 
-1.095745694318e+01 -1.773706222300e+02 0.0 
0.0 0.0 -7.496022374945e+01 
-7.857325499752e+01 -9.183420389653e+00 0.0 
-9.183420389653e+00 -1.637402162268e+02 0.0 
0.0 0.0 -6.830495082699e+01 
-3.249475374648e+01 -4.376622878022e+00 0.0 
-4.376622878022e+00 -8.652541866589e+01 0.0 
0.0 0.0 -3.174079836956e+01 
-1.174596046749e+02 -2.771219370993e+00 0.0 
-2.771219370993e+00 -2.965305560919e+02 0.0 
0.0 0.0 -1.233737654383e+02 
-8.319008401079e+01 -7.400369904423e+00 0.0 
-7.400369904423e+00 -1.715541008027e+02 0.0 
0.0 0.0 -7.118278414655e+01 
-6.769711036987e+01 7.609181961987e+00 0.0 
7.609181961987e+00 -8.502974530431e+01 0.0 
0.0 0.0 -4.541805670225e+01 
-6.572038859017e+01 7.654662716392e+00 0.0 
7.654662716392e+00 -7.435892027251e+01 0.0 
0.0 0.0 -4.162379265881e+01 
-7.762046558496e+01 9.723790481001e+00 0.0 
9.723790481001e+00 -2.137816602241e+02 0.0 
0.0 0.0 -9.078965767496e+01 
-6.760522790164e+01 -1.131576921138e+01 0.0 
-1.131576921138e+01 -1.422679227940e+02 0.0 
0.0 0.0 -5.877030828940e+01 
-5.908962647116e+01 1.525297882311e+01 0.0 
1.525297882311e+01 -1.643228463265e+02 0.0 
0.0 0.0 -6.394012515829e+01 
-7.226745310661e+01 -9.735613703659e+00 0.0 
-9.735613703659e+00 -1.501847974294e+02 0.0 
0.0 0.0 -6.175134521748e+01 
-7.738199381195e+01 -1.078686769956e+01 0.0 
-1.078686769956e+01 -1.633916500622e+02 0.0 
0.0 0.0 -6.770730142560e+01 
-4.217827487795e+01 -7.059143669374e+00 0.0 
-7.059143669374e+00 -9.556445811547e+01 0.0 
0.0 0.0 -3.731803290266e+01 
-1.297309211842e+02 2.796105221216e+00 0.0 
2.796105221216e+00 -3.375350068742e+02 0.0 
0.0 0.0 -1.397797784175e+02 
-8.783724137298e+01 -1.135120442379e+01 0.0 
-1.135120442379e+01 -2.049844808686e+02 0.0 
0.0 0.0 -8.571420224028e+01 
-7.720730301856e+01 9.195109945078e+00 0.0 
9.195109945078e+00 -1.278219096661e+02 0.0 
0.0 0.0 -6.110876380541e+01 
-8.995064020053e+01 -1.063266637162e+01 0.0 
-1.063266637162e+01 -2.186942765225e+02 0.0 
0.0 0.0 -9.171280843893e+01 
-1.106065181531e+02 -4.022055821322e+00 0.0 
-4.022055821322e+00 -2.826813164078e+02 0.0 
0.0 0.0 -1.175863503683e+02 
-1.009688919314e+02 -7.374153608940e+00 0.0 
-7.374153608940e+00 -2.443987631496e+02 0.0 
0.0 0.0 -1.018921898377e+02 
-7.201410777077e+01 2.762571587190e+01 0.0 
2.762571587190e+01 -1.800734359744e+02 0.0 
0.0 0.0 -7.578848766982e+01 
-3.731931062018e+01 -3.927405465500e+00 0.0 
-3.927405465500e+00 -9.555896503333e+01 0.0 
0.0 0.0 -3.531098870698e+01 
-1.364214323425e+02 1.505365772648e+00 0.0 
1.505365772648e+00 -3.502948025663e+02 0.0 
0.0 0.0 -1.456148704726e+02 
-1.440572924095e+02 4.716621483293e+00 0.0 
4.716621483293e+00 -3.628921225184e+02 0.0 
0.0 0.0 -1.516848244784e+02 
-9.494891447820e+01 3.927174253746e+01 0.0 
3.927174253746e+01 -2.189891252093e+02 0.0 
0.0 0.0 -9.378141190625e+01 
-8.165446379981e+01 -1.142557926244e+01 0.0 
-1.142557926244e+01 -1.770166433024e+02 0.0 
0.0 0.0 -7.363603426942e+01 
-1.058862497428e+02 -5.515126816145e+00 0.0 
-5.515126816145e+00 -2.636519342779e+02 0.0 
0.0 0.0 -1.093433138743e+02 
-6.296992355528e+01 5.055907509958e+00 0.0 
5.055907509958e+00 -8.259329761131e+01 0.0 
0.0 0.0 -4.326896634998e+01 
-8.866370794347e+01 -8.838774373297e+00 0.0 
-8.838774373297e+00 -1.848668883560e+02 0.0 
0.0 0.0 -7.764389607693e+01 
-6.732669403656e+01 3.628084085245e+01 0.0 
3.628084085245e+01 -1.398697428971e+02 0.0 
0.0 0.0 -5.966806839876e+01 
-6.473192020194e+01 -5.620829955493e+00 0.0 
-5.620829955493e+00 -1.377424869348e+02 0.0 
0.0 0.0 -5.514429867996e+01 
-6.240965901525e+01 -1.988345729274e+01 0.0 
-1.988345729274e+01 -1.394026081927e+02 0.0 
0.0 0.0 -5.769982915358e+01 
-8.865635846742e+01 -1.241315790093e+01 0.0 
-1.241315790093e+01 -1.916651427159e+02 0.0 
0.0 0.0 -8.162688170069e+01 
-5.941860030304e+01 -7.109555850657e+00 0.0 
-7.109555850657e+00 -1.245637934196e+02 0.0 
0.0 0.0 -4.984934190217e+01 
-4.767055037828e+01 -2.413326307770e+00 0.0 
-2.413326307770e+00 -1.132274325367e+02 0.0 
0.0 0.0 -4.357809565508e+01 
-1.065617530027e+02 -8.800094974500e+00 0.0 
-8.800094974500e+00 -2.461875405788e+02 0.0 
0.0 0.0 -1.043107573525e+02 
-1.147270770226e+02 -3.908350374862e+00 0.0 
-3.908350374862e+00 -2.895046531185e+02 0.0 
0.0 0.0 -1.208695190423e+02 
-1.078019745131e+02 3.947373945523e+01 0.0 
3.947373945523e+01 -2.547673877381e+02 0.0 
0.0 0.0 -1.083708086754e+02 
9.999340911687e-01 2.482702504111e-02 0.0 
2.482702504111e-02 -8.352027042565e+00 0.0 
0.0 0.0 1.214198386500e-01 
-7.843572674212e+01 -1.020689634046e+01 0.0 
-1.020689634046e+01 -2.155163792252e+02 0.0 
0.0 0.0 -8.957031545103e+01 
-8.478894770081e+01 -1.183639242929e+01 0.0 
-1.183639242929e+01 -2.134763574724e+02 0.0 
0.0 0.0 -8.921089618664e+01 
-8.512907318188e+01 -1.158052189869e+01 0.0 
-1.158052189869e+01 -1.909976729826e+02 0.0 
0.0 0.0 -7.964900332165e+01 
-6.058892390156e+01 4.825741715607e+00 0.0 
4.825741715607e+00 -7.170946774603e+01 0.0 
0.0 0.0 -3.928951749428e+01 
-9.485312859484e+01 -9.361653114288e+00 0.0 
-9.361653114288e+00 -2.248001392416e+02 0.0 
0.0 0.0 -9.411518055858e+01 
-7.106871489219e+01 -7.251226011045e+00 0.0 
-7.251226011045e+00 -1.454783110527e+02 0.0 
0.0 0.0 -5.891487499192e+01 
-9.215210611967e+01 -1.317266602138e+01 0.0 
-1.317266602138e+01 -2.063519755938e+02 0.0 
0.0 0.0 -8.814701959152e+01 
-6.948729826542e+01 4.947954524304e+00 0.0 
4.947954524304e+00 -1.158318874329e+02 0.0 
0.0 0.0 -5.519575570949e+01 
-6.972566322944e+01 -4.485549491894e+00 0.0 
-4.485549491894e+00 -1.461798869549e+02 0.0 
0.0 0.0 -5.834335941771e+01 
-1.428356508701e+01 -3.371943213593e+00 0.0 
-3.371943213593e+00 -5.419568997540e+01 0.0 
0.0 0.0 -1.803197631561e+01 
-2.883661827222e+01 -5.169119858834e+00 0.0 
-5.169119858834e+00 -7.501120872641e+01 0.0 
0.0 0.0 -2.786574769000e+01 
-6.088185085412e+01 -1.838944897243e+01 0.0 
-1.838944897243e+01 -1.392329215144e+02 0.0 
0.0 0.0 -5.683625106096e+01 
-7.258107882595e+01 -1.262672765416e+01 0.0 
-1.262672765416e+01 -1.559815064671e+02 0.0 
0.0 0.0 -6.482726016288e+01 
-8.594044439543e+01 -9.870761441041e+00 0.0 
-9.870761441041e+00 -2.272955002593e+02 0.0 
0.0 0.0 -9.501015266557e+01 
-9.469603039250e+01 -1.313959080381e+01 0.0 
-1.313959080381e+01 -2.208932856247e+02 0.0 
0.0 0.0 -9.437466495123e+01 
-4.735992458961e+01 -1.407293424097e+01 0.0 
-1.407293424097e+01 -9.614421500941e+01 0.0 
0.0 0.0 -3.824021598303e+01 
-2.245643729548e+01 -2.063335403325e+00 0.0 
-2.063335403325e+00 -7.479500852305e+01 0.0 
0.0 0.0 -2.605381120376e+01 
-6.873786041858e+01 1.152846623347e+01 0.0 
1.152846623347e+01 -6.398189820155e+01 0.0 
0.0 0.0 -3.941592758604e+01 
-5.663957888022e+01 -3.973368219662e+00 0.0 
-3.973368219662e+00 -1.254408754194e+02 0.0 
0.0 0.0 -4.865364118699e+01 
-1.233949583141e+02 3.921270938041e-01 0.0 
3.921270938041e-01 -3.253107721850e+02 0.0 
0.0 0.0 -1.342117191497e+02 
-1.044993266883e+02 3.708323148490e+01 0.0 
3.708323148490e+01 -2.504047966853e+02 0.0 
0.0 0.0 -1.060712370121e+02 
-8.382695344740e+01 3.615768596207e+01 0.0 
3.615768596207e+01 -1.150782602782e+02 0.0 
0.0 0.0 -5.927156411768e+01 
-8.320645959895e+01 1.683253265021e+01 0.0 
1.683253265021e+01 -1.386805569686e+02 0.0 
0.0 0.0 -6.616610497028e+01 
-1.109137529945e+02 4.156355839394e+01 0.0 
4.156355839394e+01 -2.590599639609e+02 0.0 
0.0 0.0 -1.105921150866e+02 
-7.095008686932e+01 1.167427841886e+01 0.0 
1.167427841886e+01 -1.964726602326e+02 0.0 
0.0 0.0 -8.220129596430e+01 
-1.000332637045e+02 3.841513626941e+01 0.0 
3.841513626941e+01 -2.354243274071e+02 0.0 
0.0 0.0 -1.002372773335e+02 
-5.585828142113e+01 -1.962993643253e+01 0.0 
-1.962993643253e+01 -1.183209127557e+02 0.0 
0.0 0.0 -4.763811297647e+01 
-9.694127195963e+01 -1.077136240443e+01 0.0 
-1.077136240443e+01 -2.124477445063e+02 0.0 
0.0 0.0 -9.039253126306e+01 
-7.428583941696e+01 2.665301429230e+01 0.0 
2.665301429230e+01 -1.879462628835e+02 0.0 
0.0 0.0 -8.007672110541e+01 
-4.859302380766e+01 -2.110057624473e+01 0.0 
-2.110057624473e+01 -1.287944007333e+02 0.0 
0.0 0.0 -4.781364857197e+01 
-4.684590446453e+01 -1.782243371356e+01 0.0 
-1.782243371356e+01 -9.429935803857e+01 0.0 
0.0 0.0 -3.666876491785e+01 
-8.203157700288e+01 -9.144566857582e+00 0.0 
-9.144566857582e+00 -1.712359255265e+02 0.0 
0.0 0.0 -7.060335546970e+01 
-8.895557938583e+01 -1.528343812131e+01 0.0 
-1.528343812131e+01 -2.159421626094e+02 0.0 
0.0 0.0 -9.195803899041e+01 
-9.041349862650e+01 -1.374884219783e+01 0.0 
-1.374884219783e+01 -2.305292719065e+02 0.0 
0.0 0.0 -9.780275892685e+01 
-6.437602909877e+01 -6.084657110577e+00 0.0 
-6.084657110577e+00 -1.329423786809e+02 0.0 
0.0 0.0 -5.308117327404e+01 
-9.651762811215e+01 -8.219998600624e+00 0.0 
-8.219998600624e+00 -2.380795545610e+02 0.0 
0.0 0.0 -9.986979951697e+01 
-8.468541494690e+01 -1.417508510230e+01 0.0 
-1.417508510230e+01 -2.283672843590e+02 0.0 
0.0 0.0 -9.583124711702e+01 
-7.860985234689e+01 -5.728930156611e+00 0.0 
-5.728930156611e+00 -2.177020912853e+02 0.0 
0.0 0.0 -9.148257038255e+01 
-7.396997879855e+01 -1.139524283772e+01 0.0 
-1.139524283772e+01 -1.561974669908e+02 0.0 
0.0 0.0 -6.553166002545e+01 
-1.041969170865e+02 1.410541370129e+01 0.0 
1.410541370129e+01 -2.759611377763e+02 0.0 
0.0 0.0 -1.149719358536e+02 
-7.333890521323e+01 1.029893966980e+01 0.0 
1.029893966980e+01 -9.566360787685e+01 0.0 
0.0 0.0 -5.030075392702e+01 
-7.284039324496e+01 -4.274722200698e+00 0.0 
-4.274722200698e+00 -2.041926994471e+02 0.0 
0.0 0.0 -8.494709762232e+01 
-1.307273680586e+02 2.286019410140e+00 0.0 
2.286019410140e+00 -3.428769355120e+02 0.0 
0.0 0.0 -1.416812910712e+02 
-5.997707454629e+01 -2.198748063687e+01 0.0 
-2.198748063687e+01 -1.398042467406e+02 0.0 
0.0 0.0 -5.573168150148e+01 
-1.369141126883e+02 9.283614221388e+00 0.0 
9.283614221388e+00 -3.570131373604e+02 0.0 
0.0 0.0 -1.477781750146e+02 
-9.158654646457e+01 -9.193573808994e+00 0.0 
-9.193573808994e+00 -2.322082159915e+02 0.0 
0.0 0.0 -9.757341021605e+01 
-1.147078788463e+02 4.384659264995e+01 0.0 
4.384659264995e+01 -2.647235469498e+02 0.0 
0.0 0.0 -1.134294277388e+02 
-8.820280636506e+01 4.233156032678e+01 0.0 
4.233156032678e+01 -1.702015694745e+02 0.0 
0.0 0.0 -7.712131275187e+01 
-5.521574417649e+01 -1.860752639591e+01 0.0 
-1.860752639591e+01 -1.190926012187e+02 0.0 
0.0 0.0 -4.765875135494e+01 
-8.680733879103e+01 3.840192019234e+01 0.0 
3.840192019234e+01 -1.348323486097e+02 0.0 
0.0 0.0 -6.609190622023e+01 
-9.137778945949e+01 2.576840580781e+01 0.0 
2.576840580781e+01 -1.593397775977e+02 0.0 
0.0 0.0 -7.481527011716e+01 
-9.281361265747e+01 -6.811521443779e+00 0.0 
-6.811521443779e+00 -2.451068803588e+02 0.0 
0.0 0.0 -1.031545830838e+02 
-6.065313469545e+01 3.246612980707e+01 0.0 
3.246612980707e+01 -1.333222178752e+02 0.0 
0.0 0.0 -5.610745196689e+01 
-8.996968807432e+01 4.026446666113e+01 0.0 
4.026446666113e+01 -1.542071000831e+02 0.0 
0.0 0.0 -7.285303644723e+01 
-7.852543744339e+01 3.984904836055e+01 0.0 
3.984904836055e+01 -1.657457594523e+02 0.0 
0.0 0.0 -7.132319366434e+01 
-4.946926973598e+01 -1.742933800917e+01 0.0 
-1.742933800917e+01 -9.682121518989e+01 0.0 
0.0 0.0 -3.874446588526e+01 
-9.068353660526e+01 2.211124721724e+01 0.0 
2.211124721724e+01 -1.844537406764e+02 0.0 
0.0 0.0 -8.214118318450e+01 
-4.157505825116e+01 -1.307304249177e+01 0.0 
-1.307304249177e+01 -7.924750993711e+01 0.0 
0.0 0.0 -3.199626233580e+01 
-1.239343278761e+02 2.431206763327e+01 0.0 
2.431206763327e+01 -3.169640680306e+02 0.0 
0.0 0.0 -1.318695187720e+02 
-7.804385831829e+01 8.670836788965e+00 0.0 
8.670836788965e+00 -1.469420931335e+02 0.0 
0.0 0.0 -6.709578543555e+01 
-1.094892272254e+02 1.258763299875e+01 0.0 
1.258763299875e+01 -2.895893535447e+02 0.0 
0.0 0.0 -1.198381061122e+02 
-5.524043718745e+01 2.822887311279e+00 0.0 
2.822887311279e+00 -6.187520826454e+01 0.0 
0.0 0.0 -3.473469363560e+01 
-8.451140168547e+01 1.630889221952e+01 0.0 
1.630889221952e+01 -1.290543342588e+02 0.0 
0.0 0.0 -6.366972078327e+01 
-8.686722465914e+01 -9.517701350141e+00 0.0 
-9.517701350141e+00 -2.362549323843e+02 0.0 
0.0 0.0 -9.972062696843e+01 
-8.432290356535e+01 1.157766700079e+01 0.0 
1.157766700079e+01 -2.290779601078e+02 0.0 
0.0 0.0 -9.898142774874e+01 
-8.754581237869e+01 1.945955018020e+01 0.0 
1.945955018020e+01 -1.612654849949e+02 0.0 
0.0 0.0 -7.424338921207e+01 
-1.223844433201e+02 -2.916853741296e+00 0.0 
-2.916853741296e+00 -3.086458229330e+02 0.0 
0.0 0.0 -1.289090798759e+02 
-7.890923642838e+01 1.352001235314e+01 0.0 
1.352001235314e+01 -1.070416189311e+02 0.0 
0.0 0.0 -5.538525660785e+01 
-1.083935169637e+02 4.146660627961e+00 0.0 
4.146660627961e+00 -2.896144900940e+02 0.0 
0.0 0.0 -1.197657167879e+02 
-5.197433653823e+01 -2.092069297035e+01 0.0 
-2.092069297035e+01 -1.163141219709e+02 0.0 
0.0 0.0 -4.442792911266e+01 
-8.412315280566e+01 1.723632899664e+01 0.0 
1.723632899664e+01 -1.192459385123e+02 0.0 
0.0 0.0 -6.061072739539e+01 
-1.213773878716e+02 3.834679832601e+01 0.0 
3.834679832601e+01 -2.933333137126e+02 0.0 
0.0 0.0 -1.240132104753e+02 
-1.403563032966e+02 4.353067673166e+00 0.0 
4.353067673166e+00 -3.612275021373e+02 0.0 
0.0 0.0 -1.500751416302e+02 
-9.258001719942e+01 -9.969579495353e+00 0.0 
-9.969579495353e+00 -2.113163329805e+02 0.0 
0.0 0.0 -8.824227876838e+01 
-5.935301234315e+01 5.370769484726e+00 0.0 
5.370769484726e+00 -6.396947699290e+01 0.0 
0.0 0.0 -3.659674680081e+01 
-5.208528820924e+01 2.407055415403e+00 0.0 
2.407055415403e+00 -5.109969909909e+01 0.0 
0.0 0.0 -3.055549619250e+01 
-9.642429335024e+01 -1.223609356979e+01 0.0 
-1.223609356979e+01 -2.350975157083e+02 0.0 
0.0 0.0 -1.002560741133e+02 
-1.180570291635e+02 -3.157618898391e+00 0.0 
-3.157618898391e+00 -3.016788966035e+02 0.0 
0.0 0.0 -1.255207777301e+02 
-1.210447312115e+02 -1.854973289039e+00 0.0 
-1.854973289039e+00 -3.136766179085e+02 0.0 
0.0 0.0 -1.300164047360e+02 
-1.943254446695e+01 -1.436117379529e+00 0.0 
-1.436117379529e+00 -6.610314722736e+01 0.0 
0.0 0.0 -2.232029738812e+01 
-5.665763099324e+01 1.820611993393e+01 0.0 
1.820611993393e+01 -1.547372097308e+02 0.0 
0.0 0.0 -5.990539910965e+01 
-7.421217970888e+01 2.268208551155e-01 0.0 
2.268208551155e-01 -2.079538084395e+02 0.0 
0.0 0.0 -8.743362381015e+01 
-8.163037010220e+01 -7.438719187013e+00 0.0 
-7.438719187013e+00 -2.244338550109e+02 0.0 
0.0 0.0 -9.452690286594e+01 
-7.934503293298e+01 3.691461838685e+01 0.0 
3.691461838685e+01 -1.787870080346e+02 0.0 
0.0 0.0 -7.759488014408e+01 
-9.250095159418e+01 2.105109999724e+01 0.0 
2.105109999724e+01 -1.728892042002e+02 0.0 
0.0 0.0 -7.921704673831e+01 
-1.018322573120e+02 3.896061113999e+01 0.0 
3.896061113999e+01 -2.025624049302e+02 0.0 
0.0 0.0 -9.091839867266e+01 
-8.187402266157e+01 1.083860741865e+01 0.0 
1.083860741865e+01 -1.488212745730e+02 0.0 
0.0 0.0 -6.880858917036e+01 
-6.927990374782e+01 3.943210090078e+01 0.0 
3.943210090078e+01 -1.094311178195e+02 0.0 
0.0 0.0 -4.816335311957e+01 
-8.714048494182e+01 2.304392272458e+01 0.0 
2.304392272458e+01 -1.361922472878e+02 0.0 
0.0 0.0 -6.659981966890e+01 
-1.212415316440e+02 -2.261868602373e+00 0.0 
-2.261868602373e+00 -3.030309708896e+02 0.0 
0.0 0.0 -1.266456980427e+02 
-8.417925040727e+01 1.501216661864e+01 0.0 
1.501216661864e+01 -1.586891051955e+02 0.0 
0.0 0.0 -7.246050668082e+01 
-8.354016863414e+01 1.832569877735e+01 0.0 
1.832569877735e+01 -1.097059993092e+02 0.0 
0.0 0.0 -5.757385038299e+01 
-9.980748728520e+01 -1.095623538697e+01 0.0 
-1.095623538697e+01 -2.265088585039e+02 0.0 
0.0 0.0 -9.655060374447e+01 
-6.975549274703e+01 2.397523330720e+00 0.0 
2.397523330720e+00 -1.971127191290e+02 0.0 
0.0 0.0 -8.114463458535e+01 
-7.803959236375e+01 1.388151511464e+01 0.0 
1.388151511464e+01 -1.160961822029e+02 0.0 
0.0 0.0 -5.784073237000e+01 
-8.902126507659e+01 1.889312845555e+01 0.0 
1.889312845555e+01 -1.512551258172e+02 0.0 
0.0 0.0 -7.168291726815e+01 
-7.436701400269e+01 1.008882475199e+01 0.0 
1.008882475199e+01 -1.145057644339e+02 0.0 
0.0 0.0 -5.626183353097e+01 
-7.305800906487e+01 1.040861539523e+01 0.0 
1.040861539523e+01 -1.040321958387e+02 0.0 
0.0 0.0 -5.272706147107e+01 
-1.335387797500e+02 -4.401277606687e-01 0.0 
-4.401277606687e-01 -3.394173243259e+02 0.0 
0.0 0.0 -1.414868312228e+02 
-1.192402762590e+02 2.544107120302e+01 0.0 
2.544107120302e+01 -3.042813465969e+02 0.0 
0.0 0.0 -1.266564868568e+02 
-1.283323397712e+02 -3.316722977136e-01 0.0 
-3.316722977136e-01 -3.321311120833e+02 0.0 
0.0 0.0 -1.377390355564e+02 
-1.095318504827e+02 -5.186088369502e+00 0.0 
-5.186088369502e+00 -2.702710472608e+02 0.0 
0.0 0.0 -1.127007261962e+02 
-6.517379386795e+01 3.679589543962e+01 0.0 
3.679589543962e+01 -7.146902645299e+01 0.0 
0.0 0.0 -3.716271898910e+01 
-1.115365152327e+02 1.622203775845e+01 0.0 
1.622203775845e+01 -2.925741574870e+02 0.0 
0.0 0.0 -1.208332018159e+02 
-8.609281003094e+01 2.648269906938e+01 0.0 
2.648269906938e+01 -1.239946689950e+02 0.0 
0.0 0.0 -6.262624370777e+01 
-5.165615500048e+01 -5.606036085742e+00 0.0 
-5.606036085742e+00 -1.122639640178e+02 0.0 
0.0 0.0 -4.386007278928e+01 
-8.231267074908e+01 -2.185100721402e+00 0.0 
-2.185100721402e+00 -2.272716913443e+02 0.0 
0.0 0.0 -9.614543256768e+01 
-8.688301311127e+01 1.437888303318e+00 0.0 
1.437888303318e+00 -2.382988651315e+02 0.0 
0.0 0.0 -1.024143116243e+02 
-9.165415494164e+01 1.360960647410e+01 0.0 
1.360960647410e+01 -2.457346314573e+02 0.0 
0.0 0.0 -1.051028933050e+02 
-4.936045527737e+01 -9.468766312907e+00 0.0 
-9.468766312907e+00 -1.452011681051e+02 0.0 
0.0 0.0 -5.511138059504e+01 
-7.672025604038e+01 1.163424029683e-01 0.0 
1.163424029683e-01 -2.139702345185e+02 0.0 
0.0 0.0 -8.857505972722e+01 
-9.890573526875e+01 1.558477026946e+01 0.0 
1.558477026946e+01 -2.621704411449e+02 0.0 
0.0 0.0 -1.098286921808e+02 
-7.528284980124e+01 3.810443353594e+01 0.0 
3.810443353594e+01 -1.097198642069e+02 0.0 
0.0 0.0 -5.207300986063e+01 
-9.933572347863e+01 -8.302222080328e+00 0.0 
-8.302222080328e+00 -2.313189125046e+02 0.0 
0.0 0.0 -9.630964157822e+01 
-7.711186133025e+01 1.510365141961e+01 0.0 
1.510365141961e+01 -8.696279245107e+01 0.0 
0.0 0.0 -4.882239613440e+01 
-3.698300644749e+01 -1.619305883886e-01 0.0 
-1.619305883886e-01 -2.093784120795e+01 0.0 
0.0 0.0 -1.697625429663e+01 
-2.634718774889e+01 1.791401995106e+01 0.0 
1.791401995106e+01 -1.946285541559e+01 0.0 
0.0 0.0 -9.694118596502e+00 
-1.121929729445e+02 -6.684724686834e+00 0.0 
-6.684724686834e+00 -2.653993038575e+02 0.0 
0.0 0.0 -1.113269832239e+02 
-1.135935348811e+02 1.070965593986e+01 0.0 
1.070965593986e+01 -3.003280955677e+02 0.0 
0.0 0.0 -1.237764891347e+02 
-1.027732838069e+02 3.779752825095e+01 0.0 
3.779752825095e+01 -2.061331379839e+02 0.0 
0.0 0.0 -9.227192653725e+01 
-8.041323833445e+01 8.241377513313e+00 0.0 
8.241377513313e+00 -2.211939322154e+02 0.0 
0.0 0.0 -9.553915583031e+01 
-1.049786337560e+02 -6.728627233082e+00 0.0 
-6.728627233082e+00 -2.509642737556e+02 0.0 
0.0 0.0 -1.041176544202e+02 
-7.192440242569e+01 1.059669510932e+01 0.0 
1.059669510932e+01 -8.526599460163e+01 0.0 
0.0 0.0 -4.675711910819e+01 
-2.699963554167e+01 1.845409071287e+01 0.0 
1.845409071287e+01 -2.101430941114e+01 0.0 
0.0 0.0 -1.049789433174e+01 
-1.082693569425e+02 1.210833000294e+01 0.0 
1.210833000294e+01 -2.868618220689e+02 0.0 
0.0 0.0 -1.192776153813e+02 
-8.989944419308e+01 9.856565291508e+00 0.0 
9.856565291508e+00 -2.434384026889e+02 0.0 
0.0 0.0 -1.057389810285e+02 
-7.659980347634e+01 3.968553355670e+01 0.0 
3.968553355670e+01 -1.100716719121e+02 0.0 
0.0 0.0 -5.370435863734e+01 
-1.240302819416e+02 -1.169144465175e+00 0.0 
-1.169144465175e+00 -3.150904801129e+02 0.0 
0.0 0.0 -1.313362286164e+02 
-5.916902319510e+01 -2.320418444866e+01 0.0 
-2.320418444866e+01 -1.535329770405e+02 0.0 
0.0 0.0 -6.006093195206e+01 
-1.271537664129e+02 2.552213241204e-01 0.0 
2.552213241204e-01 -3.268741001633e+02 0.0 
0.0 0.0 -1.358083599729e+02 
-1.339026756314e+02 5.510856363141e+00 0.0 
5.510856363141e+00 -3.506429126529e+02 0.0 
0.0 0.0 -1.449636764853e+02 
-1.030627469216e+02 1.332391427033e+01 0.0 
1.332391427033e+01 -2.736356215018e+02 0.0 
0.0 0.0 -1.149783182421e+02 
-7.971939717929e+01 1.292104981666e+01 0.0 
1.292104981666e+01 -1.172682114796e+02 0.0 
0.0 0.0 -5.869628259766e+01 
-1.031983883119e+02 3.233846153807e+01 0.0 
3.233846153807e+01 -2.550465729156e+02 0.0 
0.0 0.0 -1.070734883683e+02 
-1.379709816601e+02 5.451492366534e+00 0.0 
5.451492366534e+00 -3.538971649882e+02 0.0 
0.0 0.0 -1.471604439945e+02 
-2.665964176232e+01 1.828083524160e+01 0.0 
1.828083524160e+01 -2.056605845395e+01 0.0 
0.0 0.0 -1.111427208689e+01 
-7.806848932284e+01 1.417614736857e+01 0.0 
1.417614736857e+01 -9.698934890956e+01 0.0 
0.0 0.0 -5.211735146972e+01 
-1.169401808871e+02 2.903327442924e+01 0.0 
2.903327442924e+01 -2.947311192150e+02 0.0 
0.0 0.0 -1.231013900306e+02 
-7.884576461779e+01 1.327569444675e+01 0.0 
1.327569444675e+01 -1.261294790744e+02 0.0 
0.0 0.0 -6.109257310767e+01 
-9.531795654768e+01 1.140338995043e+01 0.0 
1.140338995043e+01 -2.558365751027e+02 0.0 
0.0 0.0 -1.097551678131e+02 
-7.691241131460e+01 5.164480812008e+00 0.0 
5.164480812008e+00 -2.137700691982e+02 0.0 
0.0 0.0 -8.948339783136e+01 
-1.083994488820e+02 -5.871076930381e+00 0.0 
-5.871076930381e+00 -2.400615865680e+02 0.0 
0.0 0.0 -1.008597418301e+02 
-4.545560679218e+01 5.004387728691e+00 0.0 
5.004387728691e+00 -1.380680689678e+02 0.0 
0.0 0.0 -5.702529051921e+01 
-7.968724896858e+01 1.261099009604e+01 0.0 
1.261099009604e+01 -1.364255186576e+02 0.0 
0.0 0.0 -6.443383028785e+01 
-5.687263676381e+01 -4.880704372712e+00 0.0 
-4.880704372712e+00 -1.207333568981e+02 0.0 
0.0 0.0 -4.732672474685e+01 
-2.679338864358e+01 1.791025285828e+01 0.0 
1.791025285828e+01 -1.929325857938e+01 0.0 
0.0 0.0 -1.097682631828e+01 
-9.915841801130e+01 3.373955016836e+01 0.0 
3.373955016836e+01 -2.420793349626e+02 0.0 
0.0 0.0 -1.019713258922e+02 
-8.175715782968e+01 1.123566440566e+01 0.0 
1.123566440566e+01 -1.583456056446e+02 0.0 
0.0 0.0 -7.163082904229e+01 
-5.652140896962e+01 -2.432812089366e+01 0.0 
-2.432812089366e+01 -1.420159062071e+02 0.0 
0.0 0.0 -5.495716933981e+01 
-8.348472462230e+01 3.908992083921e+01 0.0 
3.908992083921e+01 -1.841209773656e+02 0.0 
0.0 0.0 -7.881017890540e+01 
-7.722447787889e+01 1.452903222294e+01 0.0 
1.452903222294e+01 -1.063932531685e+02 0.0 
0.0 0.0 -5.468531931422e+01 
-1.080890640023e+02 -7.479686700780e+00 0.0 
-7.479686700780e+00 -2.391876643404e+02 0.0 
0.0 0.0 -1.002640955037e+02 
-5.396680393822e+01 -1.787505006152e+01 0.0 
-1.787505006152e+01 -1.482697600592e+02 0.0 
0.0 0.0 -5.724275872167e+01 
-6.726769476948e+01 3.538396735262e+01 0.0 
3.538396735262e+01 -1.445681205622e+02 0.0 
0.0 0.0 -6.201363037424e+01 
-4.768573512100e+01 -2.070467531520e+01 0.0 
-2.070467531520e+01 -9.416015168107e+01 0.0 
0.0 0.0 -3.655003615179e+01 
-4.886471973535e+01 -2.326152371832e+01 0.0 
-2.326152371832e+01 -1.248931976017e+02 0.0 
0.0 0.0 -4.637391381948e+01 
-4.801696608682e+01 -2.372433677970e+01 0.0 
-2.372433677970e+01 -1.160812176436e+02 0.0 
0.0 0.0 -4.179094757063e+01 
-8.789183682294e+01 9.630785484786e+00 0.0 
9.630785484786e+00 -2.386829338695e+02 0.0 
0.0 0.0 -1.040630267702e+02 
-1.059477130983e+02 3.580764286704e+01 0.0 
3.580764286704e+01 -2.282314279323e+02 0.0 
0.0 0.0 -9.985374230918e+01 
-2.633852468500e+01 1.787901915984e+01 0.0 
1.787901915984e+01 -1.935183005419e+01 0.0 
0.0 0.0 -9.507313824568e+00 
-1.390201989664e+02 -3.141267617468e-01 0.0 
-3.141267617468e-01 -3.467975706650e+02 0.0 
0.0 0.0 -1.453453308894e+02 
-6.620349753607e+01 1.121159071793e+01 0.0 
1.121159071793e+01 -1.851879112189e+02 0.0 
0.0 0.0 -7.458037952440e+01 
-8.282418187184e+01 1.978261713426e+01 0.0 
1.978261713426e+01 -1.007280139103e+02 0.0 
0.0 0.0 -5.466565873465e+01 
-4.708668775908e+01 2.372121304948e+00 0.0 
2.372121304948e+00 -1.426965449326e+02 0.0 
0.0 0.0 -5.638740574337e+01 
-1.402694579947e+02 9.278661918419e+00 0.0 
9.278661918419e+00 -3.595840774963e+02 0.0 
0.0 0.0 -1.495560606473e+02 
-5.464376022956e+01 -2.331247137061e+01 0.0 
-2.331247137061e+01 -1.195457541586e+02 0.0 
0.0 0.0 -4.682858648744e+01 
-6.972980798111e+01 -5.164178508732e+00 0.0 
-5.164178508732e+00 -1.418882428339e+02 0.0 
0.0 0.0 -5.719048233103e+01 
-1.057064036233e+02 1.657090843829e+01 0.0 
1.657090843829e+01 -2.781287502737e+02 0.0 
0.0 0.0 -1.158723043209e+02 
-9.138222502688e+01 -1.093870572011e+01 0.0 
-1.093870572011e+01 -2.444411938929e+02 0.0 
0.0 0.0 -1.032915455010e+02 
-1.143103519572e+02 2.643880926101e+01 0.0 
2.643880926101e+01 -2.909692690804e+02 0.0 
0.0 0.0 -1.211838863113e+02 
-6.378611377311e+01 3.642838367929e+01 0.0 
3.642838367929e+01 -1.228608523578e+02 0.0 
0.0 0.0 -5.345756427055e+01 
-9.125250308076e+01 2.867898750085e+01 0.0 
2.867898750085e+01 -1.322233899943e+02 0.0 
0.0 0.0 -6.664276792252e+01 
-1.235056564674e+02 2.329320866037e+01 0.0 
2.329320866037e+01 -3.167764264804e+02 0.0 
0.0 0.0 -1.316846248843e+02 
-7.171101094751e+01 1.068006249921e+01 0.0 
1.068006249921e+01 -9.372822231441e+01 0.0 
0.0 0.0 -4.923176997857e+01 
-1.060818120271e+02 4.092989823254e+01 0.0 
4.092989823254e+01 -2.082088840679e+02 0.0 
0.0 0.0 -9.388720882851e+01 
-8.871013612760e+01 2.121494755804e+01 0.0 
2.121494755804e+01 -1.323287594354e+02 0.0 
0.0 0.0 -6.591166866891e+01 
-9.277043655433e+01 2.525539826250e+01 0.0 
2.525539826250e+01 -1.466409231244e+02 0.0 
0.0 0.0 -7.142340790363e+01 
-5.874790119433e+01 3.028213218790e+01 0.0 
3.028213218790e+01 -1.349495136707e+02 0.0 
0.0 0.0 -5.439248533859e+01 
-1.353126538590e+02 -1.372454799994e+00 0.0 
-1.372454799994e+00 -3.350737915245e+02 0.0 
0.0 0.0 -1.407159336151e+02 
-8.246505786160e+01 1.877064062563e+01 0.0 
1.877064062563e+01 -1.206569460923e+02 0.0 
0.0 0.0 -6.053660118617e+01 
-7.869913946531e+01 1.921093075016e+01 0.0 
1.921093075016e+01 -2.093134822243e+02 0.0 
0.0 0.0 -9.003343390801e+01 
-2.631577119320e+01 1.817062660761e+01 0.0 
1.817062660761e+01 -2.033620521080e+01 0.0 
0.0 0.0 -8.644425839256e+00 
-1.273310024236e+02 2.739032263487e+01 0.0 
2.739032263487e+01 -3.225439012526e+02 0.0 
0.0 0.0 -1.345624711029e+02 
-5.244526929601e+01 9.998239105183e+00 0.0 
9.998239105183e+00 -1.523826254983e+02 0.0 
0.0 0.0 -5.815894542831e+01 
-6.222965808445e+01 -3.035542077055e+00 0.0 
-3.035542077055e+00 -1.339808037045e+02 0.0 
0.0 0.0 -5.314421568911e+01 
-1.109508581487e+02 2.272957127559e+01 0.0 
2.272957127559e+01 -2.862157723782e+02 0.0 
0.0 0.0 -1.187499891581e+02 
-2.024940325966e+01 9.988407954682e-01 0.0 
9.988407954682e-01 -7.847077434967e+01 0.0 
0.0 0.0 -2.877914499679e+01 
-7.577333739306e+01 3.077404924922e+01 0.0 
3.077404924922e+01 -1.840529385951e+02 0.0 
0.0 0.0 -7.730789255661e+01 
-1.108057457430e+02 1.527778445624e+01 0.0 
1.527778445624e+01 -2.913600498453e+02 0.0 
0.0 0.0 -1.204483975597e+02 
-9.586371876162e+01 2.741414872788e+01 0.0 
2.741414872788e+01 -1.685817760561e+02 0.0 
0.0 0.0 -7.893364844532e+01 
-9.954743404852e+01 3.161897080341e+01 0.0 
3.161897080341e+01 -1.847868098979e+02 0.0 
0.0 0.0 -8.490027318393e+01 
-1.062717470025e+02 1.750629278771e+01 0.0 
1.750629278771e+01 -2.788744838390e+02 0.0 
0.0 0.0 -1.151438692524e+02 
-8.888631972642e+01 2.002469394391e+01 0.0 
2.002469394391e+01 -1.416426210032e+02 0.0 
0.0 0.0 -6.875868221888e+01 
-7.061131073013e+01 1.621662197586e+01 0.0 
1.621662197586e+01 -1.920882222651e+02 0.0 
0.0 0.0 -7.916515189594e+01 
-1.002693332205e+02 3.930004249415e+01 0.0 
3.930004249415e+01 -2.341413567861e+02 0.0 
0.0 0.0 -9.992320700196e+01 
-2.755702326660e+01 1.842442401755e+01 0.0 
1.842442401755e+01 -2.068493582354e+01 0.0 
0.0 0.0 -1.078280953552e+01 
-1.080118536914e+02 4.364124193527e+01 0.0 
4.364124193527e+01 -2.357963974137e+02 0.0 
0.0 0.0 -1.027424753315e+02 
-3.337613302819e+01 1.942685041002e+01 0.0 
1.942685041002e+01 -2.209408604009e+01 0.0 
0.0 0.0 -1.429953045332e+01 
-4.198336266461e+01 2.044727512589e+01 0.0 
2.044727512589e+01 -2.386428102477e+01 0.0 
0.0 0.0 -1.822193790486e+01 
-7.685768511472e+01 1.099402984921e+01 0.0 
1.099402984921e+01 -2.112642303686e+02 0.0 
0.0 0.0 -9.038157054947e+01 
-6.602118186436e+01 2.091877054768e+01 0.0 
2.091877054768e+01 -2.819486935101e+01 0.0 
0.0 0.0 -2.719081850747e+01 
-8.161493060839e+01 2.518573950496e+01 0.0 
2.518573950496e+01 -2.094558805911e+02 0.0 
0.0 0.0 -8.739066534593e+01 
-6.808832380592e+01 2.436469300144e+01 0.0 
2.436469300144e+01 -1.753388054463e+02 0.0 
0.0 0.0 -7.362954420587e+01 
-8.275117801602e+01 2.791376211610e+00 0.0 
2.791376211610e+00 -2.282534117247e+02 0.0 
0.0 0.0 -9.732369360233e+01 
-4.702320736434e+01 -1.701462846747e+01 0.0 
-1.701462846747e+01 -1.315405204265e+02 0.0 
0.0 0.0 -4.959235033206e+01 
-7.317388035970e+01 6.781304365675e+00 0.0 
6.781304365675e+00 -2.042759429672e+02 0.0 
0.0 0.0 -8.566767214393e+01 
-8.356810640854e+01 1.601185204300e+01 0.0 
1.601185204300e+01 -1.484432564183e+02 0.0 
0.0 0.0 -6.920340884804e+01 
-1.061628868418e+02 4.160320152824e+01 0.0 
4.160320152824e+01 -2.231150402126e+02 0.0 
0.0 0.0 -9.838337811633e+01 
-1.269277655711e+02 -2.503256337652e+00 0.0 
-2.503256337652e+00 -3.158738963681e+02 0.0 
0.0 0.0 -1.324404985818e+02 
-1.185277376149e+02 2.431915315036e+01 0.0 
2.431915315036e+01 -3.035621120730e+02 0.0 
0.0 0.0 -1.262269549064e+02 
-8.531039137293e+01 -6.882818688869e+00 0.0 
-6.882818688869e+00 -2.334892824965e+02 0.0 
0.0 0.0 -9.802461881972e+01 
-8.735131152239e+01 2.174468450681e+01 0.0 
2.174468450681e+01 -1.437288879976e+02 0.0 
0.0 0.0 -6.892405985601e+01 
-7.708447078630e+01 4.248261478820e+00 0.0 
4.248261478820e+00 -2.143978696183e+02 0.0 
0.0 0.0 -9.135100423859e+01 
-1.403282247548e+02 -1.090798217063e+00 0.0 
-1.090798217063e+00 -3.424883703071e+02 0.0 
0.0 0.0 -1.444449785186e+02 
-8.279704927727e+01 1.777349179621e+01 0.0 
1.777349179621e+01 -1.292320312441e+02 0.0 
0.0 0.0 -6.320872415642e+01 
-9.223718971875e+01 2.687287662452e+01 0.0 
2.687287662452e+01 -1.390416696762e+02 0.0 
0.0 0.0 -6.898365781849e+01 
-1.004221353044e+02 9.964540512640e+00 0.0 
9.964540512640e+00 -2.688211171387e+02 0.0 
0.0 0.0 -1.138099706344e+02 
-7.110026857903e+01 1.059690892109e+01 0.0 
1.059690892109e+01 -1.974929733929e+02 0.0 
0.0 0.0 -8.175823480918e+01 
-1.052759276206e+02 3.838946431024e+01 0.0 
3.838946431024e+01 -2.499942782604e+02 0.0 
0.0 0.0 -1.061810617643e+02 
-8.769680010440e+01 4.034654631433e+01 0.0 
4.034654631433e+01 -1.693103416429e+02 0.0 
0.0 0.0 -7.647037932805e+01 
-5.488383804598e+01 -2.324010478705e+01 0.0 
-2.324010478705e+01 -1.418068320922e+02 0.0 
0.0 0.0 -5.507571968690e+01 
-4.965520463145e+01 -2.066032985929e+00 0.0 
-2.066032985929e+00 -1.489107610572e+02 0.0 
0.0 0.0 -5.589438016902e+01 
-7.084822863562e+01 3.802024395172e+01 0.0 
3.802024395172e+01 -1.450128645991e+02 0.0 
0.0 0.0 -6.434945212590e+01 
-8.578864211575e+01 4.046428229264e+01 0.0 
4.046428229264e+01 -1.842080860475e+02 0.0 
0.0 0.0 -7.793699553980e+01 
-1.452568992003e+02 -8.732389329151e-01 0.0 
-8.732389329151e-01 -3.501557042074e+02 0.0 
0.0 0.0 -1.482237810223e+02 
-8.816753971898e+01 2.266670773001e+01 0.0 
2.266670773001e+01 -1.237465653299e+02 0.0 
0.0 0.0 -6.317423151467e+01 
-7.012510163096e+01 7.314825192731e+00 0.0 
7.314825192731e+00 -1.967209219337e+02 0.0 
0.0 0.0 -8.075832245592e+01 
-9.145900616064e+01 4.128531880869e+01 0.0 
4.128531880869e+01 -2.030586329935e+02 0.0 
0.0 0.0 -8.795529174623e+01 
-1.159056122458e+02 1.420660367212e+01 0.0 
1.420660367212e+01 -3.043344056491e+02 0.0 
0.0 0.0 -1.256720053685e+02 
-8.491204915422e+01 1.544428544798e+01 0.0 
1.544428544798e+01 -1.391452279700e+02 0.0 
0.0 0.0 -6.681718313728e+01 
-1.083978342409e+02 4.055132985615e+01 0.0 
4.055132985615e+01 -2.541969760480e+02 0.0 
0.0 0.0 -1.083784430867e+02 
-7.545836687389e+01 1.665312877254e+01 0.0 
1.665312877254e+01 -8.894742981160e+01 0.0 
0.0 0.0 -4.892173900565e+01 
-1.238591804685e+02 7.940041279879e+00 0.0 
7.940041279879e+00 -3.259717078020e+02 0.0 
0.0 0.0 -1.345492664812e+02 
-8.326099861223e+01 7.326739776369e+00 0.0 
7.326739776369e+00 -2.284043846957e+02 0.0 
0.0 0.0 -9.805977423746e+01 
-1.167295983026e+02 1.465573370168e+01 0.0 
1.465573370168e+01 -3.060984729299e+02 0.0 
0.0 0.0 -1.264484213698e+02 
-8.321215449308e+01 3.544395602807e+01 0.0 
3.544395602807e+01 -1.944129528511e+02 0.0 
0.0 0.0 -8.354874278874e+01 
-9.256468707866e+01 2.242300686007e+01 0.0 
2.242300686007e+01 -1.638398432169e+02 0.0 
0.0 0.0 -7.652135908867e+01 
-1.120582611871e+02 4.261215783445e+01 0.0 
4.261215783445e+01 -2.599976839069e+02 0.0 
0.0 0.0 -1.112167835282e+02 
-9.258895610831e+01 7.957224254179e+00 0.0 
7.957224254179e+00 -2.506728443897e+02 0.0 
0.0 0.0 -1.085847931142e+02 
-4.928284512120e+01 5.292972950048e-01 0.0 
5.292972950048e-01 -1.481541388731e+02 0.0 
0.0 0.0 -5.679017592258e+01 
-1.079815649861e+02 3.078770474748e+01 0.0 
3.078770474748e+01 -2.697037965365e+02 0.0 
0.0 0.0 -1.129056084568e+02 
-7.989501478489e+01 2.916398545002e+01 0.0 
2.916398545002e+01 -1.985395301889e+02 0.0 
0.0 0.0 -8.301044810700e+01 
-6.415826287817e+01 1.075965124044e+01 0.0 
1.075965124044e+01 -1.804878259583e+02 0.0 
0.0 0.0 -7.276406183472e+01 
-9.704993365825e+01 1.194948447396e+01 0.0 
1.194948447396e+01 -2.597635468047e+02 0.0 
0.0 0.0 -1.103106825785e+02 
-1.243711114838e+02 4.404244953121e+00 0.0 
4.404244953121e+00 -3.279342881169e+02 0.0 
0.0 0.0 -1.352916198802e+02 
-4.911225489142e+01 -1.125550970543e+01 0.0 
-1.125550970543e+01 -1.432444723663e+02 0.0 
0.0 0.0 -5.482068074228e+01 
-8.482459017933e+01 5.918047813970e+00 0.0 
5.918047813970e+00 -2.326041444909e+02 0.0 
0.0 0.0 -1.008229866384e+02 
-8.846710806962e+01 3.755109409318e+01 0.0 
3.755109409318e+01 -1.530475054650e+02 0.0 
0.0 0.0 -7.205438406039e+01 
-1.468612760304e+02 7.273918006023e-01 0.0 
7.273918006023e-01 -3.511575512603e+02 0.0 
0.0 0.0 -1.490056481872e+02 
-9.167597792820e+01 3.939825715538e+01 0.0 
3.939825715538e+01 -1.720988829488e+02 0.0 
0.0 0.0 -7.873245826309e+01 
-1.041700350513e+02 3.268632256040e+01 0.0 
3.268632256040e+01 -2.570542633155e+02 0.0 
0.0 0.0 -1.079672895100e+02 
-8.528347766454e+01 3.539644632343e+01 0.0 
3.539644632343e+01 -1.336179383825e+02 0.0 
0.0 0.0 -6.527042481410e+01 
-7.757466090909e+01 2.868955679021e+01 0.0 
2.868955679021e+01 -9.239010444032e+01 0.0 
0.0 0.0 -5.058942960482e+01 
-9.053725339719e+01 4.111237582701e+01 0.0 
4.111237582701e+01 -1.880383773289e+02 0.0 
0.0 0.0 -8.316399499460e+01 
-1.158565029092e+02 2.150918305953e+01 0.0 
2.150918305953e+01 -2.993838542028e+02 0.0 
0.0 0.0 -1.241721071336e+02 
-1.331393733256e+02 -3.641143971609e-01 0.0 
-3.641143971609e-01 -3.292667676202e+02 0.0 
0.0 0.0 -1.383218422837e+02 
-8.195868115207e+01 2.014547793469e+01 0.0 
2.014547793469e+01 -1.128684751686e+02 0.0 
0.0 0.0 -5.804814689620e+01 
-9.523786062073e+01 2.860719200276e+01 0.0 
2.860719200276e+01 -1.824133133211e+02 0.0 
0.0 0.0 -8.289535218254e+01 
-8.198049650778e+01 3.262317753297e+01 0.0 
3.262317753297e+01 -1.136034545889e+02 0.0 
0.0 0.0 -5.827518532900e+01 
-5.788703845440e+01 5.121267631233e+00 0.0 
5.121267631233e+00 -1.679925819400e+02 0.0 
0.0 0.0 -6.472942733677e+01 
-1.105172630010e+02 3.322552180162e+01 0.0 
3.322552180162e+01 -2.728090345183e+02 0.0 
0.0 0.0 -1.145978892558e+02 
-8.916107583715e+01 1.792541401057e+01 0.0 
1.792541401057e+01 -1.612917566984e+02 0.0 
0.0 0.0 -7.473584976065e+01 
-8.105045618931e+01 2.802842237462e+01 0.0 
2.802842237462e+01 -2.036057736014e+02 0.0 
0.0 0.0 -8.764297802629e+01 
-8.412868025640e+01 3.125525030967e+01 0.0 
3.125525030967e+01 -2.061069956749e+02 0.0 
0.0 0.0 -8.842665794043e+01 
-6.341874667493e+01 5.620238855830e+00 0.0 
5.620238855830e+00 -1.811581233183e+02 0.0 
0.0 0.0 -7.153889370335e+01 
-8.671310057011e+01 2.461018962909e+01 0.0 
2.461018962909e+01 -1.295223696178e+02 0.0 
0.0 0.0 -6.447064105637e+01 
-7.053164514045e+01 3.960911483345e+01 0.0 
3.960911483345e+01 -1.285903648381e+02 0.0 
0.0 0.0 -5.671975808685e+01 
-8.883409587415e+01 2.495080296035e+01 0.0 
2.495080296035e+01 -2.283130350716e+02 0.0 
0.0 0.0 -9.742407732729e+01 
-6.985701442114e+01 3.841004128518e+01 0.0 
3.841004128518e+01 -1.288424357486e+02 0.0 
0.0 0.0 -5.575188687626e+01 
-1.082874121977e+02 1.976039449389e+01 0.0 
1.976039449389e+01 -2.821457886369e+02 0.0 
0.0 0.0 -1.167299602504e+02 
-1.180516963091e+02 3.430916003259e+01 0.0 
3.430916003259e+01 -2.907907964702e+02 0.0 
0.0 0.0 -1.222527478338e+02 
-7.004814181045e+01 2.336436021420e+00 0.0 
2.336436021420e+00 -1.978228051751e+02 0.0 
0.0 0.0 -8.000186736399e+01 
-4.299545706054e+01 -8.270278705135e+00 0.0 
-8.270278705135e+00 -1.304493324325e+02 0.0 
0.0 0.0 -5.346632901882e+01 
-9.877141351084e+01 3.374477431181e+01 0.0 
3.374477431181e+01 -1.931144097442e+02 0.0 
0.0 0.0 -8.716574697652e+01 
-7.353037205552e+01 3.960096419047e+01 0.0 
3.960096419047e+01 -1.288221832605e+02 0.0 
0.0 0.0 -5.667214916995e+01 
-8.526426834006e+01 -2.261391990309e+00 0.0 
-2.261391990309e+00 -2.343462655991e+02 0.0 
0.0 0.0 -9.954292820050e+01 
-1.148558443057e+02 3.140549716317e+01 0.0 
3.140549716317e+01 -2.865238928739e+02 0.0 
0.0 0.0 -1.200139211539e+02 
-8.735312225005e+01 2.439604838513e+01 0.0 
2.439604838513e+01 -1.158876703677e+02 0.0 
0.0 0.0 -6.057223778534e+01 
-1.285333645785e+02 -8.169849150572e-01 0.0 
-8.169849150572e-01 -3.220725077099e+02 0.0 
0.0 0.0 -1.347817616865e+02 
-6.413804645309e+01 2.076524901352e+01 0.0 
2.076524901352e+01 -1.705046908142e+02 0.0 
0.0 0.0 -7.025606040330e+01 
-4.268887868713e+01 -5.160740675912e+00 0.0 
-5.160740675912e+00 -1.313309292626e+02 0.0 
0.0 0.0 -5.497303803046e+01 
-1.513555109022e+02 9.058010252717e-01 0.0 
9.058010252717e-01 -3.598297212443e+02 0.0 
0.0 0.0 -1.529555696439e+02 
-8.803068276471e+01 3.889014561079e+01 0.0 
3.889014561079e+01 -1.995648246759e+02 0.0 
0.0 0.0 -8.385564912460e+01 
-9.886526467721e+01 2.335943486067e+01 0.0 
2.335943486067e+01 -2.554968754868e+02 0.0 
0.0 0.0 -1.059086420492e+02 
-1.105846583801e+02 3.714934640661e+01 0.0 
3.714934640661e+01 -2.666780861083e+02 0.0 
0.0 0.0 -1.127788233465e+02 
-4.398171485744e+01 -1.422688799097e+00 0.0 
-1.422688799097e+00 -1.353741145741e+02 0.0 
0.0 0.0 -5.566022305417e+01 
-1.255942908737e+02 -1.917112840663e+00 0.0 
-1.917112840663e+00 -3.205835491225e+02 0.0 
0.0 0.0 -1.334533519989e+02 
-5.397586507875e+01 2.783020621744e+01 0.0 
2.783020621744e+01 -1.277396702484e+02 0.0 
0.0 0.0 -5.003612740154e+01 
-8.224575987655e+01 2.145219784773e+01 0.0 
2.145219784773e+01 -9.261428179105e+01 0.0 
0.0 0.0 -5.205801250028e+01 
-1.139419454440e+02 -6.063148642867e+00 0.0 
-6.063148642867e+00 -2.589565428790e+02 0.0 
0.0 0.0 -1.079861616812e+02 
-6.694613934157e+01 5.774584180631e+00 0.0 
5.774584180631e+00 -1.896061573822e+02 0.0 
0.0 0.0 -7.681076418153e+01 
-1.423216319508e+02 4.399070229312e-01 0.0 
4.399070229312e-01 -3.436710506235e+02 0.0 
0.0 0.0 -1.453978047723e+02 
-8.822226122870e+01 2.950388483457e+01 0.0 
2.950388483457e+01 -2.201565647032e+02 0.0 
0.0 0.0 -9.376578166419e+01 
-6.187082800005e+01 5.654321210474e+00 0.0 
5.654321210474e+00 -1.774171098182e+02 0.0 
0.0 0.0 -7.024591225598e+01 
-8.770977730804e+01 3.847775328331e+01 0.0 
3.847775328331e+01 -1.997436816464e+02 0.0 
0.0 0.0 -8.583603768633e+01 
-4.144705882225e+01 -1.775061370868e+01 0.0 
-1.775061370868e+01 -1.156889893982e+02 0.0 
0.0 0.0 -4.895017989266e+01 
-9.663209020665e+01 3.656338295473e+01 0.0 
3.656338295473e+01 -2.298700466007e+02 0.0 
0.0 0.0 -9.755064104221e+01 
-1.087044687467e+02 2.070503568252e+01 0.0 
2.070503568252e+01 -2.824113247817e+02 0.0 
0.0 0.0 -1.169347380585e+02 
-1.145717581100e+02 4.447546271434e+01 0.0 
4.447546271434e+01 -2.629107819066e+02 0.0 
0.0 0.0 -1.128447620050e+02 
-1.022004602525e+02 3.596543065028e+01 0.0 
3.596543065028e+01 -2.462659850376e+02 0.0 
0.0 0.0 -1.041399335870e+02 
-5.302448928254e+01 -2.621468092882e+00 0.0 
-2.621468092882e+00 -1.569131936035e+02 0.0 
0.0 0.0 -5.897219355052e+01 
-1.292480620106e+02 -9.903380833256e-01 0.0 
-9.903380833256e-01 -3.171975612626e+02 0.0 
0.0 0.0 -1.335336869820e+02 
-8.743401920494e+01 1.862428702133e+01 0.0 
1.862428702133e+01 -1.705829433973e+02 0.0 
0.0 0.0 -7.700508878067e+01 
-1.323298609709e+02 2.991529217818e+01 0.0 
2.991529217818e+01 -3.257097954335e+02 0.0 
0.0 0.0 -1.370118969213e+02 
-1.114353756441e+02 2.372503545742e+01 0.0 
2.372503545742e+01 -2.864992306532e+02 0.0 
0.0 0.0 -1.189803818892e+02 
-6.600386145747e+01 1.523893723775e+01 0.0 
1.523893723775e+01 -1.815528242896e+02 0.0 
0.0 0.0 -7.501817922241e+01 
-9.243896700794e+01 3.795328941645e+01 0.0 
3.795328941645e+01 -2.149519159387e+02 0.0 
0.0 0.0 -9.181726488400e+01 
-1.451013813687e+02 -1.072357072402e+00 0.0 
-1.072357072402e+00 -3.458207136242e+02 0.0 
0.0 0.0 -1.468766284978e+02 
-1.106919523109e+02 -1.167157641286e+00 0.0 
-1.167157641286e+00 -2.325868447790e+02 0.0 
0.0 0.0 -9.859363128493e+01 
-1.012156725923e+02 3.466159321859e+01 0.0 
3.466159321859e+01 -2.459697015771e+02 0.0 
0.0 0.0 -1.037556122508e+02 
-7.640374551802e+01 1.541381738374e+01 0.0 
1.541381738374e+01 -9.728358292045e+01 0.0 
0.0 0.0 -5.170619853154e+01 
-1.377414981929e+02 7.353704158196e-02 0.0 
7.353704158196e-02 -3.364208637015e+02 0.0 
0.0 0.0 -1.418487085683e+02 
-1.319301823791e+02 3.334241646202e-01 0.0 
3.334241646202e-01 -3.338028372511e+02 0.0 
0.0 0.0 -1.393199058890e+02 
-2.954606368592e+01 8.265990080217e-02 0.0 
8.265990080217e-02 -8.297309559657e+00 0.0 
0.0 0.0 -1.095301197367e+01 
-2.940255079657e+01 8.013111756222e-03 0.0 
8.013111756222e-03 -8.286988272077e+00 0.0 
0.0 0.0 -1.090686172059e+01 
-9.253309162641e+01 3.965921683903e+01 0.0 
3.965921683903e+01 -1.567383710314e+02 0.0 
0.0 0.0 -7.438143879733e+01 
-9.676071080564e+01 3.600442341962e+01 0.0 
3.600442341962e+01 -2.313637175125e+02 0.0 
0.0 0.0 -9.803732849545e+01 
-1.171707123240e+02 -4.853696450824e+00 0.0 
-4.853696450824e+00 -2.659557854235e+02 0.0 
0.0 0.0 -1.115751810067e+02 
-9.444082596919e+01 4.331876323437e+01 0.0 
4.331876323437e+01 -1.902731449137e+02 0.0 
0.0 0.0 -8.501419126486e+01 
-8.496502011343e+01 2.640723737479e+01 0.0 
2.640723737479e+01 -2.163871820694e+02 0.0 
0.0 0.0 -9.285461642062e+01 
-1.280839975118e+02 1.466948072510e+01 0.0 
1.466948072510e+01 -3.336229553739e+02 0.0 
0.0 0.0 -1.381120858657e+02 
-7.443883728213e+01 2.061899312155e+01 0.0 
2.061899312155e+01 -1.970287274294e+02 0.0 
0.0 0.0 -8.336351238565e+01 
-1.018146180470e+02 3.219798218633e+01 0.0 
3.219798218633e+01 -2.208327530747e+02 0.0 
0.0 0.0 -9.639421133652e+01 
-7.372532148069e+01 2.692353170896e+01 0.0 
2.692353170896e+01 -6.921167967376e+01 0.0 
0.0 0.0 -4.248110034634e+01 
-7.624940146682e+01 2.595132152020e+01 0.0 
2.595132152020e+01 -1.943110265025e+02 0.0 
0.0 0.0 -8.176427718042e+01 
-1.085972959680e+02 -6.126691287178e+00 0.0 
-6.126691287178e+00 -2.578019868466e+02 0.0 
0.0 0.0 -1.076386955572e+02 
-5.061299716151e+01 7.541579544988e+00 0.0 
7.541579544988e+00 -1.494088875407e+02 0.0 
0.0 0.0 -5.526313301311e+01 
-1.042446439892e+02 -9.065990132034e+00 0.0 
-9.065990132034e+00 -2.326079528481e+02 0.0 
0.0 0.0 -9.848460671229e+01 
-9.236228740882e+01 3.754952512176e+01 0.0 
3.754952512176e+01 -2.156912759369e+02 0.0 
0.0 0.0 -9.131880223435e+01 
-8.763283698544e+01 4.091588702504e+01 0.0 
4.091588702504e+01 -1.857085763038e+02 0.0 
0.0 0.0 -7.995985143596e+01 
-8.133050153568e+01 2.186871280428e+01 0.0 
2.186871280428e+01 -1.059930237885e+02 0.0 
0.0 0.0 -5.579705759724e+01 
-9.643621776646e+01 4.225018951493e+01 0.0 
4.225018951493e+01 -2.078774160559e+02 0.0 
0.0 0.0 -9.089409014671e+01 
-1.005056737723e+02 4.446925931123e+01 0.0 
4.446925931123e+01 -2.104341880276e+02 0.0 
0.0 0.0 -9.288195853995e+01 
-1.188498172161e+01 6.928734499160e-01 0.0 
6.928734499160e-01 -5.843244281745e+01 0.0 
0.0 0.0 -1.936758779460e+01 
-9.707726847926e+01 -8.736341390270e+00 0.0 
-8.736341390270e+00 -2.182063899661e+02 0.0 
0.0 0.0 -9.063618331622e+01 
-7.231514175499e+01 3.916190772458e+01 0.0 
3.916190772458e+01 -1.289839343450e+02 0.0 
0.0 0.0 -5.564913684869e+01 
-8.949051304864e+01 3.989996176239e+01 0.0 
3.989996176239e+01 -1.704626654229e+02 0.0 
0.0 0.0 -7.758595354147e+01 
-9.342516034239e+01 4.204851914533e+01 0.0 
4.204851914533e+01 -1.735898721857e+02 0.0 
0.0 0.0 -7.970450975842e+01 
-1.207776602466e+02 2.025009798456e+01 0.0 
2.025009798456e+01 -3.124479788187e+02 0.0 
0.0 0.0 -1.295676917196e+02 
-2.904633360664e+01 -1.578473800631e+00 0.0 
-1.578473800631e+00 -8.822054646560e+01 0.0 
0.0 0.0 -3.295693034870e+01 
-4.910105359234e+01 -1.885371201412e+01 0.0 
-1.885371201412e+01 -1.341626501184e+02 0.0 
0.0 0.0 -5.184026336098e+01 
-8.570601126794e+01 3.729543728156e+01 0.0 
3.729543728156e+01 -1.969676550314e+02 0.0 
0.0 0.0 -8.382888220587e+01 
-1.012199902376e+02 -8.786667282035e+00 0.0 
-8.786667282035e+00 -2.190846788392e+02 0.0 
0.0 0.0 -9.249705979848e+01 
-3.168078706483e+01 1.815170113281e+01 0.0 
1.815170113281e+01 -1.895503499295e+01 0.0 
0.0 0.0 -1.312417075175e+01 
-3.320193297846e+01 1.636293214374e+01 0.0 
1.636293214374e+01 -1.497716063827e+01 0.0 
0.0 0.0 -1.309232989941e+01 
-8.619292337344e+01 2.642018150294e+01 0.0 
2.642018150294e+01 -1.088268979286e+02 0.0 
0.0 0.0 -5.810594639060e+01 
-4.308278074591e+01 2.554679058395e+01 0.0 
2.554679058395e+01 -1.000734663843e+02 0.0 
0.0 0.0 -3.658024733785e+01 
-1.070505064367e+02 -6.627174728392e+00 0.0 
-6.627174728392e+00 -2.452813535938e+02 0.0 
0.0 0.0 -1.024680219367e+02 
-1.148577152808e+02 1.107214952963e+01 0.0 
1.107214952963e+01 -3.032366934170e+02 0.0 
0.0 0.0 -1.250283226093e+02 
-4.683178739184e+01 -8.980369729675e+00 0.0 
-8.980369729675e+00 -1.393500950921e+02 0.0 
0.0 0.0 -5.422720470514e+01 
-1.255367022768e+02 3.819826398250e+01 0.0 
3.819826398250e+01 -3.038386888862e+02 0.0 
0.0 0.0 -1.284126173489e+02 
-9.248307703520e+01 2.360999505806e+01 0.0 
2.360999505806e+01 -1.544348622996e+02 0.0 
0.0 0.0 -7.367538180043e+01 
-1.085228200713e+02 -5.806429692075e+00 0.0 
-5.806429692075e+00 -2.333514768502e+02 0.0 
0.0 0.0 -9.737049357718e+01 
-1.315890206836e+02 -2.062354045033e+00 0.0 
-2.062354045033e+00 -3.232619567491e+02 0.0 
0.0 0.0 -1.360552932298e+02 
-4.811601150405e+00 -3.144672524468e-01 0.0 
-3.144672524468e-01 -4.149329226369e+01 0.0 
0.0 0.0 -1.176411616861e+01 
-1.131789618429e+02 7.177312025861e+00 0.0 
7.177312025861e+00 -3.004810408817e+02 0.0 
0.0 0.0 -1.243847931521e+02 
-8.358463731407e+01 3.599416182447e+01 0.0 
3.599416182447e+01 -1.941107647463e+02 0.0 
0.0 0.0 -8.255951076198e+01 
-5.088295214384e+00 -1.829239005405e-03 0.0 
-1.829239005405e-03 -4.216608534399e+01 0.0 
0.0 0.0 -1.185755878290e+01 
-8.721938863902e+01 2.066881362078e+01 0.0 
2.066881362078e+01 -1.518130901926e+02 0.0 
0.0 0.0 -7.130974364948e+01 
-4.572593016199e+01 -1.046109870145e+01 0.0 
-1.046109870145e+01 -1.355469078123e+02 0.0 
0.0 0.0 -5.348444543871e+01 
-9.074672331521e+01 4.226920075010e+01 0.0 
4.226920075010e+01 -1.715134350691e+02 0.0 
0.0 0.0 -7.827804751528e+01 
-8.619149130781e+01 4.103909772419e+01 0.0 
4.103909772419e+01 -1.863802900799e+02 0.0 
0.0 0.0 -8.105422311449e+01 
-8.791649960444e+01 -4.493311775399e+00 0.0 
-4.493311775399e+00 -2.403743525710e+02 0.0 
0.0 0.0 -1.020992349339e+02 
-1.040505227569e+02 -2.159093185045e+00 0.0 
-2.159093185045e+00 -2.794300744123e+02 0.0 
0.0 0.0 -1.159467697360e+02 
-9.115829287044e+01 2.455683382755e+01 0.0 
2.455683382755e+01 -1.663175407805e+02 0.0 
0.0 0.0 -7.684275009529e+01 
-1.109392476394e+02 -5.945916962399e-01 0.0 
-5.945916962399e-01 -2.960360494229e+02 0.0 
0.0 0.0 -1.216925891187e+02 
-8.723618688834e+01 3.381650914730e+01 0.0 
3.381650914730e+01 -2.095310835487e+02 0.0 
0.0 0.0 -8.919865920202e+01 
-7.954315072602e+01 3.364896793030e+01 0.0 
3.364896793030e+01 -1.881949377255e+02 0.0 
0.0 0.0 -7.867374465965e+01 
-2.526870789304e+01 1.744816646401e+01 0.0 
1.744816646401e+01 -1.833986160601e+01 0.0 
0.0 0.0 -9.815579977536e+00 
-4.420268964198e+01 -7.987498695963e+00 0.0 
-7.987498695963e+00 -1.335723207342e+02 0.0 
0.0 0.0 -5.369163164336e+01 
-1.064611064589e+02 3.472640773964e+01 0.0 
3.472640773964e+01 -2.598249839005e+02 0.0 
0.0 0.0 -1.094858271078e+02 
-8.287651978930e+01 3.132753969492e+01 0.0 
3.132753969492e+01 -9.783579191394e+01 0.0 
0.0 0.0 -5.381369351097e+01 
-1.107285893619e+02 3.330770123500e+01 0.0 
3.330770123500e+01 -2.732375593072e+02 0.0 
0.0 0.0 -1.147898446007e+02 
-6.542652941193e+01 3.361696176523e+01 0.0 
3.361696176523e+01 -1.451347633112e+02 0.0 
0.0 0.0 -6.066459029740e+01 
-9.699674749031e+01 3.682271929065e+01 0.0 
3.682271929065e+01 -1.804018805632e+02 0.0 
0.0 0.0 -8.281958841604e+01 
-1.093818688796e+02 3.681602292545e+01 0.0 
3.681602292545e+01 -2.640440555400e+02 0.0 
0.0 0.0 -1.116277773259e+02 
-8.405657279282e+01 3.359475058459e+01 0.0 
3.359475058459e+01 -5.298682395492e+01 0.0 
0.0 0.0 -3.993669460415e+01 
-1.074755745826e+02 3.487689207534e+01 0.0 
3.487689207534e+01 -2.622619122936e+02 0.0 
0.0 0.0 -1.105212460629e+02 
-1.335948439885e+02 -4.564276814448e-01 0.0 
-4.564276814448e-01 -3.244751883824e+02 0.0 
0.0 0.0 -1.370210097113e+02 
-9.354876741393e+01 3.357836569655e+01 0.0 
3.357836569655e+01 -2.272912021465e+02 0.0 
0.0 0.0 -9.579863004879e+01 
-1.033862240745e+02 -7.430127128465e+00 0.0 
-7.430127128465e+00 -2.381866541633e+02 0.0 
0.0 0.0 -9.877328749232e+01 
-1.104690205894e+02 -7.359313813502e+00 0.0 
-7.359313813502e+00 -2.523039941400e+02 0.0 
0.0 0.0 -1.058832747581e+02 
-1.040985294306e+02 3.726481854576e+01 0.0 
3.726481854576e+01 -1.968383864189e+02 0.0 
0.0 0.0 -8.988107475485e+01 
-9.797347371036e+01 -3.754361188603e+00 0.0 
-3.754361188603e+00 -2.627402045904e+02 0.0 
0.0 0.0 -1.103571895090e+02 
-9.051937105842e+01 4.055579605129e+01 0.0 
4.055579605129e+01 -2.023440924198e+02 0.0 
0.0 0.0 -8.623215696229e+01 
-8.343864490919e+01 1.890376528121e+01 0.0 
1.890376528121e+01 -2.214434009036e+02 0.0 
0.0 0.0 -9.559317155730e+01 
-1.185016551690e+02 1.472093657963e+00 0.0 
1.472093657963e+00 -3.141428295804e+02 0.0 
0.0 0.0 -1.293933454248e+02 
-7.242565031948e+01 2.254534081226e+01 0.0 
2.254534081226e+01 -1.894159871562e+02 0.0 
0.0 0.0 -7.991248000847e+01 
-5.477317386015e+01 -1.134499093660e+00 0.0 
-1.134499093660e+00 -1.612908960428e+02 0.0 
0.0 0.0 -6.148872726853e+01 
-8.978999049479e+01 4.453062699079e+00 0.0 
4.453062699079e+00 -2.448833007879e+02 0.0 
0.0 0.0 -1.063212561638e+02 
-5.803024815718e+01 6.368543923890e+00 0.0 
6.368543923890e+00 -1.678934143230e+02 0.0 
0.0 0.0 -6.489244981777e+01 
-9.280255291987e+01 4.119329482763e+01 0.0 
4.119329482763e+01 -1.891439374128e+02 0.0 
0.0 0.0 -8.418394709981e+01 
-5.767823307269e+01 -1.951597981338e+00 0.0 
-1.951597981338e+00 -1.681824498122e+02 0.0 
0.0 0.0 -6.441565726020e+01 
-9.181402044004e+01 4.321419193476e+01 0.0 
4.321419193476e+01 -1.889998600803e+02 0.0 
0.0 0.0 -8.384416415611e+01 
-1.163454416852e+02 2.249438350505e+01 0.0 
2.249438350505e+01 -2.997709277484e+02 0.0 
0.0 0.0 -1.244349108301e+02 
-1.133471907680e+02 1.839521027073e+01 0.0 
1.839521027073e+01 -2.955700503810e+02 0.0 
0.0 0.0 -1.222751723447e+02 
-7.785493418458e+01 2.443514285511e+01 0.0 
2.443514285511e+01 -2.007917285253e+02 0.0 
0.0 0.0 -8.636436698219e+01 
-8.048898015403e+01 2.390734773915e+01 0.0 
2.390734773915e+01 -1.004305816205e+02 0.0 
0.0 0.0 -5.387586853237e+01 
-1.362768226305e+02 -1.665536180928e+00 0.0 
-1.665536180928e+00 -3.307640944803e+02 0.0 
0.0 0.0 -1.397122751332e+02 
-1.379951873794e+02 -3.534161055772e-02 0.0 
-3.534161055772e-02 -3.318665632097e+02 0.0 
0.0 0.0 -1.405585251767e+02 
-4.129568128995e+01 2.717621184938e+01 0.0 
2.717621184938e+01 -8.433360567571e+01 0.0 
0.0 0.0 -3.377250432683e+01 
-9.402567270321e+01 4.193339453257e+01 0.0 
4.193339453257e+01 -2.068078679443e+02 0.0 
0.0 0.0 -8.985006219425e+01 
-1.505444117549e+02 -9.470531241493e-01 0.0 
-9.470531241493e-01 -3.588855837139e+02 0.0 
0.0 0.0 -1.524289986407e+02 
-5.368217801289e+01 3.328472472382e+01 0.0 
3.328472472382e+01 -7.007457084586e+01 0.0 
0.0 0.0 -3.242263768867e+01 
-1.147352494041e+02 -4.870296036650e+00 0.0 
-4.870296036650e+00 -2.533132860056e+02 0.0 
0.0 0.0 -1.063536591719e+02 
-3.124803161003e+01 1.936458497858e+01 0.0 
1.936458497858e+01 -2.242884746295e+01 0.0 
0.0 0.0 -1.366283127479e+01 
-1.409081046622e+02 -1.339925081715e+00 0.0 
-1.339925081715e+00 -3.383852445435e+02 0.0 
0.0 0.0 -1.433880047617e+02 
-5.496924378100e+01 7.870280251707e+00 0.0 
7.870280251707e+00 -1.598054808187e+02 0.0 
0.0 0.0 -6.110857427128e+01 
-1.125186521373e+02 -2.131898339618e+00 0.0 
-2.131898339618e+00 -2.384540891037e+02 0.0 
0.0 0.0 -1.012795332939e+02 
-9.910506477148e+01 2.317955267312e+01 0.0 
2.317955267312e+01 -2.562842682030e+02 0.0 
0.0 0.0 -1.067641290573e+02 
-8.510170281472e+01 2.851034563365e+01 0.0 
2.851034563365e+01 -1.032470069358e+02 0.0 
0.0 0.0 -5.610461292517e+01 
-8.008883868119e+01 2.631904181220e+01 0.0 
2.631904181220e+01 -9.571729915800e+01 0.0 
0.0 0.0 -5.234184135176e+01 
-8.996041111691e+01 3.587960133620e+01 0.0 
3.587960133620e+01 -2.126964636334e+02 0.0 
0.0 0.0 -8.948786568764e+01 
-3.132305873988e+01 1.941147892356e+01 0.0 
1.941147892356e+01 -2.255084411255e+01 0.0 
0.0 0.0 -1.264414850645e+01 
-3.151596444800e+01 1.909621429656e+01 0.0 
1.909621429656e+01 -2.155310540806e+01 0.0 
0.0 0.0 -1.321194216948e+01 
-1.422267776293e+02 2.299377437429e-01 0.0 
2.299377437429e-01 -3.393123061926e+02 0.0 
0.0 0.0 -1.440617251466e+02 
-1.104266011708e+02 -7.188268769472e-01 0.0 
-7.188268769472e-01 -2.948034681661e+02 0.0 
0.0 0.0 -1.236008718671e+02 
-9.384636501668e+01 -1.422084924806e+00 0.0 
-1.422084924806e+00 -2.550037578487e+02 0.0 
0.0 0.0 -1.090295691882e+02 
-1.109407239694e+02 7.487430384858e+00 0.0 
7.487430384858e+00 -2.950127496081e+02 0.0 
0.0 0.0 -1.217067962035e+02 
-8.153962904228e+01 2.578499351372e+00 0.0 
2.578499351372e+00 -2.253724728313e+02 0.0 
0.0 0.0 -9.685872497690e+01 
-5.355213835215e+01 5.746722504662e+00 0.0 
5.746722504662e+00 -1.573251594970e+02 0.0 
0.0 0.0 -5.909340795362e+01 
-2.949647989378e+01 1.874123107440e+01 0.0 
1.874123107440e+01 -2.103399944475e+01 0.0 
0.0 0.0 -1.234055623827e+01 
-7.795943031191e+01 2.893270110797e+01 0.0 
2.893270110797e+01 -7.437520439694e+01 0.0 
0.0 0.0 -4.530039041266e+01 
-2.955151130128e+01 4.510590921698e-02 0.0 
4.510590921698e-02 -8.375096327999e+00 0.0 
0.0 0.0 -1.097798228878e+01 
-1.137301626038e+02 1.943156083744e+01 0.0 
1.943156083744e+01 -2.957657392105e+02 0.0 
0.0 0.0 -1.224487705443e+02 
-6.882097505260e+01 1.911886888364e+01 0.0 
1.911886888364e+01 -1.845704182579e+02 0.0 
0.0 0.0 -7.774025780957e+01 
-1.260128968543e+02 2.594402713135e+01 0.0 
2.594402713135e+01 -3.206446441438e+02 0.0 
0.0 0.0 -1.335972622994e+02 
-1.408091869509e+02 -1.308455992143e+00 0.0 
-1.308455992143e+00 -3.320404962330e+02 0.0 
0.0 0.0 -1.414549049552e+02 
-8.903184892597e+01 5.400392724047e+00 0.0 
5.400392724047e+00 -2.428555701905e+02 0.0 
0.0 0.0 -1.046709032518e+02 
-1.561963826908e+02 1.336685272406e+00 0.0 
1.336685272406e+00 -3.709774612843e+02 0.0 
0.0 0.0 -1.577521531925e+02 
-6.412173527901e+01 -6.502367635471e+00 0.0 
-6.502367635471e+00 -1.825441384207e+02 0.0 
0.0 0.0 -7.179459057354e+01 
-1.210969489645e+02 2.695444151655e+01 0.0 
2.695444151655e+01 -3.074196463213e+02 0.0 
0.0 0.0 -1.281549785857e+02 
-8.403385190862e+01 3.242367182473e+01 0.0 
3.242367182473e+01 -2.035424999333e+02 0.0 
0.0 0.0 -8.587290555258e+01 
-9.481726258991e+01 2.974781005110e+01 0.0 
2.974781005110e+01 -2.370877916889e+02 0.0 
0.0 0.0 -9.917151628365e+01 
-1.276219900820e+02 1.190804206248e+01 0.0 
1.190804206248e+01 -3.337245701594e+02 0.0 
0.0 0.0 -1.380039680724e+02 
-8.390363668193e+01 -1.493772869631e+01 0.0 
-1.493772869631e+01 -1.856542124322e+02 0.0 
0.0 0.0 -7.911820372194e+01 
-9.240954338084e+01 4.153651784613e+01 0.0 
4.153651784613e+01 -2.052402756292e+02 0.0 
0.0 0.0 -8.847538096786e+01 
-8.856046487519e+01 6.225190012440e-01 0.0 
6.225190012440e-01 -2.423599585309e+02 0.0 
0.0 0.0 -1.036639818288e+02 
-8.903628211076e+01 4.246966049631e+01 0.0 
4.246966049631e+01 -1.879978329554e+02 0.0 
0.0 0.0 -8.271023451985e+01 
-5.734423852796e+01 3.019256368549e+01 0.0 
3.019256368549e+01 -1.306975341972e+02 0.0 
0.0 0.0 -5.314984484243e+01 
-9.823287703230e+01 2.790595816423e+01 0.0 
2.790595816423e+01 -2.485268076291e+02 0.0 
0.0 0.0 -1.036279053984e+02 
-7.930195282464e+01 -1.141026476231e+00 0.0 
-1.141026476231e+00 -2.201311814910e+02 0.0 
0.0 0.0 -9.361492729734e+01 
-1.120704579850e+02 -5.457938118534e+00 0.0 
-5.457938118534e+00 -2.648580154799e+02 0.0 
0.0 0.0 -1.110640948673e+02 
-8.925110946430e+01 4.117009485777e+01 0.0 
4.117009485777e+01 -1.869722051212e+02 0.0 
0.0 0.0 -8.168486575630e+01 
-2.422184182969e+01 2.049906932568e+01 0.0 
2.049906932568e+01 -3.816009672972e+01 0.0 
0.0 0.0 -1.767098460667e+01 
-8.950371289063e+01 1.915760428427e+01 0.0 
1.915760428427e+01 -2.362726981039e+02 0.0 
0.0 0.0 -1.021152636631e+02 
-2.872177827608e+01 2.202106681667e+01 0.0 
2.202106681667e+01 -3.761955597823e+01 0.0 
0.0 0.0 -1.607756580988e+01 
-1.709648766858e+01 -3.340229623838e+00 0.0 
-3.340229623838e+00 -6.295471679669e+01 0.0 
0.0 0.0 -2.116973708472e+01 
-1.104918194709e+02 -5.814762065913e+00 0.0 
-5.814762065913e+00 -2.523856349160e+02 0.0 
0.0 0.0 -1.059605401423e+02 
-1.039242850761e+02 4.171360562984e+01 0.0 
4.171360562984e+01 -2.389578647793e+02 0.0 
0.0 0.0 -1.024646449566e+02 
-8.382718808673e+01 3.059095538698e+01 0.0 
3.059095538698e+01 -1.154398014870e+02 0.0 
0.0 0.0 -5.938009687212e+01 
-3.106225991536e+01 1.977410608408e+01 0.0 
1.977410608408e+01 -2.380183565363e+01 0.0 
0.0 0.0 -1.113525593309e+01 
-9.380641039042e+01 3.232505917267e+01 0.0 
3.232505917267e+01 -2.202149575777e+02 0.0 
0.0 0.0 -9.380641039042e+01 
-2.400345287726e+01 1.770191691330e+01 0.0 
1.770191691330e+01 -1.979006677766e+01 0.0 
0.0 0.0 -1.356235940462e+01 
-3.100366463716e+01 1.963630553304e+01 0.0 
1.963630553304e+01 -2.337050604488e+01 0.0 
0.0 0.0 -1.203581197714e+01 
-9.286494473215e+01 8.635306797147e-01 0.0 
8.635306797147e-01 -2.526766728047e+02 0.0 
0.0 0.0 -1.081600881996e+02 
-1.117958133223e+02 -4.561635552344e+00 0.0 
-4.561635552344e+00 -2.408300411022e+02 0.0 
0.0 0.0 -1.011801177930e+02 
-6.435351637706e+01 3.631347309283e+01 0.0 
3.631347309283e+01 -6.978414569053e+01 0.0 
0.0 0.0 -3.702569100651e+01 
-6.642982633815e+01 -1.215905079434e+01 0.0 
-1.215905079434e+01 -1.850993144203e+02 0.0 
0.0 0.0 -7.464320209868e+01 
-1.039280958413e+02 -4.439677389849e+00 0.0 
-4.439677389849e+00 -2.788440476241e+02 0.0 
0.0 0.0 -1.178478666813e+02 
-8.867465913765e+01 3.547343631428e+01 0.0 
3.547343631428e+01 -2.099760612807e+02 0.0 
0.0 0.0 -8.919521612549e+01 
-9.626765631100e+01 2.002536344721e+01 0.0 
2.002536344721e+01 -2.522564590653e+02 0.0 
0.0 0.0 -1.064706977582e+02 
-1.055978952741e+02 4.367712416305e+01 0.0 
4.367712416305e+01 -2.317966572177e+02 0.0 
0.0 0.0 -1.008183657475e+02 
-5.738667485093e+01 3.173551265686e+01 0.0 
3.173551265686e+01 -1.248327553866e+02 0.0 
0.0 0.0 -5.138288860938e+01 
-1.048866899512e+02 -6.775292894852e+00 0.0 
-6.775292894852e+00 -2.326320499130e+02 0.0 
0.0 0.0 -9.718442191659e+01 
-1.118284842473e+02 -4.958929042408e+00 0.0 
-4.958929042408e+00 -2.477473844594e+02 0.0 
0.0 0.0 -1.045109183999e+02 
-6.288524748436e+01 -1.115689382449e+01 0.0 
-1.115689382449e+01 -1.340945535739e+02 0.0 
0.0 0.0 -5.556095809626e+01 
-6.930024496622e+01 2.418207201613e+01 0.0 
2.418207201613e+01 -4.728592623393e+01 0.0 
0.0 0.0 -3.435730804066e+01 
-8.591198221924e+01 3.465703576419e+01 0.0 
3.465703576419e+01 -1.171409926899e+02 0.0 
0.0 0.0 -6.051589247275e+01 
-1.310675422960e+02 6.011101773047e-01 0.0 
6.011101773047e-01 -3.027017889942e+02 0.0 
0.0 0.0 -1.289847093648e+02 
-5.629261777506e+00 2.024694011231e-01 0.0 
2.024694011231e-01 -4.295452954655e+01 0.0 
0.0 0.0 -1.153462950368e+01 
-3.791453547179e+01 -3.108441802795e+00 0.0 
-3.108441802795e+00 -1.205005866304e+02 0.0 
0.0 0.0 -4.890292793948e+01 
-3.917116227731e+01 -7.593496134154e+00 0.0 
-7.593496134154e+00 -9.063494976073e+01 0.0 
0.0 0.0 -3.518300259666e+01 
-1.149148965516e+02 -3.403892255031e+00 0.0 
-3.403892255031e+00 -2.485513340144e+02 0.0 
0.0 0.0 -1.049250572860e+02 
-7.042768402987e+01 -3.205284489176e+00 0.0 
-3.205284489176e+00 -1.986060313808e+02 0.0 
0.0 0.0 -7.986954259521e+01 
-7.045582813559e+01 -1.364938226249e+01 0.0 
-1.364938226249e+01 -1.938770384292e+02 0.0 
0.0 0.0 -7.854944877018e+01 
-5.826706873808e+01 -9.178064714347e+00 0.0 
-9.178064714347e+00 -1.670998792517e+02 0.0 
0.0 0.0 -6.450106476464e+01 
-1.138787785439e+02 -4.975520458851e+00 0.0 
-4.975520458851e+00 -2.597978858779e+02 0.0 
0.0 0.0 -1.094720926026e+02 
-9.033328167787e+01 3.642149847018e+01 0.0 
3.642149847018e+01 -1.549077661398e+02 0.0 
0.0 0.0 -7.317231434530e+01 
-1.151839915026e+02 -4.044877990639e+00 0.0 
-4.044877990639e+00 -2.556245993256e+02 0.0 
0.0 0.0 -1.081596808497e+02 
-6.344327954715e+01 6.320429019335e-01 0.0 
6.320429019335e-01 -1.821151867952e+02 0.0 
0.0 0.0 -7.257003817367e+01 
-9.471944227979e+01 4.340926094327e+01 0.0 
4.340926094327e+01 -2.066244337986e+02 0.0 
0.0 0.0 -9.000316282352e+01 
-5.240203570725e+01 4.231981694231e+00 0.0 
4.231981694231e+00 -3.958122752663e+01 0.0 
0.0 0.0 -2.719497897017e+01 
-1.063456664529e+02 2.429720985091e+01 0.0 
2.429720985091e+01 -2.732490220859e+02 0.0 
0.0 0.0 -1.134784065616e+02 
-1.178800868453e+02 -2.304866931603e+00 0.0 
-2.304866931603e+00 -2.564664976756e+02 0.0 
0.0 0.0 -1.086344026936e+02 
-1.177855957964e+02 -3.695442072037e+00 0.0 
-3.695442072037e+00 -2.607417081841e+02 0.0 
0.0 0.0 -1.099726907764e+02 
-2.979654824112e+01 1.926454557019e+01 0.0 
1.926454557019e+01 -2.260279592853e+01 0.0 
0.0 0.0 -1.083366178284e+01 
-7.637613547024e+01 -5.255146546504e+00 0.0 
-5.255146546504e+00 -2.124565567575e+02 0.0 
0.0 0.0 -8.756629116258e+01 
-1.184114037912e+02 -3.134403320805e+00 0.0 
-3.134403320805e+00 -2.635913300246e+02 0.0 
0.0 0.0 -1.118047699484e+02 
-5.645033090763e+01 -1.945882660466e-01 0.0 
-1.945882660466e-01 -7.991331651322e+01 0.0 
0.0 0.0 -4.050909422626e+01 
-5.010844254245e+01 -4.222681346243e-01 0.0 
-4.222681346243e-01 -6.143389161442e+01 0.0 
0.0 0.0 -3.306270024706e+01 
-3.041828962264e+01 1.952342544997e+01 0.0 
1.952342544997e+01 -2.322013900894e+01 0.0 
0.0 0.0 -1.014689943655e+01 
-1.172614819815e+02 -4.124694867367e+00 0.0 
-4.124694867367e+00 -2.674803608797e+02 0.0 
0.0 0.0 -1.130414541353e+02 
-7.355776919924e+01 -1.831029079716e+01 0.0 
-1.831029079716e+01 -1.962165783765e+02 0.0 
0.0 0.0 -8.088648986560e+01 
-4.908692364298e+01 3.168982461640e+01 0.0 
3.168982461640e+01 -7.115506061545e+01 0.0 
0.0 0.0 -3.168470326851e+01 
-1.217927264761e+02 2.795077089940e+01 0.0 
2.795077089940e+01 -3.081325850589e+02 0.0 
0.0 0.0 -1.285775934605e+02 
-4.287908972900e+01 -1.136883848397e+01 0.0 
-1.136883848397e+01 -8.546982021387e+01 0.0 
0.0 0.0 -3.472786222866e+01 
-7.116571575548e+01 -1.592302644337e+01 0.0 
-1.592302644337e+01 -1.907507948157e+02 0.0 
0.0 0.0 -7.840720174224e+01 
-8.377773231960e+01 2.055751087427e+01 0.0 
2.055751087427e+01 -2.206294635338e+02 0.0 
0.0 0.0 -9.374782699941e+01 
-2.683422118538e+01 1.820106295412e+01 0.0 
1.820106295412e+01 -2.022460589969e+01 0.0 
0.0 0.0 -9.811963778659e+00 
-1.207803777296e+02 -1.282798942161e+00 0.0 
-1.282798942161e+00 -2.647048546322e+02 0.0 
0.0 0.0 -1.124062141004e+02 
-5.333420377158e+01 7.601378608915e-01 0.0 
7.601378608915e-01 -1.194144652412e+02 0.0 
0.0 0.0 -4.791177459745e+01 
-7.110259722281e+01 2.544673623331e+01 0.0 
2.544673623331e+01 -4.488270488733e+01 0.0 
0.0 0.0 -3.439452268524e+01 
-1.206941240450e+02 -2.613946514736e+00 0.0 
-2.613946514736e+00 -2.684135981682e+02 0.0 
0.0 0.0 -1.135842061092e+02 
-9.300886051227e+01 -6.519954909169e+00 0.0 
-6.519954909169e+00 -2.521313243736e+02 0.0 
0.0 0.0 -1.070148751939e+02 
-1.115430097836e+02 -6.115928572926e+00 0.0 
-6.115928572926e+00 -2.461884328900e+02 0.0 
0.0 0.0 -1.026995526532e+02 
-3.536488664397e+01 2.261972222718e+01 0.0 
2.261972222718e+01 -8.501185067962e+01 0.0 
0.0 0.0 -3.794698682116e+01 
-7.432565829409e+01 2.108247485656e+00 0.0 
2.108247485656e+00 -1.401624518454e+02 0.0 
0.0 0.0 -6.394643304184e+01 
-8.074752053085e+01 -1.227544491520e+01 0.0 
-1.227544491520e+01 -2.199798362633e+02 0.0 
0.0 0.0 -9.214653852843e+01 
-1.232797033126e+02 1.628432945212e+01 0.0 
1.628432945212e+01 -3.211154878359e+02 0.0 
0.0 0.0 -1.329185573445e+02 
-9.244837792634e+01 2.917529810674e+01 0.0 
2.917529810674e+01 -2.317686682960e+02 0.0 
0.0 0.0 -9.686511386671e+01 
-1.205823377822e+02 -3.312894322792e+00 0.0 
-3.312894322792e+00 -2.753196719544e+02 0.0 
0.0 0.0 -1.166455675961e+02 
-1.234866649005e+02 -1.667212302799e+00 0.0 
-1.667212302799e+00 -2.762138270829e+02 0.0 
0.0 0.0 -1.171894862134e+02 
-6.123340571872e+01 -5.001816935342e+00 0.0 
-5.001816935342e+00 -1.760875240195e+02 0.0 
0.0 0.0 -6.977393426135e+01 
-3.058626807585e+01 -1.029821929214e+01 0.0 
-1.029821929214e+01 -5.838217774298e+01 0.0 
0.0 0.0 -2.255094806979e+01 
-5.034451796873e+01 3.109022725743e+01 0.0 
3.109022725743e+01 -9.964182368229e+01 0.0 
0.0 0.0 -4.615738844068e+01 
-1.238001671238e+02 -2.556516075809e+00 0.0 
-2.556516075809e+00 -2.833369324751e+02 0.0 
0.0 0.0 -1.203155947499e+02 
-1.259253449954e+02 1.156704704613e+01 0.0 
1.156704704613e+01 -3.297621334057e+02 0.0 
0.0 0.0 -1.363062435203e+02 
-7.456736855696e+01 -1.986272913100e+01 0.0 
-1.986272913100e+01 -1.785644046896e+02 0.0 
0.0 0.0 -7.526514413819e+01 
-9.787611218465e+01 4.115345091031e+01 0.0 
4.115345091031e+01 -2.227722572361e+02 0.0 
0.0 0.0 -9.579451082623e+01 
-5.081463919938e+01 3.217693702782e+01 0.0 
3.217693702782e+01 -6.856587442555e+01 0.0 
0.0 0.0 -3.207292742583e+01 
-9.815024722076e+01 4.425224653125e+01 0.0 
4.425224653125e+01 -2.090061182806e+02 0.0 
0.0 0.0 -9.174690965041e+01 
-1.509513207052e+02 7.633715446633e+00 0.0 
7.633715446633e+00 -3.792155363505e+02 0.0 
0.0 0.0 -1.586500571167e+02 
-1.001726711137e+02 -6.211339923644e-01 0.0 
-6.211339923644e-01 -1.062760834393e+02 0.0 
0.0 0.0 -6.221149737635e+01 
-8.331139547888e+01 3.140397416379e+00 0.0 
3.140397416379e+00 -1.957265894507e+02 0.0 
0.0 0.0 -8.331139547888e+01 
-1.686771775917e+02 1.189009070231e-02 0.0 
1.189009070231e-02 -3.949134143805e+02 0.0 
0.0 0.0 -1.686771775917e+02 
-3.793928409990e+01 7.118870622882e-01 0.0 
7.118870622882e-01 -2.952674840710e+01 0.0 
0.0 0.0 -1.983980975210e+01 
-8.318407711054e+01 -1.695545096749e+01 0.0 
-1.695545096749e+01 -2.127181987281e+02 0.0 
0.0 0.0 -8.972638719870e+01 
-8.908237708862e+01 3.147871172529e+01 0.0 
3.147871172529e+01 -2.190787283044e+02 0.0 
0.0 0.0 -9.204833161789e+01 
-6.351513476882e+01 -2.686586055520e-01 0.0 
-2.686586055520e-01 -1.822969013373e+02 0.0 
0.0 0.0 -7.182010215327e+01 
-1.156445339616e+01 1.306110684353e+00 0.0 
1.306110684353e+00 -5.510221308528e+01 0.0 
0.0 0.0 -1.810822604684e+01 
-3.208182367230e+01 1.995937192767e+01 0.0 
1.995937192767e+01 -2.403020548808e+01 0.0 
0.0 0.0 -1.546528457125e+01 
-8.258335054363e+01 9.759903481291e+00 0.0 
9.759903481291e+00 -1.597698905731e+02 0.0 
0.0 0.0 -7.230597233502e+01 
-8.931586978272e+01 3.747989652318e+01 0.0 
3.747989652318e+01 -1.372535934172e+02 0.0 
0.0 0.0 -6.757083895997e+01 
-5.928810339814e+01 2.188642679972e+01 0.0 
2.188642679972e+01 -2.825606824751e+01 0.0 
0.0 0.0 -2.546967201778e+01 
-1.324799233065e+02 3.882574596657e+01 0.0 
3.882574596657e+01 -3.198444523445e+02 0.0 
0.0 0.0 -1.352973126953e+02 
-3.706507146264e+01 1.010016619711e+00 0.0 
1.010016619711e+00 -9.935580437698e+01 0.0 
0.0 0.0 -3.825649719251e+01 
-1.352489978424e+02 3.669914037551e+01 0.0 
3.669914037551e+01 -3.264616914491e+02 0.0 
0.0 0.0 -1.381132067874e+02 
-8.727118670564e+01 3.396598087608e+01 0.0 
3.396598087608e+01 -1.355300321548e+02 0.0 
0.0 0.0 -6.644036565812e+01 
-8.701578749175e+01 -1.579109326176e+01 0.0 
-1.579109326176e+01 -2.010153565345e+02 0.0 
0.0 0.0 -8.582930344259e+01 
-9.105520909999e+01 3.167978573612e+01 0.0 
3.167978573612e+01 -2.240103452251e+02 0.0 
0.0 0.0 -9.434835171951e+01 
-7.709387802473e+01 -1.501324357618e+01 0.0 
-1.501324357618e+01 -1.945132522799e+02 0.0 
0.0 0.0 -8.080005002025e+01 
-4.733755534767e+01 3.090300007538e+01 0.0 
3.090300007538e+01 -6.884403867279e+01 0.0 
0.0 0.0 -3.111331301213e+01 
-7.518474396003e+01 -1.571875603177e+01 0.0 
-1.571875603177e+01 -1.794543753331e+02 0.0 
0.0 0.0 -7.487001813725e+01 
-9.353953721200e+01 3.853515388356e+01 0.0 
3.853515388356e+01 -1.741496065033e+02 0.0 
0.0 0.0 -7.990674311460e+01 
-1.458377083759e+02 5.890736319975e-01 0.0 
5.890736319975e-01 -3.433953392989e+02 0.0 
0.0 0.0 -1.463699143024e+02 
-7.205517902358e+01 -1.286737609818e+01 0.0 
-1.286737609818e+01 -1.983725128848e+02 0.0 
0.0 0.0 -8.162468607640e+01 
-1.004226592447e+02 4.269041656439e+01 0.0 
4.269041656439e+01 -2.262405532626e+02 0.0 
0.0 0.0 -9.759896375220e+01 
-4.404976080772e+01 -9.794168598769e-01 0.0 
-9.794168598769e-01 -1.136666036449e+02 0.0 
0.0 0.0 -4.781616485901e+01 
-6.647062530872e+01 -7.459618659941e+00 0.0 
-7.459618659941e+00 -1.878351668680e+02 0.0 
0.0 0.0 -7.557436748507e+01 
-9.693616528107e+01 3.749727969879e+01 0.0 
3.749727969879e+01 -1.637668517827e+02 0.0 
0.0 0.0 -7.781090511914e+01 
-7.669628311147e+01 -1.352034684665e+01 0.0 
-1.352034684665e+01 -1.699840407051e+02 0.0 
0.0 0.0 -7.095052078373e+01 
-7.127862615409e+01 -1.902109355169e+01 0.0 
-1.902109355169e+01 -1.609200020945e+02 0.0 
0.0 0.0 -6.816408449783e+01 
-8.533414272752e+01 2.865397794004e+01 0.0 
2.865397794004e+01 -2.139115955941e+02 0.0 
0.0 0.0 -8.937372149650e+01 
-4.316186716176e+01 -2.483183128314e+01 0.0 
-2.483183128314e+01 -1.030407660651e+02 0.0 
0.0 0.0 -3.721577332328e+01 
-2.729624223736e+01 1.851934875165e+01 0.0 
1.851934875165e+01 -2.110997641752e+01 0.0 
0.0 0.0 -1.072641908561e+01 
-3.009084209139e+01 1.931434241618e+01 0.0 
1.931434241618e+01 -2.265561007815e+01 0.0 
0.0 0.0 -1.113819690544e+01 
-6.828037153308e+01 -1.449486137654e+01 0.0 
-1.449486137654e+01 -1.493255742171e+02 0.0 
0.0 0.0 -6.214093577768e+01 
-9.902465127654e+01 -3.303437816553e+00 0.0 
-3.303437816553e+00 -2.672457997638e+02 0.0 
0.0 0.0 -1.137662661709e+02 
-8.188288307359e+01 2.290720403106e+01 0.0 
2.290720403106e+01 -2.131586629627e+02 0.0 
0.0 0.0 -9.171196482193e+01 
-9.939710272800e+01 4.268320726250e+01 0.0 
4.268320726250e+01 -2.231953493140e+02 0.0 
0.0 0.0 -9.637773561260e+01 
-1.089743231113e+02 4.388130764941e+01 0.0 
4.388130764941e+01 -2.397020641364e+02 0.0 
0.0 0.0 -1.042029161743e+02 
-2.617021771262e+01 1.809246137473e+01 0.0 
1.809246137473e+01 -2.013075731401e+01 0.0 
0.0 0.0 -8.674619615316e+00 
-6.328719710704e+01 1.871493143509e+00 0.0 
1.871493143509e+00 -1.002099987126e+02 0.0 
0.0 0.0 -4.864915874591e+01 
-1.164390610417e+02 4.157434635263e+01 0.0 
4.157434635263e+01 -2.742984747698e+02 0.0 
0.0 0.0 -1.168212607434e+02 
-5.849961036731e+01 -6.277178861661e-01 0.0 
-6.277178861661e-01 -1.702575837465e+02 0.0 
0.0 0.0 -6.634685026477e+01 
-4.091806005789e+01 2.715554492018e+01 0.0 
2.715554492018e+01 -5.008170560222e+01 0.0 
0.0 0.0 -2.276576965783e+01 
-5.096093855210e+01 3.217480668801e+01 0.0 
3.217480668801e+01 -6.788932783623e+01 0.0 
0.0 0.0 -3.073745155608e+01 
-9.813042947056e+01 -7.594675178623e+00 0.0 
-7.594675178623e+00 -2.610308894613e+02 0.0 
0.0 0.0 -1.107183580675e+02 
-9.835460321442e+01 4.242377769466e+01 0.0 
4.242377769466e+01 -2.091487450378e+02 0.0 
0.0 0.0 -9.185100447566e+01 
-9.206651144847e+01 -2.964409093870e+00 0.0 
-2.964409093870e+00 -2.505892138468e+02 0.0 
0.0 0.0 -1.059529411342e+02 
-3.643494227476e+01 2.355222035099e+01 0.0 
2.355222035099e+01 -8.482393168933e+01 0.0 
0.0 0.0 -3.398634086717e+01 
-1.051565075717e+02 6.253376681346e-01 0.0 
6.253376681346e-01 -2.821655160872e+02 0.0 
0.0 0.0 -1.199463395329e+02 
-4.730977613362e+01 3.083209481783e+01 0.0 
3.083209481783e+01 -6.759046238404e+01 0.0 
0.0 0.0 -3.123985467907e+01 
-7.507064076442e+01 1.874260023318e+01 0.0 
1.874260023318e+01 -2.007150217889e+02 0.0 
0.0 0.0 -8.533757651691e+01 
-9.859519410048e+01 -3.388461064548e-01 0.0 
-3.388461064548e-01 -2.664338258956e+02 0.0 
0.0 0.0 -1.125510431411e+02 
-9.168013940454e+01 2.735532933024e+01 0.0 
2.735532933024e+01 -2.324164416308e+02 0.0 
0.0 0.0 -9.793101497439e+01 
-5.712510666304e+01 2.698315785428e+00 0.0 
2.698315785428e+00 -7.520971402806e+01 0.0 
0.0 0.0 -3.930044620733e+01 
-6.987978997708e+01 -1.408389643029e+01 0.0 
-1.408389643029e+01 -1.493437171515e+02 0.0 
0.0 0.0 -6.301500257616e+01 
-4.983183309505e+01 3.213647399570e+01 0.0 
3.213647399570e+01 -7.556730170262e+01 0.0 
0.0 0.0 -3.280080845312e+01 
-1.059154649428e+02 8.015192972405e-01 0.0 
8.015192972405e-01 -2.839810716904e+02 0.0 
0.0 0.0 -1.176896634952e+02 
-4.856806963222e+01 3.117962649553e+01 0.0 
3.117962649553e+01 -6.581169372048e+01 0.0 
0.0 0.0 -3.163856541247e+01 
-3.721584795621e+01 7.440333875254e+00 0.0 
7.440333875254e+00 -1.168805750835e+02 0.0 
0.0 0.0 -4.763671523794e+01 
-7.777218268421e+01 6.135678080631e-01 0.0 
6.135678080631e-01 -1.593482266732e+02 0.0 
0.0 0.0 -7.073612280723e+01 
-7.387418493613e+01 2.411970142761e-01 0.0 
2.411970142761e-01 -1.400746871657e+02 0.0 
0.0 0.0 -6.378466163055e+01 
-2.806449457223e+00 -4.044842667868e-01 0.0 
-4.044842667868e-01 -2.626025350431e+01 0.0 
0.0 0.0 -7.199656471582e+00 
-1.117942440599e+02 3.224314203118e+00 0.0 
3.224314203118e+00 -2.979034102047e+02 0.0 
0.0 0.0 -1.241689444447e+02 
-5.141419671671e+01 -1.005528041744e+01 0.0 
-1.005528041744e+01 -1.122523297540e+02 0.0 
0.0 0.0 -4.550783638810e+01 
-5.749559497758e+01 -1.107790991893e+01 0.0 
-1.107790991893e+01 -1.209261893234e+02 0.0 
0.0 0.0 -4.957203410848e+01 
-1.061470373878e+02 4.247660031364e+01 0.0 
4.247660031364e+01 -2.435192597969e+02 0.0 
0.0 0.0 -1.044998891554e+02 
-8.956936911659e+01 2.664711361654e+01 0.0 
2.664711361654e+01 -2.279530757140e+02 0.0 
0.0 0.0 -9.485673344917e+01 
-1.030805025181e+02 4.049511483627e+01 0.0 
4.049511483627e+01 -2.393951079778e+02 0.0 
0.0 0.0 -1.023426831488e+02 
-7.588367898466e+01 -1.043548715502e+01 0.0 
-1.043548715502e+01 -2.092049920238e+02 0.0 
0.0 0.0 -8.625665136134e+01 
-2.994870784887e+01 -9.424699219917e-02 0.0 
-9.424699219917e-02 -8.103515220184e+00 0.0 
0.0 0.0 -1.101566692072e+01 
-1.587499371208e+02 5.112655139005e+00 0.0 
5.112655139005e+00 -3.828767969669e+02 0.0 
0.0 0.0 -1.620880202263e+02 
-4.686976567440e+01 -9.788272828208e+00 0.0 
-9.788272828208e+00 -1.000018148842e+02 0.0 
0.0 0.0 -4.045582574844e+01 
-1.188026511446e+02 1.818791815175e+01 0.0 
1.818791815175e+01 -3.090461505450e+02 0.0 
0.0 0.0 -1.279546405069e+02 
-7.807229857296e+01 2.170250254519e+01 0.0 
2.170250254519e+01 -2.049462357152e+02 0.0 
0.0 0.0 -8.679622720655e+01 
-2.241512011207e+01 -1.684883910142e+00 0.0 
-1.684883910142e+00 -7.789636530794e+01 0.0 
0.0 0.0 -2.807207556522e+01 
-9.488996274044e+01 4.092011334125e+01 0.0 
4.092011334125e+01 -1.906777238948e+02 0.0 
0.0 0.0 -8.527030599058e+01 
-6.736390195638e+01 -2.336114919213e+00 0.0 
-2.336114919213e+00 -1.913804806528e+02 0.0 
0.0 0.0 -7.768630345194e+01 
-2.665499819180e+01 -8.689030209007e+00 0.0 
-8.689030209007e+00 -4.702313186927e+01 0.0 
0.0 0.0 -1.697979309636e+01 
-6.040396082335e+01 -1.065269190493e+01 0.0 
-1.065269190493e+01 -1.713937788480e+02 0.0 
0.0 0.0 -6.748161198736e+01 
-1.286237464199e+02 -9.772306093748e-01 0.0 
-9.772306093748e-01 -2.938407860361e+02 0.0 
0.0 0.0 -1.251652334925e+02 
-9.590810761646e+01 4.159884515759e+01 0.0 
4.159884515759e+01 -1.761678702055e+02 0.0 
0.0 0.0 -8.122279334658e+01 
-3.693234702060e+01 -8.051881717062e+00 0.0 
-8.051881717062e+00 -7.788375161633e+01 0.0 
0.0 0.0 -2.943355717222e+01 
-1.130688720510e+02 -5.590070578380e-01 0.0 
-5.590070578380e-01 -2.392158515539e+02 0.0 
0.0 0.0 -1.017187293624e+02 
-1.023705690182e+02 4.357585542090e+01 0.0 
4.357585542090e+01 -2.279447729046e+02 0.0 
0.0 0.0 -9.869460257684e+01 
-1.095088610402e+02 2.768266582999e+01 0.0 
2.768266582999e+01 -2.775094829838e+02 0.0 
0.0 0.0 -1.157055032072e+02 
-7.197487177358e+01 -1.546581302486e+01 0.0 
-1.546581302486e+01 -1.641565692470e+02 0.0 
0.0 0.0 -6.844593139854e+01 
-5.637582443744e+01 -2.173097707262e+00 0.0 
-2.173097707262e+00 -1.197718732707e+02 0.0 
0.0 0.0 -4.819961067419e+01 
-8.630786786416e+01 2.222489608609e+01 0.0 
2.222489608609e+01 -2.251721833389e+02 0.0 
0.0 0.0 -9.684568285523e+01 
-5.292981755793e+01 8.919400803234e-01 0.0 
8.919400803234e-01 -6.923357937204e+01 0.0 
0.0 0.0 -3.624901907899e+01 
-3.047121011516e+01 -1.460690030435e+01 0.0 
-1.460690030435e+01 -5.124509374679e+01 0.0 
0.0 0.0 -1.686302802086e+01 
-1.206192848116e+02 4.047897543843e+01 0.0 
4.047897543843e+01 -2.876841626879e+02 0.0 
0.0 0.0 -1.220910342499e+02 
-1.072041591779e+02 4.281742257190e+01 0.0 
4.281742257190e+01 -2.385790252343e+02 0.0 
0.0 0.0 -1.033349553237e+02 
-4.272445923416e+01 9.587965036332e-01 0.0 
9.587965036332e-01 -4.135112162649e+01 0.0 
0.0 0.0 -2.482267425820e+01 
-9.648964441196e+01 2.529870488504e+01 0.0 
2.529870488504e+01 -1.875668649808e+02 0.0 
0.0 0.0 -8.481695281782e+01 
-1.143192210502e+02 4.562258069653e+01 0.0 
4.562258069653e+01 -2.594624912393e+02 0.0 
0.0 0.0 -1.117345136869e+02 
-7.253212235454e+01 -8.933926160189e+00 0.0 
-8.933926160189e+00 -2.018378175879e+02 0.0 
0.0 0.0 -8.320968211490e+01 
-7.956281391857e+01 -1.636504938229e+01 0.0 
-1.636504938229e+01 -2.126722558025e+02 0.0 
0.0 0.0 -8.871616877038e+01 
-1.361696829123e+02 2.408095019397e+01 0.0 
2.408095019397e+01 -3.447235102087e+02 0.0 
0.0 0.0 -1.438679579363e+02 
-3.696167043143e+01 3.765083982677e+00 0.0 
3.765083982677e+00 -1.080580950194e+02 0.0 
0.0 0.0 -4.405654181805e+01 
-4.617970557442e+01 -1.501350980711e+00 0.0 
-1.501350980711e+00 -1.084487069373e+02 0.0 
0.0 0.0 -4.279283465828e+01 
-1.143022386035e+02 -1.542961055264e+00 0.0 
-1.542961055264e+00 -2.435944121753e+02 0.0 
0.0 0.0 -1.034457908242e+02 
-7.521977489400e+01 -1.628248016146e+01 0.0 
-1.628248016146e+01 -1.650562587363e+02 0.0 
0.0 0.0 -7.013125066552e+01 
-6.615785175001e+01 -1.550255842207e+01 0.0 
-1.550255842207e+01 -1.816908969578e+02 0.0 
0.0 0.0 -7.314720866911e+01 
-2.597129323613e+01 1.806319461899e+01 0.0 
1.806319461899e+01 -2.011648817455e+01 0.0 
0.0 0.0 -1.059436394590e+01 
-3.079437361838e+01 1.955991428915e+01 0.0 
1.955991428915e+01 -2.319818833220e+01 0.0 
0.0 0.0 -1.254387517018e+01 
-5.334964845999e+01 4.902352597755e+00 0.0 
4.902352597755e+00 -4.344542900858e+01 0.0 
0.0 0.0 -2.863852324057e+01 
-7.061174858051e+01 -8.790842135812e+00 0.0 
-8.790842135812e+00 -1.972558766343e+02 0.0 
0.0 0.0 -7.957505145270e+01 
-6.205498957703e+01 -4.125973392168e+00 0.0 
-4.125973392168e+00 -1.283407935866e+02 0.0 
0.0 0.0 -5.144385421096e+01 
-1.048203979850e+02 2.856407782353e+01 0.0 
2.856407782353e+01 -2.645275370192e+02 0.0 
0.0 0.0 -1.104043805013e+02 
-1.673082555629e+02 2.736169220164e+00 0.0 
2.736169220164e+00 -3.974747612175e+02 0.0 
0.0 0.0 -1.690349050341e+02 
-1.657242145241e+02 4.401925985057e+00 0.0 
4.401925985057e+00 -3.965221994285e+02 0.0 
0.0 0.0 -1.682739241858e+02 
-7.777221339408e+01 -1.340439046033e+01 0.0 
-1.340439046033e+01 -2.092288416651e+02 0.0 
0.0 0.0 -8.625514575776e+01 
-4.920449630578e+01 3.437641410854e+00 0.0 
3.437641410854e+00 -2.582190550820e+01 0.0 
0.0 0.0 -2.210792054419e+01 
-4.533852323810e+01 1.746200432262e+00 0.0 
1.746200432262e+00 -1.175499452435e+02 0.0 
0.0 0.0 -4.984882450159e+01 
-2.895294029452e+01 1.873261486551e+01 0.0 
1.873261486551e+01 -2.118124404036e+01 0.0 
0.0 0.0 -1.161708972362e+01 
-5.023317440320e+01 -2.743776184478e+01 0.0 
-2.743776184478e+01 -1.170668517569e+02 0.0 
0.0 0.0 -4.537505799225e+01 
-2.814860032153e+01 1.892512608258e+01 0.0 
1.892512608258e+01 -2.213622609449e+01 0.0 
0.0 0.0 -1.188367296301e+01 
-8.673996571907e+01 2.373407648662e+01 0.0 
2.373407648662e+01 -2.244950521534e+02 0.0 
0.0 0.0 -9.370596438285e+01 
-6.921739612597e+01 -1.754399163792e+01 0.0 
-1.754399163792e+01 -1.751999218945e+02 0.0 
0.0 0.0 -7.209416646521e+01 
-7.496327916900e+01 -1.463053868743e+01 0.0 
-1.463053868743e+01 -2.041980733315e+02 0.0 
0.0 0.0 -8.431184444629e+01 
-3.548461613350e+01 -2.229655065546e+01 0.0 
-2.229655065546e+01 -8.670766914083e+01 0.0 
0.0 0.0 -3.708386257497e+01 
-7.276594422129e+01 2.225309083603e+00 0.0 
2.225309083603e+00 -1.425289557775e+02 0.0 
0.0 0.0 -6.418846999964e+01 
-7.732422686231e+01 -1.899297848273e+01 0.0 
-1.899297848273e+01 -1.968196294320e+02 0.0 
0.0 0.0 -8.232005153059e+01 
-7.935823704335e+01 7.811820205311e+00 0.0 
7.811820205311e+00 -1.579704717097e+02 0.0 
0.0 0.0 -7.079861262590e+01 
-7.195061711423e+01 3.794670919157e+00 0.0 
3.794670919157e+00 -1.272200535465e+02 0.0 
0.0 0.0 -5.935120119821e+01 
-8.877048419811e+01 3.765085048826e+00 0.0 
3.765085048826e+00 -1.974644390376e+02 0.0 
0.0 0.0 -8.547047697071e+01 
-1.686536758758e+02 -1.896029145165e-01 0.0 
-1.896029145165e-01 -3.951973562854e+02 0.0 
0.0 0.0 -1.687553096483e+02 
-4.279694956069e+01 -4.393328175065e-01 0.0 
-4.393328175065e-01 -4.184321120491e+01 0.0 
0.0 0.0 -2.499204822968e+01 
-8.171237942648e+01 -1.797871146073e+01 0.0 
-1.797871146073e+01 -1.968916192640e+02 0.0 
0.0 0.0 -8.347596212781e+01 
-2.525165482006e+01 1.790157579515e+01 0.0 
1.790157579515e+01 -1.987923106263e+01 0.0 
0.0 0.0 -1.000129924820e+01 
-8.287172055631e+01 -1.302236614899e+01 0.0 
-1.302236614899e+01 -1.992104434136e+02 0.0 
0.0 0.0 -8.315381411019e+01 
-1.701388474048e+02 1.642512074449e+00 0.0 
1.642512074449e+00 -3.983239772780e+02 0.0 
0.0 0.0 -1.701388474048e+02 
-2.987416817381e+01 1.901995225855e+01 0.0 
1.901995225855e+01 -2.178522952070e+01 0.0 
0.0 0.0 -1.217271090228e+01 
-2.881492714079e+01 1.869190320916e+01 0.0 
1.869190320916e+01 -2.109834794097e+01 0.0 
0.0 0.0 -1.156287211435e+01 
-1.209704886000e+02 2.128781130200e+01 0.0 
2.128781130200e+01 -3.121433833854e+02 0.0 
0.0 0.0 -1.295341615956e+02 
-4.141957663844e+01 1.554919260394e+00 0.0 
1.554919260394e+00 -2.629778657477e+01 0.0 
0.0 0.0 -1.991520896396e+01 
-7.860585590593e+01 4.727026467689e+00 0.0 
4.727026467689e+00 -1.594720891418e+02 0.0 
0.0 0.0 -7.102338351432e+01 
-1.027843885128e+02 4.471247387840e+01 0.0 
4.471247387840e+01 -2.276995329372e+02 0.0 
0.0 0.0 -9.874517643499e+01 
-1.164636798706e+02 2.785497568962e+01 0.0 
2.785497568962e+01 -2.948551172186e+02 0.0 
0.0 0.0 -1.229956391268e+02 
-1.059169929622e+02 4.505353040379e+01 0.0 
4.505353040379e+01 -2.170952575821e+02 0.0 
0.0 0.0 -9.650367516330e+01 
-4.516509218572e+01 2.690101751109e-01 0.0 
2.690101751109e-01 -4.520951505586e+01 0.0 
0.0 0.0 -2.671238217248e+01 
-6.658818128338e+01 -1.685947679648e+01 0.0 
-1.685947679648e+01 -1.439304285518e+02 0.0 
0.0 0.0 -6.086615720301e+01 
-6.482015384804e+01 -1.625313379124e+01 0.0 
-1.625313379124e+01 -1.438934214766e+02 0.0 
0.0 0.0 -5.967792560867e+01 
-5.957922031122e+01 4.029940316933e-01 0.0 
4.029940316933e-01 -8.902197283006e+01 0.0 
0.0 0.0 -4.418035794238e+01 
-1.120559713653e+02 2.994034553555e+01 0.0 
2.994034553555e+01 -2.812460145802e+02 0.0 
0.0 0.0 -1.175905957837e+02 
-4.587293295167e+01 6.894090779788e+00 0.0 
6.894090779788e+00 -8.372771628783e+00 0.0 
0.0 0.0 -1.581201205037e+01 
-3.648203491858e+01 2.202727445846e-01 0.0 
2.202727445846e-01 -2.480525434583e+01 0.0 
0.0 0.0 -1.798618677932e+01 
-4.328514778138e+01 8.015046817315e-01 0.0 
8.015046817315e-01 -4.082731921570e+01 0.0 
0.0 0.0 -2.483374009912e+01 
-4.674242961186e+01 2.125517723743e+00 0.0 
2.125517723743e+00 -4.680183441408e+01 0.0 
0.0 0.0 -2.766327920778e+01 
-4.061120309066e+01 -1.780927415016e+01 0.0 
-1.780927415016e+01 -1.133407863466e+02 0.0 
0.0 0.0 -4.594822884658e+01 
-6.032211365234e+01 -1.446094446743e+01 0.0 
-1.446094446743e+01 -1.285696243793e+02 0.0 
0.0 0.0 -5.318816061994e+01 
-8.859638254485e+01 1.298014168694e+01 0.0 
1.298014168694e+01 -1.836546585602e+02 0.0 
0.0 0.0 -8.127531233152e+01 
-5.485630403720e+01 2.989802148162e+00 0.0 
2.989802148162e+00 -6.634784932466e+01 0.0 
0.0 0.0 -3.596124600856e+01 
-1.377453004198e+02 2.761805318086e+01 0.0 
2.761805318086e+01 -3.372036010543e+02 0.0 
0.0 0.0 -1.420846704422e+02 
-1.149815583125e+02 4.751903681790e+01 0.0 
4.751903681790e+01 -2.445842101262e+02 0.0 
0.0 0.0 -1.074697305316e+02 
-9.693637554744e+01 4.340426089500e+01 0.0 
4.340426089500e+01 -1.922024044421e+02 0.0 
0.0 0.0 -8.634163399685e+01 
-9.514413179374e+01 2.576458372774e+01 0.0 
2.576458372774e+01 -1.759251079425e+02 0.0 
0.0 0.0 -8.092077192087e+01 
-9.040301564889e+01 -4.829944614890e+00 0.0 
-4.829944614890e+00 -1.818166290096e+02 0.0 
0.0 0.0 -7.576090462408e+01 
-8.081646972881e+01 -5.165045805931e+00 0.0 
-5.165045805931e+00 -1.651539107653e+02 0.0 
0.0 0.0 -6.769442921192e+01 
-1.469083377114e+02 3.286834330665e+00 0.0 
3.286834330665e+00 -3.677252846194e+02 0.0 
0.0 0.0 -1.539900866992e+02 
-3.719292197200e+01 -1.948591974104e+01 0.0 
-1.948591974104e+01 -1.003900249342e+02 0.0 
0.0 0.0 -4.266926184908e+01 
-4.635495953907e+01 -1.308132667528e-01 0.0 
-1.308132667528e-01 -1.147091773730e+02 0.0 
0.0 0.0 -4.536039719191e+01 
-1.389933846612e+02 3.626499462567e+01 0.0 
3.626499462567e+01 -3.256512308761e+02 0.0 
0.0 0.0 -1.389933846612e+02 
-1.147877303080e+01 1.027057346684e+00 0.0 
1.027057346684e+00 -5.741522093480e+01 0.0 
0.0 0.0 -1.958029966071e+01 
-3.640292148751e+01 1.690406306454e-01 0.0 
1.690406306454e-01 -2.491228987623e+01 0.0 
0.0 0.0 -1.799456340912e+01 
-1.310863145599e+02 1.850925587581e+01 0.0 
1.850925587581e+01 -3.388026158641e+02 0.0 
0.0 0.0 -1.405666791272e+02 
-7.317302843320e+00 -2.290903306617e+00 0.0 
-2.290903306617e+00 -3.944409142715e+01 0.0 
0.0 0.0 -1.148243250372e+01 
-3.495797328428e-02 4.465470781518e-01 0.0 
4.465470781518e-01 -2.373611557683e+01 0.0 
0.0 0.0 -4.657494801579e+00 
-9.609423778664e+01 2.194218646598e+01 0.0 
2.194218646598e+01 -2.081062450723e+02 0.0 
0.0 0.0 -9.086014485767e+01 
-3.222555518503e+01 -4.104355591417e-01 0.0 
-4.104355591417e-01 -8.089155455403e+00 0.0 
0.0 0.0 -1.169441319213e+01 
-8.936133478808e+01 1.704515640359e+01 0.0 
1.704515640359e+01 -1.820426594029e+02 0.0 
0.0 0.0 -8.102119825729e+01 
-1.322566197300e+02 2.033866842510e+01 0.0 
2.033866842510e+01 -3.370061433503e+02 0.0 
0.0 0.0 -1.403788289241e+02 
-3.174601306978e+01 3.746031681750e-01 0.0 
3.746031681750e-01 -7.944931731158e+00 0.0 
0.0 0.0 -1.150728344028e+01 
-4.501933820009e+01 8.568212179226e+00 0.0 
8.568212179226e+00 -1.248583469055e+02 0.0 
0.0 0.0 -5.202434316557e+01 
-8.068564775836e+01 3.636247891755e+00 0.0 
3.636247891755e+00 -1.774562439575e+02 0.0 
0.0 0.0 -7.704256751475e+01 
-1.487861742203e+01 -2.882295353077e-01 0.0 
-2.882295353077e-01 -6.339204801038e+01 0.0 
0.0 0.0 -2.151252493741e+01 
-8.293415946097e+01 1.426403450236e+01 0.0 
1.426403450236e+01 -1.668259636014e+02 0.0 
0.0 0.0 -7.452803691870e+01 
-1.695938259999e+02 7.764337411490e-01 0.0 
7.764337411490e-01 -3.970522606665e+02 0.0 
0.0 0.0 -1.695938259999e+02 
-1.084088207191e+02 4.249784454836e+01 0.0 
4.249784454836e+01 -2.242739293454e+02 0.0 
0.0 0.0 -9.940482501935e+01 
-4.421485026233e+01 -1.720600925084e+01 0.0 
-1.720600925084e+01 -1.239256474847e+02 0.0 
0.0 0.0 -4.780196175760e+01 
-6.361344520686e+01 1.175063991703e+01 0.0 
1.175063991703e+01 -5.043697871942e+01 0.0 
0.0 0.0 -3.381512717788e+01 
-9.040037556752e+01 -2.017006148143e+00 0.0 
-2.017006148143e+00 -1.838466566931e+02 0.0 
0.0 0.0 -7.683702949467e+01 
-1.046537228148e+02 2.888371206483e+01 0.0 
2.888371206483e+01 -2.636920896408e+02 0.0 
0.0 0.0 -1.101037437367e+02 
-1.436001513549e+02 3.176558641012e+01 0.0 
3.176558641012e+01 -3.446712163784e+02 0.0 
0.0 0.0 -1.460814103200e+02 
-6.640913317431e+01 1.196004095651e+00 0.0 
1.196004095651e+00 -1.111729769574e+02 0.0 
0.0 0.0 -5.287463303951e+01 
-1.448162012898e+02 2.863036246137e+01 0.0 
2.863036246137e+01 -3.512189164577e+02 0.0 
0.0 0.0 -1.484105353242e+02 
-4.156362705791e+01 -1.609797038674e+01 0.0 
-1.609797038674e+01 -1.186892220166e+02 0.0 
0.0 0.0 -5.024954787136e+01 
-1.614306288826e+02 1.728806711059e+00 0.0 
1.728806711059e+00 -3.832741714407e+02 0.0 
0.0 0.0 -1.630114400970e+02 
-4.433189670409e+01 -2.263766047001e+01 0.0 
-2.263766047001e+01 -1.132910202192e+02 0.0 
0.0 0.0 -4.064734921457e+01 
-1.114500924320e+01 -8.177807148333e-01 0.0 
-8.177807148333e-01 -5.664277361947e+01 0.0 
0.0 0.0 -1.920994506395e+01 
-1.455960005517e+02 1.718741537764e+01 0.0 
1.718741537764e+01 -3.653379979806e+02 0.0 
0.0 0.0 -1.528801995597e+02 
-1.049378612233e+02 3.514806429389e+01 0.0 
3.514806429389e+01 -2.118199068295e+02 0.0 
0.0 0.0 -9.462733041584e+01 
-9.259238557329e+01 2.261343002116e+01 0.0 
2.261343002116e+01 -1.938287545067e+02 0.0 
0.0 0.0 -8.552634202398e+01 
-3.689640659041e+01 -3.578982028710e-01 0.0 
-3.578982028710e-01 -2.345189453588e+01 0.0 
0.0 0.0 -1.770449033789e+01 
-7.207991050019e+01 2.246354502896e+01 0.0 
2.246354502896e+01 -6.873295584172e+01 0.0 
0.0 0.0 -4.184385990257e+01 
-4.051164244133e+01 2.782973254226e+01 0.0 
2.782973254226e+01 -5.975660170746e+01 0.0 
0.0 0.0 -2.592920967712e+01 
-1.214486201511e+02 5.027722183943e+01 0.0 
5.027722183943e+01 -2.683796675654e+02 0.0 
0.0 0.0 -1.165484863149e+02 
-7.591653545495e+01 -3.229354185578e+00 0.0 
-3.229354185578e+00 -1.522502743113e+02 0.0 
0.0 0.0 -6.293900377411e+01 
-2.998464185317e+01 2.288664620771e+01 0.0 
2.288664620771e+01 -5.943118484837e+01 0.0 
0.0 0.0 -2.172860278790e+01 
-1.089509662510e+02 2.673658457273e+01 0.0 
2.673658457273e+01 -2.771804860341e+02 0.0 
0.0 0.0 -1.154394356855e+02 
-2.979449557143e+01 2.261324135913e-01 0.0 
2.261324135913e-01 -7.494425361995e+00 0.0 
0.0 0.0 -1.078667628003e+01 
-9.714758671699e+01 3.224915974245e+01 0.0 
3.224915974245e+01 -1.965637140400e+02 0.0 
0.0 0.0 -8.771339022711e+01 
-8.707978645264e+01 9.874481056704e-01 0.0 
9.874481056704e-01 -1.947637250941e+02 0.0 
0.0 0.0 -8.415305346402e+01 
-8.343917588106e+01 1.463366494305e+00 0.0 
1.463366494305e+00 -1.960247437225e+02 0.0 
0.0 0.0 -8.343917588106e+01 
2.376481818331e-02 8.184322760064e-02 0.0 
8.184322760064e-02 -6.078873910890e+00 0.0 
0.0 0.0 -1.069999648406e+00 
9.999982838551e-01 -4.495245495938e-03 0.0 
-4.495245495938e-03 -1.077478219084e+01 0.0 
0.0 0.0 -7.828200430025e-01 
-3.033538812031e+01 4.971176585352e-01 0.0 
4.971176585352e-01 -1.031171562778e+01 0.0 
0.0 0.0 -1.179413112443e+01 
-2.953938913586e+01 -2.477635337652e-01 0.0 
-2.477635337652e-01 -7.383308650731e+00 0.0 
0.0 0.0 -1.067680933598e+01 
-1.687787423662e+02 -4.028444939175e-02 0.0 
-4.028444939175e-02 -3.951503988546e+02 0.0 
0.0 0.0 -1.687787423662e+02 
-1.677978687270e+02 -7.479128080659e-01 0.0 
-7.479128080659e-01 -3.925931307004e+02 0.0 
0.0 0.0 -1.677172998282e+02 
-2.500687979393e-01 -4.320568711333e-01 0.0 
-4.320568711333e-01 -2.294920095858e+01 0.0 
0.0 0.0 -4.376036343193e+00 
-3.810153654813e+01 -3.850757337531e+00 0.0 
-3.850757337531e+00 -1.139017938058e+02 0.0 
0.0 0.0 -4.610142545339e+01 
-1.539253862359e+02 -4.336972568820e-01 0.0 
-4.336972568820e-01 -3.641868721676e+02 0.0 
0.0 0.0 -1.550336775210e+02 
-1.170337505012e+02 3.394689481472e+01 0.0 
3.394689481472e+01 -2.886712727838e+02 0.0 
0.0 0.0 -1.213115069855e+02 
-1.824262985848e+01 -2.903951576928e-02 0.0 
-2.903951576928e-02 -7.371582894154e+01 0.0 
0.0 0.0 -2.653974897856e+01 
-1.547974419204e+02 1.844965689167e+00 0.0 
1.844965689167e+00 -3.715752435851e+02 0.0 
0.0 0.0 -1.575118056517e+02 
-1.198349615731e+02 -1.869539931036e-01 0.0 
-1.869539931036e-01 -2.600884484530e+02 0.0 
0.0 0.0 -1.106941507803e+02 
-1.077151813417e+02 1.958971533475e-01 0.0 
1.958971533475e-01 -2.241002480171e+02 0.0 
0.0 0.0 -9.496688468110e+01 
-5.684765707579e+01 1.381548423823e+00 0.0 
1.381548423823e+00 -7.628114610863e+01 0.0 
0.0 0.0 -3.953864095533e+01 
-4.623702288478e+01 -2.540733783246e+01 0.0 
-2.540733783246e+01 -9.688352436548e+01 0.0 
0.0 0.0 -3.652910798820e+01 
-9.706772466630e+01 2.776856226554e+01 0.0 
2.776856226554e+01 -2.457197768995e+02 0.0 
0.0 0.0 -1.024362504697e+02 
-1.216883137955e+01 5.952522826365e-01 0.0 
5.952522826365e-01 -5.912263843413e+01 0.0 
0.0 0.0 -1.961272217279e+01 
-1.004920379178e+02 -2.433071546076e+00 0.0 
-2.433071546076e+00 -2.047258660483e+02 0.0 
0.0 0.0 -8.621972233473e+01 
-1.125328271533e+02 4.568866737322e+01 0.0 
4.568866737322e+01 -2.541079846328e+02 0.0 
0.0 0.0 -1.095922435358e+02 
-7.729855696517e+01 1.067206336849e+00 0.0 
1.067206336849e+00 -1.520069986833e+02 0.0 
0.0 0.0 -6.839166669455e+01 
-1.081074371854e+02 -1.428108404026e+00 0.0 
-1.428108404026e+00 -2.229595722276e+02 0.0 
0.0 0.0 -9.476147527185e+01 
-4.863954440969e+01 1.349613221039e+00 0.0 
1.349613221039e+00 -5.540454507515e+01 0.0 
0.0 0.0 -3.081322684545e+01 
-1.150026781273e+02 3.819900325613e+01 0.0 
3.819900325613e+01 -2.766574115648e+02 0.0 
0.0 0.0 -1.170980269076e+02 
-1.095032293515e+02 4.633706111113e+01 0.0 
4.633706111113e+01 -2.340088443281e+02 0.0 
0.0 0.0 -1.026536221039e+02 
-1.031739734952e+02 4.486958960663e+01 0.0 
4.486958960663e+01 -2.131421634824e+02 0.0 
0.0 0.0 -9.449484109328e+01 
-3.094371232947e+01 2.617676860551e-02 0.0 
2.617676860551e-02 -8.126861756133e+00 0.0 
0.0 0.0 -1.132117222568e+01 
-9.406813553610e+01 2.491364708430e+01 0.0 
2.491364708430e+01 -2.416730943067e+02 0.0 
0.0 0.0 -1.003223689528e+02 
-1.001511419278e+02 3.695652653427e+01 0.0 
3.695652653427e+01 -2.073401144303e+02 0.0 
0.0 0.0 -9.184737690744e+01 
-5.316447758281e+01 -2.827506965547e+00 0.0 
-2.827506965547e+00 -1.146137340218e+02 0.0 
0.0 0.0 -4.552357367229e+01 
8.402981856481e-01 1.895028650976e+00 0.0 
1.895028650976e+00 -2.148649210777e+01 0.0 
0.0 0.0 -1.537016440551e+00 
-1.124188278746e+02 3.945422219312e+01 0.0 
3.945422219312e+01 -2.674270666408e+02 0.0 
0.0 0.0 -1.135537683546e+02 
-1.183249655511e+02 1.718102603602e+01 0.0 
1.718102603602e+01 -3.085247151373e+02 0.0 
0.0 0.0 -1.276549042065e+02 
-4.083783036555e+01 -2.433418585506e+01 0.0 
-2.433418585506e+01 -8.567574170452e+01 0.0 
0.0 0.0 -3.135267977379e+01 
-6.137351480458e+01 1.962930350540e+00 0.0 
1.962930350540e+00 -9.079817259651e+01 0.0 
0.0 0.0 -4.525150622033e+01 
-1.610818490763e+02 4.865894199278e-01 0.0 
4.865894199278e-01 -3.789353311151e+02 0.0 
0.0 0.0 -1.616051540574e+02 
-1.139195003852e+02 3.560226710032e+01 0.0 
3.560226710032e+01 -2.780806424563e+02 0.0 
0.0 0.0 -1.172000428524e+02 
-1.160362130417e+02 3.666237313936e+01 0.0 
3.666237313936e+01 -2.819645902306e+02 0.0 
0.0 0.0 -1.190002409817e+02 
-1.255906681631e+02 5.106619259216e-01 0.0 
5.106619259216e-01 -2.813633273163e+02 0.0 
0.0 0.0 -1.198064931255e+02 
-3.771566860454e+01 2.058931682444e+01 0.0 
2.058931682444e+01 -9.913514745096e+01 0.0 
0.0 0.0 -4.240742066771e+01 
-2.478851338360e+01 1.777988040469e+01 0.0 
1.777988040469e+01 -1.966809660809e+01 0.0 
0.0 0.0 -1.048920076239e+01 
-4.406365495888e+01 2.938799977787e+01 0.0 
2.938799977787e+01 -6.362032995897e+01 0.0 
0.0 0.0 -2.891245187839e+01 
-6.505639422488e+01 1.325719376122e+01 0.0 
1.325719376122e+01 -4.803002186628e+01 0.0 
0.0 0.0 -3.352592482735e+01 
-9.511390217499e+01 2.528435287762e+01 0.0 
2.528435287762e+01 -2.438815421923e+02 0.0 
0.0 0.0 -1.021153571111e+02 
-8.426768234021e+01 1.194656153992e+01 0.0 
1.194656153992e+01 -1.683925079493e+02 0.0 
0.0 0.0 -7.539805708687e+01 
-1.408232642971e+02 2.303242817734e+01 0.0 
2.303242817734e+01 -3.446872754594e+02 0.0 
0.0 0.0 -1.452531619270e+02 
-3.004248552150e+01 -1.489616667721e+01 0.0 
-1.489616667721e+01 -5.295872096053e+01 0.0 
0.0 0.0 -1.979597328341e+01 
-1.144865845148e+01 -3.887544255369e+00 0.0 
-3.887544255369e+00 -4.059847753612e+01 0.0 
0.0 0.0 -1.160339267626e+01 
-2.720247088086e+01 1.854046324555e+01 0.0 
1.854046324555e+01 -2.122344643411e+01 0.0 
0.0 0.0 -1.105005194653e+01 
-6.244979438172e+01 1.529126152771e+00 0.0 
1.529126152771e+00 -9.603056129005e+01 0.0 
0.0 0.0 -4.714410670153e+01 
-6.749803133120e+01 -2.469104848331e+00 0.0 
-2.469104848331e+00 -1.428960951103e+02 0.0 
0.0 0.0 -5.776139400018e+01 
-9.716405124942e+01 2.916235898619e+01 0.0 
2.916235898619e+01 -1.885598123371e+02 0.0 
0.0 0.0 -8.531715907596e+01 
-1.637902578004e+01 7.080540879645e-01 0.0 
7.080540879645e-01 -6.921390909824e+01 0.0 
0.0 0.0 -2.512152161751e+01 
-1.280340713590e+02 2.194502782925e+01 0.0 
2.194502782925e+01 -3.289941375488e+02 0.0 
0.0 0.0 -1.367084626724e+02 
-4.919664018691e+01 2.146528140120e+00 0.0 
2.146528140120e+00 -4.083504192972e+01 0.0 
0.0 0.0 -2.660950463499e+01 
-1.323689450684e+02 3.185280139063e+01 0.0 
3.185280139063e+01 -3.194384633631e+02 0.0 
0.0 0.0 -1.351422225295e+02 
-1.072896442492e+02 3.105430802212e+01 0.0 
3.105430802212e+01 -2.675547143683e+02 0.0 
0.0 0.0 -1.120533075853e+02 
-7.017878439010e+01 1.900147888266e+01 0.0 
1.900147888266e+01 -5.440535718850e+01 0.0 
0.0 0.0 -3.697524247358e+01 
-1.501025631730e+02 1.148595861591e+01 0.0 
1.148595861591e+01 -3.765159734709e+02 0.0 
0.0 0.0 -1.575855609932e+02 
-1.009774901752e+02 3.176322167999e+01 0.0 
3.176322167999e+01 -2.063246279128e+02 0.0 
0.0 0.0 -9.179063542640e+01 
-8.545516185828e+01 2.340108723109e+00 0.0 
2.340108723109e+00 -1.804670048181e+02 0.0 
0.0 0.0 -7.937665000292e+01 
-2.696342046428e+01 1.820769532777e+01 0.0 
1.820769532777e+01 -2.019627850479e+01 0.0 
0.0 0.0 -9.908938294763e+00 
-8.997274963781e+01 2.324941039603e+01 0.0 
2.324941039603e+01 -1.734425494194e+02 0.0 
0.0 0.0 -7.862458971717e+01 
-1.235257044495e+02 4.233515995806e+01 0.0 
4.233515995806e+01 -2.921347314069e+02 0.0 
0.0 0.0 -1.242981307569e+02 
-1.273797189476e+02 2.295597619678e+01 0.0 
2.295597619678e+01 -3.266007136572e+02 0.0 
0.0 0.0 -1.357941297814e+02 
-1.119087204015e+02 2.938639840105e+01 0.0 
2.938639840105e+01 -2.815589651064e+02 0.0 
0.0 0.0 -1.176403056524e+02 
-1.703921763499e+02 3.300231407213e+00 0.0 
3.300231407213e+00 -3.989150781498e+02 0.0 
0.0 0.0 -1.703921763499e+02 
-1.002101079779e+02 4.228814323057e+01 0.0 
4.228814323057e+01 -2.113779203522e+02 0.0 
0.0 0.0 -9.307640849902e+01 
-4.153476347983e+01 2.444995254354e+01 0.0 
2.444995254354e+01 -9.902023162452e+01 0.0 
0.0 0.0 -4.271824143183e+01 
-3.208055338627e+01 2.414893419421e+01 0.0 
2.414893419421e+01 -5.248740710328e+01 0.0 
0.0 0.0 -1.898931069243e+01 
-1.112715259360e+02 4.650880673434e+01 0.0 
4.650880673434e+01 -2.379456756578e+02 0.0 
0.0 0.0 -1.043651604781e+02 
-6.792717064635e+01 1.291073631806e+01 0.0 
1.291073631806e+01 -6.488085353199e+01 0.0 
0.0 0.0 -3.944240725350e+01 
-1.544280636942e+02 7.542384763561e-01 0.0 
7.542384763561e-01 -3.625437381721e+02 0.0 
0.0 0.0 -1.546915405599e+02 
-1.151843781273e+02 3.222335266775e+01 0.0 
3.222335266775e+01 -2.862840938270e+02 0.0 
0.0 0.0 -1.200405415863e+02 
-1.617948347214e+02 2.323969329338e+00 0.0 
2.323969329338e+00 -3.845592533940e+02 0.0 
0.0 0.0 -1.635062264346e+02 
-6.939765312320e+01 2.731815597646e+00 0.0 
2.731815597646e+00 -1.178477400825e+02 0.0 
0.0 0.0 -5.577361796170e+01 
-1.350732737040e+02 3.033616739586e+01 0.0 
3.033616739586e+01 -3.253073402694e+02 0.0 
0.0 0.0 -1.377141841920e+02 
-1.475729875461e+02 7.655496997608e+00 0.0 
7.655496997608e+00 -3.693376721487e+02 0.0 
0.0 0.0 -1.546731979084e+02 
-1.441313418183e+02 7.544469211713e+00 0.0 
7.544469211713e+00 -3.678540625032e+02 0.0 
0.0 0.0 -1.531956212964e+02 
-7.006355820039e+01 -1.666129463211e+00 0.0 
-1.666129463211e+00 -1.474217915244e+02 0.0 
0.0 0.0 -6.033250471148e+01 
-1.681817819673e+02 1.817183930210e+00 0.0 
1.817183930210e+00 -3.975810881571e+02 0.0 
0.0 0.0 -1.693288610373e+02 
-4.541877140199e+01 3.451824966935e+00 0.0 
3.451824966935e+00 -2.605169319504e+01 0.0 
0.0 0.0 -2.104113937911e+01 
-8.138210977907e+01 6.682086055269e+00 0.0 
6.682086055269e+00 -1.609976112835e+02 0.0 
0.0 0.0 -7.231391631876e+01 
-1.973957578324e+01 -4.069733612388e+00 0.0 
-4.069733612388e+00 -4.533713791354e+01 0.0 
0.0 0.0 -1.502420534985e+01 
-7.759549039757e+01 3.159142277195e+00 0.0 
3.159142277195e+00 -1.449712076816e+02 0.0 
0.0 0.0 -6.637000942375e+01 
-6.291860809822e+01 2.174063560431e+00 0.0 
2.174063560431e+00 -9.296762992739e+01 0.0 
0.0 0.0 -4.636587140768e+01 
-5.267180761142e+00 2.131957952221e-01 0.0 
2.131957952221e-01 -4.259099228003e+01 0.0 
0.0 0.0 -1.118867461101e+01 
-4.596280026540e+01 -1.931865826763e+01 0.0 
-1.931865826763e+01 -1.250150334611e+02 0.0 
0.0 0.0 -5.064869100133e+01 
-1.040243796517e+02 4.369643535741e+01 0.0 
4.369643535741e+01 -2.291975743717e+02 0.0 
0.0 0.0 -9.956658620702e+01 
-8.535586297589e+01 1.637545603788e+01 0.0 
1.637545603788e+01 -1.834093966328e+02 0.0 
0.0 0.0 -8.022957788261e+01 
-8.070859809926e+01 3.620025875128e+00 0.0 
3.620025875128e+00 -1.634874848052e+02 0.0 
0.0 0.0 -7.285882487134e+01 
-1.289418027133e+02 2.879307155740e+01 0.0 
2.879307155740e+01 -3.242861532152e+02 0.0 
0.0 0.0 -1.355683867785e+02 
-4.915897535674e+01 6.894058555127e-01 0.0 
6.894058555127e-01 -5.438616238343e+01 0.0 
0.0 0.0 -3.066354132205e+01 
-8.713162980329e-02 7.261800302657e-01 0.0 
7.261800302657e-01 -2.339589708122e+01 0.0 
0.0 0.0 -5.897023805461e+00 
-4.008393611165e+01 1.781168041273e+01 0.0 
1.781168041273e+01 -1.119153383308e+02 0.0 
0.0 0.0 -4.749123099203e+01 
5.913853731522e-01 -8.017844274147e-01 0.0 
-8.017844274147e-01 -2.833267032994e+01 0.0 
0.0 0.0 -7.460863829176e+00 
-2.382932951540e+01 -3.735062587129e+00 0.0 
-3.735062587129e+00 -5.627053968268e+01 0.0 
0.0 0.0 -1.873387311664e+01 
-3.078928738971e+01 2.337071904021e+01 0.0 
2.337071904021e+01 -4.529015791456e+01 0.0 
0.0 0.0 -2.327428480597e+01 
-9.682689429260e+01 -3.667346225745e+00 0.0 
-3.667346225745e+00 -1.986898441337e+02 0.0 
0.0 0.0 -8.352595297005e+01 
-1.540574345312e+02 -8.873651485592e-01 0.0 
-8.873651485592e-01 -3.623350724550e+02 0.0 
0.0 0.0 -1.545177520959e+02 
-1.062299368990e+02 4.124394299666e+01 0.0 
4.124394299666e+01 -2.236035935066e+02 0.0 
0.0 0.0 -9.855005912167e+01 
-8.006211987524e+01 2.631891012541e+01 0.0 
2.631891012541e+01 -7.984538669122e+01 0.0 
0.0 0.0 -4.757225196994e+01 
-8.626037497475e+01 -3.536010988684e+00 0.0 
-3.536010988684e+00 -1.752111067776e+02 0.0 
0.0 0.0 -7.219418275791e+01 
-1.495095139153e+02 3.981005960213e+00 0.0 
3.981005960213e+00 -3.691206716895e+02 0.0 
0.0 0.0 -1.551890556815e+02 
-1.325723164501e+02 1.387171588718e+01 0.0 
1.387171588718e+01 -3.448606137060e+02 0.0 
0.0 0.0 -1.428298790468e+02 
-1.268364307086e+02 3.299387444829e+01 0.0 
3.299387444829e+01 -3.150880835941e+02 0.0 
0.0 0.0 -1.321773542908e+02 
-1.185131638670e+02 4.050281312071e+01 0.0 
4.050281312071e+01 -2.819719592691e+02 0.0 
0.0 0.0 -1.197455369408e+02 
-1.101023307380e+02 4.493120548900e+01 0.0 
4.493120548900e+01 -2.489275725800e+02 0.0 
0.0 0.0 -1.073089709954e+02 
-1.729380907684e+01 -5.189933333568e+00 0.0 
-5.189933333568e+00 -4.198839739002e+01 0.0 
0.0 0.0 -1.510199521050e+01 
-3.445593352256e+01 -1.338551837664e+01 0.0 
-1.338551837664e+01 -1.041681295219e+02 0.0 
0.0 0.0 -4.334967520953e+01 
-1.545004868080e+02 6.657064304353e-01 0.0 
6.657064304353e-01 -3.649339347280e+02 0.0 
0.0 0.0 -1.554303264608e+02 
-4.167177468899e+00 -2.246953207643e-01 0.0 
-2.246953207643e-01 -3.995205155151e+01 0.0 
0.0 0.0 -1.097188448417e+01 
-7.862196926915e+00 -1.009765198217e+00 0.0 
-1.009765198217e+00 -4.873437604246e+01 0.0 
0.0 0.0 -1.488966335808e+01 
-4.512124253833e+01 2.970561048959e+01 0.0 
2.970561048959e+01 -6.236699889439e+01 0.0 
0.0 0.0 -3.077380954620e+01 
-5.659530943266e+00 1.869822611030e+00 0.0 
1.869822611030e+00 -3.936587429504e+01 0.0 
0.0 0.0 -1.179990839850e+01 
-1.570605234235e+02 9.103721210734e+00 0.0 
9.103721210734e+00 -3.819827382427e+02 0.0 
0.0 0.0 -1.613129784999e+02 
-1.210594791676e+02 4.581309816882e+01 0.0 
4.581309816882e+01 -2.782511866551e+02 0.0 
0.0 0.0 -1.193931997468e+02 
-8.177058435442e+01 9.931208712016e+00 0.0 
9.931208712016e+00 -1.674899854927e+02 0.0 
0.0 0.0 -7.437817095413e+01 
-1.308676475405e+02 3.366355600823e+01 0.0 
3.366355600823e+01 -3.163262652875e+02 0.0 
0.0 0.0 -1.337581738484e+02 
-1.288134448965e+02 1.532138360642e+01 0.0 
1.532138360642e+01 -3.350658180613e+02 0.0 
0.0 0.0 -1.387637788873e+02 
-5.328596285602e+01 8.789065165272e-01 0.0 
8.789065165272e-01 -6.595658367028e+01 0.0 
0.0 0.0 -3.537276395789e+01 
-8.827757891790e+01 2.271235483278e+01 0.0 
2.271235483278e+01 -2.073143508084e+02 0.0 
0.0 0.0 -8.827757891790e+01 
-5.539859911307e+01 -2.611143444125e+01 0.0 
-2.611143444125e+01 -1.368193821685e+02 0.0 
0.0 0.0 -5.402814763741e+01 
-3.013275838834e+01 2.651439701832e-02 0.0 
2.651439701832e-02 -7.226061479009e+00 0.0 
0.0 0.0 -1.080764596021e+01 
-4.547638144487e+01 -2.495126141067e+01 0.0 
-2.495126141067e+01 -7.893572202983e+01 0.0 
0.0 0.0 -3.052773083361e+01 
9.952918098273e-01 -3.466236130648e-01 0.0 
-3.466236130648e-01 -2.451892016413e+01 0.0 
0.0 0.0 -4.440957774571e+00 
-1.685899912204e+02 3.415593871395e-01 0.0 
3.415593871395e-01 -3.962157855089e+02 0.0 
0.0 0.0 -1.690417330188e+02 
-7.072552578594e+01 1.678863058777e+01 0.0 
1.678863058777e+01 -4.109955738581e+01 0.0 
0.0 0.0 -3.314752495152e+01 
-1.159127954392e+01 3.769700283118e-01 0.0 
3.769700283118e-01 -5.775259887409e+01 0.0 
0.0 0.0 -1.887192743761e+01 
-9.405365571583e+01 -3.270718347138e+00 0.0 
-3.270718347138e+00 -1.902851221993e+02 0.0 
0.0 0.0 -7.997498657911e+01 
-1.199017382497e+02 4.676622865436e+01 0.0 
4.676622865436e+01 -2.727758038088e+02 0.0 
0.0 0.0 -1.174032626176e+02 
-8.802764016963e+01 1.621145990279e+01 0.0 
1.621145990279e+01 -1.697818511889e+02 0.0 
0.0 0.0 -7.694284740756e+01 
-9.818417528189e+01 3.505542717803e+01 0.0 
3.505542717803e+01 -2.124795182937e+02 0.0 
0.0 0.0 -9.279910807267e+01 
-6.130176145851e+01 -3.304168727356e-01 0.0 
-3.304168727356e-01 -1.335681106639e+02 0.0 
0.0 0.0 -5.428938247121e+01 
-4.695989120770e+01 2.630719529427e+00 0.0 
2.630719529427e+00 -1.423459337284e+02 0.0 
0.0 0.0 -5.872158042431e+01 
-1.593021987047e+02 2.907767413502e+00 0.0 
2.907767413502e+00 -3.836129335539e+02 0.0 
0.0 0.0 -1.624745396776e+02 
-8.937177423123e+01 2.001980559787e+00 0.0 
2.001980559787e+00 -1.984765191899e+02 0.0 
0.0 0.0 -8.595448802635e+01 
-1.685637189181e+02 4.464151298758e-02 0.0 
4.464151298758e-02 -3.949889703190e+02 0.0 
0.0 0.0 -1.686658067711e+02 
-3.500751822718e+01 -4.897346127948e-01 0.0 
-4.897346127948e-01 -2.175729039321e+01 0.0 
0.0 0.0 -1.662944258612e+01 
-1.373212973511e+02 1.603966284408e+01 0.0 
1.603966284408e+01 -3.486871193544e+02 0.0 
0.0 0.0 -1.454025250116e+02 
-1.205519889805e+01 2.564553021312e-01 0.0 
2.564553021312e-01 -5.887096565627e+01 0.0 
0.0 0.0 -1.997936568672e+01 
-9.345154210816e+01 2.692691216862e+01 0.0 
2.692691216862e+01 -1.872317334019e+02 0.0 
0.0 0.0 -8.380498265303e+01 
9.994240834562e-01 1.193881551597e-01 0.0 
1.193881551597e-01 -2.374930047643e+01 0.0 
0.0 0.0 -4.834315342544e+00 
-1.530815902320e+02 1.412318335872e+01 0.0 
1.412318335872e+01 -3.727151153532e+02 0.0 
0.0 0.0 -1.573390116756e+02 
-1.055539411544e+02 3.774776164709e+01 0.0 
3.774776164709e+01 -2.188149188795e+02 0.0 
0.0 0.0 -9.691065801019e+01 
-4.235963415748e+01 1.506696133888e+01 0.0 
1.506696133888e+01 -1.222197674400e+02 0.0 
0.0 0.0 -5.074009468301e+01 
-1.132446324878e+02 3.566880202071e+01 0.0 
3.566880202071e+01 -2.762012911472e+02 0.0 
0.0 0.0 -1.164337770905e+02 
-6.720299757614e+01 3.396055903277e+00 0.0 
3.396055903277e+00 -1.077929499751e+02 0.0 
0.0 0.0 -5.209878426537e+01 
-8.317067419251e+01 1.202537621623e+01 0.0 
1.202537621623e+01 -1.819298591418e+02 0.0 
0.0 0.0 -7.913016000029e+01 
-1.498888969071e+02 2.914004250717e+01 0.0 
2.914004250717e+01 -3.510740927833e+02 0.0 
0.0 0.0 -1.498888969071e+02 
-5.681072035501e+01 1.829602803703e+00 0.0 
1.829602803703e+00 -8.003304807645e+01 0.0 
0.0 0.0 -4.065313052944e+01 
-1.188867817515e+02 4.637170967800e+01 0.0 
4.637170967800e+01 -2.708014608261e+02 0.0 
0.0 0.0 -1.165064727733e+02 
-1.019759836781e+02 3.497671146668e+01 0.0 
3.497671146668e+01 -1.998869829653e+02 0.0 
0.0 0.0 -9.015888999302e+01 
-5.992324814367e+01 1.595801890275e+00 0.0 
1.595801890275e+00 -9.145126653201e+01 0.0 
0.0 0.0 -4.501235440270e+01 
-1.142458837437e+02 4.501979569840e+01 0.0 
4.501979569840e+01 -2.607052805063e+02 0.0 
0.0 0.0 -1.120853492750e+02 
-8.073258709617e+01 -1.868185256857e+00 0.0 
-1.868185256857e+00 -1.623988736908e+02 0.0 
0.0 0.0 -6.742413659948e+01 
-2.943673707345e+01 9.554230362388e-02 0.0 
9.554230362388e-02 -7.237182392706e+00 0.0 
0.0 0.0 -1.060217583985e+01 
-1.212374657720e+02 3.252054229381e+01 0.0 
3.252054229381e+01 -3.014039384463e+02 0.0 
0.0 0.0 -1.263924212655e+02 
-8.297439691717e+01 9.871656345323e-01 0.0 
9.871656345323e-01 -1.816292587779e+02 0.0 
0.0 0.0 -7.898109670853e+01 
9.996756563773e-01 5.642802710162e-02 0.0 
5.642802710162e-02 -8.817126097582e+00 0.0 
0.0 0.0 7.736435355921e-01 
-2.898290830149e+01 -7.113260525292e-02 0.0 
-7.113260525292e-02 -7.013414381864e+00 0.0 
0.0 0.0 -1.039889680501e+01 
-1.629834383254e+02 4.938999760566e-01 0.0 
4.938999760566e-01 -3.815973388253e+02 0.0 
0.0 0.0 -1.629742331452e+02 
-2.378189085350e+01 -3.102370697593e+00 0.0 
-3.102370697593e+00 -7.354496967522e+01 0.0 
0.0 0.0 -2.592786947821e+01 
-1.292436242202e+02 2.015528013521e+01 0.0 
2.015528013521e+01 -3.332416364962e+02 0.0 
0.0 0.0 -1.383455782149e+02 
-1.071518056453e+02 3.986135377060e+01 0.0 
3.986135377060e+01 -2.120162328673e+02 0.0 
0.0 0.0 -9.535041155378e+01 
-8.814134306164e+01 1.140621967411e+01 0.0 
1.140621967411e+01 -1.825162405709e+02 0.0 
0.0 0.0 -8.079727508975e+01 
-1.753204038192e+01 -1.298321187861e+00 0.0 
-1.298321187861e+00 -7.190628539669e+01 0.0 
0.0 0.0 -2.564369331989e+01 
-3.434187819679e+01 2.395597127112e+01 0.0 
2.395597127112e+01 -7.408419631264e+01 0.0 
0.0 0.0 -3.049606656672e+01 
-1.107534060936e+02 -1.544720287149e+00 0.0 
-1.544720287149e+00 -2.329535199435e+02 0.0 
0.0 0.0 -9.876984132034e+01 
-7.127221489309e+01 1.809035951318e+00 0.0 
1.809035951318e+00 -1.296584446425e+02 0.0 
0.0 0.0 -5.987919786068e+01 
-1.094334472733e+02 -2.580918367358e+00 0.0 
-2.580918367358e+00 -9.279106342792e+01 0.0 
0.0 0.0 -6.089173772318e+01 
-9.311654761630e+01 2.944498442417e+01 0.0 
2.944498442417e+01 -2.012015844134e+02 0.0 
0.0 0.0 -8.789543960891e+01 
-5.389890427801e+01 8.705160987727e-01 0.0 
8.705160987727e-01 -7.353284010594e+01 0.0 
0.0 0.0 -3.782952331518e+01 
-4.842184707764e+01 -2.278038370600e+01 0.0 
-2.278038370600e+01 -9.715392258806e+01 0.0 
0.0 0.0 -3.815885676586e+01 
-4.974749745479e+01 9.889119077479e-01 0.0 
9.889119077479e-01 -5.952751366636e+01 0.0 
0.0 0.0 -3.238250333635e+01 
-1.255143992814e+02 3.578276457740e+01 0.0 
3.578276457740e+01 -3.080084800372e+02 0.0 
0.0 0.0 -1.296568637956e+02 
-1.145761928625e+02 7.454205286146e-01 0.0 
7.454205286146e-01 -2.442944397796e+02 0.0 
0.0 0.0 -1.037884451988e+02 
-1.665804137354e+01 1.564561186159e+01 0.0 
1.564561186159e+01 -1.653457992055e+01 0.0 
0.0 0.0 -3.640044874247e+00 
-7.396917131218e+01 -3.802093307373e+00 0.0 
-3.802093307373e+00 -1.468547260518e+02 0.0 
0.0 0.0 -6.014662436259e+01 
-1.030102061110e+02 -3.378214883992e+00 0.0 
-3.378214883992e+00 -2.140701790829e+02 0.0 
0.0 0.0 -9.043492402046e+01 
-1.178955884943e+02 -1.550486243435e+00 0.0 
-1.550486243435e+00 -2.538373079203e+02 0.0 
0.0 0.0 -1.080747151986e+02 
-1.242570587136e+02 3.043893030805e+01 0.0 
3.043893030805e+01 -3.115986308777e+02 0.0 
0.0 0.0 -1.303567068774e+02 
-1.024999851085e+02 -8.423360029066e-01 0.0 
-8.423360029066e-01 -2.084577077745e+02 0.0 
0.0 0.0 -8.811442696134e+01 
-1.064482205200e+02 -2.262207254683e+00 0.0 
-2.262207254683e+00 -2.212698508283e+02 0.0 
0.0 0.0 -9.381982084426e+01 
-3.002242539420e+00 -4.503743208558e-01 0.0 
-4.503743208558e-01 -3.714263986913e+01 0.0 
0.0 0.0 -1.053954889049e+01 
-1.531723992323e+02 9.261765827988e-01 0.0 
9.261765827988e-01 -3.711851437601e+02 0.0 
0.0 0.0 -1.569072628977e+02 
-1.127612876764e+02 3.962409533503e+01 0.0 
3.962409533503e+01 -2.680355685143e+02 0.0 
0.0 0.0 -1.138390568572e+02 
-5.980852666447e+01 3.477312254308e+01 0.0 
3.477312254308e+01 -1.185158255563e+02 0.0 
0.0 0.0 -5.221405484382e+01 
-8.187882892065e+01 2.049413321364e+00 0.0 
2.049413321364e+00 -1.805170776255e+02 0.0 
0.0 0.0 -7.831877196385e+01 
-1.626193656187e+02 -6.172028604502e-01 0.0 
-6.172028604502e-01 -3.809717892224e+02 0.0 
0.0 0.0 -1.626773464523e+02 
-3.582497027273e+01 6.556146507717e-01 0.0 
6.556146507717e-01 -2.293830788742e+01 0.0 
0.0 0.0 -1.722898344805e+01 
-5.500832286582e+01 7.547357970501e-01 0.0 
7.547357970501e-01 -7.399604909534e+01 0.0 
0.0 0.0 -3.830131158835e+01 
-1.011692356891e+02 -2.893141554491e+00 0.0 
-2.893141554491e+00 -2.080654668546e+02 0.0 
0.0 0.0 -8.794738176284e+01 
-1.053733069034e+02 -1.769861321000e+00 0.0 
-1.769861321000e+00 -2.156432688300e+02 0.0 
0.0 0.0 -9.131228819644e+01 
-1.063600563351e+02 -1.318146860580e+00 0.0 
-1.318146860580e+00 -2.219892755347e+02 0.0 
0.0 0.0 -9.391942712859e+01 
-1.247207049317e+02 1.933483765748e+01 0.0 
1.933483765748e+01 -3.227406744392e+02 0.0 
0.0 0.0 -1.338384138113e+02 
-3.811340655003e+01 -1.748089343416e+01 0.0 
-1.748089343416e+01 -6.946053344653e+01 0.0 
0.0 0.0 -2.472705141612e+01 
-1.142642850032e+02 4.083214921774e+01 0.0 
4.083214921774e+01 -2.698032880879e+02 0.0 
0.0 0.0 -1.148202719273e+02 
-4.182081505384e+01 1.763833003567e-01 0.0 
1.763833003567e-01 -3.955847502447e+01 0.0 
0.0 0.0 -2.401378702349e+01 
-9.977390285257e+01 2.889227371163e+01 0.0 
2.889227371163e+01 -2.003686170864e+02 0.0 
0.0 0.0 -8.964275598171e+01 
-1.254465192981e+02 1.960820308669e+01 0.0 
1.960820308669e+01 -3.243300624845e+02 0.0 
0.0 0.0 -1.345329745348e+02 
-5.212818375133e+01 1.675753805130e+00 0.0 
1.675753805130e+00 -6.091398489159e+01 0.0 
0.0 0.0 -3.351265059288e+01 
-1.115551781592e+02 4.559996550653e+01 0.0 
4.559996550653e+01 -2.503020596928e+02 0.0 
0.0 0.0 -1.081571713556e+02 
-1.235104807715e+02 2.924627791449e+01 0.0 
2.924627791449e+01 -3.110539284948e+02 0.0 
0.0 0.0 -1.299693227799e+02 
-1.286945312155e+02 3.244023682576e+01 0.0 
3.244023682576e+01 -3.204849297406e+02 0.0 
0.0 0.0 -1.343538382868e+02 
-6.364151589537e+01 3.830384128307e+01 0.0 
3.830384128307e+01 -1.044920258344e+02 0.0 
0.0 0.0 -5.166597499196e+01 
-1.122401941540e+02 4.666594345811e+01 0.0 
4.666594345811e+01 -2.507036961965e+02 0.0 
0.0 0.0 -1.084831671051e+02 
-1.185356624265e+02 4.728252900754e+01 0.0 
4.728252900754e+01 -2.675897662359e+02 0.0 
0.0 0.0 -1.154376285987e+02 
-5.261468774315e+00 9.825051728172e-01 0.0 
9.825051728172e-01 -3.772924238583e+01 0.0 
0.0 0.0 -1.072682134126e+01 
-9.849249403774e+01 -1.872907639951e+00 0.0 
-1.872907639951e+00 -1.984066675636e+02 0.0 
0.0 0.0 -8.363518515430e+01 
-2.449015868066e+01 2.048548283688e+01 0.0 
2.048548283688e+01 -5.018214172435e+01 0.0 
0.0 0.0 -2.345554294027e+01 
-1.192139948191e+02 5.022538964622e+01 0.0 
5.022538964622e+01 -2.613866045256e+02 0.0 
0.0 0.0 -1.137801798034e+02 

TENSORS element_materi_strain_total float
-8.316377231683e-04 5.782946199476e-03 0.0 
5.782946199476e-03 5.361270072037e-03 0.0 
0.0 0.0 0.0 
-7.928606854055e-04 5.390372913808e-03 0.0 
5.390372913808e-03 5.090592560023e-03 0.0 
0.0 0.0 0.0 
-4.908993882908e-04 5.307316236341e-03 0.0 
5.307316236341e-03 1.253301000856e-02 0.0 
0.0 0.0 0.0 
-8.051771003993e-04 5.701326645546e-04 0.0 
5.701326645546e-04 1.731503187783e-02 0.0 
0.0 0.0 0.0 
-2.626953248047e-03 3.282309030460e-04 0.0 
3.282309030460e-04 1.560352730527e-02 0.0 
0.0 0.0 0.0 
4.681465529888e-03 7.077079819135e-03 0.0 
7.077079819135e-03 -7.201349046560e-03 0.0 
0.0 0.0 0.0 
-2.458270811248e-03 2.339457730651e-04 0.0 
2.339457730651e-04 1.559465876971e-02 0.0 
0.0 0.0 0.0 
-5.849786158685e-04 5.870123125224e-03 0.0 
5.870123125224e-03 4.301466407282e-03 0.0 
0.0 0.0 0.0 
-2.622357137279e-03 2.165726958392e-04 0.0 
2.165726958392e-04 1.559697904702e-02 0.0 
0.0 0.0 0.0 
-7.808930521029e-04 9.862578804352e-04 0.0 
9.862578804352e-04 1.726855151036e-02 0.0 
0.0 0.0 0.0 
-1.403511325018e-03 -3.737866017800e-04 0.0 
-3.737866017800e-04 4.406549571581e-03 0.0 
0.0 0.0 0.0 
-5.808633201958e-04 5.640040273640e-03 0.0 
5.640040273640e-03 4.374758130185e-03 0.0 
0.0 0.0 0.0 
-4.529038659974e-04 -2.691773964590e-04 0.0 
-2.691773964590e-04 5.685964044802e-03 0.0 
0.0 0.0 0.0 
-3.214160898698e-03 1.208468402225e-03 0.0 
1.208468402225e-03 1.581530639847e-02 0.0 
0.0 0.0 0.0 
-2.577127206452e-04 -4.013562802280e-04 0.0 
-4.013562802280e-04 5.674056665082e-03 0.0 
0.0 0.0 0.0 
-4.780678703312e-04 8.055339898919e-04 0.0 
8.055339898919e-04 1.730739067113e-02 0.0 
0.0 0.0 0.0 
-2.859286284352e-03 4.663354253855e-04 0.0 
4.663354253855e-04 1.548203155219e-02 0.0 
0.0 0.0 0.0 
4.937456381075e-03 3.187547967727e-03 0.0 
3.187547967727e-03 -8.169973951374e-03 0.0 
0.0 0.0 0.0 
8.018136237089e-04 -5.823380490071e-05 0.0 
-5.823380490071e-05 1.036116633021e-03 0.0 
0.0 0.0 0.0 
1.668028706767e-04 -2.151431260862e-04 0.0 
-2.151431260862e-04 1.345886014426e-03 0.0 
0.0 0.0 0.0 
-9.633765550409e-04 1.004565366962e-03 0.0 
1.004565366962e-03 1.726676262000e-02 0.0 
0.0 0.0 0.0 
-1.124573610159e-03 5.173339177000e-03 0.0 
5.173339177000e-03 6.699157720263e-03 0.0 
0.0 0.0 0.0 
-1.311735655009e-03 5.432445683891e-03 0.0 
5.432445683891e-03 7.176877469922e-03 0.0 
0.0 0.0 0.0 
1.630473221441e-03 7.648824588801e-04 0.0 
7.648824588801e-04 2.706991522128e-03 0.0 
0.0 0.0 0.0 
-3.280590300439e-03 2.323876003231e-03 0.0 
2.323876003231e-03 1.544371677077e-02 0.0 
0.0 0.0 0.0 
-1.370475566139e-03 -4.236143381720e-04 0.0 
-4.236143381720e-04 4.408957993933e-03 0.0 
0.0 0.0 0.0 
-4.910647790077e-03 2.035544502705e-03 0.0 
2.035544502705e-03 1.546560133387e-02 0.0 
0.0 0.0 0.0 
9.726033158881e-04 4.858191273369e-03 0.0 
4.858191273369e-03 7.575457688449e-03 0.0 
0.0 0.0 0.0 
-3.646383831203e-03 2.668762159589e-03 0.0 
2.668762159589e-03 1.541473495382e-02 0.0 
0.0 0.0 0.0 
1.423191374825e-03 6.801009498338e-04 0.0 
6.801009498338e-04 3.071942856900e-03 0.0 
0.0 0.0 0.0 
3.367338079181e-03 -5.057023100442e-03 0.0 
-5.057023100442e-03 -4.293738467258e-03 0.0 
0.0 0.0 0.0 
1.200244465600e-03 -4.109435490190e-04 0.0 
-4.109435490190e-04 -1.372098981788e-04 0.0 
0.0 0.0 0.0 
-8.185244403724e-04 5.520447375936e-03 0.0 
5.520447375936e-03 1.283705281682e-02 0.0 
0.0 0.0 0.0 
-1.006518491359e-03 -1.450139004898e-04 0.0 
-1.450139004898e-04 5.121670164797e-03 0.0 
0.0 0.0 0.0 
4.236526653481e-04 -7.205246864480e-04 0.0 
-7.205246864480e-04 3.839971565762e-03 0.0 
0.0 0.0 0.0 
-9.636015458059e-05 -7.425656487845e-04 0.0 
-7.425656487845e-04 5.232829325285e-03 0.0 
0.0 0.0 0.0 
-1.946105598150e-05 -8.339607401393e-04 0.0 
-8.339607401393e-04 5.227120069999e-03 0.0 
0.0 0.0 0.0 
1.215961391558e-03 2.778757152334e-03 0.0 
2.778757152334e-03 4.670427465189e-03 0.0 
0.0 0.0 0.0 
-2.440578385366e-03 2.766016484493e-05 0.0 
2.766016484493e-05 1.516199936724e-02 0.0 
0.0 0.0 0.0 
-2.356365708998e-03 1.167671029727e-04 0.0 
1.167671029727e-04 1.517603526886e-02 0.0 
0.0 0.0 0.0 
-1.773121195791e-03 5.306004322535e-03 0.0 
5.306004322535e-03 9.059084415497e-03 0.0 
0.0 0.0 0.0 
5.259415207102e-04 -2.509934098564e-04 0.0 
-2.509934098564e-04 3.565100098185e-03 0.0 
0.0 0.0 0.0 
-2.660927318590e-04 7.196346417153e-03 0.0 
7.196346417153e-03 2.865659889225e-03 0.0 
0.0 0.0 0.0 
-4.189372517561e-03 2.137046395497e-03 0.0 
2.137046395497e-03 1.524834779556e-02 0.0 
0.0 0.0 0.0 
-1.063347996236e-03 1.965638139196e-04 0.0 
1.965638139196e-04 1.726761077572e-02 0.0 
0.0 0.0 0.0 
-1.526342034385e-04 7.230065631988e-03 0.0 
7.230065631988e-03 2.868496049879e-03 0.0 
0.0 0.0 0.0 
3.383802818034e-03 -4.963156363355e-03 0.0 
-4.963156363355e-03 -5.143645456143e-03 0.0 
0.0 0.0 0.0 
-7.379267678033e-04 3.323310920899e-04 0.0 
3.323310920899e-04 1.725939378459e-02 0.0 
0.0 0.0 0.0 
1.203111067776e-03 -4.252731243555e-03 0.0 
-4.252731243555e-03 -2.225679162166e-03 0.0 
0.0 0.0 0.0 
-3.439967886023e-03 1.016967188619e-03 0.0 
1.016967188619e-03 1.576961015298e-02 0.0 
0.0 0.0 0.0 
-1.497886679309e-03 5.397847783948e-03 0.0 
5.397847783948e-03 8.051130374866e-03 0.0 
0.0 0.0 0.0 
1.228335260723e-04 -6.855509123486e-05 0.0 
-6.855509123486e-05 1.823652257205e-03 0.0 
0.0 0.0 0.0 
4.807000100401e-03 -4.611076220115e-03 0.0 
-4.611076220115e-03 -5.457409844952e-03 0.0 
0.0 0.0 0.0 
-1.510763345927e-03 5.075911994512e-03 0.0 
5.075911994512e-03 8.278100227362e-03 0.0 
0.0 0.0 0.0 
-6.891681133584e-04 4.432940308208e-03 0.0 
4.432940308208e-03 1.470179381609e-02 0.0 
0.0 0.0 0.0 
-7.880457765895e-04 -4.584071384153e-04 0.0 
-4.584071384153e-04 2.548280378100e-03 0.0 
0.0 0.0 0.0 
-4.055564904526e-04 -2.710824285606e-04 0.0 
-2.710824285606e-04 2.005715118657e-03 0.0 
0.0 0.0 0.0 
-9.906578505616e-04 -2.142190444016e-04 0.0 
-2.142190444016e-04 5.119762081773e-03 0.0 
0.0 0.0 0.0 
1.203590119598e-03 -3.374295305294e-04 0.0 
-3.374295305294e-04 4.944343148001e-04 0.0 
0.0 0.0 0.0 
-5.719533577447e-04 8.122277635997e-04 0.0 
8.122277635997e-04 1.730730013087e-02 0.0 
0.0 0.0 0.0 
1.459911128548e-03 -2.782491374197e-03 0.0 
-2.782491374197e-03 -4.790465011212e-03 0.0 
0.0 0.0 0.0 
1.471339797345e-03 4.047316093951e-03 0.0 
4.047316093951e-03 5.421229219905e-03 0.0 
0.0 0.0 0.0 
-8.135359415073e-05 5.089684510612e-03 0.0 
5.089684510612e-03 3.269568968673e-03 0.0 
0.0 0.0 0.0 
4.629549253067e-03 -4.693081966877e-03 0.0 
-4.693081966877e-03 -4.397486701293e-03 0.0 
0.0 0.0 0.0 
-3.758628648558e-04 -5.354422671207e-04 0.0 
-5.354422671207e-04 5.461804226584e-03 0.0 
0.0 0.0 0.0 
-1.305148900483e-03 5.078302729919e-03 0.0 
5.078302729919e-03 7.483386052812e-03 0.0 
0.0 0.0 0.0 
2.835455203519e-03 -1.129898341349e-03 0.0 
-1.129898341349e-03 -6.699078310312e-03 0.0 
0.0 0.0 0.0 
-7.903564499274e-04 5.727124904950e-03 0.0 
5.727124904950e-03 1.219826735473e-02 0.0 
0.0 0.0 0.0 
3.228224635712e-04 -2.054052323739e-03 0.0 
-2.054052323739e-03 3.741797849890e-04 0.0 
0.0 0.0 0.0 
3.805803164256e-04 5.637721925784e-03 0.0 
5.637721925784e-03 9.334321409123e-03 0.0 
0.0 0.0 0.0 
-1.215341785027e-03 -6.066558110203e-04 0.0 
-6.066558110203e-04 4.405722645276e-03 0.0 
0.0 0.0 0.0 
0.0 3.049558618333e-03 0.0 
3.049558618333e-03 1.641173886599e-02 0.0 
0.0 0.0 0.0 
9.641224621928e-04 4.769723396817e-03 0.0 
4.769723396817e-03 6.774613064666e-03 0.0 
0.0 0.0 0.0 
2.241408089060e-03 -1.063398947780e-04 0.0 
-1.063398947780e-04 -4.766582448450e-04 0.0 
0.0 0.0 0.0 
-1.071121845949e-03 -5.540654784415e-04 0.0 
-5.540654784415e-04 2.771860355020e-03 0.0 
0.0 0.0 0.0 
-1.101127497084e-03 2.250529610667e-03 0.0 
2.250529610667e-03 1.690772934276e-02 0.0 
0.0 0.0 0.0 
-1.112653656698e-03 4.814693137665e-03 0.0 
4.814693137665e-03 1.437816204846e-02 0.0 
0.0 0.0 0.0 
3.578490566098e-04 8.660883913480e-03 0.0 
8.660883913480e-03 1.571890387137e-03 0.0 
0.0 0.0 0.0 
5.594548980374e-04 -2.997079977624e-04 0.0 
-2.997079977624e-04 7.799070230297e-04 0.0 
0.0 0.0 0.0 
-1.740803529968e-04 8.176866176587e-03 0.0 
8.176866176587e-03 1.551617590409e-03 0.0 
0.0 0.0 0.0 
9.674395855175e-05 -2.529566721675e-03 0.0 
-2.529566721675e-03 4.487492006098e-04 0.0 
0.0 0.0 0.0 
-2.899224819791e-03 3.990635935134e-04 0.0 
3.990635935134e-04 1.556696568756e-02 0.0 
0.0 0.0 0.0 
-1.131543131506e-03 5.589699733788e-03 0.0 
5.589699733788e-03 6.297745546821e-03 0.0 
0.0 0.0 0.0 
-1.011438058163e-03 5.262569747947e-03 0.0 
5.262569747947e-03 6.018755814158e-03 0.0 
0.0 0.0 0.0 
-2.783528453117e-03 3.782853737184e-04 0.0 
3.782853737184e-04 1.582031446095e-02 0.0 
0.0 0.0 0.0 
-2.537313565153e-03 3.557794377340e-04 0.0 
3.557794377340e-04 1.582053697908e-02 0.0 
0.0 0.0 0.0 
-1.221916841318e-03 -3.664946977748e-04 0.0 
-3.664946977748e-04 4.667068717417e-03 0.0 
0.0 0.0 0.0 
-1.110192375514e-03 -3.967449317821e-05 0.0 
-3.967449317821e-05 5.048199450564e-03 0.0 
0.0 0.0 0.0 
-1.505727815237e-03 5.064252400348e-03 0.0 
5.064252400348e-03 1.153527882094e-02 0.0 
0.0 0.0 0.0 
-2.861335256535e-03 3.493753793310e-04 0.0 
3.493753793310e-04 1.561113280356e-02 0.0 
0.0 0.0 0.0 
6.588719131464e-04 -4.881101607586e-04 0.0 
-4.881101607586e-04 1.058966944432e-04 0.0 
0.0 0.0 0.0 
-3.947151626637e-03 2.121342949220e-03 0.0 
2.121342949220e-03 1.517454148799e-02 0.0 
0.0 0.0 0.0 
-1.651809731556e-03 2.225843408446e-04 0.0 
2.225843408446e-04 1.681299058225e-02 0.0 
0.0 0.0 0.0 
-1.830442667028e-03 3.331543613450e-04 0.0 
3.331543613450e-04 1.678612375738e-02 0.0 
0.0 0.0 0.0 
-7.004349627051e-04 3.376808108790e-03 0.0 
3.376808108790e-03 1.626709376526e-02 0.0 
0.0 0.0 0.0 
6.371796978129e-04 3.102183071063e-03 0.0 
3.102183071063e-03 5.565495041261e-03 0.0 
0.0 0.0 0.0 
-3.171323577196e-03 5.367445649526e-04 0.0 
5.367445649526e-04 1.561067663538e-02 0.0 
0.0 0.0 0.0 
7.390060251540e-04 -4.459962887473e-04 0.0 
-4.459962887473e-04 3.725861102340e-03 0.0 
0.0 0.0 0.0 
-2.125839564831e-03 3.703572448302e-05 0.0 
3.703572448302e-05 1.609156733100e-02 0.0 
0.0 0.0 0.0 
-1.361275850729e-04 5.385353030766e-03 0.0 
5.385353030766e-03 4.159998690573e-03 0.0 
0.0 0.0 0.0 
-2.665118332498e-03 2.298457279748e-04 0.0 
2.298457279748e-04 1.539034471418e-02 0.0 
0.0 0.0 0.0 
-2.883791274753e-04 -3.990970566141e-04 0.0 
-3.990970566141e-04 5.673945382682e-03 0.0 
0.0 0.0 0.0 
3.804929292661e-03 3.918996363133e-03 0.0 
3.918996363133e-03 1.714133758457e-03 0.0 
0.0 0.0 0.0 
1.480072083827e-03 3.847850454452e-03 0.0 
3.847850454452e-03 5.452898003206e-03 0.0 
0.0 0.0 0.0 
2.106701754707e-03 6.318951247287e-03 0.0 
6.318951247287e-03 6.148146644696e-04 0.0 
0.0 0.0 0.0 
1.155762936181e-03 -5.757759580275e-03 0.0 
-5.757759580275e-03 -2.870910118735e-03 0.0 
0.0 0.0 0.0 
-6.913201558593e-04 -2.833445895337e-04 0.0 
-2.833445895337e-04 5.422933964155e-03 0.0 
0.0 0.0 0.0 
-1.598270188628e-03 3.955691416582e-04 0.0 
3.955691416582e-04 1.699146590092e-02 0.0 
0.0 0.0 0.0 
7.966199196678e-04 -5.360186294359e-03 0.0 
-5.360186294359e-03 -3.445769524409e-03 0.0 
0.0 0.0 0.0 
-1.109192417971e-04 -6.853666238752e-04 0.0 
-6.853666238752e-04 5.220521720501e-03 0.0 
0.0 0.0 0.0 
-1.276304157894e-03 4.992638761179e-03 0.0 
4.992638761179e-03 1.076513941338e-02 0.0 
0.0 0.0 0.0 
2.690362335354e-03 1.105047716851e-04 0.0 
1.105047716851e-04 -8.048239065607e-04 0.0 
0.0 0.0 0.0 
3.016604661462e-03 5.474398912057e-03 0.0 
5.474398912057e-03 -6.275758042278e-04 0.0 
0.0 0.0 0.0 
-3.606492347647e-03 4.332961181997e-03 0.0 
4.332961181997e-03 1.317414604084e-02 0.0 
0.0 0.0 0.0 
-1.303593997585e-03 -8.525643997901e-04 0.0 
-8.525643997901e-04 3.085515770708e-03 0.0 
0.0 0.0 0.0 
-3.248900428343e-05 5.450944396893e-03 0.0 
5.450944396893e-03 3.080220403635e-03 0.0 
0.0 0.0 0.0 
6.015710910021e-04 5.809778340633e-03 0.0 
5.809778340633e-03 3.214653389176e-03 0.0 
0.0 0.0 0.0 
2.276707432538e-04 -6.773467963440e-04 0.0 
-6.773467963440e-04 4.301193551987e-03 0.0 
0.0 0.0 0.0 
-2.180617368948e-03 1.125334890773e-04 0.0 
1.125334890773e-04 1.598766841529e-02 0.0 
0.0 0.0 0.0 
7.499494361944e-04 6.118059983896e-03 0.0 
6.118059983896e-03 1.771840117534e-03 0.0 
0.0 0.0 0.0 
4.159558077701e-04 -1.255265202998e-03 0.0 
-1.255265202998e-03 7.124794468403e-04 0.0 
0.0 0.0 0.0 
-4.131247992262e-03 2.568882554703e-03 0.0 
2.568882554703e-03 1.456439893120e-02 0.0 
0.0 0.0 0.0 
-1.359579360247e-03 2.915845034847e-04 0.0 
2.915845034847e-04 1.699756618075e-02 0.0 
0.0 0.0 0.0 
1.360450260704e-03 6.064486265171e-03 0.0 
6.064486265171e-03 1.774061539399e-03 0.0 
0.0 0.0 0.0 
1.276858673788e-03 1.154581477655e-02 0.0 
1.154581477655e-02 -4.338957592321e-04 0.0 
0.0 0.0 0.0 
-2.472108695093e-03 5.023244082619e-03 0.0 
5.023244082619e-03 1.110616731452e-02 0.0 
0.0 0.0 0.0 
-1.215447852719e-03 -8.568021078143e-04 0.0 
-8.568021078143e-04 3.042905911502e-03 0.0 
0.0 0.0 0.0 
-2.278716160529e-03 4.994347292523e-03 0.0 
4.994347292523e-03 1.015352436020e-02 0.0 
0.0 0.0 0.0 
-5.952208461422e-04 2.577446671939e-03 0.0 
2.577446671939e-03 1.669437295923e-02 0.0 
0.0 0.0 0.0 
2.495144242781e-03 1.155812993113e-02 0.0 
1.155812993113e-02 -3.324093304358e-03 0.0 
0.0 0.0 0.0 
-1.267190224724e-03 -5.561088686618e-04 0.0 
-5.561088686618e-04 4.467429825676e-03 0.0 
0.0 0.0 0.0 
-7.180015910262e-04 5.694001679642e-04 0.0 
5.694001679642e-04 1.731499078886e-02 0.0 
0.0 0.0 0.0 
-1.218776090022e-03 4.848732615551e-03 0.0 
4.848732615551e-03 6.517173636991e-03 0.0 
0.0 0.0 0.0 
-2.084546104240e-03 5.183939455134e-03 0.0 
5.183939455134e-03 1.006459783470e-02 0.0 
0.0 0.0 0.0 
5.829587604518e-04 -6.031902020998e-04 0.0 
-6.031902020998e-04 3.842313481268e-03 0.0 
0.0 0.0 0.0 
-4.477644945415e-04 -2.786647219449e-04 0.0 
-2.786647219449e-04 5.687727773571e-03 0.0 
0.0 0.0 0.0 
-1.146214515106e-03 -4.717588215229e-04 0.0 
-4.717588215229e-04 4.664204273680e-03 0.0 
0.0 0.0 0.0 
-1.529723727870e-03 4.959688202821e-03 0.0 
4.959688202821e-03 7.521258874570e-03 0.0 
0.0 0.0 0.0 
1.205147306417e-03 5.854905593938e-04 0.0 
5.854905593938e-04 3.565996051084e-03 0.0 
0.0 0.0 0.0 
-1.764225677095e-03 4.713895728473e-03 0.0 
4.713895728473e-03 7.402528347155e-03 0.0 
0.0 0.0 0.0 
-5.782875253642e-04 1.704164554789e-03 0.0 
1.704164554789e-03 1.710130575452e-02 0.0 
0.0 0.0 0.0 
5.924224667224e-04 5.967823599889e-03 0.0 
5.967823599889e-03 9.619072472967e-03 0.0 
0.0 0.0 0.0 
-3.620335280201e-03 1.446731263523e-03 0.0 
1.446731263523e-03 1.586670804092e-02 0.0 
0.0 0.0 0.0 
-2.050226257578e-03 4.401123486721e-04 0.0 
4.401123486721e-04 1.651514709445e-02 0.0 
0.0 0.0 0.0 
-1.594881432054e-03 4.857396637493e-03 0.0 
4.857396637493e-03 7.396422862226e-03 0.0 
0.0 0.0 0.0 
-1.823700590201e-03 5.028669263996e-03 0.0 
5.028669263996e-03 9.144098120080e-03 0.0 
0.0 0.0 0.0 
-1.040921078485e-03 5.011735950263e-03 0.0 
5.011735950263e-03 6.587003463176e-03 0.0 
0.0 0.0 0.0 
2.113225939301e-03 5.829450769206e-03 0.0 
5.829450769206e-03 7.124904228051e-04 0.0 
0.0 0.0 0.0 
-2.493678609870e-03 1.346396472378e-04 0.0 
1.346396472378e-04 1.542431994202e-02 0.0 
0.0 0.0 0.0 
3.681307131249e-03 5.336531694308e-03 0.0 
5.336531694308e-03 -6.131716360285e-04 0.0 
0.0 0.0 0.0 
9.019279541174e-04 -3.434318950692e-04 0.0 
-3.434318950692e-04 -3.547270340465e-06 0.0 
0.0 0.0 0.0 
-2.276527236854e-03 5.597128612969e-05 0.0 
5.597128612969e-05 1.569721363067e-02 0.0 
0.0 0.0 0.0 
8.210491910037e-04 -1.384161053774e-04 0.0 
-1.384161053774e-04 6.518672793900e-04 0.0 
0.0 0.0 0.0 
-2.966240740405e-03 4.856008366929e-03 0.0 
4.856008366929e-03 1.212972927982e-02 0.0 
0.0 0.0 0.0 
6.746116300926e-04 3.635814692296e-04 0.0 
3.635814692296e-04 3.482806019446e-03 0.0 
0.0 0.0 0.0 
1.378909130758e-03 6.419214665314e-03 0.0 
6.419214665314e-03 6.083994440926e-04 0.0 
0.0 0.0 0.0 
-1.158359540262e-03 -2.479550080019e-04 0.0 
-2.479550080019e-04 4.887907098953e-03 0.0 
0.0 0.0 0.0 
-3.836510308605e-04 7.009278348555e-03 0.0 
7.009278348555e-03 3.773097903755e-03 0.0 
0.0 0.0 0.0 
3.634061752657e-03 4.202924733856e-03 0.0 
4.202924733856e-03 1.688812960542e-03 0.0 
0.0 0.0 0.0 
-2.325121866577e-03 7.320757435335e-05 0.0 
7.320757435335e-05 1.544665277871e-02 0.0 
0.0 0.0 0.0 
3.905704986934e-03 5.496445465888e-03 0.0 
5.496445465888e-03 -1.991313124666e-03 0.0 
0.0 0.0 0.0 
-8.954372798605e-04 -3.075611323631e-04 0.0 
-3.075611323631e-04 5.160390571112e-03 0.0 
0.0 0.0 0.0 
-3.907410518034e-05 -1.572959554415e-03 0.0 
-1.572959554415e-03 7.765684217760e-04 0.0 
0.0 0.0 0.0 
-6.658465218189e-04 -2.975202179229e-04 0.0 
-2.975202179229e-04 5.424360846556e-03 0.0 
0.0 0.0 0.0 
-3.060859954975e-03 4.157911060613e-03 0.0 
4.157911060613e-03 1.132220387818e-02 0.0 
0.0 0.0 0.0 
-2.948122672409e-04 -7.004170626014e-04 0.0 
-7.004170626014e-04 5.313626151729e-03 0.0 
0.0 0.0 0.0 
-2.274292521265e-03 3.742356786265e-05 0.0 
3.742356786265e-05 1.542046741224e-02 0.0 
0.0 0.0 0.0 
2.183740607257e-03 5.963978817255e-03 0.0 
5.963978817255e-03 -4.836280116001e-04 0.0 
0.0 0.0 0.0 
-3.726565552319e-03 4.676400350870e-03 0.0 
4.676400350870e-03 1.222759964919e-02 0.0 
0.0 0.0 0.0 
-1.477502757156e-03 -2.651553528661e-04 0.0 
-2.651553528661e-04 4.344451092389e-03 0.0 
0.0 0.0 0.0 
-4.403168237547e-04 6.069937553844e-03 0.0 
6.069937553844e-03 3.511660988567e-03 0.0 
0.0 0.0 0.0 
4.774971354785e-03 5.190239942483e-03 0.0 
5.190239942483e-03 -1.953798487603e-03 0.0 
0.0 0.0 0.0 
-2.022898361914e-03 3.752320475596e-04 0.0 
3.752320475596e-04 1.665557984987e-02 0.0 
0.0 0.0 0.0 
-2.350909318232e-03 1.020999225987e-04 0.0 
1.020999225987e-04 1.542096136702e-02 0.0 
0.0 0.0 0.0 
2.674104706251e-03 5.683885055897e-03 0.0 
5.683885055897e-03 -6.504252770400e-04 0.0 
0.0 0.0 0.0 
-2.886020223101e-03 4.935425772204e-03 0.0 
4.935425772204e-03 1.115669963187e-02 0.0 
0.0 0.0 0.0 
-6.721374400087e-05 5.600993252184e-03 0.0 
5.600993252184e-03 8.653881903889e-03 0.0 
0.0 0.0 0.0 
-1.306894186303e-03 -9.688012224969e-04 0.0 
-9.688012224969e-04 3.175562587356e-03 0.0 
0.0 0.0 0.0 
5.017358603205e-04 4.510004160700e-03 0.0 
4.510004160700e-03 7.321935393096e-03 0.0 
0.0 0.0 0.0 
8.015701670059e-04 5.749915539416e-03 0.0 
5.749915539416e-03 9.089951902998e-03 0.0 
0.0 0.0 0.0 
-1.576608325330e-04 5.759953949753e-03 0.0 
5.759953949753e-03 4.108223037041e-03 0.0 
0.0 0.0 0.0 
-1.468258110863e-03 -7.923392799632e-04 0.0 
-7.923392799632e-04 3.461943730681e-03 0.0 
0.0 0.0 0.0 
2.490669970789e-03 1.322898377600e-03 0.0 
1.322898377600e-03 1.939626435825e-03 0.0 
0.0 0.0 0.0 
-1.628531194748e-03 5.072105098713e-03 0.0 
5.072105098713e-03 8.186811241686e-03 0.0 
0.0 0.0 0.0 
-2.113130154213e-05 5.596863252844e-03 0.0 
5.596863252844e-03 3.211966543616e-03 0.0 
0.0 0.0 0.0 
-3.770842186256e-03 3.901331152989e-03 0.0 
3.901331152989e-03 1.221179774839e-02 0.0 
0.0 0.0 0.0 
2.513240780870e-03 5.637111764372e-03 0.0 
5.637111764372e-03 6.510458813551e-04 0.0 
0.0 0.0 0.0 
-5.099049962480e-04 1.226124524446e-03 0.0 
1.226124524446e-03 1.721700797153e-02 0.0 
0.0 0.0 0.0 
-1.723687017928e-03 4.603272558068e-03 0.0 
4.603272558068e-03 1.229486551745e-02 0.0 
0.0 0.0 0.0 
-8.076489071601e-04 -1.715536781671e-04 0.0 
-1.715536781671e-04 5.369967238205e-03 0.0 
0.0 0.0 0.0 
3.824880035097e-05 7.794715078614e-03 0.0 
7.794715078614e-03 2.239173470130e-03 0.0 
0.0 0.0 0.0 
5.945680078582e-03 4.977627704223e-03 0.0 
4.977627704223e-03 -3.340921992023e-03 0.0 
0.0 0.0 0.0 
-1.328085261719e-03 4.903558696977e-03 0.0 
4.903558696977e-03 1.157355404423e-02 0.0 
0.0 0.0 0.0 
-2.087896954251e-03 3.082894094271e-03 0.0 
3.082894094271e-03 -2.867174198562e-03 0.0 
0.0 0.0 0.0 
-1.942013367956e-03 4.901921846730e-03 0.0 
4.901921846730e-03 8.190086428483e-03 0.0 
0.0 0.0 0.0 
2.926498711621e-03 2.053372679811e-04 0.0 
2.053372679811e-04 3.795775864444e-04 0.0 
0.0 0.0 0.0 
1.580653324156e-03 -4.135059236412e-04 0.0 
-4.135059236412e-04 1.140746278554e-04 0.0 
0.0 0.0 0.0 
-8.246995582548e-04 4.968746557100e-03 0.0 
4.968746557100e-03 1.369727691026e-02 0.0 
0.0 0.0 0.0 
-2.831569908780e-03 3.447604983063e-03 0.0 
3.447604983063e-03 1.435852931554e-02 0.0 
0.0 0.0 0.0 
9.549369373911e-04 -2.715844331649e-03 0.0 
-2.715844331649e-03 6.075995949772e-05 0.0 
0.0 0.0 0.0 
3.266469536566e-03 5.822564387044e-04 0.0 
5.822564387044e-04 3.535562470804e-04 0.0 
0.0 0.0 0.0 
-3.991807160448e-03 2.715211444720e-03 0.0 
2.715211444720e-03 1.488421972863e-02 0.0 
0.0 0.0 0.0 
-3.791204438607e-03 2.121622012653e-03 0.0 
2.121622012653e-03 1.572264987746e-02 0.0 
0.0 0.0 0.0 
1.195968183999e-03 4.979030516937e-04 0.0 
4.979030516937e-04 3.028214646612e-03 0.0 
0.0 0.0 0.0 
3.013412782371e-05 -2.365419485163e-03 0.0 
-2.365419485163e-03 1.003872831767e-03 0.0 
0.0 0.0 0.0 
-4.760745963442e-04 5.168387001033e-03 0.0 
5.168387001033e-03 5.615295265158e-03 0.0 
0.0 0.0 0.0 
-2.521486388977e-03 4.450918859026e-03 0.0 
4.450918859026e-03 1.049256514153e-02 0.0 
0.0 0.0 0.0 
-2.994588849707e-03 3.482783313052e-03 0.0 
3.482783313052e-03 1.487412660664e-02 0.0 
0.0 0.0 0.0 
-3.228554213680e-03 4.131711709537e-03 0.0 
4.131711709537e-03 1.214101801705e-02 0.0 
0.0 0.0 0.0 
-3.491603391953e-03 4.086825384608e-03 0.0 
4.086825384608e-03 1.221284878536e-02 0.0 
0.0 0.0 0.0 
5.576455847860e-03 3.871345828382e-03 0.0 
3.871345828382e-03 -1.182536617893e-03 0.0 
0.0 0.0 0.0 
-6.311484397979e-04 5.424514091029e-03 0.0 
5.424514091029e-03 9.410891634724e-03 0.0 
0.0 0.0 0.0 
3.532567479721e-03 3.638576346048e-03 0.0 
3.638576346048e-03 -6.585558979868e-03 0.0 
0.0 0.0 0.0 
-3.431370573521e-04 5.626430498115e-03 0.0 
5.626430498115e-03 4.092572492875e-03 0.0 
0.0 0.0 0.0 
-4.958628263685e-04 5.295803527229e-03 0.0 
5.295803527229e-03 4.176979191491e-03 0.0 
0.0 0.0 0.0 
-9.636370362560e-04 5.129676222920e-03 0.0 
5.129676222920e-03 6.570605301647e-03 0.0 
0.0 0.0 0.0 
-1.926317061484e-03 4.639419512265e-03 0.0 
4.639419512265e-03 1.299471766259e-02 0.0 
0.0 0.0 0.0 
6.852730778734e-03 6.285416686598e-03 0.0 
6.285416686598e-03 -8.826877966525e-03 0.0 
0.0 0.0 0.0 
2.825983186347e-03 -3.960223280597e-04 0.0 
-3.960223280597e-04 -9.841189647553e-05 0.0 
0.0 0.0 0.0 
-2.418190602863e-03 6.349023535260e-05 0.0 
6.349023535260e-05 1.540535466236e-02 0.0 
0.0 0.0 0.0 
4.910098111634e-03 5.446513613744e-03 0.0 
5.446513613744e-03 -3.401814133847e-03 0.0 
0.0 0.0 0.0 
2.388549136705e-03 -1.016289262787e-03 0.0 
-1.016289262787e-03 -2.274640563014e-04 0.0 
0.0 0.0 0.0 
1.384238172654e-03 -3.235360626939e-04 0.0 
-3.235360626939e-04 -1.099270743493e-04 0.0 
0.0 0.0 0.0 
-2.439380304765e-03 3.703917344760e-03 0.0 
3.703917344760e-03 1.433060465210e-02 0.0 
0.0 0.0 0.0 
1.759680073744e-03 -4.567057193485e-04 0.0 
-4.567057193485e-04 -4.005546062960e-04 0.0 
0.0 0.0 0.0 
1.004459500148e-03 -3.503610831905e-04 0.0 
-3.503610831905e-04 3.171095422445e-04 0.0 
0.0 0.0 0.0 
-1.937707932949e-04 7.464952629427e-03 0.0 
7.464952629427e-03 2.222638483229e-03 0.0 
0.0 0.0 0.0 
-3.192012801545e-05 -2.160247700029e-03 0.0 
-2.160247700029e-03 1.000227820929e-03 0.0 
0.0 0.0 0.0 
-2.581860494662e-03 3.716203379741e-03 0.0 
3.716203379741e-03 1.485428800838e-02 0.0 
0.0 0.0 0.0 
1.915659220104e-04 -2.132631679339e-03 0.0 
-2.132631679339e-03 6.878506123729e-04 0.0 
0.0 0.0 0.0 
2.275126589696e-03 8.096675628293e-03 0.0 
8.096675628293e-03 -1.403075574954e-03 0.0 
0.0 0.0 0.0 
1.832822008996e-03 -4.095711266319e-03 0.0 
-4.095711266319e-03 -2.578247841829e-03 0.0 
0.0 0.0 0.0 
-2.932205321493e-05 -1.492279142855e-03 0.0 
-1.492279142855e-03 8.678457414844e-04 0.0 
0.0 0.0 0.0 
2.973257907926e-03 1.070660214837e-03 0.0 
1.070660214837e-03 1.042128481005e-03 0.0 
0.0 0.0 0.0 
-3.016507548494e-03 4.334397243060e-03 0.0 
4.334397243060e-03 1.131533371709e-02 0.0 
0.0 0.0 0.0 
-3.658625074745e-04 -5.262685700598e-04 0.0 
-5.262685700598e-04 5.462302235427e-03 0.0 
0.0 0.0 0.0 
3.636876802376e-03 9.758753344550e-04 0.0 
9.758753344550e-04 -6.999246342458e-03 0.0 
0.0 0.0 0.0 
2.845413564852e-03 7.386771194920e-03 0.0 
7.386771194920e-03 -1.948508704291e-03 0.0 
0.0 0.0 0.0 
5.219467638914e-03 5.035618457498e-03 0.0 
5.035618457498e-03 -3.315445959668e-03 0.0 
0.0 0.0 0.0 
-1.454944542709e-03 5.098999177365e-03 0.0 
5.098999177365e-03 7.124531289964e-03 0.0 
0.0 0.0 0.0 
3.322093652908e-03 3.855928669067e-07 0.0 
3.855928669067e-07 -1.261900263841e-04 0.0 
0.0 0.0 0.0 
-1.818523723655e-04 -7.243840265742e-04 0.0 
-7.243840265742e-04 5.204765877017e-03 0.0 
0.0 0.0 0.0 
-2.289111525670e-03 4.459614276824e-03 0.0 
4.459614276824e-03 1.297306016701e-02 0.0 
0.0 0.0 0.0 
6.419376297508e-03 4.752578131420e-03 0.0 
4.752578131420e-03 -4.744302336061e-03 0.0 
0.0 0.0 0.0 
2.770251828726e-03 7.945452580998e-04 0.0 
7.945452580998e-04 1.044030639917e-03 0.0 
0.0 0.0 0.0 
-1.302908556653e-03 -2.926965385431e-04 0.0 
-2.926965385431e-04 4.649954848699e-03 0.0 
0.0 0.0 0.0 
-1.337394629777e-03 5.092760825269e-03 0.0 
5.092760825269e-03 7.603642043982e-03 0.0 
0.0 0.0 0.0 
-2.491926418036e-03 3.884720477616e-03 0.0 
3.884720477616e-03 1.370536018085e-02 0.0 
0.0 0.0 0.0 
9.634007662132e-04 4.125843171771e-03 0.0 
4.125843171771e-03 6.342998989732e-03 0.0 
0.0 0.0 0.0 
6.222446195823e-03 4.539012238525e-03 0.0 
4.539012238525e-03 -3.247876258984e-03 0.0 
0.0 0.0 0.0 
2.442748394886e-03 7.657206507528e-03 0.0 
7.657206507528e-03 -2.821563897245e-04 0.0 
0.0 0.0 0.0 
-2.878118428998e-03 4.341076673950e-03 0.0 
4.341076673950e-03 1.215982012168e-02 0.0 
0.0 0.0 0.0 
-5.423275841566e-04 3.029500192727e-03 0.0 
3.029500192727e-03 1.650704753978e-02 0.0 
0.0 0.0 0.0 
-3.841135550502e-04 5.206354848556e-03 0.0 
5.206354848556e-03 5.610145421740e-03 0.0 
0.0 0.0 0.0 
8.102390031260e-03 3.438558892249e-03 0.0 
3.438558892249e-03 -4.790990352487e-03 0.0 
0.0 0.0 0.0 
-2.330753656130e-03 1.356489834030e-04 0.0 
1.356489834030e-04 1.577608869440e-02 0.0 
0.0 0.0 0.0 
2.319790672223e-04 -2.617747761945e-03 0.0 
-2.617747761945e-03 7.736385502732e-05 0.0 
0.0 0.0 0.0 
-3.093862555186e-03 3.936027616599e-03 0.0 
3.936027616599e-03 1.217106483146e-02 0.0 
0.0 0.0 0.0 
5.562594741853e-03 6.015765757359e-03 0.0 
6.015765757359e-03 -4.929970670539e-03 0.0 
0.0 0.0 0.0 
6.076378236212e-03 4.975738577720e-03 0.0 
4.975738577720e-03 -7.381077278933e-03 0.0 
0.0 0.0 0.0 
4.703336789414e-03 -4.928801878213e-03 0.0 
-4.928801878213e-03 -6.181551420758e-03 0.0 
0.0 0.0 0.0 
-2.329342442335e-03 3.524115130264e-03 0.0 
3.524115130264e-03 1.487798039245e-02 0.0 
0.0 0.0 0.0 
-2.737550618999e-03 4.480768843445e-03 0.0 
4.480768843445e-03 1.131549005742e-02 0.0 
0.0 0.0 0.0 
1.556645012494e-03 5.830524567494e-03 0.0 
5.830524567494e-03 7.159148995535e-04 0.0 
0.0 0.0 0.0 
-2.446610681573e-03 3.527806657364e-03 0.0 
3.527806657364e-03 1.534102161895e-02 0.0 
0.0 0.0 0.0 
-1.892690404784e-03 4.759352273409e-03 0.0 
4.759352273409e-03 1.226484980841e-02 0.0 
0.0 0.0 0.0 
-1.681647632791e-03 5.023296136421e-03 0.0 
5.023296136421e-03 8.610150144613e-03 0.0 
0.0 0.0 0.0 
1.546670790220e-05 -7.361751314172e-04 0.0 
-7.361751314172e-04 4.781652097481e-03 0.0 
0.0 0.0 0.0 
8.108343421453e-03 3.238689241402e-03 0.0 
3.238689241402e-03 -5.404012722685e-03 0.0 
0.0 0.0 0.0 
-1.992802784881e-03 4.918222312704e-03 0.0 
4.918222312704e-03 9.588173113059e-03 0.0 
0.0 0.0 0.0 
2.770700532784e-03 5.416361638396e-03 0.0 
5.416361638396e-03 7.699584676728e-04 0.0 
0.0 0.0 0.0 
7.487082178205e-03 3.524744250589e-03 0.0 
3.524744250589e-03 -4.125764610007e-03 0.0 
0.0 0.0 0.0 
6.592842704922e-03 4.092378013129e-03 0.0 
4.092378013129e-03 -6.962570166638e-03 0.0 
0.0 0.0 0.0 
-3.835863879792e-03 1.431853482023e-03 0.0 
1.431853482023e-03 1.564913516378e-02 0.0 
0.0 0.0 0.0 
7.778794272179e-03 3.599274665503e-03 0.0 
3.599274665503e-03 -4.745305865493e-03 0.0 
0.0 0.0 0.0 
6.531311684081e-03 -2.865698727324e-03 0.0 
-2.865698727324e-03 -6.286731237361e-03 0.0 
0.0 0.0 0.0 
-2.116279231324e-03 4.277780515980e-03 0.0 
4.277780515980e-03 1.300595997816e-02 0.0 
0.0 0.0 0.0 
-2.985220136571e-03 -9.614156077705e-05 0.0 
-9.614156077705e-05 -3.964908139907e-03 0.0 
0.0 0.0 0.0 
-3.345811408364e-03 3.997629592684e-03 0.0 
3.997629592684e-03 1.297952579142e-02 0.0 
0.0 0.0 0.0 
6.783057867970e-03 4.608756830191e-03 0.0 
4.608756830191e-03 -5.961503643082e-03 0.0 
0.0 0.0 0.0 
4.128220154737e-03 7.275850297626e-03 0.0 
7.275850297626e-03 -1.939288262069e-03 0.0 
0.0 0.0 0.0 
6.639484419614e-03 1.785868651561e-03 0.0 
1.785868651561e-03 -6.571499006764e-03 0.0 
0.0 0.0 0.0 
-2.354554452908e-03 4.476669778438e-03 0.0 
4.476669778438e-03 1.138928871583e-02 0.0 
0.0 0.0 0.0 
7.585130546417e-04 -7.990713406400e-04 0.0 
-7.990713406400e-04 4.321190572096e-04 0.0 
0.0 0.0 0.0 
-9.535756120062e-04 5.125987968033e-03 0.0 
5.125987968033e-03 5.278896138983e-03 0.0 
0.0 0.0 0.0 
6.918466229556e-03 3.163461974209e-03 0.0 
3.163461974209e-03 -3.920538714879e-03 0.0 
0.0 0.0 0.0 
-2.652103153156e-03 4.298854945912e-03 0.0 
4.298854945912e-03 1.134634874333e-02 0.0 
0.0 0.0 0.0 
-3.866211429541e-03 2.132152998349e-03 0.0 
2.132152998349e-03 1.535427234161e-02 0.0 
0.0 0.0 0.0 
5.402562259318e-03 3.558125081558e-03 0.0 
3.558125081558e-03 -8.421414856248e-03 0.0 
0.0 0.0 0.0 
7.483048433666e-03 -1.583589370787e-03 0.0 
-1.583589370787e-03 -6.489938505387e-03 0.0 
0.0 0.0 0.0 
5.194774859144e-03 -3.701483536606e-03 0.0 
-3.701483536606e-03 -5.408982914717e-03 0.0 
0.0 0.0 0.0 
-5.342296549986e-04 5.611096359479e-03 0.0 
5.611096359479e-03 5.117966910129e-03 0.0 
0.0 0.0 0.0 
-2.684616335891e-03 4.107308193668e-03 0.0 
4.107308193668e-03 1.366533862076e-02 0.0 
0.0 0.0 0.0 
-6.151497785625e-04 5.192709246328e-03 0.0 
5.192709246328e-03 5.267015073050e-03 0.0 
0.0 0.0 0.0 
7.894475357237e-03 3.810681593618e-03 0.0 
3.810681593618e-03 -6.114493896341e-03 0.0 
0.0 0.0 0.0 
6.363178237872e-03 4.790172390221e-03 0.0 
4.790172390221e-03 -4.795099045038e-03 0.0 
0.0 0.0 0.0 
5.742375229687e-03 3.032773929369e-03 0.0 
3.032773929369e-03 -7.673582112864e-03 0.0 
0.0 0.0 0.0 
3.163852345896e-03 5.269781285984e-03 0.0 
5.269781285984e-03 -4.392768462133e-04 0.0 
0.0 0.0 0.0 
2.115926625977e-03 9.052612299156e-03 0.0 
9.052612299156e-03 -5.121470397922e-04 0.0 
0.0 0.0 0.0 
-6.499895536852e-04 5.078158436337e-03 0.0 
5.078158436337e-03 1.449750530630e-02 0.0 
0.0 0.0 0.0 
-5.893564353850e-04 5.755608748299e-03 0.0 
5.755608748299e-03 1.329220564729e-02 0.0 
0.0 0.0 0.0 
7.699599073052e-05 5.241968118504e-03 0.0 
5.241968118504e-03 4.705057654338e-03 0.0 
0.0 0.0 0.0 
6.246385538698e-03 5.239034196182e-03 0.0 
5.239034196182e-03 -6.017013818105e-03 0.0 
0.0 0.0 0.0 
5.393723704753e-03 7.751634058387e-03 0.0 
7.751634058387e-03 -3.470097280795e-03 0.0 
0.0 0.0 0.0 
-1.500520244211e-03 5.000826532647e-03 0.0 
5.000826532647e-03 8.739568859073e-03 0.0 
0.0 0.0 0.0 
5.913233442543e-03 5.456811657449e-03 0.0 
5.456811657449e-03 -4.700179462963e-03 0.0 
0.0 0.0 0.0 
6.398427671513e-03 -2.908770412966e-03 0.0 
-2.908770412966e-03 -5.539290350347e-03 0.0 
0.0 0.0 0.0 
-1.403247467046e-03 4.953582748278e-03 0.0 
4.953582748278e-03 7.628910389589e-03 0.0 
0.0 0.0 0.0 
-1.034414789980e-03 1.893618154854e-03 0.0 
1.893618154854e-03 1.703797018581e-02 0.0 
0.0 0.0 0.0 
6.003235451537e-03 5.309100702557e-03 0.0 
5.309100702557e-03 -4.874757027088e-03 0.0 
0.0 0.0 0.0 
5.292006593090e-03 4.195877889632e-03 0.0 
4.195877889632e-03 -1.220517781363e-03 0.0 
0.0 0.0 0.0 
2.922813871536e-03 8.844021688986e-03 0.0 
8.844021688986e-03 -2.740553100005e-03 0.0 
0.0 0.0 0.0 
7.326776552010e-04 1.414325226041e-03 0.0 
1.414325226041e-03 4.626793544530e-03 0.0 
0.0 0.0 0.0 
5.004408130219e-03 6.964313507417e-03 0.0 
6.964313507417e-03 -4.937724937561e-03 0.0 
0.0 0.0 0.0 
-8.545525062711e-04 5.140033851663e-03 0.0 
5.140033851663e-03 6.681733190969e-03 0.0 
0.0 0.0 0.0 
5.552823958567e-03 2.916457577110e-03 0.0 
2.916457577110e-03 -7.627929513735e-03 0.0 
0.0 0.0 0.0 
5.068295112229e-03 4.193071968192e-04 0.0 
4.193071968192e-04 -2.548434864088e-03 0.0 
0.0 0.0 0.0 
6.852563954549e-03 4.407029302339e-03 0.0 
4.407029302339e-03 -4.868139322480e-03 0.0 
0.0 0.0 0.0 
5.173654793960e-03 -3.274360203551e-03 0.0 
-3.274360203551e-03 -4.110571471244e-03 0.0 
0.0 0.0 0.0 
-2.509460756058e-03 4.658442350709e-03 0.0 
4.658442350709e-03 1.046590274781e-02 0.0 
0.0 0.0 0.0 
1.561505981917e-04 6.190011558477e-03 0.0 
6.190011558477e-03 1.118721129636e-02 0.0 
0.0 0.0 0.0 
7.296038510276e-03 4.138484308242e-03 0.0 
4.138484308242e-03 -5.979238152218e-03 0.0 
0.0 0.0 0.0 
6.981276647328e-03 2.754187514670e-03 0.0 
2.754187514670e-03 -3.863237486602e-03 0.0 
0.0 0.0 0.0 
4.188681835880e-03 9.001838841443e-03 0.0 
9.001838841443e-03 -2.768013847331e-03 0.0 
0.0 0.0 0.0 
-2.882081173077e-03 1.551959596667e-03 0.0 
1.551959596667e-03 1.621617377772e-02 0.0 
0.0 0.0 0.0 
3.084833613635e-03 -5.871686010175e-04 0.0 
-5.871686010175e-04 -2.844390334046e-04 0.0 
0.0 0.0 0.0 
1.755598831227e-03 7.077152676926e-03 0.0 
7.077152676926e-03 8.045447158203e-04 0.0 
0.0 0.0 0.0 
-3.207121827321e-03 1.303577412796e-03 0.0 
1.303577412796e-03 1.621640903256e-02 0.0 
0.0 0.0 0.0 
3.772313981956e-04 5.641215813563e-03 0.0 
5.641215813563e-03 9.656195076122e-03 0.0 
0.0 0.0 0.0 
2.659163849267e-03 -2.756126850641e-04 0.0 
-2.756126850641e-04 6.180433587326e-04 0.0 
0.0 0.0 0.0 
-2.402151425019e-04 6.275059390552e-03 0.0 
6.275059390552e-03 1.183750509603e-02 0.0 
0.0 0.0 0.0 
-3.509429498659e-03 1.889658408334e-03 0.0 
1.889658408334e-03 1.597964673711e-02 0.0 
0.0 0.0 0.0 
-1.392323704481e-03 5.125395494381e-03 0.0 
5.125395494381e-03 1.073950490923e-02 0.0 
0.0 0.0 0.0 
1.045868967088e-03 7.511947046413e-03 0.0 
7.511947046413e-03 1.353729821043e-03 0.0 
0.0 0.0 0.0 
-2.732844043821e-03 4.545605614308e-03 0.0 
4.545605614308e-03 1.040779762852e-02 0.0 
0.0 0.0 0.0 
-2.005326840638e-03 4.751739604426e-03 0.0 
4.751739604426e-03 9.611984149047e-03 0.0 
0.0 0.0 0.0 
-2.253910872962e-03 4.789916683654e-03 0.0 
4.789916683654e-03 1.050529490601e-02 0.0 
0.0 0.0 0.0 
4.230614299305e-05 5.130612118619e-03 0.0 
5.130612118619e-03 4.563831384162e-03 0.0 
0.0 0.0 0.0 
3.798546894784e-04 5.138767781217e-03 0.0 
5.138767781217e-03 8.682903806575e-03 0.0 
0.0 0.0 0.0 
-3.485810947484e-03 2.712443204762e-03 0.0 
2.712443204762e-03 1.495012092560e-02 0.0 
0.0 0.0 0.0 
-3.781617038473e-03 3.720770806832e-03 0.0 
3.720770806832e-03 1.301606086608e-02 0.0 
0.0 0.0 0.0 
7.265302437498e-03 3.847752248158e-03 0.0 
3.847752248158e-03 -4.657510921833e-03 0.0 
0.0 0.0 0.0 
-8.327597110147e-05 -1.873105931798e-03 0.0 
-1.873105931798e-03 9.662322436998e-04 0.0 
0.0 0.0 0.0 
-3.074999593875e-03 4.324163483661e-03 0.0 
4.324163483661e-03 1.115159701820e-02 0.0 
0.0 0.0 0.0 
1.973234378285e-03 6.745092904893e-03 0.0 
6.745092904893e-03 -5.817236814158e-04 0.0 
0.0 0.0 0.0 
-2.320799905082e-03 5.745513996339e-05 0.0 
5.745513996339e-05 1.542675452121e-02 0.0 
0.0 0.0 0.0 
3.729203716763e-03 -3.377912691313e-03 0.0 
-3.377912691313e-03 -4.087244841098e-03 0.0 
0.0 0.0 0.0 
6.851281805148e-03 4.234528234424e-03 0.0 
4.234528234424e-03 -4.725740984585e-03 0.0 
0.0 0.0 0.0 
-2.091877012125e-03 4.114628351570e-03 0.0 
4.114628351570e-03 1.369081868013e-02 0.0 
0.0 0.0 0.0 
3.084895203366e-03 6.813315992176e-03 0.0 
6.813315992176e-03 -5.953204355272e-04 0.0 
0.0 0.0 0.0 
-2.252651507462e-03 4.618095146403e-03 0.0 
4.618095146403e-03 9.547012463225e-03 0.0 
0.0 0.0 0.0 
6.271138082116e-03 2.403854328826e-03 0.0 
2.403854328826e-03 -3.354664482960e-03 0.0 
0.0 0.0 0.0 
1.937383952310e-03 -2.103179785704e-03 0.0 
-2.103179785704e-03 -6.573950540192e-04 0.0 
0.0 0.0 0.0 
5.548220768359e-04 4.284811723468e-03 0.0 
4.284811723468e-03 7.173227246237e-03 0.0 
0.0 0.0 0.0 
-2.104636506374e-03 4.873657875020e-03 0.0 
4.873657875020e-03 9.198723915057e-03 0.0 
0.0 0.0 0.0 
7.486049535089e-03 -3.196830743180e-07 0.0 
-3.196830743180e-07 -7.038333224592e-03 0.0 
0.0 0.0 0.0 
1.057674721298e-03 -2.850373824996e-03 0.0 
-2.850373824996e-03 -5.419859867856e-04 0.0 
0.0 0.0 0.0 
3.769462600975e-04 6.846047785833e-03 0.0 
6.846047785833e-03 3.030565710230e-03 0.0 
0.0 0.0 0.0 
1.117612666882e-03 7.018509514573e-03 0.0 
7.018509514573e-03 8.129276714877e-04 0.0 
0.0 0.0 0.0 
-1.535555831411e-03 4.938408595485e-03 0.0 
4.938408595485e-03 1.229939020584e-02 0.0 
0.0 0.0 0.0 
-1.147498378478e-03 5.191570886994e-03 0.0 
5.191570886994e-03 7.706823514003e-03 0.0 
0.0 0.0 0.0 
-1.225798271768e-03 5.262680043214e-03 0.0 
5.262680043214e-03 7.110541729576e-03 0.0 
0.0 0.0 0.0 
-2.444462745224e-03 4.481901782756e-03 0.0 
4.481901782756e-03 9.461927410407e-03 0.0 
0.0 0.0 0.0 
7.465615938660e-04 2.749670161836e-03 0.0 
2.749670161836e-03 5.470826387829e-03 0.0 
0.0 0.0 0.0 
1.324144706810e-03 2.685981935994e-03 0.0 
2.685981935994e-03 4.700234926707e-03 0.0 
0.0 0.0 0.0 
-1.349532243999e-03 4.793216715875e-03 0.0 
4.793216715875e-03 1.232878085056e-02 0.0 
0.0 0.0 0.0 
-2.669382449944e-03 3.917001128120e-03 0.0 
3.917001128120e-03 1.429526802356e-02 0.0 
0.0 0.0 0.0 
2.059274623857e-03 -2.248241576288e-03 0.0 
-2.248241576288e-03 -1.355728040946e-03 0.0 
0.0 0.0 0.0 
-2.682275610338e-04 4.996470681662e-03 0.0 
4.996470681662e-03 4.408417274714e-03 0.0 
0.0 0.0 0.0 
6.793832896176e-03 3.595564310321e-03 0.0 
3.595564310321e-03 -5.760260436996e-03 0.0 
0.0 0.0 0.0 
7.363253514516e-03 3.097350856866e-03 0.0 
3.097350856866e-03 -5.733635373870e-03 0.0 
0.0 0.0 0.0 
-7.749166596593e-04 5.233101001836e-03 0.0 
5.233101001836e-03 6.667577162669e-03 0.0 
0.0 0.0 0.0 
5.489781888480e-03 4.506249779477e-04 0.0 
4.506249779477e-04 -3.355395330219e-03 0.0 
0.0 0.0 0.0 
-4.229512032101e-04 -2.093237514185e-03 0.0 
-2.093237514185e-03 1.783004804868e-03 0.0 
0.0 0.0 0.0 
-1.673071576055e-03 4.356641413546e-03 0.0 
4.356641413546e-03 1.368793711314e-02 0.0 
0.0 0.0 0.0 
7.118733767912e-03 -1.936268568402e-03 0.0 
-1.936268568402e-03 -6.735025491925e-03 0.0 
0.0 0.0 0.0 
8.150934122766e-04 5.431196760738e-03 0.0 
5.431196760738e-03 3.427236080356e-03 0.0 
0.0 0.0 0.0 
-1.725576513980e-03 4.862999847608e-03 0.0 
4.862999847608e-03 8.641364785719e-03 0.0 
0.0 0.0 0.0 
5.911859579828e-04 5.508679203683e-03 0.0 
5.508679203683e-03 3.384289238787e-03 0.0 
0.0 0.0 0.0 
-4.994610405725e-04 6.087793206604e-03 0.0 
6.087793206604e-03 1.257277494415e-02 0.0 
0.0 0.0 0.0 
-5.576040125832e-04 5.428630139272e-03 0.0 
5.428630139272e-03 1.388704456201e-02 0.0 
0.0 0.0 0.0 
-1.108954327513e-03 5.056142441183e-03 0.0 
5.056142441183e-03 1.368589961635e-02 0.0 
0.0 0.0 0.0 
1.994153719054e-03 -2.074474334124e-03 0.0 
-2.074474334124e-03 -1.005727447227e-03 0.0 
0.0 0.0 0.0 
-2.153534939402e-03 3.355469516663e-03 0.0 
3.355469516663e-03 1.536185749004e-02 0.0 
0.0 0.0 0.0 
1.666215826505e-03 7.417052311625e-03 0.0 
7.417052311625e-03 -2.516619570562e-04 0.0 
0.0 0.0 0.0 
7.937038802838e-03 2.757608127704e-03 0.0 
2.757608127704e-03 -5.771033322865e-03 0.0 
0.0 0.0 0.0 
6.039893573158e-03 2.217510315549e-03 0.0 
2.217510315549e-03 -6.911418404386e-03 0.0 
0.0 0.0 0.0 
-1.088755915784e-03 5.025165837989e-03 0.0 
5.025165837989e-03 6.323691818565e-03 0.0 
0.0 0.0 0.0 
-3.616154509825e-03 9.938186611411e-04 0.0 
9.938186611411e-04 1.565448900806e-02 0.0 
0.0 0.0 0.0 
-3.086156658689e-03 1.616231044895e-03 0.0 
1.616231044895e-03 1.600451290750e-02 0.0 
0.0 0.0 0.0 
1.374866071736e-03 1.417934010833e-03 0.0 
1.417934010833e-03 3.868390739040e-03 0.0 
0.0 0.0 0.0 
-9.255438411154e-04 5.148154016127e-03 0.0 
5.148154016127e-03 1.086220297350e-02 0.0 
0.0 0.0 0.0 
-2.791020060794e-03 4.143850400433e-03 0.0 
4.143850400433e-03 1.218940876318e-02 0.0 
0.0 0.0 0.0 
-1.739511492217e-03 4.904896494928e-03 0.0 
4.904896494928e-03 9.702753012282e-03 0.0 
0.0 0.0 0.0 
6.310630546589e-03 2.293954044639e-03 0.0 
2.293954044639e-03 -7.256222736842e-03 0.0 
0.0 0.0 0.0 
2.728856929299e-04 -1.527784681317e-03 0.0 
-1.527784681317e-03 3.579549432917e-04 0.0 
0.0 0.0 0.0 
4.115380333629e-03 5.187838958885e-03 0.0 
5.187838958885e-03 -1.903880607771e-03 0.0 
0.0 0.0 0.0 
9.257695316633e-04 5.355241634845e-03 0.0 
5.355241634845e-03 3.587771805247e-03 0.0 
0.0 0.0 0.0 
3.881804009986e-03 5.044574666670e-03 0.0 
5.044574666670e-03 -4.107740956780e-04 0.0 
0.0 0.0 0.0 
1.633944569781e-04 1.069178745191e-02 0.0 
1.069178745191e-02 -4.509785277372e-04 0.0 
0.0 0.0 0.0 
-2.242777619061e-03 1.271231595288e-04 0.0 
1.271231595288e-04 1.576807024704e-02 0.0 
0.0 0.0 0.0 
2.226410003277e-04 -1.747999382409e-03 0.0 
-1.747999382409e-03 7.531197378285e-04 0.0 
0.0 0.0 0.0 
3.917800640793e-03 6.673468114568e-03 0.0 
6.673468114568e-03 -3.248687839271e-03 0.0 
0.0 0.0 0.0 
0.0 1.510909447955e-03 0.0 
1.510909447955e-03 4.767483277441e-03 0.0 
0.0 0.0 0.0 
5.086889422766e-03 3.162715757132e-03 0.0 
3.162715757132e-03 -7.663620292705e-04 0.0 
0.0 0.0 0.0 
-3.500943619188e-03 3.437375869629e-03 0.0 
3.437375869629e-03 1.304965166676e-02 0.0 
0.0 0.0 0.0 
1.592181959555e-03 -5.640583447328e-05 0.0 
-5.640583447328e-05 2.535756462001e-04 0.0 
0.0 0.0 0.0 
-7.238086366568e-05 5.149453124275e-03 0.0 
5.149453124275e-03 4.561785991154e-03 0.0 
0.0 0.0 0.0 
5.015839430547e-03 4.851135623102e-03 0.0 
4.851135623102e-03 -1.860957156640e-03 0.0 
0.0 0.0 0.0 
-2.417408941619e-03 4.638800271192e-03 0.0 
4.638800271192e-03 1.136895303497e-02 0.0 
0.0 0.0 0.0 
3.047353345855e-04 6.052798766841e-03 0.0 
6.052798766841e-03 1.062970231144e-02 0.0 
0.0 0.0 0.0 
-2.773782096761e-03 4.316839678083e-03 0.0 
4.316839678083e-03 1.043373806723e-02 0.0 
0.0 0.0 0.0 
-1.481690982462e-03 5.127150011180e-03 0.0 
5.127150011180e-03 8.723259448658e-03 0.0 
0.0 0.0 0.0 
-2.237777154139e-04 -2.219615553281e-03 0.0 
-2.219615553281e-03 1.800802403082e-03 0.0 
0.0 0.0 0.0 
-2.018763049182e-03 3.968450233973e-03 0.0 
3.968450233973e-03 1.431084082098e-02 0.0 
0.0 0.0 0.0 
1.888153286365e-03 -1.910045301993e-03 0.0 
-1.910045301993e-03 -2.720574055625e-04 0.0 
0.0 0.0 0.0 
3.760432687243e-04 5.821654783256e-03 0.0 
5.821654783256e-03 1.015204686035e-02 0.0 
0.0 0.0 0.0 
0.0 5.889714264974e-03 0.0 
5.889714264974e-03 1.218987984821e-02 0.0 
0.0 0.0 0.0 
0.0 4.616500605407e-03 0.0 
4.616500605407e-03 1.482008642626e-02 0.0 
0.0 0.0 0.0 
0.0 5.284112535002e-03 0.0 
5.284112535002e-03 1.363153031067e-02 0.0 
0.0 0.0 0.0 
-1.913301037730e-03 4.758799994435e-03 0.0 
4.758799994435e-03 1.060013234772e-02 0.0 
0.0 0.0 0.0 
-2.251511141526e-03 4.125299560886e-03 0.0 
4.125299560886e-03 1.429137839077e-02 0.0 
0.0 0.0 0.0 
-9.580569826615e-04 5.121104656954e-03 0.0 
5.121104656954e-03 1.162657725301e-02 0.0 
0.0 0.0 0.0 
1.485573961073e-04 4.961198801087e-03 0.0 
4.961198801087e-03 3.452669941822e-03 0.0 
0.0 0.0 0.0 
-4.984851073430e-04 4.970930348594e-03 0.0 
4.970930348594e-03 4.412549928974e-03 0.0 
0.0 0.0 0.0 
-6.801265271227e-04 -1.882386632065e-03 0.0 
-1.882386632065e-03 2.110184926047e-03 0.0 
0.0 0.0 0.0 
-1.901624439532e-03 4.507946750337e-03 0.0 
4.507946750337e-03 1.366679827628e-02 0.0 
0.0 0.0 0.0 
4.042215181312e-04 5.377701901669e-03 0.0 
5.377701901669e-03 9.142832592156e-03 0.0 
0.0 0.0 0.0 
-1.874333573431e-03 3.799385349424e-03 0.0 
3.799385349424e-03 1.485473804903e-02 0.0 
0.0 0.0 0.0 
6.326732313856e-03 3.394500447336e-03 0.0 
3.394500447336e-03 -2.542554897934e-03 0.0 
0.0 0.0 0.0 
-2.139774864427e-03 3.959960247982e-03 0.0 
3.959960247982e-03 1.483405933341e-02 0.0 
0.0 0.0 0.0 
2.424105388993e-03 5.302194502982e-03 0.0 
5.302194502982e-03 3.997968688118e-03 0.0 
0.0 0.0 0.0 
1.252007465453e-03 5.345744083514e-03 0.0 
5.345744083514e-03 2.224547530336e-03 0.0 
0.0 0.0 0.0 
-1.388610700209e-03 4.882889164502e-03 0.0 
4.882889164502e-03 6.339413733402e-03 0.0 
0.0 0.0 0.0 
4.988870564663e-03 8.650492066158e-03 0.0 
8.650492066158e-03 -5.459341155236e-03 0.0 
0.0 0.0 0.0 
-6.388474631399e-04 3.127976511156e-03 0.0 
3.127976511156e-03 1.626169699854e-02 0.0 
0.0 0.0 0.0 
8.831458681571e-04 5.591042846034e-03 0.0 
5.591042846034e-03 1.981042507928e-03 0.0 
0.0 0.0 0.0 
9.078602640928e-04 5.034264396456e-03 0.0 
5.034264396456e-03 7.277259693160e-03 0.0 
0.0 0.0 0.0 
-5.425030471565e-04 -2.055871843666e-03 0.0 
-2.055871843666e-03 2.135420984367e-03 0.0 
0.0 0.0 0.0 
2.499321741513e-03 -3.507661403100e-03 0.0 
-3.507661403100e-03 -2.993213634817e-03 0.0 
0.0 0.0 0.0 
7.483193244222e-04 1.112742609589e-03 0.0 
1.112742609589e-03 3.748323340569e-03 0.0 
0.0 0.0 0.0 
3.011864207285e-03 6.335514151878e-03 0.0 
6.335514151878e-03 -1.812177966613e-03 0.0 
0.0 0.0 0.0 
0.0 6.029765995183e-03 0.0 
6.029765995183e-03 1.144591384560e-02 0.0 
0.0 0.0 0.0 
-7.060452455329e-04 4.693275425732e-03 0.0 
4.693275425732e-03 1.419109538504e-02 0.0 
0.0 0.0 0.0 
-6.826046665473e-04 5.240002670089e-03 0.0 
5.240002670089e-03 6.830779001901e-03 0.0 
0.0 0.0 0.0 
3.316773933577e-04 -6.012249480620e-04 0.0 
-6.012249480620e-04 3.016541645040e-04 0.0 
0.0 0.0 0.0 
0.0 5.742377998059e-03 0.0 
5.742377998059e-03 1.037017171013e-02 0.0 
0.0 0.0 0.0 
7.315489573416e-04 1.942507879580e-03 0.0 
1.942507879580e-03 4.295816616583e-03 0.0 
0.0 0.0 0.0 
3.570848014604e-03 -3.467956519115e-03 0.0 
-3.467956519115e-03 -3.005279595512e-03 0.0 
0.0 0.0 0.0 
5.734227467649e-03 2.642296986848e-03 0.0 
2.642296986848e-03 -2.055213387808e-03 0.0 
0.0 0.0 0.0 
5.627852871679e-04 3.925936740813e-03 0.0 
3.925936740813e-03 6.712209333996e-03 0.0 
0.0 0.0 0.0 
9.363490988421e-04 -2.861350344404e-05 0.0 
-2.861350344404e-05 -2.987674789289e-04 0.0 
0.0 0.0 0.0 
1.125631410433e-03 5.446320598845e-03 0.0 
5.446320598845e-03 2.045465046215e-03 0.0 
0.0 0.0 0.0 
-1.001219728364e-03 5.196574415094e-03 0.0 
5.196574415094e-03 7.872802067132e-03 0.0 
0.0 0.0 0.0 
-3.173980496967e-04 5.267273454172e-03 0.0 
5.267273454172e-03 5.767799327434e-03 0.0 
0.0 0.0 0.0 
-1.196840706356e-03 5.083156386737e-03 0.0 
5.083156386737e-03 7.722260371487e-03 0.0 
0.0 0.0 0.0 
3.794376317301e-03 7.997595069741e-03 0.0 
7.997595069741e-03 -3.498060601451e-03 0.0 
0.0 0.0 0.0 
0.0 5.298433030979e-03 0.0 
5.298433030979e-03 9.381916308584e-03 0.0 
0.0 0.0 0.0 
8.530525292337e-03 2.595333212710e-03 0.0 
2.595333212710e-03 -5.927319603560e-03 0.0 
0.0 0.0 0.0 
4.701165359128e-03 6.634991009041e-04 0.0 
6.634991009041e-04 -7.932260039485e-03 0.0 
0.0 0.0 0.0 
1.059469196587e-04 -8.240391580088e-04 0.0 
-8.240391580088e-04 4.641619311526e-03 0.0 
0.0 0.0 0.0 
9.283169249512e-04 -4.831332346944e-04 0.0 
-4.831332346944e-04 -4.900987504541e-05 0.0 
0.0 0.0 0.0 
-2.112177456800e-03 4.613873386380e-03 0.0 
4.613873386380e-03 8.452379416965e-03 0.0 
0.0 0.0 0.0 
3.001237808193e-03 -4.497410420452e-03 0.0 
-4.497410420452e-03 -3.503400244311e-03 0.0 
0.0 0.0 0.0 
-3.386290796985e-03 4.219539873085e-03 0.0 
4.219539873085e-03 1.116608006284e-02 0.0 
0.0 0.0 0.0 
7.389323503471e-04 2.255763178820e-03 0.0 
2.255763178820e-03 5.140608414602e-03 0.0 
0.0 0.0 0.0 
0.0 4.825004708089e-03 0.0 
4.825004708089e-03 8.436303642188e-03 0.0 
0.0 0.0 0.0 
-2.198187107539e-03 4.623428321388e-03 0.0 
4.623428321388e-03 1.052814026690e-02 0.0 
0.0 0.0 0.0 
1.431896781192e-03 -4.255983459932e-03 0.0 
-4.255983459932e-03 -1.315958067148e-03 0.0 
0.0 0.0 0.0 
4.162294243402e-03 1.152508211240e-03 0.0 
1.152508211240e-03 -7.583432280268e-03 0.0 
0.0 0.0 0.0 
1.349032899412e-03 -4.894655073109e-03 0.0 
-4.894655073109e-03 -2.413606731387e-03 0.0 
0.0 0.0 0.0 
6.130422341377e-04 -1.110349202832e-03 0.0 
-1.110349202832e-03 2.731519621774e-03 0.0 
0.0 0.0 0.0 
-3.540568569616e-03 1.232182029268e-03 0.0 
1.232182029268e-03 1.534038131639e-02 0.0 
0.0 0.0 0.0 
-3.813236677825e-03 3.549548469639e-03 0.0 
3.549548469639e-03 1.384224110958e-02 0.0 
0.0 0.0 0.0 
0.0 4.271421564849e-03 0.0 
4.271421564849e-03 7.411611723021e-03 0.0 
0.0 0.0 0.0 
-3.265675410003e-03 8.965677621097e-04 0.0 
8.965677621097e-04 1.541076511212e-02 0.0 
0.0 0.0 0.0 
-6.002751433218e-04 4.649958984714e-03 0.0 
4.649958984714e-03 1.503957391372e-02 0.0 
0.0 0.0 0.0 
3.305475641706e-03 5.472793550082e-03 0.0 
5.472793550082e-03 2.626772666412e-03 0.0 
0.0 0.0 0.0 
-3.002892765200e-03 1.143115741258e-03 0.0 
1.143115741258e-03 1.602967940098e-02 0.0 
0.0 0.0 0.0 
7.404660100219e-04 6.720458427365e-03 0.0 
6.720458427365e-03 1.755349472475e-03 0.0 
0.0 0.0 0.0 
5.588844680781e-03 2.994091847577e-03 0.0 
2.994091847577e-03 -2.103620482051e-03 0.0 
0.0 0.0 0.0 
6.870000695571e-03 5.807951924009e-03 0.0 
5.807951924009e-03 -6.603935054598e-03 0.0 
0.0 0.0 0.0 
0.0 3.583537234523e-03 0.0 
3.583537234523e-03 6.504435535465e-03 0.0 
0.0 0.0 0.0 
0.0 5.617568015100e-03 0.0 
5.617568015100e-03 1.292890970968e-02 0.0 
0.0 0.0 0.0 
0.0 4.958286865390e-03 0.0 
4.958286865390e-03 1.427277253319e-02 0.0 
0.0 0.0 0.0 
1.495368695154e-03 -2.086990028651e-03 0.0 
-2.086990028651e-03 -2.436462263063e-04 0.0 
0.0 0.0 0.0 
-8.694579045516e-04 -1.626910026195e-03 0.0 
-1.626910026195e-03 2.367193295735e-03 0.0 
0.0 0.0 0.0 
1.863906034804e-03 5.472830241035e-03 0.0 
5.472830241035e-03 2.201475668573e-03 0.0 
0.0 0.0 0.0 
1.410615981755e-03 -1.883392863432e-03 0.0 
-1.883392863432e-03 5.389941222478e-04 0.0 
0.0 0.0 0.0 
0.0 2.837148033648e-03 0.0 
2.837148033648e-03 5.708502005255e-03 0.0 
0.0 0.0 0.0 
5.205011437178e-03 6.337757412891e-03 0.0 
6.337757412891e-03 -3.205790272260e-03 0.0 
0.0 0.0 0.0 
6.613368123840e-03 -2.481481044747e-03 0.0 
-2.481481044747e-03 -5.333311399978e-03 0.0 
0.0 0.0 0.0 
5.159673007233e-03 -2.713037775891e-03 0.0 
-2.713037775891e-03 -4.048482213933e-03 0.0 
0.0 0.0 0.0 
-2.830501403050e-03 1.142641165116e-03 0.0 
1.142641165116e-03 1.623347034402e-02 0.0 
0.0 0.0 0.0 
6.222843489405e-04 9.364060401041e-04 0.0 
9.364060401041e-04 4.417649245897e-03 0.0 
0.0 0.0 0.0 
-1.230967432206e-04 -3.981583932197e-03 0.0 
-3.981583932197e-03 -9.757113373369e-04 0.0 
0.0 0.0 0.0 
0.0 1.930051636808e-03 0.0 
1.930051636808e-03 5.010597926661e-03 0.0 
0.0 0.0 0.0 
3.709550243032e-03 -3.044406982246e-03 0.0 
-3.044406982246e-03 -3.076213662287e-03 0.0 
0.0 0.0 0.0 
0.0 5.930640965429e-03 0.0 
5.930640965429e-03 1.091611080652e-02 0.0 
0.0 0.0 0.0 
-1.182921627647e-03 5.239358630689e-03 0.0 
5.239358630689e-03 1.160803271267e-02 0.0 
0.0 0.0 0.0 
1.673568591246e-03 -4.952006548626e-05 0.0 
-4.952006548626e-05 -5.736153534665e-04 0.0 
0.0 0.0 0.0 
2.162198773487e-03 5.489955949336e-03 0.0 
5.489955949336e-03 7.623011242714e-04 0.0 
0.0 0.0 0.0 
-2.244570390083e-03 3.353622529031e-03 0.0 
3.353622529031e-03 1.573668687161e-02 0.0 
0.0 0.0 0.0 
0.0 5.522702871304e-03 0.0 
5.522702871304e-03 9.930351617495e-03 0.0 
0.0 0.0 0.0 
-1.950532477238e-03 4.904224013997e-03 0.0 
4.904224013997e-03 1.058115990187e-02 0.0 
0.0 0.0 0.0 
3.218129092829e-03 4.913335287617e-03 0.0 
4.913335287617e-03 2.635232826905e-03 0.0 
0.0 0.0 0.0 
3.900694146028e-03 9.767543245742e-03 0.0 
9.767543245742e-03 -4.740003418122e-03 0.0 
0.0 0.0 0.0 
1.457179039604e-03 1.584982238825e-03 0.0 
1.584982238825e-03 3.251914262219e-03 0.0 
0.0 0.0 0.0 
2.598796666232e-03 -2.912175717404e-03 0.0 
-2.912175717404e-03 -2.156292167387e-03 0.0 
0.0 0.0 0.0 
3.808022436549e-03 -2.929587953102e-03 0.0 
-2.929587953102e-03 -4.013537681570e-03 0.0 
0.0 0.0 0.0 
-4.150802824656e-04 -4.423206750030e-03 0.0 
-4.423206750030e-03 -1.500203343471e-03 0.0 
0.0 0.0 0.0 
0.0 5.057395858112e-03 0.0 
5.057395858112e-03 8.904768949364e-03 0.0 
0.0 0.0 0.0 
6.355636196484e-03 4.321250113600e-03 0.0 
4.321250113600e-03 -5.850355671568e-03 0.0 
0.0 0.0 0.0 
2.359000430642e-03 -5.423104821052e-05 0.0 
-5.423104821052e-05 9.985056010622e-04 0.0 
0.0 0.0 0.0 
-3.250991959040e-03 9.260278375541e-04 0.0 
9.260278375541e-04 1.594952939842e-02 0.0 
0.0 0.0 0.0 
8.008121885519e-04 -2.902038853824e-03 0.0 
-2.902038853824e-03 -4.386071073327e-04 0.0 
0.0 0.0 0.0 
5.229830419650e-03 -3.060787874554e-03 0.0 
-3.060787874554e-03 -5.242564286322e-03 0.0 
0.0 0.0 0.0 
-1.767538443495e-03 5.044026443189e-03 0.0 
5.044026443189e-03 9.684066926421e-03 0.0 
0.0 0.0 0.0 
0.0 3.933608227195e-03 0.0 
3.933608227195e-03 6.952143472338e-03 0.0 
0.0 0.0 0.0 
-1.023244398208e-03 -1.590809938232e-03 0.0 
-1.590809938232e-03 2.802666183209e-03 0.0 
0.0 0.0 0.0 
1.803681820941e-03 -1.512932404821e-03 0.0 
-1.512932404821e-03 -3.697527011970e-05 0.0 
0.0 0.0 0.0 
5.947042004666e-04 5.207305797581e-03 0.0 
5.207305797581e-03 3.864318245722e-03 0.0 
0.0 0.0 0.0 
4.139905890441e-03 -8.776231052801e-04 0.0 
-8.776231052801e-04 -2.684716221523e-03 0.0 
0.0 0.0 0.0 
6.657548616184e-03 -2.324728176751e-03 0.0 
-2.324728176751e-03 -6.169894969065e-03 0.0 
0.0 0.0 0.0 
1.908615185003e-03 -1.847013103427e-03 0.0 
-1.847013103427e-03 -6.067130958807e-04 0.0 
0.0 0.0 0.0 
1.943225527730e-04 5.199604003679e-03 0.0 
5.199604003679e-03 4.710190869409e-03 0.0 
0.0 0.0 0.0 
6.664425863290e-04 5.466177633317e-03 0.0 
5.466177633317e-03 6.303087224222e-03 0.0 
0.0 0.0 0.0 
4.441485611127e-03 2.823502926660e-03 0.0 
2.823502926660e-03 -3.735245461728e-04 0.0 
0.0 0.0 0.0 
1.299417330086e-03 5.268280127316e-03 0.0 
5.268280127316e-03 2.527909157355e-03 0.0 
0.0 0.0 0.0 
1.428069025473e-04 -2.425389573580e-03 0.0 
-2.425389573580e-03 1.235033314544e-03 0.0 
0.0 0.0 0.0 
4.058950163462e-03 6.173077570790e-03 0.0 
6.173077570790e-03 -1.794224931860e-03 0.0 
0.0 0.0 0.0 
-7.909255596721e-04 -1.836769327193e-03 0.0 
-1.836769327193e-03 2.398243002973e-03 0.0 
0.0 0.0 0.0 
3.693957240035e-03 5.264686076488e-03 0.0 
5.264686076488e-03 2.660336149658e-03 0.0 
0.0 0.0 0.0 
7.600248636333e-03 2.387806553835e-03 0.0 
2.387806553835e-03 -4.986964618154e-03 0.0 
0.0 0.0 0.0 
7.168398481368e-04 1.826221864043e-03 0.0 
1.826221864043e-03 4.890081369124e-03 0.0 
0.0 0.0 0.0 
-1.978951537105e-03 3.796300566847e-03 0.0 
3.796300566847e-03 1.530879629105e-02 0.0 
0.0 0.0 0.0 
4.997781641825e-04 -2.737897846747e-03 0.0 
-2.737897846747e-03 2.437364131280e-04 0.0 
0.0 0.0 0.0 
0.0 2.368979928166e-03 0.0 
2.368979928166e-03 5.278631628088e-03 0.0 
0.0 0.0 0.0 
1.458150919342e-03 1.859482458040e-03 0.0 
1.859482458040e-03 4.148274234715e-03 0.0 
0.0 0.0 0.0 
4.528248364698e-03 4.995889163769e-03 0.0 
4.995889163769e-03 -1.928384076540e-03 0.0 
0.0 0.0 0.0 
-2.159881894459e-05 -2.471617856780e-03 0.0 
-2.471617856780e-03 7.169042477688e-04 0.0 
0.0 0.0 0.0 
6.774135360508e-04 5.344536669141e-04 0.0 
5.344536669141e-04 4.293921370594e-03 0.0 
0.0 0.0 0.0 
-1.815807135070e-03 4.358262533989e-03 0.0 
4.358262533989e-03 1.428138094069e-02 0.0 
0.0 0.0 0.0 
2.488485856533e-03 -3.214945585956e-03 0.0 
-3.214945585956e-03 -2.117985753169e-03 0.0 
0.0 0.0 0.0 
0.0 1.072839543914e-03 0.0 
1.072839543914e-03 4.482056637203e-03 0.0 
0.0 0.0 0.0 
1.417231023445e-03 -1.823078228365e-03 0.0 
-1.823078228365e-03 2.615175390224e-04 0.0 
0.0 0.0 0.0 
-8.447754594113e-04 4.910541961145e-03 0.0 
4.910541961145e-03 5.457508589439e-03 0.0 
0.0 0.0 0.0 
-3.224701211217e-03 3.737922078181e-03 0.0 
3.737922078181e-03 1.301520178883e-02 0.0 
0.0 0.0 0.0 
8.218063364302e-03 2.723969151968e-03 0.0 
2.723969151968e-03 -5.339505353248e-03 0.0 
0.0 0.0 0.0 
1.559661388296e-03 -2.294247657002e-03 0.0 
-2.294247657002e-03 -6.277654048417e-04 0.0 
0.0 0.0 0.0 
4.554094665087e-03 -7.741750508893e-05 0.0 
-7.741750508893e-05 -2.464196047365e-03 0.0 
0.0 0.0 0.0 
-3.059531383998e-03 3.713616353884e-03 0.0 
3.713616353884e-03 1.432172554635e-02 0.0 
0.0 0.0 0.0 
-1.580692856100e-03 4.802559915252e-03 0.0 
4.802559915252e-03 7.542890521388e-03 0.0 
0.0 0.0 0.0 
3.841411945220e-03 3.256800481263e-03 0.0 
3.256800481263e-03 8.320132022310e-04 0.0 
0.0 0.0 0.0 
-2.254011780415e-03 1.557222010314e-04 0.0 
1.557222010314e-04 1.606708548066e-02 0.0 
0.0 0.0 0.0 
-9.351705351968e-05 -2.321954025617e-03 0.0 
-2.321954025617e-03 1.220833648079e-03 0.0 
0.0 0.0 0.0 
5.052581593755e-03 2.309644658216e-03 0.0 
2.309644658216e-03 -1.556818141428e-03 0.0 
0.0 0.0 0.0 
1.997200079974e-03 -3.049673363535e-03 0.0 
-3.049673363535e-03 -2.136376099906e-03 0.0 
0.0 0.0 0.0 
-3.539558823067e-04 -1.557931465183e-03 0.0 
-1.557931465183e-03 3.080094373018e-03 0.0 
0.0 0.0 0.0 
3.005816559880e-03 7.644936788804e-05 0.0 
7.644936788804e-05 -9.381905484046e-04 0.0 
0.0 0.0 0.0 
3.041224687802e-03 6.001663295098e-03 0.0 
6.001663295098e-03 -4.946731931499e-04 0.0 
0.0 0.0 0.0 
2.657156377042e-03 -3.167313027429e-03 0.0 
-3.167313027429e-03 -3.053483227700e-03 0.0 
0.0 0.0 0.0 
-5.373996689286e-04 -1.990199280070e-03 0.0 
-1.990199280070e-03 2.333747657754e-03 0.0 
0.0 0.0 0.0 
3.509771655909e-03 5.191913302347e-03 0.0 
5.191913302347e-03 -3.835011426236e-04 0.0 
0.0 0.0 0.0 
1.842214068104e-03 -1.618095605528e-03 0.0 
-1.618095605528e-03 2.290069374953e-04 0.0 
0.0 0.0 0.0 
-3.085232186770e-03 9.198312628689e-04 0.0 
9.198312628689e-04 1.614817447285e-02 0.0 
0.0 0.0 0.0 
1.887750911142e-03 -3.316884091987e-03 0.0 
-3.316884091987e-03 -2.098515659069e-03 0.0 
0.0 0.0 0.0 
0.0 6.925397504997e-04 0.0 
6.925397504997e-04 4.352698218871e-03 0.0 
0.0 0.0 0.0 
-9.767444909725e-04 5.292925528228e-03 0.0 
5.292925528228e-03 7.859489472873e-03 0.0 
0.0 0.0 0.0 
-7.973054141049e-04 -1.743359394577e-03 0.0 
-1.743359394577e-03 2.822105014954e-03 0.0 
0.0 0.0 0.0 
-6.161739988652e-04 5.319270306700e-03 0.0 
5.319270306700e-03 6.819378813401e-03 0.0 
0.0 0.0 0.0 
-7.087338042113e-04 -1.850531282310e-03 0.0 
-1.850531282310e-03 2.313907776316e-03 0.0 
0.0 0.0 0.0 
6.803367845181e-04 -2.393707995194e-05 0.0 
-2.393707995194e-05 -2.681992297345e-04 0.0 
0.0 0.0 0.0 
-3.401218168263e-03 3.745466752014e-03 0.0 
3.745466752014e-03 1.370932727207e-02 0.0 
0.0 0.0 0.0 
-1.450814978070e-03 -6.330533363280e-04 0.0 
-6.330533363280e-04 3.371007028153e-03 0.0 
0.0 0.0 0.0 
2.134961246629e-03 -1.161584589541e-04 0.0 
-1.161584589541e-04 -8.014571995445e-04 0.0 
0.0 0.0 0.0 
-1.038889877562e-03 -1.557913879984e-03 0.0 
-1.557913879984e-03 3.031699950684e-03 0.0 
0.0 0.0 0.0 
1.762766913389e-03 -1.260792867430e-03 0.0 
-1.260792867430e-03 7.995960006719e-04 0.0 
0.0 0.0 0.0 
-1.435329985851e-03 9.482317578853e-04 0.0 
9.482317578853e-04 1.705410202570e-02 0.0 
0.0 0.0 0.0 
5.214985555349e-03 -3.482006812901e-04 0.0 
-3.482006812901e-04 -3.651251345716e-03 0.0 
0.0 0.0 0.0 
4.850633546748e-03 -3.180252537377e-04 0.0 
-3.180252537377e-04 -2.786164886393e-03 0.0 
0.0 0.0 0.0 
-4.112859765275e-03 3.243219934358e-03 0.0 
3.243219934358e-03 1.381044629319e-02 0.0 
0.0 0.0 0.0 
-3.244006655551e-03 4.444284339753e-04 0.0 
4.444284339753e-04 1.525703070174e-02 0.0 
0.0 0.0 0.0 
-6.928733204702e-04 3.799533948120e-03 0.0 
3.799533948120e-03 1.562726724761e-02 0.0 
0.0 0.0 0.0 
-2.280857045792e-04 5.294458924765e-03 0.0 
5.294458924765e-03 5.763880579160e-03 0.0 
0.0 0.0 0.0 
2.974857016952e-03 -1.524296479785e-04 0.0 
-1.524296479785e-04 -1.117417177775e-03 0.0 
0.0 0.0 0.0 
3.246078069807e-04 -1.229159229195e-03 0.0 
-1.229159229195e-03 8.190133863708e-04 0.0 
0.0 0.0 0.0 
-1.063673124531e-04 -1.089446014470e-03 0.0 
-1.089446014470e-03 7.889605775360e-04 0.0 
0.0 0.0 0.0 
1.961017287786e-04 -2.391628414898e-03 0.0 
-2.391628414898e-03 6.147015499551e-04 0.0 
0.0 0.0 0.0 
6.009743795343e-05 5.493561857768e-03 0.0 
5.493561857768e-03 8.658532708344e-03 0.0 
0.0 0.0 0.0 
-1.651032553294e-03 9.551740986899e-04 0.0 
9.551740986899e-04 1.705404365272e-02 0.0 
0.0 0.0 0.0 
6.392606832129e-04 -1.163334292008e-03 0.0 
-1.163334292008e-03 2.838473056812e-03 0.0 
0.0 0.0 0.0 
-2.332742639037e-04 -1.970883865528e-03 0.0 
-1.970883865528e-03 1.359992170670e-03 0.0 
0.0 0.0 0.0 
-5.958366445804e-04 -1.506851011658e-03 0.0 
-1.506851011658e-03 3.073437939762e-03 0.0 
0.0 0.0 0.0 
2.124031700777e-03 -1.916879440100e-05 0.0 
-1.916879440100e-05 1.603225641012e-03 0.0 
0.0 0.0 0.0 
5.294216107486e-03 2.343584593034e-04 0.0 
2.343584593034e-04 -7.183588842834e-03 0.0 
0.0 0.0 0.0 
-1.436590970249e-03 -3.648093895285e-04 0.0 
-3.648093895285e-04 3.366181392511e-03 0.0 
0.0 0.0 0.0 
-1.180097583488e-03 -3.459439178514e-04 0.0 
-3.459439178514e-04 2.929093768502e-03 0.0 
0.0 0.0 0.0 
5.475556202725e-04 1.107970676698e-04 0.0 
1.107970676698e-04 4.240711213137e-03 0.0 
0.0 0.0 0.0 
0.0 2.802622316155e-04 0.0 
2.802622316155e-04 4.235253235033e-03 0.0 
0.0 0.0 0.0 
-1.543893173853e-03 -3.941575814383e-04 0.0 
-3.941575814383e-04 3.611826851139e-03 0.0 
0.0 0.0 0.0 
-9.506386267764e-04 -1.594331787070e-03 0.0 
-1.594331787070e-03 2.800252634681e-03 0.0 
0.0 0.0 0.0 
1.445119923790e-03 -2.122587047634e-03 0.0 
-2.122587047634e-03 1.214530268325e-04 0.0 
0.0 0.0 0.0 
2.101280212109e-03 4.545422253226e-04 0.0 
4.545422253226e-04 2.086174165998e-03 0.0 
0.0 0.0 0.0 
-4.654524010439e-05 -1.413020195875e-03 0.0 
-1.413020195875e-03 9.992472632090e-04 0.0 
0.0 0.0 0.0 
1.987889111387e-03 -4.908294051737e-04 0.0 
-4.908294051737e-04 1.367606132543e-03 0.0 
0.0 0.0 0.0 
1.750133240350e-03 -3.340585058217e-04 0.0 
-3.340585058217e-04 8.528592762236e-06 0.0 
0.0 0.0 0.0 
-9.281945085339e-04 -1.634188546365e-03 0.0 
-1.634188546365e-03 2.575682172103e-03 0.0 
0.0 0.0 0.0 
-4.298479058493e-04 -2.020338526627e-03 0.0 
-2.020338526627e-03 1.999102863211e-03 0.0 
0.0 0.0 0.0 
1.907094813928e-03 -1.851198386265e-04 0.0 
-1.851198386265e-04 -4.215278398986e-04 0.0 
0.0 0.0 0.0 
-1.535177971702e-03 -3.867695552129e-04 0.0 
-3.867695552129e-04 3.563788279318e-03 0.0 
0.0 0.0 0.0 
-1.654225084916e-03 3.661951857243e-03 0.0 
3.661951857243e-03 1.532971465159e-02 0.0 
0.0 0.0 0.0 
3.164382040928e-03 -9.788668529227e-05 0.0 
-9.788668529227e-05 -1.183890900466e-03 0.0 
0.0 0.0 0.0 
-3.517071268932e-03 7.119359883037e-04 0.0 
7.119359883037e-04 1.532579303403e-02 0.0 
0.0 0.0 0.0 
-3.600238235528e-03 8.720796111347e-04 0.0 
8.720796111347e-04 1.518148293359e-02 0.0 
0.0 0.0 0.0 
4.633388361447e-03 7.107184208935e-04 0.0 
7.107184208935e-04 -1.852001690360e-03 0.0 
0.0 0.0 0.0 
-1.121775719225e-03 -6.230273999413e-05 0.0 
-6.230273999413e-05 2.939532011084e-03 0.0 
0.0 0.0 0.0 
1.827109481639e-03 -3.075159500640e-03 0.0 
-3.075159500640e-03 -1.265891561645e-03 0.0 
0.0 0.0 0.0 
3.170378778665e-03 8.273998172556e-03 0.0 
8.273998172556e-03 -1.429820934356e-03 0.0 
0.0 0.0 0.0 
3.108630146431e-04 -8.886730612323e-04 0.0 
-8.886730612323e-04 3.833208857597e-03 0.0 
0.0 0.0 0.0 
3.980476563197e-04 5.126917063771e-03 0.0 
5.126917063771e-03 8.377682268363e-03 0.0 
0.0 0.0 0.0 
-2.186093586223e-03 1.416859760881e-03 0.0 
1.416859760881e-03 1.686430559847e-02 0.0 
0.0 0.0 0.0 
1.223678103054e-03 6.676980642506e-03 0.0 
6.676980642506e-03 1.758903914522e-03 0.0 
0.0 0.0 0.0 
2.305091177346e-04 -1.032502679849e-03 0.0 
-1.032502679849e-03 5.940060521641e-04 0.0 
0.0 0.0 0.0 
-2.405546720531e-03 4.675930368255e-03 0.0 
4.675930368255e-03 9.436664856648e-03 0.0 
0.0 0.0 0.0 
-2.709303643359e-03 1.669230637078e-04 0.0 
1.669230637078e-04 1.515690508031e-02 0.0 
0.0 0.0 0.0 
-2.487346142787e-03 1.520510201253e-04 0.0 
1.520510201253e-04 1.506238399154e-02 0.0 
0.0 0.0 0.0 
2.324778253490e-03 -1.101964579628e-04 0.0 
-1.101964579628e-04 -8.892737353350e-04 0.0 
0.0 0.0 0.0 
1.750409463784e-03 -2.315555878874e-04 0.0 
-2.315555878874e-04 -3.516724131712e-04 0.0 
0.0 0.0 0.0 
1.473778051126e-03 -1.804103195066e-04 0.0 
-1.804103195066e-04 5.630391342470e-05 0.0 
0.0 0.0 0.0 
-2.937725243779e-04 -1.641460809963e-03 0.0 
-1.641460809963e-03 1.432979876080e-03 0.0 
0.0 0.0 0.0 
2.650699874102e-03 -1.482766636622e-04 0.0 
-1.482766636622e-04 -7.120299336538e-04 0.0 
0.0 0.0 0.0 
-1.583020348418e-03 -3.797162994370e-04 0.0 
-3.797162994370e-04 3.806846947392e-03 0.0 
0.0 0.0 0.0 
4.578826338393e-04 -1.907129880646e-03 0.0 
-1.907129880646e-03 -3.096293112400e-03 0.0 
0.0 0.0 0.0 
-4.017408285719e-04 -1.859822355785e-03 0.0 
-1.859822355785e-03 1.624045268495e-03 0.0 
0.0 0.0 0.0 
-2.035957333950e-03 2.330625833087e-04 0.0 
2.330625833087e-04 1.635518523902e-02 0.0 
0.0 0.0 0.0 
-2.768273505988e-03 3.953562216019e-04 0.0 
3.953562216019e-04 1.503088178431e-02 0.0 
0.0 0.0 0.0 
-2.620050754930e-04 5.526738706836e-03 0.0 
5.526738706836e-03 9.603191397192e-03 0.0 
0.0 0.0 0.0 
1.383057150409e-03 -1.586291650728e-03 0.0 
-1.586291650728e-03 1.028811952577e-03 0.0 
0.0 0.0 0.0 
-2.136738511009e-03 1.488329066909e-04 0.0 
1.488329066909e-04 1.605733899047e-02 0.0 
0.0 0.0 0.0 
-1.288320789039e-03 -1.449794894607e-04 0.0 
-1.449794894607e-04 3.128866650100e-03 0.0 
0.0 0.0 0.0 
2.017029939211e-03 -1.701870045419e-04 0.0 
-1.701870045419e-04 -1.113615793757e-04 0.0 
0.0 0.0 0.0 
0.0 2.015659952830e-03 0.0 
2.015659952830e-03 1.702682162514e-02 0.0 
0.0 0.0 0.0 
-5.723891140877e-04 2.257348987408e-03 0.0 
2.257348987408e-03 1.694120400225e-02 0.0 
0.0 0.0 0.0 
-2.892537952881e-03 7.664735385281e-04 0.0 
7.664735385281e-04 1.596095815924e-02 0.0 
0.0 0.0 0.0 
-2.877162781800e-03 2.141152253726e-04 0.0 
2.141152253726e-04 1.518508161245e-02 0.0 
0.0 0.0 0.0 
-1.240095034522e-03 -3.093440828143e-04 0.0 
-3.093440828143e-04 3.095166183674e-03 0.0 
0.0 0.0 0.0 
-4.892742149041e-04 1.573278634982e-03 0.0 
1.573278634982e-03 1.721087286032e-02 0.0 
0.0 0.0 0.0 
-1.178384150060e-04 -1.782992305260e-03 0.0 
-1.782992305260e-03 1.253586302508e-03 0.0 
0.0 0.0 0.0 
-3.045553469139e-03 5.919604104206e-04 0.0 
5.919604104206e-04 1.502401827286e-02 0.0 
0.0 0.0 0.0 
-3.020828425164e-03 3.152766446655e-04 0.0 
3.152766446655e-04 1.521526062256e-02 0.0 
0.0 0.0 0.0 
-2.914926508461e-03 4.395193496069e-03 0.0 
4.395193496069e-03 1.021899012555e-02 0.0 
0.0 0.0 0.0 
0.0 4.262099925385e-03 0.0 
4.262099925385e-03 1.529001293304e-02 0.0 
0.0 0.0 0.0 
-5.666127448327e-04 1.909565462243e-03 0.0 
1.909565462243e-03 1.709274736209e-02 0.0 
0.0 0.0 0.0 
2.508827402934e-03 -2.008648804332e-04 0.0 
-2.008648804332e-04 -6.417431909875e-04 0.0 
0.0 0.0 0.0 
2.508731381822e-03 -9.836706708131e-05 0.0 
-9.836706708131e-05 -9.659214329711e-04 0.0 
0.0 0.0 0.0 
1.620381026188e-04 -1.030033673474e-03 0.0 
-1.030033673474e-03 7.362311302608e-04 0.0 
0.0 0.0 0.0 
-2.099431924574e-04 -2.113603216783e-03 0.0 
-2.113603216783e-03 2.011761052436e-03 0.0 
0.0 0.0 0.0 
-5.938183179476e-04 -1.427580760122e-04 0.0 
-1.427580760122e-04 5.619461062372e-03 0.0 
0.0 0.0 0.0 
-2.532742166364e-03 -2.223769456795e-03 0.0 
-2.223769456795e-03 -2.270971144272e-03 0.0 
0.0 0.0 0.0 
-1.588812084022e-03 1.190428220885e-04 0.0 
1.190428220885e-04 1.690743517908e-02 0.0 
0.0 0.0 0.0 
-3.512046851211e-04 -1.383564921074e-03 0.0 
-1.383564921074e-03 6.644886603118e-04 0.0 
0.0 0.0 0.0 
4.370279658978e-03 1.243049364407e-05 0.0 
1.243049364407e-05 -1.807991714651e-03 0.0 
0.0 0.0 0.0 
1.859872246552e-03 -4.575814542178e-04 0.0 
-4.575814542178e-04 -1.139661590233e-03 0.0 
0.0 0.0 0.0 
-2.488686822385e-04 -3.172063291808e-03 0.0 
-3.172063291808e-03 -1.555969286088e-03 0.0 
0.0 0.0 0.0 
4.045484856242e-03 -6.842460867766e-04 0.0 
-6.842460867766e-04 -1.916363283541e-03 0.0 
0.0 0.0 0.0 
-5.098024581992e-04 -5.538780262989e-04 0.0 
-5.538780262989e-04 5.184284984006e-03 0.0 
0.0 0.0 0.0 
-2.146342805847e-03 1.738987574439e-04 0.0 
1.738987574439e-04 1.632467344022e-02 0.0 
0.0 0.0 0.0 
-1.883584270196e-03 4.891655849029e-03 0.0 
4.891655849029e-03 8.533688902477e-03 0.0 
0.0 0.0 0.0 
2.017414458774e-03 -1.280491766935e-04 0.0 
-1.280491766935e-04 -4.853171199286e-04 0.0 
0.0 0.0 0.0 
-7.794092937382e-04 -1.255602826983e-03 0.0 
-1.255602826983e-03 3.551890654899e-03 0.0 
0.0 0.0 0.0 
0.0 6.146268528498e-04 0.0 
6.146268528498e-04 1.739738471845e-02 0.0 
0.0 0.0 0.0 
-4.264450603755e-04 7.125951226347e-04 0.0 
7.125951226347e-04 1.739116356958e-02 0.0 
0.0 0.0 0.0 
-2.619482067157e-03 2.722964865798e-04 0.0 
2.722964865798e-04 1.503191183992e-02 0.0 
0.0 0.0 0.0 
4.348460901616e-03 6.749961678046e-04 0.0 
6.749961678046e-04 -1.346106404026e-03 0.0 
0.0 0.0 0.0 
0.0 1.678120518124e-03 0.0 
1.678120518124e-03 1.716310106690e-02 0.0 
0.0 0.0 0.0 
3.537761657317e-03 4.738945539510e-03 0.0 
4.738945539510e-03 2.658873684406e-03 0.0 
0.0 0.0 0.0 
2.227689786439e-03 -1.071305784771e-04 0.0 
-1.071305784771e-04 -2.854694856460e-04 0.0 
0.0 0.0 0.0 
2.752473740258e-03 -1.172136356155e-04 0.0 
-1.172136356155e-04 -7.421307494875e-04 0.0 
0.0 0.0 0.0 
2.240673029017e-03 -4.668915483753e-05 0.0 
-4.668915483753e-05 -5.234082194513e-04 0.0 
0.0 0.0 0.0 
-1.486852220829e-03 -1.386965241211e-04 0.0 
-1.386965241211e-04 3.446804097164e-03 0.0 
0.0 0.0 0.0 
-2.059310708293e-04 -5.398435594646e-04 0.0 
-5.398435594646e-04 5.767883054521e-03 0.0 
0.0 0.0 0.0 
-7.141817460978e-04 6.473285028355e-06 0.0 
6.473285028355e-06 1.733019584234e-02 0.0 
0.0 0.0 0.0 
2.755585014037e-03 -3.966307949018e-05 0.0 
-3.966307949018e-05 -1.074255347447e-03 0.0 
0.0 0.0 0.0 
-1.603696754319e-03 -1.424319003439e-04 0.0 
-1.424319003439e-04 3.806504743617e-03 0.0 
0.0 0.0 0.0 
0.0 -4.075359791308e-04 0.0 
-4.075359791308e-04 5.852398866501e-03 0.0 
0.0 0.0 0.0 
-1.992464894515e-04 -6.410145999146e-04 0.0 
-6.410145999146e-04 5.645462019197e-03 0.0 
0.0 0.0 0.0 
5.262029296553e-04 -2.370694420766e-04 0.0 
-2.370694420766e-04 4.294934646611e-03 0.0 
0.0 0.0 0.0 
-1.804529419870e-03 1.142610597956e-04 0.0 
1.142610597956e-04 1.666966606115e-02 0.0 
0.0 0.0 0.0 
-1.431026888271e-03 -7.598496196713e-06 0.0 
-7.598496196713e-06 1.701397829142e-02 0.0 
0.0 0.0 0.0 
0.0 -5.258689274403e-04 0.0 
-5.258689274403e-04 5.711886658746e-03 0.0 
0.0 0.0 0.0 
0.0 -6.385277257356e-04 0.0 
-6.385277257356e-04 5.576174927760e-03 0.0 
0.0 0.0 0.0 
-1.559698929820e-03 1.379910922130e-04 0.0 
1.379910922130e-04 1.690809445912e-02 0.0 
0.0 0.0 0.0 
3.483972719600e-03 2.061163265186e-05 0.0 
2.061163265186e-05 -1.357942766016e-03 0.0 
0.0 0.0 0.0 
-2.414543404411e-03 8.201039353280e-05 0.0 
8.201039353280e-05 1.507091887894e-02 0.0 
0.0 0.0 0.0 
-2.551410178063e-03 1.944715742273e-04 0.0 
1.944715742273e-04 1.507227423583e-02 0.0 
0.0 0.0 0.0 
2.651249205852e-03 -7.663878518740e-05 0.0 
-7.663878518740e-05 -1.024078599413e-03 0.0 
0.0 0.0 0.0 
0.0 -7.431727733034e-04 0.0 
-7.431727733034e-04 5.011467087765e-03 0.0 
0.0 0.0 0.0 
3.549956337983e-04 -5.190735050937e-04 0.0 
-5.190735050937e-04 4.433685900359e-03 0.0 
0.0 0.0 0.0 
0.0 -5.389571296760e-04 0.0 
-5.389571296760e-04 4.519229793054e-03 0.0 
0.0 0.0 0.0 
3.364606722492e-03 -4.650335586253e-05 0.0 
-4.650335586253e-05 -1.292306274517e-03 0.0 
0.0 0.0 0.0 
3.306118807884e-03 -8.297603789261e-05 0.0 
-8.297603789261e-05 -1.249546470269e-03 0.0 
0.0 0.0 0.0 
0.0 -4.273874718815e-05 0.0 
-4.273874718815e-05 4.245941865151e-03 0.0 
0.0 0.0 0.0 
0.0 -3.343985599846e-04 0.0 
-3.343985599846e-04 4.340010761837e-03 0.0 
0.0 0.0 0.0 
-1.913385010097e-03 -1.933384086408e-05 0.0 
-1.933384086408e-05 1.652612154056e-02 0.0 
0.0 0.0 0.0 
-2.333070189009e-03 2.856758919082e-05 0.0 
2.856758919082e-05 1.506462583376e-02 0.0 
0.0 0.0 0.0 
-1.695930300721e-03 -1.258072884009e-05 0.0 
-1.258072884009e-05 1.679107226604e-02 0.0 
0.0 0.0 0.0 
-2.188312188172e-03 -2.946732578549e-05 0.0 
-2.946732578549e-05 1.587790175666e-02 0.0 
0.0 0.0 0.0 
-2.283633381275e-03 4.214644785800e-05 0.0 
4.214644785800e-05 1.506503293223e-02 0.0 
0.0 0.0 0.0 
2.664222445888e-03 -1.802310602818e-04 0.0 
-1.802310602818e-04 -9.874301271163e-04 0.0 
0.0 0.0 0.0 
2.035915283125e-03 -1.579849304941e-04 0.0 
-1.579849304941e-04 -6.838832525726e-04 0.0 
0.0 0.0 0.0 
2.176951708703e-03 -1.975380891236e-04 0.0 
-1.975380891236e-04 -7.576117593757e-04 0.0 
0.0 0.0 0.0 
2.464769441262e-03 -8.250882469149e-05 0.0 
-8.250882469149e-05 -7.628465303529e-04 0.0 
0.0 0.0 0.0 
-1.620262985762e-03 -1.117894501536e-04 0.0 
-1.117894501536e-04 3.953957445268e-03 0.0 
0.0 0.0 0.0 
-1.587920606076e-03 -1.292003236662e-04 0.0 
-1.292003236662e-04 3.712388427653e-03 0.0 
0.0 0.0 0.0 
1.199762367507e-03 -1.632623705194e-04 0.0 
-1.632623705194e-04 -3.990717511947e-04 0.0 
0.0 0.0 0.0 
-1.415318959596e-03 -7.147598637453e-05 0.0 
-7.147598637453e-05 4.586538575890e-03 0.0 
0.0 0.0 0.0 
1.651420054211e-03 -1.811528169733e-04 0.0 
-1.811528169733e-04 -5.973258496189e-04 0.0 
0.0 0.0 0.0 
0.0 3.471809907326e-03 0.0 
3.471809907326e-03 1.610882543515e-02 0.0 
0.0 0.0 0.0 
0.0 1.392438581399e-03 0.0 
1.392438581399e-03 1.725715042827e-02 0.0 
0.0 0.0 0.0 
0.0 2.366524041286e-03 0.0 
2.366524041286e-03 1.684942546942e-02 0.0 
0.0 0.0 0.0 
8.917851573946e-04 -1.136497438227e-04 0.0 
-1.136497438227e-04 7.123033668679e-04 0.0 
0.0 0.0 0.0 
-9.668633383100e-04 -1.442010300772e-04 0.0 
-1.442010300772e-04 2.733180281031e-03 0.0 
0.0 0.0 0.0 
0.0 1.095946736335e-03 0.0 
1.095946736335e-03 1.730718766666e-02 0.0 
0.0 0.0 0.0 
-9.299216071459e-04 -2.500402686953e-05 0.0 
-2.500402686953e-05 5.284058846010e-03 0.0 
0.0 0.0 0.0 
0.0 8.616887825267e-04 0.0 
8.616887825267e-04 1.738042964748e-02 0.0 
0.0 0.0 0.0 
-7.191336275529e-04 -1.119857116717e-05 0.0 
-1.119857116717e-05 5.521198698844e-03 0.0 
0.0 0.0 0.0 
-4.709096395560e-04 -5.650709486531e-06 0.0 
-5.650709486531e-06 5.741319940901e-03 0.0 
0.0 0.0 0.0 
-1.537200961633e-03 -1.288180788898e-04 0.0 
-1.288180788898e-04 3.563692261096e-03 0.0 
0.0 0.0 0.0 
-5.224756053198e-04 1.259554367798e-03 0.0 
1.259554367798e-03 1.728329674712e-02 0.0 
0.0 0.0 0.0 
-4.126702401785e-04 1.039498531108e-03 0.0 
1.039498531108e-03 1.733492146526e-02 0.0 
0.0 0.0 0.0 
-8.149690153195e-04 -1.421616913160e-04 0.0 
-1.421616913160e-04 5.368187471564e-03 0.0 
0.0 0.0 0.0 
-5.923085096489e-04 -1.449628991537e-04 0.0 
-1.449628991537e-04 5.619584654168e-03 0.0 
0.0 0.0 0.0 
-1.026071046360e-03 -7.717583355705e-04 0.0 
-7.717583355705e-04 4.343053430120e-03 0.0 
0.0 0.0 0.0 
1.942274430473e-04 6.012336168295e-05 0.0 
6.012336168295e-05 1.498519218757e-05 0.0 
0.0 0.0 0.0 
-1.086249383436e-03 -1.384218800458e-03 0.0 
-1.384218800458e-03 2.773816924615e-03 0.0 
0.0 0.0 0.0 
2.333001921326e-03 -2.724729690427e-04 0.0 
-2.724729690427e-04 -5.639458706327e-04 0.0 
0.0 0.0 0.0 
1.097486642836e-04 -9.514137827329e-04 0.0 
-9.514137827329e-04 3.840071717890e-03 0.0 
0.0 0.0 0.0 
-8.134404154364e-04 -1.811173708081e-03 0.0 
-1.811173708081e-03 2.601823521746e-03 0.0 
0.0 0.0 0.0 
-5.355060238487e-04 -7.892097630224e-04 0.0 
-7.892097630224e-04 4.561184643989e-03 0.0 
0.0 0.0 0.0 
4.871012152252e-05 -1.497531264753e-03 0.0 
-1.497531264753e-03 1.125443744369e-03 0.0 
0.0 0.0 0.0 
9.127118826782e-04 -5.254374387017e-04 0.0 
-5.254374387017e-04 3.091095679983e-04 0.0 
0.0 0.0 0.0 
-5.542859642046e-04 -6.906436267057e-04 0.0 
-6.906436267057e-04 4.867774137296e-03 0.0 
0.0 0.0 0.0 
-1.141942372736e-03 -1.374688731338e-03 0.0 
-1.374688731338e-03 3.002944407147e-03 0.0 
0.0 0.0 0.0 
-1.393932601618e-03 -3.777979467275e-04 0.0 
-3.777979467275e-04 3.272759289436e-03 0.0 
0.0 0.0 0.0 
-6.864637766283e-04 -7.746321566626e-04 0.0 
-7.746321566626e-04 4.559821556850e-03 0.0 
0.0 0.0 0.0 
-1.086208421438e-03 4.800897098683e-04 0.0 
4.800897098683e-04 1.716937871829e-02 0.0 
0.0 0.0 0.0 
-1.386887514414e-03 -1.008838487428e-04 0.0 
-1.008838487428e-04 3.277998089728e-03 0.0 
0.0 0.0 0.0 
1.693382906075e-03 -1.155294517685e-03 0.0 
-1.155294517685e-03 6.571901355210e-04 0.0 
0.0 0.0 0.0 
2.642519398095e-04 -1.772296249021e-03 0.0 
-1.772296249021e-03 2.259141473191e-03 0.0 
0.0 0.0 0.0 
-8.713335910159e-04 -8.444482044237e-04 0.0 
-8.444482044237e-04 4.353340180710e-03 0.0 
0.0 0.0 0.0 
-9.625362450715e-04 -6.216299764233e-04 0.0 
-6.216299764233e-04 4.656571847762e-03 0.0 
0.0 0.0 0.0 
8.563890922277e-03 2.806952812093e-03 0.0 
2.806952812093e-03 -6.958518951251e-03 0.0 
0.0 0.0 0.0 
-2.030249572696e-03 4.762683320981e-03 0.0 
4.762683320981e-03 8.430795444087e-03 0.0 
0.0 0.0 0.0 
2.870151133438e-03 5.212399214766e-03 0.0 
5.212399214766e-03 1.048213398459e-03 0.0 
0.0 0.0 0.0 
-5.663069611687e-04 -1.318527005333e-03 0.0 
-1.318527005333e-03 3.560322446224e-03 0.0 
0.0 0.0 0.0 
-7.448184727209e-04 -5.999109549125e-04 0.0 
-5.999109549125e-04 4.897636570830e-03 0.0 
0.0 0.0 0.0 
-1.006021032240e-03 -4.151901672482e-04 0.0 
-4.151901672482e-04 4.905756721379e-03 0.0 
0.0 0.0 0.0 
7.944562734830e-05 -2.342081412703e-03 0.0 
-2.342081412703e-03 7.246475189369e-04 0.0 
0.0 0.0 0.0 
-1.197611990704e-03 8.417542149931e-04 0.0 
8.417542149931e-04 1.714292041306e-02 0.0 
0.0 0.0 0.0 
-1.536133402996e-03 7.079442231127e-04 0.0 
7.079442231127e-04 1.698530034610e-02 0.0 
0.0 0.0 0.0 
-2.348674097742e-03 1.905083032307e-04 0.0 
1.905083032307e-04 1.563633750179e-02 0.0 
0.0 0.0 0.0 
-2.664692656771e-04 -1.356445619206e-03 0.0 
-1.356445619206e-03 3.376824573405e-03 0.0 
0.0 0.0 0.0 
-7.384323763391e-04 -1.077966161294e-03 0.0 
-1.077966161294e-03 3.983452026153e-03 0.0 
0.0 0.0 0.0 
-1.230757921912e-03 4.870540492586e-04 0.0 
4.870540492586e-04 1.717028672683e-02 0.0 
0.0 0.0 0.0 
-1.348981875860e-03 6.209768182803e-04 0.0 
6.209768182803e-04 1.708808365926e-02 0.0 
0.0 0.0 0.0 
2.704396926669e-04 -1.986587254838e-03 0.0 
-1.986587254838e-03 1.618320919167e-03 0.0 
0.0 0.0 0.0 
-5.788774716260e-04 -5.488774030165e-04 0.0 
-5.488774030165e-04 5.183974982744e-03 0.0 
0.0 0.0 0.0 
-1.881599352564e-03 1.369132021682e-03 0.0 
1.369132021682e-03 1.686887123938e-02 0.0 
0.0 0.0 0.0 
-1.059905883289e-03 -3.373504032679e-04 0.0 
-3.373504032679e-04 4.905829976787e-03 0.0 
0.0 0.0 0.0 
-4.428330509154e-05 -8.774164142588e-04 0.0 
-8.774164142588e-04 4.349576039875e-03 0.0 
0.0 0.0 0.0 
-1.365529920344e-03 8.569794164578e-04 0.0 
8.569794164578e-04 1.714155032548e-02 0.0 
0.0 0.0 0.0 
-2.205914254628e-03 6.056109179146e-04 0.0 
6.056109179146e-04 1.664889724170e-02 0.0 
0.0 0.0 0.0 
1.351361535365e-03 -1.507787117071e-03 0.0 
-1.507787117071e-03 8.393155092112e-04 0.0 
0.0 0.0 0.0 
-3.787717685136e-04 -7.280653323568e-04 0.0 
-7.280653323568e-04 1.857248043743e-03 0.0 
0.0 0.0 0.0 
1.933083346695e-04 -2.559298857544e-03 0.0 
-2.559298857544e-03 4.386391120517e-04 0.0 
0.0 0.0 0.0 
5.822498208696e-04 -7.768686466354e-04 0.0 
-7.768686466354e-04 5.575629006447e-04 0.0 
0.0 0.0 0.0 
1.849209518154e-04 -1.790261999593e-03 0.0 
-1.790261999593e-03 -1.448513301077e-04 0.0 
0.0 0.0 0.0 
-1.467355264030e-03 6.144666037306e-04 0.0 
6.144666037306e-04 1.708899694922e-02 0.0 
0.0 0.0 0.0 
-6.738692965035e-04 -4.498366075714e-04 0.0 
-4.498366075714e-04 5.184211233804e-03 0.0 
0.0 0.0 0.0 
6.746554682711e-04 -7.037525540415e-04 0.0 
-7.037525540415e-04 6.087092863760e-05 0.0 
0.0 0.0 0.0 
-1.557359408941e-03 4.831035408127e-03 0.0 
4.831035408127e-03 1.304770497086e-02 0.0 
0.0 0.0 0.0 
-2.382321824180e-03 2.707564845185e-04 0.0 
2.707564845185e-04 1.584160261800e-02 0.0 
0.0 0.0 0.0 
-5.887307687626e-04 -9.654453144149e-04 0.0 
-9.654453144149e-04 4.159403025144e-03 0.0 
0.0 0.0 0.0 
-8.173257539683e-04 -5.290163545748e-04 0.0 
-5.290163545748e-04 4.915153968916e-03 0.0 
0.0 0.0 0.0 
1.281891130574e-03 -2.871676957812e-03 0.0 
-2.871676957812e-03 -5.335963932257e-04 0.0 
0.0 0.0 0.0 
-9.293950734311e-04 -4.922814941757e-04 0.0 
-4.922814941757e-04 4.910450967796e-03 0.0 
0.0 0.0 0.0 
-2.455932574720e-03 1.452710494064e-04 0.0 
1.452710494064e-04 1.563534633666e-02 0.0 
0.0 0.0 0.0 
4.538586915115e-03 2.547325077174e-03 0.0 
2.547325077174e-03 -3.334166259940e-04 0.0 
0.0 0.0 0.0 
-7.885659316120e-05 -7.477046809120e-04 0.0 
-7.477046809120e-04 4.794693468799e-03 0.0 
0.0 0.0 0.0 
-2.773020971322e-04 -4.262581095844e-04 0.0 
-4.262581095844e-04 1.895688999183e-03 0.0 
0.0 0.0 0.0 
3.080395270119e-04 -8.791084609375e-04 0.0 
-8.791084609375e-04 3.804381768204e-03 0.0 
0.0 0.0 0.0 
-1.994174315154e-03 5.619797314306e-04 0.0 
5.619797314306e-04 1.677830879096e-02 0.0 
0.0 0.0 0.0 
-5.693358467873e-04 -6.391075735101e-04 0.0 
-6.391075735101e-04 2.154817171700e-03 0.0 
0.0 0.0 0.0 
4.030996171871e-04 -2.591022362372e-03 0.0 
-2.591022362372e-03 2.239032254139e-04 0.0 
0.0 0.0 0.0 
-1.445505346497e-03 -7.305882206942e-04 0.0 
-7.305882206942e-04 3.991813019970e-03 0.0 
0.0 0.0 0.0 
-2.351653184268e-03 6.134041616331e-04 0.0 
6.134041616331e-04 1.635502753944e-02 0.0 
0.0 0.0 0.0 
-7.322414224133e-04 -1.799938878928e-03 0.0 
-1.799938878928e-03 2.196585691618e-03 0.0 
0.0 0.0 0.0 
-1.779088399011e-03 5.021476851119e-04 0.0 
5.021476851119e-04 1.690355980380e-02 0.0 
0.0 0.0 0.0 
-2.193122328052e-03 4.173033584805e-04 0.0 
4.173033584805e-04 1.651436451310e-02 0.0 
0.0 0.0 0.0 
-1.006942141250e-03 -1.481172239846e-03 0.0 
-1.481172239846e-03 3.257495543880e-03 0.0 
0.0 0.0 0.0 
-1.071931972276e-03 -5.466013553452e-04 0.0 
-5.466013553452e-04 4.651366864681e-03 0.0 
0.0 0.0 0.0 
-8.894871214572e-04 -6.864608739344e-04 0.0 
-6.864608739344e-04 4.609102086481e-03 0.0 
0.0 0.0 0.0 
-1.812404502947e-03 5.671720110917e-04 0.0 
5.671720110917e-04 1.677665265240e-02 0.0 
0.0 0.0 0.0 
1.804894062694e-04 -6.180553550638e-04 0.0 
-6.180553550638e-04 1.275300723314e-03 0.0 
0.0 0.0 0.0 
-1.218367911812e-03 -1.290955128359e-03 0.0 
-1.290955128359e-03 3.408654095251e-03 0.0 
0.0 0.0 0.0 
2.414591860485e-03 3.502934050566e-03 0.0 
3.502934050566e-03 3.374714691276e-03 0.0 
0.0 0.0 0.0 
-1.969967834406e-03 7.813032688899e-04 0.0 
7.813032688899e-04 1.687750937690e-02 0.0 
0.0 0.0 0.0 
-1.220475143069e-03 -1.335537435001e-03 0.0 
-1.335537435001e-03 3.180784454627e-03 0.0 
0.0 0.0 0.0 
-3.884381337538e-05 -1.784304465994e-03 0.0 
-1.784304465994e-03 2.263016457038e-03 0.0 
0.0 0.0 0.0 
5.435656406074e-04 -8.987036382960e-04 0.0 
-8.987036382960e-04 3.269278516580e-03 0.0 
0.0 0.0 0.0 
-2.005969568449e-03 6.062193082514e-04 0.0 
6.062193082514e-04 1.664814658426e-02 0.0 
0.0 0.0 0.0 
3.770606420654e-03 -1.054276750667e-03 0.0 
-1.054276750667e-03 -7.347109579456e-03 0.0 
0.0 0.0 0.0 
8.795917918860e-04 -5.277465237922e-04 0.0 
-5.277465237922e-04 4.077515558945e-04 0.0 
0.0 0.0 0.0 
6.033608351000e-03 -1.317952020150e-04 0.0 
-1.317952020150e-04 -6.853963811530e-03 0.0 
0.0 0.0 0.0 
-6.320383715633e-04 -6.194120088189e-04 0.0 
-6.194120088189e-04 4.899938348714e-03 0.0 
0.0 0.0 0.0 
-2.184458729957e-03 6.197087731726e-04 0.0 
6.197087731726e-04 1.650756424190e-02 0.0 
0.0 0.0 0.0 
-1.462644230529e-03 -5.036844254184e-04 0.0 
-5.036844254184e-04 4.181559591536e-03 0.0 
0.0 0.0 0.0 
-2.440530854799e-03 4.081816623110e-04 0.0 
4.081816623110e-04 1.602959117337e-02 0.0 
0.0 0.0 0.0 
1.761762266442e-03 -3.247394892315e-04 0.0 
-3.247394892315e-04 1.649392566344e-03 0.0 
0.0 0.0 0.0 
-1.169923974734e-03 -1.208074173458e-03 0.0 
-1.208074173458e-03 3.635119545921e-03 0.0 
0.0 0.0 0.0 
-7.453849444874e-04 -7.263291571193e-04 0.0 
-7.263291571193e-04 4.614363234438e-03 0.0 
0.0 0.0 0.0 
-1.520483306972e-04 -4.516560393879e-04 0.0 
-4.516560393879e-04 1.811024678346e-03 0.0 
0.0 0.0 0.0 
7.002185051808e-05 -8.276833150622e-04 0.0 
-8.276833150622e-04 4.351592665963e-03 0.0 
0.0 0.0 0.0 
-1.144861609947e-03 -1.325655224551e-03 0.0 
-1.325655224551e-03 3.233853308238e-03 0.0 
0.0 0.0 0.0 
-3.747006203564e-04 -3.518952614873e-04 0.0 
-3.518952614873e-04 2.108983124729e-03 0.0 
0.0 0.0 0.0 
-1.310499220725e-03 -1.102492387089e-03 0.0 
-1.102492387089e-03 3.378473213459e-03 0.0 
0.0 0.0 0.0 
-9.621211898300e-04 -1.581272926303e-03 0.0 
-1.581272926303e-03 2.578793530423e-03 0.0 
0.0 0.0 0.0 
-3.292808365346e-04 -1.606662604959e-03 0.0 
-1.606662604959e-03 1.584059988856e-03 0.0 
0.0 0.0 0.0 
-1.365044019753e-03 -6.573780155161e-04 0.0 
-6.573780155161e-04 4.210373388021e-03 0.0 
0.0 0.0 0.0 
1.866029441093e-03 -9.925606768494e-05 0.0 
-9.925606768494e-05 -6.791896888402e-04 0.0 
0.0 0.0 0.0 
1.532874393668e-03 -1.746440486498e-04 0.0 
-1.746440486498e-04 -5.354392487901e-04 0.0 
0.0 0.0 0.0 
-9.209067161579e-04 -1.010516797779e-03 0.0 
-1.010516797779e-03 3.974169033107e-03 0.0 
0.0 0.0 0.0 
5.976133829266e-05 -5.124446386213e-04 0.0 
-5.124446386213e-04 1.541551298126e-03 0.0 
0.0 0.0 0.0 
-5.123530382493e-04 -1.330308502863e-03 0.0 
-1.330308502863e-03 3.374260128499e-03 0.0 
0.0 0.0 0.0 
-2.989105578861e-04 -1.561184144627e-03 0.0 
-1.561184144627e-03 2.847833338244e-03 0.0 
0.0 0.0 0.0 
-2.280325953721e-04 -2.282035572402e-03 0.0 
-2.282035572402e-03 1.637585553481e-03 0.0 
0.0 0.0 0.0 
1.626983979982e-03 -3.277089156870e-03 0.0 
-3.277089156870e-03 -1.119984742272e-03 0.0 
0.0 0.0 0.0 
-1.877340363388e-03 1.338174333103e-03 0.0 
1.338174333103e-03 1.697570354352e-02 0.0 
0.0 0.0 0.0 
5.650134794897e-03 7.183466462335e-03 0.0 
7.183466462335e-03 -8.466832744239e-03 0.0 
0.0 0.0 0.0 
-1.161819181481e-03 -1.345259362850e-03 0.0 
-1.345259362850e-03 2.919142124993e-03 0.0 
0.0 0.0 0.0 
1.774219124983e-03 2.339196557957e-04 0.0 
2.339196557957e-04 2.066630977327e-03 0.0 
0.0 0.0 0.0 
8.994257159700e-05 -5.076775018421e-04 0.0 
-5.076775018421e-04 1.359164342505e-03 0.0 
0.0 0.0 0.0 
-2.515888430335e-03 4.389645614472e-04 0.0 
4.389645614472e-04 1.620454360025e-02 0.0 
0.0 0.0 0.0 
-2.556749074983e-03 2.587750693217e-04 0.0 
2.587750693217e-04 1.584398464917e-02 0.0 
0.0 0.0 0.0 
2.502903025239e-04 -1.152413199392e-03 0.0 
-1.152413199392e-03 9.531709263488e-04 0.0 
0.0 0.0 0.0 
8.384985813870e-04 -8.999035612430e-04 0.0 
-8.999035612430e-04 2.667082935085e-03 0.0 
0.0 0.0 0.0 
-2.478476323752e-03 1.156087091703e-03 0.0 
1.156087091703e-03 1.669961861949e-02 0.0 
0.0 0.0 0.0 
-2.219105602475e-04 -8.184941904149e-04 0.0 
-8.184941904149e-04 1.605916646018e-03 0.0 
0.0 0.0 0.0 
-1.803771782027e-03 1.666848860318e-03 0.0 
1.666848860318e-03 1.696892885498e-02 0.0 
0.0 0.0 0.0 
-1.490778802795e-03 1.629688964006e-03 0.0 
1.629688964006e-03 1.697282239640e-02 0.0 
0.0 0.0 0.0 
-1.883356210635e-04 -8.682484470863e-04 0.0 
-8.682484470863e-04 1.667184971151e-03 0.0 
0.0 0.0 0.0 
6.718680400921e-04 6.494753753184e-03 0.0 
6.494753753184e-03 2.978345297422e-03 0.0 
0.0 0.0 0.0 
-1.226959445330e-04 -1.372588130448e-03 0.0 
-1.372588130448e-03 1.389984305286e-03 0.0 
0.0 0.0 0.0 
-8.046409168905e-04 -8.913378620675e-04 0.0 
-8.913378620675e-04 4.258619253351e-03 0.0 
0.0 0.0 0.0 
-1.288088134189e-03 -9.294946083521e-04 0.0 
-9.294946083521e-04 3.949137816777e-03 0.0 
0.0 0.0 0.0 
-1.543825839075e-03 4.237990714336e-03 0.0 
4.237990714336e-03 1.430011094312e-02 0.0 
0.0 0.0 0.0 
-1.606493327767e-03 1.296424841824e-03 0.0 
1.296424841824e-03 1.697967149664e-02 0.0 
0.0 0.0 0.0 
-6.808975707225e-04 -1.104733904078e-03 0.0 
-1.104733904078e-03 3.844564985595e-03 0.0 
0.0 0.0 0.0 
-4.759796911373e-04 -1.141378317496e-03 0.0 
-1.141378317496e-03 3.848974317789e-03 0.0 
0.0 0.0 0.0 
-1.181681205672e-04 -1.338870337882e-03 0.0 
-1.338870337882e-03 1.185201641065e-03 0.0 
0.0 0.0 0.0 
-6.433200940257e-04 -9.337492564386e-04 0.0 
-9.337492564386e-04 4.264166025781e-03 0.0 
0.0 0.0 0.0 
-2.177455422190e-03 1.102719629255e-03 0.0 
1.102719629255e-03 1.670482419000e-02 0.0 
0.0 0.0 0.0 
-1.389955681054e-03 -7.721785704847e-04 0.0 
-7.721785704847e-04 3.925378881471e-03 0.0 
0.0 0.0 0.0 
-2.406390379848e-03 6.295963740896e-04 0.0 
6.295963740896e-04 1.650716494681e-02 0.0 
0.0 0.0 0.0 
-2.211534440274e-03 1.105624354176e-03 0.0 
1.105624354176e-03 1.682881449742e-02 0.0 
0.0 0.0 0.0 
8.499140552395e-03 3.347675017943e-03 0.0 
3.347675017943e-03 -6.074491257921e-03 0.0 
0.0 0.0 0.0 
-1.688511471807e-03 1.018804847116e-03 0.0 
1.018804847116e-03 1.694935704356e-02 0.0 
0.0 0.0 0.0 
-1.374782862948e-03 -1.079812078924e-03 0.0 
-1.079812078924e-03 3.508472594461e-03 0.0 
0.0 0.0 0.0 
-1.292201424081e-03 -1.047316395787e-03 0.0 
-1.047316395787e-03 3.610599678298e-03 0.0 
0.0 0.0 0.0 
-1.048960602587e-03 -1.305586520688e-03 0.0 
-1.305586520688e-03 2.676795914153e-03 0.0 
0.0 0.0 0.0 
2.716411773060e-04 -2.562243842314e-03 0.0 
-2.562243842314e-03 5.799477481676e-04 0.0 
0.0 0.0 0.0 
-2.185193574912e-03 8.363167822057e-04 0.0 
8.363167822057e-04 1.662424517277e-02 0.0 
0.0 0.0 0.0 
1.108908095452e-03 -2.434766267962e-03 0.0 
-2.434766267962e-03 -1.755877534220e-04 0.0 
0.0 0.0 0.0 
-3.137351441856e-04 -1.229677583264e-03 0.0 
-1.229677583264e-03 1.686711948853e-03 0.0 
0.0 0.0 0.0 
5.237457375926e-04 -7.734187774925e-04 0.0 
-7.734187774925e-04 7.026341753329e-04 0.0 
0.0 0.0 0.0 
-2.449384560021e-03 8.685229910550e-04 0.0 
8.685229910550e-04 1.662138606461e-02 0.0 
0.0 0.0 0.0 
-4.616770532487e-04 -1.503146700472e-03 0.0 
-1.503146700472e-03 1.729966234242e-03 0.0 
0.0 0.0 0.0 
4.831157818359e-04 -7.705141577310e-04 0.0 
-7.705141577310e-04 3.793061471058e-03 0.0 
0.0 0.0 0.0 
-1.974998850343e-03 8.165623772253e-04 0.0 
8.165623772253e-04 1.675681748932e-02 0.0 
0.0 0.0 0.0 
-3.834504178694e-04 -9.754909257216e-04 0.0 
-9.754909257216e-04 4.159745585973e-03 0.0 
0.0 0.0 0.0 
7.279057986791e-04 1.508115985849e-03 0.0 
1.508115985849e-03 3.994085683059e-03 0.0 
0.0 0.0 0.0 
-1.269072461647e-03 -1.127932765909e-03 0.0 
-1.127932765909e-03 3.137801762771e-03 0.0 
0.0 0.0 0.0 
-3.993115501337e-04 -1.146098977840e-03 0.0 
-1.146098977840e-03 1.711325228940e-03 0.0 
0.0 0.0 0.0 
1.187246651428e-04 -1.001281002647e-03 0.0 
-1.001281002647e-03 8.967988247881e-04 0.0 
0.0 0.0 0.0 
-2.158528440735e-04 -1.362347523999e-03 0.0 
-1.362347523999e-03 3.181099938329e-03 0.0 
0.0 0.0 0.0 
-2.185189224499e-03 4.504990097580e-04 0.0 
4.504990097580e-04 1.636728852696e-02 0.0 
0.0 0.0 0.0 
5.495895644343e-04 -7.476867079424e-04 0.0 
-7.476867079424e-04 4.663681661699e-04 0.0 
0.0 0.0 0.0 
-7.420921345141e-04 -1.563682369195e-03 0.0 
-1.563682369195e-03 2.160358972134e-03 0.0 
0.0 0.0 0.0 
1.993684066339e-04 -1.950426629168e-04 0.0 
-1.950426629168e-04 1.558033569161e-03 0.0 
0.0 0.0 0.0 
-2.592880057835e-03 6.386064227712e-04 0.0 
6.386064227712e-04 1.635291832949e-02 0.0 
0.0 0.0 0.0 
-9.751993059117e-04 -1.346338869777e-03 0.0 
-1.346338869777e-03 2.542920801045e-03 0.0 
0.0 0.0 0.0 
-2.097393187261e-05 -1.571892428902e-03 0.0 
-1.571892428902e-03 2.847786039384e-03 0.0 
0.0 0.0 0.0 
-1.021982214939e-03 -1.029156877210e-03 0.0 
-1.029156877210e-03 2.647881063286e-03 0.0 
0.0 0.0 0.0 
-1.718583836267e-03 7.120822004227e-04 0.0 
7.120822004227e-04 1.698553655797e-02 0.0 
0.0 0.0 0.0 
-6.237898703616e-04 -1.685580153888e-03 0.0 
-1.685580153888e-03 1.980571665256e-03 0.0 
0.0 0.0 0.0 
3.277748572061e-04 -1.496176659337e-03 0.0 
-1.496176659337e-03 2.417647925881e-03 0.0 
0.0 0.0 0.0 
2.966446737676e-04 -2.316470509758e-03 0.0 
-2.316470509758e-03 3.999690426852e-04 0.0 
0.0 0.0 0.0 
2.406574221570e-05 -1.563760690907e-03 0.0 
-1.563760690907e-03 2.617623927992e-03 0.0 
0.0 0.0 0.0 
-1.442372725605e-03 -8.234440148590e-04 0.0 
-8.234440148590e-04 3.703642785557e-03 0.0 
0.0 0.0 0.0 
-1.846754071869e-04 -1.164133522439e-03 0.0 
-1.164133522439e-03 3.694873061504e-03 0.0 
0.0 0.0 0.0 
7.863002172263e-03 -1.328548000070e-03 0.0 
-1.328548000070e-03 -6.314594255840e-03 0.0 
0.0 0.0 0.0 
-9.038555563656e-05 -4.752756116502e-04 0.0 
-4.752756116502e-04 1.633378635160e-03 0.0 
0.0 0.0 0.0 
-2.451939234486e-03 2.849159291651e-04 0.0 
2.849159291651e-04 1.603928092403e-02 0.0 
0.0 0.0 0.0 
3.813727385230e-03 -4.880326362046e-04 0.0 
-4.880326362046e-04 -1.730525399896e-03 0.0 
0.0 0.0 0.0 
3.586057824327e-04 5.075814049929e-03 0.0 
5.075814049929e-03 3.479042576834e-03 0.0 
0.0 0.0 0.0 
-2.363671266786e-03 4.374703007067e-04 0.0 
4.374703007067e-04 1.636776226660e-02 0.0 
0.0 0.0 0.0 
6.089290636178e-04 -2.828014478407e-03 0.0 
-2.828014478407e-03 -2.555472185387e-04 0.0 
0.0 0.0 0.0 
-2.624441048276e-03 1.132986230016e-03 0.0 
1.132986230016e-03 1.640271089152e-02 0.0 
0.0 0.0 0.0 
3.671761602608e-04 -2.663128471996e-04 0.0 
-2.663128471996e-04 1.258171225690e-03 0.0 
0.0 0.0 0.0 
3.394979481255e-04 -1.045478708580e-03 0.0 
-1.045478708580e-03 3.325435693627e-03 0.0 
0.0 0.0 0.0 
4.011463833893e-03 2.612518762256e-04 0.0 
2.612518762256e-04 -1.282175143295e-03 0.0 
0.0 0.0 0.0 
3.957600069383e-03 3.019792093372e-03 0.0 
3.019792093372e-03 8.643574827552e-04 0.0 
0.0 0.0 0.0 
-1.450168983754e-03 1.563102056014e-03 0.0 
1.563102056014e-03 1.706925966969e-02 0.0 
0.0 0.0 0.0 
1.072162518284e-03 -2.253534393961e-03 0.0 
-2.253534393961e-03 1.432681498823e-04 0.0 
0.0 0.0 0.0 
-7.923767328788e-05 -8.918318061595e-04 0.0 
-8.918318061595e-04 1.338095032914e-03 0.0 
0.0 0.0 0.0 
6.386805476435e-04 -1.915792866242e-03 0.0 
-1.915792866242e-03 1.315897398841e-03 0.0 
0.0 0.0 0.0 
7.533298843414e-04 -7.707408417816e-04 0.0 
-7.707408417816e-04 3.248203358214e-03 0.0 
0.0 0.0 0.0 
1.357026526758e-03 -3.067976772887e-03 0.0 
-3.067976772887e-03 -1.264437242836e-03 0.0 
0.0 0.0 0.0 
-4.212482369568e-04 -1.161607646453e-03 0.0 
-1.161607646453e-03 3.695862098829e-03 0.0 
0.0 0.0 0.0 
-2.214415856104e-03 8.324308414853e-04 0.0 
8.324308414853e-04 1.675578042588e-02 0.0 
0.0 0.0 0.0 
2.216454912453e-03 -3.465878209231e-03 0.0 
-3.465878209231e-03 -1.908590640198e-03 0.0 
0.0 0.0 0.0 
3.055758010537e-04 -1.753158690644e-03 0.0 
-1.753158690644e-03 1.999062480828e-03 0.0 
0.0 0.0 0.0 
-2.893871327368e-03 6.266212306562e-04 0.0 
6.266212306562e-04 1.600152044389e-02 0.0 
0.0 0.0 0.0 
-6.124796653733e-04 -6.218851458987e-04 0.0 
-6.218851458987e-04 2.270878305818e-03 0.0 
0.0 0.0 0.0 
-4.914773768948e-04 -1.772031268312e-03 0.0 
-1.772031268312e-03 1.764379707980e-03 0.0 
0.0 0.0 0.0 
9.688488681558e-04 5.289444835960e-03 0.0 
5.289444835960e-03 3.850670032555e-03 0.0 
0.0 0.0 0.0 
4.960639036322e-05 -1.353581248891e-03 0.0 
-1.353581248891e-03 3.178179572011e-03 0.0 
0.0 0.0 0.0 
-7.435511549811e-04 4.968567347823e-03 0.0 
4.968567347823e-03 5.448849943010e-03 0.0 
0.0 0.0 0.0 
1.890029367649e-03 5.328044938899e-03 0.0 
5.328044938899e-03 2.515681992811e-03 0.0 
0.0 0.0 0.0 
-2.407764834248e-03 1.120515402700e-03 0.0 
1.120515402700e-03 1.656059850839e-02 0.0 
0.0 0.0 0.0 
-2.318496490666e-03 4.386158545798e-04 0.0 
4.386158545798e-04 1.620391960470e-02 0.0 
0.0 0.0 0.0 
-2.735445749855e-03 8.016273834159e-04 0.0 
8.016273834159e-04 1.616223716822e-02 0.0 
0.0 0.0 0.0 
-1.351490173604e-03 -1.017457750980e-03 0.0 
-1.017457750980e-03 3.744965131432e-03 0.0 
0.0 0.0 0.0 
1.179290732960e-03 -9.008295691044e-04 0.0 
-9.008295691044e-04 2.067060989161e-03 0.0 
0.0 0.0 0.0 
1.033295993007e-03 -2.032535828231e-03 0.0 
-2.032535828231e-03 5.633850087321e-04 0.0 
0.0 0.0 0.0 
-2.655196027676e-03 4.274692479064e-04 0.0 
4.274692479064e-04 1.602808732104e-02 0.0 
0.0 0.0 0.0 
-1.231787683492e-03 5.191126672303e-03 0.0 
5.191126672303e-03 1.240460542232e-02 0.0 
0.0 0.0 0.0 
3.382793669193e-03 3.399162996224e-03 0.0 
3.399162996224e-03 2.021746891656e-03 0.0 
0.0 0.0 0.0 
3.193008275129e-04 -1.533764365047e-03 0.0 
-1.533764365047e-03 2.611255016302e-03 0.0 
0.0 0.0 0.0 
-1.936334498674e-03 1.068859858744e-03 0.0 
1.068859858744e-03 1.683217324040e-02 0.0 
0.0 0.0 0.0 
-7.165757786265e-05 -2.349605600028e-03 0.0 
-2.349605600028e-03 1.109251042622e-03 0.0 
0.0 0.0 0.0 
-3.267359910344e-04 -2.088666427503e-03 0.0 
-2.088666427503e-03 1.484663297160e-03 0.0 
0.0 0.0 0.0 
1.543477739796e-04 -1.069269484626e-03 0.0 
-1.069269484626e-03 1.142123680098e-03 0.0 
0.0 0.0 0.0 
1.000864003085e-03 -1.755528752040e-03 0.0 
-1.755528752040e-03 1.056651319765e-03 0.0 
0.0 0.0 0.0 
-6.098738594930e-04 -1.863975908278e-03 0.0 
-1.863975908278e-03 1.932090673339e-03 0.0 
0.0 0.0 0.0 
-2.672385717133e-03 8.911616813536e-04 0.0 
8.911616813536e-04 1.647551107271e-02 0.0 
0.0 0.0 0.0 
-2.882414489033e-03 9.082068490985e-04 0.0 
9.082068490985e-04 1.631685556599e-02 0.0 
0.0 0.0 0.0 
8.532085703358e-03 1.801730988309e-03 0.0 
1.801730988309e-03 -6.155593828182e-03 0.0 
0.0 0.0 0.0 
-2.197873935698e-04 -2.184724798020e-03 0.0 
-2.184724798020e-03 1.390675669459e-03 0.0 
0.0 0.0 0.0 
7.846917027339e-03 3.091043862261e-03 0.0 
3.091043862261e-03 -6.773557094320e-03 0.0 
0.0 0.0 0.0 
-4.824777770041e-04 -2.001361536923e-03 0.0 
-2.001361536923e-03 1.799856109865e-03 0.0 
0.0 0.0 0.0 
-2.347132726515e-04 -2.275973131735e-03 0.0 
-2.275973131735e-03 1.513005938235e-03 0.0 
0.0 0.0 0.0 
-2.435117053087e-04 -1.259034171494e-03 0.0 
-1.259034171494e-03 1.443664267091e-03 0.0 
0.0 0.0 0.0 
1.546869458904e-03 -8.298657450398e-04 0.0 
-8.298657450398e-04 1.419154098583e-03 0.0 
0.0 0.0 0.0 
1.015103964010e-03 -2.600555652434e-03 0.0 
-2.600555652434e-03 1.323817891807e-04 0.0 
0.0 0.0 0.0 
-1.934097509366e-03 1.037603476499e-03 0.0 
1.037603476499e-03 1.694799569793e-02 0.0 
0.0 0.0 0.0 
1.502502475390e-03 -2.492320286058e-03 0.0 
-2.492320286058e-03 -4.067142536969e-04 0.0 
0.0 0.0 0.0 
9.964987234039e-04 -1.808818824674e-03 0.0 
-1.808818824674e-03 1.297496878625e-03 0.0 
0.0 0.0 0.0 
9.939654973807e-04 -2.270632360839e-03 0.0 
-2.270632360839e-03 5.524664736885e-04 0.0 
0.0 0.0 0.0 
4.242681548640e-03 4.914437365518e-03 0.0 
4.914437365518e-03 -3.457962052467e-04 0.0 
0.0 0.0 0.0 
-1.467877978290e-05 -9.742389548589e-04 0.0 
-9.742389548589e-04 1.395065459553e-03 0.0 
0.0 0.0 0.0 
1.128880621159e-03 -7.433995459590e-04 0.0 
-7.433995459590e-04 2.635691263431e-03 0.0 
0.0 0.0 0.0 
9.957239777525e-04 -6.282684769265e-04 0.0 
-6.282684769265e-04 2.789238746468e-03 0.0 
0.0 0.0 0.0 
8.313943322973e-04 5.592953203079e-03 0.0 
5.592953203079e-03 5.104455482059e-03 0.0 
0.0 0.0 0.0 
1.127589344287e-04 -2.487502886183e-03 0.0 
-2.487502886183e-03 1.129434483674e-03 0.0 
0.0 0.0 0.0 
9.847388226771e-04 -2.061395656282e-03 0.0 
-2.061395656282e-03 8.935129543262e-04 0.0 
0.0 0.0 0.0 
-2.384379276344e-03 8.392628243084e-04 0.0 
8.392628243084e-04 1.648056029322e-02 0.0 
0.0 0.0 0.0 
-3.905971672036e-04 -2.122535070024e-03 0.0 
-2.122535070024e-03 1.614096480371e-03 0.0 
0.0 0.0 0.0 
1.709201444748e-03 5.608788298816e-03 0.0 
5.608788298816e-03 2.016940073768e-03 0.0 
0.0 0.0 0.0 
-5.606607143055e-04 -1.429382580288e-03 0.0 
-1.429382580288e-03 1.940644678500e-03 0.0 
0.0 0.0 0.0 
1.163716934653e-03 -3.189013371591e-03 0.0 
-3.189013371591e-03 -1.130814533719e-03 0.0 
0.0 0.0 0.0 
2.694940913819e-04 -2.534582705378e-03 0.0 
-2.534582705378e-03 6.461925442629e-04 0.0 
0.0 0.0 0.0 
-6.563735861579e-04 -1.355408067772e-03 0.0 
-1.355408067772e-03 2.049242613755e-03 0.0 
0.0 0.0 0.0 
-3.890187129517e-04 -7.436568846963e-04 0.0 
-7.436568846963e-04 1.966901953925e-03 0.0 
0.0 0.0 0.0 
6.529621378772e-04 -2.332794953471e-03 0.0 
-2.332794953471e-03 5.639984361150e-04 0.0 
0.0 0.0 0.0 
6.361010221148e-04 -1.688239331749e-03 0.0 
-1.688239331749e-03 1.987168410166e-03 0.0 
0.0 0.0 0.0 
1.636845061826e-03 5.811124256199e-03 0.0 
5.811124256199e-03 6.182148997619e-03 0.0 
0.0 0.0 0.0 
2.300938080339e-03 -1.838973677868e-04 0.0 
-1.838973677868e-04 -8.232844007899e-04 0.0 
0.0 0.0 0.0 
3.432504344613e-03 -2.025328075896e-03 0.0 
-2.025328075896e-03 -2.425702668284e-03 0.0 
0.0 0.0 0.0 
1.993449879012e-03 -2.455418002017e-03 0.0 
-2.455418002017e-03 -1.094939454063e-03 0.0 
0.0 0.0 0.0 
5.442788474304e-04 -2.600758454261e-03 0.0 
-2.600758454261e-03 6.543135803589e-04 0.0 
0.0 0.0 0.0 
-2.568461027164e-03 8.257957374158e-04 0.0 
8.257957374158e-04 1.632527311029e-02 0.0 
0.0 0.0 0.0 
1.012236892430e-03 -2.446375523602e-03 0.0 
-2.446375523602e-03 2.954424801174e-04 0.0 
0.0 0.0 0.0 
-8.429712001469e-04 -1.500139046071e-03 0.0 
-1.500139046071e-03 2.334896089440e-03 0.0 
0.0 0.0 0.0 
6.750196766721e-04 -2.618189448045e-03 0.0 
-2.618189448045e-03 1.370817194790e-04 0.0 
0.0 0.0 0.0 
-1.755787756263e-03 7.763252076231e-04 0.0 
7.763252076231e-04 1.687736642055e-02 0.0 
0.0 0.0 0.0 
-7.883262978657e-04 -1.247415419320e-03 0.0 
-1.247415419320e-03 2.295355189827e-03 0.0 
0.0 0.0 0.0 
4.795281903656e-04 -7.279923557862e-04 0.0 
-7.279923557862e-04 6.709770095743e-04 0.0 
0.0 0.0 0.0 
4.719883428694e-05 -9.488237150572e-04 0.0 
-9.488237150572e-04 1.097134302351e-03 0.0 
0.0 0.0 0.0 
1.100339985497e-03 -2.993646555051e-03 0.0 
-2.993646555051e-03 -4.269565914875e-04 0.0 
0.0 0.0 0.0 
8.377942938842e-05 -2.463353605397e-03 0.0 
-2.463353605397e-03 1.044309990257e-03 0.0 
0.0 0.0 0.0 
2.503409099016e-03 -2.128132234510e-03 0.0 
-2.128132234510e-03 -1.639370698613e-03 0.0 
0.0 0.0 0.0 
1.124961190610e-03 -2.597304735122e-03 0.0 
-2.597304735122e-03 -3.869672630232e-04 0.0 
0.0 0.0 0.0 
4.304300884455e-04 -2.520551367800e-03 0.0 
-2.520551367800e-03 4.926153153839e-05 0.0 
0.0 0.0 0.0 
3.547695436767e-04 -6.547281995097e-04 0.0 
-6.547281995097e-04 1.052273741762e-03 0.0 
0.0 0.0 0.0 
-3.453154407141e-03 1.347370323065e-03 0.0 
1.347370323065e-03 1.603110027266e-02 0.0 
0.0 0.0 0.0 
-5.275349192422e-04 -1.085299528699e-03 0.0 
-1.085299528699e-03 2.007339044971e-03 0.0 
0.0 0.0 0.0 
1.650606059585e-03 -9.326779316184e-04 0.0 
-9.326779316184e-04 1.401104200522e-03 0.0 
0.0 0.0 0.0 
2.191961318192e-03 5.729269678627e-03 0.0 
5.729269678627e-03 5.001220673799e-03 0.0 
0.0 0.0 0.0 
-2.969269451168e-03 4.140435859133e-03 0.0 
4.140435859133e-03 1.295047070980e-02 0.0 
0.0 0.0 0.0 
-1.989450163617e-03 2.182517938733e-03 0.0 
2.182517938733e-03 1.657160940231e-02 0.0 
0.0 0.0 0.0 
1.160631719653e-03 5.859868816770e-03 0.0 
5.859868816770e-03 7.305605702335e-03 0.0 
0.0 0.0 0.0 
8.848857422487e-03 2.622770268825e-03 0.0 
2.622770268825e-03 -5.967888527994e-03 0.0 
0.0 0.0 0.0 
1.319643815561e-03 5.577398486838e-03 0.0 
5.577398486838e-03 5.204418992689e-03 0.0 
0.0 0.0 0.0 
9.006044459925e-04 -3.201372712668e-03 0.0 
-3.201372712668e-03 -8.448038486022e-04 0.0 
0.0 0.0 0.0 
2.660138360442e-04 -2.444483748142e-03 0.0 
-2.444483748142e-03 7.769987215165e-04 0.0 
0.0 0.0 0.0 
5.642154311924e-03 4.768705406965e-03 0.0 
4.768705406965e-03 -3.432905485311e-03 0.0 
0.0 0.0 0.0 
5.041258519300e-03 -3.852352939550e-03 0.0 
-3.852352939550e-03 -4.139645196036e-03 0.0 
0.0 0.0 0.0 
5.625229469526e-04 -2.915586554065e-03 0.0 
-2.915586554065e-03 -3.848455965766e-04 0.0 
0.0 0.0 0.0 
-5.233065660404e-04 -2.068585029918e-03 0.0 
-2.068585029918e-03 1.962848542023e-03 0.0 
0.0 0.0 0.0 
1.589425064771e-03 -2.648594007700e-03 0.0 
-2.648594007700e-03 -1.058632616612e-03 0.0 
0.0 0.0 0.0 
2.079852918781e-03 -2.432532704964e-03 0.0 
-2.432532704964e-03 -1.587938224347e-03 0.0 
0.0 0.0 0.0 
-8.519205535670e-04 -1.198883895862e-03 0.0 
-1.198883895862e-03 2.368137560917e-03 0.0 
0.0 0.0 0.0 
1.481054182269e-03 -2.317144172281e-03 0.0 
-2.317144172281e-03 -1.957461828719e-04 0.0 
0.0 0.0 0.0 
2.605476929813e-03 -2.300180829198e-03 0.0 
-2.300180829198e-03 -2.371981940593e-03 0.0 
0.0 0.0 0.0 
4.516642494429e-03 -1.473900373904e-03 0.0 
-1.473900373904e-03 -3.098746790301e-03 0.0 
0.0 0.0 0.0 
-3.240287439088e-05 -2.298208852294e-03 0.0 
-2.298208852294e-03 1.020402077756e-03 0.0 
0.0 0.0 0.0 
4.418960060654e-03 1.413094165603e-03 0.0 
1.413094165603e-03 -9.702287032801e-04 0.0 
0.0 0.0 0.0 
-2.733691095333e-03 1.203738567787e-03 0.0 
1.203738567787e-03 1.655207438314e-02 0.0 
0.0 0.0 0.0 
6.006140781679e-03 -1.127047612786e-03 0.0 
-1.127047612786e-03 -4.316880896581e-03 0.0 
0.0 0.0 0.0 
1.517412741332e-03 -6.443762952912e-04 0.0 
-6.443762952912e-04 2.026280995641e-03 0.0 
0.0 0.0 0.0 
1.668796104942e-03 -3.513802577431e-03 0.0 
-3.513802577431e-03 -1.898326424892e-03 0.0 
0.0 0.0 0.0 
1.653794194672e-03 2.568465150365e-04 0.0 
2.568465150365e-04 2.552269264560e-03 0.0 
0.0 0.0 0.0 
1.988259973732e-03 -2.275432382776e-03 0.0 
-2.275432382776e-03 -9.312831476540e-04 0.0 
0.0 0.0 0.0 
7.680852952725e-04 5.991296366739e-03 0.0 
5.991296366739e-03 8.415209061468e-03 0.0 
0.0 0.0 0.0 
-1.272877591142e-03 5.234455090486e-03 0.0 
5.234455090486e-03 8.861224041038e-03 0.0 
0.0 0.0 0.0 
8.207988748159e-04 -3.045674609409e-03 0.0 
-3.045674609409e-03 -2.234012022427e-04 0.0 
0.0 0.0 0.0 
-2.535487327986e-03 4.464700737554e-03 0.0 
4.464700737554e-03 1.219164843914e-02 0.0 
0.0 0.0 0.0 
-1.921823402340e-03 3.196283698811e-03 0.0 
3.196283698811e-03 1.575527426565e-02 0.0 
0.0 0.0 0.0 
2.452390077705e-03 -1.940741082211e-03 0.0 
-1.940741082211e-03 -1.405293320485e-03 0.0 
0.0 0.0 0.0 
3.444609611859e-03 5.629618370178e-03 0.0 
5.629618370178e-03 -6.466065635687e-04 0.0 
0.0 0.0 0.0 
-2.100256739162e-03 4.742893656193e-03 0.0 
4.742893656193e-03 1.143377507702e-02 0.0 
0.0 0.0 0.0 
5.053822535122e-04 5.147474161678e-03 0.0 
5.147474161678e-03 3.621509347330e-03 0.0 
0.0 0.0 0.0 
3.676349217774e-04 -2.867866421559e-03 0.0 
-2.867866421559e-03 1.063424308325e-04 0.0 
0.0 0.0 0.0 
-9.749654527941e-04 2.791938642345e-03 0.0 
2.791938642345e-03 1.655850471140e-02 0.0 
0.0 0.0 0.0 
-7.762124947353e-06 -2.233528356357e-03 0.0 
-2.233528356357e-03 6.109690966805e-04 0.0 
0.0 0.0 0.0 
1.973029577384e-03 2.554603946911e-03 0.0 
2.554603946911e-03 3.695770476097e-03 0.0 
0.0 0.0 0.0 
-1.327085077414e-03 1.209640756736e-03 0.0 
1.209640756736e-03 1.708428613510e-02 0.0 
0.0 0.0 0.0 
3.905557280045e-03 9.408699361868e-04 0.0 
9.408699361868e-04 -5.267804953555e-04 0.0 
0.0 0.0 0.0 
-2.504587549593e-03 5.930722006604e-04 0.0 
5.930722006604e-04 1.618584767900e-02 0.0 
0.0 0.0 0.0 
-2.436117864942e-03 1.880023195373e-03 0.0 
1.880023195373e-03 1.667965076482e-02 0.0 
0.0 0.0 0.0 
3.439990125841e-03 -1.893344647651e-03 0.0 
-1.893344647651e-03 -3.023491254924e-03 0.0 
0.0 0.0 0.0 
7.468325216323e-03 1.895080097793e-03 0.0 
1.895080097793e-03 -4.916686281304e-03 0.0 
0.0 0.0 0.0 
-1.530906347128e-03 2.480358060102e-03 0.0 
2.480358060102e-03 1.658089786519e-02 0.0 
0.0 0.0 0.0 
6.538629912818e-04 -1.417856541378e-03 0.0 
-1.417856541378e-03 2.403475313710e-03 0.0 
0.0 0.0 0.0 
-2.760950446500e-03 1.571604183568e-03 0.0 
1.571604183568e-03 1.656654458883e-02 0.0 
0.0 0.0 0.0 
3.745036674658e-03 -3.219250380360e-04 0.0 
-3.219250380360e-04 -1.093505855519e-03 0.0 
0.0 0.0 0.0 
1.300011487278e-03 -3.379983513268e-03 0.0 
-3.379983513268e-03 -8.191718141438e-04 0.0 
0.0 0.0 0.0 
-2.735695298318e-03 1.988844689312e-03 0.0 
1.988844689312e-03 1.650318126584e-02 0.0 
0.0 0.0 0.0 
9.123179382127e-04 5.144297399424e-03 0.0 
5.144297399424e-03 8.141376072869e-03 0.0 
0.0 0.0 0.0 
1.234692248042e-03 -3.815655741130e-04 0.0 
-3.815655741130e-04 2.731535579708e-03 0.0 
0.0 0.0 0.0 
5.609733573098e-04 -2.481757156350e-03 0.0 
-2.481757156350e-03 7.809671386645e-04 0.0 
0.0 0.0 0.0 
-2.759473846992e-03 6.334228112160e-04 0.0 
6.334228112160e-04 1.618264469895e-02 0.0 
0.0 0.0 0.0 
-2.630750111189e-03 5.573567009496e-04 0.0 
5.573567009496e-04 1.600859371419e-02 0.0 
0.0 0.0 0.0 
1.596233020348e-03 -2.471730181031e-03 0.0 
-2.471730181031e-03 -8.988366320505e-04 0.0 
0.0 0.0 0.0 
9.953385046308e-04 -1.523513744196e-03 0.0 
-1.523513744196e-03 1.748121708707e-03 0.0 
0.0 0.0 0.0 
1.332150301498e-03 -1.280139904812e-03 0.0 
-1.280139904812e-03 1.547430578860e-03 0.0 
0.0 0.0 0.0 
4.492345364344e-04 -7.401620773926e-04 0.0 
-7.401620773926e-04 8.537258589698e-04 0.0 
0.0 0.0 0.0 
7.181594149601e-03 3.530622643959e-03 0.0 
3.530622643959e-03 -6.751879548600e-03 0.0 
0.0 0.0 0.0 
7.122203952494e-03 -2.588043047038e-04 0.0 
-2.588043047038e-04 -5.086891280034e-03 0.0 
0.0 0.0 0.0 
4.747415383838e-03 -1.681070971198e-03 0.0 
-1.681070971198e-03 -4.215092493771e-03 0.0 
0.0 0.0 0.0 
2.226969909434e-03 5.334725346844e-03 0.0 
5.334725346844e-03 1.033648785845e-03 0.0 
0.0 0.0 0.0 
-1.519892553970e-03 2.423818156482e-03 0.0 
2.423818156482e-03 1.676740078727e-02 0.0 
0.0 0.0 0.0 
-1.328139478687e-03 4.733680213180e-03 0.0 
4.733680213180e-03 1.305821357327e-02 0.0 
0.0 0.0 0.0 
-1.562491687861e-03 1.226529505368e-03 0.0 
1.226529505368e-03 1.708332497662e-02 0.0 
0.0 0.0 0.0 
-1.155453947240e-03 4.996289025215e-03 0.0 
4.996289025215e-03 6.503762331965e-03 0.0 
0.0 0.0 0.0 
-2.384133052791e-03 2.878430674669e-03 0.0 
2.878430674669e-03 1.578167524877e-02 0.0 
0.0 0.0 0.0 
6.427824495050e-04 -1.642596182730e-03 0.0 
-1.642596182730e-03 1.768260477819e-03 0.0 
0.0 0.0 0.0 
-1.383532845198e-03 1.969840997510e-03 0.0 
1.969840997510e-03 1.689195482956e-02 0.0 
0.0 0.0 0.0 
-3.010580572611e-03 2.109375864172e-03 0.0 
2.109375864172e-03 1.629824593619e-02 0.0 
0.0 0.0 0.0 
6.724792811093e-04 -2.484195310039e-03 0.0 
-2.484195310039e-03 3.033474847791e-04 0.0 
0.0 0.0 0.0 
8.549177853895e-03 4.606140191447e-04 0.0 
4.606140191447e-04 -6.273051969118e-03 0.0 
0.0 0.0 0.0 
-2.369086015538e-03 1.853695211204e-03 0.0 
1.853695211204e-03 1.651768831969e-02 0.0 
0.0 0.0 0.0 
-2.016933953735e-03 2.167627276340e-03 0.0 
2.167627276340e-03 1.674145786305e-02 0.0 
0.0 0.0 0.0 
-2.150631751946e-03 1.414845166135e-03 0.0 
1.414845166135e-03 1.672958082159e-02 0.0 
0.0 0.0 0.0 
-2.407072791056e-03 1.460980959156e-03 0.0 
1.460980959156e-03 1.657821867587e-02 0.0 
0.0 0.0 0.0 
9.088177973957e-04 -9.839265050166e-04 0.0 
-9.839265050166e-04 2.708971095762e-03 0.0 
0.0 0.0 0.0 
2.172587009965e-03 2.906699262859e-03 0.0 
2.906699262859e-03 3.567250807377e-03 0.0 
0.0 0.0 0.0 
1.269596596769e-03 -9.970617342725e-04 0.0 
-9.970617342725e-04 2.076921186905e-03 0.0 
0.0 0.0 0.0 
5.949299418442e-04 -1.940425584184e-03 0.0 
-1.940425584184e-03 1.608995115130e-03 0.0 
0.0 0.0 0.0 
-2.442998016396e-03 4.646104670157e-03 0.0 
4.646104670157e-03 9.257640541482e-03 0.0 
0.0 0.0 0.0 
3.591892539479e-03 1.556900949544e-03 0.0 
1.556900949544e-03 3.875454311970e-04 0.0 
0.0 0.0 0.0 
-2.740070178483e-03 3.243912576506e-03 0.0 
3.243912576506e-03 1.490710467642e-02 0.0 
0.0 0.0 0.0 
-5.774777960836e-04 -1.034267344039e-03 0.0 
-1.034267344039e-03 2.011898536648e-03 0.0 
0.0 0.0 0.0 
5.952529283097e-03 -9.160186051918e-04 0.0 
-9.160186051918e-04 -4.973437244628e-03 0.0 
0.0 0.0 0.0 
5.277412322904e-03 -4.804136959689e-04 0.0 
-4.804136959689e-04 -3.371253062444e-03 0.0 
0.0 0.0 0.0 
6.259949337027e-03 1.960483733735e-03 0.0 
1.960483733735e-03 -3.290682648316e-03 0.0 
0.0 0.0 0.0 
6.812159302430e-03 -1.650370225985e-03 0.0 
-1.650370225985e-03 -6.610228987831e-03 0.0 
0.0 0.0 0.0 
7.501836762390e-03 -3.330971567547e-04 0.0 
-3.330971567547e-04 -6.131886239065e-03 0.0 
0.0 0.0 0.0 
5.057708194690e-03 1.974793547325e-03 0.0 
1.974793547325e-03 -1.507195803403e-03 0.0 
0.0 0.0 0.0 
-1.928234433628e-03 4.736197504221e-03 0.0 
4.736197504221e-03 8.556031154324e-03 0.0 
0.0 0.0 0.0 
5.566454759864e-04 -2.334297625331e-03 0.0 
-2.334297625331e-03 9.905107441841e-04 0.0 
0.0 0.0 0.0 
-3.283099934278e-03 1.752016232771e-03 0.0 
1.752016232771e-03 1.619928768392e-02 0.0 
0.0 0.0 0.0 
-2.504627531119e-03 1.973027577929e-04 0.0 
1.973027577929e-04 1.538950498621e-02 0.0 
0.0 0.0 0.0 
-2.249269628630e-03 8.637188446576e-03 0.0 
8.637188446576e-03 3.403160568338e-03 0.0 
0.0 0.0 0.0 
6.379048395928e-04 -2.148454109452e-03 0.0 
-2.148454109452e-03 9.088388957776e-04 0.0 
0.0 0.0 0.0 
3.666406901263e-03 8.838660980841e-04 0.0 
8.838660980841e-04 -1.819436709685e-04 0.0 
0.0 0.0 0.0 
-1.254758799824e-03 4.608480627726e-03 0.0 
4.608480627726e-03 1.368853867165e-02 0.0 
0.0 0.0 0.0 
7.941195913633e-03 1.565404458973e-03 0.0 
1.565404458973e-03 -5.577249754403e-03 0.0 
0.0 0.0 0.0 
5.621476823712e-04 -2.157001672309e-03 0.0 
-2.157001672309e-03 1.271926710593e-03 0.0 
0.0 0.0 0.0 
-2.977351967310e-03 1.248712532177e-03 0.0 
1.248712532177e-03 1.639076721174e-02 0.0 
0.0 0.0 0.0 
-1.711010830748e-03 7.207112647912e-03 0.0 
7.207112647912e-03 3.930778040016e-03 0.0 
0.0 0.0 0.0 
4.073508737770e-03 1.292170027910e-03 0.0 
1.292170027910e-03 -5.806536833614e-04 0.0 
0.0 0.0 0.0 
6.505978325618e-03 1.132136651996e-03 0.0 
1.132136651996e-03 -4.246503856606e-03 0.0 
0.0 0.0 0.0 
-2.219276682570e-03 4.800573072366e-03 0.0 
4.800573072366e-03 9.520267273802e-03 0.0 
0.0 0.0 0.0 
9.742076248243e-04 -1.460342553355e-03 0.0 
-1.460342553355e-03 1.576671637467e-03 0.0 
0.0 0.0 0.0 
3.571013740882e-03 -3.855738965669e-03 0.0 
-3.855738965669e-03 -4.133150059176e-03 0.0 
0.0 0.0 0.0 
1.282530964345e-03 -1.203786333979e-03 0.0 
-1.203786333979e-03 1.444453064681e-03 0.0 
0.0 0.0 0.0 
1.675869725593e-03 -2.201055042925e-04 0.0 
-2.201055042925e-04 2.141081747876e-03 0.0 
0.0 0.0 0.0 
4.516288439648e-03 1.741977469090e-03 0.0 
1.741977469090e-03 -1.020100301069e-03 0.0 
0.0 0.0 0.0 
-2.478366350746e-03 1.496234587699e-03 0.0 
1.496234587699e-03 1.672102564912e-02 0.0 
0.0 0.0 0.0 
2.929636704196e-03 4.903183411753e-03 0.0 
4.903183411753e-03 3.854939230594e-03 0.0 
0.0 0.0 0.0 
1.336581041709e-03 -4.932604463774e-04 0.0 
-4.932604463774e-04 2.177077953724e-03 0.0 
0.0 0.0 0.0 
-1.394733768208e-03 5.500371981271e-03 0.0 
5.500371981271e-03 4.705036359837e-03 0.0 
0.0 0.0 0.0 
-3.029946995470e-03 1.652684546574e-03 0.0 
1.652684546574e-03 1.639219410639e-02 0.0 
0.0 0.0 0.0 
1.986250155378e-03 3.624824527985e-03 0.0 
3.624824527985e-03 4.424703139035e-03 0.0 
0.0 0.0 0.0 
-2.091101800752e-03 1.780176312420e-03 0.0 
1.780176312420e-03 1.669024678358e-02 0.0 
0.0 0.0 0.0 
5.585178622168e-03 1.694374878874e-03 0.0 
1.694374878874e-03 -2.614205395851e-03 0.0 
0.0 0.0 0.0 
8.308797445628e-03 7.455289450796e-04 0.0 
7.455289450796e-04 -6.414228474771e-03 0.0 
0.0 0.0 0.0 
-7.439919722110e-04 -1.633990044400e-03 0.0 
-1.633990044400e-03 3.052971246947e-03 0.0 
0.0 0.0 0.0 
4.779130993938e-03 8.599666927116e-04 0.0 
8.599666927116e-04 -7.528513504379e-03 0.0 
0.0 0.0 0.0 
-1.802509765064e-03 1.697981312212e-03 0.0 
1.697981312212e-03 1.683693643479e-02 0.0 
0.0 0.0 0.0 
-7.637289550259e-04 -9.025470808105e-04 0.0 
-9.025470808105e-04 2.307712900713e-03 0.0 
0.0 0.0 0.0 
-1.637582742780e-03 5.270477365104e-03 0.0 
5.270477365104e-03 6.116223423521e-03 0.0 
0.0 0.0 0.0 
3.083740042437e-03 5.412034825905e-03 0.0 
5.412034825905e-03 3.835854848800e-03 0.0 
0.0 0.0 0.0 
-1.208833882066e-03 1.515784357866e-03 0.0 
1.515784357866e-03 1.707432738193e-02 0.0 
0.0 0.0 0.0 
2.229863232742e-03 -3.780028126536e-03 0.0 
-3.780028126536e-03 -2.849175793084e-03 0.0 
0.0 0.0 0.0 
2.853699012881e-04 5.261671164747e-03 0.0 
5.261671164747e-03 4.947959020277e-03 0.0 
0.0 0.0 0.0 
-2.631467188248e-03 1.931497987088e-03 0.0 
1.931497987088e-03 1.631740202493e-02 0.0 
0.0 0.0 0.0 
-1.054491660084e-04 -2.131454911621e-03 0.0 
-2.131454911621e-03 1.646613068662e-03 0.0 
0.0 0.0 0.0 
6.250896405658e-03 -3.296031155160e-03 0.0 
-3.296031155160e-03 -6.347070529186e-03 0.0 
0.0 0.0 0.0 
3.543995301212e-03 5.846870766871e-03 0.0 
5.846870766871e-03 -1.998228056258e-03 0.0 
0.0 0.0 0.0 
6.106226731233e-04 -3.214433733504e-03 0.0 
-3.214433733504e-03 -3.353217627370e-04 0.0 
0.0 0.0 0.0 
3.279361909776e-03 -3.836500594547e-03 0.0 
-3.836500594547e-03 -2.846206813107e-03 0.0 
0.0 0.0 0.0 
1.901758726313e-03 -3.717033266599e-03 0.0 
-3.717033266599e-03 -1.579017400467e-03 0.0 
0.0 0.0 0.0 
6.823957128712e-03 1.623870547980e-03 0.0 
1.623870547980e-03 -4.321529090216e-03 0.0 
0.0 0.0 0.0 
-6.725187488792e-04 4.246091652470e-03 0.0 
4.246091652470e-03 1.550776992813e-02 0.0 
0.0 0.0 0.0 
-1.690299064238e-03 4.947309801995e-03 0.0 
4.947309801995e-03 7.486305694492e-03 0.0 
0.0 0.0 0.0 
5.757373605952e-04 -9.412114279508e-04 0.0 
-9.412114279508e-04 3.306982727040e-03 0.0 
0.0 0.0 0.0 
9.049703324463e-03 2.613042878225e-03 0.0 
2.613042878225e-03 -6.983889808825e-03 0.0 
0.0 0.0 0.0 
-3.257167124976e-03 2.262920966221e-03 0.0 
2.262920966221e-03 1.605576076603e-02 0.0 
0.0 0.0 0.0 
5.540462049421e-03 4.436059974324e-04 0.0 
4.436059974324e-04 -7.094292519007e-03 0.0 
0.0 0.0 0.0 
1.380886679192e-03 -1.699437524035e-05 0.0 
-1.699437524035e-05 2.536856311508e-03 0.0 
0.0 0.0 0.0 
1.259359919524e-03 -3.674971770401e-03 0.0 
-3.674971770401e-03 -1.581559326864e-03 0.0 
0.0 0.0 0.0 
-1.052240777417e-03 -1.018365391361e-03 0.0 
-1.018365391361e-03 2.705128168510e-03 0.0 
0.0 0.0 0.0 
3.985829395599e-03 2.267633148321e-03 0.0 
2.267633148321e-03 4.240950031220e-05 0.0 
0.0 0.0 0.0 
2.560476397810e-03 -2.083339371175e-03 0.0 
-2.083339371175e-03 -2.069245438929e-03 0.0 
0.0 0.0 0.0 
2.464147841807e-03 3.291383774383e-03 0.0 
3.291383774383e-03 3.402037717633e-03 0.0 
0.0 0.0 0.0 
1.386499843828e-03 5.719036314466e-03 0.0 
5.719036314466e-03 1.962984626738e-03 0.0 
0.0 0.0 0.0 
-2.874651143400e-03 3.265828916834e-03 0.0 
3.265828916834e-03 1.535852915601e-02 0.0 
0.0 0.0 0.0 
1.908509118809e-03 2.746151521138e-03 0.0 
2.746151521138e-03 3.666850982415e-03 0.0 
0.0 0.0 0.0 
-2.651263989457e-03 1.502686325004e-03 0.0 
1.502686325004e-03 1.640760615553e-02 0.0 
0.0 0.0 0.0 
-1.480226122165e-03 4.741983261644e-03 0.0 
4.741983261644e-03 1.366977637825e-02 0.0 
0.0 0.0 0.0 
-2.642069410754e-03 2.435459597816e-03 0.0 
2.435459597816e-03 1.635021894628e-02 0.0 
0.0 0.0 0.0 
-2.475795409908e-03 2.892015565735e-03 0.0 
2.892015565735e-03 1.609530504759e-02 0.0 
0.0 0.0 0.0 
5.638366068514e-03 6.088904968424e-03 0.0 
6.088904968424e-03 -6.146943244627e-03 0.0 
0.0 0.0 0.0 
3.425477285808e-04 -1.068136927187e-03 0.0 
-1.068136927187e-03 3.407593697911e-03 0.0 
0.0 0.0 0.0 
-2.546021557092e-03 2.400056050748e-03 0.0 
2.400056050748e-03 1.610773930356e-02 0.0 
0.0 0.0 0.0 
7.507863371087e-03 4.005442484754e-03 0.0 
4.005442484754e-03 -4.866967747038e-03 0.0 
0.0 0.0 0.0 
-1.768689144161e-03 4.791643035149e-03 0.0 
4.791643035149e-03 8.897238301696e-03 0.0 
0.0 0.0 0.0 
1.472000368711e-03 2.960238602678e-03 0.0 
2.960238602678e-03 4.627239533295e-03 0.0 
0.0 0.0 0.0 
7.096123887205e-03 1.932631280561e-03 0.0 
1.932631280561e-03 -7.098233149651e-03 0.0 
0.0 0.0 0.0 
-7.529878937270e-04 -9.180401824164e-04 0.0 
-9.180401824164e-04 2.326985983551e-03 0.0 
0.0 0.0 0.0 
2.877092067605e-03 3.130078941398e-03 0.0 
3.130078941398e-03 2.306834632565e-03 0.0 
0.0 0.0 0.0 
5.125078870851e-04 8.420076398287e-05 0.0 
8.420076398287e-05 1.300261136928e-03 0.0 
0.0 0.0 0.0 
3.177139697763e-03 5.166617208929e-03 0.0 
5.166617208929e-03 1.162622582098e-03 0.0 
0.0 0.0 0.0 
3.636920720538e-03 1.814069749109e-03 0.0 
1.814069749109e-03 3.530036028974e-04 0.0 
0.0 0.0 0.0 
-1.963404499772e-03 3.157105866304e-03 0.0 
3.157105866304e-03 1.607977118075e-02 0.0 
0.0 0.0 0.0 
-1.710797508674e-03 3.644723912239e-03 0.0 
3.644723912239e-03 1.569404203324e-02 0.0 
0.0 0.0 0.0 
4.009670083033e-03 1.998496125090e-03 0.0 
1.998496125090e-03 8.146358054728e-05 0.0 
0.0 0.0 0.0 
-2.338682815952e-03 2.300418012521e-03 0.0 
2.300418012521e-03 1.655879793229e-02 0.0 
0.0 0.0 0.0 
8.352450984360e-03 3.520639532763e-03 0.0 
3.520639532763e-03 -6.186683303128e-03 0.0 
0.0 0.0 0.0 
1.149879159367e-03 5.445779974022e-03 0.0 
5.445779974022e-03 6.437772149241e-03 0.0 
0.0 0.0 0.0 
-2.110698095279e-03 4.892573577347e-03 0.0 
4.892573577347e-03 1.053256204785e-02 0.0 
0.0 0.0 0.0 
-6.653944575020e-04 5.338652106387e-03 0.0 
5.338652106387e-03 1.098256486530e-02 0.0 
0.0 0.0 0.0 
-2.977215790661e-03 5.293949704516e-03 0.0 
5.293949704516e-03 1.251146227098e-02 0.0 
0.0 0.0 0.0 
-3.913529968319e-03 5.327754956629e-03 0.0 
5.327754956629e-03 1.377658844862e-02 0.0 
0.0 0.0 0.0 
8.719993614775e-03 2.432407291697e-03 0.0 
2.432407291697e-03 -6.249086614836e-03 0.0 
0.0 0.0 0.0 
-5.729692816440e-03 4.367718840815e-03 0.0 
4.367718840815e-03 1.530228209292e-02 0.0 
0.0 0.0 0.0 
5.020485777183e-03 4.931326086125e-03 0.0 
4.931326086125e-03 -2.705937777807e-04 0.0 
0.0 0.0 0.0 
5.406065112290e-03 4.641112098022e-03 0.0 
4.641112098022e-03 -1.879798100929e-03 0.0 
0.0 0.0 0.0 
6.971803257372e-03 -3.970225701257e-06 0.0 
-3.970225701257e-06 -5.496219835809e-03 0.0 
0.0 0.0 0.0 
5.953601663901e-03 -3.122868034813e-03 0.0 
-3.122868034813e-03 -5.757764378955e-03 0.0 
0.0 0.0 0.0 
8.915859238925e-03 1.494480374000e-03 0.0 
1.494480374000e-03 -6.531406380033e-03 0.0 
0.0 0.0 0.0 
-1.683589717697e-03 2.085738751555e-03 0.0 
2.085738751555e-03 1.675002285535e-02 0.0 
0.0 0.0 0.0 
-9.504882887916e-04 5.106214767320e-03 0.0 
5.106214767320e-03 1.240870282996e-02 0.0 
0.0 0.0 0.0 
3.455593419115e-04 -1.283638536718e-03 0.0 
-1.283638536718e-03 3.001965894437e-03 0.0 
0.0 0.0 0.0 
2.124270213052e-03 3.086873872223e-03 0.0 
3.086873872223e-03 3.540697325785e-03 0.0 
0.0 0.0 0.0 
3.278749143408e-03 -1.709808978088e-03 0.0 
-1.709808978088e-03 -2.131934850443e-03 0.0 
0.0 0.0 0.0 
-2.134728484705e-03 2.740263491445e-03 0.0 
2.740263491445e-03 1.611236271890e-02 0.0 
0.0 0.0 0.0 
7.814684198402e-03 6.612558541558e-04 0.0 
6.612558541558e-04 -5.600352721241e-03 0.0 
0.0 0.0 0.0 
9.377390430809e-05 -9.564598416015e-04 0.0 
-9.564598416015e-04 3.930890423788e-03 0.0 
0.0 0.0 0.0 
-2.279677564953e-03 2.289272546972e-03 0.0 
2.289272546972e-03 1.636616402040e-02 0.0 
0.0 0.0 0.0 
-2.704665139013e-03 3.068745421898e-03 0.0 
3.068745421898e-03 1.575925144558e-02 0.0 
0.0 0.0 0.0 
4.910706647372e-03 1.129281682439e-03 0.0 
1.129281682439e-03 -1.917392874833e-03 0.0 
0.0 0.0 0.0 
9.182773390062e-03 2.485994490289e-03 0.0 
2.485994490289e-03 -6.832225945749e-03 0.0 
0.0 0.0 0.0 
1.965033102177e-03 5.666960766235e-03 0.0 
5.666960766235e-03 6.191471470147e-03 0.0 
0.0 0.0 0.0 
-1.281973903350e-03 5.132985012879e-03 0.0 
5.132985012879e-03 8.874999935893e-03 0.0 
0.0 0.0 0.0 
5.088741599239e-03 -4.271879141134e-03 0.0 
-4.271879141134e-03 -5.568931611154e-03 0.0 
0.0 0.0 0.0 
6.950896899224e-03 -2.896247010277e-04 0.0 
-2.896247010277e-04 -6.741448548062e-03 0.0 
0.0 0.0 0.0 
1.954778233398e-03 5.642129025505e-03 0.0 
5.642129025505e-03 6.535017594922e-04 0.0 
0.0 0.0 0.0 
1.791419658048e-04 5.316970468977e-03 0.0 
5.316970468977e-03 4.940752007116e-03 0.0 
0.0 0.0 0.0 
-1.036762847927e-04 -8.340803186873e-04 0.0 
-8.340803186873e-04 4.410696008554e-03 0.0 
0.0 0.0 0.0 
-2.897221325615e-03 2.591715410042e-03 0.0 
2.591715410042e-03 1.608621162859e-02 0.0 
0.0 0.0 0.0 
9.110836966173e-03 1.581796081657e-03 0.0 
1.581796081657e-03 -6.693442714509e-03 0.0 
0.0 0.0 0.0 
2.025065882367e-04 5.471030418469e-03 0.0 
5.471030418469e-03 6.146438093686e-03 0.0 
0.0 0.0 0.0 
3.330163012287e-03 1.454021886437e-03 0.0 
1.454021886437e-03 6.793683587265e-04 0.0 
0.0 0.0 0.0 
-2.122883622295e-03 1.777227131884e-03 0.0 
1.777227131884e-03 1.682843212242e-02 0.0 
0.0 0.0 0.0 
1.430604638779e-03 5.780069324365e-03 0.0 
5.780069324365e-03 7.313411267637e-03 0.0 
0.0 0.0 0.0 
-3.079584330029e-03 2.155851156442e-03 0.0 
2.155851156442e-03 1.579206685025e-02 0.0 
0.0 0.0 0.0 
2.700328406224e-03 2.404387437922e-04 0.0 
2.404387437922e-04 9.515736914996e-04 0.0 
0.0 0.0 0.0 
7.506850967225e-03 9.526473073533e-04 0.0 
9.526473073533e-04 -5.482514365993e-03 0.0 
0.0 0.0 0.0 
3.211554828152e-03 1.139815306471e-03 0.0 
1.139815306471e-03 7.086206001259e-04 0.0 
0.0 0.0 0.0 
2.522839141688e-03 5.326172596336e-03 0.0 
5.326172596336e-03 1.142433820883e-03 0.0 
0.0 0.0 0.0 
-1.861186060935e-03 2.584370777624e-03 0.0 
2.584370777624e-03 1.657110920796e-02 0.0 
0.0 0.0 0.0 
1.000863839402e-03 5.816456668206e-03 0.0 
5.816456668206e-03 8.425692842015e-03 0.0 
0.0 0.0 0.0 
5.908128384317e-03 9.710307280816e-04 0.0 
9.710307280816e-04 -3.439447780108e-03 0.0 
0.0 0.0 0.0 
6.562711463862e-03 1.875433518150e-04 0.0 
1.875433518150e-04 -7.041955166732e-03 0.0 
0.0 0.0 0.0 
2.432265821571e-03 4.582827846615e-03 0.0 
4.582827846615e-03 3.963978982582e-03 0.0 
0.0 0.0 0.0 
3.601023738100e-03 5.198164483945e-03 0.0 
5.198164483945e-03 1.174151663523e-03 0.0 
0.0 0.0 0.0 
8.894973641409e-03 2.547385929915e-03 0.0 
2.547385929915e-03 -6.038214762247e-03 0.0 
0.0 0.0 0.0 
5.408937931854e-03 1.278896972084e-03 0.0 
1.278896972084e-03 -2.551102996438e-03 0.0 
0.0 0.0 0.0 
2.121084150535e-03 -6.326122969764e-04 0.0 
-6.326122969764e-04 6.666340601109e-04 0.0 
0.0 0.0 0.0 
6.385793123036e-03 -1.986420118926e-03 0.0 
-1.986420118926e-03 -6.688677638678e-03 0.0 
0.0 0.0 0.0 
6.924668662368e-03 7.995648936638e-04 0.0 
7.995648936638e-04 -4.683457929637e-03 0.0 
0.0 0.0 0.0 
-2.027221604752e-03 4.600099939921e-03 0.0 
4.600099939921e-03 1.145260797023e-02 0.0 
0.0 0.0 0.0 
-2.587290177767e-04 -8.716658382276e-04 0.0 
-8.716658382276e-04 4.416715287557e-03 0.0 
0.0 0.0 0.0 
-1.603489288470e-03 4.867887616966e-03 0.0 
4.867887616966e-03 1.068892497228e-02 0.0 
0.0 0.0 0.0 
2.690974705394e-03 5.118569787081e-03 0.0 
5.118569787081e-03 3.824870832512e-03 0.0 
0.0 0.0 0.0 
-2.443481436324e-03 4.290393912977e-03 0.0 
4.290393912977e-03 1.221421442218e-02 0.0 
0.0 0.0 0.0 
-3.203471171432e-03 3.448872468817e-03 0.0 
3.448872468817e-03 1.375467276081e-02 0.0 
0.0 0.0 0.0 
-8.271131077473e-04 5.291407953112e-03 0.0 
5.291407953112e-03 8.055281577178e-03 0.0 
0.0 0.0 0.0 
2.598936146122e-03 2.721797194242e-03 0.0 
2.721797194242e-03 2.505865907420e-03 0.0 
0.0 0.0 0.0 
3.495175361927e-04 -1.252574332183e-03 0.0 
-1.252574332183e-03 2.854487014812e-03 0.0 
0.0 0.0 0.0 
-2.774852912016e-03 2.543453673177e-03 0.0 
2.543453673177e-03 1.579078441201e-02 0.0 
0.0 0.0 0.0 
-1.429541513845e-03 3.518152173894e-03 0.0 
3.518152173894e-03 1.570880686391e-02 0.0 
0.0 0.0 0.0 
-2.848724583579e-03 3.919144460830e-03 0.0 
3.919144460830e-03 1.298011095820e-02 0.0 
0.0 0.0 0.0 
8.757562569897e-03 1.280125024756e-03 0.0 
1.280125024756e-03 -6.714614744481e-03 0.0 
0.0 0.0 0.0 
2.128707510489e-03 4.625898600963e-03 0.0 
4.625898600963e-03 5.078068227799e-03 0.0 
0.0 0.0 0.0 
-1.676839068246e-03 2.045066818767e-03 0.0 
2.045066818767e-03 1.688424751522e-02 0.0 
0.0 0.0 0.0 
4.987353284803e-03 4.915339733016e-03 0.0 
4.915339733016e-03 -1.937212413458e-03 0.0 
0.0 0.0 0.0 
3.950594308461e-03 5.211461783481e-03 0.0 
5.211461783481e-03 -3.716931009189e-04 0.0 
0.0 0.0 0.0 
9.159978207682e-03 1.378821970180e-03 0.0 
1.378821970180e-03 -6.791389580338e-03 0.0 
0.0 0.0 0.0 
-2.588095871480e-03 3.045405626643e-03 0.0 
3.045405626643e-03 1.538648617924e-02 0.0 
0.0 0.0 0.0 
-2.439871653712e-04 5.012948502003e-03 0.0 
5.012948502003e-03 4.495443210126e-03 0.0 
0.0 0.0 0.0 
5.535145663250e-03 4.916605920819e-03 0.0 
4.916605920819e-03 -1.416700927634e-03 0.0 
0.0 0.0 0.0 
-1.718912571480e-04 5.030064455637e-03 0.0 
5.030064455637e-03 4.492782380811e-03 0.0 
0.0 0.0 0.0 
3.420920530109e-03 2.732665446500e-03 0.0 
2.732665446500e-03 1.181283632095e-03 0.0 
0.0 0.0 0.0 
1.389019593545e-03 4.496112906091e-03 0.0 
4.496112906091e-03 6.142285523318e-03 0.0 
0.0 0.0 0.0 
8.755185895047e-03 4.051253654007e-04 0.0 
4.051253654007e-04 -6.879852014795e-03 0.0 
0.0 0.0 0.0 
4.748576953466e-03 -1.542915689888e-03 0.0 
-1.542915689888e-03 -7.139727905373e-03 0.0 
0.0 0.0 0.0 
-1.358927630429e-03 4.123268899899e-03 0.0 
4.123268899899e-03 1.481730300475e-02 0.0 
0.0 0.0 0.0 
-6.562409480556e-04 5.040564561309e-03 0.0 
5.040564561309e-03 5.524432123718e-03 0.0 
0.0 0.0 0.0 
4.316412897026e-03 -1.120780692318e-03 0.0 
-1.120780692318e-03 -2.712578337322e-03 0.0 
0.0 0.0 0.0 
1.792236064159e-03 4.387355523406e-03 0.0 
4.387355523406e-03 5.137984446167e-03 0.0 
0.0 0.0 0.0 
-3.108046103126e-03 2.777012908903e-03 0.0 
2.777012908903e-03 1.576419935988e-02 0.0 
0.0 0.0 0.0 
6.421670768906e-04 -1.365908648519e-03 0.0 
-1.365908648519e-03 2.237725859769e-03 0.0 
0.0 0.0 0.0 
6.655959461972e-03 4.256091362378e-03 0.0 
4.256091362378e-03 -3.361563607205e-03 0.0 
0.0 0.0 0.0 
4.049216900253e-03 -8.093253376325e-04 0.0 
-8.093253376325e-04 -7.204124104498e-03 0.0 
0.0 0.0 0.0 
-3.549584460084e-04 -7.679108784184e-04 0.0 
-7.679108784184e-04 4.860610360641e-03 0.0 
0.0 0.0 0.0 
9.374606448771e-04 5.393211440321e-03 0.0 
5.393211440321e-03 3.921876432287e-03 0.0 
0.0 0.0 0.0 
4.414829457618e-03 3.571349181974e-03 0.0 
3.571349181974e-03 4.873400351864e-04 0.0 
0.0 0.0 0.0 
1.730969074545e-03 5.429786884268e-03 0.0 
5.429786884268e-03 6.049924999198e-03 0.0 
0.0 0.0 0.0 
2.889753027282e-03 -1.736382009243e-04 0.0 
-1.736382009243e-04 -7.179808587227e-03 0.0 
0.0 0.0 0.0 
9.727446823133e-04 -1.242840641323e-03 0.0 
-1.242840641323e-03 2.216710033549e-03 0.0 
0.0 0.0 0.0 
5.634741190957e-03 5.555814611852e-03 0.0 
5.555814611852e-03 -3.351645631512e-03 0.0 
0.0 0.0 0.0 
-3.484292779380e-03 2.439613542166e-03 0.0 
2.439613542166e-03 1.576129709833e-02 0.0 
0.0 0.0 0.0 
-8.268560607905e-05 -1.980837106564e-03 0.0 
-1.980837106564e-03 1.936298321295e-03 0.0 
0.0 0.0 0.0 
9.344503824040e-03 1.423831979755e-03 0.0 
1.423831979755e-03 -7.052747974928e-03 0.0 
0.0 0.0 0.0 
-1.046681071365e-04 -9.940357541588e-04 0.0 
-9.940357541588e-04 3.937864430789e-03 0.0 
0.0 0.0 0.0 
4.376304424535e-03 5.266190088496e-03 0.0 
5.266190088496e-03 -3.178319919326e-04 0.0 
0.0 0.0 0.0 
9.230249513877e-03 1.426466316908e-03 0.0 
1.426466316908e-03 -7.292849305459e-03 0.0 
0.0 0.0 0.0 
6.752820423732e-04 5.388219113487e-03 0.0 
5.388219113487e-03 5.051826260051e-03 0.0 
0.0 0.0 0.0 
4.224624187260e-03 -3.425933784029e-03 0.0 
-3.425933784029e-03 -6.735998362105e-03 0.0 
0.0 0.0 0.0 
1.762760387955e-03 5.365245303023e-03 0.0 
5.365245303023e-03 5.231329719137e-03 0.0 
0.0 0.0 0.0 
3.492444205248e-03 2.494706895959e-03 0.0 
2.494706895959e-03 1.216506375799e-03 0.0 
0.0 0.0 0.0 
5.231873574412e-04 5.813470477504e-03 0.0 
5.813470477504e-03 9.405811449625e-03 0.0 
0.0 0.0 0.0 
2.517367733201e-03 5.535273414966e-03 0.0 
5.535273414966e-03 5.026473912656e-03 0.0 
0.0 0.0 0.0 
7.757744528041e-03 -3.432183516793e-04 0.0 
-3.432183516793e-04 -6.787072834211e-03 0.0 
0.0 0.0 0.0 
6.379381853905e-05 -1.328198861254e-03 0.0 
-1.328198861254e-03 3.010722195223e-03 0.0 
0.0 0.0 0.0 
-1.190046580477e-03 2.375015171114e-03 0.0 
2.375015171114e-03 1.676919194534e-02 0.0 
0.0 0.0 0.0 
9.678700884277e-04 3.365582398930e-03 0.0 
3.365582398930e-03 5.537617990163e-03 0.0 
0.0 0.0 0.0 
2.960241772151e-03 2.928921623038e-03 0.0 
2.928921623038e-03 2.336402902675e-03 0.0 
0.0 0.0 0.0 
8.104290034675e-03 3.462124095716e-03 0.0 
3.462124095716e-03 -4.880230936548e-03 0.0 
0.0 0.0 0.0 
1.219140607914e-03 5.415952447995e-03 0.0 
5.415952447995e-03 5.126350785703e-03 0.0 
0.0 0.0 0.0 
-4.331016793162e-04 -6.821200266554e-04 0.0 
-6.821200266554e-04 4.865397234234e-03 0.0 
0.0 0.0 0.0 
-1.505215804193e-03 -5.536957926098e-04 0.0 
-5.536957926098e-04 3.960041462763e-03 0.0 
0.0 0.0 0.0 
2.736659608632e-03 5.604518174853e-03 0.0 
5.604518174853e-03 3.810063770137e-03 0.0 
0.0 0.0 0.0 
-2.872118148122e-03 2.027354809874e-03 0.0 
2.027354809874e-03 1.608127068097e-02 0.0 
0.0 0.0 0.0 
1.002527092557e-04 -1.124834101912e-03 0.0 
-1.124834101912e-03 3.417722405546e-03 0.0 
0.0 0.0 0.0 
9.317845233394e-04 -1.173629799900e-03 0.0 
-1.173629799900e-03 2.106270147340e-03 0.0 
0.0 0.0 0.0 
-2.319837882984e-03 2.379789648321e-05 0.0 
2.379789648321e-05 1.506600778192e-02 0.0 
0.0 0.0 0.0 
-2.299054785920e-03 3.086438087084e-05 0.0 
3.086438087084e-05 1.505710976874e-02 0.0 
0.0 0.0 0.0 
-2.221111073132e-03 4.607361761059e-03 0.0 
4.607361761059e-03 1.223003302365e-02 0.0 
0.0 0.0 0.0 
1.902577243151e-03 5.526787547447e-03 0.0 
5.526787547447e-03 3.966761551397e-03 0.0 
0.0 0.0 0.0 
-3.653956017374e-04 -1.752925787651e-03 0.0 
-1.752925787651e-03 2.536111171546e-03 0.0 
0.0 0.0 0.0 
-1.045942897638e-03 5.278276393133e-03 0.0 
5.278276393133e-03 9.017425454485e-03 0.0 
0.0 0.0 0.0 
5.389605762961e-03 4.927724881199e-03 0.0 
4.927724881199e-03 -1.844409498838e-03 0.0 
0.0 0.0 0.0 
2.177099162743e-03 1.192637119767e-03 0.0 
1.192637119767e-03 2.217766359921e-03 0.0 
0.0 0.0 0.0 
7.286771921219e-03 4.162663174404e-03 0.0 
4.162663174404e-03 -4.980379403967e-03 0.0 
0.0 0.0 0.0 
-6.334056147806e-04 3.806689482503e-03 0.0 
3.806689482503e-03 1.593282549759e-02 0.0 
0.0 0.0 0.0 
-3.620490040259e-03 3.200161382737e-03 0.0 
3.200161382737e-03 1.385728407058e-02 0.0 
0.0 0.0 0.0 
4.629307762329e-03 4.897405467160e-03 0.0 
4.897405467160e-03 -3.277017026907e-04 0.0 
0.0 0.0 0.0 
2.023237985251e-04 -1.991913466871e-03 0.0 
-1.991913466871e-03 1.936231541830e-03 0.0 
0.0 0.0 0.0 
7.352201633623e-03 1.506931899413e-03 0.0 
1.506931899413e-03 -6.436716425598e-03 0.0 
0.0 0.0 0.0 
2.557826457612e-04 -2.326547873400e-03 0.0 
-2.326547873400e-03 9.911151856135e-04 0.0 
0.0 0.0 0.0 
1.394443155473e-03 5.530789860001e-03 0.0 
5.530789860001e-03 3.914339193321e-03 0.0 
0.0 0.0 0.0 
-1.875508493125e-04 5.355410136412e-03 0.0 
5.355410136412e-03 5.986470371555e-03 0.0 
0.0 0.0 0.0 
-2.965198483874e-03 2.722685687806e-03 0.0 
2.722685687806e-03 1.541090318068e-02 0.0 
0.0 0.0 0.0 
-5.963015034692e-04 5.351225141634e-03 0.0 
5.351225141634e-03 8.243871355694e-03 0.0 
0.0 0.0 0.0 
-8.275925045997e-04 5.346228164299e-03 0.0 
5.346228164299e-03 9.184453160131e-03 0.0 
0.0 0.0 0.0 
1.466417523823e-03 -1.056886870592e-04 0.0 
-1.056886870592e-04 3.445906037629e-04 0.0 
0.0 0.0 0.0 
1.464319483631e-04 -2.315094078361e-03 0.0 
-2.315094078361e-03 1.413455554680e-03 0.0 
0.0 0.0 0.0 
-5.796792423102e-04 5.095251356155e-03 0.0 
5.095251356155e-03 5.517795008726e-03 0.0 
0.0 0.0 0.0 
-1.469938166249e-03 5.000966341875e-03 0.0 
5.000966341875e-03 9.809505804279e-03 0.0 
0.0 0.0 0.0 
-1.667745441072e-03 5.006034209784e-03 0.0 
5.006034209784e-03 1.066210941336e-02 0.0 
0.0 0.0 0.0 
2.352372995726e-03 2.324944037169e-03 0.0 
2.324944037169e-03 2.624093487180e-03 0.0 
0.0 0.0 0.0 
7.625742768358e-05 -1.545119931914e-04 0.0 
-1.545119931914e-04 1.678454099820e-03 0.0 
0.0 0.0 0.0 
5.731639568577e-03 -3.481349330831e-03 0.0 
-3.481349330831e-03 -6.330328244463e-03 0.0 
0.0 0.0 0.0 
1.619262016390e-03 5.352179778135e-03 0.0 
5.352179778135e-03 2.628649708621e-03 0.0 
0.0 0.0 0.0 
-1.072083372829e-04 -2.243649781352e-03 0.0 
-2.243649781352e-03 1.404125147461e-03 0.0 
0.0 0.0 0.0 
-3.403214991448e-03 5.435193765839e-03 0.0 
5.435193765839e-03 1.374907125824e-02 0.0 
0.0 0.0 0.0 
-4.052304530201e-03 5.140598814776e-03 0.0 
5.140598814776e-03 1.518687008490e-02 0.0 
0.0 0.0 0.0 
-3.264991748072e-03 2.996247976780e-03 0.0 
2.996247976780e-03 1.537985243552e-02 0.0 
0.0 0.0 0.0 
6.195298007075e-03 6.832171791322e-03 0.0 
6.832171791322e-03 -5.160284073322e-03 0.0 
0.0 0.0 0.0 
-1.670413051233e-04 -1.970665917203e-03 0.0 
-1.970665917203e-03 2.259973976595e-03 0.0 
0.0 0.0 0.0 
3.449508388950e-03 5.512536677992e-04 0.0 
5.512536677992e-04 -1.302190387907e-04 0.0 
0.0 0.0 0.0 
5.937591207668e-03 -1.497120687724e-03 0.0 
-1.497120687724e-03 -6.758475246671e-03 0.0 
0.0 0.0 0.0 
3.852140350040e-04 4.790512318960e-03 0.0 
4.790512318960e-03 7.904309087632e-03 0.0 
0.0 0.0 0.0 
-2.179902014439e-03 2.722524444129e-03 0.0 
2.722524444129e-03 1.636550297797e-02 0.0 
0.0 0.0 0.0 
-7.034849119479e-04 -1.775066555276e-03 0.0 
-1.775066555276e-03 2.544034631556e-03 0.0 
0.0 0.0 0.0 
7.901975512281e-05 -1.133978103095e-03 0.0 
-1.133978103095e-03 3.548919549078e-03 0.0 
0.0 0.0 0.0 
1.210005157928e-03 -2.534182601880e-04 0.0 
-2.534182601880e-04 2.169530656781e-04 0.0 
0.0 0.0 0.0 
3.442188225251e-03 -1.152280786508e-04 0.0 
-1.152280786508e-04 -7.282569992201e-04 0.0 
0.0 0.0 0.0 
1.308693933449e-03 5.356647677173e-03 0.0 
5.356647677173e-03 3.925238057833e-03 0.0 
0.0 0.0 0.0 
1.340795457426e-03 -1.813300813330e-04 0.0 
-1.813300813330e-04 1.713182115872e-04 0.0 
0.0 0.0 0.0 
-1.843389354307e-03 2.612064562698e-03 0.0 
2.612064562698e-03 1.637467118399e-02 0.0 
0.0 0.0 0.0 
5.451850582362e-03 -1.826149193300e-03 0.0 
-1.826149193300e-03 -6.721525806407e-03 0.0 
0.0 0.0 0.0 
-1.487710794630e-03 5.119184161808e-03 0.0 
5.119184161808e-03 9.791548437751e-03 0.0 
0.0 0.0 0.0 
-1.371371860343e-04 5.388851861412e-03 0.0 
5.388851861412e-03 5.981737061691e-03 0.0 
0.0 0.0 0.0 
4.519451568495e-03 -1.322643643999e-03 0.0 
-1.322643643999e-03 -3.745461032804e-03 0.0 
0.0 0.0 0.0 
2.487588587279e-03 -1.521153221220e-03 0.0 
-1.521153221220e-03 -6.570207192477e-04 0.0 
0.0 0.0 0.0 
-1.662240389075e-03 3.055334939505e-03 0.0 
3.055334939505e-03 1.608574813019e-02 0.0 
0.0 0.0 0.0 
2.500782082407e-03 -1.160306712024e-03 0.0 
-1.160306712024e-03 -9.304878342542e-05 0.0 
0.0 0.0 0.0 
2.956698784178e-03 5.390325144291e-03 0.0 
5.390325144291e-03 1.148738429131e-03 0.0 
0.0 0.0 0.0 
2.177807082635e-03 5.321580122848e-03 0.0 
5.321580122848e-03 2.630126946471e-03 0.0 
0.0 0.0 0.0 
-2.648536747072e-03 9.732081774152e-03 0.0 
9.732081774152e-03 3.203482690302e-03 0.0 
0.0 0.0 0.0 
4.954634242011e-03 -1.289695231185e-03 0.0 
-1.289695231185e-03 -6.835468961693e-03 0.0 
0.0 0.0 0.0 
2.426610151929e-03 5.126431049041e-03 0.0 
5.126431049041e-03 4.911971308000e-03 0.0 
0.0 0.0 0.0 
-3.420225158838e-03 3.511837694764e-03 0.0 
3.511837694764e-03 1.437473096933e-02 0.0 
0.0 0.0 0.0 
2.011594538567e-03 4.847050751222e-03 0.0 
4.847050751222e-03 5.038896042365e-03 0.0 
0.0 0.0 0.0 
4.501641201829e-03 5.958704754805e-03 0.0 
5.958704754805e-03 -3.406166865320e-03 0.0 
0.0 0.0 0.0 
-1.719698390411e-03 4.483499307815e-03 0.0 
4.483499307815e-03 1.302340100544e-02 0.0 
0.0 0.0 0.0 
1.927881114249e-03 5.274427082481e-03 0.0 
5.274427082481e-03 6.060981038987e-03 0.0 
0.0 0.0 0.0 
-4.704682517407e-03 4.003697712651e-03 0.0 
4.003697712651e-03 1.323042620590e-02 0.0 
0.0 0.0 0.0 
2.184734261352e-03 5.244588517845e-03 0.0 
5.244588517845e-03 4.893216719250e-03 0.0 
0.0 0.0 0.0 
-1.584086180975e-04 -1.157464394825e-03 0.0 
-1.157464394825e-03 3.554119663530e-03 0.0 
0.0 0.0 0.0 
2.570850228074e-03 5.476494038031e-03 0.0 
5.476494038031e-03 2.651452678154e-03 0.0 
0.0 0.0 0.0 
1.605472842781e-04 -2.172369920992e-03 0.0 
-2.172369920992e-03 1.651314555919e-03 0.0 
0.0 0.0 0.0 
2.543311476861e-04 -2.178441448168e-03 0.0 
-2.178441448168e-03 1.277000254619e-03 0.0 
0.0 0.0 0.0 
-1.682241664805e-03 4.284694751694e-03 0.0 
4.284694751694e-03 1.477573901297e-02 0.0 
0.0 0.0 0.0 
2.391188420992e-03 -1.771110311181e-03 0.0 
-1.771110311181e-03 -1.051690551874e-03 0.0 
0.0 0.0 0.0 
4.418174414498e-04 5.499119710984e-03 0.0 
5.499119710984e-03 5.037768125367e-03 0.0 
0.0 0.0 0.0 
7.285628772677e-03 3.930783708180e-03 0.0 
3.930783708180e-03 -4.175932504548e-03 0.0 
0.0 0.0 0.0 
2.297733389313e-03 -7.960521198031e-04 0.0 
-7.960521198031e-04 6.013431925938e-04 0.0 
0.0 0.0 0.0 
5.781234382627e-03 4.523358795561e-03 0.0 
4.523358795561e-03 -1.884256826878e-03 0.0 
0.0 0.0 0.0 
8.274477019155e-03 -5.255902976484e-05 0.0 
-5.255902976484e-05 -7.061335392709e-03 0.0 
0.0 0.0 0.0 
5.835638580924e-03 1.805056480366e-04 0.0 
1.805056480366e-04 -3.743413676364e-03 0.0 
0.0 0.0 0.0 
8.681268494441e-03 1.484985149121e-03 0.0 
1.484985149121e-03 -7.236829443273e-03 0.0 
0.0 0.0 0.0 
-1.029024682448e-03 5.203807634634e-03 0.0 
5.203807634634e-03 9.027957959433e-03 0.0 
0.0 0.0 0.0 
8.422504054187e-03 -2.278523858078e-04 0.0 
-2.278523858078e-04 -6.969205131309e-03 0.0 
0.0 0.0 0.0 
-7.959122959575e-04 5.370368807487e-03 0.0 
5.370368807487e-03 8.044415353356e-03 0.0 
0.0 0.0 0.0 
2.642458238384e-03 2.502891297591e-03 0.0 
2.502891297591e-03 2.539288407398e-03 0.0 
0.0 0.0 0.0 
3.111635970231e-03 2.281356263524e-03 0.0 
2.281356263524e-03 1.409914473463e-03 0.0 
0.0 0.0 0.0 
6.107383450851e-03 4.588933954918e-03 0.0 
4.588933954918e-03 -3.527771467175e-03 0.0 
0.0 0.0 0.0 
-3.093153071652e-03 2.937593077090e-03 0.0 
2.937593077090e-03 1.493402779071e-02 0.0 
0.0 0.0 0.0 
-1.430898708505e-04 -9.798753255168e-04 0.0 
-9.798753255168e-04 4.046018535266e-03 0.0 
0.0 0.0 0.0 
-3.404099418408e-04 -9.936115021837e-04 0.0 
-9.936115021837e-04 4.049497526857e-03 0.0 
0.0 0.0 0.0 
4.711648355506e-03 7.893131862057e-03 0.0 
7.893131862057e-03 -4.425432817941e-03 0.0 
0.0 0.0 0.0 
-3.609077190436e-04 5.408045511513e-03 0.0 
5.408045511513e-03 7.229420512574e-03 0.0 
0.0 0.0 0.0 
-2.551633573322e-04 -7.200178071128e-04 0.0 
-7.200178071128e-04 4.848432421966e-03 0.0 
0.0 0.0 0.0 
-1.034065993808e-03 5.310529889165e-03 0.0 
5.310529889165e-03 6.112236452656e-03 0.0 
0.0 0.0 0.0 
-6.628030843849e-04 -1.658572605875e-03 0.0 
-1.658572605875e-03 2.796186882567e-03 0.0 
0.0 0.0 0.0 
-2.803244435775e-03 9.817443427880e-03 0.0 
9.817443427880e-03 3.454385984403e-03 0.0 
0.0 0.0 0.0 
-3.161863039288e-04 -8.285319661901e-04 0.0 
-8.285319661901e-04 4.486210740168e-03 0.0 
0.0 0.0 0.0 
7.868119287349e-03 1.658456524000e-03 0.0 
1.658456524000e-03 -7.096681401301e-03 0.0 
0.0 0.0 0.0 
-1.494922648322e-03 -4.617494859068e-04 0.0 
-4.617494859068e-04 4.194602215041e-03 0.0 
0.0 0.0 0.0 
4.233236413996e-03 3.873879720207e-03 0.0 
3.873879720207e-03 4.518626183332e-04 0.0 
0.0 0.0 0.0 
-3.380725379329e-03 3.219921682529e-03 0.0 
3.219921682529e-03 1.489857779100e-02 0.0 
0.0 0.0 0.0 
-3.223180767167e-03 3.183326920348e-03 0.0 
3.183326920348e-03 1.441667509281e-02 0.0 
0.0 0.0 0.0 
2.071821509369e-03 5.473658303516e-03 0.0 
5.473658303516e-03 2.615773703293e-03 0.0 
0.0 0.0 0.0 
-2.615469644787e-03 5.196410024764e-03 0.0 
5.196410024764e-03 1.146746740652e-02 0.0 
0.0 0.0 0.0 
-2.923740011000e-03 5.345584061056e-03 0.0 
5.345584061056e-03 1.250297132410e-02 0.0 
0.0 0.0 0.0 
-4.724718400247e-04 -8.392490880094e-04 0.0 
-8.392490880094e-04 4.489022632328e-03 0.0 
0.0 0.0 0.0 
2.502789859201e-03 -1.456894883375e-03 0.0 
-1.456894883375e-03 -9.646951534908e-04 0.0 
0.0 0.0 0.0 
4.364088960448e-03 -1.039032957572e-03 0.0 
-1.039032957572e-03 -3.272851118288e-03 0.0 
0.0 0.0 0.0 
3.850235637787e-03 3.134480861007e-04 0.0 
3.134480861007e-04 -7.832571483728e-04 0.0 
0.0 0.0 0.0 
6.536920312687e-03 2.373682708292e-05 0.0 
2.373682708292e-05 -4.472189681790e-03 0.0 
0.0 0.0 0.0 
8.077314889243e-03 1.295581371878e-03 0.0 
1.295581371878e-03 -6.493507798181e-03 0.0 
0.0 0.0 0.0 
-2.471847406192e-03 5.079649002519e-03 0.0 
5.079649002519e-03 1.149227204921e-02 0.0 
0.0 0.0 0.0 
-3.807644574729e-03 3.244817080650e-03 0.0 
3.244817080650e-03 1.444045525850e-02 0.0 
0.0 0.0 0.0 
-2.306912357427e-03 2.655331133308e-05 0.0 
2.655331133308e-05 1.506458707904e-02 0.0 
0.0 0.0 0.0 
3.152071152994e-03 2.060817692590e-03 0.0 
2.060817692590e-03 1.440950059052e-03 0.0 
0.0 0.0 0.0 
6.991771767477e-03 4.095954707662e-03 0.0 
4.095954707662e-03 -3.460971575322e-03 0.0 
0.0 0.0 0.0 
1.513362663818e-03 3.093535968711e-03 0.0 
3.093535968711e-03 4.600516412526e-03 0.0 
0.0 0.0 0.0 
-8.455223303909e-04 -3.447524412170e-04 0.0 
-3.447524412170e-04 5.165076938345e-03 0.0 
0.0 0.0 0.0 
6.341274630738e-03 2.581735996553e-04 0.0 
2.581735996553e-04 -4.594535306880e-03 0.0 
0.0 0.0 0.0 
-1.486792372892e-04 -7.954640408306e-04 0.0 
-7.954640408306e-04 4.799986259769e-03 0.0 
0.0 0.0 0.0 
7.905443021853e-03 -1.250414644972e-03 0.0 
-1.250414644972e-03 -6.814049619674e-03 0.0 
0.0 0.0 0.0 
1.668238717506e-03 3.428324290333e-03 0.0 
3.428324290333e-03 4.538699586768e-03 0.0 
0.0 0.0 0.0 
2.659384496727e-03 5.338409631945e-03 0.0 
5.338409631945e-03 2.632798307394e-03 0.0 
0.0 0.0 0.0 
3.949166997445e-03 5.316109462522e-03 0.0 
5.316109462522e-03 1.325834868530e-03 0.0 
0.0 0.0 0.0 
2.311918741347e-03 4.942050760103e-04 0.0 
4.942050760103e-04 1.558434541085e-03 0.0 
0.0 0.0 0.0 
6.594300004878e-04 -2.722264837189e-03 0.0 
-2.722264837189e-03 6.339510531950e-05 0.0 
0.0 0.0 0.0 
-1.687684343343e-05 5.487156680054e-03 0.0 
5.487156680054e-03 6.145312326344e-03 0.0 
0.0 0.0 0.0 
5.602966128868e-03 -5.802375231073e-04 0.0 
-5.802375231073e-04 -4.374771868656e-03 0.0 
0.0 0.0 0.0 
-5.004583485496e-04 5.421360703555e-03 0.0 
5.421360703555e-03 7.014815973134e-03 0.0 
0.0 0.0 0.0 
4.495162376746e-03 5.603863224498e-03 0.0 
5.603863224498e-03 -1.967782546549e-03 0.0 
0.0 0.0 0.0 
3.880800655445e-03 4.767807827191e-03 0.0 
4.767807827191e-03 1.380072418196e-03 0.0 
0.0 0.0 0.0 
5.648126435561e-03 -7.534432544400e-04 0.0 
-7.534432544400e-04 -3.843648330789e-03 0.0 
0.0 0.0 0.0 
-9.889794787110e-05 -1.787501013820e-03 0.0 
-1.787501013820e-03 2.540013929116e-03 0.0 
0.0 0.0 0.0 
-5.269932903881e-04 5.341892640447e-03 0.0 
5.341892640447e-03 7.025551439178e-03 0.0 
0.0 0.0 0.0 
2.396557482460e-03 1.317420534507e-02 0.0 
1.317420534507e-02 -2.486776725656e-03 0.0 
0.0 0.0 0.0 
6.074681432728e-03 3.782991200816e-03 0.0 
3.782991200816e-03 -2.593896315946e-03 0.0 
0.0 0.0 0.0 
6.696930795889e-04 9.886275230468e-03 0.0 
9.886275230468e-03 7.616660318790e-04 0.0 
0.0 0.0 0.0 
4.199622608270e-04 -6.645325362455e-04 0.0 
-6.645325362455e-04 8.693451943749e-04 0.0 
0.0 0.0 0.0 
-4.384289725048e-04 -1.738194811579e-03 0.0 
-1.738194811579e-03 2.808410838250e-03 0.0 
0.0 0.0 0.0 
5.737041677514e-04 5.472563233735e-03 0.0 
5.472563233735e-03 7.578902943479e-03 0.0 
0.0 0.0 0.0 
-2.887843186327e-03 3.678917553251e-03 0.0 
3.678917553251e-03 1.372386897857e-02 0.0 
0.0 0.0 0.0 
-2.189279492578e-03 5.069426841161e-03 0.0 
5.069426841161e-03 9.638175134028e-03 0.0 
0.0 0.0 0.0 
0.0 3.850640490986e-03 0.0 
3.850640490986e-03 1.573909826240e-02 0.0 
0.0 0.0 0.0 
-2.873636482935e-03 1.124955498168e-02 0.0 
1.124955498168e-02 2.392673537339e-03 0.0 
0.0 0.0 0.0 
-2.343526191416e-03 5.052456150086e-03 0.0 
5.052456150086e-03 1.050766981540e-02 0.0 
0.0 0.0 0.0 
4.116817544027e-03 -9.211173874737e-04 0.0 
-9.211173874737e-04 -2.391454981125e-03 0.0 
0.0 0.0 0.0 
-9.252357459865e-04 -1.512742614200e-03 0.0 
-1.512742614200e-03 3.034366002209e-03 0.0 
0.0 0.0 0.0 
-2.592132126592e-03 4.608218334428e-03 0.0 
4.608218334428e-03 1.017105184429e-02 0.0 
0.0 0.0 0.0 
5.014570315176e-03 -2.272416928318e-03 0.0 
-2.272416928318e-03 -3.860451668738e-03 0.0 
0.0 0.0 0.0 
2.494242398774e-03 -1.775679728323e-03 0.0 
-1.775679728323e-03 -1.435820595160e-03 0.0 
0.0 0.0 0.0 
1.844341771491e-03 5.386798296868e-03 0.0 
5.386798296868e-03 3.933385847471e-03 0.0 
0.0 0.0 0.0 
4.915081916348e-03 3.477715088097e-03 0.0 
3.477715088097e-03 -8.079914520879e-04 0.0 
0.0 0.0 0.0 
-5.996764204620e-04 5.376109559806e-03 0.0 
5.376109559806e-03 1.022912038546e-02 0.0 
0.0 0.0 0.0 
5.745497031449e-03 7.741841322960e-03 0.0 
7.741841322960e-03 -6.986323503505e-03 0.0 
0.0 0.0 0.0 
-5.029373634505e-04 -1.883222214152e-03 0.0 
-1.883222214152e-03 2.559559599300e-03 0.0 
0.0 0.0 0.0 
-9.366809141542e-04 -1.369794385603e-03 0.0 
-1.369794385603e-03 3.486774983461e-03 0.0 
0.0 0.0 0.0 
8.274801494235e-06 -2.164724637773e-03 0.0 
-2.164724637773e-03 9.854323147420e-04 0.0 
0.0 0.0 0.0 
-3.936908703552e-03 2.895292296499e-03 0.0 
2.895292296499e-03 1.387685267910e-02 0.0 
0.0 0.0 0.0 
-3.034637239183e-03 3.932801359708e-03 0.0 
3.932801359708e-03 1.368899615000e-02 0.0 
0.0 0.0 0.0 
-1.177156649428e-03 -1.480265584678e-04 0.0 
-1.480265584678e-04 4.885414491062e-03 0.0 
0.0 0.0 0.0 
1.907553960718e-03 -2.544996324620e-04 0.0 
-2.544996324620e-04 -7.927730395640e-05 0.0 
0.0 0.0 0.0 
2.298905861340e-03 -3.733282637210e-04 0.0 
-3.733282637210e-04 -6.357103133058e-03 0.0 
0.0 0.0 0.0 
1.556306515356e-04 -1.626371090287e-03 0.0 
-1.626371090287e-03 9.216494084487e-04 0.0 
0.0 0.0 0.0 
-1.098873394555e-03 -1.241685088793e-03 0.0 
-1.241685088793e-03 3.466924378630e-03 0.0 
0.0 0.0 0.0 
7.822484643599e-03 -7.806739975852e-04 0.0 
-7.806739975852e-04 -6.555908100114e-03 0.0 
0.0 0.0 0.0 
5.193308349972e-03 -2.521980085146e-03 0.0 
-2.521980085146e-03 -5.016468525458e-03 0.0 
0.0 0.0 0.0 
7.640021223386e-03 -1.663261954931e-03 0.0 
-1.663261954931e-03 -6.816959533814e-03 0.0 
0.0 0.0 0.0 
-6.622847984397e-04 -1.489400848915e-03 0.0 
-1.489400848915e-03 3.297821022708e-03 0.0 
0.0 0.0 0.0 
-2.094669450513e-03 4.431969230875e-03 0.0 
4.431969230875e-03 1.226300886004e-02 0.0 
0.0 0.0 0.0 
-1.084526867224e-03 -1.100109581153e-03 0.0 
-1.100109581153e-03 3.858531948951e-03 0.0 
0.0 0.0 0.0 
8.884928118426e-03 2.338063727236e-04 0.0 
2.338063727236e-04 -6.728768771985e-03 0.0 
0.0 0.0 0.0 
-2.510223717022e-04 5.447062127079e-03 0.0 
5.447062127079e-03 7.223877822005e-03 0.0 
0.0 0.0 0.0 
-3.027645966075e-03 7.925704399277e-04 0.0 
7.925704399277e-04 1.576663464476e-02 0.0 
0.0 0.0 0.0 
3.269469013482e-03 3.643149093558e-03 0.0 
3.643149093558e-03 1.992216644717e-03 0.0 
0.0 0.0 0.0 
-1.225468478354e-03 -9.678695408895e-04 0.0 
-9.678695408895e-04 3.837404782191e-03 0.0 
0.0 0.0 0.0 
-8.648633831665e-04 -1.396229860407e-03 0.0 
-1.396229860407e-03 3.283049094596e-03 0.0 
0.0 0.0 0.0 
-1.911417352206e-03 5.023803770332e-03 0.0 
5.023803770332e-03 8.081346269342e-03 0.0 
0.0 0.0 0.0 
6.302699414301e-03 -1.295963697649e-03 0.0 
-1.295963697649e-03 -5.445508780639e-03 0.0 
0.0 0.0 0.0 
-1.192696282105e-03 -8.293337978862e-04 0.0 
-8.293337978862e-04 4.179061530603e-03 0.0 
0.0 0.0 0.0 
-2.000079470456e-03 9.100333885116e-05 0.0 
9.100333885116e-05 1.639294451769e-02 0.0 
0.0 0.0 0.0 
-2.142979766175e-03 6.943259486502e-05 0.0 
6.943259486502e-05 1.609363296448e-02 0.0 
0.0 0.0 0.0 
-2.033481551489e-03 5.020458849609e-03 0.0 
5.020458849609e-03 8.856507312747e-03 0.0 
0.0 0.0 0.0 
-8.426565436127e-04 -1.231269094528e-03 0.0 
-1.231269094528e-03 3.726522383270e-03 0.0 
0.0 0.0 0.0 
2.732726007183e-03 -2.862336173535e-03 0.0 
-2.862336173535e-03 -2.977844860195e-03 0.0 
0.0 0.0 0.0 
1.266647264134e-03 8.680849587063e-03 0.0 
8.680849587063e-03 -5.172110943708e-04 0.0 
0.0 0.0 0.0 
1.721936469527e-03 3.253224646548e-03 0.0 
3.253224646548e-03 4.577574820702e-03 0.0 
0.0 0.0 0.0 
-4.107224434924e-05 -2.020373346164e-03 0.0 
-2.020373346164e-03 8.002952164288e-04 0.0 
0.0 0.0 0.0 
2.592568562956e-03 -2.654382423121e-03 0.0 
-2.654382423121e-03 -2.023349227458e-03 0.0 
0.0 0.0 0.0 
6.670945152432e-03 4.165137458336e-03 0.0 
4.165137458336e-03 -2.770945412204e-03 0.0 
0.0 0.0 0.0 
-1.943242191698e-03 4.753952399560e-03 0.0 
4.753952399560e-03 9.728626706914e-03 0.0 
0.0 0.0 0.0 
-1.312663571606e-03 -6.982939671044e-04 0.0 
-6.982939671044e-04 4.148328884997e-03 0.0 
0.0 0.0 0.0 
-7.319674330807e-04 -3.093684817454e-05 0.0 
-3.093684817454e-05 2.508986647818e-03 0.0 
0.0 0.0 0.0 
-4.180917031935e-03 2.848609905087e-03 0.0 
2.848609905087e-03 1.471804083358e-02 0.0 
0.0 0.0 0.0 
-1.019408501935e-03 -1.132979444462e-03 0.0 
-1.132979444462e-03 3.710701231350e-03 0.0 
0.0 0.0 0.0 
3.312013636430e-03 -1.628541326201e-03 0.0 
-1.628541326201e-03 -2.620181206379e-03 0.0 
0.0 0.0 0.0 
-4.107592618464e-04 -1.907722841264e-03 0.0 
-1.907722841264e-03 2.251404922270e-03 0.0 
0.0 0.0 0.0 
5.211296306237e-03 7.405314826243e-03 0.0 
7.405314826243e-03 -7.477032284409e-03 0.0 
0.0 0.0 0.0 
-1.332360724499e-03 1.390466690819e-04 0.0 
1.390466690819e-04 1.709969399475e-02 0.0 
0.0 0.0 0.0 
3.622459556238e-03 -2.230364226101e-03 0.0 
-2.230364226101e-03 -3.440800383248e-03 0.0 
0.0 0.0 0.0 
2.615859531768e-03 1.613276490840e-03 0.0 
1.613276490840e-03 1.954697961169e-03 0.0 
0.0 0.0 0.0 
4.423511705133e-03 5.140747236601e-03 0.0 
5.140747236601e-03 1.354246315384e-03 0.0 
0.0 0.0 0.0 
-9.825617485998e-04 -9.758173997783e-04 0.0 
-9.758173997783e-04 4.098652373622e-03 0.0 
0.0 0.0 0.0 
-1.133445864400e-03 -8.715837489298e-04 0.0 
-8.715837489298e-04 4.081840029752e-03 0.0 
0.0 0.0 0.0 
7.908699429915e-03 -9.911913002092e-04 0.0 
-9.911913002092e-04 -6.051743459518e-03 0.0 
0.0 0.0 0.0 
-7.891610817246e-05 -1.812302657322e-03 0.0 
-1.812302657322e-03 6.567444765229e-04 0.0 
0.0 0.0 0.0 
5.259533280410e-03 1.147800781599e-02 0.0 
1.147800781599e-02 -8.283604384972e-03 0.0 
0.0 0.0 0.0 
-1.087028554472e-03 -7.257436726742e-04 0.0 
-7.257436726742e-04 4.425692439329e-03 0.0 
0.0 0.0 0.0 
2.569348137027e-03 7.762123345429e-04 0.0 
7.762123345429e-04 1.568489375106e-03 0.0 
0.0 0.0 0.0 
1.462118235423e-03 -2.922389595084e-03 0.0 
-2.922389595084e-03 -1.216149715678e-03 0.0 
0.0 0.0 0.0 
3.156450812913e-04 5.539268993282e-03 0.0 
5.539268993282e-03 6.294710806919e-03 0.0 
0.0 0.0 0.0 
-6.560362776401e-04 5.431568196520e-03 0.0 
5.431568196520e-03 5.157905925006e-03 0.0 
0.0 0.0 0.0 
-5.997514322501e-04 5.398508746182e-03 0.0 
5.398508746182e-03 8.237273045605e-03 0.0 
0.0 0.0 0.0 
9.600283821125e-04 -1.656309255053e-04 0.0 
-1.656309255053e-04 3.563679822262e-03 0.0 
0.0 0.0 0.0 
-3.289968390571e-03 -5.383161267158e-05 0.0 
-5.383161267158e-05 -3.578975916410e-03 0.0 
0.0 0.0 0.0 
0.0 3.694907871080e-04 0.0 
3.694907871080e-04 1.742003044116e-02 0.0 
0.0 0.0 0.0 
0.0 -2.601107066981e-04 0.0 
-2.601107066981e-04 5.909153355483e-03 0.0 
0.0 0.0 0.0 
-2.260319626208e-03 -3.216013722425e-05 0.0 
-3.216013722425e-05 1.549787127618e-02 0.0 
0.0 0.0 0.0 
2.052681323646e-03 -2.631092535040e-03 0.0 
-2.631092535040e-03 -1.740992885162e-03 0.0 
0.0 0.0 0.0 
3.208779275368e-03 5.250754577178e-03 0.0 
5.250754577178e-03 2.684399599751e-03 0.0 
0.0 0.0 0.0 
8.778615041275e-03 4.042249980347e-05 0.0 
4.042249980347e-05 -7.068723761991e-03 0.0 
0.0 0.0 0.0 
8.431713459873e-04 -4.682877599825e-04 0.0 
-4.682877599825e-04 5.720513124832e-04 0.0 
0.0 0.0 0.0 
-3.381491063728e-03 1.167096736210e-02 0.0 
1.167096736210e-02 3.214269728400e-03 0.0 
0.0 0.0 0.0 
-1.256183820966e-03 1.114046557217e-03 0.0 
1.114046557217e-03 1.717126031636e-02 0.0 
0.0 0.0 0.0 
-2.636250171221e-03 4.300317426009e-03 0.0 
4.300317426009e-03 1.296464082947e-02 0.0 
0.0 0.0 0.0 
-4.321065480340e-03 3.066095996632e-03 0.0 
3.066095996632e-03 1.481840387435e-02 0.0 
0.0 0.0 0.0 
4.533391690396e-04 4.933846740179e-03 0.0 
4.933846740179e-03 8.185546154027e-03 0.0 
0.0 0.0 0.0 
-1.965800803099e-04 1.690789539284e-05 0.0 
1.690789539284e-05 1.982672468242e-03 0.0 
0.0 0.0 0.0 
4.531712256968e-04 4.605622865107e-03 0.0 
4.605622865107e-03 7.653614050878e-03 0.0 
0.0 0.0 0.0 
-2.503876856721e-03 4.103598903866e-03 0.0 
4.103598903866e-03 1.299725219479e-02 0.0 
0.0 0.0 0.0 
1.099685046304e-03 -2.753600207199e-03 0.0 
-2.753600207199e-03 -4.968764607149e-04 0.0 
0.0 0.0 0.0 
3.408983595417e-03 5.399089488241e-03 0.0 
5.399089488241e-03 1.195470060710e-03 0.0 
0.0 0.0 0.0 
1.944581532812e-03 -2.636973861951e-03 0.0 
-2.636973861951e-03 -1.179318416741e-03 0.0 
0.0 0.0 0.0 
9.833251239282e-04 7.820948244247e-03 0.0 
7.820948244247e-03 4.370114542585e-04 0.0 
0.0 0.0 0.0 
1.370875952480e-03 -2.765380067827e-03 0.0 
-2.765380067827e-03 -5.561790558903e-04 0.0 
0.0 0.0 0.0 
-1.681163649159e-03 4.726228738106e-03 0.0 
4.726228738106e-03 1.151467847858e-02 0.0 
0.0 0.0 0.0 
-7.471513022643e-04 -4.378737257379e-04 0.0 
-4.378737257379e-04 5.182751213472e-03 0.0 
0.0 0.0 0.0 
3.611078316140e-03 -2.366114212464e-03 0.0 
-2.366114212464e-03 -2.790274612940e-03 0.0 
0.0 0.0 0.0 
-1.095287855108e-04 5.471502241636e-03 0.0 
5.471502241636e-03 7.409699832237e-03 0.0 
0.0 0.0 0.0 
3.264216844452e-04 -8.488279452266e-05 0.0 
-8.488279452266e-05 -5.272616574630e-03 0.0 
0.0 0.0 0.0 
6.388597609022e-03 -1.555969336227e-03 0.0 
-1.555969336227e-03 -4.722302103274e-03 0.0 
0.0 0.0 0.0 
-2.302107843190e-03 4.301606882923e-03 0.0 
4.301606882923e-03 1.365890067134e-02 0.0 
0.0 0.0 0.0 
4.810034371974e-04 -2.646394022848e-03 0.0 
-2.646394022848e-03 5.925684820196e-04 0.0 
0.0 0.0 0.0 
9.472750263337e-04 -2.901012753628e-03 0.0 
-2.901012753628e-03 -5.279091272228e-04 0.0 
0.0 0.0 0.0 
4.101762120815e-03 5.168468751201e-03 0.0 
5.168468751201e-03 1.228617885217e-03 0.0 
0.0 0.0 0.0 
2.963226355958e-03 -4.264945878733e-03 0.0 
-4.264945878733e-03 -2.561361317608e-03 0.0 
0.0 0.0 0.0 
-1.610967380252e-03 5.117739560537e-03 0.0 
5.117739560537e-03 6.612400906996e-03 0.0 
0.0 0.0 0.0 
-1.897911886408e-03 5.456118270495e-03 0.0 
5.456118270495e-03 7.421540037545e-03 0.0 
0.0 0.0 0.0 
4.048951391840e-04 -2.628548817023e-03 0.0 
-2.628548817023e-03 5.726713620624e-04 0.0 
0.0 0.0 0.0 
3.305910045287e-03 -1.488660189610e-03 0.0 
-1.488660189610e-03 -2.277881148586e-03 0.0 
0.0 0.0 0.0 
6.433939878534e-03 4.497451843940e-03 0.0 
4.497451843940e-03 -3.371954189145e-03 0.0 
0.0 0.0 0.0 
1.301643879850e-04 5.437817129375e-03 0.0 
5.437817129375e-03 7.412763742590e-03 0.0 
0.0 0.0 0.0 
-5.896103157661e-04 5.318412767607e-03 0.0 
5.318412767607e-03 1.175320924800e-02 0.0 
0.0 0.0 0.0 
-1.673797541340e-03 4.769220994112e-03 0.0 
4.769220994112e-03 8.131919547852e-03 0.0 
0.0 0.0 0.0 
-1.823012093774e-03 8.430665561345e-05 0.0 
8.430665561345e-05 1.667198863790e-02 0.0 
0.0 0.0 0.0 
8.707706420557e-04 5.621214995069e-03 0.0 
5.621214995069e-03 8.149004712111e-03 0.0 
0.0 0.0 0.0 
8.783662738806e-03 2.325009329790e-05 0.0 
2.325009329790e-05 -7.019455816572e-03 0.0 
0.0 0.0 0.0 
-3.149737596408e-05 9.238022815428e-03 0.0 
9.238022815428e-03 7.383778952903e-04 0.0 
0.0 0.0 0.0 
-8.568127215534e-04 5.474821959250e-03 0.0 
5.474821959250e-03 6.081664088338e-03 0.0 
0.0 0.0 0.0 
2.508759502800e-03 -1.913421970181e-03 0.0 
-1.913421970181e-03 -1.754609574602e-03 0.0 
0.0 0.0 0.0 
-7.676630427331e-04 5.301777859669e-03 0.0 
5.301777859669e-03 9.189840831955e-03 0.0 
0.0 0.0 0.0 
3.175815967069e-03 -1.460686771064e-03 0.0 
-1.460686771064e-03 -1.827142460827e-03 0.0 
0.0 0.0 0.0 
5.647781040618e-03 7.132722686212e-03 0.0 
7.132722686212e-03 -5.976028378337e-03 0.0 
0.0 0.0 0.0 
3.270476336272e-03 -1.248298555413e-03 0.0 
-1.248298555413e-03 -1.826645525566e-03 0.0 
0.0 0.0 0.0 
6.617864695504e-04 7.385813480279e-03 0.0 
7.385813480279e-03 1.347474785647e-03 0.0 
0.0 0.0 0.0 
7.070249972808e-03 4.060775239257e-03 0.0 
4.060775239257e-03 -3.312842264456e-03 0.0 
0.0 0.0 0.0 
3.225335846805e-03 -1.282274592590e-03 0.0 
-1.282274592590e-03 -1.516221057993e-03 0.0 
0.0 0.0 0.0 
4.717182493489e-03 5.193802557974e-03 0.0 
5.193802557974e-03 -4.413170503215e-05 0.0 
0.0 0.0 0.0 
-2.180905423818e-03 2.681289657031e-04 0.0 
2.681289657031e-04 1.634822165681e-02 0.0 
0.0 0.0 0.0 
2.502291092545e-04 -2.511675187113e-03 0.0 
-2.511675187113e-03 5.574247170403e-04 0.0 
0.0 0.0 0.0 
1.727861721839e-03 9.740128676956e-03 0.0 
9.740128676956e-03 -1.717172195539e-03 0.0 
0.0 0.0 0.0 
3.302422770901e-03 -9.542229280150e-04 0.0 
-9.542229280150e-04 -1.044435243561e-03 0.0 
0.0 0.0 0.0 
3.582379355425e-04 7.070845794757e-03 0.0 
7.070845794757e-03 2.209259013952e-03 0.0 
0.0 0.0 0.0 
2.632436589791e-03 1.085139592488e-03 0.0 
1.085139592488e-03 -6.510346062769e-03 0.0 
0.0 0.0 0.0 
-8.696009090794e-04 1.892294516174e-04 0.0 
1.892294516174e-04 1.726680747354e-02 0.0 
0.0 0.0 0.0 
-1.252244647148e-03 1.567632472421e-04 0.0 
1.567632472421e-04 1.710036380042e-02 0.0 
0.0 0.0 0.0 
5.767246878587e-04 -3.908237600749e-04 0.0 
-3.908237600749e-04 2.017295004191e-04 0.0 
0.0 0.0 0.0 
3.138677881279e-03 -8.007826058309e-04 0.0 
-8.007826058309e-04 -1.034908098285e-03 0.0 
0.0 0.0 0.0 
6.165991524942e-05 -1.951304684476e-03 0.0 
-1.951304684476e-03 9.553133536382e-04 0.0 
0.0 0.0 0.0 
-2.130589258650e-04 -2.019905168703e-03 0.0 
-2.019905168703e-03 1.295328582307e-03 0.0 
0.0 0.0 0.0 
2.795879713264e-04 5.565894036190e-03 0.0 
5.565894036190e-03 7.573237561254e-03 0.0 
0.0 0.0 0.0 
5.167928069074e-03 4.934787033917e-03 0.0 
4.934787033917e-03 -1.104768383364e-05 0.0 
0.0 0.0 0.0 
7.696637681045e-04 5.575567605151e-03 0.0 
5.575567605151e-03 6.422744120790e-03 0.0 
0.0 0.0 0.0 
4.998676365060e-03 -2.079333467773e-03 0.0 
-2.079333467773e-03 -4.614260462581e-03 0.0 
0.0 0.0 0.0 
-2.376659795719e-03 5.894809369832e-05 0.0 
5.894809369832e-05 1.507117075426e-02 0.0 
0.0 0.0 0.0 
3.732954006834e-04 -4.622076685041e-04 0.0 
-4.622076685041e-04 3.785145176573e-03 0.0 
0.0 0.0 0.0 
-1.606185766330e-04 -1.751889955458e-03 0.0 
-1.751889955458e-03 1.162650139055e-03 0.0 
0.0 0.0 0.0 
2.827839527025e-03 1.699894779798e-03 0.0 
1.699894779798e-03 1.616061047607e-03 0.0 
0.0 0.0 0.0 
5.988235761551e-03 4.550246826024e-03 0.0 
4.550246826024e-03 -1.786603455600e-03 0.0 
0.0 0.0 0.0 
3.451291344538e-04 -2.903873569111e-04 0.0 
-2.903873569111e-04 1.168174973545e-03 0.0 
0.0 0.0 0.0 
-1.178692734020e-03 5.095167066341e-03 0.0 
5.095167066341e-03 9.924927614858e-03 0.0 
0.0 0.0 0.0 
7.625517718170e-03 -5.952529234995e-04 0.0 
-5.952529234995e-04 -5.576240534051e-03 0.0 
0.0 0.0 0.0 
-5.731614383886e-05 -1.781902260300e-03 0.0 
-1.781902260300e-03 7.373299309201e-04 0.0 
0.0 0.0 0.0 
6.599842050766e-03 -2.015781444828e-03 0.0 
-2.015781444828e-03 -5.097581481616e-03 0.0 
0.0 0.0 0.0 
-1.265093376784e-03 -5.628571087726e-05 0.0 
-5.628571087726e-05 4.813333946642e-03 0.0 
0.0 0.0 0.0 
-1.799350607525e-03 4.884216088473e-03 0.0 
4.884216088473e-03 1.147934114163e-02 0.0 
0.0 0.0 0.0 
2.823898923403e-04 -1.902368742036e-03 0.0 
-1.902368742036e-03 5.570410062115e-04 0.0 
0.0 0.0 0.0 
-1.576320434458e-03 -3.115282992715e-04 0.0 
-3.115282992715e-04 4.163153109448e-03 0.0 
0.0 0.0 0.0 
-3.778704371240e-04 5.446101622491e-03 0.0 
5.446101622491e-03 8.460778095184e-03 0.0 
0.0 0.0 0.0 
2.865314879009e-03 3.764635221402e-03 0.0 
3.764635221402e-03 3.116412839780e-03 0.0 
0.0 0.0 0.0 
8.703624083788e-04 -2.762214034645e-03 0.0 
-2.762214034645e-03 3.445385932688e-05 0.0 
0.0 0.0 0.0 
-8.408165143617e-04 -3.097897507966e-04 0.0 
-3.097897507966e-04 2.502828880422e-03 0.0 
0.0 0.0 0.0 
6.391525442596e-03 4.495765453542e-03 0.0 
4.495765453542e-03 -2.815273873591e-03 0.0 
0.0 0.0 0.0 
-2.074354323963e-03 -2.404625541778e-05 0.0 
-2.404625541778e-05 1.622031658573e-02 0.0 
0.0 0.0 0.0 
1.110358261578e-04 -2.687646864032e-03 0.0 
-2.687646864032e-03 5.338653634730e-04 0.0 
0.0 0.0 0.0 
7.987668967648e-04 5.457008967605e-03 0.0 
5.457008967605e-03 8.635685549067e-03 0.0 
0.0 0.0 0.0 
-4.826422126946e-04 5.107678734545e-03 0.0 
5.107678734545e-03 1.318676158319e-02 0.0 
0.0 0.0 0.0 
-2.221908514947e-03 1.019644578549e-05 0.0 
1.019644578549e-05 1.573531889286e-02 0.0 
0.0 0.0 0.0 
-1.338090851646e-03 2.891324567420e-03 0.0 
2.891324567420e-03 1.654620962591e-02 0.0 
0.0 0.0 0.0 
-1.290814922827e-04 5.634012254373e-03 0.0 
5.634012254373e-03 1.162196546015e-02 0.0 
0.0 0.0 0.0 
4.777007688173e-03 -1.878657115261e-03 0.0 
-1.878657115261e-03 -3.513806309004e-03 0.0 
0.0 0.0 0.0 
2.693060495311e-03 -2.593921930695e-03 0.0 
-2.593921930695e-03 -2.740948074311e-03 0.0 
0.0 0.0 0.0 
1.356989742908e-03 2.305363799848e-03 0.0 
2.305363799848e-03 4.500751606025e-03 0.0 
0.0 0.0 0.0 
6.148888535067e-04 3.263072784987e-04 0.0 
3.263072784987e-04 -5.069604052372e-03 0.0 
0.0 0.0 0.0 
-5.257440997677e-04 -1.461462892171e-04 0.0 
-1.461462892171e-04 2.260586629293e-03 0.0 
0.0 0.0 0.0 
-1.501477552253e-03 -2.174026388644e-04 0.0 
-2.174026388644e-04 4.272161216063e-03 0.0 
0.0 0.0 0.0 
6.099195286684e-04 -2.747712663474e-03 0.0 
-2.747712663474e-03 3.394958944880e-05 0.0 
0.0 0.0 0.0 
3.706825920280e-03 -2.670042721769e-03 0.0 
-2.670042721769e-03 -3.006933376500e-03 0.0 
0.0 0.0 0.0 
-1.435113241802e-03 5.354430547173e-03 0.0 
5.354430547173e-03 5.289285395799e-03 0.0 
0.0 0.0 0.0 
-1.815110088563e-03 5.891360144672e-03 0.0 
5.891360144672e-03 6.018683079159e-03 0.0 
0.0 0.0 0.0 
-3.008812492888e-03 6.343084985188e-04 0.0 
6.343084985188e-04 1.581126897611e-02 0.0 
0.0 0.0 0.0 
6.584815018113e-03 -1.807712440303e-03 0.0 
-1.807712440303e-03 -5.906645891952e-03 0.0 
0.0 0.0 0.0 
-9.470945661925e-04 -7.554185523202e-04 0.0 
-7.554185523202e-04 2.578567995572e-03 0.0 
0.0 0.0 0.0 
3.007349013644e-03 4.427253847921e-03 0.0 
4.427253847921e-03 2.843357097787e-03 0.0 
0.0 0.0 0.0 
1.169954541209e-04 -7.948918328093e-04 0.0 
-7.948918328093e-04 4.889087380661e-03 0.0 
0.0 0.0 0.0 
2.247458252664e-04 -7.041163145407e-04 0.0 
-7.041163145407e-04 4.623393389000e-03 0.0 
0.0 0.0 0.0 
2.554487126074e-03 -2.382099793717e-03 0.0 
-2.382099793717e-03 -1.791097098407e-03 0.0 
0.0 0.0 0.0 
-3.230408450339e-03 6.772102178579e-04 0.0 
6.772102178579e-04 1.558593388287e-02 0.0 
0.0 0.0 0.0 
3.908927761695e-04 1.513373707961e-04 0.0 
1.513373707961e-04 -5.016117701460e-03 0.0 
0.0 0.0 0.0 
-1.747514732364e-03 7.104634215363e-03 0.0 
7.104634215363e-03 4.390059511612e-03 0.0 
0.0 0.0 0.0 
3.120167490688e-03 -4.955780995479e-03 0.0 
-4.955780995479e-03 -4.100159862843e-03 0.0 
0.0 0.0 0.0 
-1.649462048980e-03 6.778987898423e-03 0.0 
6.778987898423e-03 4.845185132410e-03 0.0 
0.0 0.0 0.0 
5.891375584413e-03 4.598086836510e-03 0.0 
4.598086836510e-03 -1.380698381631e-03 0.0 
0.0 0.0 0.0 
1.900290287000e-03 -2.825519412460e-03 0.0 
-2.825519412460e-03 -1.229978908113e-03 0.0 
0.0 0.0 0.0 
3.791250517316e-03 -2.575780915497e-03 0.0 
-2.575780915497e-03 -3.804419931523e-03 0.0 
0.0 0.0 0.0 
3.234457186310e-03 -5.052645825921e-03 0.0 
-5.052645825921e-03 -5.196342107524e-03 0.0 
0.0 0.0 0.0 
-1.085204327897e-03 3.018860199288e-04 0.0 
3.018860199288e-04 1.714668273704e-02 0.0 
0.0 0.0 0.0 
2.062055191425e-03 -2.824340951028e-03 0.0 
-2.824340951028e-03 -1.996007835963e-03 0.0 
0.0 0.0 0.0 
-1.032714840046e-03 1.103894786060e-03 0.0 
1.103894786060e-03 1.717148995481e-02 0.0 
0.0 0.0 0.0 
-1.537493537491e-03 3.961251918448e-04 0.0 
3.961251918448e-04 1.699053430424e-02 0.0 
0.0 0.0 0.0 
-4.192594971358e-04 5.036151172639e-04 0.0 
5.036151172639e-04 1.740853450764e-02 0.0 
0.0 0.0 0.0 
-2.400247646838e-04 -3.381584427773e-04 0.0 
-3.381584427773e-04 5.888000310838e-03 0.0 
0.0 0.0 0.0 
-2.234218316398e-03 5.073953058954e-05 0.0 
5.073953058954e-05 1.574480256751e-02 0.0 
0.0 0.0 0.0 
1.546532075724e-03 -2.823418091640e-03 0.0 
-2.823418091640e-03 -1.144809903921e-03 0.0 
0.0 0.0 0.0 
-1.495347804578e-03 5.109177847330e-03 0.0 
5.109177847330e-03 6.611276790570e-03 0.0 
0.0 0.0 0.0 
1.481655945687e-03 -2.661051197481e-03 0.0 
-2.661051197481e-03 -5.150649705014e-04 0.0 
0.0 0.0 0.0 
0.0 -7.562294569913e-04 0.0 
-7.562294569913e-04 5.180121082461e-03 0.0 
0.0 0.0 0.0 
-2.281966740939e-03 8.586081842343e-03 0.0 
8.586081842343e-03 3.694957221120e-03 0.0 
0.0 0.0 0.0 
-1.904791317417e-03 7.615122927359e-03 0.0 
7.615122927359e-03 3.969231300948e-03 0.0 
0.0 0.0 0.0 
2.405409250070e-03 2.167897330729e-03 0.0 
2.167897330729e-03 2.636611303626e-03 0.0 
0.0 0.0 0.0 
-2.692252408643e-03 3.574687835025e-04 0.0 
3.574687835025e-04 1.545503171411e-02 0.0 
0.0 0.0 0.0 
-9.341680331487e-04 7.280871383332e-04 0.0 
7.280871383332e-04 1.723029270140e-02 0.0 
0.0 0.0 0.0 
-3.263145661191e-04 5.414900198023e-03 0.0 
5.414900198023e-03 8.462688745312e-03 0.0 
0.0 0.0 0.0 
1.884302580100e-03 3.742388728265e-03 0.0 
3.742388728265e-03 4.396715548402e-03 0.0 
0.0 0.0 0.0 
-1.142950319563e-03 5.287479005556e-03 0.0 
5.287479005556e-03 1.083221314594e-02 0.0 
0.0 0.0 0.0 
-2.278385828827e-03 1.974820034434e-04 0.0 
1.974820034434e-04 1.584061843871e-02 0.0 
0.0 0.0 0.0 
5.120530636933e-04 -2.716497902380e-03 0.0 
-2.716497902380e-03 9.456836368971e-05 0.0 
0.0 0.0 0.0 
7.138101684538e-04 -2.777718756948e-03 0.0 
-2.777718756948e-03 1.017265699543e-04 0.0 
0.0 0.0 0.0 
-1.897584892746e-03 1.841930028438e-04 0.0 
1.841930028438e-04 1.654379434025e-02 0.0 
0.0 0.0 0.0 
2.329837986269e-03 3.985023684004e-03 0.0 
3.985023684004e-03 4.174032579637e-03 0.0 
0.0 0.0 0.0 
-4.118748219066e-03 1.284820366474e-03 0.0 
1.284820366474e-03 1.587238345110e-02 0.0 
0.0 0.0 0.0 
-2.299069618339e-03 5.042359812956e-05 0.0 
5.042359812956e-05 1.541380794209e-02 0.0 
0.0 0.0 0.0 
-2.290440882720e-03 8.795211052772e-05 0.0 
8.795211052772e-05 1.573689601404e-02 0.0 
0.0 0.0 0.0 
-2.399040527103e-03 1.670235732867e-04 0.0 
1.670235732867e-04 1.585529499378e-02 0.0 
0.0 0.0 0.0 
4.263418899202e-03 -3.127677361535e-03 0.0 
-3.127677361535e-03 -5.880004977556e-03 0.0 
0.0 0.0 0.0 
2.696291705260e-04 -2.545372189297e-03 0.0 
-2.545372189297e-03 6.362715771910e-04 0.0 
0.0 0.0 0.0 
-8.894713876236e-04 1.652733640059e-03 0.0 
1.652733640059e-03 1.712348158930e-02 0.0 
0.0 0.0 0.0 
-2.331668567315e-03 2.887511963212e-04 0.0 
2.887511963212e-04 1.621155856035e-02 0.0 
0.0 0.0 0.0 
7.614570094627e-04 3.202323783623e-03 0.0 
3.202323783623e-03 5.538610490210e-03 0.0 
0.0 0.0 0.0 
-9.165846455408e-04 5.574122134541e-03 0.0 
5.574122134541e-03 1.164769590467e-02 0.0 
0.0 0.0 0.0 
-1.244966455213e-03 5.202750822182e-03 0.0 
5.202750822182e-03 9.905501483595e-03 0.0 
0.0 0.0 0.0 
-1.658684468272e-03 2.991746502041e-03 0.0 
2.991746502041e-03 1.633915681183e-02 0.0 
0.0 0.0 0.0 
-1.331074994030e-03 -1.086084714821e-03 0.0 
-1.086084714821e-03 3.249954897507e-03 0.0 
0.0 0.0 0.0 
-1.203935554199e-03 -1.131696494221e-03 0.0 
-1.131696494221e-03 2.967454722178e-03 0.0 
0.0 0.0 0.0 
7.869968756953e-04 -5.438286582952e-04 0.0 
-5.438286582952e-04 3.244039057668e-03 0.0 
0.0 0.0 0.0 
2.574408192020e-03 -3.188442625660e-03 0.0 
-3.188442625660e-03 -5.893797463128e-03 0.0 
0.0 0.0 0.0 
-4.676248217426e-04 -1.475270260290e-04 0.0 
-1.475270260290e-04 2.336371133478e-03 0.0 
0.0 0.0 0.0 
0.0 4.559132051480e-03 0.0 
4.559132051480e-03 7.893066178680e-03 0.0 
0.0 0.0 0.0 
1.195742694827e-03 8.247022031440e-05 0.0 
8.247022031440e-05 3.595729582941e-04 0.0 
0.0 0.0 0.0 
-2.283464681526e-03 5.738938091669e-05 0.0 
5.738938091669e-05 1.541640777695e-02 0.0 
0.0 0.0 0.0 
1.989408642483e-03 1.504416509299e-03 0.0 
1.504416509299e-03 3.197853397124e-03 0.0 
0.0 0.0 0.0 
6.526439791230e-04 -7.394059629372e-04 0.0 
-7.394059629372e-04 2.663696172500e-04 0.0 
0.0 0.0 0.0 
2.144635853187e-03 -3.744689923650e-04 0.0 
-3.744689923650e-04 -5.254347908497e-04 0.0 
0.0 0.0 0.0 
-6.026247146466e-04 2.578455642723e-03 0.0 
2.578455642723e-03 1.677962863586e-02 0.0 
0.0 0.0 0.0 
-2.571303363408e-03 1.100526215309e-04 0.0 
1.100526215309e-04 1.511908649511e-02 0.0 
0.0 0.0 0.0 
-9.653721883853e-04 2.214185543759e-03 0.0 
2.214185543759e-03 1.690205973391e-02 0.0 
0.0 0.0 0.0 
1.403053308854e-03 1.941476455754e-03 0.0 
1.941476455754e-03 3.501003799102e-03 0.0 
0.0 0.0 0.0 
-2.543629113655e-03 8.603920995857e-05 0.0 
8.603920995857e-05 1.510963753503e-02 0.0 
0.0 0.0 0.0 
6.071004303416e-04 7.425783888662e-04 0.0 
7.425783888662e-04 -5.392714374766e-03 0.0 
0.0 0.0 0.0 
-4.539980309384e-04 3.917185277239e-04 0.0 
3.917185277239e-04 1.735585549742e-02 0.0 
0.0 0.0 0.0 
5.677703474873e-04 -3.754634456424e-04 0.0 
-3.754634456424e-04 8.546394982718e-04 0.0 
0.0 0.0 0.0 
-1.006008766796e-03 1.829771972062e-03 0.0 
1.829771972062e-03 1.699474133593e-02 0.0 
0.0 0.0 0.0 
0.0 -7.032008795124e-04 0.0 
-7.032008795124e-04 5.446053002989e-03 0.0 
0.0 0.0 0.0 
-1.109353550440e-03 4.964447595100e-03 0.0 
4.964447595100e-03 1.310245944426e-02 0.0 
0.0 0.0 0.0 
5.330356615882e-03 -3.105319770784e-03 0.0 
-3.105319770784e-03 -6.038769931035e-03 0.0 
0.0 0.0 0.0 
-3.495688921688e-03 1.545865569449e-03 0.0 
1.545865569449e-03 1.554103765801e-02 0.0 
0.0 0.0 0.0 
-1.436680307736e-03 -6.481626650037e-04 0.0 
-6.481626650037e-04 3.373279157858e-03 0.0 
0.0 0.0 0.0 
3.168882733261e-03 4.204484700412e-03 0.0 
4.204484700412e-03 2.859795573947e-03 0.0 
0.0 0.0 0.0 
5.293384313101e-04 3.564735550713e-03 0.0 
3.564735550713e-03 6.349699706113e-03 0.0 
0.0 0.0 0.0 
-1.696484135709e-03 2.426831086035e-04 0.0 
2.426831086035e-04 1.681141864329e-02 0.0 
0.0 0.0 0.0 
6.286687298080e-04 3.137569401351e-03 0.0 
3.137569401351e-03 5.847990182796e-03 0.0 
0.0 0.0 0.0 
3.531281437303e-03 -2.601278650442e-03 0.0 
-2.601278650442e-03 -6.826072663569e-03 0.0 
0.0 0.0 0.0 
-1.534331493691e-05 -8.347668204374e-04 0.0 
-8.347668204374e-04 4.839454699960e-03 0.0 
0.0 0.0 0.0 
4.802113242483e-03 -4.332620769678e-03 0.0 
-4.332620769678e-03 -4.144363609207e-03 0.0 
0.0 0.0 0.0 
9.346279332827e-04 -2.029289588952e-04 0.0 
-2.029289588952e-04 5.592132682191e-04 0.0 
0.0 0.0 0.0 
1.169431871132e-03 1.011802552240e-03 0.0 
1.011802552240e-03 3.759688943387e-03 0.0 
0.0 0.0 0.0 
-1.198098919827e-03 4.131742058501e-03 0.0 
4.131742058501e-03 1.541220232763e-02 0.0 
0.0 0.0 0.0 
-8.192325678361e-04 2.619378457490e-03 0.0 
2.619378457490e-03 1.669465394441e-02 0.0 
0.0 0.0 0.0 
-2.385563288402e-03 1.534435843031e-04 0.0 
1.534435843031e-04 1.542126659492e-02 0.0 
0.0 0.0 0.0 
-3.516063136960e-03 2.762495907351e-03 0.0 
2.762495907351e-03 1.460003243214e-02 0.0 
0.0 0.0 0.0 
1.520568826119e-03 8.180547819373e-03 0.0 
8.180547819373e-03 4.540782404321e-04 0.0 
0.0 0.0 0.0 
-4.976866611366e-04 6.000678961835e-03 0.0 
6.000678961835e-03 1.136079598564e-02 0.0 
0.0 0.0 0.0 
-1.286315816893e-03 -5.966058671155e-04 0.0 
-5.966058671155e-04 3.083376841370e-03 0.0 
0.0 0.0 0.0 
4.568333716005e-03 9.500027943836e-03 0.0 
9.500027943836e-03 -3.876671010844e-03 0.0 
0.0 0.0 0.0 
2.783841340530e-03 3.927715092065e-03 0.0 
3.927715092065e-03 3.095235437278e-03 0.0 
0.0 0.0 0.0 
-2.362849609637e-03 5.195213448795e-05 0.0 
5.195213448795e-05 1.505351001686e-02 0.0 
0.0 0.0 0.0 
-1.097485758202e-03 3.925234537416e-03 0.0 
3.925234537416e-03 1.523285420892e-02 0.0 
0.0 0.0 0.0 
-3.547336877405e-04 2.062105262294e-06 0.0 
2.062105262294e-06 1.745702197534e-02 0.0 
0.0 0.0 0.0 
0.0 1.773668438698e-04 0.0 
1.773668438698e-04 1.745289776482e-02 0.0 
0.0 0.0 0.0 
3.530061714614e-03 9.175710768689e-05 0.0 
9.175710768689e-05 -1.312425625225e-03 0.0 
0.0 0.0 0.0 
2.931097057269e-03 -1.474936844782e-04 0.0 
-1.474936844782e-04 -1.191962552210e-03 0.0 
0.0 0.0 0.0 
-2.292027716984e-03 -3.811795339906e-05 0.0 
-3.811795339906e-05 1.508202525393e-02 0.0 
0.0 0.0 0.0 
-2.344948680337e-03 -5.556951570375e-06 0.0 
-5.556951570375e-06 1.506982421362e-02 0.0 
0.0 0.0 0.0 
0.0 -1.238381208330e-04 0.0 
-1.238381208330e-04 5.960400329850e-03 0.0 
0.0 0.0 0.0 
-2.476762416656e-04 4.317095579453e-07 0.0 
4.317095579453e-07 5.959536910734e-03 0.0 
0.0 0.0 0.0 
2.863856482325e-03 -6.178694418838e-05 0.0 
-6.178694418838e-05 -8.852040848317e-04 0.0 
0.0 0.0 0.0 
6.933237051223e-04 -3.337323025861e-04 0.0 
-3.337323025861e-04 -5.442329089632e-03 0.0 
0.0 0.0 0.0 
-3.160802595668e-04 -6.091438515032e-04 0.0 
-6.091438515032e-04 5.152343732108e-03 0.0 
0.0 0.0 0.0 
1.493696950278e-03 4.766579645209e-03 0.0 
4.766579645209e-03 6.193891991539e-03 0.0 
0.0 0.0 0.0 
5.834603201740e-04 -3.973122596613e-04 0.0 
-3.973122596613e-04 1.018554824675e-03 0.0 
0.0 0.0 0.0 
1.243002997640e-04 -8.276960632592e-04 0.0 
-8.276960632592e-04 4.236378399574e-03 0.0 
0.0 0.0 0.0 
-1.442729153739e-03 -1.333225995928e-04 0.0 
-1.333225995928e-04 4.465735679319e-03 0.0 
0.0 0.0 0.0 
-1.601101611931e-03 -1.486413759745e-04 0.0 
-1.486413759745e-04 4.024568898401e-03 0.0 
0.0 0.0 0.0 
-2.172965176351e-03 2.754206970676e-04 0.0 
2.754206970676e-04 1.635187128094e-02 0.0 
0.0 0.0 0.0 
9.231591643821e-04 -3.656725375654e-03 0.0 
-3.656725375654e-03 -1.054437290490e-03 0.0 
0.0 0.0 0.0 
4.194211618420e-03 4.532498688048e-03 0.0 
4.532498688048e-03 1.409086614101e-03 0.0 
0.0 0.0 0.0 
9.854730602030e-04 -4.934987138880e-04 0.0 
-4.934987138880e-04 6.174540786961e-04 0.0 
0.0 0.0 0.0 
-1.427608587511e-03 -8.418763328752e-04 0.0 
-8.418763328752e-04 3.485991468060e-03 0.0 
0.0 0.0 0.0 
-3.035246506246e-04 5.573696971979e-03 0.0 
5.573696971979e-03 1.103127262013e-02 0.0 
0.0 0.0 0.0 
-1.108099267097e-03 -4.309717035755e-06 0.0 
-4.309717035755e-06 1.719509850448e-02 0.0 
0.0 0.0 0.0 
-1.589710353771e-03 -2.732679748250e-04 0.0 
-2.732679748250e-04 4.090631083209e-03 0.0 
0.0 0.0 0.0 
-2.231223993629e-03 7.426419499629e-05 0.0 
7.426419499629e-05 1.599872620565e-02 0.0 
0.0 0.0 0.0 
1.282586840896e-03 5.384113568007e-03 0.0 
5.384113568007e-03 7.544666750072e-03 0.0 
0.0 0.0 0.0 
-8.042169337732e-04 5.454059731159e-03 0.0 
5.454059731159e-03 1.021883941885e-02 0.0 
0.0 0.0 0.0 
-1.016777634714e-03 5.320142099986e-03 0.0 
5.320142099986e-03 1.004360845135e-02 0.0 
0.0 0.0 0.0 
-2.462290796514e-03 6.855542633327e-05 0.0 
6.855542633327e-05 1.510098783847e-02 0.0 
0.0 0.0 0.0 
4.873723423338e-03 4.226508585931e-03 0.0 
4.226508585931e-03 1.470072757732e-04 0.0 
0.0 0.0 0.0 
-9.906773106110e-04 4.460155772567e-03 0.0 
4.460155772567e-03 1.426422595967e-02 0.0 
0.0 0.0 0.0 
-7.518015210350e-04 -5.004988976917e-04 0.0 
-5.004988976917e-04 2.398424496711e-03 0.0 
0.0 0.0 0.0 
1.657326600661e-03 -3.875743082427e-04 0.0 
-3.875743082427e-04 -1.975137786393e-04 0.0 
0.0 0.0 0.0 
1.358219794410e-03 5.451212915118e-03 0.0 
5.451212915118e-03 7.100002378328e-03 0.0 
0.0 0.0 0.0 
2.855672972075e-03 1.898483091046e-03 0.0 
1.898483091046e-03 1.602774434186e-03 0.0 
0.0 0.0 0.0 
9.950121244242e-04 -3.553711372114e-03 0.0 
-3.553711372114e-03 -1.081329191903e-03 0.0 
0.0 0.0 0.0 
-2.015852052949e-03 1.614202169391e-04 0.0 
1.614202169391e-04 1.656146135883e-02 0.0 
0.0 0.0 0.0 
-1.843749975864e-04 -5.924012262427e-04 0.0 
-5.924012262427e-04 5.391054648646e-03 0.0 
0.0 0.0 0.0 
1.518639975692e-03 4.974358386464e-03 0.0 
4.974358386464e-03 6.018218133970e-03 0.0 
0.0 0.0 0.0 
1.432115201219e-03 5.097219860697e-03 0.0 
5.097219860697e-03 7.003464019027e-03 0.0 
0.0 0.0 0.0 
-1.321690406816e-03 -1.558805416877e-04 0.0 
-1.558805416877e-04 4.647236653674e-03 0.0 
0.0 0.0 0.0 
5.771288833206e-03 6.624996484832e-03 0.0 
6.624996484832e-03 -9.109187571364e-03 0.0 
0.0 0.0 0.0 
-1.403273525900e-03 5.444059974783e-03 0.0 
5.444059974783e-03 5.297201614988e-03 0.0 
0.0 0.0 0.0 
6.309059424086e-04 7.145823620634e-03 0.0 
7.145823620634e-03 2.212083079349e-03 0.0 
0.0 0.0 0.0 
-3.606675737163e-03 1.691645938527e-03 0.0 
1.691645938527e-03 1.572962921420e-02 0.0 
0.0 0.0 0.0 
4.582807175974e-03 4.544501923888e-03 0.0 
4.544501923888e-03 1.097521543973e-04 0.0 
0.0 0.0 0.0 
-1.065959154855e-03 1.371770570478e-03 0.0 
1.371770570478e-03 1.714289330607e-02 0.0 
0.0 0.0 0.0 
7.943269845885e-04 2.359509452036e-03 0.0 
2.359509452036e-03 4.551842316210e-03 0.0 
0.0 0.0 0.0 
-1.198470159584e-04 -2.280465250321e-03 0.0 
-2.280465250321e-03 1.105947594904e-04 0.0 
0.0 0.0 0.0 
5.398597536581e-04 -1.125203662762e-03 0.0 
-1.125203662762e-03 3.234346480467e-04 0.0 
0.0 0.0 0.0 
-1.630851061867e-03 6.908064404085e-03 0.0 
6.908064404085e-03 4.372729652198e-03 0.0 
0.0 0.0 0.0 
-1.877300543824e-03 4.009955560557e-04 0.0 
4.009955560557e-04 1.664916770073e-02 0.0 
0.0 0.0 0.0 
-9.489296984753e-04 -7.646075293011e-04 0.0 
-7.646075293011e-04 2.636432064731e-03 0.0 
0.0 0.0 0.0 
-1.372737533812e-03 3.380807067743e-03 0.0 
3.380807067743e-03 1.602200440625e-02 0.0 
0.0 0.0 0.0 
8.946748728984e-04 -1.401418367373e-04 0.0 
-1.401418367373e-04 8.201283889961e-04 0.0 
0.0 0.0 0.0 
1.555836660768e-03 2.305716623852e-03 0.0 
2.305716623852e-03 3.702085348220e-03 0.0 
0.0 0.0 0.0 
-2.736328435726e-03 5.225126687655e-04 0.0 
5.225126687655e-04 1.583259253971e-02 0.0 
0.0 0.0 0.0 
5.466634144768e-04 3.920721526843e-03 0.0 
3.920721526843e-03 6.517946251553e-03 0.0 
0.0 0.0 0.0 
2.666244480471e-03 4.422655693719e-03 0.0 
4.422655693719e-03 3.991884305841e-03 0.0 
0.0 0.0 0.0 
-3.791769050430e-03 2.223446471289e-03 0.0 
2.223446471289e-03 1.542183026994e-02 0.0 
0.0 0.0 0.0 
1.041172554340e-03 2.174299659202e-04 0.0 
2.174299659202e-04 3.534138062225e-03 0.0 
0.0 0.0 0.0 
-1.075400712006e-03 3.824120072500e-03 0.0 
3.824120072500e-03 1.575423470300e-02 0.0 
0.0 0.0 0.0 
-7.378838278431e-04 3.346465217348e-04 0.0 
3.346465217348e-04 1.736324067145e-02 0.0 
0.0 0.0 0.0 
-1.939324709631e-03 7.736457497744e-03 0.0 
7.736457497744e-03 3.650917602488e-03 0.0 
0.0 0.0 0.0 
-1.313581894475e-03 2.904185202925e-03 0.0 
2.904185202925e-03 1.634529379643e-02 0.0 
0.0 0.0 0.0 
3.800673221204e-04 5.419361269043e-03 0.0 
5.419361269043e-03 8.834763497866e-03 0.0 
0.0 0.0 0.0 
1.898478112851e-03 2.275642077867e-03 0.0 
2.275642077867e-03 3.700003010456e-03 0.0 
0.0 0.0 0.0 
2.242540429644e-03 4.202739165669e-03 0.0 
4.202739165669e-03 4.124925551674e-03 0.0 
0.0 0.0 0.0 
0.0 -6.705805241162e-04 0.0 
-6.705805241162e-04 4.785522406717e-03 0.0 
0.0 0.0 0.0 
-8.757511938380e-04 5.239283246501e-03 0.0 
5.239283246501e-03 1.005400723870e-02 0.0 
0.0 0.0 0.0 
2.403313714933e-03 4.336584970367e-03 0.0 
4.336584970367e-03 -6.702074262004e-03 0.0 
0.0 0.0 0.0 
3.237806565892e-03 1.042827575206e-02 0.0 
1.042827575206e-02 -1.693079363055e-03 0.0 
0.0 0.0 0.0 
-8.603975844768e-04 5.470060064495e-03 0.0 
5.470060064495e-03 1.095950175577e-02 0.0 
0.0 0.0 0.0 
-3.297828034894e-03 1.739829895129e-03 0.0 
1.739829895129e-03 1.579542755712e-02 0.0 
0.0 0.0 0.0 
-5.360845845780e-04 -4.114315517714e-04 0.0 
-4.114315517714e-04 5.444508616848e-03 0.0 
0.0 0.0 0.0 
1.849358095951e-03 4.235023906120e-03 0.0 
4.235023906120e-03 5.160494259936e-03 0.0 
0.0 0.0 0.0 
1.190831288786e-04 -7.331764377053e-04 0.0 
-7.331764377053e-04 4.535954934499e-03 0.0 
0.0 0.0 0.0 
-1.653210334298e-03 5.147810514128e-04 0.0 
5.147810514128e-04 1.690159097264e-02 0.0 
0.0 0.0 0.0 
5.272015331641e-04 3.634571539745e-03 0.0 
3.634571539745e-03 6.097108335963e-03 0.0 
0.0 0.0 0.0 
9.817246070976e-04 -2.272517414657e-04 0.0 
-2.272517414657e-04 2.972160635811e-03 0.0 
0.0 0.0 0.0 
1.181631033790e-03 -2.269858269153e-05 0.0 
-2.269858269153e-05 2.953175450579e-03 0.0 
0.0 0.0 0.0 
-1.092676263835e-03 -5.359294130062e-04 0.0 
-5.359294130062e-04 2.885888785054e-03 0.0 
0.0 0.0 0.0 
2.554136820154e-05 -8.331147921541e-04 0.0 
-8.331147921541e-04 5.107856255788e-03 0.0 
0.0 0.0 0.0 
-3.005779233437e-03 6.261058488351e-04 0.0 
6.261058488351e-04 1.540606959542e-02 0.0 
0.0 0.0 0.0 
-1.090843227544e-03 7.183959464726e-04 0.0 
7.183959464726e-04 1.723207871722e-02 0.0 
0.0 0.0 0.0 
2.476862257090e-04 -1.269987768608e-03 0.0 
-1.269987768608e-03 6.080536890358e-04 0.0 
0.0 0.0 0.0 
-1.363993171553e-03 3.214925785706e-04 0.0 
3.214925785706e-04 1.714941013923e-02 0.0 
0.0 0.0 0.0 
-2.047582301659e-03 2.814065422988e-04 0.0 
2.814065422988e-04 1.657414980268e-02 0.0 
0.0 0.0 0.0 
2.026000056575e-03 1.005492300122e-04 0.0 
1.005492300122e-04 -1.770016196890e-04 0.0 
0.0 0.0 0.0 
4.919901945540e-03 -3.553283604014e-03 0.0 
-3.553283604014e-03 -6.490859648636e-03 0.0 
0.0 0.0 0.0 
-5.230177835600e-04 5.422834899301e-03 0.0 
5.422834899301e-03 9.410916918864e-03 0.0 
0.0 0.0 0.0 
-6.099535511527e-04 1.982512264231e-03 0.0 
1.982512264231e-03 1.699559901112e-02 0.0 
0.0 0.0 0.0 
-9.836961276301e-04 3.471927845767e-04 0.0 
3.471927845767e-04 1.726221862584e-02 0.0 
0.0 0.0 0.0 
1.184823224418e-03 3.557367526787e-03 0.0 
3.557367526787e-03 5.540970983779e-03 0.0 
0.0 0.0 0.0 
-2.291248493254e-03 3.063026057608e-04 0.0 
3.063026057608e-04 1.603520019458e-02 0.0 
0.0 0.0 0.0 
1.559258204398e-03 -3.334810468403e-04 0.0 
-3.334810468403e-04 -2.999100698027e-04 0.0 
0.0 0.0 0.0 
3.954001471220e-03 3.370589243947e-03 0.0 
3.370589243947e-03 -7.256203046222e-03 0.0 
0.0 0.0 0.0 
1.007779029940e-03 -5.085586290376e-04 0.0 
-5.085586290376e-04 -5.781280864448e-05 0.0 
0.0 0.0 0.0 
3.281536298052e-04 -1.408593623658e-03 0.0 
-1.408593623658e-03 6.502513122824e-04 0.0 
0.0 0.0 0.0 
5.105247405306e-04 1.398034208621e-02 0.0 
1.398034208621e-02 -2.679476247805e-03 0.0 
0.0 0.0 0.0 
-1.475780840797e-03 -8.521660818903e-04 0.0 
-8.521660818903e-04 3.567439811490e-03 0.0 
0.0 0.0 0.0 
-5.033382719801e-04 -4.070879676512e-04 0.0 
-4.070879676512e-04 5.444412574873e-03 0.0 
0.0 0.0 0.0 
-9.297702861848e-04 5.011835190317e-03 0.0 
5.011835190317e-03 1.310827552166e-02 0.0 
0.0 0.0 0.0 
-3.743623113406e-03 2.965281390023e-03 0.0 
2.965281390023e-03 1.496777043938e-02 0.0 
0.0 0.0 0.0 
-1.173189529248e-03 -1.127302870325e-03 0.0 
-1.127302870325e-03 2.887913480367e-03 0.0 
0.0 0.0 0.0 
6.609944794151e-04 -6.897303588310e-04 0.0 
-6.897303588310e-04 3.297626788399e-03 0.0 
0.0 0.0 0.0 
1.980056626938e-03 1.012220230005e-03 0.0 
1.012220230005e-03 2.763159307736e-03 0.0 
0.0 0.0 0.0 
9.862641206648e-04 4.215601116910e-03 0.0 
4.215601116910e-03 6.690477032769e-03 0.0 
0.0 0.0 0.0 
7.950741912319e-04 5.322333869492e-03 0.0 
5.322333869492e-03 7.850056616283e-03 0.0 
0.0 0.0 0.0 
-2.701975420240e-04 5.574824971707e-03 0.0 
5.574824971707e-03 9.600020339014e-03 0.0 
0.0 0.0 0.0 
1.925678613262e-04 -1.074300388555e-03 0.0 
-1.074300388555e-03 6.040311251982e-04 0.0 
0.0 0.0 0.0 
3.291162413055e-03 -2.412163408326e-03 0.0 
-2.412163408326e-03 -6.263842050559e-03 0.0 
0.0 0.0 0.0 
-4.082905088616e-04 -6.480304708897e-04 0.0 
-6.480304708897e-04 5.167307184299e-03 0.0 
0.0 0.0 0.0 
1.589112775954e-03 -8.631503658795e-05 0.0 
-8.631503658795e-05 -3.286262924451e-05 0.0 
0.0 0.0 0.0 
1.627017510296e-03 -8.644711508432e-05 0.0 
-8.644711508432e-05 3.808348293388e-05 0.0 
0.0 0.0 0.0 
8.691948903470e-04 1.242854059587e-02 0.0 
1.242854059587e-02 -2.327506476629e-03 0.0 
0.0 0.0 0.0 
9.405038019572e-04 -5.109688962052e-04 0.0 
-5.109688962052e-04 2.733381691120e-04 0.0 
0.0 0.0 0.0 
5.427223169243e-04 3.582456246510e-05 0.0 
3.582456246510e-05 3.512774543611e-03 0.0 
0.0 0.0 0.0 
2.686339600277e-04 5.817984273109e-03 0.0 
5.817984273109e-03 1.003534635531e-02 0.0 
0.0 0.0 0.0 
-9.143472401762e-04 1.353434923921e-03 0.0 
1.353434923921e-03 1.714171082306e-02 0.0 
0.0 0.0 0.0 
4.565977561364e-04 4.213510789873e-03 0.0 
4.213510789873e-03 6.971697142161e-03 0.0 
0.0 0.0 0.0 
2.099494965333e-03 1.016730256632e-03 0.0 
1.016730256632e-03 2.240253122484e-03 0.0 
0.0 0.0 0.0 
-2.201710356302e-03 3.298978767932e-04 0.0 
3.298978767932e-04 1.621508433033e-02 0.0 
0.0 0.0 0.0 
0.0 2.725267548603e-03 0.0 
2.725267548603e-03 1.666070113866e-02 0.0 
0.0 0.0 0.0 
3.211714329363e-03 -4.332047528488e-03 0.0 
-4.332047528488e-03 -4.143879187854e-03 0.0 
0.0 0.0 0.0 
-2.441886516869e-03 1.011472136436e-04 0.0 
1.011472136436e-04 1.503277135825e-02 0.0 
0.0 0.0 0.0 
4.374257451722e-05 -3.622489997013e-03 0.0 
-3.622489997013e-03 -4.173062529130e-04 0.0 
0.0 0.0 0.0 
1.559946881079e-03 -2.954870653103e-04 0.0 
-2.954870653103e-04 -3.116094374108e-04 0.0 
0.0 0.0 0.0 
-1.300149229536e-04 -7.414570758595e-04 0.0 
-7.414570758595e-04 5.500660659408e-03 0.0 
0.0 0.0 0.0 
-4.246560982552e-03 2.007887194011e-03 0.0 
2.007887194011e-03 1.513559316032e-02 0.0 
0.0 0.0 0.0 
1.340336630604e-03 -2.051675383440e-04 0.0 
-2.051675383440e-04 3.737873685317e-04 0.0 
0.0 0.0 0.0 
-1.524610867541e-03 -6.111887972241e-04 0.0 
-6.111887972241e-04 3.642501226659e-03 0.0 
0.0 0.0 0.0 
2.838715745639e-04 6.087736326315e-03 0.0 
6.087736326315e-03 1.038953111738e-02 0.0 
0.0 0.0 0.0 
-1.312218782798e-03 1.878144937245e-03 0.0 
1.878144937245e-03 1.698710148148e-02 0.0 
0.0 0.0 0.0 
-6.363352254554e-04 4.156012179863e-03 0.0 
4.156012179863e-03 1.517667999106e-02 0.0 
0.0 0.0 0.0 
-9.291276485500e-04 -2.351501120343e-04 0.0 
-2.351501120343e-04 2.774153736959e-03 0.0 
0.0 0.0 0.0 
3.525350653760e-03 4.975662337021e-04 0.0 
4.975662337021e-04 -8.080926323664e-03 0.0 
0.0 0.0 0.0 
2.174198727625e-04 -8.044207700608e-04 0.0 
-8.044207700608e-04 4.338614775895e-03 0.0 
0.0 0.0 0.0 
-3.914909929297e-04 2.657581060510e-04 0.0 
2.657581060510e-04 1.744064071766e-02 0.0 
0.0 0.0 0.0 
-2.666391632948e-04 -1.977047050269e-04 0.0 
-1.977047050269e-04 5.942049111477e-03 0.0 
0.0 0.0 0.0 
-2.280315692453e-03 2.807575442463e-05 0.0 
2.807575442463e-05 1.535629465854e-02 0.0 
0.0 0.0 0.0 
1.352374025726e-03 1.189204459084e-03 0.0 
1.189204459084e-03 3.067534061626e-03 0.0 
0.0 0.0 0.0 
7.610767183488e-04 -1.437088804702e-04 0.0 
-1.437088804702e-04 6.789863231504e-04 0.0 
0.0 0.0 0.0 
-1.134895106353e-03 3.321066521992e-03 0.0 
3.321066521992e-03 1.601679269113e-02 0.0 
0.0 0.0 0.0 
1.441824834767e-03 -3.132967926061e-04 0.0 
-3.132967926061e-04 -2.686798517111e-04 0.0 
0.0 0.0 0.0 
6.243805522943e-04 7.413716385241e-04 0.0 
7.413716385241e-04 3.665177590156e-03 0.0 
0.0 0.0 0.0 
-1.027391676554e-03 4.539763094475e-03 0.0 
4.539763094475e-03 1.481159536623e-02 0.0 
0.0 0.0 0.0 
3.589855809318e-03 2.546053560185e-03 0.0 
2.546053560185e-03 -7.874349892796e-03 0.0 
0.0 0.0 0.0 
1.700664146751e-03 4.924370255710e-03 0.0 
4.924370255710e-03 6.030366977111e-03 0.0 
0.0 0.0 0.0 
-1.836787851141e-03 3.263590771108e-04 0.0 
3.263590771108e-04 1.678550001554e-02 0.0 
0.0 0.0 0.0 
-4.826174795730e-04 1.459901066598e-03 0.0 
1.459901066598e-03 1.718333802118e-02 0.0 
0.0 0.0 0.0 
0.0 3.222514628937e-03 0.0 
3.222514628937e-03 6.138855491874e-03 0.0 
0.0 0.0 0.0 
-2.016819505070e-03 4.674795267247e-05 0.0 
4.674795267247e-05 1.639241391054e-02 0.0 
0.0 0.0 0.0 
1.815040598609e-04 5.881755363012e-03 0.0 
5.881755363012e-03 1.073227431018e-02 0.0 
0.0 0.0 0.0 
-1.394148491434e-03 4.050470174445e-03 0.0 
4.050470174445e-03 1.519823087412e-02 0.0 
0.0 0.0 0.0 
-1.851535620056e-03 2.261677205086e-04 0.0 
2.261677205086e-04 1.657951251297e-02 0.0 
0.0 0.0 0.0 
2.445558842750e-04 5.765557823579e-03 0.0 
5.765557823579e-03 1.016998560520e-02 0.0 
0.0 0.0 0.0 
-1.314797654634e-03 -5.818059037846e-04 0.0 
-5.818059037846e-04 3.153506932219e-03 0.0 
0.0 0.0 0.0 
-2.366503758100e-03 2.505937101255e-05 0.0 
2.505937101255e-05 1.507383664996e-02 0.0 
0.0 0.0 0.0 
1.099396053766e-03 4.289415475027e-03 0.0 
4.289415475027e-03 6.366437527636e-03 0.0 
0.0 0.0 0.0 
-4.873809989019e-04 1.995348637967e-04 0.0 
1.995348637967e-04 1.736810376598e-02 0.0 
0.0 0.0 0.0 
2.883422831900e-03 -9.542646355002e-06 0.0 
-9.542646355002e-06 -1.151635875264e-03 0.0 
0.0 0.0 0.0 
-2.311770132863e-03 2.892523641317e-05 0.0 
2.892523641317e-05 1.509062184468e-02 0.0 
0.0 0.0 0.0 
-3.326564597019e-04 -1.427023827000e-04 0.0 
-1.427023827000e-04 5.811738668745e-03 0.0 
0.0 0.0 0.0 
2.281643536817e-04 -6.376640050856e-04 0.0 
-6.376640050856e-04 1.139842048951e-03 0.0 
0.0 0.0 0.0 
2.000535095311e-03 1.886249864591e-03 0.0 
1.886249864591e-03 3.418337080905e-03 0.0 
0.0 0.0 0.0 
-1.389225362619e-03 4.638382368836e-03 0.0 
4.638382368836e-03 1.420242984316e-02 0.0 
0.0 0.0 0.0 
-8.910785209175e-04 1.310247476561e-03 0.0 
1.310247476561e-03 1.720156717613e-02 0.0 
0.0 0.0 0.0 
5.820141150832e-04 -3.703570650853e-04 0.0 
-3.703570650853e-04 8.983146810098e-04 0.0 
0.0 0.0 0.0 
5.281416427543e-03 1.047996133492e-02 0.0 
1.047996133492e-02 -5.962896837225e-03 0.0 
0.0 0.0 0.0 
-1.570415732125e-03 -6.838282222553e-05 0.0 
-6.838282222553e-05 4.166559978587e-03 0.0 
0.0 0.0 0.0 
-1.443672917776e-03 2.861605033907e-04 0.0 
2.861605033907e-04 1.699952228916e-02 0.0 
0.0 0.0 0.0 
-4.206948161014e-03 -2.236795918377e-04 0.0 
-2.236795918377e-04 -2.570141649982e-03 0.0 
0.0 0.0 0.0 
-6.086890035455e-04 3.491281341158e-03 0.0 
3.491281341158e-03 1.599040689793e-02 0.0 
0.0 0.0 0.0 
-2.003355413696e-03 1.541293738586e-04 0.0 
1.541293738586e-04 1.630599639371e-02 0.0 
0.0 0.0 0.0 
6.665192982209e-04 -3.440695315558e-03 0.0 
-3.440695315558e-03 -1.028258666012e-03 0.0 
0.0 0.0 0.0 
-2.179007057039e-03 2.035124628096e-04 0.0 
2.035124628096e-04 1.609622333001e-02 0.0 
0.0 0.0 0.0 
8.623492629090e-04 4.541514106462e-03 0.0 
4.541514106462e-03 7.236630568953e-03 0.0 
0.0 0.0 0.0 
-1.548914363923e-03 -1.183157974856e-04 0.0 
-1.183157974856e-04 4.258235741815e-03 0.0 
0.0 0.0 0.0 
-1.772146699664e-03 1.430776308482e-02 0.0 
1.430776308482e-02 2.380505947882e-03 0.0 
0.0 0.0 0.0 
-1.232227844300e-03 -7.506119499395e-04 0.0 
-7.506119499395e-04 2.952861102754e-03 0.0 
0.0 0.0 0.0 
-1.474396296169e-03 -8.141901713672e-04 0.0 
-8.141901713672e-04 3.825104769121e-03 0.0 
0.0 0.0 0.0 
-1.523144950883e-03 -4.856032128325e-05 0.0 
-4.856032128325e-05 4.376392763826e-03 0.0 
0.0 0.0 0.0 
1.252988815698e-03 3.610430922202e-03 0.0 
3.610430922202e-03 5.483315727523e-03 0.0 
0.0 0.0 0.0 
-1.568675554759e-03 -3.920708709688e-04 0.0 
-3.920708709688e-04 3.815351240003e-03 0.0 
0.0 0.0 0.0 
-1.541031513283e-03 -5.288718937965e-04 0.0 
-5.288718937965e-04 4.024912216923e-03 0.0 
0.0 0.0 0.0 
9.882415688200e-04 -5.845603792051e-04 0.0 
-5.845603792051e-04 1.558960225347e-04 0.0 
0.0 0.0 0.0 
2.137508092019e-04 -7.853159162185e-04 0.0 
-7.853159162185e-04 4.244618458566e-03 0.0 
0.0 0.0 0.0 
1.294847386938e-03 5.611797244624e-03 0.0 
5.611797244624e-03 7.117146061740e-03 0.0 
0.0 0.0 0.0 
4.452429773502e-03 8.718510435311e-03 0.0 
8.718510435311e-03 -6.768008837705e-03 0.0 
0.0 0.0 0.0 
-4.058655434894e-04 2.023791814766e-04 0.0 
2.023791814766e-04 1.736535601348e-02 0.0 
0.0 0.0 0.0 
-2.871953931939e-04 -1.315183130698e-04 0.0 
-1.315183130698e-04 5.807412087213e-03 0.0 
0.0 0.0 0.0 
-2.307856793393e-03 -5.559780067572e-06 0.0 
-5.559780067572e-06 1.537567036868e-02 0.0 
0.0 0.0 0.0 
-2.091024657293e-03 1.301294092392e-04 0.0 
1.301294092392e-04 1.630075887223e-02 0.0 
0.0 0.0 0.0 
-1.560685461293e-03 -6.059079477604e-04 0.0 
-6.059079477604e-04 3.839178880722e-03 0.0 
0.0 0.0 0.0 
-1.537314010529e-03 -5.961474006968e-04 0.0 
-5.961474006968e-04 3.722549504463e-03 0.0 
0.0 0.0 0.0 
-1.576370312610e-03 -3.996930865580e-04 0.0 
-3.996930865580e-04 3.940528130650e-03 0.0 
0.0 0.0 0.0 
2.113127422156e-03 2.009618290209e-03 0.0 
2.009618290209e-03 2.820935829700e-03 0.0 
0.0 0.0 0.0 
3.364408685440e-04 -3.037779728834e-03 0.0 
-3.037779728834e-03 2.866939937345e-04 0.0 
0.0 0.0 0.0 
1.170358298812e-03 5.641961272152e-03 0.0 
5.641961272152e-03 8.122229677911e-03 0.0 
0.0 0.0 0.0 
-2.221850528334e-03 9.070040468880e-05 0.0 
9.070040468880e-05 1.571876353718e-02 0.0 
0.0 0.0 0.0 
-1.177182303296e-03 3.355664848464e-03 0.0 
3.355664848464e-03 1.616794598712e-02 0.0 
0.0 0.0 0.0 
1.989068048528e-03 1.790002811173e-03 0.0 
1.790002811173e-03 2.794081523873e-03 0.0 
0.0 0.0 0.0 
-2.303154797990e-03 2.185348331053e-04 0.0 
2.185348331053e-04 1.609611323337e-02 0.0 
0.0 0.0 0.0 
-4.321591033523e-04 5.541145559491e-03 0.0 
5.541145559491e-03 1.039635740642e-02 0.0 
0.0 0.0 0.0 
1.167782159158e-03 3.654278403404e-03 0.0 
3.654278403404e-03 5.470436664011e-03 0.0 
0.0 0.0 0.0 
1.019729267396e-03 3.956202349819e-03 0.0 
3.956202349819e-03 6.288621153705e-03 0.0 
0.0 0.0 0.0 
2.691876774966e-03 1.311466327481e-02 0.0 
1.311466327481e-02 -7.245557249644e-03 0.0 
0.0 0.0 0.0 
-4.917571542826e-04 5.541225254218e-03 0.0 
5.541225254218e-03 1.039653191324e-02 0.0 
0.0 0.0 0.0 
1.781809226626e-04 6.135846902732e-03 0.0 
6.135846902732e-03 9.532498294886e-03 0.0 
0.0 0.0 0.0 
1.465417100536e-03 -4.364003887683e-04 0.0 
-4.364003887683e-04 3.932372103987e-05 0.0 
0.0 0.0 0.0 
-1.524318619251e-03 -6.044327634464e-04 0.0 
-6.044327634464e-04 3.620762156120e-03 0.0 
0.0 0.0 0.0 
2.974712280537e-03 8.776205617937e-03 0.0 
8.776205617937e-03 -4.467345096394e-03 0.0 
0.0 0.0 0.0 
-6.544220881999e-04 5.910578735944e-03 0.0 
5.910578735944e-03 1.084295382162e-02 0.0 
0.0 0.0 0.0 

TENSORS element_materi_strain_plasti float
5.842803525763e-05 7.151668145086e-03 0.0 
7.151668145086e-03 1.539289903764e-03 0.0 
0.0 0.0 -6.847362595807e-04 
1.006843591732e-04 6.160018542162e-03 0.0 
6.160018542162e-03 1.299151651642e-03 0.0 
0.0 0.0 -5.999297189210e-04 
-1.399419419615e-03 2.869344170324e-03 0.0 
2.869344170324e-03 7.127002349296e-03 0.0 
0.0 0.0 -1.278236581085e-03 
-1.499770292198e-03 1.938127459123e-04 0.0 
1.938127459123e-04 8.462485561252e-03 0.0 
0.0 0.0 -1.255598393855e-03 
-1.590286579790e-03 5.866412250785e-04 0.0 
5.866412250785e-04 5.570411940462e-03 0.0 
0.0 0.0 -7.961861350945e-04 
4.556201015602e-03 9.608420316776e-03 0.0 
9.608420316776e-03 -4.321950400738e-03 0.0 
0.0 0.0 -1.003931206560e-04 
-1.532722360608e-03 5.037005669365e-04 0.0 
5.037005669365e-04 5.548158926813e-03 0.0 
0.0 0.0 -8.011023898636e-04 
3.788057896933e-04 6.898926384022e-03 0.0 
6.898926384022e-03 1.098408670336e-03 0.0 
0.0 0.0 -6.330919114413e-04 
-1.605315258057e-03 4.380832637376e-06 0.0 
4.380832637376e-06 5.621376957900e-03 0.0 
0.0 0.0 -7.977904104816e-04 
-1.475813289088e-03 8.034655794974e-04 0.0 
8.034655794974e-04 8.366055234102e-03 0.0 
0.0 0.0 -1.253060141438e-03 
-1.723349006480e-03 -4.463465104632e-04 0.0 
-4.463465104632e-04 5.097851564140e-03 0.0 
0.0 0.0 -1.066978692879e-03 
1.840015494924e-04 7.155714309377e-03 0.0 
7.155714309377e-03 1.066938178862e-03 0.0 
0.0 0.0 -5.361170264378e-04 
-1.727294747470e-03 -3.711696677191e-04 0.0 
-3.711696677191e-04 6.945132129710e-03 0.0 
0.0 0.0 -1.259187713256e-03 
-1.707478703098e-03 1.059006860170e-03 0.0 
1.059006860170e-03 5.791719022601e-03 0.0 
0.0 0.0 -8.526168115438e-04 
-1.560262196776e-03 -9.393570101401e-04 0.0 
-9.393570101401e-04 6.928774089182e-03 0.0 
0.0 0.0 -1.289538875031e-03 
-1.440818830272e-03 6.754770737443e-04 0.0 
6.754770737443e-04 8.548838696717e-03 0.0 
0.0 0.0 -1.285984941237e-03 
-1.662616207287e-03 5.344607310422e-04 0.0 
5.344607310422e-04 5.529033418926e-03 0.0 
0.0 0.0 -7.740676797406e-04 
4.164796626287e-03 3.581324783508e-03 0.0 
3.581324783508e-03 -4.164796626287e-03 0.0 
0.0 0.0 0.0 
-2.505390269515e-04 -2.249051551643e-04 0.0 
-2.249051551643e-04 1.537707245828e-03 0.0 
0.0 0.0 -2.776016825098e-04 
-5.498585393581e-04 -2.166839192677e-04 0.0 
-2.166839192677e-04 1.738279106343e-03 0.0 
0.0 0.0 -4.484512109716e-04 
-1.512957112042e-03 4.043623184242e-04 0.0 
4.043623184242e-04 8.437324312554e-03 0.0 
0.0 0.0 -1.250388265701e-03 
-2.442028980131e-04 5.901337436505e-03 0.0 
5.901337436505e-03 2.042508218975e-03 0.0 
0.0 0.0 -7.707022804121e-04 
-3.226301965927e-04 6.164080508211e-03 0.0 
6.164080508211e-03 2.255495261790e-03 0.0 
0.0 0.0 -8.283707422273e-04 
-4.392711161920e-04 -9.745966439416e-04 0.0 
-9.745966439416e-04 3.836297522503e-03 0.0 
0.0 0.0 -1.210372970477e-03 
-1.729903628601e-03 1.506745383258e-03 0.0 
1.506745383258e-03 5.975665893657e-03 0.0 
0.0 0.0 -9.130988374533e-04 
-1.810671457854e-03 -7.476421640110e-04 0.0 
-7.476421640110e-04 5.330964071115e-03 0.0 
0.0 0.0 -1.080045423496e-03 
-2.157570589533e-03 1.649770828444e-03 0.0 
1.649770828444e-03 5.378507635475e-03 0.0 
0.0 0.0 -7.148082707961e-04 
-6.062568820205e-04 3.390184328103e-03 0.0 
3.390184328103e-03 5.217228318451e-03 0.0 
0.0 0.0 -1.266047838742e-03 
-1.821356794347e-03 1.188786638151e-03 0.0 
1.188786638151e-03 6.013421513739e-03 0.0 
0.0 0.0 -9.113908267906e-04 
-6.554257296263e-04 -8.444129216472e-04 0.0 
-8.444129216472e-04 4.294151155513e-03 0.0 
0.0 0.0 -1.237914324842e-03 
3.276607680477e-03 -5.774991901279e-03 0.0 
-5.774991901279e-03 -2.272447652727e-03 0.0 
0.0 0.0 -4.303542976074e-04 
4.215082478161e-04 -9.388671339657e-04 0.0 
-9.388671339657e-04 3.167907272057e-04 0.0 
0.0 0.0 -1.251791940020e-04 
-1.524187206040e-03 3.047553797097e-03 0.0 
3.047553797097e-03 7.492448074924e-03 0.0 
0.0 0.0 -1.261301343383e-03 
-2.126259398598e-03 -4.008249318176e-04 0.0 
-4.008249318176e-04 6.245433906960e-03 0.0 
0.0 0.0 -1.090200430068e-03 
-1.168924377092e-03 -2.135391167217e-03 0.0 
-2.135391167217e-03 5.528728836968e-03 0.0 
0.0 0.0 -1.254989870190e-03 
-1.506183274607e-03 -1.403999252581e-03 0.0 
-1.403999252581e-03 6.695784423920e-03 0.0 
0.0 0.0 -1.314886350686e-03 
-1.405965625827e-03 -2.094418066157e-03 0.0 
-2.094418066157e-03 6.677666447639e-03 0.0 
0.0 0.0 -1.314653105918e-03 
-6.328504155879e-04 1.260189016710e-03 0.0 
1.260189016710e-03 4.185986138576e-03 0.0 
0.0 0.0 -1.264739017786e-03 
-1.486815579568e-03 -1.990720886798e-04 0.0 
-1.990720886798e-04 5.107008468447e-03 0.0 
0.0 0.0 -7.380763454961e-04 
-1.448070308282e-03 4.493602178438e-04 0.0 
4.493602178438e-04 5.173305882684e-03 0.0 
0.0 0.0 -7.371174501546e-04 
-7.826793867365e-04 5.858404691732e-03 0.0 
5.858404691732e-03 3.113318468986e-03 0.0 
0.0 0.0 -8.774464902234e-04 
-1.113239206738e-03 -1.655283581889e-03 0.0 
-1.655283581889e-03 5.115282801902e-03 0.0 
0.0 0.0 -1.280756488215e-03 
6.928449594012e-04 9.941190321427e-03 0.0 
9.941190321427e-03 4.905039227511e-04 0.0 
0.0 0.0 -5.071495209224e-04 
-1.969848153855e-03 1.672849625508e-03 0.0 
1.672849625508e-03 5.000213380588e-03 0.0 
0.0 0.0 -7.557105610435e-04 
-1.547330050851e-03 3.671214089611e-05 0.0 
3.671214089611e-05 8.340609894927e-03 0.0 
0.0 0.0 -1.212858513926e-03 
7.041075553364e-04 1.012656580196e-02 0.0 
1.012656580196e-02 5.216385621426e-04 0.0 
0.0 0.0 -5.253197646338e-04 
3.192952312266e-03 -5.807065476583e-03 0.0 
-5.807065476583e-03 -2.698637660706e-03 0.0 
0.0 0.0 -2.118491363831e-04 
-1.445646034229e-03 2.633500934319e-04 0.0 
2.633500934319e-04 8.137788974429e-03 0.0 
0.0 0.0 -1.234743356787e-03 
1.276091871789e-03 -4.908474628909e-03 0.0 
-4.908474628909e-03 -1.100983505676e-03 0.0 
0.0 0.0 -7.504644261978e-05 
-1.740092141895e-03 6.147961927965e-04 0.0 
6.147961927965e-04 5.664008038323e-03 0.0 
0.0 0.0 -8.229436299569e-04 
-4.997869525982e-04 6.049019134238e-03 0.0 
6.049019134238e-03 2.680693562572e-03 0.0 
0.0 0.0 -9.296584868968e-04 
-8.623973456416e-04 -2.162048895284e-04 0.0 
-2.162048895284e-04 2.432076766193e-03 0.0 
0.0 0.0 -4.150917825895e-04 
4.387945945590e-03 -5.037121440451e-03 0.0 
-5.037121440451e-03 -3.036167172519e-03 0.0 
0.0 0.0 -5.793337598876e-04 
-5.804470220903e-04 5.521338886067e-03 0.0 
5.521338886067e-03 2.746512458630e-03 0.0 
0.0 0.0 -8.656335400463e-04 
-1.445100174427e-03 2.379194139466e-03 0.0 
2.379194139466e-03 7.706829156199e-03 0.0 
0.0 0.0 -1.282189168212e-03 
-9.586804568965e-04 -6.913799780171e-04 0.0 
-6.913799780171e-04 2.989840683449e-03 0.0 
0.0 0.0 -7.128710764410e-04 
-6.997308059935e-04 -2.320910788817e-04 0.0 
-2.320910788817e-04 2.233925226019e-03 0.0 
0.0 0.0 -5.951090654820e-04 
-2.130460140960e-03 -2.340494849444e-04 0.0 
-2.340494849444e-04 6.282260078053e-03 0.0 
0.0 0.0 -1.087734043504e-03 
2.487059488916e-04 -7.402170720428e-04 0.0 
-7.402170720428e-04 1.053852884913e-03 0.0 
0.0 0.0 -3.122055485762e-04 
-1.457512378927e-03 3.071898754378e-04 0.0 
3.071898754378e-04 8.560769857503e-03 0.0 
0.0 0.0 -1.285320035817e-03 
1.113908618720e-03 -2.026574781297e-03 0.0 
-2.026574781297e-03 -1.113908618720e-03 0.0 
0.0 0.0 0.0 
-2.485292686035e-04 2.849153855450e-03 0.0 
2.849153855450e-03 3.913682213008e-03 0.0 
0.0 0.0 -1.210824713543e-03 
5.312381510841e-04 3.405555496225e-03 0.0 
3.405555496225e-03 1.048017655487e-03 0.0 
0.0 0.0 -6.768239171020e-04 
4.367749422137e-03 -5.370298577211e-03 0.0 
-5.370298577211e-03 -2.697425661758e-03 0.0 
0.0 0.0 -7.158530401625e-04 
-1.671429738175e-03 -1.210022446990e-03 0.0 
-1.210022446990e-03 6.777156017206e-03 0.0 
0.0 0.0 -1.257478522087e-03 
-4.036130611309e-04 5.649969125630e-03 0.0 
5.649969125630e-03 2.407248289988e-03 0.0 
0.0 0.0 -8.587008123673e-04 
1.969367961082e-03 -7.999580844892e-04 0.0 
-7.999580844892e-04 -1.969367961082e-03 0.0 
0.0 0.0 0.0 
-1.493925828084e-03 3.040545355870e-03 0.0 
3.040545355870e-03 7.302395090943e-03 0.0 
0.0 0.0 -1.261660853087e-03 
4.867824217369e-04 -2.505859056628e-03 0.0 
-2.505859056628e-03 8.835287678333e-04 0.0 
0.0 0.0 -5.872762241015e-04 
-8.662883400674e-04 3.644961736826e-03 0.0 
3.644961736826e-03 5.844643349920e-03 0.0 
0.0 0.0 -1.282376455277e-03 
-1.831786578585e-03 -1.075910520083e-03 0.0 
-1.075910520083e-03 5.407233681497e-03 0.0 
0.0 0.0 -1.080053202689e-03 
-1.338499280800e-03 1.682976327997e-03 0.0 
1.682976327997e-03 8.399936015446e-03 0.0 
0.0 0.0 -1.338499280800e-03 
-5.611156584584e-04 3.202995564687e-03 0.0 
3.202995564687e-03 4.540690467410e-03 0.0 
0.0 0.0 -1.232909111256e-03 
1.433784453303e-03 -9.093882019497e-05 0.0 
-9.093882019497e-05 -5.456392549777e-05 0.0 
0.0 0.0 -2.878745769087e-04 
-9.147252279940e-04 -5.669281210358e-04 0.0 
-5.669281210358e-04 2.973437083954e-03 0.0 
0.0 0.0 -8.116687730804e-04 
-1.536993954654e-03 1.126957410002e-03 0.0 
1.126957410002e-03 8.303326713538e-03 0.0 
0.0 0.0 -1.262626981217e-03 
-1.574019976009e-03 2.576738749078e-03 0.0 
2.576738749078e-03 7.875617774672e-03 0.0 
0.0 0.0 -1.265352048664e-03 
1.117447935897e-03 1.334351606944e-02 0.0 
1.334351606944e-02 3.762307237175e-05 0.0 
0.0 0.0 -4.950304321150e-04 
-3.200456338227e-04 -3.352696368382e-04 0.0 
-3.352696368382e-04 1.110105412521e-03 0.0 
0.0 0.0 -3.374836250442e-04 
8.585205775663e-04 1.175437087129e-02 0.0 
1.175437087129e-02 3.384925605548e-04 0.0 
0.0 0.0 -5.130056306233e-04 
4.804782057485e-04 -2.508358039830e-03 0.0 
-2.508358039830e-03 8.916054330170e-04 0.0 
0.0 0.0 -5.880358451852e-04 
-1.625607394925e-03 4.831506481737e-04 0.0 
4.831506481737e-04 5.291976980867e-03 0.0 
0.0 0.0 -7.918363975426e-04 
-1.433193873073e-04 6.459374638176e-03 0.0 
6.459374638176e-03 1.886071269933e-03 0.0 
0.0 0.0 -7.468936639825e-04 
-1.820744524886e-04 6.326343900453e-03 0.0 
6.326343900453e-03 1.665876171012e-03 0.0 
0.0 0.0 -6.359150222241e-04 
-1.678000531135e-03 1.594922248822e-04 0.0 
1.594922248822e-04 5.821879659601e-03 0.0 
0.0 0.0 -8.336771054075e-04 
-1.596383286677e-03 5.670740920774e-04 0.0 
5.670740920774e-04 5.789976808295e-03 0.0 
0.0 0.0 -8.358076868167e-04 
-1.951624680642e-03 -7.308270384445e-04 0.0 
-7.308270384445e-04 5.657668243585e-03 0.0 
0.0 0.0 -1.080533843704e-03 
-2.196082702137e-03 8.354918695911e-05 0.0 
8.354918695911e-05 6.184278536814e-03 0.0 
0.0 0.0 -1.059807920279e-03 
-1.525646772161e-03 2.625569910847e-03 0.0 
2.625569910847e-03 6.112973773832e-03 0.0 
0.0 0.0 -1.085941371602e-03 
-1.648645582224e-03 1.246285648401e-04 0.0 
1.246285648401e-04 5.489793155500e-03 0.0 
0.0 0.0 -7.983229688164e-04 
-1.123057724715e-05 -5.872900984588e-04 0.0 
-5.872900984588e-04 3.960725969021e-04 0.0 
0.0 0.0 -1.649322941379e-04 
-1.757846623502e-03 1.222419041867e-03 0.0 
1.222419041867e-03 5.122536551657e-03 0.0 
0.0 0.0 -7.928983479555e-04 
-1.578530100158e-03 5.920453420347e-05 0.0 
5.920453420347e-05 7.247400490716e-03 0.0 
0.0 0.0 -1.069439317440e-03 
-1.600676841679e-03 3.339381263473e-04 0.0 
3.339381263473e-04 7.321452075562e-03 0.0 
0.0 0.0 -1.046447409317e-03 
-1.502072334268e-03 1.832498170444e-03 0.0 
1.832498170444e-03 8.633609047693e-03 0.0 
0.0 0.0 -1.319970921405e-03 
-9.007094055422e-04 1.223013959388e-03 0.0 
1.223013959388e-03 4.725884480151e-03 0.0 
0.0 0.0 -1.294194962782e-03 
-1.674253522828e-03 4.484898109266e-04 0.0 
4.484898109266e-04 5.280548957068e-03 0.0 
0.0 0.0 -7.889745663688e-04 
-1.078149223135e-03 -1.912876176720e-03 0.0 
-1.912876176720e-03 5.515902141362e-03 0.0 
0.0 0.0 -1.263183913703e-03 
-1.546584036688e-03 -9.624953365827e-05 0.0 
-9.624953365827e-05 6.233353762451e-03 0.0 
0.0 0.0 -9.040008563810e-04 
5.521265167722e-04 4.726946256607e-03 0.0 
4.726946256607e-03 1.207831079389e-03 0.0 
0.0 0.0 -7.542675412120e-04 
-1.587713497171e-03 1.272120189302e-04 0.0 
1.272120189302e-04 5.375209747655e-03 0.0 
0.0 0.0 -7.643292725052e-04 
-1.604005809179e-03 -6.682657737697e-04 0.0 
-6.682657737697e-04 6.948639054056e-03 0.0 
0.0 0.0 -1.287517816355e-03 
2.217852852746e-03 3.301710698738e-03 0.0 
3.301710698738e-03 5.904349893849e-04 0.0 
0.0 0.0 -1.043751955586e-03 
-2.159817551253e-04 2.310379467798e-03 0.0 
2.310379467798e-03 3.968424013648e-03 0.0 
0.0 0.0 -1.209599240962e-03 
2.360621469448e-03 6.883753002002e-03 0.0 
6.883753002002e-03 -8.758392969172e-04 0.0 
0.0 0.0 -6.363352167991e-04 
1.652251446452e-03 -6.433147752685e-03 0.0 
-6.433147752685e-03 -9.857290566514e-04 0.0 
0.0 0.0 -2.856524527717e-04 
-1.904299824368e-03 -6.917450604687e-04 0.0 
-6.917450604687e-04 6.641778035438e-03 0.0 
0.0 0.0 -1.189902873528e-03 
-1.601708388107e-03 3.286250233118e-04 0.0 
3.286250233118e-04 7.722816405099e-03 0.0 
0.0 0.0 -1.108790581071e-03 
1.214389225668e-03 -6.006132875154e-03 0.0 
-6.006132875154e-03 -1.214389225668e-03 0.0 
0.0 0.0 0.0 
-1.434793545909e-03 -1.524718547292e-03 0.0 
-1.524718547292e-03 6.503522325473e-03 0.0 
0.0 0.0 -1.285127980003e-03 
-1.436465131336e-03 2.957908754166e-03 0.0 
2.957908754166e-03 5.615958785865e-03 0.0 
0.0 0.0 -1.051491716222e-03 
2.107685358584e-03 1.966346604052e-04 0.0 
1.966346604052e-04 -5.019158565474e-04 0.0 
0.0 0.0 -2.190510374322e-04 
2.606319645754e-03 4.830624502780e-03 0.0 
4.830624502780e-03 -1.271517294069e-03 0.0 
0.0 0.0 -5.720581507223e-04 
-1.773563568945e-03 3.527351260946e-03 0.0 
3.527351260946e-03 4.741721112310e-03 0.0 
0.0 0.0 -7.914135736088e-04 
-9.815222315618e-04 -1.138374471426e-03 0.0 
-1.138374471426e-03 3.347141370850e-03 0.0 
0.0 0.0 -9.587991763485e-04 
7.576452206273e-04 4.658997428957e-03 0.0 
4.658997428957e-03 6.232171063120e-04 0.0 
0.0 0.0 -5.917981401168e-04 
1.104431286493e-03 5.358750945349e-03 0.0 
5.358750945349e-03 5.561508372699e-04 0.0 
0.0 0.0 -7.116780530414e-04 
-1.321847859094e-03 -1.772500593240e-03 0.0 
-1.772500593240e-03 5.826707907603e-03 0.0 
0.0 0.0 -1.283833066805e-03 
-1.525040410968e-03 2.578190730368e-04 0.0 
2.578190730368e-04 6.156621214154e-03 0.0 
0.0 0.0 -8.766975940251e-04 
1.433508719641e-03 5.432605474269e-03 0.0 
5.432605474269e-03 -4.843392376070e-06 0.0 
0.0 0.0 -6.122851402562e-04 
1.683483209039e-04 -2.096310185990e-03 0.0 
-2.096310185990e-03 1.080312045122e-03 0.0 
0.0 0.0 -5.351401568681e-04 
-1.746303579404e-03 1.473532537081e-03 0.0 
1.473532537081e-03 5.178940412439e-03 0.0 
0.0 0.0 -7.744920945421e-04 
-1.517476482960e-03 1.097936493812e-04 0.0 
1.097936493812e-04 7.545801257606e-03 0.0 
0.0 0.0 -1.129288753466e-03 
1.692558838927e-03 6.113988600936e-03 0.0 
6.113988600936e-03 -1.931288065441e-04 0.0 
0.0 0.0 -6.426128710211e-04 
1.786764525712e-03 1.947815592024e-02 0.0 
1.947815592024e-02 -9.993430450105e-04 0.0 
0.0 0.0 -3.374663488723e-04 
-1.315168723206e-03 5.251231342741e-03 0.0 
5.251231342741e-03 3.947565123683e-03 0.0 
0.0 0.0 -8.233021825037e-04 
-1.094193203907e-03 -1.066143348073e-03 0.0 
-1.066143348073e-03 3.532112380788e-03 0.0 
0.0 0.0 -8.981558865158e-04 
-1.090929622348e-03 5.059904876975e-03 0.0 
5.059904876975e-03 3.554656478934e-03 0.0 
0.0 0.0 -8.113141688877e-04 
-1.442225258082e-03 1.605824937381e-03 0.0 
1.605824937381e-03 8.359073722744e-03 0.0 
0.0 0.0 -1.290671971449e-03 
3.458173656963e-03 1.740250942550e-02 0.0 
1.740250942550e-02 -2.259653599874e-03 0.0 
0.0 0.0 -5.136514530381e-04 
-1.801548102835e-03 -7.282038970032e-04 0.0 
-7.282038970032e-04 5.288878918754e-03 0.0 
0.0 0.0 -1.060402641786e-03 
-1.486141105577e-03 5.585996661944e-04 0.0 
5.585996661944e-04 8.452622925900e-03 0.0 
0.0 0.0 -1.256690274141e-03 
-3.198454740031e-04 3.015481670953e-03 0.0 
3.015481670953e-03 2.568097898378e-03 0.0 
0.0 0.0 -9.635367533037e-04 
-1.053326091350e-03 5.597473336312e-03 0.0 
5.597473336312e-03 3.531772219105e-03 0.0 
0.0 0.0 -8.457158960689e-04 
-1.158957625686e-03 -1.674495574427e-03 0.0 
-1.674495574427e-03 5.533719249484e-03 0.0 
0.0 0.0 -1.254964138299e-03 
-1.718729624033e-03 -7.379037217155e-04 0.0 
-7.379037217155e-04 6.953664324138e-03 0.0 
0.0 0.0 -1.261070974318e-03 
-1.967620110819e-03 -6.331696876036e-04 0.0 
-6.331696876036e-04 5.669647458342e-03 0.0 
0.0 0.0 -1.061066130071e-03 
-6.061740370739e-04 3.049979969874e-03 0.0 
3.049979969874e-03 3.089302566165e-03 0.0 
0.0 0.0 -9.441827087005e-04 
-7.851765230129e-04 -1.170373150230e-03 0.0 
-1.170373150230e-03 4.916146318737e-03 0.0 
0.0 0.0 -1.270330610962e-03 
-5.043578746139e-04 2.747041251980e-03 0.0 
2.747041251980e-03 2.809200300211e-03 0.0 
0.0 0.0 -9.719555150774e-04 
-1.411040385942e-03 9.892815171228e-04 0.0 
9.892815171228e-04 8.317615504874e-03 0.0 
0.0 0.0 -1.283174495648e-03 
-5.931903211819e-04 4.258840417327e-03 0.0 
4.258840417327e-03 5.910366969638e-03 0.0 
0.0 0.0 -1.267437373369e-03 
-1.784736589840e-03 7.085096522011e-04 0.0 
7.085096522011e-04 5.733057783552e-03 0.0 
0.0 0.0 -8.543707170918e-04 
-1.586571893561e-03 5.026260166066e-04 0.0 
5.026260166066e-04 6.801986481939e-03 0.0 
0.0 0.0 -9.817831382938e-04 
-4.886430024753e-04 3.008522801408e-03 0.0 
3.008522801408e-03 2.831895476050e-03 0.0 
0.0 0.0 -9.645491798066e-04 
-8.099426894202e-04 5.285287451517e-03 0.0 
5.285287451517e-03 3.111871372730e-03 0.0 
0.0 0.0 -8.398345356346e-04 
-3.881715109885e-04 3.210536691478e-03 0.0 
3.210536691478e-03 2.805390491743e-03 0.0 
0.0 0.0 -1.009766620266e-03 
2.196402109839e-03 5.561950766177e-03 0.0 
5.561950766177e-03 -6.235572533365e-04 0.0 
0.0 0.0 -6.740763670724e-04 
-1.542505755946e-03 1.216931962656e-05 0.0 
1.216931962656e-05 5.518918282905e-03 0.0 
0.0 0.0 -7.693993191400e-04 
3.120179746782e-03 5.230587237664e-03 0.0 
5.230587237664e-03 -1.551017683007e-03 0.0 
0.0 0.0 -6.724980273319e-04 
1.173568897977e-04 -7.192653952147e-04 0.0 
-7.192653952147e-04 2.932653952173e-04 0.0 
0.0 0.0 -1.759809792922e-04 
-1.513364044801e-03 4.633102658989e-05 0.0 
4.633102658989e-05 5.921965621168e-03 0.0 
0.0 0.0 -8.171079392438e-04 
-1.681308434218e-04 -1.807457570301e-04 0.0 
-1.807457570301e-04 1.021179020752e-03 0.0 
0.0 0.0 -2.802839825148e-04 
-1.571314190591e-03 4.768440378874e-03 0.0 
4.768440378874e-03 4.371851632562e-03 0.0 
0.0 0.0 -8.053258742841e-04 
-1.010207907769e-03 -1.246817911064e-03 0.0 
-1.246817911064e-03 4.735746548095e-03 0.0 
0.0 0.0 -1.284796145094e-03 
1.994240707368e-03 6.208782108937e-03 0.0 
6.208782108937e-03 -6.633835391633e-04 0.0 
0.0 0.0 -5.703673578019e-04 
-2.093082199977e-03 -2.605836003403e-04 0.0 
-2.605836003403e-04 5.949086090445e-03 0.0 
0.0 0.0 -1.062413871926e-03 
5.012438903463e-04 9.769145371443e-03 0.0 
9.769145371443e-03 7.673303992357e-04 0.0 
0.0 0.0 -5.436746955352e-04 
2.038398038736e-03 3.905196813808e-03 0.0 
3.905196813808e-03 5.939929324235e-04 0.0 
0.0 0.0 -1.044905595188e-03 
-1.509926535812e-03 9.806530388370e-05 0.0 
9.806530388370e-05 5.368363465218e-03 0.0 
0.0 0.0 -7.899655494116e-04 
3.442778915924e-03 5.161690052175e-03 0.0 
5.161690052175e-03 -2.031716522245e-03 0.0 
0.0 0.0 -6.047410258623e-04 
-2.057240178145e-03 -7.296543458156e-04 0.0 
-7.296543458156e-04 6.353419805029e-03 0.0 
0.0 0.0 -1.120963572432e-03 
7.939550842651e-05 -1.701837783695e-03 0.0 
-1.701837783695e-03 9.541700722220e-04 0.0 
0.0 0.0 -4.429566774208e-04 
-1.888286542342e-03 -4.078361496187e-04 0.0 
-4.078361496187e-04 6.637817436663e-03 0.0 
0.0 0.0 -1.189111243166e-03 
-1.407485654430e-03 2.291313923690e-03 0.0 
2.291313923690e-03 4.423118315057e-03 0.0 
0.0 0.0 -8.496092609019e-04 
-1.655956820216e-03 -1.430755689950e-03 0.0 
-1.430755689950e-03 6.808595235967e-03 0.0 
0.0 0.0 -1.265987209193e-03 
-1.479137566383e-03 6.125436213776e-05 0.0 
6.125436213776e-05 5.372221524286e-03 0.0 
0.0 0.0 -7.842605076999e-04 
2.424305496457e-03 5.389978175819e-03 0.0 
5.389978175819e-03 -1.152073340420e-03 0.0 
0.0 0.0 -5.452423525874e-04 
-1.621842489612e-03 3.809681226422e-03 0.0 
3.809681226422e-03 4.403240416696e-03 0.0 
0.0 0.0 -7.801847948469e-04 
-1.782923268792e-03 -4.744584193542e-04 0.0 
-4.744584193542e-04 5.239530130494e-03 0.0 
0.0 0.0 -1.068702715777e-03 
4.279380073455e-04 7.644640894058e-03 0.0 
7.644640894058e-03 8.348294473932e-04 0.0 
0.0 0.0 -5.411860520308e-04 
4.139111171810e-03 5.409642140604e-03 0.0 
5.409642140604e-03 -2.503772098277e-03 0.0 
0.0 0.0 -7.008596029424e-04 
-1.624113157274e-03 6.876053139900e-05 0.0 
6.876053139900e-05 7.048361475913e-03 0.0 
0.0 0.0 -1.016465148841e-03 
-1.496185645618e-03 2.597795714976e-04 0.0 
2.597795714976e-04 5.580042956141e-03 0.0 
0.0 0.0 -7.680022369673e-04 
2.560741538867e-03 5.050880984949e-03 0.0 
5.050880984949e-03 -1.282093012748e-03 0.0 
0.0 0.0 -5.479922254795e-04 
-1.371750633036e-03 4.683754481255e-03 0.0 
4.683754481255e-03 3.988059038398e-03 0.0 
0.0 0.0 -7.984459790235e-04 
-9.886487882703e-04 3.541007171175e-03 0.0 
3.541007171175e-03 5.260480107430e-03 0.0 
0.0 0.0 -1.136725521675e-03 
-1.147448492341e-03 -1.324005404889e-03 0.0 
-1.324005404889e-03 3.757906895843e-03 0.0 
0.0 0.0 -9.635001610744e-04 
-1.057040178935e-03 2.860292126594e-03 0.0 
2.860292126594e-03 5.175691718835e-03 0.0 
0.0 0.0 -1.285202198870e-03 
-4.850297195395e-04 4.161216100672e-03 0.0 
4.161216100672e-03 5.636780053339e-03 0.0 
0.0 0.0 -1.265486236287e-03 
6.314274813011e-04 6.133931758582e-03 0.0 
6.133931758582e-03 9.976569039997e-04 0.0 
0.0 0.0 -6.981790222718e-04 
-1.143109251794e-03 -9.968271358534e-04 0.0 
-9.968271358534e-04 3.727905850470e-03 0.0 
0.0 0.0 -9.933498913217e-04 
5.074501694993e-04 -2.606022487646e-04 0.0 
-2.606022487646e-04 2.545933234883e-03 0.0 
0.0 0.0 -1.152822474774e-03 
-5.270373965062e-04 4.356153514179e-03 0.0 
4.356153514179e-03 2.877984301566e-03 0.0 
0.0 0.0 -9.245708556394e-04 
7.383772609737e-04 5.881946636514e-03 0.0 
5.881946636514e-03 4.838507443898e-04 0.0 
0.0 0.0 -5.238120022987e-04 
-1.475392442541e-03 1.965496358724e-03 0.0 
1.965496358724e-03 4.467421796523e-03 0.0 
0.0 0.0 -8.137754052845e-04 
2.320390736676e-03 5.293547217213e-03 0.0 
5.293547217213e-03 -6.417019873101e-04 0.0 
0.0 0.0 -7.194380354427e-04 
-1.431612767918e-03 8.458326217491e-04 0.0 
8.458326217491e-04 8.384155646033e-03 0.0 
0.0 0.0 -1.279059907835e-03 
-1.564281029058e-03 2.665406032541e-03 0.0 
2.665406032541e-03 6.081997352065e-03 0.0 
0.0 0.0 -1.060691896764e-03 
-1.994493389840e-03 -1.486147162618e-04 0.0 
-1.486147162618e-04 6.559276794178e-03 0.0 
0.0 0.0 -1.155968210243e-03 
8.962793077114e-04 1.137111629676e-02 0.0 
1.137111629676e-02 3.112027350019e-04 0.0 
0.0 0.0 -5.174923040200e-04 
5.236083288598e-03 5.491182037549e-03 0.0 
5.491182037549e-03 -3.501613595101e-03 0.0 
0.0 0.0 -7.433441543560e-04 
-1.484568773685e-03 2.868377484862e-03 0.0 
2.868377484862e-03 6.031945958818e-03 0.0 
0.0 0.0 -1.089453766084e-03 
0.0 0.0 0.0 
0.0 0.0 0.0 
0.0 0.0 0.0 
-5.938330588839e-04 3.640420612225e-03 0.0 
3.640420612225e-03 2.900699876284e-03 0.0 
0.0 0.0 -9.117638418509e-04 
9.390160339363e-04 -1.260130330001e-03 0.0 
-1.260130330001e-03 1.758576397178e-03 0.0 
0.0 0.0 -1.080675545910e-03 
7.614101656211e-04 -9.306526935755e-04 0.0 
-9.306526935755e-04 6.714955075901e-04 0.0 
0.0 0.0 -3.004177607877e-04 
-1.466695883915e-03 2.895664536321e-03 0.0 
2.895664536321e-03 7.498365973997e-03 0.0 
0.0 0.0 -1.257517519450e-03 
-1.714163728762e-03 1.976135659385e-03 0.0 
1.976135659385e-03 6.108584287411e-03 0.0 
0.0 0.0 -9.749624431058e-04 
4.925108656531e-04 -3.055158529449e-03 0.0 
-3.055158529449e-03 1.195571453177e-03 0.0 
0.0 0.0 -7.234638509273e-04 
1.279900166237e-03 -4.725830141026e-04 0.0 
-4.725830141026e-04 1.470712253258e-03 0.0 
0.0 0.0 -1.082135573043e-03 
-1.799351909415e-03 1.409259675503e-03 0.0 
1.409259675503e-03 5.578155389814e-03 0.0 
0.0 0.0 -8.259898420369e-04 
-1.801064707900e-03 1.064269352962e-03 0.0 
1.064269352962e-03 5.991738140388e-03 0.0 
0.0 0.0 -8.838609275114e-04 
-6.913788155709e-04 -1.227574140941e-03 0.0 
-1.227574140941e-03 4.246435019945e-03 0.0 
0.0 0.0 -1.237791025003e-03 
1.617016974439e-05 -2.476429670131e-03 0.0 
-2.476429670131e-03 1.553276678470e-03 0.0 
0.0 0.0 -6.726200778060e-04 
-1.931314796257e-04 3.392233640780e-03 0.0 
3.392233640780e-03 2.538226820427e-03 0.0 
0.0 0.0 -1.005040860343e-03 
-1.319730188756e-03 2.601972306617e-03 0.0 
2.601972306617e-03 4.340655659079e-03 0.0 
0.0 0.0 -8.816854262052e-04 
-1.791217628275e-03 1.648610109221e-03 0.0 
1.648610109221e-03 6.470941124492e-03 0.0 
0.0 0.0 -1.008548823165e-03 
-1.624650418518e-03 2.058268446018e-03 0.0 
2.058268446018e-03 4.841940123608e-03 0.0 
0.0 0.0 -8.379792476443e-04 
-1.489577849007e-03 1.897054155513e-03 0.0 
1.897054155513e-03 4.494677002446e-03 0.0 
0.0 0.0 -8.233332215064e-04 
4.008137127232e-03 3.915758249482e-03 0.0 
3.915758249482e-03 -1.929055858579e-03 0.0 
0.0 0.0 -8.910348294228e-04 
-1.234709836901e-03 2.936622841749e-03 0.0 
2.936622841749e-03 5.525011386670e-03 0.0 
0.0 0.0 -1.105110859848e-03 
2.980433233061e-03 4.423728945459e-03 0.0 
4.423728945459e-03 -2.980433233061e-03 0.0 
0.0 0.0 0.0 
5.351738135317e-04 5.681212915753e-03 0.0 
5.681212915753e-03 9.051898986887e-04 0.0 
0.0 0.0 -6.172987338087e-04 
4.027550417081e-04 4.126985716430e-03 0.0 
4.126985716430e-03 1.215580035588e-03 0.0 
0.0 0.0 -6.935721759841e-04 
-4.200121646643e-04 3.335963278249e-03 0.0 
3.335963278249e-03 2.868206010904e-03 0.0 
0.0 0.0 -9.575728814879e-04 
-1.648855317221e-03 2.317084043405e-03 0.0 
2.317084043405e-03 6.523041636329e-03 0.0 
0.0 0.0 -1.095076276885e-03 
6.464365158363e-03 8.205730770835e-03 0.0 
8.205730770835e-03 -5.621058163937e-03 0.0 
0.0 0.0 -3.614172833254e-04 
8.525540954751e-04 -1.807909510209e-03 0.0 
-1.807909510209e-03 1.664869867019e-03 0.0 
0.0 0.0 -1.043355442177e-03 
-1.517251520276e-03 -1.088769506638e-04 0.0 
-1.088769506638e-04 5.367725382565e-03 0.0 
0.0 0.0 -7.763349569542e-04 
4.370762405962e-03 5.465627490880e-03 0.0 
5.465627490880e-03 -2.882630785780e-03 0.0 
0.0 0.0 -6.377706943641e-04 
4.408477917933e-04 -2.363608782577e-03 0.0 
-2.363608782577e-03 1.914601402756e-03 0.0 
0.0 0.0 -1.006238978475e-03 
6.688501451719e-04 -8.570105726374e-04 0.0 
-8.570105726374e-04 2.508766139633e-04 0.0 
0.0 0.0 -2.227849532966e-04 
-1.684683593515e-03 2.138149817611e-03 0.0 
2.138149817611e-03 6.451465524737e-03 0.0 
0.0 0.0 -1.040010908530e-03 
1.085799585697e-03 -9.338136306232e-04 0.0 
-9.338136306232e-04 4.841625588175e-05 0.0 
0.0 0.0 -1.827119720807e-04 
1.032861128012e-04 -6.271925775052e-04 0.0 
-6.271925775052e-04 6.433353347809e-04 0.0 
0.0 0.0 -2.890002659678e-04 
7.500748454065e-04 1.044319050975e-02 0.0 
1.044319050975e-02 4.418172726440e-04 0.0 
0.0 0.0 -5.108109077359e-04 
5.217682496463e-06 -2.221552624950e-03 0.0 
-2.221552624950e-03 1.410136832977e-03 0.0 
0.0 0.0 -6.065805066316e-04 
-1.756426844714e-03 1.797081824779e-03 0.0 
1.797081824779e-03 6.815040634103e-03 0.0 
0.0 0.0 -1.073797489760e-03 
1.622101319788e-04 -2.264597495009e-03 0.0 
-2.264597495009e-03 1.173181540105e-03 0.0 
0.0 0.0 -5.723107166073e-04 
3.017013286654e-03 1.021126905812e-02 0.0 
1.021126905812e-02 -1.672266633859e-03 0.0 
0.0 0.0 -5.763199940550e-04 
1.605964786137e-03 -3.583242349909e-03 0.0 
-3.583242349909e-03 -7.906667844752e-05 0.0 
0.0 0.0 -6.543849032956e-04 
-3.494454807524e-05 -1.610984925714e-03 0.0 
-1.610984925714e-03 1.099950761190e-03 0.0 
0.0 0.0 -4.564312341920e-04 
9.781324204424e-04 -5.030230378388e-05 0.0 
-5.030230378388e-05 1.892640222886e-03 0.0 
0.0 0.0 -1.117524173959e-03 
-1.429083730494e-03 2.211537082543e-03 0.0 
2.211537082543e-03 4.453302943283e-03 0.0 
0.0 0.0 -8.507820156577e-04 
-1.682802659426e-03 -8.879633472863e-04 0.0 
-8.879633472863e-04 6.796328964063e-03 0.0 
0.0 0.0 -1.256743614961e-03 
2.804446418665e-03 1.071592507365e-03 0.0 
1.071592507365e-03 -2.804446418665e-03 0.0 
0.0 0.0 0.0 
3.385774119954e-03 8.358073009772e-03 0.0 
8.358073009772e-03 -1.965111348216e-03 0.0 
0.0 0.0 -6.088554736019e-04 
4.407561517765e-03 5.031919883335e-03 0.0 
5.031919883335e-03 -2.946503035442e-03 0.0 
0.0 0.0 -6.261679209952e-04 
-2.864190727669e-04 4.266264690405e-03 0.0 
4.266264690405e-03 2.405150564582e-03 0.0 
0.0 0.0 -9.080277822064e-04 
1.353018538210e-03 -1.045908069733e-03 0.0 
-1.045908069733e-03 1.259893539183e-03 0.0 
0.0 0.0 -1.045235091131e-03 
-1.579554839483e-03 -1.394031692893e-03 0.0 
-1.394031692893e-03 6.678028948098e-03 0.0 
0.0 0.0 -1.275930989368e-03 
-1.684299046229e-03 2.211375405385e-03 0.0 
2.211375405385e-03 6.180161065170e-03 0.0 
0.0 0.0 -1.029499106509e-03 
5.802474220579e-03 5.393037256963e-03 0.0 
5.393037256963e-03 -3.939783106058e-03 0.0 
0.0 0.0 -7.982961919374e-04 
7.803995957275e-04 -7.001646673884e-04 0.0 
-7.001646673884e-04 2.041968181988e-03 0.0 
0.0 0.0 -1.116166892424e-03 
-1.922924089839e-03 -2.680134474821e-04 0.0 
-2.680134474821e-04 5.558845052998e-03 0.0 
0.0 0.0 -1.068822925414e-03 
-7.222094777076e-04 3.206300168432e-03 0.0 
3.206300168432e-03 3.349356457826e-03 0.0 
0.0 0.0 -9.235973587808e-04 
-1.677093997722e-03 2.220083154297e-03 0.0 
2.220083154297e-03 6.117933896180e-03 0.0 
0.0 0.0 -1.003200534345e-03 
-7.007090865862e-04 2.458569600867e-03 0.0 
2.458569600867e-03 4.607559412172e-03 0.0 
0.0 0.0 -1.239730878702e-03 
5.257886815169e-03 5.038629404086e-03 0.0 
5.038629404086e-03 -3.557075339557e-03 0.0 
0.0 0.0 -7.289192038335e-04 
2.939517082551e-03 1.001405893940e-02 0.0 
1.001405893940e-02 -1.491539432727e-03 0.0 
0.0 0.0 -6.205618499245e-04 
-1.702788092325e-03 2.198389791733e-03 0.0 
2.198389791733e-03 5.173682012494e-03 0.0 
0.0 0.0 -8.662621843288e-04 
-1.465090691244e-03 1.772844143032e-03 0.0 
1.772844143032e-03 8.679771669805e-03 0.0 
0.0 0.0 -1.323568725688e-03 
-2.196076664333e-04 3.542355712652e-03 0.0 
3.542355712652e-03 2.609169075547e-03 0.0 
0.0 0.0 -9.604425725470e-04 
6.558626153801e-03 4.205373878603e-03 0.0 
4.205373878603e-03 -5.253963090938e-03 0.0 
0.0 0.0 -5.591413126556e-04 
-1.551301896676e-03 9.806982104899e-05 0.0 
9.806982104899e-05 6.010438701821e-03 0.0 
0.0 0.0 -8.293613651800e-04 
5.856186318512e-04 -2.658816906517e-03 0.0 
-2.658816906517e-03 8.548743103244e-04 0.0 
0.0 0.0 -6.173541180753e-04 
-1.598852307231e-03 2.167741205054e-03 0.0 
2.167741205054e-03 4.803959338789e-03 0.0 
0.0 0.0 -8.353017157004e-04 
5.262407313036e-03 6.547651640781e-03 0.0 
6.547651640781e-03 -3.746869802343e-03 0.0 
0.0 0.0 -6.495160760114e-04 
5.592654308141e-03 5.536241574710e-03 0.0 
5.536241574710e-03 -4.498428658569e-03 0.0 
0.0 0.0 -4.689538498166e-04 
4.374432044751e-03 -5.656310154925e-03 0.0 
-5.656310154925e-03 -3.363634891926e-03 0.0 
0.0 0.0 -4.331987797821e-04 
-1.681597496447e-03 2.058302471615e-03 0.0 
2.058302471615e-03 6.767260745606e-03 0.0 
0.0 0.0 -1.075985979751e-03 
-1.563333733845e-03 2.379244648904e-03 0.0 
2.379244648904e-03 4.793451180047e-03 0.0 
0.0 0.0 -8.585603458244e-04 
1.862791049219e-03 4.964792113154e-03 0.0 
4.964792113154e-03 -5.203629425752e-04 0.0 
0.0 0.0 -5.753263314187e-04 
-1.744996038836e-03 1.710273158382e-03 0.0 
1.710273158382e-03 7.117718959599e-03 0.0 
0.0 0.0 -1.109763131677e-03 
-1.606390224900e-03 2.419672085247e-03 0.0 
2.419672085247e-03 6.148327333334e-03 0.0 
0.0 0.0 -1.057773507355e-03 
-9.992751282894e-04 3.042009890222e-03 0.0 
3.042009890222e-03 3.819168416919e-03 0.0 
0.0 0.0 -9.009204134090e-04 
-1.375955048470e-03 -1.683400062222e-03 0.0 
-1.683400062222e-03 6.152421885777e-03 0.0 
0.0 0.0 -1.288412101370e-03 
6.468092655081e-03 3.862645754012e-03 0.0 
3.862645754012e-03 -5.337397953122e-03 0.0 
0.0 0.0 -4.845834436969e-04 
-1.254552424136e-03 2.860314366234e-03 0.0 
2.860314366234e-03 4.275922517579e-03 0.0 
0.0 0.0 -8.847105569873e-04 
2.297620634484e-03 5.016386565403e-03 0.0 
5.016386565403e-03 -5.542771702701e-04 0.0 
0.0 0.0 -7.471471989488e-04 
5.868114994731e-03 4.073225111063e-03 0.0 
4.073225111063e-03 -4.569191204884e-03 0.0 
0.0 0.0 -5.566816242204e-04 
5.864230583537e-03 4.415059550849e-03 0.0 
4.415059550849e-03 -4.494461059571e-03 0.0 
0.0 0.0 -5.870440816995e-04 
-1.756261579278e-03 1.027223545009e-03 0.0 
1.027223545009e-03 5.150592098184e-03 0.0 
0.0 0.0 -7.898058234521e-04 
6.526085524034e-03 4.349193561779e-03 0.0 
4.349193561779e-03 -4.815191281689e-03 0.0 
0.0 0.0 -7.332403895767e-04 
5.469929370494e-03 -3.024293795478e-03 0.0 
-3.024293795478e-03 -3.985948384148e-03 0.0 
0.0 0.0 -6.359918512910e-04 
-1.629595190705e-03 2.449686769187e-03 0.0 
2.449686769187e-03 6.117601231972e-03 0.0 
0.0 0.0 -1.032318248600e-03 
0.0 0.0 0.0 
0.0 0.0 0.0 
0.0 0.0 0.0 
-1.769475386321e-03 1.897454184282e-03 0.0 
1.897454184282e-03 5.196794091963e-03 0.0 
0.0 0.0 -8.386390795737e-04 
5.999960180796e-03 5.083950884585e-03 0.0 
5.083950884585e-03 -4.437238805531e-03 0.0 
0.0 0.0 -6.697377322564e-04 
4.230704703757e-03 9.466549573493e-03 0.0 
9.466549573493e-03 -2.599843224427e-03 0.0 
0.0 0.0 -6.989406339984e-04 
5.596354812068e-03 1.858304708746e-03 0.0 
1.858304708746e-03 -4.115750917800e-03 0.0 
0.0 0.0 -6.345445261146e-04 
-1.595995973144e-03 2.618038279511e-03 0.0 
2.618038279511e-03 5.071323653385e-03 0.0 
0.0 0.0 -8.965110541436e-04 
1.511841627677e-04 -1.773057166612e-03 0.0 
-1.773057166612e-03 8.535234281834e-04 0.0 
0.0 0.0 -3.901044503889e-04 
6.351343424351e-05 3.610805475520e-03 0.0 
3.610805475520e-03 1.792710087646e-03 0.0 
0.0 0.0 -7.955243665241e-04 
5.197477087842e-03 3.552718557894e-03 0.0 
3.552718557894e-03 -4.020245680816e-03 0.0 
0.0 0.0 -5.045277458680e-04 
-1.529633938128e-03 2.472556152499e-03 0.0 
2.472556152499e-03 4.747231259560e-03 0.0 
0.0 0.0 -8.651285257929e-04 
-1.800570073848e-03 1.187623183650e-03 0.0 
1.187623183650e-03 5.684872286068e-03 0.0 
0.0 0.0 -8.301023967811e-04 
4.601971952019e-03 4.159081041971e-03 0.0 
4.159081041971e-03 -4.544436576911e-03 0.0 
0.0 0.0 -2.465801790350e-05 
6.313148094304e-03 -1.626218264876e-03 0.0 
-1.626218264876e-03 -4.708814855300e-03 0.0 
0.0 0.0 -6.875713881444e-04 
4.341534188998e-03 -3.819459867033e-03 0.0 
-3.819459867033e-03 -2.864232399616e-03 0.0 
0.0 0.0 -6.331293383067e-04 
3.278377418655e-04 5.736360749891e-03 0.0 
5.736360749891e-03 1.463875214032e-03 0.0 
0.0 0.0 -7.678769810987e-04 
-1.745645462288e-03 1.969965136157e-03 0.0 
1.969965136157e-03 6.177510406470e-03 0.0 
0.0 0.0 -1.000663671924e-03 
1.820072673304e-04 4.153495167234e-03 0.0 
4.153495167234e-03 1.766592713122e-03 0.0 
0.0 0.0 -8.351142773366e-04 
6.690628574918e-03 4.456912274921e-03 0.0 
4.456912274921e-03 -5.136211785962e-03 0.0 
0.0 0.0 -6.661786238380e-04 
5.469102366313e-03 5.120006800109e-03 0.0 
5.120006800109e-03 -3.935823495615e-03 0.0 
0.0 0.0 -6.571195160133e-04 
4.919077037576e-03 3.355137263244e-03 0.0 
3.355137263244e-03 -4.395051424032e-03 0.0 
0.0 0.0 -2.245824058045e-04 
2.513593800300e-03 4.565067029690e-03 0.0 
4.565067029690e-03 -1.091187533402e-03 0.0 
0.0 0.0 -6.096026858133e-04 
2.732462904000e-03 1.348791587364e-02 0.0 
1.348791587364e-02 -1.392685570104e-03 0.0 
0.0 0.0 -5.741902859552e-04 
-1.475760748405e-03 2.695142501196e-03 0.0 
2.695142501196e-03 8.197923622284e-03 0.0 
0.0 0.0 -1.321446319728e-03 
-1.492107186378e-03 3.030650340964e-03 0.0 
3.030650340964e-03 7.905007360297e-03 0.0 
0.0 0.0 -1.318029376683e-03 
-1.178085073700e-05 3.500120593452e-03 0.0 
3.500120593452e-03 2.258084084144e-03 0.0 
0.0 0.0 -9.627013857460e-04 
5.735811137676e-03 5.787793224799e-03 0.0 
5.787793224799e-03 -4.211559530619e-03 0.0 
0.0 0.0 -6.532506887387e-04 
5.434656992979e-03 1.073012757556e-02 0.0 
1.073012757556e-02 -3.715076452454e-03 0.0 
0.0 0.0 -7.369630887965e-04 
-1.088841516862e-03 3.167027765780e-03 0.0 
3.167027765780e-03 4.070335559596e-03 0.0 
0.0 0.0 -9.333628341408e-04 
5.554338342647e-03 6.442757642686e-03 0.0 
6.442757642686e-03 -3.786706588134e-03 0.0 
0.0 0.0 -7.575564662197e-04 
5.441920395749e-03 -3.082157189198e-03 0.0 
-3.082157189198e-03 -3.856563446587e-03 0.0 
0.0 0.0 -6.794386924979e-04 
-6.843102871119e-04 3.138323977980e-03 0.0 
3.138323977980e-03 3.288670793621e-03 0.0 
0.0 0.0 -9.652881140700e-04 
-1.560571318974e-03 1.068024078019e-03 0.0 
1.068024078019e-03 8.561491499252e-03 0.0 
0.0 0.0 -1.266640259566e-03 
5.376861312710e-03 5.665248474902e-03 0.0 
5.665248474902e-03 -3.846888590302e-03 0.0 
0.0 0.0 -6.557025953181e-04 
3.678543235755e-03 4.541043289384e-03 0.0 
4.541043289384e-03 -1.937666163593e-03 0.0 
0.0 0.0 -7.460901737840e-04 
3.626675081959e-03 1.172307099829e-02 0.0 
1.172307099829e-02 -2.311925383894e-03 0.0 
0.0 0.0 -5.634641563138e-04 
-9.652389989341e-04 -6.720183629338e-04 0.0 
-6.720183629338e-04 5.271242622276e-03 0.0 
0.0 0.0 -1.322863172658e-03 
5.093091996510e-03 7.920465135356e-03 0.0 
7.920465135356e-03 -3.615601259969e-03 0.0 
0.0 0.0 -6.332103156605e-04 
-5.055876985533e-04 3.367364034790e-03 0.0 
3.367364034790e-03 3.063510178626e-03 0.0 
0.0 0.0 -9.919420460789e-04 
4.682306213010e-03 3.053599265789e-03 0.0 
3.053599265789e-03 -4.009758944725e-03 0.0 
0.0 0.0 -2.882345435504e-04 
3.172355947621e-03 -2.857060070499e-04 0.0 
-2.857060070499e-04 -1.702313311216e-03 0.0 
0.0 0.0 -6.300182727452e-04 
5.720591607868e-03 4.850249544803e-03 0.0 
4.850249544803e-03 -4.251424934862e-03 0.0 
0.0 0.0 -6.296428598595e-04 
4.263964861426e-03 -3.361453762371e-03 0.0 
-3.361453762371e-03 -2.545444169791e-03 0.0 
0.0 0.0 -7.365088678433e-04 
-1.351376459572e-03 2.550480813182e-03 0.0 
2.550480813182e-03 4.385207787700e-03 0.0 
0.0 0.0 -8.710486452961e-04 
-9.250708390872e-04 4.038895993206e-03 0.0 
4.038895993206e-03 6.858969008862e-03 0.0 
0.0 0.0 -1.324865334549e-03 
6.288211707979e-03 4.636520763558e-03 0.0 
4.636520763558e-03 -4.713954240914e-03 0.0 
0.0 0.0 -6.746817715991e-04 
5.269547376902e-03 2.838471173743e-03 0.0 
2.838471173743e-03 -3.969934122965e-03 0.0 
0.0 0.0 -5.569771088299e-04 
4.565911914589e-03 1.315690012132e-02 0.0 
1.315690012132e-02 -3.071808932740e-03 0.0 
0.0 0.0 -6.403298493639e-04 
-1.712702943967e-03 1.199021659258e-03 0.0 
1.199021659258e-03 6.429834953111e-03 0.0 
0.0 0.0 -9.576894438039e-04 
1.143825571600e-03 -1.652464122398e-03 0.0 
-1.652464122398e-03 1.337159390442e-03 0.0 
0.0 0.0 -1.008345180213e-03 
2.281010353360e-03 8.671914086659e-03 0.0 
8.671914086659e-03 -8.236949207483e-04 0.0 
0.0 0.0 -6.245637568335e-04 
-1.777734376668e-03 7.086825961679e-04 0.0 
7.086825961679e-04 6.354608604567e-03 0.0 
0.0 0.0 -9.257128893455e-04 
-1.015824913391e-03 3.847975809261e-03 0.0 
3.847975809261e-03 6.404457057983e-03 0.0 
0.0 0.0 -1.322580803729e-03 
6.439228528524e-04 -1.372951950052e-03 0.0 
-1.372951950052e-03 2.206039092720e-03 0.0 
0.0 0.0 -1.075861678316e-03 
-1.151454126823e-03 3.725053110724e-03 0.0 
3.725053110724e-03 7.269959380459e-03 0.0 
0.0 0.0 -1.322091174222e-03 
-1.793445118784e-03 9.356262614995e-04 0.0 
9.356262614995e-04 6.204769543778e-03 0.0 
0.0 0.0 -9.196498359204e-04 
-1.442068331431e-03 2.746821175537e-03 0.0 
2.746821175537e-03 5.682562585269e-03 0.0 
0.0 0.0 -1.048263655743e-03 
1.776556383397e-03 1.003095393183e-02 0.0 
1.003095393183e-02 -4.235690473330e-04 0.0 
0.0 0.0 -5.798517154560e-04 
-1.223045542115e-03 2.387086346015e-03 0.0 
2.387086346015e-03 4.064515837256e-03 0.0 
0.0 0.0 -8.681697709544e-04 
-1.209389184573e-03 2.902758957536e-03 0.0 
2.902758957536e-03 4.217242041572e-03 0.0 
0.0 0.0 -9.102795160361e-04 
-1.488840206319e-03 2.679198250696e-03 0.0 
2.679198250696e-03 4.716368235080e-03 0.0 
0.0 0.0 -8.732807453983e-04 
1.119499660130e-04 3.567291341735e-03 0.0 
3.567291341735e-03 2.082472498151e-03 0.0 
0.0 0.0 -9.404667703562e-04 
-1.171643585876e-03 3.349957403686e-03 0.0 
3.349957403686e-03 6.200161532489e-03 0.0 
0.0 0.0 -1.322334986692e-03 
-1.743738005580e-03 1.571409251216e-03 0.0 
1.571409251216e-03 5.783273679231e-03 0.0 
0.0 0.0 -8.810748613436e-04 
-1.668503733379e-03 1.747174983457e-03 0.0 
1.747174983457e-03 4.858766838357e-03 0.0 
0.0 0.0 -8.123974380148e-04 
6.190707391051e-03 4.468764053867e-03 0.0 
4.468764053867e-03 -4.426995683075e-03 0.0 
0.0 0.0 -7.558764462751e-04 
-2.431074983303e-05 -1.913003925140e-03 0.0 
-1.913003925140e-03 1.267148434552e-03 0.0 
0.0 0.0 -5.326447220222e-04 
-1.299949640474e-03 2.130598366472e-03 0.0 
2.130598366472e-03 4.119904197521e-03 0.0 
0.0 0.0 -8.415228793236e-04 
2.549246269368e-03 6.957329140808e-03 0.0 
6.957329140808e-03 -1.245014349322e-03 0.0 
0.0 0.0 -5.589565371624e-04 
-1.478386704748e-03 4.206789908739e-05 0.0 
4.206789908739e-05 5.616715806328e-03 0.0 
0.0 0.0 -7.696142143080e-04 
2.786407816460e-03 -3.240881630617e-03 0.0 
-3.240881630617e-03 -1.395706869609e-03 0.0 
0.0 0.0 -5.960146915079e-04 
5.992531121890e-03 4.783038228845e-03 0.0 
4.783038228845e-03 -4.167371402185e-03 0.0 
0.0 0.0 -7.822113084450e-04 
-1.642192723937e-03 2.370627921536e-03 0.0 
2.370627921536e-03 6.463774212935e-03 0.0 
0.0 0.0 -1.069052450572e-03 
3.281479358654e-03 8.204281751199e-03 0.0 
8.204281751199e-03 -1.730438417792e-03 0.0 
0.0 0.0 -6.647318317980e-04 
-1.090838761359e-03 2.744646813510e-03 0.0 
2.744646813510e-03 3.916911857046e-03 0.0 
0.0 0.0 -9.030726692333e-04 
4.452828279381e-03 2.500510372261e-03 0.0 
2.500510372261e-03 -3.286607857907e-03 0.0 
0.0 0.0 -4.998087520603e-04 
5.484712090762e-04 -3.075676285272e-03 0.0 
-3.075676285272e-03 1.137788810983e-03 0.0 
0.0 0.0 -7.226828657397e-04 
-1.016387097360e-03 2.517297286892e-03 0.0 
2.517297286892e-03 5.594754578216e-03 0.0 
0.0 0.0 -1.324762665914e-03 
-8.218941687488e-04 3.720424038530e-03 0.0 
3.720424038530e-03 3.320510860372e-03 0.0 
0.0 0.0 -8.881387192877e-04 
6.271554190216e-03 1.332024788240e-04 0.0 
1.332024788240e-04 -4.778047942355e-03 0.0 
0.0 0.0 -6.400741062262e-04 
6.309307785542e-04 -2.673296576986e-03 0.0 
-2.673296576986e-03 8.118285156915e-04 0.0 
0.0 0.0 -6.183254118196e-04 
1.162873083307e-03 8.493364528169e-03 0.0 
8.493364528169e-03 3.088372140632e-04 0.0 
0.0 0.0 -6.307329845874e-04 
1.903008932374e-03 7.919355390637e-03 0.0 
7.919355390637e-03 -6.343659002201e-04 0.0 
0.0 0.0 -5.437041566372e-04 
-1.573343830476e-03 2.521088319541e-03 0.0 
2.521088319541e-03 6.487888532466e-03 0.0 
0.0 0.0 -1.123886314723e-03 
-8.643744592464e-04 3.301393799564e-03 0.0 
3.301393799564e-03 3.642299074364e-03 0.0 
0.0 0.0 -9.055216267950e-04 
-2.193577355651e-04 4.874205938656e-03 0.0 
4.874205938656e-03 2.372377992887e-03 0.0 
0.0 0.0 -9.227229674235e-04 
-9.883417377339e-04 2.554278731018e-03 0.0 
2.554278731018e-03 3.636783780997e-03 0.0 
0.0 0.0 -8.916891917129e-04 
-9.188251607234e-04 7.915048635257e-04 0.0 
7.915048635257e-04 5.164894119245e-03 0.0 
0.0 0.0 -1.320675234999e-03 
-5.234519663279e-04 8.018217957374e-04 0.0 
8.018217957374e-04 4.358356351167e-03 0.0 
0.0 0.0 -1.258064670439e-03 
-1.519847497081e-03 2.784288839478e-03 0.0 
2.784288839478e-03 6.420730520918e-03 0.0 
0.0 0.0 -1.126590436115e-03 
-1.758421539440e-03 1.881967215149e-03 0.0 
1.881967215149e-03 6.509172932200e-03 0.0 
0.0 0.0 -1.037522200811e-03 
7.328240466091e-04 -2.682401726123e-03 0.0 
-2.682401726123e-03 7.115913620792e-04 0.0 
0.0 0.0 -6.190351751521e-04 
2.500467564249e-04 3.429311884115e-03 0.0 
3.429311884115e-03 1.659196132288e-03 0.0 
0.0 0.0 -8.182469523055e-04 
5.985841378719e-03 3.958886928827e-03 0.0 
3.958886928827e-03 -4.243443291342e-03 0.0 
0.0 0.0 -7.467420374474e-04 
6.363685144060e-03 3.481260065710e-03 0.0 
3.481260065710e-03 -4.501335814410e-03 0.0 
0.0 0.0 -7.981497127072e-04 
-5.548455542571e-04 3.454533405249e-03 0.0 
3.454533405249e-03 3.132006875912e-03 0.0 
0.0 0.0 -9.270064166112e-04 
3.620630457545e-03 -4.834235326887e-04 0.0 
-4.834235326887e-04 -2.380046555996e-03 0.0 
0.0 0.0 -5.316788149495e-04 
-4.227815079073e-04 -2.784371059583e-03 0.0 
-2.784371059583e-03 2.659310912429e-03 0.0 
0.0 0.0 -9.585126019377e-04 
-1.599277265462e-03 2.517332469059e-03 0.0 
2.517332469059e-03 6.812542085539e-03 0.0 
0.0 0.0 -1.134236807130e-03 
6.007457244074e-03 -1.997433393936e-03 0.0 
-1.997433393936e-03 -4.507927155871e-03 0.0 
0.0 0.0 -6.426557520871e-04 
7.907027354152e-04 4.240336290068e-03 0.0 
4.240336290068e-03 1.184570252089e-03 0.0 
0.0 0.0 -8.465455660731e-04 
-9.570428297717e-04 3.028568391790e-03 0.0 
3.028568391790e-03 3.758744006407e-03 0.0 
0.0 0.0 -9.331417602438e-04 
8.721924556307e-04 4.397937040302e-03 0.0 
4.397937040302e-03 9.838721900119e-04 0.0 
0.0 0.0 -7.954562767040e-04 
-1.362058439165e-03 3.332632859355e-03 0.0 
3.332632859355e-03 7.655188218316e-03 0.0 
0.0 0.0 -1.320088186226e-03 
-1.483693740833e-03 2.932428243371e-03 0.0 
2.932428243371e-03 8.049345893719e-03 0.0 
0.0 0.0 -1.318462653075e-03 
-1.548932721531e-03 2.525807133433e-03 0.0 
2.525807133433e-03 7.540510939249e-03 0.0 
0.0 0.0 -1.256494544188e-03 
5.199835747165e-04 -2.886590158864e-03 0.0 
-2.886590158864e-03 1.061442334883e-03 0.0 
0.0 0.0 -6.777539612569e-04 
-1.663138327388e-03 1.991577787862e-03 0.0 
1.991577787862e-03 7.067165816428e-03 0.0 
0.0 0.0 -1.112065035246e-03 
2.402274785148e-03 8.827971278069e-03 0.0 
8.827971278069e-03 -1.120326634552e-03 0.0 
0.0 0.0 -5.494063502556e-04 
6.766274200775e-03 3.267492678553e-03 0.0 
3.267492678553e-03 -4.936049631764e-03 0.0 
0.0 0.0 -7.843819581477e-04 
5.106784784418e-03 2.225447389460e-03 0.0 
2.225447389460e-03 -3.973155107351e-03 0.0 
0.0 0.0 -4.858412901716e-04 
-1.517460800709e-04 3.607339597491e-03 0.0 
3.607339597491e-03 2.289614338705e-03 0.0 
0.0 0.0 -9.162292537005e-04 
-1.720195429854e-03 7.985877951349e-04 0.0 
7.985877951349e-04 5.205169340213e-03 0.0 
0.0 0.0 -7.914980036671e-04 
-1.719905413863e-03 1.237364143320e-03 0.0 
1.237364143320e-03 6.165155044144e-03 0.0 
0.0 0.0 -9.214502702889e-04 
-6.210179595173e-04 -4.728660276610e-04 0.0 
-4.728660276610e-04 4.588006840987e-03 0.0 
0.0 0.0 -1.265403586923e-03 
-1.395878555712e-03 3.050861695832e-03 0.0 
3.050861695832e-03 5.954496201824e-03 0.0 
0.0 0.0 -1.117224974728e-03 
-1.665465805844e-03 2.334336493253e-03 0.0 
2.334336493253e-03 5.128095132681e-03 0.0 
0.0 0.0 -8.687609488834e-04 
-1.346991783092e-03 3.039323733030e-03 0.0 
3.039323733030e-03 4.548648496957e-03 0.0 
0.0 0.0 -9.141259787764e-04 
5.313401556028e-03 2.396401497913e-03 0.0 
2.396401497913e-03 -4.214930467545e-03 0.0 
0.0 0.0 -4.707733236356e-04 
1.968831457284e-04 -1.841720632066e-03 0.0 
-1.841720632066e-03 8.576900148433e-04 0.0 
0.0 0.0 -4.519599259593e-04 
3.372592522338e-03 4.832349172068e-03 0.0 
4.832349172068e-03 -2.062327227531e-03 0.0 
0.0 0.0 -5.615422692032e-04 
6.358518716984e-04 4.144761455237e-03 0.0 
4.144761455237e-03 1.468191943939e-03 0.0 
0.0 0.0 -9.017330638447e-04 
3.064942852318e-03 4.942917745562e-03 0.0 
4.942917745562e-03 -1.440984494859e-03 0.0 
0.0 0.0 -6.959821531966e-04 
1.243826602624e-03 1.644057669216e-02 0.0 
1.644057669216e-02 -3.051975158089e-04 0.0 
0.0 0.0 -4.022696086350e-04 
-1.537623298193e-03 1.946789295788e-04 0.0 
1.946789295788e-04 5.729068901156e-03 0.0 
0.0 0.0 -8.462285223656e-04 
1.561759615532e-04 -2.189651726713e-03 0.0 
-2.189651726713e-03 1.146850025796e-03 0.0 
0.0 0.0 -5.584397088639e-04 
4.086838683808e-03 7.117920380452e-03 0.0 
7.117920380452e-03 -2.601783000280e-03 0.0 
0.0 0.0 -6.364524357979e-04 
-1.341153861134e-03 -4.057244270456e-04 0.0 
-4.057244270456e-04 4.982459086358e-03 0.0 
0.0 0.0 -1.341153861134e-03 
3.431055585529e-03 2.794722280368e-03 0.0 
2.794722280368e-03 -1.232408652784e-03 0.0 
0.0 0.0 -9.422772568906e-04 
-1.647307264160e-03 1.862922357847e-03 0.0 
1.862922357847e-03 4.824359254377e-03 0.0 
0.0 0.0 -8.054468608743e-04 
6.379953085232e-04 -1.014365334544e-04 0.0 
-1.014365334544e-04 8.449806509491e-04 0.0 
0.0 0.0 -3.103042898065e-04 
7.971140923123e-05 3.343947047482e-03 0.0 
3.343947047482e-03 1.995422628245e-03 0.0 
0.0 0.0 -8.893431589182e-04 
4.110955477051e-03 5.094149459774e-03 0.0 
5.094149459774e-03 -2.537654424620e-03 0.0 
0.0 0.0 -6.742718796134e-04 
-1.609808059559e-03 2.466698786463e-03 0.0 
2.466698786463e-03 5.115271177997e-03 0.0 
0.0 0.0 -8.940630110299e-04 
-8.996862514311e-04 4.113698713424e-03 0.0 
4.113698713424e-03 6.660406984769e-03 0.0 
0.0 0.0 -1.323832587333e-03 
-1.204260933556e-03 2.429327504665e-03 0.0 
2.429327504665e-03 4.034179858945e-03 0.0 
0.0 0.0 -8.669777983973e-04 
-1.147063666963e-03 3.130382852526e-03 0.0 
3.130382852526e-03 4.139734973133e-03 0.0 
0.0 0.0 -8.917420716958e-04 
-4.014841504774e-04 -2.920877032072e-03 0.0 
-2.920877032072e-03 2.692647303736e-03 0.0 
0.0 0.0 -9.819270656821e-04 
-1.644216929044e-03 2.295172595936e-03 0.0 
2.295172595936e-03 6.800207970354e-03 0.0 
0.0 0.0 -1.105258581891e-03 
2.154052283225e-04 -3.118779152528e-03 0.0 
-3.118779152528e-03 1.628210503259e-03 0.0 
0.0 0.0 -7.901210278208e-04 
-9.372287661481e-04 3.989018149679e-03 0.0 
3.989018149679e-03 6.528149609991e-03 0.0 
0.0 0.0 -1.322174839672e-03 
-1.060054530100e-03 3.496510910804e-03 0.0 
3.496510910804e-03 7.097876875614e-03 0.0 
0.0 0.0 -1.340103718614e-03 
-1.324949618258e-03 2.484251013041e-03 0.0 
2.484251013041e-03 7.990738639463e-03 0.0 
0.0 0.0 -1.341028575724e-03 
-1.167199122128e-03 3.029934952754e-03 0.0 
3.029934952754e-03 7.516581956387e-03 0.0 
0.0 0.0 -1.338044909071e-03 
-1.502118998928e-03 2.871852761975e-03 0.0 
2.871852761975e-03 4.986656915824e-03 0.0 
0.0 0.0 -9.244680137506e-04 
-1.717961893973e-03 2.025609505479e-03 0.0 
2.025609505479e-03 6.849693926195e-03 0.0 
0.0 0.0 -1.103002250422e-03 
-1.441498127645e-03 2.997575274703e-03 0.0 
2.997575274703e-03 6.385826432379e-03 0.0 
0.0 0.0 -1.155914796392e-03 
4.115729810618e-04 3.136393271141e-03 0.0 
3.136393271141e-03 1.287904258782e-03 0.0 
0.0 0.0 -7.283473885043e-04 
1.688484178935e-04 3.071913835885e-03 0.0 
3.071913835885e-03 1.615792566032e-03 0.0 
0.0 0.0 -7.648461359682e-04 
-5.579616973433e-04 -2.537817501247e-03 0.0 
-2.537817501247e-03 2.842838828880e-03 0.0 
0.0 0.0 -9.792330563728e-04 
-1.668326353393e-03 2.237680070997e-03 0.0 
2.237680070997e-03 6.867008378533e-03 0.0 
0.0 0.0 -1.131852245309e-03 
-1.081317866355e-03 3.622315366615e-03 0.0 
3.622315366615e-03 6.278173238033e-03 0.0 
0.0 0.0 -1.322440284024e-03 
-1.629405615007e-03 2.216510426988e-03 0.0 
2.216510426988e-03 7.107180567101e-03 0.0 
0.0 0.0 -1.141180801552e-03 
4.685346648469e-03 3.514899556104e-03 0.0 
3.514899556104e-03 -2.985684666511e-03 0.0 
0.0 0.0 -7.284265636965e-04 
-1.709232452093e-03 1.946096254963e-03 0.0 
1.946096254963e-03 7.158440520652e-03 0.0 
0.0 0.0 -1.138864741757e-03 
1.262206967011e-03 4.705017322226e-03 0.0 
4.705017322226e-03 1.740244234317e-03 0.0 
0.0 0.0 -9.903545940741e-04 
1.004721377554e-03 3.911566606771e-03 0.0 
3.911566606771e-03 7.188664755253e-04 0.0 
0.0 0.0 -7.386805084625e-04 
-2.606782001915e-04 2.968462416215e-03 0.0 
2.968462416215e-03 2.335171987654e-03 0.0 
0.0 0.0 -8.890687660554e-04 
5.346855095319e-03 1.117571577554e-02 0.0 
1.117571577554e-02 -4.001865420677e-03 0.0 
0.0 0.0 -5.764241462753e-04 
-1.445725615323e-03 1.812858751269e-03 0.0 
1.812858751269e-03 8.104070872614e-03 0.0 
0.0 0.0 -1.282213402295e-03 
1.203711203051e-03 4.316476616787e-03 0.0 
4.316476616787e-03 3.179820144150e-04 0.0 
0.0 0.0 -6.521542360566e-04 
-5.297302986485e-04 3.417460186770e-03 0.0 
3.417460186770e-03 4.725425752504e-03 0.0 
0.0 0.0 -1.230767059693e-03 
-5.402829230253e-04 -2.645980312191e-03 0.0 
-2.645980312191e-03 2.860421160958e-03 0.0 
0.0 0.0 -9.943449591140e-04 
1.769669881029e-03 -3.137855469582e-03 0.0 
-3.137855469582e-03 -3.291852005029e-04 0.0 
0.0 0.0 -6.173505773685e-04 
-9.286667060019e-04 -5.578005299265e-04 0.0 
-5.578005299265e-04 4.405534968834e-03 0.0 
0.0 0.0 -1.284312900220e-03 
3.235959620140e-03 6.258083060707e-03 0.0 
6.258083060707e-03 -1.811757805008e-03 0.0 
0.0 0.0 -6.103722064851e-04 
-1.070152968627e-03 3.606910790711e-03 0.0 
3.606910790711e-03 6.908836005007e-03 0.0 
0.0 0.0 -1.341987455608e-03 
-1.479381738464e-03 2.518547494800e-03 0.0 
2.518547494800e-03 7.585721855360e-03 0.0 
0.0 0.0 -1.282654109251e-03 
-6.562251040144e-04 3.476488520305e-03 0.0 
3.476488520305e-03 3.368345711390e-03 0.0 
0.0 0.0 -9.747411499392e-04 
2.825665296399e-05 -9.471346053823e-04 0.0 
-9.471346053823e-04 5.562669983103e-04 0.0 
0.0 0.0 -2.505101362604e-04 
-1.263570068347e-03 3.493925978823e-03 0.0 
3.493925978823e-03 6.674625508678e-03 0.0 
0.0 0.0 -1.340954708392e-03 
-8.893530910468e-04 2.080039302171e-04 0.0 
2.080039302171e-04 4.249386795326e-03 0.0 
0.0 0.0 -1.284661450484e-03 
2.804060049258e-03 -3.311490824281e-03 0.0 
-3.311490824281e-03 -1.127659757205e-03 0.0 
0.0 0.0 -7.184572680229e-04 
4.016134929454e-03 2.309133002353e-03 0.0 
2.309133002353e-03 -2.194749706731e-03 0.0 
0.0 0.0 -7.805936668811e-04 
-1.022563228378e-03 2.126685754851e-03 0.0 
2.126685754851e-03 5.450229037892e-03 0.0 
0.0 0.0 -1.323014926434e-03 
6.412836038840e-04 -4.861108155506e-05 0.0 
-4.861108155506e-05 -1.916945334246e-04 0.0 
0.0 0.0 -1.926810301969e-04 
1.134753238156e-03 4.060831490550e-03 0.0 
4.060831490550e-03 4.710762171776e-04 0.0 
0.0 0.0 -6.882126237144e-04 
-9.611236283513e-04 3.382262119005e-03 0.0 
3.382262119005e-03 3.900518768528e-03 0.0 
0.0 0.0 -9.507003520820e-04 
-3.264045535917e-04 3.528503760233e-03 0.0 
3.528503760233e-03 2.824189618733e-03 0.0 
0.0 0.0 -1.009382277479e-03 
-8.072349097140e-04 3.285348527428e-03 0.0 
3.285348527428e-03 3.572080463846e-03 0.0 
0.0 0.0 -9.583016177293e-04 
4.255925240679e-03 9.731081102831e-03 0.0 
9.731081102831e-03 -2.834215257398e-03 0.0 
0.0 0.0 -6.093042785491e-04 
-1.341360672448e-03 3.349227255109e-03 0.0 
3.349227255109e-03 6.276206882279e-03 0.0 
0.0 0.0 -1.341360672448e-03 
7.220001383147e-03 3.234593011993e-03 0.0 
3.234593011993e-03 -5.454436319841e-03 0.0 
0.0 0.0 -7.566707414170e-04 
3.620911049852e-03 5.156814987942e-04 0.0 
5.156814987942e-04 -3.620911049852e-03 0.0 
0.0 0.0 0.0 
-1.410674428243e-03 -1.887614969753e-03 0.0 
-1.887614969753e-03 6.271959657533e-03 0.0 
0.0 0.0 -1.272354826527e-03 
2.151696854597e-04 -1.026672325479e-03 0.0 
-1.026672325479e-03 5.029484214592e-04 0.0 
0.0 0.0 -3.077649029653e-04 
-7.579795143834e-04 2.669538043242e-03 0.0 
2.669538043242e-03 3.232540244350e-03 0.0 
0.0 0.0 -9.235262116470e-04 
2.841615726440e-03 -4.816672414065e-03 0.0 
-4.816672414065e-03 -1.838916054676e-03 0.0 
0.0 0.0 -4.297284307560e-04 
-1.289231145457e-03 2.085970842819e-03 0.0 
2.085970842819e-03 4.096251684655e-03 0.0 
0.0 0.0 -8.281323822960e-04 
-9.265632325981e-04 2.208084020548e-04 0.0 
2.208084020548e-04 5.136068338207e-03 0.0 
0.0 0.0 -1.321823097425e-03 
-1.341255375116e-03 3.077672806554e-03 0.0 
3.077672806554e-03 5.842647393183e-03 0.0 
0.0 0.0 -1.341255375116e-03 
-1.444220396543e-03 2.772557237900e-03 0.0 
2.772557237900e-03 4.661509496866e-03 0.0 
0.0 0.0 -8.916520742786e-04 
1.692512837566e-03 -4.433505758575e-03 0.0 
-4.433505758575e-03 -3.489667581938e-04 0.0 
0.0 0.0 -5.758054625880e-04 
3.154516633932e-03 1.141708761018e-03 0.0 
1.141708761018e-03 -3.154516633932e-03 0.0 
0.0 0.0 0.0 
1.648082385771e-03 -4.619366389589e-03 0.0 
-4.619366389589e-03 -2.835763412443e-04 0.0 
0.0 0.0 -5.847883047970e-04 
-1.038610003698e-03 -2.337728934242e-03 0.0 
-2.337728934242e-03 4.541183857773e-03 0.0 
0.0 0.0 -1.121833217354e-03 
-1.742165347554e-03 9.878882661806e-04 0.0 
9.878882661806e-04 5.401825771171e-03 0.0 
0.0 0.0 -7.704300227928e-04 
-1.803256776378e-03 1.584392787159e-03 0.0 
1.584392787159e-03 5.170803389825e-03 0.0 
0.0 0.0 -8.109332722942e-04 
-1.342502730507e-03 2.572106331239e-03 0.0 
2.572106331239e-03 5.434857979280e-03 0.0 
0.0 0.0 -1.342502730507e-03 
-1.732554351108e-03 7.529304742537e-04 0.0 
7.529304742537e-04 5.461566678014e-03 0.0 
0.0 0.0 -7.720444664677e-04 
-1.484252812585e-03 2.496905312066e-03 0.0 
2.496905312066e-03 8.327686936920e-03 0.0 
0.0 0.0 -1.322852565091e-03 
1.986321286743e-03 5.355666672835e-03 0.0 
5.355666672835e-03 7.985795321160e-04 0.0 
0.0 0.0 -1.020998643257e-03 
-1.702171015059e-03 1.025221701453e-03 0.0 
1.025221701453e-03 6.037527275999e-03 0.0 
0.0 0.0 -8.907448815977e-04 
1.548961679315e-03 7.281767552916e-03 0.0 
7.281767552916e-03 -2.554257704441e-04 0.0 
0.0 0.0 -5.543725323730e-04 
3.820672055500e-03 3.081947128575e-03 0.0 
3.081947128575e-03 -2.302126162702e-03 0.0 
0.0 0.0 -6.508053826275e-04 
6.501692571853e-03 7.728918330787e-03 0.0 
7.728918330787e-03 -5.017114689072e-03 0.0 
0.0 0.0 -6.362476640488e-04 
-1.340754991027e-03 1.822804665951e-03 0.0 
1.822804665951e-03 5.126572871134e-03 0.0 
0.0 0.0 -1.340754991027e-03 
-1.107365934344e-03 3.304123181314e-03 0.0 
3.304123181314e-03 7.297954726043e-03 0.0 
0.0 0.0 -1.339984467612e-03 
-1.239756109631e-03 2.748767123643e-03 0.0 
2.748767123643e-03 7.773806651313e-03 0.0 
0.0 0.0 -1.340417744004e-03 
1.663950741528e-04 -3.102222571978e-03 0.0 
-3.102222571978e-03 1.696065106834e-03 0.0 
0.0 0.0 -7.981972204229e-04 
-6.783966376360e-04 -2.229795002151e-03 0.0 
-2.229795002151e-03 2.989937542639e-03 0.0 
0.0 0.0 -9.906603878584e-04 
1.489905970348e-03 4.727451506760e-03 0.0 
4.727451506760e-03 4.087953584321e-04 0.0 
0.0 0.0 -8.137291409057e-04 
-1.800452847872e-04 -3.089059520932e-03 0.0 
-3.089059520932e-03 2.334973482046e-03 0.0 
0.0 0.0 -8.981573260837e-04 
-1.339627896631e-03 1.005258068188e-03 0.0 
1.005258068188e-03 4.944567484942e-03 0.0 
0.0 0.0 -1.339627896631e-03 
5.081359882283e-03 7.630417392046e-03 0.0 
7.630417392046e-03 -3.299660135879e-03 0.0 
0.0 0.0 -7.635856056017e-04 
5.495439169989e-03 -2.614619170391e-03 0.0 
-2.614619170391e-03 -3.859627456652e-03 0.0 
0.0 0.0 -7.010621628588e-04 
4.019819069156e-03 -2.787807203002e-03 0.0 
-2.787807203002e-03 -2.433618649205e-03 0.0 
0.0 0.0 -6.798001799788e-04 
-1.695040583491e-03 9.943495357559e-04 0.0 
9.943495357559e-04 6.306677945551e-03 0.0 
0.0 0.0 -9.279583942086e-04 
-1.067283559268e-03 -1.131551148477e-03 0.0 
-1.131551148477e-03 5.382018527302e-03 0.0 
0.0 0.0 -1.323537156312e-03 
5.431096910872e-04 -2.927049959709e-03 0.0 
-2.927049959709e-03 6.584647879273e-04 0.0 
0.0 0.0 -5.149604910062e-04 
-1.340775759057e-03 3.168705887180e-05 0.0 
3.168705887180e-05 4.893000414627e-03 0.0 
0.0 0.0 -1.340775759057e-03 
2.700861596153e-03 -2.942268440588e-03 0.0 
-2.942268440588e-03 -1.123327434189e-03 0.0 
0.0 0.0 -6.760860694135e-04 
-1.158672915112e-03 3.583665806629e-03 0.0 
3.583665806629e-03 6.802096595600e-03 0.0 
0.0 0.0 -1.342877878941e-03 
-1.502505102679e-03 2.723409331035e-03 0.0 
2.723409331035e-03 6.453774250835e-03 0.0 
0.0 0.0 -1.152765850879e-03 
1.423554158454e-03 -1.131004569941e-04 0.0 
-1.131004569941e-04 -1.866407113471e-04 0.0 
0.0 0.0 -2.500702604783e-04 
1.852731639018e-03 4.455251440915e-03 0.0 
4.455251440915e-03 -3.429531576714e-04 0.0 
0.0 0.0 -6.470479205773e-04 
-1.718973478826e-03 1.632227495642e-03 0.0 
1.632227495642e-03 7.402026443868e-03 0.0 
0.0 0.0 -1.146019594970e-03 
-1.341220131281e-03 3.403196875768e-03 0.0 
3.403196875768e-03 6.531514611794e-03 0.0 
0.0 0.0 -1.341220131281e-03 
-1.493257815958e-03 2.709508550359e-03 0.0 
2.709508550359e-03 5.031766487179e-03 0.0 
0.0 0.0 -9.220067723808e-04 
1.764437476731e-03 4.591904001423e-03 0.0 
4.591904001423e-03 1.056858205559e-03 0.0 
0.0 0.0 -1.049000704964e-03 
4.544672360161e-03 1.347166446709e-02 0.0 
1.347166446709e-02 -3.398847836590e-03 0.0 
0.0 0.0 -4.910676529590e-04 
-4.822149847462e-04 -8.933705669709e-06 0.0 
-8.933705669709e-06 3.680115228026e-03 0.0 
0.0 0.0 -1.228682347183e-03 
1.589016691459e-03 -2.728398742501e-03 0.0 
-2.728398742501e-03 -1.477483424757e-04 0.0 
0.0 0.0 -6.176864352786e-04 
2.651295286957e-03 -2.843326135071e-03 0.0 
-2.843326135071e-03 -1.361198969881e-03 0.0 
0.0 0.0 -5.528984216039e-04 
3.815470423998e-04 -4.023124399399e-03 0.0 
-4.023124399399e-03 2.002603819722e-04 0.0 
0.0 0.0 -2.493460390166e-04 
-1.341079611575e-03 3.240452696934e-03 0.0 
3.240452696934e-03 6.054614633037e-03 0.0 
0.0 0.0 -1.341079611575e-03 
5.776769904414e-03 4.919914899522e-03 0.0 
4.919914899522e-03 -4.189757253385e-03 0.0 
0.0 0.0 -6.801482790127e-04 
3.208588426234e-04 -1.555697901575e-03 0.0 
-1.555697901575e-03 2.639402459359e-03 0.0 
0.0 0.0 -1.110501492391e-03 
-1.743720672030e-03 5.076947702062e-04 0.0 
5.076947702062e-04 5.915487175230e-03 0.0 
0.0 0.0 -8.555322119248e-04 
6.419311454372e-04 -2.457777299007e-03 0.0 
-2.457777299007e-03 6.816602911272e-04 0.0 
0.0 0.0 -5.672534728133e-04 
4.141714459317e-03 -3.136078620282e-03 0.0 
-3.136078620282e-03 -2.715286862390e-03 0.0 
0.0 0.0 -6.113261129685e-04 
-1.391571865871e-03 2.947954310513e-03 0.0 
2.947954310513e-03 4.611783904251e-03 0.0 
0.0 0.0 -8.867075537039e-04 
-1.342259935407e-03 2.196586378398e-03 0.0 
2.196586378398e-03 5.267748778168e-03 0.0 
0.0 0.0 -1.342259935407e-03 
-8.685003091139e-04 -2.019621362732e-03 0.0 
-2.019621362732e-03 3.358195832711e-03 0.0 
0.0 0.0 -1.026543027222e-03 
-6.279763244928e-05 -2.831980191268e-03 0.0 
-2.831980191268e-03 2.234263021353e-03 0.0 
0.0 0.0 -9.306280238158e-04 
1.658507890925e-04 3.537632054641e-03 0.0 
3.537632054641e-03 1.972064941293e-03 0.0 
0.0 0.0 -9.162495987365e-04 
2.242569710833e-03 -2.117516813008e-03 0.0 
-2.117516813008e-03 -1.005041777923e-03 0.0 
0.0 0.0 -5.303691141045e-04 
5.420503172631e-03 -2.494856731333e-03 0.0 
-2.494856731333e-03 -3.917306803338e-03 0.0 
0.0 0.0 -6.442270154112e-04 
2.055993336022e-04 -3.019147266732e-03 0.0 
-3.019147266732e-03 1.580796400243e-03 0.0 
0.0 0.0 -7.655981716482e-04 
-1.735594457479e-05 3.684409886977e-03 0.0 
3.684409886977e-03 2.338058889169e-03 0.0 
0.0 0.0 -9.525257740878e-04 
-1.629704530234e-04 3.910747526000e-03 0.0 
3.910747526000e-03 3.473194908025e-03 0.0 
0.0 0.0 -9.982497011217e-04 
2.660739601537e-03 2.500477042242e-03 0.0 
2.500477042242e-03 -6.136210307860e-04 0.0 
0.0 0.0 -8.773365303219e-04 
8.237412580247e-04 3.854878441225e-03 0.0 
3.854878441225e-03 1.037559565144e-03 0.0 
0.0 0.0 -7.977003527865e-04 
-1.068767707281e-04 -3.106568222755e-03 0.0 
-3.106568222755e-03 2.185893574205e-03 0.0 
0.0 0.0 -8.910072014901e-04 
4.002265622022e-03 6.952939640213e-03 0.0 
6.952939640213e-03 -2.311503110106e-03 0.0 
0.0 0.0 -7.246125051071e-04 
-6.590777518814e-04 -2.312052235482e-03 0.0 
-2.312052235482e-03 2.981136073476e-03 0.0 
0.0 0.0 -9.951678521122e-04 
2.360161710039e-03 5.079532469862e-03 0.0 
5.079532469862e-03 6.696300121391e-04 0.0 
0.0 0.0 -1.018204129641e-03 
5.853107423661e-03 2.666474306321e-03 0.0 
2.666474306321e-03 -4.791435618734e-03 0.0 
0.0 0.0 -4.550022021117e-04 
-9.478871216341e-04 -2.661712448175e-04 0.0 
-2.661712448175e-04 5.203816778040e-03 0.0 
0.0 0.0 -1.321929620191e-03 
-1.684709762555e-03 1.865268109453e-03 0.0 
1.865268109453e-03 7.458111656375e-03 0.0 
0.0 0.0 -1.174325249119e-03 
4.942655387039e-04 -2.660349188538e-03 0.0 
-2.660349188538e-03 9.600175774831e-04 0.0 
0.0 0.0 -6.232641926516e-04 
-1.341047338368e-03 5.012584263436e-04 0.0 
5.012584263436e-04 4.843287135669e-03 0.0 
0.0 0.0 -1.341047338368e-03 
-5.199572059754e-04 -1.240456273396e-05 0.0 
-1.240456273396e-05 4.514719369705e-03 0.0 
0.0 0.0 -1.266414110344e-03 
3.538035341673e-03 4.820344345095e-03 0.0 
4.820344345095e-03 -2.203793584252e-03 0.0 
0.0 0.0 -5.718178960378e-04 
3.073160228107e-04 -2.142796274570e-03 0.0 
-2.142796274570e-03 8.896681783000e-04 0.0 
0.0 0.0 -5.129932290474e-04 
-1.050487114865e-03 -1.427509562772e-03 0.0 
-1.427509562772e-03 5.540080609798e-03 0.0 
0.0 0.0 -1.323469717371e-03 
-1.667087300368e-03 2.181750680949e-03 0.0 
2.181750680949e-03 7.186411773731e-03 0.0 
0.0 0.0 -1.167157861819e-03 
1.716323073858e-03 -2.955825605783e-03 0.0 
-2.955825605783e-03 -9.287262183540e-05 0.0 
0.0 0.0 -6.957644794382e-04 
-1.341709311524e-03 -8.333733019742e-04 0.0 
-8.333733019742e-04 5.041051645130e-03 0.0 
0.0 0.0 -1.341709311524e-03 
-1.554347035982e-04 -3.091276428888e-03 0.0 
-3.091276428888e-03 2.271745765848e-03 0.0 
0.0 0.0 -9.069904552498e-04 
-8.856300375338e-05 3.015707065978e-03 0.0 
3.015707065978e-03 2.092630915718e-03 0.0 
0.0 0.0 -8.588862479847e-04 
-1.708652242928e-03 2.038029542744e-03 0.0 
2.038029542744e-03 5.155213329433e-03 0.0 
0.0 0.0 -8.408860858065e-04 
6.567611375547e-03 3.081845386456e-03 0.0 
3.081845386456e-03 -5.369177332873e-03 0.0 
0.0 0.0 -5.136145897175e-04 
4.280369650893e-04 -2.993089053083e-03 0.0 
-2.993089053083e-03 1.242185283195e-03 0.0 
0.0 0.0 -7.158095349792e-04 
2.655991261130e-03 -1.262950292529e-03 0.0 
-1.262950292529e-03 -1.180305861432e-03 0.0 
0.0 0.0 -6.324365998706e-04 
-1.787330646013e-03 1.744437882435e-03 0.0 
1.744437882435e-03 6.165539261386e-03 0.0 
0.0 0.0 -9.721028620036e-04 
-5.830614128886e-04 2.963568587990e-03 0.0 
2.963568587990e-03 3.036456168777e-03 0.0 
0.0 0.0 -9.703272795031e-04 
2.116877736376e-03 2.832235222225e-03 0.0 
2.832235222225e-03 2.882458842279e-04 0.0 
0.0 0.0 -1.030767265973e-03 
-1.583428582628e-03 1.234393199571e-04 0.0 
1.234393199571e-04 6.348909220080e-03 0.0 
0.0 0.0 -8.839498032872e-04 
-1.538973880155e-04 -2.905891545860e-03 0.0 
-2.905891545860e-03 2.151085361499e-03 0.0 
0.0 0.0 -8.559377029216e-04 
3.225761349156e-03 2.043133001798e-03 0.0 
2.043133001798e-03 -1.506689335132e-03 0.0 
0.0 0.0 -7.367451488674e-04 
1.240241290569e-03 -2.615402293113e-03 0.0 
-2.615402293113e-03 9.801779930630e-06 0.0 
0.0 0.0 -5.357327444998e-04 
-1.264139912559e-03 -2.295922563033e-03 0.0 
-2.295922563033e-03 4.258611210865e-03 0.0 
0.0 0.0 -1.003470032316e-03 
2.889589538158e-03 1.575264907384e-04 0.0 
1.575264907384e-04 -9.899202452523e-04 0.0 
0.0 0.0 -1.136052617584e-04 
3.058084046414e-03 6.267857816740e-03 0.0 
6.267857816740e-03 -1.475282579984e-03 0.0 
0.0 0.0 -6.783434856128e-04 
1.686675147585e-03 -2.826451651131e-03 0.0 
-2.826451651131e-03 -3.979102607463e-04 0.0 
0.0 0.0 -5.523278086452e-04 
-6.775751599431e-04 -2.656016194715e-03 0.0 
-2.656016194715e-03 3.173617743200e-03 0.0 
0.0 0.0 -1.041231529553e-03 
2.631373375087e-03 4.677480128266e-03 0.0 
4.677480128266e-03 -1.111482904037e-03 0.0 
0.0 0.0 -6.513816304500e-04 
3.545197186364e-05 -2.683422917804e-03 0.0 
-2.683422917804e-03 2.222563700784e-03 0.0 
0.0 0.0 -9.350600278798e-04 
-1.737561363205e-03 5.251994903431e-04 0.0 
5.251994903431e-04 6.205644374021e-03 0.0 
0.0 0.0 -8.962969588583e-04 
1.356254452431e-03 -2.984093401581e-03 0.0 
-2.984093401581e-03 -2.215529665069e-05 0.0 
0.0 0.0 -5.717567810488e-04 
-1.341827844788e-03 -1.146584425421e-03 0.0 
-1.146584425421e-03 5.213236186647e-03 0.0 
0.0 0.0 -1.341827844788e-03 
-1.032358392854e-03 3.358744228303e-03 0.0 
3.358744228303e-03 3.981695232776e-03 0.0 
0.0 0.0 -8.921909746423e-04 
-9.403772787457e-04 -2.333509821859e-03 0.0 
-2.333509821859e-03 3.602948163807e-03 0.0 
0.0 0.0 -1.032584340947e-03 
-7.230784000767e-04 3.517969959091e-03 0.0 
3.517969959091e-03 3.446928309249e-03 0.0 
0.0 0.0 -9.025917034692e-04 
-6.743760556383e-04 -2.567033021564e-03 0.0 
-2.567033021564e-03 3.158224002336e-03 0.0 
0.0 0.0 -1.064506262870e-03 
3.117828974226e-04 -1.468328871304e-05 0.0 
-1.468328871304e-05 -9.344115101806e-05 0.0 
0.0 0.0 -9.357503417338e-05 
-1.792312889487e-03 1.741412585942e-03 0.0 
1.741412585942e-03 5.511837739733e-03 0.0 
0.0 0.0 -8.733545218784e-04 
-1.159018419121e-03 -6.757248724201e-04 0.0 
-6.757248724201e-04 3.679422689167e-03 0.0 
0.0 0.0 -9.437415894182e-04 
1.869411738932e-03 -2.142171398793e-04 0.0 
-2.142171398793e-04 -6.834804080795e-04 0.0 
0.0 0.0 -2.547480225633e-04 
-1.008983259281e-03 -2.022851433489e-03 0.0 
-2.022851433489e-03 3.664714944016e-03 0.0 
0.0 0.0 -1.031099917346e-03 
-1.552203916554e-04 -2.266492036209e-03 0.0 
-2.266492036209e-03 2.794636645768e-03 0.0 
0.0 0.0 -1.001254648526e-03 
-1.559997350991e-03 7.763984245468e-04 0.0 
7.763984245468e-04 7.736769108545e-03 0.0 
0.0 0.0 -1.146946825052e-03 
3.351534866206e-03 -1.319164759079e-03 0.0 
-1.319164759079e-03 -2.240035959811e-03 0.0 
0.0 0.0 -4.763566741695e-04 
2.964991947889e-03 -1.218711859695e-03 0.0 
-1.218711859695e-03 -1.695218548252e-03 0.0 
0.0 0.0 -5.441885998444e-04 
-1.689284059370e-03 1.450746420627e-03 0.0 
1.450746420627e-03 4.831311448006e-03 0.0 
0.0 0.0 -7.833574767318e-04 
-1.686952509024e-03 5.790488882109e-04 0.0 
5.790488882109e-04 4.855993105087e-03 0.0 
0.0 0.0 -7.312625299843e-04 
-1.435530838734e-03 2.039856500826e-03 0.0 
2.039856500826e-03 7.934174766789e-03 0.0 
0.0 0.0 -1.286111585339e-03 
-3.846383815358e-04 3.631348853507e-03 0.0 
3.631348853507e-03 2.894402056622e-03 0.0 
0.0 0.0 -9.211198782815e-04 
2.752446880878e-03 -3.352860469318e-04 0.0 
-3.352860469318e-04 -8.901509035661e-04 0.0 
0.0 0.0 -1.473658420922e-04 
-2.801224181593e-06 -1.851492159178e-03 0.0 
-1.851492159178e-03 1.218501688618e-03 0.0 
0.0 0.0 -5.210144847585e-04 
8.331805258011e-05 -1.317049816552e-03 0.0 
-1.317049816552e-03 7.003703442878e-04 0.0 
0.0 0.0 -3.358664558005e-04 
1.821034446314e-04 -2.408967732496e-03 0.0 
-2.408967732496e-03 1.233113086777e-03 0.0 
0.0 0.0 -6.065213706036e-04 
-8.535697486970e-04 3.347980073424e-03 0.0 
3.347980073424e-03 5.177555629653e-03 0.0 
0.0 0.0 -1.134523071099e-03 
-1.613429135808e-03 4.247551468927e-04 0.0 
4.247551468927e-04 7.790174225159e-03 0.0 
0.0 0.0 -1.144649651339e-03 
-1.027154245499e-03 -2.035960934847e-03 0.0 
-2.035960934847e-03 4.492443968240e-03 0.0 
0.0 0.0 -1.087427768671e-03 
-2.215897922679e-04 -2.343741531637e-03 0.0 
-2.343741531637e-03 1.937473062545e-03 0.0 
0.0 0.0 -7.353785444044e-04 
-1.224434476437e-03 -2.373415610936e-03 0.0 
-2.373415610936e-03 4.259607832396e-03 0.0 
0.0 0.0 -1.074887456883e-03 
3.803391332685e-05 -1.193157204028e-03 0.0 
-1.193157204028e-03 3.177833625685e-03 0.0 
0.0 0.0 -1.142106164841e-03 
4.188220717688e-03 8.959449590669e-05 0.0 
8.959449590669e-05 -3.593602301335e-03 0.0 
0.0 0.0 -2.548364641514e-04 
-1.185520630974e-03 -6.216129085547e-04 0.0 
-6.216129085547e-04 3.715832065426e-03 0.0 
0.0 0.0 -9.234434510542e-04 
-9.870309350746e-04 -2.949408640791e-04 0.0 
-2.949408640791e-04 3.127712701104e-03 0.0 
0.0 0.0 -8.176025220169e-04 
-1.158159835052e-03 -1.705545964426e-03 0.0 
-1.705545964426e-03 5.701758529228e-03 0.0 
0.0 0.0 -1.322396863610e-03 
-1.341641872583e-03 -1.478861783549e-03 0.0 
-1.478861783549e-03 5.355371918508e-03 0.0 
0.0 0.0 -1.341641872583e-03 
-1.283076775259e-03 -6.373143896461e-04 0.0 
-6.373143896461e-04 4.006265140635e-03 0.0 
0.0 0.0 -9.869148323457e-04 
-9.252167440016e-04 -2.284187084932e-03 0.0 
-2.284187084932e-03 3.604049524323e-03 0.0 
0.0 0.0 -1.082955583678e-03 
1.424947381447e-04 -3.218131506232e-03 0.0 
-3.218131506232e-03 1.808876759913e-03 0.0 
0.0 0.0 -8.363020705961e-04 
-1.984447978699e-07 -8.336531221228e-04 0.0 
-8.336531221228e-04 3.375409872640e-03 0.0 
0.0 0.0 -1.177278300149e-03 
-1.642185562706e-04 -1.468912040377e-03 0.0 
-1.468912040377e-03 1.269461247680e-03 0.0 
0.0 0.0 -4.736754391754e-04 
-6.984681314899e-05 -1.578893767274e-03 0.0 
-1.578893767274e-03 3.181334701574e-03 0.0 
0.0 0.0 -1.104707344597e-03 
9.194713961983e-04 -6.793234433339e-04 0.0 
-6.793234433339e-04 6.261768049846e-04 0.0 
0.0 0.0 -3.206774383567e-04 
-7.790564292393e-04 -2.283470906283e-03 0.0 
-2.283470906283e-03 3.292851518803e-03 0.0 
0.0 0.0 -1.077340752670e-03 
-5.608514076299e-04 -2.798496030794e-03 0.0 
-2.798496030794e-03 2.999147072071e-03 0.0 
0.0 0.0 -1.044983856189e-03 
1.138912068891e-03 -3.473598627530e-04 0.0 
-3.473598627530e-04 -1.413469007123e-04 0.0 
0.0 0.0 -2.684313900889e-04 
-1.253955737825e-03 -3.715260469387e-04 0.0 
-3.715260469387e-04 3.888476539148e-03 0.0 
0.0 0.0 -9.536442305595e-04 
-1.602308644549e-03 2.138646014206e-03 0.0 
2.138646014206e-03 7.398169050205e-03 0.0 
0.0 0.0 -1.176862138969e-03 
2.931536258213e-03 -2.126534927069e-04 0.0 
-2.126534927069e-04 -9.467594195602e-04 0.0 
0.0 0.0 -1.426830563378e-04 
-1.698158774402e-03 7.543543168281e-04 0.0 
7.543543168281e-04 4.798515189366e-03 0.0 
0.0 0.0 -7.322753781719e-04 
-1.694678419912e-03 8.983255451051e-04 0.0 
8.983255451051e-04 4.996965617242e-03 0.0 
0.0 0.0 -7.130472889423e-04 
2.758905077308e-03 -3.716639443462e-04 0.0 
-3.716639443462e-04 -9.706465242432e-04 0.0 
0.0 0.0 -7.663965227419e-04 
-1.039035016572e-03 -2.144348817903e-04 0.0 
-2.144348817903e-04 3.210973696896e-03 0.0 
0.0 0.0 -7.829545016062e-04 
1.212299874062e-03 -2.903037830351e-03 0.0 
-2.903037830351e-03 2.395213764874e-04 0.0 
0.0 0.0 -6.222091073784e-04 
3.608724176222e-03 1.143868741850e-02 0.0 
1.143868741850e-02 -2.137635179542e-03 0.0 
0.0 0.0 -6.304667128631e-04 
-1.289472189001e-03 -1.746360051319e-03 0.0 
-1.746360051319e-03 5.399223758463e-03 0.0 
0.0 0.0 -1.180895453064e-03 
-1.055374266254e-03 3.262173166486e-03 0.0 
3.262173166486e-03 5.596404506788e-03 0.0 
0.0 0.0 -1.286194385238e-03 
-1.685234284086e-03 7.030718583631e-04 0.0 
7.030718583631e-04 7.477737434154e-03 0.0 
0.0 0.0 -1.101088927253e-03 
1.746762302064e-03 7.745014762230e-03 0.0 
7.745014762230e-03 -2.733156808992e-04 0.0 
0.0 0.0 -6.314771233563e-04 
-3.649363196541e-05 -1.210836942261e-03 0.0 
-1.210836942261e-03 8.486569891216e-04 0.0 
0.0 0.0 -3.480700102098e-04 
-1.004741383637e-03 2.553626350246e-03 0.0 
2.553626350246e-03 3.669626505377e-03 0.0 
0.0 0.0 -8.905302458185e-04 
-1.568290103670e-03 2.798930321494e-04 0.0 
2.798930321494e-04 4.936656992355e-03 0.0 
0.0 0.0 -7.345111139194e-04 
-1.542599483069e-03 2.307996019665e-04 0.0 
2.307996019665e-04 5.186209951631e-03 0.0 
0.0 0.0 -7.144802219086e-04 
2.051111654300e-03 -1.948889285642e-04 0.0 
-1.948889285642e-04 -7.587596804454e-04 0.0 
0.0 0.0 -2.646536591443e-04 
9.885439547911e-04 -4.650217645265e-04 0.0 
-4.650217645265e-04 -7.811083121430e-05 0.0 
0.0 0.0 -2.719350994485e-04 
5.781750032113e-04 -3.209247054734e-04 0.0 
-3.209247054734e-04 3.237899308518e-04 0.0 
0.0 0.0 -2.992029258896e-04 
-3.222613347251e-04 -1.717475984859e-03 0.0 
-1.717475984859e-03 1.786840537745e-03 0.0 
0.0 0.0 -6.276768012942e-04 
1.995445303676e-03 -3.544912217161e-04 0.0 
-3.544912217161e-04 -1.783707534187e-04 0.0 
0.0 0.0 -2.505695937184e-04 
-1.385796394707e-03 -3.802460944882e-04 0.0 
-3.802460944882e-04 4.246303149623e-03 0.0 
0.0 0.0 -1.004230634435e-03 
2.508385124992e-04 -5.037389565952e-04 0.0 
-5.037389565952e-04 -2.508385124992e-04 0.0 
0.0 0.0 0.0 
-3.537348662353e-04 -2.028219451660e-03 0.0 
-2.028219451660e-03 2.045322960423e-03 0.0 
0.0 0.0 -7.249663260806e-04 
-1.566153664312e-03 2.377992970035e-04 0.0 
2.377992970035e-04 6.488131571459e-03 0.0 
0.0 0.0 -9.582560723523e-04 
-1.634454558496e-03 5.707793053276e-04 0.0 
5.707793053276e-04 5.108535752511e-03 0.0 
0.0 0.0 -7.120344407548e-04 
-1.138385230593e-03 3.111279263079e-03 0.0 
3.111279263079e-03 5.796106442860e-03 0.0 
0.0 0.0 -1.169483110168e-03 
-3.211066572615e-04 -2.624140315591e-03 0.0 
-2.624140315591e-03 2.858415319154e-03 0.0 
0.0 0.0 -9.641449249716e-04 
-1.553469395463e-03 1.980732768992e-04 0.0 
1.980732768992e-04 6.108450087988e-03 0.0 
0.0 0.0 -8.988447104697e-04 
-1.086829048493e-03 -4.298554506639e-05 0.0 
-4.298554506639e-05 3.376551179836e-03 0.0 
0.0 0.0 -8.404787427002e-04 
1.160148098427e-03 -4.143557924958e-04 0.0 
-4.143557924958e-04 5.527837414287e-04 0.0 
0.0 0.0 -3.489577299251e-04 
-1.340974968048e-03 1.141125960794e-03 0.0 
1.141125960794e-03 8.560634098268e-03 0.0 
0.0 0.0 -1.340974968048e-03 
-1.479514720207e-03 1.290754629394e-03 0.0 
1.290754629394e-03 8.817356864728e-03 0.0 
0.0 0.0 -1.320295381545e-03 
-1.658748233041e-03 8.637494445187e-04 0.0 
8.637494445187e-04 5.855760830743e-03 0.0 
0.0 0.0 -8.588387843224e-04 
-1.626246500550e-03 3.507062076516e-04 0.0 
3.507062076516e-04 4.917310602464e-03 0.0 
0.0 0.0 -7.326073368542e-04 
-1.101733211462e-03 -4.903419461906e-04 0.0 
-4.903419461906e-04 3.425201513199e-03 0.0 
0.0 0.0 -8.368382630048e-04 
-1.457935752510e-03 9.072104527732e-04 0.0 
9.072104527732e-04 8.880607743519e-03 0.0 
0.0 0.0 -1.322576402756e-03 
-2.087604691238e-04 -2.081308369903e-03 0.0 
-2.081308369903e-03 1.746392936312e-03 0.0 
0.0 0.0 -6.589853430805e-04 
-1.662826015092e-03 7.083533780780e-04 0.0 
7.083533780780e-04 5.042251775661e-03 0.0 
0.0 0.0 -7.125614225629e-04 
-1.628165374516e-03 4.707510309731e-04 0.0 
4.707510309731e-04 4.889560536843e-03 0.0 
0.0 0.0 -7.312775522649e-04 
-1.109436790681e-03 2.207974280543e-03 0.0 
2.207974280543e-03 3.753226225228e-03 0.0 
0.0 0.0 -8.460010047089e-04 
-1.341823989366e-03 2.274932854254e-03 0.0 
2.274932854254e-03 8.137856468635e-03 0.0 
0.0 0.0 -1.341823989366e-03 
-1.447499776368e-03 1.123885033130e-03 0.0 
1.123885033130e-03 8.849685221172e-03 0.0 
0.0 0.0 -1.322582685247e-03 
1.858413942134e-03 -4.468674671497e-04 0.0 
-4.468674671497e-04 -1.442261551490e-04 0.0 
0.0 0.0 -2.523401230232e-04 
2.225764969354e-03 -1.743677088089e-04 0.0 
-1.743677088089e-04 -8.439366872551e-04 0.0 
0.0 0.0 -2.441511583546e-04 
-1.406822219416e-04 -1.124602410666e-03 0.0 
-1.124602410666e-03 1.005262349108e-03 0.0 
0.0 0.0 -3.705343402142e-04 
-5.636260726475e-04 -2.890778252910e-03 0.0 
-2.890778252910e-03 3.024028366260e-03 0.0 
0.0 0.0 -1.029090130247e-03 
-1.836231348186e-03 -1.061046282737e-04 0.0 
-1.061046282737e-04 6.851957631603e-03 0.0 
0.0 0.0 -1.224669017856e-03 
0.0 0.0 0.0 
0.0 0.0 0.0 
0.0 0.0 0.0 
-1.578428037932e-03 -1.076945805976e-04 0.0 
-1.076945805976e-04 7.488341038297e-03 0.0 
0.0 0.0 -1.092518628634e-03 
8.590309578335e-05 -8.922143633526e-04 0.0 
-8.922143633526e-04 4.422154773749e-04 0.0 
0.0 0.0 -2.263365313535e-04 
2.464619040165e-03 -9.139935089189e-04 0.0 
-9.139935089189e-04 -6.561660060792e-04 0.0 
0.0 0.0 -7.750513003226e-04 
1.518007998487e-03 -7.158843334352e-04 0.0 
-7.158843334352e-04 -4.315147158813e-04 0.0 
0.0 0.0 -3.494557781162e-04 
1.572024144936e-04 -2.862788062263e-03 0.0 
-2.862788062263e-03 -1.572024144936e-04 0.0 
0.0 0.0 0.0 
2.158422260116e-03 -1.741883166394e-03 0.0 
-1.741883166394e-03 -5.143314371231e-04 0.0 
0.0 0.0 -7.046103527113e-04 
-1.789860880868e-03 -9.343042948716e-04 0.0 
-9.343042948716e-04 6.450275194502e-03 0.0 
0.0 0.0 -1.192963836147e-03 
-1.590104708056e-03 6.107842018535e-05 0.0 
6.107842018535e-05 6.703688956183e-03 0.0 
0.0 0.0 -9.361271490834e-04 
-8.759783829009e-04 2.898559650342e-03 0.0 
2.898559650342e-03 3.532916901786e-03 0.0 
0.0 0.0 -9.106555839008e-04 
1.248462822196e-03 -2.813829483536e-04 0.0 
-2.813829483536e-04 -1.929931588244e-04 0.0 
0.0 0.0 -2.625419092021e-04 
-1.459678414727e-03 -2.058426133646e-03 0.0 
-2.058426133646e-03 4.704925736718e-03 0.0 
0.0 0.0 -1.075952622059e-03 
-1.337797817327e-03 3.504757910850e-04 0.0 
3.504757910850e-04 8.685617780919e-03 0.0 
0.0 0.0 -1.337797817327e-03 
-1.451734133111e-03 3.024014936647e-04 0.0 
3.024014936647e-04 8.945645325804e-03 0.0 
0.0 0.0 -1.322354755130e-03 
-1.599337559302e-03 4.517969448523e-04 0.0 
4.517969448523e-04 5.137060814106e-03 0.0 
0.0 0.0 -7.125764448434e-04 
2.437084867230e-03 -1.579824338429e-04 0.0 
-1.579824338429e-04 -4.420614776045e-04 0.0 
0.0 0.0 -8.550100241253e-04 
-1.341607717199e-03 9.922961128721e-04 0.0 
9.922961128721e-04 8.617013640237e-03 0.0 
0.0 0.0 -1.341607717199e-03 
2.092926940326e-03 4.252812627522e-03 0.0 
4.252812627522e-03 9.484111809482e-04 0.0 
0.0 0.0 -1.046710270629e-03 
1.374694533287e-03 -1.963688780902e-04 0.0 
-1.963688780902e-04 3.063611373240e-04 0.0 
0.0 0.0 -3.531810144492e-04 
2.099767295814e-03 -2.484083841165e-04 0.0 
-2.484083841165e-04 -2.289154150212e-04 0.0 
0.0 0.0 -2.475227046456e-04 
1.512864332174e-03 -9.141876293158e-05 0.0 
-9.141876293158e-05 -2.571255017294e-04 0.0 
0.0 0.0 -3.014785994863e-04 
-1.206645058523e-03 -4.413417753443e-05 0.0 
-4.413417753443e-05 3.734312456454e-03 0.0 
0.0 0.0 -9.186759157619e-04 
-1.554661254855e-03 -1.173104092863e-03 0.0 
-1.173104092863e-03 7.206653129246e-03 0.0 
0.0 0.0 -1.322828574513e-03 
-1.468378470940e-03 -2.055954314762e-04 0.0 
-2.055954314762e-04 8.477100898234e-03 0.0 
0.0 0.0 -1.258329778789e-03 
2.479670510695e-03 -1.435620072142e-04 0.0 
-1.435620072142e-04 -9.551215570744e-04 0.0 
0.0 0.0 -2.464809507337e-04 
-1.371588137901e-03 -3.169762198632e-04 0.0 
-3.169762198632e-04 4.214800910036e-03 0.0 
0.0 0.0 -1.008438243783e-03 
-1.344798314370e-03 -8.279531255943e-04 0.0 
-8.279531255943e-04 7.026886665436e-03 0.0 
0.0 0.0 -1.344798314369e-03 
-1.564884777426e-03 -1.287545985866e-03 0.0 
-1.287545985866e-03 7.147060172158e-03 0.0 
0.0 0.0 -1.318785251170e-03 
-1.158469832793e-03 -1.923166980148e-03 0.0 
-1.923166980148e-03 5.883371209853e-03 0.0 
0.0 0.0 -1.321151187552e-03 
-1.585912391543e-03 2.691560132111e-04 0.0 
2.691560132111e-04 7.090908885405e-03 0.0 
0.0 0.0 -1.027148381742e-03 
-1.555187588006e-03 -1.971572702211e-04 0.0 
-1.971572702211e-04 7.705246922455e-03 0.0 
0.0 0.0 -1.125709525796e-03 
-1.338030260144e-03 -1.094386398329e-03 0.0 
-1.094386398329e-03 6.909148412757e-03 0.0 
0.0 0.0 -1.338030260144e-03 
-1.340754991027e-03 -1.372687681983e-03 0.0 
-1.372687681983e-03 6.806607219922e-03 0.0 
0.0 0.0 -1.340754991027e-03 
-1.561602649575e-03 2.480043620058e-04 0.0 
2.480043620058e-04 7.494608831512e-03 0.0 
0.0 0.0 -1.092518628634e-03 
3.307271248664e-03 4.314548185695e-05 0.0 
4.314548185695e-05 -1.214475185733e-03 0.0 
0.0 0.0 -8.755379438333e-05 
-1.478032168390e-03 1.489804673206e-04 0.0 
1.489804673206e-04 5.167022187345e-03 0.0 
0.0 0.0 -7.139539158865e-04 
-1.574977551316e-03 3.717997235828e-04 0.0 
3.717997235828e-04 5.188881553203e-03 0.0 
0.0 0.0 -7.133642253441e-04 
2.372019054415e-03 -1.435516976165e-04 0.0 
-1.435516976165e-04 -9.080369707488e-04 0.0 
0.0 0.0 -2.458002663153e-04 
-1.342313591240e-03 -1.872687525586e-03 0.0 
-1.872687525586e-03 6.355359522584e-03 0.0 
0.0 0.0 -1.342313591240e-03 
-1.269922737054e-03 -2.029167704155e-03 0.0 
-2.029167704155e-03 6.094262192879e-03 0.0 
0.0 0.0 -1.318355947622e-03 
-1.337959751097e-03 -1.908784167046e-03 0.0 
-1.908784167046e-03 5.900685640896e-03 0.0 
0.0 0.0 -1.337959751097e-03 
3.106621107953e-03 -1.497773368645e-04 0.0 
-1.497773368645e-04 -1.029211139497e-03 0.0 
0.0 0.0 -9.540963664560e-05 
3.060464760506e-03 -1.742213930953e-04 0.0 
-1.742213930953e-04 -9.924237669369e-04 0.0 
0.0 0.0 -1.330704766027e-04 
-1.340754991027e-03 -1.672627381109e-03 0.0 
-1.672627381109e-03 5.518495974516e-03 0.0 
0.0 0.0 -1.340754991027e-03 
-1.340396196526e-03 -1.852966983193e-03 0.0 
-1.852966983193e-03 5.697134399037e-03 0.0 
0.0 0.0 -1.340396196526e-03 
-1.600296610560e-03 -2.152006829150e-04 0.0 
-2.152006829150e-04 6.887323541576e-03 0.0 
0.0 0.0 -9.936726122374e-04 
-1.422222177314e-03 8.859389962602e-05 0.0 
8.859389962602e-05 5.179295465595e-03 0.0 
0.0 0.0 -7.124851972278e-04 
-1.571159218797e-03 -2.082021183410e-04 0.0 
-2.082021183410e-04 7.291178693471e-03 0.0 
0.0 0.0 -1.060142436171e-03 
-1.552782223510e-03 -2.129194587244e-04 0.0 
-2.129194587244e-04 6.002253842572e-03 0.0 
0.0 0.0 -8.626607521900e-04 
-1.382122713210e-03 3.570213775188e-05 0.0 
3.570213775188e-05 5.182667103943e-03 0.0 
0.0 0.0 -7.121912678902e-04 
2.430268614827e-03 -3.742750749404e-04 0.0 
-3.742750749404e-04 -7.284536995249e-04 0.0 
0.0 0.0 -1.455638920981e-04 
1.788846853817e-03 -3.610953962941e-04 0.0 
-3.610953962941e-04 -4.197756276314e-04 0.0 
0.0 0.0 -1.358595924747e-04 
1.966551329684e-03 -3.928283336789e-04 0.0 
-3.928283336789e-04 -5.050357278430e-04 0.0 
0.0 0.0 -2.104021509793e-04 
2.281780972464e-03 -2.038290800464e-04 0.0 
-2.038290800464e-04 -5.945549428833e-04 0.0 
0.0 0.0 -1.836186269972e-04 
-1.455576565641e-03 5.369324781880e-06 0.0 
5.369324781880e-06 4.421569252006e-03 0.0 
0.0 0.0 -1.025222297049e-03 
-1.326853145310e-03 -3.193870868211e-05 0.0 
-3.193870868211e-05 4.074529080795e-03 0.0 
0.0 0.0 -9.784754570978e-04 
9.209115528766e-04 -3.016227686883e-04 0.0 
-3.016227686883e-04 -2.515215318540e-04 0.0 
0.0 0.0 -2.790181114344e-04 
-1.882114812679e-03 5.257899597366e-05 0.0 
5.257899597366e-05 5.463849854237e-03 0.0 
0.0 0.0 -1.072123180932e-03 
1.364997931362e-03 -3.418189557600e-04 0.0 
-3.418189557600e-04 -4.186781053930e-04 0.0 
0.0 0.0 -2.865313328208e-04 
-1.341471640605e-03 1.902532918980e-03 0.0 
1.902532918980e-03 8.304452194874e-03 0.0 
0.0 0.0 -1.341471640605e-03 
-1.340968685557e-03 8.342263842268e-04 0.0 
8.342263842268e-04 8.620360450522e-03 0.0 
0.0 0.0 -1.340968685557e-03 
-1.339320413496e-03 1.336323062728e-03 0.0 
1.336323062728e-03 8.515855351859e-03 0.0 
0.0 0.0 -1.339320413496e-03 
-1.371841769494e-04 -2.751641048090e-05 0.0 
-2.751641048090e-05 1.170540403774e-03 0.0 
0.0 0.0 -2.599136149544e-04 
-9.633323041400e-04 -3.549644401783e-05 0.0 
-3.549644401783e-05 2.981977788141e-03 0.0 
0.0 0.0 -7.340959586659e-04 
-1.337132911908e-03 6.510662741128e-04 0.0 
6.510662741128e-04 8.656607653519e-03 0.0 
0.0 0.0 -1.337132911908e-03 
-2.083032595708e-03 9.922266011855e-05 0.0 
9.922266011855e-05 6.472696883650e-03 0.0 
0.0 0.0 -1.124956933753e-03 
-1.344556937803e-03 5.003882733929e-04 0.0 
5.003882733929e-04 8.710429521741e-03 0.0 
0.0 0.0 -1.344556937803e-03 
-1.932677962729e-03 1.288201926386e-04 0.0 
1.288201926386e-04 6.746175248938e-03 0.0 
0.0 0.0 -1.192538251246e-03 
-1.740079752366e-03 1.547682996820e-04 0.0 
1.547682996820e-04 7.002368902305e-03 0.0 
0.0 0.0 -1.259905836238e-03 
-1.256318881540e-03 -3.058147318078e-04 0.0 
-3.058147318078e-04 3.889569585195e-03 0.0 
0.0 0.0 -9.521061186879e-04 
-1.479483252636e-03 7.231400883548e-04 0.0 
7.231400883548e-04 8.931379513718e-03 0.0 
0.0 0.0 -1.318101597465e-03 
-1.454407492241e-03 7.329644933787e-04 0.0 
7.329644933787e-04 8.932547234701e-03 0.0 
0.0 0.0 -1.321689849711e-03 
-1.996720130669e-03 -4.240856891719e-04 0.0 
-4.240856891719e-04 6.546271744836e-03 0.0 
0.0 0.0 -1.157495185000e-03 
-1.833092771074e-03 -4.338479580684e-04 0.0 
-4.338479580684e-04 6.845712330688e-03 0.0 
0.0 0.0 -1.225777420818e-03 
-1.841879665554e-03 -1.392809369192e-03 0.0 
-1.392809369192e-03 5.462425115064e-03 0.0 
0.0 0.0 -1.076967794221e-03 
0.0 0.0 0.0 
0.0 0.0 0.0 
0.0 0.0 0.0 
-8.795889895974e-04 -1.952925740306e-03 0.0 
-1.952925740306e-03 3.376145193665e-03 0.0 
0.0 0.0 -1.039304039601e-03 
1.660434101197e-03 -6.141622579472e-04 0.0 
-6.141622579472e-04 -6.719522836333e-05 0.0 
0.0 0.0 -2.442944474907e-04 
-1.378694188408e-03 -2.097012646119e-03 0.0 
-2.097012646119e-03 5.460269496084e-03 0.0 
0.0 0.0 -1.177819030284e-03 
-7.813950936845e-04 -2.358745935075e-03 0.0 
-2.358745935075e-03 3.287112188259e-03 0.0 
0.0 0.0 -1.040987640873e-03 
-1.809630590335e-03 -1.291578548695e-03 0.0 
-1.291578548695e-03 5.821414157847e-03 0.0 
0.0 0.0 -1.099016898379e-03 
-2.060296257065e-04 -1.796631504213e-03 0.0 
-1.796631504213e-03 1.564117229874e-03 0.0 
0.0 0.0 -5.820375446434e-04 
4.475341314438e-05 -9.010547106959e-04 0.0 
-9.010547106959e-04 6.723802247933e-04 0.0 
0.0 0.0 -2.733874678612e-04 
-1.819661686397e-03 -1.463949205523e-03 0.0 
-1.463949205523e-03 6.215728401457e-03 0.0 
0.0 0.0 -1.161668299909e-03 
-1.009350816753e-03 -1.981157607315e-03 0.0 
-1.981157607315e-03 3.679610224835e-03 0.0 
0.0 0.0 -1.056886766371e-03 
-1.124597673924e-03 -3.416283390981e-04 0.0 
-3.416283390981e-04 3.530274889455e-03 0.0 
0.0 0.0 -8.978673291013e-04 
-1.908614693689e-03 -1.553426855284e-03 0.0 
-1.553426855284e-03 5.883638228136e-03 0.0 
0.0 0.0 -1.096102707776e-03 
-1.506564574904e-03 4.784902240182e-04 0.0 
4.784902240182e-04 7.990398295391e-03 0.0 
0.0 0.0 -1.188907866872e-03 
-1.145966443117e-03 -2.688887835076e-04 0.0 
-2.688887835076e-04 3.559257817850e-03 0.0 
0.0 0.0 -8.802182425544e-04 
-2.343808151550e-04 -2.448482601409e-03 0.0 
-2.448482601409e-03 2.867036480139e-03 0.0 
0.0 0.0 -1.035646790376e-03 
-9.500506080825e-04 -2.724089328098e-03 0.0 
-2.724089328098e-03 3.674446532369e-03 0.0 
0.0 0.0 -9.625389225288e-04 
-1.856114660532e-03 -1.247587492440e-03 0.0 
-1.247587492440e-03 5.444374226428e-03 0.0 
0.0 0.0 -1.042884296030e-03 
-2.003615679542e-03 -9.107189773551e-04 0.0 
-9.107189773551e-04 5.760788445208e-03 0.0 
0.0 0.0 -1.050199500156e-03 
7.294504314949e-03 3.393950696342e-03 0.0 
3.393950696342e-03 -5.700130677190e-03 0.0 
0.0 0.0 -6.833029876111e-04 
-7.703338813803e-04 2.711642704622e-03 0.0 
2.711642704622e-03 3.268676482316e-03 0.0 
0.0 0.0 -9.206815977879e-04 
2.154064582176e-03 4.800393039395e-03 0.0 
4.800393039395e-03 -3.569453603998e-04 0.0 
0.0 0.0 -7.701939521900e-04 
-1.492273682533e-03 -1.948749897048e-03 0.0 
-1.948749897048e-03 4.700056634630e-03 0.0 
0.0 0.0 -1.018483763552e-03 
-1.953152701418e-03 -1.266064436280e-03 0.0 
-1.266064436280e-03 6.190905664489e-03 0.0 
0.0 0.0 -1.125100902632e-03 
-2.130434678919e-03 -5.674193057818e-04 0.0 
-5.674193057818e-04 6.039060582820e-03 0.0 
0.0 0.0 -1.053755873404e-03 
1.981272582958e-04 -2.339075750409e-03 0.0 
-2.339075750409e-03 1.164667172993e-03 0.0 
0.0 0.0 -5.840547562666e-04 
-1.516698384373e-03 7.243684231909e-04 0.0 
7.243684231909e-04 7.963201592157e-03 0.0 
0.0 0.0 -1.183514100502e-03 
-1.571889609711e-03 6.492262438020e-04 0.0 
6.492262438020e-04 7.577660240319e-03 0.0 
0.0 0.0 -1.117084069417e-03 
-1.526943038589e-03 4.067391407097e-04 0.0 
4.067391407097e-04 5.686565415721e-03 0.0 
0.0 0.0 -8.110481619253e-04 
-1.474195239190e-03 -2.107699134124e-03 0.0 
-2.107699134124e-03 4.674985602820e-03 0.0 
0.0 0.0 -1.001070066037e-03 
-1.687869148980e-03 -1.597447162641e-03 0.0 
-1.597447162641e-03 5.094192157887e-03 0.0 
0.0 0.0 -1.032102790996e-03 
-1.559878786953e-03 1.186239496982e-04 0.0 
1.186239496982e-04 8.091883647163e-03 0.0 
0.0 0.0 -1.185362187646e-03 
-1.553576411269e-03 5.639076835034e-04 0.0 
5.639076835034e-04 7.828849217298e-03 0.0 
0.0 0.0 -1.150972777267e-03 
-5.736846005059e-04 -3.010470759541e-03 0.0 
-3.010470759541e-03 3.112745496219e-03 0.0 
0.0 0.0 -1.058777908313e-03 
-1.827264969184e-03 -1.207689843267e-03 0.0 
-1.207689843267e-03 6.491929530035e-03 0.0 
0.0 0.0 -1.190872049285e-03 
-1.617401302618e-03 1.036699389917e-03 0.0 
1.036699389917e-03 7.425262889637e-03 0.0 
0.0 0.0 -1.103416240745e-03 
-2.113993614968e-03 -7.222808743220e-04 0.0 
-7.222808743220e-04 6.023476369147e-03 0.0 
0.0 0.0 -1.069496670503e-03 
-1.471914821472e-03 -1.998353424490e-03 0.0 
-1.998353424490e-03 5.883536090439e-03 0.0 
0.0 0.0 -1.210017230578e-03 
-1.575272729869e-03 3.494544289054e-04 0.0 
3.494544289054e-04 8.019533452472e-03 0.0 
0.0 0.0 -1.181737430652e-03 
-1.652502708926e-03 2.520535947120e-04 0.0 
2.520535947120e-04 7.001595806507e-03 0.0 
0.0 0.0 -1.011817915138e-03 
-3.838894113268e-04 -2.804191833148e-03 0.0 
-2.804191833148e-03 2.874279057775e-03 0.0 
0.0 0.0 -9.985655989919e-04 
-6.304965187655e-04 -7.604202958905e-04 0.0 
-7.604202958905e-04 2.203620271365e-03 0.0 
0.0 0.0 -6.656342390725e-04 
4.047615641515e-04 -2.474054827037e-03 0.0 
-2.474054827037e-03 9.613198754716e-04 0.0 
0.0 0.0 -5.854634741242e-04 
2.836227978939e-05 -1.580599960261e-03 0.0 
-1.580599960261e-03 9.832792497712e-04 0.0 
0.0 0.0 -4.149592254337e-04 
1.034548557929e-04 -1.227500156599e-03 0.0 
-1.227500156599e-03 6.126727267546e-04 0.0 
0.0 0.0 -3.069118210918e-04 
-1.577352812428e-03 2.114313367924e-04 0.0 
2.114313367924e-04 7.845695102100e-03 0.0 
0.0 0.0 -1.150998037120e-03 
-1.900941556448e-03 -7.041406832224e-04 0.0 
-7.041406832224e-04 6.386638876857e-03 0.0 
0.0 0.0 -1.156839719840e-03 
6.843292428348e-05 -1.144232504345e-03 0.0 
-1.144232504345e-03 6.143886100226e-04 0.0 
0.0 0.0 -2.926378004169e-04 
-1.601987702258e-03 2.442990824200e-03 0.0 
2.442990824200e-03 6.852419756780e-03 0.0 
0.0 0.0 -1.160298666437e-03 
-1.543111448516e-03 4.596328783708e-04 0.0 
4.596328783708e-04 5.853297686999e-03 0.0 
0.0 0.0 -8.436798659344e-04 
-1.824750470194e-03 -1.859013687658e-03 0.0 
-1.859013687658e-03 5.532595994557e-03 0.0 
0.0 0.0 -1.067477449466e-03 
-2.006499161308e-03 -7.976010001953e-04 0.0 
-7.976010001953e-04 6.083504909474e-03 0.0 
0.0 0.0 -1.090430023688e-03 
7.833829666557e-04 -2.711290744461e-03 0.0 
-2.711290744461e-03 6.776524641226e-04 0.0 
0.0 0.0 -6.261580417621e-04 
-2.076799610215e-03 -1.031710463461e-03 0.0 
-1.031710463461e-03 6.135351760274e-03 0.0 
0.0 0.0 -1.087955833448e-03 
-1.557514890525e-03 -6.173462151110e-05 0.0 
-6.173462151110e-05 5.695796094032e-03 0.0 
0.0 0.0 -8.100176300978e-04 
2.810625072910e-03 1.811304505266e-03 0.0 
1.811304505266e-03 -4.971554245045e-04 0.0 
0.0 0.0 -9.914869921737e-04 
-1.497791782641e-03 -1.444847597853e-03 0.0 
-1.444847597853e-03 6.204442023908e-03 0.0 
0.0 0.0 -1.242964905849e-03 
-6.875629852487e-04 -4.240155203853e-04 0.0 
-4.240155203853e-04 2.190912803371e-03 0.0 
0.0 0.0 -5.658909553065e-04 
-1.268098618658e-03 -2.126035490962e-03 0.0 
-2.126035490962e-03 5.495926708526e-03 0.0 
0.0 0.0 -1.215045542354e-03 
-1.631557581403e-03 2.235766335083e-04 0.0 
2.235766335083e-04 7.237605270102e-03 0.0 
0.0 0.0 -1.048288725887e-03 
-7.383595785151e-04 -6.377031037024e-04 0.0 
-6.377031037024e-04 2.446869421887e-03 0.0 
0.0 0.0 -6.818911139857e-04 
3.993077738021e-04 -2.419206884214e-03 0.0 
-2.419206884214e-03 9.348823657586e-04 0.0 
0.0 0.0 -5.717957740974e-04 
-1.500476059484e-03 -8.906484908892e-04 0.0 
-8.906484908892e-04 4.589149281530e-03 0.0 
0.0 0.0 -1.044847128380e-03 
-1.630418366467e-03 6.661053165545e-04 0.0 
6.661053165545e-04 6.481746764143e-03 0.0 
0.0 0.0 -9.409807611877e-04 
-5.756498552716e-04 -2.159817615522e-03 0.0 
-2.159817615522e-03 2.678873720584e-03 0.0 
0.0 0.0 -9.013816565627e-04 
-1.610525300296e-03 1.600914995101e-04 0.0 
1.600914995101e-04 7.460282061065e-03 0.0 
0.0 0.0 -1.085119818393e-03 
-1.626505474320e-03 1.193898643633e-04 0.0 
1.193898643633e-04 6.796479922044e-03 0.0 
0.0 0.0 -9.816794289629e-04 
-1.168002604940e-03 -1.979309092588e-03 0.0 
-1.979309092588e-03 4.001814082530e-03 0.0 
0.0 0.0 -1.032510638845e-03 
-1.993224441762e-03 -1.056137829821e-03 0.0 
-1.056137829821e-03 5.774090597717e-03 0.0 
0.0 0.0 -1.075584385303e-03 
-2.021709392423e-03 -1.349459280440e-03 0.0 
-1.349459280440e-03 5.860171390496e-03 0.0 
0.0 0.0 -1.066391945090e-03 
-1.595291763312e-03 5.874023300959e-04 0.0 
5.874023300959e-04 7.178060268656e-03 0.0 
0.0 0.0 -1.050681058959e-03 
-5.082515002275e-04 -8.941420093747e-04 0.0 
-8.941420093747e-04 1.798316205834e-03 0.0 
0.0 0.0 -5.009000172756e-04 
-1.206852124203e-03 -1.671075112969e-03 0.0 
-1.671075112969e-03 4.019505130445e-03 0.0 
0.0 0.0 -1.029746919386e-03 
6.574486225722e-04 2.573077759403e-03 0.0 
2.573077759403e-03 2.431750797451e-03 0.0 
0.0 0.0 -1.141128458404e-03 
-1.641668485544e-03 3.431501301840e-04 0.0 
3.431501301840e-04 7.404941610079e-03 0.0 
0.0 0.0 -1.078198857115e-03 
-1.057951637287e-03 -1.671343146736e-03 0.0 
-1.671343146736e-03 3.677031607098e-03 0.0 
0.0 0.0 -1.017599913258e-03 
-8.954401304147e-04 -2.800206404235e-03 0.0 
-2.800206404235e-03 3.674164100142e-03 0.0 
0.0 0.0 -1.058318663232e-03 
-1.115312546428e-03 -2.189534952593e-03 0.0 
-2.189534952593e-03 5.045014028914e-03 0.0 
0.0 0.0 -1.187586327529e-03 
-1.596801678993e-03 6.045917028781e-04 0.0 
6.045917028781e-04 6.950727632054e-03 0.0 
0.0 0.0 -1.013969106439e-03 
2.755914103173e-03 -1.066613099249e-03 0.0 
-1.066613099249e-03 -2.755914103173e-03 0.0 
0.0 0.0 0.0 
4.726741315202e-05 -1.330898926681e-03 0.0 
-1.330898926681e-03 8.674614564573e-04 0.0 
0.0 0.0 -2.916872467244e-04 
4.892765564965e-03 -1.589018538393e-04 0.0 
-1.589018538393e-04 -3.853450800300e-03 0.0 
0.0 0.0 -4.454206134279e-04 
-1.880676767284e-03 -9.969975945957e-04 0.0 
-9.969975945957e-04 6.131847364448e-03 0.0 
0.0 0.0 -1.127837695838e-03 
-1.619604464873e-03 6.374782176385e-04 0.0 
6.374782176385e-04 6.719807393941e-03 0.0 
0.0 0.0 -9.775003154318e-04 
-1.665473239862e-03 -8.814240019008e-04 0.0 
-8.814240019008e-04 4.990171794499e-03 0.0 
0.0 0.0 -1.065326950858e-03 
-1.596762474986e-03 5.442334346395e-04 0.0 
5.442334346395e-04 6.065464133813e-03 0.0 
0.0 0.0 -8.745614812816e-04 
-3.255656197957e-04 -1.794853795494e-03 0.0 
-1.794853795494e-03 3.525283213402e-03 0.0 
0.0 0.0 -1.139196670502e-03 
-1.359206623324e-03 -1.598338811102e-03 0.0 
-1.598338811102e-03 4.356288718259e-03 0.0 
0.0 0.0 -1.038619054332e-03 
-1.952425401121e-03 -1.122489104774e-03 0.0 
-1.122489104774e-03 5.808139918506e-03 0.0 
0.0 0.0 -1.061632825506e-03 
-7.352512267089e-04 -7.174892847169e-04 0.0 
-7.174892847169e-04 2.324934696345e-03 0.0 
0.0 0.0 -5.540246046759e-04 
-1.437645385880e-03 -1.599317358972e-03 0.0 
-1.599317358972e-03 5.870614125847e-03 0.0 
0.0 0.0 -1.211531131004e-03 
-1.154210490817e-03 -1.954082935906e-03 0.0 
-1.954082935906e-03 4.005717739264e-03 0.0 
0.0 0.0 -1.074148950826e-03 
-8.379192553434e-04 -5.906240485017e-04 0.0 
-5.906240485017e-04 2.576604047046e-03 0.0 
0.0 0.0 -5.876558844704e-04 
-1.197102623790e-03 -1.637680359765e-03 0.0 
-1.637680359765e-03 4.017415051808e-03 0.0 
0.0 0.0 -1.056762485630e-03 
-7.509293429896e-04 -1.933738058068e-03 0.0 
-1.933738058068e-03 3.044668356527e-03 0.0 
0.0 0.0 -9.830310058020e-04 
-3.848069222800e-04 -1.987035085230e-03 0.0 
-1.987035085230e-03 2.096507399408e-03 0.0 
0.0 0.0 -7.335859187690e-04 
-1.641529108376e-03 -8.260601691015e-04 0.0 
-8.260601691015e-04 4.922455749525e-03 0.0 
0.0 0.0 -1.057704792895e-03 
1.573816798597e-03 -1.886122039532e-04 0.0 
-1.886122039532e-04 -5.627891051082e-04 0.0 
0.0 0.0 -2.384202015752e-04 
1.223818010165e-03 -3.278945927184e-04 0.0 
-3.278945927184e-04 -4.121240013050e-04 0.0 
0.0 0.0 -2.224783425832e-04 
-1.665019363331e-03 -1.732448119605e-03 0.0 
-1.732448119605e-03 5.107282910853e-03 0.0 
0.0 0.0 -1.076850574752e-03 
-6.443609575616e-04 -8.027982188953e-04 0.0 
-8.027982188953e-04 2.093114862673e-03 0.0 
0.0 0.0 -5.127475950200e-04 
-1.433152566994e-03 -2.256582062865e-03 0.0 
-2.256582062865e-03 4.678524487026e-03 0.0 
0.0 0.0 -1.065643708224e-03 
-1.181624258185e-03 -2.541209283503e-03 0.0 
-2.541209283503e-03 4.198630913141e-03 0.0 
0.0 0.0 -1.061543848411e-03 
-2.864899867882e-04 -2.872572545388e-03 0.0 
-2.872572545388e-03 2.406784440249e-03 0.0 
0.0 0.0 -9.086976229117e-04 
1.281208818910e-03 -3.086935772070e-03 0.0 
-3.086935772070e-03 3.369465702636e-04 0.0 
0.0 0.0 -6.934951667885e-04 
-1.645375116221e-03 6.411920099951e-04 0.0 
6.411920099951e-04 7.711017833911e-03 0.0 
0.0 0.0 -1.137719822027e-03 
5.500102573907e-03 9.510683243028e-03 0.0 
9.510683243028e-03 -5.033531068527e-03 0.0 
0.0 0.0 -1.999592165914e-04 
-9.249733248304e-04 -1.654130041636e-03 0.0 
-1.654130041636e-03 3.362873241434e-03 0.0 
0.0 0.0 -9.992710862841e-04 
-3.247070991687e-04 -1.368005150023e-03 0.0 
-1.368005150023e-03 3.600294631995e-03 0.0 
0.0 0.0 -1.175533656463e-03 
-5.174404311479e-04 -5.539878075327e-04 0.0 
-5.539878075327e-04 1.742776399261e-03 0.0 
0.0 0.0 -4.908139796285e-04 
-1.654366313170e-03 2.025707585884e-04 0.0 
2.025707585884e-04 6.355277344232e-03 0.0 
0.0 0.0 -9.088859120638e-04 
-1.608026372927e-03 7.066471578212e-05 0.0 
7.066471578212e-05 5.908321987661e-03 0.0 
0.0 0.0 -8.416286270284e-04 
-1.832935889570e-04 -1.554120033244e-03 0.0 
-1.554120033244e-03 1.379295739965e-03 0.0 
0.0 0.0 -5.125723504322e-04 
-9.249495539582e-04 -2.182927448984e-03 0.0 
-2.182927448984e-03 4.540217093715e-03 0.0 
0.0 0.0 -1.158722036769e-03 
-1.708983070523e-03 5.831805314674e-04 0.0 
5.831805314674e-04 7.093076428562e-03 0.0 
0.0 0.0 -1.034898561726e-03 
-5.347835094169e-04 -8.712026877687e-04 0.0 
-8.712026877687e-04 1.955284966163e-03 0.0 
0.0 0.0 -6.087863386054e-04 
-1.641053002078e-03 8.278210871732e-04 0.0 
8.278210871732e-04 7.844844353227e-03 0.0 
0.0 0.0 -1.166520446339e-03 
-1.573669309360e-03 1.135775076811e-03 0.0 
1.135775076811e-03 7.785651679837e-03 0.0 
0.0 0.0 -1.169001632583e-03 
-5.801197933913e-04 -1.186925299187e-03 0.0 
-1.186925299187e-03 2.194197512368e-03 0.0 
0.0 0.0 -6.784273028471e-04 
1.326845871218e-03 7.266866270716e-03 0.0 
7.266866270716e-03 2.338550762500e-04 0.0 
0.0 0.0 -6.688718346291e-04 
-3.593200341485e-04 -1.692198470874e-03 0.0 
-1.692198470874e-03 1.863660251544e-03 0.0 
0.0 0.0 -6.447172360267e-04 
-1.851327153153e-03 -1.651837749691e-03 0.0 
-1.651837749691e-03 5.510234686298e-03 0.0 
0.0 0.0 -1.068438311093e-03 
-1.517049278155e-03 -1.208152311661e-03 0.0 
-1.208152311661e-03 4.665351215207e-03 0.0 
0.0 0.0 -1.047608655120e-03 
-1.588271255534e-03 2.440442444252e-03 0.0 
2.440442444252e-03 7.130284191767e-03 0.0 
0.0 0.0 -1.169529464977e-03 
-1.586290284398e-03 9.796528348583e-04 0.0 
9.796528348583e-04 7.658587432112e-03 0.0 
0.0 0.0 -1.140030709108e-03 
-1.655646109898e-03 -1.957177626158e-03 0.0 
-1.957177626158e-03 5.116194479746e-03 0.0 
0.0 0.0 -1.068248785331e-03 
-1.685997880852e-03 -1.784608356716e-03 0.0 
-1.784608356716e-03 5.105111501202e-03 0.0 
0.0 0.0 -1.017402529519e-03 
-2.876771207717e-04 -1.389411797297e-03 0.0 
-1.389411797297e-03 1.511875759344e-03 0.0 
0.0 0.0 -5.246565593881e-04 
-1.860731135260e-03 -1.457489852606e-03 0.0 
-1.457489852606e-03 5.487326218288e-03 0.0 
0.0 0.0 -1.032853941699e-03 
-1.642797758815e-03 9.181312676492e-04 0.0 
9.181312676492e-04 7.041840567815e-03 0.0 
0.0 0.0 -1.037144748481e-03 
-1.515109443870e-03 -1.227447560286e-03 0.0 
-1.227447560286e-03 4.684685552436e-03 0.0 
0.0 0.0 -1.069204617036e-03 
-1.671620005891e-03 2.929392441870e-04 0.0 
2.929392441870e-04 6.771202525829e-03 0.0 
0.0 0.0 -9.752741834902e-04 
-1.678948556331e-03 5.367956015661e-04 0.0 
5.367956015661e-04 7.330127940856e-03 0.0 
0.0 0.0 -1.071415751597e-03 
6.973752754453e-03 4.084085107002e-03 0.0 
4.084085107002e-03 -5.734745520716e-03 0.0 
0.0 0.0 -5.310031001729e-04 
-1.592584348350e-03 8.322792606474e-04 0.0 
8.322792606474e-04 7.512035850087e-03 0.0 
0.0 0.0 -1.110258267496e-03 
-1.248028584087e-03 -1.336863044777e-03 0.0 
-1.336863044777e-03 4.037984938667e-03 0.0 
0.0 0.0 -1.014964823884e-03 
-1.349668852610e-03 -1.596461481346e-03 0.0 
-1.596461481346e-03 4.366516516387e-03 0.0 
0.0 0.0 -1.071455489612e-03 
-8.215746796524e-04 -1.528227033612e-03 0.0 
-1.528227033612e-03 3.070718427055e-03 0.0 
0.0 0.0 -9.608678829247e-04 
1.835549677296e-04 -2.809528380429e-03 0.0 
-2.809528380429e-03 1.483313829287e-03 0.0 
0.0 0.0 -7.143723415785e-04 
-1.633555633710e-03 7.702002767988e-04 0.0 
7.702002767988e-04 6.885994191198e-03 0.0 
0.0 0.0 -1.007339817349e-03 
3.076530191659e-04 -3.054269635980e-03 0.0 
-3.054269635980e-03 1.447807107602e-03 0.0 
0.0 0.0 -7.523400543292e-04 
-5.051265774841e-04 -1.582649049219e-03 0.0 
-1.582649049219e-03 2.186388830496e-03 0.0 
0.0 0.0 -7.205409655766e-04 
-1.167533049478e-04 -1.421228658134e-03 0.0 
-1.421228658134e-03 1.178987498042e-03 0.0 
0.0 0.0 -4.201231086673e-04 
-1.691347074083e-03 4.318386709728e-04 0.0 
4.318386709728e-04 6.937090811669e-03 0.0 
0.0 0.0 -1.005115000480e-03 
-4.635122803593e-04 -1.604799167025e-03 0.0 
-1.604799167025e-03 2.085354868508e-03 0.0 
0.0 0.0 -6.950753949209e-04 
-1.191515342284e-03 -1.717007076640e-03 0.0 
-1.717007076640e-03 5.423834924642e-03 0.0 
0.0 0.0 -1.218716866995e-03 
-1.611990725284e-03 7.358230951730e-04 0.0 
7.358230951730e-04 7.120198208464e-03 0.0 
0.0 0.0 -1.043883448597e-03 
-1.702982719558e-03 -1.584997506959e-03 0.0 
-1.584997506959e-03 5.470541578607e-03 0.0 
0.0 0.0 -1.070373463590e-03 
-9.109045738307e-04 -2.286339166372e-04 0.0 
-2.286339166372e-04 4.268441463060e-03 0.0 
0.0 0.0 -1.284729618418e-03 
-1.071268175159e-03 -1.648454023553e-03 0.0 
-1.648454023553e-03 3.707169372543e-03 0.0 
0.0 0.0 -1.023311028316e-03 
-5.174967158518e-04 -1.184771327579e-03 0.0 
-1.184771327579e-03 2.030619627748e-03 0.0 
0.0 0.0 -6.484812479557e-04 
-2.326317737538e-04 -1.038651026586e-03 0.0 
-1.038651026586e-03 1.174275035768e-03 0.0 
0.0 0.0 -4.035613980062e-04 
-1.410090236189e-03 -2.406400776569e-03 0.0 
-2.406400776569e-03 4.648410275236e-03 0.0 
0.0 0.0 -1.051259780966e-03 
-1.600848466290e-03 5.345976904083e-04 0.0 
5.345976904083e-04 6.550294708413e-03 0.0 
0.0 0.0 -9.473489374553e-04 
-8.717253142324e-05 -9.933700925620e-04 0.0 
-9.933700925620e-04 8.344671106644e-04 0.0 
0.0 0.0 -3.202691053891e-04 
-6.027995719924e-04 -2.107392599842e-03 0.0 
-2.107392599842e-03 2.722751826872e-03 0.0 
0.0 0.0 -9.085509663768e-04 
-7.199860598078e-04 -4.341095348245e-04 0.0 
-4.341095348245e-04 2.121552428607e-03 0.0 
0.0 0.0 -4.196057652059e-04 
-1.682938822042e-03 3.318724932828e-04 0.0 
3.318724932828e-04 6.532037136807e-03 0.0 
0.0 0.0 -9.387834224272e-04 
-7.776326742692e-04 -1.884645157224e-03 0.0 
-1.884645157224e-03 3.094899202807e-03 0.0 
0.0 0.0 -9.909213861921e-04 
-1.231039957355e-03 -2.426325464904e-03 0.0 
-2.426325464904e-03 4.199347214172e-03 0.0 
0.0 0.0 -9.819879942351e-04 
-8.554599545912e-04 -1.459966539243e-03 0.0 
-1.459966539243e-03 3.093994812612e-03 0.0 
0.0 0.0 -9.237817853494e-04 
-1.614515104562e-03 2.789174945577e-04 0.0 
2.789174945577e-04 7.633843682432e-03 0.0 
0.0 0.0 -1.114809527198e-03 
-5.165996464755e-04 -1.902435422896e-03 0.0 
-1.902435422896e-03 2.384778332934e-03 0.0 
0.0 0.0 -8.006480084822e-04 
-1.128557246388e-03 -2.713813412197e-03 0.0 
-2.713813412197e-03 4.096504171839e-03 0.0 
0.0 0.0 -1.021386065992e-03 
3.769531236008e-04 -2.410295298791e-03 0.0 
-2.410295298791e-03 9.611755011410e-04 0.0 
0.0 0.0 -5.734836963179e-04 
-1.146759310470e-03 -2.656955500371e-03 0.0 
-2.656955500371e-03 4.139056916818e-03 0.0 
0.0 0.0 -1.043150860743e-03 
-1.375457983811e-03 -1.244246825682e-03 0.0 
-1.244246825682e-03 4.353109699875e-03 0.0 
0.0 0.0 -1.054662228279e-03 
-1.554003148348e-03 -1.878419659560e-03 0.0 
-1.878419659560e-03 5.069341272683e-03 0.0 
0.0 0.0 -1.041555045145e-03 
6.584252171852e-03 -1.385431154676e-03 0.0 
-1.385431154676e-03 -4.934681805836e-03 0.0 
0.0 0.0 -7.069587282928e-04 
-6.177242885591e-04 -4.890935474393e-04 0.0 
-4.890935474393e-04 2.000133674606e-03 0.0 
0.0 0.0 -5.285791946032e-04 
-1.609261505607e-03 9.637114852809e-05 0.0 
9.637114852809e-05 6.165456359686e-03 0.0 
0.0 0.0 -8.787268422831e-04 
1.893124545285e-03 -1.804929834410e-03 0.0 
-1.804929834410e-03 -1.604236378771e-04 0.0 
0.0 0.0 -7.425861031749e-04 
3.720844987474e-04 3.258575754458e-03 0.0 
3.258575754458e-03 1.453868354837e-03 0.0 
0.0 0.0 -7.825512229649e-04 
-1.644262011324e-03 1.659911649759e-04 0.0 
1.659911649759e-04 6.584724351472e-03 0.0 
0.0 0.0 -9.453210152248e-04 
6.455202986104e-04 -2.635854245695e-03 0.0 
-2.635854245695e-03 6.894465372206e-04 0.0 
0.0 0.0 -5.721286439276e-04 
-1.681255032869e-03 9.721382689111e-04 0.0 
9.721382689111e-04 6.557103597372e-03 0.0 
0.0 0.0 -9.642804585795e-04 
-6.124308423891e-04 -5.450173225678e-04 0.0 
-5.450173225678e-04 1.850421424375e-03 0.0 
0.0 0.0 -3.816933993452e-04 
-1.231036729784e-03 -2.253664933021e-03 0.0 
-2.253664933021e-03 5.042416419642e-03 0.0 
0.0 0.0 -1.150402778756e-03 
2.102407033942e-03 -1.003390669139e-03 0.0 
-1.003390669139e-03 -9.446205411252e-05 0.0 
0.0 0.0 -8.605478484982e-04 
2.256289241578e-03 2.215410035119e-03 0.0 
2.215410035119e-03 3.511817833330e-04 0.0 
0.0 0.0 -1.037051012011e-03 
-1.598102879927e-03 7.448720335872e-04 0.0 
7.448720335872e-04 8.095744984387e-03 0.0 
0.0 0.0 -1.204463612412e-03 
8.919152436734e-05 -3.143989424638e-03 0.0 
-3.143989424638e-03 1.851557330955e-03 0.0 
0.0 0.0 -8.317495094241e-04 
-4.309306607764e-04 -9.183848167176e-04 0.0 
-9.183848167176e-04 1.661245254261e-03 0.0 
0.0 0.0 -5.272776829218e-04 
-5.215676815475e-04 -3.050968300431e-03 0.0 
-3.050968300431e-03 3.002352665044e-03 0.0 
0.0 0.0 -1.027200950222e-03 
-1.049023862644e-03 -1.741518653201e-03 0.0 
-1.741518653201e-03 4.976635689622e-03 0.0 
0.0 0.0 -1.189963100592e-03 
9.320234363391e-04 -2.596047537173e-03 0.0 
-2.596047537173e-03 3.625727901239e-04 0.0 
0.0 0.0 -5.548269541984e-04 
-1.645253786717e-03 -2.142300707641e-03 0.0 
-2.142300707641e-03 5.116342603387e-03 0.0 
0.0 0.0 -1.056575865346e-03 
-1.668373394945e-03 3.866502142135e-04 0.0 
3.866502142135e-04 7.172333763355e-03 0.0 
0.0 0.0 -1.041631482750e-03 
1.707610751817e-03 -3.111302323774e-03 0.0 
-3.111302323774e-03 2.006678016111e-05 0.0 
0.0 0.0 -7.404332279907e-04 
-8.518987020310e-04 -2.879189791171e-03 0.0 
-2.879189791171e-03 3.589652711545e-03 0.0 
0.0 0.0 -1.034177093206e-03 
-1.689258382171e-03 3.631400807220e-04 0.0 
3.631400807220e-04 6.026727173804e-03 0.0 
0.0 0.0 -8.663127257150e-04 
-8.305596344540e-04 -9.136388392921e-04 0.0 
-9.136388392921e-04 2.720781083117e-03 0.0 
0.0 0.0 -7.057144296542e-04 
-4.174774710502e-04 -2.264727665933e-03 0.0 
-2.264727665933e-03 2.338052704739e-03 0.0 
0.0 0.0 -8.231036715810e-04 
4.366521275606e-04 4.115021321304e-03 0.0 
4.115021321304e-03 1.799071528579e-03 0.0 
0.0 0.0 -9.358934819731e-04 
-1.362318107691e-03 -2.168484734475e-03 0.0 
-2.168484734475e-03 4.618346883937e-03 0.0 
0.0 0.0 -1.012809740122e-03 
-6.445707195622e-05 3.204089462648e-03 0.0 
3.204089462648e-03 2.166873657449e-03 0.0 
0.0 0.0 -9.010356794969e-04 
1.286234951291e-03 4.570339632297e-03 0.0 
4.570339632297e-03 7.168696906495e-04 0.0 
0.0 0.0 -8.584734179747e-04 
-1.663785911262e-03 9.479908707512e-04 0.0 
9.479908707512e-04 6.801753296704e-03 0.0 
0.0 0.0 -1.000670320419e-03 
-1.603261119446e-03 5.580378966873e-04 0.0 
5.580378966873e-04 6.304876685805e-03 0.0 
0.0 0.0 -9.110000341593e-04 
-1.665053571431e-03 8.222814637678e-04 0.0 
8.222814637678e-04 6.156291516455e-03 0.0 
0.0 0.0 -8.984003255416e-04 
-1.378097458895e-03 -1.307048665384e-03 0.0 
-1.307048665384e-03 4.348190678149e-03 0.0 
0.0 0.0 -1.034446146726e-03 
-6.901682956971e-04 -2.185652284413e-03 0.0 
-2.185652284413e-03 4.019713840668e-03 0.0 
0.0 0.0 -1.130631056169e-03 
-1.834308716731e-04 -3.140526153133e-03 0.0 
-3.140526153133e-03 2.359250978041e-03 0.0 
0.0 0.0 -9.324943313007e-04 
-1.664409897791e-03 2.283299940873e-04 0.0 
2.283299940873e-04 6.118881933301e-03 0.0 
0.0 0.0 -8.720525204519e-04 
-1.540055594527e-03 2.603535571495e-03 0.0 
2.603535571495e-03 6.865325717395e-03 0.0 
0.0 0.0 -1.193584144721e-03 
1.705915182800e-03 2.484441269698e-03 0.0 
2.484441269698e-03 1.182537443204e-03 0.0 
0.0 0.0 -1.073433710836e-03 
-1.128039575521e-03 -2.445102979842e-03 0.0 
-2.445102979842e-03 4.119062361786e-03 0.0 
0.0 0.0 -9.841343610905e-04 
-1.618130106290e-03 8.767059940841e-04 0.0 
8.767059940841e-04 7.278368023729e-03 0.0 
0.0 0.0 -1.073677668998e-03 
-6.910390954278e-05 -2.799918663238e-03 0.0 
-2.799918663238e-03 1.917780934052e-03 0.0 
0.0 0.0 -7.922901533612e-04 
-2.515921695526e-04 -2.585539987467e-03 0.0 
-2.585539987467e-03 2.152735873912e-03 0.0 
0.0 0.0 -8.147758732969e-04 
-3.310614028043e-04 -1.379924337061e-03 0.0 
-1.379924337061e-03 1.616149347076e-03 0.0 
0.0 0.0 -5.507519761165e-04 
-5.011752582021e-04 -3.030712813107e-03 0.0 
-3.030712813107e-03 2.924383664169e-03 0.0 
0.0 0.0 -9.894786617912e-04 
-4.694395913292e-04 -2.445221033123e-03 0.0 
-2.445221033123e-03 2.569902493715e-03 0.0 
0.0 0.0 -9.001983867369e-04 
-1.710187933828e-03 4.633984892961e-04 0.0 
4.633984892961e-04 6.694041267773e-03 0.0 
0.0 0.0 -9.686535345556e-04 
-1.726289188827e-03 4.896054940225e-04 0.0 
4.896054940225e-04 6.449117765340e-03 0.0 
0.0 0.0 -9.322463471790e-04 
6.872987366050e-03 1.918004959911e-03 0.0 
1.918004959911e-03 -5.664861201642e-03 0.0 
0.0 0.0 -5.177683561747e-04 
-1.928901237433e-04 -2.408049599402e-03 0.0 
-2.408049599402e-03 1.916746904624e-03 0.0 
0.0 0.0 -7.387957632348e-04 
6.732773916479e-03 3.538238061851e-03 0.0 
3.538238061851e-03 -5.113985281203e-03 0.0 
0.0 0.0 -6.937665579755e-04 
-3.910486537431e-04 -2.315216698545e-03 0.0 
-2.315216698545e-03 2.304304739270e-03 0.0 
0.0 0.0 -8.199668937971e-04 
-2.230223782308e-04 -2.682222528879e-03 0.0 
-2.682222528879e-03 2.152181418268e-03 0.0 
0.0 0.0 -8.267824457303e-04 
-4.073029906979e-04 -1.294483440297e-03 0.0 
-1.294483440297e-03 1.772331589387e-03 0.0 
0.0 0.0 -5.850122565809e-04 
-4.258807302887e-04 -2.144389728424e-03 0.0 
-2.144389728424e-03 3.478718025925e-03 0.0 
0.0 0.0 -1.101849228969e-03 
4.193172772845e-04 -3.233569204744e-03 0.0 
-3.233569204744e-03 1.400177349689e-03 0.0 
0.0 0.0 -7.797834115600e-04 
-1.646879822787e-03 4.813878958504e-04 0.0 
4.813878958504e-04 7.564621706005e-03 0.0 
0.0 0.0 -1.107989045227e-03 
6.164328486864e-04 -3.141645067701e-03 0.0 
-3.141645067701e-03 1.094713369857e-03 0.0 
0.0 0.0 -7.333483793757e-04 
-5.352671715167e-04 -2.920481306985e-03 0.0 
-2.920481306985e-03 2.976534494236e-03 0.0 
0.0 0.0 -9.268471029392e-04 
3.090740504693e-05 -3.263078096127e-03 0.0 
-3.263078096127e-03 2.029516789361e-03 0.0 
0.0 0.0 -8.830389404604e-04 
3.196306701070e-03 5.040417313239e-03 0.0 
5.040417313239e-03 -1.518028880768e-03 0.0 
0.0 0.0 -7.192619229864e-04 
-4.591680976874e-04 -1.267727629031e-03 0.0 
-1.267727629031e-03 1.902437159688e-03 0.0 
0.0 0.0 -6.185438837147e-04 
-8.295759423418e-04 -1.747729159177e-03 0.0 
-1.747729159177e-03 4.457598420487e-03 0.0 
0.0 0.0 -1.161691925552e-03 
-8.640451209017e-04 -2.074084677624e-03 0.0 
-2.074084677624e-03 4.658509439049e-03 0.0 
0.0 0.0 -1.198716319349e-03 
-3.245899299620e-05 4.378804366333e-03 0.0 
4.378804366333e-03 2.791940960236e-03 0.0 
0.0 0.0 -9.650368815299e-04 
-1.923559704037e-05 -2.994572033542e-03 0.0 
-2.994572033542e-03 1.948727475502e-03 0.0 
0.0 0.0 -8.269250907692e-04 
-2.503696762219e-04 -3.166835997765e-03 0.0 
-3.166835997765e-03 2.485701371906e-03 0.0 
0.0 0.0 -9.354962741733e-04 
-1.647815013080e-03 8.021683468908e-04 0.0 
8.021683468908e-04 6.643407279142e-03 0.0 
0.0 0.0 -9.708520278613e-04 
-3.181114656463e-04 -2.713015915343e-03 0.0 
-2.713015915343e-03 2.377429006136e-03 0.0 
0.0 0.0 -8.825646602100e-04 
1.594134662283e-03 4.928897516540e-03 0.0 
4.928897516540e-03 2.230987924421e-04 0.0 
0.0 0.0 -7.788143377395e-04 
-5.501781971430e-04 -1.884487968291e-03 0.0 
-1.884487968291e-03 2.464549120431e-03 0.0 
0.0 0.0 -8.204446814089e-04 
9.957483789486e-04 -2.931560812442e-03 0.0 
-2.931560812442e-03 3.486105119444e-04 0.0 
0.0 0.0 -5.761538103827e-04 
1.170702144068e-04 -2.917551374595e-03 0.0 
-2.917551374595e-03 1.660101911363e-03 0.0 
0.0 0.0 -7.616451967584e-04 
-5.960830469200e-04 -1.478493121431e-03 0.0 
-1.478493121431e-03 2.390521820873e-03 0.0 
0.0 0.0 -7.690451888369e-04 
-7.193147455851e-04 -1.069003876046e-03 0.0 
-1.069003876046e-03 2.479314286133e-03 0.0 
0.0 0.0 -6.849754419779e-04 
-1.850126680382e-05 -3.140240111362e-03 0.0 
-3.140240111362e-03 2.040450553655e-03 0.0 
0.0 0.0 -8.665496943648e-04 
-8.517286139436e-04 -2.699031265188e-03 0.0 
-2.699031265188e-03 3.572094775893e-03 0.0 
0.0 0.0 -9.554846610150e-04 
4.589353224922e-04 4.780133673491e-03 0.0 
4.780133673491e-03 3.415968282574e-03 0.0 
0.0 0.0 -1.128610778606e-03 
2.048241490222e-03 -3.720980865806e-04 0.0 
-3.720980865806e-04 -5.439659454726e-04 0.0 
0.0 0.0 -1.765586882320e-04 
1.904598752126e-03 -2.281460786111e-03 0.0 
-2.281460786111e-03 -5.911469752392e-04 0.0 
0.0 0.0 -5.629079043802e-04 
9.457248714060e-04 -2.859194649623e-03 0.0 
-2.859194649623e-03 6.047505636496e-04 0.0 
0.0 0.0 -6.644894721667e-04 
2.064739481844e-04 -3.194226446081e-03 0.0 
-3.194226446081e-03 1.689929388459e-03 0.0 
0.0 0.0 -8.127442871328e-04 
-1.656928892650e-03 8.151295774597e-04 0.0 
8.151295774597e-04 6.399838907814e-03 0.0 
0.0 0.0 -9.344164207832e-04 
2.545948249673e-04 -3.270064507394e-03 0.0 
-3.270064507394e-03 1.662466157556e-03 0.0 
0.0 0.0 -8.215975639385e-04 
-6.717590179400e-04 -1.743398916895e-03 0.0 
-1.743398916895e-03 2.730040439290e-03 0.0 
0.0 0.0 -8.821206091502e-04 
2.940147133768e-04 -2.953116785718e-03 0.0 
-2.953116785718e-03 1.404914365559e-03 0.0 
0.0 0.0 -7.281124624012e-04 
-1.597640344519e-03 6.950049643667e-04 0.0 
6.950049643667e-04 7.352823299798e-03 0.0 
0.0 0.0 -1.080452943103e-03 
-7.063133806754e-04 -1.717335593378e-03 0.0 
-1.717335593378e-03 2.816704678048e-03 0.0 
0.0 0.0 -9.044534131596e-04 
-1.993759384210e-04 -8.715145545495e-04 0.0 
-8.715145545495e-04 1.025473523807e-03 0.0 
0.0 0.0 -3.540418223084e-04 
-3.396899465816e-04 -1.001666654583e-03 0.0 
-1.001666654583e-03 1.438762041900e-03 0.0 
0.0 0.0 -4.710308979937e-04 
8.199892085619e-04 -2.799788621547e-03 0.0 
-2.799788621547e-03 6.522727846800e-04 0.0 
0.0 0.0 -6.309694256751e-04 
9.078868863826e-06 -2.738074417405e-03 0.0 
-2.738074417405e-03 1.733216879781e-03 0.0 
0.0 0.0 -7.466981779905e-04 
1.103409613190e-03 -2.545332485906e-03 0.0 
-2.545332485906e-03 3.291592924430e-04 0.0 
0.0 0.0 -6.139581024142e-04 
4.609298661722e-04 -2.917080397583e-03 0.0 
-2.917080397583e-03 1.153463791195e-03 0.0 
0.0 0.0 -6.918829960147e-04 
6.174604848126e-04 -2.601794133831e-03 0.0 
-2.601794133831e-03 7.903429974379e-04 0.0 
0.0 0.0 -6.033443495359e-04 
-4.149645807323e-04 -9.518115957765e-04 0.0 
-9.518115957765e-04 1.570452979312e-03 0.0 
0.0 0.0 -4.579617190245e-04 
-1.800428115941e-03 6.964731656622e-04 0.0 
6.964731656622e-04 6.067707299324e-03 0.0 
0.0 0.0 -8.885078876198e-04 
-6.431842488821e-04 -1.481881899324e-03 0.0 
-1.481881899324e-03 2.527966751562e-03 0.0 
0.0 0.0 -8.077639297199e-04 
-3.542476587942e-04 -1.933324559496e-03 0.0 
-1.933324559496e-03 3.366073220137e-03 0.0 
0.0 0.0 -1.067401112627e-03 
9.623483373200e-04 5.030779233205e-03 0.0 
5.030779233205e-03 2.549465306129e-03 0.0 
0.0 0.0 -1.093380752811e-03 
-1.742519381031e-03 2.013539484841e-03 0.0 
2.013539484841e-03 5.514346305573e-03 0.0 
0.0 0.0 -9.013836717722e-04 
-1.638703746775e-03 1.447396884762e-03 0.0 
1.447396884762e-03 7.437681461836e-03 0.0 
0.0 0.0 -1.126084317643e-03 
2.419614061227e-05 4.515387511925e-03 0.0 
4.515387511925e-03 4.219133836672e-03 0.0 
0.0 0.0 -1.164310864388e-03 
7.291165706162e-03 3.221998945047e-03 0.0 
3.221998945047e-03 -5.931796207275e-03 0.0 
0.0 0.0 -5.825869280942e-04 
2.729202951818e-04 4.496173353645e-03 0.0 
4.496173353645e-03 2.860703916879e-03 0.0 
0.0 0.0 -1.029042339204e-03 
9.845026743479e-04 -3.000223110364e-03 0.0 
-3.000223110364e-03 4.820355227438e-04 0.0 
0.0 0.0 -6.285163701822e-04 
9.169108146704e-06 -3.021931346183e-03 0.0 
-3.021931346183e-03 1.914436153364e-03 0.0 
0.0 0.0 -8.244022549332e-04 
4.572782456167e-03 4.917555003264e-03 0.0 
4.917555003264e-03 -3.248626423064e-03 0.0 
0.0 0.0 -5.674954427585e-04 
4.377858643294e-03 -4.047272663347e-03 0.0 
-4.047272663347e-03 -2.672318607176e-03 0.0 
0.0 0.0 -7.309457297651e-04 
8.115117363057e-04 -2.741951264447e-03 0.0 
-2.741951264447e-03 6.655581968644e-04 0.0 
0.0 0.0 -6.330299713586e-04 
-4.450599208505e-04 -2.552111804523e-03 0.0 
-2.552111804523e-03 2.573524769895e-03 0.0 
0.0 0.0 -9.121992210190e-04 
7.181167573208e-04 -2.648058741041e-03 0.0 
-2.648058741041e-03 7.077719066917e-04 0.0 
0.0 0.0 -6.110951417196e-04 
8.603807904587e-04 -2.481932762305e-03 0.0 
-2.481932762305e-03 4.907815371097e-04 0.0 
0.0 0.0 -5.790695689579e-04 
-7.220048660239e-04 -1.343093892557e-03 0.0 
-1.343093892557e-03 2.702939106315e-03 0.0 
0.0 0.0 -8.489718172674e-04 
4.166245934909e-04 -3.209488587121e-03 0.0 
-3.209488587121e-03 1.389160896237e-03 0.0 
0.0 0.0 -7.739080670261e-04 
1.114854784544e-03 -2.143346907331e-03 0.0 
-2.143346907331e-03 1.093286044596e-04 0.0 
0.0 0.0 -5.246500238586e-04 
2.881920606410e-03 -1.954786187329e-03 0.0 
-1.954786187329e-03 -1.670719181578e-03 0.0 
0.0 0.0 -5.190863249281e-04 
-2.953118235534e-05 -2.621242279383e-03 0.0 
-2.621242279383e-03 1.729246141722e-03 0.0 
0.0 0.0 -7.284492682998e-04 
2.581314884183e-03 3.812499563142e-04 0.0 
3.812499563142e-04 -4.724243786484e-04 0.0 
0.0 0.0 -9.038102166577e-04 
-1.735518635242e-03 6.223275928078e-04 0.0 
6.223275928078e-04 6.851645939463e-03 0.0 
0.0 0.0 -9.984673180475e-04 
4.415599771408e-03 -1.513143377451e-03 0.0 
-1.513143377451e-03 -3.152582077088e-03 0.0 
0.0 0.0 -5.412932975660e-04 
-5.654229652914e-04 -1.684995955007e-03 0.0 
-1.684995955007e-03 3.940963543082e-03 0.0 
0.0 0.0 -1.133495712197e-03 
1.398246767021e-03 -3.216441844472e-03 0.0 
-3.216441844472e-03 9.154783719243e-05 0.0 
0.0 0.0 -6.384834018055e-04 
-4.962629005608e-04 -1.095466768301e-03 0.0 
-1.095466768301e-03 4.113562290535e-03 0.0 
0.0 0.0 -1.208505026952e-03 
7.869283801720e-04 -2.957311971993e-03 0.0 
-2.957311971993e-03 8.055017795032e-04 0.0 
0.0 0.0 -6.824700684322e-04 
-3.245747273790e-04 4.382516674153e-03 0.0 
4.382516674153e-03 5.025605065586e-03 0.0 
0.0 0.0 -1.203459118631e-03 
-1.226888468028e-03 3.131439724330e-03 0.0 
3.131439724330e-03 4.473148429932e-03 0.0 
0.0 0.0 -9.144069900286e-04 
8.146311757364e-04 -2.866044643526e-03 0.0 
-2.866044643526e-03 7.279520038073e-04 0.0 
0.0 0.0 -6.611070769473e-04 
-1.669436221743e-03 2.273068641771e-03 0.0 
2.273068641771e-03 5.485810747731e-03 0.0 
0.0 0.0 -9.292863832265e-04 
-1.634774651159e-03 1.926043724267e-03 0.0 
1.926043724267e-03 7.350223961808e-03 0.0 
0.0 0.0 -1.148369591821e-03 
9.266283371582e-04 -2.700818447501e-03 0.0 
-2.700818447501e-03 5.423083712424e-04 0.0 
0.0 0.0 -6.295443036003e-04 
3.164085595481e-03 5.631774240464e-03 0.0 
5.631774240464e-03 -1.590291494379e-03 0.0 
0.0 0.0 -6.744831861864e-04 
-1.574055992192e-03 2.506613091125e-03 0.0 
2.506613091125e-03 5.429733742182e-03 0.0 
0.0 0.0 -9.572423940436e-04 
2.854544962602e-04 3.387779940859e-03 0.0 
3.387779940859e-03 1.684164012646e-03 0.0 
0.0 0.0 -8.441222181028e-04 
6.686313295052e-04 -2.714647588195e-03 0.0 
-2.714647588195e-03 7.978373867195e-04 0.0 
0.0 0.0 -6.284865926677e-04 
-1.493705396886e-03 1.751261100369e-03 0.0 
1.751261100369e-03 8.145178326217e-03 0.0 
0.0 0.0 -1.259077240559e-03 
2.909241618845e-04 -2.201062680806e-03 0.0 
-2.201062680806e-03 9.491865650592e-04 0.0 
0.0 0.0 -5.314760258330e-04 
9.088638380854e-05 8.951161707216e-04 0.0 
8.951161707216e-04 3.361991655505e-03 0.0 
0.0 0.0 -1.194426649262e-03 
-1.554233915862e-03 9.163364700516e-04 0.0 
9.163364700516e-04 7.887220632938e-03 0.0 
0.0 0.0 -1.175981821618e-03 
2.022439764632e-03 -3.001165140772e-04 0.0 
-3.001165140772e-04 2.787278186572e-04 0.0 
0.0 0.0 -9.862146785524e-04 
-1.631602720906e-03 6.968439340323e-04 0.0 
6.968439340323e-04 6.226177705545e-03 0.0 
0.0 0.0 -9.041796124736e-04 
-1.724067531766e-03 9.331717393615e-04 0.0 
9.331717393615e-04 7.373782435820e-03 0.0 
0.0 0.0 -1.094228678348e-03 
1.822794288591e-03 -2.136954394612e-03 0.0 
-2.136954394612e-03 -6.485809131103e-04 0.0 
0.0 0.0 -5.032343037776e-04 
5.721578239997e-03 1.783364582115e-03 0.0 
1.783364582115e-03 -4.610114630101e-03 0.0 
0.0 0.0 -4.763415470983e-04 
-1.569811974871e-03 1.587727422304e-03 0.0 
1.587727422304e-03 7.784527269149e-03 0.0 
0.0 0.0 -1.191782302182e-03 
-9.330696091187e-04 -2.330125100931e-03 0.0 
-2.330125100931e-03 4.026828994110e-03 0.0 
0.0 0.0 -1.021464098896e-03 
-1.750430558126e-03 7.997395592586e-04 0.0 
7.997395592586e-04 6.994945578504e-03 0.0 
0.0 0.0 -1.028225029406e-03 
1.832255957474e-03 -1.362604584918e-03 0.0 
-1.362604584918e-03 3.311875292820e-04 0.0 
0.0 0.0 -9.271900657526e-04 
1.226199290364e-03 -3.133713578343e-03 0.0 
-3.133713578343e-03 4.720804484946e-04 0.0 
0.0 0.0 -7.278341737966e-04 
-1.755813224466e-03 9.900590192067e-04 0.0 
9.900590192067e-04 7.121505765451e-03 0.0 
0.0 0.0 -1.057861461704e-03 
-5.842051282666e-04 3.641816422339e-03 0.0 
3.641816422339e-03 5.409260181851e-03 0.0 
0.0 0.0 -1.268085107495e-03 
-8.098027228146e-04 -1.517662878241e-03 0.0 
-1.517662878241e-03 4.547334409745e-03 0.0 
0.0 0.0 -1.202195648613e-03 
7.610076650519e-05 -3.235453866840e-03 0.0 
-3.235453866840e-03 1.932455716982e-03 0.0 
0.0 0.0 -8.608099214947e-04 
-1.689275270792e-03 3.359122450795e-04 0.0 
3.359122450795e-04 6.273459191033e-03 0.0 
0.0 0.0 -9.020111041354e-04 
-1.632588233776e-03 6.974904632293e-04 0.0 
6.974904632293e-04 5.987209936235e-03 0.0 
0.0 0.0 -8.677534307045e-04 
6.088392128265e-04 -2.822537476632e-03 0.0 
-2.822537476632e-03 9.202084504230e-04 0.0 
0.0 0.0 -6.553061413926e-04 
-6.443122983676e-04 -2.499706879338e-03 0.0 
-2.499706879338e-03 3.462729029903e-03 0.0 
0.0 0.0 -9.927925938930e-04 
-4.755079025855e-04 -2.238751106190e-03 0.0 
-2.238751106190e-03 3.389731406328e-03 0.0 
0.0 0.0 -1.030113165296e-03 
-2.437047899643e-04 -1.231397142334e-03 0.0 
-1.231397142334e-03 1.345917923955e-03 0.0 
0.0 0.0 -4.426674065645e-04 
6.241756817963e-03 3.905517832704e-03 0.0 
3.905517832704e-03 -4.705573929903e-03 0.0 
0.0 0.0 -6.583640948828e-04 
5.461621244410e-03 -5.569242242943e-04 0.0 
-5.569242242943e-04 -4.260598066027e-03 0.0 
0.0 0.0 -5.147242193072e-04 
3.149334611375e-03 -2.072763949980e-03 0.0 
-2.072763949980e-03 -2.028444990076e-03 0.0 
0.0 0.0 -4.803812662711e-04 
1.683589190063e-03 4.270916839968e-03 0.0 
4.270916839968e-03 -6.178105866302e-05 0.0 
0.0 0.0 -6.950606277428e-04 
-1.594047644543e-03 1.198778980109e-03 0.0 
1.198778980109e-03 8.076345274144e-03 0.0 
0.0 0.0 -1.225426844749e-03 
-1.544957883650e-03 2.714187828761e-03 0.0 
2.714187828761e-03 6.803087963728e-03 0.0 
0.0 0.0 -1.162686153705e-03 
-1.603786220280e-03 5.743670581703e-04 0.0 
5.743670581703e-04 7.933574954986e-03 0.0 
0.0 0.0 -1.173632101657e-03 
-3.176362262569e-04 3.157680560962e-03 0.0 
3.157680560962e-03 2.644961507973e-03 0.0 
0.0 0.0 -9.922833334649e-04 
-1.686655624371e-03 1.762581410411e-03 0.0 
1.762581410411e-03 7.001695775819e-03 0.0 
0.0 0.0 -1.082713561900e-03 
-8.312311815285e-04 -2.893135141048e-03 0.0 
-2.893135141048e-03 3.527094208899e-03 0.0 
0.0 0.0 -1.005652543148e-03 
-1.566323459329e-03 1.337573114455e-03 0.0 
1.337573114455e-03 7.933955714899e-03 0.0 
0.0 0.0 -1.198415070424e-03 
-1.781797660459e-03 1.042297273604e-03 0.0 
1.042297273604e-03 6.860193468522e-03 0.0 
0.0 0.0 -1.021631336281e-03 
1.651541321597e-04 -3.069309819670e-03 0.0 
-3.069309819670e-03 1.677218775847e-03 0.0 
0.0 0.0 -7.895883891459e-04 
6.962117777284e-03 5.056573276312e-04 0.0 
5.056573276312e-04 -5.562115170275e-03 0.0 
0.0 0.0 -6.000011172896e-04 
-1.678629276342e-03 1.301261135869e-03 0.0 
1.301261135869e-03 7.071604861536e-03 0.0 
0.0 0.0 -1.060111126929e-03 
-1.674561038714e-03 1.060445620383e-03 0.0 
1.060445620383e-03 7.740408073351e-03 0.0 
0.0 0.0 -1.160283895044e-03 
-1.648358362413e-03 1.080960708592e-03 0.0 
1.080960708592e-03 7.188263314287e-03 0.0 
0.0 0.0 -1.066842251349e-03 
-1.675485628863e-03 1.117801916471e-03 0.0 
1.117801916471e-03 6.945334177936e-03 0.0 
0.0 0.0 -1.030428295937e-03 
-9.047694827226e-04 -1.891564198184e-03 0.0 
-1.891564198184e-03 4.463027696646e-03 0.0 
0.0 0.0 -1.124756152480e-03 
3.623185445135e-04 1.403612850528e-03 0.0 
1.403612850528e-03 2.962648993814e-03 0.0 
0.0 0.0 -1.167530213646e-03 
-6.417903686716e-04 -1.936633603608e-03 0.0 
-1.936633603608e-03 3.924941189051e-03 0.0 
0.0 0.0 -1.096139997395e-03 
-6.252750457425e-04 -2.981929184320e-03 0.0 
-2.981929184320e-03 3.101913023538e-03 0.0 
0.0 0.0 -9.455690924112e-04 
-8.860364421343e-04 2.914254130780e-03 0.0 
2.914254130780e-03 3.360988534567e-03 0.0 
0.0 0.0 -8.706649152390e-04 
1.729018704486e-03 3.019820209560e-04 0.0 
3.019820209560e-04 8.181742871020e-04 0.0 
0.0 0.0 -1.057160997780e-03 
-1.717096850446e-03 1.897490647652e-03 0.0 
1.897490647652e-03 6.421227655064e-03 0.0 
0.0 0.0 -1.010795753303e-03 
-6.313703935138e-04 -1.096821766549e-03 0.0 
-1.096821766549e-03 2.333660856895e-03 0.0 
0.0 0.0 -7.295530557346e-04 
4.274242558537e-03 -1.453286418674e-03 0.0 
-1.453286418674e-03 -3.155532035656e-03 0.0 
0.0 0.0 -4.794473669488e-04 
3.462616857812e-03 -1.210061364513e-03 0.0 
-1.210061364513e-03 -2.368867805232e-03 0.0 
0.0 0.0 -4.687495939627e-04 
4.481486035100e-03 1.561969011958e-03 0.0 
1.561969011958e-03 -3.051372088515e-03 0.0 
0.0 0.0 -6.129059771076e-04 
5.717546317109e-03 -1.659487624399e-03 0.0 
-1.659487624399e-03 -4.326414248936e-03 0.0 
0.0 0.0 -5.961994577885e-04 
5.896078608204e-03 -6.863603300239e-04 0.0 
-6.863603300239e-04 -4.546614327333e-03 0.0 
0.0 0.0 -5.783418346592e-04 
3.274412678211e-03 1.248226914609e-03 0.0 
1.248226914609e-03 -1.322254426420e-03 0.0 
0.0 0.0 -8.366392507678e-04 
-8.479776809358e-04 2.867626528881e-03 0.0 
2.867626528881e-03 3.485177703647e-03 0.0 
0.0 0.0 -9.312627088267e-04 
-1.048673303190e-04 -3.229543423404e-03 0.0 
-3.229543423404e-03 2.260338218226e-03 0.0 
0.0 0.0 -9.237732376742e-04 
-1.787010102696e-03 8.860662194747e-04 0.0 
8.860662194747e-04 6.472161902549e-03 0.0 
0.0 0.0 -9.556638187253e-04 
-1.534511977861e-03 4.226734842399e-04 0.0 
4.226734842399e-04 5.386267654424e-03 0.0 
0.0 0.0 -7.638029664831e-04 
-1.207128014060e-03 1.416928010164e-02 0.0 
1.416928010164e-02 2.143084897545e-03 0.0 
0.0 0.0 -4.011243786367e-04 
-2.485044760615e-04 -3.138222606519e-03 0.0 
-3.138222606519e-03 2.491915244985e-03 0.0 
0.0 0.0 -9.614617581101e-04 
1.732048436264e-03 -8.860816674029e-05 0.0 
-8.860816674029e-05 7.401615375058e-04 0.0 
0.0 0.0 -1.051835763028e-03 
-1.541512456067e-03 2.665389691955e-03 0.0 
2.665389691955e-03 7.146978989113e-03 0.0 
0.0 0.0 -1.196871286280e-03 
6.194107493628e-03 1.702303482305e-03 0.0 
1.702303482305e-03 -5.176364496112e-03 0.0 
0.0 0.0 -4.361755703639e-04 
-3.379696423289e-04 -3.147707957552e-03 0.0 
-3.147707957552e-03 2.662191701970e-03 0.0 
0.0 0.0 -9.747355338013e-04 
-1.758283285419e-03 6.606645787396e-04 0.0 
6.606645787396e-04 6.605527542412e-03 0.0 
0.0 0.0 -9.620958722924e-04 
-7.393286578820e-04 1.121551623893e-02 0.0 
1.121551623893e-02 1.809089032534e-03 0.0 
0.0 0.0 -4.584687319938e-04 
2.171982147199e-03 4.855628553105e-04 0.0 
4.855628553105e-04 3.879874649898e-05 0.0 
0.0 0.0 -9.474775258707e-04 
4.680446094331e-03 5.558019867967e-04 0.0 
5.558019867967e-04 -3.623977225817e-03 0.0 
0.0 0.0 -4.527723722201e-04 
-1.123050040693e-03 2.722320328238e-03 0.0 
2.722320328238e-03 3.963607121214e-03 0.0 
0.0 0.0 -8.880452441695e-04 
-6.861996964777e-04 -2.718033399413e-03 0.0 
-2.718033399413e-03 3.467552900927e-03 0.0 
0.0 0.0 -1.027225276160e-03 
2.875761835797e-03 -3.689419293571e-03 0.0 
-3.689419293571e-03 -1.433871161449e-03 0.0 
0.0 0.0 -6.179531461491e-04 
-5.320903479306e-04 -2.451811030805e-03 0.0 
-2.451811030805e-03 3.446359028726e-03 0.0 
0.0 0.0 -1.064556537081e-03 
-4.536291019318e-04 -1.395426111529e-03 0.0 
-1.395426111529e-03 3.920979666442e-03 0.0 
0.0 0.0 -1.170878753521e-03 
2.646634156089e-03 1.174476464656e-03 0.0 
1.174476464656e-03 -6.937008059218e-04 0.0 
0.0 0.0 -8.369714357860e-04 
-1.720938074938e-03 7.528205405103e-04 0.0 
7.528205405103e-04 7.239876321155e-03 0.0 
0.0 0.0 -1.064574987933e-03 
1.511108478914e-03 4.201033490241e-03 0.0 
4.201033490241e-03 1.868332805805e-03 0.0 
0.0 0.0 -1.082686220397e-03 
-6.278749381159e-04 -1.931446236287e-03 0.0 
-1.931446236287e-03 4.088424354687e-03 0.0 
0.0 0.0 -1.168035910845e-03 
-5.161050711203e-04 7.832065853998e-03 0.0 
7.832065853998e-03 1.609590645613e-03 0.0 
0.0 0.0 -4.686366747828e-04 
-1.772766923136e-03 8.481702159287e-04 0.0 
8.481702159287e-04 6.740907635403e-03 0.0 
0.0 0.0 -9.919185416031e-04 
2.783720782130e-04 2.217214821568e-03 0.0 
2.217214821568e-03 3.211253682154e-03 0.0 
0.0 0.0 -1.173906618061e-03 
-1.648981142695e-03 1.259232254070e-03 0.0 
1.259232254070e-03 7.322595481216e-03 0.0 
0.0 0.0 -1.096489272820e-03 
3.724770780091e-03 1.412162166342e-03 0.0 
1.412162166342e-03 -2.303344093367e-03 0.0 
0.0 0.0 -6.091828657388e-04 
6.665364151123e-03 5.958812160779e-04 0.0 
5.958812160779e-04 -5.372819292891e-03 0.0 
0.0 0.0 -5.539477963855e-04 
-1.116067155649e-03 -2.250326754200e-03 0.0 
-2.250326754200e-03 3.947993630682e-03 0.0 
0.0 0.0 -1.025516461270e-03 
3.686087208639e-03 8.525061791166e-04 0.0 
8.525061791166e-04 -3.475298863295e-03 0.0 
0.0 0.0 -9.033786229011e-05 
-1.613458135025e-03 1.210057674443e-03 0.0 
1.210057674443e-03 7.562124248112e-03 0.0 
0.0 0.0 -1.132911322290e-03 
-7.377235371559e-04 -9.591054036843e-04 0.0 
-9.591054036843e-04 2.612387194917e-03 0.0 
0.0 0.0 -8.013069569330e-04 
-7.883204894790e-04 7.436510901440e-03 0.0 
7.436510901440e-03 2.005168946450e-03 0.0 
0.0 0.0 -5.215064815592e-04 
1.785471531315e-03 4.975880955960e-03 0.0 
4.975880955960e-03 1.562451374638e-03 0.0 
0.0 0.0 -1.054483161448e-03 
-1.538001914897e-03 1.084053552084e-03 0.0 
1.084053552084e-03 8.041309965801e-03 0.0 
0.0 0.0 -1.206783194404e-03 
1.727844094968e-03 -3.343181964838e-03 0.0 
-3.343181964838e-03 -2.401420928011e-04 0.0 
0.0 0.0 -6.375865723574e-04 
-2.167964077171e-04 3.747756050696e-03 0.0 
3.747756050696e-03 2.648111889763e-03 0.0 
0.0 0.0 -9.072936044704e-04 
-1.701887886532e-03 1.344630388867e-03 0.0 
1.344630388867e-03 6.812020791196e-03 0.0 
0.0 0.0 -1.023814440555e-03 
-4.458873681724e-04 -2.966430795108e-03 0.0 
-2.966430795108e-03 2.822625691825e-03 0.0 
0.0 0.0 -1.018602138708e-03 
5.362363074904e-03 -3.493720299658e-03 0.0 
-3.493720299658e-03 -3.951589492688e-03 0.0 
0.0 0.0 -6.046172495213e-04 
3.394270185103e-03 5.560520525954e-03 0.0 
5.560520525954e-03 -1.982423003145e-03 0.0 
0.0 0.0 -6.050773636963e-04 
9.159182720240e-04 -2.840057079041e-03 0.0 
-2.840057079041e-03 6.236111220924e-04 0.0 
0.0 0.0 -6.597983117642e-04 
2.777518521130e-03 -3.641003744584e-03 0.0 
-3.641003744584e-03 -1.102854306859e-03 0.0 
0.0 0.0 -7.177132346876e-04 
1.648220485470e-03 -3.321848158051e-03 0.0 
-3.321848158051e-03 2.024080431041e-04 0.0 
0.0 0.0 -7.931265122463e-04 
4.990369343937e-03 1.578404945264e-03 0.0 
1.578404945264e-03 -3.982171813252e-03 0.0 
0.0 0.0 -4.320846560080e-04 
-1.468520801646e-03 2.285525207987e-03 0.0 
2.285525207987e-03 8.442456052557e-03 0.0 
0.0 0.0 -1.324146187827e-03 
-9.093473862093e-04 6.795589616284e-03 0.0 
6.795589616284e-03 2.490771667030e-03 0.0 
0.0 0.0 -6.777532632091e-04 
-1.125863067977e-03 -1.827974217199e-03 0.0 
-1.827974217199e-03 4.964930907455e-03 0.0 
0.0 0.0 -1.153422328581e-03 
7.651519932860e-03 3.282743365342e-03 0.0 
3.282743365342e-03 -6.083083710093e-03 0.0 
0.0 0.0 -6.721869526144e-04 
-1.802402553613e-03 1.096854962503e-03 0.0 
1.096854962503e-03 6.595527473872e-03 0.0 
0.0 0.0 -9.856407671940e-04 
4.411623580437e-03 4.760443020071e-04 0.0 
4.760443020071e-04 -3.658479011856e-03 0.0 
0.0 0.0 -3.227762436777e-04 
-6.307118357170e-04 -1.642290149673e-03 0.0 
-1.642290149673e-03 4.191316448183e-03 0.0 
0.0 0.0 -1.206759618350e-03 
1.281188306004e-03 -3.309115169896e-03 0.0 
-3.309115169896e-03 2.482805933930e-04 0.0 
0.0 0.0 -6.554866711701e-04 
-8.580919722625e-04 -1.141606507875e-03 0.0 
-1.141606507875e-03 3.004910753851e-03 0.0 
0.0 0.0 -8.925927511852e-04 
2.148021451947e-03 1.662975500671e-03 0.0 
1.662975500671e-03 8.442605328212e-05 0.0 
0.0 0.0 -9.567632165269e-04 
9.810193940895e-04 -2.270636417532e-03 0.0 
-2.270636417532e-03 2.960510298287e-04 0.0 
0.0 0.0 -5.473158959650e-04 
7.293786644319e-04 2.000040610190e-03 0.0 
2.000040610190e-03 2.516557423993e-03 0.0 
0.0 0.0 -1.139062866688e-03 
1.562915845644e-03 5.123819457855e-03 0.0 
5.123819457855e-03 1.141090495256e-04 0.0 
0.0 0.0 -7.187249550728e-04 
-1.786253758345e-03 1.560633333520e-03 0.0 
1.560633333520e-03 6.766601134335e-03 0.0 
0.0 0.0 -1.044446328659e-03 
7.726688346072e-07 1.454813541146e-03 0.0 
1.454813541146e-03 3.270311833695e-03 0.0 
0.0 0.0 -1.198892520503e-03 
-1.697142570711e-03 1.154161816812e-03 0.0 
1.154161816812e-03 6.693519511439e-03 0.0 
0.0 0.0 -9.940794652285e-04 
-1.618144651602e-03 2.389450829648e-03 0.0 
2.389450829648e-03 7.197343605865e-03 0.0 
0.0 0.0 -1.194784139986e-03 
-1.753520328123e-03 1.193661618907e-03 0.0 
1.193661618907e-03 7.230580119665e-03 0.0 
0.0 0.0 -1.087318097122e-03 
-1.742396685637e-03 1.406428765971e-03 0.0 
1.406428765971e-03 7.327343743658e-03 0.0 
0.0 0.0 -1.116677092124e-03 
5.434777256622e-03 6.928907024277e-03 0.0 
6.928907024277e-03 -4.078974822493e-03 0.0 
0.0 0.0 -5.810581860557e-04 
-1.241644556097e-03 -1.898381689041e-03 0.0 
-1.898381689041e-03 4.975895501890e-03 0.0 
0.0 0.0 -1.115908039155e-03 
-1.698919862003e-03 1.546534393052e-03 0.0 
1.546534393052e-03 6.917732160494e-03 0.0 
0.0 0.0 -1.053364550114e-03 
6.014952090483e-03 4.680990306148e-03 0.0 
4.680990306148e-03 -4.823538645264e-03 0.0 
0.0 0.0 -5.106057622367e-04 
-1.058117690787e-03 6.433710791646e-03 0.0 
6.433710791646e-03 3.054971969362e-03 0.0 
0.0 0.0 -8.209451439681e-04 
-3.870197372729e-04 1.172821281979e-03 0.0 
1.172821281979e-03 4.013530659993e-03 0.0 
0.0 0.0 -1.232292820449e-03 
5.994039140436e-03 2.132234449557e-03 0.0 
2.132234449557e-03 -4.577940349172e-03 0.0 
0.0 0.0 -6.068994819702e-04 
-7.856974671747e-04 -1.309919738143e-03 0.0 
-1.309919738143e-03 2.807619278170e-03 0.0 
0.0 0.0 -8.201145810434e-04 
1.096103453013e-03 2.320365528360e-03 0.0 
2.320365528360e-03 1.696307532100e-03 0.0 
0.0 0.0 -1.105063927110e-03 
-5.498435488182e-04 -4.730876582085e-06 0.0 
-4.730876582085e-06 1.808689400451e-03 0.0 
0.0 0.0 -3.231071520192e-04 
2.235722049793e-03 4.999065881326e-03 0.0 
4.999065881326e-03 -3.494020264924e-04 0.0 
0.0 0.0 -8.084228671290e-04 
1.754624229837e-03 9.799901924702e-04 0.0 
9.799901924702e-04 6.874424366475e-04 0.0 
0.0 0.0 -1.046599999922e-03 
-1.677286885825e-03 1.562425953110e-03 0.0 
1.562425953110e-03 7.659770185164e-03 0.0 
0.0 0.0 -1.181155146799e-03 
-1.652320647354e-03 1.808826218554e-03 0.0 
1.808826218554e-03 7.744329424571e-03 0.0 
0.0 0.0 -1.210943746944e-03 
2.211927815468e-03 9.625681669783e-04 0.0 
9.625681669783e-04 2.145667621167e-04 0.0 
0.0 0.0 -1.028825005900e-03 
-1.718024774256e-03 1.129889074764e-03 0.0 
1.129889074764e-03 7.489751701523e-03 0.0 
0.0 0.0 -1.123737208958e-03 
6.982088401719e-03 4.230397923044e-03 0.0 
4.230397923044e-03 -5.514352477975e-03 0.0 
0.0 0.0 -6.290296816045e-04 
1.174239071494e-04 4.079552582391e-03 0.0 
4.079552582391e-03 3.542338454374e-03 0.0 
0.0 0.0 -1.062452857821e-03 
-1.433902407813e-03 6.591580324987e-03 0.0 
6.591580324987e-03 3.710981056270e-03 0.0 
0.0 0.0 -7.769695025612e-04 
-1.390466882155e-03 3.112822277328e-03 0.0 
3.112822277328e-03 6.316045090648e-03 0.0 
0.0 0.0 -1.181751882508e-03 
-2.077722250482e-03 7.220578671296e-03 0.0 
7.220578671296e-03 4.662952758374e-03 0.0 
0.0 0.0 -7.538120163098e-04 
-2.587447154918e-03 7.111315558103e-03 0.0 
7.111315558103e-03 5.328263373150e-03 0.0 
0.0 0.0 -7.332406657776e-04 
7.065827140145e-03 2.959182742865e-03 0.0 
2.959182742865e-03 -5.940935531704e-03 0.0 
0.0 0.0 -4.820964036177e-04 
-3.100497958783e-03 5.109517453366e-03 0.0 
5.109517453366e-03 6.014650909721e-03 0.0 
0.0 0.0 -7.361032999402e-04 
3.667913565961e-03 5.497123991392e-03 0.0 
5.497123991392e-03 -1.679893653369e-03 0.0 
0.0 0.0 -8.520085339679e-04 
4.271617596844e-03 5.059010742462e-03 0.0 
5.059010742462e-03 -2.745131297237e-03 0.0 
0.0 0.0 -6.542084141176e-04 
5.243051915101e-03 -4.917789947483e-04 0.0 
-4.917789947483e-04 -4.156185268369e-03 0.0 
0.0 0.0 -4.657999914567e-04 
5.123910765905e-03 -3.296533801932e-03 0.0 
-3.296533801932e-03 -3.707503137386e-03 0.0 
0.0 0.0 -6.070318407937e-04 
7.286563225045e-03 1.813534657949e-03 0.0 
1.813534657949e-03 -6.011394864578e-03 0.0 
0.0 0.0 -5.465007259145e-04 
-1.601167176657e-03 1.396089815657e-03 0.0 
1.396089815657e-03 7.688892179250e-03 0.0 
0.0 0.0 -1.162517914204e-03 
-1.471528092625e-03 3.001207936412e-03 0.0 
3.001207936412e-03 6.831752371077e-03 0.0 
0.0 0.0 -1.195263893373e-03 
-1.182311321110e-03 -2.133379308242e-03 0.0 
-2.133379308242e-03 4.544787139884e-03 0.0 
0.0 0.0 -1.050100468764e-03 
2.867377163037e-04 1.958427865051e-03 0.0 
1.958427865051e-03 2.872672972711e-03 0.0 
0.0 0.0 -1.170266998156e-03 
1.616170720091e-03 -2.226596050104e-03 0.0 
-2.226596050104e-03 -3.079203938151e-04 0.0 
0.0 0.0 -5.606787112612e-04 
-1.656719624483e-03 1.711448335042e-03 0.0 
1.711448335042e-03 7.275839845738e-03 0.0 
0.0 0.0 -1.119019617531e-03 
6.101914852514e-03 5.861463853161e-04 0.0 
5.861463853161e-04 -4.990463143571e-03 0.0 
0.0 0.0 -4.763364466896e-04 
-1.407406798469e-03 -1.723847992245e-03 0.0 
-1.723847992245e-03 5.419782439974e-03 0.0 
0.0 0.0 -1.144395376583e-03 
-1.671654625585e-03 1.497806515934e-03 0.0 
1.497806515934e-03 7.180003972529e-03 0.0 
0.0 0.0 -1.089631904438e-03 
-1.769810542863e-03 1.479525562214e-03 0.0 
1.479525562214e-03 7.051291447038e-03 0.0 
0.0 0.0 -1.080451501872e-03 
3.021469595454e-03 5.313763426868e-04 0.0 
5.313763426868e-04 -1.320567618833e-03 0.0 
0.0 0.0 -7.289579899807e-04 
7.657103726158e-03 3.135191434255e-03 0.0 
3.135191434255e-03 -6.252485459148e-03 0.0 
0.0 0.0 -6.019792572901e-04 
7.605495528492e-04 4.679747718696e-03 0.0 
4.679747718696e-03 3.237409970264e-03 0.0 
0.0 0.0 -1.126038590206e-03 
-1.241437732375e-03 3.272568664608e-03 0.0 
3.272568664608e-03 4.414773958175e-03 0.0 
0.0 0.0 -9.324202963083e-04 
4.470544905395e-03 -4.515473452513e-03 0.0 
-4.515473452513e-03 -3.066888684921e-03 0.0 
0.0 0.0 -6.015669516317e-04 
5.780428290282e-03 -2.211370178278e-04 0.0 
-2.211370178278e-04 -4.311034811460e-03 0.0 
0.0 0.0 -6.297400623524e-04 
1.911273101869e-03 4.694082432711e-03 0.0 
4.694082432711e-03 -4.955641007787e-04 0.0 
0.0 0.0 -6.067324290386e-04 
-1.563287978713e-04 3.620132007229e-03 0.0 
3.620132007229e-03 2.581411168791e-03 0.0 
0.0 0.0 -1.015946800258e-03 
-1.534351365184e-03 -1.516799222336e-03 0.0 
-1.516799222336e-03 5.828494836448e-03 0.0 
0.0 0.0 -1.173545322487e-03 
-1.782237154873e-03 1.254534813549e-03 0.0 
1.254534813549e-03 6.967044995053e-03 0.0 
0.0 0.0 -1.051102540299e-03 
7.558404984424e-03 1.895689129907e-03 0.0 
1.895689129907e-03 -6.086337238280e-03 0.0 
0.0 0.0 -6.308861769187e-04 
-4.283322367478e-04 3.785938910099e-03 0.0 
3.785938910099e-03 3.385810629183e-03 0.0 
0.0 0.0 -9.344940742331e-04 
1.395143173019e-03 4.455658030389e-04 0.0 
4.455658030389e-04 1.269722288803e-03 0.0 
0.0 0.0 -1.088599101970e-03 
-1.685240832100e-03 8.774447861184e-04 0.0 
8.774447861184e-04 7.615424303421e-03 0.0 
0.0 0.0 -1.130578931274e-03 
2.715036191969e-04 4.531241473664e-03 0.0 
4.531241473664e-03 4.046741916357e-03 0.0 
0.0 0.0 -1.160781586281e-03 
-1.731537587415e-03 1.425159992310e-03 0.0 
1.425159992310e-03 6.282505969900e-03 0.0 
0.0 0.0 -9.517943393003e-04 
6.604185741000e-04 -8.953963342612e-04 0.0 
-8.953963342612e-04 2.300085318222e-03 0.0 
0.0 0.0 -1.113435711030e-03 
5.757780551056e-03 6.353263868028e-04 0.0 
6.353263868028e-04 -4.669257539763e-03 0.0 
0.0 0.0 -4.665098619825e-04 
1.283138128020e-03 -2.606965620155e-04 0.0 
-2.606965620155e-04 1.419296588247e-03 0.0 
0.0 0.0 -1.086118700983e-03 
1.742632520972e-03 4.508726147807e-03 0.0 
4.508726147807e-03 9.783960909209e-06 0.0 
0.0 0.0 -7.510356350920e-04 
-1.659468944553e-03 1.282087032836e-03 0.0 
1.282087032836e-03 7.843512833905e-03 0.0 
0.0 0.0 -1.188704642750e-03 
-1.266974202545e-04 4.246805978440e-03 0.0 
4.246805978440e-03 4.859853680189e-03 0.0 
0.0 0.0 -1.200489323427e-03 
4.029250206353e-03 5.628092521054e-04 0.0 
5.628092521054e-04 -2.879914830066e-03 0.0 
0.0 0.0 -4.925723041230e-04 
5.398395678377e-03 2.833418391625e-04 0.0 
2.833418391625e-04 -4.199807963192e-03 0.0 
0.0 0.0 -5.136804493649e-04 
8.918297465370e-04 3.829120203667e-03 0.0 
3.829120203667e-03 2.308222976758e-03 0.0 
0.0 0.0 -1.113685640909e-03 
2.467464615241e-03 5.341238156554e-03 0.0 
5.341238156554e-03 -4.525031781502e-04 0.0 
0.0 0.0 -8.635549016102e-04 
7.457246652937e-03 3.229765644821e-03 0.0 
3.229765644821e-03 -5.842834135490e-03 0.0 
0.0 0.0 -6.918910789057e-04 
3.577169278456e-03 4.865499686812e-04 0.0 
4.865499686812e-04 -1.984660535507e-03 0.0 
0.0 0.0 -6.825037469783e-04 
1.016630646497e-04 -2.028627052494e-03 0.0 
-2.028627052494e-03 2.687320292550e-03 0.0 
0.0 0.0 -1.072977024862e-03 
5.350643288682e-03 -2.021885222245e-03 0.0 
-2.021885222245e-03 -4.089664236143e-03 0.0 
0.0 0.0 -5.404195939453e-04 
5.109644854952e-03 5.733348329061e-04 0.0 
5.733348329061e-04 -4.109820588255e-03 0.0 
0.0 0.0 -4.284961142987e-04 
-1.564398244357e-03 2.691343570358e-03 0.0 
2.691343570358e-03 5.384100406286e-03 0.0 
0.0 0.0 -9.596127204057e-04 
-1.615413359891e-03 -1.869412921893e-03 0.0 
-1.869412921893e-03 5.891470981236e-03 0.0 
0.0 0.0 -1.170838755190e-03 
-1.469366754309e-03 2.906743993666e-03 0.0 
2.906743993666e-03 5.300260062947e-03 0.0 
0.0 0.0 -9.876491701490e-04 
1.276505155705e-03 4.571510330358e-03 0.0 
4.571510330358e-03 1.897170276608e-03 0.0 
0.0 0.0 -1.085374163265e-03 
-1.640677092253e-03 2.445403796559e-03 0.0 
2.445403796559e-03 5.441088956569e-03 0.0 
0.0 0.0 -9.316602363005e-04 
-1.740388366318e-03 1.924888427331e-03 0.0 
1.924888427331e-03 5.465143202308e-03 0.0 
0.0 0.0 -8.756372412555e-04 
-1.133390563237e-03 3.456670762875e-03 0.0 
3.456670762875e-03 4.264491800942e-03 0.0 
0.0 0.0 -9.452931837154e-04 
7.447454161907e-04 1.715335991499e-03 0.0 
1.715335991499e-03 2.168480226696e-03 0.0 
0.0 0.0 -1.133505030480e-03 
-1.184151913809e-03 -2.442035502192e-03 0.0 
-2.442035502192e-03 4.566403913145e-03 0.0 
0.0 0.0 -1.084522140297e-03 
-1.719906891250e-03 1.595024504340e-03 0.0 
1.595024504340e-03 6.646342255881e-03 0.0 
0.0 0.0 -1.017300281410e-03 
-1.572744207127e-03 2.077724400643e-03 0.0 
2.077724400643e-03 7.699948884985e-03 0.0 
0.0 0.0 -1.212886757924e-03 
-1.697994519952e-03 2.183604815945e-03 0.0 
2.183604815945e-03 5.469670954577e-03 0.0 
0.0 0.0 -9.037302385344e-04 
7.412866391200e-03 1.672563660099e-03 0.0 
1.672563660099e-03 -5.658925059343e-03 0.0 
0.0 0.0 -7.516891422245e-04 
6.283196706405e-04 3.492706756313e-03 0.0 
3.492706756313e-03 3.082097581758e-03 0.0 
0.0 0.0 -1.146733564437e-03 
-1.623397737588e-03 9.830618757015e-04 0.0 
9.830618757015e-04 7.977997106224e-03 0.0 
0.0 0.0 -1.196744929305e-03 
3.805485812374e-03 4.972419587765e-03 0.0 
4.972419587765e-03 -2.380949459297e-03 0.0 
0.0 0.0 -6.105155798904e-04 
2.872513797312e-03 5.005346846620e-03 0.0 
5.005346846620e-03 -1.226139202959e-03 0.0 
0.0 0.0 -7.055891118657e-04 
7.720379010336e-03 1.783469205349e-03 0.0 
1.783469205349e-03 -6.003388393388e-03 0.0 
0.0 0.0 -7.358531215491e-04 
-1.707025994169e-03 1.825045050910e-03 0.0 
1.825045050910e-03 6.718430060264e-03 0.0 
0.0 0.0 -1.046609947212e-03 
1.285120213061e-04 3.160317099540e-03 0.0 
3.160317099540e-03 1.795393702842e-03 0.0 
0.0 0.0 -8.245310246349e-04 
4.055580043800e-03 5.508405995178e-03 0.0 
5.508405995178e-03 -2.340345403384e-03 0.0 
0.0 0.0 -7.351005601782e-04 
1.723951590445e-04 3.402388421843e-03 0.0 
3.402388421843e-03 1.876640106691e-03 0.0 
0.0 0.0 -8.781579710297e-04 
1.620978398715e-03 2.040195847392e-03 0.0 
2.040195847392e-03 9.084238899970e-04 0.0 
0.0 0.0 -1.068254633495e-03 
-1.863002091666e-04 3.045304739867e-03 0.0 
3.045304739867e-03 4.138381683784e-03 0.0 
0.0 0.0 -1.211228670573e-03 
7.227030443290e-03 4.052684870885e-04 0.0 
4.052684870885e-04 -5.674198890017e-03 0.0 
0.0 0.0 -6.654992371173e-04 
3.718136351472e-03 -1.652316404219e-03 0.0 
-1.652316404219e-03 -3.431217942829e-03 0.0 
0.0 0.0 -1.229650322759e-04 
-1.560287505520e-03 2.397443585750e-03 0.0 
2.397443585750e-03 7.445606798375e-03 0.0 
0.0 0.0 -1.207184308065e-03 
-1.227743039735e-04 3.216961996269e-03 0.0 
3.216961996269e-03 2.287126095753e-03 0.0 
0.0 0.0 -9.275793393341e-04 
2.566765138795e-03 -1.849586772983e-03 0.0 
-1.849586772983e-03 -1.371716030255e-03 0.0 
0.0 0.0 -5.121639036598e-04 
1.672773649656e-04 3.331091538529e-03 0.0 
3.331091538529e-03 3.424560115691e-03 0.0 
0.0 0.0 -1.177925372349e-03 
-1.802105864534e-03 1.325377431051e-03 0.0 
1.325377431051e-03 6.693893706785e-03 0.0 
0.0 0.0 -1.015069748350e-03 
-9.552400268193e-04 -2.590206578427e-03 0.0 
-2.590206578427e-03 4.033946220946e-03 0.0 
0.0 0.0 -1.055879354346e-03 
5.458179165827e-03 4.912872895745e-03 0.0 
4.912872895745e-03 -3.900556851418e-03 0.0 
0.0 0.0 -6.675524204610e-04 
2.984589757164e-03 -7.241222914403e-04 0.0 
-7.241222914403e-04 -2.984589757164e-03 0.0 
0.0 0.0 0.0 
-1.695761363760e-03 -1.692827267884e-03 0.0 
-1.692827267884e-03 6.306533924159e-03 0.0 
0.0 0.0 -1.202131160132e-03 
2.983793225143e-04 4.045464308104e-03 0.0 
4.045464308104e-03 2.037095010221e-03 0.0 
0.0 0.0 -1.000917571172e-03 
2.797260776301e-03 3.093729654765e-03 0.0 
3.093729654765e-03 -3.016767273227e-04 0.0 
0.0 0.0 -1.007142642412e-03 
3.829855973357e-04 4.420353724723e-03 0.0 
4.420353724723e-03 3.525012583555e-03 0.0 
0.0 0.0 -1.157822513452e-03 
1.877615650232e-03 -1.006770100052e-04 0.0 
-1.006770100052e-04 -1.877615650232e-03 0.0 
0.0 0.0 0.0 
-7.671375815713e-04 -2.153381723597e-03 0.0 
-2.153381723597e-03 3.958636255064e-03 0.0 
0.0 0.0 -1.058763633038e-03 
5.212325009024e-03 6.287726812681e-03 0.0 
6.287726812681e-03 -3.429984743123e-03 0.0 
0.0 0.0 -7.638601139576e-04 
-1.817865112225e-03 1.160846124058e-03 0.0 
1.160846124058e-03 6.325027627169e-03 0.0 
0.0 0.0 -9.498437721210e-04 
-6.483445776371e-04 -2.910728448364e-03 0.0 
-2.910728448364e-03 3.240421631363e-03 0.0 
0.0 0.0 -1.081826897668e-03 
7.834952904058e-03 1.846736034868e-03 0.0 
1.846736034868e-03 -6.307513780625e-03 0.0 
0.0 0.0 -6.546167671857e-04 
-1.512905320875e-03 -2.064322058959e-03 0.0 
-2.064322058959e-03 5.485314435598e-03 0.0 
0.0 0.0 -1.141635569211e-03 
3.120093727662e-03 5.418373472333e-03 0.0 
5.418373472333e-03 -1.309958456359e-03 0.0 
0.0 0.0 -7.757722591300e-04 
7.821631768410e-03 1.872850290667e-03 0.0 
1.872850290667e-03 -6.228485178519e-03 0.0 
0.0 0.0 -6.827771099535e-04 
-6.128206941389e-05 4.106960991200e-03 0.0 
4.106960991200e-03 2.685120430558e-03 0.0 
0.0 0.0 -8.989548790023e-04 
3.513530495268e-03 -3.775094525220e-03 0.0 
-3.775094525220e-03 -3.371609697081e-03 0.0 
0.0 0.0 -6.082319922331e-05 
6.567349925096e-04 4.392837560560e-03 0.0 
4.392837560560e-03 2.675831011786e-03 0.0 
0.0 0.0 -1.026417656363e-03 
1.713657765283e-03 1.400540940281e-03 0.0 
1.400540940281e-03 9.875271639757e-04 0.0 
0.0 0.0 -1.065496432940e-03 
-5.607405551744e-04 3.917860751191e-03 0.0 
3.917860751191e-03 5.487787123730e-03 0.0 
0.0 0.0 -1.233600908384e-03 
1.258530510997e-03 4.836538850551e-03 0.0 
4.836538850551e-03 2.420238240069e-03 0.0 
0.0 0.0 -1.090749533212e-03 
6.525854490097e-03 -2.320489005925e-04 0.0 
-2.320489005925e-04 -4.854202375752e-03 0.0 
0.0 0.0 -7.164223347191e-04 
-1.354858739815e-03 -2.484739121398e-03 0.0 
-2.484739121398e-03 4.613680447839e-03 0.0 
0.0 0.0 -1.047231727503e-03 
-1.514361396418e-03 1.521820591863e-03 0.0 
1.521820591863e-03 8.031763007479e-03 0.0 
0.0 0.0 -1.228155452712e-03 
-7.050516080877e-04 1.545847486976e-03 0.0 
1.545847486976e-03 4.498069063216e-03 0.0 
0.0 0.0 -1.267145247477e-03 
1.204098355500e-03 1.745503766790e-03 0.0 
1.745503766790e-03 1.769969539776e-03 0.0 
0.0 0.0 -1.102242875413e-03 
6.687002790611e-03 4.282832403557e-03 0.0 
4.282832403557e-03 -5.202894591369e-03 0.0 
0.0 0.0 -6.360463711034e-04 
3.105497821605e-04 4.253334730471e-03 0.0 
4.253334730471e-03 2.670083739517e-03 0.0 
0.0 0.0 -9.624716764950e-04 
-1.751273191057e-03 -1.178364827428e-03 0.0 
-1.178364827428e-03 6.153449964232e-03 0.0 
0.0 0.0 -1.164316760544e-03 
-1.510592316959e-03 -9.050842607301e-04 0.0 
-9.050842607301e-04 4.622892738446e-03 0.0 
0.0 0.0 -1.053897668350e-03 
1.459334549514e-03 5.201026858483e-03 0.0 
5.201026858483e-03 1.681194136401e-03 0.0 
0.0 0.0 -1.057196955382e-03 
-1.719373888211e-03 1.382981273232e-03 0.0 
1.382981273232e-03 6.550039956498e-03 0.0 
0.0 0.0 -9.877098122506e-04 
-1.368682583039e-03 -2.262414624365e-03 0.0 
-2.262414624365e-03 5.045630347078e-03 0.0 
0.0 0.0 -1.112977059762e-03 
-8.018931633473e-04 -2.405053121667e-03 0.0 
-2.405053121667e-03 4.002834443873e-03 0.0 
0.0 0.0 -1.093234982489e-03 
-1.439791436846e-03 3.326807682738e-05 0.0 
3.326807682738e-05 4.943594407769e-03 0.0 
0.0 0.0 -7.313513689239e-04 
-1.427152505588e-03 6.033982237060e-05 0.0 
6.033982237060e-05 4.941916582327e-03 0.0 
0.0 0.0 -7.310574395863e-04 
-1.640756721107e-03 2.340459270020e-03 0.0 
2.340459270020e-03 5.815255979654e-03 0.0 
0.0 0.0 -9.927888931628e-04 
7.988772301215e-04 4.812808368827e-03 0.0 
4.812808368827e-03 1.965544547428e-03 0.0 
0.0 0.0 -9.930598132463e-04 
-9.560102716365e-04 -2.664544190492e-03 0.0 
-2.664544190492e-03 3.772312719303e-03 0.0 
0.0 0.0 -1.075560717398e-03 
-1.206510850392e-03 3.047967158976e-03 0.0 
3.047967158976e-03 4.800933324251e-03 0.0 
0.0 0.0 -9.775429604617e-04 
4.045543137552e-03 5.278195284102e-03 0.0 
5.278195284102e-03 -2.504848709274e-03 0.0 
0.0 0.0 -6.602976121192e-04 
1.277100220171e-04 -1.574357528169e-04 0.0 
-1.574357528169e-04 2.984674283208e-03 0.0 
0.0 0.0 -1.180288150054e-03 
5.952698421059e-03 4.751367541072e-03 0.0 
4.751367541072e-03 -4.644627886062e-03 0.0 
0.0 0.0 -5.606016578557e-04 
-1.487430872272e-03 2.032395386043e-03 0.0 
2.032395386043e-03 8.531052034659e-03 0.0 
0.0 0.0 -1.323793839065e-03 
-1.724651487443e-03 1.733577269253e-03 0.0 
1.733577269253e-03 5.152685708698e-03 0.0 
0.0 0.0 -8.119939454945e-04 
3.397830358225e-03 5.296581870819e-03 0.0 
5.296581870819e-03 -1.639613504067e-03 0.0 
0.0 0.0 -7.535215089251e-04 
-6.923989162598e-04 -2.921867110632e-03 0.0 
-2.921867110632e-03 3.238107663680e-03 0.0 
0.0 0.0 -9.778014170609e-04 
6.211723692251e-03 1.706656677695e-03 0.0 
1.706656677695e-03 -4.490969301263e-03 0.0 
0.0 0.0 -7.374661675664e-04 
-1.449260709310e-04 -3.081657457247e-03 0.0 
-3.081657457247e-03 2.244720614764e-03 0.0 
0.0 0.0 -8.999119473571e-04 
5.090658859848e-04 4.552995365565e-03 0.0 
4.552995365565e-03 1.982874329814e-03 0.0 
0.0 0.0 -9.758126512751e-04 
-5.058945486498e-04 3.618733188483e-03 0.0 
3.618733188483e-03 3.154888480052e-03 0.0 
0.0 0.0 -9.833357802921e-04 
-1.733759676165e-03 1.654794489536e-03 0.0 
1.654794489536e-03 6.367451579884e-03 0.0 
0.0 0.0 -9.814596669550e-04 
-1.124005872780e-03 3.379084100680e-03 0.0 
3.379084100680e-03 4.616783585522e-03 0.0 
0.0 0.0 -1.008022096355e-03 
-1.207720735867e-03 2.984451381318e-03 0.0 
2.984451381318e-03 5.147076662744e-03 0.0 
0.0 0.0 -1.040850218070e-03 
5.130439361090e-04 -3.314754387706e-04 0.0 
-3.314754387706e-04 9.591641378080e-04 0.0 
0.0 0.0 -3.048810613884e-04 
-2.528363505661e-04 -3.115888982409e-03 0.0 
-3.115888982409e-03 2.486992936593e-03 0.0 
0.0 0.0 -9.574956797260e-04 
-1.072167557266e-04 3.402438706717e-03 0.0 
3.402438706717e-03 2.375040834749e-03 0.0 
0.0 0.0 -9.719246052952e-04 
-1.390405142798e-03 3.085939311603e-03 0.0 
3.085939311603e-03 4.874750960273e-03 0.0 
0.0 0.0 -9.521954671713e-04 
-1.463685875107e-03 2.723658434378e-03 0.0 
2.723658434378e-03 5.354618705334e-03 0.0 
0.0 0.0 -9.850634846466e-04 
4.304615105835e-04 1.139871090346e-03 0.0 
1.139871090346e-03 2.578862431045e-03 0.0 
0.0 0.0 -1.160108757481e-03 
-7.116028528234e-04 -3.542186094007e-05 0.0 
-3.542186094007e-05 2.109496799795e-03 0.0 
0.0 0.0 -4.489418961951e-04 
4.973922847373e-03 -3.694721912548e-03 0.0 
-3.694721912548e-03 -3.759846251110e-03 0.0 
0.0 0.0 -5.203185412556e-04 
9.131343111790e-04 4.239817094133e-03 0.0 
4.239817094133e-03 1.114094211309e-03 0.0 
0.0 0.0 -8.688122239235e-04 
-2.823129498517e-04 -2.964277233818e-03 0.0 
-2.964277233818e-03 2.454860756862e-03 0.0 
0.0 0.0 -9.310919172903e-04 
-2.561539952833e-03 7.724092668657e-03 0.0 
7.724092668657e-03 5.313534656728e-03 0.0 
0.0 0.0 -7.665650418521e-04 
-3.062485970836e-03 7.444956057970e-03 0.0 
7.444956057970e-03 5.987908604999e-03 0.0 
0.0 0.0 -7.530137074853e-04 
-1.810136366687e-03 1.412997826384e-03 0.0 
1.412997826384e-03 6.411444835685e-03 0.0 
0.0 0.0 -9.793492904611e-04 
6.030828457774e-03 9.236233214758e-03 0.0 
9.236233214758e-03 -4.332109420221e-03 0.0 
0.0 0.0 -7.280224446656e-04 
-7.741376345699e-04 -2.792621548151e-03 0.0 
-2.792621548151e-03 3.378364177398e-03 0.0 
0.0 0.0 -1.004244986112e-03 
1.518845837187e-03 -8.166652495379e-04 0.0 
-8.166652495379e-04 9.722342651596e-04 0.0 
0.0 0.0 -1.049209916622e-03 
4.874008367704e-03 -1.437643955637e-03 0.0 
-1.437643955637e-03 -3.887832797810e-03 0.0 
0.0 0.0 -4.226466728115e-04 
-1.149618319309e-03 2.959992214286e-03 0.0 
2.959992214286e-03 5.456359281312e-03 0.0 
0.0 0.0 -1.285586381397e-03 
-1.702357103576e-03 1.352649744862e-03 0.0 
1.352649744862e-03 7.576949821792e-03 0.0 
0.0 0.0 -1.152455342817e-03 
-8.320143767109e-04 -2.543685297260e-03 0.0 
-2.543685297260e-03 3.497707295059e-03 0.0 
0.0 0.0 -1.095064427584e-03 
-1.386779618523e-03 -1.910481505052e-03 0.0 
-1.910481505052e-03 5.018049845752e-03 0.0 
0.0 0.0 -1.078722419643e-03 
3.125422949915e-04 -4.523288632851e-04 0.0 
-4.523288632851e-04 5.084247431010e-04 0.0 
0.0 0.0 -2.949115613585e-04 
1.504330757741e-03 -1.474523575118e-03 0.0 
-1.474523575118e-03 7.512685572631e-04 0.0 
0.0 0.0 -9.666854207159e-04 
5.108275496224e-04 4.474307304772e-03 0.0 
4.474307304772e-03 1.828292355023e-03 0.0 
0.0 0.0 -8.867106850074e-04 
4.473569415293e-04 -3.623430945717e-04 0.0 
-3.623430945717e-04 5.128790874494e-04 0.0 
0.0 0.0 -3.067690066256e-04 
-1.619412582140e-03 1.641534764462e-03 0.0 
1.641534764462e-03 7.530266774085e-03 0.0 
0.0 0.0 -1.154859126927e-03 
4.436306385578e-03 -1.839041278348e-03 0.0 
-1.839041278348e-03 -3.635647460152e-03 0.0 
0.0 0.0 -3.431395394681e-04 
-1.356737557429e-03 2.911706860265e-03 0.0 
2.911706860265e-03 4.923580709307e-03 0.0 
0.0 0.0 -9.496453321265e-04 
-5.843331771905e-04 3.664260117298e-03 0.0 
3.664260117298e-03 3.237703376181e-03 0.0 
0.0 0.0 -8.924259012440e-04 
2.805764925664e-03 -1.866446580262e-03 0.0 
-1.866446580262e-03 -1.675227014578e-03 0.0 
0.0 0.0 -4.845162476087e-04 
6.381650718369e-04 -2.668063623699e-03 0.0 
-2.668063623699e-03 1.271470963967e-03 0.0 
0.0 0.0 -8.184154439158e-04 
-1.604458387616e-03 1.854152015569e-03 0.0 
1.854152015569e-03 7.626319442818e-03 0.0 
0.0 0.0 -1.182898372388e-03 
5.972252816990e-04 -2.217550863367e-03 0.0 
-2.217550863367e-03 1.760976894572e-03 0.0 
0.0 0.0 -9.716005391690e-04 
1.966339846784e-03 4.919122036382e-03 0.0 
4.919122036382e-03 -5.235783852001e-05 0.0 
0.0 0.0 -8.202780035418e-04 
1.342015205413e-03 4.810672471110e-03 0.0 
4.810672471110e-03 7.939889962231e-04 0.0 
0.0 0.0 -9.111404029742e-04 
-1.624518364499e-03 1.643981469454e-02 0.0 
1.643981469454e-02 2.360108005856e-03 0.0 
0.0 0.0 -3.152527034384e-04 
3.906766655001e-03 -1.194890688404e-03 0.0 
-1.194890688404e-03 -3.380617223370e-03 0.0 
0.0 0.0 -2.254926135565e-04 
1.046136650237e-03 4.233618089878e-03 0.0 
4.233618089878e-03 2.631396927002e-03 0.0 
0.0 0.0 -1.118331045454e-03 
-1.809983628728e-03 1.593568509076e-03 0.0 
1.593568509076e-03 5.817131701425e-03 0.0 
0.0 0.0 -9.085367473448e-04 
5.109280584198e-04 3.920766621710e-03 0.0 
3.920766621710e-03 3.036023617987e-03 0.0 
0.0 0.0 -1.148691026115e-03 
4.279791712645e-03 6.090469470304e-03 0.0 
6.090469470304e-03 -2.799172994722e-03 0.0 
0.0 0.0 -6.345508791098e-04 
-1.588961869452e-03 2.584393938582e-03 0.0 
2.584393938582e-03 6.455891274831e-03 0.0 
0.0 0.0 -1.097950598811e-03 
5.778279512579e-04 4.167410191219e-03 0.0 
4.167410191219e-03 3.441349783837e-03 0.0 
0.0 0.0 -1.155407764312e-03 
-1.650656746774e-03 2.184305323973e-03 0.0 
2.184305323973e-03 4.605160500389e-03 0.0 
0.0 0.0 -7.696970057192e-04 
7.997834449305e-04 4.443849075965e-03 0.0 
4.443849075965e-03 2.696844425374e-03 0.0 
0.0 0.0 -1.120992621467e-03 
-1.531289715330e-03 -2.235814658200e-03 0.0 
-2.235814658200e-03 5.083560864057e-03 0.0 
0.0 0.0 -1.075946734593e-03 
1.415188540778e-03 5.132738021992e-03 0.0 
5.132738021992e-03 9.909580115244e-04 0.0 
0.0 0.0 -9.606735922745e-04 
-4.462082875552e-04 -3.056851139717e-03 0.0 
-3.056851139717e-03 2.847631123845e-03 0.0 
0.0 0.0 -1.006543408955e-03 
-3.390473984761e-04 -3.081268501996e-03 0.0 
-3.081268501996e-03 2.650937052075e-03 0.0 
0.0 0.0 -9.908098515424e-04 
-1.654766843293e-03 2.110154288789e-03 0.0 
2.110154288789e-03 7.526175185133e-03 0.0 
0.0 0.0 -1.204704583718e-03 
6.478121330843e-04 -2.891464683005e-03 0.0 
-2.891464683005e-03 9.158033438756e-04 0.0 
0.0 0.0 -6.701209186971e-04 
-1.699716905141e-04 3.968568106411e-03 0.0 
3.968568106411e-03 2.743899384571e-03 0.0 
0.0 0.0 -9.833476869619e-04 
5.690780286425e-03 4.584914767617e-03 0.0 
4.584914767617e-03 -4.427382540677e-03 0.0 
0.0 0.0 -5.414561767490e-04 
3.154223134918e-04 -1.847267140320e-03 0.0 
-1.847267140320e-03 2.422527601631e-03 0.0 
0.0 0.0 -1.038364586984e-03 
4.465466232359e-03 5.138858516997e-03 0.0 
5.138858516997e-03 -2.909343885509e-03 0.0 
0.0 0.0 -6.669095772216e-04 
6.990515688494e-03 9.152845003800e-05 0.0 
9.152845003800e-05 -5.352640050650e-03 0.0 
0.0 0.0 -7.019467019332e-04 
3.968033150829e-03 -4.108529051006e-04 0.0 
-4.108529051006e-04 -2.953276427003e-03 0.0 
0.0 0.0 -4.348957387830e-04 
7.378285067804e-03 1.866089351435e-03 0.0 
1.866089351435e-03 -5.725680074793e-03 0.0 
0.0 0.0 -7.082592827190e-04 
-1.261991141926e-03 3.267444165813e-03 0.0 
3.267444165813e-03 4.752384958846e-03 0.0 
0.0 0.0 -9.799122972177e-04 
7.102475567223e-03 -1.174277881838e-04 0.0 
-1.174277881838e-04 -5.384865988893e-03 0.0 
0.0 0.0 -7.361183907127e-04 
-1.047249439091e-03 3.250277679615e-03 0.0 
3.250277679615e-03 4.315763371752e-03 0.0 
0.0 0.0 -9.420580210740e-04 
8.108214669382e-04 1.106756120973e-03 0.0 
1.106756120973e-03 2.254050969194e-03 0.0 
0.0 0.0 -1.130549445556e-03 
1.241348476985e-03 1.374209413455e-03 0.0 
1.374209413455e-03 1.424063310860e-03 0.0 
0.0 0.0 -1.096529089934e-03 
4.830004271504e-03 4.942443148284e-03 0.0 
4.942443148284e-03 -3.570249263208e-03 0.0 
0.0 0.0 -5.398950035552e-04 
-1.732708782740e-03 1.731245879395e-03 0.0 
1.731245879395e-03 6.071080868846e-03 0.0 
0.0 0.0 -9.460253849645e-04 
-1.548270655095e-03 -1.671057713006e-03 0.0 
-1.671057713006e-03 5.446327602559e-03 0.0 
0.0 0.0 -1.107441567342e-03 
-1.667313564664e-03 -1.981097125204e-03 0.0 
-1.981097125204e-03 5.509726630970e-03 0.0 
0.0 0.0 -1.104747680386e-03 
4.860909111080e-03 1.107572033689e-02 0.0 
1.107572033689e-02 -3.687830643767e-03 0.0 
0.0 0.0 -5.027479145627e-04 
-9.715008187727e-04 3.547635970715e-03 0.0 
3.547635970715e-03 4.097719530490e-03 0.0 
0.0 0.0 -9.724793438395e-04 
-1.624312607657e-03 -1.275879739373e-03 0.0 
-1.275879739373e-03 6.206545711786e-03 0.0 
0.0 0.0 -1.205818386895e-03 
-1.432058752291e-05 4.851707492867e-03 0.0 
4.851707492867e-03 1.934066127311e-03 0.0 
0.0 0.0 -8.227480884806e-04 
-1.021411894397e-03 -2.472960565398e-03 0.0 
-2.472960565398e-03 3.861949643739e-03 0.0 
0.0 0.0 -1.085013296808e-03 
-1.570527303600e-03 1.627835879281e-02 0.0 
1.627835879281e-02 2.250305618543e-03 0.0 
0.0 0.0 -2.913335635470e-04 
-1.667346094177e-03 -1.424810251550e-03 0.0 
-1.424810251550e-03 5.825346578498e-03 0.0 
0.0 0.0 -1.136235114959e-03 
6.662557910586e-03 1.952731137705e-03 0.0 
1.952731137705e-03 -5.091090419508e-03 0.0 
0.0 0.0 -6.734860676048e-04 
-1.578302787965e-03 -5.539699262797e-04 0.0 
-5.539699262797e-04 4.756261434844e-03 0.0 
0.0 0.0 -1.057437106069e-03 
2.597217751565e-03 3.729970310406e-03 0.0 
3.729970310406e-03 -3.286738725726e-04 0.0 
0.0 0.0 -9.722330909969e-04 
-1.811529723315e-03 1.498050121893e-03 0.0 
1.498050121893e-03 6.116522056800e-03 0.0 
0.0 0.0 -9.438854677472e-04 
-1.729248363348e-03 1.804686593249e-03 0.0 
1.804686593249e-03 5.771244996451e-03 0.0 
0.0 0.0 -9.108073647307e-04 
1.158471707479e-03 4.728185708757e-03 0.0 
4.728185708757e-03 1.068237017072e-03 0.0 
0.0 0.0 -9.543037390934e-04 
-1.792989453835e-03 7.028163702777e-03 0.0 
7.028163702777e-03 4.225978651852e-03 0.0 
0.0 0.0 -7.963586959451e-04 
-2.113192580717e-03 7.381157644043e-03 0.0 
7.381157644043e-03 4.712264079835e-03 0.0 
0.0 0.0 -7.758011671882e-04 
-1.764900971931e-03 -1.718354051601e-03 0.0 
-1.718354051601e-03 5.889801463908e-03 0.0 
0.0 0.0 -1.133400347077e-03 
5.837344244529e-04 -2.789193108080e-03 0.0 
-2.789193108080e-03 1.229931293592e-03 0.0 
0.0 0.0 -7.772853077335e-04 
2.550026930213e-03 -1.831571194845e-03 0.0 
-1.831571194845e-03 -1.387596814342e-03 0.0 
0.0 0.0 -4.981843353734e-04 
1.923573278128e-03 -6.709250945074e-04 0.0 
-6.709250945074e-04 3.948331759586e-04 0.0 
0.0 0.0 -9.936027660373e-04 
4.763427717969e-03 -3.994662334052e-04 0.0 
-3.994662334052e-04 -3.723139952630e-03 0.0 
0.0 0.0 -4.458376137168e-04 
6.833756557994e-03 1.595064176282e-03 0.0 
1.595064176282e-03 -5.052688304489e-03 0.0 
0.0 0.0 -7.633149657881e-04 
-1.737079443134e-03 6.910817952141e-03 0.0 
6.910817952141e-03 4.159377129415e-03 0.0 
0.0 0.0 -7.520787537531e-04 
-1.821423928511e-03 1.474632635918e-03 0.0 
1.474632635918e-03 5.487726439764e-03 0.0 
0.0 0.0 -8.442294783838e-04 
-1.409406014707e-03 4.528826506854e-05 0.0 
4.528826506854e-05 5.214877225355e-03 0.0 
0.0 0.0 -7.121995050294e-04 
1.302859794945e-03 7.534981733566e-04 0.0 
7.534981733566e-04 1.498039298533e-03 0.0 
0.0 0.0 -1.093598669875e-03 
5.611654853151e-03 4.877972142161e-03 0.0 
4.877972142161e-03 -4.195059232800e-03 0.0 
0.0 0.0 -6.071124087219e-04 
-3.775209638386e-04 1.690107234655e-03 0.0 
1.690107234655e-03 3.887948791966e-03 0.0 
0.0 0.0 -1.233571955743e-03 
-2.022662331208e-03 -4.627058437959e-04 0.0 
-4.627058437959e-04 6.332672682848e-03 0.0 
0.0 0.0 -1.121177773779e-03 
4.527622312747e-03 -4.197208728576e-04 0.0 
-4.197208728576e-04 -3.458331223325e-03 0.0 
0.0 0.0 -4.582676097521e-04 
-1.524985310237e-03 -1.822620195545e-03 0.0 
-1.822620195545e-03 6.245562815238e-03 0.0 
0.0 0.0 -1.241472629463e-03 
6.551855186106e-03 -1.373752233128e-03 0.0 
-1.373752233128e-03 -4.945105417815e-03 0.0 
0.0 0.0 -6.886070435536e-04 
-1.479396514974e-04 2.184545384465e-03 0.0 
2.184545384465e-03 3.558882898220e-03 0.0 
0.0 0.0 -1.204482468497e-03 
1.608933276910e-03 5.056716147604e-03 0.0 
5.056716147604e-03 7.025644976231e-04 0.0 
0.0 0.0 -8.910665706739e-04 
2.586994922706e-03 5.475931849520e-03 0.0 
5.475931849520e-03 -1.620024942865e-04 0.0 
0.0 0.0 -9.848034212814e-04 
2.653622883392e-04 -1.075650472143e-03 0.0 
-1.075650472143e-03 2.812563008289e-03 0.0 
0.0 0.0 -1.146785027167e-03 
3.884013163081e-04 -2.855323367017e-03 0.0 
-2.855323367017e-03 1.211719834243e-03 0.0 
0.0 0.0 -6.857662073788e-04 
-6.408335018268e-04 3.774650266780e-03 0.0 
3.774650266780e-03 3.466382355538e-03 0.0 
0.0 0.0 -9.649174008510e-04 
3.824567739996e-03 -1.268378339764e-03 0.0 
-1.268378339764e-03 -2.729238261018e-03 0.0 
0.0 0.0 -4.694269195620e-04 
-8.587679122771e-04 3.481313587749e-03 0.0 
3.481313587749e-03 3.794469535060e-03 0.0 
0.0 0.0 -9.065670216064e-04 
4.141021357383e-03 5.974348743510e-03 0.0 
5.974348743510e-03 -2.466492700238e-03 0.0 
0.0 0.0 -7.176551387762e-04 
2.400002142869e-03 4.698582905915e-03 0.0 
4.698582905915e-03 9.943251968338e-05 0.0 
0.0 0.0 -1.013229387512e-03 
3.931797093409e-03 -1.309108586333e-03 0.0 
-1.309108586333e-03 -2.821430132868e-03 0.0 
0.0 0.0 -4.758715545177e-04 
-1.000337791729e-03 -2.628959420428e-03 0.0 
-2.628959420428e-03 3.773462867951e-03 0.0 
0.0 0.0 -9.886579807222e-04 
-8.325357311160e-04 3.547635505547e-03 0.0 
3.547635505547e-03 3.716995785029e-03 0.0 
0.0 0.0 -9.612835620876e-04 
2.782123703338e-03 2.279523867368e-02 0.0 
2.279523867368e-02 -2.357049313622e-03 0.0 
0.0 0.0 -1.821747384498e-04 
4.392253439708e-03 4.245330992358e-03 0.0 
4.245330992358e-03 -3.016923945542e-03 0.0 
0.0 0.0 -5.894269260710e-04 
1.320773679889e-03 1.595556554605e-02 0.0 
1.595556554605e-02 -2.830210040917e-04 0.0 
0.0 0.0 -4.447511467704e-04 
-3.371303889653e-04 -7.500919376923e-04 0.0 
-7.500919376923e-04 1.299829984783e-03 0.0 
0.0 0.0 -4.040777003935e-04 
-1.056371726126e-03 -2.468497531733e-03 0.0 
-2.468497531733e-03 3.865104933196e-03 0.0 
0.0 0.0 -1.010653628765e-03 
-3.981485125003e-04 3.714768158298e-03 0.0 
3.714768158298e-03 4.378014459638e-03 0.0 
0.0 0.0 -1.098354823938e-03 
-1.707850550320e-03 2.055402839425e-03 0.0 
2.055402839425e-03 5.786469608898e-03 0.0 
0.0 0.0 -9.387552692591e-04 
-1.312067613312e-03 6.711341961082e-03 0.0 
6.711341961082e-03 3.452923226965e-03 0.0 
0.0 0.0 -8.497951325312e-04 
-1.342322198460e-03 2.098270725376e-03 0.0 
2.098270725376e-03 8.248661573518e-03 0.0 
0.0 0.0 -1.342322198460e-03 
-2.003122681881e-03 1.943077769838e-02 0.0 
1.943077769838e-02 2.083344937223e-03 0.0 
0.0 0.0 -3.438096657507e-05 
-1.513055477357e-03 6.701286007779e-03 0.0 
6.701286007779e-03 3.808519401066e-03 0.0 
0.0 0.0 -8.134098498104e-04 
2.270471236893e-03 -1.991913426098e-03 0.0 
-1.991913426098e-03 -1.055347754784e-03 0.0 
0.0 0.0 -5.207672066180e-04 
-1.089976521784e-03 -2.234801732660e-03 0.0 
-2.234801732660e-03 3.943897982090e-03 0.0 
0.0 0.0 -1.084767721667e-03 
-1.084751415265e-03 2.922101332766e-03 0.0 
2.922101332766e-03 3.742546357812e-03 0.0 
0.0 0.0 -8.610308207870e-04 
3.684169958618e-03 -2.437265052283e-03 0.0 
-2.437265052283e-03 -2.240829558223e-03 0.0 
0.0 0.0 -6.185744573122e-04 
6.422285945117e-04 -2.781815375739e-03 0.0 
-2.781815375739e-03 8.642499566630e-04 0.0 
0.0 0.0 -6.456336647891e-04 
8.725488855645e-04 4.624867632594e-03 0.0 
4.624867632594e-03 1.774234503195e-03 0.0 
0.0 0.0 -9.266779469803e-04 
3.211630355440e-03 3.484367178678e-03 0.0 
3.484367178678e-03 -1.300191761533e-03 0.0 
0.0 0.0 -8.191879688175e-04 
-1.329752805185e-03 3.181517598016e-03 0.0 
3.181517598016e-03 5.907007101231e-03 0.0 
0.0 0.0 -1.144302277022e-03 
5.775996026815e-03 9.982860452065e-03 0.0 
9.982860452065e-03 -4.633061353822e-03 0.0 
0.0 0.0 -4.898291455683e-04 
-8.586335344055e-04 -2.592060326530e-03 0.0 
-2.592060326530e-03 3.501562453949e-03 0.0 
0.0 0.0 -1.023226067289e-03 
-1.335563518602e-03 -1.880041070522e-03 0.0 
-1.880041070522e-03 4.351195601973e-03 0.0 
0.0 0.0 -1.033071644556e-03 
-2.022124363339e-05 -2.395587679301e-03 0.0 
-2.395587679301e-03 1.567846091858e-03 0.0 
0.0 0.0 -6.632677920962e-04 
-1.674900766220e-03 1.599025443535e-03 0.0 
1.599025443535e-03 4.804084785627e-03 0.0 
0.0 0.0 -7.663799295492e-04 
-1.769874274313e-03 1.858383186956e-03 0.0 
1.858383186956e-03 5.835930784600e-03 0.0 
0.0 0.0 -9.362314798257e-04 
-2.069835677089e-03 -4.002455476683e-04 0.0 
-4.002455476683e-04 5.909495734486e-03 0.0 
0.0 0.0 -1.073191215028e-03 
1.059197299257e-03 -5.440939611188e-04 0.0 
-5.440939611188e-04 5.670737881281e-04 0.0 
0.0 0.0 -3.365581251930e-04 
1.346578514140e-03 -2.078599482907e-04 0.0 
-2.078599482907e-04 -1.346578514140e-03 0.0 
0.0 0.0 0.0 
-4.602170046064e-05 -1.936536183988e-03 0.0 
-1.936536183988e-03 1.323038368316e-03 0.0 
0.0 0.0 -5.472928576524e-04 
-1.313750205869e-03 -1.893362186714e-03 0.0 
-1.893362186714e-03 4.351424993746e-03 0.0 
0.0 0.0 -1.080662880999e-03 
6.342616758440e-03 -1.005765350380e-03 0.0 
-1.005765350380e-03 -4.798945314061e-03 0.0 
0.0 0.0 -6.615734761625e-04 
3.907968525654e-03 -2.678067244794e-03 0.0 
-2.678067244794e-03 -2.545552219461e-03 0.0 
0.0 0.0 -5.838927026542e-04 
6.414982165589e-03 -1.735659359375e-03 0.0 
-1.735659359375e-03 -4.817210227211e-03 0.0 
0.0 0.0 -6.847594021618e-04 
-1.301232695251e-03 -2.116378151629e-03 0.0 
-2.116378151629e-03 4.314126103213e-03 0.0 
0.0 0.0 -1.020860678390e-03 
-1.603005468093e-03 2.550878726920e-03 0.0 
2.550878726920e-03 5.754736739264e-03 0.0 
0.0 0.0 -9.956198530692e-04 
-1.518941795168e-03 -1.499106977263e-03 0.0 
-1.499106977263e-03 4.706029179031e-03 0.0 
0.0 0.0 -1.043188517862e-03 
7.412581525920e-03 3.580586424453e-04 0.0 
3.580586424453e-04 -5.822739554544e-03 0.0 
0.0 0.0 -6.813608448753e-04 
-8.122205259558e-04 3.369852357324e-03 0.0 
3.369852357324e-03 4.098528073355e-03 0.0 
0.0 0.0 -9.699423737970e-04 
-1.666656418554e-03 8.515973861887e-04 0.0 
8.515973861887e-04 5.656067677278e-03 0.0 
0.0 0.0 -8.236220363599e-04 
1.575100634870e-03 3.074781812960e-03 0.0 
3.074781812960e-03 1.118904021495e-03 0.0 
0.0 0.0 -1.076197569190e-03 
-1.503911657480e-03 -1.536228813635e-03 0.0 
-1.536228813635e-03 4.713514709764e-03 0.0 
0.0 0.0 -1.079735805607e-03 
-1.269594224654e-03 -2.151916428327e-03 0.0 
-2.151916428327e-03 4.311241093571e-03 0.0 
0.0 0.0 -1.081849276551e-03 
-1.021891806438e-03 6.708419641831e-03 0.0 
6.708419641831e-03 2.781049238987e-03 0.0 
0.0 0.0 -7.539246139495e-04 
4.760756240376e-03 -1.681035327237e-03 0.0 
-1.681035327237e-03 -3.425786985669e-03 0.0 
0.0 0.0 -5.721296805886e-04 
-1.672927313923e-03 -1.115371020166e-03 0.0 
-1.115371020166e-03 5.017856732658e-03 0.0 
0.0 0.0 -1.052805964859e-03 
-1.580075754320e-03 2.157353104837e-04 0.0 
2.157353104837e-04 6.692661968395e-03 0.0 
0.0 0.0 -9.615701295831e-04 
-1.562907036777e-03 2.120583330649e-04 0.0 
2.120583330649e-04 6.337987109484e-03 0.0 
0.0 0.0 -8.972249362023e-04 
-1.134218443411e-03 6.656857287888e-03 0.0 
6.656857287888e-03 3.135263428860e-03 0.0 
0.0 0.0 -8.575907080495e-04 
-1.509705893005e-03 -1.747591078712e-03 0.0 
-1.747591078712e-03 4.715855182949e-03 0.0 
0.0 0.0 -1.032785096058e-03 
1.569414128809e-03 -2.550888608895e-03 0.0 
-2.550888608895e-03 -3.370499251341e-04 0.0 
0.0 0.0 -5.281560872893e-04 
2.227845505428e-03 1.186879624062e-02 0.0 
1.186879624062e-02 -9.515257260559e-04 0.0 
0.0 0.0 -5.469941911596e-04 
-6.899377609374e-05 1.661649003865e-03 0.0 
1.661649003865e-03 3.644955928247e-03 0.0 
0.0 0.0 -1.202908440308e-03 
1.382596818972e-04 -2.070148021774e-03 0.0 
-2.070148021774e-03 1.091658495820e-03 0.0 
0.0 0.0 -5.271077904503e-04 
1.398235426833e-03 -2.548773596058e-03 0.0 
-2.548773596058e-03 -7.584749764513e-05 0.0 
0.0 0.0 -5.667376839375e-04 
5.118595998064e-03 4.766973031799e-03 0.0 
4.766973031799e-03 -3.512622673123e-03 0.0 
0.0 0.0 -6.882742821176e-04 
-1.252355117758e-03 6.353053887072e-03 0.0 
6.353053887072e-03 3.381395506348e-03 0.0 
0.0 0.0 -7.843752346430e-04 
-1.666758732331e-03 -1.174236117568e-03 0.0 
-1.174236117568e-03 5.037001804565e-03 0.0 
0.0 0.0 -1.079856008588e-03 
-9.244628747481e-04 -1.936309255703e-04 0.0 
-1.936309255703e-04 2.822852214519e-03 0.0 
0.0 0.0 -6.624393034254e-04 
-1.781970376818e-03 1.286452196400e-03 0.0 
1.286452196400e-03 5.020731578576e-03 0.0 
0.0 0.0 -7.824198048058e-04 
-1.484587749919e-03 -1.812874826371e-03 0.0 
-1.812874826371e-03 4.718401123365e-03 0.0 
0.0 0.0 -1.081372135754e-03 
1.576334435178e-03 -2.126957134812e-03 0.0 
-2.126957134812e-03 -3.587437123252e-04 0.0 
0.0 0.0 -5.218245955084e-04 
-7.383188819978e-04 -2.755351396555e-03 0.0 
-2.755351396555e-03 3.375108004806e-03 0.0 
0.0 0.0 -1.093992571453e-03 
4.987514290881e-03 1.088987779977e-02 0.0 
1.088987779977e-02 -4.987514290881e-03 0.0 
0.0 0.0 0.0 
-1.585395185030e-03 -8.733622601649e-05 0.0 
-8.733622601649e-05 7.915806537563e-03 0.0 
0.0 0.0 -1.152567315725e-03 
2.138309502033e-03 -2.332984666901e-03 0.0 
-2.332984666901e-03 -9.804274595091e-04 0.0 
0.0 0.0 -4.962351610816e-04 
6.264526995339e-04 4.039358766456e-04 0.0 
4.039358766456e-04 2.455212511219e-03 0.0 
0.0 0.0 -1.154039482800e-03 
3.058608810147e-03 5.224442801366e-03 0.0 
5.224442801366e-03 -3.571132228984e-04 0.0 
0.0 0.0 -9.821191134873e-04 
-1.685773855788e-03 -1.377399783606e-03 0.0 
-1.377399783606e-03 5.070521373149e-03 0.0 
0.0 0.0 -1.044398856648e-03 
-1.669266621470e-03 -1.454184032041e-03 0.0 
-1.454184032041e-03 5.079788696568e-03 0.0 
0.0 0.0 -1.081576243284e-03 
6.501405675255e-03 -1.115400998293e-03 0.0 
-1.115400998293e-03 -4.944804908559e-03 0.0 
0.0 0.0 -6.671146142983e-04 
1.578300081431e-04 -1.839580637340e-03 0.0 
-1.839580637340e-03 9.146826550122e-04 0.0 
0.0 0.0 -4.596482842094e-04 
5.566599953576e-03 1.756704290736e-02 0.0 
1.756704290736e-02 -5.436358219735e-03 0.0 
0.0 0.0 -5.581788593170e-05 
-1.838374468884e-03 -1.008357892208e-03 0.0 
-1.008357892208e-03 5.389548205880e-03 0.0 
0.0 0.0 -1.053342186814e-03 
5.216140834370e-04 -4.525301522426e-04 0.0 
-4.525301522426e-04 2.608546625167e-03 0.0 
0.0 0.0 -1.148056181429e-03 
8.407270435530e-04 -2.401906140793e-03 0.0 
-2.401906140793e-03 4.680800088294e-04 0.0 
0.0 0.0 -5.609173081639e-04 
-5.046523167596e-04 3.945273162110e-03 0.0 
3.945273162110e-03 3.636275608181e-03 0.0 
0.0 0.0 -1.000702849114e-03 
2.452875335659e-04 5.285800641552e-03 0.0 
5.285800641552e-03 1.441614176717e-03 0.0 
0.0 0.0 -7.229578758357e-04 
-1.050409536978e-03 3.126628093613e-03 0.0 
3.126628093613e-03 4.667808075340e-03 0.0 
0.0 0.0 -1.005614027492e-03 
-9.737300203529e-04 -1.654439195094e-03 0.0 
-1.654439195094e-03 5.294537233988e-03 0.0 
0.0 0.0 -1.266534580134e-03 
0.0 0.0 0.0 
0.0 0.0 0.0 
0.0 0.0 0.0 
-1.341620833825e-03 1.946460220436e-04 0.0 
1.946460220436e-04 8.726655578502e-03 0.0 
0.0 0.0 -1.341620833825e-03 
-1.340051318819e-03 -5.222823624513e-04 0.0 
-5.222823624513e-04 7.102242080382e-03 0.0 
0.0 0.0 -1.340051318819e-03 
-1.487218295656e-03 -1.877140319118e-04 0.0 
-1.877140319118e-04 5.546795712007e-03 0.0 
0.0 0.0 -7.955197795907e-04 
9.332368058577e-04 -2.323240235713e-03 0.0 
-2.323240235713e-03 3.557999178189e-04 0.0 
0.0 0.0 -5.524443101471e-04 
1.997370337689e-03 5.045199121973e-03 0.0 
5.045199121973e-03 6.793336805748e-04 0.0 
0.0 0.0 -9.543595451430e-04 
7.353169034558e-03 1.274124912359e-04 0.0 
1.274124912359e-04 -5.706577312184e-03 0.0 
0.0 0.0 -7.056821667315e-04 
-3.299569164523e-05 -1.162968038586e-03 0.0 
-1.162968038586e-03 1.091173189700e-03 0.0 
0.0 0.0 -3.090400745732e-04 
-2.126067132506e-03 1.988231025674e-02 0.0 
1.988231025674e-02 2.556978088977e-03 0.0 
0.0 0.0 -1.846761242021e-04 
-1.574977123889e-03 5.363765110094e-04 0.0 
5.363765110094e-04 8.165141429638e-03 0.0 
0.0 0.0 -1.209499414335e-03 
-1.716498366635e-03 2.104119454666e-03 0.0 
2.104119454666e-03 5.843034081691e-03 0.0 
0.0 0.0 -9.648175333861e-04 
-2.138852316154e-03 2.338544681314e-03 0.0 
2.338544681314e-03 5.265614650490e-03 0.0 
0.0 0.0 -7.487175554447e-04 
-1.114495707937e-03 3.137897512820e-03 0.0 
3.137897512820e-03 5.995042437661e-03 0.0 
0.0 0.0 -1.323661129950e-03 
-8.127251142362e-04 -1.412537566310e-04 0.0 
-1.412537566310e-04 2.411308652960e-03 0.0 
0.0 0.0 -5.128881373376e-04 
-1.119968701545e-03 2.850061398458e-03 0.0 
2.850061398458e-03 5.775097260118e-03 0.0 
0.0 0.0 -1.324908485340e-03 
-1.665581242751e-03 2.319761122546e-03 0.0 
2.319761122546e-03 5.793099015746e-03 0.0 
0.0 0.0 -9.670422101491e-04 
5.568715715285e-04 -2.770077582360e-03 0.0 
-2.770077582360e-03 9.496266440003e-04 0.0 
0.0 0.0 -6.456420923695e-04 
2.217526361310e-03 5.307016115555e-03 0.0 
5.307016115555e-03 -1.034061003417e-04 0.0 
0.0 0.0 -9.060515404150e-04 
9.950905598312e-04 -2.671652170698e-03 0.0 
-2.671652170698e-03 4.709180402516e-04 0.0 
0.0 0.0 -6.282894000355e-04 
1.850650531764e-03 1.028537647543e-02 0.0 
1.028537647543e-02 -5.935074777526e-04 0.0 
0.0 0.0 -5.387755945765e-04 
7.505691487916e-04 -2.806175756815e-03 0.0 
-2.806175756815e-03 7.604579484207e-04 0.0 
0.0 0.0 -6.475830416624e-04 
-1.523404584578e-03 2.773030803061e-03 0.0 
2.773030803061e-03 5.696563371559e-03 0.0 
0.0 0.0 -1.023749757194e-03 
-1.948666597127e-03 -9.778535476886e-04 0.0 
-9.778535476886e-04 6.429483775968e-03 0.0 
0.0 0.0 -1.155390781228e-03 
2.223294304846e-03 -2.501883234576e-03 0.0 
-2.501883234576e-03 -9.202985936182e-04 0.0 
0.0 0.0 -5.584267333832e-04 
-9.010800877536e-04 3.543332278779e-03 0.0 
3.543332278779e-03 4.397502160850e-03 0.0 
0.0 0.0 -1.036271578259e-03 
0.0 0.0 0.0 
0.0 0.0 0.0 
0.0 0.0 0.0 
4.951820392951e-03 -1.818938104731e-03 0.0 
-1.818938104731e-03 -3.440319195558e-03 0.0 
0.0 0.0 -6.477862274541e-04 
-1.710970656604e-03 2.103685284721e-03 0.0 
2.103685284721e-03 6.525687664567e-03 0.0 
0.0 0.0 -1.066385360782e-03 
2.404574348015e-04 -2.949261258943e-03 0.0 
-2.949261258943e-03 1.482737397066e-03 0.0 
0.0 0.0 -7.385120708005e-04 
6.388802882870e-04 -2.505035958296e-03 0.0 
-2.505035958296e-03 7.105369687538e-04 0.0 
0.0 0.0 -5.783216815889e-04 
2.832904112527e-03 5.370247992796e-03 0.0 
5.370247992796e-03 -4.940895693364e-04 0.0 
0.0 0.0 -9.187611816441e-04 
2.764263702043e-03 -4.225707668387e-03 0.0 
-4.225707668387e-03 -1.097585200016e-03 0.0 
0.0 0.0 -7.142907865831e-04 
-7.879995103219e-04 7.025458670788e-03 0.0 
7.025458670788e-03 2.218527606728e-03 0.0 
0.0 0.0 -6.130834698885e-04 
-9.606573875627e-04 7.564417188851e-03 0.0 
7.564417188851e-03 2.606376250083e-03 0.0 
0.0 0.0 -7.053080839374e-04 
2.569187355972e-04 -2.744654995445e-03 0.0 
-2.744654995445e-03 1.329889881086e-03 0.0 
0.0 0.0 -6.800608357214e-04 
1.469561011131e-03 -2.404724491018e-03 0.0 
-2.404724491018e-03 -1.658287211890e-04 0.0 
0.0 0.0 -5.587424099750e-04 
5.007320075059e-03 5.024321655830e-03 0.0 
5.024321655830e-03 -3.666199287172e-03 0.0 
0.0 0.0 -5.747660519518e-04 
-6.420544986037e-04 3.477211666583e-03 0.0 
3.477211666583e-03 4.275727084445e-03 0.0 
0.0 0.0 -1.033897369924e-03 
-1.400349245868e-03 3.030732209316e-03 0.0 
3.030732209316e-03 6.703483299750e-03 0.0 
0.0 0.0 -1.224260864640e-03 
-9.356386584350e-04 6.402415349937e-03 0.0 
6.402415349937e-03 2.751266658000e-03 0.0 
0.0 0.0 -7.781262855279e-04 
-1.583002963210e-03 -1.557788336479e-04 0.0 
-1.557788336479e-04 7.086569384723e-03 0.0 
0.0 0.0 -1.028620860735e-03 
-3.907678853056e-04 4.036209955682e-03 0.0 
4.036209955682e-03 4.945892849473e-03 0.0 
0.0 0.0 -1.228414553209e-03 
7.407454579380e-03 1.553046201979e-04 0.0 
1.553046201979e-04 -5.783188497759e-03 0.0 
0.0 0.0 -6.961140349804e-04 
1.046870423220e-03 1.376908451136e-02 0.0 
1.376908451136e-02 1.077345484760e-04 0.0 
0.0 0.0 -4.948307021553e-04 
6.169751766762e-05 5.372677425910e-03 0.0 
5.372677425910e-03 1.884750405569e-03 0.0 
0.0 0.0 -8.341919671012e-04 
8.341721467740e-04 -2.510433576068e-03 0.0 
-2.510433576068e-03 5.276394565767e-04 0.0 
0.0 0.0 -5.836335442932e-04 
-1.247042165843e-03 3.250100918931e-03 0.0 
3.250100918931e-03 5.099970820779e-03 0.0 
0.0 0.0 -1.043024347135e-03 
1.398579269554e-03 -2.407542632524e-03 0.0 
-2.407542632524e-03 -5.983831180074e-05 0.0 
0.0 0.0 -5.737461247515e-04 
5.492933481764e-03 1.018306051159e-02 0.0 
1.018306051159e-02 -4.636460893126e-03 0.0 
0.0 0.0 -3.670596808449e-04 
1.355732867040e-03 -2.604988973303e-03 0.0 
-2.604988973303e-03 1.211692090052e-04 0.0 
0.0 0.0 -6.329580325906e-04 
1.514980587433e-03 9.427397192133e-03 0.0 
9.427397192133e-03 -2.560716350182e-04 0.0 
0.0 0.0 -5.395324081779e-04 
5.568216692572e-03 4.872833104763e-03 0.0 
4.872833104763e-03 -4.139674935303e-03 0.0 
0.0 0.0 -6.122321816867e-04 
1.369708342218e-03 -2.505815860061e-03 0.0 
-2.505815860061e-03 1.379063624889e-04 0.0 
0.0 0.0 -6.461205877315e-04 
3.299770137909e-03 5.646014698706e-03 0.0 
5.646014698706e-03 -1.256540590126e-03 0.0 
0.0 0.0 -8.756698061928e-04 
-1.585509504414e-03 6.854986193214e-05 0.0 
6.854986193214e-05 6.515313053331e-03 0.0 
0.0 0.0 -9.494079867578e-04 
1.950119496099e-04 -2.582141659643e-03 0.0 
-2.582141659643e-03 1.322040652856e-03 0.0 
0.0 0.0 -6.501654010570e-04 
2.663332965266e-03 1.390993519466e-02 0.0 
1.390993519466e-02 -1.402047550117e-03 0.0 
0.0 0.0 -5.405508922066e-04 
1.415172795549e-03 -2.047375867552e-03 0.0 
-2.047375867552e-03 6.074058841206e-04 0.0 
0.0 0.0 -8.668194341442e-04 
1.288055468272e-03 8.737222996956e-03 0.0 
8.737222996956e-03 -3.410774687092e-05 0.0 
0.0 0.0 -5.374061663147e-04 
1.729294758708e-03 8.806213132645e-04 0.0 
8.806213132645e-04 -1.729294758708e-03 0.0 
0.0 0.0 0.0 
-1.483198277618e-03 2.721071498371e-04 0.0 
2.721071498371e-04 8.165740664983e-03 0.0 
0.0 0.0 -1.223389224544e-03 
-1.535254932215e-03 2.717190120097e-04 0.0 
2.717190120097e-04 7.854733745092e-03 0.0 
0.0 0.0 -1.157435638217e-03 
1.714590457334e-06 -7.115369139069e-04 0.0 
-7.115369139069e-04 4.515715516867e-04 0.0 
0.0 0.0 -1.942654894903e-04 
1.201016095683e-03 -2.160446340202e-03 0.0 
-2.160446340202e-03 8.177553262147e-04 0.0 
0.0 0.0 -8.651877522419e-04 
-2.798740380973e-05 -2.159694096595e-03 0.0 
-2.159694096595e-03 1.431561792510e-03 0.0 
0.0 0.0 -6.015318808715e-04 
-1.829025907462e-04 -2.119639284792e-03 0.0 
-2.119639284792e-03 1.714857895665e-03 0.0 
0.0 0.0 -6.565522735366e-04 
-6.783970201896e-04 3.769177351348e-03 0.0 
3.769177351348e-03 4.557919946972e-03 0.0 
0.0 0.0 -1.100737838324e-03 
3.762937543303e-03 5.250741040966e-03 0.0 
5.250741040966e-03 -1.383896658142e-03 0.0 
0.0 0.0 -9.467522836136e-04 
-2.312466270997e-04 4.131981972017e-03 0.0 
4.131981972017e-03 3.739321238293e-03 0.0 
0.0 0.0 -1.064854740548e-03 
3.551133246731e-03 -2.349849162010e-03 0.0 
-2.349849162010e-03 -2.271178162358e-03 0.0 
0.0 0.0 -5.485521790173e-04 
-1.446388010227e-03 1.342323327112e-04 0.0 
1.342323327112e-04 5.217166277606e-03 0.0 
0.0 0.0 -7.105917616147e-04 
-1.197543499266e-03 -1.810608894436e-03 0.0 
-1.810608894436e-03 5.325302062837e-03 0.0 
0.0 0.0 -1.281538364137e-03 
-1.726353625323e-04 -1.807145954026e-03 0.0 
-1.807145954026e-03 1.497715714659e-03 0.0 
0.0 0.0 -5.678915794828e-04 
9.134455326537e-04 2.472170799592e-04 0.0 
2.472170799592e-04 1.960223089293e-03 0.0 
0.0 0.0 -1.121221582973e-03 
4.537163029465e-03 5.338726544215e-03 0.0 
5.338726544215e-03 -2.915498889391e-03 0.0 
0.0 0.0 -6.949989171747e-04 
-5.424671300971e-04 -2.887281693977e-04 0.0 
-2.887281693977e-04 1.675559050033e-03 0.0 
0.0 0.0 -3.973267919445e-04 
-1.360155763593e-03 3.097514486866e-03 0.0 
3.097514486866e-03 5.194571229381e-03 0.0 
0.0 0.0 -1.015166614560e-03 
6.098972613634e-03 -7.855792610020e-04 0.0 
-7.855792610020e-04 -4.624453005484e-03 0.0 
0.0 0.0 -6.319369749211e-04 
2.871950510200e-04 -2.057705951039e-03 0.0 
-2.057705951039e-03 8.654869691646e-04 0.0 
0.0 0.0 -4.940065800791e-04 
5.312718663376e-03 -2.185096292803e-03 0.0 
-2.185096292803e-03 -3.740689105967e-03 0.0 
0.0 0.0 -6.737269531753e-04 
-2.035172389928e-03 5.681521720379e-05 0.0 
5.681521720379e-05 5.818689376235e-03 0.0 
0.0 0.0 -1.069816800183e-03 
-1.547603731344e-03 2.557965682965e-03 0.0 
2.557965682965e-03 5.760856088478e-03 0.0 
0.0 0.0 -1.020980360542e-03 
3.535477644423e-04 -2.409077986448e-03 0.0 
-2.409077986448e-03 9.968391477695e-04 0.0 
0.0 0.0 -5.787372480908e-04 
-1.638049386592e-03 -5.261620418510e-04 0.0 
-5.261620418510e-04 4.881654597217e-03 0.0 
0.0 0.0 -1.045407985144e-03 
-1.131069213092e-03 3.339054972024e-03 0.0 
3.339054972024e-03 5.004170711216e-03 0.0 
0.0 0.0 -1.071782534217e-03 
1.218379180689e-03 2.730941698940e-03 0.0 
2.730941698940e-03 1.947583806557e-03 0.0 
0.0 0.0 -1.109893377180e-03 
5.081300325286e-04 -2.843687144981e-03 0.0 
-2.843687144981e-03 1.050709009186e-03 0.0 
0.0 0.0 -6.680738750205e-04 
-8.485846460072e-04 -2.429092323345e-04 0.0 
-2.429092323345e-04 2.701937249489e-03 0.0 
0.0 0.0 -7.163733244607e-04 
4.853065884718e-03 5.139215585495e-03 0.0 
5.139215585495e-03 -3.394307281195e-03 0.0 
0.0 0.0 -6.251822586527e-04 
-1.556582639800e-03 -2.026954580916e-04 0.0 
-2.026954580916e-04 6.435079901625e-03 0.0 
0.0 0.0 -9.278975173457e-04 
6.306613738133e-04 -2.843431008643e-03 0.0 
-2.843431008643e-03 9.087558385051e-04 0.0 
0.0 0.0 -6.597502338507e-04 
-5.979639842794e-04 3.897662192548e-03 0.0 
3.897662192548e-03 5.565246997462e-03 0.0 
0.0 0.0 -1.269179263064e-03 
-1.428509069589e-03 2.793670889960e-03 0.0 
2.793670889960e-03 7.317810969107e-03 0.0 
0.0 0.0 -1.281197857596e-03 
-1.509195270466e-03 -1.457985023921e-04 0.0 
-1.457985023921e-04 5.771603983327e-03 0.0 
0.0 0.0 -8.387747867703e-04 
-1.581495188537e-03 1.397540288099e-03 0.0 
1.397540288099e-03 8.227342162666e-03 0.0 
0.0 0.0 -1.255037608383e-03 
-1.190573434629e-03 3.360110521347e-03 0.0 
3.360110521347e-03 6.774724721004e-03 0.0 
0.0 0.0 -1.285499913836e-03 
3.283924301010e-03 -2.208767029423e-03 0.0 
-2.208767029423e-03 -1.959302926948e-03 0.0 
0.0 0.0 -5.676948745980e-04 
1.380801218232e-03 -2.351235301793e-03 0.0 
-2.351235301793e-03 -1.698746639676e-04 0.0 
0.0 0.0 -5.189685232560e-04 
-5.757297583633e-04 4.366962327414e-04 0.0 
4.366962327414e-04 4.537400147680e-03 0.0 
0.0 0.0 -1.265535665854e-03 
0.0 0.0 0.0 
0.0 0.0 0.0 
0.0 0.0 0.0 
-8.394320087675e-04 -3.205840844428e-05 0.0 
-3.205840844428e-05 2.565992005118e-03 0.0 
0.0 0.0 -6.072167217314e-04 
-1.628413269992e-03 -1.673586948164e-04 0.0 
-1.673586948164e-04 4.868895534124e-03 0.0 
0.0 0.0 -1.067827858613e-03 
4.161330338528e-04 -2.673128765629e-03 0.0 
-2.673128765629e-03 1.065048131365e-03 0.0 
0.0 0.0 -6.347919279505e-04 
2.492560783961e-03 -2.652975317046e-03 0.0 
-2.652975317046e-03 -1.072678753967e-03 0.0 
0.0 0.0 -6.085208699972e-04 
-6.108959139157e-04 7.577907360388e-03 0.0 
7.577907360388e-03 1.797278960873e-03 0.0 
0.0 0.0 -5.084498772674e-04 
-8.031327782337e-04 8.392335145891e-03 0.0 
8.392335145891e-03 2.132508740323e-03 0.0 
0.0 0.0 -5.697325551813e-04 
-1.696184299969e-03 4.188758800933e-04 0.0 
4.188758800933e-04 5.835163577314e-03 0.0 
0.0 0.0 -8.290026594306e-04 
5.186020876828e-03 -2.091678910399e-03 0.0 
-2.091678910399e-03 -3.734746905761e-03 0.0 
0.0 0.0 -6.219745590288e-04 
-8.374689021838e-04 -7.956683833314e-04 0.0 
-7.956683833314e-04 2.821114433129e-03 0.0 
0.0 0.0 -8.100060677168e-04 
1.445571748605e-03 3.903400873097e-03 0.0 
3.903400873097e-03 1.457714405227e-03 0.0 
0.0 0.0 -1.077832113627e-03 
-1.357626258592e-03 -2.064052997114e-03 0.0 
-2.064052997114e-03 6.484172296954e-03 0.0 
0.0 0.0 -1.324978758543e-03 
-1.316853930481e-03 -2.171233133158e-03 0.0 
-2.171233133158e-03 6.262828385778e-03 0.0 
0.0 0.0 -1.320624918399e-03 
1.210545566472e-03 -2.440771907645e-03 0.0 
-2.440771907645e-03 2.098806390541e-04 0.0 
0.0 0.0 -6.087540880828e-04 
-1.669792706879e-03 7.585625911679e-04 0.0 
7.585625911679e-04 5.225921064138e-03 0.0 
0.0 0.0 -7.877541558771e-04 
0.0 0.0 0.0 
0.0 0.0 0.0 
0.0 0.0 0.0 
-7.031871593281e-04 1.096228185404e-02 0.0 
1.096228185404e-02 1.772117048805e-03 0.0 
0.0 0.0 -4.581128097759e-04 
2.974245224107e-03 -5.155683271197e-03 0.0 
-5.155683271197e-03 -1.651340838982e-03 0.0 
0.0 0.0 -5.669590221966e-04 
-7.168798012098e-04 1.027762060920e-02 0.0 
1.027762060920e-02 1.829984311136e-03 0.0 
0.0 0.0 -4.770447899684e-04 
4.425081828655e-03 5.082267082007e-03 0.0 
5.082267082007e-03 -2.412409461676e-03 0.0 
0.0 0.0 -8.625738715628e-04 
1.049602008115e-03 -2.610080274348e-03 0.0 
-2.610080274348e-03 3.535904184598e-04 0.0 
0.0 0.0 -6.013681828177e-04 
2.457284917280e-03 -2.615601791839e-03 0.0 
-2.615601791839e-03 -1.235186162161e-03 0.0 
0.0 0.0 -5.237566093371e-04 
2.990227545592e-03 -6.240556204895e-03 0.0 
-6.240556204895e-03 -2.743761553193e-03 0.0 
0.0 0.0 -1.056282824569e-04 
-1.518150307999e-03 2.180517986998e-04 0.0 
2.180517986998e-04 7.814279060755e-03 0.0 
0.0 0.0 -1.176327079312e-03 
1.081599261770e-03 -2.356565631716e-03 0.0 
-2.356565631716e-03 1.958644745057e-04 0.0 
0.0 0.0 -5.474844584040e-04 
-1.503838573524e-03 8.537407365335e-04 0.0 
8.537407365335e-04 8.091641180223e-03 0.0 
0.0 0.0 -1.212957849656e-03 
-1.563004608103e-03 1.345074243690e-04 0.0 
1.345074243690e-04 7.574721874408e-03 0.0 
0.0 0.0 -1.117460450001e-03 
-1.452677521913e-03 3.546154927313e-04 0.0 
3.546154927313e-04 8.989483437301e-03 0.0 
0.0 0.0 -1.319418651152e-03 
-1.573682658163e-03 -6.434523803718e-04 0.0 
-6.434523803718e-04 7.311749488072e-03 0.0 
0.0 0.0 -1.324849633189e-03 
-1.522640732825e-03 1.776300828802e-04 0.0 
1.776300828802e-04 5.910709247101e-03 0.0 
0.0 0.0 -8.315138651140e-04 
8.069897163257e-04 -2.530526196753e-03 0.0 
-2.530526196753e-03 5.619735093356e-04 0.0 
0.0 0.0 -5.866985252834e-04 
-7.713398336371e-04 7.115415890169e-03 0.0 
7.115415890169e-03 2.165948694863e-03 0.0 
0.0 0.0 -5.976895119538e-04 
7.490285409449e-04 -3.064892262470e-03 0.0 
-3.064892262470e-03 9.033898181147e-04 0.0 
0.0 0.0 -7.081792967398e-04 
-1.343328350294e-03 -1.797161006887e-03 0.0 
-1.797161006887e-03 6.496235434020e-03 0.0 
0.0 0.0 -1.343328350294e-03 
-1.132184425375e-03 1.387537195987e-02 0.0 
1.387537195987e-02 2.028987048414e-03 0.0 
0.0 0.0 -3.843439813024e-04 
-8.332086966421e-04 1.199031596513e-02 0.0 
1.199031596513e-02 1.821598153514e-03 0.0 
0.0 0.0 -4.235954815164e-04 
5.071963019451e-04 6.459073691122e-04 0.0 
6.459073691122e-04 2.625019152975e-03 0.0 
0.0 0.0 -1.156027955174e-03 
-1.600063486753e-03 4.454182285367e-04 0.0 
4.454182285367e-04 5.553533901810e-03 0.0 
0.0 0.0 -7.715229432315e-04 
-1.496300168116e-03 6.368230222668e-04 0.0 
6.368230222668e-04 8.172597464420e-03 0.0 
0.0 0.0 -1.219279742240e-03 
-1.045861482646e-03 3.079638257124e-03 0.0 
3.079638257124e-03 5.010832156392e-03 0.0 
0.0 0.0 -1.069611963270e-03 
1.431630591764e-04 2.656581670328e-03 0.0 
2.656581670328e-03 3.187360920893e-03 0.0 
0.0 0.0 -1.175036385391e-03 
-1.440706362563e-03 2.765679407787e-03 0.0 
2.765679407787e-03 6.040073424197e-03 0.0 
0.0 0.0 -1.113576918908e-03 
-1.533426048517e-03 3.483355765343e-04 0.0 
3.483355765343e-04 5.830518730214e-03 0.0 
0.0 0.0 -8.542750875040e-04 
4.145616627609e-04 -2.510686493370e-03 0.0 
-2.510686493370e-03 9.700386978898e-04 0.0 
0.0 0.0 -5.934001545646e-04 
5.188237827813e-04 -2.738227656747e-03 0.0 
-2.738227656747e-03 9.760172721955e-04 0.0 
0.0 0.0 -6.406461664186e-04 
-1.559322814184e-03 2.985337068608e-04 0.0 
2.985337068608e-04 6.828450389527e-03 0.0 
0.0 0.0 -9.963059934037e-04 
7.076641590559e-04 2.780387475178e-03 0.0 
2.780387475178e-03 2.709079588594e-03 0.0 
0.0 0.0 -1.142506377625e-03 
-2.252103922276e-03 1.374664997785e-03 0.0 
1.374664997785e-03 5.286891489976e-03 0.0 
0.0 0.0 -7.386355146563e-04 
-1.463703012742e-03 6.266658719779e-05 0.0 
6.266658719779e-05 5.604963867248e-03 0.0 
0.0 0.0 -7.676068998053e-04 
-1.515549186513e-03 3.697674288865e-05 0.0 
3.697674288865e-05 5.930448629907e-03 0.0 
0.0 0.0 -8.242303029217e-04 
-1.592254304502e-03 -3.437592554212e-05 0.0 
-3.437592554212e-05 6.006274404460e-03 0.0 
0.0 0.0 -8.467401457521e-04 
3.571995190516e-03 -3.168413870376e-03 0.0 
-3.168413870376e-03 -3.037938412001e-03 0.0 
0.0 0.0 -2.288814765064e-04 
2.490964718879e-04 -2.584180670905e-03 0.0 
-2.584180670905e-03 1.241456993708e-03 0.0 
0.0 0.0 -6.388086281126e-04 
-1.524289002589e-03 1.055576054381e-03 0.0 
1.055576054381e-03 8.572679794113e-03 0.0 
0.0 0.0 -1.269310366786e-03 
-1.609154575879e-03 5.927002029432e-05 0.0 
5.927002029432e-05 6.380922986421e-03 0.0 
0.0 0.0 -9.150577043801e-04 
-9.099437829954e-04 1.617518349232e-03 0.0 
1.617518349232e-03 4.661075676102e-03 0.0 
0.0 0.0 -1.295322057178e-03 
-1.481137119135e-03 2.911611220647e-03 0.0 
2.911611220647e-03 6.859531798370e-03 0.0 
0.0 0.0 -1.215577547940e-03 
-1.339321083005e-03 2.882096422563e-03 0.0 
2.882096422563e-03 5.250850385045e-03 0.0 
0.0 0.0 -1.012565562176e-03 
-1.640900346179e-03 1.517631824607e-03 0.0 
1.517631824607e-03 7.910833663920e-03 0.0 
0.0 0.0 -1.214907066889e-03 
-1.059540956040e-03 -1.334979029727e-03 0.0 
-1.334979029727e-03 3.594823103032e-03 0.0 
0.0 0.0 -9.974489174931e-04 
-1.013156646554e-03 -1.368118382081e-03 0.0 
-1.368118382081e-03 3.447232281497e-03 0.0 
0.0 0.0 -9.464646038184e-04 
-1.053605941392e-03 -1.657375267239e-03 0.0 
-1.657375267239e-03 4.938505543447e-03 0.0 
0.0 0.0 -1.226851238141e-03 
2.099792069340e-03 -2.999325829540e-03 0.0 
-2.999325829540e-03 -2.099792069340e-03 0.0 
0.0 0.0 0.0 
-9.591830860426e-04 -2.723797524876e-04 0.0 
-2.723797524876e-04 2.822378765221e-03 0.0 
0.0 0.0 -5.777536677209e-04 
-1.342405754833e-03 2.832331701177e-03 0.0 
2.832331701177e-03 5.623065616304e-03 0.0 
0.0 0.0 -1.342405754833e-03 
2.211702033488e-04 -1.308283279638e-05 0.0 
-1.308283279638e-05 7.672822907546e-04 0.0 
0.0 0.0 -2.724401835525e-04 
-1.475085458698e-03 8.547838585484e-05 0.0 
8.547838585484e-05 5.344445388578e-03 0.0 
0.0 0.0 -7.870118106326e-04 
-4.568489013286e-05 -1.994379998751e-04 0.0 
-1.994379998751e-04 3.736500799318e-03 0.0 
0.0 0.0 -1.213461936786e-03 
-7.635875139997e-06 -1.081722019394e-03 0.0 
-1.081722019394e-03 7.060070926500e-04 0.0 
0.0 0.0 -2.993019503614e-04 
1.505773719545e-03 -8.263394782763e-04 0.0 
-8.263394782763e-04 -6.336254798976e-05 0.0 
0.0 0.0 -2.382422751898e-04 
-1.473393185853e-03 1.353598964677e-03 0.0 
1.353598964677e-03 8.746165970417e-03 0.0 
0.0 0.0 -1.324389858384e-03 
-1.521392000938e-03 2.912474066464e-04 0.0 
2.912474066464e-04 4.940937614450e-03 0.0 
0.0 0.0 -7.294542769151e-04 
-1.503978704987e-03 1.473877310897e-03 0.0 
1.473877310897e-03 8.344062810088e-03 0.0 
0.0 0.0 -1.261418349269e-03 
-5.327298325037e-04 3.575837178235e-04 0.0 
3.575837178235e-04 3.642687559217e-03 0.0 
0.0 0.0 -1.231858344535e-03 
-1.518533849991e-03 1.071472041001e-04 0.0 
1.071472041001e-04 4.942575461076e-03 0.0 
0.0 0.0 -7.289279708929e-04 
0.0 0.0 0.0 
0.0 0.0 0.0 
0.0 0.0 0.0 
-1.422405127371e-03 1.531540875437e-04 0.0 
1.531540875437e-04 8.427070743481e-03 0.0 
0.0 0.0 -1.284140717545e-03 
-3.551011727049e-04 -7.009671051649e-04 0.0 
-7.009671051649e-04 1.319322733909e-03 0.0 
0.0 0.0 -3.479328688591e-04 
-1.509662464093e-03 1.187111297047e-03 0.0 
1.187111297047e-03 8.089981201651e-03 0.0 
0.0 0.0 -1.232184317627e-03 
-1.343095105526e-03 -1.540983607491e-03 0.0 
-1.540983607491e-03 6.702452530061e-03 0.0 
0.0 0.0 -1.343095105526e-03 
-1.554707611052e-03 2.562602135152e-03 0.0 
2.562602135152e-03 7.111310188225e-03 0.0 
0.0 0.0 -1.225700354592e-03 
4.565651369093e-03 -3.228264604756e-03 0.0 
-3.228264604756e-03 -3.506732784518e-03 0.0 
0.0 0.0 -4.538222505322e-04 
-1.741082427331e-03 1.054953553281e-03 0.0 
1.054953553281e-03 5.737463170789e-03 0.0 
0.0 0.0 -8.279144014868e-04 
-1.224194647146e-03 -9.467109309958e-04 0.0 
-9.467109309958e-04 3.877522353974e-03 0.0 
0.0 0.0 -9.630043323905e-04 
1.618948226018e-03 3.402459309587e-03 0.0 
3.402459309587e-03 1.431061169425e-03 0.0 
0.0 0.0 -1.077599360682e-03 
-1.012701747737e-03 1.623436123670e-03 0.0 
1.623436123670e-03 5.329514602195e-03 0.0 
0.0 0.0 -1.326997735404e-03 
-1.585109039191e-03 2.780588406276e-04 0.0 
2.780588406276e-04 7.347999637207e-03 0.0 
0.0 0.0 -1.061614915164e-03 
-1.008710860855e-03 1.312542642731e-03 0.0 
1.312542642731e-03 5.209194240256e-03 0.0 
0.0 0.0 -1.325870641008e-03 
2.778501633470e-03 -2.412242433849e-03 0.0 
-2.412242433849e-03 -2.778501633470e-03 0.0 
0.0 0.0 0.0 
-1.430003464036e-03 -1.969193470792e-03 0.0 
-1.969193470792e-03 6.388366935774e-03 0.0 
0.0 0.0 -1.277656510522e-03 
4.369876211755e-03 -4.741380391220e-03 0.0 
-4.741380391220e-03 -2.616225758842e-03 0.0 
0.0 0.0 -7.515644798196e-04 
-4.257097899325e-05 -2.641092605527e-04 0.0 
-2.641092605527e-04 8.842669225461e-04 0.0 
0.0 0.0 -2.782378078114e-04 
-7.322007537650e-04 -9.555468943118e-04 0.0 
-9.555468943118e-04 4.734669521016e-03 0.0 
0.0 0.0 -1.270335377537e-03 
-1.575122942683e-03 2.171152972729e-03 0.0 
2.171152972729e-03 8.127111917130e-03 0.0 
0.0 0.0 -1.270603359501e-03 
-1.496692965649e-03 1.319095711312e-03 0.0 
1.319095711312e-03 8.369617950368e-03 0.0 
0.0 0.0 -1.289850838753e-03 
-1.498527200318e-03 3.689228571039e-04 0.0 
3.689228571039e-04 5.398355138859e-03 0.0 
0.0 0.0 -7.762633204683e-04 
-1.744558354744e-03 1.631310676350e-03 0.0 
1.631310676350e-03 5.391746306119e-03 0.0 
0.0 0.0 -8.489529362435e-04 
2.220845417188e-03 1.153727533142e-02 0.0 
1.153727533142e-02 -9.059321706985e-04 0.0 
0.0 0.0 -5.635342484957e-04 
-1.346049868813e-03 3.286639471501e-03 0.0 
3.286639471501e-03 7.043584398677e-03 0.0 
0.0 0.0 -1.273041473476e-03 
-1.038080719471e-03 -6.334570087308e-04 0.0 
-6.334570087308e-04 3.329140480764e-03 0.0 
0.0 0.0 -8.764843149172e-04 
4.759353117299e-03 1.503303721167e-02 0.0 
1.503303721167e-02 -3.535510487121e-03 0.0 
0.0 0.0 -5.245039843621e-04 
1.111365793798e-03 3.221088858191e-03 0.0 
3.221088858191e-03 1.917478393824e-03 0.0 
0.0 0.0 -1.110141529071e-03 
-1.425138137322e-03 6.470798395339e-05 0.0 
6.470798395339e-05 5.179988142805e-03 0.0 
0.0 0.0 -7.096328662732e-04 
-1.517585115342e-03 2.260614719474e-03 0.0 
2.260614719474e-03 7.684999531697e-03 0.0 
0.0 0.0 -1.237729719596e-03 
-1.422593477448e-03 -1.670334611249e-04 0.0 
-1.670334611249e-04 8.888807101193e-03 0.0 
0.0 0.0 -1.321509982054e-03 
-1.343732204276e-03 1.010834953933e-04 0.0 
1.010834953933e-04 8.744729451207e-03 0.0 
0.0 0.0 -1.343732204276e-03 
3.369232126492e-03 1.693280559230e-04 0.0 
1.693280559230e-04 -1.155841201236e-03 0.0 
0.0 0.0 -6.603666768414e-05 
2.594788442389e-03 -2.942081930705e-04 0.0 
-2.942081930705e-04 -1.008160425913e-03 0.0 
0.0 0.0 -1.817976932189e-04 
-1.416942128620e-03 -1.624029676109e-04 0.0 
-1.624029676109e-04 5.054688992973e-03 0.0 
0.0 0.0 -7.318233512793e-04 
-1.419792893404e-03 3.183177604522e-05 0.0 
3.183177604522e-05 5.196638347434e-03 0.0 
0.0 0.0 -7.096011290571e-04 
-1.343732204276e-03 -2.406936037715e-04 0.0 
-2.406936037715e-04 7.113693032304e-03 0.0 
0.0 0.0 -1.343732204276e-03 
-1.562203585825e-03 1.305016391806e-04 0.0 
1.305016391806e-04 7.294302504235e-03 0.0 
0.0 0.0 -1.321509982054e-03 
2.262811037578e-03 -4.868403071367e-05 0.0 
-4.868403071367e-05 -4.447467837794e-04 0.0 
0.0 0.0 -2.434615908245e-04 
0.0 0.0 0.0 
0.0 0.0 0.0 
0.0 0.0 0.0 
-1.642313907969e-03 -1.143113511814e-03 0.0 
-1.143113511814e-03 6.403076283141e-03 0.0 
0.0 0.0 -1.230181737024e-03 
-8.640606316637e-05 3.649030855865e-03 0.0 
3.649030855865e-03 4.113974040098e-03 0.0 
0.0 0.0 -1.209364118140e-03 
-4.500767267552e-04 -7.895910032560e-04 0.0 
-7.895910032560e-04 1.612884470078e-03 0.0 
0.0 0.0 -3.144533898553e-04 
-1.351136438279e-03 -1.975186179308e-03 0.0 
-1.975186179308e-03 5.772523348463e-03 0.0 
0.0 0.0 -1.240191881334e-03 
-1.731554632553e-03 -2.342398403810e-04 0.0 
-2.342398403810e-04 5.123990276158e-03 0.0 
0.0 0.0 -1.081029080859e-03 
-1.535845139517e-03 -3.312382585291e-04 0.0 
-3.312382585291e-04 4.629162629476e-03 0.0 
0.0 0.0 -1.039595904837e-03 
-1.612928706957e-03 3.113730006726e-04 0.0 
3.113730006726e-04 6.721792739589e-03 0.0 
0.0 0.0 -9.400782610458e-04 
1.101421061084e-03 -2.909512193680e-03 0.0 
-2.909512193680e-03 4.457906368086e-04 0.0 
0.0 0.0 -6.630907276683e-04 
2.717281917106e-03 4.251779916735e-03 0.0 
4.251779916735e-03 1.045439445474e-05 0.0 
0.0 0.0 -1.011657465016e-03 
3.053953633043e-05 -1.090174490100e-03 0.0 
-1.090174490100e-03 1.242587918070e-03 0.0 
0.0 0.0 -3.097963217911e-04 
-1.220126007134e-03 -1.262020264430e-03 0.0 
-1.262020264430e-03 3.977099482089e-03 0.0 
0.0 0.0 -1.029451436826e-03 
-1.289193166473e-03 3.228024932599e-03 0.0 
3.228024932599e-03 6.535369504151e-03 0.0 
0.0 0.0 -1.240519096027e-03 
-1.527894889398e-03 -1.936018657920e-04 0.0 
-1.936018657920e-04 8.104261702945e-03 0.0 
0.0 0.0 -1.191726112421e-03 
-1.479396360357e-03 -2.989971596189e-04 0.0 
-2.989971596189e-04 4.503238817139e-03 0.0 
0.0 0.0 -1.046336039097e-03 
-1.560842421660e-03 -8.540456832086e-05 0.0 
-8.540456832086e-05 6.232717148515e-03 0.0 
0.0 0.0 -8.745659502648e-04 
-1.161293987110e-04 4.147066571619e-03 0.0 
4.147066571619e-03 4.680142586027e-03 0.0 
0.0 0.0 -1.217119345309e-03 
-1.351529115626e-03 2.876362203055e-03 0.0 
2.876362203055e-03 5.976398005188e-03 0.0 
0.0 0.0 -1.140944809983e-03 
-1.341013158963e-03 2.862888668155e-03 0.0 
2.862888668155e-03 5.603065071307e-03 0.0 
0.0 0.0 -1.076426999079e-03 
-1.492882998354e-03 1.325735461083e-04 0.0 
1.325735461083e-04 4.933841446090e-03 0.0 
0.0 0.0 -7.312123441678e-04 
3.355311693152e-03 4.134651677249e-03 0.0 
4.134651677249e-03 -9.252242038443e-04 0.0 
0.0 0.0 -9.763781674015e-04 
-1.502422605285e-03 2.514513612527e-03 0.0 
2.514513612527e-03 7.380594194812e-03 0.0 
0.0 0.0 -1.231404929774e-03 
-8.003792871297e-04 -5.108965880218e-04 0.0 
-5.108965880218e-04 2.603757424793e-03 0.0 
0.0 0.0 -7.107894383394e-04 
1.065987435240e-03 -1.103620249321e-03 0.0 
-1.103620249321e-03 1.730970476835e-04 0.0 
0.0 0.0 -3.853052311507e-04 
7.388306053427e-05 4.063693983428e-03 0.0 
4.063693983428e-03 4.178701737942e-03 0.0 
0.0 0.0 -1.185975225609e-03 
9.235400654118e-04 8.189216691817e-04 0.0 
8.189216691817e-04 1.895289590186e-03 0.0 
0.0 0.0 -1.123538223191e-03 
1.172927684885e-03 -2.889497196016e-03 0.0 
-2.889497196016e-03 3.300442381492e-04 0.0 
0.0 0.0 -6.441308241577e-04 
-1.607945126080e-03 -1.740082688204e-05 0.0 
-1.740082688204e-05 7.004832338719e-03 0.0 
0.0 0.0 -9.893338170986e-04 
-1.512467681835e-03 -1.269144618606e-03 0.0 
-1.269144618606e-03 6.614649124568e-03 0.0 
0.0 0.0 -1.282739585886e-03 
5.225285141615e-05 3.777657142206e-03 0.0 
3.777657142206e-03 3.758841886751e-03 0.0 
0.0 0.0 -1.182073443778e-03 
-3.989682635520e-05 3.839628377239e-03 0.0 
3.839628377239e-03 4.461893135065e-03 0.0 
0.0 0.0 -1.215129606110e-03 
-1.899421587696e-03 -4.002758172017e-04 0.0 
-4.002758172017e-04 5.518204821451e-03 0.0 
0.0 0.0 -1.079026350805e-03 
5.364670321065e-03 9.681178053429e-03 0.0 
9.681178053429e-03 -5.364670321065e-03 0.0 
0.0 0.0 0.0 
-6.484296169330e-04 7.806274012753e-03 0.0 
7.806274012753e-03 1.778765937188e-03 0.0 
0.0 0.0 -4.844298515380e-04 
1.361059026322e-03 9.197727279771e-03 0.0 
9.197727279771e-03 -8.395991750197e-07 0.0 
0.0 0.0 -5.829511830629e-04 
-1.721178049984e-03 1.085378291777e-03 0.0 
1.085378291777e-03 5.473315709064e-03 0.0 
0.0 0.0 -8.471429939415e-04 
3.052302377414e-03 4.706382682322e-03 0.0 
4.706382682322e-03 -8.969742900703e-04 0.0 
0.0 0.0 -9.237120374330e-04 
-1.533799557255e-03 6.728038073689e-04 0.0 
6.728038073689e-04 8.237501439824e-03 0.0 
0.0 0.0 -1.236541257690e-03 
-8.719226860915e-04 7.267313533335e-04 0.0 
7.267313533335e-04 4.230245890387e-03 0.0 
0.0 0.0 -1.282325209426e-03 
2.964520960670e-04 -1.978928276592e-03 0.0 
-1.978928276592e-03 8.042557840210e-04 0.0 
0.0 0.0 -4.717319486092e-04 
1.319048487483e-04 -1.576566321261e-03 0.0 
-1.576566321261e-03 7.886992305850e-04 0.0 
0.0 0.0 -3.945446054286e-04 
-6.946752870208e-04 1.060244851227e-02 0.0 
1.060244851227e-02 1.776643196878e-03 0.0 
0.0 0.0 -4.637005327958e-04 
-1.570049742763e-03 5.369425789645e-04 0.0 
5.369425789645e-04 6.963270594615e-03 0.0 
0.0 0.0 -1.019242131223e-03 
-9.308723645065e-04 -1.101236884891e-03 0.0 
-1.101236884891e-03 3.096386949501e-03 0.0 
0.0 0.0 -8.257845680531e-04 
-1.587305306336e-03 1.706805244546e-03 0.0 
1.706805244546e-03 7.938189703079e-03 0.0 
0.0 0.0 -1.241298427557e-03 
-1.358227848229e-04 -4.030130487219e-04 0.0 
-4.030130487219e-04 1.304240711869e-03 0.0 
0.0 0.0 -2.728146851408e-04 
-4.170965215804e-04 8.076284239686e-04 0.0 
8.076284239686e-04 3.617374078138e-03 0.0 
0.0 0.0 -1.221152601860e-03 
-1.613149922033e-03 6.729604599103e-04 0.0 
6.729604599103e-04 5.730913827298e-03 0.0 
0.0 0.0 -8.343732341398e-04 
-9.805029045404e-04 2.320290812643e-03 0.0 
2.320290812643e-03 4.821535310315e-03 0.0 
0.0 0.0 -1.286815605725e-03 
1.142271689541e-03 3.462564663603e-03 0.0 
3.462564663603e-03 2.259632001739e-03 0.0 
0.0 0.0 -1.111121968474e-03 
-1.760642934702e-03 1.153303269584e-03 0.0 
1.153303269584e-03 5.427908306702e-03 0.0 
0.0 0.0 -8.465141837044e-04 
-8.764965121591e-04 -1.556039561585e-03 0.0 
-1.556039561585e-03 5.086777567781e-03 0.0 
0.0 0.0 -1.269142588751e-03 
-1.551933899349e-03 2.142615053803e-03 0.0 
2.142615053803e-03 8.208999000424e-03 0.0 
0.0 0.0 -1.272727265576e-03 
-1.482418812719e-03 2.636741981307e-04 0.0 
2.636741981307e-04 8.672320582664e-03 0.0 
0.0 0.0 -1.271339345674e-03 
-9.086730137867e-04 1.231691447201e-02 0.0 
1.231691447201e-02 1.952614339987e-03 0.0 
0.0 0.0 -4.474034255144e-04 
-1.548384254494e-03 1.778472603870e-03 0.0 
1.778472603870e-03 7.853183226647e-03 0.0 
0.0 0.0 -1.218309553141e-03 
-9.735215843228e-04 3.500628145357e-03 0.0 
3.500628145357e-03 5.714234783697e-03 0.0 
0.0 0.0 -1.286645293131e-03 
-4.250664561123e-05 5.722482816250e-04 0.0 
5.722482816250e-04 3.618938806285e-03 0.0 
0.0 0.0 -1.211735819529e-03 
6.025489771523e-04 3.311835941823e-03 0.0 
3.311835941823e-03 2.672319140553e-03 0.0 
0.0 0.0 -1.143254064081e-03 
-1.342665167303e-03 -1.913201158816e-03 0.0 
-1.913201158816e-03 6.140194887135e-03 0.0 
0.0 0.0 -1.342665167303e-03 
-1.336562494305e-03 3.148621666370e-03 0.0 
3.148621666370e-03 5.546558025077e-03 0.0 
0.0 0.0 -1.079065255302e-03 
2.300745625760e-03 4.435178166521e-03 0.0 
4.435178166521e-03 -2.300745625760e-03 0.0 
0.0 0.0 0.0 
3.731261487359e-03 1.667073624380e-02 0.0 
1.667073624380e-02 -2.235316114918e-03 0.0 
0.0 0.0 -6.411194453319e-04 
-1.438782275937e-03 2.878593628370e-03 0.0 
2.878593628370e-03 6.406037302073e-03 0.0 
0.0 0.0 -1.176936364471e-03 
-1.717609899646e-03 1.241798828460e-03 0.0 
1.241798828460e-03 5.908300544731e-03 0.0 
0.0 0.0 -8.884613587993e-04 
-1.780913372705e-03 -9.535977727778e-04 0.0 
-9.535977727778e-04 6.697114639858e-03 0.0 
0.0 0.0 -1.221994126432e-03 
2.514810517440e-04 2.884666683164e-03 0.0 
2.884666683164e-03 3.436801832135e-03 0.0 
0.0 0.0 -1.177009544428e-03 
-1.321487320261e-03 -1.869174225829e-03 0.0 
-1.869174225829e-03 5.949052928407e-03 0.0 
0.0 0.0 -1.292249833993e-03 
-1.557982079132e-03 5.560473992337e-04 0.0 
5.560473992337e-04 7.430714466144e-03 0.0 
0.0 0.0 -1.085521458831e-03 
-9.906508321286e-04 2.010874064209e-03 0.0 
2.010874064209e-03 4.656220140669e-03 0.0 
0.0 0.0 -1.288973456333e-03 
-8.669493969727e-04 -1.781456295850e-03 0.0 
-1.781456295850e-03 4.656567585957e-03 0.0 
0.0 0.0 -1.233322439334e-03 
-8.389834207114e-04 -1.353105162080e-03 0.0 
-1.353105162080e-03 4.612963758963e-03 0.0 
0.0 0.0 -1.235043566395e-03 
-1.060688043098e-03 -7.830630523890e-04 0.0 
-7.830630523890e-04 3.332470677800e-03 0.0 
0.0 0.0 -8.113697483009e-04 
-1.399514092732e-03 -1.981208132211e-03 0.0 
-1.981208132211e-03 6.677395424695e-03 0.0 
0.0 0.0 -1.325641941534e-03 
-1.659266455691e-03 6.538953700681e-04 0.0 
6.538953700681e-04 5.459969626810e-03 0.0 
0.0 0.0 -7.662153309038e-04 
-1.522339522893e-03 2.785636433653e-04 0.0 
2.785636433653e-04 8.220976080768e-03 0.0 
0.0 0.0 -1.217406395242e-03 
2.069000998586e-04 -1.834555044401e-03 0.0 
-1.834555044401e-03 8.418202147660e-04 0.0 
0.0 0.0 -4.494515634106e-04 
-1.554320641115e-03 9.540049576089e-05 0.0 
9.540049576089e-05 8.023345832809e-03 0.0 
0.0 0.0 -1.163202487293e-03 
-1.605625159736e-03 1.859754007895e-04 0.0 
1.859754007895e-04 7.063048343461e-03 0.0 
0.0 0.0 -9.926133712568e-04 
1.165356739135e-03 1.641445221859e-04 0.0 
1.641445221859e-04 4.265456664630e-04 0.0 
0.0 0.0 -3.474471837849e-04 
4.223788375821e-03 -3.757999774973e-03 0.0 
-3.757999774973e-03 -3.547114617521e-03 0.0 
0.0 0.0 -2.900030392716e-04 
-1.244256880666e-03 3.271621003319e-03 0.0 
3.271621003319e-03 5.486132487448e-03 0.0 
0.0 0.0 -1.107581195644e-03 
-1.451044372397e-03 1.126612148562e-03 0.0 
1.126612148562e-03 8.289352558878e-03 0.0 
0.0 0.0 -1.285368862661e-03 
-1.527299749628e-03 6.691441746447e-05 0.0 
6.691441746447e-05 8.328526928916e-03 0.0 
0.0 0.0 -1.223917301752e-03 
-6.542601835067e-04 2.123935983624e-03 0.0 
2.123935983624e-03 4.536265029875e-03 0.0 
0.0 0.0 -1.264779455601e-03 
-1.569067467187e-03 4.931081965661e-04 0.0 
4.931081965661e-04 6.107235089411e-03 0.0 
0.0 0.0 -8.807565902733e-04 
9.036251718301e-04 -7.928332989266e-04 0.0 
-7.928332989266e-04 8.196583140466e-05 0.0 
0.0 0.0 -1.521090440113e-04 
3.312035914920e-03 3.653820549688e-03 0.0 
3.653820549688e-03 -3.312035914920e-03 0.0 
0.0 0.0 0.0 
1.535104090838e-04 -8.781412906566e-04 0.0 
-8.781412906566e-04 3.080308650687e-04 0.0 
0.0 0.0 -1.564070233212e-04 
2.353484151011e-04 -2.169776398881e-03 0.0 
-2.169776398881e-03 1.011611602068e-03 0.0 
0.0 0.0 -5.344114359296e-04 
1.161824964455e-03 2.390975953879e-02 0.0 
2.390975953879e-02 -1.161824964455e-03 0.0 
0.0 0.0 0.0 
-1.313634282752e-03 -1.068658817985e-03 0.0 
-1.068658817985e-03 4.125079470398e-03 0.0 
0.0 0.0 -9.906016899089e-04 
-1.765538454854e-03 -6.603659762189e-04 0.0 
-6.603659762189e-04 6.689629757519e-03 0.0 
0.0 0.0 -1.222305993939e-03 
-1.487013992754e-03 2.874720261213e-03 0.0 
2.874720261213e-03 7.173251573241e-03 0.0 
0.0 0.0 -1.222833113937e-03 
-1.810465878115e-03 1.368618358307e-03 0.0 
1.368618358307e-03 5.754603684206e-03 0.0 
0.0 0.0 -8.826313165011e-04 
-9.427899726930e-04 -1.641697169279e-03 0.0 
-1.641697169279e-03 3.388954329502e-03 0.0 
0.0 0.0 -9.886704355714e-04 
-1.052300381815e-03 -2.069501750766e-03 0.0 
-2.069501750766e-03 5.090082794775e-03 0.0 
0.0 0.0 -1.221067908166e-03 
-1.176347857537e-04 -3.799902937676e-04 0.0 
-3.799902937676e-04 3.697319151187e-03 0.0 
0.0 0.0 -1.208702654310e-03 
-7.488683322697e-04 2.712263996117e-03 0.0 
2.712263996117e-03 5.077873177684e-03 0.0 
0.0 0.0 -1.272252409145e-03 
-5.491537461067e-04 3.624180131395e-03 0.0 
3.624180131395e-03 4.932434758271e-03 0.0 
0.0 0.0 -1.237422270938e-03 
-1.199338427009e-03 3.361574325321e-03 0.0 
3.361574325321e-03 5.823050265508e-03 0.0 
0.0 0.0 -1.171232062679e-03 
5.704301253037e-05 -1.249012332624e-03 0.0 
-1.249012332624e-03 7.024151054081e-04 0.0 
0.0 0.0 -3.254820505451e-04 
2.520371466851e-03 -2.504170298035e-03 0.0 
-2.504170298035e-03 -2.520371466851e-03 0.0 
0.0 0.0 0.0 
-1.712539485778e-03 -1.411450056388e-03 0.0 
-1.411450056388e-03 6.539673002672e-03 0.0 
0.0 0.0 -1.223662873675e-03 
6.989602217045e-04 -1.336828842434e-04 0.0 
-1.336828842434e-04 2.350269279920e-04 0.0 
0.0 0.0 -3.004112795925e-04 
7.120165174136e-04 2.131737522266e-06 0.0 
2.131737522266e-06 4.986713467334e-04 0.0 
0.0 0.0 -3.059539021820e-04 
1.893436187863e-03 1.970810870688e-02 0.0 
1.970810870688e-02 -1.381962765880e-03 0.0 
0.0 0.0 -2.192028951352e-04 
1.631271963867e-04 -1.346040378322e-03 0.0 
-1.346040378322e-03 7.094587977712e-04 0.0 
0.0 0.0 -2.452105594499e-04 
-1.114394941751e-03 -1.506329218264e-03 0.0 
-1.506329218264e-03 4.944157592562e-03 0.0 
0.0 0.0 -1.288571152055e-03 
-8.770687935425e-04 3.695031530289e-03 0.0 
3.695031530289e-03 6.088114306808e-03 0.0 
0.0 0.0 -1.290113636706e-03 
-1.510579169811e-03 9.854603377599e-04 0.0 
9.854603377599e-04 8.241359475843e-03 0.0 
0.0 0.0 -1.236907757659e-03 
-1.086519748050e-03 2.592005204986e-03 0.0 
2.592005204986e-03 5.044458595201e-03 0.0 
0.0 0.0 -1.292605224168e-03 
6.025354788126e-05 -6.222459785157e-04 0.0 
-6.222459785157e-04 3.123455248810e-03 0.0 
0.0 0.0 -1.176879138244e-03 
-1.566246162816e-03 5.074519573883e-04 0.0 
5.074519573883e-04 6.374166084480e-03 0.0 
0.0 0.0 -9.170130443517e-04 
-1.345069444888e-03 1.513726926191e-03 0.0 
1.513726926191e-03 8.492915807412e-03 0.0 
0.0 0.0 -1.345069444888e-03 
2.781594765036e-03 -4.138113087159e-03 0.0 
-4.138113087159e-03 -1.500846705415e-03 0.0 
0.0 0.0 -5.488920255517e-04 
-1.475350828104e-03 1.976985984706e-04 0.0 
1.976985984706e-04 5.152730599786e-03 0.0 
0.0 0.0 -7.083073883397e-04 
7.042658253586e-04 -2.920094682842e-03 0.0 
-2.920094682842e-03 7.774626018425e-04 0.0 
0.0 0.0 -6.350264688005e-04 
8.209178610012e-04 -5.308927043561e-04 0.0 
-5.308927043561e-04 -5.462951484108e-05 0.0 
0.0 0.0 -2.678873894297e-04 
-1.493015975364e-03 -1.542117778823e-03 0.0 
-1.542117778823e-03 7.001843856807e-03 0.0 
0.0 0.0 -1.323850096553e-03 
-1.762927026530e-03 1.105745086140e-03 0.0 
1.105745086140e-03 5.347670343178e-03 0.0 
0.0 0.0 -7.731261162940e-04 
3.957305943063e-04 -4.756765482621e-04 0.0 
-4.756765482621e-04 1.026551771959e-03 0.0 
0.0 0.0 -3.136165521777e-04 
-1.289952526759e-03 -6.554530809443e-04 0.0 
-6.554530809443e-04 4.022238421528e-03 0.0 
0.0 0.0 -9.854929843998e-04 
-7.763980772187e-04 4.069326352540e-03 0.0 
4.069326352540e-03 6.326559128655e-03 0.0 
0.0 0.0 -1.276804206569e-03 
-1.580153705301e-03 9.463034913401e-04 0.0 
9.463034913401e-04 8.179177676168e-03 0.0 
0.0 0.0 -1.228616961883e-03 
-1.459295938370e-03 2.235750315535e-03 0.0 
2.235750315535e-03 7.840317348904e-03 0.0 
0.0 0.0 -1.289666537713e-03 
-1.042366719392e-03 -4.130279661277e-04 0.0 
-4.130279661277e-04 3.166645294064e-03 0.0 
0.0 0.0 -7.209785830746e-04 
2.506004254988e-03 5.391410823036e-04 0.0 
5.391410823036e-04 -2.506004254988e-03 0.0 
0.0 0.0 0.0 
-1.330660736049e-03 -2.112854558462e-03 0.0 
-2.112854558462e-03 6.026587435622e-03 0.0 
0.0 0.0 -1.273144391159e-03 
-1.420679226607e-03 1.845062484055e-04 0.0 
1.845062484055e-04 8.984274218415e-03 0.0 
0.0 0.0 -1.325353038101e-03 
-1.599270300318e-03 -4.031472723049e-04 0.0 
-4.031472723049e-04 7.370420628954e-03 0.0 
0.0 0.0 -1.323783523096e-03 
-1.454892267765e-03 1.410388417337e-04 0.0 
1.410388417337e-04 5.404570969644e-03 0.0 
0.0 0.0 -7.673431308700e-04 
-5.798667066363e-04 -4.017993081382e-04 0.0 
-4.017993081382e-04 3.786051546347e-03 0.0 
0.0 0.0 -1.231867668451e-03 
-2.180033331977e-04 -3.318700133097e-04 0.0 
-3.318700133097e-04 1.082479158083e-03 0.0 
0.0 0.0 -2.923189298614e-04 
-1.540435464510e-03 1.974801601423e-03 0.0 
1.974801601423e-03 7.945053936292e-03 0.0 
0.0 0.0 -1.241575510934e-03 
7.145521585112e-04 -6.472875321066e-04 0.0 
-6.472875321066e-04 -7.700205503898e-06 0.0 
0.0 0.0 -2.216819260022e-04 
-1.035309467580e-03 -9.652751717972e-04 0.0 
-9.652751717972e-04 4.607784315543e-03 0.0 
0.0 0.0 -1.290713494763e-03 
-1.546892534215e-03 2.536580836788e-03 0.0 
2.536580836788e-03 7.963102419275e-03 0.0 
0.0 0.0 -1.268585396830e-03 
2.863549230439e-03 2.480500488296e-03 0.0 
2.480500488296e-03 -2.863549230439e-03 0.0 
0.0 0.0 0.0 
2.462533329220e-04 3.666148161164e-03 0.0 
3.666148161164e-03 3.731295586396e-03 0.0 
0.0 0.0 -1.178018281593e-03 
-1.581615712652e-03 6.406846432010e-05 0.0 
6.406846432010e-05 7.204958832163e-03 0.0 
0.0 0.0 -1.053859681778e-03 
-1.422126824857e-03 8.354035890497e-04 0.0 
8.354035890497e-04 8.383690559568e-03 0.0 
0.0 0.0 -1.289687241943e-03 
-1.346242744377e-03 1.394088556631e-03 0.0 
1.394088556631e-03 5.074174046536e-03 0.0 
0.0 0.0 -1.346242744377e-03 
-1.579226085277e-03 -2.236352472968e-04 0.0 
-2.236352472968e-04 6.673772320033e-03 0.0 
0.0 0.0 -9.627310317561e-04 
-9.047131081662e-04 3.725747715171e-03 0.0 
3.725747715171e-03 6.356024695508e-03 0.0 
0.0 0.0 -1.292510612804e-03 
-1.606507542629e-03 2.038310361331e-03 0.0 
2.038310361331e-03 7.743565210436e-03 0.0 
0.0 0.0 -1.236507170568e-03 
-1.568883613753e-03 1.757297800362e-04 0.0 
1.757297800362e-04 6.816128580048e-03 0.0 
0.0 0.0 -1.009625451247e-03 
-8.158036949975e-04 3.727684392768e-03 0.0 
3.727684392768e-03 5.930563713409e-03 0.0 
0.0 0.0 -1.247605899893e-03 
-1.069270980668e-03 -8.397930297141e-04 0.0 
-8.397930297141e-04 3.454365731416e-03 0.0 
0.0 0.0 -9.078723690805e-04 
-1.462959848022e-03 3.355807606363e-05 0.0 
3.355807606363e-05 4.925884328863e-03 0.0 
0.0 0.0 -7.287847301676e-04 
-5.865857634816e-04 2.941936952461e-03 0.0 
2.941936952461e-03 4.531702907280e-03 0.0 
0.0 0.0 -1.239219007812e-03 
-1.427801408329e-03 2.279610176079e-04 0.0 
2.279610176079e-04 8.599854493521e-03 0.0 
0.0 0.0 -1.286506427510e-03 
2.620891548691e-03 -2.886615074095e-05 0.0 
-2.886615074095e-05 -1.018593319874e-03 0.0 
0.0 0.0 -2.429418327414e-04 
-1.429614866782e-03 7.018012440351e-05 0.0 
7.018012440351e-05 4.945453144079e-03 0.0 
0.0 0.0 -7.284590636140e-04 
-1.619941162379e-03 -3.710140945832e-04 0.0 
-3.710140945832e-04 7.072586371596e-03 0.0 
0.0 0.0 -1.288082484959e-03 
-4.257310582937e-04 -7.375837559217e-04 0.0 
-7.375837559217e-04 1.550072552707e-03 0.0 
0.0 0.0 -4.679105978332e-04 
-1.553283571401e-06 2.789178390790e-04 0.0 
2.789178390790e-04 3.670462341220e-03 0.0 
0.0 0.0 -1.213252366005e-03 
-1.592381110183e-03 2.367463417435e-03 0.0 
2.367463417435e-03 7.496929060090e-03 0.0 
0.0 0.0 -1.225943235494e-03 
-1.523630465134e-03 6.434168762766e-04 0.0 
6.434168762766e-04 8.597347826225e-03 0.0 
0.0 0.0 -1.269037835114e-03 
-4.383148377790e-04 -5.156717909414e-04 0.0 
-5.156717909414e-04 1.494703377533e-03 0.0 
0.0 0.0 -3.173190315717e-04 
5.315278783445e-03 1.680755431619e-02 0.0 
1.680755431619e-02 -4.616582373136e-03 0.0 
0.0 0.0 -2.994413187036e-04 
-1.588603004087e-03 1.309858719882e-04 0.0 
1.309858719882e-04 4.764403352260e-03 0.0 
0.0 0.0 -1.056762885644e-03 
-1.577119311605e-03 2.587547752196e-04 0.0 
2.587547752196e-04 7.701946830658e-03 0.0 
0.0 0.0 -1.120841203304e-03 
0.0 0.0 0.0 
0.0 0.0 0.0 
0.0 0.0 0.0 
-1.448426484907e-03 1.878765382125e-03 0.0 
1.878765382125e-03 8.065670326291e-03 0.0 
0.0 0.0 -1.292233508669e-03 
-1.560868544091e-03 1.573692905966e-04 0.0 
1.573692905966e-04 6.444251121821e-03 0.0 
0.0 0.0 -9.501928138396e-04 
9.548640501235e-04 -2.932790788742e-03 0.0 
-2.932790788742e-03 4.477362362625e-04 0.0 
0.0 0.0 -6.011144084512e-04 
-1.577095330701e-03 2.356135282763e-04 0.0 
2.356135282763e-04 6.152695530289e-03 0.0 
0.0 0.0 -9.030544305944e-04 
-7.683078908985e-04 2.880682352842e-03 0.0 
2.880682352842e-03 5.237427433757e-03 0.0 
0.0 0.0 -1.271643562581e-03 
-1.672772992247e-03 -3.658378199310e-04 0.0 
-3.658378199310e-04 4.968645958279e-03 0.0 
0.0 0.0 -1.058796759180e-03 
-1.124467718755e-03 2.590362011364e-02 0.0 
2.590362011364e-02 2.245744944268e-03 0.0 
0.0 0.0 -4.805473823627e-04 
-9.352736057356e-04 -8.421943932676e-04 0.0 
-8.421943932676e-04 3.140704490616e-03 0.0 
0.0 0.0 -9.009998304000e-04 
-1.402484368002e-03 -1.042823096176e-03 0.0 
-1.042823096176e-03 4.352884265014e-03 0.0 
0.0 0.0 -1.017945853013e-03 
-1.735012846972e-03 1.716303062956e-04 0.0 
1.716303062956e-04 5.112807218002e-03 0.0 
0.0 0.0 -1.063010248388e-03 
-5.084275505554e-04 1.944780591009e-03 0.0 
1.944780591009e-03 4.278693118753e-03 0.0 
0.0 0.0 -1.232780192057e-03 
-1.357670205510e-03 -6.381368347671e-04 0.0 
-6.381368347671e-04 4.227863364473e-03 0.0 
0.0 0.0 -1.035743023508e-03 
-1.479273144233e-03 -6.656278634480e-04 0.0 
-6.656278634480e-04 4.508927527855e-03 0.0 
0.0 0.0 -1.032702936181e-03 
1.062908900611e-04 -1.091055876129e-03 0.0 
-1.091055876129e-03 5.628464984864e-04 0.0 
0.0 0.0 -2.287174616664e-04 
-1.350567245042e-03 -1.731169106789e-03 0.0 
-1.731169106789e-03 5.793216621325e-03 0.0 
0.0 0.0 -1.240629869904e-03 
1.507861456710e-05 4.355417964511e-03 0.0 
4.355417964511e-03 4.218440864837e-03 0.0 
0.0 0.0 -1.186362110037e-03 
4.810564677363e-03 1.140967962982e-02 0.0 
1.140967962982e-02 -4.110441818197e-03 0.0 
0.0 0.0 -3.000526539282e-04 
-1.387676757457e-03 4.952672058335e-05 0.0 
4.952672058335e-05 8.504316401028e-03 0.0 
0.0 0.0 -1.290349483557e-03 
-1.582576424774e-03 -1.560547969950e-04 0.0 
-1.560547969950e-04 7.007946096611e-03 0.0 
0.0 0.0 -1.290356026000e-03 
-1.460183445125e-03 -1.247594329356e-04 0.0 
-1.247594329356e-04 5.521441348557e-03 0.0 
0.0 0.0 -7.639788432047e-04 
-1.578918019610e-03 1.294379469898e-04 0.0 
1.294379469898e-04 6.639288700401e-03 0.0 
0.0 0.0 -9.358343396975e-04 
-1.420511664925e-03 -7.103380260756e-04 0.0 
-7.103380260756e-04 4.349288440906e-03 0.0 
0.0 0.0 -1.005720210571e-03 
-1.359175063422e-03 -8.855188390870e-04 0.0 
-8.855188390870e-04 4.258136974865e-03 0.0 
0.0 0.0 -1.040482674164e-03 
-1.527056262754e-03 -5.709073839489e-04 0.0 
-5.709073839489e-04 4.609671028000e-03 0.0 
0.0 0.0 -1.028873814706e-03 
1.419969213028e-04 6.678647197868e-04 0.0 
6.678647197868e-04 3.006124846055e-03 0.0 
0.0 0.0 -1.180929064624e-03 
7.927858436439e-04 -3.045537929079e-03 0.0 
-3.045537929079e-03 8.494276970912e-04 0.0 
0.0 0.0 -7.038058031722e-04 
-9.564385253925e-05 4.206350013229e-03 0.0 
4.206350013229e-03 4.851325094202e-03 0.0 
0.0 0.0 -1.217816617926e-03 
-1.516247589342e-03 1.508277039824e-04 0.0 
1.508277039824e-04 5.685216966324e-03 0.0 
0.0 0.0 -8.376728236383e-04 
-1.571303365585e-03 1.703335586913e-03 0.0 
1.703335586913e-03 8.300700874157e-03 0.0 
0.0 0.0 -1.272153791098e-03 
2.031802888421e-05 1.812504206531e-04 0.0 
1.812504206531e-04 3.052227891630e-03 0.0 
0.0 0.0 -1.181257232468e-03 
-1.580055462922e-03 1.466056733213e-04 0.0 
1.466056733213e-04 6.354105997974e-03 0.0 
0.0 0.0 -8.902468719968e-04 
-1.338698042931e-03 3.178297097849e-03 0.0 
3.178297097849e-03 6.247787653213e-03 0.0 
0.0 0.0 -1.201032862555e-03 
-6.287513454258e-04 2.239201968296e-03 0.0 
2.239201968296e-03 4.196361731936e-03 0.0 
0.0 0.0 -1.236767197193e-03 
-7.410154172367e-04 2.289430316505e-03 0.0 
2.289430316505e-03 4.982849408055e-03 0.0 
0.0 0.0 -1.270271405117e-03 
3.729756986595e-03 1.958999406055e-02 0.0 
1.958999406055e-02 -3.729756986595e-03 0.0 
0.0 0.0 0.0 
-1.364834171184e-03 2.993686975697e-03 0.0 
2.993686975697e-03 6.287373378588e-03 0.0 
0.0 0.0 -1.198686027802e-03 
-7.804016773077e-04 4.076055444158e-03 0.0 
4.076055444158e-03 5.886579446163e-03 0.0 
0.0 0.0 -1.227078865044e-03 
7.248957313196e-04 -1.043101674158e-03 0.0 
-1.043101674158e-03 5.245352296454e-04 0.0 
0.0 0.0 -2.668574800815e-04 
-1.256459332456e-03 -8.842282026345e-04 0.0 
-8.842282026345e-04 4.000740750754e-03 0.0 
0.0 0.0 -1.019774149770e-03 
3.064378978037e-03 1.400159421081e-02 0.0 
1.400159421081e-02 -3.064378978037e-03 0.0 
0.0 0.0 0.0 
-1.414281382184e-03 3.115423266543e-03 0.0 
3.115423266543e-03 6.751118296047e-03 0.0 
0.0 0.0 -1.230789928678e-03 

SCALARS element_materi_plasti_kappa_shear float
LOOKUP_TABLE default
7.476715645937e-03
6.449298707054e-03
5.668059790692e-03
5.685840565928e-03
3.968724762264e-03
1.059692783511e-02
3.926609063437e-03
7.127454205311e-03
3.959861142706e-03
5.676159459017e-03
3.789460879762e-03
7.361288389346e-03
4.891618303361e-03
4.239593676266e-03
4.915486508882e-03
5.763080812267e-03
3.957109970888e-03
5.493700490060e-03
1.750028164631e-03
1.310811347843e-03
5.684919687706e-03
6.442809697696e-03
6.770445396130e-03
2.887992383095e-03
4.492952651090e-03
3.999825579596e-03
4.457998783988e-03
5.403096367754e-03
4.446798420902e-03
3.154878546999e-03
6.505808872447e-03
1.038769159780e-03
5.968283596402e-03
4.581378283716e-03
4.439297578914e-03
4.887177070447e-03
5.091662130986e-03
3.236750732308e-03
3.615750744496e-03
3.662711387174e-03
6.882182490390e-03
4.003574433579e-03
1.006353874164e-02
4.223052621160e-03
5.614862315127e-03
1.025376568356e-02
6.540951976219e-03
5.479464518158e-03
5.064265108994e-03
4.082692105509e-03
6.859372244078e-03
1.800022130003e-03
6.391372724262e-03
6.395187312213e-03
5.752538416864e-03
2.317662380795e-03
1.680471960424e-03
4.591779384906e-03
1.423176926377e-03
5.743217870912e-03
2.317080846147e-03
4.319124927234e-03
3.592925193939e-03
6.582890238322e-03
4.914099357777e-03
6.358948764459e-03
2.125964017540e-03
5.862902570517e-03
2.620748184046e-03
5.997143450069e-03
4.123083578978e-03
5.868967824668e-03
4.995446502398e-03
9.779064778029e-04
2.287061364591e-03
5.715984257660e-03
5.955190373470e-03
1.345369094635e-02
8.958780141002e-04
1.185478272672e-02
2.623606725785e-03
3.807044789785e-03
6.911089377544e-03
6.719126512340e-03
4.111166650998e-03
4.102179279090e-03
4.228241446566e-03
4.546798255786e-03
5.028716670229e-03
3.901152697752e-03
6.549433232101e-04
3.920650833441e-03
4.955587413478e-03
5.010029682247e-03
6.082587846612e-03
3.583046306489e-03
3.812238424463e-03
4.309414704673e-03
4.319293153851e-03
5.009688076020e-03
3.806820599516e-03
4.894923453038e-03
4.961622598250e-03
4.008593852154e-03
7.269397630238e-03
6.632077226567e-03
4.791522079347e-03
5.257296183678e-03
6.138091414559e-03
4.789762209254e-03
4.946970942302e-03
1.455853485302e-03
5.479982454375e-03
5.614591309986e-03
2.740266031467e-03
4.858584123782e-03
5.632080814476e-03
4.481696809263e-03
4.267994674223e-03
5.688725312507e-03
2.256121814009e-03
4.028535080127e-03
5.125478964429e-03
6.412563670489e-03
1.959845173300e-02
6.767480172524e-03
2.825136596843e-03
6.347132378221e-03
5.840634446844e-03
1.771568788078e-02
3.964814282569e-03
5.700506446746e-03
3.554006587530e-03
6.864472287382e-03
4.236959910874e-03
4.935732901856e-03
4.220142662913e-03
3.782725374417e-03
3.633905000164e-03
3.434454553281e-03
5.667308756995e-03
6.774129610601e-03
4.159105326719e-03
4.705255006089e-03
3.696585248665e-03
6.348144299814e-03
3.807578355912e-03
5.980582265936e-03
3.873095872756e-03
6.053085091613e-03
7.627933793163e-04
4.106841682748e-03
1.217045671719e-03
6.562324950089e-03
3.620903548599e-03
6.525036351624e-03
4.383820681644e-03
9.929067537037e-03
5.417358294368e-03
3.781797064791e-03
6.074960947331e-03
4.666843953081e-03
1.844128017672e-03
4.751176865938e-03
3.949884846235e-03
4.988018486650e-03
3.771577015596e-03
5.842661128949e-03
5.594581904592e-03
3.893786270809e-03
7.806049541998e-03
6.625109639083e-03
4.841674106423e-03
3.900979634001e-03
5.615319318360e-03
6.216135561854e-03
5.313159982996e-03
3.079663805871e-03
4.649906474497e-03
6.639121594216e-03
6.406787273448e-03
2.943961554453e-03
2.737407640598e-03
5.207115412858e-03
6.068465238664e-03
3.804052174663e-03
5.810907062349e-03
5.686869579948e-03
5.039238049397e-03
4.717478710770e-03
1.148559304842e-02
7.257546921286e-03
5.111000880601e-03
0.0
4.493399024583e-03
3.100501644276e-03
1.186781807755e-03
5.879212306886e-03
4.749545806609e-03
3.205712272384e-03
2.956372741924e-03
4.248611553850e-03
4.390119912627e-03
3.260852054243e-03
2.726046229142e-03
3.866905638561e-03
4.085059299403e-03
4.849847065370e-03
4.084848891733e-03
3.788784052669e-03
5.969912449215e-03
4.854751456170e-03
5.354481933499e-03
5.929129925529e-03
4.386052787122e-03
3.926615174907e-03
5.120800106263e-03
1.024238188450e-02
3.256631439055e-03
3.780927287153e-03
6.759566183784e-03
3.259094808071e-03
9.744138873205e-04
5.002746784696e-03
1.187677453753e-03
9.712234474307e-04
1.054748293990e-02
2.450408811608e-03
5.091607850684e-03
2.428262004319e-03
1.058929719669e-02
3.779138720656e-03
1.803156298713e-03
2.790297462605e-03
3.924614645831e-03
4.859013116495e-03
3.004106643384e-03
8.908668771705e-03
6.480579388662e-03
4.918531195876e-03
3.117210027395e-03
4.885442700903e-03
4.892149880117e-03
7.487631006779e-03
2.850486049106e-03
4.104130610049e-03
4.011618650566e-03
4.856263363195e-03
4.186359623959e-03
6.982292373170e-03
1.039822702007e-02
4.348640566437e-03
6.080884502444e-03
4.012120085899e-03
7.607681309940e-03
4.174160396721e-03
2.772644652466e-03
4.114504492513e-03
8.103480745923e-03
7.585197663633e-03
6.928427102303e-03
5.142731837040e-03
4.219310466071e-03
5.313638635317e-03
5.231202940207e-03
4.958047196859e-03
4.103438709337e-03
4.637764333400e-03
7.423413684190e-03
4.211956383520e-03
5.590545939425e-03
7.090890706118e-03
6.945934994163e-03
3.878533253387e-03
7.432672085640e-03
5.818620466184e-03
4.958207544711e-03
0.0
4.231308200601e-03
7.456717822984e-03
1.022240559034e-02
5.385166658603e-03
4.503373325418e-03
1.884659263120e-03
3.970635583676e-03
6.340880324419e-03
4.243041167150e-03
4.240307436026e-03
6.190321182746e-03
5.943103020294e-03
5.459075492575e-03
6.103773912737e-03
4.798301013803e-03
4.526662815478e-03
7.618057926935e-03
7.159085481394e-03
5.791248328049e-03
5.247769876825e-03
1.375560875689e-02
6.161779301333e-03
6.171298087031e-03
3.871585823704e-03
7.786058290302e-03
1.182145880975e-02
4.317766949050e-03
8.147440342949e-03
5.773454148412e-03
3.938150114374e-03
5.859163444552e-03
7.481061500918e-03
6.429641163845e-03
1.219373636472e-02
3.768586856653e-03
9.169269861799e-03
4.030230270756e-03
5.367406721832e-03
3.185080178679e-03
7.211248813076e-03
5.029441804297e-03
4.078338297132e-03
6.841862551643e-03
7.377976166752e-03
5.764887126189e-03
1.382223132257e-02
4.656042724998e-03
3.210309722440e-03
8.974286417207e-03
4.525435709533e-03
6.201635444885e-03
3.132463944358e-03
6.611991533108e-03
4.485990906698e-03
4.856089461195e-03
1.022712062838e-02
3.799226166888e-03
4.210806094155e-03
4.343507042612e-03
3.883342781648e-03
5.477058764280e-03
4.408884898377e-03
3.954238356754e-03
7.188553975779e-03
2.126147916000e-03
3.728356829078e-03
7.353059731064e-03
3.908082809323e-03
4.053415288628e-03
7.206691081731e-03
5.107150669262e-03
8.751511702883e-03
3.948493172096e-03
5.042427353077e-03
3.219295742043e-03
4.649421512783e-03
4.791455477989e-03
5.703060708053e-03
2.784414744251e-03
8.720364203249e-03
8.160288499444e-03
5.184269692729e-03
4.210892199139e-03
5.531394788202e-03
3.675464466287e-03
3.719198240264e-03
3.156300643646e-03
5.270722120897e-03
4.951030620452e-03
2.791959147438e-03
3.690112774630e-03
6.680802156164e-03
6.686204088913e-03
4.119259232477e-03
3.755654238808e-03
3.400766620885e-03
5.356429761657e-03
5.804707354672e-03
4.529870330652e-03
4.067889866897e-03
4.662180906810e-03
6.309827329809e-03
6.194847258957e-03
5.749913356992e-03
3.020677987419e-03
5.279204517925e-03
9.123103052311e-03
6.936687708233e-03
5.195764835082e-03
4.115820691863e-03
3.842950909138e-03
4.513278632072e-03
3.244307823644e-03
5.163355495152e-03
4.386423237293e-03
4.476099206042e-03
5.453045403390e-03
1.955161698588e-03
5.834569713568e-03
4.465410950170e-03
5.835144884941e-03
1.653638659661e-02
4.015486225802e-03
2.355558185555e-03
8.007158993353e-03
3.673414290175e-03
4.736024861591e-03
3.981389866812e-03
1.396074215868e-03
3.652003582868e-03
6.428220682657e-03
4.441446771420e-03
6.751725076307e-03
3.807583682194e-03
4.322942112553e-03
3.526145110671e-03
5.255189385440e-03
3.347041718801e-03
6.504075076033e-03
6.382817718617e-03
5.958169114995e-03
6.195389196796e-03
4.598269985990e-03
5.190485547386e-03
5.356291838170e-03
3.320802914914e-03
3.319777318115e-03
3.291257441844e-03
5.278332870253e-03
5.854555936646e-03
5.386391458906e-03
5.909415262749e-03
5.331196890249e-03
6.056883567398e-03
4.190030063273e-03
3.464532513224e-03
1.221463032973e-02
5.759722545496e-03
4.569498127660e-03
5.332909478626e-03
3.382244159206e-03
3.419989620685e-03
3.235774226863e-03
6.900058873726e-03
6.339033730238e-03
5.757913193712e-03
4.236288878953e-03
1.032336198831e-03
5.898655440215e-03
3.094301216638e-03
4.063760289957e-03
4.571848379540e-03
4.377992282329e-03
4.846011250300e-04
4.331707416514e-03
4.393331777553e-03
4.078214650418e-03
4.173061940919e-03
1.047537239397e-02
5.528089032988e-03
7.354157458026e-03
3.660879594615e-03
4.784301089445e-03
1.221339930279e-03
3.558631343330e-03
5.440892081631e-03
3.641731318210e-03
3.626491229389e-03
5.164773912347e-03
4.369311817321e-03
4.668549531609e-03
3.356131234279e-03
4.843037662479e-03
4.000013488580e-03
3.998607249003e-03
4.091967694104e-03
4.682585152391e-03
3.977798602140e-03
6.148717226547e-03
7.013471057054e-03
4.375476627736e-03
7.512725549099e-03
5.123451940062e-03
9.777296327815e-03
4.155084444683e-03
6.313311920136e-03
6.091177309036e-03
3.347496143322e-03
3.141954240646e-03
5.134120208519e-03
3.524861024850e-03
3.764870203374e-03
8.889321477444e-03
5.587557968945e-03
4.536083243233e-03
4.525635562498e-03
3.964553113648e-03
3.018766436800e-03
3.599211839311e-03
3.736159898804e-03
6.154045024789e-03
5.256518196814e-03
1.398005029347e-03
4.901292379897e-03
5.363068251323e-03
5.678180438031e-03
4.516604651070e-03
6.176823729929e-03
1.412346358450e-02
2.645089123398e-03
2.991327947613e-03
3.689260066307e-03
4.086214081749e-03
5.360282778703e-03
7.179691652166e-03
3.151228458147e-03
4.219904639673e-03
2.558238552366e-03
4.884067323559e-03
4.447306010212e-03
4.403301426083e-03
3.203880338452e-03
3.270240138625e-03
3.828853913722e-03
3.610975647225e-03
5.531220623412e-03
3.241179321446e-03
4.055854335950e-03
5.125542757704e-03
4.109101545346e-03
4.145306940574e-03
3.493889225164e-03
7.823093525491e-03
3.195012242961e-03
6.919396125915e-03
6.231572425218e-03
3.674094389630e-03
5.465741692552e-03
2.782005441388e-03
3.605540778520e-03
3.144508273297e-03
5.991956211217e-03
2.256333325417e-03
4.140151503650e-03
5.431033007288e-03
3.225301536712e-03
3.778146397866e-03
3.509424093333e-03
3.382045560242e-03
4.257156002915e-03
6.958192457962e-03
3.150567633663e-03
3.419688130661e-03
4.710220312248e-03
3.696882214136e-03
4.306301751283e-03
4.393497597306e-03
3.304371545067e-03
3.932684683959e-03
2.794723090240e-03
3.870525163770e-03
2.339058116320e-03
6.870320279309e-03
3.122843769625e-03
3.536839909767e-03
5.490752762481e-03
3.133169061378e-03
4.394974799046e-03
3.171453652514e-03
3.954441890249e-03
4.408365611268e-03
3.531054572272e-03
4.293331672904e-03
3.469160005882e-03
2.344582638536e-04
4.342827187450e-03
2.815733446127e-03
1.427447722721e-03
3.377528405656e-03
3.017950135559e-03
5.309388747160e-03
3.894960839888e-03
3.479590059311e-03
3.818624685672e-03
3.581263554169e-03
5.741565943865e-03
4.177684629919e-03
1.993497364998e-03
2.067405024286e-03
1.416744999512e-03
2.579714406710e-03
5.300639440907e-03
5.316030625827e-03
3.796388360632e-03
2.739477237490e-03
3.923275296672e-03
3.074092172137e-03
3.951655052014e-03
2.826459377297e-03
2.346887089609e-03
4.356557030682e-03
4.139689611657e-03
3.039564492647e-03
3.507425817395e-03
3.484969287982e-03
3.016262633258e-03
1.738579034053e-03
3.097211597897e-03
1.059860394561e-03
3.342988300000e-03
3.564932177344e-03
9.012381607526e-04
2.910014888118e-03
5.510045432400e-03
2.087608761074e-03
3.585704259986e-03
3.723526099815e-03
3.094409806867e-03
2.392889037010e-03
3.063515298584e-03
1.192128424972e-02
4.210048530920e-03
5.299644282157e-03
5.177892081959e-03
8.004167601669e-03
1.363451425510e-03
3.691969532227e-03
3.550626997966e-03
3.676511325993e-03
1.551370898605e-03
8.537344141222e-04
9.862474774777e-04
2.162938812804e-03
1.377340432524e-03
3.170219899798e-03
5.628764169601e-04
2.524870915773e-03
4.491269867148e-03
3.700282617022e-03
5.260356398391e-03
3.327949804502e-03
4.251884330892e-03
2.509212341416e-03
1.020862488203e-03
5.829475890603e-03
6.039028528119e-03
4.216434674855e-03
3.565489033799e-03
2.587498848121e-03
5.999263223227e-03
2.442752516004e-03
3.696609549568e-03
3.563907472710e-03
3.514699694935e-03
5.927065042664e-03
6.015277257663e-03
1.330400211541e-03
1.669533701986e-03
1.344592241943e-03
3.643608196866e-03
4.850396606121e-03
0.0
5.101358492196e-03
9.595345797082e-04
3.113582526755e-03
1.422224704961e-03
2.872666331067e-03
3.353126350900e-03
4.688865864911e-03
4.611649624509e-03
3.864254668426e-03
9.306078872588e-04
4.020589784949e-03
5.797624803762e-03
5.973591106953e-03
3.688007304244e-03
2.846390518980e-03
5.834612071299e-03
6.018008412711e-03
1.131371669923e-03
1.409744689688e-03
1.070191082568e-03
2.773625038877e-03
5.128733981853e-03
5.686078140094e-03
1.834614432967e-03
3.141780048589e-03
4.903795419049e-03
5.124707089312e-03
4.540751789241e-03
4.863760003676e-03
5.230664655895e-03
4.885659315087e-03
4.900079095049e-03
5.104618843216e-03
2.371313285604e-03
3.639130252576e-03
3.700407251155e-03
1.763637283660e-03
4.822691056273e-03
4.723797952646e-03
4.594502443142e-03
2.187658065542e-03
2.167246783965e-03
4.298928970353e-03
4.465695048772e-03
4.739825188448e-03
3.625004239622e-03
4.980074041723e-03
4.182381661481e-03
3.612530889479e-03
1.776605616087e-03
1.305106796164e-03
1.548654323834e-03
1.943088779419e-03
3.276017880373e-03
3.023112973762e-03
8.078253224506e-04
4.028126407989e-03
1.187742952097e-03
5.885086834910e-03
5.811364703112e-03
5.844706076157e-03
1.509617541820e-03
2.214903500655e-03
5.806505327904e-03
4.688671280238e-03
5.826774921975e-03
4.813055851057e-03
4.917144813202e-03
2.903322035183e-03
6.008349193016e-03
6.003877113261e-03
4.727827648335e-03
4.864305038441e-03
4.249335747199e-03
0.0
3.175859147544e-03
1.259325279811e-03
4.420798695160e-03
3.384638883793e-03
4.409067033902e-03
2.131043982543e-03
1.108023222196e-03
4.695482135487e-03
3.365831542969e-03
2.646631452456e-03
4.556588175849e-03
5.414895944389e-03
2.656831201839e-03
3.200576911771e-03
3.816886599349e-03
4.190899904542e-03
4.331300515814e-03
7.511253525782e-03
3.605666078604e-03
5.405246012747e-03
3.959311659394e-03
4.657481856823e-03
4.474738788930e-03
2.497721918515e-03
5.428170056435e-03
5.196932708230e-03
3.994972095663e-03
4.018877418988e-03
4.067532001752e-03
5.468828346424e-03
5.334434594670e-03
3.777218885507e-03
4.785229386991e-03
5.183640898652e-03
4.486085823950e-03
4.626918442455e-03
5.440760853048e-03
4.828731435924e-03
3.492214324912e-03
1.813629337524e-03
2.595415623829e-03
1.751915947168e-03
1.311389193297e-03
5.325791288567e-03
4.638904880307e-03
1.232072997821e-03
5.349220756651e-03
4.109200150890e-03
4.453473742339e-03
4.501290464753e-03
2.822661026846e-03
4.600361826760e-03
3.989940508894e-03
3.700281147706e-03
4.607579259789e-03
1.682217231393e-03
4.433060704539e-03
4.965853579252e-03
1.931234771425e-03
2.536905363929e-03
3.506959235330e-03
4.546823231474e-03
2.929878446617e-03
5.094658413771e-03
4.689487714454e-03
3.549548679273e-03
4.373859018118e-03
4.508144441649e-03
4.950601638813e-03
1.602271484754e-03
3.405781233643e-03
3.923935156791e-03
5.079843116042e-03
3.194307102305e-03
3.880531337843e-03
4.194530845224e-03
4.813687637528e-03
2.962959974249e-03
1.541456333067e-03
4.500704286209e-03
4.535680067080e-03
4.684102630711e-03
3.785681380179e-03
4.265606377495e-03
3.155177870445e-03
3.587079011170e-03
4.392674845493e-03
1.860767443432e-03
4.452816754116e-03
3.543702289538e-03
1.992785431315e-03
3.392397121739e-03
2.975423009005e-03
2.515877789845e-03
3.725661475432e-03
1.214125140151e-03
1.001039417894e-03
4.132428392348e-03
1.740140079302e-03
4.103577769620e-03
3.987009557526e-03
3.370047699070e-03
3.248806400505e-03
5.300420175180e-03
1.089774924124e-02
2.995450123017e-03
3.004755834524e-03
1.410651741479e-03
4.429529881649e-03
4.136718757980e-03
1.859816294009e-03
3.894261520894e-03
4.933477745413e-03
1.699722713994e-03
5.408694418047e-03
5.411197824938e-03
2.017061567542e-03
7.533952462374e-03
2.179306637540e-03
4.367605250965e-03
3.647788208579e-03
5.489535749250e-03
5.304729192866e-03
4.231498250215e-03
4.146491013705e-03
1.780674243216e-03
4.280532226645e-03
4.934868325194e-03
3.669316609231e-03
4.695546322833e-03
5.063717161736e-03
7.837588524587e-03
5.190164349716e-03
3.272404207533e-03
3.596661715041e-03
2.751844944681e-03
3.019000093277e-03
4.810385432176e-03
3.246422704327e-03
2.264566458407e-03
1.689403800147e-03
4.815225778648e-03
2.226110953632e-03
4.194754128453e-03
4.940895878954e-03
4.276223362945e-03
3.112253213804e-03
3.202020562987e-03
1.919623832173e-03
1.352217145348e-03
4.164633130640e-03
4.560658305418e-03
1.177128837243e-03
2.915068821861e-03
1.620327168500e-03
4.555465457417e-03
2.973416926450e-03
3.909810264466e-03
2.724408296497e-03
5.208767427969e-03
2.593619795372e-03
4.035142549939e-03
2.532928249258e-03
4.024142569854e-03
3.450900747862e-03
4.136123601672e-03
6.135439297413e-03
1.564757219021e-03
4.294495704809e-03
3.366309604827e-03
3.461117882161e-03
4.565662359774e-03
2.738581822716e-03
4.665942928303e-03
1.465348703278e-03
4.246327033609e-03
3.096194510335e-03
3.878386145971e-03
5.536974569683e-03
3.426908671018e-03
1.540384123316e-03
3.758577465195e-03
3.927524684089e-03
2.715033437353e-03
4.314845763778e-03
4.948351979472e-03
3.360890771607e-03
3.891846381778e-03
4.252820554629e-03
2.212724349773e-03
2.843833598181e-03
4.488361984639e-03
3.996131275532e-03
3.575096828484e-03
5.002946462186e-03
4.802343365754e-03
4.415034608388e-03
4.389129640424e-03
3.467263775261e-03
3.595494986516e-03
3.583279255749e-03
4.289394557029e-03
5.421975200704e-03
4.058898937161e-03
3.861488826342e-03
5.063142224082e-03
3.131891392016e-03
3.028041098227e-03
1.823938140992e-03
3.705908196928e-03
3.091369410019e-03
4.675935954995e-03
4.534875968551e-03
6.719885776996e-03
2.786655864969e-03
7.082068564623e-03
2.868546210609e-03
3.110365765296e-03
1.843618803568e-03
3.272992134604e-03
3.412916071715e-03
5.192089283469e-03
3.281566540745e-03
3.626240938450e-03
3.586985508785e-03
6.096445527255e-03
1.897398460282e-03
3.604818096321e-03
3.888630237913e-03
5.296837585264e-03
3.317485446496e-03
3.647674555787e-03
4.673336337087e-03
3.224252799485e-03
5.303953924148e-03
2.622358304585e-03
3.055333394029e-03
3.164663825952e-03
2.311141121049e-03
2.125313783725e-03
3.477924834306e-03
3.736945563828e-03
6.740230947228e-03
1.505056948203e-03
2.890468079371e-03
2.982448329978e-03
3.433203482514e-03
4.531582693643e-03
3.499304588406e-03
2.673974497720e-03
3.139905464342e-03
5.072747806473e-03
2.707809154280e-03
1.166214898562e-03
1.463299212712e-03
2.914504388254e-03
3.018723201689e-03
2.686713935682e-03
3.062407380188e-03
2.712109552951e-03
1.499659389839e-03
4.359635542217e-03
2.393958649680e-03
3.066798902882e-03
6.870456245583e-03
4.450791082476e-03
5.300178894970e-03
6.601329157098e-03
7.576566599668e-03
5.766987550074e-03
3.119400395624e-03
3.332129797491e-03
6.590693818999e-03
5.574982396056e-03
2.855846187294e-03
3.177000482072e-03
2.756193394155e-03
2.592075865469e-03
2.421633066575e-03
3.387402253471e-03
2.315263095359e-03
3.435395399248e-03
2.911114260278e-03
2.924550187874e-03
4.799837983891e-03
4.429703636824e-03
3.251041652365e-03
3.393599796704e-03
3.214890482338e-03
3.078086569888e-03
6.591980252865e-03
4.480500477961e-03
2.985180505105e-03
4.544225245269e-03
5.407567982517e-03
2.819844426375e-03
6.375805392913e-03
4.617460502529e-03
3.621311629636e-03
2.828319211559e-03
5.770682299556e-03
2.324148480044e-03
2.890621399274e-03
5.423157329672e-03
2.854205163190e-03
4.397525855562e-03
5.165585481733e-03
2.765916250601e-03
5.623005259166e-03
5.527898528543e-03
3.711930513200e-03
4.919552001560e-03
3.200635920830e-03
3.287761322064e-03
5.034502267978e-03
5.768849878561e-03
3.552693579741e-03
3.534005249318e-03
4.400555289825e-03
4.253543167516e-03
2.943285220908e-03
3.519756308427e-03
3.287722794547e-03
1.604761110599e-03
6.895699457338e-03
5.164294596304e-03
3.696395963674e-03
4.719548028590e-03
5.609482615871e-03
5.438909998859e-03
5.417054799902e-03
3.703317504642e-03
5.161557093516e-03
3.868518273720e-03
5.545650970965e-03
4.897334775276e-03
3.311771604763e-03
6.467255924964e-03
5.053606803532e-03
5.398699092693e-03
5.059342313408e-03
4.930251969398e-03
3.686756924755e-03
3.092856814701e-03
3.385656639266e-03
3.735595459470e-03
3.988626673508e-03
2.733178733269e-03
4.891642251278e-03
2.057605305164e-03
4.410371467606e-03
3.742796865065e-03
4.412529606903e-03
5.448042788800e-03
5.568205809887e-03
3.491305020139e-03
3.821601090175e-03
3.628201443266e-03
4.633003595104e-03
3.816334825167e-03
1.434105667306e-02
3.629386261878e-03
2.791579940568e-03
5.595449219484e-03
6.091411815704e-03
3.698695061029e-03
4.663243438870e-03
1.137277858050e-02
2.756450650074e-03
4.455810562523e-03
3.956724378172e-03
3.694573121702e-03
4.449229791044e-03
3.476784983087e-03
3.255258072631e-03
3.078520256353e-03
5.051259765074e-03
6.021782242312e-03
3.477272273897e-03
8.012230943664e-03
4.782003339930e-03
3.814609576517e-03
5.183136400848e-03
3.769977082117e-03
6.262190233436e-03
3.669072015162e-03
3.692961760926e-03
5.304264296023e-03
2.175618363556e-03
7.748047224035e-03
6.877976983304e-03
5.544534571255e-03
3.589900622387e-03
4.195224401096e-03
4.919263556773e-03
3.618574329088e-03
5.988180374729e-03
6.360483652429e-03
2.962169357454e-03
4.315881802482e-03
3.544072557654e-03
4.934856434327e-03
6.123405621243e-03
7.354134341862e-03
3.970342460406e-03
7.818268723983e-03
4.758938700212e-03
4.142194146469e-03
3.388847263524e-03
3.457624531915e-03
2.514428578240e-03
3.255371075818e-03
2.396212171815e-03
3.556292344655e-03
5.448039243624e-03
4.988779509347e-03
3.055443993955e-03
4.795644255112e-03
5.516289922385e-03
5.146103467286e-03
5.257081820144e-03
8.520755157678e-03
4.029201795451e-03
5.042361025696e-03
7.573992412657e-03
7.320975248382e-03
3.068319857781e-03
5.861417496379e-03
2.462008023465e-03
3.653445229091e-03
1.592648317810e-03
5.757397784598e-03
2.825812166461e-03
5.480811851792e-03
5.602378623592e-03
2.991567453400e-03
5.275547562051e-03
7.793506424639e-03
5.675818249627e-03
7.865823811348e-03
5.381895938702e-03
8.983603249625e-03
9.184302780136e-03
7.365045489146e-03
7.596183619866e-03
7.164190332986e-03
6.594624461100e-03
5.085034740857e-03
5.663751690446e-03
7.054455499768e-03
5.424319885088e-03
5.590129291020e-03
3.903582702292e-03
3.370574095032e-03
2.742865942156e-03
5.293513921390e-03
5.749492482633e-03
4.234737884749e-03
5.172652995614e-03
5.124227989435e-03
2.993943487213e-03
7.838301606708e-03
6.838958470966e-03
4.563239763712e-03
6.046405677747e-03
5.229151260530e-03
5.104928395414e-03
4.078547169666e-03
4.419169055791e-03
5.013620306272e-03
7.263978431048e-03
4.681673267658e-03
2.730728780126e-03
5.290274890223e-03
6.814598565805e-03
4.643175649225e-03
3.031357431599e-03
5.481336725838e-03
2.760590088695e-03
5.068201812209e-03
5.507142592636e-03
6.713372946904e-03
3.744328168693e-03
4.947651719500e-03
5.349354582684e-03
6.410838983471e-03
7.627554534594e-03
3.461248607963e-03
3.172936476323e-03
5.275113089162e-03
4.815004381872e-03
4.696631355627e-03
4.607881037575e-03
4.766072203044e-03
6.232717012912e-03
4.603369163212e-03
4.379957173959e-03
4.618906992019e-03
3.141077951312e-03
4.098638148539e-03
4.907202475208e-03
5.648784616652e-03
4.495095601971e-03
6.960986328373e-03
5.300341966062e-03
5.512760513766e-03
6.389784094183e-03
6.051918341299e-03
7.301176991174e-03
5.028337068141e-03
3.427253910037e-03
7.456888318064e-03
3.675470650321e-03
3.459333665342e-03
4.857679940844e-03
6.677991100770e-03
3.953481984319e-03
5.636015473332e-03
3.625895958899e-03
3.264339398403e-03
4.866552053088e-03
4.878000002137e-03
3.895798009600e-03
7.133828697514e-03
3.071929771590e-03
4.793301523209e-03
4.529212950177e-03
4.827177261005e-03
6.336027566701e-03
1.880341121079e-03
3.545292720195e-03
7.840109075641e-03
4.620052298240e-03
3.760015126243e-03
7.492027471600e-03
4.445933361573e-03
6.775468287820e-03
7.443482035734e-03
4.794579606081e-03
5.123004878273e-03
5.840609109599e-03
3.119640391183e-03
6.459520191237e-03
6.865000092048e-03
5.904428420643e-03
4.179465517636e-03
5.639919064863e-03
3.534684727708e-03
3.321094169784e-03
7.632019696230e-03
5.290792244587e-03
4.559059439739e-03
3.534808419225e-03
6.931793228822e-03
4.782120039691e-03
4.278791894662e-03
3.738223600894e-03
3.499074933205e-03
3.494139593801e-03
4.747419654542e-03
5.974390288599e-03
3.839964885528e-03
4.569340265878e-03
6.967115759048e-03
2.758120691022e-03
7.430088561280e-03
6.086851266750e-03
4.117844399000e-03
6.610426837263e-03
3.753400023371e-03
5.837022520537e-03
3.491628202087e-03
5.332937701029e-03
4.268597776757e-03
4.772004198946e-03
4.710233733702e-03
4.692963440339e-03
1.373950768799e-03
3.608330547153e-03
3.820362875112e-03
4.664326353529e-03
4.680096484355e-03
2.813339638681e-03
1.558884795758e-03
5.843355063514e-03
4.677061379727e-03
3.466490700851e-03
9.848663702787e-03
9.907358617601e-03
4.741445271794e-03
1.075083988270e-02
3.725942709322e-03
2.979207706004e-03
4.718115012692e-03
4.859365221654e-03
5.378791863780e-03
3.622412790060e-03
4.086298431898e-03
9.684533907187e-04
3.214477736283e-03
5.049273172949e-03
8.631529436119e-04
5.408814910997e-03
4.511989528162e-03
4.563827465076e-03
4.326693611245e-03
3.405272215336e-03
3.152758773421e-03
5.531946144864e-03
3.130364243123e-03
5.730711875523e-03
5.420487421579e-03
1.661916119563e-02
3.876104291395e-03
6.166091593866e-03
4.462003929120e-03
5.575270869860e-03
7.210918464051e-03
5.197689124532e-03
6.265908108744e-03
4.218913737028e-03
6.221544441428e-03
4.318493610634e-03
6.255991139350e-03
3.698739609380e-03
3.642170033285e-03
5.589231027013e-03
3.013506558343e-03
4.592778871708e-03
7.408172320139e-03
3.081744187696e-03
6.913880041375e-03
6.366382397717e-03
3.887796609308e-03
7.000519800448e-03
4.711133417206e-03
6.457283975780e-03
4.468472658716e-03
2.887136458560e-03
2.939111092645e-03
6.901052259869e-03
4.632153164590e-03
4.258818863725e-03
4.455822626565e-03
1.196701312878e-02
4.599243387349e-03
4.586353591898e-03
5.347032274395e-03
3.764237663719e-03
1.644727725817e-02
4.417137978971e-03
6.376494516941e-03
3.559924899756e-03
5.309039885173e-03
4.599295072823e-03
4.492928374407e-03
5.458156969763e-03
8.561773526042e-03
9.181295757326e-03
4.583213391974e-03
3.348873248194e-03
3.374705071012e-03
2.992543524388e-03
4.576645806625e-03
6.377885094990e-03
8.425852967018e-03
4.233192300425e-03
3.640278608643e-03
2.761990352842e-03
7.345270119013e-03
3.330241440201e-03
4.609207531696e-03
4.486689333798e-03
4.768807741004e-03
6.133049184701e-03
3.637947846142e-03
5.998920065832e-03
7.139786162715e-03
2.979012664868e-03
3.009689123218e-03
4.584950530350e-03
4.070077037898e-03
4.405903501378e-03
7.054781390808e-03
6.315948854067e-03
4.056964170697e-03
3.806478467457e-03
4.436879848710e-03
2.297843827784e-02
6.461213329350e-03
1.606389724117e-02
1.222241799405e-03
3.754040591865e-03
5.474194969169e-03
4.606753680845e-03
7.772692730123e-03
5.921576080326e-03
1.955027909163e-02
7.972985839381e-03
3.362208408333e-03
3.665001844436e-03
4.242719157509e-03
4.144404520765e-03
2.962230092954e-03
5.551157922713e-03
5.236585355335e-03
5.209900433282e-03
1.133669650161e-02
3.647482495706e-03
3.710983494360e-03
2.656638786889e-03
3.855170451250e-03
4.566671673770e-03
4.366198307929e-03
1.028648459849e-03
1.362549889486e-03
2.165054714133e-03
3.723014921691e-03
5.928648136582e-03
4.465440013417e-03
6.083526909777e-03
3.806732758052e-03
4.815158278389e-03
3.775227130307e-03
6.820965780780e-03
4.497081894436e-03
4.096150277746e-03
4.472975638884e-03
3.798202669823e-03
3.830814983830e-03
7.394823930851e-03
4.774203579169e-03
3.861528244714e-03
4.613156150105e-03
4.387204249011e-03
7.531405070419e-03
3.880643775733e-03
2.837716406777e-03
1.207791982300e-02
3.367088836862e-03
2.225639351650e-03
2.780093807569e-03
7.213856366507e-03
7.426493049193e-03
3.893879650775e-03
2.100922071665e-03
3.891918480221e-03
3.915697350990e-03
2.701855648357e-03
3.709703770702e-03
1.198819882952e-02
5.365652246451e-03
3.066498484530e-03
2.795110899033e-03
7.090089415533e-03
3.975644968851e-03
4.011347503913e-03
6.052800863578e-03
1.964861984032e-03
1.842228886735e-02
4.092079591952e-03
2.961498219016e-03
2.509223878502e-03
5.016275110054e-03
5.655347635553e-03
4.537667482143e-03
4.058891197805e-03
0.0
5.816180050420e-03
4.902062641943e-03
3.881412651745e-03
2.440978645024e-03
6.399780875522e-03
6.733188238702e-03
1.518214254580e-03
2.005961169972e-02
5.546974744787e-03
4.665874526858e-03
4.990866337445e-03
5.215858982210e-03
1.786753972791e-03
4.945218504881e-03
4.727704294311e-03
2.892091425302e-03
6.483635337518e-03
2.797163094051e-03
1.046650344558e-02
2.920765910813e-03
4.893505897122e-03
4.727405870860e-03
3.208532513632e-03
4.808978952413e-03
0.0
4.881458036786e-03
5.040677103797e-03
3.152365298129e-03
2.607652291814e-03
6.830854897678e-03
4.817754209092e-03
7.438571622636e-03
8.110037801167e-03
2.923122928886e-03
3.039353129937e-03
7.217473860762e-03
4.884678851924e-03
5.532694685970e-03
7.125809663199e-03
4.855765288151e-03
6.223954704581e-03
6.783639247383e-03
1.387060625767e-02
5.863449607599e-03
2.618928641937e-03
4.855263855775e-03
2.884322414379e-03
1.143794244524e-02
3.506602957058e-03
9.590330394410e-03
7.449598223027e-03
3.266187343990e-03
7.417431101117e-03
4.505149016415e-03
2.765225984554e-03
1.415451277298e-02
3.277984921034e-03
8.909761844107e-03
1.945527275365e-03
5.504082384171e-03
5.322543550804e-03
7.848135277644e-04
3.365094725157e-03
2.400638059406e-03
2.463285382783e-03
5.339453552645e-03
7.214576521789e-03
5.539256964656e-03
4.063836619342e-03
3.655834997024e-03
4.200689173686e-03
2.113752298900e-03
2.653113527952e-03
7.334998899488e-03
1.273953511854e-03
4.816843425833e-03
5.674773738910e-03
2.168710725122e-03
5.286458365172e-03
4.283416494899e-03
4.812195502839e-03
2.539570789041e-03
3.643462494390e-03
4.855540140174e-03
4.300900588958e-03
2.976334480875e-03
2.027418807040e-03
7.415426220153e-03
4.448255544291e-03
2.964508539853e-03
6.174838054499e-03
5.734258886474e-03
4.026664295728e-03
5.743896818908e-03
6.000840716603e-03
3.789270447940e-03
2.595631204153e-03
3.199953522586e-03
0.0
1.902903777886e-03
3.604210869196e-03
2.807391870645e-03
3.436694751572e-03
7.815137893629e-03
8.697782233737e-03
4.142001498770e-03
5.206350349910e-03
2.249798190126e-03
5.384217681699e-03
4.967219196928e-03
4.886134841971e-03
2.605300666507e-03
3.828525680063e-03
0.0
1.112876464191e-02
5.793784413570e-03
1.047062623675e-02
7.217808370049e-03
2.745952613108e-03
3.429596228520e-03
6.896513873468e-03
5.296655538006e-03
2.503533226713e-03
5.524289484905e-03
5.153625615526e-03
6.001172921191e-03
5.100455085511e-03
4.110540018138e-03
2.637651237191e-03
7.535335410932e-03
3.191285649529e-03
4.869911819269e-03
1.403968516265e-02
1.214706468449e-02
2.726563605698e-03
3.938213713365e-03
5.540832376998e-03
4.713443788992e-03
4.034701686050e-03
5.052024159389e-03
4.084593475503e-03
2.632811007746e-03
2.862235179152e-03
4.698107313135e-03
4.415719272385e-03
4.292764656020e-03
3.896233695222e-03
4.114095616366e-03
4.188562373750e-03
4.615859081882e-03
2.750045215379e-03
5.853261315327e-03
4.426727944562e-03
3.704988570507e-03
5.563415471233e-03
4.701176930839e-03
5.605287308872e-03
2.984653430048e-03
2.899269361477e-03
3.882189993689e-03
3.662290153499e-03
2.099672330588e-03
4.918810832529e-03
1.275579579835e-03
3.755397294441e-03
3.072301376147e-03
1.199320246670e-03
1.287155906031e-03
6.012085979982e-03
3.536739645719e-03
5.807206894269e-03
2.659927490576e-03
3.526193540084e-03
0.0
5.649183673557e-03
1.226889212049e-03
5.591486415216e-03
4.894034742833e-03
5.539486036354e-03
5.265243567127e-03
4.213950339262e-03
3.025007021002e-03
5.021160497871e-03
4.091554630855e-03
5.020955983920e-03
3.911662398283e-03
3.681946395434e-03
4.885085777727e-03
6.081950804417e-03
1.239743028947e-03
3.457233058136e-03
5.927711436663e-03
5.789822867449e-03
3.808569037443e-03
4.215889140078e-03
1.176010237202e-02
5.971775339258e-03
2.555830622428e-03
1.568754707110e-02
4.650310144816e-03
3.625198829927e-03
5.701509361268e-03
5.926679449314e-03
5.825453120954e-03
2.375146025770e-03
1.926349798729e-03
3.558870854792e-03
3.632521599668e-03
4.888825416705e-03
5.046946971521e-03
1.549964253441e-03
0.0
4.672705056341e-03
5.367712524396e-03
1.568578586185e-03
4.534041151919e-03
3.791507055834e-03
3.441092852532e-03
4.640515334488e-03
3.044493888229e-03
6.028090753466e-03
1.584035116712e-03
3.205964040355e-03
5.633210761194e-03
5.470096428524e-03
3.349468659420e-03
4.316012489498e-03
6.290645668899e-03
5.066889044332e-03
4.866255092984e-03
3.513811278074e-03
6.008060175093e-03
5.643353601341e-03
2.006177374357e-03
2.030163404165e-03
6.242870489279e-03
2.717340003025e-03
3.030928276529e-03
4.804010908766e-03
4.798192704978e-03
5.550115452949e-03
5.911206140625e-03
4.086135366693e-03
1.110929224603e-02
8.042529304168e-03
9.380370164906e-03
4.073105943506e-03
6.424010663396e-03
5.598216389854e-03
3.155889343856e-03
2.080876808324e-03
1.684831239890e-03
1.076722518266e-02
4.805748266782e-03
2.545899529970e-03
5.665640345273e-03
1.581671347665e-03
2.719505720184e-03
4.089865816188e-03
4.150741350700e-03
5.180317716405e-03
4.079622705219e-03
3.886731369533e-03
5.955413447924e-03
5.808855366257e-03
1.248143934881e-02
5.623880488314e-03
5.662150873932e-03
2.916818177419e-03
4.738197706407e-03
4.724906017287e-03
5.013738577708e-03
4.999205350284e-03
1.705499318236e-02
5.304542939534e-03
4.364446428508e-03
4.836626331640e-03
4.605910815731e-03
4.587318565965e-03
5.089225402943e-03
3.906899070662e-03
3.750017617316e-03
3.537069004234e-03
2.588839608145e-03
5.047138554197e-03
3.933020823055e-03
5.546377694027e-03
1.946527573604e-03
5.421130664064e-03
4.841192871563e-03
1.025755157454e-03
5.462785710146e-03
5.049998438284e-03
5.689077263393e-03
5.605137768792e-03
3.830427027327e-03
4.275713481985e-03
1.034452648196e-03
4.935095539056e-03
9.165803274728e-04
2.306330849804e-03
2.395691521426e-02
3.232809435930e-03
4.778427176324e-03
5.703044928894e-03
4.347082166528e-03
3.002796748421e-03
4.148995897399e-03
3.019092063516e-03
4.547196893399e-03
5.731955823102e-03
5.341623352424e-03
1.354054557860e-03
3.561795838402e-03
4.840119537013e-03
9.649325932679e-04
1.156419684187e-03
1.981954090555e-02
1.472272678795e-03
3.855676984440e-03
6.259135699119e-03
5.639733232520e-03
4.436603250530e-03
2.824213181261e-03
4.438054910322e-03
5.878210086007e-03
4.799073978704e-03
3.631025882734e-03
3.027978513677e-03
8.059375214815e-04
5.095377053932e-03
4.007087122991e-03
1.207289877681e-03
3.054154399225e-03
6.726400674911e-03
5.616162225123e-03
5.771476761292e-03
2.378943900085e-03
2.568229864155e-03
4.729401298327e-03
5.982820025955e-03
5.116893597155e-03
3.780141864939e-03
2.757852932878e-03
1.068864691995e-03
5.742488357776e-03
8.169046774743e-04
3.471132188594e-03
5.976997195660e-03
3.792224331106e-03
5.590779671804e-03
4.928068088590e-03
5.685262055675e-03
3.960311455775e-03
4.602685966077e-03
6.371963431704e-03
5.673486810091e-03
4.691284669015e-03
6.259301689446e-03
2.700307817537e-03
3.496149835990e-03
4.589863780242e-03
5.753633298066e-03
1.929367264792e-03
3.496568385412e-03
4.939582600280e-03
1.368820282863e-03
3.028661144752e-03
5.663738979536e-03
5.807014388648e-03
1.352320283591e-03
1.758509107512e-02
3.526860356291e-03
5.236929301907e-03
0.0
5.763265201970e-03
4.458722862593e-03
3.044071100787e-03
4.287981028573e-03
4.837184790008e-03
3.688235848984e-03
2.600527009266e-02
2.490177180057e-03
3.382376733098e-03
3.778484931935e-03
3.661097340696e-03
3.200278276933e-03
3.401617339723e-03
1.202726893444e-03
4.444142389629e-03
6.423545721371e-03
1.228988637118e-02
5.683473093287e-03
4.880068419398e-03
3.847676400356e-03
4.572298701193e-03
3.295609289569e-03
3.277091984412e-03
3.455826167072e-03
2.723910233362e-03
3.171270214628e-03
6.609505383631e-03
3.979240728433e-03
5.867901631608e-03
2.566077285632e-03
4.397657744471e-03
5.380026001316e-03
3.773471836546e-03
4.175170139352e-03
1.996692285518e-02
5.304162917779e-03
6.430410368232e-03
1.200386500765e-03
3.098141903975e-03
1.437362478677e-02
5.607338238193e-03

SCALARS element_materi_plasti_phimob float
LOOKUP_TABLE default
2.429869091018e+01
2.429869091018e+01
2.380989365574e+01
1.835590089548e+01
1.627829924276e+00
2.429869091018e+01
5.365830816721e-01
2.429869091018e+01
1.860106062175e+00
1.833771231633e+01
2.074104216801e+01
2.429869091018e+01
2.161666230498e+01
7.373113441986e+00
2.165474381744e+01
1.896203178216e+01
3.324580547528e+00
2.429869091018e+01
2.429869091018e+01
1.966354442923e+01
1.824504395971e+01
2.429869091018e+01
2.429869091018e+01
2.421509664353e+01
1.255691597560e+01
2.089761680670e+01
2.429869091018e+01
2.429869091018e+01
1.438193204786e+01
2.408097038051e+01
2.429869091018e+01
1.899374404884e+01
2.345978543583e+01
2.134886508937e+01
2.251231120218e+01
2.191432480800e+01
2.186104628410e+01
2.392691496740e+01
1.513035034731e+00
1.822500218856e-01
2.429869091018e+01
2.260908773789e+01
2.429869091018e+01
2.429869091018e+01
1.762352188352e+01
2.429869091018e+01
2.429869091018e+01
1.798993797785e+01
2.429869091018e+01
8.255003814456e+00
2.429869091018e+01
2.269846354559e+01
2.429869091018e+01
2.429869091018e+01
2.216282326843e+01
1.901282556957e+01
1.787842561173e+01
2.141833388212e+01
2.429869091018e+01
1.890810000545e+01
2.429869091018e+01
2.429869091018e+01
2.429869091018e+01
2.429869091018e+01
2.167936034436e+01
2.429869091018e+01
2.429869091018e+01
2.377108017478e+01
1.667818459958e+01
2.429869091018e+01
2.101990271122e+01
2.217152280849e+01
2.429869091018e+01
2.313857308900e+01
1.897307020356e+01
1.879633471909e+01
2.171398767087e+01
2.429869091018e+01
2.232910189260e+01
2.429869091018e+01
1.737607847876e+01
4.107252931892e+00
2.429869091018e+01
2.429869091018e+01
3.266053738789e+00
1.019903159524e+00
2.107140708761e+01
2.128143039269e+01
2.179557906082e+01
3.822403015736e+00
1.405169563160e+01
1.380326075231e+01
1.403076296164e+01
1.342976889849e+01
2.043651445535e+01
2.316190632440e+01
6.249847982429e+00
2.312181027058e+01
5.535095800944e+00
2.429869091018e+01
2.131024549143e+00
2.169233513871e+01
2.429869091018e+01
2.429869091018e+01
2.429869091018e+01
2.429869091018e+01
2.152337098681e+01
1.533616769652e+01
2.429869091018e+01
2.171724738535e+01
2.184153121796e+01
5.734606189007e+00
2.425084699253e+01
2.429869091018e+01
1.967901571586e+01
2.429869091018e+01
2.429869091018e+01
2.232717194128e+01
3.288843807077e+00
2.429869091018e+01
1.577494377287e+01
1.444286034315e+01
1.566729317260e+01
2.429869091018e+01
2.429869091018e+01
2.429869091018e+01
1.977478174656e+01
2.429869091018e+01
1.958876619569e+01
2.429869091018e+01
2.089881923720e+01
1.842248011473e+01
2.237782908582e+01
2.429869091018e+01
2.290477227559e+01
2.160657914178e+01
2.109633338395e+01
2.267073593809e+01
2.373727936961e+01
2.313979521229e+01
1.902807051050e+01
2.429869091018e+01
1.030345736058e+01
1.053727562952e+01
2.429869091018e+01
2.429869091018e+01
2.204918861991e+01
2.429869091018e+01
6.703128912278e-01
2.429869091018e+01
1.929393128915e+01
-9.175372113848e-01
2.429869091018e+01
2.429869091018e+01
2.279921204838e+01
2.429869091018e+01
2.115295050115e+01
2.429869091018e+01
2.429869091018e+01
-8.462779843130e-01
2.429869091018e+01
2.145016849630e+01
1.389600802364e+01
2.155044868771e+01
1.804385857293e+01
2.185617914103e+01
-1.193415481933e+00
2.429869091018e+01
2.429869091018e+01
2.079050887706e+01
2.429869091018e+01
2.429869091018e+01
1.219035098762e+01
-6.438545933171e-01
2.421232455040e+01
2.429869091018e+01
2.429869091018e+01
2.005967111389e+01
2.398228846372e+01
2.429869091018e+01
2.429869091018e+01
1.982982965808e+01
2.429869091018e+01
2.429869091018e+01
2.429869091018e+01
1.907122766088e+01
2.415454317388e+01
1.892186165202e+01
1.995696117004e+01
2.148468813312e+01
2.429869091018e+01
2.429869091018e+01
2.147035520324e+01
2.096958154138e+01
2.429869091018e+01
2.429869091018e+01
2.240098936270e+01
2.237703712780e+01
1.653906323935e+01
2.020630397146e+01
2.429869091018e+01
1.439360907108e+01
1.256908417980e+01
2.352345515540e+01
1.903351766628e+01
2.290639727707e+01
1.869478364828e+01
1.697517547545e+01
1.863433640846e+01
2.257391172163e+01
2.429869091018e+01
2.386405841084e+01
2.429869091018e+01
2.429869091018e+01
2.429869091018e+01
2.284710948386e+01
2.000932324449e+01
2.429869091018e+01
2.429869091018e+01
1.457515635079e-01
2.429869091018e+01
2.429869091018e+01
1.689024638565e+01
1.769129751699e+01
1.266041904665e+01
2.423598813396e+01
2.429869091018e+01
1.820852335531e+01
1.798804552119e+01
1.799624226544e+01
2.429869091018e+01
2.422696568513e+01
1.500375110004e+01
2.429869091018e+01
2.017289177579e+01
2.173819541217e+01
2.429869091018e+01
2.429869091018e+01
2.429869091018e+01
2.429869091018e+01
2.429869091018e+01
2.193560562736e+01
1.922592569150e+01
2.429869091018e+01
2.429869091018e+01
2.097734584390e+01
2.235833863133e+01
1.782877673095e+01
2.429869091018e+01
2.429869091018e+01
2.429869091018e+01
1.881787194551e+01
2.029166872219e+01
2.325833159700e+01
2.429869091018e+01
-1.894404512323e-01
1.823156095458e+01
1.729285212138e+01
2.429869091018e+01
2.429869091018e+01
2.429869091018e+01
1.765223590686e+01
1.941170162130e+01
2.413468310393e+01
1.796635295096e+01
2.044127616084e+01
2.184343356404e+01
2.189523879765e+01
2.429869091018e+01
2.123722001284e+01
2.424246385056e+01
2.429869091018e+01
2.429869091018e+01
1.219982380919e+01
2.429869091018e+01
2.429869091018e+01
1.890449633806e+01
9.743840549497e+00
1.807247983524e+01
2.429869091018e+01
2.429869091018e+01
2.429869091018e+01
1.883703562295e+01
1.622756017925e+01
2.429869091018e+01
2.429869091018e+01
1.818326326418e+01
1.255659099861e+01
2.429869091018e+01
2.429869091018e+01
2.429869091018e+01
2.429869091018e+01
1.833776653147e+01
2.429869091018e+01
2.429869091018e+01
2.429869091018e+01
2.429869091018e+01
2.429869091018e+01
2.429869091018e+01
2.310489486997e+01
2.424911494998e+01
2.373785534624e+01
2.429869091018e+01
2.429869091018e+01
2.122392867050e+01
2.429869091018e+01
2.429869091018e+01
2.130964138426e+01
1.877741007745e+01
2.429869091018e+01
2.429869091018e+01
2.429869091018e+01
2.302532952794e+01
2.429869091018e+01
2.224868705364e+01
2.429869091018e+01
2.429869091018e+01
2.429869091018e+01
2.429869091018e+01
2.047850312880e+01
2.429869091018e+01
2.429869091018e+01
2.429869091018e+01
2.429869091018e+01
1.062406401160e+01
2.429869091018e+01
2.429869091018e+01
9.782757699525e+00
2.429869091018e+01
2.429869091018e+01
2.429869091018e+01
1.188358262586e+01
2.215288163632e+01
2.429869091018e+01
2.181136014611e+01
1.994142877249e+01
2.060822116838e+01
2.355314753515e+01
2.429869091018e+01
1.383364879503e+01
1.865743383066e+01
2.429869091018e+01
1.695453586742e+01
2.429869091018e+01
2.429869091018e+01
-7.569911705541e-01
2.429869091018e+01
2.429869091018e+01
1.877705002225e+01
2.429869091018e+01
1.976479527534e+01
2.429869091018e+01
2.295020252662e+01
2.370071086563e+01
2.429869091018e+01
2.429869091018e+01
2.013946575412e+01
2.429869091018e+01
2.429869091018e+01
2.142245500143e+01
2.260650821732e+01
2.429869091018e+01
2.085252252522e+01
2.331809545343e+01
2.404581641917e+01
2.111524506449e+01
1.812472130130e+01
2.288495529647e+01
2.429869091018e+01
2.429869091018e+01
2.429869091018e+01
2.301943859960e+01
2.429869091018e+01
2.035024514887e+01
1.963076805123e+01
2.429869091018e+01
2.429869091018e+01
2.060866094131e+01
2.429869091018e+01
2.429869091018e+01
2.387979566687e+01
2.227687913145e+01
2.311357460729e+01
1.772896421818e+01
2.429869091018e+01
2.429869091018e+01
2.429869091018e+01
2.429869091018e+01
9.491555331789e+00
9.920803156379e+00
2.399411571699e+01
2.273354289186e+01
1.773571100998e+01
2.089334825251e+01
2.429869091018e+01
1.300188070498e+01
2.429869091018e+01
2.429869091018e+01
2.429869091018e+01
2.429869091018e+01
-1.125735784173e+00
1.702742991390e+01
2.429869091018e+01
2.200858171094e+01
2.429869091018e+01
1.622974684278e+01
2.429869091018e+01
2.366690340339e+01
2.429869091018e+01
1.993099197878e+01
2.429869091018e+01
1.937846111074e+01
2.220663224168e+01
2.070369045416e+01
1.874023794143e+01
2.379513916285e+01
2.429869091018e+01
2.429869091018e+01
2.429869091018e+01
2.429869091018e+01
2.028090732329e+01
1.896306867361e+01
2.255296172349e+01
2.429869091018e+01
2.429869091018e+01
2.027510714247e+01
1.979210125991e+01
2.429869091018e+01
1.876635282062e+01
2.429869091018e+01
1.893869466206e+01
2.429869091018e+01
2.429869091018e+01
2.429869091018e+01
2.429869091018e+01
2.002832210383e+01
2.429869091018e+01
2.429869091018e+01
2.053999965840e+01
2.392706002914e+01
2.290149235332e+01
2.429869091018e+01
2.429869091018e+01
2.259880325913e+01
2.275040338171e+01
2.295678707280e+00
2.429869091018e+01
2.295554659377e+01
2.429869091018e+01
2.429869091018e+01
2.355716735285e+01
-3.728893617962e+01
2.429869091018e+01
2.243722542836e+01
2.321161510898e+01
2.170063008334e+01
2.429869091018e+01
2.384556447167e+01
2.429869091018e+01
2.429869091018e+01
2.226349270886e+01
1.839005571811e+01
2.203369976476e+01
2.429869091018e+01
2.175735125012e+01
2.316478839333e+01
2.332343853661e+01
1.949952012366e+01
2.429869091018e+01
2.429869091018e+01
2.429869091018e+01
2.295395680264e+01
9.143332708629e+00
1.805864934643e+01
2.293011421173e+01
6.898520667860e+00
2.268270801463e+01
2.429869091018e+01
7.123469516545e+00
2.429869091018e+01
2.429869091018e+01
2.429869091018e+01
2.260897085744e+01
2.429869091018e+01
2.429869091018e+01
2.253298320263e+01
2.022704819929e+01
2.429869091018e+01
2.344944545300e+01
2.234004666489e+01
2.429869091018e+01
2.429869091018e+01
2.429869091018e+01
8.272608074948e+00
2.289396461507e+01
2.429869091018e+01
2.209427636613e+01
2.429869091018e+01
2.429869091018e+01
2.259786897323e+01
-3.791313816788e+01
2.429869091018e+01
1.807698632897e+01
2.419989141504e+01
2.112481262347e+01
2.429869091018e+01
2.429869091018e+01
2.393762744274e+01
2.380041805731e+01
2.429869091018e+01
2.429869091018e+01
2.354846336189e+01
2.429869091018e+01
2.429869091018e+01
7.354112444616e+00
1.943390273605e+01
2.429869091018e+01
2.179200190038e+01
2.276647226786e+01
2.040828012094e+01
2.411394507987e+01
2.429869091018e+01
2.429869091018e+01
2.429869091018e+01
2.369878587753e+01
2.380438612422e+01
2.429869091018e+01
2.429869091018e+01
2.429869091018e+01
2.047115013917e+01
2.429869091018e+01
2.036567185086e+01
2.429869091018e+01
2.429869091018e+01
2.304724452332e+01
1.898627366443e+01
1.907864837286e+01
2.220266146222e+01
2.407300766210e+01
2.429869091018e+01
1.969501018502e+01
2.290732034655e+01
1.974549066239e+01
2.361068774329e+01
2.193168292288e+01
2.322814370660e+01
2.357181008565e+01
1.664066439290e+01
2.429869091018e+01
2.201744958228e+01
2.429869091018e+01
1.726354202562e+01
2.151827313973e+01
2.429869091018e+01
4.698463097885e+00
2.005111047523e+01
2.429869091018e+01
2.257481772698e+01
2.117786924556e+01
8.463977241975e+01
2.429869091018e+01
2.405532292843e+01
2.083133132001e+01
2.429869091018e+01
2.410859469027e+01
7.547972104975e+00
2.209190862032e+01
2.187078429522e+01
2.322211425893e+01
2.070652011422e+01
2.350824989851e+01
2.070339548372e+01
-2.914812781060e+01
1.701194828237e+01
1.965758615242e+01
-3.913307365045e+01
2.050275557389e+01
2.421960168843e+01
1.615118355701e+01
2.429869091018e+01
2.429869091018e+01
2.128614614703e+01
1.641055372063e+01
2.105159375620e+01
2.370136350527e+01
-4.950892411561e+01
1.649343949258e+01
-4.768416683819e-01
1.866268771772e+01
2.429869091018e+01
1.605675529586e+01
2.308684528557e+01
1.919250265597e+01
2.114887681214e+01
2.429869091018e+01
2.429869091018e+01
1.960524181131e+01
1.895401272688e+01
2.277542565131e+01
2.181729264421e+01
1.990718685949e+01
2.071255713363e+01
2.258426749167e+01
2.429869091018e+01
1.596440765849e+01
2.429869091018e+01
2.299372405496e+01
2.063694413230e+01
2.079808317295e+01
1.981067190283e+01
1.970832931086e+01
1.893406858246e+01
-4.783127742061e+01
2.117767655479e+01
1.988600947399e+01
2.429869091018e+01
1.895155325587e+01
2.193240609415e+01
2.429869091018e+01
2.265562950485e+01
2.429869091018e+01
1.500943124144e+01
2.429869091018e+01
1.145919857043e+01
2.283486398695e+01
7.512679033975e+00
3.467540133192e+00
-3.720369805369e+01
1.937128157120e+01
2.429869091018e+01
1.814858519838e+01
1.404332774959e+01
2.006831753655e+01
2.429869091018e+01
1.897238639084e+01
8.950875292742e+00
7.726931392795e+00
2.429869091018e+01
2.361817107114e+01
4.574269268333e+00
1.913642180136e+01
2.429869091018e+01
2.085818807335e+01
1.974918924751e+01
4.422678789769e+00
1.025753692464e+01
1.926787799291e+01
1.953764959638e+01
1.869614810960e+01
1.175177990513e+01
1.329810560950e+01
2.407606808204e+01
2.391554222785e+01
1.955832341630e+01
1.334575603333e+01
-3.674579058427e+01
1.340771595192e+01
2.100386735293e+01
2.156748588708e+01
1.454887857054e+01
1.481549190847e+01
7.347232285659e+00
2.429869091018e+01
-1.532156348427e+01
2.429869091018e+01
2.429869091018e+01
2.171055746788e+01
8.652890831549e+00
2.206235958762e+01
1.982354167228e+01
2.113727646319e+01
1.980543158278e+01
1.939725497427e+01
5.437029858108e+00
2.429869091018e+01
2.049963525198e+01
2.429869091018e+01
2.429869091018e+01
1.352911001248e+01
1.736803878688e+01
1.950841434679e+01
2.175069206349e+01
1.840279169637e+01
-3.762951997902e+01
2.002307980222e+01
2.169076210486e+01
2.180278424738e+01
2.267637503880e+01
1.269055834826e+01
1.570812560759e+01
2.168380542790e+01
2.169098951835e+01
1.482247618321e+01
-5.412268486538e+01
4.033514772417e+00
4.345412867216e+00
-3.737273307428e+01
2.170851192841e+01
2.249668968825e+01
2.172365028189e+01
-4.418597182884e+01
-4.581161450524e+01
2.177613443295e+01
2.174738053823e+01
1.135608699017e+01
3.669953223084e+00
1.383114386620e+01
1.659552404391e+00
3.552001230939e+00
-4.717761217979e+01
-4.522082464812e+01
-4.828830987455e+01
-5.554623821553e+01
2.017456266456e+01
1.985259028267e+01
-3.552397938999e+01
2.088079252013e+01
-3.359539598137e+01
2.277102008668e+01
2.024521841369e+01
2.125803911893e+01
2.429869091018e+01
1.869663668900e+01
2.003708755125e+01
2.142045160291e+01
1.995166419616e+01
2.152308054408e+01
2.160248025144e+01
1.969192943553e+01
1.941840438832e+01
1.945722825386e+01
2.146643442524e+01
2.156075839125e+01
2.115182609547e+01
-3.898549289811e+01
2.038431802998e+01
1.436388493412e+01
2.234792087415e+01
2.063286245615e+01
2.182264423515e+01
1.806248553386e+01
2.329260109121e+01
2.171721047743e+01
2.048190623075e+01
1.939990815415e+01
2.167400456854e+01
1.710545480708e+01
1.934207456871e+01
2.410467109383e+01
2.203025321704e+01
2.119091862215e+01
2.121260977072e+01
2.429869091018e+01
2.370100173748e+01
2.429869091018e+01
2.117763227571e+01
2.159309198030e+01
2.140637066540e+01
1.799270428435e+01
1.696494355556e+01
1.539647505859e+01
-4.545433519231e-01
2.184900878490e+01
2.118225858729e+01
1.706899490717e+01
1.629011224264e+01
2.141798024200e+01
2.162975380378e+01
1.504397438791e+01
2.123065351461e+01
2.211841678544e+01
1.692922737227e+01
1.189898766508e+01
2.359074981001e+01
1.861932982761e+01
1.807756674504e+01
1.587788142558e+01
1.943061934913e+01
1.623447720883e+01
2.159944863558e+01
1.278982237879e+01
2.105340118319e+01
1.281884417768e-01
2.176164122423e+01
2.156623030148e+01
2.076782600067e+01
2.144765285763e+01
7.634582776613e-01
2.429869091018e+01
2.203214311655e+01
1.790515023573e+01
2.253099263238e+01
1.330543124275e+01
1.857701002759e+01
1.865999944802e+01
2.048763533349e+01
7.956916962609e+00
1.986742408851e+01
1.450650183843e+01
1.055437239647e+01
2.065351799485e+01
2.119043683739e+01
2.144473536914e+01
1.334987509125e+01
1.968138513536e+01
2.045225252984e+01
2.429869091018e+01
1.424200585494e+01
2.026894712167e+01
2.134307767557e+01
2.282453915934e+01
1.186477026906e+01
2.429869091018e+01
2.213817414035e+01
2.429869091018e+01
2.170239903708e+01
1.012316826819e+01
2.068459184001e+01
2.542476449940e+00
2.429869091018e+01
2.064714971752e+01
2.166378810815e+01
1.870088111209e+01
2.233249440571e+01
2.064512626933e+01
1.853714833080e+01
2.043694642708e+01
2.017363513483e+01
1.914503808336e+01
2.070956392159e+01
-3.563320012761e+01
-3.357287251804e+01
2.114132603436e+01
1.984654407237e+01
2.128440326293e+01
2.130369846849e+01
2.029308524709e+01
2.122627185326e+01
1.592910812961e+01
2.429869091018e+01
2.014523933015e+01
2.429869091018e+01
1.853472523854e+01
6.368039597957e+00
2.026891946071e+00
1.716236034762e+01
2.320036579779e+01
1.289489539497e+01
1.813951006663e+01
1.668592957913e+01
1.681471965768e+01
1.924587449373e+01
2.429869091018e+01
1.865705580969e+01
2.128586564333e+01
2.067178378651e+01
1.968021095080e+01
1.600843513546e+01
2.127929863695e+01
2.178558980321e+01
1.697872194493e+01
2.174446885152e+01
1.279175109546e+01
2.064750066281e+01
1.027050073618e+01
1.404810845146e+01
2.429869091018e+01
1.518184101809e+01
2.025946817238e+01
2.063024642536e+01
2.001236061933e+01
1.957188277150e+01
1.152323659093e+01
2.088146419023e+01
1.920835098893e+01
1.828552144020e+01
1.164162485868e+01
1.864353405353e+01
2.278934842412e+01
1.302082317268e+01
2.201521999447e+01
2.289195994163e+01
2.024746957568e+01
1.826646666648e+01
1.492822358048e+01
2.176914440441e+01
8.498254963814e+00
1.744014398530e+01
1.990245457233e+01
2.211725311266e+01
8.383471911561e+00
2.022262903101e+01
2.193275419242e+01
1.984645206239e+01
1.532831916423e+01
1.931565733528e+01
2.258852652536e+01
1.792764798564e+01
2.176975352120e+01
2.043884681937e+01
2.223569437443e+01
2.429869091018e+01
1.785619175091e+01
3.903018463125e+00
2.429869091018e+01
2.429869091018e+01
8.652203387400e+00
1.891412063555e+01
9.802425931740e+00
2.323085417777e+01
2.264352469826e+01
2.429869091018e+01
2.429869091018e+01
1.749018001965e+01
2.141320861507e+01
1.719211751805e+01
2.191507090877e+01
2.322478241142e+01
2.106799270501e+01
2.178969881270e+01
1.302080284835e+01
2.335659781922e+01
2.180896176441e+01
5.229400457469e+00
1.904136979445e+01
1.956165709255e+01
2.429869091018e+01
2.244644409600e+01
2.382329549797e+01
2.429869091018e+01
1.135922259868e+01
5.817977954718e+00
5.582730150638e+00
2.046069616782e+01
2.360007858414e+01
2.213233051712e+01
4.070563243038e+00
2.235959468700e+01
2.429869091018e+01
2.264564725662e+01
1.406593805438e+01
1.969471696265e+01
1.960541506515e+01
1.804389391936e+01
2.293697753633e+01
1.989047800712e+01
1.012342467095e+01
8.631487784463e+00
2.429869091018e+01
1.927366743242e+01
2.429869091018e+01
1.957331211775e+01
1.982168194914e+01
1.772519217029e+01
2.402064507066e+01
2.051117065548e+01
1.510450533326e+01
2.137092948055e+01
2.312680970522e+01
2.142852240997e+01
2.429869091018e+01
1.876945317098e+01
2.377132043473e+01
2.339355753547e+01
2.429869091018e+01
2.008975220793e+01
2.230469597068e+01
9.731528507372e+00
1.994977609950e+01
2.420738715806e+01
1.958502695429e+01
1.982870742313e+01
1.985368700034e+01
1.905593976835e+01
1.914753100655e+01
2.074344519063e+01
2.287394141829e+01
2.429869091018e+01
-4.232902174347e+01
2.429869091018e+01
2.225057029911e+01
2.032864829940e+01
7.666369900886e+00
2.075735758834e+01
1.967331087475e+01
2.006059945385e+01
1.431365266695e+01
1.996238152997e+01
1.889267676221e+01
1.636920181065e+01
1.997807658926e+01
1.962828506892e+01
2.351685374943e+01
2.055180099459e+01
1.826574634976e+01
2.071853645832e+01
9.618352096964e+00
1.971380410110e+01
2.424796576507e+01
2.429869091018e+01
1.798436408511e+01
1.625264886657e+01
2.429869091018e+01
2.429869091018e+01
2.429869091018e+01
1.980138628543e+01
2.019592182344e+01
2.429869091018e+01
2.429869091018e+01
1.933097756303e+01
2.009032655707e+01
2.167986675386e+01
2.291590622482e+01
1.946114410050e+01
2.185504211178e+01
2.429869091018e+01
2.429869091018e+01
1.934467160136e+01
2.429869091018e+01
1.171096974000e+01
2.429869091018e+01
2.425553336894e+01
2.147356983048e+01
2.429869091018e+01
2.250661621134e+01
2.429869091018e+01
2.277317811339e+01
1.982539678488e+01
1.903697353859e+01
1.793745917186e+01
2.357846895058e+01
2.429869091018e+01
2.033934945066e+01
2.429869091018e+01
1.877888921573e+01
1.912931484540e+01
1.651967932668e+01
2.429869091018e+01
1.686447734621e+01
2.429869091018e+01
5.237030959723e+00
1.523668261122e+01
2.429869091018e+01
2.429869091018e+01
1.778842651286e+01
2.301868972793e+01
1.317524284637e+01
2.429869091018e+01
2.107715309603e+01
1.454995018074e+01
2.429869091018e+01
2.391809907729e+01
2.062211510131e+01
6.445090400061e+00
2.825608463323e+00
2.174974329822e+01
2.329041378959e+01
2.373188901306e+01
1.947636940311e+01
2.429869091018e+01
2.429869091018e+01
2.429869091018e+01
2.429869091018e+01
1.822717355623e+01
2.104215069649e+01
1.674566701427e+01
2.331444690603e+01
1.649458974014e+01
2.274003536289e+01
1.758034526283e+01
1.401469943975e+01
2.036681121016e+01
2.429869091018e+01
1.428412816696e+01
1.690056313460e+01
1.399073038749e+01
1.286769460650e+01
2.343915010871e+01
2.429869091018e+01
2.383886672832e+01
2.214274709859e+01
2.429869091018e+01
2.429869091018e+01
1.636565418086e+01
1.885015355543e+01
2.429869091018e+01
2.429869091018e+01
2.429869091018e+01
2.429869091018e+01
2.429869091018e+01
2.429869091018e+01
2.074712536490e+01
2.097506399495e+01
1.186336139758e+01
7.040427460389e-01
2.429869091018e+01
2.119787100410e+01
2.429869091018e+01
2.085559398965e+01
2.429869091018e+01
2.130609687690e+01
1.059170753047e+01
2.429869091018e+01
2.429869091018e+01
2.429869091018e+01
2.140520660408e+01
2.324400948748e+01
2.429869091018e+01
2.363125208500e+01
2.429869091018e+01
2.429869091018e+01
1.409276236997e+01
2.429869091018e+01
2.380112171835e+01
2.429869091018e+01
1.236626828174e+01
2.429869091018e+01
1.514919144905e+01
2.429869091018e+01
2.429869091018e+01
2.084056691816e+01
2.429869091018e+01
1.599064505483e+01
1.924335193113e+01
2.429869091018e+01
2.429869091018e+01
1.756315875140e+01
2.398145450572e+01
2.422205713667e+01
1.346135785959e+01
2.090516165423e+01
2.429869091018e+01
2.429869091018e+01
1.995984910352e+01
2.429869091018e+01
2.341753238991e+01
2.429869091018e+01
2.173282738884e+01
2.429869091018e+01
2.301894725110e+01
2.429869091018e+01
1.377298274518e+01
2.429869091018e+01
2.388711571862e+01
2.094398883787e+01
1.957948883498e+01
2.429869091018e+01
2.406685958225e+01
2.429869091018e+01
2.407293441540e+01
1.682124662892e+01
2.429869091018e+01
1.170513493617e+01
2.103836686731e+01
1.582796784938e+01
1.700760319644e+01
2.429869091018e+01
2.275467233293e+01
1.507405239144e+01
2.429869091018e+01
2.429869091018e+01
2.429869091018e+01
2.429869091018e+01
1.957457779819e+01
2.429869091018e+01
2.429869091018e+01
2.429869091018e+01
2.429869091018e+01
1.826556991828e+01
1.918599859890e+01
2.429869091018e+01
1.633112683472e+01
2.429869091018e+01
2.429869091018e+01
2.429869091018e+01
2.348382795487e+01
2.429869091018e+01
2.429869091018e+01
2.429869091018e+01
2.429869091018e+01
2.429869091018e+01
2.429869091018e+01
2.429869091018e+01
2.429869091018e+01
2.429869091018e+01
1.693018312739e+01
2.243198382418e+01
2.274064632146e+01
2.429869091018e+01
2.429869091018e+01
1.682520852917e+01
2.429869091018e+01
2.243887309762e+01
1.561252243335e+01
1.683007805003e+01
2.429869091018e+01
2.429869091018e+01
2.429869091018e+01
2.213780227946e+01
2.429869091018e+01
2.429869091018e+01
2.422617233191e+01
2.398275201518e+01
2.217544393538e+01
1.551700585853e+01
2.429869091018e+01
2.429869091018e+01
2.429869091018e+01
1.597733569578e+01
2.429869091018e+01
1.253675197503e+01
2.429869091018e+01
2.429869091018e+01
2.429869091018e+01
2.429869091018e+01
1.777771228692e+01
2.429869091018e+01
2.429869091018e+01
2.429869091018e+01
2.429869091018e+01
2.429869091018e+01
2.429869091018e+01
2.429869091018e+01
2.429869091018e+01
2.429869091018e+01
2.429869091018e+01
1.955025737664e+01
2.197507742997e+01
2.100018084719e+01
2.429869091018e+01
1.840090521290e+01
1.595900223881e+01
2.320431122643e+01
2.429869091018e+01
2.267748179528e+01
1.475054031314e+01
1.913955171047e+01
1.733446838192e+01
2.429869091018e+01
2.429869091018e+01
1.751874597486e+01
2.429869091018e+01
2.429869091018e+01
2.429869091018e+01
1.632994150652e+01
2.385242165225e+01
2.429869091018e+01
2.346064869120e+01
2.429869091018e+01
2.429869091018e+01
2.429869091018e+01
2.429869091018e+01
1.979224067990e+01
2.290973224187e+01
2.429869091018e+01
2.429869091018e+01
1.542612285565e+01
2.295378633582e+01
2.429869091018e+01
2.429869091018e+01
2.188351121428e+01
2.429869091018e+01
2.429869091018e+01
2.429869091018e+01
2.429869091018e+01
2.341037444422e+01
2.429869091018e+01
1.384382970122e+01
2.126818063758e+01
2.429869091018e+01
2.217551962475e+01
2.429869091018e+01
2.429869091018e+01
2.429869091018e+01
2.429869091018e+01
2.429869091018e+01
2.429869091018e+01
2.429869091018e+01
2.429869091018e+01
2.429869091018e+01
2.239232953828e+01
1.834917184882e+01
2.378366899889e+01
2.429869091018e+01
2.429869091018e+01
2.429869091018e+01
2.185810790957e+01
2.048055658644e+01
2.429869091018e+01
1.282617443929e+01
2.241371726886e+01
2.328447436512e+01
2.919870422054e+00
2.723126356556e+00
1.965104679892e+01
2.429869091018e+01
2.118665695734e+01
2.303015555813e+01
2.429869091018e+01
2.429869091018e+01
2.429869091018e+01
2.131856518673e+01
1.536425061431e+01
2.429869091018e+01
2.122296010409e+01
2.429869091018e+01
2.058762691047e+01
2.429869091018e+01
2.373478420841e+01
1.468595184073e+01
2.366231116274e+01
2.343231942147e+01
2.429869091018e+01
2.084391418894e+01
2.306834039682e+01
2.160065953688e+01
2.157645287052e+01
2.429869091018e+01
2.053838171719e+01
2.429869091018e+01
2.429869091018e+01
2.045409750816e+01
2.429869091018e+01
2.429869091018e+01
1.557817525507e+01
2.429869091018e+01
2.105995643291e+01
2.429869091018e+01
2.429869091018e+01
2.424808892052e+01
1.731434295903e+01
2.091883741894e+01
2.246936823459e+01
2.429869091018e+01
2.429869091018e+01
2.429869091018e+01
2.429869091018e+01
1.728111043208e+01
2.429869091018e+01
2.217897510853e+01
2.423257898764e+01
2.429869091018e+01
2.429869091018e+01
1.824366288536e+01
2.429869091018e+01
2.429869091018e+01
2.429869091018e+01
2.429869091018e+01
2.429869091018e+01
2.429869091018e+01
1.653726486309e+01
2.429869091018e+01
2.429869091018e+01
1.967108791528e+01
2.429869091018e+01
2.429869091018e+01
2.429869091018e+01
2.218520325295e+01
2.429869091018e+01
2.115968012129e+01
2.104203059205e+01
1.986365996768e+01
2.409767042430e+01
2.429869091018e+01
2.429869091018e+01
2.429869091018e+01
2.429869091018e+01
2.429869091018e+01
2.429869091018e+01
2.429869091018e+01
2.272526337404e+01
2.429869091018e+01
2.357825008542e+01
2.429869091018e+01
2.429869091018e+01
2.429869091018e+01
1.490605917507e+01
2.221833883715e+01
2.198930618969e+01
2.429869091018e+01
2.411011685327e+01
2.194776514816e+01
2.429869091018e+01
2.101992732232e+01
2.429869091018e+01
2.200141994826e+01
2.429869091018e+01
2.051824323686e+01
2.429869091018e+01
1.590522048835e+01
1.533780043372e+01
2.429869091018e+01
2.429869091018e+01
2.429869091018e+01
2.183838925643e+01
2.429869091018e+01
2.429869091018e+01
2.429869091018e+01
2.429869091018e+01
2.429869091018e+01
2.429869091018e+01
1.591220446187e+01
2.800308914575e+00
2.429869091018e+01
2.429869091018e+01
2.429869091018e+01
2.149319959894e+01
2.429869091018e+01
2.192587950786e+01
2.429869091018e+01
2.429869091018e+01
2.429869091018e+01
2.429869091018e+01
2.429869091018e+01
1.981515048055e+01
2.429869091018e+01
2.429869091018e+01
2.401423313497e+01
2.429869091018e+01
2.429869091018e+01
2.429869091018e+01
2.118967609968e+01
2.347673376764e+01
2.429869091018e+01
2.429869091018e+01
2.429869091018e+01
2.065650531115e+01
2.101680606932e+01
2.429869091018e+01
1.688081973551e+01
2.429869091018e+01
2.330057253619e+01
2.429869091018e+01
2.429869091018e+01
2.429869091018e+01
2.083986021573e+01
2.429869091018e+01
2.429869091018e+01
2.429869091018e+01
2.429869091018e+01
2.429869091018e+01
2.372900066979e+01
2.429869091018e+01
2.088977800803e+01
2.083156940982e+01
1.888403457186e+01
1.729855026085e+01
1.762823673541e+01
2.113807923087e+01
2.383153403762e+01
2.429869091018e+01
1.746695712753e+01
2.081316133517e+01
2.429869091018e+01
2.429869091018e+01
2.429869091018e+01
2.100647696565e+01
1.906057943686e+01
2.084672493168e+01
2.429869091018e+01
2.429869091018e+01
5.113871946590e+00
2.429869091018e+01
2.082073821139e+01
2.098586766392e+01
2.429869091018e+01
2.429869091018e+01
2.087303433296e+01
9.722563733179e+00
5.543854350257e+00
2.429869091018e+01
2.101363392374e+01
2.414599072323e+01
2.429869091018e+01
2.429869091018e+01
1.654618192290e+01
2.388804493868e+01
2.429869091018e+01
2.429869091018e+01
2.085062400784e+01
1.852563174389e+01
1.966542886856e+01
2.098386385341e+01
2.429869091018e+01
2.110324993009e+01
2.429869091018e+01
1.642298077688e+01
2.429869091018e+01
2.429869091018e+01
2.429869091018e+01
2.103032517344e+01
2.099858256527e+01
2.429869091018e+01
1.404219467076e+01
2.429869091018e+01
2.105107175883e+01
2.429869091018e+01
2.163863074034e+01
2.429869091018e+01
2.429869091018e+01
2.384178684729e+01
2.345552387869e+01
8.527826761472e+00
1.977017632639e+01
2.168610133265e+01
-1.172427223798e+00
2.310223259733e+01
2.429869091018e+01
2.429869091018e+01
2.274330154777e+01
2.429869091018e+01
1.751999594838e+01
1.859742792726e+01
2.429869091018e+01
2.416508946823e+01
1.882101522162e+01
2.390967184792e+01
1.811131537031e+01
2.034786134623e+01
2.429869091018e+01
2.235518862440e+01
2.429869091018e+01
2.089813544515e+01
2.041938407639e+01
2.153274103386e+01
2.429869091018e+01
2.429869091018e+01
1.900168958713e+01
2.429869091018e+01
1.908444289010e+01
1.992564056194e+01
1.994123256617e+01
2.429869091018e+01
2.429869091018e+01
2.429869091018e+01
2.429869091018e+01
1.950987127272e+01
2.429869091018e+01
2.429869091018e+01
2.429869091018e+01
2.362460582075e+01
2.429869091018e+01
1.271424339097e+01
2.429869091018e+01
2.429869091018e+01
2.429869091018e+01
2.429869091018e+01
2.397295656927e+01
2.333134932508e+01
2.429869091018e+01
2.429869091018e+01
2.429869091018e+01
2.429869091018e+01
2.429869091018e+01
2.429869091018e+01
2.429869091018e+01
8.595745594249e+00
1.915511703899e+01
2.429869091018e+01
2.429869091018e+01
2.429869091018e+01
2.429869091018e+01
1.776209106060e+01
1.645216719454e+01
8.582225685673e+00
2.429869091018e+01
1.828074787033e+01
1.856923669000e+01
2.429869091018e+01
2.429869091018e+01
2.429869091018e+01
2.429869091018e+01
3.831040232009e+00
2.240871946328e+01
1.753490900381e+01
2.429869091018e+01
2.429869091018e+01
2.204551044620e+01
2.223941134986e+01
2.429869091018e+01
1.232491339913e+01
2.429869091018e+01
2.106848096204e+01
2.100821830617e+01
1.679776149821e+01
2.049620860338e+01
2.416160549771e+01
2.429869091018e+01
1.990316946536e+01
1.849173450916e+01
2.429869091018e+01
7.543401805545e+00
1.812446735731e+01
2.429869091018e+01
2.372200786311e+01
-8.004107516597e-01
1.904426284175e+01
2.429869091018e+01
2.429869091018e+01
2.411891924871e+01
2.410251452121e+01
2.165409855457e+01
1.822656307851e+01
2.059056120881e+01
1.952263032355e+01
2.429869091018e+01
2.429869091018e+01
2.429869091018e+01
5.092694798535e+00
2.429869091018e+01
1.908550839983e+01
2.429869091018e+01
2.208013852019e+01
2.226851298704e+01
2.394468206864e+01
6.699174243261e+00
1.937753264161e+01
2.429869091018e+01
2.429869091018e+01
2.429869091018e+01
2.429869091018e+01
2.256069610893e+01
2.429869091018e+01
2.429869091018e+01
1.683631861061e+01
2.310827543347e+01
1.762531980799e+01
1.535482365368e+01
1.936760025058e+01
2.170955435438e+01
-1.152105040313e+00
2.162554677958e+01
2.429869091018e+01
2.101506118664e+01
2.170503081750e+01
2.429869091018e+01
2.429869091018e+01
2.429869091018e+01
2.171194161325e+00
1.773512843745e+01
2.429869091018e+01
2.429869091018e+01
2.281985444154e+01
-4.773650860345e-01
1.914045174224e+01
1.954975961221e+01
1.119785457576e+01
2.429869091018e+01
2.429869091018e+01
-8.882785744809e-01
-5.500461513625e-01
1.417324230863e+00
2.429869091018e+01
1.896440946035e+01
1.876893837839e+01
6.632145232589e+00
2.347826768108e+01
2.342807063558e+01
2.257993776616e+01
1.856825994064e+01
1.998697470637e+01
1.995901306542e+01
2.324884764978e+01
2.429869091018e+01
1.858306676120e+01
2.312201478189e+01
2.429869091018e+01
-9.828279950591e-01
2.429869091018e+01
1.741003844517e+01
1.156011986234e+01
1.990546455466e+01
7.052715489868e+00
1.879709811683e+01
2.402866858188e+01
6.649791484962e+00
2.203127911397e+01
1.884277548782e+01
2.311135795821e+01
1.824013081683e+01
2.169695956982e+01
2.221597199431e+01
2.429869091018e+01
9.720703125791e+00
1.992771019510e+01
2.429869091018e+01
2.329565508708e+01
1.394947975969e+01
2.332875157372e+01
2.429869091018e+01
2.198646918574e+01
2.429869091018e+01
2.429869091018e+01
2.361665060449e+01
2.027776179026e+01
1.950586843686e+01
-1.524387048437e-01
1.386872436567e+01
2.429869091018e+01
2.429869091018e+01
1.930579038607e+01
2.429869091018e+01
2.429869091018e+01
4.647698711247e+00
1.997245236395e+01
1.933819339742e+01
1.974538235105e+01
-5.509480961474e+01
-3.029215497984e+01
9.930316821630e-01
4.463542871444e+00
2.168724661917e+01
2.166972850237e+01
8.936082407919e+00
2.256343313813e+01
2.178667870011e+01
2.429869091018e+01
2.429869091018e+01
2.220137281118e+01
2.073948680423e+01
2.035733355434e+01
8.793549285121e+00
2.208774808463e+01
2.429869091018e+01
2.429869091018e+01
2.018354556949e+01
2.429869091018e+01
1.719184046503e+01
2.026770350956e+01
3.675470617935e+00
2.429869091018e+01
2.359189735876e+01
2.310786096817e+01
5.213367277996e+00
2.429869091018e+01
2.139853046829e+01
1.850764260720e+01
1.002749368802e+01
2.429869091018e+01
2.429869091018e+01
2.244015906825e+01
1.130941760372e+01
2.172436578744e+01
2.429869091018e+01
2.429869091018e+01
2.095787722427e+01
2.429869091018e+01
2.429869091018e+01
2.429869091018e+01
1.076510807492e+01
2.429869091018e+01
1.810297738793e+01
2.319455656507e+01
1.585997005543e+01
1.251924405541e+01
2.429869091018e+01
1.210519476889e+01
1.949077363720e+01
1.933561705564e+01
2.429869091018e+01
2.429869091018e+01
2.840963298772e+00
2.346046686292e+01
2.429869091018e+01
1.304120506219e+01
2.348130951978e+01
2.004195371001e+01
1.857942316005e+01
2.429869091018e+01
1.864692466699e+01
2.429869091018e+01
2.429869091018e+01
2.429869091018e+01
2.171569722123e+01
2.302613321240e+01
2.429869091018e+01
2.429869091018e+01
2.353038521550e+01
1.013688833573e+01
2.157857739561e+01
2.429869091018e+01
2.202375696094e+01
1.449556342498e+01
2.327303585343e+01
2.330759544095e+01
2.379006665412e+01
1.935678597710e+01
2.195034163547e+01
4.874141969545e+00
1.762234640749e+01
1.132182590833e+01
1.653856769089e+01
1.149568766983e+01
2.429869091018e+01
2.429869091018e+01
2.389470178720e+01
1.919859288242e+01
1.781770481111e+01
2.423114241175e+01
3.024482646500e+00
1.065162542204e+01
2.429869091018e+01
2.403574343382e+01
1.479006810872e+01
2.429869091018e+01
2.012123003776e+01
2.162425739778e+01
2.237755112021e+01
1.507783187662e+01
2.007902973956e+01
2.291486946269e+01
2.429869091018e+01
2.429869091018e+01
2.429869091018e+01
2.429869091018e+01
8.715539604775e+00
2.429869091018e+01
2.174853888858e+01
2.429869091018e+01
2.429869091018e+01
2.429869091018e+01
2.053776289206e+01
2.267540848338e+01
2.429869091018e+01
1.819233092892e+01
2.367684615067e+01
2.429869091018e+01
6.467667381680e+00
2.172988623055e+01
2.429869091018e+01
5.610896459017e+00
2.081864062869e+01
1.749505730109e+01
2.179035096769e+01
1.367929332182e+01
2.429869091018e+01
1.994646618474e+01
2.429869091018e+01
1.808343150226e+01
2.195326698616e+01
1.894201452950e+01
2.429869091018e+01
2.235485395323e+01
1.936090814381e+01
2.170862559390e+01
-1.050907799053e+00
2.379454110919e+01
2.429869091018e+01
1.938805938428e+01
1.559269960151e+01
2.278233926606e+01
2.135117212682e+01
2.429869091018e+01
2.429869091018e+01
1.341373497821e+01
1.911550147279e+01
2.248392461020e+01
9.746744588702e+00
2.429869091018e+01
1.994263828958e+01
1.164933811324e+01
2.429869091018e+01
1.951351904099e+01
4.558576861545e+00
2.429869091018e+01
1.888447479711e+01
-3.993186625941e+01
4.264501815841e+00
2.161899005788e+01
1.911310091164e+01
2.429869091018e+01
2.085962850870e+01
1.867540298071e+01
2.429869091018e+01
2.429869091018e+01
2.048167667077e+01
1.566966149398e+01
1.008185198578e+01
2.090398599148e+01
8.575533662989e+00
2.020043589495e+01
4.969250957128e+00
2.429869091018e+01
2.058724181371e+01
2.429869091018e+01
1.934970680606e+01
2.028223092670e+01
2.065672021804e+01
2.429869091018e+01
2.015466272620e+01
2.030359750812e+01
2.429869091018e+01
2.243798699487e+01
2.429869091018e+01
2.429869091018e+01
1.891966811262e+01
2.162972231690e+01
-7.725532372829e-01
8.493311265954e+00
2.015770525387e+01
2.024103810315e+01
2.036620226023e+01
2.429869091018e+01
1.966339792501e+01
2.429869091018e+01
-1.323515912418e+00
1.967058585044e+01
2.429869091018e+01
5.111418826662e+00
2.421001332831e+01
2.429869091018e+01
2.429869091018e+01
2.429869091018e+01
2.429869091018e+01
2.429869091018e+01
1.939832015638e+01
2.003337662925e+01
2.429869091018e+01
2.427014877303e+01


